c bounds 64 64
p cnf 194 217
137 -129 0
31 -96 0
68 -35 0
-130 193 0
53 4 0
24 143 0
18 -194 0
-17 170 0
32 13 0
31 177 0
-186 -147 0
69 -108 0
131 7 0
-147 50 0
-60 185 0
-140 -61 0
-114 80 0
-77 -113 0
-126 114 0
86 -105 0
61 65 0
183 -68 0
-60 28 0
-153 137 0
158 -151 0
-52 100 0
14 154 0
-5 41 0
65 6 0
-18 38 0
29 139 0
-134 169 0
-190 53 0
-26 -123 0
-88 -143 0
158 -60 0
27 -194 0
-46 134 0
-137 165 0
-62 118 0
22 147 0
-161 115 0
101 -159 0
-176 87 0
-85 24 0
-35 171 0
159 -185 0
117 -122 0
-185 13 0
-107 141 0
-57 70 0
46 -140 0
139 -121 0
179 -116 0
-69 -147 0
95 -18 0
158 28 0
-15 -186 0
103 -99 0
105 166 0
33 -67 0
4 -146 0
-67 94 0
111 -17 0
-40 -152 0
112 -174 0
86 -178 0
105 -114 0
-42 2 0
-108 -83 0
-13 -63 0
-185 -124 0
-161 153 0
-170 41 0
-168 -122 0
59 91 0
43 -50 0
34 142 0
151 -140 0
121 191 0
-52 102 0
-32 177 0
-140 -55 0
49 -71 0
177 178 0
73 -144 0
130 68 0
-136 142 0
158 65 0
-141 -30 0
-34 60 0
-146 27 0
107 158 0
-79 -64 0
94 173 0
-63 51 0
-134 -174 0
172 169 0
191 135 0
-42 141 0
73 133 0
158 86 0
-88 -106 0
78 104 0
51 -119 0
-107 -62 0
-119 -10 0
76 16 0
172 70 0
159 -75 0
109 55 0
155 -126 0
115 66 0
-63 3 0
-3 111 0
-151 -26 0
6 -85 0
26 -56 0
-45 -188 0
109 59 0
82 -95 0
145 19 0
33 39 0
-57 -30 0
-104 143 0
-4 -121 0
177 -193 0
41 65 0
143 -88 0
-54 179 0
-10 -161 0
187 80 0
57 -76 0
47 146 0
139 176 0
-121 186 0
-104 91 0
-58 151 0
171 -44 0
-170 77 0
-58 -188 0
82 187 0
141 8 0
82 -26 0
-61 -116 0
-36 -188 0
-136 109 0
98 29 0
-194 141 0
-27 135 0
8 92 0
83 165 0
81 117 0
46 -80 0
-181 -52 0
159 102 0
76 -68 0
85 -118 0
-22 57 0
125 -42 0
4 -174 0
-90 112 0
95 104 0
168 -46 0
109 -138 0
42 -167 0
78 13 0
74 165 0
72 120 0
41 -134 0
13 20 0
-124 -36 0
144 6 0
185 14 0
-190 -177 0
17 38 0
-99 -156 0
-97 -170 0
6 -26 0
-190 35 0
-168 112 0
-92 -162 0
165 -180 0
-35 4 0
-148 149 0
143 65 0
146 65 0
-37 -68 0
-115 31 0
-25 -120 0
-116 72 0
57 166 0
-162 178 0
118 -49 0
-80 186 0
2 -144 0
5 -7 0
-136 167 0
187 -15 0
104 -87 0
-10 -74 0
126 -51 0
-147 53 0
24 143 0
-34 143 0
183 -183 0
-15 41 0
79 141 0
43 -26 0
-60 76 0
-108 129 0
33 63 0
-122 73 0
-181 -44 0
-91 115 0
-59 -136 0
-89 112 0
