c bounds 30 30
p cnf 289 952
-64 98 0
229 102 0
-89 208 0
97 65 0
-280 -140 0
9 -227 0
-144 104 0
-223 67 0
72 122 0
169 -210 0
32 -58 0
-51 193 0
41 -193 0
71 82 0
-118 115 0
-225 132 0
96 -45 0
-123 106 0
260 -70 0
68 120 0
-282 159 0
-250 56 0
-142 -201 0
57 -162 0
44 82 0
162 40 0
-140 232 0
-37 52 0
-193 91 0
149 -121 0
-250 -218 0
-10 265 0
-104 111 0
109 129 0
-224 -237 0
68 233 0
-39 242 0
242 176 0
58 154 0
-128 -155 0
148 -81 0
-164 77 0
191 -181 0
120 234 0
244 -262 0
90 -239 0
162 2 0
164 216 0
-103 8 0
9 276 0
31 -91 0
275 107 0
-101 2 0
178 -141 0
-146 -195 0
181 -284 0
-240 27 0
-117 173 0
-25 235 0
55 -155 0
226 -6 0
201 -237 0
106 110 0
-143 -2 0
-3 -137 0
280 3 0
267 -19 0
-94 96 0
-115 94 0
-107 -88 0
204 98 0
251 -78 0
-138 -85 0
135 -44 0
-161 -192 0
-143 -207 0
83 224 0
238 -174 0
218 168 0
-75 -189 0
138 -188 0
-253 -282 0
83 -237 0
198 127 0
184 -252 0
20 43 0
-199 -177 0
-12 196 0
53 -130 0
-192 -71 0
-157 113 0
-1 19 0
207 -7 0
-206 -247 0
267 -3 0
68 -30 0
39 -161 0
-278 126 0
261 -61 0
-78 -162 0
-7 -39 0
-276 109 0
113 -199 0
-155 247 0
-94 -152 0
-24 232 0
-66 -214 0
190 -160 0
266 -179 0
219 -117 0
236 -253 0
150 218 0
119 65 0
-2 -109 0
250 233 0
-44 87 0
58 -15 0
136 57 0
170 221 0
200 -279 0
206 109 0
129 -84 0
278 -29 0
155 12 0
24 31 0
-144 181 0
221 -169 0
90 23 0
261 155 0
154 98 0
98 214 0
97 -282 0
148 32 0
209 -109 0
-237 172 0
-152 216 0
197 -222 0
191 -34 0
153 216 0
-249 -210 0
144 68 0
-138 226 0
38 240 0
151 126 0
-128 -282 0
-51 -111 0
-10 -143 0
-238 -178 0
-273 -50 0
-152 121 0
-104 29 0
185 -93 0
-7 -35 0
35 -1 0
-71 171 0
143 -230 0
276 149 0
106 -155 0
-133 55 0
116 -91 0
23 -225 0
277 131 0
-251 90 0
162 -128 0
17 58 0
-274 -28 0
-248 -207 0
-11 -91 0
-85 136 0
231 -212 0
-133 -104 0
35 244 0
-91 212 0
-121 -101 0
-75 23 0
-189 107 0
-278 -160 0
-13 -15 0
-70 231 0
-144 -150 0
-166 -142 0
283 220 0
-74 281 0
-132 285 0
98 -183 0
57 -65 0
167 -127 0
256 119 0
145 -8 0
-202 79 0
148 71 0
-192 -276 0
-162 -289 0
-144 -97 0
-118 -125 0
145 36 0
-270 -204 0
-248 -237 0
123 72 0
-207 206 0
266 240 0
112 181 0
30 226 0
-161 -249 0
190 163 0
280 -47 0
103 263 0
-122 -29 0
-248 171 0
-28 269 0
157 -147 0
-39 108 0
232 57 0
-281 -251 0
288 260 0
151 17 0
-204 -1 0
105 -94 0
-122 -246 0
-32 -137 0
224 102 0
13 -208 0
-199 -158 0
150 248 0
-127 -81 0
-94 12 0
12 -6 0
163 260 0
207 -248 0
252 83 0
-223 -64 0
-124 18 0
-228 -245 0
-102 236 0
287 -118 0
-174 -82 0
222 247 0
-89 -212 0
-110 -133 0
-153 -282 0
-277 126 0
-283 -97 0
230 -253 0
177 156 0
-104 -59 0
256 -134 0
-262 -75 0
-208 -278 0
261 -142 0
-36 284 0
-259 -75 0
221 103 0
62 -139 0
27 215 0
-137 -283 0
-225 -192 0
-70 41 0
181 -136 0
219 -245 0
117 -248 0
235 -144 0
141 -182 0
-250 -56 0
57 184 0
-235 -129 0
173 217 0
172 150 0
30 -165 0
8 -263 0
236 -147 0
-257 119 0
26 143 0
168 48 0
161 -206 0
220 -3 0
22 233 0
34 181 0
-132 97 0
154 -158 0
57 -153 0
-221 -273 0
-163 57 0
13 -156 0
-59 229 0
130 217 0
-246 219 0
-125 -284 0
56 -107 0
126 242 0
180 151 0
210 226 0
-66 -253 0
-259 221 0
280 239 0
218 -63 0
35 130 0
48 -61 0
218 276 0
259 -195 0
-134 103 0
47 -215 0
-128 58 0
87 276 0
108 195 0
-37 -227 0
-275 114 0
205 -241 0
180 -88 0
-4 136 0
197 43 0
-78 9 0
231 285 0
226 -33 0
-208 -208 0
-262 48 0
234 -36 0
217 232 0
-115 -160 0
48 157 0
-214 -206 0
275 -206 0
-241 -281 0
188 209 0
-210 -244 0
279 155 0
-31 -176 0
-212 81 0
-251 190 0
107 171 0
50 33 0
172 -164 0
168 60 0
63 145 0
-255 122 0
135 -132 0
-29 -283 0
-252 27 0
175 -118 0
-202 213 0
-135 -74 0
-194 108 0
-214 181 0
271 -272 0
-36 -31 0
249 130 0
-46 109 0
-170 259 0
108 -132 0
-150 -132 0
259 288 0
-111 48 0
259 24 0
-230 -127 0
-270 -88 0
16 -180 0
120 98 0
257 -144 0
-184 72 0
147 -84 0
-214 -166 0
236 -31 0
20 -158 0
-75 -192 0
27 -147 0
233 61 0
-143 168 0
8 -94 0
280 -71 0
67 154 0
113 -48 0
276 122 0
-114 143 0
-193 60 0
-84 169 0
-21 209 0
-90 -60 0
-139 287 0
-144 -245 0
112 224 0
-251 -216 0
56 24 0
-63 197 0
191 143 0
-4 77 0
66 198 0
-283 120 0
-146 -211 0
37 185 0
2 153 0
-250 266 0
178 76 0
70 -118 0
284 191 0
148 -188 0
-225 -78 0
103 202 0
271 -192 0
-69 -268 0
-199 -179 0
62 -53 0
-27 219 0
107 -54 0
-36 -175 0
-279 165 0
-223 -134 0
-26 106 0
275 -158 0
-250 -256 0
-271 106 0
-36 181 0
253 25 0
-204 226 0
-275 7 0
261 58 0
217 -203 0
-69 -127 0
43 -2 0
-240 58 0
65 43 0
-23 150 0
-222 -284 0
51 71 0
-289 -199 0
-91 -181 0
221 -264 0
-43 145 0
-97 -270 0
28 -268 0
27 4 0
-248 244 0
106 -258 0
160 23 0
-161 204 0
-122 -128 0
151 184 0
-25 -182 0
68 260 0
276 -67 0
179 22 0
48 94 0
-156 -272 0
-117 -205 0
-50 -198 0
-270 61 0
-66 99 0
-85 -248 0
86 -161 0
21 -182 0
236 -63 0
-286 -286 0
68 -68 0
-35 46 0
-59 -128 0
9 -61 0
6 45 0
177 -70 0
157 -125 0
185 -196 0
-132 222 0
-273 148 0
-278 -188 0
52 -50 0
176 196 0
221 -1 0
-42 35 0
58 188 0
53 -14 0
83 65 0
-88 106 0
270 27 0
187 73 0
-153 -263 0
240 224 0
83 214 0
-63 -159 0
48 252 0
151 195 0
22 -59 0
-273 -118 0
-95 -117 0
-19 -284 0
-202 141 0
199 58 0
-271 -266 0
180 143 0
-284 59 0
124 39 0
172 27 0
168 -255 0
31 87 0
208 -158 0
16 -139 0
-251 -93 0
43 -211 0
24 -261 0
28 -139 0
-104 259 0
35 -144 0
-253 255 0
77 -47 0
42 226 0
77 207 0
2 57 0
62 285 0
-252 -30 0
-67 25 0
132 65 0
206 -142 0
-289 21 0
109 153 0
-255 -166 0
-26 -215 0
-225 -26 0
288 -47 0
-161 -51 0
200 -107 0
-145 57 0
102 190 0
-150 -257 0
-165 277 0
-42 -69 0
56 -64 0
187 258 0
212 -42 0
-74 -257 0
-223 36 0
222 243 0
-176 -277 0
-204 -272 0
-84 -63 0
-193 67 0
168 -245 0
45 56 0
157 -92 0
15 213 0
183 -114 0
168 17 0
5 256 0
-170 -262 0
-89 -49 0
-175 -116 0
58 120 0
-220 11 0
136 -259 0
-244 194 0
190 -33 0
63 -52 0
240 -238 0
260 -50 0
112 202 0
174 21 0
-123 102 0
-252 -79 0
-104 56 0
-189 20 0
151 -239 0
-190 92 0
-195 277 0
147 -45 0
217 -130 0
265 -263 0
243 75 0
22 137 0
-274 281 0
-12 -257 0
-42 106 0
-139 -159 0
-189 116 0
27 153 0
-68 -248 0
36 213 0
-5 56 0
58 -284 0
-125 57 0
-201 272 0
61 59 0
82 46 0
-101 -35 0
-90 263 0
30 -242 0
-95 149 0
-114 84 0
241 201 0
101 108 0
-63 -138 0
229 -279 0
-15 -144 0
-214 233 0
-228 243 0
191 -105 0
-193 -75 0
-142 -272 0
-224 -146 0
-94 32 0
-59 -165 0
243 -90 0
-211 67 0
-186 280 0
-233 200 0
194 -199 0
218 -78 0
73 154 0
213 103 0
-107 213 0
227 -28 0
67 119 0
-60 195 0
173 -204 0
209 -204 0
27 52 0
259 276 0
82 224 0
-19 284 0
-277 -249 0
187 257 0
63 153 0
155 208 0
31 124 0
108 220 0
-19 32 0
135 -228 0
-225 253 0
272 5 0
154 -261 0
186 -257 0
184 -126 0
-257 5 0
235 -99 0
62 -190 0
-176 263 0
181 66 0
171 -215 0
-220 57 0
-9 -268 0
179 25 0
262 -66 0
-270 -89 0
259 -175 0
256 6 0
-178 -282 0
82 6 0
198 48 0
13 78 0
74 -284 0
24 -102 0
150 77 0
-217 151 0
108 -94 0
35 -161 0
-222 215 0
-78 169 0
-129 203 0
5 -65 0
99 -246 0
-19 215 0
261 101 0
9 -72 0
157 174 0
58 -196 0
200 30 0
-121 72 0
203 162 0
-287 35 0
258 111 0
3 235 0
-230 27 0
144 -64 0
-239 18 0
145 -182 0
72 -10 0
68 163 0
105 245 0
-216 259 0
-130 230 0
166 -102 0
-147 -123 0
-88 -31 0
254 -281 0
-102 -29 0
-234 46 0
-264 -63 0
67 90 0
-101 221 0
-172 136 0
159 184 0
265 224 0
102 251 0
-7 172 0
112 -139 0
47 58 0
-149 -140 0
216 -220 0
107 257 0
258 33 0
265 95 0
-257 -167 0
-95 20 0
-127 22 0
-149 197 0
-170 -14 0
-234 -123 0
33 107 0
-37 -18 0
167 97 0
-19 106 0
-238 -78 0
112 217 0
147 240 0
99 -73 0
213 -140 0
-32 76 0
122 -80 0
-268 62 0
153 -145 0
-224 122 0
-3 92 0
253 -278 0
230 176 0
-81 -68 0
-20 14 0
-42 287 0
-212 -240 0
12 -275 0
209 -192 0
-175 -69 0
-210 -261 0
-25 -42 0
149 -142 0
32 180 0
154 -14 0
99 -247 0
67 124 0
-196 200 0
65 -286 0
-211 -15 0
-78 -257 0
-222 131 0
178 136 0
-29 233 0
177 81 0
257 226 0
259 227 0
258 -233 0
-74 -89 0
-64 -2 0
-71 -2 0
234 -206 0
173 -66 0
180 106 0
100 -189 0
-135 -162 0
-281 258 0
29 -59 0
-245 163 0
63 82 0
-201 243 0
-27 213 0
-131 200 0
6 -99 0
254 -46 0
178 -91 0
-249 -114 0
-132 -275 0
-123 72 0
11 95 0
149 57 0
-199 -209 0
-101 -227 0
-154 -133 0
152 -101 0
267 -19 0
153 -14 0
-45 193 0
-118 273 0
-66 -36 0
134 -270 0
-185 162 0
205 -2 0
180 -29 0
107 -80 0
230 -123 0
5 -120 0
-138 9 0
111 4 0
-158 -205 0
-196 233 0
140 4 0
204 25 0
-159 -263 0
-286 -40 0
173 245 0
93 -170 0
-227 -254 0
97 138 0
-94 148 0
266 -150 0
148 68 0
-3 -105 0
-126 266 0
-216 58 0
62 -146 0
185 -165 0
213 -218 0
261 143 0
136 216 0
16 1 0
-155 -249 0
-278 -47 0
-93 -85 0
-28 -223 0
261 105 0
71 -69 0
280 -95 0
162 -30 0
52 280 0
-177 -49 0
-274 76 0
91 -206 0
213 11 0
51 13 0
-223 43 0
-38 265 0
-163 23 0
218 -272 0
277 -13 0
232 4 0
210 -228 0
-202 261 0
114 276 0
-193 -31 0
-90 -132 0
109 220 0
-14 211 0
20 6 0
116 -125 0
-231 5 0
-179 99 0
13 77 0
-84 113 0
275 157 0
-91 -54 0
-109 111 0
35 66 0
-140 -98 0
-73 -178 0
-252 171 0
-188 -220 0
106 -223 0
-156 163 0
55 -207 0
63 -222 0
-64 80 0
197 -152 0
231 124 0
-118 4 0
-265 242 0
115 58 0
-199 205 0
153 -183 0
-7 65 0
-185 -239 0
223 -208 0
158 -51 0
8 -101 0
8 246 0
62 -117 0
-223 -60 0
141 -205 0
102 76 0
-189 242 0
261 -182 0
80 -174 0
-167 124 0
-235 235 0
-124 285 0
239 -228 0
218 24 0
-257 -135 0
-223 -106 0
-222 87 0
-44 87 0
209 -95 0
-15 25 0
53 -132 0
170 -156 0
-228 -220 0
256 52 0
-42 -249 0
87 -19 0
92 92 0
-80 275 0
-31 165 0
226 -10 0
262 -2 0
-204 148 0
213 -278 0
111 -157 0
68 150 0
264 -96 0
-70 -57 0
-204 -224 0
33 -81 0
-94 51 0
-127 -192 0
-211 151 0
122 -190 0
89 -193 0
148 8 0
261 22 0
219 30 0
225 194 0
-84 191 0
-62 116 0
-67 219 0
107 112 0
-148 166 0
-137 267 0
265 -93 0
175 163 0
75 -132 0
258 152 0
-268 191 0
52 -28 0
48 76 0
243 279 0
-30 -208 0
269 16 0
259 -81 0
-124 164 0
-63 -100 0
-54 -193 0
-204 200 0
-264 -185 0
49 76 0
5 48 0
-215 -170 0
-169 186 0
-74 -33 0
77 271 0
-53 -1 0
-167 -123 0
-154 147 0
-144 165 0
16 176 0
256 -189 0
-137 101 0
231 220 0
148 -80 0
32 -264 0
196 148 0
174 -257 0
-91 -148 0
