c bounds 95 123
p cnf 621 1146
198 -55 0
-95 540 0
487 -134 0
-302 405 0
553 -67 0
453 62 0
-249 -309 0
-307 327 0
-29 96 0
561 145 0
88 542 0
477 50 0
-221 -583 0
-71 -358 0
554 -574 0
-94 -417 0
283 446 0
-20 253 0
-374 262 0
129 -438 0
-594 567 0
-233 83 0
412 510 0
162 428 0
20 -213 0
152 60 0
384 99 0
-248 -594 0
-296 -493 0
523 54 0
-191 -258 0
-69 -211 0
-448 12 0
261 462 0
297 590 0
278 223 0
-248 274 0
7 -224 0
-32 -544 0
-244 -489 0
54 -170 0
496 -326 0
78 281 0
-203 99 0
-468 -460 0
-353 174 0
98 611 0
-59 238 0
-613 -293 0
-343 536 0
-376 -263 0
305 -179 0
-135 329 0
336 152 0
63 21 0
306 427 0
252 447 0
-532 -501 0
-38 479 0
-502 -593 0
-82 323 0
148 -597 0
-41 -280 0
72 77 0
-548 601 0
-119 299 0
-613 174 0
608 549 0
-556 119 0
586 -620 0
-341 157 0
-134 493 0
188 -228 0
-212 -609 0
-9 124 0
56 442 0
482 -580 0
-204 238 0
-56 356 0
-87 447 0
106 293 0
-550 -265 0
123 -16 0
111 -62 0
-520 -56 0
-441 176 0
600 -47 0
64 -518 0
-208 -443 0
-384 107 0
-592 197 0
-595 -317 0
55 227 0
371 -298 0
-242 -69 0
-184 -609 0
49 346 0
-93 -521 0
610 -73 0
-185 447 0
367 269 0
-367 -393 0
-259 356 0
-71 565 0
-396 583 0
-291 -582 0
375 -384 0
-336 574 0
455 537 0
382 -244 0
477 -562 0
-353 -70 0
-472 181 0
115 -91 0
-317 234 0
-22 -485 0
522 -182 0
-52 -535 0
-579 -555 0
380 462 0
-501 363 0
14 303 0
-581 -333 0
-235 -386 0
114 -494 0
-74 -121 0
297 -404 0
-170 534 0
-80 556 0
-484 -466 0
539 -487 0
-165 301 0
-602 166 0
108 -276 0
-580 -581 0
-330 -264 0
-44 287 0
-589 -38 0
328 -482 0
-460 -546 0
399 356 0
136 -131 0
187 -559 0
37 21 0
-562 -294 0
-284 -303 0
-91 -182 0
-202 -118 0
433 266 0
579 -465 0
-63 -512 0
147 -573 0
364 -494 0
125 7 0
477 299 0
-126 -68 0
197 -343 0
-459 -182 0
377 -168 0
113 46 0
586 153 0
505 402 0
-53 -71 0
-557 -206 0
-482 -419 0
-457 -467 0
-14 247 0
252 -87 0
-51 -52 0
-432 586 0
-107 162 0
325 -172 0
528 -151 0
412 -124 0
19 111 0
-416 -72 0
-392 -401 0
486 572 0
311 239 0
-183 142 0
235 -240 0
-133 -231 0
309 26 0
219 -20 0
-85 479 0
-48 -225 0
-420 -389 0
533 -347 0
-564 244 0
387 147 0
-409 -103 0
397 605 0
3 482 0
187 162 0
127 202 0
-321 583 0
-520 -6 0
525 460 0
21 -204 0
585 -542 0
58 127 0
-147 -569 0
-257 514 0
-402 463 0
-389 -465 0
-620 533 0
290 328 0
160 144 0
-305 371 0
318 45 0
197 97 0
-48 -271 0
601 46 0
511 -63 0
-122 492 0
-576 289 0
270 507 0
-613 49 0
-365 -169 0
-170 -25 0
314 -441 0
-63 261 0
409 -41 0
544 269 0
-49 -234 0
218 11 0
-292 287 0
388 -321 0
406 212 0
79 -51 0
310 191 0
376 168 0
108 -473 0
-10 607 0
-379 -159 0
-537 368 0
-439 306 0
325 -114 0
-277 392 0
-312 -249 0
356 184 0
-80 -248 0
105 -234 0
-24 98 0
-91 -326 0
11 426 0
-326 105 0
-345 -130 0
258 -131 0
227 350 0
429 -586 0
-313 168 0
516 -124 0
352 255 0
281 -501 0
245 596 0
-171 547 0
-264 -56 0
-380 445 0
479 158 0
227 -463 0
-516 392 0
615 -5 0
-475 443 0
-188 95 0
241 289 0
-559 -343 0
221 427 0
49 -439 0
-41 -594 0
504 -561 0
3 -535 0
-134 551 0
-499 -500 0
391 514 0
-164 -16 0
302 -620 0
491 15 0
619 -138 0
-97 468 0
391 136 0
-261 -553 0
72 -312 0
401 -621 0
153 454 0
-621 -377 0
147 -397 0
-268 112 0
-1 -467 0
266 -362 0
-211 -213 0
-249 451 0
-193 -443 0
-6 -499 0
-611 170 0
-596 427 0
530 -89 0
-343 -289 0
-26 -207 0
105 547 0
-203 599 0
-514 -142 0
-211 -488 0
316 260 0
255 -41 0
358 412 0
526 -404 0
410 -364 0
526 325 0
308 403 0
-102 -63 0
262 499 0
477 -353 0
-476 497 0
-547 -339 0
-161 -486 0
297 533 0
55 270 0
41 -133 0
440 308 0
-581 -297 0
-86 445 0
-96 497 0
596 358 0
593 271 0
129 -226 0
-424 363 0
-500 -62 0
495 -347 0
527 596 0
-567 601 0
515 -152 0
-208 227 0
375 452 0
-350 -249 0
105 -561 0
362 222 0
411 84 0
495 -117 0
-342 236 0
192 -500 0
-27 -199 0
316 560 0
-430 426 0
-605 342 0
417 -246 0
-523 -583 0
428 358 0
-145 205 0
405 352 0
233 -471 0
420 154 0
-6 392 0
94 -185 0
-515 615 0
-301 249 0
166 98 0
529 543 0
450 452 0
237 56 0
-514 120 0
583 392 0
-593 559 0
-261 -463 0
41 -245 0
-28 -335 0
-578 89 0
226 71 0
7 127 0
222 222 0
453 -101 0
204 498 0
437 390 0
-348 232 0
266 -472 0
32 -410 0
-286 -103 0
-602 291 0
332 198 0
150 20 0
-360 278 0
553 -359 0
-193 358 0
146 -12 0
72 554 0
413 610 0
539 -291 0
540 583 0
-562 -65 0
61 -265 0
519 -359 0
138 -422 0
600 346 0
181 544 0
-432 422 0
-53 -259 0
-343 531 0
63 -281 0
-267 -584 0
31 -394 0
482 497 0
57 -281 0
141 -449 0
-328 -211 0
294 -87 0
-339 342 0
534 -441 0
529 170 0
-401 65 0
-147 496 0
-571 392 0
-604 -237 0
-29 117 0
-344 -123 0
57 279 0
-17 -265 0
128 491 0
195 -616 0
-330 -444 0
-27 -486 0
142 346 0
593 598 0
-612 418 0
253 -517 0
419 210 0
-242 276 0
337 -554 0
-466 252 0
-592 215 0
222 -530 0
70 -49 0
416 -348 0
367 454 0
-549 -97 0
-344 -157 0
568 232 0
13 590 0
-284 348 0
425 -220 0
157 -319 0
-319 -312 0
-243 -186 0
253 234 0
45 538 0
-267 -229 0
139 -295 0
-92 306 0
-532 -397 0
-299 455 0
-21 -548 0
172 159 0
204 548 0
-528 -201 0
18 91 0
-85 -478 0
-161 566 0
15 417 0
-259 284 0
342 -131 0
-546 507 0
-185 -563 0
603 -72 0
174 77 0
15 547 0
555 483 0
377 -399 0
241 29 0
138 -606 0
-307 553 0
599 32 0
-524 560 0
332 483 0
-445 -612 0
181 504 0
390 391 0
-359 -473 0
-323 -517 0
370 53 0
-587 140 0
-555 355 0
489 -515 0
-3 -521 0
-550 108 0
-407 -112 0
-517 240 0
308 35 0
-323 324 0
-165 -534 0
-474 381 0
88 -243 0
-597 466 0
215 157 0
403 494 0
603 -93 0
-582 45 0
-530 452 0
471 389 0
257 201 0
-314 121 0
-576 575 0
520 -9 0
-243 -148 0
-326 171 0
-468 590 0
591 356 0
-79 -25 0
577 -127 0
-611 -598 0
-553 -240 0
-348 46 0
4 -485 0
352 -551 0
165 -501 0
-309 186 0
279 354 0
442 573 0
-557 -581 0
-351 -151 0
-386 373 0
269 167 0
102 495 0
-296 133 0
-520 274 0
-74 96 0
-575 -461 0
-418 -209 0
29 176 0
-271 -476 0
437 -190 0
-132 -197 0
-39 487 0
453 -351 0
-432 -584 0
-394 -298 0
-280 -489 0
186 -102 0
86 -97 0
-231 -263 0
-159 35 0
521 373 0
-401 78 0
-359 432 0
396 315 0
-348 -134 0
329 540 0
-315 -107 0
315 -388 0
14 -438 0
406 51 0
-384 -544 0
247 153 0
59 -100 0
-50 192 0
-470 -366 0
238 560 0
479 126 0
-613 -484 0
140 -437 0
278 73 0
-156 539 0
-509 -301 0
460 -34 0
-493 -92 0
194 -595 0
-293 -620 0
-119 -409 0
-144 525 0
204 -514 0
-519 507 0
554 555 0
231 41 0
219 568 0
205 413 0
-614 147 0
575 -606 0
-80 -327 0
176 -76 0
-461 -243 0
252 -355 0
-257 -126 0
-252 -595 0
-103 23 0
244 340 0
524 98 0
130 -449 0
54 -16 0
-116 363 0
-203 -165 0
376 -219 0
-585 -476 0
186 -581 0
173 395 0
249 -281 0
-362 -493 0
-334 -282 0
428 -204 0
78 -321 0
-332 -542 0
219 395 0
218 157 0
376 -568 0
158 148 0
561 -321 0
-20 574 0
297 -318 0
-593 601 0
-382 320 0
-474 557 0
-323 515 0
-109 475 0
-517 -439 0
-489 -84 0
106 -55 0
-152 190 0
72 95 0
-318 277 0
395 529 0
-57 112 0
-240 -570 0
403 -418 0
-407 -406 0
-434 -271 0
30 398 0
412 497 0
-313 -223 0
-286 177 0
-472 -466 0
-350 105 0
259 154 0
-101 -602 0
571 -300 0
-457 -249 0
-421 426 0
-359 482 0
-47 15 0
-519 -148 0
-521 617 0
-608 -349 0
-444 18 0
-121 -499 0
-422 206 0
-166 308 0
613 607 0
436 255 0
498 -317 0
-369 -92 0
358 -548 0
-423 338 0
446 -82 0
515 336 0
316 -573 0
201 -580 0
225 -563 0
485 -528 0
-118 -404 0
7 -237 0
286 -165 0
238 -357 0
-334 202 0
150 157 0
-551 -391 0
-567 346 0
105 486 0
158 488 0
122 173 0
-34 -293 0
47 482 0
-578 160 0
-303 -299 0
-361 288 0
-9 -91 0
543 318 0
6 105 0
585 -160 0
429 -422 0
-602 467 0
407 -416 0
351 -330 0
258 -409 0
54 -200 0
-349 -281 0
-286 -148 0
-149 565 0
-17 167 0
-522 -280 0
-396 -186 0
102 -567 0
-587 -117 0
119 431 0
346 -433 0
31 262 0
-41 409 0
98 8 0
-191 -545 0
360 -571 0
-323 336 0
413 28 0
-292 -348 0
572 569 0
-63 372 0
159 98 0
-61 210 0
-40 427 0
83 438 0
7 -100 0
405 -534 0
-27 463 0
-518 -336 0
-369 8 0
-398 65 0
-214 192 0
-222 14 0
268 42 0
57 -369 0
272 260 0
-260 354 0
561 -501 0
458 -27 0
-212 -265 0
-347 494 0
361 488 0
-103 -148 0
560 -379 0
-521 166 0
-170 -466 0
208 130 0
-534 553 0
601 -291 0
551 -617 0
336 603 0
269 335 0
-272 -93 0
-40 -63 0
-449 -250 0
231 -482 0
217 -238 0
596 368 0
-583 33 0
-382 329 0
-403 -431 0
121 -67 0
402 246 0
-378 219 0
329 -84 0
-96 -502 0
-62 289 0
138 77 0
-67 -166 0
599 179 0
41 -594 0
456 340 0
-489 -197 0
-169 -154 0
529 582 0
-69 331 0
147 191 0
349 -478 0
502 388 0
-375 295 0
-110 -372 0
225 -133 0
68 -414 0
168 433 0
-293 -165 0
-417 -107 0
43 -234 0
244 -149 0
-569 340 0
-369 49 0
351 -18 0
-524 -595 0
-417 485 0
-573 -467 0
455 -45 0
59 -407 0
-569 -518 0
-336 372 0
600 497 0
-152 -131 0
12 -5 0
338 310 0
116 574 0
-260 -290 0
106 -309 0
-384 -315 0
88 411 0
-509 144 0
608 -129 0
283 621 0
-403 146 0
217 -51 0
-98 -67 0
178 501 0
457 -489 0
388 209 0
115 -175 0
-10 218 0
-162 -581 0
310 -116 0
-557 -499 0
565 297 0
455 289 0
-232 201 0
163 424 0
324 396 0
-213 -486 0
-74 -468 0
-81 575 0
-309 529 0
350 -359 0
289 -417 0
242 -465 0
-81 356 0
115 178 0
-335 57 0
-354 -473 0
-294 -449 0
-486 510 0
-583 324 0
49 -366 0
426 -4 0
-418 -584 0
-155 -403 0
26 140 0
588 37 0
93 -403 0
-259 214 0
76 462 0
26 79 0
-208 15 0
416 175 0
302 -564 0
273 235 0
600 -424 0
297 512 0
-245 362 0
64 -294 0
-232 489 0
-384 -498 0
-79 -472 0
-133 518 0
601 -130 0
-121 26 0
421 316 0
500 392 0
145 -486 0
-317 -352 0
109 -180 0
436 -143 0
-393 -203 0
-581 -481 0
528 315 0
-276 480 0
-344 60 0
527 14 0
590 -386 0
-136 -613 0
425 44 0
469 308 0
509 -520 0
-246 356 0
-552 -450 0
462 162 0
449 -449 0
327 582 0
380 -420 0
289 -260 0
307 -587 0
324 -250 0
-451 59 0
148 238 0
544 373 0
114 121 0
565 562 0
363 194 0
-418 166 0
-41 346 0
-564 68 0
498 -487 0
178 -611 0
-433 -384 0
350 436 0
-53 508 0
-104 -226 0
406 -237 0
-168 538 0
361 -109 0
273 283 0
-254 391 0
-80 605 0
-578 -483 0
257 -9 0
-97 592 0
-171 14 0
-519 -423 0
-290 -610 0
-399 389 0
-228 378 0
2 311 0
301 144 0
-171 -151 0
486 590 0
-115 -261 0
55 -451 0
-105 251 0
-216 -151 0
-418 121 0
-182 270 0
469 138 0
-582 -376 0
112 479 0
425 336 0
436 611 0
-407 -20 0
-187 456 0
-69 72 0
-501 506 0
-440 183 0
446 305 0
-331 -8 0
171 158 0
561 -253 0
153 -117 0
553 124 0
-318 -615 0
-10 -321 0
-506 -520 0
577 151 0
-490 491 0
445 -459 0
-189 -277 0
594 273 0
-79 566 0
219 -584 0
-357 -400 0
322 325 0
-126 66 0
-583 201 0
302 -595 0
-132 204 0
-487 -218 0
463 432 0
-582 147 0
336 84 0
69 618 0
233 -5 0
437 -224 0
-14 120 0
519 356 0
-323 603 0
411 455 0
260 -165 0
-223 -109 0
-448 -23 0
-157 221 0
436 -282 0
-606 -246 0
-483 -107 0
-467 332 0
-393 -393 0
-230 -147 0
-416 531 0
37 276 0
-309 87 0
-444 -326 0
159 -500 0
479 -418 0
464 -534 0
-520 591 0
-295 -616 0
-53 448 0
530 -286 0
-519 -563 0
-152 6 0
529 -44 0
552 584 0
439 -66 0
37 -288 0
551 351 0
-587 550 0
-439 89 0
-501 -48 0
561 -97 0
292 -97 0
200 60 0
-294 574 0
-602 590 0
510 -213 0
280 -602 0
318 -84 0
-189 -183 0
-244 -185 0
-365 163 0
-81 -449 0
-537 -38 0
289 -274 0
421 108 0
427 -257 0
-307 38 0
-84 77 0
511 -501 0
-506 -41 0
-350 534 0
255 -281 0
208 -225 0
158 386 0
-312 326 0
119 -481 0
-447 -231 0
526 -70 0
382 -93 0
-433 -180 0
14 445 0
-401 -421 0
-584 -462 0
-504 -407 0
-509 108 0
-121 -551 0
-259 -243 0
313 -573 0
143 397 0
512 -4 0
128 -528 0
-38 490 0
11 145 0
619 -300 0
262 251 0
-350 -407 0
-193 -296 0
214 -131 0
429 -296 0
-91 -450 0
-611 1 0
130 574 0
-595 140 0
360 480 0
43 -429 0
-577 539 0
-500 519 0
390 -380 0
560 -314 0
-250 207 0
-407 456 0
-29 -361 0
-357 255 0
283 -492 0
-542 363 0
-478 -191 0
45 -91 0
358 496 0
25 -572 0
20 -523 0
-27 400 0
-509 606 0
-450 99 0
336 171 0
-275 389 0
214 561 0
-246 454 0
-246 -250 0
-70 503 0
98 354 0
-316 -467 0
-575 -230 0
222 580 0
615 -183 0
-316 227 0
-207 168 0
393 128 0
-24 -101 0
-578 -200 0
-348 553 0
198 -621 0
457 -494 0
-284 -335 0
-177 -171 0
-337 -313 0
198 525 0
-48 111 0
-31 -590 0
-256 -249 0
-3 332 0
345 44 0
33 -441 0
441 601 0
-199 -195 0
399 23 0
194 398 0
-357 -415 0
483 -74 0
406 -328 0
49 76 0
222 -153 0
-300 164 0
43 280 0
252 -439 0
260 65 0
376 422 0
-349 -96 0
-472 150 0
-505 172 0
-353 -310 0
315 -24 0
-71 -78 0
-461 410 0
-365 300 0
-473 249 0
210 327 0
330 -134 0
14 135 0
-489 382 0
-420 -473 0
-21 338 0
99 -191 0
228 83 0
-562 551 0
-573 577 0
482 -109 0
-284 76 0
-570 96 0
238 342 0
238 -452 0
-92 262 0
174 -352 0
43 -559 0
289 78 0
-134 417 0
567 -447 0
-211 588 0
-599 -93 0
-47 115 0
-471 52 0
99 575 0
-93 381 0
214 204 0
406 -611 0
-232 -128 0
161 -144 0
-569 -79 0
-164 -107 0
436 -612 0
279 -443 0
-69 -292 0
14 -211 0
-583 301 0
405 283 0
