c bounds 125 161
p cnf 621 953
-581 585 0
-252 258 0
91 -554 0
-279 246 0
41 331 0
81 -518 0
85 -490 0
501 579 0
439 206 0
-563 -47 0
497 239 0
252 -174 0
292 398 0
-396 -80 0
-273 527 0
484 572 0
-344 -17 0
59 -307 0
-234 -26 0
-132 -575 0
-256 -135 0
-405 -379 0
-277 317 0
-69 -193 0
244 -204 0
-469 -351 0
169 344 0
-127 -331 0
53 -264 0
99 271 0
603 255 0
160 519 0
213 -555 0
536 -262 0
-621 616 0
-211 541 0
-449 -487 0
89 -338 0
-430 424 0
-145 -10 0
88 262 0
-547 456 0
297 -32 0
-533 516 0
291 -22 0
474 295 0
-296 -513 0
-589 48 0
307 353 0
600 181 0
-87 402 0
-212 -149 0
404 -602 0
220 437 0
434 170 0
-25 -208 0
267 351 0
-288 -111 0
139 437 0
141 272 0
48 544 0
77 121 0
471 252 0
-506 396 0
-227 -541 0
562 -577 0
-72 -231 0
572 370 0
-263 -277 0
-101 508 0
392 494 0
426 528 0
-241 415 0
255 254 0
-473 246 0
83 -136 0
-256 208 0
418 -171 0
376 -26 0
311 -331 0
303 -69 0
215 -535 0
-378 -387 0
-66 485 0
296 168 0
-4 -372 0
497 -335 0
-359 -498 0
-18 267 0
-155 -24 0
-82 -135 0
-208 332 0
440 416 0
350 -43 0
-29 409 0
149 146 0
195 -85 0
353 224 0
214 157 0
-316 -324 0
-196 -579 0
-587 -89 0
110 -371 0
364 255 0
-320 -206 0
-610 97 0
510 180 0
67 -506 0
124 130 0
-191 402 0
-85 340 0
149 267 0
33 -602 0
60 37 0
-431 266 0
330 -145 0
-100 -123 0
174 -489 0
269 -211 0
27 334 0
-604 159 0
-347 4 0
507 -599 0
342 -388 0
435 -382 0
-238 -401 0
283 -229 0
-537 -260 0
-232 -82 0
259 -599 0
-85 106 0
292 237 0
283 432 0
-547 -92 0
-293 2 0
593 128 0
417 406 0
-481 559 0
-145 -490 0
139 -454 0
427 -86 0
-8 -69 0
-443 343 0
294 522 0
-419 -580 0
36 -130 0
-313 251 0
540 -360 0
-620 -82 0
320 158 0
-168 534 0
-329 -74 0
-11 500 0
214 351 0
-555 294 0
149 -277 0
-284 -40 0
478 -8 0
337 -431 0
-194 -269 0
608 176 0
-46 534 0
-259 -547 0
-438 521 0
-150 -380 0
179 160 0
-515 -245 0
-9 -544 0
-226 -179 0
562 -335 0
-15 -278 0
-454 -156 0
-402 -555 0
-409 609 0
144 -338 0
301 19 0
240 -227 0
-330 -196 0
-224 -521 0
-6 -239 0
-179 -30 0
532 -459 0
-586 152 0
-270 -298 0
460 284 0
77 210 0
-475 -101 0
445 567 0
349 460 0
-547 -539 0
310 553 0
-440 239 0
-591 140 0
428 157 0
263 -335 0
-287 -52 0
-501 52 0
481 116 0
510 -395 0
609 -58 0
540 -200 0
-241 -184 0
474 -4 0
-333 366 0
-288 375 0
-353 283 0
235 617 0
-493 185 0
-76 -167 0
-430 116 0
-138 -221 0
-327 14 0
168 -12 0
23 303 0
-478 321 0
504 486 0
-217 -459 0
372 -133 0
-65 442 0
363 -137 0
-15 141 0
-513 418 0
220 517 0
-227 337 0
437 29 0
300 -398 0
-527 439 0
295 -219 0
564 -93 0
606 269 0
-384 -131 0
-209 132 0
-594 271 0
378 -63 0
581 -69 0
248 359 0
-502 -332 0
338 -403 0
-585 -557 0
283 236 0
597 312 0
511 135 0
417 273 0
-100 172 0
259 56 0
-273 370 0
-71 175 0
185 -560 0
-407 24 0
562 -154 0
-82 228 0
-336 -428 0
312 -420 0
551 -534 0
-119 -226 0
-419 -181 0
385 -117 0
-431 567 0
166 527 0
577 -395 0
-187 339 0
44 -263 0
220 127 0
223 -12 0
-29 432 0
-155 336 0
306 -43 0
111 -150 0
299 -485 0
182 460 0
148 -74 0
-518 322 0
204 198 0
-529 -544 0
-222 -114 0
-512 -554 0
252 -522 0
59 30 0
-266 -384 0
540 1 0
192 548 0
372 600 0
-311 -604 0
522 -253 0
-380 -5 0
-393 -320 0
2 -599 0
-515 -597 0
-195 -561 0
621 283 0
-417 118 0
526 -318 0
597 418 0
480 -331 0
406 -554 0
360 -411 0
569 192 0
-89 -279 0
-462 -89 0
-326 -372 0
340 -12 0
485 97 0
245 -264 0
562 322 0
152 610 0
-542 -454 0
-162 65 0
-452 -572 0
-618 600 0
517 -239 0
98 316 0
375 90 0
240 -562 0
-435 530 0
169 222 0
-129 -86 0
164 545 0
-156 449 0
86 551 0
514 -258 0
-22 49 0
416 557 0
-411 -401 0
252 -162 0
534 -58 0
-518 330 0
-551 410 0
189 -604 0
-76 499 0
-557 572 0
-572 -273 0
356 -482 0
-613 188 0
-283 474 0
-497 -325 0
175 53 0
-619 -397 0
458 136 0
341 -373 0
609 -315 0
-533 312 0
362 70 0
-433 -401 0
-535 218 0
-359 402 0
337 251 0
608 -369 0
121 365 0
468 -433 0
-506 -380 0
-503 -537 0
-137 96 0
34 -232 0
406 -524 0
-562 258 0
-323 465 0
458 -257 0
-115 292 0
-174 -265 0
93 -524 0
-606 551 0
-303 -172 0
574 -406 0
339 607 0
364 -260 0
110 -177 0
-463 -280 0
534 61 0
-407 499 0
487 -221 0
-223 463 0
546 -7 0
-134 32 0
-599 266 0
-515 -298 0
-561 -351 0
-338 141 0
242 -520 0
-87 -605 0
163 303 0
304 387 0
178 -544 0
560 -403 0
584 307 0
149 -355 0
-549 -296 0
-95 -326 0
567 -354 0
553 276 0
-401 -393 0
-586 -245 0
221 -470 0
-489 -40 0
255 66 0
-86 369 0
292 236 0
228 -616 0
-324 -71 0
308 -500 0
-613 228 0
528 -588 0
246 111 0
-277 -97 0
-611 -551 0
43 -17 0
522 -161 0
169 498 0
-335 21 0
283 -453 0
404 164 0
-161 -247 0
378 546 0
-269 -35 0
321 -294 0
-407 -608 0
-424 -302 0
470 242 0
143 187 0
258 198 0
32 -351 0
351 467 0
-578 168 0
-195 -209 0
-459 285 0
190 378 0
-254 -449 0
-189 476 0
-481 -265 0
510 560 0
-552 -192 0
574 -26 0
-380 -286 0
-508 249 0
583 -30 0
-136 -500 0
-129 404 0
528 -100 0
136 448 0
83 291 0
141 416 0
285 -453 0
175 311 0
238 16 0
-33 350 0
90 563 0
-35 -372 0
435 128 0
-324 284 0
210 276 0
61 -116 0
-356 244 0
346 -122 0
383 366 0
601 477 0
-597 353 0
-348 -397 0
605 342 0
89 48 0
-43 115 0
146 115 0
-242 527 0
-127 439 0
295 349 0
-278 617 0
-231 394 0
-257 -580 0
-113 -184 0
-466 118 0
517 -335 0
321 -50 0
-233 -334 0
-162 -250 0
-508 534 0
194 483 0
402 -298 0
-34 -615 0
444 -281 0
232 -101 0
88 469 0
483 -76 0
337 -531 0
-586 377 0
-416 -469 0
514 -204 0
342 139 0
259 -134 0
-445 606 0
-516 465 0
119 -193 0
-501 -194 0
32 316 0
1 -585 0
83 49 0
569 -165 0
416 513 0
-605 509 0
546 550 0
-386 -493 0
8 -359 0
-311 239 0
343 31 0
308 180 0
-481 314 0
48 -73 0
529 417 0
577 -309 0
-288 -366 0
22 445 0
113 -191 0
160 42 0
-98 21 0
-575 571 0
-282 616 0
-288 -472 0
-514 559 0
398 113 0
419 -230 0
352 79 0
226 44 0
25 173 0
597 -550 0
-384 567 0
-7 -269 0
58 356 0
-551 -50 0
362 -392 0
218 -407 0
590 562 0
-444 160 0
-140 -499 0
-547 334 0
-241 -605 0
246 572 0
-344 261 0
-571 153 0
221 -580 0
260 -355 0
116 273 0
146 263 0
-516 -567 0
-218 -45 0
554 314 0
286 -364 0
255 192 0
269 -466 0
612 37 0
160 -556 0
-449 -238 0
142 421 0
400 366 0
104 -21 0
-292 346 0
-163 83 0
163 536 0
223 570 0
-421 -366 0
-258 -338 0
435 -604 0
573 416 0
-305 68 0
-366 -289 0
5 560 0
9 74 0
261 351 0
-576 253 0
-43 -279 0
-358 113 0
62 614 0
441 -230 0
-366 -587 0
111 437 0
-333 609 0
-173 181 0
16 574 0
-282 378 0
-331 -231 0
-454 424 0
430 -516 0
-456 67 0
473 402 0
-338 -531 0
176 613 0
420 587 0
253 375 0
49 512 0
-255 -47 0
-82 -431 0
427 -65 0
-292 383 0
553 563 0
-88 104 0
414 539 0
448 157 0
-107 -371 0
-216 353 0
-7 -533 0
-469 518 0
-362 104 0
-179 228 0
262 176 0
-542 -462 0
-182 -10 0
392 -253 0
-226 -85 0
-265 -227 0
-405 -134 0
272 37 0
-298 537 0
242 -339 0
480 316 0
414 -513 0
-523 -466 0
-123 -123 0
-88 349 0
425 506 0
-232 -331 0
-527 263 0
551 -554 0
44 -306 0
-429 509 0
294 222 0
-218 -247 0
431 -212 0
146 285 0
212 -537 0
-288 514 0
566 397 0
317 -36 0
246 -165 0
516 -587 0
340 -472 0
583 479 0
390 -264 0
67 -9 0
-104 564 0
-587 -38 0
428 317 0
-318 -356 0
-373 -503 0
-565 -142 0
488 -392 0
-142 571 0
395 -319 0
-46 -241 0
573 609 0
545 375 0
-55 -8 0
-433 306 0
292 590 0
407 511 0
-613 -85 0
22 128 0
209 -281 0
428 112 0
-6 373 0
180 159 0
440 605 0
-411 50 0
-296 217 0
-41 540 0
-500 -39 0
427 -75 0
243 60 0
417 -110 0
-182 -324 0
616 -488 0
-487 250 0
397 272 0
606 595 0
460 226 0
122 -580 0
299 -501 0
-89 -209 0
135 174 0
-16 -241 0
244 -176 0
385 -489 0
124 365 0
-274 291 0
-15 -605 0
38 -588 0
510 143 0
594 -366 0
-407 326 0
190 543 0
-396 -72 0
330 -378 0
-57 -350 0
390 476 0
-254 221 0
-443 -340 0
-332 -155 0
-139 259 0
-196 503 0
-494 -97 0
-36 -289 0
511 535 0
346 168 0
-548 176 0
-264 128 0
400 -436 0
303 189 0
-108 249 0
-535 -546 0
-206 190 0
324 -489 0
174 -70 0
-502 -230 0
-273 -26 0
-250 560 0
281 356 0
23 286 0
306 -227 0
-401 534 0
356 9 0
540 -547 0
36 339 0
491 192 0
247 -521 0
364 82 0
-552 -540 0
370 -400 0
37 -145 0
-231 606 0
-338 435 0
240 369 0
-543 -206 0
19 582 0
-12 -53 0
-489 -494 0
-318 457 0
-452 575 0
507 200 0
504 207 0
356 -373 0
-313 18 0
-24 -162 0
-374 -105 0
-241 -567 0
402 -364 0
572 135 0
331 -87 0
-299 -343 0
-459 -431 0
37 -547 0
96 -11 0
109 111 0
406 -198 0
-361 462 0
62 528 0
360 -582 0
-285 -156 0
104 -466 0
352 -607 0
-50 194 0
214 414 0
163 61 0
-473 -581 0
51 537 0
-100 428 0
601 464 0
512 -582 0
295 -344 0
-165 79 0
-51 479 0
614 -93 0
438 190 0
125 -497 0
276 -496 0
-543 554 0
-411 476 0
20 146 0
-196 -375 0
-183 529 0
344 -65 0
-81 528 0
158 -83 0
235 187 0
-489 278 0
-472 117 0
214 532 0
28 -264 0
-115 -544 0
223 -86 0
-175 514 0
-482 64 0
229 186 0
528 -250 0
259 362 0
-355 289 0
-197 128 0
9 -511 0
-254 -609 0
-422 476 0
254 526 0
223 -373 0
567 -329 0
183 -250 0
74 -274 0
190 -29 0
-74 501 0
414 -537 0
-454 -171 0
-334 569 0
-11 -262 0
390 -412 0
379 -542 0
-305 477 0
-13 -294 0
-58 -358 0
47 97 0
-320 90 0
371 -366 0
-127 417 0
49 -469 0
64 549 0
461 72 0
-355 -113 0
-363 -382 0
-557 -258 0
-246 -172 0
87 548 0
153 379 0
-500 -561 0
-365 -16 0
448 186 0
452 -413 0
303 -537 0
-35 -76 0
446 504 0
-517 257 0
460 600 0
254 173 0
-464 488 0
-473 -135 0
381 140 0
-294 -490 0
-520 462 0
558 -72 0
112 -398 0
-367 -372 0
131 492 0
445 -363 0
402 387 0
334 36 0
92 259 0
-7 -328 0
379 549 0
-531 277 0
452 -599 0
94 556 0
-52 276 0
111 -23 0
471 -14 0
590 244 0
-315 -610 0
162 -533 0
-554 -201 0
394 252 0
-262 577 0
11 404 0
514 294 0
535 -95 0
21 23 0
-101 376 0
-382 509 0
222 -234 0
294 -502 0
291 441 0
169 458 0
593 -233 0
342 239 0
-545 198 0
326 260 0
173 -393 0
-444 -325 0
-300 -373 0
26 235 0
-576 -413 0
-206 -581 0
103 -567 0
519 -158 0
-563 201 0
223 99 0
490 97 0
-413 446 0
-611 126 0
432 -122 0
463 161 0
364 -247 0
-309 549 0
370 -86 0
-66 41 0
-289 538 0
-53 -542 0
-598 517 0
-488 -384 0
-22 605 0
-470 -86 0
-15 243 0
-61 306 0
316 475 0
-335 -423 0
103 -544 0
-565 188 0
605 -130 0
-87 -224 0
-411 -436 0
-581 -123 0
-452 146 0
619 64 0
104 307 0
261 -207 0
181 141 0
437 134 0
66 -366 0
-165 -535 0
-229 -380 0
116 291 0
-472 384 0
316 508 0
33 235 0
497 513 0
51 -217 0
-21 113 0
-138 113 0
343 237 0
-468 -128 0
-226 594 0
-35 -341 0
566 302 0
-193 -15 0
410 158 0
-108 -142 0
-603 -467 0
308 252 0
-415 486 0
-211 238 0
-450 -12 0
219 -391 0
-376 -334 0
322 174 0
-98 -233 0
388 -292 0
402 348 0
-275 -409 0
-75 -145 0
-607 -385 0
246 468 0
257 565 0
64 425 0
-582 504 0
243 154 0
