c bounds 498 498
p cnf 952 574
-660 797 0
-27 -863 0
21 674 0
707 -377 0
460 763 0
-530 386 0
734 506 0
-349 831 0
259 -902 0
-933 -735 0
731 125 0
707 -155 0
371 45 0
631 725 0
71 -116 0
-924 -897 0
77 -799 0
-813 -9 0
-819 492 0
-697 -711 0
441 603 0
-185 81 0
551 -898 0
223 286 0
730 148 0
-171 -455 0
-332 511 0
-785 -575 0
-269 -871 0
-716 620 0
-765 181 0
420 294 0
-243 833 0
-40 696 0
-398 516 0
943 -766 0
450 590 0
-877 -707 0
757 260 0
335 -581 0
-53 -215 0
551 -635 0
622 -627 0
-788 -134 0
-579 188 0
-868 661 0
914 885 0
78 -789 0
-803 424 0
-266 97 0
659 38 0
-492 -3 0
129 110 0
15 -465 0
57 -818 0
883 916 0
-134 -277 0
123 606 0
-862 -945 0
281 -875 0
715 50 0
604 21 0
-584 285 0
881 -864 0
429 -720 0
-759 668 0
462 255 0
-723 216 0
719 94 0
193 162 0
532 -103 0
-344 -728 0
-29 720 0
490 -388 0
840 2 0
3 106 0
819 -655 0
303 747 0
271 464 0
480 334 0
18 -155 0
578 -754 0
840 -597 0
-99 844 0
-907 699 0
874 -790 0
393 714 0
900 655 0
458 11 0
619 -689 0
781 -666 0
-425 -368 0
914 405 0
856 -512 0
-107 -686 0
-687 -768 0
225 -65 0
828 -884 0
812 -871 0
164 -544 0
-759 -367 0
358 -544 0
55 280 0
774 610 0
-236 -227 0
-313 -937 0
929 804 0
668 439 0
212 579 0
-754 -235 0
-722 44 0
405 -135 0
327 -934 0
750 -236 0
-839 -744 0
-834 -810 0
-529 55 0
544 -313 0
347 -307 0
-851 -640 0
-366 702 0
69 309 0
-557 -509 0
-102 -648 0
-321 -356 0
237 906 0
861 -731 0
-372 -93 0
523 -470 0
-168 -7 0
-111 113 0
-434 -62 0
-809 -176 0
-67 328 0
901 -888 0
317 -60 0
-465 -730 0
-100 604 0
-261 604 0
774 726 0
848 -169 0
745 249 0
-59 -914 0
-332 329 0
-824 -110 0
-451 -496 0
-6 -894 0
183 -455 0
-761 671 0
-747 734 0
451 -366 0
845 -138 0
-913 485 0
-242 946 0
536 -365 0
925 325 0
501 800 0
-10 -669 0
-851 607 0
-865 892 0
454 -339 0
358 -789 0
665 -181 0
281 -382 0
-7 892 0
-185 397 0
-792 -389 0
-525 -257 0
72 286 0
695 -660 0
-826 -212 0
174 875 0
-289 545 0
-384 881 0
446 -765 0
295 -11 0
-748 -601 0
-120 458 0
-660 -205 0
790 643 0
446 -151 0
-910 223 0
429 -454 0
250 617 0
732 -492 0
-416 -231 0
438 3 0
840 -337 0
-380 825 0
-824 -504 0
-685 829 0
394 -495 0
-785 50 0
-305 -568 0
768 487 0
-121 790 0
894 -105 0
-202 124 0
284 -158 0
376 -190 0
785 864 0
-105 647 0
-828 -338 0
265 80 0
516 -816 0
848 114 0
-773 582 0
931 -139 0
-375 295 0
714 248 0
-918 -171 0
456 184 0
79 -348 0
609 203 0
661 -52 0
-186 656 0
182 -474 0
-754 -513 0
-163 -356 0
-582 146 0
-615 58 0
-679 -412 0
157 518 0
-897 333 0
885 45 0
-128 324 0
825 665 0
486 475 0
-755 -805 0
39 677 0
516 476 0
374 -903 0
442 -552 0
-3 -839 0
-73 -11 0
476 952 0
-197 -834 0
525 670 0
147 -399 0
408 130 0
776 -827 0
-722 -159 0
106 -567 0
449 638 0
212 -740 0
948 -377 0
-296 777 0
-429 -377 0
581 931 0
-599 895 0
-737 -379 0
-206 11 0
531 -590 0
140 -779 0
592 256 0
110 866 0
548 -98 0
-461 -196 0
639 -651 0
-712 -457 0
256 -720 0
-833 11 0
391 -213 0
941 -810 0
558 -580 0
84 169 0
-349 -445 0
-199 -51 0
780 -229 0
-869 -660 0
247 -899 0
-579 -772 0
-559 539 0
16 -574 0
-263 -341 0
-907 -868 0
-28 -457 0
251 -598 0
943 668 0
426 439 0
183 -13 0
788 903 0
576 -836 0
125 545 0
139 825 0
647 -674 0
77 56 0
924 554 0
267 490 0
-382 -374 0
134 642 0
-403 250 0
653 55 0
-486 261 0
355 -824 0
731 301 0
928 -626 0
-582 540 0
653 -146 0
-744 450 0
-108 651 0
642 919 0
-437 -832 0
-177 -115 0
-577 -870 0
-350 -114 0
-792 866 0
-380 -766 0
-845 907 0
-42 -541 0
195 737 0
-386 -481 0
206 -573 0
-316 765 0
-98 171 0
-664 -918 0
-624 -295 0
148 863 0
139 -722 0
-103 -494 0
-658 -803 0
-455 -839 0
-672 -198 0
166 536 0
300 -580 0
749 -12 0
-98 -690 0
951 -802 0
378 794 0
700 607 0
760 725 0
199 -198 0
-684 -141 0
-171 -852 0
-159 941 0
282 -63 0
48 -724 0
-675 702 0
-262 -554 0
250 111 0
916 -504 0
-832 -806 0
-697 -609 0
-579 -434 0
125 119 0
-379 204 0
-274 -490 0
-249 -724 0
588 -185 0
-482 361 0
706 277 0
-132 164 0
323 778 0
839 -754 0
-324 725 0
-895 335 0
-612 -437 0
729 708 0
607 -931 0
-771 -3 0
-108 -38 0
23 -871 0
102 652 0
-387 212 0
-389 -595 0
-450 -156 0
252 491 0
125 497 0
-920 -406 0
877 -119 0
-905 -366 0
423 -382 0
589 -662 0
106 -851 0
806 431 0
-353 -386 0
65 -262 0
-240 642 0
50 -546 0
436 -496 0
44 -634 0
26 59 0
-789 -928 0
20 717 0
-80 -188 0
-266 748 0
338 946 0
459 -629 0
311 404 0
325 -556 0
947 919 0
286 -5 0
707 -574 0
431 672 0
442 -528 0
536 -747 0
202 -299 0
-43 567 0
158 537 0
942 -647 0
-215 861 0
646 398 0
-732 106 0
-594 -366 0
586 -573 0
929 842 0
892 -519 0
662 17 0
-300 143 0
888 906 0
-19 -838 0
469 -319 0
949 777 0
298 634 0
776 -745 0
659 640 0
692 861 0
64 -697 0
201 600 0
-277 449 0
881 -325 0
-313 908 0
-313 332 0
-80 -315 0
675 721 0
245 17 0
-748 -11 0
-339 125 0
210 888 0
59 -443 0
-610 335 0
-952 -184 0
213 -495 0
-544 932 0
767 256 0
246 137 0
505 686 0
589 -875 0
558 -379 0
-90 493 0
-18 2 0
413 -565 0
546 -934 0
-442 445 0
680 342 0
-65 -231 0
-46 -295 0
762 -501 0
-245 689 0
-156 -268 0
-494 -550 0
-238 -940 0
-641 881 0
41 -186 0
164 -943 0
-192 -501 0
450 497 0
-74 -154 0
123 17 0
796 480 0
-710 -151 0
-400 -908 0
-444 -322 0
-367 794 0
831 313 0
588 -763 0
-747 137 0
699 -457 0
728 64 0
-810 -521 0
685 424 0
888 700 0
611 367 0
129 -110 0
561 -687 0
373 22 0
31 -631 0
87 -815 0
-591 361 0
698 719 0
-653 776 0
-829 106 0
261 727 0
832 895 0
487 -312 0
205 99 0
483 786 0
-897 42 0
340 301 0
191 -331 0
433 -673 0
-884 -337 0
12 427 0
285 531 0
456 213 0
-946 -344 0
912 388 0
-568 -89 0
828 915 0
620 145 0
-677 -384 0
503 434 0
-581 674 0
-790 -289 0
473 -857 0
112 -525 0
375 916 0
-658 260 0
-302 616 0
-687 818 0
-274 592 0
-154 -629 0
755 466 0
647 634 0
-539 -520 0
-837 327 0
-298 -381 0
-930 846 0
446 -519 0
773 342 0
-363 -482 0
-611 499 0
-179 -671 0
409 -201 0
-948 -1 0
-621 139 0
295 503 0
-51 -469 0
233 -379 0
-630 -301 0
941 -558 0
743 655 0
45 -233 0
656 26 0
-477 734 0
-824 800 0
15 732 0
731 619 0
-152 931 0
-747 -46 0
-630 153 0
195 875 0
-772 -4 0
477 -771 0
698 458 0
605 428 0
-18 -90 0
41 812 0
699 560 0
-814 -145 0
431 -158 0
432 858 0
478 -127 0
24 908 0
115 -464 0
191 -509 0
-245 487 0
78 388 0
-444 -441 0
-628 741 0
759 456 0
660 55 0
931 428 0
-777 -669 0
271 394 0
-211 -472 0
546 629 0
653 492 0
342 -270 0
-344 -236 0
-893 479 0
266 -785 0
535 -541 0
-765 155 0
