c bounds 76 76
p cnf 384 669
312 272 0
248 -237 0
39 231 0
-94 -69 0
-313 87 0
-262 42 0
-290 -332 0
-289 -247 0
339 317 0
-224 -99 0
231 -316 0
-81 -209 0
199 -258 0
-369 61 0
41 77 0
292 -225 0
-293 -246 0
309 57 0
-3 -316 0
195 85 0
-334 -2 0
348 -46 0
34 201 0
-213 -236 0
79 -277 0
363 202 0
-59 97 0
108 39 0
156 121 0
288 -150 0
-43 -358 0
40 -210 0
-323 -256 0
96 317 0
375 214 0
309 196 0
228 265 0
-189 -24 0
-342 99 0
-229 -341 0
109 356 0
-221 337 0
-218 249 0
-333 -129 0
-180 -279 0
109 -262 0
252 115 0
-321 -362 0
-383 241 0
-67 287 0
156 -350 0
84 142 0
312 -38 0
-83 -125 0
-186 243 0
-107 -85 0
-167 267 0
-48 235 0
-109 105 0
289 -378 0
245 59 0
287 -335 0
78 22 0
19 233 0
-304 -219 0
-107 -76 0
-213 -351 0
-154 304 0
-101 -198 0
199 196 0
268 216 0
293 -366 0
-20 -284 0
-3 109 0
-285 -218 0
-203 -12 0
-119 -366 0
58 75 0
-161 167 0
89 231 0
251 -291 0
-306 186 0
-105 171 0
104 145 0
284 -146 0
-359 -351 0
261 -221 0
-275 -352 0
-336 181 0
-12 -366 0
-39 -324 0
-115 214 0
-93 168 0
288 -303 0
19 -125 0
31 184 0
-168 -344 0
170 106 0
282 -305 0
67 49 0
18 -307 0
-121 -161 0
52 -149 0
80 -142 0
170 -53 0
-93 -293 0
-384 19 0
-168 -259 0
-172 -340 0
99 -301 0
-40 -296 0
345 -46 0
-281 -249 0
234 19 0
137 346 0
-138 48 0
66 65 0
-70 132 0
368 -318 0
-294 115 0
-221 52 0
39 -306 0
-222 -142 0
-128 -99 0
171 352 0
287 -180 0
180 295 0
314 -329 0
84 -340 0
4 -253 0
265 351 0
83 -160 0
-297 -70 0
350 -336 0
-358 -13 0
-378 -311 0
205 -280 0
373 300 0
233 -381 0
-173 376 0
-306 -369 0
-100 -186 0
235 197 0
169 -109 0
-365 -26 0
166 -111 0
-261 7 0
-75 191 0
54 -154 0
-14 309 0
250 -349 0
87 -232 0
281 -17 0
-113 -142 0
276 272 0
-70 -291 0
339 181 0
-99 66 0
-65 -209 0
2 343 0
288 -62 0
-345 -232 0
-5 54 0
136 -54 0
29 59 0
-261 -191 0
-375 249 0
21 -241 0
3 -24 0
-379 -338 0
-103 -378 0
-331 -331 0
-19 -271 0
352 34 0
-226 -303 0
-220 163 0
125 -128 0
305 -100 0
-306 241 0
289 -268 0
-93 -188 0
-231 -63 0
8 -357 0
-209 -196 0
28 -116 0
-47 53 0
-359 -26 0
-194 -86 0
286 305 0
315 -165 0
123 -102 0
106 -311 0
-99 8 0
-129 -316 0
35 320 0
307 -163 0
228 97 0
-324 346 0
350 -211 0
41 325 0
-104 -185 0
-256 -133 0
-45 279 0
315 -273 0
282 45 0
-168 54 0
-87 194 0
312 -278 0
41 -208 0
-116 204 0
-298 -367 0
-315 352 0
-8 -268 0
-115 -316 0
164 -314 0
39 -173 0
-293 -110 0
-24 -20 0
-161 288 0
-291 -18 0
145 78 0
167 -336 0
-158 -42 0
244 -347 0
122 -324 0
283 -17 0
303 61 0
339 98 0
341 -56 0
-157 -330 0
54 73 0
288 126 0
-226 -316 0
-102 -308 0
-349 330 0
-161 71 0
68 243 0
17 -347 0
-10 71 0
115 -95 0
297 366 0
-370 -289 0
309 234 0
192 -345 0
148 -198 0
246 -289 0
141 -365 0
255 48 0
-96 -257 0
-114 -106 0
214 103 0
42 -362 0
110 114 0
-274 348 0
132 329 0
118 121 0
339 379 0
-96 315 0
-24 223 0
-59 -233 0
348 282 0
-58 250 0
-3 -177 0
337 -3 0
78 281 0
251 -369 0
-261 -94 0
-153 -232 0
30 -158 0
-357 119 0
183 97 0
173 79 0
-375 -185 0
200 -205 0
62 182 0
105 -350 0
251 309 0
-78 -356 0
-74 -103 0
5 118 0
222 31 0
76 64 0
105 22 0
-253 -350 0
379 -240 0
98 31 0
-219 -383 0
-384 41 0
293 370 0
-11 223 0
374 -33 0
-83 -179 0
-210 31 0
241 -301 0
28 -317 0
-139 -278 0
318 -281 0
274 -95 0
279 -307 0
148 311 0
-176 -338 0
192 374 0
-383 -180 0
-94 -333 0
55 -211 0
-273 -184 0
349 -95 0
-350 -35 0
296 -167 0
-25 251 0
78 -72 0
71 35 0
-32 108 0
-382 284 0
-118 -77 0
198 317 0
138 -130 0
-190 -248 0
366 -17 0
58 -351 0
-131 -189 0
254 -185 0
-42 -367 0
-140 -287 0
85 -366 0
7 -306 0
205 228 0
-215 -211 0
15 39 0
124 -5 0
41 139 0
-325 -182 0
300 300 0
236 -73 0
-341 -48 0
-26 216 0
-373 176 0
231 -51 0
-263 215 0
-257 144 0
-162 -341 0
-169 -10 0
264 -307 0
184 218 0
157 -58 0
137 135 0
-129 188 0
265 -63 0
240 372 0
239 -25 0
-63 -53 0
-168 -43 0
-173 235 0
362 124 0
-351 -267 0
-190 -342 0
139 315 0
-125 266 0
-359 35 0
-92 264 0
-329 -114 0
-362 -274 0
384 -289 0
114 -332 0
166 -20 0
-17 47 0
-182 -289 0
-226 -100 0
-341 269 0
-133 35 0
178 295 0
-124 -23 0
45 -307 0
-205 346 0
217 37 0
29 -129 0
276 61 0
235 260 0
297 -263 0
-246 48 0
144 -31 0
-77 -113 0
276 -342 0
15 149 0
255 -185 0
274 194 0
176 -91 0
-74 121 0
-24 304 0
-281 348 0
-299 -150 0
-150 33 0
178 -268 0
-384 -73 0
-55 -91 0
-10 -294 0
-12 106 0
-255 299 0
-238 -257 0
374 147 0
224 230 0
-5 -306 0
178 -281 0
-306 -25 0
-366 4 0
-365 -232 0
-323 -384 0
-73 204 0
-146 -128 0
-207 -249 0
339 -330 0
-381 -195 0
85 -94 0
-335 -303 0
-129 -56 0
47 382 0
-26 108 0
-51 195 0
-360 259 0
97 -334 0
272 185 0
-217 343 0
-101 115 0
330 256 0
-227 -261 0
-50 -262 0
-223 29 0
-300 -161 0
-119 -251 0
187 -95 0
62 -187 0
17 -38 0
73 -223 0
241 306 0
265 -14 0
379 354 0
281 -362 0
30 73 0
-149 159 0
-120 314 0
-136 62 0
-70 200 0
200 302 0
-120 363 0
-50 -47 0
-88 33 0
-186 318 0
2 -300 0
-212 346 0
-307 -286 0
-320 331 0
329 296 0
-1 -154 0
-292 -23 0
-313 -21 0
215 -90 0
254 -191 0
343 -179 0
243 118 0
-83 343 0
-359 144 0
239 -303 0
13 371 0
263 241 0
186 -130 0
-306 19 0
-252 -285 0
149 -209 0
-383 210 0
239 -232 0
-24 382 0
-336 229 0
302 319 0
328 93 0
148 -234 0
356 -51 0
21 59 0
293 -381 0
337 -158 0
-158 -338 0
170 -290 0
252 -102 0
-75 -178 0
-286 19 0
98 29 0
-114 -303 0
42 341 0
346 -104 0
330 188 0
264 -60 0
148 155 0
294 231 0
-172 297 0
-14 -266 0
-296 -37 0
-291 353 0
1 -10 0
131 -323 0
286 -119 0
-20 22 0
145 -316 0
75 -78 0
-93 361 0
-260 96 0
-49 228 0
-14 224 0
84 -291 0
-4 215 0
-304 -242 0
215 -168 0
-183 -316 0
-51 -50 0
13 15 0
-269 68 0
167 -309 0
-282 373 0
-44 339 0
261 165 0
187 -234 0
53 327 0
97 340 0
241 -313 0
-260 -291 0
43 2 0
-369 295 0
-80 -98 0
269 -117 0
96 118 0
-341 -333 0
-226 245 0
-255 126 0
-291 -63 0
-96 310 0
-312 374 0
286 251 0
68 169 0
19 8 0
-313 -98 0
334 248 0
-256 150 0
-190 -224 0
130 326 0
-381 -63 0
-23 180 0
-325 -107 0
-49 -368 0
44 -188 0
-342 -91 0
72 -83 0
265 -56 0
8 -43 0
93 -107 0
212 199 0
266 -36 0
370 61 0
172 193 0
-152 98 0
1 20 0
-367 212 0
181 -121 0
72 -308 0
80 170 0
54 314 0
-257 62 0
317 106 0
-109 -205 0
-293 213 0
276 317 0
-107 243 0
66 -268 0
-59 196 0
-146 -235 0
48 53 0
217 145 0
-10 -280 0
-89 -127 0
83 -46 0
-225 234 0
-281 -312 0
34 10 0
-175 -324 0
-333 -176 0
258 -143 0
-193 44 0
384 162 0
371 -45 0
267 121 0
-377 121 0
28 152 0
-282 -222 0
-208 -153 0
305 -29 0
379 155 0
181 233 0
-203 -337 0
-346 -279 0
6 -148 0
-273 -121 0
-3 265 0
-327 -77 0
2 144 0
-333 215 0
-111 -190 0
369 297 0
-362 -70 0
-320 200 0
147 114 0
-225 106 0
-59 -340 0
-269 -36 0
-263 -334 0
-154 241 0
215 -60 0
63 175 0
15 -55 0
78 273 0
-357 225 0
-280 -190 0
-23 159 0
295 228 0
-11 -13 0
4 -270 0
-365 170 0
283 -341 0
-240 283 0
-261 194 0
-366 -215 0
-353 -235 0
-233 373 0
69 -59 0
-131 -138 0
-290 161 0
-50 39 0
-365 331 0
-62 -237 0
-293 211 0
-210 265 0
120 -291 0
-137 309 0
174 -383 0
116 -40 0
372 311 0
-189 -291 0
-275 -315 0
59 -80 0
-342 221 0
-252 -143 0
-325 -279 0
157 -23 0
-247 -333 0
-230 -293 0
-340 154 0
1 -264 0
332 -316 0
228 125 0
323 167 0
-376 166 0
-224 -230 0
108 74 0
-3 -149 0
315 375 0
206 -369 0
180 315 0
194 -278 0
-241 327 0
188 -256 0
160 217 0
-17 -325 0
296 -150 0
