c bounds 127 169
p cnf 715 1171
-117 -139 0
343 662 0
-121 203 0
365 -76 0
-454 -129 0
646 -507 0
653 -468 0
-276 551 0
115 -359 0
14 -639 0
170 29 0
-677 -586 0
22 262 0
-69 -614 0
196 -247 0
-79 299 0
-705 -235 0
-238 417 0
-63 685 0
671 -223 0
-250 -174 0
-423 532 0
163 -607 0
-437 -623 0
324 142 0
-299 48 0
212 441 0
646 -80 0
-625 475 0
-605 1 0
175 426 0
-211 -46 0
-240 -411 0
297 505 0
540 -227 0
138 -485 0
591 -527 0
695 -137 0
-206 400 0
688 -222 0
620 422 0
125 620 0
-485 565 0
-181 314 0
-479 -95 0
-458 71 0
17 -337 0
654 499 0
45 613 0
576 -379 0
417 308 0
75 -236 0
313 -394 0
366 615 0
-351 -622 0
-86 -255 0
606 -612 0
-190 -393 0
-663 86 0
-690 -174 0
-257 311 0
-150 15 0
651 625 0
-130 -400 0
665 -595 0
-538 475 0
219 -289 0
287 485 0
224 -249 0
136 -503 0
117 455 0
367 -2 0
24 -422 0
-672 -39 0
-367 -161 0
127 -266 0
-693 -313 0
488 -339 0
-661 203 0
-600 -399 0
-496 667 0
-443 -636 0
222 24 0
335 66 0
662 -121 0
571 -400 0
64 -228 0
-706 369 0
-30 348 0
699 160 0
53 -542 0
-589 102 0
-362 376 0
572 -392 0
430 17 0
91 599 0
159 -179 0
420 574 0
148 444 0
273 5 0
-310 -169 0
-584 712 0
-645 -678 0
-401 -311 0
-577 -638 0
-69 -385 0
-354 -567 0
-419 -129 0
-54 -154 0
151 -470 0
-436 312 0
-179 -154 0
669 -364 0
-262 -55 0
-101 582 0
-371 -513 0
165 307 0
-580 -436 0
653 27 0
-525 -146 0
-108 49 0
132 691 0
241 24 0
575 -415 0
93 531 0
-31 626 0
376 -77 0
546 -201 0
561 355 0
571 -211 0
418 629 0
183 7 0
-296 -195 0
697 -23 0
506 518 0
-8 -599 0
85 340 0
-594 289 0
-586 -25 0
459 315 0
-286 -433 0
494 471 0
-418 417 0
324 67 0
-663 315 0
-509 -86 0
182 -222 0
412 662 0
479 619 0
-708 -166 0
-174 -564 0
-242 -98 0
335 155 0
-172 -13 0
585 374 0
-296 -242 0
520 222 0
444 -607 0
-600 -411 0
-610 -699 0
468 96 0
555 -90 0
266 437 0
-128 -31 0
545 -351 0
135 -373 0
429 505 0
-339 -302 0
-580 -417 0
-141 588 0
-141 -128 0
-129 202 0
348 -87 0
-230 378 0
523 -678 0
-354 -307 0
-43 306 0
477 541 0
-421 458 0
383 -372 0
713 350 0
293 308 0
333 -53 0
222 -327 0
660 -304 0
22 -445 0
384 451 0
-383 -391 0
-492 624 0
-571 -151 0
294 379 0
269 687 0
442 188 0
344 360 0
-439 480 0
-693 168 0
620 43 0
-132 313 0
547 681 0
520 -251 0
419 -331 0
-300 3 0
171 300 0
189 291 0
-556 -162 0
172 -536 0
53 520 0
23 -332 0
452 -6 0
-582 454 0
-554 333 0
-245 24 0
-702 -689 0
511 -116 0
-283 248 0
-111 106 0
-55 -225 0
603 574 0
263 64 0
82 155 0
53 -13 0
-62 -6 0
36 448 0
287 381 0
145 -423 0
437 16 0
-186 230 0
-439 224 0
613 445 0
306 693 0
366 66 0
442 -511 0
429 410 0
460 -358 0
-425 -298 0
159 -605 0
-630 -28 0
104 688 0
-223 -681 0
583 170 0
384 -279 0
49 -264 0
444 295 0
591 -33 0
-153 700 0
-562 -489 0
656 48 0
-305 4 0
-422 -93 0
646 -93 0
107 348 0
402 191 0
431 22 0
-605 417 0
-410 -534 0
-675 243 0
-184 153 0
213 -265 0
-714 507 0
-115 -32 0
357 100 0
-102 -671 0
-137 -145 0
487 430 0
-672 -422 0
91 446 0
-35 696 0
-125 -166 0
29 -406 0
-246 -392 0
-116 333 0
-295 358 0
-558 -235 0
-571 639 0
-43 691 0
584 560 0
-341 -42 0
-16 426 0
-405 -684 0
-693 -557 0
415 184 0
-62 -8 0
567 -632 0
96 263 0
240 -2 0
606 14 0
356 266 0
-440 -161 0
184 -447 0
-575 -19 0
-600 695 0
688 425 0
323 64 0
-509 63 0
697 37 0
174 -62 0
646 279 0
-168 183 0
68 145 0
-316 461 0
572 18 0
-375 14 0
-96 323 0
537 311 0
133 -152 0
138 187 0
2 -599 0
677 103 0
-651 -86 0
-166 -186 0
-367 -644 0
215 470 0
-676 594 0
449 89 0
-34 568 0
-295 518 0
-276 459 0
-201 -31 0
-168 -194 0
-39 681 0
68 646 0
250 318 0
-483 -216 0
-457 49 0
585 466 0
-422 -521 0
-75 -579 0
-30 501 0
350 521 0
-178 -96 0
414 281 0
646 704 0
603 -338 0
258 -611 0
114 -636 0
416 -582 0
469 -190 0
249 324 0
-90 -199 0
621 -556 0
-572 -394 0
74 357 0
-698 708 0
-584 -92 0
405 501 0
-643 -416 0
655 379 0
-205 -86 0
-666 199 0
-271 264 0
660 493 0
217 3 0
58 -581 0
-547 417 0
278 276 0
80 -334 0
-598 70 0
367 335 0
-177 273 0
192 380 0
140 237 0
596 -62 0
465 142 0
505 254 0
572 105 0
-7 -92 0
691 29 0
10 -710 0
121 204 0
-28 262 0
-262 208 0
-644 363 0
-702 -656 0
107 384 0
415 -225 0
307 -693 0
-327 432 0
-549 493 0
-238 156 0
-339 -380 0
-713 -476 0
348 -150 0
611 399 0
396 -2 0
681 -231 0
-547 294 0
384 452 0
67 -647 0
-83 -474 0
-202 -167 0
705 303 0
-221 -83 0
687 518 0
-260 -456 0
154 -499 0
105 226 0
-195 171 0
321 -121 0
306 -320 0
-549 234 0
610 -336 0
-238 36 0
-234 -425 0
-253 359 0
210 -400 0
98 -309 0
-350 685 0
-511 428 0
566 -76 0
-321 -623 0
189 681 0
-150 -101 0
-232 -346 0
585 -319 0
-554 -303 0
-354 125 0
382 -579 0
297 665 0
315 308 0
508 -495 0
170 323 0
-214 -230 0
-126 -530 0
-463 227 0
-146 14 0
559 -200 0
-647 104 0
-714 451 0
-617 7 0
-603 -683 0
483 82 0
-341 68 0
-544 -354 0
-35 493 0
-93 308 0
-85 537 0
-608 -429 0
-404 -614 0
-437 61 0
-423 229 0
-536 265 0
578 619 0
-464 524 0
-608 535 0
64 277 0
222 49 0
114 -137 0
469 34 0
630 -102 0
549 -443 0
87 -297 0
110 -468 0
-92 -189 0
-167 525 0
-19 -259 0
45 118 0
-302 29 0
473 -123 0
572 -90 0
-675 -451 0
-445 212 0
-544 -666 0
331 -285 0
-401 -12 0
32 -31 0
-195 45 0
117 -548 0
-279 -139 0
612 148 0
-615 -558 0
-153 696 0
-618 -467 0
236 701 0
-34 695 0
-543 289 0
-242 264 0
-176 -497 0
466 491 0
29 -103 0
713 -485 0
-105 419 0
343 -668 0
-232 -607 0
110 -195 0
-43 -449 0
-643 -473 0
-136 -555 0
-440 638 0
-78 -19 0
278 523 0
-702 -565 0
222 -282 0
548 -236 0
311 71 0
646 -52 0
650 -444 0
-703 326 0
-253 -464 0
-14 648 0
540 -271 0
-502 -332 0
696 -474 0
-373 -295 0
625 324 0
-205 153 0
-443 -70 0
283 -114 0
275 -566 0
-158 -498 0
-65 -479 0
-141 -349 0
-251 -663 0
-459 -218 0
680 89 0
709 -507 0
-564 -628 0
182 -342 0
136 -712 0
-683 -342 0
-352 -441 0
-339 -360 0
220 -603 0
-238 -274 0
292 -509 0
-380 208 0
-123 466 0
-55 284 0
-200 -311 0
-345 285 0
-394 -572 0
-5 514 0
656 481 0
-145 -282 0
102 107 0
643 94 0
-408 452 0
563 -200 0
146 -373 0
108 209 0
593 -36 0
-128 106 0
-604 556 0
664 536 0
-616 -447 0
335 461 0
84 74 0
-278 59 0
-555 540 0
245 73 0
123 -648 0
-97 -195 0
49 27 0
-45 -177 0
-4 465 0
566 -618 0
551 -545 0
-648 370 0
-88 -128 0
-31 382 0
-527 215 0
111 -271 0
-550 334 0
-17 264 0
-65 648 0
425 -67 0
49 704 0
-364 13 0
-274 -658 0
1 445 0
-40 -47 0
-483 -570 0
-351 -539 0
-475 -191 0
596 368 0
520 40 0
151 -693 0
224 583 0
87 90 0
-602 -89 0
583 503 0
217 82 0
549 556 0
-272 -235 0
58 -52 0
371 227 0
-82 393 0
619 -437 0
-633 414 0
-42 -369 0
154 657 0
-598 -134 0
66 36 0
651 -120 0
428 80 0
412 269 0
619 -550 0
71 524 0
454 -161 0
-609 650 0
-458 362 0
475 186 0
691 4 0
276 -411 0
-525 -254 0
237 463 0
-599 664 0
307 424 0
-318 -659 0
-197 566 0
-98 -326 0
-272 -298 0
677 220 0
622 356 0
-545 -464 0
660 620 0
-132 -6 0
80 -319 0
475 -617 0
539 578 0
-421 -503 0
110 417 0
-92 315 0
25 -270 0
497 505 0
-708 217 0
-445 -348 0
697 -262 0
-358 180 0
-93 444 0
-79 -166 0
-101 -443 0
363 -237 0
-707 -249 0
300 -195 0
-475 -141 0
-374 555 0
394 -618 0
42 -118 0
648 350 0
613 -1 0
-622 -463 0
276 505 0
-259 93 0
370 16 0
-207 -672 0
335 185 0
493 -554 0
-435 -468 0
-358 32 0
-261 -26 0
433 -428 0
-572 371 0
-375 609 0
283 -715 0
-587 204 0
-171 -2 0
-607 232 0
-233 19 0
701 -375 0
616 -40 0
615 158 0
280 -700 0
-123 333 0
-295 -268 0
-175 686 0
53 -303 0
-200 444 0
221 247 0
-527 -339 0
687 642 0
-282 77 0
114 -304 0
317 -79 0
-31 453 0
289 199 0
-242 -351 0
-49 -375 0
-157 -593 0
79 7 0
-578 -645 0
-640 227 0
6 -161 0
-195 407 0
-508 -49 0
71 431 0
691 229 0
93 -313 0
-242 706 0
628 188 0
-211 -159 0
15 -19 0
124 -618 0
-408 173 0
-41 -525 0
591 -351 0
-271 219 0
189 -51 0
144 -367 0
-400 -139 0
620 -460 0
306 158 0
-416 -673 0
524 36 0
446 510 0
-519 -612 0
605 -55 0
219 578 0
530 684 0
-448 188 0
131 563 0
12 452 0
644 362 0
221 5 0
393 -190 0
1 173 0
-191 -520 0
239 281 0
588 -486 0
-715 189 0
565 335 0
-643 -28 0
-530 369 0
574 -44 0
626 273 0
640 -649 0
549 437 0
-292 685 0
583 251 0
-86 524 0
299 543 0
-25 131 0
-430 -69 0
-62 -220 0
26 452 0
-529 -186 0
578 -267 0
535 -414 0
-312 -27 0
-617 498 0
16 -625 0
-219 -332 0
297 -349 0
39 -645 0
569 -221 0
449 400 0
-568 -658 0
-422 108 0
317 -257 0
-226 -67 0
643 360 0
311 -630 0
-327 245 0
446 116 0
587 -277 0
-570 -469 0
680 -504 0
257 208 0
453 -710 0
-423 -682 0
71 101 0
-462 621 0
614 577 0
-596 588 0
-49 370 0
77 289 0
712 -628 0
-713 -81 0
278 -351 0
474 -303 0
356 247 0
-266 61 0
415 -267 0
465 -166 0
-267 578 0
-689 -651 0
-156 225 0
381 662 0
287 -35 0
655 692 0
-254 -694 0
-536 -523 0
-69 406 0
146 199 0
-618 111 0
93 -398 0
-156 452 0
663 473 0
-698 -83 0
-55 -544 0
-175 215 0
78 180 0
-75 613 0
279 -524 0
451 -522 0
-197 -711 0
69 -95 0
-678 650 0
607 -630 0
-693 -569 0
451 567 0
591 361 0
-597 -577 0
-125 -373 0
563 20 0
-29 -586 0
-128 -525 0
-411 -232 0
-259 596 0
202 370 0
-465 477 0
-356 487 0
-3 466 0
638 705 0
658 576 0
436 285 0
627 -483 0
537 -633 0
-340 172 0
276 -10 0
105 496 0
532 78 0
523 -466 0
690 133 0
-615 524 0
-108 662 0
-18 442 0
-261 72 0
626 -12 0
258 -330 0
-67 -509 0
562 -274 0
350 -383 0
-630 471 0
619 -589 0
-8 185 0
-193 310 0
396 -257 0
83 160 0
-554 -669 0
441 -31 0
363 -57 0
-710 448 0
-691 308 0
244 -390 0
-27 494 0
342 -516 0
583 639 0
-161 629 0
436 167 0
-677 442 0
223 637 0
-435 -111 0
528 569 0
-200 482 0
-118 574 0
574 -677 0
-659 -603 0
-665 77 0
634 609 0
475 432 0
47 -13 0
474 477 0
20 -13 0
450 2 0
95 499 0
-228 -377 0
275 -146 0
135 472 0
679 -31 0
615 138 0
-406 -527 0
681 298 0
-129 -379 0
-147 -200 0
-166 -710 0
347 64 0
541 1 0
654 -397 0
209 -97 0
-95 218 0
682 -129 0
556 466 0
-209 294 0
-463 -512 0
326 -246 0
273 -273 0
611 639 0
-176 84 0
-511 183 0
-332 217 0
29 -263 0
-600 297 0
679 127 0
-544 315 0
629 185 0
52 -671 0
682 481 0
-426 77 0
248 323 0
-74 -506 0
308 -549 0
327 -161 0
56 -438 0
-30 45 0
38 -359 0
-600 443 0
-354 -454 0
217 -236 0
-28 -386 0
224 612 0
663 -83 0
-418 -596 0
37 633 0
-631 6 0
-671 371 0
-192 57 0
99 696 0
-239 -44 0
-297 306 0
-517 -115 0
495 363 0
-54 347 0
-65 -255 0
-468 381 0
-175 -548 0
-127 182 0
-363 -101 0
474 -502 0
-565 -689 0
369 -411 0
-6 355 0
-399 -445 0
677 710 0
-428 619 0
380 331 0
-527 -370 0
-183 94 0
-484 437 0
-709 -708 0
-66 611 0
-62 -378 0
-549 634 0
-102 -177 0
162 576 0
-704 604 0
236 -675 0
500 -696 0
-401 -503 0
697 296 0
-651 111 0
702 -175 0
-252 258 0
-55 -619 0
-568 164 0
-167 79 0
-377 -121 0
520 136 0
-12 -463 0
561 -392 0
601 -649 0
-39 121 0
-300 -13 0
515 -661 0
227 14 0
454 532 0
546 535 0
-432 472 0
653 -399 0
-104 -254 0
386 -205 0
-314 -340 0
-589 662 0
385 494 0
-228 154 0
-69 396 0
313 79 0
558 -439 0
-333 322 0
271 -274 0
-34 230 0
-633 -121 0
-641 -206 0
475 177 0
594 620 0
-385 -565 0
-633 37 0
111 137 0
634 608 0
259 -400 0
190 243 0
499 529 0
-236 -672 0
-548 669 0
522 147 0
-468 401 0
614 -186 0
-440 -421 0
18 -121 0
-126 -250 0
-374 560 0
680 402 0
110 28 0
-119 257 0
117 149 0
-536 235 0
215 458 0
29 -67 0
-239 -184 0
711 -169 0
-549 55 0
541 638 0
-40 -434 0
587 -263 0
-710 -713 0
-118 -328 0
308 -512 0
-323 -295 0
-427 37 0
121 456 0
-254 -598 0
-85 -516 0
-234 635 0
309 441 0
-203 280 0
-153 194 0
-231 430 0
230 29 0
-339 -411 0
-321 -672 0
-101 255 0
193 -250 0
517 159 0
-176 326 0
-35 709 0
-464 221 0
-236 36 0
104 338 0
-710 -488 0
-516 -409 0
682 -253 0
458 -502 0
555 -658 0
629 -655 0
503 -398 0
-285 704 0
-710 17 0
-626 -654 0
494 -702 0
-642 149 0
299 -553 0
-527 539 0
-305 -201 0
331 218 0
-486 473 0
-82 -33 0
656 -393 0
701 -248 0
-263 656 0
-519 -496 0
-421 -597 0
284 596 0
-379 210 0
351 -103 0
-379 708 0
-154 -394 0
-437 -126 0
100 474 0
146 189 0
588 -351 0
280 315 0
-2 574 0
-95 -520 0
161 640 0
209 202 0
-6 543 0
523 697 0
183 -480 0
452 348 0
301 -702 0
-62 -664 0
-201 200 0
614 122 0
318 -205 0
111 432 0
642 -55 0
456 -148 0
315 662 0
-107 575 0
244 120 0
-238 345 0
17 299 0
-338 -452 0
-349 -63 0
416 159 0
593 34 0
599 -200 0
-23 678 0
111 -433 0
-332 453 0
10 97 0
269 -87 0
192 420 0
348 476 0
-122 381 0
-70 74 0
575 10 0
-534 550 0
438 526 0
85 -536 0
-313 279 0
-633 -445 0
-658 -610 0
158 -320 0
135 687 0
515 323 0
706 -713 0
-261 584 0
499 -341 0
-26 -527 0
420 215 0
-542 -507 0
-100 46 0
487 58 0
702 -610 0
569 -249 0
131 33 0
444 499 0
-432 -590 0
273 -90 0
-541 -428 0
-203 -352 0
-70 135 0
596 -120 0
-391 308 0
493 664 0
-565 690 0
-357 -238 0
-382 652 0
291 393 0
-468 -282 0
66 567 0
-595 620 0
-293 157 0
547 325 0
715 -673 0
-80 -354 0
650 -685 0
24 316 0
-623 -467 0
-128 668 0
-625 -223 0
-318 -143 0
-116 506 0
581 592 0
479 -262 0
685 -51 0
15 -394 0
-550 -484 0
83 -21 0
354 357 0
-137 138 0
49 -125 0
81 -517 0
-487 -666 0
666 15 0
653 -428 0
-383 194 0
-464 71 0
497 191 0
551 -350 0
225 -289 0
