c bounds 261 261
p cnf 621 503
471 -42 0
-309 -153 0
-479 -90 0
-617 -619 0
-240 -500 0
7 -329 0
-304 583 0
-32 456 0
-228 -574 0
-467 -377 0
-365 -211 0
-8 201 0
-548 -124 0
-80 -214 0
-418 -533 0
44 388 0
-169 -125 0
54 -512 0
-214 37 0
123 -284 0
518 200 0
-87 50 0
-333 557 0
574 410 0
314 12 0
337 271 0
-543 -284 0
-159 173 0
-87 395 0
-141 373 0
337 170 0
-499 310 0
359 232 0
-164 -296 0
-604 257 0
-488 -384 0
76 614 0
323 40 0
542 135 0
441 -255 0
-89 -196 0
-574 56 0
514 382 0
60 -535 0
435 -46 0
-17 201 0
-402 373 0
-22 222 0
232 -67 0
611 -605 0
-309 -411 0
413 -467 0
310 -420 0
-211 -364 0
-246 233 0
493 -497 0
-263 294 0
-85 210 0
-558 323 0
-476 110 0
565 123 0
-372 29 0
-147 146 0
582 332 0
-339 -503 0
531 -197 0
463 -508 0
589 76 0
451 530 0
-317 -87 0
-148 224 0
459 296 0
-204 -164 0
28 147 0
-588 134 0
-253 524 0
-206 -332 0
161 63 0
45 276 0
-130 -163 0
-451 484 0
-549 -604 0
-217 -256 0
125 366 0
-2 -226 0
-406 -208 0
-215 77 0
-3 297 0
568 466 0
487 -608 0
-449 539 0
-501 591 0
620 562 0
-601 546 0
10 427 0
81 543 0
185 -387 0
-179 -159 0
-536 -281 0
-471 -563 0
-154 172 0
343 426 0
138 145 0
301 218 0
293 468 0
-361 182 0
32 71 0
-611 -425 0
14 -89 0
-479 30 0
-456 295 0
169 405 0
577 314 0
618 -139 0
579 -43 0
183 602 0
36 -605 0
-481 -362 0
-236 -119 0
-33 304 0
-439 -201 0
326 -24 0
-363 -98 0
38 132 0
-587 -311 0
275 -107 0
-549 321 0
145 -271 0
-469 184 0
-26 608 0
-547 509 0
-291 91 0
488 191 0
319 144 0
-152 280 0
176 65 0
212 -368 0
312 573 0
577 340 0
-517 -59 0
-8 -431 0
-84 438 0
-593 -537 0
-55 359 0
110 -47 0
-436 129 0
-431 210 0
-497 -211 0
-591 -340 0
390 78 0
-347 1 0
-270 -112 0
420 373 0
199 263 0
51 202 0
-434 565 0
37 -449 0
-425 116 0
-105 524 0
-439 -124 0
7 -143 0
-330 -338 0
-465 -350 0
-113 -162 0
-575 506 0
-197 161 0
484 -469 0
-252 -402 0
-490 182 0
-372 120 0
169 600 0
-229 -193 0
-112 523 0
430 -525 0
-591 316 0
-456 -590 0
171 -367 0
-411 53 0
-322 -164 0
-321 182 0
-143 300 0
410 620 0
486 154 0
543 -169 0
108 607 0
384 232 0
-148 387 0
322 200 0
385 -271 0
553 140 0
-596 -329 0
-339 269 0
-64 -98 0
93 -236 0
-89 357 0
600 204 0
-609 -187 0
325 323 0
537 -361 0
6 -422 0
-335 -34 0
-120 -317 0
468 -494 0
237 -374 0
-112 -181 0
423 502 0
172 -247 0
-605 408 0
-516 -335 0
486 -434 0
580 -502 0
419 -560 0
-235 135 0
486 209 0
-230 -217 0
449 195 0
-561 -75 0
480 338 0
-444 365 0
-372 469 0
-181 279 0
-223 303 0
-240 -316 0
-148 267 0
-286 313 0
-401 -120 0
-613 236 0
260 72 0
-503 -383 0
-616 460 0
10 -175 0
16 184 0
-166 267 0
-260 222 0
-533 80 0
-614 -138 0
593 621 0
294 -271 0
273 210 0
115 -345 0
118 464 0
45 -562 0
530 487 0
-491 321 0
453 215 0
-60 -107 0
511 212 0
479 607 0
135 -361 0
259 -247 0
384 486 0
123 315 0
609 218 0
511 171 0
-1 -87 0
429 497 0
-38 322 0
-585 592 0
-280 513 0
-194 509 0
-179 396 0
44 95 0
-203 303 0
-476 288 0
236 -347 0
310 547 0
-44 10 0
252 -612 0
-93 482 0
304 -346 0
-481 15 0
57 560 0
-342 -325 0
-334 -20 0
-174 -529 0
-354 -486 0
336 -609 0
460 149 0
61 -569 0
573 137 0
-413 489 0
-547 -489 0
82 291 0
158 -399 0
-427 -508 0
264 -349 0
600 64 0
-182 97 0
602 47 0
-115 48 0
439 357 0
263 440 0
506 -416 0
619 581 0
81 91 0
-508 620 0
310 223 0
-349 -518 0
-621 -519 0
-207 -535 0
-118 -392 0
568 2 0
401 -420 0
-599 301 0
591 -365 0
490 -127 0
285 -255 0
249 582 0
-46 -90 0
-108 596 0
356 -84 0
438 -452 0
192 -542 0
123 269 0
476 47 0
-281 426 0
325 -616 0
-499 -303 0
291 -313 0
-569 -227 0
-558 -601 0
-482 -449 0
-141 426 0
-329 -384 0
104 -242 0
-563 -414 0
-517 389 0
469 96 0
48 -376 0
-106 116 0
-5 35 0
-582 -601 0
-84 348 0
-469 317 0
577 543 0
-370 -394 0
-425 -445 0
515 -11 0
-469 427 0
187 281 0
-533 427 0
-75 -11 0
-79 382 0
370 -58 0
589 80 0
376 348 0
-226 598 0
-326 -406 0
251 417 0
-142 -470 0
-340 339 0
377 537 0
-205 -421 0
375 583 0
-121 -13 0
262 -124 0
-397 460 0
-482 137 0
493 -481 0
-376 558 0
-518 -93 0
-60 137 0
-517 -495 0
505 -193 0
355 -1 0
-361 134 0
594 506 0
-263 407 0
-26 364 0
135 -349 0
98 435 0
-290 -374 0
58 -465 0
351 568 0
-172 357 0
223 -603 0
-14 322 0
170 201 0
478 -494 0
489 -80 0
-339 -453 0
239 446 0
-405 -27 0
-61 -266 0
63 473 0
-543 -571 0
-186 316 0
484 354 0
428 -322 0
147 -405 0
445 546 0
483 511 0
-499 484 0
-343 574 0
605 -29 0
600 -303 0
582 -388 0
-156 -26 0
580 -510 0
-519 -477 0
256 232 0
-152 36 0
-45 -551 0
-129 542 0
-6 -239 0
-255 -321 0
-133 586 0
543 97 0
-316 58 0
-34 574 0
258 -25 0
-252 432 0
500 -399 0
209 -387 0
379 446 0
-14 77 0
-108 -548 0
75 -604 0
-544 92 0
-97 263 0
-365 -44 0
-109 378 0
441 -408 0
-598 -243 0
-226 -563 0
-526 112 0
-244 119 0
51 610 0
-141 459 0
-152 -516 0
307 360 0
304 12 0
373 77 0
-399 204 0
-358 607 0
43 260 0
-571 177 0
-569 -364 0
158 -81 0
527 -560 0
-387 -448 0
-70 -527 0
92 358 0
-464 191 0
191 -203 0
-307 -249 0
-526 -7 0
605 183 0
-480 -196 0
70 447 0
385 -609 0
-313 133 0
275 -573 0
251 -308 0
220 -206 0
-611 167 0
-284 533 0
196 -334 0
289 34 0
-362 -495 0
72 131 0
72 -542 0
14 182 0
428 282 0
171 -605 0
56 -414 0
-205 -498 0
-207 507 0
-156 275 0
221 222 0
-273 -377 0
16 60 0
436 372 0
-101 3 0
-554 375 0
-333 501 0
-181 -312 0
-185 206 0
-277 65 0
95 237 0
-340 -252 0
-122 401 0
-231 100 0
417 438 0
72 -377 0
-100 -477 0
327 298 0
358 88 0
50 -601 0
460 269 0
-6 269 0
602 -328 0
443 129 0
-405 460 0
78 -593 0
497 -234 0
-570 -179 0
-194 360 0
198 280 0
-541 -231 0
525 290 0
-588 545 0
251 -306 0
