c bounds 92 108
p cnf 431 661
-192 117 0
323 188 0
215 -257 0
-58 228 0
157 138 0
-280 -27 0
334 -278 0
-211 -235 0
-147 254 0
91 -317 0
215 -320 0
310 -161 0
45 241 0
44 -324 0
348 -34 0
-328 -220 0
-273 -403 0
-200 -50 0
334 -35 0
270 -105 0
-332 173 0
384 -345 0
-158 -424 0
-361 201 0
-288 -336 0
304 293 0
-368 -29 0
414 -336 0
-133 50 0
45 -227 0
-422 -161 0
163 117 0
204 320 0
-155 49 0
-427 -425 0
-161 -58 0
337 48 0
-211 -346 0
-382 -40 0
232 197 0
160 -328 0
-190 78 0
-424 -339 0
-295 -132 0
-39 -350 0
-358 349 0
395 -51 0
-84 -415 0
-200 186 0
-336 -296 0
308 64 0
-80 333 0
-238 -277 0
-267 -263 0
-94 117 0
-112 -196 0
171 -392 0
-382 -283 0
-10 -207 0
109 64 0
-143 -19 0
183 -27 0
-143 -310 0
-395 65 0
-62 -78 0
-30 326 0
-173 -268 0
351 190 0
-121 364 0
-51 -55 0
285 322 0
148 323 0
-326 -257 0
423 377 0
229 -213 0
349 212 0
-39 279 0
199 409 0
-209 314 0
153 409 0
-266 210 0
-119 227 0
39 -278 0
271 26 0
62 103 0
-326 223 0
206 -324 0
-214 -226 0
172 398 0
-428 369 0
-373 399 0
137 -220 0
-112 410 0
-10 77 0
-227 -211 0
180 -183 0
-291 -257 0
151 -429 0
-132 -119 0
-174 -137 0
252 151 0
-19 349 0
-223 399 0
-367 146 0
191 -362 0
-199 359 0
-349 -8 0
194 -292 0
-134 167 0
-281 -284 0
-318 21 0
142 274 0
345 -92 0
157 251 0
-280 -82 0
-341 -349 0
159 -78 0
-347 -4 0
8 219 0
395 193 0
225 -9 0
-300 194 0
-235 -56 0
-51 -374 0
-112 -162 0
-370 -204 0
118 308 0
43 -286 0
298 138 0
-401 19 0
261 -105 0
-249 -360 0
-31 87 0
-383 -28 0
-133 297 0
231 133 0
26 34 0
384 234 0
250 369 0
-223 -295 0
-164 87 0
-16 -12 0
221 -269 0
409 -310 0
165 -280 0
-13 -218 0
-269 -285 0
218 402 0
245 -96 0
259 307 0
329 -348 0
250 -18 0
-417 188 0
-379 -144 0
9 421 0
-293 -214 0
409 280 0
-295 15 0
79 376 0
-6 325 0
-61 339 0
18 149 0
395 -424 0
-234 -180 0
217 -291 0
-36 -279 0
-96 -315 0
-173 -36 0
120 395 0
163 188 0
389 -137 0
-212 -60 0
-328 -404 0
353 -20 0
336 207 0
-49 16 0
33 271 0
30 139 0
-319 367 0
-295 -269 0
253 -405 0
-72 315 0
269 -112 0
139 201 0
284 109 0
-232 -244 0
293 -234 0
1 -190 0
-182 249 0
338 146 0
376 -324 0
-288 115 0
73 247 0
391 -316 0
-184 -241 0
103 378 0
416 -151 0
137 395 0
418 68 0
179 80 0
347 -197 0
-143 162 0
239 -210 0
-180 352 0
386 249 0
-167 -388 0
-336 -376 0
-61 -207 0
23 119 0
-60 -407 0
-220 -78 0
-237 -235 0
11 149 0
429 -404 0
-227 306 0
323 28 0
171 249 0
306 -295 0
156 230 0
-145 273 0
-124 -55 0
142 408 0
335 -200 0
330 -143 0
-316 191 0
430 -219 0
421 24 0
-305 45 0
-166 -31 0
99 -306 0
274 -269 0
-19 73 0
-141 418 0
21 -49 0
-363 -20 0
-7 144 0
-238 111 0
-382 230 0
-424 -373 0
-382 -227 0
-106 -368 0
23 -429 0
232 165 0
-51 -290 0
365 -398 0
-229 -378 0
97 302 0
-56 -404 0
-17 98 0
375 -311 0
375 -322 0
-336 229 0
-411 302 0
145 -152 0
-382 395 0
-212 -301 0
-15 301 0
-339 337 0
73 315 0
-405 272 0
-141 -255 0
112 188 0
-154 364 0
-22 327 0
-96 -424 0
392 -162 0
223 150 0
-374 207 0
-357 -332 0
191 -327 0
-180 234 0
50 294 0
230 298 0
336 -404 0
-223 202 0
399 -6 0
-123 379 0
23 250 0
-256 142 0
-339 -227 0
361 338 0
421 -214 0
230 -174 0
-186 -227 0
-147 -181 0
-407 152 0
146 -197 0
223 69 0
-45 -270 0
-52 -182 0
-206 -275 0
-287 61 0
161 -270 0
38 418 0
353 -168 0
-53 -246 0
-155 -173 0
-19 -104 0
-60 402 0
-65 335 0
-190 -73 0
37 400 0
-388 129 0
-72 9 0
225 -421 0
353 -422 0
222 -159 0
-86 333 0
-44 126 0
-90 386 0
-359 133 0
57 297 0
-99 -35 0
344 325 0
-384 313 0
106 308 0
352 5 0
-204 18 0
184 -332 0
98 230 0
-358 -119 0
-233 21 0
-329 342 0
-66 355 0
-64 -108 0
-171 -149 0
329 138 0
251 299 0
-81 -342 0
274 58 0
-374 42 0
255 -425 0
122 -65 0
218 -351 0
225 -306 0
-131 285 0
-266 188 0
70 182 0
360 -263 0
-27 397 0
131 384 0
44 -17 0
337 323 0
70 42 0
-52 -337 0
-199 -240 0
-115 -196 0
169 -27 0
272 394 0
21 431 0
380 367 0
-402 -332 0
-238 245 0
327 -347 0
-35 -12 0
2 138 0
-205 168 0
429 -96 0
-414 146 0
-229 -424 0
275 -332 0
361 -273 0
11 389 0
1 -174 0
273 348 0
347 -260 0
188 418 0
242 -200 0
416 -200 0
146 -246 0
-401 -345 0
-73 -376 0
-256 56 0
-354 305 0
-199 -155 0
171 -51 0
133 -85 0
-21 -372 0
-269 431 0
-113 87 0
-358 -357 0
195 97 0
428 -189 0
-12 206 0
179 82 0
133 -419 0
-12 -7 0
21 286 0
-182 -192 0
-112 125 0
410 273 0
-358 258 0
243 -125 0
199 33 0
429 -309 0
-12 50 0
-285 -130 0
-185 -32 0
305 20 0
353 -296 0
-309 -369 0
281 -68 0
428 -153 0
-4 343 0
-258 281 0
95 66 0
-255 152 0
-250 -116 0
-125 -66 0
-341 -93 0
156 -118 0
379 142 0
153 333 0
-318 -30 0
349 -198 0
-414 -270 0
-101 81 0
308 371 0
168 -134 0
260 267 0
-258 48 0
94 -420 0
150 -288 0
418 309 0
126 -20 0
327 77 0
131 340 0
-412 372 0
-296 349 0
-8 -356 0
306 -198 0
-81 -282 0
-1 -385 0
330 -46 0
298 392 0
-149 -329 0
-372 -378 0
-316 114 0
218 351 0
157 -301 0
302 -44 0
-376 -182 0
-9 -74 0
384 418 0
-154 329 0
-212 -361 0
136 -131 0
168 -43 0
-39 76 0
352 -251 0
247 72 0
302 200 0
2 -376 0
-229 397 0
-368 167 0
-88 -239 0
364 89 0
263 -269 0
312 403 0
-122 -7 0
427 322 0
246 -295 0
79 181 0
75 -55 0
343 71 0
-262 -173 0
146 -177 0
-385 320 0
365 -427 0
-112 -326 0
141 -278 0
-104 64 0
78 -240 0
44 367 0
-133 43 0
-98 423 0
66 392 0
363 177 0
-222 -39 0
82 -288 0
-32 -209 0
-404 280 0
-104 241 0
213 -130 0
-427 387 0
-278 89 0
262 50 0
-385 -163 0
-205 -360 0
-251 351 0
226 88 0
-324 219 0
47 93 0
-168 337 0
184 123 0
361 376 0
-366 287 0
160 -34 0
-280 375 0
184 -383 0
389 151 0
123 -317 0
313 50 0
145 -200 0
158 -334 0
-173 -377 0
-246 -291 0
330 -7 0
-314 384 0
-185 352 0
-170 -8 0
-78 353 0
92 -263 0
-127 -422 0
-170 135 0
-41 275 0
-409 89 0
-60 -135 0
-356 -270 0
404 -183 0
-370 -328 0
-301 -350 0
286 -235 0
-154 -90 0
249 120 0
-96 -104 0
-227 -272 0
-107 -46 0
-107 -211 0
430 -325 0
-284 115 0
-185 -426 0
59 -121 0
-154 -430 0
288 271 0
-135 353 0
429 -299 0
-377 -327 0
-114 -64 0
24 -285 0
-93 33 0
-226 260 0
-392 307 0
-412 98 0
323 -77 0
331 -245 0
319 337 0
-116 -292 0
-271 -424 0
380 -106 0
71 -324 0
222 -173 0
-213 -357 0
344 -303 0
375 364 0
354 298 0
-170 10 0
-236 -360 0
364 -32 0
304 95 0
322 -366 0
16 329 0
-159 -175 0
-17 -403 0
-341 311 0
-336 -386 0
411 235 0
184 -127 0
-358 406 0
-56 -215 0
-286 -217 0
230 -422 0
-221 79 0
260 -25 0
-56 219 0
70 -428 0
-350 379 0
217 348 0
390 45 0
-213 -181 0
23 298 0
4 -249 0
404 171 0
41 21 0
-317 199 0
226 -69 0
-355 30 0
110 -64 0
-60 384 0
-156 -116 0
-374 -146 0
-263 26 0
157 -223 0
-269 156 0
-288 -364 0
-303 391 0
-131 -283 0
367 314 0
15 -192 0
360 338 0
-425 117 0
355 -223 0
406 63 0
-198 -90 0
92 -166 0
-102 -350 0
254 -134 0
421 314 0
397 65 0
250 -112 0
351 -238 0
-240 -295 0
-341 353 0
-417 184 0
-300 340 0
-429 -388 0
278 -227 0
-166 322 0
-363 414 0
-371 334 0
-48 341 0
-72 44 0
-59 177 0
-324 -360 0
-51 282 0
281 271 0
113 274 0
57 87 0
-152 -213 0
-220 370 0
413 355 0
43 -389 0
-3 -404 0
-420 -231 0
261 -291 0
-386 23 0
172 63 0
361 142 0
152 -325 0
207 243 0
-288 -429 0
-354 -128 0
357 -173 0
343 301 0
-99 83 0
-95 369 0
367 178 0
410 179 0
-324 -261 0
429 208 0
-397 115 0
-322 409 0
361 127 0
-145 151 0
279 -237 0
212 -291 0
-198 14 0
260 -243 0
-116 259 0
-164 -227 0
315 84 0
