c bounds 114 141
p cnf 763 1644
154 -39 0
465 237 0
-623 -328 0
469 -128 0
548 -213 0
458 703 0
-540 724 0
-190 90 0
-294 699 0
-678 -447 0
-492 318 0
540 251 0
475 -209 0
83 157 0
-709 448 0
-441 112 0
-730 359 0
-165 -261 0
693 -364 0
-173 335 0
-422 -173 0
-299 -526 0
247 323 0
626 26 0
57 705 0
758 -634 0
-505 -664 0
-337 294 0
-300 -241 0
-7 -636 0
738 347 0
554 204 0
-115 686 0
-670 -48 0
57 102 0
-116 -502 0
32 -696 0
550 -630 0
-169 582 0
603 -710 0
542 259 0
96 -407 0
80 -263 0
617 -119 0
581 -353 0
-678 671 0
-122 -503 0
-757 432 0
-637 323 0
612 80 0
-465 532 0
372 -486 0
-624 501 0
-97 143 0
-739 -327 0
-492 17 0
-52 -566 0
577 -653 0
-542 219 0
65 741 0
660 238 0
110 -286 0
289 431 0
-339 317 0
322 -1 0
-280 94 0
-9 556 0
692 639 0
53 632 0
485 -56 0
-759 -728 0
234 574 0
489 704 0
-616 -191 0
-673 -73 0
460 318 0
-596 32 0
235 -134 0
365 -155 0
-279 396 0
-36 -362 0
69 615 0
591 -54 0
-60 -409 0
-259 267 0
-763 622 0
-481 -15 0
-11 -308 0
182 -404 0
248 -334 0
-103 -172 0
-670 -700 0
-662 545 0
-35 650 0
28 328 0
-705 -586 0
-166 -565 0
708 477 0
-282 -564 0
20 434 0
-362 640 0
645 -390 0
-663 -651 0
448 545 0
108 -699 0
689 347 0
226 745 0
-500 -614 0
44 -562 0
-551 -554 0
-86 -658 0
-369 87 0
531 507 0
101 -391 0
-323 -630 0
-263 513 0
365 204 0
-731 758 0
-151 -291 0
-398 641 0
560 -701 0
-422 -123 0
66 77 0
-358 651 0
517 -383 0
454 715 0
69 24 0
157 -635 0
421 414 0
643 -528 0
-224 459 0
514 338 0
-679 601 0
-704 325 0
-138 755 0
-446 88 0
-541 -738 0
-505 446 0
-468 -145 0
-354 179 0
623 383 0
-761 -427 0
-717 718 0
-630 274 0
655 -173 0
721 363 0
518 710 0
-753 680 0
55 686 0
-178 485 0
166 -216 0
-747 342 0
-169 -346 0
662 652 0
442 -78 0
-633 -493 0
361 425 0
-716 -209 0
-619 -171 0
294 89 0
565 -440 0
114 -696 0
-697 162 0
56 -158 0
142 422 0
365 120 0
-550 223 0
530 173 0
485 -509 0
-727 555 0
453 469 0
279 609 0
442 -74 0
578 -476 0
324 -562 0
680 561 0
683 365 0
102 -68 0
655 14 0
-449 -351 0
571 640 0
510 -341 0
-758 -316 0
-385 -25 0
-730 -684 0
-282 159 0
263 2 0
-737 -9 0
-377 -212 0
331 588 0
-498 121 0
-181 -332 0
213 -613 0
501 661 0
-477 516 0
44 494 0
2 -754 0
611 -353 0
421 -83 0
4 -527 0
222 -171 0
-437 595 0
-10 -166 0
93 -175 0
-439 -189 0
-460 133 0
-324 -82 0
726 -92 0
369 -62 0
40 575 0
511 408 0
639 428 0
-436 -596 0
563 -458 0
583 334 0
-361 85 0
-257 -742 0
-356 -363 0
580 -379 0
294 -331 0
-351 -384 0
-298 45 0
635 -591 0
-219 -163 0
-312 -194 0
-305 -97 0
-190 527 0
-573 3 0
-663 -549 0
732 75 0
230 -176 0
-449 11 0
487 294 0
-13 -45 0
428 -253 0
-89 51 0
-417 -625 0
740 -736 0
156 -750 0
217 2 0
-489 -433 0
-181 231 0
655 79 0
-512 664 0
-391 288 0
237 761 0
-52 -367 0
496 26 0
465 -82 0
386 -751 0
683 -716 0
-446 552 0
-498 -424 0
-129 5 0
-471 -508 0
-169 271 0
686 -191 0
23 382 0
428 361 0
30 -175 0
173 26 0
-404 246 0
444 -583 0
-498 -735 0
623 78 0
589 379 0
-64 -338 0
315 463 0
40 -628 0
149 -539 0
-509 -159 0
723 102 0
-713 497 0
601 281 0
324 -565 0
-139 259 0
-616 51 0
-407 70 0
90 350 0
272 603 0
738 -241 0
-180 518 0
-695 237 0
57 75 0
-194 212 0
523 -601 0
-403 183 0
-413 -333 0
379 731 0
-142 412 0
340 -132 0
-150 23 0
-656 459 0
-583 420 0
-520 365 0
-105 -646 0
503 58 0
37 68 0
-324 322 0
-327 -734 0
-271 534 0
-212 -719 0
-600 625 0
-271 217 0
-443 721 0
631 -11 0
701 -437 0
286 -180 0
-403 580 0
-68 739 0
144 183 0
-644 -440 0
50 -331 0
-376 -9 0
251 142 0
64 -136 0
-719 504 0
277 314 0
282 8 0
-462 -263 0
-701 605 0
-674 -637 0
84 386 0
213 -287 0
-662 602 0
-638 463 0
512 -409 0
-251 -303 0
310 754 0
40 455 0
-75 524 0
522 182 0
-379 -511 0
-188 -443 0
463 -590 0
-355 157 0
138 274 0
-509 -513 0
-369 -152 0
30 127 0
321 -669 0
278 -447 0
154 -547 0
510 -116 0
-276 503 0
101 -649 0
-368 595 0
-484 12 0
426 294 0
247 651 0
701 -83 0
107 -540 0
-369 142 0
563 419 0
-442 758 0
-549 -288 0
478 288 0
-326 26 0
-583 -753 0
3 545 0
-64 -702 0
-290 683 0
-587 244 0
734 -695 0
637 366 0
404 311 0
-645 -576 0
-378 125 0
501 -435 0
476 452 0
-345 152 0
-667 45 0
142 145 0
248 -330 0
-64 -284 0
53 -391 0
610 344 0
181 -624 0
400 572 0
19 -210 0
14 -259 0
335 -27 0
333 -436 0
234 -682 0
670 144 0
296 -179 0
528 -269 0
-525 659 0
514 469 0
424 245 0
516 -713 0
-309 -224 0
-412 106 0
110 93 0
-336 -644 0
-719 183 0
-270 17 0
-657 -173 0
421 529 0
732 -61 0
-544 -183 0
-567 538 0
-298 -452 0
-511 32 0
741 538 0
622 -44 0
-189 643 0
77 -475 0
77 -742 0
-540 -418 0
117 270 0
-707 -506 0
-556 743 0
535 -22 0
715 12 0
-377 49 0
295 -45 0
245 -440 0
93 400 0
-265 -225 0
-161 525 0
515 655 0
-109 -414 0
-364 -91 0
419 -215 0
-132 -322 0
-35 -226 0
-243 -608 0
-549 567 0
-40 711 0
-152 -642 0
125 488 0
-680 531 0
-63 -172 0
-730 -599 0
-261 532 0
28 -313 0
183 601 0
-419 -541 0
162 691 0
-151 289 0
-122 -613 0
200 420 0
154 -617 0
-539 217 0
-376 413 0
-11 20 0
-671 720 0
371 -460 0
-702 -267 0
174 478 0
-275 -131 0
-539 296 0
533 91 0
-8 510 0
-606 -99 0
445 715 0
-681 -83 0
282 -417 0
15 676 0
538 -76 0
393 323 0
-581 -284 0
-653 572 0
-158 -564 0
-734 227 0
-232 398 0
-434 84 0
-667 101 0
393 -590 0
169 288 0
-355 640 0
323 -358 0
250 164 0
-209 -142 0
-139 -176 0
-163 324 0
383 -576 0
-189 -685 0
745 -746 0
-738 139 0
-391 59 0
-34 672 0
496 747 0
654 -335 0
-147 -583 0
-321 343 0
114 728 0
-24 266 0
-638 -229 0
238 -132 0
-491 -195 0
-197 19 0
333 193 0
321 -46 0
342 460 0
-372 272 0
568 613 0
307 -601 0
-28 146 0
543 -589 0
-596 -576 0
-187 -658 0
-70 344 0
-169 420 0
-725 -224 0
-492 -228 0
37 748 0
-158 140 0
95 -52 0
643 395 0
-626 -356 0
318 98 0
-547 674 0
732 -18 0
437 30 0
-442 -305 0
-23 -27 0
752 -301 0
444 536 0
373 527 0
-558 -86 0
555 -634 0
-663 -268 0
-364 -355 0
-386 405 0
-266 54 0
332 -649 0
215 -414 0
-432 4 0
501 -362 0
-589 -552 0
180 115 0
-392 162 0
448 -176 0
222 201 0
-300 141 0
297 563 0
-124 -209 0
-675 174 0
480 -60 0
298 48 0
-367 -417 0
681 -62 0
-375 509 0
502 159 0
516 -225 0
635 635 0
-236 230 0
-572 -7 0
298 625 0
57 694 0
-124 -190 0
287 469 0
481 -116 0
397 -468 0
431 389 0
448 -441 0
681 173 0
-377 -291 0
478 435 0
-600 587 0
-567 412 0
-566 -180 0
399 -455 0
14 182 0
-194 45 0
-154 613 0
-313 -177 0
-621 141 0
205 352 0
732 456 0
248 742 0
-513 97 0
393 272 0
647 -326 0
-694 625 0
-172 -214 0
33 -249 0
496 -307 0
605 -125 0
167 -263 0
-332 556 0
520 -466 0
-549 -131 0
-495 -553 0
-719 -562 0
405 -372 0
-502 157 0
185 289 0
-40 625 0
-432 -589 0
-336 211 0
-497 756 0
-713 -502 0
-622 222 0
205 42 0
379 -208 0
735 113 0
760 434 0
469 -558 0
416 -568 0
-733 734 0
-178 -116 0
751 -611 0
-513 720 0
21 494 0
726 -172 0
-220 -632 0
-340 -77 0
-339 -727 0
-101 -472 0
100 408 0
-94 376 0
506 -299 0
283 233 0
-673 632 0
-696 111 0
47 -191 0
72 -727 0
507 317 0
527 464 0
239 -417 0
528 210 0
399 -720 0
192 639 0
-473 -74 0
157 202 0
356 364 0
87 -70 0
-226 -64 0
-286 -365 0
-472 257 0
-757 -619 0
-410 244 0
158 -475 0
-212 -510 0
461 -277 0
-424 -415 0
30 -303 0
-758 -304 0
168 579 0
154 500 0
-274 -284 0
387 -87 0
547 503 0
495 459 0
-565 -516 0
-148 -106 0
695 -530 0
216 -18 0
266 -705 0
343 188 0
-17 382 0
701 690 0
507 -697 0
-458 -165 0
644 36 0
-544 -124 0
425 -474 0
-199 663 0
290 42 0
-364 -762 0
559 591 0
-214 -706 0
309 459 0
-519 542 0
238 -700 0
567 -259 0
663 359 0
-507 -669 0
697 510 0
-5 -727 0
-157 -731 0
326 102 0
-719 -393 0
597 -187 0
-418 -370 0
-661 -702 0
-524 488 0
455 301 0
175 371 0
-539 630 0
419 407 0
645 -631 0
761 597 0
323 425 0
-706 330 0
-379 4 0
324 491 0
625 583 0
238 561 0
-723 -377 0
-358 457 0
-366 24 0
531 -654 0
507 -575 0
744 -103 0
25 -22 0
-219 -731 0
185 -198 0
-15 -627 0
167 -124 0
578 643 0
527 -427 0
-658 707 0
564 432 0
-749 387 0
-256 593 0
567 276 0
534 -428 0
37 497 0
-320 -630 0
-257 -738 0
251 -284 0
131 -487 0
-479 156 0
377 6 0
647 611 0
454 138 0
153 -253 0
-733 -380 0
-672 -505 0
581 655 0
-77 -552 0
204 -195 0
-303 297 0
637 77 0
195 591 0
-378 -286 0
598 755 0
605 690 0
-428 -551 0
-433 583 0
-270 -444 0
-209 -81 0
49 617 0
-381 423 0
216 575 0
-748 508 0
699 -118 0
724 625 0
-150 -399 0
222 135 0
-119 638 0
246 -469 0
563 -83 0
463 699 0
73 -280 0
545 -547 0
-528 -304 0
601 -483 0
615 -290 0
-589 100 0
-293 -436 0
-306 562 0
421 420 0
628 -666 0
400 -487 0
711 -625 0
234 752 0
46 230 0
637 648 0
-412 -668 0
-126 -286 0
-390 549 0
-261 -227 0
-251 568 0
722 199 0
-702 635 0
150 -645 0
564 289 0
595 469 0
-429 -544 0
-27 259 0
-327 -190 0
192 590 0
-329 -716 0
531 438 0
-594 -328 0
-602 693 0
-164 246 0
300 396 0
-150 739 0
575 -336 0
-171 -487 0
-281 -658 0
361 539 0
-656 -6 0
-505 -333 0
-128 -331 0
-326 -395 0
569 180 0
633 -249 0
350 -666 0
603 -92 0
721 262 0
352 453 0
251 -543 0
-197 480 0
-190 77 0
326 -257 0
-81 693 0
-435 611 0
-562 643 0
732 698 0
507 270 0
-285 174 0
488 -439 0
-292 -225 0
579 567 0
259 250 0
428 683 0
-543 47 0
24 610 0
-132 -8 0
252 -252 0
-449 -574 0
521 -602 0
645 489 0
-598 442 0
217 154 0
318 572 0
-250 -733 0
-306 14 0
-536 -712 0
168 438 0
-760 243 0
-319 -347 0
137 -525 0
-671 -261 0
-701 93 0
-650 -658 0
676 -17 0
182 244 0
271 -263 0
445 673 0
213 -528 0
49 -98 0
-286 -439 0
169 213 0
192 -762 0
586 719 0
-381 -408 0
262 601 0
-225 163 0
-687 605 0
-530 470 0
428 -688 0
617 192 0
438 702 0
-60 -669 0
-683 -298 0
720 -545 0
-532 222 0
592 -284 0
-146 524 0
-249 514 0
-683 -417 0
606 627 0
457 -191 0
170 -279 0
735 -384 0
302 -558 0
-320 -110 0
-298 118 0
53 -513 0
534 -219 0
-717 8 0
-83 -658 0
495 341 0
213 212 0
6 -346 0
125 -145 0
20 669 0
310 43 0
15 87 0
-293 -437 0
-381 688 0
-494 374 0
405 235 0
-9 -762 0
-663 -670 0
-621 532 0
-651 -743 0
175 -721 0
722 568 0
-10 698 0
-417 671 0
-29 -487 0
342 198 0
330 221 0
-208 -348 0
205 -74 0
333 -247 0
-739 -73 0
476 225 0
419 685 0
235 499 0
-696 -143 0
-558 628 0
-746 -629 0
223 429 0
605 -318 0
302 -534 0
-197 -366 0
484 534 0
-303 305 0
59 512 0
-757 76 0
-276 267 0
109 680 0
33 -340 0
-638 371 0
-422 -362 0
-298 -273 0
115 273 0
-281 352 0
322 432 0
-361 496 0
754 -608 0
478 628 0
538 -341 0
-695 -403 0
303 156 0
693 127 0
-136 95 0
-224 -457 0
210 29 0
-631 523 0
192 -263 0
332 235 0
630 -436 0
665 156 0
707 490 0
543 -21 0
-266 650 0
191 92 0
548 -217 0
-678 594 0
329 389 0
763 682 0
14 -353 0
-284 -437 0
373 -183 0
-74 -234 0
-360 -594 0
59 702 0
-314 -737 0
205 -470 0
143 198 0
361 314 0
-467 -7 0
-719 -91 0
-300 666 0
-760 -180 0
-263 -258 0
-247 -591 0
-305 648 0
-51 563 0
-283 520 0
-350 393 0
-116 225 0
24 636 0
-21 19 0
345 -151 0
-634 -668 0
148 729 0
-675 -499 0
-392 474 0
570 -456 0
197 258 0
326 -614 0
77 -637 0
167 703 0
450 -189 0
-340 231 0
-646 -476 0
-558 -399 0
-385 -319 0
-105 53 0
-495 156 0
123 -240 0
488 518 0
745 435 0
-196 -57 0
668 125 0
607 690 0
-337 -684 0
258 471 0
55 186 0
-515 376 0
-15 -424 0
-50 751 0
19 -263 0
296 -181 0
-384 665 0
649 125 0
-152 52 0
-300 279 0
-443 -129 0
-167 476 0
273 618 0
-410 212 0
-516 -332 0
-660 -380 0
745 -68 0
435 -381 0
-566 191 0
386 255 0
16 47 0
420 -671 0
-139 -588 0
-682 -61 0
-27 28 0
568 652 0
-647 -271 0
-169 -36 0
-224 290 0
-433 698 0
108 87 0
-5 288 0
-539 -283 0
-363 -251 0
531 -390 0
110 -499 0
535 230 0
677 709 0
673 721 0
-195 213 0
-211 -542 0
-82 -371 0
-475 646 0
-749 -407 0
313 605 0
354 -512 0
-275 -585 0
-361 -62 0
569 -215 0
5 -475 0
135 -35 0
-327 -246 0
-10 32 0
505 -384 0
572 559 0
-99 -518 0
-298 721 0
142 -538 0
-554 19 0
3 -97 0
-82 -230 0
-200 565 0
533 166 0
419 166 0
619 617 0
49 -145 0
431 313 0
-706 26 0
59 674 0
415 499 0
-396 -519 0
-30 -513 0
664 118 0
-600 646 0
485 -660 0
319 761 0
-690 -600 0
-150 353 0
235 503 0
-502 342 0
601 -377 0
258 183 0
220 763 0
-666 318 0
-64 93 0
-696 155 0
-502 266 0
-139 -135 0
402 753 0
613 -439 0
-164 109 0
-759 38 0
-257 -570 0
-146 703 0
192 -103 0
-141 739 0
-16 412 0
250 -69 0
-249 93 0
213 382 0
-762 -689 0
-546 253 0
707 -134 0
83 344 0
149 724 0
115 293 0
-511 193 0
-458 688 0
473 459 0
-276 -304 0
-288 -544 0
40 -667 0
192 -615 0
431 -283 0
-700 -487 0
-499 -689 0
402 471 0
-203 -91 0
-610 -748 0
191 -712 0
-247 332 0
45 -310 0
229 -633 0
474 231 0
-614 -726 0
-52 -393 0
87 -621 0
213 -189 0
-446 -96 0
673 -363 0
-184 429 0
387 750 0
-598 359 0
87 133 0
-11 -753 0
499 -472 0
-315 196 0
-370 205 0
-269 -100 0
-27 617 0
298 149 0
-304 761 0
265 427 0
-549 -512 0
-332 387 0
494 -34 0
177 133 0
676 107 0
-632 -226 0
140 -730 0
-487 124 0
-61 -750 0
-57 54 0
-460 623 0
707 447 0
-553 -389 0
21 660 0
152 423 0
476 601 0
-642 -351 0
-656 311 0
-117 -668 0
356 460 0
65 43 0
-308 355 0
-293 723 0
-238 -315 0
27 -627 0
-684 379 0
389 -158 0
561 237 0
-303 740 0
68 -401 0
-283 648 0
496 -156 0
122 548 0
193 697 0
107 416 0
544 -468 0
319 -131 0
-490 581 0
154 -525 0
-411 215 0
188 -743 0
219 676 0
-309 482 0
-286 463 0
273 -483 0
234 -460 0
635 159 0
93 687 0
610 131 0
-224 -621 0
47 526 0
-587 -119 0
-261 211 0
-214 -32 0
-563 457 0
-484 -174 0
-513 116 0
-155 -684 0
463 216 0
235 -624 0
-618 -373 0
609 -132 0
746 578 0
689 -377 0
-738 235 0
-627 -145 0
-422 41 0
183 -176 0
-18 -224 0
519 -649 0
-46 128 0
-315 664 0
-194 273 0
-269 -367 0
103 602 0
-668 519 0
-506 -310 0
140 752 0
-691 -319 0
-354 89 0
-323 -410 0
113 -17 0
-630 -677 0
-215 -590 0
-267 -716 0
-487 645 0
-217 698 0
-559 457 0
-658 561 0
-64 -375 0
-678 -314 0
379 356 0
-528 -65 0
725 -64 0
-132 250 0
-126 -169 0
-651 758 0
44 529 0
-705 552 0
211 -723 0
408 -300 0
-739 238 0
139 -525 0
-706 88 0
93 -556 0
648 324 0
-608 15 0
432 -530 0
-224 -89 0
606 20 0
544 -439 0
54 453 0
706 532 0
-467 490 0
53 485 0
-473 268 0
-316 89 0
752 -361 0
-554 175 0
717 688 0
-539 753 0
409 -498 0
55 5 0
374 -147 0
-392 -707 0
-59 -484 0
761 285 0
245 522 0
650 -118 0
16 399 0
717 -83 0
-90 -733 0
-151 -34 0
-409 657 0
-456 43 0
726 -708 0
59 484 0
-456 432 0
245 -21 0
-316 432 0
139 -743 0
359 -456 0
-626 146 0
174 563 0
471 492 0
-332 -264 0
323 754 0
109 627 0
-217 186 0
-407 -671 0
-312 382 0
-545 -291 0
177 -492 0
507 456 0
201 -530 0
465 311 0
434 -704 0
-666 -355 0
365 384 0
228 -126 0
666 -169 0
561 282 0
300 603 0
242 751 0
-128 -381 0
643 -761 0
761 463 0
-280 635 0
13 296 0
146 84 0
754 -606 0
-67 -203 0
-483 131 0
569 -70 0
408 -148 0
-125 338 0
-689 453 0
-56 -398 0
373 328 0
-590 -171 0
-596 -757 0
-368 473 0
690 10 0
746 186 0
-196 109 0
122 156 0
496 -621 0
-261 456 0
-196 483 0
-407 -340 0
265 574 0
637 -636 0
-411 751 0
512 -544 0
-308 179 0
302 237 0
101 -214 0
209 -716 0
688 -351 0
173 -651 0
-666 214 0
251 -213 0
397 -535 0
195 350 0
471 724 0
418 -247 0
419 32 0
347 292 0
635 -64 0
-484 95 0
193 277 0
-669 -380 0
338 -257 0
316 159 0
-198 -555 0
-327 93 0
538 65 0
-95 -564 0
-515 -161 0
235 -7 0
-70 393 0
-572 290 0
-723 -751 0
526 -504 0
-452 144 0
-74 -558 0
101 -456 0
431 -593 0
54 -208 0
130 -269 0
739 -244 0
596 378 0
512 -573 0
544 -748 0
-666 450 0
714 -20 0
227 756 0
665 -21 0
-62 -109 0
-172 -520 0
42 -600 0
-443 -283 0
-559 -542 0
-270 -473 0
115 -303 0
17 121 0
-662 550 0
-139 -668 0
653 317 0
338 410 0
609 146 0
29 -73 0
-417 467 0
-75 154 0
-712 125 0
-136 -366 0
728 579 0
-127 428 0
672 20 0
233 -753 0
127 -91 0
-139 -692 0
426 -340 0
691 -139 0
396 -489 0
72 710 0
110 710 0
488 228 0
-306 459 0
-638 395 0
698 -381 0
365 560 0
265 -136 0
335 518 0
741 -104 0
-36 95 0
58 -509 0
621 117 0
-463 98 0
-556 -149 0
295 431 0
-696 -693 0
133 692 0
613 110 0
-60 71 0
-117 763 0
-225 464 0
-353 -300 0
188 759 0
-334 -684 0
-35 -151 0
203 -151 0
-498 291 0
19 -599 0
-621 62 0
628 -460 0
237 -677 0
581 -218 0
-135 285 0
522 450 0
459 200 0
698 -264 0
280 -10 0
-429 741 0
-100 -139 0
300 -616 0
-39 -208 0
5 -697 0
124 -682 0
241 -291 0
-172 -212 0
125 -511 0
450 -303 0
-263 390 0
-361 522 0
717 -743 0
630 -417 0
-111 -375 0
435 536 0
-131 357 0
-167 -27 0
-396 393 0
238 -264 0
442 -180 0
563 756 0
117 -583 0
533 -384 0
469 601 0
-551 170 0
-555 40 0
307 -21 0
532 -303 0
434 -632 0
-473 -153 0
212 295 0
190 574 0
-440 -363 0
-83 650 0
-151 -427 0
429 -570 0
-639 -719 0
-556 -731 0
437 -381 0
-327 -116 0
19 178 0
654 -159 0
-456 -551 0
658 -189 0
-410 -61 0
48 -125 0
55 -604 0
-339 -483 0
-52 -535 0
-88 162 0
381 -355 0
-189 -411 0
163 588 0
-603 -452 0
499 -409 0
-155 688 0
-381 689 0
-474 -621 0
-153 639 0
482 -169 0
597 -323 0
247 -224 0
170 728 0
-746 -169 0
-541 -387 0
325 693 0
-566 -225 0
430 693 0
-683 -183 0
-392 725 0
-694 -409 0
501 -736 0
-391 426 0
-132 -384 0
-167 462 0
-100 -631 0
567 -111 0
-209 53 0
490 754 0
-409 342 0
294 -507 0
-74 -710 0
-320 -694 0
51 358 0
758 718 0
-86 221 0
-129 -550 0
392 -139 0
-576 6 0
-327 568 0
-98 252 0
548 -449 0
-476 435 0
629 80 0
485 -491 0
632 -214 0
-645 -177 0
-390 -683 0
-20 84 0
625 -21 0
-7 45 0
89 -575 0
-110 -183 0
-503 -409 0
342 146 0
-263 660 0
-550 104 0
279 546 0
-434 561 0
-658 -211 0
303 -343 0
570 -413 0
183 -584 0
-355 41 0
756 153 0
-620 -735 0
-50 154 0
407 182 0
612 -293 0
293 479 0
-418 -79 0
-394 698 0
625 -196 0
252 300 0
279 -217 0
-455 2 0
-499 -271 0
-700 721 0
-73 503 0
-637 -573 0
-300 609 0
372 355 0
-281 408 0
677 -738 0
-525 108 0
-554 -483 0
-540 301 0
-619 760 0
-700 703 0
178 672 0
-607 500 0
-271 222 0
-145 216 0
469 -277 0
575 -646 0
-1 400 0
-204 358 0
-120 -364 0
359 -280 0
266 742 0
-272 -391 0
348 -320 0
382 684 0
347 6 0
-411 -5 0
-190 593 0
590 327 0
-155 168 0
-363 599 0
-131 729 0
-431 217 0
634 -122 0
583 -663 0
253 -411 0
586 -735 0
-405 398 0
46 523 0
611 666 0
-157 423 0
665 -91 0
263 -124 0
-300 -468 0
234 -131 0
265 702 0
431 -368 0
625 -198 0
-694 -401 0
-120 69 0
-279 -565 0
373 498 0
169 534 0
310 -502 0
12 -11 0
75 -158 0
-298 322 0
-382 -291 0
-630 314 0
-609 374 0
399 -125 0
482 754 0
194 611 0
-546 640 0
-3 -149 0
44 -320 0
521 304 0
-339 -298 0
-381 22 0
163 -362 0
-495 221 0
155 -760 0
437 763 0
-430 49 0
-608 397 0
-145 -116 0
68 127 0
315 569 0
480 469 0
