c bounds 21 21
p cnf 147 332
-101 -109 0
17 -127 0
84 66 0
-26 -111 0
-3 111 0
27 -74 0
-122 27 0
62 -109 0
128 140 0
-138 -110 0
14 -97 0
-4 71 0
-72 -73 0
128 62 0
-96 -58 0
123 111 0
-129 110 0
-93 62 0
-13 82 0
-55 145 0
22 -30 0
143 -147 0
92 -5 0
84 91 0
147 -124 0
-69 136 0
100 102 0
-45 -53 0
110 25 0
-10 69 0
132 -125 0
129 101 0
32 39 0
36 86 0
62 -54 0
85 -100 0
89 36 0
-89 -133 0
-45 -109 0
-67 24 0
-128 -45 0
-37 -52 0
-126 -60 0
80 -26 0
65 48 0
-124 62 0
-131 -95 0
-37 -74 0
85 146 0
-58 -1 0
-126 141 0
-102 76 0
-54 -118 0
-39 57 0
33 -19 0
83 62 0
62 -19 0
-28 -8 0
96 49 0
-67 -104 0
44 27 0
47 -33 0
-143 -9 0
-83 135 0
54 78 0
-123 -4 0
-53 -133 0
32 58 0
-142 48 0
133 -14 0
-18 -115 0
-60 -20 0
140 70 0
-51 -114 0
140 -60 0
-54 -58 0
-69 65 0
79 -94 0
-113 8 0
-4 83 0
130 -83 0
142 68 0
8 131 0
83 -133 0
-137 -72 0
-142 -43 0
-57 91 0
-110 -96 0
61 -83 0
-115 -5 0
-107 127 0
60 55 0
-18 -147 0
-86 27 0
-63 -7 0
-49 30 0
-125 -59 0
-120 3 0
-147 55 0
138 -25 0
-74 -4 0
123 -12 0
101 -47 0
77 -33 0
-70 -144 0
-93 38 0
85 -109 0
86 -57 0
-31 34 0
41 -9 0
141 6 0
-83 3 0
-139 -68 0
-84 -112 0
-68 -115 0
-81 -9 0
-93 -22 0
-124 108 0
45 145 0
-128 101 0
7 10 0
-21 66 0
90 138 0
-123 5 0
70 -111 0
66 -133 0
-11 -4 0
-6 -75 0
-92 -65 0
136 -55 0
90 -44 0
-5 73 0
-102 109 0
109 114 0
50 136 0
21 85 0
-44 -28 0
96 -46 0
-145 -95 0
79 62 0
-6 113 0
66 -19 0
-124 -124 0
11 -26 0
-64 -32 0
-121 15 0
79 97 0
131 -66 0
98 -108 0
130 -47 0
139 22 0
18 131 0
114 -33 0
-127 -41 0
24 -69 0
-6 -2 0
87 -140 0
-61 -40 0
-5 -144 0
-123 -102 0
-147 66 0
116 136 0
-64 71 0
29 145 0
32 109 0
79 -114 0
-109 111 0
-21 31 0
-98 -42 0
-88 54 0
-112 128 0
-115 108 0
-96 -7 0
-107 125 0
-72 -115 0
29 70 0
120 116 0
-94 5 0
-95 -73 0
10 -138 0
-83 -34 0
56 -126 0
141 -69 0
87 -122 0
-54 -62 0
-1 48 0
88 145 0
116 -42 0
34 136 0
100 -147 0
-143 16 0
104 110 0
109 -105 0
119 -112 0
-45 -139 0
-93 12 0
-102 -27 0
-58 -123 0
135 66 0
126 -28 0
145 17 0
-110 50 0
-45 -121 0
89 10 0
-19 -90 0
-16 136 0
-14 -54 0
135 -6 0
79 56 0
-123 -54 0
-46 111 0
26 73 0
91 98 0
-45 -147 0
11 68 0
-28 139 0
-25 -68 0
25 90 0
49 8 0
-95 -99 0
65 40 0
49 143 0
-92 74 0
99 -63 0
-79 62 0
-63 3 0
-122 35 0
-20 -53 0
-92 -12 0
-51 -41 0
-72 38 0
-120 -37 0
-62 -125 0
-44 -135 0
-43 -130 0
-128 66 0
-14 76 0
98 -43 0
-47 81 0
125 82 0
13 -132 0
-6 -74 0
118 -3 0
72 35 0
-117 15 0
-94 113 0
-102 -57 0
8 21 0
17 -54 0
30 -83 0
114 -102 0
123 -57 0
-119 17 0
24 -116 0
128 8 0
-27 48 0
-117 55 0
22 -12 0
75 145 0
20 41 0
-67 4 0
-20 -54 0
-110 70 0
-44 81 0
-64 88 0
22 -121 0
-78 -9 0
81 22 0
29 -147 0
-15 -39 0
49 -71 0
-112 107 0
66 -129 0
-39 -82 0
70 -3 0
-103 80 0
-68 100 0
-87 126 0
-133 -41 0
-30 -28 0
-15 98 0
-20 -146 0
126 91 0
-103 -126 0
-12 -68 0
-77 24 0
-67 -38 0
-5 136 0
-17 -12 0
-113 -59 0
106 -131 0
-12 76 0
17 106 0
-39 -2 0
-21 -138 0
-12 110 0
-57 -110 0
40 -58 0
106 27 0
-32 65 0
-83 10 0
111 4 0
29 90 0
-122 -115 0
130 -73 0
-117 112 0
-124 124 0
125 110 0
41 46 0
67 -31 0
-29 -39 0
116 -46 0
-137 57 0
72 119 0
-44 -12 0
-120 -74 0
24 46 0
34 104 0
25 -107 0
-92 -39 0
104 18 0
-62 -102 0
-58 -96 0
-28 82 0
-113 97 0
106 -39 0
-139 102 0
-34 -14 0
-132 -97 0
16 -37 0
-71 84 0
141 -6 0
