c bounds 86 109
p cnf 621 1210
-413 -45 0
100 477 0
-11 -58 0
72 -203 0
-494 -204 0
-270 -52 0
-616 496 0
405 -112 0
116 -205 0
-187 114 0
-476 -86 0
-498 575 0
408 490 0
149 -120 0
-282 583 0
-579 -596 0
69 353 0
-233 181 0
301 -485 0
-330 -149 0
-169 127 0
-343 -596 0
294 -233 0
-203 204 0
393 340 0
87 -138 0
141 259 0
524 199 0
485 150 0
157 318 0
620 157 0
-19 527 0
327 315 0
-20 228 0
-391 -222 0
-464 237 0
189 609 0
-567 92 0
-484 192 0
265 86 0
299 189 0
101 -399 0
-197 -66 0
474 608 0
-197 474 0
-473 498 0
-459 -513 0
-285 -5 0
163 181 0
-198 341 0
334 6 0
-280 343 0
174 521 0
614 -196 0
418 42 0
-185 319 0
-254 86 0
412 25 0
70 -107 0
547 -91 0
477 -567 0
-254 -538 0
-206 -26 0
-621 -267 0
86 -235 0
614 71 0
-193 316 0
-33 -564 0
-364 548 0
580 -339 0
-435 -480 0
-92 -21 0
-614 -217 0
473 22 0
-335 -598 0
506 -206 0
-505 -610 0
-459 -132 0
362 249 0
-518 -132 0
-166 -466 0
316 -72 0
77 221 0
-502 183 0
-211 602 0
-162 106 0
406 567 0
-389 -276 0
143 526 0
195 432 0
-21 -410 0
613 474 0
157 209 0
-225 361 0
495 351 0
-264 428 0
-568 108 0
193 419 0
-128 -381 0
-370 -602 0
-137 -580 0
406 -446 0
-192 -47 0
-293 -362 0
340 -156 0
-110 115 0
338 332 0
153 -312 0
18 451 0
334 2 0
-588 -613 0
-165 -21 0
557 -88 0
-124 525 0
-105 550 0
337 -223 0
482 154 0
-23 218 0
-509 333 0
-579 -226 0
-502 505 0
-325 -534 0
-275 369 0
-236 2 0
-353 -270 0
294 -90 0
-454 -236 0
-549 550 0
379 -422 0
395 -487 0
322 166 0
-336 406 0
524 -320 0
-368 210 0
-287 -496 0
-265 -579 0
-190 -417 0
588 -362 0
-267 562 0
-1 175 0
87 349 0
-300 598 0
294 -549 0
-556 -524 0
-46 424 0
128 -288 0
-108 196 0
-357 -147 0
601 -86 0
594 241 0
-144 260 0
-73 207 0
446 127 0
-359 292 0
133 -37 0
-139 -420 0
-142 -488 0
-587 391 0
-369 115 0
584 -131 0
-457 -234 0
617 -142 0
-357 -586 0
-319 495 0
598 -394 0
571 172 0
275 424 0
107 542 0
248 550 0
-574 -601 0
610 -548 0
-252 448 0
33 458 0
601 -436 0
-543 417 0
-179 -478 0
-268 401 0
174 68 0
-268 425 0
-339 -293 0
138 -419 0
445 -24 0
52 -340 0
-99 -45 0
300 -576 0
-38 -254 0
269 -395 0
-86 619 0
429 -411 0
-58 487 0
-454 600 0
137 90 0
-499 477 0
-180 252 0
218 540 0
462 346 0
-39 -12 0
615 270 0
560 308 0
-72 -138 0
83 -410 0
-612 -295 0
-285 -454 0
157 -317 0
466 557 0
-347 -487 0
-380 169 0
-233 -281 0
388 123 0
466 340 0
361 244 0
109 -275 0
-82 146 0
342 -366 0
434 -505 0
65 379 0
-169 -434 0
-336 339 0
119 183 0
-126 446 0
-225 161 0
456 7 0
-110 -474 0
-279 294 0
384 -285 0
-354 -188 0
286 -90 0
-552 -443 0
276 -602 0
-418 -394 0
421 -251 0
-456 -169 0
-398 456 0
407 -378 0
-145 -318 0
220 150 0
-399 -405 0
144 -547 0
438 -620 0
483 -385 0
356 -297 0
196 609 0
-487 -72 0
-418 -591 0
281 336 0
329 341 0
572 -120 0
302 -596 0
-616 477 0
-529 388 0
-483 321 0
-470 422 0
-415 369 0
-527 -166 0
-177 -163 0
480 -478 0
499 -10 0
-386 -470 0
214 1 0
416 430 0
527 445 0
566 436 0
-309 -436 0
547 532 0
-73 372 0
-331 -465 0
320 -308 0
-401 11 0
76 467 0
237 569 0
-505 580 0
466 514 0
-387 238 0
-120 341 0
-505 331 0
327 44 0
266 70 0
-206 -271 0
621 -303 0
-139 -179 0
-577 122 0
-485 -197 0
175 137 0
479 130 0
446 -182 0
575 610 0
172 -531 0
526 87 0
594 80 0
15 -363 0
-555 344 0
-143 530 0
243 79 0
-19 -544 0
84 440 0
63 357 0
358 114 0
-116 -365 0
-403 511 0
530 -54 0
-455 329 0
260 -21 0
-335 -612 0
52 -150 0
432 158 0
558 422 0
538 132 0
127 -215 0
598 178 0
-238 -385 0
250 -498 0
516 398 0
-86 219 0
538 36 0
562 -420 0
332 398 0
312 -401 0
298 574 0
434 69 0
-89 -410 0
-227 493 0
406 324 0
-303 -516 0
231 -596 0
605 602 0
421 289 0
-169 -437 0
-305 -521 0
486 324 0
59 -8 0
366 55 0
-293 -273 0
-109 -422 0
-217 -418 0
-266 -548 0
353 127 0
-197 -153 0
120 -7 0
-35 -131 0
492 -103 0
-440 405 0
106 409 0
-354 314 0
-262 -366 0
2 107 0
-427 -311 0
-263 202 0
-368 566 0
49 340 0
-204 -442 0
420 426 0
2 329 0
-572 376 0
-7 -53 0
516 -103 0
223 -38 0
87 449 0
246 413 0
-579 -582 0
38 451 0
-307 -464 0
-500 244 0
617 536 0
256 -610 0
-315 -572 0
-348 529 0
-494 562 0
14 -416 0
-349 557 0
350 -201 0
-86 -164 0
-233 -163 0
-371 148 0
-248 517 0
141 -465 0
403 -190 0
565 587 0
-295 -124 0
595 422 0
92 518 0
-261 -1 0
-124 -99 0
-601 -378 0
449 -387 0
99 32 0
-143 -345 0
-58 250 0
52 -262 0
-507 -405 0
437 221 0
316 -431 0
-481 500 0
519 216 0
437 395 0
111 -387 0
-288 100 0
-24 194 0
105 -302 0
-354 380 0
-53 418 0
-30 240 0
-504 174 0
-53 601 0
-344 -7 0
-524 -580 0
18 319 0
-387 -444 0
298 -538 0
250 -61 0
438 93 0
337 -110 0
475 57 0
-137 -506 0
-396 -105 0
14 363 0
255 -248 0
-428 75 0
-488 -408 0
-482 290 0
68 172 0
-209 569 0
-280 44 0
-171 -520 0
-97 -383 0
125 256 0
-96 600 0
-82 -107 0
-527 178 0
-576 -490 0
362 93 0
-554 46 0
-6 -402 0
150 -121 0
102 165 0
-513 384 0
386 -128 0
6 311 0
259 506 0
-380 258 0
588 327 0
-466 559 0
275 332 0
80 -446 0
-285 -603 0
-278 393 0
564 -288 0
432 157 0
283 260 0
408 181 0
-37 -103 0
424 296 0
492 -81 0
-294 618 0
3 -597 0
290 244 0
425 -336 0
-109 -270 0
3 117 0
458 558 0
-465 563 0
-279 -523 0
448 464 0
372 50 0
-339 -233 0
-58 415 0
577 -9 0
284 -486 0
-184 16 0
488 -457 0
235 -201 0
453 -336 0
508 611 0
-271 133 0
-378 -36 0
101 389 0
501 527 0
427 -13 0
-314 93 0
149 -537 0
1 -480 0
176 347 0
-327 126 0
-568 -307 0
68 360 0
314 617 0
-410 413 0
-529 -593 0
574 85 0
-334 384 0
-390 -81 0
113 -486 0
-491 130 0
100 -17 0
181 -442 0
-122 -143 0
-413 -177 0
328 -289 0
-225 -19 0
-97 216 0
-1 210 0
153 -359 0
553 -604 0
32 146 0
-235 -498 0
477 -97 0
260 53 0
-436 328 0
415 158 0
301 560 0
448 -413 0
-500 -403 0
133 -453 0
166 -84 0
-456 164 0
490 -87 0
193 38 0
475 216 0
406 376 0
-99 424 0
-242 -462 0
-45 621 0
431 -362 0
-307 365 0
-84 -11 0
29 167 0
408 611 0
62 -496 0
15 114 0
508 3 0
363 -245 0
-365 540 0
89 -585 0
-118 371 0
392 -487 0
4 57 0
441 -447 0
620 161 0
264 229 0
28 106 0
-575 244 0
-227 -583 0
-103 -368 0
-124 -225 0
198 -353 0
-51 -9 0
321 208 0
110 323 0
-236 -579 0
-105 324 0
561 -506 0
239 -599 0
-275 493 0
346 229 0
561 -510 0
283 -162 0
-362 14 0
307 14 0
-46 -611 0
-598 213 0
-34 -109 0
362 413 0
-400 296 0
64 394 0
163 574 0
269 28 0
-384 532 0
34 424 0
-218 -248 0
604 -525 0
250 98 0
322 128 0
-132 -603 0
-284 542 0
471 176 0
-368 -613 0
83 115 0
195 -132 0
-206 -517 0
-10 -263 0
-458 618 0
-278 146 0
-110 460 0
451 516 0
-85 43 0
-268 31 0
-31 -25 0
119 348 0
-522 351 0
-583 -366 0
101 -584 0
-427 -145 0
219 -104 0
208 472 0
-549 340 0
-418 -449 0
606 -313 0
103 266 0
-578 381 0
-199 369 0
-13 -83 0
580 -498 0
-14 477 0
401 405 0
-260 122 0
607 -333 0
-375 -258 0
448 281 0
-173 277 0
-226 214 0
492 -33 0
-138 131 0
351 -232 0
361 -146 0
511 105 0
-28 -30 0
490 227 0
13 -88 0
246 591 0
328 421 0
-262 192 0
388 497 0
-158 346 0
-596 133 0
-1 -370 0
131 468 0
558 533 0
-130 239 0
-58 227 0
-402 -328 0
-69 -555 0
-29 545 0
505 -517 0
-223 -123 0
-234 -564 0
-522 106 0
-555 -506 0
-498 -173 0
-250 547 0
347 -301 0
446 -187 0
-297 380 0
458 185 0
-18 341 0
560 563 0
575 -364 0
-582 369 0
-94 -459 0
-248 2 0
247 539 0
-491 -318 0
-197 518 0
264 147 0
132 462 0
287 314 0
609 -428 0
-138 582 0
-574 231 0
433 94 0
-119 365 0
-445 208 0
-577 -397 0
70 494 0
-17 -419 0
43 262 0
-20 -400 0
-356 -598 0
-142 -55 0
342 -585 0
-87 -335 0
-504 -17 0
-607 102 0
-333 620 0
-407 502 0
-153 -411 0
-237 -601 0
-132 -584 0
582 -345 0
151 -211 0
213 -368 0
373 303 0
65 -58 0
598 -313 0
-542 -23 0
-22 446 0
-466 193 0
-309 54 0
99 561 0
538 -215 0
-603 398 0
579 64 0
-24 338 0
-11 -534 0
-221 538 0
-353 536 0
402 503 0
-232 -472 0
530 -611 0
130 502 0
448 -13 0
314 547 0
-391 -291 0
310 -35 0
-413 -601 0
482 -614 0
396 323 0
-198 -22 0
97 -385 0
-578 -531 0
316 342 0
324 480 0
429 -481 0
126 80 0
-169 301 0
233 -447 0
-112 -367 0
568 -240 0
-476 -166 0
533 514 0
-197 269 0
-102 -341 0
299 53 0
-364 -499 0
416 -588 0
157 -211 0
-527 621 0
197 314 0
562 293 0
552 539 0
-444 233 0
-87 437 0
452 -116 0
-61 -101 0
-11 187 0
292 282 0
-575 146 0
529 406 0
-258 -360 0
526 240 0
372 -427 0
-378 541 0
127 86 0
178 -462 0
525 -20 0
250 172 0
207 -512 0
-277 576 0
426 -302 0
-146 351 0
-427 -217 0
-515 -539 0
25 112 0
-444 365 0
-471 57 0
-16 -558 0
272 587 0
562 -494 0
-517 -242 0
-117 -363 0
-595 -91 0
-71 163 0
-411 124 0
-12 432 0
-34 -616 0
-505 219 0
-524 -508 0
-263 90 0
-211 253 0
277 159 0
-121 -317 0
49 -84 0
-224 271 0
136 429 0
-227 -178 0
385 -430 0
305 -188 0
344 397 0
420 -187 0
-507 572 0
534 388 0
-591 364 0
-543 -273 0
565 594 0
-238 462 0
389 -17 0
-62 124 0
341 217 0
-118 532 0
-596 -86 0
379 -519 0
-263 402 0
-108 558 0
-567 151 0
44 272 0
3 -251 0
-368 -515 0
516 207 0
286 -394 0
433 -489 0
431 -493 0
-349 321 0
2 221 0
-252 503 0
-421 334 0
-163 -590 0
-342 431 0
-210 -459 0
513 -435 0
-10 -156 0
346 -300 0
287 -413 0
-279 448 0
-505 -408 0
286 -296 0
-10 -229 0
271 -397 0
-223 304 0
386 175 0
-203 149 0
460 -580 0
133 5 0
389 -140 0
148 -115 0
-505 415 0
-565 156 0
-365 -220 0
-58 371 0
-22 -201 0
-186 152 0
-618 474 0
57 114 0
-371 492 0
-509 27 0
196 -200 0
290 -528 0
-285 -542 0
-496 412 0
-184 -220 0
-185 306 0
234 -487 0
-546 -187 0
186 -383 0
69 449 0
-177 -580 0
128 175 0
217 22 0
-76 -142 0
-215 63 0
-344 272 0
126 305 0
-374 77 0
-473 -217 0
-574 -567 0
320 -539 0
70 -98 0
-92 -375 0
-539 -392 0
444 246 0
-325 396 0
104 -562 0
-88 380 0
-497 -168 0
-5 599 0
322 562 0
-138 475 0
-326 -224 0
259 47 0
323 -506 0
-608 415 0
-79 421 0
-463 92 0
266 -154 0
-104 620 0
-165 -8 0
-47 -220 0
-459 438 0
219 -347 0
-533 -259 0
388 534 0
508 499 0
105 281 0
580 -510 0
446 -577 0
536 -258 0
99 196 0
371 299 0
196 280 0
-418 563 0
527 528 0
-116 -186 0
-384 513 0
-94 420 0
133 321 0
247 -160 0
15 -122 0
-471 -371 0
-578 -400 0
506 49 0
354 -454 0
23 115 0
262 -353 0
241 440 0
-419 -30 0
24 -436 0
511 302 0
-600 -442 0
521 -179 0
-486 -480 0
-395 -308 0
426 73 0
518 -311 0
156 557 0
-154 420 0
92 264 0
-30 -236 0
332 469 0
545 566 0
546 382 0
-440 341 0
516 -122 0
393 35 0
-266 -227 0
356 122 0
547 195 0
-512 -202 0
-333 -110 0
-155 246 0
594 199 0
-205 161 0
311 315 0
-140 -318 0
-91 453 0
328 105 0
-211 471 0
-62 -521 0
417 -320 0
-39 -9 0
-563 -191 0
-121 -22 0
334 93 0
246 309 0
-9 -138 0
458 -398 0
-154 528 0
-58 -411 0
235 337 0
-352 -226 0
-483 93 0
-486 -361 0
139 149 0
-93 468 0
522 126 0
-162 -44 0
-392 168 0
-531 521 0
-179 -72 0
316 -254 0
126 -561 0
-434 -595 0
257 337 0
-53 -313 0
-494 -17 0
511 421 0
425 -70 0
-370 -328 0
-607 -195 0
-338 -11 0
498 18 0
55 -445 0
-577 -223 0
-381 467 0
553 -434 0
-44 -502 0
-186 594 0
-552 -169 0
-450 458 0
194 424 0
175 -80 0
-556 -268 0
-558 -498 0
-355 561 0
212 -224 0
265 -494 0
-275 303 0
-276 -121 0
45 262 0
-554 -571 0
66 -606 0
-11 508 0
-282 -166 0
170 -140 0
-275 -343 0
-507 365 0
-564 205 0
386 190 0
-611 -228 0
512 -138 0
387 149 0
43 505 0
-571 65 0
-303 575 0
-149 133 0
-179 -387 0
-246 -47 0
-364 582 0
544 546 0
-328 -349 0
-97 -481 0
187 -573 0
319 -222 0
618 -370 0
49 104 0
289 242 0
346 590 0
218 608 0
-419 -611 0
210 594 0
-70 -200 0
-6 -479 0
413 -427 0
65 -607 0
-377 -72 0
-607 119 0
-371 -335 0
-19 -418 0
-531 -423 0
241 -357 0
428 112 0
-37 286 0
-117 517 0
395 -435 0
106 -53 0
566 101 0
-349 -135 0
-376 553 0
-57 -240 0
-304 -581 0
150 -99 0
-178 259 0
106 -410 0
568 -559 0
-611 -317 0
-376 64 0
265 429 0
410 559 0
-330 212 0
570 -129 0
-376 545 0
350 -346 0
315 168 0
539 492 0
-593 190 0
-2 468 0
-461 123 0
89 220 0
-342 -129 0
608 291 0
128 429 0
-162 -111 0
451 2 0
-198 291 0
361 497 0
150 419 0
-554 569 0
-144 534 0
-300 -251 0
513 415 0
428 540 0
-367 -280 0
-477 167 0
-94 113 0
-283 -110 0
-550 18 0
-98 -520 0
-139 219 0
531 -287 0
483 297 0
-602 -26 0
62 -31 0
242 618 0
-533 469 0
-35 455 0
474 -84 0
254 -320 0
36 -117 0
614 -313 0
-434 -263 0
-233 290 0
54 508 0
277 196 0
544 324 0
537 -388 0
-61 -345 0
-261 337 0
113 556 0
360 -595 0
3 41 0
103 -99 0
437 -229 0
-494 155 0
126 -210 0
-358 145 0
425 590 0
395 373 0
18 238 0
222 547 0
-584 361 0
-552 -418 0
-210 80 0
-311 219 0
356 28 0
211 493 0
-570 -470 0
213 516 0
441 474 0
-227 -420 0
32 -67 0
531 -222 0
485 -134 0
-365 -280 0
-147 408 0
-147 -304 0
-182 -591 0
-402 298 0
-375 -282 0
-307 -236 0
141 -72 0
-489 478 0
256 521 0
143 439 0
556 360 0
10 -478 0
221 323 0
-254 -227 0
-457 -273 0
-244 -391 0
55 -523 0
238 215 0
90 -220 0
-522 -399 0
-239 -481 0
-453 521 0
538 262 0
-153 -11 0
619 146 0
-502 422 0
-279 349 0
468 312 0
-64 87 0
510 -546 0
-234 -554 0
619 489 0
25 -92 0
-168 212 0
256 -227 0
419 -336 0
-304 -229 0
90 55 0
-26 588 0
131 -412 0
-363 -210 0
-583 -39 0
-3 -251 0
533 521 0
449 -151 0
-457 433 0
-597 392 0
559 -137 0
-34 511 0
296 -234 0
-363 607 0
-233 342 0
542 -187 0
506 -83 0
-295 4 0
-71 -272 0
376 -250 0
-355 597 0
-606 148 0
-336 -554 0
440 259 0
517 346 0
-405 65 0
-214 316 0
414 -615 0
67 -21 0
544 -517 0
413 575 0
587 -79 0
375 -352 0
-312 289 0
261 -8 0
501 136 0
515 -359 0
-602 -31 0
606 292 0
-491 -288 0
257 340 0
346 499 0
-13 471 0
209 -121 0
-224 351 0
-611 -117 0
197 568 0
247 256 0
202 -504 0
175 105 0
-203 -44 0
136 438 0
45 -308 0
-168 284 0
