c bounds 106 155
p cnf 905 2044
683 -225 0
890 -200 0
819 -94 0
-833 -514 0
-106 479 0
-24 -169 0
-102 -801 0
157 125 0
-8 695 0
247 261 0
-795 878 0
19 196 0
-706 -473 0
-463 -520 0
-621 -603 0
260 -343 0
787 -460 0
-106 -259 0
27 -759 0
-222 520 0
44 -522 0
-392 -530 0
-344 851 0
158 -893 0
364 780 0
-162 214 0
290 345 0
425 -78 0
888 537 0
171 470 0
180 -638 0
761 -744 0
-169 -171 0
857 -208 0
61 641 0
122 203 0
-371 406 0
171 598 0
655 514 0
-439 -103 0
-125 -503 0
-252 -533 0
466 739 0
403 -111 0
380 -86 0
-352 154 0
83 -34 0
-465 -362 0
397 562 0
-742 393 0
755 -85 0
-423 -851 0
145 -237 0
-111 95 0
-115 226 0
655 876 0
-901 -816 0
-124 -629 0
-834 404 0
626 -504 0
54 47 0
734 577 0
-640 -439 0
794 -559 0
186 -510 0
-13 -478 0
-862 843 0
847 480 0
-760 599 0
-682 -838 0
-412 -586 0
588 -753 0
-242 729 0
-112 414 0
-604 326 0
-418 -303 0
-478 -87 0
379 -706 0
-119 -822 0
-326 -556 0
-747 -36 0
168 -160 0
209 -892 0
276 486 0
-238 499 0
10 514 0
529 799 0
214 -904 0
-451 -556 0
-584 -596 0
-23 879 0
494 878 0
762 -649 0
900 -332 0
678 -511 0
863 -718 0
-534 -246 0
264 -397 0
1 -722 0
-858 -384 0
66 -290 0
-736 782 0
234 -816 0
-244 82 0
-508 -678 0
-559 64 0
561 358 0
543 74 0
-620 888 0
625 37 0
709 252 0
664 126 0
-122 -854 0
-470 -332 0
-198 -326 0
363 505 0
-154 210 0
285 -187 0
839 357 0
-304 776 0
-105 -904 0
384 -652 0
-162 -332 0
-683 -576 0
-662 -129 0
-781 -33 0
462 734 0
-368 -339 0
-487 -273 0
325 -796 0
159 -431 0
-48 609 0
71 799 0
-379 731 0
734 -687 0
-360 -715 0
-624 -544 0
120 -503 0
-453 -415 0
-805 461 0
478 -5 0
-846 -840 0
839 -583 0
49 -477 0
264 -34 0
-6 -98 0
-804 757 0
-528 -255 0
861 -10 0
-831 96 0
210 787 0
-12 -67 0
252 -19 0
-674 -114 0
116 -356 0
-369 409 0
-767 -292 0
252 408 0
-492 -564 0
-9 360 0
-6 829 0
-303 180 0
-891 -99 0
-187 -644 0
-508 711 0
-713 890 0
493 -736 0
-326 147 0
-369 219 0
531 -102 0
690 466 0
598 638 0
625 240 0
-775 -36 0
-138 95 0
388 563 0
-204 -544 0
-735 782 0
382 695 0
787 324 0
-307 286 0
123 -742 0
-49 848 0
-888 -706 0
-274 -256 0
-147 -861 0
-218 -285 0
-646 -345 0
-724 -827 0
230 -644 0
460 -84 0
797 641 0
-767 56 0
-220 141 0
-558 -761 0
634 -905 0
-190 140 0
-454 294 0
-124 -375 0
-550 -770 0
-292 753 0
514 548 0
-632 -597 0
-482 -748 0
-573 -363 0
789 -632 0
-735 -717 0
861 587 0
-886 -211 0
600 308 0
700 637 0
-187 155 0
-119 -330 0
75 333 0
406 -397 0
-850 554 0
323 -273 0
803 428 0
761 192 0
76 -649 0
309 -72 0
888 -305 0
-738 407 0
-607 -680 0
-723 -754 0
-558 -152 0
777 432 0
-509 722 0
-197 846 0
-864 -197 0
-510 -147 0
-316 371 0
372 -137 0
848 -365 0
-578 -366 0
-773 -419 0
-463 66 0
831 -372 0
98 819 0
-816 -888 0
456 77 0
900 8 0
-389 -93 0
505 -335 0
379 -713 0
-822 -504 0
498 830 0
459 729 0
-207 529 0
-120 -68 0
-648 -190 0
369 -516 0
-52 597 0
113 417 0
783 322 0
514 -207 0
538 613 0
27 -6 0
132 -716 0
-244 -90 0
-160 642 0
583 634 0
-805 -749 0
-863 -684 0
7 694 0
51 -177 0
593 -409 0
-399 348 0
290 542 0
-770 50 0
343 -120 0
-837 -208 0
684 180 0
-482 -575 0
-805 57 0
152 476 0
309 469 0
-11 -753 0
-519 -493 0
-179 274 0
885 -759 0
280 -452 0
729 514 0
-639 -370 0
61 -72 0
-328 -106 0
210 660 0
-411 531 0
-11 668 0
529 -516 0
-339 486 0
-177 -792 0
-762 480 0
-515 325 0
77 -705 0
-834 528 0
294 625 0
343 193 0
-228 352 0
-586 614 0
-454 -573 0
-336 716 0
282 164 0
465 89 0
161 414 0
127 903 0
809 592 0
-654 62 0
-218 -572 0
-448 -447 0
-40 894 0
-732 774 0
-29 774 0
240 -433 0
77 775 0
605 862 0
-114 555 0
-890 506 0
-429 -600 0
-385 46 0
310 -870 0
-863 710 0
888 471 0
220 -503 0
-724 -263 0
-149 -854 0
711 -755 0
98 3 0
109 869 0
901 -685 0
-286 217 0
81 -787 0
-269 -174 0
-736 21 0
803 -175 0
200 656 0
163 319 0
-763 -102 0
-333 427 0
395 -551 0
846 -325 0
613 -777 0
-453 -550 0
44 -525 0
577 -841 0
-868 145 0
636 376 0
550 581 0
662 64 0
-650 834 0
229 -808 0
580 754 0
-91 585 0
-78 664 0
723 -747 0
852 -441 0
-415 396 0
-635 843 0
146 903 0
-287 -570 0
580 -631 0
-469 -558 0
209 -844 0
-868 131 0
892 -729 0
238 213 0
288 -883 0
816 -110 0
-604 512 0
34 758 0
384 -240 0
-551 -863 0
-891 96 0
-434 22 0
-783 15 0
425 141 0
-429 -550 0
-399 -672 0
-114 -385 0
804 -445 0
-187 322 0
-95 -5 0
255 -618 0
-612 -147 0
-762 206 0
-891 599 0
-238 -701 0
-483 707 0
-690 604 0
646 -278 0
192 -586 0
-783 -556 0
-60 399 0
5 158 0
-570 -344 0
21 -883 0
-5 783 0
416 726 0
-657 -760 0
-244 -356 0
876 -755 0
835 -113 0
-102 853 0
530 181 0
-652 -326 0
54 -650 0
629 155 0
-728 588 0
-898 559 0
-631 -284 0
221 275 0
-886 -354 0
567 329 0
-586 221 0
848 612 0
329 -491 0
151 -11 0
-39 -373 0
-184 571 0
892 576 0
364 -848 0
-724 745 0
-751 -110 0
411 645 0
-752 -859 0
-524 -516 0
-477 464 0
-825 600 0
726 56 0
-308 -170 0
-130 -765 0
164 -131 0
719 -329 0
37 362 0
-132 -550 0
552 -680 0
748 -673 0
322 -360 0
-277 -533 0
-471 720 0
-640 347 0
-380 869 0
-683 878 0
792 506 0
-706 -442 0
580 47 0
179 -805 0
-858 418 0
-656 145 0
-95 -349 0
257 -723 0
431 -792 0
531 -609 0
-537 -447 0
-588 376 0
21 -117 0
-334 -515 0
680 689 0
-112 -415 0
-553 -552 0
-891 -488 0
-437 271 0
-520 542 0
-401 -557 0
494 -826 0
401 -123 0
697 -518 0
805 182 0
609 -297 0
478 -255 0
-333 -735 0
150 -430 0
-47 730 0
-101 97 0
-855 902 0
360 -353 0
577 157 0
422 502 0
401 -113 0
-721 -821 0
-448 -488 0
-358 -436 0
373 815 0
-707 -10 0
151 -174 0
449 270 0
-4 593 0
576 -552 0
-873 795 0
-522 61 0
-896 876 0
-864 471 0
-318 -673 0
-65 603 0
448 -163 0
-692 -25 0
289 -572 0
-606 394 0
-352 -342 0
459 890 0
-91 -174 0
-433 485 0
233 -55 0
-369 159 0
191 748 0
156 -887 0
-774 209 0
-432 815 0
-854 646 0
-250 -569 0
-754 -7 0
812 879 0
-684 -388 0
812 460 0
562 367 0
691 207 0
-575 95 0
-188 -625 0
787 209 0
-238 845 0
813 506 0
-201 480 0
-854 763 0
-73 813 0
561 -628 0
-391 477 0
-217 -239 0
203 568 0
818 845 0
200 491 0
-567 -326 0
902 662 0
-730 757 0
26 -330 0
9 162 0
483 887 0
-143 -81 0
823 -448 0
892 -297 0
80 460 0
576 352 0
-901 -355 0
31 693 0
-45 -636 0
-18 -199 0
-720 -147 0
89 -643 0
535 586 0
-656 657 0
16 -886 0
-305 39 0
18 580 0
698 -865 0
-778 -677 0
-252 -282 0
693 -279 0
860 845 0
567 -543 0
-264 -26 0
-288 -36 0
862 561 0
667 -400 0
-623 -778 0
885 239 0
895 -522 0
531 112 0
-807 128 0
-10 37 0
-202 -277 0
430 233 0
-440 780 0
20 58 0
-508 -707 0
-75 843 0
-454 -721 0
524 340 0
-341 596 0
-283 378 0
502 201 0
313 527 0
711 241 0
-556 -428 0
-428 446 0
-88 536 0
-285 81 0
-643 -633 0
-240 894 0
761 -38 0
-458 -377 0
862 222 0
-492 -217 0
-375 -801 0
782 -672 0
-299 -887 0
77 217 0
-778 815 0
611 -783 0
-344 135 0
273 329 0
888 -23 0
-481 -782 0
554 -601 0
438 -620 0
-644 904 0
902 -86 0
-493 -193 0
-426 -586 0
-826 728 0
843 115 0
-266 280 0
16 -137 0
-793 -590 0
627 310 0
-555 178 0
800 185 0
461 -643 0
191 578 0
-73 -438 0
3 -769 0
320 164 0
-387 238 0
293 404 0
682 -344 0
-579 585 0
530 -137 0
-33 -40 0
-708 614 0
-264 -577 0
7 502 0
-133 881 0
533 462 0
476 245 0
766 -436 0
-216 100 0
-278 892 0
27 -578 0
-606 905 0
-403 -188 0
469 464 0
-130 -698 0
182 655 0
384 -736 0
593 -897 0
-730 -748 0
-588 -153 0
-673 658 0
-738 -366 0
396 394 0
100 -398 0
-330 -285 0
366 243 0
-128 -626 0
661 173 0
779 900 0
150 -777 0
-568 -382 0
-727 189 0
-568 -518 0
-681 -690 0
878 -133 0
-563 731 0
-741 -591 0
433 634 0
-259 -573 0
550 81 0
158 455 0
719 125 0
-865 -820 0
637 288 0
317 647 0
-216 486 0
-897 -488 0
-623 654 0
-636 -414 0
-383 251 0
623 -424 0
857 -839 0
561 69 0
-183 54 0
-23 -266 0
603 65 0
-67 867 0
-793 -572 0
-252 -304 0
161 49 0
-159 490 0
-796 -770 0
-830 585 0
824 -130 0
-306 -788 0
-283 -170 0
-516 -269 0
-443 -409 0
-15 -190 0
22 91 0
10 -458 0
-204 402 0
-344 298 0
-573 237 0
445 346 0
272 -397 0
182 804 0
-291 -324 0
-579 223 0
231 780 0
-708 343 0
-419 593 0
34 -190 0
533 139 0
-434 -836 0
-190 401 0
-345 -117 0
354 -546 0
-689 -840 0
-806 486 0
691 -451 0
-644 18 0
-865 -197 0
-81 834 0
-546 -214 0
803 -28 0
62 244 0
595 486 0
-12 -672 0
136 -839 0
251 375 0
-847 -778 0
668 259 0
111 -419 0
-886 895 0
758 898 0
-110 157 0
646 528 0
306 -513 0
-650 -30 0
461 -897 0
175 577 0
-142 176 0
661 884 0
-337 388 0
327 -627 0
-281 -557 0
-474 887 0
-481 58 0
-368 665 0
-284 394 0
-315 -410 0
-287 -858 0
-178 69 0
-544 -820 0
-448 -368 0
-26 -718 0
264 -632 0
-188 862 0
157 -629 0
-498 -882 0
-176 234 0
-550 96 0
98 437 0
597 -330 0
703 -18 0
-181 -674 0
753 -442 0
-80 -85 0
813 -16 0
-870 -685 0
437 95 0
-806 -60 0
-777 203 0
-90 716 0
-555 103 0
-99 663 0
360 -870 0
-303 815 0
258 -896 0
75 866 0
-393 -493 0
660 -391 0
-550 -334 0
-873 -33 0
-683 894 0
18 -186 0
131 -236 0
893 -92 0
-827 -657 0
-544 -819 0
-42 22 0
340 86 0
462 104 0
-305 227 0
-13 -503 0
-381 436 0
201 -633 0
-333 -166 0
659 716 0
357 196 0
-697 -503 0
477 86 0
-707 -901 0
461 -125 0
-591 482 0
-149 -530 0
-134 -589 0
-256 216 0
-272 -38 0
843 680 0
-889 -623 0
-333 -307 0
-762 -729 0
761 764 0
685 -344 0
-22 -379 0
-187 417 0
-806 541 0
-891 -607 0
328 721 0
-875 213 0
507 -286 0
-313 272 0
-492 721 0
-30 496 0
-246 884 0
478 -867 0
-759 -379 0
-18 -452 0
514 852 0
177 -254 0
-699 375 0
238 542 0
189 571 0
-465 -292 0
651 -358 0
507 109 0
330 -68 0
901 709 0
-397 -147 0
697 -595 0
746 731 0
466 856 0
196 -187 0
-443 -486 0
-15 -339 0
157 362 0
-65 514 0
-196 877 0
-812 476 0
-814 -865 0
-292 496 0
842 849 0
226 -403 0
-182 -326 0
-786 697 0
115 -803 0
22 -696 0
513 7 0
583 745 0
812 721 0
-741 -425 0
-831 396 0
56 672 0
124 314 0
-142 -841 0
490 -867 0
-174 512 0
-638 643 0
-395 224 0
466 -383 0
107 485 0
276 891 0
643 227 0
809 -566 0
-783 805 0
-896 -805 0
-713 -849 0
-137 658 0
462 372 0
409 584 0
20 -449 0
-408 -225 0
437 -111 0
816 489 0
-627 -488 0
-745 -138 0
-264 633 0
229 7 0
466 -325 0
-690 9 0
309 161 0
74 512 0
-683 207 0
-368 -627 0
531 -771 0
617 -208 0
219 885 0
-176 -297 0
-133 25 0
343 -293 0
-637 -764 0
-722 -754 0
62 -515 0
-536 -624 0
47 -308 0
-71 550 0
-283 -161 0
-525 -434 0
-254 542 0
211 285 0
-599 848 0
278 -228 0
-656 797 0
749 -748 0
-663 -706 0
-405 -197 0
77 -395 0
815 -676 0
-705 -300 0
-805 -868 0
789 835 0
-702 -850 0
603 -328 0
-209 -503 0
-886 -252 0
-402 -257 0
-5 540 0
-689 -324 0
408 679 0
617 -228 0
-500 -828 0
-192 697 0
-451 60 0
598 -746 0
-650 60 0
-331 518 0
44 -850 0
-904 -747 0
-235 -235 0
-55 -29 0
-220 537 0
649 479 0
259 -199 0
-777 802 0
-901 -630 0
62 7 0
-810 352 0
829 -777 0
-415 -820 0
174 -891 0
-241 -32 0
-173 774 0
673 -412 0
499 276 0
241 -776 0
442 -70 0
-572 -378 0
-224 -810 0
87 371 0
722 542 0
-637 797 0
-315 -751 0
-854 642 0
-121 667 0
392 408 0
347 797 0
-549 -905 0
-708 -207 0
-468 71 0
806 775 0
-479 842 0
904 -473 0
411 -324 0
628 -691 0
21 -576 0
381 -746 0
205 390 0
432 -38 0
770 302 0
-723 385 0
660 786 0
476 609 0
534 -334 0
773 -343 0
207 671 0
501 -168 0
82 310 0
-714 537 0
-773 835 0
-777 -8 0
-856 -847 0
422 -653 0
-809 230 0
-552 720 0
20 450 0
-402 486 0
-111 666 0
696 -258 0
561 -258 0
-443 888 0
127 6 0
-88 872 0
-853 -586 0
-489 298 0
-163 -762 0
519 -443 0
-691 121 0
-307 -818 0
154 -457 0
-242 485 0
-633 507 0
-649 -347 0
-340 -511 0
-651 234 0
295 -902 0
151 -834 0
-245 -273 0
-179 -891 0
761 648 0
-711 2 0
-367 482 0
522 -724 0
-344 -802 0
226 -1 0
-354 710 0
537 -130 0
830 35 0
-34 -360 0
-543 -644 0
-607 -421 0
796 -110 0
-23 762 0
506 545 0
638 -429 0
182 146 0
-838 -517 0
-72 621 0
-445 -367 0
-332 -746 0
-453 82 0
-433 -543 0
-25 -730 0
600 -827 0
302 -56 0
601 -763 0
-254 -495 0
-613 -882 0
-373 -260 0
-120 602 0
-588 -676 0
-58 -473 0
-806 313 0
391 795 0
846 459 0
-616 -289 0
7 805 0
396 -708 0
593 423 0
427 7 0
-234 -684 0
-506 -228 0
328 483 0
-637 671 0
217 301 0
-702 569 0
-519 -484 0
841 -69 0
846 2 0
-403 -335 0
-503 223 0
94 -558 0
542 384 0
-287 -127 0
-102 -1 0
634 -589 0
675 -239 0
786 554 0
731 -478 0
487 842 0
-521 863 0
-588 -153 0
716 864 0
773 -285 0
787 -688 0
-732 -896 0
-488 847 0
207 -741 0
-567 838 0
674 -71 0
578 -71 0
719 394 0
-442 -513 0
-41 -686 0
-631 362 0
686 51 0
-875 -91 0
665 779 0
-494 -209 0
372 -337 0
106 678 0
-331 -160 0
571 174 0
-707 556 0
-400 -481 0
846 752 0
283 347 0
201 -364 0
-547 711 0
215 607 0
489 663 0
175 -41 0
102 518 0
-150 314 0
-688 660 0
665 21 0
633 -822 0
154 -836 0
-513 110 0
578 505 0
462 -56 0
749 455 0
612 1 0
531 -218 0
-620 626 0
-768 -463 0
551 -186 0
-38 -102 0
507 135 0
-206 -382 0
-664 396 0
860 745 0
-702 -606 0
-510 -693 0
403 -161 0
216 198 0
-301 526 0
-267 -584 0
-707 8 0
30 -344 0
497 -442 0
-307 595 0
343 583 0
-85 525 0
-632 -487 0
122 -239 0
-434 -694 0
808 54 0
377 -394 0
-357 -534 0
757 656 0
93 191 0
425 187 0
404 -17 0
-787 395 0
-385 160 0
-424 606 0
-72 91 0
-509 841 0
875 -672 0
680 -62 0
-871 -68 0
-741 18 0
449 -711 0
52 -690 0
-76 -218 0
-257 452 0
-690 563 0
-23 -117 0
861 542 0
-296 -533 0
887 -718 0
-313 -881 0
73 -169 0
290 34 0
178 -282 0
131 -771 0
113 405 0
46 529 0
-897 -117 0
-264 -776 0
352 164 0
721 25 0
875 63 0
517 -724 0
-117 573 0
-498 -323 0
349 781 0
-129 -515 0
219 -148 0
-2 541 0
100 -208 0
-741 -43 0
768 -222 0
191 183 0
853 650 0
603 603 0
756 659 0
161 -289 0
-649 -90 0
-845 705 0
-883 704 0
872 -309 0
-858 157 0
781 -740 0
-750 -865 0
-463 -85 0
51 -883 0
-80 681 0
377 -564 0
835 -434 0
-843 7 0
490 -130 0
-415 -350 0
215 -309 0
-903 838 0
773 -312 0
-774 613 0
-631 52 0
139 39 0
563 688 0
-741 -537 0
426 145 0
179 -669 0
42 902 0
824 -303 0
902 100 0
172 870 0
327 -608 0
-55 845 0
485 -612 0
-547 257 0
-71 -149 0
-873 -717 0
582 -59 0
-238 729 0
350 196 0
258 -593 0
774 -82 0
272 -132 0
-40 671 0
846 411 0
761 301 0
-289 564 0
741 687 0
-149 -606 0
755 540 0
-252 -844 0
722 562 0
-738 879 0
-225 695 0
140 -125 0
339 -85 0
-786 -650 0
1 -408 0
505 -253 0
404 894 0
106 888 0
-547 -616 0
-870 191 0
636 619 0
-702 -239 0
-298 678 0
-146 325 0
304 -242 0
737 -896 0
-632 -135 0
471 237 0
407 -546 0
497 -167 0
-443 -324 0
-765 -787 0
-112 825 0
711 669 0
-616 -195 0
108 -380 0
904 75 0
846 608 0
408 -251 0
158 139 0
769 243 0
567 1 0
-712 -367 0
-774 294 0
-316 -180 0
340 -754 0
79 201 0
890 65 0
-358 -369 0
-429 -492 0
-511 100 0
-96 531 0
-413 274 0
-775 -874 0
-212 -679 0
-651 905 0
350 721 0
-199 460 0
-508 395 0
425 -869 0
-175 -772 0
214 -260 0
-29 401 0
542 463 0
480 823 0
-488 -360 0
-11 -646 0
100 379 0
-12 -561 0
178 229 0
-397 -58 0
-510 660 0
-465 880 0
352 324 0
97 667 0
590 -413 0
497 306 0
-782 749 0
-525 -308 0
-391 -887 0
-543 -833 0
-187 -87 0
805 7 0
-754 -542 0
165 781 0
730 629 0
-496 696 0
172 -88 0
716 533 0
-492 841 0
-785 249 0
-707 403 0
-45 -547 0
397 524 0
627 -845 0
-590 177 0
769 452 0
-228 843 0
-530 786 0
-365 -144 0
887 897 0
443 696 0
-76 -585 0
-821 148 0
-658 81 0
-807 386 0
-650 48 0
310 825 0
-839 17 0
-525 125 0
-492 -632 0
-549 499 0
715 -845 0
-273 -718 0
-560 -905 0
394 281 0
363 -891 0
653 273 0
509 136 0
298 -837 0
64 -558 0
-158 -262 0
-863 -516 0
56 810 0
-515 -262 0
647 364 0
440 872 0
-510 503 0
593 -449 0
-505 -239 0
-440 701 0
445 693 0
-895 157 0
-281 804 0
-287 812 0
600 30 0
-140 -146 0
718 587 0
-91 847 0
230 -675 0
-5 646 0
-500 -187 0
-677 -10 0
-522 396 0
191 -326 0
372 -133 0
-377 -138 0
769 -776 0
210 769 0
-283 835 0
-83 -297 0
-307 -55 0
731 336 0
579 -762 0
-431 273 0
129 320 0
476 174 0
-387 434 0
531 622 0
454 610 0
-549 -17 0
-212 860 0
-307 839 0
-486 14 0
-803 -410 0
285 -806 0
-203 343 0
709 725 0
478 620 0
511 350 0
-453 757 0
-607 -712 0
414 -316 0
-590 734 0
-143 -865 0
-423 -615 0
-632 837 0
816 192 0
74 196 0
-167 -216 0
309 -807 0
577 20 0
-491 757 0
393 615 0
41 679 0
-397 -93 0
-801 413 0
545 -659 0
140 887 0
-267 -764 0
-674 849 0
-599 -752 0
803 551 0
-532 -710 0
98 396 0
166 64 0
403 867 0
-810 -702 0
-373 -494 0
-689 -90 0
-508 -46 0
-86 747 0
-713 -747 0
-786 -589 0
247 832 0
-242 -3 0
-413 106 0
-903 -570 0
-300 497 0
830 56 0
35 733 0
-636 -461 0
4 -348 0
675 -436 0
648 137 0
1 -573 0
520 -28 0
-133 -335 0
-38 -767 0
-367 -65 0
-520 805 0
475 -238 0
-567 -525 0
-270 158 0
721 -127 0
-206 -284 0
427 -67 0
-217 263 0
404 -43 0
382 464 0
-247 711 0
-356 617 0
-487 -292 0
890 -43 0
686 -284 0
804 471 0
883 -638 0
537 -478 0
-478 81 0
416 214 0
415 386 0
152 580 0
-879 835 0
696 503 0
843 -547 0
688 -146 0
-75 274 0
433 -692 0
56 399 0
366 460 0
585 80 0
53 -165 0
678 406 0
652 862 0
-242 108 0
478 66 0
177 55 0
-399 -732 0
541 56 0
-128 742 0
334 -555 0
-283 -218 0
-851 795 0
789 37 0
-482 -148 0
-488 -31 0
320 -401 0
37 113 0
273 -651 0
753 -358 0
-705 904 0
267 -41 0
184 540 0
-460 182 0
-120 -205 0
132 -713 0
580 -203 0
548 -398 0
146 27 0
-477 -568 0
-82 519 0
139 -815 0
895 -35 0
3 597 0
-586 -654 0
295 -187 0
740 -847 0
618 181 0
179 -73 0
394 414 0
-666 669 0
763 302 0
291 -618 0
357 74 0
-24 318 0
-48 -590 0
582 -849 0
-791 -656 0
-149 388 0
745 784 0
164 -463 0
-718 -478 0
276 -53 0
409 -714 0
689 -530 0
-190 31 0
-292 641 0
268 731 0
-447 -593 0
185 -759 0
625 -656 0
-544 20 0
-735 -392 0
164 -576 0
-511 271 0
86 182 0
-348 -514 0
-206 73 0
-790 -297 0
404 -110 0
-480 347 0
695 444 0
-680 -607 0
-190 -787 0
-72 -8 0
-423 -175 0
-35 -580 0
729 113 0
-367 -228 0
830 -269 0
-164 -35 0
861 299 0
-856 711 0
31 -547 0
210 -178 0
-536 401 0
-5 744 0
-194 523 0
397 509 0
306 800 0
-488 -486 0
455 141 0
-288 729 0
86 -557 0
359 -640 0
-778 -672 0
327 -718 0
-845 -653 0
-63 -265 0
-52 -240 0
10 352 0
-763 302 0
679 758 0
143 -202 0
167 -363 0
-197 -881 0
-781 43 0
-342 -105 0
888 808 0
-873 17 0
384 -140 0
-379 158 0
764 320 0
-308 902 0
-682 27 0
1 -704 0
-169 531 0
-826 -202 0
-738 784 0
-60 -823 0
-314 -344 0
505 426 0
407 -199 0
-451 -208 0
608 -219 0
-475 362 0
597 -487 0
-649 146 0
311 -400 0
478 -614 0
-879 -196 0
351 -94 0
96 -901 0
-754 -241 0
281 599 0
1 494 0
429 -688 0
-246 -272 0
359 460 0
445 -454 0
-17 -754 0
467 -428 0
210 -683 0
-24 825 0
-624 -656 0
366 189 0
66 -880 0
-239 -151 0
463 274 0
830 -252 0
-775 -397 0
700 531 0
613 -202 0
-871 -858 0
852 -291 0
180 145 0
-544 -632 0
-175 -727 0
-119 619 0
727 464 0
-234 121 0
-754 57 0
605 75 0
675 -756 0
-103 496 0
-45 641 0
876 -481 0
501 151 0
109 19 0
885 -572 0
53 314 0
534 416 0
434 366 0
-848 600 0
-635 -818 0
595 -523 0
869 505 0
205 504 0
136 310 0
-847 -206 0
209 -508 0
859 181 0
625 -762 0
-623 -59 0
707 -703 0
-84 -673 0
126 -630 0
-379 -181 0
-714 859 0
-178 199 0
213 -498 0
577 -362 0
-880 -96 0
-774 581 0
7 1 0
-181 486 0
421 21 0
397 -252 0
660 866 0
233 3 0
-586 529 0
-491 31 0
455 -746 0
364 -791 0
626 16 0
108 486 0
194 157 0
722 -714 0
167 -451 0
803 -199 0
-250 57 0
-850 310 0
274 845 0
-597 -536 0
822 -620 0
-889 -470 0
-392 -477 0
471 -424 0
-39 -128 0
209 797 0
373 -222 0
686 -605 0
539 449 0
-347 476 0
824 -456 0
194 -473 0
-176 757 0
565 27 0
22 -429 0
787 140 0
-618 -330 0
561 -687 0
518 -465 0
-63 533 0
-650 595 0
469 -673 0
302 762 0
44 470 0
-473 -151 0
216 -106 0
-208 853 0
136 -66 0
-85 -401 0
-725 -651 0
740 -556 0
-117 42 0
583 282 0
-862 662 0
-200 -365 0
215 610 0
-806 -26 0
504 -305 0
-307 843 0
-751 860 0
-476 322 0
-361 -449 0
-692 -389 0
-602 140 0
710 -638 0
478 -622 0
655 26 0
813 249 0
-745 848 0
-248 -379 0
562 155 0
450 382 0
765 281 0
-763 -476 0
701 -26 0
-265 -796 0
-559 -407 0
-338 -160 0
495 -173 0
-492 665 0
-6 -349 0
-652 -884 0
-597 548 0
614 863 0
80 -325 0
-685 373 0
-130 704 0
-458 848 0
738 -292 0
-478 -263 0
388 -329 0
-514 737 0
52 -510 0
-759 120 0
-410 -885 0
434 -106 0
-147 -304 0
-400 -626 0
552 19 0
232 -803 0
384 819 0
440 -104 0
-621 97 0
603 201 0
-679 -672 0
26 -738 0
596 -765 0
-285 -419 0
223 -487 0
-48 -351 0
716 -140 0
-873 526 0
613 151 0
554 382 0
644 831 0
-4 823 0
-156 -428 0
251 247 0
663 -827 0
-437 -225 0
-235 -120 0
232 -635 0
455 -447 0
268 159 0
231 -66 0
-142 70 0
869 364 0
126 -333 0
61 -429 0
582 697 0
-474 -108 0
542 117 0
-336 578 0
-290 860 0
386 -98 0
814 182 0
-532 -895 0
-531 634 0
430 -36 0
345 -607 0
721 647 0
-39 574 0
-651 412 0
-690 -169 0
-88 -809 0
-86 838 0
-315 618 0
-410 469 0
-134 689 0
-454 260 0
-633 209 0
501 17 0
215 -813 0
-827 732 0
761 -267 0
-781 894 0
436 661 0
-69 535 0
-534 467 0
-526 781 0
-658 903 0
838 70 0
377 81 0
878 251 0
-124 629 0
-895 143 0
62 394 0
-794 -239 0
208 -778 0
116 -701 0
315 -169 0
-356 -812 0
-5 -891 0
-753 -775 0
377 576 0
-92 -573 0
113 -820 0
-607 298 0
827 -754 0
-454 -115 0
408 -796 0
-707 417 0
-445 240 0
-710 804 0
91 779 0
-560 148 0
-88 -713 0
-207 720 0
-161 740 0
408 -677 0
-898 -818 0
221 -807 0
-149 -129 0
154 568 0
392 446 0
57 719 0
459 -397 0
-802 615 0
680 226 0
416 581 0
430 43 0
158 -853 0
762 -279 0
-567 -632 0
-296 219 0
659 76 0
173 541 0
-776 -342 0
275 -383 0
181 118 0
435 298 0
-383 701 0
315 -454 0
494 -620 0
-66 327 0
-864 -253 0
-584 -448 0
82 670 0
57 -827 0
471 -512 0
-689 -891 0
-508 -498 0
-555 166 0
888 65 0
375 -787 0
53 48 0
-35 886 0
-324 -218 0
82 686 0
671 -782 0
-772 -397 0
-526 -299 0
283 -714 0
-864 711 0
-202 -679 0
-338 434 0
422 728 0
-423 461 0
711 164 0
838 -176 0
678 580 0
123 -138 0
519 -344 0
-704 187 0
-493 -802 0
756 885 0
523 -49 0
15 861 0
757 449 0
275 764 0
675 620 0
578 -363 0
-344 -564 0
318 -571 0
728 660 0
-638 527 0
-143 372 0
839 -87 0
-508 186 0
-199 -256 0
159 -657 0
615 -565 0
-867 817 0
16 653 0
82 288 0
-370 22 0
-91 -427 0
861 426 0
-40 595 0
647 -750 0
859 -28 0
-652 478 0
-441 -898 0
164 -663 0
-217 761 0
284 -24 0
317 249 0
292 300 0
626 364 0
411 165 0
-853 -836 0
-291 575 0
-698 -650 0
-305 577 0
-572 -216 0
679 -52 0
-94 728 0
793 716 0
-94 617 0
824 446 0
405 773 0
9 -142 0
446 -52 0
562 273 0
-198 -58 0
-339 104 0
-620 -556 0
-533 593 0
-423 245 0
797 785 0
227 -257 0
881 -549 0
-365 150 0
377 -763 0
-169 -492 0
-621 334 0
20 617 0
-299 -882 0
-853 406 0
520 183 0
364 -528 0
155 -40 0
453 152 0
-149 -789 0
808 -72 0
-244 -677 0
-451 -29 0
44 29 0
122 -618 0
-411 710 0
340 -572 0
102 -187 0
-734 193 0
-225 -163 0
311 888 0
506 789 0
-102 -117 0
734 503 0
-785 365 0
209 -349 0
900 -844 0
-602 714 0
-268 -305 0
-14 -508 0
-785 -840 0
-809 582 0
-689 603 0
815 213 0
574 574 0
640 394 0
-787 -60 0
-764 -354 0
551 838 0
54 -19 0
-486 450 0
-23 402 0
645 894 0
-188 -345 0
-84 -792 0
-330 -871 0
223 -691 0
-604 -116 0
83 -245 0
-547 68 0
-557 802 0
214 887 0
-96 309 0
751 -891 0
-807 721 0
102 -805 0
616 -579 0
-255 124 0
-111 711 0
-604 595 0
