c bounds 102 143
p cnf 857 1936
-472 -593 0
-309 -143 0
-166 -531 0
646 -729 0
235 -785 0
-841 -215 0
-638 630 0
-158 324 0
-857 -646 0
-230 414 0
-354 -248 0
-93 -251 0
-82 -825 0
-91 78 0
849 -429 0
732 -241 0
581 816 0
409 65 0
-151 -628 0
-636 -707 0
-516 34 0
77 -329 0
490 -162 0
670 201 0
-94 741 0
-487 -110 0
696 -677 0
652 -250 0
165 -120 0
-125 -717 0
-722 77 0
8 115 0
-255 438 0
689 -403 0
286 -679 0
-476 -818 0
-693 -251 0
5 604 0
-624 35 0
-52 -561 0
649 685 0
-563 -173 0
794 -827 0
799 -577 0
35 -237 0
-502 -755 0
-672 650 0
291 -751 0
448 -642 0
-806 -589 0
-817 310 0
278 516 0
26 -138 0
757 691 0
615 -393 0
-836 167 0
518 562 0
575 491 0
-107 389 0
352 315 0
82 498 0
400 -208 0
211 329 0
747 376 0
521 -271 0
-709 836 0
-833 649 0
-225 -723 0
632 273 0
-725 13 0
-815 693 0
700 740 0
-682 -532 0
-124 63 0
746 -354 0
369 156 0
838 -679 0
-333 -175 0
-182 -378 0
274 277 0
-596 340 0
90 -421 0
-856 -409 0
241 -165 0
-591 672 0
-302 459 0
447 558 0
-295 -553 0
-77 396 0
14 -121 0
73 600 0
-535 -162 0
-323 -648 0
-428 -857 0
585 526 0
610 241 0
-353 -600 0
472 434 0
552 490 0
557 -439 0
415 -724 0
-766 331 0
355 -805 0
333 -830 0
557 520 0
-470 -765 0
-365 -130 0
610 -83 0
789 -765 0
30 616 0
488 479 0
-361 -588 0
688 842 0
-397 439 0
-176 730 0
-810 -437 0
59 86 0
-181 823 0
-394 -703 0
-691 -253 0
-577 -645 0
820 -706 0
-783 475 0
-773 -306 0
-438 -287 0
-476 142 0
242 -504 0
-188 -306 0
-353 230 0
-853 783 0
-714 42 0
-648 597 0
-540 398 0
112 511 0
415 -824 0
355 -143 0
814 -220 0
-579 781 0
630 754 0
-856 407 0
-654 220 0
270 -25 0
-709 -668 0
-850 -397 0
-556 -7 0
-473 201 0
-752 78 0
-596 598 0
293 -87 0
-793 843 0
396 -214 0
-539 693 0
-628 -81 0
-26 -476 0
-409 -86 0
580 269 0
-705 -769 0
118 -264 0
-856 250 0
541 -618 0
-213 767 0
-781 74 0
-326 -828 0
199 37 0
-823 584 0
832 814 0
609 -131 0
335 -608 0
576 213 0
542 617 0
41 694 0
-699 430 0
-16 -178 0
-308 -175 0
-185 126 0
-512 44 0
304 361 0
723 -409 0
-584 -26 0
3 262 0
531 702 0
-280 -189 0
526 -541 0
-656 586 0
784 -26 0
-440 -208 0
718 -382 0
-251 274 0
-7 842 0
-751 -596 0
523 -290 0
-209 846 0
318 -689 0
-21 -518 0
674 241 0
-123 398 0
-377 -559 0
624 278 0
543 662 0
-234 233 0
507 494 0
-358 -152 0
-593 -498 0
569 -813 0
-362 -128 0
-593 435 0
688 123 0
-769 412 0
114 502 0
-826 47 0
-109 490 0
-640 407 0
434 -725 0
267 -433 0
-795 -298 0
-430 -190 0
-176 642 0
-326 -532 0
-840 -707 0
-78 570 0
569 -580 0
5 148 0
-753 694 0
463 154 0
481 -561 0
806 416 0
-167 -252 0
-185 -223 0
-647 700 0
-314 240 0
-402 708 0
-437 -144 0
422 740 0
135 73 0
566 -492 0
-18 237 0
-228 12 0
-41 416 0
706 150 0
310 -630 0
-227 282 0
574 35 0
-51 -424 0
20 62 0
-634 298 0
642 715 0
-853 127 0
97 -645 0
-148 -60 0
198 -710 0
218 -14 0
164 847 0
167 -629 0
123 -584 0
836 -169 0
-427 -485 0
-800 35 0
12 849 0
-468 241 0
-700 -804 0
550 489 0
710 -259 0
-259 599 0
566 -597 0
-597 -458 0
687 278 0
831 -812 0
578 243 0
361 -225 0
778 137 0
-265 465 0
727 562 0
-657 -810 0
360 -329 0
-44 101 0
-194 205 0
-772 -675 0
293 -653 0
585 -255 0
21 -657 0
-313 435 0
260 -172 0
-107 -666 0
616 -142 0
371 -568 0
-741 370 0
-334 -748 0
-361 -32 0
459 322 0
-838 721 0
-336 -115 0
820 149 0
-836 -790 0
80 393 0
-260 -401 0
702 44 0
27 584 0
199 687 0
671 -120 0
214 -302 0
687 211 0
562 -836 0
-787 -295 0
432 123 0
357 -592 0
-217 777 0
-393 -558 0
-246 -572 0
-162 -234 0
235 -121 0
677 723 0
-117 436 0
-134 453 0
80 -515 0
-696 374 0
-4 -675 0
-258 -789 0
92 773 0
-43 85 0
337 -546 0
-441 144 0
-555 563 0
-128 407 0
667 618 0
-170 -776 0
235 295 0
-575 814 0
786 -572 0
768 486 0
160 832 0
159 287 0
827 589 0
-219 37 0
-252 -518 0
396 775 0
481 200 0
-422 257 0
-25 150 0
83 -837 0
782 535 0
276 -122 0
804 -279 0
-179 -14 0
-188 -174 0
503 275 0
606 783 0
-633 493 0
-99 -254 0
-262 -798 0
-663 -476 0
642 -779 0
841 276 0
-135 -370 0
146 -806 0
453 -820 0
-278 778 0
-857 -370 0
-152 39 0
474 -443 0
-389 100 0
-557 -775 0
11 812 0
820 -268 0
340 -254 0
-399 -171 0
-434 -162 0
-52 -796 0
398 -109 0
-186 165 0
175 -394 0
491 209 0
831 403 0
-207 -682 0
214 -427 0
-96 -809 0
201 -133 0
395 495 0
469 -272 0
431 585 0
-69 -253 0
-54 -490 0
-397 632 0
195 -443 0
490 296 0
614 -712 0
-615 -199 0
851 -793 0
477 448 0
-15 -13 0
719 595 0
-765 -511 0
-351 35 0
-138 -568 0
232 -451 0
-7 -736 0
288 299 0
562 576 0
-215 482 0
-424 755 0
589 617 0
502 761 0
-696 -185 0
389 62 0
268 635 0
-252 -535 0
-421 -14 0
-251 642 0
156 -778 0
-400 340 0
-533 732 0
-343 -825 0
-229 -330 0
33 442 0
110 27 0
-666 48 0
-363 811 0
-857 -483 0
-72 -222 0
405 -568 0
533 687 0
-520 720 0
146 -765 0
-670 -283 0
-56 -618 0
471 352 0
-629 425 0
211 -464 0
-341 635 0
-496 432 0
409 685 0
-89 539 0
-833 -446 0
499 -291 0
801 395 0
-321 776 0
489 637 0
286 -706 0
-42 -369 0
814 -237 0
-231 -28 0
-121 114 0
-289 410 0
744 -117 0
-734 -686 0
-290 243 0
448 -774 0
420 -523 0
-785 694 0
-142 -556 0
64 -714 0
762 -631 0
-786 79 0
-191 -817 0
-122 -695 0
-20 -130 0
-747 -631 0
-5 469 0
167 846 0
247 630 0
-346 829 0
-661 -198 0
300 -730 0
300 465 0
76 514 0
-664 -43 0
-390 -432 0
-516 -430 0
54 -749 0
-261 -204 0
-287 160 0
-654 605 0
509 560 0
-579 -844 0
535 -152 0
-539 -577 0
-789 -34 0
-83 415 0
-168 -760 0
266 650 0
43 -273 0
-656 440 0
646 -248 0
131 357 0
178 -383 0
-370 461 0
-633 239 0
486 22 0
-454 -428 0
493 -347 0
791 -94 0
191 376 0
619 560 0
-303 -620 0
-86 -411 0
216 71 0
553 55 0
-572 -591 0
-744 803 0
-93 -334 0
-137 553 0
689 719 0
244 -600 0
761 -666 0
100 -518 0
-675 736 0
833 -444 0
480 -460 0
-596 685 0
-400 333 0
-206 108 0
-271 -194 0
440 -372 0
622 52 0
-306 524 0
252 148 0
-110 431 0
581 -772 0
-18 -245 0
-802 852 0
727 -276 0
446 -208 0
220 -462 0
612 686 0
376 64 0
-465 -180 0
-546 -320 0
719 -628 0
-829 641 0
-633 -764 0
358 -159 0
-800 -607 0
798 -465 0
204 504 0
458 -527 0
641 415 0
-206 551 0
144 154 0
276 604 0
-194 -54 0
263 199 0
35 380 0
-734 -618 0
-558 -793 0
498 -572 0
-287 -744 0
101 -538 0
-453 -232 0
-751 -309 0
-50 -238 0
-59 -528 0
-516 300 0
101 -801 0
-566 468 0
-653 -709 0
-37 -855 0
-755 715 0
-460 -192 0
657 814 0
-501 479 0
-798 -437 0
-465 846 0
-598 -419 0
617 -321 0
310 -843 0
-476 665 0
-716 -451 0
450 -87 0
65 -678 0
483 -380 0
-734 435 0
136 -768 0
791 198 0
-603 -337 0
751 -348 0
-305 -28 0
-130 552 0
-96 -691 0
3 -126 0
195 664 0
-712 -166 0
-764 671 0
-485 832 0
512 698 0
-264 732 0
-813 312 0
65 589 0
92 125 0
807 -449 0
-18 571 0
-382 -580 0
156 237 0
-577 183 0
-580 -268 0
95 -828 0
-496 -345 0
-710 263 0
638 757 0
-38 -33 0
-62 -409 0
720 245 0
-176 -728 0
311 -348 0
420 -811 0
799 -433 0
-307 -800 0
-465 747 0
284 -247 0
533 231 0
8 262 0
440 -450 0
568 529 0
656 -831 0
828 -435 0
521 259 0
-200 406 0
68 327 0
-42 -127 0
-399 541 0
-827 -830 0
573 -224 0
-631 -736 0
-796 -555 0
680 -500 0
-639 362 0
-214 -430 0
-334 123 0
-21 -427 0
-133 499 0
102 228 0
-400 425 0
-774 -72 0
-531 539 0
-426 64 0
608 -770 0
-84 -374 0
-271 -808 0
-414 672 0
-525 -699 0
114 -206 0
-631 -469 0
-703 573 0
-549 148 0
238 -508 0
495 -23 0
-408 646 0
-423 -616 0
-232 510 0
-681 753 0
425 -783 0
132 -57 0
-611 196 0
598 85 0
-724 -286 0
-286 671 0
-241 -506 0
191 608 0
636 767 0
-683 632 0
145 -54 0
258 -343 0
-762 398 0
774 336 0
-687 137 0
-349 547 0
660 -96 0
197 -202 0
142 -213 0
820 604 0
283 -590 0
-337 -287 0
285 -348 0
154 -701 0
-666 118 0
242 -38 0
594 -785 0
-356 460 0
74 -524 0
763 -204 0
-601 741 0
758 760 0
821 834 0
-41 587 0
-600 -51 0
-838 -23 0
191 -466 0
355 428 0
-372 -255 0
448 -119 0
752 631 0
581 -199 0
504 -717 0
-144 -309 0
459 -343 0
761 -208 0
171 -676 0
-79 92 0
-181 -756 0
-321 597 0
-232 -295 0
503 -394 0
-722 -658 0
-296 313 0
-271 -800 0
-483 -151 0
594 698 0
509 -349 0
632 548 0
525 -321 0
-30 -492 0
-84 -408 0
-128 -465 0
-146 829 0
748 -508 0
-850 553 0
-439 557 0
555 31 0
-171 -55 0
-537 463 0
-204 -138 0
-165 -54 0
-639 -3 0
176 436 0
-157 108 0
-25 -794 0
-560 -690 0
395 15 0
845 -185 0
-453 -223 0
-72 -695 0
647 -107 0
436 641 0
-742 680 0
627 -794 0
-64 740 0
264 652 0
-627 -631 0
-50 175 0
-188 -253 0
-117 -795 0
-192 -36 0
718 -166 0
-589 -14 0
13 518 0
101 656 0
-256 75 0
-225 -678 0
457 622 0
-23 96 0
735 -54 0
-287 791 0
435 31 0
-612 414 0
-437 -93 0
-265 -691 0
-503 754 0
-86 -633 0
538 36 0
-295 -666 0
-717 -354 0
-501 -304 0
382 -844 0
82 153 0
-132 857 0
-450 -532 0
77 -703 0
-556 543 0
18 -699 0
465 453 0
-378 -636 0
-445 216 0
-625 -66 0
-689 545 0
-382 -419 0
-731 679 0
451 -525 0
-498 133 0
-149 754 0
5 -603 0
451 -382 0
-676 332 0
180 -750 0
117 -561 0
389 108 0
180 -306 0
828 37 0
-654 -307 0
-306 830 0
-663 438 0
566 -356 0
792 -661 0
-466 -116 0
-645 763 0
173 -454 0
-188 852 0
267 761 0
139 -834 0
-58 -646 0
-263 773 0
416 -614 0
-665 -551 0
-612 306 0
-217 111 0
387 175 0
238 -313 0
474 -783 0
102 683 0
672 547 0
326 450 0
-770 -198 0
-163 -470 0
-264 -550 0
-625 178 0
-297 535 0
-263 562 0
509 -629 0
-824 -298 0
278 -359 0
207 662 0
154 -803 0
-148 493 0
-280 -425 0
168 -43 0
145 -569 0
-847 -751 0
830 -580 0
472 -658 0
575 432 0
-756 -459 0
310 135 0
95 -755 0
19 815 0
-113 -801 0
439 -336 0
-481 341 0
614 -122 0
763 -323 0
-817 -631 0
-138 263 0
-572 -511 0
67 127 0
156 635 0
-176 798 0
-397 595 0
-254 -625 0
221 -231 0
-451 277 0
-795 -94 0
137 -517 0
-825 -740 0
613 73 0
853 814 0
-680 96 0
156 468 0
-217 398 0
-717 -151 0
791 -78 0
-848 -187 0
-633 -345 0
-482 -728 0
518 456 0
249 -266 0
616 157 0
-6 244 0
-810 668 0
-783 -350 0
609 -454 0
-386 -16 0
147 -377 0
613 -306 0
-766 -805 0
37 382 0
-634 61 0
559 713 0
-750 -31 0
151 -631 0
-222 -393 0
-834 -837 0
148 266 0
530 119 0
-104 -834 0
416 -198 0
-279 -588 0
-71 -498 0
63 207 0
562 537 0
27 -181 0
719 -655 0
454 -742 0
-469 150 0
589 226 0
-632 -797 0
-633 -14 0
156 758 0
-827 57 0
-294 -375 0
-326 -234 0
-255 -338 0
-244 -33 0
-217 284 0
-841 549 0
-500 -14 0
-481 -192 0
-472 -411 0
-751 -522 0
-271 741 0
-375 584 0
-603 246 0
26 629 0
76 648 0
855 -264 0
67 808 0
-342 828 0
452 -29 0
646 464 0
643 -192 0
232 -411 0
-302 -488 0
405 -676 0
680 853 0
73 -603 0
-603 -373 0
-321 -744 0
-621 -759 0
671 -110 0
816 487 0
-291 -542 0
-363 -283 0
646 -368 0
-320 -459 0
115 758 0
-723 820 0
337 -30 0
-853 479 0
137 -794 0
549 202 0
-736 440 0
-692 -841 0
-852 674 0
-480 333 0
486 -783 0
386 -40 0
-466 -66 0
-377 616 0
-347 -696 0
547 623 0
46 164 0
669 404 0
354 -647 0
-666 695 0
-532 -366 0
-482 -45 0
621 -722 0
-754 672 0
-163 -256 0
-159 -161 0
660 526 0
852 -105 0
-566 -696 0
643 -793 0
-160 62 0
697 417 0
-592 598 0
818 640 0
-725 538 0
643 297 0
854 479 0
-441 -473 0
341 -770 0
-510 51 0
-7 486 0
62 252 0
692 -518 0
88 513 0
772 -205 0
-346 743 0
-232 -419 0
-713 -424 0
119 181 0
37 179 0
248 -369 0
-818 -626 0
761 -509 0
-463 410 0
-615 -546 0
843 486 0
382 -507 0
-162 -799 0
708 592 0
260 -3 0
230 -19 0
-280 -202 0
-423 720 0
-184 337 0
239 -434 0
20 -721 0
242 -308 0
47 230 0
500 787 0
-295 -376 0
-844 633 0
110 -329 0
-323 -518 0
666 42 0
-614 -825 0
305 249 0
-460 618 0
-62 623 0
664 -117 0
713 -252 0
-283 315 0
-624 48 0
-755 581 0
495 249 0
385 -749 0
720 241 0
-120 669 0
335 840 0
698 12 0
505 -174 0
-419 759 0
-427 832 0
782 40 0
-451 -84 0
461 -156 0
505 335 0
754 -531 0
-770 -268 0
213 -188 0
-727 266 0
555 -172 0
-97 -834 0
830 -577 0
776 -268 0
-646 574 0
-622 464 0
-363 -292 0
-155 456 0
-592 -227 0
-595 -57 0
825 -81 0
-845 -207 0
-856 634 0
-618 -654 0
691 -789 0
-424 299 0
165 181 0
-286 -808 0
-765 516 0
-487 -771 0
509 679 0
46 -403 0
675 -360 0
-844 -465 0
-217 422 0
704 472 0
-767 -726 0
-811 773 0
-742 285 0
-209 -756 0
-186 -232 0
-155 -838 0
320 -191 0
534 818 0
-268 -570 0
-89 141 0
-762 -678 0
773 392 0
447 671 0
635 588 0
143 146 0
321 -178 0
-129 319 0
562 -640 0
-729 662 0
-344 -236 0
-835 -120 0
-395 -850 0
337 557 0
-806 -196 0
575 -80 0
81 828 0
380 -446 0
272 -731 0
303 -30 0
-614 -663 0
534 630 0
803 698 0
-668 842 0
347 171 0
-855 -532 0
-227 -598 0
-51 782 0
-681 856 0
720 358 0
389 -42 0
-124 -352 0
-72 49 0
-91 -364 0
376 -392 0
214 515 0
605 -52 0
829 221 0
63 93 0
-185 685 0
-247 -130 0
244 472 0
-84 -24 0
363 -172 0
223 -188 0
600 -571 0
-388 -413 0
260 150 0
36 818 0
617 -9 0
-320 241 0
-474 311 0
-835 -519 0
656 411 0
-55 -749 0
-408 -263 0
-161 274 0
-320 -851 0
52 -41 0
47 596 0
-800 -542 0
-508 767 0
35 -234 0
-120 -135 0
371 331 0
699 318 0
574 671 0
-126 261 0
85 351 0
-241 376 0
-458 705 0
-105 187 0
368 -85 0
728 -129 0
370 314 0
499 -707 0
-319 805 0
-759 -539 0
-232 -766 0
-592 575 0
48 -773 0
240 822 0
-400 437 0
246 486 0
-173 403 0
481 -589 0
324 -392 0
704 417 0
-544 201 0
-573 137 0
127 469 0
-794 689 0
272 -719 0
90 213 0
-622 -253 0
669 376 0
67 -664 0
450 339 0
483 93 0
-378 -801 0
-218 177 0
-137 623 0
758 -226 0
-695 471 0
659 -684 0
-113 585 0
-844 562 0
595 457 0
-349 -234 0
-245 816 0
403 464 0
715 776 0
530 -290 0
127 27 0
372 -795 0
-348 -455 0
641 177 0
65 -131 0
-68 752 0
323 44 0
505 658 0
114 -135 0
-695 -111 0
807 -479 0
335 697 0
-677 806 0
655 95 0
828 209 0
-844 -106 0
450 244 0
651 -103 0
-543 820 0
-361 294 0
-429 12 0
-330 -509 0
128 396 0
-518 -588 0
112 -3 0
-718 -755 0
242 -393 0
249 312 0
20 -83 0
716 -838 0
-176 -633 0
358 -499 0
754 831 0
719 279 0
-338 711 0
748 313 0
-553 452 0
522 -560 0
61 841 0
92 -25 0
-593 139 0
-591 -756 0
211 442 0
431 -363 0
-251 -765 0
700 439 0
619 20 0
112 -423 0
-409 781 0
-637 150 0
752 358 0
-104 -692 0
634 -342 0
-582 427 0
-712 147 0
803 238 0
-750 -682 0
250 -631 0
-237 551 0
-110 64 0
-326 396 0
-391 -328 0
-17 816 0
125 79 0
740 -107 0
776 702 0
533 -744 0
-107 626 0
-378 433 0
727 299 0
-837 526 0
232 40 0
-367 740 0
774 -152 0
276 -478 0
746 234 0
473 443 0
-559 211 0
-501 -341 0
-222 408 0
-175 -486 0
-716 258 0
-50 -375 0
-23 -359 0
741 691 0
143 -479 0
-264 -554 0
218 -58 0
-619 302 0
66 229 0
-55 -443 0
-618 197 0
-424 -699 0
90 -16 0
-458 11 0
-495 547 0
209 -208 0
576 658 0
-828 -813 0
-744 -755 0
-352 -593 0
-83 -653 0
352 -379 0
180 604 0
229 342 0
-559 473 0
-314 -690 0
653 -89 0
-449 319 0
-334 -855 0
-421 311 0
503 -307 0
432 -691 0
17 -466 0
818 744 0
120 -187 0
411 672 0
-842 -354 0
197 -740 0
799 355 0
346 35 0
-135 -422 0
-186 157 0
193 -446 0
-793 -837 0
-501 173 0
-692 -441 0
358 -733 0
-762 -228 0
-658 541 0
513 -252 0
-612 -770 0
535 -717 0
191 272 0
-653 -370 0
-334 -312 0
704 -133 0
-234 822 0
222 -722 0
-280 -401 0
638 750 0
479 105 0
-168 386 0
-534 274 0
-88 149 0
-775 299 0
499 106 0
655 84 0
531 395 0
-797 832 0
-800 -743 0
-334 714 0
316 2 0
-803 -653 0
139 345 0
-647 711 0
431 138 0
-455 703 0
317 -556 0
313 10 0
55 -666 0
323 655 0
604 354 0
204 414 0
-104 -759 0
-401 -379 0
241 -479 0
437 -208 0
770 -634 0
-725 85 0
-493 852 0
-345 -287 0
293 349 0
193 212 0
-186 44 0
2 -797 0
783 741 0
-639 851 0
-845 519 0
495 321 0
-706 615 0
-739 -604 0
369 -16 0
255 -779 0
-95 599 0
533 742 0
586 -260 0
80 73 0
419 574 0
630 772 0
-217 -99 0
437 265 0
82 -801 0
235 490 0
457 367 0
61 -840 0
-840 593 0
-366 -603 0
814 58 0
272 -823 0
-496 -117 0
-248 819 0
95 717 0
-547 -334 0
701 -449 0
-106 76 0
775 -7 0
-787 -40 0
12 -82 0
-664 -442 0
737 357 0
-558 82 0
-849 -558 0
144 -388 0
305 -362 0
96 -695 0
-623 -418 0
139 -305 0
-851 -574 0
714 619 0
76 124 0
-408 773 0
-365 -495 0
-535 -454 0
814 145 0
-365 -357 0
616 -634 0
-19 -540 0
463 -477 0
442 -779 0
589 144 0
-529 815 0
-724 -563 0
-769 -749 0
-552 -663 0
220 -16 0
-423 725 0
451 -840 0
-813 437 0
-703 -552 0
-152 576 0
542 -516 0
565 -180 0
-797 -102 0
-15 -689 0
328 -588 0
557 585 0
-628 382 0
-579 -434 0
-32 792 0
-294 147 0
-244 716 0
748 127 0
218 793 0
-841 846 0
-279 310 0
456 -479 0
-44 389 0
583 533 0
393 -645 0
609 410 0
-588 45 0
732 751 0
3 818 0
-621 -408 0
-793 549 0
-206 -789 0
-24 -722 0
300 -693 0
554 -34 0
374 741 0
755 -561 0
557 651 0
324 -173 0
-342 570 0
698 113 0
168 -601 0
589 -45 0
-139 701 0
221 541 0
-839 333 0
-292 -238 0
-153 -225 0
175 644 0
396 489 0
-601 142 0
835 -280 0
570 368 0
610 -645 0
-25 -476 0
-32 -233 0
537 480 0
-54 -163 0
-89 -295 0
-375 -379 0
22 -418 0
-224 595 0
638 -510 0
-618 293 0
-501 797 0
-221 -411 0
322 609 0
805 97 0
652 503 0
-508 604 0
834 716 0
656 -309 0
-613 -375 0
-16 -680 0
763 -724 0
324 -522 0
-580 -75 0
-527 327 0
362 -789 0
-764 328 0
435 496 0
-811 -279 0
845 -628 0
805 387 0
-580 -56 0
-199 641 0
-811 28 0
-796 -429 0
-147 238 0
-498 -596 0
771 -6 0
204 108 0
733 -793 0
623 336 0
-706 -845 0
-110 -56 0
-39 544 0
-706 784 0
-413 668 0
345 -785 0
478 483 0
425 -122 0
-787 98 0
784 459 0
-191 -410 0
483 -161 0
-745 -640 0
585 503 0
-418 -651 0
-402 -202 0
-808 750 0
437 -505 0
-429 -238 0
696 -107 0
835 42 0
-795 -702 0
-525 550 0
-329 579 0
791 -347 0
226 -187 0
266 832 0
320 370 0
24 -306 0
-634 -34 0
778 -400 0
-91 851 0
-166 139 0
226 -766 0
249 -173 0
820 -263 0
320 586 0
-409 605 0
667 697 0
-731 521 0
685 60 0
-678 -750 0
-328 825 0
-715 112 0
-148 416 0
-430 -108 0
605 -100 0
-170 625 0
-104 527 0
367 -372 0
529 -248 0
595 595 0
-13 85 0
-726 835 0
-558 -454 0
503 -92 0
-340 -683 0
434 -18 0
-342 -739 0
-506 -96 0
-448 -506 0
464 -7 0
-141 788 0
-716 -675 0
119 -592 0
674 -75 0
-600 646 0
407 -320 0
-222 -14 0
499 -778 0
123 -647 0
-49 44 0
251 -25 0
-653 -544 0
-443 139 0
-755 510 0
-347 -661 0
412 643 0
-743 -296 0
781 -138 0
-672 854 0
-71 -271 0
-45 -256 0
-135 356 0
685 -278 0
458 -580 0
12 -176 0
-795 -648 0
-166 -556 0
-426 623 0
-657 227 0
792 583 0
-266 -268 0
781 -10 0
-853 -510 0
405 76 0
31 300 0
419 69 0
-783 -610 0
111 412 0
183 315 0
-811 655 0
830 -327 0
-621 -550 0
25 -705 0
-337 414 0
-584 -685 0
766 -707 0
62 196 0
109 -51 0
491 512 0
25 -841 0
622 515 0
-811 752 0
-624 -852 0
451 484 0
-274 685 0
143 -323 0
-439 547 0
772 -779 0
-778 -16 0
711 318 0
221 736 0
-294 414 0
-16 -564 0
761 46 0
416 553 0
459 -707 0
-397 762 0
-719 -225 0
-709 -618 0
-682 64 0
407 236 0
420 -482 0
670 -276 0
687 62 0
520 791 0
-647 -597 0
147 -213 0
33 837 0
-621 551 0
-550 -457 0
-770 514 0
440 -672 0
148 239 0
157 -159 0
340 -58 0
713 -107 0
-666 324 0
-518 -805 0
270 -284 0
-711 101 0
-7 -647 0
848 744 0
-156 -430 0
786 -567 0
685 -476 0
99 239 0
453 711 0
740 -234 0
576 -542 0
565 -67 0
311 -364 0
641 472 0
237 646 0
211 282 0
-510 -577 0
-421 -258 0
-461 -613 0
-663 -477 0
61 -398 0
-711 594 0
-495 -297 0
-400 -654 0
-673 -3 0
849 -207 0
265 159 0
853 609 0
831 818 0
39 688 0
-498 71 0
-369 -522 0
743 583 0
711 -506 0
-734 668 0
-244 -337 0
437 -348 0
523 -766 0
-330 650 0
461 854 0
751 -429 0
-849 622 0
297 -734 0
-418 339 0
211 -413 0
-341 136 0
-207 640 0
502 651 0
-718 39 0
791 822 0
-673 268 0
-474 847 0
-640 -251 0
500 -115 0
521 -602 0
791 -268 0
729 -764 0
-407 650 0
-426 180 0
-540 303 0
747 649 0
-316 156 0
-712 319 0
-301 753 0
-515 608 0
-93 -772 0
-111 -245 0
748 -562 0
-383 -530 0
-324 380 0
619 270 0
-664 -403 0
-648 -520 0
555 -17 0
422 114 0
-46 484 0
156 432 0
-700 -500 0
-689 728 0
-408 -394 0
-188 490 0
-505 -433 0
-103 600 0
103 -287 0
363 720 0
44 307 0
239 15 0
438 844 0
71 -79 0
-209 628 0
-90 727 0
-244 -399 0
-556 -390 0
790 -332 0
-446 -133 0
-745 430 0
-591 -131 0
-613 -457 0
-453 815 0
67 -170 0
-268 262 0
304 -90 0
-146 849 0
-121 -652 0
-516 778 0
334 445 0
632 682 0
-71 -163 0
620 374 0
87 -800 0
284 513 0
-677 -203 0
-230 -393 0
-402 246 0
790 846 0
27 650 0
-799 262 0
-480 547 0
-483 -288 0
36 144 0
658 428 0
-196 -170 0
472 -482 0
761 -488 0
-628 218 0
514 381 0
112 127 0
-603 -649 0
343 -806 0
-251 -84 0
272 -335 0
140 760 0
-411 219 0
-789 -218 0
271 -362 0
-845 -21 0
-768 -168 0
452 236 0
-198 324 0
-627 297 0
88 -728 0
768 616 0
760 -166 0
-131 743 0
435 -117 0
-85 -273 0
48 336 0
240 596 0
163 -725 0
-847 709 0
25 -765 0
802 -290 0
378 -394 0
373 67 0
581 469 0
-378 483 0
49 786 0
215 -653 0
272 738 0
-176 245 0
-817 -478 0
453 -102 0
-531 659 0
-717 612 0
-628 -647 0
-107 -329 0
-426 499 0
108 400 0
-449 -592 0
-83 -550 0
311 635 0
514 653 0
-385 -726 0
-813 -166 0
-590 71 0
-354 525 0
88 295 0
-851 579 0
174 281 0
459 439 0
-286 357 0
-458 296 0
790 805 0
-497 90 0
-792 672 0
-46 -186 0
-645 848 0
464 461 0
498 165 0
-374 -295 0
134 -389 0
668 -247 0
140 814 0
-359 126 0
-337 327 0
-256 -404 0
171 146 0
87 -208 0
665 71 0
-388 18 0
-87 412 0
-309 721 0
772 -331 0
298 136 0
-321 662 0
-121 -475 0
596 -717 0
-418 484 0
569 816 0
729 -435 0
177 324 0
-57 63 0
386 741 0
506 821 0
-847 243 0
-683 -702 0
-605 -369 0
537 -455 0
112 -793 0
-21 -824 0
114 -787 0
638 -416 0
-664 -466 0
-561 136 0
-213 462 0
10 106 0
-368 -273 0
445 -365 0
-583 807 0
453 -68 0
-170 -298 0
325 421 0
652 486 0
-580 -81 0
447 645 0
609 -747 0
-570 -745 0
-611 302 0
-785 -105 0
428 -178 0
344 -550 0
814 501 0
-638 293 0
-830 -485 0
552 -99 0
610 829 0
260 -132 0
230 -628 0
-760 82 0
444 243 0
-470 465 0
72 -286 0
116 674 0
-804 -755 0
340 -20 0
613 694 0
42 281 0
646 -591 0
-726 -603 0
-761 80 0
510 -175 0
-73 472 0
59 -70 0
-291 387 0
-531 468 0
-566 -232 0
-388 -18 0
-759 717 0
-730 -42 0
82 -114 0
582 258 0
-660 -374 0
182 463 0
-342 -300 0
-60 404 0
-823 556 0
-395 22 0
-593 585 0
434 -174 0
-374 543 0
