c bounds 207 254
p cnf 857 1138
88 154 0
-505 439 0
-351 270 0
543 181 0
-374 569 0
612 340 0
469 -613 0
-623 -29 0
180 -74 0
624 512 0
178 515 0
-194 -305 0
-213 -320 0
557 -8 0
-584 430 0
-367 562 0
589 182 0
374 837 0
-537 673 0
-432 -122 0
-633 478 0
-545 -547 0
42 -798 0
729 264 0
-383 -723 0
290 611 0
283 -64 0
-178 -524 0
831 -343 0
-813 -676 0
-186 -371 0
711 10 0
-415 358 0
-328 219 0
-33 -632 0
-459 562 0
-359 -304 0
-460 765 0
400 -387 0
782 154 0
-120 -565 0
810 441 0
394 -56 0
264 48 0
466 437 0
-638 654 0
147 557 0
39 48 0
803 400 0
722 253 0
731 -401 0
-25 -832 0
-473 139 0
203 783 0
-89 -477 0
804 -534 0
-249 -773 0
-217 -552 0
-11 670 0
-64 -370 0
772 744 0
650 679 0
656 287 0
336 -103 0
-778 -290 0
-555 272 0
506 -261 0
361 486 0
450 -735 0
136 278 0
360 -735 0
486 -781 0
-143 428 0
409 -158 0
431 -448 0
678 612 0
578 -816 0
517 -392 0
83 589 0
154 443 0
536 -822 0
492 -2 0
-284 514 0
-413 81 0
-247 -288 0
-97 -15 0
-708 472 0
-140 -655 0
-513 130 0
298 361 0
738 -303 0
-843 276 0
812 624 0
-369 -418 0
-330 717 0
-239 -18 0
464 680 0
396 -702 0
-394 384 0
-57 178 0
327 62 0
-351 497 0
-186 -219 0
-318 696 0
91 685 0
-388 -283 0
564 605 0
-560 3 0
277 -74 0
-277 -103 0
790 224 0
165 -350 0
-96 175 0
-625 104 0
680 -181 0
-432 -456 0
793 562 0
-186 -428 0
-159 536 0
164 273 0
127 -96 0
746 480 0
-329 403 0
810 -113 0
-409 312 0
-240 340 0
572 -13 0
-174 -200 0
32 -805 0
-721 76 0
853 757 0
-720 776 0
-223 291 0
-208 724 0
-748 -140 0
-96 7 0
-457 842 0
141 224 0
643 826 0
-742 205 0
-532 -630 0
-494 741 0
526 321 0
483 583 0
298 -680 0
-301 500 0
-512 -96 0
-722 185 0
481 313 0
509 -451 0
-415 206 0
363 497 0
809 -181 0
-781 -813 0
-591 21 0
-847 -633 0
763 781 0
-403 -655 0
-535 541 0
462 -675 0
730 -236 0
-677 -515 0
759 470 0
-369 201 0
-307 -699 0
-287 583 0
-418 -281 0
341 -683 0
631 362 0
-791 -24 0
-365 120 0
27 847 0
434 -261 0
-383 5 0
344 550 0
810 723 0
149 -515 0
-725 730 0
-492 -593 0
489 551 0
-71 -217 0
-215 814 0
-606 690 0
-807 197 0
334 210 0
-11 -172 0
395 -6 0
203 137 0
518 834 0
-845 -336 0
-155 339 0
-213 217 0
809 -624 0
805 -328 0
-655 715 0
-599 -166 0
473 759 0
-647 -734 0
-110 310 0
-844 -593 0
342 130 0
228 529 0
828 -483 0
707 -246 0
322 763 0
162 678 0
-163 557 0
734 -253 0
-263 732 0
627 475 0
-798 297 0
395 484 0
380 260 0
582 537 0
88 730 0
60 139 0
-237 448 0
-625 -273 0
-742 804 0
-14 -325 0
-520 358 0
-618 226 0
25 784 0
487 84 0
161 704 0
542 -832 0
70 -284 0
-431 -636 0
811 543 0
761 334 0
341 402 0
708 154 0
-570 852 0
-543 528 0
90 174 0
45 401 0
-726 -538 0
93 -413 0
778 24 0
-706 643 0
352 -413 0
-507 753 0
850 -165 0
195 -671 0
-237 -118 0
-396 123 0
-90 400 0
99 -99 0
81 99 0
196 772 0
-789 -504 0
488 134 0
26 -7 0
469 -134 0
-246 -208 0
343 495 0
649 -353 0
-707 121 0
-353 460 0
335 651 0
-774 785 0
554 451 0
-411 -292 0
525 509 0
-519 479 0
592 -779 0
617 198 0
101 177 0
231 1 0
-33 -853 0
582 -457 0
-330 820 0
-13 -735 0
768 466 0
695 85 0
-825 -218 0
-720 462 0
-52 65 0
164 -718 0
-418 37 0
143 -412 0
91 691 0
806 -452 0
260 658 0
848 211 0
676 639 0
484 753 0
-241 -140 0
-209 87 0
414 455 0
-329 -107 0
-405 -430 0
1 795 0
-100 402 0
-541 241 0
-158 -90 0
-802 -742 0
-800 730 0
-533 -810 0
-323 640 0
420 187 0
-422 -307 0
-830 212 0
35 66 0
-850 492 0
-547 -578 0
-855 -751 0
464 -587 0
471 -596 0
-497 -375 0
-303 -125 0
-697 -490 0
-352 154 0
359 642 0
-665 485 0
-559 -49 0
-87 -213 0
715 -533 0
-476 -541 0
-606 -193 0
830 -151 0
236 753 0
-388 -529 0
-501 -410 0
-804 -808 0
-815 -663 0
332 725 0
202 -781 0
-221 -390 0
500 248 0
-661 -102 0
408 -480 0
-806 -738 0
649 500 0
-304 589 0
-117 508 0
-524 -31 0
-413 679 0
230 -104 0
-803 -56 0
-417 37 0
849 -666 0
-765 129 0
174 -303 0
538 -504 0
-713 727 0
783 684 0
-432 522 0
185 83 0
-20 421 0
-165 -563 0
-732 -666 0
351 -184 0
-71 578 0
43 569 0
-375 233 0
-223 704 0
-133 183 0
734 -181 0
-764 -836 0
-73 174 0
-543 760 0
-239 -650 0
-444 -649 0
717 -665 0
-802 63 0
-192 107 0
-758 -309 0
-96 282 0
-11 -501 0
397 -350 0
-100 -740 0
-222 -533 0
45 603 0
-529 174 0
359 758 0
-181 -426 0
-287 10 0
495 -117 0
-798 431 0
-272 -450 0
-180 490 0
792 -729 0
366 582 0
846 807 0
-688 133 0
69 -395 0
495 -432 0
94 -98 0
-415 469 0
822 253 0
-36 -452 0
-686 676 0
117 679 0
-620 136 0
822 99 0
-354 -413 0
-48 -779 0
-391 -704 0
-303 439 0
-593 -584 0
-133 -837 0
-79 724 0
-306 -513 0
468 -547 0
307 -687 0
504 -789 0
108 -302 0
-249 355 0
708 -328 0
-851 -555 0
558 19 0
-400 -12 0
-790 -456 0
807 -313 0
-185 464 0
130 -588 0
776 -370 0
765 556 0
-274 -327 0
-660 114 0
-617 -774 0
146 33 0
-375 59 0
-427 -533 0
408 212 0
-478 216 0
832 537 0
-849 -331 0
803 -94 0
-779 355 0
193 -845 0
-206 226 0
-309 -304 0
637 -195 0
616 -789 0
442 -12 0
346 612 0
123 -317 0
-165 824 0
176 -775 0
-454 -164 0
705 -317 0
-252 -90 0
-34 754 0
505 271 0
-186 -494 0
-328 -269 0
-369 685 0
557 272 0
-721 382 0
19 53 0
529 -220 0
842 -215 0
1 531 0
476 -482 0
-28 -661 0
145 400 0
76 696 0
-648 -849 0
-396 330 0
371 -535 0
778 -336 0
855 221 0
159 168 0
347 240 0
-96 321 0
208 174 0
-335 577 0
655 66 0
297 472 0
-698 404 0
-262 -90 0
-352 725 0
790 -645 0
122 -171 0
811 -482 0
-377 -718 0
478 -677 0
-41 -251 0
-791 -847 0
-520 -767 0
-416 -845 0
-685 154 0
787 600 0
-848 252 0
673 -327 0
564 598 0
603 688 0
812 503 0
-220 -664 0
-522 -510 0
-416 -86 0
433 97 0
-840 -519 0
-785 -744 0
635 438 0
549 112 0
-660 -363 0
-367 329 0
587 -839 0
564 -596 0
822 399 0
443 573 0
-781 557 0
568 -370 0
639 318 0
-30 463 0
151 404 0
63 152 0
229 567 0
661 -477 0
603 -519 0
-419 -666 0
97 419 0
-56 -454 0
-780 -438 0
386 -611 0
-633 602 0
601 -104 0
626 -364 0
802 164 0
-854 -152 0
655 -285 0
760 840 0
-693 -650 0
149 -205 0
-151 347 0
-31 412 0
21 496 0
-444 265 0
-183 -300 0
-732 -668 0
837 -109 0
-687 -134 0
479 -719 0
410 749 0
-791 621 0
-345 -270 0
-427 -17 0
346 118 0
-9 -110 0
-45 -809 0
-283 -510 0
-451 -688 0
-607 576 0
116 429 0
269 748 0
-785 148 0
760 -491 0
654 423 0
668 -181 0
365 177 0
600 -31 0
-258 797 0
-496 698 0
-853 626 0
-67 -377 0
347 134 0
-280 187 0
838 -669 0
433 -421 0
316 617 0
498 396 0
499 782 0
-174 -259 0
-436 -83 0
-29 834 0
614 371 0
-388 -827 0
-705 544 0
788 -761 0
-195 -680 0
-695 -546 0
583 771 0
-813 -604 0
515 -304 0
350 -581 0
502 334 0
-72 -360 0
-67 -845 0
750 -399 0
571 786 0
-774 569 0
-439 -158 0
536 271 0
225 97 0
-158 -84 0
-688 803 0
-394 161 0
823 123 0
-275 -138 0
-736 -112 0
606 553 0
287 819 0
-630 -545 0
737 -11 0
822 -91 0
6 528 0
-489 -73 0
-695 -824 0
621 -434 0
-195 -799 0
-129 631 0
-8 -148 0
-767 -372 0
310 497 0
603 203 0
-377 -522 0
-581 292 0
592 813 0
444 127 0
486 -591 0
-466 254 0
-242 -370 0
-249 -846 0
383 517 0
577 792 0
535 10 0
-360 -850 0
63 698 0
-424 598 0
260 218 0
-695 -57 0
-67 -553 0
697 824 0
-146 -49 0
443 250 0
75 608 0
-65 45 0
92 -369 0
497 456 0
190 -237 0
-438 818 0
368 97 0
-439 -317 0
-678 63 0
776 -559 0
82 375 0
-330 -251 0
267 275 0
-377 -348 0
1 -307 0
-213 -740 0
274 -438 0
793 684 0
723 723 0
-595 -712 0
108 -195 0
-677 527 0
-454 174 0
-146 -466 0
-140 209 0
537 245 0
750 -88 0
-20 -160 0
-735 281 0
-657 167 0
608 -164 0
832 214 0
-126 -294 0
-270 746 0
682 837 0
-465 347 0
183 568 0
857 847 0
678 -849 0
-291 141 0
831 788 0
36 -398 0
-55 -743 0
-163 581 0
-483 -820 0
-848 -199 0
809 -836 0
671 -593 0
-571 502 0
493 212 0
-578 439 0
522 -33 0
-295 -29 0
-212 -480 0
-614 -722 0
-125 -681 0
-466 29 0
-218 455 0
-288 685 0
107 -47 0
-300 508 0
137 750 0
-22 599 0
374 202 0
-90 -654 0
491 -61 0
332 -359 0
830 -545 0
-3 -220 0
-363 -330 0
-93 377 0
697 373 0
-721 387 0
460 645 0
-416 152 0
-435 661 0
711 -563 0
-10 321 0
-64 -216 0
667 75 0
-562 651 0
150 -849 0
539 -29 0
757 -102 0
-731 758 0
727 834 0
-6 -720 0
226 -388 0
263 831 0
491 -366 0
-201 -319 0
-795 265 0
-250 511 0
803 438 0
394 -14 0
100 -44 0
-78 420 0
192 -126 0
800 -751 0
-705 211 0
-463 -285 0
391 551 0
404 393 0
812 799 0
-3 493 0
-761 -770 0
566 710 0
88 -151 0
32 245 0
384 458 0
36 743 0
622 202 0
-491 123 0
531 -81 0
344 -170 0
-717 433 0
-616 -761 0
-199 250 0
-688 -322 0
-457 -387 0
-575 298 0
-61 511 0
343 -533 0
-761 -291 0
-281 845 0
134 696 0
-30 -195 0
441 -606 0
-852 -311 0
-749 -242 0
-451 245 0
-488 572 0
-846 -535 0
424 -508 0
-267 161 0
-391 -184 0
131 76 0
-14 595 0
371 -435 0
549 778 0
780 447 0
-574 -186 0
-410 23 0
104 -330 0
755 -856 0
837 -126 0
-49 -100 0
-820 203 0
-173 -540 0
-389 119 0
-49 -323 0
-341 241 0
295 842 0
-749 -56 0
-729 434 0
746 -693 0
318 -188 0
455 568 0
-513 62 0
-304 603 0
-831 478 0
831 843 0
-526 57 0
169 580 0
497 817 0
464 68 0
319 476 0
195 23 0
405 -490 0
-382 -725 0
316 37 0
778 26 0
-635 66 0
-300 -246 0
-552 -79 0
145 -113 0
36 -62 0
755 -532 0
649 255 0
1 92 0
27 44 0
478 712 0
-508 609 0
124 600 0
-238 -238 0
582 279 0
211 259 0
542 700 0
757 284 0
-282 -335 0
-356 -577 0
743 -761 0
-50 -166 0
-824 -52 0
348 -584 0
439 -35 0
-389 81 0
821 -54 0
810 -593 0
130 549 0
-421 -67 0
-718 -627 0
-137 -614 0
-252 -321 0
546 -252 0
-606 -747 0
-301 -570 0
43 -519 0
-418 723 0
179 -100 0
471 19 0
-659 556 0
247 686 0
425 515 0
826 -823 0
576 -571 0
-628 -699 0
210 149 0
714 737 0
-376 488 0
-684 -815 0
310 -838 0
175 775 0
-548 -294 0
-200 -455 0
4 766 0
-28 644 0
-195 -835 0
-152 -22 0
-814 416 0
-586 -111 0
111 420 0
-261 -74 0
380 114 0
-625 -231 0
203 -373 0
-526 801 0
399 -173 0
-847 -823 0
276 -165 0
-153 533 0
-403 372 0
-719 549 0
-167 797 0
656 332 0
-605 -325 0
743 103 0
-752 -243 0
374 390 0
-691 -257 0
-155 -258 0
-667 730 0
840 -200 0
-616 -842 0
-167 32 0
-738 245 0
-756 -249 0
848 -647 0
-766 -130 0
341 464 0
157 32 0
-622 -427 0
-56 -671 0
400 681 0
-625 848 0
-719 -819 0
384 -797 0
-850 21 0
-795 -353 0
495 -815 0
35 711 0
-370 248 0
-276 -410 0
-702 -374 0
636 351 0
-846 -735 0
339 -391 0
-97 659 0
801 395 0
111 -507 0
-435 283 0
741 -783 0
249 -158 0
-594 125 0
498 451 0
637 -389 0
514 -409 0
-732 -732 0
164 459 0
-337 455 0
-79 -492 0
227 812 0
-735 97 0
-744 -347 0
-382 -734 0
-406 72 0
-6 149 0
-477 351 0
-431 21 0
632 481 0
-393 -79 0
132 -409 0
200 -233 0
-239 384 0
612 -824 0
580 745 0
561 -516 0
-323 -615 0
339 535 0
-320 -627 0
674 -62 0
-480 719 0
66 -335 0
-103 755 0
133 156 0
655 245 0
110 -589 0
247 27 0
52 202 0
-392 384 0
-411 -369 0
39 481 0
670 120 0
-392 -791 0
-28 -315 0
102 -427 0
-666 250 0
85 160 0
19 584 0
-393 -782 0
-774 -533 0
856 -357 0
-683 79 0
790 -507 0
-493 723 0
-457 -314 0
781 -836 0
509 -624 0
6 -796 0
612 -569 0
21 299 0
-465 -48 0
477 247 0
572 512 0
478 722 0
459 -38 0
-5 -702 0
164 -614 0
-674 -74 0
-180 -614 0
89 479 0
76 450 0
620 540 0
-531 759 0
-784 -394 0
-856 75 0
-836 609 0
336 -755 0
-546 -664 0
-466 -224 0
132 -138 0
-170 -320 0
333 -769 0
-806 745 0
319 342 0
534 -465 0
-657 311 0
-713 418 0
494 -685 0
679 -521 0
-73 818 0
733 192 0
294 229 0
-570 -639 0
738 187 0
-482 -15 0
-563 -733 0
77 447 0
-200 -50 0
-722 -41 0
112 783 0
-631 525 0
544 -522 0
464 -609 0
269 -432 0
757 -758 0
760 775 0
-263 -275 0
326 -481 0
-185 -377 0
-683 247 0
-835 330 0
371 -698 0
-340 -45 0
60 830 0
-361 -335 0
-269 -381 0
71 710 0
-422 114 0
-410 -77 0
-381 516 0
-201 506 0
503 -7 0
188 105 0
433 -90 0
-87 433 0
-455 807 0
760 433 0
114 333 0
-293 368 0
-507 -695 0
464 142 0
741 -738 0
419 819 0
-309 442 0
855 689 0
80 562 0
397 -429 0
790 -121 0
-648 -28 0
633 59 0
-656 -656 0
-205 -278 0
462 398 0
396 118 0
-34 -436 0
-331 364 0
-823 -501 0
656 -363 0
715 -167 0
398 -272 0
-725 580 0
431 630 0
-735 -429 0
-760 494 0
-474 -109 0
-29 432 0
473 235 0
380 626 0
-779 210 0
624 479 0
-770 751 0
488 413 0
-405 -782 0
389 -6 0
-309 311 0
617 711 0
498 -405 0
-510 542 0
610 -188 0
400 122 0
-18 -164 0
757 588 0
-825 270 0
673 -688 0
567 241 0
-682 -618 0
118 -4 0
-118 -151 0
-745 -261 0
273 42 0
-474 680 0
-577 -436 0
29 365 0
627 159 0
419 295 0
10 254 0
-547 449 0
-44 663 0
741 378 0
-157 585 0
-600 -852 0
-213 147 0
764 610 0
-334 -809 0
634 -825 0
565 -271 0
-474 532 0
466 398 0
168 -62 0
-738 30 0
758 -839 0
620 -460 0
58 707 0
598 797 0
711 201 0
321 -75 0
188 260 0
113 635 0
-692 -67 0
-524 324 0
-12 -288 0
543 -109 0
326 676 0
627 161 0
-560 443 0
-58 -291 0
212 156 0
561 -144 0
476 223 0
113 566 0
-718 158 0
-97 -393 0
-191 310 0
-617 -172 0
812 415 0
-650 822 0
203 -18 0
46 -465 0
-521 679 0
