c bounds 152 224
p cnf 1000 1741
-267 -591 0
813 474 0
836 -698 0
117 497 0
526 300 0
685 1 0
-855 -448 0
-22 -662 0
222 -790 0
-873 499 0
-657 -979 0
768 -302 0
-52 -546 0
270 592 0
783 741 0
202 -403 0
-170 951 0
824 885 0
-199 961 0
168 -441 0
308 717 0
-281 531 0
-115 47 0
33 515 0
-405 -673 0
-804 -458 0
632 590 0
-691 412 0
-386 735 0
390 -656 0
550 -145 0
886 778 0
698 851 0
-143 -817 0
-929 -90 0
-194 288 0
-897 -117 0
-303 -405 0
179 431 0
102 50 0
-959 -688 0
-777 449 0
252 973 0
-322 -838 0
-9 989 0
-644 -524 0
957 -61 0
963 -181 0
853 -125 0
502 639 0
331 173 0
-217 27 0
-129 971 0
-817 -945 0
-479 -98 0
911 -311 0
684 -312 0
105 -818 0
-75 373 0
-377 597 0
545 615 0
-562 -720 0
-978 -53 0
49 689 0
-125 -536 0
-696 731 0
-416 475 0
-765 805 0
-759 602 0
-53 -565 0
-896 427 0
237 -367 0
-819 -581 0
806 246 0
-71 105 0
-450 -118 0
-900 177 0
-272 72 0
-962 504 0
-352 -596 0
-214 334 0
289 -683 0
-60 -664 0
86 -657 0
376 -368 0
546 -955 0
-131 591 0
957 947 0
53 728 0
-578 950 0
-407 -995 0
892 612 0
-486 -940 0
-354 -912 0
688 -26 0
-200 424 0
340 447 0
387 -302 0
801 961 0
660 429 0
431 512 0
-896 -888 0
901 793 0
48 -849 0
-335 -221 0
957 206 0
124 99 0
-917 -620 0
424 -184 0
417 878 0
-180 -995 0
109 -465 0
511 -337 0
-417 544 0
808 -27 0
989 892 0
420 894 0
350 973 0
4 -745 0
-925 396 0
138 364 0
51 -902 0
-329 843 0
-795 984 0
-726 716 0
-710 87 0
103 496 0
-377 -535 0
433 -146 0
-346 -146 0
371 -69 0
413 -709 0
-677 -921 0
717 -273 0
-444 -266 0
-263 -20 0
-75 -609 0
-496 904 0
404 -623 0
392 481 0
917 -667 0
29 -135 0
-190 -901 0
-213 623 0
329 9 0
699 -699 0
-979 790 0
-630 371 0
736 -225 0
377 -264 0
621 338 0
816 539 0
-929 198 0
-970 682 0
-972 -684 0
114 -416 0
-442 499 0
295 -301 0
179 95 0
602 814 0
922 479 0
705 -886 0
322 210 0
463 -407 0
-858 589 0
834 901 0
-55 -56 0
689 -313 0
-178 540 0
772 -227 0
493 151 0
306 246 0
-207 684 0
590 -225 0
-984 334 0
578 -753 0
118 -448 0
-108 -346 0
962 592 0
803 -979 0
-629 -960 0
-111 -972 0
182 -842 0
372 888 0
249 -311 0
660 -990 0
-731 -874 0
-167 334 0
401 461 0
155 358 0
-156 -606 0
461 -93 0
-947 -832 0
296 540 0
-763 -852 0
-571 438 0
-49 435 0
-890 624 0
-555 846 0
424 796 0
-520 391 0
145 687 0
888 -149 0
-123 774 0
-846 -625 0
-858 625 0
455 892 0
468 -228 0
890 -510 0
99 42 0
-736 -784 0
-870 183 0
-792 336 0
196 990 0
301 552 0
-960 164 0
-400 617 0
879 -749 0
-98 -794 0
-901 -184 0
66 479 0
-979 -71 0
-684 531 0
-415 243 0
-814 241 0
-495 -409 0
578 885 0
-363 265 0
651 -39 0
-861 -451 0
-993 222 0
441 77 0
711 651 0
426 -854 0
862 -471 0
-198 195 0
-228 -17 0
-264 64 0
18 908 0
-30 631 0
-817 -292 0
660 512 0
-105 -8 0
-599 -43 0
260 -95 0
564 -819 0
455 641 0
-91 -625 0
-728 -902 0
-190 -971 0
377 -696 0
217 986 0
482 245 0
-572 834 0
359 -169 0
626 970 0
-961 -914 0
-585 -468 0
-356 387 0
-428 632 0
544 -31 0
270 313 0
-311 -532 0
-897 -241 0
465 -36 0
154 -170 0
-615 504 0
392 -197 0
368 -492 0
-409 -694 0
780 -195 0
25 839 0
-341 46 0
27 -258 0
838 -359 0
559 -266 0
948 -912 0
538 274 0
-669 42 0
-306 214 0
-693 -903 0
137 -910 0
391 954 0
-745 -743 0
-785 73 0
882 -442 0
-640 -456 0
559 -587 0
969 835 0
-686 975 0
-192 -38 0
941 215 0
962 -442 0
-462 283 0
-151 387 0
505 -176 0
-119 -831 0
935 111 0
-571 782 0
-507 -810 0
-900 -510 0
-682 -823 0
-228 -469 0
-196 -90 0
-255 -910 0
-761 -745 0
-70 -133 0
-998 831 0
-661 -759 0
65 516 0
-201 -866 0
-928 -341 0
375 154 0
522 -500 0
361 575 0
968 966 0
-119 441 0
274 260 0
773 965 0
-187 802 0
572 969 0
706 -773 0
165 -505 0
-777 -979 0
-162 -217 0
-619 -932 0
-980 -4 0
538 394 0
741 -348 0
-722 -100 0
-225 39 0
149 230 0
889 97 0
-62 144 0
426 -6 0
499 803 0
64 24 0
195 -946 0
-12 853 0
-650 -646 0
-450 948 0
-883 -250 0
-787 -465 0
34 876 0
327 -609 0
649 -761 0
-125 571 0
532 -188 0
419 -258 0
-822 566 0
-494 -825 0
319 396 0
892 -914 0
-345 296 0
-257 -918 0
716 329 0
46 954 0
-55 -217 0
-629 -242 0
-262 53 0
-467 -17 0
346 -8 0
918 378 0
-684 712 0
188 776 0
7 -595 0
-8 618 0
-149 -250 0
114 -474 0
341 -197 0
618 125 0
812 798 0
695 -204 0
836 474 0
-766 461 0
-538 -14 0
519 760 0
217 800 0
259 -88 0
974 -415 0
-497 19 0
568 -528 0
600 384 0
889 592 0
781 -306 0
512 -929 0
392 -443 0
689 450 0
911 -722 0
-534 215 0
-565 464 0
29 -464 0
-260 -360 0
-176 -579 0
-894 -89 0
613 902 0
-48 -704 0
-83 956 0
-602 779 0
-794 -223 0
-302 -104 0
-702 -154 0
-281 -170 0
-851 766 0
-966 741 0
626 -963 0
45 -575 0
-372 -897 0
-717 -887 0
271 -167 0
807 225 0
-645 -138 0
-838 560 0
477 562 0
431 524 0
-787 -882 0
347 768 0
997 -882 0
601 751 0
92 -699 0
705 -912 0
-730 -29 0
351 -894 0
502 -170 0
-500 -14 0
-612 993 0
-183 -814 0
-932 -704 0
976 -137 0
401 220 0
952 -582 0
401 122 0
-336 193 0
-306 -325 0
410 45 0
221 -694 0
-380 -725 0
-770 397 0
740 -26 0
179 698 0
-280 206 0
-634 742 0
313 689 0
968 -471 0
940 -990 0
-8 -271 0
93 -171 0
-132 662 0
-245 -457 0
501 426 0
-118 459 0
-104 247 0
-30 772 0
-474 751 0
-377 -68 0
-130 -737 0
-316 -556 0
410 -647 0
754 476 0
-313 37 0
296 -636 0
-507 -887 0
951 34 0
202 -228 0
-213 779 0
51 -810 0
952 -583 0
-61 -282 0
224 540 0
18 -359 0
-8 -47 0
-104 985 0
235 249 0
638 -478 0
691 -815 0
-625 -453 0
-576 120 0
963 737 0
-717 -648 0
-356 -101 0
-303 11 0
574 -955 0
288 12 0
5 584 0
517 -606 0
-488 745 0
-620 509 0
-503 -226 0
120 461 0
582 -428 0
-924 240 0
812 66 0
39 -476 0
394 -276 0
-464 486 0
545 -580 0
165 851 0
42 -234 0
-140 999 0
-445 -317 0
-468 -732 0
954 -368 0
585 -999 0
452 -369 0
344 -389 0
394 619 0
137 954 0
-565 130 0
-215 -241 0
-928 -47 0
391 858 0
-464 879 0
530 156 0
252 115 0
-887 -740 0
-790 -720 0
-153 155 0
-305 -327 0
-916 -369 0
10 130 0
-959 839 0
1000 -755 0
-102 768 0
546 64 0
127 -928 0
517 -404 0
168 -159 0
-737 -769 0
-13 137 0
-131 357 0
-639 -492 0
171 -646 0
-608 523 0
87 -935 0
-786 -804 0
-631 -844 0
762 587 0
-915 249 0
641 717 0
-258 -167 0
989 954 0
141 353 0
950 -363 0
-900 -877 0
162 -268 0
895 -636 0
189 -139 0
-982 -131 0
182 -979 0
37 649 0
-794 -842 0
640 -490 0
-234 -434 0
-367 -802 0
-69 -57 0
-784 152 0
574 -463 0
270 -437 0
70 365 0
-749 -691 0
-959 -162 0
-646 847 0
-317 608 0
-412 897 0
-673 -884 0
333 683 0
320 417 0
-214 512 0
153 -952 0
-169 560 0
-425 641 0
508 940 0
288 -987 0
-725 577 0
410 -647 0
757 -522 0
-604 -455 0
521 -646 0
261 -860 0
-437 -93 0
-494 -784 0
-160 -167 0
477 -430 0
-814 472 0
538 598 0
998 710 0
640 -534 0
-153 361 0
-828 592 0
-148 -140 0
-685 -829 0
544 417 0
-620 866 0
-825 179 0
552 -701 0
563 -621 0
237 633 0
347 -227 0
365 -555 0
894 -581 0
417 553 0
-65 -964 0
125 -363 0
-95 995 0
700 79 0
-382 -947 0
-228 612 0
-40 -58 0
-916 -261 0
-484 -598 0
-968 -918 0
-857 446 0
123 232 0
79 436 0
-944 -754 0
926 -351 0
-64 57 0
847 520 0
152 568 0
397 683 0
834 -437 0
-519 -826 0
-359 -538 0
-730 683 0
-201 563 0
808 -433 0
-902 -377 0
-192 -241 0
-261 312 0
21 -846 0
381 -329 0
341 226 0
34 150 0
-363 -743 0
-384 97 0
-963 -192 0
-368 -277 0
99 -436 0
-620 955 0
564 48 0
-550 711 0
-250 820 0
746 -610 0
697 507 0
-643 879 0
-48 -515 0
-883 458 0
-227 -139 0
-714 476 0
-899 -958 0
-45 734 0
688 -429 0
347 -834 0
223 503 0
944 -423 0
486 931 0
516 -215 0
-174 541 0
-214 -68 0
-562 891 0
-666 472 0
732 852 0
926 274 0
219 -644 0
-959 274 0
233 289 0
624 -643 0
165 -32 0
-100 512 0
-184 -372 0
419 499 0
986 665 0
-75 -56 0
-102 98 0
483 -944 0
-308 607 0
344 36 0
9 859 0
-675 517 0
-840 988 0
-51 -170 0
318 -251 0
-644 940 0
67 -647 0
916 -224 0
-805 -629 0
-491 262 0
-428 447 0
-627 -738 0
-485 123 0
-305 -933 0
253 -781 0
467 841 0
-457 416 0
776 713 0
43 -751 0
-826 935 0
-860 -678 0
975 -658 0
678 903 0
577 457 0
-537 -883 0
-513 -102 0
92 -724 0
-696 754 0
-105 -360 0
210 -741 0
-304 280 0
-849 179 0
-887 -445 0
-385 798 0
940 986 0
338 -15 0
-882 -723 0
813 -955 0
-67 -648 0
-900 -265 0
-290 587 0
427 -771 0
-588 778 0
-897 -594 0
918 598 0
-572 -442 0
-809 -815 0
440 762 0
379 175 0
-909 -474 0
975 24 0
401 842 0
-804 377 0
309 -775 0
636 892 0
-739 -597 0
-998 -129 0
-243 -828 0
-316 -244 0
-597 70 0
-134 -720 0
-720 -917 0
578 14 0
795 296 0
-412 -686 0
-488 -73 0
-605 15 0
-751 762 0
-317 924 0
-339 -80 0
54 258 0
-90 371 0
223 488 0
-524 -173 0
126 -32 0
262 672 0
232 -226 0
-241 -927 0
-817 -119 0
-279 -12 0
-281 -946 0
480 -200 0
500 528 0
358 -882 0
-341 -386 0
172 493 0
-590 -82 0
387 -777 0
-912 128 0
-247 -56 0
103 -414 0
190 525 0
283 367 0
-290 -609 0
721 -452 0
-178 560 0
-258 820 0
299 616 0
293 -374 0
679 945 0
-648 141 0
842 280 0
740 781 0
279 -586 0
-745 -238 0
-727 902 0
-157 -631 0
-202 -662 0
-331 -747 0
-597 713 0
-478 -139 0
618 763 0
138 -504 0
173 -38 0
-335 -23 0
-944 -870 0
414 585 0
-437 -381 0
-501 359 0
-627 -160 0
351 -484 0
878 -786 0
-236 -999 0
-852 750 0
-354 -596 0
529 -676 0
789 -956 0
278 -234 0
585 869 0
108 -20 0
969 -782 0
461 337 0
-865 -697 0
-136 491 0
984 403 0
141 486 0
924 -23 0
718 894 0
57 -759 0
-669 7 0
-534 -760 0
-759 -835 0
-998 -765 0
240 931 0
-874 707 0
-407 -654 0
739 843 0
1 695 0
-629 7 0
356 -721 0
772 -497 0
481 -701 0
811 123 0
-213 765 0
-970 -740 0
-498 399 0
138 726 0
164 -672 0
581 116 0
-95 816 0
350 100 0
141 78 0
-412 555 0
-79 18 0
937 -733 0
431 609 0
-315 -570 0
902 617 0
761 219 0
566 692 0
-488 -551 0
986 -880 0
710 730 0
-52 -321 0
642 619 0
769 587 0
206 710 0
-99 -639 0
660 -630 0
477 -149 0
-701 -214 0
-293 -680 0
-629 81 0
-188 -360 0
651 799 0
808 831 0
725 -316 0
-791 231 0
2 -727 0
-760 -472 0
206 -721 0
687 -171 0
549 -491 0
809 516 0
584 437 0
850 222 0
-702 774 0
-983 -77 0
-292 -264 0
35 128 0
998 -826 0
-163 -543 0
931 897 0
-905 873 0
846 119 0
813 984 0
-291 12 0
-315 336 0
-852 -610 0
349 -667 0
788 522 0
-955 -961 0
-832 667 0
771 -63 0
-104 -863 0
-245 -872 0
146 672 0
-41 -385 0
-59 -566 0
150 817 0
191 -785 0
866 4 0
290 -584 0
677 -695 0
482 -177 0
823 -383 0
-542 -751 0
-530 622 0
-992 87 0
-340 293 0
-609 758 0
-327 -897 0
-163 -755 0
508 -814 0
895 52 0
343 -352 0
829 -360 0
-951 45 0
155 320 0
-736 312 0
-163 -768 0
-41 -134 0
-8 -746 0
-142 525 0
-369 593 0
677 -872 0
-380 992 0
682 -572 0
9 856 0
414 503 0
-604 406 0
-547 808 0
-42 -221 0
-510 700 0
-853 -459 0
-212 -302 0
-729 795 0
602 224 0
836 -9 0
-184 -9 0
-311 984 0
546 -507 0
499 -257 0
-418 -184 0
-413 -281 0
-443 -991 0
-810 -998 0
-392 338 0
820 181 0
92 -125 0
-143 717 0
776 698 0
379 485 0
181 480 0
9 -129 0
-694 422 0
492 734 0
-928 399 0
-378 -671 0
952 506 0
-580 200 0
-257 840 0
-352 799 0
-837 947 0
327 -892 0
-452 -272 0
45 -825 0
-946 672 0
928 -542 0
178 -71 0
713 -77 0
-34 -662 0
683 854 0
-433 -64 0
-140 -570 0
-732 80 0
182 -680 0
118 -723 0
-442 -390 0
-158 974 0
-613 -902 0
678 89 0
944 878 0
-274 172 0
229 -170 0
376 -747 0
9 808 0
633 -11 0
281 -61 0
-639 628 0
21 883 0
743 687 0
-777 904 0
-36 87 0
783 218 0
-159 -498 0
-367 643 0
876 99 0
253 -863 0
-277 -861 0
-306 281 0
-140 -750 0
552 750 0
347 740 0
-735 -701 0
-52 590 0
630 -809 0
81 -860 0
630 -852 0
870 461 0
414 497 0
-350 280 0
507 -403 0
883 -151 0
42 211 0
-149 641 0
-896 716 0
-245 -386 0
-161 852 0
-458 -693 0
563 -177 0
799 55 0
958 553 0
778 -704 0
-733 58 0
643 -806 0
-504 843 0
715 678 0
33 522 0
-274 765 0
34 735 0
252 -42 0
-256 827 0
584 460 0
-462 155 0
-316 635 0
-979 530 0
-966 -851 0
892 -690 0
-206 -496 0
-529 -35 0
-88 -676 0
128 457 0
190 573 0
-640 919 0
-236 -205 0
299 -559 0
716 693 0
-191 -26 0
-532 -878 0
849 -217 0
619 -260 0
-536 624 0
-945 -219 0
-292 181 0
-714 959 0
644 -94 0
295 527 0
-586 -132 0
-484 599 0
-597 -714 0
141 -450 0
-838 -124 0
-917 284 0
-722 916 0
-350 -456 0
19 125 0
-325 351 0
-855 926 0
-338 -865 0
-30 -83 0
592 50 0
984 -232 0
353 -985 0
-717 573 0
962 -173 0
-191 477 0
-669 -430 0
-361 -130 0
678 920 0
253 80 0
355 -469 0
940 117 0
-832 538 0
-622 -673 0
800 806 0
-465 -297 0
-407 642 0
-669 -900 0
499 -437 0
589 155 0
-862 -903 0
29 -930 0
-804 164 0
-727 859 0
897 -72 0
-995 -120 0
202 737 0
-267 -64 0
-759 -929 0
-714 -510 0
705 1000 0
77 -471 0
-922 -405 0
557 -82 0
-829 755 0
-696 -588 0
-148 -757 0
-977 -102 0
138 652 0
-357 -180 0
506 -211 0
321 351 0
482 -20 0
406 876 0
-176 -35 0
642 189 0
-244 293 0
-760 540 0
-57 -527 0
-792 237 0
-241 -667 0
485 904 0
91 53 0
-179 716 0
-905 566 0
241 429 0
740 -426 0
965 -708 0
-386 -180 0
-801 741 0
902 -403 0
-113 585 0
-983 740 0
485 -136 0
-35 -327 0
836 940 0
302 364 0
800 -830 0
-258 -714 0
-841 522 0
611 396 0
309 323 0
-737 378 0
945 270 0
-870 -677 0
552 -652 0
-527 -363 0
286 989 0
334 467 0
-652 -36 0
94 868 0
90 181 0
735 465 0
-238 193 0
926 725 0
-261 -603 0
118 73 0
531 -427 0
545 -880 0
-603 721 0
-286 -395 0
690 29 0
155 792 0
-256 -841 0
531 -955 0
-877 -64 0
751 -403 0
482 -111 0
-58 -961 0
-26 976 0
-791 -237 0
-91 934 0
-226 463 0
259 -310 0
-367 465 0
-45 -629 0
-701 -305 0
208 -372 0
-326 -425 0
741 361 0
9 865 0
-227 -333 0
557 977 0
-977 -941 0
413 243 0
97 44 0
454 -517 0
-227 373 0
155 834 0
215 -984 0
672 55 0
791 -746 0
-752 -214 0
-747 -422 0
-932 -657 0
-726 -132 0
-851 376 0
-492 -230 0
-216 651 0
373 -839 0
811 107 0
108 -728 0
577 592 0
338 -394 0
-20 869 0
575 423 0
-570 567 0
523 -987 0
-871 439 0
-487 -300 0
913 -873 0
381 -726 0
475 351 0
-808 888 0
-573 431 0
-481 223 0
-466 -267 0
-91 -809 0
822 -383 0
-584 81 0
885 843 0
80 -209 0
797 472 0
-106 -609 0
-256 -902 0
553 -356 0
575 -607 0
309 528 0
243 -457 0
449 -984 0
46 -884 0
824 -714 0
-342 523 0
-408 -82 0
-205 -316 0
96 732 0
-498 -510 0
700 -63 0
-433 -93 0
692 351 0
-597 479 0
318 -781 0
256 -501 0
-456 -437 0
611 812 0
-321 536 0
-118 -133 0
-857 -690 0
338 -56 0
-946 74 0
-508 -521 0
210 538 0
712 233 0
509 -878 0
-12 -91 0
-907 689 0
624 630 0
269 -101 0
215 717 0
-30 656 0
-423 -418 0
503 843 0
-403 -82 0
322 195 0
422 866 0
617 289 0
-609 -359 0
-446 342 0
-161 -555 0
-866 298 0
-612 -833 0
-841 431 0
263 -959 0
-428 175 0
404 -22 0
-952 -556 0
-142 -810 0
997 -814 0
105 -385 0
-789 -907 0
698 359 0
-357 681 0
-753 -337 0
643 -641 0
202 -749 0
-97 -790 0
-356 664 0
86 155 0
678 182 0
-368 154 0
679 509 0
-996 598 0
-318 -625 0
-201 -307 0
-281 -258 0
185 346 0
557 -530 0
529 -37 0
157 736 0
295 -382 0
-510 -171 0
-537 684 0
776 970 0
622 377 0
33 200 0
-124 -707 0
347 593 0
-699 965 0
703 221 0
-900 -474 0
249 67 0
807 166 0
370 -646 0
687 -941 0
863 -924 0
-532 -474 0
-217 795 0
-525 850 0
882 -266 0
-615 -37 0
362 -832 0
-468 -3 0
-503 -596 0
-422 -491 0
-367 745 0
-911 754 0
-257 570 0
-844 190 0
-138 -562 0
-149 687 0
-542 278 0
-825 -199 0
-347 582 0
-886 -68 0
445 341 0
424 103 0
-725 -52 0
829 332 0
-565 -823 0
390 -474 0
-703 611 0
948 -221 0
-298 477 0
-871 618 0
29 -374 0
922 -581 0
468 435 0
-385 214 0
-310 539 0
538 84 0
-123 179 0
975 773 0
678 -398 0
-940 -928 0
185 949 0
619 274 0
847 -65 0
-530 -627 0
-990 -146 0
-982 761 0
799 538 0
-920 193 0
895 738 0
-267 -244 0
-520 555 0
732 578 0
28 710 0
-68 166 0
185 982 0
-558 -868 0
746 -216 0
-952 -564 0
778 -234 0
-226 580 0
-450 203 0
-714 -619 0
754 390 0
-980 -489 0
724 -416 0
715 67 0
-174 557 0
-430 387 0
-368 138 0
392 -629 0
622 -530 0
569 -450 0
194 -155 0
419 -890 0
-622 545 0
-604 132 0
-247 -959 0
869 -488 0
-37 607 0
-301 -161 0
626 -246 0
803 615 0
-116 -760 0
658 -732 0
-183 -325 0
-370 -198 0
-717 -819 0
363 -282 0
129 -647 0
840 -728 0
-723 -306 0
-273 -203 0
-520 -905 0
-58 475 0
-458 -204 0
233 318 0
-78 668 0
-938 -247 0
923 796 0
506 -957 0
-311 430 0
-508 431 0
-197 439 0
243 889 0
396 -887 0
-116 -845 0
926 546 0
889 -337 0
888 971 0
599 799 0
-395 -102 0
626 484 0
378 -965 0
-733 109 0
365 262 0
327 -586 0
359 153 0
-82 126 0
485 668 0
516 401 0
-199 -701 0
274 837 0
-807 689 0
718 -851 0
299 -292 0
-464 -239 0
-415 -701 0
-221 293 0
246 -269 0
930 568 0
-263 -243 0
435 54 0
79 -368 0
512 -230 0
267 665 0
665 -722 0
643 -886 0
-921 962 0
-303 -383 0
-594 280 0
336 -723 0
831 435 0
-572 857 0
909 -523 0
-156 321 0
-328 512 0
-917 -696 0
-225 -513 0
51 57 0
-407 328 0
-727 -948 0
-360 222 0
254 -991 0
644 890 0
381 713 0
-771 -825 0
67 362 0
-952 229 0
879 239 0
77 628 0
-790 -122 0
408 -809 0
-959 28 0
-852 193 0
85 -542 0
-143 527 0
816 -744 0
285 -172 0
39 138 0
-335 -382 0
-273 245 0
-419 868 0
-614 965 0
181 815 0
255 -282 0
327 574 0
-125 895 0
-257 -847 0
-804 466 0
-95 -820 0
-220 -126 0
294 -896 0
-508 797 0
283 -923 0
623 -886 0
590 -513 0
-804 -287 0
-457 -650 0
252 772 0
-464 -924 0
817 120 0
-689 -736 0
-457 823 0
53 614 0
734 67 0
-626 -124 0
806 -543 0
265 -169 0
-580 691 0
150 395 0
-436 649 0
-425 -508 0
-616 456 0
424 598 0
-696 -220 0
769 -589 0
863 376 0
-920 -462 0
197 536 0
-110 -857 0
-590 -154 0
-865 30 0
669 768 0
435 573 0
-756 -944 0
-387 -139 0
128 248 0
-276 832 0
124 -214 0
-616 -661 0
416 -140 0
-47 908 0
458 485 0
-468 -52 0
-463 -934 0
-348 749 0
593 734 0
-810 -152 0
-98 31 0
-544 -306 0
-444 524 0
663 751 0
-66 -945 0
-860 503 0
-515 593 0
-745 929 0
-410 230 0
573 -963 0
570 -688 0
-711 -60 0
281 94 0
-877 -720 0
504 -434 0
993 -96 0
-978 119 0
-962 519 0
51 160 0
-140 606 0
646 845 0
-604 210 0
-724 -367 0
-423 -186 0
-507 -848 0
-438 239 0
-38 350 0
772 598 0
-415 485 0
-476 -163 0
931 637 0
-616 -592 0
-148 218 0
-656 40 0
-693 321 0
112 591 0
619 302 0
137 88 0
856 700 0
-692 86 0
-127 -37 0
-748 -303 0
500 658 0
512 -555 0
414 276 0
-419 -786 0
-406 847 0
-561 703 0
-735 349 0
-322 -947 0
-651 991 0
242 635 0
-998 533 0
-371 -603 0
798 65 0
378 215 0
150 -799 0
105 319 0
-72 867 0
558 219 0
-733 -158 0
-837 804 0
498 735 0
-132 -186 0
425 583 0
-551 -914 0
485 958 0
-27 417 0
598 -69 0
-670 -671 0
765 774 0
375 611 0
-694 764 0
-7 912 0
-980 -387 0
679 184 0
235 633 0
672 -730 0
-817 -160 0
-832 -516 0
-98 -343 0
916 305 0
919 110 0
-171 394 0
-664 197 0
829 -605 0
-777 77 0
957 -176 0
-452 -37 0
734 -758 0
-367 687 0
-97 314 0
147 748 0
599 312 0
80 -776 0
-250 -616 0
197 344 0
429 140 0
-769 808 0
796 -45 0
57 -212 0
813 74 0
806 910 0
153 -995 0
957 33 0
-699 -632 0
669 27 0
290 22 0
480 -170 0
-20 -4 0
-67 -93 0
98 957 0
-181 566 0
766 -379 0
116 -268 0
687 876 0
466 835 0
-149 198 0
-457 -280 0
795 550 0
881 -231 0
475 -239 0
274 -625 0
908 -91 0
-821 -534 0
-702 -462 0
-513 395 0
-286 -293 0
-933 -330 0
807 758 0
762 -691 0
-60 -909 0
-600 69 0
-132 187 0
480 890 0
-297 774 0
-95 986 0
764 143 0
-98 -29 0
712 -483 0
-521 -419 0
229 497 0
-733 936 0
-338 -488 0
-126 -154 0
634 237 0
-309 -548 0
980 611 0
-850 324 0
-126 230 0
-530 -430 0
-65 -49 0
404 -667 0
-756 196 0
-444 816 0
740 -132 0
-344 -41 0
-82 197 0
958 641 0
642 217 0
659 -783 0
-745 -900 0
459 -739 0
756 177 0
82 195 0
-294 974 0
424 -849 0
274 -211 0
764 219 0
-930 -188 0
426 -141 0
856 -205 0
150 421 0
-832 -250 0
351 -782 0
993 -201 0
70 716 0
552 -610 0
439 768 0
756 -870 0
985 89 0
602 -17 0
-266 -541 0
613 952 0
-160 173 0
598 -440 0
-209 36 0
793 -392 0
220 550 0
-393 -511 0
-777 485 0
-387 868 0
940 333 0
-330 619 0
-403 47 0
-597 -431 0
573 -463 0
531 309 0
-541 285 0
-203 110 0
131 -751 0
