c bounds 81 104
p cnf 526 970
-24 -506 0
9 294 0
88 139 0
132 -446 0
-407 -329 0
465 373 0
-37 -427 0
216 141 0
522 350 0
377 -445 0
185 53 0
34 -449 0
-153 332 0
47 -362 0
274 -290 0
-504 421 0
100 -474 0
118 106 0
494 -432 0
253 -133 0
275 360 0
-206 -313 0
-211 99 0
-473 -208 0
-131 -77 0
-18 259 0
50 435 0
-449 485 0
-356 -26 0
-192 80 0
-177 332 0
287 303 0
226 -445 0
217 -418 0
154 -211 0
420 -374 0
88 190 0
365 -122 0
256 -188 0
-459 178 0
501 -504 0
246 -359 0
-482 69 0
-338 -323 0
506 188 0
265 361 0
516 34 0
-307 11 0
307 524 0
-147 45 0
326 -230 0
436 -355 0
50 -367 0
-367 294 0
487 -19 0
266 -172 0
-431 59 0
-130 304 0
-68 315 0
-327 389 0
-416 -252 0
-464 -93 0
276 -418 0
302 44 0
-70 202 0
179 -38 0
-81 47 0
266 -442 0
162 172 0
-101 -382 0
-4 -418 0
214 448 0
388 -513 0
-443 203 0
136 -171 0
151 246 0
108 -108 0
-370 -420 0
151 159 0
58 335 0
155 -386 0
333 -341 0
-40 257 0
-18 282 0
-47 -327 0
436 -189 0
-250 -97 0
88 377 0
507 -197 0
60 -199 0
-178 -23 0
-116 498 0
388 517 0
-69 -395 0
195 -206 0
464 -27 0
-429 162 0
-241 400 0
71 281 0
7 202 0
-519 255 0
-157 -18 0
-77 30 0
455 299 0
464 5 0
278 -108 0
-92 -187 0
221 -333 0
130 -374 0
125 29 0
15 -317 0
-327 409 0
-336 -314 0
80 480 0
-309 478 0
-331 -471 0
-347 -46 0
-284 -310 0
-138 210 0
235 479 0
-443 -91 0
487 160 0
-238 75 0
313 255 0
492 465 0
465 -6 0
-69 115 0
-145 -476 0
-72 435 0
-372 87 0
-286 -103 0
-509 186 0
30 -132 0
-133 285 0
-93 -305 0
309 -57 0
-15 87 0
522 380 0
-375 -255 0
470 155 0
5 230 0
-489 -225 0
502 231 0
452 397 0
175 -393 0
28 -248 0
465 -109 0
507 76 0
420 217 0
-305 -204 0
-340 -340 0
-518 -229 0
319 455 0
-96 317 0
347 361 0
-5 -402 0
127 -401 0
-408 -24 0
471 -143 0
518 45 0
228 -21 0
454 85 0
-132 -42 0
306 357 0
269 444 0
-25 -205 0
175 426 0
167 483 0
156 -65 0
165 194 0
318 311 0
113 -416 0
297 90 0
-182 -420 0
322 -264 0
-46 523 0
261 -17 0
326 500 0
-225 495 0
-417 -312 0
490 446 0
-16 127 0
470 -10 0
335 -305 0
-166 243 0
-406 -328 0
338 -198 0
403 -216 0
-342 6 0
-137 28 0
-524 -190 0
274 -272 0
-218 -504 0
-138 184 0
-294 -145 0
15 315 0
-458 -472 0
420 377 0
-10 -111 0
-312 -307 0
-198 303 0
464 -439 0
-177 -271 0
-192 -437 0
523 186 0
228 -404 0
-407 440 0
-36 326 0
-372 -181 0
175 76 0
457 166 0
-31 -147 0
-409 -398 0
-219 -67 0
-423 -406 0
-368 515 0
-313 -474 0
-346 -478 0
-205 -503 0
-353 444 0
191 412 0
-91 517 0
-79 296 0
-493 -499 0
-174 -444 0
-109 354 0
-349 355 0
133 363 0
82 -504 0
85 -101 0
376 -109 0
-113 -241 0
95 -382 0
-173 202 0
308 -503 0
139 -374 0
-244 -217 0
76 54 0
521 -419 0
3 -473 0
210 218 0
-449 385 0
51 -25 0
218 467 0
-524 -41 0
523 -302 0
-99 344 0
-19 460 0
-369 283 0
-299 219 0
-211 -3 0
-122 -147 0
328 -327 0
-138 67 0
173 272 0
493 294 0
-288 13 0
469 65 0
-224 -425 0
-224 486 0
-526 328 0
274 461 0
36 329 0
396 510 0
-253 -259 0
-195 275 0
117 -285 0
-69 65 0
87 420 0
-404 504 0
-134 246 0
-111 -178 0
280 415 0
96 363 0
-526 -46 0
261 -62 0
-323 -157 0
517 -251 0
7 -6 0
279 193 0
491 -437 0
167 240 0
-299 -390 0
486 397 0
263 452 0
64 322 0
385 352 0
277 433 0
276 -234 0
306 -358 0
388 27 0
-290 -50 0
-157 -268 0
464 148 0
-26 -143 0
261 -97 0
369 287 0
245 -197 0
487 87 0
278 189 0
139 -29 0
421 -402 0
297 403 0
106 346 0
-297 -86 0
160 -307 0
167 389 0
-41 287 0
281 -162 0
236 226 0
-375 501 0
-273 -54 0
140 -267 0
148 -403 0
-253 166 0
-153 351 0
-218 378 0
388 172 0
195 194 0
-18 -399 0
-433 -275 0
47 -5 0
240 -458 0
-57 163 0
-288 -288 0
-444 88 0
-264 -286 0
-309 80 0
-379 500 0
209 148 0
71 -213 0
114 144 0
50 118 0
455 -443 0
156 395 0
107 91 0
344 236 0
70 191 0
268 466 0
-249 -309 0
25 226 0
494 -257 0
-41 -11 0
354 -422 0
-387 320 0
-439 343 0
432 -285 0
-239 -55 0
-478 306 0
412 444 0
-341 -135 0
308 152 0
-361 -211 0
-333 -102 0
-333 -402 0
115 464 0
62 -161 0
-170 191 0
-264 -391 0
-170 11 0
396 88 0
61 -23 0
-353 99 0
-264 373 0
-198 -40 0
196 -193 0
334 186 0
-208 -328 0
29 -182 0
-374 -71 0
-338 -309 0
-391 -320 0
12 198 0
524 345 0
304 -249 0
-152 512 0
-82 417 0
-216 -496 0
-274 129 0
-161 -345 0
-109 -240 0
148 141 0
-161 70 0
-92 146 0
-63 114 0
-307 -46 0
449 -296 0
-508 149 0
-349 -94 0
291 -400 0
83 522 0
-206 265 0
488 -169 0
-42 -116 0
-275 105 0
-158 186 0
-211 -511 0
129 -474 0
-181 -68 0
-360 -189 0
146 494 0
-24 319 0
505 518 0
279 -119 0
-318 -310 0
-78 146 0
115 481 0
-286 -86 0
-217 444 0
176 264 0
14 400 0
297 -37 0
87 -418 0
501 432 0
521 493 0
125 -295 0
423 90 0
-365 -429 0
-267 492 0
-449 -165 0
52 -301 0
-263 89 0
509 38 0
-304 12 0
291 27 0
-116 -133 0
144 -122 0
378 26 0
439 -120 0
-123 189 0
460 -459 0
-379 90 0
-507 89 0
-101 79 0
-224 -487 0
379 -144 0
310 -418 0
175 -449 0
-284 -328 0
-406 -263 0
-147 199 0
173 15 0
179 388 0
513 432 0
278 -74 0
52 -192 0
-196 266 0
425 -279 0
319 30 0
-225 -420 0
-425 90 0
-153 482 0
-138 -329 0
307 214 0
382 -49 0
35 308 0
459 355 0
88 -432 0
60 193 0
-101 154 0
332 305 0
517 62 0
475 4 0
-268 -257 0
521 -361 0
447 127 0
-264 -120 0
-298 400 0
-352 490 0
-288 138 0
274 -376 0
139 -338 0
-324 -241 0
94 444 0
118 366 0
209 313 0
-217 -252 0
-377 -251 0
-193 373 0
-337 -217 0
251 519 0
121 362 0
73 421 0
435 -440 0
-95 316 0
-108 -379 0
-41 427 0
112 -18 0
-407 430 0
416 322 0
-251 365 0
-353 -435 0
-518 -406 0
181 437 0
-271 160 0
315 52 0
378 345 0
99 -326 0
-137 -206 0
439 -63 0
-412 388 0
210 -423 0
-311 -210 0
5 442 0
14 -164 0
-390 -499 0
-394 -315 0
-298 249 0
-58 263 0
432 81 0
-286 -285 0
50 306 0
-46 -198 0
392 -200 0
293 -117 0
-190 -37 0
-495 -288 0
294 -134 0
165 274 0
-357 31 0
476 46 0
188 294 0
504 -225 0
330 57 0
159 501 0
-489 -66 0
392 461 0
-311 -323 0
-164 324 0
-495 322 0
-154 -454 0
316 -383 0
-37 173 0
424 -189 0
-443 -28 0
-267 212 0
-299 -85 0
482 -42 0
-525 486 0
-396 -424 0
-261 -422 0
258 221 0
-388 314 0
390 -135 0
-396 -504 0
277 367 0
-119 199 0
-277 -198 0
-322 389 0
334 362 0
344 -161 0
-78 -489 0
436 249 0
107 -101 0
-3 -336 0
-399 -96 0
-43 276 0
-12 52 0
-108 -433 0
255 134 0
-374 33 0
262 -221 0
473 -419 0
121 143 0
400 142 0
469 -138 0
-254 74 0
-147 338 0
255 47 0
494 425 0
32 420 0
99 -418 0
382 -211 0
113 -239 0
420 385 0
210 191 0
265 -380 0
420 512 0
344 112 0
436 -252 0
-361 -305 0
-68 362 0
191 27 0
-406 90 0
-354 -504 0
-495 -409 0
50 7 0
-223 81 0
141 -17 0
313 303 0
39 -279 0
-17 348 0
437 485 0
419 -399 0
39 210 0
210 -346 0
375 219 0
1 362 0
-391 -54 0
436 -435 0
129 -61 0
90 30 0
6 -499 0
451 -228 0
100 -354 0
-263 -323 0
506 178 0
111 243 0
-81 117 0
317 -311 0
332 -91 0
293 397 0
-225 -141 0
-497 -420 0
-401 -437 0
-10 355 0
156 -377 0
-113 -154 0
292 193 0
146 -422 0
117 58 0
-179 210 0
442 195 0
482 50 0
-312 -421 0
218 -235 0
83 445 0
378 -225 0
-69 -481 0
283 -467 0
-298 47 0
202 -284 0
-31 505 0
454 40 0
-250 15 0
-369 -493 0
20 65 0
-343 -127 0
-466 -17 0
-467 475 0
-376 363 0
258 74 0
-40 -225 0
-440 -240 0
482 104 0
-199 -407 0
296 396 0
-187 -94 0
-343 166 0
470 -94 0
152 213 0
430 256 0
-142 458 0
-453 -89 0
410 431 0
-474 166 0
-199 -370 0
63 109 0
-303 23 0
-209 -224 0
185 273 0
470 46 0
-219 176 0
76 104 0
-385 385 0
374 -108 0
-376 -8 0
-311 401 0
-231 464 0
-352 -484 0
333 274 0
-444 -333 0
145 60 0
115 266 0
256 -415 0
162 176 0
67 196 0
190 -324 0
93 -62 0
-187 -431 0
-525 -481 0
-301 388 0
482 256 0
-411 218 0
-460 -205 0
-69 213 0
461 14 0
44 280 0
-122 450 0
-479 -208 0
-18 170 0
-386 460 0
291 -326 0
51 -261 0
336 498 0
-451 294 0
283 359 0
138 480 0
455 190 0
488 47 0
386 286 0
-436 75 0
179 -92 0
-447 5 0
-413 1 0
478 154 0
-424 78 0
-305 290 0
-483 -233 0
-174 87 0
421 25 0
-94 -79 0
-209 25 0
-495 -40 0
-222 -336 0
85 278 0
-148 321 0
-138 -160 0
279 -183 0
-401 291 0
344 -497 0
-371 32 0
193 298 0
444 445 0
231 319 0
-364 485 0
59 -459 0
193 -180 0
512 14 0
279 114 0
-307 -53 0
64 297 0
377 415 0
-19 245 0
505 -77 0
-161 24 0
100 255 0
-460 148 0
29 -273 0
280 -419 0
435 186 0
-94 -331 0
129 52 0
474 158 0
-208 -40 0
313 -69 0
430 -2 0
-172 83 0
507 -489 0
339 45 0
374 -371 0
514 -305 0
-123 -424 0
42 98 0
521 79 0
15 -292 0
-140 -231 0
452 477 0
167 274 0
191 80 0
359 442 0
-64 517 0
-328 354 0
-405 -48 0
-331 432 0
-159 -254 0
-216 -489 0
245 -167 0
-233 -487 0
475 302 0
-508 -121 0
317 -405 0
-171 -277 0
317 348 0
437 80 0
74 456 0
-509 318 0
-90 -190 0
-477 -35 0
440 50 0
-97 446 0
487 55 0
56 -251 0
-84 -26 0
15 -284 0
309 268 0
439 -473 0
494 522 0
107 -411 0
478 426 0
522 -382 0
278 -441 0
309 -23 0
-229 -4 0
-328 -486 0
-504 -22 0
-410 155 0
-371 -86 0
-462 269 0
-81 -358 0
207 22 0
-366 -146 0
291 13 0
412 -303 0
-451 386 0
479 -248 0
383 274 0
335 117 0
-11 232 0
-440 359 0
-290 215 0
144 277 0
125 -257 0
32 181 0
452 516 0
-323 -354 0
174 348 0
438 -101 0
65 -168 0
-254 158 0
-421 -418 0
-325 -484 0
439 412 0
-459 -21 0
-144 -10 0
129 -353 0
-264 -208 0
-276 -177 0
-476 -122 0
-496 477 0
-484 356 0
56 -186 0
-525 -510 0
431 439 0
-124 235 0
-312 359 0
151 -10 0
95 361 0
-406 -402 0
-334 -300 0
-127 -418 0
-497 -41 0
-445 411 0
80 -77 0
-77 -453 0
281 28 0
293 254 0
-423 -133 0
-453 283 0
-411 -105 0
178 -431 0
-58 317 0
95 514 0
-381 41 0
488 -414 0
-190 -382 0
342 379 0
-228 304 0
-397 401 0
-489 -378 0
451 -78 0
-353 237 0
214 393 0
-372 17 0
-436 -247 0
-228 249 0
80 -413 0
356 149 0
451 -260 0
130 152 0
85 38 0
-501 400 0
-480 -482 0
-47 490 0
181 185 0
34 331 0
-404 -495 0
-337 -122 0
-414 64 0
-371 49 0
437 -211 0
257 90 0
-25 15 0
-17 484 0
64 264 0
349 205 0
-184 -427 0
-453 188 0
-433 -42 0
4 -371 0
-428 -2 0
275 102 0
-67 -417 0
468 -207 0
125 43 0
-499 124 0
-503 298 0
-286 336 0
52 131 0
272 363 0
176 218 0
430 319 0
424 -108 0
520 -18 0
183 280 0
413 124 0
-137 351 0
-152 148 0
480 -502 0
457 255 0
-23 -49 0
240 434 0
-519 125 0
506 488 0
141 -323 0
293 -365 0
335 -310 0
468 -398 0
304 227 0
160 -360 0
-284 -482 0
291 215 0
280 145 0
-433 426 0
5 -255 0
-37 -250 0
-22 289 0
476 -446 0
479 81 0
143 319 0
-413 -116 0
-170 426 0
385 -433 0
47 503 0
-22 323 0
383 -497 0
-138 -163 0
70 -355 0
512 47 0
-449 -495 0
362 -155 0
314 -72 0
-124 -82 0
69 -69 0
32 -81 0
462 52 0
-463 4 0
-190 -285 0
-10 85 0
233 -424 0
-310 184 0
435 -235 0
136 243 0
-55 75 0
393 66 0
-16 343 0
-307 -407 0
-198 -349 0
477 -271 0
409 52 0
54 -241 0
-251 181 0
314 261 0
129 -217 0
289 -199 0
-434 -135 0
-346 508 0
-459 357 0
302 -216 0
132 -135 0
