c bounds 204 232
p cnf 668 749
89 -17 0
496 465 0
-334 20 0
276 127 0
183 -624 0
370 572 0
-645 403 0
-450 376 0
-283 -190 0
-143 505 0
374 -103 0
-448 -319 0
-241 580 0
-457 -15 0
-87 -287 0
-321 -181 0
540 -94 0
625 -39 0
640 183 0
227 321 0
31 -107 0
-643 -107 0
-182 488 0
-43 -232 0
-324 110 0
260 472 0
131 235 0
568 -70 0
-407 567 0
448 -113 0
292 16 0
360 -360 0
-527 512 0
466 -32 0
-90 126 0
-610 219 0
-146 -155 0
-378 -325 0
-182 -630 0
-572 -292 0
-228 225 0
-279 614 0
562 -74 0
618 561 0
491 133 0
527 -166 0
-594 -558 0
-529 -645 0
-589 -462 0
-324 -283 0
-335 -382 0
-344 -572 0
143 -443 0
329 361 0
-621 349 0
-138 -101 0
564 -385 0
-577 -454 0
24 162 0
-143 141 0
378 -345 0
-236 -629 0
-577 -295 0
-513 102 0
386 424 0
-426 508 0
615 145 0
347 -519 0
382 -378 0
-472 -79 0
361 -518 0
-142 -506 0
269 -232 0
422 -558 0
259 -507 0
430 508 0
436 -657 0
-304 -478 0
-492 197 0
-388 -506 0
-448 -496 0
284 5 0
-462 -475 0
596 -396 0
87 668 0
-139 364 0
-563 321 0
60 -346 0
419 -28 0
-574 -582 0
-133 -469 0
184 366 0
67 3 0
-352 163 0
-373 -496 0
-24 422 0
83 -369 0
111 534 0
-529 -328 0
129 -492 0
-511 312 0
289 -234 0
483 -647 0
86 77 0
-246 574 0
-556 497 0
522 137 0
-645 -562 0
12 654 0
135 -319 0
267 -524 0
584 -33 0
-503 626 0
-578 528 0
-481 5 0
-481 118 0
315 193 0
-602 -424 0
476 -436 0
-369 236 0
333 94 0
438 546 0
-62 609 0
-500 289 0
201 -271 0
307 -49 0
-417 -487 0
435 617 0
-5 -44 0
269 -567 0
-156 97 0
-471 498 0
387 221 0
27 308 0
-629 259 0
279 -527 0
-134 443 0
309 -214 0
-536 -654 0
167 -71 0
-631 524 0
536 -74 0
254 -316 0
292 533 0
-584 -113 0
-475 275 0
-411 -639 0
659 343 0
-426 -388 0
178 -7 0
68 611 0
-599 -600 0
163 294 0
187 423 0
296 336 0
569 -418 0
-49 -124 0
343 -92 0
-34 -160 0
428 659 0
566 299 0
393 384 0
-503 125 0
78 144 0
112 -4 0
10 387 0
-37 -592 0
-529 163 0
235 -281 0
-195 -41 0
-551 -560 0
483 -241 0
64 -280 0
-568 87 0
424 -503 0
-200 225 0
109 -360 0
-445 127 0
372 441 0
209 666 0
-324 659 0
231 -19 0
394 -388 0
585 8 0
-95 550 0
134 272 0
-300 -665 0
472 398 0
601 75 0
340 583 0
-621 588 0
277 349 0
528 615 0
40 -540 0
153 -21 0
290 389 0
-405 446 0
-80 -357 0
-419 547 0
88 -56 0
-519 -38 0
-107 -93 0
-116 -179 0
60 -286 0
-240 70 0
38 600 0
-483 625 0
15 -257 0
183 -227 0
153 66 0
443 -459 0
-62 -120 0
593 611 0
47 -14 0
165 -572 0
-642 151 0
564 6 0
-182 78 0
261 469 0
-610 327 0
234 -45 0
184 296 0
315 526 0
307 407 0
-604 -581 0
11 -540 0
117 -368 0
526 -402 0
664 592 0
-48 -172 0
508 -529 0
-346 160 0
-311 25 0
-28 446 0
-450 -92 0
-18 -495 0
-228 -610 0
-442 -173 0
-17 -478 0
171 529 0
473 -356 0
-244 -448 0
-331 97 0
129 432 0
-465 -353 0
-306 -209 0
-207 -645 0
335 -298 0
-142 -315 0
-668 649 0
-302 384 0
270 101 0
-660 -263 0
410 455 0
8 -291 0
-369 81 0
442 -124 0
542 665 0
-255 180 0
101 90 0
80 588 0
-64 248 0
159 -328 0
28 376 0
-273 156 0
118 197 0
436 -14 0
-523 -304 0
2 383 0
-28 -667 0
-161 532 0
-154 395 0
-413 92 0
-121 -650 0
-592 -642 0
-319 -537 0
-557 192 0
-175 97 0
-354 -652 0
-666 -350 0
-319 -128 0
475 545 0
-47 -317 0
-82 110 0
-502 270 0
-436 25 0
505 141 0
-573 415 0
14 214 0
168 -24 0
311 -184 0
-38 640 0
597 372 0
650 661 0
-548 551 0
335 261 0
-218 -567 0
61 459 0
-367 -340 0
-526 -265 0
-157 -363 0
-454 592 0
329 465 0
641 604 0
625 617 0
-411 -427 0
641 509 0
-188 514 0
74 643 0
-368 -153 0
-345 -636 0
-616 422 0
-657 260 0
-61 -341 0
-13 212 0
152 -256 0
-558 515 0
-494 595 0
566 -98 0
-308 193 0
294 613 0
146 -40 0
490 -589 0
360 -273 0
-113 -324 0
7 308 0
296 -433 0
145 -405 0
42 -598 0
590 129 0
-265 -455 0
-520 305 0
-543 -60 0
-621 664 0
355 -22 0
-162 264 0
-606 335 0
-246 659 0
-447 308 0
-437 -524 0
209 333 0
-87 -122 0
87 42 0
479 -634 0
-108 -147 0
-192 429 0
240 664 0
660 136 0
583 -487 0
-208 271 0
-53 -416 0
-286 -61 0
121 -366 0
-362 622 0
-557 509 0
-294 -383 0
-475 -194 0
-527 628 0
470 194 0
-58 589 0
655 -357 0
-138 65 0
167 -577 0
-22 -666 0
405 73 0
612 -80 0
-448 180 0
-201 205 0
518 552 0
125 -448 0
-648 -571 0
236 -445 0
-316 609 0
-136 649 0
238 -201 0
-307 -86 0
-477 269 0
-354 578 0
439 -195 0
537 404 0
613 99 0
-568 -102 0
458 649 0
-177 -425 0
-201 -655 0
478 643 0
-496 -251 0
-180 23 0
101 -434 0
493 522 0
-418 -41 0
213 462 0
455 -374 0
217 466 0
635 439 0
-651 -217 0
-590 -240 0
316 -246 0
57 332 0
31 278 0
-353 178 0
215 -275 0
403 532 0
539 -524 0
-567 -607 0
-87 595 0
352 -344 0
207 -475 0
204 -362 0
412 -88 0
-532 646 0
-316 -262 0
309 -464 0
456 548 0
-57 -363 0
70 -297 0
-265 351 0
523 78 0
562 244 0
-659 -527 0
-86 -314 0
-133 -78 0
-365 -535 0
-271 -177 0
217 -218 0
-283 -437 0
-467 -473 0
-540 -54 0
117 -513 0
308 255 0
-650 -518 0
-458 -84 0
366 434 0
-36 191 0
35 590 0
-365 537 0
195 121 0
451 -76 0
-374 284 0
-182 537 0
-580 543 0
-524 -616 0
506 -243 0
305 325 0
649 -585 0
502 -132 0
-513 -429 0
414 -265 0
470 -425 0
-80 392 0
433 -374 0
381 -382 0
-582 596 0
-30 -374 0
-221 -358 0
52 553 0
-401 -288 0
-550 -420 0
221 489 0
-90 20 0
-211 163 0
-364 -612 0
-610 382 0
655 96 0
-358 516 0
-245 -452 0
-236 3 0
-566 -432 0
-510 154 0
460 290 0
111 -34 0
-136 -19 0
-355 309 0
-8 539 0
208 205 0
190 339 0
393 554 0
347 484 0
65 -298 0
-344 -445 0
36 648 0
4 -561 0
-606 406 0
269 382 0
278 -176 0
-246 -73 0
-18 609 0
-283 451 0
-305 326 0
-355 141 0
-479 214 0
-166 406 0
626 274 0
259 502 0
313 -91 0
-368 -484 0
-176 -133 0
-297 -525 0
80 -654 0
532 502 0
-489 83 0
178 187 0
-477 -236 0
410 286 0
-447 -311 0
661 401 0
465 35 0
505 -588 0
-45 394 0
579 -401 0
-79 439 0
-649 313 0
-477 -519 0
-102 149 0
-454 -462 0
8 -464 0
459 -602 0
-100 522 0
639 -468 0
-350 329 0
312 -266 0
-236 -658 0
-71 -454 0
646 213 0
-316 394 0
-159 -348 0
183 -367 0
-164 612 0
-201 -383 0
-433 503 0
-395 235 0
254 -95 0
523 79 0
-25 -103 0
-666 -636 0
539 233 0
-98 -383 0
226 -640 0
516 360 0
525 -262 0
-620 533 0
-80 111 0
-518 217 0
303 -390 0
129 488 0
-626 -15 0
258 -249 0
129 287 0
-462 384 0
-15 -668 0
-402 -358 0
-336 -503 0
263 -222 0
594 -140 0
-416 377 0
6 613 0
-577 -11 0
-5 469 0
-113 -547 0
-5 552 0
-301 -346 0
-14 244 0
383 149 0
-505 -336 0
119 -41 0
146 -469 0
477 -339 0
92 163 0
-256 -622 0
-481 355 0
-535 129 0
449 -506 0
-448 505 0
-106 -612 0
220 618 0
-251 590 0
427 53 0
172 -475 0
91 -124 0
6 499 0
-654 662 0
-471 210 0
226 124 0
42 563 0
-59 539 0
-241 -363 0
55 -383 0
131 -462 0
-504 165 0
-253 580 0
406 597 0
136 3 0
-138 21 0
196 -168 0
543 -399 0
305 -208 0
472 236 0
360 26 0
-43 131 0
337 -161 0
156 7 0
73 -300 0
157 -339 0
-333 -563 0
-132 497 0
141 194 0
-407 647 0
43 -112 0
423 -306 0
-554 377 0
-650 -165 0
-314 -151 0
565 374 0
-90 -507 0
-404 176 0
-498 397 0
632 -372 0
-347 -172 0
14 -464 0
-400 -567 0
-645 -508 0
-434 548 0
549 60 0
430 515 0
664 -387 0
295 302 0
-324 -393 0
604 -347 0
-602 512 0
502 -48 0
564 220 0
632 -159 0
8 469 0
-5 -64 0
129 -164 0
436 633 0
-397 -448 0
-30 89 0
-467 117 0
-390 -74 0
-445 -625 0
-48 583 0
-98 507 0
55 665 0
257 290 0
645 -580 0
-365 -159 0
523 374 0
250 593 0
-39 151 0
-554 -503 0
276 -41 0
8 155 0
-586 -433 0
423 162 0
-651 -134 0
-48 -658 0
296 -594 0
-214 -421 0
-610 177 0
-411 -174 0
-37 -16 0
-324 333 0
204 200 0
-149 355 0
-517 -494 0
97 -567 0
-34 -102 0
-233 442 0
274 -373 0
-481 -144 0
-660 313 0
-1 209 0
-513 312 0
-627 -525 0
-57 -30 0
336 640 0
-636 302 0
543 51 0
274 600 0
493 -310 0
191 653 0
429 258 0
-522 -495 0
398 -568 0
-212 -74 0
178 -17 0
499 -457 0
125 -108 0
-620 -64 0
-659 -644 0
456 390 0
68 -365 0
-452 -322 0
-581 -347 0
391 -234 0
-340 -474 0
-610 -473 0
48 -41 0
381 458 0
211 -213 0
-13 -659 0
185 339 0
-543 -188 0
-222 281 0
307 -374 0
646 -416 0
250 -335 0
607 -340 0
-115 -492 0
618 211 0
-162 -334 0
-663 26 0
-353 460 0
381 -436 0
-378 488 0
-489 398 0
-487 -130 0
653 107 0
102 376 0
440 424 0
-622 165 0
-200 -452 0
-353 -251 0
-233 40 0
271 -199 0
-393 617 0
-125 176 0
81 -556 0
-645 -46 0
545 -258 0
-550 499 0
-354 332 0
-556 -386 0
422 469 0
49 -206 0
611 -634 0
556 615 0
-48 95 0
-447 -255 0
172 88 0
-657 -578 0
-17 131 0
-623 37 0
-319 553 0
269 -301 0
-425 108 0
183 338 0
-30 624 0
