c bounds 63 63
p cnf 526 1515
158 -238 0
-202 -80 0
-31 -127 0
-403 71 0
-523 56 0
-449 -166 0
-294 -387 0
523 -522 0
450 104 0
-195 -389 0
285 -18 0
-525 -174 0
123 177 0
444 -131 0
-319 -476 0
136 315 0
-522 27 0
-45 -267 0
418 -149 0
358 396 0
-153 -231 0
403 269 0
-170 -39 0
-72 58 0
-353 -20 0
83 333 0
-291 512 0
-520 269 0
-19 234 0
247 219 0
-418 6 0
-84 -510 0
424 57 0
15 -325 0
275 182 0
294 -251 0
256 164 0
494 449 0
-287 -288 0
462 -137 0
143 328 0
73 -70 0
215 -392 0
-3 -178 0
-417 -73 0
-360 489 0
83 294 0
-11 -107 0
-437 -133 0
456 378 0
9 469 0
-274 -482 0
247 -318 0
62 -154 0
-206 -186 0
-381 -379 0
-141 293 0
-231 74 0
165 86 0
-453 212 0
391 282 0
-293 381 0
399 54 0
160 211 0
211 -112 0
-16 -12 0
-231 465 0
244 -319 0
-103 -157 0
-208 -482 0
-113 64 0
-134 -53 0
-228 -42 0
-61 -376 0
-442 -431 0
85 -141 0
274 275 0
123 394 0
-138 272 0
-130 54 0
-239 -90 0
-237 -178 0
-240 231 0
335 133 0
-453 199 0
-274 106 0
443 -481 0
170 488 0
-240 -168 0
337 38 0
219 135 0
-401 386 0
178 127 0
182 -331 0
207 -367 0
-480 81 0
-395 -454 0
280 -212 0
-312 294 0
25 -516 0
362 -482 0
313 234 0
348 434 0
282 -287 0
315 -147 0
165 -383 0
-364 328 0
-91 222 0
-292 -99 0
270 -81 0
275 -263 0
-232 524 0
286 67 0
-342 -305 0
-344 449 0
-341 -216 0
-148 -37 0
404 -251 0
-330 -428 0
-40 -249 0
-266 526 0
-496 -181 0
-400 -404 0
188 22 0
187 306 0
247 509 0
-203 317 0
310 -75 0
116 -346 0
-400 198 0
-24 133 0
-266 379 0
-498 129 0
137 -206 0
324 -16 0
185 -253 0
-358 -42 0
-74 -469 0
213 -412 0
301 -394 0
490 -477 0
476 -493 0
-323 48 0
250 121 0
-319 -400 0
18 -389 0
-72 -188 0
207 239 0
170 -101 0
59 -502 0
55 153 0
-320 -112 0
430 178 0
-382 -420 0
62 -48 0
-233 33 0
38 -382 0
-485 113 0
424 214 0
507 54 0
429 -113 0
-482 -78 0
472 -185 0
507 132 0
-372 -84 0
-393 -475 0
396 38 0
-126 -281 0
507 11 0
-52 206 0
-261 -131 0
494 406 0
504 -229 0
-502 -58 0
-394 451 0
-122 -270 0
427 462 0
348 -42 0
-124 7 0
-70 -150 0
-245 -407 0
-442 -267 0
-137 475 0
-108 222 0
30 -111 0
-320 139 0
398 -413 0
-114 465 0
120 -85 0
-470 282 0
-52 -156 0
311 -359 0
520 411 0
355 232 0
-506 41 0
494 418 0
-462 -240 0
-397 440 0
34 -261 0
-102 -184 0
57 423 0
23 2 0
159 54 0
-12 -30 0
-267 -9 0
389 -63 0
252 -396 0
264 -350 0
-520 318 0
428 -341 0
428 196 0
-395 -41 0
-488 463 0
310 189 0
-197 -202 0
252 -321 0
192 -149 0
433 -245 0
173 28 0
-454 -522 0
27 -140 0
466 -12 0
488 463 0
-20 194 0
-111 -124 0
357 -381 0
-264 316 0
216 -96 0
-424 -208 0
436 363 0
501 141 0
102 -273 0
86 509 0
-253 -466 0
434 205 0
190 -320 0
-106 -115 0
-248 459 0
145 451 0
142 320 0
-360 -345 0
250 -324 0
-430 -408 0
-447 -44 0
269 330 0
207 82 0
369 500 0
-388 -11 0
526 145 0
-221 -215 0
318 -392 0
184 -405 0
-190 34 0
-62 143 0
235 290 0
-171 79 0
-203 -179 0
-405 -144 0
437 -141 0
450 67 0
-25 -118 0
-60 147 0
-439 -480 0
-46 296 0
492 313 0
58 346 0
-229 446 0
-284 506 0
330 285 0
360 99 0
-525 -293 0
-1 -371 0
-4 258 0
-343 253 0
-46 -329 0
-291 -273 0
-278 -379 0
357 33 0
-323 -374 0
140 257 0
-345 -431 0
426 492 0
-399 432 0
12 -265 0
-516 168 0
-470 347 0
200 -397 0
65 -405 0
-339 474 0
-369 524 0
-404 269 0
396 -469 0
401 73 0
-38 -218 0
257 -483 0
322 -462 0
-259 -12 0
-115 -296 0
-185 -12 0
-350 -179 0
-174 157 0
-400 -72 0
-235 -146 0
-273 -374 0
-168 294 0
28 -194 0
-244 -384 0
206 448 0
44 -511 0
-452 211 0
259 -183 0
-179 -65 0
225 432 0
285 28 0
-321 398 0
-125 -102 0
50 87 0
9 19 0
-72 -319 0
373 446 0
362 464 0
-221 -510 0
-261 -305 0
-268 -484 0
-435 29 0
-456 495 0
428 -520 0
114 226 0
117 -315 0
101 -510 0
482 -188 0
514 -498 0
-384 39 0
496 -315 0
-483 344 0
-515 35 0
-67 -88 0
104 -15 0
-516 250 0
-96 29 0
53 32 0
81 -144 0
427 -248 0
455 -118 0
-60 207 0
-425 109 0
518 -381 0
451 -410 0
-36 -380 0
432 -138 0
-64 -380 0
-292 -273 0
-296 122 0
297 144 0
-265 144 0
241 -359 0
-120 233 0
-415 -87 0
-166 -127 0
391 -11 0
107 -268 0
411 -423 0
-295 424 0
-514 -218 0
-201 305 0
297 507 0
-483 -526 0
-5 -264 0
164 -118 0
-131 466 0
-22 -147 0
-457 196 0
161 89 0
-147 206 0
-396 501 0
-251 -41 0
243 -431 0
113 335 0
489 165 0
9 43 0
-261 420 0
303 -319 0
2 386 0
-186 435 0
213 418 0
-392 200 0
-252 227 0
161 401 0
133 -293 0
-239 -237 0
-188 495 0
-283 -439 0
170 -192 0
-320 497 0
327 462 0
-517 306 0
-517 -453 0
-493 266 0
-238 505 0
-482 57 0
314 187 0
162 152 0
149 235 0
-177 -412 0
129 175 0
-94 125 0
270 159 0
178 -323 0
-433 -111 0
221 -152 0
-80 -231 0
-415 418 0
-408 -415 0
-214 40 0
361 -343 0
359 51 0
-92 -37 0
45 -276 0
-49 363 0
-52 -12 0
-289 276 0
-319 -231 0
-498 89 0
157 -273 0
-498 -61 0
304 -328 0
208 526 0
242 206 0
-95 -454 0
92 124 0
-327 159 0
150 -368 0
-476 269 0
-508 235 0
-114 -525 0
146 -264 0
-480 -209 0
215 450 0
472 445 0
18 216 0
-208 -303 0
-271 384 0
524 133 0
-466 173 0
-124 -108 0
-320 -510 0
465 393 0
-63 -280 0
-454 -98 0
-232 -400 0
-383 -225 0
-13 -12 0
87 -159 0
402 -39 0
-138 -291 0
367 194 0
341 306 0
245 -253 0
-31 -46 0
-233 369 0
400 354 0
87 -323 0
-102 413 0
299 386 0
-390 12 0
-469 249 0
-42 -228 0
-273 429 0
308 508 0
-96 -46 0
28 -29 0
-244 -138 0
479 410 0
42 -357 0
33 497 0
-179 403 0
359 -149 0
-271 252 0
227 -106 0
123 147 0
-147 403 0
215 -307 0
116 -417 0
-365 -344 0
463 282 0
258 101 0
-467 91 0
-302 -63 0
-167 519 0
302 342 0
85 -256 0
-383 102 0
292 187 0
452 427 0
236 170 0
434 501 0
4 -302 0
-230 -340 0
374 -325 0
51 -229 0
-312 -182 0
477 -20 0
-391 -383 0
-477 -499 0
422 -412 0
227 -90 0
232 -402 0
-417 -25 0
482 -516 0
507 117 0
409 -372 0
-228 -124 0
-259 190 0
465 415 0
428 -164 0
68 -228 0
396 -442 0
487 -448 0
137 -287 0
-119 142 0
420 -334 0
-46 496 0
476 -331 0
-25 196 0
236 -482 0
-470 -82 0
497 274 0
-14 298 0
-384 -497 0
153 -316 0
-319 -439 0
-482 292 0
-212 274 0
490 488 0
411 -352 0
139 -342 0
77 348 0
494 81 0
240 -332 0
402 487 0
25 -20 0
508 204 0
27 -291 0
61 -363 0
-89 -339 0
508 -18 0
-10 -467 0
416 -448 0
460 -156 0
-193 -441 0
420 233 0
-328 438 0
-307 -118 0
-127 518 0
-51 -525 0
62 140 0
-500 168 0
-137 389 0
29 -110 0
-126 -284 0
-486 101 0
135 73 0
-18 -214 0
93 -406 0
-220 -25 0
-161 379 0
236 429 0
-40 304 0
57 77 0
-476 -506 0
-520 62 0
467 -287 0
-12 6 0
-256 -111 0
-211 219 0
161 376 0
-35 33 0
-407 -449 0
-458 -103 0
-361 212 0
372 -357 0
207 212 0
359 19 0
313 427 0
285 -292 0
-144 158 0
-422 -525 0
227 -16 0
-275 -323 0
-198 -418 0
-430 -2 0
-525 -179 0
-454 134 0
-296 94 0
-360 358 0
60 489 0
494 208 0
-371 167 0
-228 -453 0
-14 -491 0
173 304 0
7 49 0
-282 -239 0
195 -457 0
424 -1 0
-21 303 0
-359 346 0
-102 -92 0
-43 121 0
-11 265 0
161 157 0
5 416 0
-113 465 0
-170 324 0
-239 119 0
-462 -147 0
-303 272 0
84 98 0
386 522 0
190 519 0
189 27 0
465 44 0
363 -15 0
446 231 0
-91 -138 0
196 -483 0
-423 9 0
-71 171 0
382 434 0
-457 -296 0
-290 -100 0
172 -368 0
-512 -298 0
188 494 0
-332 -31 0
441 -63 0
-324 -180 0
194 -130 0
50 182 0
-397 -85 0
-326 279 0
-240 -352 0
64 351 0
286 -286 0
30 -34 0
355 321 0
518 260 0
333 365 0
-262 -17 0
-154 402 0
-169 -413 0
-500 -349 0
369 -506 0
-382 -301 0
117 -337 0
123 -253 0
-209 -522 0
419 -516 0
-387 62 0
346 -382 0
-432 419 0
-296 232 0
-407 16 0
378 -88 0
-60 -3 0
-218 240 0
252 203 0
-349 -383 0
-237 410 0
207 -397 0
488 419 0
5 -65 0
386 451 0
-407 -356 0
257 -455 0
330 255 0
308 -394 0
9 -521 0
-372 -428 0
226 -313 0
-503 -142 0
-326 -89 0
304 -296 0
-290 18 0
171 -238 0
-469 426 0
76 -330 0
468 -452 0
454 -8 0
-73 194 0
241 -380 0
-364 354 0
456 -356 0
-109 396 0
-296 90 0
-430 -135 0
-67 153 0
400 44 0
492 157 0
69 377 0
-40 -187 0
-401 -412 0
-53 -234 0
234 -390 0
-499 45 0
430 -61 0
278 -242 0
395 -182 0
-217 -67 0
21 -466 0
-209 347 0
60 -387 0
-381 229 0
-79 -100 0
-397 184 0
269 -461 0
389 -202 0
173 460 0
-172 -31 0
-246 228 0
518 -411 0
38 -233 0
-457 -386 0
-144 54 0
456 50 0
438 271 0
497 -43 0
-343 -67 0
-75 -1 0
301 -60 0
456 65 0
-357 -165 0
-171 -82 0
21 -345 0
-167 490 0
-285 -516 0
-103 222 0
-278 308 0
30 -313 0
-497 -337 0
172 396 0
-158 -241 0
353 239 0
-264 -188 0
-187 258 0
481 -48 0
-21 -30 0
-395 -197 0
259 -242 0
386 -329 0
411 429 0
-327 -131 0
309 -72 0
275 -488 0
181 45 0
-305 -107 0
81 355 0
265 209 0
71 -193 0
5 -103 0
2 -149 0
447 -168 0
-469 -296 0
-98 273 0
-417 158 0
-31 -14 0
-140 338 0
427 461 0
112 316 0
-512 240 0
-330 -379 0
-235 -345 0
370 -34 0
-180 301 0
322 -158 0
-31 453 0
286 450 0
-290 -154 0
-249 367 0
-328 465 0
-43 -178 0
311 256 0
-384 439 0
-516 -93 0
-442 -1 0
137 -291 0
-330 251 0
514 -451 0
-435 -525 0
410 58 0
514 111 0
55 371 0
-429 123 0
-460 -509 0
-25 -126 0
298 423 0
304 30 0
488 405 0
-114 -174 0
223 187 0
-78 369 0
-412 379 0
507 -151 0
-376 123 0
368 -457 0
-177 403 0
430 -61 0
-434 461 0
-476 46 0
524 -284 0
123 -138 0
-97 208 0
-246 110 0
77 -375 0
22 -453 0
90 -412 0
225 -394 0
443 143 0
172 81 0
286 -130 0
-343 -327 0
68 367 0
-322 -267 0
19 287 0
1 -184 0
343 -329 0
-246 -217 0
-202 158 0
316 -320 0
137 -361 0
138 33 0
-241 488 0
-278 10 0
-402 194 0
99 -260 0
-367 -90 0
456 -2 0
-214 334 0
244 421 0
-372 474 0
490 421 0
-507 110 0
-316 -426 0
114 -180 0
120 122 0
-301 232 0
304 -136 0
482 -431 0
-154 187 0
-444 -278 0
-297 19 0
180 87 0
-382 133 0
-131 286 0
336 -220 0
166 77 0
-96 422 0
342 -78 0
-222 -216 0
-326 371 0
262 -167 0
29 513 0
-367 -391 0
-119 310 0
-499 35 0
-408 -238 0
-417 -490 0
-460 482 0
-280 342 0
-313 -480 0
-2 -502 0
-518 110 0
-276 511 0
165 -146 0
-460 -351 0
-92 104 0
131 -198 0
-417 -295 0
-344 25 0
-335 -393 0
243 -381 0
132 -263 0
58 322 0
151 -184 0
296 -383 0
-340 -474 0
-242 253 0
517 -404 0
-312 302 0
-144 -416 0
-37 318 0
-364 -508 0
164 181 0
475 -360 0
-100 -182 0
-368 230 0
-427 422 0
-472 -214 0
269 477 0
-458 -371 0
-460 -253 0
191 -353 0
333 204 0
83 -159 0
-230 81 0
-470 468 0
-206 -256 0
-454 411 0
-313 257 0
468 -107 0
34 -43 0
-246 390 0
159 493 0
286 111 0
-205 -395 0
-231 306 0
-426 92 0
-319 -453 0
-60 490 0
385 -247 0
95 -377 0
-345 -217 0
-281 452 0
-384 -116 0
58 257 0
-251 -520 0
-284 -479 0
497 505 0
492 -62 0
-325 -177 0
-384 123 0
-132 95 0
407 310 0
39 204 0
6 -218 0
-21 409 0
-431 488 0
-387 -182 0
-201 -43 0
200 -180 0
433 -367 0
-423 30 0
339 -393 0
134 73 0
-502 364 0
-103 497 0
478 488 0
294 -210 0
-486 148 0
-103 -337 0
-312 -419 0
423 -484 0
143 129 0
-279 -458 0
-287 -474 0
332 445 0
-244 -345 0
-441 -78 0
-125 280 0
295 -268 0
-379 47 0
95 439 0
-228 420 0
-439 481 0
486 241 0
-230 -135 0
488 445 0
212 -229 0
-18 -12 0
376 374 0
-274 -480 0
202 475 0
225 411 0
317 270 0
496 -215 0
93 45 0
456 518 0
300 398 0
116 405 0
336 -119 0
241 234 0
-201 -208 0
-53 -107 0
-390 -384 0
405 -39 0
-401 28 0
424 176 0
432 -255 0
223 -403 0
-232 342 0
-60 -325 0
-128 -454 0
471 -72 0
52 206 0
434 190 0
-16 183 0
-327 313 0
-495 -237 0
-412 -334 0
-306 -51 0
29 -399 0
13 129 0
-113 448 0
359 -193 0
-222 230 0
-305 238 0
200 -274 0
-81 -485 0
-143 -268 0
81 400 0
-456 370 0
293 -242 0
-25 467 0
-517 -232 0
-357 -352 0
339 -248 0
112 285 0
7 -162 0
196 -278 0
401 -265 0
225 -78 0
151 -332 0
42 -186 0
185 -383 0
212 187 0
-152 337 0
-154 511 0
290 -103 0
241 511 0
-382 67 0
-410 513 0
-352 -366 0
-441 389 0
438 211 0
247 435 0
140 -15 0
319 -46 0
477 -98 0
-220 458 0
465 313 0
-197 349 0
-77 -473 0
145 -498 0
-216 -49 0
335 491 0
-366 -375 0
499 139 0
-15 162 0
230 170 0
64 -291 0
523 -249 0
80 109 0
50 -144 0
370 -366 0
-1 479 0
-166 506 0
-182 -147 0
-262 241 0
-245 429 0
-277 -522 0
113 -150 0
-2 -380 0
-276 362 0
-76 -337 0
-197 -256 0
104 -502 0
-390 -177 0
362 -477 0
143 318 0
-158 -262 0
-137 462 0
181 -166 0
322 419 0
82 342 0
291 211 0
-406 322 0
300 -412 0
-16 157 0
-216 9 0
-78 -363 0
-477 -128 0
-458 -280 0
-523 -46 0
33 -66 0
66 326 0
165 -351 0
-98 -266 0
281 -181 0
5 121 0
-176 -300 0
-237 473 0
-264 -89 0
-144 -323 0
-39 444 0
239 -377 0
492 359 0
-415 -399 0
486 476 0
-61 -21 0
96 297 0
-192 -264 0
502 -119 0
416 194 0
-1 431 0
358 -90 0
508 236 0
432 -289 0
-508 -163 0
315 -212 0
287 -158 0
-141 -400 0
465 134 0
459 -155 0
-136 85 0
-351 -406 0
234 -253 0
-390 -319 0
495 389 0
25 275 0
-225 -48 0
-26 -337 0
271 116 0
-427 -331 0
270 383 0
-377 518 0
81 -154 0
165 144 0
-472 333 0
190 394 0
61 230 0
-203 520 0
-174 -344 0
68 282 0
479 -476 0
-293 490 0
-167 513 0
491 -331 0
421 95 0
-510 -298 0
-458 -483 0
-349 -16 0
-80 145 0
-283 365 0
227 -15 0
86 520 0
7 42 0
456 49 0
-133 -287 0
488 -271 0
32 415 0
-295 504 0
66 -63 0
-339 337 0
386 508 0
318 -402 0
-7 -260 0
148 167 0
-302 214 0
-368 139 0
-417 -515 0
-377 511 0
137 434 0
-26 -377 0
511 200 0
345 450 0
-378 -105 0
205 251 0
-323 286 0
315 -175 0
452 172 0
167 -212 0
433 -309 0
-131 348 0
-86 403 0
386 336 0
-72 524 0
383 -483 0
247 -444 0
272 -29 0
-154 520 0
7 493 0
416 495 0
-306 -320 0
-384 28 0
-443 -242 0
-288 163 0
-95 -274 0
19 431 0
-248 -25 0
-135 6 0
397 -122 0
234 -358 0
253 5 0
-202 -454 0
264 -302 0
-197 -138 0
252 -330 0
-355 -473 0
-437 -168 0
413 -278 0
93 214 0
55 -292 0
307 -515 0
-193 492 0
-149 -44 0
-214 -358 0
-398 -237 0
-395 501 0
452 -494 0
-453 -112 0
17 365 0
-98 -201 0
-406 -509 0
-466 -464 0
-167 218 0
-201 198 0
4 -295 0
-25 -420 0
410 346 0
45 232 0
-485 173 0
-140 -402 0
184 -460 0
-304 -284 0
104 288 0
-385 178 0
-338 241 0
511 95 0
42 -156 0
299 -88 0
462 -239 0
275 149 0
178 -248 0
-103 -282 0
-222 104 0
45 -17 0
-350 -103 0
360 322 0
110 -356 0
-383 -326 0
130 448 0
50 -498 0
-408 -214 0
-125 426 0
-304 -381 0
481 225 0
-111 487 0
-368 -187 0
427 -418 0
315 -346 0
461 72 0
247 506 0
451 443 0
-464 -156 0
385 -205 0
-477 132 0
308 -40 0
267 458 0
79 350 0
407 171 0
83 -457 0
39 84 0
-64 -441 0
-363 300 0
-105 429 0
206 -81 0
75 -167 0
-125 -149 0
-222 353 0
-193 -183 0
311 47 0
-320 45 0
427 -426 0
123 -192 0
165 -36 0
-163 388 0
-173 54 0
-20 -283 0
134 -516 0
-158 -199 0
78 -201 0
-200 199 0
-254 -302 0
-397 -404 0
-180 66 0
165 -394 0
-241 365 0
-240 73 0
187 -288 0
-471 79 0
73 -503 0
451 311 0
-476 -76 0
116 -167 0
478 -400 0
433 210 0
-218 -347 0
-487 -361 0
83 -488 0
-477 -427 0
30 -454 0
-515 -146 0
-171 -360 0
-458 -319 0
-472 308 0
-125 -352 0
-129 -70 0
371 69 0
342 -522 0
-482 -79 0
-277 462 0
448 -209 0
-482 320 0
109 -371 0
304 -415 0
324 410 0
-314 458 0
-377 75 0
487 35 0
-202 436 0
171 47 0
-36 -141 0
-246 -447 0
268 -92 0
-291 187 0
309 -247 0
5 525 0
185 -512 0
-296 -476 0
-105 -318 0
-12 62 0
76 245 0
-128 357 0
-341 -387 0
383 348 0
359 123 0
455 526 0
310 -313 0
-11 189 0
338 -420 0
-194 375 0
-368 -216 0
-10 -229 0
-134 -253 0
-101 277 0
-198 433 0
274 299 0
266 101 0
469 -43 0
22 445 0
-502 259 0
151 194 0
47 149 0
-481 -323 0
-427 127 0
38 -415 0
362 141 0
169 -280 0
152 301 0
-292 -146 0
-512 -497 0
271 117 0
-195 290 0
-300 -8 0
-64 -525 0
-216 68 0
-425 -78 0
113 -41 0
-75 -78 0
-111 -402 0
85 -479 0
308 -318 0
-239 106 0
-516 224 0
-470 21 0
83 -208 0
141 259 0
-397 -217 0
406 27 0
-77 210 0
217 -358 0
-61 490 0
-400 -447 0
433 222 0
418 -343 0
365 85 0
-173 -472 0
358 396 0
-245 -67 0
-514 205 0
359 -58 0
-406 -339 0
-125 333 0
235 -260 0
111 257 0
214 416 0
-119 164 0
208 -10 0
207 100 0
-496 -368 0
-319 -470 0
475 -210 0
-485 242 0
-108 203 0
259 505 0
294 -406 0
-47 -78 0
474 298 0
-517 -160 0
-17 225 0
-144 -426 0
184 -312 0
-363 -401 0
448 315 0
-307 487 0
-276 332 0
-280 232 0
-290 -103 0
140 76 0
130 -166 0
-331 -326 0
-317 -17 0
322 14 0
424 -417 0
-341 -509 0
4 210 0
386 -454 0
-51 374 0
-93 255 0
410 -283 0
-51 -268 0
298 -439 0
109 378 0
-502 -251 0
-449 -218 0
-59 -423 0
-392 491 0
60 -221 0
-90 -44 0
-11 198 0
-469 -183 0
359 -286 0
354 -177 0
259 205 0
23 116 0
-278 147 0
-223 -323 0
120 238 0
-525 213 0
197 157 0
-352 -212 0
-88 34 0
-44 -122 0
226 323 0
170 34 0
-180 294 0
-3 196 0
91 446 0
516 -195 0
525 -288 0
-278 -471 0
414 227 0
-142 346 0
82 54 0
-335 -193 0
255 -253 0
505 26 0
443 -412 0
284 62 0
158 102 0
281 438 0
317 -141 0
-516 124 0
241 25 0
-291 -259 0
369 -472 0
-364 -454 0
-75 358 0
48 45 0
-43 511 0
110 -285 0
448 -517 0
-281 -369 0
6 102 0
-82 -51 0
-331 -333 0
-422 -381 0
30 -222 0
475 -515 0
423 492 0
-38 -281 0
311 -305 0
-522 57 0
-63 -138 0
-52 -319 0
245 -90 0
461 -92 0
-432 -480 0
209 -368 0
-433 233 0
-266 501 0
-169 294 0
-331 -349 0
392 225 0
-457 -209 0
137 -205 0
347 -2 0
262 410 0
172 270 0
207 483 0
-426 27 0
28 449 0
460 -43 0
346 230 0
174 -390 0
