c bounds 327 327
p cnf 573 286
464 16 0
-561 467 0
-401 114 0
292 342 0
-323 377 0
-41 -175 0
-172 426 0
-450 312 0
370 -531 0
472 213 0
-142 464 0
29 -108 0
-211 349 0
284 -443 0
-412 -274 0
-207 263 0
549 235 0
-67 -455 0
-500 -396 0
-285 -62 0
112 182 0
298 -343 0
-40 -140 0
-256 -177 0
563 -315 0
364 504 0
206 524 0
-562 -474 0
-22 -455 0
64 -253 0
267 238 0
232 540 0
197 -430 0
140 11 0
203 -88 0
-346 -368 0
567 222 0
-419 -276 0
310 -219 0
398 -11 0
-521 -291 0
-252 -76 0
325 -214 0
-137 -395 0
-428 549 0
217 265 0
-414 -92 0
67 -304 0
-454 213 0
65 11 0
-205 -504 0
166 -64 0
315 2 0
-397 201 0
-276 -430 0
-158 -424 0
-163 -333 0
544 409 0
-42 71 0
222 -440 0
12 -21 0
510 -343 0
-335 385 0
-56 285 0
52 434 0
551 -521 0
476 138 0
117 283 0
-101 572 0
-191 -331 0
-376 136 0
33 -371 0
-488 -514 0
486 -233 0
239 405 0
196 -503 0
228 -203 0
199 125 0
327 520 0
543 299 0
178 504 0
386 -119 0
546 292 0
227 552 0
-56 -78 0
529 507 0
-338 122 0
129 -449 0
-245 -395 0
-308 96 0
140 -405 0
-279 -278 0
98 -232 0
251 -307 0
459 195 0
327 77 0
-124 75 0
-172 209 0
-230 -114 0
-176 -291 0
-36 -57 0
-157 -423 0
244 560 0
-497 -134 0
-424 506 0
-423 233 0
171 284 0
-287 -302 0
-438 350 0
-468 196 0
-274 132 0
-220 473 0
399 -319 0
-105 376 0
-133 548 0
109 -375 0
370 -377 0
489 418 0
-181 386 0
206 -306 0
-490 -17 0
-99 -44 0
-218 393 0
-311 -573 0
-216 -373 0
-436 -218 0
-218 485 0
-22 -39 0
-553 440 0
101 -320 0
109 283 0
-64 -337 0
-388 -357 0
358 365 0
257 -324 0
527 -353 0
-283 240 0
-133 -348 0
133 -302 0
-208 314 0
213 65 0
-324 -18 0
84 -247 0
-41 242 0
-412 -351 0
451 -477 0
-102 -12 0
-226 -341 0
150 -296 0
-18 332 0
-296 -328 0
159 -276 0
229 137 0
-121 150 0
-287 -242 0
447 376 0
-416 -564 0
534 148 0
122 -362 0
357 -119 0
39 -62 0
-211 46 0
241 549 0
319 -323 0
-80 -417 0
370 65 0
273 -533 0
-324 -88 0
-300 -530 0
81 260 0
392 -252 0
418 -188 0
287 -205 0
-79 17 0
-115 211 0
196 -407 0
-320 111 0
-237 -306 0
151 410 0
88 -551 0
71 85 0
-353 -31 0
222 -201 0
541 -544 0
-502 148 0
221 135 0
-308 -471 0
-482 -497 0
128 -435 0
-252 -13 0
-412 526 0
-15 69 0
-508 -491 0
332 355 0
90 7 0
219 334 0
298 -527 0
-134 -155 0
367 571 0
378 421 0
-313 392 0
244 -103 0
285 495 0
561 493 0
-52 -103 0
-53 -272 0
335 287 0
256 159 0
167 252 0
20 127 0
-342 -149 0
97 246 0
-329 78 0
38 -448 0
-262 -169 0
-307 124 0
-9 152 0
256 -297 0
-441 359 0
-393 -190 0
-220 69 0
126 -266 0
318 -374 0
12 506 0
218 256 0
263 554 0
-217 422 0
535 -464 0
124 540 0
-148 -311 0
317 -378 0
-397 550 0
-23 -528 0
-201 164 0
-514 93 0
387 -287 0
-351 369 0
64 -298 0
-448 -145 0
-508 -265 0
44 -311 0
-373 -516 0
-53 309 0
284 -217 0
363 -4 0
506 -320 0
267 -146 0
-209 -107 0
235 538 0
150 -155 0
-210 -525 0
-475 -493 0
-245 -91 0
296 446 0
429 -335 0
172 -514 0
-442 -443 0
-366 97 0
-56 -344 0
-172 -135 0
37 -474 0
-265 326 0
-127 -23 0
113 -29 0
34 305 0
553 -208 0
187 453 0
453 -550 0
-397 452 0
369 -257 0
-53 337 0
-101 559 0
-141 569 0
196 -466 0
194 -117 0
-253 270 0
-395 432 0
249 -395 0
-525 -254 0
348 307 0
183 -224 0
278 -406 0
-192 270 0
-22 268 0
402 -514 0
315 -525 0
