c bounds 165 165
p cnf 431 394
248 -374 0
160 116 0
74 379 0
-344 -132 0
136 -42 0
-377 116 0
360 -403 0
-203 225 0
219 144 0
-327 258 0
268 17 0
389 -121 0
400 130 0
322 276 0
-160 -4 0
-406 288 0
-92 -427 0
355 -376 0
243 219 0
336 -103 0
220 80 0
120 -363 0
395 -372 0
300 -307 0
429 -193 0
-329 427 0
-131 217 0
-395 185 0
345 -24 0
-239 -165 0
63 224 0
371 -191 0
-104 -305 0
342 -34 0
-373 -418 0
-418 55 0
186 -364 0
-49 -403 0
119 101 0
-49 404 0
61 315 0
153 122 0
199 312 0
266 8 0
-91 -190 0
-430 -295 0
141 -394 0
-107 75 0
-143 -403 0
-66 -407 0
360 -377 0
-172 297 0
85 -405 0
234 250 0
-363 -49 0
406 -373 0
79 408 0
-331 -282 0
-410 -80 0
-168 -298 0
-398 281 0
-129 389 0
-377 150 0
-220 185 0
180 369 0
-64 410 0
320 -252 0
240 -144 0
-220 -37 0
-98 240 0
-16 -429 0
-39 -8 0
-305 227 0
-123 -268 0
124 -331 0
57 -311 0
-220 -205 0
-109 424 0
69 49 0
-383 -109 0
243 281 0
362 -308 0
-47 283 0
-39 -401 0
61 412 0
240 -369 0
-307 48 0
-53 325 0
-104 -94 0
31 -165 0
161 -255 0
-226 -52 0
8 125 0
63 -35 0
-334 -282 0
-388 180 0
252 346 0
-310 -125 0
400 396 0
-91 -140 0
-26 -123 0
211 -224 0
265 315 0
72 -191 0
-136 -298 0
109 -38 0
-235 -303 0
268 -204 0
318 -177 0
78 -108 0
244 70 0
-168 218 0
-160 -109 0
23 -117 0
320 31 0
351 -154 0
-131 -62 0
-247 200 0
-402 38 0
-167 -399 0
-187 230 0
120 -326 0
-77 -67 0
-144 -277 0
-73 171 0
-377 -205 0
116 -336 0
-150 5 0
286 -262 0
199 -299 0
-264 120 0
-410 -280 0
31 -308 0
-277 23 0
-364 -1 0
382 132 0
-120 56 0
-396 -269 0
50 -27 0
-116 162 0
-64 -368 0
-184 -390 0
-350 -196 0
56 235 0
-11 -246 0
-282 -312 0
79 388 0
-370 -20 0
217 -72 0
-272 426 0
-351 -314 0
-34 68 0
218 -47 0
381 -148 0
382 319 0
25 100 0
120 13 0
141 -302 0
36 -341 0
-17 -269 0
-359 -86 0
-179 -53 0
232 387 0
361 289 0
-312 -86 0
-143 -254 0
-177 414 0
116 141 0
-361 -31 0
-75 17 0
139 -325 0
369 55 0
142 -347 0
421 177 0
40 -339 0
120 280 0
-313 -215 0
327 15 0
-41 -16 0
80 37 0
-293 255 0
-34 402 0
-44 -180 0
-365 -217 0
-146 -66 0
252 -63 0
418 -115 0
414 58 0
17 -394 0
-40 224 0
-422 -162 0
385 -143 0
411 83 0
-329 251 0
16 32 0
-371 79 0
48 -74 0
-72 -115 0
315 408 0
177 225 0
-353 -37 0
233 -169 0
37 -290 0
-261 -410 0
-391 -244 0
-196 25 0
-314 179 0
391 -242 0
98 -169 0
383 -155 0
278 -152 0
-349 286 0
-341 -162 0
255 -31 0
271 420 0
-189 -14 0
248 241 0
-401 318 0
183 -50 0
-72 -178 0
152 225 0
372 66 0
-357 218 0
-228 -260 0
-201 -51 0
-202 56 0
-318 5 0
392 -299 0
67 -241 0
-261 -293 0
163 -323 0
71 -2 0
-263 150 0
313 -233 0
-229 188 0
-115 -219 0
180 -59 0
193 213 0
9 -427 0
-304 183 0
-413 32 0
130 -376 0
-384 45 0
276 320 0
144 -143 0
-184 -339 0
-392 159 0
237 -351 0
-195 -29 0
-410 -97 0
-336 418 0
-354 374 0
-357 67 0
148 152 0
-10 -228 0
413 403 0
-403 -38 0
-220 -188 0
32 80 0
331 222 0
350 -71 0
-417 162 0
-126 -92 0
246 294 0
-311 -340 0
-214 -253 0
-298 -101 0
356 -14 0
-163 -289 0
-336 392 0
-417 -343 0
424 -134 0
321 -53 0
-55 63 0
381 -371 0
9 -269 0
-26 -393 0
33 82 0
124 -342 0
-287 -163 0
187 254 0
32 -7 0
-330 203 0
-186 139 0
117 -405 0
-113 -398 0
34 99 0
-299 141 0
49 -94 0
56 36 0
-392 -146 0
218 -268 0
358 -351 0
-282 -156 0
80 -265 0
-145 -398 0
363 345 0
-41 312 0
276 408 0
-189 -321 0
32 -420 0
-94 10 0
365 326 0
381 82 0
-410 -228 0
-415 352 0
-189 91 0
246 134 0
63 369 0
320 32 0
214 -275 0
-72 320 0
251 234 0
-170 -389 0
300 -342 0
-30 142 0
-112 369 0
-200 -239 0
15 29 0
266 -269 0
389 -327 0
-299 -50 0
-399 -7 0
-312 -188 0
58 -323 0
-3 263 0
-430 210 0
-14 -154 0
-134 234 0
424 -71 0
-299 231 0
-86 307 0
-384 286 0
-294 -89 0
227 -11 0
-191 -151 0
266 -104 0
90 237 0
-307 305 0
70 -133 0
254 356 0
62 187 0
330 -399 0
-323 -205 0
281 -399 0
-378 148 0
-256 266 0
217 -30 0
-30 332 0
-401 125 0
-47 -109 0
-338 430 0
297 344 0
-39 -44 0
-91 390 0
-5 -409 0
-136 -98 0
-326 -87 0
-81 -6 0
332 415 0
-217 187 0
370 -181 0
158 -357 0
15 275 0
-314 155 0
-43 -126 0
216 296 0
-12 -169 0
35 -60 0
-336 -347 0
-11 -124 0
-186 96 0
-193 17 0
-296 246 0
-215 95 0
111 249 0
164 -283 0
-333 145 0
-64 -414 0
300 -121 0
-94 -160 0
421 76 0
-5 261 0
-373 -11 0
-155 67 0
-134 239 0
-204 -89 0
402 236 0
17 92 0
-11 282 0
180 174 0
-204 -273 0
17 -167 0
-354 -422 0
