c bounds 89 137
p cnf 1000 2569
979 727 0
-689 -991 0
-272 220 0
980 281 0
-692 -13 0
-757 267 0
-768 -681 0
432 440 0
-539 -852 0
-917 -754 0
530 -279 0
-178 -845 0
-442 46 0
-616 382 0
908 493 0
-266 564 0
510 629 0
656 696 0
773 417 0
960 -185 0
-663 85 0
-692 -178 0
-444 843 0
-429 -733 0
-624 738 0
-270 160 0
-898 796 0
753 -311 0
769 351 0
232 -132 0
-94 411 0
-389 725 0
-266 150 0
126 -873 0
42 -550 0
-193 259 0
556 560 0
-550 316 0
665 275 0
-416 716 0
797 366 0
-344 -187 0
-830 304 0
-207 -343 0
840 662 0
-404 943 0
863 183 0
789 -748 0
-703 609 0
38 133 0
-714 -31 0
303 -836 0
556 -316 0
415 963 0
180 -261 0
88 652 0
769 -128 0
8 -658 0
316 302 0
-382 -698 0
651 250 0
-450 442 0
-815 -162 0
-916 823 0
689 10 0
-890 -766 0
888 649 0
-837 -276 0
-900 -456 0
-202 -848 0
-569 -429 0
-142 -368 0
-760 920 0
557 -400 0
796 -686 0
926 891 0
512 -641 0
-46 -527 0
-529 161 0
594 -851 0
97 760 0
852 359 0
-78 81 0
-234 -433 0
514 -566 0
664 395 0
-777 -963 0
471 -508 0
814 -66 0
804 -570 0
-316 -485 0
959 396 0
419 234 0
423 638 0
-335 352 0
-931 -720 0
190 561 0
-124 -516 0
749 8 0
643 -846 0
-999 486 0
29 553 0
688 -375 0
-279 563 0
232 -546 0
-919 -298 0
5 535 0
517 -517 0
-326 487 0
254 -928 0
-913 118 0
495 -721 0
985 -28 0
-843 -788 0
971 -900 0
442 -375 0
349 979 0
-301 -998 0
427 -153 0
-641 -406 0
391 842 0
35 -645 0
361 -542 0
-289 772 0
-761 16 0
226 -28 0
526 -667 0
-209 -335 0
-776 -584 0
-59 -183 0
-753 393 0
-673 536 0
-839 -78 0
-874 -937 0
291 -529 0
-781 63 0
723 -397 0
724 47 0
87 607 0
-722 108 0
203 -898 0
-932 -901 0
-752 -637 0
-987 772 0
224 -387 0
-533 327 0
-473 5 0
-657 762 0
-459 -230 0
-951 248 0
535 546 0
-610 232 0
321 -232 0
737 879 0
-438 -434 0
1 -861 0
-423 893 0
176 -467 0
373 649 0
293 -745 0
865 413 0
999 -981 0
-568 -114 0
-316 -494 0
194 131 0
384 580 0
-837 -345 0
314 737 0
920 -887 0
-647 -905 0
603 -251 0
408 -168 0
915 938 0
-590 -877 0
-808 17 0
493 753 0
-992 195 0
-480 686 0
962 25 0
174 -556 0
-478 -124 0
865 -513 0
765 581 0
889 499 0
-108 451 0
604 -125 0
852 -566 0
-4 -683 0
292 -875 0
-187 835 0
-567 -43 0
956 818 0
615 -807 0
749 808 0
-84 -301 0
-180 -129 0
931 -851 0
-509 -233 0
389 525 0
-830 -622 0
787 892 0
431 -957 0
512 -859 0
602 -567 0
-491 820 0
719 -702 0
376 -844 0
-6 -299 0
70 918 0
-848 -775 0
-577 371 0
492 -74 0
-945 566 0
-74 -509 0
308 -167 0
-228 345 0
176 839 0
-77 -475 0
963 -296 0
-187 -748 0
53 398 0
-433 344 0
-922 714 0
377 -565 0
700 -875 0
409 -323 0
908 731 0
-733 898 0
709 -338 0
900 -526 0
-513 -14 0
292 -751 0
-389 654 0
386 299 0
-499 289 0
830 -427 0
-160 -4 0
-236 -985 0
-832 65 0
986 853 0
-311 -827 0
321 -701 0
-136 780 0
-653 281 0
271 -473 0
130 483 0
-798 522 0
306 456 0
-476 -356 0
-354 763 0
95 141 0
395 833 0
-822 841 0
349 -763 0
-678 -627 0
169 633 0
-94 979 0
446 -363 0
-45 926 0
-227 685 0
986 -532 0
-123 -416 0
98 371 0
-444 984 0
377 179 0
-865 -356 0
782 83 0
-661 -570 0
-317 -169 0
-374 264 0
-836 108 0
98 263 0
859 288 0
-103 -981 0
267 -1 0
-71 317 0
-249 37 0
-7 239 0
-334 878 0
482 -827 0
-622 560 0
-237 -138 0
-646 -827 0
-569 -724 0
-987 436 0
-645 -941 0
248 595 0
398 562 0
576 59 0
-505 -264 0
410 -408 0
777 -14 0
315 985 0
-28 198 0
-348 -306 0
86 73 0
-102 250 0
-879 385 0
361 -118 0
-966 511 0
29 819 0
-252 423 0
632 374 0
-191 -724 0
-500 668 0
646 -967 0
551 832 0
-670 688 0
-295 376 0
58 728 0
-197 208 0
222 -967 0
260 -945 0
773 -679 0
-911 664 0
-335 -454 0
467 252 0
752 580 0
-747 -828 0
-192 -468 0
677 316 0
-119 -346 0
687 947 0
-502 -430 0
-979 -791 0
-228 -78 0
803 -350 0
345 -257 0
705 599 0
408 501 0
-76 386 0
95 87 0
82 -794 0
871 -923 0
-114 230 0
242 646 0
-766 -890 0
-496 96 0
-916 -538 0
-601 -259 0
-637 -562 0
-160 -693 0
950 262 0
209 330 0
-755 857 0
-894 -929 0
403 737 0
-662 507 0
943 227 0
-267 -590 0
525 816 0
-223 -572 0
894 813 0
-211 847 0
439 -514 0
245 -525 0
104 -13 0
694 708 0
148 -806 0
635 -533 0
-59 888 0
819 -276 0
375 -721 0
-28 875 0
-845 -923 0
6 -106 0
-902 887 0
-574 965 0
727 688 0
-861 -857 0
70 304 0
379 830 0
734 -427 0
-451 -970 0
-590 964 0
144 206 0
-1 362 0
196 192 0
-703 -314 0
950 626 0
530 628 0
682 310 0
395 887 0
-570 158 0
-172 934 0
365 70 0
-964 411 0
499 79 0
-673 -590 0
347 -84 0
-872 -585 0
-489 -216 0
241 740 0
664 823 0
138 -1000 0
326 914 0
-346 708 0
-663 -246 0
-964 -890 0
-126 -276 0
-387 741 0
428 293 0
833 -566 0
-308 -56 0
442 698 0
796 -827 0
-566 -115 0
191 135 0
466 -550 0
-759 382 0
-452 744 0
345 -185 0
553 -945 0
232 -568 0
-99 -296 0
-97 946 0
576 -695 0
-118 978 0
753 -52 0
-876 -314 0
-39 239 0
825 -221 0
-542 -178 0
663 863 0
-825 961 0
-906 795 0
446 -818 0
-524 528 0
-747 -855 0
-38 -637 0
391 969 0
230 685 0
711 -209 0
-644 589 0
498 810 0
-442 -262 0
-826 385 0
126 563 0
592 971 0
-380 394 0
-551 -583 0
748 186 0
-407 644 0
-573 501 0
330 610 0
-532 188 0
58 6 0
-520 -498 0
255 633 0
571 445 0
-445 -659 0
-479 -653 0
-911 -562 0
514 -167 0
-36 753 0
-432 17 0
-989 691 0
-827 999 0
-627 161 0
741 -712 0
-297 -817 0
-987 -115 0
-475 -651 0
-399 -350 0
-180 -188 0
700 780 0
-460 -112 0
-567 294 0
-55 -314 0
-116 734 0
-639 -766 0
-545 568 0
953 -724 0
-796 -236 0
507 -653 0
-933 205 0
60 -116 0
340 -169 0
-559 -962 0
-380 -975 0
-222 88 0
-624 668 0
397 152 0
358 87 0
-577 85 0
-861 -864 0
155 303 0
-968 767 0
933 -43 0
104 367 0
308 -936 0
-697 -453 0
-257 -941 0
-674 796 0
-406 239 0
-614 -256 0
322 -71 0
-422 -174 0
989 -818 0
727 -105 0
949 -532 0
261 -549 0
-316 779 0
-569 206 0
-564 -399 0
143 -983 0
535 -762 0
962 -380 0
281 -614 0
19 -368 0
-1 182 0
193 121 0
-832 325 0
-197 -607 0
-756 -818 0
-917 80 0
-937 639 0
-249 -813 0
-265 783 0
663 696 0
-721 -56 0
812 -387 0
-683 424 0
751 589 0
-47 -979 0
587 -882 0
-969 32 0
628 -136 0
296 943 0
171 -657 0
-718 -751 0
171 323 0
546 -601 0
-936 -488 0
108 868 0
174 -66 0
-567 -79 0
-993 -950 0
594 630 0
-647 -856 0
18 -266 0
-405 -690 0
-22 341 0
300 930 0
-983 33 0
775 655 0
947 707 0
-488 103 0
503 69 0
472 680 0
-513 396 0
749 -75 0
16 566 0
-519 -535 0
235 -243 0
-322 796 0
-181 -844 0
-326 -973 0
-230 97 0
445 -276 0
-225 -537 0
-312 6 0
148 -489 0
-119 -709 0
444 700 0
863 471 0
-589 632 0
603 -667 0
469 763 0
-861 -577 0
-573 -75 0
320 106 0
149 773 0
-533 -644 0
-919 463 0
517 -78 0
-169 -54 0
402 -359 0
886 -746 0
758 487 0
-668 195 0
668 787 0
280 476 0
-164 -350 0
-3 21 0
283 431 0
-951 -624 0
-829 70 0
726 -731 0
570 704 0
-536 131 0
152 -435 0
495 -938 0
-416 -372 0
824 544 0
482 -356 0
-58 294 0
182 133 0
-639 587 0
-462 495 0
138 387 0
832 704 0
-13 -396 0
-521 106 0
462 -249 0
-448 409 0
-350 -636 0
978 -25 0
250 852 0
369 -826 0
253 -77 0
170 -867 0
789 402 0
516 26 0
-166 -246 0
-479 -730 0
-696 602 0
-780 453 0
464 400 0
-288 -328 0
598 61 0
-175 -766 0
924 195 0
81 505 0
226 -641 0
-30 200 0
935 811 0
300 -609 0
-53 -627 0
-565 857 0
235 278 0
166 -539 0
-745 82 0
-434 809 0
392 981 0
-794 -523 0
-626 -136 0
413 -529 0
-684 -824 0
-20 -843 0
834 -359 0
-430 -1 0
-552 887 0
816 -129 0
-815 149 0
-736 273 0
-567 513 0
374 -591 0
-257 869 0
566 -30 0
-387 935 0
-505 -920 0
-555 256 0
237 99 0
-977 -7 0
-351 382 0
423 -897 0
668 -589 0
930 -116 0
95 567 0
994 483 0
-660 862 0
-14 -553 0
743 268 0
-574 167 0
72 371 0
776 -671 0
-435 -540 0
829 -974 0
-762 263 0
-590 571 0
798 780 0
68 972 0
-967 595 0
-768 35 0
536 -46 0
518 -753 0
850 360 0
835 546 0
160 308 0
-156 696 0
373 491 0
134 397 0
852 785 0
-341 -578 0
832 531 0
125 97 0
-456 -479 0
109 -936 0
-279 271 0
-500 -823 0
895 322 0
-983 -319 0
983 -783 0
-167 -565 0
55 -793 0
559 911 0
581 -266 0
546 553 0
81 764 0
743 269 0
956 665 0
581 -508 0
343 968 0
-24 -383 0
348 922 0
795 -387 0
390 818 0
-354 -286 0
-270 -991 0
-623 998 0
105 595 0
523 870 0
950 -875 0
-912 -51 0
237 607 0
486 -900 0
292 -97 0
19 -435 0
282 -577 0
429 -112 0
-873 493 0
-907 -182 0
689 211 0
-718 -756 0
551 166 0
-299 -61 0
-992 -974 0
201 -45 0
-488 920 0
-199 -910 0
356 191 0
170 -71 0
775 -582 0
148 162 0
-977 -624 0
-741 586 0
972 -580 0
604 -824 0
-249 -721 0
563 105 0
790 -898 0
291 496 0
738 99 0
-652 -637 0
-377 86 0
-129 -755 0
-856 -456 0
113 205 0
-582 -373 0
-218 239 0
264 299 0
-13 406 0
1 -761 0
772 652 0
-706 950 0
627 66 0
-526 -1 0
-614 444 0
504 267 0
849 963 0
679 -976 0
790 14 0
-260 -55 0
-449 324 0
681 -981 0
770 227 0
150 964 0
-722 -830 0
-201 997 0
-419 -13 0
958 -463 0
924 -723 0
-430 -455 0
-436 -690 0
588 -317 0
492 780 0
926 -122 0
-681 -739 0
376 -644 0
870 632 0
45 -447 0
-80 -452 0
282 -693 0
-270 432 0
573 -89 0
397 893 0
25 -91 0
162 -79 0
320 -577 0
-128 -375 0
-448 268 0
-796 728 0
-1000 669 0
754 -610 0
192 337 0
-409 184 0
106 -541 0
889 -279 0
588 835 0
801 463 0
-983 869 0
424 423 0
-104 763 0
589 804 0
381 -987 0
100 366 0
-590 538 0
-75 410 0
935 308 0
372 -795 0
-541 -724 0
796 75 0
227 247 0
786 695 0
-350 530 0
280 382 0
872 306 0
-82 994 0
-399 470 0
-504 358 0
126 428 0
749 293 0
-229 958 0
-697 235 0
-364 49 0
427 176 0
-311 119 0
-998 710 0
580 292 0
-899 216 0
87 530 0
938 -496 0
684 -218 0
856 76 0
-280 141 0
27 442 0
612 -128 0
-855 854 0
57 141 0
-898 854 0
105 -35 0
634 183 0
-470 719 0
176 -465 0
649 361 0
-548 555 0
-447 73 0
413 393 0
-573 -613 0
-874 -269 0
975 -396 0
752 -754 0
-85 958 0
388 -916 0
-982 190 0
553 -826 0
-810 863 0
201 130 0
204 45 0
-417 645 0
453 190 0
29 -707 0
377 -315 0
-287 -206 0
-339 575 0
15 -569 0
200 -160 0
570 798 0
-280 -859 0
-430 -987 0
-649 476 0
-189 -721 0
-781 384 0
565 930 0
-842 978 0
-229 836 0
330 164 0
-111 -241 0
990 -396 0
453 224 0
241 558 0
-74 737 0
352 -423 0
-714 -73 0
-144 487 0
322 423 0
325 963 0
-75 403 0
-211 -933 0
-875 -224 0
-821 -672 0
-563 717 0
-389 714 0
-466 726 0
105 -633 0
-141 -585 0
601 -167 0
212 -644 0
351 186 0
269 -881 0
560 989 0
-553 708 0
-305 -40 0
-179 95 0
170 732 0
907 99 0
158 241 0
-745 -561 0
-266 601 0
-709 -953 0
100 -707 0
105 203 0
373 905 0
279 948 0
548 -325 0
526 895 0
-271 633 0
359 -416 0
-567 518 0
309 -260 0
155 709 0
467 576 0
-37 474 0
1 -630 0
634 817 0
-658 439 0
-165 873 0
27 714 0
-729 229 0
76 110 0
852 -813 0
970 435 0
115 203 0
243 -319 0
680 -811 0
-627 -421 0
-173 432 0
49 217 0
-344 -565 0
-519 -41 0
25 174 0
-754 355 0
393 -649 0
349 -901 0
785 -750 0
-134 -332 0
484 478 0
-616 -582 0
671 685 0
-363 959 0
-267 865 0
924 362 0
246 -805 0
291 -521 0
86 -683 0
246 677 0
-294 -332 0
635 942 0
669 526 0
-1000 -833 0
862 -962 0
871 -883 0
-459 563 0
-394 364 0
497 493 0
-429 -523 0
235 499 0
-928 282 0
-524 94 0
554 -780 0
146 -720 0
-229 -523 0
-229 628 0
681 -508 0
489 745 0
-197 786 0
315 509 0
-984 -350 0
-56 -553 0
309 -407 0
499 778 0
60 563 0
-473 215 0
-796 -966 0
-325 -761 0
658 -993 0
493 -831 0
370 286 0
-640 492 0
191 -479 0
877 362 0
507 670 0
737 -284 0
-760 -877 0
-85 -222 0
366 241 0
-11 -638 0
-939 -848 0
-514 -1 0
-925 -435 0
227 -561 0
-750 226 0
122 -228 0
401 -976 0
-792 -541 0
-501 -137 0
-573 719 0
232 -943 0
812 -846 0
880 948 0
-827 348 0
42 -85 0
-874 -937 0
-951 -575 0
670 127 0
-146 691 0
-488 -513 0
-556 -43 0
581 -114 0
774 935 0
602 -877 0
146 336 0
862 -266 0
-78 -182 0
153 741 0
-749 -937 0
857 -142 0
-222 -54 0
-535 200 0
-319 178 0
239 -156 0
887 -712 0
-354 244 0
-771 -742 0
357 491 0
347 795 0
666 -705 0
-647 288 0
-87 -115 0
-861 -590 0
668 350 0
-844 895 0
-512 557 0
882 -526 0
-863 -457 0
-752 245 0
948 -869 0
949 321 0
453 -887 0
271 896 0
753 -14 0
810 760 0
-55 -79 0
102 689 0
-594 -925 0
-720 898 0
-694 -309 0
327 999 0
-142 -899 0
-166 535 0
-252 -480 0
-188 598 0
603 -438 0
67 390 0
358 425 0
-240 -218 0
-960 410 0
891 -565 0
101 708 0
37 723 0
-523 896 0
898 -988 0
441 -560 0
-537 -350 0
67 -298 0
-822 234 0
21 252 0
-779 -457 0
-178 346 0
700 937 0
-254 -981 0
-285 546 0
-722 739 0
-250 464 0
-1000 -777 0
964 595 0
635 650 0
-679 -572 0
-967 -243 0
-107 -837 0
-62 366 0
-896 790 0
-153 -91 0
-553 321 0
825 -479 0
-438 431 0
271 588 0
-74 258 0
-652 103 0
-39 -967 0
594 -554 0
-966 65 0
-371 -781 0
-768 184 0
190 196 0
931 -178 0
602 519 0
-973 -620 0
524 39 0
381 -50 0
-780 -524 0
-193 440 0
-799 -900 0
911 -534 0
-260 870 0
809 580 0
868 -2 0
805 -124 0
943 824 0
-729 320 0
477 -300 0
-533 -744 0
-309 -783 0
540 540 0
893 662 0
-636 -525 0
-139 450 0
690 -309 0
952 -105 0
277 152 0
914 296 0
-475 18 0
-73 184 0
-139 714 0
-876 361 0
536 392 0
-615 -228 0
555 -348 0
798 -822 0
814 -751 0
959 -861 0
947 620 0
-252 714 0
566 -526 0
-788 -444 0
578 -231 0
-413 935 0
-36 222 0
-226 -424 0
-924 487 0
-748 -183 0
414 103 0
-399 502 0
-59 -72 0
-643 852 0
-567 -400 0
226 144 0
-830 752 0
783 35 0
255 141 0
733 402 0
174 -906 0
619 -335 0
-659 575 0
-140 -637 0
302 540 0
126 -176 0
850 815 0
-530 -494 0
395 467 0
320 -137 0
-712 -104 0
439 993 0
-427 -610 0
-317 -206 0
-495 -718 0
-815 -291 0
-566 190 0
437 318 0
464 -639 0
780 -148 0
797 -570 0
-758 -515 0
597 518 0
864 442 0
8 -54 0
512 283 0
772 89 0
-659 -112 0
-132 -502 0
-78 -938 0
744 167 0
370 -878 0
-31 760 0
-206 538 0
-515 -794 0
649 -179 0
-217 960 0
246 902 0
-458 -620 0
353 -54 0
-478 210 0
-188 943 0
551 255 0
587 470 0
298 507 0
307 -14 0
769 651 0
702 -59 0
-855 797 0
-407 393 0
-520 443 0
-45 -455 0
50 -830 0
-260 100 0
-210 -881 0
263 -622 0
25 -381 0
23 902 0
291 597 0
255 -891 0
745 183 0
-822 27 0
-178 -783 0
-177 -791 0
-986 410 0
787 926 0
328 182 0
-424 415 0
-206 674 0
628 265 0
140 620 0
-609 -929 0
-364 -435 0
-886 53 0
637 -626 0
-286 787 0
277 526 0
512 121 0
-91 -908 0
122 734 0
-758 -132 0
-851 -519 0
745 -746 0
-155 -257 0
393 -582 0
700 66 0
29 432 0
-459 -821 0
16 -753 0
700 -338 0
-569 535 0
20 -417 0
708 441 0
-757 240 0
963 -795 0
-178 373 0
896 440 0
707 -622 0
392 -289 0
753 333 0
932 -827 0
-709 606 0
333 -777 0
-279 -513 0
-84 -738 0
715 -818 0
19 -461 0
-74 193 0
303 -679 0
924 844 0
782 670 0
256 833 0
-955 -583 0
670 -881 0
409 -301 0
927 -504 0
917 130 0
642 -914 0
131 191 0
-272 -801 0
-197 -968 0
16 411 0
93 21 0
198 -233 0
-364 920 0
-218 -934 0
864 -50 0
-683 560 0
276 392 0
935 -246 0
-751 -273 0
642 -485 0
812 -956 0
384 525 0
546 175 0
-996 -85 0
-596 -920 0
671 -64 0
120 430 0
240 907 0
-224 118 0
-547 109 0
46 -503 0
-424 490 0
634 444 0
-231 -107 0
-41 700 0
682 -785 0
124 -578 0
634 549 0
816 -645 0
148 -133 0
-460 816 0
715 13 0
666 623 0
727 692 0
665 -699 0
133 -494 0
-166 -356 0
395 -102 0
424 492 0
441 621 0
-160 786 0
440 -916 0
176 732 0
710 922 0
535 -196 0
-354 -215 0
-351 -858 0
-69 -85 0
631 355 0
313 931 0
-658 -577 0
-117 -626 0
-650 797 0
398 729 0
964 49 0
678 142 0
-502 86 0
700 -720 0
-807 -428 0
175 -926 0
-750 -80 0
501 949 0
-348 -244 0
-281 -747 0
-655 -141 0
621 -741 0
-455 93 0
-854 737 0
-55 686 0
955 195 0
234 -529 0
-506 309 0
-887 -532 0
-188 -720 0
-512 365 0
-485 877 0
-646 141 0
-258 135 0
150 -41 0
221 242 0
-687 -153 0
-662 -951 0
-981 329 0
136 -74 0
331 -139 0
-973 -613 0
-843 85 0
-136 -163 0
674 -964 0
121 342 0
164 692 0
226 -933 0
367 -770 0
-178 -238 0
715 707 0
-410 880 0
813 -936 0
344 -619 0
16 906 0
-36 738 0
-718 -341 0
-309 -791 0
-112 -565 0
810 -921 0
297 580 0
46 -561 0
714 -886 0
-516 835 0
-79 -829 0
-427 679 0
-389 956 0
-203 -945 0
812 -439 0
-159 -561 0
-222 -199 0
217 -74 0
855 682 0
76 -528 0
540 947 0
537 -168 0
880 111 0
507 -749 0
-837 401 0
956 -641 0
-175 635 0
321 664 0
321 -520 0
11 902 0
979 632 0
-627 -695 0
874 666 0
-967 -371 0
764 -318 0
-59 443 0
614 700 0
-701 251 0
-166 -297 0
-109 -348 0
685 888 0
-56 -931 0
255 -788 0
972 774 0
-256 -758 0
-551 905 0
-729 604 0
-466 -387 0
-793 103 0
363 775 0
-525 -219 0
-757 -508 0
-567 268 0
998 -230 0
198 -432 0
-167 -821 0
-716 246 0
-427 -249 0
161 -522 0
-573 -338 0
75 -467 0
154 804 0
-818 -519 0
245 327 0
-14 900 0
676 -721 0
735 973 0
-180 -748 0
-945 2 0
475 -280 0
304 944 0
-985 -605 0
32 528 0
-55 -498 0
-115 927 0
-493 -596 0
999 -79 0
891 -220 0
-705 -139 0
463 -64 0
461 438 0
404 598 0
-417 345 0
-326 -184 0
-276 723 0
44 912 0
-536 -660 0
-426 27 0
-183 556 0
922 359 0
228 200 0
840 -867 0
785 -421 0
-438 -142 0
387 -549 0
-94 -704 0
234 -631 0
676 -116 0
-883 -352 0
-218 -414 0
595 337 0
-953 669 0
761 734 0
423 -647 0
-260 473 0
8 -229 0
782 -357 0
-284 977 0
-165 600 0
-475 505 0
736 214 0
-659 278 0
474 46 0
-756 980 0
-12 446 0
838 711 0
-929 282 0
763 28 0
443 -269 0
482 696 0
-426 -357 0
-914 -181 0
-148 210 0
500 -750 0
670 493 0
183 797 0
677 -632 0
552 -897 0
363 140 0
941 835 0
352 187 0
-851 -17 0
796 269 0
604 -493 0
-128 -173 0
688 -649 0
-406 101 0
711 -897 0
445 -214 0
631 372 0
170 -448 0
-721 -20 0
145 -399 0
971 948 0
942 678 0
-193 327 0
397 -111 0
-684 622 0
-59 -454 0
-305 79 0
690 72 0
691 -311 0
237 -746 0
640 -434 0
278 -51 0
-449 791 0
250 -299 0
525 -82 0
384 -62 0
-217 -374 0
347 401 0
-692 744 0
666 -617 0
-997 -323 0
-647 -395 0
-510 -15 0
-810 645 0
-570 -276 0
-834 -311 0
-968 -289 0
-566 -711 0
801 -939 0
-719 -660 0
-374 -922 0
573 -54 0
-128 -222 0
778 871 0
753 604 0
-382 443 0
-759 -657 0
-590 -80 0
-24 -45 0
-789 490 0
608 -713 0
563 580 0
-332 416 0
-543 378 0
3 694 0
746 -818 0
-917 11 0
411 -713 0
-31 645 0
696 277 0
700 478 0
403 -733 0
686 386 0
357 -781 0
-679 249 0
-284 -817 0
120 195 0
893 -151 0
819 974 0
-494 -575 0
173 103 0
-768 -433 0
838 -550 0
489 499 0
211 -394 0
-342 -332 0
889 687 0
66 437 0
-430 123 0
-252 -506 0
395 442 0
-219 808 0
155 -236 0
-709 650 0
811 65 0
693 939 0
958 -773 0
805 950 0
18 -914 0
-467 942 0
974 514 0
942 -861 0
-108 143 0
-172 -470 0
307 341 0
599 165 0
-167 490 0
-908 963 0
99 -40 0
-921 790 0
564 -45 0
-331 775 0
949 -414 0
855 291 0
-702 278 0
376 35 0
194 -79 0
589 -702 0
263 -134 0
645 30 0
-211 935 0
218 772 0
494 203 0
198 -707 0
-746 822 0
805 -236 0
384 902 0
-192 492 0
989 -311 0
773 -47 0
819 -537 0
497 435 0
-650 66 0
-221 -622 0
-825 296 0
-231 -91 0
-45 285 0
-142 685 0
961 891 0
985 -888 0
-747 -544 0
-440 511 0
-65 198 0
-41 304 0
-348 381 0
-638 -740 0
19 232 0
-399 -389 0
838 -681 0
138 717 0
-399 -988 0
550 -53 0
-884 217 0
-892 -579 0
-490 -821 0
59 -172 0
-462 -524 0
-592 -218 0
483 -890 0
575 -566 0
-390 -73 0
-22 801 0
-261 780 0
602 -640 0
-720 551 0
186 671 0
-743 -292 0
-795 540 0
765 34 0
-969 -631 0
645 446 0
-299 740 0
-237 -329 0
387 786 0
-668 -620 0
212 -70 0
967 -743 0
-223 -34 0
409 678 0
-330 242 0
938 -710 0
-786 760 0
371 -935 0
-43 -907 0
238 782 0
516 151 0
828 -822 0
-515 848 0
-940 345 0
252 -707 0
-34 441 0
799 492 0
-695 -878 0
496 -151 0
-858 -638 0
937 240 0
-118 797 0
201 -426 0
-224 39 0
734 334 0
-594 922 0
-967 371 0
-199 224 0
-348 455 0
-862 198 0
-706 690 0
-78 -298 0
-385 -340 0
153 -779 0
-348 -312 0
81 -458 0
-432 -64 0
-162 -733 0
857 -327 0
-84 811 0
322 200 0
-593 -184 0
-743 -585 0
-266 170 0
-41 678 0
544 -296 0
445 638 0
274 186 0
-317 -206 0
752 -978 0
200 692 0
-624 -749 0
-89 -640 0
365 -645 0
5 368 0
790 127 0
-286 -665 0
-483 -510 0
199 -459 0
-765 -886 0
-430 899 0
-63 -95 0
-69 -620 0
-875 386 0
-721 291 0
-390 -826 0
401 215 0
958 -447 0
363 888 0
369 -327 0
889 -939 0
-837 872 0
785 521 0
-904 -771 0
754 704 0
746 428 0
463 -691 0
-416 378 0
-923 -375 0
164 -412 0
634 -761 0
-5 -207 0
-211 720 0
-127 164 0
-657 -494 0
-74 666 0
322 198 0
-189 752 0
-357 -596 0
-163 -860 0
-162 69 0
-731 -34 0
-388 599 0
342 -284 0
986 39 0
440 75 0
441 869 0
-760 349 0
838 -515 0
749 343 0
-936 -368 0
428 -479 0
470 633 0
478 -803 0
-108 482 0
575 523 0
-628 544 0
474 851 0
726 303 0
853 894 0
-472 536 0
950 -876 0
-982 -573 0
-921 404 0
329 625 0
343 860 0
-112 -112 0
360 424 0
782 377 0
-374 499 0
-658 -279 0
379 351 0
-45 -907 0
251 727 0
-965 67 0
637 -936 0
802 -849 0
621 671 0
-157 550 0
-96 752 0
-235 832 0
-139 -205 0
-948 192 0
-842 556 0
-296 -427 0
-559 946 0
740 76 0
-534 802 0
331 461 0
-929 -835 0
902 -351 0
-790 -447 0
-876 -187 0
-756 -452 0
-930 -854 0
26 958 0
336 -270 0
-839 279 0
-701 -151 0
-185 -285 0
133 -230 0
26 -936 0
516 -309 0
138 -594 0
370 355 0
-145 19 0
332 908 0
-636 507 0
-976 665 0
-244 578 0
393 636 0
389 -713 0
-319 -546 0
-969 -657 0
-220 352 0
-153 604 0
796 962 0
-503 206 0
-366 263 0
352 681 0
387 373 0
205 -848 0
715 816 0
-578 -494 0
960 133 0
-354 -197 0
240 770 0
966 173 0
-990 555 0
978 160 0
-592 669 0
673 275 0
-199 913 0
-466 -648 0
512 -85 0
-289 -577 0
369 -142 0
-932 -969 0
157 401 0
410 837 0
706 723 0
-259 530 0
-637 -315 0
-918 -513 0
-353 -669 0
-529 829 0
-849 733 0
923 542 0
426 152 0
-714 23 0
664 -862 0
57 491 0
834 270 0
-532 -94 0
101 -635 0
15 -12 0
293 -706 0
119 956 0
693 911 0
-718 864 0
-979 715 0
144 -792 0
-583 -404 0
531 -193 0
-127 493 0
860 -927 0
-647 -714 0
-438 -917 0
255 740 0
420 -623 0
948 924 0
-496 140 0
712 476 0
-729 460 0
374 -845 0
-639 -793 0
871 512 0
548 -981 0
273 819 0
133 37 0
-183 -462 0
-111 398 0
360 -861 0
-992 439 0
654 -878 0
-629 29 0
131 -411 0
-641 -433 0
-567 -217 0
-913 163 0
-871 531 0
464 -872 0
-94 942 0
-954 -59 0
-494 496 0
-231 913 0
9 -748 0
138 -228 0
66 -98 0
347 173 0
-915 -919 0
292 -620 0
-639 -643 0
33 -166 0
794 -457 0
985 -369 0
952 -941 0
461 580 0
-897 -660 0
239 209 0
-678 769 0
-286 89 0
-648 372 0
-739 -54 0
904 37 0
-180 150 0
-493 -995 0
-321 -15 0
-323 -849 0
198 -993 0
-350 196 0
178 -332 0
118 833 0
235 -638 0
430 -114 0
-933 -521 0
515 -585 0
86 -353 0
544 -73 0
674 -630 0
631 165 0
309 928 0
628 89 0
293 -206 0
191 313 0
-509 18 0
-187 -225 0
47 486 0
-397 258 0
-477 -881 0
-186 366 0
-509 -973 0
-224 812 0
-230 -343 0
386 192 0
718 -644 0
-813 373 0
-220 -417 0
824 -867 0
-511 770 0
59 773 0
128 339 0
-123 46 0
894 425 0
-703 -354 0
-552 -914 0
-912 -3 0
49 868 0
-827 -179 0
-639 394 0
-64 -755 0
719 963 0
-569 621 0
402 -779 0
395 -533 0
306 742 0
-675 -381 0
646 294 0
-764 629 0
398 -730 0
-485 -565 0
329 -648 0
336 -515 0
11 -855 0
634 -218 0
176 -908 0
-828 969 0
174 -485 0
293 186 0
687 -78 0
-637 -310 0
154 616 0
-672 -849 0
693 -236 0
-317 -436 0
-468 -862 0
-375 -214 0
441 -779 0
-879 694 0
-149 257 0
-299 701 0
-849 -311 0
714 -533 0
873 -754 0
-683 2 0
-489 -395 0
-12 -12 0
-995 646 0
60 -955 0
-147 155 0
137 -90 0
197 376 0
-422 647 0
691 -912 0
333 -10 0
309 138 0
-380 -267 0
633 555 0
-684 -972 0
-329 -90 0
-55 723 0
618 -270 0
-988 -616 0
72 -946 0
23 -433 0
-845 -855 0
297 -801 0
330 -213 0
49 852 0
-726 -825 0
439 -657 0
844 -159 0
-332 -838 0
-447 542 0
160 -550 0
629 -136 0
652 27 0
631 -306 0
-353 -43 0
321 304 0
-276 -188 0
-271 476 0
799 803 0
-962 183 0
-731 -48 0
32 974 0
268 -992 0
-552 182 0
-22 656 0
772 775 0
-489 -444 0
-241 -494 0
-729 723 0
37 -925 0
727 841 0
-683 -395 0
-716 525 0
406 119 0
14 665 0
696 -169 0
109 -444 0
-795 -144 0
80 120 0
-585 -925 0
-614 714 0
977 384 0
516 -776 0
-90 -54 0
-318 -707 0
-375 242 0
-137 -573 0
-921 122 0
-805 191 0
-344 -48 0
730 -447 0
-619 105 0
212 -836 0
756 579 0
704 -663 0
-758 -604 0
-101 -836 0
-324 819 0
-178 952 0
-822 -475 0
278 -971 0
-907 974 0
734 378 0
-938 58 0
-904 -890 0
-470 741 0
82 305 0
-390 719 0
498 894 0
-919 588 0
-457 -229 0
-588 -112 0
-943 -826 0
-215 340 0
82 -425 0
-341 -672 0
-965 -353 0
978 -244 0
-327 823 0
853 -349 0
974 -774 0
-296 723 0
-180 366 0
415 752 0
-87 542 0
-698 546 0
514 -324 0
109 -255 0
442 469 0
150 -733 0
-754 -822 0
800 -299 0
-257 -962 0
-616 283 0
238 -988 0
255 -934 0
-114 714 0
725 868 0
-225 -312 0
-991 -129 0
500 -385 0
196 878 0
35 904 0
689 -702 0
919 711 0
654 738 0
-984 -48 0
161 -545 0
-698 620 0
656 -68 0
336 351 0
-568 -739 0
-276 -119 0
928 619 0
-364 937 0
994 645 0
-147 795 0
-699 288 0
-745 797 0
-255 -874 0
-584 -793 0
926 -596 0
98 -882 0
686 -540 0
586 -794 0
-991 104 0
-249 806 0
986 257 0
467 -866 0
-770 615 0
841 -910 0
349 -218 0
498 744 0
-433 -166 0
893 -216 0
-354 404 0
688 -692 0
21 352 0
937 -237 0
-895 -743 0
-917 880 0
-795 869 0
-3 489 0
-455 686 0
-30 927 0
-115 727 0
-699 -320 0
-51 548 0
-111 575 0
-793 741 0
-521 956 0
-364 -365 0
240 963 0
987 853 0
91 -13 0
-359 92 0
475 -61 0
-385 -638 0
65 -936 0
448 -395 0
760 -16 0
-507 29 0
615 -961 0
571 1 0
631 -496 0
984 938 0
-833 693 0
-552 -610 0
-907 86 0
726 -140 0
-832 -921 0
40 -348 0
-754 -327 0
-303 -681 0
-989 -90 0
-788 592 0
210 993 0
-921 281 0
540 -535 0
43 797 0
571 -134 0
852 -151 0
499 358 0
-287 -913 0
612 -129 0
-901 917 0
34 164 0
-791 303 0
293 -394 0
-111 400 0
-901 944 0
227 78 0
546 -203 0
-13 -878 0
290 433 0
403 129 0
-586 665 0
-61 507 0
674 -562 0
675 -431 0
302 -783 0
322 553 0
764 38 0
-265 164 0
138 -826 0
-747 67 0
-675 69 0
462 895 0
178 736 0
-78 -824 0
-839 -719 0
-911 806 0
556 475 0
-262 727 0
-639 342 0
-569 -40 0
468 355 0
813 -825 0
117 866 0
-502 507 0
-998 85 0
-969 -728 0
520 871 0
-400 327 0
663 -874 0
-580 668 0
-684 -815 0
775 -611 0
667 -605 0
-417 453 0
-12 -820 0
956 761 0
-22 -353 0
-14 -505 0
841 -177 0
-351 925 0
-297 -102 0
263 407 0
884 -324 0
-816 420 0
-12 264 0
291 592 0
512 568 0
-712 -912 0
879 -116 0
466 40 0
-758 903 0
240 894 0
-564 422 0
-545 -648 0
-620 77 0
-570 -441 0
650 393 0
-106 190 0
-169 -327 0
-940 907 0
693 -405 0
27 635 0
807 -506 0
499 93 0
424 -998 0
-582 -382 0
-489 77 0
614 -993 0
360 322 0
-477 -846 0
67 -686 0
25 423 0
-703 474 0
682 -514 0
-598 -220 0
-495 -416 0
467 -698 0
233 49 0
-436 -598 0
477 -317 0
471 -311 0
707 -915 0
-593 853 0
463 884 0
821 -64 0
-533 -151 0
-134 -55 0
-488 71 0
-288 148 0
721 -751 0
-138 -757 0
-4 -199 0
176 -364 0
-883 797 0
333 379 0
714 -964 0
642 97 0
-118 72 0
950 792 0
455 -543 0
500 -327 0
415 322 0
367 432 0
433 -584 0
-168 281 0
264 -56 0
-188 977 0
-680 150 0
875 -993 0
401 271 0
130 697 0
-702 -722 0
997 851 0
589 249 0
319 -257 0
-543 -760 0
417 446 0
-949 893 0
858 -586 0
39 -641 0
982 658 0
935 -781 0
499 307 0
708 965 0
-566 -804 0
650 863 0
-451 288 0
649 61 0
-543 -500 0
109 179 0
347 -914 0
481 927 0
-276 -386 0
886 810 0
-112 -910 0
-793 471 0
594 -594 0
-946 115 0
-399 72 0
-693 -955 0
-694 649 0
-561 -500 0
-34 -774 0
195 -349 0
83 550 0
248 525 0
-45 -31 0
-826 283 0
744 531 0
-569 -973 0
-673 -387 0
586 -986 0
-925 499 0
602 378 0
-753 580 0
-591 -488 0
829 628 0
-208 -153 0
732 766 0
289 957 0
-573 -319 0
16 -89 0
-51 -812 0
-284 465 0
-707 39 0
736 -526 0
-998 305 0
-372 198 0
-703 135 0
-670 575 0
287 -147 0
763 762 0
421 57 0
367 96 0
242 538 0
321 676 0
472 606 0
-179 -3 0
-636 -387 0
238 -910 0
658 -217 0
273 -396 0
-284 -374 0
-392 678 0
668 630 0
157 313 0
129 -720 0
-685 580 0
-570 -47 0
-913 -404 0
-986 340 0
-974 -739 0
626 -639 0
-451 -294 0
945 -907 0
-705 -193 0
-787 -408 0
820 247 0
-404 -979 0
-422 -19 0
453 -20 0
863 -198 0
-787 -149 0
-691 -351 0
471 -41 0
-740 -624 0
-684 -13 0
-166 995 0
186 -779 0
-652 159 0
670 -82 0
-77 -157 0
-964 89 0
628 634 0
442 889 0
869 -336 0
278 -219 0
850 687 0
390 739 0
27 -119 0
-22 -867 0
-7 -132 0
-203 -699 0
-683 -997 0
200 101 0
545 -909 0
573 677 0
-761 420 0
592 49 0
-192 -417 0
-375 -111 0
580 311 0
273 -748 0
586 11 0
-918 -838 0
-945 -511 0
-509 -714 0
813 125 0
864 935 0
490 -31 0
-781 49 0
-338 -648 0
-900 957 0
-694 -533 0
-848 -45 0
-535 95 0
54 800 0
190 -875 0
-582 530 0
-236 -573 0
254 -230 0
-387 216 0
-953 -400 0
-26 -565 0
-716 -697 0
-468 731 0
425 254 0
-14 -301 0
-278 398 0
-170 68 0
-327 559 0
-507 -87 0
418 -257 0
-897 -104 0
-73 -423 0
599 -420 0
-465 -345 0
-274 -337 0
-372 115 0
-389 661 0
-897 -681 0
703 -80 0
-380 -530 0
-698 -43 0
860 -996 0
-222 745 0
-424 226 0
-851 283 0
152 143 0
-770 798 0
141 575 0
-613 603 0
770 377 0
-740 93 0
133 473 0
-159 487 0
-458 130 0
443 -578 0
16 266 0
598 -59 0
-781 -789 0
57 248 0
-485 -618 0
-406 -876 0
-848 621 0
522 362 0
193 275 0
782 -107 0
-791 -382 0
196 106 0
271 -100 0
-122 -416 0
-54 672 0
29 362 0
-774 978 0
60 96 0
177 516 0
765 628 0
-438 -97 0
-738 820 0
737 11 0
-699 222 0
-43 -524 0
600 -12 0
130 -740 0
798 175 0
351 -156 0
-708 -783 0
382 291 0
6 -62 0
-966 928 0
379 677 0
-201 -694 0
719 226 0
588 770 0
618 -618 0
-85 710 0
618 -651 0
808 490 0
