c bounds 389 389
p cnf 763 460
272 281 0
-551 731 0
-667 -269 0
-535 9 0
-71 -616 0
392 490 0
50 727 0
-166 -140 0
-99 138 0
302 125 0
-133 -642 0
695 473 0
517 -247 0
-295 290 0
273 246 0
270 -199 0
152 699 0
-696 -305 0
711 595 0
12 -342 0
143 157 0
-174 -518 0
483 125 0
269 148 0
-677 229 0
-570 26 0
395 127 0
621 117 0
-691 -27 0
-433 745 0
-16 637 0
-350 -247 0
-650 -246 0
-124 30 0
503 617 0
-84 427 0
-312 23 0
395 -593 0
86 133 0
694 62 0
122 330 0
720 213 0
211 578 0
-709 -323 0
216 -404 0
-51 -413 0
34 369 0
47 331 0
442 409 0
60 447 0
53 478 0
-728 322 0
426 600 0
744 194 0
-101 130 0
-740 632 0
-301 -636 0
-720 -596 0
-640 -727 0
317 643 0
-90 -542 0
209 623 0
-352 700 0
717 -174 0
15 -281 0
348 -636 0
88 -534 0
500 -168 0
-210 -252 0
634 -360 0
221 21 0
538 -414 0
-448 -517 0
-752 -589 0
-99 100 0
-333 -449 0
-645 -483 0
605 -295 0
-619 615 0
376 192 0
43 -120 0
-488 371 0
-205 -36 0
506 -570 0
-709 400 0
588 182 0
388 611 0
-279 -266 0
61 688 0
531 232 0
372 -268 0
-74 -728 0
-762 718 0
504 -30 0
-342 605 0
184 -463 0
443 699 0
-145 553 0
591 -498 0
231 -182 0
332 -121 0
128 22 0
271 151 0
-246 -155 0
696 -110 0
-706 49 0
6 -147 0
-270 -730 0
380 -480 0
232 -259 0
706 341 0
347 -469 0
-377 -297 0
-618 60 0
150 199 0
357 -110 0
-602 -162 0
591 -172 0
273 -451 0
302 -502 0
292 -662 0
-91 -89 0
-377 102 0
520 481 0
650 165 0
79 -407 0
-595 661 0
-243 38 0
44 491 0
669 443 0
394 -729 0
-140 226 0
-516 -568 0
-725 736 0
485 -484 0
288 -322 0
385 12 0
-527 -685 0
-546 434 0
10 -260 0
-690 -695 0
-501 695 0
483 -38 0
696 228 0
172 138 0
-464 -597 0
-715 258 0
353 605 0
-519 121 0
-471 497 0
601 436 0
744 669 0
388 -298 0
350 -311 0
-161 455 0
-492 -425 0
-200 462 0
-310 325 0
714 698 0
87 -486 0
562 -342 0
745 -247 0
645 40 0
46 588 0
236 374 0
436 -481 0
-322 -616 0
-141 22 0
487 -498 0
531 -30 0
473 64 0
-561 -275 0
38 -429 0
-549 -279 0
-216 232 0
-584 -686 0
96 -479 0
243 -117 0
60 -758 0
-471 -679 0
500 437 0
612 644 0
-364 -548 0
416 -333 0
424 455 0
-104 -121 0
-495 723 0
-351 72 0
-639 193 0
677 -313 0
733 -408 0
-257 607 0
-171 569 0
13 -702 0
271 -438 0
655 226 0
25 -319 0
385 434 0
-396 664 0
-710 571 0
-248 391 0
112 -459 0
-564 -353 0
-552 232 0
349 -590 0
384 659 0
-679 179 0
20 762 0
-274 -291 0
-695 -330 0
-648 449 0
635 129 0
535 629 0
530 743 0
-168 -459 0
710 109 0
-172 -175 0
495 612 0
273 -102 0
-329 676 0
674 -269 0
759 264 0
638 -474 0
-719 -542 0
409 474 0
-16 758 0
-23 751 0
-352 -565 0
-335 -157 0
494 -74 0
583 601 0
-383 743 0
-705 -623 0
93 132 0
-410 -364 0
505 -752 0
-518 281 0
-89 400 0
201 -542 0
165 744 0
-31 132 0
-603 538 0
575 -139 0
229 -24 0
-598 388 0
626 -275 0
742 741 0
-340 289 0
60 -627 0
-386 -255 0
405 151 0
-88 -515 0
-448 167 0
302 -532 0
733 -616 0
65 -100 0
573 428 0
671 -495 0
123 172 0
-391 270 0
742 -499 0
533 -90 0
-248 33 0
-156 -698 0
376 -247 0
421 317 0
-607 742 0
-387 -425 0
-23 -381 0
-690 11 0
-171 -408 0
5 -602 0
-85 -463 0
219 28 0
372 217 0
-702 500 0
-353 496 0
-214 -684 0
506 338 0
-63 291 0
159 -750 0
684 428 0
-499 -476 0
754 -493 0
-565 229 0
612 -284 0
190 350 0
523 305 0
690 -713 0
-124 -157 0
-105 -388 0
176 579 0
280 173 0
366 -98 0
-375 20 0
-246 -282 0
377 15 0
-544 -154 0
-135 -26 0
-160 -139 0
120 575 0
-159 584 0
-366 9 0
95 -386 0
-640 -350 0
699 -544 0
-156 -273 0
388 -289 0
454 504 0
220 -330 0
-720 152 0
-88 604 0
503 -195 0
-38 545 0
682 -471 0
-154 -737 0
645 138 0
-567 -160 0
271 374 0
-462 743 0
-406 191 0
496 538 0
-326 50 0
-407 -469 0
-300 -476 0
-418 -377 0
-25 -21 0
430 624 0
511 -681 0
760 -656 0
617 -195 0
-186 456 0
-723 63 0
758 -609 0
-169 -736 0
-105 519 0
-738 367 0
691 -664 0
345 613 0
325 660 0
125 -236 0
-669 -653 0
214 -262 0
-17 -559 0
-645 661 0
-593 -250 0
482 -521 0
55 73 0
31 -587 0
-17 70 0
-579 64 0
242 331 0
518 -213 0
-757 -398 0
419 337 0
-429 28 0
-37 -182 0
-523 60 0
714 -4 0
244 254 0
-634 -584 0
-659 -27 0
-672 -96 0
566 528 0
-554 464 0
685 227 0
-755 170 0
401 753 0
759 736 0
-588 -457 0
314 -161 0
77 -431 0
233 150 0
-297 116 0
682 645 0
571 336 0
125 349 0
513 536 0
-716 -175 0
635 -479 0
-548 465 0
-543 245 0
-581 729 0
733 549 0
761 -78 0
-322 736 0
662 -488 0
586 -470 0
-413 -309 0
510 -361 0
553 722 0
164 -43 0
714 372 0
-411 -651 0
714 -340 0
5 -284 0
270 348 0
57 586 0
-104 495 0
529 510 0
299 632 0
-656 -125 0
443 328 0
-557 -686 0
428 387 0
88 -28 0
-140 -529 0
-752 365 0
-569 -490 0
-479 -514 0
314 -272 0
616 -146 0
-350 -534 0
-566 391 0
-340 630 0
401 -231 0
689 -321 0
-450 -283 0
715 -507 0
-386 667 0
211 657 0
-138 232 0
-393 -1 0
459 -557 0
-429 -61 0
715 572 0
-656 42 0
246 744 0
-201 -324 0
13 559 0
-423 -738 0
-203 -115 0
-198 -521 0
257 -545 0
-51 -299 0
-427 748 0
-347 487 0
-570 -525 0
123 631 0
-559 389 0
-613 -746 0
-4 -492 0
118 244 0
439 701 0
341 235 0
-384 -453 0
-105 -599 0
-211 -381 0
513 -663 0
-202 471 0
626 549 0
219 -431 0
-370 673 0
-225 644 0
-331 522 0
284 693 0
373 -234 0
282 -708 0
-385 515 0
-279 -393 0
