c bounds 132 186
p cnf 810 1411
609 -663 0
-265 644 0
-796 -260 0
-58 -226 0
199 112 0
3 -92 0
616 -93 0
-345 -680 0
438 -211 0
451 95 0
-94 -318 0
-762 477 0
-629 339 0
-128 134 0
470 611 0
-527 761 0
199 -500 0
-556 -80 0
-79 416 0
-611 189 0
-787 -48 0
447 -473 0
258 -518 0
-508 666 0
-368 750 0
109 -460 0
-597 353 0
-467 -624 0
-738 -639 0
421 511 0
-647 481 0
-334 -563 0
-298 353 0
627 701 0
407 -660 0
-303 702 0
100 439 0
638 -646 0
109 -21 0
-427 -250 0
102 790 0
6 545 0
482 477 0
-149 -515 0
545 87 0
-233 -266 0
-386 -639 0
-764 -67 0
-140 653 0
-540 -487 0
-697 -755 0
71 -255 0
-631 543 0
-141 -470 0
-775 -625 0
-181 89 0
-676 144 0
-328 -386 0
742 -508 0
-376 547 0
-705 97 0
63 -609 0
461 262 0
-710 -518 0
-248 -779 0
-427 646 0
455 340 0
-296 -544 0
80 343 0
-445 -738 0
-519 -61 0
-629 462 0
300 -297 0
6 -538 0
-158 192 0
535 510 0
23 128 0
191 461 0
-135 -479 0
-10 -634 0
119 -548 0
-616 -259 0
-573 489 0
-287 361 0
555 -807 0
-422 483 0
532 -507 0
-70 -5 0
-37 -442 0
288 -693 0
-698 -746 0
362 -269 0
-660 -49 0
-454 233 0
-706 -272 0
49 343 0
749 -625 0
-37 420 0
603 55 0
257 491 0
94 262 0
638 160 0
586 420 0
784 -523 0
-760 162 0
-192 -779 0
122 -594 0
-440 -435 0
569 -600 0
-304 157 0
148 396 0
373 -11 0
252 -436 0
269 488 0
802 285 0
-24 728 0
-639 259 0
-410 -124 0
-626 802 0
-70 -736 0
452 -327 0
316 -465 0
-511 510 0
-436 -808 0
-602 -154 0
-220 434 0
383 -24 0
721 -39 0
-447 271 0
-518 235 0
-745 -388 0
665 -441 0
30 -325 0
-429 -91 0
-128 -194 0
-665 176 0
254 -459 0
213 -290 0
-290 -31 0
-242 -423 0
-804 -317 0
611 172 0
-10 -656 0
-595 312 0
251 241 0
-387 -114 0
-476 98 0
628 230 0
-796 439 0
-791 -682 0
-732 -768 0
63 -573 0
146 790 0
-160 -454 0
-624 -50 0
33 207 0
-794 -374 0
33 552 0
-280 561 0
-43 78 0
-730 -6 0
-158 10 0
552 144 0
-741 -341 0
501 -368 0
-553 -767 0
-562 484 0
-543 296 0
586 -782 0
-160 -154 0
228 -204 0
-772 723 0
-441 15 0
-5 -239 0
-527 -525 0
217 738 0
677 614 0
112 -714 0
189 -64 0
663 326 0
233 206 0
75 532 0
-710 -792 0
-93 86 0
214 745 0
-238 129 0
-571 -268 0
802 337 0
-456 -186 0
-512 -771 0
-60 92 0
-248 31 0
-174 -781 0
800 -250 0
215 36 0
-69 610 0
334 -603 0
-205 -810 0
-693 -390 0
627 -521 0
43 104 0
-359 -424 0
102 -603 0
-125 -761 0
-602 -470 0
-119 426 0
-271 772 0
-85 -412 0
-681 -779 0
343 -682 0
-774 116 0
-517 266 0
-805 -480 0
32 -500 0
-422 498 0
-809 -491 0
666 489 0
-253 694 0
-307 -250 0
-301 -655 0
740 -634 0
737 -471 0
682 -504 0
-271 -168 0
542 428 0
683 -686 0
-750 238 0
43 628 0
-535 -163 0
-736 -513 0
-142 -34 0
-406 -543 0
257 -781 0
752 627 0
637 -803 0
-693 -399 0
722 746 0
22 450 0
-511 107 0
597 426 0
552 379 0
-210 641 0
287 219 0
235 -435 0
503 242 0
659 -31 0
-451 -178 0
-31 -313 0
303 365 0
121 274 0
488 -14 0
-86 675 0
-226 636 0
29 346 0
81 587 0
-678 -486 0
772 650 0
22 -743 0
385 -671 0
751 -456 0
-661 299 0
-150 373 0
238 126 0
-254 52 0
-325 -366 0
-435 342 0
-758 203 0
615 562 0
-783 -665 0
144 -380 0
563 475 0
-87 -269 0
572 -537 0
289 -300 0
587 -625 0
-215 -719 0
-59 -787 0
-481 693 0
-692 -278 0
173 -369 0
-534 -626 0
-158 261 0
528 -533 0
373 364 0
-68 -599 0
-527 -244 0
92 -423 0
655 17 0
-554 295 0
-766 -130 0
-473 -310 0
-693 -652 0
-226 730 0
-533 136 0
-516 440 0
32 227 0
-733 -293 0
-425 -598 0
202 349 0
-526 800 0
339 -625 0
-293 -326 0
187 -789 0
-279 -465 0
-435 704 0
-337 659 0
-764 269 0
763 323 0
-684 323 0
-107 -140 0
-422 -246 0
-791 -798 0
45 108 0
-454 -336 0
603 -139 0
149 170 0
494 762 0
-88 505 0
-542 -537 0
-424 -766 0
22 -452 0
-73 648 0
683 -169 0
399 -236 0
494 -220 0
439 522 0
397 78 0
-598 -601 0
450 109 0
-581 -691 0
785 -328 0
471 -516 0
-430 91 0
493 580 0
741 541 0
-656 445 0
-87 -646 0
22 463 0
719 704 0
-15 -632 0
470 -508 0
-354 -254 0
227 684 0
219 463 0
-717 787 0
-702 741 0
104 -408 0
395 -436 0
302 -236 0
663 725 0
-386 169 0
-666 134 0
366 7 0
-428 -392 0
455 561 0
707 -145 0
475 -595 0
321 778 0
744 -426 0
78 -49 0
274 -792 0
-483 -619 0
-371 -635 0
494 -497 0
-376 -63 0
165 -314 0
-675 82 0
231 -702 0
-288 99 0
2 332 0
-393 724 0
-173 -250 0
723 30 0
270 -429 0
-730 -503 0
800 -66 0
779 -112 0
488 367 0
761 -669 0
588 -349 0
-150 750 0
-786 -411 0
253 -392 0
58 -440 0
-613 367 0
401 -771 0
742 438 0
752 -132 0
367 675 0
208 26 0
-203 162 0
-533 106 0
-708 126 0
644 -311 0
-360 266 0
614 316 0
730 -774 0
-374 677 0
-197 -352 0
533 -776 0
-204 462 0
129 -609 0
401 -55 0
122 434 0
-653 170 0
402 -771 0
749 354 0
-179 421 0
805 -160 0
319 -300 0
660 197 0
675 683 0
-196 -756 0
-518 520 0
-293 -452 0
492 -153 0
-505 90 0
183 666 0
-681 -437 0
604 -329 0
206 -589 0
-716 -547 0
482 694 0
-1 -492 0
462 -456 0
345 561 0
-125 -794 0
197 -382 0
370 808 0
-112 68 0
-636 -435 0
217 -781 0
607 -645 0
-312 -68 0
12 44 0
-406 300 0
-516 220 0
86 52 0
-364 152 0
628 390 0
572 -597 0
162 702 0
228 -736 0
-28 -706 0
805 -781 0
452 -506 0
-566 586 0
-442 -69 0
-13 89 0
-777 -556 0
-551 -139 0
13 726 0
799 570 0
90 -94 0
-549 -263 0
354 57 0
-125 -110 0
261 793 0
-592 -38 0
-593 -477 0
336 -255 0
-111 460 0
475 379 0
-472 -755 0
-759 -239 0
-245 491 0
371 449 0
-256 -401 0
-743 -577 0
-374 230 0
298 -504 0
140 356 0
601 3 0
-521 -458 0
-329 58 0
-216 -611 0
657 523 0
588 -477 0
50 -75 0
405 -536 0
-444 -552 0
421 -46 0
-454 465 0
-707 499 0
-568 650 0
438 343 0
581 446 0
-21 -807 0
15 -39 0
112 -563 0
738 795 0
63 -352 0
160 -46 0
-17 -160 0
-603 -14 0
540 362 0
-241 -507 0
801 475 0
208 -569 0
138 -159 0
-265 -201 0
-234 60 0
460 799 0
350 -727 0
332 194 0
657 -164 0
-388 -708 0
-650 77 0
-357 623 0
484 104 0
-124 280 0
270 -539 0
571 -91 0
-285 -618 0
644 340 0
-371 580 0
-732 -182 0
-616 -604 0
51 -402 0
138 -465 0
659 -716 0
649 404 0
303 -472 0
-596 784 0
-631 -245 0
-719 754 0
62 398 0
381 728 0
39 -538 0
-313 -447 0
-512 242 0
-527 -183 0
52 495 0
400 -645 0
709 -796 0
55 274 0
-736 158 0
103 -629 0
-777 -249 0
-333 502 0
-122 288 0
-92 -543 0
-792 578 0
-441 777 0
314 354 0
-499 510 0
444 323 0
-771 -754 0
389 685 0
90 261 0
-236 124 0
84 444 0
-236 -225 0
453 -547 0
-367 -380 0
-752 541 0
-430 -312 0
-96 668 0
45 92 0
-538 582 0
648 145 0
-521 608 0
34 192 0
-58 243 0
-188 -750 0
-421 75 0
-565 -598 0
57 131 0
510 608 0
-331 155 0
-762 -383 0
305 103 0
561 381 0
-505 -268 0
-154 -253 0
-771 -430 0
666 739 0
-284 -708 0
193 428 0
81 -498 0
-162 -166 0
-570 637 0
-319 -445 0
35 -95 0
-552 513 0
-411 482 0
652 179 0
-66 -642 0
-475 744 0
41 267 0
-804 455 0
230 306 0
-28 158 0
795 -31 0
-771 -150 0
-70 -255 0
-129 252 0
122 462 0
-240 398 0
-88 -291 0
281 720 0
287 239 0
735 -524 0
367 -663 0
-691 -687 0
-740 -507 0
-341 144 0
655 -721 0
-38 510 0
704 367 0
-254 -544 0
178 -544 0
1 228 0
-334 -736 0
287 698 0
72 2 0
308 454 0
-47 202 0
581 258 0
339 529 0
-629 -443 0
197 -448 0
44 -211 0
611 -424 0
-281 -288 0
397 421 0
-716 -356 0
277 -224 0
247 192 0
-97 711 0
327 443 0
-86 -691 0
-775 387 0
477 60 0
-21 -118 0
-39 -468 0
533 51 0
-195 482 0
500 749 0
48 -652 0
-589 146 0
-245 537 0
63 -500 0
795 219 0
755 -776 0
183 -695 0
-711 576 0
272 -431 0
-333 96 0
-340 359 0
182 -67 0
-212 169 0
-736 -56 0
-119 321 0
633 -196 0
756 52 0
561 -350 0
-18 -521 0
-639 708 0
337 655 0
-606 219 0
-765 228 0
58 585 0
-594 624 0
121 563 0
-357 105 0
678 -480 0
257 -278 0
377 -86 0
-167 -643 0
-86 434 0
-148 64 0
-528 532 0
646 450 0
-643 459 0
-267 -56 0
-564 234 0
51 581 0
445 559 0
117 590 0
-63 759 0
-660 507 0
-371 -210 0
-303 -415 0
-526 -634 0
138 317 0
727 -595 0
-602 -314 0
343 -149 0
324 651 0
-344 -420 0
-333 72 0
-156 -708 0
35 116 0
191 -39 0
-64 638 0
-73 52 0
-649 130 0
603 615 0
-772 -605 0
-163 69 0
89 -635 0
-346 600 0
-249 -365 0
312 347 0
-487 438 0
-539 155 0
557 -803 0
62 -754 0
-32 22 0
-795 -161 0
251 722 0
684 -681 0
-328 -515 0
432 -726 0
-68 327 0
-215 -424 0
-466 -536 0
754 35 0
107 767 0
-629 623 0
580 48 0
-782 -636 0
644 -293 0
-689 -696 0
377 -652 0
-364 740 0
-269 490 0
-318 671 0
345 -359 0
550 600 0
-404 -210 0
441 33 0
389 -134 0
-766 643 0
-188 621 0
-563 810 0
-484 -328 0
514 632 0
-155 -487 0
-408 273 0
233 -255 0
783 -609 0
396 789 0
477 -326 0
522 438 0
-42 396 0
426 793 0
-592 600 0
421 -301 0
341 129 0
134 -702 0
-70 -113 0
-505 85 0
6 723 0
298 274 0
-141 586 0
574 -175 0
-184 688 0
-755 -294 0
-766 658 0
667 -85 0
57 262 0
176 -753 0
711 502 0
1 783 0
58 684 0
-177 738 0
-736 -507 0
111 443 0
-269 723 0
-74 -288 0
748 -402 0
739 -153 0
-461 457 0
506 -304 0
249 559 0
42 270 0
-303 -325 0
-796 725 0
183 637 0
62 654 0
556 -487 0
350 -158 0
-604 412 0
298 -346 0
563 231 0
-559 -776 0
-436 400 0
524 701 0
-223 -391 0
58 -689 0
-36 -621 0
794 -128 0
-218 588 0
172 373 0
273 770 0
-250 806 0
-391 636 0
-442 378 0
733 421 0
-226 45 0
-155 9 0
569 -167 0
-551 722 0
-175 -447 0
-237 -705 0
-331 529 0
-675 1 0
-768 408 0
-485 -131 0
269 117 0
-5 677 0
-360 423 0
-658 -386 0
-745 -742 0
-702 448 0
-748 -387 0
431 367 0
-30 -375 0
374 547 0
485 806 0
-9 620 0
280 530 0
779 -705 0
-774 801 0
446 273 0
-634 396 0
-762 327 0
487 -625 0
288 -675 0
116 -111 0
184 -476 0
-712 -240 0
723 -154 0
-573 -108 0
31 -623 0
-5 -552 0
640 -80 0
441 -407 0
-460 462 0
-777 -522 0
334 -272 0
-189 335 0
-14 267 0
595 -281 0
-413 212 0
640 -141 0
-244 -602 0
81 602 0
-371 -493 0
674 -244 0
-166 -507 0
-140 -459 0
441 27 0
389 -168 0
-605 -380 0
-156 581 0
-211 -762 0
-68 -305 0
-750 306 0
69 -652 0
690 -186 0
-378 793 0
-417 -620 0
-79 -371 0
517 -177 0
11 677 0
-148 -38 0
-810 4 0
384 -135 0
-771 -201 0
657 483 0
185 -728 0
-401 -454 0
111 -394 0
-17 409 0
517 -152 0
-562 -369 0
322 -598 0
802 377 0
600 163 0
-775 544 0
-311 60 0
-140 580 0
-525 609 0
-32 800 0
74 -226 0
686 420 0
184 140 0
22 206 0
-70 600 0
-536 801 0
-802 -269 0
519 -383 0
-643 -14 0
304 651 0
541 -425 0
312 -121 0
701 785 0
-285 397 0
504 701 0
-252 559 0
-375 396 0
-143 -43 0
-260 21 0
-160 -9 0
-192 -4 0
465 -431 0
-512 -505 0
-62 -236 0
-163 470 0
-684 -665 0
-29 235 0
-367 -418 0
-807 212 0
359 -94 0
-807 749 0
539 -642 0
-98 40 0
-565 104 0
-629 -103 0
660 -406 0
180 707 0
137 -533 0
102 599 0
-731 -105 0
409 -454 0
-285 722 0
600 659 0
-15 553 0
465 -456 0
-531 -722 0
-188 -602 0
238 362 0
-192 683 0
462 485 0
-95 -69 0
288 -10 0
310 -242 0
-21 372 0
307 -712 0
668 -287 0
-328 -658 0
-142 -201 0
-352 -582 0
479 193 0
401 -218 0
42 -115 0
-447 361 0
783 -713 0
-661 -431 0
-495 3 0
82 -254 0
694 299 0
-55 2 0
519 449 0
59 -128 0
-275 244 0
-339 288 0
578 60 0
-233 197 0
-567 35 0
-256 -164 0
607 -73 0
274 -755 0
750 801 0
404 -681 0
-411 -593 0
677 155 0
676 171 0
-193 -263 0
-265 -608 0
641 -692 0
-441 217 0
601 -424 0
133 460 0
-642 -786 0
-584 -599 0
-320 176 0
84 498 0
-499 122 0
-139 -158 0
341 -680 0
-221 -490 0
342 490 0
783 787 0
418 -503 0
497 640 0
627 165 0
-125 801 0
-794 -7 0
570 659 0
345 -597 0
545 564 0
-205 -697 0
500 -32 0
-223 428 0
-794 730 0
338 27 0
799 -91 0
-85 501 0
-782 -441 0
-225 475 0
131 409 0
213 -520 0
-122 600 0
-640 89 0
-729 -153 0
216 -505 0
-13 523 0
-560 -515 0
-660 169 0
-671 640 0
-291 110 0
33 -191 0
-114 705 0
117 -604 0
-598 -143 0
-480 723 0
214 -396 0
806 -504 0
398 797 0
-545 790 0
432 -100 0
367 -388 0
166 -447 0
-103 -540 0
-427 53 0
-254 134 0
-333 201 0
-218 233 0
-711 44 0
-155 202 0
-699 330 0
684 -431 0
-175 -603 0
790 -86 0
145 -236 0
206 663 0
208 511 0
49 -397 0
87 -759 0
-645 -709 0
-329 462 0
-136 170 0
-714 67 0
525 -594 0
-220 639 0
-103 59 0
728 -810 0
-160 434 0
148 723 0
769 1 0
-518 -442 0
637 387 0
-91 -597 0
-526 65 0
298 -410 0
-338 734 0
130 -55 0
347 553 0
451 78 0
538 -474 0
-553 -372 0
-314 709 0
-777 -250 0
199 -276 0
-757 750 0
-220 665 0
-803 166 0
120 230 0
-275 62 0
502 -774 0
270 583 0
-552 -556 0
-333 132 0
-650 120 0
280 102 0
346 121 0
332 155 0
-79 153 0
-472 -318 0
719 -69 0
778 150 0
-484 -121 0
104 -371 0
197 -616 0
-431 -99 0
433 -625 0
-83 -203 0
316 590 0
715 495 0
-142 243 0
-473 -141 0
598 -544 0
-265 9 0
-154 349 0
789 -693 0
-334 215 0
579 -100 0
-45 -218 0
-51 398 0
699 -521 0
528 458 0
295 674 0
481 -474 0
-658 -175 0
227 -218 0
275 65 0
-153 663 0
-619 486 0
-590 774 0
-96 55 0
-156 485 0
787 270 0
-406 -428 0
-533 165 0
-329 618 0
-304 84 0
577 -422 0
546 301 0
-140 727 0
58 -671 0
-576 -714 0
179 -726 0
-103 -708 0
320 54 0
-577 104 0
207 100 0
185 -46 0
34 -473 0
303 -725 0
-810 333 0
-452 238 0
-641 202 0
142 -798 0
-186 715 0
457 -521 0
-704 636 0
-318 792 0
-413 -603 0
555 620 0
208 -122 0
-501 -141 0
437 201 0
-186 -527 0
336 -670 0
-431 434 0
-762 365 0
-91 340 0
3 700 0
-180 -540 0
-354 110 0
-198 685 0
-277 688 0
679 -605 0
226 359 0
401 -28 0
-472 72 0
-319 252 0
-244 348 0
731 165 0
611 -204 0
-590 -620 0
306 -16 0
225 151 0
-689 63 0
440 363 0
195 323 0
-729 -568 0
-170 -374 0
289 -796 0
-589 -506 0
417 -225 0
499 -776 0
692 709 0
-442 -540 0
-612 21 0
-770 -224 0
-552 -276 0
-526 -548 0
555 604 0
663 55 0
-56 -116 0
565 744 0
-204 386 0
-200 483 0
106 -94 0
641 -621 0
-67 347 0
-86 -29 0
-31 591 0
-676 18 0
185 604 0
529 -29 0
-141 -545 0
314 -28 0
721 665 0
540 -181 0
-645 448 0
-14 -773 0
-86 169 0
570 678 0
-128 55 0
-106 608 0
-651 -204 0
-610 34 0
726 321 0
409 -226 0
780 -738 0
-705 -698 0
-437 251 0
-254 442 0
578 736 0
-266 335 0
120 600 0
-74 775 0
788 -707 0
-403 396 0
379 353 0
-237 -782 0
181 -128 0
164 356 0
-163 -323 0
-114 38 0
400 -416 0
288 -786 0
400 -411 0
648 -230 0
805 -312 0
-435 689 0
630 -84 0
107 -792 0
-399 -121 0
545 -664 0
-422 771 0
-602 1 0
-500 -205 0
-674 -524 0
-226 58 0
-803 -605 0
-480 77 0
-154 -625 0
521 81 0
-573 -676 0
752 163 0
-152 -344 0
89 497 0
317 -464 0
-803 750 0
752 726 0
546 532 0
-152 661 0
-485 -653 0
-800 -562 0
-655 -538 0
-43 -618 0
801 -726 0
-590 -282 0
102 -487 0
-567 101 0
72 -705 0
331 -393 0
541 804 0
-205 19 0
627 -739 0
167 274 0
-225 -316 0
-661 -343 0
780 697 0
-114 741 0
663 -589 0
280 -515 0
-131 555 0
251 674 0
-745 107 0
-275 315 0
-706 -278 0
51 262 0
740 -359 0
805 184 0
-712 -179 0
297 165 0
-602 728 0
-650 217 0
-42 -446 0
-648 -181 0
801 8 0
234 585 0
-63 172 0
-144 -94 0
-716 148 0
773 202 0
340 -556 0
-31 401 0
-10 340 0
7 -32 0
-758 387 0
324 158 0
-155 -141 0
-8 -426 0
-254 640 0
-473 711 0
21 740 0
65 689 0
-174 -429 0
-279 -487 0
-629 -433 0
243 -233 0
-536 -701 0
-540 332 0
-141 710 0
-234 -796 0
634 -203 0
-72 420 0
-799 48 0
118 651 0
-296 -663 0
711 136 0
-290 -355 0
-758 482 0
-807 -394 0
640 278 0
252 -808 0
506 -155 0
468 257 0
793 -334 0
-585 -17 0
-567 477 0
36 -672 0
-423 -432 0
-400 -372 0
389 395 0
227 -640 0
720 42 0
-406 12 0
504 -762 0
-476 81 0
-204 570 0
504 -461 0
-807 -579 0
151 -328 0
366 489 0
-807 -650 0
613 599 0
-118 -324 0
443 -100 0
731 217 0
320 -676 0
-775 420 0
35 695 0
667 -702 0
-26 650 0
-741 -117 0
468 276 0
434 50 0
253 -276 0
-803 -295 0
-220 -380 0
208 -441 0
53 -424 0
-35 -567 0
-734 -166 0
72 89 0
-296 -635 0
-597 436 0
580 170 0
15 587 0
355 -521 0
-316 555 0
-807 -354 0
49 -597 0
789 455 0
359 391 0
416 178 0
-97 -328 0
78 129 0
-296 -608 0
709 678 0
99 2 0
-511 763 0
-469 363 0
-456 406 0
-451 550 0
-271 403 0
-616 193 0
110 -313 0
780 769 0
437 -564 0
-502 724 0
-246 558 0
-43 126 0
-736 -677 0
-537 249 0
800 -358 0
-719 -686 0
341 -31 0
-241 585 0
257 -450 0
461 231 0
-306 -38 0
-511 525 0
-147 532 0
-446 -675 0
547 705 0
22 -205 0
454 261 0
-38 164 0
15 -512 0
587 -350 0
