c bounds 176 212
p cnf 715 949
364 229 0
676 224 0
490 -386 0
-463 -695 0
-28 702 0
-614 104 0
-265 -412 0
-714 627 0
560 -86 0
-313 410 0
-303 -275 0
-706 -35 0
-114 -192 0
9 -490 0
319 -16 0
554 -373 0
-123 -401 0
323 487 0
-85 229 0
-216 468 0
-625 631 0
-635 406 0
-7 -269 0
530 -278 0
-490 -677 0
340 -478 0
-357 -353 0
499 28 0
-280 -710 0
-333 -115 0
-70 -243 0
391 631 0
-700 -433 0
561 -376 0
-545 -440 0
-432 699 0
221 -68 0
379 59 0
653 -604 0
-216 183 0
427 -217 0
115 475 0
-252 340 0
565 521 0
-366 -239 0
123 -415 0
316 626 0
-119 495 0
-462 -545 0
-534 95 0
-350 90 0
-22 -82 0
-516 553 0
479 115 0
321 -27 0
689 -652 0
32 696 0
-292 -226 0
-565 211 0
-268 -587 0
-310 -202 0
-274 420 0
-170 -168 0
664 -318 0
-334 64 0
397 -490 0
334 -582 0
228 344 0
-566 -128 0
687 -677 0
699 -535 0
459 -6 0
-491 -547 0
65 394 0
273 658 0
437 -309 0
-470 489 0
-682 525 0
38 -260 0
-429 585 0
-325 -710 0
-230 502 0
-120 606 0
-168 590 0
208 -335 0
698 -174 0
92 -275 0
545 -681 0
254 481 0
324 -276 0
-270 49 0
522 -564 0
-529 -489 0
507 303 0
-393 -362 0
-331 154 0
-675 -213 0
492 182 0
673 -278 0
621 279 0
346 -479 0
85 -705 0
52 183 0
229 285 0
690 -147 0
700 356 0
-41 -433 0
382 84 0
-635 188 0
385 212 0
241 -499 0
176 205 0
289 407 0
-47 -189 0
-684 155 0
-215 -696 0
629 506 0
-378 165 0
-409 46 0
444 440 0
-405 582 0
418 201 0
362 -10 0
263 456 0
491 185 0
313 -259 0
170 64 0
-433 62 0
-325 32 0
-561 -557 0
359 -120 0
-320 -488 0
637 -184 0
-413 -29 0
-131 -98 0
510 -214 0
581 327 0
680 -90 0
451 -1 0
399 213 0
439 634 0
-235 81 0
581 228 0
484 -461 0
250 1 0
-52 -82 0
-230 498 0
579 -408 0
-684 -352 0
434 -142 0
-118 563 0
-301 580 0
-228 327 0
-620 197 0
647 -282 0
528 224 0
-126 589 0
-535 355 0
224 554 0
204 -531 0
336 377 0
556 41 0
-582 82 0
280 316 0
-112 -160 0
-600 631 0
160 -294 0
150 81 0
-679 349 0
-102 542 0
-29 182 0
-67 91 0
527 -563 0
-491 657 0
-349 -463 0
653 -380 0
181 -545 0
637 -703 0
-454 165 0
-38 551 0
412 277 0
-537 629 0
553 -677 0
407 -657 0
538 -292 0
594 472 0
-570 466 0
59 289 0
269 70 0
476 -361 0
-409 -172 0
345 -27 0
122 -635 0
-375 4 0
441 345 0
185 449 0
-17 -342 0
-374 -266 0
207 138 0
-368 299 0
668 392 0
109 -335 0
379 317 0
591 -650 0
380 392 0
72 258 0
687 306 0
554 -285 0
-368 -446 0
501 372 0
-415 274 0
-15 -168 0
-270 -98 0
372 -279 0
-217 638 0
225 518 0
474 -448 0
642 590 0
-121 510 0
408 -454 0
175 -492 0
-314 33 0
256 256 0
-162 -288 0
-87 -454 0
684 109 0
-309 640 0
-670 246 0
-470 623 0
257 -20 0
463 -172 0
-285 610 0
-576 -672 0
-184 639 0
-423 119 0
80 404 0
503 -447 0
65 -198 0
426 -696 0
414 -664 0
-620 186 0
67 657 0
-26 89 0
-250 603 0
-451 -158 0
-384 -626 0
622 -604 0
-270 368 0
709 -563 0
109 -89 0
77 -695 0
498 -50 0
-488 -582 0
664 523 0
-231 -689 0
-526 -426 0
-464 508 0
283 269 0
612 -674 0
-666 589 0
655 378 0
-415 67 0
552 -86 0
-572 -537 0
130 -225 0
596 311 0
252 -712 0
-315 197 0
534 -688 0
-5 40 0
124 -494 0
-233 282 0
473 -711 0
-558 -282 0
179 -80 0
-67 316 0
-114 185 0
-38 -164 0
-114 -313 0
-521 -183 0
28 181 0
-588 -543 0
-237 693 0
-343 679 0
-151 516 0
-696 -419 0
-179 548 0
403 -89 0
594 405 0
497 15 0
297 -467 0
-451 -260 0
151 -446 0
-463 681 0
-526 -478 0
-636 -201 0
100 73 0
-35 -25 0
575 -27 0
-480 584 0
221 510 0
71 150 0
-151 -305 0
-93 -147 0
-308 -693 0
536 -147 0
650 507 0
52 -56 0
414 485 0
-266 -646 0
502 231 0
-656 -675 0
-282 512 0
-94 -66 0
-463 4 0
218 130 0
496 169 0
-566 8 0
-296 712 0
557 258 0
-588 470 0
-83 163 0
692 -242 0
-605 -43 0
131 -215 0
681 -83 0
-504 -286 0
-341 199 0
-494 -434 0
-425 426 0
355 638 0
-571 -637 0
176 458 0
-287 277 0
-550 -702 0
-441 -609 0
-353 -425 0
97 416 0
-558 -421 0
-651 450 0
398 -106 0
-190 -354 0
122 -343 0
-271 -710 0
439 646 0
159 -599 0
634 413 0
-494 534 0
68 -33 0
598 221 0
-138 -401 0
-12 -587 0
87 584 0
700 -644 0
447 -599 0
564 237 0
291 87 0
457 -202 0
-335 130 0
407 227 0
-442 -614 0
111 475 0
-72 161 0
241 -329 0
30 -574 0
55 -441 0
-689 -149 0
275 -93 0
-665 -624 0
-115 -674 0
425 -469 0
173 196 0
-359 -262 0
641 -129 0
-309 541 0
-339 -353 0
-472 -61 0
91 100 0
138 273 0
-432 -549 0
87 667 0
-174 -5 0
4 519 0
272 92 0
435 -347 0
204 -168 0
18 561 0
206 214 0
173 273 0
-16 -587 0
-270 498 0
553 392 0
-216 128 0
-67 -595 0
265 -354 0
347 196 0
-18 614 0
186 508 0
551 -487 0
611 -512 0
449 -539 0
392 -416 0
-58 345 0
-608 489 0
321 -74 0
325 -616 0
516 448 0
518 492 0
-627 10 0
9 -25 0
-688 360 0
6 -2 0
-7 -401 0
30 69 0
-519 374 0
529 489 0
5 363 0
-682 483 0
-490 -619 0
125 476 0
-544 64 0
-121 180 0
231 426 0
421 -219 0
-163 -477 0
220 446 0
317 -83 0
-564 -412 0
425 -314 0
375 -438 0
-247 261 0
137 -103 0
341 297 0
652 -607 0
483 511 0
-674 33 0
261 395 0
299 382 0
435 72 0
-444 447 0
357 379 0
-340 491 0
632 617 0
346 -463 0
226 327 0
583 -340 0
-355 430 0
226 -192 0
-399 641 0
-14 -643 0
-394 624 0
663 -544 0
-442 -117 0
-413 671 0
424 -470 0
546 489 0
517 -136 0
424 454 0
512 313 0
190 647 0
412 291 0
-129 252 0
580 -147 0
-81 115 0
601 503 0
707 458 0
-108 -106 0
457 -72 0
-380 303 0
523 -663 0
-459 -644 0
426 -463 0
-110 -219 0
605 -288 0
215 -2 0
307 -443 0
-635 185 0
489 -674 0
-178 -65 0
-242 -412 0
159 -530 0
-315 132 0
-343 -135 0
-117 -593 0
699 -606 0
-459 486 0
-73 -570 0
-682 -288 0
147 74 0
359 -343 0
-519 453 0
-674 -712 0
-142 -136 0
553 230 0
416 208 0
324 -593 0
-712 391 0
-433 516 0
313 -37 0
-343 -276 0
227 -484 0
-489 -280 0
-318 -578 0
-591 382 0
669 -598 0
-167 397 0
-432 613 0
-75 -331 0
-215 333 0
-64 460 0
582 224 0
-555 439 0
-616 17 0
-415 620 0
-275 -520 0
-399 368 0
303 334 0
-480 102 0
-93 560 0
-682 541 0
1 -218 0
-151 -18 0
136 371 0
473 -177 0
84 -136 0
597 472 0
387 318 0
404 -681 0
598 -255 0
-343 -642 0
-275 -586 0
409 402 0
-583 318 0
-319 -280 0
185 -75 0
-503 -114 0
132 595 0
414 -155 0
508 -550 0
508 562 0
208 531 0
501 248 0
-174 -161 0
379 428 0
-47 -234 0
-154 -668 0
538 -37 0
-302 141 0
-601 -384 0
613 59 0
441 497 0
-269 228 0
208 -67 0
77 701 0
-595 -504 0
-140 -340 0
387 518 0
-303 -550 0
353 -233 0
649 606 0
-21 110 0
707 -587 0
-181 -272 0
143 -616 0
-111 -582 0
248 -627 0
-247 132 0
437 -509 0
142 -15 0
664 -417 0
75 590 0
595 -165 0
-94 53 0
667 -359 0
640 492 0
-75 504 0
-90 -29 0
-709 267 0
-63 -63 0
-474 156 0
-547 -57 0
574 9 0
-579 -212 0
-174 -348 0
-60 -653 0
35 381 0
269 -621 0
439 322 0
185 -286 0
-584 613 0
230 -578 0
363 -281 0
71 346 0
-517 -16 0
-695 -413 0
145 -147 0
652 -540 0
-490 99 0
485 691 0
349 17 0
-362 -504 0
224 345 0
653 -263 0
314 104 0
-17 -505 0
-641 -671 0
254 659 0
-158 328 0
489 -671 0
133 358 0
603 387 0
-240 -485 0
-203 -654 0
-472 -2 0
-546 -529 0
459 -86 0
79 -488 0
-675 -616 0
245 -493 0
-511 -340 0
435 -21 0
-141 -332 0
491 -498 0
-238 447 0
244 -272 0
261 -505 0
240 136 0
76 -476 0
-608 594 0
231 -522 0
556 354 0
468 -162 0
117 -94 0
486 -672 0
-652 -341 0
-284 -246 0
-513 -254 0
-444 53 0
357 -342 0
676 -107 0
-222 424 0
-373 72 0
333 702 0
-582 -389 0
-17 -102 0
360 -157 0
207 -500 0
-712 -1 0
516 -34 0
-112 624 0
511 249 0
572 605 0
-195 -266 0
-526 534 0
95 -265 0
392 151 0
-255 192 0
713 -290 0
503 477 0
555 -624 0
-310 281 0
-694 638 0
-500 417 0
-643 -292 0
44 -35 0
209 434 0
-60 35 0
-405 -630 0
484 -462 0
-235 606 0
246 -284 0
-271 -38 0
-665 -588 0
190 -182 0
352 -674 0
-133 44 0
-189 85 0
-516 257 0
-110 -680 0
127 -257 0
234 -415 0
583 -541 0
208 383 0
-627 257 0
134 -368 0
317 -223 0
630 -275 0
197 230 0
-271 667 0
-360 -627 0
700 -318 0
-489 623 0
98 -308 0
534 -236 0
-697 -170 0
-166 588 0
474 -366 0
569 -98 0
-29 -648 0
84 47 0
623 600 0
-435 -708 0
-646 -577 0
8 341 0
609 -4 0
290 699 0
-552 -578 0
-526 -524 0
-564 -141 0
-347 106 0
-681 -686 0
461 -608 0
269 254 0
-8 136 0
287 711 0
-154 1 0
383 176 0
-194 -371 0
138 -554 0
-283 -547 0
169 -179 0
527 186 0
-423 -288 0
-301 -27 0
-75 -347 0
401 -215 0
-572 -350 0
28 -516 0
-332 -570 0
-619 214 0
531 -10 0
-166 392 0
125 -56 0
157 -86 0
-356 568 0
39 -72 0
-545 355 0
400 88 0
446 -71 0
-120 -223 0
337 265 0
310 -166 0
345 363 0
498 62 0
171 585 0
100 -262 0
-237 -150 0
-50 -204 0
-668 -577 0
664 188 0
243 -177 0
143 221 0
-665 652 0
3 374 0
605 -1 0
73 -443 0
-601 -242 0
282 -93 0
590 -434 0
528 616 0
-308 -438 0
369 -218 0
-540 348 0
-539 203 0
-103 258 0
623 -604 0
-432 637 0
694 -149 0
163 -83 0
453 424 0
-15 461 0
384 -269 0
394 527 0
533 -41 0
90 -440 0
-611 -107 0
-437 -162 0
-545 119 0
283 109 0
-663 150 0
657 263 0
-569 -399 0
-462 103 0
682 562 0
80 577 0
214 545 0
80 301 0
547 -542 0
-479 630 0
-627 -462 0
-464 -403 0
-534 323 0
-471 585 0
546 204 0
-173 204 0
113 537 0
667 90 0
413 518 0
-335 -274 0
366 -433 0
-573 -681 0
26 711 0
-178 -529 0
-403 -6 0
378 221 0
398 252 0
-568 -451 0
248 -543 0
239 517 0
353 664 0
-689 97 0
568 607 0
-162 -177 0
-389 295 0
-292 -254 0
-389 -607 0
-347 261 0
87 -447 0
-39 22 0
-217 651 0
-266 307 0
580 -354 0
-452 -118 0
-331 -315 0
-179 -361 0
53 356 0
-33 -29 0
-532 -677 0
636 -315 0
280 100 0
-379 397 0
498 483 0
190 -578 0
-620 325 0
-489 -686 0
306 -521 0
-535 483 0
686 324 0
491 -432 0
-643 -352 0
-61 -434 0
499 -382 0
249 564 0
-380 -99 0
388 -642 0
12 126 0
7 -81 0
-607 114 0
426 35 0
95 698 0
388 240 0
-614 512 0
-396 533 0
-335 -412 0
-464 -190 0
9 -149 0
616 -531 0
553 39 0
123 660 0
184 -362 0
-649 -350 0
152 -339 0
30 -196 0
647 376 0
-586 228 0
179 382 0
343 111 0
324 207 0
-195 680 0
-253 -601 0
-2 632 0
-21 1 0
-465 -334 0
-103 -177 0
-260 -463 0
-157 -381 0
686 -24 0
613 256 0
-264 -82 0
639 244 0
345 34 0
351 -64 0
490 246 0
528 226 0
-574 661 0
-99 27 0
-602 30 0
270 556 0
284 -26 0
-377 381 0
446 518 0
-293 -493 0
-301 -475 0
-294 -373 0
-331 -433 0
-306 22 0
109 498 0
680 21 0
-654 -675 0
-330 -588 0
74 615 0
153 8 0
-671 -487 0
491 -535 0
135 -384 0
-449 670 0
277 142 0
-10 -447 0
-146 324 0
261 -103 0
46 518 0
-205 -195 0
130 415 0
486 -48 0
-606 414 0
225 358 0
-100 702 0
170 -80 0
-442 -644 0
-504 594 0
-411 420 0
-118 400 0
-114 453 0
187 -110 0
593 3 0
173 -107 0
520 679 0
-549 691 0
336 -317 0
672 -99 0
145 637 0
-280 -311 0
-71 407 0
-3 -379 0
466 149 0
568 104 0
316 -571 0
-110 -301 0
11 383 0
-419 -2 0
551 440 0
-598 345 0
-2 -408 0
420 46 0
-598 95 0
405 -558 0
521 -477 0
497 -316 0
232 224 0
