c bounds 107 107
p cnf 857 2556
55 273 0
-193 93 0
-185 -235 0
712 -502 0
293 -424 0
798 -739 0
370 -33 0
-329 723 0
-493 -553 0
607 -274 0
-770 457 0
87 357 0
-636 532 0
522 153 0
-648 -527 0
642 -500 0
-321 269 0
-851 502 0
-857 -193 0
49 -224 0
603 -346 0
741 -362 0
577 -109 0
815 -256 0
425 120 0
-826 776 0
-600 -622 0
-697 -121 0
-134 139 0
-437 -779 0
-228 714 0
576 -139 0
216 830 0
334 -470 0
53 228 0
-172 -600 0
480 -560 0
703 -535 0
-754 -158 0
273 396 0
702 550 0
721 799 0
-107 -415 0
96 784 0
-467 -733 0
20 175 0
531 -134 0
223 651 0
-845 -633 0
-589 727 0
47 270 0
-419 -674 0
-463 189 0
-42 -374 0
760 97 0
-114 758 0
-489 62 0
-342 688 0
780 -485 0
571 266 0
-712 -117 0
66 314 0
714 406 0
-384 -261 0
-375 288 0
9 38 0
674 -315 0
680 -337 0
-375 -234 0
-112 239 0
804 167 0
148 104 0
-54 290 0
-436 -91 0
-319 291 0
488 -724 0
34 245 0
557 253 0
804 -495 0
-124 -433 0
762 -427 0
388 -13 0
219 378 0
475 396 0
-99 240 0
275 559 0
346 327 0
-395 -68 0
-408 713 0
476 819 0
-379 509 0
-446 -472 0
-822 186 0
-41 107 0
-815 330 0
-86 793 0
349 493 0
-275 -743 0
-652 801 0
503 -724 0
-388 -498 0
693 -693 0
-460 -382 0
-341 666 0
823 -787 0
79 232 0
557 -32 0
306 -763 0
-816 749 0
-738 826 0
633 245 0
-210 -130 0
-751 689 0
360 -524 0
-51 -93 0
-239 -724 0
15 621 0
-193 -632 0
-759 547 0
-88 -786 0
-397 633 0
-492 829 0
834 -31 0
1 -27 0
779 357 0
-460 597 0
332 580 0
401 361 0
-435 161 0
-381 649 0
-410 18 0
-318 690 0
-718 579 0
-31 -588 0
-318 806 0
-215 16 0
322 -464 0
446 -821 0
361 456 0
-428 -682 0
644 -596 0
-641 363 0
-429 383 0
-663 -144 0
-452 -64 0
-385 -805 0
318 -3 0
-214 61 0
206 380 0
178 26 0
776 -734 0
-396 -67 0
453 -326 0
-326 178 0
-112 70 0
726 15 0
100 -173 0
-271 -486 0
-555 -692 0
-174 -569 0
-525 -724 0
-494 -810 0
446 237 0
-206 351 0
-797 144 0
-337 -191 0
-467 -549 0
669 -515 0
40 -111 0
58 355 0
666 -138 0
313 746 0
-503 -634 0
-678 267 0
825 -381 0
536 -96 0
-852 -214 0
850 -468 0
144 -256 0
765 407 0
324 -742 0
-550 -326 0
666 -165 0
-550 -724 0
-416 711 0
829 300 0
345 618 0
184 653 0
-74 146 0
80 -738 0
35 -606 0
632 -792 0
-32 -40 0
499 -202 0
139 285 0
-574 384 0
493 -520 0
586 -76 0
459 456 0
-632 -161 0
302 666 0
-562 809 0
-562 550 0
447 -391 0
522 84 0
-239 306 0
-171 -98 0
449 659 0
-488 -452 0
265 -704 0
-846 257 0
-214 10 0
415 -116 0
295 298 0
-185 -618 0
-76 800 0
394 -36 0
386 -274 0
-56 233 0
-455 555 0
-425 -474 0
-485 796 0
-501 714 0
704 358 0
-39 -673 0
286 -264 0
-730 242 0
-97 -303 0
-585 428 0
237 754 0
-725 -181 0
640 -134 0
-519 486 0
846 475 0
727 531 0
-27 -558 0
246 259 0
851 -326 0
-592 363 0
435 -206 0
-195 -560 0
-536 590 0
-738 767 0
-696 -318 0
-476 523 0
662 -820 0
-523 846 0
-41 -765 0
-755 245 0
175 623 0
817 -273 0
-59 -648 0
837 798 0
813 -246 0
-477 237 0
-2 -592 0
-383 737 0
-657 691 0
-61 -63 0
156 814 0
-147 -627 0
561 -583 0
498 649 0
-758 708 0
697 159 0
680 -688 0
-548 -85 0
-643 712 0
702 -368 0
259 650 0
-226 -428 0
-753 -786 0
-141 171 0
518 49 0
-236 102 0
-222 779 0
322 520 0
-353 -764 0
714 -826 0
-233 187 0
-256 699 0
-514 262 0
679 -97 0
-514 -139 0
-820 292 0
214 -469 0
-491 669 0
35 -856 0
-491 435 0
580 128 0
272 -346 0
493 66 0
-488 451 0
72 748 0
-362 231 0
-73 30 0
-592 718 0
-851 557 0
770 -639 0
676 -653 0
-557 -463 0
443 158 0
169 74 0
-220 579 0
633 726 0
-542 322 0
157 -717 0
401 288 0
292 643 0
451 306 0
-781 644 0
-182 -780 0
679 416 0
523 -144 0
-142 -233 0
298 -667 0
-404 -341 0
98 -806 0
-839 545 0
572 -797 0
312 828 0
-503 -562 0
-774 821 0
-514 -206 0
11 -41 0
796 276 0
198 846 0
857 852 0
-563 -849 0
-810 816 0
-687 -403 0
370 348 0
80 368 0
-205 -691 0
590 -848 0
-265 760 0
365 -546 0
-829 350 0
451 255 0
178 -695 0
-452 -39 0
128 564 0
721 722 0
80 -17 0
-335 366 0
-533 495 0
628 -530 0
-711 -609 0
571 -694 0
-117 6 0
270 629 0
540 114 0
300 566 0
-797 226 0
649 38 0
167 6 0
-333 358 0
794 -744 0
30 616 0
766 -837 0
135 282 0
658 -508 0
454 388 0
687 819 0
-35 -41 0
-217 406 0
807 101 0
-793 -598 0
-153 -89 0
313 854 0
-254 -58 0
-418 -363 0
-374 384 0
308 -286 0
477 -823 0
-434 160 0
389 -538 0
-754 353 0
306 96 0
-641 -559 0
389 561 0
-789 -507 0
-464 582 0
246 -355 0
-803 -368 0
-531 -415 0
539 -592 0
108 799 0
-24 -517 0
-806 65 0
-626 -783 0
-353 -72 0
-460 -271 0
-617 -374 0
753 -782 0
-775 580 0
-797 -741 0
145 -152 0
808 -121 0
30 127 0
299 -180 0
-642 558 0
-196 -468 0
537 -338 0
251 694 0
22 -728 0
-645 619 0
-228 -281 0
743 246 0
252 -494 0
-625 681 0
-274 345 0
147 589 0
-757 -273 0
-817 -842 0
316 276 0
835 303 0
823 350 0
803 -426 0
-675 203 0
-753 -209 0
-618 -455 0
-318 -261 0
-564 693 0
-485 682 0
-175 557 0
-303 -574 0
341 -191 0
736 -336 0
843 -742 0
736 -121 0
-550 -329 0
-107 -271 0
852 -511 0
856 -400 0
-287 -688 0
-525 -201 0
-562 707 0
836 -720 0
-671 819 0
378 -438 0
-248 279 0
-184 809 0
120 647 0
830 518 0
563 -653 0
63 -107 0
507 -755 0
830 -29 0
-853 -105 0
-552 -645 0
447 685 0
-429 -564 0
38 -573 0
-457 639 0
-122 109 0
93 -708 0
635 -505 0
93 445 0
610 -378 0
106 -768 0
-78 775 0
-850 96 0
30 -701 0
242 765 0
201 326 0
-721 798 0
53 -669 0
-746 -704 0
496 -193 0
-851 195 0
589 -241 0
-284 -99 0
710 -709 0
246 311 0
492 -738 0
-560 737 0
711 -824 0
-740 146 0
287 -803 0
-440 207 0
171 -821 0
-30 -56 0
815 -440 0
-116 448 0
-806 -419 0
-358 -28 0
768 -384 0
140 84 0
259 -233 0
-7 278 0
386 -641 0
798 -438 0
-622 -387 0
-760 511 0
96 613 0
501 677 0
6 -316 0
-624 811 0
-502 -65 0
809 371 0
493 700 0
228 26 0
-173 -475 0
46 830 0
-91 -31 0
-759 -161 0
-632 -838 0
525 80 0
263 373 0
472 -450 0
-734 672 0
376 211 0
-390 -551 0
-750 -326 0
-660 83 0
137 477 0
775 -250 0
490 -752 0
-499 -417 0
-495 -338 0
204 -334 0
-190 565 0
-465 -187 0
804 -291 0
601 331 0
557 376 0
638 712 0
210 756 0
-298 237 0
114 656 0
481 -605 0
447 -672 0
-728 -572 0
767 431 0
-695 279 0
848 838 0
-516 695 0
-817 -310 0
625 748 0
-631 634 0
330 -452 0
738 563 0
-409 834 0
159 396 0
-557 504 0
462 156 0
115 281 0
259 -542 0
590 -238 0
-804 846 0
-236 -322 0
-422 -450 0
301 -849 0
-609 -550 0
648 -264 0
810 64 0
-105 -90 0
830 -116 0
832 -183 0
-339 784 0
-585 -592 0
767 30 0
781 -723 0
33 775 0
-420 -571 0
727 713 0
-670 464 0
378 166 0
856 209 0
-669 720 0
-234 -562 0
-582 -841 0
-269 199 0
-759 39 0
748 -754 0
-133 852 0
-645 -454 0
349 776 0
-489 87 0
-622 -686 0
-451 -692 0
637 -622 0
328 585 0
-468 828 0
-739 559 0
267 -832 0
737 534 0
697 794 0
530 -68 0
840 -334 0
305 70 0
667 -32 0
-832 850 0
-422 20 0
563 245 0
343 843 0
-471 267 0
812 378 0
-781 -114 0
579 857 0
571 -534 0
96 -330 0
25 -53 0
557 -777 0
580 -659 0
194 -624 0
-708 749 0
-532 150 0
497 -156 0
-692 537 0
-759 38 0
-29 -67 0
223 500 0
301 256 0
818 -129 0
694 631 0
633 114 0
-220 -312 0
-650 -770 0
-686 234 0
365 753 0
-101 -745 0
-849 156 0
-494 8 0
-568 759 0
349 -502 0
403 102 0
732 -485 0
-119 360 0
555 532 0
158 407 0
409 -582 0
-44 -345 0
-503 -761 0
-120 -717 0
-779 816 0
120 -809 0
504 492 0
828 83 0
114 -503 0
69 825 0
332 80 0
120 -538 0
-664 -64 0
487 323 0
-361 747 0
-439 536 0
479 -99 0
15 -639 0
-609 134 0
178 153 0
-98 -750 0
174 33 0
357 265 0
511 -481 0
-51 81 0
-847 487 0
469 -851 0
-817 -15 0
-423 -296 0
-845 -569 0
-675 -724 0
667 517 0
145 -144 0
-741 -834 0
-483 356 0
105 9 0
715 385 0
343 330 0
-152 785 0
436 58 0
-659 -23 0
-153 -788 0
322 304 0
-500 124 0
351 -286 0
-191 -813 0
515 -773 0
-586 16 0
-33 53 0
480 -570 0
218 -589 0
-503 -558 0
-306 -165 0
-408 118 0
655 196 0
449 -366 0
428 -315 0
614 265 0
425 -556 0
338 -778 0
-130 -839 0
-322 127 0
271 -526 0
789 767 0
-296 166 0
-77 401 0
349 138 0
-321 351 0
-316 -168 0
188 386 0
-70 -396 0
-641 800 0
-735 178 0
48 353 0
651 545 0
847 -531 0
218 -345 0
425 -738 0
-75 -602 0
756 357 0
58 272 0
-427 816 0
411 -346 0
-498 188 0
810 27 0
811 -42 0
-543 -51 0
634 212 0
463 -39 0
-442 -750 0
-390 -371 0
598 78 0
-233 106 0
168 596 0
743 -404 0
-145 423 0
-478 -548 0
125 -276 0
852 -710 0
-655 -612 0
-459 -543 0
-71 713 0
140 -749 0
492 -266 0
246 -334 0
-392 436 0
-245 508 0
44 575 0
108 490 0
140 -755 0
679 -170 0
161 481 0
-259 -337 0
-261 293 0
-515 -362 0
-564 -133 0
-377 490 0
302 855 0
-130 -116 0
654 -772 0
-238 423 0
26 -556 0
522 179 0
-143 522 0
790 524 0
114 478 0
815 706 0
-818 -750 0
38 -727 0
-367 -822 0
-273 -261 0
-824 -116 0
-167 -506 0
-802 337 0
820 -525 0
409 -125 0
441 -321 0
-307 487 0
69 307 0
-248 -114 0
-737 -608 0
-102 -723 0
-346 -653 0
535 238 0
-123 826 0
-500 225 0
-190 412 0
298 306 0
279 836 0
-17 340 0
536 83 0
-674 722 0
335 360 0
68 -441 0
524 203 0
126 -365 0
-370 131 0
-207 509 0
-305 -335 0
-568 -815 0
-541 364 0
-748 87 0
340 -751 0
297 127 0
-221 -261 0
705 312 0
687 -658 0
-731 717 0
-673 616 0
544 826 0
-774 711 0
834 23 0
-284 -55 0
-427 543 0
-773 756 0
366 -390 0
-268 -674 0
-389 263 0
705 -309 0
343 -735 0
301 -738 0
-801 327 0
-111 -496 0
281 108 0
179 231 0
-500 -657 0
696 -94 0
-25 4 0
-274 488 0
-533 -725 0
-41 -510 0
187 666 0
-423 201 0
-170 -564 0
303 601 0
-74 -640 0
-324 528 0
-773 -729 0
-474 499 0
767 -680 0
-594 -457 0
263 389 0
-468 182 0
-569 -577 0
790 43 0
-253 -510 0
-52 521 0
-29 763 0
557 -11 0
801 -281 0
834 -266 0
360 82 0
-587 833 0
-720 174 0
-84 131 0
-457 443 0
-379 113 0
-170 -76 0
59 777 0
466 -759 0
-494 185 0
-716 -788 0
550 170 0
115 -627 0
384 -485 0
552 -435 0
-599 -772 0
818 774 0
-738 260 0
-755 -375 0
666 -408 0
-525 832 0
-585 -477 0
-596 -198 0
583 796 0
-207 373 0
375 540 0
779 -525 0
430 715 0
714 505 0
-60 167 0
-663 -119 0
216 -6 0
-746 800 0
-468 -800 0
801 164 0
496 463 0
-791 -539 0
-789 848 0
72 409 0
137 -114 0
-238 -750 0
-560 847 0
-243 760 0
643 -266 0
-303 -602 0
-704 445 0
-550 -454 0
599 626 0
-849 -627 0
137 -756 0
-699 392 0
703 -578 0
-1 -393 0
202 600 0
601 -310 0
-376 361 0
-564 -742 0
105 637 0
-723 -444 0
153 -183 0
628 -87 0
496 -169 0
-238 -357 0
386 345 0
616 -8 0
497 10 0
685 -649 0
818 269 0
-593 328 0
230 748 0
-511 685 0
4 -735 0
836 701 0
193 -475 0
236 780 0
-465 807 0
-247 -198 0
-623 770 0
-840 -317 0
-40 -293 0
64 281 0
813 -428 0
311 496 0
804 -458 0
-248 -671 0
-554 -70 0
654 -855 0
765 779 0
-336 -601 0
-500 88 0
-457 622 0
213 -776 0
-659 -134 0
-824 561 0
-147 485 0
67 161 0
-95 -316 0
-838 315 0
129 562 0
-257 850 0
-44 431 0
472 -515 0
-21 -619 0
268 820 0
-761 703 0
-203 566 0
-681 300 0
-327 676 0
-732 -367 0
-513 145 0
855 292 0
36 -642 0
-769 -304 0
430 -841 0
760 743 0
-257 -238 0
536 -217 0
-54 -425 0
597 -549 0
681 -817 0
676 711 0
717 357 0
675 -399 0
287 117 0
-851 -840 0
13 723 0
-472 -260 0
-435 -620 0
-792 -203 0
413 93 0
730 599 0
588 -784 0
-222 -339 0
-669 836 0
-669 476 0
158 506 0
-45 830 0
651 528 0
760 713 0
-274 -544 0
-101 568 0
-22 -624 0
-244 722 0
-718 263 0
-748 -227 0
-355 -774 0
-239 108 0
-144 315 0
574 520 0
-608 16 0
377 336 0
177 727 0
-721 91 0
-802 741 0
848 -105 0
-505 146 0
445 -59 0
-107 115 0
694 562 0
596 -577 0
-658 -280 0
658 -683 0
155 -845 0
-721 -110 0
-543 -143 0
-293 604 0
-667 278 0
552 -7 0
-421 324 0
-46 430 0
-119 730 0
-670 302 0
155 582 0
-598 523 0
450 559 0
-554 353 0
-353 -621 0
-356 813 0
-502 301 0
-403 -384 0
685 689 0
-568 158 0
289 -677 0
261 -270 0
-236 -381 0
-85 -61 0
640 364 0
747 -729 0
318 620 0
679 -100 0
-278 -797 0
355 857 0
530 -657 0
-830 157 0
127 -269 0
225 -795 0
6 128 0
-457 -88 0
-133 822 0
766 -773 0
-193 312 0
730 -696 0
-733 38 0
776 260 0
405 727 0
-625 -21 0
-85 -774 0
-756 240 0
93 671 0
-476 451 0
-135 96 0
423 -851 0
292 798 0
301 -3 0
145 571 0
482 -689 0
-270 419 0
-436 535 0
629 626 0
562 383 0
209 -778 0
785 -286 0
156 75 0
-243 14 0
580 760 0
-354 -647 0
712 -302 0
483 -673 0
-498 -430 0
33 836 0
499 -9 0
-564 -206 0
245 -249 0
-392 845 0
816 292 0
368 629 0
640 -710 0
-763 629 0
-109 -669 0
218 -731 0
154 -659 0
237 -630 0
764 9 0
300 806 0
-273 -530 0
414 639 0
-510 -822 0
492 813 0
-448 695 0
-517 -314 0
-182 -130 0
159 -791 0
350 187 0
-728 618 0
-85 -90 0
-772 -196 0
327 209 0
-254 -602 0
320 349 0
-101 145 0
453 309 0
356 468 0
-709 -752 0
540 -520 0
-835 59 0
-821 -21 0
449 -351 0
-558 706 0
624 137 0
-361 -229 0
126 -384 0
-726 456 0
523 304 0
387 801 0
2 662 0
-585 272 0
451 748 0
-259 733 0
454 -745 0
106 755 0
28 777 0
-379 -410 0
206 -5 0
851 -56 0
807 233 0
504 340 0
464 162 0
-763 129 0
-314 667 0
410 -56 0
-703 654 0
263 -477 0
-805 310 0
-460 -162 0
110 223 0
-606 -342 0
844 -311 0
756 -851 0
322 -663 0
-336 311 0
-626 689 0
541 -143 0
152 818 0
-319 -284 0
389 660 0
428 652 0
-511 695 0
717 493 0
-359 -424 0
821 -619 0
-754 -106 0
-592 145 0
787 -421 0
-16 -645 0
41 565 0
350 308 0
81 705 0
438 267 0
-671 237 0
276 -243 0
285 -677 0
-734 -532 0
-563 637 0
748 69 0
530 829 0
250 -497 0
511 -384 0
-711 -692 0
2 -415 0
449 -383 0
-569 1 0
58 -639 0
764 -256 0
-686 -79 0
-273 -747 0
599 -185 0
-318 -761 0
44 -639 0
-84 -31 0
-404 -437 0
751 307 0
105 194 0
-421 -103 0
9 -241 0
274 -745 0
-16 307 0
-346 626 0
-813 376 0
-627 339 0
771 857 0
840 -134 0
129 702 0
-207 -338 0
-544 -28 0
197 -611 0
-757 522 0
38 -854 0
-67 -573 0
-33 304 0
-270 163 0
601 -618 0
650 -710 0
154 764 0
218 -554 0
-232 149 0
326 365 0
-100 -669 0
153 -735 0
62 -659 0
511 579 0
-494 -802 0
-806 -674 0
104 359 0
497 -54 0
802 834 0
683 509 0
62 684 0
-382 18 0
-398 349 0
507 649 0
-141 -257 0
-245 -828 0
-279 -639 0
-392 -410 0
-740 765 0
682 757 0
49 764 0
-645 -412 0
-791 32 0
126 850 0
-315 618 0
183 464 0
-252 -155 0
-754 -304 0
-624 592 0
-109 519 0
-380 827 0
-483 -54 0
-224 -256 0
308 -521 0
30 -446 0
827 -215 0
-814 -823 0
-332 -434 0
644 202 0
-763 267 0
-678 672 0
-53 153 0
474 836 0
-523 -595 0
-296 -440 0
-787 638 0
345 -334 0
311 -594 0
-506 -569 0
255 -22 0
-298 -657 0
267 -664 0
66 -441 0
541 -757 0
-455 250 0
615 2 0
-67 -63 0
-54 797 0
-622 -408 0
-141 -204 0
-469 542 0
-657 -272 0
496 -72 0
-73 509 0
458 176 0
-293 -832 0
559 285 0
410 -63 0
-481 36 0
621 -710 0
-154 -267 0
588 -25 0
642 155 0
-65 401 0
579 -50 0
49 -511 0
324 314 0
-805 478 0
371 -543 0
-652 -103 0
-217 -390 0
488 -500 0
-601 -103 0
-326 265 0
-544 208 0
-507 396 0
-273 -267 0
407 -623 0
174 134 0
163 774 0
-491 100 0
499 86 0
311 -130 0
-733 -16 0
568 -271 0
-176 352 0
345 490 0
-147 -243 0
-81 87 0
-336 730 0
181 -525 0
523 -188 0
-176 307 0
-711 306 0
331 -598 0
-5 413 0
-111 451 0
-111 -145 0
-721 764 0
416 605 0
10 81 0
-215 157 0
-399 21 0
-187 381 0
201 -384 0
-442 391 0
-172 -612 0
532 -300 0
649 84 0
460 610 0
849 -742 0
467 387 0
835 249 0
634 -10 0
-56 -803 0
780 463 0
821 -207 0
-249 756 0
55 810 0
375 643 0
-758 -341 0
855 320 0
-674 -392 0
-659 -542 0
-851 226 0
92 -110 0
358 394 0
-470 -437 0
278 852 0
-170 697 0
-419 221 0
364 -849 0
-406 372 0
-383 -303 0
490 149 0
-554 812 0
715 -115 0
92 608 0
137 405 0
-514 -415 0
851 744 0
558 -346 0
176 -17 0
-823 -438 0
579 49 0
-438 -755 0
-282 748 0
330 683 0
129 -196 0
191 654 0
-53 -243 0
-757 682 0
59 -108 0
201 -677 0
-839 834 0
528 -516 0
161 328 0
-274 -366 0
196 148 0
44 -594 0
469 -11 0
-183 221 0
-834 -526 0
-48 -433 0
-770 398 0
-817 697 0
160 -769 0
-31 567 0
153 -53 0
-652 -130 0
-125 634 0
-377 -375 0
-452 -529 0
-591 -797 0
492 368 0
-85 660 0
827 -52 0
368 -405 0
493 361 0
-220 210 0
-472 497 0
211 -448 0
-602 726 0
128 243 0
-196 -546 0
-257 289 0
570 -645 0
-782 310 0
483 -390 0
644 -346 0
-166 -28 0
702 -531 0
-510 -801 0
-699 292 0
848 267 0
72 726 0
-702 -503 0
748 -409 0
-45 -103 0
20 -28 0
61 -321 0
-334 353 0
234 -337 0
-651 -165 0
-568 796 0
-199 -567 0
554 -61 0
221 414 0
-472 391 0
842 -158 0
102 -734 0
323 -479 0
-224 287 0
126 -195 0
-420 120 0
801 717 0
583 -201 0
789 685 0
530 644 0
23 -541 0
-505 -63 0
-47 350 0
-680 524 0
-717 475 0
-823 416 0
-851 -406 0
820 -96 0
532 559 0
297 661 0
-543 820 0
202 791 0
-265 -494 0
-823 838 0
-575 572 0
-558 662 0
-795 25 0
-497 47 0
-33 298 0
-792 -281 0
788 -461 0
613 247 0
635 -68 0
-79 712 0
380 554 0
-139 -820 0
272 99 0
103 60 0
-367 -521 0
10 -746 0
-191 -77 0
-475 333 0
-339 -122 0
652 -725 0
-444 829 0
490 145 0
-379 278 0
-411 187 0
804 -393 0
-474 -761 0
-720 -568 0
285 -659 0
-471 -323 0
15 -669 0
-588 262 0
825 268 0
-454 1 0
536 649 0
-244 13 0
-61 685 0
201 -155 0
37 221 0
757 -224 0
-704 23 0
212 -170 0
398 -389 0
469 333 0
157 -632 0
-591 104 0
-592 -22 0
800 577 0
-591 238 0
2 662 0
411 809 0
-35 557 0
740 767 0
-673 416 0
-315 646 0
22 -354 0
251 -602 0
-614 -620 0
-568 21 0
635 -781 0
-802 834 0
175 746 0
-817 841 0
-734 171 0
-530 -404 0
289 -718 0
702 614 0
-580 730 0
-70 -101 0
304 -386 0
-54 -435 0
-152 -723 0
78 -584 0
-416 -220 0
-3 -241 0
-332 -722 0
567 -841 0
501 710 0
-632 -259 0
633 -435 0
-516 -352 0
231 697 0
-619 -374 0
307 108 0
-68 -639 0
-513 -438 0
660 -428 0
642 545 0
464 -224 0
394 -741 0
-741 -805 0
-47 -542 0
-182 -800 0
-363 689 0
-316 -576 0
480 751 0
617 511 0
53 -290 0
-399 -453 0
-20 487 0
59 -286 0
428 576 0
-115 -233 0
-832 757 0
127 250 0
-237 -569 0
610 -302 0
63 58 0
-471 -91 0
-326 107 0
-111 630 0
-241 -166 0
-21 802 0
832 -526 0
-586 667 0
730 -515 0
250 -11 0
618 352 0
-745 -309 0
-747 401 0
785 -674 0
586 747 0
658 -587 0
766 566 0
-587 -609 0
-497 218 0
394 819 0
-548 500 0
599 -334 0
820 352 0
-478 -573 0
-704 478 0
-61 -249 0
-355 52 0
420 -339 0
-606 718 0
-366 231 0
437 52 0
-824 310 0
670 389 0
649 278 0
-77 -408 0
833 69 0
-798 313 0
218 -391 0
-350 -353 0
474 748 0
83 -552 0
-525 175 0
418 -133 0
-562 -11 0
337 -230 0
-311 620 0
213 -71 0
-324 64 0
-385 758 0
-233 -318 0
655 451 0
-452 -439 0
636 -95 0
697 651 0
-104 285 0
-271 -809 0
351 -538 0
484 -556 0
672 303 0
118 -612 0
-474 -94 0
-130 -14 0
774 -259 0
303 -752 0
-113 426 0
-215 416 0
-249 -529 0
-526 -704 0
-683 -3 0
-541 429 0
-644 163 0
-675 616 0
530 -474 0
-202 -424 0
265 -319 0
604 -586 0
-849 358 0
-243 511 0
-113 -235 0
197 18 0
-559 -440 0
-39 469 0
-338 549 0
755 38 0
-569 569 0
765 83 0
-437 -368 0
-623 213 0
398 -76 0
280 -7 0
288 -525 0
81 469 0
-586 -591 0
289 -759 0
-502 -456 0
822 -680 0
676 773 0
-663 483 0
-759 -275 0
-196 -392 0
650 -709 0
332 -718 0
-619 18 0
-369 768 0
749 -379 0
649 190 0
300 -72 0
498 -39 0
27 -393 0
423 64 0
618 -200 0
-369 -517 0
-349 -136 0
834 -220 0
333 45 0
817 425 0
835 23 0
667 -790 0
708 45 0
296 -855 0
-398 330 0
-555 177 0
724 -538 0
246 240 0
335 -420 0
324 317 0
377 382 0
-619 414 0
-318 -543 0
-166 6 0
565 -13 0
660 221 0
36 -658 0
285 -450 0
-314 81 0
-45 251 0
160 -741 0
583 -857 0
605 530 0
602 -315 0
801 820 0
265 -50 0
-768 -162 0
-55 480 0
765 -572 0
803 -1 0
60 -518 0
-402 155 0
711 -816 0
-130 608 0
-150 850 0
285 -632 0
126 -313 0
-45 760 0
11 356 0
-172 -17 0
-548 520 0
57 659 0
-440 290 0
493 -546 0
511 298 0
-238 -403 0
158 432 0
-176 399 0
490 -795 0
164 284 0
-636 44 0
-699 276 0
-320 607 0
-662 856 0
199 -261 0
-711 -339 0
-411 151 0
-534 -199 0
705 -56 0
545 765 0
-209 225 0
392 -399 0
-198 -753 0
756 226 0
-174 372 0
604 -736 0
583 -772 0
-230 822 0
492 -263 0
-130 335 0
-129 -551 0
145 -611 0
-511 666 0
-576 496 0
-346 343 0
545 340 0
-631 2 0
60 -399 0
253 183 0
726 819 0
75 -680 0
149 451 0
640 415 0
-195 -612 0
218 23 0
764 -848 0
-198 -476 0
-659 -147 0
-468 665 0
405 -619 0
-754 446 0
-624 648 0
-173 801 0
359 831 0
-46 513 0
-117 484 0
518 390 0
-607 -151 0
406 668 0
-615 405 0
-234 449 0
-86 630 0
-194 -133 0
-718 340 0
-276 184 0
729 774 0
-369 -315 0
111 272 0
424 780 0
738 -90 0
-831 225 0
299 256 0
483 -789 0
360 -503 0
-173 -817 0
-646 -292 0
-522 -454 0
32 -322 0
-574 704 0
-613 -535 0
140 802 0
-822 -562 0
-321 722 0
560 -30 0
-346 -845 0
48 -611 0
-803 -676 0
-568 483 0
43 358 0
-113 -551 0
185 -344 0
197 -436 0
256 -367 0
-690 -236 0
-417 -552 0
161 -384 0
-105 790 0
-716 490 0
-465 398 0
-416 397 0
-717 -382 0
776 204 0
288 -411 0
617 733 0
30 710 0
66 96 0
-852 736 0
-49 14 0
439 -292 0
188 676 0
464 794 0
-470 -185 0
813 -805 0
153 231 0
-44 396 0
-238 -428 0
406 -657 0
-27 -181 0
-7 -27 0
-14 453 0
-701 628 0
-212 -533 0
-422 -696 0
-568 346 0
55 -131 0
783 -275 0
-536 188 0
521 -425 0
-59 702 0
116 -787 0
-782 -612 0
-607 340 0
-81 87 0
-403 491 0
-491 846 0
764 -824 0
136 409 0
-473 48 0
492 -782 0
809 -123 0
-641 127 0
-577 -451 0
-339 305 0
158 662 0
-539 620 0
-796 -141 0
-228 289 0
-668 48 0
-838 687 0
-163 -624 0
-387 -406 0
476 219 0
78 412 0
603 351 0
252 -321 0
799 766 0
488 152 0
732 -750 0
-824 -55 0
774 794 0
243 637 0
174 -534 0
-134 788 0
-404 -841 0
-50 -450 0
203 182 0
-349 79 0
-469 -39 0
831 -368 0
418 767 0
-238 -285 0
-510 188 0
-362 -240 0
13 -475 0
185 642 0
830 240 0
-100 389 0
712 348 0
586 -494 0
812 835 0
-61 673 0
445 -709 0
-255 774 0
694 -10 0
276 323 0
815 305 0
175 -529 0
373 -756 0
582 54 0
-219 -182 0
170 250 0
-769 167 0
34 -778 0
-593 350 0
-663 -248 0
-351 -837 0
-661 291 0
-510 -208 0
-765 286 0
-421 659 0
-107 -623 0
370 -856 0
822 620 0
-288 685 0
-192 92 0
-246 579 0
-217 -577 0
800 814 0
839 79 0
747 -17 0
616 -663 0
-786 681 0
348 511 0
-442 -361 0
149 -85 0
-407 -754 0
289 305 0
-473 282 0
152 -421 0
339 705 0
-429 844 0
-188 -261 0
142 -76 0
-337 634 0
89 -538 0
35 431 0
189 -335 0
-581 -144 0
83 -329 0
-193 -180 0
618 19 0
-761 -415 0
-469 -497 0
-606 -71 0
257 292 0
-422 162 0
277 -134 0
-740 -843 0
-807 63 0
-233 -494 0
-585 -428 0
-59 -514 0
-456 -37 0
509 498 0
-502 217 0
-209 -525 0
461 -117 0
423 372 0
844 802 0
-441 804 0
-724 593 0
536 -626 0
-36 -54 0
-572 471 0
25 87 0
-76 458 0
610 -646 0
546 219 0
354 751 0
-193 -145 0
-653 -636 0
-49 -544 0
-183 727 0
-215 -334 0
240 -5 0
160 86 0
-646 -726 0
-537 438 0
834 -241 0
812 -775 0
-228 -646 0
423 596 0
-614 -533 0
-17 -59 0
751 -337 0
280 -578 0
-422 652 0
672 151 0
-230 299 0
-68 546 0
150 33 0
-2 -440 0
-619 -199 0
270 179 0
846 212 0
-581 167 0
-639 267 0
-597 671 0
82 -853 0
522 -121 0
-196 -205 0
-371 464 0
857 816 0
-358 -614 0
-193 616 0
-98 141 0
153 6 0
-718 -88 0
131 247 0
92 96 0
-794 -133 0
-185 -712 0
-625 -663 0
44 -428 0
-214 -431 0
132 -755 0
278 374 0
-558 232 0
84 804 0
-757 -404 0
843 417 0
-592 -547 0
232 -602 0
-180 -396 0
47 531 0
352 -406 0
807 464 0
-100 -363 0
295 558 0
850 -214 0
506 175 0
154 135 0
-27 92 0
-248 333 0
605 369 0
-823 224 0
-51 311 0
-719 -525 0
57 -584 0
24 197 0
533 634 0
-430 448 0
799 -284 0
-441 654 0
-686 -199 0
312 -657 0
694 -541 0
236 856 0
-19 93 0
712 -805 0
301 -519 0
-24 -214 0
-533 172 0
311 852 0
126 37 0
118 -740 0
8 -625 0
-475 -753 0
-256 -688 0
230 -243 0
632 188 0
348 777 0
-86 160 0
-385 157 0
813 -284 0
-254 21 0
-386 -207 0
-636 -325 0
-797 -620 0
-441 -738 0
-686 489 0
-86 -411 0
250 -138 0
-424 -114 0
53 -704 0
-704 -91 0
462 -547 0
647 104 0
407 332 0
-335 -137 0
-417 -166 0
-148 -669 0
-270 -471 0
-750 -579 0
-586 -776 0
338 -46 0
-648 -112 0
-656 854 0
401 127 0
-37 -330 0
-603 157 0
-395 731 0
510 -196 0
-393 -218 0
-361 387 0
-93 -674 0
221 -364 0
628 -259 0
803 790 0
159 -383 0
-235 -802 0
-515 8 0
-404 84 0
169 538 0
-90 -119 0
-568 830 0
634 -214 0
65 -553 0
708 -416 0
654 -173 0
767 453 0
45 162 0
-68 -741 0
753 -577 0
-510 60 0
-21 -318 0
776 -694 0
532 -452 0
-46 -19 0
-836 458 0
-122 -260 0
442 -519 0
-731 -75 0
-818 333 0
-433 -856 0
120 -40 0
-108 -210 0
-505 633 0
-706 -659 0
-613 320 0
424 597 0
-74 -114 0
169 288 0
-730 -569 0
317 473 0
-737 -506 0
550 -255 0
621 44 0
169 -825 0
-762 73 0
-741 -234 0
521 748 0
722 -673 0
-623 -352 0
480 582 0
-231 711 0
-368 -778 0
4 -278 0
66 -642 0
-120 580 0
25 815 0
-832 714 0
-845 123 0
-32 -622 0
738 109 0
813 51 0
528 666 0
737 -9 0
177 332 0
-568 -857 0
-595 655 0
-280 -341 0
168 -353 0
-546 -142 0
108 826 0
26 599 0
563 417 0
189 436 0
297 270 0
-849 599 0
-94 856 0
476 239 0
-746 567 0
-35 -51 0
-336 -346 0
357 -182 0
-480 163 0
-825 -614 0
3 -479 0
801 -505 0
-197 58 0
534 -742 0
32 106 0
-756 833 0
227 -42 0
-257 726 0
-652 23 0
-332 -593 0
-227 -602 0
-450 299 0
-460 -160 0
-533 -563 0
-825 -151 0
631 681 0
175 -307 0
752 18 0
-126 9 0
255 -248 0
546 -122 0
436 635 0
-179 854 0
-566 -613 0
-403 -70 0
-151 -796 0
-444 -17 0
306 -257 0
-334 448 0
211 593 0
246 93 0
-440 409 0
-832 -502 0
109 -220 0
-256 371 0
-787 492 0
-473 651 0
-185 531 0
672 762 0
809 249 0
-768 11 0
-457 -822 0
343 -474 0
331 -659 0
-674 -837 0
-199 355 0
-741 705 0
30 -200 0
-309 389 0
171 588 0
178 555 0
-846 20 0
186 125 0
-11 584 0
-656 395 0
849 -680 0
555 818 0
157 676 0
444 -6 0
-285 -332 0
-215 775 0
146 -553 0
150 -113 0
-165 829 0
-229 644 0
96 -802 0
4 -127 0
-97 354 0
-793 129 0
-268 348 0
350 22 0
706 -721 0
-813 -375 0
-393 620 0
389 -625 0
5 670 0
387 -520 0
-226 -235 0
-709 -44 0
-562 458 0
306 576 0
589 289 0
247 -827 0
-623 -625 0
-122 83 0
-606 73 0
225 -470 0
380 -830 0
-61 -101 0
-411 833 0
-567 559 0
-234 224 0
267 -367 0
589 -792 0
-193 422 0
-90 -282 0
354 -533 0
-210 794 0
118 463 0
638 -75 0
-113 -347 0
-558 501 0
60 622 0
752 -187 0
-760 567 0
-435 394 0
-438 105 0
-109 550 0
-402 246 0
-134 448 0
-45 -252 0
620 -393 0
-40 446 0
-639 63 0
191 -296 0
-753 -43 0
789 -728 0
687 766 0
332 540 0
-241 294 0
423 495 0
4 -768 0
-648 -686 0
462 -558 0
658 -342 0
-51 309 0
-406 -210 0
-641 216 0
-274 -487 0
-334 250 0
-544 -186 0
175 -328 0
-5 638 0
132 358 0
725 -74 0
-755 -526 0
-750 -742 0
-759 534 0
693 565 0
607 -780 0
453 -529 0
594 702 0
-680 -645 0
-97 363 0
494 558 0
-666 115 0
-351 522 0
-282 -477 0
-4 -598 0
230 -762 0
783 -636 0
609 -569 0
272 810 0
350 306 0
746 -515 0
790 -570 0
474 456 0
847 -510 0
-602 -657 0
-454 538 0
-822 -9 0
802 487 0
-838 486 0
-17 -532 0
296 140 0
529 -471 0
775 -554 0
658 783 0
-441 -221 0
524 -762 0
-820 -688 0
628 567 0
805 826 0
-614 210 0
549 -724 0
-244 -595 0
54 -31 0
-800 563 0
112 596 0
159 -342 0
522 241 0
293 -39 0
-293 -146 0
852 177 0
-787 -534 0
575 -624 0
-192 -564 0
641 -303 0
-502 413 0
-558 -347 0
-307 816 0
-446 -117 0
-797 586 0
268 446 0
-542 497 0
-362 99 0
-375 -645 0
127 122 0
744 365 0
-371 -645 0
-622 -54 0
812 808 0
-391 668 0
253 -245 0
811 795 0
386 657 0
410 632 0
138 499 0
-303 570 0
300 99 0
715 -1 0
71 556 0
-547 674 0
-374 137 0
620 356 0
-292 288 0
111 -474 0
800 729 0
-601 -753 0
-437 144 0
396 -188 0
302 -740 0
-375 -276 0
128 -386 0
-440 -240 0
-462 697 0
357 299 0
-392 -588 0
-698 -602 0
697 421 0
74 -123 0
223 501 0
485 -500 0
-636 -104 0
-762 -731 0
-230 314 0
577 -428 0
447 154 0
-98 -190 0
-374 203 0
-418 610 0
-587 357 0
312 -1 0
65 642 0
-207 655 0
-543 596 0
-148 -554 0
448 -207 0
577 846 0
47 -788 0
-639 -775 0
-623 203 0
306 134 0
-187 -200 0
560 -310 0
-345 -680 0
-273 15 0
-612 638 0
55 329 0
-466 523 0
784 -633 0
571 -537 0
-775 -404 0
49 494 0
-319 605 0
260 -762 0
745 -408 0
-591 90 0
162 738 0
133 521 0
-182 203 0
487 69 0
-90 291 0
-759 580 0
497 459 0
592 634 0
-672 -95 0
621 52 0
-628 -792 0
686 -570 0
-675 -663 0
-165 -389 0
-689 445 0
668 417 0
523 -37 0
-787 359 0
317 409 0
-139 -613 0
-427 -143 0
350 42 0
-639 -747 0
672 644 0
161 663 0
-115 -686 0
-134 798 0
-330 476 0
-575 260 0
-612 15 0
-429 -581 0
-249 193 0
-335 25 0
-789 -623 0
-658 780 0
219 636 0
156 -376 0
325 -742 0
188 712 0
107 125 0
204 -39 0
662 -243 0
129 -598 0
-342 -577 0
854 297 0
-851 818 0
302 478 0
353 410 0
358 40 0
-587 348 0
751 420 0
-583 -792 0
708 353 0
164 -111 0
368 -172 0
823 -461 0
-406 300 0
358 274 0
-548 -256 0
-404 762 0
118 -805 0
357 -528 0
-163 -191 0
127 -16 0
630 172 0
815 492 0
-342 -793 0
-731 585 0
317 462 0
-594 515 0
802 -270 0
-598 441 0
452 643 0
-213 306 0
50 -60 0
-636 -499 0
-110 756 0
2 -755 0
-737 120 0
-832 -857 0
-369 218 0
818 -141 0
120 228 0
-278 213 0
-632 483 0
-459 -346 0
559 -371 0
-182 425 0
330 58 0
-814 708 0
493 658 0
82 -17 0
253 -595 0
10 -316 0
736 184 0
-526 -232 0
689 -845 0
-759 640 0
-702 401 0
-374 -551 0
-421 -619 0
-487 496 0
149 -645 0
-72 736 0
147 633 0
-647 188 0
