c bounds 91 91
p cnf 810 2835
-567 -490 0
-599 605 0
-482 -547 0
262 -589 0
161 620 0
-397 796 0
-134 -629 0
719 -165 0
-348 -655 0
-452 -648 0
213 769 0
-391 -380 0
-266 456 0
-534 -148 0
129 -43 0
682 -124 0
-651 -659 0
-356 -620 0
-358 646 0
-641 552 0
635 738 0
-130 424 0
461 358 0
-368 155 0
127 -565 0
474 -306 0
-596 769 0
534 188 0
509 -69 0
-287 29 0
-178 12 0
191 466 0
568 -639 0
413 -343 0
461 -311 0
-220 578 0
-76 114 0
-200 244 0
-802 63 0
-429 522 0
-378 -681 0
-378 383 0
466 197 0
-489 780 0
242 -617 0
588 721 0
321 705 0
-516 282 0
8 713 0
-581 -406 0
-351 516 0
-388 -238 0
-762 404 0
92 -713 0
-279 617 0
110 -650 0
111 -805 0
-647 296 0
-55 633 0
-308 201 0
-328 -21 0
-323 193 0
781 -347 0
-764 599 0
-12 670 0
465 571 0
-488 -567 0
-246 -578 0
225 -541 0
760 616 0
286 540 0
-63 304 0
319 204 0
658 -211 0
201 -678 0
-784 -229 0
-120 284 0
-49 -368 0
470 -398 0
321 2 0
-786 -190 0
-291 -247 0
486 408 0
802 -643 0
184 -68 0
-675 694 0
-434 -190 0
-271 -590 0
-402 301 0
-624 349 0
698 -42 0
-163 -242 0
311 -45 0
-46 299 0
-672 -594 0
50 -600 0
447 -795 0
-595 609 0
-396 375 0
-177 400 0
-442 -271 0
-693 81 0
-508 -629 0
484 383 0
-117 -604 0
-155 -216 0
-771 787 0
478 -754 0
203 206 0
120 772 0
-102 -271 0
-249 -790 0
269 -45 0
-419 331 0
445 214 0
630 251 0
721 614 0
-216 233 0
-35 -693 0
-761 -596 0
110 -349 0
-92 391 0
-286 -340 0
-708 -49 0
705 -410 0
-442 373 0
-776 538 0
724 334 0
-659 -238 0
280 679 0
-639 458 0
-226 566 0
-75 -586 0
377 -790 0
25 -760 0
-107 656 0
386 609 0
177 -35 0
631 -527 0
-734 -155 0
403 121 0
34 -341 0
312 -387 0
-6 155 0
-383 -71 0
-568 -504 0
-790 511 0
-226 358 0
-183 -766 0
-463 89 0
-303 -47 0
-751 -802 0
-290 371 0
-151 369 0
-23 -600 0
170 765 0
421 -616 0
244 273 0
603 738 0
148 631 0
132 755 0
179 688 0
568 89 0
-558 -311 0
275 -317 0
389 -737 0
755 -548 0
385 -688 0
-377 -581 0
213 -154 0
275 387 0
784 588 0
-673 187 0
-805 293 0
-708 33 0
-686 -762 0
51 228 0
233 477 0
33 -198 0
761 270 0
-370 314 0
-87 -176 0
393 411 0
-491 409 0
378 318 0
-602 157 0
-451 512 0
109 444 0
109 -576 0
-427 -565 0
-567 -578 0
-242 -797 0
720 -13 0
803 -152 0
-366 -2 0
82 574 0
-406 -266 0
-294 -462 0
12 -116 0
-603 87 0
-357 557 0
-93 -741 0
410 -590 0
316 -444 0
-716 -76 0
137 111 0
257 -82 0
-701 127 0
-118 -764 0
-413 -618 0
-558 434 0
-370 -312 0
-726 583 0
735 419 0
301 -172 0
126 133 0
87 407 0
-243 -508 0
138 -104 0
-796 -16 0
54 256 0
255 -504 0
-147 547 0
-748 -698 0
-384 633 0
35 254 0
-361 -480 0
744 132 0
-787 732 0
270 -199 0
314 661 0
-407 -567 0
-131 36 0
-524 359 0
773 -97 0
-711 -290 0
431 601 0
804 519 0
-162 268 0
-187 234 0
598 483 0
-462 -439 0
-150 205 0
556 -711 0
250 -124 0
-442 445 0
604 -389 0
325 2 0
744 -306 0
168 32 0
395 -2 0
-130 461 0
-707 -683 0
-787 354 0
476 -679 0
-606 84 0
-38 -709 0
-729 -340 0
-224 -738 0
-227 512 0
523 -529 0
-287 -185 0
169 -795 0
65 -129 0
-706 -252 0
-594 -208 0
-384 583 0
-447 -16 0
346 575 0
-238 -666 0
-769 -416 0
666 331 0
-182 599 0
-271 507 0
415 -723 0
-785 -766 0
-465 571 0
703 -59 0
-797 154 0
436 334 0
267 582 0
788 102 0
-608 496 0
614 -230 0
-131 446 0
-724 656 0
-44 -434 0
-136 106 0
664 537 0
-90 -28 0
455 -476 0
145 738 0
117 -761 0
334 478 0
425 51 0
726 169 0
-659 -734 0
-516 -361 0
457 334 0
443 766 0
-458 159 0
-573 -167 0
-587 -96 0
424 806 0
809 -374 0
-541 -405 0
406 454 0
-415 305 0
-771 397 0
442 206 0
-295 -666 0
281 -726 0
631 -323 0
-74 -697 0
728 -230 0
-446 -28 0
-225 -243 0
350 548 0
175 -661 0
127 -164 0
285 179 0
-234 424 0
-156 -544 0
403 623 0
-678 -359 0
-305 -403 0
-671 305 0
-491 430 0
379 500 0
-497 13 0
-730 188 0
420 204 0
312 777 0
-576 250 0
784 559 0
134 590 0
-311 -423 0
123 -372 0
289 -511 0
-235 -115 0
380 196 0
-627 -679 0
-616 307 0
-112 257 0
-220 -634 0
746 619 0
404 -700 0
498 731 0
-332 -262 0
691 768 0
-114 130 0
-245 244 0
-338 -202 0
-484 135 0
-447 -115 0
657 505 0
181 -268 0
64 -539 0
-578 685 0
778 -747 0
-749 -102 0
374 314 0
-562 132 0
548 -472 0
-529 -399 0
443 -258 0
504 -793 0
-130 739 0
392 393 0
116 -462 0
421 565 0
591 785 0
394 -437 0
117 -531 0
-693 -191 0
-322 807 0
-6 -286 0
724 -168 0
-238 527 0
89 -33 0
-144 -492 0
313 456 0
222 92 0
-797 406 0
21 -442 0
-130 804 0
-567 435 0
640 -21 0
605 301 0
179 -180 0
710 -418 0
-634 201 0
139 174 0
-742 -264 0
212 193 0
90 679 0
-733 -164 0
284 -253 0
-438 -37 0
779 40 0
-114 -117 0
-378 -625 0
-771 -697 0
532 -720 0
-743 -647 0
-104 -420 0
-144 -303 0
205 256 0
478 -39 0
731 433 0
-116 663 0
179 -631 0
612 456 0
-176 722 0
-773 724 0
113 102 0
572 -156 0
59 -74 0
4 498 0
-264 -60 0
-429 276 0
476 -280 0
-430 244 0
-466 -624 0
496 8 0
543 -218 0
301 -689 0
382 794 0
354 195 0
490 -260 0
-23 -333 0
23 196 0
369 70 0
-144 -399 0
750 221 0
-33 -447 0
-738 -524 0
661 -60 0
501 499 0
233 -641 0
-797 -287 0
-43 -571 0
-315 -317 0
735 242 0
532 -640 0
-806 -681 0
-442 -499 0
-772 285 0
-795 425 0
678 672 0
-35 263 0
690 -470 0
382 210 0
-214 -544 0
620 -59 0
612 -658 0
-437 -435 0
344 -43 0
-261 295 0
-578 722 0
-405 -108 0
-338 -328 0
-429 437 0
-516 95 0
-95 133 0
372 360 0
-493 -430 0
-680 -626 0
728 358 0
514 -630 0
455 -594 0
-77 -606 0
-795 269 0
-420 -658 0
-655 -545 0
119 -234 0
126 6 0
563 -218 0
-539 -179 0
-571 -698 0
-771 -567 0
-700 -579 0
342 -362 0
-702 -810 0
778 629 0
404 -408 0
327 -361 0
-11 625 0
-701 -472 0
446 672 0
545 -405 0
571 747 0
213 511 0
542 -611 0
468 -557 0
19 353 0
-137 100 0
270 -363 0
166 312 0
474 731 0
-372 -497 0
345 165 0
-593 4 0
-125 806 0
-99 133 0
367 502 0
-745 -597 0
-810 80 0
-561 563 0
-245 432 0
444 -361 0
-742 155 0
-5 196 0
17 166 0
-180 -485 0
378 179 0
196 -521 0
-138 554 0
764 -430 0
672 804 0
307 164 0
-652 784 0
-215 280 0
-223 -55 0
161 441 0
275 26 0
242 -626 0
336 -246 0
-697 -534 0
-688 -44 0
-342 -387 0
-232 301 0
-47 -702 0
169 -687 0
674 -463 0
-402 -598 0
449 -312 0
-387 -786 0
-231 -125 0
134 -467 0
-587 431 0
123 -33 0
155 -345 0
-220 -624 0
301 -3 0
-464 672 0
-553 667 0
-293 -666 0
-315 139 0
-491 749 0
153 -458 0
-143 454 0
605 -676 0
135 -36 0
-11 -341 0
-473 651 0
615 304 0
-414 415 0
154 -751 0
-568 578 0
-447 -592 0
203 616 0
493 -238 0
-372 -760 0
-669 62 0
801 -162 0
331 436 0
481 -374 0
-538 547 0
-210 80 0
-50 654 0
740 660 0
710 -177 0
589 -222 0
-184 729 0
-568 -268 0
686 -512 0
543 738 0
-698 -636 0
336 493 0
-460 120 0
393 27 0
417 -621 0
-400 -516 0
362 280 0
476 -622 0
621 -269 0
-577 696 0
490 275 0
694 -736 0
-326 410 0
486 -215 0
-639 -732 0
130 665 0
-49 -333 0
44 149 0
107 317 0
-395 337 0
-783 -143 0
-214 -641 0
59 -60 0
-469 -291 0
488 -249 0
-116 -290 0
-216 -295 0
486 228 0
217 301 0
509 -783 0
674 -83 0
-117 444 0
-351 485 0
-531 691 0
-745 270 0
440 -518 0
631 492 0
-338 -690 0
456 -106 0
759 448 0
591 -725 0
-202 56 0
269 161 0
-471 -238 0
270 -82 0
40 -715 0
306 546 0
609 -370 0
801 166 0
11 -9 0
721 326 0
-504 -517 0
-125 145 0
-763 -463 0
-35 312 0
-419 -287 0
-472 291 0
-252 761 0
685 79 0
483 257 0
-730 -87 0
-655 -116 0
727 -128 0
547 372 0
642 -630 0
-1 304 0
-130 -596 0
592 304 0
-560 272 0
676 -705 0
368 432 0
-651 680 0
-602 532 0
-198 -739 0
-349 740 0
257 -387 0
432 -502 0
-539 -782 0
204 -716 0
-701 -180 0
228 -11 0
-756 654 0
-678 -278 0
778 336 0
19 759 0
780 -467 0
80 125 0
-582 750 0
-643 -722 0
-568 417 0
-409 96 0
342 19 0
379 722 0
-765 -796 0
481 -627 0
257 342 0
-515 -378 0
-93 734 0
706 569 0
4 -229 0
795 -138 0
-177 408 0
-489 332 0
-569 619 0
-559 163 0
-64 64 0
601 266 0
-557 617 0
715 175 0
-313 -802 0
765 559 0
-514 -388 0
714 314 0
426 -374 0
-392 572 0
638 -200 0
-587 702 0
-381 54 0
227 123 0
86 -378 0
-65 -115 0
-259 281 0
550 -137 0
-384 -401 0
-467 -75 0
-77 433 0
-399 -398 0
-409 157 0
-373 -668 0
311 391 0
-578 601 0
-359 -162 0
-46 -287 0
-19 -28 0
-772 -363 0
25 11 0
-702 277 0
164 -732 0
-523 729 0
-370 557 0
-399 -235 0
-655 -565 0
705 -607 0
572 333 0
-112 -3 0
-593 -106 0
-695 -565 0
-679 646 0
562 50 0
-229 354 0
137 -179 0
365 427 0
-471 -512 0
110 257 0
784 -82 0
297 598 0
-24 654 0
140 -418 0
-518 -755 0
-177 634 0
785 550 0
-220 -575 0
779 -304 0
174 -589 0
242 168 0
-363 511 0
-247 724 0
-387 -231 0
779 -390 0
-423 -486 0
-767 300 0
424 605 0
-262 323 0
-538 94 0
-630 331 0
-719 -398 0
193 554 0
-429 -268 0
-528 -517 0
-112 642 0
165 174 0
-783 -351 0
-202 -347 0
640 -157 0
193 488 0
445 -325 0
528 -431 0
-760 335 0
-145 -230 0
208 450 0
204 -693 0
173 275 0
675 -298 0
-480 120 0
248 413 0
-352 566 0
245 -266 0
775 -558 0
648 -129 0
24 -651 0
-518 295 0
179 -746 0
562 555 0
-20 386 0
516 -380 0
84 -796 0
620 -698 0
184 -501 0
-114 601 0
40 -552 0
207 -235 0
-348 312 0
192 -194 0
162 738 0
-147 152 0
-597 789 0
-800 461 0
628 -594 0
710 -557 0
804 135 0
280 145 0
-81 223 0
-485 -225 0
-45 776 0
145 27 0
544 492 0
596 757 0
79 -104 0
-353 550 0
601 74 0
-764 481 0
665 -57 0
8 -4 0
-661 -55 0
-85 -105 0
562 -54 0
779 -74 0
69 631 0
372 -739 0
511 -308 0
773 -490 0
480 -795 0
778 -160 0
-153 -730 0
27 -617 0
-125 719 0
-214 -224 0
514 -619 0
432 799 0
-333 -50 0
713 -386 0
-349 492 0
8 -406 0
360 -536 0
145 -3 0
135 453 0
-273 699 0
687 525 0
561 -173 0
-60 -227 0
-26 -542 0
-641 -491 0
-692 -36 0
661 -233 0
809 183 0
-661 462 0
-385 236 0
354 375 0
-456 799 0
-542 -662 0
-477 137 0
-94 677 0
-607 -44 0
-395 -170 0
726 511 0
-311 78 0
-716 -687 0
-392 660 0
597 -3 0
-235 531 0
-760 342 0
-402 705 0
300 -65 0
-82 -202 0
-669 144 0
-126 -485 0
-497 -653 0
-790 -37 0
479 -349 0
-214 -119 0
717 -358 0
494 361 0
-736 736 0
-635 -692 0
417 -440 0
-257 -552 0
724 -720 0
448 -793 0
-279 507 0
-516 -34 0
227 366 0
-553 55 0
-219 -59 0
554 456 0
588 197 0
-695 -442 0
721 661 0
-658 -537 0
-192 -551 0
-485 -330 0
-458 -280 0
-417 743 0
590 158 0
-552 662 0
-104 436 0
205 -70 0
153 -385 0
529 -795 0
-244 599 0
494 11 0
-290 656 0
-105 -598 0
376 280 0
-594 -629 0
-545 -279 0
-745 -240 0
-551 729 0
-68 -517 0
-516 -232 0
-240 -355 0
693 -794 0
-476 612 0
440 -618 0
-105 -72 0
589 223 0
66 663 0
-65 -629 0
-163 -518 0
454 705 0
-563 -458 0
256 139 0
589 -626 0
23 -662 0
13 613 0
62 87 0
312 481 0
-752 -16 0
-618 700 0
-558 557 0
-230 627 0
-296 -307 0
532 555 0
-82 -105 0
577 30 0
-149 100 0
248 -122 0
468 350 0
808 208 0
-2 -234 0
-458 -797 0
-525 -385 0
106 -770 0
158 5 0
-176 203 0
-384 146 0
-555 -171 0
500 -390 0
-88 663 0
462 -604 0
472 332 0
379 -356 0
-416 -484 0
-307 -99 0
-465 684 0
-119 -678 0
-122 334 0
617 -270 0
-597 135 0
-199 -435 0
-28 -605 0
-71 -549 0
760 -226 0
-221 488 0
668 -639 0
-75 574 0
527 708 0
-547 -358 0
-709 223 0
350 -454 0
-639 -749 0
722 343 0
356 295 0
-708 616 0
-49 246 0
-286 562 0
-659 -473 0
-41 -698 0
-522 -611 0
-120 -720 0
231 120 0
228 -397 0
-344 78 0
165 -405 0
80 173 0
-482 412 0
488 -93 0
-309 91 0
242 451 0
-791 58 0
-501 -692 0
360 -328 0
-66 -607 0
735 -545 0
463 -509 0
-220 552 0
-683 -341 0
-77 -647 0
209 116 0
-579 -597 0
532 367 0
152 676 0
-800 -720 0
-122 -519 0
-484 642 0
-85 -563 0
-216 -639 0
-233 -524 0
-180 128 0
-143 381 0
-734 -754 0
-787 -249 0
-306 799 0
325 650 0
-808 -480 0
-152 -317 0
540 206 0
732 -567 0
-713 529 0
-740 290 0
283 -105 0
327 -341 0
333 -226 0
-271 523 0
136 -728 0
359 -227 0
-295 -384 0
497 166 0
112 -707 0
251 242 0
-226 -433 0
-465 716 0
404 331 0
-418 28 0
-611 5 0
10 -338 0
-50 384 0
221 -278 0
-380 527 0
517 -380 0
-539 632 0
-234 -216 0
615 -422 0
236 -437 0
-528 359 0
92 -204 0
152 -630 0
-592 620 0
-232 -766 0
605 526 0
630 -122 0
27 314 0
-423 -49 0
802 -403 0
-361 768 0
287 -589 0
-44 223 0
47 -636 0
-792 722 0
603 326 0
188 -329 0
719 -752 0
-61 443 0
411 -18 0
368 -601 0
-600 -210 0
-89 -764 0
-453 -627 0
-288 51 0
73 -473 0
428 239 0
-803 -94 0
440 54 0
446 -34 0
-582 -338 0
161 95 0
348 -793 0
646 -131 0
364 -201 0
310 442 0
-155 -453 0
451 577 0
-305 241 0
164 -380 0
-60 -215 0
-720 9 0
-422 -207 0
-751 540 0
-16 -273 0
69 -56 0
-74 164 0
-617 -659 0
107 326 0
-464 578 0
166 -137 0
631 686 0
-413 -428 0
-305 6 0
-638 -163 0
65 296 0
-766 97 0
-704 613 0
145 502 0
785 310 0
-462 -390 0
75 -387 0
141 232 0
380 148 0
-40 -659 0
-791 341 0
217 -714 0
205 -18 0
329 -298 0
-53 331 0
462 682 0
-105 -114 0
452 -796 0
255 -82 0
-696 705 0
-410 -552 0
-509 419 0
241 231 0
126 -561 0
-322 -460 0
354 774 0
-44 -737 0
-742 -795 0
-108 -465 0
86 33 0
213 92 0
460 700 0
546 -50 0
-116 364 0
271 -77 0
16 173 0
599 489 0
-11 -113 0
801 -87 0
339 -727 0
161 -389 0
231 -81 0
653 299 0
-572 -62 0
258 55 0
89 -630 0
228 449 0
792 -183 0
495 -214 0
-143 -200 0
-502 807 0
-553 188 0
470 779 0
-229 -377 0
-790 206 0
504 -711 0
-45 -326 0
-277 376 0
374 -296 0
263 -610 0
22 -751 0
-83 25 0
500 -783 0
-47 -770 0
179 -336 0
584 141 0
265 -126 0
-28 660 0
-679 -643 0
457 495 0
-704 -200 0
770 -328 0
629 -333 0
-338 305 0
95 -118 0
-383 -393 0
-85 339 0
-591 -509 0
100 -467 0
729 658 0
66 -203 0
-713 -677 0
-786 731 0
117 577 0
100 -599 0
-574 721 0
-708 -651 0
89 743 0
130 621 0
-766 293 0
-520 -592 0
-692 273 0
331 478 0
121 -229 0
726 643 0
-513 717 0
-583 -356 0
-688 386 0
-215 796 0
-510 -409 0
-147 -343 0
103 158 0
-416 -327 0
690 -549 0
293 -35 0
503 -676 0
290 -309 0
-200 -622 0
-660 -152 0
59 -402 0
329 -144 0
-536 244 0
-154 460 0
429 -328 0
-692 -72 0
89 -239 0
645 -65 0
592 22 0
588 -772 0
-776 269 0
760 717 0
-363 9 0
-761 331 0
517 563 0
528 -728 0
-219 -212 0
37 -308 0
-180 532 0
-675 -46 0
80 -770 0
162 404 0
449 595 0
175 -224 0
-692 -662 0
-287 54 0
-295 773 0
455 -723 0
439 634 0
-340 266 0
-400 -586 0
717 -23 0
-622 -50 0
-20 -175 0
-587 456 0
-734 317 0
-354 -581 0
101 -229 0
132 427 0
-201 672 0
170 -290 0
-478 267 0
456 32 0
674 -588 0
630 -18 0
217 -83 0
126 221 0
-243 -203 0
-291 412 0
498 711 0
-448 -408 0
-473 -168 0
-701 780 0
269 -122 0
382 648 0
-253 -9 0
-526 748 0
778 -406 0
-397 608 0
107 191 0
-105 528 0
173 92 0
-33 -805 0
84 -3 0
-568 -597 0
-558 -527 0
-14 -409 0
-467 -150 0
320 -260 0
-71 166 0
490 163 0
-677 -169 0
-794 152 0
-152 642 0
470 -706 0
-521 612 0
456 -448 0
-802 -673 0
-137 -683 0
136 269 0
78 -457 0
-375 267 0
735 -195 0
-749 705 0
-630 303 0
123 297 0
677 65 0
444 425 0
-439 -647 0
368 596 0
212 324 0
223 791 0
722 49 0
507 445 0
-185 787 0
386 -108 0
336 728 0
-402 696 0
645 -423 0
84 -636 0
550 569 0
133 -610 0
87 404 0
525 -40 0
571 726 0
356 -600 0
509 188 0
-409 377 0
-544 332 0
314 404 0
-374 -340 0
-143 674 0
-30 -214 0
280 -382 0
-564 499 0
440 514 0
546 119 0
-742 741 0
-240 147 0
-391 87 0
-568 -707 0
638 -125 0
-157 550 0
-265 121 0
301 244 0
-627 11 0
-421 -796 0
612 741 0
-16 -247 0
-366 -679 0
665 246 0
-634 -435 0
-142 165 0
-734 528 0
-418 349 0
613 85 0
564 799 0
-565 416 0
131 -764 0
562 -190 0
328 599 0
-343 108 0
-547 393 0
-105 20 0
584 -152 0
421 -545 0
-40 -82 0
-118 -149 0
580 582 0
784 522 0
-451 509 0
-737 561 0
-655 211 0
719 -394 0
730 -389 0
-396 -77 0
339 -103 0
575 -699 0
115 381 0
-134 -200 0
-630 -55 0
768 -183 0
-562 -536 0
393 401 0
488 -29 0
-132 135 0
603 661 0
-93 -803 0
-687 129 0
-76 519 0
134 -517 0
452 185 0
178 -695 0
-335 -45 0
-25 161 0
-222 312 0
-275 -199 0
206 184 0
489 -45 0
91 -95 0
-177 209 0
-44 -254 0
-28 -138 0
-651 196 0
44 359 0
-333 -277 0
-82 351 0
768 472 0
-362 488 0
-471 619 0
-35 -464 0
31 -143 0
774 -593 0
-747 -548 0
274 -245 0
-2 631 0
265 -360 0
70 -662 0
-33 -617 0
-239 -745 0
-43 -175 0
-524 -484 0
-805 -139 0
-328 339 0
97 503 0
726 738 0
634 521 0
-14 -573 0
-665 -4 0
-545 267 0
750 -526 0
638 -385 0
32 -482 0
785 625 0
-611 794 0
372 -445 0
166 -293 0
398 196 0
-259 197 0
-662 -695 0
-37 -384 0
234 -694 0
372 620 0
346 -82 0
1 635 0
-45 87 0
-159 176 0
527 -501 0
-382 251 0
792 -742 0
-387 -717 0
-579 205 0
-545 460 0
-717 -553 0
-675 -6 0
372 -254 0
798 -340 0
623 224 0
184 569 0
10 -377 0
-291 250 0
215 -581 0
191 436 0
184 646 0
-16 -44 0
-26 383 0
490 454 0
-641 104 0
196 -646 0
-229 559 0
779 788 0
-299 356 0
96 8 0
502 3 0
-535 -248 0
603 -620 0
456 -442 0
-379 -772 0
752 148 0
804 288 0
-536 723 0
690 486 0
320 223 0
-118 805 0
60 73 0
415 -668 0
640 -178 0
590 256 0
479 748 0
457 467 0
227 -568 0
613 -274 0
-675 -318 0
72 326 0
256 461 0
-747 -620 0
-172 -573 0
417 -255 0
767 -622 0
530 280 0
456 -152 0
165 460 0
433 -361 0
79 -174 0
799 -704 0
-469 -203 0
-416 466 0
6 -658 0
90 434 0
-521 136 0
767 -214 0
489 79 0
-657 335 0
478 717 0
562 217 0
148 -43 0
-799 369 0
41 -560 0
-624 -804 0
-599 470 0
-361 683 0
87 294 0
457 384 0
694 435 0
359 -630 0
59 417 0
-543 654 0
-112 -420 0
-548 -574 0
-805 -375 0
-794 -139 0
456 -565 0
702 237 0
64 -704 0
-41 -33 0
422 -716 0
685 383 0
691 86 0
-67 -747 0
154 103 0
-28 -144 0
-94 -317 0
58 799 0
284 702 0
-214 193 0
788 10 0
-157 782 0
244 37 0
-130 -408 0
-143 -704 0
654 -403 0
380 -303 0
70 617 0
-742 293 0
-730 525 0
-597 8 0
649 203 0
-698 -268 0
-548 533 0
599 333 0
674 735 0
-551 -321 0
-708 -308 0
365 691 0
-209 -737 0
211 -797 0
538 -544 0
-704 768 0
139 -577 0
-20 -472 0
729 216 0
500 -726 0
-746 -703 0
-409 -46 0
-296 365 0
630 -586 0
-45 190 0
-437 483 0
727 228 0
-447 -394 0
53 663 0
-89 642 0
549 -345 0
449 455 0
675 -760 0
513 280 0
-441 -687 0
488 549 0
657 -39 0
-495 -233 0
-403 -171 0
-762 -698 0
582 -253 0
-389 -803 0
-659 -286 0
466 -202 0
-319 532 0
-777 -398 0
-446 514 0
-734 -725 0
-695 -265 0
617 -300 0
-298 -584 0
265 704 0
117 481 0
166 -571 0
-764 -400 0
623 590 0
259 644 0
132 685 0
806 -49 0
72 331 0
-208 791 0
496 446 0
-253 317 0
-412 383 0
664 -546 0
358 336 0
153 498 0
-557 -137 0
732 -619 0
206 -233 0
649 -271 0
-84 -775 0
-810 483 0
-161 -795 0
12 441 0
-536 484 0
-710 281 0
741 -702 0
-345 -611 0
-594 506 0
-154 -782 0
646 -340 0
-504 -634 0
-482 135 0
594 -547 0
-389 382 0
-32 59 0
-727 -49 0
-467 771 0
433 -252 0
-541 564 0
577 488 0
-81 -625 0
404 -538 0
550 477 0
739 356 0
-557 599 0
-613 -371 0
771 -68 0
-681 -62 0
310 309 0
-388 545 0
-143 545 0
300 275 0
527 -70 0
647 -125 0
217 461 0
-51 -74 0
450 -629 0
346 494 0
669 -394 0
-42 467 0
613 380 0
-558 95 0
441 -142 0
364 -164 0
-782 523 0
-672 -157 0
519 514 0
-396 347 0
-494 654 0
725 -651 0
501 654 0
-363 -212 0
398 -279 0
679 223 0
-59 -723 0
131 -786 0
-673 506 0
-123 332 0
102 -653 0
260 460 0
561 569 0
267 29 0
87 -189 0
-92 -440 0
132 292 0
40 503 0
283 -451 0
804 319 0
-424 -670 0
-575 275 0
181 444 0
-548 -442 0
70 -440 0
167 -351 0
-552 -359 0
684 -650 0
-390 691 0
-787 -585 0
417 111 0
-472 -430 0
619 -599 0
-403 -36 0
788 -595 0
179 377 0
-643 524 0
350 184 0
479 -381 0
-288 -73 0
761 439 0
-198 79 0
654 -667 0
750 -1 0
-440 -249 0
626 197 0
-782 353 0
107 -526 0
6 -13 0
-718 -434 0
-526 -145 0
632 -184 0
-803 503 0
145 352 0
-7 187 0
128 431 0
-34 428 0
-782 663 0
417 244 0
-622 -312 0
-406 120 0
-683 -129 0
70 331 0
-737 425 0
-409 -437 0
-565 -163 0
255 -352 0
785 292 0
-596 -661 0
104 -112 0
200 324 0
-18 -795 0
185 801 0
-275 -430 0
281 250 0
-433 326 0
682 -214 0
782 753 0
-187 -429 0
-578 -577 0
-748 513 0
-640 -472 0
549 -263 0
21 -776 0
-737 -740 0
154 -238 0
562 -630 0
631 -322 0
566 -380 0
799 -786 0
742 -543 0
677 680 0
198 -723 0
199 174 0
645 -809 0
648 -311 0
-373 718 0
-472 -112 0
481 -810 0
389 -471 0
719 726 0
-190 -46 0
-602 763 0
-69 -747 0
-198 -101 0
231 -83 0
726 87 0
714 617 0
-459 -766 0
9 606 0
-70 -764 0
630 165 0
-263 -189 0
391 -105 0
78 199 0
243 -143 0
-673 -91 0
752 -556 0
-508 310 0
481 -314 0
168 -482 0
-378 -381 0
48 -384 0
-319 578 0
765 96 0
24 575 0
29 -482 0
318 377 0
-505 -726 0
-144 -424 0
307 -524 0
-170 -700 0
21 -675 0
-296 -782 0
141 105 0
-620 227 0
529 -566 0
-203 373 0
-330 -357 0
-803 667 0
356 133 0
-48 166 0
497 520 0
37 545 0
-219 -113 0
-745 -118 0
-548 -372 0
-377 -39 0
-484 667 0
802 -504 0
85 332 0
-97 339 0
664 -770 0
441 -467 0
-331 476 0
316 -574 0
-298 -702 0
60 -555 0
-535 352 0
-786 65 0
315 -659 0
-780 769 0
11 65 0
336 139 0
274 502 0
-719 445 0
-416 -180 0
489 -12 0
124 -499 0
511 -539 0
710 -548 0
807 202 0
-15 -177 0
512 656 0
-223 -83 0
337 -680 0
513 349 0
111 808 0
332 -324 0
-435 269 0
-413 -157 0
175 -43 0
772 -133 0
-385 -788 0
805 -464 0
252 -130 0
563 457 0
566 712 0
-167 -143 0
733 428 0
807 534 0
-639 529 0
88 -245 0
479 -149 0
255 628 0
-733 -343 0
780 -225 0
596 511 0
166 -177 0
-539 -387 0
317 188 0
242 -231 0
-332 -594 0
670 -584 0
-50 -722 0
-528 -548 0
609 -685 0
-203 -793 0
-571 -63 0
724 -661 0
383 388 0
-114 -563 0
-3 -194 0
-584 -678 0
-591 58 0
418 529 0
448 -240 0
285 -535 0
320 -5 0
197 -552 0
-336 -407 0
367 293 0
-464 735 0
168 788 0
256 71 0
767 -744 0
-188 -629 0
448 441 0
682 411 0
-683 -524 0
691 -146 0
-614 -754 0
237 456 0
-541 -101 0
635 -137 0
87 405 0
-798 -114 0
276 485 0
204 452 0
-323 316 0
500 350 0
123 -732 0
43 368 0
690 67 0
95 -803 0
-643 -50 0
-56 149 0
-675 681 0
-766 -498 0
650 -229 0
-207 -369 0
525 551 0
106 -446 0
-330 588 0
97 322 0
671 -379 0
-606 -593 0
-430 -416 0
695 -220 0
37 483 0
-515 -730 0
74 137 0
308 424 0
-389 -279 0
246 -440 0
-271 42 0
-524 164 0
710 -373 0
396 -482 0
478 463 0
-125 -559 0
10 751 0
113 -587 0
422 502 0
-201 -704 0
-430 168 0
-556 -440 0
-266 -355 0
-534 -115 0
-225 571 0
-96 -65 0
-219 -138 0
794 -17 0
687 -245 0
-327 -775 0
-697 204 0
506 -278 0
579 -171 0
-191 197 0
-345 -482 0
404 483 0
-766 73 0
665 -399 0
-701 -596 0
158 -377 0
-590 -556 0
-56 -109 0
164 368 0
8 -86 0
347 -485 0
671 -762 0
-42 -418 0
-681 239 0
-681 36 0
-429 736 0
-318 360 0
272 802 0
132 -543 0
244 799 0
-75 601 0
767 399 0
-675 -785 0
-788 -581 0
149 -459 0
-486 -556 0
-568 336 0
-5 492 0
331 725 0
80 -473 0
-434 376 0
387 -786 0
-128 265 0
-756 305 0
-435 -694 0
-527 -351 0
215 -565 0
-681 381 0
506 33 0
-66 614 0
-567 -222 0
-723 648 0
-321 738 0
-803 561 0
474 -575 0
314 136 0
-547 29 0
636 246 0
801 787 0
-723 -493 0
-61 682 0
-655 83 0
403 717 0
-403 -265 0
272 182 0
-44 -20 0
-371 -414 0
215 -402 0
365 107 0
-803 -68 0
-49 335 0
-800 284 0
-154 601 0
175 563 0
-126 -435 0
726 516 0
418 -390 0
-369 327 0
-766 -636 0
-329 -418 0
-162 34 0
-437 677 0
-438 -231 0
140 694 0
767 -727 0
-319 -542 0
735 -543 0
-758 -558 0
612 -502 0
-557 228 0
-198 -420 0
-379 -392 0
-698 247 0
123 -581 0
-710 436 0
498 -119 0
649 289 0
318 276 0
365 144 0
-273 279 0
314 750 0
-752 489 0
-779 196 0
292 712 0
676 658 0
-136 95 0
174 805 0
-58 609 0
-271 -471 0
-359 424 0
267 149 0
-560 632 0
535 778 0
728 -176 0
-24 -136 0
170 -651 0
-562 422 0
98 295 0
-291 -239 0
-358 -77 0
-352 -219 0
-348 -202 0
-430 769 0
149 342 0
-458 127 0
-651 -594 0
807 468 0
-668 -475 0
90 808 0
-357 -802 0
-701 465 0
719 160 0
461 809 0
-435 296 0
-400 -165 0
616 -697 0
722 61 0
-63 -358 0
65 227 0
-630 -57 0
604 369 0
476 -291 0
-50 -47 0
-636 -462 0
-742 206 0
-131 226 0
-551 -420 0
-145 608 0
-799 -226 0
27 -148 0
-558 750 0
257 -36 0
713 -696 0
-762 -789 0
603 405 0
390 717 0
97 758 0
80 529 0
281 -501 0
541 -638 0
473 -3 0
46 276 0
729 252 0
-113 -625 0
696 682 0
-538 -181 0
-725 -430 0
156 25 0
-783 667 0
-41 268 0
-459 -756 0
-379 158 0
-650 -791 0
684 460 0
-575 -537 0
-459 -37 0
-21 -458 0
-780 -593 0
-553 -394 0
-560 386 0
784 -43 0
-397 223 0
339 792 0
-311 -8 0
-378 -530 0
169 -437 0
425 -641 0
-581 -236 0
-395 -482 0
272 -357 0
-651 -409 0
-116 -82 0
331 572 0
-277 710 0
-39 -650 0
705 -675 0
-69 -772 0
284 89 0
525 575 0
294 -68 0
666 -230 0
520 160 0
-702 753 0
693 -409 0
-56 -704 0
799 189 0
-68 477 0
463 335 0
-774 308 0
424 230 0
-573 -574 0
-651 654 0
-749 -352 0
-194 492 0
316 -488 0
65 -651 0
806 -403 0
-378 -460 0
-398 -429 0
-629 556 0
-565 -11 0
306 -156 0
-266 4 0
-655 402 0
110 569 0
-343 -738 0
-505 -371 0
-764 -792 0
-437 417 0
544 -14 0
-440 -645 0
147 -771 0
301 420 0
95 -150 0
288 95 0
527 469 0
-393 139 0
-647 -139 0
625 54 0
227 -306 0
612 -747 0
-433 799 0
-329 530 0
665 -318 0
-652 -403 0
608 -253 0
204 -689 0
-535 -764 0
-75 -378 0
-166 682 0
-570 -349 0
-584 -778 0
145 -125 0
803 -230 0
-81 -292 0
-494 -491 0
-796 443 0
79 -593 0
-775 -227 0
419 -692 0
-154 -634 0
395 645 0
-399 -652 0
-198 594 0
-709 -447 0
293 433 0
-762 550 0
-604 -71 0
404 10 0
10 -24 0
590 785 0
530 -457 0
124 417 0
320 -568 0
477 561 0
-510 563 0
382 97 0
-71 508 0
-99 -388 0
-225 -547 0
42 -214 0
-517 638 0
-61 546 0
672 153 0
295 -380 0
720 -718 0
-619 632 0
789 -68 0
-366 -750 0
-397 640 0
-537 -703 0
-82 -524 0
-258 527 0
-157 436 0
225 -737 0
-396 37 0
-354 -214 0
784 -580 0
-774 780 0
715 -128 0
310 -245 0
520 14 0
649 -735 0
-748 -800 0
426 -279 0
-233 106 0
-621 -559 0
-752 444 0
-94 -26 0
-101 -597 0
-24 160 0
366 -602 0
507 -30 0
-350 -34 0
-733 -377 0
184 -255 0
-416 -299 0
507 649 0
-3 275 0
-630 598 0
-719 716 0
-731 -28 0
-467 -805 0
272 686 0
332 126 0
350 419 0
507 -257 0
344 784 0
339 -698 0
757 -180 0
193 -463 0
-181 491 0
100 727 0
-172 -759 0
785 -168 0
255 -238 0
726 275 0
293 761 0
-74 9 0
191 275 0
-65 40 0
301 -144 0
-464 19 0
-556 -469 0
-687 -392 0
668 -522 0
-131 -205 0
132 160 0
-135 -363 0
-385 -764 0
623 -789 0
-719 -544 0
706 -233 0
326 -594 0
271 640 0
509 248 0
369 26 0
-733 -381 0
-414 432 0
-543 585 0
360 721 0
-659 -438 0
785 -269 0
11 -784 0
-263 -296 0
391 -251 0
-92 -74 0
801 284 0
436 364 0
-618 -547 0
-71 -109 0
-387 -10 0
-516 293 0
-257 -215 0
-143 263 0
170 -750 0
-473 -651 0
-345 566 0
455 336 0
-18 327 0
-726 -268 0
410 767 0
-511 -538 0
-203 -156 0
-602 629 0
-277 621 0
-84 -770 0
809 -360 0
-664 481 0
-16 605 0
-75 -471 0
152 58 0
-692 -340 0
-15 339 0
719 744 0
180 -509 0
148 764 0
-37 -628 0
-179 -145 0
-377 465 0
654 454 0
-626 733 0
674 -299 0
126 -518 0
107 -544 0
-261 577 0
-604 757 0
-626 -682 0
-751 16 0
-485 -128 0
-367 -293 0
-337 -152 0
321 355 0
425 460 0
-240 -472 0
-279 -524 0
513 111 0
84 -190 0
257 498 0
-781 304 0
109 514 0
-156 -36 0
-636 372 0
564 403 0
-61 242 0
166 213 0
-625 499 0
-542 -661 0
457 -26 0
-725 -536 0
-586 -716 0
599 214 0
414 -632 0
805 -30 0
-728 621 0
-537 -156 0
244 253 0
-281 -26 0
-754 -410 0
494 -755 0
-689 297 0
-264 -362 0
-565 182 0
-579 -438 0
-311 -683 0
572 -370 0
-394 -297 0
514 477 0
-154 -637 0
-798 124 0
-410 616 0
-108 -428 0
-669 -185 0
742 660 0
-701 634 0
401 337 0
-371 -390 0
727 246 0
-16 -734 0
-548 -101 0
448 -125 0
-602 -264 0
-46 757 0
293 -361 0
-370 610 0
744 -306 0
461 -92 0
215 -317 0
642 -568 0
-273 170 0
554 304 0
714 -772 0
-185 -152 0
-2 787 0
-550 27 0
195 498 0
424 506 0
-535 386 0
-303 91 0
114 738 0
-761 -579 0
788 37 0
739 520 0
222 -220 0
-232 -785 0
-607 -52 0
764 667 0
-204 -23 0
707 173 0
533 -465 0
-797 -309 0
-720 674 0
31 -711 0
710 -394 0
-809 257 0
-469 -451 0
-319 389 0
349 -298 0
699 -274 0
-40 196 0
-647 61 0
412 369 0
-704 251 0
-15 -125 0
-476 -394 0
743 -628 0
-763 144 0
-629 134 0
749 -677 0
-375 433 0
-391 -226 0
792 -49 0
-587 -116 0
661 29 0
205 396 0
204 612 0
-487 167 0
-384 726 0
769 454 0
96 -403 0
-427 -328 0
248 133 0
-551 -421 0
426 623 0
572 -634 0
206 193 0
-715 -641 0
-535 -67 0
-573 376 0
529 -398 0
332 785 0
-555 -485 0
549 -193 0
-101 608 0
401 -437 0
-636 281 0
802 -740 0
-299 614 0
625 474 0
-253 100 0
460 -131 0
415 644 0
448 -16 0
686 22 0
84 -803 0
-183 -500 0
569 -203 0
-77 -298 0
-713 -214 0
-370 -82 0
124 -792 0
-183 598 0
-350 -766 0
-351 -725 0
369 -688 0
132 -589 0
78 -336 0
592 -800 0
146 -641 0
674 505 0
285 786 0
-55 708 0
-340 -77 0
14 -30 0
403 -351 0
173 502 0
386 -552 0
262 -341 0
784 -95 0
-700 -397 0
-642 415 0
-613 -214 0
246 -290 0
476 335 0
743 -758 0
-505 98 0
-82 -722 0
-695 545 0
-702 -317 0
332 -405 0
149 -127 0
481 -130 0
136 -557 0
248 -171 0
-522 -169 0
-277 121 0
-636 664 0
724 -278 0
168 -302 0
-742 87 0
799 454 0
-629 359 0
165 197 0
566 35 0
150 -156 0
414 -340 0
-46 659 0
-491 93 0
-389 -142 0
-674 -442 0
324 -436 0
35 808 0
306 107 0
575 520 0
373 -542 0
244 -249 0
332 -437 0
-324 -544 0
-200 -396 0
-581 62 0
549 -702 0
67 140 0
694 -146 0
-309 474 0
398 -198 0
534 -203 0
528 -297 0
1 -699 0
529 22 0
-621 -45 0
636 528 0
-265 663 0
-647 -708 0
-600 526 0
-113 -237 0
659 501 0
-708 606 0
-42 -724 0
531 -747 0
-683 787 0
677 280 0
-316 344 0
64 620 0
-792 -775 0
-757 676 0
111 -57 0
-418 292 0
9 -613 0
258 -266 0
632 -586 0
-18 -493 0
-139 170 0
-662 -562 0
-552 441 0
-250 457 0
-540 739 0
136 -463 0
-357 368 0
-377 -83 0
295 272 0
694 426 0
-659 -401 0
-535 547 0
78 -642 0
-117 237 0
177 401 0
365 -62 0
506 -77 0
-178 275 0
476 -507 0
-809 -634 0
215 696 0
299 -595 0
-400 468 0
78 785 0
722 213 0
621 -16 0
-485 251 0
-643 -464 0
-379 -219 0
513 -3 0
-405 -177 0
-542 -396 0
179 113 0
-70 -634 0
424 332 0
310 -810 0
369 804 0
511 6 0
285 -130 0
-645 246 0
-437 -436 0
-416 -218 0
-251 137 0
103 -650 0
569 -488 0
-507 -380 0
-728 -610 0
166 -220 0
779 565 0
-142 -380 0
728 534 0
-218 -378 0
313 136 0
657 -372 0
-93 569 0
16 347 0
34 -261 0
76 -395 0
-32 185 0
775 -720 0
-462 -424 0
702 300 0
645 -356 0
-469 -343 0
86 595 0
125 -36 0
-83 -429 0
-11 65 0
422 -508 0
676 -715 0
693 571 0
-295 78 0
489 680 0
-536 -119 0
-435 -680 0
171 270 0
-406 576 0
-197 312 0
445 766 0
-98 173 0
188 -202 0
759 488 0
255 348 0
-797 -21 0
-688 525 0
-722 436 0
-21 360 0
773 785 0
-21 -209 0
574 -504 0
88 -435 0
488 -2 0
415 -693 0
-442 -458 0
613 449 0
-130 250 0
303 -670 0
204 478 0
-342 354 0
-182 -117 0
1 371 0
779 68 0
184 9 0
-278 -429 0
-432 -306 0
-104 156 0
263 -655 0
460 -561 0
246 617 0
-203 -212 0
617 314 0
406 141 0
-693 -725 0
582 -472 0
534 352 0
-682 -700 0
-7 -629 0
-172 -203 0
-776 664 0
188 -697 0
382 563 0
284 226 0
-486 550 0
522 -44 0
-288 563 0
-482 538 0
-749 445 0
-754 248 0
-229 -3 0
-29 95 0
441 -220 0
481 -666 0
-584 -401 0
-122 -586 0
738 753 0
25 -684 0
-659 -94 0
-111 182 0
-454 424 0
92 -75 0
383 -611 0
344 -7 0
209 -748 0
747 -800 0
183 -803 0
591 -251 0
738 -69 0
463 733 0
386 359 0
613 -23 0
-38 -737 0
2 186 0
-597 -253 0
228 -175 0
-219 22 0
-201 -204 0
356 807 0
-574 -57 0
15 -245 0
428 667 0
-737 -451 0
-116 400 0
48 -13 0
-603 -541 0
-473 40 0
772 637 0
699 729 0
-727 511 0
779 646 0
-30 -521 0
179 -447 0
413 336 0
-740 414 0
-738 -308 0
-675 -358 0
364 -664 0
-442 776 0
-122 631 0
237 -244 0
80 -573 0
-446 690 0
-93 -627 0
791 236 0
-172 -259 0
-384 -802 0
17 -556 0
-219 -610 0
-108 -740 0
618 514 0
658 27 0
-610 434 0
722 250 0
-330 -23 0
72 -610 0
-278 600 0
696 -116 0
110 -162 0
-56 384 0
-138 -50 0
293 290 0
-584 -62 0
517 570 0
-499 -190 0
491 -61 0
-536 -366 0
-32 -611 0
-321 -600 0
-645 424 0
248 781 0
-482 -627 0
-787 -427 0
465 179 0
-205 316 0
-560 393 0
656 283 0
225 -786 0
-114 -541 0
-517 646 0
-535 -146 0
-639 -560 0
580 -69 0
-453 -560 0
-618 750 0
664 -404 0
310 -759 0
-560 332 0
-737 -342 0
-218 134 0
-688 -804 0
329 132 0
-172 -389 0
214 254 0
736 -353 0
-340 -278 0
-598 -28 0
-233 251 0
-544 -259 0
-718 -594 0
407 350 0
438 -438 0
512 772 0
321 699 0
-329 618 0
-451 494 0
-636 -82 0
-508 -712 0
606 34 0
-278 -273 0
480 -517 0
556 -30 0
-614 -409 0
-99 -93 0
732 -171 0
-451 -661 0
-69 428 0
-774 -764 0
810 -749 0
-766 -303 0
