c bounds 55 55
p cnf 336 655
243 -273 0
-106 -244 0
283 55 0
178 -155 0
-201 -330 0
95 -33 0
-268 25 0
28 53 0
155 -20 0
130 -232 0
-70 -159 0
198 67 0
264 291 0
-247 -204 0
-64 61 0
31 83 0
289 -123 0
258 223 0
-181 -79 0
-167 191 0
190 218 0
-254 73 0
234 -9 0
-124 269 0
-113 -227 0
296 273 0
-98 -167 0
-173 -322 0
-211 -124 0
179 -102 0
-36 -296 0
318 115 0
-107 -239 0
-198 195 0
321 278 0
332 -37 0
-327 183 0
162 258 0
-111 -237 0
199 -185 0
-282 103 0
-244 156 0
-12 39 0
161 -88 0
40 -213 0
-212 -288 0
-204 17 0
123 -39 0
-328 -122 0
68 101 0
-15 -194 0
160 -334 0
-122 98 0
-129 33 0
-253 -224 0
240 232 0
190 -326 0
-188 -107 0
-150 -33 0
-8 -85 0
74 -248 0
-120 190 0
281 -64 0
109 243 0
97 -7 0
-178 -182 0
-167 -195 0
230 -305 0
306 -55 0
217 -155 0
-30 -61 0
-183 226 0
178 4 0
-66 173 0
-70 234 0
72 -317 0
-208 310 0
-328 -185 0
109 -83 0
-225 -100 0
94 265 0
-197 171 0
-114 252 0
-150 -64 0
72 84 0
-207 134 0
325 -44 0
-97 -22 0
257 273 0
56 108 0
8 -309 0
-114 104 0
-241 -277 0
-167 -266 0
-187 -335 0
-248 -305 0
-178 -50 0
7 135 0
174 -245 0
-195 146 0
105 -314 0
-206 -21 0
-120 21 0
134 -324 0
62 -163 0
7 -83 0
-164 -84 0
21 -136 0
17 331 0
261 220 0
-238 -282 0
-296 -61 0
-232 147 0
-88 -33 0
214 166 0
-235 320 0
40 335 0
-330 -114 0
-287 -80 0
154 -39 0
327 -264 0
-92 218 0
293 -75 0
-248 -197 0
100 190 0
-175 -307 0
235 -84 0
218 -147 0
197 320 0
68 -163 0
-79 -62 0
-315 -182 0
162 300 0
-116 -293 0
-96 -151 0
162 -155 0
-263 -201 0
-194 200 0
310 226 0
-197 100 0
-130 325 0
-175 75 0
-238 -308 0
109 -96 0
-263 -82 0
-77 -87 0
-79 306 0
-186 -120 0
-322 269 0
177 86 0
18 56 0
-96 -111 0
-15 237 0
202 98 0
262 226 0
-47 10 0
59 216 0
-146 -257 0
-10 146 0
21 -174 0
-127 -122 0
49 224 0
191 73 0
99 -256 0
-154 179 0
-248 301 0
-169 -241 0
336 101 0
158 190 0
223 293 0
67 182 0
-58 149 0
335 269 0
-195 221 0
174 -193 0
-248 -84 0
-18 -85 0
118 -196 0
218 24 0
-95 -82 0
215 -288 0
287 -307 0
81 -299 0
-155 -305 0
-301 191 0
-93 -80 0
325 -64 0
203 -264 0
-284 180 0
318 80 0
-324 -55 0
109 90 0
-225 111 0
-173 311 0
-271 113 0
-208 -120 0
-79 230 0
40 -265 0
-263 -260 0
121 -117 0
-63 -253 0
-215 -295 0
164 -167 0
-166 98 0
-245 261 0
-261 -170 0
-43 -186 0
-226 -228 0
-273 -315 0
-230 -289 0
-129 -188 0
100 -39 0
-132 74 0
-227 -188 0
132 -332 0
72 -144 0
-9 -212 0
-226 -9 0
-140 313 0
-266 1 0
229 -81 0
-82 -250 0
302 27 0
-111 73 0
331 217 0
285 304 0
192 308 0
-187 298 0
-45 207 0
-17 101 0
-24 49 0
-219 322 0
-139 -316 0
-327 200 0
110 -23 0
147 -5 0
115 24 0
-168 127 0
-47 265 0
-290 -134 0
-8 -46 0
-232 133 0
-175 -305 0
-271 190 0
86 -265 0
-87 42 0
-259 114 0
-153 242 0
-32 89 0
-92 -302 0
-159 -63 0
57 235 0
-171 -157 0
-20 -64 0
113 289 0
210 296 0
94 52 0
-239 -286 0
-58 -181 0
146 -79 0
68 -162 0
-228 -196 0
-156 -214 0
-307 -120 0
11 -280 0
-48 331 0
-271 -225 0
117 245 0
-36 -301 0
-175 67 0
-315 -245 0
242 -284 0
-183 -88 0
-66 -259 0
311 174 0
223 -108 0
-92 -302 0
-294 -167 0
59 226 0
72 81 0
68 -42 0
-58 322 0
-63 303 0
26 245 0
-25 262 0
121 -282 0
-242 -140 0
189 -171 0
-305 264 0
21 -333 0
327 -188 0
-155 -271 0
283 -238 0
34 21 0
-253 86 0
52 -228 0
-173 -2 0
240 156 0
207 -221 0
56 166 0
19 -286 0
262 137 0
-177 -215 0
33 -272 0
-217 144 0
-257 157 0
-149 275 0
-215 223 0
-138 303 0
300 -175 0
206 -212 0
-32 129 0
296 -312 0
312 273 0
157 -182 0
108 242 0
65 -298 0
-310 -43 0
280 72 0
175 -121 0
41 -316 0
35 120 0
-111 135 0
-280 -244 0
-124 278 0
-149 -116 0
-4 -145 0
121 -282 0
-310 -281 0
-324 -47 0
-253 21 0
6 236 0
306 247 0
198 -201 0
-24 -131 0
41 225 0
115 60 0
175 -238 0
330 -153 0
36 -172 0
158 260 0
-271 327 0
-34 165 0
-309 -306 0
204 229 0
-240 21 0
52 194 0
104 7 0
169 283 0
4 252 0
183 -248 0
137 134 0
-327 21 0
8 41 0
187 165 0
-224 -84 0
233 -69 0
124 -111 0
-52 -324 0
-197 -22 0
-293 -117 0
-77 -301 0
-159 144 0
-138 -151 0
-150 -122 0
-266 281 0
-85 16 0
229 -150 0
-316 -63 0
-251 287 0
-252 229 0
115 -2 0
-242 -298 0
-199 163 0
-114 144 0
256 45 0
-263 126 0
-121 35 0
231 220 0
-24 94 0
-18 7 0
-294 179 0
251 -62 0
-219 -28 0
72 285 0
258 250 0
-42 51 0
-124 -51 0
63 11 0
-326 -180 0
215 -219 0
107 -168 0
271 161 0
166 -197 0
28 222 0
-309 150 0
-256 -8 0
-172 -197 0
-18 -142 0
-299 220 0
92 28 0
-46 123 0
-326 -309 0
94 -189 0
156 -117 0
134 -180 0
281 261 0
-23 -296 0
226 60 0
-61 -233 0
-139 174 0
283 312 0
99 -36 0
85 275 0
240 179 0
-117 -253 0
-259 -102 0
264 -93 0
322 118 0
-219 -101 0
-284 -23 0
-256 -106 0
-189 -292 0
17 336 0
-59 -88 0
-82 -167 0
161 -46 0
60 336 0
-210 -120 0
162 -224 0
109 -18 0
-216 155 0
234 67 0
86 174 0
-145 231 0
-118 -123 0
-156 -321 0
-63 -20 0
275 -162 0
-178 234 0
159 25 0
-184 -255 0
-88 -266 0
-323 207 0
252 -319 0
-215 -334 0
182 -302 0
246 162 0
243 -280 0
207 -169 0
269 229 0
-305 -74 0
-165 68 0
319 -141 0
52 -205 0
192 -222 0
-67 -120 0
-120 275 0
133 68 0
-237 -326 0
71 -152 0
91 -24 0
-55 -110 0
104 322 0
191 273 0
-290 207 0
45 -299 0
-44 -93 0
-168 216 0
-89 321 0
150 -290 0
-20 229 0
-140 172 0
-160 13 0
261 211 0
264 -142 0
220 72 0
7 287 0
-228 133 0
297 -286 0
-163 -27 0
-195 229 0
-115 283 0
183 -235 0
233 245 0
34 -195 0
262 169 0
279 262 0
-255 115 0
-331 160 0
-154 181 0
-155 -104 0
-305 186 0
-148 98 0
242 -7 0
-193 304 0
146 133 0
269 258 0
101 -321 0
-14 125 0
-308 4 0
49 108 0
-225 -132 0
-58 -309 0
-141 -124 0
229 313 0
-19 -68 0
-176 45 0
-222 144 0
-333 -54 0
-16 110 0
235 143 0
195 -213 0
76 -243 0
274 336 0
261 -116 0
-298 -116 0
144 65 0
105 -120 0
315 71 0
-294 -142 0
265 226 0
-304 152 0
-87 -156 0
-122 122 0
67 -162 0
-151 -43 0
-202 133 0
-207 -156 0
252 -219 0
-208 320 0
-16 -279 0
-213 -173 0
200 278 0
-103 283 0
259 -332 0
-37 225 0
277 -298 0
-211 237 0
187 317 0
-92 -44 0
247 -185 0
61 115 0
-138 -159 0
49 20 0
-151 328 0
-151 133 0
-42 -248 0
-205 -93 0
-296 -251 0
-209 -23 0
-284 -188 0
152 217 0
283 -179 0
322 322 0
147 -8 0
-96 192 0
313 -44 0
-316 -156 0
-75 -145 0
282 1 0
-255 -214 0
-271 -238 0
-267 -172 0
202 -194 0
-251 -140 0
49 -37 0
-187 -271 0
277 145 0
-279 -186 0
3 318 0
303 253 0
40 285 0
203 247 0
-62 56 0
-295 -18 0
-150 -103 0
247 165 0
-85 -86 0
220 21 0
191 -96 0
-118 23 0
47 -298 0
1 -250 0
103 -198 0
52 304 0
269 -226 0
44 -291 0
-74 -219 0
252 25 0
-131 270 0
19 -307 0
172 287 0
76 -33 0
144 227 0
334 -198 0
25 -73 0
-163 129 0
330 133 0
329 228 0
-120 57 0
-150 334 0
163 335 0
224 297 0
-316 -262 0
-150 -189 0
-55 -313 0
-125 -307 0
-54 -72 0
-95 -244 0
-4 161 0
327 -78 0
190 329 0
171 278 0
-26 269 0
-222 -64 0
336 -196 0
-36 -142 0
-26 122 0
-204 -15 0
85 -85 0
25 65 0
329 212 0
73 -82 0
-194 -2 0
-108 -118 0
-61 176 0
1 165 0
-130 -59 0
-109 135 0
147 -53 0
-5 -309 0
128 143 0
-77 273 0
-242 261 0
200 36 0
-188 3 0
-257 202 0
-127 73 0
270 -180 0
132 258 0
-9 163 0
237 -307 0
30 -33 0
313 -114 0
-101 -248 0
292 -71 0
-204 82 0
53 -91 0
306 -22 0
-8 8 0
232 -39 0
-116 -305 0
264 -251 0
306 -235 0
