c bounds 74 74
p cnf 384 708
114 190 0
382 77 0
300 -133 0
-32 -51 0
-294 191 0
-245 313 0
369 -221 0
-215 196 0
124 254 0
-182 292 0
-29 198 0
62 -364 0
-296 -270 0
-237 -211 0
91 -156 0
328 -377 0
-352 -361 0
57 208 0
357 -119 0
193 272 0
267 53 0
106 235 0
121 375 0
-286 -187 0
225 -192 0
375 -202 0
-74 67 0
191 122 0
27 144 0
338 314 0
366 188 0
350 -77 0
284 -167 0
326 -204 0
171 -104 0
-311 16 0
-133 199 0
74 244 0
264 332 0
205 382 0
-301 57 0
108 -371 0
330 154 0
122 148 0
208 -265 0
190 276 0
101 53 0
-296 120 0
-73 -294 0
-113 70 0
-201 224 0
-260 101 0
267 -154 0
114 382 0
157 -315 0
-72 -323 0
-3 -30 0
-374 108 0
-48 381 0
-302 -33 0
190 -244 0
64 64 0
-110 -316 0
-37 251 0
-56 21 0
-15 233 0
-317 221 0
376 -185 0
163 -328 0
66 -45 0
9 256 0
299 -194 0
280 -86 0
-100 -202 0
108 -121 0
69 -283 0
-206 139 0
-319 -25 0
-257 -76 0
327 135 0
101 -280 0
-306 319 0
-268 -163 0
-182 -227 0
176 -218 0
317 122 0
-348 -131 0
253 -302 0
-25 -55 0
-380 32 0
-225 -116 0
-99 -54 0
-130 -20 0
-116 -9 0
-120 -323 0
-356 -66 0
-117 -68 0
281 7 0
360 -94 0
-37 -226 0
228 -60 0
-339 244 0
-212 298 0
88 164 0
-225 -71 0
133 172 0
194 -323 0
-90 -269 0
-25 246 0
-325 -223 0
279 11 0
186 243 0
-204 -367 0
-318 -325 0
-341 9 0
-121 23 0
298 3 0
57 52 0
365 -288 0
282 -176 0
-92 31 0
-351 188 0
-358 134 0
-164 144 0
296 -273 0
-231 217 0
221 119 0
30 -241 0
-273 -261 0
-292 231 0
-274 226 0
-68 321 0
255 15 0
367 -259 0
-106 330 0
-118 -341 0
-297 -310 0
-178 217 0
-154 -73 0
239 -200 0
-12 -178 0
105 -66 0
-325 -311 0
-2 318 0
-326 280 0
-185 -249 0
189 258 0
-39 -165 0
-328 -322 0
111 -34 0
15 227 0
255 379 0
-40 313 0
-247 263 0
-325 -349 0
-21 142 0
-278 108 0
-378 87 0
-171 264 0
-252 35 0
-302 -289 0
-380 -104 0
221 -36 0
184 141 0
95 -218 0
157 -130 0
-282 -116 0
286 -234 0
-159 -277 0
-202 52 0
332 -55 0
-305 -1 0
-265 -240 0
-250 -305 0
-135 336 0
-154 -274 0
-210 -304 0
-217 -181 0
-102 -220 0
-110 -18 0
360 -122 0
322 -153 0
-352 -58 0
262 -40 0
183 -223 0
362 299 0
369 172 0
299 -29 0
117 314 0
54 -20 0
-276 -314 0
-209 313 0
-213 372 0
374 362 0
214 -375 0
178 -316 0
-339 -212 0
-17 126 0
-275 -294 0
371 325 0
304 -355 0
-252 139 0
-379 -124 0
-301 -43 0
-260 -118 0
-288 -88 0
-192 -178 0
-356 315 0
-304 353 0
157 -8 0
-213 116 0
132 -290 0
-340 127 0
-24 250 0
223 -128 0
-280 -76 0
-322 320 0
214 -44 0
265 131 0
-243 -3 0
148 242 0
-117 -13 0
-34 121 0
-309 -44 0
-290 -90 0
-199 -224 0
87 337 0
134 332 0
-9 -238 0
-86 373 0
-339 165 0
221 -123 0
177 -118 0
334 -114 0
142 165 0
53 -25 0
-171 204 0
198 300 0
-71 -184 0
-151 -287 0
-247 131 0
29 159 0
-328 -205 0
246 165 0
-354 -201 0
319 315 0
-43 24 0
-115 -146 0
-1 381 0
180 59 0
252 166 0
252 -187 0
-22 148 0
-327 -218 0
28 337 0
-301 380 0
-305 233 0
64 259 0
298 322 0
-144 54 0
-242 -268 0
161 333 0
-240 -34 0
247 -123 0
-287 131 0
-358 334 0
221 77 0
-117 376 0
353 -97 0
-118 230 0
-22 70 0
-248 320 0
-219 58 0
-301 260 0
-26 -191 0
108 -297 0
-99 300 0
192 340 0
51 -265 0
21 -228 0
69 -362 0
-232 -246 0
157 -29 0
-365 169 0
-215 95 0
336 217 0
214 25 0
-297 -59 0
-60 -367 0
-323 143 0
-31 -93 0
-374 -383 0
140 -187 0
-181 379 0
321 67 0
194 -199 0
-68 284 0
352 -143 0
64 -19 0
-142 -153 0
-329 62 0
-166 -370 0
-62 177 0
274 120 0
53 381 0
-17 -48 0
-20 343 0
-379 355 0
-232 262 0
105 177 0
86 -100 0
40 -292 0
127 -313 0
33 382 0
255 209 0
-371 173 0
26 126 0
-209 346 0
-223 -107 0
-238 -46 0
-45 202 0
248 317 0
160 81 0
-326 214 0
-186 278 0
-45 171 0
-206 -311 0
-16 315 0
374 25 0
-248 281 0
-236 53 0
64 -70 0
-27 170 0
177 -98 0
-131 140 0
32 138 0
-228 -269 0
-130 -200 0
-337 258 0
-374 -24 0
359 -153 0
276 -154 0
167 49 0
74 -288 0
-21 -265 0
7 -258 0
103 250 0
-17 -127 0
-186 -6 0
-74 -273 0
120 -232 0
384 165 0
-170 286 0
-266 -33 0
267 -383 0
262 267 0
-302 -352 0
136 -87 0
-342 93 0
-94 289 0
-113 245 0
224 322 0
-26 367 0
-227 -178 0
104 334 0
130 -249 0
100 205 0
-32 91 0
-379 -308 0
-261 131 0
-153 289 0
-254 343 0
-118 135 0
-10 96 0
89 -90 0
230 373 0
334 251 0
-35 374 0
88 180 0
-74 -109 0
129 296 0
-73 -185 0
-365 83 0
-268 -213 0
67 -80 0
300 74 0
299 275 0
189 91 0
-253 -182 0
-348 -221 0
-123 -103 0
-178 -83 0
19 155 0
-127 188 0
243 -290 0
175 168 0
219 -116 0
178 -24 0
134 52 0
337 -63 0
-14 -223 0
263 140 0
-27 117 0
-65 18 0
-13 -30 0
-218 -293 0
-229 -214 0
-310 101 0
140 287 0
-254 381 0
-267 -145 0
-293 31 0
-294 -128 0
292 285 0
40 -93 0
-379 -141 0
-12 330 0
280 -356 0
-130 321 0
-268 -283 0
-94 -297 0
209 -114 0
194 243 0
56 -219 0
373 -209 0
-234 -264 0
-155 275 0
325 345 0
-34 117 0
168 -146 0
-102 -130 0
371 190 0
2 -302 0
-194 -242 0
-287 164 0
132 167 0
-377 180 0
-71 259 0
337 86 0
49 307 0
-178 -380 0
-327 -232 0
-51 -167 0
-356 -101 0
242 125 0
215 309 0
-68 169 0
23 179 0
295 -173 0
191 32 0
206 -140 0
-61 -229 0
-18 -62 0
-326 274 0
54 191 0
-199 153 0
-185 -68 0
-252 -147 0
234 -195 0
283 -379 0
222 190 0
352 190 0
-133 318 0
129 -201 0
-317 338 0
-136 -187 0
-17 209 0
312 -369 0
343 -115 0
376 -86 0
-195 -287 0
375 -273 0
-24 -330 0
-15 345 0
59 -266 0
357 255 0
-233 -265 0
126 117 0
-171 -64 0
-186 307 0
297 103 0
346 338 0
253 181 0
345 -331 0
8 -74 0
235 184 0
167 -223 0
165 319 0
-197 34 0
70 309 0
-294 -339 0
-100 -256 0
216 107 0
-241 -80 0
-164 -224 0
142 -105 0
332 150 0
-321 -13 0
-35 306 0
359 -238 0
91 381 0
292 159 0
-26 208 0
-107 19 0
-108 259 0
-172 -104 0
107 322 0
282 216 0
-357 -248 0
-151 -117 0
-119 258 0
184 -44 0
-152 196 0
-265 -145 0
-49 -153 0
118 85 0
19 -16 0
202 -156 0
69 -156 0
229 340 0
210 177 0
62 -156 0
298 269 0
126 333 0
82 150 0
-168 -233 0
59 332 0
243 93 0
-247 93 0
294 -55 0
-54 233 0
-265 36 0
-185 231 0
-329 299 0
214 -149 0
-204 -67 0
-231 260 0
-346 308 0
107 271 0
14 314 0
357 47 0
-1 -226 0
-246 247 0
127 -226 0
-222 -226 0
103 227 0
-380 245 0
-143 -301 0
-297 -86 0
-350 -60 0
-167 259 0
-299 117 0
283 -158 0
-361 161 0
18 -90 0
-80 -273 0
260 186 0
-232 -92 0
254 -288 0
204 -33 0
-123 -236 0
46 -65 0
202 -129 0
-304 35 0
183 -156 0
-192 30 0
-178 58 0
8 20 0
-86 -152 0
-271 -366 0
106 115 0
172 354 0
242 4 0
-43 -216 0
357 -37 0
-234 -124 0
-133 -17 0
-89 -102 0
359 -280 0
-67 371 0
-68 -119 0
222 -366 0
177 -123 0
70 314 0
24 319 0
-132 307 0
312 294 0
75 -149 0
2 71 0
-244 -276 0
-84 299 0
278 -88 0
-291 -294 0
40 114 0
-163 -104 0
285 78 0
-1 -237 0
134 -15 0
4 -146 0
-137 -172 0
-194 59 0
-6 241 0
-123 -351 0
-309 -132 0
-310 -316 0
-158 -352 0
-60 -33 0
-252 -73 0
185 143 0
207 245 0
-364 75 0
-241 -305 0
150 145 0
275 -252 0
-89 -237 0
31 -97 0
237 -324 0
-183 157 0
306 -341 0
108 37 0
308 -293 0
-297 -238 0
253 61 0
49 125 0
-3 -24 0
178 279 0
-364 202 0
-61 9 0
238 -159 0
-374 -13 0
224 37 0
224 369 0
49 260 0
23 -209 0
-54 367 0
-104 -357 0
-35 -324 0
59 -99 0
-38 -354 0
320 328 0
7 182 0
85 -358 0
159 5 0
-115 -373 0
171 125 0
-278 -329 0
-278 230 0
-138 242 0
185 382 0
282 -43 0
-186 352 0
-266 108 0
239 328 0
317 -327 0
-118 317 0
267 -212 0
344 28 0
230 278 0
180 23 0
-119 185 0
163 -271 0
321 321 0
-6 139 0
340 -13 0
-26 -181 0
-141 -140 0
-384 -267 0
299 -264 0
140 -276 0
235 -79 0
35 -355 0
-21 347 0
-377 186 0
-234 -185 0
-62 -158 0
334 -58 0
24 185 0
-264 331 0
112 7 0
313 -356 0
127 113 0
40 381 0
111 -265 0
159 -63 0
238 322 0
-282 177 0
52 93 0
-162 -141 0
-312 -159 0
-155 -174 0
286 -142 0
-344 106 0
-154 -358 0
64 189 0
-100 62 0
165 -29 0
-164 248 0
259 362 0
250 -350 0
-323 173 0
342 8 0
67 2 0
9 328 0
-277 -68 0
39 -201 0
-379 197 0
-146 -228 0
82 207 0
