c bounds 120 120
p cnf 289 234
-226 266 0
254 285 0
-32 198 0
-104 -221 0
146 229 0
27 -77 0
-217 192 0
21 159 0
284 -164 0
177 28 0
-289 -19 0
8 231 0
-142 67 0
-271 28 0
263 -251 0
-158 174 0
-22 -231 0
148 -22 0
220 41 0
-163 -241 0
-238 101 0
-28 66 0
281 -141 0
124 -155 0
-126 185 0
-11 202 0
58 -232 0
215 -213 0
4 -224 0
91 -143 0
-245 -1 0
-224 -101 0
-209 153 0
-223 -140 0
288 -257 0
99 202 0
-14 -276 0
-131 -275 0
-18 217 0
-213 104 0
-210 -6 0
-168 135 0
-147 -282 0
263 41 0
-218 -53 0
88 124 0
-150 187 0
-256 159 0
-13 107 0
127 16 0
-121 -25 0
-20 125 0
184 -273 0
36 -165 0
41 109 0
-233 -81 0
-214 -105 0
-222 200 0
288 101 0
-51 -32 0
-274 -95 0
-44 -227 0
177 -160 0
-95 -52 0
37 143 0
4 283 0
-281 120 0
-82 113 0
259 5 0
-126 -137 0
146 281 0
36 -176 0
25 211 0
191 206 0
-213 171 0
97 81 0
-15 95 0
66 -134 0
165 226 0
172 207 0
246 146 0
-13 228 0
-19 -163 0
59 -188 0
37 268 0
-12 54 0
-234 236 0
-247 264 0
39 160 0
39 -178 0
-83 282 0
237 6 0
-29 29 0
13 259 0
118 6 0
96 70 0
-8 -93 0
-7 -199 0
-145 160 0
-37 -65 0
73 -65 0
134 -123 0
66 15 0
19 259 0
-31 211 0
-245 102 0
-154 -227 0
70 180 0
60 -65 0
-42 66 0
149 128 0
249 71 0
-280 186 0
-167 197 0
136 -151 0
-245 118 0
212 -215 0
-147 89 0
161 -277 0
-216 191 0
149 -57 0
236 -8 0
-56 -4 0
-79 106 0
-45 -218 0
-111 177 0
101 13 0
91 204 0
-42 -16 0
49 229 0
217 -209 0
142 -241 0
-155 -200 0
-263 49 0
249 16 0
49 -180 0
120 -27 0
-105 149 0
-289 -160 0
98 -181 0
-18 146 0
154 -133 0
-272 -77 0
-224 -66 0
-94 -52 0
250 -234 0
-95 -124 0
-205 275 0
69 -218 0
-180 -84 0
230 110 0
19 -18 0
-107 -245 0
226 -106 0
-70 139 0
-131 167 0
-79 246 0
-1 -77 0
-153 -108 0
-134 286 0
3 -78 0
-30 55 0
66 -15 0
246 223 0
106 -193 0
-138 -219 0
189 -104 0
49 -174 0
168 143 0
76 36 0
-180 246 0
283 29 0
116 -61 0
-109 -253 0
43 73 0
-13 128 0
-284 -214 0
37 171 0
-1 274 0
41 94 0
254 -193 0
-156 203 0
73 -229 0
123 -62 0
259 -179 0
232 -224 0
-8 -8 0
-68 -121 0
82 48 0
-221 184 0
69 35 0
223 -106 0
-18 288 0
-19 -59 0
-31 -284 0
281 113 0
264 19 0
-152 -41 0
101 -168 0
-164 263 0
116 -210 0
-154 73 0
-52 176 0
-140 -119 0
40 279 0
-108 -28 0
136 107 0
244 63 0
138 -175 0
-77 -6 0
-117 -38 0
127 269 0
-53 -66 0
126 28 0
59 156 0
194 61 0
-31 -175 0
85 -52 0
-260 -209 0
-80 -209 0
-79 -211 0
95 -258 0
-113 -68 0
-17 218 0
-239 98 0
283 -178 0
129 -152 0
182 -241 0
35 -227 0
-253 -69 0
-247 120 0
283 -60 0
88 287 0
-208 -222 0
