c NF
p cnf 3000 6000
740 -1290 0
-2629 515 0
-828 2063 0
-185 -2015 0
-532 292 0
-1730 1906 0
2897 -1211 0
-1683 -1269 0
107 -2571 0
2039 -260 0
-2678 -1454 0
679 -1473 0
968 1983 0
2747 865 0
426 2361 0
-2804 -2366 0
-1343 -2965 0
-2711 1733 0
2957 2550 0
-1448 2706 0
-612 254 0
2753 2353 0
1512 1834 0
-1568 -883 0
-2674 1587 0
-1928 -1659 0
-78 -1325 0
305 1068 0
-2141 1058 0
-2125 -2902 0
473 2603 0
495 -1631 0
2499 1275 0
2335 814 0
-2729 -2451 0
75 1991 0
2764 -2033 0
-946 -2467 0
479 -2733 0
1995 -1313 0
565 2682 0
-1031 -1198 0
2145 2523 0
1654 -1511 0
2250 1141 0
-1477 -2071 0
-2262 -2672 0
817 -1706 0
-780 1489 0
-1311 -2977 0
1695 -590 0
-2275 467 0
-962 -257 0
1583 -2865 0
2118 300 0
-1874 -2718 0
-1881 847 0
-2558 1887 0
874 -988 0
1358 1329 0
-2222 -1719 0
-535 2247 0
1480 -194 0
1065 -2175 0
1294 2465 0
-2140 -2958 0
2436 2956 0
-50 -1407 0
-2224 -1166 0
-767 -1591 0
-2275 -1076 0
2421 1401 0
-141 289 0
-2280 1000 0
-1004 -1939 0
-943 -2876 0
2417 -2665 0
1382 -2474 0
226 852 0
1729 -1557 0
-725 -2832 0
2215 -213 0
-1659 304 0
-1414 -84 0
1942 -813 0
-1675 464 0
-720 1904 0
-416 1652 0
-1119 -660 0
1098 -1961 0
572 -1059 0
-2491 -1401 0
1534 1588 0
1373 633 0
-1014 2869 0
-192 955 0
749 1827 0
2104 -846 0
-1182 -2943 0
-1399 -2615 0
2485 1008 0
-711 -2349 0
-1566 2103 0
262 -265 0
-1655 1246 0
716 2718 0
-1671 2669 0
2541 -384 0
2075 -1 0
-257 757 0
1295 -558 0
2155 -472 0
1156 716 0
304 217 0
-849 -439 0
-714 72 0
-1059 -2117 0
332 969 0
998 2312 0
651 1212 0
-1579 -1695 0
20 -1443 0
-714 -625 0
-769 2414 0
-41 -2432 0
2244 2599 0
-443 -609 0
2035 567 0
1907 2018 0
-2011 -2817 0
2524 852 0
-2729 -2032 0
2426 1802 0
-1349 -589 0
454 851 0
-424 60 0
789 -2440 0
1225 2829 0
944 -613 0
-828 -1929 0
78 929 0
215 -1187 0
929 1904 0
-925 2846 0
2521 -1832 0
274 -2272 0
1142 2692 0
1361 1027 0
-2001 -2739 0
1170 1831 0
-270 1170 0
-1715 1211 0
1230 -926 0
177 1885 0
581 -2085 0
981 2151 0
635 2060 0
-2707 2939 0
-1579 -835 0
-1080 -2911 0
-161 2574 0
-1533 -362 0
1668 646 0
-1133 1121 0
1444 79 0
-2977 -1130 0
-793 -1062 0
1459 1572 0
-1005 -1828 0
-2580 -1983 0
26 732 0
217 182 0
855 -801 0
-2448 2166 0
667 -2454 0
-485 -2539 0
-134 -2225 0
1935 -2192 0
-2223 -107 0
-1947 1729 0
-2773 1983 0
1793 -2135 0
-212 -1248 0
-2883 -60 0
1554 -542 0
1169 957 0
-1849 -2024 0
1008 -893 0
-84 530 0
-678 1696 0
1466 -2845 0
-1290 -497 0
2761 -1628 0
-1751 1232 0
381 681 0
21 349 0
-2219 2722 0
-2399 -2204 0
2459 2156 0
753 -1415 0
-2791 -2491 0
110 580 0
137 335 0
2267 -754 0
-2265 1783 0
1417 2769 0
-952 1371 0
-992 -2387 0
-2141 -610 0
2213 2671 0
2490 1467 0
-586 -1708 0
-2874 510 0
2258 -2409 0
542 -257 0
-62 -1219 0
-1871 -1984 0
-2616 -1267 0
-2882 1881 0
1555 3 0
1005 -811 0
2154 -1980 0
-2683 -2885 0
-1923 -975 0
401 2835 0
1340 499 0
-2276 813 0
666 -2724 0
-319 2872 0
2923 1879 0
-2910 -679 0
1124 -2638 0
-550 -2240 0
-339 2992 0
2715 -1207 0
-2235 -42 0
-2781 -558 0
1170 2561 0
1395 1529 0
1643 2328 0
-2488 -2936 0
-913 620 0
2334 -1657 0
992 -2209 0
2106 -56 0
2036 -1386 0
591 1521 0
649 -51 0
2857 -953 0
2243 -1591 0
-1798 -1055 0
1462 2666 0
708 -2215 0
1206 -2792 0
-2637 514 0
-61 802 0
-251 2025 0
-2674 -1397 0
489 2452 0
2051 -1726 0
2799 2667 0
2463 -88 0
-867 132 0
-2263 1939 0
2520 848 0
865 -2998 0
299 -468 0
-1451 -179 0
2488 1009 0
1832 1435 0
712 -1341 0
-146 -575 0
338 1794 0
2396 1762 0
-1458 2118 0
2137 -2555 0
-2275 459 0
-1913 -2965 0
2915 756 0
2743 -2785 0
-571 -498 0
318 2426 0
-2789 -2638 0
-2909 635 0
-1262 -577 0
-901 2709 0
961 -2148 0
-412 -1413 0
2318 2142 0
-991 2631 0
571 -2307 0
2401 -212 0
-1452 -2742 0
695 2487 0
-2713 -153 0
-2974 1447 0
-331 -2894 0
-167 -533 0
-1702 -1687 0
1528 -886 0
-977 1709 0
2785 411 0
-2962 153 0
-617 -2299 0
417 -2021 0
427 2689 0
-1577 1652 0
-2005 -44 0
-1257 -1950 0
2210 847 0
-2980 -2907 0
321 -1190 0
1030 2191 0
-2514 2382 0
-2757 2118 0
-548 1008 0
-2954 -1401 0
108 1944 0
-2127 -1191 0
1758 2803 0
-2684 359 0
-542 -787 0
2563 -1511 0
-2774 1314 0
1376 1846 0
-1734 -746 0
-31 177 0
1649 -1666 0
-2416 -741 0
-1281 -84 0
-1007 2031 0
2964 1641 0
-440 -92 0
-2144 -1804 0
-2784 1384 0
2966 1829 0
2533 2209 0
558 -2881 0
-2354 -2179 0
161 1002 0
-2426 -2821 0
1572 -2066 0
449 929 0
522 -23 0
-189 1174 0
-27 1985 0
1122 2920 0
-266 1532 0
-1719 1632 0
494 -2138 0
282 -1881 0
-1428 -2750 0
2089 -440 0
-2102 1784 0
2504 2658 0
323 997 0
-559 -1525 0
193 2288 0
-1713 -354 0
2101 2855 0
2535 -2289 0
-2455 -688 0
-1255 1058 0
2607 159 0
2005 -2011 0
-1432 -1778 0
2409 -578 0
-2871 -1631 0
-1753 2162 0
2394 479 0
-1450 -2794 0
2299 840 0
2245 -2180 0
696 386 0
2897 -547 0
2789 2981 0
904 -855 0
-2877 2401 0
521 -2290 0
1641 -2375 0
-563 363 0
715 1798 0
568 691 0
-46 -1186 0
-1766 -1523 0
2293 -270 0
2797 -1411 0
2965 -1086 0
2697 -1762 0
-2638 -2985 0
660 1385 0
-860 1714 0
-1893 -2341 0
608 2494 0
-207 -73 0
-2898 599 0
-246 -66 0
1383 -2157 0
1705 -1502 0
-1895 1146 0
2897 1906 0
-42 -2486 0
845 -2289 0
-2330 2322 0
2812 1524 0
-968 511 0
-1464 1763 0
-2591 -1251 0
-1816 159 0
932 -647 0
2821 1153 0
-1019 -2775 0
-1628 1395 0
-1804 -2883 0
-1387 1638 0
1338 -1440 0
-1330 2665 0
-2872 -1162 0
-473 -2353 0
-364 -2880 0
-855 -1997 0
1567 426 0
-2609 2916 0
-1962 378 0
2151 -2147 0
-1633 -464 0
-2729 -2431 0
962 -1552 0
1397 2361 0
819 551 0
2311 -464 0
1851 -1509 0
-1151 2192 0
351 -492 0
2657 -2519 0
-137 -2763 0
-363 -2188 0
-39 2877 0
-1193 -2781 0
-1317 -1397 0
2121 -179 0
1067 -1352 0
-1605 -1203 0
-2219 -1055 0
-933 -1933 0
-1506 -319 0
-456 -1879 0
-11 -419 0
623 -1799 0
1127 2366 0
-1484 2153 0
-2809 1137 0
1621 -1771 0
467 1127 0
1121 1779 0
879 -2973 0
1173 1780 0
-1927 -206 0
2241 -2552 0
156 2596 0
-185 1721 0
-2713 2009 0
1875 -2054 0
1375 -2310 0
-1207 2897 0
-1616 -278 0
197 2787 0
44 2028 0
-1501 423 0
2903 -436 0
1240 1864 0
2464 -1754 0
338 -446 0
-314 -2902 0
501 2703 0
2193 2201 0
2631 -1894 0
1113 274 0
-2790 -2966 0
209 1155 0
-440 626 0
-1024 -183 0
1840 450 0
749 932 0
-2011 -1950 0
-2250 414 0
1839 1114 0
-1180 -2107 0
1761 962 0
-2455 -2639 0
-1612 1894 0
275 2743 0
-2307 689 0
1074 200 0
2941 814 0
-1626 886 0
897 1709 0
-1572 -1391 0
-1102 893 0
559 519 0
905 832 0
2043 -1628 0
1707 -1216 0
-3000 -1343 0
2692 1437 0
1498 2722 0
360 361 0
2300 1131 0
1299 2658 0
1991 -2215 0
-400 -2037 0
-1340 -334 0
-1965 -327 0
-1587 1515 0
1460 409 0
297 305 0
-1311 -1297 0
-2389 -1315 0
-179 -422 0
-1468 2469 0
-1839 -1021 0
-811 -382 0
-2107 -973 0
1303 -795 0
679 615 0
1418 7 0
-1194 2137 0
-533 2496 0
2603 -636 0
-672 466 0
-33 -1633 0
-2086 1342 0
2674 1204 0
84 -353 0
-2660 -750 0
294 1178 0
1737 -179 0
662 -1263 0
172 719 0
592 -587 0
997 1834 0
1445 -2770 0
-1252 -2737 0
2445 -648 0
-1125 1610 0
-2862 -783 0
-57 1408 0
118 2900 0
2915 -106 0
-1938 -2663 0
1665 1371 0
-1262 -561 0
-2375 -224 0
-1738 2305 0
2720 2682 0
2066 -22 0
2988 1666 0
-742 -2910 0
1339 -904 0
2953 1623 0
-1279 -2718 0
-1297 -2028 0
-416 -2438 0
-524 998 0
2197 2818 0
681 -2458 0
2625 2155 0
-133 1366 0
2102 125 0
-2334 1242 0
-636 -1207 0
-2786 -1411 0
159 -1191 0
546 259 0
549 811 0
2203 233 0
2619 -427 0
-1482 2325 0
-1856 -1870 0
-1662 -288 0
-2849 -2952 0
-747 -2831 0
-2818 1781 0
723 2106 0
33 921 0
2935 185 0
2082 1115 0
640 -1286 0
2286 1750 0
-380 -2047 0
-1754 -1930 0
2473 2495 0
-1938 -962 0
1653 2499 0
-1635 1153 0
-2976 -1483 0
-2116 1930 0
1000 -1591 0
-1126 1135 0
379 -2909 0
-1159 1203 0
-1353 263 0
-1062 728 0
-207 -1530 0
-2225 -2303 0
-844 -2438 0
1442 493 0
-592 555 0
1643 -158 0
2348 312 0
-2232 -2698 0
969 -1322 0
2524 -2170 0
-2534 -627 0
-659 2438 0
335 -1079 0
401 -2555 0
517 -621 0
393 415 0
-1045 -1305 0
664 -781 0
-2651 86 0
1107 -1531 0
-1330 1879 0
1491 -1405 0
-2449 -1480 0
-2317 -2884 0
-2730 1345 0
1884 -1064 0
-536 -129 0
-904 -2010 0
-2286 2501 0
-2575 2 0
-456 -1026 0
-429 1097 0
-1106 1703 0
-1648 1141 0
-2814 -2073 0
-2718 920 0
2035 1956 0
-604 -1929 0
806 1122 0
-563 -2388 0
90 -2174 0
1838 1908 0
1181 -2978 0
-2168 -2216 0
-153 2708 0
-1289 -2752 0
-1965 -1825 0
-1734 -1999 0
-994 2599 0
155 1135 0
957 -2287 0
897 -468 0
-1064 354 0
-189 -2965 0
348 -1634 0
-2673 2379 0
-1655 -1770 0
-745 1518 0
-2276 2220 0
2291 -2547 0
2709 557 0
2673 256 0
-1545 988 0
-626 377 0
-2075 260 0
937 -1543 0
-2877 2373 0
-2386 -214 0
-2571 -579 0
-757 1419 0
-2673 -2306 0
-2408 700 0
838 -2035 0
723 1471 0
2067 -1306 0
-1404 1145 0
-1998 -1056 0
1466 -343 0
-430 -2404 0
-880 252 0
1980 -1970 0
1297 1119 0
2997 1432 0
-2855 1801 0
-506 -2002 0
-1808 2348 0
-448 -993 0
-585 834 0
1947 -777 0
225 332 0
-2960 395 0
-2817 -1689 0
2897 2696 0
-1893 2949 0
1525 2603 0
-196 -307 0
2620 2094 0
-2943 -456 0
1745 2884 0
793 885 0
2640 1987 0
875 -1289 0
2942 1300 0
291 900 0
690 2375 0
-1341 1567 0
2276 560 0
1489 1062 0
2885 -2084 0
-2546 1394 0
-1070 2899 0
630 -1050 0
1444 547 0
-1308 1822 0
-440 -268 0
686 1366 0
-2958 2751 0
-1629 -2608 0
1952 602 0
524 -2836 0
-2049 853 0
535 -977 0
2685 261 0
-2503 -1002 0
1816 -1654 0
-218 -415 0
2853 -409 0
411 -1617 0
-1486 1156 0
325 1988 0
817 -2513 0
-1827 2570 0
47 768 0
1459 2128 0
-400 2847 0
53 1879 0
-1911 144 0
-2803 -1138 0
2678 -1515 0
-2089 -1830 0
876 989 0
-341 -1401 0
-2486 2123 0
442 -563 0
-2656 2493 0
1576 1072 0
-335 172 0
28 1649 0
-1654 -2110 0
-2723 2134 0
1526 -662 0
-320 1586 0
2492 414 0
51 1115 0
449 240 0
-2902 1590 0
1857 2659 0
-2357 -2837 0
-2684 -2212 0
-2711 -2268 0
438 -2701 0
1112 -919 0
-2985 10 0
-2803 -425 0
2091 -2790 0
144 -2471 0
-1750 1772 0
1482 -2617 0
-2408 854 0
-1186 2927 0
-1977 514 0
-2549 -2074 0
1401 1840 0
553 -675 0
-2170 530 0
930 -1276 0
79 592 0
-1232 2616 0
1794 -492 0
940 -1362 0
-1689 2518 0
-1309 907 0
-257 -739 0
-1289 495 0
-2116 -2399 0
-964 -1498 0
-1468 1198 0
33 679 0
2181 -2091 0
-1473 85 0
-2225 -2413 0
166 2663 0
-747 197 0
1500 -563 0
1868 -2763 0
-700 930 0
-1842 -626 0
-121 -208 0
-1849 1670 0
2742 387 0
2936 315 0
-391 1700 0
-2808 583 0
-725 1493 0
2328 -2122 0
1375 -1273 0
-2446 -1339 0
-223 -624 0
-624 -220 0
1382 2646 0
379 -1007 0
-67 -2685 0
-2776 -408 0
-429 585 0
2354 2177 0
-933 -1215 0
1749 -193 0
1351 618 0
2246 2818 0
2214 -2638 0
2969 1136 0
961 -120 0
2185 -2799 0
-1664 -2557 0
-1436 2138 0
1421 1905 0
715 1560 0
-1192 836 0
-2434 -227 0
-1204 -696 0
-1006 -2707 0
2560 2291 0
81 514 0
-2838 -1608 0
1025 -2010 0
1936 -1591 0
-2404 539 0
-2906 2773 0
1418 -2701 0
-693 -924 0
1444 1458 0
-1318 2224 0
-421 -2454 0
2511 -2883 0
-1582 -1182 0
-2675 1700 0
-769 -617 0
1118 914 0
226 -392 0
368 -342 0
2652 -59 0
-693 -2382 0
738 -1269 0
-838 -2168 0
-1500 -154 0
-1128 -1986 0
-410 -1267 0
-524 1840 0
1793 1642 0
2573 -643 0
332 56 0
-552 -1816 0
-1738 -1950 0
2396 1352 0
-593 2631 0
457 -482 0
372 -2227 0
865 2948 0
512 556 0
945 2678 0
-2315 -693 0
-1050 -2276 0
2616 -2031 0
430 2364 0
871 -2343 0
2131 571 0
1213 -456 0
-2654 500 0
-462 -1352 0
-1330 94 0
2709 142 0
-1898 705 0
850 2961 0
129 1145 0
-737 -2484 0
-1426 1230 0
-1746 1621 0
1963 -1384 0
-2552 2096 0
-2305 2861 0
-1557 -2346 0
-2917 -542 0
2091 -2479 0
-141 -2278 0
2771 1419 0
1888 -2822 0
26 -478 0
-2348 -2700 0
339 -2670 0
-20 -1855 0
-2467 1657 0
-1670 2644 0
2942 1846 0
687 489 0
-1039 -1807 0
419 -2458 0
225 649 0
878 2980 0
-1267 -2775 0
583 -129 0
1143 -2339 0
1042 -1955 0
-2262 1179 0
-995 2649 0
798 763 0
-1287 2774 0
-1395 -180 0
1944 312 0
2697 284 0
-2178 2147 0
282 -2865 0
-507 -1673 0
612 -1896 0
-916 2678 0
-1053 -257 0
1983 -1902 0
1651 -2754 0
-1058 -1933 0
2397 2269 0
-2848 2574 0
2295 1478 0
119 1967 0
918 1851 0
235 762 0
1159 -1104 0
-1107 1917 0
760 -2351 0
666 2427 0
1818 -547 0
-1395 546 0
2197 1171 0
1284 -2173 0
2937 -2859 0
2541 -1146 0
2544 -2075 0
1536 -826 0
-322 -2338 0
-2266 -2632 0
-1292 2532 0
-1594 -1422 0
1092 561 0
449 -2257 0
-628 -2400 0
1376 -2033 0
-2308 111 0
-1628 1457 0
-190 2487 0
36 -543 0
1135 703 0
1620 -827 0
206 1038 0
-859 196 0
849 785 0
2942 -13 0
-1965 425 0
2468 457 0
-896 58 0
-862 -1751 0
1169 1630 0
2127 69 0
1314 761 0
2090 -1591 0
-2582 2058 0
-2274 37 0
492 -2844 0
853 -2515 0
619 597 0
1028 -2366 0
2334 1132 0
197 -439 0
901 386 0
-2990 -952 0
987 -501 0
1248 -1128 0
215 -747 0
-1839 1604 0
-1413 343 0
-691 -1801 0
1506 -1702 0
878 -1200 0
332 -2987 0
301 684 0
2744 -867 0
1160 2698 0
2281 1412 0
-2740 2941 0
-1212 -753 0
-1173 -2691 0
2890 -27 0
-2539 2131 0
1545 -1455 0
2955 2194 0
906 -194 0
612 932 0
2909 -2513 0
1792 1682 0
-2380 -575 0
1117 98 0
-1803 2693 0
865 -2411 0
187 -1700 0
-2314 450 0
-2232 -396 0
702 -2362 0
-1120 -73 0
2427 -2617 0
2544 838 0
-1948 -15 0
-2911 -1380 0
744 -369 0
2174 53 0
804 -2603 0
-2498 186 0
-2943 -2116 0
717 788 0
-1511 1372 0
2548 -339 0
1733 532 0
1673 633 0
903 -2561 0
1248 -2355 0
-2950 2241 0
794 1594 0
-597 -2145 0
1010 2767 0
408 -2093 0
300 -1735 0
-652 250 0
-2348 -1025 0
-232 -1392 0
-2851 848 0
-2435 -994 0
1394 1003 0
-1091 2240 0
338 -2178 0
-1598 522 0
2355 2727 0
-507 -178 0
-1936 1840 0
-1777 -1622 0
-2988 2864 0
-2817 -245 0
2421 -266 0
-333 -731 0
1743 -2354 0
1148 2410 0
-1673 -694 0
1565 397 0
2006 1854 0
-643 2189 0
2668 -1845 0
-1764 -934 0
749 -801 0
-2723 -962 0
-1579 2912 0
2053 500 0
2978 -1495 0
2870 -2749 0
1295 2944 0
691 -1679 0
-1065 1003 0
1653 908 0
-2591 -2287 0
-293 2178 0
-2379 -2555 0
2567 -2280 0
806 -2842 0
-909 665 0
958 2296 0
-1818 2931 0
-616 -358 0
-2958 -211 0
-1892 975 0
-1443 -972 0
638 2666 0
841 1567 0
-2338 -2611 0
-2822 -2628 0
-2678 -1388 0
2132 -1719 0
1197 560 0
-318 1131 0
-280 484 0
-931 -2918 0
2687 -2001 0
-1979 -613 0
363 -1086 0
1926 2041 0
-602 -972 0
166 2954 0
2415 -1358 0
1713 -2069 0
1729 366 0
221 876 0
-1087 -846 0
-2774 661 0
-1346 -2432 0
2060 -1264 0
-1924 -2815 0
483 1105 0
378 -2315 0
863 -429 0
785 -39 0
2423 -1248 0
581 -1770 0
-168 2327 0
-2282 1917 0
-2752 290 0
138 -1698 0
2551 1798 0
-2993 -1790 0
83 -222 0
854 1795 0
698 837 0
1077 -1579 0
-1210 1741 0
1686 -1818 0
-322 -1920 0
-2716 2036 0
-2869 -439 0
1761 2543 0
630 2060 0
757 1979 0
2815 -1806 0
2964 -1609 0
874 -2170 0
-3 -1036 0
-2502 2312 0
-130 -2730 0
497 865 0
-2061 2441 0
-2832 -2681 0
1461 -2238 0
-780 562 0
2812 -2514 0
-2710 543 0
2643 1422 0
-2640 -884 0
2799 1499 0
-2758 -2877 0
-2081 -2875 0
2311 -184 0
-2401 1419 0
-1047 251 0
414 1530 0
-1904 97 0
-2206 -1765 0
2267 -1358 0
2900 -1483 0
-70 -1040 0
-1087 -1087 0
2940 406 0
-2862 95 0
-66 2433 0
756 -2187 0
-2052 -1956 0
-672 2090 0
-1981 2596 0
-2297 1479 0
-2949 2347 0
-551 1169 0
-12 -1368 0
-2045 520 0
-2208 -1679 0
-2828 -670 0
677 1383 0
1865 1357 0
1796 -558 0
2172 -2521 0
-1949 -726 0
1537 -1874 0
-963 -699 0
598 658 0
282 -2414 0
1937 1078 0
-1817 -1089 0
-2188 2846 0
-985 -2628 0
2042 -2446 0
469 -170 0
-1459 2706 0
-1000 -2848 0
-1839 1012 0
510 2137 0
2785 1305 0
-1152 27 0
-637 -1676 0
-1039 -767 0
-1569 1478 0
-2660 -1060 0
-1248 -2269 0
-1073 -2401 0
2015 -2170 0
952 1132 0
2063 -1578 0
-2047 1796 0
1107 2747 0
605 181 0
776 1979 0
-1049 -1150 0
-598 -288 0
1215 -983 0
-2148 -1414 0
1593 -1472 0
2036 2680 0
2531 -2065 0
-1372 -485 0
227 -1065 0
2977 766 0
2508 1609 0
1425 -1764 0
1700 1729 0
1857 2207 0
2375 1496 0
887 -1945 0
-2603 -989 0
2152 -595 0
-631 -2766 0
-2712 2445 0
-2360 -2074 0
-364 -964 0
-2926 1693 0
-2432 39 0
-2684 -2952 0
2934 -938 0
1075 1039 0
815 -2030 0
1154 2386 0
-2282 -2730 0
-1309 2690 0
-2248 106 0
255 -2773 0
997 2406 0
1804 1590 0
-2762 79 0
-2688 -2271 0
343 -1882 0
1069 -2079 0
-984 -1612 0
2316 -2271 0
1155 1395 0
670 136 0
-1364 277 0
-2950 -2671 0
344 2469 0
2059 2624 0
329 2360 0
1714 2249 0
2734 -2955 0
2533 -1764 0
-424 -1597 0
2845 -2431 0
-1180 1097 0
1678 273 0
1132 2514 0
1211 1611 0
717 -68 0
1239 1820 0
959 1342 0
1050 -2088 0
-2266 1899 0
-207 -2419 0
597 -2894 0
-876 1561 0
-1886 -1100 0
-800 2143 0
707 -824 0
-734 2462 0
1112 2982 0
2606 1412 0
-1312 -78 0
2703 300 0
-120 -523 0
-973 -2323 0
-819 1175 0
-266 2812 0
754 -681 0
-1809 1936 0
667 1867 0
-775 2448 0
-2506 -2597 0
-2084 -224 0
2972 -1086 0
510 1942 0
-946 2094 0
-893 -862 0
-504 -1045 0
-1680 670 0
510 -1182 0
2834 -773 0
-2100 2312 0
-2646 -2144 0
-916 870 0
-2101 2302 0
2335 -361 0
-1880 2593 0
-1262 2577 0
2479 2433 0
1957 -771 0
534 -412 0
2737 2574 0
2068 -1124 0
-2438 366 0
-1912 2190 0
1481 1927 0
-2366 166 0
1532 -2861 0
-2622 705 0
35 -2921 0
-1280 694 0
-1812 489 0
315 -2458 0
-1804 -1199 0
-635 1932 0
654 -590 0
-1496 2296 0
109 84 0
1676 1678 0
2393 2433 0
1322 2836 0
-1539 -833 0
-1128 1355 0
1821 -1654 0
-931 -181 0
-1670 -2839 0
-1913 2247 0
-697 776 0
-657 -1398 0
310 2310 0
2548 2625 0
822 -2594 0
142 413 0
-251 -644 0
368 987 0
-2166 -742 0
2669 2646 0
-1988 1032 0
-831 1914 0
2727 1353 0
1484 -2333 0
1481 1432 0
-1348 -70 0
-2767 1553 0
2103 1750 0
-1494 -2351 0
721 1876 0
66 -284 0
-264 1571 0
-1949 579 0
706 -1045 0
1914 -2797 0
-330 -969 0
-2282 -942 0
2172 360 0
-23 -978 0
209 1855 0
-1698 1665 0
479 -1886 0
-2088 1634 0
1519 -1284 0
-1327 -6 0
-2073 2689 0
-2300 -48 0
436 -1292 0
-1073 2302 0
-2753 2797 0
-2497 -212 0
2404 2179 0
877 -721 0
-684 2319 0
-240 -725 0
2972 -1244 0
-1961 -1354 0
248 659 0
-2107 321 0
1699 -1394 0
1747 -2261 0
2991 -1909 0
592 -2844 0
-1411 559 0
2318 -672 0
-202 -706 0
-1053 72 0
2070 2068 0
453 873 0
-1509 2258 0
-1004 562 0
1144 -227 0
2072 -1430 0
2533 99 0
-2081 1733 0
-1299 -2575 0
-2673 -1332 0
2410 -1100 0
1351 -1902 0
1156 -2871 0
2757 -1087 0
349 -279 0
2971 -1080 0
-83 -2448 0
-2062 -659 0
1514 2865 0
2374 2694 0
1742 -2901 0
945 562 0
2036 1993 0
-2968 -908 0
1601 -2116 0
2161 -720 0
2450 1040 0
2342 -742 0
480 -2011 0
2173 2118 0
-1006 -2681 0
2541 -618 0
252 -114 0
-586 2665 0
-629 -1194 0
163 -2036 0
124 206 0
832 1703 0
2361 1231 0
2241 1603 0
2277 2328 0
2690 -1732 0
-2202 -1002 0
-435 -626 0
1314 1080 0
-2044 -2547 0
1376 1957 0
1384 2685 0
-787 2787 0
2082 408 0
2587 979 0
388 2896 0
-1443 -2808 0
-586 -643 0
-1429 77 0
1800 2871 0
2058 2694 0
-696 -437 0
1103 1825 0
-364 -1277 0
-1103 -613 0
355 1174 0
-473 1523 0
-2289 -1546 0
-964 463 0
1235 1760 0
1662 -234 0
395 2681 0
1038 2098 0
-397 -590 0
-2345 -1673 0
-2498 -2401 0
2147 1524 0
1359 -1054 0
-1861 2345 0
-2848 2447 0
1051 -2022 0
1252 548 0
-624 -643 0
1367 -2934 0
248 -302 0
169 1668 0
-2746 647 0
-1818 2138 0
-1659 -2764 0
-2683 357 0
-1493 716 0
-2234 106 0
888 -909 0
1310 -2650 0
602 1210 0
-720 2785 0
738 970 0
-1221 1232 0
2109 868 0
1364 2182 0
1137 1641 0
603 -671 0
-2255 -1970 0
2841 137 0
400 2083 0
664 -322 0
199 -892 0
-39 -1615 0
1465 -1712 0
-533 1636 0
-900 -2111 0
1884 -751 0
-1994 -1870 0
2624 2907 0
1887 -980 0
-2813 -2012 0
1572 -88 0
-948 -2521 0
2741 2361 0
1070 -980 0
1320 -2274 0
2147 -1348 0
-1936 1238 0
-1113 21 0
1601 -1371 0
-1163 -2401 0
1556 -755 0
-2941 -220 0
1024 2686 0
372 1831 0
-1806 2336 0
1529 2300 0
-851 -1073 0
-1679 2816 0
559 2818 0
1489 1952 0
-1200 200 0
-628 -1976 0
2161 -556 0
-11 1324 0
-404 1903 0
-714 2732 0
832 -2199 0
-2557 -483 0
1331 -2974 0
-252 -643 0
-337 -1703 0
-538 430 0
341 2350 0
840 2861 0
814 -1438 0
1978 -1005 0
2135 -1431 0
684 -2578 0
-1814 1782 0
-1010 2446 0
-1046 -1721 0
180 1079 0
-773 -1294 0
-1 511 0
794 1572 0
-2241 -1442 0
-1138 2944 0
-1933 -159 0
1506 1877 0
411 588 0
-2212 -191 0
2108 -172 0
2914 2208 0
-1271 -1387 0
-2401 1881 0
-2374 -2500 0
344 -1914 0
2565 513 0
1442 1871 0
-264 -2639 0
2517 963 0
2920 -1080 0
2048 1623 0
-1740 971 0
-1086 -1419 0
503 2343 0
425 52 0
2767 -228 0
1712 -2853 0
-233 -2688 0
1926 63 0
662 261 0
712 2400 0
-2753 -1079 0
-1874 -2323 0
847 832 0
2377 -1937 0
-470 -1299 0
2125 -1843 0
-1365 2403 0
1969 1609 0
-1364 74 0
1421 1103 0
1581 -494 0
1012 2380 0
-2845 1214 0
-275 -938 0
2727 -2467 0
-1752 2495 0
-67 -1852 0
2173 -532 0
777 2840 0
2398 -1726 0
-76 2804 0
2804 -478 0
263 978 0
-48 1482 0
2018 2802 0
1707 -1045 0
2057 94 0
-941 1518 0
140 2025 0
-1832 1268 0
-1571 -1975 0
-2350 2498 0
554 467 0
-1017 -2873 0
-765 -2952 0
556 838 0
2461 -1691 0
159 1687 0
2014 -1691 0
-220 -1735 0
-2486 57 0
-563 1180 0
-307 1306 0
2425 2771 0
-1270 -1185 0
-1111 -1839 0
215 -963 0
-267 -2844 0
-1440 -242 0
-1757 -931 0
65 193 0
708 165 0
2840 2684 0
-921 603 0
2646 -322 0
-964 -797 0
-906 500 0
-71 -1771 0
-2808 -1994 0
-647 1290 0
2338 2595 0
-1855 -1724 0
-206 -1397 0
799 -2680 0
-1962 2693 0
259 -2209 0
2826 -1844 0
2844 1899 0
-1392 -2072 0
542 -68 0
-1640 85 0
698 -861 0
-4 -1399 0
1163 1792 0
1980 1524 0
2523 -2185 0
-47 -2395 0
1253 -132 0
554 2816 0
-2304 894 0
-1142 -1427 0
2808 -2962 0
-2791 1760 0
-109 512 0
492 -2904 0
-2786 -55 0
518 -2595 0
1835 -352 0
-2210 2220 0
600 -1965 0
-1045 -644 0
-1722 2173 0
1767 -505 0
-2625 149 0
-2240 -831 0
-2965 -2978 0
-1182 2160 0
1639 1345 0
2522 -33 0
-2252 -766 0
-1732 2910 0
-983 -552 0
-796 1622 0
-386 302 0
-2425 -2129 0
-423 1822 0
-1703 2442 0
2443 796 0
-2226 -759 0
1655 -2701 0
-1158 2426 0
971 -2585 0
258 -2812 0
937 1370 0
80 -1099 0
-1631 -273 0
-2230 1139 0
671 -2596 0
-474 -1173 0
-133 652 0
-253 308 0
-2127 -730 0
1471 159 0
28 -2615 0
-2293 -2763 0
2504 1110 0
-1121 2210 0
2472 1003 0
-1092 1884 0
1947 -643 0
-1506 -974 0
1576 -2002 0
-1323 2267 0
-1819 -2645 0
-1438 -2300 0
-694 1640 0
-1599 703 0
-1932 -2222 0
-1901 2492 0
2928 2169 0
-2719 -2371 0
-1869 1702 0
-726 -9 0
898 533 0
1576 1247 0
719 1808 0
-2087 -2055 0
2314 1070 0
-2576 548 0
2710 -311 0
879 2444 0
2638 -1613 0
-152 2479 0
2897 82 0
1129 1604 0
-1271 1306 0
1105 1952 0
-2886 -2883 0
-224 -2112 0
-1401 2019 0
-2027 -936 0
1132 1014 0
614 488 0
-2824 1190 0
-23 -2560 0
1578 1028 0
-2654 -2641 0
-680 2126 0
2499 828 0
594 -1438 0
-2259 2689 0
2992 2056 0
-2566 -2176 0
-249 1614 0
-291 2277 0
1705 2582 0
-1115 2486 0
-1587 -1195 0
2667 -1335 0
1506 -1256 0
1090 -2056 0
1922 1944 0
2354 -1100 0
2551 -2913 0
1788 -2331 0
873 -1053 0
-2108 -2974 0
697 1034 0
602 806 0
-1324 1860 0
-1405 -1761 0
-2631 -12 0
662 -277 0
-1681 -2468 0
510 60 0
2636 -1013 0
2079 -2926 0
2284 -1085 0
-1538 2060 0
-811 910 0
-2074 -574 0
-881 1294 0
1023 143 0
667 2217 0
1253 -1778 0
-269 -706 0
-2815 443 0
-87 -2271 0
-2670 -1007 0
-2575 -268 0
-1312 -842 0
1826 -568 0
1581 -48 0
-591 -2558 0
1223 -1812 0
-2775 1150 0
687 -1012 0
-2751 870 0
1072 -925 0
-1682 -2481 0
-97 1534 0
-2146 -2924 0
-869 -1975 0
-715 -2906 0
2648 2246 0
2118 -1193 0
2907 1101 0
-1372 178 0
-1219 -103 0
-23 2847 0
-2226 -1028 0
-2232 -727 0
703 2007 0
-2936 -1752 0
-2146 1809 0
1250 976 0
2251 2710 0
-1684 2284 0
1142 588 0
2610 -1911 0
-1925 2899 0
2981 653 0
242 111 0
1052 -663 0
-1493 -995 0
2671 -1421 0
-139 -2288 0
2825 424 0
-1387 -977 0
2613 -2568 0
2392 1506 0
-1649 -2629 0
-2114 2232 0
-1701 -1296 0
-1829 -2045 0
-1374 537 0
-329 -924 0
2242 2825 0
-942 1673 0
-2805 2014 0
-814 1315 0
-641 -910 0
2096 839 0
-2857 -1387 0
-2791 -2292 0
-2964 2277 0
2506 -1007 0
-1172 -731 0
1395 84 0
2427 -548 0
1607 -1039 0
-2943 153 0
979 -2940 0
1484 1077 0
-1379 -1643 0
1366 -800 0
591 -2724 0
-1408 2256 0
-293 -2607 0
-20 -2307 0
-413 470 0
1382 1150 0
1940 -1331 0
2532 2898 0
-703 2206 0
-1050 1503 0
1181 -625 0
-45 -957 0
-85 2322 0
2476 2086 0
1840 -815 0
2125 214 0
1171 788 0
-1162 -1114 0
-16 959 0
-67 -1954 0
-2651 2357 0
2928 -2193 0
-1970 913 0
988 -2117 0
1386 -1804 0
-2486 -1232 0
1477 -255 0
1758 492 0
-221 -2557 0
-1717 746 0
2251 -1035 0
-2684 -922 0
526 -2260 0
2520 2646 0
213 -2792 0
-1806 -1 0
561 -1174 0
-1615 -129 0
-1966 -1970 0
-1264 -2930 0
903 -2863 0
-702 -2101 0
2694 2874 0
1522 -2679 0
-913 -2735 0
-795 -2909 0
-508 -891 0
970 -1756 0
-2120 99 0
770 -2847 0
-2248 2502 0
-2067 1061 0
1616 2027 0
1934 630 0
-2718 1767 0
390 1414 0
2981 502 0
-476 -1176 0
-1737 -1035 0
-2804 -784 0
-2791 -1894 0
1291 -691 0
684 -2597 0
-1988 2999 0
-699 -2428 0
2232 -1738 0
-2474 -2902 0
-1823 -1367 0
-641 1409 0
962 1638 0
1807 -1672 0
-53 -1628 0
-1582 -34 0
-2204 947 0
1256 1699 0
-414 880 0
510 -1105 0
-1580 2099 0
2398 2943 0
1927 1964 0
776 -1062 0
-150 -2401 0
655 -833 0
-2676 36 0
2042 1381 0
-1007 -1325 0
-750 -2227 0
1711 67 0
1281 -596 0
-469 390 0
1549 -701 0
-629 -1267 0
-619 2139 0
401 1695 0
-2274 -2536 0
291 1101 0
-1721 -2414 0
1569 1209 0
-2732 1167 0
-2293 -1737 0
-2670 -2104 0
1992 -2966 0
1122 -486 0
2392 -234 0
2609 571 0
2391 1013 0
2470 -1771 0
1527 -2482 0
2747 -1010 0
-1575 -1718 0
1627 -2828 0
-1127 -1364 0
172 2172 0
-1484 2253 0
719 -2261 0
-2480 -117 0
371 321 0
-1036 -11 0
2378 2722 0
-415 -1564 0
-350 -2269 0
-1252 1159 0
-1344 -207 0
-2592 389 0
700 -709 0
2780 646 0
1872 -2597 0
-1346 -2752 0
-2223 -1281 0
-2258 1023 0
-2635 -2859 0
703 -628 0
2270 -2232 0
2722 -783 0
558 -909 0
551 -2909 0
1653 -1895 0
2312 -2598 0
-1920 -1332 0
-2749 -1253 0
-590 2869 0
-853 962 0
515 1459 0
-1929 -2395 0
-2465 1404 0
-626 2364 0
1733 -646 0
705 -2876 0
1613 852 0
1521 146 0
2323 1416 0
164 2182 0
-2107 -430 0
-1051 -2918 0
1332 -781 0
-1712 2378 0
-1039 -1490 0
-1856 1848 0
2910 -2301 0
-632 591 0
-1511 -2360 0
503 -1733 0
1352 2777 0
-738 2295 0
851 -1853 0
1555 2854 0
-1507 -2114 0
-1900 1288 0
-2357 729 0
1685 -2614 0
-1062 2472 0
664 381 0
219 -2245 0
1687 -508 0
-2630 -1616 0
-193 -2884 0
-2383 883 0
1592 -1219 0
1889 -699 0
-977 -1370 0
-833 1820 0
808 2840 0
331 -1816 0
2721 -610 0
536 1545 0
1224 -1418 0
-357 519 0
1934 2415 0
1296 2705 0
-1164 2246 0
-533 -1221 0
1396 -400 0
2631 -2513 0
581 369 0
-825 2049 0
2546 -2698 0
-969 -629 0
-2075 -1537 0
-1997 -2876 0
961 2993 0
2399 -1542 0
2810 1365 0
-976 -982 0
-258 -818 0
1583 -2803 0
-1766 -471 0
1009 -2348 0
2498 -120 0
879 -241 0
2933 465 0
-1300 1852 0
2096 -2211 0
2920 803 0
1743 291 0
-916 874 0
-1678 1985 0
2119 390 0
-2972 -1227 0
-2439 -1631 0
2691 -2065 0
1908 -2316 0
-850 319 0
1952 2402 0
2510 1256 0
-2011 -433 0
828 -1812 0
257 2694 0
1075 344 0
1899 -757 0
1363 -1305 0
-775 -358 0
-88 2768 0
2017 -1942 0
1979 1615 0
-2918 -757 0
2736 494 0
-2735 -126 0
756 113 0
131 1877 0
-2712 157 0
-2542 2277 0
-191 -2043 0
-1454 3 0
-91 -2463 0
-722 -701 0
1208 1570 0
-180 -1846 0
254 1773 0
2365 -2988 0
-31 -2974 0
-231 1727 0
-1195 -2841 0
-487 1966 0
2482 -2048 0
1097 -2844 0
479 -2882 0
2855 -1626 0
997 1170 0
-1980 2478 0
297 1428 0
-253 -1296 0
-643 1321 0
639 -834 0
547 -346 0
-998 887 0
1435 -1809 0
-2994 -2186 0
-2771 1903 0
2031 2501 0
-2304 1037 0
2401 1780 0
-1442 -1742 0
838 -2731 0
2286 -626 0
1779 604 0
2606 -2903 0
-1476 -433 0
-373 -535 0
2587 2728 0
1620 -70 0
-1587 1093 0
752 43 0
-2968 368 0
-2650 -1134 0
-1585 -2282 0
2677 2714 0
-1102 -393 0
-2289 -1846 0
164 361 0
1064 389 0
-1088 -2845 0
-1401 -1920 0
808 -2045 0
-2304 -2693 0
-2234 440 0
1928 -1433 0
420 249 0
555 2779 0
-2865 -1394 0
-516 379 0
885 -829 0
-721 -1955 0
-1907 -375 0
344 2037 0
935 1548 0
-354 1302 0
2584 -598 0
239 1239 0
-1846 1617 0
1687 -2567 0
-2959 2604 0
1155 -1503 0
710 -155 0
1482 2547 0
1871 2827 0
-2605 1603 0
368 1733 0
-2159 481 0
-1947 2799 0
-1149 2918 0
-1833 -1468 0
2897 2373 0
-899 510 0
1331 1788 0
-2584 -1741 0
-1386 1136 0
-982 -946 0
-2428 1299 0
1828 711 0
481 2174 0
-1458 1574 0
-1150 2810 0
-1649 -787 0
343 -2905 0
-2574 2031 0
1383 -1046 0
-2222 2935 0
-2762 -51 0
2113 -2564 0
-2854 -601 0
2888 -1936 0
-1807 926 0
-216 308 0
2014 -243 0
1770 -1148 0
1733 -1865 0
-2491 -2344 0
2528 1835 0
621 -938 0
1322 -897 0
2089 2742 0
-1421 2839 0
835 2427 0
-745 -2435 0
2490 860 0
-2108 -2339 0
756 189 0
390 -1171 0
1081 955 0
2246 -1917 0
771 241 0
-2203 -647 0
-2131 -660 0
-575 -1102 0
527 2676 0
1361 131 0
-344 -2120 0
-398 1181 0
621 -1804 0
-2062 -827 0
-433 392 0
2893 2143 0
-1399 36 0
2853 -2198 0
-160 -2231 0
-1733 2836 0
-1774 -1893 0
-2884 -2548 0
1115 -1118 0
1823 -531 0
-1835 987 0
1225 -1904 0
-2648 -2232 0
898 874 0
-1578 -797 0
-2420 -2512 0
450 -822 0
-2506 1352 0
-1525 1763 0
1500 2704 0
2331 1742 0
289 642 0
-2622 91 0
2986 274 0
101 -2875 0
-1235 -1303 0
1313 2476 0
-684 2656 0
1561 2925 0
-591 -2932 0
-933 13 0
-1428 -2753 0
878 -2007 0
-2630 -2958 0
-2115 -39 0
2533 843 0
2753 597 0
-2465 2485 0
-2996 1601 0
1453 -1020 0
2846 1295 0
172 544 0
-2876 -48 0
2861 489 0
-1113 199 0
1972 -2330 0
1853 1803 0
161 2203 0
-2786 -710 0
-1670 2480 0
-2316 -1868 0
-1301 -1495 0
1796 1428 0
2449 -2101 0
603 2145 0
-1670 2954 0
247 1205 0
2472 -2172 0
205 -2792 0
-1642 -170 0
-2633 -1071 0
242 -1383 0
539 -1447 0
-1173 -2200 0
2501 -122 0
-2442 -190 0
-1774 -2481 0
1532 1994 0
-486 -1300 0
-735 -2834 0
-36 2964 0
820 -2148 0
1071 645 0
-2369 1069 0
1246 1800 0
-1482 525 0
1791 2856 0
2644 -317 0
-438 2966 0
-685 894 0
-2224 -1669 0
-1464 -2432 0
-2715 1190 0
-1427 -62 0
197 -2136 0
-1676 -487 0
-2609 -797 0
-509 1381 0
-404 -2886 0
-869 1531 0
-188 -2167 0
1225 932 0
-2991 -2050 0
-1833 -2165 0
-2243 393 0
-2139 1709 0
2983 -1354 0
-1809 2192 0
1302 -559 0
1240 -2925 0
-2403 -2046 0
1502 2547 0
2014 -2632 0
-587 -1434 0
-1077 -216 0
-11 -2292 0
-2912 555 0
534 -1374 0
-2552 2952 0
345 2972 0
1671 -412 0
450 560 0
832 -1984 0
-261 766 0
1417 2474 0
2036 467 0
2938 241 0
-596 1257 0
674 1309 0
-1318 -804 0
-1955 1116 0
445 2233 0
-1157 2240 0
2773 -1482 0
2191 -533 0
-1643 1168 0
1331 -2491 0
1783 2197 0
-2092 -2519 0
-1925 241 0
137 2231 0
-1450 -121 0
-1609 1072 0
-1886 -2471 0
-1001 -668 0
-1829 1585 0
-1916 1555 0
-862 -343 0
-2359 -1371 0
2364 -1870 0
-294 1340 0
-1263 1867 0
-2901 1815 0
291 -2792 0
-801 2294 0
1244 718 0
13 89 0
2703 -2226 0
-754 -1846 0
591 -2949 0
1182 1887 0
-2374 903 0
1169 2831 0
57 -1468 0
842 -343 0
1080 44 0
536 2381 0
-183 1010 0
1642 2750 0
-2649 -1070 0
-715 -260 0
1021 -2564 0
-1779 -1936 0
33 1458 0
-2629 2298 0
-2914 542 0
-775 -1891 0
-2700 -710 0
-838 -342 0
420 -1608 0
-491 -2973 0
-2889 359 0
-2425 -2846 0
-775 -2069 0
-1683 1021 0
2614 -441 0
-727 -2827 0
1183 -896 0
-189 -236 0
-1983 -2752 0
1976 2723 0
495 -2188 0
-2488 2232 0
-683 -186 0
282 568 0
1215 1619 0
-2339 930 0
305 -2434 0
2098 1939 0
-2528 865 0
1427 2233 0
1075 2892 0
2210 -1866 0
-561 -1115 0
-1290 486 0
-612 -2193 0
1059 1490 0
-2601 2010 0
136 2896 0
1522 1383 0
2292 -1964 0
-1427 137 0
-2382 -1717 0
2168 1871 0
1773 632 0
-2711 -2948 0
-1673 1360 0
927 524 0
2576 -552 0
1247 9 0
-1483 77 0
-978 -859 0
-2741 165 0
2553 1919 0
-273 2533 0
-2968 1378 0
-1046 -1189 0
1258 -1755 0
-2432 -2961 0
-1790 -1938 0
1189 -1162 0
2551 -235 0
1359 789 0
-88 2444 0
-1426 9 0
2063 2422 0
-2325 -2797 0
-1305 -1443 0
1012 283 0
254 -1093 0
-1844 1261 0
-2323 -2829 0
1747 818 0
872 764 0
2646 2839 0
-182 2756 0
695 -2873 0
-2796 -1788 0
2151 2650 0
-550 921 0
490 -2362 0
603 -1863 0
-2315 -777 0
-1098 1020 0
2893 -1207 0
704 343 0
-1397 1763 0
-2088 -1281 0
-10 -2340 0
425 -526 0
683 -2045 0
-2421 -1686 0
781 -223 0
-610 -2212 0
2563 2716 0
521 175 0
1905 -235 0
762 2228 0
1730 -2509 0
-1872 1351 0
-887 2470 0
-512 2445 0
-1833 -1751 0
-2526 -1515 0
-47 -1116 0
-2120 -2817 0
1820 -57 0
2068 409 0
-377 846 0
-1810 -1280 0
-2368 2384 0
2299 2616 0
118 -866 0
1989 1344 0
2257 -2230 0
-2997 699 0
-270 1469 0
-353 -1239 0
2751 156 0
2867 -1513 0
570 2955 0
-1166 209 0
899 2375 0
-1860 -2465 0
1521 2193 0
1834 -2051 0
-721 1801 0
-2845 132 0
2799 1036 0
2627 -1543 0
-2278 -1010 0
-79 -933 0
570 -154 0
1331 -1228 0
-186 1273 0
-1274 -2454 0
-864 2336 0
-271 545 0
1797 1747 0
-1135 -1655 0
978 -1956 0
616 -73 0
834 -2115 0
2365 -2620 0
2709 -1516 0
-2696 -437 0
1865 2017 0
2509 -1756 0
-1164 1749 0
-2513 2586 0
-2282 -456 0
385 2878 0
2945 1203 0
-30 312 0
-729 753 0
-2916 2971 0
713 177 0
-552 2302 0
1467 -1482 0
-228 -1818 0
-1343 1822 0
2722 -18 0
2826 59 0
1827 1619 0
-2587 1217 0
1198 -997 0
352 -857 0
2365 1430 0
1344 2815 0
-1630 2456 0
970 -1839 0
217 -1658 0
-2828 -2864 0
2358 949 0
2956 -2606 0
-1855 2975 0
-1255 1822 0
-2688 1849 0
-2895 -1534 0
-1405 -112 0
-2617 -2989 0
-1488 2068 0
1845 -2343 0
-1120 -811 0
-2712 -276 0
1792 2000 0
2267 2022 0
2507 -2622 0
2168 1865 0
-358 -1593 0
2689 677 0
-2631 453 0
917 1527 0
-1728 2046 0
1846 -211 0
2295 2251 0
2971 -671 0
-1282 -1096 0
1973 2347 0
279 -511 0
-2740 120 0
1624 -1633 0
-2763 -1841 0
-902 986 0
-2765 2309 0
-2705 874 0
1614 -2916 0
-2918 1159 0
-479 -2898 0
-523 1780 0
1688 740 0
1804 770 0
873 419 0
-2084 -2300 0
-249 -1241 0
557 1240 0
-1737 -2824 0
1054 873 0
-2261 2279 0
-2439 2011 0
-276 -510 0
-388 -404 0
847 916 0
1546 2942 0
-512 -889 0
-2686 -1354 0
2230 1963 0
-2489 1067 0
958 -1433 0
1278 -1467 0
-779 1061 0
-1405 2094 0
-2221 -1035 0
-528 -2457 0
-1834 -761 0
-1160 757 0
722 1940 0
481 806 0
-39 -2043 0
-186 2009 0
-284 2619 0
-2045 -380 0
-1775 2045 0
801 -538 0
-208 2216 0
-2579 1425 0
-1508 2356 0
1746 1889 0
-2786 -1658 0
-1896 521 0
-2833 -2987 0
-1200 1465 0
-1922 -2084 0
-1317 843 0
252 1677 0
1181 2256 0
-123 1404 0
-2676 -2818 0
-2845 -1771 0
94 1897 0
-52 -22 0
-1373 -1511 0
-2134 -2787 0
-982 -72 0
1038 -2110 0
-2211 1935 0
2603 2595 0
1070 -2088 0
2206 -299 0
-2766 2995 0
-2649 2793 0
-2769 -2399 0
2992 -1255 0
1590 1341 0
-2744 -192 0
-11 1771 0
830 2619 0
-61 2125 0
983 708 0
-1121 2009 0
-288 -901 0
-2974 254 0
-2764 2367 0
1548 -1142 0
-1289 -1387 0
2532 -2229 0
542 2977 0
1471 669 0
-361 -1382 0
-977 685 0
2522 -1125 0
-1006 -1795 0
1597 -608 0
1344 2276 0
-2087 -2486 0
-433 -2439 0
-2204 921 0
1935 -2317 0
2646 2326 0
1331 -1589 0
2809 779 0
169 -2313 0
-198 -2541 0
-1235 -1667 0
-950 1366 0
2194 -2041 0
446 1802 0
2953 -310 0
836 122 0
-208 2015 0
-2061 -2895 0
-2550 -786 0
-948 -2511 0
-444 568 0
-156 1496 0
764 -223 0
2574 2153 0
2490 1576 0
2302 -696 0
-2200 -2998 0
-1990 -91 0
212 -659 0
-1752 -1474 0
-2889 -490 0
-2745 -2987 0
1126 -1491 0
904 1514 0
1197 -1915 0
943 -27 0
715 829 0
2378 2615 0
-120 2613 0
-2152 -2726 0
-88 -384 0
2312 2623 0
-906 2050 0
131 1928 0
998 2463 0
753 -652 0
-599 1857 0
1997 -930 0
-931 -2773 0
-232 -2624 0
-1554 -1862 0
-542 2633 0
-1535 -2481 0
2699 -1060 0
-1659 -977 0
-15 954 0
1250 1189 0
-1209 2540 0
-952 -2779 0
2393 -1 0
-553 2422 0
-2807 -1719 0
-1666 -573 0
550 -2069 0
1205 2646 0
195 2573 0
1333 396 0
2731 305 0
1127 2512 0
2194 -2359 0
-158 -1241 0
21 365 0
-1701 2942 0
-2555 2361 0
1802 -1053 0
1723 -1732 0
-2105 1808 0
989 -1402 0
-1608 -566 0
-223 -104 0
-1936 2886 0
-2586 511 0
-1300 -2747 0
452 2274 0
-852 2291 0
2685 382 0
2478 1222 0
3 445 0
1758 -2904 0
-2487 -2271 0
2954 1040 0
731 382 0
-49 1811 0
-1475 1476 0
-1125 -1715 0
1205 305 0
1471 -2149 0
2169 -1644 0
1939 1862 0
-405 -306 0
-439 787 0
1758 -1989 0
-1330 778 0
2767 1205 0
2303 -1429 0
-134 2938 0
-196 2978 0
623 59 0
-200 -2351 0
35 379 0
130 804 0
-307 1562 0
-2814 1038 0
553 616 0
1463 146 0
-2542 -6 0
-2259 -129 0
175 -1317 0
1159 20 0
-2663 959 0
275 -1874 0
-2828 370 0
1685 -1019 0
-1868 453 0
-2061 2995 0
-2389 -1605 0
-947 1203 0
-222 998 0
1746 -417 0
1076 -1724 0
1645 59 0
1216 -860 0
-435 2330 0
1776 1041 0
1818 520 0
-2785 -2004 0
1394 1993 0
-1594 -1576 0
118 1125 0
2033 -2549 0
-724 864 0
-660 -2057 0
-916 324 0
1928 2172 0
-1235 -471 0
-2401 -1826 0
256 679 0
-2732 1240 0
42 2009 0
-2774 1996 0
1887 -1520 0
-491 2380 0
973 623 0
-1859 1500 0
2593 57 0
-939 -2163 0
-2693 2263 0
1535 1753 0
184 340 0
2720 2295 0
1560 -1713 0
-2791 -339 0
-1769 1372 0
-663 1294 0
438 -1211 0
1624 1998 0
548 -1956 0
-980 1149 0
553 -2643 0
2295 248 0
-2896 -1788 0
889 -2235 0
766 1171 0
1209 -1474 0
-2364 -2653 0
-2550 -256 0
328 2600 0
-1458 -1289 0
-2226 1200 0
-1853 2056 0
2834 -2374 0
-782 411 0
882 949 0
2607 1028 0
-1196 2313 0
-2223 449 0
-189 2355 0
-1378 -2681 0
-472 172 0
2441 -48 0
731 -2591 0
56 -197 0
1332 2336 0
1314 570 0
-88 1653 0
2621 -2080 0
-1232 2018 0
402 2026 0
858 131 0
1660 1634 0
-1276 -1346 0
1913 -1929 0
1105 -120 0
2532 2048 0
1830 2461 0
-1108 2094 0
-2042 546 0
-2297 -808 0
2378 -1172 0
1182 -609 0
-1383 -2562 0
-1669 -2237 0
514 -485 0
594 -2557 0
1984 -1386 0
1174 2519 0
-94 -504 0
-2273 1669 0
-2017 1960 0
-2033 1848 0
-1981 -2681 0
870 -549 0
1034 -2387 0
-412 1318 0
1673 1836 0
2912 -1787 0
1099 -188 0
1499 230 0
-716 393 0
-404 1772 0
1668 543 0
-1439 177 0
2023 203 0
323 2095 0
968 285 0
1648 1641 0
215 237 0
2338 387 0
-2483 -1334 0
-2778 1459 0
1944 2584 0
-1295 -1582 0
1239 700 0
2478 -2188 0
-2713 900 0
-1650 -828 0
523 1217 0
2384 -68 0
730 156 0
-1060 293 0
-1235 -155 0
-2940 1636 0
645 -1672 0
-1589 1790 0
1124 638 0
-2521 -1782 0
1505 -2609 0
-765 -131 0
-1455 1822 0
1537 338 0
-49 2583 0
2324 436 0
1082 -2959 0
-72 2118 0
-2411 -438 0
2573 1753 0
1592 1404 0
-1456 -1153 0
113 -642 0
113 -1301 0
1224 830 0
-309 -2695 0
-1732 2800 0
-2738 -2346 0
-674 53 0
26 -1716 0
-2196 -7 0
-970 -760 0
2179 -1842 0
1746 -1093 0
377 1774 0
1743 1136 0
-2368 2425 0
-1689 2804 0
2426 791 0
258 -1460 0
2710 -1172 0
-12 635 0
-1112 1374 0
2054 2770 0
-1729 -1675 0
-1387 1846 0
-1311 513 0
-158 -637 0
2229 -2752 0
-938 -2296 0
-2845 2375 0
-1648 1117 0
1346 716 0
-2705 401 0
-2543 -2904 0
2690 -2211 0
540 -1629 0
2188 -1259 0
-97 -717 0
-2803 -866 0
379 -2902 0
-1019 966 0
2205 2465 0
-2367 -532 0
-1726 -2988 0
-2053 1376 0
-1926 -2144 0
1028 2211 0
2100 -1338 0
2421 -2148 0
-31 -1142 0
-1709 -1485 0
2214 35 0
-1846 -2959 0
-1483 1982 0
-1633 -1892 0
-2566 -15 0
601 1478 0
-1485 2102 0
-1072 871 0
669 -2062 0
-1916 1179 0
-1051 -951 0
1116 527 0
-1579 -679 0
-1769 2800 0
-1823 -762 0
-672 -958 0
2330 -2937 0
2459 -1918 0
-2484 1112 0
-989 371 0
1164 -1664 0
1466 2566 0
2665 2925 0
1237 -1694 0
-1862 1411 0
1640 368 0
2264 2501 0
2385 -2119 0
-2414 728 0
-2219 1400 0
2128 1641 0
1084 236 0
667 -336 0
1090 -2912 0
-2821 371 0
-1677 12 0
1347 -1467 0
-2226 429 0
576 1265 0
-2922 -1768 0
1395 -2754 0
713 -1862 0
2311 -364 0
1057 2768 0
-2886 1759 0
-196 2378 0
-2514 2672 0
837 -332 0
2291 -2666 0
-1628 158 0
-2434 1163 0
-2520 2381 0
-321 -2403 0
-459 1189 0
196 -2501 0
2963 2656 0
138 -1128 0
-993 2550 0
-439 -2054 0
-2712 1081 0
-1598 -2846 0
-2951 -2663 0
-1403 -1407 0
65 -1939 0
2224 -824 0
-2998 -1382 0
-538 -1807 0
2249 -2121 0
-1845 -2813 0
303 2850 0
-1557 1319 0
1904 -152 0
1440 2912 0
435 38 0
-2107 2613 0
1067 -1354 0
-947 2756 0
699 1361 0
461 -1483 0
-1150 -2145 0
-2766 514 0
-626 -1019 0
-2852 -2514 0
-2670 -2587 0
-194 801 0
-2580 -41 0
-41 -2350 0
2369 -1089 0
2437 -440 0
-2561 1129 0
2370 -70 0
1875 298 0
-655 1145 0
-2687 -2941 0
-2055 1088 0
2590 997 0
-420 448 0
1636 -2903 0
-2792 -2332 0
-1931 -1927 0
-1059 639 0
2048 -772 0
-2794 -191 0
-27 998 0
-1228 2951 0
-614 1809 0
1602 1314 0
-1328 2401 0
-768 1178 0
-2299 -2518 0
-1618 -528 0
505 2916 0
-925 832 0
1453 -1630 0
-330 -1873 0
1800 -2991 0
2710 -1426 0
166 1662 0
-745 -1142 0
-2810 1693 0
-1775 1730 0
820 -2141 0
-862 180 0
-1630 2485 0
888 -928 0
2622 -1762 0
-2896 -2936 0
-2341 -2851 0
-258 -1671 0
1522 -438 0
-2395 -1428 0
-652 -1529 0
-76 -19 0
-1041 -1690 0
-1468 1012 0
1840 -49 0
-2539 1875 0
2426 2866 0
1865 -2294 0
2330 1181 0
194 -1080 0
-1245 828 0
1844 -1874 0
-1844 -1299 0
1132 -1487 0
2669 625 0
-2568 1303 0
1217 2083 0
-1158 -1675 0
2842 -86 0
-2507 -3000 0
465 -1819 0
-2569 632 0
42 1172 0
-1542 -1374 0
-735 2976 0
529 1459 0
-1593 -2959 0
-1364 -1515 0
-1271 -2564 0
-459 390 0
2310 -2147 0
703 -1130 0
2690 1482 0
-500 -1013 0
1176 548 0
-2867 685 0
-2659 2170 0
-1667 876 0
2842 -1433 0
-1455 303 0
2082 2783 0
2501 2907 0
374 364 0
-2342 -1268 0
2014 -888 0
2014 -1572 0
-2354 781 0
698 2716 0
-1902 203 0
1582 -355 0
-2056 -1861 0
1859 -1278 0
-2457 -2693 0
-2213 -223 0
26 -19 0
87 -2953 0
-507 1321 0
-1355 -1678 0
-2851 1271 0
-2013 -1564 0
2583 626 0
47 314 0
249 -2232 0
187 743 0
583 -1843 0
-2176 -1468 0
2532 2176 0
1590 1058 0
-687 2772 0
-900 1390 0
-989 561 0
2261 -242 0
2263 2870 0
-678 -2842 0
2516 -2863 0
2566 2955 0
2412 1382 0
-1468 825 0
-972 553 0
2619 -186 0
1490 1046 0
-1594 -766 0
420 424 0
-983 -2161 0
1551 -1380 0
1021 -2932 0
-41 2204 0
347 -1574 0
-1251 1513 0
159 -214 0
-2094 1509 0
-779 -223 0
1307 666 0
-1537 -243 0
-2067 994 0
-791 -2827 0
205 2083 0
-1913 -100 0
-395 878 0
1044 -2159 0
2969 -2959 0
1445 446 0
2900 2984 0
219 -2965 0
-1339 821 0
-2030 -12 0
-1131 -1657 0
-706 658 0
-154 2517 0
1148 1711 0
-857 2230 0
-257 1956 0
1710 2147 0
-2363 1014 0
317 -2383 0
-2430 2328 0
-1564 689 0
2589 2084 0
-735 -2447 0
1596 662 0
171 -2542 0
-322 568 0
-2365 341 0
293 -1428 0
2746 1072 0
-709 -513 0
-223 -1149 0
2244 -2737 0
2935 -2883 0
-2887 389 0
764 639 0
2108 528 0
2861 79 0
-1633 -1330 0
-1478 -2785 0
-2497 -2144 0
2473 1596 0
-1734 360 0
2542 411 0
-1494 2702 0
-1365 -1584 0
-1938 -492 0
2387 1079 0
-2428 586 0
-1106 -374 0
2726 1181 0
-386 2424 0
-2624 -1461 0
-1389 1261 0
836 900 0
1905 2919 0
2470 -133 0
-1995 -2502 0
838 2021 0
277 -253 0
398 2478 0
-154 -747 0
1515 1877 0
-1633 100 0
-498 -149 0
-1765 -790 0
1982 -619 0
560 -1191 0
1947 -2357 0
-1630 1630 0
-125 -1652 0
106 1904 0
-1594 -1930 0
1024 1619 0
-2454 -2661 0
-1385 7 0
1340 -2492 0
-2949 797 0
-661 2290 0
1000 1284 0
2544 2805 0
-2520 -1766 0
1213 2318 0
-2277 1785 0
-2824 22 0
-1220 -835 0
-1680 -1403 0
2790 -268 0
1357 2541 0
-2196 -1297 0
-1462 -2044 0
-1844 -829 0
1750 885 0
-2622 -1423 0
-76 -1535 0
1658 104 0
-696 -664 0
2641 -669 0
1076 -2581 0
2972 -2631 0
-2521 -1199 0
1792 1290 0
1025 1631 0
-606 -1021 0
-2752 1432 0
-2134 -257 0
1852 828 0
-2336 309 0
-570 -2331 0
2591 635 0
1097 -1828 0
1436 -1037 0
-2092 2523 0
-693 -2862 0
-1108 -2028 0
2168 1883 0
1614 2718 0
-20 -1274 0
2782 -712 0
-2161 -831 0
2188 2193 0
-2466 -897 0
-1518 -1717 0
-1279 1741 0
-2987 2450 0
-2495 -811 0
128 -1897 0
-786 1230 0
830 2317 0
-15 534 0
-1 -72 0
-351 1025 0
-10 -754 0
1209 -287 0
-2196 -1816 0
2549 2921 0
2994 -150 0
215 -760 0
-335 1240 0
-1295 -683 0
814 -453 0
425 -2694 0
-482 1530 0
-1843 -2929 0
-2086 -782 0
-672 2976 0
2792 -1829 0
210 417 0
2789 -2742 0
-2892 870 0
2133 506 0
1776 1745 0
-924 1620 0
-668 2172 0
1560 -2588 0
1183 -2274 0
1672 1076 0
-888 90 0
-2902 -1308 0
-2839 -234 0
-148 -473 0
2518 -1184 0
372 -601 0
687 -1432 0
2697 -2613 0
-947 1409 0
411 2948 0
2336 1744 0
-2676 -780 0
-1854 565 0
-1431 -2374 0
-838 -441 0
892 546 0
-1610 -464 0
-1692 2244 0
469 -969 0
-2301 -2662 0
-1650 -2115 0
-464 2191 0
-1586 -501 0
404 2311 0
952 2584 0
-319 1479 0
1302 -1248 0
172 1547 0
1711 -2287 0
909 -888 0
-2737 -152 0
-2009 2767 0
1575 2721 0
1664 414 0
321 -71 0
-2300 1293 0
349 2259 0
618 85 0
-206 -2115 0
-972 712 0
905 1631 0
2956 1219 0
1980 -20 0
2598 -2449 0
1976 1284 0
1818 505 0
-2591 -1688 0
-1813 -335 0
-925 2729 0
-2123 -2093 0
-2403 -904 0
-592 1037 0
1060 -271 0
-2906 1471 0
2284 2221 0
-1127 -637 0
581 -577 0
-1547 -1850 0
-1609 -416 0
-484 -1601 0
2935 2728 0
368 1233 0
-1165 -731 0
-1797 -1222 0
-2653 1274 0
-972 2980 0
-1309 2903 0
-392 -1778 0
1067 -1948 0
-1754 757 0
-118 2852 0
-1343 -1965 0
650 -250 0
317 237 0
2715 -2215 0
-769 2984 0
-866 -30 0
-2237 -1917 0
404 -846 0
-2961 205 0
1560 -720 0
1865 -1518 0
493 434 0
1730 2902 0
-888 2928 0
203 548 0
-742 2810 0
625 1698 0
-1940 1884 0
-1767 1577 0
-601 26 0
-2486 -2665 0
-138 9 0
2814 -245 0
458 914 0
-2090 -2854 0
1496 -2438 0
2184 -2332 0
-2482 -2958 0
-2149 -2307 0
-1307 282 0
1624 -1372 0
-2347 -2458 0
1389 639 0
-1035 -984 0
-900 -245 0
-260 2516 0
959 438 0
-1221 -2838 0
-1599 1424 0
789 1077 0
-29 2848 0
680 2789 0
505 501 0
-2210 -1298 0
-1966 -2065 0
-1614 254 0
1531 227 0
-515 2088 0
903 657 0
-2235 -1254 0
-1091 -1799 0
1934 -368 0
-2441 -648 0
1955 -1289 0
-2342 -1636 0
2754 -1643 0
-1054 1057 0
2819 -1715 0
-1503 -1222 0
2969 526 0
-1911 2922 0
1857 208 0
-554 -456 0
-2603 2733 0
-1592 -52 0
50 -1187 0
1793 -1225 0
1957 2063 0
1087 1439 0
-1464 96 0
-121 734 0
-378 1396 0
-1386 1450 0
-1036 -1589 0
95 153 0
263 -2431 0
-966 895 0
-1490 2704 0
565 -20 0
1496 869 0
633 998 0
1996 1385 0
-624 -1691 0
2000 -1006 0
-110 2623 0
1521 894 0
-418 -1883 0
502 525 0
-1451 821 0
2062 -2654 0
-279 700 0
-2753 -907 0
-1842 -4 0
2239 -1516 0
-2115 -309 0
-545 2936 0
-1981 2463 0
2522 448 0
-2194 1232 0
-1591 -2085 0
1293 2010 0
-682 -920 0
1466 675 0
1858 2335 0
-675 -2824 0
-758 2096 0
1903 1828 0
-305 -404 0
-407 2970 0
144 -2634 0
1000 2100 0
-2149 -2120 0
313 -1582 0
493 2656 0
-1516 2286 0
2050 -611 0
2517 -2895 0
1662 1131 0
1477 -911 0
1316 -834 0
-2612 651 0
-357 -916 0
-2440 -182 0
1462 794 0
-1717 -1295 0
1553 561 0
-886 -2682 0
2969 -1089 0
-105 2125 0
-308 513 0
1151 -1239 0
-1472 2636 0
-2675 2940 0
871 2184 0
-1212 930 0
-208 201 0
-2121 631 0
-2814 2415 0
1283 245 0
-475 -1298 0
-1588 1728 0
-407 -2170 0
481 -2923 0
-186 -1164 0
-1343 1372 0
-1207 2336 0
-1970 -2451 0
-2846 2912 0
-2897 1027 0
-1106 -2992 0
-1367 2995 0
-2362 2361 0
-2549 -2973 0
-1450 -295 0
2286 2023 0
-404 -333 0
-1864 2669 0
-825 -1945 0
990 -192 0
-245 -2317 0
2847 -20 0
-2642 -1673 0
-2398 -2535 0
-1450 -2926 0
-2587 -2129 0
250 -322 0
2441 2437 0
-1658 1491 0
1445 1343 0
-2443 -869 0
-1818 1729 0
-107 -2104 0
1985 -1848 0
-387 106 0
-403 2167 0
-1273 1754 0
714 1211 0
-2882 164 0
223 2545 0
-1352 -1671 0
1555 2324 0
-636 -1428 0
-1348 885 0
-1332 -1803 0
-120 -674 0
556 -2550 0
819 2258 0
2936 -271 0
2964 283 0
2431 667 0
1352 -772 0
2204 1570 0
-1910 -1660 0
-2044 -1398 0
618 1665 0
2916 -1676 0
94 2999 0
464 1203 0
1418 2666 0
-751 1293 0
-1218 1636 0
958 2402 0
2109 -1446 0
333 1236 0
2505 -2135 0
742 -1984 0
-220 2386 0
-1776 -2225 0
-782 2813 0
1329 -1793 0
-1140 106 0
-2382 -584 0
-491 -412 0
1169 -784 0
671 1737 0
435 -2216 0
-538 2151 0
2211 2783 0
2015 -1832 0
45 -2725 0
205 1571 0
2066 2957 0
1792 -1725 0
-105 2258 0
1759 -383 0
-2111 16 0
-1271 378 0
-2550 -2149 0
-2580 1191 0
2988 -1358 0
-2840 -253 0
-2695 68 0
2244 -2708 0
1707 792 0
2288 -41 0
-2546 452 0
-916 -2824 0
696 1383 0
-816 -2072 0
499 -1746 0
764 515 0
-478 -440 0
2327 2178 0
-1629 -2350 0
-2431 -1664 0
-311 2851 0
1636 -2872 0
-916 -2304 0
-1093 -928 0
-489 -280 0
-1564 521 0
718 1344 0
677 970 0
-110 1585 0
1037 -2866 0
2277 -2780 0
880 -2278 0
-74 -2980 0
2648 -1755 0
2334 1191 0
2338 1784 0
-1254 1014 0
-2654 1465 0
-82 -509 0
-2358 876 0
-2332 -1667 0
-475 1426 0
-2602 -531 0
580 -1910 0
-1627 -2727 0
-1472 -1294 0
2802 1537 0
1141 1851 0
-720 1103 0
-327 432 0
-2657 -1088 0
2613 -632 0
-2023 -1060 0
1109 1546 0
-1688 1707 0
-1575 -155 0
2303 817 0
-2593 514 0
-575 936 0
2483 2626 0
1436 2473 0
907 -2964 0
-2227 -2676 0
-2609 -2242 0
2050 -1187 0
168 2276 0
11 -1928 0
177 2739 0
2501 34 0
2927 -2419 0
2251 1165 0
2811 924 0
-158 -1639 0
2730 1487 0
753 1043 0
-2866 -167 0
-1064 -2848 0
-1343 -1243 0
-2215 1811 0
-323 956 0
-130 -2789 0
-646 -981 0
1024 713 0
1204 853 0
10 2441 0
1456 -2803 0
-1405 386 0
-1702 1695 0
-1432 106 0
2214 -731 0
-365 -1642 0
2360 -2960 0
-1498 -1094 0
1979 2430 0
-2185 2986 0
2680 2295 0
1760 -1064 0
1693 -383 0
-2994 -1815 0
2024 -470 0
1103 286 0
-284 476 0
816 1824 0
2147 1733 0
-265 -358 0
1079 -1925 0
1633 -185 0
615 -2054 0
-1616 2037 0
-2850 -755 0
-777 248 0
-1753 2864 0
184 1523 0
-2227 -354 0
-1304 1690 0
238 2261 0
920 744 0
2301 -1387 0
-1444 -1830 0
-1753 2080 0
-866 -2521 0
-86 -2898 0
-653 -1737 0
1125 -185 0
-1759 -1716 0
-2412 -1675 0
1436 284 0
2397 -2342 0
138 -2786 0
605 -2148 0
541 -1929 0
-1150 -2181 0
-1970 1702 0
-2342 2890 0
828 -174 0
645 -1464 0
-1128 -2845 0
-19 -1228 0
2718 -1327 0
-2679 776 0
1706 2574 0
2487 2390 0
-2455 -14 0
-890 -1188 0
612 -1615 0
465 -692 0
791 -2895 0
1740 1117 0
2047 1813 0
611 1606 0
1934 2338 0
1699 1536 0
-574 885 0
-2329 2819 0
1416 -1074 0
2203 356 0
-2099 -2404 0
-2376 952 0
-1087 1388 0
-2170 -2592 0
324 -443 0
742 1906 0
-816 -683 0
-1515 -484 0
-1109 813 0
-2549 -1632 0
2763 -2638 0
1002 -2078 0
117 -72 0
-931 1291 0
-459 -125 0
-259 2705 0
-2032 1793 0
-626 -84 0
145 -1543 0
2106 -2894 0
-107 -2815 0
225 1690 0
536 -834 0
1843 963 0
-2909 1578 0
1838 -1147 0
-1633 -102 0
-91 2025 0
-1525 2475 0
-1431 1770 0
-1568 610 0
2387 511 0
2603 -2079 0
2218 2727 0
-499 2658 0
-1829 -298 0
-107 -221 0
1177 1095 0
2688 -2637 0
2784 2322 0
-1538 -1538 0
-1748 -2403 0
-2739 -2815 0
-2375 -2416 0
-2406 1774 0
480 -422 0
-1390 -2851 0
2856 182 0
2109 1049 0
-759 143 0
-352 1410 0
2891 100 0
-1289 2462 0
-2791 -1033 0
959 2097 0
-1237 178 0
-1142 1616 0
-741 -28 0
2606 -333 0
-1003 -1659 0
-2787 -1085 0
-2539 -2542 0
-1712 2663 0
1866 40 0
1347 427 0
696 2907 0
-1280 -40 0
2655 2765 0
-2883 2999 0
-660 -2165 0
2436 2657 0
-2395 -2628 0
979 914 0
-139 1695 0
1785 -1072 0
-2853 457 0
1750 -2404 0
-1254 1157 0
922 -1474 0
-2580 -2268 0
2680 -2847 0
-2399 -765 0
-2983 1089 0
1976 -157 0
-1431 -1409 0
-2010 -1845 0
-535 78 0
1464 -2863 0
-1336 2698 0
1273 -663 0
1445 -162 0
1967 2640 0
2441 2615 0
2408 -190 0
-2162 111 0
802 971 0
-1175 1493 0
-1316 -2200 0
1330 -783 0
2204 -403 0
-2053 1123 0
596 -2821 0
-1029 -1054 0
-2578 -960 0
-2929 1168 0
798 349 0
2664 1541 0
1944 205 0
-616 511 0
-18 -1987 0
-761 635 0
-983 1085 0
-30 2686 0
975 -273 0
-1558 -1658 0
1986 -2181 0
2678 562 0
1738 -2967 0
134 -2323 0
-803 -105 0
581 950 0
1424 -403 0
-974 1865 0
-1482 -942 0
-1166 -1830 0
-1394 -2684 0
988 2040 0
1198 1918 0
2023 -2734 0
376 1025 0
-2361 -1525 0
2430 2575 0
379 682 0
-39 -316 0
-2970 821 0
-268 -2602 0
-107 1011 0
-2806 -1175 0
787 -948 0
2258 40 0
440 -1936 0
-2612 -23 0
2854 2544 0
2547 -2458 0
14 -1377 0
-2853 -2006 0
-1575 -815 0
-2683 2897 0
-2803 -1257 0
-992 -2511 0
-2723 1032 0
1117 -1185 0
2602 -909 0
-1030 -2252 0
-2787 1492 0
1144 -2782 0
700 2330 0
545 1782 0
445 -1037 0
1058 -2007 0
2594 2913 0
1166 -6 0
-167 34 0
-1768 -2372 0
-342 -1001 0
-1150 -463 0
40 416 0
1931 -1140 0
1880 -2696 0
1363 -270 0
831 -73 0
-1455 -1682 0
1305 -645 0
1711 2933 0
-1699 615 0
-2741 -2552 0
-1698 1746 0
546 -1878 0
2942 -640 0
-2576 -542 0
2063 1081 0
1042 2800 0
1809 -2696 0
-1769 -2199 0
2293 -2289 0
953 -2404 0
-693 387 0
-2659 837 0
-2578 1683 0
2721 -2729 0
-2029 2126 0
-20 2095 0
285 900 0
1314 2503 0
-1452 402 0
-1297 2033 0
1986 877 0
-482 -2028 0
2799 319 0
1326 -2484 0
-1292 -2604 0
2893 -1070 0
2224 -2285 0
1729 2324 0
1518 -706 0
-1368 2980 0
-1867 -257 0
-596 2327 0
2738 -64 0
520 2800 0
1473 778 0
-2207 219 0
-2192 1682 0
2816 -1933 0
2224 1629 0
-2574 -2764 0
1462 2259 0
1470 1730 0
813 -2773 0
-1851 1314 0
-872 1239 0
98 -1002 0
2211 1034 0
1075 304 0
-181 596 0
2768 2668 0
-2571 877 0
548 -939 0
2382 -1936 0
1030 1513 0
-910 479 0
-202 -731 0
-1402 -2627 0
1061 -2679 0
2063 215 0
206 -1055 0
568 277 0
-2568 -617 0
2287 -2594 0
2324 -2094 0
-2382 -2072 0
-2762 2478 0
-39 2305 0
-2698 -1815 0
2641 670 0
2355 -18 0
-123 -2649 0
-1944 -2211 0
2658 -595 0
-2891 -1112 0
-1975 1840 0
-2241 -68 0
1113 -1734 0
2459 1622 0
710 -2741 0
-2129 -345 0
2977 -1768 0
672 -742 0
-466 2822 0
2603 -232 0
-494 2037 0
-1742 -409 0
-1977 1034 0
-61 -2762 0
195 867 0
2832 -12 0
1124 653 0
2604 -1132 0
-665 744 0
69 -963 0
-406 -2452 0
2726 1224 0
2946 1483 0
1134 -2785 0
1540 2586 0
-2343 -944 0
-2344 -2065 0
1357 -1134 0
326 -1688 0
99 387 0
-2431 2510 0
-2662 488 0
274 226 0
-2581 -1101 0
2110 1550 0
2724 2933 0
2531 -2337 0
93 -933 0
2491 -2011 0
2183 -1696 0
1443 1971 0
70 1514 0
164 -2638 0
2510 1478 0
2334 158 0
-2465 -945 0
1350 914 0
-1329 -1431 0
-1415 1385 0
2388 -508 0
2995 -91 0
-2556 2109 0
-2744 -2232 0
-2142 -1018 0
-1966 455 0
-1702 -253 0
-2371 1245 0
2336 -59 0
-2320 1946 0
2386 -952 0
-2552 1593 0
2429 2099 0
-2407 -2012 0
-2821 2972 0
-2803 -2488 0
-2686 1699 0
1411 554 0
2234 2957 0
2734 -1698 0
2282 -466 0
-1961 -1931 0
-2431 -2537 0
1176 1548 0
2427 -2434 0
1211 -2293 0
-233 424 0
1213 -710 0
-1148 -818 0
-1041 -2160 0
1425 1828 0
-1814 -720 0
2410 -2860 0
2698 -1542 0
-2798 305 0
-1724 856 0
-2251 970 0
131 -2641 0
436 1148 0
-609 907 0
-37 -2624 0
-2953 2066 0
-655 -1292 0
513 -1379 0
2295 -1737 0
-1072 -314 0
1061 -1600 0
2677 2150 0
-227 1465 0
2837 -2603 0
1126 537 0
1172 520 0
-507 -2536 0
-2109 -182 0
2033 510 0
-2718 -2250 0
1896 -2863 0
-2896 -1856 0
-2341 235 0
-1572 1559 0
2992 -1856 0
-1050 -1364 0
-517 -1029 0
2322 2572 0
2800 2565 0
1970 -522 0
-2881 2419 0
-2855 1416 0
-1386 -1764 0
-823 -1779 0
2000 -2107 0
-1113 2910 0
543 -2480 0
2251 -1321 0
2364 273 0
305 2019 0
915 -1925 0
2304 2479 0
2886 -2883 0
1835 -1797 0
-2297 -626 0
1070 2137 0
-1578 1881 0
2279 2957 0
-2237 -1478 0
-2082 -2285 0
-127 -478 0
-629 -1759 0
-2552 1315 0
506 -1598 0
1811 848 0
-202 122 0
761 1618 0
-2412 1061 0
-2741 528 0
-1244 -430 0
200 7 0
-2581 2396 0
-1276 -759 0
-1422 -964 0
118 36 0
1512 1136 0
2754 -1643 0
672 -2962 0
-2843 2124 0
186 1744 0
-58 1014 0
2260 789 0
1072 -2859 0
-1326 1178 0
2692 -1972 0
-2080 -222 0
-937 -648 0
-2663 1319 0
612 2810 0
2966 1062 0
-837 -886 0
1170 -650 0
2346 2784 0
305 998 0
914 1132 0
-1996 548 0
87 2456 0
-519 -1633 0
-917 2597 0
2284 2561 0
1514 59 0
2739 1931 0
-2507 2286 0
1997 -1703 0
1133 2472 0
-1042 -22 0
-1010 2445 0
-444 603 0
1477 -1867 0
-1945 1357 0
-1345 2704 0
1703 717 0
-2538 1247 0
-2419 698 0
1721 1017 0
-192 2485 0
752 14 0
-2593 2330 0
2827 -2508 0
-1112 -2299 0
-1983 282 0
1760 -2529 0
1471 1482 0
-2654 219 0
-2383 562 0
-2543 883 0
-834 827 0
-214 1417 0
1385 -2466 0
-478 -2205 0
568 1203 0
1964 -616 0
-1363 2109 0
-2700 2512 0
-1908 2935 0
1101 884 0
-1887 603 0
-1049 1895 0
1847 2748 0
-948 -2671 0
188 -980 0
776 1802 0
161 155 0
-2452 -669 0
-1251 289 0
-1511 -2893 0
370 770 0
-2006 -1053 0
-1903 -1074 0
-2306 -344 0
932 1545 0
57 2406 0
-2566 1780 0
-2208 -501 0
-188 -119 0
2208 967 0
-2924 2602 0
-2953 1950 0
2213 296 0
2481 -2815 0
525 1000 0
-1349 -1723 0
1895 1860 0
388 -627 0
2789 664 0
1343 106 0
908 -2346 0
1638 667 0
1841 -1748 0
925 -2755 0
2214 -889 0
2690 -2380 0
-2111 499 0
-507 821 0
2378 2347 0
177 -1133 0
-1894 -636 0
-271 -2358 0
461 -424 0
1855 2425 0
-1593 819 0
2245 -718 0
-2157 754 0
2758 1016 0
1097 2724 0
1647 -2769 0
802 1560 0
1880 -2730 0
2286 -2467 0
241 -2765 0
461 592 0
2888 1576 0
-2876 1426 0
-2263 -2743 0
2401 2254 0
-1882 -2995 0
1659 2736 0
13 -2996 0
-1980 -2351 0
-346 -976 0
-2904 568 0
-2352 -2460 0
2701 -1591 0
2722 -422 0
-440 906 0
-2814 -731 0
2878 2505 0
-1019 -2356 0
437 -533 0
795 -403 0
-2019 -2162 0
-2483 -1702 0
-2135 -2369 0
840 -2774 0
1272 -2187 0
1166 -824 0
-2793 826 0
2018 -1709 0
-1449 269 0
1980 -548 0
325 1168 0
-2609 2154 0
1235 2553 0
-991 2060 0
672 -709 0
1559 1181 0
-1232 -2122 0
-317 1685 0
-141 -870 0
-1307 -1306 0
-2348 -1562 0
675 -246 0
1805 1943 0
-557 694 0
-265 -563 0
1882 2856 0
1177 -67 0
151 -2135 0
-2827 -315 0
-1065 551 0
1608 -426 0
1900 1383 0
1453 -461 0
-2555 92 0
679 2352 0
-874 -365 0
2927 -1523 0
-881 -2853 0
-639 325 0
-383 2309 0
1757 -1825 0
-1748 2 0
1214 555 0
-2465 -1114 0
1078 -1717 0
2344 2887 0
-2787 282 0
87 1773 0
-1543 -1718 0
1727 -1096 0
2413 1562 0
891 398 0
257 2279 0
-1507 -1129 0
2057 2171 0
870 -1455 0
-167 1250 0
-449 157 0
-985 1422 0
671 -158 0
-737 -2472 0
1660 2883 0
1182 548 0
-257 -1079 0
1145 -2376 0
-772 -2202 0
-812 -1542 0
-823 1388 0
-2399 -351 0
-1955 205 0
2981 -2487 0
-2880 798 0
-2171 -2867 0
-337 2167 0
-1274 -1318 0
-2906 -504 0
-38 2978 0
255 -2454 0
481 1636 0
2461 -1175 0
1415 327 0
2239 -1498 0
1745 -606 0
-1377 1282 0
654 309 0
-276 1199 0
-2742 -223 0
-2222 -1340 0
-2803 924 0
-566 973 0
1619 970 0
2989 -1476 0
1987 -1495 0
2168 840 0
-665 2312 0
251 285 0
1718 2891 0
1680 -2038 0
-160 -888 0
805 1841 0
426 929 0
2855 -2421 0
817 1253 0
99 854 0
-108 -593 0
-1075 -1398 0
2702 -1739 0
305 1960 0
-2418 -1832 0
-331 71 0
2812 1291 0
-714 64 0
-353 -413 0
-2884 1200 0
-2592 -1766 0
205 1963 0
-617 -2235 0
1045 -707 0
2969 -2030 0
261 1481 0
1160 1067 0
-230 1375 0
550 2693 0
2155 325 0
-1851 -1318 0
-2442 -890 0
2589 218 0
-125 1019 0
-2991 1349 0
622 2779 0
-1182 -1113 0
-2531 1242 0
-1718 -1848 0
-900 -589 0
1702 -2387 0
1565 -1599 0
-2012 2277 0
1552 1160 0
-2774 2518 0
-1468 -576 0
1660 205 0
2681 865 0
-2131 2409 0
-165 490 0
125 -1336 0
-535 1771 0
-1447 539 0
-107 -856 0
-2765 -973 0
1835 -762 0
1479 -33 0
-2568 2155 0
2535 -1046 0
-298 1957 0
-471 657 0
838 -1961 0
-67 -526 0
-2885 808 0
2110 -659 0
1545 -1013 0
-1474 -693 0
-2625 -2905 0
2358 -2926 0
451 -408 0
-1959 -1869 0
2306 2715 0
2489 2819 0
-220 -210 0
248 -1454 0
-412 -406 0
2243 273 0
-430 -1237 0
2697 2621 0
-2447 -2227 0
-249 1535 0
-2113 1090 0
912 2485 0
-1612 2378 0
-1686 -978 0
1069 -2171 0
-1398 -1420 0
-331 -1713 0
-133 -2526 0
686 2303 0
-438 2042 0
1073 -1128 0
43 -2543 0
-1087 -466 0
2950 -1790 0
1320 1261 0
-2304 2606 0
-2950 2160 0
-2192 -2808 0
379 -585 0
1 -862 0
1666 -2374 0
-648 -1341 0
1213 -786 0
-2359 524 0
-167 -699 0
109 -2002 0
1759 2900 0
-2511 -431 0
-2804 45 0
2319 -95 0
-2661 -2307 0
-668 -1300 0
-642 -1613 0
-2449 456 0
1197 636 0
1613 -974 0
903 2824 0
-1147 -2877 0
-1257 1973 0
-518 -1001 0
-2039 1987 0
-745 -1174 0
-449 616 0
-1669 437 0
630 -1153 0
746 -2507 0
1601 -442 0
1277 2819 0
-652 -2088 0
-314 2224 0
2255 -683 0
-1689 -1234 0
-2906 -2282 0
193 2029 0
-1834 -1504 0
-2883 1020 0
1799 -1755 0
-282 2982 0
2712 927 0
-366 -1770 0
1306 -1272 0
241 2501 0
1795 2183 0
2999 -2976 0
218 2648 0
-1166 146 0
-1019 1265 0
-1657 -756 0
-2610 1562 0
528 2823 0
1770 -2581 0
-2583 905 0
-2587 1524 0
593 1940 0
830 224 0
2268 1647 0
27 -1244 0
-2827 441 0
1357 -2353 0
358 -2236 0
-1558 -666 0
-241 -1118 0
-1121 -2455 0
-812 193 0
-221 1397 0
-1273 -2235 0
1862 -1100 0
1872 -487 0
-307 2636 0
2378 2585 0
1237 -2471 0
-1162 2533 0
1183 -765 0
2311 -1517 0
2042 1895 0
710 905 0
2907 -34 0
-346 2302 0
-1013 -1177 0
2499 1079 0
-2843 -321 0
2071 973 0
2656 1231 0
-395 446 0
2074 -394 0
-2309 544 0
1913 1660 0
1423 -2216 0
1296 -2817 0
-1517 2057 0
209 2003 0
-2484 -1587 0
-1283 2922 0
-1843 -2747 0
-284 2459 0
-2316 1537 0
-189 2872 0
-342 -607 0
-2396 -1239 0
-474 -2494 0
-2879 -1815 0
373 -1289 0
953 -1269 0
1375 -1157 0
344 2477 0
-1368 -1032 0
1320 1068 0
-944 1903 0
-1207 -564 0
-2555 -2804 0
1238 1174 0
-2914 -277 0
2214 2963 0
-1129 1892 0
961 -2880 0
2823 1461 0
-1941 1247 0
1867 514 0
1963 -1646 0
404 -2113 0
631 -22 0
367 -2109 0
795 -1380 0
-1358 -165 0
164 -2955 0
-1119 1921 0
2393 -543 0
1004 -1501 0
2145 -984 0
196 -1683 0
1283 -81 0
-2414 -2099 0
-1569 -416 0
-2694 667 0
-1290 2328 0
-2447 -2550 0
-896 -2146 0
1781 -1663 0
-1737 -721 0
1514 1669 0
-853 2300 0
-2381 1693 0
1807 -1130 0
-1759 -1722 0
-946 -2176 0
2779 -750 0
117 1847 0
-1517 2898 0
-716 -2530 0
2296 247 0
-1372 1130 0
517 1562 0
1608 701 0
198 -1195 0
2277 -2454 0
226 2259 0
864 415 0
2630 -227 0
482 2245 0
-188 -2995 0
157 2980 0
-1929 2604 0
-82 -2367 0
-459 858 0
728 -693 0
-734 1060 0
-1483 871 0
-2615 -2951 0
897 1132 0
223 662 0
1784 -1685 0
-2645 1174 0
2391 414 0
-2724 430 0
-1976 1247 0
596 2756 0
-1958 1322 0
277 762 0
877 1013 0
-2071 2744 0
-277 2392 0
-1511 -543 0
852 -1137 0
1167 -2600 0
-652 -1683 0
1117 2245 0
-755 1175 0
-730 -2854 0
817 2999 0
-703 2334 0
-2668 1102 0
-2926 2214 0
1027 863 0
-1397 -2024 0
217 1879 0
166 246 0
-1655 -2034 0
-2725 -890 0
127 1357 0
-888 2508 0
2295 -1586 0
2369 2230 0
376 -2440 0
2217 -66 0
-1365 64 0
1872 -2796 0
1218 1887 0
-1243 784 0
1296 370 0
212 875 0
-2172 -2022 0
1642 1616 0
-285 880 0
-2876 -731 0
-1429 1608 0
2595 -561 0
205 475 0
2421 -438 0
-2341 -2401 0
2727 -1446 0
-2275 -2746 0
-219 1784 0
-872 703 0
435 -2404 0
-2884 -30 0
637 -208 0
2400 923 0
2607 -2029 0
-108 1057 0
684 -1029 0
-1985 -371 0
2933 -1880 0
-54 601 0
-533 -1309 0
452 -1033 0
-1950 -2414 0
-304 -2353 0
-2011 -2850 0
-2810 427 0
1416 -811 0
258 -2830 0
-139 2565 0
172 -1424 0
2820 2919 0
-2994 2393 0
1174 2759 0
930 -2848 0
-2858 289 0
-2452 -2655 0
1288 -2719 0
1297 -2407 0
820 841 0
1485 -257 0
-2271 2188 0
-2751 625 0
2479 2887 0
1905 -2605 0
-636 -2650 0
2766 -1458 0
-1485 -1299 0
-1698 -388 0
-1354 -2754 0
1588 1794 0
-1365 -1200 0
2469 499 0
662 2864 0
-2377 -208 0
939 479 0
-2237 2738 0
-2174 -2028 0
809 -1694 0
-1817 517 0
-412 -1858 0
553 549 0
-1933 1681 0
-1325 -1593 0
2056 1083 0
-253 -2246 0
203 -2864 0
-126 926 0
926 2277 0
2751 -2405 0
-388 903 0
2463 -1185 0
-2953 308 0
727 2499 0
-2382 2031 0
2799 1204 0
64 932 0
2822 -974 0
161 -919 0
-2796 -667 0
258 -1504 0
-29 2621 0
-1857 2034 0
-1187 597 0
14 -89 0
-1438 1727 0
-264 -88 0
-2837 -901 0
-1244 -44 0
215 -2289 0
-236 1649 0
-1325 -2862 0
-2775 -298 0
1603 792 0
-1650 866 0
-1977 1048 0
1409 2957 0
-228 2193 0
422 -234 0
-2128 -2033 0
958 2203 0
-439 -257 0
-1046 2740 0
2214 -2605 0
646 -2158 0
876 -4 0
2183 -75 0
2832 -2819 0
1025 2292 0
-1491 -1970 0
689 2379 0
765 1996 0
-611 1567 0
-228 1638 0
653 -900 0
599 2652 0
31 2966 0
1880 -1050 0
184 -1273 0
645 565 0
-1296 164 0
-2725 1136 0
1291 -548 0
-2285 -1141 0
-919 -1928 0
-2351 -659 0
-229 2708 0
2416 764 0
1466 227 0
1418 -833 0
-2151 2338 0
1273 2058 0
844 -1689 0
-1935 -443 0
-1767 1920 0
259 2303 0
-2935 935 0
2512 -2736 0
728 -1981 0
-1071 2661 0
99 -55 0
-1741 -2215 0
2276 2071 0
-1619 -2349 0
2102 1869 0
-2115 2221 0
-1356 1275 0
2553 -2356 0
2551 2241 0
-373 1642 0
-1929 -1961 0
1492 324 0
1486 -1502 0
-457 754 0
2807 3 0
-2745 1608 0
-1251 -1747 0
490 -477 0
-2140 -2598 0
-2877 -277 0
2786 -1206 0
332 -362 0
1842 118 0
2478 -2630 0
588 -943 0
959 -1969 0
1197 -684 0
1570 -2754 0
2311 -2407 0
-1086 -2039 0
2203 902 0
-1599 -2120 0
-1514 -506 0
2722 471 0
2607 692 0
-976 -2927 0
1217 -411 0
-1227 36 0
1488 1979 0
1467 956 0
2181 1893 0
-736 -1275 0
-866 -1852 0
-473 1058 0
-2137 1129 0
-1981 -1065 0
-1651 2537 0
-2996 -1405 0
-2002 -596 0
40 -387 0
-206 -129 0
723 1502 0
2617 230 0
-1222 2191 0
2593 2395 0
2823 -641 0
-845 514 0
1383 360 0
-2885 -1306 0
-702 963 0
-968 -1533 0
-2367 1890 0
-2092 1531 0
2776 -1062 0
-1726 -1789 0
1207 -1358 0
2361 -818 0
2671 -1937 0
256 -449 0
-650 -1484 0
-2528 -702 0
-714 -629 0
1239 -1789 0
-604 -1665 0
-165 1146 0
378 -1247 0
867 -1029 0
-138 483 0
-564 -2751 0
-2963 2534 0
1701 2509 0
-2673 -1007 0
1384 2410 0
1686 1486 0
1291 -2210 0
-394 2370 0
500 -2776 0
616 1857 0
-917 -2005 0
-873 -2638 0
1381 -1909 0
258 -148 0
969 -1245 0
-2743 -1272 0
-1244 -380 0
2951 -234 0
-844 -672 0
956 783 0
-1455 1780 0
2158 -1324 0
1045 2992 0
343 2182 0
1417 -1374 0
-2435 2452 0
-2486 -2156 0
-1495 1669 0
-1631 345 0
-977 -181 0
-1819 2638 0
-850 283 0
2819 1806 0
1116 2490 0
-1407 1522 0
-348 1854 0
2755 2309 0
-1346 -2759 0
-391 747 0
500 -1579 0
-1990 251 0
-1341 2559 0
1298 1750 0
2189 2277 0
-2550 2676 0
-2381 2321 0
775 1023 0
-681 1091 0
448 1107 0
2930 -2748 0
-1946 1129 0
1340 1491 0
587 973 0
521 -271 0
-1369 -2950 0
-1236 -2297 0
-596 2157 0
370 2490 0
1730 -1769 0
-1370 1894 0
1710 -1372 0
902 1261 0
-2466 2194 0
-1189 -2505 0
74 -102 0
-1244 -57 0
426 -2806 0
-862 -1113 0
-2053 1614 0
1390 323 0
1389 2013 0
454 -2306 0
-10 -1689 0
-1273 -137 0
-1863 973 0
-1036 1237 0
-2168 -249 0
-1833 -138 0
-532 -2280 0
2982 -931 0
-2609 2316 0
-1655 1042 0
2744 1200 0
2710 1417 0
2066 -2759 0
-380 -410 0
-2569 2715 0
-2591 -2548 0
-2423 -2423 0
-110 -1309 0
-93 -276 0
2358 961 0
2984 -2120 0
-1346 2861 0
-54 2873 0
-831 -2003 0
-1068 -442 0
-1582 -2011 0
-2548 1974 0
2019 -2953 0
-1735 1077 0
-1320 -2684 0
1879 680 0
-2596 -1054 0
1526 278 0
-902 -1440 0
-1999 2459 0
-2235 2555 0
1246 2032 0
-2041 -2556 0
-2005 119 0
795 405 0
-257 2717 0
2268 1477 0
-2444 577 0
421 2865 0
-2463 -2577 0
-2414 1618 0
-1597 -189 0
-2651 222 0
-2694 2602 0
2783 390 0
-2876 101 0
-182 -1498 0
-1213 -1751 0
-2577 -2284 0
1895 2712 0
2565 614 0
418 -319 0
-54 -2552 0
2197 -2186 0
2501 2802 0
2920 1239 0
466 -2561 0
-2441 2220 0
488 2343 0
-701 1841 0
226 -536 0
-83 2993 0
832 2288 0
2413 -2830 0
-403 -2655 0
2417 1780 0
-582 -1099 0
-2793 -1743 0
-1254 -410 0
-1485 1835 0
-1474 1151 0
-1915 1614 0
1423 1190 0
-1563 2512 0
2047 1509 0
-1047 -2725 0
-2502 -628 0
788 924 0
-1126 1091 0
-1423 -216 0
-657 814 0
666 1315 0
-1853 -2662 0
1313 -1557 0
1184 2573 0
-2565 897 0
-1522 -2740 0
-2713 65 0
-68 61 0
781 975 0
-222 -240 0
-1874 -511 0
-1053 -916 0
-2953 854 0
1314 620 0
-701 -2390 0
1763 -2668 0
-1241 1805 0
2059 1087 0
659 360 0
2385 712 0
-2601 1261 0
-1189 -1563 0
2128 -2699 0
-660 -587 0
2304 1857 0
-2990 -1311 0
-1618 -2432 0
172 691 0
1571 2295 0
1091 -2426 0
405 -2581 0
-1464 -2774 0
-2140 -1782 0
1693 382 0
-227 1006 0
1530 -884 0
810 55 0
2655 1069 0
-2042 1246 0
-1476 333 0
673 2680 0
2263 -2871 0
321 -2018 0
2593 -1036 0
1590 1126 0
-1819 -1006 0
-2834 -2814 0
1021 -1373 0
479 -1010 0
2775 -2343 0
2711 2816 0
-2406 -2474 0
-1555 -2610 0
882 -2625 0
2032 -808 0
-1516 853 0
-354 1010 0
2656 -2192 0
-2294 2763 0
-2958 -2307 0
2347 -1630 0
-2750 2184 0
511 -720 0
2274 1531 0
-2315 -2990 0
2915 2234 0
-1311 2367 0
427 -148 0
1881 579 0
163 -2347 0
-2290 340 0
2779 -746 0
-2377 2128 0
-2828 -2856 0
-1763 2976 0
-2075 2409 0
-799 1800 0
2034 -563 0
-94 -1622 0
2316 -1990 0
395 -1137 0
-2265 1621 0
2037 2857 0
-686 2149 0
-2062 122 0
1282 -2013 0
1468 -2794 0
-850 1251 0
321 -2845 0
953 -1821 0
898 1725 0
-334 -1926 0
2208 1548 0
658 1600 0
2928 1937 0
-2862 -2746 0
2128 -1664 0
-1837 -227 0
594 -1495 0
261 36 0
2972 1204 0
2712 2171 0
-1941 -2010 0
2206 -1545 0
-102 926 0
-284 -2202 0
1203 1466 0
1632 -468 0
1944 -833 0
-1222 1326 0
1859 -1428 0
1179 -1993 0
-1733 356 0
-2952 1730 0
2010 2919 0
404 -1924 0
2159 1595 0
1449 463 0
2077 -2467 0
1021 -2382 0
654 287 0
-1898 -946 0
-939 1597 0
262 645 0
-2751 -487 0
-2352 617 0
-1691 2131 0
753 639 0
495 -2609 0
860 -363 0
-2698 -2934 0
-119 651 0
1211 2832 0
1733 119 0
2180 1068 0
-2354 856 0
2509 1077 0
-1902 -383 0
2682 2095 0
53 -1559 0
2018 -563 0
-2559 -1260 0
-102 1997 0
-2148 2579 0
-1290 285 0
-908 -2318 0
688 -912 0
2375 2847 0
-1194 527 0
1840 -1294 0
1231 -720 0
-1304 795 0
312 -2033 0
-1676 2852 0
1614 -729 0
-1640 526 0
408 -255 0
-157 -1507 0
1296 2437 0
1084 -2924 0
-701 -2065 0
-2468 369 0
-2201 -325 0
172 511 0
-2894 286 0
-2740 -415 0
-411 -1704 0
-68 1403 0
745 2436 0
912 -1388 0
-946 -1418 0
-2841 2303 0
2601 -471 0
-2924 -1692 0
1020 -2975 0
187 106 0
-1765 2561 0
-78 1347 0
2290 -1161 0
1519 -2352 0
2755 2501 0
1726 230 0
841 1080 0
-2275 727 0
-299 -173 0
1179 -1738 0
1709 2811 0
2270 -593 0
2559 1302 0
-2726 1722 0
989 -361 0
789 -1448 0
-2447 -39 0
-15 -2921 0
1640 1739 0
1897 2427 0
-1668 -2664 0
2034 1236 0
983 1639 0
1308 897 0
728 -1260 0
-1787 965 0
-2201 -186 0
-2561 555 0
-404 894 0
2626 2944 0
838 -2993 0
-57 -2362 0
408 285 0
-2323 -1986 0
-1686 1628 0
2533 -1941 0
-734 -352 0
1146 -1508 0
1383 -1824 0
-2033 -251 0
2811 525 0
1800 -1869 0
-1937 1143 0
-2099 -1238 0
-1385 2409 0
733 1553 0
36 1705 0
2572 965 0
2728 1235 0
-276 575 0
-977 -2383 0
101 -2722 0
-302 -2796 0
-2489 2645 0
-2796 2029 0
-1007 639 0
-1002 -224 0
-2852 2800 0
-2752 -1564 0
-1977 -2949 0
1250 -2249 0
-777 -2557 0
-2006 258 0
520 2444 0
773 -2491 0
860 2094 0
176 -1176 0
1905 -1405 0
-1000 454 0
-488 -2664 0
85 493 0
-2351 -1823 0
867 -1755 0
1870 -1976 0
-756 2217 0
-1283 -1108 0
2933 640 0
-669 -756 0
489 -2092 0
-1817 1448 0
978 1884 0
2810 -626 0
-1582 49 0
2068 1957 0
-1166 -1245 0
-1210 2358 0
1649 -2749 0
1491 -2674 0
109 -1216 0
-265 -2372 0
421 2704 0
941 -1689 0
1317 -480 0
-1773 -61 0
-1966 -1117 0
611 171 0
485 2259 0
335 1574 0
1278 956 0
849 1125 0
-1006 -62 0
-1083 1708 0
-1365 2449 0
2392 801 0
-943 -316 0
-1564 2827 0
2901 562 0
2027 -947 0
2837 708 0
1831 736 0
2425 2208 0
-1391 -936 0
-2116 -2945 0
26 -1440 0
2039 -413 0
1048 -456 0
2006 1275 0
-2803 320 0
2686 1090 0
1639 221 0
1231 1257 0
906 -143 0
-2883 1261 0
-1961 1125 0
-186 1255 0
2562 2928 0
-1035 -533 0
1100 2241 0
-2385 1792 0
955 -2146 0
-1501 -1381 0
-2468 2818 0
1568 810 0
-665 2719 0
-2062 1167 0
1476 -2081 0
-2790 1162 0
1892 -260 0
-1037 87 0
-2622 -2502 0
-2204 -2838 0
2590 1467 0
-418 1071 0
899 -747 0
-741 2697 0
1212 -1667 0
-476 2112 0
2079 2606 0
2360 470 0
-2732 94 0
2449 543 0
-250 -1910 0
-1753 414 0
-1698 1285 0
1509 32 0
-1829 878 0
-2320 254 0
2618 2295 0
758 2070 0
-1071 871 0
-207 -2157 0
2582 2790 0
1105 1456 0
83 534 0
744 -2143 0
1659 1240 0
-291 -1664 0
-644 1604 0
2496 1678 0
-2484 2454 0
-1937 2762 0
-2526 -83 0
-1829 -1422 0
-1327 2472 0
-580 -1815 0
-829 -2503 0
-1540 1776 0
2182 1963 0
-208 1231 0
1818 1774 0
-2426 -8 0
-2683 -1558 0
1561 1967 0
1163 370 0
-1686 -2624 0
1747 2571 0
-2971 1858 0
2253 -2120 0
2441 2242 0
1689 631 0
764 1623 0
2426 2710 0
1793 -1703 0
2704 531 0
-569 -1862 0
-1312 1012 0
2545 1583 0
-2539 911 0
1581 -2579 0
-321 -2162 0
-625 454 0
729 -1972 0
-2147 1521 0
-2580 -1896 0
1134 -1961 0
2194 1235 0
-1089 -2052 0
-968 -2288 0
2150 1618 0
-964 1371 0
1995 -773 0
-507 -1738 0
-2918 2714 0
-1151 -2357 0
790 367 0
-1286 689 0
1390 -2781 0
-2468 -84 0
2906 -1446 0
-999 2562 0
-2580 -2450 0
-1031 -103 0
-2069 -1832 0
1763 -223 0
502 -2181 0
-196 2393 0
1567 1370 0
-2275 2674 0
2832 -1355 0
-1296 2229 0
-1301 2289 0
1301 273 0
-28 -1139 0
-2335 809 0
1070 -1222 0
2537 1752 0
-1171 518 0
2953 -2087 0
1152 1884 0
1701 -1370 0
71 2426 0
-270 1356 0
2492 169 0
-1601 1160 0
-674 2244 0
-2280 99 0
-2620 1545 0
-707 -1678 0
1432 -2969 0
-1170 -734 0
2313 -1515 0
-788 2292 0
-710 2647 0
86 -2404 0
-1130 -1588 0
-1682 1539 0
577 -1250 0
-1643 526 0
2574 1724 0
1979 1433 0
1800 -1726 0
2232 2708 0
-2617 -2738 0
2204 841 0
2279 2751 0
-355 146 0
-2209 2965 0
1812 -515 0
-2930 -1658 0
-2645 2070 0
2374 -913 0
2553 -1134 0
-2770 1741 0
-981 -1661 0
2851 -2824 0
1773 -1357 0
-1404 390 0
2541 2972 0
-38 -2796 0
1135 613 0
843 -1107 0
1473 -37 0
-617 -2350 0
-1669 -1928 0
-2877 2875 0
2400 -1275 0
-1294 1178 0
2940 2789 0
-2453 -2764 0
1500 -2148 0
-1176 -2011 0
910 -523 0
2300 687 0
-661 53 0
264 -1394 0
2528 1132 0
1132 1441 0
-1783 -2145 0
-2082 1918 0
1001 1021 0
-2230 -1069 0
-2414 -928 0
-2127 -1874 0
-617 -669 0
670 2561 0
-2987 2961 0
767 -371 0
-2750 -2525 0
1558 -1029 0
-1809 -2460 0
1093 161 0
2886 1465 0
-1578 1185 0
274 -2751 0
-255 2522 0
-255 611 0
-139 662 0
-2278 -1966 0
826 1534 0
2489 -267 0
1505 -2578 0
2571 -593 0
-2625 1417 0
1465 2967 0
-2013 2701 0
2241 -2176 0
69 -672 0
2369 -1344 0
-1889 2369 0
1443 -1907 0
1651 -706 0
2001 -2794 0
-679 607 0
-1711 -2385 0
2128 2584 0
-2427 -1683 0
2199 -237 0
996 1824 0
1987 -884 0
2123 -2653 0
-1860 -1734 0
-298 2888 0
2558 -2790 0
-268 22 0
-939 -498 0
-1309 1798 0
381 723 0
1486 2889 0
1636 -1008 0
-2751 706 0
2103 1309 0
1601 1942 0
2380 -1075 0
903 -428 0
1880 370 0
-2753 -396 0
-2043 -815 0
-1672 -1450 0
-2701 728 0
3000 864 0
-2601 -2502 0
1081 -1431 0
1415 -1450 0
-90 1919 0
-120 -2465 0
1945 425 0
367 -217 0
-2765 586 0
63 -250 0
2694 2837 0
-968 -1074 0
-234 1398 0
-1394 214 0
2646 -549 0
2500 438 0
2960 826 0
1985 -1023 0
2000 -2749 0
621 283 0
-575 1487 0
-1870 -1085 0
-1871 -1394 0
-178 864 0
776 217 0
2619 1443 0
-165 1539 0
-2610 1733 0
2033 -2949 0
2469 -2239 0
-1264 -2709 0
891 1749 0
-2924 -2210 0
-1768 -1966 0
-1936 -1096 0
-2187 -2068 0
1540 2342 0
712 2825 0
490 -1466 0
-1927 2119 0
-2959 -2143 0
1700 -2398 0
-508 -2759 0
1745 -2324 0
1445 2593 0
-800 -696 0
-2193 1370 0
2485 2340 0
-2477 -1694 0
260 753 0
-2841 2540 0
231 -2298 0
367 2618 0
2180 2647 0
677 -413 0
-1919 -2237 0
-2929 -767 0
1030 -2595 0
-1166 2641 0
-528 -1790 0
-901 2167 0
1410 -2268 0
864 -2979 0
418 -2075 0
-1483 2197 0
-1397 388 0
-985 2050 0
-641 -1135 0
1352 2000 0
1072 -1422 0
2975 -88 0
-2954 2703 0
2179 2012 0
2648 1554 0
-430 1863 0
1038 -1469 0
-259 546 0
2365 2409 0
1072 2286 0
-2468 1505 0
-2991 1328 0
1613 2956 0
308 1753 0
-2872 -298 0
1800 904 0
159 -574 0
2928 2455 0
204 1716 0
2090 -2754 0
-532 2974 0
-2011 -196 0
389 861 0
1488 -365 0
-9 -2001 0
2703 2415 0
2564 2353 0
-875 -265 0
-1130 1670 0
-124 -922 0
942 1441 0
2714 990 0
945 -2398 0
32 -2794 0
1886 2960 0
2713 -2805 0
1403 -1787 0
865 2837 0
-288 992 0
-284 -1029 0
-1907 -2716 0
1232 -162 0
-1554 -2855 0
2020 555 0
-1706 -1923 0
14 -677 0
-265 2731 0
-1279 2723 0
-769 -677 0
-2804 -1704 0
1266 592 0
-295 2892 0
-1829 -2884 0
1645 688 0
1908 1988 0
956 2411 0
1657 711 0
-647 2071 0
-811 2558 0
305 103 0
1776 1486 0
-552 -2471 0
1084 -595 0
2241 705 0
-812 -1625 0
-2465 -91 0
-812 -582 0
-2376 2096 0
-903 -1961 0
-855 -2844 0
754 -2666 0
85 -1455 0
2522 -604 0
880 998 0
446 -340 0
-707 1648 0
-803 -2284 0
87 -1681 0
-1272 961 0
-2141 -1033 0
1544 -2567 0
-1764 -255 0
-2473 -1933 0
-1532 -2084 0
-1488 1363 0
-928 1396 0
-1956 2890 0
809 1285 0
-607 1967 0
2600 -1069 0
427 2843 0
-2430 -1019 0
-113 -2676 0
1749 987 0
-483 2054 0
1932 463 0
1178 2791 0
-2524 -437 0
2815 -2880 0
-2480 568 0
829 -2991 0
2304 1180 0
-1195 2035 0
356 2161 0
-2408 -1385 0
2072 -650 0
1374 -2299 0
1699 -631 0
1211 -1113 0
-1628 2951 0
1435 303 0
40 -1243 0
-1942 -2508 0
-167 698 0
177 -1830 0
-733 -2025 0
-84 178 0
2728 -1819 0
-1180 -2675 0
2815 2037 0
-2722 -775 0
668 -1955 0
-1997 2706 0
1361 1949 0
2933 2734 0
-451 1214 0
-1187 -2084 0
2203 1282 0
-1868 324 0
2466 1730 0
178 -805 0
-2235 -2823 0
-1245 2323 0
837 -1165 0
-24 2222 0
-1643 -1436 0
-841 1083 0
1946 2651 0
-467 2927 0
-138 1351 0
-820 -2028 0
2955 433 0
193 961 0
-1267 2989 0
275 431 0
-2636 -983 0
-2395 -2399 0
2226 -88 0
-74 2988 0
1136 -1407 0
-1475 -1195 0
-710 2221 0
-1959 864 0
2212 -1605 0
-463 -2830 0
8 -1102 0
2479 460 0
1771 -2325 0
-1696 705 0
-1927 1167 0
-2367 -754 0
1974 -1166 0
807 -462 0
1017 -2264 0
-2766 -904 0
-2053 2051 0
1355 -2274 0
277 -2983 0
-1950 474 0
902 611 0
-139 -384 0
-1919 -2843 0
941 -2118 0
-2385 2576 0
-2920 -484 0
1123 246 0
718 388 0
1521 -194 0
-2490 766 0
-1262 2087 0
106 -590 0
-2555 -2084 0
-2955 -2670 0
-1062 1024 0
997 -1699 0
2408 -2858 0
-2836 -2701 0
1964 2946 0
-1243 -420 0
660 2059 0
-1304 1026 0
-66 202 0
667 611 0
1584 2570 0
-2325 1968 0
-921 -4 0
-2357 1862 0
-493 197 0
-2695 -2595 0
-43 -1161 0
330 -523 0
-1516 224 0
-2423 -1851 0
-2119 -368 0
-2101 -2854 0
1968 2167 0
-2366 1183 0
-2787 -1036 0
-1641 -1233 0
-19 -1783 0
-2215 621 0
-1388 -1940 0
951 -2015 0
2870 -2520 0
-2271 -2457 0
-368 -115 0
2145 -1829 0
-530 -1411 0
-109 667 0
1478 1852 0
2189 -2219 0
2665 215 0
1136 1068 0
327 926 0
-670 -2642 0
-2998 760 0
1268 2042 0
1507 2172 0
-1281 888 0
2800 -1737 0
-2317 -2564 0
288 -1597 0
-97 1083 0
-2230 -2636 0
1465 -2625 0
-678 -842 0
159 747 0
1216 326 0
-2033 1976 0
453 1861 0
-1787 -1703 0
386 -1458 0
1033 1935 0
-2691 -247 0
1624 -1903 0
