c NF
p cnf 9000 18000
-4035 -8706 0
-2325 477 0
6577 -3761 0
-7583 8344 0
8407 36 0
-7279 -1301 0
-1613 -4749 0
1255 -4984 0
8669 -151 0
685 75 0
4881 4069 0
-3928 565 0
-1748 6316 0
8601 7153 0
-7162 5456 0
8377 -3373 0
-5423 -5792 0
5872 1733 0
-5102 -5605 0
1526 6655 0
-7823 4557 0
-6721 -1420 0
6112 -6807 0
-7769 4325 0
-2786 -3292 0
-3781 -1102 0
4402 -529 0
7817 7517 0
6746 -6990 0
-8504 7108 0
-6752 -1400 0
2236 4119 0
-1351 5032 0
5388 -1833 0
434 -4767 0
-931 7383 0
-5867 6796 0
-6643 3136 0
978 -8639 0
4548 6467 0
3248 7927 0
-310 -7382 0
391 -3953 0
-497 -2323 0
174 -918 0
-7318 1851 0
6377 -598 0
5125 3798 0
8072 1929 0
-5606 2048 0
6151 -4813 0
3181 -5973 0
-4923 -2056 0
-1791 6721 0
-8206 -7189 0
2782 -426 0
5258 3072 0
5739 2949 0
-3483 -7816 0
-3274 5173 0
-3225 7911 0
1129 -6644 0
1732 6991 0
2974 -7204 0
-1669 6974 0
-166 -1721 0
7253 -405 0
151 8208 0
-8953 1600 0
1154 -1142 0
1383 256 0
-5774 2903 0
-4098 -264 0
5801 182 0
-5020 2793 0
-3324 4377 0
8257 732 0
-5855 -1973 0
-5774 -2670 0
6981 4870 0
-987 -17 0
2390 -8261 0
-8747 6888 0
1357 -3063 0
7426 1004 0
5511 2303 0
-3302 6508 0
3865 -3049 0
-6710 6549 0
4584 5405 0
-1510 1449 0
2921 -905 0
-486 1899 0
-6959 3621 0
-2383 1686 0
-3036 -5518 0
4296 -8783 0
4591 -3312 0
-1539 -6218 0
6281 2104 0
8348 6723 0
-8269 -8411 0
6403 -1819 0
-1321 498 0
-4068 -174 0
8300 -3937 0
555 6486 0
5069 -1566 0
3244 -7208 0
-2491 2521 0
-4511 -7246 0
2074 -7223 0
-7523 6954 0
-3538 -2611 0
-558 1861 0
-1089 -502 0
7155 -6767 0
-4450 7535 0
-2741 5320 0
-8995 5101 0
-907 3226 0
3025 -7316 0
4874 3739 0
2333 -8911 0
-4777 3619 0
7660 3267 0
-2322 -1394 0
6526 8666 0
3113 222 0
1705 -5358 0
-5201 4616 0
-8519 -4948 0
508 -8137 0
8005 -751 0
7770 8084 0
-2052 -669 0
-8041 6677 0
-8494 1659 0
8043 -2302 0
3722 3829 0
8067 6745 0
-6261 -8306 0
880 -7327 0
7073 -6456 0
3875 -2485 0
4777 -4134 0
3268 1712 0
-4850 -6697 0
4941 -8724 0
8113 -3014 0
-8105 -5517 0
8347 -5577 0
8138 8160 0
-6178 -7105 0
8914 -1684 0
-5306 -7458 0
-1872 -1405 0
-6740 -5839 0
-8125 4279 0
3493 5649 0
5396 -7630 0
6712 6921 0
-7018 -593 0
8202 4848 0
8920 8099 0
3176 8275 0
2376 -537 0
5801 -131 0
-6595 6132 0
5399 7759 0
3188 -4793 0
304 3475 0
-3199 4768 0
-3998 3111 0
4144 -5825 0
-625 4100 0
-8018 543 0
-3091 -7029 0
4763 -5607 0
-855 -4718 0
4569 -1652 0
-3884 3144 0
5984 2440 0
6892 1423 0
5950 2989 0
-490 2415 0
4449 -98 0
-5351 -603 0
-1179 7267 0
-1758 2441 0
8046 -3133 0
-8521 3147 0
3771 8417 0
4702 1414 0
5697 -2048 0
5050 -5708 0
1387 1136 0
-6479 -5269 0
8457 133 0
8568 2148 0
7742 -4348 0
-7915 743 0
-295 5692 0
-8175 2201 0
8718 -7049 0
-7698 -3048 0
-6562 6865 0
-6667 1629 0
4190 -376 0
-3535 -2030 0
8206 -1150 0
7430 5212 0
7070 -3516 0
-6804 -6670 0
-8151 7743 0
-8534 7248 0
2388 -1597 0
-894 4312 0
7117 -2948 0
6272 3095 0
-702 -376 0
2719 2444 0
-5511 -5050 0
-5657 -999 0
-3075 6142 0
7903 673 0
3051 8061 0
-630 4647 0
-33 3119 0
1298 -5694 0
-6263 -817 0
6212 -6046 0
-4914 -7399 0
8864 -4178 0
-7103 -46 0
4813 2425 0
1349 -4349 0
-4985 6547 0
-441 4940 0
1166 -7712 0
-5994 -4478 0
3155 6065 0
1490 6982 0
-7036 3189 0
-2082 7216 0
1514 155 0
1410 -1957 0
-2841 1593 0
3810 -4306 0
3270 -2013 0
-4820 -6094 0
-5616 -7655 0
5562 1160 0
5701 6364 0
4677 463 0
-8612 6366 0
1104 -2048 0
-4187 -1419 0
7151 -8006 0
5578 -4750 0
8882 -7776 0
1030 -2453 0
2467 -47 0
2056 5238 0
6341 -2436 0
8201 -2389 0
-7275 4540 0
-483 8009 0
-1463 -5827 0
-2803 -8189 0
-7244 -5114 0
-7702 599 0
-5525 -1725 0
6013 -7334 0
-8633 -1570 0
8494 -8699 0
3184 -6434 0
-2966 7391 0
-6421 -3394 0
3493 -6402 0
8809 -7548 0
7928 6232 0
-2069 7984 0
5978 -5989 0
6109 -4199 0
1895 8197 0
6645 -1950 0
-5814 -8384 0
-7772 -3771 0
-1929 -8075 0
2109 1203 0
1965 -5213 0
-6783 -2514 0
-481 -7328 0
4949 -6412 0
3578 2671 0
-1102 -5583 0
-3793 -1970 0
-3196 -71 0
-8571 6270 0
2642 3098 0
-1734 -311 0
3463 4451 0
-7359 -5127 0
7452 6290 0
5210 -965 0
-6372 294 0
6156 7154 0
1555 6315 0
-6258 -5092 0
-1604 -4601 0
-8546 -2986 0
-5584 6280 0
-961 4277 0
716 1778 0
-4718 3680 0
111 -6701 0
5136 -3315 0
3590 -5082 0
-112 1369 0
-3995 3014 0
-6218 4937 0
-605 877 0
5443 5843 0
2669 -8372 0
3589 -792 0
1637 8183 0
3409 -6104 0
-2195 -5463 0
4935 94 0
-223 3507 0
-3159 -6442 0
8588 -1391 0
-1334 75 0
2009 -232 0
4038 -2815 0
-1179 679 0
-7503 -1115 0
5345 -3031 0
1437 8732 0
-212 7526 0
6019 -5028 0
5098 380 0
-4293 -7630 0
8959 -897 0
7890 966 0
-4924 -3574 0
3000 8042 0
-887 5270 0
2762 -132 0
-5065 2824 0
-2084 -7419 0
2471 -6852 0
-4660 6824 0
7389 -558 0
-6191 -2270 0
7015 -8603 0
863 -3950 0
-7683 -4345 0
-6359 459 0
1208 8114 0
2113 7078 0
-3467 -6099 0
8252 8300 0
-7958 2922 0
-3357 7659 0
-1257 -4920 0
2250 6495 0
4683 8559 0
5364 -4954 0
-7976 8943 0
-4260 2351 0
532 -6 0
-6095 92 0
-1049 -2630 0
-7132 7100 0
3893 -147 0
-4429 2753 0
-5823 -3687 0
6764 6109 0
5265 -2641 0
8778 8225 0
-4558 557 0
-4866 3007 0
-7868 -7804 0
1870 3855 0
-4669 3920 0
-3558 7396 0
-7899 3100 0
-1482 2159 0
7440 -8731 0
4537 -7252 0
5950 -1006 0
2459 -5264 0
-3920 -2829 0
5365 5259 0
-526 88 0
-2950 654 0
2283 -1752 0
-7280 4457 0
2466 4589 0
2687 -6428 0
406 831 0
6709 3167 0
377 7266 0
-953 1850 0
-3555 7853 0
-7641 2 0
-5216 -7803 0
6901 4093 0
-4680 4786 0
4981 -4774 0
-4026 -3394 0
7554 7309 0
3442 -141 0
-6923 -1298 0
-2069 5318 0
-3739 -8756 0
2467 4634 0
4632 -5270 0
-2318 -3585 0
-7762 -5236 0
-1823 -3381 0
-2607 -8207 0
-8220 -8115 0
-723 8030 0
-3029 -3680 0
-6252 -5517 0
-4894 -378 0
-1691 -8891 0
6567 1072 0
2242 4793 0
-2805 4745 0
-6947 3729 0
5379 -5919 0
-6692 -2587 0
-4104 1468 0
2398 -4562 0
3952 -7260 0
8402 -1492 0
-609 8046 0
2978 -7579 0
3725 -2192 0
-8959 -763 0
8360 -3326 0
1301 5120 0
25 8502 0
-4189 -523 0
-2938 1900 0
374 -3553 0
1066 7939 0
-1860 4611 0
8280 1066 0
4849 487 0
-2661 7455 0
-5798 -5626 0
7293 7277 0
-852 -5271 0
4511 -7751 0
2533 2890 0
5548 6988 0
-6861 558 0
7527 2350 0
720 2300 0
-259 6118 0
590 140 0
6464 -6842 0
-578 2509 0
264 1321 0
5818 -3882 0
-7408 4919 0
7022 517 0
2443 -8042 0
-3110 -4845 0
3523 -405 0
670 -6430 0
7101 -7550 0
-3533 2749 0
2780 -7259 0
-3844 -7255 0
-2052 3995 0
-2954 -6033 0
5840 -5877 0
5622 -6625 0
-5558 6358 0
6389 6863 0
2520 7427 0
2606 4170 0
341 4611 0
3728 7678 0
-6995 7372 0
7146 6038 0
-2352 4586 0
-1303 -3707 0
7609 -7538 0
622 1841 0
4584 2913 0
7154 8385 0
4419 -2718 0
5948 5270 0
-918 -573 0
-4296 -4205 0
1209 3355 0
4814 8759 0
-5965 -3904 0
-2336 -1000 0
-8254 -3580 0
8447 -6478 0
5641 -8105 0
2837 5253 0
-185 6118 0
-2073 4116 0
49 -6823 0
2828 -6644 0
-7969 -4535 0
-5855 4955 0
5732 3807 0
2267 -3475 0
-8223 174 0
7373 -1517 0
-532 5188 0
-6861 8056 0
-898 -208 0
1026 3804 0
-5476 -8120 0
-7681 8806 0
72 4613 0
1134 2929 0
-6917 -7581 0
1539 5925 0
-3315 -6766 0
4238 -2086 0
6418 -4468 0
307 6737 0
1051 -6678 0
2597 6382 0
-8246 -8834 0
-7371 4568 0
6426 -2222 0
3046 -8884 0
-7214 -3052 0
-581 5487 0
-3212 -1186 0
3804 -5965 0
-190 7973 0
2734 -2456 0
-6545 -2282 0
8008 1041 0
-5073 1927 0
-1621 6900 0
698 3337 0
5868 -1901 0
7562 5320 0
5450 3217 0
3826 5460 0
8532 -919 0
729 5558 0
1512 2299 0
118 1234 0
6225 7504 0
-4984 -1936 0
-6300 6114 0
108 8266 0
-97 -5693 0
-6890 -2659 0
-1693 2597 0
-2237 -1304 0
-2406 3620 0
78 8655 0
-7521 2570 0
2485 6253 0
7465 -2040 0
2027 8407 0
-2654 -3607 0
4479 3280 0
8943 -3376 0
2802 -901 0
868 -6064 0
-1736 1619 0
7070 4841 0
1970 7944 0
4690 -5628 0
447 406 0
-2068 4881 0
-1888 8223 0
3699 4772 0
6997 3325 0
-3885 -7200 0
-5169 -1740 0
-2294 1694 0
6477 6807 0
-2047 -2665 0
-5915 1120 0
5913 -7067 0
2620 7997 0
-867 1018 0
-4799 -1221 0
-6668 -2864 0
8490 6850 0
-398 -1434 0
-8563 -5435 0
-3048 8914 0
1302 -6148 0
1972 6392 0
4039 -5133 0
-3202 -212 0
-4351 -2100 0
-2584 681 0
-3540 -7316 0
2575 1329 0
-4886 -8344 0
-6728 6163 0
-5281 2607 0
3254 4054 0
1774 -6382 0
3272 -1532 0
-1701 8031 0
-4832 7837 0
7993 5776 0
2270 -5028 0
-1751 1984 0
2452 2672 0
-8217 -3850 0
1840 1812 0
4973 -7515 0
-995 7 0
340 8863 0
2168 -6036 0
8848 6569 0
-4514 7744 0
-2845 -4877 0
2097 -5289 0
-2237 1220 0
-8002 1757 0
-5713 -3998 0
8045 -7432 0
2319 4424 0
-2482 3147 0
-2093 -1899 0
-2915 8575 0
6538 -1309 0
-2138 -1696 0
5549 -6833 0
8415 -7754 0
-5487 -1569 0
4658 -4610 0
-7827 -4529 0
-8357 -2534 0
72 -5984 0
2730 7932 0
-2731 -1008 0
3417 1647 0
5819 -4322 0
-6589 -4712 0
-8358 3879 0
3831 7451 0
-5313 8848 0
-3468 5103 0
6325 -2990 0
7155 4684 0
-7041 100 0
-5448 111 0
3765 4431 0
994 8811 0
-6094 -4169 0
-3134 419 0
893 6108 0
4233 -4517 0
4169 -314 0
4163 -7654 0
-6100 -1950 0
5142 4114 0
-4157 5848 0
-1758 -6390 0
7131 -455 0
6546 7798 0
-927 5746 0
7364 -6011 0
-5969 2658 0
-8517 5833 0
-744 -5359 0
7424 2391 0
-7962 2742 0
-8078 -3939 0
-2818 8918 0
-4504 8117 0
-362 -3031 0
-5311 -6792 0
-5963 146 0
952 6666 0
137 7022 0
7931 4037 0
6814 7126 0
-2082 387 0
-4550 -5426 0
-6412 -6092 0
3308 -554 0
-2103 4057 0
-854 2747 0
-7402 -8999 0
-4947 -5254 0
2695 -479 0
-8994 6304 0
-6168 -1906 0
-3392 8863 0
-6552 -4378 0
7961 -728 0
7639 -8756 0
-7833 3205 0
5052 -7151 0
3067 6870 0
4666 -3706 0
7238 3640 0
-3995 -67 0
5183 7796 0
-1555 2024 0
7829 3318 0
-4019 -8933 0
-664 931 0
8683 259 0
539 8862 0
-8196 -8577 0
-6894 5952 0
-7134 8052 0
-5546 1041 0
3922 288 0
7271 -3072 0
1219 -6521 0
-1634 6791 0
-5808 -8438 0
-1272 -1909 0
-3320 -4183 0
-8255 3579 0
6077 3443 0
618 1039 0
-2701 -370 0
-7022 1593 0
-2303 -8262 0
4747 7721 0
7042 -8521 0
-8213 -6784 0
5218 5016 0
3025 -5785 0
1773 8575 0
-1285 5692 0
-1139 -623 0
8686 2013 0
-3673 7376 0
21 7659 0
-3782 776 0
104 3290 0
4334 -7917 0
-6300 -7572 0
1709 7527 0
-5105 -1051 0
-420 6388 0
281 8659 0
5159 2919 0
-2690 8345 0
1021 6759 0
7428 3681 0
-8903 3024 0
-754 7974 0
-5668 6893 0
4223 2136 0
-5247 -7888 0
5998 -5694 0
3801 7279 0
-216 6013 0
-1016 143 0
5781 -3655 0
-5109 -8154 0
4579 -2370 0
-8133 -6436 0
8202 -1640 0
6508 5174 0
-544 -2562 0
2554 -2569 0
-7744 2051 0
8687 -6305 0
1885 -2015 0
-3868 7020 0
-8525 -8051 0
8778 8152 0
-7254 828 0
-6129 4502 0
5440 -7754 0
5747 -967 0
1608 1219 0
2009 6445 0
-3299 7993 0
-2617 -5098 0
-7958 -1334 0
-4040 6121 0
-1892 -3951 0
635 -6160 0
-1046 1870 0
-70 5929 0
-7862 969 0
-92 1853 0
7922 7309 0
-2311 8778 0
-8560 1487 0
1343 -6862 0
3936 3064 0
6103 -3885 0
-3219 -3161 0
-8597 6611 0
347 7273 0
-5605 2224 0
8550 -4561 0
-4234 -1872 0
-7221 -2119 0
216 -8510 0
-5635 -5169 0
3429 1124 0
3844 2711 0
-6470 -450 0
-6421 8016 0
8644 -207 0
1775 6375 0
3462 3348 0
6788 -6781 0
-1269 -5119 0
2934 435 0
-215 6596 0
-4715 -2919 0
830 2072 0
-6368 1344 0
3623 7651 0
-4231 -8745 0
-6241 -1016 0
-5334 1528 0
6299 -4090 0
5159 8643 0
-8812 -1351 0
3566 6734 0
5116 4801 0
-5304 1674 0
-726 958 0
7396 -4756 0
6207 4472 0
8979 8986 0
5499 -762 0
-657 2380 0
-1640 -6563 0
-4552 2981 0
-6761 -2199 0
1690 -7076 0
-6364 -8981 0
4160 -6487 0
6634 3426 0
2609 4589 0
-2235 198 0
2777 -1239 0
6609 8068 0
-2140 -5358 0
7623 -6452 0
-6044 6287 0
1545 4904 0
-8319 15 0
-6021 7747 0
2632 -3141 0
-6018 6693 0
-2281 2206 0
-1309 -1442 0
-5968 -761 0
-3431 -711 0
5289 3738 0
6739 1215 0
-654 -8364 0
8144 -4443 0
7571 -7794 0
-4488 -1048 0
-1603 5138 0
5629 -606 0
-3747 -4072 0
5623 6073 0
4003 1378 0
-7275 212 0
-3789 -4426 0
3579 2659 0
-1312 5442 0
-149 7597 0
-6237 -527 0
-111 1213 0
-3646 5957 0
3200 -1066 0
-8468 -5813 0
8675 -6040 0
-3531 -3434 0
1697 -8939 0
7443 5796 0
-3440 8108 0
-3423 -8202 0
7084 -7379 0
-8409 -3015 0
-3092 -3776 0
-3321 6922 0
-422 -5649 0
5048 3276 0
5077 -5761 0
5535 -5160 0
3691 -3752 0
-4087 -1484 0
6243 4257 0
-6885 -7215 0
8912 -4066 0
-3179 -2395 0
545 -224 0
5655 -1018 0
5609 8600 0
413 -5200 0
-539 -788 0
-1624 -3021 0
7301 310 0
5925 -574 0
1556 1911 0
2131 830 0
-5311 -5675 0
-8813 -4599 0
-4771 -6107 0
3591 -3521 0
6697 -467 0
-5617 -3286 0
1373 -3546 0
-1128 505 0
6648 644 0
-6712 2552 0
-3389 4419 0
-2563 -3449 0
-5671 6674 0
-3778 -4203 0
2297 -6934 0
-4966 6814 0
7352 1611 0
1214 -5699 0
-5798 6563 0
2634 -7486 0
4874 -4380 0
-8631 8193 0
-714 -8635 0
-576 5284 0
-1258 506 0
3272 6961 0
-3584 3567 0
-4079 -4529 0
1677 -3926 0
-4229 -476 0
-8589 4768 0
-6444 8276 0
5582 -6340 0
-564 8802 0
474 3340 0
8830 -2663 0
5284 8261 0
2311 -2850 0
2513 -5371 0
3402 1789 0
7939 -2244 0
-7093 2742 0
5319 776 0
-3406 3902 0
2056 -2783 0
-1442 -1730 0
6043 1074 0
6368 5251 0
-1924 -2451 0
-2639 -888 0
8980 7219 0
7317 -8268 0
-7897 2110 0
2687 3637 0
8926 -4936 0
-93 4992 0
1043 3248 0
-2977 -2268 0
3569 3937 0
6204 -7707 0
4575 4185 0
-600 7410 0
8970 -7912 0
3982 -238 0
-6011 -2835 0
5962 5282 0
6916 -3828 0
7020 6199 0
2712 7093 0
2295 -793 0
-84 8892 0
1445 3693 0
-2093 5446 0
-169 -1574 0
7535 8664 0
-2305 -6282 0
8300 2127 0
7971 -6340 0
-2595 -239 0
-5263 7116 0
2171 -2555 0
-6087 -7326 0
5901 -6592 0
2192 -1758 0
1437 6462 0
7448 -839 0
3327 5328 0
7507 -4194 0
-2342 2128 0
6094 -4903 0
7260 8862 0
-1245 -8859 0
-3503 6830 0
2216 -396 0
-7482 4732 0
3784 -7215 0
855 -2393 0
302 6157 0
8315 4693 0
-1496 -5787 0
8532 7362 0
-5302 -6213 0
856 -413 0
-4532 2499 0
1069 -5165 0
6733 5953 0
-288 -247 0
-959 66 0
1954 -8554 0
-4750 -6223 0
4681 8562 0
5207 2736 0
6977 -6719 0
-6464 -8488 0
4301 1913 0
3352 1660 0
-3496 -8723 0
-7110 1774 0
3363 -1700 0
-5140 2770 0
670 3719 0
4773 -4686 0
437 7130 0
-5428 -1701 0
-1422 3510 0
2550 180 0
8673 8169 0
6683 -4972 0
-8699 4283 0
5389 -131 0
-7940 6328 0
142 5330 0
-4284 761 0
406 -731 0
-7869 8780 0
-8938 -177 0
-2705 -7210 0
-3788 6813 0
4910 1162 0
7368 -1831 0
3899 -4501 0
-8051 870 0
2359 222 0
2697 -8907 0
2017 4609 0
2765 -1459 0
-6147 -894 0
-7285 316 0
-1327 8178 0
-2525 -1888 0
-7232 -5551 0
-2339 -7572 0
-5402 -2771 0
5873 -2650 0
7061 7859 0
-5280 2519 0
7592 -4249 0
704 -3982 0
7425 -8250 0
1958 6359 0
4242 8304 0
226 -5379 0
386 -7862 0
759 1330 0
5991 6938 0
3816 -5329 0
-5980 2177 0
-7214 -6144 0
8052 4888 0
-8601 7548 0
822 6323 0
4714 4018 0
-6510 -6705 0
-4354 -7112 0
7166 -6664 0
1955 -3839 0
3269 698 0
-8958 6631 0
-1169 1002 0
-6904 3765 0
-5013 -3748 0
-3493 -4596 0
2926 2863 0
6889 5492 0
-867 -4810 0
-7877 -7382 0
-1077 1381 0
2840 5841 0
8661 1 0
-8651 -7037 0
4469 8952 0
2439 2492 0
-1748 -3353 0
-5016 -4606 0
-8810 -7123 0
673 403 0
-4025 2471 0
3153 -1852 0
-941 -2833 0
325 -7762 0
1986 -2639 0
4735 6699 0
2848 -3772 0
3037 -1424 0
4288 4377 0
7739 -6483 0
45 1462 0
-5025 3868 0
1491 -422 0
338 6004 0
-8950 -7713 0
3480 -8290 0
8161 -3486 0
-4114 -2408 0
8285 2691 0
-7437 -5264 0
-5690 5334 0
8232 -1484 0
3770 4752 0
150 1998 0
-4593 2747 0
5184 -228 0
-1031 -8899 0
7835 2380 0
-3616 5275 0
-6930 8773 0
-182 3103 0
-3817 7306 0
-5029 2800 0
1168 -1324 0
1522 166 0
6497 967 0
7698 8228 0
1137 -678 0
-3673 -3230 0
2744 7009 0
-3315 4547 0
-882 -8978 0
-7223 -8743 0
5719 8235 0
-6779 7437 0
-4887 6331 0
2935 -2663 0
-7531 -3455 0
6964 -7750 0
4696 6264 0
-2586 -2672 0
3076 7535 0
2812 78 0
5751 4983 0
4210 4451 0
-4739 -3382 0
-5865 1449 0
-8686 2967 0
-7203 1495 0
3281 -404 0
7060 3699 0
-5801 2262 0
-1783 -945 0
-822 -8965 0
-3027 -3023 0
-2367 -3361 0
3414 4816 0
7216 7553 0
3341 -1866 0
4721 -1853 0
4610 3092 0
7883 -3581 0
7845 5589 0
6596 8236 0
-2895 5487 0
-8528 3259 0
4571 -5047 0
4532 4196 0
1490 -7364 0
-4893 4950 0
1599 882 0
-4985 -7741 0
-1382 -6876 0
-4213 -7633 0
6294 -6131 0
3122 704 0
-7349 -8624 0
-1929 -7856 0
-6876 2988 0
1679 1525 0
-5041 7243 0
599 -459 0
3488 -2857 0
7481 4212 0
6319 -4507 0
3128 -7814 0
7331 -8212 0
5850 7754 0
2858 -5160 0
-5986 1464 0
4782 -5228 0
-4389 3726 0
8540 7420 0
2295 -3890 0
3709 1991 0
-1429 -2434 0
68 5740 0
7351 -2367 0
2215 5292 0
-8463 -6564 0
2307 -497 0
-8570 -4430 0
225 -1648 0
3374 -6847 0
8993 8421 0
5372 -8147 0
8224 4491 0
6892 5086 0
8121 1842 0
-8525 -5370 0
7676 2418 0
7387 2636 0
-8355 -8021 0
2901 7749 0
3525 -5857 0
7959 5316 0
-6432 2473 0
-770 4521 0
-5664 4363 0
-8029 5623 0
-2153 -1316 0
-2317 -6971 0
-683 7342 0
7972 -8380 0
-8106 7030 0
4440 3918 0
3227 -6260 0
-2958 3593 0
4259 -486 0
2354 -4317 0
-1274 -2948 0
-5245 -2344 0
-4309 1209 0
-5250 -4969 0
-2893 6759 0
-6430 -1673 0
1818 2270 0
-1744 -1693 0
8191 -2687 0
2036 -953 0
-6237 6832 0
-4229 7277 0
-4497 6831 0
-2696 6831 0
-4427 1321 0
-190 3903 0
5807 8052 0
6726 5998 0
6989 -6437 0
4890 6835 0
1635 7589 0
1887 7862 0
-8128 695 0
-8320 -3346 0
-6460 390 0
-3287 -4231 0
152 -7384 0
8495 2111 0
3765 266 0
-3455 4768 0
8660 7369 0
7297 7551 0
-730 -4737 0
-2741 -5904 0
8965 3645 0
688 -1989 0
6789 2967 0
-2185 -828 0
-1911 3940 0
4584 2583 0
-4024 2763 0
6525 -1915 0
-2722 5580 0
8133 2943 0
-4226 4244 0
-6555 5696 0
-4073 7483 0
-7243 7060 0
6961 7378 0
3504 3685 0
-8988 8766 0
3028 8084 0
-3883 7637 0
-8903 4108 0
-6908 -2724 0
-7521 -935 0
-3188 8649 0
1115 7244 0
4570 -5138 0
-2842 -7861 0
-951 -3403 0
7516 7711 0
2675 2729 0
-4242 -1426 0
1003 -6965 0
1398 4463 0
7712 6799 0
-6088 7040 0
-1088 -4551 0
3879 -7892 0
3036 672 0
4123 -1960 0
1734 -4490 0
-3093 5470 0
1856 -255 0
7324 -2190 0
225 -4434 0
-6980 -6491 0
-1557 -189 0
7079 -7527 0
-6547 -687 0
8228 1256 0
-4020 -578 0
-4683 5947 0
-3875 8854 0
-5831 902 0
-1841 5103 0
8341 -2277 0
-1456 2045 0
8690 2683 0
7377 3630 0
7092 7865 0
-474 -4279 0
6914 -8708 0
-1006 550 0
-5581 1404 0
-473 -179 0
-8437 -1116 0
-1553 2183 0
3469 259 0
3261 -2648 0
6921 6781 0
-265 5653 0
-3324 8989 0
-3445 -5429 0
-8620 5599 0
3363 1469 0
8654 -2197 0
467 8242 0
-2098 -1984 0
772 -3216 0
-7450 -4224 0
8953 4233 0
6020 6628 0
-7308 3680 0
-7131 1564 0
2641 -868 0
3877 6897 0
316 8186 0
4163 -6826 0
-1968 4234 0
391 77 0
2582 -2748 0
-8960 -8675 0
7905 2198 0
3495 3415 0
913 7438 0
-940 -7216 0
-5093 7042 0
5116 3107 0
-2360 3410 0
-5865 3831 0
752 -2329 0
-1590 -5370 0
6296 -498 0
-5002 2244 0
-835 -1612 0
5527 -2831 0
-582 -2674 0
-3403 -744 0
6362 -4284 0
-1903 7299 0
3256 -238 0
-8441 -4301 0
-1305 2155 0
7842 6236 0
-4016 -95 0
-8829 4937 0
352 1889 0
-6166 1912 0
-6551 7285 0
-3837 -8922 0
-6070 -6800 0
6290 6916 0
-241 -6866 0
6399 4019 0
7608 7199 0
-6875 2336 0
-7172 -3750 0
936 8863 0
-3157 -6684 0
5158 258 0
2911 -1754 0
-712 2975 0
-815 4275 0
8107 -5706 0
-4320 -2367 0
-4869 6533 0
-7283 -6916 0
-6029 -6043 0
-1458 4264 0
-8588 -6383 0
2560 1762 0
-2100 2202 0
-601 3132 0
-7081 6675 0
-4372 -4644 0
4479 6596 0
-4698 -707 0
1234 369 0
4167 -6814 0
3094 1717 0
8320 -7819 0
1463 -889 0
-3248 -7543 0
664 3617 0
6045 -5209 0
8954 -3588 0
6628 -1344 0
1065 -6212 0
-6435 3056 0
6235 -938 0
1173 -4601 0
-8700 -2499 0
-4123 8303 0
1804 -4153 0
-594 -4867 0
-1969 3926 0
1958 7400 0
8771 -6560 0
-1516 6774 0
-7758 707 0
738 -8688 0
-6615 6650 0
-8362 271 0
2211 8946 0
6659 -3070 0
2303 -1554 0
-6746 3284 0
-8888 1466 0
2937 3506 0
2749 -4057 0
1252 2442 0
-6270 -4559 0
7314 -5043 0
2600 -1151 0
-4774 -289 0
2124 4810 0
-4435 4693 0
-4853 6411 0
-2116 -7467 0
-3747 -3448 0
5725 2015 0
-8173 -6722 0
-1727 3425 0
8994 -1484 0
286 -6060 0
7507 1673 0
-7731 -1109 0
-7100 -2899 0
-5006 4789 0
8856 5071 0
5690 596 0
4492 -7683 0
4151 -8373 0
5146 6480 0
-1461 -2045 0
-6432 -3788 0
4817 6889 0
2374 337 0
-7264 -8846 0
-2674 2951 0
-7012 321 0
-3526 -1806 0
-387 -1918 0
-5654 3783 0
5812 7588 0
-1406 2483 0
-8051 -4742 0
232 -567 0
-5616 -6707 0
8861 -1378 0
-7926 -6055 0
5947 -4769 0
-6965 3989 0
1314 -2933 0
126 1643 0
-8496 8347 0
-2757 -3305 0
5208 -1752 0
5952 -453 0
3440 4815 0
7799 7848 0
-8181 4926 0
330 -6352 0
-4690 -3938 0
-1354 1808 0
-4241 422 0
7280 -7003 0
-778 586 0
85 -2130 0
-5083 3893 0
-8305 2374 0
-4431 8199 0
-7826 5956 0
3718 -4593 0
6791 8075 0
-5005 -4821 0
-8223 6545 0
-7479 4384 0
-5128 -8436 0
-933 3540 0
-8724 6270 0
3002 -572 0
-7809 -8573 0
4836 3314 0
-445 -8753 0
7567 -4001 0
-3227 4585 0
8757 -1255 0
-8286 -2889 0
1169 8191 0
-2086 -3640 0
6948 -6952 0
8882 1735 0
-2004 -6918 0
-1049 -7115 0
-22 7048 0
2489 -8902 0
8543 -4392 0
-4875 -649 0
1637 4470 0
1287 2971 0
-5606 3207 0
4068 -8014 0
-2721 -6176 0
-454 2917 0
1023 2563 0
4306 -7702 0
-2006 988 0
-1834 8640 0
-870 5017 0
1876 713 0
-2095 1537 0
-8847 6337 0
-7351 640 0
-6612 8735 0
-3379 -4818 0
-6104 -4884 0
-8290 -7034 0
4803 59 0
475 -1264 0
8250 8308 0
-4901 7871 0
-637 -5512 0
7718 -1242 0
854 -8874 0
5489 8495 0
2246 4921 0
1235 -4390 0
7382 -3761 0
4105 1674 0
3182 -3299 0
2421 -5310 0
541 -2200 0
-8706 2935 0
6172 -2185 0
3176 5878 0
7396 2140 0
5653 5296 0
5639 4347 0
-8156 7437 0
8502 -945 0
-7523 7587 0
3167 6503 0
-8080 -372 0
35 -8678 0
772 4441 0
3749 -2472 0
1074 460 0
-694 7787 0
-1761 7099 0
4291 294 0
1523 -7464 0
870 -6331 0
6799 8672 0
-4993 8229 0
-7667 3146 0
-8341 5075 0
-7758 7586 0
4056 -1897 0
8524 534 0
2641 4754 0
-3710 4531 0
3423 7793 0
8341 6102 0
911 -6711 0
7124 3258 0
8980 4531 0
-3778 -5030 0
2858 -1077 0
5500 -5288 0
-8927 2516 0
8111 6556 0
7893 -4111 0
5516 -4685 0
-2143 4556 0
4494 4680 0
7338 5789 0
82 -3884 0
-946 -2733 0
4599 -3278 0
-3069 -3573 0
6732 5292 0
3210 327 0
-692 4213 0
-6138 -6517 0
-4585 1443 0
5321 4232 0
-4092 7133 0
-3005 -3160 0
7004 7750 0
-8545 -8551 0
301 4505 0
-2229 -7736 0
7226 -2887 0
-2663 -5771 0
8805 -6582 0
-7313 -8021 0
-5223 4502 0
8038 8588 0
1509 7910 0
5814 5556 0
5529 1166 0
3677 -55 0
-8639 6238 0
-1345 5455 0
-8164 -8080 0
-7375 4525 0
772 4047 0
-622 6879 0
7197 2093 0
-7464 -377 0
-2197 -4944 0
-2792 1956 0
-3023 -1174 0
-5208 -3212 0
4046 -6236 0
5030 7658 0
-1961 -4101 0
8145 112 0
-7488 6660 0
8949 4117 0
5734 189 0
-8727 -3563 0
-8102 -5732 0
846 -4341 0
310 -6683 0
-7332 -8729 0
-6168 -2740 0
7578 -8190 0
-4194 -16 0
-5935 300 0
-7548 906 0
-3245 297 0
8072 -4518 0
6192 -4774 0
1815 -6979 0
1002 -6043 0
-7974 8216 0
-7048 -946 0
2501 -7430 0
-2347 4238 0
6558 -3820 0
-1140 -2926 0
7610 2887 0
-4395 3200 0
-7869 2241 0
3686 -4561 0
-4906 -1648 0
-1269 5365 0
-8539 8108 0
-6120 430 0
7422 -384 0
5457 7107 0
5251 -2372 0
2297 -1796 0
-5470 7748 0
5439 -6145 0
-5601 3660 0
-1997 4836 0
4397 2203 0
1581 1584 0
3137 4538 0
-953 -5086 0
8010 -7579 0
6730 2740 0
2358 -2563 0
3790 2094 0
7767 5891 0
3350 5103 0
7098 4663 0
-8142 7066 0
-69 5462 0
2225 3185 0
-3571 -2205 0
1863 -2098 0
-6461 -1241 0
-1324 7669 0
5305 4825 0
-448 -3428 0
-7659 -7117 0
6898 -6646 0
4085 2470 0
5312 -286 0
-7248 3627 0
-2388 -3077 0
2321 -4419 0
-4276 8733 0
-4456 2873 0
307 -7820 0
-5961 2442 0
-1187 8686 0
-63 4279 0
7595 8875 0
-4841 2271 0
5291 1776 0
5190 1333 0
1137 -6564 0
2234 5218 0
-2493 -1911 0
6106 -2060 0
-8481 -3013 0
1954 6273 0
-1353 2204 0
6662 -3571 0
-5829 -6698 0
-1459 1812 0
-903 -8702 0
4945 -1323 0
4328 -1560 0
8180 -7942 0
8282 6254 0
-4952 -7570 0
-1338 4793 0
7796 -6770 0
2307 -325 0
-1869 242 0
-2722 3381 0
-3515 625 0
370 1211 0
-6266 -625 0
-8794 -937 0
-2278 4230 0
4077 4087 0
2783 -1761 0
7120 6229 0
-6749 -6149 0
7020 8994 0
3563 1141 0
2987 1690 0
3523 6130 0
1095 -4705 0
8417 2644 0
8094 279 0
8415 -4454 0
-3831 3468 0
-8990 1968 0
-5134 -667 0
-3984 -162 0
5994 -498 0
291 4801 0
-5616 -2769 0
1405 -7863 0
3519 8159 0
8434 1760 0
1379 -5044 0
-8576 8151 0
1904 -8972 0
5522 236 0
-7620 2967 0
-571 36 0
5579 77 0
-1957 8705 0
2208 -3621 0
7696 -5082 0
-8869 -4651 0
-5635 8966 0
-3827 6866 0
7617 8866 0
-5770 395 0
-8501 -567 0
438 8640 0
-579 2369 0
6273 -7266 0
2546 8429 0
4510 -5234 0
3798 2220 0
-691 -5899 0
-6888 -201 0
5430 8568 0
3418 8247 0
2603 -1786 0
-3811 -2836 0
-8396 -3339 0
4531 -6332 0
-3486 6739 0
-978 7883 0
7292 -4428 0
591 -8370 0
1909 1112 0
-4568 -1312 0
-4274 5879 0
211 5589 0
-1181 4750 0
-2762 -3358 0
-7719 7276 0
8820 -3581 0
-7546 -663 0
1566 4009 0
3664 6487 0
-5315 4800 0
-4251 6438 0
-6321 -3647 0
2501 1599 0
7583 7915 0
-7480 8919 0
-3399 6449 0
1003 -8820 0
-3745 -7350 0
1131 -697 0
1976 2149 0
-6223 -283 0
-7654 -468 0
8189 -744 0
1974 -6175 0
-335 -3198 0
-4405 -6415 0
-3224 -7660 0
4734 -981 0
4612 -7679 0
6832 6010 0
2142 -8447 0
8663 -4862 0
-401 2957 0
2306 -8627 0
-1189 6949 0
4959 5985 0
7728 -678 0
4411 -4523 0
576 -464 0
-1662 -8152 0
-8254 8296 0
1790 -3099 0
-6876 4635 0
3579 -5451 0
3859 -5983 0
1377 -1506 0
7591 -4501 0
-6236 7425 0
-4852 -3144 0
5884 -30 0
2119 -2927 0
-8172 -8007 0
-190 2964 0
1513 -4561 0
-7246 5465 0
-2989 5448 0
-4233 -5553 0
-8949 556 0
-826 -710 0
-7366 -6847 0
3167 -3220 0
-8655 -8039 0
-4945 -1353 0
-7358 6522 0
-101 7519 0
8737 8690 0
-3360 -4185 0
-8327 -8385 0
7388 -6968 0
-3862 2164 0
5946 -4902 0
-5659 -3636 0
-2488 -5552 0
-3841 -8751 0
-8965 8830 0
-2441 -8077 0
-4011 -7560 0
404 6771 0
-7933 -8609 0
6567 7813 0
-8694 4366 0
-6281 -705 0
1811 -2857 0
-8715 85 0
1891 -5397 0
7078 -1163 0
-2525 5931 0
3239 -3281 0
-5998 1764 0
-2467 -3031 0
-1462 8493 0
-7204 -7195 0
-4044 -8694 0
-2264 -4662 0
8137 4022 0
3942 2913 0
-1670 -2596 0
-5369 -6542 0
-3113 4612 0
2601 6599 0
6199 -8779 0
3220 -7895 0
5931 4268 0
-2407 -8128 0
2617 3060 0
-7558 3559 0
-1610 -1299 0
4244 -1624 0
532 1142 0
-739 6749 0
-433 1484 0
596 3347 0
-1678 4081 0
6157 381 0
-7165 -2465 0
5857 1252 0
-7680 -5932 0
-4521 7426 0
2943 2665 0
1408 -8098 0
-2438 -7545 0
170 1022 0
4920 1222 0
-2195 8932 0
4741 2104 0
-7183 -2895 0
8004 -8893 0
-7860 4174 0
-2748 2976 0
-3885 -3645 0
-2915 -8060 0
-7380 6243 0
-3638 -7841 0
5879 -8991 0
-1469 1435 0
-5302 7330 0
6854 6895 0
1294 5858 0
1141 -2898 0
7885 -7974 0
-2635 -7419 0
-7527 -2527 0
8422 8415 0
7096 2339 0
-731 6300 0
5689 -4317 0
-867 2780 0
-2351 3560 0
-5884 -6986 0
3423 -5159 0
-1865 5870 0
-1762 -2204 0
5282 3434 0
4253 -700 0
-2302 -213 0
-4812 -3856 0
-3897 -1207 0
-2299 3601 0
-5238 -1513 0
390 -5198 0
-7700 1885 0
229 -8821 0
-3336 1143 0
-8202 -7666 0
7200 3410 0
-3374 1660 0
4039 -5441 0
-7965 4839 0
-1224 -5030 0
-7545 -6178 0
4611 6040 0
1321 -7385 0
-7355 6396 0
-6557 3058 0
7569 -280 0
-6256 8239 0
-4926 5776 0
-3530 4225 0
5682 1177 0
3489 4265 0
-6964 -2622 0
8617 -337 0
-3145 -1308 0
-1351 5348 0
-6289 -3603 0
-7043 1218 0
2336 -5474 0
1306 1587 0
1479 -3638 0
8427 -456 0
-4495 -4098 0
4795 6383 0
-8112 -3425 0
5665 7555 0
-8781 -439 0
-7714 2755 0
-5553 -1313 0
6024 -5184 0
8247 -711 0
-7024 -2092 0
5303 611 0
5241 -2294 0
-3708 3557 0
-8221 2780 0
6998 3525 0
2624 -2332 0
-4750 8820 0
8086 -2666 0
-3474 8258 0
6230 -2540 0
7059 -2568 0
-8509 -6556 0
5361 -2237 0
-738 -5584 0
1684 -3439 0
-4033 -4952 0
-1546 6286 0
-7351 -1241 0
2773 -4206 0
977 -523 0
3855 4123 0
-1979 -800 0
2087 -6944 0
3312 -5397 0
4618 5315 0
-7906 -7919 0
8912 6901 0
-2212 -1609 0
-6214 3999 0
4327 -4663 0
1735 -3685 0
6225 -6464 0
-2244 -8401 0
2348 2501 0
-91 -4027 0
-7805 2346 0
774 -5114 0
2402 -1886 0
-8556 7723 0
837 883 0
5393 7420 0
-3225 7561 0
-2496 6781 0
-1678 -4939 0
-7095 2323 0
1075 2490 0
-4347 -5912 0
28 2933 0
-7242 -1985 0
4790 -5574 0
-2878 8732 0
-8271 2518 0
3626 -999 0
-79 3595 0
8245 -6320 0
15 6270 0
6708 2717 0
-2125 -8835 0
-7482 4408 0
2924 2233 0
4816 5701 0
465 -8740 0
4285 -1208 0
-5985 1946 0
-76 8993 0
5844 -8253 0
8207 -8438 0
-5672 7551 0
-6529 -3702 0
-6087 7196 0
-6627 8529 0
1100 -2863 0
4563 -2895 0
-3998 -6101 0
919 -1292 0
929 -3426 0
2216 7826 0
-8922 -7604 0
-7335 5985 0
7371 4020 0
7932 -251 0
4448 8259 0
-1882 -2867 0
-8331 8162 0
7176 4030 0
-4932 2712 0
6695 -1537 0
-2098 -4846 0
4097 435 0
5457 6383 0
-3534 3056 0
2985 -4693 0
4145 -605 0
-779 -3425 0
-5702 -6173 0
5389 3902 0
6315 -2453 0
5915 3114 0
7581 -582 0
1415 -6559 0
54 5054 0
-8692 -877 0
-1289 5559 0
-4788 6456 0
-7783 708 0
4024 4406 0
-5534 -9 0
-401 8646 0
-8110 8816 0
-8308 -6380 0
7592 7014 0
7575 -7326 0
6587 1387 0
2547 2650 0
8753 2139 0
-8445 8224 0
-3022 -202 0
-1708 7847 0
3137 -8841 0
1719 3345 0
-1474 -2236 0
-1918 -57 0
-707 -2182 0
-2750 4236 0
-32 -5170 0
-8630 1094 0
6732 975 0
-3737 3368 0
8191 -8347 0
6924 -8706 0
6536 6782 0
-2438 -762 0
633 3148 0
-3896 -454 0
6816 8520 0
-4248 776 0
4914 -2005 0
-5415 -5691 0
7609 8661 0
2754 7269 0
-4102 -2587 0
-5627 -1693 0
-698 2255 0
4174 -8609 0
-5399 -100 0
1668 8260 0
-6850 1730 0
-7903 -4955 0
-202 -2581 0
4797 6401 0
1608 5920 0
1098 -8735 0
4373 -7395 0
-6145 -8125 0
8945 2465 0
-4179 -815 0
-4032 -6034 0
-3219 1659 0
-2198 7386 0
1919 -2596 0
2837 7971 0
-1279 -4212 0
4498 -636 0
-1470 7410 0
2609 8458 0
7778 4631 0
3274 -5938 0
6972 -5304 0
-2872 -3143 0
-6843 3416 0
-5668 5907 0
1423 -6256 0
908 524 0
8360 6006 0
1035 -8328 0
-8257 1779 0
793 5577 0
-2850 4221 0
2594 7290 0
-1241 -5584 0
-5567 6905 0
-8356 -3454 0
6680 -2549 0
-5220 -3516 0
-5739 3426 0
-4636 -790 0
-6246 -7750 0
-3871 -1414 0
6926 5898 0
1509 -5555 0
-6327 243 0
-7538 7460 0
-1583 -502 0
1715 -8754 0
2314 -3225 0
-8314 466 0
-5091 -2662 0
7271 5709 0
3842 -5268 0
-2761 7729 0
-8149 1246 0
-6588 8089 0
-6488 -1931 0
-473 4207 0
8372 5283 0
-6037 6202 0
3269 -4260 0
5071 1478 0
8085 2859 0
4814 3144 0
-30 -2994 0
8828 -3908 0
-6817 -3215 0
-3586 3847 0
-6469 -2662 0
-6457 -5123 0
-901 1199 0
-3912 -6023 0
2781 8004 0
-396 -6173 0
2111 -7353 0
3291 3783 0
2039 -103 0
-4966 -8158 0
-4547 -3385 0
8504 -674 0
-7991 6743 0
2903 8130 0
7986 2173 0
2908 -717 0
-3518 -2010 0
-4283 -31 0
-1652 2117 0
-2121 3200 0
8619 -4181 0
-871 3471 0
4033 8400 0
8015 -6094 0
-2948 -141 0
982 -7320 0
2551 4187 0
4174 -6892 0
-4090 -1583 0
2902 -7957 0
1080 -3048 0
-7600 -3785 0
4189 1694 0
5827 8492 0
-7608 5614 0
-8906 2277 0
1884 -7097 0
-8831 8072 0
4706 -612 0
3260 -8637 0
-2850 2615 0
-2186 8879 0
8794 220 0
-139 -3093 0
7808 4695 0
-3752 3766 0
8880 2202 0
1569 6543 0
1342 -1359 0
2573 4288 0
-5195 -1159 0
-8799 2926 0
7002 5463 0
-6917 5783 0
5806 7799 0
-8457 -1062 0
7174 -8361 0
5184 -7485 0
6444 6226 0
-7549 -7263 0
-7780 -1338 0
3974 -3263 0
1392 8778 0
-3330 3568 0
8137 6657 0
3832 7442 0
-7597 -1334 0
5978 -4363 0
2929 -6469 0
3971 2412 0
-1669 -6752 0
4271 -5000 0
-1929 3119 0
490 -3477 0
-8704 8300 0
2994 6101 0
-4906 -7228 0
-5712 -1668 0
-2474 948 0
-1562 -6758 0
2137 4233 0
-6281 -3128 0
6503 6662 0
7560 -6647 0
-427 -4979 0
2347 -3381 0
-3827 -2304 0
4402 -8051 0
8063 -5273 0
-1140 -190 0
5998 -5958 0
7807 -5727 0
-8363 6941 0
4763 5909 0
-8028 -2569 0
-7469 -2621 0
5072 8764 0
8171 -2572 0
-387 8966 0
-3793 -6677 0
7470 139 0
4133 2885 0
-1845 -4025 0
-2665 -3277 0
6736 6346 0
4598 -8944 0
859 -502 0
-7779 -7597 0
-5114 -5811 0
-1657 6244 0
5834 3256 0
1677 -3866 0
-5595 5379 0
8912 732 0
4703 6911 0
-8158 -4811 0
-6430 -6458 0
-5147 4298 0
8192 8089 0
2587 -1050 0
8610 -5000 0
6325 5604 0
3092 -318 0
-4956 -4964 0
1009 2959 0
7106 8705 0
8463 -6865 0
-4819 1 0
-7717 -7733 0
5250 4598 0
5248 3052 0
-1043 -4186 0
1754 -6811 0
-8813 -1086 0
150 -7155 0
-7583 -116 0
82 -4601 0
3106 -1495 0
4818 -730 0
4886 -1742 0
6355 -7596 0
-3569 -632 0
3086 7187 0
7048 5465 0
2111 -4833 0
6622 5403 0
5473 -8677 0
-2662 -5966 0
-2527 -1924 0
-8763 8795 0
-2783 429 0
8492 -8639 0
2209 632 0
2187 -8902 0
8379 -3998 0
-8117 8416 0
-5304 -4333 0
-4000 1946 0
-6754 5152 0
-559 6296 0
-2695 8413 0
-6026 -4685 0
-3644 1829 0
3989 -5374 0
-3647 -3590 0
-1494 1927 0
-5140 -1982 0
2641 -4551 0
-5534 8143 0
-3794 2524 0
-4429 -3555 0
2996 7503 0
-401 -8186 0
1583 6401 0
137 2868 0
-4141 2405 0
8374 -2496 0
-4642 -5432 0
-6397 7346 0
-6193 -1170 0
-4244 3194 0
-8835 1812 0
8401 7018 0
-7596 -6631 0
7270 -4882 0
5566 -769 0
-7934 -7422 0
-2399 4758 0
1742 870 0
-1321 7649 0
-8895 -4725 0
4060 2510 0
-2689 -7445 0
-4965 -2127 0
1145 -8730 0
-6352 500 0
-1571 -3478 0
-3036 -4481 0
-3447 -8983 0
-2904 -3708 0
-1561 -2251 0
5514 1168 0
-8591 1147 0
3199 -7480 0
-433 959 0
-519 -2251 0
-1754 3498 0
5471 8383 0
6306 -7395 0
3952 -725 0
2187 3384 0
-4831 3881 0
-5719 3068 0
-2538 6674 0
-7816 -7984 0
2027 1931 0
2592 7320 0
8755 -8963 0
-263 -1093 0
4692 -8411 0
4503 -7514 0
4003 7735 0
-1486 -977 0
-1721 -1815 0
8738 8950 0
4567 5951 0
-3724 5070 0
-210 -5015 0
3348 870 0
-8241 -8447 0
-5722 -5753 0
-1385 -6505 0
-2667 -1176 0
8153 -4692 0
-1181 3651 0
-7192 -4099 0
-6853 -1937 0
5103 2304 0
4268 -3013 0
-928 7292 0
2506 5735 0
3415 1355 0
-1101 -2947 0
3165 6463 0
3576 1079 0
6208 7394 0
8354 -680 0
-4551 4307 0
2061 -4957 0
1483 -8591 0
411 340 0
5849 2501 0
-6073 6633 0
4951 7430 0
400 -4468 0
-5853 3614 0
-7005 1581 0
-341 8279 0
-140 -2626 0
8735 -5983 0
338 5790 0
897 5115 0
-8442 -2053 0
7748 5183 0
-3643 2912 0
1125 7605 0
2419 -1959 0
-7439 7748 0
-4249 -3781 0
-1892 6370 0
-6524 298 0
-6325 7295 0
-3767 8839 0
8877 1581 0
-1572 8576 0
-2752 -8479 0
-7240 -1746 0
5448 2598 0
-5141 -6617 0
-1923 -548 0
7995 372 0
2812 -1832 0
-1738 53 0
7658 1668 0
-8916 355 0
6857 4583 0
-5159 -5894 0
-3616 6423 0
-1996 3156 0
-5425 8259 0
-3030 -4963 0
2221 -1253 0
-539 2397 0
-354 7996 0
-6932 -7696 0
-7316 -2475 0
-475 3105 0
-7596 746 0
-2333 -3724 0
1883 751 0
-8071 -6319 0
-3743 -1670 0
-7787 8811 0
2644 -7413 0
8410 -6517 0
2415 -2730 0
-2563 -1913 0
7616 -7521 0
7197 7392 0
-4339 -5547 0
1667 -4806 0
1649 1879 0
-2496 3140 0
-7478 -4884 0
-8443 1966 0
-5216 -3452 0
-2120 -8794 0
2953 -3688 0
2972 7117 0
1597 6918 0
-2160 -4118 0
4210 -1947 0
-1405 -7224 0
694 -2979 0
4056 -3670 0
1971 -6691 0
-3014 575 0
-2628 -1628 0
-8050 -648 0
-2620 6884 0
8263 1112 0
4905 1811 0
5697 -6781 0
7843 -64 0
5566 3089 0
4436 -6779 0
-6117 -5698 0
-4569 7643 0
-8319 6292 0
-6861 -6522 0
-1673 6754 0
-110 -3637 0
5531 -323 0
-588 8241 0
5358 1313 0
-5398 3620 0
433 732 0
5074 2429 0
-8012 4093 0
6983 3637 0
-3196 -8591 0
3713 6773 0
-6214 3361 0
7245 7686 0
-5263 3140 0
2556 291 0
2459 -884 0
6976 6196 0
-185 -8994 0
3631 -6600 0
-5849 -5230 0
-792 -5138 0
5684 -3196 0
3932 -6769 0
-7434 -3961 0
-5089 -5498 0
-6910 7394 0
-4162 7536 0
7997 8465 0
-6438 7696 0
6828 6340 0
1015 -3906 0
-4235 2449 0
1622 -4150 0
7427 -8615 0
7518 8343 0
2969 -2591 0
-2648 7535 0
-1381 -961 0
-6150 -8715 0
4092 4624 0
-6767 -2019 0
-2644 -667 0
8000 7018 0
-8783 -1954 0
1914 2337 0
3346 6831 0
-1620 -2227 0
-3880 -6086 0
3178 1459 0
3698 -7339 0
-667 7411 0
-3981 -4594 0
-4067 1971 0
-4770 -2566 0
5639 -5149 0
-7472 5465 0
78 4936 0
8478 4645 0
5257 -6731 0
25 8414 0
3375 -6821 0
-604 -291 0
-4245 -6659 0
5482 -5397 0
-1750 -1273 0
219 2242 0
8950 -2509 0
1076 8022 0
-8398 3583 0
7101 1417 0
-5089 1629 0
7959 -4689 0
7132 -4273 0
8086 5607 0
1853 -3402 0
436 -8261 0
-1370 4559 0
2097 -4024 0
4509 -1768 0
-1135 1163 0
402 -2535 0
6812 -1776 0
427 -8644 0
3587 -4552 0
5146 1943 0
-2195 -1152 0
-2955 -1057 0
1348 -2890 0
-6281 7869 0
694 -7267 0
2896 8252 0
-6100 942 0
-3011 -2628 0
-4038 -4480 0
2864 -2493 0
-7693 -5383 0
-4599 527 0
-8431 2784 0
6372 -6287 0
4328 -5338 0
8263 -3958 0
8425 -2756 0
7754 -1107 0
8489 3727 0
-3017 -6216 0
-7489 6642 0
-8797 4617 0
1013 -6558 0
7592 2215 0
-1937 7672 0
-515 -1178 0
-4690 174 0
2726 1925 0
-3167 3277 0
-652 -5528 0
-2058 -7875 0
-2270 8423 0
533 -2496 0
-993 4215 0
4162 -7505 0
8584 7657 0
8822 -6381 0
-4520 76 0
-4248 -3080 0
2450 3208 0
-4938 -6149 0
8598 6486 0
-4574 1652 0
6151 -1532 0
-3655 -3353 0
-3404 191 0
7655 -5780 0
146 -1999 0
5101 -7622 0
148 -5616 0
3513 -2236 0
-5907 -8500 0
-6205 2738 0
-8267 12 0
8716 -8217 0
7437 -3546 0
2877 -5159 0
-7061 3911 0
1705 -8619 0
-1925 4951 0
-7161 -8880 0
-1050 -6889 0
-1073 -3094 0
-1453 -3284 0
-3652 -8204 0
3270 -7694 0
-1517 5040 0
-3141 2189 0
2056 3082 0
-1034 4666 0
5156 4513 0
-6087 1665 0
-1947 6738 0
1846 -7425 0
4324 1273 0
7897 1112 0
1889 4034 0
-3553 2018 0
-1644 -7610 0
2699 3153 0
-3951 1390 0
3305 -3170 0
-4712 1069 0
8862 2002 0
3473 1510 0
-8256 -188 0
-1909 -4258 0
1718 8273 0
5906 -2334 0
-1180 4794 0
-530 -2292 0
1453 1216 0
7057 -2030 0
-4527 3963 0
897 6704 0
-3131 5650 0
-4530 1575 0
8921 145 0
-5405 -4924 0
4735 -7373 0
1500 423 0
47 -2596 0
1615 4743 0
4431 -2522 0
3774 -8322 0
6925 3957 0
-8167 -5770 0
5953 342 0
-205 -1076 0
-5369 5061 0
6502 8747 0
-2891 3384 0
3683 3516 0
-4721 -7657 0
-7430 2645 0
6988 7462 0
6895 451 0
-7703 4831 0
-6880 6401 0
1809 4129 0
-4644 8573 0
-1229 3618 0
-6409 3734 0
-1403 -7250 0
-5605 -6827 0
-7942 2703 0
8081 -4852 0
1474 5877 0
5665 7147 0
-7244 2318 0
-5636 1992 0
-2343 -981 0
-2834 2130 0
2852 4149 0
8133 -3130 0
4161 -4058 0
7518 3727 0
-7179 -19 0
-7695 -5026 0
6085 1804 0
-15 -3352 0
8005 7101 0
-6429 4026 0
-1437 7697 0
6950 7258 0
-442 6987 0
-2482 -2285 0
362 5272 0
-7302 -526 0
3990 -2041 0
-6653 -1954 0
1279 2932 0
-4903 -7762 0
8325 7578 0
-6875 -3896 0
-3319 -4231 0
-8588 -995 0
-2792 -39 0
8184 1038 0
1769 -1357 0
-6678 -6497 0
-2632 -6829 0
-6985 2371 0
-6944 5073 0
-7629 -2517 0
8524 -4205 0
-7697 1352 0
-3809 -120 0
-4862 4738 0
3575 -6535 0
-6689 1131 0
-6631 -4713 0
1646 5041 0
7452 7448 0
-6110 1097 0
-3192 -8256 0
8218 424 0
4816 4758 0
-1936 4781 0
1032 -871 0
1161 198 0
-8558 -7353 0
-7860 323 0
7149 7098 0
381 -3471 0
6810 4846 0
-6144 1207 0
-7193 6957 0
4016 -4929 0
5520 8117 0
-3897 4949 0
-1497 -1093 0
8004 -741 0
-2563 -5379 0
-3966 -5412 0
-8192 -5468 0
4174 6112 0
-6177 -3745 0
-1848 -8113 0
3480 5670 0
3251 -4881 0
-7886 8783 0
2050 -500 0
7952 7097 0
1606 1068 0
-5068 4941 0
3226 -1042 0
4431 1466 0
-888 2985 0
8674 -696 0
-3510 -2723 0
-8857 2804 0
7771 1163 0
-8916 980 0
-2875 -7681 0
873 -2267 0
-3883 7222 0
5520 5286 0
5629 5848 0
-1538 7626 0
-4331 2256 0
1143 3407 0
4400 2826 0
3576 1931 0
-7783 -2160 0
-2200 1047 0
555 7229 0
4508 -8625 0
8797 6101 0
-479 -8642 0
-8332 8804 0
8872 -4974 0
7979 -4748 0
-1345 5242 0
-7641 -1149 0
5600 -1992 0
-5431 4980 0
-5304 490 0
8795 -3387 0
4476 1603 0
-8474 632 0
-6314 6818 0
6136 237 0
-4156 -49 0
4545 -3241 0
-5745 -1250 0
-6927 1937 0
-2816 8183 0
-4572 2132 0
-6005 6126 0
-235 -3642 0
-3143 -3563 0
5604 3753 0
4802 -4596 0
-3584 -120 0
1439 6375 0
4488 4608 0
4036 6662 0
8625 3085 0
-6631 6794 0
-8189 -6939 0
7458 2247 0
3239 -1206 0
-6783 7857 0
-4756 -2540 0
6191 -8907 0
2764 2009 0
8363 -3271 0
-5086 6425 0
3061 -5347 0
2646 -7829 0
7529 -1010 0
-4889 -3768 0
-5167 -2674 0
-7488 7261 0
4255 -6018 0
-2737 -1293 0
-3358 4562 0
-6166 7864 0
3588 -8050 0
-7631 5897 0
-2895 2446 0
-3131 -5995 0
-1569 3798 0
-2838 -8798 0
-8018 3884 0
-5645 -3994 0
6426 719 0
-4774 -3359 0
7744 -4718 0
-1890 726 0
-621 -1770 0
-5598 5608 0
-6469 -56 0
-643 -7339 0
1253 3283 0
-1114 6215 0
-1362 3891 0
1368 4949 0
-447 8529 0
-873 5168 0
1026 -4036 0
-5045 -8294 0
831 8141 0
2525 1933 0
-4968 -2555 0
-6611 3558 0
-4494 -1962 0
2358 -221 0
-5323 -7223 0
-2377 898 0
-8721 -3103 0
1528 2292 0
-3643 1205 0
-5806 1917 0
-5818 5321 0
-3623 6515 0
-3667 -7102 0
6211 749 0
8825 -7707 0
5639 -6858 0
7411 -2806 0
6884 7559 0
710 7087 0
-2461 -5419 0
-7650 -93 0
-6682 988 0
-670 -8262 0
-3012 -4184 0
8123 2619 0
1023 1525 0
6343 7140 0
6606 -54 0
6200 -5588 0
-769 246 0
-6912 8985 0
-2067 -6708 0
2182 -6093 0
2927 -7934 0
6200 577 0
-1782 5248 0
-7390 6973 0
-6847 5637 0
8072 -1798 0
5683 -4358 0
1186 7627 0
4281 -8483 0
6526 -3084 0
-4459 1957 0
3116 3749 0
-2004 1344 0
-8846 -8918 0
-441 -7968 0
-2659 448 0
6488 -890 0
-5616 4884 0
8517 143 0
-3944 8300 0
3948 7249 0
5408 8452 0
5796 4263 0
7169 8628 0
2959 -2486 0
-6285 -8438 0
-6210 -4562 0
3582 -289 0
5680 6054 0
-2178 -255 0
6079 3205 0
-13 -6724 0
6471 3284 0
2781 -3685 0
12 -2527 0
3195 7236 0
-3945 6980 0
5840 -2460 0
7095 -5302 0
-4620 -4041 0
5204 951 0
3588 5932 0
-2401 -5182 0
-2615 -2888 0
-2747 7494 0
6457 -2557 0
6103 -2044 0
23 -5025 0
6788 4987 0
4896 1974 0
2297 -3077 0
2096 -1765 0
-292 -907 0
-6324 -3498 0
-4123 554 0
-1938 782 0
-4577 -4565 0
-1484 8324 0
-170 5480 0
3096 2590 0
-6541 303 0
5542 -6343 0
-6807 -5798 0
4927 -7872 0
-1804 5549 0
-7495 -2927 0
-7881 4931 0
7320 2919 0
596 -2884 0
-921 -1307 0
-4244 -632 0
1392 -494 0
-7600 2994 0
4371 -4067 0
-8759 8921 0
-1382 3656 0
-5430 1811 0
4160 3610 0
-5915 6905 0
7079 5670 0
5442 1279 0
8955 4062 0
4335 6362 0
4298 -4094 0
-7150 -6048 0
2326 7683 0
-8223 8396 0
-7023 4451 0
2048 -3550 0
-1375 5117 0
-3329 -2328 0
-130 6775 0
1646 -1926 0
-2364 -1728 0
6613 -8891 0
7259 5707 0
1720 1873 0
-4526 4036 0
6688 -6665 0
-6352 8493 0
-7975 -3082 0
-82 -2493 0
4184 -8813 0
-5454 -1713 0
7268 -1434 0
7571 -6501 0
-869 5859 0
-6880 -8118 0
3940 5292 0
-2911 -5777 0
1423 3491 0
-1043 2225 0
-2354 4194 0
-1722 -13 0
-283 7532 0
1906 6681 0
7241 7014 0
6264 5828 0
-920 -3900 0
-3436 -5782 0
-5661 -1317 0
6248 -4853 0
1840 6979 0
-1695 -5507 0
-8403 -1608 0
846 2526 0
-7363 -7655 0
-3528 8976 0
-7946 -7089 0
-710 7317 0
7909 3294 0
1583 4214 0
-1888 -8183 0
-1853 3267 0
-5772 5525 0
-5226 7682 0
-5392 -6082 0
-394 4411 0
-6037 7991 0
-686 2146 0
-2182 1541 0
-2643 4681 0
2951 8158 0
3204 -357 0
-1444 4921 0
7160 -656 0
-4364 2751 0
-8624 -8021 0
-2673 -527 0
856 -618 0
7187 -1657 0
7585 -6368 0
-2978 -8403 0
8739 2101 0
5980 1678 0
6980 -7446 0
-7306 -1385 0
7342 8534 0
7449 7910 0
-4753 -329 0
-4182 5843 0
7697 -3325 0
-7914 -3503 0
-8086 2532 0
-5131 1166 0
-2244 2769 0
-5438 -5267 0
7436 348 0
-1796 -4615 0
-1569 4330 0
7528 -880 0
2644 1785 0
7837 -4022 0
1348 2874 0
4039 1739 0
-5799 -6563 0
-4769 7679 0
-2398 6526 0
-7359 8398 0
711 1540 0
6466 2149 0
5757 2967 0
5282 -3642 0
-5167 -2205 0
6654 -5313 0
-4199 3683 0
-6581 7470 0
-2342 -1639 0
-2491 3520 0
-1513 2738 0
8581 -4255 0
-6231 1907 0
2782 6449 0
4616 -6016 0
525 7603 0
-7908 5692 0
-6463 -3871 0
2371 -8978 0
628 3705 0
2739 -1046 0
-3150 1752 0
1093 -42 0
6897 3148 0
558 -1672 0
6274 -7272 0
-7604 8141 0
5576 -6285 0
-280 4805 0
-5895 -6363 0
-8327 2396 0
-5761 7917 0
-3803 -3131 0
3098 696 0
-5340 5214 0
5235 -4143 0
236 -3422 0
-871 4610 0
-7163 -639 0
-8541 -3918 0
-280 6805 0
-1163 -7107 0
-304 -2069 0
5909 2444 0
1314 -130 0
-8702 8058 0
2297 2859 0
-211 6422 0
8290 2582 0
-7673 5506 0
3468 3339 0
1922 -880 0
4152 -6979 0
2696 27 0
6092 -5116 0
-2223 4641 0
-8751 7847 0
4031 4498 0
7686 -5620 0
6102 -8558 0
-8583 4412 0
-5193 254 0
-4370 2354 0
-552 8146 0
1384 3951 0
-3558 3765 0
380 988 0
1032 -8489 0
-624 716 0
2675 -778 0
8500 146 0
-1357 -6852 0
1932 -8742 0
6249 -6641 0
7972 1914 0
3039 -4737 0
2988 -7797 0
6465 3216 0
-7219 -663 0
4167 -457 0
6717 8494 0
5870 8142 0
-5314 391 0
6463 4234 0
-2494 7292 0
3436 -2621 0
-7902 -2997 0
-4075 -378 0
-3808 345 0
2833 -7483 0
2824 6141 0
-839 -1935 0
8742 2760 0
-5716 -8722 0
3039 2093 0
-2693 -8912 0
4233 -6552 0
-7578 -4924 0
-4434 3911 0
-8939 8032 0
7774 -3750 0
6496 -3007 0
4803 -5966 0
4168 -2672 0
-7527 -5128 0
3679 3050 0
-4911 8554 0
2115 -8014 0
1135 -5793 0
-8831 -5791 0
-5582 -5626 0
-3042 -7134 0
4548 6324 0
-2469 -4890 0
8666 -2861 0
7413 -3275 0
1962 3028 0
-4400 -7174 0
8152 4606 0
2201 2544 0
2093 2423 0
-1656 -5802 0
-6159 8100 0
8239 -5250 0
3934 4270 0
-1374 -1614 0
2021 876 0
-1224 -4461 0
1260 -6301 0
1659 2337 0
6772 -3437 0
-2070 -5719 0
2079 -1553 0
-2783 2713 0
6716 7778 0
6999 -6477 0
7528 -1915 0
-8226 654 0
6271 -1378 0
5757 5803 0
-5145 -5716 0
-8376 -4754 0
5815 6028 0
-3022 -721 0
-7010 5603 0
-5359 -1653 0
-5968 -8124 0
-2842 320 0
-8040 -744 0
6697 4948 0
-5390 3799 0
5888 5989 0
-6256 4976 0
8932 -8154 0
5571 -3854 0
-4110 -3321 0
7935 -3122 0
-8677 4384 0
2464 4535 0
-3101 -8311 0
1899 7967 0
-5255 -5791 0
4580 -2074 0
-7678 -5852 0
4397 1062 0
-162 -6019 0
2598 8136 0
3744 7036 0
5759 6112 0
-4332 -6266 0
-7041 -3206 0
6929 -1442 0
-7438 -4573 0
4731 -1512 0
-6016 -394 0
8280 -8512 0
-6624 7727 0
-2456 5306 0
1809 6928 0
6961 -5294 0
-8719 1242 0
-6700 -8037 0
-2575 -397 0
7753 6240 0
8935 -6447 0
-8758 7804 0
5659 -1461 0
7066 3621 0
8746 330 0
-6786 -8733 0
8313 -1074 0
-5438 -1747 0
-5900 -7929 0
-6898 3795 0
7510 5639 0
3315 -2342 0
-2816 -3621 0
-8248 7344 0
-4361 7291 0
3726 -2373 0
-6112 -6105 0
4003 237 0
8347 3700 0
-5616 3910 0
-375 -6251 0
-2559 -3401 0
-6373 -3047 0
399 4667 0
-492 -1487 0
-1436 7269 0
654 -353 0
-5185 -6712 0
6880 1556 0
-1161 -3094 0
-3182 2417 0
-3941 5132 0
3999 2101 0
-6671 1768 0
-3101 6110 0
5698 1448 0
6805 -706 0
8811 -1367 0
-3161 3727 0
-4350 -7010 0
-5914 -4336 0
-903 8718 0
-7740 249 0
8566 4746 0
-4758 -2308 0
8493 -997 0
-360 4791 0
8247 -6945 0
-4582 -7921 0
4949 1436 0
-4598 -5777 0
-1057 -8256 0
129 -4405 0
6912 -7001 0
298 -5739 0
264 -6208 0
4682 3696 0
-2254 1953 0
570 3801 0
-8889 3104 0
4337 -5441 0
-6430 2941 0
-3013 -6350 0
3307 -2029 0
5670 2784 0
-1474 -3047 0
-6476 -5306 0
7616 6896 0
-1351 -3599 0
1712 2909 0
-8035 -6344 0
-6093 4999 0
-7562 4669 0
-5559 -5851 0
-636 5240 0
8866 -6997 0
1330 -8749 0
4640 -3655 0
-3502 3886 0
-2895 -7304 0
4711 -5362 0
1825 1002 0
-5787 6612 0
5782 4030 0
2781 1837 0
2685 -2177 0
8375 -5774 0
-852 -2421 0
-5977 -938 0
4711 -7314 0
2223 534 0
-4461 -8759 0
285 4664 0
734 6621 0
432 314 0
-8629 1393 0
-8297 -843 0
3681 -4792 0
7932 -8672 0
6164 -5499 0
121 -8014 0
-4400 392 0
-5746 8239 0
-826 -2714 0
7144 2731 0
-4185 -7533 0
-3939 -8058 0
2660 3803 0
5927 -417 0
848 -3411 0
-7829 -298 0
7153 -7103 0
-5799 -7194 0
3024 4315 0
-3960 -7280 0
1213 -4259 0
180 -3989 0
8959 4330 0
-4574 4947 0
-1302 8497 0
2951 -699 0
-2839 6778 0
-8322 -478 0
2271 7414 0
-7849 2979 0
-5836 1809 0
3412 2714 0
5886 -5933 0
7081 6994 0
-2930 -5864 0
805 -641 0
7442 7170 0
3216 794 0
-5412 3085 0
8964 -4365 0
8584 -6251 0
-4456 -2265 0
-3710 1934 0
6463 -7552 0
-1731 -5496 0
1767 -3205 0
-6889 3624 0
8987 3084 0
-1396 3883 0
-2980 829 0
8522 5333 0
-4719 4699 0
670 1403 0
-7017 -3643 0
8309 6370 0
4411 8446 0
603 -2531 0
3729 -7123 0
176 -58 0
5580 -8243 0
6864 -8572 0
-3711 -8666 0
111 4165 0
3052 4851 0
4415 -537 0
2854 1789 0
-8289 -4517 0
1116 2685 0
6171 5512 0
-2668 4740 0
-4621 805 0
-4605 5020 0
5342 -3228 0
6475 -6868 0
3398 6036 0
-5952 -92 0
6247 4991 0
-8793 -8900 0
-1580 3077 0
-8250 -4069 0
-1431 8314 0
-2174 3878 0
-6309 6574 0
-4563 -8095 0
8717 -8085 0
1169 1720 0
-6750 -8002 0
1187 -6987 0
1038 5592 0
-228 -4008 0
-4212 -7365 0
5469 -8483 0
4521 4923 0
7722 8271 0
-752 3334 0
-4602 -2190 0
-3882 8268 0
-3884 3601 0
-8820 -1203 0
5342 2287 0
-1377 -2584 0
-6194 -3024 0
2826 5552 0
-509 4555 0
7771 -8591 0
-4847 370 0
5457 1219 0
1014 -2384 0
2501 1051 0
-8090 4412 0
-8127 1785 0
-4928 -4787 0
-5787 3317 0
-4408 3333 0
-7735 -6452 0
1402 5375 0
-42 1322 0
-7639 -1585 0
5083 3412 0
-8119 4590 0
8429 -5093 0
1054 8737 0
-8614 4108 0
6230 1671 0
-6823 -5464 0
-8227 -2243 0
-696 4478 0
-3289 1220 0
-7034 -3008 0
3536 6258 0
4780 -8513 0
995 1078 0
5710 -7234 0
1157 2383 0
5035 1214 0
-1428 3322 0
-4712 -6437 0
-3155 -3218 0
-3882 6011 0
-7543 -1577 0
5351 -2572 0
8171 2669 0
4968 8261 0
-1790 -6802 0
4415 -1001 0
-426 -6345 0
1097 -4914 0
5873 564 0
7041 7575 0
-1048 -3703 0
734 -1382 0
-7904 -476 0
1979 -3795 0
2736 -7577 0
-584 4281 0
-2133 -8829 0
206 2641 0
3944 -4794 0
3542 3372 0
5096 -8700 0
-7183 3067 0
6999 -8043 0
-8413 8243 0
6684 3417 0
8359 -8852 0
-8473 721 0
-1487 7859 0
2846 -2598 0
-1993 5976 0
5629 6376 0
-3218 -3993 0
-5730 -605 0
-5523 -3269 0
75 -1193 0
-7654 2127 0
-6003 -3402 0
4987 2958 0
2776 -2264 0
2809 -7382 0
-3245 5083 0
2723 4807 0
-2004 66 0
-7132 -6367 0
4015 -8487 0
3258 -1274 0
-7812 -2087 0
135 5880 0
-4894 -2800 0
-5614 -8342 0
132 7959 0
-581 5104 0
7138 -1574 0
-3206 4761 0
4860 -7178 0
-3533 -7846 0
6794 4088 0
5182 2060 0
-7631 -6879 0
-4675 8502 0
-1326 -78 0
-7232 -7136 0
-1400 -1414 0
1335 6534 0
3887 4067 0
466 1047 0
-5559 -1775 0
3210 693 0
-273 6952 0
1304 5980 0
-2244 2849 0
8168 -5399 0
2678 -8510 0
7228 -5800 0
2016 3062 0
-3626 -8966 0
5055 7211 0
-3821 -8122 0
-7530 -4691 0
-4882 -837 0
-7107 8049 0
2384 587 0
-91 4522 0
-1483 -7202 0
8679 -4448 0
-4893 -3837 0
5776 -4782 0
4166 -3017 0
6307 -947 0
3182 -2842 0
5991 -5914 0
-4063 -5547 0
453 -6812 0
8207 2972 0
-7839 -401 0
3611 2510 0
2770 -3918 0
1573 -8985 0
-7895 -1057 0
-3378 -2957 0
4383 -683 0
3022 -5433 0
-5396 5957 0
2697 -5274 0
3348 8249 0
4654 -4546 0
-3500 3545 0
-3692 -952 0
-6724 7799 0
-4671 -1643 0
6105 1720 0
-3068 -7616 0
1265 -2790 0
7685 -7455 0
-8845 -7901 0
-6076 -6316 0
4618 205 0
-3850 -7397 0
-324 -2857 0
232 -3280 0
-3442 1507 0
-3836 -5092 0
-3132 2551 0
419 6853 0
-8213 4239 0
-6770 2156 0
-4206 6393 0
-267 5976 0
1827 -6204 0
-6495 -2163 0
-4208 -6259 0
-1090 2998 0
-456 -4868 0
2659 -7466 0
-5982 4571 0
3087 6341 0
5227 -1766 0
-4104 3745 0
-3193 6132 0
1504 4591 0
-2843 3378 0
3032 4853 0
3957 6543 0
3690 8817 0
4916 4334 0
-2008 1879 0
-7176 5803 0
5531 -1880 0
-4073 3059 0
-2465 -1543 0
3900 -8891 0
825 4970 0
-6447 -8602 0
-3812 -4048 0
-4130 -4368 0
-528 6771 0
-7912 -3892 0
5021 -4071 0
-7220 1117 0
5604 2143 0
3414 1219 0
1065 -1095 0
-8947 -6038 0
-4752 -1370 0
-3862 -325 0
-4833 211 0
2214 -2329 0
717 -3908 0
5440 -2304 0
7219 1592 0
8352 -606 0
-2304 -6128 0
276 8441 0
3608 294 0
7140 -8069 0
-5810 -1842 0
8175 -103 0
550 8674 0
8005 -6647 0
-7861 -644 0
-6438 -7234 0
4076 5710 0
5347 1278 0
1069 -7280 0
2571 1929 0
-3075 -515 0
2305 -4885 0
-5643 -1321 0
5111 -1978 0
-8657 -439 0
-8064 338 0
-8100 6570 0
-1698 -8552 0
6066 4230 0
6880 1756 0
4624 -7108 0
2887 -1245 0
-5619 902 0
-5889 1030 0
1637 -2343 0
3846 -8861 0
-2741 1021 0
5717 4902 0
4090 7199 0
-5860 -4035 0
1059 -638 0
-465 -531 0
4460 4946 0
4075 -1465 0
-5417 2229 0
-7848 8767 0
-171 -8160 0
-4405 7290 0
-5636 6739 0
2550 -4067 0
1831 7807 0
8542 -4851 0
4322 7607 0
-5856 -8691 0
4488 -5517 0
-5820 -4070 0
1825 -3222 0
-6853 1660 0
414 -559 0
3494 -1329 0
1083 1856 0
-8457 -3016 0
1764 -6585 0
2557 5454 0
-8549 -8771 0
1129 -463 0
-468 7471 0
-4274 2912 0
-6300 -142 0
-8579 -8875 0
842 -5834 0
530 8520 0
-2601 2649 0
-6823 5481 0
7101 -669 0
-6337 8565 0
1787 4814 0
1636 391 0
4580 3 0
1278 -4964 0
-6512 -6587 0
5550 3814 0
-5102 3035 0
762 -7443 0
5444 1186 0
5271 4282 0
6358 1157 0
2697 -5636 0
6265 126 0
-5149 -2751 0
534 1274 0
-8171 3091 0
5817 -4412 0
2215 2669 0
1524 -4352 0
-7867 8834 0
3481 2394 0
-6231 2442 0
5953 -1070 0
-1733 7098 0
-6156 -8127 0
-103 -7577 0
4431 3807 0
875 8674 0
-4364 -2156 0
-1466 -2366 0
-7751 4067 0
8741 6594 0
-6759 -6428 0
8055 -8361 0
7872 -2188 0
3559 -8057 0
-2357 -4962 0
1478 -8708 0
8576 919 0
6470 -8126 0
6657 -5383 0
3057 5817 0
7255 7045 0
-1910 -983 0
6354 2559 0
6266 927 0
8759 -1142 0
1687 736 0
4935 7455 0
4431 -6808 0
1627 7340 0
-235 -7540 0
-3246 -3194 0
5652 8915 0
31 5229 0
-213 -2003 0
2862 2444 0
6811 2094 0
-6228 -5791 0
-143 -4696 0
7062 7335 0
-8652 5847 0
2784 706 0
-2494 -3478 0
7020 3629 0
8114 4207 0
-450 -2158 0
8173 4409 0
7815 3041 0
-4591 1137 0
-7477 -4646 0
-6483 5514 0
2742 459 0
-5521 2915 0
-5989 1372 0
861 -5719 0
-7644 -7182 0
3028 -1651 0
-2280 -7190 0
8980 2072 0
7269 3516 0
6154 3003 0
7755 -970 0
7114 -1647 0
-7281 -3177 0
2127 4438 0
-2543 1132 0
-2314 -2983 0
-3295 -8845 0
8431 -7230 0
2963 7154 0
-5292 -2753 0
-894 3500 0
-6826 -321 0
8604 8206 0
5698 6933 0
-4854 5450 0
8634 1655 0
3066 -1140 0
-2426 8529 0
8079 -3446 0
1002 -2964 0
5726 -3716 0
3087 -6129 0
-8708 -4435 0
-7018 -5302 0
6066 -7565 0
5937 -2246 0
-3935 -7341 0
4451 1797 0
-8292 -3266 0
2807 -3839 0
-3091 -1705 0
6015 -4733 0
-788 3754 0
-1501 -7049 0
-8886 5921 0
6751 -7251 0
-5220 713 0
-8617 -6408 0
7 -7961 0
-6090 89 0
-521 6472 0
1991 461 0
-2567 3902 0
3017 -832 0
1037 -2488 0
6966 -6774 0
-8888 2776 0
507 3996 0
-6595 -232 0
-2216 -7171 0
550 6946 0
7386 -6332 0
-5828 -7827 0
7158 588 0
5085 -1517 0
6857 3658 0
-2942 5494 0
6736 2256 0
-5530 3994 0
-1046 -4272 0
-4366 2952 0
-2000 -6803 0
8249 7121 0
-552 5513 0
1941 -6627 0
7207 -5093 0
-1027 -8520 0
7014 7039 0
-5472 2430 0
6496 -2043 0
963 -4262 0
3189 -990 0
-6251 -3484 0
8330 2700 0
-3867 -2550 0
-8924 -847 0
-4311 -2651 0
-2572 842 0
6433 1696 0
1278 717 0
-4413 -8565 0
-8286 -8236 0
-8023 -4784 0
-3673 -487 0
-4661 2085 0
2949 -6280 0
827 -3072 0
-1515 7653 0
6788 -6197 0
917 5779 0
3564 -7355 0
-1544 -8454 0
1419 8590 0
-2220 -8790 0
2108 7313 0
5072 3469 0
-497 6788 0
1821 4148 0
-8541 8861 0
4698 3215 0
-1530 -4280 0
7207 -5518 0
-2678 7502 0
-5357 1373 0
6347 5729 0
-6038 -3859 0
-4869 4199 0
6018 -4547 0
5662 7000 0
-1201 -2115 0
4434 404 0
-7894 2905 0
5337 -5546 0
8235 -547 0
-6122 7674 0
2011 5954 0
5284 -6133 0
-5293 -7789 0
-4045 -5743 0
8066 6895 0
-5880 -3641 0
4488 3244 0
-7718 -7312 0
-4037 4539 0
7166 -6280 0
-5445 -1886 0
5161 3288 0
-1483 -2840 0
-4036 8794 0
-3817 -8100 0
-3696 8707 0
8302 -7600 0
-2113 -5429 0
5469 -6382 0
6098 -5436 0
4552 -3163 0
1256 6409 0
-4691 -1070 0
-8624 1012 0
341 3257 0
-8289 -1381 0
-8590 4283 0
139 -8784 0
-8399 6033 0
-4770 7170 0
-2821 -1923 0
-8437 1912 0
-3819 -5309 0
-4719 -1152 0
1357 -6152 0
5465 1244 0
-5904 -6066 0
-95 1653 0
8894 3563 0
5817 3067 0
-335 3899 0
-3130 8512 0
-7480 8271 0
-4298 -5394 0
8277 8584 0
6795 -4885 0
1797 -882 0
2184 8930 0
-2745 -7385 0
2468 -406 0
4120 1770 0
6295 3306 0
-7035 -3982 0
6607 7619 0
-8337 -1221 0
-7177 -175 0
-1382 2246 0
6675 5047 0
-1678 7498 0
-114 8048 0
348 4289 0
-7787 3672 0
-8610 -5789 0
7173 -7736 0
4116 -3690 0
4520 -6193 0
-5215 -1839 0
524 4155 0
-5972 1999 0
4689 1227 0
-5274 -2883 0
2178 -2200 0
-7863 -5357 0
4785 7239 0
5360 8078 0
8643 7299 0
-6696 7465 0
5998 8025 0
4301 -8954 0
-6005 1713 0
1086 3220 0
8441 -485 0
1191 8185 0
895 3361 0
-5650 -1583 0
-6753 -8777 0
4324 7345 0
-1058 -3638 0
-4169 -3590 0
4406 -4809 0
7408 616 0
7743 4699 0
-8357 3507 0
-385 7457 0
-1482 -6932 0
-1215 3172 0
-8161 -855 0
8168 704 0
-5739 -8761 0
-7671 -7626 0
4199 -7933 0
-318 1410 0
-1203 101 0
-4075 2856 0
2777 8623 0
7711 216 0
-6303 5505 0
6045 1211 0
6559 6381 0
-2496 7153 0
2662 5851 0
-1671 -8088 0
1940 7947 0
7339 -2796 0
6162 3571 0
722 -5097 0
-1776 -1312 0
-4298 -2019 0
1943 -6500 0
-3218 3766 0
8461 8567 0
-5827 8855 0
-2628 -6431 0
-4418 242 0
-3533 -2426 0
6198 -2276 0
-1339 1453 0
-6097 118 0
6776 1141 0
3921 7915 0
-7994 6142 0
4600 -6348 0
-1988 -8312 0
-7387 -7152 0
757 -201 0
-7046 5886 0
-987 -4635 0
-505 -5369 0
8092 -6037 0
-1674 -8614 0
4839 -7785 0
-7550 7363 0
-8460 -3030 0
963 4959 0
210 -1886 0
-8835 -91 0
8232 4776 0
8309 16 0
-7358 -3117 0
-2695 -5138 0
2933 8495 0
6851 -7016 0
-2406 -898 0
-280 -2045 0
2683 7485 0
-6193 -6642 0
108 8183 0
1050 -2175 0
5987 4093 0
-2081 3634 0
-7114 4502 0
1864 2194 0
6574 -5104 0
-4136 -726 0
178 -602 0
-1842 -3075 0
-659 -6375 0
-4073 3725 0
8896 3265 0
4681 -5096 0
2946 313 0
-3011 -8760 0
-1132 -735 0
338 -6300 0
-2024 -4116 0
-5221 -5517 0
6916 5703 0
-3953 6329 0
7728 -8108 0
2490 4306 0
-6181 -6542 0
5204 5741 0
6271 777 0
3645 -8314 0
6030 -2989 0
1292 -5092 0
-4196 996 0
-2241 4525 0
1211 8075 0
6410 -6974 0
4307 -554 0
-4357 -6630 0
-8994 7805 0
7576 6804 0
-5923 6433 0
-6127 4989 0
-2756 -7925 0
2036 5327 0
-4582 7575 0
1213 -1462 0
-6160 -6533 0
-6021 2749 0
5964 -6468 0
-4362 6270 0
-8025 1449 0
-287 -8888 0
7884 4486 0
-8431 5190 0
-759 -3460 0
8277 2442 0
8094 1287 0
-1551 530 0
-4833 -3474 0
3216 -2827 0
-2097 4851 0
-5472 -3608 0
594 -6287 0
8309 -1341 0
-3432 2152 0
-3483 -1931 0
6182 -1269 0
-479 -15 0
-546 3800 0
6025 3754 0
4621 1320 0
-3021 -1331 0
4940 3042 0
-7779 -4514 0
-4691 -8696 0
-506 4272 0
5596 -7184 0
2742 -2727 0
3853 1606 0
-1138 -3038 0
395 7575 0
-3214 6782 0
7067 1099 0
2624 3820 0
4967 1761 0
5244 -5287 0
-1068 6747 0
5077 7932 0
-5354 8422 0
-3983 -2086 0
1547 -7866 0
-1375 5730 0
-931 -6779 0
-29 6019 0
-4004 5730 0
6077 8475 0
4294 -5938 0
-5197 -7713 0
-2112 -6346 0
-4322 8701 0
-2272 1109 0
-7547 -4135 0
6066 5353 0
1878 -6055 0
-4303 -634 0
8773 3591 0
5760 -5192 0
-4067 4622 0
2654 -2200 0
-5412 -4974 0
3972 4487 0
-5314 7568 0
-5091 -1625 0
2384 -6284 0
3398 -8215 0
7384 2506 0
-1998 -7480 0
8224 2813 0
-3911 616 0
3224 5134 0
539 -4884 0
8888 -4040 0
-43 5536 0
6043 -3129 0
-2703 -1049 0
3611 2022 0
7609 6522 0
-7642 -4578 0
-2323 -1984 0
-4097 7371 0
4439 6166 0
-3633 6302 0
8307 429 0
1601 7368 0
3861 6091 0
-3299 -4394 0
-3775 2725 0
8702 7892 0
2222 -8729 0
-8941 -5974 0
3018 3287 0
-4466 -2058 0
-7571 5657 0
4989 2381 0
6951 5128 0
-3332 2726 0
8094 -6374 0
3902 7595 0
775 3372 0
4412 -5951 0
1630 -6168 0
929 -7824 0
1719 51 0
2231 7958 0
-1683 7672 0
6418 1727 0
410 -674 0
-1763 -5606 0
-1152 -1172 0
1985 4766 0
4297 -3604 0
-894 1516 0
5536 1210 0
1134 89 0
5446 -2244 0
-8433 4212 0
633 3670 0
449 4029 0
-1537 8517 0
2597 -7530 0
2999 -598 0
-8125 217 0
-3225 -7741 0
8667 7306 0
-8486 6344 0
6574 -3209 0
5967 8453 0
8045 1668 0
2598 -3904 0
7761 7574 0
7270 -5936 0
1078 -1338 0
4824 3948 0
2207 3240 0
7154 1342 0
-5101 -5994 0
7222 -6641 0
2102 4316 0
7626 -8206 0
6772 -8775 0
-3049 -3879 0
8113 -6333 0
-3712 -6216 0
7710 -1466 0
5625 4852 0
-1199 5639 0
390 3238 0
6982 6368 0
8527 2941 0
2711 -4819 0
-6658 -1199 0
-3568 -293 0
-6910 -3157 0
5602 -5296 0
6389 -5209 0
-2987 6291 0
1024 -3044 0
-5568 5898 0
3305 1172 0
-4779 4575 0
-5004 -226 0
5199 2686 0
-8102 1742 0
1915 -7703 0
-3428 5998 0
3580 -7636 0
-1279 -2377 0
2506 8622 0
8380 -3737 0
8200 -2642 0
-4614 609 0
8235 -8857 0
3596 -6155 0
-4367 5256 0
-8428 6657 0
-8657 2982 0
6250 2459 0
7330 -4588 0
-58 -5442 0
-2461 -3665 0
-1847 -8750 0
-8323 -5999 0
-7915 -7033 0
-8016 -218 0
6569 7793 0
5401 -4628 0
-8125 5009 0
-8571 3619 0
-6792 -5133 0
-1802 -8646 0
8155 -5261 0
-4806 1274 0
-7283 -1547 0
5303 -7432 0
3347 -4024 0
-21 6759 0
1509 7180 0
-3614 7479 0
2642 -8364 0
932 1800 0
-1918 1048 0
-1082 545 0
6131 1831 0
-258 -3761 0
6279 8978 0
7637 70 0
5124 -1207 0
738 3746 0
8622 7156 0
2249 -6487 0
5333 5859 0
6412 7186 0
8604 -8854 0
8991 -3496 0
-4942 -3938 0
502 -5966 0
-8665 -4793 0
-6997 -8753 0
-4596 -1225 0
6474 -7463 0
7615 -1323 0
7723 8263 0
1345 5307 0
-8979 -8948 0
-7001 -4847 0
4029 -3274 0
5857 2646 0
-1390 -4122 0
6942 3330 0
-1269 3749 0
875 6797 0
-7685 -700 0
3018 3849 0
-8088 3186 0
-5284 2463 0
-3353 -6430 0
7980 -5780 0
302 5366 0
82 3948 0
7991 -164 0
3515 2108 0
7929 8407 0
503 -8670 0
1042 -7048 0
4993 1687 0
7905 2601 0
838 6971 0
33 7017 0
-7175 4110 0
2016 -8522 0
5077 -1154 0
-8433 -2996 0
5272 -5794 0
-3605 4184 0
-7187 7528 0
4604 4862 0
-7730 5212 0
2971 477 0
-6756 -8054 0
7191 -526 0
7254 -3827 0
2591 8861 0
-5997 -1423 0
4500 5863 0
5776 -5532 0
-7407 -3485 0
679 872 0
-7677 -8069 0
-999 -426 0
3239 7744 0
-4910 -5855 0
7800 -3790 0
5751 2360 0
-3137 -2757 0
-4190 7973 0
-3130 -4704 0
-898 -6112 0
-3383 2466 0
-4407 5789 0
7020 6022 0
2547 -3961 0
1079 -3227 0
3945 -2878 0
2602 3064 0
3913 -1007 0
-5441 -4716 0
-7157 -1478 0
6226 4018 0
-8521 2061 0
6648 8894 0
-7758 6824 0
4454 -6722 0
5227 3606 0
4097 -1636 0
-3072 -7458 0
7045 -2269 0
556 1240 0
-5199 7500 0
-2633 6061 0
219 106 0
5885 5212 0
846 -506 0
-5496 6749 0
4272 -7006 0
949 -6550 0
6376 -6173 0
-2727 6994 0
-6227 -4787 0
2764 6648 0
-2272 7593 0
-7171 -3916 0
-5097 6199 0
-5580 565 0
3659 -4709 0
1014 6153 0
1567 3010 0
4062 6457 0
3331 8197 0
2053 2123 0
-2083 7193 0
4146 -1319 0
3759 -6107 0
-1531 6535 0
-3636 3649 0
8573 -1613 0
5658 5672 0
-3897 1564 0
3127 1797 0
-1365 2778 0
-3845 525 0
-8115 -6624 0
3458 323 0
4818 -1263 0
2820 -7355 0
-1843 -3545 0
-2616 7025 0
-7487 6158 0
6090 1353 0
1943 3885 0
6773 1066 0
-5098 1897 0
4079 5884 0
-7821 -3778 0
-5759 -3123 0
5872 -2829 0
3015 6680 0
2933 -8820 0
8809 -2478 0
1594 -7761 0
-4870 -5561 0
5648 1185 0
8240 478 0
-5790 -552 0
-1538 8707 0
1069 868 0
-2824 7187 0
-428 -3656 0
1047 3983 0
5060 -6568 0
-6666 6200 0
1986 3513 0
-110 1074 0
-1706 7952 0
610 -1446 0
-4237 3963 0
-471 7093 0
-428 8577 0
-7800 4318 0
-4748 5030 0
6350 7233 0
7927 7835 0
-8650 -8986 0
-8933 4620 0
-5230 1046 0
6659 7174 0
8029 -6619 0
-1907 -827 0
2426 4170 0
5403 -6709 0
3721 -6464 0
6476 7430 0
2056 -1080 0
4877 2172 0
7569 2436 0
-2069 -8167 0
5158 1173 0
8851 6110 0
3067 7540 0
-8928 -2131 0
5146 -3306 0
-2660 2287 0
-1866 7530 0
7953 -6434 0
-2691 244 0
-5606 811 0
-4332 -7695 0
-3789 -5305 0
-7051 -4134 0
3226 7145 0
4711 4193 0
5895 817 0
6439 8567 0
-8528 6878 0
6263 7430 0
-4180 1356 0
3475 6543 0
-8809 8143 0
200 -353 0
3948 2763 0
-245 -6166 0
4930 3586 0
4530 -4339 0
6080 -3296 0
-6485 -4378 0
-6728 -8428 0
4559 8229 0
2969 -6425 0
-4151 5475 0
4113 -3321 0
8018 7535 0
-7412 -6003 0
-1302 463 0
2647 -1654 0
3507 -8456 0
8304 -2280 0
-2015 6502 0
-6577 3161 0
4069 -3440 0
-7358 -6551 0
8870 -6666 0
7045 -5576 0
5452 3048 0
-6419 1556 0
-5710 294 0
-6841 -2190 0
-6072 -2174 0
3203 -7739 0
-7804 1925 0
2783 -4584 0
4788 -4680 0
-5307 -3292 0
-4546 -3249 0
-6893 1719 0
-2833 8053 0
115 6064 0
-976 -1391 0
-3342 -4245 0
-4126 -712 0
-3796 -1018 0
3823 640 0
-3851 7122 0
3660 -6885 0
-95 -6727 0
7435 2065 0
7902 1441 0
-6552 -842 0
6289 -693 0
-4731 -18 0
4914 -6913 0
-2352 7547 0
2951 -6218 0
5746 2420 0
1463 4824 0
-1175 4346 0
5883 -6944 0
-2953 -2621 0
-3011 1643 0
-4905 2407 0
-7767 1985 0
-1868 -1933 0
2217 -4293 0
4704 1878 0
-5642 -3180 0
-2436 5979 0
1380 -3445 0
-1206 -3386 0
6873 1176 0
1593 7406 0
-1011 -458 0
6194 -8306 0
-5106 -4918 0
-7811 658 0
8987 -7901 0
-269 4047 0
2049 2541 0
-7399 -6171 0
-5376 -2032 0
8498 1798 0
3938 3657 0
5613 1228 0
7350 490 0
-6013 -2057 0
-3345 4170 0
-311 -7929 0
-4718 727 0
-674 5757 0
-3808 -3635 0
-5184 4221 0
2093 606 0
-2533 -4758 0
-5045 -8298 0
-8266 -8500 0
-5501 -4814 0
6572 -6955 0
-7478 8332 0
-6850 -8581 0
6689 -6032 0
-1269 6329 0
4296 -6646 0
-228 6510 0
2898 -5956 0
-3530 -2258 0
-7556 -822 0
3670 -2168 0
693 6940 0
-3793 117 0
229 -5030 0
-4009 -7422 0
2173 -7195 0
-5706 6825 0
-4542 -1765 0
6332 -8011 0
-3569 -56 0
-8335 -4963 0
-5930 8486 0
-6425 -8320 0
-1444 -6711 0
1615 -2092 0
-8508 3000 0
2407 -2990 0
-6750 2551 0
-8268 -403 0
-3209 5516 0
6101 5491 0
405 -3316 0
9 5687 0
-6336 7579 0
-5882 6162 0
-1565 -1396 0
7006 4297 0
8183 3913 0
8551 3659 0
5232 8918 0
3748 -5390 0
-868 -7849 0
-3353 -1452 0
-4928 6889 0
-1863 1338 0
-6790 8708 0
4690 -8427 0
8209 8784 0
-5023 6210 0
-683 -6363 0
-7966 72 0
-4136 -3274 0
-3717 5747 0
7170 964 0
-2239 -8781 0
2936 6513 0
-3569 -1805 0
1785 -109 0
-3838 -7400 0
2225 4914 0
-5978 -4251 0
-55 410 0
-4534 -6852 0
3265 6430 0
-921 3352 0
3827 -2643 0
4372 -6191 0
8116 6258 0
-109 -5395 0
-767 -8533 0
7447 -1994 0
-2199 4464 0
-3195 8827 0
-2660 -5817 0
3423 -8729 0
-7064 -7664 0
573 3119 0
4655 -4750 0
-2300 -4679 0
-1359 1429 0
-8076 -8011 0
-4728 -6152 0
-376 -4976 0
2172 -4730 0
8793 5099 0
-828 625 0
-4868 -1420 0
6734 -3885 0
5461 -8347 0
-7915 -7102 0
-8002 855 0
-241 7486 0
-7296 6108 0
-2224 -7257 0
5474 -4623 0
-2069 7549 0
-968 551 0
-3827 4115 0
4417 -6533 0
-8220 -8867 0
7780 3664 0
-4407 2337 0
3433 -4175 0
1291 -2871 0
7376 -744 0
6967 7190 0
1556 3931 0
-8450 -2210 0
3372 -8852 0
934 6549 0
-7026 7286 0
3259 5858 0
-1409 -5584 0
2287 8476 0
896 7238 0
8613 -6740 0
-1027 -1055 0
2104 3064 0
5199 -502 0
2342 5403 0
3711 -8561 0
-6326 7431 0
6702 4092 0
3522 -4768 0
-7477 -739 0
-2066 -2803 0
6609 -554 0
5894 -8873 0
-3357 7765 0
-8653 2873 0
-4411 1772 0
-6113 4588 0
-6160 5208 0
-2705 5218 0
8182 341 0
-8888 -764 0
1408 1410 0
-8708 -6465 0
-5223 -4802 0
1295 -3638 0
-7137 2957 0
6580 -3253 0
-8469 1213 0
-8704 5524 0
3175 -4831 0
-1924 6021 0
8380 -5340 0
-850 -1231 0
-1574 8767 0
-8328 -7880 0
-6228 -563 0
419 -5471 0
8586 -3539 0
2805 6343 0
-4549 2847 0
4916 1582 0
-6009 -8788 0
4153 -6715 0
8225 729 0
-1776 564 0
-3154 8710 0
1935 -5923 0
2260 -7986 0
-7479 -8728 0
-2657 7410 0
-5317 -6150 0
8687 -5205 0
-933 -1801 0
6339 2336 0
3443 2859 0
-887 5909 0
-236 -2976 0
296 -4819 0
-3636 6977 0
697 1927 0
5054 8499 0
687 -3585 0
-1143 -7264 0
6939 7239 0
7158 -3293 0
8880 -5426 0
4162 -4505 0
-3496 7742 0
-6126 -2388 0
-13 -6300 0
-2612 1633 0
-5588 -8139 0
-7785 4004 0
8130 5212 0
-4438 60 0
-6360 4191 0
1369 -3535 0
-1197 1837 0
3347 -7197 0
862 1916 0
7326 1797 0
-6161 -1332 0
8901 431 0
-2140 5874 0
1339 -1551 0
5952 46 0
-7123 7784 0
-3508 1019 0
8745 -6580 0
-5555 -8041 0
1192 6161 0
4692 -545 0
725 8465 0
-7011 -2341 0
3960 6142 0
-4468 -932 0
249 2158 0
-3342 7222 0
7996 5037 0
6796 -2637 0
-1147 6872 0
618 969 0
-1527 -3143 0
3911 -1512 0
-41 -5737 0
-6360 -2565 0
1445 1891 0
-5269 8084 0
-6390 -2072 0
-3445 -1043 0
7617 -6030 0
-7513 -434 0
1426 6532 0
6158 2545 0
1570 -1795 0
7456 -2998 0
-4688 -5990 0
-3892 -6275 0
931 5841 0
-2454 5732 0
-5210 -4891 0
683 -1249 0
-2488 4540 0
-6306 -2073 0
2175 -2843 0
1573 5201 0
3770 4536 0
2728 1694 0
-1950 1218 0
5688 5860 0
4744 -7527 0
-6538 -4936 0
-194 7377 0
5314 4106 0
-4262 -8 0
-925 5611 0
6980 -4275 0
4201 -2320 0
-6380 -8145 0
-4976 1977 0
616 1392 0
4820 -6956 0
6639 -4966 0
5074 2197 0
-6434 3511 0
-6938 8835 0
1096 -8099 0
-3239 -1196 0
-2501 429 0
-7600 -2497 0
7425 -8529 0
3809 -7408 0
7455 -7117 0
-8406 -66 0
822 -2374 0
7425 5401 0
-7880 7204 0
6268 4611 0
391 -2219 0
-7409 2573 0
-575 8030 0
-7885 7031 0
-8131 -1401 0
1994 1065 0
-642 1010 0
4661 -4098 0
-3508 4265 0
5544 -3296 0
-6833 -8453 0
-6539 6004 0
-8328 1083 0
-5668 2106 0
467 1919 0
1851 3016 0
-4037 5535 0
2460 5444 0
-8566 6379 0
4881 -5956 0
-8962 -8756 0
-2308 -5012 0
7793 2807 0
1955 -2558 0
2961 3551 0
-7615 4889 0
-424 7055 0
7291 4044 0
-3849 -918 0
4281 613 0
1856 3785 0
-2219 -3957 0
1074 3687 0
-7026 7352 0
-8155 6997 0
-6217 -2903 0
2479 6211 0
-5918 4614 0
2961 2613 0
-8842 -3788 0
-8339 6567 0
4119 20 0
3982 3965 0
-2015 -3935 0
4115 2777 0
3105 -1784 0
8546 7693 0
1803 6803 0
-6394 -4179 0
1542 -2529 0
4987 -1150 0
-1043 7750 0
2637 679 0
-3099 -6550 0
2737 8661 0
8081 7426 0
41 6537 0
8854 8313 0
7511 -2031 0
-3185 -8852 0
6083 -1711 0
8851 -6968 0
-2120 3037 0
4263 -932 0
8169 1072 0
4568 1964 0
1581 -3316 0
-5537 -6547 0
-6678 1928 0
-5836 -6219 0
-4495 3960 0
4393 -3272 0
6006 -5209 0
-5451 -8274 0
5834 -1645 0
-2518 3281 0
4538 4342 0
5733 6221 0
7175 8543 0
-5899 5942 0
-3644 -5925 0
-5486 7860 0
2254 5536 0
-8175 -4060 0
4586 2640 0
613 8622 0
-3207 3893 0
-2326 -8131 0
730 -7048 0
-8132 8684 0
683 -4721 0
5500 4472 0
4950 4948 0
-2576 -3889 0
-8106 -7694 0
-3811 -4325 0
7851 1398 0
2769 -2370 0
-6735 6929 0
5096 7293 0
1112 -6870 0
3928 136 0
274 7537 0
-8380 836 0
-8703 -4606 0
1161 -8939 0
6166 5401 0
6115 -147 0
234 -2673 0
-3120 -5067 0
-8774 -1319 0
6558 91 0
-963 -5394 0
-8610 -8853 0
-8582 4220 0
-3603 -856 0
-1647 6139 0
-1990 -1421 0
5985 4644 0
-5617 5859 0
4067 -3310 0
8231 -6967 0
-4439 1809 0
207 964 0
4532 -2150 0
3051 4564 0
-6145 -6604 0
7113 772 0
5676 3717 0
8978 1354 0
-3486 3211 0
701 7386 0
358 7015 0
-705 260 0
-7353 2998 0
7553 2803 0
-7866 -8805 0
-1589 -4670 0
-7380 5181 0
-4352 1213 0
1024 4042 0
5935 4095 0
-4887 -1223 0
-223 5188 0
-3813 8252 0
-4872 -8880 0
7541 -4162 0
-5713 -4846 0
-2012 2134 0
8496 8360 0
-3108 5192 0
6565 3066 0
-4517 -258 0
-3443 2149 0
3922 -6538 0
8394 384 0
2526 2120 0
-6437 -8043 0
7595 -1915 0
-2911 -1337 0
-2945 3802 0
-764 2184 0
-4931 4061 0
3611 5108 0
3988 4393 0
-1050 -5283 0
6525 4167 0
4255 -5983 0
-5835 2059 0
-888 1147 0
2354 -4181 0
7072 -6098 0
-3436 -6875 0
-54 277 0
4730 2972 0
-5094 -4413 0
2187 2918 0
1232 8415 0
-8196 2366 0
-84 7180 0
-5308 211 0
8804 -7451 0
3278 2332 0
-6194 -5106 0
-3728 3726 0
7992 2607 0
7649 -3460 0
-1143 -3463 0
-4080 -4386 0
6207 -5067 0
3783 -5294 0
-6620 8686 0
-3176 -7390 0
-6657 -297 0
5456 -5394 0
6610 4177 0
8209 7077 0
-8614 -3784 0
-6805 -7768 0
-5539 3089 0
-4468 2264 0
2686 3971 0
-7368 8169 0
-4421 -950 0
-5811 1197 0
8341 -1138 0
550 -2310 0
501 5364 0
-2938 -5645 0
8420 8655 0
4620 6834 0
5144 5544 0
4156 6602 0
6733 -1307 0
3049 4189 0
-7769 987 0
-8480 3720 0
8815 3453 0
550 -4180 0
-6578 -486 0
-3296 -4914 0
4933 2609 0
1069 -1379 0
-5348 8324 0
6132 -1397 0
-404 8511 0
-1796 -6700 0
-918 -7291 0
-6432 8288 0
5888 -4724 0
-7509 -5591 0
-6913 4201 0
-3342 508 0
4014 6204 0
-1574 -2898 0
6157 -7956 0
-2426 -6561 0
-4134 6365 0
-3781 7927 0
-6234 -6857 0
-5158 -6643 0
-591 -7466 0
785 -7520 0
-1409 -8141 0
-3096 8976 0
-34 5950 0
4389 2261 0
96 6601 0
7386 525 0
-7550 5007 0
-7742 -1779 0
3047 -8459 0
-6850 6121 0
1329 934 0
928 1282 0
-8027 -5104 0
-5183 189 0
66 -8583 0
51 3656 0
6507 2173 0
-3545 6864 0
-4367 8875 0
-5521 -7230 0
-8023 -1311 0
-8576 475 0
5132 -1099 0
-8427 3004 0
3384 5110 0
3907 6891 0
1020 926 0
6575 3124 0
-2167 7233 0
5015 3037 0
-2767 -7267 0
-2341 -8724 0
6216 -1356 0
6206 272 0
7052 5885 0
-4823 -8879 0
-1779 -2817 0
-945 -8071 0
5760 5514 0
7853 -4763 0
-4090 8730 0
1285 3257 0
-3246 -1814 0
8624 -7859 0
407 7773 0
-909 -8731 0
6110 -1958 0
-2255 -6642 0
-2036 -3378 0
3119 -6522 0
-5134 -4012 0
2699 -8951 0
3624 2961 0
-2192 734 0
115 5641 0
-1832 6740 0
3583 8666 0
-6301 -5482 0
155 -1895 0
2497 3978 0
-415 2 0
-6114 -4774 0
853 2180 0
84 -1155 0
5819 8469 0
6669 -1000 0
5252 7724 0
-1739 -4133 0
6966 1774 0
-4501 4769 0
-8060 -5630 0
7000 -6511 0
-5311 -1055 0
-5125 6813 0
3545 1045 0
-3941 -4890 0
8011 4834 0
-5114 -2101 0
-4961 6030 0
2243 8542 0
4322 -820 0
4444 3861 0
-7721 -5467 0
3244 -5946 0
-6210 7451 0
4124 5257 0
7169 8510 0
-6348 -5147 0
-2025 8986 0
8622 -5690 0
5889 4252 0
5240 -3653 0
-797 -1671 0
513 -7543 0
-2039 3831 0
-2943 -1269 0
2564 -6875 0
6504 -3009 0
-4060 -784 0
800 -8621 0
-4528 -6414 0
-5666 8341 0
-7764 -4455 0
-5386 1760 0
-3378 3429 0
-3298 -753 0
66 -6184 0
-5849 -4311 0
7996 205 0
1263 915 0
2702 -7026 0
-28 926 0
3216 -2073 0
5508 -6085 0
4849 -2364 0
1475 -1462 0
1637 8845 0
4198 -3641 0
-3605 -2973 0
566 1633 0
-6910 696 0
7356 5541 0
8076 6018 0
5385 2613 0
-8026 8817 0
6006 3283 0
5429 -5963 0
4978 -6206 0
3701 6101 0
8943 -4175 0
6089 7116 0
-1388 -107 0
6830 -8134 0
-2569 6953 0
6604 5887 0
7428 -6128 0
4697 -1987 0
8232 -1562 0
8553 -7785 0
-2244 7488 0
-7581 6600 0
-3584 -7866 0
-31 -122 0
8630 913 0
-2333 -2340 0
-2280 -281 0
-3558 8369 0
7568 1998 0
-1182 -5114 0
5810 -2765 0
-7331 -6690 0
-6704 -4620 0
-161 1013 0
3605 2033 0
-7321 729 0
-3140 -802 0
-2908 2624 0
6993 1415 0
-8107 -946 0
2375 -4833 0
4913 2852 0
-932 -7899 0
-7258 -4226 0
1992 3925 0
2811 -2718 0
5708 -7521 0
-8613 -6837 0
-1350 -3194 0
-778 -4022 0
-245 -6412 0
-6793 7418 0
-4950 -4333 0
4100 -6005 0
8247 4289 0
-6084 -6633 0
-1335 -3767 0
-1906 2766 0
-1553 4708 0
5602 -1078 0
2957 6544 0
5636 -4756 0
-5595 -7305 0
-2136 -6993 0
-7533 -7617 0
-4561 -3922 0
2054 -8000 0
-4235 5324 0
-5313 8889 0
5110 4630 0
-6624 1331 0
8316 1065 0
-4013 -4742 0
6509 -1106 0
1498 5801 0
6085 51 0
5690 -4700 0
7850 -7853 0
5610 -4071 0
8538 -6323 0
-8422 1219 0
5894 2773 0
-5459 3934 0
-491 1574 0
864 -8177 0
-8500 -7616 0
1381 492 0
-4195 1139 0
-4562 4947 0
651 -8707 0
-7833 -5517 0
-7322 4771 0
4268 4940 0
-4705 -7341 0
1120 2995 0
5975 -2999 0
-175 -4507 0
-8262 -8003 0
-8936 -3168 0
-696 -5466 0
2882 7007 0
-3332 3536 0
7515 -4138 0
8036 7194 0
-1417 -2517 0
-3298 3417 0
8279 8521 0
-2860 646 0
3182 5255 0
1246 -5506 0
3680 8580 0
851 3495 0
3628 -1901 0
-2654 -8058 0
2652 1579 0
-547 8338 0
3557 5013 0
6809 -1955 0
-8097 7551 0
-4702 3980 0
-8064 335 0
5344 4545 0
-1172 -615 0
-4774 -3991 0
-7147 -1761 0
-4070 5885 0
8744 5824 0
7983 -2964 0
4211 6543 0
-1259 7477 0
6893 499 0
-4883 144 0
5607 2650 0
5263 -7445 0
-1799 -5143 0
-7221 1677 0
-6084 1021 0
-4090 -4488 0
-7181 -4176 0
-7572 96 0
-2623 1128 0
5118 -2082 0
4467 -6348 0
-2936 -8710 0
-2180 -8471 0
-813 7328 0
-8623 8121 0
-4012 5191 0
5919 -4636 0
-7337 2374 0
-71 -6388 0
-6983 831 0
-3826 5783 0
4132 -3215 0
8744 -1089 0
4800 -6026 0
6984 -2290 0
8853 -5496 0
8367 8889 0
-8651 -2115 0
-5049 -4348 0
5621 -3867 0
-7654 -7979 0
-5669 -4622 0
-1472 -4386 0
-7531 7458 0
-127 -7998 0
-4989 -6510 0
6974 25 0
1974 -6361 0
-7747 1703 0
-8329 1705 0
-6237 -3084 0
-1223 -999 0
-38 -8167 0
-2491 1552 0
-712 -6574 0
-2559 -1624 0
3350 -4762 0
-7547 -625 0
5186 -7180 0
8030 8520 0
-2601 -7540 0
4776 8537 0
8019 -2869 0
3769 773 0
4449 7367 0
-2680 -2986 0
241 -449 0
-466 4876 0
-5306 -7106 0
-7375 -769 0
-1494 -7625 0
-3130 -6471 0
4681 2255 0
-978 -3281 0
5909 -425 0
-1609 6049 0
-8995 -6911 0
6057 -1347 0
3503 -7029 0
-8979 -6974 0
-479 -3559 0
5954 -3572 0
-1050 -6844 0
-8857 2265 0
8941 163 0
-778 669 0
-2204 -7863 0
-2376 -2861 0
-5172 4017 0
2091 -4735 0
-3577 -2079 0
2956 -1537 0
-7483 -4218 0
-862 -5645 0
-2131 -4832 0
8668 331 0
8587 8714 0
4340 -3381 0
6499 -3201 0
5628 -7881 0
-8759 -1938 0
1375 -823 0
7044 2833 0
-6070 -4508 0
-1993 -632 0
-5203 -2965 0
7448 -2560 0
5470 -2576 0
5141 1831 0
7386 -6947 0
-3026 6864 0
7544 -181 0
538 -1181 0
-749 2664 0
-1266 7099 0
-1010 -1365 0
-6479 -1874 0
3676 1318 0
-1328 1477 0
3019 6521 0
-6724 -7168 0
-4636 -1662 0
41 2814 0
-2046 -7394 0
-3300 -7041 0
-1828 -5093 0
-3967 6112 0
-8014 8107 0
-2649 -6341 0
-5766 2129 0
4472 1096 0
-4646 6134 0
-7230 5133 0
-3344 8360 0
501 4407 0
-7811 -2814 0
-1504 -7849 0
7956 3042 0
-3490 4281 0
-6972 -8555 0
-1437 4459 0
-4822 -522 0
-2977 -3465 0
-4938 856 0
-1299 -66 0
-5564 -285 0
1033 -2899 0
3754 -6874 0
-3805 -4758 0
4792 6472 0
-4156 5011 0
-8458 4965 0
5755 -5758 0
-5795 -3544 0
1619 -6 0
-7124 954 0
-1520 -8458 0
-7259 3619 0
1313 -476 0
1505 -6305 0
7512 7571 0
-2591 -3441 0
-4068 5874 0
-5782 -189 0
4475 7734 0
-4226 8879 0
4612 -3847 0
-2389 3303 0
1617 -511 0
-6248 100 0
4586 -4075 0
-6994 -293 0
6246 -5048 0
3066 7513 0
5614 -3451 0
-3540 -8988 0
8052 -1939 0
-8275 142 0
-2697 1379 0
1167 -6338 0
-2581 1234 0
180 3086 0
7259 7261 0
1807 8841 0
1174 6403 0
2064 -4541 0
-3459 4 0
-2298 -8271 0
8351 4018 0
6650 236 0
-2869 5098 0
2182 -7244 0
1994 6457 0
8981 1877 0
-4063 -8648 0
6730 -3711 0
-4943 3216 0
-4691 264 0
8898 1900 0
-7836 8225 0
-7924 -2666 0
-1272 -3063 0
7031 -3378 0
5794 -7209 0
-3482 -8648 0
1919 -7531 0
8579 7228 0
-6911 -7662 0
-6915 4277 0
2924 1875 0
-5330 4834 0
-5050 -7203 0
4368 4207 0
8424 -143 0
-8308 -7412 0
-7709 8163 0
380 -7327 0
3794 2173 0
5029 421 0
4689 8832 0
2261 129 0
1355 -6716 0
682 -1621 0
-2642 5026 0
-7032 -8773 0
332 -5470 0
-7536 -6072 0
3736 -5325 0
-5280 -6257 0
-7399 8223 0
-2939 4589 0
3161 4292 0
-1472 -7378 0
1405 2273 0
4310 -1890 0
-5559 -384 0
5415 8581 0
-7288 -4686 0
3404 1042 0
3098 4554 0
-7226 -7647 0
2523 -3927 0
6232 -8121 0
8501 -2700 0
-1151 -2892 0
6395 -4353 0
-8506 -7513 0
-7018 3940 0
7224 8604 0
-2437 -1131 0
108 7851 0
496 5930 0
-6795 4229 0
8243 -84 0
1724 -4369 0
5413 -6149 0
1677 3145 0
8862 -6294 0
3100 5709 0
-2871 7590 0
7127 -6170 0
-1152 -2889 0
3425 -7854 0
-8810 5242 0
-4532 -3380 0
-293 1331 0
-8707 -7218 0
-7766 -3196 0
8959 -8945 0
2601 641 0
-8099 -8679 0
8191 -1130 0
644 -2441 0
-8743 -1370 0
-3729 -2916 0
-5750 -3210 0
5337 1130 0
-6094 -8039 0
2232 -6874 0
7510 -195 0
-4609 -7221 0
-1460 -3373 0
4446 -7473 0
2251 3381 0
5698 -8091 0
-6550 -7635 0
-5839 -2999 0
-2119 8469 0
2576 -6604 0
-4961 2882 0
-7655 -1865 0
-5496 1617 0
-1618 -8895 0
2710 51 0
1825 2869 0
-328 8614 0
-5257 3893 0
-1494 5986 0
-6082 -3625 0
-8911 2622 0
-4779 7688 0
-1119 -1323 0
7276 -5413 0
-6886 3934 0
-1552 7985 0
3951 -674 0
3984 -2051 0
-6405 8371 0
2921 652 0
-8172 3247 0
4391 -8653 0
-2647 1950 0
-315 3623 0
2457 -3703 0
-3552 -3781 0
1230 -3138 0
1556 -385 0
5842 -6724 0
-7152 -6699 0
-960 -2321 0
-6126 -4994 0
-4332 18 0
-4558 5049 0
3232 -1544 0
-439 -7646 0
-3582 -4121 0
7415 3828 0
-2447 7535 0
-6626 7419 0
555 3032 0
-2843 -7113 0
-7639 -5115 0
-3993 -759 0
-2272 5732 0
2037 2255 0
3659 -92 0
-1910 -4094 0
-4511 6607 0
-3187 -3511 0
3119 6596 0
-4907 2517 0
-2453 884 0
-5924 6067 0
-3652 -1757 0
2535 -5605 0
-1250 566 0
6161 4793 0
-4400 1696 0
-2681 873 0
-1375 -2319 0
3184 -2790 0
-1496 -6050 0
-2635 -7951 0
-1997 1746 0
8569 -8549 0
-7995 -396 0
5255 -5104 0
-7031 -7480 0
6815 533 0
-5616 3345 0
7750 3413 0
-132 292 0
7081 -4691 0
-3125 2924 0
1884 3346 0
5163 -6023 0
-3596 -8590 0
-6787 -2434 0
811 5977 0
-3524 4389 0
-4749 -2927 0
-332 3908 0
2824 3142 0
4551 4676 0
-221 -7045 0
7986 354 0
-3832 2739 0
-6084 -4516 0
-4587 3571 0
3738 2288 0
-1618 -4244 0
-5632 -5774 0
-233 -5116 0
8725 -1328 0
8823 3738 0
8784 -6185 0
3430 -1875 0
-2302 -7241 0
8398 -33 0
7346 8276 0
6983 -6564 0
7980 7392 0
8646 -5290 0
-4546 2055 0
5856 3412 0
5834 -4266 0
-1400 -6545 0
-922 2209 0
5486 -4021 0
-4050 725 0
-8189 595 0
-3402 1366 0
-3455 -169 0
3968 7016 0
8969 -4746 0
7169 3146 0
6951 -2528 0
6276 -8788 0
3844 4672 0
5949 -5021 0
-6781 8205 0
6727 -3688 0
873 386 0
8923 -3397 0
-7329 2458 0
8085 884 0
3153 7976 0
8229 5907 0
-5107 -453 0
6591 -5648 0
-6713 -8671 0
2431 -6675 0
-2866 1219 0
-433 8114 0
8864 -8755 0
-502 -3260 0
-6512 8511 0
-4661 -2469 0
-2647 -5823 0
735 -7747 0
3649 -8154 0
8288 6202 0
907 -3026 0
821 3490 0
-797 52 0
-1209 -3582 0
-6082 6781 0
-4668 4712 0
-34 8387 0
6426 -1558 0
1566 -5277 0
5638 3258 0
-8630 7339 0
2396 -503 0
-3936 -8888 0
-2516 -4879 0
-4551 5561 0
768 4861 0
727 3196 0
-7823 -3917 0
-5901 7538 0
94 -7763 0
-5113 772 0
-1990 -8785 0
6024 661 0
5462 5696 0
-7148 -2905 0
-1676 -1137 0
2625 2266 0
-3914 1025 0
-6055 3609 0
-4368 2401 0
6576 3708 0
-7662 2624 0
-4351 6230 0
7678 -2027 0
3180 -1345 0
-5798 -3777 0
-2757 -1242 0
-4962 -853 0
-313 -6741 0
-7390 1264 0
-8539 -5739 0
-6700 2138 0
1979 -3780 0
-5964 94 0
8395 5337 0
-8235 -6595 0
-6600 -2426 0
1337 7959 0
6704 4388 0
-5479 3545 0
6684 5796 0
240 -502 0
509 -6806 0
1410 -3656 0
6980 -1632 0
8609 3362 0
-5640 -8689 0
6891 426 0
-2489 4548 0
-4698 4114 0
8541 -3752 0
-863 67 0
-5610 -4649 0
3567 7102 0
2763 6370 0
-3762 -4747 0
7428 -1957 0
318 1631 0
2316 8938 0
-1861 -5963 0
8589 8856 0
1814 -1901 0
-3758 -8549 0
-6461 -4989 0
6245 -128 0
-3126 8700 0
-8796 3551 0
-7960 2642 0
6869 -8991 0
-2682 -6146 0
8791 -2048 0
-2553 5286 0
821 615 0
-2083 6855 0
-3338 -7746 0
-7979 5481 0
-5714 -8523 0
522 6439 0
-3048 5542 0
-2676 5265 0
1870 580 0
5741 -6705 0
-4176 -7641 0
5144 -572 0
4156 6315 0
-686 4591 0
3749 -6919 0
-7681 5003 0
4472 4908 0
12 -6374 0
4575 8601 0
3074 3955 0
-6966 -7029 0
2170 -184 0
-5852 6990 0
6830 -2325 0
-3719 6662 0
-7325 -3453 0
-7383 -6327 0
6675 1232 0
-4155 6303 0
2300 2729 0
-2829 -6915 0
3645 -808 0
5632 -1944 0
-8783 1787 0
-2900 2150 0
64 -2095 0
5701 -7364 0
2172 -1431 0
3919 294 0
1010 4014 0
-1420 -1781 0
5191 -1694 0
740 -7362 0
-8235 533 0
2671 -5756 0
3232 -6520 0
1123 7457 0
-8257 -7479 0
-7871 -4320 0
6019 -5968 0
-6889 -8246 0
-3431 6058 0
-2493 8622 0
5872 6747 0
1709 3031 0
6549 -4596 0
-6357 3844 0
-2029 -4611 0
-2448 3744 0
-7604 -898 0
5504 5329 0
-2093 4794 0
677 -7296 0
6473 3672 0
-5682 -2307 0
-1445 3316 0
7922 8497 0
-8622 -769 0
-8051 6433 0
1709 354 0
-4971 -6663 0
2903 -99 0
-4721 3699 0
-8687 -8823 0
-815 14 0
7216 572 0
-1297 -1713 0
-3057 5502 0
-558 8122 0
-3212 7235 0
8638 -7036 0
7382 -6364 0
-2098 2545 0
-650 -6466 0
7294 2951 0
5607 -6965 0
-2886 2458 0
-88 4200 0
-3470 1438 0
-7087 5629 0
1068 -6311 0
-2872 -802 0
8796 611 0
3647 3597 0
4780 3511 0
-2693 944 0
-3584 -4245 0
-4953 2903 0
-335 -7684 0
2571 -7959 0
2836 -2492 0
1736 -524 0
-3296 -1203 0
-5215 -3178 0
-2770 -3811 0
-7177 -7986 0
-3012 -639 0
6456 -2079 0
7898 -8691 0
7030 4946 0
-5564 -4701 0
8371 4070 0
8824 -8483 0
4049 -963 0
-5241 -5490 0
5566 6954 0
628 1330 0
-1351 -6592 0
6596 -6762 0
-3622 5872 0
8815 -4454 0
6526 6909 0
-8791 -8652 0
1896 1658 0
5109 4993 0
682 2789 0
2776 1234 0
836 2067 0
969 -4152 0
-6059 -8375 0
1563 6755 0
7680 6963 0
732 5916 0
7976 2994 0
529 -4914 0
-2822 4112 0
1891 -4814 0
381 4691 0
5165 -8601 0
5855 1362 0
5009 4472 0
-7248 -394 0
-3023 -5214 0
854 2950 0
-6317 2455 0
-5436 8865 0
6985 -8690 0
-2165 6484 0
-4780 -2794 0
-4125 2918 0
6495 -1401 0
-3355 1789 0
8665 4529 0
2681 -8781 0
-4840 -91 0
2533 6896 0
-4422 7474 0
-7481 -2754 0
7577 1611 0
-7759 7231 0
5035 -7714 0
890 3688 0
3484 -7055 0
-401 6243 0
-2875 -728 0
5437 3024 0
-8831 2948 0
-5205 2127 0
3913 -8001 0
1912 3715 0
-4417 6241 0
-3067 -2642 0
-6435 -1737 0
7356 -7005 0
3098 3350 0
260 -1498 0
7595 -3982 0
2883 128 0
2632 3563 0
8768 8224 0
4182 8868 0
-2212 -8005 0
8330 -285 0
5731 -5107 0
3267 -7408 0
2799 -5952 0
1991 -13 0
-4601 -5032 0
6679 1777 0
-3146 -7766 0
-293 -5472 0
5480 2233 0
6450 1105 0
3340 -7092 0
3928 1205 0
-4705 5338 0
-7054 1271 0
-8934 7372 0
-4015 5793 0
5782 6983 0
3380 -7543 0
-3886 8150 0
-611 648 0
8416 2286 0
-8421 4855 0
7371 -6349 0
5339 -4480 0
6626 -6096 0
248 3751 0
-4022 2184 0
3648 3523 0
4324 -7679 0
7025 6933 0
487 -6731 0
-2005 167 0
7948 -7156 0
-3692 2906 0
5188 8243 0
-2058 -1337 0
50 -5595 0
-1702 1688 0
-723 7932 0
8600 5757 0
-2470 -8851 0
3474 7059 0
-3140 -1046 0
808 7884 0
8379 8955 0
524 2969 0
-3722 -7171 0
3964 -3886 0
3130 -6930 0
-5744 -8111 0
6392 2037 0
6453 1050 0
-4928 -4945 0
159 5191 0
3632 -4187 0
-1236 133 0
-7388 8052 0
6230 5070 0
1600 -4248 0
-1920 -5936 0
6955 4823 0
-3684 6949 0
256 -576 0
2177 -1445 0
-1191 -8035 0
6032 6553 0
3100 5886 0
274 -2279 0
2841 -5802 0
-3114 -938 0
-654 -8357 0
133 -4973 0
42 1055 0
1212 7687 0
-2686 942 0
7103 -8957 0
3018 126 0
5994 997 0
-4928 2085 0
-6448 -622 0
-5703 -5090 0
8229 -792 0
-6937 7155 0
-194 -1388 0
-6390 1650 0
-1838 -8046 0
2650 -6453 0
-5827 -3866 0
-4314 4275 0
-3108 -4391 0
1613 -8389 0
2617 -6597 0
-8292 -3243 0
765 -181 0
7473 3779 0
-2060 5850 0
-1706 -2573 0
-7248 8695 0
7525 6897 0
5789 -736 0
1970 -1142 0
-680 -3110 0
4270 -2364 0
-2494 1138 0
-8638 -8044 0
-6930 3024 0
-3904 -4362 0
1240 1059 0
7410 -4995 0
-3775 4766 0
-2294 -8271 0
-671 3861 0
2137 -2715 0
-2596 2503 0
2578 4114 0
1846 5218 0
-2500 5270 0
150 -7691 0
-1788 -7826 0
-4702 2061 0
-1636 -2406 0
-4996 -5728 0
5282 -1070 0
-7487 2267 0
2738 4856 0
-5770 5396 0
4291 3689 0
6852 7734 0
-7713 7243 0
4700 3925 0
-8047 6414 0
1634 2747 0
-2714 -6252 0
4261 -4675 0
-2098 -7490 0
7368 410 0
6659 -990 0
-4687 -84 0
-4581 -611 0
8299 -6647 0
8791 5142 0
5456 -7487 0
411 7759 0
679 5861 0
-3858 -2640 0
5840 7618 0
-4969 5439 0
-6060 -7472 0
-7180 7352 0
-5654 6537 0
-1669 -4787 0
348 912 0
2180 4117 0
-3407 -574 0
-2775 -6660 0
2340 -1243 0
2076 -1882 0
-8581 1974 0
5426 3806 0
-396 -7064 0
6863 -2062 0
6363 1267 0
2503 5936 0
4455 7520 0
7524 6926 0
5378 293 0
7734 -3218 0
2203 6347 0
2220 -3927 0
2457 -547 0
7177 -3843 0
7996 1416 0
-4425 -5795 0
5208 7605 0
-1618 -8109 0
-6327 -4477 0
-2776 -7545 0
-654 -13 0
5065 -7089 0
1878 5833 0
-1333 195 0
-7752 -8246 0
-7953 4484 0
1457 8520 0
5919 2424 0
-6521 2513 0
-5467 -840 0
-536 2395 0
-1921 109 0
543 8749 0
4812 -3694 0
-4464 3554 0
-5945 -653 0
7115 269 0
-8851 3 0
4824 -7816 0
107 -2163 0
-5000 -7484 0
2246 -2436 0
2107 -6293 0
-5708 171 0
1449 7688 0
-3614 7330 0
-8646 -7706 0
-4803 -7391 0
850 -4878 0
4327 -7961 0
6957 844 0
-4728 5859 0
7921 -593 0
-4353 4250 0
7016 4012 0
5749 -2735 0
3352 -4511 0
-8295 -6051 0
-5618 -3582 0
-319 -2689 0
-8509 -1276 0
-6168 2304 0
-1713 -3319 0
-7287 5272 0
6189 -8743 0
-3801 -5497 0
-4286 -6287 0
-448 6190 0
4978 -4030 0
-6780 -6152 0
7684 8106 0
3447 3922 0
7842 2335 0
8263 4524 0
4558 8343 0
-7307 -8899 0
-6469 7539 0
2907 7773 0
-4235 -1765 0
-7733 -5185 0
-351 3389 0
1220 4878 0
-7120 5615 0
5655 -756 0
-5586 2427 0
-8009 8480 0
-4234 3467 0
-3472 4768 0
-1489 3236 0
-4857 -3930 0
-4357 -2601 0
-3424 7392 0
1847 -4278 0
-2614 -4278 0
-7552 3165 0
5806 -2397 0
-5123 -6680 0
-5669 -763 0
2896 -6183 0
-3025 5657 0
-3441 -7974 0
1475 -5355 0
-3871 740 0
-2154 3203 0
4289 -5733 0
-7614 -4137 0
8976 3780 0
689 1948 0
2137 8871 0
2718 -4035 0
2520 -7893 0
-5532 -6477 0
-7873 2371 0
6122 -3671 0
-3222 -3680 0
-6821 5075 0
8073 6722 0
4630 -136 0
-2989 7103 0
-5087 4341 0
-175 6828 0
-2679 7732 0
7981 8482 0
-181 -8908 0
5878 -7475 0
8955 5768 0
-4355 1757 0
-5511 3687 0
-1004 7832 0
-5228 2619 0
4479 5588 0
-6881 -483 0
-8189 1386 0
-7990 1364 0
54 -2512 0
-1772 -2363 0
-2191 -8490 0
6989 -2200 0
8707 -4642 0
6010 -6611 0
-1250 3497 0
2065 5853 0
1355 -3483 0
-3122 -1793 0
-8590 3284 0
-5530 -4290 0
-5362 1926 0
2433 1017 0
8081 3747 0
3796 -1311 0
-4158 2050 0
2356 4359 0
2632 891 0
-6904 5617 0
1370 -6817 0
7150 8654 0
2797 8224 0
-4394 1890 0
-5441 2360 0
-7749 -3315 0
4312 8033 0
1985 4522 0
4537 7197 0
2594 -8011 0
3711 -4809 0
-7976 -8433 0
-4187 145 0
4947 6320 0
1630 -6097 0
-2578 -4499 0
6747 1318 0
4133 -1591 0
6342 3764 0
-4435 819 0
5940 -7735 0
3518 220 0
8907 1728 0
-4702 5450 0
-690 244 0
1663 2598 0
-4628 733 0
-6292 5243 0
-797 -7846 0
-606 -7969 0
7770 3764 0
7671 1956 0
5425 -1037 0
522 8279 0
3297 6685 0
1728 647 0
1542 -4155 0
-5771 -8770 0
5154 683 0
-1275 6305 0
5980 3366 0
-5300 -7742 0
7261 2920 0
-1349 -5857 0
5150 -4103 0
8115 -7695 0
-2584 -7017 0
-2489 -7956 0
7704 -744 0
2725 -1796 0
-738 2526 0
-2329 7933 0
-5426 3802 0
-6095 -4500 0
-1057 4694 0
2702 1320 0
-6753 -7590 0
8942 -6642 0
6426 6964 0
8376 -3778 0
2836 5500 0
5994 260 0
3794 6515 0
-7908 -1412 0
94 -8109 0
5193 2094 0
1916 -2894 0
-1813 -8710 0
2033 -4560 0
8221 6081 0
-8223 -896 0
7508 4451 0
2229 4055 0
3172 1534 0
5126 5106 0
8045 -7305 0
7147 4433 0
4603 6804 0
-935 8315 0
-2443 6623 0
3812 7637 0
-6703 -7401 0
-4456 1219 0
4947 -1101 0
-8597 3648 0
-4737 6768 0
8757 7977 0
-7803 -6128 0
2124 7581 0
3311 -6025 0
6794 8684 0
8524 2300 0
-8718 -4523 0
-4994 -901 0
-546 -792 0
-1557 -6159 0
-3660 1262 0
3025 2963 0
-7459 6357 0
7690 7997 0
7145 2078 0
-5451 5549 0
5997 -5982 0
851 1208 0
-4810 4813 0
-4874 8201 0
6003 -2039 0
6689 6211 0
2338 8158 0
-1672 -7705 0
4942 -3156 0
-3197 -6615 0
-7281 5065 0
-5641 297 0
7217 6249 0
1028 -834 0
661 6432 0
6349 3710 0
8232 8065 0
719 -201 0
514 -5225 0
-5965 4214 0
-1909 -468 0
2280 -8133 0
6706 82 0
5715 760 0
-2067 -3646 0
5091 -5800 0
-1806 4486 0
7641 -4988 0
-6579 -4543 0
8904 -3983 0
-6593 3263 0
-7233 -4387 0
-5977 -2931 0
-3747 -3141 0
-3212 2309 0
434 -8583 0
-714 7441 0
-8003 2303 0
3174 6557 0
2446 3083 0
-3750 8890 0
-5123 -2726 0
6684 8828 0
5428 -7803 0
4442 -8774 0
-4494 1275 0
-2337 -7654 0
-4664 8954 0
6436 1858 0
-3468 4595 0
-579 -8838 0
6037 6589 0
1254 2832 0
-8614 3719 0
2215 -3242 0
5543 5878 0
-4781 -2756 0
4081 906 0
-1596 -7502 0
-1644 -2070 0
-8803 8633 0
571 8523 0
4593 -5067 0
-7722 -2842 0
-6105 6493 0
-7257 -1488 0
-7276 -6310 0
-4437 2733 0
-8557 5129 0
-2317 4208 0
2521 7844 0
-7888 -1257 0
-1476 -5061 0
-8569 4667 0
-5127 -1176 0
7326 -6431 0
-3320 -3387 0
5809 -6311 0
8717 -7531 0
-4443 -2230 0
-3274 3306 0
2174 667 0
-2199 -2513 0
-1230 -8759 0
1795 6567 0
3241 3910 0
4168 7404 0
4549 3100 0
6954 -6987 0
-2163 3312 0
-3866 -2340 0
-1950 419 0
-3569 3046 0
-3514 3306 0
-6967 596 0
3183 -182 0
-2779 -4548 0
-8319 310 0
-5004 -5093 0
-2056 3393 0
-7155 4488 0
3830 -4754 0
4250 4418 0
-4043 8755 0
-5348 2511 0
-635 -3571 0
7320 7307 0
8224 -7581 0
3263 -2078 0
-3952 7686 0
-523 -578 0
-8821 5232 0
4394 -7823 0
4451 7455 0
2859 1004 0
-777 6501 0
-6602 -5836 0
234 -4668 0
-4273 -7531 0
6444 -7787 0
-2498 7427 0
8241 -6881 0
-8892 6395 0
-8810 873 0
2761 -8458 0
8084 1065 0
-506 -8890 0
7317 857 0
-794 6896 0
3963 -7046 0
3830 -6143 0
-907 227 0
8770 -1409 0
7269 1288 0
-8330 1726 0
-656 5069 0
-6234 -3024 0
468 -3187 0
8750 3441 0
-33 1503 0
-7090 -5165 0
-602 -8933 0
3420 -2326 0
2818 -3767 0
8196 3701 0
-8821 6942 0
-3709 429 0
-2095 4584 0
7372 2801 0
-5128 -1202 0
1962 -4669 0
-5628 942 0
3261 -311 0
4498 -5265 0
-2481 -3052 0
1784 -8857 0
7271 -5753 0
-5682 2864 0
3791 5550 0
4146 402 0
-7736 -6965 0
194 -3789 0
-8632 5642 0
617 6489 0
-8462 7784 0
1835 -8723 0
-239 4120 0
-1388 -5931 0
7810 -3276 0
8150 3636 0
-250 8405 0
5318 8245 0
8633 -2533 0
-2322 6940 0
-2308 5888 0
8670 -3745 0
-5586 -4339 0
3515 6813 0
5380 -4893 0
4817 -5403 0
-696 -2808 0
-3574 -6457 0
-3912 691 0
-6526 532 0
-6444 -8023 0
-7188 2753 0
-6302 2452 0
-3908 -1624 0
-790 -1755 0
182 1840 0
-8559 68 0
8509 3830 0
2349 4530 0
8919 6846 0
-2265 -2698 0
-2153 5951 0
6637 7590 0
2544 8004 0
-7469 1237 0
3978 -5700 0
6279 1700 0
-3648 -2020 0
-6384 -5178 0
3421 -5515 0
-6125 -8458 0
3942 -5281 0
-4541 -5095 0
-4304 -5062 0
-7486 -2869 0
4479 -5629 0
-3836 1253 0
1734 6239 0
-4705 3402 0
-8627 7265 0
-3986 -1973 0
-5097 -6941 0
-3768 8961 0
-5346 -2768 0
7968 6967 0
21 4214 0
1513 -7632 0
-485 1095 0
6194 -4558 0
6221 6960 0
-387 3579 0
5937 7763 0
8647 2793 0
1016 8143 0
-1331 -464 0
-5101 1108 0
3729 -2130 0
-2516 5533 0
1038 8135 0
987 -7468 0
6112 5966 0
-1075 -232 0
-5910 7009 0
-3629 -8460 0
-5754 5146 0
-6015 508 0
816 6567 0
2926 -7049 0
-5711 750 0
5487 8321 0
3672 4700 0
754 -4953 0
3395 -3667 0
-1036 5630 0
-5378 8468 0
348 -8205 0
-2119 -487 0
8230 2554 0
8535 -1970 0
6283 5475 0
-3995 3768 0
3120 -5175 0
8085 -1327 0
-3382 -3086 0
6205 5239 0
-6471 -8525 0
1799 256 0
-644 -8792 0
8834 5493 0
-1540 3368 0
-8640 -8632 0
4150 -4028 0
2972 7239 0
4313 1523 0
-7687 -7942 0
-6838 2771 0
7987 7236 0
6361 2565 0
1281 -1591 0
4429 5332 0
-6922 7033 0
9000 6526 0
-7347 7293 0
-1489 -4700 0
2924 -4934 0
5590 3775 0
-8867 -2159 0
-7103 3994 0
1129 -7209 0
3600 -1360 0
-3162 7418 0
5189 -4600 0
7079 -461 0
-397 7900 0
1094 -5910 0
-884 -7800 0
4102 -850 0
7118 -4392 0
-3303 5450 0
-8877 3831 0
6652 7598 0
-8382 -8683 0
-6727 -5766 0
-2796 -2698 0
-1230 1071 0
-886 -5678 0
-7347 3950 0
-329 -4043 0
4888 1831 0
5535 -5525 0
-6149 -8913 0
-7657 -2355 0
-2981 8421 0
-4910 -4037 0
-7327 6581 0
-412 3246 0
6122 4437 0
-6669 1433 0
5906 7508 0
2777 -6401 0
7009 -2905 0
-8127 1543 0
-3622 -797 0
-3449 1167 0
-246 5249 0
-6618 -575 0
6147 8258 0
3575 -6678 0
7225 -3962 0
5977 2416 0
8688 6536 0
-3974 3167 0
-6324 -7679 0
1208 -2661 0
-5663 -4714 0
887 689 0
-914 -1816 0
-8951 6965 0
-1670 6971 0
-2197 5941 0
6057 6195 0
-6672 6053 0
3352 3237 0
2442 8612 0
-6413 -6170 0
152 8422 0
-6565 7801 0
2187 7006 0
-1595 7807 0
-8827 6264 0
7590 641 0
5790 7417 0
5361 1528 0
-8796 6445 0
-6657 2009 0
-8134 -8777 0
-8626 -8629 0
-114 -3215 0
-165 -6760 0
6205 5801 0
5065 6757 0
-3382 2136 0
5566 -8128 0
-3385 5865 0
1710 -6018 0
4364 2570 0
6964 -6304 0
-284 6966 0
-3906 -6094 0
-2601 2959 0
-2948 5929 0
5030 6963 0
-3447 4512 0
4085 -3389 0
5252 2671 0
7564 1308 0
-2675 -1442 0
-3743 -1146 0
5592 -6082 0
-8483 6459 0
-2745 1365 0
3801 4094 0
-1030 237 0
-7618 8236 0
-7778 7916 0
3944 3949 0
5894 154 0
5876 53 0
-3057 -4072 0
6057 8963 0
4411 -7007 0
5309 -3982 0
-1727 -1879 0
7688 357 0
-7854 -6865 0
-2959 3411 0
2791 -5839 0
1524 6692 0
-3534 -3283 0
-7048 -1117 0
-8312 -3774 0
1024 2704 0
-7214 8750 0
-431 7953 0
7497 8768 0
-860 2675 0
-4028 -1300 0
654 -3311 0
-8695 8429 0
8679 4716 0
4750 8827 0
7143 3691 0
-2110 6680 0
-5319 -1792 0
-4704 -3292 0
4916 -5060 0
-1551 -7355 0
1392 -7467 0
4544 -6091 0
8870 -5037 0
8532 -3825 0
1498 -8003 0
2801 4483 0
-763 -7849 0
-79 -248 0
6492 -6268 0
-7952 -117 0
-5197 437 0
5499 2858 0
-4280 8949 0
8993 -1938 0
-1887 -3904 0
5111 -3898 0
-8543 -6306 0
1559 -776 0
-5351 -4830 0
-3094 -2648 0
3345 -7166 0
2597 8661 0
-6131 -7659 0
-6870 6622 0
-4396 -5467 0
287 8865 0
-5183 5028 0
4261 4585 0
-1399 -4059 0
4297 2650 0
4580 5614 0
-4228 -8267 0
-5368 -5792 0
1384 1179 0
7035 2583 0
-7819 6185 0
8534 -8672 0
-4769 6549 0
8783 -5780 0
-1156 -8215 0
6950 3599 0
2473 1238 0
3865 -7676 0
1731 8249 0
653 234 0
-6609 -4304 0
8176 2497 0
-8772 -7545 0
7539 566 0
-750 1163 0
-6357 -1171 0
-760 7590 0
-8857 4327 0
-6275 -1529 0
-7562 -1921 0
4055 -7440 0
5778 -8874 0
7507 -6046 0
6683 7459 0
1358 -2486 0
2777 4158 0
1080 457 0
-131 -7282 0
7951 6475 0
1129 1641 0
-767 -6780 0
-8710 4919 0
-463 2167 0
-2977 6864 0
8953 -6354 0
505 -7181 0
8460 -3849 0
-6972 -5855 0
-7804 -1069 0
261 4438 0
-6639 -8310 0
1081 -5700 0
-7700 -5730 0
-3829 -384 0
6227 -4155 0
-3984 417 0
6904 -6956 0
199 1599 0
6896 -7828 0
1499 4207 0
-5047 5519 0
3778 8864 0
-8218 -5677 0
-8990 8259 0
-5082 -4048 0
-5970 2758 0
2044 7928 0
8565 -1263 0
-3253 758 0
3409 5893 0
-1242 3059 0
8640 6365 0
-6607 5752 0
3588 -4233 0
6085 3702 0
-7092 -5605 0
1367 -328 0
-8062 -644 0
2221 5074 0
-3635 -257 0
5749 -5509 0
2677 4505 0
-2103 -5162 0
-3329 -2203 0
4758 -624 0
5396 8724 0
8100 -1284 0
-7524 -379 0
2645 -4370 0
-4110 421 0
6873 6063 0
-2549 6659 0
-3192 -3272 0
3333 4814 0
-8766 3497 0
-6972 -4266 0
-3027 -1620 0
-900 5784 0
8149 2200 0
-1866 -164 0
-625 6250 0
-1031 6446 0
7996 -4372 0
-4593 5968 0
-8023 2859 0
-1780 -4275 0
7187 -1030 0
-6887 5285 0
6963 -8166 0
-6194 3765 0
-7201 8159 0
2366 -4739 0
2686 2827 0
2735 3105 0
4723 -4394 0
2128 -1126 0
-3809 -4350 0
5074 6400 0
6084 7973 0
7031 -1823 0
8714 -7216 0
8208 8108 0
5746 7182 0
8030 3116 0
3985 3845 0
4832 7097 0
-6415 -5696 0
5191 4519 0
-6898 -1930 0
525 8905 0
269 -8879 0
-4264 6652 0
4231 -2083 0
3050 -1987 0
-6677 194 0
1168 8206 0
417 3541 0
-1950 8955 0
4927 -8855 0
-5895 -3088 0
-4691 -3461 0
-8452 7500 0
382 3815 0
-934 637 0
3748 884 0
2510 1787 0
-5759 3501 0
2602 -7737 0
-228 -1516 0
568 -7618 0
-6191 -6397 0
6042 -7965 0
-1978 3733 0
-4851 -4770 0
7456 1656 0
-8064 6209 0
8895 -4904 0
6525 3870 0
4408 540 0
258 -5785 0
-4581 756 0
1026 -3977 0
8725 -2655 0
6902 2590 0
-8090 5340 0
-900 2380 0
-4297 6573 0
972 -186 0
4017 4482 0
6939 236 0
5873 8025 0
6851 -7924 0
-35 8950 0
-1892 5888 0
5010 1313 0
1893 5542 0
1658 1712 0
8606 3279 0
-629 -726 0
-6616 -5962 0
3453 3452 0
-5524 256 0
2108 -4181 0
-1958 301 0
-7091 -4059 0
162 4330 0
-771 5451 0
-7370 -1998 0
916 -3730 0
-7892 8966 0
8551 4375 0
7225 4475 0
1457 -7846 0
-6220 6963 0
-8334 4871 0
-1143 19 0
-1113 3122 0
-5404 2040 0
4866 8114 0
-6359 5886 0
1195 -2897 0
-7881 -7002 0
-8676 -2667 0
7259 -6050 0
626 2321 0
-32 -5200 0
5630 4421 0
-3012 -2934 0
5672 740 0
-2538 -2248 0
820 -3272 0
7297 -623 0
-6332 -2827 0
6607 6096 0
-4494 -1857 0
-815 500 0
-1188 7141 0
1338 3270 0
-4053 -1075 0
-6033 -8014 0
-3177 -4174 0
5036 -6012 0
6676 -7210 0
4383 8584 0
-547 -4587 0
-4911 6861 0
-7743 2767 0
-726 -7046 0
6805 -1915 0
-1769 8716 0
7166 7395 0
-7114 -4673 0
1926 8334 0
8876 -6099 0
5455 4602 0
1897 3055 0
2819 -6923 0
3013 3180 0
1759 716 0
-2037 8826 0
4304 -3247 0
5058 -2716 0
3139 104 0
-8384 -2238 0
3399 -6914 0
-6555 -5083 0
-6770 1453 0
-2699 -7693 0
7059 -4775 0
-2973 -8554 0
-382 7201 0
311 4923 0
436 3539 0
-88 -7061 0
-5934 331 0
1782 -7958 0
6645 6125 0
-3858 -8438 0
5460 -3172 0
-2630 -7228 0
6089 2389 0
-8790 -6695 0
-2382 7026 0
7199 499 0
-5699 7369 0
1514 269 0
-336 18 0
7935 -2060 0
-6152 -7683 0
-5415 8502 0
862 8900 0
7661 -7416 0
21 8747 0
7184 -8882 0
-7289 1285 0
-6642 -826 0
3687 7362 0
-8802 -2445 0
-5589 -649 0
111 -7588 0
4295 7458 0
-691 -4660 0
-8728 6963 0
-5495 -686 0
8516 -538 0
-8740 4647 0
-8588 8089 0
-4302 2779 0
8386 -73 0
5872 -604 0
-7338 5916 0
-3992 765 0
531 3987 0
6960 -6853 0
-2836 1566 0
-1886 5063 0
-5469 7959 0
3823 7268 0
5143 3119 0
-7720 -671 0
8343 5789 0
-8660 -134 0
5439 1054 0
2036 6745 0
224 1658 0
-8929 2458 0
6630 8822 0
8904 8136 0
7274 8145 0
766 4606 0
-1298 -7809 0
-503 -7764 0
617 -1980 0
-1720 7442 0
7026 -5354 0
4976 -97 0
-3665 1644 0
5641 7461 0
1162 1271 0
-2083 -3827 0
3025 -1711 0
5478 258 0
269 798 0
-2327 5262 0
-1228 -7244 0
3037 -5845 0
3669 3050 0
6184 -2046 0
7099 5996 0
9 5848 0
-5735 5623 0
6795 -6795 0
6427 -7136 0
1401 -2792 0
3711 -1012 0
43 -2596 0
-1944 -3636 0
-5244 2471 0
-6328 -8669 0
-5739 1405 0
2953 -1178 0
-2774 -4676 0
-5183 8632 0
-1365 4943 0
-3943 1030 0
115 -797 0
2487 -2751 0
8412 -4208 0
5460 -6811 0
-2647 -5090 0
-4953 1707 0
7506 -8277 0
-3940 2789 0
-1383 -2548 0
-7303 1793 0
-6773 145 0
-5513 -8851 0
8263 -8478 0
2876 6644 0
3330 -675 0
2612 4218 0
-2278 5403 0
-7317 -5703 0
-1203 8451 0
7754 -4688 0
-5735 -6167 0
-2662 -4643 0
5731 -2525 0
-1086 -5526 0
5017 -5737 0
203 -3924 0
-3227 6518 0
4205 3806 0
8046 3299 0
-7395 -3928 0
-8769 -401 0
6844 -988 0
8970 -7001 0
-3171 4288 0
3340 1550 0
4399 8432 0
7608 6453 0
-7152 4213 0
-8350 5932 0
2602 -3112 0
6909 -5038 0
3955 -6343 0
7253 302 0
5879 -7793 0
7114 8209 0
-6643 1124 0
-5325 -2994 0
4523 7177 0
-8825 2437 0
5876 -542 0
-7741 8861 0
156 -3087 0
-2272 402 0
2783 -6178 0
3250 -4054 0
-3684 -149 0
-4750 -3031 0
7198 3106 0
-8890 3243 0
7501 -4397 0
7165 -4892 0
-8483 3527 0
-8342 -5127 0
7252 7665 0
8053 6121 0
-2142 3120 0
5622 -3830 0
1179 -5160 0
92 -5092 0
5647 -2961 0
8352 -8504 0
-1466 -1739 0
-3557 8887 0
5052 -1428 0
8137 2521 0
-6509 -4501 0
-864 -1557 0
4676 -5698 0
-3825 3718 0
1371 -4806 0
-8057 5670 0
-3896 -6101 0
1557 4189 0
4826 -3988 0
7944 8206 0
5267 6680 0
-4568 6040 0
6267 8609 0
4778 -246 0
-1362 -1127 0
-6669 -5458 0
-6086 8662 0
-4657 6314 0
3899 4699 0
6328 1971 0
-7166 -6586 0
1037 -753 0
131 838 0
2738 -8070 0
-3664 3347 0
-7800 -1619 0
6940 -662 0
-4204 -5341 0
5271 7284 0
8206 2862 0
-767 5484 0
6684 -8346 0
-3947 2125 0
7643 6833 0
8076 365 0
-5467 -8614 0
8819 3089 0
-4722 -5771 0
268 814 0
-8842 -7580 0
4170 -7604 0
-4082 -5076 0
5789 3421 0
8222 3756 0
-4984 6567 0
63 3559 0
4660 7571 0
6093 2913 0
-8277 -6474 0
-1368 6704 0
2153 -4880 0
6356 465 0
8662 8514 0
-8490 -4063 0
5425 3259 0
-779 1424 0
-3741 -7061 0
-3790 1445 0
-2821 -4832 0
5454 209 0
4407 2352 0
-6320 2244 0
-1102 7334 0
-8849 -2831 0
-3422 3324 0
4084 8067 0
-1230 6317 0
-5927 775 0
4486 -7290 0
7381 1141 0
-6492 3288 0
-2731 6689 0
-8859 -5554 0
-8689 1994 0
8565 5380 0
7167 -2754 0
8854 1418 0
-2219 -8540 0
-5039 -5628 0
5011 -2325 0
-1921 -2790 0
1384 5458 0
-6517 -8399 0
3421 4111 0
3255 -7858 0
8071 -6406 0
-3781 -1880 0
6758 641 0
-3924 -3995 0
377 2220 0
-1475 -329 0
6874 7421 0
-7247 8292 0
-6734 -3741 0
7186 5180 0
-2964 -2236 0
8022 8817 0
-564 -5537 0
4112 -4075 0
4532 8844 0
-5681 8694 0
6864 4568 0
-7656 -8 0
8450 -4135 0
6521 -7496 0
-4985 -4792 0
-5107 5949 0
-7416 2203 0
8534 -1203 0
-6924 801 0
-3663 1497 0
5449 1581 0
2360 1484 0
3360 -6256 0
6240 -450 0
-6167 579 0
661 2883 0
2483 -531 0
-799 8829 0
-7569 668 0
-4934 -1319 0
-4418 2503 0
45 -598 0
5262 -5517 0
5680 -5163 0
305 5947 0
-7298 -5951 0
5065 7421 0
4218 3265 0
-1661 2938 0
-8849 -7554 0
-6185 7458 0
8324 -2829 0
6078 5211 0
6234 -3866 0
5450 6926 0
-5757 -7718 0
-6304 -146 0
3007 6921 0
-7819 2155 0
22 6166 0
4498 -888 0
2306 -385 0
-3663 8416 0
549 1230 0
-973 5520 0
-335 -2449 0
7887 6101 0
3693 8544 0
-2553 8167 0
3230 1995 0
7288 -1142 0
3430 5222 0
5679 1966 0
4014 -5759 0
2027 5149 0
-5404 -4296 0
1276 -3272 0
820 2917 0
-7047 -4550 0
8771 -4171 0
-2504 -4214 0
5529 -3238 0
2902 -7546 0
-8650 3287 0
4139 -7753 0
-6177 5259 0
4004 -7755 0
3203 2636 0
7210 1966 0
-3310 -707 0
6230 -167 0
8896 7040 0
-8438 -2928 0
6752 1474 0
-4392 4055 0
2620 -8691 0
-4489 -2942 0
-4499 -4162 0
-8271 -4904 0
-1593 -238 0
-1166 2738 0
6837 7187 0
-7317 5890 0
642 7771 0
-8775 5489 0
-482 -5394 0
-6210 -4930 0
-6065 -2669 0
-3339 7949 0
-7561 -7764 0
7253 -8661 0
-4563 -5372 0
-8772 -2366 0
-7536 4229 0
7131 6194 0
4837 5760 0
-4516 -613 0
5201 -7122 0
2681 -7078 0
-999 -964 0
-7378 4658 0
-8411 2924 0
3410 5011 0
-7942 -4295 0
-6764 -4082 0
-2207 4772 0
4513 -8691 0
8121 5383 0
-4385 1914 0
-5650 -4704 0
-8528 -8129 0
-3313 -6714 0
6444 6134 0
-4861 1564 0
-1181 2993 0
-7397 -8690 0
-1073 3170 0
-6917 7391 0
-738 1130 0
-1293 -659 0
3733 -4826 0
8582 -639 0
8992 -7235 0
1336 -7443 0
7294 -1802 0
-5509 3041 0
-7030 7351 0
-7406 -8673 0
-946 1133 0
-4504 -8944 0
-2364 5514 0
-6965 -6673 0
4031 8478 0
6639 8108 0
7744 -2034 0
4377 8969 0
-5528 -3329 0
-1058 8330 0
-7479 6990 0
-2210 4533 0
6800 -3300 0
2583 -3321 0
3683 -6457 0
-7681 3330 0
7860 8510 0
-1359 -1677 0
-4847 6349 0
-7890 -3302 0
8635 -6886 0
-4170 78 0
6135 1197 0
-3197 -7658 0
-7729 7311 0
-7089 -7133 0
-2186 8866 0
-8688 -967 0
-3300 7194 0
1230 7637 0
-5143 7356 0
-1551 -1723 0
6764 5643 0
7870 3307 0
6032 4531 0
-1040 6812 0
-7199 4726 0
-1030 4346 0
-3107 -1681 0
-8096 -1393 0
-7404 6242 0
2063 -1946 0
-4651 -1604 0
1955 -206 0
3619 -4826 0
1716 1915 0
5109 5877 0
-782 -5909 0
-4430 4525 0
6674 950 0
-8573 8699 0
-7747 -8096 0
8872 3337 0
3870 5583 0
-6603 505 0
2740 -5882 0
-103 1674 0
-6968 6192 0
-1115 7068 0
7858 -4125 0
4609 -5274 0
-1622 -3991 0
8696 3420 0
-4752 6066 0
-8449 1586 0
-7596 -3503 0
-2727 -7940 0
6088 -887 0
-7767 -4859 0
4780 3391 0
-3057 -6919 0
5817 -8147 0
2648 -3666 0
7905 8061 0
-2948 7505 0
4327 147 0
7681 4879 0
1343 3020 0
-7798 -2637 0
-849 8542 0
4435 5011 0
3564 -4610 0
-7766 -2125 0
-5862 6813 0
2622 298 0
8372 -3927 0
5593 -180 0
-6722 3687 0
-2545 4292 0
-1871 -7123 0
-1828 -781 0
7142 717 0
-5625 -8292 0
-4866 1037 0
8027 4370 0
1830 -1353 0
-1103 -1511 0
4111 -1253 0
-7347 3102 0
-8963 -8695 0
-4593 5666 0
6154 6421 0
1874 -6954 0
-3279 6895 0
-2662 4005 0
2531 -7388 0
861 -5991 0
-8204 -6479 0
1926 -2087 0
1317 8470 0
-8585 3709 0
7607 -7133 0
7423 1881 0
3262 -4903 0
5469 -7060 0
-7854 2738 0
-2153 6520 0
-8345 1373 0
7788 1752 0
2452 1256 0
1367 -2574 0
7934 -1093 0
4579 4273 0
-4787 5565 0
4881 5473 0
6165 1212 0
-4707 -3931 0
3492 4221 0
1161 -546 0
-3122 -6176 0
-3660 -4572 0
-6945 7753 0
-344 3092 0
-6657 7191 0
-1472 -1221 0
-7950 1321 0
3098 7883 0
7100 2165 0
-3673 -1374 0
-5420 -795 0
7749 2183 0
8487 -7885 0
364 -4160 0
2072 -8830 0
2449 8581 0
-5212 -4898 0
277 -73 0
8507 2876 0
-7442 8263 0
8119 5073 0
-6384 -2331 0
-820 3504 0
85 -8054 0
5739 -5247 0
-3850 2638 0
5419 3851 0
1723 -6182 0
-5050 5696 0
5067 7697 0
-2421 -1980 0
-4218 1723 0
5555 -7443 0
-1023 2396 0
-238 -1739 0
4921 8668 0
-5891 6897 0
-8534 7726 0
-8537 -5957 0
-6481 -5379 0
7927 7147 0
-5143 3672 0
5256 6265 0
-4225 5860 0
-3264 7061 0
443 1598 0
-7067 295 0
8527 3783 0
-2965 -41 0
2652 2919 0
138 -974 0
8220 -5636 0
-6626 -1704 0
2922 3179 0
-192 -3378 0
1107 6489 0
-2053 -3670 0
-2000 3205 0
6020 1941 0
-7341 -799 0
-6452 3694 0
-8922 5726 0
-1822 -5647 0
-5844 -3423 0
-5323 3784 0
6742 -703 0
1955 -4138 0
7676 -1894 0
8126 4993 0
5303 -7586 0
8333 830 0
-7021 2360 0
-2674 7995 0
8089 -2254 0
-5599 1148 0
-5302 826 0
2061 161 0
4182 -3298 0
6379 6568 0
1106 8423 0
-5179 5047 0
-5242 -7162 0
3265 -2273 0
-4176 2539 0
4335 4650 0
7712 971 0
5937 3581 0
-5495 7821 0
-1740 -611 0
-6268 -5217 0
-6802 6383 0
4326 -2561 0
7848 -6137 0
-629 5840 0
-1400 -7458 0
-3295 8874 0
418 -2353 0
-3986 -1987 0
7503 -536 0
-2979 -2485 0
-2944 -963 0
-8910 8708 0
4524 2140 0
-6595 -1376 0
1345 6778 0
-8147 1883 0
-2663 4428 0
-1662 926 0
-1296 7165 0
5939 -3813 0
5834 174 0
7734 -5336 0
-8795 -3376 0
-5813 5770 0
6784 8894 0
8694 3625 0
-8033 7575 0
5751 2202 0
-1041 -4367 0
-6597 -5449 0
-7398 4716 0
4976 -5970 0
6537 -4905 0
-8844 -6830 0
6799 -6750 0
3701 -208 0
1755 6863 0
-4570 -5432 0
-4372 -622 0
8768 -3352 0
1914 4156 0
859 8707 0
6220 -7242 0
-3524 -5028 0
4757 3171 0
411 -6269 0
4324 2235 0
4755 -9000 0
-3141 5483 0
3887 7490 0
53 6067 0
-4580 -5280 0
7691 -8220 0
1415 -7755 0
6350 -2967 0
-8879 -365 0
-5509 5235 0
-8553 4381 0
1691 -3743 0
4941 -4375 0
4595 -284 0
-8332 1866 0
7147 -5925 0
-2333 -424 0
-3615 1092 0
5026 -8540 0
-4779 5122 0
-7189 -239 0
-6038 2616 0
5371 -5782 0
4371 -8623 0
4301 3564 0
3619 7706 0
106 -3670 0
7981 -5089 0
-8976 -506 0
2739 3883 0
6367 -4911 0
2290 -2022 0
387 -306 0
343 5915 0
7004 4516 0
-1792 7757 0
7284 4243 0
-8873 -7058 0
-8223 -4094 0
6684 -8009 0
-8392 -5309 0
-3581 3629 0
7552 -8790 0
3759 -7765 0
2427 -1820 0
-6289 -63 0
7977 399 0
-2200 6757 0
-3008 8368 0
3970 6637 0
-3440 4412 0
5907 -1269 0
-3158 -3932 0
3593 -8635 0
5430 -7611 0
449 -6927 0
6679 -2798 0
1864 -5399 0
-8526 -8846 0
-7388 8497 0
-6646 681 0
-6967 2093 0
-6936 -29 0
2786 1702 0
7950 1617 0
4881 5484 0
6817 6675 0
-279 -121 0
-2264 251 0
7537 -8024 0
4099 6165 0
1638 7177 0
-604 -5048 0
5363 2655 0
7340 -2210 0
-3319 -8574 0
2954 3980 0
2838 7897 0
1285 7512 0
-7673 7788 0
-8130 8945 0
-2711 -7764 0
6884 -7554 0
342 7535 0
-6291 8395 0
-1579 -4847 0
-8790 -531 0
-3540 4283 0
7081 8005 0
-1161 -2917 0
513 -8316 0
2089 4881 0
-1697 -4320 0
1505 2096 0
-929 3490 0
-5857 -3160 0
-80 4940 0
6530 1717 0
-3282 -8593 0
2107 2007 0
-1287 -5121 0
4533 -2009 0
-4450 -7809 0
4410 1698 0
-6716 -1807 0
3447 -1442 0
-6377 3205 0
-5438 6704 0
2064 7006 0
-6645 354 0
-3924 -7575 0
278 6716 0
-1161 6577 0
-6096 -7875 0
-4145 -8556 0
-5905 -6761 0
-4592 -2352 0
2578 -3137 0
7040 -4885 0
1946 -276 0
1182 6385 0
4522 908 0
-243 2947 0
7352 4270 0
-2976 -4370 0
-6565 2208 0
-4473 -1113 0
8749 -8566 0
4997 -7474 0
-6127 1261 0
-386 -7112 0
-8222 -17 0
1161 4995 0
8207 -409 0
-5585 -7361 0
1063 2442 0
-5651 -7103 0
4387 1519 0
-5944 1871 0
7235 -1814 0
-6330 6773 0
-4574 5243 0
-1686 1730 0
4318 -7106 0
-8430 -2349 0
4920 7634 0
-858 -3609 0
6242 -8601 0
5123 -6292 0
-4080 2660 0
-401 -5373 0
-6324 -705 0
-1909 -1725 0
-5389 -2893 0
-7730 -862 0
7959 -5314 0
3528 -3717 0
5453 -3772 0
3214 5340 0
-2051 3657 0
-7998 -7656 0
-3274 5336 0
-5896 -6969 0
5209 5447 0
-2679 -7010 0
-7332 4889 0
-1915 -6625 0
-1680 -4880 0
-2223 -900 0
-4268 5252 0
-5390 -41 0
8183 -5675 0
-373 -5197 0
-8418 -621 0
8257 1410 0
369 2134 0
-7832 4786 0
3305 3156 0
-3102 5347 0
2488 -6429 0
-8401 3256 0
-8513 6916 0
-1653 -710 0
-994 3908 0
7822 3883 0
-1644 4204 0
6822 7411 0
-4566 3313 0
8138 3300 0
-3082 3398 0
-3008 -1687 0
427 -4198 0
-5695 -107 0
6445 5815 0
4719 6211 0
-8320 -5072 0
-182 530 0
5377 -1140 0
3362 2249 0
1435 -5381 0
3863 -7036 0
5104 7872 0
1132 4034 0
6911 -5145 0
692 7319 0
-433 -8380 0
-2850 -1332 0
856 -8186 0
1485 8340 0
-1480 2610 0
-3353 3543 0
7651 -3764 0
7691 -747 0
-1304 4278 0
7084 2544 0
3490 2449 0
20 -1909 0
-6183 -3258 0
-5726 904 0
5519 5169 0
-5532 5327 0
-2860 -2427 0
-5852 -6344 0
5367 -2984 0
-2279 3482 0
-249 2450 0
-3752 -5275 0
-1175 5685 0
4172 4860 0
1568 -4325 0
7554 -5068 0
1449 -3221 0
7553 -2447 0
-6299 4101 0
6045 1689 0
8398 8304 0
4591 4979 0
-8582 3758 0
7354 7246 0
2767 -3498 0
-7179 3001 0
-7884 3557 0
8303 1639 0
-4988 -8063 0
-2312 2147 0
1617 -8408 0
-4275 3258 0
-6080 -3441 0
8628 -2838 0
1965 -1794 0
8497 2981 0
-8345 -5672 0
5890 -1903 0
-6082 1618 0
4315 1747 0
-2534 -5877 0
8718 -4553 0
2773 -5473 0
3986 8236 0
8185 3650 0
1207 1515 0
-579 8421 0
1802 1719 0
3344 1022 0
6379 1940 0
-3939 -3625 0
-2673 -8291 0
820 -6293 0
-1742 -8879 0
402 1959 0
-2520 8904 0
-2809 2431 0
6581 3624 0
-6604 -3203 0
-1697 -4278 0
-1575 -6477 0
7322 4984 0
-4269 -1320 0
7996 6816 0
259 -6340 0
-2978 -3775 0
5888 -579 0
-3652 -6520 0
-4352 -5027 0
8932 1408 0
4014 3523 0
-4240 -3551 0
3112 -2200 0
8053 -731 0
8683 -8464 0
5740 -8674 0
-5610 5154 0
-2556 -7287 0
-5865 6338 0
2936 7442 0
2458 -6789 0
3985 6331 0
7529 -656 0
6807 -5957 0
-329 1956 0
-529 -2293 0
6130 1162 0
1090 -4782 0
7672 5477 0
7544 8092 0
-6233 -1096 0
-5474 -1506 0
-4049 -3753 0
-4928 1685 0
-3900 -2768 0
-376 509 0
2710 7042 0
311 1694 0
-4101 7423 0
975 -1149 0
-4228 -732 0
5166 -7812 0
8124 5658 0
5648 -4664 0
2797 6040 0
-5139 6647 0
-1616 7266 0
-1872 620 0
6909 3690 0
-91 -4644 0
-8025 7370 0
-656 -376 0
-7185 -2046 0
-3219 1403 0
-8934 -131 0
-1077 -7582 0
1759 5406 0
457 -2157 0
3132 -1284 0
-8911 -7375 0
-5245 6138 0
-2320 6575 0
1965 2031 0
-7079 7499 0
-4774 -8201 0
-2517 590 0
-6458 7047 0
6090 -2304 0
524 86 0
-39 8895 0
-4343 -5399 0
4303 -8907 0
-208 3998 0
-6390 -789 0
1311 -1035 0
5519 -3863 0
1266 -4974 0
6090 -2083 0
-6801 3440 0
7956 7295 0
-5312 4728 0
8253 1377 0
-8070 322 0
2296 6250 0
-2330 -4327 0
-5969 3274 0
-5923 -6337 0
7649 4972 0
-890 3910 0
3908 -3054 0
-7337 -6851 0
7863 2090 0
6976 -2514 0
8170 7650 0
4880 732 0
8068 -3397 0
-6966 -1939 0
5326 7486 0
7845 4324 0
-4024 1650 0
-120 -616 0
1246 6418 0
-8873 -5497 0
-4649 6209 0
3708 -5627 0
2089 -4797 0
4666 -8563 0
-3766 7119 0
-6565 8522 0
2813 -5499 0
-6779 8955 0
7417 4964 0
7883 2783 0
8830 6232 0
-5073 -418 0
6455 6828 0
2914 -1992 0
7717 -122 0
-4637 1103 0
-3089 4149 0
-3584 5975 0
7831 -6856 0
-6815 -1635 0
4154 2567 0
-3078 5489 0
-4064 6388 0
5017 8134 0
-4226 4786 0
740 5887 0
-1562 8107 0
2687 8976 0
-5038 6547 0
7955 -675 0
4621 -5441 0
3647 -7445 0
6664 6386 0
-681 7433 0
-2058 7202 0
-5274 1700 0
-5449 -7527 0
5419 -1110 0
5701 -3663 0
-877 6175 0
-6947 -2485 0
5105 8016 0
2376 -4792 0
-3636 7377 0
4584 1429 0
665 -7853 0
-6610 -2870 0
-7522 6913 0
-5873 -2790 0
-4749 7649 0
-466 6409 0
2653 -216 0
6286 4345 0
8470 -937 0
-8703 2658 0
-6771 -2176 0
-6604 -3334 0
-802 -4553 0
-1781 -1292 0
72 -6065 0
-8406 -4818 0
6057 -692 0
5789 -6361 0
-56 6067 0
2936 -1849 0
8195 7531 0
4433 -4075 0
-4187 -3445 0
8937 6227 0
-4380 -6070 0
2122 6806 0
1250 -3214 0
-5309 7825 0
-2891 8380 0
2407 -4513 0
4834 -6150 0
-4280 5034 0
5158 1542 0
1452 -4978 0
-8556 1591 0
4727 159 0
-6211 6188 0
-8464 -3192 0
4222 -1613 0
-1024 7004 0
-7454 -8290 0
5498 -389 0
-7613 -6020 0
-4517 -7694 0
-4247 -3544 0
5673 6907 0
3891 4786 0
1202 -5956 0
7145 -4365 0
-1566 -3382 0
-5221 1717 0
-7990 -483 0
6870 3006 0
-1529 4216 0
-299 -3610 0
8782 1234 0
-1537 7759 0
-515 8397 0
3276 -710 0
-5420 -1605 0
6713 436 0
-7708 7965 0
4139 -8650 0
-1706 3840 0
7665 -4804 0
7807 600 0
3704 -4614 0
4273 -6795 0
-3542 -6568 0
6119 -353 0
-4153 5071 0
-376 -2096 0
1695 -7000 0
1653 -5634 0
-4972 -3228 0
960 2649 0
-3581 -1058 0
-7434 2556 0
-6872 3758 0
-4828 3634 0
-4655 5896 0
-2087 7078 0
5290 4212 0
-1947 -7365 0
7438 -8617 0
-8722 -6748 0
2185 6425 0
7674 3234 0
-3907 -106 0
-1883 6608 0
-5561 -6124 0
3272 7746 0
3771 -1155 0
-8590 -4036 0
-7616 -1724 0
-4116 -3163 0
2534 -1838 0
7 -2654 0
6231 -49 0
2050 2666 0
-8384 -6629 0
8402 2906 0
-1992 8505 0
2811 2886 0
1488 7202 0
-6676 6738 0
7607 3089 0
-11 -3622 0
-1711 -171 0
-6432 -2133 0
-5310 3566 0
6998 -7147 0
-7875 -8227 0
3925 -2811 0
5509 -3225 0
1201 -3274 0
-5199 1705 0
-8715 -4193 0
-8340 -2006 0
8348 -2068 0
4910 3756 0
-8059 5401 0
-1656 -4601 0
-6275 -3225 0
6532 8494 0
-8024 4381 0
-4162 -8983 0
-5799 2442 0
1642 4305 0
-3369 -3237 0
2193 -5470 0
521 -8663 0
220 -4218 0
6833 7738 0
7400 -2212 0
-4059 5651 0
6832 4960 0
-8682 3818 0
-7934 -5415 0
7221 -7694 0
7238 5295 0
-781 -8786 0
602 -184 0
6571 -4880 0
8164 2038 0
-8997 2468 0
-937 -1401 0
-5291 -1537 0
-2585 -197 0
1318 7475 0
-1260 690 0
4238 3127 0
7964 8290 0
732 8139 0
4874 -5693 0
1509 -804 0
-5908 -1345 0
6347 2005 0
3384 -2298 0
386 -6382 0
6692 -5363 0
-521 6164 0
8673 236 0
8156 2390 0
-2915 -1151 0
-5132 1631 0
-6039 5240 0
6277 4942 0
7270 -5353 0
-2272 4824 0
-1395 3571 0
-2700 8093 0
3612 -8844 0
1085 7907 0
-7115 -3183 0
-8699 -2227 0
1777 -4934 0
-6539 -2562 0
3864 5399 0
-264 -778 0
-5643 -1590 0
8316 5125 0
-8528 3283 0
-889 5494 0
-8989 -5436 0
2894 8148 0
-3218 -5378 0
-4194 -2730 0
3039 -2942 0
4015 -2740 0
8857 -3021 0
-1422 6637 0
1693 -623 0
5142 -4943 0
1125 -3894 0
-8230 8276 0
6766 -3089 0
6329 -6302 0
-1984 -1937 0
2170 -4331 0
4536 -2902 0
2318 6424 0
1159 6788 0
-8635 4897 0
7422 -1165 0
277 1002 0
-4678 -7045 0
5342 1397 0
-6106 252 0
-3595 3317 0
8116 -1968 0
-1565 4573 0
-2473 2170 0
2347 1720 0
496 869 0
1987 8101 0
2328 1754 0
5709 -3921 0
-4480 2005 0
-1313 -8508 0
-2043 7010 0
-6632 1015 0
-8210 1668 0
3429 4355 0
7108 4520 0
6957 -4284 0
8663 -4180 0
-1792 -3423 0
-2724 8303 0
-1111 4224 0
-2663 3453 0
-2233 -3514 0
6056 5461 0
-7871 -4898 0
-8747 2407 0
-1154 6047 0
7176 -1791 0
-2253 1416 0
-5697 -8509 0
-6562 7151 0
-3816 -7638 0
-7378 -3203 0
4373 -5268 0
-6129 -846 0
-3428 8336 0
-2022 8507 0
-1602 -5573 0
-8703 1691 0
6067 -7308 0
7123 -464 0
-2132 -5936 0
-1652 6489 0
-4334 7739 0
3165 4586 0
3506 -2800 0
-8635 -1334 0
2281 4081 0
1795 184 0
-3362 -6437 0
-6138 5216 0
-8446 -3454 0
-3375 8643 0
397 7139 0
2259 -8091 0
-4761 8744 0
3918 -8336 0
7513 4370 0
-3981 -1803 0
-4640 4063 0
-7522 5134 0
-1230 2361 0
-6722 6058 0
8449 -2476 0
-6522 5276 0
1719 -6638 0
4156 7519 0
-415 8534 0
4164 -3696 0
4844 8123 0
-1899 7739 0
5412 7861 0
-1959 -1746 0
5459 -6590 0
4312 1980 0
234 5077 0
5886 -3156 0
-4552 -92 0
4432 2396 0
8090 -4012 0
4858 8666 0
8379 6576 0
-6060 6757 0
-1132 -6451 0
-6857 -2839 0
-308 4989 0
7595 -4890 0
8623 6915 0
2477 3106 0
-5002 -4181 0
-3299 8116 0
8394 -7901 0
-970 1362 0
8200 3602 0
-2325 2580 0
7791 -203 0
417 -7817 0
-607 6005 0
2240 6971 0
-4202 1355 0
-767 -1463 0
1013 1655 0
4123 181 0
3895 5815 0
-2584 5610 0
2753 -13 0
5757 -521 0
-7531 -3664 0
-5918 8504 0
-4828 -4720 0
2755 -3436 0
5391 93 0
-1066 6844 0
4299 7214 0
-3720 355 0
-7148 -3151 0
7617 7255 0
-2350 -5437 0
8989 7167 0
-1059 4842 0
6706 7881 0
-2103 2642 0
252 2761 0
-6631 -4689 0
-4926 -5635 0
7686 -4717 0
3606 3444 0
-826 7723 0
8113 247 0
3759 -726 0
5915 -1522 0
2490 -3481 0
-1453 7551 0
-6261 7757 0
761 4556 0
-1475 -6689 0
7590 2023 0
5332 8371 0
-3032 -4353 0
7737 -2205 0
8798 -8158 0
-3612 -3446 0
8680 4742 0
-829 -8366 0
-7894 8243 0
-6381 -917 0
5895 -3822 0
1030 -3947 0
-3534 6849 0
683 2183 0
688 -3358 0
-634 -824 0
-8983 -8596 0
-4512 -4478 0
829 7333 0
6066 -389 0
-5969 -3828 0
8972 1507 0
8389 8031 0
-6220 1787 0
6163 -7802 0
-2761 -3320 0
6720 -319 0
-1645 -8743 0
-1042 -3382 0
-3794 5334 0
3455 -3990 0
1954 3519 0
7828 3239 0
-263 7273 0
-5046 372 0
8156 -3954 0
3244 -4018 0
-693 -5340 0
8217 5076 0
6003 5214 0
-46 -7037 0
2644 1844 0
6211 -6643 0
-8821 5513 0
-1850 -8445 0
-998 8551 0
5554 -4327 0
-7159 982 0
843 2033 0
7688 8304 0
2111 6631 0
5430 229 0
8919 -3078 0
-310 8336 0
4123 5897 0
4655 -751 0
-1149 -3093 0
-7731 8031 0
-1727 4568 0
4801 -2989 0
-7436 -1648 0
-8270 7369 0
-7064 891 0
-1538 2675 0
8228 4789 0
6476 291 0
8855 4836 0
4560 6817 0
8258 5309 0
-8965 -815 0
-687 5428 0
-6054 2423 0
7175 -3694 0
-2255 -7894 0
5297 6934 0
3828 3730 0
7545 6683 0
8714 1234 0
897 3541 0
-6998 2362 0
4927 1218 0
-5713 7403 0
744 -2401 0
5442 5617 0
2915 4502 0
-8480 -7544 0
-2752 -4911 0
-5544 -8543 0
5015 -6588 0
8464 -500 0
3459 5732 0
7953 5555 0
-1657 5587 0
-6978 4334 0
-6186 -5219 0
6184 -7041 0
-5612 -2720 0
6608 -5585 0
3413 7676 0
3955 7839 0
8417 4041 0
-4018 994 0
4764 513 0
3518 -790 0
3086 -7916 0
316 4757 0
2550 6077 0
-7164 7916 0
2610 4565 0
-5454 8534 0
5319 7509 0
8354 -2822 0
-2973 -7748 0
5350 -442 0
6187 6964 0
1095 -6646 0
-2329 5901 0
3571 -4430 0
-4265 -8853 0
1912 2565 0
8710 -3550 0
7752 4591 0
-5788 6305 0
-3682 -2137 0
-7783 8638 0
1697 -7930 0
8126 -6056 0
-6299 -6775 0
6024 8169 0
-3339 -8690 0
-1629 -7614 0
-3220 3968 0
-6688 -6936 0
-5487 4449 0
-2623 -208 0
-2531 1816 0
1949 8022 0
8145 113 0
227 4849 0
-6203 7499 0
-6293 -1300 0
626 5522 0
8391 -7323 0
5362 3340 0
4510 -7492 0
3040 -8406 0
5888 -7891 0
7333 7087 0
7912 5849 0
-8842 -1282 0
-6517 -4160 0
3689 118 0
5040 -2934 0
-8621 6650 0
3411 -1398 0
7452 -8846 0
5413 -1423 0
5867 2073 0
8724 379 0
8215 7955 0
4214 2100 0
1393 5271 0
-1456 3381 0
-7876 -8035 0
5135 2540 0
-7718 -4196 0
5166 3558 0
5743 2090 0
-7566 7294 0
7286 7578 0
-7867 -2457 0
-404 4023 0
-4059 -7345 0
3764 -7982 0
2580 3308 0
-4405 -4064 0
-1939 8038 0
-5116 -6196 0
-4157 -2536 0
8016 2883 0
-1648 4961 0
2138 -2344 0
-1376 -6211 0
-3294 6142 0
-1446 6675 0
3671 -7921 0
8931 -4661 0
-4162 4328 0
1814 -5423 0
6536 -7767 0
-5511 -1881 0
-8893 -3095 0
-3242 -5565 0
951 6413 0
-6244 2471 0
4485 6039 0
414 -3660 0
8733 -8211 0
2303 2604 0
-3956 4711 0
5692 -2677 0
-3951 -4319 0
-2409 -3358 0
-4325 -8011 0
5353 -1434 0
-6285 -2680 0
4618 -8928 0
-396 7843 0
796 3475 0
730 -2015 0
-581 1680 0
737 5723 0
-1785 3019 0
5705 4517 0
-7970 540 0
2020 -2476 0
3753 6001 0
1036 6734 0
2401 -456 0
-4196 -8825 0
-3278 -3726 0
-1943 4318 0
5185 6754 0
-7978 -7381 0
2048 236 0
251 -6268 0
-7149 -4689 0
-3799 2166 0
-2116 -7451 0
4570 -2908 0
322 -3860 0
7425 8538 0
-8922 3309 0
6443 2220 0
8293 3519 0
-6236 2841 0
5651 -2996 0
-5302 -1341 0
-8692 -3629 0
-8507 8661 0
1449 -1902 0
4612 -2541 0
1697 185 0
-2860 2729 0
8092 1118 0
7579 -8878 0
8028 -7521 0
4029 2595 0
-4065 -8907 0
-6360 -1911 0
474 -6833 0
-570 -3515 0
-7233 -5982 0
3664 967 0
6975 -7507 0
5600 660 0
6572 7212 0
-7952 -3603 0
729 4130 0
-4630 5693 0
-6588 -3325 0
5751 -4572 0
2059 -6125 0
-5 -8457 0
-8652 2350 0
1600 -4218 0
-6072 7004 0
-1607 5253 0
-6842 910 0
832 -1590 0
5496 -5030 0
5922 5165 0
7251 -1734 0
5633 1756 0
-2989 3455 0
4161 8221 0
-7924 -4699 0
-3220 5887 0
-7258 -8389 0
5111 -1340 0
-3930 -7059 0
8898 4484 0
1898 -4642 0
6939 -3790 0
-8704 5958 0
-2062 -7513 0
2624 2228 0
-3923 -751 0
6628 -2775 0
-8179 -4692 0
6772 -352 0
-2134 6576 0
-6715 5561 0
-2710 -6300 0
-3159 -8997 0
3514 -4293 0
248 -4332 0
8543 -2863 0
-1806 8982 0
-1523 -3817 0
5842 3844 0
-7493 1285 0
-3900 5052 0
2510 -3123 0
2102 1296 0
-593 -728 0
3898 -8044 0
522 5334 0
-7502 -5313 0
3220 -4234 0
-6149 8809 0
-2761 -1658 0
1932 -1861 0
-4640 -288 0
-6227 -5628 0
1900 -6310 0
-3376 -4030 0
-6218 -4026 0
2504 -4535 0
7334 3453 0
3209 -5377 0
2970 -2945 0
-1608 -8903 0
-7045 -2436 0
590 -2219 0
-5519 -2123 0
8470 -7884 0
-5087 -8123 0
-383 -2349 0
2345 -4630 0
606 8834 0
-6387 -1258 0
8908 -1073 0
-5681 -8170 0
-8381 -784 0
298 1380 0
6980 1165 0
-2323 7815 0
4669 -7978 0
-1161 2786 0
7807 4963 0
-7454 3782 0
5474 -4390 0
5690 -8275 0
4575 4631 0
-8140 8191 0
-4211 7147 0
965 172 0
5750 1752 0
2021 5819 0
8828 -5198 0
4014 -6859 0
-1257 4819 0
3806 1413 0
-7137 1785 0
3804 -174 0
-8418 7041 0
1150 -1950 0
1405 -3612 0
-299 -2836 0
-1242 7686 0
-5665 1767 0
3124 6128 0
3262 4913 0
-2201 3242 0
-5828 -1873 0
2811 1289 0
3630 180 0
-6480 -3036 0
8814 -7556 0
-5006 7874 0
7988 4442 0
106 -4290 0
-6441 3953 0
-3687 -2576 0
-1899 -1871 0
484 446 0
80 -5712 0
-3565 -5400 0
-2292 -5907 0
-6209 -8350 0
-574 -3387 0
-5031 -6877 0
-8368 -6561 0
-5456 8711 0
313 8844 0
150 -8689 0
4933 92 0
6839 1407 0
242 6238 0
-5127 2823 0
3875 6591 0
-6167 7280 0
8338 4892 0
8157 -4998 0
8144 6247 0
3865 -4712 0
-8821 3985 0
-1651 -8625 0
1157 6390 0
2013 4950 0
-6649 1668 0
3076 -591 0
181 2766 0
7208 -5727 0
-8630 -5385 0
4740 -8315 0
4055 2539 0
2257 8770 0
-5581 6861 0
-2177 8429 0
1670 -5604 0
6793 -4952 0
3465 6273 0
-497 3754 0
7945 -5317 0
-5025 -6701 0
-1234 7391 0
-2439 -538 0
5456 -2251 0
-8934 -1412 0
5987 343 0
3427 8314 0
6455 -3181 0
8645 2262 0
-7562 -5321 0
6208 1305 0
-2733 5331 0
4080 -5429 0
7398 -5639 0
-8507 -6898 0
7087 -3321 0
-120 4446 0
-434 -1561 0
-1533 778 0
-7974 4881 0
-1267 -42 0
4401 -5486 0
1393 2289 0
-6964 4126 0
5796 310 0
1194 1901 0
-8070 7093 0
4183 6909 0
-7402 -2377 0
-7325 -3990 0
-5878 -6596 0
1539 -4650 0
-5775 2158 0
-3465 -8558 0
8532 224 0
-607 7797 0
7962 2543 0
7346 6201 0
-2892 -3285 0
1558 3353 0
4491 1575 0
312 -6074 0
5757 2849 0
-1750 4873 0
7386 -2866 0
3048 -8556 0
-4543 -8888 0
1292 3010 0
-4521 5413 0
-3692 1586 0
8162 254 0
-290 6206 0
-1843 5016 0
6659 -7384 0
-6166 -6447 0
-6980 -7514 0
4184 -261 0
3820 -1448 0
-8607 -3948 0
-3459 -2175 0
-4041 -3790 0
-3409 135 0
-3252 -4971 0
4588 4671 0
-416 -353 0
896 -2994 0
6734 -4437 0
-5429 -7818 0
-6367 919 0
8376 -745 0
5707 2255 0
-8446 1705 0
576 -879 0
7064 2819 0
6166 -424 0
1568 7266 0
-4678 -2642 0
3410 5058 0
-4265 -1344 0
-8174 -245 0
-3888 -3181 0
430 59 0
8240 -1127 0
-2037 6030 0
1608 8159 0
6543 4410 0
3582 4382 0
-1172 -92 0
2003 2946 0
-8790 -996 0
-5031 -886 0
-2838 -5418 0
2955 2653 0
-2374 7893 0
-1162 -4303 0
-356 -3339 0
6380 -7774 0
6033 -1538 0
-2725 4572 0
-4888 -4189 0
-3539 -674 0
6130 -623 0
-3745 6967 0
-6376 7628 0
3957 7295 0
-3924 6776 0
8412 -6699 0
5442 -8895 0
6583 314 0
877 -5219 0
-869 -8719 0
-8971 -8884 0
-6111 6472 0
48 6077 0
27 1336 0
2692 3510 0
-7914 1844 0
-6 -213 0
-6583 5167 0
-2477 7073 0
-1446 4791 0
-7894 4105 0
2333 3349 0
7402 6490 0
4618 -8125 0
1213 -1417 0
-1709 2508 0
-5071 3128 0
4362 1270 0
1118 -3927 0
-1859 -1988 0
6356 6445 0
-8508 -5353 0
-4011 8474 0
6400 -3048 0
-5167 6153 0
-1858 8073 0
8654 8913 0
-5461 -1569 0
440 -7185 0
-4367 -5125 0
-6969 -1754 0
1158 388 0
-8936 8014 0
-1363 6605 0
6889 -5167 0
-72 8462 0
-4958 6946 0
-567 -2030 0
-7704 958 0
7167 -1478 0
5330 -8772 0
-6478 3361 0
-6334 4995 0
5896 5680 0
6407 -3569 0
4371 6932 0
-3476 -1268 0
-2927 326 0
-2348 784 0
7544 5276 0
491 2263 0
3344 3102 0
2016 -2348 0
5644 -8270 0
7211 3389 0
-699 2841 0
-4833 7982 0
-3876 -3139 0
-563 -3758 0
6014 -2017 0
2491 7428 0
-1109 3865 0
1238 6049 0
6182 3878 0
5039 1477 0
-7563 5928 0
-1625 -7904 0
-207 -8825 0
7569 4149 0
-1201 7726 0
974 538 0
8329 -8120 0
-5854 -6028 0
-6975 -2383 0
7723 1825 0
-6150 6803 0
30 974 0
-6339 104 0
6126 -5279 0
-8837 -1382 0
6457 217 0
1599 -2201 0
6564 2135 0
-5390 3576 0
-8111 4219 0
4172 7222 0
-7085 -1819 0
-8093 -4733 0
-7669 1067 0
-4101 -8851 0
4219 -278 0
-6969 -1322 0
-2755 -1455 0
-6094 -6065 0
-6021 2913 0
-4793 3952 0
6860 -5215 0
-5755 2697 0
2860 6366 0
498 -6464 0
5103 6930 0
7129 -8140 0
5135 4817 0
5757 -4096 0
6887 -1011 0
-1029 1041 0
-5423 -167 0
-7481 -433 0
4369 -8270 0
143 -215 0
8934 1381 0
-7431 -5290 0
-7437 2582 0
2840 -4738 0
4477 -4163 0
8888 596 0
4424 -3108 0
2267 4735 0
-8410 -7681 0
8058 -7122 0
905 1560 0
380 3913 0
5113 6224 0
1448 6603 0
8368 2244 0
4579 -1473 0
8199 4088 0
6490 4547 0
6044 -4430 0
-7047 1504 0
199 -2103 0
-4714 -2768 0
-8350 2713 0
7437 -4254 0
-7393 -4227 0
2101 -5750 0
7035 -4316 0
5919 6809 0
7460 7273 0
8017 -2765 0
8989 2629 0
-3353 -4205 0
-3743 8708 0
-5413 3796 0
8816 6834 0
-321 6162 0
6622 814 0
94 3351 0
5981 -3247 0
-2287 1432 0
8519 -7662 0
5945 910 0
-644 741 0
-414 -4739 0
8232 -8120 0
8630 -3388 0
3037 -8832 0
-3380 1566 0
-5643 -1376 0
4378 8870 0
7167 -3867 0
7027 6711 0
-3884 -5019 0
3814 8081 0
-8941 -4542 0
-6176 -6789 0
6988 -2516 0
6863 -1199 0
4436 4355 0
-2623 -1509 0
-702 -8770 0
-5338 2845 0
-6955 7948 0
7122 -5180 0
507 -1792 0
8916 -7019 0
-1099 -5448 0
1583 -2323 0
7121 307 0
2551 1684 0
-1671 -2668 0
-3986 -2252 0
7416 21 0
271 -7331 0
-2549 101 0
7606 3523 0
7856 -8660 0
-6826 -8524 0
8385 -4574 0
5576 7413 0
6053 -4799 0
-7293 4949 0
-6706 -6703 0
-7866 3333 0
-4661 1867 0
406 8388 0
-2470 881 0
1619 3872 0
-3577 -4620 0
-3122 5122 0
-5826 -1787 0
3735 -5780 0
-177 448 0
7405 3545 0
6506 -8722 0
-8149 6597 0
840 -8880 0
-3170 -459 0
20 -4037 0
1428 -4720 0
-4915 -7402 0
3464 -4963 0
-6941 -1867 0
7456 3869 0
3847 -3716 0
-5966 -8689 0
-651 -3740 0
7582 -8917 0
4260 7566 0
-592 1222 0
3815 -659 0
-3684 3409 0
4224 -2248 0
3303 -1142 0
-1307 -1592 0
4201 8767 0
-496 -6627 0
-2175 -5603 0
-6255 -511 0
1609 4487 0
-5844 -2137 0
151 -3997 0
6507 -7745 0
7942 -349 0
-6011 4212 0
8894 -2914 0
6140 -666 0
-5280 -4289 0
7253 1041 0
7412 8932 0
7591 -5814 0
8010 -631 0
422 -284 0
6972 -3593 0
748 -7878 0
-1024 -4362 0
404 -5493 0
8643 -3406 0
-1223 -7215 0
3214 -8777 0
-8955 -2329 0
8481 -686 0
1273 3329 0
2715 6807 0
8279 3340 0
-4577 6221 0
1348 -8167 0
-149 -2272 0
-1194 679 0
3963 -6877 0
1973 6450 0
375 -941 0
-420 3985 0
6569 -8302 0
8539 -686 0
-2863 -3422 0
-6960 6688 0
-6748 -3264 0
-4612 -980 0
3471 -6074 0
2712 -8787 0
7539 1639 0
8579 -2417 0
-2762 -5842 0
-3334 -4236 0
2179 7669 0
-6007 -5774 0
-2140 -2902 0
8300 -3023 0
1389 -4435 0
693 8017 0
7236 -5101 0
8150 -2842 0
6495 434 0
-6213 -8576 0
-8278 -531 0
1889 -5346 0
2146 2126 0
-3362 2039 0
4444 4742 0
5805 391 0
467 1608 0
-7380 5148 0
5424 1470 0
7972 -5708 0
1311 -7381 0
1062 2301 0
-6739 -7109 0
7971 3535 0
-4974 -4060 0
1232 1673 0
1445 204 0
-1825 7424 0
-2239 -7171 0
-45 7236 0
-7050 4504 0
4388 -278 0
8625 1173 0
-8285 8598 0
5180 -503 0
-7706 5018 0
-4441 8281 0
2259 -3502 0
2284 -3235 0
-6408 7318 0
-850 -5031 0
3255 3619 0
-3995 -8329 0
6330 6637 0
4815 -1082 0
-4068 -6879 0
2261 2267 0
7973 1220 0
-2859 6188 0
-844 1009 0
2647 8260 0
-1608 -4188 0
682 -7476 0
7471 -6843 0
-2480 -777 0
-2279 -7762 0
-7764 -4101 0
5624 -2375 0
8017 -7598 0
-7161 -4741 0
-4856 -2153 0
7270 -6130 0
-3122 5858 0
4779 -485 0
1575 -2628 0
8144 -8138 0
-515 -5919 0
-571 8834 0
5185 -1562 0
2937 -5692 0
3325 4625 0
8461 2136 0
5514 -3097 0
-5588 -858 0
6902 6927 0
-5942 -2165 0
-8838 1764 0
2578 -5763 0
5854 6860 0
-5598 -4884 0
-6455 -5916 0
-454 8052 0
-6326 -7221 0
-22 -3790 0
-542 -7463 0
-1595 -2378 0
1063 -6644 0
1213 156 0
-4163 -3397 0
-8032 8283 0
-1819 -3755 0
-2069 -2374 0
-2465 -7809 0
204 -547 0
-2008 3650 0
4042 -4348 0
-4420 -658 0
-5449 1936 0
-8560 -3039 0
4084 1934 0
-5854 1473 0
336 4070 0
-3608 -397 0
3345 2478 0
7697 1745 0
-2220 5629 0
665 7810 0
-5952 -6787 0
-1215 1451 0
-7212 -6017 0
6449 -3728 0
-6220 -1676 0
2498 -6153 0
-2585 -656 0
-154 464 0
-3015 3831 0
5840 -3052 0
2711 2297 0
-1970 -1826 0
6562 7053 0
-1155 6730 0
7289 2530 0
5447 749 0
1880 8230 0
5772 -8355 0
-7936 -5357 0
-3639 4451 0
-6512 4148 0
2321 2877 0
817 5054 0
-6761 3491 0
3672 -77 0
3114 3490 0
2506 -1598 0
-5820 -4231 0
924 -3023 0
1783 -5238 0
-4640 99 0
7083 -2600 0
7328 3538 0
19 5238 0
4936 -1853 0
443 -6796 0
-4470 -8037 0
2595 7028 0
4916 7595 0
-3222 5250 0
-790 -3707 0
-2737 -1506 0
2007 2744 0
6662 -2093 0
-5771 3971 0
-728 -1458 0
6673 -8947 0
-4969 -3694 0
783 7743 0
-5700 7738 0
2218 -6280 0
7039 -5277 0
-6821 -5769 0
7443 6959 0
1586 -2801 0
7296 -3685 0
3936 -1245 0
2802 434 0
-3235 -8246 0
-6562 5505 0
3334 -7267 0
2149 7685 0
-7775 -1555 0
820 266 0
7812 1769 0
-860 1679 0
4293 7593 0
2506 -289 0
7469 2703 0
-3748 3945 0
-3863 4956 0
7837 8945 0
649 -5753 0
6966 7268 0
-3726 -5184 0
6961 -5215 0
1354 1580 0
-4064 -5915 0
-1359 -363 0
4600 311 0
860 -2551 0
-5095 7263 0
1393 1203 0
8568 212 0
8039 5661 0
849 4909 0
-3300 2814 0
-5559 -8923 0
5380 -3808 0
1883 -5910 0
3815 -8501 0
2973 -7361 0
4861 7551 0
-5564 -2913 0
7731 -1247 0
-8448 4941 0
-5607 5679 0
-8550 7158 0
7985 -6457 0
7812 -2024 0
-1603 -2060 0
2565 -6700 0
-2792 -3248 0
5385 -6912 0
5756 4768 0
-7357 -13 0
6704 8688 0
-5342 7156 0
2591 -1983 0
2618 5383 0
-7505 7802 0
-6825 1028 0
2446 4489 0
1631 -6837 0
-6513 -7102 0
2180 -4602 0
-5852 7171 0
-5504 -4363 0
-3316 2936 0
8667 -3273 0
4617 2882 0
-2593 6927 0
-8552 5286 0
-7712 1859 0
-4117 -4372 0
-4776 5166 0
-2942 -4275 0
-8328 1946 0
6158 8943 0
-8936 -7659 0
6454 3106 0
1650 -2121 0
-3377 8542 0
8358 -618 0
7564 -1550 0
2509 7695 0
1570 4328 0
-5021 1270 0
-5898 1068 0
-2012 -605 0
-3721 -4317 0
8870 6727 0
3584 3964 0
-6044 7941 0
-1291 -2571 0
-6642 -3304 0
2726 -8135 0
3481 804 0
-6604 -5672 0
-6546 -2330 0
-2659 -2448 0
1571 2101 0
6686 -751 0
-3240 -1495 0
1504 -2811 0
1704 1512 0
6411 8481 0
6412 620 0
-547 -5848 0
8994 -3995 0
8377 4655 0
5928 5202 0
2110 751 0
8017 1156 0
-1476 -2624 0
-2234 -5274 0
8623 -7482 0
-6752 -3508 0
2624 5881 0
-7388 -6465 0
-7769 1878 0
-2082 2542 0
2056 8635 0
4246 -6430 0
818 -7179 0
-645 4784 0
-71 2511 0
8301 -3743 0
-2944 -6105 0
-2999 -156 0
-4868 8548 0
-1671 -823 0
773 -1815 0
-1933 -5781 0
8372 2714 0
-4767 968 0
-5471 996 0
3479 -5144 0
2840 -8722 0
-4507 -3733 0
4282 3366 0
6110 -250 0
3526 -8275 0
-8018 -5646 0
5107 8094 0
487 8988 0
-5538 -2015 0
6269 6956 0
-2792 7018 0
-8120 -1430 0
3180 -1758 0
3815 -2927 0
-5899 -764 0
7893 8017 0
-1445 -6047 0
-211 7411 0
-1754 -883 0
5065 -6827 0
-8389 2617 0
-5106 -4909 0
5849 -2787 0
-5519 6366 0
3540 1947 0
-237 1631 0
-1345 1109 0
-7849 8162 0
6541 2715 0
-1506 -8497 0
-7947 -3935 0
4908 -5020 0
-3849 8686 0
4792 1058 0
1688 6762 0
7088 4046 0
8910 -509 0
-7553 -1939 0
-6184 -5499 0
-2512 4530 0
953 -7624 0
-7774 3430 0
2142 1123 0
-3234 2692 0
3902 -7558 0
-5591 -8491 0
-3356 3996 0
4269 -5416 0
7964 427 0
3725 -6274 0
-5245 2507 0
3190 3592 0
3344 396 0
490 -2079 0
-6767 -2512 0
3443 4521 0
-6470 4069 0
1291 -8439 0
-6059 -3826 0
-1561 -1424 0
7166 304 0
3319 -8514 0
-812 529 0
7705 5658 0
1414 -8897 0
-2372 1934 0
-6037 -8664 0
-970 7069 0
2147 -7541 0
-4338 4719 0
-979 -5882 0
-8135 1236 0
267 8920 0
-1085 186 0
7389 -64 0
-1834 -1209 0
-2820 6803 0
7790 -4771 0
-8023 5604 0
5257 -5821 0
-7483 1700 0
-7927 6295 0
6991 4460 0
842 5536 0
2313 -1549 0
-7732 -7542 0
8247 888 0
7726 4049 0
-3994 7065 0
-1984 -5530 0
4424 189 0
5176 6276 0
-824 -3295 0
-5587 -2911 0
2782 7490 0
1675 -4877 0
4828 -7646 0
6444 -7243 0
4269 4268 0
8007 -8775 0
-409 2612 0
-916 -5000 0
-8137 2138 0
6339 8068 0
-1277 3395 0
-2995 -6790 0
7179 3479 0
60 -637 0
-190 8766 0
-4756 75 0
-7296 -2536 0
-7876 -3453 0
-5638 8036 0
8836 -7469 0
-8837 -8151 0
1940 4693 0
115 5173 0
-7032 -6193 0
5481 3081 0
3753 -343 0
-797 -6345 0
-3855 -790 0
-5943 -3933 0
-1803 1620 0
-3094 -38 0
4641 735 0
-8503 4486 0
5406 7352 0
1611 -7815 0
-3663 4282 0
-8252 6379 0
-1531 -705 0
-54 -6301 0
8751 -7787 0
-4265 3255 0
5581 -7080 0
4090 8793 0
1768 8270 0
-2702 -2385 0
-7130 7812 0
-8246 5986 0
-5315 1594 0
1003 4578 0
-2385 2361 0
-2121 567 0
-4201 1448 0
8341 -5521 0
2333 8195 0
-2083 -4150 0
-2979 -509 0
3668 -8236 0
8042 5660 0
4561 -7262 0
5533 -5601 0
-2227 1118 0
3161 6981 0
8566 8009 0
-6353 7665 0
-3122 8013 0
6403 7279 0
-752 7098 0
-1657 400 0
8753 -6407 0
-1737 2526 0
-4614 2563 0
-5588 607 0
4834 -3522 0
5409 -7689 0
7245 -656 0
3032 -2469 0
-4662 -6195 0
2822 1955 0
-4639 -1740 0
-6621 2203 0
2208 4890 0
-5724 -2066 0
-8569 -1165 0
1238 2226 0
2224 115 0
1451 -3096 0
-3809 -3932 0
-4527 -8448 0
3413 -202 0
1712 -3847 0
-5739 -5941 0
7564 2586 0
7822 8522 0
4149 -2935 0
-2374 -7210 0
5144 8423 0
-693 3120 0
6767 -5634 0
-7783 6184 0
-4297 -97 0
5439 -5528 0
-4789 -7415 0
-4197 1728 0
8243 8322 0
-1923 -4088 0
-8519 4402 0
6129 3689 0
-5952 3674 0
-6834 3473 0
4519 -8806 0
-5053 5103 0
8021 1791 0
285 8819 0
-6397 -2418 0
6853 2719 0
4245 3089 0
-3339 -5396 0
-2169 -6171 0
-5305 -2365 0
-8651 543 0
-3746 -7296 0
6049 -4905 0
2854 -643 0
-3470 7398 0
7573 -6969 0
3904 -8438 0
-6263 8734 0
2405 4228 0
8841 -4878 0
5349 -7433 0
-2055 41 0
310 7657 0
-2737 6613 0
-5159 -3080 0
5762 4302 0
-1434 -5311 0
-4578 5407 0
-1351 -1584 0
-6503 3277 0
2814 -245 0
-3475 -6465 0
-8909 2580 0
-2493 358 0
-2599 621 0
4035 -1868 0
134 4616 0
-7296 1922 0
2202 1829 0
-6588 4935 0
8235 -4553 0
3369 7266 0
-8878 -1147 0
-7049 255 0
-8418 -615 0
1256 -4342 0
400 1531 0
5687 2551 0
-2418 2946 0
-3590 -4585 0
-8684 -751 0
2418 -6074 0
-1277 6008 0
-7413 5778 0
2333 -701 0
8041 -6149 0
1542 -8070 0
-2121 7682 0
2844 -8571 0
2056 -8180 0
7778 7312 0
-7613 -3296 0
6754 335 0
8618 -7704 0
-8450 -8873 0
-7443 -1732 0
249 746 0
4970 4283 0
8687 -6687 0
669 8298 0
8999 7966 0
-5269 1370 0
8438 -686 0
-811 -8486 0
4555 8603 0
-3555 -4446 0
-8382 -43 0
7800 8416 0
6457 402 0
-479 -3991 0
-454 5240 0
-5516 2424 0
4794 -7202 0
-8014 1571 0
-4135 6262 0
-3638 -5439 0
-88 -8586 0
-7553 -1902 0
-7545 6651 0
-653 6164 0
-837 6410 0
5001 -8641 0
-2071 6579 0
-41 -2729 0
-5553 7334 0
3331 -2378 0
-2168 -641 0
4441 -3431 0
5906 3460 0
4438 -7582 0
-408 8244 0
-1413 -7177 0
-182 -8997 0
-2570 3414 0
-4307 -4622 0
3485 8744 0
-7584 -8297 0
-3119 -806 0
-8603 -4351 0
-4446 -2812 0
-1097 6240 0
4652 4093 0
-1669 -623 0
2772 -235 0
-7130 -4187 0
-1464 -4187 0
-4498 -4339 0
2521 7045 0
2403 -6389 0
-3227 8651 0
5012 4951 0
-3425 4373 0
-2186 -6097 0
-2219 2047 0
-8849 6409 0
-6428 -3983 0
-4770 1352 0
4281 -2700 0
5749 6568 0
-8482 -847 0
1172 -1431 0
-5582 8153 0
-6287 -4125 0
-4651 -5471 0
3255 -3206 0
-8014 -6405 0
-2299 -3209 0
-8984 2909 0
-4810 -4081 0
-8418 1059 0
-4285 -420 0
-7768 4768 0
5156 -8436 0
-3012 -5546 0
4108 6734 0
-266 1126 0
-6044 8507 0
-5004 -391 0
8372 -4059 0
6084 6950 0
3738 8804 0
-8051 4631 0
-329 7196 0
429 -5546 0
5770 -7794 0
3003 4243 0
5896 -3367 0
153 2450 0
4734 4113 0
-5869 2257 0
345 2169 0
-4627 3873 0
2422 402 0
3556 821 0
2998 8061 0
8982 6021 0
7513 5784 0
7860 5461 0
-8651 -2480 0
8609 246 0
1403 -3545 0
8543 -147 0
5978 2088 0
-4972 4691 0
5876 7006 0
2411 6658 0
-7036 -3095 0
-5165 78 0
7044 7160 0
-5677 6480 0
-2363 1729 0
-1708 8648 0
-3176 -5039 0
300 6821 0
-2294 -4434 0
8517 -2374 0
7118 -5042 0
4342 1547 0
-473 5293 0
1042 1940 0
-4944 -1116 0
2051 1882 0
-1093 -2510 0
6284 2836 0
-1560 3489 0
-1792 4712 0
296 -5510 0
-7522 8584 0
-4427 6429 0
-7026 1974 0
-6218 8343 0
-3370 -1637 0
-7527 -2293 0
-2991 -13 0
4377 2980 0
-6538 -3403 0
5453 4407 0
-8035 -6869 0
3908 -2057 0
4522 3612 0
8863 -3136 0
2124 -8849 0
7788 -314 0
-3390 -1491 0
-5246 -5004 0
4226 8578 0
434 6156 0
-889 -5115 0
-2371 -2044 0
-6588 5571 0
4016 7989 0
533 -3651 0
-4260 -4822 0
5566 2608 0
-6946 -7871 0
-2115 -7469 0
2458 3181 0
8276 1028 0
-5058 -2387 0
6462 8373 0
3591 -8558 0
-518 5349 0
3672 -3627 0
1271 2736 0
-2959 3391 0
-5723 -7700 0
2988 4311 0
8668 -4983 0
-2738 1105 0
7436 -5381 0
2270 3571 0
7330 8875 0
-280 -1645 0
1362 -30 0
-2977 1557 0
3335 965 0
-3653 1387 0
5679 -74 0
-5931 8106 0
6342 859 0
2921 -1572 0
5607 -666 0
6184 -8605 0
-1437 7585 0
658 -5507 0
-6752 2123 0
4801 -4341 0
52 -2862 0
-4968 -2290 0
-5274 -3034 0
-7782 -2044 0
3908 -3232 0
3128 2604 0
1808 2148 0
-1046 -5531 0
-4864 6747 0
-834 -4796 0
-2713 7099 0
6727 4709 0
2577 -3920 0
-3457 -5150 0
7370 5740 0
4351 -7869 0
-2911 6951 0
-3430 -6266 0
-971 5016 0
-6996 -4203 0
6610 -444 0
2555 -5553 0
-3332 488 0
8101 -2086 0
-4104 3828 0
-5591 -5447 0
-1807 7656 0
2120 -2004 0
7993 -2995 0
-5841 -325 0
-2466 2885 0
4665 286 0
6526 1558 0
429 6338 0
6049 -473 0
4471 7774 0
5858 5240 0
2186 -6148 0
-7949 -8500 0
342 -5283 0
6650 -7545 0
8247 3648 0
-4490 912 0
-5087 -6951 0
-1044 -2865 0
7430 836 0
-7321 1578 0
4688 -6131 0
-7365 8519 0
5881 -6602 0
4393 -4289 0
8619 6886 0
2033 -6861 0
-8339 1744 0
-4140 -3075 0
-6 733 0
3798 5330 0
3495 -384 0
-4526 -4247 0
-5147 -6941 0
2433 -1870 0
8845 6974 0
4987 -2235 0
-8762 -1803 0
-3369 -7585 0
-5217 -4132 0
1203 -7978 0
6272 -6265 0
2602 -126 0
5959 8942 0
5870 7207 0
556 -4456 0
-329 -1181 0
1922 1286 0
4324 4796 0
-6460 6413 0
-2934 2967 0
6978 -8576 0
5762 -4797 0
-2392 -6405 0
-142 -4636 0
8648 -7888 0
-1043 4002 0
416 -149 0
8210 986 0
1276 8737 0
-8102 8096 0
-6524 -680 0
-471 -1745 0
8407 -7011 0
6504 7039 0
6211 -8638 0
-4061 -6928 0
3313 8058 0
5052 -2534 0
-914 -5130 0
8823 1416 0
-4917 -1929 0
1361 -3975 0
-4602 -5606 0
-8667 -5198 0
3025 -7253 0
-7249 6058 0
-6701 8753 0
-518 6302 0
-6316 7221 0
7290 -1866 0
-6076 -5706 0
-663 -5700 0
2094 -8321 0
269 -2885 0
-7083 -3147 0
1855 -227 0
1991 1123 0
-6962 -5433 0
509 -2067 0
5662 1254 0
6187 991 0
-5688 -3728 0
8736 -6196 0
4561 7584 0
-6070 -8019 0
-915 -2421 0
1689 3100 0
-6684 -3837 0
-6571 -2837 0
979 -8428 0
7777 6061 0
3564 -8255 0
5373 -6882 0
6507 -1088 0
1656 -1985 0
5352 -574 0
-8991 -1284 0
-4391 5026 0
4138 -5445 0
5901 1659 0
6165 -8337 0
-4939 -3119 0
4698 7442 0
-5435 -3688 0
6710 152 0
-8409 -8944 0
-1493 8012 0
-2230 -6665 0
5990 4662 0
212 -3571 0
3237 4383 0
-5558 3155 0
2360 -1484 0
-316 -8911 0
2473 -2815 0
5533 6827 0
-7132 2683 0
492 6151 0
4653 7788 0
7311 4798 0
3357 -745 0
-1304 -822 0
6522 8673 0
-4572 5139 0
1191 7502 0
4549 -624 0
-8118 7366 0
144 -2386 0
5576 -5660 0
-4868 6831 0
2469 451 0
1463 1374 0
209 3316 0
-3858 1367 0
4621 3655 0
3479 -5172 0
-169 -4923 0
2282 6992 0
-7740 -3998 0
5645 4460 0
-7337 1463 0
2920 2031 0
339 -5368 0
-1293 4766 0
895 -4736 0
-7212 -165 0
4271 -4073 0
6805 7587 0
-5063 7381 0
-5740 7273 0
4020 8409 0
-3779 4933 0
-308 7342 0
-8096 6243 0
-6898 1811 0
7064 -2536 0
-7348 6492 0
-2900 67 0
6331 6801 0
5674 -3705 0
1977 -6644 0
8173 -620 0
3325 -312 0
-2227 6500 0
-5195 -8064 0
1238 3318 0
3535 3740 0
6302 5621 0
-6826 8667 0
-5759 7734 0
4000 8280 0
8954 -5197 0
-7128 5847 0
-4005 -3572 0
1007 4634 0
3284 -7332 0
3127 -7731 0
794 2267 0
8134 7931 0
4028 2061 0
4783 -3599 0
443 -3026 0
-5120 4816 0
-7902 8875 0
6986 3504 0
-6381 6940 0
5704 -5797 0
-6164 -6562 0
-4795 -3574 0
-8447 -2018 0
-99 -6550 0
-3993 8903 0
528 -5999 0
-6938 5607 0
7411 7169 0
4473 8502 0
-5996 7846 0
-6233 2873 0
-7443 -6969 0
-8087 1171 0
8456 -5919 0
1405 -346 0
-1313 6942 0
-6817 -217 0
4837 -7630 0
-6196 -4466 0
-5539 5834 0
4611 -1528 0
-998 3776 0
-127 -5387 0
-8238 8512 0
7386 -7739 0
-2642 6901 0
2819 8851 0
4036 -2939 0
5460 7380 0
-2484 -5666 0
938 5840 0
-3139 -6620 0
-5367 -4812 0
-3991 5351 0
-7605 2736 0
4814 8991 0
-993 -2099 0
-412 -8888 0
-6555 -3419 0
-2501 2226 0
4381 2061 0
-7638 2655 0
-3544 -6758 0
-2939 -436 0
-3375 994 0
3679 3044 0
-7656 5260 0
-5056 -5331 0
-3789 2068 0
457 2276 0
8983 -1140 0
6190 5403 0
-128 8228 0
3263 -8973 0
-171 8331 0
5700 -5435 0
-3533 -5800 0
1464 7983 0
-4500 -6843 0
-7466 6333 0
5460 8097 0
-2456 2438 0
-2684 4296 0
4 6706 0
-6987 -177 0
-282 8608 0
-8994 -3630 0
8476 -2050 0
4519 -6657 0
7631 -306 0
6309 -7477 0
599 4530 0
8533 -4526 0
-723 -6072 0
6042 -4655 0
4848 8471 0
-7322 -5780 0
7088 1119 0
3681 -6159 0
-1977 -8730 0
-6500 -8783 0
-8697 -5429 0
4198 -6924 0
-6200 -8013 0
-2525 -2206 0
1007 3301 0
6387 -1200 0
2350 1529 0
-7310 2812 0
6091 -8793 0
-3375 8547 0
5368 2263 0
6870 7717 0
34 -4912 0
7352 -8957 0
-4778 2985 0
1384 3893 0
-6614 4168 0
-8049 7539 0
8251 7600 0
4764 5259 0
5013 6730 0
6718 7645 0
8735 -1297 0
333 4624 0
-1410 853 0
-4021 -4347 0
-867 7858 0
5934 2453 0
5740 6737 0
5701 -2071 0
-7756 -8445 0
-7845 -8326 0
8939 111 0
6736 3800 0
-4854 -2719 0
5210 6456 0
839 -2823 0
-2278 7219 0
4093 7817 0
-1965 7992 0
-2628 8067 0
-6730 3975 0
4070 6606 0
-5367 1965 0
7073 4539 0
-8633 1218 0
-6549 5817 0
-2353 -6140 0
5702 -8846 0
-1734 -2824 0
1763 -4917 0
-526 7405 0
-632 -2413 0
427 -6291 0
2970 -4308 0
-4690 682 0
2351 -4824 0
-3682 -6143 0
-1310 4052 0
8240 5109 0
-6868 -2752 0
7936 -1965 0
2309 1670 0
4837 -1064 0
2138 8714 0
-5373 -3859 0
5188 8231 0
588 3148 0
-8124 3216 0
-960 7606 0
-4714 -1651 0
-8130 744 0
4315 1953 0
2429 -5369 0
-421 -6186 0
6892 8805 0
-7896 -5520 0
7539 741 0
4361 -6811 0
617 -5644 0
2534 -241 0
-7940 2678 0
6289 4533 0
-7763 1670 0
-5100 -2581 0
5434 -7678 0
-3082 292 0
-8897 -913 0
-2079 968 0
-6024 -8106 0
2584 -2462 0
-398 3167 0
-3411 7309 0
2290 -7141 0
1513 8023 0
4664 3056 0
-6450 2906 0
6418 -6250 0
227 3024 0
2306 -3499 0
3715 -6256 0
622 6246 0
2396 4685 0
-1984 3268 0
8532 4592 0
2645 7827 0
7410 -7936 0
4875 -1975 0
8833 -575 0
-3932 1558 0
844 8430 0
-6153 1176 0
5056 6610 0
-6592 7198 0
-8146 -7947 0
-4225 -5144 0
-1246 -4349 0
6711 -3354 0
1966 -2384 0
-1128 -6208 0
-2095 7981 0
-3691 -6599 0
3675 8419 0
-588 -8756 0
5540 -6335 0
7178 1889 0
6537 -4829 0
-5095 2350 0
-6339 -8078 0
7655 2851 0
-6668 -6718 0
-116 8247 0
1984 1379 0
-8287 -8328 0
-4277 6603 0
2978 -7851 0
8180 7425 0
-4012 -571 0
-4770 -4101 0
-7224 -1771 0
-4921 647 0
8763 2142 0
-8912 -97 0
-5472 -562 0
873 8766 0
-476 -8840 0
-4901 8139 0
2191 6242 0
-3639 2400 0
-7666 8554 0
-2135 -5358 0
3420 -4356 0
-800 6451 0
4567 -185 0
2881 5786 0
-7712 -4086 0
5143 -2294 0
-1156 8650 0
-3336 8923 0
-113 -3225 0
-3987 -7327 0
-3266 -1139 0
-7163 -6460 0
6974 4567 0
-3356 4632 0
-3164 1741 0
-930 3867 0
-1613 7955 0
-119 8781 0
-5624 8664 0
5733 5414 0
-3653 8712 0
4484 -2009 0
5179 -5043 0
8616 2938 0
2811 3362 0
7627 3337 0
-1612 1820 0
-3388 -7580 0
3161 -1968 0
525 5819 0
-1791 -8090 0
4617 1362 0
4612 -2397 0
-811 1373 0
-6312 -2302 0
5808 -7320 0
178 8399 0
-8444 7164 0
-4447 -1389 0
4137 896 0
-810 833 0
-5791 -7491 0
8288 -156 0
5119 -6004 0
-3630 5542 0
8066 5970 0
5764 2606 0
-473 8086 0
2463 4849 0
-6520 -7666 0
-8252 -1183 0
1897 5508 0
-187 8182 0
4517 -101 0
-1073 -5840 0
6345 -5700 0
-3821 -4394 0
-174 -8283 0
-3938 -4317 0
-2212 -8757 0
6827 4424 0
-999 2793 0
4258 6054 0
-76 8712 0
-6688 -656 0
-3839 8820 0
-7067 -6874 0
6721 6000 0
-6867 4585 0
-2066 8159 0
-2529 3132 0
-7351 -306 0
7065 -883 0
-7924 7563 0
6720 -5172 0
3535 -5289 0
-3099 -7767 0
3949 -3869 0
6288 569 0
6704 315 0
2687 -2810 0
1125 8829 0
-7118 -684 0
5033 -5707 0
-8817 -4651 0
1025 -827 0
-5286 -378 0
-2363 317 0
2284 2631 0
1160 -4191 0
7044 -189 0
4348 3955 0
6288 435 0
7796 8503 0
2986 -5771 0
-5768 -839 0
-29 -8920 0
-5267 -3558 0
-3242 -4007 0
1023 5748 0
-1733 7128 0
-3227 -93 0
1308 -5689 0
7277 7084 0
7855 8143 0
1867 -4416 0
-5331 -33 0
-3907 -3762 0
6264 -6953 0
4013 4502 0
-43 -5769 0
-4863 -4741 0
5229 -1370 0
311 452 0
-3508 -1809 0
-7033 3529 0
7025 8582 0
-8339 -6939 0
2535 -3637 0
-5313 -7916 0
-8078 -2715 0
7038 3919 0
305 318 0
-8187 -4130 0
-3444 6622 0
4689 6964 0
8047 7673 0
-3503 -1052 0
-312 2435 0
-4874 6040 0
6571 -3605 0
-4132 -3960 0
-7816 -4792 0
4574 6749 0
6044 3629 0
-6218 -6335 0
-6889 3461 0
-6913 -5280 0
3891 7069 0
7801 -5396 0
-8306 5505 0
4399 -2331 0
-5462 -8961 0
5918 -8431 0
8086 7279 0
-4175 -2889 0
483 5540 0
6395 8110 0
1737 2767 0
-3636 -3780 0
-8348 -8707 0
6806 6362 0
-3436 891 0
-6457 3943 0
4261 2571 0
4892 -740 0
-7700 2328 0
-5104 -8536 0
5779 7906 0
-5118 -5774 0
-6951 1916 0
1502 4525 0
7508 3951 0
-5542 3624 0
-3577 -8710 0
529 2824 0
-8805 1496 0
1361 2854 0
-7281 -2695 0
8890 5180 0
-8913 7010 0
-879 -4091 0
6800 -5266 0
6043 4071 0
1711 -1337 0
-8689 6277 0
1074 3844 0
1060 -4471 0
8400 -5780 0
-3808 -1790 0
-6420 1940 0
-2861 130 0
690 1229 0
2726 246 0
5291 -201 0
2055 -4722 0
-2486 -7509 0
2756 -308 0
-6402 -1790 0
8771 5986 0
-3104 2685 0
-1698 7742 0
8232 5254 0
6658 6675 0
-5502 -5734 0
-5541 -2175 0
-567 -5930 0
3696 4296 0
7040 -397 0
1032 8198 0
8216 -934 0
382 583 0
-3395 -4345 0
-8077 -5162 0
5138 4097 0
1832 7739 0
-3504 -389 0
-4923 -3850 0
-797 -7958 0
-5392 -5664 0
6155 7925 0
815 3796 0
-5226 -1960 0
8638 -4164 0
8499 7122 0
8027 -7262 0
-79 5210 0
1801 -1588 0
6369 -5053 0
5332 4727 0
1725 7735 0
5891 -2790 0
-7223 2154 0
5282 -7093 0
6991 1240 0
-8722 8317 0
-519 8262 0
1344 8121 0
-2732 -3565 0
-394 1120 0
-7973 197 0
5048 -6709 0
2171 -88 0
-1546 4933 0
2578 -1829 0
-5271 -8642 0
-1481 -8457 0
6684 6749 0
1311 3451 0
-3531 -7902 0
-470 -7137 0
-128 2371 0
-7596 6307 0
8954 -2724 0
1489 6576 0
-8348 4370 0
-7168 -1062 0
7593 3777 0
-1033 3647 0
-204 8304 0
8934 -2724 0
-709 8285 0
5466 -7523 0
-5800 -230 0
5011 8349 0
-7186 -5023 0
451 -8979 0
2005 4524 0
8668 -4516 0
-6530 -8483 0
-3058 3140 0
2991 3704 0
-8465 5473 0
-8373 3283 0
-1868 8805 0
-5712 8462 0
4726 -7955 0
-6661 -1661 0
6883 -2431 0
-5184 -3042 0
-8648 -553 0
7029 4791 0
5336 6414 0
5633 -929 0
-7495 -8516 0
-6017 -2954 0
4286 -4662 0
-8731 5023 0
3510 -1401 0
261 4680 0
-5200 -2492 0
-4269 -3845 0
-3780 1528 0
7591 5726 0
-1039 -6691 0
-3034 -1175 0
-7887 2602 0
5191 8581 0
-3926 5792 0
6589 -4667 0
-4584 -5774 0
1493 2624 0
-6143 -7175 0
5743 5523 0
688 -5925 0
-7974 -7737 0
95 4220 0
460 5103 0
-5743 3069 0
3554 4115 0
-786 -1891 0
4217 -6452 0
-6945 -1834 0
5978 7501 0
3029 3760 0
8636 2509 0
-3273 -5184 0
-1968 -846 0
-1743 367 0
-5451 2057 0
-6589 -245 0
8082 -6658 0
-2102 2797 0
6432 2570 0
7311 6388 0
-405 -1084 0
6001 992 0
4288 -8256 0
-4620 -6262 0
7599 -7591 0
-3293 -5865 0
-3726 5651 0
783 2667 0
1107 -5206 0
7504 3838 0
-5730 1855 0
7164 -7618 0
-5583 3418 0
-1629 -3032 0
181 7231 0
-8723 -3405 0
-657 7623 0
-235 -6547 0
-3187 8426 0
-1363 -2480 0
-8065 6205 0
-2628 -5820 0
4775 -5944 0
2158 8258 0
4860 8871 0
-1554 -2018 0
-7356 -1158 0
3213 -476 0
-546 7306 0
1885 -2118 0
-7706 -6037 0
5822 1413 0
-6550 8600 0
2919 6316 0
6606 -6826 0
-4264 8537 0
3251 -8207 0
-7454 -8690 0
6505 1521 0
6281 6736 0
6954 8637 0
1587 6401 0
-4776 -49 0
-1602 -1020 0
-1941 -653 0
8750 3129 0
6128 -8933 0
4476 1187 0
5530 -5419 0
-4971 -180 0
4830 8260 0
6889 951 0
-244 8173 0
-5239 2250 0
8609 6400 0
641 -3042 0
-7996 -5194 0
3495 -6785 0
3204 -7994 0
2410 3032 0
4776 -7276 0
5676 3971 0
-6698 6638 0
7386 8985 0
-3702 -2493 0
4423 1361 0
7782 1393 0
-277 -7415 0
6502 -1436 0
-3948 5374 0
-1010 1425 0
-7428 -7708 0
1905 -988 0
8157 -3809 0
-3949 6889 0
6834 2007 0
-7608 -6261 0
5541 7314 0
4156 -1198 0
-4418 3228 0
7551 -5059 0
8027 5103 0
-530 2509 0
7224 5347 0
5257 2959 0
1773 -6018 0
-446 5382 0
-2969 6398 0
-6307 -2373 0
4616 3307 0
3376 7367 0
-3548 -1073 0
6187 -1135 0
2497 -6894 0
-791 1924 0
-2981 7425 0
-4411 4298 0
8076 -556 0
6495 483 0
1282 -3073 0
-5322 1553 0
3924 -5451 0
-6943 8795 0
8163 5879 0
-159 -7630 0
-8165 -8912 0
5833 -3249 0
6172 -5428 0
6925 -3768 0
-7868 1740 0
-5930 6386 0
944 2338 0
7287 -7002 0
2132 -6699 0
-8589 -779 0
-8719 -3870 0
7121 -1722 0
-4247 4619 0
982 1436 0
-2990 4252 0
-5372 -2153 0
5947 4802 0
863 991 0
-826 -8437 0
4928 -4443 0
4736 5988 0
-7209 5236 0
-1351 -5267 0
-4309 -2419 0
2481 957 0
-6146 -1119 0
8507 3244 0
-6441 2853 0
-8322 -8450 0
-8642 -6872 0
5963 3184 0
6122 -891 0
-6454 6504 0
-8080 1763 0
-7264 -2045 0
6349 2007 0
-7011 -393 0
-8943 -8037 0
4921 -4942 0
-759 1674 0
8566 -8853 0
-3771 -6778 0
4177 145 0
-3069 -7605 0
6288 -2532 0
4802 5413 0
-135 3949 0
-5315 -5878 0
-8179 8457 0
-6084 8210 0
-7960 -2673 0
2819 745 0
6231 1839 0
-8525 2257 0
-3088 3393 0
-2648 -1018 0
-5799 3625 0
-4060 4385 0
6609 4891 0
-441 -3909 0
-77 -1265 0
5461 -1229 0
-8930 7870 0
8544 6389 0
5809 -8926 0
-5131 -1529 0
-6405 -4195 0
6872 -5567 0
-10 -2345 0
-2685 1477 0
-4748 4038 0
3865 8982 0
-7996 -8211 0
6734 -2211 0
2735 8359 0
-3266 3893 0
-1383 -7576 0
3472 5489 0
4504 -7320 0
4842 8656 0
-1915 -1052 0
-1828 -7881 0
-558 -4785 0
-7447 1808 0
-8435 6294 0
-6029 7850 0
-5095 -4462 0
-7583 4448 0
-6344 4509 0
3710 -6613 0
-8237 -7483 0
8108 -4752 0
-5522 8566 0
6300 5066 0
-4609 7841 0
-329 672 0
2137 7516 0
-8544 -5497 0
-7474 7699 0
-7194 -654 0
-730 -1052 0
-4241 8942 0
7329 -7212 0
-2690 6393 0
-5131 2708 0
-1707 -8766 0
-281 8609 0
-4806 8861 0
-8481 -7459 0
-3691 -3821 0
783 -4442 0
-1338 -7814 0
5752 -931 0
-8344 -585 0
3527 3955 0
-5706 4993 0
-604 922 0
-1771 6122 0
5369 5531 0
3918 -7035 0
333 -4728 0
-5766 -6488 0
-6434 3554 0
-6009 1015 0
-6598 -440 0
-5521 -8849 0
-490 2646 0
4519 7904 0
-8851 561 0
1331 8988 0
-3204 8629 0
2656 6849 0
-4376 7980 0
8494 3636 0
-6810 6081 0
2070 157 0
3796 -3859 0
1980 -6086 0
-8682 -620 0
-7067 1854 0
2320 1659 0
-7102 -3906 0
-7251 -2518 0
-4253 6245 0
7573 -2533 0
-817 -7390 0
7314 -7814 0
5120 7624 0
5937 -4542 0
-7597 7177 0
7688 2479 0
6746 -6601 0
-8350 -4980 0
-3144 -5173 0
2901 -589 0
6553 -8801 0
-3171 1811 0
-2231 8034 0
2702 2441 0
3368 -4864 0
-8537 4418 0
-4756 -8506 0
-1146 4038 0
2874 6804 0
4603 -3476 0
-2792 327 0
4109 -2698 0
-4470 6377 0
6211 -2339 0
7101 348 0
-4715 3061 0
-1513 -6829 0
-5241 -1299 0
750 -7232 0
-8093 6140 0
4298 -1974 0
2338 771 0
5444 1907 0
3119 856 0
-1172 -3422 0
8885 -5748 0
-2453 7467 0
279 -6561 0
4930 -479 0
3646 6908 0
-3949 2056 0
-4290 -5192 0
153 5169 0
-2298 -6284 0
-3069 8209 0
3367 4658 0
-3299 -870 0
2258 1276 0
5886 3354 0
-1484 -880 0
-4762 1530 0
-1579 3351 0
8608 2442 0
979 7676 0
6800 -5013 0
1595 -4026 0
-2453 4288 0
-5661 3887 0
7559 -3647 0
8771 6347 0
-4826 -4205 0
-5775 -3842 0
7279 -5992 0
1204 5710 0
-4926 1958 0
-8196 -2918 0
-4820 -4709 0
-8456 6702 0
-1297 5498 0
6257 2842 0
4139 8046 0
5897 -8623 0
4389 298 0
-6157 5550 0
2574 8392 0
-2408 -8286 0
8220 -1477 0
-2630 263 0
793 5359 0
-6067 -7260 0
3341 4836 0
-7790 748 0
2749 -8753 0
5607 -1432 0
3345 4480 0
-624 4722 0
528 54 0
-7335 -5449 0
8974 -8021 0
-3913 1262 0
5100 -3035 0
1920 3566 0
-3682 -941 0
8975 -5241 0
4731 -930 0
-2845 1061 0
-912 8251 0
-8663 -4583 0
-7288 1011 0
8397 3447 0
2921 -1236 0
7516 -7378 0
-1158 -4779 0
-8821 8803 0
5465 -11 0
-8098 -8001 0
-5097 4567 0
5352 -2838 0
-2738 6346 0
-3490 -5912 0
-3183 2013 0
2820 -6227 0
-8688 -348 0
1052 -3163 0
-4314 4307 0
-6168 4062 0
-8664 -4050 0
-2664 6043 0
-8595 4677 0
-4143 1520 0
8818 429 0
-8339 8659 0
-8556 -5394 0
7233 183 0
-630 1895 0
596 -3896 0
1616 8317 0
-8939 4892 0
-2691 6288 0
-8406 6518 0
6785 7738 0
-6618 4544 0
5124 -5726 0
5160 -2447 0
-3336 -2645 0
340 4250 0
-5217 7714 0
-3825 7357 0
-4408 -1056 0
-5085 6213 0
-2386 -8204 0
-1018 -7809 0
-5421 897 0
-3319 -3291 0
-1106 8224 0
8368 -582 0
-94 3686 0
7039 4933 0
-5497 1924 0
-516 -2070 0
8741 -5187 0
-7001 -8153 0
-171 -4177 0
6551 6377 0
371 1373 0
-3095 8995 0
1308 4050 0
5144 -7045 0
-3703 -5772 0
3483 7528 0
-2079 2551 0
8400 2025 0
7193 -5565 0
-7679 -3551 0
-2293 7647 0
5751 3405 0
-8037 -8074 0
2620 4115 0
-5534 -8411 0
-8703 4791 0
3000 7883 0
-8465 227 0
3201 -6196 0
-6664 -8931 0
-8912 -5432 0
8757 3961 0
-7048 5381 0
-4495 5803 0
2279 -4523 0
-6491 3779 0
4327 -3741 0
6248 -5028 0
-6761 6195 0
5804 -3103 0
-2580 1169 0
2896 -7315 0
-471 -1504 0
-7554 2845 0
-2826 4829 0
-7740 543 0
-2200 6193 0
5191 -4691 0
6488 4684 0
5074 -6480 0
-3849 -1892 0
5603 6285 0
-4798 7673 0
5901 6645 0
-8202 -3022 0
-8379 6610 0
2338 -847 0
-1281 -6704 0
-6592 -1436 0
-1591 -7962 0
8662 7595 0
1719 -92 0
884 -7724 0
4399 -114 0
5250 6249 0
3392 4497 0
-401 3367 0
-1210 -4559 0
7552 -900 0
4460 7045 0
6529 -39 0
4947 5063 0
8523 760 0
-6480 -6729 0
3493 -8458 0
-7390 518 0
8833 3258 0
-6970 5969 0
-7897 -1430 0
5670 3307 0
5841 -3847 0
-3670 3844 0
8511 -614 0
-694 487 0
3303 86 0
-703 3596 0
1096 -4474 0
-2275 -3725 0
-3329 3996 0
3318 -4197 0
-8614 3 0
-1362 8036 0
-1835 6269 0
-3478 -7040 0
-4563 198 0
-4878 -3138 0
-3072 4500 0
5533 -2944 0
8893 124 0
-8013 -84 0
-2058 7606 0
-5172 -1972 0
2656 5497 0
1054 2290 0
7744 7179 0
4209 -6924 0
5166 3222 0
-2592 1002 0
-1381 -4314 0
8792 -8559 0
-5846 8216 0
8530 -1719 0
-4153 -3965 0
2258 -1866 0
-2574 2551 0
1530 8634 0
-7712 3842 0
-8404 1947 0
391 6967 0
7194 -5912 0
-2118 8089 0
8887 3964 0
1296 8796 0
-1941 6206 0
-3680 -2020 0
8846 2085 0
1500 2351 0
1934 7259 0
1147 -4578 0
1003 5574 0
-4318 8863 0
5612 4358 0
3368 -2952 0
8156 -3584 0
3735 -6863 0
8181 -3491 0
2173 1147 0
8494 7490 0
-6113 2250 0
-6852 -7699 0
4937 2053 0
-1064 -2522 0
7056 -2674 0
2056 541 0
-2623 1707 0
3364 8291 0
-2924 3284 0
6740 4272 0
1097 -442 0
-6459 7893 0
6804 -6913 0
4313 -1291 0
2727 -6096 0
3965 -3933 0
-2588 3372 0
-5583 3393 0
-5861 -5310 0
4511 -5664 0
-4962 2559 0
-1844 5725 0
-5492 8619 0
181 5259 0
-6 -350 0
-1291 7407 0
-479 -3369 0
1203 -6317 0
8999 3392 0
-6430 1681 0
-535 5023 0
3469 -2290 0
-5724 -2327 0
2882 -6303 0
2508 -7783 0
6283 4813 0
8835 -8727 0
-6711 -6261 0
-2787 2062 0
6553 5188 0
192 7058 0
-7267 -2157 0
5788 -3929 0
-6454 7405 0
-701 -4911 0
-939 1041 0
7799 3659 0
-6937 -6785 0
-5245 8023 0
3763 6830 0
3351 -8965 0
-938 -7212 0
3933 -2230 0
5940 4470 0
-6012 -6257 0
5383 -8264 0
-7019 2670 0
746 1730 0
298 3006 0
-7450 -8435 0
-7654 -659 0
4469 -7722 0
-6009 2586 0
3932 7672 0
2306 -8079 0
-3361 7160 0
-1588 -2527 0
-1877 -8354 0
-566 -8839 0
2556 143 0
5966 -2611 0
-4778 5621 0
8471 1086 0
-7680 -3595 0
-8396 4740 0
-5025 3468 0
855 -4645 0
-7258 -8573 0
-5133 6697 0
5353 8940 0
-2999 -5576 0
-5113 4562 0
-2348 8422 0
2619 -5466 0
5460 1805 0
1919 -4961 0
922 -3194 0
-5332 -8692 0
-2016 7363 0
5916 3910 0
-3399 -1375 0
3495 -2456 0
-6871 -4625 0
4985 -7419 0
7691 1429 0
1152 6006 0
7501 5744 0
-3868 7468 0
8876 112 0
3208 6650 0
4708 4191 0
6597 2704 0
-7941 3592 0
-3195 -5182 0
2075 -2926 0
-8071 -3023 0
-8264 574 0
-5782 -6843 0
-4119 -7961 0
-4506 1354 0
-4012 1542 0
-1366 3308 0
6456 -3701 0
8462 7050 0
3456 -2284 0
-6780 -3024 0
-2230 2042 0
-6117 -63 0
5808 -8956 0
7432 3265 0
6034 211 0
-6023 -1083 0
-5837 -6981 0
5502 -7865 0
-1806 6172 0
5243 6476 0
-4391 -2141 0
-4045 4301 0
-3897 -4407 0
2477 8687 0
6496 -756 0
-2222 -99 0
6118 -6075 0
-7557 2808 0
4285 6540 0
5186 1710 0
-8759 5295 0
-929 4659 0
6896 7569 0
-3094 5671 0
1958 -4376 0
829 1024 0
4707 -3399 0
7831 -4392 0
5894 -2636 0
474 457 0
2825 -8458 0
1666 7726 0
5438 -1770 0
6360 -2785 0
4182 -3559 0
2971 -3009 0
1398 -3877 0
2302 -6996 0
-3315 4638 0
-705 -8068 0
6326 -6750 0
-8356 -8910 0
2610 2679 0
8551 5022 0
1444 8026 0
6962 -7920 0
5083 -2041 0
3815 8939 0
-4467 -2291 0
-7970 6893 0
5563 4306 0
-4045 7207 0
-5518 6570 0
5633 3142 0
-754 8761 0
-1739 3514 0
7042 -4865 0
-3495 -5805 0
-3616 6940 0
5888 -6869 0
-1034 8228 0
-4503 -7841 0
407 474 0
-6021 4115 0
4065 -4319 0
4268 -8406 0
-4637 8586 0
-5025 -1225 0
891 -5239 0
163 5485 0
7580 -7809 0
4953 -5682 0
-2282 1808 0
-6123 7961 0
-1056 6536 0
8615 8077 0
-5898 1631 0
-5708 4162 0
-8355 -6584 0
-6441 1121 0
-1254 6128 0
2395 -2207 0
-6792 -6867 0
-5672 -4679 0
-3789 8181 0
-371 -125 0
7559 -7957 0
7761 -3517 0
60 3897 0
-8384 4118 0
4201 3755 0
-8922 7040 0
-4176 -711 0
-8450 5985 0
7261 -3137 0
3443 -6915 0
2868 4536 0
-2651 -5383 0
-4700 -2617 0
6179 -7792 0
4975 -3849 0
8992 3272 0
-5094 1433 0
4634 8236 0
1211 2274 0
7405 7683 0
3948 -1071 0
5157 8690 0
-7307 2650 0
-8480 6902 0
-7830 5932 0
-4291 2982 0
5449 872 0
7644 -6264 0
-6777 -3465 0
-5426 -2565 0
4859 -7385 0
2459 -1723 0
-6147 -970 0
8522 4488 0
5870 -5850 0
7309 -4688 0
-7595 -5127 0
1321 5214 0
7672 -5668 0
-5951 8950 0
6972 -1496 0
-2745 -2158 0
625 -4104 0
1274 -7673 0
832 5960 0
-5355 -5997 0
-770 4383 0
-5268 -8216 0
2140 -6491 0
-2533 -1427 0
-3222 6013 0
5643 -7580 0
7931 8087 0
-3710 -7690 0
-5321 -558 0
1631 -3923 0
7976 6521 0
8540 -1207 0
2250 7054 0
4524 -8129 0
-6938 555 0
-6358 7364 0
3601 -5506 0
7730 -7481 0
2131 3787 0
-7157 -8378 0
-5626 7018 0
-7622 1862 0
-342 -2451 0
-1403 1956 0
8476 -3193 0
-3885 -5025 0
-3969 288 0
4366 6950 0
-2264 -5749 0
1213 -4203 0
-5930 -302 0
-3341 -8133 0
-1085 -2185 0
-7600 -4364 0
-1721 527 0
2701 -5022 0
3302 -6938 0
1370 1665 0
-7589 7015 0
8645 -4273 0
8165 1809 0
-728 -2148 0
-2070 6810 0
6846 -3854 0
964 -7245 0
-6500 -3378 0
6730 1924 0
2114 2427 0
-5049 8049 0
200 3516 0
-3255 3229 0
3267 -6305 0
6749 -805 0
-702 7588 0
1646 -3091 0
6257 8311 0
-7594 5598 0
-3356 -7197 0
-2709 -7496 0
501 3919 0
-7730 -4924 0
3896 -7076 0
814 5240 0
-7212 -6236 0
-3071 -4970 0
-7111 2910 0
-1738 684 0
3345 2149 0
3092 -8246 0
-4596 -1745 0
4022 5334 0
-6806 -6377 0
-3716 1914 0
-4362 -5826 0
-1553 -5194 0
-5904 1229 0
2394 -7887 0
-1859 -5289 0
-3263 4941 0
-4052 -7105 0
-4762 1756 0
5749 -6523 0
4866 -2975 0
6540 3575 0
5200 8712 0
-6518 3658 0
-6148 -788 0
-3855 1111 0
1368 -255 0
-5197 -1739 0
-3656 -95 0
-1740 -6863 0
1949 -3870 0
1087 -8819 0
-3662 1900 0
8843 6974 0
2737 -4691 0
3105 -2872 0
-8347 8957 0
1500 487 0
6202 -1342 0
4201 -5726 0
-8686 8494 0
-71 -2988 0
-5315 -8510 0
-8248 2595 0
3898 -4822 0
8054 511 0
-546 5849 0
1241 -7742 0
1770 6269 0
2641 5346 0
-1468 3353 0
-6460 1053 0
1164 -6072 0
-1164 -7422 0
-42 -8177 0
-377 -1661 0
8580 5205 0
-5105 6594 0
-7303 -1495 0
-8610 410 0
2606 8891 0
3041 -2543 0
-3962 -1111 0
-8679 -1645 0
8366 8360 0
-1391 -6914 0
-6029 1233 0
-5764 -7924 0
2111 6865 0
-5545 -1868 0
-2930 5134 0
-3939 6935 0
-7606 2804 0
5441 814 0
-4652 -2210 0
8565 -5905 0
-1392 -946 0
-377 -1560 0
-352 -6397 0
3814 8197 0
-6513 8674 0
8931 5061 0
5250 5213 0
8358 471 0
7649 -65 0
4718 1534 0
3830 3920 0
-7555 4287 0
3760 5653 0
7307 2374 0
-7825 -2942 0
7100 8359 0
-6592 6204 0
-4462 1429 0
-3904 7326 0
8561 -6213 0
-908 -8208 0
-3619 -7264 0
-3897 -6233 0
569 3631 0
-5578 -81 0
5906 1778 0
2670 -4696 0
-7204 528 0
-4233 -2416 0
8656 -1076 0
-5938 1429 0
6465 7593 0
5321 1499 0
-8225 5804 0
7748 8539 0
6980 -2545 0
-8418 -6419 0
2710 -5394 0
-8396 4057 0
-3326 8383 0
6697 3571 0
-145 -8375 0
-6432 -8711 0
895 3023 0
-7080 5454 0
2070 2114 0
7132 -2633 0
-3666 2791 0
-773 270 0
2344 4626 0
-3040 1616 0
5536 -6653 0
8413 4060 0
-5090 6140 0
184 5391 0
3188 -4221 0
-6995 8136 0
-6895 -8935 0
-3112 5951 0
-7957 -4773 0
5044 -4635 0
6597 1179 0
-8349 -17 0
6230 8998 0
7641 -2341 0
-162 -5386 0
7261 -6427 0
-6517 1638 0
-5097 1594 0
7520 -5999 0
2571 -5586 0
-6070 2832 0
-5569 -3905 0
-6131 8861 0
1087 1181 0
-1942 -5100 0
5295 -1076 0
-1070 -821 0
1933 145 0
-5288 8219 0
-5196 -2166 0
7694 5248 0
-47 -1974 0
7832 6888 0
-1779 6567 0
46 4234 0
-3370 4056 0
5800 2155 0
6300 6929 0
2726 1016 0
2387 8484 0
1728 7829 0
-8602 -2621 0
-2941 5157 0
-2745 7945 0
-4124 -8792 0
-8878 -5031 0
3987 8315 0
-4678 2625 0
8216 -2880 0
-7296 -3916 0
-1281 -5600 0
-7097 3244 0
3340 -8775 0
-8858 -7404 0
-5330 -8670 0
2826 -7164 0
-7325 3750 0
-282 2480 0
-2244 -4752 0
-4300 -7465 0
-4958 5978 0
-5707 -1947 0
886 12 0
7715 -1500 0
-1213 -3075 0
-5436 6381 0
4987 1324 0
1402 4462 0
2699 -5532 0
-7750 76 0
-4183 -8071 0
-4077 276 0
1571 4585 0
-5066 7338 0
4521 -1470 0
3888 -630 0
3887 -4943 0
-8560 -2910 0
7925 2127 0
-8803 -8734 0
3913 3944 0
-4496 -5129 0
221 -567 0
4377 -8519 0
629 -7838 0
-4226 -8731 0
8749 -4571 0
3792 -5822 0
-2921 7038 0
1403 -8459 0
-5470 -1379 0
2048 8505 0
-1988 -4432 0
14 8811 0
-1599 -6009 0
6107 3986 0
-1028 -5277 0
1418 2678 0
-2119 -4523 0
1716 -6892 0
3041 -1095 0
8076 3605 0
-8215 3331 0
-1166 7643 0
-3069 -955 0
8414 -7600 0
7559 -1669 0
4412 -32 0
-235 6320 0
7576 -433 0
-274 2231 0
8021 -2647 0
-5915 -2010 0
8469 -2584 0
1706 -7751 0
-6627 7739 0
5913 6315 0
7122 -6900 0
6660 6106 0
36 -2542 0
6685 -4266 0
4294 1015 0
8761 -4857 0
5244 -7035 0
2192 3725 0
-4387 -70 0
5669 -3287 0
-3921 7184 0
-177 -1349 0
2625 3930 0
4665 -362 0
-5993 -5892 0
-1492 2886 0
-8255 3254 0
-359 -4872 0
5876 -7192 0
-5055 -726 0
7907 -6267 0
-2096 395 0
-1046 7652 0
5405 7777 0
6783 5484 0
7539 -7532 0
1577 -2439 0
-8863 2063 0
-879 3776 0
-1928 4454 0
-6234 6461 0
-2535 -1468 0
6957 -7191 0
4784 4403 0
-3975 -7218 0
-2979 7397 0
-117 6544 0
8459 7324 0
-5162 3763 0
-5775 -8653 0
-1363 3215 0
2666 -834 0
3263 -7177 0
-1426 2938 0
2475 -7302 0
8015 -8727 0
-7181 -1911 0
6733 -4715 0
411 -8344 0
-626 -5509 0
-5027 97 0
6383 5229 0
-618 -4935 0
-1206 4921 0
4648 6130 0
-1110 -4790 0
-5639 -8593 0
-58 8608 0
-7813 -8234 0
5110 2384 0
-3182 7131 0
-3269 -4528 0
-5172 585 0
8244 -8432 0
-1880 1920 0
2337 3759 0
-6186 -6359 0
8882 -6172 0
-6186 -4302 0
7346 8838 0
6430 -6135 0
1778 -7379 0
-536 4768 0
514 -1973 0
684 824 0
-1406 3502 0
1599 1235 0
-4907 -2025 0
7098 1162 0
2793 1722 0
-7556 -5853 0
5906 -3191 0
427 1167 0
1880 -2654 0
7239 6139 0
-5439 340 0
6057 8763 0
6386 1262 0
239 3861 0
-711 316 0
1361 8502 0
8798 -8801 0
-6993 -2543 0
-3569 -4575 0
-2414 8134 0
6012 2063 0
-2789 -2493 0
8111 3918 0
-7737 -4954 0
7313 5480 0
1449 855 0
-8328 3764 0
6662 -791 0
-5310 4483 0
220 -3597 0
-7432 -5355 0
1106 -6294 0
968 3013 0
2492 -1110 0
-4737 6989 0
3982 824 0
6314 6456 0
2325 1688 0
5464 5608 0
-37 4730 0
6520 5018 0
6959 862 0
895 7189 0
3953 -8456 0
-7219 7236 0
2675 4294 0
-1027 1479 0
2872 7991 0
7235 2106 0
8368 6986 0
2203 3759 0
-1456 1084 0
4976 439 0
-3185 -3547 0
-6394 7573 0
-4936 3434 0
2384 5302 0
5050 -6888 0
4342 3794 0
-3809 2180 0
-482 4677 0
4510 -217 0
7212 8068 0
7508 -3041 0
3883 891 0
-8039 5718 0
178 1969 0
5212 5975 0
-7859 2076 0
1398 -5123 0
-8690 678 0
7725 -5143 0
8529 -239 0
2380 7949 0
-6569 -1217 0
-1431 -5869 0
-4690 -8752 0
-6740 -7835 0
6847 2089 0
-8747 -1985 0
-4693 5602 0
7391 -42 0
280 2677 0
-3266 -1681 0
-4225 4466 0
6375 8423 0
-6826 -6474 0
827 569 0
-2064 -5651 0
-6122 1021 0
-5826 4440 0
-7582 -7219 0
-3992 -1509 0
8261 2109 0
-5002 -6035 0
5171 -4865 0
6907 1950 0
2641 -8951 0
6033 -2151 0
-6717 5705 0
1870 -3227 0
7566 6992 0
7826 -6566 0
874 2686 0
-8541 -309 0
-3193 6 0
8816 3218 0
3009 -6485 0
975 -1380 0
7438 -1917 0
-3332 -6228 0
-6603 640 0
-995 861 0
7792 2099 0
6475 -4882 0
5230 -6585 0
-4635 4017 0
8046 608 0
-6997 7701 0
7829 6235 0
8828 2419 0
-3202 -4720 0
-5875 -3726 0
-1603 -6522 0
5335 -3167 0
8351 3851 0
2759 7812 0
-259 5256 0
-901 2254 0
3876 -4785 0
-7129 8573 0
-8001 4311 0
7640 7886 0
-6912 8199 0
-1834 185 0
112 -4572 0
8484 7137 0
7799 2722 0
-8879 5069 0
-2076 4353 0
7842 -8014 0
-286 3589 0
-2144 -2186 0
-3242 -2650 0
5851 -2513 0
-7580 -98 0
1628 -5441 0
-553 8724 0
6749 -3691 0
1768 6467 0
3722 -125 0
3227 -8785 0
-3243 2959 0
7696 -3289 0
7353 -7126 0
-4031 4082 0
4706 -7153 0
-14 -7232 0
-4846 7230 0
8490 2299 0
-2866 2983 0
-7958 -128 0
-4042 6868 0
3615 3664 0
-5039 -5938 0
5685 -407 0
436 -2275 0
3757 6132 0
2548 -2579 0
-4729 1469 0
1857 5524 0
1290 -6405 0
-8664 8117 0
-3401 -3432 0
-5457 5849 0
-1154 2826 0
-1751 -8409 0
-2160 -5174 0
876 -1824 0
-4199 3234 0
4338 -2494 0
-247 -6425 0
-8005 -7960 0
6502 2966 0
-4939 -5134 0
-918 -3056 0
3902 3259 0
66 -5461 0
7498 -2026 0
1315 1136 0
-2569 1479 0
-2934 4409 0
1240 -7844 0
2204 8504 0
1528 -1646 0
5803 -8285 0
1589 -1371 0
-5035 1081 0
-2641 8168 0
8073 521 0
5033 -3182 0
1347 2482 0
-7679 -4303 0
1736 905 0
-8306 -6152 0
-5164 -8979 0
-464 7629 0
-2190 -5803 0
4621 -5935 0
-747 -6850 0
-6706 6564 0
-7781 4304 0
4935 5602 0
-5160 -2827 0
-1526 6572 0
2017 -3949 0
-1442 2234 0
-6812 -3429 0
5350 7356 0
-3183 1595 0
-7863 -3666 0
-3036 -8611 0
6221 1764 0
108 -1820 0
1239 -5802 0
-5238 -8296 0
-6774 2327 0
-7536 8366 0
-4808 -1839 0
-1826 -1841 0
4239 -4422 0
-2186 8197 0
40 3910 0
-5805 -3857 0
-4647 -643 0
1054 1119 0
419 6081 0
-6323 -350 0
-6511 6815 0
-387 5601 0
8817 -7618 0
-6221 -1388 0
815 4990 0
-711 -2469 0
-2303 7784 0
-8060 1171 0
7900 4494 0
-8329 -426 0
-8861 -2715 0
-6987 5518 0
-8440 3410 0
-6958 4937 0
-8591 -6755 0
8380 -4178 0
990 2411 0
-5931 8048 0
3055 -8474 0
3137 396 0
2006 4790 0
8073 -930 0
-1872 1274 0
1639 -4430 0
7646 -6709 0
8977 -4411 0
7042 2751 0
4321 1844 0
-8132 7462 0
-2977 616 0
751 3624 0
-1800 -4930 0
-5043 3863 0
942 884 0
1724 -3348 0
-3336 2458 0
7017 6587 0
8235 -6550 0
2360 2470 0
-6317 -2207 0
2975 8567 0
-8096 -2866 0
-2948 -8292 0
5845 1212 0
-8187 8649 0
-6705 -800 0
4742 -6805 0
-6829 -6175 0
-2762 6201 0
-2364 3804 0
5154 3643 0
-4032 -5759 0
-8104 4664 0
1795 5003 0
708 -8165 0
-542 5413 0
-1417 -7953 0
-2908 1944 0
-6997 796 0
-2078 6630 0
-7031 1528 0
2303 423 0
-4602 -1959 0
1841 -3396 0
-6545 5233 0
2254 -8509 0
3393 -2580 0
7971 -3990 0
-6307 -7097 0
-8831 770 0
-7892 8868 0
-6226 -5920 0
-906 -661 0
-5202 3621 0
1219 1320 0
-1932 1915 0
-3458 1448 0
5995 3564 0
8863 6858 0
1726 7733 0
-1998 -6178 0
-5737 5606 0
-4 -8521 0
-4689 -920 0
-8404 6916 0
2120 7995 0
-2598 -293 0
-3774 -4957 0
6380 3041 0
113 3405 0
5866 1035 0
7257 2490 0
-749 -7590 0
-2630 -8299 0
-8256 -6077 0
896 -731 0
-6186 70 0
-8983 -3140 0
-808 3482 0
-3026 7857 0
1234 2214 0
8565 399 0
6620 -8257 0
7576 3727 0
-6768 6992 0
4515 1608 0
1219 2241 0
4789 -62 0
1158 6091 0
1261 8622 0
8553 8967 0
-5527 967 0
7948 -8574 0
-1519 388 0
6378 -3354 0
-3518 -4040 0
-6561 1276 0
-3234 2760 0
4437 4636 0
1628 -1609 0
5784 -8232 0
7217 5827 0
7712 -186 0
-7516 -2011 0
6409 -1684 0
5300 -162 0
1273 7491 0
-7132 -7051 0
8976 8601 0
8810 -2281 0
-1349 429 0
8750 1633 0
-1656 -8140 0
4029 7924 0
-6690 -7765 0
-7660 8475 0
-5678 -4850 0
-5378 -4826 0
5218 -638 0
1801 -1364 0
7232 -2654 0
3374 -6785 0
5937 4890 0
-4894 8222 0
-4006 1530 0
-8259 -7474 0
6320 -1342 0
-2401 -2831 0
8230 -3623 0
5367 -8990 0
-5758 5490 0
151 2455 0
3608 6984 0
4361 -1893 0
3737 8247 0
-2684 -8230 0
150 1679 0
25 -2484 0
1832 2925 0
-1576 825 0
-5284 8139 0
-5413 -5770 0
-5226 -8677 0
4692 -898 0
7225 -917 0
4371 -6564 0
-1508 2679 0
6381 -4994 0
1723 -499 0
-1947 1800 0
4396 -4059 0
-6381 -2707 0
-1441 5424 0
2955 -3264 0
4285 -3652 0
-5378 2786 0
3856 4849 0
2781 -4910 0
-3055 3019 0
-2838 4866 0
-4049 4242 0
1984 -1637 0
-8425 -1391 0
7269 1286 0
-459 8022 0
8010 5577 0
5242 -5958 0
2182 -4636 0
7739 3615 0
-4030 893 0
3015 6385 0
1162 7926 0
-3882 -7988 0
5888 -7645 0
3411 -5869 0
6905 4640 0
609 259 0
7785 -6135 0
7127 -2934 0
-1980 1417 0
-7406 -5582 0
-8544 -7666 0
7022 -8744 0
-5354 1539 0
-4696 5789 0
4612 -897 0
7678 -833 0
4052 -2076 0
6068 4673 0
863 3159 0
3075 2238 0
2613 -1549 0
5861 8923 0
-7994 3600 0
1543 8520 0
390 -6880 0
-3808 2290 0
7228 2896 0
532 -5836 0
-5863 -5528 0
-8384 -1754 0
-4566 5038 0
-3925 -5541 0
8100 3576 0
6086 -6303 0
7565 8298 0
-5217 -8694 0
-8137 8008 0
4844 -879 0
8270 -2168 0
1663 -2760 0
-8582 -1160 0
-4723 -7884 0
-7856 8647 0
1961 5872 0
5973 -34 0
-15 -5687 0
-556 6660 0
4272 395 0
4352 -6923 0
-8390 -8060 0
7231 -3887 0
1079 4895 0
8247 -1912 0
-7841 6890 0
-3320 -7034 0
2283 6502 0
-3560 5886 0
-7021 -7041 0
8263 1652 0
6873 -3570 0
8181 1825 0
8497 2298 0
1568 -4845 0
-5564 -2851 0
-4839 3118 0
-3353 -7370 0
5444 -503 0
-4750 -1577 0
-7256 7862 0
4312 -1623 0
6721 8059 0
-6090 3945 0
6970 -635 0
1897 -1659 0
4692 1732 0
1500 28 0
-3045 241 0
8996 -4750 0
-7045 -2128 0
-6095 -64 0
-7703 4105 0
-3114 6488 0
5995 8572 0
-2020 -2352 0
760 2372 0
-4934 317 0
-8513 5662 0
5227 -7843 0
5662 6722 0
-8234 67 0
1379 -463 0
1753 -7305 0
-3969 1200 0
2273 -1651 0
4797 -4703 0
-8425 2824 0
3026 -1375 0
-6247 270 0
-3993 -7582 0
8508 3284 0
-2787 1069 0
2758 -8803 0
2694 -5056 0
1737 -6487 0
-1353 3687 0
4457 -8830 0
-7525 2431 0
8148 -1822 0
1109 6541 0
2149 4635 0
-8003 766 0
738 -8013 0
-5175 -1593 0
411 2803 0
27 4426 0
-4430 8028 0
-7262 8804 0
-3459 -4722 0
-150 -6612 0
181 -2131 0
-5053 3340 0
6864 6098 0
3567 -8721 0
5738 5729 0
8192 3092 0
6635 5811 0
6187 -1049 0
-6306 874 0
1616 1011 0
3464 -7813 0
1891 -8423 0
-1997 -118 0
788 -6563 0
-5706 2520 0
3556 -2161 0
1196 -7673 0
-4405 2619 0
-2074 3974 0
-5313 -8183 0
-8579 -6014 0
-1159 -8500 0
8210 -6816 0
-1461 1355 0
-280 7761 0
-5214 1021 0
7530 365 0
5319 8118 0
3427 3888 0
90 3639 0
6414 -7565 0
-4017 -1413 0
-8769 -7866 0
4310 -5645 0
-5539 -8794 0
5613 -3328 0
-810 2090 0
-1179 -7643 0
6313 7169 0
6155 7877 0
2802 4185 0
-4304 -7302 0
-2447 2193 0
5718 -7313 0
-8308 6507 0
4513 -6791 0
6682 -7106 0
-786 4097 0
-8069 -7640 0
-2019 4726 0
1176 -1957 0
-893 -6234 0
5157 5961 0
7600 2943 0
-8658 1393 0
-2317 1013 0
-6669 4761 0
-8459 1697 0
1235 -6841 0
-6447 -387 0
1479 -3676 0
-3451 -3932 0
3479 -6120 0
5687 666 0
6936 -208 0
-5795 5297 0
-489 -3934 0
-200 -5591 0
631 -8167 0
-8320 204 0
2915 -881 0
-5820 -3027 0
-2861 -8032 0
6720 8304 0
3849 3332 0
-871 4736 0
-6297 -582 0
1498 -806 0
4717 6720 0
-4553 4326 0
8445 -1299 0
-7941 2902 0
-2352 -460 0
1800 5638 0
-7331 -2897 0
4530 2594 0
5816 -1391 0
7635 4023 0
-3782 5980 0
-8017 -254 0
-6555 7728 0
5581 -7230 0
8811 2913 0
7452 -8237 0
-7679 -4461 0
1631 -4161 0
-5507 -2897 0
5483 -4769 0
-598 -2298 0
-1422 -6862 0
5789 7630 0
-2404 -3933 0
-8105 7885 0
1225 6023 0
-7555 5763 0
-2237 -4695 0
-3502 8517 0
-4518 -6021 0
4160 1146 0
5426 8978 0
-8505 2100 0
-1923 2362 0
-8376 -6756 0
1472 6505 0
-6790 4316 0
6200 -1927 0
276 -8221 0
-8451 6778 0
-7633 8288 0
4379 3588 0
2758 3263 0
944 5022 0
-2648 -3215 0
-1587 -1381 0
2193 -75 0
68 4147 0
4181 2991 0
4097 -2590 0
-2507 3244 0
-4447 -6752 0
-1122 2825 0
2433 -5055 0
-6333 -5847 0
6858 1475 0
-6951 -3599 0
-210 -6050 0
3412 5414 0
-8208 -694 0
6132 -7411 0
-2123 2420 0
8783 311 0
-1312 3974 0
8043 -8496 0
-5600 8832 0
-6795 -3364 0
7853 -1115 0
-6106 -6649 0
-2166 -4831 0
1182 1869 0
1852 -2568 0
6600 -7191 0
4509 -4242 0
-6888 7368 0
7848 -595 0
8832 609 0
7997 1042 0
-5098 -1117 0
6953 -8460 0
4776 8999 0
6830 1601 0
-281 7079 0
5144 -7134 0
6698 -3327 0
-6789 6657 0
8809 -1759 0
-2238 -7943 0
-8137 -7656 0
-5904 -8617 0
-4596 6460 0
-2507 8749 0
4236 8584 0
5591 -2660 0
-8084 -7866 0
-8004 7661 0
6907 -749 0
7267 -1204 0
794 8217 0
1185 3762 0
7243 1766 0
8098 5514 0
5884 1081 0
-6601 3683 0
-5289 3941 0
3037 316 0
-8342 -5908 0
893 6793 0
2565 8649 0
-8928 4545 0
8855 6749 0
1134 -8453 0
2488 8078 0
-1357 1933 0
1870 4366 0
-360 732 0
-5703 4947 0
-8997 -3401 0
-1833 976 0
-2489 -3253 0
5368 -3599 0
-5438 6330 0
-2064 -6829 0
-7549 5180 0
-5309 -3094 0
3818 -469 0
4022 3579 0
878 4946 0
8244 -4280 0
1949 -4118 0
-634 4822 0
-1699 -6235 0
-4268 -2230 0
-1307 8466 0
-2703 -4158 0
5485 6243 0
8642 -2984 0
-3356 3002 0
35 -37 0
1277 6863 0
7510 -3092 0
5760 6013 0
5929 -858 0
8453 -576 0
8675 6216 0
7592 4725 0
628 4601 0
-601 5250 0
719 -4725 0
-5345 -1678 0
2717 -4326 0
2603 -3103 0
1561 4238 0
-1186 -6675 0
-4974 -2366 0
-1439 8523 0
-5100 -6733 0
1830 1824 0
-1344 -1114 0
-416 6242 0
6804 1531 0
-2556 -3832 0
-8536 3680 0
438 8314 0
1701 8058 0
-2548 4373 0
891 5692 0
4993 6698 0
4181 3270 0
-1884 7326 0
340 -6198 0
3421 -5530 0
7949 6154 0
-5749 -2419 0
1907 1599 0
8341 -86 0
3409 -4720 0
-7964 6835 0
-4893 -371 0
-7456 -4302 0
-1084 -5761 0
4318 1550 0
-7918 67 0
1048 -3572 0
-7432 -7720 0
-7242 4896 0
5368 -2022 0
-8706 3640 0
-5802 -3697 0
-2004 -6078 0
-6755 1308 0
8606 -2628 0
6208 -4029 0
-8670 6136 0
3338 -4495 0
-4475 -8917 0
-3931 6122 0
5928 6461 0
-1371 3522 0
-7734 1562 0
-5104 -6322 0
-4603 153 0
7791 4536 0
2110 -1241 0
7301 -6468 0
-8093 -2654 0
-7613 322 0
3391 5346 0
8570 -519 0
1998 949 0
-913 -1533 0
7553 -6331 0
-5988 579 0
3037 5252 0
5980 -2445 0
-1315 7321 0
-8237 6289 0
-4944 30 0
704 2515 0
-5520 1610 0
-1527 4836 0
-5476 -4423 0
-3008 1033 0
5629 4259 0
-6475 -7881 0
-2831 -4394 0
-3227 139 0
-3995 414 0
2381 8692 0
5136 -2628 0
-8357 7812 0
8695 6797 0
-3392 4975 0
3103 3255 0
-8573 -7838 0
-5443 4318 0
-1986 -3967 0
844 -5478 0
-5287 -6468 0
-7489 -8353 0
-4502 2836 0
-4280 -5359 0
4629 6836 0
356 2709 0
-6823 -1951 0
3974 2685 0
-3637 -1800 0
8290 7737 0
2578 4423 0
4616 -7176 0
2567 1192 0
-7092 2286 0
5683 -6477 0
-1939 -8177 0
-1577 -5754 0
4235 954 0
-934 -646 0
-5173 -6026 0
3787 5244 0
3474 -1678 0
-7550 -5476 0
4761 -702 0
-7032 7437 0
4842 5833 0
6233 5830 0
-7765 3150 0
3345 -8157 0
8904 133 0
2411 14 0
7716 1518 0
-2563 6159 0
5255 -7428 0
-762 417 0
8235 -8736 0
563 3364 0
5275 1227 0
-3245 -2127 0
-7137 1370 0
5027 -8441 0
3108 1914 0
575 3497 0
1254 743 0
6504 1505 0
-2237 6526 0
-3349 -4728 0
6286 7991 0
2832 -1758 0
-4282 3165 0
-2363 7672 0
-1344 6436 0
-3174 8477 0
-7312 -1071 0
2106 3801 0
7262 -3163 0
-550 8548 0
-6076 200 0
3824 8749 0
7501 4324 0
-1188 -1843 0
-1053 5456 0
-1737 -2539 0
4801 -5331 0
-7531 -5172 0
4151 5180 0
-4988 -1803 0
-6210 -8780 0
6191 6122 0
-3529 -4805 0
-2456 -243 0
-8472 -6685 0
-4671 -2876 0
-4229 -5831 0
-4140 -7161 0
-5240 -2447 0
7579 -602 0
7471 6254 0
5410 5191 0
4349 7086 0
7895 8711 0
1545 -5507 0
105 -2309 0
8480 -4635 0
-6155 1962 0
-7044 3659 0
-5224 -4285 0
-4534 -4923 0
-7604 -7603 0
-1428 -1323 0
-446 4951 0
-5636 7490 0
5453 -2566 0
-3896 5617 0
-3738 -2512 0
3525 2308 0
6406 -618 0
8419 -802 0
8826 -8749 0
6035 -2326 0
-8391 -6295 0
-374 -8983 0
6580 -3758 0
-5026 -5130 0
5948 6518 0
6747 4192 0
1329 3271 0
-6651 -4164 0
3312 6165 0
-5805 -2339 0
1358 7401 0
5067 -5311 0
-7884 1841 0
-6466 -7965 0
7665 -4345 0
-1207 -1600 0
-4818 3966 0
4862 -6728 0
-6541 -6294 0
2322 -5478 0
-6156 2403 0
-657 -492 0
-5697 2407 0
6747 -2448 0
-7185 -7 0
5425 -5660 0
-2125 -1929 0
-4125 6589 0
7818 -8769 0
-6520 -8968 0
8950 -2286 0
2936 -1162 0
3157 1095 0
2244 2992 0
-8871 8022 0
-8277 -5130 0
7093 -7378 0
4639 4115 0
8771 -8953 0
3254 1617 0
-4753 -63 0
7957 -3471 0
-8549 1008 0
2297 7744 0
-3598 -8526 0
2711 3917 0
-5451 -4641 0
5673 -4551 0
-1892 1014 0
-1461 -4501 0
3324 -5089 0
5360 8262 0
-3047 7698 0
-7810 2708 0
560 2325 0
5293 -767 0
-4359 -4248 0
-1019 -6528 0
1647 7398 0
-2144 1267 0
1844 -4553 0
-3216 2089 0
7954 -2363 0
-4245 331 0
6103 -1956 0
4650 -5319 0
8644 3995 0
5897 -128 0
-6859 -912 0
-5584 -6776 0
-6059 4286 0
8860 -810 0
1278 5737 0
6541 1192 0
6730 253 0
6264 139 0
-675 4352 0
665 2836 0
5696 3491 0
872 -801 0
-8929 4885 0
-2067 -1305 0
-6577 3603 0
1971 1410 0
3786 7549 0
4103 1441 0
-4292 6024 0
333 -8488 0
2415 -1239 0
2591 -2758 0
3877 7858 0
5975 -5871 0
-5362 5124 0
-5855 3596 0
215 5857 0
1704 6484 0
-2658 -7594 0
6645 5165 0
1863 -2300 0
8593 1543 0
-8805 -4528 0
6493 4522 0
8128 -8097 0
5879 1425 0
1303 3564 0
-7589 -3603 0
-2566 -2764 0
-1102 3639 0
-5699 -498 0
-428 2128 0
7911 -6140 0
4778 3713 0
1501 -1977 0
-7305 -1929 0
901 5171 0
8408 8156 0
2935 2550 0
-703 6697 0
-5143 -4547 0
4053 593 0
4726 4495 0
6371 -6076 0
-679 -4713 0
3131 -3449 0
-3384 5409 0
-4710 -8723 0
3786 4893 0
3592 -6430 0
-704 -2348 0
-251 -3505 0
-2271 1949 0
-7433 -7483 0
3324 874 0
2057 5069 0
-350 4354 0
-261 1658 0
5204 2225 0
2714 -3508 0
1457 3673 0
-8635 -4443 0
7976 -447 0
-6446 1620 0
-8793 5830 0
-3230 -8419 0
5948 6903 0
765 -3815 0
4591 1977 0
6176 -5169 0
-3630 8890 0
7217 -7369 0
-2626 -5072 0
8294 -8777 0
8628 374 0
-1664 2563 0
2657 -7008 0
7042 3034 0
3468 -3939 0
-7695 -5829 0
-7842 163 0
23 2940 0
2903 -8122 0
2511 -2239 0
8492 -6097 0
-5924 -7304 0
8643 2538 0
3735 -4692 0
-3768 -6060 0
6209 -3198 0
2173 8694 0
5444 5731 0
4341 -2416 0
8768 1524 0
-147 -8217 0
1001 -900 0
1072 -5294 0
-3541 -4086 0
2132 6371 0
-3455 -8800 0
1898 -3984 0
8111 5198 0
-3199 3439 0
-3476 4797 0
-8643 390 0
-2153 -5876 0
-6223 -37 0
-8037 3591 0
3201 6231 0
1803 -6789 0
-2917 6607 0
-6699 -3577 0
6157 -662 0
-3544 -166 0
7665 -5420 0
4818 -5911 0
-4810 -2855 0
-4877 -7468 0
3495 -6271 0
7022 -5880 0
-3993 3072 0
684 -1917 0
-6675 8738 0
-2830 -8967 0
-3198 -3369 0
1877 2569 0
1254 2075 0
6395 3925 0
6138 6262 0
8970 3056 0
1001 8964 0
-3930 1371 0
-1049 -1542 0
-8591 -1052 0
4981 -612 0
-2742 -2071 0
-101 7997 0
-4339 -5567 0
5056 160 0
5857 8236 0
3614 738 0
4146 -3251 0
2899 -6498 0
-7055 1536 0
294 -5619 0
6472 7553 0
-5835 4796 0
-1481 -4927 0
-2087 926 0
4672 -5445 0
893 5247 0
3138 -5904 0
3347 -818 0
3240 3792 0
1943 -6170 0
-6208 -2931 0
-8839 1518 0
-3108 92 0
-2010 -7587 0
-8723 884 0
-8752 8409 0
3261 -6533 0
-2980 6726 0
379 -3720 0
7427 -6596 0
-155 8818 0
-223 -4811 0
14 4568 0
6972 3672 0
-3093 508 0
2529 3994 0
-5901 2192 0
7131 -1609 0
6093 -2176 0
1622 -5550 0
1768 7015 0
-2948 -686 0
-7757 -8983 0
642 5180 0
5945 3543 0
229 4394 0
-6452 7894 0
2479 -1260 0
-1468 5926 0
-6789 6422 0
-8867 -2730 0
6992 -6355 0
-5632 8791 0
-3988 7078 0
-2266 5868 0
3657 8484 0
-409 -6446 0
-3370 -5676 0
-3319 -7967 0
-3702 -1188 0
5948 -6977 0
-965 1205 0
4577 -4405 0
-128 3418 0
2203 6295 0
5455 7229 0
-4757 -1807 0
-3024 -3849 0
-3124 -6758 0
4062 -7668 0
-8167 5566 0
8199 -1146 0
-1084 -5356 0
7176 2728 0
-5226 -8835 0
-946 3567 0
-1648 6489 0
-5411 -3415 0
5568 5464 0
-5198 4829 0
3091 -4073 0
8169 4575 0
-7021 -1659 0
4265 4870 0
-2437 3790 0
2232 -1181 0
-4934 -7891 0
-6070 -132 0
2856 1639 0
-1911 -4970 0
3962 5831 0
-7793 -8867 0
6967 -3395 0
-4080 -1014 0
-8176 -8939 0
3251 6591 0
-1318 8736 0
1074 3349 0
2609 -5042 0
3936 4335 0
1732 -6671 0
-1811 831 0
5043 8860 0
420 -1950 0
8876 -6961 0
-7655 4939 0
313 -1663 0
-4822 7728 0
6778 14 0
3564 2025 0
-7772 -4456 0
2113 6505 0
2080 -7631 0
-5956 -6384 0
-7630 7862 0
-3084 -6896 0
3818 8035 0
-1334 -1678 0
3816 -6585 0
-1123 -8450 0
7644 -6116 0
-2317 577 0
929 4469 0
-1345 7995 0
-6609 3255 0
-6260 1338 0
7166 5870 0
4217 7246 0
7186 -4293 0
-6038 -6944 0
5890 -3783 0
1361 4263 0
-4704 -3137 0
-4490 1061 0
3588 6967 0
-6703 -1512 0
-8006 8352 0
1324 6939 0
4755 8400 0
-8778 6351 0
572 6185 0
-4454 -6821 0
1969 -2827 0
7989 -7861 0
6025 -8463 0
-2962 8235 0
4927 4752 0
8148 5425 0
1497 -198 0
-618 1520 0
-985 -8597 0
5177 6870 0
3112 -1877 0
7156 -6690 0
1914 -4999 0
2014 -634 0
-6095 -5269 0
7954 4827 0
8618 6389 0
-8339 -6976 0
-261 -5503 0
4455 6737 0
6114 -8897 0
-6158 2360 0
8346 -5693 0
-213 8894 0
-4614 2288 0
-7712 2216 0
6112 -1988 0
-2558 560 0
-5073 -267 0
1884 -1350 0
-5159 -3417 0
3865 7773 0
-8004 -7481 0
1098 1165 0
-7062 3120 0
-786 4117 0
7202 -4490 0
-4804 -4904 0
4662 8067 0
20 -7824 0
2317 -7659 0
-7743 6369 0
8870 -3224 0
5789 5528 0
-8428 5843 0
2482 -7929 0
-854 2 0
-917 -7711 0
-7139 6805 0
4556 -6315 0
-6297 4316 0
5406 -5760 0
3573 5260 0
-5198 7012 0
2876 -4635 0
565 -3858 0
7931 5712 0
768 -3824 0
5799 3539 0
-6729 -1433 0
-4810 -6487 0
646 -928 0
4029 6942 0
-5040 -854 0
8918 -4449 0
-5291 5540 0
8551 -6167 0
2681 8292 0
8152 8994 0
-2344 5952 0
4697 144 0
-7000 8841 0
6080 1720 0
-7025 -3660 0
-1645 3010 0
1454 8039 0
-2917 -6719 0
4261 3090 0
7897 5218 0
-5342 -3843 0
-95 -3656 0
-4344 7170 0
3760 -7140 0
3262 299 0
4233 -880 0
-8456 5915 0
1347 5232 0
1936 4287 0
5487 -1428 0
-271 -939 0
-6433 816 0
-708 -6451 0
-3043 3028 0
-712 1748 0
6947 -7875 0
-5289 -6657 0
224 6588 0
7508 1812 0
-61 8425 0
-1241 -2606 0
1167 959 0
8710 -4705 0
-6536 4442 0
-8128 -7697 0
7321 6245 0
3711 -6585 0
8575 -6070 0
-6134 -1684 0
4254 7072 0
-7681 7909 0
316 -3540 0
-6413 7815 0
4157 -2353 0
-1439 3592 0
-6113 6617 0
8160 -4602 0
1679 -7599 0
-8541 525 0
-8354 -1746 0
-4862 2969 0
3999 -6524 0
-6101 -5931 0
3509 5992 0
4554 -8956 0
8146 -7399 0
3205 1469 0
6274 90 0
-1934 4324 0
3300 -1258 0
5845 -3004 0
2507 808 0
-7976 5955 0
2164 3031 0
-2456 -5399 0
6393 972 0
2731 7860 0
4694 1640 0
1333 -4719 0
-8676 3124 0
-2161 1375 0
-8435 -2642 0
-2591 -4364 0
5891 -5521 0
4818 1318 0
8684 551 0
3727 -841 0
3942 -648 0
2177 -7213 0
-3358 2957 0
-3642 -2193 0
-4771 -6729 0
2524 -3500 0
5258 -487 0
1157 8342 0
-1116 3551 0
1856 -3109 0
-2363 -2412 0
3625 -8279 0
7609 -3353 0
5381 -2413 0
5374 5435 0
6978 -1988 0
1281 7840 0
-1749 -7647 0
-1799 3456 0
-5960 -2163 0
-3821 457 0
-5237 5434 0
-4671 -8821 0
4167 -8583 0
3628 5525 0
1504 7897 0
421 3647 0
-1426 -6013 0
8198 1755 0
-1310 6906 0
8192 1795 0
-6108 1240 0
-3150 -589 0
-1006 -7466 0
-250 -93 0
8275 -3990 0
-2316 -5399 0
-4898 6635 0
-6269 -4733 0
-8102 -7960 0
-3571 5040 0
14 -4865 0
-3639 -2049 0
3147 -792 0
4525 3761 0
-2175 -444 0
-1282 -6853 0
5465 7414 0
-192 8728 0
1297 -3766 0
8400 8562 0
4935 5642 0
1451 7985 0
348 6648 0
-827 1676 0
-7569 -2087 0
-6266 -5981 0
-7830 5050 0
3090 -1881 0
1532 7338 0
-1207 7261 0
521 -2434 0
-7522 -89 0
-5329 -4130 0
-559 1556 0
2273 -3081 0
-7522 -539 0
3152 8941 0
-2867 422 0
-6330 3221 0
-8313 -7385 0
246 -1765 0
-1835 2729 0
2840 -420 0
-889 1398 0
-8265 3953 0
-8515 -7833 0
5571 3906 0
6254 -7109 0
-2423 4242 0
3425 -8944 0
-2498 5939 0
5679 8351 0
8922 4889 0
2629 -4136 0
8443 -7310 0
-7894 -8270 0
5787 2203 0
-8547 5886 0
-6936 5202 0
1885 -521 0
-1347 8407 0
-6733 1566 0
-1973 -6464 0
2468 -6347 0
3003 -8848 0
6878 4124 0
6509 -3711 0
2795 2966 0
7143 -4422 0
-4869 -7739 0
-8657 4116 0
-3403 -3651 0
-1436 2335 0
-7371 -2310 0
-4501 -3703 0
7756 2077 0
5049 6269 0
5161 3893 0
4321 -5298 0
-5528 6705 0
-2628 3030 0
-5839 8851 0
2335 4900 0
-7841 -7302 0
4185 -1016 0
1277 8136 0
2419 8117 0
-5310 -7639 0
503 -1963 0
-675 -3537 0
-7210 8025 0
2961 -2320 0
4978 3655 0
-7720 -8481 0
-4818 8029 0
1468 2998 0
-8408 4172 0
3802 2505 0
3831 813 0
6111 1469 0
8711 -1433 0
-2525 -3550 0
6596 4561 0
-7958 -5954 0
8356 5239 0
2328 7978 0
4126 -6907 0
-5627 4659 0
-534 6088 0
4552 -6480 0
-7604 -3473 0
1808 -181 0
-8186 -4315 0
5191 7289 0
4127 -2817 0
-1540 -6142 0
3088 5741 0
8252 -863 0
-6728 6209 0
793 923 0
1929 -5924 0
8397 -7605 0
-1199 -5371 0
7920 2574 0
7164 -2438 0
-1406 8202 0
6963 1477 0
-2169 -3732 0
8483 -7429 0
-8131 743 0
-1567 -56 0
2810 6898 0
5633 -8901 0
-4051 3834 0
-5025 277 0
5348 2693 0
961 7284 0
-3259 -4883 0
1505 -8272 0
2517 8314 0
-1734 -631 0
-7646 -7942 0
1078 5830 0
4292 -7966 0
-3598 1292 0
-6795 2846 0
7670 4871 0
-2273 -2535 0
-5397 1490 0
1591 -5298 0
5552 -7487 0
-6364 3871 0
3527 7340 0
-6444 -4229 0
-2451 8226 0
-6025 -5301 0
5790 655 0
1874 7835 0
3972 2934 0
-4714 3696 0
-2076 -6063 0
-7371 -1740 0
8482 7224 0
4170 -7408 0
8548 -919 0
7568 7233 0
305 -6527 0
-2439 6187 0
1275 3218 0
3569 -2045 0
1768 -3972 0
-4661 -4372 0
-2316 890 0
-2877 -2417 0
7400 5645 0
425 -8522 0
4 -7888 0
-8007 6818 0
2090 -7936 0
2714 3923 0
-2129 3067 0
5178 -8577 0
-2299 -7302 0
-7751 5885 0
212 -2020 0
-1632 8694 0
-9 -4749 0
4984 700 0
8121 2765 0
8744 -7410 0
26 -7048 0
3248 -4928 0
-574 -7411 0
167 -1261 0
-1988 5684 0
-299 -1442 0
-6555 5694 0
-81 7507 0
1020 -8821 0
-7095 3442 0
3436 -4430 0
1177 1131 0
-1268 1979 0
7086 -7020 0
-1608 8814 0
4132 200 0
6415 -4715 0
-1334 8106 0
2988 848 0
5142 7275 0
6046 3676 0
3573 -7185 0
-5824 6052 0
-1144 -4863 0
-7359 -8335 0
-1255 -6697 0
-2571 -5782 0
-4087 820 0
8678 8351 0
1121 7396 0
-8627 704 0
-6841 -8481 0
7680 6260 0
8048 -5005 0
-6535 3539 0
-2355 8575 0
-1152 6 0
-1001 -7485 0
-439 -8823 0
-7244 -1748 0
-1924 3653 0
-8103 -8632 0
5008 -939 0
2971 2816 0
-6726 183 0
5821 -3023 0
-3875 6211 0
-3143 -8719 0
5328 -3092 0
1965 8764 0
-6446 8465 0
1329 3117 0
986 -3115 0
-7242 8506 0
-6012 -354 0
1719 -1250 0
-6772 1707 0
-3773 509 0
-3766 7616 0
-6889 -8109 0
3819 2701 0
2439 -4007 0
-3454 -4568 0
-4164 -2494 0
-2450 8770 0
4122 -1127 0
1588 -7965 0
2440 1637 0
2721 -7123 0
7033 2736 0
2337 -8873 0
-6738 -3691 0
2208 -928 0
2256 -5766 0
-7417 -6565 0
8872 -5520 0
-3145 -900 0
-1973 -4971 0
35 8785 0
5684 1724 0
444 8845 0
-4474 7928 0
1881 4504 0
-3852 866 0
5138 -6600 0
-2899 940 0
4074 8757 0
82 -542 0
6230 -7665 0
8757 -7076 0
-4422 7170 0
-6673 -2222 0
-1761 7831 0
-6632 5480 0
-3076 -3644 0
-1907 6409 0
-8002 -8084 0
-4193 1811 0
4053 -8320 0
-7029 4814 0
-5972 1054 0
8837 -607 0
2394 -8585 0
-6740 -8861 0
8584 -327 0
-4059 7043 0
-1055 -7477 0
-4482 8526 0
-6150 8874 0
7951 3102 0
-2821 2767 0
2458 6584 0
-6666 7171 0
518 1507 0
-1512 -3394 0
5291 1653 0
-7613 7328 0
-3389 -4290 0
6153 -8652 0
1347 -3630 0
2858 3591 0
-2896 -6279 0
4168 3715 0
6291 3010 0
4010 4437 0
-2798 -8625 0
-2385 -7234 0
4986 -1231 0
-1057 4860 0
-4722 -3871 0
-7434 -213 0
2844 -3940 0
4838 2152 0
-1202 -3652 0
-3233 -6481 0
-767 8229 0
-6477 -6815 0
3375 -1381 0
3201 -6293 0
5534 3689 0
-459 1253 0
-3417 -8660 0
-930 -861 0
1722 -1693 0
-5825 -2025 0
-5124 -1607 0
5781 -2973 0
656 -5811 0
2856 2075 0
3482 7896 0
-2795 8299 0
3193 1579 0
5725 212 0
1179 4537 0
8809 -2815 0
5685 -1874 0
-1277 3941 0
-4226 1803 0
295 -4912 0
-3701 4919 0
-6184 1286 0
-4426 2245 0
5738 -241 0
6968 -7969 0
8236 2687 0
6550 -5523 0
-1580 -5727 0
-8291 -6886 0
4133 8138 0
7279 5451 0
6672 -5225 0
-8911 5260 0
-7804 1697 0
5641 4309 0
5037 2846 0
-8510 -5742 0
375 3786 0
8761 2910 0
4202 -1936 0
5561 2848 0
-686 1549 0
-1723 -2141 0
-131 3772 0
-1204 -2869 0
-7168 1610 0
7833 4738 0
5310 -5750 0
-1903 -2831 0
94 -8512 0
4940 6834 0
8108 -999 0
-752 3668 0
-4041 8310 0
-5300 -148 0
-4619 -8965 0
-7751 -2264 0
-4553 -2628 0
4764 -8093 0
-8671 -3390 0
3732 -3271 0
-1982 4842 0
1673 1510 0
-190 3958 0
3368 729 0
1425 8970 0
-8106 -5871 0
-350 2961 0
8721 6308 0
1256 3402 0
-4975 -2451 0
-6750 1962 0
-1625 4866 0
-6048 7748 0
-1018 5719 0
3700 8522 0
-7510 2403 0
-4273 -2970 0
1763 3784 0
-1766 -3259 0
-2228 -7128 0
1655 -6210 0
-7830 -680 0
2395 6025 0
-5492 -1207 0
-2834 -2275 0
-5773 -1012 0
5316 -17 0
-5367 1274 0
7826 -2237 0
6694 -6894 0
-8131 89 0
3175 -8695 0
2602 -5183 0
8716 8100 0
6578 8512 0
6723 -8401 0
6292 -1865 0
2140 -7690 0
7697 -4054 0
-88 8840 0
-243 652 0
7607 635 0
-1615 -925 0
1447 6529 0
-4374 725 0
-522 3783 0
-7331 8322 0
-5923 -699 0
8113 -7019 0
3955 -3738 0
7843 8494 0
-3541 -2584 0
-8167 -6417 0
-8500 7177 0
7152 6940 0
-4351 6 0
-1230 1143 0
535 5620 0
-4496 -8730 0
-6878 5493 0
-8253 7734 0
-250 1205 0
966 -2504 0
980 -238 0
4044 7086 0
5836 -7713 0
-8491 6684 0
-1704 1168 0
8393 -8709 0
5368 -6867 0
1688 -8367 0
-3776 909 0
5669 4569 0
-3286 8184 0
-1521 1270 0
-602 -5277 0
6683 135 0
-8025 2699 0
-473 -3084 0
8508 5641 0
-1676 3087 0
5756 -264 0
-5423 -6621 0
4072 -1052 0
-7632 -8372 0
-5755 -1261 0
-5193 3417 0
7309 -1833 0
7288 6373 0
4268 -5464 0
3866 3883 0
1199 7560 0
7425 8007 0
-3965 -2995 0
1347 3830 0
1016 3888 0
-8172 1303 0
-5495 4800 0
496 -6173 0
4018 -276 0
-1730 -7194 0
6316 7688 0
-3282 -7525 0
-1223 -8243 0
-4942 -2320 0
6849 -7026 0
-7162 -8799 0
85 -4884 0
-485 -2414 0
6411 -7581 0
-8474 8861 0
5709 2219 0
5129 3618 0
-171 2783 0
8326 8711 0
108 -1457 0
2250 7799 0
822 -6858 0
-7924 6052 0
6246 -7038 0
357 6270 0
-2238 983 0
3537 2166 0
-8360 -7407 0
8625 7056 0
-5429 -8345 0
-3034 4596 0
4467 -1761 0
-2681 3482 0
-2923 6000 0
6362 7266 0
4937 -4165 0
7676 -6722 0
-6183 -4419 0
-6979 827 0
-2207 -6076 0
-4759 -2856 0
-828 7278 0
819 4201 0
-3569 3255 0
676 401 0
7634 -6588 0
1930 -5188 0
5756 -7899 0
7959 7382 0
6929 -2148 0
4581 -8610 0
-3397 7680 0
4840 7410 0
-1688 -6428 0
-7073 7111 0
7652 -1140 0
8271 4366 0
-3157 1130 0
7659 -2651 0
807 7322 0
-2293 2530 0
1921 2149 0
3957 -515 0
5760 -671 0
-7095 -3385 0
-6973 -5221 0
-2727 -8650 0
-6027 -7249 0
6166 3932 0
6659 1290 0
-1452 -2355 0
-7690 1279 0
-1035 -8799 0
-5764 -8979 0
2858 -2588 0
4822 -1901 0
-4645 -4481 0
1434 -6390 0
6163 -3648 0
2731 1774 0
1808 2268 0
-6578 -7250 0
6695 8313 0
8144 89 0
7279 -370 0
530 2951 0
1518 6543 0
5641 5308 0
2156 -7958 0
-5900 8348 0
2273 -5974 0
-4905 4146 0
-5682 7959 0
-6117 -2176 0
-6808 -3708 0
3756 5561 0
-3152 3922 0
1079 -5158 0
3787 -4452 0
4016 -1009 0
3792 -1222 0
8839 8462 0
2586 8466 0
-4927 191 0
4291 3036 0
2869 -6641 0
4896 2745 0
2475 4648 0
-3439 7527 0
1963 -4274 0
-1170 -328 0
-7515 2064 0
2879 915 0
-7659 -3733 0
8040 -7172 0
-1415 -887 0
-3046 5065 0
2409 7714 0
-2874 -5273 0
7415 2054 0
-5238 2209 0
5786 -7387 0
-8352 174 0
8162 7915 0
3663 7084 0
-3568 8497 0
5236 4193 0
-6937 930 0
1643 6727 0
-1612 -5385 0
6180 -2800 0
3318 3085 0
-2169 4872 0
-731 -7427 0
599 -7921 0
-2688 3240 0
7602 16 0
813 -3841 0
8818 -6814 0
1001 -2326 0
1716 6336 0
-3460 4177 0
-6852 2786 0
-1817 5515 0
1705 8233 0
-11 2780 0
843 -4181 0
-642 7376 0
-8808 2347 0
-7537 2685 0
1033 1261 0
-4499 -6518 0
4568 4764 0
-177 5210 0
-1758 -2310 0
-8289 4060 0
4250 -3731 0
-2160 -4760 0
-4297 1083 0
-8305 4665 0
-7 -5041 0
-8092 4989 0
155 -1426 0
-4188 -3212 0
-8373 -8812 0
7703 5796 0
-4292 7657 0
4251 -4714 0
4569 -6173 0
6854 3208 0
-5698 6589 0
-6956 3264 0
4167 2232 0
2271 -4670 0
-2966 7007 0
6794 117 0
2078 929 0
3937 -2278 0
5977 -5112 0
5654 4053 0
6715 7086 0
-7617 -5782 0
6330 -8 0
-3400 -1082 0
5129 5013 0
-446 5051 0
-5220 -960 0
4074 -73 0
-8172 7448 0
-6644 -1043 0
-1343 -3246 0
-2006 3746 0
-6858 -7126 0
6474 7277 0
-4021 1137 0
311 778 0
-2715 -879 0
2791 -3347 0
3501 7420 0
183 2912 0
2794 3176 0
-2889 -1578 0
-4987 -3001 0
-1808 -6779 0
8065 -3526 0
-7475 -4195 0
-1038 463 0
7936 -5173 0
-2843 6408 0
-1560 1958 0
-3768 -5304 0
4768 -4909 0
2756 4844 0
3454 1715 0
-8632 -7090 0
6697 -3636 0
-6121 565 0
743 -4572 0
-304 7261 0
-5175 3468 0
-1445 8045 0
-6116 -1115 0
7166 3407 0
358 -5783 0
2908 1577 0
4844 -5088 0
-2464 6040 0
4440 3616 0
-6529 3786 0
6076 -7924 0
8063 1673 0
4911 2802 0
4438 -372 0
-8436 -4068 0
2560 5396 0
-8817 4575 0
-2869 8710 0
1033 -5227 0
1131 -2369 0
-7346 8159 0
3985 2731 0
-8896 -7425 0
7235 -4774 0
-2303 -8000 0
7383 -6604 0
4133 3288 0
2688 3287 0
2093 -6487 0
5629 -604 0
4915 -916 0
-6713 2497 0
-5555 1709 0
4831 2582 0
-7732 313 0
-4806 -3059 0
5580 -5300 0
-1193 8440 0
-3962 -987 0
-2181 -7116 0
-1263 -267 0
5316 -2697 0
7251 1261 0
-7836 3899 0
742 1054 0
7826 770 0
4225 2435 0
-8047 4532 0
-163 4993 0
-7076 69 0
5246 -1500 0
-2623 4017 0
-8139 -2676 0
-2486 8260 0
8293 5154 0
-2192 -6406 0
3831 -2434 0
-8401 7798 0
5913 5332 0
673 8809 0
7153 7425 0
2448 7926 0
4716 -3328 0
-3339 -3072 0
5659 2482 0
-6813 5009 0
-2330 -3450 0
-686 -3946 0
-5482 -1299 0
-4282 188 0
6262 3019 0
605 -4952 0
-7657 4674 0
-3163 -1036 0
-4526 -3380 0
5210 8100 0
4860 -7748 0
3618 -2603 0
7427 -8607 0
5551 -3758 0
-2285 -1307 0
6202 -7853 0
-3486 -6036 0
4950 6805 0
4522 -5057 0
-2626 -922 0
4014 -2659 0
-4704 8835 0
-1461 -8455 0
8441 -5426 0
5647 -8064 0
-2892 2125 0
-202 -283 0
6490 4184 0
-6455 7715 0
6660 5886 0
-5017 -8907 0
-2829 -1003 0
-7548 -8267 0
3999 -4854 0
-4582 -1652 0
8309 2061 0
-6861 -815 0
7097 -965 0
-1612 -2622 0
5545 -3159 0
1444 5908 0
5949 -7864 0
-1952 -8193 0
6749 5463 0
-1386 -3159 0
-5204 -2647 0
-2648 4335 0
-110 1060 0
6592 -8896 0
-6115 -8880 0
-3071 698 0
-5204 -8719 0
-5140 460 0
-6415 -6677 0
-1786 1646 0
7245 6422 0
-5977 -4865 0
6474 -582 0
-1686 -4859 0
4181 -3394 0
8265 -3997 0
-1826 5070 0
-2815 -8553 0
124 -6733 0
-1762 7564 0
-220 -5369 0
3864 -988 0
5260 1131 0
1172 5152 0
2996 1263 0
-2402 -7663 0
7268 -8283 0
-828 -8850 0
-3224 -3496 0
-2039 -8798 0
-3649 -1199 0
-4230 -6698 0
39 2319 0
8330 5713 0
-8373 -6311 0
-5871 8299 0
-3054 6782 0
4437 156 0
3650 -7624 0
5380 -1703 0
1599 914 0
-1847 -4979 0
2210 8199 0
-1964 4692 0
-3265 5929 0
-5263 -953 0
-4110 4431 0
-5403 -5697 0
4480 1818 0
-6317 3744 0
-1299 7558 0
1103 -1665 0
-8310 971 0
-4739 -34 0
-6217 8930 0
-6397 3630 0
7326 2033 0
-688 7339 0
-4853 8491 0
-4970 5032 0
-595 6004 0
-1193 -7478 0
-1590 6717 0
1097 8600 0
-2654 1904 0
-427 -7833 0
-79 -1661 0
2413 -7895 0
1069 -1319 0
-7641 2690 0
2843 -1925 0
3958 3680 0
-3126 -6199 0
7520 5800 0
5148 7228 0
-4356 4363 0
-7531 5633 0
2924 -6267 0
6511 8580 0
-1554 -4972 0
1117 1928 0
8403 -5675 0
4889 2134 0
7691 7103 0
2634 4961 0
7213 406 0
2784 -7564 0
-8283 814 0
-7280 -541 0
3683 -588 0
3039 8280 0
1621 2353 0
-3573 6565 0
-5254 8656 0
6399 7645 0
-4203 -5646 0
658 -2826 0
-8925 -3515 0
1644 2149 0
2707 -538 0
-8908 -6592 0
-8225 -1154 0
2380 5891 0
-8262 -2855 0
-6460 -6225 0
8243 348 0
-2375 -693 0
3815 4944 0
-6446 1976 0
-2103 -8820 0
5132 8881 0
-3048 -6568 0
-5147 -803 0
-1975 -6423 0
-3424 8388 0
2908 -288 0
6633 -1073 0
3363 -8024 0
3686 -4846 0
6693 -5343 0
3834 -8640 0
-5088 -1334 0
-5751 -5562 0
-3450 836 0
-2627 -3922 0
7778 1432 0
-7048 -5319 0
-3976 -6336 0
-2976 -6766 0
-519 3622 0
8845 -5093 0
-7371 7607 0
7689 -3622 0
7059 4074 0
1505 77 0
-2563 6273 0
693 2177 0
4650 1781 0
6539 -1913 0
4141 -3026 0
-1090 -3967 0
1704 2577 0
902 6551 0
8338 6351 0
4321 -1028 0
8643 397 0
2194 -3530 0
-5871 8881 0
-5644 8381 0
589 -7492 0
6983 5516 0
-5967 600 0
1121 2513 0
3135 -8499 0
6243 -2630 0
-5642 4246 0
1883 -3392 0
-6642 3193 0
-3744 -2752 0
-2057 -8786 0
6314 -7353 0
-5387 -1521 0
3185 4097 0
1960 683 0
5889 -3087 0
-6380 -4960 0
-6144 6381 0
-3594 4682 0
-3881 3412 0
3866 1214 0
-2980 7505 0
-732 -8775 0
-4429 -6026 0
-3222 -6748 0
-1132 -5280 0
6687 -828 0
-8622 5391 0
1069 6130 0
-3187 -1546 0
-8399 -1972 0
-7570 -6282 0
-5781 451 0
-5273 1718 0
-4226 -8666 0
-8993 319 0
1924 -8549 0
-703 -4136 0
-8509 -530 0
-2034 6257 0
-7903 508 0
5124 229 0
-164 -4811 0
8052 -2813 0
-586 -7478 0
1203 -7399 0
7842 6943 0
1141 3627 0
-3110 -5973 0
3331 -1489 0
-8408 5720 0
3751 7448 0
2264 8987 0
-416 6280 0
6920 7174 0
-5026 -8387 0
-8079 -7668 0
-6009 -7188 0
2134 -7608 0
-8370 1353 0
-820 2578 0
-8409 -7488 0
3125 119 0
4927 6660 0
-2717 -1836 0
-3997 3663 0
-6707 8485 0
5358 -5042 0
2802 -2224 0
-8809 -5510 0
3434 -1125 0
-2314 -6065 0
6610 -7877 0
3412 -2923 0
-4203 3425 0
-4954 270 0
7325 7311 0
-7626 2594 0
5965 4220 0
599 -5972 0
-1057 4415 0
7551 7675 0
-3379 -2198 0
3465 2431 0
3727 -5475 0
100 3529 0
-4621 768 0
2094 6726 0
-2099 2959 0
-910 4323 0
2521 1716 0
1616 -5576 0
-523 8080 0
5935 5625 0
-6511 -5076 0
-6179 1659 0
-2419 784 0
-6598 -5112 0
2620 5670 0
8046 -7556 0
-4305 6424 0
1266 -4266 0
-4509 -5999 0
4694 4946 0
1820 4626 0
-2533 1478 0
4655 -5485 0
-6104 -643 0
-5477 4023 0
-93 -4506 0
8100 3579 0
-2289 8043 0
1640 1086 0
-2391 1375 0
-2445 2257 0
-1581 -8431 0
4161 -7898 0
2183 -2373 0
-7527 6632 0
-7887 7270 0
-3849 292 0
2483 -2147 0
-2029 1160 0
-2352 -935 0
673 -5205 0
-5878 3727 0
5400 -5392 0
5531 -7021 0
-4336 -8113 0
-7258 4504 0
8261 -8662 0
8255 -8905 0
7490 -2325 0
4486 5657 0
5289 -6144 0
1293 7066 0
1416 -6714 0
2792 -1462 0
-4643 -2990 0
1050 -3773 0
2384 7902 0
-3951 1753 0
-905 5363 0
5217 4538 0
6722 3068 0
8977 -5357 0
8417 -1322 0
5751 4956 0
-7966 8055 0
-8305 7852 0
-3761 4670 0
-3392 1791 0
7078 1768 0
-637 -806 0
-8905 225 0
-7904 -417 0
5633 6621 0
7637 7670 0
6448 4497 0
-7481 384 0
4940 -3589 0
-1656 2244 0
-6123 3564 0
3463 4816 0
8335 5359 0
-1005 5060 0
-2364 7807 0
8038 8086 0
-3684 -646 0
-401 -983 0
-4244 4172 0
5422 224 0
-4805 -4372 0
4146 7003 0
1286 -2294 0
2279 5960 0
461 1979 0
-3271 -1532 0
-2228 2449 0
-7929 -559 0
-973 -4720 0
4896 4602 0
7166 -4839 0
982 1896 0
6675 8548 0
3700 -1748 0
-4966 2844 0
7426 603 0
-6183 -7600 0
-5611 2133 0
-5877 -8091 0
7108 -2125 0
2744 -2893 0
-2607 -2974 0
8245 -4824 0
3869 -867 0
7101 6205 0
2699 -3236 0
4018 -2305 0
-8938 4902 0
7953 6362 0
-5104 248 0
2506 -6728 0
2498 2131 0
3090 952 0
3955 6114 0
-4103 -1124 0
2686 -2447 0
-897 4940 0
5655 6988 0
-1516 -5095 0
3592 -262 0
5248 -1294 0
2804 -8719 0
3443 3745 0
8413 6518 0
-6036 -5883 0
4815 -8095 0
2612 7993 0
-1084 -5687 0
-8877 -7974 0
-1216 647 0
3631 2131 0
-7182 -4107 0
-2941 4239 0
-6429 3792 0
2388 1111 0
-3912 4937 0
8012 -4493 0
8056 -427 0
-1435 -981 0
7611 -4975 0
5758 -3246 0
6962 -1922 0
1594 3200 0
7282 7684 0
7206 1626 0
2119 -8428 0
3453 6792 0
4705 -1158 0
3519 -5880 0
6190 -3255 0
-7800 -4590 0
-8526 -527 0
8501 -8528 0
-3158 -2256 0
6534 -8983 0
-2153 -8435 0
6645 -3980 0
-8122 -5787 0
-8637 -1525 0
7955 -508 0
-8585 -1901 0
3095 -4054 0
264 4391 0
1227 5890 0
7961 -2066 0
5135 -6005 0
7842 4523 0
-1 6456 0
7980 5551 0
-1114 6463 0
-2322 -1929 0
-1154 -4131 0
8358 831 0
-7852 -3438 0
-1734 2696 0
-7405 -263 0
4653 -4745 0
1381 5360 0
-5003 6778 0
7368 -3670 0
-5791 2885 0
-2939 5535 0
3046 3794 0
-7661 -5852 0
7896 -7789 0
2205 -3982 0
-4059 -2098 0
-2289 5480 0
6278 7499 0
141 -2831 0
3949 -8772 0
-8672 5121 0
-8773 -3143 0
3451 -7172 0
8627 -2243 0
2878 -3342 0
7410 -2300 0
3712 8310 0
-3267 8673 0
-4756 1202 0
3374 -7149 0
7806 -957 0
-3924 7987 0
4910 -5197 0
-6449 383 0
3074 3574 0
-6266 2816 0
7928 1928 0
5539 -8104 0
-2863 -2682 0
-6035 -2939 0
-835 -3152 0
386 6085 0
-5968 3355 0
-4209 7938 0
-4210 5580 0
-5114 -3133 0
8866 6960 0
-3080 -7128 0
5259 -4489 0
-3042 -2530 0
5630 -1493 0
-7521 -7183 0
2390 -2128 0
-3492 4119 0
3852 3801 0
-8079 -1774 0
5411 6209 0
-3369 2994 0
4514 5718 0
-6517 8041 0
-2489 -3692 0
2284 4341 0
4716 -5370 0
8757 5101 0
-8604 2124 0
8794 -1938 0
7627 -1668 0
-4190 -6988 0
8120 8529 0
6946 -4647 0
8121 -5875 0
5502 -3769 0
7735 1619 0
-1230 -4450 0
3280 -2663 0
-1824 -810 0
-3249 -3926 0
2889 2734 0
4667 -7215 0
1106 -2854 0
-2288 -3940 0
-7681 -5500 0
-3991 -8812 0
-1975 -2294 0
5898 -7786 0
-4607 5120 0
-6369 -4304 0
5522 4788 0
-5842 2229 0
6921 5267 0
1190 -1311 0
-792 4452 0
4202 -6167 0
7980 1339 0
4170 7684 0
2630 6782 0
-7799 3322 0
-6930 1895 0
8416 986 0
-2777 -2341 0
6630 -2404 0
907 5543 0
3007 2650 0
-6880 8006 0
850 5809 0
5965 -3080 0
-4323 -6237 0
1096 -171 0
1604 -485 0
3626 6661 0
-1363 -2123 0
4837 3783 0
-5887 2658 0
-8819 1446 0
6624 8928 0
2736 6515 0
3185 1 0
-4555 -1339 0
4017 -3549 0
-4142 732 0
-3531 7906 0
-30 1063 0
-6196 -8135 0
7300 -3747 0
-3255 -497 0
-4688 -6642 0
-5498 -3375 0
-6970 -3501 0
4263 755 0
6517 3704 0
8656 1880 0
-1521 -1637 0
-3234 -8553 0
4929 3081 0
-3215 -1888 0
1560 -5991 0
-5 -87 0
527 -3260 0
1824 8331 0
40 3957 0
-2460 -7902 0
-5976 -3956 0
194 -8410 0
452 -1483 0
-5295 8513 0
453 -1411 0
5122 3243 0
-2022 5664 0
4990 741 0
-6830 8992 0
-7154 -468 0
6198 2935 0
7513 4222 0
-6146 -4568 0
5145 -4349 0
-1744 -7230 0
-1766 8217 0
-5969 5036 0
8798 239 0
-3531 3594 0
-5277 6576 0
652 -795 0
2901 -1450 0
-6907 6486 0
-2153 -3904 0
-6287 -7604 0
7462 6650 0
684 811 0
2935 -5464 0
123 -2787 0
-7571 3878 0
-8727 -4607 0
2202 -2044 0
7606 -1757 0
-311 -2296 0
743 796 0
-5341 -4657 0
-3071 -1984 0
4556 -4075 0
-3428 8140 0
7516 -7619 0
8885 -2747 0
-370 -1263 0
2865 6723 0
2238 5131 0
-2156 -8418 0
6182 7939 0
-266 -4639 0
-7375 -4160 0
2032 6314 0
-3524 4352 0
2491 -4211 0
1810 723 0
4308 -2563 0
340 5629 0
-2616 7455 0
-6936 285 0
-7841 161 0
-397 6782 0
-1903 -2080 0
7974 -881 0
-2101 39 0
-1046 8878 0
-6247 8887 0
-3808 -3909 0
6527 8224 0
-4606 8412 0
-7463 -5563 0
-8012 -8929 0
-8013 2784 0
-2661 545 0
-4312 -1465 0
-4639 -8507 0
-7341 -1745 0
659 -4187 0
1102 -5423 0
-8901 8807 0
5780 3695 0
2400 -4026 0
-5207 -4019 0
-4143 -7232 0
-3217 -7633 0
408 -3927 0
-5396 1864 0
-7956 86 0
-2063 5266 0
5874 -3386 0
-8488 1424 0
-7290 -2720 0
-2239 -2367 0
730 -593 0
-3414 183 0
6399 -5054 0
4737 3575 0
3064 3243 0
4279 -1093 0
4464 7738 0
-2785 553 0
-5742 -1382 0
430 2008 0
6950 5843 0
4748 5009 0
7045 -4896 0
7883 -4722 0
-5857 7923 0
876 3624 0
2188 -4565 0
2452 3985 0
-7950 6814 0
-8043 7340 0
1356 1502 0
-5899 -2442 0
-2860 -3755 0
-4012 -1235 0
6022 -3777 0
401 2606 0
-1357 4081 0
7782 6303 0
1821 -7203 0
-6037 1288 0
3660 -5683 0
7413 887 0
-128 738 0
-921 7091 0
6147 7276 0
-2221 -8293 0
-1865 1111 0
2242 -6441 0
5031 -8515 0
6864 -231 0
-4086 -8506 0
-3428 -162 0
-7289 -827 0
-448 -8869 0
1475 -6613 0
-3649 2696 0
-3709 1220 0
3197 -3707 0
8732 -3783 0
-2190 7606 0
-6493 5229 0
-649 -7625 0
7892 -5798 0
4197 8298 0
6622 -6755 0
8711 1321 0
-8411 6153 0
7056 -8113 0
1202 4650 0
3444 -7316 0
-2285 6228 0
5324 -3578 0
-4125 1614 0
7148 2844 0
-6870 -8076 0
-2967 -47 0
3717 -8637 0
-8699 8162 0
-8856 8887 0
322 1252 0
-3350 819 0
-5231 -8 0
-8513 2957 0
413 -8297 0
-5591 -2149 0
-1588 -647 0
-3357 -217 0
-1982 698 0
7728 2225 0
-2745 -2457 0
-6842 4861 0
7823 -376 0
-2381 168 0
-1648 -2475 0
-1693 3085 0
-7506 2058 0
-1455 -2563 0
3943 6529 0
-7479 -6972 0
2318 3917 0
-806 -3012 0
-6084 4843 0
-6080 617 0
8033 -3342 0
8466 3479 0
-5579 2852 0
-2398 -7867 0
-8484 404 0
-1950 2834 0
1673 8026 0
-566 -7308 0
-3048 7851 0
7090 -4317 0
2463 -2737 0
-7590 -2635 0
4244 4506 0
-4067 -4811 0
4477 8561 0
-87 2470 0
7334 2471 0
8198 2466 0
-1238 1334 0
4597 6660 0
-1992 7556 0
-6815 -2665 0
5119 6153 0
-7038 -6197 0
3916 -2176 0
-845 -5037 0
-6344 4926 0
5701 4266 0
3475 5810 0
6308 -7174 0
3097 -130 0
5041 7748 0
-2181 -6283 0
698 -6038 0
4554 5198 0
6661 4455 0
4439 -4225 0
3795 8754 0
523 -8972 0
8784 5350 0
-440 -1954 0
-4321 -6491 0
5700 -6642 0
1791 -7123 0
8878 6053 0
-4980 -7801 0
2181 6000 0
-8723 5212 0
4344 5789 0
-6525 -4336 0
1347 -4490 0
-5496 -5060 0
-4309 507 0
7994 1042 0
6345 6973 0
-7881 7045 0
-3442 2946 0
-299 8654 0
-542 3402 0
-8557 4188 0
-2522 6290 0
1674 5999 0
4989 1429 0
6057 2827 0
-1307 3608 0
-6004 -7764 0
-2148 8372 0
7584 3318 0
-2516 1883 0
2230 8077 0
-5591 5480 0
-5418 7853 0
-2776 4093 0
-938 -6639 0
-1640 -71 0
4795 7944 0
-3636 8599 0
-6971 -898 0
-2693 1622 0
8452 3589 0
3111 4294 0
5717 -2680 0
4610 1602 0
628 -7272 0
-2327 -4718 0
-5892 -3185 0
8465 -1903 0
1287 -206 0
2287 1252 0
-8983 5502 0
928 8092 0
-8563 -9000 0
1519 5764 0
-4118 2444 0
-4954 1568 0
-4203 -4067 0
-3768 -595 0
4972 1600 0
-3168 -5317 0
-1746 5297 0
-5780 -4580 0
-4826 8696 0
3346 -4343 0
6392 2513 0
8711 4267 0
-5798 -8367 0
641 -1259 0
-2869 2916 0
7292 2992 0
-4212 -7901 0
1726 8236 0
-1979 4970 0
-6148 -2038 0
8514 5075 0
-3007 -2079 0
-3832 -4948 0
-7439 -6050 0
-3532 4623 0
-5322 -6722 0
6693 -8944 0
-8980 -2320 0
6192 -1436 0
-5179 -5020 0
1598 8594 0
517 3757 0
3071 5909 0
-3913 -3553 0
4456 -4966 0
3241 5579 0
-7638 1840 0
-176 4997 0
361 -2312 0
-5805 8011 0
-8461 -8691 0
-6173 -1290 0
-6789 -933 0
1107 4208 0
8349 4136 0
-7550 -7561 0
8864 -7827 0
5780 6567 0
5445 5251 0
1348 2991 0
-3436 885 0
-4340 6032 0
3453 5612 0
6245 2081 0
7759 -6018 0
-1114 4327 0
-2733 -1031 0
-6334 -5370 0
67 -2799 0
5339 -2753 0
3050 -1223 0
1960 867 0
-7433 3418 0
1254 -8847 0
-4021 2714 0
8661 5393 0
6679 -1233 0
1933 1818 0
3003 1197 0
-4083 7008 0
-1888 3527 0
-3358 3841 0
-7546 1776 0
1816 83 0
-6682 -239 0
2299 -1051 0
-7128 6679 0
5548 -6600 0
-1525 -8627 0
-506 4941 0
1485 717 0
-7051 6697 0
7284 -3532 0
3428 -6294 0
8025 -2469 0
-5873 -8128 0
-4387 -4923 0
4109 -1338 0
-7631 -506 0
115 7772 0
6101 -5781 0
-7545 -3421 0
4493 2318 0
-6330 -317 0
7722 2921 0
1271 558 0
6851 5639 0
5603 -3141 0
974 -366 0
5593 -1954 0
-6795 7947 0
-1561 1586 0
2970 -4970 0
-7049 5058 0
-64 4361 0
4659 -8572 0
3785 -1629 0
-8070 2670 0
676 -4150 0
1558 -1989 0
-7391 -2205 0
1690 7669 0
6257 -6039 0
-484 1060 0
7919 -5470 0
5640 6848 0
-7518 -5802 0
-5004 1398 0
-3453 -4642 0
-6407 1639 0
3467 8145 0
7646 -1936 0
8405 4534 0
4611 3475 0
8205 1815 0
924 5859 0
-2139 3014 0
-6924 5485 0
8218 -2582 0
-2553 -7178 0
5086 -445 0
7075 4204 0
6589 -1798 0
1609 7488 0
7427 -7067 0
-2951 -3388 0
-8916 1386 0
3061 4711 0
8055 6696 0
870 3944 0
2181 7456 0
-1111 -5479 0
7810 1218 0
2490 -4716 0
-1525 -3139 0
5110 -55 0
-2700 1690 0
-5355 -4103 0
-5426 372 0
-251 3367 0
-1153 -8570 0
-177 4777 0
6998 8824 0
-2671 -1886 0
8248 -8572 0
8462 8199 0
1014 -6820 0
6518 2656 0
-3146 2605 0
-38 3727 0
6939 -7256 0
-3278 -1701 0
8504 11 0
4724 904 0
-5507 48 0
-6717 4375 0
7784 -4282 0
6705 -806 0
1977 2974 0
7101 -7631 0
3936 5868 0
8548 -1947 0
496 4773 0
1773 -8489 0
-7908 -2079 0
-6333 -8027 0
-6915 3875 0
7796 -5972 0
8754 -6307 0
-2131 5111 0
-5730 6597 0
7628 -2028 0
2503 -4435 0
-4964 -328 0
-4221 -962 0
727 -6806 0
4870 6694 0
5249 -3128 0
8073 -4614 0
-6117 7952 0
-973 6753 0
-6158 1141 0
-3923 -865 0
8180 -4048 0
-7970 6335 0
-509 6919 0
5821 2712 0
-1434 8343 0
-3151 7018 0
-6048 2308 0
3250 6241 0
8236 -2575 0
6463 -3930 0
-5312 -7012 0
5500 5754 0
-1087 2570 0
-7942 -3006 0
-184 3364 0
-3825 2634 0
-8471 -1376 0
-2530 -5044 0
-8715 2922 0
534 -5196 0
6224 -7380 0
-5022 4460 0
810 -5634 0
2014 3750 0
-6142 3925 0
-7526 -5358 0
5504 -2275 0
8702 3735 0
8840 2138 0
6213 5862 0
-827 -2130 0
5182 404 0
5337 8067 0
-5304 4499 0
3242 -3768 0
-1672 -53 0
-750 5680 0
-6463 -8672 0
780 -6160 0
5092 -3622 0
3701 1882 0
-3496 1507 0
-2382 -3877 0
-8392 8057 0
-1840 8606 0
3374 2409 0
-5609 6570 0
-934 872 0
-1492 -2388 0
3536 1813 0
-7946 6091 0
-5142 1275 0
-7740 5940 0
-2190 -6770 0
4331 -7304 0
8971 1688 0
7692 -7926 0
-8411 4092 0
2826 5266 0
-4124 3472 0
-8677 1900 0
-4566 6028 0
-610 -4447 0
-4816 -1322 0
-8635 -8730 0
-4434 2473 0
4449 398 0
-7844 2734 0
-7899 8252 0
4876 3598 0
-6633 -5386 0
1275 3292 0
2193 8362 0
-1835 1158 0
5789 2404 0
-2895 6157 0
7976 -5014 0
-6552 4709 0
3806 -8272 0
6687 8473 0
1276 4222 0
-1088 2547 0
2595 -6605 0
3274 7010 0
7386 -8246 0
2649 8245 0
-8563 -623 0
2946 5773 0
7460 -8257 0
323 3011 0
5983 5998 0
-2831 -3242 0
-906 2191 0
4999 7887 0
-445 3147 0
-5106 2857 0
-4056 3203 0
4291 6857 0
-2715 -4617 0
-4864 3592 0
-2223 8800 0
6867 1670 0
2832 5941 0
-7296 -7046 0
-5799 -5150 0
-4726 7456 0
1002 -7060 0
-3517 2113 0
2435 -1829 0
-7420 1549 0
-6757 -6552 0
446 1719 0
-5907 -6021 0
5696 -2880 0
-2282 -6381 0
-6606 -576 0
-1077 -6372 0
-4662 5592 0
-2720 3963 0
-5910 -7580 0
3368 2974 0
-4911 -1128 0
2402 -4052 0
-4720 -2364 0
3814 -1590 0
-3096 5490 0
4308 -4972 0
-4210 -6022 0
8522 3741 0
-5123 7314 0
-3329 -7859 0
-6875 4491 0
2921 4316 0
-4630 3963 0
-2134 -8406 0
-1997 4840 0
50 -2464 0
-7348 8743 0
7711 -3185 0
7753 4267 0
-3772 103 0
-8550 -8273 0
351 1616 0
-622 1542 0
5057 -3081 0
1315 3216 0
4253 5997 0
-5557 -5841 0
-7772 3119 0
5060 -4463 0
-5766 -7937 0
6621 -6690 0
-351 -517 0
7336 -3266 0
948 4568 0
725 -3737 0
5366 -1399 0
-7454 5556 0
4476 3119 0
-4157 -5837 0
-5747 3562 0
825 4780 0
-6266 496 0
-1382 -6191 0
-4541 -2566 0
-1305 -3692 0
-4757 2520 0
-7625 -559 0
4809 -5776 0
-1717 -1996 0
7930 8159 0
673 -733 0
-3412 -5288 0
1356 3913 0
-2622 -7522 0
-3177 -3414 0
-3214 6019 0
3466 -8879 0
1403 -8133 0
610 -3030 0
2868 -3203 0
-6446 5087 0
-6113 -7368 0
-5042 -4965 0
-2842 -6468 0
6985 3291 0
-1493 -4443 0
8758 851 0
8862 5216 0
3870 3420 0
8047 3132 0
4207 2745 0
4465 2962 0
-3071 6937 0
-8533 4700 0
197 -695 0
14 -8821 0
6754 947 0
2570 1355 0
-4165 -3958 0
522 7207 0
-7980 1039 0
7256 6788 0
-5626 -262 0
-5369 -7165 0
5564 5888 0
7427 -7778 0
-7313 5907 0
-2683 7916 0
-3965 -592 0
-3291 -8454 0
3246 -4332 0
7208 1047 0
-7476 -8231 0
6986 -6817 0
6902 -8306 0
3176 -6234 0
-2914 -1100 0
2110 -2192 0
4972 2699 0
-7128 5209 0
-8573 921 0
-5323 -3438 0
-1865 5158 0
2905 5367 0
-3693 -6957 0
4871 -8450 0
-2842 6073 0
8515 7629 0
6484 -3034 0
8886 1136 0
-8024 -6154 0
8749 3144 0
-5090 1519 0
-4835 6939 0
-6048 -2099 0
-7876 -5077 0
-7192 -1127 0
1541 -4931 0
-6728 -4448 0
1282 -5223 0
-6520 -614 0
-6139 1710 0
3418 8810 0
-8346 7617 0
252 1863 0
-2249 -2181 0
-85 -4390 0
7343 8096 0
-1994 -3217 0
-4250 1498 0
2229 -7669 0
-1044 -3687 0
-6083 -4821 0
7270 -3190 0
1800 3958 0
6367 -5964 0
-5976 -54 0
6267 4497 0
-4205 -5136 0
4618 -7750 0
8976 7942 0
5071 1923 0
-489 2050 0
6558 5065 0
4044 2532 0
4496 2956 0
-184 4772 0
2178 -5830 0
-626 4520 0
8615 3611 0
-1492 7226 0
-1434 7058 0
3824 -8800 0
8077 8701 0
-3260 -6002 0
1518 -4535 0
1210 2211 0
304 8093 0
-2820 3128 0
1911 4220 0
3723 3730 0
1940 3738 0
4261 6427 0
704 -8164 0
2747 3250 0
-7446 -3712 0
-6397 -3150 0
-1518 570 0
-4810 -3618 0
7773 -6848 0
7113 1257 0
-2543 5393 0
-3921 3162 0
6838 887 0
204 6623 0
549 3410 0
4837 -926 0
-4562 -3772 0
7653 -5549 0
5673 8787 0
-7032 774 0
5747 -1925 0
-4902 895 0
2453 -939 0
-1049 3048 0
-3822 -3408 0
-3302 -3594 0
17 -6625 0
-644 5123 0
-2513 5473 0
-8303 5612 0
-8549 5087 0
1935 -5158 0
3529 1091 0
8153 7964 0
7290 383 0
-8937 5335 0
7703 1083 0
7725 1576 0
3600 -4140 0
-2451 -1942 0
-8937 698 0
-3489 2232 0
-2112 3114 0
5421 870 0
-6820 -6520 0
3134 3349 0
296 269 0
2642 -886 0
8912 -6671 0
-8270 5386 0
3067 -2799 0
-2170 7289 0
-1938 -740 0
6562 -2253 0
-8913 4815 0
3138 2550 0
-4846 -5581 0
688 -744 0
-2392 -1508 0
8601 -6638 0
-2500 -2066 0
5521 8673 0
4055 -6 0
8470 -1620 0
3247 -2377 0
-5839 1013 0
-7930 911 0
3105 -6903 0
1973 -2206 0
-3097 2091 0
-1685 7343 0
2018 -1824 0
5661 -6447 0
-1841 6896 0
3201 5266 0
8834 5276 0
6001 -4535 0
870 -8710 0
-1110 -7472 0
893 -5185 0
-6785 -765 0
-1207 -6843 0
-7204 890 0
-4541 -6368 0
-2872 -2426 0
8447 2793 0
-6023 -2623 0
-3266 -2576 0
-4495 -5670 0
-1637 -1102 0
3691 -7880 0
-5480 -2196 0
673 1579 0
-2269 -8366 0
6106 -6808 0
-7059 7340 0
4726 -1344 0
3452 3499 0
3823 7018 0
8590 3127 0
5469 8005 0
7400 -7471 0
2111 3648 0
-8127 -6083 0
-1796 6262 0
-8642 -1372 0
-903 -4090 0
8114 2738 0
-5062 2752 0
8478 -1396 0
3200 2007 0
-2863 -7450 0
260 -1428 0
7405 -4527 0
139 -6418 0
-4039 -2377 0
-2367 7713 0
-5271 -401 0
847 2653 0
6749 3436 0
298 4109 0
-4671 -54 0
3053 -2022 0
1046 3964 0
2114 -857 0
5627 -7800 0
-6310 -383 0
-2554 -7571 0
-2397 -3845 0
-7193 723 0
-1297 365 0
6851 -2452 0
7656 -8409 0
-6696 8185 0
-5263 4900 0
-8278 -2714 0
-2353 -8846 0
-1150 -5763 0
766 -8702 0
-8429 4855 0
-5853 7510 0
-8817 -5067 0
6946 2442 0
1572 -2830 0
7002 -8347 0
1325 5282 0
5490 -3423 0
-8589 -7217 0
6412 6263 0
-8177 -6947 0
7931 5957 0
-806 6656 0
-1948 -3866 0
-7767 -5206 0
8905 6818 0
-6425 5488 0
-4347 -5274 0
-665 3971 0
-6249 7377 0
615 -661 0
1084 -2365 0
6411 5464 0
-2434 -3937 0
-84 2487 0
575 6940 0
2994 8667 0
-4241 4032 0
2706 2073 0
5435 3504 0
-2691 3802 0
-1338 -8588 0
2396 -7974 0
-8418 -2574 0
-6251 -843 0
-3439 1790 0
1125 -6772 0
7243 -2092 0
4598 6650 0
-8197 2883 0
1883 -3103 0
-7256 -4319 0
3086 3133 0
-1442 3106 0
3494 6271 0
6546 2318 0
7488 -1508 0
2425 -2700 0
-3994 -357 0
5401 3918 0
-8586 -5445 0
-7631 3180 0
6811 -6340 0
1173 3697 0
-6131 2793 0
5443 -6974 0
8114 2657 0
-6798 -2839 0
-3539 2261 0
-6806 -4640 0
-642 -3242 0
7352 -6216 0
-1142 -8043 0
-5748 6263 0
7553 -2504 0
1540 5863 0
1917 5737 0
-7693 1210 0
-6283 8674 0
-8852 6412 0
5907 1025 0
-2698 -8874 0
3840 -2861 0
5670 7400 0
1639 5272 0
759 6180 0
8835 -1806 0
4144 -8091 0
-6861 -2660 0
6724 -7325 0
4799 -7110 0
2887 2905 0
4714 8875 0
2382 -1321 0
1494 7374 0
5179 4455 0
-7475 -7854 0
4192 -4134 0
-5920 -4877 0
402 -3541 0
-2050 -1698 0
5644 5340 0
300 -5805 0
2187 -4582 0
-972 1443 0
8349 -1849 0
5452 1994 0
2076 -3675 0
6071 -8476 0
5046 2405 0
-6011 2492 0
7626 1222 0
8778 3248 0
-888 -2002 0
8802 -3150 0
5086 -8471 0
4248 1762 0
-6891 -1114 0
-7680 -5290 0
-985 6910 0
-7427 3954 0
-1272 1976 0
5453 -1915 0
-3324 -2285 0
-5419 -3615 0
-8921 -8099 0
-8895 311 0
-7137 -674 0
-8592 -1320 0
6070 -4797 0
-4528 8827 0
-4005 2802 0
-625 -4975 0
-3726 -8629 0
1068 -6539 0
8584 -8589 0
-4622 895 0
2130 5514 0
-4354 713 0
-7132 8802 0
-6083 3148 0
-5471 1928 0
3871 -6691 0
-1256 2094 0
-6436 -5062 0
-8110 4457 0
6615 8974 0
-8440 -5718 0
-8255 -2060 0
1101 4677 0
-2863 -4124 0
-3438 7914 0
6358 -5364 0
-7298 236 0
4779 5943 0
-8669 -7221 0
-6177 -4007 0
2953 3931 0
616 1798 0
8609 7077 0
8445 -7960 0
162 -3644 0
-6200 3317 0
-5159 3930 0
6756 2013 0
-5420 -5501 0
8506 -7513 0
4676 976 0
105 -7301 0
2239 -5737 0
8855 -8518 0
4029 954 0
1884 1432 0
-8390 -6468 0
98 8919 0
6336 -2611 0
6225 4588 0
5487 4825 0
6892 -7930 0
-2980 8845 0
-5402 7072 0
7151 1129 0
-6148 -5956 0
5455 -6125 0
-5094 -2281 0
6324 -6936 0
-345 -6011 0
-4893 -8452 0
-8397 -4606 0
8144 -3321 0
7538 -4938 0
-2695 7874 0
-3178 7165 0
8417 -5301 0
7548 7071 0
-8324 3010 0
-7749 4216 0
7880 -2439 0
-7203 -92 0
-2441 5826 0
-2019 8281 0
-2466 6929 0
-5261 6810 0
1392 -3932 0
-7838 6831 0
1939 -6363 0
-1574 -3437 0
-6588 5612 0
4017 -4276 0
-8779 2459 0
-2356 7166 0
-3439 -1822 0
-8079 6893 0
460 4731 0
-3646 1007 0
-6051 8323 0
8072 2058 0
5536 8882 0
5138 -606 0
-750 -4966 0
4916 7923 0
2435 -8649 0
129 3315 0
-3367 6807 0
1539 -1882 0
-8250 2242 0
6884 4669 0
1548 2089 0
4508 -8901 0
-3137 1411 0
6502 -8904 0
2802 4867 0
6546 -227 0
3351 -1658 0
-4040 -6913 0
-5274 -2468 0
-3234 3661 0
-703 -5606 0
-6380 -6039 0
7608 7517 0
-2213 1801 0
6508 -6628 0
-5589 -1804 0
7914 2760 0
-8626 -8892 0
4182 8226 0
1813 5566 0
-911 -6247 0
-7324 -4482 0
-4633 -7574 0
3901 7778 0
-5043 3879 0
5887 8620 0
1407 4760 0
6386 1808 0
-183 7501 0
4829 5372 0
6759 -8713 0
-5598 6066 0
1802 -675 0
2915 -4231 0
-3949 5148 0
-3094 -5338 0
3059 -1867 0
3238 425 0
-281 8870 0
-6527 6654 0
-5287 -6236 0
-5748 -5828 0
4872 5167 0
5998 7410 0
85 -5974 0
6200 8859 0
7743 4120 0
4108 -3304 0
4762 4479 0
-7825 1430 0
3202 591 0
-8880 -1692 0
5779 8197 0
3766 1065 0
-3968 3948 0
-1194 -8556 0
3389 -1290 0
4678 -4496 0
8086 -3047 0
-1734 138 0
-7092 4128 0
-781 2014 0
7360 -3997 0
-2506 -2980 0
3104 7774 0
4893 7449 0
4051 -5235 0
-6853 -6219 0
-4888 8199 0
4740 -4178 0
1581 4743 0
2376 -1696 0
3036 -218 0
-398 -8125 0
-5787 -8125 0
-2255 -6236 0
3062 -7730 0
8946 -832 0
7471 6201 0
6319 6960 0
-4970 -6481 0
-8984 5746 0
2311 1411 0
1758 -4823 0
5898 3942 0
-1090 -1941 0
4369 -850 0
-4744 2780 0
-2414 1083 0
6998 5639 0
-5259 -1101 0
-8563 -6872 0
-3696 170 0
-6390 -1826 0
545 -3565 0
3055 8146 0
2129 656 0
-4730 4113 0
-2221 8531 0
5571 -4462 0
3815 -6484 0
3764 5979 0
-8025 2105 0
-42 -2128 0
-1425 -4578 0
3430 -7479 0
-3300 -4947 0
-3790 -4483 0
1583 -4050 0
-4679 4249 0
2318 -6043 0
7252 8850 0
-1537 6302 0
-1483 -5575 0
1944 6445 0
-1291 -4534 0
-6523 1764 0
-1761 -3231 0
7570 -4028 0
7315 6362 0
1429 -2801 0
-173 -6664 0
7392 4409 0
-3528 3017 0
-7407 163 0
-6377 -1470 0
-2370 8542 0
-2461 -5473 0
2114 -205 0
1502 -4155 0
380 -2758 0
819 6144 0
-2844 4160 0
-2293 49 0
-5308 -6642 0
8393 5640 0
-7307 139 0
-2405 4192 0
595 3879 0
-1797 -3353 0
1827 -3968 0
-4357 -7976 0
-1615 -5604 0
4261 5493 0
5712 -4155 0
2569 -2317 0
4415 -987 0
-7264 4078 0
-6304 -6347 0
8054 -4749 0
8567 -2412 0
-2563 3122 0
-2692 -62 0
2466 -786 0
4860 -2599 0
-7492 8476 0
-146 7464 0
2269 2936 0
-3475 -4378 0
1676 -2751 0
4746 8917 0
-1584 7094 0
6509 -4562 0
2634 1522 0
8626 -6217 0
-3888 -4480 0
-806 -125 0
7158 8068 0
6482 -5634 0
8452 -3377 0
-7698 -2634 0
7268 3213 0
4791 -574 0
7689 8606 0
-4914 -3890 0
8643 6674 0
-1661 2419 0
-3243 6844 0
8875 -2182 0
-273 -7251 0
-2283 1380 0
7922 979 0
8732 3495 0
-2576 2824 0
5315 4879 0
-4139 -2310 0
4830 -7633 0
1857 5481 0
7271 -1538 0
-74 -8374 0
4407 -5329 0
609 -8118 0
6942 7462 0
5457 8592 0
6163 3069 0
-5233 4015 0
897 348 0
6046 4 0
2365 2295 0
3959 5933 0
-373 2017 0
-184 2413 0
5054 -4169 0
-4669 -4819 0
5792 4251 0
1253 -2019 0
2238 4070 0
-483 6113 0
5076 -5931 0
-7583 -2134 0
8007 -1127 0
-6026 -4123 0
2575 7987 0
-6327 7393 0
-7250 -2196 0
4133 -5791 0
1229 -1500 0
6641 8234 0
-833 -5594 0
-2252 -468 0
-4974 -1181 0
4105 -8223 0
-5022 3270 0
4430 -537 0
7702 8895 0
231 -99 0
3232 1354 0
1819 3039 0
4003 7795 0
360 1695 0
-3927 4017 0
-4925 1675 0
-4075 -2314 0
822 5083 0
4301 6365 0
228 8232 0
152 160 0
2971 -4103 0
-5147 5890 0
-1310 1365 0
3977 5412 0
2209 7649 0
-5541 1062 0
6477 -10 0
7869 -7910 0
1188 -5899 0
3625 -3674 0
-6301 2032 0
-6420 -1569 0
-2856 2591 0
2807 -5210 0
-3854 7533 0
-1149 8692 0
5015 7118 0
-5290 -4381 0
8586 8478 0
2788 8918 0
3871 6315 0
-4375 -3781 0
-159 1306 0
-8541 -5357 0
-6002 5586 0
874 -1915 0
-3206 -2841 0
-4231 -3638 0
-3060 -3052 0
7059 -8986 0
-5611 -1805 0
-2374 -1145 0
3706 -2627 0
5191 4404 0
684 -3688 0
-1551 2095 0
292 -8321 0
-1947 7665 0
-2715 -8142 0
5060 6832 0
6704 -4417 0
2580 -192 0
7054 1724 0
8065 7458 0
7365 4415 0
-1623 6746 0
-185 -6252 0
8889 -8984 0
4038 -6736 0
-4578 277 0
7353 5074 0
-8472 -6978 0
-747 -2169 0
-149 -953 0
7708 1535 0
-4125 -1590 0
-6956 -1900 0
8352 -4389 0
-4998 8940 0
6165 1493 0
-177 -8558 0
-5289 -5447 0
7712 -3636 0
-6129 -6101 0
-2918 1644 0
1366 -4963 0
2478 -4245 0
8455 7926 0
4695 -7991 0
5268 -4332 0
6610 934 0
4583 -1632 0
-6176 4232 0
-1492 -1437 0
7085 -6585 0
-8554 -6386 0
-2954 -825 0
-281 -7094 0
4680 2384 0
-1612 -60 0
-6296 -3287 0
-3551 -8960 0
7416 -8189 0
7927 -2739 0
4330 5508 0
-5930 2878 0
-8179 552 0
5659 6428 0
-4159 3398 0
682 -2981 0
7151 3265 0
3052 -5694 0
-8969 6549 0
-16 -3206 0
-7743 -4188 0
3250 8135 0
-5373 8858 0
-5849 6739 0
4832 -1805 0
-6285 255 0
7717 -5296 0
-8285 -1916 0
-4888 204 0
4062 -5052 0
-1508 -3481 0
5086 8519 0
-8991 8989 0
8087 2406 0
-6589 6291 0
602 2105 0
6224 -6618 0
-3854 1918 0
-567 463 0
3372 5376 0
2016 830 0
3525 -3202 0
8141 1274 0
6912 4751 0
-1738 -5739 0
-4428 -5185 0
8705 -7470 0
8020 6940 0
7217 -5659 0
-3727 6231 0
-1998 5470 0
-7863 432 0
3608 6201 0
4096 1705 0
-315 -6619 0
-2745 8655 0
7915 -5839 0
-6361 -1057 0
-4122 -6698 0
-8630 7075 0
1740 -8411 0
6926 3263 0
-8539 5866 0
-979 -2005 0
-6856 4392 0
-4155 -2998 0
3426 -1299 0
2339 -6811 0
-348 2955 0
-6346 -6007 0
5840 4003 0
-8411 -5202 0
-1644 -1508 0
3538 -1115 0
-63 6493 0
6329 -54 0
-8820 6731 0
2139 6859 0
-1963 2856 0
-8947 -3517 0
-3263 5493 0
8303 -2930 0
-2676 -565 0
1364 5589 0
6482 4174 0
1163 -8919 0
-232 -1426 0
-4622 -79 0
-345 -1847 0
7071 -7995 0
4175 6309 0
3540 7099 0
-7663 1177 0
-8246 -4804 0
8584 4638 0
1253 -6026 0
-8355 -5746 0
7295 1537 0
2594 333 0
-3849 -1046 0
-7319 5136 0
-8110 -6750 0
-3220 8078 0
1531 4919 0
8245 7110 0
8234 6055 0
-4328 -881 0
-2046 -4526 0
-3969 2335 0
-3075 5406 0
-7889 5723 0
-778 -3246 0
-5737 2243 0
-2146 -5675 0
-7108 2919 0
-4381 -1468 0
-570 -4965 0
1540 8716 0
-1941 8495 0
4514 5346 0
8797 -4702 0
-2961 7578 0
-6160 6338 0
-8648 -1200 0
-2477 -4157 0
-1325 7890 0
-3337 5722 0
7641 3592 0
1562 -3984 0
8280 -2493 0
1272 -2055 0
-2906 -444 0
-2080 -3193 0
7426 1443 0
-5233 -6360 0
345 2394 0
5952 2521 0
-8180 -3866 0
-1942 -8595 0
-912 2883 0
6314 -2722 0
-1652 8248 0
-4299 1006 0
8816 -4431 0
-3476 3715 0
2315 5958 0
-5114 -6964 0
7756 5692 0
2435 6582 0
2742 -4882 0
4437 -154 0
6345 -7280 0
5883 -1670 0
2859 -8165 0
-1913 5921 0
2879 3538 0
-7630 -2980 0
-7940 -3252 0
6169 -1540 0
1952 5096 0
5739 -6096 0
-4118 7544 0
8130 5336 0
6746 -598 0
-3606 2955 0
8573 -3287 0
954 -2550 0
-5093 6809 0
2089 -6854 0
-6263 -6244 0
8150 -4221 0
6692 -2523 0
-5814 -5959 0
6138 -1638 0
-3966 380 0
1071 -921 0
-3096 -1673 0
-3582 975 0
-1847 4278 0
6449 5346 0
-3354 458 0
6251 -5368 0
5307 -3400 0
5831 8428 0
-441 -4585 0
5566 6583 0
-2798 -1206 0
4445 -6893 0
7726 -6070 0
-8583 -8983 0
-2679 -7940 0
2658 -7099 0
8754 -3279 0
-1793 -5623 0
5995 -7649 0
-2234 -7766 0
-2874 -8588 0
1267 -2326 0
-4180 -5470 0
4509 4990 0
-4905 -8346 0
-3296 -7779 0
-1452 2770 0
7741 -2060 0
1878 -6613 0
-1147 -5423 0
8261 3827 0
-7272 6255 0
6055 -5753 0
-2084 -4220 0
-4048 -4627 0
1039 8764 0
-5478 -8644 0
-686 6147 0
1190 6989 0
7791 5159 0
-3462 2215 0
2267 4940 0
3870 872 0
-6316 -7150 0
-5300 -1702 0
6967 -1478 0
-4888 -8609 0
-8730 -8842 0
-6210 8501 0
8138 5749 0
-7920 -7349 0
-2731 3521 0
6372 -7226 0
-912 -7913 0
1498 -2084 0
6577 -6094 0
-3931 -7412 0
-6815 -5418 0
3166 -4994 0
-3867 294 0
6249 4561 0
1891 7031 0
-7442 -2348 0
912 -2987 0
1325 4460 0
519 3261 0
-2006 -7859 0
2922 -335 0
-7140 -4066 0
148 -1825 0
5605 5258 0
100 3554 0
-5568 -2810 0
-5733 2873 0
7368 -5552 0
5145 -1238 0
-5649 2118 0
-1030 5378 0
2874 566 0
355 7236 0
-5624 5013 0
-8833 -3009 0
836 -3034 0
303 -8506 0
-2084 1268 0
45 -1081 0
715 -455 0
1499 -8525 0
5207 1624 0
8963 8809 0
-5397 -3470 0
-5555 8919 0
-571 -1833 0
-4922 3007 0
5385 8212 0
3500 -41 0
-4822 4202 0
-7190 3370 0
-1612 3969 0
1763 583 0
3536 6809 0
-6096 -8342 0
-1521 -988 0
2509 986 0
-7010 -7547 0
2824 589 0
6740 -1613 0
-7769 4452 0
3905 -3565 0
-3596 4315 0
2343 8186 0
2428 7560 0
-1826 -973 0
4524 1511 0
1558 615 0
-1437 1713 0
8623 -2875 0
4087 7801 0
-2288 -8852 0
-1648 -6146 0
-3647 -7863 0
7156 667 0
-5811 -2299 0
-4682 -8223 0
-8299 386 0
6306 144 0
1595 7087 0
-2727 2040 0
8749 3440 0
8109 -5587 0
2889 8989 0
-2082 -6325 0
7736 4070 0
6594 8689 0
-5881 -3585 0
-7588 26 0
8919 2526 0
6436 1920 0
456 -5435 0
2259 -5672 0
-7224 4226 0
1076 -5195 0
244 -3483 0
2147 7102 0
-6913 -1394 0
-3444 8618 0
1542 -4030 0
-7466 4375 0
5608 -714 0
-5591 -3402 0
-6634 -6801 0
-1370 5446 0
-6432 631 0
8320 -511 0
-6510 -8468 0
-2684 7824 0
-5645 986 0
-4514 -695 0
-21 -4385 0
5265 7773 0
-8666 -6869 0
8926 8609 0
-8679 -1341 0
-2678 6488 0
259 3598 0
-6516 8163 0
6056 302 0
5891 -947 0
-2331 5099 0
-1678 4924 0
-6454 3863 0
522 -4267 0
-5239 -6748 0
147 8171 0
-3001 -6420 0
5180 2479 0
-5298 -2287 0
4600 1466 0
-8764 172 0
6596 8788 0
4173 2178 0
6269 3954 0
3095 -1652 0
-5500 -6299 0
-8095 2182 0
-980 5600 0
-1086 2759 0
2771 -5606 0
-5612 8240 0
133 2146 0
-605 4320 0
-4626 7377 0
4795 -6099 0
-3009 439 0
8585 7426 0
400 1315 0
-2410 -882 0
-7515 8517 0
5826 3511 0
-6582 5129 0
5824 -1402 0
8656 -7220 0
6239 -6244 0
-6829 -7 0
-4209 8169 0
6912 -6011 0
-3162 2570 0
-7753 7101 0
1471 -3526 0
4734 3473 0
-4495 2443 0
1719 5972 0
5263 -2488 0
-412 2194 0
5934 5671 0
3228 5684 0
2788 -3187 0
-1673 3434 0
6448 6561 0
2498 2 0
5050 -8431 0
6969 7428 0
5207 -5334 0
5171 -3760 0
3268 -830 0
2578 -5881 0
-6168 8581 0
4762 -4352 0
1542 -6912 0
-8013 -5535 0
946 8026 0
-6881 -4946 0
7268 5176 0
-2376 -6341 0
4927 6013 0
-1689 -8015 0
5232 -1740 0
-4328 4695 0
6782 -2744 0
6305 5440 0
4840 -5552 0
-2059 -3799 0
8437 -3078 0
7256 -3548 0
366 566 0
-7895 6609 0
2747 2415 0
605 -3187 0
-1301 4452 0
8498 505 0
-6112 8978 0
-2646 -8891 0
8836 7828 0
-6733 6544 0
7370 5281 0
-8850 3256 0
2260 2658 0
4267 -2166 0
6165 -2990 0
6865 -7359 0
5640 -1236 0
-2528 -2317 0
-2215 -3034 0
-1128 3749 0
-912 -4748 0
-2469 2064 0
-8996 6221 0
-8011 5243 0
-8323 -5743 0
-3974 -667 0
-2460 -4993 0
4463 -943 0
-1511 8621 0
-1154 -4423 0
5640 6734 0
-8561 -4602 0
3640 -3988 0
-369 -7198 0
5266 4000 0
-1664 -2946 0
532 7771 0
8967 5887 0
5483 -8972 0
-1779 2266 0
504 -2015 0
6568 5348 0
-1310 -795 0
-3423 5212 0
1054 4505 0
8675 8076 0
4509 -562 0
-3959 2800 0
-5961 2932 0
-903 4197 0
-8803 -339 0
2873 -1585 0
-3490 -8908 0
529 1314 0
-308 752 0
-6639 -2775 0
-639 4575 0
3053 5129 0
-4338 -7220 0
-3048 7259 0
-7271 3053 0
379 6581 0
288 -4829 0
6329 2481 0
6052 -8168 0
-7728 -6922 0
2388 -2539 0
-312 -8728 0
5752 -5315 0
4177 -330 0
2675 3982 0
3019 366 0
3146 6806 0
8300 3766 0
-2479 7717 0
7424 4379 0
318 -1263 0
-4851 8954 0
-6816 -8651 0
3818 -8189 0
3647 3276 0
-2631 4900 0
-577 -8514 0
-4234 -2441 0
6047 -6761 0
6296 6079 0
7410 -1133 0
-8272 -5936 0
241 772 0
6339 8848 0
6481 4463 0
8462 -7930 0
-4063 -4507 0
-7958 -162 0
-8512 7557 0
-7271 -442 0
-1298 3226 0
-2325 8240 0
6693 5218 0
-1746 -7463 0
-8396 -7710 0
-1137 -5499 0
-158 2079 0
-1221 5046 0
8773 -609 0
2126 -2264 0
8875 1820 0
-7203 1556 0
8495 -6212 0
6574 969 0
-1986 -4609 0
-5370 -8985 0
-2190 -3644 0
-7229 -2270 0
-815 -8500 0
819 -1656 0
8547 -4796 0
-925 -5101 0
-6894 5765 0
-3022 -7381 0
6674 3739 0
1841 4087 0
5698 4632 0
8360 5164 0
8394 4299 0
8469 -6853 0
-4666 -8878 0
-3589 -6483 0
-312 -221 0
-3339 7335 0
2865 -1348 0
-6552 1206 0
-2145 6067 0
7724 -3875 0
535 2043 0
-6614 8228 0
-1572 1479 0
-5532 5904 0
4545 2981 0
4775 1423 0
-7001 -1360 0
-7713 378 0
5305 7861 0
3040 -4868 0
-3687 -1682 0
-7400 597 0
2893 219 0
4609 -1998 0
4515 1925 0
-1161 4766 0
-3750 794 0
-3465 6184 0
1382 -1963 0
-5812 -3236 0
683 2423 0
-385 -8548 0
3340 -4778 0
-4581 -3468 0
3900 5795 0
-1437 831 0
7870 -4676 0
-6273 -935 0
3166 2241 0
-1193 -2290 0
5935 -2781 0
-8376 -5961 0
-5322 2686 0
4463 5563 0
1538 -6554 0
-3261 8207 0
-6870 3839 0
863 7787 0
-7250 -451 0
-3323 -8441 0
-2515 -5241 0
5681 -1052 0
-6792 7610 0
6166 534 0
-4952 7177 0
4003 3147 0
6433 -8803 0
-8381 861 0
5537 4893 0
-1771 -2994 0
5257 -8020 0
3729 7638 0
7010 -3193 0
-3587 7127 0
-6986 -8727 0
-1572 1558 0
7087 2982 0
2829 -1371 0
-1832 -6748 0
7066 6506 0
8137 166 0
-2342 2569 0
-7337 -3015 0
-2111 -2102 0
7015 -2548 0
2956 7092 0
4116 6399 0
-235 302 0
-224 4053 0
-7958 5436 0
577 85 0
-8539 -534 0
-6160 5803 0
-7804 -7309 0
8771 -4025 0
-2454 2569 0
939 5934 0
6848 7114 0
1841 1715 0
1660 -1932 0
2664 -710 0
4654 -2858 0
-3587 -284 0
3381 3116 0
5564 8244 0
-6848 1893 0
-512 4180 0
-1565 4932 0
1464 8850 0
647 -3959 0
-116 1183 0
5307 5345 0
3 -5178 0
-8630 6606 0
-3843 886 0
4689 8226 0
-2145 -6616 0
-7790 -7056 0
7020 -444 0
8352 -1736 0
-7402 -1353 0
4291 969 0
-5258 7701 0
6808 5268 0
-2268 -6520 0
8930 5955 0
-6739 949 0
2206 3962 0
-7034 8418 0
6022 1668 0
4935 1533 0
-1917 1631 0
-3286 -5067 0
-6431 -3610 0
-6317 2776 0
-5461 -6945 0
7343 7329 0
-2460 -7297 0
7374 3392 0
-4750 -1097 0
-5030 -5122 0
-8724 -573 0
6269 1933 0
2963 4915 0
-1124 6635 0
5763 2826 0
-1776 -4361 0
-1849 1276 0
-28 -6191 0
-3449 -5256 0
8329 2840 0
-4048 6716 0
-3209 4938 0
2713 -5587 0
526 8251 0
141 5364 0
-6770 4244 0
-7264 -7511 0
8940 -2630 0
-2836 -3894 0
-1129 -2086 0
3366 6039 0
1889 8330 0
2208 -445 0
-3460 -5043 0
-5123 3398 0
4466 -2615 0
5151 -5581 0
-447 1013 0
-833 3155 0
3779 -4083 0
2894 -6216 0
-5796 -6551 0
-2023 1562 0
-2282 7928 0
-4725 6145 0
7265 1488 0
2546 -7560 0
-1343 -7397 0
-128 -6554 0
-5384 -1807 0
4621 -8947 0
-6283 -8631 0
-4965 3055 0
-5259 -5063 0
-6593 2950 0
2038 3958 0
-3634 -5174 0
8586 1280 0
-573 4139 0
8943 4152 0
-6293 -6447 0
2950 -5065 0
-7157 5896 0
5658 -3300 0
-7827 6140 0
-4432 -6561 0
6348 8078 0
-8163 5016 0
4267 5291 0
2761 608 0
6645 -3406 0
6894 -7802 0
8267 1107 0
1594 1663 0
5550 2783 0
3936 7047 0
-6976 -6197 0
-3534 5367 0
8124 5678 0
4981 -2745 0
5103 2105 0
-7966 2101 0
-8322 -3621 0
-8110 -3680 0
-372 -7706 0
-2778 6913 0
590 2418 0
318 -7034 0
5743 3352 0
-7797 -278 0
-635 3335 0
3677 -3175 0
3694 3634 0
-5968 5282 0
3072 7087 0
-2397 -2724 0
5212 -5321 0
-2709 7913 0
-8853 2271 0
8517 1841 0
-4516 8504 0
1685 3405 0
156 -8499 0
4680 -8315 0
-618 -4220 0
-1363 8367 0
-5251 -6093 0
-6069 -5426 0
5736 -699 0
2954 -6072 0
-7106 6622 0
-1983 7070 0
5262 -768 0
426 3250 0
-8097 8609 0
6443 6483 0
6220 4670 0
6367 -277 0
8542 -2829 0
-2723 -1110 0
-3236 -3400 0
7840 -196 0
7959 7442 0
298 7739 0
2124 1054 0
-8740 6367 0
1879 -507 0
-4434 2601 0
-7382 5753 0
8107 6594 0
5553 6889 0
-1278 3085 0
4276 -2367 0
6453 8969 0
4926 -6519 0
6475 -8786 0
5003 -4897 0
-1119 2084 0
7914 8181 0
3661 -8202 0
-4470 6063 0
-5771 6360 0
-1186 1331 0
17 -5646 0
-4890 -8913 0
5907 -1301 0
4793 -2169 0
5303 8207 0
3785 3740 0
-6535 489 0
5487 -7053 0
-8670 2960 0
-8103 6356 0
-7223 -6865 0
-1449 7009 0
4465 -6370 0
5927 -2133 0
7832 -4054 0
-5992 -2121 0
4988 8586 0
7960 -2083 0
3017 7088 0
614 -6540 0
-7719 -6214 0
3142 6029 0
5760 -674 0
-6361 3875 0
-7797 -5581 0
-5778 -3903 0
6182 3725 0
-3622 -2465 0
-1798 134 0
-7477 -3079 0
-2179 5082 0
580 -8373 0
45 4578 0
2655 -3289 0
-1899 5218 0
-4203 2704 0
7022 -3566 0
-8095 -4303 0
7133 -3884 0
-8690 -1071 0
-128 -7368 0
-8575 -1488 0
-7316 -2168 0
-8428 5541 0
-7603 -7758 0
-2399 -8099 0
1028 2036 0
-894 8618 0
4539 3432 0
7439 -5530 0
5003 3908 0
-4154 7940 0
2343 -7048 0
-5922 5819 0
-6228 -6546 0
169 8394 0
-5199 1131 0
1919 -4464 0
-7503 -251 0
7931 -2529 0
123 6541 0
-6868 -237 0
6813 6838 0
535 2395 0
-7871 7551 0
-2067 1850 0
-4199 -2431 0
-4459 -782 0
8495 4861 0
2878 -7444 0
8394 -8080 0
-8408 2399 0
8854 3857 0
-531 439 0
5622 -1711 0
-5900 -1351 0
413 4279 0
3620 -7394 0
-6135 2192 0
8841 3466 0
3653 -4289 0
-6568 8420 0
7808 -4251 0
392 -3581 0
5615 -1529 0
-972 -6241 0
5851 1487 0
560 885 0
-533 5244 0
6723 -3750 0
-6439 2729 0
-2150 8530 0
924 3791 0
5409 -3853 0
-4590 -3340 0
-4083 -4564 0
7406 -7257 0
-1151 8860 0
-2643 -4427 0
-8911 -4656 0
-284 8123 0
2546 -4033 0
332 8863 0
6092 3153 0
2979 -2659 0
5262 4106 0
-8196 7647 0
7665 5839 0
-2458 8330 0
6404 -6919 0
7097 8660 0
-4793 -1198 0
-8227 4476 0
-7674 6559 0
-4033 -2139 0
-190 -2401 0
-4629 7007 0
3937 -957 0
-2137 -7804 0
-2503 -254 0
-1260 3591 0
-5595 2321 0
7026 -315 0
3886 6817 0
-2324 -8382 0
6639 -4744 0
-71 3472 0
1587 5533 0
-8452 -1609 0
-2889 8114 0
-4525 7906 0
3679 -4331 0
2350 -3998 0
8828 7771 0
8600 6578 0
-377 8124 0
-6542 7708 0
780 -163 0
-5733 -8886 0
-2070 -7758 0
8950 3494 0
4647 -2800 0
-4299 2617 0
-4328 -5199 0
5075 2428 0
-4850 -4641 0
8763 3927 0
4419 -6049 0
-4691 7532 0
7900 -3008 0
-5222 7105 0
-2778 -1979 0
1063 -691 0
-2211 -3462 0
4597 -5836 0
-332 6033 0
8337 7971 0
-4830 2644 0
-3150 -8174 0
-6666 2957 0
-6464 5108 0
-1636 -3143 0
-453 1103 0
6205 -6901 0
-5635 1243 0
-3455 2638 0
-5198 -4190 0
8217 3828 0
6946 -2658 0
5327 -1129 0
-5098 6738 0
-6177 4996 0
4933 -2662 0
-6550 2328 0
2266 -6495 0
-1401 -149 0
8840 -3378 0
6943 -7345 0
-6381 -1176 0
7911 7931 0
5350 8875 0
6378 -8320 0
-4373 -8099 0
-81 -1709 0
-7762 1511 0
-4547 -1371 0
-6449 -7902 0
1370 6425 0
2202 5462 0
-5259 -2393 0
4534 -4235 0
8259 -6241 0
-2798 -2277 0
-3827 -3858 0
193 -2682 0
-6079 -2368 0
5502 -1319 0
7821 4049 0
8067 192 0
-7440 4560 0
-3290 3484 0
7949 -5054 0
5604 -5057 0
-6094 6635 0
-1411 2548 0
-5518 -613 0
-7555 -3374 0
-4444 8650 0
-730 8821 0
197 435 0
-674 7461 0
-1660 -2326 0
-6446 1237 0
-6253 2957 0
-459 -2872 0
-940 -2917 0
-6065 -3130 0
427 -2488 0
-2064 -2355 0
-1350 -7179 0
2164 -7090 0
3277 3408 0
-6542 1271 0
313 583 0
-3342 506 0
-8681 -3016 0
7270 -6539 0
-4026 -2558 0
-639 1064 0
5694 -4025 0
4329 -6880 0
2313 8469 0
-6051 6899 0
2632 -7034 0
-4178 5204 0
-3739 7490 0
-6489 6905 0
7576 -4463 0
5005 4250 0
-6797 5305 0
5461 -3422 0
8480 1691 0
1827 -6885 0
-3788 1258 0
8976 -5213 0
-1903 -8907 0
6674 5995 0
-3035 793 0
5504 -4176 0
-3185 1840 0
3248 -8408 0
-3315 2820 0
6906 5562 0
-1299 339 0
6798 -6622 0
4132 4872 0
-1488 6466 0
1030 -4721 0
-4824 -8254 0
-7080 1757 0
-6575 6033 0
-5509 -521 0
8471 -5438 0
-5707 -6211 0
4316 -1275 0
3662 -6405 0
-3866 2935 0
-7964 4633 0
-6500 -4165 0
6617 -2572 0
2188 1752 0
-562 980 0
2913 1871 0
-6904 -8161 0
-5024 1075 0
8521 -7362 0
-5264 76 0
-6398 -4037 0
3890 -7444 0
-7944 7590 0
5653 4616 0
6182 961 0
4475 -4696 0
3842 -2437 0
741 6391 0
5455 -1672 0
-7605 4381 0
2096 -5236 0
-8485 -8591 0
-251 1916 0
-7614 -6871 0
7402 -5574 0
-6136 8760 0
1370 490 0
1891 566 0
-579 5762 0
8494 -7205 0
1927 716 0
3844 -939 0
-3796 5860 0
626 -6802 0
590 7980 0
3699 5108 0
-8653 -5375 0
-4850 -478 0
-3052 -8838 0
-3319 6651 0
4185 3941 0
8081 -2074 0
-6986 5243 0
-3446 7407 0
8061 -112 0
2553 5687 0
4399 73 0
343 -4221 0
-2408 -93 0
1087 -2369 0
4896 -6357 0
-4224 3374 0
-3170 -1514 0
4629 3860 0
-5574 906 0
3504 7738 0
6379 3779 0
-5733 8030 0
-5279 -1811 0
-2055 5595 0
1109 6550 0
3429 4372 0
-1158 4973 0
8949 -164 0
-6379 -4779 0
-3012 570 0
-4566 -6565 0
-3843 -8104 0
2118 4457 0
5621 4743 0
2316 963 0
-1399 6857 0
-6277 6068 0
5632 5984 0
-8071 -4970 0
-5581 6246 0
-8772 1659 0
-6362 -7808 0
-3982 1669 0
-1116 -1357 0
-6954 -503 0
1611 3965 0
-8456 -8374 0
-3633 -4064 0
8721 -3194 0
-7518 5571 0
4308 -8633 0
3283 1754 0
105 -4311 0
6791 -7785 0
3492 4308 0
6225 -2334 0
3967 6030 0
6400 -4860 0
-2336 5132 0
3554 6132 0
1305 150 0
8078 2454 0
1933 -7685 0
-8660 -5564 0
3445 4536 0
3395 -5316 0
-876 7744 0
3062 5375 0
1216 -5442 0
-8682 -2077 0
7782 2594 0
7498 -3475 0
8716 -673 0
-974 -889 0
-4391 -769 0
7653 7457 0
-6925 -8326 0
4126 5428 0
6897 -3616 0
4375 -2556 0
6782 7635 0
-3872 -7443 0
7942 -8479 0
-696 5547 0
6508 6708 0
5975 -1445 0
2249 1686 0
-2032 6652 0
3352 -2120 0
-1160 6607 0
4585 7147 0
-4063 -3436 0
-446 -6698 0
7513 -3702 0
451 8266 0
-1916 2464 0
-1512 -6842 0
1155 7686 0
-5112 8240 0
-7506 -2354 0
1775 2322 0
-4717 -8029 0
7317 5216 0
2341 4000 0
-5871 1635 0
4174 7323 0
4986 4956 0
-2304 -6411 0
-6874 -3476 0
-3449 6127 0
1341 -2753 0
-315 -4351 0
1089 -922 0
380 -6389 0
-5215 -5761 0
1330 -7772 0
-1228 -8573 0
-3177 947 0
-1135 1504 0
2283 7471 0
-3002 8608 0
-3388 8619 0
6393 -3225 0
4099 -3446 0
8393 -6652 0
2438 3673 0
-4771 -8639 0
-1145 1768 0
200 2167 0
5757 7016 0
8906 4421 0
-5141 4807 0
636 2717 0
2683 -6267 0
-1430 -8528 0
-2279 -4130 0
1916 -3518 0
-3638 8752 0
5205 2118 0
2241 -728 0
-457 7626 0
4351 6762 0
-829 2538 0
8702 5324 0
587 927 0
3159 6354 0
-4939 -2327 0
4618 294 0
2825 -801 0
5937 3055 0
-4891 -4965 0
-2394 -7570 0
-3653 3677 0
4312 6722 0
3070 -8364 0
1278 -34 0
6201 -3094 0
3936 5123 0
3117 525 0
-6702 8645 0
-6300 6410 0
1505 -3578 0
1357 -2875 0
6412 4929 0
1198 1850 0
8948 -2383 0
2031 3105 0
-6758 -7221 0
-1371 5735 0
1844 -4966 0
-8078 -1699 0
8898 3397 0
424 -7616 0
-179 5648 0
7606 6389 0
7571 -2477 0
6650 -3611 0
-4009 5756 0
7442 -395 0
-7524 1347 0
6047 -6034 0
8320 -5967 0
6418 5795 0
-7307 4165 0
1498 705 0
7072 -1741 0
-5477 6151 0
-2264 -2101 0
-2382 6220 0
7441 -4224 0
-7552 -506 0
4585 6553 0
-6912 -5798 0
-8075 -868 0
-3369 1283 0
-514 -3827 0
-2322 3628 0
-5239 6164 0
7414 -390 0
1527 6851 0
-6239 3322 0
4979 3719 0
-3753 7430 0
-3235 -1675 0
278 6047 0
2851 -6416 0
-1473 -571 0
-565 -1871 0
1654 2238 0
-5825 7114 0
-8011 -4236 0
6949 -4758 0
4709 -2833 0
-2305 6046 0
-4808 4790 0
-500 6417 0
4785 -4551 0
4237 8462 0
1418 -8662 0
1431 -5567 0
-4276 8778 0
-731 4803 0
5931 -8688 0
-8484 -7642 0
5204 -5585 0
-2387 3434 0
-2917 8606 0
-1114 8942 0
-4231 1393 0
-7081 6746 0
-7605 -8373 0
-7654 -7649 0
-5352 -1590 0
-1982 8514 0
-4917 -7804 0
8010 -2444 0
580 -6640 0
-2860 342 0
8945 -8997 0
-2206 780 0
2719 8044 0
-476 -581 0
-3127 -3131 0
-6880 7406 0
-4884 6866 0
-3870 -1872 0
-8721 2139 0
2890 8303 0
7868 1190 0
5188 6109 0
-2370 -3015 0
2200 4916 0
-3746 -867 0
4502 -2627 0
-8785 -1546 0
-2165 -5052 0
-5438 5987 0
8084 -2195 0
-4636 -7740 0
-6205 8232 0
5402 1714 0
-4054 -4064 0
3801 -6724 0
8203 7563 0
-6618 -2319 0
7760 4371 0
3413 -4399 0
-2003 -8463 0
6702 3737 0
-1988 1575 0
5686 -6646 0
-827 3881 0
-4783 -448 0
8220 -705 0
3888 5601 0
-677 -2872 0
-4099 -8931 0
-3858 -2688 0
1605 -8421 0
-7032 -4477 0
6112 6832 0
-5654 -469 0
-4072 -1270 0
-4048 -2943 0
8082 375 0
4476 895 0
-3316 860 0
2841 4327 0
-7467 -4184 0
4366 5028 0
-6715 5951 0
3305 -8132 0
-1126 -4865 0
-4235 -7564 0
8452 2242 0
-3833 -3551 0
-7305 8048 0
-5653 1393 0
-6924 -3382 0
4002 -5102 0
-6294 5784 0
2610 8060 0
1369 1601 0
8458 8982 0
-4157 -251 0
848 -1918 0
550 3726 0
-677 406 0
-562 7292 0
-4043 -3297 0
6000 -1863 0
1658 -7878 0
4393 1895 0
4595 -8092 0
-3218 7908 0
8504 4694 0
8615 1689 0
-1213 8827 0
1650 -5521 0
-6260 5122 0
-1908 1945 0
5696 5490 0
1166 5008 0
-8852 3600 0
-593 -7751 0
8103 7628 0
4431 -5038 0
-6612 -7891 0
2886 6154 0
-1129 4170 0
-1385 8889 0
-1044 -7183 0
8138 1889 0
-6014 7425 0
4371 -2489 0
-8526 7953 0
3028 6844 0
5851 4726 0
1063 720 0
2484 3495 0
7580 3607 0
8851 -7019 0
3683 5308 0
1469 8331 0
-8723 -151 0
-8525 1020 0
-3614 -7518 0
5947 -7162 0
2828 8544 0
-3526 2742 0
1509 -5936 0
-4580 -6022 0
4554 -1182 0
7860 -6133 0
-4825 5102 0
2866 -249 0
6506 -5560 0
-6067 -1186 0
1358 3325 0
-1860 3583 0
5822 -154 0
-754 7690 0
-8432 465 0
-3546 -4850 0
-3501 1975 0
-6632 6463 0
-2489 -5420 0
-7454 -5912 0
8398 -4004 0
-8198 1060 0
622 -576 0
-4827 -2888 0
4111 7727 0
-7465 -1556 0
1803 -2995 0
