c NF
p cnf 1325 795
-699 1281 0
-1058 533 0
674 81 0
872 457 0
1004 258 0
-326 -573 0
-189 785 0
89 -361 0
-1168 -600 0
851 731 0
1263 341 0
-526 -412 0
-676 458 0
-196 -363 0
712 -1193 0
-966 410 0
85 1063 0
581 -196 0
686 912 0
711 1076 0
928 845 0
-344 970 0
-235 -1170 0
1259 -1286 0
287 -326 0
233 -70 0
-830 -432 0
-318 -601 0
-662 -255 0
-1149 -449 0
539 1115 0
1169 -483 0
980 321 0
965 -849 0
-1153 128 0
1324 -216 0
836 -779 0
-1301 -1055 0
-1127 -547 0
942 -52 0
-208 -547 0
-1297 -815 0
500 420 0
-1127 -953 0
-131 -1231 0
499 585 0
-325 593 0
799 131 0
-521 1085 0
324 -1149 0
-536 312 0
1160 -564 0
-746 -826 0
1268 1187 0
527 298 0
-1145 -1082 0
1207 -479 0
172 -865 0
-40 -953 0
-50 -514 0
-88 -17 0
-226 -929 0
-496 -644 0
655 -535 0
-1278 -437 0
150 279 0
495 -737 0
-828 431 0
1015 -884 0
742 953 0
-1016 393 0
92 -619 0
692 252 0
35 841 0
862 263 0
-1258 236 0
-729 613 0
12 801 0
33 917 0
-635 -676 0
1135 84 0
-473 -256 0
655 62 0
-270 706 0
21 135 0
152 139 0
-626 855 0
797 199 0
-784 200 0
884 223 0
-881 281 0
-974 671 0
-794 855 0
367 139 0
-332 -162 0
-3 -982 0
-74 -1286 0
518 -1084 0
-554 -802 0
-383 274 0
431 -1106 0
975 -320 0
198 -962 0
-603 988 0
291 -385 0
161 443 0
-325 1055 0
-678 1233 0
398 -453 0
-353 137 0
988 -1011 0
504 -882 0
1048 -254 0
-693 -1048 0
872 392 0
803 186 0
417 -1123 0
-351 -438 0
1074 1246 0
-168 -673 0
754 -889 0
954 502 0
520 -1164 0
-440 1063 0
-707 1074 0
-635 149 0
-65 -320 0
-839 -1101 0
147 814 0
337 -449 0
-725 686 0
-767 -1220 0
-809 356 0
-1180 -258 0
15 -442 0
-1146 -1220 0
-1117 1104 0
-1033 -137 0
366 -1211 0
601 -214 0
-63 -1198 0
-1228 -1305 0
799 -1301 0
-428 1311 0
-755 -615 0
975 -662 0
102 -756 0
761 68 0
1161 955 0
-315 -821 0
831 853 0
-1257 -468 0
-1130 387 0
-684 -1257 0
-359 602 0
-402 1276 0
823 -1102 0
-2 454 0
255 -728 0
13 -781 0
-1216 -911 0
-828 -183 0
1184 -50 0
-1131 -243 0
1029 71 0
1126 484 0
807 1037 0
1059 286 0
-930 -427 0
1021 -934 0
564 832 0
-1164 -1079 0
-1188 730 0
201 -90 0
-402 -558 0
764 -482 0
951 -65 0
-884 -791 0
-364 -390 0
-433 1041 0
-1311 -1141 0
1050 -986 0
-638 648 0
177 -1282 0
186 -634 0
1166 988 0
129 1207 0
282 188 0
-233 -126 0
-1131 -711 0
727 100 0
619 469 0
-778 328 0
517 872 0
-700 879 0
887 -1293 0
-460 1128 0
1171 -997 0
-413 553 0
-576 -711 0
-426 620 0
-915 789 0
194 -639 0
64 -473 0
-338 -908 0
376 -1280 0
380 -264 0
-1294 -661 0
1236 891 0
618 -792 0
165 927 0
-1066 551 0
-1316 1142 0
441 313 0
-1061 -527 0
-315 1162 0
-386 390 0
980 874 0
912 1190 0
-500 -908 0
-550 -516 0
-52 -318 0
899 1049 0
-1136 217 0
441 113 0
221 938 0
799 -541 0
1277 -1013 0
846 205 0
-1086 348 0
1070 823 0
-81 -457 0
632 1225 0
-1210 696 0
-859 -978 0
336 -730 0
-20 -520 0
221 -779 0
-1324 -283 0
-1252 95 0
836 1137 0
-102 -375 0
-266 -1208 0
419 889 0
617 -595 0
-858 -741 0
-251 -298 0
-758 171 0
522 367 0
369 -1258 0
645 -264 0
473 -299 0
-187 -568 0
193 639 0
1107 371 0
-698 -1224 0
-12 -1168 0
671 972 0
683 -424 0
-1297 1195 0
152 -422 0
1319 1272 0
-11 -230 0
232 1074 0
219 248 0
104 -195 0
-859 108 0
1301 76 0
539 -512 0
798 -374 0
-1254 331 0
-1239 -998 0
-1130 77 0
900 -58 0
-735 732 0
-1290 -590 0
997 -981 0
722 533 0
776 -653 0
-96 804 0
-39 -1312 0
116 -715 0
-908 715 0
-1002 -752 0
-452 419 0
-599 -769 0
691 -83 0
1207 -370 0
-351 640 0
-704 -554 0
686 949 0
-216 -498 0
-1179 -299 0
1163 -525 0
-807 661 0
-147 422 0
670 73 0
642 -112 0
-348 -745 0
-81 -427 0
1240 -1123 0
604 -27 0
-452 255 0
153 533 0
248 -1271 0
-238 -847 0
-353 -982 0
-821 -88 0
597 153 0
1201 -360 0
955 321 0
509 -530 0
-1285 200 0
1288 -282 0
281 322 0
-610 808 0
1098 1300 0
-272 -902 0
801 987 0
608 696 0
-88 155 0
-1071 797 0
-4 -1079 0
-486 691 0
-695 -382 0
121 799 0
-1173 -132 0
45 -497 0
983 -978 0
-306 51 0
-659 647 0
-1300 -912 0
901 -1137 0
-1013 810 0
-765 -251 0
-361 -465 0
-1136 57 0
359 -1134 0
-151 -604 0
-1061 206 0
-174 -853 0
-564 -735 0
436 692 0
-1006 -955 0
-1136 -622 0
405 101 0
967 -1125 0
119 -737 0
-680 -1243 0
931 -723 0
-955 -618 0
-1284 -527 0
888 1213 0
-412 757 0
876 200 0
336 -1247 0
517 114 0
-1227 172 0
434 -890 0
-1167 647 0
-651 -950 0
1147 357 0
-1025 121 0
-452 58 0
763 386 0
1234 -898 0
714 610 0
400 1115 0
-174 416 0
939 -445 0
-1294 -643 0
-534 -974 0
-723 -758 0
-258 43 0
1073 655 0
1245 224 0
461 138 0
-945 309 0
-511 653 0
325 -140 0
-983 -822 0
-680 -1066 0
34 1259 0
649 547 0
248 1311 0
-172 602 0
-1197 -353 0
-1117 -152 0
-942 1042 0
-462 221 0
-80 5 0
-1152 690 0
7 601 0
1305 845 0
-54 916 0
-251 -402 0
-386 -1324 0
-1278 -792 0
-206 155 0
561 120 0
-1198 1259 0
928 156 0
1096 387 0
-783 -842 0
19 1200 0
30 -331 0
1152 861 0
-607 1032 0
236 -240 0
976 486 0
1225 -411 0
837 570 0
-215 -1091 0
468 -227 0
-148 917 0
600 1099 0
-874 -629 0
589 782 0
788 508 0
-1005 1159 0
298 1041 0
625 -44 0
-396 -406 0
-1084 -777 0
73 93 0
-1211 -448 0
-940 -1090 0
387 -886 0
-311 -779 0
1309 293 0
-922 627 0
622 1057 0
1080 -41 0
-767 -410 0
911 -1153 0
-275 -99 0
-1244 313 0
-870 1315 0
522 -575 0
819 984 0
607 -1059 0
1300 -1180 0
10 -1247 0
-88 -35 0
402 -142 0
645 775 0
1257 -57 0
-330 217 0
1114 61 0
-24 -1025 0
-883 827 0
-1266 248 0
265 -53 0
536 1322 0
548 1178 0
824 -734 0
1151 612 0
-244 -362 0
-260 374 0
317 -1130 0
374 -106 0
-100 984 0
-359 574 0
-711 -1060 0
177 -538 0
702 -784 0
953 -477 0
760 -1214 0
68 320 0
-697 -673 0
749 -1045 0
-778 727 0
220 434 0
-1243 243 0
754 1294 0
613 1074 0
-1016 996 0
-1000 -53 0
-300 1265 0
-935 -1193 0
-26 530 0
1068 -507 0
-1108 417 0
-289 191 0
989 159 0
-1145 748 0
-45 -30 0
433 1039 0
1311 -1253 0
-465 6 0
429 367 0
-1094 -585 0
-1254 755 0
-684 -1135 0
1317 -126 0
832 -1057 0
1039 -1157 0
-146 -1139 0
-589 -202 0
-490 -941 0
-48 -538 0
429 588 0
397 132 0
254 362 0
-1070 -684 0
-281 -1294 0
508 162 0
1209 1231 0
1305 338 0
560 -1151 0
-1250 213 0
425 -1190 0
-262 210 0
-629 1038 0
106 -116 0
1290 942 0
246 -1032 0
603 -781 0
-462 -66 0
-171 789 0
-445 579 0
-871 -474 0
73 -342 0
307 406 0
-1236 502 0
230 -575 0
-440 979 0
-682 -816 0
-221 -450 0
640 -1230 0
-16 -1287 0
-559 -224 0
-1011 1264 0
-4 150 0
-85 -711 0
467 -153 0
-812 1147 0
1110 715 0
-491 -659 0
-846 40 0
612 111 0
-919 -255 0
-318 1062 0
1118 808 0
671 -46 0
812 362 0
-1236 -627 0
802 1071 0
509 -1093 0
1311 368 0
-41 1125 0
-245 -75 0
171 -1065 0
184 -543 0
571 -220 0
588 501 0
1167 -1091 0
224 -572 0
1006 676 0
581 -57 0
446 -1152 0
-1032 1258 0
-1157 -711 0
132 1275 0
-537 -488 0
514 309 0
742 1082 0
-456 247 0
127 970 0
-607 -282 0
-836 -744 0
1032 188 0
1164 206 0
-684 791 0
-433 485 0
-1145 283 0
186 534 0
1067 -871 0
-151 -611 0
1234 1072 0
421 754 0
-1024 993 0
325 -1258 0
492 -1121 0
1076 657 0
413 1056 0
893 -1113 0
-252 -747 0
-260 -845 0
386 -1008 0
388 545 0
-1199 825 0
454 -191 0
-1101 744 0
-1296 -730 0
-1192 845 0
-303 823 0
-62 640 0
-1020 390 0
-1315 -168 0
444 340 0
1177 1028 0
1273 -1252 0
-365 106 0
-151 -1039 0
-658 878 0
561 -299 0
-1283 948 0
-196 1016 0
-207 868 0
514 -1029 0
1132 -962 0
-305 -735 0
893 -1133 0
300 397 0
336 742 0
153 -108 0
317 1273 0
-1250 73 0
294 -1240 0
-759 -538 0
-407 -473 0
-1174 -113 0
-669 -1267 0
-234 1050 0
340 33 0
649 -1321 0
-16 -865 0
-95 1232 0
-45 -1312 0
602 21 0
344 -88 0
-1211 -324 0
-943 -604 0
852 -650 0
105 626 0
486 741 0
1265 -841 0
1118 -830 0
-73 1063 0
347 -726 0
-1295 848 0
882 1291 0
141 93 0
-1081 -29 0
-1222 468 0
-892 505 0
-649 871 0
-465 194 0
230 -263 0
-1089 -1254 0
-1324 -703 0
921 329 0
-275 -1045 0
883 -87 0
727 62 0
-1203 464 0
-1155 -657 0
326 -932 0
-366 999 0
-44 -352 0
783 -45 0
779 594 0
176 498 0
-306 -58 0
-694 -744 0
-234 948 0
-281 677 0
-619 -414 0
-123 502 0
984 -768 0
-869 -982 0
-1069 -492 0
-859 271 0
-605 193 0
-205 -1058 0
274 -272 0
615 -531 0
372 -564 0
-576 386 0
90 1042 0
339 637 0
10 801 0
-246 -1129 0
1299 -1081 0
1181 -55 0
845 653 0
267 -1085 0
808 -520 0
848 -676 0
-405 210 0
1040 -723 0
-122 479 0
829 647 0
220 -1008 0
578 -778 0
709 -697 0
1085 335 0
9 -133 0
-936 764 0
-995 -720 0
455 613 0
554 1221 0
30 -817 0
-364 -403 0
471 -223 0
76 86 0
-1293 -127 0
437 -115 0
82 -449 0
164 622 0
1031 102 0
-55 493 0
-139 891 0
472 -75 0
-468 -154 0
916 435 0
246 -471 0
40 -450 0
-406 977 0
-109 -717 0
-394 605 0
387 -698 0
1121 -817 0
-460 379 0
-83 620 0
714 895 0
-846 -284 0
55 -809 0
850 -201 0
307 315 0
345 114 0
-1298 -79 0
154 814 0
374 1084 0
-1161 598 0
-577 599 0
1272 1143 0
-1303 679 0
928 97 0
-229 -651 0
1246 -446 0
-1058 126 0
158 988 0
319 -146 0
-630 -1129 0
714 -837 0
-1036 -786 0
235 -680 0
-468 926 0
135 -964 0
-95 -138 0
-718 840 0
294 777 0
626 -553 0
-171 -126 0
581 -218 0
1287 -494 0
379 -644 0
-1125 962 0
1142 -649 0
587 504 0
-170 613 0
-1178 387 0
-849 -613 0
-241 -503 0
-255 -1220 0
1280 -348 0
-1298 -1271 0
515 -790 0
792 140 0
137 1095 0
316 535 0
594 -50 0
393 -778 0
431 670 0
-796 -1078 0
-265 -280 0
1251 -586 0
582 -438 0
-652 -339 0
1008 867 0
-1235 -1104 0
570 -1258 0
104 18 0
-930 -1141 0
-928 -734 0
-457 -408 0
-965 -1003 0
-122 980 0
-893 661 0
304 -44 0
-600 -886 0
333 -1294 0
-511 893 0
