c bounds 130 130
p cnf 280 196
52 -105 0
57 262 0
-103 -89 0
-250 -159 0
70 68 0
156 236 0
-260 277 0
-28 158 0
-103 267 0
-162 239 0
-223 233 0
38 261 0
-126 -68 0
-229 240 0
80 50 0
41 -44 0
-180 25 0
244 -136 0
-67 -118 0
-33 198 0
-71 -24 0
-7 6 0
-39 257 0
134 268 0
44 169 0
9 250 0
22 189 0
-171 10 0
-34 120 0
53 -114 0
-143 -166 0
-130 207 0
-83 213 0
-140 -161 0
268 36 0
88 -45 0
68 -279 0
-242 183 0
-88 -80 0
82 1 0
120 236 0
100 47 0
-87 256 0
131 -202 0
-186 272 0
239 -118 0
-205 -247 0
-20 -87 0
194 207 0
13 -246 0
-59 244 0
110 96 0
106 -28 0
-148 -25 0
-65 204 0
156 208 0
-237 -70 0
149 -212 0
139 -26 0
19 90 0
-48 -160 0
6 -94 0
53 -48 0
-42 -61 0
205 237 0
84 -109 0
-109 160 0
196 -215 0
34 -163 0
258 -169 0
133 197 0
-34 -5 0
-166 169 0
-231 130 0
98 172 0
120 -49 0
61 156 0
209 -241 0
-276 188 0
277 100 0
-118 -66 0
264 -26 0
66 141 0
-143 -219 0
11 207 0
-227 -83 0
50 151 0
211 -90 0
65 -238 0
65 216 0
-64 275 0
91 119 0
-54 -239 0
-262 141 0
3 -71 0
-194 -5 0
-62 -32 0
-278 -54 0
-255 195 0
-40 -210 0
-88 255 0
-94 -194 0
-34 -61 0
171 18 0
218 -98 0
112 267 0
85 147 0
-153 85 0
-196 93 0
-227 -164 0
258 62 0
253 -116 0
-90 77 0
81 -17 0
-248 255 0
-5 136 0
-124 191 0
-262 -142 0
-215 -216 0
237 193 0
-129 -53 0
77 -267 0
-215 144 0
-46 -219 0
250 -129 0
149 -266 0
-10 -163 0
183 -22 0
182 116 0
103 108 0
-114 30 0
182 -133 0
186 167 0
180 -268 0
160 81 0
145 -148 0
93 -212 0
-223 173 0
183 -142 0
202 171 0
77 -41 0
-124 78 0
-137 161 0
185 -155 0
9 -108 0
208 -24 0
-73 161 0
227 43 0
-257 -239 0
80 6 0
243 110 0
-99 -9 0
120 -109 0
-44 -269 0
263 -57 0
-197 -280 0
-258 -212 0
-269 21 0
72 -29 0
204 93 0
-99 -193 0
-227 23 0
147 -96 0
-126 -222 0
45 -24 0
255 133 0
-150 160 0
9 -181 0
-9 -243 0
-138 -38 0
18 132 0
74 118 0
-194 -239 0
-75 -219 0
122 171 0
160 252 0
161 -40 0
81 -240 0
-75 -148 0
114 234 0
144 -40 0
94 -132 0
-222 161 0
-61 147 0
-98 -178 0
139 -145 0
-28 130 0
92 1 0
171 160 0
66 50 0
-128 -195 0
106 127 0
-61 63 0
-61 125 0
240 -265 0
190 8 0
