c NF
p cnf 1447 1158
-1041 859 0
112 1264 0
684 -1344 0
951 252 0
1337 322 0
315 199 0
456 997 0
-432 402 0
-1176 95 0
-498 -981 0
-1260 -1008 0
-730 -1228 0
-1242 635 0
-1149 -1228 0
-812 161 0
1020 -1152 0
-858 -1278 0
46 -854 0
-1218 1447 0
-270 857 0
-1305 654 0
349 -255 0
34 -545 0
6 163 0
222 122 0
1132 1074 0
964 927 0
276 600 0
-142 -1138 0
-1303 -1397 0
1179 -1437 0
190 1234 0
910 -1299 0
148 558 0
1093 -334 0
83 151 0
1372 -1058 0
668 1177 0
-936 1377 0
1008 -95 0
-559 507 0
1158 651 0
615 -299 0
-275 1421 0
927 -472 0
-130 -864 0
-1018 -52 0
173 -727 0
-1130 -470 0
578 1205 0
-1298 1407 0
1347 -726 0
-1126 520 0
-43 -757 0
-608 -669 0
-663 -102 0
-566 866 0
489 1026 0
-692 -214 0
1042 1094 0
-186 -365 0
719 -1013 0
-1211 -761 0
-1445 904 0
1022 -174 0
-381 1385 0
186 377 0
-491 -297 0
-666 -133 0
735 407 0
-596 1262 0
-263 -127 0
1382 -1243 0
-210 -922 0
1134 -1235 0
-305 -176 0
790 -430 0
880 -908 0
-470 -1326 0
-1061 218 0
-1115 109 0
1359 -1080 0
289 523 0
-854 -1192 0
-502 91 0
1295 -1252 0
640 830 0
-1443 -330 0
-1121 -1081 0
1350 534 0
1418 1044 0
-188 -1252 0
-1040 1077 0
-195 245 0
-895 -1029 0
-1335 512 0
822 572 0
826 -1376 0
348 710 0
-208 -546 0
389 -1165 0
582 -454 0
-1297 -383 0
-803 -1079 0
-367 -907 0
-81 1259 0
834 -414 0
767 -12 0
-1229 -1231 0
355 829 0
1391 1049 0
-1397 -455 0
1219 -1203 0
620 -996 0
-666 -766 0
-331 -1093 0
-180 -295 0
-616 118 0
795 204 0
1216 -1161 0
233 742 0
-775 1004 0
983 -1091 0
1387 -933 0
865 -299 0
426 -296 0
577 -553 0
-1276 989 0
-741 902 0
8 -601 0
-1176 1181 0
1317 -1426 0
-1170 -132 0
1268 607 0
-458 -77 0
-1230 906 0
645 921 0
-700 175 0
-1138 -1351 0
1297 -1176 0
-512 -306 0
-498 1267 0
1076 -1065 0
-646 -726 0
-178 -1366 0
673 -812 0
347 -1117 0
-159 -1157 0
1195 22 0
-424 1201 0
823 1355 0
-1036 -1061 0
882 928 0
-1029 -362 0
-1403 -669 0
572 19 0
641 -474 0
630 -741 0
543 800 0
856 1383 0
606 -1189 0
504 -591 0
-279 718 0
174 -1268 0
731 1076 0
971 1426 0
351 847 0
-1394 -533 0
-815 -1351 0
-496 -922 0
526 146 0
329 -463 0
365 -1229 0
-523 71 0
1091 607 0
-438 691 0
-1082 -1015 0
-420 -942 0
1167 1239 0
-191 816 0
-250 -1212 0
-719 1429 0
392 -1206 0
635 -471 0
-834 -27 0
-1035 -1121 0
1373 1426 0
411 476 0
-1285 154 0
580 -1326 0
1300 -1362 0
-686 -359 0
-205 476 0
619 522 0
54 661 0
477 -355 0
-1334 1174 0
-1244 -177 0
-1228 930 0
-534 -658 0
247 -752 0
1442 -530 0
927 -608 0
-1135 -1066 0
-130 -368 0
-1403 1333 0
-1140 390 0
-106 543 0
1414 -1251 0
-1139 -1371 0
-1360 -188 0
595 804 0
-292 735 0
842 223 0
-1223 1294 0
524 -929 0
-1096 -24 0
-665 -616 0
-1043 338 0
-1354 -154 0
-27 678 0
-135 -87 0
-421 234 0
-247 -535 0
-907 323 0
-780 50 0
1266 1284 0
-383 -1355 0
-815 403 0
192 -739 0
1268 -1126 0
-1277 356 0
-1289 600 0
1236 -1388 0
705 1179 0
633 -1249 0
-114 -1067 0
-620 -807 0
-839 -442 0
-814 -855 0
1026 189 0
1301 -1137 0
612 444 0
-208 -1339 0
660 1106 0
-517 364 0
136 965 0
-632 783 0
698 1061 0
802 1199 0
-607 -195 0
553 314 0
-178 1050 0
1376 -400 0
-178 458 0
-1099 1319 0
-1335 -687 0
-126 -108 0
-209 735 0
968 -1293 0
-214 -142 0
956 790 0
1136 -1203 0
75 -1024 0
1219 -1316 0
-1101 1437 0
-1159 -20 0
-1313 968 0
158 1253 0
-435 110 0
-1088 -530 0
1401 -955 0
-742 165 0
1042 850 0
254 -1255 0
832 -936 0
385 -854 0
-1298 555 0
396 397 0
626 -888 0
829 -762 0
1352 240 0
-1111 -710 0
-540 -1138 0
1123 -485 0
567 749 0
-1220 1344 0
120 768 0
431 -126 0
-25 -1197 0
-1060 -219 0
-648 -52 0
1215 208 0
701 -645 0
-578 -817 0
-519 527 0
758 -423 0
82 303 0
1410 -1075 0
-1439 46 0
1092 1319 0
-1349 498 0
847 -750 0
860 1083 0
-688 -65 0
-958 10 0
-1255 227 0
-649 -164 0
-1157 -1261 0
-219 -1094 0
1057 -1010 0
787 -889 0
-1130 -1249 0
-1040 481 0
521 -1278 0
-962 -1208 0
-320 -608 0
672 -696 0
443 -586 0
46 -101 0
-291 -1194 0
1166 1073 0
-94 -1360 0
-1168 -203 0
-1349 936 0
-784 -1209 0
-1015 -8 0
-995 -218 0
922 -583 0
171 -192 0
1069 989 0
-766 -931 0
426 154 0
-83 605 0
837 -509 0
-649 653 0
-1053 -240 0
422 -988 0
-307 765 0
626 -434 0
-351 -1360 0
490 62 0
-1360 -134 0
1264 1075 0
820 -1424 0
347 -870 0
-42 949 0
554 143 0
-133 -715 0
-563 -1138 0
1026 -592 0
1119 -1295 0
-962 -1102 0
1440 -704 0
551 700 0
-285 496 0
-403 1219 0
-206 -294 0
-186 856 0
899 -1012 0
634 127 0
806 1231 0
29 353 0
706 222 0
-313 871 0
681 462 0
227 668 0
640 -32 0
-783 349 0
-112 -839 0
-431 -408 0
33 1308 0
-1344 592 0
384 239 0
-1014 -952 0
488 1438 0
-624 -91 0
-800 -1203 0
720 -462 0
536 260 0
234 -984 0
-120 -479 0
-141 1328 0
1331 -859 0
1220 874 0
949 -517 0
-1189 -761 0
-1228 1019 0
396 423 0
204 1169 0
-766 868 0
359 844 0
1236 -290 0
63 -105 0
-361 -735 0
976 -656 0
1055 -988 0
964 -1304 0
920 1279 0
1080 1275 0
-319 -1186 0
-298 184 0
-617 -448 0
-576 199 0
-1249 -757 0
525 -553 0
189 -3 0
1067 -25 0
233 1179 0
-288 927 0
-1222 -472 0
495 1140 0
-87 454 0
1304 -428 0
-22 1357 0
-649 -599 0
-552 -1339 0
345 -48 0
134 -1108 0
-431 47 0
290 -568 0
-332 1447 0
833 315 0
-394 983 0
-271 204 0
-1213 -444 0
1070 64 0
-1284 215 0
420 532 0
659 1048 0
-1198 1016 0
1362 1395 0
518 326 0
148 -1410 0
-809 -791 0
-1224 157 0
-1444 -808 0
-399 -241 0
-120 1225 0
-766 565 0
715 -723 0
-186 1054 0
862 -1388 0
-1098 -1134 0
147 235 0
-639 -624 0
660 -62 0
577 -1036 0
-1072 121 0
1380 541 0
1008 -30 0
388 -238 0
-1080 -1061 0
-909 -683 0
-869 -450 0
567 -529 0
-48 -1391 0
514 865 0
-1076 303 0
-1294 -1065 0
740 961 0
-634 1385 0
770 261 0
-180 202 0
-334 -778 0
361 -1031 0
-465 266 0
1253 -1025 0
1088 1197 0
-414 -718 0
614 1221 0
-252 -835 0
-479 1363 0
-1088 -828 0
-182 843 0
594 -320 0
775 -69 0
-849 356 0
233 475 0
546 -723 0
-442 -714 0
965 -81 0
-982 421 0
-1220 720 0
176 -530 0
1394 -275 0
-5 -1115 0
895 130 0
388 1109 0
1185 -294 0
-1315 403 0
1375 -910 0
-640 458 0
-316 -296 0
-875 -474 0
-776 832 0
1323 -897 0
519 -331 0
-1263 898 0
-1196 115 0
1316 1269 0
-1118 1353 0
-361 -1374 0
969 -185 0
764 148 0
240 1281 0
-1298 332 0
592 1280 0
-681 -938 0
-1239 659 0
-428 -1292 0
1003 -81 0
76 106 0
-958 -1410 0
913 1360 0
104 151 0
-22 -545 0
1410 931 0
1221 -24 0
-1401 -944 0
579 -878 0
-1438 607 0
645 751 0
1091 -1036 0
355 803 0
134 -827 0
1319 24 0
766 1414 0
-1375 242 0
-699 887 0
-701 1434 0
1153 -814 0
-629 -1021 0
-1392 84 0
218 -155 0
-11 -164 0
-632 -516 0
-784 -540 0
-1319 -900 0
-66 595 0
-755 276 0
541 211 0
-1042 542 0
81 -1190 0
-684 779 0
420 -326 0
871 -986 0
1310 -129 0
-1320 382 0
-1120 -287 0
853 -478 0
-1312 -501 0
978 109 0
974 -1152 0
1191 -1281 0
58 73 0
1048 787 0
-1422 235 0
401 -962 0
-14 579 0
323 -1339 0
825 731 0
-26 -546 0
-934 -962 0
-398 -61 0
61 1047 0
-786 233 0
1258 -1078 0
-839 664 0
-944 -319 0
-674 -889 0
962 -279 0
-1079 -16 0
-414 518 0
-868 936 0
-924 -221 0
-842 -430 0
198 -958 0
125 541 0
-280 -4 0
-558 305 0
-683 1126 0
625 -616 0
1207 994 0
-1173 -104 0
1397 1415 0
1226 1297 0
1389 -864 0
-486 349 0
445 -280 0
-53 388 0
-544 287 0
1038 654 0
-382 -914 0
616 -557 0
1410 -463 0
-943 20 0
1373 -705 0
565 -1046 0
197 1297 0
1405 1436 0
1373 909 0
1032 -193 0
494 1075 0
-533 200 0
-602 -909 0
142 1147 0
41 -1288 0
911 -1183 0
-845 -1392 0
-973 -812 0
322 -428 0
-47 482 0
-89 468 0
1221 -1362 0
-780 -499 0
-1380 -896 0
1034 338 0
-1107 1273 0
1052 -55 0
735 -706 0
-58 250 0
748 949 0
-1036 147 0
-672 1316 0
865 -268 0
1062 1124 0
-270 288 0
-103 -1275 0
-400 -230 0
312 -1161 0
1157 568 0
-1247 -1211 0
-178 796 0
104 1446 0
-1263 718 0
1370 1396 0
-265 475 0
-665 493 0
-28 89 0
-232 -1169 0
673 -1422 0
630 -861 0
1395 921 0
-249 -168 0
1179 -317 0
-669 -1384 0
24 329 0
595 -624 0
1377 1091 0
-1293 1390 0
-462 1236 0
-300 35 0
-1196 -1376 0
-1424 -1301 0
-279 -1394 0
567 -1058 0
-593 -121 0
865 890 0
-998 -683 0
733 -196 0
-297 621 0
215 -1386 0
579 1442 0
582 654 0
1081 308 0
-879 -244 0
276 1367 0
1119 805 0
-709 617 0
668 941 0
-446 268 0
836 -1038 0
-842 1308 0
-467 1310 0
-950 87 0
-334 -431 0
688 -1013 0
-208 187 0
198 456 0
-504 -19 0
-263 -421 0
371 -924 0
-1140 -853 0
433 -249 0
-1421 731 0
-275 562 0
650 1162 0
39 410 0
-1207 866 0
-1156 -696 0
-448 -311 0
110 1054 0
-1035 628 0
59 1391 0
902 393 0
992 479 0
907 1104 0
-921 115 0
1029 -886 0
-93 -1404 0
-210 1051 0
336 978 0
749 726 0
1409 808 0
-372 1092 0
-576 -1109 0
46 936 0
-95 -1256 0
-1135 730 0
763 1054 0
993 -1119 0
-759 -1117 0
-1132 346 0
539 -35 0
-1237 414 0
-970 376 0
1327 203 0
-190 -1053 0
-928 69 0
614 498 0
-549 -442 0
-871 1355 0
497 716 0
-776 -123 0
327 -696 0
57 988 0
1001 577 0
1326 770 0
456 1236 0
824 -758 0
1374 -136 0
-41 1375 0
480 -1304 0
-1369 206 0
-256 -721 0
423 1055 0
-346 111 0
-854 1188 0
-740 -1207 0
-654 548 0
-155 870 0
308 -1202 0
-325 518 0
70 -624 0
679 265 0
650 1121 0
-1254 -800 0
-191 -968 0
-1262 1270 0
1402 -878 0
-814 -361 0
14 1123 0
-505 -1111 0
29 1397 0
369 -719 0
313 855 0
1436 1415 0
948 475 0
-784 -1208 0
-1243 -67 0
-839 -782 0
-286 -1198 0
-1294 -1011 0
894 -102 0
711 543 0
-1075 -572 0
-888 -1294 0
402 -381 0
-428 -647 0
-340 -472 0
245 295 0
-1431 380 0
-1069 -1299 0
420 -106 0
610 469 0
1425 -870 0
-1366 322 0
1009 382 0
1244 1426 0
-648 1257 0
350 336 0
1080 -573 0
-1365 -1250 0
1219 1282 0
1283 89 0
966 773 0
-1239 338 0
385 -18 0
776 541 0
358 -740 0
-1327 -1013 0
1288 474 0
-1351 9 0
-1064 94 0
-1292 -625 0
-798 -7 0
882 530 0
-788 1376 0
-72 -1101 0
261 -456 0
-1263 1138 0
-878 -203 0
657 -1413 0
1253 770 0
1077 -1440 0
1009 -950 0
67 -665 0
-249 -389 0
-887 707 0
-932 -212 0
1085 -743 0
976 -797 0
-697 178 0
-434 749 0
1399 -1276 0
-1135 1213 0
-899 1172 0
282 -1416 0
-226 898 0
396 -83 0
-699 -891 0
-1150 -492 0
594 -353 0
327 116 0
83 -227 0
1219 -615 0
99 1069 0
-1305 -1144 0
996 855 0
1252 -1245 0
-143 -55 0
174 1393 0
-997 1154 0
-1208 169 0
1236 76 0
-1393 605 0
-48 -620 0
848 -683 0
116 269 0
1172 -1001 0
-461 -823 0
1378 -195 0
1353 -1144 0
-172 918 0
-256 -716 0
-544 236 0
541 449 0
80 -99 0
-1046 -1164 0
-425 -447 0
-1366 186 0
-931 292 0
-1161 268 0
-421 -469 0
-186 -774 0
1415 493 0
-640 -493 0
528 -859 0
927 143 0
-580 222 0
-298 -729 0
-714 -1385 0
591 38 0
-903 1264 0
1314 -1154 0
29 821 0
-1251 1151 0
494 872 0
877 -130 0
-1013 1061 0
-831 874 0
594 339 0
-372 458 0
1353 542 0
-657 501 0
954 -1179 0
-845 86 0
872 1023 0
1399 667 0
-1057 -771 0
504 135 0
-91 1205 0
-791 1376 0
-1194 1392 0
-1218 -184 0
316 -85 0
1131 517 0
-1410 -1318 0
-907 -501 0
-624 -791 0
-42 -62 0
-95 667 0
-1347 703 0
1349 -1312 0
-979 -1063 0
-604 -920 0
1069 798 0
113 263 0
690 -391 0
-1336 887 0
672 -1235 0
1227 222 0
1370 -481 0
1101 -762 0
-377 -780 0
-614 -1035 0
-740 1018 0
-943 -155 0
-361 600 0
-275 1219 0
26 423 0
-1349 83 0
661 -999 0
1265 -187 0
-535 770 0
1384 -770 0
1084 -758 0
991 410 0
-1061 -45 0
-783 -1360 0
-754 -244 0
-1429 -1061 0
409 -470 0
-1142 170 0
-219 1114 0
-33 -713 0
-280 -174 0
-164 286 0
-922 617 0
678 -195 0
-371 -188 0
-1061 -32 0
-696 400 0
-3 1077 0
-1324 -797 0
-858 1412 0
-88 560 0
-232 722 0
-150 -1428 0
1396 425 0
-1195 -762 0
98 -953 0
-703 145 0
-210 948 0
-1216 -990 0
152 1313 0
-1041 1425 0
-671 227 0
1044 -270 0
1154 -212 0
356 687 0
-809 894 0
-1108 1343 0
130 932 0
-1259 1231 0
-86 312 0
198 -396 0
343 -1007 0
1444 145 0
785 -1255 0
1391 -546 0
-848 673 0
553 -700 0
-889 286 0
-1237 -1196 0
278 665 0
-1190 -846 0
1032 704 0
-262 1043 0
-335 1446 0
1052 -617 0
1243 -827 0
838 -275 0
627 -241 0
440 275 0
97 -1413 0
1127 -1059 0
-99 1145 0
892 404 0
-1408 1068 0
-1262 1346 0
136 -980 0
-1034 -711 0
589 -718 0
401 728 0
1169 -479 0
402 1161 0
-876 -240 0
-1042 -502 0
148 1358 0
1262 358 0
-1 -832 0
-1339 -583 0
1446 541 0
455 1406 0
-702 -235 0
-409 602 0
1311 983 0
-1399 -620 0
-1015 -1292 0
1077 135 0
-367 198 0
338 198 0
1124 747 0
-467 -302 0
-255 -209 0
852 -805 0
1073 510 0
-390 -818 0
-8 -805 0
-1318 -1047 0
-713 -354 0
-1306 488 0
1179 -929 0
31 768 0
-390 634 0
1266 -1426 0
-1239 661 0
226 -187 0
-667 -463 0
-22 898 0
-711 184 0
1308 -1333 0
-704 743 0
1145 6 0
837 -438 0
522 725 0
572 -1013 0
655 -57 0
-823 -1425 0
-814 1037 0
542 -822 0
-530 375 0
73 358 0
829 491 0
-103 -786 0
-487 -193 0
-1135 686 0
-1186 -527 0
-1310 -1292 0
771 -903 0
857 434 0
-1301 1219 0
-66 -1083 0
-203 -1265 0
1179 -969 0
992 1366 0
-651 -744 0
264 821 0
-1441 -1034 0
314 1043 0
939 285 0
-937 346 0
1394 597 0
401 -1267 0
1128 323 0
-1250 -463 0
-228 96 0
-325 1374 0
-740 -237 0
-863 543 0
1348 623 0
-1229 1405 0
-809 -1420 0
-876 -232 0
-113 422 0
46 529 0
-369 326 0
473 862 0
1391 668 0
-236 1256 0
-1079 715 0
-703 -102 0
989 -850 0
-2 1336 0
-8 249 0
1287 -1064 0
1362 -1282 0
382 -11 0
-35 735 0
931 -1274 0
149 309 0
-140 1016 0
-123 -1341 0
1328 -461 0
-315 -515 0
-957 -938 0
-585 1157 0
-734 557 0
5 -1284 0
992 24 0
429 -121 0
48 237 0
1096 -1254 0
-847 -1369 0
-1291 404 0
984 1306 0
-1007 -1352 0
148 -1285 0
-585 -878 0
-1144 296 0
1344 541 0
-703 -114 0
-726 -753 0
707 -359 0
1113 70 0
1193 -335 0
152 -244 0
-232 1226 0
1311 -1402 0
936 -689 0
-1405 -781 0
284 592 0
-979 1125 0
-1131 -54 0
207 1358 0
135 393 0
498 -1051 0
475 -109 0
-182 83 0
-279 -724 0
-1145 -979 0
260 -1001 0
1340 1396 0
-801 1231 0
-1248 -666 0
500 -682 0
983 -236 0
742 -1342 0
-257 122 0
1384 1322 0
841 -577 0
432 943 0
939 -512 0
436 -1258 0
627 -78 0
441 -971 0
841 913 0
171 -1292 0
-20 210 0
-1041 -202 0
567 -731 0
-1067 804 0
-1232 -1258 0
-1044 -1226 0
126 -1098 0
244 1390 0
-340 114 0
-785 592 0
-787 -329 0
-1023 702 0
1247 -905 0
418 -995 0
292 -540 0
-1013 -1195 0
650 1327 0
-1294 287 0
