c NF
p cnf 5000 10500
4351 2239 0
2442 1342 0
4009 -4001 0
1 186 0
-4556 -250 0
3595 -1099 0
2113 539 0
-1011 2298 0
-883 -1347 0
2528 208 0
65 3981 0
736 251 0
-2334 -1536 0
3662 4146 0
3990 1531 0
-2557 -3477 0
16 1293 0
2983 -442 0
1907 -1993 0
-2104 1142 0
-713 2853 0
-2006 -4585 0
-1787 1687 0
4240 -3102 0
-1413 -407 0
-747 -218 0
4009 782 0
644 2798 0
-1318 -525 0
-1709 -4382 0
3112 -3318 0
4984 -1790 0
2237 -4599 0
-3133 -2058 0
4100 -132 0
-2150 4436 0
2020 2173 0
-2531 -4383 0
121 4056 0
4109 326 0
-2616 1438 0
3098 3271 0
246 -3765 0
-4088 -4904 0
1596 3234 0
-1241 -3900 0
3283 4592 0
-3164 -2256 0
-3999 -4161 0
-3555 -4728 0
2666 788 0
-2434 1799 0
-2434 1493 0
222 -657 0
-1240 -2491 0
3119 -2679 0
-4588 -1158 0
-82 3104 0
-4498 3105 0
2380 -895 0
-3565 1324 0
1838 1072 0
2269 234 0
-91 -1644 0
-2872 2770 0
-2485 300 0
87 400 0
3837 -2474 0
-2667 -2635 0
-3884 1231 0
-4876 3929 0
-2531 -4735 0
2666 4911 0
3664 -3156 0
1243 -4291 0
1519 1416 0
-2471 -4926 0
3964 -2205 0
-156 -1159 0
1207 -3242 0
-3689 -825 0
-1343 -2209 0
-1504 -4032 0
2075 -3888 0
4852 2703 0
-3781 814 0
1446 1818 0
-3868 2185 0
-1269 -4513 0
853 -1372 0
3699 2725 0
2620 646 0
4367 1570 0
-4903 -2007 0
852 -2751 0
3617 -3687 0
-970 2275 0
2327 -4651 0
2929 -4524 0
-2861 -4510 0
1469 -4064 0
1100 -4828 0
2632 -1955 0
21 -2291 0
1383 -3387 0
2254 -4746 0
672 -1358 0
-608 -4016 0
-2815 -1110 0
2865 779 0
-2878 3405 0
917 3668 0
2703 -1420 0
-1610 -3873 0
-431 -1169 0
3173 4477 0
-1017 -124 0
-583 4631 0
-2345 -2841 0
4581 201 0
-2821 -2182 0
-903 4529 0
-1178 -2363 0
3783 4667 0
-2100 -1925 0
-4885 3085 0
-914 -3553 0
2381 3785 0
-343 -1967 0
1157 -1006 0
4330 -2865 0
3038 -1405 0
1397 3082 0
216 -2880 0
-1656 -1011 0
-1337 1336 0
3342 -4073 0
3612 3647 0
2403 4058 0
206 -726 0
473 4894 0
-1374 -4045 0
-3671 -3143 0
-2056 261 0
3502 1697 0
3023 -3178 0
333 2808 0
1245 -221 0
-187 -325 0
-4219 3832 0
-3427 -1216 0
-2802 4523 0
1379 -4792 0
-2015 -3507 0
4780 -233 0
99 3055 0
-3303 -4098 0
-1110 1748 0
-1707 -524 0
2669 396 0
2460 3720 0
3509 -2846 0
4413 -1720 0
-1385 -3357 0
-2536 -2045 0
2967 3333 0
4772 332 0
-21 -3610 0
905 -3058 0
-1222 -4271 0
258 2151 0
1033 536 0
-3469 3057 0
-1812 -3999 0
2643 4888 0
3541 -4268 0
2024 -3147 0
-4743 3485 0
-3503 -4864 0
3149 817 0
-1721 -3799 0
-2987 -2289 0
2949 339 0
320 854 0
-4675 -3707 0
-2227 -13 0
2757 200 0
-3130 -1590 0
-615 -3234 0
1941 319 0
3084 957 0
-4829 2749 0
-2046 -4060 0
-3828 981 0
523 3758 0
-1106 70 0
4550 4542 0
656 -2521 0
-682 3559 0
-928 914 0
-4294 2019 0
-3440 547 0
2210 -2956 0
1658 188 0
-1520 3138 0
-840 3334 0
-4219 -960 0
-590 1483 0
4390 -4675 0
106 -4339 0
4042 -845 0
853 3542 0
1483 4141 0
3873 -1948 0
3809 4195 0
1645 -100 0
3990 -298 0
-3997 -1413 0
-342 450 0
4161 -171 0
-2054 4144 0
386 -1772 0
1056 4349 0
-1985 -4514 0
-2340 -130 0
2357 -2564 0
-3889 2072 0
-3733 557 0
4250 -3120 0
-2883 2889 0
-1691 4062 0
-324 -325 0
-4474 -3395 0
3525 4081 0
-4968 -2526 0
-4883 -4566 0
2509 3082 0
4314 -4288 0
-1944 2707 0
3250 -1669 0
489 -4742 0
499 -1358 0
-103 -4014 0
2338 -1427 0
1290 -1577 0
-3727 -1930 0
1398 2954 0
59 -1551 0
-4755 -112 0
393 4277 0
785 4855 0
4663 -1216 0
-3697 -4669 0
-1324 -4192 0
844 4750 0
2728 801 0
-2516 -1859 0
4377 -1189 0
604 -3686 0
-2516 -2387 0
2481 2185 0
-2186 -2584 0
4417 -476 0
4425 -2183 0
962 -3371 0
-1450 -1898 0
-1265 -3514 0
3755 3277 0
-4408 -4281 0
2167 3645 0
1079 -615 0
-218 -1025 0
1119 -2551 0
-1892 -928 0
1762 4816 0
-4506 102 0
3030 -1934 0
-2705 -4751 0
-1656 -2178 0
3161 -3245 0
4371 -908 0
3699 -3456 0
164 -4746 0
444 285 0
3811 -56 0
-2891 2424 0
3411 -4256 0
-3405 805 0
2388 1617 0
2268 -3860 0
-1417 -2847 0
3021 195 0
1611 3528 0
259 -3440 0
-486 4065 0
2433 -709 0
1283 -3861 0
-1146 -2046 0
-1126 3307 0
3860 992 0
1370 3598 0
-3173 4347 0
1895 -1314 0
3838 -3387 0
-2778 3674 0
-4773 -163 0
-987 -2103 0
3566 390 0
-2133 -1597 0
-3801 -3253 0
-1377 -1496 0
-30 -125 0
911 -3824 0
-2047 -605 0
341 1809 0
-3195 -563 0
-639 -3036 0
-1546 1294 0
2147 -3837 0
-1087 4071 0
-1965 -771 0
1643 1040 0
2303 -3424 0
3102 -3233 0
1379 1032 0
-3454 -3533 0
2962 1315 0
1428 -3721 0
-40 -2 0
677 662 0
-4016 -2731 0
-3534 1927 0
-426 -2129 0
-996 1130 0
-959 1325 0
4607 3228 0
-775 335 0
-4738 -2839 0
1572 -1138 0
-3401 -1314 0
-2196 -2789 0
-3639 -2083 0
-4149 -2840 0
155 -1412 0
-2328 3636 0
-1046 -2556 0
-3086 4752 0
4200 1960 0
1905 2301 0
-559 2367 0
1391 -2945 0
-166 2311 0
2400 -4354 0
552 1645 0
-2708 251 0
-1914 4809 0
-420 919 0
3243 -114 0
-3493 -624 0
-458 -277 0
-546 -4542 0
-842 -505 0
-3613 3797 0
-3186 4176 0
4602 2384 0
213 4200 0
4356 -1629 0
-2687 3718 0
3777 -1006 0
-3085 4243 0
-4594 4506 0
1209 -2865 0
4298 -4158 0
3817 4162 0
4086 3377 0
2875 510 0
263 3948 0
-3574 2011 0
-801 -626 0
-3798 245 0
286 2286 0
-875 926 0
1541 1202 0
-1807 -2968 0
1089 1310 0
3054 2631 0
-1192 554 0
1905 1489 0
2284 -2820 0
-849 242 0
-456 -106 0
508 3298 0
-3442 -658 0
-2743 4213 0
-4453 4057 0
-542 2237 0
1434 -143 0
-1955 1148 0
-1753 -1930 0
-1191 3952 0
-2411 4137 0
4381 3815 0
-1503 1790 0
-2115 1889 0
4546 598 0
1509 -80 0
-4629 3750 0
3041 -555 0
-1364 3941 0
-3253 3637 0
2203 -977 0
-4413 375 0
-4280 3815 0
1946 -2439 0
-3933 2903 0
3811 -2993 0
3558 817 0
3510 -1454 0
234 2093 0
-3470 1832 0
-4901 2822 0
-4754 2567 0
-4711 -1685 0
-327 -3101 0
1662 -3315 0
836 1879 0
4914 1664 0
-4110 -3769 0
-1064 3984 0
-1620 -4233 0
4878 -106 0
1138 776 0
1573 -1432 0
1928 -4968 0
4591 -96 0
-1813 159 0
853 -2440 0
-4114 3642 0
-1185 -507 0
3314 1040 0
1632 -1928 0
-1378 -4813 0
2767 -3578 0
-1263 4133 0
329 -4192 0
-4475 -1736 0
-1268 3506 0
-381 -2526 0
-2447 4213 0
95 -4690 0
4530 -4457 0
2404 -4625 0
-254 -2680 0
4832 -1353 0
-2980 3764 0
-2734 2947 0
-402 541 0
182 1258 0
-1619 3256 0
200 20 0
3194 1477 0
-4722 3148 0
2493 -1590 0
-2916 2680 0
95 -4360 0
-4844 3380 0
594 -3019 0
-1652 -609 0
948 69 0
2257 3910 0
-1887 -4935 0
2552 86 0
-432 -592 0
-3245 2496 0
-2965 -408 0
-15 -2542 0
1960 -4865 0
-78 4689 0
799 4233 0
-2047 -1051 0
-4877 -3909 0
-2703 -4754 0
-4947 421 0
4870 -254 0
2896 -1014 0
2984 2891 0
4539 2195 0
-192 -1438 0
-2127 242 0
2171 1776 0
2491 -4239 0
2309 -975 0
4999 -3116 0
-873 1527 0
564 -1594 0
1083 1976 0
-603 -608 0
3408 107 0
-1779 -4996 0
622 1555 0
3160 4889 0
4784 -1243 0
2874 -2190 0
143 -4617 0
-2494 3584 0
4368 630 0
2799 4596 0
-4497 -3968 0
-4901 2857 0
1163 3880 0
3685 2568 0
-292 2046 0
-1788 -3864 0
3552 1676 0
609 -3477 0
-309 -3050 0
237 1687 0
-4950 -4426 0
1333 31 0
4062 118 0
3892 979 0
-557 871 0
815 262 0
2263 -539 0
-18 -2773 0
-4467 1949 0
-347 1046 0
-4630 -798 0
-199 975 0
1780 2073 0
-2337 -239 0
2312 -782 0
3051 -2457 0
-4785 -4223 0
-4455 -4435 0
-1317 3355 0
-3709 -1331 0
-3803 2967 0
3685 -1802 0
1292 -250 0
-2531 -4511 0
2977 3463 0
-3602 -490 0
580 -2696 0
2832 -185 0
4656 -2127 0
-758 -337 0
-4666 -1686 0
1072 -2012 0
3097 2410 0
-2665 -1648 0
-309 -84 0
-2044 -599 0
3767 1589 0
517 4109 0
-2098 244 0
955 -3356 0
-2690 -2780 0
4146 -4638 0
275 -299 0
-1039 -1366 0
-542 2061 0
-2039 -495 0
3207 -4550 0
1891 3221 0
-1534 591 0
-931 3127 0
-2203 -3045 0
1144 -2257 0
3661 979 0
4458 3289 0
4235 -1998 0
216 -4429 0
520 -23 0
-331 1852 0
-3542 3740 0
3139 -2308 0
261 841 0
-1422 2008 0
578 1394 0
-4775 1312 0
1579 3482 0
1220 1225 0
-4356 -1548 0
51 3870 0
-2523 4670 0
227 -3221 0
-1927 4539 0
1228 4653 0
-3013 2552 0
-2250 -876 0
-127 -100 0
1627 4264 0
2081 2621 0
-111 1847 0
-744 4826 0
-3242 -181 0
3181 1446 0
1183 -2504 0
-4437 164 0
-2646 2367 0
2516 -3921 0
680 2885 0
386 1852 0
4889 99 0
-2942 1789 0
-794 3841 0
-1591 4725 0
3091 3161 0
4093 -1441 0
146 -927 0
1507 -3319 0
2562 -1784 0
3396 -3034 0
-366 1118 0
-160 4286 0
-1485 -1803 0
4148 -4941 0
4953 4224 0
379 -326 0
2638 -3079 0
-1366 1730 0
-4358 -1859 0
-699 3355 0
3250 -366 0
-1683 2639 0
-1321 2215 0
-2815 4125 0
-2 2261 0
-838 4109 0
4603 -3675 0
-3230 4038 0
-250 2006 0
2658 3414 0
321 -4159 0
1107 -4506 0
4912 3146 0
2590 -2740 0
-1781 -1783 0
-2690 2528 0
-3446 1207 0
-3447 -4142 0
33 -1887 0
1997 4017 0
-4098 -1216 0
3704 -705 0
-2575 -2698 0
-153 1638 0
890 -4615 0
3817 1111 0
1983 -1659 0
3858 -2335 0
-4170 4141 0
-3733 -1069 0
4528 -3799 0
-3656 549 0
4828 -3007 0
3942 -1743 0
4667 -1114 0
-2701 4112 0
3535 4187 0
-1644 3495 0
-3765 -3251 0
-4997 1483 0
4551 4970 0
-2404 -4064 0
1521 -575 0
-3199 737 0
4362 -2195 0
4001 -2528 0
-26 2420 0
2009 -3438 0
4802 -4759 0
3729 1910 0
1033 -167 0
1579 -893 0
1515 -2672 0
-4821 4446 0
-3682 -3569 0
637 -3991 0
518 3775 0
-3933 -4541 0
2734 -441 0
-694 2217 0
-3504 -3419 0
4907 4151 0
3831 523 0
4922 -2736 0
-1179 753 0
-795 2737 0
-402 2537 0
-3454 2781 0
3292 3681 0
-2671 298 0
-953 -712 0
3816 -2187 0
-2180 -1026 0
109 -606 0
-1366 -140 0
-2370 -3135 0
-243 1472 0
206 -3201 0
-3290 2019 0
1494 -3440 0
21 366 0
-3595 2279 0
4603 -4867 0
1154 -3953 0
-995 -3795 0
-690 -1821 0
-3131 1042 0
4835 -4012 0
-436 -948 0
-4681 3226 0
4368 2079 0
-3290 -1974 0
972 4194 0
173 -72 0
3206 -262 0
-1610 -2191 0
1672 590 0
-1028 -1802 0
3689 4351 0
130 2550 0
-1242 4756 0
-1415 1678 0
81 -4047 0
-2200 -4761 0
3505 3942 0
2111 -2762 0
-3290 -4073 0
10 696 0
2673 2995 0
1859 2691 0
987 111 0
-1242 -3965 0
-4048 -4447 0
-569 1491 0
-852 -4672 0
4814 3575 0
-1957 -3900 0
-2395 -2757 0
-3256 -2788 0
-1281 -2133 0
2811 1025 0
2330 394 0
-3923 2615 0
2319 -759 0
-3075 -4505 0
4830 -4353 0
1934 4759 0
-3869 -801 0
4939 -3908 0
2368 -2360 0
-43 -509 0
4243 -970 0
1953 4226 0
-4032 3558 0
-102 -760 0
-1591 3055 0
3189 2640 0
2108 4072 0
4071 -2012 0
-2964 -1487 0
811 4187 0
350 -4758 0
4229 4880 0
3966 3279 0
-2092 962 0
3297 -579 0
125 -2032 0
-1328 -1340 0
2100 -3467 0
1150 -4185 0
-718 3139 0
1208 4624 0
-1117 878 0
-4418 4318 0
871 -4093 0
-4373 -1453 0
4141 4734 0
3138 2634 0
-4045 165 0
2290 1428 0
3494 -3193 0
-3061 711 0
-4231 2665 0
2532 -4695 0
3737 1636 0
-192 -3419 0
132 542 0
4263 -1141 0
-3387 -56 0
3537 -98 0
-4904 2541 0
-2492 -3023 0
931 4915 0
3024 -1720 0
870 586 0
1044 -2974 0
-3576 -739 0
-2740 1145 0
1666 2152 0
-4856 2683 0
3405 -2647 0
-2705 -4594 0
1043 -3394 0
3272 -2097 0
2472 -1551 0
4332 812 0
-4626 4840 0
2174 1190 0
-2603 -310 0
-4011 -3653 0
-4170 -3079 0
-2958 -4334 0
494 4191 0
1765 -2849 0
3016 1886 0
2462 -3510 0
2951 3661 0
-2965 -4266 0
2497 -2567 0
1755 -1365 0
-1228 1367 0
-315 992 0
-3229 789 0
-1571 2733 0
4263 -3784 0
-2236 2750 0
-1508 -1999 0
-4551 2029 0
484 2824 0
-1809 -1611 0
-2112 2057 0
-1897 -3788 0
-2894 -4165 0
-1152 4582 0
1884 -959 0
-2175 2118 0
-1276 -4906 0
-3584 -1276 0
2644 1511 0
318 1228 0
1092 2488 0
3550 2112 0
-356 2389 0
-2420 3591 0
-532 -1623 0
-4075 3941 0
4008 -3300 0
-66 270 0
-2069 961 0
-229 719 0
4299 837 0
4327 -1048 0
729 755 0
225 2154 0
-843 4931 0
1916 1350 0
-934 -2601 0
-994 -2254 0
-507 3721 0
-3355 827 0
-1521 4797 0
-1552 606 0
-3433 -545 0
3236 1690 0
-682 905 0
3735 1644 0
2997 -3810 0
-4898 2981 0
-2653 962 0
2649 4872 0
-2417 -4599 0
-3671 4659 0
-4588 4867 0
-3533 4198 0
-2162 -4125 0
-833 -524 0
2684 -3242 0
-894 -3037 0
319 -182 0
3402 4033 0
4190 4296 0
2412 1002 0
1595 2420 0
2836 -1464 0
3240 4927 0
-2250 3747 0
2910 -2155 0
-300 3190 0
4388 869 0
583 4277 0
-3799 -555 0
295 -4764 0
4649 -1009 0
-1656 1411 0
3326 -3537 0
3372 -2031 0
4847 203 0
1573 185 0
-860 -4409 0
3579 -4357 0
-778 2305 0
-3822 2210 0
-3605 222 0
-1961 1019 0
2322 3948 0
-2752 -2415 0
3989 4581 0
4144 -171 0
-12 -4681 0
-1656 1828 0
-1453 -3149 0
2480 1617 0
3924 2332 0
3556 -3654 0
-1739 -4935 0
-1205 4374 0
2042 -1079 0
4650 -1899 0
-2794 4663 0
-656 -2216 0
2367 -3811 0
-3229 -2579 0
-3839 -4242 0
-4908 -422 0
664 4056 0
2759 -2334 0
4072 -2610 0
4022 538 0
58 -1005 0
-618 1452 0
-970 3485 0
2223 3557 0
1367 2549 0
-2557 -4834 0
-2020 1024 0
3685 2301 0
-787 -434 0
4104 -3844 0
3113 -4042 0
291 -560 0
197 1965 0
-4186 -3473 0
-1182 261 0
-1958 -1173 0
-4157 -612 0
418 -4402 0
1431 -3364 0
1960 1340 0
4827 4298 0
-1608 -4046 0
-687 4609 0
-1982 -4447 0
1383 -2944 0
-895 -3875 0
-3465 630 0
2323 159 0
1511 3951 0
-1782 905 0
148 2314 0
4738 -2840 0
-4732 944 0
2611 -4144 0
-4680 -3554 0
1911 -1470 0
2386 2505 0
-2334 4081 0
-1906 -2494 0
1039 -3098 0
-431 1711 0
-1540 -1197 0
461 1776 0
2996 -1587 0
-4052 -4172 0
423 3369 0
3637 4316 0
2073 3717 0
-464 -1370 0
-124 1002 0
4882 558 0
-2823 -2360 0
-2140 -1140 0
-2782 -3933 0
-3946 -3306 0
3123 3518 0
4759 3230 0
1765 330 0
-4607 -576 0
-4511 -4555 0
-624 2920 0
3433 -2392 0
347 3344 0
350 -3534 0
1419 3127 0
-1092 -2492 0
248 -4919 0
181 1907 0
-935 -1221 0
-2064 -2246 0
-3148 -4932 0
3705 945 0
-2201 -1623 0
2185 -1935 0
4872 508 0
-1758 1641 0
-4811 -290 0
-3455 305 0
-3959 -3199 0
-2040 -1455 0
4312 -3067 0
-180 -837 0
3359 3699 0
2646 -1370 0
3718 -1133 0
4161 4405 0
3387 1636 0
-3900 2925 0
4731 2282 0
3192 -1715 0
1592 241 0
-357 819 0
4366 4825 0
-1659 -1673 0
-3231 3746 0
3456 460 0
982 -2970 0
1786 -18 0
1529 3625 0
-135 -1791 0
4756 -3360 0
2363 2110 0
-2405 3381 0
-2976 -3870 0
-3824 516 0
-3703 2929 0
2830 -1790 0
-1539 -3876 0
946 -2230 0
-4940 -4664 0
-3913 3419 0
-521 -886 0
-849 -3945 0
4548 255 0
-168 350 0
-4001 2947 0
-2041 4571 0
-3163 4103 0
-2757 529 0
-1861 -3229 0
-4080 4001 0
-2908 -2026 0
3608 2050 0
-3516 -4920 0
-1506 3531 0
-2634 448 0
-2507 1310 0
1990 -3605 0
310 1516 0
4425 -4494 0
-803 3959 0
-199 2322 0
-4829 -1880 0
-2837 4883 0
1710 -3365 0
-4114 -1097 0
4624 -1393 0
4134 -4900 0
3777 1082 0
2220 658 0
4347 3833 0
-642 1596 0
3825 4433 0
71 -2416 0
1918 1080 0
1395 3772 0
3685 403 0
-2520 2578 0
2959 168 0
3095 798 0
115 -3410 0
-1606 -725 0
270 -1258 0
-691 -3373 0
-1737 1826 0
976 -2302 0
-4709 637 0
3359 2008 0
-3744 485 0
-1093 -95 0
-4811 1260 0
3328 -3541 0
3328 1181 0
-1256 4466 0
3926 -1282 0
-1166 4563 0
-3835 487 0
710 3433 0
-4937 -729 0
1013 2544 0
4589 2328 0
1510 736 0
384 -4590 0
-2203 -1971 0
3523 -2206 0
4761 1732 0
4535 2569 0
-2510 4090 0
4236 -4324 0
-4480 4831 0
-3534 2824 0
3608 -4360 0
2874 3973 0
-468 -733 0
3570 286 0
-832 -1000 0
768 -795 0
-4638 -1925 0
-824 51 0
-4727 -1411 0
865 -347 0
-1118 -2628 0
478 1501 0
-610 3121 0
-2773 770 0
1942 206 0
-82 2017 0
-2979 -557 0
3582 -3133 0
-1551 2318 0
-1985 -4932 0
-2974 2004 0
2702 644 0
-3193 629 0
-4685 -1055 0
172 1604 0
-2061 -1868 0
4938 -2708 0
2901 1149 0
2783 -2041 0
-4061 527 0
4853 3194 0
-3177 -2904 0
-595 4145 0
-2916 -2123 0
189 -1057 0
433 -4400 0
-722 1749 0
646 -3118 0
-1969 4597 0
1347 -2038 0
-2067 -2351 0
-2936 465 0
4 762 0
-2330 -4064 0
-2378 -2339 0
-4169 4321 0
-2969 953 0
-4500 -3166 0
863 -4819 0
4464 -1141 0
-1804 -1232 0
-3069 -752 0
3906 1751 0
1106 -2353 0
206 3306 0
376 2562 0
3845 -3303 0
-4110 967 0
-1808 1198 0
-2614 -717 0
-796 3461 0
-3945 -159 0
-1238 2354 0
515 -464 0
3951 -2857 0
-4674 -1338 0
-3538 3978 0
2481 -133 0
2870 911 0
3051 2590 0
340 3980 0
-660 285 0
1005 3215 0
-782 -563 0
2176 4480 0
-3934 -4914 0
-1210 -4579 0
1949 -282 0
4858 4520 0
-1598 -2782 0
4962 -3030 0
3568 -2091 0
-817 -2845 0
-4242 3291 0
4596 -829 0
4658 -4070 0
1101 3952 0
2452 3965 0
-4331 -1122 0
4228 1670 0
2365 -3666 0
3843 3177 0
-212 4697 0
97 -1311 0
-68 2218 0
-1601 -362 0
2283 2671 0
-571 1550 0
980 4074 0
3974 3948 0
-344 2582 0
-4056 1124 0
3055 -2565 0
-4408 2985 0
-2936 -2411 0
2816 3729 0
1294 4839 0
-2492 2977 0
-3049 4134 0
-4641 2092 0
596 4046 0
3551 -1013 0
302 -3643 0
-2352 1744 0
-3499 4692 0
940 -2943 0
4482 -3630 0
1851 3575 0
-3106 -3713 0
3009 4893 0
-3490 -3142 0
-1649 -4289 0
-2458 1749 0
-749 178 0
3540 3501 0
-2504 3974 0
-2043 4935 0
461 -1010 0
-1706 -498 0
1790 319 0
-2183 4564 0
-2352 827 0
-3908 3205 0
4571 -1297 0
-2246 -1895 0
76 -2145 0
-2904 3669 0
-635 366 0
-2863 2761 0
-3219 1059 0
523 3391 0
-4302 2037 0
-4259 761 0
2974 -55 0
2389 -838 0
701 -1082 0
4458 4229 0
-3311 1199 0
-2190 -3301 0
1709 -1977 0
419 2113 0
-4436 -3021 0
2405 -658 0
-2072 1871 0
1724 4548 0
1748 -1189 0
3322 1834 0
-1564 -777 0
3424 -1669 0
-4596 2484 0
-3447 -4761 0
2323 570 0
-1589 -4085 0
4349 -3977 0
-1805 2237 0
-1681 1316 0
-3377 -2587 0
-2195 293 0
-1387 3341 0
-4554 -1104 0
514 3891 0
-2668 -4068 0
-4685 4334 0
-3515 -1543 0
1542 -3561 0
1739 -1190 0
-3937 985 0
-199 3233 0
421 3740 0
-3703 -1469 0
4493 -173 0
-3761 2469 0
-3968 105 0
2005 -1211 0
-4472 -436 0
-3275 -4962 0
-2588 4244 0
-2156 712 0
-221 -4063 0
-747 3788 0
-624 -784 0
-2119 4927 0
-3811 -645 0
-1602 -1413 0
-2125 4522 0
-1117 -3357 0
4299 711 0
-2953 -674 0
4953 3752 0
1709 -3898 0
-2905 -4866 0
3649 -2494 0
-4161 -4707 0
1469 3850 0
-3567 -3515 0
-4331 3550 0
-1536 4958 0
4541 2482 0
3300 4867 0
-2628 2259 0
-2485 -4551 0
4437 3947 0
1183 -2818 0
-1333 3434 0
3911 -275 0
-1829 -1052 0
2436 77 0
4775 -2201 0
4111 -2573 0
4589 -1568 0
3546 1751 0
3141 2777 0
2468 1266 0
3213 3772 0
-2677 -1242 0
432 -3617 0
2230 -3317 0
-969 728 0
2983 -614 0
-3825 547 0
828 49 0
-56 4368 0
-1884 2148 0
-1648 -170 0
940 4586 0
-3492 -4292 0
946 -1444 0
-1582 3428 0
2552 -1553 0
-1710 4720 0
3609 1807 0
-4037 2067 0
-3707 -521 0
263 -1175 0
473 2322 0
299 -2223 0
-4863 -189 0
482 -3356 0
-4110 -418 0
-1829 -4643 0
1792 -299 0
-3426 3312 0
-531 -4751 0
129 -4894 0
-2987 -1345 0
1197 2435 0
1996 1319 0
4267 -2456 0
1787 4208 0
-724 -3931 0
-2960 1337 0
-4891 1419 0
1894 3405 0
-2764 2117 0
-436 618 0
-2533 -2065 0
-6 -2061 0
-3987 638 0
-706 2414 0
-684 4997 0
67 40 0
-2604 -4663 0
123 1570 0
-3985 1164 0
-677 -1683 0
-4951 -2582 0
444 -4654 0
527 -4850 0
4724 -1176 0
-1010 -3986 0
-1848 2057 0
3872 -3968 0
-790 -1194 0
-2349 -967 0
-851 -23 0
-3407 -797 0
-3467 3965 0
2016 3288 0
-501 -560 0
-1018 -3116 0
-3747 2050 0
641 -3879 0
-2982 -3918 0
-1805 -3792 0
-2407 2589 0
-3006 1000 0
2828 -3510 0
-2992 -2179 0
1474 4809 0
1748 -3749 0
4631 4455 0
4284 636 0
4712 -396 0
-4715 -2659 0
3711 -3447 0
4861 -4357 0
3210 -507 0
1629 -934 0
-900 4482 0
1489 115 0
3971 -3814 0
2387 3083 0
-963 641 0
275 -3368 0
-2018 -4716 0
-2292 -284 0
-1261 2845 0
4522 -4079 0
-4811 3895 0
4563 -1143 0
-154 4731 0
2714 1749 0
-3616 -4656 0
4955 4874 0
-474 -4734 0
-1379 4400 0
3222 35 0
225 724 0
4017 491 0
-3318 -1981 0
-1278 -713 0
2073 4571 0
-4558 -2645 0
-1854 2168 0
-2292 -1915 0
3755 -3220 0
1286 3218 0
3674 -593 0
997 17 0
-522 -2134 0
-2492 1524 0
-3775 926 0
3500 3149 0
-883 -1291 0
-2708 -2709 0
64 4347 0
-1648 -3555 0
2940 1460 0
722 816 0
-3690 -109 0
-1363 3929 0
1953 -4992 0
261 -3086 0
422 3583 0
-242 -4330 0
2463 2025 0
3381 166 0
-125 4760 0
-4351 -1897 0
1138 -3228 0
-1588 -1698 0
2367 3616 0
-1132 4802 0
4452 3428 0
-1156 -1464 0
-2647 206 0
-3749 -2257 0
-4429 -336 0
3770 -2213 0
1643 1374 0
-2313 2090 0
1586 -4837 0
3513 -205 0
-3539 -671 0
-4399 -4672 0
-4897 -4788 0
-1125 1651 0
-3449 1776 0
3247 3554 0
-1122 686 0
-3019 -3952 0
336 -4392 0
-953 101 0
-2855 4947 0
681 156 0
986 -4969 0
-241 3175 0
3781 -1263 0
2744 2653 0
-1988 -1375 0
4141 3218 0
1676 3967 0
3177 -3078 0
-4669 -2340 0
1247 1033 0
-1144 742 0
-1509 -3772 0
-4181 1925 0
1116 -1405 0
-3075 4114 0
4180 -4762 0
-3411 -281 0
1368 -1590 0
-3949 3519 0
113 2391 0
-4707 1191 0
4608 -279 0
825 -4403 0
4928 -4239 0
-2544 -974 0
781 -3899 0
4573 -3375 0
-168 1386 0
-1741 1571 0
289 -2068 0
831 3075 0
-2055 -2667 0
-1362 4679 0
-2363 -4103 0
65 2754 0
1542 2829 0
3548 -427 0
-3024 -3115 0
3529 -4315 0
1781 4302 0
-3873 -4733 0
-4395 -3231 0
1025 1662 0
46 -1454 0
-372 -4088 0
-669 1183 0
-3443 2733 0
4765 2210 0
-3886 3147 0
2525 539 0
-18 1341 0
3621 -993 0
1001 1048 0
-3766 4593 0
-3468 -4583 0
-1181 -850 0
-979 -4538 0
-3068 3355 0
-1700 4484 0
-3920 216 0
3769 -3217 0
-2834 -1045 0
839 -2778 0
2088 3486 0
-1939 -1211 0
-3868 -2281 0
-733 -1100 0
2662 -2712 0
-3205 -2151 0
-2381 -19 0
-3022 -372 0
3635 265 0
1588 -3418 0
487 -1582 0
4834 -1374 0
4637 -3352 0
2344 -4778 0
446 2105 0
-807 3911 0
1911 -2477 0
-2028 3957 0
1854 3256 0
-720 -1921 0
-2663 3782 0
683 -4494 0
2056 -3037 0
-1482 -3525 0
3571 -1280 0
-408 -3985 0
-3179 -4274 0
-89 -1616 0
-3353 416 0
3780 1443 0
4426 -1278 0
-42 -783 0
2653 -2908 0
-2459 3160 0
4123 143 0
-3540 -4441 0
3667 1173 0
-991 -4554 0
4616 3794 0
-3713 -358 0
2426 3764 0
1263 235 0
26 3896 0
472 -2874 0
1792 -4353 0
-4819 -1468 0
-1414 3534 0
-809 -2794 0
-300 -2038 0
3754 3704 0
4249 3100 0
-2629 -2956 0
536 3655 0
648 -4651 0
876 2706 0
548 -661 0
-3642 -1198 0
-1026 -2779 0
-214 -1880 0
2713 -4438 0
-738 -2938 0
-4773 520 0
4953 2497 0
3199 -2939 0
2215 4952 0
1765 -2357 0
-3546 4445 0
-3323 -4895 0
-1433 3382 0
1864 -769 0
-1282 -963 0
-4382 -3700 0
871 3755 0
1664 -4245 0
-2599 -4155 0
946 3835 0
-1675 547 0
-2106 800 0
1245 72 0
3978 -1973 0
3596 933 0
-3744 -3709 0
2220 736 0
-4681 41 0
890 -2416 0
3596 2988 0
1960 -4344 0
-2191 -2580 0
1071 309 0
-3403 -827 0
4583 -2323 0
1568 459 0
-3881 502 0
-1512 -6 0
-622 -1774 0
3375 2880 0
-3352 -1692 0
1561 -4342 0
1186 -3223 0
2382 -3145 0
2685 2133 0
3286 1928 0
1816 -479 0
1447 4509 0
-2757 262 0
-3501 -1405 0
81 1952 0
-3775 -4680 0
68 685 0
1151 -476 0
-3730 -270 0
-2051 -2680 0
542 -1346 0
-325 1389 0
-3159 3212 0
3402 -4696 0
-1156 3833 0
-984 -907 0
1318 649 0
148 -1184 0
1933 -3808 0
3203 4882 0
-201 1391 0
1952 1205 0
-2790 3958 0
-3866 1334 0
189 -2762 0
-2427 67 0
-704 -4733 0
4222 -4790 0
4033 2459 0
2851 -3949 0
-524 -2739 0
4368 4126 0
-1348 -17 0
-824 -3709 0
-2160 -542 0
701 -4928 0
2285 2795 0
-2731 -2489 0
-1394 -3533 0
-4025 3469 0
2076 -4546 0
3880 3384 0
-3178 -1185 0
1219 4854 0
-1635 -4403 0
-1123 -3715 0
92 4582 0
2498 -3653 0
-4183 -1415 0
3571 -4954 0
-2140 -4450 0
2491 -398 0
1573 4657 0
4936 -2039 0
-3397 -4656 0
2282 -3875 0
-4444 -2188 0
919 -3601 0
2576 -2172 0
-1723 -4324 0
3294 2881 0
3833 1821 0
3582 -3836 0
4037 -3167 0
-3518 142 0
4795 -3796 0
1502 2272 0
-583 -4392 0
-3215 4817 0
-747 4428 0
-3675 -2155 0
-4961 -1272 0
-1675 -2515 0
3882 -1177 0
4046 -4162 0
1433 -3374 0
3874 -1492 0
-975 4042 0
-1385 2758 0
3532 -2530 0
1411 4421 0
-4225 2341 0
4464 69 0
2827 4472 0
-3021 -3499 0
-3882 -2551 0
-4926 -2076 0
2365 -3585 0
-4576 593 0
377 -3875 0
4010 -25 0
1787 1934 0
1624 2670 0
3926 -3223 0
240 -3509 0
4857 -3031 0
-4968 3966 0
4832 -2746 0
-1451 -700 0
1447 -1512 0
-4423 1163 0
880 21 0
-2784 2300 0
263 182 0
1548 1717 0
2426 265 0
3622 -4058 0
2791 -4323 0
-1349 1360 0
-1750 3322 0
-155 -1702 0
3104 1432 0
-3526 1035 0
1884 -2034 0
-4232 2393 0
4609 -47 0
-2305 -2071 0
-4341 138 0
-4110 -945 0
194 -1444 0
-159 1220 0
-1569 1380 0
-1763 -1612 0
-4923 -2505 0
353 -1902 0
-2932 711 0
4054 724 0
1899 -4460 0
2049 1787 0
-1258 1613 0
2367 -1661 0
-2504 2563 0
1745 1151 0
1071 3902 0
-3297 -3749 0
-4431 3792 0
-2312 -2607 0
2067 -914 0
2959 -4938 0
-3682 2485 0
341 -3535 0
3254 -2515 0
4909 3048 0
3173 -557 0
-1432 4712 0
-2146 -2123 0
1563 886 0
4524 412 0
2600 -3434 0
1395 484 0
-3594 -1018 0
-3073 -1605 0
-1007 -4135 0
-4656 -3901 0
-4757 -1567 0
4523 1407 0
4667 924 0
-2665 -847 0
-1345 -4657 0
-4701 3875 0
1107 -2440 0
-1122 59 0
-3620 1566 0
4437 1664 0
-4963 -972 0
-1108 3165 0
3954 3224 0
4953 4361 0
3757 -3781 0
-3310 3476 0
2984 -4957 0
4401 379 0
176 -449 0
-233 2064 0
-2593 942 0
548 -1311 0
-841 -1606 0
1488 1136 0
-619 284 0
-2435 -324 0
4105 1636 0
-400 -3526 0
3396 1570 0
2568 -2646 0
-1735 -4046 0
3030 -1116 0
-3937 -1810 0
1486 3829 0
-407 -4569 0
3032 3756 0
-3260 521 0
1871 3603 0
3328 2735 0
691 2457 0
4301 3890 0
1094 -4441 0
1906 2431 0
-1161 665 0
2385 1829 0
347 -3763 0
2753 -3427 0
4962 -1171 0
400 -2034 0
-4062 3188 0
783 1814 0
2360 4923 0
-790 2265 0
1963 4583 0
-266 -4851 0
95 -3602 0
-595 -4358 0
-124 -2469 0
-1176 -3187 0
2324 2315 0
984 1184 0
-1642 -358 0
4647 -3262 0
1878 292 0
4147 -4241 0
3175 904 0
-3741 -192 0
2370 -4204 0
-3806 -3634 0
-3843 -3263 0
976 366 0
-1481 2288 0
3009 -822 0
2700 -910 0
-2748 -18 0
2718 -1753 0
3539 3866 0
4187 -1030 0
-4440 588 0
1316 2473 0
-289 -3157 0
1115 -2227 0
-4085 -2349 0
-2564 -4660 0
721 -3128 0
3739 841 0
3764 4313 0
-4335 570 0
4074 1899 0
3477 3929 0
-3415 3932 0
-1957 -4940 0
-3372 510 0
1641 1680 0
-2336 2655 0
-85 -4583 0
636 912 0
-2693 -4614 0
-1388 -4551 0
-3856 4783 0
-1333 4568 0
-1537 -1742 0
741 -48 0
-3975 -1695 0
1074 -3497 0
-4856 3582 0
-3455 -608 0
-3331 -585 0
-2727 -1642 0
3268 1495 0
4857 670 0
4902 2159 0
-887 1985 0
-801 -4535 0
4708 2511 0
-3610 2874 0
3984 576 0
-2427 -4619 0
3226 2189 0
-4278 -1967 0
-3300 -2233 0
-4047 812 0
-3426 4953 0
1109 3768 0
-3033 3352 0
-1411 -2203 0
-397 -1419 0
4792 3855 0
4511 4658 0
1901 -4929 0
832 -1187 0
658 -4301 0
-91 3696 0
-2244 -3983 0
2287 -2015 0
4520 -2076 0
-2269 3600 0
-3801 2697 0
-652 1099 0
-2048 -2136 0
3420 2660 0
-3612 2042 0
-1759 1225 0
-4009 -1433 0
2964 1012 0
3598 -1645 0
1566 3118 0
4504 -4999 0
-2080 4650 0
-824 -4124 0
4273 -393 0
-2894 4823 0
-3195 -1305 0
-198 1962 0
-2894 4386 0
3484 2849 0
4841 -2169 0
4102 -847 0
1328 -1294 0
336 4639 0
1236 -1802 0
-479 -1380 0
-4237 -2172 0
-3918 450 0
4021 3064 0
-4811 -2633 0
-2575 -1212 0
-4415 -4687 0
-164 -1132 0
-2478 571 0
4188 -3365 0
4394 4578 0
354 -4417 0
3250 -3464 0
-4832 -4160 0
-431 4128 0
-3218 1022 0
-2294 -4469 0
3893 -3575 0
1928 -679 0
-274 1873 0
-558 1661 0
706 32 0
-3427 1568 0
-4497 -2167 0
1140 -4929 0
3884 4653 0
-2823 -1677 0
1285 570 0
-2015 2832 0
4903 -3371 0
4685 951 0
-417 -664 0
4543 1242 0
2763 2376 0
-4755 2276 0
1145 -426 0
-698 2721 0
3616 2830 0
-727 -2955 0
4400 3077 0
-1859 2646 0
1954 -2549 0
3929 4477 0
-921 3360 0
2621 -821 0
2997 -2981 0
2479 2272 0
1571 374 0
-4341 755 0
2915 -4033 0
-1940 1045 0
489 3861 0
336 -4311 0
53 1120 0
-3064 2397 0
-1154 3770 0
769 -1416 0
-2573 -4361 0
-3635 -3212 0
-3556 864 0
973 2970 0
-567 -3971 0
3398 4313 0
1489 -3273 0
245 -1727 0
2421 2358 0
3096 -4801 0
2562 4940 0
905 2669 0
-242 -2627 0
1680 -1955 0
1364 1894 0
4314 -950 0
4641 4425 0
-3823 4671 0
-1196 -3960 0
3079 161 0
3860 -3048 0
-2971 4705 0
-2197 -4308 0
-611 -4439 0
3214 4002 0
3785 1370 0
-1532 -611 0
841 -3613 0
-3024 1131 0
-181 3502 0
-1343 -4005 0
4378 4915 0
3825 1508 0
-2062 -1904 0
-1763 3400 0
690 3174 0
-4565 -2913 0
-1006 -164 0
1154 -3085 0
3147 -3891 0
2433 1180 0
3137 1264 0
1336 4819 0
-825 -2947 0
541 -4308 0
-1997 -1020 0
-4571 -3019 0
-3243 2442 0
-3554 -4695 0
4986 -3653 0
1229 -2060 0
-2573 -192 0
1636 -22 0
149 -1771 0
-2340 4230 0
4331 -96 0
-3678 -3436 0
1995 160 0
632 3472 0
-2053 -45 0
-3190 -3821 0
2569 -2053 0
-2636 632 0
-3629 -1948 0
-1221 1530 0
-394 -125 0
-1116 -2323 0
-2834 693 0
136 219 0
-1382 2914 0
-4520 -3635 0
3552 1350 0
4813 2871 0
1438 -708 0
4920 1495 0
4628 2654 0
-3366 -2505 0
-4292 -746 0
-70 -1895 0
-1865 -2032 0
-270 -3473 0
4113 4298 0
-4675 -3781 0
-498 -3960 0
594 -2447 0
-2451 359 0
2579 -1679 0
95 2353 0
1729 4243 0
1440 4986 0
-3943 4431 0
686 -557 0
4381 2822 0
-4763 4479 0
644 2733 0
-1415 1571 0
2385 1229 0
-120 2404 0
2123 779 0
-2209 -1478 0
3715 -2507 0
-3136 2564 0
15 -1412 0
2644 4999 0
-4907 2353 0
1995 1751 0
-4747 -1606 0
-4332 1964 0
3633 1142 0
3381 -3888 0
-3925 1357 0
-3463 4731 0
939 1163 0
-2362 190 0
1386 -3205 0
-4499 -3316 0
-886 4958 0
-3075 571 0
-2802 469 0
4706 -1181 0
4710 -3348 0
-3442 -4988 0
-2987 137 0
-3879 225 0
1621 2764 0
881 -1406 0
-1593 -419 0
-767 339 0
-3016 2282 0
1821 -3440 0
2454 -2185 0
2979 878 0
897 3899 0
-4596 1624 0
654 -3385 0
-1492 2345 0
-2966 -3204 0
-2654 2997 0
-2747 1596 0
2166 -4363 0
844 -4984 0
1181 3531 0
-645 2583 0
2584 -2203 0
3873 -2596 0
-4788 2960 0
-4001 3897 0
170 -2558 0
3618 1657 0
-1969 -4913 0
479 2496 0
4706 -2563 0
-411 -4711 0
1998 -835 0
39 3833 0
1815 2902 0
-4253 4531 0
-3906 4380 0
-3073 -337 0
-1899 -2647 0
-4494 -2090 0
3059 -2427 0
-3011 -4701 0
-1006 2171 0
-2739 2364 0
-569 4471 0
4383 2187 0
4972 -4627 0
-1205 3421 0
-2493 1256 0
-2647 -4353 0
871 -34 0
-4564 3450 0
4014 -27 0
3896 -4589 0
3155 -830 0
1996 924 0
-4934 1542 0
-678 3579 0
-1646 859 0
3534 -2757 0
-1917 1660 0
-2070 -2292 0
-543 -659 0
-1774 -526 0
3258 -4601 0
-478 -2504 0
594 -112 0
-4542 -3880 0
1126 -2151 0
-1404 -108 0
-308 -2041 0
-2186 -188 0
-1838 4055 0
-2872 2814 0
4007 -2307 0
3559 -2533 0
4358 95 0
-2138 -435 0
1116 -2712 0
-3722 351 0
2065 -1127 0
-336 -4868 0
4031 2290 0
-2107 -3051 0
-19 3973 0
3280 -4641 0
-3622 -3040 0
-3253 1300 0
-2577 -1580 0
-1291 3110 0
3016 -1594 0
2022 4489 0
1094 3057 0
-1817 -2929 0
2323 673 0
-4795 1819 0
4316 -388 0
2809 -660 0
4366 -2315 0
4229 4893 0
1270 -1937 0
3938 -1290 0
-4662 2817 0
3049 -2776 0
-3093 3211 0
4923 3018 0
1432 1622 0
768 -3756 0
-4454 3391 0
2055 -1410 0
1363 2086 0
-3061 -2728 0
3106 4437 0
873 1089 0
-1362 2721 0
3674 -2163 0
-601 1376 0
3256 -4518 0
-2040 570 0
-314 1374 0
4718 1091 0
-1181 -687 0
-2366 4077 0
2681 4904 0
4420 3318 0
-3563 -36 0
-2572 4639 0
-4577 -2717 0
-3248 2370 0
4055 1862 0
2932 2164 0
-2956 -1222 0
3628 526 0
-2826 -1471 0
-2113 1310 0
880 1395 0
443 -2861 0
2840 -2789 0
-1335 4927 0
-4878 -3686 0
1991 -712 0
-871 -1138 0
3869 -2898 0
490 1582 0
-4718 -4126 0
4214 -1394 0
-3277 642 0
1144 3548 0
4213 -2479 0
3289 3286 0
571 3972 0
-2987 -1015 0
-3721 4224 0
2260 812 0
-4590 -2002 0
1083 -3251 0
-174 -3248 0
-1181 794 0
-4088 -3681 0
3182 -46 0
2013 4665 0
-399 -390 0
-1774 2277 0
750 -85 0
-3790 463 0
2457 3609 0
-2201 -533 0
3921 3513 0
850 -2153 0
-3398 2553 0
3162 3478 0
-3690 3961 0
1904 -4948 0
1828 -1551 0
4084 -3869 0
-498 -3646 0
-4071 -1454 0
-2727 4916 0
2704 -1335 0
-777 1271 0
2194 -486 0
-4511 1865 0
-906 -2201 0
-3943 481 0
-583 4118 0
-4815 -324 0
-792 -2116 0
-1332 2791 0
226 2940 0
-2736 368 0
2437 1998 0
-2801 1947 0
3117 643 0
-4022 -181 0
-4025 2124 0
2681 4092 0
-3482 -2205 0
59 3270 0
-2477 -29 0
384 -4280 0
4351 1926 0
202 -4546 0
336 -1223 0
-2156 1120 0
3169 4209 0
994 4049 0
1875 -1667 0
3411 -4055 0
-1155 3706 0
418 2648 0
2045 4653 0
946 1162 0
3241 861 0
-4317 -4281 0
-2691 4 0
2989 2719 0
3938 -2904 0
-152 -866 0
1624 -4106 0
2197 1472 0
3287 1338 0
1641 458 0
-1915 2367 0
-2921 -2343 0
2880 4739 0
3225 1422 0
-1246 4074 0
-4594 -1232 0
-566 -4903 0
3907 1616 0
279 3236 0
1399 1308 0
1676 -4104 0
-3232 -3859 0
-1704 3383 0
-187 3305 0
-1286 -665 0
-4357 -274 0
-4579 3769 0
-436 2759 0
4963 4077 0
1012 -2210 0
-4521 4898 0
-825 -1049 0
-964 -3487 0
-180 -4258 0
3087 -4849 0
3348 2502 0
598 -65 0
2205 -4203 0
-2353 -48 0
516 -476 0
375 4760 0
1699 38 0
-925 676 0
3010 2328 0
4446 4144 0
1568 -2736 0
4914 4959 0
-819 -1486 0
-4465 783 0
-1329 3278 0
-2028 531 0
-3431 3607 0
521 -2840 0
-1595 1480 0
-2274 -3383 0
-385 -3241 0
1418 -3862 0
3392 810 0
-4838 -2727 0
1280 -501 0
-453 574 0
-497 3218 0
2608 -4963 0
2517 793 0
3657 -4942 0
-756 1867 0
427 -687 0
3687 -281 0
-4244 -3661 0
1618 -1371 0
-4624 -4941 0
-2186 -1757 0
1875 3805 0
1149 1854 0
-3033 -359 0
336 -3560 0
1184 1545 0
-1846 3506 0
3491 -3226 0
-2880 2215 0
-1067 1073 0
3375 -808 0
4722 -337 0
-168 -2931 0
4080 2918 0
3169 2061 0
365 4890 0
-2125 -1040 0
-4503 1707 0
1802 1850 0
2723 -100 0
3797 2778 0
-4005 -4560 0
1451 1824 0
-2626 -2140 0
2277 -4478 0
-3769 -4473 0
3128 -2476 0
-1194 2147 0
-1091 3598 0
-3324 -3698 0
-2731 -1958 0
851 644 0
-4188 -714 0
-4182 1825 0
4184 -4707 0
1791 4131 0
4653 -2617 0
3515 -2572 0
-1603 4734 0
2345 -2492 0
3332 1337 0
-3593 2027 0
365 1271 0
835 -1650 0
4580 4659 0
854 1624 0
4949 1991 0
4830 -1959 0
4244 -1 0
-4054 2647 0
-4947 -4696 0
-1816 2113 0
3381 -1127 0
-3904 841 0
4088 3971 0
2574 -2652 0
-3484 1444 0
791 -2531 0
2257 -3425 0
1493 -1636 0
2457 -4964 0
3365 2892 0
3798 -3799 0
4824 427 0
-769 247 0
3189 2453 0
-3901 -3671 0
3150 3419 0
3360 1229 0
4366 169 0
-1837 -4579 0
-1617 1541 0
-62 3810 0
-884 -4917 0
106 -2205 0
1534 819 0
2571 3227 0
-3043 -4431 0
-755 640 0
3678 -442 0
-2658 4067 0
2537 3356 0
423 -4895 0
-4134 728 0
1898 -3227 0
3475 402 0
2891 3480 0
-509 1054 0
-1413 3251 0
4525 3460 0
-3703 -436 0
-4069 923 0
4495 -111 0
-662 -3275 0
4749 -6 0
3382 4309 0
1046 -4274 0
3570 -4476 0
-2597 -4337 0
-4714 67 0
1444 -367 0
4169 3284 0
-1790 -4438 0
-4777 -2743 0
-3038 3997 0
4908 2230 0
1708 -1577 0
2687 1878 0
4216 -267 0
1579 2126 0
-4364 -24 0
-4648 1638 0
-4913 4494 0
-2601 -4793 0
-2034 4596 0
-2221 -2398 0
1623 37 0
-3844 113 0
4817 3967 0
2260 -4443 0
-3387 4381 0
-1801 -3085 0
345 -4236 0
-1983 4024 0
1301 145 0
-1691 -3869 0
-1151 2019 0
-626 -683 0
-4324 3194 0
1492 4785 0
4074 2837 0
2698 480 0
-2086 263 0
4115 -1899 0
-2516 -3083 0
-426 1768 0
1670 2438 0
4660 -1547 0
3807 -556 0
3984 -4045 0
-2784 268 0
-797 -3199 0
-1824 -1740 0
-2819 3128 0
2212 -1385 0
4605 -316 0
-4367 -4121 0
1782 -4221 0
4250 3934 0
357 -4441 0
3091 -3599 0
223 2091 0
3332 982 0
1541 -782 0
-1188 726 0
-2729 4768 0
2472 -560 0
-3687 844 0
-2068 -2897 0
2022 -2534 0
3482 3223 0
1938 2320 0
2966 1430 0
4522 -2277 0
4680 353 0
2498 -2915 0
2147 4871 0
3651 -1877 0
-4694 1618 0
1422 1527 0
-3461 -1597 0
-4001 -3107 0
364 -2227 0
-1444 4885 0
-823 -758 0
-5000 2136 0
1430 -3949 0
3720 2611 0
3850 -4928 0
1544 2736 0
1012 3574 0
-2947 -4217 0
-1148 -3214 0
4631 1197 0
275 998 0
-2526 -885 0
-690 4642 0
1489 -4223 0
-4878 -152 0
2649 338 0
4763 -1551 0
3924 3192 0
-3137 -1250 0
2550 -3212 0
4079 -2546 0
1492 225 0
-507 1862 0
2474 -3033 0
-4562 -545 0
-2415 3463 0
2218 -4025 0
2146 2115 0
-4959 -462 0
4237 4521 0
-2983 -574 0
504 4446 0
1322 -3803 0
-1619 3906 0
4819 -528 0
-3516 -80 0
4141 -1618 0
2650 -3105 0
3218 -2342 0
-3444 -645 0
-1634 -544 0
-3451 2906 0
716 -721 0
352 -1470 0
781 3270 0
-1227 723 0
1527 -1622 0
-3089 935 0
2130 4907 0
2178 -2064 0
805 4918 0
284 3205 0
2649 1851 0
4091 2678 0
-4550 -3297 0
-4745 -1057 0
3176 -2535 0
2347 1282 0
-4709 -1046 0
1976 -4128 0
-772 4416 0
-2589 -1033 0
1657 -4178 0
-667 -3743 0
-2368 -393 0
2037 3597 0
3237 -3641 0
4731 -2630 0
-968 509 0
-469 -3143 0
3608 4309 0
1888 -1726 0
-3479 1213 0
3062 2251 0
-1011 133 0
514 -1729 0
-3654 -441 0
-251 -749 0
-4200 2196 0
-4609 -1166 0
-3918 2368 0
4430 -1596 0
-4188 3696 0
4965 -1366 0
-4808 -2079 0
618 2324 0
-2621 1770 0
4673 2809 0
-3471 4348 0
-3737 -304 0
-3921 -1659 0
-241 -1538 0
-1419 -4203 0
4537 3353 0
-2081 3929 0
-1176 -3727 0
1236 1854 0
-3192 862 0
3206 -757 0
-3889 3238 0
-4340 3705 0
2278 -830 0
-500 -3757 0
2386 -14 0
816 -4751 0
-3799 2520 0
-286 -348 0
-2715 275 0
97 2177 0
-1306 -3877 0
477 3901 0
-1775 3754 0
-4508 2552 0
4979 1529 0
-3311 -1342 0
-1709 -1569 0
-1258 1748 0
-4440 -3930 0
1786 -2808 0
-291 3820 0
195 -79 0
-625 -609 0
-2602 -235 0
1899 584 0
4350 3944 0
1579 472 0
-2296 169 0
-3945 -4261 0
3199 -2585 0
1288 -899 0
2461 2662 0
-2628 1131 0
-4202 -4430 0
2724 -4577 0
2816 1428 0
-1437 1867 0
-322 1831 0
-1889 -533 0
-809 -2625 0
2093 533 0
1407 1008 0
3208 3622 0
4421 2563 0
2132 -3492 0
-2839 1703 0
4164 -2841 0
2145 1367 0
2594 -2196 0
-83 3664 0
4004 -4241 0
209 -2337 0
4972 -4402 0
-3942 4677 0
4348 -2633 0
-1429 4359 0
2222 -1313 0
-864 4912 0
4108 4631 0
3602 -2161 0
-702 2738 0
-4574 -4167 0
-2766 -4990 0
2036 4508 0
-2613 4611 0
1912 4066 0
3280 -70 0
3585 -989 0
-2180 -3477 0
-1140 -2545 0
-1070 -2708 0
-4506 4921 0
-165 3319 0
-3666 -1735 0
683 -3059 0
1300 3234 0
-432 -2074 0
-168 -275 0
3796 3558 0
128 2471 0
912 4595 0
-3285 822 0
-2712 3150 0
1391 3706 0
3516 1945 0
656 -2243 0
-3905 -250 0
3238 -1823 0
3220 -960 0
3075 2821 0
1277 -2555 0
2428 1205 0
2258 -221 0
4596 3069 0
1616 984 0
-1450 -1142 0
-2392 -3638 0
-1505 -4236 0
-1414 -2328 0
-2233 266 0
-2109 2413 0
4109 1802 0
-1580 -1974 0
-3625 3874 0
2534 2393 0
4295 3694 0
-2125 -3648 0
4912 -1209 0
-4311 -3902 0
1800 2883 0
-1426 734 0
2622 2241 0
2444 1878 0
1874 -4863 0
-4061 -2351 0
-3894 -1920 0
-1560 -1505 0
3615 4038 0
3993 -4085 0
2453 -3659 0
-454 4517 0
3973 3020 0
-4840 -882 0
2928 -2923 0
4377 403 0
4829 -1375 0
4210 2390 0
2049 -4352 0
3758 1226 0
-4181 4791 0
-2618 -3839 0
-34 -1225 0
4946 -4194 0
-1205 -3624 0
-1749 -4079 0
-403 4020 0
-4091 -2213 0
2695 -4656 0
-3541 2595 0
-2941 1042 0
185 3627 0
2043 519 0
-4627 2383 0
-3611 -3940 0
-3722 -2993 0
4349 695 0
-1253 2954 0
375 2788 0
-3028 4062 0
-4681 -4737 0
-2046 121 0
-35 3944 0
-3227 405 0
-3499 -4810 0
-3911 -4444 0
2817 3467 0
3745 1054 0
3580 2920 0
-1266 1050 0
1468 -2494 0
438 -1955 0
-410 1310 0
2897 3246 0
248 3956 0
4104 -177 0
-4466 -3094 0
751 -4732 0
-4941 1031 0
-71 -4738 0
3571 1194 0
-1715 2136 0
1916 -4907 0
1544 -3507 0
554 4459 0
1403 1751 0
3617 1839 0
-2175 -1327 0
-12 3465 0
-2586 2537 0
-3083 2416 0
2347 1271 0
4383 -1848 0
1184 3936 0
1115 -3308 0
505 -3074 0
1886 3225 0
-842 2465 0
-4446 -3932 0
-4105 4024 0
804 216 0
-1405 -1843 0
-1299 -512 0
3913 -4178 0
3925 -2762 0
2248 364 0
4852 -1059 0
909 1660 0
1666 -3428 0
4613 -545 0
-3629 903 0
1938 1748 0
2290 -2541 0
3029 -4574 0
31 3540 0
-2288 -4057 0
-2228 -1546 0
-2613 -4172 0
1854 257 0
2632 -780 0
-1630 268 0
-997 3506 0
-3522 1961 0
-2847 1450 0
-2406 -2200 0
4177 1919 0
3023 3400 0
-1025 4220 0
-2204 285 0
-540 -3673 0
-3979 2174 0
-4493 -551 0
-2604 734 0
641 2956 0
3172 3286 0
4872 -4541 0
-3864 -1225 0
1572 2750 0
3398 -3727 0
4506 -3885 0
625 933 0
-1719 -2591 0
2654 -587 0
795 -846 0
-1645 -1006 0
4379 4333 0
2295 4446 0
3062 3149 0
-3572 4044 0
4466 -1924 0
-2674 -4844 0
-218 -1891 0
3706 4264 0
2953 4584 0
-4804 -3938 0
-2462 -3233 0
-4011 -2746 0
2923 -3628 0
-2032 4003 0
-38 -4544 0
4496 -1422 0
2567 -4829 0
-2229 4096 0
1379 502 0
-4536 -525 0
3143 -3614 0
4014 3755 0
-108 -306 0
4641 -1181 0
1593 -4291 0
1041 2700 0
-1010 160 0
-4651 -4091 0
-1634 296 0
1575 1641 0
-2826 -403 0
2867 3974 0
-3673 -2960 0
3926 4086 0
-3345 3939 0
3457 -1389 0
4684 -1389 0
3021 3950 0
-2960 -3843 0
1915 4740 0
-4885 4132 0
-932 3158 0
3260 3298 0
4484 -4417 0
2905 -2898 0
2733 3788 0
4550 4404 0
3443 553 0
1439 4240 0
736 3810 0
-3892 2472 0
-337 1173 0
-1962 -4920 0
1586 460 0
3158 -3468 0
2436 4137 0
-2863 -4681 0
-2819 323 0
-754 -535 0
453 3424 0
4603 1155 0
1674 -3585 0
-3875 -1248 0
3287 2278 0
-4439 -136 0
-1253 -1453 0
-2607 1838 0
-3275 4445 0
-1409 -3046 0
96 821 0
377 -996 0
-1884 -1720 0
-2775 -2402 0
873 -664 0
4996 -2797 0
4226 4458 0
-1355 -1753 0
3108 -430 0
1160 3954 0
-80 2980 0
-1481 4072 0
-1132 -3931 0
-4259 -3454 0
-1064 421 0
-2676 1715 0
4832 654 0
-4871 1460 0
-1984 4027 0
4148 4222 0
1862 -1358 0
-1165 -2661 0
-1858 4814 0
2436 2649 0
-2823 -303 0
3617 1839 0
4002 2900 0
1350 -2217 0
1137 -2561 0
-4730 -2387 0
2563 -4931 0
1341 -3511 0
2333 -3105 0
-437 -1248 0
-1043 156 0
4824 -3871 0
-4123 200 0
1903 3829 0
-45 -1352 0
212 3378 0
-337 -2737 0
-50 -160 0
3695 -2579 0
929 -1299 0
-4901 685 0
2052 2611 0
-4258 -936 0
-2505 4410 0
-859 -759 0
1332 -4811 0
1100 -2965 0
1840 -4546 0
432 -4598 0
-3240 1635 0
-2377 4974 0
-776 4421 0
649 4421 0
578 -4073 0
-97 -398 0
-1879 -3130 0
-1182 -3807 0
2441 -1725 0
-4081 2755 0
-3700 1542 0
-2806 -107 0
2710 4263 0
4777 4481 0
-808 -2997 0
4809 -4873 0
-2541 4858 0
2795 -2124 0
1242 -2753 0
4041 -4733 0
40 -1857 0
1078 2623 0
2830 -4640 0
2311 -4236 0
484 691 0
2331 3370 0
580 -333 0
-3635 471 0
1409 3929 0
-1574 -4967 0
4462 -1244 0
-1756 4797 0
3418 -3394 0
3955 -4023 0
1513 -1024 0
-3581 -4553 0
-3717 60 0
-5000 1334 0
2619 -1279 0
1359 -3494 0
4784 2825 0
-4575 2384 0
452 -2507 0
3374 4007 0
4366 -3647 0
-1003 -4293 0
-4114 1932 0
-2692 3240 0
-2319 905 0
-3802 -3368 0
155 -4041 0
353 -719 0
-3665 2143 0
-4142 -3840 0
3715 1698 0
-1221 1528 0
2117 -1349 0
4965 -1712 0
4938 464 0
894 3468 0
4081 3936 0
-3183 3751 0
4529 4821 0
-2247 -1051 0
1998 4056 0
255 -4617 0
3481 2084 0
-4709 2832 0
-1567 123 0
-556 -4000 0
-4080 4317 0
-4715 -1935 0
4951 -4376 0
-4732 -3075 0
-612 -4941 0
4781 629 0
1399 -3055 0
2401 -1709 0
992 4469 0
3686 -4959 0
-2548 1849 0
2333 -3659 0
-39 662 0
2137 1456 0
-3628 2713 0
3605 -2819 0
-3923 -1287 0
4806 1386 0
-565 -613 0
742 -2226 0
4279 -1635 0
-1086 -590 0
-2732 4332 0
-4765 1818 0
-18 -1393 0
-3853 -68 0
3235 2865 0
4475 3063 0
2140 -975 0
-3250 2215 0
4593 2590 0
1106 -4794 0
-675 2750 0
-1080 -4135 0
-1352 4033 0
9 -3276 0
2621 4468 0
1697 2480 0
3945 -2209 0
3882 -4076 0
-4291 -3650 0
1927 3758 0
-1536 3568 0
2097 -1950 0
1452 1381 0
3332 -2718 0
-1357 4334 0
4796 -2667 0
895 636 0
3667 4809 0
1519 -2164 0
-3596 -785 0
-3995 -815 0
201 862 0
3039 4186 0
-3652 2565 0
2173 -2201 0
2094 4195 0
-1912 -2778 0
2933 1004 0
33 -876 0
-603 3082 0
1407 3708 0
2619 3172 0
3163 -1989 0
1671 -3357 0
-3940 919 0
-2346 -4512 0
-350 -318 0
-3481 2314 0
4560 1935 0
2837 -4724 0
-3240 1637 0
520 -2679 0
320 -3982 0
-886 -1840 0
-2236 -1537 0
3794 80 0
-4875 4944 0
1742 3145 0
-2686 3981 0
2348 -3764 0
2113 1316 0
-2082 3583 0
-4888 104 0
-4715 -4272 0
2271 -3961 0
4062 2506 0
-1340 463 0
-3008 2878 0
197 -2965 0
1529 3224 0
4689 -2305 0
3674 -4161 0
4979 2369 0
-18 -1978 0
2959 2958 0
1087 1316 0
-4954 -553 0
-2486 -970 0
1505 -1033 0
-1893 2284 0
3847 -3032 0
4831 1458 0
2050 596 0
3550 -4518 0
3967 -2014 0
-3733 -3997 0
-4407 4098 0
375 -4586 0
2011 3596 0
-4146 -37 0
-2228 635 0
2225 637 0
1019 3194 0
3078 2441 0
2355 -4004 0
-490 -76 0
1706 -2334 0
1934 -2197 0
-2030 -1282 0
-1721 2691 0
2496 -1323 0
-3579 2973 0
-4788 3471 0
2146 1424 0
493 -3647 0
719 -2299 0
-1293 405 0
-1794 2767 0
4432 -4452 0
-2955 -2747 0
3913 -370 0
2278 -909 0
822 4987 0
-944 1614 0
1039 -2433 0
-855 1568 0
1213 -2191 0
683 1740 0
2404 1176 0
-4665 1539 0
1008 -1848 0
-4163 3572 0
2214 1376 0
-2429 1892 0
-2870 -1883 0
-3539 2377 0
4738 2989 0
-4280 1293 0
955 -3073 0
-1021 4925 0
-4163 3823 0
2027 -1688 0
-1784 2266 0
1624 -3603 0
2687 -555 0
2673 1512 0
4484 -2440 0
-1962 2702 0
1972 863 0
-1293 3184 0
-1242 3943 0
2084 3838 0
-348 -2085 0
-4692 4300 0
3736 3811 0
1253 -2045 0
-4413 -1122 0
936 -4049 0
-4464 3432 0
4445 3524 0
-4497 1997 0
1059 3797 0
-2434 668 0
1166 1183 0
-403 4536 0
4675 -4846 0
1334 -2729 0
2538 3375 0
-876 -3136 0
3342 4013 0
-848 -4055 0
1709 1018 0
-3116 -118 0
4989 1990 0
-4241 -476 0
1432 -4047 0
3159 947 0
-1158 1300 0
-4843 -4857 0
-4926 -4143 0
-1726 1862 0
3689 -1710 0
4582 1069 0
2988 -1702 0
-1391 2512 0
3207 268 0
-1553 1162 0
-3984 2305 0
4847 -3777 0
1588 549 0
-3454 -705 0
-3195 -4404 0
-3278 4356 0
4057 2217 0
346 4888 0
4579 3616 0
22 -3451 0
-14 3189 0
-474 -4267 0
-711 -4492 0
3497 -2998 0
1120 2276 0
-357 2107 0
-1195 4463 0
3752 -322 0
3250 929 0
1964 2737 0
-960 4747 0
482 -2583 0
1372 -3680 0
3482 -2806 0
-1716 1023 0
4494 -1608 0
-2106 1910 0
3735 -2274 0
-4939 -2047 0
-2948 -2132 0
-759 -757 0
-1441 -2621 0
4397 -3098 0
-721 4186 0
-1948 637 0
-3574 -3759 0
3569 2655 0
-3356 2939 0
-4863 136 0
-1079 -672 0
845 -4551 0
-3168 3519 0
-4683 2072 0
1518 3855 0
-4343 2249 0
306 685 0
946 -2613 0
-458 -1705 0
996 -4063 0
-3854 510 0
2534 -4841 0
-3775 -105 0
-818 -374 0
3198 -650 0
1570 -813 0
-3367 -3237 0
3406 2037 0
-1903 4889 0
1276 728 0
-4744 -1265 0
2504 -650 0
-2388 -1796 0
-2450 -4594 0
-3968 3112 0
1285 -2709 0
1343 673 0
462 2369 0
3020 -1934 0
-1353 -4312 0
4525 2704 0
-4369 2471 0
-2003 1719 0
827 2745 0
-1537 -1809 0
4149 4144 0
-1535 -2815 0
950 564 0
3332 -2617 0
4867 -4992 0
-369 4758 0
3235 -1793 0
-4586 -1845 0
-3931 2514 0
3235 835 0
-3361 4388 0
1805 3362 0
-643 -4887 0
3417 518 0
-3821 -1709 0
-4205 2393 0
-1775 2159 0
-4543 966 0
-1574 4250 0
235 -3495 0
3037 -448 0
4455 3652 0
2630 -1295 0
3685 3189 0
-1496 -695 0
3694 1616 0
1162 958 0
3345 -702 0
4640 1065 0
-2817 -171 0
-2824 4699 0
4091 3747 0
-1063 -4774 0
-1422 1693 0
1800 -1715 0
-2865 2188 0
-4641 -1680 0
-3494 3023 0
-700 -2752 0
4466 4198 0
-3778 -1850 0
2855 -1088 0
3235 -3330 0
740 267 0
4266 -3070 0
-254 1821 0
3598 -4462 0
394 1559 0
-4798 1651 0
-4804 -2541 0
3621 -1797 0
-2876 1423 0
2396 -3944 0
-1554 1786 0
872 -2781 0
1194 4314 0
-1218 -2443 0
-2555 -325 0
-1960 2781 0
1817 1428 0
-511 4825 0
4570 -2890 0
-1952 -1892 0
3378 2026 0
-488 4911 0
566 -1564 0
967 4107 0
2892 -4887 0
-4244 1335 0
-724 3646 0
-3269 -4949 0
4350 -1358 0
455 4531 0
3592 -1575 0
3381 4261 0
-925 3814 0
4119 -3047 0
-3360 -390 0
4505 -401 0
-3854 4643 0
75 89 0
3268 -1323 0
2638 4101 0
-4028 -52 0
3792 -2382 0
981 -356 0
4057 -1284 0
3926 3600 0
-2621 -4995 0
-4354 -2491 0
4151 -3703 0
986 -2141 0
3068 -1522 0
-493 523 0
2440 -588 0
1675 3570 0
-4021 2907 0
117 291 0
1546 -4262 0
2150 4831 0
4572 807 0
4802 -2595 0
2671 -520 0
889 4965 0
-4365 -3957 0
4193 -2088 0
-2394 -1440 0
2348 4752 0
2938 3461 0
717 -4232 0
-1518 4826 0
407 3174 0
2357 -4185 0
1336 -4941 0
1458 2087 0
1292 878 0
4618 3780 0
-3995 -3316 0
2550 -963 0
-63 4850 0
4766 1138 0
3607 -3782 0
-1727 -2220 0
4440 3419 0
-797 4429 0
-329 -3603 0
-4562 4658 0
-264 1922 0
9 1145 0
4732 -4902 0
-110 -1692 0
3571 4159 0
-1733 -3778 0
2416 -3509 0
2031 3174 0
534 4909 0
-4158 -21 0
-3075 -3760 0
-1186 4225 0
2537 -1016 0
-705 3429 0
-1175 1211 0
4104 1734 0
3141 -1497 0
2843 -2567 0
721 986 0
3934 1109 0
-2371 1915 0
3947 840 0
1286 881 0
-1846 2669 0
-3831 4616 0
4234 -2548 0
-3933 4156 0
1326 -919 0
-1221 -3097 0
-4492 -1688 0
-1097 -4819 0
-1385 -1271 0
2501 -448 0
-1143 -3574 0
1363 -3756 0
-1747 2224 0
601 -3505 0
1623 -321 0
163 -4444 0
2546 -2238 0
-1080 -397 0
2716 -160 0
1203 1902 0
-3824 3868 0
-3901 2499 0
-3125 1940 0
-4166 2065 0
-3643 2329 0
4442 996 0
-1931 211 0
-455 419 0
-4170 3394 0
-3437 850 0
1460 -1139 0
-2840 -2260 0
-4246 4136 0
3259 4298 0
1477 1957 0
2364 -4556 0
-4929 4602 0
-3609 -3665 0
1953 -3477 0
4717 4259 0
-1325 -4814 0
-4085 2702 0
1586 3543 0
-4485 4153 0
-399 3660 0
-4135 856 0
-3434 3470 0
3688 -1450 0
4636 -1233 0
-1727 -268 0
-4496 -549 0
2897 -3213 0
-4146 -1846 0
-84 1942 0
-1906 -1958 0
-3432 -4475 0
3295 -112 0
-1813 -2884 0
-503 -962 0
1916 1019 0
3664 3298 0
-912 3607 0
2924 -4277 0
4856 -2779 0
4850 3161 0
-3306 -3803 0
-4059 -3448 0
-4275 92 0
2519 4412 0
-1224 3078 0
1221 2318 0
-3714 -939 0
-2583 -4669 0
-4357 2719 0
-1989 -4254 0
2602 -3390 0
1864 2938 0
-1244 144 0
-434 2912 0
2868 -2546 0
4187 993 0
-670 -1973 0
410 3955 0
1911 1986 0
-1337 -2130 0
4870 1537 0
3199 -2420 0
4671 213 0
1367 1236 0
-2365 3080 0
-3244 301 0
-4310 -3186 0
3075 3147 0
1321 4585 0
3847 2868 0
-2831 -4326 0
4595 3262 0
-2605 -2709 0
-1623 477 0
-3159 1178 0
1067 1711 0
2989 2080 0
-4774 3607 0
4212 3645 0
2519 2017 0
-2756 3059 0
-3435 3682 0
-2155 -4895 0
443 -3098 0
3592 -1648 0
-1721 4566 0
1685 4437 0
1929 4420 0
180 3732 0
-4135 76 0
-1398 2454 0
3557 -4929 0
-2705 -2438 0
3270 -1567 0
483 -568 0
-4168 2357 0
928 -3930 0
2371 -3671 0
-1055 2655 0
3025 1335 0
484 -1872 0
-1214 676 0
-541 -322 0
3462 -1142 0
-3895 -35 0
4498 3382 0
728 -2158 0
4652 -2106 0
2803 -207 0
4818 -575 0
4858 473 0
-1168 3016 0
-3081 -893 0
4875 3517 0
-3062 4925 0
941 4839 0
793 -2813 0
-380 978 0
4359 1476 0
-983 -3972 0
-3987 -1606 0
2485 3472 0
467 891 0
2016 1184 0
-3813 -1799 0
-2335 2918 0
2530 2563 0
355 1876 0
3750 2623 0
-2514 3378 0
2885 -4701 0
4568 4783 0
4193 2762 0
-2708 4099 0
1233 -4476 0
-3848 -1069 0
552 -2414 0
-498 1478 0
-3006 -3213 0
781 1937 0
-3289 -4265 0
-1992 -4221 0
-2895 3788 0
-4541 -1052 0
2393 -1360 0
4976 -3940 0
17 1612 0
-4173 -2017 0
-3311 -4717 0
-1315 -108 0
2106 207 0
475 -1448 0
4010 -4835 0
2174 3477 0
2836 -2739 0
-946 -772 0
-2652 -4761 0
1996 2430 0
-1069 3773 0
459 -4347 0
3358 827 0
4568 -3335 0
1558 -919 0
-1633 -3440 0
-4252 -3919 0
2005 1354 0
4999 -3205 0
-1996 1090 0
4847 -742 0
-2739 1560 0
4191 1912 0
1562 -2269 0
-596 351 0
-2169 -473 0
-4697 2527 0
-2006 2065 0
-1024 3865 0
4099 2112 0
3965 2839 0
-3263 2908 0
-630 3896 0
-2102 4839 0
-1733 154 0
1283 2593 0
-834 -2696 0
-3430 -3730 0
2621 3332 0
-2575 808 0
3282 -358 0
3799 3874 0
-837 -2841 0
2055 -4031 0
2839 3951 0
1160 -4004 0
3299 1290 0
-170 -818 0
-906 4570 0
1332 2111 0
1828 -2962 0
-1497 -2514 0
-4030 1428 0
-2571 3261 0
-1248 4003 0
3595 2883 0
-1423 1464 0
1218 4016 0
-542 -1350 0
730 -165 0
-1315 2092 0
-4719 -593 0
-4854 -3159 0
3183 4845 0
-3489 -2452 0
-1308 -2203 0
-3957 658 0
-1830 3672 0
-3914 4168 0
1686 -262 0
-1512 -1784 0
937 -3046 0
-865 1410 0
-394 -2458 0
-192 826 0
4338 -643 0
-1077 3082 0
2696 3429 0
-4906 -1269 0
-3152 -4366 0
-3568 -2468 0
-3238 -808 0
-3757 -2340 0
-3727 -3809 0
2388 4650 0
-4518 -127 0
-3649 -4555 0
4994 -1014 0
2975 -1013 0
-1415 -2869 0
2955 2967 0
1202 1431 0
2547 542 0
3810 1361 0
182 -2963 0
1550 2136 0
985 4007 0
248 1816 0
-2101 4635 0
1150 1710 0
4265 2279 0
991 3334 0
4685 -4811 0
216 605 0
1711 -1956 0
2671 3377 0
2580 -539 0
-3615 1310 0
1872 3557 0
-4255 -4397 0
1843 320 0
1692 -2828 0
4685 -4876 0
4023 -1191 0
3983 -3837 0
-4737 2360 0
3363 -3001 0
-977 -537 0
-760 2158 0
-1843 3845 0
4333 881 0
-203 2842 0
4107 4916 0
2944 4531 0
-1416 2996 0
2830 953 0
1426 -1170 0
-4830 2829 0
3088 -3590 0
-271 -4755 0
-10 3109 0
107 -3871 0
4129 760 0
2177 895 0
2471 -4324 0
-2125 -4292 0
-816 -374 0
3140 3127 0
-4577 -2482 0
-2758 1472 0
-2715 2111 0
397 4315 0
4842 -4804 0
-3006 4386 0
2186 -2856 0
2786 2711 0
4052 -1735 0
359 2970 0
-4566 -3237 0
-4154 3100 0
-4212 1355 0
-3335 4066 0
1465 4660 0
2797 -316 0
1889 -1630 0
-3078 1325 0
2146 2074 0
-3794 3400 0
1287 -264 0
-2665 -3256 0
240 -3812 0
-683 2582 0
4216 3726 0
-3923 1042 0
-4406 -2079 0
394 273 0
-1975 -3666 0
-3502 -4217 0
-4690 -925 0
307 -1510 0
3539 59 0
3780 -183 0
-3951 3887 0
-22 -4742 0
-4385 773 0
3211 -953 0
-4395 -806 0
4825 -4281 0
-2499 -407 0
267 1384 0
-22 -865 0
3597 -3090 0
-2266 4270 0
1840 -2521 0
-1333 -2186 0
4430 -4908 0
1303 -964 0
-4873 -1581 0
4696 -303 0
4069 -181 0
1039 -1526 0
-264 -2963 0
-2994 2498 0
-968 -4024 0
-2194 -3869 0
1687 4994 0
-1508 -1659 0
-3073 897 0
2538 4645 0
4732 1512 0
2324 -2400 0
-2843 1113 0
3937 -4943 0
1354 2962 0
4225 -1905 0
-3473 973 0
-2297 -4317 0
2013 2294 0
3405 2495 0
4919 101 0
4222 -2510 0
1711 2046 0
4969 4129 0
-4820 1516 0
3484 -3681 0
-3602 3087 0
3921 2593 0
-799 -2311 0
4220 319 0
-3071 4488 0
-2768 -4550 0
679 -47 0
-777 -3534 0
-3531 -2491 0
-3247 586 0
4334 -3367 0
487 -1760 0
-34 132 0
-4510 -3654 0
-2643 -1123 0
-1323 -478 0
-3614 -3287 0
-3163 -2761 0
-738 -1869 0
1588 1274 0
-3522 246 0
-3859 415 0
743 1011 0
-221 3982 0
-1284 -1658 0
-2121 -642 0
4719 -1783 0
2678 265 0
-1077 1487 0
-4755 -1754 0
4691 -3193 0
-1962 3833 0
-3993 1611 0
1361 2016 0
-3587 -3995 0
-1530 -1509 0
4455 -2464 0
-3900 -409 0
-1216 -1930 0
3109 829 0
1598 281 0
-2643 -3140 0
-4019 4717 0
3421 4194 0
2283 -3898 0
-2646 -209 0
3086 4718 0
65 -1274 0
2270 -1203 0
3927 821 0
-749 4105 0
219 1650 0
-4779 4082 0
-3723 2262 0
-1270 -300 0
-437 -4363 0
2024 -2096 0
-3850 4256 0
1685 2462 0
-699 -4684 0
4258 -3348 0
2307 2433 0
-1200 887 0
-2823 -658 0
814 3134 0
-3919 -4916 0
-4891 -2932 0
2458 2855 0
-2714 1418 0
-4284 92 0
2529 4828 0
-4735 4310 0
2910 -84 0
-3749 3562 0
-2078 3728 0
2132 4777 0
-2821 3029 0
3207 -1696 0
-2300 -4064 0
1139 2159 0
2864 4728 0
-2541 3732 0
4906 -1705 0
-1793 664 0
-4592 3234 0
-447 -3793 0
-2176 -1306 0
2801 -881 0
-1005 -2888 0
630 4821 0
3104 4577 0
-2254 2064 0
-908 -4592 0
-1548 -1089 0
4369 -1172 0
4622 246 0
-358 3514 0
-3157 2670 0
-2872 -2688 0
-2979 1615 0
2297 1624 0
-587 465 0
3619 -3387 0
1624 1670 0
2704 3417 0
-4878 2624 0
1458 3260 0
67 3922 0
-774 2460 0
-2290 4355 0
-2819 -2178 0
-1196 265 0
-3535 107 0
-609 -137 0
3936 -3321 0
145 1283 0
3356 -4775 0
4831 -892 0
-4117 2333 0
-3836 -983 0
-2635 3946 0
2328 -590 0
2794 -4733 0
-3494 -1453 0
-3977 -1396 0
-3624 -1868 0
1203 -4745 0
619 -1608 0
1503 -4461 0
-4246 973 0
3184 -3313 0
-4981 -1795 0
450 3725 0
-3063 -63 0
-784 -3023 0
-4863 1820 0
890 1796 0
-2338 3150 0
4970 3151 0
-83 650 0
-1798 692 0
1644 -3203 0
-3830 550 0
2960 2146 0
3086 4263 0
-35 144 0
1210 -1308 0
1440 -318 0
-4498 -4380 0
451 1254 0
-3075 -1524 0
-4854 315 0
-3131 -2736 0
3380 3884 0
-4274 -2905 0
903 2811 0
2049 -1179 0
3342 4841 0
4326 371 0
-4083 1421 0
-2309 -4765 0
-3494 -2697 0
-2407 -2858 0
-3683 2322 0
3423 -4724 0
3882 4577 0
-2187 -2386 0
-1971 626 0
1999 341 0
-4363 4866 0
3634 2143 0
2763 -3765 0
4081 1498 0
-1284 -3692 0
4916 -4851 0
1429 2416 0
-3229 792 0
2522 1910 0
4751 -1797 0
4062 -2773 0
3068 -1377 0
311 -3666 0
957 -4907 0
-2536 4096 0
1660 -4519 0
-2190 814 0
-4930 2065 0
2349 -4292 0
-70 -1978 0
1813 -2854 0
4761 4631 0
3855 -4294 0
-671 2603 0
-4293 -4487 0
3216 2640 0
-2064 -89 0
3705 -306 0
1411 -4984 0
1419 -1791 0
-4129 -732 0
-1815 1927 0
-1103 1111 0
-4510 -1008 0
-1375 -1649 0
-2616 -3429 0
-1878 4919 0
-2359 3841 0
2574 1179 0
4822 1480 0
3395 -2179 0
3985 3247 0
-3042 4765 0
3478 612 0
1866 4146 0
-2214 4362 0
646 3766 0
-4224 788 0
-3635 -2953 0
3001 -1580 0
-3763 -3312 0
1847 -2691 0
3866 -3143 0
3029 -1279 0
-1944 -3058 0
774 -3074 0
1022 1641 0
-4804 2868 0
-3749 -1258 0
1001 1458 0
1602 -1587 0
-59 658 0
-2648 -3543 0
883 4463 0
2460 -4812 0
3553 4412 0
2282 1867 0
2148 -1353 0
-3759 -2874 0
1229 1800 0
-4050 -4023 0
-4911 -3214 0
-1182 270 0
2481 -57 0
-1896 -2596 0
4386 -2017 0
-98 -15 0
-4522 4886 0
-182 3566 0
319 4802 0
-2861 2429 0
1354 -1438 0
-700 1020 0
-2820 -1519 0
-4744 323 0
-3074 4012 0
-2815 -3377 0
-3642 4962 0
43 3855 0
-4853 -3336 0
-712 1607 0
30 3236 0
-351 -4680 0
2075 -3931 0
814 2717 0
-4968 2319 0
4153 2850 0
64 4032 0
1302 602 0
4407 3627 0
88 -4792 0
3662 -1021 0
-4075 2951 0
-3552 -829 0
-945 -4068 0
-700 1697 0
-1400 1622 0
3102 4509 0
-2492 3906 0
452 -2822 0
2042 1357 0
869 1350 0
4487 2730 0
-1899 150 0
-304 4791 0
1751 2766 0
1697 -2585 0
219 1311 0
114 1651 0
1992 -2668 0
-2048 2463 0
1696 3551 0
4052 4318 0
3120 1017 0
-107 1947 0
240 1765 0
-86 2361 0
4445 -4540 0
-3480 -2822 0
4996 962 0
-1067 472 0
4325 1919 0
2305 2210 0
988 520 0
-989 -2414 0
-2014 -4960 0
-1785 3236 0
-2280 152 0
4468 -2554 0
-4065 2093 0
767 4880 0
1022 3077 0
-1340 1638 0
-1006 -4665 0
-2223 2967 0
1300 -1340 0
4069 4240 0
1622 4912 0
2594 -4131 0
-2570 -4754 0
4655 1819 0
87 3070 0
3318 1491 0
1483 3209 0
-4596 -888 0
-4538 1981 0
506 -2993 0
3685 -356 0
-3567 -3638 0
1426 -3352 0
4532 -3165 0
-2178 -541 0
-4248 23 0
-3330 3653 0
-3983 2218 0
2691 -1507 0
-1542 635 0
872 313 0
4679 2742 0
2168 -2344 0
2189 -327 0
3710 4263 0
-3346 -1171 0
378 4948 0
-208 312 0
-1587 -600 0
4888 1335 0
-1788 -2115 0
-4073 1781 0
-1845 4672 0
4928 -4444 0
1147 4467 0
-3275 4678 0
2089 4502 0
-2075 1386 0
2066 -3901 0
1702 850 0
225 -1182 0
506 2983 0
-1360 -1551 0
-4486 -1478 0
-1289 -4934 0
4960 -596 0
-2435 1724 0
-4124 -3391 0
4197 3589 0
-4868 -2314 0
-1757 -393 0
1993 4722 0
4279 234 0
-4784 4270 0
-4876 -3886 0
-2377 -1779 0
-3359 -3585 0
126 -3913 0
-4480 -2698 0
597 1381 0
2870 555 0
-2934 -4217 0
4759 -2722 0
133 705 0
-3781 3557 0
-1632 -989 0
285 -222 0
-1364 -1984 0
-1045 -2546 0
4300 -2887 0
-2074 -2917 0
-3436 -3818 0
145 2590 0
-667 4221 0
2118 -318 0
180 -2321 0
-626 -2337 0
4276 -3552 0
-2012 -3867 0
3498 -1724 0
2382 -3899 0
2951 1043 0
173 -3282 0
1187 3533 0
-4576 -2033 0
2700 -3639 0
2627 -3800 0
504 -3950 0
-613 -1767 0
-2802 -4786 0
117 4744 0
2268 -1746 0
-969 3506 0
362 -2957 0
-3519 -4597 0
3590 2671 0
4512 -2062 0
4981 4381 0
-3302 -1971 0
-832 286 0
-680 2861 0
706 2192 0
1240 -2223 0
-445 2839 0
-4484 -1888 0
-295 -425 0
-4901 436 0
4996 4048 0
2702 2395 0
-4843 3094 0
201 -3006 0
-374 -4420 0
4265 2019 0
-1375 1456 0
-1415 519 0
4598 4457 0
3051 667 0
3120 1628 0
-4185 -1308 0
-4114 -888 0
4003 1598 0
3608 2433 0
-4990 1694 0
3696 -548 0
938 4156 0
2126 3160 0
426 4341 0
-684 -3353 0
-1518 1410 0
3787 -578 0
3656 -2038 0
2999 4395 0
-1726 -1487 0
-2083 -314 0
-3919 -3835 0
1749 1548 0
-3196 -1020 0
-3608 -974 0
-3545 -62 0
-2278 1932 0
1040 -3091 0
2129 -3288 0
-4155 898 0
-3838 5 0
-3737 -2254 0
4564 4120 0
-1960 -3133 0
-213 -2451 0
-4008 -4788 0
-1866 -1921 0
3904 1020 0
4987 -715 0
2529 -2560 0
3893 -2395 0
-2539 1403 0
-907 112 0
-3190 1696 0
-353 -707 0
-4924 123 0
3732 -306 0
-2127 1203 0
2276 1772 0
-1830 -4853 0
-883 3536 0
993 -4427 0
-599 2752 0
-3959 1597 0
1670 331 0
2659 -1108 0
-1741 2907 0
-90 -4225 0
4831 -316 0
2912 1153 0
4844 4153 0
-2592 3257 0
-2454 3197 0
-4564 4400 0
4074 -164 0
4883 2413 0
962 4556 0
2092 -3092 0
-3662 862 0
3755 1617 0
-2776 2016 0
4501 3694 0
3634 2842 0
-906 -243 0
-3006 3597 0
-2536 4533 0
4024 346 0
-1450 -612 0
3120 3423 0
-1891 -1273 0
-454 3501 0
3420 752 0
1243 2842 0
-4995 1606 0
-693 1109 0
-268 -2516 0
4157 2454 0
393 -4843 0
60 64 0
-744 2640 0
3277 3831 0
432 4437 0
-2403 3938 0
2154 1891 0
-114 482 0
3928 -3670 0
-1927 1332 0
-1448 2540 0
1072 -2754 0
3741 -1214 0
1002 -2349 0
-3040 868 0
-622 -1423 0
-4913 4872 0
1975 4327 0
-666 -1006 0
-495 1163 0
-563 -1633 0
2276 -671 0
439 1769 0
-4050 -948 0
-2279 -588 0
201 -4885 0
-2071 2272 0
4368 68 0
897 -4659 0
-1993 -2366 0
-341 3338 0
-657 3471 0
4184 2277 0
1544 -3014 0
2364 -3610 0
2347 -4047 0
-4755 -2278 0
556 564 0
2726 3313 0
378 -2154 0
2308 -247 0
-2336 -495 0
49 -3899 0
1334 -2252 0
2471 -3161 0
-4738 -1404 0
3883 -4863 0
4422 -4732 0
-675 -3632 0
-1049 -4388 0
-1228 3182 0
1888 466 0
-3116 -2939 0
1738 2605 0
-2449 -1745 0
3600 45 0
1250 1034 0
-3277 864 0
1695 1949 0
2133 1832 0
-3554 4754 0
-293 1013 0
3078 3606 0
-2302 4777 0
4153 -1878 0
1306 -3336 0
-4045 -1919 0
3450 3725 0
2298 1627 0
-2269 -2094 0
-3415 846 0
4420 -4295 0
4235 -3107 0
2215 834 0
1113 -1578 0
3242 105 0
1937 -817 0
4949 -3006 0
-3722 -2614 0
-3230 2625 0
4123 2450 0
-4767 -3961 0
-100 -4080 0
4114 -3341 0
-3872 4832 0
-2552 2424 0
-4161 -2510 0
-2715 2349 0
1288 2316 0
-3582 4389 0
-3852 -2207 0
4828 2638 0
3589 1120 0
-2875 835 0
-2486 1876 0
-2506 -155 0
-3195 -1702 0
1836 -3054 0
-938 -2368 0
-183 -3745 0
3952 2980 0
-3310 3381 0
-1619 680 0
152 3134 0
-1411 -2776 0
-1309 -1288 0
3795 4130 0
3164 -3486 0
3392 1786 0
-620 -396 0
423 -2221 0
-4480 2882 0
-1317 3005 0
3622 -2468 0
330 -4640 0
859 -1936 0
3211 -2071 0
-4422 -4664 0
2608 1355 0
-3412 540 0
3037 -4408 0
-3572 1033 0
-1902 -1976 0
-1681 1174 0
-1334 -3702 0
-153 -1192 0
-1011 3478 0
2602 -4640 0
-887 4785 0
790 -3574 0
-4676 432 0
-1211 -2832 0
2868 -210 0
2426 1951 0
-2060 -614 0
-4026 -1077 0
3874 494 0
4318 -4965 0
3809 2190 0
-2815 4699 0
-425 2292 0
-3879 398 0
3611 1088 0
1431 -2998 0
3634 73 0
-1437 -2758 0
-713 1315 0
-4302 -1121 0
-278 -4487 0
3291 -1744 0
3829 1303 0
-1795 -4369 0
-2579 392 0
-3977 286 0
-2894 -4244 0
898 -1976 0
1525 4430 0
-599 -559 0
-361 3807 0
-875 3236 0
-2758 348 0
2845 -4497 0
1220 627 0
2308 3026 0
-4094 -1455 0
-2560 -3756 0
-552 4613 0
791 -2894 0
-4171 -2524 0
-4371 -645 0
3935 2652 0
-1126 -4560 0
-682 -2863 0
-1387 3491 0
-4403 -1225 0
102 3833 0
-19 1181 0
-505 4364 0
-2244 -2951 0
-1296 -1912 0
4297 4832 0
3138 -3601 0
-3442 1837 0
2574 3587 0
-3442 2990 0
-4306 2926 0
-3915 -1212 0
1082 -992 0
-4448 396 0
2316 -3542 0
-1099 -3116 0
2630 4175 0
-4850 -1378 0
-3822 -2734 0
-2299 -8 0
3936 13 0
391 -1117 0
1661 3618 0
-4284 472 0
-2523 -4939 0
3600 145 0
-2151 -2191 0
-1396 4138 0
-1395 4343 0
-3714 -2884 0
-3083 4323 0
1279 -4954 0
-837 4549 0
-4974 -657 0
-2501 -2804 0
2632 3502 0
-964 -894 0
-1432 1285 0
2376 11 0
-1290 1372 0
3966 -3481 0
4759 -579 0
194 -1565 0
-3484 -4976 0
1712 -2919 0
-108 282 0
1050 -1928 0
-1418 -4584 0
-675 -4304 0
4466 -4409 0
-1336 3965 0
-4626 3787 0
-1216 3203 0
1911 32 0
-757 -2449 0
2889 3411 0
3495 -4128 0
-1614 -3827 0
-4825 2868 0
285 4588 0
-2731 -2059 0
-1615 4429 0
-3679 1376 0
3394 1137 0
3071 1220 0
39 1828 0
-3673 4802 0
-1317 4531 0
-2962 -3366 0
-72 1540 0
-2959 2829 0
334 -4481 0
-1112 -3891 0
-2039 -1631 0
3157 -599 0
55 4802 0
2189 2831 0
-865 -2433 0
1442 3664 0
7 1100 0
-1985 -1546 0
-793 -2675 0
3345 3738 0
-4584 -1326 0
1737 1268 0
3530 -1297 0
1480 429 0
-2077 -3452 0
-181 -2655 0
-4364 -3230 0
-3025 -2302 0
-4373 -2595 0
3168 -613 0
-883 -1689 0
2331 2295 0
-2584 -3397 0
2912 -1822 0
3161 4829 0
1060 891 0
3636 3770 0
3148 1579 0
-4753 -4037 0
-3570 3063 0
-1877 -1033 0
-1168 -4623 0
-2548 -510 0
968 2385 0
-1592 -1554 0
-2372 4650 0
4888 3045 0
-2499 2568 0
-1328 4226 0
-2396 95 0
3518 625 0
990 17 0
-2994 1578 0
-3195 3841 0
-1855 -3530 0
-3143 4898 0
2799 3705 0
-1884 -1331 0
-3051 -4335 0
2801 830 0
-1093 2418 0
3684 3893 0
449 4644 0
-4085 -1646 0
-2824 -613 0
-2139 -4289 0
-396 -4658 0
1448 -4494 0
2088 4209 0
439 -2702 0
2329 -830 0
-4114 232 0
4938 -4313 0
4175 4024 0
2873 3417 0
-4705 2504 0
4472 1447 0
2132 -3947 0
831 2566 0
3091 4636 0
1594 916 0
4826 293 0
4558 3664 0
2653 -2632 0
-3670 605 0
-4761 1166 0
4146 -3923 0
-4096 59 0
1964 1570 0
924 -3648 0
-1498 228 0
-3918 -2056 0
-1593 1765 0
2265 2033 0
-683 1359 0
1820 -4792 0
-4024 4180 0
-4486 2315 0
-1838 3509 0
4734 -2944 0
666 3623 0
-3638 -1918 0
-4743 3607 0
-906 4230 0
-2840 -4299 0
3041 1556 0
-2245 -3762 0
-2267 -1190 0
-3926 -1719 0
2416 1516 0
475 -3444 0
3180 -324 0
326 3122 0
658 -4541 0
3089 292 0
-2292 -836 0
-2615 3151 0
-827 -4205 0
4785 -4491 0
4798 -3524 0
-3578 4672 0
-3131 2920 0
2542 -679 0
3298 -314 0
-771 -4215 0
1839 519 0
-4208 4326 0
-2407 4915 0
-2685 -3146 0
1596 1508 0
-4354 3337 0
-1870 -4798 0
-1887 4856 0
-101 -559 0
-611 -1149 0
-842 3260 0
4901 828 0
-3470 1514 0
2559 -2771 0
2663 2228 0
4979 1234 0
-3913 -4185 0
-614 3386 0
3742 -23 0
-670 -2916 0
-956 -617 0
353 773 0
2248 -1837 0
4855 2256 0
2631 -488 0
3796 -2921 0
-1305 2174 0
263 1599 0
4662 3514 0
-3623 2839 0
-4220 -224 0
1638 -4164 0
1227 -1742 0
538 2387 0
511 -1251 0
-4945 -2334 0
1689 3396 0
2357 -4864 0
-3204 -3029 0
4804 -2151 0
2934 4871 0
3420 640 0
213 685 0
-3768 -2786 0
4245 40 0
523 867 0
3855 -3183 0
-1660 -135 0
607 3781 0
-4606 -1031 0
-4833 2657 0
-1716 -1436 0
1875 -384 0
703 3461 0
443 -806 0
-2143 -1827 0
-2006 4399 0
-3090 1186 0
3967 2685 0
-3960 3888 0
1558 -3508 0
-3359 -3377 0
-4918 -4657 0
-768 2263 0
-868 2494 0
-286 -3762 0
-1168 -4094 0
-4320 4250 0
-1073 2893 0
4352 -551 0
805 -3933 0
-2643 2080 0
2658 2174 0
-3042 -3790 0
2594 -2689 0
3393 -827 0
-1753 279 0
-1679 -3040 0
-203 1016 0
2644 788 0
285 4370 0
41 359 0
-1431 3760 0
1733 -579 0
2444 4673 0
1100 -3133 0
128 -1607 0
4883 2900 0
1799 1384 0
-4060 -4017 0
3100 3637 0
-4820 -757 0
-3156 4657 0
641 1142 0
1411 -539 0
2181 -4542 0
2193 -2376 0
3630 -3619 0
-211 4407 0
-3315 -3288 0
3597 -2381 0
-4893 -3019 0
3287 3567 0
-742 2051 0
4953 -3643 0
-4438 2376 0
681 571 0
-98 -1599 0
-4047 -2826 0
4567 2131 0
4840 3677 0
-1196 -3067 0
-1161 -2618 0
-4534 -191 0
1001 -868 0
-4056 -449 0
4782 4220 0
-2004 1014 0
-4166 2744 0
750 -4540 0
2917 -714 0
3394 -2379 0
-3179 4077 0
-1188 2473 0
-406 4345 0
3537 -2347 0
-4089 -1181 0
653 -2795 0
-4203 1198 0
1061 -2263 0
-2023 -140 0
4127 -72 0
-880 4420 0
-3607 3854 0
-2602 -2289 0
2263 -4015 0
-4924 3873 0
-4281 -1499 0
-4836 3550 0
-605 -1007 0
645 -3679 0
4029 -1961 0
2242 -965 0
-3220 4802 0
-4298 -3487 0
4735 -3330 0
-2299 -956 0
1786 -2800 0
-965 4986 0
1643 -1415 0
-3519 -1548 0
-3665 -795 0
-3489 -3428 0
-455 4482 0
-1326 981 0
1107 142 0
-832 23 0
518 -2922 0
4855 -4308 0
-1263 2422 0
2883 2391 0
-1652 4589 0
-422 -3619 0
4119 2649 0
-695 683 0
1837 -4610 0
-2819 1340 0
-2188 4935 0
-387 3950 0
-488 4970 0
-712 2135 0
3890 -2522 0
-4832 1451 0
-990 3042 0
-1657 -1159 0
-4532 -4601 0
-3709 -2732 0
2420 -2359 0
-4668 3014 0
2895 4845 0
4414 4298 0
142 3138 0
1552 1560 0
-3160 184 0
-2285 3334 0
1879 3228 0
2681 -4152 0
1381 3235 0
3740 4183 0
-4782 1293 0
-1421 -2781 0
-4080 4206 0
-1981 2938 0
-3552 -1863 0
-2651 -4321 0
-2340 -4242 0
4806 415 0
-476 -1742 0
805 -3397 0
-1660 -2053 0
4582 4123 0
1943 -2927 0
-4287 -540 0
3232 -243 0
-2719 -1766 0
-1884 45 0
3690 145 0
-1575 -2531 0
-3440 1411 0
3427 -4126 0
4038 -4340 0
-1705 -2858 0
2700 -4815 0
4827 -3313 0
-1778 2664 0
820 774 0
-3559 -747 0
-2920 -1502 0
-772 2665 0
-2800 -1000 0
-896 2338 0
-1865 2883 0
2689 -4415 0
4914 -251 0
2224 -2556 0
1274 4974 0
-2195 -528 0
2449 -481 0
-2403 1995 0
4000 -3629 0
-2498 -3040 0
-1940 -614 0
-3052 4552 0
-1895 4225 0
-4977 4350 0
-1023 -795 0
2497 -3023 0
-1004 -908 0
-4520 -4985 0
-3870 2873 0
-3934 -1046 0
-712 -1749 0
137 -2213 0
865 -1988 0
51 4354 0
-1946 239 0
-760 4589 0
2032 2623 0
473 1030 0
-4707 -4478 0
1871 -4397 0
-3796 -2868 0
-2936 -772 0
-4811 4386 0
-4476 -3870 0
-3334 -1981 0
-2078 -1775 0
2431 58 0
-3553 -803 0
-4427 4043 0
98 -247 0
1086 4149 0
2900 -1421 0
-1114 -4440 0
1635 -3678 0
3884 -3369 0
3140 2571 0
-799 3921 0
-137 510 0
3589 -4238 0
-3204 -2762 0
-1011 20 0
344 -321 0
-3259 -4093 0
-4730 220 0
-1272 -289 0
3812 2837 0
2396 3967 0
1629 2270 0
-4546 2462 0
-1486 3536 0
-4570 -4406 0
3366 -1830 0
-4155 -968 0
-3902 -1759 0
3383 -2313 0
-3959 4927 0
-2170 -3220 0
2375 4038 0
-1754 4080 0
93 3456 0
-32 -2811 0
737 1586 0
1573 -1455 0
-3972 46 0
-4278 -3279 0
-4656 4414 0
872 -1591 0
-3097 4265 0
-1377 -2953 0
-1015 -1943 0
477 4299 0
4285 185 0
382 -3241 0
4780 17 0
-730 341 0
-2994 -2957 0
2006 -588 0
716 3077 0
246 4297 0
-3678 4104 0
250 -3455 0
3822 4705 0
957 -2640 0
-245 4661 0
-4273 -420 0
-3804 3989 0
1681 -591 0
-3020 -3703 0
-3574 -3213 0
-1026 3107 0
3195 4768 0
-3748 -178 0
3568 -4569 0
-3618 2382 0
618 -1707 0
-1351 1204 0
3952 2830 0
-3335 -1146 0
3877 46 0
-3374 743 0
-4276 999 0
-4395 2122 0
4837 -1 0
-1014 350 0
4429 -1745 0
-3733 -1148 0
-3125 2210 0
-809 -901 0
2527 -172 0
-2271 -4950 0
1431 -2588 0
480 -3977 0
676 4522 0
-2574 2388 0
2451 -497 0
345 3808 0
4987 4329 0
-712 -358 0
-224 -242 0
146 1788 0
333 1519 0
-2714 2428 0
-2299 4933 0
4277 -2417 0
763 -1316 0
-3152 3076 0
-4055 198 0
2559 2351 0
-2499 -949 0
554 -3185 0
3646 -1016 0
4104 -1884 0
-566 1357 0
468 401 0
668 452 0
3119 1814 0
1493 -3724 0
3593 234 0
1201 2647 0
-1997 -338 0
-2336 -3694 0
1732 -2922 0
-4429 2413 0
578 -2795 0
-2162 4893 0
-645 2402 0
-1913 -754 0
4999 3236 0
4644 1833 0
675 3944 0
1933 122 0
-2021 -908 0
4324 -1353 0
3855 2299 0
2764 4313 0
-2708 -464 0
-1295 2443 0
2599 453 0
-2040 689 0
4458 2259 0
-3248 238 0
-4431 -2909 0
-1346 1377 0
-1456 4798 0
-2167 4816 0
-1075 -797 0
-2073 2219 0
2677 -2661 0
3751 -2098 0
2566 1351 0
3971 -4554 0
2000 484 0
364 4423 0
-4119 -3801 0
-4715 2975 0
2409 -1950 0
2666 318 0
3050 -2856 0
-4586 -1835 0
2162 1463 0
-1841 3428 0
-4815 -2994 0
3337 1125 0
-218 1689 0
4132 726 0
-2396 4307 0
1197 3352 0
11 9 0
1646 -3171 0
-4406 3982 0
4000 244 0
3407 2709 0
-221 1809 0
3390 4962 0
-1223 2514 0
-4792 1326 0
1179 1838 0
4333 330 0
-3825 -1433 0
-2614 -55 0
-1734 -677 0
3650 4071 0
1111 -1956 0
-1161 3791 0
-4067 -3341 0
743 1226 0
4477 -1932 0
-1761 1919 0
-3601 3678 0
1013 2849 0
-1543 4426 0
-3676 4716 0
-233 4299 0
-325 4623 0
-3507 113 0
-1057 -3470 0
-4281 67 0
2360 -225 0
4243 3205 0
2741 4489 0
-3692 -2476 0
539 3636 0
1281 -3943 0
-2659 -2727 0
2239 -2967 0
-822 4307 0
-2030 1349 0
2682 3262 0
-4290 -1187 0
953 674 0
-4891 2634 0
1367 -2085 0
-25 1793 0
1030 -769 0
1937 3434 0
-3339 -625 0
-2255 -4541 0
4135 3617 0
-3256 1266 0
-737 -4801 0
-1425 2211 0
-2217 -2017 0
-442 -3099 0
-4791 -3924 0
-3063 3084 0
450 -4080 0
3117 2949 0
-455 -3833 0
4102 3316 0
2494 880 0
881 -2196 0
4191 -1316 0
1909 -925 0
-4822 -2194 0
3005 3754 0
-3679 -3700 0
2256 1490 0
-1221 -38 0
-2372 -2412 0
4618 2934 0
53 -3314 0
-2180 -1364 0
-1914 1616 0
-2044 3357 0
-4586 4886 0
459 1356 0
3320 1287 0
629 1072 0
4284 -1436 0
2671 3226 0
-3027 -98 0
1389 4707 0
4756 621 0
-1054 -454 0
65 -1546 0
-1931 -390 0
1586 -969 0
-455 4460 0
-355 4430 0
-1490 319 0
-2667 -2531 0
-1890 399 0
-1880 904 0
3299 -4840 0
-3545 -3131 0
4545 -1464 0
-3852 -345 0
2181 64 0
-4276 4693 0
4423 -811 0
-1497 -274 0
-2266 2838 0
2671 -4410 0
-4828 3023 0
2784 -1007 0
2563 -2201 0
2489 -1526 0
-767 -760 0
-699 866 0
1731 -867 0
-3008 717 0
-462 -2554 0
-1057 -4154 0
4186 -3202 0
-3771 -809 0
3712 -2035 0
-1489 2620 0
-3146 -2243 0
-4931 -1984 0
-4755 -677 0
-3470 -1192 0
2703 1310 0
-4202 -688 0
4515 -2362 0
1578 2272 0
164 -3428 0
-941 2839 0
-2301 1412 0
-4744 1106 0
-182 4625 0
3761 3276 0
2742 -579 0
3389 -2483 0
819 -2375 0
1310 -2012 0
420 -4928 0
3944 2571 0
3100 3649 0
4970 -404 0
-2753 -4345 0
-1676 -3940 0
3678 1367 0
-1029 -2351 0
4935 2638 0
-445 4515 0
-1641 2755 0
-4656 -589 0
-612 -1064 0
2448 3477 0
-1211 -2672 0
3166 3498 0
2353 4870 0
-4728 -2583 0
2641 219 0
3869 123 0
2918 -1889 0
-1555 4504 0
-912 -1994 0
1712 763 0
4092 -4402 0
4213 3186 0
-2748 -1106 0
3077 4457 0
-4284 -2531 0
-1609 1274 0
2821 4562 0
-524 -4453 0
-1740 3761 0
2396 4495 0
750 -983 0
3247 -2569 0
-4573 -3430 0
4673 -2660 0
1139 4666 0
3919 296 0
-3932 469 0
-1338 2604 0
-395 4899 0
-2921 -1750 0
-1247 1336 0
99 4462 0
4411 2284 0
3022 4616 0
-4895 3743 0
1297 4168 0
2786 3874 0
2581 -4256 0
3837 -2269 0
1905 2742 0
-1122 200 0
4650 4144 0
-1093 -1348 0
3476 571 0
3954 -3746 0
-2297 -1370 0
-4912 -1734 0
-4440 2960 0
1491 824 0
4572 -2793 0
2812 -242 0
2344 3582 0
3924 2109 0
-3154 -398 0
-905 -4514 0
-2444 4650 0
-4943 4079 0
-4597 -4353 0
4977 -4373 0
2495 -4968 0
-1537 -3194 0
297 -754 0
-2399 4253 0
-2921 -4651 0
-3583 -384 0
-1323 4236 0
-3882 -1069 0
1232 3509 0
-763 4433 0
1266 -2228 0
1354 4586 0
3676 2622 0
-247 2336 0
3699 1036 0
-1610 -1244 0
-2298 -2373 0
-2209 3625 0
-2050 3890 0
4274 1671 0
1527 -648 0
-2144 4614 0
-4255 2199 0
1930 -3036 0
-4415 -4375 0
291 472 0
2680 1693 0
-3885 -712 0
1907 -4959 0
44 3384 0
-804 -4170 0
2268 3516 0
4870 -2150 0
-670 -2832 0
4680 -1201 0
3299 3694 0
-3493 2146 0
2262 -4086 0
4009 -2969 0
660 876 0
-2321 -931 0
-1897 -563 0
4143 -1347 0
-1590 -3851 0
-467 -1966 0
3380 4307 0
1097 4062 0
1646 2282 0
-3344 -2658 0
-717 -2012 0
-4796 -2200 0
-2751 1788 0
3746 2324 0
8 3059 0
-3386 3234 0
4793 2270 0
1725 -1146 0
3582 -3636 0
-4586 1787 0
-4251 4444 0
-4413 4433 0
-2240 3890 0
1507 2100 0
-3940 -4052 0
-3248 2481 0
-37 -325 0
-1379 3817 0
-4959 2327 0
-14 -3914 0
-2543 2287 0
3960 4530 0
-4365 4029 0
4910 -2501 0
-4020 4156 0
-2500 -515 0
2227 3851 0
2670 101 0
-3974 3829 0
-3024 -1187 0
39 4822 0
-2381 -1450 0
3268 -4916 0
1979 -1623 0
-788 516 0
-3462 1738 0
-3011 -2576 0
-2216 4361 0
-702 -3626 0
-3536 1768 0
-3836 -3251 0
-4418 -4216 0
-1661 -313 0
-4127 -4877 0
3345 -2542 0
-2824 -2071 0
-4258 4504 0
3784 -4290 0
-4978 -1515 0
-606 -592 0
3748 8 0
-85 -328 0
4140 2462 0
-3668 1618 0
401 -1551 0
-195 4022 0
1284 1133 0
-2898 -560 0
4533 -4308 0
-4654 -4796 0
701 4270 0
1894 -25 0
-1225 -2265 0
-3499 2800 0
94 2109 0
-1022 -745 0
-3158 3625 0
-2540 -2240 0
424 37 0
4088 -2348 0
-914 -88 0
-4926 -238 0
-4746 -399 0
815 -2650 0
805 3978 0
-1408 -4461 0
4465 -2052 0
-270 2226 0
-3444 -2716 0
3161 -2825 0
395 -4701 0
-4726 -971 0
-3383 94 0
756 -2905 0
1662 673 0
-439 -1307 0
3314 4507 0
539 -1546 0
3977 1529 0
-1543 3483 0
2577 2640 0
3301 -204 0
-1685 4296 0
-4053 3305 0
2008 2476 0
2830 -636 0
-2518 -2804 0
101 -2592 0
-700 3072 0
-3378 2185 0
2673 1525 0
2974 2473 0
-2299 -3765 0
682 4997 0
284 -2908 0
-1938 968 0
-3775 -2561 0
-4199 4823 0
2519 3299 0
-4052 -2737 0
-4397 -2736 0
-4363 -3507 0
2239 -3681 0
4661 -4857 0
2290 -2913 0
-379 1875 0
3728 -2515 0
-1218 -1293 0
692 4292 0
-3656 -3353 0
-1329 -1654 0
3643 -793 0
-2644 -585 0
965 1804 0
4153 -268 0
-3120 -3827 0
-1172 -1022 0
667 -3680 0
-3631 2587 0
-538 696 0
-4939 -824 0
-1170 -3192 0
3600 2528 0
-711 -2149 0
-3420 929 0
1709 -3600 0
-2807 153 0
-969 -1132 0
-2597 516 0
-3632 4088 0
-3703 3140 0
-4758 -2882 0
2677 3560 0
-4172 2541 0
1097 -1009 0
1656 2063 0
395 2483 0
-3293 -2413 0
2718 -1681 0
2002 -1872 0
-4433 -3777 0
-2974 4629 0
49 1577 0
2112 -1365 0
2932 -1053 0
2008 1042 0
-4268 1322 0
-545 969 0
-4573 4473 0
3142 -4334 0
-3949 -3734 0
406 1495 0
3743 4003 0
3713 -337 0
-3796 -2065 0
-3586 -1044 0
-1168 -1792 0
1491 -1298 0
-2419 1317 0
-4469 -3420 0
3055 -1038 0
3475 1292 0
-274 4949 0
3137 2325 0
2961 1780 0
2153 4698 0
-1868 2329 0
2639 -517 0
4998 2817 0
-2974 -3638 0
-2021 1864 0
-1052 3851 0
-2530 1508 0
-1058 4496 0
1246 -3866 0
-2107 2526 0
638 704 0
-175 -2815 0
-3747 2467 0
-4364 -4987 0
-1192 4634 0
4376 3161 0
-2636 4484 0
336 -882 0
-4685 -2063 0
3225 3819 0
-2083 4094 0
845 4385 0
-1187 -4945 0
-4228 2567 0
-2197 3916 0
4096 3928 0
521 2666 0
-2118 -4565 0
-609 -2119 0
4477 4233 0
-3306 -3135 0
-446 3982 0
2715 -3999 0
-4835 4837 0
3054 -2278 0
-82 583 0
-2120 -3862 0
-1393 -2540 0
417 4481 0
2286 -3821 0
-2066 -3090 0
-3752 -3081 0
4530 3050 0
4351 -2509 0
1720 3913 0
3062 3409 0
22 -4982 0
562 3483 0
-330 -4287 0
-150 1350 0
251 1765 0
-4222 1697 0
-34 632 0
1965 139 0
-4774 4044 0
-2234 4604 0
-1329 -1395 0
-206 -3648 0
-3327 -4789 0
365 3420 0
-4858 1304 0
10 1622 0
4803 3621 0
-871 -1510 0
2820 -1869 0
-3202 3456 0
1654 1103 0
-358 -3353 0
1256 2764 0
2218 -1267 0
-1198 3703 0
1215 -1282 0
4151 -2069 0
2727 411 0
-2993 -2374 0
116 2085 0
3655 547 0
-1345 3689 0
-3058 -1133 0
1678 3514 0
3177 -4918 0
2764 4305 0
-1517 4420 0
-3113 -2123 0
479 -4542 0
4356 -4163 0
2230 -1553 0
-1527 -3741 0
2915 -3245 0
2919 -2046 0
-387 3668 0
3122 4147 0
1906 798 0
-3168 -1108 0
-99 2057 0
881 280 0
1375 2640 0
4062 896 0
-790 2305 0
4080 1236 0
2687 -18 0
-3028 1708 0
1070 2509 0
1604 1022 0
2210 1129 0
4811 -522 0
2458 -3156 0
-4839 -909 0
-4944 -1810 0
4756 2111 0
-4624 2691 0
4972 -3503 0
-2879 -2922 0
4970 2882 0
-124 1396 0
2029 2517 0
-406 422 0
-234 4033 0
26 2405 0
1380 -3992 0
-3079 -303 0
-3208 3241 0
-4205 4522 0
-268 -4312 0
-1611 407 0
-925 -3112 0
-409 -274 0
-4723 701 0
641 3298 0
513 -1800 0
-1330 4252 0
3149 2579 0
2538 913 0
-3208 207 0
4307 -1035 0
2645 -4207 0
-424 -4259 0
-4155 42 0
-1982 4922 0
-785 -2164 0
4240 -3067 0
-563 -3286 0
862 -349 0
-3968 3737 0
-3825 -4562 0
1019 -2693 0
3935 -4706 0
4205 -3118 0
-386 -4035 0
760 3787 0
898 -2963 0
-865 -3700 0
768 2144 0
-1688 -1414 0
3213 1070 0
-11 258 0
4638 -1630 0
-2172 4023 0
3363 417 0
3120 2689 0
2751 4688 0
552 -1762 0
3460 3217 0
-1968 -3836 0
295 2825 0
-4353 2209 0
2997 3650 0
-2762 -1994 0
839 -2172 0
-739 405 0
-1291 4596 0
-4725 1696 0
4310 4944 0
3428 2282 0
-1967 3266 0
4348 3676 0
2315 292 0
-4562 1774 0
-3046 -1517 0
-4742 -4716 0
-4171 -1478 0
761 4683 0
4106 3947 0
2299 3938 0
-224 2770 0
-1746 3600 0
-2463 -3403 0
-4068 4141 0
3598 -2686 0
2435 -3749 0
4130 734 0
-938 2455 0
-806 2396 0
4415 -2963 0
-2410 635 0
3963 -1510 0
1956 237 0
-1997 2191 0
3207 -2315 0
-2744 4321 0
-348 54 0
-4262 -3641 0
-2831 -1034 0
-3957 -1022 0
4233 2002 0
3648 1781 0
-4969 4599 0
3414 -3456 0
-3028 -4659 0
-1229 -358 0
-667 4553 0
-2492 -2 0
-3623 -4170 0
998 -4158 0
4360 -3729 0
2442 3360 0
4677 -4633 0
-2149 -169 0
1406 2554 0
-2840 2766 0
-4085 1096 0
-1144 -14 0
-4590 54 0
3315 -2603 0
2641 4197 0
-1994 -564 0
-337 -732 0
-1242 4006 0
-3001 4017 0
4676 1381 0
3022 3664 0
-2003 -3212 0
-2340 2810 0
-1735 -2439 0
-739 -3505 0
759 -3043 0
4774 -2209 0
-171 3980 0
-272 2327 0
154 -2701 0
-2601 -4490 0
-2084 2620 0
4524 -4881 0
4603 -4964 0
-3019 205 0
-4570 33 0
-3902 -1564 0
-1761 4463 0
-2284 -469 0
1718 -1403 0
3457 -4981 0
-3723 -1152 0
743 3753 0
4295 1596 0
2608 -1841 0
4195 435 0
-4695 2474 0
-1855 -4236 0
-168 -2136 0
-1567 4873 0
1483 2189 0
-2144 2602 0
4654 -3590 0
-623 3517 0
-634 1628 0
964 -3752 0
-1642 -4540 0
-4014 1506 0
-533 -1347 0
-2028 2040 0
-4419 -3763 0
4226 2024 0
4008 121 0
-1542 489 0
1644 1869 0
-2994 2147 0
-2514 4131 0
-1191 -1588 0
-1857 -798 0
-4856 4108 0
3823 -2727 0
3650 2536 0
2820 73 0
2470 1065 0
-2447 -703 0
-4744 598 0
1326 -4866 0
-2365 283 0
98 3511 0
2637 2897 0
2560 -2645 0
3942 -4557 0
1933 -3106 0
-782 2830 0
-907 3072 0
62 -1456 0
-4925 -732 0
3689 -4140 0
-3413 -3760 0
-34 -1812 0
-2429 712 0
4015 2621 0
1896 -989 0
-1289 -4915 0
-2689 -3821 0
-4830 3751 0
3738 3783 0
4325 804 0
3642 967 0
4392 2289 0
3109 4430 0
-4207 4333 0
-4061 -3238 0
-1844 -2866 0
1836 169 0
3794 4559 0
2387 1039 0
-2563 4952 0
2407 2581 0
1544 -4141 0
2175 13 0
-3682 -1489 0
-963 -4048 0
17 -1389 0
-3110 4756 0
341 -2672 0
4172 1515 0
4763 -1087 0
4218 3865 0
-1715 -4534 0
2424 -1591 0
-131 -46 0
-2774 3455 0
1326 4156 0
-3895 1449 0
-118 654 0
-1571 1410 0
443 1741 0
-3733 174 0
4717 2067 0
-4168 2387 0
-415 4977 0
353 2124 0
3230 -1644 0
2825 -3070 0
662 850 0
-4038 1581 0
122 -1355 0
-4262 -2019 0
3971 1700 0
-3171 3636 0
-4679 -3405 0
2488 -4635 0
2670 -1207 0
-1605 2260 0
-3706 1998 0
-4542 -2104 0
-2722 -4111 0
3842 -808 0
3509 1959 0
-3325 -250 0
-4793 -4992 0
-1338 3506 0
682 -3927 0
4580 -2190 0
-3716 -3586 0
4179 3343 0
4648 -3576 0
-2579 3757 0
2782 -3372 0
-2967 407 0
-3867 -3659 0
-264 3857 0
-2398 -1284 0
-325 4184 0
4368 -1217 0
-3497 -1633 0
-3707 -824 0
-3404 1243 0
-4031 -269 0
4638 176 0
-4551 -1507 0
-3678 654 0
-1620 4980 0
-1148 -2420 0
2707 3748 0
-4145 909 0
-4408 -1648 0
2829 -4749 0
4830 -4022 0
-3867 -4569 0
-830 3175 0
4013 3739 0
-168 4593 0
3727 2111 0
4428 -1352 0
3780 3242 0
-3949 -606 0
93 -3258 0
3320 3605 0
3517 -4208 0
4676 -2273 0
-3384 -1085 0
3502 -712 0
-3365 -210 0
-1244 -2186 0
-1354 -4256 0
2604 -3937 0
-620 -4073 0
4828 -2141 0
1012 2665 0
3804 -18 0
4340 -3133 0
3603 -2869 0
-3798 4436 0
-3101 2791 0
-1192 -3954 0
1514 884 0
-3887 4351 0
2788 4028 0
194 3689 0
4550 -1583 0
1846 -318 0
-242 -3135 0
-542 44 0
2556 2848 0
1579 2550 0
2441 -4358 0
-331 43 0
-4376 3575 0
-2452 4285 0
1847 -370 0
1960 1812 0
3473 2215 0
-3133 -110 0
2001 -4067 0
-171 -2486 0
1310 -3656 0
-3522 2091 0
-2679 2927 0
4262 564 0
4325 -3487 0
-418 2703 0
-4176 -1396 0
-601 -1855 0
3729 3939 0
3338 -2546 0
4330 -2351 0
2454 -4282 0
-19 1943 0
-1028 -500 0
-2251 334 0
-2992 1836 0
2027 531 0
3772 -3786 0
2091 -1674 0
3177 -1231 0
-3825 -4696 0
-1063 -4319 0
-1001 4420 0
3963 -2197 0
2088 -2225 0
363 -4773 0
-4140 -1354 0
1039 3262 0
2966 -2684 0
-4786 -4258 0
2291 -1399 0
-1830 1404 0
1285 -4808 0
-1153 -4172 0
945 2590 0
-2098 -841 0
3595 1250 0
-4015 -3342 0
-2982 3922 0
2641 -2905 0
3267 -3853 0
-2170 -3730 0
3411 -2177 0
3485 -2466 0
-1706 924 0
2310 -4251 0
892 263 0
940 4135 0
-868 -2035 0
-3748 4350 0
1100 2704 0
2854 -2824 0
4678 -733 0
3274 -1970 0
-1547 1164 0
491 -4800 0
-681 -4174 0
-4272 -1702 0
1825 1094 0
-3354 -3380 0
-515 -826 0
-1024 -3047 0
-4237 2829 0
1668 1788 0
4818 -3859 0
3208 390 0
3732 -2426 0
-1013 1367 0
4600 913 0
1781 -4902 0
-4928 1905 0
4407 1150 0
3924 -2863 0
-3723 -4414 0
1117 4501 0
1732 3784 0
-1311 114 0
1290 -193 0
-2423 492 0
4827 4656 0
1405 4821 0
1200 3472 0
-2373 -3130 0
3258 2670 0
-4115 -3481 0
2377 -4139 0
-3560 -3233 0
4745 1193 0
-2154 -2437 0
-3635 -476 0
-3067 -3055 0
3582 1971 0
-3817 -2205 0
-4215 -441 0
-4822 4529 0
-3193 4612 0
-2908 2428 0
2769 -3835 0
-4666 3267 0
-1261 958 0
-200 -2652 0
-3774 4091 0
-110 357 0
881 2086 0
-387 692 0
-4576 94 0
1687 -1629 0
-2268 1650 0
3601 3916 0
3333 3249 0
-4943 4039 0
-2523 -39 0
4360 4178 0
-4178 1231 0
2248 -4375 0
259 2072 0
-445 1556 0
1836 2113 0
-1679 3435 0
-3895 4 0
216 -639 0
2518 -1997 0
3340 2785 0
786 -2928 0
-2815 282 0
1906 -2281 0
-4566 333 0
-2889 1647 0
3212 -1755 0
92 -586 0
527 770 0
1082 2756 0
-1727 -4135 0
-3585 176 0
-362 -1198 0
4934 2281 0
-3032 3123 0
-1573 4481 0
1213 3557 0
1708 4944 0
2624 -3091 0
-2700 116 0
727 -747 0
-670 -1406 0
-1439 2669 0
942 -2598 0
4110 -4863 0
-784 -2636 0
-4910 3399 0
3345 -660 0
-3130 2116 0
2467 -1295 0
-954 1597 0
1118 -1333 0
-844 3151 0
-4778 -370 0
1573 -2794 0
-404 1550 0
2407 -4159 0
4501 -4520 0
-567 -1208 0
768 4529 0
-747 1799 0
2605 980 0
3116 553 0
-3403 -220 0
2880 1397 0
-758 2467 0
-395 1952 0
-482 1744 0
-4187 -4143 0
-3160 -907 0
1624 -681 0
4495 -3431 0
-4206 -2451 0
-2006 4027 0
-4460 -2107 0
-1900 3224 0
2291 455 0
-2415 -2713 0
-3426 -2243 0
-4594 -5000 0
1824 -3824 0
-168 -381 0
950 -4064 0
866 -824 0
-3089 628 0
-2471 1696 0
-551 4711 0
-2254 1046 0
-3532 -233 0
-1605 -1939 0
-4542 -4570 0
-1319 4803 0
-193 -2155 0
-876 -1298 0
-825 3059 0
4295 -3579 0
4151 4785 0
4798 959 0
2502 -4275 0
727 1737 0
-3131 -4704 0
-1093 2011 0
-2770 -131 0
-3693 -615 0
-838 -667 0
-3719 -4124 0
2660 453 0
-203 2280 0
-4135 -3213 0
1426 572 0
1909 -2941 0
-4442 3636 0
4965 3366 0
1781 3026 0
-4469 -150 0
-1820 2834 0
-2161 -644 0
-4267 -2374 0
2088 -3081 0
4070 3710 0
2179 1994 0
3980 -4311 0
-4604 477 0
2666 -1812 0
-3124 -3955 0
-2425 2090 0
2752 -1398 0
-2449 4147 0
443 3095 0
-3853 -3341 0
819 -936 0
-224 -4886 0
4797 -3076 0
-4490 44 0
-4534 -1253 0
4767 -1077 0
3063 -3289 0
-2921 2788 0
-3133 -1174 0
-2597 -2828 0
1744 3122 0
-1149 -1498 0
-321 -4192 0
1117 -4588 0
-3736 -1809 0
779 4260 0
-3512 3322 0
-3802 4303 0
3528 -3801 0
-118 -1487 0
1516 1154 0
4798 4789 0
-4376 -4651 0
-3206 -4060 0
-1939 -356 0
-2971 2051 0
4699 -2172 0
-1987 -1698 0
-2083 -1821 0
-1245 4307 0
-1450 713 0
-1502 -4247 0
-1616 -3876 0
-1928 -3451 0
226 4982 0
-3080 -3179 0
-336 2706 0
-1947 -3290 0
1536 2386 0
-4017 -3719 0
-3477 -2079 0
4676 756 0
-2979 -1718 0
4736 -1601 0
4242 -1378 0
-413 -1469 0
-2421 683 0
-1101 -2395 0
-801 -2534 0
1179 2418 0
1847 -3892 0
2111 4329 0
-576 -2738 0
2457 -2583 0
2290 -1259 0
-3590 -2871 0
-4996 -2451 0
452 2572 0
-3158 -446 0
288 -3021 0
466 -3059 0
-3781 -742 0
-4125 -408 0
2426 220 0
898 1018 0
-4061 -4492 0
275 -3724 0
-823 -4779 0
1424 -4848 0
-2702 -717 0
1547 1894 0
-695 -232 0
-369 1541 0
4449 638 0
-1720 2949 0
3221 -3661 0
-3295 4953 0
1288 2469 0
1239 3022 0
671 3291 0
4471 4882 0
3637 4860 0
4030 2973 0
2142 4752 0
156 -270 0
4622 164 0
-4056 -3195 0
113 2058 0
-1356 4491 0
4194 653 0
913 -4946 0
896 -1710 0
3546 -267 0
-138 2827 0
-3039 -219 0
2991 -2807 0
3320 -4293 0
4870 3526 0
-4584 -490 0
139 -2238 0
-281 3153 0
-255 1578 0
2893 -587 0
-3185 554 0
-575 -2894 0
-3205 1867 0
4691 -2032 0
-1708 -3309 0
1149 4199 0
3812 -1059 0
-1416 -4763 0
-1314 -3066 0
-548 -4654 0
3485 1734 0
-1723 -3750 0
-589 -1679 0
2319 3013 0
1712 308 0
4921 -4342 0
2889 3876 0
-4750 2990 0
-4158 4301 0
4481 589 0
4984 650 0
1426 -3859 0
-2063 -2913 0
253 2037 0
1877 -3504 0
-1826 2013 0
1354 2990 0
-989 -4863 0
301 -260 0
1527 4433 0
4977 1335 0
4277 -880 0
-3635 1252 0
4776 -1506 0
-1801 -2686 0
-475 412 0
-1586 4644 0
105 -1638 0
3014 -4280 0
3633 -192 0
1581 -4967 0
-2289 -3605 0
-759 3141 0
-3046 4340 0
4726 -569 0
-4352 2229 0
930 -2206 0
-2676 -2078 0
-2204 2850 0
2214 2353 0
1244 2345 0
-79 -4302 0
-3592 -3196 0
-3917 782 0
-760 -2962 0
-4621 4772 0
-1945 -3266 0
-3067 -4594 0
1008 25 0
-1636 3720 0
-2957 3712 0
28 -4669 0
-2972 2242 0
-4015 -430 0
429 4908 0
-3596 3260 0
-4014 -4106 0
-2186 1560 0
4482 -2053 0
1541 -1478 0
1638 4188 0
-3921 -961 0
-4994 -2359 0
2841 231 0
-2808 3924 0
1373 3190 0
3589 746 0
4081 4251 0
3833 -2859 0
-3483 -2444 0
-3045 -1396 0
-4785 -30 0
1034 833 0
2303 2265 0
1854 1017 0
798 1073 0
1634 -891 0
-377 -1494 0
1821 3121 0
3760 848 0
961 -1331 0
-3336 1231 0
-889 2871 0
-2895 203 0
2347 -331 0
3378 3989 0
1333 3175 0
-2071 -2301 0
-3021 -3790 0
349 4606 0
-3093 -3413 0
1744 -230 0
-4049 182 0
4485 -177 0
-1248 -191 0
855 -3310 0
-4707 -1166 0
3578 -337 0
1395 2012 0
2598 -593 0
-2865 -354 0
2139 2415 0
-4913 2996 0
-386 1348 0
-4540 -460 0
919 3151 0
4227 -2300 0
831 -1187 0
3425 -4485 0
-3870 -3443 0
2578 -2764 0
2897 3189 0
1990 -956 0
-387 3548 0
-4398 -2169 0
-1626 -1975 0
3793 961 0
-2414 4600 0
-1240 -1859 0
4533 3364 0
1617 4142 0
4909 -2556 0
-1286 695 0
-2801 -3771 0
4729 502 0
2387 -4290 0
3728 410 0
-2436 2199 0
-247 -2078 0
877 -2421 0
3319 1085 0
-1989 395 0
172 -2128 0
-1146 -2038 0
-2116 1114 0
542 3766 0
-2872 -179 0
-4794 4894 0
-1617 -936 0
4060 4535 0
-3219 1927 0
2844 -18 0
-4740 4982 0
4986 -3214 0
724 -486 0
4921 4442 0
2140 -3508 0
-4879 3218 0
227 3582 0
1876 -1269 0
1606 -4214 0
-1272 -568 0
1487 -694 0
-3693 192 0
-4500 3209 0
-1927 -1584 0
2876 -4275 0
3624 -2863 0
-3887 4092 0
-4852 -4513 0
-1700 4841 0
-579 110 0
-1346 -3424 0
4686 117 0
1256 297 0
3038 -334 0
-528 -2573 0
-1428 -1267 0
2468 -856 0
4966 21 0
2634 4394 0
-2801 93 0
3842 -4402 0
3506 -4913 0
2717 1217 0
-1663 -3255 0
-2709 1511 0
3513 562 0
-3886 65 0
-4184 -847 0
-534 -1435 0
-2090 -1106 0
4437 828 0
-2081 552 0
1252 -4288 0
4046 -4494 0
-839 1243 0
-3372 -2606 0
-2997 3280 0
-4917 -4439 0
2818 -2976 0
1325 1601 0
4038 -1586 0
-3440 -2076 0
3989 -747 0
-3256 -2694 0
-1302 3785 0
-3588 217 0
-575 -662 0
4889 -4509 0
4056 4168 0
-954 -685 0
1445 -4770 0
-1237 81 0
2137 -3388 0
4006 -1632 0
3642 2817 0
3258 788 0
3726 -2544 0
-1183 2568 0
-3717 3518 0
1271 -366 0
1637 2281 0
4109 2803 0
3169 -2155 0
-2775 3478 0
844 3268 0
-2621 -3565 0
4615 -1826 0
4664 -3073 0
2270 2876 0
-1964 4525 0
-370 4037 0
-4202 -7 0
-4267 -564 0
2013 3300 0
-3342 2701 0
1083 -2376 0
-2972 3254 0
4502 1463 0
-1639 -4776 0
-3921 -4448 0
1571 1268 0
-2595 1285 0
-4585 1848 0
119 -4951 0
-1069 2817 0
-3718 4458 0
-3124 -3276 0
-4419 -4396 0
-4954 1839 0
-4160 742 0
2832 -4816 0
-2886 -2706 0
3502 4996 0
2664 2449 0
-1601 -2286 0
-510 -3666 0
-1705 -1080 0
-2457 -1833 0
244 1311 0
2308 404 0
594 1121 0
915 4155 0
798 3576 0
1136 -308 0
1245 3282 0
2296 4524 0
-2768 520 0
2061 -3275 0
2847 -3711 0
75 -3683 0
-4365 2300 0
-3989 -2705 0
-3359 2932 0
-4169 -4547 0
-4512 1886 0
-4982 3789 0
-2575 -1760 0
4589 -752 0
-264 1718 0
4454 -91 0
457 95 0
-1247 -2166 0
3817 -703 0
957 -4531 0
-1185 4874 0
2324 -2540 0
-4734 -1649 0
1700 -803 0
2519 4109 0
-1902 -4943 0
-4064 788 0
506 3566 0
-4634 -1059 0
-151 -120 0
-1713 2612 0
2304 2910 0
-469 -126 0
-1243 1467 0
-1534 2315 0
2084 -4295 0
-1064 2037 0
-2109 -2227 0
-855 1505 0
1156 -713 0
-733 -1767 0
-359 -1722 0
-3658 2871 0
-1632 4883 0
13 -3278 0
-1175 -2189 0
-4748 3620 0
-997 -3361 0
1152 -3508 0
4406 1092 0
3646 -4394 0
-3719 4334 0
2756 -1250 0
-2450 3559 0
64 2244 0
2019 4570 0
-2296 -3344 0
-1599 4853 0
315 2787 0
-682 -657 0
-4588 -1148 0
-2766 779 0
728 1551 0
3962 3220 0
1029 2044 0
-271 1570 0
1285 -1898 0
53 4504 0
-2976 -1008 0
2932 2281 0
-2169 -4974 0
-2525 -4985 0
-486 2086 0
537 2529 0
-2309 -4242 0
2361 -3914 0
-4647 4502 0
2788 -1402 0
4275 2864 0
-3698 3654 0
9 3985 0
-1967 -3008 0
998 -3130 0
-296 3847 0
-4834 3935 0
2338 3712 0
-3484 4731 0
3582 4522 0
2001 -4837 0
4564 -2653 0
2452 -1779 0
-2743 3911 0
-3229 -1269 0
625 -752 0
-2157 -4521 0
3055 801 0
2670 -2827 0
3983 3111 0
-985 -567 0
689 -718 0
-2748 3792 0
-969 2654 0
2770 -1838 0
1600 -1789 0
2088 -2255 0
513 1653 0
-1706 -1705 0
-1971 -1082 0
2331 -2555 0
576 -2515 0
-3872 -3764 0
1072 294 0
-2510 -1548 0
-611 -847 0
-1330 -2599 0
-1427 4806 0
2835 -3648 0
-4218 2876 0
3066 -1612 0
-4456 1643 0
-3304 4956 0
3299 -4477 0
3818 2799 0
-2302 -3697 0
-1019 -2802 0
4496 -4990 0
-3366 -1660 0
-3778 -914 0
-4745 1585 0
-825 -2804 0
221 -4353 0
-3761 4105 0
-4281 -352 0
-3722 -1973 0
688 -3230 0
-1719 493 0
-2485 -4765 0
-3930 2840 0
2457 -2124 0
1616 3901 0
992 31 0
3415 -1507 0
-3042 -3609 0
-797 -229 0
538 -1785 0
1781 2287 0
-91 -954 0
828 63 0
-4964 -2185 0
2589 41 0
4459 3713 0
-3384 -4824 0
-2408 -3601 0
3180 3458 0
-3789 3008 0
-2302 791 0
1762 -4440 0
-4354 -3804 0
-2160 -1050 0
3747 3657 0
-3307 1908 0
3629 3220 0
-2464 -1850 0
-2261 2664 0
2585 -2976 0
-3729 -2101 0
922 2967 0
4723 -1011 0
3404 3199 0
170 -3934 0
4766 -4516 0
-3371 -3214 0
-3290 246 0
-1088 -2765 0
1304 -577 0
331 -4655 0
-4041 -4086 0
2793 571 0
1043 -895 0
4087 3210 0
-82 30 0
3259 483 0
-1675 -547 0
2906 -4285 0
1905 -3290 0
-1723 -1979 0
-718 -3531 0
806 4611 0
-2449 978 0
-3071 3825 0
-2149 2741 0
3689 -1873 0
611 -1797 0
1130 -3524 0
4451 3773 0
-3201 318 0
-2501 -47 0
-3979 -4298 0
3197 -4979 0
2948 2838 0
2247 3460 0
3658 -3569 0
-4968 3751 0
3705 2901 0
2137 -4746 0
-4016 -3995 0
4435 -498 0
-1211 1954 0
-1519 -2685 0
-4864 -2068 0
-495 -2212 0
-3699 3893 0
-2249 4676 0
-2005 4984 0
4624 -3279 0
1158 1670 0
1242 4802 0
3858 4412 0
-1048 -1263 0
4644 1236 0
3887 -1630 0
406 -2456 0
947 4300 0
-829 -1116 0
452 3159 0
-3248 2383 0
-3716 3805 0
2239 -319 0
-2373 -3729 0
1589 -2159 0
190 4390 0
-3601 -2939 0
-3384 -2941 0
-4670 -2865 0
-1924 -2292 0
123 -1274 0
1923 -4394 0
-4150 4577 0
798 -4742 0
466 -2510 0
-839 -2471 0
4989 3176 0
326 -1435 0
-4465 -526 0
2563 1664 0
3782 -3525 0
3334 4607 0
3982 1497 0
-3160 1577 0
-3737 -3639 0
-1821 -3659 0
4717 -2957 0
2072 -3389 0
-398 -1306 0
179 -772 0
720 -200 0
-3747 -1184 0
1181 4639 0
1800 -760 0
-492 3580 0
-3386 3208 0
285 1303 0
2398 -1760 0
147 2678 0
-2779 1152 0
2014 834 0
1179 -1106 0
1749 -3608 0
1151 -994 0
3299 -1588 0
-1001 3380 0
-32 186 0
-2333 -2464 0
-3875 -804 0
-3442 4438 0
3549 402 0
-3296 4434 0
2248 2900 0
857 -4920 0
4175 -1191 0
-614 -76 0
-4651 3186 0
1164 -3522 0
1581 -969 0
3399 3726 0
-2144 1556 0
2561 -3870 0
1586 -4742 0
2160 553 0
-2292 1664 0
-3682 2554 0
4136 1207 0
-2353 261 0
-4285 2986 0
613 1173 0
1417 -4431 0
-4621 -190 0
527 -2114 0
-2154 4839 0
-96 1415 0
380 -4213 0
4975 111 0
1505 -3940 0
3689 -4815 0
-3214 2813 0
-628 4582 0
-192 4271 0
4595 -1309 0
1301 -1253 0
3973 1662 0
1236 -615 0
-4599 1668 0
-1161 -1592 0
721 3120 0
-4175 -1845 0
4043 -2225 0
-4975 2066 0
491 3932 0
4385 2497 0
3797 -4072 0
-3167 -4822 0
364 1256 0
-1340 -824 0
6 1094 0
-1934 -4939 0
3022 -4363 0
-2385 793 0
3469 4852 0
2861 880 0
933 -2740 0
2074 1332 0
-2904 -1654 0
-3747 4882 0
-2210 1654 0
1820 -2323 0
-4944 4404 0
1687 -4476 0
-2771 -679 0
779 279 0
-4888 2673 0
-1370 -430 0
-2985 2436 0
4815 564 0
3031 -3370 0
1973 3833 0
838 -1597 0
1515 2504 0
496 -1869 0
4871 -175 0
2412 -1784 0
2721 673 0
1113 4986 0
-3056 -1347 0
-1830 -3570 0
-3587 1266 0
-2867 854 0
-1079 -3701 0
-1869 -3721 0
4362 -2210 0
4655 -3089 0
4471 -3145 0
-2398 1290 0
3867 1541 0
-4362 2228 0
4106 -2942 0
428 -3671 0
-2268 4861 0
-4941 -3043 0
-1088 -2832 0
4057 -2866 0
-4151 59 0
-4758 -2894 0
-1681 3985 0
1319 -3309 0
4981 -1540 0
149 427 0
-2846 -1666 0
-4417 -3407 0
-1805 39 0
3206 -1061 0
3536 776 0
3310 -3518 0
2150 2484 0
4667 -815 0
4433 -4102 0
720 -3775 0
4524 952 0
-1749 2624 0
-1674 -4121 0
-3088 256 0
-1157 -3445 0
4402 -2995 0
605 805 0
2210 1057 0
-4988 3653 0
435 -3002 0
3833 -3484 0
-4269 3500 0
-2754 -2716 0
-141 3392 0
2866 -608 0
-142 -4440 0
-3956 271 0
-1114 4247 0
1115 2867 0
-2575 3636 0
4512 -4289 0
-1052 1071 0
-4892 4503 0
923 717 0
4221 2436 0
2247 918 0
2523 2414 0
4092 -3081 0
1763 -2913 0
3182 -3134 0
3258 4870 0
412 2631 0
2992 1787 0
4523 649 0
232 1522 0
346 -4223 0
-2433 -3526 0
-952 -993 0
-1185 1687 0
-2967 4680 0
-2002 -4650 0
-140 3710 0
-1038 3330 0
3250 -3193 0
4481 -1380 0
-4885 -4897 0
-2344 1586 0
4356 -3339 0
3320 -808 0
-2456 -4512 0
4096 -3142 0
813 2234 0
4679 4543 0
1077 -4943 0
4343 372 0
-1560 225 0
-3275 3204 0
-3355 -399 0
-4977 -3480 0
-3021 -3772 0
588 -1289 0
2199 666 0
-1938 1675 0
-1219 1711 0
1848 121 0
-2611 380 0
-229 531 0
-525 32 0
4070 -539 0
57 -1946 0
-4641 -4497 0
-760 2320 0
-2328 795 0
-2607 3591 0
-2611 4183 0
-3016 4971 0
-3776 -2993 0
1451 634 0
-1466 -1808 0
-604 783 0
-1591 3540 0
-3444 -314 0
3874 705 0
-2567 1488 0
-3480 -2377 0
4291 1065 0
-4525 -1569 0
-3829 526 0
898 -2658 0
4798 -2450 0
3533 -4058 0
4249 -2260 0
-2151 2656 0
-3875 4502 0
-1661 101 0
-2640 -1633 0
4348 -4898 0
1382 32 0
-1639 4651 0
-1436 -2498 0
1153 -3914 0
-4648 953 0
2042 1074 0
-4651 -84 0
2556 2967 0
-3639 -3129 0
-4908 -451 0
-3058 2563 0
186 -4919 0
-832 117 0
4218 3112 0
4853 2203 0
4929 -1429 0
4302 2986 0
-887 2100 0
-4472 860 0
2746 634 0
-3739 207 0
-3365 -3529 0
-1767 -1621 0
-1528 2167 0
-3733 -2866 0
-2418 3274 0
4613 -1181 0
-2825 -1024 0
2986 -1282 0
3504 2364 0
-1914 -907 0
863 -2887 0
1407 -1684 0
2461 3990 0
-2564 -1984 0
-2008 -787 0
-1846 4699 0
-2452 -846 0
-3970 -744 0
-1069 -4954 0
-4323 -2411 0
-498 296 0
-1973 -3901 0
-1047 2295 0
2740 1231 0
4240 2556 0
912 -3393 0
1688 1526 0
-357 -3079 0
-1802 1354 0
-1557 -1188 0
2883 624 0
-4707 372 0
594 1209 0
-4215 -4633 0
906 -4443 0
1570 -3838 0
-2616 -2555 0
3307 1980 0
3958 -4866 0
123 -1669 0
-221 4069 0
3159 2142 0
-2526 -3089 0
-151 995 0
-4600 -2643 0
-2884 2065 0
-2418 191 0
-2129 -348 0
-3641 -72 0
2010 839 0
-2634 -2509 0
2886 -187 0
-4372 -777 0
4830 -396 0
586 4760 0
-2851 4565 0
4421 1185 0
258 2366 0
2502 2519 0
-2180 -1166 0
-3064 -2026 0
516 376 0
215 3026 0
-2599 4340 0
2707 -1166 0
-984 1253 0
194 -1348 0
-784 3197 0
-969 -4556 0
-4408 -1517 0
-1893 -4507 0
-1769 -4205 0
1155 -3160 0
4468 4464 0
2409 3386 0
4 1763 0
-4139 -2604 0
4235 -106 0
845 -3205 0
3696 4897 0
861 -3749 0
4652 2980 0
-3074 536 0
-808 3174 0
-1207 -3846 0
3530 37 0
1481 -602 0
2224 -4783 0
-1185 -3919 0
4557 -595 0
-684 -3066 0
-2787 2544 0
3755 -2717 0
3533 -2942 0
-4941 1794 0
-18 4742 0
3368 -4238 0
-474 271 0
-990 -4025 0
3646 -2601 0
-2108 -3245 0
-3085 3236 0
4015 -2532 0
-2128 -4920 0
-1877 2113 0
419 4911 0
-3477 570 0
3782 -3278 0
400 -3118 0
-4363 -4198 0
2781 2949 0
3785 -703 0
2068 -2602 0
-4818 -1055 0
2018 -4562 0
-5000 -2457 0
1203 -3908 0
-2661 -1889 0
-896 45 0
-347 4058 0
3750 3660 0
-3809 -2207 0
294 37 0
-4523 -394 0
191 -422 0
-83 4349 0
2109 1193 0
1864 -4702 0
-1398 -3773 0
3274 2683 0
4873 -2198 0
-348 3873 0
805 -2512 0
-4124 -1236 0
-2976 -4212 0
-3683 -4975 0
917 891 0
-2170 -1671 0
-402 4986 0
-1490 -2511 0
2287 -1171 0
-2543 -2261 0
-3785 3605 0
2821 1130 0
-767 4675 0
880 1976 0
-3415 -3369 0
-2438 -3508 0
-2894 -1030 0
378 1457 0
2830 -1306 0
1389 1736 0
-2041 3704 0
3461 -4762 0
1207 -837 0
4513 -1393 0
802 3402 0
-2314 3391 0
4883 2319 0
-909 4469 0
4346 3782 0
-126 1287 0
4817 -4258 0
-3874 2986 0
-2859 -1904 0
-2860 -2231 0
2680 -2313 0
4089 330 0
-3462 -1795 0
-4966 1516 0
1460 -3431 0
1678 -2805 0
3774 2225 0
-2195 2891 0
-1543 -2191 0
-1915 -2794 0
4821 1012 0
-2235 -3384 0
-1072 972 0
-4666 1931 0
-1385 -1171 0
4360 235 0
-2775 4818 0
-4929 4346 0
-3970 1302 0
-731 -3611 0
3369 -579 0
4583 3920 0
-4275 4617 0
-4969 1102 0
2146 -1991 0
1957 2924 0
-2350 -2935 0
-2684 3640 0
-1005 -2077 0
3995 1044 0
-1358 -2204 0
4414 -3505 0
657 -369 0
-4322 -4630 0
-1057 4450 0
-810 -2729 0
1804 3994 0
4254 -2530 0
4100 -4861 0
144 1908 0
-4644 -4871 0
-1028 -1478 0
565 -1707 0
4101 -4119 0
3095 1051 0
-4590 969 0
-1081 -2306 0
-887 1029 0
-1763 4955 0
3777 3557 0
-4114 -3717 0
2058 -4626 0
-1067 4872 0
2767 973 0
1753 3141 0
-590 3378 0
-272 1296 0
-3342 4834 0
-3330 487 0
-4630 2933 0
-4441 1318 0
-3139 -714 0
1221 -2826 0
238 -74 0
-284 -4626 0
-643 -4136 0
2808 504 0
3800 635 0
1618 -852 0
-3193 3486 0
-1167 4430 0
-758 1962 0
3930 -1963 0
3460 2891 0
-4303 -432 0
3246 2219 0
-3442 -3821 0
-2816 -3799 0
-4979 391 0
-4558 -484 0
2563 29 0
1936 -2243 0
1138 -912 0
1066 3856 0
2361 4671 0
-2838 -3956 0
-1842 4001 0
-2501 -3673 0
-2246 3936 0
710 572 0
2574 -1767 0
-1297 -1486 0
4643 397 0
-1435 1207 0
-2591 4052 0
-2879 1900 0
-4679 -1437 0
2246 -950 0
-1736 2219 0
-2301 2933 0
-1290 -3857 0
-2151 -405 0
-3290 3377 0
455 -4546 0
-4937 811 0
-1803 -543 0
3159 -644 0
-1014 4671 0
673 4553 0
-1308 -3860 0
-3744 -2505 0
-1081 177 0
-3470 4873 0
-2898 -2760 0
4404 2035 0
4034 -3464 0
4870 230 0
-796 -4548 0
-1744 -959 0
4436 -3494 0
-924 4176 0
3905 -3086 0
1357 -995 0
1017 -1498 0
3878 -3793 0
-1029 -430 0
1204 -3144 0
1987 -968 0
-2043 -4507 0
-3476 -2246 0
-2884 -3294 0
-689 4367 0
2899 2183 0
4005 2500 0
4881 -669 0
3330 3150 0
4526 1981 0
4436 3187 0
-1343 -629 0
-2868 1092 0
-2020 1319 0
2899 2932 0
4301 1813 0
2672 -808 0
-1778 -1087 0
3967 438 0
716 -3999 0
-4503 2425 0
1093 -1141 0
3320 39 0
4180 -3009 0
-2614 -498 0
3031 -3141 0
-1551 -1844 0
1124 -1130 0
-2077 1058 0
-3346 710 0
1399 4596 0
-3339 -4663 0
4962 48 0
-4728 -2321 0
4756 1013 0
574 -1210 0
-1051 -3371 0
-4103 -2120 0
-4811 -1981 0
2455 -4815 0
904 1931 0
-206 -2765 0
3318 1713 0
-2057 -1324 0
3950 2561 0
-871 921 0
-1331 3829 0
4604 820 0
1074 -2866 0
-1739 4703 0
-3348 2519 0
3234 -2359 0
1082 -1783 0
-3139 -1347 0
-3109 -4866 0
718 -1772 0
-1655 1825 0
-1468 -2794 0
-3136 -1225 0
-943 4366 0
3612 920 0
4608 -4349 0
2073 -4857 0
2885 2223 0
1993 -4575 0
-1399 1274 0
2982 2357 0
-2818 1250 0
-2419 4183 0
3703 2248 0
976 4294 0
701 984 0
-237 -464 0
-3999 -4856 0
560 2747 0
-2526 646 0
670 -2343 0
3625 -4836 0
1300 -4189 0
1512 -3293 0
-567 2677 0
3413 -4669 0
2361 -4723 0
3784 45 0
-566 1886 0
-4623 2411 0
2741 4216 0
-4630 -4845 0
514 2410 0
-3064 -1346 0
3381 4871 0
-149 995 0
-3750 1650 0
-1361 3928 0
-1630 466 0
-4354 -1798 0
1973 -4408 0
4944 -2017 0
3761 1112 0
1908 4472 0
-3588 1066 0
-3933 -2540 0
-3255 -2452 0
1605 -1093 0
3533 4221 0
623 -3867 0
-2459 -2927 0
1668 3592 0
-1112 -2743 0
2104 -1902 0
1767 3842 0
3613 -3894 0
3215 976 0
137 54 0
-294 -2024 0
-4068 3619 0
4279 4906 0
-3288 1533 0
-1076 1162 0
54 -1041 0
3825 -1651 0
2229 2581 0
2467 4425 0
2207 -1872 0
-2575 4919 0
131 1984 0
-105 -985 0
-4372 -989 0
-23 -2616 0
3224 2522 0
-4109 472 0
-3245 -2830 0
-1799 4129 0
-3708 3708 0
-904 -2186 0
3885 2928 0
-654 4044 0
132 1395 0
-1819 -3330 0
-4793 -2310 0
-4305 -1429 0
-2206 -3325 0
102 -2937 0
1344 4187 0
2812 -55 0
11 -4344 0
2325 1691 0
1701 -562 0
-632 1957 0
3918 1280 0
-2901 851 0
908 -4060 0
-2520 -2855 0
3728 546 0
4547 -4052 0
-2642 -4904 0
2424 877 0
4309 4631 0
297 -3366 0
2900 3492 0
-2399 -3788 0
4301 -3202 0
4060 1101 0
2094 2568 0
1163 -4792 0
2260 4439 0
1530 -985 0
-3925 -824 0
-4139 4452 0
-327 3621 0
-2775 -4442 0
-3590 -2207 0
-2198 1231 0
2102 1780 0
-3604 3683 0
-3635 -1508 0
158 1123 0
-2015 -1035 0
-1507 4942 0
-497 -3809 0
-3521 -1543 0
-2083 1647 0
-2982 3547 0
43 -3969 0
1342 2295 0
-2398 -1007 0
-2271 -1971 0
3272 -993 0
-1659 4639 0
2711 953 0
-2367 1022 0
-3181 -2342 0
-1367 3210 0
-316 1255 0
2622 -722 0
4191 4595 0
-3915 2681 0
-1359 248 0
-4511 -4317 0
3794 -3299 0
4972 -3931 0
1724 144 0
4312 4060 0
693 -3817 0
-3473 2137 0
-857 -3047 0
3637 32 0
3545 -3976 0
-4458 3430 0
-4773 -3263 0
-3447 -3281 0
4067 -1759 0
-1188 -217 0
-4981 -924 0
-3451 4766 0
3608 -395 0
-3145 -926 0
4482 3108 0
-2981 -3668 0
-3403 -1015 0
4137 618 0
-643 923 0
3811 2304 0
1018 1011 0
480 -3620 0
868 3126 0
4164 4099 0
-3873 3038 0
-4573 -168 0
2522 1878 0
3856 207 0
240 -4889 0
2487 970 0
-4745 2222 0
-3059 -1530 0
3630 -3397 0
3423 1328 0
1392 -2820 0
298 -2770 0
972 -4251 0
1929 -3214 0
835 -4816 0
3091 2817 0
-3824 -578 0
688 -4873 0
4747 -4584 0
-4015 2232 0
4237 4886 0
2214 -4571 0
-3653 -2008 0
-2655 240 0
-3712 3453 0
2701 -1396 0
-557 -1521 0
-2909 2135 0
-3626 2456 0
3459 1128 0
4777 -2953 0
4299 -826 0
-3922 4058 0
-1311 -4290 0
-1260 234 0
-348 -4505 0
4160 2843 0
-1116 959 0
3615 -2207 0
2376 -1877 0
3923 2914 0
-3922 2086 0
-542 2345 0
-3933 2592 0
-478 2540 0
-778 78 0
-2240 -3793 0
-2252 -4121 0
-1474 3650 0
-681 -1809 0
-4779 -3115 0
2341 1628 0
-358 2500 0
-4362 1732 0
-1801 -1936 0
-2281 -498 0
1979 -1508 0
-2859 2606 0
-3964 -1498 0
-4285 -3511 0
3861 346 0
1401 4196 0
381 -1028 0
-4801 -2772 0
1285 -4548 0
843 2711 0
-1005 644 0
4247 4707 0
-3578 777 0
-4513 245 0
2518 -1580 0
-3507 1176 0
756 -3809 0
-2157 3278 0
-4315 -4518 0
559 1628 0
403 -2524 0
-3253 1266 0
-3364 -4443 0
627 4096 0
-2012 3937 0
-4945 -3008 0
4830 3368 0
3533 -3771 0
2046 2691 0
-1562 233 0
958 344 0
4446 -1258 0
-2672 3471 0
234 -1305 0
388 3300 0
4837 -455 0
-596 -90 0
4677 2523 0
-1877 -3886 0
-4146 -537 0
4153 696 0
790 3767 0
-2948 4028 0
-4033 -2183 0
1071 3460 0
-1233 194 0
-4655 -1853 0
4446 489 0
4718 4325 0
-4090 3805 0
4295 2036 0
78 -4497 0
1393 4314 0
-2205 -3958 0
1544 1829 0
-1248 -1896 0
4373 3431 0
1729 -2839 0
2067 -2766 0
-1063 3592 0
-1707 3116 0
2785 628 0
250 1851 0
279 -2314 0
2376 3671 0
-481 -3452 0
2813 -3516 0
1058 1699 0
3161 -3507 0
2871 -1035 0
219 3691 0
3078 2049 0
1592 -1295 0
-2019 -189 0
-1720 3529 0
2900 -2010 0
-118 -3568 0
1604 -4589 0
-4000 2397 0
-228 4472 0
-1596 2649 0
-4469 3553 0
-3779 -2087 0
3261 -4151 0
-2062 -4383 0
4772 -4464 0
-3685 -3777 0
2849 -177 0
-2259 -1721 0
925 2390 0
-4469 1803 0
-3972 -2734 0
-1955 -4704 0
1867 -1241 0
-12 -502 0
3999 -2793 0
-4770 -4254 0
3307 1456 0
-4836 -3098 0
-461 -2340 0
-2434 -1772 0
-2154 2682 0
-3779 -4716 0
1490 -1653 0
-4765 1167 0
285 600 0
-1196 -322 0
59 -842 0
-858 -543 0
-4352 -1975 0
-3859 2787 0
2816 -949 0
-632 956 0
2574 -3349 0
4936 -2112 0
2975 2767 0
-3471 -3434 0
1689 -947 0
4739 625 0
-269 4581 0
1125 -4971 0
2143 -1819 0
4157 -2883 0
-2701 -4172 0
-910 -1766 0
-1464 -4809 0
4249 345 0
-770 -652 0
-943 652 0
-3227 3405 0
-4126 3238 0
-2438 783 0
3073 -2161 0
-3027 2453 0
-2898 3821 0
-4974 -4728 0
-2053 4633 0
-2176 -3102 0
-3546 -4549 0
-4537 -732 0
258 1363 0
2524 3540 0
1460 -2418 0
-2680 1430 0
-3064 1320 0
3406 -4622 0
3948 869 0
2954 3238 0
3383 3082 0
-699 749 0
3519 3038 0
-214 3848 0
-4833 2764 0
-936 1769 0
-798 -3016 0
-3362 -525 0
2767 -80 0
-1639 -3753 0
-4361 -900 0
-2872 -22 0
-4976 -1665 0
117 2369 0
-4737 629 0
-2588 -3009 0
-423 -3885 0
3529 999 0
1515 401 0
-4868 -3958 0
-4251 4236 0
4493 -3526 0
2404 -1305 0
4461 -4068 0
1174 4017 0
-4223 2277 0
4264 -1804 0
4589 -2419 0
3895 -380 0
1341 -1220 0
4911 3687 0
-2002 4442 0
3687 -215 0
4636 -1307 0
-4753 -718 0
1632 -4978 0
630 978 0
4286 -2558 0
-3852 -555 0
-2038 1692 0
558 -79 0
4405 1782 0
4660 -1726 0
-354 -1117 0
3897 -1679 0
-4961 -1648 0
-4957 -4181 0
4818 935 0
3952 -1450 0
-503 4637 0
965 -1647 0
-4448 4517 0
4451 -491 0
1295 -4075 0
-4616 2000 0
2292 -714 0
4076 3122 0
-2013 520 0
-3219 -3086 0
-2548 3848 0
-642 -3808 0
-3258 2536 0
-3288 996 0
3965 4420 0
-3991 4265 0
4183 1935 0
2744 -675 0
-1584 -4740 0
172 -4701 0
-4654 -2522 0
-3781 4029 0
4393 350 0
3642 -566 0
2381 4458 0
3530 -2353 0
-2078 935 0
837 -1128 0
-4149 -2509 0
325 -4829 0
3430 -2207 0
109 2056 0
-643 -330 0
-89 -446 0
735 992 0
-1076 2816 0
2132 2606 0
1033 887 0
-3966 2695 0
605 -4240 0
3692 1501 0
-3762 -3960 0
-4791 4467 0
-4601 -3779 0
-1297 1571 0
389 -3043 0
998 -2573 0
4953 514 0
98 4659 0
1260 3971 0
218 -3701 0
-3949 2813 0
388 2348 0
4572 24 0
-1857 3654 0
2545 148 0
-2976 2821 0
1725 1354 0
3148 861 0
3753 -3056 0
-446 -2344 0
4925 -784 0
3555 -4588 0
4355 -1551 0
2502 4200 0
1670 -800 0
1033 -288 0
-3122 -3412 0
2788 2542 0
-2736 4565 0
-4286 -4079 0
2977 -2332 0
2018 -1355 0
-4335 3966 0
-1006 -1753 0
768 -4308 0
2697 4153 0
-817 2117 0
-4771 4217 0
4286 3794 0
2027 -2197 0
-3692 3559 0
1426 -4140 0
4223 -2946 0
-777 -1312 0
1048 -3405 0
2695 -1409 0
-4152 -963 0
1245 -3763 0
-2049 -4735 0
-702 4204 0
3247 1365 0
-2106 2996 0
-1526 -268 0
-2155 -3116 0
-4599 3371 0
2798 1527 0
-1708 -3952 0
-3834 -3283 0
2122 1987 0
-1938 -3873 0
-195 3718 0
3153 631 0
-170 -3204 0
808 -3857 0
-4373 -816 0
1022 -3488 0
4413 2585 0
2263 3272 0
672 -2964 0
255 -2718 0
-1200 2674 0
-4721 266 0
3856 -30 0
957 256 0
-3554 -3226 0
3340 -1850 0
-3481 3473 0
1529 -4042 0
880 3704 0
3643 4159 0
-2021 -3510 0
4226 -1175 0
-4599 -4743 0
-2751 3204 0
-1591 3005 0
3737 494 0
4919 -3103 0
2018 3041 0
734 -3021 0
-4178 4608 0
-4908 -1113 0
-1617 4535 0
-458 3617 0
-4695 1844 0
-2787 2655 0
-3611 684 0
1818 3408 0
3182 -4173 0
-4517 -3204 0
-2366 -3309 0
3643 -2839 0
4702 1274 0
-2767 4371 0
-871 -1023 0
2690 -2233 0
782 524 0
4948 -2938 0
3068 4265 0
2961 4676 0
750 1532 0
4126 1689 0
4635 1415 0
-1142 4145 0
-395 -611 0
-206 -1955 0
-1098 1456 0
2119 1865 0
-291 3162 0
-542 -861 0
-2717 -1059 0
2208 -1238 0
-795 -3933 0
-3979 4387 0
-4051 3835 0
-4042 3456 0
-1165 1931 0
-2394 -4737 0
-71 1866 0
4111 -2600 0
-3605 -601 0
1279 2433 0
101 -3884 0
3974 3889 0
4756 -4847 0
-3737 -1755 0
-2757 1158 0
-3866 2911 0
-3564 -4672 0
1865 -2106 0
2943 2544 0
-3427 267 0
2998 -2782 0
-2859 4144 0
199 1451 0
1945 850 0
2544 1749 0
-1847 3543 0
2122 -625 0
3273 -2815 0
-2247 1376 0
3910 2111 0
4081 26 0
3770 530 0
-1971 -1485 0
-3143 1871 0
-1351 -4541 0
1070 -445 0
-1621 -2533 0
-1882 -2526 0
-990 2304 0
-430 -2699 0
-368 -923 0
3905 4092 0
3344 2589 0
-4731 1467 0
1052 -4513 0
-2451 -2118 0
-3591 -4004 0
1687 -771 0
-915 -4110 0
3388 -66 0
-2939 -4121 0
-4971 -2316 0
-1284 -1798 0
100 2932 0
-3885 1992 0
3439 1055 0
2562 -2583 0
2084 -2002 0
1146 -4627 0
-4433 -1639 0
2067 2354 0
4177 4197 0
-650 3384 0
-2407 -855 0
-4748 -1196 0
4722 -3125 0
-3757 1550 0
-3570 -1870 0
-2957 4067 0
-343 3753 0
-2407 -4441 0
-4504 87 0
-197 -360 0
-1567 2445 0
-4120 3401 0
342 -442 0
2342 4996 0
1111 -1417 0
2821 -2243 0
-4691 1558 0
1299 912 0
2811 -3668 0
2545 439 0
-1318 4264 0
-48 2268 0
4455 1758 0
-1591 -3984 0
-4779 -3338 0
-1659 -3835 0
2770 982 0
2323 -2856 0
1683 641 0
1133 -2181 0
-1349 -2294 0
3673 -233 0
-914 -4607 0
2582 1869 0
-563 -488 0
1963 4426 0
2677 -2549 0
3345 3645 0
-4168 2571 0
-4669 3020 0
4717 1473 0
-4520 3147 0
268 -3933 0
3404 -2820 0
-4951 -1860 0
3498 -1010 0
-3044 4771 0
143 2818 0
-731 3772 0
2953 -4000 0
429 2849 0
-512 1184 0
-2334 -2167 0
-1198 4589 0
3003 3136 0
1430 -1049 0
-3667 -3862 0
4938 791 0
-2776 468 0
3998 -2715 0
-1922 4798 0
-2715 -1278 0
4848 336 0
-1093 1110 0
-2121 -3086 0
1357 2823 0
-80 -4260 0
1519 344 0
-4864 -4025 0
976 1315 0
-4308 -2289 0
-664 -1 0
4038 -1135 0
-3872 -195 0
1776 -1611 0
-4552 -2688 0
3621 -4129 0
-242 2845 0
-932 660 0
-3923 4769 0
2393 -4742 0
-2114 -310 0
-3430 -3909 0
1558 3882 0
-960 -2667 0
-824 -3278 0
-772 4525 0
389 -1607 0
-1869 -3681 0
-1479 2214 0
2232 -2784 0
-987 862 0
-420 -2653 0
-4761 -3759 0
2706 -3741 0
-1660 61 0
1559 -3941 0
3805 3217 0
-537 -4473 0
-4910 1618 0
-1114 4451 0
1488 4297 0
1448 786 0
3773 -4600 0
4454 -985 0
-4840 3182 0
1445 1635 0
-4139 -643 0
992 3998 0
4111 -4461 0
1995 891 0
2434 3784 0
1037 1410 0
2422 -3202 0
-1895 765 0
-36 -3364 0
2281 -302 0
643 225 0
4927 2347 0
-1311 1966 0
24 -4520 0
2253 -927 0
1196 3874 0
-2491 -3938 0
-3895 -2708 0
3617 -2332 0
-4710 1711 0
1996 1741 0
-4754 -3175 0
-2309 -2962 0
-1416 145 0
-1312 2689 0
1777 -2872 0
460 3331 0
-4438 2289 0
-3692 4323 0
1729 -4464 0
2384 616 0
-707 2834 0
3586 3712 0
-650 3401 0
-1112 -975 0
2908 3173 0
1933 -1357 0
1576 -2452 0
-141 -390 0
-4620 4246 0
48 -2961 0
2703 4519 0
-181 3770 0
4616 -1330 0
-4416 -3872 0
4645 976 0
4612 -3321 0
3655 -3923 0
-4762 -788 0
2179 4858 0
-1917 -3330 0
2527 -4292 0
1457 312 0
4729 -3602 0
-4942 46 0
2210 4133 0
-2034 -1060 0
728 2123 0
2873 -1858 0
-8 -4102 0
917 3407 0
1983 -2971 0
-3214 1817 0
2671 4078 0
3061 684 0
-4080 680 0
2684 -1453 0
-3668 -3481 0
-3978 1019 0
4208 336 0
-4136 223 0
-2694 2592 0
-4443 -2598 0
1177 -2245 0
2009 3985 0
-2872 2838 0
4062 -3390 0
1302 -2725 0
-3930 2106 0
-2421 3941 0
-3614 -1311 0
-3265 -4901 0
1631 3450 0
-4166 256 0
-4743 4166 0
129 -1848 0
1658 -3782 0
-2165 1480 0
3076 1574 0
-4634 472 0
4072 1189 0
3967 2127 0
-3140 -1636 0
-355 1694 0
-1963 -4796 0
3506 3025 0
-3925 -2474 0
3739 4528 0
-2356 4135 0
1588 -2567 0
3533 -2384 0
2102 2958 0
-277 -2036 0
1262 809 0
193 -3501 0
4368 3850 0
874 638 0
404 -3497 0
-870 4975 0
2151 -3868 0
-2828 -3355 0
2878 2382 0
-3340 -2258 0
1608 2940 0
-2464 4568 0
-1551 -217 0
2770 -3717 0
-1470 -1830 0
2137 2749 0
2171 1004 0
-1110 2777 0
4362 3145 0
238 3377 0
2625 -1494 0
-2148 -161 0
-1344 4003 0
460 3340 0
2669 2624 0
1383 1635 0
4312 802 0
3169 1556 0
-1524 1125 0
-4300 686 0
17 2384 0
-1318 2057 0
3271 -2912 0
1042 -3524 0
-2871 -442 0
-4850 961 0
4471 -2702 0
-3919 2696 0
4263 2436 0
4371 1588 0
-4964 -4078 0
2102 3582 0
725 3448 0
-1436 3577 0
-3652 -2869 0
4842 -274 0
-2743 -4776 0
-4258 -559 0
-3856 -1351 0
1066 -400 0
2566 490 0
3916 -2635 0
3797 -3196 0
-90 730 0
-2126 -3917 0
2275 -2295 0
-1719 3075 0
986 4549 0
1683 -1774 0
2596 3398 0
58 2892 0
1426 -1132 0
-2148 -1396 0
-1262 -1286 0
-3910 1027 0
2460 2458 0
138 4587 0
-2792 -2125 0
-1804 2562 0
-4738 2197 0
-3993 -506 0
1724 -4669 0
423 2617 0
1566 1578 0
-3866 1315 0
-3714 -3377 0
1592 1763 0
-3154 3620 0
1343 -1642 0
-935 2585 0
3511 371 0
-3181 2016 0
-1481 3332 0
-3735 -3626 0
2136 -1528 0
4193 4694 0
2563 -4417 0
-4212 1699 0
2231 2834 0
-1257 2657 0
-1783 1605 0
2261 2967 0
2906 -1042 0
1303 2952 0
324 -1808 0
1227 2823 0
-1809 4477 0
-3704 1520 0
-2904 -3720 0
3429 -4311 0
-4461 3909 0
-1607 1297 0
-1663 -229 0
-3937 -281 0
4031 -1421 0
1807 -3903 0
2050 -1333 0
4305 1538 0
2618 -3405 0
1281 1791 0
3221 -392 0
3985 -924 0
-2602 -433 0
-3462 1784 0
1458 -4136 0
-2701 -2157 0
4272 -4810 0
-3666 2471 0
-2021 -566 0
4377 -842 0
-3071 643 0
-1628 -2375 0
2085 855 0
-1207 -4896 0
-4910 126 0
-2152 2857 0
479 -4189 0
3531 3133 0
-1241 -1121 0
-610 -1530 0
-4389 1769 0
4373 -3749 0
-143 -2546 0
-3741 1810 0
882 -2030 0
4521 -797 0
-435 3216 0
3332 1813 0
-3766 3257 0
-472 3076 0
-1216 4263 0
1375 -3802 0
-2191 1883 0
1934 -2869 0
1960 -4192 0
-4029 4394 0
874 4745 0
-4409 1475 0
3222 -2098 0
4067 816 0
2795 4149 0
-3979 1385 0
994 -3608 0
988 -3660 0
3235 -4183 0
1676 -3463 0
-261 3527 0
653 877 0
-768 1961 0
1259 -1890 0
-3755 4647 0
2720 -1673 0
4797 -657 0
4093 2787 0
-3826 -2565 0
4468 -4083 0
-2555 -2514 0
956 2644 0
-4160 -4991 0
-2332 -1944 0
-602 3647 0
2778 2612 0
-3554 -2158 0
-2894 2120 0
2628 -1669 0
2527 3220 0
3404 -4975 0
2665 -1838 0
1119 -2592 0
-1619 -3489 0
-2727 -4829 0
2002 -3750 0
-1099 -412 0
-4693 -1670 0
-2243 676 0
-595 -3112 0
-1925 2017 0
1974 2457 0
-852 643 0
-2907 3596 0
-1244 4071 0
2649 3184 0
-330 346 0
1756 3962 0
-4260 -2550 0
621 -4007 0
3139 3596 0
-2442 -2029 0
1115 587 0
-3370 -2075 0
-1236 1228 0
-3609 3149 0
-4522 -3277 0
-806 -270 0
4487 4706 0
-1122 -492 0
-136 1634 0
-2074 -1270 0
811 -3424 0
-187 -1415 0
-4707 -1284 0
3591 2041 0
-3120 3357 0
-3908 -2063 0
4017 -2774 0
479 2665 0
-816 273 0
1692 -4196 0
-3534 -4777 0
373 3121 0
-2691 -4452 0
-4822 3980 0
-3573 -4743 0
-936 2404 0
-2026 -2687 0
656 67 0
-1936 4425 0
-4959 3876 0
-2170 2726 0
-1464 -3367 0
-1010 -4584 0
3617 -2488 0
3888 -3671 0
112 -314 0
4981 -3771 0
706 -149 0
-1752 -2634 0
-595 3958 0
2960 -2125 0
4136 1547 0
-3370 -793 0
807 -392 0
706 -3133 0
1430 4187 0
-4876 -3320 0
-4921 1847 0
-4161 32 0
-3465 -3374 0
-3136 4346 0
1891 3223 0
-1057 2262 0
3175 -2032 0
-2412 -11 0
-3673 -2121 0
-3111 2976 0
-2899 798 0
-951 -561 0
-996 3134 0
1604 -2797 0
3418 -356 0
-4793 -1083 0
-2426 554 0
4759 2917 0
1910 4209 0
3850 -4663 0
-2427 -4873 0
2111 -4682 0
4752 -4884 0
-94 1758 0
-3410 -3415 0
3056 -1767 0
1724 3642 0
2338 -3567 0
2576 770 0
4325 4459 0
-1465 -3724 0
-2511 2465 0
538 -4185 0
3075 -3564 0
-2961 468 0
-964 2351 0
4907 1943 0
1350 -1261 0
3767 -1509 0
-4075 2987 0
1824 4268 0
2196 -745 0
-3707 -336 0
-4934 -2372 0
-3885 3041 0
1360 -4085 0
2741 3070 0
3679 3892 0
1658 -3708 0
-1316 -1597 0
4885 -3790 0
4698 1245 0
632 -941 0
4238 -795 0
-218 -4794 0
-3632 -3759 0
558 -4241 0
2844 -1532 0
-1803 3913 0
-2166 -2591 0
-1267 -535 0
2624 -2730 0
-1605 1652 0
-2055 -928 0
2236 -1936 0
4624 -2813 0
-3918 271 0
1033 -86 0
-3996 2158 0
-723 -3107 0
-594 3401 0
-3581 -949 0
-549 3502 0
-1938 -4617 0
4021 -1777 0
-4413 -75 0
500 2934 0
-3844 3417 0
-4597 -1580 0
4784 4912 0
-942 331 0
4858 1395 0
2241 -1691 0
1840 4682 0
489 4199 0
-3458 -4363 0
-1349 507 0
-2748 4508 0
-577 -1347 0
-480 2136 0
-1887 -2328 0
3506 4599 0
-2718 741 0
-1747 2732 0
712 1404 0
1229 -139 0
-3367 3795 0
4466 2769 0
4400 -2603 0
2242 -1767 0
-306 -2656 0
4852 -3196 0
-2704 1469 0
2562 -870 0
2707 -2654 0
-3242 -56 0
1304 4822 0
3191 4920 0
-3096 -3152 0
-677 3938 0
-1281 -1876 0
-3373 4933 0
3475 21 0
1839 3506 0
1287 3556 0
3547 -2119 0
2039 586 0
4202 4817 0
-1679 527 0
2391 3971 0
-4654 -1667 0
3054 3563 0
-4445 -2736 0
-3847 863 0
3562 1114 0
-1834 522 0
-2876 -4056 0
-2512 1684 0
798 1410 0
-3083 -3464 0
-3047 3540 0
2900 -2777 0
-2686 -669 0
-16 3262 0
2782 4647 0
-2761 -1805 0
-2453 -920 0
-2659 -3512 0
836 2396 0
-2238 1998 0
-4278 4637 0
4933 477 0
1923 -3374 0
-4906 -4653 0
3896 -956 0
873 -1124 0
-2406 -2451 0
4831 -318 0
-3888 -316 0
-4324 3898 0
4568 -3089 0
3662 -1902 0
4977 -3721 0
-385 -4453 0
1621 2280 0
132 4253 0
2744 934 0
4044 4320 0
-4544 -2950 0
173 -4737 0
2357 -795 0
886 2813 0
3217 4526 0
3236 -619 0
4471 -2326 0
-2429 1938 0
-1565 -62 0
86 3401 0
-2068 4998 0
-4344 -3981 0
3523 4535 0
3160 3754 0
1495 -3315 0
-4239 -4107 0
981 2141 0
828 4764 0
-856 -2431 0
3784 -109 0
1758 3955 0
-652 3488 0
1055 3172 0
1550 924 0
-2925 -1934 0
-2123 -1480 0
3294 -171 0
-743 -3196 0
3543 3595 0
-3524 3167 0
-166 2005 0
-2572 4439 0
1160 -2385 0
-106 -2620 0
-3236 -4954 0
-3949 916 0
-3610 3119 0
-3995 3765 0
4415 -490 0
-349 -476 0
-1560 950 0
290 -3585 0
-2398 -2349 0
2960 -1631 0
1919 1580 0
4582 -2387 0
2609 3562 0
3951 2552 0
-309 -745 0
-1590 636 0
173 755 0
-4937 -740 0
-1185 606 0
3636 -2607 0
-892 48 0
-2213 -4910 0
-21 1544 0
-2608 2310 0
1376 1648 0
-390 -4164 0
-1067 4367 0
1590 995 0
-1822 -1475 0
-290 -366 0
-4944 691 0
3717 230 0
-2670 366 0
-4438 -1926 0
-36 2555 0
3386 -1873 0
-3502 4785 0
1243 3368 0
-3198 2781 0
-2352 -3800 0
-1011 1539 0
3655 4283 0
3029 -4337 0
-1215 -393 0
-15 659 0
61 1724 0
-533 -3081 0
3176 -3415 0
1793 -4761 0
-4085 514 0
-1719 4370 0
-1358 1368 0
-3004 639 0
1873 41 0
2110 364 0
-3245 -2776 0
4570 -1046 0
-2549 4024 0
-65 2099 0
-2280 918 0
-2800 940 0
-493 1013 0
4513 -3863 0
-2343 -974 0
-3224 2517 0
844 -1668 0
2785 -1892 0
2553 -2872 0
386 -1633 0
-1961 -2687 0
-134 2375 0
-3951 -4308 0
-3309 3026 0
-4260 841 0
3745 2975 0
4815 -1870 0
1320 -3911 0
1396 3326 0
-465 2538 0
4598 1635 0
1819 -635 0
2159 -2663 0
4900 2330 0
4326 -2484 0
-1163 -2734 0
-4259 -772 0
-3136 2264 0
-4365 -4330 0
-3892 217 0
-2450 3097 0
-4404 2678 0
-1628 -211 0
-2329 -3515 0
-1166 96 0
-1122 -3316 0
-4347 2242 0
4903 -2658 0
2944 2620 0
141 -1737 0
-2417 -3575 0
2086 -1768 0
4106 -2003 0
4739 -2894 0
-2342 -3067 0
3889 -4729 0
489 3657 0
-1152 -3014 0
1647 1408 0
3228 2132 0
-3911 -1349 0
-832 -753 0
-1438 -945 0
1096 -866 0
3142 4021 0
567 -1305 0
-2198 2242 0
-2145 -1887 0
43 -3521 0
3360 3712 0
-1607 -3513 0
-4596 958 0
-2138 -58 0
1279 4691 0
-2740 2623 0
517 4477 0
2974 -1492 0
2199 -484 0
676 638 0
-3518 -4798 0
2536 -2435 0
248 -3335 0
-4716 83 0
1567 -4275 0
8 -914 0
1536 2652 0
4604 -31 0
2920 3809 0
2785 -88 0
-4020 4585 0
115 -3404 0
-4764 -501 0
1217 -3884 0
-479 4484 0
4517 42 0
505 3218 0
1657 4229 0
-725 1411 0
4964 -839 0
-70 -4754 0
916 -1841 0
4455 -4522 0
-3424 -3349 0
-4966 -3806 0
1217 -1812 0
2557 -2957 0
2870 -2944 0
-4052 4502 0
-3676 -2034 0
3715 336 0
1866 -1422 0
-175 -4036 0
-1585 -4026 0
-2743 663 0
-1635 -23 0
-2756 2540 0
-4139 2622 0
-4290 1926 0
3643 3153 0
4296 -4941 0
-1368 -2412 0
-2132 -449 0
190 3155 0
-1218 3694 0
4064 2391 0
890 -2648 0
3134 -3152 0
1103 2215 0
55 -2257 0
-725 1818 0
-2100 -4968 0
4105 1617 0
2364 -960 0
-1530 -304 0
418 3078 0
-3799 1553 0
-3214 642 0
3916 4692 0
-416 3078 0
62 -2451 0
-4418 -759 0
-2466 4477 0
4551 4295 0
4259 2193 0
-1492 -4544 0
3030 2212 0
4345 -3315 0
4728 -611 0
2009 -2819 0
-2964 2145 0
2232 4135 0
-501 2390 0
1811 -101 0
-784 3548 0
4775 1684 0
-4005 -3663 0
-4594 -2607 0
1042 -1904 0
2627 -3624 0
-709 3688 0
3399 -618 0
3644 2467 0
968 -1295 0
-533 -2531 0
1887 630 0
941 3153 0
3958 1707 0
-1450 2620 0
-4546 2085 0
4886 3292 0
3975 -3497 0
3513 -3806 0
2244 2368 0
-2591 2441 0
-2240 -3804 0
3225 3871 0
2939 3572 0
1558 4384 0
-2926 604 0
-3852 -912 0
-3966 2916 0
-4421 -2908 0
836 418 0
4451 1725 0
2756 4721 0
-3164 199 0
654 -2039 0
-252 -2783 0
4659 4521 0
-106 1758 0
-4278 -2769 0
1085 2061 0
4352 -1805 0
3335 349 0
-2430 3910 0
2065 -931 0
502 1779 0
-1816 -4218 0
1490 -4000 0
-4556 -1756 0
-2570 1815 0
-4721 -3825 0
2798 -2844 0
-1369 -1329 0
-4338 -4755 0
-3303 4261 0
-4588 -757 0
2780 232 0
-1291 4478 0
-31 2755 0
-3085 2769 0
-4417 -96 0
-4877 -2565 0
-1855 377 0
-3803 -4283 0
4749 -3482 0
407 -2348 0
-3642 -4793 0
1876 -835 0
-3171 -3304 0
1592 3189 0
-602 3805 0
2960 3633 0
-2860 2635 0
4092 -4234 0
4021 1815 0
-1740 473 0
-907 325 0
1186 -1098 0
2224 612 0
-4223 3816 0
-1312 -439 0
508 -139 0
-2856 4182 0
2544 -1548 0
-1374 -239 0
-3462 -1155 0
4430 4347 0
-4532 -2872 0
-4763 2008 0
1266 1022 0
4404 573 0
3906 -644 0
-2562 -1535 0
-1744 -3195 0
-4551 1688 0
3346 392 0
2484 4892 0
484 -3226 0
814 -2115 0
1041 -2879 0
534 4329 0
246 -4733 0
-2520 -2379 0
172 829 0
-110 1145 0
3630 3274 0
-1211 1175 0
2027 2875 0
-3676 -4117 0
-3221 2200 0
1271 -643 0
3936 1238 0
4758 -3953 0
-1367 1831 0
-1353 4228 0
-849 4451 0
-4515 3070 0
1947 4402 0
-2499 548 0
-1272 -1338 0
1099 -2297 0
-3759 -434 0
3255 -4189 0
-790 -2245 0
2648 -3987 0
-1390 -3213 0
-4484 3388 0
-785 4514 0
3742 -3802 0
-4481 365 0
4982 -446 0
3807 1536 0
3822 3306 0
-4685 2845 0
-604 2724 0
-4469 4958 0
138 3494 0
-1966 1995 0
-3766 -2083 0
706 2214 0
1692 -2729 0
4938 4348 0
-2328 -4998 0
-3857 3262 0
-3695 -3367 0
-4610 1960 0
-4492 1762 0
-824 -4750 0
-4941 -2451 0
-1465 4974 0
-3756 659 0
-744 1529 0
-2739 -2536 0
225 -1997 0
-3194 3011 0
-1366 3231 0
4116 -1290 0
1443 3054 0
1531 4491 0
-4714 3369 0
4783 3381 0
-2908 2656 0
-1198 1937 0
1458 -1393 0
2698 -3835 0
2133 -313 0
-2743 3387 0
-4561 -4189 0
663 4811 0
977 3514 0
-784 1831 0
-4282 -2734 0
-4099 3580 0
-1848 1862 0
1472 526 0
213 -2077 0
2398 -1955 0
1572 4683 0
4030 -3509 0
-3465 4899 0
2860 3880 0
2656 -1465 0
-4746 1950 0
1838 -3912 0
-3037 -2553 0
3547 -2144 0
10 2909 0
3523 4157 0
-4868 -4638 0
-994 2090 0
3466 3449 0
-1523 4139 0
-336 4100 0
4247 1753 0
77 -3631 0
-4791 -3445 0
-2774 572 0
4653 -2863 0
-183 4787 0
-4100 1582 0
-2746 -4114 0
-3489 -4053 0
2836 -4234 0
-2099 1133 0
-2913 1401 0
2730 4299 0
-3888 -4990 0
2112 4464 0
2253 -3061 0
2032 186 0
4858 -3587 0
-738 -1593 0
2500 2369 0
2723 3538 0
1243 -2711 0
4238 -1459 0
-1621 -4679 0
635 -4529 0
-158 -1834 0
766 2915 0
-604 -2600 0
-4870 -914 0
-3366 4412 0
295 186 0
-3079 -392 0
-3703 2393 0
4581 -695 0
-3857 4398 0
1491 4556 0
-4312 -555 0
-1576 -2205 0
786 3171 0
-4647 -4439 0
2005 -324 0
-1710 698 0
2928 -3611 0
-2015 -1407 0
-1047 487 0
-1481 -267 0
3678 -557 0
1518 4930 0
164 -4865 0
-4196 3974 0
696 4958 0
-2139 -2793 0
-725 -760 0
4087 2632 0
3709 -1514 0
-4953 -286 0
-2261 -214 0
-1155 3525 0
-4808 3549 0
2970 1796 0
1261 4379 0
-1198 -268 0
-1080 -4115 0
-2694 613 0
-175 406 0
-2873 3672 0
4785 -4267 0
423 -4030 0
1756 4220 0
-3313 -3497 0
-1353 3225 0
-4448 -247 0
2255 -4932 0
2571 1705 0
1739 -1576 0
-2531 -2619 0
4797 2485 0
-3118 350 0
-840 -4970 0
4482 2845 0
-1565 -941 0
-3371 -3260 0
-2349 4267 0
-1654 3963 0
-4441 4266 0
-4518 3814 0
-2200 2909 0
3097 -1812 0
-2647 -1378 0
-3846 1709 0
1900 61 0
-4351 3262 0
-1584 -4207 0
-355 3247 0
-4540 1686 0
4120 3187 0
-4730 2434 0
-3723 -3253 0
-3790 1954 0
-1174 198 0
345 2711 0
3616 3777 0
-754 -1131 0
1322 -3515 0
-4710 -2015 0
3829 1461 0
-2712 3553 0
-4891 2632 0
-2746 2579 0
1536 3472 0
2825 2653 0
-4439 -2567 0
2508 3691 0
-167 2220 0
-3470 -428 0
2235 453 0
1016 44 0
890 4126 0
-3081 -1250 0
-1307 552 0
-3016 -3244 0
3992 4723 0
-1844 4539 0
3718 2088 0
2334 983 0
299 -3023 0
-642 -3444 0
-4891 3600 0
3237 1022 0
-4282 -1870 0
-3239 3548 0
-4948 -3321 0
-274 -4637 0
-2135 -1020 0
3787 4465 0
2763 4694 0
4988 2975 0
-4140 1735 0
-3627 -4433 0
3450 4979 0
-893 3417 0
3740 -3870 0
-2592 -4642 0
2397 -670 0
-2548 4467 0
4548 2432 0
4574 3175 0
3170 -2890 0
-3460 -130 0
634 -4840 0
-2266 3208 0
4457 -1141 0
2146 -829 0
-1007 -3883 0
-2743 -1418 0
-3849 -1853 0
4622 3310 0
4731 -4322 0
-4692 -4875 0
-3427 4523 0
33 -1617 0
1443 3929 0
3499 -3638 0
-2677 2009 0
-2087 4698 0
-2125 -282 0
-2821 4437 0
-4477 -2177 0
1204 655 0
-2258 357 0
4367 3050 0
-242 4748 0
4315 -3259 0
3872 -1901 0
-4559 3325 0
1271 -3073 0
4074 3913 0
4038 -931 0
3334 -4435 0
-3776 156 0
1447 4671 0
3928 3478 0
1155 -996 0
115 4248 0
-4731 -595 0
-2836 2885 0
2604 350 0
-2927 -1771 0
3250 -2937 0
4547 3493 0
3605 -3573 0
-2650 -2420 0
1424 -3818 0
-960 4581 0
4855 3557 0
-4626 1013 0
4021 1400 0
2194 1134 0
1641 4884 0
1008 -4127 0
2040 3633 0
3096 2288 0
-396 -4838 0
-3510 -4594 0
-3933 -905 0
2236 1342 0
-205 868 0
-817 -4848 0
3123 -4049 0
-3015 740 0
-2272 -1238 0
1134 92 0
605 673 0
-4418 -3128 0
-4172 -4364 0
3494 101 0
-1099 4228 0
-2732 -4990 0
-198 -303 0
-3901 -4800 0
4156 -2190 0
1675 -3006 0
2157 2915 0
4302 141 0
-2971 4614 0
-2617 4560 0
-4406 -1168 0
2562 -3265 0
-2636 2354 0
4021 -765 0
2960 -2776 0
-2938 4351 0
4222 4893 0
605 3802 0
-1130 -3682 0
-578 4362 0
-1029 -287 0
3429 -2435 0
4726 -1427 0
3414 -2289 0
-1941 -1069 0
4132 -905 0
4504 -1522 0
2279 3052 0
-1995 -1759 0
4105 -4244 0
3176 -3243 0
-1872 -2479 0
1313 -4035 0
-1870 4591 0
829 3212 0
1718 -4602 0
1418 1399 0
-3091 1802 0
4937 -3289 0
-3312 -3045 0
-3859 -4287 0
1384 4679 0
3626 28 0
-348 4801 0
-478 -3474 0
2799 -3503 0
1799 -4650 0
1391 -599 0
3113 -4172 0
-4572 -1673 0
4389 2837 0
-3288 -832 0
2219 -1665 0
-2075 -3778 0
-2283 -4246 0
4533 1591 0
-3920 -2246 0
-1307 -2367 0
-4899 -4443 0
3947 3102 0
-3904 -4799 0
-3617 880 0
-2250 -1340 0
-4973 -1437 0
1407 1751 0
-3653 4025 0
1304 2006 0
-2142 -2238 0
-2949 -4444 0
-3611 -3626 0
701 3260 0
-496 -2481 0
3637 -4710 0
1376 2769 0
-3890 -1775 0
2802 -4041 0
-1460 -1365 0
-3135 1093 0
2221 3989 0
3880 2385 0
691 3797 0
838 1447 0
4613 2420 0
562 -2908 0
-1091 2852 0
1017 796 0
4083 -3103 0
-3638 4993 0
4698 -2848 0
138 1563 0
1020 4697 0
-3159 1469 0
-1412 4107 0
-4363 3227 0
2182 -1892 0
3355 -3901 0
4057 885 0
-548 -3714 0
3472 -1198 0
-4333 -369 0
3533 4552 0
1615 1539 0
-676 376 0
-881 4119 0
4101 -4782 0
2874 2518 0
3687 1089 0
-2873 -2493 0
-4322 -2177 0
2133 716 0
3111 -1218 0
99 -3412 0
-4609 4436 0
4103 3784 0
3141 -4492 0
1203 -2595 0
3176 -3781 0
246 2721 0
2061 -3229 0
-393 3127 0
-4846 -131 0
-3001 -661 0
-2180 202 0
2867 1683 0
-2053 -2976 0
-250 4559 0
3543 2598 0
1873 4487 0
-1893 -3047 0
-1882 3208 0
-2317 -3539 0
4319 4661 0
3266 -3394 0
4285 -3723 0
-4741 2230 0
3559 3869 0
3711 1150 0
-2478 -2298 0
2131 1851 0
-797 2272 0
-4252 -642 0
-2250 -4137 0
4264 -84 0
998 54 0
-4396 -488 0
-2908 3500 0
965 2624 0
-4646 3830 0
104 1274 0
-1940 1745 0
-4188 -666 0
-4810 -4288 0
-2090 649 0
-4861 2436 0
1618 -3824 0
3418 1763 0
3402 -2511 0
4586 -2101 0
-1587 -2695 0
4074 1650 0
-425 -3324 0
2411 1786 0
1438 4405 0
3833 1236 0
3721 -1524 0
512 2502 0
-1390 1571 0
-4461 -832 0
-3200 911 0
-761 -2725 0
1173 329 0
-1571 -671 0
4162 -1371 0
-2874 1762 0
263 -2432 0
3699 -2208 0
-3850 -1053 0
-1479 -2469 0
4286 1484 0
2497 1616 0
105 -4150 0
3310 732 0
-3650 1624 0
-1157 2005 0
-3130 1104 0
41 -2514 0
1059 1718 0
4880 -2803 0
3712 -1277 0
1679 4605 0
1208 -4311 0
-2278 4684 0
-1950 2109 0
-5000 -2221 0
-1330 -4494 0
-652 574 0
544 3466 0
-4332 2312 0
-4449 1739 0
-1818 2627 0
559 4776 0
-1284 -4993 0
3254 -3732 0
2083 2875 0
-4031 -3243 0
1195 -3219 0
-2494 2163 0
-1796 -4465 0
-4622 2713 0
2844 2400 0
-825 3342 0
-2564 -4812 0
4444 2360 0
375 3738 0
-3080 3029 0
-3043 1134 0
-3004 2954 0
-2025 3015 0
3217 -4829 0
3926 -1055 0
-1901 -288 0
439 -486 0
-1454 -2311 0
656 -1735 0
-4725 -4864 0
-1699 444 0
-3332 3633 0
389 -2456 0
1984 1799 0
4803 -3996 0
3904 -289 0
4547 2460 0
-3857 1020 0
-3974 -3900 0
-1735 4994 0
4923 -1353 0
-758 -736 0
-193 -4578 0
1473 -3696 0
1154 -3870 0
-4901 3108 0
-3504 -3351 0
-4365 4628 0
-2223 -3079 0
3672 -4181 0
3853 2386 0
1854 2947 0
-4762 -4844 0
2644 2010 0
551 -4031 0
439 1284 0
-1347 4071 0
2530 719 0
468 -7 0
2215 1520 0
-4181 -4012 0
3559 -4389 0
4859 4066 0
-3200 2438 0
516 -3348 0
-2969 -4791 0
-1762 2809 0
-4461 31 0
-2586 -825 0
2420 -4215 0
-3385 2496 0
-3437 -4667 0
-3193 1266 0
3667 -3073 0
923 3089 0
1530 -3511 0
2080 -3930 0
-3352 -2746 0
4774 -422 0
3965 -2545 0
1676 3403 0
-4703 4683 0
2850 3076 0
-3186 -1590 0
2809 127 0
-3441 2357 0
-3196 -1701 0
-462 283 0
-903 -3342 0
-4701 -1173 0
-3923 -1966 0
4088 878 0
4797 -2868 0
3404 1545 0
2132 -4696 0
-4627 -1056 0
1555 -3473 0
-4657 -4160 0
-1289 -4309 0
2304 1899 0
-3006 -1284 0
-4191 -1564 0
-3911 186 0
-602 -2042 0
536 -3445 0
-4044 473 0
-4746 1927 0
567 -4740 0
-2583 2838 0
-4662 -2246 0
-3103 4822 0
708 -602 0
-4169 -3844 0
-1951 -1104 0
-2944 -4021 0
-2885 -3539 0
1397 3560 0
-1808 -4205 0
-2045 -340 0
195 1805 0
-1743 2720 0
-1067 3686 0
-5 3952 0
-3557 3544 0
-2329 -2486 0
-4387 -1299 0
-2960 1113 0
1782 -134 0
2409 2982 0
4283 -4203 0
-103 1905 0
3498 -2794 0
-2384 -2044 0
-436 884 0
-1310 -88 0
798 -3365 0
2471 -2562 0
29 -1393 0
1402 3851 0
4560 4116 0
-667 3421 0
-1514 -2904 0
-1594 4334 0
-3095 2791 0
4936 -3591 0
4329 711 0
1449 1635 0
-2531 -3978 0
-271 -181 0
-809 -3637 0
2091 1355 0
-4747 4993 0
1641 444 0
-3785 3172 0
4147 -1284 0
-1508 3062 0
1906 -3504 0
53 -1679 0
3619 2308 0
54 -3489 0
4837 4290 0
2483 -4623 0
463 3874 0
3839 -2894 0
2336 4374 0
-1029 4021 0
4137 -2543 0
-3587 -4905 0
2597 -1720 0
-2164 3186 0
-2065 -4440 0
-2147 1552 0
880 3210 0
-983 -1506 0
-290 3678 0
480 141 0
-4662 1964 0
-970 -4874 0
2428 -1557 0
-1637 -1115 0
1873 -1435 0
-922 4766 0
-4443 -3436 0
4604 2487 0
-818 335 0
-3134 1643 0
-52 4349 0
16 1866 0
-3840 1249 0
-1249 1257 0
-4012 4729 0
-597 3260 0
-977 -3702 0
923 -1318 0
-276 4488 0
-1394 -2401 0
-4841 2389 0
3196 -1513 0
975 -3917 0
4699 -1534 0
639 -39 0
-3547 4772 0
1588 -808 0
-1374 1297 0
-4206 2446 0
1501 1078 0
-4569 -1103 0
-1793 2829 0
-19 4613 0
-4054 -2677 0
4337 -4206 0
-4630 625 0
-3700 -3153 0
-4762 -3586 0
4095 223 0
-1706 4372 0
196 3146 0
3577 2713 0
-2084 4383 0
4023 -2975 0
1347 755 0
-1047 -1808 0
3934 3881 0
2018 -1855 0
-4896 4390 0
-3171 3429 0
-276 -1383 0
2242 -2927 0
-4638 -165 0
-2520 -84 0
4237 2312 0
4804 -1142 0
4971 3416 0
-1815 32 0
-385 2274 0
1495 -4764 0
-244 4841 0
-2652 4668 0
1110 4567 0
-1549 1134 0
726 -2313 0
2727 4572 0
-3927 -2754 0
-3196 -1871 0
-4426 -3959 0
892 1477 0
2132 -450 0
8 -2232 0
1750 3541 0
-1694 404 0
-2662 -868 0
-702 -4240 0
1961 1927 0
1558 2569 0
-497 1148 0
2910 3726 0
766 4141 0
-555 -3960 0
-4180 -1784 0
-1331 -2449 0
3212 -1605 0
4279 -1636 0
-2994 3343 0
-1582 -2758 0
54 4401 0
-705 -2153 0
-4255 -1175 0
1217 4181 0
-4821 3320 0
-772 -3237 0
-2277 2126 0
-3023 -458 0
3609 2459 0
4417 4845 0
-2764 2622 0
3708 3646 0
1315 3269 0
3674 4071 0
-3524 -3029 0
2763 -2938 0
4344 1157 0
-1524 454 0
-3870 -3606 0
2136 2721 0
-3253 3718 0
-1226 -637 0
-677 1239 0
270 -3717 0
-512 -1403 0
-1382 305 0
-1393 -2275 0
1621 -1731 0
-2075 4087 0
4240 -2575 0
-3203 897 0
-2543 2930 0
4880 3747 0
-4133 -1737 0
4110 -801 0
3428 3619 0
4024 -2228 0
3147 158 0
383 -3341 0
-1679 737 0
-3002 3958 0
-2335 -95 0
-1238 1835 0
4119 -4950 0
4487 -1067 0
2144 -3670 0
805 3870 0
4948 404 0
3650 1740 0
-2588 -4378 0
1598 353 0
-2156 -4262 0
-4003 -4085 0
-1405 4841 0
-4268 976 0
-4687 232 0
-251 -3464 0
-3278 -330 0
2022 2620 0
4652 -2079 0
-3827 1483 0
1406 2294 0
1248 3600 0
1236 -4748 0
4971 -372 0
-3311 2583 0
4775 3230 0
-4597 3596 0
1879 -4192 0
-2421 -1652 0
-2830 4455 0
-1292 -3946 0
982 -4964 0
-2679 3127 0
2874 1996 0
2982 4992 0
-3118 649 0
-4648 3830 0
-3001 -3932 0
-1348 -3873 0
1468 -3920 0
-4859 4535 0
2970 -3810 0
756 3617 0
-4815 -3750 0
-4512 2267 0
-651 2803 0
3108 -4263 0
986 -4659 0
-2823 539 0
910 2163 0
-141 4759 0
4252 -3348 0
-1378 4149 0
-4993 -3535 0
-1919 1036 0
-3579 3467 0
648 2632 0
1275 -4491 0
3632 3829 0
1428 -2906 0
4347 3587 0
-3078 4401 0
-3331 -2529 0
2097 1585 0
-2192 36 0
3259 -3803 0
1363 833 0
4998 3441 0
2262 -3064 0
-3747 3118 0
2155 2934 0
-3986 3288 0
-2218 -1182 0
-1121 -4083 0
-4640 -4290 0
2541 -431 0
-4490 -4294 0
3127 163 0
-804 4509 0
728 41 0
-2714 -2430 0
4922 633 0
-294 2398 0
-2034 -3208 0
2234 -4544 0
91 -486 0
-4257 3600 0
-3016 -4051 0
-1877 3655 0
-3836 3719 0
2983 2568 0
-4061 128 0
-2796 -4897 0
3466 773 0
-3682 -2121 0
1382 299 0
3460 -4509 0
-1801 -1407 0
-4448 -2628 0
-4623 -4685 0
3184 1399 0
-2372 -2968 0
1182 -2121 0
-3164 -4416 0
4062 1141 0
2248 -2029 0
4081 1280 0
-1248 -1591 0
3766 1388 0
-4733 -4123 0
-1963 -4598 0
-3903 -4566 0
12 -4216 0
3754 2834 0
-1844 574 0
-2056 1302 0
-599 3346 0
-2906 -1011 0
2657 1848 0
-3635 493 0
1732 -4026 0
280 -4137 0
4380 2693 0
-2367 1922 0
2230 3005 0
-619 194 0
3133 -2729 0
4734 883 0
-2533 4526 0
-1388 867 0
2595 -4558 0
-1537 1208 0
-399 -3922 0
628 -866 0
1458 536 0
-1169 4625 0
1824 76 0
-944 4998 0
3916 -82 0
-4139 -3354 0
606 -1657 0
-1844 136 0
618 99 0
89 3362 0
2622 1095 0
102 4274 0
1479 -1105 0
-3180 2837 0
-3663 -3102 0
1170 1419 0
-1762 -3161 0
-2810 2920 0
-454 2489 0
-4851 -2449 0
-3656 500 0
612 -4709 0
-3644 -2124 0
67 104 0
275 -1426 0
-4606 -1492 0
3649 -4904 0
736 4632 0
2102 2932 0
4910 682 0
252 -3966 0
1546 -3803 0
-3244 3505 0
-324 4010 0
-3366 -3306 0
-2557 4539 0
4504 1526 0
-3768 685 0
-183 -4646 0
4106 -847 0
475 2829 0
-2761 4704 0
969 -4486 0
-2310 -3730 0
-3863 -4891 0
-2998 2027 0
-3304 -3470 0
3980 -555 0
-650 245 0
-2514 28 0
531 3903 0
-4687 -1095 0
951 214 0
-1166 -1564 0
4166 -420 0
-817 -3484 0
2104 1556 0
-1021 2085 0
3548 369 0
-2374 1516 0
-2050 -3297 0
4955 -361 0
4172 -2125 0
-2278 280 0
3697 2849 0
2292 -488 0
452 1672 0
4080 -1108 0
2425 3132 0
-1859 4396 0
982 798 0
-1562 -1130 0
-712 3903 0
-3941 -3239 0
673 -4584 0
874 2968 0
-14 721 0
4484 1719 0
4348 -20 0
594 4108 0
771 1937 0
-4000 -4178 0
-2537 -2169 0
341 -1485 0
4764 1758 0
1750 371 0
-2609 -1683 0
-1224 4924 0
-1465 3398 0
-4774 4581 0
-3361 2722 0
3527 1974 0
-1848 -1771 0
1688 -2734 0
-4044 1003 0
1818 3506 0
-473 -4811 0
3281 -2018 0
-1708 1171 0
2726 4202 0
-2320 -3666 0
-3197 -2254 0
-694 -1263 0
-3620 1919 0
-340 -3445 0
3721 -2971 0
-354 -2223 0
-575 -175 0
-3278 -3774 0
4189 -3195 0
-690 -3343 0
128 3262 0
59 707 0
1027 1990 0
621 3507 0
4302 927 0
-3142 -4775 0
1490 693 0
444 3889 0
-1679 4168 0
4484 2453 0
-1402 -1330 0
3627 -4945 0
1589 211 0
-2865 3703 0
-3676 -245 0
3105 4148 0
1545 3487 0
2744 -3444 0
2741 -1375 0
1247 2084 0
1589 385 0
-3346 -1938 0
2263 4109 0
4698 -112 0
4771 1525 0
3988 3388 0
1748 411 0
-2902 -3073 0
-1986 -4140 0
159 3948 0
1904 2441 0
1259 -2994 0
2788 -4038 0
-3800 1145 0
4099 2057 0
4611 4 0
-3201 4605 0
4359 -2145 0
-1773 552 0
-2310 -1649 0
-3400 -2319 0
1696 -1235 0
-376 1904 0
-1337 -3196 0
3287 2843 0
4535 -2431 0
-2451 3856 0
3493 -1056 0
3805 162 0
2488 -3271 0
-96 -926 0
-1009 -930 0
-3441 3054 0
-675 -3301 0
-2461 2519 0
592 -3007 0
1274 2770 0
-2828 -1865 0
301 4112 0
-4794 -2784 0
1993 3290 0
624 1401 0
288 2762 0
1301 4003 0
395 2263 0
2722 115 0
-1105 -4478 0
-3157 2414 0
1945 666 0
-4145 1860 0
-3662 946 0
1539 3211 0
494 4627 0
2284 -3749 0
4062 -151 0
2845 -3398 0
144 -474 0
-1409 4024 0
3566 -1345 0
3005 995 0
-4457 2142 0
1250 831 0
3066 2707 0
-480 3176 0
1199 -1494 0
-847 4682 0
-3263 -162 0
-3383 -2003 0
4807 510 0
4021 4803 0
3751 -3584 0
-4557 3209 0
3259 -4026 0
3060 4652 0
2798 755 0
3056 492 0
1044 -464 0
-4417 -4724 0
-1642 -2054 0
-3569 -2781 0
-4610 -3722 0
-601 2126 0
3232 -2658 0
3937 1545 0
-3524 -4592 0
1001 1290 0
1280 1654 0
-4788 -3821 0
-566 2442 0
3882 4812 0
2046 -3725 0
-524 3769 0
-1734 -5000 0
-3125 126 0
-4365 1660 0
-1625 1703 0
-4200 -294 0
-173 -3442 0
-1740 -4588 0
728 -550 0
-3007 997 0
-2764 -2831 0
2789 8 0
4030 2956 0
-3765 4561 0
-485 -4761 0
-4069 4092 0
4446 4619 0
-4010 429 0
3363 -2411 0
1786 -1879 0
-649 -1356 0
-3512 -2336 0
-3422 -84 0
4323 3939 0
2517 1864 0
266 -4538 0
3827 4325 0
-3288 150 0
158 2035 0
2871 3357 0
-4060 -688 0
-4559 261 0
-3920 -2408 0
-2289 2143 0
-4681 3316 0
-2714 2122 0
1143 2766 0
1671 3097 0
3952 -1896 0
-964 793 0
4235 4072 0
-5000 -2604 0
4482 -906 0
4628 4540 0
-531 -1383 0
-515 -2121 0
-1945 -974 0
2373 3924 0
-4120 -342 0
465 -402 0
3268 554 0
1558 -1460 0
-3515 -3491 0
3426 1910 0
-1046 -2093 0
-3052 3861 0
3089 913 0
1560 4832 0
3381 -2486 0
-3291 2703 0
4385 4388 0
4123 3051 0
2139 623 0
-1934 -291 0
3322 1431 0
-397 3634 0
-2899 3298 0
729 3997 0
-2665 2270 0
3510 -1827 0
-2183 -4873 0
2695 -1258 0
252 -3474 0
-482 -717 0
-2047 275 0
3261 2474 0
4113 -335 0
3396 -3341 0
841 -994 0
3915 3340 0
3958 -3648 0
3145 -505 0
2620 2111 0
1638 -3328 0
582 4102 0
-4004 1617 0
1789 -614 0
-467 4481 0
-4063 -3557 0
2386 1645 0
222 -2451 0
4984 -276 0
-4753 -1622 0
-1842 -4704 0
-2200 -2787 0
2989 1109 0
-2778 -2840 0
-4943 -2106 0
1664 -2393 0
-3020 2696 0
-383 -4693 0
1579 -1547 0
774 -1306 0
293 2835 0
-2485 366 0
260 3621 0
3943 1397 0
-4983 -3480 0
2918 -3473 0
-544 3260 0
2506 3359 0
3691 -440 0
3581 -3647 0
857 1922 0
-4617 -2826 0
4876 -3848 0
4704 686 0
2318 -4040 0
-4656 -593 0
-4561 453 0
2374 -943 0
-3914 253 0
3344 3383 0
2398 1942 0
-1277 -4474 0
-2960 -616 0
-4113 -1912 0
221 3825 0
3488 -3253 0
-4427 1089 0
1578 -1411 0
-843 -3592 0
-4713 3773 0
4029 -2662 0
3733 1717 0
-1064 -3462 0
323 -359 0
1163 3622 0
4149 117 0
2290 4324 0
-3959 3363 0
-943 -4245 0
-1000 3655 0
4149 -4182 0
-179 4955 0
-4228 -2953 0
-809 -1414 0
1022 -2499 0
3943 -4869 0
-3588 -4779 0
-3744 574 0
901 3147 0
-41 -4514 0
4933 -4311 0
4951 -373 0
3111 332 0
-1868 1635 0
3768 -3412 0
229 161 0
976 1667 0
3852 1703 0
3012 -921 0
1115 1234 0
4106 3142 0
576 3239 0
2502 -1448 0
