c NF
p cnf 1692 5753
35 -978 0
-1291 -2 0
-1621 -339 0
-371 -547 0
-1638 258 0
266 -1360 0
1015 -1088 0
1218 1363 0
-572 -1492 0
240 1599 0
-544 -1463 0
1328 337 0
896 1426 0
854 -1211 0
-1315 978 0
-1362 1593 0
1114 270 0
890 1029 0
-20 1658 0
1032 905 0
-34 696 0
1225 1014 0
264 682 0
-333 -284 0
-1140 185 0
1344 1128 0
1662 781 0
-214 1500 0
-493 -909 0
1103 1673 0
-1427 -1285 0
793 -1206 0
1189 703 0
1528 717 0
-688 -275 0
236 536 0
1683 1533 0
-1525 875 0
-440 1624 0
451 956 0
-215 809 0
57 1549 0
1091 -523 0
1258 479 0
531 -211 0
-207 1287 0
-753 845 0
-852 1504 0
1409 -610 0
654 1013 0
-994 674 0
-1055 -513 0
749 682 0
-310 -419 0
-898 1622 0
-98 -2 0
-438 -518 0
-863 -664 0
-1444 1059 0
-255 1057 0
1500 1088 0
-1627 1552 0
1662 -645 0
-86 52 0
-397 -378 0
-1546 -37 0
-574 -219 0
-1131 -755 0
178 -895 0
-13 -1630 0
-208 347 0
24 1381 0
-175 -126 0
-1390 543 0
-1503 -440 0
-693 853 0
-615 -81 0
-1362 -1282 0
427 -794 0
459 309 0
1004 204 0
-1623 46 0
1366 1479 0
-979 -946 0
205 -645 0
1603 162 0
-220 -1595 0
18 323 0
1185 575 0
-239 678 0
1384 1599 0
-1303 -302 0
909 741 0
-410 -919 0
854 -657 0
606 7 0
559 -1431 0
290 1556 0
-1157 -1162 0
297 -1534 0
1091 -717 0
-1645 -640 0
-1467 277 0
398 -1021 0
-205 -841 0
-968 -90 0
-1255 -1616 0
-1114 1540 0
597 -1432 0
-345 -281 0
-743 -1462 0
1030 -91 0
-1331 277 0
-1282 637 0
865 1082 0
-872 -50 0
1687 510 0
-410 740 0
341 1298 0
1348 230 0
-1430 -1460 0
542 -871 0
-1535 -31 0
1453 -678 0
-1399 -804 0
-525 1000 0
83 859 0
-931 1286 0
667 -755 0
-1635 1344 0
-1081 -1639 0
-1437 1294 0
-531 -1111 0
1048 542 0
1439 -846 0
-876 1007 0
-1553 1218 0
-1622 1690 0
1479 1124 0
471 -841 0
1670 -1566 0
-523 -310 0
1480 825 0
1193 1593 0
1690 -311 0
-1140 1299 0
1111 -1626 0
201 631 0
1686 -669 0
-730 -1442 0
-705 127 0
-274 1281 0
-140 24 0
-175 1107 0
629 -431 0
-532 -455 0
1408 196 0
-168 -1276 0
-1674 121 0
1350 422 0
-657 1019 0
381 -1318 0
544 159 0
1637 1063 0
1592 1356 0
118 -1143 0
1188 1003 0
-1315 69 0
-605 -569 0
852 -726 0
800 295 0
-1578 102 0
-531 -1616 0
-716 -1180 0
-472 795 0
511 -291 0
-1292 -1300 0
-1232 -146 0
1304 775 0
1291 -1433 0
-954 -1168 0
-730 -719 0
-349 -1080 0
1416 -1475 0
-553 -1029 0
-1442 -1423 0
1688 -283 0
-1680 -63 0
1395 1113 0
-486 -158 0
1426 1288 0
1170 -522 0
1624 606 0
829 1268 0
66 1357 0
202 889 0
-1434 -189 0
714 1137 0
-496 -1152 0
-1299 -281 0
165 1007 0
1288 669 0
533 801 0
1028 297 0
-809 1035 0
639 -1021 0
1471 1547 0
-492 1016 0
417 -981 0
-1370 -1260 0
-1354 -1591 0
-1609 471 0
660 -1335 0
366 -155 0
1472 -531 0
-686 355 0
-1326 1689 0
1419 -736 0
-898 -1443 0
1188 -690 0
-1443 185 0
519 -534 0
1430 -761 0
344 715 0
-1133 1504 0
129 -374 0
-158 1321 0
-601 689 0
-1424 1230 0
-639 727 0
-736 529 0
-1176 800 0
103 -1022 0
129 52 0
217 1478 0
-804 251 0
822 171 0
1314 1024 0
-768 -42 0
823 435 0
1587 -1674 0
-20 1348 0
-650 -1356 0
-1602 -367 0
-225 -289 0
1296 -281 0
179 -549 0
-1133 611 0
-1121 1094 0
127 -781 0
992 -617 0
121 -699 0
601 860 0
-269 -1038 0
-320 -465 0
-462 -1218 0
1561 1258 0
1194 1468 0
-1675 890 0
-1470 -955 0
324 -221 0
174 -664 0
320 -664 0
52 -551 0
495 -871 0
-671 720 0
-1148 1472 0
-175 -1391 0
1597 1683 0
1026 -1555 0
1478 1204 0
1207 -503 0
1030 830 0
-294 730 0
-1162 1351 0
1206 -168 0
454 -287 0
-399 416 0
959 765 0
535 516 0
1312 280 0
1474 -148 0
-806 30 0
1441 -1336 0
1522 -837 0
319 -1280 0
-424 -465 0
-1607 337 0
-211 -1680 0
919 223 0
374 427 0
405 -820 0
302 -726 0
1509 -615 0
1453 -126 0
-823 -9 0
942 -1172 0
-1010 894 0
-1378 1617 0
-1597 -1216 0
1219 -1232 0
-1232 -1236 0
-755 -315 0
-1644 564 0
783 720 0
-1127 1110 0
-1117 659 0
1422 745 0
-1529 -334 0
-283 -269 0
768 656 0
791 -1195 0
353 -318 0
-865 -1664 0
-168 -568 0
443 -409 0
-876 -830 0
-488 32 0
-588 -824 0
-1593 244 0
-1645 266 0
-1669 1600 0
966 561 0
392 1287 0
-1110 591 0
642 -350 0
-1257 773 0
-4 -544 0
-631 257 0
-346 -612 0
-1687 -1537 0
-512 -1075 0
-1330 -488 0
1263 491 0
26 1650 0
-539 -1625 0
-242 -819 0
451 594 0
-570 -826 0
529 -156 0
-218 -1323 0
881 -1627 0
-6 1553 0
1327 -1677 0
116 1289 0
147 -490 0
1472 882 0
-454 1423 0
234 1300 0
-429 1395 0
-1261 -1112 0
1513 668 0
-1489 -1242 0
64 -666 0
-1160 1383 0
-1320 -814 0
-1541 -658 0
-13 1010 0
713 1429 0
606 1611 0
653 -679 0
-1332 1476 0
412 -1254 0
-1421 324 0
780 353 0
1445 -920 0
-1354 1370 0
467 -1434 0
1684 231 0
253 -126 0
1042 -1059 0
1615 1108 0
-1223 -630 0
-763 323 0
628 726 0
-380 -1533 0
1420 -151 0
-1339 1370 0
1020 217 0
91 1468 0
720 -712 0
1495 -5 0
746 1626 0
-1377 -167 0
-397 -94 0
-534 -82 0
223 663 0
-1201 654 0
680 513 0
1085 170 0
1435 633 0
-1493 -821 0
1032 634 0
383 -1502 0
589 -1689 0
840 -923 0
-1102 -645 0
1109 128 0
158 -1270 0
-668 -691 0
-549 331 0
-356 988 0
680 -453 0
-188 -1529 0
-15 -936 0
-898 -1049 0
-1551 88 0
-1513 1411 0
-1276 267 0
1158 -615 0
105 -552 0
184 412 0
-658 -1169 0
237 178 0
-156 203 0
-707 -366 0
1529 -968 0
1094 932 0
-1664 1601 0
-1643 -1284 0
-1589 -1279 0
878 436 0
1354 1422 0
-77 24 0
966 191 0
1298 569 0
925 1041 0
971 1074 0
897 -1467 0
-826 1547 0
1550 423 0
-1392 -199 0
-1449 -914 0
-334 1516 0
-514 1673 0
-1661 -1477 0
-18 843 0
1476 -268 0
-767 -381 0
-422 -481 0
-1139 44 0
-1558 1427 0
-1390 -475 0
-121 1307 0
1 -298 0
1268 775 0
1212 496 0
-716 -1105 0
979 831 0
-1286 -306 0
1041 -1372 0
907 -812 0
-812 159 0
1637 452 0
-819 1071 0
436 760 0
1230 -1445 0
476 1099 0
436 -1245 0
-1627 -1153 0
-1513 -1415 0
-761 1392 0
1558 -1687 0
314 -1006 0
1047 -126 0
272 1442 0
-46 225 0
234 993 0
1658 1091 0
662 -1507 0
776 227 0
839 -65 0
1133 -503 0
1072 463 0
-913 30 0
-518 -326 0
-752 955 0
1686 53 0
-4 763 0
47 1227 0
-485 -1134 0
361 -1080 0
1278 -1069 0
742 -1003 0
1000 -1686 0
1508 -1075 0
-473 -1548 0
-827 627 0
-577 1584 0
-1111 -33 0
-927 1426 0
-1567 631 0
-227 178 0
143 -1526 0
-436 -298 0
1593 -289 0
-64 -191 0
-432 -827 0
563 75 0
1609 -1434 0
-345 1590 0
-924 -944 0
43 856 0
703 -1470 0
508 -330 0
285 -438 0
-1627 -1521 0
-541 -937 0
1414 1369 0
-403 258 0
1422 -21 0
665 743 0
914 611 0
-514 482 0
589 1266 0
532 -189 0
-409 -1053 0
-1489 -1257 0
-756 -403 0
-646 1198 0
-1248 1571 0
-869 -1531 0
-485 539 0
795 1559 0
682 -512 0
-4 -1557 0
-820 195 0
-457 -577 0
-183 -211 0
551 154 0
-1304 -701 0
981 -1535 0
195 1090 0
1527 -1502 0
-1675 -1131 0
-1199 -1294 0
1635 1624 0
530 -1282 0
131 1505 0
-1310 1110 0
1321 -74 0
-752 -906 0
1041 -874 0
-752 -1461 0
365 -334 0
-1146 141 0
252 1618 0
-1412 -649 0
1572 896 0
926 -1232 0
883 1324 0
1426 1099 0
1420 559 0
-1373 434 0
-1655 848 0
-364 766 0
463 328 0
-142 66 0
-882 1347 0
450 -1374 0
-1053 -589 0
-1554 -1525 0
1100 -507 0
84 1570 0
-1587 952 0
514 1670 0
-1454 1452 0
-876 359 0
-42 -794 0
1345 -991 0
-361 448 0
-708 -1033 0
-1654 -1346 0
-319 -992 0
483 186 0
-65 -1539 0
1490 1091 0
651 -686 0
654 407 0
-1531 -1540 0
-1623 -467 0
1404 -1190 0
-709 1054 0
-2 -1370 0
-1078 274 0
919 -29 0
-1678 915 0
1667 -640 0
-1291 -943 0
-393 -1075 0
-1061 1027 0
-1049 865 0
-1475 -713 0
-923 1252 0
1554 788 0
1341 -282 0
-242 -1330 0
-610 925 0
672 696 0
-838 -1627 0
1166 1562 0
684 -838 0
1682 -1306 0
-237 342 0
1311 384 0
-232 -997 0
1043 -890 0
595 1249 0
-1566 1397 0
153 -1401 0
70 -347 0
1329 1395 0
-763 1660 0
464 1259 0
815 1530 0
-333 -627 0
-86 -810 0
633 25 0
148 -1226 0
642 -381 0
-698 666 0
1256 294 0
-496 -896 0
1086 614 0
129 99 0
-467 1689 0
538 -1458 0
-1262 193 0
-90 323 0
1495 -1639 0
172 915 0
-445 701 0
-359 753 0
1127 1128 0
1352 228 0
192 450 0
-1032 915 0
1313 45 0
1667 -1478 0
-77 1032 0
727 781 0
-534 192 0
-550 -614 0
486 -442 0
1116 -72 0
-271 414 0
1449 -388 0
-138 605 0
-988 1272 0
-1573 -664 0
-1181 811 0
-1247 -1636 0
-836 -1549 0
-992 302 0
346 -1304 0
353 626 0
1612 -317 0
1256 -686 0
-1140 -1293 0
390 374 0
-930 1239 0
292 140 0
-140 1089 0
-1685 -370 0
-169 -123 0
-345 695 0
-668 872 0
1341 -1498 0
-244 -151 0
-382 -1677 0
1448 938 0
1404 -630 0
-389 1329 0
508 -1120 0
-808 -376 0
1058 -158 0
131 -1672 0
1420 861 0
-1287 -1647 0
39 1650 0
-160 781 0
487 342 0
581 -1655 0
675 -63 0
94 108 0
1164 225 0
1453 -1589 0
1690 -724 0
968 -205 0
-1507 -1023 0
-518 -1300 0
-756 129 0
-304 -347 0
24 -337 0
840 701 0
-487 -817 0
-1519 -474 0
-945 398 0
1467 7 0
-1673 -1181 0
-1567 -903 0
1673 -721 0
-1231 1529 0
-786 -386 0
-1595 -997 0
484 78 0
-1154 -1282 0
821 431 0
-63 -576 0
1119 -1037 0
504 -498 0
353 945 0
-1654 1498 0
952 -1105 0
1484 1637 0
-1159 -1403 0
-1008 1298 0
35 -500 0
482 -1014 0
342 972 0
-405 -269 0
-432 1025 0
1 1529 0
191 522 0
-920 -945 0
967 -378 0
1478 -672 0
633 331 0
-634 -937 0
760 474 0
1454 861 0
964 -608 0
1052 1177 0
-1325 1515 0
973 279 0
147 -111 0
1505 -79 0
-1243 -1630 0
-939 -66 0
1357 973 0
-1170 670 0
-1627 117 0
-305 -577 0
1414 -758 0
-409 -1022 0
-433 1077 0
-1472 888 0
508 -667 0
-1659 -930 0
-281 -1445 0
310 196 0
185 -1021 0
-898 -63 0
-160 -1178 0
1609 -813 0
-1650 -319 0
-1382 -718 0
263 1483 0
173 -949 0
-1448 688 0
878 -970 0
538 -1609 0
-1214 -999 0
9 483 0
-735 -1629 0
-752 -930 0
1641 420 0
-119 555 0
654 -1602 0
-949 210 0
919 -1410 0
-406 1068 0
1670 -324 0
1173 -83 0
1201 -537 0
-1678 158 0
169 243 0
1142 441 0
493 -1639 0
-1675 56 0
-808 -272 0
-456 -718 0
-1307 -388 0
166 -479 0
1340 680 0
239 1041 0
-17 -1507 0
-204 -553 0
1684 -1473 0
1349 1067 0
-1170 1041 0
1385 1371 0
167 528 0
-1228 352 0
245 425 0
669 1556 0
25 -1629 0
1011 948 0
771 315 0
-983 -765 0
-481 1005 0
-1625 3 0
1438 925 0
-629 -1480 0
-670 951 0
1580 -354 0
-1646 662 0
840 212 0
-1556 1648 0
1084 170 0
-983 -1551 0
-819 1227 0
-1038 1381 0
-1195 -1406 0
-815 1125 0
906 -160 0
-490 1387 0
-1677 1201 0
-1219 -1052 0
1258 -624 0
-1401 529 0
1542 -1377 0
-1252 -1045 0
-1037 1098 0
718 1183 0
-758 935 0
-356 781 0
-696 649 0
1653 -1462 0
33 1554 0
-901 285 0
269 -1408 0
-972 -552 0
-464 -1045 0
-866 124 0
-1330 1386 0
-721 725 0
-1462 609 0
-515 1317 0
-639 41 0
-798 52 0
-1115 -275 0
845 -457 0
274 1486 0
-256 1344 0
1471 -667 0
315 1248 0
-1643 -282 0
-544 849 0
-581 1166 0
1012 -837 0
-1235 -692 0
-1602 -109 0
-1058 -480 0
-1055 -469 0
188 -1172 0
-330 88 0
1167 -577 0
-734 1371 0
1237 1260 0
-837 -1189 0
641 -1223 0
-1085 1361 0
292 1662 0
-84 -1678 0
-1034 -1652 0
-1114 -1021 0
-923 602 0
-1269 -125 0
-826 368 0
1119 1119 0
-815 -1168 0
-1549 -1300 0
50 200 0
1455 625 0
1205 -395 0
-846 -627 0
-364 -870 0
-1361 130 0
-1009 1338 0
-1021 -1583 0
487 326 0
-933 -1082 0
1395 -1191 0
808 315 0
-583 439 0
-565 906 0
1129 936 0
1369 -1659 0
1016 -1385 0
1291 1386 0
845 -797 0
-1076 -403 0
1201 -1690 0
192 -1324 0
1383 1644 0
-1104 94 0
-867 -174 0
-704 1365 0
1356 -885 0
-13 113 0
384 687 0
-359 352 0
115 -173 0
-948 -240 0
474 -788 0
-773 -781 0
-606 -1290 0
-1380 1228 0
1259 1445 0
-590 344 0
-1461 431 0
-1230 -134 0
1568 -1432 0
-1367 867 0
620 -1400 0
315 1044 0
1681 23 0
-1107 -1085 0
-169 746 0
-449 489 0
-1280 -283 0
1032 -676 0
-34 -834 0
1144 -325 0
-993 546 0
-1498 -1384 0
-1079 -384 0
1368 -580 0
-1352 1457 0
290 192 0
-885 263 0
-2 764 0
-590 1666 0
-518 345 0
-463 -1627 0
-1551 -264 0
606 324 0
-1493 1082 0
152 -569 0
-896 -1498 0
-592 230 0
1387 1036 0
567 1486 0
-389 -521 0
-1112 746 0
1379 1376 0
-1252 -1192 0
851 -1320 0
1102 3 0
394 -402 0
1644 -425 0
309 -1246 0
1019 455 0
-930 441 0
1432 1207 0
-1448 -576 0
-1007 506 0
699 633 0
1511 655 0
-999 -1373 0
1516 1524 0
-271 1328 0
1601 -617 0
-558 1307 0
-1685 -829 0
1500 -1589 0
299 116 0
499 -569 0
1067 267 0
628 836 0
1528 -1490 0
-1634 234 0
-1174 -646 0
1692 -1579 0
-543 108 0
-111 1317 0
-1428 1218 0
463 1408 0
-730 868 0
-607 390 0
-839 434 0
-734 -1297 0
1041 1376 0
1278 1008 0
1131 1406 0
-382 418 0
-1057 427 0
-1275 1384 0
-1484 -1681 0
1363 -178 0
1510 -220 0
930 1353 0
-1432 -433 0
1133 -1164 0
998 904 0
-782 -1600 0
1100 29 0
-719 -923 0
-382 -1120 0
1570 -1458 0
-1246 -1429 0
392 -1591 0
98 -103 0
622 1225 0
-771 -761 0
1659 -1533 0
-881 -87 0
-1067 450 0
-1202 1156 0
-1299 16 0
-1264 623 0
-1292 -318 0
1337 169 0
-1526 -780 0
-869 591 0
-484 -806 0
654 -703 0
-1168 -1260 0
350 778 0
-412 1405 0
-1472 -785 0
-1566 -870 0
854 -519 0
-387 934 0
1407 1555 0
-401 -1098 0
362 -410 0
504 1590 0
206 -567 0
632 -1348 0
1686 -979 0
1278 -757 0
-891 1246 0
-667 -1534 0
-1430 -453 0
1321 1117 0
1392 942 0
-1179 278 0
1524 831 0
-377 -834 0
-484 -379 0
-1507 396 0
-971 -1178 0
-696 -481 0
-251 -692 0
129 -1126 0
-1146 -220 0
327 563 0
1585 1003 0
1295 1188 0
-645 965 0
376 1330 0
-1346 60 0
-1045 -1152 0
-2 -1012 0
217 1613 0
645 889 0
508 -942 0
-1597 166 0
435 -1239 0
-13 -1531 0
-555 1159 0
-1009 -569 0
-473 -905 0
1384 -206 0
-66 869 0
115 1144 0
-80 1505 0
-209 -1444 0
1512 -927 0
-1172 77 0
-242 814 0
-118 -1525 0
-1283 -194 0
740 -254 0
-845 1119 0
430 -136 0
739 -1601 0
-1339 570 0
736 -1688 0
771 1604 0
-1151 -198 0
1477 304 0
-1025 1485 0
241 -527 0
-993 -8 0
-1468 -1236 0
1048 -1293 0
78 1272 0
-1053 -612 0
1555 -825 0
-595 -1234 0
1275 559 0
978 -1306 0
873 1619 0
616 -488 0
450 -40 0
1069 -1547 0
-222 278 0
-1435 901 0
-1407 1041 0
374 -836 0
323 1099 0
1040 1258 0
-1549 1606 0
169 -54 0
-799 -1532 0
407 -360 0
925 1046 0
-518 -1161 0
877 363 0
-1007 888 0
1373 -1645 0
-1227 1584 0
1604 -405 0
1276 -1669 0
-634 -301 0
-857 -945 0
780 675 0
-963 -1168 0
1588 1160 0
-819 455 0
582 -244 0
207 1157 0
966 974 0
-1299 309 0
350 -955 0
1167 908 0
900 473 0
-840 206 0
985 -277 0
-1233 1361 0
398 805 0
-1581 -339 0
-1523 634 0
299 -1437 0
-1400 496 0
911 897 0
-28 -240 0
1141 1029 0
-1232 307 0
-1254 -265 0
-1040 1036 0
-1531 -1485 0
645 -1051 0
1166 727 0
-1335 29 0
340 -499 0
367 -1558 0
1032 -1602 0
-461 -92 0
467 1527 0
643 1690 0
-1192 -1430 0
-262 1261 0
73 -1511 0
1220 90 0
623 -876 0
1084 1673 0
1606 -542 0
1145 -984 0
1490 -1257 0
1271 526 0
-470 1642 0
-43 -1034 0
-1152 987 0
1291 426 0
-750 -882 0
-1641 204 0
-560 -1333 0
-1541 1366 0
799 795 0
-1394 -1427 0
-642 -890 0
-400 -1332 0
-416 308 0
-1120 741 0
-1493 812 0
-1187 123 0
-437 1322 0
629 717 0
1133 522 0
-572 -1318 0
-1018 -531 0
-1092 -283 0
-1399 943 0
132 -641 0
1119 -1410 0
-1428 1483 0
639 -1208 0
-746 566 0
376 1519 0
95 673 0
-287 -869 0
-1394 28 0
-515 -357 0
1010 -1635 0
-1551 32 0
1038 1473 0
196 1506 0
-1445 1617 0
-92 -869 0
5 -544 0
-1347 -325 0
1263 -1356 0
1419 689 0
-1461 166 0
-100 1004 0
-1499 -1226 0
791 1436 0
1355 -211 0
1616 375 0
-1109 1659 0
-1437 143 0
-418 -480 0
1066 -1139 0
-829 -415 0
155 383 0
116 -1047 0
627 -1222 0
-1342 320 0
304 -921 0
1012 993 0
427 -1005 0
54 -1631 0
-1392 -1320 0
-364 62 0
1186 -928 0
12 -1650 0
-712 1648 0
-1196 499 0
786 929 0
116 -1560 0
-1236 -1377 0
129 1041 0
-1195 640 0
-230 1524 0
982 1237 0
-915 1110 0
-999 -706 0
-542 212 0
1205 -152 0
-1669 294 0
970 -1132 0
-1117 201 0
-1177 455 0
577 159 0
-354 -503 0
1580 -777 0
-810 1326 0
-313 596 0
-1240 -902 0
410 -944 0
-453 595 0
1562 962 0
-1115 145 0
-1334 1388 0
-1143 1685 0
1172 -834 0
-627 -1630 0
655 -1226 0
1207 1566 0
701 -1263 0
-1038 40 0
1154 1342 0
-1631 -1383 0
1526 329 0
-772 -1604 0
-765 -1643 0
919 -939 0
828 -194 0
549 -601 0
600 1312 0
-464 -506 0
1688 1012 0
511 1140 0
-955 875 0
591 -912 0
-1633 -658 0
1190 1263 0
-1601 572 0
-1340 -395 0
-638 1535 0
1591 1455 0
221 1257 0
-978 -793 0
1381 -1146 0
918 -563 0
-789 946 0
288 1044 0
1 426 0
307 905 0
-1565 -1685 0
1237 1067 0
873 1682 0
-1602 -1466 0
-1375 857 0
-608 1613 0
-51 842 0
1257 -1085 0
546 -1197 0
709 961 0
1654 -839 0
1529 1009 0
664 -1546 0
-1326 1473 0
-1415 -1651 0
-1674 1189 0
868 1325 0
1347 897 0
142 1524 0
1308 -664 0
-1215 1108 0
147 217 0
-1132 -487 0
-597 -1647 0
-1285 -433 0
-1580 -373 0
756 -182 0
1659 -137 0
457 673 0
-409 -668 0
1203 261 0
1020 682 0
1269 1413 0
1572 -1303 0
1545 -194 0
85 1094 0
872 -1633 0
-1040 1677 0
-884 1647 0
1524 1108 0
621 1098 0
725 -866 0
889 261 0
678 74 0
1084 962 0
-802 -1168 0
-381 1615 0
-1311 -1204 0
593 -366 0
623 632 0
1051 1094 0
1286 1632 0
-1243 -1257 0
-1195 1567 0
444 941 0
-603 1574 0
1197 911 0
1348 -298 0
1067 -1119 0
966 -1006 0
-354 -1392 0
-737 143 0
-782 -559 0
1387 -667 0
-346 -1497 0
-1543 1609 0
1103 -1221 0
1530 -1092 0
1037 -1043 0
1422 -556 0
1218 1232 0
1095 136 0
-55 -491 0
755 1116 0
129 1342 0
742 -966 0
-1554 -949 0
451 -1664 0
-277 -1336 0
-1131 -679 0
-1675 894 0
1655 -1009 0
1501 -849 0
577 -1583 0
251 -951 0
-1433 -1212 0
-69 713 0
-575 -490 0
919 1579 0
-991 -851 0
754 359 0
-758 -563 0
1112 -610 0
-621 -1427 0
-558 1464 0
378 907 0
1500 -541 0
-797 1080 0
391 884 0
-1050 715 0
926 -483 0
1666 300 0
-41 35 0
760 684 0
1311 589 0
-1597 -1523 0
750 -1231 0
-1458 -111 0
-913 -247 0
-785 -1608 0
879 -287 0
984 1357 0
-928 -343 0
377 227 0
169 168 0
600 429 0
-1674 868 0
-1169 1059 0
710 -617 0
644 1340 0
-1151 -659 0
-1102 1163 0
-362 -1330 0
1524 646 0
-1438 1229 0
-1217 1681 0
1479 -930 0
1301 -763 0
488 -849 0
212 -1419 0
-305 51 0
-317 809 0
11 -569 0
-519 105 0
-179 95 0
-140 604 0
-1080 -748 0
-1441 -956 0
-407 907 0
-798 282 0
1412 -1684 0
-256 111 0
-360 -171 0
-657 -824 0
1501 754 0
-1340 -993 0
57 -854 0
483 1288 0
-145 134 0
1316 -1306 0
-1430 -1289 0
1510 -785 0
-933 -1106 0
454 -701 0
843 -566 0
-810 -645 0
-1523 393 0
-1221 1527 0
1051 -1021 0
-1315 -1372 0
372 1689 0
-275 -1513 0
793 300 0
-685 497 0
1554 -1028 0
600 -280 0
853 -1328 0
-220 -949 0
-141 858 0
-999 -420 0
-914 1510 0
-1487 -390 0
-260 -209 0
-551 -1271 0
-1534 -1622 0
1170 971 0
555 -1360 0
-522 132 0
206 909 0
-111 -1023 0
-199 212 0
-1573 -1483 0
1632 515 0
-272 -787 0
902 -1058 0
-189 -229 0
132 977 0
835 -585 0
-466 677 0
-287 601 0
-1238 1307 0
1457 846 0
1275 -1166 0
-247 -1354 0
351 882 0
1690 1030 0
398 -1555 0
75 797 0
-1550 792 0
1552 1577 0
-276 1323 0
-821 1067 0
-1182 -801 0
-869 -944 0
-970 600 0
-833 1049 0
328 1265 0
1116 793 0
1590 422 0
877 -109 0
-1630 1379 0
60 -182 0
52 395 0
640 -333 0
92 1325 0
-595 -1182 0
331 -797 0
-1462 -59 0
-1106 -89 0
1626 566 0
-838 -441 0
-747 984 0
1521 1400 0
880 -652 0
1209 1046 0
-99 -910 0
-1111 -1461 0
843 877 0
1673 84 0
1016 1247 0
334 1015 0
622 -218 0
840 -989 0
712 -1294 0
28 136 0
1515 1689 0
-1511 -112 0
-1324 1108 0
1567 172 0
1419 1332 0
-59 -41 0
272 -1195 0
959 -1407 0
-1166 -1427 0
-603 1312 0
-817 50 0
496 -621 0
-594 340 0
-1057 340 0
-1415 1150 0
-1494 -588 0
942 -708 0
-466 424 0
1595 88 0
1142 1031 0
-514 -384 0
57 1207 0
1142 649 0
1422 80 0
296 -116 0
-905 101 0
-1231 -1619 0
-590 18 0
922 1653 0
-1138 801 0
-11 741 0
-1228 -137 0
952 1179 0
1597 -1606 0
1207 1221 0
-718 1174 0
505 -134 0
-194 1380 0
389 118 0
1436 1014 0
136 -1677 0
-337 1578 0
-1688 -997 0
-1522 57 0
-578 1673 0
1084 1195 0
-1597 -1657 0
-905 -1521 0
1083 1267 0
1483 -11 0
735 -1685 0
-1626 377 0
-404 1492 0
-900 296 0
1580 1650 0
1488 208 0
273 58 0
-342 -94 0
878 153 0
70 -1616 0
-1037 -491 0
-98 1198 0
1142 -1618 0
633 -466 0
-1519 360 0
1066 -1450 0
-1612 1007 0
227 812 0
-449 -283 0
821 165 0
-1243 705 0
1189 1484 0
-876 707 0
-997 584 0
-1679 624 0
-272 -733 0
-1055 1310 0
323 689 0
1199 489 0
-117 174 0
-55 1645 0
1353 -514 0
-518 1609 0
1084 -1200 0
1169 1485 0
-700 564 0
-1290 -513 0
-349 -1600 0
1603 -1350 0
196 -1085 0
-834 902 0
-1499 514 0
1612 -1509 0
-275 -687 0
-828 -156 0
-874 221 0
642 -741 0
-1602 -1003 0
975 1630 0
-981 442 0
-73 -1596 0
1329 -478 0
-188 -1344 0
-1582 60 0
1190 248 0
-1056 735 0
-1151 1317 0
-1382 -867 0
-384 -411 0
929 -1175 0
1254 -958 0
605 1286 0
-1020 65 0
-782 971 0
-637 -250 0
-606 25 0
-186 1419 0
1404 -233 0
-748 -1531 0
412 995 0
1312 -287 0
-905 -107 0
-312 -1495 0
529 390 0
864 1488 0
-308 674 0
-1665 1030 0
-145 -990 0
501 -347 0
1321 -1290 0
648 1000 0
1177 -997 0
-126 1512 0
761 -540 0
-1450 -1193 0
1682 1595 0
28 -763 0
1523 1590 0
-305 1163 0
201 -1292 0
-1060 1646 0
-982 1188 0
1412 -1692 0
1013 1423 0
-333 1105 0
-1647 -465 0
1283 -574 0
-531 -671 0
-269 -1016 0
-199 1160 0
506 778 0
1026 381 0
-1446 -51 0
-650 213 0
1458 -1175 0
-955 -1547 0
-993 -155 0
-1097 1439 0
1555 108 0
-239 663 0
-673 -1126 0
-993 -248 0
-969 343 0
-1106 362 0
566 210 0
-502 -349 0
754 -1588 0
-413 -1167 0
104 -770 0
1579 1498 0
939 -671 0
-1176 679 0
790 -1129 0
-171 615 0
821 -1205 0
-407 1240 0
1038 -489 0
1164 -653 0
1088 -168 0
-1543 271 0
-557 1646 0
-704 697 0
-927 -787 0
-1035 -886 0
-753 1272 0
1137 1215 0
-1577 -783 0
674 -1504 0
-195 -1557 0
161 479 0
1184 222 0
-402 654 0
49 559 0
-717 -1661 0
897 -434 0
1263 1082 0
-1257 555 0
-932 1268 0
-409 1517 0
30 -721 0
1440 210 0
-259 -176 0
1494 -521 0
535 780 0
1114 660 0
230 936 0
-1011 -1575 0
75 -1592 0
1417 59 0
-1038 -1571 0
1520 133 0
529 -145 0
-575 -15 0
745 529 0
1477 1464 0
-364 130 0
-429 -1244 0
128 -1652 0
1099 1369 0
-386 389 0
-461 857 0
-434 1667 0
62 1610 0
198 -1507 0
742 252 0
67 558 0
-1503 695 0
-668 -1147 0
-402 1132 0
1619 155 0
693 -1121 0
-512 161 0
-709 516 0
-1543 -787 0
-1582 -320 0
-1111 -1394 0
-1202 -1225 0
1644 909 0
1071 744 0
-1104 1397 0
-738 391 0
-1553 749 0
1198 -1431 0
-1327 603 0
750 -639 0
-449 -82 0
754 969 0
270 1457 0
1365 1454 0
344 1519 0
1225 -1481 0
-1475 -1243 0
1692 791 0
391 -1632 0
618 -671 0
-224 -936 0
-1601 -1352 0
-864 1198 0
-326 -1567 0
1536 108 0
-891 -250 0
-1534 1220 0
1515 1038 0
49 -58 0
317 -276 0
-978 1477 0
1524 -685 0
1461 -1643 0
646 1241 0
1476 -1093 0
830 -1511 0
-160 179 0
202 1473 0
930 -942 0
821 360 0
780 93 0
783 1224 0
658 215 0
-303 -1468 0
-955 1628 0
-1492 365 0
-1516 995 0
226 1377 0
473 1670 0
-163 561 0
-1040 1224 0
1433 807 0
1548 1116 0
-900 1167 0
-1549 -1314 0
138 1475 0
-638 1056 0
-1318 1681 0
-294 1624 0
-1554 -1408 0
-88 -472 0
-1649 1431 0
-342 -687 0
1691 -1330 0
1528 -886 0
574 1221 0
-430 -706 0
55 121 0
680 -285 0
822 1076 0
252 544 0
-1662 148 0
1028 -409 0
-491 -1658 0
962 -555 0
1322 -326 0
-790 -1081 0
405 -334 0
496 972 0
-775 1201 0
814 1032 0
-494 -782 0
1523 -849 0
1291 -1506 0
543 -10 0
1454 732 0
324 -849 0
-1070 1200 0
809 -1553 0
776 987 0
-1429 -1021 0
1523 -432 0
-1314 -38 0
941 -1576 0
257 -276 0
-75 717 0
961 777 0
-281 1008 0
323 -1061 0
1071 951 0
-79 -1063 0
521 -520 0
722 -429 0
247 1598 0
-335 1275 0
-383 -1498 0
-453 166 0
1667 -949 0
-341 676 0
-684 -1246 0
-1510 -1273 0
-975 -106 0
883 -1326 0
136 504 0
-1647 1015 0
468 -31 0
932 447 0
1595 1501 0
973 -1598 0
-349 1631 0
-1461 -174 0
270 831 0
-549 560 0
-325 1506 0
-1077 -816 0
-311 258 0
-669 732 0
-117 11 0
-192 -1250 0
-886 115 0
-71 -198 0
554 1597 0
-154 1426 0
-874 -711 0
962 -889 0
514 1136 0
392 350 0
141 -758 0
-1041 84 0
1205 -77 0
-433 -305 0
-1365 -1104 0
-1374 -1669 0
1461 -1687 0
42 1472 0
1668 1199 0
880 -1382 0
1088 -638 0
-151 1685 0
511 913 0
1004 -223 0
672 1372 0
153 -137 0
606 -1260 0
1364 625 0
1103 449 0
-124 315 0
379 -556 0
24 -1679 0
700 555 0
-1007 762 0
498 1016 0
-1654 -1633 0
257 -1458 0
-1176 109 0
1105 1277 0
719 -1236 0
1225 445 0
-77 746 0
941 609 0
45 -1112 0
530 -97 0
-808 -549 0
-334 -522 0
-229 -892 0
-650 -726 0
-973 388 0
1585 397 0
-180 463 0
1352 947 0
1151 -269 0
-1049 1574 0
1008 -428 0
-235 1188 0
-719 948 0
-603 1199 0
-782 601 0
425 990 0
-1326 665 0
1311 -397 0
-688 1613 0
1316 1251 0
481 655 0
-503 -1120 0
1410 -1683 0
-209 1129 0
655 1024 0
-1232 -1204 0
-53 -1553 0
1569 1230 0
1102 -1266 0
-1056 -1031 0
341 1262 0
-655 1245 0
-334 -935 0
1082 -829 0
1684 -1446 0
-1114 972 0
-539 1506 0
-1652 -441 0
-332 888 0
1512 -1364 0
1537 129 0
-1437 1434 0
-1553 -1357 0
-240 956 0
-1338 -734 0
-937 -60 0
-686 1410 0
1554 1119 0
-993 450 0
-152 -519 0
-916 448 0
641 1315 0
-256 876 0
1489 29 0
1008 1599 0
1247 1417 0
1395 -838 0
-367 -1061 0
-1250 -882 0
384 -499 0
-1102 -1431 0
1097 -1284 0
-664 598 0
292 448 0
-1322 1539 0
605 -86 0
567 -1582 0
938 298 0
-870 104 0
-1033 202 0
-1564 57 0
-1009 367 0
84 -408 0
876 -160 0
-382 -1090 0
952 -277 0
-1431 889 0
497 -1020 0
688 1690 0
-1082 1592 0
562 1218 0
-1318 -1459 0
-468 661 0
925 -501 0
-781 1584 0
586 853 0
856 1196 0
1100 1579 0
1526 1039 0
1016 -269 0
-171 131 0
-23 1110 0
-19 -247 0
486 1117 0
-1345 -1131 0
573 -784 0
570 469 0
-1395 -1330 0
-1467 -784 0
-1106 -145 0
-18 374 0
-1124 445 0
-70 988 0
1460 -1462 0
487 589 0
-990 -1236 0
179 -1598 0
-852 916 0
-1679 -956 0
516 -229 0
-777 -1064 0
-1484 1468 0
813 -1552 0
-898 1408 0
735 -810 0
-501 1451 0
1026 372 0
-1291 793 0
-1539 1666 0
527 -874 0
147 -1151 0
779 1381 0
1183 -1431 0
-28 -1377 0
-443 474 0
-1387 1022 0
-671 -806 0
1425 1664 0
-1275 -19 0
-64 -590 0
-1633 -1636 0
-945 -812 0
-716 346 0
1459 -730 0
620 -1330 0
850 1395 0
33 632 0
-1375 -1674 0
-1326 307 0
-1338 60 0
173 186 0
753 -1247 0
1270 972 0
934 1061 0
-570 -657 0
-1626 710 0
-739 -317 0
-1532 -289 0
-618 223 0
-643 148 0
-536 570 0
-723 -305 0
1251 -958 0
-1587 1267 0
1166 -826 0
-1112 -63 0
1201 -863 0
-259 188 0
1167 601 0
-382 -607 0
-643 -1118 0
-1020 -338 0
-1033 193 0
-833 -516 0
1214 50 0
475 -1027 0
-145 -558 0
-360 -421 0
911 431 0
621 -107 0
1471 45 0
1689 -808 0
1505 958 0
1362 328 0
648 -690 0
808 1684 0
-1480 -354 0
-213 315 0
1046 -708 0
-598 -899 0
430 213 0
-683 838 0
877 1062 0
780 -1202 0
710 1334 0
1007 -769 0
-1367 1671 0
-994 904 0
-1270 40 0
661 -1493 0
282 1344 0
-853 -876 0
-912 -695 0
411 -536 0
-314 -287 0
1485 -1446 0
181 730 0
699 -1531 0
190 -26 0
-1240 1296 0
635 -558 0
-782 -1095 0
1177 1161 0
-272 1278 0
-1460 -700 0
1692 -956 0
1685 -1254 0
-1526 -81 0
1193 -1462 0
951 -1080 0
-727 -199 0
448 -1671 0
978 -1360 0
-461 -1127 0
1300 -1567 0
-943 -1354 0
526 232 0
-208 -1009 0
691 -387 0
1035 988 0
-271 -706 0
1371 -1286 0
-906 22 0
-482 -1315 0
-973 -291 0
1069 1443 0
-1428 360 0
-687 -1322 0
759 626 0
-122 -724 0
-1565 1256 0
398 -756 0
1449 169 0
967 -1333 0
-1121 -1233 0
1363 -1580 0
-266 -1111 0
-481 -1245 0
1505 -827 0
-690 -1006 0
1267 -1635 0
-1016 342 0
1019 -58 0
-984 -1055 0
362 -901 0
-699 1441 0
-1625 -837 0
-395 -583 0
-863 -384 0
-379 451 0
1099 -1638 0
909 179 0
-590 -1376 0
1569 -378 0
105 1007 0
-544 -34 0
-735 1689 0
1328 -772 0
-1215 -1162 0
-1649 1529 0
-1564 -1261 0
387 -1075 0
-758 -1447 0
392 -1158 0
1640 -170 0
1028 -1360 0
745 1224 0
178 -361 0
-892 984 0
179 -328 0
138 420 0
-300 131 0
-806 295 0
1292 -189 0
-1411 677 0
390 266 0
1122 223 0
-610 49 0
-610 405 0
1223 1086 0
248 -1537 0
1118 -540 0
-1115 1287 0
-615 938 0
666 -1143 0
-313 -1409 0
1141 -851 0
206 -220 0
1453 -300 0
1561 857 0
-1014 98 0
-811 -139 0
-1168 1552 0
487 443 0
1640 -1150 0
1562 -477 0
-1430 -644 0
-644 583 0
153 1601 0
-1204 796 0
227 -457 0
-536 535 0
-1187 566 0
-638 569 0
-64 586 0
601 -264 0
-501 405 0
645 130 0
-1292 1353 0
627 -1665 0
-1111 398 0
313 3 0
1187 -580 0
1480 -1692 0
227 -976 0
1383 -1570 0
860 -1568 0
-360 915 0
312 1329 0
1297 628 0
1381 -1058 0
902 453 0
486 957 0
-419 769 0
242 60 0
498 -834 0
874 -1169 0
-920 248 0
-501 1590 0
1173 607 0
1576 832 0
-1155 -1085 0
-785 -615 0
-825 196 0
-311 -545 0
656 -807 0
1590 -1173 0
775 -489 0
-1230 -1332 0
694 159 0
858 -391 0
-1337 951 0
-817 -209 0
-552 450 0
1091 -1252 0
-1415 858 0
-1226 1583 0
547 902 0
-235 1550 0
-777 128 0
-1002 971 0
27 -903 0
1299 -1265 0
1050 1173 0
-1263 -1222 0
541 255 0
1321 966 0
502 1542 0
1546 535 0
1429 -113 0
1352 -1483 0
-378 -439 0
-111 985 0
-207 883 0
-1047 -59 0
-615 -669 0
642 -39 0
696 962 0
-362 448 0
920 -59 0
358 -336 0
-59 -505 0
815 1317 0
-872 -810 0
1554 745 0
1026 -1397 0
286 887 0
-964 359 0
1224 -593 0
-714 1103 0
1603 207 0
-1178 412 0
-1113 -1645 0
-499 -165 0
-366 121 0
604 1200 0
211 -1356 0
1164 624 0
-1607 1014 0
-1431 -532 0
366 -255 0
1486 -794 0
352 641 0
1374 1059 0
-1614 1620 0
22 -1379 0
1152 -214 0
-225 -1112 0
-274 527 0
265 -1580 0
-644 -1389 0
1015 -349 0
-259 -1414 0
710 -1684 0
811 -1430 0
67 -774 0
-1249 -1548 0
-1170 512 0
1034 254 0
-794 732 0
1129 -242 0
798 861 0
497 -621 0
1392 -388 0
1588 869 0
596 -429 0
61 343 0
1029 1533 0
-59 533 0
858 1044 0
-32 1349 0
-1034 985 0
1466 158 0
528 -493 0
-265 -994 0
-1598 424 0
1388 1017 0
154 1244 0
980 -1639 0
-66 -501 0
50 -408 0
1478 -351 0
351 -169 0
1221 -290 0
1425 1682 0
541 -921 0
-256 736 0
1185 843 0
-1643 797 0
-461 1170 0
1620 -163 0
1593 514 0
1529 1021 0
1588 -1119 0
-758 -1501 0
74 -53 0
-1370 -1432 0
1207 858 0
-271 883 0
-833 1451 0
-1469 745 0
434 -431 0
660 -497 0
1032 -1214 0
-978 1621 0
-561 -1389 0
295 -1166 0
-1425 383 0
-682 701 0
1125 532 0
-1659 -462 0
-622 -846 0
456 -116 0
-64 376 0
43 -1331 0
-269 1406 0
1682 1460 0
-485 1397 0
794 1198 0
-8 -1373 0
-931 -226 0
661 -504 0
-938 -462 0
565 992 0
-4 1122 0
1491 674 0
-872 -1223 0
723 625 0
-325 1392 0
1012 -177 0
-968 -1054 0
-1517 1683 0
159 -1202 0
-1449 985 0
-1255 -437 0
1329 803 0
852 -1187 0
660 1205 0
-71 -644 0
-828 -1084 0
1369 -1248 0
-707 434 0
1692 -1140 0
-1430 -1531 0
-75 1024 0
-785 -371 0
-1398 -987 0
736 -1052 0
1618 512 0
-1052 -275 0
-1279 859 0
-1544 -912 0
-1278 -399 0
1216 -1162 0
-901 548 0
-1009 818 0
-1148 -1556 0
-347 -505 0
1648 -1567 0
-1046 785 0
-884 1373 0
247 1185 0
844 1207 0
-523 603 0
1566 659 0
595 -1330 0
972 -757 0
1440 450 0
-45 -112 0
68 947 0
-776 -1281 0
1171 -96 0
159 -284 0
880 1579 0
1198 -1377 0
-1598 -876 0
-947 -1090 0
1494 137 0
-121 260 0
-442 -155 0
527 -316 0
-1030 104 0
33 -534 0
826 -151 0
-735 1366 0
1538 1472 0
-176 479 0
-321 -337 0
-922 1593 0
1000 1031 0
-1252 -706 0
987 -1114 0
-301 1217 0
-1307 -649 0
-552 679 0
-1531 1505 0
-706 1656 0
-1361 -499 0
171 -175 0
-1431 -1148 0
-59 299 0
854 -122 0
669 -728 0
1110 376 0
966 1301 0
-181 -365 0
728 -1489 0
-520 -150 0
-498 -1647 0
1417 -1512 0
-502 -1438 0
-634 921 0
-835 -1589 0
-144 -1088 0
-622 1395 0
1617 1203 0
1055 -756 0
-92 -1171 0
-1157 1670 0
371 -580 0
753 222 0
-387 168 0
723 203 0
785 -237 0
-1652 -224 0
-1470 -255 0
-1431 -169 0
-1186 -83 0
-782 668 0
982 1477 0
238 1311 0
-192 1109 0
1041 435 0
1380 893 0
-416 1105 0
-688 -1011 0
-163 1328 0
295 541 0
1450 -1516 0
181 -1044 0
673 1351 0
565 -1179 0
-564 1189 0
-594 960 0
-5 1590 0
-123 -275 0
-594 -912 0
-217 -576 0
136 -57 0
-2 -318 0
220 285 0
1258 -1080 0
1323 -1414 0
-1165 3 0
-500 -237 0
876 -882 0
-1538 -1305 0
873 845 0
-354 -1016 0
-1021 -518 0
548 -183 0
-1201 67 0
-1134 -852 0
1250 -1612 0
-1509 -649 0
65 -1196 0
546 979 0
-614 430 0
-26 1095 0
57 -608 0
-1090 -1092 0
749 769 0
-413 -1280 0
-578 -1368 0
1612 -47 0
-733 -1037 0
944 374 0
-451 169 0
352 -437 0
-488 -332 0
-197 -341 0
-999 -1354 0
1334 -512 0
1679 959 0
713 918 0
232 173 0
760 1122 0
-935 1004 0
384 -628 0
-751 582 0
1201 -1225 0
-1502 54 0
1670 -1398 0
1639 -679 0
496 1253 0
865 -204 0
-1137 1188 0
-732 -109 0
1022 -497 0
1341 750 0
-884 1478 0
467 -539 0
-1279 -1382 0
1347 1096 0
-786 1485 0
-199 1597 0
-1068 383 0
129 848 0
-704 -288 0
-1647 -1310 0
1298 695 0
-156 824 0
-698 867 0
-630 1301 0
-220 -1636 0
1377 -242 0
-1277 -61 0
-1448 -552 0
383 -95 0
56 -486 0
-1168 889 0
-311 1668 0
-756 -892 0
-1292 -156 0
-1433 -1104 0
943 1086 0
-358 1610 0
-320 56 0
-87 -1576 0
215 -465 0
-206 669 0
-10 1579 0
-614 -132 0
-142 1591 0
190 111 0
-921 -646 0
-89 1678 0
-925 190 0
-1222 -819 0
1032 80 0
-1168 766 0
223 -423 0
1591 -1313 0
-1159 -549 0
-278 1362 0
-794 -7 0
1351 -1637 0
75 638 0
708 245 0
-1055 1151 0
1066 1680 0
995 -6 0
1072 -1116 0
400 1534 0
-957 1665 0
-1444 1450 0
-40 1595 0
331 -1051 0
-1001 1042 0
-1064 -1456 0
996 -730 0
-761 932 0
392 138 0
-1127 1512 0
1 193 0
-984 -133 0
-308 -1089 0
351 729 0
655 -11 0
-394 1596 0
-1203 1340 0
-26 -1494 0
-1631 -1154 0
-849 1543 0
-99 -1278 0
271 672 0
1054 -356 0
1371 -1135 0
228 467 0
-1507 127 0
-609 470 0
-1323 -109 0
-179 -1416 0
308 819 0
181 -1498 0
1101 -1583 0
1545 320 0
1371 -1487 0
-1058 226 0
-416 81 0
-1383 1550 0
-1496 907 0
-159 -518 0
-1357 -1239 0
-164 -989 0
-1216 -1610 0
-433 -1670 0
-152 -671 0
-205 -933 0
-403 733 0
703 60 0
-48 1227 0
1548 235 0
-1175 1674 0
-1691 -1181 0
1513 -1273 0
-96 1413 0
-1461 128 0
-849 -151 0
-838 1142 0
1017 268 0
-34 -537 0
816 -1201 0
204 1391 0
1541 1213 0
1001 -610 0
1552 -1525 0
205 -1391 0
-74 469 0
-69 481 0
-1318 254 0
267 -697 0
1118 1514 0
1316 72 0
-991 -458 0
-1537 -1497 0
-1529 938 0
842 -1650 0
-1232 4 0
-371 939 0
1477 439 0
-1445 279 0
1301 432 0
796 1203 0
159 1594 0
-301 -24 0
-1334 -550 0
-193 1592 0
608 1291 0
915 739 0
1544 -637 0
429 235 0
660 -550 0
1586 170 0
1425 260 0
-540 -761 0
1451 -1540 0
-551 -453 0
359 -1604 0
135 -386 0
591 1076 0
982 -476 0
222 -24 0
1256 -361 0
1618 -1323 0
875 -1506 0
974 -529 0
114 -1673 0
24 1415 0
-583 -758 0
896 1094 0
813 897 0
151 -787 0
-333 -1483 0
989 -467 0
1045 1322 0
-1081 1450 0
-284 154 0
-485 -184 0
778 -1244 0
754 -892 0
459 -1635 0
786 1412 0
1457 1365 0
972 93 0
-633 1102 0
-897 -1370 0
201 1091 0
370 -1543 0
-782 -80 0
940 3 0
-920 -927 0
-1496 675 0
-544 -66 0
296 1160 0
1634 1663 0
202 -1323 0
-1583 69 0
-1250 1141 0
-324 -896 0
-379 -1073 0
1251 787 0
-168 -581 0
894 -1065 0
934 1399 0
-950 1008 0
-863 -439 0
1480 -1643 0
-753 1536 0
-1058 877 0
-286 -1531 0
-1448 454 0
1094 398 0
1100 -1276 0
-79 1577 0
-1655 -1292 0
1499 926 0
779 1243 0
-378 -306 0
729 1064 0
1163 826 0
984 530 0
1259 -306 0
764 -1661 0
-1123 398 0
-1667 -1303 0
-496 519 0
16 1614 0
-1511 1431 0
-1254 865 0
-1648 1415 0
710 -579 0
921 -65 0
735 -1598 0
-876 -456 0
1234 115 0
-734 -39 0
-930 31 0
-1326 -490 0
-214 -1216 0
399 -1148 0
1018 474 0
-621 897 0
357 -1104 0
-1393 712 0
1164 -351 0
1352 1205 0
1536 1426 0
1255 1288 0
1035 171 0
-1415 797 0
1649 934 0
1441 -322 0
-1316 -1586 0
739 -419 0
-426 740 0
-1320 -963 0
101 62 0
-1491 1161 0
856 835 0
-178 -923 0
877 -459 0
-778 -724 0
-942 -252 0
1318 455 0
-1551 -1234 0
-44 -547 0
348 948 0
771 -534 0
1475 771 0
145 508 0
-572 -1675 0
78 -563 0
-1317 1328 0
-915 1545 0
190 -1654 0
415 1083 0
-1652 1253 0
1385 -862 0
87 -368 0
-199 -1303 0
383 -400 0
1019 -1151 0
-1323 -222 0
245 -87 0
-134 412 0
-489 -1607 0
-1011 1328 0
-1010 1128 0
-1318 1478 0
967 -996 0
-403 -449 0
308 1603 0
-13 1539 0
1257 1619 0
-1152 -17 0
1088 -1235 0
458 135 0
-1118 -1452 0
-1443 -1270 0
-1319 -1456 0
1136 274 0
-202 -828 0
1302 24 0
1392 1142 0
-1330 -801 0
1644 166 0
723 -43 0
1391 95 0
-189 617 0
-794 385 0
1142 -1178 0
-91 -920 0
-695 454 0
1005 1358 0
-939 1202 0
757 -512 0
-1461 -926 0
1545 -590 0
-1154 866 0
-1504 -1626 0
842 -57 0
-352 678 0
628 362 0
-1009 -420 0
497 1371 0
60 424 0
-610 1243 0
-757 -1605 0
574 -1456 0
1209 -501 0
636 1293 0
-1687 -253 0
-140 1468 0
-1526 -107 0
115 342 0
892 582 0
1458 754 0
914 -629 0
-1190 -1502 0
-1111 -276 0
1310 -1463 0
1542 -1134 0
109 1628 0
-1319 185 0
731 1019 0
707 -793 0
564 -889 0
-1281 -86 0
988 -139 0
-258 -382 0
-1567 -1232 0
222 962 0
-1540 -1237 0
1494 -1502 0
-1099 -939 0
-614 1272 0
555 -862 0
-814 -614 0
-784 1091 0
779 -1007 0
-410 -381 0
1668 90 0
1062 -1006 0
1212 -928 0
-1580 233 0
584 -896 0
244 1040 0
-735 -706 0
97 707 0
-34 1001 0
398 -385 0
804 -557 0
-1401 -244 0
-884 759 0
1666 -1220 0
-69 1636 0
-409 -1423 0
-310 495 0
838 -277 0
-608 -976 0
-991 1670 0
-224 607 0
-1536 1349 0
-971 1597 0
1232 174 0
968 285 0
-21 191 0
-346 -38 0
916 -413 0
-766 374 0
-325 225 0
1619 -1079 0
-323 555 0
-472 720 0
-1165 1547 0
-824 987 0
883 725 0
-761 1101 0
663 394 0
-418 -1347 0
-766 1357 0
-630 177 0
-943 -792 0
907 -1242 0
1293 1471 0
-1674 1054 0
-665 1530 0
622 1135 0
1163 -1262 0
1281 -1407 0
414 -45 0
-443 -1305 0
-1226 -390 0
1509 1500 0
-679 779 0
-259 585 0
54 -1614 0
190 355 0
161 -249 0
-159 1028 0
-1070 -1051 0
1220 1580 0
-273 -311 0
-785 -1361 0
574 619 0
78 -846 0
1296 1346 0
1404 1593 0
-1111 1218 0
414 -1633 0
-470 -690 0
-610 -1020 0
141 -371 0
498 975 0
1134 -984 0
-1315 -1111 0
-728 1348 0
348 -567 0
1426 -501 0
1020 -666 0
1476 -1133 0
-724 555 0
-1556 -963 0
-366 342 0
980 1285 0
794 -585 0
1667 -1598 0
1592 1546 0
-772 -557 0
1256 -298 0
-1557 653 0
-853 792 0
-556 -1347 0
417 -1494 0
576 455 0
774 407 0
-1564 -172 0
932 823 0
636 -43 0
-1360 -1672 0
284 -797 0
-399 -1615 0
1559 1452 0
1181 1019 0
684 -968 0
1376 1244 0
354 -304 0
1377 1179 0
381 -312 0
1209 1340 0
39 -1231 0
-670 449 0
-1414 1215 0
300 -145 0
250 245 0
-876 277 0
-734 183 0
-696 1595 0
1678 -151 0
1428 1351 0
695 1037 0
20 -139 0
-534 905 0
1361 1620 0
509 -1583 0
-937 1528 0
-1540 1059 0
1436 375 0
-631 127 0
1578 77 0
-1523 1123 0
564 -1540 0
952 -292 0
-856 133 0
-1544 318 0
-535 33 0
843 1266 0
302 -969 0
715 -271 0
-1023 1659 0
-1475 1657 0
-165 -592 0
-1025 -895 0
101 641 0
1128 -839 0
389 1510 0
-189 684 0
925 -1046 0
862 -391 0
456 -558 0
353 -1686 0
-1002 -1512 0
883 -709 0
-1640 185 0
-1449 -333 0
-110 -55 0
-901 -211 0
498 -1138 0
1245 -143 0
-1566 1144 0
1406 -1326 0
-82 -550 0
508 1621 0
52 735 0
1265 865 0
-833 -53 0
1102 319 0
-638 -222 0
146 -494 0
-456 459 0
-1010 -537 0
943 -503 0
-281 -948 0
728 -716 0
-168 -759 0
-291 1280 0
35 1388 0
1555 1518 0
1314 -794 0
1469 1507 0
-815 731 0
-302 363 0
-149 -1079 0
354 -1503 0
-236 -1508 0
-1219 -537 0
-824 1692 0
822 1116 0
-574 1385 0
-134 -240 0
500 1395 0
-421 1535 0
1026 1591 0
728 -600 0
803 550 0
1101 684 0
-1334 -1271 0
-1058 -490 0
886 -581 0
-645 -781 0
268 -1596 0
1105 -46 0
626 1585 0
680 -663 0
-1142 1102 0
1122 -1226 0
1137 285 0
893 787 0
564 -1406 0
1412 -1522 0
872 1529 0
-1400 1413 0
1059 -1248 0
-1152 -1398 0
3 -708 0
1135 -823 0
477 -1641 0
223 -574 0
-1046 1288 0
77 140 0
-401 -1050 0
211 689 0
-1533 -1389 0
342 1545 0
415 854 0
-698 1345 0
170 -1169 0
1603 -84 0
1044 1136 0
926 1411 0
-1304 481 0
-1361 -1446 0
-454 -700 0
842 1136 0
307 1027 0
-446 603 0
-637 -552 0
-1155 1618 0
588 -1077 0
1328 -785 0
1311 -1151 0
-950 -566 0
1288 317 0
1098 -400 0
1225 -1677 0
1554 -1428 0
-183 72 0
-182 -798 0
-205 -666 0
853 -1244 0
-1234 854 0
-1356 1360 0
-301 915 0
1211 957 0
858 227 0
-569 -1160 0
112 1237 0
213 -929 0
48 -122 0
-1518 -381 0
720 -837 0
-320 1130 0
-673 -1162 0
-956 1122 0
1607 -1226 0
818 965 0
-162 625 0
11 -1566 0
1392 1429 0
1004 643 0
-1125 -1112 0
1156 -1085 0
-1620 854 0
-1522 838 0
-556 -1449 0
140 -1169 0
414 -270 0
-649 1554 0
-1014 788 0
588 -1081 0
-407 -1424 0
-610 70 0
-593 -1090 0
-493 -544 0
1101 -565 0
-592 1324 0
245 103 0
1235 -346 0
-55 -308 0
493 -371 0
717 1536 0
-911 -679 0
-524 385 0
1566 -13 0
1062 1472 0
-1391 67 0
1287 -1226 0
-53 -1625 0
162 -1402 0
-1497 -183 0
-17 -911 0
-1634 -733 0
-815 32 0
-1375 -751 0
180 1114 0
-1414 -637 0
-1481 -8 0
-747 -542 0
-737 -280 0
1447 450 0
1111 234 0
1659 -985 0
847 1383 0
-428 545 0
-523 745 0
1596 1591 0
-177 -1484 0
1018 274 0
1278 -1489 0
-1452 -489 0
606 348 0
285 -245 0
223 -13 0
1322 193 0
-639 815 0
661 -1151 0
-785 1379 0
-1664 -1257 0
848 -1634 0
-601 -754 0
1602 -1531 0
-193 749 0
-216 571 0
-1497 568 0
-302 -1635 0
-696 813 0
800 1051 0
469 -998 0
1603 1268 0
-913 412 0
-1533 577 0
-63 -1111 0
-937 1225 0
-1687 -304 0
-1259 1644 0
-1429 -1560 0
511 -1006 0
803 1443 0
-827 95 0
-200 938 0
-761 790 0
-419 -271 0
-760 642 0
1005 -589 0
52 535 0
-264 778 0
764 -1162 0
-899 1351 0
-1327 455 0
1542 1638 0
-276 1261 0
1087 -461 0
-1317 -1403 0
-424 45 0
212 -107 0
-1582 -674 0
-276 -199 0
-1051 -475 0
-981 -382 0
470 -884 0
352 -132 0
-461 523 0
-287 307 0
-1621 768 0
810 1251 0
666 -1138 0
961 -59 0
-34 430 0
1326 842 0
1154 -71 0
1386 323 0
-1456 546 0
1409 1167 0
-1424 1291 0
599 -1222 0
563 -1513 0
1366 49 0
-472 -481 0
-979 1552 0
-1169 -756 0
-621 425 0
1026 -536 0
138 396 0
-697 -644 0
228 479 0
-691 185 0
1683 -316 0
-1245 -770 0
-834 -1105 0
1684 -220 0
-1117 472 0
-789 -1106 0
1110 757 0
-574 1008 0
636 -912 0
-1664 -1581 0
1677 238 0
720 -85 0
-1537 -1124 0
-291 -506 0
1164 1065 0
1059 1686 0
-76 -501 0
280 -827 0
1029 -714 0
-168 -678 0
-1277 -233 0
267 1463 0
-806 1512 0
-1661 -534 0
711 989 0
342 61 0
279 1255 0
-190 1177 0
487 -789 0
-1395 396 0
328 -1596 0
-1269 1495 0
-152 791 0
-1152 1365 0
-767 -1328 0
-1601 797 0
-647 -1054 0
1317 -1642 0
615 -347 0
-1086 1031 0
-379 791 0
-1135 1490 0
-318 -206 0
-1415 1087 0
-838 -798 0
487 21 0
-1181 293 0
-1168 -896 0
-896 258 0
-1056 -1408 0
-1114 1542 0
-1017 -1260 0
-724 1621 0
-650 -1384 0
1193 720 0
605 -1240 0
-86 -69 0
1471 -537 0
-457 762 0
1378 1296 0
-1153 296 0
-826 356 0
-1575 -850 0
671 -38 0
1666 427 0
-152 -295 0
498 711 0
1672 107 0
619 -348 0
-304 -1582 0
-1625 -483 0
955 1199 0
926 -1131 0
127 -517 0
804 -1548 0
-1582 1005 0
618 128 0
290 1258 0
-819 -1399 0
-1379 -494 0
-188 452 0
466 988 0
960 -729 0
1425 1102 0
139 -1023 0
-126 1203 0
-1392 1682 0
-985 -826 0
-1467 1677 0
1542 -1519 0
780 593 0
553 -692 0
1525 -544 0
-1124 1322 0
1031 509 0
28 1366 0
248 -335 0
-1580 1268 0
-418 1663 0
1578 -1368 0
-761 604 0
1185 215 0
-1534 1199 0
-69 -1118 0
-956 -954 0
-522 -405 0
392 1667 0
-285 1392 0
94 -1214 0
-581 -192 0
1207 1294 0
1386 -686 0
980 -83 0
-20 -601 0
1063 -376 0
-536 569 0
-1222 1112 0
-107 110 0
-1329 167 0
-66 -1598 0
1139 -1137 0
1641 -820 0
48 -1475 0
-956 -1670 0
1531 -551 0
-83 92 0
-1001 174 0
-1654 501 0
-1543 -1593 0
-798 1187 0
1438 -89 0
778 -845 0
-235 -432 0
848 510 0
1355 -1253 0
-83 1209 0
-119 1565 0
778 -465 0
699 -8 0
833 936 0
813 431 0
-1240 1242 0
450 1348 0
996 -969 0
-142 68 0
988 753 0
530 23 0
-1421 606 0
-644 1658 0
-1547 -1118 0
-550 -365 0
-163 -1403 0
-1115 -89 0
89 45 0
1007 -71 0
-381 1030 0
-410 -1124 0
-301 362 0
-1403 -1616 0
660 -1555 0
-370 384 0
269 1301 0
179 798 0
-301 593 0
-136 165 0
-665 1623 0
9 -65 0
1452 294 0
790 -1654 0
1400 652 0
1621 -711 0
-1359 -98 0
251 952 0
756 136 0
-26 860 0
-421 66 0
-520 615 0
-945 800 0
561 -1508 0
526 1528 0
-1218 -1372 0
561 1118 0
843 76 0
456 639 0
1234 -1257 0
1460 1164 0
-705 1150 0
34 -1331 0
1417 1419 0
-1343 1179 0
-936 -1060 0
567 -262 0
156 -1636 0
438 -1556 0
-1387 1517 0
-1558 -1608 0
-643 967 0
324 -279 0
-649 502 0
344 -1336 0
-367 -1131 0
208 853 0
-937 1504 0
1365 -505 0
-654 -1134 0
-48 287 0
103 1139 0
1682 1356 0
-1211 342 0
508 1599 0
-852 -506 0
632 -700 0
-1314 1599 0
-645 151 0
-146 970 0
-507 32 0
-1535 -116 0
42 -826 0
517 -904 0
628 68 0
1491 -66 0
-968 -487 0
1006 -1002 0
1586 -1430 0
911 9 0
1435 -597 0
-1347 1279 0
-787 -655 0
-1079 -900 0
1470 -773 0
68 -199 0
1256 -508 0
435 1041 0
-755 -1613 0
1593 1063 0
181 -1444 0
1002 813 0
1672 555 0
-617 -1595 0
-654 -256 0
-942 -692 0
-1057 -217 0
878 1574 0
842 -738 0
1634 1019 0
-1486 75 0
1266 -1138 0
-516 628 0
-402 -1339 0
-753 1441 0
128 1670 0
1151 -810 0
-1299 -1306 0
1103 1168 0
-946 219 0
-499 990 0
-871 915 0
1299 -665 0
384 -1117 0
1262 -225 0
1482 -372 0
-1053 1572 0
115 -766 0
1201 994 0
1425 1004 0
-1579 -637 0
898 861 0
-805 841 0
242 161 0
1542 -1371 0
-26 517 0
988 849 0
998 108 0
98 565 0
-442 -1259 0
77 399 0
-295 -123 0
-1551 352 0
-1443 -550 0
-227 1037 0
528 -1533 0
639 1644 0
837 -1399 0
-820 1082 0
1410 388 0
382 1650 0
16 -834 0
161 892 0
-1625 -1088 0
-1303 457 0
494 -652 0
412 967 0
-1057 -301 0
1636 1434 0
344 699 0
-1639 12 0
-1390 323 0
1477 1617 0
-244 1235 0
-820 153 0
1641 -896 0
-209 1220 0
1598 -1657 0
-1546 -1091 0
917 -1548 0
231 267 0
780 1421 0
151 1566 0
-294 1284 0
1113 -1314 0
-182 1060 0
-1651 609 0
-873 313 0
-168 -1679 0
1452 136 0
-476 -396 0
-677 162 0
-1401 566 0
1608 -747 0
186 1569 0
284 859 0
1325 -998 0
-1319 -1014 0
641 943 0
745 -139 0
28 -1606 0
-949 398 0
-1220 -1391 0
-1202 -1184 0
294 3 0
-994 63 0
1301 895 0
-1438 -999 0
-799 -1136 0
-814 -8 0
165 891 0
-27 790 0
438 1556 0
684 -388 0
1619 -1395 0
17 541 0
-1591 1624 0
-912 -1056 0
711 -1443 0
-482 744 0
-480 1370 0
1149 -1134 0
-303 1648 0
-449 -817 0
-1539 -1399 0
661 -224 0
-1364 1587 0
266 1174 0
-552 642 0
-381 872 0
441 -1442 0
-37 -952 0
-323 -1210 0
1123 1193 0
556 -686 0
-871 586 0
1136 -45 0
-90 1616 0
752 1529 0
1284 -991 0
1676 -1029 0
-1428 -767 0
973 1656 0
-762 -81 0
-1092 -664 0
1360 -983 0
-376 951 0
-428 -1142 0
-368 -304 0
660 -460 0
1524 821 0
1161 847 0
1517 969 0
1287 -400 0
-1624 -1581 0
1163 1291 0
-404 -951 0
-1285 1195 0
123 -1273 0
1530 -1234 0
-318 -815 0
1488 379 0
1084 -994 0
-1202 538 0
-949 -674 0
-294 -1282 0
-1034 248 0
1275 -466 0
1101 1079 0
1614 -578 0
-53 487 0
-207 -1541 0
-341 495 0
589 -761 0
935 1477 0
7 1199 0
1313 -638 0
1160 -1398 0
-1682 -722 0
-1183 104 0
-1334 456 0
-692 -628 0
353 -1574 0
1144 170 0
-1374 707 0
-1061 979 0
131 493 0
-377 704 0
-1463 -1387 0
602 -202 0
327 228 0
-1284 399 0
-1204 1490 0
1599 352 0
-1504 -1623 0
-1013 -287 0
-1589 -298 0
1219 759 0
1537 -152 0
628 -10 0
793 1189 0
-1219 -160 0
549 1013 0
765 -473 0
-225 739 0
678 1022 0
-355 -281 0
-476 -394 0
586 148 0
396 198 0
-1186 -65 0
940 1241 0
1199 1513 0
-1466 596 0
-846 -1174 0
858 -1214 0
1692 -1077 0
-1488 682 0
-1572 -1495 0
966 56 0
1066 1014 0
352 -1312 0
-1583 -175 0
250 -705 0
1412 952 0
1438 -152 0
887 1096 0
-582 -341 0
-473 1149 0
858 16 0
-1671 -1655 0
-96 -813 0
-1499 184 0
-933 1087 0
-1057 615 0
-1413 -40 0
387 495 0
-1593 1036 0
238 231 0
23 626 0
1189 599 0
1573 138 0
-588 1156 0
168 -373 0
184 -1455 0
-1108 -150 0
-505 280 0
143 -233 0
1101 1539 0
990 883 0
-1380 458 0
-1124 -1174 0
1686 -965 0
722 936 0
1619 -1692 0
1663 1141 0
625 768 0
459 774 0
-477 486 0
458 -1502 0
714 -748 0
-960 392 0
698 -945 0
649 1103 0
-876 -1488 0
75 -1146 0
-14 -1581 0
1011 -1679 0
-1481 -1194 0
-1228 1256 0
586 1358 0
-823 535 0
-625 -390 0
853 9 0
1301 -1172 0
1227 -1036 0
-709 -790 0
-63 -1204 0
-534 93 0
36 -1655 0
-701 1159 0
-1293 -197 0
-1684 858 0
363 375 0
-822 738 0
57 -152 0
303 -1537 0
-437 -1449 0
-1408 -1638 0
-51 1297 0
-803 -1297 0
-1535 -794 0
-1243 -159 0
751 1396 0
-334 132 0
195 441 0
-560 -926 0
1685 32 0
1311 526 0
-520 45 0
-592 -1377 0
422 -897 0
-220 -713 0
-1489 149 0
872 -1151 0
398 -216 0
435 -1446 0
795 161 0
752 -881 0
292 1620 0
365 1570 0
-1134 -1318 0
-1370 673 0
1667 340 0
672 -1151 0
1326 -748 0
-920 1642 0
-307 565 0
-380 299 0
-951 -607 0
1098 -1269 0
-748 -1200 0
1012 218 0
-1305 -281 0
484 -933 0
-490 -1405 0
-846 773 0
1072 -1132 0
133 94 0
224 448 0
1231 1017 0
-1166 -588 0
-354 1523 0
-460 -1403 0
458 -462 0
296 -1249 0
1662 1682 0
488 1217 0
-704 -665 0
70 1088 0
-349 -1328 0
738 -1153 0
-790 -94 0
-64 -1643 0
-273 -1360 0
-1468 729 0
1311 219 0
-814 -1401 0
-984 856 0
-1305 1161 0
221 -798 0
-1194 -206 0
-1092 674 0
-219 -324 0
374 -994 0
672 -153 0
-6 -736 0
762 -1669 0
725 -1477 0
-489 1453 0
-578 1533 0
-823 218 0
-1647 871 0
-962 -46 0
-704 151 0
-117 1602 0
-1508 -1005 0
432 1572 0
-1240 -299 0
-921 -26 0
156 -1118 0
-629 -1002 0
800 -518 0
-516 -195 0
-440 -754 0
-234 -1467 0
-514 817 0
-423 1110 0
392 -997 0
-1123 -1674 0
-1223 1537 0
459 1369 0
358 1595 0
1185 -1106 0
961 -696 0
-233 -798 0
1262 891 0
-994 406 0
-838 -1097 0
392 -839 0
-1216 1187 0
-761 -984 0
643 -255 0
-79 -142 0
-545 504 0
-176 139 0
1257 338 0
-1541 -1472 0
460 -48 0
-1551 -145 0
-675 895 0
3 -1306 0
-808 -1523 0
-64 -845 0
274 -556 0
-203 -1210 0
-568 -441 0
-958 -569 0
-613 290 0
544 -681 0
-46 -24 0
1470 -4 0
-379 -927 0
1072 -631 0
1396 1188 0
-1106 1302 0
414 6 0
-802 1413 0
-348 436 0
1487 -503 0
1532 -166 0
412 -255 0
579 -941 0
-1014 1507 0
915 1479 0
-1294 -306 0
-1577 28 0
1623 -1134 0
-387 -1531 0
-528 900 0
1435 1585 0
1631 1251 0
915 -642 0
-985 359 0
-281 884 0
-1324 639 0
491 -31 0
150 1397 0
454 129 0
-392 732 0
-239 -617 0
1087 -984 0
1610 528 0
1116 -1528 0
-1376 938 0
168 -15 0
-1247 -1172 0
-1484 -1646 0
-1117 1434 0
1409 1588 0
975 1486 0
1244 901 0
506 -160 0
1202 917 0
995 802 0
-1607 -1223 0
-1288 190 0
1228 1242 0
-1626 -777 0
786 1340 0
-830 -1247 0
-789 1287 0
67 -1663 0
1088 -121 0
-804 1559 0
1121 463 0
555 -882 0
972 -303 0
-1373 371 0
-919 27 0
520 962 0
768 -1605 0
8 511 0
252 -1271 0
322 -151 0
-1342 1419 0
1216 1016 0
293 419 0
-1555 -558 0
-675 -333 0
-928 -603 0
525 -1011 0
-1293 -1316 0
-192 -248 0
427 -1594 0
1670 593 0
-1236 -165 0
-964 1286 0
1173 -681 0
-1248 869 0
612 819 0
443 348 0
-1178 206 0
-1003 1521 0
1138 1632 0
1041 125 0
745 -1118 0
577 1666 0
559 -198 0
-113 148 0
-370 350 0
-137 75 0
496 1532 0
-214 -1531 0
31 -1602 0
121 -1518 0
-585 687 0
162 1010 0
-592 -837 0
764 -1336 0
1157 -1240 0
1164 -239 0
-705 -149 0
-1507 790 0
-1027 1031 0
-317 1385 0
-1336 1033 0
-388 275 0
1644 -1548 0
1578 -429 0
603 -571 0
-1476 -558 0
1465 -455 0
30 643 0
-1324 764 0
-871 -1100 0
1670 -817 0
-1326 1500 0
-170 -814 0
-1258 58 0
959 811 0
231 -1619 0
1044 80 0
857 486 0
62 1601 0
-1272 -521 0
-919 1122 0
-1678 1650 0
-336 122 0
-1214 1395 0
454 -149 0
1042 1180 0
1530 39 0
1113 526 0
1018 1574 0
-366 1350 0
-1081 -1385 0
167 1650 0
-670 -888 0
-1165 -1389 0
510 262 0
-1206 -1689 0
1057 1591 0
180 -1343 0
1551 1357 0
1308 1142 0
290 -198 0
-484 -242 0
128 526 0
-1390 -578 0
-1598 1096 0
-1199 -1462 0
-999 273 0
-914 -683 0
-1677 -1589 0
1578 -788 0
1570 -319 0
-1601 -224 0
223 161 0
-871 -91 0
-914 1524 0
187 58 0
-568 -66 0
-131 -1323 0
-123 -871 0
1355 1450 0
-1257 1188 0
-1403 411 0
-608 177 0
-1538 95 0
-287 -1256 0
-408 1289 0
130 919 0
-433 109 0
1288 -1005 0
-188 -531 0
989 -816 0
-573 456 0
495 -872 0
953 -725 0
771 -834 0
-627 616 0
1341 -1353 0
-358 1158 0
1405 1046 0
-1550 957 0
762 -25 0
-580 -761 0
-163 97 0
1291 -470 0
-423 1243 0
1186 -196 0
-110 1386 0
-207 -178 0
-1127 1116 0
-1096 -1543 0
854 -259 0
-243 174 0
635 -351 0
800 -1602 0
-471 1036 0
623 165 0
1032 -20 0
948 -1391 0
-1038 -1408 0
420 -1602 0
-906 -361 0
302 1072 0
1082 623 0
-1560 254 0
-695 989 0
1514 34 0
1186 1022 0
396 -1543 0
-516 1572 0
1138 803 0
1094 477 0
992 1409 0
199 -1455 0
1157 193 0
-1008 1042 0
-256 -734 0
-433 -1179 0
1502 -562 0
-1511 1681 0
1221 1490 0
720 1686 0
-919 689 0
-239 451 0
-721 -1601 0
-1346 83 0
1624 1421 0
793 328 0
577 -1023 0
448 -166 0
-514 1490 0
-960 414 0
-1367 -623 0
-496 130 0
-738 236 0
-648 1400 0
1253 -592 0
960 -85 0
908 -718 0
270 383 0
-613 -420 0
338 -1126 0
712 918 0
1026 149 0
1158 -412 0
-1567 504 0
170 -1618 0
845 1592 0
-1070 527 0
1487 -65 0
496 344 0
-1298 1429 0
1422 -1172 0
-132 -1219 0
-488 894 0
-1122 -1575 0
-398 -48 0
-1008 -892 0
735 -445 0
-1375 -82 0
1164 -798 0
378 -1331 0
-1153 1330 0
128 1384 0
-694 -356 0
-1320 -392 0
-1104 -874 0
740 1550 0
-1188 1096 0
500 -1297 0
1181 1275 0
-1056 -687 0
-840 -277 0
-1070 1550 0
-1194 -895 0
-1153 -1112 0
-1038 1100 0
529 812 0
-315 1177 0
-330 -160 0
185 740 0
-371 553 0
1209 785 0
-833 -677 0
-837 941 0
1092 -1195 0
-1328 1434 0
1417 -1653 0
695 -933 0
-1655 1333 0
1 792 0
-1597 -1430 0
647 -8 0
-904 -553 0
990 -1613 0
-74 590 0
1627 519 0
503 760 0
-864 273 0
-1284 1235 0
-1345 1031 0
-781 636 0
-473 521 0
-576 516 0
-356 -473 0
843 -1165 0
715 1458 0
576 -312 0
982 1650 0
1077 1473 0
919 -645 0
1639 1312 0
-126 287 0
-801 -1231 0
-1232 1139 0
396 689 0
340 -1447 0
-1654 268 0
942 -1679 0
1465 -1013 0
-1085 1653 0
248 1286 0
905 231 0
-729 -1535 0
-506 -1677 0
-1448 -673 0
438 1361 0
-1659 -1641 0
-1193 -241 0
-510 728 0
-265 859 0
-1360 300 0
-523 -49 0
-1386 -418 0
241 1512 0
1559 -538 0
793 266 0
-820 -990 0
1387 -461 0
-686 1052 0
858 -262 0
-830 530 0
-627 653 0
-1559 245 0
121 -1631 0
191 -208 0
606 644 0
-994 1043 0
-518 459 0
-53 -408 0
1160 -1215 0
611 -474 0
-660 914 0
-553 476 0
-131 -291 0
-520 1500 0
1106 1488 0
934 -499 0
-1162 -1214 0
-433 1220 0
713 313 0
918 -1222 0
-55 587 0
-8 -168 0
-1680 -1089 0
-945 -1059 0
1512 -91 0
-1506 -41 0
-111 93 0
670 -1492 0
1117 -21 0
838 1670 0
1630 680 0
955 900 0
-787 -785 0
1526 1041 0
-971 -112 0
-1372 -1448 0
-224 227 0
4 1345 0
676 -237 0
1611 1337 0
499 -776 0
622 659 0
-462 -979 0
267 1151 0
-905 -1484 0
1561 53 0
906 -459 0
394 -1424 0
1337 1602 0
-336 60 0
1423 -1036 0
1504 -1190 0
729 -1110 0
-300 -1327 0
828 252 0
-493 -1274 0
-1060 901 0
-1203 1661 0
143 -1407 0
1464 -18 0
-1390 1019 0
495 380 0
-421 -1471 0
-387 1459 0
1459 123 0
-1166 -1647 0
-282 -1407 0
-1691 -983 0
-1573 308 0
-18 -175 0
826 148 0
1221 -1095 0
-997 -83 0
167 1545 0
-801 -598 0
481 1192 0
970 -155 0
-781 -613 0
-512 158 0
1570 546 0
508 97 0
1569 -163 0
-381 131 0
-1210 625 0
-131 -937 0
-1455 338 0
445 414 0
393 -1214 0
-1269 -621 0
-1075 1618 0
800 -43 0
1110 69 0
-1249 1142 0
-1184 -1007 0
1400 201 0
-1070 -1321 0
-451 -886 0
-73 -571 0
-1325 1028 0
-1078 -419 0
-1359 -164 0
711 -1462 0
-672 251 0
-281 922 0
968 -615 0
868 1683 0
502 -158 0
1162 362 0
-1250 792 0
-1449 389 0
-1359 1501 0
1105 673 0
721 -164 0
604 563 0
1026 -778 0
1308 287 0
-988 1592 0
46 1205 0
1573 284 0
-1248 -1353 0
-464 -1689 0
1291 -1330 0
-1149 -1598 0
-1448 603 0
-109 1356 0
14 1043 0
186 -203 0
-426 -1197 0
1659 351 0
705 -1360 0
-1446 1609 0
1458 1507 0
282 -1360 0
-1386 203 0
771 -277 0
1263 -1634 0
1674 -378 0
-1389 -257 0
-1382 -1379 0
-880 -117 0
-425 -1265 0
1547 -629 0
604 420 0
-443 1344 0
-502 406 0
-150 1116 0
1197 527 0
-850 60 0
1028 1569 0
888 1592 0
-896 -277 0
-314 1516 0
1213 -910 0
1594 611 0
1033 -527 0
-1254 529 0
174 888 0
-937 -891 0
-1429 1157 0
1689 -461 0
-1047 -1314 0
1005 -395 0
-76 -1654 0
-28 759 0
970 841 0
967 -1038 0
1439 -460 0
57 229 0
-762 1357 0
-21 -1544 0
-469 992 0
-523 812 0
-955 861 0
-461 73 0
941 375 0
-1448 -294 0
-1140 -620 0
-180 -1001 0
531 -1152 0
481 -503 0
-1382 -1195 0
-491 -480 0
1544 -782 0
49 -96 0
769 950 0
1283 606 0
-682 -1060 0
552 363 0
554 -1121 0
1545 1676 0
1312 567 0
-1528 1665 0
-317 1139 0
-1124 606 0
-256 1522 0
977 -134 0
-647 25 0
811 1482 0
1221 1084 0
-1236 -968 0
762 821 0
-1036 742 0
-928 689 0
-182 710 0
272 612 0
1009 -1297 0
-419 -364 0
-1456 26 0
1259 167 0
-572 -405 0
-69 940 0
-850 102 0
1215 1029 0
836 1615 0
980 -1507 0
-1317 612 0
-1535 1479 0
1004 127 0
-956 -1177 0
1336 7 0
719 -6 0
561 -1617 0
13 651 0
645 -311 0
-483 -621 0
466 -1382 0
-1231 -867 0
297 -1487 0
1237 1184 0
-1151 1060 0
186 879 0
1562 700 0
-1343 1482 0
994 -837 0
-904 -955 0
1141 -1373 0
-1168 -685 0
-836 -2 0
-1240 -316 0
-383 -1653 0
254 -1326 0
692 -1234 0
1281 -740 0
1682 1235 0
-1406 1440 0
95 -1218 0
-1645 1109 0
-263 -1322 0
-522 1399 0
684 -1377 0
-1638 926 0
-874 1279 0
153 297 0
149 1054 0
-1535 -128 0
254 -727 0
577 -182 0
-1295 -1653 0
148 223 0
-38 105 0
-66 -386 0
-1238 27 0
-505 -5 0
902 237 0
-1448 -579 0
-609 1163 0
-1018 1400 0
-109 -1038 0
1667 886 0
705 -418 0
964 555 0
300 882 0
228 844 0
1353 786 0
-614 405 0
975 654 0
-880 1132 0
-634 -1222 0
-934 591 0
191 162 0
1046 -525 0
-1691 -1157 0
-145 1605 0
-457 -321 0
1280 1190 0
-1027 54 0
1199 -1553 0
-540 47 0
-449 1500 0
-224 -333 0
-378 -1210 0
1029 -1322 0
-1486 1110 0
-615 635 0
952 1239 0
247 -1063 0
1119 445 0
1017 1457 0
1686 -1255 0
-1641 -1679 0
25 1422 0
-1505 1043 0
-734 1590 0
1623 1473 0
-873 -700 0
1260 1164 0
1082 -287 0
733 1406 0
-885 422 0
798 1474 0
1347 793 0
1090 68 0
-464 1423 0
-45 1125 0
-820 1169 0
315 -1375 0
88 -409 0
-1600 1017 0
1244 -1171 0
-1223 1374 0
-534 620 0
530 -1580 0
-1637 -722 0
1540 1286 0
-195 -199 0
-1002 1030 0
757 260 0
1458 -1014 0
-381 1279 0
-43 -525 0
-928 991 0
-80 -1097 0
166 -976 0
215 1325 0
-69 1128 0
-899 599 0
669 -1031 0
81 800 0
195 -268 0
-1215 -630 0
1143 -1145 0
133 1183 0
1199 -71 0
-1365 1200 0
-730 -202 0
1169 -1636 0
-505 192 0
-494 303 0
-409 1086 0
392 1058 0
1235 29 0
-1078 724 0
-828 -717 0
-1493 302 0
1556 -630 0
967 1044 0
-756 -1025 0
1380 -1533 0
-601 428 0
-954 981 0
-121 -671 0
34 -551 0
1083 -1118 0
-126 -1312 0
-1577 -1306 0
-1675 744 0
691 349 0
222 206 0
-1688 739 0
-229 -58 0
-99 -390 0
794 1369 0
-1503 -406 0
-1153 658 0
230 -532 0
-1050 1410 0
1681 -400 0
850 -696 0
-1678 -1440 0
442 1429 0
-797 551 0
1089 -884 0
1405 -975 0
822 1056 0
719 128 0
952 818 0
-1144 -1326 0
-487 963 0
1236 384 0
-562 1479 0
1205 -561 0
855 -620 0
-683 -223 0
-1055 -385 0
-947 -36 0
268 -956 0
444 946 0
-1374 1668 0
-608 -586 0
-355 -1351 0
-436 120 0
1282 -134 0
-1192 -571 0
8 -43 0
1505 -929 0
877 -74 0
1561 963 0
1488 -1567 0
-1311 -942 0
1613 -719 0
707 -665 0
897 1298 0
-1356 -403 0
1305 -164 0
765 1242 0
-403 -1607 0
-545 1073 0
453 -654 0
1181 1690 0
-1162 1448 0
-1011 -908 0
1149 -1054 0
-676 -905 0
278 948 0
73 112 0
-406 782 0
1473 -373 0
-852 641 0
-1210 1477 0
-325 1600 0
1353 -588 0
656 1604 0
383 -154 0
353 136 0
1132 1091 0
-150 1587 0
-1066 -1230 0
-999 -589 0
925 800 0
-1655 1381 0
1340 -1297 0
-42 -687 0
1597 684 0
308 852 0
-1120 -48 0
1274 96 0
-1629 -891 0
-576 142 0
-285 -1616 0
873 -339 0
1670 -1316 0
-799 -1588 0
1155 1043 0
-125 -649 0
-445 1392 0
409 138 0
-370 -1573 0
-1580 -799 0
169 -1631 0
-46 -1195 0
-1096 1357 0
836 845 0
45 -345 0
1293 1590 0
469 93 0
1597 1530 0
-189 1191 0
830 1363 0
1007 1612 0
-1348 -950 0
1283 -1176 0
1308 440 0
1570 730 0
1139 131 0
-360 -3 0
208 727 0
-976 -282 0
-886 1101 0
818 784 0
1148 1644 0
-943 484 0
-767 -509 0
-684 -157 0
548 1064 0
1104 -1470 0
-39 435 0
1450 -409 0
-505 -36 0
1229 -304 0
-584 -1691 0
758 486 0
-461 -304 0
1624 2 0
-521 733 0
-536 296 0
-144 1163 0
1234 1681 0
-1187 -1553 0
-1683 103 0
1004 338 0
-624 -1483 0
-549 188 0
-801 -780 0
-14 517 0
-723 -440 0
-826 -932 0
-1350 -422 0
-218 -1146 0
1345 -1025 0
1659 -1063 0
-1380 731 0
927 -437 0
-1611 -1178 0
1026 966 0
1215 -1531 0
-1410 272 0
1270 818 0
-1522 220 0
-1171 1278 0
1312 -23 0
1422 -763 0
1199 203 0
-602 967 0
1647 -716 0
948 1236 0
-1074 1256 0
1322 -1484 0
-31 180 0
-1565 -453 0
1312 -122 0
70 -438 0
1650 -1605 0
-122 -499 0
967 -1453 0
-1402 1640 0
-1075 603 0
-850 396 0
-1361 986 0
1357 851 0
-867 -1027 0
-1483 -885 0
-383 727 0
865 252 0
-722 1401 0
366 -1284 0
-550 -1182 0
-1277 -465 0
600 315 0
589 -730 0
108 901 0
620 801 0
-382 357 0
236 -1120 0
633 -88 0
268 1223 0
959 -927 0
-1099 1098 0
1256 -1317 0
-962 -224 0
1384 205 0
-1416 92 0
391 -1649 0
914 1157 0
740 -1633 0
457 1018 0
-523 -528 0
1555 -748 0
1482 1002 0
1638 -610 0
-513 1041 0
1073 -781 0
1667 1325 0
-1222 1325 0
-1481 -1469 0
479 -1077 0
-242 924 0
247 1418 0
1444 323 0
261 -1537 0
-1664 348 0
95 -1288 0
-1364 65 0
1583 988 0
709 213 0
357 1285 0
1256 -1094 0
-459 -1046 0
-1174 -903 0
1155 383 0
1422 1277 0
-724 -712 0
942 587 0
-367 -1115 0
464 -1456 0
225 -1127 0
1288 414 0
743 167 0
-425 -1625 0
-1494 175 0
-870 613 0
-1561 -243 0
605 -1283 0
1612 -686 0
1474 -289 0
-119 -161 0
504 -87 0
-54 1308 0
-604 -789 0
600 98 0
-176 1046 0
338 -295 0
-1674 -113 0
689 584 0
597 -198 0
586 -1594 0
-1158 -283 0
1689 1317 0
-1073 953 0
-349 301 0
-294 275 0
-140 226 0
-404 1027 0
1313 -1464 0
-693 -155 0
1301 -890 0
-1443 359 0
-1330 -1615 0
-662 -370 0
954 -1006 0
-1416 1456 0
1108 1205 0
948 -1117 0
753 419 0
755 323 0
-329 -346 0
1030 -482 0
856 -1544 0
-1230 1548 0
1592 -1002 0
998 -209 0
-574 -690 0
397 622 0
-1206 150 0
-9 -197 0
-740 104 0
-262 1384 0
948 -756 0
-1618 68 0
-1031 -150 0
860 861 0
1334 48 0
720 495 0
-347 -481 0
952 6 0
577 -1487 0
-1257 932 0
-888 -876 0
-352 -716 0
-1051 1135 0
401 -903 0
-1310 -859 0
72 -1293 0
-1051 -99 0
-318 28 0
-775 526 0
-1182 100 0
-156 832 0
-13 -43 0
381 565 0
1238 -910 0
1017 -669 0
1357 -235 0
-1218 -152 0
202 1125 0
-1161 -1590 0
828 -823 0
-470 656 0
-259 -342 0
-884 -249 0
-287 -1617 0
-1221 -1643 0
-1634 1102 0
-1567 -42 0
900 1668 0
1283 -595 0
-1557 1212 0
-1641 643 0
1418 -1053 0
1008 68 0
1145 1266 0
-1284 -615 0
-709 1180 0
-1128 -126 0
191 714 0
1513 1225 0
694 -1544 0
-1463 -890 0
366 -667 0
-393 -851 0
828 1562 0
900 -1056 0
1286 -771 0
6 908 0
-428 290 0
1192 634 0
-1175 1169 0
-58 -82 0
-1170 9 0
-99 -65 0
1413 1367 0
954 -734 0
724 375 0
-1654 -986 0
-702 -366 0
1233 -43 0
-869 971 0
448 -698 0
1550 519 0
1376 -381 0
-3 -1247 0
-231 506 0
-644 41 0
1431 138 0
1141 -362 0
1098 -383 0
1236 -19 0
916 1276 0
-1096 -65 0
-1006 -1409 0
-532 450 0
1513 1386 0
1468 1563 0
247 881 0
1572 -366 0
-553 94 0
1435 172 0
888 -1484 0
-265 -199 0
400 515 0
1207 -449 0
-912 -52 0
-1623 550 0
-1133 75 0
-1532 -64 0
779 -356 0
-237 -1293 0
-525 307 0
173 -1626 0
-1257 -202 0
1577 184 0
-557 -1608 0
613 375 0
350 -1494 0
-889 1071 0
-1501 840 0
-395 -1153 0
1436 1248 0
858 1608 0
-75 -1558 0
-1575 525 0
911 -905 0
1562 1155 0
-1658 987 0
274 -122 0
572 -346 0
1396 -502 0
-895 -716 0
1143 616 0
1256 1687 0
376 -22 0
-634 174 0
623 1238 0
816 -440 0
1142 -301 0
-1114 -550 0
1302 -312 0
1626 -923 0
1475 -1178 0
970 -418 0
24 -239 0
1315 -913 0
775 -1452 0
1268 -1306 0
821 -1304 0
1401 104 0
260 372 0
1230 587 0
1221 1220 0
-55 265 0
1244 -157 0
1454 -1419 0
1562 -558 0
-113 1236 0
-598 1054 0
-826 1239 0
-1364 69 0
459 1239 0
1168 -954 0
538 149 0
-731 -630 0
-356 575 0
-994 1021 0
-1406 -168 0
1192 238 0
589 592 0
1192 788 0
1080 1420 0
-608 -60 0
1466 1042 0
-318 1348 0
-729 -896 0
77 -381 0
575 207 0
-1107 1665 0
-690 47 0
-1462 -786 0
-991 -1489 0
-106 1221 0
-1052 1158 0
7 -921 0
-1182 1135 0
1479 172 0
-838 -1342 0
240 -406 0
-97 251 0
-258 1074 0
1298 -1294 0
-1414 559 0
1218 -1333 0
-805 189 0
1579 325 0
-1330 -1488 0
812 617 0
1505 1077 0
-1003 -1357 0
-571 121 0
1340 186 0
955 452 0
1045 -20 0
725 -1378 0
1419 1336 0
730 1207 0
-670 -112 0
-627 1574 0
-59 -1621 0
-1204 -1301 0
-769 1256 0
901 266 0
-307 1201 0
680 -133 0
945 626 0
678 -1147 0
-1576 -950 0
594 1681 0
-1070 -23 0
589 -1034 0
60 -1443 0
1599 -250 0
-397 -1131 0
-1125 -1058 0
837 -1171 0
-1617 1012 0
-200 1087 0
-383 689 0
-381 -271 0
1475 -1416 0
-1260 -1655 0
-829 618 0
1234 1662 0
-581 -1180 0
-825 975 0
-1293 1041 0
-31 664 0
-1310 1386 0
-1358 1358 0
-1583 -142 0
186 935 0
616 70 0
-730 1510 0
-314 -184 0
462 941 0
240 -1161 0
-1272 -106 0
1545 -1365 0
-1227 1440 0
-1445 -788 0
1409 -1345 0
756 542 0
-1046 584 0
1137 -1018 0
-204 831 0
-801 -1166 0
-1425 -507 0
-1603 -66 0
-303 966 0
504 914 0
-1350 -460 0
1137 -802 0
-1255 661 0
260 398 0
642 -1234 0
1255 -1596 0
-978 -806 0
-314 -90 0
-721 226 0
122 -886 0
243 131 0
279 -1362 0
1211 -892 0
-704 934 0
1386 -634 0
778 -423 0
1045 863 0
173 1224 0
-1014 -92 0
-1350 -535 0
-239 173 0
862 -560 0
1433 326 0
-1528 678 0
1137 -1667 0
-1052 -646 0
-1016 -1054 0
1223 1615 0
491 1515 0
-23 174 0
-216 1606 0
-999 319 0
1641 -289 0
70 859 0
1318 1609 0
1650 -228 0
3 -805 0
-401 663 0
1667 122 0
196 -1565 0
-119 221 0
645 1095 0
-272 -1390 0
1279 462 0
1005 -275 0
596 -288 0
1029 -781 0
785 -712 0
70 1410 0
1435 -1196 0
528 365 0
102 -1445 0
-1202 -90 0
285 -109 0
-664 -413 0
-698 -181 0
1220 -416 0
-297 32 0
-547 1340 0
721 -1507 0
330 1013 0
974 -377 0
-1392 -117 0
1332 1618 0
-417 -1451 0
-491 1438 0
1369 -230 0
-521 -1237 0
-1310 -527 0
-103 -558 0
-702 -142 0
729 990 0
-1346 -1285 0
1338 1656 0
1446 -734 0
-24 1016 0
999 221 0
-1692 1167 0
1028 929 0
-715 985 0
-356 -1247 0
1298 1667 0
587 1218 0
-100 -302 0
-665 1429 0
-880 -1314 0
-521 215 0
681 -1538 0
433 -371 0
-722 324 0
1517 -692 0
-778 764 0
362 1660 0
-1038 -529 0
1581 -1006 0
1441 925 0
352 1307 0
731 -1281 0
-124 -1172 0
1030 -1346 0
-644 -784 0
673 1137 0
847 1256 0
285 -544 0
-711 1613 0
-1076 -191 0
1575 -378 0
1534 -871 0
-992 612 0
-333 1364 0
1324 245 0
165 -1463 0
-531 1195 0
-1598 1302 0
-122 428 0
-420 -1389 0
-576 1626 0
1296 165 0
-1553 940 0
-238 661 0
-117 -789 0
1683 -1596 0
-730 1035 0
-63 -368 0
105 -296 0
-237 644 0
1213 551 0
-1344 -708 0
1245 -792 0
-1386 67 0
-85 -999 0
-1518 1529 0
-107 383 0
285 559 0
-913 -310 0
28 1236 0
1481 438 0
-903 1371 0
16 -261 0
559 -739 0
-1303 -74 0
691 247 0
-1053 848 0
-1432 -115 0
804 -1577 0
-705 6 0
1292 -59 0
1609 582 0
391 1341 0
1215 900 0
-83 674 0
1681 1067 0
1082 948 0
-502 1652 0
266 -680 0
-261 -696 0
1612 143 0
-409 -1004 0
1071 1683 0
680 1419 0
-142 -218 0
1585 1022 0
1241 -397 0
-752 -61 0
1578 1503 0
338 1660 0
-882 1003 0
-1558 1573 0
-824 -1160 0
-730 1268 0
-145 -287 0
-1047 109 0
662 -405 0
-291 -149 0
657 1329 0
1128 1096 0
11 -1623 0
-1495 554 0
891 -334 0
137 1353 0
-836 692 0
72 -1528 0
-476 1567 0
-1544 585 0
252 1579 0
-570 -335 0
409 1263 0
484 -380 0
623 859 0
389 888 0
35 -1208 0
-429 -230 0
-615 1592 0
261 -327 0
-275 -1206 0
-378 -1346 0
284 454 0
599 -1489 0
1527 -1198 0
582 296 0
-1107 1183 0
-665 -1090 0
1385 551 0
-54 1113 0
1005 1232 0
1108 132 0
-1638 -1270 0
-1541 867 0
1167 -290 0
-36 -1643 0
1385 -1150 0
417 -1064 0
1656 -1555 0
1283 -109 0
1134 -1149 0
1205 1426 0
-69 -577 0
761 -1248 0
75 1279 0
-1530 -686 0
-1596 -730 0
-4 -1109 0
-1527 -1364 0
-240 965 0
-1687 -731 0
454 -1563 0
-4 -289 0
1564 693 0
423 -1257 0
-469 741 0
-1286 300 0
1227 -165 0
1587 1672 0
-1525 -904 0
895 -106 0
-1299 -1475 0
-1061 -882 0
976 1091 0
-1401 856 0
-1340 1384 0
1159 -596 0
-1652 -1591 0
-1161 1477 0
1386 669 0
1142 -432 0
184 763 0
-636 -59 0
241 -280 0
-1464 -900 0
88 -1070 0
-613 1149 0
1606 489 0
-905 -233 0
1398 -1652 0
-503 -1151 0
-1316 610 0
-318 1426 0
-18 1355 0
-432 1486 0
1039 971 0
221 878 0
-711 422 0
246 -75 0
1578 -187 0
1420 -820 0
990 -1617 0
-1320 -48 0
-176 1665 0
1463 792 0
-253 1650 0
28 -390 0
-228 -1550 0
-793 -1058 0
-1021 1563 0
-649 -1491 0
1527 1072 0
-650 -806 0
1495 926 0
3 871 0
279 -1121 0
1567 -494 0
-1440 73 0
-1061 -821 0
1301 1189 0
651 5 0
1035 513 0
268 1493 0
-1620 674 0
1333 -629 0
-157 -8 0
-259 -718 0
-355 -1625 0
-1653 1689 0
-1366 510 0
-735 -494 0
1 -671 0
45 -184 0
1671 1322 0
-144 -1260 0
810 -200 0
-801 1102 0
234 -547 0
-1408 1308 0
1654 -358 0
173 47 0
-789 966 0
178 -677 0
1659 -721 0
-187 1656 0
-756 -998 0
811 1366 0
-404 1522 0
307 -501 0
1319 61 0
731 -913 0
-1470 602 0
-1408 -157 0
-111 -1089 0
1421 -1495 0
1593 1398 0
1255 1086 0
-898 295 0
-601 -1026 0
-1092 -346 0
-1111 -145 0
-1588 -638 0
-431 797 0
-280 -1488 0
238 -720 0
1318 -567 0
906 -1353 0
-1558 -624 0
108 672 0
-1354 -164 0
1588 12 0
-1408 246 0
533 374 0
1176 -1292 0
-1034 802 0
-1369 -545 0
17 661 0
127 986 0
-1687 -485 0
274 -738 0
48 -390 0
22 -829 0
-413 1371 0
1201 -1496 0
1454 129 0
1099 845 0
645 1441 0
-123 -1331 0
844 -1448 0
-1679 219 0
462 308 0
602 862 0
-416 -162 0
1311 -696 0
232 391 0
-1407 -1446 0
682 1510 0
1427 1612 0
-870 -1098 0
970 1522 0
-111 -1236 0
-477 -1315 0
1688 -797 0
-1426 1670 0
451 -112 0
-1522 801 0
660 875 0
-917 -1647 0
-1011 1138 0
1621 990 0
-1075 1593 0
-198 1205 0
-721 1518 0
-665 -613 0
877 1022 0
229 616 0
986 1673 0
-634 963 0
-1618 -1498 0
382 -99 0
-1600 -1111 0
172 1249 0
-1624 -645 0
-872 298 0
-759 -1053 0
-787 -536 0
662 -176 0
-550 439 0
1379 -557 0
-1009 -122 0
-715 1392 0
-674 -939 0
1512 -1461 0
988 1656 0
571 161 0
822 1542 0
380 268 0
1375 669 0
-399 -1403 0
-1106 129 0
-1378 906 0
-949 1225 0
459 1655 0
-7 -708 0
-1407 -512 0
-578 239 0
864 -1544 0
1392 -1577 0
719 -1388 0
-880 -1231 0
1079 -1496 0
1475 52 0
-1556 -591 0
-1525 143 0
-624 732 0
1485 701 0
-163 -1217 0
-601 108 0
1086 151 0
-1446 348 0
538 -1205 0
1359 -1124 0
883 -1181 0
1493 612 0
869 -810 0
-489 55 0
370 1460 0
-1170 -698 0
1363 -852 0
-207 843 0
732 -477 0
-388 -1115 0
-905 -20 0
-36 1585 0
694 452 0
-408 1287 0
996 477 0
117 1122 0
-826 -612 0
-998 888 0
-827 102 0
1087 -1057 0
-155 -1292 0
-1322 -1627 0
1035 -755 0
673 -608 0
184 -1488 0
-734 -1210 0
221 -1027 0
-23 959 0
-696 -721 0
-79 -1046 0
74 883 0
904 728 0
-66 -1643 0
119 975 0
1588 -970 0
1105 299 0
127 286 0
1350 602 0
176 -837 0
-490 -923 0
1040 1242 0
-1062 -1420 0
1157 -1320 0
-856 -457 0
-532 1071 0
1439 762 0
-923 -177 0
1392 -1318 0
1129 1560 0
-349 1428 0
269 1528 0
636 -1083 0
-151 512 0
-572 1384 0
1150 250 0
224 530 0
-1316 -1473 0
-1001 1198 0
-198 -726 0
-1180 1257 0
-1406 -1461 0
-34 -536 0
-1156 768 0
-1493 -385 0
389 -1356 0
-702 -1399 0
1044 -1093 0
1180 848 0
1145 -240 0
-461 466 0
1160 -377 0
795 -339 0
316 844 0
-570 324 0
-364 220 0
1151 167 0
-921 -13 0
-1586 -1249 0
-1602 -1654 0
858 -315 0
-249 -1399 0
380 1135 0
1251 -319 0
1591 -1541 0
-1448 -553 0
-242 451 0
843 -1284 0
1043 -334 0
659 -794 0
782 -946 0
-639 931 0
-490 674 0
-1487 1119 0
602 1256 0
-365 -449 0
56 -1118 0
820 -515 0
513 -814 0
1464 -777 0
-899 -60 0
-939 1581 0
361 859 0
251 589 0
1347 -491 0
484 -1518 0
-401 184 0
616 -205 0
-219 16 0
-700 96 0
1423 699 0
1398 -614 0
-1605 1453 0
586 -279 0
1363 -42 0
30 310 0
1222 -958 0
-1197 36 0
