c NF
p cnf 222 511
24 124 0
-16 121 0
-179 -220 0
-7 -18 0
-139 -167 0
21 119 0
-171 -35 0
-150 180 0
142 65 0
5 216 0
-62 175 0
-165 96 0
86 -172 0
-2 88 0
178 98 0
1 -72 0
8 24 0
112 176 0
191 130 0
136 24 0
-147 -179 0
-110 -50 0
92 -77 0
-142 -19 0
15 -59 0
-193 183 0
-166 20 0
-17 73 0
135 25 0
-17 -80 0
40 18 0
203 207 0
53 5 0
204 -10 0
-210 -205 0
119 -59 0
-112 -95 0
6 -141 0
-9 -36 0
-87 -198 0
-50 -127 0
77 150 0
-61 -6 0
93 40 0
-75 -83 0
-131 -44 0
67 24 0
-189 52 0
-136 81 0
55 -61 0
-90 -3 0
161 -207 0
20 32 0
-36 -53 0
177 -184 0
191 32 0
162 186 0
209 20 0
133 27 0
170 188 0
146 150 0
12 53 0
-133 207 0
6 -211 0
-220 195 0
170 -169 0
-69 61 0
-207 165 0
-64 -139 0
93 -139 0
-210 -169 0
-105 118 0
-46 -72 0
70 67 0
168 -89 0
70 -132 0
-198 -176 0
-38 148 0
66 96 0
68 164 0
-119 -78 0
103 212 0
86 -160 0
196 -131 0
174 135 0
14 200 0
138 -218 0
-71 84 0
146 117 0
-107 49 0
-175 -89 0
172 -130 0
-122 -92 0
-207 -23 0
-169 -109 0
-171 -133 0
-135 -178 0
-13 -32 0
99 30 0
46 -4 0
212 -164 0
-3 -97 0
91 219 0
-151 -195 0
153 -172 0
55 112 0
-137 -132 0
196 -185 0
-127 -73 0
-192 -81 0
-34 134 0
112 204 0
-149 -130 0
202 -166 0
-109 91 0
120 -71 0
65 208 0
-2 -77 0
-87 -83 0
178 -29 0
-209 -50 0
-23 -192 0
-176 -125 0
-179 58 0
-191 -61 0
-38 196 0
174 212 0
-191 -85 0
54 -98 0
-22 -12 0
121 -122 0
37 -9 0
5 -35 0
-108 -133 0
-43 121 0
78 191 0
200 131 0
145 -113 0
141 28 0
-21 119 0
-199 50 0
-135 44 0
-107 179 0
54 -204 0
-96 -60 0
-205 -137 0
-72 82 0
215 -120 0
118 -29 0
48 -115 0
52 153 0
19 -114 0
-109 49 0
-176 38 0
70 91 0
-113 -63 0
170 180 0
174 -27 0
-137 -139 0
-102 -56 0
-63 39 0
103 63 0
116 -83 0
-129 -185 0
-4 216 0
18 207 0
152 -179 0
182 -105 0
174 -147 0
-100 -169 0
-211 149 0
138 173 0
164 183 0
-149 133 0
175 -189 0
169 128 0
19 134 0
-49 -194 0
2 -72 0
-157 86 0
67 -199 0
74 -65 0
50 177 0
-189 165 0
-94 -79 0
-134 -189 0
-193 -213 0
-123 -68 0
8 -2 0
58 78 0
-25 -222 0
-182 -218 0
129 174 0
-185 63 0
-169 70 0
212 -9 0
82 126 0
-60 -161 0
28 216 0
125 -4 0
-219 212 0
99 -85 0
48 -39 0
10 -167 0
177 165 0
201 217 0
-137 5 0
138 80 0
-72 38 0
84 94 0
151 -161 0
222 200 0
182 177 0
-77 -206 0
-11 -57 0
1 -132 0
-208 -169 0
-72 32 0
-66 -1 0
96 26 0
35 -131 0
29 74 0
-188 191 0
7 20 0
50 -46 0
-56 146 0
215 130 0
48 127 0
45 -10 0
183 69 0
24 -218 0
-211 154 0
37 175 0
-85 -157 0
203 170 0
-205 76 0
-31 216 0
-220 -160 0
105 125 0
28 -171 0
71 -90 0
-112 -209 0
-171 -21 0
78 1 0
-105 -68 0
166 -38 0
141 158 0
-181 127 0
95 -197 0
-157 117 0
187 164 0
191 -164 0
-106 -90 0
-109 196 0
37 -119 0
5 -181 0
-90 6 0
205 -83 0
-167 192 0
-162 -198 0
171 118 0
-102 -143 0
-216 -142 0
47 -148 0
-210 178 0
-12 74 0
37 104 0
-222 -100 0
-176 16 0
111 204 0
-205 88 0
-160 194 0
-75 -4 0
-181 113 0
-122 -10 0
-157 -78 0
124 216 0
-44 103 0
-211 63 0
92 58 0
54 -210 0
-154 -107 0
31 54 0
-13 -197 0
12 -165 0
87 67 0
67 66 0
138 -207 0
-188 92 0
150 -209 0
-63 -179 0
-76 65 0
-194 176 0
-72 -82 0
23 155 0
19 214 0
-179 -147 0
34 -70 0
37 -160 0
-76 -40 0
190 57 0
158 -220 0
6 -146 0
-137 -167 0
112 18 0
172 -130 0
-185 87 0
43 27 0
-130 -152 0
63 -41 0
112 -97 0
-58 -100 0
-13 1 0
82 52 0
-102 -90 0
118 -171 0
-104 -184 0
-100 -68 0
159 88 0
-174 -185 0
-95 -194 0
-68 180 0
-32 -207 0
-107 -176 0
-103 119 0
-102 55 0
-88 92 0
30 115 0
-109 -147 0
100 -147 0
-150 -72 0
-80 -59 0
-109 154 0
-89 -22 0
183 135 0
154 -198 0
-162 115 0
189 128 0
-64 180 0
30 -14 0
-123 99 0
-73 55 0
53 85 0
173 -190 0
-157 185 0
28 -131 0
-78 -142 0
-2 -134 0
-79 101 0
-219 53 0
-44 170 0
138 -200 0
-37 -46 0
161 -160 0
117 -58 0
-192 -87 0
118 60 0
175 199 0
-128 -41 0
-202 171 0
96 -183 0
20 -67 0
-91 106 0
66 -107 0
102 -41 0
-210 -51 0
-87 -209 0
-177 -69 0
-111 117 0
-25 -109 0
-7 -149 0
207 -132 0
53 133 0
57 -4 0
-90 -101 0
88 -3 0
-166 214 0
-23 154 0
-102 15 0
79 -159 0
147 190 0
216 11 0
-139 -213 0
99 -136 0
67 -15 0
26 100 0
163 104 0
-1 -205 0
-73 84 0
108 -147 0
201 -75 0
81 -217 0
175 -150 0
-182 -136 0
-44 77 0
212 18 0
118 146 0
-172 -73 0
87 202 0
-189 221 0
-167 16 0
34 102 0
-91 180 0
-213 -76 0
-59 -109 0
92 -13 0
-22 -133 0
-113 -213 0
118 -23 0
-194 -51 0
-142 162 0
-147 -196 0
188 11 0
174 -85 0
-70 53 0
157 -40 0
-83 187 0
-32 219 0
-209 50 0
23 115 0
-125 -83 0
-210 18 0
1 98 0
-35 -197 0
37 -65 0
-205 -80 0
-31 173 0
-102 164 0
-4 8 0
-141 -147 0
79 68 0
208 151 0
-168 -94 0
-105 180 0
-165 -167 0
63 100 0
21 174 0
63 217 0
47 18 0
-103 -59 0
-110 -129 0
-59 11 0
153 11 0
-54 8 0
12 103 0
187 135 0
-75 -35 0
-20 -161 0
41 150 0
-80 203 0
-127 -141 0
-60 -50 0
-97 -124 0
33 -136 0
-190 -7 0
121 4 0
204 -127 0
-218 69 0
5 135 0
173 116 0
-69 -189 0
65 42 0
163 -132 0
-45 25 0
-60 220 0
-199 -73 0
131 191 0
-134 -31 0
138 -8 0
183 203 0
-169 -181 0
-196 116 0
-221 8 0
-123 11 0
-193 -86 0
51 162 0
-188 94 0
-65 -60 0
-100 177 0
-200 -66 0
-89 -162 0
202 -90 0
-95 132 0
-28 -149 0
143 -115 0
45 -147 0
26 199 0
134 -124 0
-207 -154 0
-141 -17 0
-83 99 0
67 -27 0
80 196 0
-103 84 0
34 106 0
56 -109 0
-197 -88 0
87 217 0
124 -142 0
101 118 0
200 215 0
222 -38 0
164 174 0
-144 -83 0
92 -71 0
-68 177 0
-154 -17 0
177 -41 0
203 37 0
125 -57 0
-152 96 0
