c NF
p cnf 957 2488
-602 -294 0
-666 800 0
433 722 0
714 -678 0
843 -631 0
-548 22 0
518 647 0
954 -338 0
443 58 0
-693 401 0
127 312 0
-459 474 0
29 -208 0
-576 -492 0
821 -639 0
6 -831 0
-272 -441 0
96 9 0
613 -310 0
380 -764 0
239 -247 0
-887 400 0
-21 612 0
378 305 0
920 752 0
730 929 0
576 -270 0
210 511 0
381 856 0
943 148 0
-305 49 0
-912 -144 0
685 -743 0
-57 296 0
298 -707 0
199 -625 0
-827 -808 0
-65 -106 0
130 637 0
716 687 0
-807 -345 0
-129 -682 0
581 -646 0
825 -377 0
-760 738 0
-12 -779 0
-290 778 0
634 -956 0
74 68 0
219 824 0
-318 -218 0
249 -244 0
284 -191 0
-868 -784 0
465 242 0
-7 -185 0
-701 -834 0
-100 344 0
-187 139 0
702 564 0
-370 560 0
904 -355 0
-147 730 0
284 839 0
-197 -287 0
-748 833 0
516 -580 0
-375 488 0
25 813 0
-766 -942 0
530 -901 0
-137 -100 0
120 -211 0
235 382 0
56 -723 0
893 -95 0
-225 656 0
-287 -206 0
-606 -322 0
262 -217 0
278 -282 0
172 874 0
-28 321 0
330 -889 0
-35 691 0
-428 349 0
637 -513 0
376 -106 0
98 27 0
-524 795 0
347 -496 0
-456 392 0
-680 778 0
709 794 0
-915 -263 0
827 384 0
-74 -955 0
30 292 0
-233 -395 0
350 -38 0
113 -310 0
24 -813 0
170 102 0
213 296 0
640 833 0
800 256 0
766 751 0
410 208 0
116 48 0
485 866 0
795 -602 0
52 -184 0
-470 120 0
-837 845 0
665 919 0
726 -441 0
-7 60 0
656 -586 0
-667 868 0
607 525 0
676 -711 0
-14 -256 0
20 -727 0
699 -807 0
466 51 0
-840 300 0
427 653 0
583 93 0
-89 -237 0
208 902 0
800 204 0
-205 -61 0
623 444 0
-362 -915 0
-912 -855 0
-668 156 0
-807 -152 0
-941 573 0
667 594 0
-299 -636 0
-493 725 0
-637 98 0
-598 374 0
802 -875 0
-370 79 0
904 27 0
697 -921 0
-692 53 0
557 676 0
437 830 0
-375 740 0
174 135 0
437 -698 0
63 -47 0
-370 122 0
80 -53 0
322 -251 0
-921 -928 0
-433 699 0
453 -859 0
-323 684 0
-177 43 0
508 -569 0
-575 -435 0
118 -745 0
-598 168 0
239 659 0
-461 -789 0
716 -555 0
-245 547 0
-746 344 0
213 620 0
217 218 0
-455 894 0
-646 -841 0
60 -644 0
-356 -901 0
-147 464 0
255 465 0
-412 787 0
-316 -766 0
-188 882 0
218 474 0
-318 49 0
-68 885 0
337 -157 0
583 -472 0
-737 -702 0
-432 254 0
366 -795 0
-505 -44 0
818 529 0
-200 442 0
257 830 0
-917 -233 0
404 285 0
-702 -820 0
878 400 0
666 916 0
903 122 0
-921 -86 0
146 638 0
704 -401 0
-260 -236 0
-55 -521 0
-122 768 0
144 70 0
92 -846 0
609 131 0
136 -153 0
-61 -938 0
451 -870 0
16 -19 0
-852 434 0
584 849 0
711 402 0
-503 -446 0
607 726 0
-4 -898 0
373 -951 0
742 -552 0
-466 -263 0
-722 865 0
443 128 0
774 394 0
502 -206 0
-424 -47 0
-405 216 0
-754 794 0
865 668 0
-688 -938 0
117 628 0
757 -200 0
684 489 0
-616 -795 0
888 10 0
-844 -420 0
-578 617 0
590 663 0
114 -804 0
-364 -758 0
76 -494 0
-601 622 0
-151 -85 0
880 828 0
844 354 0
570 576 0
-526 741 0
278 620 0
243 -720 0
319 -945 0
-113 715 0
162 477 0
-272 -823 0
588 -863 0
665 904 0
897 561 0
-769 242 0
893 -34 0
946 -186 0
319 -106 0
-273 -229 0
-502 668 0
255 569 0
-707 -715 0
-335 -582 0
143 783 0
-619 27 0
-592 -89 0
464 858 0
833 -626 0
305 939 0
-629 -303 0
-180 -11 0
314 -379 0
705 -667 0
-573 321 0
695 -843 0
-220 -546 0
676 -46 0
-338 -736 0
-723 875 0
70 458 0
105 -450 0
-445 392 0
-599 -320 0
-329 -10 0
908 771 0
557 -754 0
-298 311 0
697 83 0
-54 615 0
287 -206 0
-487 752 0
-851 269 0
637 -581 0
119 -429 0
-528 804 0
917 -757 0
751 -949 0
181 -887 0
212 -745 0
490 -846 0
531 823 0
559 891 0
392 -865 0
-756 773 0
577 -197 0
-804 -391 0
-145 686 0
28 583 0
-506 345 0
27 585 0
-936 743 0
-792 337 0
-768 42 0
635 585 0
773 -318 0
-752 -399 0
59 664 0
46 836 0
257 -89 0
-624 67 0
324 396 0
124 -673 0
-104 358 0
-596 93 0
620 -28 0
181 -573 0
136 42 0
267 167 0
-345 -72 0
-487 -578 0
405 -320 0
-14 326 0
-548 887 0
-320 -145 0
-382 -324 0
-358 297 0
190 -201 0
354 -717 0
697 -520 0
-70 -16 0
753 -461 0
640 602 0
554 -951 0
-565 630 0
742 779 0
944 787 0
387 402 0
557 896 0
-600 -528 0
-357 822 0
-628 885 0
-709 398 0
-579 -674 0
-478 -907 0
-189 312 0
-808 -365 0
857 696 0
-639 -942 0
-834 767 0
199 -435 0
396 -368 0
-446 -318 0
812 116 0
-399 720 0
842 -286 0
-619 -203 0
-932 -805 0
-934 -492 0
824 -92 0
-493 -465 0
-950 324 0
640 172 0
834 -310 0
535 2 0
491 20 0
676 252 0
888 400 0
663 -771 0
883 -155 0
-953 532 0
-911 729 0
952 464 0
381 212 0
242 795 0
584 -286 0
325 768 0
92 80 0
-357 773 0
-446 -32 0
-903 367 0
-855 469 0
582 91 0
-652 -490 0
767 495 0
918 528 0
-252 -957 0
337 -928 0
-198 -821 0
-589 -283 0
-422 395 0
718 176 0
-367 867 0
709 613 0
-196 257 0
328 182 0
59 -781 0
583 827 0
33 164 0
-106 -490 0
940 -363 0
242 178 0
204 336 0
-860 488 0
255 -717 0
-28 -413 0
386 470 0
946 -669 0
750 70 0
152 41 0
-603 800 0
566 794 0
95 830 0
237 -175 0
-482 591 0
-754 -308 0
761 -589 0
-667 292 0
811 783 0
152 -724 0
730 -641 0
189 701 0
72 -884 0
219 417 0
460 249 0
349 839 0
-954 -796 0
-253 -111 0
341 -771 0
-153 585 0
152 507 0
484 239 0
36 145 0
265 -647 0
463 -279 0
-245 -528 0
-738 -190 0
-209 -224 0
-121 324 0
-939 845 0
-597 -3 0
-554 491 0
343 -368 0
-197 593 0
289 -898 0
-135 -143 0
725 42 0
-321 623 0
-562 218 0
749 291 0
-890 -461 0
-86 -670 0
-526 700 0
-930 -81 0
37 -236 0
687 362 0
-545 -357 0
-552 892 0
243 228 0
-267 -439 0
179 470 0
-89 910 0
-497 859 0
-918 820 0
157 -171 0
-399 -177 0
-910 888 0
-809 476 0
102 -870 0
614 743 0
825 883 0
-552 -374 0
402 560 0
237 -21 0
-760 329 0
231 412 0
-546 -799 0
161 719 0
-347 344 0
241 -506 0
-792 -488 0
-955 -826 0
-651 530 0
347 495 0
547 -264 0
565 -360 0
-739 701 0
65 828 0
-56 115 0
-111 440 0
167 -220 0
-546 -143 0
144 -720 0
370 -590 0
-86 812 0
-506 328 0
361 -457 0
311 -202 0
706 243 0
164 -81 0
904 -260 0
145 -947 0
-194 600 0
-447 560 0
-318 -125 0
-266 -136 0
-563 121 0
-57 -798 0
-395 621 0
669 843 0
-300 164 0
723 -835 0
-740 648 0
94 875 0
396 -817 0
-267 -593 0
619 -606 0
541 392 0
-112 -886 0
-719 -454 0
93 905 0
193 -518 0
758 -571 0
-394 -488 0
417 795 0
398 40 0
-850 491 0
806 -328 0
-264 412 0
955 -780 0
-194 -521 0
42 404 0
575 890 0
-800 160 0
715 -220 0
-916 -538 0
-419 -533 0
400 -430 0
879 448 0
-419 518 0
-940 -161 0
-236 500 0
667 -957 0
494 -930 0
698 376 0
919 -670 0
-921 -206 0
691 -101 0
366 696 0
-148 -781 0
150 620 0
641 137 0
-876 -953 0
818 212 0
284 -507 0
-478 -290 0
800 747 0
-880 -390 0
-772 255 0
727 890 0
177 758 0
-619 -234 0
61 -886 0
-705 -746 0
853 398 0
-878 80 0
-1 346 0
-786 421 0
-825 600 0
268 192 0
157 297 0
770 128 0
-854 303 0
557 -300 0
-706 -14 0
-104 -386 0
200 -771 0
-840 853 0
947 648 0
159 -484 0
-108 -234 0
110 29 0
791 -147 0
242 2 0
-282 13 0
59 -47 0
-480 671 0
-556 -67 0
726 333 0
-729 -273 0
-927 550 0
70 189 0
-878 -605 0
55 -325 0
810 -490 0
610 -649 0
231 160 0
212 -815 0
946 706 0
463 132 0
190 -212 0
-568 908 0
375 544 0
684 -654 0
-160 776 0
-309 83 0
-41 -439 0
-184 -863 0
-536 -747 0
-882 13 0
160 245 0
-486 -575 0
-88 185 0
-185 653 0
525 -758 0
672 -375 0
-827 -143 0
-365 -213 0
-250 392 0
224 -266 0
-50 91 0
-487 -784 0
428 -295 0
49 -404 0
-303 277 0
609 -368 0
795 -315 0
-492 -936 0
-915 613 0
-341 920 0
-276 -884 0
162 748 0
484 -539 0
232 246 0
201 416 0
-931 -569 0
-789 -610 0
-762 -332 0
836 -459 0
105 -918 0
-295 -239 0
-48 697 0
888 460 0
-808 652 0
-104 -373 0
-47 -295 0
-87 827 0
-747 -771 0
203 385 0
312 -334 0
363 -626 0
228 -467 0
822 635 0
422 -390 0
-854 -915 0
-81 -7 0
-282 343 0
-873 119 0
-592 -283 0
-315 -631 0
-190 491 0
-521 -20 0
638 342 0
-757 -195 0
902 802 0
-143 -331 0
29 -335 0
-466 -707 0
-886 563 0
839 794 0
-678 -422 0
843 -580 0
583 35 0
-913 880 0
-517 -377 0
475 -71 0
495 362 0
-603 593 0
263 -100 0
-258 -933 0
335 777 0
-952 -890 0
407 -868 0
-85 -904 0
-590 718 0
704 954 0
-97 -735 0
-915 -935 0
-61 -434 0
-723 496 0
-474 733 0
637 114 0
890 526 0
529 163 0
-559 -151 0
-47 615 0
377 -441 0
-552 329 0
-858 -354 0
94 -194 0
-841 34 0
900 -56 0
612 -729 0
-857 -226 0
99 -894 0
483 845 0
-127 -447 0
-631 920 0
218 688 0
900 546 0
634 -176 0
600 -343 0
813 668 0
-549 -285 0
699 582 0
-226 -259 0
-49 -815 0
-71 110 0
-570 -466 0
44 49 0
529 -941 0
788 187 0
559 -414 0
277 876 0
-309 699 0
-917 -590 0
517 -653 0
604 495 0
-760 330 0
68 -209 0
161 382 0
-441 -250 0
447 66 0
-87 -876 0
-546 529 0
533 712 0
628 -667 0
-276 255 0
759 -343 0
-163 -174 0
463 500 0
156 -216 0
-861 -527 0
-764 491 0
-338 -384 0
-125 343 0
167 649 0
-522 -156 0
-179 421 0
594 -810 0
-358 -522 0
-116 -575 0
-299 -147 0
-482 659 0
262 267 0
-952 -496 0
-833 595 0
312 908 0
880 787 0
-604 66 0
271 -278 0
551 -32 0
308 -473 0
344 -380 0
-466 402 0
863 40 0
948 696 0
-401 -644 0
-203 793 0
724 -770 0
-256 -670 0
-176 -892 0
162 347 0
-338 892 0
102 25 0
-122 -522 0
-256 122 0
573 548 0
-537 321 0
121 -3 0
-649 778 0
54 -16 0
187 -108 0
653 -111 0
712 42 0
-440 849 0
-853 -718 0
810 -440 0
-780 140 0
922 -219 0
-379 -953 0
-653 105 0
-509 524 0
333 54 0
-64 906 0
557 607 0
-539 232 0
-681 -23 0
483 -655 0
-134 104 0
495 720 0
498 -564 0
161 -544 0
-293 -379 0
-186 -760 0
-500 -380 0
-241 -711 0
50 712 0
181 -577 0
288 828 0
373 30 0
516 363 0
-348 -487 0
-291 622 0
-545 -185 0
630 819 0
-215 -143 0
931 -789 0
-33 -186 0
-120 -290 0
80 -708 0
-746 -370 0
-407 -32 0
-895 -487 0
491 34 0
-674 -528 0
-474 -5 0
-898 -569 0
-51 -665 0
828 -127 0
-924 411 0
402 834 0
799 800 0
151 453 0
-86 -112 0
605 601 0
-667 -753 0
-254 -247 0
167 130 0
-380 -354 0
484 78 0
668 173 0
-779 -592 0
-813 75 0
-314 920 0
409 148 0
50 -56 0
405 344 0
-490 408 0
-216 -620 0
545 -339 0
554 91 0
-186 -200 0
451 233 0
849 -750 0
596 753 0
-801 171 0
-328 441 0
795 -24 0
-249 153 0
-817 -760 0
884 -185 0
542 -510 0
-466 -780 0
854 774 0
270 -160 0
-258 623 0
820 -624 0
514 -334 0
-252 -444 0
-466 269 0
391 353 0
-354 -369 0
-956 823 0
392 755 0
-838 383 0
-895 -813 0
470 687 0
-815 863 0
-558 -458 0
-817 -275 0
93 54 0
-467 -921 0
138 -709 0
-852 -273 0
-408 -382 0
241 -536 0
-444 534 0
593 576 0
-822 162 0
-586 -763 0
40 -745 0
862 306 0
-209 -164 0
-952 340 0
383 897 0
-444 -531 0
-656 794 0
107 137 0
782 -54 0
296 -558 0
576 -88 0
425 -245 0
-220 800 0
-689 833 0
796 824 0
585 344 0
547 346 0
684 -490 0
411 63 0
-171 192 0
202 -117 0
416 -40 0
-787 733 0
154 -274 0
-279 612 0
-213 -897 0
-782 321 0
427 827 0
102 428 0
-124 139 0
-332 859 0
-499 36 0
887 -272 0
-871 949 0
830 -144 0
758 20 0
-546 706 0
35 -841 0
-473 560 0
-889 263 0
554 545 0
-662 -153 0
842 -640 0
-546 -297 0
219 -388 0
756 -48 0
-578 850 0
-377 897 0
462 458 0
-399 -429 0
-465 -688 0
491 -215 0
-418 -543 0
-19 -20 0
291 940 0
326 -197 0
-441 -797 0
806 884 0
421 204 0
703 -153 0
-77 101 0
630 271 0
909 -566 0
923 -575 0
736 -580 0
-34 -606 0
607 424 0
6 -688 0
724 249 0
-321 836 0
451 880 0
-731 555 0
-123 -353 0
853 -535 0
-98 -730 0
107 27 0
571 -306 0
-454 -796 0
-353 91 0
335 -953 0
253 -420 0
-642 -819 0
-343 -937 0
541 -864 0
684 178 0
-872 -48 0
479 -884 0
866 181 0
-363 238 0
790 150 0
-301 -422 0
-647 -642 0
-597 -274 0
101 -548 0
-201 791 0
47 148 0
-589 -572 0
296 524 0
665 874 0
-733 783 0
508 -411 0
657 -914 0
-860 519 0
-440 -71 0
-266 -860 0
-705 944 0
639 788 0
-510 -280 0
202 -735 0
521 -294 0
-23 -463 0
144 511 0
13 295 0
-177 352 0
496 -72 0
737 34 0
-482 -381 0
-852 291 0
145 321 0
662 -287 0
880 -274 0
-450 -253 0
578 -636 0
-826 137 0
-542 -372 0
598 395 0
577 162 0
-46 -397 0
-125 120 0
-510 263 0
59 103 0
198 -587 0
581 -233 0
-499 -93 0
572 319 0
-637 -796 0
162 -852 0
-31 308 0
374 536 0
-280 -220 0
296 778 0
-688 369 0
-173 45 0
-341 292 0
360 392 0
67 617 0
798 -399 0
679 751 0
-444 68 0
-89 -756 0
-357 312 0
292 -602 0
-894 731 0
-167 -100 0
-135 407 0
367 715 0
-112 -133 0
909 620 0
877 -796 0
636 -797 0
-188 -835 0
-188 391 0
609 -543 0
-895 -82 0
633 -826 0
-418 366 0
-804 -173 0
-370 -792 0
-314 839 0
-232 -320 0
306 857 0
871 -360 0
447 -402 0
-745 -434 0
-754 -496 0
920 52 0
373 -497 0
-580 439 0
-754 -136 0
-432 -832 0
749 397 0
-872 954 0
-21 876 0
-884 -146 0
68 352 0
-463 -500 0
640 635 0
584 -438 0
-899 -767 0
-784 111 0
-75 919 0
862 662 0
567 -104 0
788 -199 0
-914 -375 0
107 -456 0
-396 -740 0
-248 513 0
711 -48 0
-406 82 0
695 570 0
323 379 0
152 218 0
-855 -269 0
495 116 0
947 -245 0
-426 508 0
115 -790 0
-389 -781 0
254 -651 0
-616 70 0
494 -43 0
555 -112 0
-852 399 0
-807 782 0
-22 -106 0
-123 -786 0
303 269 0
-529 558 0
-191 110 0
-18 -244 0
-698 -399 0
9 -360 0
-756 779 0
808 519 0
510 576 0
-455 157 0
-842 94 0
556 -953 0
456 -855 0
407 -849 0
306 -826 0
-100 330 0
388 877 0
437 104 0
536 -574 0
-939 352 0
-641 154 0
271 350 0
695 -543 0
-157 39 0
911 247 0
650 -739 0
-913 749 0
-104 943 0
-33 508 0
662 -182 0
-809 -117 0
-476 -295 0
810 495 0
633 -602 0
828 161 0
658 -839 0
26 581 0
534 -211 0
920 136 0
-169 376 0
663 582 0
-375 420 0
-428 -761 0
139 -9 0
-390 645 0
584 -218 0
9 291 0
-436 193 0
798 79 0
-648 -590 0
307 -340 0
-520 724 0
-147 140 0
931 820 0
-167 -632 0
-535 -365 0
-74 435 0
874 -2 0
-509 -4 0
-287 866 0
-179 551 0
-817 545 0
-67 685 0
540 -702 0
-931 542 0
-496 200 0
701 -219 0
-186 -350 0
-305 18 0
210 443 0
-794 -455 0
585 395 0
828 -469 0
343 4 0
-60 612 0
657 910 0
182 -45 0
806 616 0
46 545 0
-805 -467 0
-550 -283 0
837 -562 0
402 157 0
139 -950 0
794 -234 0
-762 553 0
76 544 0
637 -109 0
-184 174 0
751 -763 0
726 570 0
384 429 0
513 -764 0
-938 326 0
885 744 0
687 -252 0
121 671 0
774 243 0
-736 -693 0
532 443 0
237 211 0
927 -892 0
565 574 0
-347 -386 0
773 -730 0
-937 731 0
-215 550 0
336 264 0
814 -16 0
-300 -700 0
-57 -574 0
267 -667 0
-872 -191 0
940 -426 0
-834 -286 0
-77 760 0
709 492 0
552 591 0
657 9 0
411 -869 0
274 948 0
-807 351 0
-571 897 0
218 695 0
-221 -359 0
-832 -458 0
600 -111 0
-587 22 0
-892 -455 0
-904 18 0
-191 -708 0
-667 864 0
-875 257 0
721 291 0
746 529 0
795 416 0
801 864 0
475 80 0
-127 -943 0
427 805 0
-370 -799 0
-756 -865 0
333 217 0
-287 -306 0
269 -176 0
763 -54 0
159 814 0
-21 167 0
545 -391 0
957 -339 0
241 -677 0
349 869 0
-897 -314 0
167 833 0
51 -727 0
-504 -501 0
131 281 0
-244 675 0
335 -369 0
390 -951 0
-665 890 0
-423 -702 0
-769 -10 0
-587 949 0
232 -566 0
-587 -624 0
698 -896 0
-604 -381 0
-28 758 0
-682 534 0
-447 18 0
-922 190 0
-548 -343 0
685 -665 0
-535 876 0
-81 222 0
383 -322 0
668 -950 0
858 605 0
640 154 0
-351 263 0
804 513 0
175 739 0
-940 -208 0
-392 749 0
464 -484 0
-561 712 0
-719 -924 0
-876 -357 0
610 315 0
-581 137 0
-848 -670 0
333 -936 0
-878 -230 0
535 321 0
603 -914 0
824 287 0
-939 922 0
-428 843 0
-192 -455 0
-149 -767 0
-738 75 0
298 -338 0
-738 -332 0
-205 -177 0
-493 3 0
533 -158 0
396 -334 0
671 -719 0
185 329 0
251 694 0
536 -472 0
-819 -765 0
29 463 0
686 154 0
-59 296 0
-204 812 0
-528 904 0
-525 410 0
-574 791 0
27 -26 0
-846 -398 0
-149 578 0
-758 -875 0
531 -821 0
-485 699 0
-805 78 0
-478 -121 0
-688 -414 0
587 -347 0
150 -147 0
-763 280 0
418 -509 0
776 307 0
130 -460 0
55 -316 0
-524 -259 0
319 -74 0
17 -64 0
-957 389 0
228 139 0
548 99 0
-173 649 0
-850 907 0
666 -626 0
-347 782 0
653 205 0
-617 -207 0
-149 -413 0
151 551 0
874 937 0
-184 -578 0
-705 -234 0
385 167 0
79 -818 0
-211 411 0
-530 625 0
468 -429 0
832 -431 0
162 858 0
786 -403 0
-834 -500 0
771 -268 0
-300 -896 0
-393 -25 0
379 -717 0
384 -856 0
-788 411 0
-298 -360 0
557 -94 0
489 -221 0
33 -747 0
-569 491 0
-207 773 0
169 -295 0
114 -156 0
-37 -761 0
-911 -745 0
277 59 0
-819 243 0
238 -874 0
323 406 0
-841 -140 0
-517 44 0
338 346 0
-456 62 0
-539 829 0
-25 666 0
-15 -229 0
321 -516 0
22 -875 0
-896 -357 0
-437 433 0
-286 -715 0
-334 -818 0
-314 398 0
753 532 0
400 -310 0
-852 29 0
748 -553 0
-846 -19 0
554 -100 0
-773 -527 0
-64 285 0
-512 -226 0
943 -136 0
-599 861 0
94 663 0
920 543 0
-694 -641 0
545 -807 0
693 33 0
348 -282 0
-593 -789 0
-407 -100 0
-717 -541 0
-198 35 0
671 -206 0
5 -468 0
579 836 0
-742 -942 0
284 -550 0
-378 936 0
-711 50 0
-203 394 0
-910 524 0
687 -87 0
-434 602 0
-62 731 0
82 215 0
-378 -873 0
-893 -86 0
-338 265 0
-69 107 0
261 936 0
812 -799 0
-159 63 0
-209 -184 0
-790 -556 0
800 161 0
-363 -741 0
-142 -140 0
-685 755 0
859 -864 0
-248 344 0
-913 -196 0
507 -135 0
161 -573 0
676 -673 0
-611 -147 0
607 -546 0
559 159 0
-686 779 0
402 160 0
114 -541 0
314 -688 0
397 352 0
672 37 0
-465 311 0
-28 224 0
900 -708 0
314 326 0
-69 401 0
42 610 0
-85 -103 0
201 -436 0
-46 -896 0
30 -175 0
85 159 0
-227 252 0
392 -308 0
59 -225 0
-955 -581 0
873 -597 0
-809 -785 0
-632 834 0
-698 -703 0
-928 -339 0
-185 -217 0
-780 674 0
78 -279 0
-381 577 0
449 307 0
-321 397 0
-928 479 0
-854 -481 0
-215 562 0
-559 542 0
-781 457 0
-558 -871 0
-429 -202 0
-737 -154 0
373 -593 0
-739 -762 0
758 -667 0
346 247 0
210 -282 0
830 758 0
-673 -265 0
-153 -463 0
-153 -796 0
812 543 0
-437 -792 0
-468 -315 0
-372 929 0
348 509 0
-575 391 0
-813 530 0
-848 658 0
-309 -188 0
881 -10 0
-98 -769 0
360 749 0
236 219 0
718 -221 0
-73 -629 0
536 315 0
-643 -70 0
29 -458 0
190 -632 0
575 137 0
35 530 0
-828 -554 0
-624 463 0
-520 545 0
-112 -606 0
-302 -216 0
6 -402 0
63 -582 0
-99 412 0
-805 415 0
51 304 0
700 70 0
483 289 0
278 -578 0
650 -634 0
-776 -414 0
-753 349 0
99 801 0
460 733 0
13 410 0
-876 350 0
869 389 0
-614 498 0
-535 874 0
-692 -636 0
39 -595 0
-785 -108 0
508 869 0
-196 -272 0
245 477 0
619 411 0
-839 -928 0
228 -491 0
489 -688 0
-708 -950 0
312 267 0
566 -583 0
838 -884 0
524 -886 0
181 -391 0
-659 -446 0
422 181 0
743 -77 0
-928 -942 0
560 810 0
204 627 0
756 400 0
-811 -149 0
324 736 0
-529 -680 0
296 -656 0
-506 -769 0
-256 -473 0
-250 -415 0
6 -203 0
84 -948 0
179 290 0
558 596 0
483 -298 0
192 361 0
913 -376 0
597 -723 0
-156 -526 0
-213 794 0
-8 -687 0
588 710 0
257 288 0
530 -826 0
-485 159 0
-519 -127 0
-444 679 0
-269 -851 0
-493 -473 0
-23 198 0
-530 -797 0
789 -260 0
882 242 0
344 71 0
844 704 0
695 -855 0
139 -635 0
335 -197 0
694 102 0
-785 -443 0
105 818 0
744 588 0
474 -64 0
223 222 0
-640 -268 0
-150 324 0
-309 -832 0
411 49 0
147 -832 0
628 116 0
926 -674 0
-160 894 0
159 369 0
-766 -801 0
-11 663 0
-767 478 0
662 495 0
270 -14 0
-100 516 0
-121 510 0
17 -430 0
11 574 0
-328 477 0
-654 -911 0
-883 78 0
-328 -110 0
633 50 0
790 281 0
-445 453 0
790 471 0
-176 -194 0
15 -673 0
893 549 0
-860 34 0
253 -636 0
375 -359 0
-86 595 0
-740 -276 0
329 -378 0
-717 -688 0
740 161 0
-155 296 0
-760 -714 0
561 -16 0
567 -510 0
655 -740 0
532 504 0
-541 -714 0
40 -828 0
625 411 0
-952 783 0
-30 292 0
-854 83 0
-497 116 0
288 560 0
-570 -807 0
-393 -350 0
468 -67 0
-681 -653 0
641 -887 0
-153 -672 0
916 415 0
-931 718 0
228 451 0
-917 224 0
-574 -942 0
54 664 0
-445 830 0
-410 -165 0
-674 -855 0
-473 -665 0
-621 -543 0
701 9 0
59 785 0
-71 -526 0
-501 137 0
172 -678 0
567 185 0
-46 -185 0
929 -548 0
37 600 0
-45 366 0
-621 -514 0
-93 -64 0
373 75 0
214 894 0
309 618 0
678 -926 0
-358 925 0
576 -367 0
393 -632 0
529 -230 0
277 -295 0
684 -386 0
751 706 0
-722 -593 0
236 -878 0
189 -880 0
-276 666 0
427 557 0
-680 399 0
715 -473 0
800 715 0
-5 -230 0
-359 -24 0
182 792 0
863 -20 0
945 105 0
-83 58 0
204 741 0
-570 760 0
-505 154 0
-779 -488 0
211 -826 0
721 504 0
-895 849 0
-395 75 0
-896 -16 0
892 908 0
651 -514 0
421 169 0
-185 682 0
-690 -769 0
-769 -907 0
644 -552 0
789 -48 0
-177 136 0
242 -159 0
-472 -274 0
920 197 0
-155 -575 0
186 75 0
-299 188 0
-755 21 0
214 691 0
102 26 0
741 154 0
-915 230 0
-541 74 0
-146 -892 0
-343 -835 0
325 787 0
-756 661 0
-755 787 0
676 -884 0
-454 477 0
-676 -757 0
-300 -244 0
-840 -714 0
-955 -401 0
-366 -64 0
-913 -940 0
544 99 0
-293 -232 0
385 626 0
-603 911 0
-730 -58 0
-190 547 0
-781 732 0
50 808 0
-587 -880 0
750 120 0
-155 -521 0
-125 -315 0
-576 -142 0
-101 -813 0
-616 611 0
-154 -509 0
-420 -284 0
952 344 0
649 190 0
822 -85 0
876 -49 0
-86 36 0
-271 -631 0
-809 -944 0
41 -52 0
-103 -558 0
-170 -124 0
368 800 0
-46 -823 0
552 -14 0
902 869 0
-142 119 0
-738 899 0
-334 320 0
-506 -819 0
-441 -929 0
-563 -252 0
716 147 0
544 105 0
353 33 0
-426 -715 0
826 -478 0
560 144 0
945 544 0
-657 -506 0
-261 791 0
551 622 0
-283 397 0
457 -465 0
-232 574 0
2 -78 0
777 -235 0
-194 -563 0
214 417 0
-112 -375 0
691 -267 0
-286 -952 0
526 -504 0
406 704 0
889 -523 0
169 240 0
-944 -23 0
136 -903 0
-761 -461 0
280 433 0
-174 -347 0
552 319 0
-218 498 0
287 -456 0
-860 -758 0
482 239 0
561 161 0
932 -781 0
-439 189 0
633 696 0
-403 -330 0
-871 243 0
-870 -531 0
-129 -305 0
693 335 0
-441 -97 0
-390 -173 0
666 610 0
235 276 0
891 571 0
-550 648 0
-645 539 0
638 925 0
241 471 0
-420 846 0
101 402 0
-820 321 0
352 -147 0
15 -471 0
-273 241 0
250 -252 0
265 -310 0
-188 617 0
309 744 0
-911 753 0
257 -762 0
-693 658 0
829 398 0
248 555 0
-549 -819 0
263 255 0
-126 -168 0
934 292 0
376 871 0
319 490 0
826 -639 0
96 -256 0
-378 -621 0
866 -171 0
175 -217 0
452 -700 0
-917 183 0
382 -921 0
846 -935 0
-832 -302 0
-185 879 0
-71 -639 0
-568 956 0
-819 202 0
-431 384 0
-514 -500 0
710 -339 0
92 307 0
491 -538 0
246 -714 0
-250 -695 0
557 -379 0
823 202 0
744 132 0
899 -376 0
-473 -350 0
-641 -395 0
-775 -658 0
830 210 0
-677 324 0
-717 240 0
-32 -613 0
-331 154 0
-466 -575 0
909 -252 0
-696 301 0
-198 892 0
-255 -472 0
821 -598 0
-310 543 0
-732 34 0
17 -332 0
903 -84 0
-186 258 0
-884 665 0
9 -204 0
554 -359 0
511 189 0
-423 -283 0
940 26 0
-14 718 0
270 835 0
-957 -379 0
-214 -781 0
-656 648 0
270 383 0
-210 30 0
934 -636 0
-834 876 0
-892 -100 0
710 -143 0
-142 630 0
232 -586 0
-5 898 0
65 -931 0
-660 -550 0
105 194 0
-858 -953 0
307 481 0
-240 -826 0
-677 250 0
581 676 0
-665 -625 0
750 206 0
-851 431 0
-332 589 0
-227 513 0
839 -867 0
-697 537 0
649 -669 0
577 425 0
484 -817 0
470 940 0
684 100 0
879 -702 0
-123 408 0
907 -852 0
570 498 0
-29 33 0
435 -730 0
-500 726 0
36 154 0
392 694 0
764 269 0
-324 802 0
471 131 0
839 888 0
-81 -559 0
-424 219 0
849 -815 0
-506 502 0
-784 162 0
331 557 0
186 -233 0
-878 -441 0
755 -430 0
746 -170 0
727 731 0
571 825 0
42 934 0
-948 380 0
2 284 0
-533 -848 0
534 265 0
886 301 0
-185 112 0
-533 -804 0
-132 409 0
479 811 0
765 400 0
76 -621 0
-423 -584 0
-392 -859 0
211 -940 0
338 748 0
-244 882 0
-52 675 0
-450 -413 0
2 -163 0
72 337 0
346 -163 0
239 870 0
-704 -221 0
-300 -215 0
539 -79 0
52 944 0
-251 -652 0
-602 -818 0
-955 221 0
710 199 0
417 -541 0
-771 782 0
199 699 0
507 -715 0
-854 518 0
-203 -16 0
-558 661 0
-578 877 0
154 -604 0
222 770 0
199 30 0
-817 626 0
750 708 0
374 -824 0
616 -225 0
866 -788 0
605 -817 0
161 845 0
-914 -328 0
411 -623 0
-523 -335 0
-245 317 0
81 753 0
-271 -217 0
-260 925 0
-179 181 0
-957 -942 0
-624 428 0
193 894 0
-607 306 0
-475 927 0
-900 733 0
-762 -356 0
210 -364 0
-234 330 0
-471 684 0
333 879 0
-883 301 0
-631 -216 0
-458 883 0
-272 -835 0
227 388 0
257 -899 0
383 258 0
142 691 0
-426 -367 0
783 890 0
367 877 0
-72 -242 0
239 -148 0
87 -180 0
-24 -897 0
748 14 0
-445 489 0
199 -210 0
-133 -593 0
-761 -16 0
-711 243 0
-708 -575 0
-108 278 0
99 157 0
147 709 0
-894 -932 0
949 625 0
-302 -448 0
-596 152 0
615 -493 0
546 596 0
-420 736 0
-400 -281 0
-446 174 0
-815 659 0
-126 -185 0
508 657 0
-957 400 0
-658 -947 0
943 -219 0
476 -281 0
-401 592 0
333 -799 0
292 -889 0
80 370 0
296 42 0
-903 -419 0
-135 811 0
138 -447 0
-627 683 0
131 -808 0
-884 845 0
-613 -111 0
-83 -143 0
750 -308 0
-431 712 0
107 471 0
-891 800 0
105 251 0
-811 632 0
598 138 0
-90 636 0
264 362 0
-393 -85 0
-413 465 0
-691 78 0
-523 631 0
802 751 0
-401 -131 0
435 -306 0
-597 139 0
908 -716 0
-224 641 0
743 915 0
923 -554 0
666 685 0
-474 20 0
-434 758 0
-514 -322 0
-847 352 0
453 -546 0
166 577 0
119 660 0
-499 -341 0
-499 -164 0
-7 46 0
503 561 0
321 -51 0
849 98 0
30 691 0
-285 26 0
-149 738 0
-841 910 0
798 -229 0
-509 -569 0
-525 -377 0
358 493 0
126 -673 0
-220 -629 0
-348 -681 0
634 -148 0
-738 -618 0
776 -340 0
-815 -562 0
-805 348 0
-248 946 0
-113 -496 0
-154 495 0
25 -858 0
204 -161 0
256 162 0
-624 -741 0
-413 758 0
-606 -686 0
-457 -340 0
20 -378 0
662 -496 0
185 -738 0
936 29 0
155 119 0
-828 267 0
-647 -322 0
-796 325 0
635 150 0
823 915 0
594 917 0
517 -663 0
41 -817 0
-810 263 0
-379 -679 0
352 -403 0
640 615 0
616 428 0
-250 -763 0
73 84 0
764 -223 0
410 743 0
-78 -714 0
212 -935 0
317 825 0
-468 956 0
768 391 0
325 -419 0
119 -845 0
26 -303 0
-909 579 0
322 -86 0
-408 -436 0
-926 -850 0
-693 -220 0
-374 -165 0
-549 276 0
80 720 0
-857 -504 0
228 59 0
-59 -834 0
379 -165 0
261 531 0
689 270 0
-569 37 0
100 -318 0
-158 -382 0
695 -745 0
44 245 0
4 -572 0
-61 -437 0
425 616 0
348 -112 0
-654 579 0
-436 -721 0
617 -508 0
523 558 0
-756 -205 0
167 471 0
-901 -626 0
-696 -784 0
-544 -16 0
495 -648 0
594 317 0
17 78 0
-863 -761 0
-515 350 0
235 -400 0
-728 -450 0
612 -195 0
335 104 0
417 235 0
-526 -933 0
4 41 0
-230 -147 0
-719 -884 0
-505 -268 0
501 -953 0
842 275 0
-409 -624 0
-646 257 0
-597 539 0
-7 313 0
-89 342 0
-935 -331 0
512 -688 0
445 768 0
577 -196 0
-282 -737 0
794 477 0
258 -708 0
-174 253 0
709 9 0
346 -230 0
-870 -125 0
396 -488 0
-364 383 0
-939 406 0
-552 -627 0
-431 513 0
633 -86 0
653 -614 0
641 713 0
-516 326 0
-702 542 0
-138 -928 0
634 919 0
-547 -667 0
-773 161 0
-388 -77 0
-171 690 0
827 96 0
814 -452 0
-805 -705 0
386 -717 0
913 -34 0
-669 415 0
621 752 0
-11 -204 0
950 825 0
-260 -763 0
-50 -74 0
-31 369 0
-332 -173 0
-811 -283 0
79 -496 0
803 -916 0
612 -32 0
469 -295 0
-372 870 0
-236 191 0
269 801 0
-850 -332 0
49 -740 0
517 -868 0
54 642 0
-424 -641 0
-303 -252 0
-234 -762 0
283 278 0
-54 127 0
-423 73 0
768 812 0
-19 25 0
783 -753 0
-492 -651 0
-526 335 0
581 346 0
-69 460 0
-681 -285 0
-834 715 0
883 -283 0
-45 -581 0
468 710 0
-709 -854 0
-206 -401 0
-708 -435 0
300 489 0
336 367 0
-636 -226 0
-473 56 0
-185 73 0
283 583 0
-569 105 0
402 854 0
449 -369 0
-314 635 0
-914 915 0
697 -88 0
-950 129 0
-420 -34 0
520 -363 0
875 -339 0
169 -809 0
265 169 0
946 -866 0
-771 311 0
-761 -766 0
-325 -841 0
-796 706 0
906 -939 0
-84 -129 0
394 -205 0
-817 954 0
250 547 0
-113 -900 0
902 -492 0
380 -135 0
-920 503 0
17 -387 0
-695 776 0
465 -379 0
529 907 0
-953 511 0
403 888 0
909 -749 0
-371 151 0
926 -185 0
117 904 0
-326 435 0
-938 612 0
753 148 0
653 -775 0
-88 616 0
35 -528 0
800 -828 0
-132 -851 0
-31 367 0
560 863 0
202 -695 0
110 174 0
99 -455 0
243 -450 0
-859 699 0
922 -107 0
317 -855 0
903 -369 0
-198 79 0
-638 452 0
178 -171 0
80 839 0
-692 517 0
-179 -354 0
200 -104 0
-603 862 0
161 -696 0
-459 271 0
813 -364 0
337 -418 0
-705 -446 0
-167 -775 0
-21 726 0
-474 273 0
-496 -614 0
331 774 0
-526 -72 0
470 -630 0
536 -43 0
-92 -708 0
333 -249 0
901 -456 0
-582 -146 0
608 264 0
873 50 0
208 -629 0
748 906 0
-77 628 0
-485 231 0
-550 -738 0
-575 -31 0
-48 574 0
-819 265 0
166 -321 0
-205 -203 0
-610 755 0
229 -473 0
-748 400 0
-773 96 0
-23 689 0
219 -421 0
874 -417 0
666 -531 0
579 468 0
-590 -470 0
-145 -56 0
736 704 0
-410 118 0
396 651 0
-47 -272 0
-829 839 0
338 -413 0
-832 840 0
292 -651 0
-850 -60 0
907 -266 0
-167 -809 0
-717 366 0
-12 -771 0
654 -430 0
-808 -11 0
725 651 0
96 513 0
-708 525 0
598 239 0
-654 -812 0
142 -509 0
-34 448 0
33 874 0
79 881 0
155 -399 0
638 -831 0
908 -789 0
634 660 0
269 -763 0
742 495 0
714 98 0
-740 277 0
782 796 0
568 776 0
82 -423 0
586 -75 0
-652 -938 0
39 814 0
170 876 0
842 489 0
-945 -860 0
935 438 0
-535 622 0
-342 326 0
