c bounds 55 55
p cnf 550 1870
-303 205 0
538 31 0
408 -298 0
-424 -102 0
178 -315 0
314 484 0
-507 -431 0
-385 448 0
-62 526 0
-369 504 0
39 272 0
-111 481 0
-446 44 0
355 -328 0
133 84 0
175 219 0
417 -437 0
528 491 0
182 154 0
-127 177 0
-212 -72 0
-105 -497 0
95 -547 0
107 88 0
375 141 0
473 -246 0
-76 228 0
184 424 0
-333 -247 0
116 -96 0
-237 -9 0
115 -516 0
311 -384 0
-514 -21 0
-499 190 0
248 191 0
352 -88 0
185 -459 0
-28 424 0
147 230 0
426 430 0
372 250 0
-101 -393 0
327 -475 0
-547 -378 0
-497 -179 0
-464 510 0
-53 70 0
400 -216 0
192 461 0
320 194 0
-18 -59 0
263 -499 0
-465 98 0
145 -187 0
328 260 0
392 -261 0
-438 -99 0
517 -376 0
-152 3 0
265 526 0
-282 112 0
-488 200 0
23 309 0
269 -144 0
-180 -232 0
-209 -378 0
518 447 0
-91 138 0
523 420 0
-29 -496 0
-86 142 0
-516 -373 0
-379 -300 0
146 -459 0
-60 -521 0
309 -453 0
-543 82 0
408 -290 0
-474 -515 0
-192 -540 0
389 83 0
254 143 0
169 35 0
309 183 0
273 423 0
421 538 0
-132 221 0
-77 38 0
-99 304 0
-73 -22 0
71 -393 0
-519 253 0
207 -369 0
529 -80 0
-421 -184 0
-533 130 0
520 -325 0
264 239 0
198 89 0
-47 178 0
370 89 0
488 38 0
206 -111 0
60 -316 0
113 -486 0
-193 -469 0
249 484 0
-241 -37 0
182 -101 0
-530 -477 0
-95 -42 0
496 -77 0
-475 -524 0
-211 -387 0
316 326 0
542 462 0
-201 539 0
-297 -45 0
-478 -152 0
343 105 0
-511 417 0
-261 506 0
-176 26 0
108 400 0
420 258 0
-93 422 0
30 194 0
52 -456 0
-360 -307 0
239 -257 0
-311 -45 0
270 -459 0
-40 343 0
-93 51 0
65 545 0
-160 -92 0
235 20 0
-365 -49 0
292 -378 0
160 -350 0
44 -322 0
535 -101 0
240 488 0
140 -201 0
416 397 0
81 23 0
-110 -550 0
245 -48 0
327 -173 0
-280 -159 0
-5 -51 0
535 423 0
301 438 0
-225 146 0
133 -391 0
-4 498 0
287 -10 0
178 -64 0
-82 -431 0
544 -244 0
518 143 0
227 137 0
542 51 0
-39 -189 0
38 500 0
-178 -365 0
-333 -519 0
352 217 0
171 -43 0
-365 168 0
207 -489 0
417 -464 0
306 -62 0
-391 -516 0
504 -531 0
-450 -467 0
-519 -141 0
-412 335 0
-302 538 0
106 -222 0
318 -288 0
-357 310 0
190 -335 0
153 223 0
287 -297 0
436 383 0
-541 -427 0
-34 -272 0
-69 424 0
-492 -110 0
509 -305 0
-486 -78 0
546 -116 0
-338 162 0
-311 -6 0
126 493 0
415 -403 0
-499 -496 0
-223 -490 0
147 -14 0
549 214 0
-404 -479 0
324 131 0
-505 90 0
-332 142 0
-218 4 0
-106 208 0
189 399 0
-502 -2 0
-477 -396 0
64 48 0
282 -187 0
260 -393 0
148 449 0
-359 418 0
-370 -338 0
-118 263 0
102 297 0
-302 204 0
-48 62 0
504 -59 0
-429 104 0
250 -45 0
20 346 0
-95 124 0
-482 324 0
-161 -169 0
-214 -421 0
318 103 0
147 -17 0
-261 -393 0
-309 405 0
-224 288 0
-133 -480 0
293 -461 0
-216 -393 0
-528 16 0
288 -9 0
39 -380 0
463 153 0
401 -137 0
-203 -303 0
-466 -130 0
117 -446 0
-191 374 0
245 227 0
494 -132 0
-289 374 0
-45 358 0
243 281 0
19 464 0
354 -421 0
435 542 0
-492 4 0
485 297 0
-357 -203 0
-346 426 0
-59 -66 0
155 -147 0
208 -458 0
-165 369 0
-101 494 0
223 -370 0
-230 399 0
-198 266 0
-407 463 0
181 -376 0
494 119 0
-497 -61 0
242 28 0
483 305 0
-299 -152 0
-115 332 0
-346 264 0
-190 256 0
512 -133 0
51 48 0
314 336 0
259 -111 0
-457 232 0
395 -27 0
90 -486 0
206 -50 0
366 181 0
-548 -504 0
-265 -47 0
283 -254 0
-469 -260 0
-438 510 0
220 -301 0
-251 -366 0
-122 -486 0
271 54 0
-408 537 0
-410 -548 0
-398 -360 0
214 266 0
-365 470 0
407 281 0
240 393 0
128 -542 0
406 310 0
-169 407 0
151 -361 0
313 70 0
-50 -486 0
54 -91 0
-482 157 0
434 -60 0
-340 407 0
-383 -390 0
113 -221 0
147 474 0
-225 51 0
26 355 0
263 -412 0
519 -457 0
447 -362 0
65 230 0
507 142 0
77 511 0
-480 235 0
-201 -105 0
406 -225 0
21 263 0
294 5 0
516 389 0
-69 196 0
-475 -497 0
260 40 0
350 106 0
-309 -193 0
-10 434 0
-390 -76 0
259 -457 0
-545 374 0
-191 42 0
-102 -545 0
457 40 0
208 -431 0
-300 -20 0
-209 87 0
-160 -198 0
210 178 0
-531 473 0
202 310 0
-21 522 0
-3 494 0
-293 -381 0
-382 -23 0
350 510 0
-320 -235 0
-273 -348 0
-424 523 0
382 -387 0
88 -251 0
-151 -34 0
375 -400 0
485 14 0
-516 80 0
-387 -429 0
207 -524 0
355 -242 0
195 -461 0
504 -384 0
299 137 0
-489 -464 0
-437 -353 0
-202 319 0
-314 335 0
-225 -401 0
-358 174 0
349 44 0
-362 145 0
132 538 0
413 -224 0
488 -119 0
-436 513 0
242 67 0
386 211 0
361 -437 0
147 -246 0
-348 527 0
206 -264 0
281 192 0
270 533 0
92 -455 0
-115 -450 0
-189 302 0
-379 -169 0
-547 -22 0
114 215 0
447 491 0
-160 219 0
392 -497 0
-122 60 0
136 -180 0
114 180 0
3 -140 0
-474 499 0
-8 236 0
447 436 0
417 239 0
455 259 0
22 -232 0
-279 37 0
-91 316 0
-427 -411 0
-470 440 0
-506 -419 0
432 99 0
-251 90 0
-278 -44 0
207 363 0
214 89 0
81 439 0
496 469 0
-307 53 0
-235 -168 0
66 17 0
-38 -543 0
465 -379 0
-122 434 0
281 -111 0
-307 81 0
132 -111 0
533 -435 0
298 179 0
372 -154 0
320 -216 0
-453 487 0
-43 202 0
-360 350 0
-45 125 0
-460 -397 0
171 -80 0
488 325 0
412 -392 0
301 -314 0
-357 -134 0
-238 312 0
-382 -404 0
427 -175 0
301 298 0
-488 248 0
74 -208 0
-492 312 0
136 507 0
340 -548 0
-131 -377 0
131 129 0
120 316 0
55 -345 0
415 -472 0
382 339 0
498 466 0
46 142 0
522 494 0
25 496 0
-515 351 0
472 -175 0
38 -508 0
246 -174 0
177 -199 0
75 -509 0
510 -365 0
-65 -525 0
279 -548 0
182 312 0
-238 -333 0
-142 31 0
72 27 0
491 -252 0
284 -328 0
138 -539 0
-232 344 0
314 -47 0
26 -475 0
-545 150 0
-37 -453 0
-216 518 0
-2 -486 0
-516 -120 0
-452 71 0
494 -338 0
-430 424 0
-59 -129 0
313 106 0
11 -231 0
156 -193 0
268 114 0
-222 189 0
-433 55 0
323 -121 0
315 -9 0
-514 359 0
83 257 0
112 184 0
-503 270 0
312 537 0
291 260 0
248 -139 0
-271 401 0
381 -224 0
305 123 0
-504 -212 0
531 436 0
-389 -366 0
422 -140 0
314 320 0
-23 -492 0
422 -228 0
398 6 0
-81 72 0
503 19 0
-29 -528 0
149 -126 0
17 399 0
84 -507 0
25 345 0
-383 182 0
325 64 0
315 -397 0
369 260 0
252 -391 0
-123 -45 0
348 133 0
481 -459 0
507 -246 0
-189 308 0
-112 185 0
-243 -417 0
-9 -168 0
-405 -32 0
-510 178 0
402 26 0
-371 -59 0
415 -452 0
-162 -101 0
-120 -173 0
498 114 0
12 39 0
-530 64 0
-419 -59 0
-204 -519 0
-501 -486 0
209 -465 0
-242 210 0
-170 -444 0
-16 -524 0
-436 327 0
323 174 0
219 303 0
-429 -353 0
-311 337 0
120 -226 0
-32 536 0
429 64 0
-111 128 0
53 239 0
362 163 0
310 -225 0
139 -183 0
-427 -88 0
-316 254 0
-363 -16 0
-288 -504 0
-331 -61 0
77 55 0
491 -5 0
-202 539 0
-341 -265 0
-140 -200 0
16 336 0
-504 -341 0
205 238 0
279 -34 0
-289 357 0
209 -135 0
-80 254 0
-449 -166 0
-213 -80 0
-286 339 0
-478 257 0
527 -6 0
280 -369 0
56 357 0
-465 205 0
-392 -361 0
-215 -262 0
20 -196 0
-320 11 0
-197 302 0
231 -268 0
465 35 0
-456 239 0
239 536 0
-193 -124 0
343 522 0
-170 -82 0
-498 -215 0
487 123 0
327 500 0
-451 -348 0
509 64 0
-217 -217 0
-35 538 0
222 -215 0
-474 -254 0
166 -499 0
481 525 0
334 -235 0
-274 -189 0
231 -224 0
-222 494 0
-348 -499 0
242 -364 0
325 273 0
190 -327 0
185 -500 0
-490 533 0
44 -289 0
129 -68 0
57 -119 0
-535 314 0
469 -161 0
-117 351 0
90 -119 0
351 -488 0
455 -408 0
-116 -339 0
-421 152 0
-452 -168 0
199 73 0
273 -472 0
537 273 0
434 -85 0
-180 451 0
-182 484 0
-206 -534 0
-459 417 0
39 -311 0
-204 393 0
-86 -427 0
171 -286 0
523 128 0
374 384 0
-231 71 0
395 -56 0
30 -456 0
33 -186 0
-151 -168 0
191 -121 0
-288 40 0
-192 227 0
549 -2 0
-260 -475 0
92 -150 0
-467 47 0
254 -170 0
214 141 0
357 -60 0
-49 -116 0
236 238 0
294 -128 0
-457 -425 0
-49 -317 0
-363 -515 0
-353 -394 0
318 8 0
-215 -429 0
-60 -420 0
-96 226 0
-168 203 0
-299 38 0
-243 19 0
-76 -423 0
128 -193 0
-274 -514 0
-464 -86 0
-470 437 0
443 14 0
-449 393 0
493 -80 0
-224 -394 0
-548 -283 0
-200 -354 0
209 406 0
-271 -405 0
418 224 0
472 -73 0
-216 541 0
530 -377 0
455 170 0
524 81 0
436 -435 0
270 117 0
-237 -531 0
-453 232 0
-296 -305 0
336 -10 0
-303 -407 0
255 -100 0
297 -217 0
-357 -2 0
479 141 0
-441 528 0
-428 -476 0
501 236 0
-134 523 0
-442 -362 0
-296 548 0
38 546 0
-189 -28 0
141 527 0
-456 129 0
446 -187 0
28 84 0
-517 -158 0
-130 -274 0
533 385 0
-296 321 0
-419 175 0
41 -504 0
520 327 0
-28 -278 0
-344 -336 0
226 142 0
442 -279 0
183 -252 0
-217 -174 0
400 283 0
-489 393 0
510 278 0
-475 -371 0
248 -453 0
411 -531 0
-502 321 0
137 -396 0
-154 483 0
-24 -459 0
60 -187 0
61 -200 0
325 -153 0
-467 -95 0
155 157 0
-43 -371 0
-457 -220 0
-86 -325 0
312 52 0
-486 -372 0
331 -246 0
-350 493 0
133 93 0
282 167 0
-382 268 0
311 248 0
-144 -444 0
96 15 0
-51 352 0
-501 227 0
81 439 0
-36 382 0
265 178 0
314 -205 0
385 121 0
147 -91 0
-391 -401 0
-276 244 0
-125 -239 0
131 142 0
304 -142 0
454 -2 0
-113 -300 0
237 -261 0
-32 479 0
-309 -427 0
-466 -89 0
-457 -292 0
-18 -432 0
-424 473 0
204 -317 0
-550 22 0
223 25 0
374 -331 0
367 -181 0
-435 -433 0
-63 -330 0
267 -103 0
-522 64 0
-260 -216 0
120 530 0
-519 294 0
-404 342 0
-219 334 0
526 -404 0
-137 -390 0
-502 289 0
-550 109 0
-548 -509 0
-363 239 0
54 94 0
220 536 0
36 -42 0
456 -394 0
-289 334 0
203 -470 0
-186 -238 0
40 -348 0
57 -496 0
59 242 0
-247 188 0
-547 58 0
-290 523 0
-215 -309 0
-356 164 0
61 -473 0
298 544 0
25 227 0
342 112 0
205 185 0
-440 162 0
35 409 0
485 -141 0
146 523 0
62 -240 0
543 -490 0
-119 49 0
55 319 0
-186 112 0
-348 -203 0
-44 -482 0
49 137 0
-12 215 0
175 205 0
314 -388 0
84 -307 0
291 19 0
-41 53 0
26 -255 0
275 -215 0
-105 185 0
107 -291 0
-457 -154 0
-439 -89 0
209 184 0
382 352 0
127 -198 0
-414 526 0
326 178 0
240 357 0
117 39 0
287 536 0
-97 246 0
511 318 0
266 178 0
425 392 0
-170 353 0
7 415 0
214 -400 0
89 -233 0
541 -361 0
-518 -88 0
-487 147 0
-70 137 0
-369 402 0
-213 -50 0
470 283 0
-97 507 0
185 -355 0
-278 -184 0
-526 399 0
-290 61 0
65 -105 0
374 202 0
-293 -59 0
-479 -346 0
538 -464 0
-22 281 0
-215 546 0
525 447 0
347 -310 0
-478 100 0
257 262 0
-63 -193 0
255 -28 0
11 -547 0
-267 459 0
57 289 0
-212 38 0
544 -55 0
-36 55 0
68 -331 0
-189 -481 0
216 150 0
-432 -200 0
-152 -251 0
-380 -508 0
407 321 0
190 -63 0
-45 -467 0
-292 513 0
-60 -261 0
202 -67 0
11 -396 0
-507 -384 0
144 -322 0
-516 327 0
-437 -223 0
-317 440 0
-515 -210 0
-441 299 0
230 415 0
-105 483 0
-102 -157 0
-497 451 0
-362 -6 0
287 307 0
-345 490 0
297 -265 0
-186 289 0
-45 -534 0
116 312 0
275 149 0
-2 -55 0
409 -13 0
343 -316 0
-169 395 0
-476 -157 0
139 -105 0
484 -529 0
-178 265 0
-396 -532 0
-152 -96 0
-222 226 0
-189 -252 0
407 243 0
183 291 0
443 528 0
72 -40 0
362 287 0
258 191 0
-67 -493 0
-10 -118 0
125 -309 0
-509 494 0
-34 75 0
-64 -543 0
-487 -165 0
-396 -116 0
31 436 0
331 114 0
-420 431 0
133 124 0
-211 -149 0
181 -427 0
541 219 0
442 -524 0
204 -103 0
-410 -235 0
-60 -510 0
-348 -467 0
-454 206 0
178 502 0
-193 -95 0
91 322 0
283 314 0
-438 462 0
-371 499 0
130 -112 0
-311 293 0
388 88 0
-235 -214 0
-302 88 0
-337 64 0
-548 -432 0
-49 113 0
-402 -16 0
-152 -390 0
-5 386 0
397 313 0
-474 509 0
-503 -132 0
-243 -34 0
507 -392 0
-114 149 0
-324 460 0
-313 20 0
-33 445 0
446 256 0
290 329 0
511 -222 0
256 285 0
-41 -16 0
21 431 0
85 -380 0
-60 -41 0
311 -438 0
81 -176 0
-410 -115 0
-311 -337 0
-482 54 0
-81 -231 0
-212 -387 0
418 -29 0
462 146 0
208 -22 0
-122 -37 0
-320 -229 0
14 -80 0
-475 -274 0
421 425 0
-140 340 0
-259 -76 0
-525 -474 0
330 -278 0
374 300 0
-50 396 0
400 85 0
130 494 0
525 228 0
12 494 0
-91 -306 0
120 -113 0
412 -357 0
-438 329 0
304 -367 0
-29 -248 0
294 -444 0
448 538 0
-508 454 0
496 231 0
-456 343 0
-163 -170 0
190 385 0
543 79 0
-198 451 0
284 -535 0
4 -350 0
424 -214 0
30 -93 0
241 237 0
-464 -479 0
141 63 0
294 -73 0
-200 107 0
537 -286 0
280 106 0
429 -331 0
15 14 0
-159 539 0
220 483 0
-97 -191 0
-373 -56 0
367 -185 0
-5 78 0
-511 72 0
260 -371 0
-101 -501 0
-328 327 0
-427 263 0
199 -383 0
-258 -77 0
-430 478 0
158 -492 0
-482 -411 0
259 -477 0
-212 38 0
270 -90 0
-141 -381 0
-6 -429 0
-438 474 0
-42 216 0
-338 143 0
-547 -503 0
-279 -288 0
259 363 0
56 -97 0
-252 146 0
351 323 0
158 -373 0
422 450 0
-403 -282 0
-357 515 0
-433 489 0
334 58 0
109 306 0
513 491 0
523 -420 0
259 155 0
-95 -297 0
-247 477 0
-349 208 0
-216 -536 0
-203 250 0
-6 -195 0
-412 -404 0
-171 38 0
509 -203 0
-128 400 0
318 -44 0
53 -93 0
-541 402 0
-371 81 0
230 -108 0
469 -223 0
208 419 0
207 -364 0
-151 463 0
-338 -463 0
-78 464 0
-222 1 0
-519 -231 0
-37 -336 0
550 -396 0
-273 58 0
39 357 0
259 49 0
-222 -43 0
394 58 0
-477 -401 0
-525 -454 0
-142 399 0
-105 395 0
-91 -341 0
-59 21 0
140 -161 0
20 -523 0
-48 -386 0
39 90 0
103 57 0
210 238 0
509 -78 0
447 -477 0
-277 171 0
209 -160 0
236 253 0
-50 319 0
-474 -403 0
40 -338 0
340 -202 0
-519 275 0
446 -232 0
255 350 0
35 -435 0
282 219 0
-204 -516 0
-101 210 0
339 -318 0
-347 -144 0
128 465 0
-427 450 0
422 -121 0
-383 424 0
-427 -479 0
-176 -532 0
276 133 0
-183 239 0
289 -363 0
343 188 0
248 283 0
107 133 0
295 -256 0
541 -186 0
51 -184 0
-258 -184 0
214 77 0
361 -498 0
-281 -78 0
-419 -461 0
302 -482 0
332 212 0
-182 -369 0
64 -26 0
-290 44 0
509 -458 0
-296 -476 0
-480 -160 0
92 -206 0
284 -299 0
-193 -252 0
455 -404 0
-488 -339 0
57 -257 0
442 -56 0
496 -57 0
351 -125 0
117 -170 0
-10 254 0
329 139 0
220 -256 0
-197 -232 0
22 -197 0
-164 -392 0
340 -235 0
-523 386 0
57 -376 0
481 -34 0
329 -504 0
351 147 0
185 -161 0
-204 -213 0
56 -379 0
-314 -488 0
-160 -364 0
-472 -110 0
238 -524 0
354 287 0
-166 294 0
-138 -500 0
-211 445 0
347 -77 0
-44 -140 0
-520 -152 0
-57 -276 0
-371 130 0
378 -101 0
546 144 0
434 -391 0
512 61 0
-63 -396 0
-121 350 0
355 -404 0
-385 340 0
431 283 0
-534 -282 0
-86 377 0
262 319 0
422 319 0
429 143 0
213 220 0
404 440 0
431 -69 0
-548 -218 0
-59 258 0
28 355 0
509 -127 0
311 -168 0
59 440 0
57 -469 0
411 283 0
431 -310 0
-412 423 0
509 -515 0
-121 -38 0
305 -504 0
493 -191 0
62 -148 0
-7 535 0
-69 -135 0
-77 112 0
-353 -233 0
-381 -69 0
2 -517 0
-29 -536 0
-213 251 0
-73 290 0
-63 380 0
-500 -145 0
78 259 0
-169 -362 0
-21 107 0
115 -67 0
-492 534 0
414 -244 0
-110 -45 0
-368 -532 0
4 337 0
-365 -78 0
-390 -28 0
79 -123 0
248 -495 0
209 123 0
458 227 0
-173 -100 0
-32 241 0
406 149 0
-119 -226 0
72 523 0
-66 -73 0
-49 -430 0
335 210 0
-69 -99 0
-350 469 0
-122 -63 0
241 205 0
188 405 0
480 -393 0
234 182 0
24 295 0
-393 -524 0
129 107 0
-408 -524 0
-82 -305 0
351 -168 0
447 -103 0
-121 325 0
-298 -374 0
432 395 0
-534 323 0
-545 62 0
370 -370 0
-42 462 0
-513 202 0
185 -180 0
-393 -516 0
-536 322 0
-203 39 0
206 494 0
279 -384 0
96 -212 0
-127 323 0
277 -310 0
538 -337 0
-298 137 0
179 511 0
491 236 0
69 -276 0
131 103 0
-451 -545 0
3 431 0
-154 -530 0
-62 -524 0
-231 -290 0
163 353 0
-521 145 0
490 471 0
-166 456 0
-186 351 0
-311 -196 0
266 -69 0
-27 533 0
287 254 0
-368 178 0
-67 327 0
546 538 0
326 -378 0
-141 -28 0
-383 -187 0
279 -439 0
-127 -30 0
319 -470 0
-472 -281 0
124 -42 0
-476 92 0
-88 534 0
199 -42 0
200 -316 0
14 -291 0
98 -44 0
83 290 0
-506 478 0
-82 465 0
298 513 0
-465 -226 0
494 -236 0
476 -456 0
42 -525 0
-138 471 0
-279 -114 0
-330 403 0
242 -215 0
-272 -489 0
-525 461 0
29 544 0
-543 483 0
-383 208 0
218 368 0
65 -304 0
-507 68 0
179 416 0
-187 8 0
-66 -540 0
-326 120 0
417 510 0
-530 260 0
19 -447 0
-84 208 0
402 167 0
295 -270 0
-217 115 0
326 -150 0
-253 321 0
-54 -438 0
496 -243 0
257 -261 0
200 414 0
388 -373 0
180 -249 0
-36 43 0
-252 -516 0
343 -431 0
498 -368 0
-180 -501 0
402 65 0
40 62 0
-514 -279 0
61 296 0
-372 292 0
-288 -340 0
-265 423 0
480 -296 0
150 -20 0
-119 361 0
-455 -222 0
-486 1 0
-486 457 0
-10 -504 0
207 474 0
529 -55 0
343 -36 0
287 381 0
46 30 0
145 -479 0
-530 149 0
-537 312 0
-218 15 0
375 -37 0
-546 -453 0
376 -466 0
-524 170 0
-338 227 0
-33 318 0
496 -180 0
-127 418 0
-89 142 0
161 385 0
-36 -331 0
92 -529 0
443 411 0
-302 213 0
107 95 0
288 -394 0
-452 206 0
-288 455 0
182 347 0
-356 294 0
-257 541 0
-369 90 0
253 148 0
-531 11 0
-429 -133 0
339 91 0
-351 432 0
-476 -11 0
-217 48 0
-99 509 0
-435 -497 0
133 158 0
-10 -500 0
-524 57 0
49 74 0
-229 104 0
49 549 0
-28 170 0
-276 -59 0
-441 51 0
75 -170 0
108 52 0
292 448 0
-493 113 0
-261 43 0
35 194 0
87 289 0
-108 -67 0
-400 423 0
-258 424 0
-107 -36 0
128 17 0
66 81 0
283 477 0
-119 84 0
241 428 0
117 -76 0
201 -373 0
-216 248 0
504 446 0
321 109 0
-436 332 0
-504 58 0
399 -280 0
-392 -39 0
-446 -110 0
421 -24 0
-329 -47 0
87 14 0
546 -230 0
-365 51 0
153 -91 0
451 101 0
390 66 0
-542 352 0
-204 495 0
-277 221 0
487 455 0
-326 323 0
-13 -61 0
122 133 0
-215 -138 0
-387 107 0
-201 -121 0
210 -164 0
-372 -142 0
-166 -91 0
-24 -247 0
312 -327 0
-175 -413 0
-410 -187 0
163 -125 0
255 -91 0
-542 327 0
-542 -366 0
344 -280 0
11 178 0
463 167 0
449 -492 0
-25 -441 0
-498 -298 0
356 -453 0
510 -226 0
-125 -229 0
120 -45 0
185 513 0
56 -217 0
451 353 0
514 407 0
-186 30 0
321 382 0
203 -298 0
-51 -507 0
331 -111 0
-466 507 0
-464 -445 0
41 423 0
550 473 0
533 15 0
265 434 0
57 -102 0
276 114 0
-277 218 0
210 524 0
293 253 0
461 281 0
14 6 0
107 11 0
-163 295 0
72 -341 0
422 -366 0
-305 302 0
-59 -323 0
451 498 0
286 -324 0
256 -455 0
-386 -497 0
-530 38 0
-5 463 0
539 223 0
398 -200 0
257 233 0
-169 -228 0
75 57 0
-459 104 0
-493 -322 0
350 -403 0
192 -8 0
-366 -307 0
-95 -285 0
-377 -344 0
-195 335 0
234 -302 0
-82 -390 0
47 228 0
510 -377 0
334 -84 0
-365 11 0
414 297 0
-327 199 0
-464 284 0
-245 -504 0
351 -97 0
-524 -221 0
424 -78 0
206 450 0
20 43 0
-330 -86 0
-120 -505 0
-543 506 0
-485 375 0
199 333 0
-403 -1 0
191 -305 0
147 158 0
-45 -424 0
293 -465 0
257 -341 0
-352 206 0
-13 40 0
75 59 0
-507 160 0
-204 257 0
-262 320 0
452 481 0
257 491 0
-474 316 0
337 447 0
-547 98 0
-140 518 0
356 155 0
98 -358 0
-287 -305 0
-362 -4 0
-153 263 0
231 -169 0
-494 270 0
467 442 0
-413 -166 0
-470 72 0
483 -3 0
293 414 0
443 -345 0
-199 194 0
-29 -372 0
131 79 0
359 -180 0
501 220 0
535 -361 0
109 300 0
539 205 0
-96 33 0
-141 -470 0
526 -478 0
-320 237 0
-384 -60 0
-135 -452 0
-195 485 0
253 481 0
414 -169 0
115 71 0
-71 -333 0
-140 -247 0
462 -111 0
-321 361 0
-93 12 0
299 -164 0
174 -215 0
-426 423 0
-483 79 0
234 -320 0
-263 98 0
-444 -488 0
415 187 0
327 119 0
-377 -370 0
25 141 0
-535 291 0
274 -349 0
4 413 0
104 -170 0
340 -348 0
72 360 0
33 538 0
156 187 0
433 -392 0
303 -302 0
417 297 0
227 -312 0
-390 -238 0
-233 257 0
-368 -103 0
403 -121 0
-198 -246 0
542 -63 0
549 -121 0
-46 -68 0
74 -45 0
-427 6 0
-103 119 0
137 207 0
28 -492 0
-356 321 0
187 293 0
-45 267 0
196 -35 0
395 459 0
538 -459 0
520 229 0
535 190 0
-76 -388 0
385 283 0
-547 -139 0
511 -404 0
202 471 0
-393 292 0
427 -252 0
76 -505 0
322 44 0
304 -251 0
-155 -370 0
-398 450 0
-81 478 0
-115 239 0
81 17 0
-135 -454 0
329 -6 0
120 -488 0
512 469 0
60 -99 0
388 -191 0
-381 -115 0
443 -205 0
380 72 0
-108 273 0
-457 -522 0
-515 400 0
15 -250 0
335 142 0
-525 -320 0
428 182 0
-378 238 0
526 -404 0
75 144 0
117 473 0
-184 -298 0
349 156 0
132 407 0
-224 -441 0
150 -532 0
-359 -549 0
390 81 0
415 135 0
-364 -326 0
-541 149 0
-271 225 0
-76 409 0
-193 402 0
-452 -465 0
125 -13 0
-77 -42 0
-514 -201 0
-267 477 0
-38 -42 0
230 -525 0
386 250 0
-109 -348 0
-544 -286 0
-76 -69 0
-125 485 0
208 -251 0
330 138 0
-435 -371 0
-168 -233 0
217 -187 0
19 183 0
237 91 0
-419 -308 0
-12 427 0
-91 254 0
16 434 0
385 427 0
431 436 0
199 -296 0
-288 218 0
81 -480 0
-497 285 0
-27 247 0
462 131 0
526 -74 0
527 -547 0
221 -359 0
113 134 0
-215 -526 0
-30 46 0
-179 147 0
155 211 0
-524 -504 0
363 270 0
321 -368 0
367 -433 0
306 -527 0
-286 145 0
-69 82 0
-37 375 0
352 443 0
-114 389 0
206 -121 0
2 395 0
318 -86 0
-434 -516 0
114 -371 0
64 465 0
144 -182 0
-193 239 0
446 189 0
-62 527 0
432 425 0
473 431 0
-291 107 0
46 -86 0
541 -191 0
285 -103 0
251 207 0
106 533 0
-453 -43 0
223 -272 0
389 41 0
-50 230 0
437 242 0
103 206 0
79 -423 0
241 -55 0
-465 237 0
-379 -165 0
248 -233 0
-132 -483 0
-27 -321 0
-439 418 0
294 297 0
425 -461 0
462 389 0
-467 515 0
-260 506 0
-470 -189 0
334 -178 0
-261 -132 0
445 196 0
-24 -380 0
361 38 0
1 468 0
-96 447 0
-279 -209 0
239 533 0
339 38 0
-233 17 0
549 102 0
291 523 0
415 -363 0
40 -324 0
15 104 0
327 541 0
530 15 0
-369 168 0
-42 -59 0
23 253 0
-531 -330 0
498 329 0
237 -207 0
62 206 0
-200 445 0
-37 -397 0
-496 542 0
197 -499 0
-347 -461 0
-140 494 0
520 183 0
-186 276 0
-127 -63 0
-223 -95 0
-93 366 0
109 418 0
351 -10 0
-90 -459 0
-476 20 0
234 -383 0
256 228 0
-191 -412 0
137 -252 0
-159 -457 0
354 -181 0
-88 291 0
