c NF
p cnf 1202 5409
492 855 0
-751 85 0
-28 -131 0
-394 116 0
-1177 -849 0
-1171 235 0
164 -303 0
-668 -844 0
-401 1072 0
-1131 -1021 0
1052 362 0
-122 647 0
683 1161 0
-107 -330 0
179 705 0
1070 674 0
751 354 0
966 -245 0
-414 1113 0
173 1096 0
-667 82 0
-546 -83 0
421 587 0
643 1054 0
-702 -445 0
667 -775 0
-463 -655 0
170 252 0
661 454 0
-372 -764 0
-838 -559 0
-393 -37 0
688 -1042 0
806 -94 0
792 622 0
1124 -258 0
-38 -74 0
1180 20 0
426 929 0
-1178 -470 0
-1001 401 0
-15 573 0
-487 -1035 0
-749 1132 0
-109 -488 0
-123 156 0
-266 -737 0
744 1132 0
993 -813 0
905 1127 0
-751 -1111 0
878 390 0
771 -1096 0
190 -485 0
533 672 0
1130 -1049 0
1162 -1001 0
142 -485 0
-793 -521 0
274 -1085 0
-22 766 0
315 -872 0
1070 -781 0
222 390 0
917 -390 0
-993 390 0
-921 997 0
419 -535 0
81 -106 0
930 952 0
964 -1011 0
192 1065 0
496 62 0
-454 983 0
217 -815 0
-533 -733 0
-63 -618 0
257 -1055 0
-769 268 0
422 -521 0
-561 -761 0
177 -430 0
179 167 0
85 -1178 0
694 770 0
542 126 0
-63 -1036 0
1116 187 0
-980 190 0
888 -569 0
-496 511 0
606 -123 0
215 -568 0
-84 -935 0
651 88 0
1121 -1170 0
-359 -271 0
443 523 0
717 -236 0
-422 -1194 0
-900 -241 0
483 182 0
225 1124 0
-900 -266 0
206 1093 0
-261 942 0
1106 -307 0
-408 12 0
445 -1106 0
-1025 282 0
-778 -811 0
-1122 1197 0
-265 -753 0
35 -954 0
489 -584 0
-63 921 0
469 -981 0
-709 655 0
-854 -849 0
-597 -327 0
-409 182 0
864 -794 0
-975 378 0
-194 -763 0
357 684 0
-1046 139 0
429 240 0
-1184 -432 0
-526 -422 0
582 375 0
-431 -898 0
-902 769 0
-103 -924 0
-50 -329 0
-657 462 0
-853 144 0
-1057 -550 0
1023 1133 0
854 -1054 0
384 -222 0
-323 -516 0
-426 -463 0
-665 -418 0
-1186 -707 0
751 -188 0
-625 248 0
1026 -31 0
568 -463 0
891 -1144 0
26 -437 0
-800 -171 0
288 -1169 0
-634 252 0
962 -285 0
-13 -312 0
1078 -141 0
203 453 0
-784 809 0
-1001 -223 0
1161 -1143 0
-462 551 0
-40 -35 0
1056 -1200 0
-244 -15 0
-316 -122 0
-913 -309 0
731 -915 0
-737 745 0
-776 546 0
-300 -481 0
-362 674 0
-859 -493 0
-546 623 0
246 -171 0
-788 -104 0
248 -218 0
149 -386 0
1072 -80 0
1082 1122 0
-900 -546 0
-708 220 0
-747 170 0
447 430 0
-1179 351 0
1042 563 0
-1176 671 0
-482 -535 0
609 666 0
238 263 0
-381 -13 0
58 -902 0
-1001 128 0
997 289 0
-943 -264 0
-516 77 0
405 -285 0
-1021 156 0
374 199 0
1000 633 0
560 396 0
165 -166 0
905 -913 0
-616 191 0
1149 -114 0
177 -791 0
-1102 -84 0
197 1099 0
-414 -1100 0
751 914 0
507 -58 0
1190 558 0
1059 -200 0
129 896 0
-271 236 0
-575 -357 0
967 1155 0
-1193 172 0
-772 751 0
1128 -249 0
-1068 -695 0
651 504 0
1174 -319 0
868 441 0
-569 293 0
-125 -781 0
301 -329 0
303 -1007 0
-272 705 0
-1054 -871 0
293 -311 0
-412 -932 0
233 645 0
-497 766 0
1152 1048 0
-894 956 0
267 230 0
195 1035 0
318 -840 0
-197 983 0
-1176 -952 0
832 654 0
-641 -1125 0
-137 -829 0
-332 -335 0
37 1180 0
1092 247 0
-1011 928 0
393 889 0
-866 -1094 0
-768 745 0
888 -145 0
532 290 0
1172 -770 0
-194 -317 0
-702 395 0
353 666 0
830 -462 0
-183 -58 0
643 713 0
-1143 125 0
-903 -169 0
-416 -621 0
397 762 0
1012 -190 0
912 1114 0
568 144 0
539 -44 0
609 -416 0
-244 -114 0
-434 -196 0
-838 833 0
-952 -524 0
1110 451 0
-492 146 0
-130 318 0
-76 -1076 0
10 -559 0
-731 501 0
1131 749 0
-613 -438 0
563 -1192 0
378 736 0
684 -1144 0
582 -1137 0
-1078 335 0
239 643 0
757 -685 0
-1166 27 0
1130 -351 0
361 169 0
-945 -791 0
7 -238 0
-192 1133 0
-229 1017 0
1041 252 0
-995 947 0
-156 -22 0
-126 -1087 0
-633 659 0
-842 837 0
-14 -435 0
456 437 0
-562 -532 0
585 -269 0
-102 753 0
784 620 0
1 -136 0
-63 1066 0
-262 952 0
-1084 -709 0
-104 1044 0
-435 213 0
219 414 0
-650 271 0
445 31 0
-675 387 0
792 643 0
190 202 0
3 -173 0
934 907 0
492 -762 0
-592 930 0
-467 965 0
1147 -950 0
-1054 528 0
404 658 0
-300 611 0
600 -761 0
-844 35 0
-771 -812 0
-303 389 0
-675 -1138 0
817 -81 0
634 -711 0
577 516 0
-372 -61 0
-1157 -978 0
-600 -48 0
1128 -595 0
454 1152 0
-680 820 0
-1095 -360 0
-894 -477 0
-403 297 0
772 -825 0
-1036 624 0
-687 672 0
-450 953 0
-21 738 0
150 -272 0
-304 339 0
89 -4 0
-464 -813 0
259 -492 0
-545 -1064 0
743 254 0
-1139 -238 0
884 -308 0
-1084 -410 0
-1179 573 0
-777 447 0
26 33 0
-1166 -526 0
-209 -972 0
279 978 0
-466 -96 0
-640 1170 0
-506 336 0
-777 -498 0
-1069 701 0
1050 -580 0
-40 -1053 0
1092 433 0
-530 1176 0
747 88 0
1117 -369 0
-1154 -320 0
375 1031 0
-41 -903 0
1122 587 0
147 1112 0
-813 273 0
-715 547 0
-961 321 0
737 -1098 0
199 -571 0
-200 1192 0
-348 -348 0
300 179 0
-46 -988 0
-15 -192 0
-415 -542 0
-679 -547 0
253 -319 0
261 -779 0
-925 626 0
-1056 -736 0
-792 121 0
-132 -1038 0
-913 680 0
917 566 0
291 1159 0
-915 893 0
-1193 -207 0
-222 -82 0
908 -573 0
-1128 -544 0
455 -360 0
-1071 800 0
430 -562 0
518 -255 0
-830 59 0
-607 -762 0
-941 343 0
860 -985 0
-641 75 0
800 -270 0
1010 -1142 0
80 299 0
-1035 -964 0
-1127 -107 0
81 608 0
686 -24 0
450 547 0
221 809 0
-97 134 0
-493 -687 0
551 448 0
-591 -854 0
-17 -497 0
-535 505 0
1075 889 0
-210 -302 0
-768 660 0
182 790 0
339 20 0
-740 430 0
-730 -295 0
-701 -1007 0
1091 954 0
-56 249 0
-535 -844 0
-543 353 0
-694 -1019 0
-238 -46 0
949 -122 0
-446 -877 0
-498 -477 0
-763 -433 0
261 875 0
647 -432 0
1017 364 0
-782 221 0
634 742 0
-1004 67 0
73 320 0
423 -262 0
215 -923 0
1199 1021 0
77 85 0
699 -784 0
-205 -704 0
672 62 0
-497 614 0
-262 -392 0
978 103 0
568 -25 0
-300 -844 0
-467 124 0
184 -808 0
-789 1133 0
-338 261 0
536 -413 0
817 -725 0
-1123 -817 0
830 441 0
178 -1171 0
934 9 0
-703 1096 0
824 781 0
475 -530 0
486 -26 0
356 -1187 0
-188 -278 0
-654 -130 0
42 689 0
833 162 0
505 -1049 0
875 -1016 0
1148 1136 0
126 545 0
284 -869 0
-551 -867 0
742 -895 0
779 9 0
235 587 0
-1180 525 0
-1132 912 0
-732 164 0
665 -722 0
-919 -209 0
983 -782 0
-726 204 0
840 597 0
-223 -1074 0
-951 215 0
684 -963 0
-603 -1105 0
1128 217 0
-1023 -1072 0
-1188 -530 0
805 -553 0
-160 -967 0
-1157 1128 0
-1040 -440 0
-1139 -1015 0
1132 -373 0
698 186 0
832 145 0
915 204 0
301 -708 0
-877 6 0
1105 401 0
146 845 0
750 123 0
540 644 0
226 -651 0
-924 773 0
-735 253 0
294 1197 0
1132 243 0
-653 -161 0
-1091 -1130 0
-318 483 0
-392 -1044 0
999 117 0
764 -526 0
1032 1013 0
543 1183 0
-1192 -998 0
-266 574 0
-392 -114 0
-333 -359 0
468 -465 0
-572 -92 0
445 -630 0
-863 -198 0
-908 -948 0
861 941 0
1056 -421 0
-1182 -278 0
-64 -207 0
237 556 0
-625 -1028 0
-774 916 0
1169 -1002 0
959 214 0
-489 -1000 0
991 -78 0
109 -748 0
787 268 0
1062 -591 0
1101 -473 0
-266 -327 0
-648 554 0
892 -638 0
149 -481 0
274 109 0
-1137 -955 0
-5 968 0
456 -176 0
-288 639 0
-176 -1024 0
-360 -580 0
-45 -741 0
-1074 -79 0
-798 -8 0
556 1093 0
-229 -257 0
70 77 0
489 -8 0
-777 -1201 0
1088 -1056 0
684 617 0
939 -1014 0
-475 -979 0
-1055 307 0
-279 -1104 0
928 -845 0
-443 142 0
-488 -610 0
-966 488 0
-397 410 0
-51 -795 0
523 -488 0
-96 587 0
125 -1156 0
1154 -1195 0
-882 1024 0
433 -107 0
-904 954 0
821 -201 0
-112 6 0
-279 331 0
315 -797 0
983 278 0
857 984 0
1066 878 0
-725 472 0
378 -583 0
-64 860 0
294 654 0
-383 -1142 0
-269 -570 0
-63 146 0
-536 -812 0
833 -180 0
-366 97 0
-307 -969 0
478 237 0
-303 487 0
584 -658 0
967 497 0
362 -329 0
-583 -936 0
1095 -1200 0
109 820 0
-207 984 0
-154 -408 0
69 -797 0
1132 -293 0
313 752 0
-872 1113 0
-158 -752 0
-273 55 0
-964 215 0
455 -701 0
1074 494 0
-234 242 0
-388 445 0
-461 139 0
293 -2 0
931 -805 0
-174 783 0
138 894 0
458 94 0
-290 -126 0
75 -162 0
-344 239 0
-317 212 0
-884 420 0
82 -663 0
-7 -594 0
412 -1123 0
-914 -424 0
-316 130 0
-366 -421 0
-311 470 0
-179 -89 0
-708 1010 0
547 -158 0
-589 1169 0
-777 389 0
-216 -676 0
818 -923 0
1097 -1182 0
-1126 496 0
-711 -995 0
-1163 11 0
-10 -123 0
-488 -152 0
257 431 0
31 1099 0
248 810 0
-415 904 0
-182 249 0
-517 648 0
-56 -249 0
-193 606 0
147 -1 0
293 1142 0
447 -872 0
-1032 -69 0
-987 -547 0
-1094 -712 0
976 -350 0
-84 141 0
1156 -426 0
485 469 0
18 406 0
-477 197 0
1003 -885 0
32 -912 0
-480 684 0
-131 612 0
237 -316 0
-220 -996 0
461 -74 0
534 -470 0
-446 757 0
-281 237 0
1037 -1082 0
1141 601 0
-825 910 0
-467 1105 0
-381 -740 0
850 -979 0
-1145 -1123 0
864 -1184 0
-700 -969 0
595 -61 0
-704 927 0
-1046 -400 0
-1066 347 0
-500 -1134 0
103 -1184 0
-561 1016 0
352 320 0
890 7 0
-418 120 0
-984 720 0
321 1029 0
1078 304 0
1075 -1015 0
1103 546 0
-522 1042 0
-109 445 0
-1005 -476 0
-816 428 0
234 1190 0
717 -493 0
-206 123 0
-28 -638 0
-422 737 0
-295 -797 0
856 897 0
-1157 1033 0
-139 48 0
120 235 0
47 1063 0
805 -219 0
131 -295 0
895 -303 0
1016 -479 0
8 -19 0
-794 726 0
876 758 0
347 -881 0
369 94 0
-668 980 0
-79 1104 0
-91 671 0
1031 -191 0
117 -467 0
-608 791 0
-600 -425 0
-1187 677 0
-865 453 0
115 -577 0
-245 -1180 0
463 202 0
-136 -812 0
-662 -514 0
-709 -1021 0
-476 -761 0
261 283 0
-52 275 0
405 -494 0
358 414 0
620 -715 0
42 -853 0
321 -27 0
878 -165 0
558 -575 0
-203 -1012 0
-713 624 0
539 -431 0
239 -692 0
670 154 0
694 375 0
232 -550 0
1042 479 0
-746 759 0
132 515 0
-970 -67 0
890 -998 0
62 1087 0
890 -768 0
835 -547 0
-741 -368 0
1008 1169 0
193 486 0
-83 -292 0
44 942 0
-363 623 0
689 -947 0
431 -179 0
-90 -739 0
1135 909 0
131 -367 0
1090 1030 0
804 -1125 0
746 -1014 0
-4 628 0
684 455 0
-175 692 0
-260 -995 0
268 973 0
-991 506 0
-19 -351 0
368 -400 0
-24 69 0
393 -521 0
6 372 0
-477 -907 0
-1073 556 0
551 -224 0
1071 554 0
-106 -317 0
-410 -676 0
-413 -836 0
-28 -415 0
648 -69 0
828 -288 0
-187 -509 0
906 669 0
904 -1029 0
1143 1161 0
-315 -626 0
-848 -679 0
308 1142 0
-614 410 0
-315 1063 0
-572 -1196 0
-185 -265 0
666 259 0
284 560 0
801 1041 0
510 -1105 0
1100 -939 0
647 -686 0
-898 -119 0
261 430 0
-1158 -130 0
-173 -237 0
-529 660 0
619 237 0
-1193 970 0
-913 378 0
-38 880 0
754 898 0
884 -56 0
1199 615 0
-920 651 0
-271 -580 0
802 -1069 0
-772 906 0
184 -362 0
-741 -23 0
-1076 986 0
-64 -791 0
1108 156 0
-437 751 0
-702 389 0
715 -791 0
-869 -418 0
-692 -869 0
314 -750 0
785 72 0
-104 -948 0
1050 1184 0
-741 478 0
266 -546 0
-785 -136 0
320 -90 0
-38 -1145 0
-227 792 0
571 -674 0
-881 942 0
-733 -291 0
-526 754 0
-979 455 0
-573 -17 0
743 511 0
-210 -512 0
-466 -687 0
317 -961 0
-1022 48 0
-580 735 0
-632 38 0
1000 -130 0
-643 -359 0
230 -833 0
334 -593 0
-605 -101 0
-515 -732 0
-307 -1200 0
324 -1195 0
-266 -239 0
-777 -787 0
401 -672 0
271 -1161 0
253 294 0
237 741 0
267 408 0
-785 433 0
458 1158 0
-482 331 0
-606 144 0
-452 -606 0
-225 -1163 0
312 -133 0
-575 -696 0
494 362 0
-479 563 0
-931 -359 0
196 7 0
-269 -869 0
750 -130 0
-27 -1173 0
-690 1116 0
814 -315 0
633 -102 0
-182 188 0
648 352 0
-713 927 0
14 -152 0
-762 529 0
-1068 929 0
-1202 16 0
356 141 0
-790 -1055 0
205 -1179 0
-350 1132 0
347 624 0
1024 -34 0
-194 -691 0
885 1092 0
335 -343 0
-74 -965 0
799 -892 0
-64 -33 0
730 -207 0
-1171 -592 0
-806 -433 0
1156 239 0
-1092 799 0
982 179 0
277 883 0
-251 19 0
-682 1192 0
744 -349 0
-1149 -664 0
-310 -308 0
1140 332 0
-1013 -287 0
1196 -479 0
681 218 0
1018 174 0
831 -319 0
858 -324 0
-198 878 0
-610 -119 0
150 -1048 0
2 -322 0
722 105 0
-1 -225 0
-803 -511 0
-837 1041 0
-1176 -527 0
-41 860 0
-915 -323 0
-328 -1200 0
688 -41 0
270 223 0
-755 -407 0
1087 1122 0
-181 -307 0
699 683 0
-484 -858 0
-992 258 0
592 568 0
326 -950 0
-892 -15 0
204 -920 0
-724 13 0
453 12 0
299 643 0
-1146 147 0
-631 259 0
-102 572 0
11 -367 0
-123 -976 0
-245 -310 0
182 -881 0
-842 -588 0
100 -673 0
-1025 214 0
1088 -141 0
-246 -19 0
-1139 -685 0
-605 -175 0
-201 555 0
-432 -29 0
285 -785 0
901 -1157 0
-513 413 0
571 -148 0
1031 -373 0
-417 48 0
980 312 0
-478 -501 0
-21 48 0
-907 -886 0
950 -86 0
-837 -890 0
-180 -15 0
337 -491 0
-343 878 0
-1058 -632 0
431 449 0
-882 -855 0
763 -968 0
-497 471 0
862 804 0
-249 6 0
-848 -424 0
-1112 -798 0
1102 953 0
-221 1131 0
849 554 0
-182 889 0
1029 -821 0
643 1123 0
-477 -652 0
-832 -559 0
261 912 0
-341 -544 0
-86 934 0
-1090 48 0
-249 866 0
1002 51 0
233 789 0
-290 -247 0
669 967 0
968 -630 0
896 -43 0
885 -78 0
115 558 0
599 -309 0
-623 -476 0
-638 1024 0
-851 1054 0
-1184 1113 0
-982 -276 0
661 226 0
554 680 0
929 538 0
-509 -1059 0
-859 1132 0
1074 973 0
-400 719 0
-985 -130 0
374 -955 0
-1061 -316 0
384 579 0
304 -615 0
-95 535 0
-188 232 0
-1149 1133 0
-716 7 0
85 660 0
267 117 0
1109 -804 0
363 -98 0
-827 667 0
-609 -815 0
-467 -478 0
-1088 -83 0
967 -159 0
222 -555 0
-837 1056 0
-973 -56 0
459 979 0
-86 -618 0
631 -33 0
-605 12 0
881 -557 0
-251 -1167 0
1165 595 0
-438 -102 0
-984 -924 0
284 634 0
-1133 -782 0
6 -19 0
-416 -27 0
-553 -818 0
845 -152 0
-728 -406 0
207 -416 0
-753 482 0
-402 689 0
9 -551 0
-548 879 0
757 -6 0
802 -844 0
-965 10 0
-1108 843 0
-984 -112 0
285 -784 0
1052 -286 0
-516 -305 0
-1166 -970 0
-1178 652 0
-36 -400 0
-476 767 0
-1048 -831 0
247 1136 0
-446 -827 0
-753 836 0
-175 63 0
288 771 0
-642 -49 0
-1071 297 0
-1012 590 0
803 215 0
-1106 1028 0
-626 -725 0
743 132 0
-207 -473 0
659 44 0
-736 -646 0
510 -779 0
483 1014 0
-1071 -385 0
-4 422 0
999 511 0
227 389 0
609 16 0
708 -687 0
-958 -527 0
344 131 0
456 431 0
-499 -538 0
658 -1172 0
845 136 0
223 1199 0
-1137 1109 0
535 -382 0
-173 601 0
-951 933 0
408 463 0
766 -1192 0
-911 554 0
-546 214 0
-79 235 0
39 -935 0
879 952 0
-775 283 0
-438 -276 0
-19 -985 0
-679 -954 0
-228 -868 0
-721 823 0
-319 825 0
-926 -454 0
-173 279 0
-22 -142 0
-812 173 0
-315 542 0
362 386 0
-681 132 0
644 -210 0
1153 -884 0
485 451 0
-392 487 0
915 -770 0
-136 -782 0
134 563 0
-449 -733 0
-59 -107 0
332 -409 0
-282 -305 0
-49 -596 0
1029 103 0
-1033 1016 0
732 648 0
1035 342 0
357 200 0
-586 -1069 0
50 1134 0
-935 -887 0
-774 318 0
539 -1080 0
-287 1190 0
-13 -581 0
-417 1065 0
-762 875 0
931 -853 0
1197 -1196 0
-420 732 0
571 -902 0
-600 -21 0
946 26 0
-704 -678 0
61 -974 0
-149 705 0
1196 658 0
215 784 0
437 1056 0
-332 -203 0
829 248 0
-787 737 0
-1106 70 0
-394 928 0
-279 338 0
1189 -1021 0
598 354 0
1005 414 0
-1136 -1009 0
70 726 0
-772 799 0
-1067 -839 0
1036 -407 0
-965 62 0
-1099 613 0
591 -776 0
-394 1167 0
62 -166 0
85 873 0
-629 537 0
962 1019 0
63 -979 0
-531 1047 0
848 -618 0
-749 -286 0
983 -846 0
-348 -553 0
-1178 -505 0
53 -562 0
449 -1018 0
241 75 0
43 715 0
-201 -1164 0
-225 -589 0
880 449 0
76 851 0
-905 397 0
205 215 0
-143 -540 0
-520 229 0
302 -245 0
-1035 566 0
581 -319 0
1162 -567 0
473 292 0
264 -305 0
-811 -438 0
-1185 -895 0
-564 364 0
481 -241 0
-794 -96 0
-39 -239 0
-959 564 0
-14 93 0
953 -668 0
940 -781 0
-429 -853 0
-180 346 0
-412 -947 0
-804 517 0
819 905 0
97 993 0
115 -836 0
293 -340 0
-971 -652 0
1133 -158 0
-111 -692 0
-831 658 0
351 -885 0
2 -524 0
344 -44 0
962 684 0
-1163 -150 0
-173 938 0
-582 626 0
648 739 0
-1141 -2 0
-1099 997 0
-1005 -920 0
966 384 0
-136 408 0
-460 -666 0
323 970 0
1180 807 0
169 -158 0
807 342 0
-817 766 0
-866 766 0
217 292 0
57 771 0
1191 -486 0
-949 -1064 0
-740 750 0
43 -974 0
771 253 0
1127 1161 0
288 -161 0
-596 -939 0
209 -786 0
20 75 0
-265 -295 0
-820 378 0
-1149 -39 0
957 -948 0
-697 -681 0
57 870 0
614 -95 0
-377 -1097 0
-63 -902 0
1150 904 0
-776 217 0
-773 -361 0
510 -886 0
55 840 0
720 -754 0
-827 28 0
217 -527 0
955 -641 0
1063 912 0
-947 1099 0
-1044 928 0
-838 1057 0
-736 -143 0
-464 207 0
748 80 0
-1048 1001 0
-838 -1037 0
-1155 -248 0
962 -560 0
-834 125 0
310 -221 0
-1125 698 0
1151 1165 0
510 1095 0
684 763 0
346 -596 0
-1061 -442 0
-502 -164 0
-1171 -1151 0
-575 -1011 0
-846 -460 0
835 -711 0
-477 579 0
-520 -526 0
96 346 0
795 -814 0
-1160 -260 0
58 604 0
-632 239 0
1099 104 0
-45 404 0
-995 190 0
-903 828 0
-815 163 0
250 834 0
-528 565 0
-41 -513 0
71 -156 0
-255 -714 0
554 199 0
-442 1017 0
232 -265 0
-408 -1117 0
-413 274 0
177 -856 0
907 -1084 0
463 251 0
53 -497 0
637 -986 0
-350 406 0
-635 -853 0
1020 -333 0
209 -1038 0
-1009 485 0
-722 -111 0
-1028 -721 0
-121 1026 0
-986 1106 0
909 832 0
127 110 0
1141 -286 0
-272 694 0
-1179 -542 0
-1131 -426 0
1099 -773 0
363 -180 0
811 335 0
854 -498 0
666 875 0
-995 1049 0
-165 -467 0
-361 -399 0
890 -750 0
-1084 655 0
485 495 0
373 1005 0
-482 -575 0
618 -876 0
-524 -143 0
914 158 0
-1103 -501 0
739 -290 0
-570 -71 0
639 437 0
-166 -1079 0
-1004 -633 0
-481 1198 0
250 -361 0
774 202 0
-159 -897 0
-923 -497 0
-55 -246 0
506 -1092 0
-377 294 0
-252 556 0
655 -88 0
1024 1129 0
-791 192 0
800 -816 0
588 724 0
165 -47 0
544 -1125 0
57 418 0
-1192 546 0
-1078 -668 0
751 377 0
237 -832 0
1017 330 0
-4 823 0
619 1102 0
1188 -1032 0
994 -1061 0
288 -959 0
-1092 609 0
61 -337 0
-617 842 0
437 -381 0
329 -382 0
-877 665 0
495 -865 0
-1079 441 0
-401 994 0
568 1192 0
-206 191 0
-395 -612 0
706 622 0
69 -852 0
320 775 0
1120 874 0
-692 127 0
-797 -388 0
-1152 -1074 0
-324 346 0
-560 490 0
771 286 0
-1023 504 0
164 147 0
-161 1095 0
-1017 380 0
760 45 0
-526 1061 0
-710 -175 0
-398 -1089 0
168 536 0
1177 1049 0
-478 -28 0
-18 401 0
-1010 169 0
-1094 628 0
331 -281 0
-1173 277 0
797 934 0
-1023 -219 0
235 -247 0
-790 -487 0
466 -1136 0
381 1039 0
-390 371 0
651 1191 0
1112 81 0
52 -497 0
-419 142 0
-130 1133 0
377 1174 0
-412 -950 0
-1150 -24 0
-12 551 0
17 686 0
-971 227 0
856 -484 0
154 294 0
-435 -495 0
820 -181 0
523 1198 0
200 1063 0
754 993 0
253 950 0
-798 1023 0
-144 1080 0
-706 -433 0
566 -410 0
-1019 -353 0
845 -246 0
626 -52 0
-721 -538 0
-687 -332 0
658 248 0
1126 1102 0
108 1072 0
1151 -251 0
-487 189 0
519 -46 0
519 1138 0
-965 11 0
990 990 0
569 -1054 0
-129 671 0
-598 -837 0
510 -547 0
949 517 0
-5 -842 0
-1047 -855 0
-367 1030 0
64 -971 0
192 -815 0
-264 -812 0
-113 -844 0
336 973 0
-399 -785 0
1030 358 0
-930 86 0
-52 -165 0
760 29 0
-378 270 0
221 576 0
-899 850 0
-973 -1084 0
166 -941 0
-26 -286 0
928 1165 0
1169 -212 0
501 -1167 0
-457 453 0
496 -363 0
1093 847 0
-897 -900 0
-388 -699 0
-1092 727 0
533 -56 0
213 1176 0
139 114 0
-1001 -983 0
-868 656 0
-753 275 0
914 -311 0
856 -152 0
-116 973 0
383 -703 0
622 -722 0
-1145 1141 0
-1014 74 0
633 235 0
-331 811 0
658 565 0
-145 587 0
-217 -682 0
795 714 0
-932 -377 0
-1020 -82 0
932 -4 0
-1058 -355 0
284 153 0
-1004 745 0
-130 -341 0
-947 35 0
-731 179 0
1158 378 0
-617 -148 0
651 144 0
-645 -177 0
37 -1145 0
-374 -900 0
286 -36 0
1169 -548 0
134 -1082 0
1052 -414 0
-509 1073 0
-722 1095 0
-77 -1062 0
-934 -276 0
384 810 0
-1103 880 0
1189 651 0
620 1088 0
37 -553 0
-729 -1200 0
227 -803 0
1196 -38 0
1075 -76 0
-1104 -62 0
222 -681 0
169 -1017 0
-372 -733 0
-979 489 0
478 -752 0
1109 541 0
630 -920 0
804 444 0
-1193 -927 0
-1007 475 0
449 -712 0
-309 -309 0
661 -200 0
-211 81 0
696 -969 0
-937 360 0
-489 -733 0
776 220 0
-534 673 0
-288 -589 0
-1144 1045 0
-4 672 0
-742 -1054 0
-721 -787 0
1190 612 0
949 61 0
-868 -657 0
-706 66 0
-709 1055 0
-65 1051 0
75 735 0
1133 -185 0
55 -1026 0
-219 -37 0
-868 840 0
-900 -726 0
888 -273 0
1103 224 0
-985 -489 0
403 -2 0
319 -668 0
-834 -49 0
-22 86 0
-1058 -675 0
-1097 76 0
-943 -841 0
356 -216 0
671 -940 0
-223 -47 0
-877 19 0
-609 -1001 0
-628 235 0
-1194 -319 0
-158 -1125 0
780 -641 0
879 -1110 0
-741 -1156 0
42 832 0
1121 110 0
722 -1160 0
-318 1031 0
-836 -1111 0
-782 127 0
-626 1005 0
-989 -1054 0
-260 -971 0
179 7 0
-643 -1115 0
-370 1006 0
-275 -472 0
-27 -60 0
631 568 0
142 677 0
-342 -38 0
-118 -1081 0
-1044 -899 0
-508 -421 0
-1016 -640 0
143 959 0
-349 563 0
540 350 0
151 -921 0
-925 1140 0
1033 -302 0
824 226 0
-1094 -275 0
-1164 724 0
1132 245 0
-333 225 0
-989 -649 0
780 -380 0
292 816 0
690 568 0
-607 -932 0
-136 184 0
826 1102 0
-80 551 0
56 639 0
285 254 0
619 -803 0
1159 -428 0
818 832 0
819 228 0
1016 -642 0
-1015 1172 0
-257 -734 0
228 -99 0
-969 -618 0
861 647 0
1079 688 0
-968 456 0
-554 -209 0
336 684 0
-21 -1185 0
-22 -26 0
751 -65 0
1109 255 0
609 31 0
468 99 0
970 461 0
-541 -1202 0
78 -464 0
-1094 237 0
-295 950 0
-771 188 0
459 208 0
-1178 238 0
442 -892 0
-919 -203 0
143 202 0
336 -88 0
31 -934 0
-594 -363 0
232 882 0
243 533 0
-1196 1128 0
75 335 0
-107 -1007 0
873 -648 0
278 -685 0
792 465 0
-900 1193 0
-1143 -1144 0
-727 -1023 0
403 -887 0
335 -1132 0
717 -1156 0
999 1025 0
714 918 0
-863 447 0
-1120 -1044 0
2 1018 0
633 -608 0
-410 475 0
771 -926 0
806 -720 0
-664 692 0
310 392 0
444 357 0
126 -79 0
-170 -678 0
12 232 0
-1156 546 0
-354 -1138 0
-191 -675 0
550 -881 0
158 609 0
-470 -374 0
-987 948 0
-1167 1146 0
1117 -566 0
1129 267 0
-565 -63 0
-39 -633 0
93 -513 0
822 -513 0
-538 1045 0
-200 -794 0
-761 -644 0
666 -836 0
-637 -19 0
-878 -1076 0
835 1161 0
-610 718 0
1073 -880 0
-156 33 0
-886 403 0
-915 547 0
-518 -1129 0
-560 217 0
-183 -572 0
-13 285 0
58 -978 0
-608 -752 0
1095 675 0
1033 533 0
1001 -687 0
884 623 0
474 385 0
1 457 0
-51 135 0
938 664 0
-508 97 0
188 281 0
294 689 0
859 -559 0
959 721 0
-1139 -52 0
-660 -977 0
795 -512 0
-44 -632 0
448 -410 0
-328 -795 0
1184 -481 0
27 -407 0
861 -187 0
-827 -569 0
243 408 0
613 473 0
1054 -416 0
-812 1190 0
-1150 1066 0
670 37 0
799 848 0
1153 320 0
737 -607 0
-158 -1047 0
950 1090 0
48 -383 0
-1077 509 0
290 -463 0
-999 469 0
188 -92 0
-827 43 0
204 699 0
-728 386 0
-776 -82 0
213 -600 0
-559 -1009 0
230 850 0
405 889 0
1028 128 0
367 -598 0
748 1074 0
-495 354 0
208 -289 0
-607 745 0
305 -1087 0
-332 -266 0
-560 -588 0
-147 944 0
401 -794 0
747 648 0
-1103 -1129 0
849 1146 0
1092 1009 0
-284 344 0
1184 -1195 0
-420 -266 0
451 -330 0
-462 -470 0
188 745 0
-1014 786 0
976 -258 0
-161 -570 0
536 -386 0
-262 -996 0
1096 267 0
-1052 577 0
564 1070 0
620 257 0
419 18 0
1042 -1156 0
-671 124 0
-53 878 0
-314 1063 0
934 -207 0
284 -367 0
410 482 0
1159 1102 0
202 866 0
-775 631 0
-27 459 0
-307 -946 0
-513 -339 0
-913 887 0
17 1154 0
990 363 0
-271 368 0
-311 -553 0
-514 -526 0
72 -696 0
468 -306 0
-1101 800 0
-1155 -902 0
-1132 1088 0
852 -719 0
920 820 0
-1117 -308 0
1045 -265 0
-715 659 0
146 -912 0
-260 -667 0
820 316 0
846 948 0
-148 85 0
-366 261 0
750 591 0
80 105 0
-574 -706 0
-518 -1201 0
-899 943 0
485 -321 0
1196 -954 0
-777 -473 0
-484 -891 0
-160 -245 0
-46 -64 0
-555 449 0
-134 1099 0
-327 -1057 0
-834 -1196 0
-41 -1160 0
956 614 0
-1163 346 0
497 -370 0
-1076 -1143 0
29 -1145 0
-708 609 0
-405 -814 0
-189 -942 0
-1014 142 0
231 -413 0
-937 489 0
644 -1160 0
396 200 0
893 -1201 0
-894 -326 0
1144 17 0
-592 -731 0
-1186 -336 0
1076 914 0
-1062 84 0
789 758 0
375 -450 0
798 -367 0
818 658 0
809 880 0
-1076 -142 0
1100 -338 0
177 1140 0
-823 883 0
832 -989 0
-409 953 0
-882 126 0
-183 927 0
188 -214 0
-13 -205 0
318 619 0
741 395 0
-414 -546 0
-514 -690 0
-581 310 0
-784 1092 0
-363 -652 0
-355 604 0
347 780 0
-831 1022 0
-195 -569 0
-587 -1091 0
694 -56 0
-247 -1000 0
109 918 0
723 -676 0
-775 394 0
-695 -407 0
-859 85 0
1029 616 0
-484 298 0
1067 1066 0
349 -407 0
195 371 0
149 -861 0
755 234 0
-808 441 0
-386 746 0
585 -1160 0
-509 336 0
86 -996 0
-1164 -161 0
-306 430 0
-402 -926 0
879 -469 0
1132 -370 0
-225 -694 0
-1111 -357 0
905 77 0
227 -907 0
551 -1196 0
-616 -119 0
-596 499 0
-287 -22 0
845 -257 0
635 780 0
550 -691 0
888 -814 0
375 170 0
-965 -131 0
-635 -1168 0
-959 519 0
-64 -650 0
-446 -756 0
-1004 173 0
-729 910 0
-644 -36 0
425 1089 0
981 -452 0
-1064 -115 0
245 -1173 0
915 1 0
372 795 0
-617 -315 0
-600 -801 0
769 891 0
1062 1031 0
-102 929 0
495 -683 0
615 449 0
969 483 0
-127 50 0
-25 497 0
167 170 0
1099 31 0
956 -251 0
467 -307 0
-843 248 0
-1141 -958 0
632 -943 0
-675 -957 0
132 -664 0
-21 1150 0
-58 -843 0
-337 453 0
917 250 0
-1145 228 0
-1185 781 0
103 -41 0
-559 744 0
-956 1066 0
938 -815 0
-772 45 0
991 -476 0
115 224 0
1156 735 0
-995 490 0
-226 671 0
750 584 0
406 304 0
-1034 -434 0
354 -514 0
-651 335 0
-1087 604 0
313 -692 0
-899 1059 0
-831 -89 0
861 -1184 0
-856 -1022 0
-484 919 0
-884 -160 0
-973 -816 0
651 42 0
779 -801 0
-1164 910 0
-1074 -159 0
425 84 0
1017 -996 0
-262 1052 0
1151 -51 0
-986 -60 0
-1084 757 0
-1084 -194 0
-644 -682 0
166 661 0
345 1047 0
745 -417 0
-1036 535 0
214 656 0
-1181 -667 0
-1013 -524 0
-652 745 0
-814 570 0
-19 34 0
-22 -325 0
1131 285 0
-614 -56 0
-947 323 0
-327 140 0
1099 -442 0
556 826 0
-1186 996 0
646 34 0
643 -785 0
106 -153 0
-212 1136 0
-403 -1105 0
-403 223 0
709 461 0
268 402 0
-140 185 0
966 -884 0
-302 975 0
-634 -628 0
267 -754 0
340 -236 0
890 1042 0
-728 -174 0
922 1107 0
864 -907 0
-704 -987 0
453 813 0
-526 696 0
20 960 0
-868 228 0
-375 -183 0
-604 -181 0
-507 990 0
-1160 -569 0
-913 -947 0
-1077 -1071 0
442 -1064 0
82 -316 0
-446 -403 0
437 942 0
320 -441 0
259 910 0
1036 429 0
-602 99 0
1146 349 0
165 1131 0
-181 -890 0
1072 -1100 0
-600 455 0
-992 -846 0
-1125 485 0
-966 -56 0
-285 -977 0
-98 122 0
-369 288 0
1133 1009 0
-955 -1025 0
141 105 0
-60 -218 0
1033 -287 0
565 -1110 0
579 -1141 0
202 996 0
95 -1023 0
455 449 0
85 594 0
845 1169 0
838 -736 0
165 808 0
453 263 0
59 -685 0
93 -1099 0
-278 -1025 0
320 620 0
188 741 0
-465 -112 0
-417 -801 0
905 902 0
519 858 0
-549 -882 0
942 99 0
204 -836 0
214 455 0
-391 215 0
-366 -551 0
786 389 0
378 339 0
-618 -871 0
748 -454 0
-180 776 0
-734 -725 0
-1122 -1082 0
6 828 0
-824 -964 0
-317 -88 0
190 -705 0
214 -621 0
1102 -806 0
60 -920 0
1056 240 0
-264 878 0
210 -51 0
-280 588 0
1086 554 0
-668 -786 0
-1076 -491 0
-383 917 0
17 -242 0
-799 165 0
584 1070 0
-365 863 0
459 -621 0
365 -730 0
139 -16 0
-211 333 0
-932 -294 0
-4 1101 0
109 292 0
-292 -311 0
-863 17 0
1080 -16 0
-468 -809 0
73 -583 0
-870 -1061 0
-27 397 0
170 991 0
585 1063 0
494 -1146 0
-731 -1014 0
-418 -425 0
427 540 0
-104 -1055 0
-791 -23 0
705 -1178 0
58 -784 0
1096 1180 0
866 1099 0
337 -1113 0
-679 1097 0
684 -193 0
-1019 -327 0
723 -382 0
-189 276 0
285 -1194 0
-814 711 0
-981 817 0
147 -1029 0
-1044 -259 0
-155 -1034 0
-200 -1065 0
878 239 0
645 -1104 0
-181 700 0
375 -292 0
-487 939 0
-296 459 0
-385 -47 0
224 568 0
-625 -139 0
932 619 0
919 -802 0
-795 633 0
639 -680 0
320 -945 0
-60 -359 0
-1156 258 0
13 1162 0
7 -1197 0
92 -423 0
-211 464 0
-446 884 0
823 -111 0
893 643 0
-947 -362 0
609 849 0
-57 723 0
144 -79 0
-435 151 0
910 629 0
-45 -645 0
-605 -668 0
10 234 0
-788 717 0
953 -704 0
342 -51 0
-9 -1185 0
-317 411 0
1165 221 0
828 785 0
-721 1058 0
-412 693 0
-775 124 0
24 745 0
656 -321 0
-704 -394 0
-930 878 0
-86 228 0
-598 -206 0
441 1128 0
228 -664 0
1102 -207 0
204 1107 0
-524 -286 0
1101 -572 0
1078 -5 0
-903 235 0
-975 -423 0
-209 -237 0
-424 -577 0
924 -403 0
813 825 0
110 609 0
-754 622 0
-850 -653 0
-1179 -486 0
-377 1106 0
740 57 0
204 -1186 0
658 815 0
73 156 0
-650 -1054 0
-41 -339 0
685 -1173 0
-756 -344 0
-987 1029 0
-924 -440 0
-32 -245 0
323 441 0
835 -1139 0
-737 68 0
-892 374 0
1018 364 0
505 -1131 0
-1147 -930 0
-615 -303 0
218 -7 0
-761 -306 0
940 -801 0
-573 -203 0
1075 1142 0
-902 -101 0
377 -349 0
94 -498 0
1013 13 0
-56 409 0
-914 -140 0
312 620 0
198 -653 0
-829 633 0
999 -816 0
901 463 0
-1082 120 0
334 665 0
351 484 0
124 -395 0
42 -772 0
282 -782 0
-270 -1020 0
-645 -1018 0
1056 255 0
262 -839 0
568 -444 0
-902 1127 0
-442 334 0
572 -578 0
-576 1154 0
1089 674 0
537 -1125 0
-383 -345 0
398 826 0
-816 -445 0
891 -788 0
3 998 0
430 -325 0
507 18 0
-472 530 0
1136 -1019 0
-741 -678 0
-289 126 0
489 1013 0
454 -791 0
451 -270 0
-775 -1006 0
1041 -846 0
441 475 0
-982 1107 0
1045 -1193 0
-794 849 0
587 725 0
759 1033 0
285 -687 0
535 154 0
373 606 0
98 -488 0
-1053 586 0
-1077 1050 0
-462 -896 0
862 994 0
-209 -174 0
-382 494 0
1192 -316 0
-370 825 0
-1193 -753 0
1101 879 0
-724 575 0
1189 -358 0
1026 323 0
-1154 967 0
81 1169 0
-726 -133 0
-1022 -773 0
-589 1194 0
817 89 0
-1109 -407 0
-582 -39 0
-516 1118 0
998 299 0
-793 310 0
1128 579 0
443 281 0
565 174 0
765 -491 0
441 613 0
726 237 0
-664 -1098 0
-965 -1063 0
-448 -88 0
169 731 0
-559 -738 0
940 -247 0
700 97 0
-958 -770 0
1040 1010 0
-1181 542 0
192 -191 0
-1035 59 0
357 -901 0
1057 -702 0
517 626 0
194 -884 0
951 -830 0
-412 146 0
-827 340 0
1105 -223 0
-612 -363 0
856 -915 0
-600 309 0
226 681 0
20 -915 0
-700 503 0
287 -1004 0
-162 -282 0
-49 -629 0
-638 -1176 0
-583 -634 0
18 -628 0
-850 542 0
674 -381 0
258 335 0
887 26 0
468 -1119 0
-830 -664 0
-456 740 0
-316 73 0
990 385 0
-382 -859 0
1116 134 0
-1085 606 0
494 -157 0
-915 -916 0
75 10 0
697 82 0
-101 223 0
-330 1130 0
109 1096 0
386 -1111 0
-728 -821 0
-803 -922 0
-594 -562 0
390 -947 0
-323 -262 0
-429 -1137 0
205 -716 0
1013 489 0
-777 -640 0
1147 -224 0
-463 744 0
-724 -424 0
-127 -532 0
623 -532 0
-1022 585 0
-860 323 0
201 110 0
-133 792 0
1003 -465 0
868 197 0
-969 -531 0
-376 952 0
-964 -1179 0
873 543 0
-731 -929 0
334 543 0
-673 -496 0
1045 281 0
618 -225 0
-63 -1062 0
-1188 -274 0
190 1136 0
-713 925 0
360 368 0
-697 -662 0
954 -76 0
7 -165 0
682 -28 0
623 626 0
1181 -630 0
-849 -709 0
878 -831 0
-872 -841 0
929 -113 0
-413 220 0
893 1013 0
-956 484 0
-604 -738 0
-844 -94 0
-709 -583 0
-65 -1194 0
-141 376 0
355 -583 0
45 -878 0
-709 633 0
-14 -212 0
-44 490 0
-1195 -198 0
612 870 0
-88 224 0
-1084 -794 0
1070 -468 0
1142 -757 0
-557 -730 0
1061 727 0
-923 -189 0
321 -553 0
32 199 0
347 -460 0
424 789 0
-286 -275 0
-488 -431 0
-1141 1143 0
398 -280 0
277 409 0
463 -821 0
-902 875 0
659 398 0
-752 -77 0
910 -365 0
-1055 89 0
428 1066 0
351 520 0
-632 -169 0
720 -1120 0
-123 236 0
387 85 0
1080 -1045 0
566 691 0
215 1029 0
660 -728 0
-848 680 0
-520 -178 0
994 292 0
-616 85 0
1069 1067 0
800 -630 0
-426 952 0
160 -317 0
-876 -680 0
-480 115 0
-274 1014 0
578 -925 0
813 737 0
-54 75 0
579 1122 0
639 941 0
239 734 0
-309 -522 0
206 -732 0
-1152 81 0
-1145 285 0
602 489 0
1091 337 0
-557 1034 0
1162 -256 0
519 1077 0
-978 622 0
541 -995 0
184 -710 0
426 -516 0
-52 82 0
170 936 0
-1079 1153 0
1067 -209 0
-946 840 0
-1074 -156 0
-269 976 0
397 897 0
921 740 0
1023 -480 0
312 -206 0
177 -371 0
1092 129 0
606 1060 0
-984 228 0
1031 -563 0
28 584 0
811 1121 0
-567 142 0
-1032 792 0
-594 -727 0
-823 611 0
-238 733 0
-14 -1202 0
1031 242 0
601 315 0
463 -323 0
-90 874 0
747 -961 0
62 -897 0
268 1182 0
-721 448 0
-149 100 0
1046 -64 0
1066 1034 0
-1192 -144 0
-308 456 0
-559 230 0
-10 282 0
-44 707 0
-998 -788 0
609 -394 0
-995 39 0
288 374 0
-1193 -256 0
-420 512 0
-884 -853 0
24 1018 0
-40 1063 0
-502 -616 0
613 273 0
313 916 0
1119 -80 0
941 -305 0
-196 75 0
696 -44 0
95 691 0
1173 -394 0
262 -27 0
-223 746 0
908 -367 0
806 149 0
-733 -624 0
480 1190 0
1113 563 0
-928 -849 0
-834 -426 0
-308 449 0
973 -174 0
-553 233 0
864 254 0
684 833 0
-1179 -798 0
999 -855 0
-1027 -256 0
-688 270 0
-552 522 0
277 -407 0
134 148 0
-169 -446 0
-114 -269 0
767 -435 0
217 541 0
-628 -108 0
105 -101 0
860 -526 0
-340 374 0
519 968 0
823 -529 0
941 -1084 0
400 -113 0
269 164 0
-372 763 0
-1048 -64 0
-1100 818 0
-279 -1014 0
-361 315 0
1121 990 0
-862 167 0
-915 254 0
912 -977 0
-411 -732 0
-675 78 0
-479 1180 0
278 -163 0
-52 463 0
445 345 0
-838 271 0
288 77 0
725 823 0
35 -299 0
-1048 -904 0
586 474 0
624 698 0
-140 -783 0
-947 -1144 0
-74 1118 0
-251 1200 0
631 -82 0
453 -338 0
-430 129 0
449 220 0
956 220 0
1198 75 0
-956 -599 0
397 -139 0
-1115 1077 0
758 -91 0
423 1047 0
629 241 0
135 -572 0
374 -90 0
-594 -210 0
-1155 -257 0
272 -576 0
-480 728 0
-1116 471 0
-1047 -373 0
-1009 1063 0
-1046 -245 0
-561 -208 0
-841 472 0
-48 1169 0
-267 931 0
1043 800 0
-565 59 0
545 1158 0
36 -1009 0
163 1189 0
374 -1058 0
34 220 0
-74 390 0
-711 706 0
-920 -440 0
458 1046 0
1095 -921 0
145 -822 0
233 -939 0
-436 240 0
1172 -1049 0
-377 172 0
-101 423 0
527 339 0
-1017 936 0
505 -19 0
1026 -589 0
510 272 0
780 649 0
-806 848 0
709 -1097 0
-415 817 0
53 707 0
855 1175 0
743 589 0
369 1107 0
-1061 175 0
994 1010 0
-1000 885 0
-808 584 0
3 636 0
358 610 0
-1037 -411 0
895 507 0
1067 599 0
55 982 0
-57 -79 0
259 166 0
-696 423 0
842 789 0
-360 853 0
-1030 -955 0
-1158 -504 0
192 -675 0
-414 -218 0
-25 -124 0
-134 -388 0
-200 929 0
725 -316 0
338 -104 0
326 97 0
-82 549 0
1135 677 0
117 848 0
-618 531 0
174 1183 0
853 218 0
581 -477 0
387 -1191 0
991 -488 0
-586 -646 0
880 478 0
-543 168 0
-222 58 0
-322 991 0
-689 763 0
967 -1021 0
-1149 -107 0
635 94 0
1162 -681 0
-1076 -920 0
-460 356 0
747 828 0
221 -154 0
-912 588 0
-649 -1176 0
-621 -1130 0
177 548 0
480 712 0
835 940 0
689 99 0
-700 410 0
387 1161 0
448 692 0
427 -963 0
1002 849 0
-1115 -381 0
-418 147 0
1174 1066 0
-1077 -1056 0
282 177 0
1133 -464 0
-241 483 0
-1128 671 0
-478 -1030 0
-989 1146 0
862 479 0
-121 273 0
561 -541 0
-180 851 0
861 838 0
-928 -1194 0
755 239 0
-587 -876 0
309 -1186 0
588 659 0
396 -462 0
-690 -265 0
502 314 0
-645 293 0
16 473 0
69 -750 0
-322 1045 0
-123 -27 0
-22 242 0
96 -1145 0
-133 128 0
1072 -1089 0
1196 -96 0
-831 -413 0
654 -515 0
-309 20 0
-867 715 0
-475 224 0
-911 -847 0
358 -641 0
236 1039 0
217 453 0
-572 -421 0
-1084 -182 0
-662 62 0
407 1018 0
-1144 56 0
356 1064 0
818 973 0
-243 85 0
1121 1106 0
-1192 447 0
216 -628 0
-777 1087 0
-877 412 0
1102 -532 0
-962 129 0
345 771 0
792 196 0
744 -161 0
450 987 0
-728 -640 0
-816 604 0
-426 -603 0
1017 -385 0
-5 1054 0
948 -863 0
-567 -1013 0
887 1181 0
-731 -816 0
-963 -921 0
1180 828 0
-349 873 0
547 -390 0
449 -595 0
-672 499 0
-732 -753 0
-937 1094 0
131 231 0
913 -926 0
-932 -485 0
290 188 0
28 845 0
540 -907 0
111 -913 0
1132 -811 0
221 -872 0
543 1191 0
-301 -869 0
-2 -618 0
-434 710 0
-638 -1086 0
-583 -747 0
634 -764 0
-516 34 0
-900 102 0
-687 526 0
-971 -219 0
-855 -136 0
-814 504 0
-435 -1032 0
-4 -1032 0
-349 548 0
-1045 1143 0
-809 1069 0
-341 615 0
-104 -1012 0
-211 -886 0
518 -281 0
-416 279 0
-74 940 0
371 -222 0
-858 -181 0
363 358 0
712 638 0
-832 -1104 0
-1021 501 0
-561 1190 0
-225 622 0
-263 643 0
-1123 -703 0
37 -887 0
-925 843 0
1150 -1051 0
151 -339 0
-1105 1075 0
-770 -512 0
987 1183 0
572 -1160 0
1041 634 0
226 -993 0
-533 -355 0
792 -881 0
12 1105 0
729 453 0
1183 -152 0
805 -670 0
-971 -1114 0
574 272 0
1117 -421 0
1108 -886 0
210 364 0
-177 445 0
-573 808 0
100 -104 0
-491 -477 0
643 -960 0
-809 -584 0
-1171 -273 0
-530 -764 0
-531 151 0
392 -379 0
591 -287 0
491 115 0
-388 905 0
-1066 523 0
-532 864 0
1096 751 0
545 228 0
729 -432 0
-1160 1016 0
904 534 0
-219 -251 0
919 639 0
608 535 0
-602 777 0
1143 -591 0
-241 822 0
-253 507 0
-935 -552 0
1142 406 0
771 298 0
909 -86 0
-1103 454 0
-1095 205 0
-853 -552 0
333 -576 0
614 1132 0
-527 -812 0
352 6 0
-386 -232 0
-88 -793 0
73 642 0
1159 -352 0
1034 561 0
636 -1035 0
1043 -638 0
1197 -299 0
-224 1081 0
468 -169 0
-877 466 0
968 -494 0
-557 -473 0
-1115 1036 0
474 -1038 0
251 199 0
1063 1084 0
-541 684 0
-688 389 0
-487 -328 0
-989 801 0
-1087 -194 0
614 -414 0
347 -1068 0
611 699 0
-489 -127 0
-857 -124 0
108 1012 0
-332 444 0
633 -316 0
-237 -80 0
-839 541 0
256 729 0
24 511 0
554 635 0
-910 959 0
612 912 0
-181 72 0
-541 -1032 0
1010 323 0
-613 714 0
1161 -292 0
739 179 0
671 1156 0
-661 -982 0
330 -268 0
-1115 627 0
-145 -578 0
-1156 316 0
364 -344 0
-891 765 0
-251 -788 0
-1113 242 0
1180 540 0
-675 -580 0
180 42 0
-783 -514 0
318 942 0
-774 744 0
-541 -385 0
-102 -1128 0
199 300 0
720 78 0
342 1098 0
-1036 -1187 0
-1111 -946 0
-299 -112 0
500 624 0
-200 132 0
-1089 -114 0
349 26 0
-436 935 0
-279 72 0
-365 482 0
-781 1169 0
1047 -490 0
-443 -484 0
-923 384 0
1079 -136 0
-255 913 0
883 -311 0
-96 -1144 0
-935 710 0
-437 -859 0
1012 -498 0
1169 721 0
1053 -1025 0
-705 -108 0
337 -899 0
934 -488 0
436 53 0
-38 -846 0
-829 -866 0
323 32 0
-992 -761 0
1173 545 0
-198 -426 0
652 -74 0
-997 879 0
508 237 0
-610 -306 0
-472 1147 0
-774 -639 0
82 628 0
-730 -616 0
584 -648 0
1140 749 0
221 -1177 0
8 65 0
172 699 0
-961 -1048 0
-812 -231 0
-1149 -1076 0
-127 634 0
-947 -681 0
-450 -1144 0
-118 -583 0
870 -50 0
933 1171 0
525 -402 0
818 -470 0
864 590 0
1049 -1097 0
75 -412 0
-1201 738 0
855 1 0
878 -622 0
336 940 0
1089 836 0
165 374 0
697 -924 0
831 1172 0
1191 533 0
-1027 -580 0
526 -1053 0
891 -27 0
-196 -1150 0
972 9 0
-730 583 0
1147 362 0
388 -452 0
-210 -1084 0
-717 -965 0
312 790 0
1063 294 0
109 -636 0
893 198 0
462 -786 0
106 184 0
-915 665 0
-154 912 0
1115 -591 0
-721 -372 0
162 665 0
-884 278 0
121 618 0
-638 564 0
1098 -133 0
-524 -560 0
-414 -240 0
-421 -404 0
863 -871 0
1146 -832 0
-377 -644 0
-578 -560 0
-724 -651 0
-935 754 0
536 -667 0
-818 -604 0
-507 -200 0
-610 481 0
-793 -144 0
10 -555 0
-814 286 0
995 759 0
-23 678 0
-397 -725 0
-46 109 0
26 613 0
-39 764 0
75 1030 0
-5 1131 0
214 361 0
437 -586 0
1060 873 0
1125 710 0
462 87 0
240 -215 0
467 55 0
-99 -21 0
1081 -618 0
-443 297 0
602 1 0
-614 -516 0
-195 347 0
656 540 0
382 -206 0
-886 759 0
-443 -615 0
-123 870 0
-307 594 0
-985 -663 0
643 747 0
-618 -586 0
150 -1123 0
-361 223 0
-302 475 0
928 -276 0
-1077 185 0
586 565 0
267 145 0
84 904 0
-1111 1174 0
-840 -582 0
976 660 0
389 -985 0
455 134 0
-208 240 0
740 -1135 0
-573 746 0
-714 637 0
-332 627 0
970 999 0
944 -886 0
-65 651 0
-946 151 0
-568 1116 0
-502 415 0
783 1042 0
-1192 105 0
-368 705 0
-183 -1117 0
322 997 0
81 -1051 0
-932 181 0
-455 283 0
751 -1170 0
341 250 0
-370 -64 0
337 -923 0
118 -786 0
941 -873 0
1070 -83 0
1172 201 0
256 128 0
-434 -289 0
-544 763 0
-636 -997 0
1025 891 0
-496 142 0
-1165 -1111 0
912 625 0
-21 4 0
-1004 -789 0
197 -349 0
128 -576 0
533 622 0
-482 210 0
1028 390 0
77 8 0
-416 597 0
-711 995 0
-1129 -558 0
-582 833 0
-750 -966 0
345 -1086 0
1005 -40 0
-40 1066 0
622 554 0
-1050 -607 0
-14 -64 0
-407 -628 0
974 959 0
1006 633 0
306 330 0
-674 -761 0
374 -343 0
363 -476 0
35 536 0
-455 -54 0
228 -633 0
932 754 0
179 -994 0
1056 -383 0
154 70 0
-1061 238 0
-503 672 0
-1158 787 0
299 1174 0
-269 -848 0
-863 208 0
418 248 0
-52 320 0
459 720 0
-929 58 0
540 953 0
485 -296 0
371 688 0
-557 -64 0
-1026 1174 0
272 -663 0
968 -779 0
-938 -1023 0
-657 1189 0
249 -608 0
-385 -1158 0
1018 72 0
999 1130 0
273 -665 0
255 -154 0
-534 447 0
951 -64 0
788 846 0
-153 -857 0
757 -188 0
-732 1090 0
-155 100 0
237 391 0
-608 552 0
352 -108 0
-296 978 0
448 -554 0
-803 139 0
918 232 0
-516 -102 0
320 71 0
310 183 0
-7 918 0
330 -829 0
-696 -1078 0
213 40 0
1143 606 0
-123 688 0
-128 670 0
-418 -1182 0
-92 990 0
-203 -445 0
-728 -22 0
-333 -287 0
-851 -19 0
132 918 0
145 -621 0
203 139 0
562 232 0
-925 7 0
-373 458 0
-530 -501 0
241 1030 0
311 595 0
-479 -457 0
-1004 346 0
-79 -1126 0
-894 -1155 0
94 606 0
1052 -890 0
-443 -458 0
1197 1026 0
632 -27 0
191 611 0
-1051 -98 0
1122 -361 0
-1171 -604 0
-1154 833 0
-831 -1156 0
1001 1067 0
-906 -798 0
-538 805 0
-368 909 0
236 -391 0
597 619 0
-385 -180 0
-987 215 0
237 1084 0
-796 -120 0
-603 183 0
-361 -442 0
-273 11 0
378 1044 0
918 -802 0
942 1079 0
31 -658 0
-1 -465 0
534 -1038 0
-420 -1101 0
-365 908 0
586 -470 0
-98 241 0
-421 -546 0
-1037 907 0
32 344 0
220 1066 0
1191 699 0
1007 371 0
875 820 0
712 1101 0
-982 -161 0
-63 1128 0
-1141 -1091 0
-977 821 0
-417 -172 0
1056 -317 0
110 -655 0
-211 409 0
-525 -211 0
122 -123 0
-207 -1057 0
-1125 -937 0
890 -355 0
-280 268 0
-740 -1129 0
-37 -958 0
410 53 0
754 784 0
-124 -154 0
132 1177 0
666 695 0
-1126 -528 0
-794 161 0
-572 -794 0
-44 744 0
-773 1072 0
-83 -222 0
532 547 0
-306 -225 0
-261 637 0
-296 -1071 0
-350 -439 0
-735 548 0
310 194 0
-383 -812 0
-1104 1047 0
1069 455 0
942 -555 0
-1199 1141 0
504 565 0
-1120 928 0
608 -1137 0
-173 400 0
1125 -642 0
-950 1124 0
-1032 931 0
-488 -1062 0
-117 -871 0
195 -731 0
477 -667 0
502 -630 0
792 58 0
-481 -288 0
712 -708 0
494 -578 0
908 -333 0
461 -1039 0
946 1030 0
-1171 -773 0
9 514 0
-409 -884 0
-36 755 0
844 -594 0
-196 -1049 0
-592 1087 0
-381 302 0
-1168 498 0
-779 -993 0
-123 150 0
-1040 -636 0
-907 -867 0
-307 -645 0
339 918 0
543 -134 0
261 1171 0
1026 934 0
485 629 0
-101 -969 0
389 -708 0
69 956 0
993 -679 0
-353 647 0
-603 209 0
879 -369 0
554 1190 0
4 -65 0
523 -737 0
7 1197 0
1015 -716 0
-735 -160 0
-411 -932 0
-920 -514 0
343 159 0
-307 -341 0
-127 904 0
-943 809 0
517 821 0
81 -1173 0
749 -276 0
-961 -1027 0
93 -832 0
352 -180 0
845 933 0
457 -784 0
-1032 -733 0
980 -1011 0
357 -1134 0
1153 -190 0
-193 909 0
-836 -479 0
-216 -695 0
656 861 0
1110 304 0
-851 -796 0
574 -907 0
-367 292 0
-686 -654 0
-1005 -977 0
-1194 -278 0
1106 549 0
-393 541 0
825 168 0
-855 708 0
489 967 0
1063 -201 0
25 97 0
-858 -945 0
314 1024 0
-514 940 0
-1182 939 0
-338 -1006 0
8 -167 0
1090 518 0
1180 850 0
192 634 0
670 -61 0
397 1181 0
-255 -323 0
154 -74 0
376 -1037 0
887 1165 0
105 -774 0
-1009 -1064 0
875 -920 0
-1055 -960 0
-41 807 0
948 -295 0
-327 -664 0
460 -379 0
584 -1110 0
-1169 -513 0
1192 431 0
663 -1031 0
-764 -246 0
638 -561 0
257 -567 0
92 -871 0
539 -619 0
513 335 0
649 -38 0
520 190 0
-424 151 0
-162 665 0
471 -46 0
1037 -892 0
-74 57 0
-84 -1019 0
669 -1070 0
831 980 0
-1077 228 0
-270 445 0
-71 66 0
-597 -706 0
-616 -872 0
-487 -501 0
1183 -721 0
1153 1097 0
-123 687 0
-752 -324 0
-620 536 0
574 892 0
220 756 0
1072 1190 0
773 1153 0
-703 -702 0
-664 -1117 0
-733 485 0
-496 656 0
-1138 174 0
-318 1047 0
1028 -31 0
1068 282 0
847 1024 0
-112 -52 0
741 -1148 0
-199 -570 0
-359 -339 0
1015 623 0
-849 -309 0
411 -981 0
-1004 587 0
577 205 0
-793 -1120 0
647 622 0
914 1047 0
-853 882 0
59 485 0
-19 538 0
-915 157 0
806 905 0
233 -1151 0
-1151 -821 0
862 1082 0
-341 -542 0
-1186 906 0
-98 660 0
608 -865 0
15 -341 0
-1045 -814 0
227 -781 0
357 -795 0
-1197 213 0
-775 337 0
-152 854 0
425 -395 0
-555 919 0
445 -921 0
-1001 361 0
-814 -827 0
-1048 1164 0
-632 158 0
813 -654 0
203 908 0
105 941 0
-321 -724 0
631 -395 0
-786 819 0
695 45 0
-130 -497 0
732 836 0
-22 -550 0
-939 -372 0
-490 -774 0
798 671 0
-578 45 0
-478 -706 0
-562 -1071 0
-388 825 0
104 1153 0
-139 633 0
353 51 0
61 -808 0
371 324 0
454 -591 0
-79 545 0
168 -434 0
-546 144 0
268 723 0
291 755 0
-834 1202 0
1113 -798 0
-1079 427 0
234 34 0
32 568 0
-915 -1034 0
-175 71 0
-484 940 0
58 -625 0
1042 -353 0
-493 762 0
492 1169 0
-1149 409 0
396 -306 0
-650 83 0
102 689 0
-491 -660 0
-1021 -576 0
853 -409 0
-691 -776 0
-372 -39 0
390 -1051 0
623 978 0
-224 554 0
-787 -354 0
-90 992 0
-790 -91 0
828 -370 0
423 41 0
441 1050 0
478 -408 0
-287 -931 0
967 -1036 0
531 -204 0
141 -608 0
57 404 0
-259 510 0
-481 1115 0
-719 -562 0
920 613 0
891 -1122 0
-191 -1036 0
364 -695 0
806 -4 0
-388 147 0
53 667 0
795 -109 0
747 133 0
-912 893 0
320 -908 0
1079 -462 0
-159 746 0
142 215 0
-413 640 0
-493 -839 0
451 328 0
-286 543 0
627 -430 0
374 1032 0
215 337 0
-36 -421 0
243 1175 0
-252 -842 0
358 -508 0
192 382 0
-1184 16 0
679 62 0
639 -872 0
156 -1026 0
-80 -1114 0
-740 -484 0
564 140 0
1052 321 0
-1131 -207 0
-230 549 0
-400 875 0
883 1015 0
220 998 0
-254 856 0
-68 -580 0
-824 340 0
-222 544 0
1135 -469 0
1200 -930 0
1012 -1001 0
811 -1045 0
878 -40 0
592 651 0
-139 -245 0
439 -964 0
-743 121 0
514 182 0
-1104 358 0
115 -1000 0
-185 -797 0
-1131 62 0
-436 -435 0
-1156 626 0
237 -79 0
346 -868 0
-773 727 0
-985 -340 0
-869 -1077 0
707 1100 0
409 -266 0
-842 566 0
-900 -598 0
-807 -350 0
-50 334 0
944 -580 0
-256 -771 0
1106 -797 0
544 1080 0
-858 1050 0
902 508 0
62 -1192 0
337 -150 0
-794 -800 0
-834 -1055 0
-300 765 0
-349 682 0
-596 -256 0
249 -394 0
245 -162 0
-1154 -267 0
268 205 0
-286 -932 0
1075 889 0
253 637 0
-484 -1032 0
-851 1195 0
-482 -790 0
-277 -733 0
-1003 167 0
-896 880 0
1080 65 0
-1085 -455 0
261 374 0
633 -883 0
-182 -1126 0
-531 -25 0
-49 941 0
-1011 -503 0
-464 472 0
1028 532 0
1192 105 0
665 -528 0
451 -269 0
-416 931 0
-18 292 0
783 1134 0
583 69 0
-678 1005 0
725 -1138 0
533 293 0
1014 -480 0
-793 835 0
1197 -1187 0
-362 -44 0
361 6 0
-61 -113 0
1095 1177 0
87 99 0
1107 -1115 0
588 289 0
347 1003 0
378 -1140 0
970 496 0
-50 674 0
-108 1127 0
-732 589 0
208 -757 0
584 -1057 0
1031 585 0
458 1016 0
230 -796 0
216 643 0
469 515 0
273 562 0
760 323 0
-583 -447 0
-854 -1199 0
1101 -463 0
8 -91 0
-239 337 0
-377 380 0
-778 1159 0
312 -1011 0
-886 -971 0
-350 852 0
889 -7 0
1152 364 0
-247 345 0
622 777 0
-406 588 0
455 839 0
-1112 282 0
748 -682 0
-706 -101 0
388 1198 0
921 1034 0
418 807 0
731 -123 0
1129 167 0
691 -478 0
1118 -211 0
-437 -675 0
993 214 0
949 -875 0
-338 -378 0
833 -601 0
-381 -1066 0
-794 -1183 0
1048 43 0
18 -482 0
-385 -897 0
652 -396 0
29 -1031 0
115 1174 0
-151 737 0
1043 -192 0
-1178 -74 0
-34 -385 0
777 -366 0
561 -798 0
866 537 0
23 -1200 0
236 134 0
245 -464 0
-19 189 0
-633 -403 0
-181 574 0
-291 524 0
7 682 0
-764 268 0
236 321 0
-570 59 0
334 20 0
-82 35 0
-826 -473 0
-517 -159 0
-90 54 0
-752 447 0
-963 587 0
-428 -1179 0
717 -1056 0
179 -833 0
-158 -279 0
944 -1186 0
-706 998 0
956 799 0
-127 694 0
792 -208 0
-815 -953 0
1161 65 0
-1060 -370 0
170 1191 0
-255 433 0
-721 -1200 0
787 -988 0
244 378 0
497 -307 0
733 -183 0
697 917 0
944 310 0
919 936 0
-598 1027 0
-882 372 0
-731 1101 0
-1034 75 0
1111 556 0
1166 486 0
1034 -1007 0
-426 1087 0
-1145 -884 0
166 -681 0
142 550 0
823 -514 0
-163 -889 0
362 711 0
924 1183 0
82 -1076 0
425 105 0
-621 -930 0
93 -1121 0
480 146 0
-334 3 0
277 898 0
1048 -897 0
895 -292 0
-65 -250 0
-257 -610 0
-488 176 0
-742 334 0
-279 230 0
-1076 -1117 0
1032 -1046 0
712 170 0
39 -1046 0
447 1066 0
-581 825 0
423 -155 0
193 384 0
1155 -1139 0
-696 -439 0
-850 852 0
456 373 0
-881 478 0
168 921 0
-1146 -46 0
342 -74 0
49 -814 0
253 680 0
873 852 0
-102 -114 0
-740 -851 0
-174 -553 0
-588 -1193 0
623 554 0
-281 -516 0
744 -716 0
1182 -872 0
-534 387 0
-922 124 0
-859 535 0
17 -126 0
928 -466 0
221 529 0
690 249 0
-636 -382 0
941 515 0
779 -882 0
-564 -424 0
215 -702 0
1116 763 0
239 -1094 0
-278 -730 0
539 1142 0
-458 -843 0
-470 -784 0
-827 497 0
-396 -178 0
1117 -132 0
-342 -1110 0
50 -782 0
-1057 1140 0
1172 -550 0
-1178 -196 0
-525 314 0
316 -776 0
674 125 0
-135 -1071 0
-970 -607 0
952 -1157 0
766 767 0
-337 1196 0
-546 376 0
867 994 0
-1052 599 0
-197 -732 0
48 463 0
983 11 0
601 -481 0
352 -123 0
293 -899 0
760 184 0
-22 -560 0
663 444 0
524 151 0
-590 -736 0
-201 -1045 0
-211 -885 0
198 1139 0
509 -592 0
-598 531 0
-703 -744 0
341 1122 0
1086 -247 0
-1173 -350 0
384 -325 0
1103 -859 0
677 444 0
-83 -183 0
82 -1066 0
916 817 0
-826 -987 0
-948 -193 0
-123 -454 0
-359 -350 0
-7 -265 0
-672 -111 0
-172 -440 0
188 591 0
-588 866 0
427 -241 0
-592 -698 0
-182 1124 0
369 140 0
864 978 0
1019 62 0
-402 113 0
328 1136 0
948 1002 0
-295 309 0
-1187 1059 0
-1193 498 0
1103 142 0
405 -1140 0
288 -1170 0
21 -1020 0
386 962 0
651 -889 0
-951 168 0
-1076 -667 0
-344 -621 0
-870 55 0
-914 -791 0
545 923 0
-461 512 0
399 8 0
-465 768 0
-447 551 0
234 -1068 0
-1114 -1202 0
-260 -881 0
-1115 -148 0
-112 1190 0
-137 602 0
-843 274 0
69 3 0
-787 -1114 0
-424 931 0
-840 1133 0
-37 561 0
-648 239 0
-1117 -865 0
-1044 -1086 0
119 -1085 0
-178 638 0
-459 748 0
-1120 -922 0
514 949 0
-600 -569 0
311 -22 0
536 577 0
-797 -169 0
-673 623 0
739 -260 0
-178 762 0
-774 415 0
341 -49 0
-479 767 0
-891 -733 0
-436 -713 0
715 -1088 0
797 1093 0
724 -482 0
-623 -287 0
-407 -275 0
1134 -713 0
-274 -880 0
212 430 0
323 -782 0
306 249 0
-722 -552 0
-964 -133 0
-581 -1151 0
-303 763 0
353 532 0
-390 16 0
518 17 0
983 716 0
13 825 0
757 313 0
74 574 0
-333 188 0
-596 -341 0
-493 -293 0
-287 -1071 0
-815 -613 0
-333 765 0
531 -935 0
1193 -136 0
537 454 0
-453 -1167 0
-829 -348 0
-560 238 0
1088 -394 0
873 299 0
-682 -500 0
-857 1023 0
-434 469 0
-572 415 0
-196 -634 0
-1042 623 0
741 686 0
1143 -694 0
1132 -1147 0
-131 -1064 0
-785 301 0
-1058 -341 0
179 1065 0
-809 401 0
183 214 0
-154 1130 0
73 -1191 0
103 1191 0
-818 -104 0
-1120 473 0
-222 -1178 0
-471 -884 0
1189 249 0
97 -710 0
-209 40 0
492 -265 0
-759 -882 0
453 1029 0
-150 758 0
1115 -315 0
-700 405 0
-111 -936 0
-458 -175 0
-747 -532 0
727 -39 0
-191 -1020 0
-741 -717 0
683 -252 0
-498 1005 0
1182 -1178 0
1042 -935 0
199 156 0
-871 459 0
1045 -922 0
397 192 0
-586 56 0
242 476 0
-657 -500 0
-438 -467 0
551 335 0
1000 -89 0
447 1014 0
511 1106 0
862 579 0
248 -1171 0
768 395 0
160 199 0
-809 849 0
-11 81 0
1148 -434 0
-190 281 0
-382 -426 0
1190 75 0
169 -757 0
-29 -580 0
151 1099 0
1063 78 0
-388 6 0
747 -330 0
566 317 0
-773 272 0
450 493 0
793 -194 0
422 -971 0
-325 324 0
-640 -842 0
747 85 0
-581 566 0
927 580 0
-645 737 0
-433 -993 0
712 -1018 0
1075 -1093 0
-633 978 0
-1001 352 0
-974 -1039 0
933 563 0
-117 1133 0
-349 236 0
753 -210 0
-349 -359 0
-1077 -1081 0
-754 337 0
-127 624 0
-773 -1104 0
888 875 0
1093 806 0
-1060 -1059 0
-295 651 0
304 1003 0
670 -584 0
23 -98 0
-626 20 0
-689 -839 0
1131 849 0
1172 -1064 0
-690 -513 0
637 -659 0
-561 468 0
-1034 -863 0
-133 453 0
-203 -736 0
780 655 0
605 883 0
-1097 -569 0
-116 -325 0
852 -465 0
-16 755 0
-515 684 0
524 -810 0
-258 990 0
-384 -690 0
644 -306 0
-785 -1191 0
1121 376 0
873 693 0
-871 -498 0
-63 1039 0
-47 1005 0
705 1004 0
-122 1095 0
-1201 838 0
-922 -637 0
-638 812 0
691 1135 0
518 -767 0
-242 371 0
-411 248 0
-29 117 0
45 577 0
-46 748 0
1132 -640 0
-1111 -348 0
833 -814 0
-229 13 0
-1065 1093 0
-385 96 0
244 556 0
-881 1033 0
-373 396 0
648 294 0
-1201 -419 0
-96 921 0
597 -420 0
533 -443 0
782 -14 0
-1160 -1071 0
-502 353 0
-39 230 0
110 -1019 0
-501 669 0
772 720 0
-487 -196 0
-409 68 0
-512 -608 0
-998 -1053 0
328 -420 0
763 -673 0
-416 -175 0
-732 928 0
-414 811 0
-417 445 0
535 -653 0
699 267 0
864 371 0
68 -1094 0
-1178 -616 0
-201 1198 0
807 942 0
-739 577 0
1003 457 0
-703 -555 0
-114 294 0
347 -935 0
226 -150 0
823 391 0
353 -586 0
-403 789 0
-966 -632 0
811 -716 0
531 -389 0
-1048 -151 0
-442 225 0
-1021 -792 0
-379 -1009 0
553 -1044 0
-898 -275 0
172 -171 0
177 1153 0
313 -7 0
-1100 450 0
273 -237 0
660 -313 0
1050 -840 0
-846 622 0
832 -332 0
1084 369 0
1194 1012 0
590 1018 0
-478 -621 0
-307 -313 0
-882 -392 0
583 483 0
-722 -986 0
-1016 651 0
-265 -813 0
-614 -187 0
389 -438 0
-403 -753 0
-524 386 0
-627 97 0
221 -565 0
-632 747 0
-1076 511 0
859 1184 0
1030 998 0
980 -528 0
647 -207 0
105 -966 0
-446 -203 0
-651 62 0
288 413 0
1080 956 0
-706 -1071 0
647 348 0
-456 12 0
-888 -126 0
-1023 832 0
32 610 0
-883 -894 0
380 -725 0
214 302 0
609 387 0
-549 425 0
-40 -858 0
-232 -1149 0
-338 431 0
-582 -1102 0
-608 882 0
733 -855 0
497 -827 0
630 -963 0
64 384 0
-1170 -763 0
336 868 0
267 -490 0
-49 595 0
-400 -519 0
-492 -608 0
-806 771 0
293 163 0
310 -472 0
157 757 0
632 -40 0
501 -592 0
819 280 0
-593 922 0
908 -701 0
1045 865 0
978 -482 0
-530 461 0
34 342 0
-473 896 0
-702 1168 0
-300 505 0
335 488 0
1073 274 0
1055 59 0
1013 -432 0
893 564 0
-338 856 0
-946 1097 0
47 232 0
-705 -119 0
-245 145 0
32 961 0
492 -1095 0
-1178 -290 0
-161 -1181 0
738 595 0
1094 -266 0
-335 -145 0
652 616 0
62 -539 0
-497 -677 0
656 -240 0
789 -219 0
-521 -1127 0
-987 905 0
427 -654 0
-376 1118 0
558 1092 0
303 -1007 0
1017 -748 0
-399 -1022 0
-774 788 0
-668 129 0
-477 252 0
-589 -258 0
-279 466 0
193 1137 0
-1194 -1028 0
1132 532 0
-630 -794 0
745 928 0
-36 1172 0
402 537 0
-1022 -102 0
815 -175 0
1159 -112 0
-446 -1046 0
-284 -296 0
-761 105 0
-89 676 0
801 -797 0
157 -1193 0
1012 -329 0
-472 1088 0
1072 -522 0
-341 565 0
507 436 0
-496 -1053 0
807 -724 0
-41 -302 0
1139 -413 0
-951 -278 0
-104 -482 0
401 -860 0
709 -834 0
-882 -496 0
1014 613 0
548 -379 0
771 877 0
-372 -302 0
1174 -116 0
-1085 -426 0
-716 -74 0
753 -382 0
978 -1048 0
795 -1020 0
1024 677 0
387 208 0
431 888 0
-731 389 0
-86 -901 0
-1086 248 0
637 -793 0
-83 302 0
70 874 0
494 -1023 0
16 653 0
-440 -564 0
-580 -1041 0
-521 -868 0
352 -532 0
-443 556 0
-892 -480 0
427 72 0
-490 -501 0
-764 760 0
864 -84 0
893 -1080 0
-279 137 0
-682 157 0
232 -222 0
426 683 0
-252 -919 0
-809 1067 0
742 -17 0
129 -78 0
388 -274 0
644 -153 0
-522 747 0
-805 -446 0
574 -377 0
565 784 0
-875 -116 0
-716 539 0
804 239 0
209 875 0
924 -176 0
705 590 0
158 -603 0
1013 -207 0
-516 845 0
-636 3 0
192 1030 0
303 -608 0
-468 -1108 0
210 -472 0
856 -821 0
-972 11 0
-6 132 0
689 347 0
-136 445 0
-386 944 0
-133 959 0
45 -1140 0
547 188 0
868 -119 0
147 945 0
-664 -119 0
729 331 0
227 -494 0
590 679 0
-441 -604 0
936 1040 0
-420 637 0
-1071 327 0
1060 -83 0
-361 -825 0
893 -21 0
-420 611 0
389 502 0
-831 983 0
-154 976 0
581 -1094 0
1063 246 0
-61 -526 0
506 205 0
1138 -741 0
-604 -850 0
-1004 -260 0
-183 453 0
-289 -882 0
-1097 1040 0
1142 -236 0
-41 729 0
-416 -794 0
297 550 0
-493 -391 0
-366 -1054 0
-483 -808 0
-1046 -568 0
219 -839 0
-593 -925 0
927 -913 0
168 584 0
-787 16 0
525 489 0
-1197 941 0
620 -1051 0
-468 -113 0
-793 -404 0
136 980 0
-83 -578 0
304 719 0
1091 129 0
-56 -366 0
134 -530 0
-339 124 0
-1151 803 0
-334 -562 0
505 -1 0
348 -1194 0
1005 -629 0
455 -1074 0
1119 259 0
285 -497 0
168 142 0
909 353 0
-315 240 0
-869 -203 0
43 -1079 0
-1013 369 0
323 -382 0
-860 813 0
594 69 0
-412 -1091 0
-1084 881 0
-398 -679 0
-736 -174 0
-790 -405 0
-96 87 0
-1007 93 0
-1174 53 0
-435 -741 0
-809 -131 0
105 -1004 0
298 -293 0
-616 -363 0
-1104 319 0
216 -555 0
214 -708 0
431 843 0
-142 -1046 0
335 979 0
277 -261 0
191 647 0
466 -784 0
-816 -317 0
-17 -421 0
-779 -827 0
-82 -1145 0
-898 -354 0
-172 845 0
353 -627 0
-849 -1158 0
506 853 0
-1014 -227 0
883 747 0
592 -618 0
683 533 0
-780 -363 0
236 -209 0
-86 361 0
-581 -1007 0
1027 277 0
48 978 0
880 659 0
-709 -728 0
970 -141 0
-312 -1185 0
134 771 0
-338 382 0
764 -675 0
-4 -942 0
-188 326 0
-209 -481 0
331 -579 0
1068 631 0
-868 -520 0
751 886 0
473 836 0
879 -695 0
-991 577 0
-854 798 0
540 -270 0
-471 -925 0
-1187 8 0
-23 -1202 0
-1053 -778 0
525 -386 0
192 933 0
-710 -675 0
-559 -805 0
-887 1068 0
-752 -145 0
250 1177 0
1035 -1139 0
705 361 0
109 -864 0
954 669 0
-279 -790 0
-617 483 0
-470 -1079 0
-993 371 0
167 -409 0
-1034 -1071 0
86 -654 0
-562 168 0
-608 57 0
-781 -687 0
1 75 0
-192 -685 0
45 1015 0
1085 1041 0
-581 977 0
-1036 -39 0
-332 -372 0
-502 -348 0
-71 931 0
-593 395 0
182 -596 0
73 -285 0
-831 -1011 0
-621 -89 0
-998 -27 0
1079 1175 0
826 276 0
17 1113 0
1083 547 0
-38 -108 0
-769 109 0
249 495 0
-432 -695 0
-197 723 0
672 351 0
-1068 313 0
-537 856 0
879 68 0
1159 -98 0
-162 51 0
-656 1198 0
-1098 -553 0
761 802 0
-1145 -802 0
-391 144 0
65 463 0
-223 -1001 0
-657 -791 0
-1055 -285 0
-229 -886 0
584 -681 0
-15 633 0
817 -202 0
-495 754 0
572 450 0
-484 -501 0
30 -14 0
-902 689 0
204 675 0
-788 707 0
455 -1141 0
871 -137 0
-900 -648 0
-610 165 0
490 847 0
-741 715 0
-275 638 0
-612 219 0
-752 -220 0
165 1048 0
172 -264 0
117 -401 0
-1071 -318 0
-439 -6 0
1127 20 0
-721 718 0
364 -502 0
508 -776 0
-636 847 0
-913 -827 0
-427 -961 0
1016 -706 0
744 637 0
486 -283 0
577 105 0
-526 -840 0
241 547 0
-1015 -107 0
-159 -36 0
-1022 347 0
-394 918 0
350 818 0
-617 426 0
1183 590 0
-1133 -183 0
-722 -316 0
873 856 0
-538 154 0
227 -162 0
-104 135 0
-223 -630 0
-65 -838 0
-185 -552 0
-530 -128 0
-603 -723 0
-1079 1112 0
-584 12 0
-1097 689 0
-682 766 0
-113 -762 0
-562 132 0
-682 1105 0
-1053 249 0
-700 12 0
401 1032 0
-842 742 0
-678 -902 0
822 30 0
-14 1140 0
-1145 -693 0
-433 -346 0
929 1039 0
-113 -947 0
304 -1145 0
-872 359 0
-877 492 0
-837 -589 0
-187 -776 0
199 1142 0
-791 -732 0
539 -273 0
190 836 0
1075 -869 0
-127 -758 0
219 268 0
129 323 0
939 345 0
-396 271 0
-788 874 0
-302 1084 0
1095 -814 0
214 -576 0
346 742 0
-228 47 0
-496 1176 0
150 705 0
828 -1026 0
-19 -790 0
-852 489 0
-989 1154 0
170 -632 0
534 368 0
-245 213 0
550 826 0
294 1022 0
953 -1005 0
-692 -560 0
850 11 0
186 858 0
-922 -760 0
-448 1075 0
1133 -531 0
1008 -271 0
1106 -380 0
589 614 0
604 1096 0
-1009 846 0
-26 -388 0
-322 -251 0
592 -725 0
395 181 0
704 -616 0
993 -1021 0
-1003 -654 0
750 168 0
-654 -946 0
-1186 -536 0
-255 -1046 0
-1184 -377 0
-271 -67 0
-1155 3 0
806 759 0
1028 325 0
-1125 -335 0
-46 95 0
694 -160 0
357 -534 0
-49 -111 0
337 -594 0
138 -212 0
188 -1099 0
225 1060 0
631 952 0
-1037 597 0
69 -696 0
952 293 0
-383 -1066 0
1050 -273 0
-422 -438 0
737 -923 0
888 620 0
-589 -484 0
1107 1136 0
202 -447 0
55 727 0
-572 943 0
1042 -269 0
-217 -136 0
-885 -679 0
-416 835 0
-1168 -677 0
-888 -1091 0
478 284 0
1159 582 0
-760 110 0
929 11 0
-20 81 0
1197 -832 0
243 1034 0
-986 855 0
1113 132 0
-1023 -809 0
-286 -821 0
-274 193 0
744 298 0
1116 -628 0
-126 -1033 0
-510 -303 0
-238 -390 0
177 -348 0
-259 58 0
-767 -116 0
1123 335 0
-997 441 0
78 688 0
167 914 0
-971 -675 0
-479 334 0
-1170 -703 0
-741 -245 0
212 785 0
290 -492 0
149 1086 0
349 -496 0
743 -859 0
-1105 130 0
799 753 0
469 -764 0
-481 -401 0
-1033 -350 0
-473 -276 0
-436 59 0
634 1092 0
913 215 0
-727 683 0
445 964 0
-331 -668 0
729 191 0
63 20 0
811 -323 0
337 346 0
-476 -169 0
-1020 -926 0
-154 693 0
-530 -46 0
1084 344 0
694 734 0
-739 -111 0
-548 117 0
-910 -924 0
-245 -1082 0
1199 786 0
-944 1063 0
1086 242 0
916 -275 0
-520 -606 0
1 550 0
535 651 0
-834 -976 0
-1144 699 0
134 1028 0
-511 353 0
1153 -275 0
835 243 0
-457 -477 0
807 -344 0
1190 69 0
344 -193 0
117 -496 0
-1000 -328 0
476 312 0
-122 -1167 0
-691 -661 0
232 349 0
-79 -541 0
-965 193 0
-39 -1183 0
-787 -598 0
1008 -361 0
-1090 -482 0
729 34 0
-169 1135 0
-573 1112 0
-610 128 0
-183 -209 0
281 101 0
-586 216 0
65 -181 0
-746 106 0
1117 25 0
-317 -761 0
-1003 249 0
336 -754 0
-911 -1064 0
-779 819 0
528 -854 0
-257 -516 0
716 -681 0
1070 -892 0
57 -713 0
710 -539 0
724 -407 0
-828 -869 0
-831 706 0
198 -718 0
810 312 0
-810 134 0
-1126 -503 0
-416 -377 0
759 683 0
-536 1143 0
698 -169 0
46 -206 0
-366 -776 0
1024 224 0
116 -269 0
-433 813 0
-322 -494 0
-1089 848 0
-1076 515 0
767 -111 0
-332 10 0
-1186 824 0
-1154 -801 0
-170 257 0
253 -1125 0
961 1030 0
1052 -858 0
707 -95 0
-201 1156 0
24 457 0
1041 372 0
767 111 0
-582 -494 0
-726 216 0
945 558 0
1031 -295 0
-480 -872 0
793 301 0
177 813 0
-130 344 0
495 1188 0
1067 -1176 0
225 -553 0
547 803 0
-1088 -514 0
-308 1153 0
-5 -457 0
-935 244 0
775 564 0
825 73 0
423 -336 0
-152 536 0
81 -733 0
-961 -863 0
539 -1170 0
3 -253 0
-102 -748 0
864 983 0
-723 -892 0
364 684 0
-333 50 0
-168 1099 0
-1023 -1170 0
-143 214 0
-921 -161 0
214 -901 0
1003 -747 0
-831 -328 0
-950 -573 0
-71 -863 0
-821 -1131 0
-381 -1155 0
938 -296 0
-602 -588 0
205 -994 0
873 1127 0
-305 20 0
-933 -417 0
214 891 0
743 469 0
95 495 0
-404 957 0
-21 -446 0
-24 -295 0
-51 1072 0
-407 -996 0
1034 318 0
1067 288 0
-866 1024 0
210 -403 0
632 -502 0
284 -387 0
1155 -1154 0
-634 -336 0
-1202 111 0
-525 -223 0
-1179 169 0
-232 368 0
617 -1062 0
-590 10 0
255 914 0
-190 -726 0
182 -925 0
917 75 0
213 864 0
-793 -1057 0
-990 952 0
-223 1116 0
850 -849 0
103 913 0
-969 1018 0
-1110 774 0
1180 -546 0
-51 725 0
1087 261 0
-993 -388 0
-916 -1110 0
-470 -777 0
-588 914 0
-881 -436 0
267 -194 0
504 1080 0
-1176 -429 0
858 -415 0
-735 910 0
-543 -13 0
736 -858 0
746 247 0
354 1198 0
445 142 0
401 510 0
-863 -241 0
826 -1183 0
66 -1115 0
-370 314 0
-858 377 0
-1177 301 0
-650 1197 0
959 490 0
116 -1155 0
-1188 24 0
1197 -143 0
-964 -887 0
685 -83 0
-61 -964 0
-153 -96 0
-1194 692 0
1165 904 0
-663 -361 0
774 1119 0
386 735 0
865 1135 0
1111 -923 0
621 82 0
334 800 0
-152 765 0
-438 1160 0
-537 710 0
820 -922 0
968 1151 0
-478 -620 0
-472 1114 0
620 6 0
1065 958 0
663 272 0
1034 -165 0
395 -985 0
-625 -290 0
137 -1148 0
242 -594 0
-1179 -1113 0
823 -314 0
-964 -447 0
162 -945 0
545 -108 0
398 404 0
-161 -1068 0
-1040 -755 0
-628 1072 0
1042 1130 0
-1094 -906 0
966 -625 0
920 -509 0
6 -1086 0
-441 912 0
959 -366 0
323 139 0
343 284 0
261 788 0
130 81 0
-1014 1050 0
-557 -603 0
1175 656 0
800 -837 0
-1053 -521 0
699 928 0
967 -1068 0
-578 -770 0
-741 -1144 0
-679 -1047 0
-537 337 0
-921 -376 0
1165 726 0
-907 878 0
652 749 0
35 703 0
59 535 0
-258 -563 0
499 832 0
-932 -882 0
-298 128 0
-761 649 0
-1005 -600 0
-664 453 0
710 235 0
-876 -642 0
1084 290 0
-402 -1186 0
959 -918 0
34 -49 0
895 -496 0
-950 -157 0
1044 712 0
-783 587 0
497 644 0
-540 26 0
-274 -1089 0
488 -610 0
-480 97 0
-1061 273 0
453 -693 0
3 654 0
1190 1090 0
-220 -370 0
-416 -1191 0
-531 795 0
1152 -309 0
622 -639 0
1112 747 0
-51 -995 0
143 236 0
758 -1020 0
334 625 0
745 326 0
-707 -196 0
-325 475 0
-713 880 0
-1079 -148 0
346 683 0
953 -246 0
-787 -925 0
-412 -322 0
-1151 -846 0
843 -408 0
638 512 0
597 1001 0
720 685 0
42 -1007 0
30 294 0
11 455 0
356 -246 0
150 638 0
1058 845 0
-811 -1200 0
-555 817 0
-1144 514 0
783 -814 0
703 99 0
60 -172 0
723 273 0
904 -37 0
-127 -709 0
254 -777 0
-122 862 0
226 1175 0
-990 -39 0
-927 -961 0
-1138 1140 0
-803 862 0
138 -779 0
-248 24 0
-1115 -417 0
262 -78 0
139 -56 0
511 975 0
983 -396 0
987 351 0
-630 -212 0
-71 507 0
1114 -1200 0
979 819 0
-678 -120 0
-472 648 0
-320 -196 0
-818 -209 0
390 1114 0
1177 921 0
-446 678 0
67 -897 0
929 1089 0
450 -201 0
-1108 193 0
522 -733 0
804 507 0
-553 -784 0
1106 920 0
-408 -274 0
216 -141 0
1025 684 0
354 -682 0
-1062 115 0
-473 763 0
-322 -276 0
-569 806 0
787 1130 0
-548 -44 0
671 -101 0
-561 140 0
-1042 -80 0
644 728 0
585 798 0
483 -1009 0
555 -801 0
649 1131 0
76 -917 0
69 45 0
29 751 0
-315 368 0
688 893 0
318 -416 0
587 695 0
1077 -756 0
-723 240 0
459 355 0
1199 -541 0
423 236 0
-187 -749 0
-335 1135 0
483 -1200 0
354 -1059 0
-1176 -111 0
-1156 -317 0
-963 -1023 0
-153 -667 0
612 901 0
-1155 469 0
-782 131 0
-1097 -2 0
1180 531 0
-329 -794 0
676 -361 0
536 -479 0
-570 -737 0
-913 137 0
-373 586 0
953 -262 0
1136 1123 0
639 -685 0
-899 -800 0
-499 345 0
1166 -932 0
978 45 0
932 1113 0
-346 318 0
902 12 0
-27 288 0
838 -366 0
643 -20 0
720 -63 0
-41 314 0
874 -1147 0
1062 -995 0
-359 -430 0
-323 474 0
624 -1004 0
1107 835 0
