c bounds 331 331
p cnf 955 955
-791 888 0
60 -402 0
357 -676 0
724 773 0
-367 -881 0
-587 94 0
230 -658 0
-183 -206 0
545 737 0
-606 263 0
-335 -710 0
356 73 0
867 -458 0
-419 -625 0
933 630 0
-682 851 0
820 -581 0
-502 838 0
29 -418 0
897 -409 0
-889 647 0
25 -416 0
-582 -316 0
-898 -515 0
409 -752 0
-491 115 0
-424 422 0
-57 -670 0
933 -61 0
804 -593 0
-403 -4 0
-718 -567 0
-7 -236 0
-783 423 0
-631 -680 0
150 -667 0
126 -29 0
473 -738 0
414 562 0
-259 530 0
-456 905 0
-454 -594 0
-374 -904 0
-930 -806 0
174 462 0
753 -590 0
273 -165 0
160 830 0
724 -151 0
-456 -575 0
-244 775 0
-283 352 0
-469 -388 0
739 76 0
245 -124 0
235 -218 0
-543 -636 0
115 -791 0
514 38 0
831 922 0
-918 372 0
-95 -131 0
-458 -470 0
-423 -126 0
643 826 0
457 -836 0
-935 -846 0
241 828 0
8 -466 0
-418 -368 0
-100 262 0
239 424 0
760 3 0
102 -235 0
103 312 0
618 -74 0
118 -484 0
737 122 0
944 160 0
171 805 0
-248 28 0
-101 -320 0
-209 193 0
760 943 0
-528 648 0
732 222 0
-829 262 0
-858 -452 0
619 53 0
-465 947 0
-261 -575 0
203 -859 0
500 -711 0
-554 -853 0
71 -636 0
168 -158 0
344 -445 0
-85 235 0
297 -701 0
-661 -320 0
732 -535 0
-151 743 0
14 272 0
-645 -125 0
-583 34 0
842 -809 0
-622 924 0
797 -278 0
112 594 0
-91 916 0
-6 2 0
891 -453 0
-498 391 0
943 905 0
-451 21 0
-735 -75 0
-646 -694 0
-407 1 0
-203 599 0
907 -533 0
-46 219 0
472 736 0
622 -622 0
169 488 0
-715 -339 0
291 -893 0
-467 444 0
222 -455 0
831 -219 0
-376 -237 0
-46 -386 0
737 -690 0
175 -610 0
112 -461 0
109 -260 0
-558 -713 0
-115 672 0
204 -869 0
-738 -748 0
-55 -389 0
-314 360 0
-186 -108 0
-799 -216 0
745 -286 0
-376 -931 0
-673 -129 0
167 -447 0
-729 34 0
-171 873 0
670 -725 0
898 -351 0
561 -546 0
-4 -630 0
-542 570 0
-167 184 0
-115 369 0
909 -227 0
-597 436 0
283 779 0
-91 -171 0
-447 823 0
-723 -355 0
317 26 0
126 -827 0
124 -526 0
534 178 0
-380 497 0
-419 -832 0
483 -829 0
-888 34 0
-360 -453 0
306 -657 0
-74 -129 0
-577 475 0
91 -860 0
-464 -631 0
907 97 0
-97 -341 0
209 -771 0
886 -694 0
830 163 0
332 -354 0
630 849 0
776 -514 0
-322 -68 0
130 -48 0
942 389 0
86 -482 0
489 -940 0
-920 -543 0
489 -629 0
566 256 0
-343 -128 0
-202 -189 0
-380 818 0
-928 -314 0
-716 -686 0
413 -722 0
281 -759 0
735 -641 0
563 -766 0
-46 736 0
-756 358 0
-138 482 0
36 756 0
-902 -352 0
152 -586 0
-412 11 0
-163 -643 0
285 188 0
425 -4 0
-862 -482 0
470 -303 0
-208 -683 0
34 695 0
455 -533 0
-301 630 0
-433 912 0
124 -726 0
566 826 0
-582 -590 0
763 -766 0
273 -430 0
444 -377 0
840 -797 0
45 548 0
948 932 0
178 600 0
467 -859 0
-933 -836 0
-104 868 0
-701 -124 0
-125 -295 0
928 420 0
-766 -608 0
-467 387 0
-900 -898 0
562 915 0
193 -760 0
334 -279 0
805 263 0
6 317 0
185 -839 0
288 712 0
137 -198 0
148 52 0
-658 -13 0
-582 -499 0
-100 -730 0
537 75 0
-753 254 0
-407 -584 0
-202 -876 0
405 274 0
-673 -526 0
-860 -363 0
-641 225 0
-159 -269 0
-727 -506 0
143 677 0
430 -529 0
-867 826 0
83 940 0
-113 288 0
759 -136 0
843 357 0
-704 841 0
34 204 0
-745 255 0
-427 712 0
240 719 0
-165 -328 0
652 -830 0
882 336 0
215 -900 0
867 336 0
199 454 0
269 303 0
-837 -412 0
942 880 0
-503 -878 0
-547 -705 0
-66 660 0
-623 88 0
934 -838 0
127 -364 0
854 -590 0
-474 -651 0
634 842 0
867 -26 0
276 -568 0
604 -550 0
-631 -42 0
-592 591 0
598 -751 0
494 -388 0
337 -271 0
155 137 0
391 -228 0
546 -129 0
-171 509 0
102 -134 0
791 -762 0
-40 938 0
334 712 0
773 51 0
-425 -546 0
601 328 0
-164 873 0
134 -933 0
891 -694 0
448 -14 0
755 -637 0
-729 -344 0
-628 -505 0
823 -836 0
-127 -610 0
-480 -943 0
-945 -815 0
-273 621 0
946 -684 0
-879 846 0
-722 -420 0
-863 -519 0
182 296 0
-40 -229 0
-322 -781 0
825 702 0
-952 714 0
-698 -882 0
-781 231 0
-166 119 0
-859 -658 0
-161 206 0
753 441 0
-869 -510 0
-646 203 0
-645 -701 0
-98 -164 0
473 635 0
541 81 0
-131 -550 0
-568 -89 0
-730 -87 0
-652 524 0
-900 335 0
765 -553 0
-534 -687 0
739 -48 0
-721 758 0
-531 -381 0
-869 -452 0
-94 10 0
-833 -795 0
-151 458 0
-469 -837 0
-711 408 0
291 -154 0
-259 -27 0
849 -16 0
91 160 0
-366 228 0
366 -581 0
656 526 0
503 -538 0
-594 949 0
245 -254 0
-242 153 0
-678 272 0
77 805 0
880 579 0
524 247 0
215 -655 0
357 -885 0
-162 -396 0
-889 -2 0
480 -319 0
-376 -934 0
566 -32 0
-112 702 0
678 -14 0
856 576 0
-140 -147 0
-733 793 0
-648 516 0
-721 604 0
727 671 0
719 809 0
-850 583 0
-328 -191 0
226 -299 0
189 161 0
450 -110 0
663 94 0
-787 116 0
756 -804 0
-787 -531 0
-607 -491 0
-437 -356 0
-82 864 0
33 -357 0
-276 -121 0
-408 490 0
-608 -494 0
374 -461 0
813 -155 0
7 -543 0
-774 140 0
-277 -329 0
-939 -290 0
490 476 0
-106 -896 0
737 478 0
-900 -162 0
425 -375 0
940 937 0
-948 -70 0
-339 -378 0
-153 34 0
-821 -835 0
-683 530 0
-108 -368 0
-429 -635 0
-607 255 0
-245 89 0
295 591 0
-159 -151 0
-200 -629 0
-231 -216 0
-455 -766 0
450 -512 0
-15 777 0
-908 -909 0
96 -729 0
229 -572 0
-610 -158 0
428 553 0
-723 -35 0
-128 -420 0
690 938 0
-314 -676 0
339 579 0
-943 -878 0
-103 -740 0
-610 -560 0
556 735 0
207 -142 0
754 851 0
747 -812 0
356 -140 0
-837 599 0
-557 -188 0
-440 912 0
-177 -838 0
291 -613 0
-582 -204 0
-668 263 0
245 -47 0
574 556 0
410 164 0
377 -919 0
116 954 0
-710 -649 0
-416 -654 0
876 781 0
600 -257 0
85 -631 0
51 -723 0
350 -132 0
944 754 0
442 -494 0
-250 -114 0
-572 235 0
299 736 0
-533 -92 0
617 -613 0
-1 750 0
446 -14 0
152 439 0
-587 -24 0
-623 599 0
426 558 0
-859 -889 0
-469 928 0
-3 -887 0
-412 -636 0
479 -113 0
-415 946 0
473 176 0
433 518 0
504 -467 0
-98 -683 0
-914 141 0
160 436 0
568 -549 0
-333 717 0
301 -954 0
472 60 0
137 -952 0
-721 801 0
876 669 0
567 609 0
-452 -633 0
885 538 0
54 31 0
-798 -128 0
-910 -639 0
449 143 0
507 721 0
-409 -923 0
600 6 0
921 53 0
-500 -64 0
-353 510 0
-841 801 0
-376 53 0
732 386 0
205 646 0
757 599 0
753 -721 0
514 906 0
-901 -91 0
111 463 0
334 -365 0
647 -315 0
-128 -303 0
145 302 0
915 -262 0
302 -406 0
67 -317 0
892 743 0
-202 -110 0
-445 548 0
-376 -391 0
-952 -576 0
-738 931 0
21 379 0
-842 196 0
-548 -340 0
-177 -158 0
751 -870 0
-656 27 0
613 -100 0
482 936 0
455 -808 0
612 101 0
-98 -821 0
555 -645 0
-209 629 0
-423 350 0
729 614 0
-450 -793 0
-794 591 0
204 271 0
946 460 0
118 131 0
-110 645 0
369 470 0
-338 -406 0
840 208 0
-880 293 0
738 561 0
534 -950 0
534 684 0
139 -3 0
29 -470 0
530 440 0
558 644 0
473 53 0
924 515 0
938 413 0
948 911 0
-318 -645 0
726 -211 0
-17 -120 0
-290 -884 0
-624 12 0
-322 158 0
103 -71 0
424 -329 0
501 310 0
-752 -295 0
873 882 0
828 828 0
-388 -243 0
-16 910 0
-853 -68 0
-180 758 0
-78 352 0
455 123 0
229 24 0
835 772 0
-289 131 0
782 953 0
-910 820 0
-165 -770 0
-569 177 0
-340 -98 0
892 637 0
-941 -604 0
-696 832 0
20 -47 0
-672 910 0
402 907 0
318 -384 0
449 173 0
-331 293 0
897 -363 0
886 883 0
-327 596 0
675 -668 0
614 162 0
806 657 0
-577 616 0
-838 -405 0
-802 -451 0
-740 -502 0
325 -388 0
561 79 0
774 -776 0
-809 93 0
-274 826 0
234 -788 0
615 -116 0
-320 -632 0
670 -723 0
-215 688 0
773 -196 0
-504 511 0
-588 -57 0
-437 -319 0
514 -740 0
-560 -744 0
297 -416 0
-357 -892 0
88 -590 0
-188 -372 0
336 628 0
702 -287 0
-325 -339 0
-674 -510 0
315 271 0
384 934 0
-804 -322 0
119 533 0
743 -649 0
444 883 0
-502 -929 0
-625 -876 0
405 -35 0
428 -709 0
-807 29 0
-264 -723 0
-178 -353 0
567 402 0
74 -49 0
-592 406 0
37 185 0
-939 641 0
607 325 0
258 477 0
-691 -786 0
-880 -767 0
-596 -447 0
442 -357 0
350 732 0
-483 841 0
11 594 0
-400 -59 0
-236 -212 0
-597 -97 0
-354 -476 0
860 566 0
-602 -54 0
-885 831 0
299 863 0
710 441 0
212 234 0
670 826 0
-864 897 0
49 293 0
-146 -341 0
802 -858 0
524 -113 0
662 -144 0
-925 361 0
109 -629 0
549 137 0
743 -765 0
-662 -944 0
501 -371 0
556 390 0
414 -794 0
562 179 0
-544 418 0
-271 804 0
873 196 0
-555 919 0
221 -449 0
866 454 0
-912 -694 0
-781 658 0
53 -31 0
926 -402 0
244 349 0
593 504 0
-415 -120 0
-661 231 0
364 599 0
-432 -594 0
-278 897 0
-590 -94 0
-583 -705 0
-91 -905 0
792 651 0
-371 107 0
-363 -14 0
-741 436 0
-883 793 0
554 436 0
-654 -594 0
499 951 0
5 -26 0
334 826 0
478 364 0
-589 -527 0
829 612 0
739 220 0
-551 -158 0
814 844 0
488 653 0
-483 -446 0
-102 851 0
385 -585 0
182 33 0
-464 820 0
-322 -943 0
816 -340 0
777 -950 0
-857 648 0
887 626 0
363 -401 0
-37 -197 0
-919 -344 0
672 80 0
-407 -161 0
263 871 0
-295 302 0
497 -870 0
-91 782 0
876 -95 0
-622 642 0
-214 424 0
665 -802 0
825 -543 0
-881 422 0
-528 360 0
695 155 0
760 -894 0
-803 288 0
260 -458 0
500 -909 0
102 760 0
27 -795 0
736 -266 0
67 -431 0
-943 793 0
-705 -483 0
877 -423 0
195 260 0
210 -394 0
38 814 0
-248 -770 0
913 -939 0
-409 821 0
952 -484 0
-75 60 0
579 372 0
337 295 0
856 656 0
-696 921 0
892 645 0
627 382 0
-285 711 0
711 -407 0
-81 -588 0
199 391 0
306 -170 0
783 -697 0
571 -128 0
321 843 0
-83 475 0
-735 -926 0
-151 11 0
-121 446 0
-592 -68 0
-4 -196 0
-31 154 0
-298 706 0
-265 522 0
-564 834 0
59 -37 0
-41 393 0
431 -955 0
-247 591 0
834 255 0
21 232 0
754 107 0
-103 -378 0
-575 346 0
-900 -131 0
-224 -83 0
-277 930 0
749 -535 0
861 -450 0
-564 -187 0
-496 693 0
503 201 0
-936 726 0
174 -694 0
856 -267 0
527 293 0
898 228 0
-450 -215 0
-304 895 0
456 -655 0
-385 439 0
-885 -566 0
829 873 0
517 -826 0
-746 906 0
185 543 0
-304 -533 0
-817 800 0
492 775 0
-449 151 0
-186 -51 0
-726 -61 0
92 -133 0
208 -379 0
-521 -522 0
903 930 0
650 -39 0
726 897 0
-561 123 0
185 -110 0
170 558 0
240 198 0
-803 -72 0
906 166 0
-501 213 0
18 715 0
-694 -811 0
-640 921 0
901 -174 0
118 -137 0
176 -546 0
403 -187 0
-703 -402 0
142 -170 0
-585 -911 0
-564 -453 0
924 -758 0
-917 154 0
437 -464 0
-7 -170 0
611 191 0
-821 198 0
-709 -934 0
341 548 0
-695 579 0
279 -508 0
755 -594 0
195 667 0
-888 -727 0
497 205 0
-590 221 0
-407 -463 0
-829 717 0
-577 189 0
-546 -529 0
-888 -882 0
-491 -710 0
315 -628 0
535 -623 0
528 -298 0
905 -776 0
660 -695 0
197 137 0
308 -787 0
-912 -158 0
-914 237 0
912 373 0
382 -525 0
-731 417 0
-456 -629 0
280 27 0
811 941 0
-635 459 0
-415 947 0
199 509 0
-921 -325 0
-910 -797 0
442 -880 0
-607 644 0
-662 -172 0
533 291 0
844 -275 0
847 -522 0
297 138 0
-308 892 0
669 -46 0
-276 370 0
-186 -276 0
784 -936 0
287 -510 0
934 41 0
647 -841 0
-629 768 0
-635 -948 0
332 -720 0
-208 310 0
-165 133 0
-857 169 0
-882 -721 0
-275 905 0
-752 -599 0
-401 192 0
-623 193 0
189 -660 0
154 -562 0
210 -481 0
421 111 0
332 -883 0
-97 349 0
427 -226 0
-502 -622 0
518 174 0
252 89 0
293 860 0
468 867 0
-928 135 0
611 598 0
721 497 0
-677 -137 0
-561 387 0
428 -83 0
941 913 0
-289 841 0
-858 706 0
803 -401 0
514 -364 0
332 -807 0
-127 251 0
332 206 0
