c NF
p cnf 4387 2194
-4127 3833 0
-3635 -515 0
2994 1473 0
3235 1356 0
-2691 -1829 0
-3390 -3905 0
-2910 34 0
-2049 167 0
-228 -1925 0
2858 1179 0
572 2446 0
-3521 -2530 0
-4076 -2016 0
2027 2124 0
4261 -2165 0
938 -1045 0
-4372 -663 0
1753 1618 0
3638 -1865 0
3754 2548 0
-2140 336 0
-3721 1122 0
3169 4290 0
-3338 -358 0
327 -1302 0
2239 420 0
-866 1680 0
-1609 -3284 0
-3389 -1014 0
-115 -1202 0
-2587 -2134 0
-2572 2566 0
-3175 280 0
2651 -3196 0
-2472 3646 0
2077 55 0
2879 2282 0
1449 1889 0
-391 3499 0
3029 -2341 0
-4193 3923 0
3624 415 0
4241 2004 0
-2216 -2735 0
511 3013 0
-592 -4085 0
-4341 2251 0
-1077 4052 0
2705 -2152 0
641 -4352 0
2608 3708 0
4289 -1723 0
1361 -1226 0
3409 -97 0
-380 1564 0
-3129 4220 0
1459 1803 0
-2386 491 0
-322 689 0
-1001 -770 0
3660 59 0
507 1205 0
-684 2752 0
-2615 -1586 0
4004 -210 0
-3518 -306 0
-4356 -2635 0
1999 4028 0
-4028 -2839 0
3320 1200 0
1981 -4073 0
-2211 3269 0
4194 -4077 0
-1873 -1207 0
3341 1041 0
334 -3658 0
2213 3587 0
-690 1877 0
-3240 -3543 0
-848 1659 0
3286 -4096 0
-1430 -3706 0
172 -3123 0
3897 4329 0
4159 3660 0
-3361 -3604 0
-3058 2287 0
-2912 171 0
-928 -598 0
-2166 -2968 0
3483 2401 0
3867 462 0
2643 -3148 0
-2757 1959 0
3349 3592 0
2133 -758 0
-2533 -1684 0
1921 1218 0
2911 -802 0
-1710 74 0
-1677 -2740 0
3887 1277 0
3368 3412 0
514 439 0
3558 -3909 0
-3979 1826 0
154 1602 0
1452 -3331 0
-2006 1580 0
261 3733 0
-3651 -2698 0
-345 2787 0
936 3343 0
914 2618 0
-3570 2684 0
395 261 0
-1740 2846 0
-1702 -3041 0
2350 -1123 0
3445 2704 0
-1313 4301 0
-4142 -1365 0
-2954 -1484 0
217 1090 0
-2390 -4206 0
-1450 4343 0
-93 599 0
555 -2088 0
-3456 -4343 0
4183 118 0
-3010 -3492 0
-3325 1730 0
1905 2034 0
2734 2289 0
-2614 -653 0
-882 -439 0
-1135 -1684 0
-1571 1886 0
-3347 637 0
3573 -3800 0
-4020 1034 0
-3469 3927 0
3400 3399 0
2572 1667 0
2284 1110 0
-1037 -2605 0
-3369 -1899 0
3436 -608 0
352 2637 0
2219 -1048 0
2213 3147 0
-4087 -931 0
3531 950 0
-1813 916 0
-1169 2595 0
2727 220 0
2167 -2314 0
3529 -3020 0
-2545 2177 0
-1690 2265 0
-3459 -2392 0
-3894 -3992 0
-2497 -1111 0
2212 822 0
3050 3467 0
-55 3958 0
3861 -930 0
-4304 2577 0
-2572 2350 0
3279 2555 0
-965 -1130 0
-2883 2866 0
-1223 -2497 0
-2922 -1147 0
728 -86 0
703 4040 0
-1307 3355 0
-3464 -1131 0
-3223 3725 0
-3673 -3003 0
2839 -3077 0
190 -2220 0
-3784 4384 0
-3119 1342 0
-350 2198 0
-2612 879 0
-3309 67 0
-3182 -152 0
4206 3391 0
-4222 1145 0
-3821 3250 0
883 -782 0
3785 -3663 0
2842 -3609 0
539 2815 0
-33 1370 0
-1321 -1840 0
3199 1375 0
3095 -1676 0
-613 -5 0
3050 1386 0
-3438 2183 0
-4348 -3237 0
-2349 -2989 0
3428 2838 0
-1155 -3389 0
-2135 -631 0
-972 -3620 0
-80 -1803 0
725 -3054 0
-3780 3340 0
-1213 3804 0
1397 -1561 0
3915 3819 0
-641 2524 0
4340 4086 0
2720 4009 0
-3817 3680 0
-1452 2959 0
-2246 -4073 0
1496 -3361 0
-777 -1430 0
-2053 2684 0
-3517 2250 0
-1711 947 0
-1963 2334 0
-1788 -473 0
4277 3849 0
3341 -3628 0
-4226 546 0
-3619 2512 0
3820 -604 0
3318 -2419 0
-117 -2672 0
-4060 3003 0
3496 -1406 0
-2031 -2367 0
3100 2044 0
-1567 459 0
1038 -4138 0
4362 -2882 0
-3498 -2439 0
-385 1817 0
3156 -3778 0
-3626 -1019 0
2966 538 0
-3537 3112 0
2680 2472 0
-1821 2619 0
3129 1716 0
-2187 -367 0
3426 2560 0
3936 -2048 0
-3005 2398 0
2477 -2726 0
2666 2259 0
-4291 4028 0
-1079 -2363 0
3341 -866 0
988 1418 0
-4101 2150 0
-2903 2422 0
-4374 3235 0
3489 -364 0
-2264 -2375 0
-2133 -1054 0
2778 4101 0
-4258 -2539 0
2484 -3091 0
1219 -4172 0
1211 -2029 0
-2543 -3179 0
1227 -3250 0
2554 2417 0
1646 -1192 0
3713 -2204 0
4310 3664 0
3654 911 0
-1350 3119 0
2535 -1684 0
-3923 3226 0
2818 745 0
-1708 -1897 0
1626 3034 0
-2900 -1152 0
-421 -615 0
2272 -1839 0
-1201 -3386 0
-3415 3234 0
-2061 2319 0
1017 -1986 0
2244 -1235 0
-1631 -1500 0
-387 -2220 0
-868 -519 0
2560 3545 0
-1376 3944 0
-566 2022 0
2965 -421 0
2095 -1941 0
189 -3265 0
-4053 3143 0
-833 3168 0
4236 821 0
-2722 -1194 0
-2905 3774 0
-123 3994 0
-487 2942 0
-487 883 0
-4086 3666 0
-1495 -4230 0
262 364 0
2700 3654 0
-3377 -2560 0
3178 -1343 0
1750 -1904 0
-2888 3276 0
862 1578 0
-1627 -1049 0
2012 -1278 0
-3110 2852 0
4063 -4105 0
2555 1648 0
-468 -2321 0
1819 2678 0
4025 511 0
-2799 -1391 0
2383 -1593 0
779 -625 0
-4282 -1459 0
3133 -3700 0
-4053 1974 0
-130 -4210 0
-2381 812 0
-1875 661 0
3669 3052 0
-3496 -1373 0
-3207 -4345 0
2070 -3267 0
1043 -2232 0
1960 3353 0
-4281 -3253 0
2705 3286 0
-4356 -3685 0
3924 3737 0
-1349 4028 0
-182 2152 0
-3938 -1614 0
-1115 -826 0
2459 2747 0
4244 -319 0
-1078 2187 0
-3223 -3464 0
4023 3278 0
2844 -3844 0
2804 1786 0
-2112 -245 0
2649 2545 0
2142 3353 0
1132 -376 0
-766 -896 0
3707 -4201 0
3546 1570 0
4345 -364 0
-4271 -3938 0
-2155 -496 0
-3561 -20 0
-4280 2756 0
-2392 719 0
-4193 -4257 0
-2305 -2146 0
-4134 601 0
1092 3743 0
4265 -1072 0
1691 -2140 0
-2753 1460 0
1458 -3502 0
-3168 4368 0
1864 518 0
-1095 1581 0
3162 782 0
947 1437 0
-250 -4370 0
-1976 923 0
-477 -292 0
3600 -1713 0
3163 3873 0
-957 -3380 0
-2199 2433 0
-3606 -2011 0
1429 -1087 0
452 -2010 0
-2352 -2409 0
-63 3865 0
1907 703 0
-2802 -3145 0
2488 362 0
1607 -4278 0
4093 -1652 0
-1964 -1967 0
-3811 3270 0
-1208 -3808 0
-1109 -1849 0
-1680 1190 0
2015 4143 0
2322 -3641 0
-957 -3774 0
-4158 215 0
-3158 -1056 0
-3155 2177 0
2643 -3883 0
-1842 -1513 0
1805 -892 0
2126 2856 0
3993 2069 0
-2486 361 0
-3542 2207 0
-3169 2907 0
2962 90 0
-3163 2419 0
-2264 -968 0
-3071 523 0
-4073 450 0
-2527 1258 0
189 1885 0
-4331 2312 0
183 -1896 0
-4100 3664 0
-3433 -2013 0
2737 432 0
-3381 -750 0
748 -4180 0
3770 -241 0
-1078 -1293 0
-2950 -1293 0
-2258 -160 0
-3476 284 0
2981 -2472 0
2338 207 0
1731 -2573 0
-1172 -1186 0
3277 3497 0
3235 2182 0
1473 1663 0
2539 -3144 0
3789 -3702 0
4382 -1839 0
1711 -3237 0
4126 -131 0
3090 4080 0
-2016 -752 0
-547 2544 0
-1369 212 0
-2221 512 0
888 1962 0
-1911 -351 0
4264 -2940 0
-2935 1749 0
-3984 2559 0
-144 4024 0
-1279 4226 0
-908 -1657 0
1845 -2075 0
4311 -4249 0
-371 -3750 0
1072 4149 0
-1504 2352 0
-691 1613 0
-2130 814 0
-1032 3328 0
4082 3714 0
1974 -1675 0
-3257 -81 0
-3418 4103 0
-2718 -199 0
-2463 -3158 0
-2727 -245 0
-2547 3730 0
34 1523 0
-2021 2930 0
4208 192 0
-3549 -3761 0
-1182 2118 0
4381 -1023 0
3293 -1915 0
-2274 -3414 0
3587 2759 0
3287 -2727 0
1717 2433 0
2132 -1326 0
-1671 2686 0
1755 3190 0
4189 -2997 0
3278 -4365 0
-4014 1499 0
3608 -2285 0
1873 3016 0
-2201 -3906 0
-2775 4125 0
-3551 -3748 0
410 596 0
811 -2871 0
4014 3464 0
2690 480 0
77 -1572 0
-2920 -2041 0
3772 3662 0
-250 -650 0
3830 568 0
2083 3845 0
-330 -3080 0
-2435 -1800 0
4054 -3754 0
-226 2165 0
-1075 2239 0
-3504 -3936 0
-1482 523 0
1935 1263 0
-3950 2518 0
2170 3473 0
-3677 -3355 0
-1430 378 0
3524 1743 0
3725 1797 0
-2779 1482 0
1662 -1414 0
2388 -1545 0
4208 -4188 0
1992 -1047 0
-2744 291 0
1454 -58 0
-562 2167 0
3377 122 0
-1734 1771 0
1016 -429 0
-3161 498 0
-153 -3767 0
56 -3617 0
3236 2496 0
-2977 -4094 0
-3570 971 0
-1660 817 0
1050 2361 0
-2336 -2237 0
-129 1921 0
-2959 -1983 0
-3743 3205 0
1659 1254 0
-2833 -1373 0
-2226 132 0
2112 3613 0
-2743 -4125 0
-2200 -3803 0
-345 -1835 0
-3427 2323 0
3972 -2429 0
2410 -1777 0
-773 1398 0
943 2482 0
4007 2046 0
506 -3867 0
2770 1576 0
3819 1539 0
2831 2820 0
3998 3636 0
-3344 -4190 0
-2964 -1722 0
1856 -3568 0
-2960 3774 0
-301 503 0
-3644 4351 0
-1593 -3676 0
2494 -2006 0
-713 -2019 0
3025 -1543 0
-1078 -4095 0
1668 -265 0
-1291 4207 0
3051 1545 0
-2298 949 0
2043 2178 0
-1829 2346 0
1950 -2204 0
2703 1016 0
-446 2627 0
-2354 1818 0
4157 -4380 0
-1787 628 0
-2114 2081 0
-637 -3762 0
-3366 1315 0
1524 -2216 0
-777 2939 0
-783 523 0
-1860 2485 0
-3277 3835 0
-1406 2046 0
3021 -894 0
-1433 1958 0
-52 -4217 0
-3393 2580 0
532 -1075 0
3444 -1616 0
3365 1463 0
-2094 -2829 0
-738 1637 0
-308 134 0
-156 1625 0
-3637 -3854 0
-1645 -4057 0
1816 1585 0
-325 -4147 0
3191 4368 0
3524 3917 0
1920 4095 0
-1234 -2254 0
-2073 -2266 0
3210 -1737 0
2460 270 0
913 -3211 0
1970 3845 0
3005 1641 0
2333 -4292 0
8 551 0
-1219 -2884 0
-2681 -1767 0
-2668 4341 0
-3818 -3066 0
192 -3924 0
-3957 1667 0
414 3029 0
-2226 1195 0
-2325 -9 0
2773 -2028 0
3211 -997 0
-3328 503 0
-3555 1061 0
-4148 2496 0
-1837 -1608 0
1882 -4185 0
-268 2949 0
-1700 -2504 0
301 1555 0
-1159 -3964 0
-2062 -2872 0
1217 -2497 0
-1926 -3288 0
-28 1283 0
-143 -2599 0
1312 -769 0
-1940 3251 0
3717 3648 0
-4171 1794 0
2941 254 0
-2892 -3501 0
2969 -148 0
-3128 -2192 0
4167 -2364 0
-2074 -1801 0
-1526 -1495 0
-2987 -4266 0
1046 -1759 0
-1444 246 0
-3960 3731 0
-3066 118 0
-4022 -1207 0
778 -641 0
1776 -651 0
4245 -199 0
-1021 -2329 0
1216 -3673 0
-2584 -2083 0
-239 -1994 0
2662 -210 0
-3687 -4057 0
-3737 2770 0
3508 2444 0
-2721 -894 0
2245 3648 0
1763 -707 0
-1936 -4337 0
950 3631 0
-2941 -1375 0
-1681 -3514 0
3223 1857 0
-870 -1475 0
-2673 1071 0
2191 -1901 0
-2633 -4111 0
-3288 712 0
-774 3092 0
3298 806 0
-2080 3888 0
-712 3365 0
776 2518 0
-2589 -2567 0
-2611 -3630 0
-1097 577 0
-1059 -1821 0
212 -1075 0
4161 -1002 0
4361 -2572 0
-4085 3776 0
-331 -2359 0
3408 480 0
578 -1487 0
3217 1260 0
1005 -124 0
1101 -2691 0
-3857 -42 0
-4332 3533 0
7 -3453 0
2720 1732 0
1870 2272 0
659 -3152 0
-2244 -3344 0
255 5 0
3204 725 0
3128 -304 0
523 -2908 0
426 -2007 0
2931 -4350 0
-1200 554 0
-3058 3238 0
-3643 -3261 0
803 -3309 0
2094 -2221 0
-689 -2674 0
-1607 -1123 0
3119 -174 0
-1236 747 0
-1785 -4311 0
1794 2419 0
3728 -1179 0
-1568 -3944 0
4278 58 0
-1331 1655 0
-623 3534 0
-4258 2276 0
-2293 1061 0
255 1300 0
3487 -3809 0
-322 2761 0
3508 533 0
-52 -151 0
4380 -1111 0
-2771 3192 0
-3167 235 0
-1905 2070 0
-3811 2079 0
4245 -833 0
-3687 -3834 0
-2464 -730 0
-2835 923 0
-2850 932 0
-155 3990 0
-2909 2713 0
2552 343 0
-2619 3393 0
-3213 -1941 0
1510 2342 0
-3585 778 0
385 3688 0
3850 -403 0
3350 -880 0
-131 3755 0
-3790 794 0
714 -4207 0
4107 -908 0
-4273 3546 0
-4076 -3308 0
-218 -3782 0
58 2778 0
-1533 2692 0
-120 2225 0
-3797 -3154 0
-344 1412 0
2795 670 0
-1196 865 0
-4124 4040 0
-2495 1527 0
-2924 1325 0
-3543 -2464 0
963 3379 0
1365 -136 0
2840 581 0
111 -3077 0
-699 1948 0
-957 416 0
-3234 -1307 0
-4197 -3151 0
3907 -804 0
1204 482 0
721 -1521 0
4158 -2101 0
1673 -783 0
2684 4305 0
3851 -463 0
-271 2562 0
-2727 -2103 0
-3010 -304 0
1708 -993 0
4380 -1900 0
-947 3816 0
-395 -2140 0
-1634 3911 0
-2037 1153 0
2602 1101 0
-1591 -1544 0
132 -3821 0
-3088 2697 0
-2922 996 0
-2530 1815 0
3593 2896 0
-4382 1505 0
-470 1810 0
3708 -3875 0
-4068 -764 0
-3237 -1889 0
-722 667 0
183 -180 0
1750 -1596 0
-734 -2694 0
-4303 -2262 0
-4281 -23 0
-1327 -674 0
2345 1967 0
2791 3467 0
662 -1313 0
-4315 1498 0
-2642 -2070 0
768 4023 0
-1278 642 0
1881 2238 0
3461 -1815 0
1561 -280 0
1948 2764 0
-873 3664 0
-4176 1648 0
758 1679 0
4340 3717 0
-3788 -240 0
-4324 1103 0
-1976 2067 0
23 -678 0
2494 3972 0
1265 2954 0
-1533 -3708 0
-1936 -3115 0
3138 -1775 0
2877 811 0
-3888 270 0
4025 3727 0
-48 3131 0
3728 1196 0
-2165 -2670 0
-494 -2049 0
3977 -1021 0
1352 -4134 0
3839 -1263 0
1364 -269 0
1866 1964 0
3010 -1205 0
3444 -1927 0
-3764 -558 0
-3456 480 0
-644 -3447 0
2842 4102 0
-2189 -1931 0
919 3402 0
1417 -1027 0
3820 -2766 0
-1037 3530 0
502 -2685 0
2489 1385 0
3138 -171 0
-4138 3808 0
-3579 1003 0
-3570 2615 0
2908 2284 0
1012 -3182 0
3905 3620 0
574 3066 0
1602 -985 0
2071 -223 0
-1604 1737 0
-175 -2824 0
568 -1279 0
-1669 -764 0
201 277 0
2617 3715 0
-130 394 0
-2584 -1432 0
-982 -247 0
-345 -1021 0
2510 -1123 0
-1269 3544 0
3996 -221 0
2553 461 0
2845 3159 0
-1343 -3041 0
2477 1417 0
989 1535 0
-4024 4254 0
-2830 1593 0
3758 1285 0
2407 697 0
1758 2485 0
-2794 3100 0
-1883 3278 0
-1686 -2694 0
-2758 -9 0
2972 1069 0
-1321 -19 0
-649 -3032 0
2823 -3157 0
-1228 209 0
4333 539 0
1930 4354 0
971 505 0
-908 430 0
-387 -776 0
10 -3151 0
2155 -3458 0
-2411 819 0
2511 3971 0
2818 -4201 0
2982 -287 0
-2293 -3395 0
3053 -272 0
-3518 2929 0
-2385 -1869 0
4057 -970 0
-3940 2325 0
-40 2761 0
-3746 1923 0
308 -1829 0
1979 -33 0
-3954 2816 0
4366 3322 0
-3455 -1299 0
-845 2138 0
2900 3707 0
3727 -3803 0
276 -2214 0
-1072 2528 0
-805 3418 0
-3189 -1563 0
-3821 -2860 0
-2935 -1028 0
-3393 3889 0
-1543 -2409 0
3240 -3703 0
-2735 -1771 0
-3458 1583 0
1678 -2902 0
-941 -1006 0
-732 -353 0
-3564 -2721 0
1758 4021 0
3758 -3754 0
1166 -3957 0
3664 1511 0
1782 2773 0
3456 2067 0
2144 -2185 0
4144 467 0
2872 800 0
3926 -1056 0
-488 -3470 0
-4210 -390 0
2777 2988 0
309 2043 0
647 2276 0
-3300 3629 0
-463 -1906 0
-1252 1386 0
-1022 877 0
4285 -3150 0
-3176 3740 0
479 -3231 0
4112 -1010 0
171 -3726 0
56 2732 0
3676 761 0
530 -4372 0
-4255 2582 0
-3675 -3145 0
-918 -2318 0
-1822 2984 0
3068 3558 0
-339 -1349 0
1988 1277 0
1751 -104 0
-1241 3081 0
-878 100 0
1959 2559 0
1861 3550 0
1740 -3518 0
4239 -3813 0
3753 -659 0
925 3318 0
675 2955 0
-363 -885 0
23 -1671 0
-3486 -2836 0
-1560 3248 0
3035 2494 0
-951 -3917 0
-226 2225 0
1970 -2854 0
-1250 -4251 0
-1249 1095 0
268 1301 0
707 1845 0
2742 3593 0
-234 -1897 0
14 -1431 0
-737 -4270 0
-4171 -1017 0
2831 -1895 0
1197 -2225 0
1013 3730 0
-870 3033 0
2992 1309 0
-3279 4120 0
-3741 -646 0
1239 -2265 0
1083 -2606 0
2600 -1308 0
1952 3845 0
1171 2951 0
978 -1311 0
3946 -3597 0
3952 -2818 0
1427 188 0
-4385 3539 0
-876 -255 0
1374 -2379 0
-4160 641 0
-671 -3858 0
3978 2033 0
-3653 -1959 0
3246 -314 0
3670 -3811 0
654 -2283 0
2105 -2940 0
-1125 2030 0
787 2777 0
2037 1735 0
-4055 1180 0
3524 -2884 0
-2597 -2819 0
3214 2128 0
-3735 -2933 0
-703 -879 0
2252 -4209 0
-2795 -4385 0
-1575 -1567 0
-3312 -1293 0
-456 -1142 0
2875 274 0
1713 -2386 0
4004 21 0
1851 -1375 0
2227 2083 0
-3256 -2431 0
-1799 -678 0
125 -501 0
-2203 4013 0
-3354 -3338 0
-2986 -1210 0
915 3213 0
-274 450 0
552 -2294 0
69 -3592 0
-639 -1323 0
-3843 2051 0
-488 2169 0
-1874 -2427 0
-4192 1945 0
2870 2794 0
1070 -4318 0
4220 834 0
306 3491 0
-3984 -2221 0
-2296 3502 0
-2236 -1476 0
1534 -2263 0
-330 988 0
-2744 -784 0
2557 -3121 0
-2950 2434 0
-3721 -1840 0
-2288 -2534 0
1631 3473 0
-804 -1307 0
1379 -314 0
3147 399 0
-782 2993 0
2650 -852 0
-1287 3492 0
-3542 2268 0
-4221 -1050 0
-2341 2128 0
-973 -3875 0
-2687 2499 0
-1507 1177 0
-3783 2283 0
2407 3462 0
2084 3713 0
4325 273 0
-3602 2079 0
214 2770 0
-287 3986 0
-1804 1479 0
-2942 -2938 0
2117 583 0
2487 -1695 0
3764 3639 0
2551 -564 0
1433 3394 0
-3992 -3172 0
4017 -2569 0
-2940 1947 0
-3299 1678 0
2422 -2660 0
-3290 2097 0
-1445 -3338 0
-625 -2214 0
3212 -3216 0
-3241 -3998 0
-274 -2386 0
-4030 2831 0
-1459 -145 0
-2964 2440 0
-627 -3151 0
-880 -3184 0
-3675 2412 0
3703 -4239 0
3412 3665 0
3025 -1361 0
4373 2206 0
2931 -2150 0
-3296 3041 0
-4198 3318 0
2652 2159 0
3947 3910 0
-4298 -1574 0
-2377 -601 0
1947 1587 0
-376 3003 0
-3363 -3477 0
462 -1282 0
-3666 1598 0
3856 -1154 0
3231 -752 0
-346 -807 0
106 4319 0
-3352 -746 0
-3962 -1713 0
-716 1957 0
4362 -1360 0
854 911 0
-3087 -504 0
-1743 3416 0
647 2906 0
-700 -3884 0
2117 -2208 0
-305 4100 0
-3623 -1711 0
-1322 2664 0
-1678 2978 0
2119 -207 0
3934 -1895 0
859 -1423 0
3516 1815 0
1984 2957 0
-3486 -740 0
-292 176 0
-3348 -3246 0
2344 -4256 0
1181 1593 0
-4223 2743 0
3381 2451 0
3412 -741 0
-2705 4145 0
3793 1825 0
351 -3784 0
1432 -119 0
2752 2831 0
-648 1187 0
-1934 861 0
-43 4282 0
1673 -1690 0
-2830 -1214 0
4093 3277 0
-1535 3314 0
3242 1784 0
-769 873 0
-2861 -1114 0
-2435 2482 0
3590 2505 0
-3815 3506 0
2598 -1350 0
2539 212 0
-3867 4267 0
-3795 1781 0
4187 408 0
-2566 -3044 0
-1020 920 0
420 -1333 0
-2601 1415 0
2886 535 0
-3098 -597 0
1755 -1130 0
-1919 3743 0
-1531 3217 0
2569 2083 0
372 -3419 0
-3282 3899 0
-3716 -476 0
-2181 -579 0
-1565 -74 0
2261 -4 0
-2396 153 0
-2930 2110 0
2417 61 0
3011 -1617 0
3396 -1365 0
-1962 3243 0
-4332 372 0
-2411 1416 0
1036 -2250 0
-2432 -2981 0
-319 -168 0
-1702 -4273 0
-216 -290 0
3793 1262 0
3996 78 0
1547 3224 0
-3289 230 0
-3530 -3559 0
1499 -3584 0
1988 -1610 0
206 664 0
928 -2047 0
3928 -701 0
2555 -94 0
886 813 0
2929 1248 0
2181 2501 0
2407 3435 0
-2354 -1711 0
1887 -1732 0
2182 475 0
1204 4187 0
-4114 4370 0
-1954 -2027 0
-1647 -3339 0
-758 4102 0
-2794 3797 0
-1877 1389 0
-1467 987 0
-3432 -930 0
-2187 -3649 0
882 -3012 0
-3677 -2273 0
-1508 -3095 0
538 -3687 0
62 154 0
-1633 2909 0
3957 2233 0
1621 -2236 0
3865 3512 0
2531 4050 0
3670 3667 0
3487 -4379 0
3558 -3168 0
2397 -3064 0
-784 -2881 0
1780 -1155 0
3659 1039 0
-4019 -3878 0
2212 -3644 0
-2927 -1136 0
1136 -2105 0
2014 1725 0
-1230 -602 0
2748 2487 0
-2688 -454 0
3510 3973 0
-691 -2409 0
934 2932 0
-2 3457 0
-3044 4320 0
-402 -3104 0
-1107 -1753 0
4281 2044 0
-1824 2858 0
794 1928 0
-388 1425 0
-1835 -4305 0
2004 2147 0
1960 4351 0
106 -3963 0
2396 -2159 0
952 -4127 0
-467 -2572 0
-3464 -2377 0
-3600 -1350 0
1398 -3664 0
-974 -4094 0
-3786 3122 0
348 -627 0
-3504 -2819 0
1057 4176 0
3338 -807 0
-492 4124 0
-2466 -3543 0
1980 -3020 0
4191 -3646 0
-1003 -2221 0
-2595 -1102 0
-2293 2811 0
-3398 -4278 0
-633 -1211 0
-3572 -824 0
4156 -4209 0
1070 -895 0
-3401 -930 0
-1442 -3405 0
2514 2477 0
3510 3862 0
-2170 1535 0
3130 410 0
-391 2535 0
3723 -469 0
3632 -630 0
76 4303 0
2931 295 0
245 -2367 0
-4190 621 0
3041 3901 0
2052 -12 0
1027 -3452 0
-2761 -1393 0
3265 4341 0
603 -1702 0
657 -3655 0
-2892 -340 0
3545 3396 0
-79 3113 0
-506 3715 0
1539 -338 0
3579 -1569 0
2205 -2829 0
3122 -1443 0
1938 -833 0
-385 357 0
-2946 2330 0
2618 400 0
552 4356 0
2287 -1556 0
1718 2839 0
-2067 -3500 0
-2094 -2581 0
-2100 -3511 0
-230 -2371 0
-2420 3968 0
1955 -94 0
2580 -103 0
-2201 -1315 0
-2873 -3944 0
-830 -2363 0
1979 -3817 0
-1488 -1334 0
-3426 -3735 0
-4131 2828 0
-2189 3580 0
-3522 3638 0
-1970 4120 0
-384 719 0
1999 977 0
948 -2016 0
-2937 -3591 0
-392 4057 0
-3211 4335 0
-184 1844 0
4261 3675 0
-1214 -897 0
-321 -4002 0
3227 -2989 0
2267 836 0
-1805 -845 0
3110 1102 0
-2767 -2661 0
-2702 3854 0
-1140 -1622 0
-525 -3465 0
4358 2637 0
-2832 -658 0
325 -936 0
-2309 3552 0
3529 2239 0
4179 1935 0
-3062 -3748 0
1504 3138 0
2858 -2725 0
1764 1908 0
1057 922 0
-2593 -1393 0
-3108 1489 0
2095 -1355 0
1328 -360 0
-3655 -566 0
2346 -3581 0
773 3762 0
3873 95 0
3417 1447 0
2502 -828 0
1240 978 0
-249 -3247 0
3328 -715 0
-815 -4031 0
353 -2645 0
-3420 -483 0
-4200 -1010 0
1855 2238 0
-3597 4061 0
-1323 -3444 0
4180 -3557 0
-3739 -383 0
-1507 705 0
-92 3109 0
-1727 3651 0
487 2765 0
-1905 1512 0
-2405 -1851 0
-2107 4381 0
-1380 -2654 0
1336 960 0
-1832 1709 0
1971 2374 0
378 3527 0
-3778 -834 0
-2437 1357 0
3190 -226 0
-2543 -2249 0
82 2357 0
-1815 1274 0
1474 4244 0
-1248 3809 0
-3361 -413 0
-2601 -3218 0
3651 -3858 0
604 1153 0
2512 3997 0
1360 -3739 0
-1604 655 0
-3173 -2974 0
1371 -3060 0
2881 2258 0
-2414 -4088 0
383 3955 0
-2490 4158 0
2931 3737 0
-1000 -356 0
-336 2346 0
62 3340 0
468 -259 0
3982 3841 0
-2553 486 0
-3662 1165 0
2767 3679 0
3050 -3093 0
839 -485 0
-1798 1180 0
-3940 1068 0
3103 -561 0
2032 1601 0
3405 -820 0
26 4045 0
1857 -4011 0
4031 1242 0
664 3356 0
1867 3900 0
4061 -2280 0
-1211 3235 0
3931 1980 0
-3361 3185 0
3587 3974 0
2219 -3684 0
-205 3390 0
1560 2962 0
-1414 2465 0
-26 3929 0
2620 -1148 0
-2049 1248 0
-799 -1530 0
3394 935 0
-4071 1889 0
-2220 1585 0
1516 -1194 0
-1351 1054 0
-3723 2180 0
-2864 -3454 0
3335 -1661 0
-1861 3777 0
744 3251 0
-2800 4167 0
-1422 -3678 0
1247 616 0
-1008 2132 0
-2109 3016 0
-873 -2766 0
-1595 -760 0
2828 -3866 0
292 2812 0
280 3666 0
-3120 1144 0
-2940 1557 0
1170 -72 0
-2172 1259 0
2981 352 0
1482 2843 0
470 -657 0
-2435 -1628 0
3376 -177 0
2758 -1819 0
3054 3353 0
-2569 -790 0
441 -1906 0
3251 3594 0
-1395 -2870 0
-1970 -1015 0
-746 -1925 0
-332 -1004 0
-2 4074 0
-502 -1931 0
-3636 2095 0
1797 -4159 0
1234 2925 0
412 2097 0
-3117 -3284 0
1272 -2117 0
-3615 2488 0
-1569 126 0
-1033 -2879 0
-114 46 0
-1512 -54 0
-4079 3234 0
4275 2334 0
2007 -138 0
3165 -2368 0
-1767 -1111 0
3321 -2232 0
-81 -1056 0
-4088 667 0
1540 -2533 0
-2863 -895 0
2831 -2959 0
-935 3193 0
365 -431 0
3429 1212 0
1871 -2964 0
2852 -232 0
2105 -869 0
-4257 -1600 0
1614 -2083 0
3109 -3197 0
-1362 3334 0
3030 -2041 0
-1273 2553 0
-2880 2303 0
-1911 794 0
4012 4054 0
-2203 -4084 0
348 -1024 0
381 -3140 0
-3307 1446 0
-2321 1066 0
3482 3199 0
4115 1414 0
-231 -3261 0
-4263 1871 0
1554 2377 0
-92 659 0
-1757 -3600 0
3659 3247 0
-1586 1525 0
3043 -825 0
1996 734 0
1588 -3704 0
-2132 3812 0
-2020 -2989 0
1466 -1552 0
-814 3074 0
-1236 -2182 0
-3962 3384 0
4194 -2752 0
546 4325 0
2013 -700 0
-2385 -1509 0
498 -4026 0
-2360 -16 0
-2445 625 0
1585 3092 0
2992 2460 0
-927 -1071 0
-3808 3665 0
515 3016 0
939 3265 0
1141 -3807 0
-3081 -3328 0
-3055 1485 0
1856 4103 0
2213 4090 0
-2830 -1516 0
-1849 -2635 0
-3226 -73 0
-3015 500 0
3712 -3798 0
-834 832 0
-2979 3777 0
-3255 1085 0
1420 -322 0
1340 -838 0
2853 780 0
1385 -651 0
3073 -2993 0
3593 2100 0
2346 624 0
3715 -3763 0
2275 1467 0
899 -3376 0
-933 -3130 0
3830 1201 0
-1883 -96 0
2532 -323 0
-887 1467 0
1074 1683 0
2131 -3438 0
-737 1314 0
-2573 2994 0
3499 4378 0
-2925 -244 0
-3781 -3327 0
3454 1882 0
-3420 -3296 0
-4023 2086 0
3177 -4358 0
661 3917 0
18 2142 0
4287 -606 0
-2419 369 0
2143 -1368 0
2791 2432 0
-1929 -3150 0
2990 -3763 0
1493 -1629 0
-289 3168 0
224 4109 0
1211 -3535 0
-3397 2844 0
-3699 108 0
3068 -4387 0
2782 -3459 0
-1068 2703 0
-1961 1472 0
923 101 0
489 1036 0
-989 -4365 0
448 4285 0
2301 679 0
-2032 4285 0
1388 -1001 0
-261 -3754 0
-3188 3588 0
1544 -2001 0
-3678 1211 0
1285 4096 0
2838 3437 0
4188 3738 0
4259 177 0
1314 -2972 0
2211 2838 0
2731 2155 0
-3902 -828 0
1275 3949 0
-2882 -2705 0
3586 -3299 0
417 -2882 0
-3364 -1501 0
2810 -3347 0
-3129 -3525 0
2711 -4228 0
2364 1146 0
-3174 -443 0
-220 -4168 0
1183 -2573 0
-3938 51 0
2121 3762 0
4184 3244 0
143 -1628 0
2305 -3564 0
-1345 3422 0
2630 -3502 0
2140 1370 0
568 -901 0
3494 -4385 0
644 -779 0
3242 2195 0
983 57 0
-2562 -93 0
3457 -2295 0
64 3011 0
-1510 -1942 0
-927 558 0
3926 3130 0
1006 -2456 0
4107 7 0
3264 -3084 0
2334 -3739 0
-2087 3481 0
2734 -4171 0
3253 -2094 0
1088 -2135 0
448 628 0
1262 2319 0
-3854 3260 0
-3473 -1675 0
780 -998 0
-1006 -228 0
2518 3121 0
-975 2023 0
-4124 3894 0
923 1481 0
-3573 -540 0
-3857 1251 0
2772 -2459 0
4294 1958 0
3479 -3987 0
-3081 101 0
-4292 -3930 0
-35 -2400 0
4319 -928 0
-627 -4195 0
-468 1944 0
2945 -160 0
4182 -1310 0
3302 1038 0
4234 -756 0
2106 -3713 0
216 -3848 0
-3472 1854 0
-3140 3850 0
1720 1752 0
-1475 -2668 0
-1614 -3490 0
-181 2188 0
-601 -3398 0
2446 -4043 0
-2109 1627 0
-269 2556 0
-2492 -4140 0
41 2811 0
-2115 699 0
4165 -2386 0
-1315 -3260 0
-820 188 0
351 -3662 0
3772 -3620 0
-117 -3150 0
-4242 905 0
-4283 -1210 0
-2359 -4348 0
-1299 3982 0
53 1589 0
3869 -3475 0
1994 -2211 0
2664 -3104 0
98 711 0
1528 920 0
-3306 -1944 0
-2859 -1062 0
367 -612 0
3450 2453 0
1561 -1311 0
859 -3479 0
-4295 4315 0
-1517 -2878 0
3270 1389 0
-2061 4280 0
-3723 -3453 0
3394 1036 0
-619 -2736 0
2012 -4146 0
2339 -3103 0
-243 -175 0
-120 -4143 0
2035 -3154 0
3747 1305 0
176 522 0
1486 1113 0
-966 3266 0
3585 1165 0
-307 -4253 0
-112 798 0
-2727 -662 0
-3463 4119 0
3117 -639 0
978 -2802 0
888 3646 0
-2113 3571 0
-3331 573 0
-2016 165 0
-3311 3779 0
-2922 -931 0
-2148 -3527 0
3208 -615 0
1706 -3937 0
-4125 2039 0
-4062 -1996 0
-117 -1087 0
-3879 -41 0
2587 -627 0
3046 2260 0
-4227 4262 0
806 277 0
-807 3021 0
-1072 -3097 0
-2696 -4152 0
3771 1376 0
1258 -187 0
-2728 1856 0
1470 -3872 0
-3570 2143 0
842 -1325 0
-3936 2755 0
1893 -4250 0
-1878 1421 0
-2441 2362 0
-4221 -362 0
-1016 2155 0
-2471 -3108 0
2918 3974 0
1136 2331 0
-2074 4210 0
-1380 -2875 0
-1801 -1018 0
-2872 188 0
1369 -3002 0
-3482 2432 0
-1205 4368 0
4084 -3087 0
1732 2167 0
701 967 0
2744 761 0
1336 -2835 0
1287 2644 0
3520 1850 0
379 -879 0
4244 3066 0
3396 -961 0
-3338 -3943 0
3316 -1600 0
488 1118 0
-2032 3665 0
-496 2300 0
1236 -2595 0
755 3166 0
810 -2715 0
-4201 3511 0
-3868 2460 0
-2112 -1536 0
534 -1309 0
-269 1586 0
3826 1119 0
1656 2689 0
-2653 -2264 0
112 1562 0
-1642 -1737 0
8 1625 0
-3091 1034 0
-2404 2867 0
-2807 3312 0
365 -2801 0
-940 -2363 0
3248 1263 0
-136 2639 0
-4277 2420 0
-2903 -2605 0
2634 1447 0
-3388 675 0
-958 539 0
-1813 -771 0
2349 4364 0
-1033 2126 0
3970 -1354 0
-2318 -1100 0
3890 -619 0
217 2093 0
1537 -3324 0
-1075 -2869 0
4120 1854 0
1669 989 0
2143 -1637 0
-240 1882 0
-1494 -368 0
2008 -3119 0
2797 284 0
1716 3791 0
4065 3400 0
709 -894 0
-2726 1782 0
-1490 -463 0
2148 -909 0
608 2952 0
-1848 522 0
3692 3809 0
-1006 3694 0
-3803 -430 0
-454 4188 0
-3074 2545 0
869 3416 0
729 3250 0
-2205 3895 0
-309 -4243 0
2250 -2415 0
370 -2850 0
-1115 388 0
4234 -3483 0
-4143 4098 0
-3813 -3788 0
1685 -137 0
3471 -1896 0
165 2365 0
4234 3487 0
-2232 95 0
1036 -3063 0
4312 976 0
-2842 -1098 0
3219 -632 0
1901 -3940 0
-3515 -1929 0
1817 3144 0
4175 3381 0
-1998 3769 0
2300 -3664 0
-705 -3079 0
2081 236 0
3387 -3845 0
379 -107 0
-1535 1061 0
-3191 4090 0
2436 2846 0
-2181 -811 0
-265 158 0
-3757 -467 0
-3344 2780 0
1527 -402 0
1589 3528 0
-36 -2640 0
-2416 -4048 0
3495 1663 0
3011 3980 0
486 4296 0
2068 3692 0
56 4116 0
-394 4091 0
-1214 4020 0
-4042 -889 0
-3010 -4228 0
-2716 2064 0
-3814 621 0
-2128 -1826 0
4047 3655 0
3210 3323 0
3853 2637 0
-3334 -4335 0
-2915 3352 0
-2634 -2148 0
-3289 -2242 0
-2777 -4096 0
-311 -3798 0
4344 -4135 0
1277 840 0
-2835 -79 0
938 3128 0
-3243 1919 0
277 1183 0
-2631 3496 0
395 3777 0
833 -463 0
-3427 -1412 0
3673 4354 0
-3883 3909 0
-2886 -3926 0
1589 3297 0
-893 -1384 0
3350 -1090 0
-4029 -2559 0
763 3586 0
499 -2043 0
-405 -2979 0
-2280 1082 0
1967 3067 0
1170 4234 0
667 -1487 0
-2025 537 0
3226 -870 0
3664 -2003 0
1364 -2768 0
1945 -4007 0
3925 -3045 0
-3802 3423 0
-419 1247 0
-4216 -2415 0
1620 -459 0
1083 395 0
2928 143 0
1984 -2699 0
-2091 409 0
-3307 -2655 0
2986 4357 0
3926 3395 0
975 -1863 0
2044 1077 0
-57 -3195 0
-1413 -3416 0
-4234 2664 0
-1844 -2367 0
564 2415 0
1984 -3741 0
235 -1317 0
-84 512 0
-290 1019 0
-444 -2544 0
1649 -2707 0
-982 -3635 0
-1451 -2720 0
2745 1390 0
-3879 -1267 0
-3023 4044 0
2868 -2229 0
3326 -1551 0
-272 -2278 0
3129 23 0
-3721 1398 0
-1568 372 0
-2237 -3677 0
3366 -1002 0
-3173 1843 0
-4356 777 0
-1919 -4249 0
-1037 3026 0
-2462 3395 0
1455 -341 0
1820 3905 0
452 -1171 0
549 2856 0
1379 752 0
3186 97 0
917 -2604 0
-709 954 0
-567 -2109 0
-1814 2451 0
-2159 -3275 0
-1069 1394 0
1747 -4073 0
3391 4329 0
-3763 -2146 0
-3826 2388 0
2339 -2562 0
-2164 -1281 0
-576 -3439 0
-1669 757 0
967 3223 0
1685 1085 0
-3036 -4095 0
-2231 2658 0
-3314 2588 0
1356 -1677 0
3730 -2760 0
383 2011 0
-38 -182 0
-4174 441 0
-3143 -91 0
-1471 4351 0
1168 3011 0
1018 3004 0
-4052 -4096 0
-4083 2896 0
3539 2586 0
-1950 951 0
-931 -2882 0
-2476 1257 0
142 1573 0
-4126 670 0
718 3039 0
1872 3707 0
-1593 -2342 0
3905 -217 0
2772 -2685 0
-2145 -1976 0
-4168 -3234 0
-456 -4267 0
1294 -2674 0
2838 -2866 0
2724 2239 0
2585 3382 0
3447 -1642 0
1885 -2727 0
-4062 1960 0
2962 -606 0
1926 4017 0
-285 948 0
4320 2832 0
-534 -4182 0
1612 185 0
2961 3393 0
2189 -4368 0
1310 1437 0
3751 -1901 0
3154 -2267 0
-3809 1282 0
-1735 4369 0
1795 1891 0
-3940 -4022 0
-4008 -442 0
1838 4290 0
-2971 3841 0
-4030 -3855 0
-808 -124 0
2553 -1835 0
470 1458 0
-71 3523 0
-732 848 0
-508 3320 0
1067 2511 0
2213 -1939 0
4135 3849 0
3524 4112 0
2885 2404 0
321 2086 0
4018 -2164 0
2608 -4376 0
4110 1867 0
3596 896 0
-1948 3736 0
1400 3651 0
-1573 -3879 0
373 -377 0
-2041 1996 0
-1383 1874 0
425 -1834 0
1399 714 0
993 -2799 0
-3433 3668 0
1544 1396 0
-1199 -1610 0
-3415 3571 0
3069 2150 0
154 -1123 0
1946 1716 0
-2678 3505 0
1015 -1481 0
778 2425 0
2532 2962 0
2330 921 0
-3148 -827 0
2311 -203 0
-2218 -3581 0
-142 2013 0
-959 1856 0
-3115 1989 0
3223 -1195 0
-3574 3134 0
2557 684 0
3156 -1918 0
-634 1872 0
2325 1354 0
-1659 -3407 0
-2444 2719 0
528 -1759 0
-1210 2045 0
-3196 317 0
-1828 1784 0
-294 3170 0
-3075 -824 0
2645 1692 0
-339 -3987 0
-377 -933 0
