c bounds 228 255
p cnf 775 930
-378 -67 0
275 -13 0
473 360 0
292 443 0
-161 -107 0
39 -496 0
-651 490 0
-544 -36 0
-656 676 0
673 458 0
261 762 0
-434 757 0
-536 715 0
387 211 0
447 -213 0
-499 -683 0
411 -655 0
525 748 0
747 -552 0
-98 513 0
320 574 0
106 487 0
-491 727 0
153 574 0
368 439 0
439 2 0
-353 302 0
-90 110 0
-531 -766 0
311 619 0
463 -676 0
126 765 0
511 -122 0
-78 -168 0
-124 421 0
-623 748 0
283 -432 0
-190 256 0
-626 340 0
-699 -285 0
230 -397 0
-276 -285 0
732 -101 0
-277 243 0
46 242 0
-612 -754 0
293 -21 0
741 312 0
-647 421 0
-102 -772 0
-752 475 0
403 -344 0
-394 720 0
251 -390 0
-530 -425 0
453 408 0
-263 567 0
386 -4 0
-772 -229 0
-734 -764 0
-695 -626 0
-532 -281 0
-316 314 0
221 165 0
295 -517 0
663 -385 0
202 -315 0
379 357 0
-290 -34 0
-549 122 0
437 -66 0
-465 656 0
-42 -54 0
639 -177 0
-505 690 0
-551 -452 0
142 6 0
15 608 0
316 658 0
-451 -458 0
91 498 0
-282 -92 0
694 564 0
133 745 0
-157 289 0
-173 511 0
386 -120 0
-50 616 0
403 -575 0
-720 179 0
121 458 0
132 -648 0
398 -694 0
456 457 0
137 237 0
30 -656 0
365 -698 0
453 676 0
-224 -476 0
-217 22 0
-533 198 0
130 7 0
-591 -707 0
568 341 0
768 -186 0
317 114 0
-306 3 0
-670 -619 0
547 -213 0
553 -306 0
-97 -191 0
656 743 0
-538 582 0
352 -600 0
735 -503 0
532 -20 0
-614 -162 0
456 697 0
-757 -697 0
-721 -384 0
692 430 0
-550 -10 0
231 540 0
-436 591 0
-477 391 0
-710 -360 0
-537 202 0
181 -621 0
553 -323 0
-440 475 0
-440 383 0
213 275 0
-629 67 0
-155 9 0
-448 4 0
251 -491 0
-502 107 0
-381 -95 0
-338 -762 0
-123 -712 0
-7 245 0
324 753 0
-500 -627 0
76 746 0
314 -275 0
659 111 0
76 -558 0
741 704 0
-412 -17 0
-386 -306 0
644 -734 0
545 510 0
516 -353 0
-772 -676 0
-356 412 0
-129 -766 0
-424 630 0
491 643 0
75 598 0
-322 158 0
-342 628 0
-26 522 0
-685 192 0
-457 -273 0
183 -140 0
745 482 0
641 561 0
761 -148 0
-697 -726 0
-598 165 0
638 170 0
-264 -457 0
722 675 0
-38 553 0
-479 -26 0
-654 -771 0
-7 -605 0
-232 -171 0
244 390 0
48 -378 0
-619 -486 0
-503 311 0
564 -422 0
723 -661 0
725 -150 0
-691 -276 0
514 372 0
712 -640 0
292 587 0
477 -710 0
152 180 0
-661 725 0
138 -304 0
554 289 0
-183 -42 0
-607 769 0
219 5 0
-236 -543 0
-203 298 0
380 -102 0
212 -760 0
83 184 0
-54 -699 0
-242 -472 0
166 -459 0
91 -726 0
-351 233 0
-435 394 0
128 -99 0
280 438 0
-220 624 0
29 580 0
-727 201 0
-343 32 0
44 603 0
617 650 0
195 -579 0
27 245 0
597 522 0
-227 -318 0
-606 668 0
-74 -488 0
174 459 0
-446 -87 0
-541 609 0
-273 245 0
378 769 0
-417 104 0
-326 -298 0
-485 -528 0
-7 281 0
297 739 0
-37 337 0
275 404 0
-105 -271 0
586 620 0
664 687 0
113 -237 0
-541 -117 0
536 -505 0
-533 323 0
90 212 0
-500 -451 0
18 -383 0
110 678 0
-378 -217 0
-214 -584 0
243 220 0
-684 64 0
-481 -359 0
-28 59 0
51 437 0
-770 662 0
-377 533 0
-236 385 0
-129 -299 0
-476 -418 0
-670 738 0
557 751 0
88 -279 0
-476 -319 0
-187 221 0
-350 636 0
-326 116 0
83 41 0
600 404 0
-526 -322 0
-347 -549 0
-376 -73 0
-168 578 0
-145 352 0
91 532 0
180 -485 0
98 283 0
-270 -667 0
617 613 0
384 564 0
-559 369 0
221 724 0
-441 -374 0
524 77 0
405 469 0
-31 -550 0
-643 428 0
-119 -161 0
78 -562 0
141 -366 0
-230 -320 0
104 586 0
78 309 0
577 317 0
156 547 0
136 -353 0
733 343 0
-270 -245 0
-336 -41 0
42 -263 0
658 -416 0
-596 -508 0
-705 340 0
621 -125 0
-565 -176 0
663 -128 0
-163 39 0
-441 -411 0
-34 122 0
696 -366 0
-648 477 0
-270 686 0
372 659 0
487 116 0
-587 2 0
295 -618 0
497 -326 0
-563 -15 0
-583 624 0
-370 194 0
644 -9 0
-140 418 0
118 103 0
536 279 0
165 502 0
636 -571 0
-366 -429 0
744 24 0
-158 325 0
689 727 0
-670 65 0
735 765 0
-192 209 0
-538 -761 0
-711 667 0
700 -92 0
-392 -294 0
95 -322 0
-373 -626 0
-37 -428 0
494 137 0
98 227 0
-289 245 0
-506 -326 0
529 -411 0
75 765 0
365 593 0
-378 142 0
-429 191 0
594 -505 0
-397 454 0
-684 -129 0
545 257 0
5 337 0
763 -418 0
561 596 0
603 680 0
443 768 0
-746 301 0
492 -472 0
142 -566 0
152 696 0
-228 -37 0
293 -506 0
-761 -753 0
-288 -584 0
-67 582 0
-8 160 0
-732 -595 0
-467 332 0
-402 6 0
-501 -492 0
-719 346 0
-640 -102 0
-38 615 0
-400 -234 0
61 -271 0
-420 -287 0
-732 -505 0
227 653 0
-204 646 0
-760 -519 0
-51 -20 0
-569 -232 0
116 -219 0
-34 22 0
28 -674 0
-508 -258 0
-451 261 0
118 -629 0
-218 473 0
-345 -253 0
545 525 0
-343 188 0
380 731 0
-21 -338 0
-365 230 0
8 649 0
-199 -542 0
339 132 0
124 69 0
293 311 0
75 -681 0
-164 764 0
-312 83 0
-16 -476 0
490 -652 0
181 -412 0
473 9 0
-473 578 0
725 -105 0
-255 -340 0
143 -434 0
-738 -96 0
-169 734 0
93 118 0
58 676 0
153 -42 0
-94 616 0
770 730 0
-486 28 0
-189 678 0
-267 305 0
762 -459 0
-215 -643 0
-501 -703 0
-745 -446 0
-356 -702 0
3 -754 0
1 206 0
-368 -602 0
257 109 0
771 3 0
268 -307 0
103 29 0
-655 492 0
-330 -754 0
-100 237 0
666 -238 0
725 741 0
246 -723 0
-42 758 0
-723 -625 0
725 59 0
156 -329 0
-37 628 0
-39 692 0
306 498 0
-444 -753 0
-609 -579 0
-229 -735 0
-181 666 0
-389 -101 0
-173 -420 0
-607 -640 0
-520 468 0
-766 -518 0
443 -98 0
-499 -435 0
-293 442 0
-411 -286 0
-260 -632 0
-244 -432 0
-80 281 0
388 -304 0
-540 200 0
298 -433 0
464 120 0
-652 281 0
290 -382 0
657 -214 0
-576 -427 0
-250 -775 0
68 14 0
-237 235 0
163 442 0
-97 -125 0
-448 -366 0
310 553 0
-103 608 0
165 61 0
-232 296 0
-171 346 0
-304 62 0
-720 162 0
-353 -488 0
131 -424 0
-115 269 0
-218 -173 0
-647 -141 0
-148 769 0
683 150 0
-324 346 0
221 -261 0
-1 -526 0
207 -169 0
561 -244 0
242 590 0
-46 158 0
-731 249 0
240 -575 0
-676 -528 0
769 -591 0
262 -95 0
218 -207 0
388 284 0
564 -591 0
193 -305 0
-604 -290 0
-704 750 0
513 -437 0
365 -582 0
87 -635 0
15 -313 0
-748 547 0
279 40 0
578 -770 0
-139 465 0
221 27 0
518 608 0
390 424 0
81 -398 0
-478 -550 0
410 -505 0
269 -378 0
-654 222 0
-75 -521 0
-424 335 0
123 -213 0
-698 -257 0
430 -604 0
259 413 0
252 563 0
-318 513 0
37 -425 0
77 98 0
195 311 0
-442 -229 0
-334 41 0
-29 -32 0
485 -565 0
19 507 0
-508 -422 0
-701 81 0
488 543 0
-463 347 0
-551 -714 0
128 -101 0
-328 59 0
17 -392 0
641 -296 0
70 -299 0
187 300 0
-31 -708 0
-203 391 0
103 -622 0
252 -194 0
-208 -549 0
-471 498 0
727 -465 0
-604 -97 0
-139 -141 0
-306 640 0
390 775 0
45 774 0
200 491 0
739 732 0
8 -392 0
438 713 0
-491 -219 0
421 -592 0
745 -560 0
-78 -720 0
-583 416 0
236 158 0
676 -733 0
44 723 0
-703 -318 0
-46 -648 0
198 -386 0
-395 286 0
-112 -640 0
-221 28 0
192 -199 0
-752 598 0
-361 -260 0
598 -56 0
-755 -538 0
173 201 0
47 66 0
561 -540 0
-734 187 0
-167 743 0
-183 -425 0
-499 -77 0
553 -485 0
404 273 0
-606 539 0
-647 701 0
153 635 0
-550 121 0
-736 624 0
403 -319 0
459 -654 0
589 751 0
142 -336 0
-549 -535 0
170 556 0
-270 -19 0
618 586 0
98 56 0
-262 6 0
-234 -167 0
89 -134 0
574 -436 0
637 221 0
408 -169 0
371 -629 0
-236 -374 0
-689 -579 0
340 322 0
-301 387 0
-743 -159 0
65 561 0
-367 380 0
-710 418 0
60 -396 0
41 122 0
94 253 0
716 -76 0
193 185 0
-181 655 0
484 -287 0
-461 -215 0
759 280 0
187 72 0
466 -581 0
-517 -625 0
-356 202 0
625 -647 0
-77 -287 0
745 407 0
-636 -303 0
10 178 0
201 -244 0
128 -496 0
754 -109 0
-461 -269 0
-583 -145 0
716 -476 0
635 421 0
-559 -762 0
-77 32 0
-241 -269 0
520 386 0
-441 108 0
269 539 0
575 -55 0
669 337 0
584 456 0
-380 -204 0
610 -204 0
209 -61 0
683 -303 0
-654 -234 0
212 -260 0
-224 -183 0
425 339 0
-483 -334 0
-317 658 0
-747 -595 0
-720 -481 0
481 646 0
-647 187 0
-412 295 0
275 -556 0
-639 403 0
-142 59 0
-97 222 0
-88 -272 0
463 20 0
692 -241 0
-519 159 0
267 -500 0
-740 -320 0
-607 -500 0
170 26 0
-640 589 0
441 238 0
-629 311 0
-519 205 0
20 -584 0
64 703 0
457 -215 0
460 -591 0
57 637 0
-767 590 0
-15 493 0
-53 -35 0
667 388 0
537 760 0
140 -772 0
-349 646 0
-418 763 0
-482 -35 0
-185 -148 0
715 -265 0
477 695 0
589 -738 0
-704 -469 0
126 19 0
-629 -399 0
-145 -506 0
-321 293 0
600 -250 0
-753 76 0
-353 -775 0
-195 -320 0
-728 -281 0
257 487 0
424 515 0
-34 -520 0
-41 688 0
-219 520 0
-272 360 0
632 429 0
-162 668 0
-339 -581 0
-517 -425 0
-737 -191 0
-119 -513 0
447 17 0
-484 -5 0
615 706 0
260 612 0
438 219 0
261 -758 0
-381 -442 0
655 769 0
-267 11 0
636 335 0
135 290 0
492 -162 0
-194 240 0
-419 425 0
628 -280 0
-650 279 0
-267 -185 0
-363 -452 0
-7 -702 0
-770 356 0
401 142 0
664 -751 0
303 28 0
28 204 0
-761 14 0
-677 -439 0
-619 263 0
-662 151 0
-139 -239 0
606 24 0
245 -700 0
-54 -13 0
386 -70 0
-427 403 0
644 -676 0
-7 435 0
-580 683 0
448 -101 0
263 -626 0
20 -326 0
-63 -255 0
-517 -367 0
-354 -123 0
-392 -448 0
-32 288 0
-56 -424 0
81 -424 0
642 300 0
537 775 0
387 -729 0
-303 -1 0
722 -32 0
487 613 0
30 -224 0
413 529 0
-241 -596 0
741 159 0
-691 -341 0
-773 362 0
400 391 0
-159 -345 0
465 -17 0
64 186 0
-8 488 0
3 -281 0
375 768 0
-84 -180 0
-345 332 0
-677 136 0
504 -766 0
-458 -143 0
613 -606 0
329 -340 0
-303 441 0
48 340 0
347 -625 0
-366 727 0
-727 93 0
149 299 0
645 -505 0
-639 -214 0
-673 -619 0
-676 687 0
-272 267 0
-21 -767 0
715 301 0
450 -379 0
-199 497 0
-721 -373 0
-351 452 0
-214 447 0
-311 -227 0
-335 -526 0
375 608 0
-27 -670 0
484 -517 0
591 -79 0
-110 628 0
-302 759 0
36 -119 0
-618 115 0
426 -72 0
106 -650 0
-42 73 0
413 617 0
355 274 0
-96 503 0
334 -260 0
512 368 0
768 -444 0
-158 22 0
-484 -685 0
-550 -203 0
306 358 0
231 -31 0
582 528 0
482 -61 0
427 222 0
-502 -385 0
-278 556 0
-535 -90 0
-15 -7 0
-730 -607 0
-238 -670 0
413 614 0
569 -350 0
-770 -60 0
-417 634 0
492 139 0
-20 -248 0
-398 -606 0
293 -769 0
262 309 0
-314 -665 0
718 -219 0
-734 -287 0
-432 -765 0
-394 500 0
-87 -371 0
443 -61 0
-719 685 0
316 -543 0
-588 512 0
89 -272 0
40 74 0
-192 -698 0
246 668 0
-105 161 0
28 508 0
154 262 0
430 73 0
417 91 0
-368 219 0
307 51 0
497 -697 0
620 609 0
-298 -164 0
109 -229 0
193 -528 0
431 -554 0
-506 700 0
-758 515 0
500 332 0
-634 -674 0
687 -289 0
352 -646 0
-113 -481 0
-485 585 0
332 -625 0
131 468 0
-276 226 0
70 28 0
135 -494 0
-82 222 0
672 616 0
-289 658 0
165 571 0
-140 768 0
667 314 0
261 484 0
206 -639 0
-770 -583 0
-734 -353 0
-277 -352 0
511 -181 0
442 103 0
-317 -536 0
52 8 0
63 574 0
429 -327 0
-686 -268 0
172 -287 0
-565 496 0
-15 -540 0
-12 -250 0
-94 314 0
34 178 0
-296 152 0
209 -296 0
200 650 0
-412 -236 0
-140 -222 0
