c NF
p cnf 835 3423
378 -587 0
614 821 0
473 -267 0
-585 -724 0
512 -44 0
-823 10 0
-512 347 0
-602 -635 0
-655 -692 0
-139 439 0
-252 -753 0
570 614 0
468 136 0
-459 -482 0
-206 628 0
-66 730 0
518 -437 0
-380 530 0
576 435 0
-411 -52 0
-453 -427 0
393 -793 0
240 595 0
-418 468 0
-307 -636 0
-650 -96 0
-299 -675 0
-187 568 0
268 820 0
-653 -483 0
250 620 0
220 -820 0
-834 -287 0
428 -552 0
-384 72 0
34 442 0
143 -112 0
323 -679 0
22 275 0
208 192 0
30 -507 0
-835 90 0
224 -732 0
-403 431 0
299 -420 0
567 614 0
86 -64 0
702 -123 0
-494 -826 0
567 43 0
-820 322 0
463 18 0
250 -549 0
-326 126 0
533 -437 0
-331 -206 0
-299 14 0
258 195 0
-342 165 0
-427 -176 0
-697 -594 0
-298 -546 0
380 -18 0
532 471 0
-569 239 0
-327 -266 0
-289 744 0
-307 200 0
-740 -710 0
418 45 0
223 -723 0
-400 387 0
243 134 0
-296 -28 0
671 -260 0
-397 7 0
-795 648 0
652 529 0
259 -751 0
298 -254 0
125 22 0
302 -284 0
-91 102 0
123 183 0
314 283 0
-64 -589 0
-405 -227 0
769 253 0
-285 -318 0
830 157 0
707 651 0
-150 247 0
686 824 0
50 111 0
-178 -770 0
-259 812 0
646 -432 0
-688 732 0
-710 53 0
526 435 0
-798 -427 0
-150 -167 0
410 -528 0
339 -555 0
-291 262 0
-617 -485 0
250 446 0
716 -206 0
149 -42 0
-660 -56 0
-31 -708 0
803 480 0
564 -782 0
-680 652 0
-371 -127 0
-478 -609 0
717 -824 0
-29 -499 0
794 634 0
-80 -161 0
-194 264 0
-81 50 0
246 779 0
834 -77 0
347 -572 0
292 -266 0
279 644 0
-117 765 0
757 781 0
-236 385 0
234 673 0
301 -202 0
178 -624 0
-256 -816 0
568 -128 0
297 568 0
-300 159 0
376 -552 0
357 352 0
518 572 0
490 87 0
114 197 0
-423 -1 0
-471 -140 0
-822 -145 0
-674 -822 0
551 -343 0
-737 -287 0
-316 784 0
258 632 0
506 585 0
-751 -651 0
-70 739 0
688 94 0
-562 -458 0
-573 44 0
683 424 0
-503 165 0
484 447 0
166 691 0
-95 421 0
-820 143 0
764 -76 0
-677 -752 0
764 -314 0
-799 -184 0
-488 -712 0
-304 764 0
-158 -313 0
-75 457 0
-596 -612 0
562 827 0
-517 276 0
774 331 0
54 -684 0
-431 505 0
-165 -248 0
-496 27 0
-134 -562 0
-185 98 0
-546 480 0
-380 -162 0
-551 -16 0
654 -581 0
189 -18 0
413 -809 0
-539 133 0
336 637 0
511 334 0
246 785 0
146 -811 0
362 -303 0
306 -685 0
562 640 0
-711 248 0
-76 320 0
367 -611 0
350 202 0
-176 -555 0
352 305 0
104 -791 0
-377 -370 0
-590 -579 0
-826 363 0
-1 57 0
415 -799 0
681 818 0
-232 190 0
-369 -611 0
78 -422 0
-322 620 0
-760 280 0
-379 726 0
568 228 0
-809 407 0
808 743 0
-401 72 0
149 275 0
-618 -818 0
-469 812 0
-532 299 0
230 74 0
476 -364 0
351 17 0
166 -75 0
778 -47 0
-535 -834 0
779 -481 0
347 -551 0
344 335 0
607 -119 0
754 360 0
-450 801 0
347 -443 0
493 285 0
193 503 0
-653 360 0
352 -606 0
834 682 0
370 470 0
57 -596 0
95 -817 0
-80 -508 0
205 -135 0
-761 -283 0
142 38 0
-152 -727 0
112 378 0
187 -792 0
-644 -627 0
-759 391 0
101 -725 0
410 -675 0
-215 -254 0
693 -724 0
-435 477 0
533 -166 0
-383 658 0
-635 720 0
611 11 0
798 -518 0
779 812 0
-169 271 0
-608 -430 0
301 151 0
-604 270 0
249 -267 0
483 353 0
622 -647 0
-263 -80 0
-412 73 0
27 -439 0
143 -125 0
-636 400 0
301 -148 0
726 -311 0
-128 -707 0
-384 -719 0
571 94 0
-210 -623 0
-162 51 0
-13 99 0
790 611 0
-643 -325 0
505 801 0
-299 -66 0
-697 -747 0
-522 -309 0
230 -541 0
560 204 0
145 -557 0
349 -616 0
-474 -466 0
-221 -213 0
-667 -301 0
-37 146 0
-755 -567 0
-443 -300 0
347 253 0
473 -287 0
294 741 0
671 -3 0
481 -690 0
-162 -344 0
-81 -10 0
233 -733 0
-267 686 0
-791 605 0
240 393 0
95 -436 0
-330 8 0
192 260 0
-449 173 0
446 747 0
449 328 0
-642 61 0
-576 -443 0
550 -789 0
-737 746 0
-98 265 0
-181 614 0
409 588 0
-225 358 0
-130 -590 0
646 -352 0
-618 -303 0
565 582 0
-420 810 0
-424 -63 0
134 -59 0
-640 389 0
45 -179 0
662 501 0
-804 -423 0
-285 777 0
-62 -738 0
-153 -549 0
-536 257 0
-92 542 0
283 579 0
229 220 0
350 302 0
-251 -820 0
-496 98 0
-667 -180 0
201 -218 0
178 116 0
-324 698 0
-132 99 0
-189 -515 0
-156 216 0
-698 -450 0
122 350 0
341 724 0
-315 -75 0
-465 292 0
-113 -29 0
-318 -100 0
286 -460 0
250 -372 0
183 133 0
39 -570 0
-117 -137 0
19 -214 0
-145 808 0
734 585 0
-69 764 0
644 -355 0
395 787 0
-496 -292 0
147 -355 0
-719 -287 0
313 -356 0
744 -76 0
259 -378 0
-725 -206 0
323 729 0
-594 -400 0
-653 151 0
78 683 0
-413 806 0
-573 85 0
249 35 0
362 609 0
240 373 0
468 -122 0
751 614 0
414 -282 0
801 759 0
-434 -551 0
579 -285 0
-441 -617 0
537 318 0
-303 -328 0
-494 -336 0
-612 222 0
-31 444 0
-230 766 0
181 537 0
99 218 0
392 -306 0
-56 438 0
224 7 0
-324 538 0
-824 -705 0
203 -832 0
-531 -724 0
-186 -298 0
-669 -799 0
592 567 0
93 -478 0
-740 -743 0
302 -577 0
-824 -61 0
132 353 0
-309 -640 0
-252 562 0
604 -551 0
460 -727 0
419 142 0
448 117 0
-277 560 0
-756 260 0
-358 -412 0
-455 119 0
702 -529 0
-372 -708 0
378 -336 0
-643 -73 0
429 203 0
489 -798 0
333 338 0
-289 595 0
177 693 0
-344 -670 0
99 -519 0
73 791 0
56 79 0
85 -662 0
294 622 0
362 828 0
-526 -787 0
683 -153 0
-515 -653 0
595 -121 0
-623 219 0
-416 696 0
573 -236 0
45 -350 0
-96 -291 0
-819 730 0
133 -478 0
-785 -526 0
632 383 0
-196 -463 0
194 -134 0
-29 -738 0
796 455 0
-809 -325 0
-621 -389 0
-703 174 0
-643 316 0
-216 360 0
278 369 0
-182 -789 0
698 -736 0
-521 -427 0
-193 -780 0
-420 -324 0
568 -138 0
-671 -325 0
356 -763 0
175 147 0
362 -13 0
-663 273 0
543 -399 0
566 -555 0
-558 155 0
357 265 0
504 815 0
-666 -748 0
-292 -409 0
149 413 0
-609 -36 0
-351 672 0
-386 -388 0
769 -609 0
115 632 0
-293 544 0
-4 775 0
-708 454 0
511 -723 0
329 -752 0
518 554 0
-41 136 0
-788 437 0
533 334 0
-541 -662 0
-766 -289 0
-304 -521 0
-551 652 0
376 712 0
460 608 0
-138 -147 0
-472 -468 0
658 564 0
410 822 0
32 -815 0
-305 -751 0
496 -128 0
-354 -146 0
177 605 0
759 106 0
-481 798 0
384 -643 0
824 -439 0
368 -180 0
784 -340 0
-761 -382 0
504 -470 0
-52 -787 0
-543 -649 0
258 145 0
711 -800 0
8 798 0
100 53 0
155 -93 0
729 -4 0
-623 -12 0
-378 416 0
503 -785 0
-289 337 0
480 313 0
687 124 0
456 -806 0
238 -593 0
770 665 0
-573 -444 0
799 693 0
-16 495 0
-245 654 0
141 -365 0
-775 482 0
41 693 0
504 -285 0
-356 805 0
-475 -646 0
-603 -522 0
179 -834 0
-196 447 0
-522 173 0
-601 -232 0
807 79 0
-507 -474 0
-25 -828 0
245 490 0
-192 -512 0
-577 -592 0
-62 -288 0
-479 68 0
106 -597 0
301 397 0
724 -187 0
-163 528 0
-732 -323 0
772 753 0
-40 -342 0
-464 -503 0
541 588 0
69 -82 0
-65 -181 0
561 -266 0
78 736 0
788 -80 0
-64 -650 0
574 421 0
-127 -290 0
24 731 0
39 -222 0
-222 656 0
-145 49 0
-372 627 0
648 125 0
302 358 0
746 71 0
506 430 0
-450 -670 0
-196 -660 0
682 425 0
-257 258 0
-466 -704 0
682 -36 0
-1 -708 0
640 -811 0
-467 343 0
-28 -622 0
650 652 0
-834 294 0
584 22 0
16 10 0
679 376 0
589 518 0
-338 833 0
159 292 0
349 282 0
-691 542 0
-692 -376 0
-327 581 0
662 -340 0
-619 111 0
373 -604 0
285 2 0
426 -727 0
-118 -65 0
572 -687 0
-310 -83 0
-91 677 0
-365 617 0
-664 -745 0
93 790 0
-569 -723 0
-395 572 0
430 225 0
739 -260 0
392 -422 0
453 -254 0
-633 -127 0
-138 -543 0
261 795 0
584 526 0
-318 -533 0
-685 -162 0
-412 -399 0
-728 665 0
493 73 0
-444 -244 0
185 247 0
-781 -51 0
-383 -25 0
501 135 0
-337 394 0
-750 107 0
-553 -444 0
-606 316 0
446 706 0
754 -679 0
-268 732 0
-5 500 0
347 486 0
-338 452 0
-97 -437 0
-215 265 0
-23 -229 0
695 -770 0
555 -198 0
23 -139 0
-557 -551 0
-84 -3 0
320 -461 0
-381 87 0
70 -351 0
155 -254 0
-244 38 0
832 -329 0
524 -670 0
389 -76 0
600 -274 0
644 -728 0
103 147 0
-187 -93 0
73 488 0
408 -64 0
129 -146 0
532 681 0
-423 -70 0
671 -366 0
-824 -582 0
628 331 0
42 -318 0
-658 -807 0
-819 341 0
653 -608 0
125 654 0
-8 179 0
-379 614 0
-88 -835 0
421 489 0
-280 378 0
-104 645 0
-772 210 0
-597 627 0
41 278 0
-681 457 0
-727 -714 0
259 -79 0
649 638 0
396 21 0
-402 188 0
211 200 0
-680 -52 0
-785 -600 0
257 -345 0
-281 327 0
-272 143 0
-568 -679 0
25 -150 0
460 486 0
-103 -343 0
118 -740 0
728 -491 0
-1 191 0
376 -301 0
-650 426 0
458 -443 0
-488 831 0
-833 -340 0
27 177 0
231 -467 0
-287 -428 0
384 -824 0
466 -444 0
806 -182 0
-628 698 0
530 -819 0
-788 -438 0
-179 -515 0
378 -666 0
-763 279 0
-827 557 0
392 519 0
-640 -400 0
469 258 0
784 542 0
537 -140 0
71 523 0
-835 300 0
-324 159 0
250 303 0
825 -752 0
-86 119 0
575 5 0
468 -244 0
446 -237 0
-97 513 0
33 711 0
-76 -790 0
-391 -112 0
450 530 0
436 -18 0
-791 134 0
659 -126 0
-56 291 0
172 10 0
-458 823 0
-398 -16 0
-254 482 0
17 710 0
205 258 0
270 -578 0
-739 592 0
-315 531 0
-150 82 0
483 -345 0
-760 -153 0
212 -62 0
-237 280 0
-658 -196 0
137 649 0
568 -90 0
-365 744 0
79 -89 0
545 -217 0
-428 -80 0
-98 476 0
-304 -413 0
-441 699 0
-597 298 0
803 -577 0
505 -252 0
-777 581 0
-745 -226 0
249 595 0
718 -760 0
-485 -244 0
-665 605 0
611 309 0
4 -791 0
-286 -728 0
799 527 0
441 688 0
-470 283 0
805 112 0
-403 690 0
-552 345 0
568 -610 0
-252 -300 0
416 -648 0
703 314 0
-783 46 0
-59 559 0
599 408 0
511 561 0
-379 815 0
-725 -284 0
-701 -399 0
-324 489 0
270 779 0
-107 -827 0
-479 806 0
460 569 0
227 154 0
-584 320 0
482 737 0
-440 -256 0
247 660 0
187 455 0
124 -97 0
681 632 0
835 178 0
51 -787 0
-791 -88 0
-199 600 0
483 -212 0
35 -400 0
85 -195 0
-68 99 0
495 731 0
331 432 0
-425 -807 0
380 151 0
-44 798 0
-19 352 0
108 -359 0
630 -524 0
317 -682 0
-19 11 0
-513 -757 0
10 -338 0
773 -465 0
69 -580 0
-635 182 0
-578 358 0
-251 219 0
-206 -778 0
-400 -605 0
512 38 0
-373 -668 0
-327 -513 0
766 69 0
805 -192 0
-139 -415 0
810 -467 0
362 629 0
642 -412 0
384 -697 0
-266 -333 0
-42 -664 0
-680 91 0
-523 592 0
-715 -146 0
751 -642 0
-235 270 0
-610 172 0
-507 779 0
285 614 0
466 74 0
821 -45 0
120 -363 0
157 -352 0
-12 -221 0
835 301 0
493 -158 0
472 234 0
7 -783 0
207 638 0
708 -578 0
-134 806 0
-51 -674 0
-144 -504 0
525 -413 0
598 452 0
-285 -17 0
622 192 0
435 18 0
416 -222 0
-221 -761 0
-126 -108 0
-274 -419 0
-430 796 0
234 -802 0
805 628 0
-44 -535 0
42 502 0
-639 522 0
821 350 0
527 708 0
-381 720 0
734 310 0
-573 255 0
-596 -343 0
-303 303 0
-138 90 0
396 -512 0
-196 -162 0
336 312 0
-438 -653 0
-175 827 0
298 579 0
-369 483 0
716 -741 0
-383 39 0
779 -324 0
494 -104 0
94 474 0
649 533 0
501 -661 0
-514 241 0
546 -444 0
-314 376 0
542 -134 0
-664 243 0
-94 -444 0
147 738 0
405 -9 0
73 -415 0
732 -335 0
753 39 0
-354 -170 0
499 199 0
209 -189 0
-232 -572 0
-154 -342 0
-827 -20 0
87 -563 0
419 204 0
316 469 0
579 695 0
-804 592 0
378 -643 0
-128 -755 0
-221 224 0
-822 135 0
380 -379 0
545 544 0
-576 -730 0
301 -310 0
44 147 0
363 -409 0
-113 -728 0
-748 595 0
157 -16 0
-373 42 0
831 151 0
471 560 0
-393 181 0
-113 -311 0
-339 -799 0
499 707 0
413 444 0
-300 -629 0
272 -789 0
-127 21 0
145 160 0
89 -149 0
361 -126 0
416 60 0
50 232 0
-333 454 0
119 121 0
767 -150 0
722 -559 0
716 312 0
512 713 0
832 -492 0
-406 -288 0
201 486 0
-288 321 0
672 -545 0
568 -775 0
-37 65 0
-174 212 0
-572 85 0
231 124 0
561 -217 0
146 69 0
-177 800 0
149 -497 0
-276 688 0
-479 464 0
-198 33 0
-535 -334 0
119 -627 0
-500 -646 0
716 511 0
810 372 0
-18 711 0
531 -99 0
201 83 0
-18 -678 0
79 -228 0
-375 6 0
-570 -4 0
777 181 0
-262 254 0
-590 76 0
753 -155 0
-379 711 0
328 -399 0
-708 592 0
644 -691 0
239 291 0
-539 -155 0
805 567 0
-9 -358 0
-492 511 0
380 414 0
-194 -684 0
-304 190 0
138 -47 0
-588 531 0
-802 807 0
-266 625 0
526 -186 0
489 787 0
-619 314 0
-323 -209 0
-342 679 0
-269 -376 0
-254 249 0
-804 -684 0
-491 229 0
825 193 0
317 -678 0
-403 779 0
-52 13 0
-782 -809 0
574 -788 0
-702 122 0
143 733 0
-469 36 0
-496 -460 0
-1 4 0
540 732 0
-570 -430 0
-197 648 0
149 -355 0
-466 -195 0
-148 -425 0
-487 21 0
181 -649 0
778 501 0
-281 455 0
468 -786 0
-573 720 0
805 341 0
301 367 0
319 155 0
275 -357 0
-760 -48 0
-182 -564 0
-263 -793 0
-387 -547 0
-328 207 0
635 620 0
368 413 0
275 -38 0
-830 110 0
-375 -39 0
-782 525 0
632 -757 0
49 -154 0
-260 621 0
531 101 0
787 42 0
711 442 0
-601 806 0
-113 -417 0
-445 -725 0
634 672 0
150 115 0
-668 454 0
490 -637 0
-684 -5 0
-263 -51 0
-404 -138 0
-177 -199 0
395 223 0
-777 -291 0
306 205 0
-351 101 0
224 -513 0
187 2 0
145 540 0
101 189 0
-214 583 0
346 -297 0
560 102 0
46 -34 0
41 -467 0
-587 -500 0
597 216 0
159 -574 0
284 -424 0
-590 -774 0
134 27 0
-439 -199 0
754 -335 0
589 -635 0
-577 -293 0
664 302 0
-76 234 0
511 -813 0
-709 489 0
-516 166 0
134 -337 0
-186 -33 0
374 2 0
-408 -668 0
-399 648 0
103 682 0
414 -780 0
239 452 0
-582 648 0
-88 155 0
588 -810 0
269 549 0
357 610 0
-169 -52 0
-403 -372 0
344 -826 0
319 98 0
394 15 0
-353 -287 0
-27 -441 0
732 -803 0
-675 -156 0
243 106 0
-487 241 0
98 327 0
218 157 0
-12 755 0
554 -772 0
-544 499 0
-422 825 0
-325 11 0
249 -342 0
767 -288 0
-159 721 0
491 -31 0
-560 779 0
603 203 0
-206 558 0
689 -782 0
-563 -87 0
-127 232 0
620 -397 0
312 538 0
-3 563 0
429 565 0
-746 -233 0
340 -745 0
-37 43 0
589 -680 0
514 -806 0
-612 -781 0
276 329 0
-780 -517 0
-369 523 0
-802 170 0
767 -33 0
639 -303 0
-503 94 0
430 652 0
-494 -59 0
444 -233 0
721 806 0
652 -25 0
21 530 0
294 -678 0
-130 -406 0
832 -507 0
-571 -358 0
632 298 0
-44 101 0
-60 -666 0
-1 272 0
-731 -117 0
721 -347 0
-690 762 0
478 -666 0
-309 -441 0
-385 467 0
-13 584 0
-232 -656 0
-642 665 0
696 746 0
-256 276 0
-30 -674 0
-167 -456 0
320 818 0
-715 -742 0
-422 151 0
-304 637 0
673 238 0
672 362 0
614 528 0
-685 -280 0
491 -118 0
-123 662 0
77 -415 0
-551 -415 0
588 -815 0
-138 -497 0
299 -581 0
438 -793 0
521 36 0
243 767 0
103 -198 0
-240 38 0
-467 211 0
694 662 0
335 155 0
-405 -689 0
343 -679 0
719 -434 0
-816 -813 0
-214 383 0
-371 30 0
259 -257 0
-354 -512 0
305 798 0
441 -664 0
453 -118 0
161 380 0
158 588 0
295 -469 0
-428 208 0
-835 -530 0
331 -761 0
754 -570 0
-478 267 0
-640 212 0
-708 -649 0
331 346 0
36 -621 0
504 -383 0
635 -589 0
155 -144 0
133 -775 0
687 -399 0
-398 6 0
-65 648 0
-821 -835 0
668 -254 0
-541 522 0
-719 739 0
-155 -175 0
457 -415 0
-519 -734 0
683 417 0
-340 -515 0
-596 576 0
-144 649 0
-130 -775 0
-408 808 0
-666 407 0
-386 378 0
-449 79 0
-828 -394 0
-371 567 0
702 -724 0
-342 -322 0
-266 -446 0
-399 247 0
-349 604 0
-750 -409 0
-397 -402 0
-366 -401 0
418 109 0
-476 -739 0
111 225 0
-715 -196 0
-776 342 0
696 337 0
163 247 0
329 -562 0
106 -605 0
-489 455 0
167 -140 0
-591 -700 0
682 -666 0
11 394 0
562 -9 0
305 -355 0
410 -175 0
398 143 0
223 -496 0
-330 -653 0
791 615 0
-686 -400 0
834 -686 0
515 327 0
-33 344 0
-302 6 0
-123 293 0
175 -815 0
826 24 0
45 708 0
-751 -587 0
-255 -680 0
-546 -335 0
821 -807 0
-771 -751 0
-214 673 0
536 58 0
-381 333 0
294 252 0
-589 -284 0
-327 -444 0
-213 744 0
-786 740 0
-84 634 0
-119 357 0
-33 805 0
2 112 0
673 -93 0
381 -18 0
-603 373 0
151 -790 0
483 -594 0
173 -84 0
311 477 0
-746 275 0
-225 316 0
-644 701 0
779 344 0
-372 -394 0
465 -827 0
374 433 0
225 242 0
-110 -737 0
-254 -471 0
718 -150 0
435 178 0
357 -766 0
-29 -293 0
827 94 0
-512 -179 0
490 -519 0
-20 -708 0
426 298 0
-550 102 0
721 -400 0
14 216 0
228 224 0
459 220 0
272 -96 0
611 645 0
-207 -349 0
-218 -539 0
-57 440 0
101 268 0
-112 471 0
-761 529 0
-175 234 0
-1 331 0
576 122 0
610 250 0
352 -9 0
-150 -482 0
120 578 0
-744 115 0
741 425 0
-543 -181 0
-716 -461 0
-770 -448 0
-493 456 0
721 737 0
-807 -18 0
-62 -619 0
373 -579 0
412 537 0
-96 -134 0
748 41 0
-87 -34 0
172 745 0
487 542 0
-291 767 0
-196 -612 0
-279 -496 0
514 -558 0
701 -471 0
-819 -794 0
685 808 0
681 -451 0
-300 -813 0
-23 -771 0
262 -618 0
-420 471 0
577 6 0
615 696 0
789 -9 0
-58 -348 0
-507 -108 0
622 -786 0
-165 548 0
-60 -264 0
88 -34 0
357 35 0
-422 50 0
229 -772 0
781 -338 0
283 405 0
-262 339 0
579 -508 0
-375 299 0
-313 -203 0
-28 237 0
76 312 0
-184 828 0
-346 -492 0
281 -551 0
-127 49 0
416 -479 0
-578 -810 0
-657 686 0
39 691 0
184 -150 0
-198 303 0
235 -371 0
193 640 0
384 -685 0
223 -37 0
446 5 0
732 -621 0
676 745 0
-66 457 0
-309 595 0
145 -284 0
-266 810 0
798 313 0
753 -146 0
-265 35 0
-148 603 0
-774 -728 0
-798 -700 0
90 -101 0
94 173 0
588 60 0
810 -206 0
625 -698 0
195 702 0
-727 -616 0
-406 -331 0
-263 298 0
442 -634 0
-214 521 0
-335 76 0
330 -118 0
-97 82 0
177 -321 0
181 -137 0
-823 -777 0
69 -510 0
-305 -303 0
50 -446 0
671 79 0
50 154 0
245 -372 0
648 181 0
566 -596 0
383 171 0
376 758 0
294 -476 0
528 778 0
442 673 0
-62 220 0
-811 114 0
231 -344 0
74 -109 0
708 74 0
105 172 0
-583 792 0
417 -508 0
495 -664 0
401 632 0
-804 -233 0
-185 461 0
378 762 0
688 102 0
242 695 0
89 22 0
273 629 0
-87 775 0
30 339 0
650 391 0
439 50 0
387 -594 0
264 78 0
163 796 0
-96 -92 0
-179 142 0
58 52 0
-92 -110 0
636 30 0
-144 653 0
443 -517 0
7 608 0
-318 377 0
496 -311 0
85 682 0
-354 192 0
98 -170 0
-84 784 0
311 662 0
391 406 0
171 -472 0
266 384 0
506 -149 0
-402 105 0
-230 -612 0
592 -22 0
90 95 0
765 715 0
8 247 0
-323 381 0
-817 -551 0
-662 -303 0
394 528 0
757 -255 0
64 -829 0
-622 -735 0
253 -559 0
109 -733 0
-488 670 0
-248 247 0
-472 -605 0
-254 -483 0
-608 529 0
645 -16 0
683 269 0
-718 -776 0
242 -350 0
-239 -83 0
-96 784 0
611 -613 0
614 379 0
-12 719 0
-230 814 0
475 794 0
572 -317 0
688 -215 0
-119 174 0
-350 765 0
-462 693 0
-451 -439 0
-700 -105 0
273 618 0
-138 -481 0
-808 -669 0
-197 683 0
536 179 0
-623 93 0
555 -245 0
583 360 0
-781 -336 0
-340 459 0
-430 -98 0
267 -593 0
484 -290 0
-503 -781 0
70 566 0
442 717 0
-543 -814 0
569 633 0
-148 768 0
-377 218 0
593 132 0
-297 720 0
519 389 0
449 -732 0
343 45 0
-786 -254 0
316 -306 0
-603 84 0
-508 517 0
-324 769 0
308 78 0
-742 -256 0
-148 -685 0
-630 782 0
-310 -798 0
268 -580 0
218 -748 0
423 777 0
477 -287 0
-835 150 0
258 -687 0
205 -372 0
23 634 0
288 482 0
520 -233 0
701 289 0
-676 -252 0
-406 118 0
47 -799 0
694 241 0
764 -165 0
-44 -809 0
418 758 0
-150 -70 0
322 -288 0
324 305 0
-156 -99 0
-241 30 0
769 764 0
591 -377 0
378 271 0
311 -3 0
800 722 0
595 85 0
-275 -613 0
-194 -675 0
732 -602 0
800 370 0
-439 647 0
-405 -680 0
54 -293 0
701 -426 0
662 -756 0
-611 599 0
70 -485 0
549 85 0
-674 -639 0
806 -463 0
-441 -511 0
625 -134 0
-76 -791 0
-462 76 0
518 -477 0
-380 554 0
500 -613 0
204 363 0
129 -571 0
-349 -215 0
-92 -682 0
624 -196 0
786 477 0
511 433 0
-124 -83 0
767 -574 0
-227 -403 0
673 -13 0
-102 -144 0
512 -760 0
182 805 0
784 -171 0
-351 777 0
-634 -704 0
537 773 0
169 240 0
171 238 0
352 -3 0
-476 -199 0
6 -326 0
671 168 0
45 518 0
-728 -731 0
502 48 0
817 748 0
-589 -285 0
-650 -69 0
-346 -81 0
-407 -725 0
693 191 0
-570 -372 0
-688 572 0
622 343 0
138 374 0
-789 566 0
-104 791 0
297 278 0
-386 -91 0
-797 -543 0
-364 -14 0
133 590 0
457 335 0
-33 111 0
-558 360 0
322 800 0
498 419 0
652 -402 0
555 -160 0
448 -787 0
579 -270 0
795 -729 0
-536 356 0
-465 -353 0
38 521 0
672 -489 0
204 -552 0
89 -485 0
605 -137 0
166 -513 0
615 36 0
696 659 0
-713 -175 0
459 696 0
-306 227 0
825 -699 0
-398 731 0
-762 -547 0
-186 -13 0
-669 -170 0
-783 34 0
351 646 0
677 -533 0
729 73 0
614 617 0
-52 -683 0
530 291 0
-261 -222 0
704 -19 0
530 68 0
599 513 0
-655 223 0
-358 648 0
-530 -718 0
-474 726 0
735 -293 0
-678 667 0
-475 -551 0
-599 -274 0
-680 -494 0
123 292 0
-127 -212 0
489 -562 0
-553 378 0
97 -818 0
-403 151 0
183 611 0
-623 274 0
-214 823 0
601 -292 0
-492 -597 0
-59 494 0
-502 -736 0
543 312 0
777 -751 0
41 -314 0
-639 631 0
795 -602 0
99 -438 0
-392 -187 0
-314 -358 0
-360 -230 0
-641 392 0
-502 710 0
-70 -377 0
641 -794 0
-761 -636 0
-551 -612 0
615 -16 0
-776 301 0
114 217 0
-398 -725 0
-611 20 0
-820 56 0
-612 -802 0
-641 833 0
-749 -102 0
-51 -444 0
360 -591 0
-409 133 0
199 -75 0
-587 -220 0
304 -436 0
671 581 0
-559 389 0
50 -481 0
394 227 0
-301 174 0
292 493 0
722 487 0
-116 -691 0
-105 710 0
-176 696 0
282 -284 0
703 702 0
-289 292 0
794 -387 0
614 -683 0
-291 -642 0
-783 614 0
93 -192 0
563 662 0
314 -182 0
-123 -439 0
575 -500 0
-194 -326 0
-353 -162 0
-434 -792 0
833 -121 0
446 128 0
393 85 0
-20 -418 0
-291 -606 0
-371 533 0
517 585 0
587 295 0
-178 -724 0
-420 -324 0
654 -439 0
416 243 0
-70 506 0
317 -128 0
484 197 0
11 358 0
-288 77 0
-832 682 0
103 -449 0
-175 231 0
61 462 0
818 -760 0
51 -9 0
-83 -297 0
-149 -353 0
382 124 0
665 574 0
-66 812 0
-363 373 0
768 210 0
24 131 0
-600 254 0
219 -632 0
-31 -367 0
439 542 0
-153 -153 0
724 -445 0
-73 -287 0
83 336 0
-158 710 0
231 -784 0
220 -95 0
-342 187 0
408 118 0
107 -551 0
-195 -486 0
191 -627 0
661 654 0
-472 -609 0
-451 -198 0
36 365 0
664 234 0
-655 239 0
737 617 0
-596 -639 0
-153 680 0
448 415 0
-582 -81 0
-655 -476 0
-130 -309 0
574 482 0
631 257 0
-146 -773 0
-697 -722 0
-335 -466 0
-513 771 0
102 -196 0
-532 161 0
316 -108 0
-333 201 0
162 -637 0
610 -279 0
-551 -805 0
-766 -207 0
-666 6 0
-664 182 0
78 -239 0
628 -257 0
-663 145 0
-608 694 0
760 -492 0
103 -379 0
490 -584 0
-296 -453 0
-635 425 0
-636 -790 0
-231 -773 0
623 -655 0
723 -37 0
45 -793 0
315 -221 0
-361 -434 0
51 651 0
-124 339 0
760 -379 0
311 94 0
-742 458 0
-443 604 0
-228 -445 0
120 -359 0
152 339 0
-445 -323 0
-659 59 0
83 -88 0
-790 -358 0
726 -272 0
174 281 0
764 294 0
-66 -645 0
-509 -121 0
-697 729 0
-811 -721 0
426 -86 0
-756 -761 0
-289 -400 0
611 -87 0
811 632 0
103 -635 0
259 -731 0
568 -714 0
-422 -70 0
275 188 0
-567 540 0
-750 403 0
-283 173 0
-557 -312 0
-304 -255 0
101 -735 0
774 527 0
601 347 0
-542 -304 0
714 398 0
673 717 0
77 94 0
385 -196 0
455 -394 0
-98 -205 0
-693 -679 0
666 834 0
-751 -741 0
-322 -507 0
645 501 0
-87 628 0
-100 -23 0
2 -774 0
-785 -291 0
-408 188 0
330 442 0
-780 183 0
503 93 0
382 769 0
207 814 0
800 226 0
-477 -570 0
50 70 0
713 52 0
752 -502 0
28 495 0
-623 -679 0
-12 301 0
-445 57 0
-301 518 0
620 -626 0
107 155 0
-48 433 0
-724 -130 0
90 41 0
-138 -58 0
182 39 0
39 -515 0
-335 81 0
455 -334 0
-189 -214 0
-138 -827 0
-692 418 0
-701 132 0
-624 -280 0
316 -738 0
-621 551 0
228 805 0
-780 -88 0
241 104 0
45 351 0
-456 -608 0
-770 -96 0
743 641 0
660 -287 0
675 11 0
-187 423 0
-739 468 0
312 430 0
408 121 0
320 415 0
741 765 0
39 21 0
-82 -445 0
56 -350 0
337 698 0
282 -726 0
207 561 0
403 124 0
362 -572 0
544 671 0
-473 -775 0
74 456 0
242 -665 0
578 -535 0
310 -350 0
63 -288 0
-513 -458 0
21 545 0
-108 754 0
-670 141 0
346 -327 0
-643 -433 0
326 -318 0
-170 277 0
-130 -703 0
-171 527 0
-629 -818 0
-506 27 0
670 -315 0
61 545 0
301 671 0
7 -772 0
-799 468 0
73 -444 0
-794 -297 0
827 77 0
301 -523 0
-185 813 0
-129 242 0
-303 464 0
-516 -97 0
103 -29 0
-31 327 0
-192 -213 0
-214 484 0
581 35 0
-438 -582 0
-356 109 0
-110 331 0
410 142 0
689 -370 0
-590 -231 0
110 -252 0
661 -712 0
-830 -704 0
-377 283 0
-251 -494 0
-310 275 0
598 614 0
-568 -372 0
152 -3 0
-215 -708 0
-31 -128 0
-353 353 0
545 51 0
614 588 0
460 47 0
94 -209 0
757 -63 0
-546 660 0
734 542 0
-704 -571 0
148 -431 0
-97 -441 0
-333 -553 0
-664 -286 0
241 217 0
-730 322 0
-372 249 0
-28 -467 0
-261 -3 0
673 -698 0
477 334 0
89 -810 0
-661 337 0
239 201 0
682 145 0
327 654 0
756 -692 0
-237 -512 0
-266 -668 0
-59 -451 0
299 305 0
-760 -389 0
-715 -225 0
84 681 0
-608 10 0
-756 -435 0
-307 227 0
-436 -694 0
-519 625 0
231 -244 0
114 509 0
-739 469 0
-180 151 0
178 669 0
-256 322 0
-348 -172 0
-51 -578 0
-660 574 0
-669 73 0
538 555 0
693 -492 0
-513 78 0
-509 79 0
-486 268 0
468 -195 0
-104 -662 0
-708 -235 0
732 592 0
-631 -515 0
677 154 0
-324 127 0
-728 -138 0
772 -789 0
306 181 0
-628 -787 0
-322 10 0
-820 540 0
827 -685 0
129 438 0
109 -729 0
191 246 0
-84 241 0
-605 -214 0
821 259 0
-663 286 0
-273 -338 0
-794 -402 0
629 -46 0
490 2 0
794 -291 0
-558 -766 0
826 -491 0
-660 -666 0
106 -70 0
339 122 0
-660 -439 0
-574 464 0
631 -154 0
257 -218 0
794 -65 0
-287 691 0
234 101 0
256 -140 0
810 691 0
-5 482 0
-669 337 0
-783 276 0
-561 -590 0
815 566 0
292 -428 0
-82 602 0
466 812 0
-334 -602 0
515 -196 0
-535 -566 0
-199 572 0
-428 -274 0
-149 -59 0
271 229 0
-381 -597 0
790 346 0
803 -434 0
-116 300 0
-9 157 0
175 -534 0
220 38 0
835 654 0
-826 -540 0
619 -577 0
-60 -52 0
-502 -356 0
-400 -282 0
-819 -305 0
531 -427 0
510 -198 0
-445 -113 0
77 -244 0
438 -237 0
-670 43 0
360 686 0
-577 -92 0
438 130 0
-359 -472 0
269 555 0
-436 557 0
129 -326 0
-290 199 0
-236 266 0
-814 218 0
-570 225 0
-176 492 0
-346 145 0
695 -186 0
-670 408 0
-582 510 0
321 -52 0
22 -481 0
-666 -369 0
147 -544 0
-636 596 0
-690 787 0
542 -819 0
573 784 0
-123 583 0
283 779 0
551 -400 0
-464 391 0
608 -165 0
-356 258 0
835 -337 0
-591 44 0
-135 -361 0
-153 -318 0
669 -272 0
-274 415 0
-524 -75 0
-788 381 0
676 492 0
339 -181 0
217 -232 0
-589 493 0
691 -451 0
824 247 0
208 -517 0
-631 -719 0
-776 -261 0
133 362 0
-28 -343 0
-545 200 0
-715 -126 0
568 -647 0
-653 -470 0
212 -141 0
151 229 0
357 179 0
321 -773 0
834 350 0
-117 405 0
-70 -23 0
-813 369 0
136 -226 0
-238 368 0
-793 -453 0
644 658 0
568 -543 0
-819 -5 0
617 -771 0
346 -158 0
-637 -527 0
-454 510 0
-247 -612 0
374 14 0
-34 -498 0
-147 408 0
-430 -116 0
253 528 0
-763 196 0
517 646 0
-198 -81 0
-206 192 0
-416 743 0
-562 -65 0
547 205 0
554 -656 0
-573 16 0
800 -389 0
-236 -405 0
-447 -632 0
-284 -729 0
27 -664 0
-736 -222 0
53 -198 0
-737 795 0
-447 -718 0
-411 -589 0
-139 520 0
800 -679 0
61 395 0
-491 188 0
225 -536 0
598 -209 0
526 504 0
-265 -101 0
277 42 0
473 -543 0
246 218 0
24 677 0
711 416 0
-642 -797 0
378 -17 0
-774 541 0
-590 -750 0
17 -266 0
-94 -296 0
240 781 0
24 689 0
-791 -370 0
-474 245 0
-614 -19 0
-315 157 0
581 523 0
140 -524 0
-485 637 0
544 -609 0
-786 752 0
-364 -759 0
231 -830 0
115 255 0
-176 414 0
508 -593 0
-477 625 0
-383 -10 0
41 -733 0
-332 555 0
698 -552 0
384 320 0
-427 -648 0
-718 -394 0
832 -692 0
-552 264 0
-650 -785 0
-427 279 0
-287 485 0
-476 -630 0
281 258 0
-507 -745 0
-221 -437 0
-366 -802 0
-518 -165 0
231 -770 0
-226 -274 0
-802 -64 0
471 697 0
-673 234 0
-808 373 0
417 -706 0
617 677 0
-712 784 0
-461 502 0
565 -656 0
-113 704 0
520 247 0
36 -489 0
282 -500 0
229 388 0
688 -611 0
149 -735 0
381 -742 0
59 713 0
505 -407 0
505 -604 0
-613 183 0
-507 29 0
207 -237 0
523 -597 0
339 384 0
-443 -151 0
-574 275 0
-154 63 0
569 -776 0
-665 -337 0
-402 45 0
416 789 0
677 712 0
644 758 0
-704 -405 0
-421 800 0
798 -257 0
812 -306 0
357 1 0
-740 36 0
-189 -52 0
672 205 0
-442 -519 0
278 -715 0
471 -818 0
801 -277 0
-23 614 0
391 -63 0
101 831 0
-709 -676 0
153 -818 0
-46 67 0
-653 -52 0
-755 -515 0
-733 341 0
797 525 0
276 -230 0
181 -627 0
-612 756 0
-737 750 0
798 240 0
508 -318 0
768 -423 0
173 436 0
219 -384 0
-414 -578 0
522 -675 0
-47 596 0
344 391 0
-108 -782 0
506 -195 0
264 119 0
-558 -127 0
-669 -409 0
468 -13 0
821 101 0
-377 328 0
-479 -811 0
101 -4 0
584 -276 0
569 77 0
532 85 0
527 -116 0
146 -238 0
72 26 0
282 -790 0
273 -304 0
-381 524 0
679 -428 0
-828 324 0
301 74 0
687 -738 0
530 312 0
781 -168 0
-309 666 0
-534 702 0
-326 406 0
-345 -186 0
50 -371 0
-284 -160 0
-75 15 0
233 -409 0
768 680 0
813 -162 0
109 48 0
188 740 0
-595 408 0
404 657 0
-23 -392 0
-16 -500 0
-390 -444 0
506 -807 0
-338 -412 0
120 -529 0
-166 -328 0
235 -407 0
-430 810 0
329 133 0
73 657 0
487 432 0
-609 -597 0
336 -301 0
482 827 0
-624 -16 0
-475 -21 0
778 335 0
-222 -458 0
-147 545 0
497 -165 0
-739 119 0
-441 -160 0
-354 14 0
-414 -325 0
-519 -62 0
-213 -3 0
701 -471 0
10 769 0
270 125 0
-805 -353 0
195 565 0
-490 14 0
255 2 0
546 90 0
421 -144 0
535 -422 0
706 711 0
-709 -186 0
-556 51 0
702 294 0
-424 -654 0
525 -223 0
-441 56 0
545 -704 0
707 487 0
540 767 0
518 -271 0
239 -429 0
286 777 0
-498 499 0
-750 -723 0
392 -258 0
-485 -33 0
-756 -803 0
-687 483 0
-600 393 0
-535 -32 0
440 352 0
588 -684 0
305 -781 0
607 -314 0
14 -820 0
352 -649 0
-456 -269 0
-433 -276 0
200 410 0
-440 -12 0
-49 -254 0
-652 -185 0
-694 -571 0
-416 701 0
-264 -509 0
8 -348 0
-201 -276 0
-391 489 0
582 -261 0
-656 -280 0
-804 150 0
-293 692 0
222 -804 0
9 73 0
-685 -276 0
-820 -272 0
137 42 0
-182 -76 0
454 -198 0
-338 -248 0
461 152 0
449 -607 0
-492 -163 0
-402 -83 0
20 -5 0
-730 -760 0
373 -289 0
435 -337 0
56 224 0
595 -322 0
-733 -644 0
-116 411 0
610 -421 0
449 -519 0
828 676 0
579 -111 0
-310 -724 0
-659 -221 0
-236 -163 0
-145 -134 0
463 116 0
-820 433 0
-37 -608 0
-783 104 0
333 247 0
506 -446 0
210 488 0
-447 544 0
-279 -60 0
-727 62 0
307 34 0
225 270 0
555 238 0
-338 623 0
-366 -165 0
161 -380 0
361 135 0
424 166 0
751 -265 0
-405 442 0
-315 -288 0
-557 671 0
441 38 0
142 764 0
319 333 0
201 188 0
-694 568 0
-221 -711 0
-556 24 0
-399 -485 0
-793 154 0
-332 -32 0
-286 -280 0
205 373 0
-719 287 0
526 -823 0
-151 137 0
421 -564 0
-151 11 0
58 -509 0
-120 -660 0
758 689 0
-683 360 0
-636 193 0
-747 49 0
-76 800 0
69 124 0
137 352 0
-293 757 0
-335 -702 0
-112 349 0
-108 758 0
688 -360 0
-228 -56 0
461 11 0
-111 -814 0
782 530 0
614 179 0
91 -618 0
644 288 0
-791 355 0
-13 548 0
436 -269 0
73 345 0
564 -178 0
-100 -321 0
430 63 0
151 -378 0
-668 665 0
-72 -398 0
227 777 0
504 -572 0
604 -348 0
61 -634 0
429 99 0
448 351 0
-314 336 0
-435 -386 0
-233 -537 0
-157 -541 0
-738 406 0
433 363 0
-649 -8 0
672 575 0
-775 658 0
-808 -387 0
592 342 0
74 474 0
415 721 0
-112 116 0
689 -78 0
-498 665 0
63 363 0
-75 -311 0
-802 -334 0
-266 703 0
696 550 0
149 695 0
89 58 0
-474 -29 0
-138 -162 0
240 759 0
430 -440 0
477 94 0
-639 706 0
-59 -772 0
-52 407 0
-552 337 0
-16 -523 0
410 370 0
-322 -12 0
669 -127 0
460 84 0
327 799 0
701 -179 0
716 -372 0
-156 330 0
-789 393 0
803 743 0
-189 159 0
-587 -392 0
-258 360 0
-797 -594 0
577 312 0
335 -386 0
-441 -678 0
-423 -383 0
-536 741 0
117 -221 0
806 -641 0
-377 831 0
-297 558 0
181 281 0
242 -269 0
801 -138 0
-600 -196 0
501 319 0
-824 -346 0
-120 688 0
531 484 0
-830 -84 0
417 -87 0
-643 -403 0
-627 -159 0
319 -543 0
-488 -180 0
404 -698 0
11 187 0
-535 382 0
505 825 0
211 -802 0
-291 537 0
538 533 0
663 -783 0
595 613 0
-519 605 0
24 -215 0
279 144 0
638 -786 0
342 -70 0
167 55 0
548 30 0
-820 -619 0
362 58 0
-781 758 0
-559 373 0
-691 -140 0
131 183 0
-312 -397 0
-485 -195 0
608 -44 0
-64 830 0
647 548 0
-276 22 0
-709 660 0
570 -361 0
-759 808 0
486 -387 0
-635 155 0
312 190 0
-659 726 0
164 6 0
-540 527 0
-225 -443 0
161 -639 0
-213 449 0
741 711 0
606 622 0
73 -773 0
753 767 0
-494 -475 0
-608 649 0
136 241 0
-649 702 0
825 -775 0
463 610 0
-670 -5 0
-723 429 0
599 825 0
581 -155 0
-175 -710 0
391 -677 0
-58 99 0
520 -203 0
-546 -61 0
-809 69 0
-499 107 0
-244 -371 0
595 517 0
-69 -766 0
483 271 0
246 -280 0
-83 -777 0
89 275 0
109 364 0
-458 -462 0
220 142 0
2 688 0
296 -144 0
331 603 0
584 541 0
787 200 0
344 -763 0
-558 459 0
-259 243 0
834 -486 0
-511 -123 0
-173 -185 0
-616 -355 0
255 57 0
726 -127 0
320 193 0
-606 -807 0
279 171 0
111 -89 0
-701 -685 0
740 -596 0
625 197 0
438 -470 0
-613 475 0
172 39 0
-727 182 0
621 -117 0
229 -56 0
758 -602 0
-127 176 0
-696 143 0
647 414 0
141 660 0
-613 308 0
719 -606 0
284 705 0
367 158 0
-818 115 0
529 432 0
-737 646 0
-83 363 0
756 -315 0
-369 -441 0
-751 453 0
-43 -709 0
825 -357 0
-740 523 0
-53 -797 0
319 -751 0
360 114 0
239 -434 0
-643 295 0
243 170 0
-141 73 0
-56 742 0
-345 711 0
25 243 0
-637 226 0
-274 -458 0
-749 -148 0
-371 520 0
258 -158 0
542 493 0
-596 -763 0
203 -815 0
52 -513 0
-790 79 0
-684 -383 0
625 533 0
473 -38 0
610 86 0
220 498 0
453 -574 0
-182 129 0
-87 716 0
359 125 0
157 -751 0
714 388 0
748 -150 0
463 62 0
477 -524 0
-38 -70 0
-760 -783 0
610 624 0
25 833 0
-775 493 0
-18 404 0
108 648 0
122 611 0
-208 -232 0
433 -675 0
-439 224 0
174 276 0
-564 220 0
526 145 0
-128 -332 0
-792 -234 0
1 641 0
741 77 0
795 45 0
-245 504 0
-780 34 0
-814 -186 0
-754 -328 0
188 -206 0
-666 -642 0
218 -433 0
251 825 0
-256 -189 0
569 409 0
786 -736 0
-288 -17 0
38 163 0
-124 722 0
143 81 0
437 -804 0
688 -398 0
610 -57 0
-422 -141 0
240 -78 0
-656 -233 0
72 166 0
197 -818 0
381 295 0
273 -586 0
-97 -39 0
229 -178 0
402 449 0
-165 35 0
-308 -304 0
-596 336 0
720 -464 0
-565 203 0
246 -728 0
-236 -276 0
-343 717 0
592 -650 0
777 -339 0
-724 460 0
831 69 0
119 249 0
555 -547 0
405 498 0
646 -263 0
42 -434 0
455 482 0
61 641 0
-72 -822 0
-323 414 0
-500 177 0
36 452 0
-200 -819 0
421 -524 0
52 486 0
715 747 0
684 188 0
-162 505 0
219 416 0
166 632 0
792 803 0
444 320 0
482 264 0
-152 -403 0
258 27 0
741 -56 0
298 226 0
747 503 0
-90 -405 0
406 -776 0
245 27 0
-742 754 0
-342 -54 0
-754 -780 0
-548 58 0
-497 573 0
722 -613 0
343 94 0
370 -592 0
-476 -266 0
-515 391 0
453 -276 0
-637 702 0
-447 -36 0
-269 -383 0
-740 68 0
164 676 0
-386 320 0
27 -306 0
55 21 0
576 432 0
-42 -170 0
307 -186 0
732 -543 0
-681 -337 0
-587 -702 0
-487 674 0
129 -494 0
-74 30 0
440 -92 0
-456 743 0
-508 -81 0
-803 -627 0
8 -490 0
489 671 0
-375 -180 0
15 261 0
-810 -650 0
-284 -815 0
-62 -211 0
48 -698 0
-83 -519 0
-235 249 0
253 -443 0
-223 317 0
-84 128 0
643 -472 0
113 -187 0
-352 -749 0
-120 430 0
505 -683 0
-407 -135 0
67 693 0
687 414 0
-417 -229 0
-623 155 0
613 -458 0
-311 35 0
559 -75 0
601 -84 0
-832 -47 0
468 334 0
-681 -642 0
-187 -592 0
-451 254 0
101 -740 0
-237 518 0
-465 -776 0
-417 101 0
525 366 0
224 652 0
-184 484 0
505 -652 0
220 700 0
-721 -83 0
17 304 0
-505 620 0
-515 -717 0
-60 -39 0
24 -306 0
-789 579 0
95 363 0
299 -625 0
-788 -187 0
318 -789 0
305 546 0
705 -361 0
176 646 0
301 -700 0
335 -737 0
-541 281 0
824 -479 0
346 -733 0
233 -335 0
-507 518 0
-698 -323 0
567 48 0
-596 336 0
644 680 0
-291 487 0
-251 564 0
820 277 0
373 56 0
-379 -462 0
310 -697 0
765 -54 0
-76 238 0
-606 462 0
376 614 0
-80 419 0
535 143 0
-103 228 0
-396 193 0
-741 68 0
-637 152 0
489 -613 0
545 -357 0
595 828 0
-727 807 0
-600 654 0
457 -771 0
312 105 0
-176 -630 0
-402 -649 0
-252 286 0
451 -244 0
560 430 0
-5 795 0
-524 -765 0
-375 -289 0
805 -505 0
286 -110 0
-756 238 0
502 72 0
683 -660 0
-638 -175 0
203 -588 0
-133 243 0
159 -627 0
201 -205 0
8 654 0
57 -100 0
289 159 0
486 -714 0
-54 540 0
174 759 0
694 157 0
-402 -232 0
-341 281 0
-177 -835 0
22 -451 0
-57 -54 0
661 -574 0
-318 -520 0
-613 34 0
-366 -782 0
-120 -28 0
-770 -50 0
-553 414 0
-311 372 0
-237 49 0
-619 -611 0
278 -274 0
-745 163 0
-636 170 0
-650 -288 0
20 224 0
-269 133 0
729 723 0
628 410 0
-497 -435 0
289 -580 0
-65 -692 0
-725 -792 0
89 -284 0
207 211 0
-153 -515 0
259 -118 0
49 211 0
-271 239 0
518 -634 0
-303 -427 0
-636 477 0
-455 -19 0
-182 745 0
-29 15 0
457 -540 0
-68 -571 0
396 661 0
17 -745 0
-557 -770 0
-350 835 0
17 802 0
-369 251 0
-130 493 0
234 262 0
-77 -627 0
-291 -665 0
468 790 0
-512 419 0
-824 -348 0
15 807 0
-811 -824 0
71 -390 0
-651 135 0
330 -320 0
-650 812 0
413 -786 0
-692 -406 0
726 118 0
-16 -39 0
394 -706 0
-260 203 0
-274 137 0
-301 -739 0
643 -443 0
-558 -559 0
128 544 0
-381 561 0
-612 -324 0
-305 -311 0
674 -233 0
547 -551 0
-189 -472 0
-169 -724 0
241 743 0
-474 749 0
327 -797 0
-48 -297 0
-478 -290 0
676 9 0
-232 663 0
-407 -190 0
-80 250 0
-738 429 0
36 774 0
357 704 0
-44 -436 0
241 63 0
107 711 0
-590 -401 0
-80 191 0
469 -531 0
74 -19 0
-126 351 0
250 -409 0
-602 807 0
798 -788 0
561 -661 0
617 -162 0
111 -743 0
-186 -375 0
414 672 0
346 -602 0
58 -550 0
344 758 0
764 194 0
525 641 0
-341 -422 0
36 695 0
758 805 0
-565 312 0
-476 247 0
-186 326 0
-162 99 0
-636 662 0
236 171 0
-658 -406 0
-46 -629 0
698 -184 0
164 482 0
-418 -802 0
-37 655 0
86 -424 0
-760 -751 0
-747 -199 0
-664 452 0
286 246 0
562 -4 0
-67 -637 0
605 564 0
-85 -666 0
-780 277 0
-236 527 0
-18 787 0
-739 46 0
-336 -811 0
109 572 0
768 372 0
224 -484 0
-9 330 0
57 -584 0
-222 735 0
510 179 0
617 219 0
624 -290 0
461 30 0
-263 -184 0
430 -626 0
627 146 0
257 -569 0
-28 -512 0
-583 -397 0
-116 799 0
-288 -619 0
611 -91 0
6 513 0
85 -345 0
58 -289 0
-171 -464 0
752 -25 0
643 -740 0
-256 -84 0
244 -87 0
-285 -180 0
-318 374 0
13 -167 0
403 560 0
157 -572 0
-523 408 0
-756 399 0
68 -111 0
-306 -16 0
-687 701 0
292 -736 0
119 218 0
285 58 0
282 -696 0
-348 125 0
654 374 0
314 734 0
-422 -146 0
687 731 0
440 -49 0
528 544 0
-73 93 0
228 291 0
-84 -502 0
-194 357 0
163 -399 0
-75 83 0
-651 447 0
239 608 0
150 -148 0
-79 -386 0
-297 -250 0
-53 68 0
39 765 0
-220 240 0
806 577 0
46 -826 0
-330 -405 0
-46 -826 0
267 -337 0
672 166 0
141 172 0
-269 -481 0
-491 -260 0
-478 558 0
591 -260 0
146 -517 0
756 -9 0
704 526 0
686 344 0
538 -5 0
732 -51 0
545 -85 0
-524 351 0
109 757 0
-562 55 0
-448 -766 0
-292 72 0
495 -269 0
825 392 0
2 -464 0
-371 -318 0
-32 382 0
-409 -508 0
468 -435 0
37 -635 0
105 -274 0
-317 -285 0
-108 -653 0
209 764 0
-83 125 0
-815 105 0
-555 7 0
643 281 0
-23 -596 0
-675 -171 0
206 -602 0
538 60 0
-809 643 0
-495 -290 0
-335 579 0
554 545 0
74 -75 0
-670 -565 0
666 278 0
10 -428 0
69 -590 0
-694 238 0
352 -305 0
205 362 0
615 -570 0
-614 -176 0
-332 -552 0
-591 -766 0
-134 125 0
-311 687 0
584 286 0
575 378 0
677 -5 0
425 599 0
-385 749 0
-397 -88 0
-110 -635 0
124 278 0
-760 451 0
-84 30 0
36 601 0
477 191 0
662 494 0
185 693 0
489 121 0
593 -751 0
551 142 0
817 204 0
-463 463 0
640 425 0
-361 687 0
522 -588 0
-164 491 0
54 -287 0
-218 -516 0
-760 -533 0
263 -206 0
276 -19 0
833 -149 0
-605 -724 0
729 747 0
151 147 0
-515 575 0
-324 -465 0
719 89 0
-285 75 0
-209 -79 0
-790 -391 0
759 -515 0
-593 -457 0
-623 -672 0
634 111 0
-481 -122 0
72 131 0
693 801 0
369 -597 0
-783 175 0
236 -507 0
250 -339 0
691 506 0
569 -529 0
528 -742 0
777 -295 0
367 -442 0
641 -14 0
-639 -618 0
-81 -508 0
284 -182 0
376 -509 0
-669 -559 0
171 -783 0
-366 -302 0
-831 -752 0
-84 -551 0
-46 -183 0
545 -168 0
-790 -420 0
234 79 0
705 -587 0
357 -257 0
-69 393 0
-450 792 0
-50 -690 0
-731 159 0
