c NF
p cnf 1202 1082
-204 758 0
576 -443 0
556 -1173 0
472 -958 0
125 14 0
-29 -486 0
-1004 -542 0
-96 -639 0
-958 -41 0
-406 -321 0
912 -891 0
1083 471 0
519 -208 0
-261 -321 0
595 -934 0
136 -488 0
74 1119 0
-1104 -267 0
-411 -123 0
-333 1112 0
1188 -795 0
-639 -297 0
315 894 0
-339 -785 0
24 -306 0
-1052 -617 0
-183 6 0
-387 428 0
1118 -165 0
567 931 0
877 346 0
-445 1009 0
-298 -190 0
-741 854 0
936 -148 0
-319 -1065 0
746 741 0
-242 723 0
726 -689 0
928 47 0
364 611 0
907 1197 0
683 1000 0
214 -950 0
-639 -973 0
675 -372 0
-782 -918 0
-309 133 0
819 706 0
623 -621 0
-439 348 0
1107 911 0
839 815 0
-942 362 0
-973 1185 0
-970 836 0
-105 -789 0
-913 1078 0
88 -1127 0
369 -641 0
1032 -372 0
-470 577 0
-789 995 0
-602 981 0
-30 -108 0
-1062 1080 0
-267 180 0
711 397 0
983 -1043 0
-925 791 0
-371 -302 0
536 334 0
-524 682 0
500 -880 0
-373 -65 0
809 629 0
806 364 0
-676 145 0
193 -210 0
604 1001 0
280 -906 0
-917 -46 0
100 458 0
-647 1023 0
920 390 0
-872 755 0
-707 -1177 0
859 285 0
24 -846 0
-1163 1136 0
-832 -1106 0
-464 1175 0
155 -744 0
568 294 0
215 -341 0
-498 640 0
-632 717 0
1069 -1096 0
1082 1199 0
224 897 0
-427 794 0
-143 -997 0
-617 953 0
-921 -905 0
208 -320 0
-624 -401 0
-485 927 0
1133 -1134 0
428 -1019 0
177 1096 0
147 932 0
961 -769 0
278 -488 0
-191 -868 0
442 -536 0
-927 -980 0
-1160 930 0
1022 47 0
-372 -74 0
-343 999 0
-102 191 0
447 347 0
444 1046 0
-49 -43 0
-648 723 0
-1109 1154 0
-185 765 0
-1009 772 0
198 86 0
1081 -303 0
-631 -40 0
-314 -309 0
609 305 0
27 -455 0
568 -848 0
1098 1195 0
-410 643 0
-668 93 0
-1192 -653 0
-157 743 0
18 583 0
779 699 0
878 949 0
-157 -1042 0
-962 1024 0
429 -778 0
848 564 0
148 117 0
1177 -724 0
114 -137 0
-1142 836 0
-489 -905 0
42 -764 0
1150 430 0
257 -996 0
72 1040 0
-287 379 0
-967 1128 0
1085 460 0
-639 800 0
107 523 0
21 988 0
-1160 912 0
643 175 0
-102 -397 0
35 -1087 0
150 95 0
-814 -438 0
-206 292 0
-968 -212 0
603 -972 0
418 883 0
-450 -339 0
-887 975 0
1001 -745 0
-97 987 0
1049 -673 0
-693 -673 0
95 147 0
-604 -141 0
-143 -168 0
-345 278 0
611 279 0
-23 1110 0
-359 1077 0
-910 1082 0
558 -497 0
727 654 0
265 307 0
-957 -1067 0
268 -31 0
907 278 0
-1013 125 0
-966 -730 0
1101 -459 0
-895 489 0
1193 -1093 0
1094 -874 0
991 292 0
153 1110 0
-456 -1116 0
145 420 0
-916 544 0
181 -775 0
-676 223 0
1148 281 0
-637 970 0
-1105 534 0
-297 -90 0
931 -368 0
-1146 884 0
-796 -813 0
-795 571 0
6 1043 0
-1180 525 0
553 605 0
-729 -315 0
-275 210 0
-238 -1117 0
-805 1031 0
721 -839 0
1041 364 0
688 4 0
952 -171 0
-314 1022 0
1072 -789 0
424 756 0
-534 642 0
115 453 0
-952 -395 0
404 -526 0
460 504 0
577 1021 0
877 1083 0
-301 521 0
-208 -778 0
-573 -949 0
358 693 0
-1025 -289 0
-1034 -1189 0
883 158 0
504 -520 0
-726 -773 0
-715 1041 0
772 -949 0
72 568 0
-950 841 0
164 479 0
600 -89 0
704 466 0
75 -1126 0
-1097 428 0
-959 772 0
-886 -885 0
735 -475 0
-441 413 0
-71 1086 0
-165 5 0
107 -209 0
483 280 0
-377 23 0
-162 529 0
362 -179 0
-54 -1038 0
300 -606 0
1170 145 0
-89 -45 0
-203 925 0
-144 -887 0
93 949 0
219 421 0
1172 250 0
191 663 0
1125 -653 0
1149 -1163 0
1186 -326 0
1053 1064 0
-1060 -896 0
903 107 0
-31 -1020 0
-938 -308 0
-123 312 0
371 -751 0
-748 -1076 0
164 -435 0
-456 -680 0
-505 -523 0
998 643 0
729 1195 0
869 -422 0
723 -239 0
1171 149 0
-657 811 0
582 -414 0
1070 -168 0
-377 703 0
167 561 0
756 -361 0
12 -559 0
-309 -1028 0
-30 -281 0
-1034 -905 0
261 -923 0
-939 -389 0
490 -704 0
422 -1134 0
-505 -856 0
-841 -712 0
-373 -12 0
-32 -213 0
978 12 0
-397 523 0
50 -108 0
-771 -842 0
15 813 0
988 207 0
-1046 -395 0
-935 676 0
299 -670 0
-867 657 0
-1104 -996 0
-1125 -461 0
-460 319 0
-997 -680 0
706 180 0
471 601 0
-1074 296 0
-527 351 0
-847 -929 0
426 606 0
-837 558 0
26 -311 0
-786 -297 0
-374 -395 0
574 68 0
-1134 75 0
-8 -461 0
439 -185 0
-139 976 0
576 -609 0
-621 993 0
1183 703 0
1020 -53 0
-685 501 0
-76 514 0
-973 -871 0
-388 296 0
464 613 0
-439 217 0
1080 581 0
859 733 0
-267 -868 0
728 -112 0
-91 -1092 0
181 559 0
372 882 0
683 -113 0
-946 -172 0
1023 324 0
-1011 426 0
376 -668 0
-946 305 0
391 1071 0
764 -752 0
-607 627 0
-633 1031 0
-1145 338 0
-770 -64 0
-669 745 0
-781 -648 0
49 611 0
-251 -274 0
-716 1189 0
401 -563 0
-17 711 0
296 -103 0
-454 920 0
-569 -394 0
-274 682 0
376 792 0
1074 441 0
-1006 -714 0
580 1180 0
-330 -862 0
-262 -641 0
-285 -701 0
-461 657 0
-161 -946 0
-76 -794 0
1092 845 0
1019 -165 0
-996 -653 0
410 1155 0
-363 213 0
309 -333 0
-26 -427 0
779 -522 0
1123 -988 0
577 -1178 0
-690 -1019 0
704 -541 0
-348 -873 0
-112 -476 0
859 -1155 0
689 -508 0
-888 -719 0
222 -264 0
-1130 -881 0
-1173 145 0
-625 -667 0
-913 -562 0
-1101 783 0
133 1164 0
-881 -346 0
219 -758 0
1102 149 0
1084 -596 0
84 -129 0
66 -221 0
283 -186 0
433 385 0
-512 -1194 0
853 -907 0
-952 -609 0
-1023 201 0
480 557 0
-945 772 0
58 1180 0
-1022 589 0
438 -1077 0
392 746 0
-225 21 0
1026 -714 0
-1054 222 0
155 -973 0
758 107 0
-589 -157 0
700 -956 0
-934 -593 0
-709 300 0
-157 510 0
417 -399 0
1102 -62 0
-495 1076 0
-211 -819 0
-230 1041 0
1168 35 0
-64 -694 0
598 -560 0
-266 -44 0
-361 1053 0
-143 280 0
558 1075 0
-399 -1129 0
-674 717 0
579 -1029 0
-715 -668 0
-85 715 0
-482 -134 0
-506 927 0
-666 -524 0
760 -461 0
957 -646 0
715 1041 0
624 -990 0
241 -849 0
-76 -262 0
621 976 0
941 -337 0
680 242 0
98 413 0
693 576 0
614 132 0
190 401 0
-318 -936 0
-513 338 0
778 4 0
27 -725 0
-1163 -524 0
-405 -254 0
-452 -1065 0
-787 -434 0
81 1078 0
-734 -175 0
1129 -1152 0
-460 47 0
-335 827 0
-1061 416 0
-554 -755 0
497 527 0
823 721 0
-1057 -180 0
776 -896 0
-512 81 0
1071 345 0
697 159 0
415 -112 0
-404 863 0
337 228 0
201 237 0
-98 -365 0
-358 15 0
940 133 0
759 -455 0
-156 114 0
-469 20 0
930 -240 0
829 -323 0
-472 -630 0
-416 379 0
-597 349 0
-430 1183 0
3 -359 0
644 -814 0
640 -1057 0
-337 985 0
1141 1156 0
392 -65 0
-29 -396 0
-902 288 0
-166 -617 0
-93 -605 0
-1047 1178 0
125 556 0
-860 477 0
-345 -1020 0
1149 537 0
339 6 0
-513 1000 0
1027 -173 0
-46 865 0
635 -355 0
-828 932 0
-365 -50 0
-942 -1078 0
707 970 0
986 -1190 0
526 360 0
-374 -505 0
-920 1016 0
720 981 0
-1124 1086 0
-835 219 0
-841 -708 0
-331 -389 0
-373 1088 0
988 728 0
-206 1114 0
1036 -57 0
745 -101 0
364 -844 0
-380 -296 0
-55 -754 0
-279 1036 0
-328 -1168 0
567 780 0
-422 60 0
459 975 0
-774 1192 0
-1146 51 0
-388 -448 0
877 -187 0
-912 -302 0
-212 317 0
-160 -1127 0
1051 735 0
305 -787 0
987 434 0
-599 819 0
1186 983 0
-609 -1047 0
-41 36 0
136 743 0
-644 449 0
583 -599 0
-1055 816 0
1188 1050 0
1067 -534 0
331 1120 0
432 36 0
-1007 -520 0
-252 225 0
-1057 -481 0
1198 953 0
-480 413 0
-539 1186 0
-648 -959 0
162 98 0
-399 994 0
565 -1081 0
717 542 0
1141 278 0
-264 -840 0
50 -637 0
418 547 0
192 -847 0
912 -1141 0
809 560 0
1022 47 0
-1163 1083 0
183 219 0
1084 -1063 0
-685 853 0
507 -1141 0
704 -1077 0
983 -590 0
324 -343 0
-431 -1143 0
153 -1096 0
93 1072 0
-78 101 0
1071 315 0
150 -986 0
74 114 0
511 -625 0
-1108 544 0
1184 -641 0
-388 665 0
82 -743 0
27 -395 0
-1170 -860 0
-380 -903 0
-625 -208 0
-208 -67 0
-1098 423 0
-534 -537 0
745 1165 0
-1066 174 0
1112 901 0
-1111 177 0
1202 -768 0
-1150 -67 0
-348 357 0
995 487 0
162 -1028 0
727 996 0
69 -523 0
-127 331 0
131 859 0
-900 -454 0
-237 762 0
563 422 0
12 592 0
691 306 0
-974 17 0
1027 -578 0
703 -628 0
1029 3 0
263 469 0
317 167 0
-262 1032 0
1133 693 0
-1095 294 0
663 1123 0
-1081 -413 0
606 -598 0
517 -760 0
315 398 0
-53 410 0
-1011 -196 0
-222 -980 0
323 1172 0
-955 798 0
66 65 0
-508 1080 0
-169 -999 0
-124 361 0
600 26 0
-168 780 0
-741 -713 0
852 182 0
-972 1051 0
1098 -44 0
-1099 -810 0
934 863 0
475 -64 0
-260 -559 0
884 129 0
655 1107 0
-659 -716 0
-972 -1196 0
1107 -1197 0
-615 -1108 0
-554 1200 0
540 804 0
-1017 200 0
-298 150 0
362 -108 0
756 816 0
929 -213 0
-185 -656 0
-784 -410 0
-1026 -189 0
221 26 0
-862 561 0
346 -160 0
161 904 0
-162 625 0
-675 1093 0
-521 433 0
1016 1166 0
177 563 0
-892 -167 0
106 -1069 0
416 -1039 0
1186 807 0
-58 -496 0
1196 974 0
-180 -636 0
407 519 0
-24 -248 0
-1130 374 0
-690 709 0
-68 809 0
456 75 0
451 154 0
290 -198 0
-261 346 0
-1057 444 0
-522 633 0
-956 -157 0
-597 -172 0
100 -876 0
506 -653 0
-536 1132 0
-766 222 0
-496 -338 0
-183 353 0
680 -1115 0
1113 400 0
-203 -769 0
-710 -978 0
-1116 974 0
-407 -214 0
-25 -964 0
670 477 0
636 532 0
-873 772 0
11 955 0
-358 -699 0
424 218 0
-21 1009 0
-695 -876 0
288 -312 0
-196 383 0
1039 822 0
-1177 793 0
-1010 27 0
-110 531 0
1027 859 0
-1011 -890 0
426 43 0
12 -914 0
1152 6 0
-1070 663 0
882 636 0
666 -897 0
529 -810 0
-495 -123 0
759 -1115 0
520 1131 0
-1160 -796 0
-758 -522 0
209 -184 0
-344 -680 0
-164 1200 0
-216 624 0
-258 879 0
-42 516 0
-688 98 0
56 17 0
153 -417 0
-562 -796 0
1159 -53 0
-145 -44 0
970 986 0
-206 1128 0
376 1063 0
-45 504 0
1188 807 0
-868 -617 0
670 1031 0
4 -1132 0
565 173 0
-972 322 0
7 885 0
707 -715 0
601 -172 0
-605 -790 0
218 785 0
657 -311 0
342 356 0
-248 265 0
1153 381 0
-3 -642 0
-164 -813 0
884 -577 0
-635 469 0
-723 987 0
249 1161 0
-940 610 0
-736 -971 0
665 -538 0
264 955 0
174 1049 0
626 75 0
-1202 265 0
24 -1147 0
-958 -384 0
-20 -470 0
-611 -1130 0
-282 687 0
384 -872 0
790 -659 0
611 858 0
-368 124 0
659 -312 0
-1106 -85 0
-422 884 0
1095 -755 0
-768 279 0
36 971 0
-391 471 0
-246 770 0
49 -119 0
-294 897 0
360 1171 0
334 -923 0
811 -1055 0
-397 1093 0
-168 315 0
-196 990 0
-599 760 0
641 -195 0
234 -267 0
-1098 -303 0
-864 -781 0
-986 -417 0
-1078 761 0
135 -1013 0
-750 390 0
28 -749 0
1114 760 0
388 693 0
-39 4 0
405 116 0
180 440 0
-63 292 0
1105 20 0
-1196 341 0
-1063 425 0
1039 -254 0
327 283 0
1172 -214 0
-381 86 0
-163 -674 0
-512 764 0
-1174 -327 0
1042 478 0
-227 679 0
-872 -1143 0
-1125 -824 0
-608 329 0
-124 503 0
-1048 -1096 0
332 -423 0
257 1180 0
-1165 -57 0
810 984 0
941 -697 0
1142 -830 0
529 414 0
510 1019 0
-574 257 0
1110 504 0
612 -674 0
-1116 -1165 0
-1061 691 0
1143 1152 0
-399 -292 0
1140 639 0
686 309 0
-473 150 0
261 -770 0
-528 277 0
-1080 -43 0
191 471 0
-337 -770 0
-947 -730 0
-473 400 0
-1029 662 0
996 -359 0
622 -44 0
491 -702 0
-1084 -788 0
-586 1183 0
-629 -940 0
-1142 -374 0
383 -275 0
93 922 0
872 361 0
-1051 -520 0
-565 -649 0
276 148 0
-904 983 0
-412 -1166 0
320 -908 0
783 -597 0
1089 474 0
-1202 593 0
-187 338 0
-133 499 0
726 -790 0
404 615 0
478 102 0
215 78 0
127 -497 0
-288 167 0
175 -96 0
508 584 0
350 -195 0
375 781 0
1098 761 0
606 142 0
1139 294 0
405 -1100 0
-818 752 0
802 1172 0
-798 -358 0
-733 561 0
413 1104 0
-515 -773 0
825 -862 0
807 -759 0
180 -168 0
181 -123 0
1151 517 0
522 228 0
-204 764 0
-597 1202 0
361 -392 0
-836 -65 0
439 904 0
599 -938 0
407 -668 0
32 -140 0
-28 -208 0
-267 928 0
255 1178 0
573 1103 0
-148 -1145 0
42 690 0
-307 -870 0
433 481 0
-505 -736 0
-314 84 0
1134 -55 0
-68 821 0
-240 -151 0
-938 602 0
243 108 0
630 -1048 0
49 489 0
-959 698 0
-40 472 0
-863 -54 0
794 -755 0
-143 -1029 0
531 -793 0
116 767 0
-366 666 0
137 -321 0
-654 -195 0
332 -1169 0
391 1179 0
173 367 0
451 -787 0
-172 152 0
-978 -975 0
-1173 1154 0
927 -861 0
-259 -148 0
831 251 0
254 962 0
-324 752 0
-216 -868 0
-371 680 0
-686 1092 0
-85 -1198 0
-360 -77 0
587 650 0
61 -602 0
84 383 0
-598 -842 0
-369 -1070 0
-818 598 0
337 -956 0
-643 -448 0
531 -96 0
-959 -214 0
982 322 0
693 407 0
353 -728 0
202 -155 0
-265 -2 0
-484 332 0
1120 -504 0
756 948 0
-575 -520 0
1033 669 0
-211 -172 0
336 388 0
-892 -652 0
437 -899 0
865 200 0
181 787 0
549 490 0
964 -891 0
775 196 0
859 381 0
-851 890 0
-44 -340 0
1052 731 0
-210 -817 0
-32 -268 0
-51 -173 0
-342 643 0
1122 -112 0
-887 -1007 0
265 111 0
-1197 581 0
836 813 0
-213 -339 0
680 827 0
-240 -891 0
242 600 0
-76 460 0
432 -67 0
418 1079 0
-283 -148 0
310 241 0
78 -188 0
-925 -630 0
-470 1053 0
98 775 0
-730 -586 0
1102 -199 0
513 -947 0
423 1082 0
814 900 0
-841 580 0
850 -871 0
-778 -635 0
12 696 0
1089 61 0
-15 477 0
-1008 117 0
125 -521 0
-472 821 0
292 -21 0
953 847 0
844 -1130 0
654 -935 0
-1109 -585 0
-671 -146 0
471 707 0
-10 -712 0
347 928 0
135 902 0
1025 -963 0
-121 840 0
-658 388 0
653 -638 0
-1201 -1127 0
-770 180 0
-526 -807 0
-1097 201 0
-623 -187 0
-533 965 0
-289 257 0
479 -824 0
-659 -311 0
