c NF
p cnf 2917 9334
170 2242 0
-1307 1579 0
1225 -2340 0
-830 -2233 0
1617 -964 0
1122 -269 0
-1721 2826 0
1939 -375 0
264 1733 0
928 1629 0
-1133 -53 0
-851 1515 0
-179 -1195 0
391 1942 0
-17 2221 0
-2153 -284 0
-394 2068 0
1469 1990 0
-1995 -633 0
-1347 -823 0
-190 -2686 0
-1509 2441 0
-2831 -2450 0
-2598 -2482 0
2016 203 0
2774 -1226 0
936 -1077 0
2419 -151 0
171 236 0
1216 2811 0
1306 -1867 0
1099 -2062 0
1 -2526 0
1539 1707 0
-2586 2416 0
-1864 2463 0
740 -199 0
795 2370 0
-1016 -2083 0
1446 -2045 0
-2595 -2003 0
807 -1227 0
1689 2692 0
-1233 -2073 0
1409 -1166 0
-1805 982 0
-339 338 0
490 1386 0
399 -2886 0
1127 74 0
-2497 1491 0
750 -45 0
1546 2571 0
-2695 -2465 0
2786 -841 0
-1415 -1553 0
2683 119 0
-696 2889 0
525 -2450 0
1263 2286 0
2728 2106 0
112 -2636 0
1177 2347 0
-603 -628 0
1832 -1819 0
-748 -1662 0
-1336 -2038 0
345 -402 0
1302 -140 0
117 -1581 0
-2184 2286 0
44 1448 0
-22 94 0
961 -2326 0
-1171 252 0
2641 2685 0
747 1622 0
2304 2222 0
-1568 -2053 0
2277 2565 0
-896 -2712 0
1918 1316 0
-1742 -1244 0
-2413 -2268 0
-2914 -1053 0
-1166 -979 0
-1570 -426 0
1741 2910 0
-612 2811 0
-1540 -2208 0
-1129 -626 0
1560 -215 0
-2114 1054 0
2794 -1844 0
-33 -2369 0
838 1552 0
-1575 1249 0
-270 -2494 0
543 -1879 0
378 -2526 0
-2229 -1016 0
-1969 2566 0
430 1445 0
-140 2503 0
2844 2479 0
-2419 -2201 0
-2545 295 0
-2870 -1582 0
-1597 2405 0
-2447 -1643 0
2663 -1964 0
-520 -1602 0
-1506 660 0
1417 -146 0
-2389 115 0
128 -2068 0
2127 3 0
-1810 1805 0
2887 -1541 0
25 1774 0
2182 -35 0
-2385 -1189 0
508 -2507 0
-1080 495 0
-488 -1964 0
2691 -295 0
1526 -479 0
-1639 -2800 0
-1956 -899 0
-1826 -487 0
-2537 2896 0
-613 -1907 0
177 236 0
-1103 12 0
-1170 -1676 0
2359 -1369 0
-922 -2007 0
-1000 115 0
116 445 0
-1676 2587 0
-433 1825 0
1698 -2303 0
337 -1254 0
913 874 0
2487 148 0
2671 1644 0
349 1422 0
-1072 -2294 0
2478 2284 0
2552 -667 0
-1370 2334 0
1781 607 0
-2394 499 0
626 -268 0
-200 -343 0
757 -1844 0
2398 -1459 0
-972 -113 0
133 1480 0
1776 -1357 0
-750 292 0
-1671 1406 0
-1604 786 0
-1224 -2827 0
-2467 433 0
597 1166 0
-481 -1677 0
2583 -2535 0
-1858 -907 0
-1934 -2744 0
1651 2078 0
-51 -1380 0
-2037 2225 0
-2675 -1290 0
-1744 -2358 0
-1134 2840 0
2212 297 0
2868 -2511 0
302 -1736 0
-2822 1789 0
-1358 -713 0
1249 -157 0
83 1175 0
1818 1191 0
-384 94 0
-1361 2810 0
-1694 -565 0
-1729 -2725 0
956 -438 0
-2359 2731 0
-16 1889 0
-1374 -2723 0
2603 952 0
-2872 1407 0
-768 146 0
-2574 -1776 0
-1567 -192 0
2645 -1597 0
1014 -2792 0
1277 1590 0
1336 -1815 0
-1316 1510 0
373 2647 0
-414 1556 0
1698 -1345 0
1945 -1732 0
1255 -2759 0
260 2403 0
-2110 628 0
-1452 1329 0
-2245 -2170 0
1159 -2479 0
1179 -2291 0
-305 -1143 0
2215 2894 0
321 347 0
-2851 -1186 0
-1893 2651 0
2319 1641 0
-1998 -969 0
1248 1483 0
570 1529 0
2026 591 0
1129 -276 0
-753 699 0
610 -1825 0
-1804 -472 0
2390 2909 0
-750 138 0
-1555 -2344 0
-2506 -2443 0
-1928 976 0
-379 1056 0
-1436 2239 0
-18 -670 0
249 -2605 0
1244 1777 0
466 348 0
2823 -1303 0
2777 2336 0
732 829 0
182 -1404 0
-2902 2369 0
45 1394 0
-2172 -918 0
2338 -2696 0
-2903 -1061 0
-440 -357 0
1011 2907 0
1900 126 0
-2672 1172 0
766 1102 0
662 1756 0
-836 2894 0
862 -1888 0
-2516 -2091 0
1251 130 0
1956 -27 0
-1090 -629 0
259 -2107 0
-2276 2099 0
-1613 2116 0
-2723 97 0
231 -760 0
-27 -187 0
2589 -849 0
-2152 1680 0
2387 1068 0
-731 -1159 0
1956 -1045 0
-1245 -1998 0
-2072 1356 0
-881 2290 0
-2025 -2309 0
164 177 0
88 2035 0
1750 -280 0
-426 -2238 0
509 -1815 0
-2473 -2370 0
2782 -1286 0
2172 -1947 0
2391 2144 0
1548 1997 0
1962 -1389 0
-799 2285 0
522 1141 0
-2665 -2883 0
-1600 2508 0
-1560 -818 0
-777 607 0
352 1404 0
219 -1307 0
-157 843 0
-1762 -2258 0
-10 979 0
-1646 2196 0
1960 1851 0
-2585 1549 0
-2029 -1748 0
-1740 918 0
-1997 1848 0
-2855 2530 0
-393 -1199 0
-2056 1687 0
-986 -107 0
1190 1498 0
25 1348 0
-219 1165 0
-2438 -2449 0
2821 1769 0
708 -1483 0
98 -1781 0
2297 -2708 0
-1700 -204 0
795 1632 0
-479 -1136 0
1900 -211 0
-1607 -1251 0
1264 1877 0
2044 -1555 0
-459 -1869 0
644 999 0
1220 -1387 0
-215 305 0
918 -1661 0
-2477 -512 0
1367 1919 0
-803 279 0
2092 -672 0
875 1228 0
-2909 -822 0
-353 -1887 0
-1403 -1172 0
310 1203 0
-1319 -1547 0
2126 689 0
2415 2000 0
1915 2487 0
2901 2800 0
2378 59 0
2573 -902 0
1724 1836 0
983 -2630 0
-884 -1124 0
-1125 689 0
-810 2611 0
-491 1960 0
1278 -1731 0
-2589 2085 0
365 1068 0
-2883 -1559 0
-2198 -2322 0
-2775 580 0
1518 2876 0
-593 1223 0
820 1228 0
-571 -45 0
2240 -2574 0
2223 -2399 0
-1458 -1574 0
-1346 1963 0
2899 2761 0
-930 -112 0
722 -96 0
-2051 376 0
-1106 -2198 0
2406 222 0
1746 -321 0
-1576 -2397 0
-81 473 0
1981 -274 0
1964 -1617 0
2770 1259 0
-604 -2635 0
-1655 -837 0
281 -2627 0
2429 -1106 0
-2158 -174 0
-579 -1683 0
1500 982 0
2774 -1849 0
2406 2487 0
-1332 696 0
-81 -2776 0
1852 -1201 0
1055 958 0
2619 -1078 0
750 747 0
-822 26 0
1641 519 0
656 -705 0
1674 -1280 0
-1435 2701 0
-2618 441 0
219 -1913 0
2670 391 0
-2448 425 0
2856 -2507 0
-1726 -440 0
765 -1849 0
-1324 -315 0
54 -2835 0
-1049 -754 0
-2174 -389 0
-2150 467 0
-2175 1361 0
-768 -735 0
-1228 -2706 0
2300 2030 0
-2067 -1957 0
138 2645 0
2699 1614 0
2034 788 0
1039 1324 0
-1245 216 0
2640 -2442 0
-463 411 0
-1246 -2330 0
13 2165 0
-1850 2468 0
795 -1089 0
-1071 2505 0
-758 970 0
-1994 2083 0
-1361 -658 0
1335 -1654 0
-1979 -444 0
1496 2006 0
20 -2787 0
158 -2729 0
-2338 -1627 0
-2238 913 0
462 1167 0
1208 1615 0
-1664 246 0
-101 2651 0
-2183 1092 0
-728 -2292 0
-63 -1089 0
51 1690 0
645 203 0
2173 2811 0
1813 883 0
751 -86 0
-981 1591 0
-1344 183 0
-2698 2503 0
-1361 -1142 0
1714 1151 0
-2636 1787 0
1560 -1362 0
-390 359 0
1684 -72 0
-1335 -1060 0
245 2712 0
1148 1735 0
-799 2168 0
1836 -646 0
1449 -111 0
-2308 2907 0
2885 -1702 0
-641 -62 0
-1849 -1906 0
-890 1577 0
-552 2646 0
-108 1499 0
290 -815 0
-2621 1503 0
-1980 -1355 0
1856 1592 0
-2138 1854 0
-1097 528 0
1191 -2599 0
-2522 -7 0
-1979 1235 0
478 -2560 0
585 399 0
-1577 414 0
170 -309 0
-2835 1052 0
-189 -2144 0
-2406 -1747 0
2189 -1771 0
983 2645 0
1523 -1134 0
1076 -1201 0
2528 962 0
-2765 301 0
392 2565 0
-1662 -1356 0
2691 29 0
1932 2899 0
146 834 0
-275 -2438 0
-1708 2165 0
-2705 -1419 0
-45 693 0
786 -2827 0
-1116 -2471 0
-1267 -1991 0
2850 -2020 0
-617 -2631 0
1276 -1935 0
941 -811 0
-2315 -1574 0
1093 -2207 0
344 1484 0
-2621 1827 0
-2087 2012 0
790 343 0
2042 1243 0
722 2828 0
-1146 1560 0
-2624 -2365 0
157 -1021 0
-833 2761 0
282 -935 0
2307 131 0
-211 1170 0
-1223 -56 0
23 -2063 0
2206 -1970 0
-241 482 0
-663 -2915 0
-2702 2741 0
-2908 -599 0
-2070 -845 0
146 -2835 0
-898 -1763 0
-1708 2492 0
-1214 1739 0
1217 1539 0
2239 -250 0
549 -2809 0
-2067 2876 0
-1924 -1785 0
2085 -1813 0
2650 -2227 0
-2913 1893 0
-1290 140 0
-1159 -2579 0
-1748 -1130 0
475 2023 0
-209 -1940 0
-2496 2689 0
1812 1318 0
-1956 -969 0
-108 2010 0
1594 -1890 0
-2804 2748 0
321 2661 0
-1147 1710 0
-674 -1266 0
1932 1144 0
-1552 2214 0
-1315 526 0
2709 1122 0
-2791 1647 0
2557 -739 0
1261 -2456 0
721 2439 0
1320 937 0
1034 -268 0
-987 401 0
2351 2040 0
-1218 -279 0
1461 -1494 0
2192 343 0
2131 521 0
294 2625 0
-2140 737 0
-581 789 0
-958 811 0
-2769 1517 0
-1786 2672 0
1363 -2730 0
-941 -2183 0
332 1173 0
1938 -1555 0
1899 1139 0
1294 1122 0
606 2232 0
2686 -1968 0
2821 -745 0
1580 1118 0
-1884 -1310 0
-598 254 0
1426 578 0
-1399 530 0
-1514 -2641 0
-1648 2807 0
-818 246 0
152 -2736 0
2005 -1192 0
2218 12 0
-1648 823 0
-472 2742 0
-533 108 0
1458 1719 0
2 2738 0
850 873 0
-2258 1184 0
-2541 -2746 0
-813 -640 0
1673 -2355 0
1105 -2418 0
-358 -777 0
1773 2313 0
1398 576 0
-2427 -2867 0
-628 -2051 0
2400 -31 0
1876 1647 0
826 648 0
-885 -1061 0
-1868 -2324 0
167 -2438 0
734 2627 0
-261 2117 0
302 1151 0
2032 1552 0
113 -1283 0
-563 840 0
-549 2293 0
994 -1458 0
1829 2740 0
-2397 -328 0
-1455 -2155 0
653 912 0
-2186 100 0
-421 -1087 0
-1892 2256 0
-2776 1398 0
694 1423 0
-2878 -335 0
-250 -701 0
-1827 313 0
-1141 879 0
2318 -707 0
-406 -1900 0
330 170 0
608 1957 0
518 -2182 0
1242 -1571 0
2054 1439 0
2259 2743 0
-623 873 0
2619 29 0
-2249 1535 0
-1307 -568 0
2810 -2818 0
-1313 -2412 0
2054 -2752 0
2214 1027 0
68 -813 0
-2504 -1221 0
-1961 -1985 0
1915 2619 0
-2068 1278 0
-2653 1020 0
738 1023 0
-2691 2254 0
-2450 310 0
1444 2859 0
665 -958 0
-558 2430 0
1113 -890 0
1150 -610 0
1714 612 0
-1297 1647 0
-744 -1744 0
-1267 -202 0
-2136 1479 0
2416 -1029 0
1682 -1736 0
491 -1624 0
-2468 200 0
199 -1346 0
-205 2608 0
-837 -2445 0
-1238 24 0
-96 -95 0
-740 179 0
-2723 -809 0
2344 -2167 0
-18 -2809 0
2169 -1248 0
1819 -2379 0
-274 1747 0
295 -1309 0
-158 2237 0
-537 2187 0
2913 -107 0
1895 2471 0
-1662 166 0
1756 -1624 0
427 422 0
-2726 2734 0
-1095 -67 0
1068 -970 0
-1456 1773 0
2405 1737 0
1729 1767 0
2766 -1708 0
1076 44 0
-1633 1921 0
378 1649 0
1514 829 0
-2155 1866 0
-284 782 0
1835 2366 0
1627 416 0
-161 -259 0
-2572 2259 0
2105 -2549 0
-2039 -237 0
2173 -646 0
694 -2814 0
-1742 -577 0
1437 264 0
-2619 195 0
1686 766 0
-1148 -243 0
1308 1601 0
1971 -631 0
1717 -1981 0
1109 692 0
2734 2123 0
656 -2374 0
-1557 -190 0
-1946 610 0
-2117 2427 0
756 -1621 0
990 -927 0
-2668 -2457 0
-510 -373 0
-630 824 0
-1330 607 0
84 -678 0
1847 -1840 0
-2479 1107 0
-1100 2823 0
-2836 -2023 0
1215 1927 0
-287 -2756 0
-425 1971 0
-2261 -1736 0
973 604 0
1 1788 0
-716 624 0
-489 -1180 0
277 -2431 0
-150 1467 0
-668 -2024 0
-679 725 0
-1636 212 0
2453 640 0
1123 -1705 0
1813 -332 0
-101 -519 0
-1550 -1098 0
1972 2493 0
2048 685 0
149 -2073 0
2694 574 0
2713 -547 0
2456 -1437 0
-888 -2101 0
-2432 -1015 0
147 2201 0
896 1758 0
-2365 2136 0
-2003 -1915 0
2442 290 0
-2271 -2654 0
694 2344 0
-2420 -2494 0
345 -2033 0
1086 94 0
1 -1739 0
2501 -2878 0
-486 2134 0
1901 893 0
-1907 2857 0
-1373 -1516 0
-2751 138 0
2252 -2704 0
1534 -1381 0
-2236 -62 0
-390 500 0
-2614 -2524 0
2318 21 0
1241 -1917 0
-2140 1187 0
-2423 1102 0
-2242 -202 0
-1398 -2053 0
-2597 1525 0
-2323 -502 0
2514 873 0
-1435 -1087 0
1577 -2156 0
2197 -2208 0
2796 2720 0
-1748 1490 0
-118 -2445 0
1338 125 0
2631 1452 0
-1304 600 0
-2851 2640 0
-329 -782 0
-2241 -2381 0
-960 -1414 0
849 -2892 0
520 210 0
1251 -1148 0
2265 -1041 0
834 2066 0
-2673 -977 0
-118 -143 0
-2761 -2545 0
-2459 1847 0
-1188 2701 0
825 2636 0
2380 2198 0
-2120 1371 0
2811 2454 0
-1166 150 0
2001 2694 0
2069 678 0
1773 -1797 0
1320 691 0
38 -626 0
586 2502 0
1760 1751 0
2 -2034 0
-2248 2008 0
1573 1256 0
-1860 1170 0
-2557 2323 0
2794 595 0
1307 676 0
-546 753 0
1425 -2803 0
2851 959 0
1565 -899 0
-1815 2484 0
-2396 1568 0
2522 -2433 0
2361 2111 0
369 2587 0
195 -1859 0
953 2145 0
1911 -1400 0
1778 1567 0
-1499 2771 0
44 2731 0
520 1548 0
2054 2393 0
-1661 2743 0
-1283 1769 0
-750 -2403 0
829 -2785 0
-891 -552 0
-1710 843 0
-715 1594 0
-621 -2854 0
-1521 -299 0
-109 2422 0
-772 -1388 0
-2842 1859 0
-23 2334 0
134 -2553 0
13 -617 0
1885 -602 0
-2161 -2396 0
-2023 -141 0
2146 -1962 0
-2092 -1953 0
-1252 2603 0
-2562 1037 0
-741 627 0
1690 -647 0
-1802 -191 0
1030 403 0
-1455 -2288 0
2371 -1421 0
2129 -536 0
155 -1734 0
929 -466 0
960 -2764 0
2455 826 0
705 908 0
1790 1308 0
213 2906 0
-144 1444 0
2822 -622 0
-2493 -1754 0
2688 -421 0
2282 -359 0
1841 -2673 0
-451 -1571 0
929 -2431 0
-1636 275 0
2659 2309 0
1578 -1408 0
2660 2235 0
-1136 -1761 0
-1380 -2587 0
-2476 -1053 0
2447 2433 0
-986 808 0
1140 -2520 0
84 702 0
-1254 1050 0
1347 -172 0
-940 -471 0
-881 -1632 0
660 -549 0
-1009 2910 0
-816 2528 0
2040 2704 0
-2290 -273 0
-1940 2489 0
2579 -273 0
-563 -1214 0
-2296 -206 0
660 -1317 0
-2073 2885 0
2416 -2270 0
-1438 -832 0
2250 2070 0
-107 1834 0
-140 -2209 0
-1860 583 0
-1566 1843 0
-198 2690 0
605 -1224 0
2308 1965 0
-960 2508 0
-463 2591 0
2534 390 0
2431 1037 0
1909 -1454 0
251 -2867 0
-145 -1112 0
450 1802 0
-563 2589 0
2191 1881 0
2728 2642 0
706 -647 0
-828 988 0
2840 2441 0
2658 2608 0
2886 -2385 0
2732 2771 0
1706 1457 0
-284 -1280 0
-404 -1872 0
2454 2098 0
686 -2122 0
-2627 113 0
2560 -2644 0
2161 -896 0
2061 -1003 0
-1032 143 0
-223 -1543 0
2581 -1911 0
1144 1726 0
-2806 -276 0
-1599 -845 0
-1141 1817 0
-36 -255 0
-2745 -1622 0
2594 -2417 0
1997 2273 0
-1767 -50 0
-827 2593 0
186 -1193 0
359 -1454 0
261 -1360 0
1196 -345 0
473 -241 0
1310 105 0
2442 -850 0
-1403 2563 0
-2549 100 0
2759 -585 0
-2349 1772 0
-1135 -2049 0
-283 -2067 0
1354 2412 0
383 -829 0
-974 1092 0
-2684 -1826 0
-1032 810 0
1273 -529 0
989 -1373 0
2348 -120 0
-1418 -1365 0
2321 2872 0
2659 -981 0
245 309 0
-682 -14 0
-215 -1060 0
1216 -1725 0
-78 -2911 0
2819 1211 0
2102 677 0
2605 -1509 0
2552 -1493 0
29 -2804 0
1984 2569 0
1747 474 0
-599 2681 0
263 -866 0
2313 -2238 0
-1958 -1584 0
-96 1326 0
-2684 -2504 0
1900 382 0
111 -2748 0
-946 850 0
-792 431 0
-2129 -550 0
-1180 -2674 0
-1614 2125 0
2000 24 0
805 1144 0
61 1824 0
-532 -193 0
490 -2569 0
-125 -366 0
531 156 0
-2513 -703 0
-968 1181 0
-124 -259 0
-811 2509 0
-985 630 0
1124 -1820 0
-1284 1109 0
1293 2591 0
-1711 423 0
497 1721 0
-760 1392 0
-1589 -565 0
-5 170 0
574 -2348 0
2824 -674 0
-2504 733 0
2119 -1300 0
-822 -938 0
-2326 2626 0
-1248 2054 0
-2520 1274 0
-1477 -985 0
2307 -2462 0
1830 2582 0
421 2164 0
-1445 510 0
-806 2611 0
941 -426 0
720 -2755 0
-1412 -1074 0
2718 1579 0
-2301 -1918 0
-2685 -1554 0
1048 1761 0
-832 -434 0
-1291 -1477 0
-1918 236 0
-2510 -2257 0
2462 2874 0
-190 2149 0
2766 616 0
2317 -1519 0
-701 2698 0
-32 -380 0
-1979 -2008 0
2324 2638 0
-2072 1228 0
1007 -2038 0
-1349 1177 0
861 -2618 0
-19 -2303 0
420 1944 0
2015 2579 0
256 -2875 0
-351 -1732 0
-977 -1743 0
788 -845 0
-1833 2692 0
311 -2752 0
436 1211 0
-750 1599 0
-854 1124 0
-1025 1785 0
1259 1353 0
75 -2453 0
-1766 683 0
-609 -2445 0
-679 1913 0
465 -1315 0
-1640 2487 0
-1180 2055 0
-1800 -1526 0
1733 -1090 0
1067 236 0
-167 -2213 0
1371 -860 0
2156 2784 0
-537 1443 0
456 -1084 0
1647 227 0
84 -1614 0
2783 2857 0
1739 -634 0
-1079 2792 0
-674 1856 0
520 -1664 0
-2085 2619 0
-625 -2425 0
-296 -1668 0
1244 2179 0
1191 -453 0
2299 -336 0
2724 84 0
860 -1366 0
-1650 1033 0
923 1370 0
1720 -2648 0
793 -2678 0
-1211 430 0
-480 1692 0
123 278 0
1156 -974 0
-2422 433 0
1206 -2556 0
2174 -1126 0
-1497 1246 0
1922 1830 0
1540 1108 0
1950 -1487 0
-1683 -1270 0
-315 -2651 0
-2320 -2160 0
-1619 1020 0
2515 2061 0
1477 -2363 0
-1534 1341 0
2411 25 0
-1532 -2536 0
-590 -1342 0
1993 1199 0
1187 2471 0
1786 -2432 0
1412 1072 0
2822 2552 0
-1352 -1183 0
1026 2402 0
-1193 -1393 0
881 1102 0
2002 2830 0
2822 -2208 0
-845 -1171 0
121 -2008 0
2879 -1983 0
-195 2056 0
2189 -1765 0
2712 -53 0
1544 2099 0
-2488 1963 0
106 1348 0
968 646 0
-643 -777 0
1416 -1494 0
1394 1591 0
-149 79 0
1373 -1948 0
-1161 1974 0
207 2532 0
-2324 -1649 0
542 761 0
426 -1345 0
-1374 2698 0
1984 -2011 0
1447 -2894 0
-2128 1067 0
-2017 -2609 0
2728 -289 0
-1181 -2602 0
-1683 872 0
-2224 -2152 0
1614 -710 0
97 -1461 0
-2046 2266 0
-659 946 0
1578 -1136 0
605 -2363 0
-2793 -1297 0
-1159 1168 0
-2073 -1978 0
-82 -241 0
1536 1884 0
-1727 -1936 0
1348 1365 0
-2695 -915 0
-650 -947 0
-2281 -2506 0
-2185 -1847 0
1580 376 0
97 -1918 0
1616 -238 0
-792 -242 0
1211 1491 0
-2758 -1155 0
1147 2470 0
-1478 -1675 0
2658 -896 0
-1158 2040 0
-432 -2181 0
1477 -2842 0
-2036 -47 0
-2813 1919 0
-68 -2584 0
1665 131 0
-2704 753 0
2198 -2537 0
733 -19 0
2307 -2578 0
2799 -1362 0
2762 -2727 0
-1402 -1969 0
996 2482 0
-1754 -1472 0
2735 -251 0
-826 -2521 0
-557 -1827 0
-1610 -2170 0
-1858 2828 0
-2050 1379 0
2221 157 0
2479 74 0
901 -2736 0
-426 1305 0
-652 -600 0
2687 2428 0
-750 -2435 0
682 -772 0
-1815 -1625 0
-506 2469 0
2043 57 0
983 -388 0
560 638 0
-2313 342 0
1759 1766 0
861 2378 0
711 544 0
1925 1122 0
-1564 -1126 0
-2021 880 0
-273 -550 0
-1166 2619 0
885 -1299 0
1971 2331 0
716 2699 0
111 -1871 0
502 2406 0
-2171 -368 0
275 -1166 0
-1330 1763 0
441 1818 0
1652 -667 0
532 -1286 0
2497 -2225 0
-1650 2915 0
-2916 464 0
-980 -380 0
-1592 -1647 0
1497 1865 0
2822 973 0
2740 -1008 0
-187 -2569 0
716 766 0
2017 1145 0
-729 -1152 0
1834 -2127 0
-2448 -1224 0
-1612 -47 0
-31 1092 0
-438 -2511 0
1565 -1729 0
-1545 2633 0
1388 -1744 0
-2321 873 0
-596 599 0
-2852 801 0
762 1021 0
-2249 2580 0
-1332 884 0
2565 2716 0
-17 1586 0
2664 704 0
-1651 752 0
352 -1886 0
-670 835 0
10 -2529 0
1237 2646 0
-1064 2797 0
-241 705 0
-352 648 0
-1796 951 0
927 -2101 0
1407 1723 0
2508 -1924 0
-2600 2429 0
-284 -2716 0
-2451 1328 0
530 -1865 0
-2902 2746 0
805 -2062 0
-2714 1720 0
-115 -1578 0
2917 211 0
503 1875 0
963 1784 0
2516 -1442 0
2368 -757 0
-938 1049 0
1349 -1183 0
1857 -1440 0
-201 2533 0
1199 2897 0
-352 -2379 0
2375 -2758 0
36 -50 0
446 2196 0
2504 2156 0
-250 -2243 0
1215 -1729 0
1832 -2474 0
1943 1033 0
-1219 1331 0
254 1192 0
-833 -1076 0
-733 -1827 0
2084 -1629 0
-507 1449 0
1555 1145 0
915 -2767 0
-160 -915 0
992 588 0
2389 -2191 0
-735 1583 0
301 1430 0
-1905 2379 0
-2069 722 0
-1613 -1912 0
7 -796 0
121 -1020 0
-1699 -682 0
1684 395 0
1126 -1767 0
-388 2390 0
1517 2616 0
1496 1853 0
-1601 2259 0
-1590 1034 0
595 2881 0
-610 1222 0
-2126 419 0
2370 277 0
903 -1628 0
-1346 386 0
-2264 -1796 0
879 679 0
1680 1167 0
734 -114 0
-724 496 0
308 1709 0
2457 -2827 0
-2886 -1853 0
551 -570 0
1756 2503 0
-2811 2096 0
520 -1238 0
2700 2807 0
-276 214 0
1215 2843 0
-829 -1905 0
332 1040 0
-2417 1631 0
-978 2620 0
-91 678 0
496 -521 0
-456 -1112 0
2655 1142 0
1525 2085 0
1527 -2087 0
-1643 -93 0
2594 2359 0
1714 2801 0
1102 1881 0
292 -423 0
-570 -2823 0
-378 -2072 0
-1654 -1760 0
-2391 1703 0
2830 -1708 0
-1473 -2715 0
-8 -1852 0
-625 -865 0
2042 1245 0
2849 2375 0
671 -1382 0
2189 -143 0
-2751 -1805 0
-991 -1147 0
-2349 -998 0
-2592 -2076 0
-2234 -974 0
-2034 1022 0
88 2240 0
2188 -827 0
-1630 316 0
-769 2594 0
1695 -2189 0
-1619 2030 0
-205 701 0
-1114 -2803 0
-2147 -424 0
2738 1517 0
-2634 2108 0
-461 2400 0
1648 2207 0
967 1993 0
2112 254 0
381 2506 0
-1542 -398 0
-1122 2549 0
277 -63 0
483 -1542 0
-1838 1625 0
-40 -2150 0
1433 1908 0
-1726 -941 0
-17 30 0
1514 344 0
-1475 -1460 0
-1970 701 0
-89 -2747 0
2017 2542 0
2605 787 0
-1893 2222 0
1303 -1688 0
301 1953 0
889 -679 0
1897 2543 0
2169 2503 0
2112 517 0
-438 2527 0
-610 -542 0
-2841 1812 0
-2913 -1976 0
-1088 2222 0
211 -2017 0
-1032 547 0
1625 -1965 0
490 1548 0
1340 -867 0
1424 -1043 0
958 -355 0
-2121 -1366 0
1769 -1155 0
394 -1373 0
1035 -2179 0
606 772 0
2675 -2046 0
705 1798 0
2769 -1603 0
-1535 2316 0
2456 -1691 0
2857 -1650 0
-1183 -1290 0
2244 -772 0
-1695 -1796 0
-25 -1478 0
-1547 926 0
2798 -1414 0
203 182 0
2386 1890 0
-724 -2016 0
1812 2058 0
-21 -2518 0
-2055 -2156 0
324 1128 0
1083 678 0
-22 107 0
-2498 1944 0
-2677 -1174 0
-626 1422 0
-1919 -2177 0
1950 -1903 0
1343 -1699 0
340 -786 0
-1159 257 0
374 -783 0
-1790 -1047 0
-835 -1436 0
1468 823 0
-1210 -2002 0
-2294 1161 0
883 -1189 0
1642 -1835 0
-415 -172 0
1774 1249 0
-784 -2055 0
1809 776 0
-1230 -2485 0
906 1694 0
-1883 2391 0
-1453 -902 0
2898 -2622 0
2011 68 0
-295 1991 0
502 2866 0
2613 -184 0
63 1805 0
1540 1343 0
583 -1696 0
-2212 -634 0
-488 437 0
-750 -1380 0
-446 2324 0
-2691 1752 0
1374 -1163 0
738 -1570 0
2083 -1195 0
242 -728 0
2605 -470 0
2528 2646 0
2703 -1461 0
2834 -631 0
-2344 -794 0
994 523 0
-2215 2583 0
-41 272 0
467 -1867 0
1331 2460 0
-348 -1201 0
-1889 -247 0
2421 118 0
913 62 0
-2268 252 0
957 768 0
-175 -1297 0
-202 -959 0
220 2432 0
-299 51 0
-757 1411 0
-2183 212 0
-572 -1137 0
-70 -347 0
1983 1718 0
1649 2439 0
2468 -1978 0
549 2691 0
-2019 -2842 0
-740 584 0
28 -1978 0
-2400 -2739 0
-2550 2447 0
-1550 2429 0
-1976 2386 0
-2191 1790 0
-1337 2764 0
449 2541 0
1741 -1076 0
1265 1028 0
-1194 1165 0
-1437 -654 0
1339 1944 0
-1920 -2154 0
129 2605 0
2900 -150 0
2386 81 0
2354 2798 0
256 1246 0
85 -1742 0
-1186 -921 0
2527 -240 0
2380 -1399 0
-2523 1634 0
605 -592 0
398 2463 0
-674 2531 0
-1297 -835 0
1830 1277 0
-2399 -1563 0
2341 1059 0
-814 -2439 0
673 -1509 0
-67 -2340 0
2686 -2855 0
-1355 2270 0
-768 1119 0
2368 2472 0
1756 -1521 0
-271 1211 0
2425 -1909 0
2720 1334 0
1248 -2051 0
-1256 852 0
1078 257 0
1011 -2018 0
753 -2692 0
-437 -1049 0
723 -1423 0
-108 1642 0
2528 -1360 0
2374 810 0
-505 -1975 0
1599 -2513 0
-1710 1472 0
-2433 -708 0
2605 2873 0
2402 1910 0
2414 182 0
2372 -2384 0
-2410 -1350 0
1562 752 0
-796 2603 0
2115 -973 0
-764 -1575 0
2287 -2375 0
2732 -316 0
2005 -2207 0
-366 -15 0
1146 -1579 0
2367 -1416 0
-1133 -2324 0
1342 2540 0
1175 -2707 0
2780 -1183 0
2717 2115 0
2892 474 0
88 -555 0
2027 374 0
-643 -2150 0
1895 1664 0
852 -234 0
-2538 -1916 0
-1643 -1207 0
-724 204 0
-254 -1111 0
882 2015 0
-1906 -169 0
2560 -1346 0
2206 1287 0
2891 1521 0
2780 -208 0
2287 1608 0
1067 -2082 0
2081 -1614 0
-157 -1015 0
-389 -38 0
723 -1152 0
2044 -131 0
1689 2249 0
-115 1404 0
651 1261 0
282 1352 0
989 923 0
1451 1620 0
1803 1434 0
-208 -1436 0
1247 2174 0
930 -1821 0
384 -1076 0
-418 -2906 0
-754 -2058 0
-2263 1654 0
-2430 1525 0
2081 -2366 0
388 -947 0
2221 514 0
-42 2012 0
-2088 2404 0
651 549 0
-1475 -472 0
2166 2383 0
1194 1218 0
29 579 0
-304 -511 0
2646 -328 0
1035 540 0
-2675 1096 0
1547 2645 0
-1929 -1341 0
649 2522 0
-114 -2029 0
997 -947 0
-2840 1359 0
539 -242 0
1278 1200 0
2603 568 0
-1085 -1754 0
-932 -193 0
-2598 2661 0
-2866 842 0
473 1283 0
369 1792 0
1058 1403 0
1059 50 0
-881 -1188 0
955 2006 0
1686 60 0
-2806 -2116 0
-1486 845 0
756 2106 0
2012 -1375 0
-67 644 0
400 2808 0
52 -677 0
1623 2144 0
560 674 0
2691 -2374 0
-317 2480 0
-1897 -1001 0
1873 -1736 0
2911 2058 0
1583 550 0
917 2074 0
-280 -2176 0
1734 2372 0
1675 -1198 0
-1862 1719 0
-2310 -1547 0
955 721 0
-352 -640 0
-2016 2581 0
382 2324 0
-750 -2124 0
649 -2137 0
-1590 1908 0
2692 -2747 0
2611 -1303 0
-2348 -1154 0
2120 -1951 0
-1087 245 0
1208 -816 0
-1330 -146 0
-415 2245 0
2626 2721 0
-1880 -1745 0
1382 -682 0
-2853 -535 0
2012 1837 0
1059 2159 0
-996 2455 0
1837 -598 0
131 2427 0
-289 1031 0
-1364 -1827 0
-486 2361 0
274 -2856 0
-2050 2894 0
1278 -1953 0
1392 2074 0
2281 -2878 0
1673 2148 0
-388 -2559 0
2516 2070 0
-1799 -193 0
-1645 1044 0
2615 -1159 0
-627 2860 0
2803 1491 0
2203 -2819 0
-87 -2479 0
1392 -853 0
1312 -1862 0
2120 1354 0
688 -604 0
2672 -1839 0
1202 927 0
465 -1651 0
-154 585 0
-2093 413 0
2231 850 0
-1166 656 0
1853 2618 0
2911 1635 0
-834 -1550 0
2523 2719 0
2670 2880 0
475 -2544 0
451 -463 0
1340 -1178 0
-1245 -395 0
106 -1250 0
2142 1004 0
-1377 -1734 0
2240 -118 0
-2385 -953 0
-1673 2125 0
2113 1122 0
2452 100 0
2564 -1130 0
-1843 -669 0
1836 2691 0
-1114 2706 0
990 1652 0
1096 -2433 0
1694 279 0
-1197 2807 0
-688 2826 0
-1751 -553 0
2007 1500 0
1959 -1282 0
2221 2427 0
-2049 1531 0
-1701 -1380 0
-1941 -132 0
-963 -1979 0
2764 -482 0
159 -385 0
1103 -1660 0
484 -699 0
-2713 -38 0
-2394 2555 0
2149 998 0
1867 2431 0
1986 -2295 0
-2752 1069 0
2639 1534 0
83 2084 0
2084 1394 0
2688 246 0
346 1872 0
2434 1942 0
-1369 2010 0
-2260 -66 0
-1244 2766 0
2894 -2817 0
1104 2786 0
-2521 -1936 0
2699 -2803 0
1384 -2493 0
766 -2524 0
-2263 -2760 0
-1665 -183 0
-725 2269 0
1719 -2274 0
1362 1405 0
-1754 1271 0
2667 -1274 0
-2804 997 0
-1021 -2876 0
2680 402 0
-2117 231 0
-26 -1222 0
1746 1257 0
-2028 -1310 0
-1867 -1920 0
812 -29 0
-963 -1540 0
2229 738 0
1175 -1020 0
-1163 -2226 0
820 -755 0
2074 -2045 0
130 1355 0
1597 108 0
346 2609 0
-912 2623 0
-2905 -1360 0
1316 1059 0
1486 -1369 0
-1108 -1237 0
-1909 72 0
107 -1619 0
1394 -2633 0
1133 -1665 0
-2864 2170 0
528 2852 0
901 2216 0
-2142 1716 0
1466 -1594 0
1787 -2093 0
2614 -1423 0
1933 2768 0
163 160 0
2441 -795 0
2404 -198 0
1216 -18 0
2768 -831 0
-248 838 0
2378 -2027 0
-14 2289 0
850 1386 0
1171 -2227 0
-1641 473 0
1743 1722 0
-389 -844 0
-1350 1729 0
-1093 -2750 0
1430 -1860 0
1415 2040 0
-42 1555 0
-2175 2512 0
2542 1655 0
1198 -1301 0
-187 138 0
-2495 -235 0
1276 124 0
70 -2689 0
-2729 -1344 0
793 -839 0
1228 -1388 0
-2409 -439 0
11 694 0
1709 -1637 0
-744 2898 0
-934 -2031 0
-1155 -952 0
393 -1629 0
1933 -1600 0
-491 -1532 0
-2875 -2114 0
1243 -908 0
-614 1019 0
1342 2674 0
-2043 -497 0
2011 -1956 0
1119 2860 0
-2896 2013 0
-1091 2240 0
-1777 -976 0
2249 2250 0
1370 2663 0
-2094 1980 0
2549 -305 0
2790 2291 0
2426 -1611 0
1801 769 0
973 2323 0
562 2647 0
-45 -312 0
-2765 -1363 0
2738 1764 0
-2351 -1489 0
337 340 0
2891 2542 0
-712 -1346 0
1692 -612 0
-2322 50 0
-1846 536 0
-2397 -1665 0
-467 1800 0
1310 -2157 0
870 -1155 0
-2790 894 0
-438 -30 0
-2276 135 0
1925 2881 0
2718 1167 0
-2318 -1200 0
1656 -1554 0
-2144 -33 0
-2725 -2225 0
-2447 2235 0
1503 -306 0
-1948 -2734 0
948 1826 0
1386 1769 0
-1369 -1098 0
-1839 -2467 0
-1400 1483 0
1817 1565 0
1817 1233 0
-688 1278 0
-2079 -848 0
2047 762 0
2607 771 0
-960 -862 0
877 -1079 0
804 1371 0
-486 -571 0
-1226 -2144 0
-803 716 0
1196 -2711 0
-91 1405 0
-907 -22 0
-1533 -2617 0
-1116 627 0
-165 228 0
-1311 1844 0
1015 -1712 0
87 -1826 0
1675 -2191 0
-152 -425 0
1042 738 0
632 909 0
2092 2849 0
1333 2820 0
1605 -591 0
2084 -1818 0
2106 1930 0
2660 613 0
-2264 1900 0
-191 100 0
-1247 1701 0
2662 2134 0
-1708 -1930 0
-2187 1340 0
-1677 804 0
1443 -268 0
1087 2171 0
2082 -88 0
2657 2356 0
2447 -2200 0
-1251 1461 0
-1648 849 0
-1086 166 0
-978 -704 0
1612 -2748 0
2731 2309 0
85 -1642 0
2069 2131 0
2851 929 0
-1487 579 0
2339 1091 0
-2018 -1544 0
-1597 -833 0
-2007 -207 0
59 1995 0
1632 1751 0
2780 2816 0
729 787 0
1281 -1637 0
2395 2400 0
175 -1563 0
-2567 1900 0
212 -2388 0
399 497 0
2818 1493 0
-2842 -1938 0
-1021 -759 0
-2435 2844 0
2555 -931 0
61 -1867 0
-73 -2618 0
652 2269 0
-1838 1710 0
-2691 -1947 0
2449 -1143 0
457 -215 0
2857 868 0
1695 830 0
964 733 0
-1817 2661 0
1440 1140 0
720 -2599 0
1405 -2245 0
1269 -1972 0
1684 -2582 0
2835 -2303 0
-1135 -741 0
-934 2237 0
180 -1450 0
2239 -779 0
-661 -2813 0
-1378 2484 0
1636 1359 0
1211 -2067 0
2005 -1592 0
1923 1040 0
1757 2708 0
1401 2343 0
1508 -1712 0
-151 289 0
-157 -2286 0
-898 -1587 0
-2180 1561 0
719 -1367 0
-2295 2232 0
-1878 1142 0
-958 2890 0
2316 -334 0
-2812 -915 0
1190 -2511 0
-390 1262 0
699 364 0
183 -2093 0
-225 1673 0
-1601 -374 0
-2263 -1084 0
-1861 -696 0
825 577 0
2136 1753 0
-679 1142 0
-1650 448 0
2214 -680 0
-1918 -822 0
827 135 0
-1286 2552 0
1891 -1487 0
-2379 -991 0
-1599 -1239 0
378 534 0
501 -1659 0
1695 222 0
456 -1879 0
-658 -998 0
-2076 -55 0
1492 700 0
-814 -1635 0
2331 1168 0
882 -2844 0
1562 2400 0
-2228 1934 0
-1959 32 0
2693 -470 0
499 -2450 0
-1407 -980 0
1308 -79 0
423 2744 0
-2654 1809 0
2185 -1842 0
-2373 -2068 0
-1095 -1440 0
-397 -1111 0
-1744 672 0
2222 492 0
474 -1696 0
-115 1002 0
-1089 1411 0
723 1606 0
841 -1913 0
-1976 2099 0
2266 2395 0
-1051 -1351 0
-209 -125 0
2269 1934 0
-2417 949 0
-1860 -251 0
-1200 -1184 0
-468 -390 0
2201 -2164 0
1569 1610 0
934 -588 0
2049 -2668 0
-2563 -1261 0
-2831 -92 0
856 166 0
-986 2515 0
-2454 2498 0
-2429 1368 0
231 11 0
-1372 -973 0
-340 -1258 0
560 -1163 0
1641 2138 0
11 2273 0
-2397 -1262 0
1466 -240 0
1649 723 0
1182 1718 0
478 1816 0
1934 -1839 0
825 550 0
-717 1703 0
1536 1035 0
967 -1454 0
1897 -2612 0
757 2791 0
-499 1272 0
2891 -2804 0
-198 -2676 0
-619 1806 0
799 -986 0
2448 -2057 0
-812 1246 0
-985 -798 0
1506 1899 0
-2544 -533 0
2690 -2702 0
-2230 -102 0
2650 343 0
-2523 1659 0
1811 -2262 0
2054 -2621 0
1596 1943 0
72 -945 0
2770 442 0
801 -1850 0
-2243 1969 0
1717 1615 0
1457 -1876 0
257 1446 0
-685 -759 0
-1252 -1132 0
1082 -2263 0
571 607 0
-166 1035 0
1495 -1451 0
171 -671 0
81 -355 0
-2375 -917 0
-2247 -2757 0
2619 2190 0
441 -1061 0
-210 -1126 0
-1920 -612 0
2751 906 0
-247 2378 0
-840 1964 0
1144 -347 0
-1228 -166 0
-490 975 0
-1931 -1694 0
1813 -1910 0
2201 948 0
-2129 1802 0
-2744 2456 0
-827 -388 0
-2905 -767 0
1834 -2674 0
-1997 -984 0
1680 -31 0
1881 2306 0
-1946 -1585 0
1973 -1189 0
-46 -626 0
-64 746 0
1782 2644 0
2186 2364 0
1019 -674 0
-1171 -2377 0
-859 916 0
-1210 2727 0
1623 2120 0
734 -871 0
-994 2458 0
127 2617 0
-1095 2262 0
2102 1264 0
-47 -2190 0
2840 -336 0
-288 2753 0
-994 1927 0
-1639 802 0
-1730 2533 0
1817 -1458 0
1340 729 0
-2818 2152 0
-2472 -1712 0
-339 1836 0
1092 1754 0
-1893 188 0
2284 1958 0
-1613 816 0
864 1171 0
284 342 0
-2878 2562 0
2909 851 0
846 1868 0
-160 -1848 0
-96 286 0
-2773 -686 0
-187 -1996 0
1225 -1974 0
2105 -1183 0
2516 578 0
2108 -698 0
-30 411 0
-1549 224 0
-2175 -199 0
-223 -1167 0
-1793 443 0
2404 -1664 0
1781 422 0
-2573 916 0
-2248 -1968 0
-2156 2885 0
-543 -2174 0
-1604 611 0
1800 -2184 0
550 497 0
1112 2531 0
2497 2751 0
104 1656 0
-324 -496 0
2698 -1384 0
1187 -629 0
-1924 145 0
-1180 -455 0
1750 -404 0
1569 -1158 0
-560 1921 0
1099 202 0
1536 -221 0
-2914 2101 0
-1999 990 0
-581 -1995 0
2311 842 0
431 -1139 0
941 -490 0
98 -318 0
2284 -2832 0
-2459 -2579 0
97 -5 0
-634 260 0
2613 2907 0
829 2712 0
1528 -2309 0
2134 -352 0
540 -536 0
-2914 2299 0
-2208 -2236 0
-954 -1323 0
809 -48 0
362 1929 0
-2042 1323 0
1732 -1346 0
2465 286 0
-641 -168 0
-1257 1199 0
-509 -105 0
-2175 -2090 0
824 -2632 0
2670 813 0
-2693 2015 0
-759 1007 0
-1791 -629 0
1885 2608 0
1464 -1450 0
-2570 -2410 0
2795 2202 0
-1087 -1352 0
-1289 -967 0
-407 -568 0
828 180 0
-2651 -64 0
34 -1574 0
-2828 1535 0
-2239 155 0
-1280 501 0
-1057 2222 0
1687 2108 0
-1901 2250 0
-2578 -1502 0
1490 -900 0
-1757 2645 0
-2017 1396 0
-1724 -703 0
2813 -1167 0
-31 1475 0
-1074 -2670 0
-2812 -1140 0
-1188 1655 0
-603 497 0
-500 -791 0
-484 2832 0
2830 -1952 0
1407 2354 0
1454 1068 0
-1593 -899 0
-2758 -1662 0
171 -2423 0
1298 -2633 0
-594 785 0
2849 1019 0
-509 -1049 0
2331 -643 0
3 732 0
-1049 -1565 0
1426 -1716 0
-2189 1966 0
-1135 -67 0
2337 346 0
1337 2314 0
-481 1267 0
-2480 -289 0
2322 -1613 0
-1311 2349 0
1262 2522 0
2473 -1732 0
-1690 -315 0
-1246 -258 0
-2385 -1031 0
-874 1343 0
-1089 -1161 0
381 -2876 0
-1310 2559 0
2046 -1183 0
2576 1829 0
1463 -2303 0
-1003 1180 0
-1930 1024 0
1860 -1861 0
-1262 -2607 0
2457 2235 0
-1292 -1211 0
2733 -2707 0
2298 -1629 0
-2064 2732 0
-238 79 0
-696 1518 0
2393 257 0
2652 2341 0
-601 -1552 0
1038 2078 0
2468 -1677 0
-2269 1359 0
1975 274 0
2403 1755 0
-2064 -1195 0
-267 2894 0
123 644 0
-424 -2495 0
1889 2218 0
1067 448 0
2513 1190 0
-922 -405 0
-1230 1593 0
-491 2603 0
349 -2442 0
2165 -371 0
1540 2162 0
25 2323 0
1668 -1581 0
-1725 2366 0
-1211 -2674 0
1576 -1087 0
-2443 1997 0
2652 2843 0
-635 -564 0
2607 -2144 0
-623 -2427 0
-2051 -2322 0
230 994 0
751 1949 0
-2022 782 0
436 57 0
-977 -1708 0
217 -1941 0
-2578 1685 0
-1851 2811 0
-2223 2288 0
-1419 960 0
85 -777 0
932 -257 0
-110 -1931 0
927 -368 0
2424 131 0
-719 -1862 0
948 -1100 0
-1842 -1361 0
-2915 -1951 0
-1361 808 0
-2048 1055 0
1433 1298 0
-4 198 0
-663 -1964 0
-331 -8 0
-1309 -1894 0
2393 -1867 0
314 1284 0
-259 -1025 0
653 -272 0
-1090 2631 0
-2671 2212 0
-2739 -2737 0
-2432 -2441 0
1705 -572 0
-670 2230 0
997 -481 0
2887 -442 0
957 -760 0
1757 1430 0
28 1976 0
-2606 -1389 0
-281 -2086 0
-850 -1955 0
-1886 1007 0
883 -2707 0
1732 -509 0
2846 766 0
-2306 -687 0
239 1298 0
-204 -162 0
-2443 -1643 0
805 374 0
2180 -120 0
-365 997 0
798 372 0
-2474 -2451 0
2387 2738 0
-1595 -1252 0
2822 2734 0
2435 -638 0
-693 -247 0
422 -2263 0
-566 -157 0
1234 2565 0
225 1957 0
1470 1172 0
-1426 2361 0
-1981 712 0
-968 -2696 0
1255 259 0
2320 -593 0
-1827 146 0
-1296 -1873 0
-1219 2905 0
1057 200 0
-144 2094 0
-1726 1199 0
82 -1364 0
-241 728 0
2900 1433 0
338 -1841 0
194 -687 0
-2803 2396 0
-2427 1971 0
1476 -658 0
-2778 1920 0
-563 40 0
-881 343 0
-714 1019 0
-303 -1197 0
-115 733 0
2614 -1095 0
1708 -724 0
174 2054 0
2764 -967 0
2761 2235 0
-2343 171 0
-2687 -33 0
-2301 1816 0
619 -2602 0
-866 1466 0
2843 1321 0
2597 -1110 0
493 -212 0
2640 -1929 0
171 1817 0
-1291 -755 0
2405 -1638 0
2330 -869 0
2189 -112 0
-1758 -103 0
1960 1433 0
2716 727 0
188 748 0
-2384 2749 0
199 2232 0
-110 -978 0
910 -1079 0
-1048 -1601 0
502 1529 0
-2785 -2317 0
-1391 2174 0
2565 -1418 0
57 -1787 0
1089 2572 0
475 -547 0
-2310 -1195 0
1102 -250 0
-2524 876 0
-2353 2483 0
731 -2262 0
1986 545 0
-1123 -728 0
497 2165 0
381 -720 0
-1906 2189 0
-2570 -1319 0
657 2012 0
975 -1091 0
-685 2573 0
2717 -526 0
1072 -1173 0
-2357 1264 0
-2377 -154 0
-2379 -2317 0
423 1259 0
619 -197 0
-394 -2763 0
-373 -1494 0
1258 1941 0
2008 -1781 0
-2580 -347 0
-2234 1986 0
2480 1035 0
-346 -41 0
-118 -1567 0
2372 -738 0
1980 -2076 0
-2247 -573 0
531 -250 0
246 -2184 0
2371 2392 0
2414 721 0
825 1772 0
-683 -971 0
-1635 -385 0
-1114 -739 0
-270 943 0
-1460 466 0
-2301 -1810 0
-2678 304 0
-261 -783 0
-2882 -53 0
-2073 -1631 0
2128 2547 0
2868 -1585 0
-1664 304 0
-2262 -1888 0
-1876 710 0
-1660 -667 0
-1976 -2807 0
-29 -63 0
-2053 179 0
2005 -2794 0
-2021 1842 0
2070 -1076 0
729 259 0
-934 1695 0
2575 -2778 0
-1407 -2051 0
-2260 1831 0
1971 478 0
-1242 97 0
113 -799 0
-2097 2370 0
-1814 -2878 0
87 -782 0
1597 -2411 0
-1050 2298 0
-254 1276 0
1341 1593 0
2102 2614 0
236 -1998 0
1034 -2452 0
-2705 -2427 0
2192 1715 0
529 -1382 0
1218 -2155 0
847 -2303 0
-2096 2682 0
1762 -82 0
2169 -1772 0
506 -1997 0
2905 1557 0
705 -1022 0
-2288 2291 0
116 -30 0
1193 -535 0
-1393 -1642 0
2834 -971 0
2713 -1690 0
214 -2560 0
-2742 2222 0
809 -2199 0
-2191 1027 0
-2065 -1311 0
-1948 -1815 0
79 -2066 0
2122 1919 0
-743 2907 0
-809 2733 0
814 2594 0
-1270 -2740 0
-2531 -110 0
-333 -2722 0
-2864 -2394 0
-1549 1900 0
-2056 -1290 0
-2669 -463 0
-1965 -600 0
1409 -482 0
-87 -1112 0
-1273 1030 0
-1510 307 0
-787 1141 0
1377 -420 0
-102 -1639 0
-2770 879 0
-2000 2753 0
2821 1758 0
2880 947 0
690 -2520 0
2532 1903 0
2307 2481 0
-2895 -72 0
1264 -238 0
2159 1936 0
711 -1519 0
-1868 2798 0
-876 -273 0
-1450 -671 0
587 -684 0
810 1559 0
-1595 -2877 0
-535 -1749 0
1543 -2504 0
2327 2381 0
1027 -1738 0
-2578 1309 0
825 -1765 0
2356 -92 0
2127 -2248 0
2316 197 0
2743 305 0
-645 -1344 0
-129 -2234 0
2092 -2384 0
-503 -2785 0
-2432 -2514 0
1262 -1756 0
-2814 1505 0
1354 -867 0
2108 -2203 0
-1537 427 0
-1224 -79 0
-1648 2388 0
1610 1106 0
-850 -408 0
2259 -522 0
-1461 -1160 0
-1085 1628 0
-986 2795 0
-1704 113 0
-415 -449 0
-2522 212 0
1088 21 0
618 559 0
2179 1467 0
-2389 -1909 0
-2199 -682 0
-2104 908 0
2200 2827 0
2712 1318 0
2794 -68 0
2584 1027 0
1792 -2892 0
1742 20 0
-126 -335 0
-2624 1995 0
-2591 2372 0
-1069 2416 0
-396 827 0
1671 -1427 0
-233 -646 0
2435 966 0
-2313 -1902 0
-2238 -1291 0
526 -1542 0
1438 1243 0
2371 1258 0
1546 1231 0
1150 -449 0
2655 -689 0
949 -2025 0
1710 -323 0
138 2369 0
-68 -647 0
-1662 -149 0
-2579 -641 0
2594 -1471 0
-1928 -1756 0
-2142 1733 0
-209 -196 0
240 663 0
-495 -387 0
-938 1150 0
-789 71 0
-1952 -215 0
-72 437 0
-2563 -1900 0
523 -606 0
1463 699 0
-1525 2421 0
-2558 575 0
421 -234 0
254 18 0
34 728 0
2652 -2240 0
736 2722 0
2477 1776 0
-1068 -2803 0
2488 76 0
1377 2756 0
-343 -1546 0
-1509 1523 0
2347 -15 0
1549 -1441 0
-2164 1409 0
-1443 -2518 0
1320 287 0
-2448 2917 0
1546 1692 0
2162 1517 0
1142 1769 0
-44 1984 0
-2750 1175 0
-985 -101 0
-655 2575 0
1548 483 0
-1013 -101 0
-2277 374 0
2343 1752 0
401 2709 0
124 -1955 0
1426 2064 0
2207 878 0
-603 382 0
849 2898 0
421 -1547 0
1201 -1979 0
1552 -2227 0
-1350 148 0
1283 254 0
-2551 -1734 0
1700 -2033 0
2402 1806 0
-2289 1349 0
2013 -888 0
1190 2403 0
2173 -2613 0
2477 2725 0
664 2767 0
2261 2191 0
2106 2111 0
575 341 0
-2586 -1609 0
-1054 1481 0
-1712 2036 0
-2592 -1074 0
2375 2676 0
798 2183 0
2528 71 0
2332 1048 0
863 2761 0
987 -861 0
1523 -2847 0
1573 -1037 0
-326 2407 0
-1387 2770 0
-2861 -2525 0
332 1004 0
-2130 -2546 0
1793 -640 0
528 1313 0
-530 -1465 0
1151 1398 0
-504 342 0
1141 -809 0
2536 1828 0
1902 1884 0
-881 -2358 0
650 -2779 0
-202 136 0
-1662 668 0
296 293 0
-1794 512 0
879 2263 0
495 -2915 0
604 -741 0
254 1782 0
1002 315 0
341 -1571 0
-1955 -1284 0
-2859 88 0
-449 2122 0
1945 -2714 0
-2490 -2255 0
2327 -1291 0
1739 978 0
-2057 894 0
-2089 1265 0
619 -1894 0
-86 -1945 0
454 1102 0
1743 -1191 0
-661 2148 0
-519 -1207 0
1235 2448 0
910 1969 0
-2279 -1820 0
2587 -2156 0
-453 461 0
-1477 -629 0
-641 -194 0
146 -1020 0
2534 -1198 0
580 775 0
-1360 -1521 0
-876 -703 0
1119 1595 0
1581 2447 0
1648 944 0
771 -1302 0
1142 2060 0
1246 -1145 0
-2212 26 0
904 1158 0
513 1831 0
1652 -390 0
1765 868 0
2163 -2523 0
-453 -684 0
2627 -2585 0
126 14 0
2213 1561 0
-1714 1040 0
-1307 -2337 0
266 -2196 0
712 1069 0
-238 2726 0
354 712 0
2455 -773 0
2077 -1845 0
714 -174 0
-651 -1599 0
-2515 -2688 0
-2295 2106 0
-131 219 0
-283 1877 0
1589 -415 0
-2614 -2027 0
-2601 574 0
2316 -1600 0
-562 2321 0
1325 2010 0
-1776 215 0
-1894 -341 0
-2674 1507 0
-2684 -1624 0
1005 -836 0
2370 -1815 0
825 -962 0
1191 -64 0
2091 -858 0
-459 587 0
-900 392 0
-2397 -1129 0
-2555 483 0
1011 -472 0
2276 -2059 0
49 886 0
-2168 842 0
1782 608 0
447 -1762 0
-2558 -2157 0
2395 -80 0
786 2485 0
2000 2752 0
1905 -1408 0
531 -1194 0
-2828 2349 0
-2631 -9 0
-158 -1199 0
-963 77 0
1433 2843 0
11 -1752 0
-988 -120 0
1593 1711 0
-937 1719 0
-2746 -1347 0
-2139 -383 0
2594 -2858 0
2502 -848 0
474 -106 0
1884 812 0
-1243 2897 0
2136 2730 0
127 -555 0
-2556 -470 0
627 -453 0
-1259 -2448 0
-1572 2081 0
-2470 -977 0
1491 -1378 0
230 -1194 0
182 1437 0
1933 1917 0
592 -2711 0
1470 -1507 0
-2650 -2606 0
1104 1469 0
-695 -2627 0
-1207 427 0
986 540 0
-2460 2360 0
876 -2634 0
2326 -1440 0
2844 118 0
2016 -2778 0
-1481 1973 0
294 -1536 0
2492 428 0
-2612 -714 0
1173 2547 0
-209 -416 0
1147 2840 0
-1954 1368 0
2373 166 0
-1555 -748 0
-670 1249 0
1968 1735 0
420 1942 0
2188 2088 0
-1907 -1120 0
367 1105 0
490 -1286 0
-1197 1434 0
452 -648 0
1910 -2313 0
2441 1302 0
2136 -1640 0
-699 -1051 0
-2201 966 0
688 1623 0
1663 430 0
-1051 676 0
2168 -1281 0
1562 -2804 0
1734 34 0
-146 1274 0
-603 2116 0
2911 1059 0
-1963 2245 0
-471 776 0
-372 809 0
-2855 -2525 0
447 -678 0
2382 2894 0
-1485 -520 0
-2194 251 0
-1805 -396 0
1801 -2552 0
2253 889 0
-815 164 0
-91 -1209 0
-598 246 0
841 2398 0
-1364 1898 0
222 2544 0
-1455 2533 0
-173 1768 0
1720 -1851 0
-87 -1031 0
2210 2010 0
2754 2012 0
508 -2664 0
1816 151 0
-234 1557 0
1205 1756 0
1002 2251 0
-945 -2007 0
-2904 397 0
2537 1638 0
-659 936 0
1192 2857 0
-1595 836 0
2819 435 0
1523 2370 0
1090 366 0
-2814 -1282 0
-464 2069 0
1026 1694 0
1819 -2627 0
213 839 0
743 -1873 0
137 172 0
-102 1663 0
-2628 -1250 0
-576 2198 0
1975 -1958 0
-1153 2560 0
-1848 -1103 0
-2633 624 0
-2163 2478 0
-1013 -1706 0
1204 -907 0
2370 -467 0
2029 -2353 0
-722 1694 0
2265 2056 0
-2798 789 0
-1991 2147 0
2719 962 0
-565 220 0
2769 2813 0
1003 2734 0
-2217 1583 0
1457 2177 0
-547 1604 0
-947 1657 0
353 -1442 0
-415 -1362 0
-115 -2205 0
2561 1535 0
-615 133 0
-1938 482 0
2358 -2331 0
2582 -1698 0
-1452 -1270 0
-2337 -633 0
1035 2617 0
-1586 -1153 0
-1816 -553 0
-1823 -12 0
-2275 1699 0
1325 -163 0
2126 -1416 0
757 -1180 0
-833 1325 0
1847 -2235 0
1856 466 0
910 -1595 0
-1807 -986 0
1771 1027 0
1406 -2807 0
1323 -2475 0
1934 -2094 0
-2382 2169 0
-282 2726 0
-1325 -1270 0
195 78 0
864 -2471 0
2287 2052 0
183 -742 0
-1681 -1201 0
990 -2413 0
113 -2536 0
-1426 -2315 0
-2593 2547 0
2299 2221 0
-387 -1133 0
762 -8 0
87 -395 0
684 967 0
1609 -2788 0
225 -1696 0
-1081 -1111 0
-1818 74 0
-2546 21 0
469 -81 0
-1497 -525 0
-783 -1262 0
1013 -334 0
550 -915 0
-731 704 0
363 2880 0
-2230 -2571 0
-1920 1484 0
-272 -739 0
801 -705 0
2646 680 0
-482 1577 0
586 -2017 0
106 -1888 0
2269 -2272 0
1366 2298 0
-645 -184 0
-191 -2884 0
-2022 2831 0
-1747 -2120 0
2213 556 0
-1050 -2057 0
-2076 318 0
161 2406 0
2505 -241 0
1592 -95 0
2892 -241 0
1170 -1543 0
1723 1073 0
-1532 2899 0
-2574 81 0
2195 -1878 0
364 1168 0
1567 2189 0
-1722 1859 0
119 65 0
1629 493 0
1218 1222 0
2609 -1379 0
-2402 1980 0
-1393 -41 0
2633 813 0
925 2099 0
627 1878 0
1692 1422 0
-1810 -21 0
-2003 -1015 0
-316 -1970 0
2429 -2746 0
2724 2666 0
-15 -396 0
1859 2371 0
-2069 -223 0
-2252 -2278 0
534 -2428 0
-1963 1606 0
-151 1570 0
2355 550 0
1421 1614 0
2825 116 0
667 -2156 0
-2736 2726 0
465 2388 0
234 411 0
-2399 349 0
2776 -2126 0
2481 -1578 0
2512 -388 0
1204 1685 0
-1521 157 0
-550 -2560 0
-1852 1397 0
2211 -848 0
-737 956 0
-2309 2800 0
1557 2274 0
-1732 2200 0
1593 -1155 0
-747 2461 0
1504 937 0
1377 -2396 0
-1624 -1745 0
1941 1457 0
-141 1350 0
-209 -295 0
2069 2017 0
2489 -2578 0
2758 -583 0
29 2297 0
1724 178 0
1682 -1826 0
-2324 -1664 0
106 -1016 0
-983 1792 0
-1021 -502 0
-567 -1645 0
-1111 -1603 0
349 -1378 0
-2674 378 0
301 1208 0
-748 -1904 0
1410 -1031 0
2785 2900 0
2240 -18 0
1007 -646 0
-1468 -2754 0
1550 1781 0
1802 -2611 0
1113 -1912 0
2069 2351 0
-2751 -2593 0
-1210 2405 0
-1581 493 0
-5 136 0
246 381 0
-435 1457 0
1506 1867 0
1458 -978 0
2677 -2399 0
2398 10 0
-2133 1785 0
758 -2113 0
-2150 -1619 0
-2623 2278 0
1527 94 0
1694 -601 0
-1314 -278 0
-1542 1142 0
-2083 -1250 0
-717 2296 0
-949 1972 0
-2250 -199 0
2659 -3 0
-674 787 0
179 -389 0
2753 2461 0
334 -1387 0
-1637 1263 0
1037 -1631 0
-1393 -2118 0
-2578 -1868 0
686 1173 0
-18 1131 0
2254 -2017 0
1059 2783 0
-1629 -2737 0
-624 771 0
-2604 2461 0
-2077 -295 0
477 1591 0
2138 96 0
1666 503 0
-1162 -2000 0
1713 2799 0
1790 1288 0
895 -2586 0
2361 345 0
-2589 -1360 0
-746 2048 0
-1736 -353 0
-2450 2166 0
-327 2571 0
442 -1594 0
-1980 2582 0
-2184 -1636 0
-1636 2500 0
2834 2508 0
-2376 1449 0
1996 -2578 0
734 -2268 0
232 -85 0
1375 73 0
1978 -2363 0
2448 61 0
1026 1278 0
446 -2324 0
-1108 1185 0
929 496 0
2619 66 0
-205 -1309 0
808 -1047 0
-2642 -2495 0
1875 -2359 0
1656 -827 0
2245 -542 0
2528 2459 0
-1485 1672 0
-938 1526 0
-896 -1048 0
-1736 -2277 0
142 111 0
-2555 853 0
2758 2248 0
-2454 1273 0
495 -1518 0
2666 -1910 0
2124 -326 0
203 665 0
-925 876 0
-1886 503 0
2531 2841 0
-716 1259 0
1173 -407 0
934 1242 0
595 2056 0
-1708 -1782 0
-1712 -460 0
-2017 2531 0
2447 -1764 0
2204 2840 0
-1330 1150 0
2180 -785 0
-1748 2911 0
1224 873 0
-2274 -141 0
1501 -2696 0
-1519 -1052 0
-1362 1696 0
-2374 2251 0
-698 -1831 0
-2317 1027 0
2131 2587 0
2044 -1002 0
2416 -662 0
2313 2369 0
1664 2166 0
1221 -2073 0
1965 -1458 0
-356 2198 0
-2506 376 0
89 2137 0
2354 1899 0
-157 -198 0
-1934 400 0
2758 -815 0
-2895 -1791 0
1001 -947 0
57 -2692 0
-174 -2094 0
2032 -1381 0
2908 -96 0
2695 -2806 0
-1715 2456 0
2912 -425 0
-748 2001 0
-991 456 0
1770 2271 0
1138 1702 0
1218 -1179 0
2798 673 0
774 -1639 0
-1799 2026 0
41 -283 0
-2820 2667 0
-581 -2518 0
-487 -499 0
1318 -2148 0
-1858 1974 0
-2876 1036 0
-2476 1767 0
454 1428 0
863 1225 0
-26 860 0
-742 115 0
682 -2351 0
2735 -315 0
-874 42 0
664 -2047 0
-51 -2876 0
870 -416 0
-2496 -2542 0
-2234 -1739 0
-2138 644 0
-442 1537 0
1857 -672 0
1921 65 0
232 461 0
855 2084 0
-26 514 0
-1959 -1709 0
-2602 -1888 0
2746 -22 0
404 2710 0
1057 -792 0
2177 1394 0
1754 344 0
807 -17 0
749 -855 0
1817 2173 0
1303 676 0
2393 -961 0
-1314 -2842 0
1054 -1319 0
516 1471 0
2255 1877 0
-1562 -1174 0
1373 700 0
1566 497 0
-1970 -2876 0
2491 2470 0
-1116 -1222 0
386 -1963 0
1802 136 0
124 2736 0
361 934 0
414 -528 0
-77 1943 0
-1493 -1361 0
-1361 1787 0
-2518 107 0
107 -2164 0
1149 -1086 0
1090 -2042 0
-2058 523 0
770 56 0
-2075 -2322 0
681 1371 0
-969 2292 0
1994 2637 0
2449 -2498 0
2265 -2362 0
2671 2169 0
2566 1975 0
2787 131 0
2070 -1701 0
-2178 -2059 0
-23 1300 0
106 503 0
135 1485 0
-2828 -934 0
54 1960 0
1636 -2052 0
-892 2799 0
-2851 2840 0
347 2245 0
-2747 -2288 0
-1347 2010 0
482 -780 0
2627 -424 0
1234 -2544 0
2818 -109 0
934 1276 0
-2403 -1745 0
-900 -597 0
498 1575 0
-630 -1074 0
332 2686 0
2553 97 0
310 -2909 0
2864 -2047 0
8 -2228 0
-1004 1539 0
1733 -1531 0
-1001 -676 0
2614 -1969 0
-2186 -1841 0
-2076 959 0
2849 2831 0
-2836 2792 0
-2067 -2577 0
178 2884 0
2714 229 0
-2479 -698 0
133 -2548 0
-784 2792 0
2115 2442 0
1684 -1521 0
-1199 1068 0
-1353 -1933 0
-1046 -985 0
962 -518 0
-2316 1227 0
2509 70 0
-1352 -891 0
2797 -2379 0
266 2265 0
2910 1127 0
2716 -1513 0
1120 -196 0
1896 -958 0
-2396 -782 0
1353 -1651 0
-1070 -2254 0
723 2605 0
-1494 2362 0
-926 971 0
93 -555 0
1946 1306 0
-741 -859 0
-1626 1908 0
-1752 2780 0
-357 286 0
-504 -1722 0
-26 2611 0
-1818 -283 0
2746 2247 0
1467 2370 0
-523 1877 0
-2338 149 0
731 2487 0
823 -1999 0
2567 386 0
1551 -193 0
-82 -2670 0
-1203 2269 0
2582 -2849 0
-2153 381 0
-2755 1478 0
1088 -2172 0
-1478 -2474 0
1768 2754 0
1431 2481 0
-1788 1037 0
2866 -2737 0
-2488 -223 0
1837 2674 0
885 -2841 0
-1372 -2291 0
-1285 -2302 0
-2007 -1414 0
-931 2751 0
-1814 2112 0
182 -1766 0
-2659 -1838 0
1646 1780 0
913 1005 0
2060 624 0
-589 -2815 0
2029 1714 0
1758 1376 0
-2193 -404 0
-1064 -1183 0
-1542 -1979 0
749 -854 0
1261 -1303 0
2145 722 0
-2871 1605 0
-2822 1150 0
-174 365 0
1481 2062 0
287 1539 0
2095 2667 0
-2074 2368 0
-2650 -2837 0
-1823 -710 0
303 -1018 0
225 -1950 0
2720 -740 0
-2275 1543 0
-1248 800 0
-154 2870 0
-455 1865 0
206 1980 0
-2806 -2886 0
-1393 2595 0
-2045 -1077 0
1701 34 0
2066 692 0
-2751 -955 0
-1120 224 0
1259 -1792 0
600 956 0
-2172 -1374 0
477 -2757 0
-1563 1839 0
-66 -1954 0
721 -2291 0
-2820 -969 0
1616 -366 0
-702 1472 0
2295 -486 0
1371 510 0
495 574 0
1865 1360 0
2355 -281 0
-237 1856 0
2202 -251 0
2661 -1406 0
1260 2041 0
2203 1230 0
-1851 -1834 0
-1734 -1871 0
1156 599 0
-1757 1524 0
1421 212 0
-54 1029 0
-2385 -2617 0
-1475 2775 0
-2695 2556 0
2896 -1188 0
-634 1510 0
2120 -2617 0
1689 254 0
-305 1691 0
-1212 -2566 0
1481 679 0
-1876 1713 0
1615 771 0
2708 -1004 0
2302 2873 0
2294 2897 0
-1609 155 0
-2 1593 0
1450 -1442 0
2273 98 0
-962 -1493 0
-366 -1317 0
-1561 -157 0
1880 1161 0
-937 1340 0
-446 -500 0
40 -2571 0
1885 -2199 0
2680 1050 0
164 342 0
934 853 0
-1977 2555 0
-86 -1391 0
-945 -2610 0
-183 474 0
1268 -1795 0
-1828 -2866 0
-505 239 0
-596 -581 0
-898 2870 0
325 1787 0
-309 -1833 0
-234 -7 0
-2673 -831 0
-1420 -903 0
-530 2165 0
2148 -2873 0
-2399 -672 0
-1258 -2229 0
1382 482 0
-2340 2743 0
-2211 793 0
2617 -1497 0
1342 2701 0
-111 846 0
-785 2355 0
-844 -2249 0
-1990 -291 0
528 1116 0
-1406 -1928 0
683 -385 0
-502 -303 0
2028 940 0
-2755 -1776 0
2163 691 0
1502 -391 0
-2488 1318 0
-1983 -2124 0
717 990 0
1356 966 0
2498 -549 0
916 -170 0
478 -2184 0
1397 -2554 0
1702 -2878 0
-1384 -751 0
-474 -1012 0
-1202 -2013 0
-2906 643 0
916 -345 0
-698 -1219 0
1837 -1935 0
-357 -1304 0
18 -1158 0
-2154 1229 0
1686 266 0
-2246 2393 0
732 1479 0
-1702 2159 0
2292 -960 0
392 -896 0
1028 -696 0
-160 -280 0
2780 -2475 0
-2432 2495 0
-1193 2001 0
-1234 -463 0
-1534 2728 0
80 -2251 0
-2027 -2908 0
2505 2833 0
2393 -1455 0
-947 -92 0
1719 1358 0
896 2145 0
-964 2794 0
1694 1708 0
-103 1912 0
1510 -1361 0
2500 -2032 0
-888 -2407 0
-1438 676 0
979 -2019 0
-2751 -1786 0
-2550 -2457 0
1765 1479 0
1157 -1786 0
1220 -2575 0
461 -2744 0
483 717 0
-1030 -2715 0
329 155 0
1634 -2723 0
462 -2721 0
-1807 2179 0
-1916 -764 0
-326 1479 0
1359 -2120 0
-1767 2088 0
-1995 2503 0
1196 1804 0
-887 2006 0
-780 -251 0
1157 328 0
297 -1145 0
-2810 1788 0
-289 1940 0
485 891 0
2151 -2079 0
-2478 -772 0
-2448 -554 0
-2783 413 0
1925 -151 0
2898 106 0
-1095 -1255 0
-784 -2731 0
-2687 1691 0
2276 -435 0
-2829 1858 0
-379 850 0
131 906 0
-2538 -2160 0
-256 -1207 0
1942 -973 0
2504 -1478 0
-2172 897 0
-2262 -630 0
-2372 -1661 0
-2148 -661 0
-1930 885 0
-1851 -707 0
2671 -723 0
1677 2283 0
1891 -2130 0
-2172 719 0
-837 -2260 0
-2156 -867 0
1364 -1997 0
602 -437 0
2144 2774 0
2901 2142 0
-1444 2790 0
2172 -2413 0
-2046 2357 0
-507 2029 0
2451 -2751 0
1054 -2046 0
374 -1178 0
2612 407 0
1525 722 0
-221 -801 0
-216 -2757 0
48 -1266 0
-319 -2837 0
-598 -1742 0
2584 722 0
2881 -2581 0
283 1322 0
-1098 1656 0
1520 1773 0
2822 1597 0
-2602 2897 0
2319 -1124 0
-1827 1374 0
648 -1043 0
912 901 0
2434 -591 0
-2039 -2412 0
1328 1692 0
229 -22 0
-2898 -1010 0
-66 -2336 0
501 541 0
1685 934 0
771 -1481 0
-227 260 0
1761 2597 0
1276 -461 0
2362 1698 0
-1409 -2194 0
-757 465 0
1748 -2448 0
-1557 1223 0
1695 -1619 0
-368 -1595 0
6 -824 0
747 1566 0
1198 734 0
-244 -229 0
542 -504 0
-1187 -2915 0
2200 -2891 0
-691 1701 0
1607 -1725 0
-597 313 0
-1943 2402 0
-1474 382 0
73 2182 0
1218 -2209 0
-167 834 0
-1940 169 0
2210 1095 0
-1580 798 0
-380 -2174 0
-2053 -2515 0
7 266 0
2173 -980 0
616 2192 0
-68 -1674 0
1115 -1929 0
-1767 2766 0
-2869 -96 0
-1358 387 0
-1291 1448 0
-1599 -2695 0
1407 -2544 0
1488 -2425 0
69 -1018 0
-2875 -1416 0
-2059 -279 0
-1415 -514 0
937 1156 0
-2284 2650 0
-1362 1528 0
-1423 2288 0
-777 1689 0
2780 1816 0
988 2783 0
1377 946 0
105 -2913 0
1030 -880 0
-2704 -2090 0
1080 -1749 0
-2621 -1265 0
-2289 -1108 0
-2537 -2140 0
-2439 -2815 0
871 2092 0
138 971 0
1565 1741 0
2187 403 0
2143 -169 0
2556 -1883 0
-1955 1552 0
1652 -2905 0
-2320 1779 0
823 -1636 0
-380 -1487 0
1647 -713 0
155 100 0
2840 -2038 0
-531 -69 0
1357 639 0
-638 646 0
2877 2880 0
294 2229 0
-2228 2043 0
-1576 -1795 0
485 715 0
1072 1784 0
2723 1535 0
-67 -2722 0
1877 1626 0
1925 -90 0
2286 769 0
1695 -2909 0
-1963 2064 0
-2027 1515 0
-2280 1304 0
-1346 -1153 0
1089 1469 0
1900 1129 0
-69 -579 0
2670 2421 0
-404 2106 0
-524 1164 0
-579 1128 0
-1441 2774 0
-1595 -1952 0
2334 2660 0
606 1725 0
-543 1092 0
746 -1575 0
2554 2894 0
1822 775 0
-2366 -1347 0
-530 11 0
615 -420 0
-1791 2032 0
282 1613 0
130 27 0
-415 1844 0
-2394 794 0
-899 2277 0
1064 1951 0
1071 1127 0
-2071 2141 0
1703 -498 0
-1085 -29 0
-542 595 0
2378 -629 0
2300 -2320 0
1528 -2236 0
1430 1570 0
2317 870 0
1269 2250 0
2481 -873 0
-1075 -1189 0
-2853 378 0
-1032 472 0
528 2222 0
-106 2257 0
-1049 -1337 0
1951 -119 0
344 -301 0
2341 -2621 0
1951 -632 0
-2789 883 0
2462 1801 0
152 -303 0
-2373 236 0
-1617 -1 0
1138 2605 0
1778 -490 0
2361 -1485 0
2319 -2088 0
-241 988 0
368 2187 0
-1317 2551 0
1376 -1848 0
-1257 -1535 0
-329 339 0
-169 -2383 0
1213 1768 0
673 -2744 0
-2845 -330 0
715 -1084 0
-768 1318 0
750 2108 0
1420 -2033 0
1476 2570 0
1433 -1397 0
-1174 53 0
939 2600 0
-2542 -1361 0
403 -2201 0
252 -1758 0
-1616 1263 0
209 -2665 0
-1799 -1909 0
-2665 1306 0
-1290 -2841 0
-827 -1203 0
-2124 -242 0
743 1716 0
-1148 -2882 0
-1502 641 0
1517 921 0
1717 -1746 0
-1000 -2590 0
-1420 -817 0
2174 1823 0
-2554 -672 0
2217 2834 0
-1502 -1772 0
770 -1089 0
259 -2116 0
2658 -343 0
1817 -1469 0
-1987 -1327 0
-1237 -1317 0
-2837 1974 0
-981 -1313 0
-2234 833 0
-1629 702 0
539 -878 0
-1414 -1897 0
-1210 -2462 0
2887 1129 0
2441 -1018 0
979 347 0
-2476 -1465 0
-1655 1470 0
2045 178 0
214 -1775 0
1248 -2270 0
1498 -1297 0
-1 1984 0
-380 -747 0
-1114 -1981 0
-2258 2878 0
1080 -2455 0
1032 -2877 0
2712 1044 0
2068 121 0
738 74 0
-16 -1152 0
-1618 1718 0
445 -2802 0
-831 1036 0
1375 -428 0
-2805 -932 0
-2260 -1077 0
-2377 -472 0
-2684 1768 0
129 1962 0
728 1383 0
-2642 2019 0
2138 1973 0
-2860 1616 0
2105 793 0
646 -1097 0
465 728 0
-2255 -2345 0
508 -1795 0
-2079 -2113 0
-876 349 0
1665 1580 0
2532 1051 0
606 -2048 0
-86 -237 0
67 -316 0
1801 -73 0
-1727 -2890 0
-47 262 0
-2420 564 0
1365 2706 0
-588 2131 0
893 -1707 0
1971 -1430 0
561 2500 0
891 -679 0
1507 1446 0
-1811 43 0
-2457 322 0
2338 -426 0
639 -1461 0
-2267 1425 0
-2403 1951 0
-173 2824 0
-1810 -794 0
-931 87 0
1829 -475 0
678 221 0
-2257 1646 0
-2065 -1375 0
1139 2089 0
1916 1024 0
-755 -1203 0
-355 1279 0
-306 1026 0
1817 -1385 0
2705 -803 0
477 -2230 0
1914 -2586 0
-301 -2238 0
-626 -754 0
-1563 2350 0
-1840 -1414 0
2502 2275 0
2780 2819 0
680 834 0
1656 -491 0
873 -1150 0
-1563 1927 0
-2600 1910 0
561 -799 0
1033 1628 0
574 -612 0
-2340 1614 0
986 1248 0
-1139 -1849 0
-532 2077 0
2200 675 0
-73 -91 0
2859 -548 0
-1619 -2182 0
-1465 -433 0
360 749 0
-1969 2699 0
1072 -1702 0
-2800 -1833 0
1699 -1300 0
-976 955 0
-859 -128 0
1082 -641 0
586 2007 0
-2632 553 0
-290 2509 0
2781 2641 0
-2507 2417 0
2328 286 0
-2077 -295 0
2678 1818 0
-630 -2624 0
-1654 -8 0
-1257 2337 0
2358 -2268 0
320 -2624 0
1154 1679 0
574 325 0
-1991 -2846 0
-1163 -648 0
-1873 -1017 0
2640 639 0
-539 -408 0
-1464 -472 0
-1009 -1460 0
526 2411 0
1927 -1602 0
1507 856 0
1278 578 0
1058 -902 0
79 2868 0
-2876 69 0
384 -106 0
1056 -2446 0
2657 -1954 0
-1817 -1588 0
-1183 1406 0
-2401 2305 0
-1725 35 0
-1478 2584 0
-1245 170 0
452 280 0
-1784 -1317 0
-709 -1794 0
-1441 -1313 0
2691 -1119 0
-1588 -1565 0
-2744 -2295 0
-252 1992 0
380 538 0
100 2752 0
-2307 447 0
2080 -2193 0
-2475 1417 0
2795 1521 0
1526 2202 0
-1335 1713 0
2896 53 0
2483 584 0
-1738 675 0
2066 -828 0
-744 1375 0
1801 -1301 0
1775 1082 0
1255 254 0
2154 1804 0
-1876 -2063 0
2234 508 0
-285 2500 0
105 799 0
-1667 2141 0
1160 -366 0
-1736 1618 0
2658 -760 0
2468 546 0
2786 2513 0
-2375 1298 0
-1726 -1893 0
2688 -1071 0
-190 1215 0
-2068 -2517 0
1682 2271 0
87 2749 0
2746 1881 0
1076 -2338 0
774 716 0
-1389 -1986 0
2128 -1736 0
2547 -1445 0
2070 -786 0
-2220 -2623 0
699 -760 0
-2754 386 0
-52 -1944 0
711 -1712 0
-259 1657 0
-244 -1351 0
2244 1064 0
-685 1398 0
1832 701 0
-2777 -2342 0
-2752 1574 0
-488 653 0
1034 -1734 0
810 1620 0
-1588 2174 0
-280 895 0
-370 -2334 0
-471 2550 0
-2168 2669 0
-1624 -348 0
1995 1336 0
1491 -565 0
1897 -1423 0
2792 2008 0
2242 1714 0
-215 1703 0
131 -2389 0
-1418 2007 0
-524 -671 0
-1629 -2333 0
2234 -2352 0
-2840 -283 0
-219 880 0
614 2379 0
2177 -1296 0
2425 -1808 0
-2524 -1204 0
-476 412 0
214 -74 0
227 1343 0
-2669 981 0
2087 -1296 0
2435 -1665 0
-2164 1223 0
-2003 2148 0
2829 665 0
1336 -1709 0
1651 1320 0
-2485 -2513 0
2649 1762 0
-1554 -96 0
1958 -353 0
1828 -173 0
-2526 -2214 0
1504 -1617 0
2824 121 0
-4 1472 0
-2560 89 0
-666 1448 0
-1775 1045 0
-950 -813 0
835 -2256 0
-2872 -2488 0
-1642 90 0
324 -2499 0
272 -1657 0
-795 -1046 0
-1301 694 0
665 -425 0
1906 508 0
1913 -147 0
-85 2058 0
-2591 -2596 0
1596 2326 0
-248 -196 0
-115 1105 0
1241 -2526 0
104 2499 0
2077 -2007 0
941 -2662 0
-2267 731 0
-1799 -2690 0
-1082 195 0
-1747 -837 0
716 1463 0
1864 2004 0
1204 -2538 0
-1147 -1847 0
-341 -1046 0
2713 945 0
1050 -91 0
-1655 -1060 0
-2160 -1661 0
-2460 2897 0
-633 -2016 0
-1918 -1300 0
-2031 696 0
1654 1762 0
2870 7 0
983 1030 0
-2866 935 0
-2124 2486 0
1987 1917 0
2907 -1852 0
547 1548 0
1515 2204 0
-863 -2423 0
-1701 1761 0
1472 -1452 0
-2842 1233 0
-977 -2330 0
-420 1262 0
2374 -191 0
2591 -1870 0
-277 36 0
1120 2682 0
1443 1762 0
-2346 -2378 0
2622 1787 0
2261 -1385 0
2524 2132 0
2258 -92 0
2426 1437 0
-1019 -1108 0
131 991 0
-2560 -1209 0
1945 -1551 0
483 962 0
222 2504 0
-353 -2677 0
2176 1269 0
-931 520 0
-1423 -1049 0
652 -1592 0
1011 -433 0
-2108 574 0
-2280 1338 0
-455 1140 0
-1389 -1798 0
880 2604 0
2768 -1587 0
-378 -1162 0
2205 -1985 0
2111 -936 0
1650 -1079 0
1196 118 0
1281 89 0
69 126 0
-721 588 0
-1477 838 0
2313 597 0
727 332 0
2380 -2348 0
2429 2141 0
222 2115 0
2576 -1988 0
-1976 -295 0
2586 -2743 0
1622 1751 0
812 -2471 0
-2217 2836 0
-1335 804 0
1161 2120 0
518 -1813 0
1235 -1855 0
61 2537 0
-753 -1079 0
-2839 -2841 0
-2303 1101 0
-264 -2104 0
828 2570 0
-95 -1384 0
-2418 1216 0
-845 2594 0
1412 240 0
83 -1863 0
-2112 2350 0
539 -1639 0
150 -427 0
-601 -1604 0
-2071 -330 0
-1004 -1604 0
-2003 -434 0
607 -174 0
-643 -1559 0
131 -97 0
-1928 -1447 0
-1740 -95 0
-2139 -276 0
-2702 1791 0
-65 -858 0
402 2840 0
-1368 -1291 0
-783 -2510 0
-2574 2128 0
2404 1750 0
34 -2777 0
2672 -1554 0
2157 -2329 0
1118 1006 0
-2545 -2326 0
-2657 -1926 0
-2468 2364 0
-1405 2425 0
1638 1390 0
113 2380 0
-1305 -1031 0
40 -2601 0
2664 1248 0
-2198 -1621 0
-2883 -1246 0
-1083 1024 0
802 1063 0
1614 -877 0
-2887 -356 0
-584 1611 0
-2665 725 0
61 -819 0
1790 -903 0
2182 1428 0
990 -522 0
-874 -1994 0
2870 2762 0
1348 2901 0
-2799 -2021 0
1487 788 0
-1869 -1905 0
1907 2911 0
2783 1671 0
-356 -984 0
-2163 99 0
1304 -394 0
2688 2049 0
-1408 1313 0
-1838 -1485 0
2619 2237 0
1509 868 0
652 1565 0
2838 -2037 0
219 1909 0
203 1565 0
-2071 2909 0
-1232 2372 0
-557 2155 0
-1626 -580 0
-2260 -1829 0
-1188 -2581 0
328 708 0
1808 -242 0
1383 156 0
1157 -96 0
-466 324 0
-897 -1072 0
185 1448 0
-1388 2477 0
367 -2263 0
2747 2698 0
1242 -728 0
-2567 1079 0
1102 -242 0
-858 -1285 0
-663 -309 0
-283 -2554 0
1503 -2093 0
757 -1954 0
1703 2778 0
-114 1145 0
2133 -1485 0
-2804 -1894 0
-2009 -2417 0
2079 296 0
-394 855 0
1622 -1513 0
-1147 2367 0
-1552 -1424 0
1467 2626 0
-1581 -532 0
-403 2487 0
2189 1735 0
2027 -1299 0
2634 2564 0
-468 -1247 0
2606 2530 0
-734 -2684 0
-1116 -1900 0
924 707 0
-2047 1320 0
2221 -1132 0
-22 -1181 0
2611 -1388 0
-2056 477 0
-2415 1117 0
707 -2135 0
-2654 1933 0
1059 1728 0
1478 -2104 0
-584 -2678 0
1068 -2548 0
-374 -442 0
-2651 1573 0
874 877 0
576 2025 0
677 1694 0
-662 49 0
1893 1933 0
-2510 -1976 0
1023 2188 0
2273 734 0
2722 2330 0
1475 -2109 0
919 -1143 0
-994 -2354 0
-312 -248 0
-367 -2403 0
2273 -2538 0
-1729 1103 0
-2152 2730 0
-1940 -661 0
-543 -807 0
-617 2694 0
-1209 2344 0
-395 2092 0
209 458 0
2625 2207 0
397 -2816 0
2791 643 0
2759 -1889 0
2132 2424 0
1943 1626 0
508 193 0
1859 -158 0
1872 -2913 0
-2354 1110 0
878 -408 0
1141 1157 0
-1644 2504 0
325 2724 0
-1380 987 0
2490 619 0
1228 -1015 0
-2635 -355 0
628 1994 0
-2590 -2053 0
1938 2112 0
1113 2343 0
552 988 0
99 -164 0
443 -1781 0
1802 1026 0
-1407 -1545 0
2056 888 0
-492 -2757 0
-1256 2296 0
-2856 -2738 0
2028 -2739 0
-353 305 0
194 -62 0
154 -2744 0
2192 -87 0
1246 -2634 0
-189 1490 0
2753 1048 0
2212 1490 0
-2724 -1387 0
1195 709 0
-343 -1832 0
-2005 2909 0
-2483 -1946 0
1965 1657 0
571 2745 0
733 1992 0
-107 -1980 0
-108 1559 0
618 701 0
2512 -450 0
-1444 1188 0
-2855 -765 0
-1649 -197 0
1735 -2332 0
-471 2671 0
-1179 2732 0
-1382 -1199 0
2719 243 0
38 -1952 0
-2112 801 0
-2236 1385 0
-210 1284 0
124 2378 0
219 -195 0
2193 -1732 0
2084 2701 0
477 2145 0
2068 1885 0
1449 -2172 0
-1052 -1568 0
689 -2495 0
-1455 2595 0
-1352 75 0
1172 838 0
459 2000 0
-1193 -178 0
-316 1417 0
1593 -1913 0
-1523 879 0
-489 99 0
-1618 813 0
-256 -1485 0
228 -345 0
2829 -2365 0
678 -1448 0
2155 829 0
-1558 2287 0
-1245 129 0
-2846 -1965 0
1 -1499 0
2613 2691 0
2915 -954 0
-1397 532 0
788 -2245 0
-753 -1210 0
-1938 370 0
-53 2267 0
-625 -1897 0
21 -1686 0
-1432 -840 0
1903 1710 0
-2110 -127 0
-994 1875 0
376 -2879 0
-777 1350 0
-2237 -1101 0
624 1094 0
-977 -814 0
2393 1751 0
-2471 1135 0
763 28 0
1434 1859 0
-1276 -2598 0
755 -379 0
-2266 2105 0
1444 -123 0
1750 -2031 0
1262 -907 0
-2221 1141 0
-997 -1205 0
900 -1963 0
2370 -540 0
-921 -2727 0
-2177 2023 0
528 -456 0
2377 -524 0
-727 -2057 0
2483 -2356 0
-923 -438 0
-2021 -722 0
2313 -1438 0
-453 -750 0
446 1278 0
-1930 -2357 0
-385 -851 0
-2588 -237 0
1613 -1089 0
1895 -1005 0
1067 1020 0
47 -917 0
2013 -725 0
1543 -1008 0
689 -894 0
-2713 -2172 0
260 580 0
-408 1069 0
-2181 729 0
2648 1690 0
-2059 -1189 0
2170 1218 0
869 213 0
2188 -2086 0
616 773 0
-586 133 0
2130 -190 0
-128 -1820 0
1999 -1188 0
1535 623 0
889 398 0
-2831 1779 0
-565 -2773 0
541 -1178 0
320 -867 0
-611 -1418 0
-2143 -2178 0
-2396 2808 0
2745 2015 0
-691 1717 0
21 1825 0
-2188 1396 0
1374 -2591 0
-1604 -2826 0
2798 -1059 0
483 600 0
1702 -1703 0
2112 -387 0
-2390 2012 0
993 559 0
1736 1583 0
-1530 -128 0
-577 1900 0
1367 1492 0
777 -2537 0
1583 1621 0
-1422 2159 0
2705 -2593 0
-222 1927 0
-1670 -943 0
992 744 0
113 -1918 0
-2205 2381 0
-2053 -1311 0
-858 599 0
-2768 1328 0
2812 2637 0
2710 -1833 0
1758 44 0
-2480 -1709 0
-661 2595 0
1103 104 0
204 2391 0
-1077 742 0
-1455 644 0
2660 1320 0
-2226 -2422 0
1615 -1042 0
-1432 -2176 0
295 1407 0
216 1883 0
-1194 1479 0
1678 2759 0
-957 -1643 0
-727 711 0
-145 -1228 0
950 -168 0
-2396 2869 0
-727 -2662 0
577 102 0
-1100 901 0
1968 2818 0
-2397 1834 0
3 821 0
822 755 0
1374 -17 0
2404 -9 0
2039 2469 0
1 1434 0
-47 -2246 0
2006 -2024 0
2392 1338 0
361 -947 0
-194 745 0
-1006 -2248 0
927 2359 0
-2607 -2155 0
2194 982 0
-292 1978 0
-2412 309 0
-2174 -2592 0
-1313 -1804 0
-1566 -1096 0
-202 2688 0
-142 -1774 0
-368 766 0
-1779 -2352 0
-1272 -306 0
2581 -603 0
-1738 -1813 0
1341 -2628 0
2185 -336 0
1065 -2510 0
-2403 1023 0
664 468 0
1092 1559 0
-2399 1861 0
-2621 386 0
1856 -1967 0
-568 1562 0
-1322 2680 0
-2509 962 0
1768 2282 0
1038 -1080 0
-1004 -1115 0
-1544 -2743 0
-2298 -1911 0
388 -720 0
-803 -2235 0
-2192 -902 0
1242 539 0
2277 -2305 0
1410 269 0
-1901 -268 0
2026 -1130 0
2533 2800 0
917 -1911 0
-2638 2800 0
-1461 -520 0
1543 -2403 0
-1839 -646 0
720 -2877 0
1194 -822 0
-1883 2655 0
1507 171 0
20 -2102 0
1580 1956 0
-981 2012 0
-1749 2567 0
-1650 2138 0
-320 -250 0
1028 -449 0
-1566 782 0
-2458 174 0
-1600 -289 0
42 -1552 0
-2674 -1917 0
514 1790 0
976 -997 0
-392 20 0
2733 -1666 0
2672 -204 0
2650 1742 0
813 2701 0
-922 2601 0
-2191 1036 0
-2164 913 0
1048 -2460 0
2136 2372 0
1871 -661 0
-1649 -1234 0
-157 1649 0
-2562 2475 0
2394 2095 0
-2756 -325 0
-2354 2286 0
-2451 298 0
898 1891 0
2737 -629 0
-1821 2583 0
228 1988 0
922 -1519 0
1529 1735 0
1220 1631 0
-778 2664 0
-2214 -2164 0
1011 2154 0
1819 -1910 0
-1969 857 0
2290 1711 0
-2145 -2581 0
2838 2297 0
-803 -713 0
-783 -327 0
55 -782 0
2416 -1358 0
-1047 -394 0
343 -2133 0
792 2212 0
1254 1543 0
1988 -2443 0
-1501 2565 0
2238 705 0
1543 2006 0
498 2188 0
-2346 365 0
-2892 -1497 0
-850 -2740 0
-17 -1982 0
-1974 707 0
302 1398 0
-480 199 0
664 1790 0
1994 1625 0
2527 1775 0
157 1156 0
2450 -1825 0
2833 1837 0
2063 1229 0
-745 2317 0
-858 -1602 0
556 678 0
2102 1044 0
31 494 0
2045 906 0
-2563 -2662 0
2300 -2476 0
2266 2305 0
-730 -2540 0
422 -940 0
2887 335 0
-1661 2734 0
-2833 2257 0
-778 -2801 0
-2536 2232 0
-30 1017 0
2152 -1388 0
1789 -1903 0
2304 -829 0
-2046 87 0
-2910 -2201 0
362 -857 0
2202 2122 0
-1780 -2184 0
655 2508 0
999 -1349 0
-661 2771 0
944 1637 0
427 2225 0
1017 1215 0
-2651 -1808 0
2055 -1054 0
329 -153 0
418 936 0
1336 -31 0
-2 -579 0
-1950 -603 0
2332 -1800 0
-1282 695 0
597 -1321 0
-126 2749 0
-20 -626 0
1856 878 0
-2596 2863 0
-1661 162 0
-2408 -2810 0
-1476 1294 0
1107 759 0
-1285 -2354 0
-1414 2523 0
2250 -1750 0
-1963 1813 0
-1473 -628 0
450 -2224 0
-442 -2374 0
1605 -459 0
1320 752 0
1718 -794 0
-45 -280 0
850 1069 0
403 2829 0
2732 292 0
-1034 300 0
-2362 1383 0
1377 -1951 0
-2059 1892 0
-2243 -171 0
-2793 2159 0
1831 -2127 0
2641 -2238 0
-1188 -2615 0
-467 -1712 0
1397 -1089 0
876 1892 0
-1167 -609 0
2339 2609 0
581 2032 0
-2157 -2774 0
-477 -241 0
-1725 -433 0
-132 -1502 0
-536 -423 0
2208 885 0
873 889 0
-551 -2676 0
-2288 2826 0
2469 378 0
933 2232 0
799 2857 0
402 -703 0
-1634 636 0
2843 -2344 0
-407 -1201 0
146 -210 0
567 286 0
-1113 1142 0
-2401 1882 0
-1257 997 0
1083 44 0
-1940 1063 0
2869 -1100 0
-1376 -396 0
-2567 1911 0
1084 -1450 0
-215 1536 0
1944 -1480 0
2125 -2829 0
971 -190 0
-1358 456 0
-251 2307 0
2535 2853 0
-1222 -986 0
-1963 -2107 0
-1254 2347 0
2527 -846 0
2079 -15 0
1171 793 0
71 -265 0
-1314 2183 0
-2127 1609 0
-1003 2142 0
-2693 -1429 0
-416 2751 0
247 -23 0
-2243 2106 0
1175 690 0
-309 -262 0
2341 1622 0
-330 13 0
1343 -708 0
1075 -1899 0
145 2906 0
1111 321 0
-2695 -1238 0
-226 1424 0
2859 -1777 0
-2826 -1176 0
229 1427 0
2380 -584 0
2425 -2404 0
340 -590 0
729 243 0
384 1171 0
-899 2099 0
2580 -1705 0
2857 -816 0
2554 508 0
1229 -674 0
920 287 0
-247 -1972 0
-1085 -748 0
-1706 2006 0
-1196 1728 0
944 -2826 0
-1533 2533 0
-1622 1480 0
-1832 756 0
1892 332 0
-2798 2447 0
-112 1202 0
-675 182 0
2428 1900 0
2662 -393 0
-2227 1385 0
1142 1691 0
305 -2419 0
2899 -112 0
334 2165 0
-2348 -1028 0
419 -441 0
1784 382 0
96 -1353 0
1131 -2580 0
-1115 564 0
-1459 1518 0
-1833 747 0
-2563 -2752 0
-2618 2 0
-189 -1315 0
824 -1188 0
-1995 1320 0
1067 1910 0
1665 1175 0
-1366 411 0
-78 -41 0
-2913 -1808 0
-1898 -2014 0
2726 -2895 0
2123 459 0
-1558 2240 0
1307 -2889 0
1568 749 0
2149 2686 0
-1345 716 0
2145 273 0
1424 1299 0
2631 -832 0
1425 -8 0
-397 599 0
2193 1122 0
1514 -1661 0
-1091 -1564 0
-1745 -2313 0
2046 260 0
-1676 -863 0
-740 -935 0
981 1086 0
2509 -2083 0
88 693 0
1755 -1809 0
-818 -879 0
-1148 1278 0
1881 -1231 0
-2518 1645 0
-2071 857 0
-2128 -743 0
-795 2319 0
-1554 2560 0
2277 -1410 0
597 -1148 0
-1669 1484 0
846 -2792 0
165 1040 0
-106 422 0
1864 -413 0
40 -1738 0
-2340 349 0
2447 2895 0
-112 -874 0
2481 -748 0
1215 -2607 0
766 2187 0
-1773 1363 0
-1533 -1365 0
-2204 -2828 0
84 2389 0
793 -1324 0
2553 -1609 0
788 1077 0
2686 2367 0
755 -2770 0
-2192 1118 0
2891 -938 0
-675 -1549 0
-1360 2022 0
-1419 -567 0
1614 111 0
-1459 -1076 0
1619 -641 0
-794 1686 0
-1848 -2225 0
-1491 -748 0
1596 1380 0
-2370 -787 0
-1060 -983 0
-533 -18 0
593 514 0
966 -708 0
1825 -2916 0
2666 -2853 0
-1917 539 0
2726 -1233 0
-2283 -2254 0
-4 1809 0
-1423 -2118 0
-886 1064 0
291 -563 0
2206 2818 0
-1300 -1244 0
2179 -67 0
-522 -1509 0
2206 1113 0
538 -1262 0
2418 -39 0
-1032 996 0
-2484 -1639 0
1320 2857 0
1227 1692 0
1697 1046 0
-2038 2515 0
526 -307 0
-2842 -2727 0
2401 1122 0
2028 -2024 0
2089 -712 0
-574 -2908 0
-682 70 0
1684 -1033 0
1088 1967 0
-267 -990 0
234 636 0
2613 2611 0
1069 -1209 0
714 -284 0
-665 506 0
-1079 2527 0
-2228 -1752 0
-566 1004 0
2764 2788 0
-2724 -1936 0
1778 -1821 0
-2487 -1589 0
-1403 2603 0
-2537 -650 0
-2168 2325 0
-1934 494 0
-1110 -1080 0
-2607 1803 0
-2312 2486 0
-455 -2829 0
869 2784 0
1033 -1191 0
-1367 1273 0
493 -2007 0
-1911 302 0
-254 2462 0
-2233 1163 0
1508 1081 0
124 2657 0
2127 1762 0
-43 130 0
-1101 2770 0
-88 2509 0
-1251 -892 0
1185 555 0
-2021 -1730 0
1379 -1926 0
-2181 944 0
1558 564 0
-592 2243 0
-1775 -2388 0
2496 -858 0
1512 -69 0
-2501 801 0
824 -2775 0
-748 1506 0
2594 2816 0
881 2587 0
1275 1685 0
-2915 -2280 0
-905 -534 0
2012 1321 0
314 -2294 0
2531 -1698 0
473 -1793 0
2181 -1420 0
-135 850 0
807 -33 0
-1373 -2550 0
1468 -2481 0
-1003 -2403 0
1978 -2025 0
709 1101 0
1144 2598 0
232 -2276 0
-2382 253 0
1724 389 0
742 1469 0
2780 -2757 0
-1896 1766 0
-1547 1472 0
1071 1398 0
-1641 -2739 0
2441 -2209 0
192 -513 0
-952 2237 0
-661 1975 0
910 2690 0
-1147 656 0
-2267 -2377 0
-758 1268 0
1196 2216 0
-2258 -209 0
-20 -579 0
842 -1827 0
-1774 -1221 0
2259 2422 0
-1667 272 0
-1744 -512 0
-1112 -1017 0
2537 2148 0
-2833 -2054 0
501 -2051 0
-2445 359 0
-2821 895 0
-1286 -481 0
2325 2602 0
1677 -210 0
2827 122 0
2664 -259 0
1246 1639 0
2666 2684 0
1335 636 0
1933 -1240 0
134 -146 0
-1721 -1936 0
1836 -669 0
1468 -2116 0
-2461 -306 0
772 -1521 0
2617 -2581 0
1854 400 0
-1163 2735 0
1094 623 0
-2878 -267 0
119 -1256 0
-183 -867 0
-1494 -2337 0
2650 -2893 0
1432 1859 0
-173 1214 0
-943 -1436 0
2472 1302 0
-1628 -488 0
-833 2214 0
2601 423 0
2274 967 0
-521 1607 0
154 -2451 0
-2845 2733 0
-2581 -896 0
-1606 2120 0
1931 1832 0
-547 39 0
-1490 -764 0
-2654 -1203 0
2770 1646 0
-634 2487 0
-1998 1482 0
-810 -1441 0
-882 412 0
-1769 -725 0
1528 1962 0
1845 -1416 0
-1060 75 0
-2767 -1612 0
-712 2903 0
-1078 359 0
-1576 2171 0
1090 -2479 0
74 -2377 0
1075 385 0
2230 -261 0
-1952 302 0
-1425 -442 0
-425 619 0
1867 976 0
2776 668 0
502 1606 0
1550 -1054 0
2723 -871 0
-1968 -991 0
1191 2298 0
1836 698 0
-962 -1569 0
255 285 0
-446 2903 0
1972 2805 0
-1847 499 0
-875 2683 0
2470 -380 0
-354 224 0
-1461 815 0
-218 1435 0
349 1681 0
-1215 923 0
344 2728 0
2790 1268 0
1463 -1961 0
-417 -2499 0
-1052 1785 0
498 1517 0
-598 -972 0
-1339 -2283 0
875 -2268 0
-2230 2326 0
-2394 -724 0
-1238 -1570 0
2242 -2632 0
-1293 -303 0
-128 -1183 0
-859 2208 0
-895 721 0
-227 1684 0
360 1881 0
1746 -1552 0
-106 -2623 0
369 -1855 0
-2669 -472 0
-1814 -2265 0
-1025 2328 0
-1743 2486 0
1696 -388 0
-1729 -144 0
1811 -2215 0
-1076 152 0
-197 2555 0
2321 -1254 0
-1076 2399 0
-850 2486 0
1157 -2175 0
-2802 808 0
-2267 -2246 0
466 481 0
-1984 -2889 0
1409 2212 0
2648 201 0
1670 -913 0
-273 -2317 0
1561 2804 0
634 -2743 0
-317 -945 0
-1575 -978 0
2300 -1855 0
-2438 -2077 0
2148 -637 0
2441 1846 0
442 -492 0
2897 2301 0
1848 2364 0
-625 -1186 0
93 1850 0
-2654 -896 0
1445 -1255 0
501 864 0
-2636 -2461 0
-271 -1640 0
540 1124 0
74 -1152 0
1263 -1715 0
2182 -1585 0
2460 -1383 0
624 181 0
-656 2334 0
-2861 -2747 0
660 1802 0
-2420 2834 0
-2892 287 0
34 -417 0
-897 -869 0
1209 747 0
2868 886 0
-331 554 0
-773 569 0
-1706 2460 0
718 755 0
-47 1576 0
2210 -2586 0
57 -2188 0
2782 564 0
-2346 -1124 0
1199 -386 0
-2005 -1894 0
-2024 -2697 0
-331 -852 0
-2062 -567 0
-2535 1797 0
332 98 0
-2450 -2706 0
-1098 -667 0
-417 86 0
1421 -1571 0
973 1173 0
-2139 1490 0
-1281 -2028 0
1795 -1886 0
-2165 -1478 0
-2422 -43 0
-1415 -2825 0
-2262 -1643 0
-2447 -739 0
-1613 230 0
2731 -1802 0
-1344 -1838 0
-99 494 0
2769 -313 0
2066 -1113 0
-1808 -259 0
-1712 525 0
-1356 51 0
2326 1259 0
-1296 1642 0
-2715 -2273 0
-1412 -696 0
614 1328 0
-1990 -1109 0
1457 378 0
65 318 0
-1521 614 0
511 1898 0
2815 2314 0
1295 1254 0
-2756 1779 0
-1745 -2079 0
-938 -2238 0
-2280 1561 0
411 1578 0
-2722 -1247 0
-1352 773 0
-189 -2114 0
-2745 -1466 0
-978 -2751 0
2834 2585 0
1859 -218 0
1071 1087 0
-735 957 0
-1073 485 0
-1205 -1709 0
-2284 -157 0
1397 -2478 0
1953 2536 0
-320 272 0
2666 1785 0
-1452 1446 0
-1862 1444 0
1026 -2155 0
2145 -1443 0
1359 -663 0
2672 1837 0
2421 -2562 0
-2842 1195 0
506 2555 0
-743 -235 0
-898 -527 0
-2739 545 0
1591 -1201 0
1340 -59 0
-2172 -422 0
183 1092 0
2534 2481 0
-190 -189 0
-1084 803 0
2620 1007 0
-546 -274 0
1795 694 0
1215 -1111 0
454 2592 0
-250 782 0
-626 -2466 0
-1471 1788 0
2187 -13 0
-592 431 0
170 -948 0
2425 -951 0
533 2202 0
1374 1751 0
232 1471 0
-2319 -1065 0
2122 -141 0
-95 2456 0
2754 2219 0
-331 88 0
-2490 -167 0
1236 1836 0
1954 882 0
-1292 421 0
-991 -785 0
1556 -1712 0
980 -2476 0
-1378 -1667 0
228 -1893 0
-2876 372 0
-2299 -1234 0
-1524 2358 0
2273 -2811 0
504 1863 0
-2484 2579 0
-1952 507 0
2834 1304 0
-2073 2369 0
1704 1885 0
2434 1697 0
-886 -2489 0
1323 -422 0
2528 2386 0
715 790 0
749 -1418 0
-1258 -1934 0
1175 -331 0
-2658 1535 0
1078 -190 0
-2637 -2635 0
755 1232 0
2154 -1160 0
452 -458 0
-776 -45 0
-2497 1959 0
-2736 -199 0
-2340 -1400 0
-2606 1377 0
1246 542 0
310 -1603 0
71 -1743 0
50 -2303 0
1800 962 0
-1634 1682 0
-872 -1051 0
-2228 766 0
-1200 -1669 0
-1609 -697 0
2043 -120 0
-2085 708 0
-315 -2690 0
1080 1864 0
2862 84 0
-1918 -1938 0
-1047 -1363 0
-171 2366 0
-773 -2091 0
2897 2628 0
-1307 1241 0
-1009 -341 0
-651 -2051 0
1721 2512 0
-2348 -2482 0
-1888 -2568 0
713 -1807 0
2436 279 0
1853 1735 0
497 98 0
1017 -2160 0
2425 2699 0
-911 1211 0
-1865 -1505 0
2422 1591 0
1746 -824 0
113 -706 0
-2278 1561 0
-2868 1121 0
-2799 1546 0
16 2342 0
1284 2009 0
-2748 993 0
-1098 524 0
2425 -53 0
-2199 1495 0
1096 2600 0
-180 -280 0
-2458 -1643 0
-806 2639 0
1515 -2669 0
-972 2392 0
-62 -2827 0
-663 1528 0
-2344 1779 0
-2230 -2715 0
-1636 -2309 0
409 940 0
692 2389 0
2197 -1339 0
-2098 1957 0
1215 359 0
-1277 1877 0
1379 1150 0
-1587 -1266 0
727 1657 0
2136 -114 0
-506 -2707 0
-2078 632 0
-1938 -1987 0
-2849 673 0
-1266 -527 0
-2714 1653 0
2622 -1284 0
2271 2009 0
-68 -2458 0
1144 -1309 0
2360 -1250 0
-184 -752 0
2706 -1443 0
1756 -1849 0
-2031 -778 0
-2444 -1760 0
1792 1963 0
-204 -1168 0
1114 -77 0
1111 -2149 0
1431 2462 0
-166 1945 0
2280 2316 0
-312 1304 0
2716 -1600 0
-1932 -527 0
2404 2308 0
1069 2185 0
571 1183 0
-882 -2379 0
1199 320 0
-2674 2648 0
2677 1484 0
645 988 0
-858 2085 0
-1101 1942 0
73 -1450 0
443 254 0
1837 -2904 0
479 2434 0
-1376 -2246 0
1313 2613 0
-1557 -2455 0
-48 2400 0
729 -391 0
2447 479 0
1456 -1676 0
201 1943 0
1778 -2894 0
-923 -2588 0
2370 354 0
-161 -1284 0
-2354 -820 0
-274 -2848 0
-2727 -519 0
-1009 645 0
2049 51 0
111 603 0
237 162 0
1454 -2568 0
1447 1379 0
1131 427 0
-1210 857 0
-2859 -2455 0
1421 -308 0
146 -1586 0
2200 1746 0
-1 -304 0
-2412 124 0
-1795 -2743 0
918 2818 0
-1001 -1149 0
-1839 -1451 0
-1923 2122 0
2339 -1815 0
-1542 2294 0
2096 -2100 0
-2607 577 0
-1155 -1267 0
11 783 0
-832 -2699 0
2793 -580 0
2401 57 0
-1043 -634 0
-1200 1383 0
1829 1096 0
-36 1783 0
1438 -633 0
-76 -1332 0
-1534 -1651 0
76 -1717 0
1344 -1008 0
-1277 -1499 0
2121 -2381 0
2799 -2094 0
2439 -1747 0
2506 1185 0
-1742 352 0
29 -527 0
-2306 1040 0
1444 2639 0
308 -2158 0
222 -1265 0
-283 -1930 0
-592 2281 0
-1770 381 0
2649 1427 0
-1147 2917 0
-2474 -1019 0
-509 1956 0
-2723 -2545 0
834 2015 0
-2606 1641 0
-2699 1157 0
-1777 186 0
-2779 -611 0
-1321 1632 0
-2363 981 0
485 2694 0
-981 -2142 0
709 -1953 0
823 1549 0
-591 398 0
516 2124 0
-2768 -245 0
138 241 0
1074 2573 0
806 412 0
-2261 -1426 0
642 586 0
-1062 956 0
-241 1090 0
-685 -689 0
1402 1853 0
-2428 1142 0
-650 1316 0
-2917 309 0
10 -2436 0
930 879 0
2767 -2902 0
-153 -2672 0
369 2656 0
1421 -2326 0
-1191 -1911 0
738 -901 0
313 1848 0
-1590 -2779 0
-1740 1740 0
-1183 -899 0
99 82 0
163 -672 0
933 -1373 0
195 141 0
-2905 2652 0
-2061 1128 0
2285 2544 0
756 -594 0
-16 -2047 0
1689 -791 0
-768 -1716 0
2300 2650 0
-669 709 0
-1643 1579 0
875 500 0
44 -1209 0
2037 705 0
2601 -655 0
-1955 372 0
530 1501 0
2910 -1249 0
1211 2751 0
221 -391 0
1401 -2181 0
2830 1728 0
-1544 -1203 0
-2740 -2576 0
168 2832 0
-2705 1768 0
807 -2227 0
-2801 -1846 0
-167 -1278 0
-977 -2794 0
74 -590 0
-2329 -2315 0
-1767 446 0
1593 -711 0
-1894 1531 0
-2017 2613 0
2800 760 0
738 2841 0
-1879 1652 0
1457 2587 0
1192 2281 0
1445 952 0
-2654 2561 0
-2770 -1207 0
-1699 -2384 0
889 -1508 0
-90 76 0
-2443 -2403 0
778 51 0
-2696 -2827 0
-2062 1978 0
-1715 -2257 0
1119 -2905 0
-1109 -736 0
523 -909 0
1728 -1373 0
-2864 -518 0
55 2552 0
983 -2665 0
1624 -655 0
-1906 833 0
-1139 2817 0
-509 2252 0
1253 1847 0
398 1215 0
1084 -388 0
493 -2567 0
-892 -2425 0
-2309 1112 0
2258 1885 0
61 -2076 0
-1403 13 0
2098 476 0
2227 2532 0
-1938 -2656 0
1350 -594 0
-1869 -1698 0
-1931 507 0
2227 -2301 0
-1054 -2446 0
-2382 -2743 0
395 2206 0
-1745 678 0
805 1180 0
756 880 0
-970 163 0
-179 -112 0
-1210 -1768 0
2778 -1585 0
674 -30 0
-1060 -2269 0
2756 117 0
-2684 -1830 0
-2027 -1097 0
2467 -2127 0
2461 248 0
-2023 1428 0
-1362 -284 0
-542 1117 0
1786 528 0
-1926 -2280 0
-2047 -2687 0
-472 -1194 0
-1260 1615 0
-1196 -1663 0
2614 -665 0
2241 2434 0
-1205 2013 0
-609 1051 0
2370 -514 0
-2252 -626 0
-2586 1111 0
-1618 -2887 0
-693 -196 0
443 -297 0
-1766 1072 0
1184 -2466 0
-2445 -1556 0
603 -1807 0
204 -1009 0
-795 1172 0
-944 864 0
499 -606 0
-2144 1077 0
211 -1676 0
-251 -235 0
841 -899 0
2042 1966 0
-832 1199 0
285 976 0
-987 -609 0
6 658 0
-2740 -390 0
-1004 -1693 0
-433 1297 0
-2614 -2306 0
2623 2775 0
1509 2795 0
-159 424 0
-945 -2636 0
373 982 0
-1492 -1010 0
-255 -2779 0
-581 405 0
-190 510 0
-1317 -931 0
-1497 -789 0
-1111 1118 0
-1238 245 0
-2802 -2741 0
1826 -60 0
-184 1783 0
-2743 354 0
-2047 -1938 0
-2412 -2373 0
852 -2760 0
-1891 2834 0
-152 -389 0
-1454 1865 0
-1824 -2870 0
-2541 27 0
1185 -270 0
-2399 2336 0
20 1130 0
-1296 1521 0
2418 -2618 0
-353 812 0
-1571 -2725 0
2219 -2144 0
1759 -833 0
-2737 -986 0
1273 874 0
1641 2557 0
291 2646 0
1641 -2794 0
-1183 409 0
-2848 2555 0
-2348 -625 0
-2826 1946 0
113 -2698 0
1283 -815 0
-563 2552 0
-69 2915 0
-1922 71 0
543 -609 0
1102 -331 0
2543 2763 0
2549 1119 0
-691 2836 0
948 1376 0
-2725 -491 0
-1774 -1232 0
-2258 858 0
1987 2226 0
-2257 -645 0
1933 -2845 0
1653 -196 0
-2223 -1095 0
-907 1107 0
-1531 1056 0
-831 -1223 0
32 511 0
915 1645 0
1427 1840 0
2474 -60 0
1067 893 0
437 2657 0
2325 2439 0
1673 -2764 0
-388 1872 0
2092 1947 0
1227 -848 0
171 1009 0
-1137 1317 0
-1438 -2501 0
-377 2056 0
1834 -132 0
2033 2014 0
-1399 -62 0
-168 -1176 0
749 2697 0
-2473 -681 0
1334 -2569 0
119 -1701 0
-1307 -2839 0
597 -853 0
-730 -314 0
-2625 -509 0
461 1812 0
1447 -2191 0
2507 -1291 0
1064 738 0
-1117 2040 0
-620 -851 0
-2581 577 0
-2342 -1601 0
822 -1519 0
51 -635 0
2244 1565 0
2469 110 0
842 2594 0
1495 -674 0
-1537 -996 0
2284 2205 0
3 -2399 0
1021 1371 0
-2191 -220 0
2690 2339 0
-1844 965 0
1714 2203 0
2497 -737 0
1038 2352 0
1867 -2696 0
2084 -1497 0
165 -1315 0
-934 1041 0
-27 572 0
-2167 32 0
1695 1956 0
-1234 2738 0
850 -2639 0
1445 -2803 0
-1494 683 0
1428 2832 0
2523 2041 0
-2087 -2745 0
645 1607 0
2429 1674 0
-171 -233 0
-1876 -1420 0
1593 1528 0
-14 -892 0
2765 1916 0
-938 50 0
-630 1068 0
-755 -1137 0
-464 -713 0
2239 -1063 0
2399 2579 0
-1101 2221 0
-725 1228 0
1356 -341 0
-871 1738 0
257 -2848 0
-1700 -2139 0
877 -778 0
2346 -1940 0
88 2024 0
-2255 -869 0
-261 587 0
-1552 -2401 0
-2603 1035 0
-522 -1420 0
515 -1173 0
-1934 2497 0
-278 301 0
925 229 0
-1025 1628 0
647 1994 0
-1570 973 0
-1440 -369 0
2080 -2650 0
1396 450 0
1520 1659 0
2125 -1652 0
321 2106 0
2131 1375 0
1966 -807 0
-698 -81 0
457 583 0
973 -2826 0
89 2029 0
889 -1588 0
1825 2414 0
1642 -1521 0
-1369 -2876 0
-1534 -817 0
-1390 1335 0
-1154 -1725 0
-135 -2309 0
2271 -1881 0
-2664 329 0
2911 -1522 0
100 -2886 0
-1898 -373 0
-1611 -2891 0
2141 2829 0
-991 -2086 0
2772 2291 0
-1169 -125 0
1404 -2626 0
-277 702 0
-1844 1320 0
764 2278 0
386 -964 0
964 2014 0
-2367 211 0
-816 2453 0
-2642 -1085 0
-2443 -2164 0
2416 -1382 0
532 -2868 0
-1771 -1085 0
-1519 -445 0
329 -2464 0
1059 -22 0
-2017 -2184 0
1724 1907 0
-1050 -971 0
-777 -880 0
813 684 0
41 564 0
-1191 2093 0
2429 498 0
-893 -727 0
-1194 -2171 0
-756 -612 0
2339 1546 0
-836 -1355 0
-300 2534 0
-2450 2671 0
1999 1967 0
-2892 1322 0
-2268 2642 0
861 -921 0
-1960 -1954 0
-944 -1000 0
1410 1852 0
-15 -2642 0
46 -2473 0
2270 2487 0
-1792 -468 0
-1512 2649 0
511 1069 0
-2606 510 0
771 530 0
-2295 -2476 0
2605 937 0
2787 -1820 0
-371 562 0
-2894 -417 0
-1460 -69 0
2181 -2578 0
558 -1183 0
-1209 -602 0
-2342 2101 0
-1162 -2254 0
-551 2553 0
2876 -2678 0
1959 854 0
-1408 1357 0
-361 2416 0
481 -2067 0
-1734 2484 0
-1873 2635 0
1288 2452 0
1253 835 0
-1174 -2494 0
625 2398 0
177 -287 0
1270 -1152 0
-649 -1631 0
-2585 -1095 0
-760 -606 0
2753 75 0
639 2096 0
342 37 0
1472 -2841 0
-2560 -1611 0
-795 -389 0
2786 -1210 0
1750 -2353 0
-2620 2600 0
-1902 -1306 0
2693 -2701 0
2055 978 0
1386 -843 0
-1570 -946 0
-722 -675 0
2817 83 0
1170 1482 0
1823 2656 0
-914 219 0
1419 381 0
-431 1942 0
2057 -96 0
-2672 -1212 0
-733 -2814 0
-2513 1061 0
-1134 -1408 0
-898 -566 0
2898 -2567 0
-939 -343 0
-2602 2693 0
-1571 -1381 0
625 -1564 0
2659 -630 0
-491 -1006 0
1231 779 0
459 1201 0
2197 869 0
2685 -2195 0
1987 -1206 0
-816 -136 0
2170 1306 0
2897 -1584 0
-2213 2058 0
-2666 -1419 0
-2532 -1143 0
-2593 -986 0
1771 -985 0
1100 -2183 0
1984 -1969 0
1543 -2848 0
2662 296 0
2000 2535 0
2319 1045 0
1800 -1389 0
-1021 -2770 0
-379 1967 0
1220 -754 0
-570 -2017 0
810 1063 0
627 329 0
-2829 821 0
-159 2031 0
-651 -2758 0
-2526 2478 0
-1749 668 0
-1549 -1100 0
2032 -845 0
972 57 0
-1217 -2399 0
1730 -1848 0
134 1458 0
1395 491 0
362 -424 0
2630 414 0
374 -2063 0
-649 418 0
2708 2509 0
2147 -1472 0
963 2505 0
780 1535 0
-1542 -2435 0
-1792 -1726 0
1427 -2309 0
-2723 2261 0
-490 2317 0
-1009 -1441 0
-380 -2148 0
1790 -1988 0
-83 -1798 0
-1018 -152 0
853 2556 0
-2628 -219 0
-387 -486 0
-2609 2165 0
716 -67 0
1743 -1822 0
-1436 1020 0
301 -14 0
-2832 838 0
2638 -1293 0
-1146 1523 0
-1195 755 0
168 2511 0
-725 -2777 0
2377 2180 0
-356 1256 0
2907 2764 0
1258 -2428 0
-866 1847 0
-1183 -2005 0
2896 -861 0
804 -181 0
774 2434 0
-845 1481 0
-2476 14 0
-336 65 0
-1339 -2240 0
-318 -2563 0
2712 1447 0
-2339 -672 0
-414 51 0
-1920 1854 0
1036 2450 0
2239 11 0
32 -2495 0
118 2658 0
1872 2341 0
-419 -754 0
-1100 -966 0
-1726 983 0
532 -2452 0
2892 1775 0
2533 -232 0
-1559 -1997 0
1334 -2611 0
-1955 -604 0
2196 2539 0
-660 -2295 0
440 695 0
-1622 -2160 0
1059 -845 0
-2243 2075 0
-120 2169 0
1370 -501 0
354 -2445 0
1462 2733 0
-391 74 0
-1648 256 0
447 2908 0
-1953 1483 0
787 2217 0
-2382 -1773 0
708 -314 0
-1205 -584 0
50 1628 0
-2645 -60 0
2500 512 0
2858 1508 0
753 1657 0
2869 -2588 0
2512 1298 0
136 -1324 0
-2738 738 0
153 301 0
-1013 -1451 0
2092 -1574 0
-272 786 0
2814 -2090 0
1429 -208 0
-518 -2861 0
-2333 2207 0
-2784 2891 0
-2071 -827 0
-616 1949 0
-1373 993 0
-1486 690 0
153 2049 0
-597 2694 0
1527 2149 0
2795 1055 0
1105 2441 0
895 -2423 0
2107 -759 0
1826 1803 0
-469 1383 0
1220 -2861 0
85 -142 0
1641 277 0
842 -899 0
-2287 -2580 0
1704 2899 0
1265 1686 0
2704 2311 0
92 2643 0
-2776 1225 0
2101 2662 0
-2650 2174 0
2274 -1585 0
-45 1223 0
-426 1989 0
133 -73 0
2697 -563 0
1494 -1589 0
-1339 2425 0
2294 2265 0
441 1440 0
2072 -563 0
-1513 -71 0
826 -1294 0
-1239 -1630 0
-2621 271 0
1473 -371 0
-772 2781 0
-227 -1163 0
-244 788 0
2279 -1727 0
1631 1975 0
2508 -1013 0
2552 260 0
2287 -1929 0
-1151 2316 0
988 -1907 0
-2670 916 0
810 -935 0
615 -2770 0
-2170 913 0
466 -2708 0
-1101 -2057 0
2730 2418 0
1812 394 0
2620 2354 0
576 166 0
1056 1769 0
-1174 -2681 0
-1800 2565 0
775 1320 0
-455 -348 0
-2845 -436 0
1761 -47 0
-834 937 0
-1439 -2761 0
-2113 828 0
-1256 -1377 0
2383 -2503 0
-1097 -2710 0
2837 878 0
-168 -2117 0
683 158 0
968 2505 0
609 -1590 0
2277 1553 0
-1521 -315 0
644 1720 0
2174 -1813 0
1325 1329 0
-191 664 0
-650 559 0
-2497 1932 0
646 232 0
-1539 -568 0
-185 876 0
485 -2750 0
-2670 -2050 0
1248 2690 0
1805 -2052 0
-1952 -1292 0
1783 -1534 0
548 -2423 0
1067 2728 0
1831 2807 0
-1258 1507 0
-1692 2019 0
2591 -2160 0
-1454 2733 0
247 1739 0
1190 -512 0
-23 -765 0
-2303 -167 0
-2519 -1552 0
-2595 1094 0
684 -2370 0
-1432 1133 0
-551 -2401 0
-382 2146 0
1751 2458 0
-1798 -2025 0
-1827 2579 0
2240 2813 0
1927 1871 0
1249 -139 0
382 -2366 0
-1533 764 0
-1050 1175 0
-1795 682 0
1614 -933 0
2460 -1644 0
2891 -479 0
-1640 2158 0
503 -1380 0
-2846 1142 0
-1366 1966 0
-1120 -18 0
-1536 1480 0
542 -589 0
1479 1045 0
1249 -2908 0
-1158 -1016 0
-641 1585 0
1977 714 0
-2025 -2315 0
2254 -1560 0
1732 -1499 0
1195 960 0
-2784 2897 0
-1868 1412 0
843 1119 0
-347 1263 0
359 -1912 0
1135 -444 0
2669 673 0
1166 1978 0
393 -52 0
2066 1498 0
1344 786 0
1319 2720 0
465 1226 0
202 -2673 0
-1335 1853 0
474 2211 0
962 -1388 0
-1334 263 0
37 1516 0
1975 687 0
1090 2246 0
1722 -2196 0
2092 -1818 0
-594 1090 0
-290 2316 0
-2455 1975 0
-204 2121 0
1344 -114 0
1138 -986 0
995 -368 0
28 2114 0
294 2147 0
-2766 -289 0
364 -780 0
2336 625 0
2072 2868 0
-2444 -1660 0
429 2101 0
-1882 61 0
606 -1708 0
2817 911 0
-1332 227 0
2692 1006 0
-1116 2718 0
-2740 225 0
1800 -456 0
-221 -2833 0
2259 -2578 0
153 1670 0
-1066 -655 0
2447 288 0
906 -1378 0
2353 -687 0
1509 -1555 0
-486 2289 0
-235 -770 0
368 309 0
2259 2324 0
929 2565 0
-1475 -2100 0
200 1656 0
235 2587 0
-2516 -1382 0
397 2645 0
-655 494 0
775 -2323 0
2279 -1052 0
268 864 0
2100 2512 0
2587 -482 0
2050 1229 0
-2356 1226 0
2373 -1542 0
426 -591 0
1840 -1123 0
546 -2139 0
555 1501 0
708 1273 0
1828 2914 0
-754 -2788 0
501 -631 0
1691 2430 0
2828 -189 0
-1474 213 0
536 2070 0
-612 1962 0
1703 2156 0
2266 848 0
1412 -535 0
2581 -1420 0
-2598 -2489 0
-58 2488 0
-411 648 0
-944 2527 0
1811 -500 0
376 -1849 0
2681 -711 0
2643 1494 0
-2007 2831 0
-1717 1679 0
-1010 -2115 0
1915 1 0
1719 -636 0
2586 -2033 0
-2529 -1987 0
1185 936 0
-2397 1735 0
-1483 2335 0
1714 804 0
2481 914 0
-2317 -1085 0
-8 2442 0
2311 -2215 0
2528 2218 0
987 2828 0
-1654 -532 0
1597 -1428 0
16 2573 0
-1372 -2700 0
-965 -2883 0
-1426 1131 0
-1594 2573 0
249 -697 0
-2693 1763 0
2671 -1564 0
272 75 0
-2415 2537 0
-2418 -1452 0
1006 -2428 0
-542 101 0
-1411 -1203 0
-1869 63 0
-971 453 0
1271 -1364 0
-91 -2441 0
1259 60 0
-112 2123 0
-2820 2135 0
1699 -180 0
-1513 2630 0
1666 -994 0
-1604 -451 0
-1249 -2673 0
351 792 0
-1753 -1934 0
-1444 -720 0
2716 -2469 0
843 -1615 0
-2134 -1381 0
-2223 -2526 0
-1261 -1584 0
-2226 1786 0
-371 -173 0
1151 -816 0
528 -2049 0
270 2780 0
-2492 -525 0
-43 -132 0
2306 1090 0
2746 2145 0
1198 153 0
583 -92 0
-2599 35 0
-1388 -316 0
-1952 -2823 0
-844 1526 0
1513 -1879 0
1147 1448 0
939 403 0
484 -1313 0
530 1317 0
838 65 0
-1559 2041 0
1548 728 0
-1378 -1205 0
314 -933 0
2824 -202 0
1048 -1322 0
13 1329 0
1959 2763 0
2746 -345 0
-1706 -403 0
2662 699 0
2666 -503 0
606 1020 0
2657 377 0
-2824 -765 0
2717 -1820 0
-2643 2285 0
729 1584 0
-1616 -1186 0
-1774 -140 0
87 488 0
2705 -1815 0
1270 2424 0
-288 -2358 0
1880 735 0
-600 1737 0
2885 -1519 0
-1542 -2422 0
-1816 -1153 0
2591 2497 0
-602 -430 0
752 -1389 0
2528 1185 0
475 1057 0
-1735 -1344 0
2387 2138 0
1407 -480 0
2098 1644 0
554 940 0
995 1227 0
229 -1154 0
219 2526 0
-2074 2639 0
1606 1445 0
645 64 0
-1628 -789 0
2800 2495 0
1520 -2751 0
1479 130 0
-2255 1051 0
-2051 -2803 0
1503 -1051 0
-778 7 0
-1572 -2806 0
-290 1126 0
-517 2758 0
-827 1785 0
910 -1214 0
1945 2315 0
1584 1395 0
-1077 -1143 0
-1563 -1964 0
-1285 2118 0
2519 82 0
1105 2836 0
2424 381 0
2147 248 0
-1474 -746 0
-2790 -2841 0
-1113 2355 0
1986 95 0
-2212 -867 0
-1388 2066 0
-1274 1017 0
-1590 -1121 0
30 2370 0
794 460 0
2439 1244 0
-2355 -68 0
648 271 0
995 -1597 0
-2915 2211 0
-1599 -1026 0
-1100 -2862 0
960 -1018 0
2289 -687 0
190 1933 0
-1256 -1193 0
-2140 -862 0
-1746 -1450 0
-2446 -1298 0
2683 1564 0
812 2239 0
1050 177 0
2359 364 0
2165 -2913 0
-363 76 0
676 -996 0
-1954 -2626 0
941 -1673 0
1784 -323 0
1538 -1313 0
1411 -397 0
-2404 1063 0
-2848 -654 0
-1444 668 0
201 1471 0
2074 2431 0
-2421 1812 0
718 2486 0
1082 -1965 0
-2597 -2496 0
1462 -1175 0
1362 -599 0
217 -2061 0
2059 1069 0
-851 1161 0
660 -8 0
2287 -252 0
-794 -2682 0
1128 -2303 0
2146 1609 0
1408 -1169 0
-1469 -769 0
2404 680 0
-337 -1189 0
-2586 -806 0
649 1543 0
44 439 0
2589 1325 0
967 -2609 0
-2872 -1435 0
2488 -1997 0
1816 -1099 0
1276 -1339 0
1338 1662 0
1717 701 0
886 2037 0
310 886 0
-2496 1399 0
459 1857 0
-2578 -1142 0
-2162 -2645 0
2060 2706 0
834 894 0
1178 -590 0
-1538 825 0
-2541 2869 0
-1766 2074 0
-1622 1109 0
2882 2734 0
-2277 -1460 0
-392 2077 0
2664 2874 0
1135 2384 0
1449 2102 0
-1954 2082 0
1246 -181 0
2749 -1420 0
783 1528 0
-2037 -2326 0
-336 -971 0
1025 1394 0
1855 -2842 0
886 1440 0
1066 -1736 0
2642 2014 0
1007 -1976 0
2780 2838 0
-2578 1956 0
-695 -817 0
-1237 -907 0
-1754 -81 0
2075 2634 0
1219 -2057 0
306 249 0
118 2125 0
-373 367 0
2683 -950 0
-2620 -2039 0
-2047 842 0
-2819 2077 0
1714 2112 0
808 -1490 0
1796 2774 0
510 2154 0
-2723 2005 0
-2479 2193 0
1135 -1907 0
1448 -852 0
-2045 1261 0
-754 -2300 0
1140 -2466 0
1623 -1810 0
-1076 47 0
-1245 483 0
-2845 1325 0
-596 -377 0
-931 611 0
1565 2594 0
90 2593 0
3 -2247 0
-2812 -1696 0
-89 -602 0
1490 216 0
-1893 -2592 0
1473 2429 0
-2332 2738 0
795 -2566 0
-1741 -1379 0
-2767 2636 0
833 605 0
-2481 -2007 0
-521 2083 0
1043 2774 0
-451 -1346 0
2634 2859 0
-419 575 0
24 130 0
230 2894 0
-1 2151 0
-1498 -16 0
1399 -1010 0
611 2319 0
2135 1107 0
-2348 -2415 0
-2096 305 0
2865 -323 0
2325 -120 0
1538 -1556 0
2261 -2491 0
-2038 1196 0
-527 361 0
-406 -1618 0
824 -2604 0
2490 1141 0
2638 -2576 0
-1053 -1363 0
-2275 2154 0
-2415 -1525 0
2714 -1237 0
11 2548 0
1141 1944 0
-1384 -1701 0
1379 -1886 0
475 -442 0
-2841 -1234 0
-1902 590 0
2197 570 0
-727 134 0
2526 -2747 0
-1542 -1086 0
84 1177 0
-158 -2288 0
-963 -1159 0
-2863 687 0
1182 1043 0
-1380 55 0
-2837 -2481 0
2891 1678 0
-16 -1260 0
-1996 -207 0
676 -345 0
-2328 -1162 0
-395 -251 0
2622 -1401 0
-1910 -2513 0
407 1348 0
-1125 944 0
-2611 2477 0
2169 559 0
-2023 985 0
-1346 1261 0
2899 613 0
-1878 -629 0
-1090 1606 0
458 743 0
886 328 0
-2673 1666 0
1653 1103 0
-2296 252 0
-1076 -289 0
122 1384 0
-1762 -914 0
2852 1268 0
1209 1211 0
2336 2503 0
-2434 -1985 0
1067 278 0
602 1671 0
2534 -460 0
2039 893 0
2875 2553 0
627 -1598 0
1641 2699 0
-1172 1762 0
-859 1517 0
-2629 -2249 0
841 2508 0
-1344 -433 0
-2900 781 0
-2464 434 0
1480 -968 0
948 -1382 0
-1940 -71 0
494 1774 0
1264 1292 0
2685 1533 0
2739 1951 0
-1219 -2430 0
-1401 586 0
2406 -1065 0
-368 898 0
2026 -2191 0
-2290 1375 0
-1892 -2521 0
-2192 89 0
2460 -1618 0
-2652 -1935 0
-2216 511 0
-345 -2789 0
-60 2318 0
213 -608 0
1932 155 0
957 2436 0
354 -2535 0
-2499 -2433 0
-1169 2713 0
-1614 1996 0
-262 339 0
-1143 594 0
1613 1804 0
1748 940 0
1326 -677 0
-911 2774 0
-1690 -2755 0
1007 -1498 0
-1061 2853 0
-1008 1597 0
2499 534 0
-2009 2407 0
1589 1411 0
-63 1080 0
1828 -2086 0
1130 -2828 0
925 -1419 0
-2068 -900 0
1042 1353 0
-2173 -1845 0
-1731 1232 0
2697 1705 0
-326 2690 0
-1212 -1076 0
-2439 904 0
35 -1319 0
1278 1768 0
-1631 -359 0
1431 -527 0
-1608 516 0
2285 993 0
1539 -416 0
1235 875 0
1503 518 0
-1731 960 0
-1484 -1934 0
186 -63 0
1215 -1422 0
-1444 1375 0
-2230 1666 0
136 797 0
1034 1919 0
1463 -2613 0
1404 -318 0
1268 1773 0
-1308 790 0
-176 362 0
-365 828 0
-2743 -1849 0
223 -1843 0
-2231 -533 0
933 -778 0
2770 1972 0
638 -1909 0
1538 2832 0
-829 -2139 0
1611 2036 0
-532 -2826 0
908 -2190 0
824 2752 0
381 1914 0
-1234 -1850 0
-2890 -2506 0
-1571 2198 0
2014 2350 0
-617 -1085 0
-1770 -2461 0
-1171 -2675 0
823 102 0
-1004 705 0
-56 -2455 0
1958 704 0
127 -2347 0
-167 349 0
-1906 -1280 0
1641 -1353 0
-1844 2463 0
-2761 -1435 0
1211 -218 0
-552 2794 0
127 -2302 0
-1952 1296 0
1656 2100 0
-1997 1 0
-485 1832 0
-2067 -1890 0
-1491 55 0
738 -252 0
1635 -1930 0
554 -1338 0
-1389 -757 0
1006 668 0
2219 -1076 0
1918 -911 0
2774 1760 0
2299 -1544 0
1161 -1867 0
-221 -2557 0
510 -250 0
1139 -500 0
-1381 -12 0
-1640 -1042 0
226 1791 0
-1954 -2466 0
1627 1386 0
-1468 -500 0
913 2400 0
-963 1295 0
369 1823 0
-2736 2030 0
-2193 -984 0
2475 -647 0
1909 -1537 0
1678 682 0
-1388 383 0
-1148 -1198 0
-2672 1095 0
2797 1373 0
1204 2286 0
-181 -279 0
-210 -343 0
-2369 2350 0
-1432 -837 0
-2566 -1896 0
-1314 -71 0
2415 -69 0
1654 2838 0
-1637 115 0
2266 76 0
-1988 1923 0
1932 -1785 0
689 -292 0
-2504 2196 0
1530 1702 0
701 -1290 0
-2072 2115 0
-2471 1606 0
-2866 2134 0
-1612 -1125 0
-2593 1061 0
-821 2811 0
2013 886 0
1833 738 0
2276 -2912 0
-2591 -543 0
-1979 -2525 0
2615 447 0
-2796 -1621 0
-546 2281 0
2837 2587 0
-2699 -917 0
821 -2871 0
-184 84 0
-872 2456 0
-390 -597 0
-2861 541 0
-2201 1857 0
-2415 -174 0
32 943 0
2167 2311 0
-888 -658 0
230 -416 0
-1388 -874 0
-1526 -2445 0
2203 -2493 0
1404 -2294 0
-1598 -2252 0
2111 -1230 0
-168 2096 0
-159 -1196 0
-2267 -10 0
-237 -2025 0
-1633 803 0
1871 -121 0
1351 1371 0
-582 -1136 0
-1720 -675 0
-2608 1704 0
2395 -2408 0
842 976 0
1971 -1926 0
-1883 2343 0
-2727 -2595 0
-718 89 0
2597 -1726 0
1001 -1664 0
-2707 2480 0
-2809 2582 0
969 -1931 0
732 2377 0
-163 1561 0
-883 -2793 0
-592 -2483 0
2195 -2720 0
-1822 -2713 0
310 -1234 0
-2059 2693 0
-1600 359 0
476 2426 0
781 960 0
1973 -795 0
-1953 -1975 0
2753 -1448 0
1539 -750 0
-2705 99 0
272 801 0
-1892 -2577 0
-1089 -2602 0
-1429 -2529 0
775 -1078 0
-1310 -728 0
2766 110 0
1883 1694 0
689 1801 0
756 -2172 0
-2612 2862 0
1975 644 0
-1950 2064 0
708 224 0
1109 1882 0
2434 -2290 0
1959 -1640 0
-2538 -2276 0
1319 2542 0
-2804 334 0
-2845 1341 0
1354 2035 0
2462 -2085 0
369 -1145 0
1378 443 0
-1148 320 0
1248 962 0
1916 890 0
574 2313 0
-48 -610 0
1021 -2809 0
398 -1140 0
1113 1433 0
384 -2845 0
-1420 863 0
-1484 -806 0
1574 511 0
2269 1966 0
-1020 -645 0
-1188 -849 0
1852 2529 0
477 -1154 0
-1525 -2227 0
-2726 -1226 0
2570 12 0
541 -696 0
-406 -2884 0
11 1436 0
-1859 -1330 0
969 619 0
2095 62 0
-940 -1061 0
1863 665 0
2659 543 0
-189 554 0
409 197 0
965 494 0
46 -1835 0
2141 -2717 0
1704 743 0
-2007 -728 0
-1708 1403 0
604 -60 0
696 -1744 0
-2137 -1364 0
843 -1079 0
1183 -1545 0
296 -768 0
-2518 -1579 0
1374 1383 0
-311 1804 0
2214 -2025 0
2090 -1621 0
-1867 734 0
-1239 1514 0
1233 2721 0
2336 2431 0
-1025 -132 0
876 2615 0
-1463 2540 0
-921 477 0
886 -2505 0
1064 -2836 0
889 351 0
264 -681 0
-2396 2827 0
-2759 1220 0
1711 1516 0
-2406 2029 0
-167 -329 0
-1542 498 0
-98 2901 0
1413 -388 0
-2704 -666 0
2685 -728 0
2232 622 0
-2507 245 0
-2104 2198 0
2252 -1896 0
1030 2786 0
-862 36 0
1253 -25 0
606 1772 0
313 -654 0
1071 -1272 0
-780 1864 0
-2365 -973 0
-237 -1200 0
-1076 -1973 0
-2323 -527 0
-336 2191 0
1817 2337 0
1024 1776 0
2202 2015 0
-2084 1329 0
-1639 -198 0
1081 2701 0
1106 636 0
-438 2857 0
372 1679 0
476 -1509 0
252 -443 0
1751 -1494 0
-1972 -521 0
-911 -1083 0
2647 -1585 0
-428 -1788 0
2376 -1338 0
-160 40 0
-470 -39 0
1922 2206 0
2462 551 0
-2384 -2374 0
2050 1304 0
-2163 613 0
1524 -2126 0
224 -73 0
1482 994 0
-1091 2698 0
2717 -1009 0
1926 2282 0
-2417 2358 0
-753 -2388 0
-536 1743 0
1591 2102 0
-335 1528 0
-2372 1215 0
835 1118 0
1305 2558 0
-2672 -749 0
-544 -1066 0
-2387 2026 0
-2418 50 0
-1571 -903 0
1338 467 0
-641 -478 0
421 -609 0
2241 2327 0
1588 -1998 0
534 -1753 0
-2354 1953 0
-1953 -608 0
370 1939 0
2535 246 0
476 20 0
20 2445 0
1645 -110 0
978 -2596 0
-2532 1365 0
-1054 -1034 0
1463 -1709 0
-90 1698 0
-17 2292 0
2185 1259 0
2352 2327 0
-1893 -261 0
-1865 478 0
2829 -1098 0
-1073 -335 0
-2033 2496 0
2150 105 0
-1012 -253 0
-1349 -96 0
646 407 0
1762 1978 0
-289 -1213 0
-1214 1376 0
-247 -2009 0
1216 966 0
-2850 -1660 0
-2231 -2100 0
1268 -2754 0
2300 637 0
-394 2601 0
1830 473 0
-2817 -1049 0
2251 -1315 0
-633 1307 0
2604 680 0
485 2217 0
-151 276 0
-1982 2470 0
-865 -902 0
1921 1232 0
-1824 1367 0
-1716 298 0
1434 -774 0
-259 800 0
-2408 2077 0
1732 1626 0
2733 -1260 0
-2003 1803 0
1072 1937 0
-641 -2742 0
-290 2909 0
2115 2859 0
2383 2616 0
1999 -2311 0
-47 -2872 0
-2800 -1010 0
2807 -139 0
-173 2873 0
2632 -1896 0
-1477 -1160 0
-266 1273 0
-14 -1372 0
2372 1336 0
1175 89 0
-2257 -481 0
-1583 -276 0
1146 1296 0
1615 -1749 0
1756 -6 0
-353 673 0
1987 216 0
1543 -1509 0
2873 -2653 0
716 2398 0
-353 402 0
-1602 -1450 0
2763 2013 0
-467 -227 0
1533 2623 0
-2546 -881 0
-918 214 0
400 624 0
-803 37 0
2564 -2240 0
2907 -184 0
-1842 2335 0
-608 -1844 0
126 -2249 0
1663 532 0
-1333 -1838 0
-670 -1539 0
-2806 2776 0
741 2402 0
-959 -1296 0
75 990 0
-1893 -2363 0
-1595 -1054 0
852 1390 0
-5 -2718 0
805 2898 0
-1528 -1879 0
1709 -1924 0
-1532 1620 0
1063 -2462 0
-1106 -1918 0
339 2248 0
-1340 178 0
-1746 -1931 0
1368 -115 0
-263 -2752 0
-2334 -1578 0
702 -440 0
2239 1568 0
1262 -1473 0
2135 198 0
2609 -500 0
-2199 1766 0
1206 -2849 0
-1109 -2521 0
-1035 466 0
571 1471 0
-1314 -2119 0
-712 -2874 0
-1963 -2296 0
-1940 -1427 0
-1574 421 0
302 2417 0
2706 2834 0
-1366 2 0
-1747 -205 0
1561 617 0
2277 2708 0
-236 1088 0
-1690 -1142 0
2321 1922 0
1277 1809 0
-1664 485 0
-38 -2301 0
-2706 -2641 0
-1202 1658 0
2000 1025 0
-162 2122 0
2617 2702 0
-1878 -1108 0
-2011 -2744 0
1565 893 0
-2751 1757 0
1348 -1358 0
-2909 -1564 0
-1893 -1350 0
2700 -352 0
-2212 -1415 0
2213 -1990 0
322 1059 0
-1072 211 0
-1280 2132 0
-520 -461 0
884 -487 0
826 -675 0
941 -372 0
-2839 -1485 0
-1874 2682 0
-677 712 0
-677 1586 0
2782 -357 0
-244 2336 0
-1862 2442 0
201 1033 0
135 1713 0
2771 2051 0
-474 83 0
2077 -1169 0
-2051 -1130 0
1719 -2504 0
2565 -1161 0
1302 -587 0
-1360 -1581 0
-1941 820 0
1760 2891 0
1651 -2444 0
2369 315 0
983 -823 0
131 -234 0
-426 -1422 0
-1388 -1901 0
870 -1133 0
1383 2066 0
1042 -1851 0
1017 1956 0
426 1279 0
-196 -2664 0
1168 -1144 0
2239 -2396 0
-468 2901 0
-2842 165 0
722 2417 0
-2851 -988 0
1874 443 0
1233 1379 0
561 2591 0
-454 -1312 0
272 -2461 0
292 -1509 0
-1665 2079 0
2498 2348 0
772 2316 0
2043 -440 0
177 -881 0
1646 -1643 0
621 -1352 0
-871 200 0
1549 -1419 0
-609 -2707 0
1783 1573 0
2305 -2838 0
407 -1237 0
2166 -1379 0
2409 -2149 0
-1050 -53 0
-1950 2075 0
-1647 838 0
-1486 1390 0
2336 -1704 0
2096 -898 0
-2662 -1786 0
1652 -602 0
1409 2320 0
-891 1894 0
-2046 -1388 0
2066 219 0
-2809 2655 0
-1112 2820 0
-2127 2469 0
-922 2224 0
1789 -2033 0
-1021 1860 0
2205 1616 0
1844 997 0
-2059 -2568 0
1791 1801 0
81 -2826 0
381 -2251 0
-1370 2485 0
-680 -779 0
2565 -1749 0
-784 -1078 0
2576 -954 0
-2608 -2254 0
400 1538 0
2244 -1413 0
2874 2427 0
1717 -973 0
494 948 0
-2108 789 0
1372 1989 0
1919 2787 0
678 -1066 0
275 2132 0
-1014 -2063 0
490 1391 0
-2170 -119 0
2254 2041 0
-584 -343 0
2668 876 0
2816 2195 0
2661 -234 0
156 2122 0
1784 1105 0
-668 -1873 0
123 913 0
-2345 2553 0
-1411 349 0
365 770 0
-682 2666 0
-2028 1374 0
2459 -1303 0
-2414 -334 0
-691 -2741 0
-302 -1814 0
-2233 1422 0
-47 -1950 0
78 -1110 0
1805 -510 0
-901 940 0
48 -548 0
1983 2449 0
57 1699 0
-1578 -1214 0
841 -1420 0
-64 -103 0
1671 1756 0
2802 -1598 0
-58 -2050 0
2614 -367 0
2002 2758 0
-1126 1105 0
2604 232 0
-2490 2044 0
-782 2152 0
397 885 0
1035 -2301 0
-1027 2337 0
-1284 2572 0
-30 837 0
-942 -270 0
2275 1788 0
-1687 2300 0
-625 2680 0
-9 1412 0
1951 122 0
791 1704 0
-1736 606 0
-143 -2577 0
-1137 -2157 0
-2518 944 0
841 1518 0
1411 2069 0
1604 -2725 0
2485 -1771 0
1196 -2543 0
-526 -848 0
-280 -1796 0
2299 781 0
1369 -1003 0
2430 -2437 0
-2702 -927 0
-2326 -2827 0
-2349 1928 0
2630 46 0
-1532 2211 0
-1708 -2665 0
-123 1081 0
-2284 -2903 0
-1180 219 0
1337 -696 0
452 -198 0
1058 -2213 0
-266 2533 0
-1606 -1553 0
-1373 2210 0
1957 -138 0
2658 -508 0
-786 -433 0
1372 -1876 0
382 1857 0
-557 -844 0
745 1966 0
-1128 1942 0
-2456 -832 0
1080 -238 0
-1351 751 0
-981 -1748 0
-600 826 0
-770 -2516 0
-1347 463 0
-2164 665 0
2832 -256 0
-2745 -1630 0
-692 2798 0
-1362 -2447 0
2009 -1069 0
-1628 -431 0
2656 -1767 0
1135 -1784 0
1278 -2032 0
1395 -1952 0
-2537 933 0
-1444 922 0
338 -249 0
-428 -1483 0
-471 -209 0
-1167 2505 0
2774 -1457 0
-14 1819 0
-1133 1826 0
2787 1549 0
-1533 2431 0
2074 -2505 0
-769 2298 0
-1169 -1222 0
2026 -1519 0
1298 -2889 0
1506 1546 0
407 738 0
1583 2638 0
1737 -608 0
-64 2392 0
2287 -1188 0
1677 1678 0
2766 -1507 0
267 616 0
-194 974 0
-1491 1759 0
644 1160 0
2274 458 0
-2599 799 0
-1358 1456 0
-152 -339 0
-1499 -2905 0
-1754 2163 0
-1991 -301 0
-1129 542 0
-2054 -1611 0
454 -77 0
-2070 2894 0
2704 2044 0
-2535 1151 0
419 -2636 0
71 1060 0
-1251 -363 0
-2871 -720 0
1801 2338 0
1900 -1148 0
-86 1916 0
137 -1125 0
-687 270 0
1088 2320 0
2311 -224 0
-1876 605 0
676 -290 0
2687 -2606 0
-724 -1414 0
2398 -1108 0
698 -1861 0
1053 -1886 0
-2043 2459 0
2764 -530 0
-176 -27 0
-21 -858 0
2212 -2073 0
-1644 2159 0
-1569 1726 0
1022 845 0
2625 -688 0
420 -2484 0
1925 744 0
-740 483 0
59 -2561 0
-435 -2288 0
-1300 2426 0
130 -2582 0
1655 -2043 0
-1343 309 0
946 2281 0
-2133 -1988 0
-2739 -1195 0
-1789 -525 0
1873 1104 0
-1796 1947 0
-657 -905 0
1981 789 0
684 -835 0
-1602 2281 0
901 -2089 0
-471 2608 0
-1920 -2516 0
-2004 -1806 0
2755 1632 0
-2338 1173 0
-2025 1072 0
-1703 -1240 0
-647 1750 0
2371 -2552 0
-2549 -2845 0
-406 -2243 0
-327 276 0
2607 -2309 0
2597 -2471 0
-2367 2758 0
-2829 771 0
1992 1577 0
615 -1753 0
2476 -1403 0
-18 1244 0
-1814 -2426 0
-2081 -2193 0
828 -327 0
427 188 0
-2455 -1047 0
731 2574 0
594 32 0
-173 -609 0
-1658 -727 0
1356 1086 0
1549 1063 0
-2207 -654 0
-2487 -1585 0
-1049 -2809 0
240 1113 0
1469 -2872 0
-2332 -2352 0
2607 -173 0
-576 -1741 0
-91 2839 0
-2204 -112 0
-485 -1534 0
-2150 1762 0
-2605 2571 0
-1576 -2150 0
-2224 607 0
-1329 -405 0
-2835 -52 0
-803 -2789 0
-2438 -2231 0
-1260 2743 0
797 -379 0
2214 -625 0
-2796 1182 0
1225 -2102 0
138 -2091 0
43 1592 0
4 -546 0
1626 1374 0
2453 970 0
-1545 -2813 0
722 588 0
-1046 2148 0
2339 -2253 0
648 1375 0
-877 -535 0
2027 1695 0
-1049 -333 0
2482 -1797 0
2625 2609 0
-1371 1409 0
2095 1972 0
-888 -604 0
-42 1264 0
1817 294 0
-1843 -1505 0
-1532 -874 0
-281 -373 0
-2272 -832 0
1895 1149 0
930 1021 0
-1877 1512 0
-2322 1982 0
2512 -331 0
1059 2180 0
-253 2760 0
264 97 0
2092 2654 0
-2447 -572 0
2449 -2812 0
-1712 2671 0
2467 -1892 0
323 305 0
1663 -446 0
64 -602 0
1348 2192 0
2439 -2852 0
1466 -1281 0
-1382 1724 0
-1199 -2116 0
-95 -1444 0
-368 1732 0
-1212 738 0
-1271 993 0
2591 -2385 0
2282 -648 0
-1137 842 0
-59 -576 0
392 -370 0
-724 -579 0
1223 -1373 0
749 -2650 0
1469 1633 0
2480 -754 0
-2624 -567 0
-393 -544 0
1367 1206 0
1994 -768 0
2754 -831 0
2539 -2828 0
-1349 1610 0
-2678 1470 0
2690 -578 0
-984 1843 0
2456 -2734 0
-1741 1483 0
-1137 -2077 0
-471 1518 0
-33 -1025 0
-2624 2136 0
-1600 1474 0
-1323 138 0
-2581 -922 0
165 2143 0
1279 342 0
934 802 0
826 369 0
-2634 -1089 0
2827 2347 0
-2606 1470 0
-2157 179 0
-123 1076 0
-2857 445 0
-2138 -1911 0
2425 -1084 0
-730 2488 0
2313 -215 0
-233 2249 0
-1284 -633 0
2282 964 0
534 -1372 0
-2757 -670 0
1545 -1998 0
805 -2379 0
290 664 0
2154 -2007 0
2103 2074 0
-960 1316 0
484 1868 0
-422 -7 0
507 1746 0
-1841 163 0
-2474 -1162 0
-304 -1314 0
-536 1885 0
1913 -355 0
-2223 147 0
2331 1354 0
-972 -492 0
2691 597 0
-1777 349 0
1375 674 0
327 -602 0
-142 1768 0
2896 -2888 0
-535 2612 0
-830 -1720 0
1806 -2583 0
2284 -238 0
2266 -1525 0
-468 -2599 0
1774 -1226 0
151 -2489 0
1777 -513 0
-2216 -2842 0
953 -2201 0
-82 2009 0
83 -2826 0
571 1015 0
1040 -1032 0
-2146 1236 0
714 -69 0
1978 1831 0
-1282 -685 0
2824 2281 0
-468 1162 0
2089 340 0
2526 1698 0
-1087 2787 0
908 2477 0
-1622 2287 0
531 -2765 0
690 -2787 0
1276 1171 0
55 269 0
-1420 -2628 0
2871 10 0
-357 2738 0
1014 -1237 0
2756 1857 0
-470 -2018 0
-8 -441 0
798 1236 0
2533 -732 0
1673 -927 0
-2226 -1360 0
-1188 -974 0
-1179 1003 0
2011 -1632 0
2351 1699 0
1105 2236 0
-1458 1694 0
-1474 2245 0
-2264 2237 0
-290 -794 0
1978 -2435 0
-2228 -59 0
-172 1045 0
-672 -1441 0
1259 -616 0
-1838 -564 0
-170 34 0
1427 2474 0
-2902 -2022 0
-290 1485 0
-1232 -2076 0
1012 126 0
1609 1987 0
-1666 864 0
1789 1353 0
-937 2333 0
-208 925 0
155 1830 0
-2051 -806 0
-594 -413 0
-2125 -1736 0
-1522 1689 0
-730 -1371 0
-331 -1545 0
-1726 -2585 0
-2235 722 0
2792 2271 0
-597 2098 0
1355 959 0
2402 161 0
-2275 -2063 0
2873 -1324 0
1323 246 0
2412 614 0
1905 -1509 0
-1487 -106 0
2189 1502 0
-2521 2233 0
-1734 -2061 0
-879 -1166 0
1865 -491 0
2293 513 0
-673 458 0
845 -1347 0
-165 2761 0
-2524 2800 0
2192 1966 0
-1310 -1896 0
-1381 -45 0
1520 1036 0
2499 2860 0
-783 -2865 0
-2734 2087 0
-1061 -1774 0
627 354 0
2414 2790 0
2236 1164 0
-1101 758 0
-1559 1909 0
-2515 1468 0
-525 479 0
-1402 1473 0
422 253 0
2813 -2916 0
2690 2207 0
-2078 1187 0
1525 -1930 0
2093 -1066 0
2217 1294 0
1499 988 0
-1801 2503 0
-1289 15 0
-494 -1513 0
-2777 -2150 0
2221 -1669 0
1556 20 0
1381 2173 0
1574 2888 0
-2428 -2219 0
-1233 755 0
2202 -2395 0
-2804 -2789 0
-1983 -2590 0
1464 -741 0
398 -1676 0
-1296 1105 0
2355 612 0
339 2418 0
-2344 -1981 0
1801 2061 0
-1886 -2255 0
2242 1568 0
2345 -820 0
-1049 -1642 0
1246 2355 0
1578 -202 0
1939 -1282 0
-666 1470 0
-2733 1326 0
1396 -2455 0
-2741 -819 0
-2324 -1748 0
-2137 2577 0
1014 1893 0
1463 227 0
-1303 -1782 0
1977 -1376 0
-92 596 0
-52 -294 0
-1408 578 0
371 -479 0
1523 1749 0
2269 192 0
-481 341 0
2069 -2714 0
1214 2900 0
-1510 -1849 0
2554 -798 0
32 1302 0
-66 -2239 0
2579 269 0
2576 -2365 0
2344 -574 0
-1013 -1011 0
164 1614 0
1218 2367 0
-591 -2158 0
383 1542 0
1707 -1968 0
2012 1579 0
-1039 2274 0
-965 1462 0
-2504 -1587 0
795 -1137 0
2762 2913 0
610 -479 0
705 -1517 0
683 -1299 0
2337 1994 0
-804 2106 0
2093 -1145 0
929 2055 0
-72 -2094 0
2058 530 0
-367 1068 0
-1197 1527 0
-1825 1325 0
-1791 2358 0
1681 -1169 0
-387 -265 0
1790 1554 0
-1284 1257 0
1193 2305 0
-1846 -1529 0
1853 2321 0
2302 -1564 0
-2224 411 0
-1183 -1589 0
-2785 2655 0
2633 -2681 0
1113 -1665 0
-2331 304 0
-286 -1426 0
-1574 -1838 0
-2209 -2348 0
-971 -2450 0
-1057 1228 0
-2744 406 0
-1148 304 0
-1942 -2831 0
-839 -1183 0
1248 -1324 0
319 431 0
122 2040 0
-1491 1433 0
-317 1840 0
2630 2764 0
-908 -1498 0
-1250 -940 0
1476 2029 0
1729 -1031 0
-2377 2896 0
-1624 -783 0
-1947 2042 0
-1067 2874 0
-8 1783 0
2173 1954 0
264 -2854 0
-410 2286 0
-881 -743 0
2716 594 0
998 -1199 0
-10 -2454 0
-327 -631 0
-2773 -595 0
2026 -421 0
-974 -498 0
2512 601 0
164 -1370 0
745 796 0
-149 607 0
-1612 642 0
-1309 -2140 0
465 2136 0
185 54 0
-938 -209 0
-2529 -1261 0
-947 -2758 0
-1361 2015 0
-1396 203 0
-2262 -2851 0
2842 1539 0
-1492 2849 0
-1822 932 0
1831 2256 0
1165 -267 0
-2016 -2636 0
-38 -691 0
-2109 -2023 0
2543 1580 0
2609 -2562 0
2669 -2167 0
1685 752 0
-1185 1028 0
-2394 2649 0
1864 -47 0
-2220 -981 0
2830 -1201 0
2861 2163 0
-205 -2751 0
-256 1763 0
2543 -1419 0
-2725 1467 0
835 2472 0
-479 -71 0
-1649 478 0
-335 -2695 0
940 -1750 0
-1147 -512 0
-932 -215 0
-151 2052 0
1164 -2495 0
-2702 540 0
-1612 168 0
-925 2677 0
-2051 965 0
1366 -1667 0
-368 -807 0
-924 2437 0
957 -2297 0
-1125 1708 0
-2905 -596 0
760 -1046 0
-631 2217 0
-1870 -2535 0
2240 -376 0
-172 1082 0
-784 -2495 0
-2725 -1645 0
-2294 2042 0
-1629 2377 0
1789 1510 0
-210 -1007 0
1367 -2083 0
2157 -2507 0
2679 -2786 0
-2767 2437 0
-2635 310 0
-1232 -1078 0
125 -452 0
1797 -2389 0
-203 -1621 0
-1358 526 0
-743 243 0
-631 -1383 0
-1005 36 0
-1351 625 0
1466 -426 0
-887 -859 0
314 -1127 0
49 2123 0
-486 -207 0
2158 729 0
-4 647 0
-119 -2494 0
2733 243 0
-197 -1706 0
-2662 2302 0
1677 1392 0
-2851 2532 0
-2420 1782 0
1137 -1873 0
1773 -987 0
-282 497 0
908 -2187 0
-231 -86 0
-538 -1890 0
-1273 -1567 0
-1252 1041 0
2750 -2255 0
-1578 956 0
2433 1836 0
663 -341 0
1115 1341 0
-384 325 0
164 -326 0
2320 -2354 0
-285 -1667 0
-510 -1963 0
-1330 657 0
2261 -2062 0
776 2006 0
-1383 231 0
-2644 -2909 0
-289 1763 0
-428 -1509 0
1785 1192 0
-726 704 0
1877 1695 0
1090 664 0
1354 2141 0
-583 -331 0
-1021 647 0
746 534 0
-1214 228 0
2452 -1027 0
819 -2476 0
-1716 1991 0
1433 -2326 0
1421 1768 0
397 1586 0
-1319 1982 0
2360 -31 0
-461 -917 0
-879 1431 0
1538 1407 0
-1482 2364 0
1888 -1136 0
-618 2236 0
-2362 1138 0
-912 -2906 0
-722 846 0
-2659 -602 0
-2593 -1712 0
-2710 128 0
-980 2676 0
1164 1869 0
-1802 -1674 0
118 -1971 0
1802 605 0
-110 -2567 0
-1968 600 0
-658 1881 0
2434 175 0
2802 -2726 0
-1401 -636 0
2821 -2034 0
-757 -1670 0
485 510 0
1809 714 0
-547 -2780 0
1933 1724 0
2503 1854 0
-2577 -1859 0
-504 1432 0
2269 1996 0
-2127 -2904 0
2616 -1397 0
1055 2901 0
637 -1388 0
702 -2561 0
2156 -918 0
2060 619 0
1639 2836 0
-2696 -2350 0
1066 -1725 0
721 1127 0
-1475 624 0
2794 -443 0
-1793 1398 0
-1397 -1179 0
-2392 -288 0
2594 1247 0
-347 2001 0
1922 -1600 0
2502 504 0
-245 -1426 0
2717 -620 0
-280 437 0
-2208 2638 0
1242 -1416 0
382 485 0
-1939 -715 0
-1254 -1223 0
-216 1275 0
2734 1074 0
446 -2842 0
678 2550 0
-107 -561 0
2281 379 0
1768 1031 0
1687 -2750 0
449 -2834 0
550 -2137 0
2795 -359 0
40 -829 0
-1406 459 0
-2715 -2900 0
-259 74 0
2639 -39 0
1836 -597 0
376 -467 0
676 2844 0
-63 -1344 0
1679 860 0
-2719 -1061 0
-1361 2836 0
2859 -713 0
-2539 1308 0
-1285 -1815 0
837 2070 0
-70 -1432 0
-2832 -172 0
-1420 2206 0
-1347 2830 0
-626 1664 0
-134 1932 0
-2272 1995 0
-851 2497 0
-2128 2720 0
-1707 933 0
-2526 2587 0
1103 -2750 0
-655 1953 0
-2012 -2185 0
1996 -1886 0
-2409 -387 0
423 -2226 0
1504 -2298 0
-54 1375 0
2283 -1767 0
-170 -519 0
956 443 0
1506 1772 0
898 136 0
164 1343 0
-2651 390 0
1802 1335 0
528 1773 0
1037 -536 0
-580 -2097 0
2240 -1783 0
1359 2613 0
295 2375 0
2748 -2199 0
-196 2662 0
-1291 1516 0
-1587 -1240 0
2049 -1824 0
1520 -1876 0
1265 -15 0
-2831 -1086 0
-2598 -162 0
-2052 1481 0
-2914 -1361 0
-1062 1980 0
1277 -1361 0
-2345 -1619 0
558 -1414 0
-1057 -1206 0
-2362 -2839 0
-1043 486 0
414 -60 0
2692 -1896 0
2854 587 0
1525 2522 0
-2267 2544 0
-1798 332 0
-284 -2868 0
-2542 -387 0
-1574 -393 0
2293 -2689 0
-1507 -189 0
-2226 1340 0
-2757 -304 0
-846 1142 0
-164 -1595 0
-2223 1797 0
2888 802 0
2790 -2851 0
-2559 -685 0
-330 2730 0
2055 -1588 0
526 -1051 0
-794 -1238 0
2719 -1969 0
-2348 2860 0
-2602 805 0
-1442 -268 0
1960 -239 0
175 2435 0
-1433 1994 0
740 -831 0
-1604 -1784 0
2029 -234 0
-1934 -1708 0
2671 -1588 0
1340 -1549 0
-2775 170 0
-557 -2674 0
1185 -62 0
531 -2710 0
-1180 -898 0
-2215 -666 0
1818 -949 0
-594 -2294 0
682 944 0
950 -1402 0
2793 -2644 0
-2479 -714 0
1865 904 0
-1105 -1582 0
-2420 2005 0
2868 1090 0
-1117 -2097 0
583 -950 0
1424 1420 0
-214 423 0
1335 1229 0
2167 1248 0
-1926 1737 0
-2632 -1386 0
1045 98 0
1771 -624 0
937 -2505 0
1243 836 0
-2340 1308 0
-2213 -1337 0
1109 2366 0
-902 -2467 0
1405 945 0
1360 -730 0
617 -1152 0
1067 2788 0
-1247 -2883 0
-2432 1872 0
-490 179 0
480 -2072 0
-230 2442 0
-2550 630 0
-2178 -944 0
2462 -2735 0
174 -2814 0
-464 -2107 0
-2128 1442 0
-2847 1986 0
2437 2731 0
-2742 2560 0
2649 2176 0
879 -138 0
-1662 -2326 0
-1484 -471 0
-2335 -609 0
-1478 995 0
2037 982 0
-183 217 0
684 -2538 0
-2172 -874 0
2369 -30 0
-1148 -2015 0
619 -58 0
-1109 1278 0
2274 61 0
-2129 -506 0
1260 -2228 0
383 589 0
-749 2083 0
-2798 -2814 0
-181 -4 0
-1009 -1171 0
-2751 -658 0
2267 2293 0
2426 527 0
-1213 -2361 0
2597 -2374 0
-2047 -1357 0
-1579 2772 0
690 -1792 0
-781 -1228 0
-978 361 0
1861 168 0
722 -1599 0
-643 -1287 0
-2495 2851 0
-2309 -268 0
-2059 860 0
2499 -1444 0
-1893 -1953 0
2410 1713 0
2795 -1876 0
-1254 -2322 0
-467 -2192 0
-1893 2242 0
-1021 1915 0
1863 2573 0
-943 384 0
1359 75 0
2712 -1422 0
-2388 -1909 0
499 -509 0
-233 2738 0
2366 -2864 0
99 717 0
-45 -2826 0
2676 2708 0
-736 -1461 0
494 -534 0
2054 -1673 0
-683 -2801 0
-580 1354 0
2624 -2863 0
-2910 -141 0
1184 1471 0
536 -1898 0
2185 1735 0
-1167 -2657 0
-1489 2123 0
-1484 -2628 0
836 544 0
1703 -1069 0
1131 25 0
-1534 -2609 0
1941 1642 0
2012 1249 0
-515 -623 0
1262 -518 0
-2278 -2340 0
-1883 2643 0
-2224 1756 0
301 -2151 0
-2840 -1203 0
-2007 -2811 0
-1905 1715 0
2259 2409 0
-1308 -1648 0
1830 2096 0
2145 -657 0
-1160 924 0
-1559 1922 0
-735 2255 0
200 847 0
1696 2648 0
-2011 2087 0
1809 -1159 0
-2778 2869 0
1976 -2158 0
1462 -1101 0
-534 -1550 0
-736 678 0
-1531 340 0
-1625 -1869 0
643 -1997 0
224 -2634 0
2277 -1936 0
474 -772 0
-456 -2021 0
291 -2545 0
-899 -160 0
893 2696 0
-1232 -2366 0
2589 -1772 0
1657 1255 0
2503 1125 0
-868 -2737 0
2138 2510 0
-591 1294 0
1014 -434 0
-643 98 0
1035 -2534 0
-1609 2687 0
-2089 2395 0
-479 1597 0
582 2195 0
1563 -358 0
-2356 -309 0
-268 600 0
585 2165 0
-2459 -1747 0
319 -2110 0
-312 722 0
-1477 2668 0
2553 1620 0
-103 -2665 0
2579 275 0
725 1135 0
2174 -1955 0
2869 128 0
1196 -1559 0
-74 -1207 0
1878 882 0
-866 -16 0
109 -1461 0
-2246 -105 0
1944 -964 0
-1160 -1195 0
-579 2619 0
64 2404 0
202 -814 0
1733 2314 0
495 -1224 0
896 -696 0
-1814 -2333 0
-241 1877 0
-2479 -373 0
2097 -2323 0
576 1014 0
-969 877 0
923 1075 0
2452 -1532 0
-2467 -1783 0
-640 491 0
876 2041 0
841 -1349 0
-1822 1798 0
-1356 -1641 0
-1420 -1266 0
-244 373 0
-77 723 0
-1601 1216 0
1926 -1822 0
-1693 -2892 0
1537 2006 0
2259 432 0
-948 2077 0
-1121 -1079 0
-1538 -1612 0
1233 1703 0
2138 -2025 0
-2326 -139 0
-1307 -551 0
-2323 -1636 0
1986 411 0
-2298 -2592 0
-2578 -420 0
2452 1170 0
-2587 -1600 0
-61 2395 0
-2351 -2582 0
578 -2821 0
-2725 424 0
-1756 -255 0
275 110 0
2571 1656 0
-973 -1798 0
-985 -368 0
-2444 -1309 0
45 574 0
-1428 -859 0
965 145 0
76 -1447 0
-1930 -867 0
-1980 -698 0
503 -2460 0
-2780 -1902 0
1339 -963 0
1473 1686 0
-1776 -2499 0
-1683 -2452 0
-939 -72 0
-2837 2115 0
-2134 328 0
-1222 -1772 0
1033 875 0
587 -1084 0
-43 -205 0
957 933 0
-2757 -1351 0
312 1666 0
689 -2851 0
1621 1834 0
-2525 -1988 0
1479 -2853 0
1456 -2288 0
789 199 0
-1999 298 0
1501 -27 0
-1438 -1619 0
-2257 1757 0
884 1694 0
127 -1886 0
2733 -1967 0
-1689 -1635 0
222 -2743 0
1775 1836 0
2858 723 0
-2070 -2916 0
1368 -1499 0
-2539 1762 0
-948 200 0
-2750 -460 0
2843 -1453 0
-2803 2745 0
-2773 -2750 0
2659 -2194 0
-2706 -2546 0
-2660 -1309 0
-1688 -471 0
29 -2072 0
-452 -1622 0
-2484 2363 0
2732 2077 0
-1621 1396 0
1045 1478 0
-1276 -279 0
-2654 -1315 0
-1324 -1587 0
-2844 733 0
444 -1025 0
1350 -70 0
-1551 2088 0
148 -591 0
1656 49 0
309 -1766 0
2652 1557 0
1966 -1181 0
-623 -899 0
-2296 2026 0
469 2212 0
-2094 745 0
2472 2909 0
1722 1006 0
-90 776 0
-914 1626 0
-2351 1561 0
-2162 -41 0
-2073 2387 0
-1254 -2292 0
673 -2743 0
21 2646 0
53 -2538 0
2055 452 0
-2614 1004 0
-630 1884 0
1692 -2705 0
2212 676 0
-2425 359 0
586 -2285 0
-1496 1671 0
1735 908 0
849 -2328 0
-2227 -1172 0
-1191 1980 0
1856 608 0
16 -391 0
-2170 2248 0
-992 -2736 0
46 723 0
2746 -1683 0
-2420 -176 0
-66 -216 0
448 1896 0
-1428 -233 0
-2397 1268 0
-1031 -2678 0
2793 -1509 0
1463 1283 0
-1460 -1044 0
-2598 1727 0
506 959 0
2253 -1167 0
-2606 951 0
-994 -2561 0
-59 -1595 0
407 749 0
1295 2267 0
-626 -1570 0
-106 146 0
-1290 2 0
2844 697 0
-2427 104 0
2879 -22 0
2456 -2357 0
-1196 -1966 0
2763 -2229 0
-708 761 0
2189 2400 0
2211 -2815 0
-525 2139 0
-2616 -792 0
1455 307 0
-2768 2022 0
-499 -2466 0
-1154 2790 0
2772 388 0
-610 -2650 0
-1525 962 0
1 -203 0
355 1033 0
-2133 -448 0
-366 -913 0
-1878 2376 0
-2489 2840 0
107 2911 0
1602 1501 0
-1815 899 0
524 2797 0
-2425 -1869 0
-1930 2729 0
-1990 -2756 0
409 1739 0
575 -2358 0
2837 -666 0
-2052 952 0
-2749 1265 0
-1555 1255 0
1325 -1426 0
2358 844 0
-2356 1178 0
-323 511 0
-92 1202 0
-2850 -1195 0
-2172 -1868 0
-23 -370 0
1632 2077 0
238 2001 0
243 -1830 0
-2676 1741 0
-1772 2897 0
2008 -2223 0
595 658 0
885 1164 0
1774 153 0
1411 -1612 0
-1618 -1256 0
-901 690 0
-1569 -890 0
-608 2342 0
1795 -1867 0
1790 -672 0
-2086 542 0
1151 749 0
1105 -721 0
2410 998 0
1246 2504 0
122 -2065 0
375 -1688 0
1975 -688 0
959 147 0
673 1883 0
1626 -1372 0
-1432 -1392 0
-271 -2433 0
1173 1317 0
-544 2656 0
797 2617 0
-2607 786 0
-2507 809 0
997 1962 0
1105 -617 0
1223 -1052 0
2389 -1738 0
-1862 -2457 0
-2228 -2648 0
2358 1785 0
-2585 -958 0
-2043 737 0
2398 -1290 0
1346 -1619 0
-2301 -745 0
-1405 -663 0
-2303 -2685 0
2320 -1201 0
694 -1189 0
-1477 -2571 0
1194 102 0
-1388 2300 0
-2581 2333 0
-56 -1386 0
-2912 2551 0
1114 1283 0
-1839 1259 0
-2835 -1742 0
2688 -2871 0
-2621 1771 0
-493 -1765 0
2708 2137 0
-63 -1832 0
1606 1671 0
494 2636 0
320 -1606 0
-345 603 0
2893 -35 0
-1076 1423 0
127 2090 0
-2839 -2253 0
1697 -2107 0
35 -2037 0
2457 2372 0
888 901 0
-738 929 0
-1869 1527 0
-1536 -2851 0
-1489 -2797 0
-312 701 0
-2423 -1155 0
-1232 -963 0
-1485 291 0
-1844 -1153 0
572 -2328 0
1882 2080 0
2048 -1728 0
1982 -1372 0
1826 -475 0
583 98 0
-2230 -2162 0
1024 -1167 0
2724 -2253 0
904 831 0
163 -1680 0
2600 2704 0
2617 -2168 0
2476 94 0
377 -322 0
-1581 -614 0
967 2435 0
2525 -1009 0
2180 -2009 0
853 -1830 0
-886 -2363 0
2312 627 0
1579 -426 0
2019 20 0
58 -199 0
2482 2573 0
2307 698 0
1404 1483 0
-2562 -502 0
-803 -1734 0
2027 -1842 0
54 -1968 0
1213 804 0
-33 619 0
1544 -2760 0
2764 2207 0
2911 2274 0
712 2761 0
1040 775 0
2238 -1224 0
-1169 -190 0
-1018 -623 0
120 756 0
-2514 -318 0
-2238 -937 0
-57 1140 0
-1595 846 0
-1521 1670 0
604 928 0
2405 -271 0
-1325 -2743 0
-172 1231 0
-2154 98 0
1882 2031 0
-1289 113 0
-1738 -688 0
-744 -1079 0
-1237 1019 0
-923 -9 0
-2384 -1117 0
-23 -555 0
2620 -2719 0
2296 -2263 0
-424 1783 0
2830 -2524 0
-810 -1129 0
-1358 -2423 0
2728 -2770 0
1895 660 0
462 -1439 0
2081 -52 0
-1200 2506 0
924 -1130 0
1180 2395 0
2915 -468 0
-2354 1370 0
2635 -1111 0
-1227 164 0
836 -2476 0
-1153 -789 0
2325 -1206 0
-344 -2474 0
-2322 665 0
2910 -284 0
2911 1142 0
-403 87 0
-710 2280 0
2523 595 0
-1970 1870 0
1691 2388 0
82 2511 0
2514 1757 0
-1676 -2811 0
514 -313 0
-1868 1891 0
2314 -963 0
1936 -2043 0
2688 367 0
1188 -1815 0
2124 222 0
-315 2201 0
1537 2414 0
-2488 187 0
-2306 2685 0
-641 -2829 0
1736 -1791 0
-181 -657 0
-982 1495 0
2442 110 0
-1998 2757 0
648 360 0
-2257 990 0
-2436 -318 0
130 -2393 0
1326 207 0
2572 -2162 0
-2338 -2547 0
1925 -976 0
2822 -2907 0
626 -759 0
2818 2180 0
2372 2418 0
-898 771 0
2037 -1651 0
1535 1565 0
1014 -1224 0
-2637 1383 0
1995 -683 0
-2204 -2575 0
2234 2691 0
767 2292 0
-1472 -943 0
460 650 0
-1050 1599 0
2783 -2168 0
579 -1542 0
-1716 1160 0
2576 -1004 0
5 983 0
-406 2880 0
-1731 418 0
-1861 -1001 0
1447 1941 0
-1961 896 0
770 7 0
2567 489 0
-691 2031 0
1496 -191 0
361 37 0
-2130 1896 0
746 363 0
761 -2176 0
2460 1596 0
2346 1038 0
1019 -2827 0
1962 1684 0
-2458 -2651 0
-681 409 0
2551 -761 0
2891 -471 0
-265 2759 0
-397 -669 0
1690 1882 0
-1061 2896 0
2159 -1518 0
1716 809 0
452 -100 0
478 -1248 0
714 -599 0
2419 -362 0
800 145 0
1045 716 0
311 -969 0
2830 1637 0
1815 -1031 0
494 -38 0
-589 2195 0
-2815 1398 0
2341 1812 0
2246 -1983 0
-1789 -455 0
-1062 2697 0
1353 -1712 0
-1081 2534 0
-2708 1812 0
1347 722 0
1164 905 0
531 422 0
-1625 -505 0
-2283 -900 0
351 2700 0
304 2419 0
2726 1016 0
-389 2713 0
-1748 1999 0
-2484 2556 0
411 229 0
1782 -878 0
-2021 2701 0
-2452 -1049 0
2024 310 0
-2513 -866 0
-1693 222 0
890 -1487 0
2364 2212 0
2499 -1315 0
2453 372 0
-498 2571 0
1568 2426 0
1255 -53 0
1157 -192 0
35 2002 0
-2016 383 0
958 1609 0
-1524 -2291 0
-884 2726 0
-932 -417 0
26 -2147 0
-2471 -117 0
1495 -2624 0
-2579 -2443 0
-2910 2555 0
-1635 2154 0
1672 -2353 0
-479 -1665 0
