c NF
p cnf 4755 11888
3444 -1596 0
1496 -559 0
-4271 93 0
-3708 2589 0
1073 1771 0
-4537 1799 0
-3401 4201 0
4705 -3747 0
-1170 2351 0
-4613 1087 0
207 -2595 0
3678 -4636 0
2237 -3101 0
-3142 489 0
200 220 0
3566 2275 0
-1852 3799 0
3081 1476 0
-53 1948 0
3432 2755 0
1951 -3881 0
216 3252 0
-1415 -3082 0
-468 1976 0
4164 -2647 0
664 -286 0
3637 -1011 0
2752 -2305 0
1436 4443 0
-3522 -1063 0
-4349 3755 0
1310 1356 0
-2769 672 0
4367 -1184 0
1575 -1849 0
4495 -3737 0
-4280 -1337 0
-3839 -682 0
872 -835 0
2609 2191 0
713 1932 0
859 691 0
555 -2196 0
-1325 -2418 0
374 -3135 0
-363 3396 0
-1662 -3443 0
-89 453 0
2124 -4431 0
-240 2321 0
214 -300 0
2447 840 0
-1973 -4321 0
4363 3855 0
1181 1887 0
1937 542 0
428 147 0
-2795 -2275 0
-1603 -4575 0
4157 -3104 0
4006 -3913 0
3015 -2723 0
-3776 -142 0
-3631 4345 0
3801 -4402 0
-2265 125 0
2203 4524 0
2845 -643 0
2910 -2538 0
-4128 1429 0
-4163 3563 0
1328 2903 0
-688 1320 0
-3537 273 0
3807 -4739 0
2834 -3710 0
-3923 -737 0
2102 4712 0
-4745 -1432 0
-666 269 0
-3732 99 0
-3692 4230 0
-3636 237 0
4490 -792 0
3753 -3486 0
2245 -4211 0
1802 -533 0
-3788 -3647 0
-1134 4034 0
-4445 2707 0
2553 -676 0
1836 3954 0
4491 4059 0
4440 3843 0
1686 -1092 0
-3998 3388 0
1917 -2513 0
1902 -3089 0
1122 -4525 0
715 967 0
2162 -143 0
3784 -1453 0
-3934 2460 0
2818 -660 0
-2701 2306 0
-841 3972 0
-3657 -791 0
3788 425 0
1944 1363 0
-1797 566 0
-1846 2761 0
4391 2288 0
926 3204 0
-4267 -4320 0
2646 1570 0
-1773 -3697 0
-2977 -1665 0
-4284 791 0
705 980 0
2916 -3351 0
2501 2957 0
2575 925 0
29 518 0
3188 -3715 0
-370 -4585 0
-2829 -959 0
-3600 -813 0
1302 -228 0
4049 1217 0
-1844 -3786 0
-3349 -3784 0
2914 613 0
-1607 1527 0
4240 678 0
-3021 -2266 0
-4316 -3004 0
704 -4378 0
3041 1153 0
242 1162 0
4552 570 0
-1698 3400 0
-1847 -1414 0
-3408 -3540 0
1039 -3217 0
-4205 -1994 0
3003 -4346 0
-1359 1234 0
4150 -3433 0
2139 3605 0
3136 -1931 0
4734 842 0
4060 4459 0
-3666 2119 0
-1112 4241 0
3271 -3296 0
-1484 -1427 0
4482 -1321 0
-2489 3773 0
-985 4613 0
-4239 591 0
-4686 -1428 0
-2177 -3500 0
986 -1180 0
4160 -3183 0
-352 1190 0
-860 405 0
1627 -2720 0
-3643 -1846 0
-1575 -2318 0
-824 -3577 0
-1439 2706 0
42 2540 0
-1706 1309 0
182 3558 0
-4490 -3394 0
-756 1224 0
-445 -805 0
2531 -1751 0
3754 844 0
-2426 2672 0
-778 1095 0
2951 -3766 0
2587 4341 0
-2767 -1041 0
-4255 -1628 0
2349 -4546 0
1472 3608 0
-3975 116 0
1530 587 0
-488 -237 0
3891 4311 0
-2129 -2919 0
136 -274 0
-2615 2558 0
-3831 2933 0
-2167 -409 0
-2160 -2360 0
-3837 135 0
-533 4141 0
4455 -3823 0
-994 -491 0
1944 -1808 0
902 -1254 0
-285 -3517 0
-3659 -749 0
4511 -376 0
-4558 103 0
2644 -4048 0
-4462 -2432 0
-4609 -4078 0
-4127 -507 0
-807 3854 0
4181 2213 0
-4126 -2750 0
1912 2075 0
2874 -2720 0
3260 999 0
-771 -3474 0
-2688 -449 0
-3799 3939 0
1343 2840 0
-34 -2458 0
-4681 4225 0
963 1206 0
623 -3245 0
1936 -3740 0
-2221 -3239 0
3908 1689 0
3626 -436 0
1143 3971 0
842 3642 0
-4340 4026 0
2017 -2003 0
2135 -969 0
-924 -4644 0
-1426 2640 0
-1263 2231 0
1392 -1493 0
-3007 561 0
2370 3223 0
1344 -3418 0
-74 4175 0
-142 -88 0
256 3399 0
-1238 3747 0
355 3181 0
680 2231 0
2552 3140 0
328 1611 0
-2875 -2964 0
-1545 222 0
-3256 389 0
-998 -4578 0
-2874 4662 0
4076 -572 0
-3962 -3206 0
-3751 3222 0
3286 -203 0
2321 65 0
2591 -584 0
4226 -3064 0
-1587 -3357 0
-729 728 0
-2300 1559 0
-1103 -773 0
-3814 -3315 0
302 4329 0
4402 2586 0
1322 -1285 0
944 -2229 0
-1815 -130 0
-4421 -4461 0
3795 -1469 0
2341 4722 0
-1515 4476 0
1919 2610 0
-1913 -3466 0
3073 2768 0
2137 1030 0
-4064 -497 0
-1429 -602 0
4601 695 0
1722 930 0
-2570 -4392 0
-4314 3021 0
-2630 -414 0
-3024 2510 0
-3856 4523 0
2948 -779 0
3938 -3636 0
-2863 2584 0
955 3637 0
-99 -3227 0
-1255 2724 0
-1402 -2545 0
3056 3601 0
3869 -1397 0
606 -1110 0
1843 177 0
4034 -2442 0
-4536 -1316 0
1451 -553 0
1517 4300 0
-1163 -3369 0
2231 -2280 0
-4706 672 0
-3756 537 0
1726 2803 0
-966 -1193 0
1314 -4025 0
-1240 138 0
-4387 -4071 0
1543 1134 0
-2920 3333 0
4614 3427 0
-4524 3131 0
-513 2545 0
-1102 -4077 0
2248 4312 0
-3551 -2620 0
648 -3837 0
4148 -1508 0
-4428 4601 0
1895 -2176 0
-2937 2755 0
3408 -462 0
-1032 3302 0
3371 1561 0
-1491 -3762 0
-1185 4189 0
2261 -1949 0
1086 3903 0
1189 3634 0
4009 -2833 0
-1156 -1539 0
-2798 -4714 0
4064 2056 0
-3798 -142 0
-3589 -3694 0
3672 661 0
2900 -2794 0
-3245 -4028 0
-3972 2656 0
1994 -469 0
-3812 3776 0
-662 3037 0
2477 4183 0
197 -3267 0
3252 4640 0
-1873 3264 0
1924 4095 0
3720 699 0
4622 -2881 0
-1782 -2830 0
-4486 -2750 0
-3432 2416 0
-3797 -503 0
472 -2073 0
1131 -3483 0
1955 3389 0
-2668 -3948 0
-247 915 0
-69 3475 0
-1547 -3574 0
-529 4339 0
1003 -958 0
3620 -852 0
-491 -325 0
498 2611 0
-1196 1416 0
-4525 -2664 0
-305 4265 0
2431 -3207 0
3761 2808 0
1431 1150 0
4626 -2864 0
-2993 2747 0
-3919 166 0
617 4518 0
-1741 169 0
1238 1944 0
-3684 2834 0
-1409 1537 0
-3112 1252 0
-1609 -3702 0
-3240 -2907 0
216 -964 0
2618 4072 0
-349 -2313 0
-3892 2087 0
4651 -1651 0
1188 1963 0
2311 -1254 0
1868 3974 0
-1569 -3764 0
1275 3596 0
3377 3498 0
2200 -3142 0
-3272 3172 0
3383 1422 0
-4358 1366 0
1299 -919 0
-4642 1513 0
1486 86 0
3370 1397 0
1700 684 0
2438 1113 0
-1147 4637 0
1498 4544 0
218 3257 0
-3090 1884 0
-1339 -144 0
3282 -2691 0
4500 1462 0
-29 -2026 0
-4314 -2405 0
-2389 3753 0
-165 1921 0
-3013 -1645 0
3984 4358 0
3192 105 0
808 -2365 0
-587 -623 0
-3398 -3445 0
-958 3244 0
4177 -4305 0
2307 4683 0
-4534 -469 0
2768 4380 0
-3383 3881 0
-933 2708 0
-3337 -3434 0
-1719 -2698 0
-3121 -750 0
3852 -1747 0
-1456 -4579 0
1130 -1517 0
-1542 -1344 0
616 3689 0
3802 4605 0
1656 3248 0
-255 4730 0
2350 -1688 0
504 -4659 0
4539 926 0
-3764 -1229 0
-2688 -1469 0
-1510 3376 0
4176 4494 0
-1022 -366 0
2461 2265 0
1691 -2104 0
2071 -2563 0
1888 -1431 0
-4237 -2679 0
3865 1653 0
-2850 1122 0
-3477 1703 0
2598 -4714 0
2705 1405 0
-1789 -1922 0
974 1358 0
42 -2642 0
4668 1520 0
2679 -3118 0
2249 966 0
768 2070 0
289 2294 0
1368 595 0
2587 -924 0
4513 -3218 0
-2103 -3369 0
1716 1282 0
1529 3341 0
-1082 1731 0
-111 -4677 0
4336 4338 0
2065 -398 0
-154 2294 0
-525 -1794 0
4305 2895 0
-3541 -526 0
-4361 1083 0
1381 -1260 0
-2964 -909 0
2195 -353 0
2056 -1197 0
399 -335 0
-1049 -2348 0
-1953 2154 0
-4318 3271 0
-3950 -124 0
-2631 1691 0
893 -2939 0
-3109 1398 0
535 -1747 0
2698 1643 0
2462 1786 0
-1739 2252 0
-2616 2488 0
-4146 2556 0
-84 -2639 0
-4698 -3552 0
-2495 1825 0
-1548 1337 0
4265 20 0
-2908 2088 0
1013 -4242 0
2575 -3958 0
3937 -249 0
1381 -3150 0
-3214 -323 0
368 -1030 0
1406 -1073 0
-327 3778 0
-4392 -304 0
240 -4653 0
-1321 560 0
1957 -3023 0
-1000 -2303 0
326 -4536 0
-1765 937 0
-3287 -3801 0
-3585 2041 0
-982 1265 0
-1528 -283 0
3352 -2264 0
-299 -1797 0
-4128 -2278 0
4041 -1202 0
-733 1966 0
-3537 -2846 0
-155 1105 0
-3713 1072 0
-1985 -1434 0
1695 -3576 0
2741 -3715 0
-2446 2044 0
-568 3777 0
1961 1128 0
-4624 3574 0
-3175 -2863 0
-1069 3635 0
-719 -3816 0
844 -627 0
4404 335 0
-2602 3693 0
4617 -1719 0
4379 2217 0
394 705 0
-189 -736 0
-1484 1537 0
3662 -3994 0
2445 1774 0
-986 4230 0
-472 -2437 0
-3518 -4188 0
-977 -3584 0
2088 -3684 0
1243 68 0
-4020 -4311 0
3860 992 0
-1259 -2683 0
3793 3679 0
-2109 927 0
-2139 -504 0
-2304 -1251 0
-2595 -813 0
1645 -795 0
1895 1890 0
-784 3403 0
4213 -1139 0
-3113 212 0
1204 -2178 0
1673 3153 0
389 845 0
3901 1771 0
-2570 1980 0
3928 3744 0
-3276 -2452 0
-2762 2074 0
2984 2635 0
-3076 -4339 0
391 3354 0
2277 1806 0
-3744 2020 0
-888 -3279 0
1940 27 0
-3330 131 0
-1886 -3442 0
-1635 -2680 0
-3151 1855 0
-2183 -2840 0
-3622 -450 0
1171 271 0
-813 3059 0
898 1043 0
3113 -2079 0
4550 -4 0
243 1686 0
3662 -1004 0
-3570 -3599 0
4147 -4638 0
283 -3137 0
-641 -2881 0
-1657 1336 0
-1415 4124 0
-783 -656 0
912 408 0
-3693 -262 0
-357 -4324 0
4620 3102 0
-2789 3907 0
-3742 -1161 0
388 4631 0
-2963 -3612 0
1145 858 0
-3448 -3751 0
1928 4307 0
2700 -2787 0
3931 -3267 0
4376 -1812 0
629 -707 0
1839 3577 0
-2960 -2177 0
-1240 -790 0
-2765 -3806 0
625 2035 0
3683 -3263 0
2048 -3950 0
-3401 -1730 0
-4005 2626 0
1 -1565 0
2875 2115 0
-3069 4152 0
-3884 -3297 0
-4445 -1116 0
1171 1593 0
-4093 -2264 0
-4011 -161 0
-1858 222 0
1133 2987 0
4491 -1286 0
2952 -4515 0
3877 -4106 0
3573 1420 0
1588 4253 0
3586 -919 0
-3422 -4276 0
1937 -3835 0
-1289 3739 0
2425 1518 0
-3043 -385 0
1004 -3914 0
1384 -1758 0
1972 1236 0
967 4242 0
-3458 -1091 0
4752 874 0
972 813 0
4544 -3124 0
-2521 3342 0
-1797 -4478 0
-107 -2073 0
2740 -1624 0
4138 2899 0
1308 -756 0
-2116 -2966 0
-3599 -2214 0
540 -1896 0
1583 333 0
-2177 1062 0
-2910 3962 0
-3943 -121 0
345 -2511 0
-2247 908 0
3558 3594 0
-247 2038 0
2 -3416 0
-4139 4334 0
-2239 -935 0
-1944 3465 0
3673 2321 0
3265 -1583 0
3005 -726 0
-2736 -2136 0
-2649 3505 0
-4040 -4690 0
3096 -1441 0
-692 -3540 0
-1934 4330 0
1451 2192 0
-499 -204 0
3443 868 0
-152 3134 0
-3625 -499 0
4526 -1906 0
-1092 -2684 0
3004 -4221 0
244 -2929 0
-3997 4097 0
-3463 2418 0
-3378 1709 0
955 3611 0
-1974 -37 0
-802 1726 0
1176 -2784 0
-3672 3534 0
-971 -1612 0
-1356 -2316 0
-3868 4581 0
2082 -25 0
4729 -3390 0
1779 -4418 0
-3437 2636 0
-2850 470 0
-4538 -3370 0
-3828 -2121 0
-2734 -533 0
4645 -3750 0
473 -265 0
3288 -2854 0
4271 -2591 0
-4698 894 0
1805 4032 0
3055 -1065 0
3959 -3523 0
2973 -1501 0
-1573 -4623 0
229 -4031 0
-2863 549 0
-4107 -4057 0
3682 -1986 0
-224 3906 0
-3116 -194 0
-1262 -4701 0
-2393 2333 0
-1697 483 0
1241 457 0
2783 1687 0
4322 -3076 0
1281 -2958 0
-2905 -3634 0
-3842 1373 0
3131 536 0
2657 489 0
-2807 -1495 0
-285 4391 0
-2443 2745 0
-3543 -4226 0
-2819 1462 0
-3068 4338 0
1560 -2543 0
-526 -948 0
4052 -2541 0
-4142 55 0
-2735 335 0
-4560 -905 0
-1751 -1401 0
-1011 1289 0
342 -1315 0
-2019 4559 0
-3913 -3365 0
-486 1697 0
3294 4572 0
-114 1969 0
2730 -167 0
-4474 -4596 0
2876 344 0
337 660 0
-4084 -1208 0
-3207 3130 0
-706 -1143 0
2408 -1083 0
-2021 -3200 0
-1512 4483 0
-2541 1175 0
3251 -3088 0
-1068 -217 0
4354 483 0
-4545 -1569 0
-3802 4135 0
-128 2318 0
-1057 3145 0
1843 2655 0
-27 -1934 0
-1105 -3034 0
-305 -3335 0
2501 -1426 0
-4025 -3000 0
1125 -3009 0
2696 -240 0
-1551 -326 0
-1365 -4183 0
-924 -906 0
-430 -4408 0
-4473 4724 0
2352 1628 0
-3101 -549 0
1902 -2010 0
-990 3833 0
848 -1713 0
4308 -4476 0
3622 714 0
-2911 -670 0
2523 514 0
-1248 4598 0
-2722 -3380 0
1502 -1913 0
258 4565 0
-4194 -939 0
-1189 2810 0
2162 -2665 0
-1982 -1668 0
-2126 1280 0
4556 3586 0
-4443 2685 0
12 4136 0
1834 -3231 0
-3916 4513 0
-2103 4113 0
3303 -4170 0
4461 2062 0
-4068 4260 0
3340 -1972 0
-4458 3916 0
-4134 -3786 0
1653 4050 0
3534 2053 0
-3788 -1790 0
-2553 124 0
-2579 349 0
-3099 3513 0
2285 2468 0
603 3303 0
-2199 -1268 0
3969 -1568 0
96 464 0
-3540 -4498 0
-2257 3310 0
-2529 1791 0
-2900 3389 0
3990 -4732 0
858 -1431 0
1667 -2253 0
-2349 -4119 0
1878 4264 0
1950 4358 0
757 3473 0
-408 -2365 0
623 2957 0
1025 -1742 0
-1151 -2404 0
3070 2535 0
-1078 4571 0
-2100 1160 0
-2322 -3474 0
3886 1188 0
-1622 -1602 0
-4751 1087 0
14 -4723 0
-1933 -4027 0
-2874 4169 0
1574 3706 0
2337 -2755 0
4018 1319 0
-1546 2374 0
2886 -2500 0
3820 -1095 0
4688 1734 0
1263 -1810 0
2501 238 0
1696 -3059 0
-4555 2428 0
-879 2634 0
2226 -1797 0
-3232 -3270 0
2802 3889 0
1627 2653 0
-3747 -1522 0
-3696 -4280 0
-2901 2275 0
1593 3568 0
328 3252 0
-773 1932 0
445 2852 0
4050 -3280 0
-597 -931 0
484 4711 0
-776 -4019 0
974 -2000 0
-3795 4226 0
758 3173 0
3353 -1423 0
-4636 -3700 0
1034 -4383 0
-2561 2906 0
3968 378 0
2171 -3947 0
4106 -616 0
-4194 -3142 0
3888 -2072 0
-1777 4084 0
-2206 -2739 0
1096 658 0
-121 814 0
-690 -4646 0
4526 -3441 0
-2105 -4492 0
-3643 4697 0
4569 1763 0
743 -4206 0
-2827 -1721 0
3727 -2092 0
-3821 648 0
-3529 2892 0
1688 -375 0
940 -4506 0
-1310 -1368 0
4560 3514 0
2080 -69 0
-261 3095 0
-1957 -2777 0
-2225 2582 0
-2373 -1197 0
2937 2951 0
3282 -2263 0
3168 -3647 0
-2680 2560 0
-2930 -854 0
-3092 -1893 0
3783 -175 0
-826 -4516 0
-473 265 0
654 -1954 0
185 3592 0
-195 -2735 0
560 -4064 0
284 699 0
-427 1993 0
-3885 2399 0
2379 -4032 0
2809 -3651 0
-3747 3825 0
-3206 3946 0
-2191 -3114 0
-1715 -2881 0
-2665 -1570 0
1944 -4410 0
-4738 2456 0
-2226 -1991 0
-789 -1742 0
-3191 -2357 0
-1187 -71 0
-3267 2124 0
900 977 0
-3726 -1709 0
2288 -2470 0
-1693 321 0
2633 2786 0
-985 4730 0
-1664 2678 0
2605 -3772 0
1280 -3064 0
-4533 703 0
-1154 127 0
1079 3039 0
-4604 103 0
-4636 -300 0
2007 -3707 0
410 -2366 0
4079 4100 0
-270 -1350 0
1673 -2448 0
-3740 -4695 0
-4080 -4167 0
-1790 470 0
1828 -4554 0
-4141 -3772 0
-4 4563 0
-3153 2582 0
2146 1440 0
1291 43 0
1382 -1070 0
4592 4441 0
1029 766 0
-4541 -2735 0
2601 -1197 0
-3666 3229 0
452 3929 0
220 3936 0
4601 849 0
-1236 655 0
356 -2278 0
1270 576 0
137 2166 0
-918 3693 0
1216 -3137 0
-608 3318 0
3070 1366 0
-50 1661 0
-4633 3838 0
3808 712 0
-4374 -2424 0
-1972 -3615 0
-3972 -1363 0
2592 4331 0
3291 4315 0
2022 2357 0
2573 -1598 0
776 256 0
-1000 2454 0
-4476 4311 0
1157 -2356 0
-1956 -4272 0
-1203 -2549 0
3208 677 0
-2875 2997 0
-3748 -3591 0
2156 -1331 0
-3657 -1092 0
-2527 4160 0
-625 -4228 0
2811 4547 0
-4130 1046 0
-4153 3223 0
3684 899 0
3557 4130 0
1399 83 0
-4685 976 0
-980 4464 0
-1143 1685 0
-1748 -2601 0
2319 -1820 0
-3358 3742 0
3696 3972 0
-4661 -345 0
3324 -1043 0
-2146 4599 0
-1516 4410 0
-3366 4598 0
2549 2256 0
942 -1988 0
-4692 -2540 0
-3752 4085 0
1610 -2615 0
1190 1999 0
-11 3282 0
-1851 4537 0
-3391 3706 0
1810 -1183 0
1316 -2836 0
3289 -3355 0
-4217 -3945 0
-1854 485 0
4358 -1820 0
110 -4469 0
522 2566 0
3854 607 0
2274 -1833 0
-1710 155 0
3507 -2792 0
-919 3413 0
367 1142 0
4749 -1647 0
-4552 -3837 0
3247 1593 0
-1508 1009 0
-2715 -4011 0
2078 2395 0
-3079 2199 0
-2553 4254 0
1875 -1855 0
926 -1486 0
-481 4088 0
-2176 1603 0
3021 -4163 0
-3140 2892 0
-1922 -109 0
-184 -1266 0
2458 -3454 0
-2209 -4522 0
-987 321 0
814 3008 0
324 -2155 0
1180 -3644 0
4222 2345 0
4710 -4487 0
-1660 -2096 0
-2631 -3813 0
-435 -1638 0
-918 -262 0
4415 3577 0
3449 1395 0
4098 856 0
-2527 -4232 0
2618 4483 0
1883 -960 0
-2960 -1095 0
112 3515 0
1836 -183 0
1554 -2887 0
-4463 2277 0
-3913 699 0
193 -3812 0
1548 -2060 0
335 -3009 0
-350 -1251 0
-2934 2802 0
2941 3526 0
2136 4347 0
-1019 -160 0
3880 3951 0
-73 -4386 0
-2045 1376 0
3225 -442 0
-805 3721 0
1121 -3409 0
2444 -4718 0
-2484 3797 0
4185 1240 0
-1146 -42 0
1694 3640 0
2321 -4694 0
3153 3727 0
841 2206 0
-1105 -321 0
-1252 -4093 0
-2494 -498 0
3048 -4270 0
2189 4135 0
4105 -3555 0
905 -2712 0
-4648 -2363 0
1007 -284 0
-724 3994 0
-107 -1485 0
616 -2566 0
2619 -4159 0
437 2569 0
-2857 -559 0
3353 -3089 0
1877 -2357 0
-2651 3247 0
-1527 2023 0
-2870 -3840 0
2990 -4181 0
-48 2129 0
2587 4054 0
2746 -1319 0
2754 4146 0
3249 -1200 0
1828 3296 0
-4408 392 0
3901 -959 0
-3842 3451 0
1477 -4715 0
3858 -717 0
1477 -170 0
-705 3960 0
894 -3013 0
3859 2303 0
968 -2038 0
-2436 4468 0
1113 -1531 0
4627 -64 0
-3772 -3314 0
-1654 -2964 0
151 2298 0
-3930 -2317 0
4374 -2862 0
-3061 -2916 0
-3779 -2631 0
-2665 -4190 0
3446 871 0
-2457 -4427 0
71 -558 0
-3406 1787 0
-3531 -3835 0
-4031 -3520 0
3670 1986 0
1451 1777 0
348 2052 0
-3236 872 0
764 541 0
-2812 4700 0
213 -171 0
-3533 1206 0
-2057 771 0
-1762 -3543 0
-4533 -4190 0
-2675 -2826 0
4521 -3449 0
-2214 -2698 0
1806 -3252 0
2790 -2130 0
3682 -1016 0
3254 1666 0
374 2220 0
-4149 2937 0
-3499 -2181 0
-4015 -1251 0
318 3356 0
-2651 392 0
-1953 -4231 0
-121 4232 0
-1834 -730 0
-1578 901 0
-3611 2401 0
-3602 -3000 0
3976 -3979 0
-4062 1983 0
-1443 -2198 0
-1231 1385 0
-4538 4455 0
3293 -2364 0
-3750 1953 0
83 2238 0
2500 -2615 0
-1825 2455 0
-338 -399 0
-189 3036 0
3317 3423 0
234 -1655 0
-2690 -2091 0
-3606 -3565 0
4310 -683 0
1224 -1235 0
1519 3506 0
902 2645 0
2521 3640 0
1863 -2934 0
1443 3730 0
-697 -2801 0
-349 3554 0
-3799 3405 0
-4624 4437 0
3734 -152 0
-4352 -1784 0
-463 -3610 0
-2780 40 0
3112 3474 0
-3357 -1699 0
281 -3762 0
-2160 1361 0
-2110 3690 0
-1212 3109 0
2510 4055 0
49 4312 0
-4442 293 0
-4306 3537 0
-4374 449 0
-1012 -1509 0
-3859 -2384 0
-1801 -2898 0
-3191 3571 0
-3723 -1911 0
-3764 -3713 0
3662 3928 0
798 -2238 0
2757 1811 0
1151 2249 0
2986 -2106 0
4253 -3886 0
2862 4599 0
1429 -1454 0
-1483 2237 0
-3009 -516 0
3198 -149 0
-334 -4385 0
1476 -432 0
-2127 1473 0
4303 -2400 0
-1278 4019 0
-1913 3096 0
-689 -3563 0
-2325 -3376 0
1439 -3870 0
-2619 4434 0
-2191 4287 0
-2628 -3156 0
-4349 -2774 0
3771 4742 0
-715 -625 0
-2935 -4698 0
168 4744 0
-3459 2386 0
324 -4569 0
904 3021 0
-2781 -4131 0
1154 1632 0
-3226 1223 0
-398 -1807 0
2713 -1982 0
-4242 -3850 0
-1123 2116 0
-1208 -3164 0
-1553 840 0
-4291 3513 0
3581 -2021 0
3471 3233 0
-4192 -975 0
-3923 -691 0
-1782 -1704 0
-669 1167 0
-3824 -2596 0
-1342 3935 0
-2731 1763 0
-160 -261 0
-726 -2967 0
4421 -1560 0
674 -1570 0
2320 -4694 0
-3380 2833 0
3960 744 0
-2930 3942 0
-4069 -1260 0
2575 -3707 0
-3483 -2297 0
4741 -2096 0
-2920 -3142 0
218 4406 0
-374 2024 0
2779 -1596 0
-1700 3159 0
-4653 -2644 0
3171 -4019 0
-3033 451 0
-555 -1783 0
611 -2203 0
2640 -3549 0
1131 -1501 0
-3285 3055 0
-2722 30 0
3362 900 0
324 3968 0
-974 -1860 0
816 -964 0
-971 572 0
1744 2459 0
3854 -4071 0
-2162 -4034 0
3565 2372 0
1318 1479 0
-2456 2974 0
-3740 -4487 0
-2959 -4101 0
-2010 4614 0
-4606 -2942 0
-1293 -2007 0
-3840 -4422 0
-363 -3064 0
-3256 3158 0
-4264 1660 0
-1906 -1329 0
-4430 -2110 0
915 -3011 0
-3750 -3829 0
-3200 -1957 0
157 4303 0
1235 -2454 0
2145 -4709 0
-1717 -3678 0
2708 3901 0
2486 3049 0
4499 -1420 0
-4651 1288 0
3141 -4435 0
927 -530 0
-4177 -2577 0
-143 3665 0
-4702 212 0
-4629 -2689 0
-2085 -4681 0
1746 -277 0
902 -3696 0
4464 847 0
326 -593 0
1614 -1257 0
4612 -1498 0
2159 -286 0
-3862 -581 0
4442 1524 0
816 -1817 0
-3273 3911 0
3877 -4334 0
-4361 3342 0
86 3865 0
2254 735 0
2251 3879 0
1541 4348 0
-4560 -3713 0
3099 -1582 0
-1853 2820 0
-1142 2126 0
2656 1681 0
136 2682 0
-2317 -3639 0
-1015 -4369 0
705 208 0
2636 2188 0
-4614 -4096 0
1462 -4739 0
3334 1831 0
-3141 3734 0
-1878 -3540 0
6 1009 0
-3475 -2353 0
3978 3084 0
3315 3550 0
1430 2513 0
1895 4383 0
4593 4193 0
-1325 -3498 0
2310 1130 0
197 3568 0
-1065 -2504 0
3296 43 0
-3749 -461 0
-3250 2940 0
-3910 -3526 0
2945 3823 0
-4276 -4046 0
-3256 1417 0
4002 -2432 0
1968 -2642 0
-2124 189 0
-991 -4017 0
-183 -2675 0
4290 2108 0
3110 -3280 0
4148 -559 0
-150 -4015 0
-3428 -3438 0
-2352 -1885 0
692 -4363 0
-3973 908 0
3971 2561 0
1409 -697 0
952 -1685 0
1663 -4708 0
3769 -2630 0
-4526 1414 0
-3349 536 0
-2255 105 0
-351 1644 0
1017 4221 0
3273 3235 0
-2494 136 0
-1209 -69 0
-1195 1780 0
-3130 -3256 0
-2709 -756 0
-1894 -2515 0
3813 4334 0
2505 -521 0
-780 4748 0
-1049 -144 0
-3154 -1733 0
3761 2978 0
-580 -2704 0
-1954 -1563 0
-1266 3457 0
-481 2744 0
-2483 -3205 0
-3203 -404 0
-1913 -2161 0
978 3492 0
185 4003 0
1174 -1447 0
-3786 1319 0
-630 2802 0
3900 -1556 0
-2552 821 0
-4180 607 0
2601 452 0
956 -1487 0
-3877 301 0
-3308 -1149 0
-1640 -1112 0
1037 4152 0
2988 -3804 0
-3150 -2011 0
-2697 -1643 0
-1743 -1547 0
-2342 3175 0
2706 3365 0
2427 1230 0
1041 -841 0
-3864 3303 0
348 3186 0
-4482 -363 0
4592 -3029 0
3247 -4740 0
3605 4700 0
-3178 -4272 0
3150 4631 0
3503 -210 0
4059 -1789 0
-3771 -22 0
4323 4441 0
-2722 -1794 0
684 765 0
-987 -3346 0
-674 -2369 0
-1344 3356 0
-1098 -530 0
2825 83 0
-3435 -114 0
-4739 -984 0
559 -3491 0
-4609 1193 0
-4579 -3807 0
1528 -2750 0
577 2113 0
3267 3168 0
3966 -3710 0
-3480 2326 0
-4588 -1784 0
3781 3777 0
-772 -2049 0
-2353 2633 0
-4406 -424 0
1194 -648 0
-3797 2934 0
-2504 1206 0
3814 -85 0
234 -1971 0
89 4014 0
-1142 3218 0
-2687 2568 0
826 1788 0
-2395 59 0
-2870 2760 0
-812 3460 0
201 -3616 0
-1090 3558 0
4269 392 0
2475 2456 0
-251 -1287 0
4478 1084 0
4184 3765 0
-2540 -749 0
3692 -3421 0
1138 -2737 0
-2849 719 0
-1254 2949 0
-1854 -985 0
-2747 -3435 0
3466 -1466 0
631 -447 0
1475 2611 0
797 4640 0
-3399 -1661 0
-1262 2998 0
1823 -1150 0
-4122 -443 0
-2765 -4575 0
-4262 3348 0
781 2573 0
1820 -3683 0
1308 1803 0
-4677 -2106 0
-4119 -2436 0
-3145 -1203 0
3094 1067 0
3568 -3147 0
2385 -1185 0
-1903 -1659 0
3847 4126 0
926 -4239 0
-4299 3824 0
-3864 -1139 0
-2073 -3549 0
2722 3323 0
4414 -4239 0
-3760 -359 0
1519 819 0
457 -1392 0
-925 -1980 0
-3487 -3829 0
-3678 -2631 0
-2587 -642 0
-3567 -3424 0
-3204 2253 0
-2707 2992 0
3463 1468 0
-2869 973 0
2287 -2031 0
1075 -1296 0
-2823 -3549 0
-2236 -748 0
2237 -2732 0
750 2193 0
3408 -2174 0
233 2032 0
4524 4042 0
-1397 3489 0
-3624 787 0
-2980 -2210 0
2815 -2605 0
2778 424 0
-3844 -2092 0
-4565 -2606 0
3919 1812 0
3459 -2949 0
2531 3409 0
1299 3418 0
-934 53 0
-2464 4149 0
4250 -4414 0
1619 -4465 0
4426 -4669 0
1291 4054 0
1926 3413 0
-258 -903 0
1566 2490 0
862 1191 0
-653 -717 0
-4274 4549 0
1350 -1473 0
-4206 4619 0
3699 -1367 0
-432 -2200 0
4051 528 0
-3645 2683 0
1932 -3897 0
-78 421 0
-2737 -2636 0
945 -3577 0
-3466 -4026 0
-2517 4013 0
-602 1696 0
1774 -1821 0
-3582 3859 0
1947 3312 0
518 -2012 0
1249 598 0
50 3758 0
119 -4256 0
-3088 4456 0
3623 1732 0
-2783 -4515 0
-3741 4725 0
2321 -1830 0
-4490 -3544 0
-879 -2297 0
524 -4310 0
-19 -1409 0
-1001 -2592 0
-2358 -3151 0
4746 3719 0
4048 2459 0
-2826 -3833 0
975 -4071 0
2818 1892 0
2359 -2130 0
-1781 -4021 0
-1856 2627 0
1603 -1261 0
-631 -3421 0
3282 3191 0
-200 1931 0
899 4564 0
-953 1610 0
207 251 0
1384 2564 0
-4597 -586 0
1874 -1213 0
-1174 2228 0
3465 -1640 0
-1339 -2795 0
584 811 0
-483 2524 0
4677 1030 0
4498 -4631 0
4106 -1082 0
722 -709 0
-2512 -970 0
1660 -3707 0
-3754 1767 0
-1359 2902 0
514 3319 0
-2785 -3664 0
-1704 2341 0
-2832 -2506 0
-1396 -672 0
4391 -4460 0
-3416 1279 0
3714 -4131 0
3296 3066 0
-4679 2867 0
-3436 1946 0
3429 1648 0
-770 -2286 0
-2262 1713 0
-372 -2800 0
-2881 -3989 0
1811 2448 0
-2643 -4052 0
-649 1869 0
2347 3005 0
1635 -1441 0
3190 -4340 0
-1181 815 0
-326 3343 0
3179 -1539 0
1877 -1790 0
-1161 4392 0
279 -1474 0
884 -764 0
3397 2161 0
-1215 -4000 0
-3524 2062 0
1506 -1088 0
4562 -2257 0
-4444 1417 0
794 4263 0
1884 1158 0
1160 1746 0
3038 -1260 0
3353 202 0
2093 -3831 0
-1197 -2510 0
-3484 -3690 0
-855 4438 0
2612 557 0
-3776 -2010 0
-4255 1989 0
-3435 -1650 0
968 -29 0
-163 3124 0
2350 795 0
1943 1364 0
801 -578 0
-4021 3225 0
-2887 1712 0
3546 -1151 0
-3237 -3702 0
-1857 -1041 0
4612 -3544 0
-4559 -4432 0
3415 121 0
402 4288 0
-1812 -349 0
-2953 -2473 0
1476 -1967 0
-4638 3140 0
-3194 604 0
-3532 -2100 0
2230 3413 0
-1208 -4540 0
1048 4003 0
-4426 -2577 0
-3860 2050 0
-776 -3742 0
2799 -4117 0
-2204 2022 0
1447 -4741 0
4733 2107 0
2254 -1834 0
-3642 -3056 0
364 -3302 0
4440 681 0
618 -3747 0
3843 674 0
-484 3970 0
-2774 -3959 0
4320 -4325 0
-1914 885 0
-1074 4308 0
1768 4700 0
-4182 3946 0
-44 169 0
-2009 -3852 0
1019 -1692 0
-2426 4151 0
-17 -3375 0
3707 -1560 0
3201 -2129 0
-2953 -4704 0
-2947 -381 0
-2743 -1613 0
-266 1263 0
-4166 -3275 0
-1869 833 0
3629 -1815 0
4446 458 0
1444 3315 0
354 667 0
643 1436 0
-959 2918 0
648 2954 0
2548 1588 0
3847 -3923 0
3864 3911 0
-676 992 0
-1394 -1944 0
-3214 -1771 0
-3797 1106 0
-2576 73 0
3950 -1287 0
-189 -3035 0
1714 496 0
2110 -3532 0
4200 -1931 0
795 2936 0
-1041 159 0
2685 -2975 0
1656 -2086 0
2478 -1338 0
-2954 2962 0
-1737 972 0
-3099 -1734 0
1357 4656 0
-2564 3281 0
-1909 -706 0
-1795 1189 0
-4499 235 0
-161 -4489 0
-1482 1093 0
3503 4271 0
4235 -1120 0
54 3013 0
1523 -3743 0
-3421 1467 0
485 -1935 0
-494 -4404 0
-1119 -384 0
3928 4037 0
-3420 -1721 0
2614 3097 0
-2435 -845 0
1860 -4224 0
1537 1820 0
-411 926 0
4420 -1617 0
-4247 2754 0
3020 367 0
1703 4353 0
1689 -2094 0
2264 -1829 0
-4342 -812 0
4106 -3564 0
3951 -1615 0
-822 -119 0
-3658 -2725 0
741 2069 0
397 1647 0
-3843 -4010 0
1661 -3957 0
-2271 4505 0
-4178 1028 0
-1908 -2457 0
-2784 -3491 0
3479 1865 0
-2504 125 0
-3892 190 0
-2894 -2744 0
-205 4050 0
-1987 906 0
3271 -3835 0
981 -3318 0
-771 -2349 0
-2160 3377 0
-211 331 0
1003 3827 0
-1893 -2410 0
-2734 285 0
-2777 2441 0
-3910 585 0
4349 3564 0
567 -63 0
-3066 -370 0
-2872 -3112 0
2595 -65 0
-4397 636 0
-450 4248 0
3581 -3194 0
-1488 2438 0
-2478 -2926 0
47 -719 0
1779 628 0
-3825 -302 0
-1455 2286 0
2834 1017 0
-388 431 0
-507 -2364 0
3002 3382 0
502 821 0
4125 -635 0
-4533 1950 0
3508 3956 0
1953 -3823 0
113 -779 0
-1801 2500 0
-4480 -2882 0
858 4370 0
4152 1742 0
-2776 -3783 0
-396 284 0
4380 902 0
-2228 -2662 0
-2459 1153 0
-4191 963 0
-2258 1313 0
-2610 4592 0
-3238 4084 0
-2938 -247 0
-1433 215 0
-373 -107 0
-1027 -1590 0
-1748 -1555 0
-1799 4578 0
2530 3614 0
538 -2320 0
4005 -4045 0
-1184 2838 0
-2647 -3150 0
-3142 1655 0
-3525 4026 0
2606 -3217 0
-2701 -2531 0
-1303 -1759 0
2717 -3361 0
-3890 1457 0
2644 -1833 0
130 4448 0
-703 2082 0
648 1540 0
-3316 -3565 0
3404 -2548 0
-1265 1192 0
424 -984 0
-1637 -907 0
-418 2235 0
-1673 -2143 0
2162 -2174 0
2617 -29 0
-450 2103 0
628 1862 0
3569 3300 0
339 -1286 0
1816 2440 0
4050 865 0
-3621 -4395 0
-785 2004 0
-3610 2333 0
4483 2519 0
-1411 1601 0
-2949 -706 0
3201 731 0
-1304 -1128 0
-1140 4570 0
-2830 -1293 0
-3014 -4698 0
-1222 1189 0
-3091 -1745 0
-2559 4365 0
1317 878 0
3251 3160 0
1660 -2258 0
-3315 -513 0
567 812 0
-1110 -3012 0
-2187 -1509 0
-2580 -583 0
-2972 658 0
-4194 -3911 0
-4101 -1216 0
3413 -1657 0
2306 2267 0
-1781 326 0
-1393 -2181 0
1839 4482 0
-2668 -3418 0
3819 170 0
-2707 -4429 0
2691 3445 0
-3899 728 0
2556 2220 0
968 -1703 0
3084 -687 0
-4468 -3671 0
-97 -1010 0
-1466 950 0
4532 1908 0
-4632 2531 0
-851 3889 0
-802 -917 0
1976 -2534 0
2418 1017 0
-2405 -912 0
3366 -3127 0
-4046 -879 0
1644 4722 0
-517 -4151 0
-1455 611 0
-2077 4751 0
675 3018 0
2701 4665 0
1069 1541 0
2367 1310 0
3953 -3125 0
-4118 2843 0
3165 994 0
-3191 4448 0
-1725 1465 0
4199 3082 0
3021 -2434 0
-179 -4030 0
3507 3021 0
1655 -4749 0
4100 -4572 0
4467 -581 0
-3886 -1453 0
-3438 1744 0
4555 -4585 0
-4035 4252 0
33 -2890 0
-4051 -3106 0
-867 -3199 0
-3461 -1685 0
-2110 595 0
-4192 -2688 0
3596 -1414 0
404 -1185 0
961 33 0
-3172 -4257 0
-3422 1167 0
-2158 60 0
3070 2526 0
-739 661 0
-4036 3460 0
2495 -3843 0
-1579 -722 0
4243 -3248 0
4669 -2264 0
3940 -3431 0
3806 -430 0
-1569 2838 0
-1491 -436 0
-4439 953 0
-132 215 0
-446 3723 0
-3717 -4629 0
3566 3304 0
2976 2170 0
-3203 -2140 0
-1375 1996 0
-2634 3594 0
3342 -2324 0
1158 -3044 0
966 -3580 0
-1943 3170 0
-2678 -1254 0
1084 -3491 0
1842 -1560 0
2816 687 0
3170 3596 0
2126 1937 0
-1397 4384 0
-3978 1179 0
-449 -133 0
2682 -1844 0
-4494 -2676 0
4460 -2021 0
1889 1277 0
4269 -2856 0
1696 2578 0
-3689 -2827 0
-2776 -1600 0
-4618 3149 0
1297 -1833 0
2590 1617 0
2533 3113 0
2875 -1957 0
-3116 4149 0
508 2691 0
-2352 3653 0
4677 2005 0
1267 -4034 0
-3273 -3250 0
2023 -3987 0
-3468 -664 0
-3269 4440 0
1666 -2301 0
-4238 -3827 0
3431 1791 0
-535 -4625 0
3828 -2221 0
-786 821 0
-2668 4413 0
1070 -1279 0
-2585 -4451 0
-3380 1719 0
2514 1840 0
-4519 2447 0
1226 3662 0
1894 1104 0
2221 -3167 0
-471 -4188 0
824 -2701 0
-1044 -684 0
-4122 506 0
2258 -237 0
612 -3918 0
-85 -544 0
-178 -1647 0
4508 1067 0
-2896 331 0
-2481 -1250 0
-2872 3090 0
-2828 4264 0
-703 -4430 0
1399 2734 0
4704 -4027 0
-449 -4279 0
1886 2638 0
3678 -3025 0
917 -817 0
-4198 -1949 0
1305 -181 0
3650 -3396 0
917 1044 0
-2015 2188 0
2065 -4657 0
-1196 -2799 0
2853 -1741 0
-3766 -4292 0
-417 -2274 0
522 13 0
-4576 1296 0
144 -326 0
-1914 -805 0
498 -4375 0
979 -897 0
-1965 2951 0
4598 2502 0
-3927 3372 0
2105 -104 0
1752 4287 0
4545 -3881 0
-2847 2657 0
-3105 -775 0
-3351 3632 0
685 -1420 0
-1584 -3465 0
1103 -1557 0
4452 1492 0
673 -3832 0
-4744 988 0
1433 -3941 0
3854 -3470 0
837 4155 0
-1672 271 0
2579 1530 0
-3564 -1052 0
-3605 -4062 0
-3335 1737 0
-4074 -3998 0
396 1974 0
486 501 0
1513 3312 0
873 4574 0
-1753 -2444 0
-351 13 0
4181 694 0
1389 4733 0
4338 2125 0
1956 1627 0
3525 910 0
-3694 -2734 0
3651 -3743 0
3310 -4018 0
-1486 -4612 0
-795 -3836 0
740 -3869 0
-2737 141 0
-2377 -1706 0
1644 -47 0
-4246 -2050 0
2437 2584 0
3765 104 0
4280 -1715 0
-2460 4752 0
-649 1023 0
-1483 1999 0
-1590 4594 0
-3597 728 0
4428 -4471 0
-2776 390 0
281 2232 0
3061 -398 0
-1579 1792 0
-2639 -1615 0
-2743 3566 0
4496 -1332 0
2112 -530 0
1164 1875 0
530 832 0
-1390 4452 0
-3979 4063 0
-1307 3521 0
-3687 375 0
-2613 3782 0
-3436 -1759 0
2036 -1359 0
-189 -3979 0
-3364 4310 0
274 1740 0
-2596 -250 0
-3543 3454 0
-2409 -2456 0
4656 1981 0
-289 -3787 0
1805 -779 0
-3216 3154 0
1631 9 0
-2861 60 0
1135 -4050 0
791 -2575 0
-1787 -1260 0
1150 2146 0
-1558 -2222 0
3436 -2624 0
-4545 -2998 0
3541 3686 0
3137 -97 0
2398 -2343 0
-2552 138 0
-2929 2974 0
-1959 -3116 0
-4534 705 0
4389 4436 0
-260 3370 0
-1444 2296 0
3778 -3180 0
-548 -531 0
3177 191 0
-2832 2661 0
94 3224 0
-1601 1508 0
-1685 3786 0
2600 3511 0
4617 1839 0
-1290 -1795 0
1629 4618 0
1875 -3944 0
4493 -2454 0
1416 -1213 0
1169 -4458 0
-2263 2786 0
3544 2438 0
923 2498 0
3267 3308 0
-1998 -3054 0
-648 1975 0
-1049 -4626 0
-436 1334 0
4548 763 0
-3861 1793 0
-3121 -3546 0
4394 4264 0
-2421 4693 0
-1248 1420 0
4143 3764 0
-446 4556 0
-2458 -716 0
1223 -3737 0
-4657 328 0
-1503 -905 0
4546 -2690 0
1588 -3262 0
2928 4402 0
-2180 2379 0
-4572 3104 0
1421 -2824 0
-1188 -4020 0
-3762 -220 0
-590 1471 0
-1303 -4477 0
-4345 1656 0
-284 -3857 0
3055 1173 0
2674 -4034 0
1876 -2947 0
-1542 -3998 0
3960 -1262 0
3110 111 0
173 3117 0
-4489 -1014 0
-2462 -1325 0
3212 -3218 0
-1345 1020 0
-3855 -1750 0
3209 1242 0
4277 1371 0
-2912 -2812 0
4225 -3547 0
2751 2679 0
-788 289 0
-1557 1835 0
-2400 1020 0
-1685 -1482 0
1509 1308 0
-2784 -3608 0
-4231 1582 0
-3470 -942 0
2532 -3551 0
2635 -565 0
-1031 -4264 0
-615 2384 0
3123 3106 0
4233 222 0
-3729 -1662 0
3169 -668 0
-1536 1482 0
4154 1108 0
3894 3974 0
-2752 3171 0
-1539 -2613 0
3587 -1955 0
-3784 -3943 0
-1212 -3839 0
-1236 -1930 0
3097 -569 0
-4549 2686 0
528 685 0
-1640 3168 0
3469 4344 0
3724 225 0
301 523 0
-2469 4206 0
188 -3417 0
-191 1668 0
1132 848 0
-1846 -3561 0
1484 -404 0
-1470 -2132 0
3487 1506 0
-1333 -3241 0
3282 2021 0
1022 -2129 0
-4124 -1988 0
-4227 -1209 0
2978 -3296 0
1786 -4101 0
-1366 1969 0
2863 4631 0
-2405 4338 0
-3189 -2602 0
4423 3040 0
-768 36 0
4430 -1325 0
-3615 2831 0
-4078 188 0
2038 188 0
1465 2404 0
-3644 -488 0
873 -3672 0
-3728 -4484 0
-434 1875 0
-2328 2550 0
-1534 -1390 0
-1505 3801 0
2020 -4072 0
-115 -2292 0
611 4283 0
782 -1463 0
722 1814 0
1119 438 0
-1529 4229 0
-2191 -701 0
4604 3031 0
1941 3689 0
-2138 3898 0
-2619 4022 0
4726 2033 0
-3489 -1884 0
2041 2308 0
-1690 -1782 0
825 -1627 0
1701 4478 0
-833 483 0
1263 -18 0
1848 4599 0
-3024 2371 0
-3899 -229 0
1855 514 0
909 3195 0
-2265 1142 0
-4682 638 0
-3245 2795 0
1428 -4568 0
2645 -22 0
-4067 4611 0
-3536 -2380 0
2348 4136 0
-1251 2026 0
1427 2751 0
-1090 1828 0
-3764 65 0
4171 -1782 0
1024 -4602 0
-4637 -780 0
637 -4534 0
1667 -1808 0
-4351 -3036 0
1463 3048 0
-2475 -3035 0
-722 4249 0
2399 2900 0
2742 -3887 0
2163 1590 0
-2356 -517 0
937 2845 0
495 -1216 0
735 -283 0
538 -2614 0
-2048 -1987 0
-3473 956 0
2130 -4559 0
-1439 4207 0
-1775 2897 0
-1846 4185 0
-3301 -3162 0
1590 -4542 0
1746 1843 0
-912 3585 0
1820 -1473 0
3670 1051 0
84 4106 0
-4291 -879 0
1561 -2689 0
-4703 -3713 0
-3524 1019 0
-2137 -2411 0
3642 -2493 0
-1319 -491 0
-1101 -706 0
4253 717 0
1998 2581 0
-1080 -3484 0
-3958 -2826 0
-1526 -1001 0
2011 4528 0
-3816 3090 0
3574 -4713 0
1757 -3686 0
-3572 359 0
-2624 -2610 0
-4609 -1136 0
1783 639 0
1902 -1349 0
-3876 4511 0
4665 -1198 0
-677 197 0
1083 -666 0
751 -1260 0
-2014 2104 0
4089 -600 0
135 -1272 0
-2280 -151 0
-1909 3921 0
1275 20 0
110 -1895 0
1280 143 0
-4681 4358 0
-835 3132 0
-4063 1428 0
598 -4069 0
-4134 1670 0
-3301 2696 0
781 636 0
-2180 -708 0
227 888 0
-1247 3719 0
1810 1438 0
467 -2162 0
941 2242 0
1206 695 0
1008 3186 0
2127 4523 0
1280 -4374 0
-3026 -352 0
2054 -4134 0
3118 2231 0
-4572 -438 0
-1776 -3751 0
-3440 -1692 0
145 272 0
-2223 1977 0
-2002 -982 0
-2473 -2749 0
1740 -3541 0
3493 119 0
2790 1670 0
-2735 -4251 0
-4634 -3571 0
-1661 2080 0
692 2864 0
-444 201 0
843 -727 0
3834 -949 0
-4480 170 0
-516 3213 0
-3114 4121 0
2179 -4515 0
-1052 4254 0
-2162 3882 0
3949 -1053 0
-1407 -4738 0
2074 4222 0
-2526 -3687 0
885 1519 0
3559 1562 0
-2355 2194 0
2535 4635 0
256 -3714 0
-3527 -3034 0
-2199 4056 0
4567 -2719 0
-3312 3320 0
-1801 -1980 0
911 -3011 0
-582 -3218 0
92 1029 0
3669 2871 0
1746 3140 0
3283 -3839 0
-1891 -4661 0
28 4612 0
4235 4431 0
-1491 400 0
-571 2741 0
4456 -1158 0
-2398 1502 0
-4194 4440 0
-3066 1024 0
-2015 3288 0
-352 3169 0
2225 -2592 0
-3017 1872 0
-3075 -2648 0
-3900 726 0
-184 3922 0
2039 -4508 0
-1769 -1073 0
-4460 -425 0
4418 -1881 0
1661 4680 0
4026 2634 0
-421 1612 0
9 -1485 0
4549 483 0
3041 -2888 0
105 994 0
-4303 -3946 0
-4463 2044 0
2440 1948 0
3025 -4698 0
-3354 186 0
1444 -4210 0
-2073 -2306 0
-1854 4532 0
-2735 -3585 0
-1150 -2788 0
4323 57 0
-1990 2921 0
-3325 -2769 0
-716 -3060 0
-1215 -2156 0
904 165 0
1590 -4387 0
-1008 1773 0
-2858 3649 0
1767 2442 0
2459 -3684 0
1341 -4424 0
-3029 4616 0
3177 3340 0
275 -3348 0
-1659 4016 0
-2831 1192 0
2840 -1595 0
3683 -1268 0
-1411 907 0
-1272 4267 0
2175 -2970 0
4724 2315 0
2531 3135 0
2041 -2942 0
-2739 4259 0
-1054 2497 0
1869 -58 0
-3851 2625 0
-3645 4043 0
-2432 1827 0
3471 3828 0
4146 408 0
1714 3865 0
-4128 -2560 0
3138 -368 0
-4489 -3617 0
-2928 -1019 0
-1474 -1511 0
-2114 -1287 0
3625 -698 0
-1149 -4015 0
2399 -3588 0
1249 -4306 0
4334 -1535 0
-358 2753 0
-1892 -3254 0
-283 -4075 0
2583 -3046 0
-614 -1364 0
3439 4628 0
-225 -2897 0
-2846 4383 0
3124 -1307 0
-732 -4722 0
642 2718 0
-1406 -4348 0
4228 291 0
-349 4559 0
4363 -961 0
1878 -1333 0
228 -2795 0
2709 952 0
-1817 2666 0
3101 4645 0
1520 2254 0
-3617 3522 0
-3071 432 0
-4565 3593 0
-4201 -4230 0
1290 -3301 0
-3022 -1854 0
-1318 3282 0
2050 -4522 0
743 3578 0
-1300 -2992 0
1280 -4441 0
1888 -3420 0
1280 3836 0
214 1278 0
1814 -3062 0
-755 -3168 0
-1812 2754 0
2613 2618 0
-2919 71 0
249 -1070 0
4482 4019 0
2780 2953 0
-4445 4150 0
983 1138 0
-3144 -838 0
-1856 -219 0
977 -2516 0
1442 1910 0
124 -2215 0
-4173 -4192 0
-72 -4235 0
-785 -2927 0
-1982 -2635 0
-3890 1778 0
2074 2597 0
2170 2700 0
-4065 -2926 0
444 3413 0
2888 -2093 0
1324 -385 0
4219 3360 0
3813 -4517 0
1803 3515 0
-1180 1141 0
-1359 760 0
3162 4149 0
-2762 4626 0
345 -229 0
-3444 -4679 0
542 -2538 0
-2013 -3710 0
3946 4381 0
-3809 -4679 0
-2422 -3769 0
2048 1942 0
864 1550 0
-4090 -4732 0
-3731 -2817 0
-3998 -1680 0
3108 3896 0
-3651 1667 0
2243 -4680 0
2696 2387 0
-2993 -3465 0
4240 4130 0
-3877 -1202 0
-4519 803 0
-2005 -151 0
-4071 -1928 0
-4471 4090 0
1970 111 0
-3473 -2302 0
4270 2344 0
-3565 -746 0
-4414 -4189 0
-2824 -4565 0
3294 1655 0
2165 -574 0
1650 3765 0
1878 1118 0
-3694 4573 0
1619 -2807 0
-2118 232 0
-2212 3499 0
-1022 3163 0
-445 -3950 0
963 -1630 0
-184 3565 0
-2450 -4238 0
-3567 4396 0
1987 4461 0
-1844 -4023 0
1732 716 0
1126 163 0
-463 2063 0
-4650 -3486 0
-2045 -4296 0
1631 3981 0
4482 -3182 0
10 -1278 0
4053 3723 0
2965 2810 0
-4179 2032 0
-4150 -572 0
-4127 -3106 0
-3841 1813 0
4533 3192 0
-1595 2175 0
2375 -3738 0
452 4324 0
2808 1229 0
-34 -2680 0
4254 -558 0
1709 2659 0
-2626 -3006 0
1915 1570 0
-3868 3352 0
220 3751 0
1323 -630 0
-4578 3896 0
-425 -468 0
-851 -4314 0
4626 2441 0
4327 -4 0
-329 2961 0
525 -4621 0
-334 2025 0
-3327 -154 0
-4234 -4558 0
83 -1451 0
-4611 -3142 0
-151 -520 0
-2914 405 0
2885 -3311 0
-657 291 0
1694 2556 0
3125 -3613 0
3198 -4612 0
3542 -1466 0
2418 -965 0
4530 4626 0
-3239 -3743 0
-3549 2961 0
1285 -1432 0
2878 -892 0
913 -1843 0
4343 3045 0
-1867 -2367 0
-554 1292 0
-2319 -2069 0
-3523 -2581 0
-3771 -4298 0
860 -2916 0
-3958 -4482 0
-3530 -1514 0
868 -2343 0
-2967 -3180 0
2628 2276 0
-292 -3492 0
-1330 1121 0
-1332 -1461 0
-3549 1618 0
-3117 -1389 0
4383 458 0
-1294 -4358 0
4744 2240 0
3363 1714 0
-3980 -2500 0
1740 3460 0
-4699 -3194 0
457 -280 0
-3425 4094 0
4219 2420 0
-2324 -2250 0
3313 1337 0
4527 3546 0
2089 2986 0
1022 1994 0
-1523 2159 0
-700 -2121 0
-1609 -1632 0
821 1436 0
4405 4465 0
2742 -3147 0
-788 -2698 0
-3392 4268 0
3761 2348 0
885 4657 0
-660 -3345 0
864 -1988 0
3795 -2072 0
837 -4236 0
1838 -209 0
4626 4370 0
2988 1771 0
-1309 -337 0
-221 1693 0
2491 -1833 0
3929 -1932 0
-3783 3875 0
-1749 3428 0
2818 -659 0
-3072 1847 0
1457 -2912 0
1438 397 0
266 2293 0
-679 2838 0
654 1449 0
-4489 4550 0
1835 519 0
-3543 -3831 0
2479 2485 0
-3144 -3527 0
-3731 -1527 0
3554 -2515 0
3251 918 0
-1924 3931 0
267 -2924 0
-2336 2222 0
-4159 -2858 0
3021 533 0
-1356 -3458 0
-4672 594 0
3066 -406 0
-1271 -3254 0
-1987 -40 0
2411 1231 0
-1941 -2058 0
2906 -787 0
-3270 -133 0
-4577 3516 0
-4559 -1905 0
3056 -2501 0
-2420 935 0
1691 -2124 0
2037 1576 0
2756 -1676 0
-1627 106 0
4002 2186 0
4165 -3411 0
-1997 -3475 0
-1001 21 0
-1542 1021 0
3999 -145 0
3382 -4413 0
66 3220 0
3956 -3268 0
-2677 -2675 0
-3588 2519 0
-1736 3973 0
-1561 3538 0
-555 2229 0
-3379 876 0
4370 1627 0
2762 -4156 0
-4182 2438 0
4171 -3771 0
-3033 2156 0
-3740 186 0
3775 138 0
-1176 -3013 0
-1569 2766 0
-2427 -3374 0
-624 1643 0
872 -3316 0
1931 -2415 0
3062 -4209 0
1811 -1092 0
-356 4084 0
1038 -4199 0
1213 2910 0
1689 611 0
-3635 2933 0
752 3701 0
93 1192 0
266 403 0
4415 -3955 0
-1471 -3066 0
-2659 -4666 0
1676 1888 0
4547 -3582 0
-87 3682 0
-2049 1250 0
-3509 -3636 0
-1415 1352 0
21 639 0
1748 -2911 0
-2253 817 0
-3036 3124 0
4521 -2503 0
3601 -2487 0
3397 -1619 0
-2781 1196 0
-1508 4201 0
-1843 2793 0
391 -1844 0
-3227 4552 0
-696 -1864 0
3173 1528 0
-1507 -1558 0
-1092 -1036 0
2376 -1918 0
2625 -2669 0
4277 -2113 0
1436 -2623 0
-2407 2918 0
-2271 -1148 0
1959 -1214 0
4253 -3246 0
-4748 703 0
1830 -2263 0
-721 3491 0
1697 2068 0
-1175 1461 0
-493 635 0
110 2229 0
2568 4141 0
-3837 4054 0
-294 -4661 0
518 1260 0
1277 3548 0
-2082 3098 0
-2286 3171 0
-2105 -1172 0
2892 -369 0
-3458 3956 0
-1949 2094 0
2983 -1466 0
2266 -3752 0
-939 4250 0
4329 2104 0
1496 3352 0
-2841 -2031 0
-1896 3732 0
1931 -104 0
3963 -1883 0
2805 -4519 0
-1123 4345 0
2917 2536 0
-101 -133 0
-2110 -1639 0
-3745 -4224 0
-4502 -3478 0
-3608 -320 0
1029 -3846 0
-2202 -2174 0
-556 -824 0
3304 2761 0
2319 -784 0
2065 682 0
2403 -3346 0
-2796 -1459 0
379 1587 0
3553 -3484 0
917 -2890 0
521 2241 0
2275 1785 0
-975 -2999 0
-2675 20 0
59 -2833 0
-3378 -3641 0
-3914 -608 0
-95 -162 0
-4350 3262 0
1894 -550 0
949 2212 0
-2955 -27 0
300 -1240 0
4103 -4434 0
3621 2666 0
-4199 4485 0
-448 -650 0
88 -1642 0
4401 4142 0
3971 -3777 0
2606 364 0
-50 -2566 0
715 -3993 0
4561 1046 0
3475 551 0
-3231 -3105 0
2699 4668 0
665 4504 0
-204 2251 0
-1333 487 0
-707 -2259 0
948 4642 0
2132 1666 0
-1943 3756 0
495 708 0
2944 573 0
-4477 -3192 0
2368 3584 0
2367 -1457 0
-4371 719 0
116 -2193 0
-226 2672 0
-780 -2696 0
-2210 -3354 0
-2279 -851 0
-1629 4423 0
4144 3488 0
1751 670 0
4330 3187 0
-3402 -2286 0
-822 408 0
-523 -1455 0
3999 3911 0
3516 -3493 0
2692 -2025 0
3514 -3386 0
-135 2023 0
4702 2971 0
3310 -1357 0
-2717 -3191 0
-985 -1545 0
4077 1154 0
-1965 4026 0
485 3768 0
-827 -760 0
-2848 4198 0
2950 4753 0
4336 3557 0
4659 3324 0
-4573 1768 0
-1557 -3634 0
2808 -3052 0
-2628 -2113 0
-4745 385 0
1961 -2953 0
-1112 3814 0
-1036 -3287 0
2161 4087 0
-1829 -3827 0
-3418 -424 0
-1648 -4221 0
-2058 -320 0
-1221 -340 0
881 -3483 0
-2823 1940 0
-274 -2622 0
-2393 870 0
3898 3799 0
1982 610 0
-2149 1534 0
1697 -3310 0
653 -4329 0
-2281 -3043 0
690 -1885 0
2159 1925 0
-2766 -4063 0
-908 -3016 0
-1090 2507 0
-1788 -271 0
-1655 -2103 0
1241 1018 0
273 241 0
-2871 4337 0
-2047 4616 0
2120 -2479 0
-43 -2224 0
3983 3626 0
-2154 1970 0
-1626 -2028 0
-2315 -2690 0
-3373 -1823 0
1343 -2783 0
850 53 0
-4204 1863 0
2203 2505 0
-4379 229 0
-773 3775 0
3620 4435 0
85 -2215 0
-3640 -3517 0
-734 -3542 0
930 1999 0
-2789 -4481 0
-4584 313 0
840 4081 0
4701 -1255 0
5 -92 0
1957 -3010 0
-2320 992 0
1970 3249 0
1323 3672 0
2778 3753 0
2321 -413 0
2909 -2617 0
3197 -2130 0
708 4252 0
1877 -1905 0
-2736 1783 0
2927 1449 0
561 -2667 0
80 -286 0
-1881 3802 0
4513 -2614 0
2310 -4236 0
-2180 3385 0
-589 -3598 0
1086 -210 0
1826 -4015 0
-4597 -3992 0
2741 53 0
24 2536 0
1725 728 0
-685 -4587 0
-2571 -3349 0
-2568 1770 0
-3411 -4201 0
4347 1320 0
-680 -1872 0
-3615 4738 0
2754 -4328 0
-386 -351 0
93 2502 0
-1727 2724 0
4162 135 0
-2719 90 0
3805 -3087 0
-760 2516 0
3070 1357 0
-1599 -1069 0
-165 -1298 0
249 -672 0
852 2125 0
3307 -1582 0
3992 -3927 0
1462 -3375 0
4691 605 0
2125 3082 0
-154 -3237 0
-630 -3478 0
3999 -2757 0
386 783 0
-3978 2418 0
799 -1718 0
-3616 -2006 0
-1102 3560 0
1825 1404 0
-2827 345 0
2917 -3800 0
-785 -3615 0
-3314 206 0
4309 -434 0
-3559 -2029 0
3609 -3713 0
1430 -3613 0
-4166 2516 0
-826 3990 0
7 387 0
-2905 -813 0
-531 -1195 0
-866 2420 0
2176 1344 0
388 2770 0
-298 3303 0
-2713 2558 0
-2844 -3224 0
2927 2242 0
2888 1681 0
-2898 -46 0
594 -1594 0
-2217 1083 0
3264 1104 0
3001 401 0
-505 379 0
1100 533 0
4251 -3529 0
4338 1907 0
-2601 -3562 0
3637 1042 0
-4035 -1104 0
4598 -1993 0
4469 -3987 0
-4685 1745 0
-2471 -3317 0
320 -1657 0
-775 -792 0
2894 909 0
-2137 2976 0
2179 2815 0
-4679 -138 0
2119 4416 0
-3697 -3050 0
1724 764 0
-3671 4207 0
443 242 0
216 -1217 0
704 3994 0
1080 -1701 0
1673 534 0
-2515 -3842 0
2383 -2104 0
4539 -3043 0
-1853 -1218 0
900 -2619 0
-915 -148 0
4330 -1373 0
-2288 3901 0
1224 653 0
1190 431 0
-2385 -1223 0
2372 3650 0
4211 -4427 0
4088 2549 0
-4412 2266 0
4435 -3231 0
-1074 -727 0
-2528 -3167 0
1836 2515 0
-443 2999 0
-4570 2348 0
4390 1856 0
-64 -2353 0
4454 -1195 0
-1163 -3917 0
264 4424 0
-4505 4065 0
1064 -4280 0
-678 81 0
4540 -1290 0
1580 -2846 0
619 -1788 0
2309 -2978 0
3708 -4535 0
607 -2628 0
965 4196 0
-1085 -1898 0
964 -1044 0
2738 3219 0
-4464 1456 0
-40 2033 0
-1890 524 0
-4333 -3386 0
-1934 4490 0
2754 -642 0
3377 -2899 0
-2439 2930 0
-3700 2012 0
-1963 2432 0
4527 2185 0
-4115 2116 0
743 479 0
-1074 -3477 0
-3606 -1610 0
4382 -1182 0
2902 3958 0
1897 3089 0
4251 -2732 0
2840 -476 0
-3411 -3264 0
63 -3036 0
-1967 -2360 0
-1455 4598 0
4146 2647 0
1466 3038 0
-1601 -1784 0
-74 103 0
4137 -1079 0
321 2706 0
-101 -2779 0
4047 2556 0
947 1557 0
-1820 -3382 0
694 -2191 0
244 4407 0
-1263 1534 0
-1656 -2401 0
-4753 -935 0
-2022 538 0
1680 -3207 0
3079 1734 0
-4318 2156 0
-1147 1494 0
3700 -1842 0
-1844 2079 0
1669 -1345 0
-1420 -4256 0
-1521 -4381 0
3147 -4740 0
1054 -4574 0
68 -997 0
1194 93 0
-398 -3553 0
-3187 4411 0
-1121 -957 0
3032 -3868 0
-580 2112 0
656 -982 0
4411 4721 0
321 81 0
3246 4450 0
4595 1361 0
1541 -218 0
-2791 -2580 0
496 1138 0
598 -2032 0
2738 2695 0
-3135 -1208 0
-2123 -4501 0
4479 2636 0
-4715 2107 0
1837 -2633 0
2474 3962 0
-2058 3275 0
-2786 1337 0
4391 4332 0
-4119 -3087 0
3151 4620 0
4637 3140 0
-3282 -1527 0
-3263 -1451 0
-1208 -3605 0
1764 4244 0
-2677 -1061 0
-2109 3476 0
-3860 -1824 0
4154 -3439 0
1263 -3455 0
-4007 2145 0
3329 720 0
2298 -2132 0
3768 3474 0
3909 -3136 0
1241 -444 0
-3597 -4720 0
3773 -2480 0
1344 3668 0
2024 -3135 0
94 -4640 0
-2013 832 0
587 -19 0
3973 686 0
3115 -3005 0
4649 -3272 0
3570 1959 0
-4522 2198 0
-148 -3452 0
4699 -1342 0
2769 -1903 0
3127 4584 0
1064 4043 0
456 1265 0
326 4519 0
2552 -4431 0
2115 3941 0
-4741 4137 0
484 2678 0
-2738 1392 0
-1840 -1547 0
2530 258 0
2341 3923 0
3060 881 0
-3807 -4396 0
3370 4278 0
-3801 712 0
4037 -4206 0
2068 -743 0
-4269 974 0
-4429 981 0
-2689 4089 0
-1008 -2520 0
-2712 1207 0
4673 2480 0
4228 -3478 0
186 4403 0
388 -3214 0
1227 1070 0
1572 4191 0
-1651 -3562 0
1596 -729 0
2010 -1719 0
-2681 -3558 0
-4704 -2916 0
1153 -1736 0
4631 -771 0
4617 -1813 0
1230 -1004 0
401 4584 0
-4316 399 0
3467 1848 0
-3237 -87 0
-4101 -4318 0
4062 1099 0
-3337 1562 0
4457 3776 0
-4144 2873 0
-672 2552 0
3262 771 0
1371 -2987 0
-1957 -469 0
-3386 3793 0
1 -1468 0
579 -3175 0
2946 -4051 0
-3207 4641 0
1800 2423 0
-4151 -2561 0
3674 -744 0
-3858 4042 0
2666 -634 0
2814 3749 0
9 -210 0
-3212 -727 0
-3122 -2555 0
-3392 1946 0
3065 -2743 0
-2802 -4592 0
-1352 1689 0
327 1359 0
-3477 4513 0
1737 3294 0
-2002 2956 0
4742 4160 0
1904 -3394 0
2882 -4477 0
110 -2389 0
4333 -652 0
315 3252 0
3418 -2405 0
663 -4570 0
757 -1220 0
-2849 -4588 0
4235 3749 0
2844 823 0
-2227 705 0
4250 -2642 0
4521 -4704 0
139 4044 0
-3461 944 0
1975 3321 0
-1174 -2792 0
-746 4704 0
-1125 -4543 0
386 -1380 0
-4013 3771 0
280 4440 0
742 -4413 0
-801 -1097 0
-1195 4056 0
-1384 -4604 0
-2336 973 0
109 1493 0
-3952 905 0
54 4704 0
2960 -688 0
1966 1232 0
-556 -4063 0
3435 -1481 0
2232 4223 0
-2218 446 0
-732 -3013 0
-2629 -1425 0
3 -1400 0
-3089 860 0
-4270 -1539 0
2950 -734 0
-3098 -4593 0
4589 2389 0
-381 -3267 0
-3900 840 0
-4670 1080 0
-2008 -2299 0
-970 2113 0
4036 645 0
-3887 -2069 0
-3243 -546 0
3994 1966 0
-1796 2018 0
2333 -2334 0
-2136 -3429 0
445 -3940 0
-1990 428 0
2961 -1498 0
-689 3206 0
-1216 2867 0
-2631 -2435 0
-3992 -2795 0
4350 4601 0
-815 -2735 0
4627 -3847 0
2901 1505 0
-4333 1023 0
1975 4319 0
3098 -2464 0
4102 4273 0
3830 -2136 0
3480 -1401 0
4603 -698 0
2763 3496 0
3577 -3756 0
4511 -1057 0
-3046 -4529 0
-4471 2518 0
-3547 -3040 0
2700 1588 0
3028 -3143 0
-3364 -3109 0
-4506 3137 0
-1401 759 0
1356 460 0
-1560 43 0
-1558 -2678 0
-3303 1302 0
-2688 291 0
1828 -1867 0
-3321 2213 0
906 -3608 0
-430 1258 0
-3681 -190 0
-3825 -4177 0
3782 -510 0
-2879 4037 0
-2196 -1971 0
2573 -3966 0
4544 -3725 0
-3975 -2547 0
848 644 0
-1134 -723 0
-1853 2111 0
502 -510 0
637 -3976 0
3095 -809 0
2633 431 0
-883 -2513 0
-238 2716 0
1614 2224 0
-1096 -1419 0
-2172 1398 0
54 1386 0
-3237 1302 0
-3007 -3961 0
-888 -2297 0
-4380 -1553 0
-2028 -3129 0
4370 -1711 0
-963 -1663 0
-2407 -2424 0
1527 -806 0
4076 -3722 0
-1423 -3514 0
-1335 -4563 0
-3533 -3744 0
-529 -4093 0
2391 -191 0
-4127 1496 0
845 3716 0
4232 656 0
-2956 -3206 0
-4659 1581 0
-1383 -2807 0
2909 2942 0
-2595 -4568 0
922 -721 0
3603 -2307 0
3105 -917 0
2710 -2491 0
-581 2295 0
3257 3650 0
-4734 -2635 0
-3879 437 0
-1279 -3576 0
-3605 -635 0
1724 -1982 0
342 4447 0
-4388 998 0
-1278 -2808 0
-3211 2768 0
2867 1526 0
2753 -4645 0
-2016 2904 0
-4233 -3657 0
2175 -4648 0
59 -2704 0
619 -4058 0
168 2492 0
1268 -760 0
-2126 3085 0
150 547 0
2498 2050 0
-4419 4076 0
1667 -447 0
812 -3257 0
-2120 3623 0
-3283 -2031 0
-3270 -756 0
-2418 3113 0
1066 1986 0
355 -3317 0
1810 1885 0
-775 -2793 0
-2583 -4139 0
-1348 1920 0
-755 4488 0
-175 -2614 0
4125 -3110 0
-734 -3094 0
-1407 3749 0
-2659 -837 0
2956 2857 0
-1312 3332 0
294 4491 0
-3302 -2740 0
-4731 4620 0
1132 -439 0
-4174 -4311 0
-2132 2865 0
-2912 2637 0
4380 1726 0
-809 -514 0
-2476 -2511 0
2001 -3789 0
-1672 1806 0
-2597 -1967 0
2916 -101 0
-4033 -3305 0
3521 3905 0
-4368 754 0
-2560 1137 0
-2602 3809 0
-3721 -2728 0
-3043 -2447 0
3974 -2112 0
-4600 4731 0
3769 -2898 0
3352 -2890 0
240 -1881 0
1377 -3302 0
2383 96 0
3994 558 0
1456 286 0
1621 -831 0
-3680 -3666 0
769 2851 0
4252 2910 0
-4061 -1303 0
-2686 2345 0
2370 3424 0
-2728 -905 0
688 3545 0
4352 -2698 0
241 -3994 0
-4301 -4325 0
-1927 -762 0
-1307 -2565 0
1599 -2578 0
-3730 -2073 0
3653 2873 0
1337 3754 0
1738 2455 0
-369 -1415 0
1725 1889 0
4145 -270 0
-1503 1509 0
-1072 4634 0
2 -101 0
2557 207 0
438 1140 0
3117 -263 0
4224 542 0
-2244 1140 0
3550 -1003 0
4737 4692 0
627 -4458 0
-4527 -2054 0
-4109 -3850 0
-4491 1956 0
738 -1979 0
1108 -540 0
-2058 -1116 0
2459 2515 0
-1361 1186 0
4434 -4019 0
-3754 -1505 0
-889 3039 0
-1715 4188 0
107 2147 0
-1464 -1781 0
4000 2537 0
-2251 1413 0
-2136 -2029 0
3052 794 0
-4416 -3274 0
-3967 -4745 0
-3359 -3323 0
382 -3733 0
445 -2194 0
-3493 -323 0
3474 -3642 0
-894 4332 0
-3321 2176 0
-2459 -4481 0
-76 3055 0
4035 -2702 0
4238 3984 0
-1117 -2287 0
3930 -19 0
-3878 2290 0
-3101 2969 0
926 -261 0
-4422 -843 0
1012 -1485 0
-4256 -610 0
-3159 1449 0
4112 -2286 0
2919 -4714 0
1170 1955 0
-4144 -2421 0
1255 3271 0
-1670 -1193 0
4551 4510 0
-1606 4676 0
2647 3173 0
2094 819 0
-1780 -1762 0
2354 4276 0
-277 2880 0
420 2973 0
-3312 2344 0
-2772 3826 0
-406 -2474 0
-1394 4450 0
-2853 3331 0
-3565 2706 0
204 -1552 0
-2301 -2561 0
216 -1193 0
3217 -2200 0
-497 3659 0
1330 1230 0
2141 3203 0
-1243 -1526 0
12 1777 0
-2631 4696 0
-1849 1274 0
2727 -1246 0
3591 -4306 0
-1012 -990 0
3908 2413 0
2103 2709 0
4256 986 0
-3327 -3463 0
3992 -2920 0
-2228 -1367 0
1559 -4624 0
-2620 2538 0
2476 -2412 0
-278 3705 0
908 -1789 0
-3208 -2007 0
341 2665 0
-2758 760 0
881 2678 0
1645 -2707 0
-199 -370 0
-3292 -4683 0
958 4150 0
1586 -3797 0
-3741 3508 0
1048 -1042 0
2261 2037 0
2638 1655 0
3500 3168 0
4076 -2992 0
-3094 4065 0
-3438 1593 0
-1110 1210 0
553 -1673 0
-3314 2836 0
1582 -4697 0
-2015 267 0
-4188 1869 0
4711 2727 0
-3025 -4483 0
650 -3394 0
-133 1242 0
-1670 3619 0
-1089 3166 0
-3707 -4361 0
-1584 4685 0
4675 -3514 0
-342 -826 0
-163 3524 0
-4597 2448 0
-2300 2536 0
-4126 4583 0
650 -4500 0
-2581 694 0
1968 4487 0
-1838 -217 0
4645 -2038 0
1067 -674 0
-2896 3793 0
2074 141 0
3043 3633 0
2382 19 0
1606 1751 0
1959 -2092 0
-1926 1984 0
-2541 -2005 0
-1044 3198 0
3476 -2728 0
776 -2008 0
1386 642 0
2310 2148 0
-325 -3608 0
-1521 -2291 0
1263 699 0
4034 3951 0
-2775 -1404 0
3081 -750 0
-1235 -1289 0
4484 546 0
3415 4305 0
2986 1812 0
2106 -4101 0
4487 1044 0
-3406 -1752 0
1164 1619 0
-17 718 0
2804 752 0
2699 -186 0
-461 -2725 0
4632 -3222 0
2999 -4661 0
-1953 139 0
-1006 -433 0
-3481 2961 0
1585 -2632 0
-3182 -1242 0
-2314 2146 0
-344 -3477 0
-2974 316 0
2753 -646 0
-1542 2366 0
-4351 1673 0
-3910 1098 0
3342 -3710 0
-4174 -2228 0
10 3062 0
2741 1857 0
3718 -3174 0
1157 3250 0
1440 -2491 0
2022 -1555 0
473 -418 0
3840 3778 0
3560 -1591 0
-2980 499 0
3613 1726 0
31 1545 0
-3964 -977 0
-2351 4565 0
595 -3542 0
-4509 -4306 0
1705 -1333 0
2306 -3050 0
-4026 2438 0
3734 -3911 0
132 -3416 0
1528 -2939 0
3601 -57 0
2812 757 0
-2228 -3016 0
3162 -1823 0
-928 548 0
3223 2958 0
2095 -559 0
-1454 -3018 0
1164 76 0
-3734 -126 0
667 -932 0
39 -564 0
-869 4441 0
-578 1406 0
1458 3425 0
3896 -1297 0
2406 -3556 0
3088 3218 0
595 3516 0
-2727 -456 0
-3818 1876 0
3334 2458 0
-452 1198 0
1117 -1822 0
-3015 -1505 0
-3099 -2722 0
2116 -4220 0
-1953 2838 0
645 -1373 0
3306 -4150 0
2083 -4551 0
-1489 2180 0
-2783 -2760 0
4640 1526 0
-1191 33 0
3443 1141 0
-3651 -4676 0
-1479 -2096 0
3017 -700 0
-696 3706 0
-3836 3644 0
743 1910 0
-4364 691 0
4227 -746 0
-3839 3857 0
-2907 -1318 0
1132 -3665 0
2217 -1679 0
341 1760 0
-2846 453 0
2004 -1063 0
-2629 -2895 0
-2678 4348 0
2761 2444 0
3 -2792 0
1422 4129 0
-3243 -2994 0
465 3277 0
3693 349 0
628 1970 0
-3291 -867 0
-1314 2378 0
1235 -4673 0
3349 -3006 0
-1675 4370 0
-4600 881 0
2726 -533 0
-2230 -3368 0
3563 -3675 0
-1508 2519 0
-1615 -1031 0
-4165 -3429 0
-138 1683 0
-2511 847 0
40 -3558 0
2876 2726 0
3975 420 0
-2440 -2594 0
-786 1869 0
4354 -3451 0
65 -1617 0
272 3311 0
-808 -2520 0
-342 -3273 0
-2437 -1667 0
-589 219 0
-1223 4439 0
2252 3013 0
-3454 4371 0
-2384 -2374 0
-1649 -1794 0
-1959 -1837 0
2639 -2970 0
1274 -176 0
4381 -3478 0
-3636 2962 0
-633 2930 0
-1702 3298 0
-3217 -2559 0
-2544 -444 0
3119 3623 0
-3897 -2827 0
3394 -3553 0
1910 2912 0
-651 -3024 0
4521 -3920 0
-886 1201 0
-2890 4311 0
-509 560 0
-4475 1445 0
-3206 -3534 0
-2435 4072 0
-1073 -2703 0
-123 -3222 0
3901 316 0
4125 1662 0
-3804 -111 0
-12 880 0
445 3937 0
-3489 -3725 0
-2847 -3522 0
2159 -3835 0
2977 -4247 0
-2783 -2838 0
-3540 3682 0
208 1456 0
1917 2889 0
709 549 0
-2245 -759 0
3890 4297 0
4688 340 0
4719 4699 0
-3947 2171 0
4712 -3059 0
-2879 -634 0
-3812 -3527 0
1898 -1334 0
4752 -4584 0
83 1012 0
-12 -1927 0
-295 -2290 0
3302 1310 0
-2395 52 0
-4408 -2785 0
-1220 -444 0
4524 1544 0
-2214 771 0
313 -709 0
4658 -767 0
2184 4077 0
-2752 2276 0
-1789 1634 0
-16 297 0
2819 -3624 0
3225 -2715 0
4123 3499 0
-4597 835 0
1619 -162 0
4340 -2512 0
-2013 -960 0
272 -3330 0
-2680 -2262 0
-3075 -3299 0
-445 764 0
-750 -3029 0
765 3743 0
4742 1109 0
-4466 -2227 0
3101 -1134 0
4432 -1052 0
-1465 -640 0
-2028 3649 0
658 -2042 0
4351 -3226 0
-4541 -4299 0
-3133 -836 0
3779 701 0
3931 -1609 0
499 -4206 0
-1209 -2408 0
-3622 -2877 0
785 -3280 0
-3456 -4615 0
3871 4244 0
89 -4555 0
3896 329 0
2431 -3625 0
4057 -1794 0
3560 -1766 0
2590 -1211 0
1021 2158 0
1812 -459 0
-3229 -3742 0
1856 -3293 0
4266 88 0
1137 4747 0
4168 4197 0
-1548 686 0
-463 1014 0
607 -4720 0
3530 3827 0
-2832 -4273 0
-377 2242 0
3441 2265 0
-461 -2401 0
4661 -4471 0
-1215 -3123 0
-2190 -2962 0
3517 -3934 0
-754 611 0
2845 -1584 0
-3349 149 0
4733 -48 0
3629 -2410 0
-2536 -4025 0
2295 -1222 0
1356 2362 0
3717 -7 0
4102 49 0
-1674 -4045 0
-1365 -488 0
1843 -2432 0
-3097 1234 0
644 -1488 0
193 3189 0
2425 2192 0
1516 3924 0
-4615 1071 0
-2266 -1624 0
-3126 552 0
2531 -2884 0
-2002 -2413 0
1451 -3867 0
1645 1406 0
-625 -471 0
-2393 -1545 0
497 119 0
2986 -3893 0
3693 -4406 0
170 -1203 0
-1120 4196 0
-1790 2928 0
-1711 -217 0
-2481 4335 0
3854 1277 0
-2080 1583 0
968 -4258 0
-3442 819 0
-3213 1940 0
-413 1380 0
-4531 -3688 0
1471 -1762 0
-1953 4591 0
-3867 -1412 0
-1801 494 0
386 4562 0
-484 -3023 0
-3283 -2926 0
4183 1149 0
2125 -163 0
-4081 2461 0
1256 403 0
-4247 -1835 0
2558 -1863 0
-3274 1651 0
-3174 -3241 0
-3516 2340 0
-2854 2614 0
1083 1386 0
346 -3493 0
-4729 3577 0
-4735 -3445 0
3205 4506 0
648 784 0
-3461 -3787 0
4396 -208 0
-596 1688 0
-1523 2385 0
4201 3462 0
1580 -3539 0
-2479 -4405 0
943 -1664 0
2220 -4371 0
957 -851 0
-2739 -4415 0
4622 3174 0
-1392 343 0
3526 43 0
1131 -2066 0
3465 -2060 0
-2214 -2911 0
-3189 405 0
2908 1305 0
-1381 -1808 0
-2996 -195 0
4008 859 0
1765 -1830 0
3845 -139 0
2233 3219 0
4743 1014 0
2444 -3189 0
3372 4356 0
-1680 -1364 0
3526 -4557 0
2622 -2992 0
253 -3774 0
3768 -121 0
-4383 3601 0
609 792 0
-2505 -589 0
-2889 -342 0
-3116 2147 0
-1722 29 0
3676 4677 0
4556 230 0
-63 -3368 0
1602 2806 0
1763 263 0
2124 -467 0
-3820 -1295 0
-615 -4654 0
3081 -983 0
2952 2744 0
-2796 3279 0
-324 4054 0
-1156 13 0
-650 497 0
4145 -2853 0
-4117 -347 0
3971 -2383 0
4715 606 0
1878 -1518 0
-4332 686 0
-2525 -425 0
973 -3269 0
-2788 -665 0
2797 -4221 0
-3694 1715 0
3183 -3148 0
-4017 3247 0
-460 4410 0
3578 -3376 0
4712 2422 0
-2442 3365 0
2459 -2584 0
1768 3668 0
-4114 626 0
1949 -3998 0
-724 2901 0
-3586 2195 0
-4559 3034 0
-4586 -2870 0
-994 1362 0
4101 636 0
159 -2548 0
-2982 -3447 0
-4607 -4321 0
3904 1200 0
3589 2261 0
1748 -2551 0
888 109 0
-3241 -3376 0
1876 -1648 0
3500 -4005 0
2251 -2992 0
-461 4676 0
-2838 -3567 0
-1860 -2702 0
-4027 -4346 0
3724 1010 0
-3533 518 0
-4582 3633 0
791 -4499 0
-1264 1967 0
3496 2678 0
-3280 680 0
7 2666 0
-760 -2178 0
1609 1928 0
3211 2974 0
-3905 3093 0
-4697 -1491 0
549 4755 0
-1226 3651 0
2452 2329 0
-3600 -183 0
-749 1124 0
1775 3041 0
-4648 -4022 0
-682 2608 0
522 3173 0
-1885 3982 0
-4646 -2314 0
-3850 -1166 0
2671 1643 0
-1685 -2569 0
-2496 1139 0
4746 -3350 0
258 -1806 0
-489 2650 0
1303 3653 0
-3769 1436 0
-2652 -2775 0
1445 2652 0
1785 -4466 0
4381 -3087 0
2359 -906 0
-583 -2237 0
-449 1005 0
1371 3029 0
-4511 -2303 0
3787 2892 0
-2738 -3190 0
2050 1902 0
-3525 4053 0
-1195 697 0
-1255 -2359 0
416 -2023 0
4076 311 0
-2096 -373 0
-293 3887 0
1450 -40 0
-4427 4323 0
2131 -3950 0
-2450 -2243 0
4363 2480 0
-1389 -2653 0
13 -3459 0
800 -4618 0
1408 179 0
-4256 -1543 0
-2860 1583 0
-63 1528 0
511 -1582 0
-2069 -219 0
-2043 2105 0
42 -882 0
3045 3797 0
-3525 2961 0
-4458 -4664 0
1012 -1511 0
-784 -3404 0
-469 2910 0
-2183 -4712 0
2811 3454 0
-2432 -2925 0
-561 -1015 0
1307 -1122 0
-1172 3823 0
1821 -311 0
-1579 3395 0
-1598 -3869 0
2944 874 0
1418 -2608 0
-3852 -42 0
-2854 -655 0
3354 -3014 0
4653 -493 0
-1307 -249 0
-4342 -2433 0
-2264 4644 0
261 548 0
1580 3400 0
4176 -2081 0
-1639 -1262 0
159 3185 0
291 4542 0
383 -1244 0
-4348 -1357 0
1858 3310 0
-568 -4469 0
341 1145 0
3648 -4090 0
540 -2133 0
4033 -1228 0
-4541 -975 0
3384 -1881 0
-4427 -1721 0
956 -3314 0
-3141 801 0
-2874 -2050 0
-1872 -4162 0
-733 -2060 0
-4471 -1685 0
-1605 -2014 0
-2882 -3021 0
-2522 2125 0
-1816 30 0
-4585 -2157 0
2616 -347 0
2959 4416 0
-4538 367 0
-664 321 0
-1263 1576 0
-2813 1007 0
2916 -1762 0
4124 -1327 0
3291 1830 0
-4234 -72 0
2706 4401 0
-3223 -2737 0
-733 -1429 0
4108 -3925 0
-1659 2216 0
-1251 4161 0
1966 -3520 0
2740 2040 0
391 3136 0
365 4661 0
3150 214 0
3765 -1183 0
3929 4487 0
-4424 3425 0
1774 -2712 0
921 2879 0
-3231 -3030 0
-3087 -3837 0
-2096 2478 0
452 4283 0
-1518 3970 0
-280 1424 0
2444 702 0
-165 4454 0
541 3166 0
-1862 -3520 0
-2503 -2350 0
-248 4095 0
166 -1420 0
519 -3565 0
-617 2313 0
-3880 -3873 0
2253 534 0
-1659 -107 0
-903 454 0
1175 -1777 0
-826 4357 0
1484 -2543 0
-4362 -1794 0
-933 -3926 0
141 2181 0
-2807 -3314 0
2309 -4151 0
-2550 3612 0
2359 -843 0
1980 -2929 0
-4256 -29 0
-1069 -1049 0
-1755 140 0
1082 -808 0
-4313 1125 0
-1852 -527 0
-1394 3300 0
-345 3443 0
-3468 3344 0
4553 796 0
2512 570 0
-3879 2786 0
973 392 0
-3194 515 0
-1397 245 0
-600 -2406 0
-2286 -3761 0
188 2580 0
-2855 -4611 0
-3772 -4210 0
-3854 -2734 0
-786 -1268 0
4514 899 0
2761 2250 0
2619 -2143 0
-729 -2882 0
1292 1687 0
465 -2603 0
1276 -3310 0
4170 2040 0
2627 3710 0
2600 1369 0
2670 2238 0
1030 3429 0
3312 -325 0
-371 -3618 0
961 -1612 0
3885 -3525 0
-4319 1994 0
4475 3127 0
3213 2950 0
-4321 1370 0
-1586 3110 0
1768 -2154 0
-4529 245 0
-2865 579 0
543 -2794 0
1756 -4103 0
-3957 -3382 0
149 -1672 0
4532 -1706 0
-269 841 0
-596 4589 0
-1757 -1861 0
2269 -711 0
-2850 3616 0
-365 4009 0
1502 -2843 0
245 -3344 0
-4399 -2980 0
1449 -545 0
-2652 626 0
-3256 1256 0
-4446 1482 0
-2140 1796 0
-1531 -1663 0
-3582 -2236 0
4639 -2939 0
-4533 96 0
-1706 -637 0
-2513 -499 0
-4421 -3205 0
1526 -3814 0
4040 -1074 0
3104 -2581 0
-4421 -4501 0
-4292 -2703 0
-4190 -679 0
695 -3770 0
-4581 2064 0
2619 -278 0
-3630 3637 0
-4119 -1548 0
3105 -4095 0
2311 -2853 0
143 733 0
1887 -4677 0
3744 -3338 0
-1702 2082 0
3076 36 0
-1710 -1585 0
-3427 927 0
3158 1123 0
-4493 4183 0
-2286 3036 0
-4269 2780 0
3311 -128 0
709 4603 0
1310 2798 0
3124 546 0
-3246 1891 0
-3132 -1429 0
-3172 -1763 0
-1652 -3239 0
-3980 -285 0
-3050 -4686 0
-4112 1456 0
-2860 3521 0
-3567 -2470 0
580 2111 0
4488 -493 0
3410 3399 0
-1229 -3187 0
3361 2239 0
-383 -3917 0
-4350 -1885 0
3437 3134 0
425 -746 0
298 1327 0
2894 -1415 0
3326 1773 0
2678 -3137 0
3320 -1271 0
-3369 3823 0
999 2789 0
1167 -2220 0
-2627 -2259 0
2513 -1827 0
2928 2596 0
1123 -2169 0
1590 3512 0
-2977 4151 0
2461 -1202 0
2762 157 0
2542 -4439 0
-4284 -3973 0
-4744 -1445 0
-894 1810 0
610 10 0
-2526 -1664 0
2316 -2143 0
4250 672 0
951 -2955 0
4223 1392 0
173 2111 0
2538 3866 0
1276 1765 0
-3722 3672 0
-3328 3574 0
1296 -4174 0
-4177 -1790 0
1586 -1601 0
2549 2422 0
519 -2565 0
-394 2413 0
-2701 -63 0
-3082 -3615 0
2428 -1668 0
-4656 -2126 0
-1306 -4636 0
1843 1337 0
-4572 3040 0
-91 723 0
-4119 -4617 0
-749 -3744 0
-18 575 0
-1288 -820 0
-4464 4252 0
3806 747 0
-1442 -2898 0
4086 1603 0
-3133 1089 0
-889 -4212 0
-1343 -545 0
-2576 -2585 0
4479 2004 0
1333 -2388 0
3526 202 0
-337 -1781 0
1288 1161 0
1323 202 0
-1240 1618 0
-4750 102 0
-2889 -3895 0
3567 874 0
-2319 685 0
1505 1552 0
-1341 -949 0
-3337 1220 0
-2388 -2683 0
-3464 -467 0
2922 652 0
-3731 -2143 0
-3150 -1804 0
1109 2900 0
4361 4366 0
-21 -312 0
4676 4461 0
1405 1325 0
-2619 4009 0
-4652 -1754 0
2165 -698 0
-3424 3903 0
-2314 -2132 0
4098 3796 0
-362 -1517 0
-3412 -99 0
4017 1698 0
667 -635 0
-826 2158 0
-4315 1021 0
2572 -1351 0
-4593 -3890 0
-2566 -952 0
-2040 -2920 0
-1005 2893 0
4577 -3669 0
1042 4376 0
2106 -3753 0
2935 858 0
1536 -3634 0
1592 4479 0
3598 -2477 0
-3309 -785 0
-1139 3689 0
-1567 3329 0
2853 477 0
-1287 -4592 0
-3256 2490 0
1975 -4424 0
2208 -1703 0
4476 2752 0
-3339 3996 0
-347 -1909 0
4125 3151 0
229 1627 0
4391 2830 0
4396 972 0
-3184 -2758 0
1526 2741 0
1805 -3707 0
3378 1416 0
1937 -527 0
-3998 4658 0
2034 -4575 0
4376 -1992 0
-626 2331 0
-4259 3605 0
-2921 -4672 0
2055 3545 0
3492 -724 0
-4589 -169 0
4423 2664 0
1944 482 0
-3490 -1347 0
2731 3946 0
-1046 54 0
2679 866 0
-3379 329 0
-2604 -4719 0
-3164 4627 0
2179 -4250 0
3546 -2050 0
627 -1446 0
300 2456 0
606 1939 0
-4694 -4182 0
-3581 -3038 0
1424 2571 0
-4202 2959 0
-1494 -2919 0
3625 684 0
-1736 -4631 0
1379 3855 0
-2640 2870 0
-3712 4072 0
3613 -4234 0
1629 -2302 0
682 -2453 0
506 2420 0
1449 -1829 0
4658 -1214 0
3304 2309 0
-1997 -4344 0
2792 2068 0
2333 3515 0
-4307 -3414 0
-1220 -716 0
-504 -2386 0
4263 1757 0
1642 2565 0
-483 -2086 0
-2889 4677 0
3699 1190 0
-664 -75 0
-1161 4100 0
3919 3668 0
3373 -4047 0
633 1675 0
-2402 -3905 0
1211 3904 0
1005 -3283 0
-1729 -3752 0
792 3590 0
3771 -2577 0
1831 800 0
1693 2107 0
-3712 -700 0
1125 -1258 0
-1393 -3562 0
3304 -3584 0
1216 4552 0
3498 -2405 0
4512 -1286 0
4730 2108 0
-3694 -1425 0
-4716 -4744 0
3963 3070 0
-3043 -4380 0
4302 1361 0
-3394 2390 0
-2470 2754 0
3095 -1794 0
1917 4293 0
87 516 0
2272 3775 0
3512 3232 0
2416 4173 0
2993 -4573 0
1458 96 0
399 -449 0
-4501 1159 0
-3850 -4158 0
-4389 -1275 0
2288 1025 0
3314 1694 0
-2661 -1531 0
-3856 -4466 0
587 -2833 0
742 4366 0
-1857 -3755 0
1389 -568 0
-3022 -1119 0
-4289 2671 0
436 -323 0
4132 1611 0
-2228 -3144 0
-4173 -2453 0
4428 -84 0
-2519 2053 0
4400 -625 0
4654 482 0
977 -199 0
-825 3626 0
-4455 -2975 0
3590 2872 0
1343 -1144 0
2592 -4686 0
3968 -4242 0
-2348 1458 0
-1755 -1001 0
-2477 -1181 0
-2929 799 0
-3750 -4523 0
-1191 3674 0
-2441 1695 0
3796 3711 0
-3281 2523 0
3947 2211 0
-3489 -3031 0
-1795 225 0
-3638 613 0
-819 -3101 0
-3411 3264 0
-3831 -3459 0
-3874 947 0
1041 -3024 0
2868 -1861 0
-297 3147 0
1162 2518 0
2152 3002 0
-2130 2886 0
-1434 1891 0
-4397 -3812 0
-2049 1613 0
-4735 -657 0
-4686 372 0
1460 3057 0
3872 3995 0
445 3335 0
1624 3539 0
1361 -206 0
570 -312 0
2005 3599 0
-3250 324 0
1414 -3964 0
2339 -3821 0
4513 2071 0
3966 -4184 0
2760 -2698 0
2879 -1767 0
-3570 4310 0
2799 798 0
1135 1205 0
-1285 2245 0
-3361 -851 0
-2835 -2355 0
6 2866 0
-696 -3748 0
2971 4440 0
-2536 -247 0
-4532 -778 0
3830 2261 0
-17 4531 0
885 40 0
-4495 1267 0
-1509 4103 0
4524 -1282 0
-2866 3246 0
-47 935 0
-2413 -1665 0
2165 2674 0
-230 -3335 0
-2089 2066 0
-1203 -480 0
-1439 -432 0
765 4193 0
-1511 -407 0
3189 -47 0
4287 -3820 0
3516 116 0
2783 -4389 0
-220 1870 0
485 2425 0
1737 4326 0
-1881 2344 0
-3139 3085 0
-4329 -3435 0
-1122 -3182 0
2425 1723 0
-2719 2381 0
-771 -297 0
1200 1597 0
146 -2263 0
2886 -2369 0
-2526 2694 0
-2740 -969 0
-2782 1994 0
135 3826 0
4595 1737 0
-1742 -2299 0
2216 -899 0
-2131 -3766 0
-3330 -4174 0
751 3440 0
-1482 4547 0
-3267 2790 0
439 2346 0
-1518 -823 0
1017 1827 0
4128 -3595 0
-3969 -2479 0
-4296 -3184 0
1788 274 0
-3075 4202 0
-512 763 0
2824 -834 0
598 4571 0
-1229 -209 0
-3582 709 0
3043 -828 0
2792 2120 0
-1369 -4486 0
324 -1000 0
404 3257 0
-73 -895 0
952 -1464 0
-317 -4346 0
-1790 -4132 0
1379 -1542 0
-2993 685 0
-1284 -2774 0
3194 -4021 0
348 -943 0
-1879 -1107 0
-3533 3838 0
-2055 -3143 0
-3398 873 0
3825 197 0
1302 314 0
-3191 -1513 0
-4025 -1052 0
1887 -1372 0
-3625 1413 0
-349 3263 0
321 -156 0
-25 2084 0
-1732 1929 0
-2793 3477 0
-3212 3785 0
159 -2260 0
-1589 -3217 0
570 1473 0
-1804 1738 0
-3903 -233 0
4471 298 0
-2871 2142 0
2637 1344 0
3997 3906 0
-3384 -3245 0
4452 4392 0
-4744 3599 0
2640 3705 0
-4476 2563 0
4036 -3836 0
171 3566 0
3723 -508 0
-2476 -1036 0
64 -3217 0
690 212 0
2125 14 0
-2302 -2123 0
3782 695 0
2637 870 0
4588 -1184 0
4219 -4332 0
1470 -4500 0
4329 2584 0
-2516 -3824 0
3049 -2093 0
-2758 1048 0
638 606 0
4188 -1104 0
-3621 -3007 0
2523 -1015 0
1007 -2706 0
2974 330 0
-1147 -1055 0
3506 -1701 0
2916 3559 0
-1618 -4647 0
2067 4583 0
2281 4351 0
-4304 -1459 0
3397 -1437 0
4301 1841 0
-2847 465 0
864 -4325 0
1076 -2058 0
76 2265 0
742 -558 0
-2942 1630 0
-2257 3965 0
-456 -3540 0
-4560 -3918 0
-3883 2780 0
4685 1930 0
-914 -2832 0
-1256 4358 0
900 4521 0
1699 -2170 0
4028 -1374 0
4634 2600 0
1750 1644 0
-4424 -2640 0
-1708 2991 0
-3797 -2682 0
-1069 -183 0
3973 -3288 0
3639 1195 0
-2272 1054 0
2425 1661 0
-1969 207 0
2168 -4295 0
1443 -3319 0
41 -1529 0
3756 -901 0
599 -1812 0
2683 207 0
232 -3984 0
1006 3644 0
-1985 -124 0
-3410 4620 0
-425 954 0
690 3623 0
1159 -4626 0
-4716 4569 0
-1289 2604 0
3353 -1345 0
930 -4199 0
728 4425 0
-793 -3169 0
-1850 -3394 0
2467 3283 0
-3695 607 0
302 -2121 0
-3355 703 0
-808 4071 0
-4047 2904 0
-3239 -2659 0
2151 810 0
4372 1532 0
-4581 -1369 0
1544 -3868 0
-3358 802 0
-436 -630 0
-988 1708 0
1839 551 0
937 4121 0
3257 -1874 0
-2791 -2005 0
-3541 1059 0
2194 -78 0
2600 -3984 0
-1724 -2639 0
3214 4177 0
3223 -1120 0
2345 2795 0
3601 -772 0
1441 -409 0
1717 2176 0
-1834 3400 0
-3182 -2062 0
2978 -3229 0
-350 3047 0
-2172 976 0
-905 -4025 0
4406 1333 0
3774 -4062 0
2465 -3961 0
1483 -1812 0
4728 -1749 0
2766 -2696 0
4310 3589 0
-351 4491 0
31 4512 0
-3382 -1881 0
-556 -1684 0
-4472 -4189 0
2122 -4239 0
849 -3643 0
-1620 2307 0
-358 -4208 0
-2949 3198 0
-4411 1746 0
-3886 2710 0
2326 -4160 0
4660 -413 0
4047 -3250 0
4752 -2687 0
-2639 2316 0
-3738 1016 0
2281 -633 0
1245 -3397 0
3939 3492 0
4663 -1272 0
2811 -4213 0
-1001 4334 0
-4139 -153 0
1176 3409 0
3460 -2279 0
3166 -2798 0
-336 3463 0
56 1007 0
-3121 4 0
3329 -513 0
-2982 2447 0
345 -1397 0
2097 1265 0
-4490 2756 0
844 -4545 0
1734 -3713 0
1392 4482 0
-958 264 0
4181 2032 0
1197 466 0
-4669 -1933 0
-3655 4501 0
-4345 -556 0
-3827 -558 0
-2415 -1809 0
-950 -1214 0
1650 1640 0
-4755 -2798 0
2295 -1236 0
3590 -3774 0
1175 3284 0
-3666 -2209 0
-1412 458 0
4583 2457 0
-420 -2278 0
-1426 3970 0
-3858 -1133 0
-3314 4347 0
2932 -4492 0
526 -536 0
-1184 -2283 0
-4286 4064 0
-2591 -1469 0
2484 -1833 0
-4532 322 0
3296 3247 0
1871 1136 0
734 -1945 0
4108 -1586 0
-2042 2617 0
-1290 1115 0
1194 -656 0
3094 -32 0
-433 -4267 0
4664 3802 0
-2473 -2322 0
3519 -2601 0
-3024 3622 0
2251 2969 0
1316 174 0
3082 -1665 0
-4004 3872 0
-1216 -1420 0
-4489 63 0
3909 -925 0
4569 3340 0
1969 149 0
-831 -4558 0
1380 -603 0
1603 671 0
-4117 -2665 0
90 -4653 0
2277 427 0
-1415 -3276 0
1403 872 0
-1437 2273 0
345 -3111 0
-1236 3691 0
-1401 249 0
2340 -2029 0
2557 1629 0
-3563 -1356 0
1549 -2872 0
2414 -3216 0
-1357 1468 0
1517 -3941 0
-3785 -4110 0
-2948 659 0
3367 -962 0
-661 1320 0
-2525 -4239 0
168 -2100 0
4511 -1846 0
4098 111 0
-4647 -1187 0
1275 -3815 0
3200 4165 0
3147 3153 0
-3187 280 0
2159 -4181 0
723 1691 0
1126 2932 0
1665 4181 0
-2939 -3377 0
1055 3243 0
1835 -2689 0
1276 2858 0
-2594 1595 0
2050 -623 0
4166 -4045 0
-4611 -214 0
-3092 -4285 0
3971 496 0
-3323 -2977 0
-1526 -4484 0
3739 -3478 0
-2900 -3433 0
1156 4664 0
1941 212 0
3807 -1558 0
1516 -3809 0
-693 -535 0
3498 -1904 0
-126 4150 0
4640 -1715 0
2680 3916 0
4247 -2591 0
-555 -2980 0
-3094 604 0
-2615 -3380 0
846 -1926 0
420 3465 0
-1190 52 0
2510 944 0
-4194 -2184 0
4100 4000 0
4087 1748 0
-140 2385 0
2495 4181 0
-2264 -3349 0
-1498 2852 0
2357 541 0
-2731 -3792 0
-241 -1808 0
521 -3380 0
1935 3668 0
3952 -4647 0
-806 2102 0
-2369 -1915 0
-1032 -1674 0
973 1581 0
-860 134 0
-3165 4463 0
1224 -3846 0
-4542 2661 0
-4095 2698 0
3620 -1359 0
-4574 -2687 0
4411 1570 0
-1992 -2390 0
-2364 -4410 0
-609 -2221 0
-2426 -3014 0
-1041 -1118 0
2250 -3797 0
1322 3655 0
-37 2209 0
2825 -310 0
-168 367 0
-4107 -2939 0
-2144 -838 0
3658 -625 0
9 2168 0
573 -1134 0
636 -3270 0
-4450 1993 0
3481 -325 0
1651 2868 0
-3459 3467 0
-3076 3141 0
143 -3384 0
4747 -4610 0
2652 -2572 0
4720 4251 0
-2069 2855 0
2164 4508 0
-4563 -2880 0
4345 -4609 0
2294 4495 0
-2426 4006 0
466 3295 0
2431 -1294 0
-3552 -2661 0
-1231 -4473 0
1009 -4639 0
4006 3229 0
-2884 2709 0
3113 205 0
-595 -1608 0
-2283 -2804 0
4378 -972 0
-2170 -3466 0
3754 -1301 0
2714 1191 0
3340 3230 0
-778 1020 0
-4630 187 0
4503 -4052 0
-2809 -3022 0
3379 -2393 0
-1514 1441 0
2702 2865 0
4237 -3604 0
-3245 3352 0
-3608 -2143 0
2173 -219 0
1757 -3189 0
-2266 -808 0
-2344 3370 0
3919 4049 0
-2684 4023 0
3592 3411 0
995 1535 0
-4463 4044 0
-4361 -384 0
-1885 -935 0
753 3697 0
-3991 -4661 0
3698 -1475 0
4207 -4713 0
-2980 474 0
3171 -1512 0
3713 -3030 0
-2253 2170 0
3557 -2410 0
1868 -1196 0
-2084 2447 0
-1573 2112 0
-3379 4482 0
127 -2402 0
2753 3229 0
-2049 1787 0
-171 -2742 0
2636 1870 0
-156 -2745 0
-808 4085 0
-3555 -149 0
1600 1732 0
-946 -1696 0
2180 502 0
2241 2009 0
1936 3774 0
-4371 3504 0
-3404 4295 0
-225 2128 0
1991 2201 0
-4219 -126 0
-2337 779 0
1977 -2631 0
137 -3870 0
-342 730 0
-3696 -2676 0
1780 4396 0
-884 1144 0
-3389 602 0
-1285 4590 0
3182 -3314 0
-623 4619 0
-3908 -4182 0
1424 3901 0
-3787 -3789 0
1841 1939 0
-124 164 0
1750 3004 0
3713 313 0
327 -1782 0
2458 -2043 0
-1603 2289 0
127 -4054 0
3082 4373 0
-2208 630 0
1751 -1039 0
3365 3906 0
1398 3885 0
332 4751 0
2945 351 0
4560 -990 0
3786 -3591 0
-1647 -1422 0
4136 779 0
-1260 4323 0
-3022 -627 0
637 -1797 0
-4328 -912 0
-1679 -3142 0
-957 -1781 0
-4533 -2008 0
-2630 -4095 0
258 -3778 0
4534 -3151 0
-4228 -1425 0
-3008 -1852 0
-2736 -3950 0
-884 586 0
-3388 609 0
-503 2971 0
3211 -897 0
-3168 -1254 0
-1637 2485 0
-4388 -2925 0
3003 -464 0
1544 -4522 0
2128 4161 0
2250 -2837 0
-669 -2632 0
3980 -455 0
2817 529 0
-4673 -3759 0
-813 -2869 0
4361 -680 0
2772 2523 0
1541 -2245 0
-3554 1275 0
-1518 -837 0
-4205 4723 0
2306 -3417 0
4505 -3272 0
2650 2573 0
3749 2862 0
1856 1156 0
-3902 -306 0
388 1554 0
4618 2150 0
684 3309 0
-3873 4523 0
-718 -4306 0
-3727 3948 0
-4212 -2099 0
-2320 -3310 0
486 -3233 0
-3145 -3429 0
4494 -2587 0
3578 -3278 0
3527 -1454 0
3686 891 0
789 -195 0
-4288 -1217 0
4566 -1404 0
3328 -262 0
-941 -4709 0
-1868 3549 0
1835 -2188 0
-1556 -990 0
-101 -2457 0
1990 4483 0
-1985 2523 0
-3624 3354 0
-957 3266 0
-2129 -4122 0
3804 -4469 0
645 4241 0
482 -866 0
3946 -224 0
2231 -4275 0
-2923 -1981 0
-946 -4212 0
-497 -3653 0
2185 -1150 0
1505 -1756 0
173 1922 0
2717 -1434 0
4578 -987 0
-2117 42 0
4526 608 0
-2850 -2404 0
1554 -974 0
-1634 -17 0
-4525 -1423 0
-1821 -924 0
2820 -4497 0
2846 -3702 0
-2964 -2609 0
-3086 -1231 0
-708 160 0
3796 -75 0
4352 -381 0
-2858 -3072 0
-3214 1834 0
2527 -4362 0
-2417 -1027 0
1828 4299 0
-1254 -2348 0
4658 116 0
2658 -47 0
-171 -2516 0
3546 -121 0
3392 -1911 0
-2327 -863 0
3709 -358 0
-4686 2711 0
3672 2033 0
-2880 -3062 0
4095 -3470 0
3104 3183 0
-1304 706 0
2341 15 0
-4692 -2817 0
2597 -2210 0
-2748 3322 0
-1022 3196 0
2426 3733 0
1225 2999 0
-2138 -490 0
1698 4085 0
4458 -1356 0
-1035 -2823 0
-2200 1046 0
208 -1983 0
-3567 -4483 0
562 -1631 0
-943 -797 0
4196 730 0
3946 -2393 0
2237 -2283 0
708 -2068 0
3035 -3687 0
3476 -254 0
-4383 1479 0
4357 1422 0
-3447 -2427 0
4254 2000 0
3879 -4563 0
-1751 2956 0
-3180 -500 0
-1565 4631 0
3039 3616 0
-2635 3073 0
-1420 -3452 0
-184 -847 0
2259 -3469 0
-2019 -2172 0
4161 -3044 0
-590 3418 0
-706 3979 0
4622 114 0
179 1194 0
4003 4233 0
-2867 -3016 0
-457 563 0
4547 -3275 0
-3616 -4570 0
-571 -2875 0
-2677 6 0
1456 -804 0
4332 828 0
4704 -2113 0
2797 -584 0
-3145 3289 0
2092 -4386 0
2906 3111 0
-3145 -2496 0
3641 2509 0
2627 -547 0
-490 -817 0
681 -4221 0
-406 -984 0
-889 -3193 0
-1459 -3985 0
-2954 -905 0
-135 -433 0
28 -3328 0
1614 -1835 0
3948 -4092 0
-953 -3611 0
2536 -39 0
-795 1895 0
4201 -1569 0
-370 -3832 0
880 -3911 0
1200 833 0
-2310 637 0
-3987 -4611 0
3903 -2887 0
-3275 3525 0
-1243 -1368 0
-4202 -3108 0
-2445 1951 0
-4157 -4182 0
-3576 3606 0
-582 1509 0
-3182 -84 0
4221 3808 0
1263 -1799 0
-3079 -967 0
-2583 -3445 0
1688 4097 0
-3937 4084 0
-608 1537 0
368 2046 0
-572 3289 0
-1062 4630 0
228 -3611 0
2031 -3399 0
2307 -1616 0
-3888 1344 0
3228 -3080 0
2192 4270 0
3005 -2261 0
4137 -2157 0
4735 2119 0
2007 -3909 0
3843 5 0
3442 -4595 0
4532 4437 0
4437 4612 0
884 2950 0
-1147 -1844 0
-1402 -1360 0
116 218 0
-227 -2211 0
-3314 4275 0
-904 4447 0
3366 3142 0
-623 3309 0
2724 1137 0
-3946 2207 0
-133 -1461 0
-4305 2771 0
-2635 -3126 0
-1348 -1168 0
-2137 1091 0
3265 2931 0
-3486 -1869 0
-2073 552 0
-4643 -1905 0
-32 -1274 0
193 3355 0
-1788 1438 0
-377 4735 0
1773 2188 0
57 4235 0
1021 -2654 0
2288 4704 0
-2546 -1571 0
2096 2480 0
-975 4043 0
4038 427 0
-3670 -565 0
3674 140 0
163 1758 0
-1331 -312 0
2561 -3791 0
-318 2961 0
-2876 3698 0
826 452 0
514 -1254 0
2917 -4047 0
-1728 -2850 0
1561 3458 0
-2519 738 0
-3187 -2548 0
159 4616 0
3098 3814 0
2475 2816 0
3542 -1705 0
1315 -3266 0
2788 -3735 0
-4322 2542 0
-1840 -2533 0
-1453 4557 0
449 -2541 0
-381 -2010 0
3781 -2457 0
-4339 -4457 0
3629 1428 0
753 -219 0
2360 -1185 0
-3179 -1700 0
2500 3289 0
91 -82 0
1524 -4741 0
-4535 -1349 0
3946 2918 0
-1745 773 0
1042 -1671 0
319 711 0
2118 2642 0
-4081 -3467 0
-3713 3929 0
-702 -4179 0
-3520 4690 0
-3606 2624 0
-3003 -1162 0
3477 282 0
-4196 4479 0
-3096 -4144 0
-3285 168 0
-2823 3394 0
-280 -2603 0
-1141 -574 0
4103 4476 0
100 705 0
2194 -1616 0
1355 -2964 0
-4577 3295 0
591 2665 0
-4480 -186 0
-3713 -4468 0
2198 -2977 0
-688 -624 0
2393 3930 0
1667 4466 0
234 -1854 0
1805 579 0
4660 1252 0
42 912 0
994 1108 0
2715 -3022 0
-1393 430 0
4413 -3905 0
-1311 2586 0
758 1384 0
-4156 -2344 0
-3350 649 0
2209 -4146 0
-2722 3492 0
-1982 -3554 0
768 -1427 0
-3762 -2629 0
2380 -1689 0
-343 1004 0
3354 -3672 0
-4320 3640 0
4743 3766 0
2571 -3315 0
-4287 -4240 0
3761 -439 0
-978 1029 0
-2566 -1354 0
1431 -1980 0
-2635 1862 0
-2553 -4447 0
4471 -3015 0
-3593 -3757 0
2208 2677 0
3258 1993 0
3014 161 0
4171 -3113 0
4635 2149 0
-3547 948 0
1895 -358 0
2917 2810 0
-4536 4003 0
3937 1381 0
-2021 -175 0
4665 -402 0
-3222 -62 0
3616 1046 0
-2012 -411 0
4225 1379 0
-3766 -4476 0
4388 3285 0
-4364 -167 0
1138 -2924 0
3598 -3902 0
-3857 -4068 0
2865 3570 0
1291 3475 0
-3868 -1694 0
-2528 2587 0
4752 4171 0
-2013 4554 0
4601 -3165 0
-4031 1629 0
3587 -682 0
3466 -3087 0
-1417 -4527 0
2400 -1015 0
-4063 -2835 0
-3120 2284 0
1267 2209 0
58 -3234 0
-201 380 0
4080 2053 0
-2606 4366 0
2718 1770 0
-1251 -2889 0
-900 -789 0
1957 239 0
2878 2377 0
1646 -3845 0
4622 2619 0
-613 557 0
2256 483 0
-172 -1141 0
4746 -2682 0
-233 -3903 0
-1598 -837 0
4582 796 0
9 2285 0
-604 598 0
2551 2935 0
-4661 -1144 0
-2183 481 0
2708 -4129 0
-640 1689 0
4133 2487 0
-4048 -3078 0
-2209 -2901 0
4455 -3917 0
484 -2255 0
3670 -2015 0
-2831 4310 0
-2764 -737 0
-790 262 0
1010 -3561 0
2662 -3988 0
4249 1740 0
2084 3090 0
2508 -3523 0
4684 2315 0
-3439 -3330 0
-3918 -4206 0
-1271 -2160 0
205 4161 0
2245 2497 0
-647 4108 0
-1913 1257 0
4291 3423 0
3795 -1495 0
3917 -3585 0
-4741 -2122 0
489 3972 0
-3750 -947 0
-4579 -4649 0
-977 185 0
-102 1316 0
444 1087 0
794 -4013 0
3828 -2349 0
1104 599 0
-1946 3512 0
-1672 2936 0
-1365 670 0
3743 4620 0
-4 3467 0
1135 3189 0
1451 -2432 0
-1511 -2985 0
75 -3497 0
2808 3620 0
1673 3944 0
4365 4097 0
-1958 3367 0
3587 -101 0
-1212 -3101 0
3360 373 0
1890 -1075 0
-3675 125 0
4486 465 0
4544 408 0
-2721 -3767 0
204 2046 0
-4469 -3978 0
1650 4162 0
-3440 4276 0
-1476 -749 0
-4635 1186 0
4345 1898 0
1156 1194 0
1792 -3729 0
4102 801 0
-520 -3930 0
1684 1412 0
-4570 1739 0
654 3970 0
2451 2995 0
3656 -3421 0
-2868 -199 0
2754 -1801 0
-546 -1497 0
771 3763 0
3102 -1122 0
-952 -4745 0
2536 -27 0
2829 -841 0
-4013 -204 0
-959 2265 0
4518 4076 0
-2259 -1222 0
-4511 3318 0
2421 -4070 0
-370 4309 0
-1225 4690 0
-2190 1942 0
2632 -3093 0
-2743 380 0
-4543 -1436 0
4366 -4369 0
1383 2961 0
-1430 -4010 0
-1011 420 0
-4276 -2167 0
-1994 98 0
532 3605 0
-2804 2653 0
-4750 -4495 0
-1511 3072 0
-1094 -1001 0
-1781 2088 0
2798 3665 0
-3609 -893 0
3310 -1766 0
-282 -719 0
-1439 -1899 0
266 -3319 0
-73 897 0
4336 901 0
-1640 3954 0
3239 2674 0
385 -3298 0
4383 -2918 0
3359 3588 0
-3687 531 0
1698 -1947 0
-2303 -3026 0
-450 1064 0
-627 -867 0
277 1933 0
-1355 2652 0
-1936 -4319 0
-1271 -2577 0
-112 2075 0
-2577 3371 0
-3491 -2663 0
-3829 -4429 0
-2737 -4638 0
971 -3807 0
-4048 3079 0
-3532 1631 0
2892 2585 0
4422 -1718 0
3206 -559 0
-3553 4694 0
3428 -4142 0
1599 -4588 0
-3842 1810 0
-1495 453 0
2523 3202 0
2850 -388 0
-223 -1811 0
-3512 1494 0
2385 -2128 0
-2263 -2927 0
3626 82 0
-2081 -3579 0
-1301 2579 0
859 2034 0
3750 3882 0
4639 3409 0
4168 -3744 0
-2912 589 0
1026 1473 0
-3357 2590 0
-1231 2881 0
826 323 0
-477 2950 0
2599 -3254 0
-4010 2051 0
3487 875 0
-3691 1580 0
3854 1982 0
4134 1391 0
3168 2824 0
4054 2305 0
-889 4642 0
4620 -265 0
2930 2965 0
-91 714 0
-1673 1263 0
-2394 -2114 0
-3908 1554 0
-3547 -1854 0
3270 4630 0
414 -3541 0
194 -4651 0
-1766 2332 0
3498 -1140 0
3112 1757 0
4449 -4387 0
-716 1637 0
671 -1710 0
-4646 4349 0
-1952 -4710 0
-3741 -1881 0
676 -3191 0
-3165 4354 0
4081 -1485 0
-1657 4309 0
-2385 110 0
-56 -3867 0
1760 -1614 0
1025 473 0
-462 465 0
3327 -3316 0
-2253 -2950 0
-1228 -2220 0
-1821 -3399 0
2015 1966 0
3226 -23 0
-3996 1891 0
396 -4224 0
883 -760 0
-2103 -3548 0
3957 -2919 0
-3374 3523 0
-4234 -3746 0
338 2866 0
-3226 4370 0
-1255 -3968 0
-4386 681 0
538 -3472 0
-2286 -1365 0
-3885 -2771 0
2234 -714 0
3912 -835 0
-883 1910 0
-1710 805 0
-3486 -3052 0
3419 -4021 0
3041 -2447 0
-737 -1685 0
-3317 2799 0
-1777 3162 0
-719 -16 0
-3818 536 0
3960 2672 0
-4700 -624 0
4154 2340 0
-2166 3620 0
-1364 -1262 0
2033 1304 0
-824 2507 0
-84 -4564 0
1915 -1040 0
-134 -3526 0
-2807 -269 0
383 3431 0
-1699 -3229 0
2722 2106 0
-3416 -336 0
-4585 4171 0
-3399 2202 0
1336 1055 0
-3963 -1243 0
-2517 901 0
3546 4051 0
3289 35 0
2991 -299 0
-1677 4456 0
-1606 -1641 0
-3309 2333 0
-1592 -2568 0
-1608 3647 0
-3886 1152 0
-4648 3900 0
3258 -878 0
-3022 1069 0
3118 -2344 0
3780 -132 0
-2140 -574 0
-4124 -2639 0
159 -3675 0
-2299 1173 0
3438 -2479 0
-572 -1612 0
3340 -859 0
-2363 -3725 0
-4344 -4120 0
-1591 1080 0
-4186 1044 0
-2437 -4327 0
1565 2128 0
202 -2473 0
-887 4601 0
674 3198 0
-3641 4605 0
3862 3670 0
1288 -2069 0
3369 -163 0
3869 -1489 0
-3302 728 0
-905 1157 0
2122 1276 0
-70 426 0
38 -2765 0
2046 -530 0
4456 -3488 0
1661 -2540 0
-988 1985 0
824 -162 0
-643 1653 0
-456 -1173 0
-948 -412 0
-3657 2319 0
-1916 426 0
2392 3172 0
-1918 -2804 0
-396 1370 0
4598 -3540 0
2784 1697 0
-4576 -3524 0
-3716 -2731 0
3788 -1414 0
3987 1619 0
-1926 827 0
2531 2403 0
1405 3747 0
-3565 1949 0
-4428 1138 0
-4051 -128 0
3962 -4696 0
2205 -3708 0
2285 -4140 0
-3440 -4241 0
315 -3640 0
-289 -4351 0
534 2108 0
4440 3811 0
1076 4393 0
2026 -2333 0
477 -1731 0
2703 -4201 0
-2073 3322 0
-3987 4200 0
-2471 -4170 0
2460 -3121 0
-999 -4591 0
2240 -171 0
2692 -4736 0
-4579 -25 0
-1443 1661 0
1530 -28 0
957 -1331 0
-3126 -4630 0
4113 848 0
1506 -2174 0
2039 2284 0
-1991 4353 0
-1538 -1527 0
-2180 3496 0
4503 1897 0
-3141 -2076 0
639 -3188 0
-1113 3465 0
2055 -4432 0
-4427 2412 0
-3993 -1859 0
241 3223 0
1653 -2901 0
-446 -4468 0
2535 1487 0
-987 3160 0
-455 -3504 0
3299 -2661 0
605 -4672 0
-2107 3202 0
2527 -2613 0
-1807 329 0
-3216 2398 0
-1508 3418 0
2561 -550 0
494 3554 0
2638 715 0
-1542 3574 0
-1264 4114 0
-217 -2932 0
-3338 -1221 0
3557 -4573 0
-2076 -1935 0
460 2652 0
-2238 98 0
-3335 4521 0
-3390 3954 0
-965 3603 0
4196 1308 0
-3477 598 0
-2602 -1885 0
-246 1034 0
77 1337 0
4181 4338 0
-1047 3882 0
-4421 4237 0
-3280 -1536 0
-1271 -1577 0
-1904 605 0
2873 883 0
-2160 -4011 0
4203 -2278 0
-2137 4582 0
-4414 -288 0
-4030 -3636 0
-75 2269 0
2284 -1042 0
1071 3174 0
1391 3248 0
2257 -4666 0
2906 3267 0
4244 -1430 0
-631 -3270 0
-4303 -1895 0
1371 -4526 0
-4639 -1762 0
-4556 -630 0
2761 -3817 0
2753 -2852 0
2297 1267 0
3530 2377 0
1044 -4445 0
-3206 1253 0
2281 2623 0
-4546 -3319 0
1224 -2190 0
-475 2959 0
-792 -4273 0
-3195 -3687 0
4323 2906 0
4577 2184 0
-4111 -982 0
-1028 -3998 0
2501 -3848 0
-4604 3914 0
1099 -2100 0
3306 -373 0
2205 -508 0
-3876 3497 0
-4286 -3975 0
-3913 -2879 0
2860 -2596 0
1951 -578 0
-2665 -1871 0
4382 -455 0
3706 3694 0
4172 2814 0
-1102 -2410 0
-1522 -1312 0
3826 -3052 0
-3739 -2793 0
1660 -2934 0
-2357 -2155 0
3513 -3844 0
-3464 856 0
141 -4673 0
251 3242 0
-2967 4403 0
-1197 -1793 0
2177 -4734 0
-3292 -2969 0
-4336 -296 0
-2333 -1720 0
-1735 4237 0
-3204 2066 0
3403 853 0
-4637 331 0
1909 547 0
-3511 3805 0
259 -4237 0
-3321 -2890 0
-2052 1316 0
-1036 -3802 0
-2586 -3602 0
-2487 -1409 0
3792 -1684 0
3721 4436 0
-2191 2080 0
-3718 2367 0
-3490 496 0
-1598 -3943 0
-1157 -2832 0
3130 -1709 0
3318 -1923 0
-2468 12 0
-4003 -3458 0
-738 -1152 0
2617 3158 0
-4500 4242 0
1026 -4139 0
-4102 160 0
58 2988 0
3966 -1991 0
952 -1389 0
2872 482 0
1882 2523 0
2066 -4303 0
1569 93 0
-185 1121 0
844 2463 0
-1271 1660 0
3547 3290 0
2710 -4669 0
1747 -4030 0
-4639 -1297 0
-4685 -4294 0
3919 2156 0
-1664 -4284 0
-4525 1131 0
600 4091 0
1448 -3052 0
-2018 2985 0
4286 3652 0
-4447 1909 0
2237 -269 0
-317 -3078 0
-3199 4187 0
-57 -1065 0
2197 2763 0
2732 -2275 0
4287 -476 0
757 1832 0
-693 333 0
1433 3306 0
3325 -141 0
4546 -475 0
-62 3159 0
-559 1692 0
1206 -579 0
-1363 -3999 0
-2557 -2583 0
2036 4668 0
4688 833 0
3340 2118 0
1828 -923 0
-3323 -3993 0
4152 3804 0
-4132 1943 0
995 3224 0
-4140 3166 0
-780 260 0
1763 130 0
-1899 -1665 0
-3416 -4320 0
3938 -2356 0
2847 -1428 0
-1890 -1429 0
2383 -1332 0
-3093 -1629 0
3249 -2607 0
-3562 -4287 0
3283 -3776 0
3304 1871 0
-3474 -4430 0
2032 -2958 0
-533 -3036 0
2488 -2986 0
-4143 3277 0
4269 3851 0
2262 3863 0
-2889 3166 0
3041 -2197 0
4156 -3133 0
931 475 0
1488 953 0
1245 -2622 0
-4147 3945 0
3785 3987 0
4723 1559 0
1069 -3651 0
2715 1346 0
3973 -1607 0
3623 2023 0
1810 -4028 0
2446 -3191 0
-4450 -2127 0
2760 3726 0
-2870 -2898 0
501 269 0
-2097 794 0
1114 4098 0
3362 182 0
1081 -2849 0
3416 3992 0
1785 -258 0
4630 -878 0
3591 -2736 0
1760 -1721 0
-3555 2955 0
2142 -1454 0
49 870 0
2962 4658 0
-1202 1738 0
-4722 -2320 0
3131 173 0
-1777 3609 0
248 -3344 0
290 1295 0
-1439 792 0
233 -3708 0
-4451 -1467 0
2897 2065 0
137 1366 0
1697 4566 0
2478 1237 0
2273 1026 0
-2541 -1372 0
-2083 4700 0
1763 -527 0
-3980 2128 0
4310 4380 0
1207 -2778 0
2358 3471 0
2541 -780 0
2445 -235 0
3867 -1110 0
911 2694 0
-2452 -1971 0
-1215 -2028 0
2111 2558 0
1614 -2329 0
-731 -530 0
-4328 3368 0
-179 -622 0
304 -1114 0
-1260 -1485 0
-758 1691 0
-4316 -323 0
3410 -4015 0
-2127 131 0
-2872 -601 0
-1971 -1634 0
4553 3432 0
3972 1099 0
-839 -1118 0
2715 -1361 0
2304 4502 0
-2545 -1084 0
-3220 3509 0
145 319 0
-1200 4219 0
-4184 61 0
3598 4663 0
-396 2488 0
1430 -1663 0
-2005 -4107 0
-964 -827 0
2903 2772 0
-1999 -965 0
-4473 1449 0
-3761 52 0
99 644 0
-1324 4507 0
-4247 3967 0
752 2599 0
4666 -759 0
-727 -3916 0
4200 -2511 0
4420 3751 0
-2314 -2964 0
2778 -1801 0
3540 315 0
308 4464 0
437 -4687 0
-4403 -1957 0
-3766 3413 0
-2369 544 0
-2736 4014 0
4261 -3923 0
3851 -2532 0
3207 -1983 0
-2924 2233 0
-1837 4155 0
-3861 1710 0
4494 -1369 0
-2215 4568 0
-3513 -1713 0
-4340 1259 0
-644 -574 0
-1990 13 0
3038 -572 0
4300 -3747 0
3161 3334 0
-29 4396 0
-3632 -410 0
2660 3648 0
-4623 -1241 0
1449 -4745 0
453 -3539 0
2779 -3380 0
-296 -2969 0
2368 3852 0
-1457 1757 0
-2534 -3952 0
-863 4547 0
967 -1118 0
506 1298 0
4353 -2891 0
4006 4065 0
3792 2870 0
501 -411 0
-3231 -3673 0
-4159 2033 0
1631 811 0
-1747 601 0
-3276 -1781 0
4302 -4046 0
-2169 3869 0
-477 -1553 0
162 -786 0
67 380 0
1964 -2720 0
461 4632 0
695 -1828 0
2542 -2063 0
-328 3366 0
2908 -1613 0
4371 4085 0
2492 -2580 0
-4501 2158 0
876 -1652 0
1678 -3150 0
4667 3497 0
-3682 2790 0
648 -1340 0
119 -2528 0
-2107 3413 0
3840 3427 0
-861 2289 0
3692 2417 0
-2150 1660 0
2269 -4264 0
910 -3122 0
-841 -683 0
332 3794 0
-4003 3305 0
4532 -2189 0
-3609 -1517 0
-987 -2132 0
-2454 3269 0
-2616 4311 0
-3755 -4508 0
-2319 -3452 0
-2874 -4035 0
3600 -1512 0
-2388 3520 0
-404 -2851 0
2343 -3833 0
-3546 872 0
-2410 -3321 0
3539 -2505 0
-1272 4082 0
2343 -152 0
-987 1430 0
-2407 3046 0
949 1355 0
2728 -2096 0
-631 -4209 0
-4508 -3825 0
757 3166 0
-1952 2892 0
-3750 -1484 0
3045 -345 0
936 1646 0
1479 -2966 0
-3740 -487 0
-1251 -905 0
-788 1752 0
-4061 3366 0
-1085 2067 0
507 -4715 0
-1434 -152 0
1146 2243 0
3463 752 0
-709 -3591 0
3765 -3200 0
1842 884 0
3052 502 0
-3439 2595 0
-4565 -2977 0
1310 -1160 0
-3963 -750 0
1484 1007 0
-3017 -133 0
2266 1505 0
-4173 3427 0
3393 -4492 0
4150 2202 0
1342 -583 0
3415 -3543 0
-687 2069 0
4015 3682 0
-4389 -1166 0
-3025 -2714 0
-4034 -3429 0
-857 -2166 0
-1902 4125 0
-1463 1576 0
-813 1003 0
2163 250 0
-4468 -4245 0
4454 667 0
-886 -1735 0
-508 -4296 0
3412 -1332 0
-413 2213 0
4518 -849 0
-4194 -4277 0
-2136 2188 0
226 4401 0
2859 1552 0
-3029 -3264 0
-478 3657 0
-4256 4360 0
3040 1609 0
2584 3221 0
2141 3916 0
712 3593 0
-1242 1998 0
2948 -1538 0
-1994 -949 0
3393 2617 0
-202 -634 0
1972 4698 0
654 -2880 0
-32 -1331 0
-718 -1706 0
648 -45 0
970 902 0
1541 -2106 0
3788 -2072 0
-163 920 0
3950 -3927 0
1461 3057 0
2416 607 0
257 -1643 0
-939 -2924 0
-1812 -3074 0
-3701 561 0
-2114 -4037 0
-4318 -211 0
-1101 196 0
3356 1412 0
-1704 3630 0
1961 1611 0
1458 825 0
-1967 -926 0
4658 -2965 0
2101 -3668 0
-4485 -4235 0
1976 -4166 0
2542 -1495 0
616 -4057 0
-174 1164 0
4710 3069 0
-2583 -3420 0
-4501 -1606 0
711 -714 0
1997 2536 0
4140 1405 0
1519 52 0
-3934 3804 0
1091 -1882 0
-3146 -2826 0
2115 -3250 0
-2270 -3638 0
1138 -4208 0
4072 -942 0
-2012 2946 0
-1584 768 0
-2543 2332 0
3708 33 0
-1364 -3374 0
4053 -29 0
-4330 -2719 0
2552 -94 0
2771 1030 0
4586 -194 0
86 130 0
921 -120 0
239 2243 0
1158 4541 0
1412 1460 0
3491 -3071 0
1962 -3278 0
2844 -1082 0
-1440 1757 0
-4559 2154 0
3617 4582 0
-584 1333 0
-1952 -2333 0
3954 -3752 0
678 -3768 0
-4256 1072 0
-3840 -1394 0
2777 -3774 0
-4304 -2680 0
1171 3330 0
4396 71 0
-3842 -4613 0
-3022 -3553 0
1299 -571 0
-2020 3117 0
4700 -2780 0
2219 843 0
-1522 -3080 0
-2689 1086 0
-645 -4749 0
1689 -2117 0
-1493 -2788 0
-44 -4550 0
-1766 3748 0
-1400 -2445 0
3201 1975 0
2967 -1368 0
-3931 -3868 0
1204 -26 0
1500 290 0
-1423 3737 0
4081 605 0
2772 2764 0
-1026 -2900 0
3289 498 0
1376 -3064 0
-2960 2207 0
-1885 -3010 0
1802 2440 0
3478 1048 0
-4544 3005 0
-1819 2600 0
2985 -829 0
1781 4487 0
4054 1451 0
-2484 1008 0
3306 785 0
3548 2107 0
-4437 3841 0
2205 3997 0
-2639 -3041 0
2346 3609 0
-4047 -2479 0
-3287 -449 0
-1980 1350 0
4236 -1478 0
-163 1929 0
-1432 -1123 0
-85 -421 0
1687 3524 0
-3559 -1236 0
4406 4290 0
-4039 -1444 0
-3156 -4198 0
2703 4659 0
-948 -3434 0
2808 3148 0
202 2501 0
2565 87 0
99 259 0
-3004 -1148 0
3066 2256 0
-571 447 0
3336 -4005 0
-2475 -2802 0
-1281 408 0
-2057 1077 0
110 821 0
2081 3943 0
2242 -3571 0
-2775 2512 0
40 -2517 0
196 -1238 0
-1313 -2736 0
-253 1638 0
-2420 -877 0
116 4656 0
1865 -1570 0
-4188 -3465 0
2912 699 0
3152 -424 0
-404 -126 0
-2262 -1772 0
850 4631 0
3540 -223 0
-520 4731 0
-1459 1880 0
-3364 3042 0
-2951 -3346 0
-2061 -3672 0
-3477 -3426 0
811 2454 0
3928 -4369 0
2025 526 0
3983 2680 0
2340 -3077 0
-1278 3034 0
4612 1153 0
-2393 -2344 0
-353 -3819 0
-247 -4444 0
3945 1749 0
1938 -1173 0
2925 -2406 0
2311 -2022 0
-414 1175 0
-624 -1587 0
1167 -1499 0
-3028 3728 0
-3667 3550 0
4031 2667 0
1160 4656 0
591 261 0
-2608 -148 0
787 -4162 0
-151 -3362 0
417 3568 0
-3716 -383 0
187 -2749 0
-4094 3935 0
-3656 1769 0
1873 -4702 0
4502 -1495 0
227 113 0
-2799 2155 0
-2686 4001 0
3559 701 0
-4120 -2086 0
4342 3257 0
-424 -3215 0
2603 -178 0
818 872 0
4680 -2970 0
114 -3155 0
3166 -2095 0
-878 -3081 0
-4687 -2338 0
3916 -2635 0
795 -1255 0
-2381 -444 0
403 -2405 0
-4386 4024 0
-3023 529 0
-4320 1473 0
3123 -2313 0
3859 2469 0
-1567 4612 0
725 747 0
1528 2627 0
2856 -4579 0
2391 -657 0
-4500 3591 0
-4355 4134 0
2024 -3946 0
-2280 3185 0
3205 -1254 0
-3182 70 0
19 854 0
-3258 -2966 0
590 -1294 0
1855 1799 0
1338 331 0
4283 1988 0
-2405 4492 0
621 2754 0
1691 67 0
-4243 -385 0
-1832 -2047 0
-411 -1877 0
2838 -2895 0
1381 -1609 0
1578 -1070 0
4568 202 0
-3817 -1700 0
-3617 -1687 0
3292 3753 0
4665 -3902 0
-2111 454 0
-292 -289 0
1697 891 0
-3880 -169 0
775 -1801 0
712 864 0
-2799 -1765 0
896 -1931 0
-3656 -1517 0
-2994 -4737 0
-2780 -200 0
3966 -2047 0
-4543 1009 0
-1796 -4399 0
4594 -1886 0
-4203 3448 0
-2280 2214 0
-1277 413 0
-2820 626 0
4545 -977 0
1955 947 0
3134 2952 0
2111 -2904 0
943 -4240 0
-782 1390 0
-4279 2339 0
2020 -867 0
723 3967 0
4197 -4058 0
2020 3796 0
2849 1792 0
-3580 -636 0
3222 127 0
-415 -1902 0
2276 -3124 0
-2121 -631 0
1098 2915 0
1080 2332 0
-1467 -2049 0
-671 3205 0
-3878 3530 0
-4262 -1236 0
776 -1703 0
-1232 -1463 0
-4600 3423 0
-2799 2928 0
1398 -2185 0
-3806 22 0
2909 -1470 0
-3474 1375 0
-126 -2881 0
-1521 2561 0
-1389 981 0
-4139 -2334 0
4739 1763 0
511 1862 0
-1031 -2794 0
149 779 0
3395 3830 0
3984 1014 0
-1441 2701 0
-299 2411 0
3163 1864 0
3068 4551 0
-344 -4683 0
-3680 1252 0
-2403 -2270 0
2302 4755 0
1030 4139 0
-4328 1014 0
-1959 1837 0
-3439 -115 0
-23 -332 0
-3527 -1970 0
4571 -1963 0
-225 1388 0
-2084 3627 0
665 4432 0
-2752 145 0
-4348 -3766 0
-3167 3937 0
2238 2388 0
-189 -1298 0
-3985 1670 0
1265 2126 0
-631 -3933 0
-4563 -1532 0
-2581 947 0
-3762 -156 0
-2218 4280 0
-92 544 0
-2291 -2893 0
540 -1457 0
-2149 2319 0
927 930 0
-626 1805 0
-3793 -2494 0
4647 -943 0
-3263 -1629 0
543 -2026 0
-997 -3315 0
1191 -4653 0
-2303 3768 0
-1843 -641 0
598 3908 0
3590 -783 0
-3178 -3407 0
-377 3879 0
1127 4662 0
1188 -3957 0
3612 690 0
3213 572 0
1870 -1811 0
-2279 -1423 0
-3433 3876 0
617 728 0
4504 -3319 0
-1525 -4537 0
3896 -680 0
4017 4592 0
-4618 4402 0
1048 -3874 0
1510 -621 0
3110 -1264 0
-1243 -3025 0
3883 3881 0
3082 -855 0
3390 3724 0
4649 -69 0
-4264 1133 0
-1967 -4743 0
4428 -1188 0
-433 854 0
-294 4630 0
4125 -814 0
-2859 -4226 0
4132 -868 0
437 61 0
2873 -28 0
-3358 -566 0
987 426 0
-1732 -3007 0
-1324 -4129 0
926 -2616 0
-3784 2873 0
28 3051 0
1398 260 0
-1243 -806 0
843 711 0
-1940 -2419 0
30 1392 0
2333 2168 0
2984 -642 0
-3576 -342 0
-652 4731 0
-2580 765 0
-1500 2209 0
-157 -2871 0
899 -1120 0
4575 -698 0
-2066 1017 0
4540 -835 0
4145 1346 0
-2814 638 0
797 -4685 0
873 -2849 0
689 -1318 0
-3043 -2920 0
1770 -777 0
146 -3681 0
-3993 -208 0
-3718 -4247 0
1118 1160 0
-4575 3668 0
-2802 944 0
-1776 -3059 0
3026 -310 0
-2216 2046 0
-773 -142 0
-472 -887 0
3518 3423 0
3618 2847 0
-212 3728 0
-3656 3656 0
953 -1162 0
-3552 -3474 0
-3850 3227 0
-3280 4132 0
2419 -381 0
-2231 1984 0
1746 2786 0
-4063 1801 0
-3269 2839 0
3407 -45 0
3653 -330 0
32 -4032 0
1227 -4140 0
379 884 0
2847 261 0
-1939 2514 0
-1577 -3509 0
188 -3081 0
-3517 -2438 0
-4231 -2379 0
-3073 -1329 0
-3585 3989 0
-4000 3431 0
-4028 1003 0
-4401 -1166 0
-2155 -4565 0
-4208 -429 0
2231 1437 0
1835 319 0
3503 1999 0
3618 1227 0
-4683 -982 0
-3354 -3061 0
-3289 -4604 0
3539 -1466 0
4432 2127 0
1412 -467 0
-475 -4726 0
2586 -1732 0
-1341 4686 0
811 -436 0
4733 4380 0
3219 -3802 0
-4161 -3809 0
-491 2171 0
-162 -4738 0
-1539 535 0
4502 1310 0
-296 -2842 0
-424 -2824 0
374 3630 0
-947 3449 0
-503 4564 0
728 1491 0
-743 -1762 0
-2348 3662 0
-1200 -1439 0
2805 -452 0
1732 1061 0
298 364 0
-2181 1536 0
-430 -3878 0
884 -803 0
702 2085 0
6 3301 0
-3355 -1513 0
634 1975 0
390 1585 0
-604 -2092 0
-3662 -2589 0
-4702 -4422 0
1631 1291 0
1282 1575 0
-3876 -1397 0
2184 3622 0
1938 -3597 0
3163 -1844 0
613 3851 0
-3616 -4652 0
1017 -80 0
1013 2509 0
-3552 -1378 0
-768 -1056 0
-2985 -888 0
611 2205 0
-3524 -2830 0
2253 1283 0
595 560 0
3954 1677 0
1221 811 0
-1807 2067 0
-685 -1429 0
2359 -181 0
-1608 -2263 0
-263 -510 0
3407 4114 0
3538 -2176 0
3803 -3860 0
-3466 1472 0
2578 -2909 0
-3736 2852 0
1101 3494 0
-2439 1364 0
-157 2070 0
-3641 -4002 0
2320 -1849 0
1712 -1349 0
4556 -1431 0
2700 872 0
-2561 1155 0
-3687 119 0
-2867 1553 0
-1893 -3767 0
1610 -2258 0
4138 -3918 0
-3825 2155 0
-3446 -3129 0
-4010 -2749 0
2750 -2229 0
-4565 -2996 0
-4423 3906 0
2027 2958 0
-641 889 0
4382 -2885 0
482 -2435 0
322 -4057 0
296 -2982 0
2711 1394 0
4268 484 0
4196 393 0
3942 402 0
1955 -2977 0
4426 3481 0
-1377 -1203 0
-4184 573 0
-165 950 0
4277 4159 0
1473 -1706 0
3112 -2438 0
995 -600 0
1697 3771 0
2542 173 0
-3358 -2851 0
1038 4381 0
-4474 -767 0
-568 -3323 0
1051 -3383 0
3520 -1356 0
2426 -3349 0
-267 -347 0
4436 -2982 0
2234 844 0
-1311 -371 0
-2212 -3217 0
-1374 -2073 0
3088 2213 0
-2320 4738 0
3020 301 0
-1455 -1160 0
-837 -2062 0
-4160 -2256 0
-3379 989 0
706 4507 0
1810 3452 0
3311 -4278 0
-3998 -249 0
-1100 -354 0
518 -2144 0
3665 -4333 0
-2848 -2097 0
762 -4127 0
-3873 -1647 0
-4648 -3126 0
829 -280 0
-3772 1117 0
-1739 -350 0
2510 4200 0
1528 1226 0
-1598 2928 0
4447 1194 0
-4587 196 0
4187 -2424 0
-4446 2036 0
-3762 990 0
-2120 880 0
-2701 -2709 0
-1312 -3776 0
-3797 2961 0
2812 674 0
-1064 845 0
-3078 585 0
-1139 3701 0
-4153 -4147 0
1608 4060 0
-3192 -2744 0
4382 -276 0
-2030 4326 0
4554 445 0
3324 -1758 0
3970 -1200 0
-2668 416 0
465 -3889 0
3385 4118 0
2401 1806 0
-1674 940 0
4680 431 0
-608 2184 0
-2763 -940 0
35 -2233 0
3306 -343 0
1101 348 0
-349 -2827 0
4348 3463 0
-2185 -4720 0
-625 -4024 0
4339 -1801 0
2173 1160 0
1511 1338 0
3575 -2623 0
-2059 -537 0
-321 -2719 0
-3219 -3581 0
4541 1482 0
-3662 53 0
3480 195 0
3300 4309 0
974 -1252 0
1920 4606 0
-450 -944 0
3499 703 0
-4492 1354 0
2564 -2547 0
2377 3775 0
1276 -295 0
-210 2693 0
-2449 -2704 0
3140 -1002 0
-78 -2117 0
1519 2818 0
2788 -985 0
-3386 609 0
3566 2361 0
4308 3678 0
-3885 -3820 0
174 -3116 0
-2605 4007 0
-1270 -2457 0
4359 2231 0
4743 3179 0
-3337 4170 0
1343 -3584 0
-1868 -1499 0
-4020 663 0
-3509 4118 0
-1278 -2948 0
-4684 -2318 0
-2724 1737 0
-2541 2102 0
3244 4267 0
2840 -1867 0
731 1133 0
-4037 1698 0
-487 -4427 0
2075 -4113 0
-3526 -2434 0
857 -2300 0
-1149 2377 0
-4409 3781 0
-3110 995 0
-1265 -1899 0
1089 -1901 0
3386 -462 0
-4750 3326 0
-91 365 0
234 4389 0
-3971 303 0
626 3166 0
-3323 -2857 0
1739 2306 0
3299 4063 0
3847 -2095 0
2254 -3909 0
640 -3135 0
-3436 -1563 0
1458 -4430 0
-1946 1758 0
4379 968 0
4031 -2127 0
17 -4015 0
-2870 1964 0
56 1200 0
-2395 -2155 0
1323 -634 0
4671 -2896 0
-61 1650 0
80 1661 0
-2734 1556 0
-577 1667 0
1056 3223 0
3919 2927 0
2652 3300 0
3127 -2336 0
3286 809 0
804 988 0
1092 -1684 0
-968 5 0
4512 1102 0
1417 -2509 0
-4745 1471 0
-1639 2771 0
562 4440 0
3955 3291 0
-2250 777 0
-2545 -481 0
2771 -1 0
-4247 -1780 0
-3323 1964 0
-1515 244 0
-2634 -1706 0
4700 4157 0
2205 723 0
-3527 -516 0
-3551 -719 0
-656 -1010 0
-2426 4368 0
-898 -3961 0
3156 -4321 0
1175 -3818 0
443 3653 0
-199 -641 0
3212 504 0
-841 -4259 0
-1138 -3036 0
1422 -3783 0
447 2294 0
-34 -2494 0
1532 3953 0
-94 1947 0
627 -4445 0
-1843 1985 0
-2452 634 0
761 -3227 0
4630 -765 0
-2622 -2864 0
-2228 -2882 0
-3206 2223 0
-3488 -785 0
1701 -1094 0
-4703 -387 0
-1332 -3064 0
-3791 2550 0
1902 -3399 0
3485 3926 0
-3179 2751 0
4103 2053 0
3963 268 0
1682 -1011 0
2995 -2100 0
2950 704 0
4208 4359 0
4035 -2807 0
2979 998 0
-3046 971 0
671 3585 0
2007 1140 0
1234 506 0
-354 4103 0
713 -151 0
1568 -2548 0
-2235 2316 0
1440 192 0
1785 181 0
-709 -235 0
2409 2158 0
3924 -550 0
572 4435 0
-1191 -4239 0
-3866 1369 0
-3950 -3510 0
-4500 3218 0
425 -1197 0
1557 3305 0
-2208 3777 0
188 2942 0
-3585 -1675 0
-2206 3078 0
-3782 2523 0
-4096 322 0
-197 -41 0
-4110 -3503 0
-1824 -3927 0
-90 4627 0
-3292 -2314 0
2799 -4316 0
-1220 -960 0
3974 1798 0
1351 -2880 0
2156 -53 0
-3649 3352 0
-2360 -1532 0
-1560 3245 0
-3069 1100 0
2873 2083 0
-1494 3955 0
-1885 -3764 0
4266 -2328 0
-4193 3513 0
2933 4334 0
2241 -351 0
-3683 3473 0
-155 -2628 0
4751 -4721 0
1760 -3836 0
765 -1714 0
-1988 -4745 0
-1511 -2813 0
2789 -2758 0
-2290 2422 0
-2351 113 0
2965 -3380 0
-3824 4518 0
846 1319 0
-4162 4331 0
584 -3093 0
-1648 -2002 0
1381 2802 0
2917 -3262 0
-2792 -2811 0
-3239 3552 0
-4584 -4557 0
-446 2272 0
1220 1778 0
1832 952 0
-731 2466 0
1131 -2889 0
4176 -2069 0
-3527 -1602 0
-1912 301 0
3526 -2633 0
-2626 3376 0
3081 1405 0
3729 -1249 0
-2218 -1122 0
-706 1677 0
-2566 4039 0
2932 3923 0
-2058 1548 0
-4000 -1399 0
-4425 2411 0
-14 -1161 0
-1052 238 0
-1784 -4391 0
-4714 -2679 0
40 -4204 0
1258 -4338 0
-3836 -1993 0
459 -155 0
2656 1291 0
4692 2535 0
-2384 2094 0
4043 -759 0
-3309 -4162 0
321 3335 0
-3416 -623 0
543 1984 0
-362 -1921 0
1811 2094 0
2810 2194 0
-3576 -3958 0
-3524 2483 0
-4088 -3614 0
-3675 3313 0
-3221 -2198 0
-2719 669 0
76 3607 0
-1849 2480 0
4723 -2034 0
-751 2171 0
-331 -1949 0
548 4616 0
-3369 2678 0
-262 786 0
576 -2361 0
2418 62 0
-4430 477 0
-1249 5 0
-2835 3847 0
4311 -3082 0
-3598 -3298 0
-2849 1338 0
-4131 4177 0
-2353 1122 0
433 -896 0
-3939 -1242 0
3856 4630 0
-1996 1830 0
1185 1805 0
-2095 -1862 0
-1328 827 0
-3787 930 0
4439 981 0
-3739 1037 0
-3111 2136 0
-2798 2308 0
-4323 741 0
1350 -2381 0
1751 3506 0
-2994 3428 0
-4480 4524 0
3909 -3474 0
-3610 -497 0
-398 -2696 0
-1796 2286 0
4733 1383 0
1062 -1852 0
4699 -3453 0
2430 3008 0
-642 -2814 0
-4146 2623 0
-2272 1643 0
2595 -4081 0
-4466 4284 0
-2594 1560 0
-3811 2745 0
3981 1139 0
-605 -3772 0
-3120 -101 0
2656 873 0
4562 2716 0
-3913 2005 0
333 -1864 0
10 3393 0
-2355 4173 0
-1183 -2605 0
2357 -3640 0
-150 -4190 0
1330 2058 0
2381 -2608 0
-1413 -4131 0
3427 -4574 0
206 -1225 0
-2062 -1266 0
1850 184 0
1220 -1990 0
3106 -2574 0
-3914 2946 0
3117 4322 0
4211 4429 0
3930 -2577 0
4014 -963 0
-1594 -1171 0
3915 -2592 0
-2160 -4403 0
771 -4169 0
386 3805 0
2554 -1726 0
-3297 733 0
2150 2396 0
-2090 -2607 0
2071 -2961 0
811 -2017 0
-4349 2670 0
-4028 -1184 0
-3684 -1404 0
1206 -2421 0
2706 2542 0
-3816 2158 0
375 3213 0
3993 -2255 0
1531 3174 0
4060 38 0
-2640 -1444 0
-369 549 0
-2077 -436 0
-1739 3020 0
2150 -4439 0
-4155 3578 0
1831 4275 0
4723 4676 0
-3120 4565 0
-2592 -3161 0
-1434 -1910 0
-3880 -4145 0
-3271 4725 0
3299 -596 0
3264 1944 0
541 4153 0
-3484 4033 0
-577 -4236 0
2987 -2467 0
-1596 -1495 0
4548 -3889 0
-4624 4285 0
3511 3629 0
-2798 4090 0
-3558 -2019 0
-3134 -3998 0
-125 606 0
384 764 0
-1932 -3730 0
-3822 48 0
2483 4472 0
735 -1486 0
3168 3831 0
4366 -4402 0
-562 3153 0
-1689 3476 0
2193 -2826 0
-1252 -1680 0
3471 -2807 0
-3618 1283 0
4583 1919 0
20 -3801 0
1519 2515 0
1093 4548 0
-1591 270 0
-3286 -4514 0
1319 -3804 0
-2291 -1176 0
331 -230 0
3504 -2982 0
4079 2170 0
995 -300 0
2453 -1052 0
1805 1372 0
-955 1960 0
-463 1340 0
-2278 -3463 0
1710 -4151 0
1004 -3048 0
3413 -342 0
-4565 -2849 0
4290 -2918 0
-3499 1169 0
-2697 3967 0
-2457 -19 0
-2402 -1943 0
2037 -118 0
-3823 54 0
-1229 1338 0
3539 2348 0
2874 -3092 0
4309 -2890 0
464 -3735 0
1726 -2135 0
1318 1159 0
-4649 1250 0
-3852 -1610 0
1084 -1643 0
-3275 4297 0
-4340 -553 0
3070 2477 0
-2872 1022 0
36 227 0
-867 2662 0
2474 1013 0
-1498 -323 0
-3030 3106 0
-289 4106 0
-4082 -4307 0
2037 -4154 0
2701 3789 0
107 -2893 0
1281 -3846 0
4451 -2827 0
-1219 -3544 0
3463 2487 0
-475 -2936 0
-4646 264 0
-3902 3098 0
2326 -1062 0
1711 -4422 0
-4087 -4368 0
-515 1884 0
-2395 2575 0
4038 -4670 0
794 -596 0
3892 389 0
2125 3957 0
2070 -353 0
-1142 -4518 0
2966 -918 0
-225 -2579 0
4481 515 0
3699 -666 0
-4345 2064 0
-4551 1644 0
-4397 -2318 0
-2875 2667 0
-1846 2908 0
-2392 -3270 0
-355 -1851 0
3419 -956 0
3366 -862 0
-2021 2838 0
2842 -3857 0
163 -905 0
-2568 -2568 0
-4734 -3866 0
-1119 -3327 0
2121 -513 0
1004 -1280 0
-1628 3936 0
-1453 1954 0
-4217 -510 0
3848 -2715 0
1170 3138 0
-4359 -3580 0
3249 927 0
-980 -4681 0
4425 3711 0
2895 1870 0
109 4068 0
2748 -4104 0
222 -3633 0
2063 -66 0
-2837 10 0
4344 -1122 0
-3012 4659 0
-1722 -76 0
1974 1739 0
-17 -3064 0
1206 -1651 0
-1743 -4331 0
265 2140 0
3294 583 0
3717 -4533 0
862 -4057 0
4341 -3024 0
4206 -4649 0
2299 816 0
1343 2956 0
-2116 -1370 0
-4392 3776 0
2766 -4205 0
-425 3775 0
2699 -1035 0
-1538 2097 0
4560 -878 0
688 -3301 0
1765 3513 0
753 808 0
1153 -4490 0
196 1484 0
3311 -46 0
-824 -3255 0
-3490 -3817 0
-2758 -2740 0
-1232 454 0
3566 -4358 0
3086 -4557 0
-908 -354 0
361 3056 0
2530 -3379 0
-2187 2024 0
1764 -4609 0
3808 3008 0
207 4383 0
988 3167 0
115 -1240 0
-657 -1852 0
-2789 24 0
-3330 1227 0
-3558 -4583 0
3694 3325 0
2269 2823 0
-2117 1026 0
3277 3117 0
1087 -2138 0
917 1291 0
-2499 -4063 0
-1919 -4739 0
2386 1051 0
-1635 -1485 0
-3794 -3759 0
-4614 -3451 0
109 1582 0
-688 2638 0
-1354 843 0
4229 -1931 0
3162 4736 0
2352 4659 0
-2086 2764 0
825 -429 0
-442 3279 0
-1164 4225 0
-3711 -3722 0
-1949 -2569 0
3048 -2843 0
4252 -3983 0
3123 -2738 0
-693 2682 0
-156 574 0
3153 2240 0
-676 1572 0
-1654 -809 0
-2086 1827 0
3441 3290 0
380 -3722 0
1558 234 0
3797 902 0
-933 -2573 0
-1663 -3305 0
-1627 -4216 0
3174 -1605 0
-4302 -3178 0
-4186 -928 0
2552 -1444 0
1552 -2874 0
-1471 1500 0
-2257 672 0
-3385 4308 0
193 3151 0
-4426 -379 0
-1796 -1627 0
-2494 -1493 0
2297 595 0
-788 3804 0
-2162 -3247 0
2936 2541 0
-1607 -557 0
-2178 1205 0
-1640 601 0
-1684 4478 0
-4669 -4118 0
-1573 3215 0
1250 -1721 0
-2071 2764 0
-3067 4748 0
504 -765 0
2225 -223 0
-878 628 0
-2026 614 0
-2824 -3072 0
-334 -4738 0
-1368 770 0
-2544 519 0
-1271 -1948 0
-3547 4483 0
1064 -1553 0
-1238 3513 0
-2165 -734 0
-3923 1241 0
4006 -168 0
-101 -2533 0
1512 -3389 0
-3418 68 0
3158 -1295 0
-4711 2699 0
3221 -2121 0
2348 1526 0
1944 3954 0
2510 -1707 0
-2287 1607 0
953 -3226 0
4578 3498 0
-961 2659 0
961 1160 0
-1954 1889 0
-686 -2397 0
-3632 -817 0
3565 -4708 0
-408 -1174 0
-1055 -1312 0
-3526 -4451 0
-4235 1021 0
-3098 -3204 0
185 -3640 0
2902 -4028 0
768 2882 0
-2848 -1066 0
1325 3865 0
-624 -1381 0
-2155 -2751 0
220 2367 0
-4113 3090 0
1544 2695 0
2115 -1326 0
2145 910 0
2625 -2190 0
1420 2556 0
709 -2783 0
-3416 1970 0
-3502 -1480 0
2691 777 0
-3978 2827 0
1830 4506 0
1653 2285 0
1004 -176 0
-3519 -4013 0
1396 -2781 0
-3497 -3582 0
-2483 2410 0
-4569 -3759 0
1313 1279 0
3039 -1417 0
-1595 -3653 0
3803 -4048 0
-1756 1818 0
1674 1855 0
3854 2754 0
483 1567 0
-300 3417 0
3883 -755 0
-3057 3085 0
-716 675 0
-4075 -3950 0
-1416 901 0
1962 246 0
3639 -1062 0
-4677 1534 0
1863 2936 0
3120 -3216 0
1304 -3228 0
-827 -4075 0
1496 923 0
1006 4014 0
-1641 -3687 0
2428 2139 0
474 3996 0
4287 -3709 0
2569 1005 0
-4110 4232 0
-4149 -3755 0
-625 1500 0
-4355 -2526 0
3117 2173 0
1802 -651 0
4665 2241 0
4675 -1762 0
-2350 1699 0
1461 4193 0
-2463 -2527 0
-905 2655 0
1336 2757 0
-3841 -4458 0
3709 2289 0
-4321 -3152 0
-2074 95 0
-706 3575 0
4396 3164 0
4628 -2187 0
3823 -3180 0
2139 1509 0
-1041 998 0
4577 -1105 0
-2601 -2859 0
-3883 -476 0
-2640 -173 0
-237 2510 0
-4413 4392 0
3479 -2434 0
3085 435 0
3919 3535 0
3316 -2781 0
522 1311 0
3353 2945 0
875 -3933 0
-3348 -4658 0
-635 -4708 0
3084 4632 0
781 -2051 0
1152 -2881 0
2808 -1887 0
-2447 -3816 0
2138 -4368 0
3749 -4221 0
1984 -2970 0
-600 2356 0
-1516 -4179 0
3961 1025 0
-2248 -3748 0
1376 323 0
-4714 -2710 0
-2018 4111 0
-1748 1442 0
1669 1545 0
2495 3476 0
-402 75 0
-4195 -579 0
279 -2153 0
1311 -2882 0
4633 -3426 0
-1121 1546 0
245 3547 0
-759 -2915 0
-618 745 0
-3297 2666 0
3298 -2900 0
-783 1402 0
1767 -4215 0
3620 -1290 0
827 2935 0
-1222 -2644 0
1081 799 0
1836 1942 0
-1809 -2332 0
-2384 107 0
-3180 4620 0
-1039 211 0
-2481 -3384 0
2853 1698 0
-4491 3166 0
294 3577 0
2224 1009 0
-3301 -3343 0
-1244 -321 0
948 7 0
-3512 908 0
-2585 2164 0
-4006 -3378 0
-2596 3259 0
800 -2690 0
2873 3838 0
-350 -3414 0
1273 2575 0
-2349 -3081 0
-792 -1736 0
3696 1725 0
-2095 4136 0
-1015 -1491 0
-345 -4451 0
-4016 1005 0
-3312 -2171 0
-3224 1524 0
4531 4729 0
4008 -658 0
-824 55 0
316 -3391 0
-1689 2034 0
-211 -1670 0
999 4150 0
2316 -3495 0
2381 -2566 0
1370 3773 0
-68 3945 0
4723 -2942 0
2553 947 0
-1710 1183 0
-1659 2486 0
2693 2259 0
-60 243 0
1848 2264 0
1897 -2610 0
2837 -1415 0
-347 -1844 0
-585 -582 0
-4658 -1165 0
1334 -3187 0
1462 3072 0
3988 4548 0
3754 2524 0
-3060 -834 0
573 2233 0
4527 -536 0
-780 -4206 0
-3850 -4228 0
1371 -1824 0
-532 -1409 0
4353 1286 0
-4753 -1982 0
1405 -12 0
-4412 3771 0
4228 -345 0
228 -2836 0
-1147 2933 0
592 1762 0
4725 -2346 0
-809 -1521 0
3356 -3215 0
4596 -4210 0
2533 -4683 0
3181 2234 0
3789 -2427 0
-699 1366 0
378 4041 0
-1715 2453 0
-3651 981 0
-2677 328 0
2378 3388 0
-475 -4027 0
734 410 0
1932 -4092 0
-584 -4419 0
878 1344 0
-3094 -94 0
-596 3780 0
2894 3198 0
-2175 2797 0
-688 3284 0
832 -179 0
-2562 -4313 0
2928 -2585 0
1417 -124 0
2809 3332 0
4305 -1019 0
-4094 2940 0
-1351 -2520 0
1871 2944 0
3566 4345 0
3889 -4722 0
3041 -2160 0
-2008 -1731 0
2256 -1046 0
3566 -208 0
3071 -1073 0
-912 1295 0
2621 -2871 0
3622 -1243 0
2215 4554 0
-1177 -2656 0
-2442 2672 0
-3783 4631 0
518 -769 0
-143 -327 0
-2862 3881 0
-1924 1970 0
2679 1820 0
-4177 2164 0
1563 507 0
-95 4465 0
4051 2481 0
-1923 -1405 0
-3062 -965 0
-2129 1893 0
-4182 3383 0
1076 2967 0
500 -4621 0
3205 4341 0
1544 4755 0
3106 -1105 0
318 -1926 0
4098 2205 0
-4544 4060 0
-118 2909 0
-2914 -576 0
3068 -1518 0
-4430 -1011 0
229 -505 0
-3094 1210 0
3213 -2260 0
2448 2032 0
-4135 -3404 0
2342 -4378 0
1809 4724 0
-3687 756 0
3953 3456 0
1557 1930 0
-1175 1720 0
825 -2344 0
-3846 -2577 0
-1898 1588 0
4438 2734 0
-1455 3868 0
-3446 -2452 0
-1605 -2610 0
916 -3857 0
-1026 -3392 0
-1078 -1892 0
-1178 302 0
2497 -4260 0
-1184 4106 0
-4722 -2271 0
-386 -3835 0
-3757 -1498 0
1096 -1978 0
1830 4327 0
-3739 3291 0
-100 4317 0
1896 -3376 0
3091 -2872 0
-2896 -4122 0
1734 -4468 0
4335 -3840 0
485 64 0
815 3883 0
3437 -4506 0
-3204 -1281 0
2195 -2131 0
1476 -2018 0
2856 -154 0
4635 -3368 0
-4328 1838 0
3378 -1903 0
1880 -2835 0
-4126 2947 0
-1764 1063 0
-454 1701 0
-373 -464 0
-4385 2436 0
-4649 4537 0
1151 3459 0
-4649 -4190 0
4725 -3338 0
-3267 948 0
1237 -2403 0
1614 2608 0
414 3178 0
590 -892 0
-1492 4411 0
1681 4675 0
3725 1828 0
-153 2350 0
1890 -321 0
1308 2455 0
-688 1695 0
-2580 -1973 0
3806 4721 0
3530 1069 0
3894 869 0
-3362 4552 0
-1298 4259 0
-2915 3638 0
-3980 2298 0
26 -1937 0
4103 -2846 0
-2142 1858 0
3385 -3372 0
1186 63 0
3954 570 0
3531 -2837 0
-503 915 0
67 2783 0
-3132 -2992 0
1731 -2207 0
-2948 3336 0
1548 1898 0
4437 466 0
361 4073 0
-4437 610 0
1028 4691 0
2596 -1511 0
-390 2403 0
4655 3529 0
-1860 -2789 0
-2687 -3056 0
-412 -3087 0
4094 4673 0
1858 3016 0
-2532 3635 0
2025 92 0
-3618 -717 0
3441 2876 0
3743 3574 0
1824 -4079 0
518 -2658 0
659 976 0
-45 538 0
-2275 -3523 0
-3488 -2832 0
1074 1167 0
-4753 -2854 0
88 -1883 0
1849 -4739 0
-2565 2519 0
2004 4287 0
-5 -3263 0
-350 -3753 0
1767 3997 0
-1979 4121 0
2498 -4169 0
-2359 -4546 0
4486 -3424 0
3291 -749 0
3259 -723 0
1862 1234 0
3583 -4569 0
2180 -1385 0
2712 3334 0
-4613 -1140 0
3944 -1262 0
-2583 4133 0
-2310 -1709 0
4565 3798 0
293 -3083 0
-905 2935 0
-4741 3335 0
738 -2513 0
-2972 -4260 0
22 2459 0
3999 -3984 0
-1605 -821 0
4354 3546 0
-247 -320 0
-469 -3203 0
2694 2529 0
-2460 302 0
2200 1006 0
4313 -1064 0
1681 2997 0
2537 4520 0
-2439 2144 0
2666 1906 0
910 2886 0
4563 -2292 0
-2481 4271 0
-3595 2654 0
-2007 -1199 0
4647 -2548 0
-17 4727 0
-9 2809 0
1688 1065 0
-4067 2573 0
278 3781 0
-4220 4497 0
-726 881 0
-1982 -760 0
-1322 2820 0
2133 -770 0
-3128 -2874 0
-162 3387 0
1231 -998 0
1216 -3053 0
1198 1802 0
2554 -2585 0
2563 -2482 0
3180 -3522 0
2365 4716 0
-4212 902 0
-1654 -4190 0
-2871 -2222 0
-867 -2356 0
93 1818 0
-3422 -3807 0
3432 978 0
-879 -3235 0
-285 4358 0
-3607 369 0
826 976 0
-2837 1717 0
607 -3965 0
-1082 2610 0
-1492 -379 0
2296 168 0
742 3513 0
1567 2540 0
1175 -4153 0
-4110 1212 0
3626 4257 0
819 243 0
-3691 -4134 0
-640 -2654 0
1544 -1092 0
1576 -3552 0
-4366 -3751 0
708 -4074 0
3610 -2196 0
1196 3935 0
864 2398 0
913 3701 0
1855 -384 0
2473 2940 0
-2330 3289 0
-2149 1146 0
2510 953 0
4631 10 0
3366 -2089 0
872 -1707 0
-2045 -2996 0
3570 -4507 0
-3695 -555 0
4740 2653 0
3338 -1287 0
492 3298 0
4160 -2637 0
4755 501 0
-2333 4494 0
2891 -3654 0
-3222 4446 0
-788 -1486 0
-4527 864 0
-2788 102 0
1141 2937 0
288 864 0
-3347 1740 0
-2392 937 0
-1292 3513 0
2917 3340 0
4504 -1690 0
-1683 -1861 0
-1747 1520 0
3721 2507 0
-746 -992 0
2691 -3702 0
-2121 1240 0
1989 2333 0
-2070 -532 0
-820 680 0
-1834 -14 0
3994 2157 0
-2177 3349 0
-270 3388 0
-1084 -3414 0
-4653 1609 0
846 -3544 0
-2137 -2921 0
-2268 -4592 0
1465 -1467 0
-3823 -3234 0
1369 -4317 0
-1486 2160 0
-2696 -3921 0
4300 -2872 0
3335 -2942 0
-4550 -1173 0
2065 1956 0
-4048 4497 0
-2272 1447 0
-4752 -2369 0
2185 -672 0
3112 -1841 0
1697 743 0
-2527 -4669 0
-871 258 0
-2710 1574 0
-1208 3911 0
4497 3183 0
1093 -2353 0
4049 4498 0
-2229 2107 0
-4063 117 0
-1325 -2591 0
2203 -4339 0
-441 -4587 0
1098 2358 0
-2613 2130 0
-505 206 0
3701 -2475 0
4676 3213 0
401 1164 0
-1372 -1162 0
4694 -3615 0
-1495 2624 0
2085 -2745 0
2195 -3927 0
2788 -3461 0
-3322 -1927 0
-3199 3005 0
1300 -2103 0
637 -2423 0
-152 4102 0
3681 -1903 0
-4013 -722 0
-424 2521 0
4691 -665 0
-3447 4302 0
3292 4436 0
1830 -454 0
-2568 -2873 0
3474 2722 0
1450 -110 0
157 326 0
-1873 3475 0
2671 447 0
-1238 4662 0
-442 4519 0
-1117 2997 0
-4286 379 0
-4257 2347 0
-2830 -1217 0
885 -1314 0
1835 -2626 0
-4634 1188 0
-996 -565 0
-3879 -3707 0
2202 797 0
1340 921 0
3322 -4509 0
910 -3426 0
4739 4411 0
-1953 -3114 0
4620 -2417 0
-2327 -2999 0
1921 -3809 0
2466 2811 0
-2841 -1078 0
2457 3856 0
-1119 2441 0
-4234 1633 0
1291 -3966 0
4223 3327 0
-1012 -4083 0
-1259 -469 0
3141 3713 0
-4718 -4190 0
3778 4524 0
4064 -3374 0
-824 1169 0
-3398 -4625 0
1963 -1185 0
-1961 -4474 0
2411 -4467 0
1639 1540 0
-4390 1250 0
-4255 4369 0
1652 2652 0
-4437 -1607 0
586 -2532 0
1966 4609 0
3263 3049 0
-3350 2033 0
826 2322 0
-3536 -289 0
3477 -2327 0
978 -4746 0
3408 -950 0
2379 -738 0
-3424 -3878 0
-4565 650 0
1342 2530 0
1003 -2874 0
-1161 -4131 0
-647 -858 0
3772 -3741 0
3731 -2283 0
-1851 1496 0
4216 -148 0
-2633 920 0
-3616 2556 0
445 -4661 0
4301 -170 0
3564 1760 0
1000 713 0
-1368 -1495 0
818 3427 0
-959 2959 0
-433 -611 0
-2356 1396 0
779 2698 0
-3044 -1362 0
2779 -716 0
1274 -3116 0
1183 753 0
-2806 3301 0
-1989 -4303 0
-3135 2441 0
3293 -325 0
-600 -1434 0
2383 -4668 0
298 3488 0
4743 2276 0
-2013 -2864 0
4606 -1900 0
-3018 913 0
-1172 -2227 0
-1737 -3187 0
410 708 0
-2545 1949 0
4059 2745 0
-3326 -1626 0
1962 -668 0
-1112 -3138 0
-1844 -1403 0
2480 1361 0
708 2906 0
-2901 -303 0
-1861 2595 0
-51 -4476 0
-3404 4184 0
-2327 1620 0
557 3530 0
-2012 2159 0
3074 -4402 0
-3447 -1964 0
4147 -1319 0
3810 257 0
-590 -4101 0
3402 2961 0
-1305 1871 0
3374 3115 0
-4541 -528 0
-1514 1627 0
-3411 -917 0
2113 286 0
-425 -1228 0
2910 -2464 0
1422 -3617 0
-3742 -823 0
4214 -2905 0
-2832 2165 0
2683 -721 0
-4507 2108 0
-4609 73 0
1622 -4070 0
55 2834 0
-1205 3494 0
-3429 -1580 0
2249 -71 0
4288 2523 0
-2614 911 0
-3987 -3477 0
-2787 -3787 0
4017 -3894 0
4560 3043 0
2037 -3775 0
-932 811 0
1098 4392 0
-2923 -1918 0
4197 3351 0
-2154 4106 0
-4424 1990 0
2259 2780 0
5 -2579 0
-2629 4346 0
-1475 -2648 0
455 677 0
-1854 429 0
2386 3141 0
-3408 3449 0
3982 -625 0
-3030 182 0
-2882 2082 0
-1664 3969 0
-1968 3637 0
311 -3816 0
-81 4583 0
2436 -3392 0
-2472 -2470 0
-2413 -4588 0
-3199 2707 0
738 -1743 0
-2528 -2356 0
2410 -2890 0
3320 -2637 0
-2639 1618 0
1758 3674 0
2346 -4453 0
-2852 3042 0
3332 2951 0
-1903 627 0
2831 -4660 0
3326 2286 0
-314 -4384 0
206 -3456 0
2469 4544 0
-3169 21 0
-3352 -1000 0
-2633 1139 0
1578 4344 0
-2188 1273 0
-3629 -4316 0
4401 3069 0
-1278 4213 0
-724 -433 0
-488 1648 0
-1486 3945 0
-2239 3542 0
-3602 -2314 0
-1807 -865 0
-509 -778 0
-4616 197 0
881 -420 0
1955 -580 0
-1341 -3618 0
4336 -3285 0
90 -4351 0
-1867 935 0
4078 1610 0
3160 -2933 0
-2329 1894 0
-4614 -1378 0
2100 3734 0
-1988 42 0
3968 -1926 0
3605 -3879 0
2229 -4741 0
-385 -4369 0
605 -2357 0
978 1020 0
1785 -266 0
2548 -4010 0
-1562 -2392 0
-1536 4433 0
-3520 2279 0
-4184 -3302 0
532 -706 0
1619 -613 0
-3243 1428 0
-3313 -221 0
3563 -3899 0
2669 -2514 0
2311 -1946 0
4320 -2283 0
2775 2790 0
-1364 1393 0
-4077 -4702 0
-2900 -373 0
2269 -213 0
-4564 -3888 0
3219 -1480 0
307 -2691 0
-62 465 0
810 -456 0
-3059 562 0
-3907 477 0
-2621 -2676 0
-4451 -4264 0
4731 -3848 0
1033 -2553 0
1057 -3532 0
-3673 -2649 0
-2070 -1790 0
-4644 -965 0
2941 -2224 0
77 4300 0
-2454 -2994 0
272 -4249 0
-402 1190 0
-749 -1992 0
-1968 613 0
-4714 -3119 0
3014 -949 0
-3741 1925 0
4249 -4303 0
-4127 -732 0
-4447 1897 0
-1456 774 0
2396 3893 0
-4692 -1384 0
1181 -536 0
-1651 -452 0
3154 -4121 0
-1034 811 0
-2570 -949 0
-1449 -3411 0
-328 -3199 0
-667 2222 0
758 408 0
760 2411 0
-1823 -1257 0
3646 -3161 0
1792 970 0
-1110 -1417 0
-4104 -2075 0
-124 2153 0
-850 1887 0
3318 -4501 0
1642 -682 0
-533 -561 0
-3529 1500 0
-430 -2465 0
1058 4491 0
-692 2876 0
1140 -1885 0
2406 -3033 0
-3557 356 0
-4741 2185 0
-4139 -2269 0
-2692 2873 0
1370 -897 0
3790 -3680 0
1928 -1782 0
-3445 -49 0
4675 -4021 0
-3393 2978 0
464 -367 0
-2472 4404 0
2372 -3402 0
-4153 -1326 0
3352 -2156 0
3799 1075 0
-3284 2537 0
-3442 -122 0
-4683 -1042 0
-2497 -4040 0
4462 2530 0
-3146 -4200 0
4022 -1389 0
-3166 -294 0
139 2213 0
4187 1555 0
2324 -1389 0
2779 -3445 0
-4726 -1993 0
-621 1948 0
-1847 -1099 0
138 -1413 0
-4397 2474 0
-2869 -1866 0
-1703 124 0
2398 -2083 0
2017 1735 0
4427 -3433 0
-1178 -2200 0
-2908 2428 0
3179 -396 0
461 1526 0
1694 -2548 0
1746 3590 0
4154 -4317 0
4242 11 0
4544 4388 0
-655 -2881 0
1729 1656 0
-2361 -3980 0
2823 1492 0
1051 -3617 0
819 -3932 0
-4052 1401 0
-1772 3848 0
2729 -3296 0
2207 -1159 0
2683 -3258 0
4669 2984 0
3574 -4285 0
2901 -347 0
-383 -3291 0
-3375 -1079 0
3946 992 0
1098 3362 0
-1042 -1602 0
4138 3078 0
-4287 2106 0
-3713 -3647 0
-2138 -1544 0
-2010 -3812 0
-3101 -1397 0
-1670 3656 0
570 344 0
-1492 2844 0
-3469 4417 0
-1997 1371 0
-1216 1475 0
-2099 1422 0
1103 703 0
2535 3994 0
-1456 811 0
403 -2611 0
-1409 -3417 0
4277 -2928 0
3932 -4149 0
2165 -1626 0
-184 4371 0
2790 -1312 0
-3083 -630 0
1038 291 0
-4416 -3710 0
-641 2353 0
3355 871 0
1952 4184 0
718 -4542 0
-153 -4419 0
3875 -2450 0
678 -2625 0
-2992 -2247 0
-1459 869 0
-1214 -2189 0
212 3719 0
4312 4208 0
3574 504 0
3479 1421 0
420 -3278 0
-2287 -3613 0
-1335 -1056 0
-4683 3408 0
-2123 -736 0
-3434 -418 0
-4701 4063 0
1285 2810 0
517 -2887 0
-3737 180 0
3970 1725 0
1132 -3472 0
-2748 810 0
-104 -2747 0
3260 1759 0
-3439 3928 0
972 -43 0
4099 2502 0
4363 307 0
2169 -3632 0
-2813 -3101 0
-3890 -2498 0
521 752 0
-4501 638 0
-36 3623 0
-2013 3215 0
-2183 894 0
-3399 -4131 0
4113 2761 0
-4591 -3625 0
1897 568 0
-364 2418 0
-3677 -2270 0
273 -29 0
291 -1012 0
-1704 -1500 0
581 2448 0
-3076 -520 0
3763 -3596 0
-1203 1687 0
-1088 -3277 0
-9 -810 0
2826 -3092 0
-1823 575 0
2185 3684 0
-101 4662 0
-708 -2450 0
1384 -3832 0
-2675 4129 0
-3893 4483 0
-2803 3038 0
3352 -555 0
-4195 2362 0
4232 4748 0
3428 2519 0
-1834 -752 0
3341 679 0
-1173 2679 0
207 -1895 0
2392 3518 0
-767 -1222 0
2708 -2451 0
1783 -3154 0
2780 -1459 0
3345 -2280 0
-1633 2647 0
-3347 -3157 0
3203 2585 0
2865 4722 0
-2780 -1916 0
-3089 -1995 0
-3549 -415 0
-4424 1340 0
-58 -3625 0
-1062 3655 0
-571 3457 0
-1569 2269 0
3035 -3809 0
-4214 3504 0
-3750 3921 0
93 88 0
-4337 -2528 0
3504 -1828 0
-2229 -3237 0
661 1191 0
3684 -855 0
-4324 -1103 0
991 1018 0
-1826 -4262 0
2966 -4375 0
3033 3008 0
-2475 -4517 0
3340 3514 0
1556 -417 0
-376 215 0
624 -3943 0
31 -3204 0
-3606 -3836 0
2836 1655 0
3175 -2638 0
694 538 0
1445 4689 0
4714 1507 0
435 2605 0
3887 -767 0
4454 2063 0
1846 830 0
3395 4302 0
-3514 3490 0
1316 -1602 0
388 -3435 0
4048 -600 0
4343 -757 0
4627 -1925 0
-2285 -3800 0
1526 2203 0
4358 -1980 0
706 -169 0
921 1545 0
-716 -1823 0
-2426 -1788 0
-4588 -154 0
-422 -426 0
3522 2691 0
-2958 4502 0
2036 3956 0
-2916 -4701 0
2393 543 0
-1507 -1205 0
589 -4681 0
-2539 -2285 0
-2137 -1457 0
2719 -3401 0
-665 -2019 0
-1150 550 0
1957 -407 0
-1602 -878 0
-2946 -3053 0
3734 3803 0
-455 712 0
-1547 3961 0
1090 4291 0
1940 3568 0
586 1841 0
508 -3240 0
-225 4230 0
-4474 1580 0
2240 -1266 0
-51 -68 0
2284 -97 0
-1584 2182 0
-3528 2546 0
1920 2111 0
4668 -2649 0
3773 -4034 0
-4471 2730 0
457 4083 0
3221 312 0
3338 330 0
-2870 762 0
1130 -2335 0
-2484 -4702 0
3833 1588 0
161 4101 0
998 3775 0
326 1081 0
3625 4108 0
-4468 3628 0
-3237 2202 0
-1562 -2528 0
-311 -4493 0
-4 1197 0
-1306 1566 0
1253 -118 0
-1935 2890 0
-3389 -3890 0
-3825 2856 0
2745 -618 0
-2934 -587 0
3790 -3901 0
-4018 248 0
-2891 146 0
-3791 1207 0
177 -4160 0
-2953 3387 0
-2592 -3052 0
-29 865 0
-4614 -3996 0
3432 2778 0
1037 1778 0
-770 303 0
576 -3461 0
-838 4499 0
-3148 3601 0
4586 -3159 0
-3169 -3491 0
470 2766 0
3517 1383 0
-1986 1528 0
-2401 -1551 0
3971 -2043 0
-3855 -1453 0
2107 -1426 0
-4679 3966 0
-2394 2598 0
4474 1444 0
-3049 4415 0
2962 -1312 0
-1788 -4361 0
-4593 -4050 0
1973 -4470 0
-263 -153 0
1201 1123 0
-3536 1360 0
-833 2509 0
-1770 3739 0
-3026 4072 0
-3610 -2695 0
-3369 1703 0
-3135 -2120 0
3226 900 0
94 3856 0
2368 -977 0
4326 -4181 0
-2783 2588 0
2784 1603 0
-2962 -2579 0
-3180 -1423 0
-3524 3096 0
183 1999 0
-404 -11 0
1710 -4296 0
2740 -4664 0
-4414 -1115 0
2485 3084 0
-417 -3677 0
2107 3654 0
2362 105 0
-3510 4715 0
4198 -3354 0
-2608 4220 0
-4194 2127 0
-948 -1097 0
397 4613 0
3449 2098 0
-3229 -4005 0
-786 951 0
-2919 -670 0
3816 -1885 0
4161 4188 0
-3016 -570 0
2780 -893 0
-3729 -2019 0
-3483 -1104 0
825 312 0
1143 -4145 0
3286 -997 0
-3182 -502 0
3026 900 0
-857 -3143 0
-2895 -3204 0
-1539 1036 0
-3791 1641 0
-1838 1100 0
1834 -4134 0
-3065 -4732 0
546 -121 0
4505 -4010 0
15 4180 0
607 -298 0
1536 -2566 0
229 -97 0
-2081 -1356 0
-2292 -2896 0
2142 2928 0
1384 947 0
-1785 6 0
-2602 -3903 0
1537 3584 0
578 1302 0
1236 3170 0
-2291 1559 0
-2554 3246 0
-1196 -1814 0
417 -2219 0
-3600 -2127 0
-2877 -1162 0
3699 -3802 0
3148 3097 0
107 -3188 0
842 4334 0
-4438 1063 0
-4699 -883 0
-2275 2807 0
2948 1565 0
843 -1527 0
1933 -3986 0
-4052 -2619 0
1673 -2937 0
-1130 3049 0
4085 -3641 0
752 1576 0
-4072 -1992 0
163 3213 0
-1873 -2668 0
-2258 -4074 0
-2493 4269 0
2263 -4328 0
3083 -1786 0
3638 -2891 0
-2811 -559 0
4352 -510 0
-1846 897 0
567 3802 0
-3975 2363 0
-4610 -2104 0
-1282 4628 0
-3178 -1396 0
1866 2797 0
-785 35 0
4230 -2101 0
-1025 -760 0
2813 3630 0
-4735 -4611 0
-1704 4248 0
797 -3480 0
2477 3965 0
-3528 -2252 0
1528 2135 0
-2676 -851 0
-3769 -727 0
-1464 -3731 0
268 2520 0
2086 2347 0
2041 3699 0
2443 -2353 0
61 -348 0
-697 2387 0
-2457 2413 0
4605 4545 0
-226 -4431 0
1422 2163 0
4068 -3062 0
-668 3206 0
3780 -2062 0
3794 2620 0
-3755 2915 0
3546 -665 0
1370 -1329 0
322 1448 0
4386 1198 0
4344 -3441 0
1993 303 0
-4460 4176 0
-640 4041 0
216 2475 0
-390 -3398 0
-2748 3037 0
2343 1831 0
-472 1107 0
-2323 -1522 0
-4373 4567 0
-4040 2613 0
4072 2333 0
2081 -4262 0
-1248 -281 0
-3762 -3296 0
1642 -3013 0
1621 4037 0
-3230 -2503 0
-4266 -3702 0
-4080 -1434 0
-1697 -462 0
151 -3143 0
902 1778 0
-1271 -808 0
-4386 1948 0
4002 -2202 0
-3923 -3917 0
-1640 -4128 0
864 -3835 0
3663 258 0
-2402 -1868 0
-2477 -3443 0
-3451 345 0
-3414 -115 0
2485 3583 0
-3071 -1333 0
3676 -4608 0
1733 314 0
-1503 1727 0
-1139 -2445 0
1473 2732 0
-257 797 0
1648 92 0
-746 -212 0
-4533 -1040 0
-133 -3413 0
504 -2281 0
1146 -2464 0
425 3959 0
3716 1369 0
1714 -4446 0
-3143 -1636 0
1385 3041 0
-2307 -1163 0
-1095 -1461 0
1359 197 0
-3203 -4173 0
3476 -3636 0
229 -3040 0
693 744 0
2722 -3194 0
2540 350 0
4544 -3752 0
-1012 3458 0
2285 3824 0
2592 -4481 0
-3455 -3948 0
4310 862 0
-2204 -2982 0
-2137 -4341 0
-4271 1324 0
516 3349 0
-4395 -1222 0
2074 -1016 0
-1810 -3433 0
2590 -4216 0
-35 3448 0
-2990 -3933 0
-577 2041 0
-1916 125 0
-2305 -3963 0
4418 -2564 0
368 3590 0
-311 -1264 0
1723 -4246 0
-2894 2033 0
-3204 3266 0
1189 -787 0
-1753 2703 0
1979 -4005 0
604 161 0
-3217 -3646 0
2114 -4522 0
-3842 906 0
-1008 -520 0
-582 2376 0
1726 -3339 0
-3764 -2251 0
4249 -4489 0
-2347 2033 0
3141 3425 0
-482 663 0
-1667 -4374 0
3942 3055 0
1311 -3412 0
1566 1561 0
93 -4511 0
2373 4347 0
-3254 -2801 0
-3381 151 0
259 -1720 0
1503 2910 0
-105 -1286 0
-3257 2342 0
67 -1819 0
-432 -4426 0
-698 -2062 0
3066 -2571 0
3936 -3614 0
2535 -2467 0
-4708 -3881 0
-2215 -3565 0
47 -3927 0
-2207 245 0
-4384 -2548 0
-1575 -3454 0
4734 -2720 0
1629 -3538 0
1109 -2439 0
122 2552 0
546 2969 0
2420 3322 0
-4167 -4376 0
-48 4438 0
-1128 -4362 0
3305 2260 0
3251 -898 0
-4319 -3432 0
-2606 4752 0
4084 -4646 0
-30 -2687 0
1519 -199 0
1736 -1112 0
-2962 -3851 0
3258 952 0
631 4381 0
-4205 4290 0
-3297 4178 0
-3649 -1946 0
-1525 588 0
-2409 -3708 0
3955 1756 0
2536 -3061 0
4022 1395 0
3522 1267 0
4673 -4597 0
1026 3706 0
-918 -2330 0
4508 3667 0
-2148 3728 0
-4478 3865 0
-394 -2577 0
4433 2125 0
2939 -808 0
606 -985 0
-3948 4122 0
2866 -2491 0
-1312 2322 0
-4495 1169 0
1944 2529 0
3326 1164 0
-3847 999 0
-2830 -3379 0
55 4724 0
-4651 3023 0
3138 2729 0
4565 2778 0
2611 -834 0
382 -4269 0
-3007 -1344 0
-4371 -3374 0
-3054 -2781 0
-3578 1960 0
1493 -263 0
3246 3168 0
2539 -2008 0
-3092 -2565 0
2692 1366 0
-2863 -2891 0
-1439 -3167 0
-3731 4298 0
2302 -4387 0
1942 -3877 0
-2848 -3766 0
-3075 -3573 0
2396 -483 0
1694 1449 0
13 -2576 0
-2300 1037 0
-1166 593 0
-1394 4041 0
651 -861 0
-695 -1349 0
1113 3208 0
-1579 -3019 0
-852 145 0
3571 -4335 0
-1556 4464 0
-2301 -2402 0
-3876 1431 0
762 4288 0
1130 -2221 0
-4346 -310 0
2595 4241 0
-2676 317 0
-2925 -1122 0
-369 -990 0
-4339 -620 0
1697 -3122 0
3290 -813 0
-2122 2740 0
3717 2064 0
-2467 -653 0
-2593 -286 0
-3354 -2229 0
-114 -4052 0
1008 3269 0
3160 414 0
3062 -148 0
3065 5 0
3225 -1796 0
-2974 3480 0
3859 -2084 0
4163 -2271 0
233 -3924 0
-4725 -210 0
174 -3357 0
1796 -3746 0
2776 -1735 0
-3080 484 0
2297 3669 0
2142 1392 0
-3288 -4182 0
-2347 -4110 0
-4719 3127 0
1892 -2803 0
-3315 295 0
1687 554 0
-3000 3044 0
2084 2578 0
2531 -4218 0
322 726 0
-2850 1418 0
1940 -209 0
691 -352 0
-3257 2834 0
4049 -3533 0
-1088 -72 0
-2117 3882 0
3042 -3292 0
-3218 3323 0
1644 -4345 0
3091 -126 0
-4111 -1916 0
-318 1179 0
-1074 -1437 0
401 378 0
-2911 -4409 0
-697 2765 0
-3518 431 0
-2349 -4077 0
-1139 -4650 0
-668 1556 0
-1680 3247 0
1630 3597 0
-278 2044 0
-1668 -3682 0
3478 3907 0
-4258 -1045 0
-3783 1684 0
1159 2623 0
1676 4154 0
-1242 218 0
-567 2403 0
3076 1140 0
-1861 -4066 0
-4714 -3236 0
490 -9 0
565 -1419 0
-1052 4086 0
-1853 -446 0
-2104 4354 0
4608 -3367 0
-1670 879 0
-2713 1371 0
48 2968 0
-3208 -2015 0
3942 75 0
-4412 -4058 0
3222 -4574 0
3276 2354 0
-4705 465 0
-2783 3008 0
2102 1960 0
-4204 -2076 0
4035 4059 0
-2800 -1280 0
-2936 1086 0
132 4717 0
1311 1689 0
405 4338 0
3410 -1652 0
3977 487 0
1080 1047 0
3392 769 0
381 -863 0
4111 -3549 0
-4557 3314 0
1399 4288 0
733 2695 0
4257 -3886 0
-2008 636 0
3095 -1644 0
1134 4348 0
-1159 -1620 0
-3922 -329 0
-3507 -4179 0
1280 1989 0
-736 1290 0
-1259 -4294 0
-2866 1338 0
2399 -1482 0
-4412 3342 0
-2067 3546 0
-1738 -3136 0
-4132 -1515 0
-3433 -4211 0
-2195 1448 0
3789 911 0
2178 -2566 0
-4701 -2697 0
1313 1301 0
-2350 -4271 0
-3243 -2916 0
-3528 2538 0
1466 1099 0
-916 3400 0
-277 2130 0
3823 2518 0
-2245 -3222 0
-770 -4455 0
3126 -1514 0
2035 2298 0
497 -3849 0
1141 3332 0
1761 -1156 0
3954 4730 0
3262 773 0
-605 540 0
2342 -3625 0
626 1892 0
-1713 4097 0
451 2722 0
1334 -1706 0
-354 -3634 0
288 -3200 0
-3044 -2858 0
3276 -3624 0
1914 485 0
2728 -3491 0
3629 -2890 0
416 -2541 0
508 510 0
-901 4658 0
-1335 1645 0
-3525 2946 0
3290 -4241 0
2228 -984 0
-1710 2944 0
1138 -370 0
3051 -1214 0
-4666 883 0
2868 346 0
-4455 -3060 0
460 -326 0
1285 -3439 0
782 405 0
-3293 3550 0
-2314 -2596 0
2717 -2909 0
-2561 3487 0
2533 3546 0
-303 -2725 0
-2608 3329 0
-3366 -505 0
3857 -1199 0
-1993 -162 0
-2638 1850 0
4540 -83 0
1073 -1463 0
-1396 -3416 0
4717 -1321 0
-372 -761 0
3077 -3396 0
117 -572 0
-3429 4457 0
-3430 3479 0
465 2197 0
3336 -2847 0
583 -2263 0
2702 -2637 0
-3700 -1174 0
-2074 2417 0
-1080 281 0
2170 2132 0
-4045 4682 0
2753 -829 0
1689 -192 0
-1570 -1363 0
3516 3784 0
-2871 -425 0
-3013 -3188 0
-2215 -241 0
3895 -2389 0
-3900 -1738 0
-4398 -1156 0
-1426 -1755 0
757 684 0
6 -1153 0
3225 -764 0
-1270 3177 0
-3730 -2090 0
-684 -4580 0
547 -942 0
-1836 -4192 0
3602 3639 0
-1213 -2464 0
-253 53 0
-2503 3420 0
1828 -2018 0
-2794 -3276 0
-4518 3021 0
2510 -2788 0
-2230 -4087 0
-2514 -4270 0
-1715 -3572 0
-2761 4439 0
3480 1158 0
-2452 3882 0
1713 -1529 0
3154 3813 0
-892 -3208 0
1268 2379 0
-4324 3539 0
-3095 -854 0
-4713 2116 0
-530 -4564 0
-1885 674 0
-2336 2983 0
-2879 -2130 0
-4069 4434 0
953 1448 0
3901 -4242 0
2050 -3616 0
1505 3083 0
1752 -4591 0
-1953 1586 0
-2066 3904 0
3322 1462 0
1738 3680 0
-1684 3759 0
-790 1727 0
4216 -4590 0
-391 2050 0
922 2499 0
2856 -2024 0
4671 -2594 0
-2134 318 0
3250 -3220 0
-317 -3888 0
4447 4472 0
853 -2291 0
1361 -3842 0
4295 -111 0
-892 -2447 0
1116 -2947 0
-2228 3308 0
-4160 3086 0
4112 2251 0
1765 -4201 0
4482 4415 0
-2190 -2272 0
-4463 -2672 0
3828 435 0
4380 -4109 0
3071 -4166 0
-1992 1610 0
-4050 -4429 0
-4732 857 0
3103 -4068 0
1113 2748 0
-655 4317 0
-3025 -1239 0
-2509 1816 0
1999 -417 0
3951 -3296 0
663 -4403 0
-3129 -983 0
1460 2749 0
1293 3170 0
1753 -3313 0
-4115 3333 0
537 -2258 0
-2283 -2380 0
2374 -883 0
1857 -666 0
-2192 -294 0
4598 -117 0
-4293 -2121 0
4692 -983 0
3518 -2543 0
-3792 2619 0
-126 -2423 0
-3517 4034 0
-4052 4483 0
2368 -4536 0
4448 -2147 0
-539 -4097 0
1817 -3075 0
-1604 3428 0
3938 -3339 0
2024 290 0
-1527 2197 0
-4076 160 0
-673 2611 0
3600 1495 0
-4191 196 0
791 2034 0
3645 119 0
903 248 0
2671 1237 0
2829 -1945 0
1272 -1345 0
-3097 -3243 0
1769 -4021 0
-2782 2534 0
4509 -2275 0
-2719 -3840 0
-2711 3476 0
-1349 606 0
3285 413 0
-813 2738 0
-4355 -3167 0
193 -3331 0
3698 622 0
-3541 -4360 0
-983 -4456 0
268 2092 0
-567 -172 0
-1463 2316 0
1372 654 0
3755 -4021 0
250 645 0
-1461 923 0
1924 -2491 0
-597 4288 0
3593 4369 0
1762 1857 0
4055 387 0
-3161 205 0
2616 1253 0
4383 -4653 0
1689 3369 0
3372 -1973 0
-784 -2111 0
1858 726 0
-2550 -3053 0
-803 -3319 0
2186 -4368 0
-2893 -3489 0
684 3301 0
-1217 -3411 0
-2114 781 0
2590 -4172 0
3121 -3864 0
703 4601 0
2531 -4148 0
428 2712 0
3494 -2932 0
-3178 -2046 0
1444 -2935 0
-3403 3804 0
2885 1891 0
2156 -937 0
-2989 177 0
-1296 1476 0
-2107 -3478 0
-2007 -3156 0
801 3219 0
1269 4301 0
4277 2358 0
-2109 -4293 0
3389 -1463 0
-270 -4356 0
4200 -167 0
2612 2031 0
-1783 1546 0
256 -4113 0
-2042 -653 0
-1218 2922 0
1189 -184 0
3432 4404 0
2555 326 0
2671 1040 0
2919 -1214 0
-1000 414 0
1764 133 0
-1217 -3517 0
1704 2379 0
-1540 -965 0
-666 660 0
-3016 4735 0
2625 -656 0
627 2543 0
-635 -1633 0
-3258 -1275 0
3291 2304 0
-3782 -2305 0
3542 3716 0
-3035 287 0
4340 -3472 0
-2138 -924 0
-3329 885 0
1956 205 0
2482 4238 0
-2005 -1307 0
656 4674 0
3583 962 0
-4280 -645 0
3994 -174 0
4446 -3613 0
4447 -1620 0
-505 4566 0
2981 -3225 0
3937 3693 0
-1415 3232 0
171 2430 0
-407 -3190 0
-1591 -1940 0
4619 4360 0
-3837 -1632 0
-4133 1932 0
2024 -2854 0
1814 -4035 0
2693 -4398 0
-4564 -2598 0
-3824 4106 0
173 -3839 0
853 -4304 0
-1866 -2328 0
4234 232 0
1675 -3269 0
4618 -3619 0
3690 464 0
2927 -4567 0
3173 -1353 0
2439 -4217 0
1926 2474 0
-1666 -353 0
2063 1303 0
1310 -3440 0
4152 2083 0
3022 -2744 0
-2307 -1298 0
44 -1904 0
-1957 -4523 0
291 -4657 0
3773 -3835 0
2553 -2596 0
1245 -3876 0
2232 1736 0
4173 4099 0
-2591 -4187 0
-1613 565 0
1520 4490 0
2090 -4224 0
1004 -4421 0
4628 -2322 0
4345 2222 0
4474 95 0
68 -3570 0
4526 1886 0
-1881 -3783 0
-2217 1512 0
399 570 0
2073 3689 0
-660 -363 0
3921 -4453 0
-2907 1919 0
-3844 -441 0
3616 2521 0
1014 -1358 0
-3703 -3049 0
2191 -4680 0
1680 1955 0
-3667 2075 0
2820 -448 0
-716 3300 0
-2628 677 0
2608 -3842 0
-4070 -4676 0
760 -1987 0
1527 1496 0
896 930 0
-443 -429 0
-890 380 0
-1734 2 0
3480 -2934 0
783 -1374 0
-3619 -1905 0
4224 -804 0
4355 -3860 0
1732 3461 0
3289 -2290 0
4291 -446 0
-1196 -2882 0
1948 4271 0
569 36 0
844 -923 0
301 308 0
1694 -2539 0
598 398 0
1380 2143 0
2789 -1329 0
-1116 -4100 0
-2576 231 0
-608 -4240 0
-339 -1061 0
-1605 -777 0
-1815 1843 0
-3933 745 0
-2103 -4352 0
4006 -2788 0
3758 2130 0
419 -1729 0
-2072 -4673 0
522 -2720 0
-1623 -3855 0
-4467 3415 0
-459 4571 0
2141 3942 0
1008 4736 0
3908 1510 0
-679 -4346 0
-1459 1519 0
2928 255 0
-1168 1552 0
3480 1664 0
981 -4271 0
1839 2321 0
4316 3733 0
-158 1011 0
-1396 1868 0
-2219 1355 0
378 2906 0
-2400 -4246 0
-2412 -3463 0
1366 3452 0
1048 -1702 0
512 1883 0
3168 -3673 0
-246 4243 0
198 2788 0
-2006 -1621 0
3322 3021 0
479 1492 0
703 -287 0
-4359 -3750 0
-3491 -1217 0
2643 3248 0
-1809 -4697 0
1253 4616 0
4182 -934 0
-1281 -4592 0
3859 2073 0
3407 3716 0
-3426 -1493 0
-3911 1516 0
3801 -3199 0
-1622 -528 0
-2804 2832 0
-2144 -1892 0
-4715 4224 0
2991 2761 0
-245 -3364 0
1224 -2176 0
414 -1007 0
3654 -2127 0
-3738 4458 0
1821 -4652 0
1317 -3773 0
4482 -3570 0
-1439 2540 0
3795 -1243 0
2173 1349 0
2279 3366 0
-513 2774 0
-106 -3745 0
-4096 4378 0
2433 -3263 0
-4242 -3878 0
-3581 92 0
4740 876 0
2535 218 0
2915 -1497 0
-3412 1767 0
-1084 -3145 0
-4209 -4328 0
4583 48 0
-2266 2390 0
-271 2254 0
-396 3075 0
-1128 4112 0
-3270 2444 0
-2245 -1335 0
3904 -1343 0
-2117 2110 0
-1052 3198 0
3073 -2435 0
2939 4287 0
-2579 2944 0
4494 3465 0
-1910 -1706 0
3131 -1845 0
-4158 -612 0
-4710 2733 0
2968 -3495 0
441 -1428 0
-3087 1687 0
1071 4293 0
3724 -1884 0
4220 3367 0
-43 -1073 0
-1889 1509 0
-4604 2692 0
-720 3749 0
-1329 259 0
-3035 -4074 0
3677 2974 0
4395 -631 0
-3296 -2648 0
4230 659 0
1650 -4726 0
3622 1132 0
2521 2368 0
3156 -3695 0
1961 -936 0
326 -1795 0
-2698 -2583 0
3862 -3125 0
3884 -1790 0
246 3475 0
-2616 4434 0
1093 -1793 0
-3502 4253 0
-3142 2767 0
2143 -1775 0
-783 -2050 0
-2273 -3495 0
684 3601 0
1582 3701 0
-2977 -261 0
-1593 -3151 0
-4271 3090 0
4161 3484 0
-1242 3259 0
2952 794 0
151 -2934 0
-1692 1942 0
-2328 -3399 0
3441 1343 0
-2795 -3434 0
1520 1779 0
2267 1015 0
-2471 -2480 0
-4089 1944 0
-680 3823 0
-2690 1060 0
3180 -509 0
129 -2091 0
3785 -1201 0
-4500 63 0
-3527 4444 0
937 -2895 0
3167 1765 0
2755 -2318 0
2396 132 0
-1293 3193 0
1234 316 0
1400 -3922 0
-799 3269 0
3792 4545 0
1479 -199 0
-2172 -3830 0
803 1976 0
2160 1219 0
4019 2945 0
2241 1390 0
-4318 3521 0
1854 -2889 0
3242 3838 0
-2589 -308 0
-3219 -2739 0
-4207 -4032 0
-4122 1765 0
-3840 -4324 0
4367 -1000 0
2080 -459 0
-3151 -122 0
-1934 -3391 0
2661 3027 0
3012 4752 0
-2466 42 0
-2451 -3144 0
229 4452 0
-2364 3706 0
1882 -2562 0
2501 1691 0
-4023 -1122 0
-2424 1537 0
-3769 308 0
-4221 1721 0
145 -666 0
917 -503 0
188 2308 0
-786 -1822 0
2979 2956 0
-3013 -564 0
639 -2286 0
3592 2330 0
2265 -4557 0
4539 -3715 0
-2448 -2891 0
-467 4505 0
-4597 2508 0
-2645 -290 0
-947 3290 0
3548 2481 0
374 -3827 0
-3331 -1457 0
-4119 3285 0
-666 2403 0
-849 1511 0
-1845 -1555 0
2004 2312 0
2106 -2578 0
4396 3600 0
-199 -3490 0
492 -2263 0
-1684 -1207 0
4435 3090 0
-1366 3328 0
-2985 984 0
-478 2990 0
-4738 -597 0
-1510 -1692 0
-2706 -398 0
1108 2478 0
-1281 -2268 0
-882 -1167 0
1603 1841 0
-3440 1821 0
-2280 3366 0
-3750 2776 0
618 -1031 0
2898 2936 0
4701 231 0
2120 2444 0
4622 817 0
-2155 2669 0
1426 -1455 0
3495 -1040 0
2946 -3175 0
-4256 -4698 0
-4664 328 0
695 3959 0
3573 -3697 0
1126 -3493 0
-441 4216 0
2345 1870 0
196 -4459 0
4738 -1787 0
-155 183 0
4010 831 0
-1308 -4413 0
4755 -4189 0
-4131 2261 0
-1603 3175 0
-3821 738 0
3233 2927 0
2745 -700 0
3629 1064 0
-3910 1635 0
-4426 -163 0
4312 -307 0
-4217 -3774 0
-3930 -3046 0
-2440 3962 0
215 201 0
631 523 0
75 -2631 0
337 -1458 0
952 -227 0
1427 1117 0
-905 54 0
-3004 692 0
-114 1623 0
2522 2354 0
4606 1828 0
1940 638 0
-1262 2028 0
607 389 0
-335 -1040 0
-1439 -1508 0
-3276 -1310 0
509 2670 0
4605 -2092 0
-951 3060 0
426 422 0
-1867 1906 0
3160 -2119 0
-2896 2367 0
-3516 3065 0
-421 -1400 0
-597 2893 0
105 1124 0
1093 -1640 0
-4075 -3405 0
-3442 3867 0
4273 4060 0
1658 2323 0
2368 -1480 0
79 4370 0
-2277 1583 0
1838 2057 0
2182 -1437 0
-1475 3339 0
3489 -3200 0
-724 2967 0
-3764 3408 0
-3906 3626 0
-475 -4019 0
3962 1863 0
-1612 -2884 0
2183 3407 0
4638 -4484 0
-3407 661 0
2070 2968 0
1766 -615 0
3410 1915 0
976 -2261 0
3980 2905 0
-1211 -4103 0
3225 -1808 0
3356 3003 0
3409 -3946 0
3311 4083 0
-1497 2364 0
4248 3794 0
-285 -2308 0
1708 3852 0
-3731 1614 0
-3154 -4099 0
-4470 -777 0
-3464 -1509 0
-4690 -1640 0
-4555 -2391 0
-1334 -1844 0
4549 -191 0
-3220 1778 0
3577 641 0
-3107 1018 0
3980 -2397 0
-4319 3567 0
989 1337 0
1618 2969 0
1805 2786 0
891 -1361 0
-2303 -329 0
2932 3048 0
-1290 3331 0
-4017 -682 0
4467 -560 0
-1325 3423 0
-960 1724 0
-3614 3431 0
34 4378 0
-80 3558 0
3107 -243 0
2 329 0
1563 2866 0
-3812 4268 0
160 -933 0
-3601 257 0
665 -4575 0
4722 1416 0
-4677 -4364 0
1689 -2770 0
3492 -1892 0
1327 -2252 0
3286 1624 0
648 -2562 0
4219 3383 0
-1476 -4489 0
-3583 3967 0
2398 1544 0
-1815 1154 0
-4285 4254 0
1964 1473 0
3235 -2930 0
2929 -1308 0
-2109 -4526 0
-2429 31 0
-1275 3193 0
245 2489 0
1909 -3767 0
-2465 -1354 0
113 994 0
1230 -4038 0
-3166 -1397 0
1480 -1879 0
1750 -2905 0
-1775 -3032 0
225 2917 0
-429 -4753 0
-2604 -3167 0
2142 324 0
-2130 1267 0
-4 75 0
-3099 -1075 0
2855 -643 0
1675 3108 0
4376 1851 0
-2183 4091 0
1253 1577 0
2647 3281 0
2416 -2670 0
3408 4653 0
2092 769 0
2210 -289 0
2638 4243 0
-1773 2797 0
1348 -35 0
3805 -265 0
-462 1422 0
2604 1918 0
-2585 1250 0
-3581 -3462 0
-1525 2195 0
-3269 -4474 0
605 2816 0
2590 1836 0
4422 -3392 0
910 1400 0
944 -3066 0
-3658 -2053 0
-4087 -1027 0
-1936 873 0
2505 470 0
-1073 -616 0
1622 3939 0
-645 30 0
3517 -1429 0
3798 -3520 0
1460 4141 0
4643 2575 0
-2841 4340 0
-270 -2706 0
1825 -3886 0
2272 -1354 0
-4088 -260 0
1422 -480 0
4618 3843 0
4733 -1232 0
-3183 -769 0
2088 727 0
-1929 3383 0
1450 -1943 0
-2631 -4643 0
2652 1327 0
-1548 3803 0
-4429 -4249 0
4223 4711 0
4521 -3022 0
-2459 -1415 0
3098 3649 0
1808 -4260 0
3864 -2864 0
-1596 965 0
2372 2607 0
-1508 1716 0
331 1344 0
-2683 -3046 0
1371 1720 0
3809 -3905 0
-3489 3678 0
3396 2403 0
-4275 994 0
-3125 4396 0
519 -147 0
-1567 2987 0
-211 -4320 0
2893 1512 0
-3825 2871 0
1851 -3269 0
4308 4660 0
-2251 -4591 0
-1156 3071 0
-2139 -707 0
-2000 2518 0
4415 1106 0
1748 2111 0
2084 -4237 0
-3731 3700 0
3305 1301 0
3662 -292 0
-1251 1352 0
281 2382 0
-2262 -1220 0
-1209 4008 0
-705 -310 0
3875 2530 0
4567 3027 0
1397 257 0
1369 -3322 0
-4661 -2613 0
-1517 -3227 0
-4233 1233 0
-3288 -896 0
-4393 -4398 0
-2282 -3271 0
-2099 575 0
-2753 3083 0
3706 -1961 0
705 3821 0
3552 3293 0
255 75 0
2204 2779 0
-1257 -859 0
-4528 -4032 0
-1462 4002 0
-2109 -1517 0
2071 3673 0
-2517 2440 0
-211 -111 0
-2973 -4080 0
-765 -3396 0
4275 3527 0
-1737 913 0
2942 -4325 0
4582 2112 0
-807 -4058 0
-2775 -1600 0
2027 -4251 0
4253 3040 0
4652 4391 0
2201 -4372 0
-3189 -4434 0
2925 4454 0
-4712 -3976 0
-3347 -254 0
-1749 -1778 0
3927 -4600 0
2 -4242 0
4747 -912 0
-3923 156 0
1077 -2139 0
-4596 -2278 0
544 -4285 0
-2724 384 0
702 7 0
985 2285 0
-1664 -1416 0
-2159 -2550 0
-4373 3823 0
1887 -943 0
-2234 4123 0
-3401 1985 0
3390 -1452 0
-1182 -1167 0
-939 -2379 0
-3623 2711 0
-2593 -3302 0
2234 4717 0
1929 -4152 0
4161 -1649 0
3173 -4283 0
2036 3398 0
-2581 -403 0
-2085 495 0
-3218 -477 0
1805 -62 0
-631 -178 0
942 -1590 0
-611 4411 0
-1467 4619 0
80 3786 0
-2300 -1703 0
2664 -3810 0
1512 2650 0
-581 -2484 0
-1092 -3851 0
4014 -1389 0
-1560 -2266 0
-2281 -2181 0
-2533 -4443 0
-129 -2901 0
4008 4481 0
-2235 1257 0
4426 3033 0
592 -3120 0
-950 -4478 0
-513 -398 0
4416 -3618 0
4036 2382 0
710 -1404 0
1204 3592 0
-3913 -3025 0
3400 -2581 0
3701 -4137 0
-4431 2628 0
-3291 -4117 0
637 -3541 0
4112 4423 0
-1587 -2603 0
-3810 2656 0
732 -4611 0
-163 764 0
2273 1367 0
-1985 -4328 0
1309 3320 0
2864 4197 0
792 -500 0
70 2248 0
745 -287 0
-1068 -2519 0
53 1672 0
4612 -1988 0
-950 450 0
-1990 -3916 0
4211 -4614 0
-417 1349 0
-2979 49 0
2717 2371 0
-2138 3892 0
4143 1688 0
-3119 -1398 0
4444 4628 0
3824 -3715 0
2474 3182 0
3815 -2785 0
1029 -2684 0
-129 2093 0
484 -2846 0
181 -740 0
1067 -649 0
-4188 4543 0
-719 228 0
2468 2222 0
-971 -3515 0
2269 2555 0
4721 2542 0
3019 2646 0
-3389 2142 0
-2748 1733 0
3665 -1112 0
1616 -1897 0
456 972 0
-97 -373 0
-2219 4183 0
-1508 -1562 0
4560 651 0
-4110 -4156 0
2941 1458 0
-3502 2779 0
-4458 3853 0
-2625 -4702 0
3247 -3590 0
695 -1871 0
-2408 2829 0
-889 4511 0
-2002 -4413 0
-311 -260 0
753 2029 0
-4453 164 0
-1666 -4529 0
-4107 -4337 0
1739 1400 0
4526 -3935 0
3630 -1249 0
-3720 -2662 0
2225 1163 0
-1864 1061 0
-4061 1924 0
-2957 4503 0
1977 160 0
-3761 -4471 0
1380 4260 0
1661 -2622 0
-2058 4012 0
1834 -181 0
-539 4540 0
3335 -4163 0
2987 3711 0
2985 -2799 0
226 4449 0
1494 -378 0
1175 1276 0
364 3069 0
4491 4428 0
-106 2204 0
-2960 2188 0
-3182 4003 0
4490 -3896 0
654 -358 0
10 2513 0
1209 -1410 0
-4299 -3456 0
-4699 -4541 0
-582 -1367 0
-494 -3024 0
4265 723 0
1328 -271 0
-3211 904 0
3945 -971 0
-1225 268 0
3843 -27 0
542 -4573 0
3232 1693 0
-223 -3481 0
-3172 -3206 0
-1852 2144 0
1217 1306 0
-2888 3889 0
3146 -1212 0
1930 579 0
-1608 -4345 0
-601 -1633 0
-157 2507 0
-2967 -730 0
-4195 848 0
-1965 2924 0
-3344 3844 0
-3688 -2769 0
3777 2845 0
-295 -142 0
4405 -1501 0
3562 4178 0
3685 -926 0
498 -585 0
678 722 0
1676 264 0
-2620 1093 0
594 3895 0
2055 3359 0
-905 2697 0
-463 1361 0
-725 3792 0
2094 1604 0
-4116 4185 0
-4713 2103 0
-1358 -183 0
3139 -3420 0
3385 3965 0
4111 571 0
815 2855 0
-44 -2343 0
-4246 -1036 0
-1920 -2977 0
3121 853 0
-4190 -1005 0
477 1892 0
2063 -3464 0
820 -3317 0
4646 -48 0
-2631 -3740 0
1830 4197 0
-2425 1826 0
4544 -3822 0
-3555 4259 0
2358 4474 0
3031 -2935 0
-3983 -807 0
-2360 1449 0
-4477 -3564 0
-3728 4603 0
4510 -2265 0
1866 -4325 0
-3243 622 0
3262 457 0
1947 3892 0
-4031 -2945 0
2366 -2940 0
-3996 -2442 0
1743 1207 0
-3601 3264 0
1689 98 0
2971 -3173 0
-189 1421 0
1930 -1730 0
3493 -1377 0
-1555 -3393 0
-3004 3183 0
3517 3113 0
-2432 -650 0
360 3085 0
3021 3429 0
1124 -820 0
-2970 -4192 0
-1952 -2011 0
-2408 -2872 0
-1854 -4629 0
1922 1009 0
-2493 39 0
-2947 -3639 0
4043 43 0
3899 -1807 0
74 2102 0
-2384 1502 0
2619 -3873 0
3160 -3673 0
-633 -709 0
3287 3027 0
-1199 2903 0
-45 -560 0
4576 -468 0
-2410 704 0
764 2390 0
-455 602 0
2708 -3637 0
-2132 3776 0
2721 -697 0
94 2655 0
567 2033 0
-1465 -2162 0
-613 -2912 0
477 2252 0
-1161 -3723 0
3963 -4096 0
1589 3487 0
-939 3363 0
-3914 -4619 0
2355 -312 0
171 2619 0
-4186 1381 0
1937 1838 0
-1491 3005 0
-3707 4024 0
-20 -3253 0
-1422 1020 0
-1357 4232 0
3768 -533 0
-278 4723 0
-1864 1552 0
-2011 -2637 0
4723 1053 0
-242 2078 0
-396 3025 0
-3110 2557 0
2289 484 0
-3446 313 0
1694 -261 0
109 -182 0
1323 933 0
-2888 -789 0
-1182 4321 0
-2956 4528 0
-734 395 0
-4653 -2949 0
-2503 1327 0
4657 -2272 0
-1592 3773 0
2026 -285 0
1433 -499 0
-3102 1305 0
2241 -3007 0
-363 2313 0
-3002 1938 0
2184 -4016 0
3333 867 0
1010 -360 0
-1700 -302 0
-2451 -638 0
993 -2765 0
-1131 -4680 0
3334 3989 0
1275 -4187 0
3161 -2121 0
4143 -4307 0
-501 -1952 0
-1637 4145 0
-728 665 0
-1045 3683 0
-70 300 0
-4234 -1537 0
1424 234 0
432 -3616 0
-2746 -3426 0
-4556 -1195 0
287 1890 0
4403 4748 0
-555 88 0
731 435 0
-2773 1691 0
-3948 -2119 0
2032 4143 0
-2042 -601 0
-2735 -3644 0
2040 -2908 0
1580 2546 0
-615 -1090 0
2304 -233 0
-3226 4377 0
473 996 0
-2616 2289 0
-2954 1076 0
2158 -3619 0
-4049 427 0
2249 2654 0
-612 -4705 0
2667 1876 0
-4600 4675 0
881 -1590 0
-652 744 0
4313 4044 0
-2327 4363 0
-888 -3323 0
954 -1790 0
3329 -974 0
-4661 -1285 0
-3524 3734 0
-3611 -153 0
-3497 3192 0
318 1169 0
-1796 1706 0
-4718 773 0
-3817 1170 0
-1704 -1649 0
-2043 -4108 0
-1506 -325 0
4104 1113 0
-104 -2830 0
1686 -4702 0
3308 1034 0
1682 90 0
4435 -3551 0
796 3501 0
-1194 439 0
4111 -2630 0
-3313 -2992 0
-3241 -2071 0
3196 -2949 0
-682 -3424 0
-790 -2247 0
2505 1764 0
-3520 -4077 0
-4325 1543 0
-2601 4733 0
-577 3855 0
3377 1950 0
-2566 3259 0
-1675 1412 0
4660 -3276 0
-1279 3291 0
1650 -593 0
-96 -2822 0
-447 4147 0
3938 3007 0
692 2282 0
-303 -4041 0
4455 4658 0
-335 2051 0
980 3042 0
-3397 1082 0
1385 1276 0
-3363 -888 0
-3229 3977 0
-1351 -143 0
1350 1491 0
-1069 267 0
-4463 4589 0
-2130 3322 0
2192 3988 0
-4276 1168 0
299 3938 0
-271 -2349 0
422 -841 0
-1952 2899 0
-4078 -2887 0
-1000 -985 0
3684 -945 0
-2209 -4407 0
2727 -3534 0
1648 -1632 0
2760 3393 0
-1994 287 0
4213 -3803 0
-3774 2889 0
1892 -3692 0
-468 1009 0
3040 -2432 0
-582 2455 0
1579 1316 0
-3266 2048 0
-4385 4567 0
836 -3985 0
1785 1512 0
-1752 -2297 0
-1188 -240 0
2818 -317 0
1736 4655 0
-17 -1522 0
1178 109 0
-456 -3633 0
3449 1382 0
868 1522 0
-1641 4370 0
4287 -59 0
923 4581 0
353 -4419 0
-1418 3627 0
-4604 2383 0
-1831 911 0
-3395 2780 0
-4591 -392 0
-4340 -3220 0
-2617 2677 0
1575 4523 0
216 -3790 0
10 3467 0
-1194 714 0
-1080 -2560 0
-4321 4156 0
4560 -973 0
-2564 -3185 0
-3379 -150 0
3353 1431 0
-775 2182 0
-552 3174 0
952 3079 0
-1963 -1101 0
3143 1256 0
-1659 1018 0
-1994 4650 0
3113 -3314 0
1974 -763 0
3619 1340 0
-817 -3204 0
3244 -1091 0
-4637 -1913 0
3880 -2297 0
3124 251 0
3756 1679 0
313 -4708 0
4347 -3880 0
-2792 -2663 0
-4371 1935 0
1291 -597 0
-1333 -3166 0
4370 3798 0
-919 237 0
-3173 1951 0
2878 -4319 0
3650 3052 0
-237 814 0
-3213 766 0
-2755 1291 0
1679 -2544 0
-3767 -3227 0
-3178 1970 0
-4295 -3099 0
-2124 -2690 0
-1934 4405 0
-3490 -1089 0
-3165 -3692 0
3370 3685 0
2354 3496 0
-3833 -1100 0
3005 -2857 0
-1553 188 0
-4281 612 0
-3737 4099 0
4404 2363 0
-1982 -555 0
-2511 -336 0
2814 -4514 0
366 -4502 0
507 2943 0
1347 -45 0
-2577 -470 0
-2671 -4574 0
257 -4709 0
1236 1666 0
-1110 3170 0
479 -3517 0
-781 -1775 0
-1700 2238 0
2277 -3132 0
3906 3777 0
-3694 -3836 0
-2759 32 0
-4627 -1035 0
-4686 -3356 0
836 3848 0
1005 -2791 0
-4421 519 0
204 656 0
-2416 2557 0
2585 -212 0
-3549 3330 0
3465 2727 0
1402 2522 0
1955 4146 0
2868 -318 0
-1968 986 0
-4607 4379 0
-1185 395 0
-1873 2242 0
-2603 2145 0
-3293 3578 0
-2334 -3847 0
215 1561 0
2931 -471 0
-1921 -362 0
-4349 -1710 0
1269 2646 0
-3444 4099 0
3844 -1006 0
4263 -1674 0
-2857 -3579 0
-2817 -2049 0
2906 3994 0
4108 -2019 0
-2858 -2125 0
2536 2599 0
201 -1657 0
-2090 -3811 0
4555 1580 0
-3203 1580 0
3223 -1036 0
4608 -1148 0
4108 3110 0
1543 256 0
-4491 -3821 0
900 -2668 0
-377 4498 0
789 -4537 0
-1240 481 0
-1085 -2964 0
-2182 2786 0
-4561 1498 0
-2123 -3930 0
3578 3541 0
1207 4362 0
859 -1521 0
-2504 -1306 0
4369 4115 0
2391 1244 0
-632 3321 0
3457 -3388 0
-3829 1635 0
-3830 568 0
-555 -4369 0
-1377 -2196 0
1768 -2451 0
-4341 -4591 0
2289 2197 0
1330 2810 0
-2910 1046 0
3396 -2491 0
-1308 1573 0
-4484 1443 0
-1547 -989 0
2573 389 0
827 1738 0
546 -787 0
2279 -85 0
593 3475 0
-3671 -2742 0
-1967 2469 0
1038 -2351 0
-2773 -4614 0
-1814 -1663 0
-1685 3511 0
-3017 -279 0
-2775 -3909 0
-2620 -2913 0
-2620 1007 0
-1978 2486 0
3583 4521 0
-3656 -4147 0
-2499 -4362 0
3046 52 0
-2432 9 0
827 -4007 0
-3133 898 0
1124 -2411 0
2563 -4079 0
628 3620 0
3233 3815 0
-4384 3263 0
3954 3870 0
-1395 -2663 0
-4149 -71 0
-3576 4253 0
3117 -1966 0
1223 380 0
-1416 2556 0
3429 1192 0
-2793 -426 0
-4299 4607 0
-4011 1920 0
4152 -3453 0
3360 3805 0
2856 -2521 0
-2562 -189 0
-3923 1899 0
-2402 -291 0
-2654 4684 0
-3933 -2109 0
-4516 352 0
-3136 2152 0
3047 -2618 0
1447 482 0
1917 -555 0
2069 157 0
699 -2423 0
4024 -3101 0
-1885 -3897 0
3904 3736 0
-134 -3068 0
3217 1687 0
-2818 309 0
1693 -1955 0
-2657 1280 0
969 -1991 0
-1404 4306 0
3673 3945 0
3233 963 0
-1646 3449 0
-2510 86 0
2694 1635 0
-4387 -3245 0
1610 988 0
-590 3112 0
-4311 -4126 0
2647 835 0
-1027 -203 0
-4 -1833 0
3549 -1418 0
1014 -70 0
4717 2581 0
3209 -367 0
-3846 3838 0
-4238 -4719 0
221 -905 0
536 -125 0
-4512 3090 0
-80 1762 0
4628 3879 0
914 -745 0
4366 3705 0
4446 -1581 0
761 1799 0
-4126 4547 0
-1065 1179 0
-1916 -3566 0
-693 3182 0
2031 -1134 0
4494 -1387 0
-1960 3196 0
1679 -572 0
-4449 -615 0
395 -4385 0
978 -1581 0
-1249 3277 0
573 271 0
-3961 -3985 0
-1447 -919 0
-1909 -3096 0
-171 2214 0
-585 976 0
-4001 -3835 0
175 4594 0
436 1519 0
843 -1744 0
-3164 947 0
3788 690 0
-893 -3440 0
4124 4334 0
-3016 -562 0
1125 -2357 0
1485 10 0
1191 4417 0
-1166 1202 0
-1648 3333 0
-3374 3305 0
4297 4555 0
1424 -3847 0
3816 -1163 0
-3518 1262 0
515 -2734 0
-1612 -240 0
-3299 3592 0
-1342 -3444 0
1099 -2982 0
306 2335 0
-2690 2892 0
1207 4153 0
1157 2032 0
561 3718 0
597 -1916 0
-3734 2285 0
-1899 -2723 0
4168 4270 0
3925 1295 0
909 2786 0
731 -3314 0
1771 1675 0
3698 -3522 0
2619 -2188 0
-3812 -3790 0
-3769 1655 0
-3710 -633 0
-4715 -405 0
-1219 3793 0
1431 2900 0
4465 2999 0
3395 -531 0
-260 -1868 0
-1352 -1249 0
3405 -1751 0
-1700 4476 0
-2131 454 0
-273 -1962 0
2468 -1464 0
4367 -631 0
-2058 4241 0
-3154 2599 0
-2034 268 0
486 2698 0
470 4162 0
3125 831 0
-3795 -2522 0
4265 -532 0
137 -1368 0
-3730 1844 0
-1632 -4268 0
-1547 1395 0
-2155 1519 0
4125 2750 0
-4136 857 0
-1501 -3720 0
3770 -3572 0
-352 -2279 0
2945 2438 0
-748 -1864 0
3972 -3276 0
2422 3234 0
2948 -3849 0
9 -3831 0
4483 192 0
-4539 -4566 0
1427 -4477 0
-2620 -629 0
-3495 2632 0
-1475 3013 0
776 -1755 0
1942 3364 0
-4234 -2238 0
-3804 -340 0
-680 -4321 0
2974 2094 0
2195 -1878 0
665 -3689 0
2758 205 0
43 -635 0
-1450 -3672 0
-2671 -550 0
3879 -717 0
2573 -3913 0
-1963 4277 0
251 -4243 0
-3063 -3329 0
4441 2438 0
857 290 0
-40 -23 0
186 2548 0
-4239 960 0
1219 3604 0
-1363 3055 0
993 3159 0
4405 986 0
-2217 2775 0
3261 -631 0
-2405 281 0
-624 -2563 0
3354 -3712 0
2277 -301 0
2752 3777 0
2367 345 0
1837 3490 0
1793 -4071 0
4443 2590 0
-1184 53 0
-3441 -3274 0
1391 1895 0
768 4197 0
3949 -16 0
2581 399 0
559 1210 0
-411 -4702 0
-2150 -4643 0
2557 4544 0
1006 -212 0
-2739 -3878 0
-2413 -769 0
-1835 4645 0
-3105 108 0
1486 401 0
-471 -297 0
3559 -3217 0
-4109 -4741 0
2613 -3621 0
88 -2858 0
-4541 -3636 0
3733 -4110 0
-708 -517 0
-2364 2997 0
3612 2289 0
-584 -2401 0
3573 -478 0
-2803 1108 0
-1019 -4380 0
-2581 -3150 0
-1539 1395 0
-860 -3386 0
2374 4288 0
1840 -2874 0
-763 -4318 0
-730 -3374 0
-3047 -1777 0
917 -2057 0
1836 -4424 0
3937 3131 0
-1885 -3658 0
-4221 4395 0
-4019 384 0
-6 671 0
2613 1896 0
3244 -1776 0
-4522 -3953 0
-3081 1290 0
3682 -3239 0
1573 2455 0
-1136 3633 0
-1197 385 0
3037 -3258 0
-3635 3688 0
3854 308 0
-4492 -495 0
3457 -4529 0
-1505 4310 0
-2259 3464 0
459 2722 0
-1534 -84 0
-2772 -3058 0
-4015 2716 0
6 -1797 0
3383 -4074 0
-2971 -688 0
-877 15 0
-3961 -412 0
3327 -2541 0
-1925 -1236 0
3668 896 0
4728 -362 0
4302 4111 0
-3404 357 0
1998 2155 0
-205 -444 0
-795 1276 0
-4574 3844 0
4055 -539 0
-3913 -787 0
3727 2168 0
1258 3530 0
-2760 -1674 0
-171 -4023 0
2266 -3827 0
-4272 3098 0
-2381 -3378 0
1759 -3319 0
2568 3028 0
-1061 -595 0
3823 -3488 0
-1508 4567 0
-4359 592 0
374 -4388 0
3721 -3220 0
3650 1987 0
1025 -1682 0
2541 -3178 0
3756 646 0
919 2233 0
-2033 66 0
-3274 -497 0
-164 -3907 0
-3119 -560 0
-691 1884 0
2742 2753 0
-3534 815 0
-2493 2754 0
-4159 -500 0
-1078 -1115 0
-234 -4558 0
-2525 -1483 0
4055 1624 0
2071 -4149 0
-2779 2831 0
-1916 1751 0
-2214 -1411 0
-3759 645 0
-4159 -996 0
-3381 3863 0
1751 -635 0
-4727 2666 0
4097 -4153 0
543 -3562 0
4490 -780 0
-936 390 0
3062 3409 0
2667 -676 0
4404 -3613 0
2918 265 0
-4466 2709 0
-1475 -3995 0
2075 -1028 0
1357 1083 0
2815 -3452 0
4545 -141 0
-3182 -1195 0
-250 4548 0
-532 -2131 0
-1495 -3071 0
-3891 4185 0
-4407 2696 0
2000 -3614 0
-2220 795 0
-322 3939 0
4602 -2503 0
4700 446 0
-468 -943 0
1699 313 0
2657 -2734 0
-4025 -4209 0
-4182 -3520 0
-1360 1427 0
3303 -2268 0
-1422 3098 0
-3470 686 0
-2217 -2306 0
-4480 306 0
2722 -1904 0
1010 436 0
3622 -2230 0
-3797 -4139 0
2535 904 0
-4325 4499 0
1841 -2797 0
1473 -2725 0
4710 4327 0
-2668 -473 0
3649 1301 0
938 188 0
-1012 1470 0
-3302 3847 0
4092 287 0
-2228 -4436 0
4431 620 0
1930 2380 0
-1382 -1634 0
710 -4555 0
3796 1173 0
1878 -3145 0
1764 859 0
-2539 662 0
2985 -2744 0
-4412 3799 0
-1472 -3742 0
-975 172 0
-2843 -4663 0
3240 -2860 0
160 2809 0
-2077 4118 0
-3759 -1677 0
-2534 -1569 0
1022 -72 0
-2841 -3587 0
-3319 -1374 0
-4188 -71 0
-1543 1136 0
-1568 706 0
2168 2181 0
1505 329 0
-3001 -1956 0
4742 3749 0
133 2238 0
643 -2539 0
3090 -2905 0
-709 1058 0
753 -2979 0
-2229 2681 0
4401 -1781 0
4605 3123 0
4207 930 0
2764 -801 0
-4681 -2858 0
-3243 271 0
2667 -1036 0
-4231 -3116 0
-566 1644 0
2879 -1440 0
3674 3643 0
-559 1832 0
4099 1487 0
1277 -3779 0
2937 3165 0
-1967 992 0
3513 -317 0
4279 3852 0
-4623 -3513 0
1618 -2481 0
1520 -706 0
2399 -1957 0
-78 3575 0
4383 -2873 0
4452 -3822 0
-2157 -4616 0
2571 1705 0
-2894 2111 0
4259 4042 0
202 1007 0
-2845 -3872 0
743 361 0
-3307 4476 0
-1093 815 0
4061 -1331 0
-3733 -3287 0
3081 2722 0
-2998 1338 0
3637 4115 0
213 1349 0
-1170 -4303 0
-3741 -4664 0
3847 1055 0
-4657 748 0
1962 4038 0
-1178 -4031 0
-231 4327 0
1084 2836 0
444 2083 0
4470 -1563 0
2957 -2900 0
540 4554 0
2350 -2776 0
-3460 -3122 0
-3574 2004 0
1672 3290 0
-4715 -1044 0
-167 -1804 0
-3425 874 0
-4062 1880 0
-3274 4540 0
-805 -2792 0
1170 -1307 0
-2164 -3832 0
4415 4246 0
-3707 -4742 0
-1922 -183 0
-3543 -2 0
4699 937 0
4345 611 0
-2916 873 0
-2564 -1550 0
2007 -4436 0
-964 -4331 0
-2798 -1445 0
-2697 2891 0
-3802 3325 0
-480 -3888 0
3416 -4 0
-142 -2365 0
532 1107 0
496 1510 0
3102 -3015 0
853 2263 0
4742 1376 0
2387 -3148 0
-4651 54 0
-3050 2519 0
-3624 -1891 0
-3666 -862 0
4359 288 0
303 -3266 0
2094 380 0
2284 -1893 0
-3540 844 0
-3376 2653 0
2041 -571 0
907 3885 0
-4231 579 0
-1726 -1072 0
-3926 -293 0
-560 3281 0
-296 -47 0
-3852 2057 0
4064 -3936 0
-3080 -1651 0
-451 -2565 0
3101 2277 0
658 -1314 0
-464 -2140 0
3108 -471 0
1047 1233 0
-3459 -2190 0
-162 2086 0
4388 -4068 0
-2449 3976 0
-497 3516 0
2231 -1117 0
-1464 -285 0
2770 -2735 0
-4672 862 0
4606 -80 0
-3632 1951 0
-3588 899 0
4234 3749 0
-3543 1870 0
2465 -990 0
3542 2410 0
2287 2924 0
-3640 925 0
-2302 1843 0
826 -1279 0
3530 2811 0
-3172 -2931 0
-3774 2805 0
-3751 -4149 0
3303 -1170 0
3559 -505 0
4435 3199 0
3124 -665 0
-1123 3887 0
465 4121 0
3814 -2320 0
3487 -571 0
2957 2590 0
453 4238 0
-3272 -1093 0
-1538 -647 0
4664 2823 0
-1788 -4480 0
-3896 1708 0
-4519 -2517 0
1758 -1432 0
-131 -4139 0
4380 602 0
3871 2349 0
-724 -840 0
-255 -350 0
-1012 -1200 0
-3604 -1578 0
-503 2336 0
-2777 2280 0
-3082 2261 0
-4501 1421 0
3983 -1629 0
451 -3362 0
-4236 -1872 0
2057 -3854 0
1214 3753 0
52 4662 0
-4535 2507 0
-1244 445 0
-1786 1870 0
4438 -1385 0
-161 -2545 0
-2624 -1528 0
3788 4453 0
-730 -4314 0
-4753 -2980 0
-3558 -4415 0
-1097 -1285 0
2973 1572 0
-1913 3401 0
-377 -914 0
-2574 -1798 0
4137 2060 0
-2415 1991 0
-1475 2940 0
3719 -2733 0
2563 -4197 0
-444 -936 0
-4068 4348 0
4084 4317 0
2990 1724 0
-782 1946 0
-1243 -1336 0
1667 -319 0
1003 1332 0
-3745 2497 0
4673 3949 0
-739 2756 0
4082 733 0
2277 -301 0
-2682 3175 0
3865 4258 0
1391 -4578 0
732 -2648 0
118 -1715 0
-2846 -484 0
-1161 -2457 0
-2401 4199 0
-1697 4024 0
-251 -2963 0
-4752 4665 0
-3035 3168 0
-3314 3155 0
-4393 -3011 0
2225 -4477 0
-3890 -1213 0
-2687 3519 0
551 315 0
2588 -1865 0
1574 2057 0
433 -4443 0
-566 -4408 0
-3634 -2072 0
3554 -1194 0
-4106 -1228 0
1894 -4518 0
2034 -4747 0
-2821 -2279 0
-4499 -1762 0
4112 -3970 0
2260 -555 0
-4734 107 0
3489 473 0
2961 -4662 0
-105 -1329 0
4435 4518 0
-4661 -2635 0
1640 -1318 0
2102 1526 0
733 744 0
810 235 0
-740 -1139 0
3883 542 0
3407 2627 0
-3266 2675 0
-4145 -4388 0
-1556 -4568 0
-3496 -2473 0
-3970 -603 0
-1842 -3441 0
1915 684 0
3989 4100 0
-2369 -2770 0
768 2790 0
2035 -1859 0
-1432 -2415 0
2062 713 0
57 -4663 0
-4626 1380 0
4009 -2793 0
-3386 -3075 0
3158 3912 0
4348 -4010 0
2615 -1197 0
1438 1343 0
-468 -2759 0
-360 -2201 0
-4018 -2328 0
-2304 1810 0
-1388 1740 0
784 -1812 0
-3106 38 0
-1946 -1346 0
1882 2468 0
-1370 -2218 0
895 3981 0
-1056 -3555 0
749 -288 0
-1596 1464 0
-1926 1494 0
-4707 -2688 0
3570 -3127 0
3726 4313 0
-2927 1269 0
-3118 -1984 0
7 3789 0
551 4026 0
3177 2154 0
-3077 -3969 0
-2994 -3790 0
2928 -2861 0
624 3344 0
-3879 -4630 0
2811 -1890 0
1665 -3067 0
1220 4006 0
3143 -3029 0
59 3575 0
-771 3699 0
-3750 -3787 0
1446 -835 0
-2920 -2843 0
-2720 -3717 0
2609 2643 0
2783 -9 0
