c NF
p cnf 3407 9880
-1 2205 0
-2377 1891 0
-1167 312 0
3084 -2519 0
2576 1751 0
-657 454 0
2904 1828 0
-2101 2817 0
1682 393 0
223 -956 0
2984 512 0
2113 -2441 0
-1231 3311 0
-3244 -1930 0
-1319 1566 0
-619 529 0
-2512 2859 0
-788 2197 0
-281 3047 0
-395 -2764 0
-640 -159 0
1829 347 0
-857 2167 0
-650 911 0
1635 2701 0
-867 204 0
-3205 2285 0
1083 3391 0
834 -1053 0
-3269 543 0
357 3288 0
-1760 931 0
2133 3376 0
2087 2509 0
28 -200 0
-1913 2263 0
-1822 -82 0
1669 -225 0
-2370 490 0
2561 1621 0
-2127 -2706 0
420 1617 0
-1419 -1412 0
-1122 1030 0
-148 2925 0
-1304 -3237 0
-2697 -2345 0
2535 944 0
1993 2191 0
48 -289 0
-302 119 0
-1591 968 0
-2301 -511 0
-1124 -186 0
-2365 839 0
-1691 -1196 0
1285 -638 0
2849 -1174 0
1951 2841 0
-3271 587 0
900 -3031 0
1745 1002 0
-348 -1082 0
-491 -376 0
-3197 -2932 0
-2274 2200 0
2331 2105 0
1048 -2460 0
-3258 -2148 0
-2893 -2952 0
3186 -3175 0
-398 -1122 0
77 -417 0
13 -1610 0
-832 165 0
-2130 2230 0
-2611 890 0
2783 -1754 0
1973 -331 0
-2712 -1093 0
2751 -1357 0
-1109 2183 0
-2664 2186 0
3095 -2522 0
-864 -2287 0
-2889 1643 0
3187 -296 0
-1333 2436 0
-3041 -121 0
2721 -1641 0
-141 3231 0
-69 1907 0
-2454 1241 0
-1449 2131 0
-726 842 0
-2727 -1233 0
1849 360 0
-2086 -2890 0
2863 -1140 0
-3266 1959 0
-985 228 0
793 -2154 0
720 38 0
-1434 -520 0
-3276 -998 0
1812 -3218 0
957 1025 0
2290 -2703 0
-1241 -1980 0
2915 -2692 0
-1110 -213 0
-2220 -3355 0
-1859 -1922 0
-1790 873 0
-2631 2575 0
3216 1751 0
657 2057 0
855 -335 0
1675 3052 0
-712 -3005 0
-711 -1471 0
-2519 1275 0
-1209 2573 0
3377 -2723 0
-1847 70 0
1956 405 0
-2276 -2070 0
-3070 1472 0
-3047 -1521 0
-1991 291 0
-2705 2701 0
-3161 358 0
-1653 1894 0
-1018 773 0
1301 -1332 0
1446 1080 0
-654 1392 0
-1996 -3352 0
1460 711 0
2532 550 0
1799 3255 0
-3046 -2492 0
1825 1278 0
1356 2835 0
2901 -1278 0
-2903 -3280 0
-2384 -1806 0
991 1551 0
-1247 1307 0
3025 -629 0
-1541 -1606 0
-826 3232 0
457 2596 0
-1597 -3159 0
1431 1102 0
1132 -1890 0
-1958 -1407 0
-1550 -3296 0
-1560 2022 0
2440 1424 0
2311 1284 0
2312 -625 0
254 -2829 0
2852 -753 0
-2068 2959 0
-1890 2932 0
1530 773 0
2971 -2791 0
-29 -3345 0
-626 2869 0
-3107 3194 0
-3340 993 0
-2888 -776 0
-2102 900 0
1088 -137 0
2097 1513 0
-3349 1549 0
300 -2188 0
643 2412 0
322 3091 0
1854 -3008 0
537 -580 0
3038 -446 0
-2626 -3322 0
2257 642 0
-676 -1043 0
-3286 786 0
1673 1504 0
3210 2538 0
-1294 -2086 0
-535 2524 0
1070 1094 0
-3049 -2146 0
-958 -917 0
-2038 -1831 0
1489 2437 0
112 430 0
-2977 -2100 0
2645 775 0
447 836 0
2110 2460 0
-3152 401 0
-44 2557 0
83 -1122 0
-3101 840 0
-2631 2404 0
797 659 0
784 3371 0
-2036 2952 0
1895 771 0
-3394 -3372 0
-2604 -2227 0
-1395 -908 0
-2261 1940 0
-1628 297 0
-108 1042 0
-677 3158 0
2161 3166 0
2847 -3272 0
1752 356 0
-1647 1211 0
1334 -993 0
-819 2743 0
1137 -1739 0
-3197 2003 0
-2334 1090 0
1034 -3393 0
675 1896 0
2259 -3049 0
719 3044 0
1138 -572 0
-34 2200 0
-1408 -1991 0
1720 -2479 0
2479 -2038 0
3245 -2276 0
-2531 1178 0
-1394 -1470 0
2668 2003 0
-2445 1292 0
190 -998 0
-3168 -2083 0
-2161 -3232 0
-3328 1438 0
615 1566 0
2152 578 0
684 1601 0
3334 -1103 0
-1597 -137 0
1199 -2098 0
-2219 -2705 0
-1440 -1473 0
1877 -989 0
2832 1401 0
2360 -1387 0
-355 -2699 0
-1715 -1608 0
-3124 1616 0
1005 -1075 0
1878 -385 0
-1750 -98 0
-853 1830 0
2361 -37 0
-1430 -997 0
-1250 1097 0
-953 -650 0
-461 -353 0
-1149 -754 0
-962 53 0
2177 3158 0
2726 -3245 0
-1471 -1989 0
-1424 -3309 0
-563 -3206 0
-557 357 0
1476 1029 0
-2325 2860 0
1774 2452 0
-1909 196 0
2011 151 0
-561 -638 0
-2706 -1970 0
334 -1795 0
1413 -1503 0
-2270 2480 0
1381 1452 0
-3164 1849 0
-695 -3114 0
1750 2825 0
-1502 -859 0
-416 -3109 0
-2620 -2522 0
2460 2650 0
-3346 -2064 0
2224 3082 0
-2655 1434 0
-2083 -2775 0
-95 -2535 0
1975 504 0
80 3211 0
684 -1332 0
-431 184 0
1265 -1658 0
-2826 1942 0
2190 -208 0
1099 1306 0
2435 1451 0
1810 -2713 0
-57 -212 0
-565 -1428 0
-714 -732 0
-532 -294 0
-3150 1625 0
3243 -3034 0
-2838 -3039 0
1974 -2686 0
303 2925 0
-2629 265 0
736 -1491 0
1219 2324 0
-1266 -2021 0
-2157 -2573 0
1634 -2783 0
2981 -1559 0
3105 -1245 0
-2751 457 0
3190 2720 0
1255 -2542 0
-2124 -2497 0
-47 310 0
-2150 618 0
1478 -502 0
-473 2609 0
-1517 3268 0
3108 -1053 0
-453 -3357 0
-2209 -2594 0
2416 1016 0
395 -1346 0
3278 -298 0
210 -3354 0
1435 -1891 0
1035 1974 0
2623 -1746 0
-3063 1337 0
-277 112 0
1299 1459 0
-1488 -117 0
-2293 1601 0
1795 -2548 0
1693 -2726 0
3001 -3002 0
-56 -970 0
-707 1440 0
685 1344 0
-1671 -601 0
1171 -3221 0
-1510 -645 0
-3037 235 0
1807 -3205 0
-1872 2382 0
-2516 856 0
595 1345 0
-3017 -284 0
-299 -2430 0
-1830 600 0
-2908 1987 0
490 -3391 0
3117 2564 0
-2942 -750 0
684 -1428 0
3074 -152 0
538 -3230 0
-159 143 0
-153 692 0
2330 3347 0
-3343 -2562 0
-329 -1021 0
324 96 0
429 -2896 0
-57 2062 0
-632 -1517 0
1038 1303 0
1362 -1596 0
-1130 252 0
-696 2144 0
1065 803 0
-134 1043 0
-3302 -1792 0
2236 434 0
-382 1977 0
2077 -250 0
-2712 -396 0
2990 1388 0
2709 -1778 0
-1464 1809 0
3016 750 0
906 -1184 0
-2700 247 0
937 922 0
1397 -1345 0
644 770 0
-418 -976 0
3010 -1167 0
1781 1444 0
3373 -154 0
271 1769 0
2386 -2274 0
2367 2434 0
-2732 106 0
2899 -1729 0
2228 1911 0
2680 -3245 0
2841 3255 0
817 2155 0
2390 -2425 0
549 3297 0
-3356 -3009 0
-267 -2241 0
1234 2943 0
2882 -2130 0
-545 -1369 0
2737 2898 0
3018 -1786 0
1210 -2642 0
3295 444 0
-2551 2652 0
1446 -2539 0
-2471 -1509 0
-2767 3105 0
1711 -568 0
3202 -1363 0
-1909 2643 0
-258 -500 0
1379 -298 0
422 1969 0
-3294 -1484 0
259 -3200 0
-2829 2950 0
-2323 1707 0
-534 2223 0
397 431 0
2543 1785 0
-1751 460 0
26 2326 0
4 3150 0
-1649 2335 0
3364 675 0
-864 -2246 0
814 -3382 0
1875 1315 0
2850 -1465 0
-142 476 0
2424 -1819 0
1577 -1048 0
3194 -1713 0
1172 -613 0
-2742 -246 0
-1692 -819 0
2888 3180 0
-2156 113 0
771 2383 0
-1474 -2836 0
2 -1584 0
-691 -670 0
2210 2876 0
-3296 -2460 0
-2334 1985 0
-1424 1481 0
2108 1225 0
-1376 -1293 0
2899 -2904 0
3165 1880 0
1367 2577 0
3018 312 0
-2660 -1394 0
-2546 -3296 0
-673 1572 0
-2774 -140 0
773 -754 0
-1239 3007 0
-1180 -39 0
221 -2291 0
1020 311 0
926 -2160 0
-2714 1753 0
-3278 3051 0
-1305 -2544 0
-1085 -1761 0
854 2281 0
477 -327 0
1529 -1620 0
-670 -2210 0
1293 325 0
-2038 1807 0
-2754 531 0
-1393 301 0
-3111 -1399 0
-2799 2800 0
1058 -2274 0
-2009 -2699 0
-812 -2569 0
-2962 -2422 0
-385 -364 0
-1142 -2036 0
3153 3254 0
690 -1249 0
2291 -267 0
3339 2906 0
278 -2962 0
726 -874 0
313 -377 0
-1400 -2675 0
-2469 2228 0
987 -1655 0
-1058 555 0
2681 789 0
1584 -1147 0
-1143 -2268 0
-3034 1962 0
-2410 2674 0
2498 -237 0
-209 386 0
-590 1773 0
-2805 -1318 0
312 2320 0
1225 -1097 0
-1996 -1340 0
3077 86 0
3147 -731 0
104 -764 0
3347 1590 0
-2759 1334 0
-1253 315 0
674 -2029 0
2033 -1639 0
1812 -2786 0
-2955 -2588 0
1588 -2662 0
-3377 2582 0
903 2979 0
-3200 2619 0
1883 -2504 0
-1770 2331 0
2487 -3001 0
-706 -1817 0
2222 -2842 0
1382 1451 0
2658 -860 0
-162 -3396 0
-2436 -76 0
-499 -196 0
-1592 -2890 0
183 1402 0
-2283 2618 0
534 1320 0
-3274 -1658 0
1352 3112 0
-528 -2780 0
-3175 914 0
3199 -1062 0
107 263 0
-2563 -1221 0
132 295 0
-1346 1239 0
1492 3373 0
-811 2056 0
1081 2873 0
-3342 -1594 0
1704 830 0
957 2911 0
-2514 -3097 0
-1716 297 0
-1483 -2152 0
2968 -952 0
-854 2792 0
462 -2037 0
3166 -3377 0
1635 -1771 0
1862 235 0
-352 1171 0
986 -2714 0
-2540 -1120 0
-740 -1677 0
1610 -2329 0
1822 -2373 0
-2657 471 0
1705 899 0
-1414 3377 0
1525 -1640 0
-691 1541 0
2002 -2459 0
-1129 1940 0
1286 3042 0
1734 -1817 0
2070 -3136 0
2072 65 0
-962 -2770 0
-172 874 0
496 -2472 0
-550 1983 0
1619 1391 0
-2947 -1274 0
-1427 -3202 0
-3262 -3271 0
218 -3135 0
-3199 -2524 0
3031 3372 0
-2580 2318 0
-2870 2945 0
291 -2495 0
-1761 1083 0
-2697 242 0
1454 2535 0
845 -1253 0
1859 -1879 0
32 -198 0
2683 -413 0
2145 -170 0
-292 1187 0
-1063 2161 0
-386 -655 0
3296 1149 0
-1642 -511 0
-1163 -1598 0
-942 156 0
2621 -2068 0
-452 -2505 0
1116 -3136 0
403 2203 0
-1190 2342 0
2761 946 0
2549 -1382 0
1504 -2113 0
208 2111 0
2186 -571 0
379 -1067 0
-237 -2584 0
-170 1826 0
1471 -1758 0
412 -2366 0
-2265 2358 0
-1039 2836 0
-1740 1144 0
2448 2194 0
2381 1362 0
956 313 0
382 -2999 0
-3104 2191 0
469 -3230 0
-3001 -2365 0
-1475 -990 0
3320 2097 0
-1020 2208 0
-711 -740 0
1149 240 0
1048 -708 0
1180 581 0
1334 -1290 0
2232 3244 0
-1535 -1445 0
-1841 3087 0
-2995 3074 0
1165 -2205 0
2192 2097 0
535 -1517 0
3372 -1159 0
-2219 483 0
3180 347 0
753 -54 0
-2181 -3204 0
1122 -625 0
1787 -2627 0
-2445 1495 0
191 2140 0
-1773 1407 0
-2762 -1160 0
-2046 -1973 0
1782 1496 0
626 1339 0
2267 -586 0
682 2897 0
-1923 1689 0
-545 -1134 0
1865 -1882 0
2360 3095 0
-2502 1229 0
2399 1401 0
-1703 -1914 0
-678 -1253 0
68 -3137 0
1399 -1099 0
-2691 -1414 0
1492 118 0
-2667 -1035 0
2075 2830 0
3390 1481 0
3155 -2373 0
2446 -1168 0
2804 2374 0
3037 -166 0
-3370 2475 0
-3259 -470 0
785 -2703 0
-3385 1064 0
-3298 334 0
1023 802 0
905 2066 0
3277 1965 0
2058 -2995 0
-1117 -2207 0
-612 -2488 0
1989 2346 0
496 34 0
-1711 -1324 0
2398 -1063 0
11 2065 0
3301 -2795 0
-2326 2809 0
46 1866 0
-2501 -850 0
1322 -474 0
-659 -526 0
2275 -1996 0
-3063 2069 0
-542 206 0
2683 2417 0
32 754 0
-1469 1306 0
2944 3343 0
2085 692 0
17 833 0
-2318 2450 0
-1106 906 0
-1369 3194 0
-111 826 0
-721 -1267 0
270 -1019 0
1653 -2782 0
2859 1803 0
-2384 343 0
-1554 2540 0
-3088 2321 0
1049 -2210 0
1555 -1149 0
-2868 -2763 0
-3188 -2106 0
599 -2626 0
2186 -1018 0
1909 -372 0
-872 2230 0
2282 -452 0
-2865 346 0
623 -2917 0
-2389 747 0
781 3014 0
-1855 -1713 0
-465 -1731 0
1809 -1033 0
-956 497 0
2557 1986 0
-665 -1230 0
3384 -1358 0
-2763 -3212 0
2619 -1921 0
-999 350 0
-2748 2251 0
3174 1207 0
-1550 451 0
1200 1483 0
-2676 226 0
2896 2016 0
-574 2405 0
-2199 -206 0
793 -345 0
2106 -2533 0
-3080 -3326 0
-125 -1814 0
-1948 -266 0
2475 491 0
3279 565 0
-479 -1307 0
-232 41 0
-1530 162 0
1765 2989 0
2249 -615 0
-2861 2407 0
1498 2375 0
1474 202 0
-2176 1069 0
2195 2687 0
-2501 2179 0
2355 2073 0
-2636 2497 0
-1567 2312 0
1850 3196 0
-3275 855 0
-176 3363 0
-2603 636 0
-1366 1236 0
-2892 112 0
-766 1309 0
785 -181 0
-2634 -1520 0
1069 -1174 0
-3354 3324 0
1580 682 0
-2862 3340 0
1670 3145 0
-2520 2800 0
1170 692 0
-3062 -1527 0
-1715 1088 0
-1474 -3282 0
-2700 -862 0
-487 262 0
-1977 -2130 0
-2744 -2869 0
-2843 1857 0
2383 -2476 0
-650 -1099 0
-3047 2298 0
212 1957 0
-2757 2807 0
-1257 -1471 0
-344 -201 0
-1789 1132 0
1646 1302 0
-495 3266 0
-1211 -74 0
-2672 -1371 0
1979 -2090 0
-2937 -798 0
1633 -719 0
-2650 -2058 0
2886 -2717 0
-863 -2513 0
-1665 1073 0
835 1254 0
-2858 1390 0
-213 -1465 0
-3041 2901 0
-1084 2855 0
-1035 -1041 0
2546 -1187 0
-2091 -3169 0
2992 1958 0
2260 936 0
-1613 -3334 0
1235 -2230 0
1512 -3333 0
2504 -1515 0
-2308 1687 0
-2081 1866 0
1679 -2092 0
2929 3277 0
-1015 -645 0
2809 -692 0
2567 1397 0
-747 1556 0
-1917 2592 0
160 -1999 0
-1256 -523 0
-1606 -231 0
1136 2872 0
205 -2677 0
-2540 210 0
923 -1220 0
1651 1598 0
-2887 -401 0
-2421 1221 0
1902 2983 0
2554 -2147 0
1867 -3271 0
-2785 3183 0
273 1610 0
2429 -2614 0
-528 2807 0
3284 931 0
-79 -1739 0
3297 383 0
-2081 2620 0
-3193 -2831 0
-2128 -2015 0
-1697 -212 0
278 456 0
1981 2941 0
1367 515 0
-1931 3349 0
-604 -572 0
1298 -3286 0
-1578 1946 0
-32 19 0
148 -881 0
-2108 -1523 0
853 -565 0
2865 -673 0
-2930 217 0
780 -1923 0
-1204 -667 0
259 1141 0
1959 2644 0
-3250 -415 0
-1542 -2579 0
-1577 -2774 0
103 -1513 0
-147 -1516 0
1817 1980 0
-1272 2865 0
738 2195 0
-2767 127 0
-292 -1216 0
1982 932 0
186 360 0
-2224 -710 0
-356 -2316 0
622 1424 0
-2639 -1475 0
-1232 671 0
-89 2280 0
2578 -647 0
2149 2145 0
1309 -1025 0
2914 1504 0
-3242 2214 0
-393 -426 0
-2197 -1990 0
-1190 1303 0
-1 -1745 0
1906 999 0
-1198 671 0
2176 1028 0
1646 1369 0
1380 -2735 0
360 -1532 0
-1262 -1074 0
541 1358 0
-487 1 0
386 379 0
-1469 913 0
2811 2646 0
3196 -1860 0
250 936 0
1170 -1797 0
-454 -439 0
2180 -1378 0
495 3263 0
1883 -973 0
-1975 352 0
-2974 -3064 0
1425 -1251 0
2789 1959 0
3061 1204 0
-2411 -1304 0
-250 -621 0
-567 -2451 0
802 -1566 0
-245 1062 0
-1711 2972 0
2029 -2532 0
813 -1967 0
-2154 -3236 0
-1461 -1759 0
2823 -2586 0
-1938 2747 0
987 -3 0
-885 -3110 0
-2881 2562 0
534 -932 0
1873 -1640 0
-2320 3240 0
622 -2534 0
3147 2622 0
-3079 -3111 0
3127 -1575 0
-1795 736 0
-3054 505 0
2037 1334 0
264 1587 0
230 3206 0
1786 -2883 0
-2310 728 0
-725 1104 0
-1657 2423 0
-2333 3298 0
1036 2667 0
977 1678 0
1227 -1332 0
-179 -892 0
-8 -1996 0
-806 -520 0
2165 236 0
-2467 1678 0
-1816 449 0
241 1348 0
1618 2077 0
-88 125 0
1240 3048 0
3120 3010 0
2731 249 0
-3110 58 0
-3307 -1596 0
23 16 0
-2782 -816 0
-2729 2652 0
2682 2533 0
-3388 -2960 0
-1193 -574 0
-2894 3344 0
-298 497 0
2331 3249 0
-1482 2172 0
-711 -311 0
-767 54 0
-1991 2201 0
768 -2635 0
-1934 206 0
1045 -1654 0
-587 -1411 0
2930 -966 0
-551 3310 0
2731 3397 0
952 1039 0
1025 2126 0
970 2925 0
1576 -2585 0
-975 1749 0
1369 -3024 0
3194 -1194 0
581 -569 0
-3106 -2688 0
1482 216 0
2990 -1337 0
-2752 -785 0
-361 631 0
-2912 297 0
-535 2284 0
-1388 430 0
-2407 668 0
73 392 0
855 718 0
2013 216 0
2642 624 0
2968 -2683 0
-3203 -2309 0
1101 -2805 0
-3103 1391 0
-695 -465 0
-155 1632 0
2689 -1003 0
490 50 0
1094 -1223 0
1768 -2066 0
-1614 805 0
2074 2604 0
263 1654 0
756 -1785 0
-2417 2093 0
3113 845 0
1186 -2861 0
1826 -3137 0
2346 3339 0
-80 -3316 0
-367 2997 0
3389 853 0
-2850 906 0
3162 873 0
927 2631 0
3060 792 0
55 396 0
3021 698 0
-2693 2170 0
-361 271 0
988 302 0
2250 -1703 0
-1383 2555 0
-3245 2270 0
228 -642 0
2255 1307 0
-662 3362 0
3054 2392 0
-3277 1962 0
-722 2525 0
261 -1687 0
-893 75 0
1378 1328 0
-2431 2658 0
2995 2609 0
-637 638 0
956 -2356 0
1159 423 0
598 -2593 0
2051 -966 0
-3142 -1969 0
-920 1246 0
3326 1286 0
2029 1094 0
-2318 -3267 0
2501 504 0
-2833 -1140 0
-1609 1723 0
-2834 412 0
-275 3029 0
-2001 265 0
-1915 119 0
828 999 0
3274 -1092 0
989 -2098 0
-2620 -137 0
77 3168 0
-2964 -1725 0
1524 2339 0
-3345 2192 0
-1037 2123 0
-1398 -1514 0
541 -2837 0
1619 2159 0
1608 -511 0
3078 2477 0
-544 -2636 0
-1104 -2561 0
222 1166 0
-2217 -2245 0
1572 3285 0
1856 1337 0
-1912 -1164 0
-2042 2952 0
624 217 0
-456 -3225 0
2670 -98 0
1095 -1009 0
327 -285 0
-107 2392 0
-1231 2017 0
1865 1299 0
-1897 -681 0
-665 130 0
533 -499 0
-889 -2034 0
-1995 232 0
-1796 2846 0
-2468 618 0
-2918 -1168 0
-209 461 0
-2263 -1341 0
-3266 674 0
1797 -1112 0
2035 -577 0
-535 -998 0
2200 3289 0
-964 -3089 0
-3271 -374 0
-1251 3304 0
2874 -1043 0
2943 -1273 0
-320 -1198 0
1456 -2041 0
-3157 -1129 0
1137 3170 0
3192 -714 0
3350 -3190 0
-2542 -473 0
2817 -2171 0
-2915 -2324 0
-3068 2567 0
-2226 1808 0
715 3187 0
2789 -2409 0
2494 3241 0
3356 2090 0
1036 -2514 0
-1999 -1434 0
1986 371 0
488 1684 0
419 -178 0
-2370 2390 0
419 560 0
1685 -1216 0
-1712 410 0
-1614 -471 0
1129 -2495 0
-2778 959 0
2973 976 0
-1716 1478 0
-1751 341 0
-243 117 0
-153 1494 0
588 -2708 0
2493 -3100 0
1290 2294 0
2346 2668 0
-3336 417 0
990 -2001 0
1150 -2888 0
406 -2027 0
1710 -1950 0
-2518 2359 0
2757 -2903 0
2711 -2216 0
2313 -888 0
-2673 1311 0
-1227 580 0
-1184 -3180 0
-1949 -1061 0
-465 -1954 0
-2992 370 0
238 -1578 0
-283 2735 0
2528 2734 0
1801 1877 0
450 3180 0
-1248 -399 0
3127 -1536 0
3322 -2905 0
908 -183 0
-1186 -70 0
-1514 -1212 0
1172 -255 0
-1726 2327 0
-2176 2174 0
793 309 0
-759 2835 0
-2152 -2094 0
2944 -361 0
3383 -2535 0
42 2868 0
-329 501 0
-1410 2740 0
2180 -2081 0
-1394 2096 0
-1384 -3338 0
-2193 -534 0
-586 826 0
-891 -254 0
622 -2286 0
-1109 2464 0
1855 -340 0
1729 -2256 0
2748 -632 0
747 3304 0
2835 3390 0
1819 -482 0
2619 -1750 0
-3247 -1339 0
923 2367 0
-2646 -109 0
-3336 -3168 0
-2210 -2575 0
-64 -1711 0
-1416 1037 0
829 2988 0
3095 2881 0
-1502 -1394 0
-1157 3122 0
2438 -1796 0
-368 3248 0
932 344 0
174 -1435 0
778 578 0
-1977 -3281 0
1774 1522 0
1813 2770 0
2417 66 0
1343 -1420 0
3056 -1877 0
-374 -2215 0
-2122 131 0
2248 -204 0
-3012 -60 0
-2883 2122 0
-1308 -154 0
-1802 2737 0
-3086 -3046 0
-473 2912 0
-1570 -3103 0
772 -2028 0
1723 -3118 0
3315 -702 0
1411 385 0
365 -2683 0
-3089 -1815 0
-2083 -2134 0
-701 -92 0
228 85 0
335 1406 0
-688 -2134 0
1717 -2013 0
3037 -1713 0
1597 498 0
-182 -571 0
2982 -3387 0
2262 2723 0
700 1697 0
-2722 -1334 0
-87 18 0
1370 3347 0
2846 -3165 0
-3152 -2340 0
-2787 -1993 0
-3027 -473 0
1808 -2547 0
883 -2151 0
741 2288 0
1926 -2272 0
2610 -2791 0
-1932 2749 0
1184 44 0
3294 1047 0
-3030 1786 0
2074 -878 0
3306 220 0
2066 -201 0
-2415 2532 0
1527 -1243 0
-506 -738 0
-3086 -870 0
1363 1706 0
-3135 -2940 0
496 2776 0
1670 396 0
-2289 -1409 0
-605 2594 0
-2161 -2555 0
1054 1551 0
-940 -16 0
-1668 -645 0
1622 -1998 0
1172 2923 0
-2402 2327 0
274 -450 0
-1216 1083 0
3175 845 0
68 2830 0
3244 612 0
1586 2281 0
-176 -646 0
-2116 1987 0
959 1620 0
1217 107 0
1898 -88 0
2179 -3068 0
-2864 -120 0
488 -406 0
-621 -2673 0
-1549 -3152 0
-317 2375 0
-2468 3360 0
1732 2819 0
-680 -2614 0
-1611 -37 0
-2693 -643 0
3011 -1257 0
3117 631 0
901 -3335 0
-1060 128 0
1741 2337 0
-824 3356 0
-3221 -544 0
-2733 -1856 0
-718 -3310 0
-2399 -629 0
-2630 -1183 0
1586 611 0
-1869 2941 0
757 1207 0
3021 2262 0
1421 -3268 0
-2069 -1731 0
-821 2970 0
-2889 -3050 0
-2532 2527 0
1079 -952 0
-1162 -144 0
-1958 -1257 0
20 -2151 0
-2459 -2749 0
-2432 -2764 0
1030 2011 0
-652 2808 0
-1209 113 0
3312 -2844 0
-2663 -3349 0
2664 -1772 0
-1139 -980 0
-3334 2013 0
-2471 2679 0
1750 -781 0
-577 -1450 0
-1361 -2232 0
-2548 -3168 0
-257 -1763 0
210 -696 0
2912 1304 0
2233 -9 0
2532 555 0
-2520 -2917 0
-1298 2988 0
3314 2378 0
-3296 -945 0
-556 -567 0
-2799 -2004 0
-2640 2849 0
-2434 -1374 0
-2935 -1577 0
-1969 375 0
-205 -427 0
979 -1879 0
636 -538 0
874 -2351 0
-1412 224 0
-1975 1235 0
-2703 -920 0
1868 -859 0
-2021 3403 0
-1091 174 0
1388 -2426 0
1124 -1073 0
2575 -1474 0
-37 -1665 0
3378 -1301 0
-2877 -501 0
350 -195 0
-651 1034 0
2959 2015 0
-1416 -2882 0
1020 -1841 0
-1396 906 0
787 -737 0
796 1934 0
1679 -2966 0
684 -2655 0
123 3044 0
-1555 -3336 0
-2937 1720 0
-1771 -1370 0
-1793 -2504 0
2753 3052 0
-2010 1980 0
2747 3040 0
-1578 -978 0
-680 2436 0
-529 1571 0
-1139 -813 0
812 2331 0
-1036 -3041 0
1590 1235 0
855 693 0
1127 -1935 0
-2148 1865 0
-1993 1278 0
2403 -3004 0
1323 -1469 0
-2425 -2352 0
1722 1000 0
617 2757 0
-2821 -3199 0
-3137 -2815 0
-1259 -1108 0
-3377 128 0
-2735 -328 0
3127 183 0
2381 916 0
-394 534 0
-955 -917 0
-2447 3267 0
-1352 -1740 0
-2818 -414 0
-1483 2512 0
1933 3071 0
467 3168 0
598 3062 0
82 377 0
-1061 -2229 0
-1041 768 0
2658 -2981 0
2399 -3226 0
3004 -2826 0
1620 529 0
-2621 1700 0
1473 976 0
-759 -966 0
1479 -2441 0
2709 2876 0
-230 -944 0
3196 798 0
-2818 944 0
-931 -1255 0
1189 -537 0
-3290 -1105 0
-1446 291 0
3121 335 0
-124 1452 0
2586 2866 0
3313 3269 0
-962 -1062 0
104 -2150 0
2671 550 0
-340 1116 0
1875 1418 0
2945 -1823 0
-2364 1834 0
-1664 2801 0
2989 -1191 0
-2729 315 0
2423 623 0
1510 -243 0
524 1739 0
2476 -3314 0
-1349 1687 0
-197 -3247 0
-1184 1578 0
-1732 1677 0
3100 -2639 0
2417 2966 0
-3249 -2005 0
2616 3233 0
2648 2788 0
1373 3077 0
-3106 -698 0
2213 943 0
-1928 -1569 0
-966 1769 0
396 1214 0
1547 -3216 0
2559 -2422 0
2883 -2354 0
617 -213 0
1295 -1462 0
-2481 1025 0
-1997 -1263 0
-1185 -2696 0
1987 381 0
2357 1624 0
858 1382 0
-704 2257 0
-3156 58 0
245 1627 0
-2740 2579 0
1933 2948 0
3177 -1635 0
-1329 -940 0
-2040 -201 0
3068 -2831 0
-3195 3006 0
-404 -309 0
954 -2448 0
-570 -865 0
1865 1344 0
3379 -1160 0
2959 1991 0
2981 -2026 0
-2215 -3259 0
1835 3007 0
-3198 3022 0
486 2601 0
-1658 938 0
-2639 439 0
312 -2068 0
-2894 -1761 0
1413 -1621 0
-2853 -2713 0
-2712 -759 0
-2117 2607 0
-1105 -1080 0
-1774 2709 0
761 1003 0
-1000 1772 0
174 -2631 0
-2522 2212 0
-1652 -31 0
-3229 -2247 0
-440 -1948 0
-2119 -2494 0
979 2175 0
1026 -511 0
1004 -1932 0
-902 858 0
1543 -919 0
-81 -1511 0
-606 905 0
-500 1122 0
2002 2954 0
-1197 -267 0
3170 53 0
3207 3039 0
-1678 -1757 0
-3265 313 0
-3300 1913 0
-115 814 0
897 -1109 0
1129 1479 0
1828 -754 0
1652 87 0
-1242 1478 0
-296 -2336 0
151 807 0
-3098 -1725 0
2603 2489 0
-14 3181 0
-2767 1093 0
-1208 -908 0
-39 1667 0
-1319 1538 0
2594 3252 0
3193 1751 0
-1474 -1182 0
-3300 -2530 0
1287 1446 0
-979 90 0
2963 -2106 0
68 3365 0
-2447 2337 0
1026 -452 0
-765 3294 0
-1182 -1531 0
470 -3169 0
-2075 1198 0
3351 57 0
1551 -1861 0
-2337 2218 0
-720 1525 0
-3393 -2460 0
764 1425 0
2734 2341 0
1908 -2392 0
-3080 -57 0
143 2793 0
-2942 -2574 0
1700 -1452 0
-2441 -2565 0
-121 -1607 0
-2276 532 0
-1645 -1113 0
-2368 -3402 0
930 -2769 0
227 3205 0
-182 1244 0
-2534 -312 0
2552 2780 0
-3223 -458 0
-2491 -3012 0
674 -1305 0
1731 2472 0
2194 -2117 0
1677 1071 0
3304 -1596 0
321 -2363 0
3169 -1962 0
-3318 609 0
2231 -2168 0
-2607 -3267 0
-2756 3350 0
-1475 -3324 0
1352 -354 0
-2763 -8 0
-592 -663 0
2599 83 0
-2932 -2887 0
-1026 2482 0
-385 1906 0
398 -153 0
557 -2349 0
-2724 -194 0
3088 1285 0
471 1532 0
-836 2476 0
90 -650 0
1687 582 0
-2178 2558 0
-1889 1405 0
-2113 1969 0
-2822 -1750 0
-1828 1974 0
-2570 1778 0
-916 1588 0
-283 1242 0
-2384 2541 0
2435 2832 0
-2960 2804 0
-2612 -2864 0
525 -2184 0
1 1789 0
65 -1453 0
-2829 -2646 0
843 -962 0
3125 -42 0
935 -2976 0
2747 900 0
2941 -355 0
2901 1784 0
2801 2789 0
-2983 -3110 0
-3024 -637 0
-2824 1985 0
-109 1039 0
-495 2950 0
-738 2838 0
-1712 -599 0
1885 1729 0
665 1244 0
1191 2093 0
1246 -2451 0
3112 2359 0
247 3033 0
2798 -229 0
-1319 -708 0
-2179 325 0
-1674 -3203 0
2671 1789 0
-2351 3212 0
2165 2862 0
268 3369 0
516 1826 0
-2347 -31 0
-2348 2919 0
321 234 0
-809 1528 0
-12 -3212 0
2677 29 0
-465 1605 0
243 -3072 0
754 -2967 0
1992 -2700 0
1468 803 0
-2997 1242 0
52 -302 0
1912 2276 0
2419 -1785 0
700 -104 0
516 -2626 0
-212 -107 0
1681 1417 0
2137 -95 0
2401 -1012 0
664 3178 0
1183 -545 0
518 1306 0
-2399 -1591 0
-1739 2859 0
3114 924 0
-740 -1956 0
1141 -2647 0
2823 2209 0
210 -2723 0
2360 1263 0
1309 3192 0
-2481 885 0
-2159 3233 0
1220 2812 0
2614 -1847 0
-891 -2725 0
-2435 1748 0
-2280 -920 0
2740 3133 0
2989 -952 0
-2339 3255 0
-2679 1364 0
-815 1460 0
-2459 744 0
116 -1588 0
-2214 -1262 0
-2982 -1961 0
-1913 2420 0
-1335 -2244 0
-1282 1715 0
884 1187 0
1389 -1334 0
420 1275 0
-1447 -2068 0
-3200 -1502 0
-968 2555 0
-2524 -2357 0
2989 270 0
1242 -3392 0
530 601 0
2563 -264 0
-1707 3344 0
-2479 397 0
2465 2485 0
2085 1622 0
-2298 3266 0
3393 2886 0
-991 -2622 0
-3381 -2909 0
1450 -2426 0
2506 -1010 0
2974 3183 0
102 2864 0
-517 -2602 0
2370 -2353 0
2482 -1184 0
3262 -973 0
3320 -1771 0
-2067 3153 0
175 -2253 0
2967 -1192 0
-2826 322 0
2231 1108 0
-1546 -2010 0
2012 2000 0
-3392 1429 0
1853 -1510 0
-2219 -2765 0
-95 310 0
-538 3397 0
-1727 -1649 0
3367 -3243 0
-2237 -1450 0
-45 423 0
-1230 989 0
-3026 -652 0
-2754 2180 0
-2243 -1583 0
-586 -2801 0
1134 -3204 0
-1730 -162 0
-569 1748 0
1111 437 0
-546 -2970 0
-86 4 0
-1163 2952 0
-1327 1288 0
3191 -1521 0
-353 689 0
-2558 -2452 0
-985 1275 0
-2059 2529 0
232 2243 0
2488 -1152 0
-1212 -1430 0
-3103 969 0
-444 -537 0
-1784 -299 0
2012 1716 0
-1931 -791 0
-439 -1371 0
1670 -2610 0
2781 26 0
-175 682 0
2013 -2844 0
-2857 866 0
-282 1802 0
2198 2457 0
-2564 -3329 0
2006 -2347 0
-1497 2857 0
2156 -88 0
-917 -3195 0
2299 2594 0
-212 633 0
-2983 1984 0
-352 1345 0
-136 -3135 0
2194 -3276 0
-2385 -2741 0
-2266 2398 0
1467 327 0
-393 3020 0
1945 -1139 0
2214 2704 0
273 2732 0
1500 3379 0
2833 -3267 0
-286 -1253 0
-3051 -1784 0
-2805 -1864 0
392 3090 0
50 -285 0
-1990 -478 0
-1953 3018 0
-422 -3209 0
-1259 -532 0
376 1419 0
-1227 -954 0
1219 2829 0
3088 -2267 0
720 -1761 0
-2795 1088 0
1495 -3406 0
-245 -204 0
-1754 1367 0
-1024 -2517 0
1376 -859 0
2011 -2639 0
-1903 -983 0
1849 -2998 0
-1999 2055 0
-601 -1591 0
197 -1592 0
-2880 144 0
661 -586 0
2606 -1726 0
-2831 2527 0
2565 -3078 0
2644 -2111 0
2974 677 0
1779 1801 0
-1244 2414 0
2839 963 0
2012 -1038 0
-1732 1699 0
-1699 855 0
739 -2423 0
897 -485 0
1356 -2225 0
1819 -1760 0
3063 842 0
3306 1832 0
-1458 -450 0
-3266 1781 0
-1800 -838 0
-1240 -1252 0
491 -3012 0
497 -561 0
-2562 -743 0
3322 269 0
-1371 1625 0
141 3404 0
509 1541 0
2461 -31 0
1348 -1577 0
-3211 397 0
-1258 2476 0
956 2155 0
2657 -1611 0
2392 -2645 0
2531 -3049 0
3351 -1879 0
3277 -1488 0
2790 -767 0
-1097 2022 0
-1382 415 0
1774 -208 0
-910 107 0
-2290 -3262 0
-2493 -1871 0
-2018 -3300 0
-561 -721 0
-574 -1100 0
-2832 -2364 0
1911 -1679 0
2510 -1915 0
851 1132 0
2961 2286 0
-1227 -2125 0
-2638 1810 0
2320 -2892 0
-1950 -1219 0
1860 3384 0
-824 1496 0
-811 1164 0
-858 -2325 0
-1425 1390 0
-2994 -208 0
2163 -2788 0
217 1988 0
3260 -197 0
1168 2307 0
3079 -1878 0
-176 1539 0
-2278 -1817 0
2327 3380 0
1700 -514 0
-2942 -808 0
-2106 2628 0
844 964 0
2776 -3276 0
2230 398 0
3305 1415 0
-2355 478 0
761 467 0
-956 -1923 0
3309 -111 0
-1113 937 0
240 2 0
-384 -2358 0
-1280 2930 0
2126 2800 0
993 -2639 0
1854 -1257 0
-2890 2690 0
791 3104 0
-1997 1519 0
2750 2449 0
1755 544 0
-2246 3139 0
-2565 719 0
1083 -781 0
1523 -264 0
-2531 -3024 0
3007 -1571 0
-362 -1758 0
214 158 0
-1718 -125 0
-285 3337 0
-3114 -2193 0
792 -2416 0
-353 1719 0
77 595 0
-1618 -2444 0
-3314 -2385 0
1437 2613 0
2986 -1239 0
-3076 691 0
-419 1962 0
3127 2615 0
-667 2366 0
1315 -2412 0
3364 1161 0
1715 2479 0
2674 1187 0
2964 1903 0
-2000 1431 0
748 -183 0
2993 3145 0
1014 1220 0
-2763 1675 0
-3106 258 0
-3084 2830 0
1568 2428 0
-2494 -2897 0
3145 1043 0
-2572 406 0
-2297 -3078 0
-2214 3107 0
55 244 0
-1188 -1822 0
-561 1838 0
159 -3363 0
-1649 1763 0
-1782 -2555 0
-1580 -2677 0
1384 2396 0
-1209 817 0
-2733 -824 0
-240 49 0
-2570 257 0
-2513 -1363 0
901 89 0
25 144 0
1949 793 0
1126 -168 0
-2555 1907 0
-3273 -1629 0
366 -1009 0
1478 1695 0
-1440 2897 0
-495 -2703 0
-1494 1198 0
1720 -2325 0
-522 1590 0
-1808 565 0
-3344 3351 0
-2888 998 0
-1041 2968 0
-3138 3297 0
2272 659 0
13 1241 0
784 2409 0
3382 -725 0
2051 3389 0
-2687 -1686 0
-3125 -2152 0
2400 2240 0
-1673 -2584 0
-762 -341 0
-582 525 0
-1853 -2610 0
2132 2571 0
-1660 -1221 0
2948 2027 0
2691 -1675 0
713 1243 0
1045 1624 0
-2836 2026 0
-2042 -240 0
-2655 -1524 0
-1224 -3271 0
-471 -1481 0
1579 -171 0
-2154 -2391 0
1855 -1724 0
-1767 1563 0
-1559 -3233 0
1507 -917 0
113 2662 0
-144 -741 0
-614 -1008 0
82 -3291 0
2216 2022 0
-2553 -2151 0
1651 1496 0
-376 1644 0
-212 2594 0
-1162 3232 0
-2246 -1803 0
2908 1894 0
1254 -2752 0
3115 -2620 0
2069 686 0
-1877 1565 0
2829 2457 0
-2715 -1256 0
2228 -1606 0
-998 2174 0
-3126 480 0
896 -1470 0
2404 -3210 0
-2654 -2529 0
823 2526 0
2644 2003 0
3213 -1615 0
3167 18 0
2578 -2659 0
2563 2807 0
-1639 -2506 0
-2293 -2411 0
3352 1657 0
1583 -1462 0
-3065 2974 0
-1251 -465 0
-848 543 0
-410 173 0
2660 -719 0
-1657 -453 0
1194 -2548 0
-1465 2127 0
1942 2025 0
1883 -1618 0
-3255 1406 0
966 -1044 0
-2699 1824 0
-3318 1655 0
-1099 -3288 0
-266 -2402 0
-194 1946 0
1079 -1814 0
1797 2307 0
3153 145 0
-1812 3193 0
1616 -1531 0
609 -532 0
91 1849 0
-633 941 0
-2497 -3156 0
1816 961 0
2118 609 0
483 2794 0
1176 697 0
1902 -2497 0
2215 1926 0
-1104 -496 0
-2081 -2124 0
890 -3057 0
1138 -1083 0
-719 1318 0
1151 -1454 0
2893 -1858 0
3091 1698 0
322 1784 0
1632 2634 0
-2957 -3280 0
2541 2186 0
1519 2753 0
701 -1091 0
-1416 946 0
-1483 -2868 0
-120 -273 0
609 -1224 0
2629 322 0
-2472 -1044 0
-396 977 0
-2963 -2253 0
-1415 -1432 0
2249 -222 0
-886 -75 0
-2995 -2605 0
-1714 -1996 0
-2097 2545 0
1812 -1740 0
-2542 -709 0
-1951 -1800 0
483 2376 0
2007 1733 0
888 -2627 0
-831 -1252 0
-70 -2676 0
-2002 698 0
3332 -302 0
-2326 1470 0
-80 2083 0
776 2690 0
2396 -1870 0
-2802 3349 0
-863 1418 0
-2189 786 0
1652 -1733 0
3022 -1348 0
-2870 -920 0
2584 -2130 0
2017 -1663 0
914 -1857 0
-3242 -1906 0
-1104 -2810 0
1840 -214 0
-2575 1454 0
-1820 -786 0
2876 -2609 0
-1896 1402 0
2942 1446 0
-2078 -127 0
3309 2103 0
-1074 902 0
-446 -2415 0
-1620 157 0
2122 1715 0
-2524 2558 0
-723 21 0
-2822 -16 0
-2226 1706 0
2510 -3052 0
-2180 -1222 0
3270 3205 0
-944 -1227 0
-2783 3293 0
-1644 -1930 0
-3232 1349 0
3048 -2890 0
1250 -1788 0
1888 2603 0
2966 -908 0
-268 -2514 0
-545 -1581 0
-2738 1096 0
-1795 -1011 0
-2918 1685 0
-1706 2830 0
-2667 -3328 0
-3099 2343 0
-1645 3150 0
1117 21 0
-649 2207 0
345 -245 0
2378 -62 0
-1305 -680 0
-2380 1704 0
-2636 1952 0
-2216 3141 0
-1019 -2370 0
1596 -1559 0
3289 1119 0
-2847 -832 0
2925 -1436 0
1896 -1936 0
-2728 -2800 0
309 2285 0
-640 -3038 0
-952 -1416 0
-2295 -2329 0
-3208 2911 0
-487 -299 0
1766 316 0
-514 2551 0
-2677 1126 0
1693 270 0
-1346 -2455 0
-564 173 0
-785 -2733 0
-2813 235 0
-1160 1779 0
-1518 -243 0
1150 1939 0
292 260 0
20 -2560 0
-3402 -1122 0
-898 -250 0
-1085 -1301 0
1430 -2612 0
-1351 1445 0
2956 526 0
2958 -822 0
-2488 1268 0
781 -1934 0
-3308 261 0
-5 -3309 0
-2802 -934 0
2867 1087 0
530 -2611 0
3299 -1671 0
-2336 -132 0
-3336 -3066 0
-1789 2679 0
380 2215 0
-3077 2718 0
1364 1898 0
-3182 -3198 0
749 -194 0
3329 -1775 0
-1922 3294 0
138 -555 0
-2722 -2485 0
3242 -2516 0
-3062 -735 0
-874 2851 0
-1441 3377 0
2553 1094 0
1184 3192 0
-658 -2752 0
302 2003 0
-1438 -1771 0
2240 -2802 0
-2589 -696 0
1809 -2359 0
48 -380 0
1498 -223 0
-240 2813 0
42 1459 0
-2761 1651 0
2391 -1173 0
820 1099 0
-1680 1351 0
-134 -2744 0
689 -1753 0
886 -3086 0
2708 -42 0
53 831 0
832 1631 0
-3248 -461 0
940 -2762 0
-3096 1416 0
2000 -1977 0
-2414 1068 0
904 2728 0
-1530 -1218 0
-2615 -1981 0
2609 1036 0
-1331 3308 0
-2152 2533 0
-1770 2157 0
1429 2990 0
-1939 337 0
-2918 -1457 0
2628 -3334 0
1817 756 0
-2076 1993 0
3243 -652 0
2557 -1308 0
2714 1138 0
2381 -2177 0
-2034 358 0
-1133 1588 0
3405 -1889 0
762 -1581 0
3206 1297 0
-342 -2849 0
419 -1715 0
1834 3168 0
-2481 2722 0
1980 -749 0
-1517 3348 0
2046 -254 0
2425 -3071 0
567 -745 0
2187 2021 0
1099 -219 0
3391 -1975 0
3311 -201 0
1812 -2504 0
-2791 -2802 0
1204 -1399 0
1407 807 0
-3208 762 0
778 2155 0
75 1684 0
-84 -297 0
-538 -900 0
2561 2695 0
2535 456 0
-3021 1816 0
3285 -986 0
-742 330 0
-3329 -1000 0
713 -769 0
3126 1042 0
2679 102 0
2322 3172 0
467 2312 0
1529 -2932 0
-2631 -1766 0
824 -1475 0
-1210 2671 0
1294 585 0
3017 -553 0
-2402 -724 0
387 -696 0
-256 -3404 0
-2209 1891 0
496 -2005 0
-590 -1684 0
1576 486 0
1278 2811 0
-1861 -2877 0
1626 -2518 0
-1795 1235 0
458 3069 0
-1181 3263 0
-298 562 0
1774 1553 0
-2858 -3368 0
-1618 2648 0
-2270 -1951 0
-2421 -146 0
-2937 -3030 0
616 -2399 0
2199 217 0
1883 -3160 0
337 -3148 0
-1284 -1738 0
2961 -31 0
-3128 3180 0
-49 -594 0
-1897 717 0
-2348 -3138 0
-402 -2302 0
2116 -2325 0
-3143 287 0
-2318 -1106 0
-3280 -1266 0
1925 1397 0
2596 900 0
-914 3228 0
1584 -185 0
-376 765 0
-298 958 0
-860 -3376 0
-2495 -2829 0
-2892 -1928 0
1759 503 0
3263 2335 0
-1162 -328 0
1095 1821 0
2983 683 0
2472 2836 0
-1705 -2481 0
-2168 -2193 0
-2081 -2894 0
1799 324 0
1629 22 0
1689 -1126 0
-3370 -440 0
1244 -1034 0
1258 2489 0
2249 -3348 0
2635 -637 0
-1827 -2713 0
1422 -1721 0
1377 2415 0
2104 -3195 0
1693 11 0
626 2017 0
-250 2019 0
-2505 -37 0
515 -865 0
-1862 1978 0
-1638 -1542 0
-3076 -907 0
-518 1195 0
113 993 0
-946 148 0
-938 2600 0
2213 1157 0
869 -1517 0
-1531 191 0
-2640 889 0
1478 -3044 0
3098 1767 0
-191 -1000 0
-1552 -2538 0
-1604 -435 0
-2724 1088 0
-2779 -1116 0
631 1940 0
2434 -182 0
525 -721 0
-2025 1487 0
-1146 2729 0
2140 653 0
1257 1791 0
3351 1505 0
-1940 -3358 0
157 -1137 0
930 2268 0
-1523 -722 0
-1152 2145 0
40 1985 0
-580 624 0
-2450 -2996 0
735 3185 0
2183 -1507 0
-918 2980 0
-544 -1957 0
-590 3322 0
2248 1959 0
-2064 804 0
193 1590 0
1906 -1285 0
-1262 2758 0
797 -2584 0
958 1071 0
1594 2985 0
-2744 2233 0
-2655 -1988 0
2036 -2267 0
1244 113 0
-2187 1481 0
-1223 -1463 0
-2640 -703 0
-900 -2719 0
-3378 2622 0
3228 -1346 0
2619 -2412 0
2331 387 0
-2735 -2585 0
-2487 -3051 0
3092 -2068 0
-1655 1386 0
658 173 0
-2516 2896 0
-2754 -845 0
-1835 86 0
2446 2855 0
-1534 -16 0
320 104 0
1589 2878 0
3004 1748 0
2338 -2476 0
-1956 -2788 0
2960 -1401 0
-3248 1680 0
-396 -2528 0
-249 -2387 0
687 -1942 0
1327 25 0
627 -1877 0
-151 -1443 0
1906 3226 0
3314 1285 0
-621 141 0
565 1396 0
-1931 475 0
-374 1572 0
-2470 -2086 0
-1579 2812 0
1623 2087 0
3269 750 0
200 1568 0
-2151 -845 0
341 -511 0
538 -2572 0
3131 1610 0
-1109 1954 0
3375 551 0
-3343 2423 0
1153 2459 0
2120 -1504 0
3112 -620 0
2107 538 0
484 516 0
1703 -672 0
-9 285 0
-2657 -475 0
-2270 3079 0
2035 1087 0
-2598 1147 0
-3273 -26 0
2093 -3104 0
-749 -1231 0
-104 3177 0
-1841 2711 0
-2186 720 0
-720 187 0
1945 2941 0
-2211 1536 0
-3172 -2617 0
-1105 510 0
949 1469 0
2030 410 0
-3221 1029 0
-449 -1438 0
-938 1034 0
2250 -1070 0
-1761 -2386 0
1818 151 0
-1818 -2712 0
-3147 2480 0
1534 906 0
880 902 0
177 377 0
1786 -707 0
3312 1719 0
-2256 612 0
-661 2250 0
1806 902 0
-2243 3091 0
2035 11 0
1972 -904 0
-884 3403 0
-2168 2248 0
2766 -1663 0
3041 842 0
1770 3112 0
-934 -1742 0
1617 -2961 0
-745 -1092 0
-2715 -201 0
-411 -2629 0
2223 -1634 0
3095 -108 0
347 -388 0
3298 774 0
1495 3091 0
3174 1592 0
2188 -69 0
1150 -311 0
1275 3091 0
-1890 1343 0
-1502 2147 0
1170 261 0
-1277 -542 0
-2505 -2294 0
-2659 3116 0
1722 -435 0
269 -1123 0
-3363 2000 0
2485 -2626 0
726 -3047 0
-588 -2995 0
-753 3113 0
772 1306 0
-2658 2111 0
-1898 1006 0
1355 -1428 0
-2448 -2967 0
-2662 1789 0
-203 529 0
-1635 -1808 0
-2938 -386 0
-2840 -2981 0
151 -2469 0
-1647 3287 0
-1964 -2420 0
2320 -2059 0
-2903 -712 0
3011 -1428 0
2846 2656 0
-290 -1159 0
1926 -2679 0
-2861 1174 0
-1113 2501 0
-2326 -2391 0
79 2975 0
1381 2175 0
-1072 370 0
-1420 -1271 0
1067 371 0
-89 2489 0
-896 513 0
469 -2651 0
600 -440 0
2845 3226 0
-2388 -1168 0
-1707 2083 0
1604 2329 0
2565 1589 0
-2726 538 0
325 2024 0
2571 604 0
-1825 -114 0
1073 1402 0
2831 2307 0
434 2818 0
2445 -678 0
46 -35 0
-877 1506 0
-960 -1175 0
-2169 -1564 0
1967 3406 0
-2614 -201 0
-1312 1147 0
1372 -1778 0
-1555 -2967 0
-3359 -3137 0
2215 -1318 0
-1255 2249 0
-1574 3206 0
-2062 1330 0
-3376 813 0
3399 2464 0
-2976 -1843 0
-1851 2945 0
-2562 -2098 0
1668 -677 0
-1693 -2937 0
1189 -991 0
-3124 -1997 0
-2316 -2212 0
2185 -207 0
1957 2187 0
1854 2009 0
2834 2102 0
2545 418 0
-1483 1214 0
2025 -446 0
-767 -2722 0
-3349 -1500 0
-3283 1214 0
-2798 1357 0
1769 -1911 0
-534 -1909 0
-35 -555 0
672 2180 0
-1917 2771 0
-1181 -152 0
-1732 -989 0
-3314 -2935 0
1153 -1395 0
-2154 412 0
906 -2311 0
-970 -1473 0
-2207 1206 0
3105 1818 0
497 984 0
-2460 2721 0
63 978 0
2591 -2555 0
605 -916 0
337 2103 0
-2795 2997 0
-1024 -681 0
2031 88 0
-2050 2909 0
-1740 2860 0
2595 2335 0
157 -940 0
-225 -1653 0
2145 2829 0
-1806 2403 0
-2598 -898 0
-1984 2944 0
-1565 1172 0
46 327 0
673 253 0
1532 1632 0
2200 -1739 0
3302 -2624 0
-76 -1182 0
535 43 0
-1612 287 0
-1408 -1099 0
-2610 -1744 0
-3087 -1634 0
-2889 1778 0
-1376 -1952 0
796 3260 0
1463 -2075 0
270 -1996 0
-1459 -3369 0
327 -2879 0
-700 1506 0
326 -857 0
-719 -3044 0
-2757 -1383 0
-372 592 0
-1534 3066 0
2869 -1291 0
-2782 -2795 0
1402 279 0
1830 1527 0
1301 2798 0
2558 -1358 0
-1816 -14 0
1392 2864 0
213 -23 0
2895 2047 0
757 1531 0
-722 -1283 0
1504 395 0
-1059 -962 0
-437 437 0
-3329 -2288 0
543 -2044 0
-2407 2692 0
77 -562 0
-3139 1666 0
3119 -3202 0
-832 1348 0
3383 472 0
-1464 2279 0
1463 1161 0
2761 -2888 0
2140 -3256 0
3339 1089 0
-2633 -2820 0
-3225 -428 0
2385 3215 0
2702 -2515 0
2505 2286 0
-2365 -3090 0
1265 1910 0
-2166 1551 0
2265 1558 0
-1729 1836 0
83 -1839 0
578 -3301 0
734 -3268 0
1929 -485 0
2867 302 0
-2221 2279 0
262 1887 0
-2889 -2406 0
-717 -3407 0
-2572 -3278 0
268 1544 0
-417 592 0
1694 2157 0
-1482 -2665 0
-167 151 0
-2014 -3019 0
1873 2507 0
-338 1178 0
-1928 -622 0
358 -3256 0
-1546 1210 0
801 -2501 0
2914 -3335 0
1824 -2410 0
-1922 -871 0
457 -1922 0
307 1276 0
-676 86 0
1547 1081 0
-1469 -1797 0
-2005 2900 0
1605 -732 0
-72 -2896 0
1525 2592 0
-23 -2397 0
-1033 -2335 0
-3218 -2395 0
3014 1835 0
177 1578 0
-1281 3375 0
-2893 -2358 0
1260 1250 0
3306 1360 0
-2782 2417 0
6 2338 0
-999 1381 0
2161 -1569 0
2968 1033 0
1842 3350 0
-1657 -2031 0
984 1772 0
2460 1347 0
66 -1509 0
2284 2759 0
-152 -2658 0
519 -1091 0
2670 -450 0
3372 -1497 0
65 -1569 0
1266 1817 0
963 2396 0
112 -545 0
2562 1285 0
3269 -514 0
2887 899 0
-1660 1675 0
-3228 -1775 0
-688 3271 0
-2993 2746 0
1314 -2271 0
-938 -755 0
2528 -2706 0
2673 459 0
3298 3389 0
2009 2001 0
1652 -686 0
772 -820 0
-1203 -183 0
1088 -519 0
1455 615 0
-77 -1008 0
-1496 5 0
769 3228 0
277 121 0
-2197 -2223 0
-494 2711 0
-1561 -57 0
-1986 -2229 0
-2621 -94 0
1138 80 0
-2915 -1156 0
-2185 -2316 0
3075 2376 0
2191 -80 0
229 -1457 0
-197 -2603 0
2129 834 0
-2124 -1437 0
1274 2875 0
307 3285 0
-1010 -2185 0
932 1787 0
-886 154 0
1792 2273 0
2323 301 0
425 -3090 0
598 2745 0
1067 -1703 0
1308 -2728 0
445 1501 0
-640 274 0
1724 -84 0
2718 1272 0
1143 1798 0
1430 -2621 0
1638 -60 0
1885 1288 0
-1693 -1760 0
-2548 1378 0
-1142 -1562 0
987 1461 0
2932 2810 0
-1211 -611 0
-1001 -710 0
1155 -760 0
424 1920 0
3069 1339 0
472 1137 0
3115 2844 0
1982 -3260 0
465 -1487 0
-1019 3303 0
-80 105 0
1069 1578 0
3253 -1639 0
3276 3185 0
3060 -3289 0
2835 -2668 0
1011 1201 0
143 977 0
1911 -628 0
1578 -897 0
2134 32 0
-2957 2882 0
3052 -1438 0
2554 -2590 0
3297 468 0
-1894 2142 0
-1800 514 0
-435 -924 0
1962 -2214 0
-1047 564 0
1729 972 0
2403 2230 0
200 1016 0
3169 3310 0
-731 1509 0
-1971 2312 0
-2664 2832 0
-3172 -1066 0
409 1134 0
1017 2508 0
-1888 3389 0
987 1273 0
237 -1503 0
-2726 -593 0
1683 -1428 0
-638 -1893 0
-134 -2585 0
1164 -93 0
1781 -2436 0
304 652 0
3297 -2475 0
-2182 -3346 0
3398 1268 0
1793 -1745 0
-2225 3324 0
1765 -3020 0
-400 1628 0
-1245 -309 0
1315 -1633 0
485 -191 0
-2866 -2535 0
-1725 1413 0
-750 256 0
-2575 2382 0
2202 2429 0
-3253 -2777 0
-1732 42 0
2066 -894 0
2896 1689 0
-176 -1665 0
3312 -855 0
-719 3007 0
1276 3294 0
524 1556 0
2945 2998 0
-420 -1082 0
-267 -1777 0
457 -652 0
2822 845 0
-148 -2832 0
-525 -556 0
-3393 -601 0
-266 3376 0
-2433 1627 0
1032 -3265 0
2322 -1996 0
-3053 2442 0
-3319 -584 0
2596 2016 0
2920 -222 0
1841 3169 0
-93 137 0
2763 2120 0
1597 -2573 0
1219 171 0
-67 -655 0
-1310 -966 0
-3319 740 0
-675 -1000 0
373 -215 0
-2949 -3336 0
1941 -2184 0
-1514 -2335 0
-433 -1530 0
624 -1774 0
3067 -1535 0
-1603 -3392 0
-3286 -1395 0
-2156 -1174 0
3025 -2219 0
2616 1519 0
-2719 -58 0
-1852 2727 0
3207 2303 0
370 -1274 0
1261 1025 0
1389 2108 0
236 1377 0
2035 -1842 0
-2023 -1708 0
-3068 -935 0
-329 2103 0
-965 1207 0
-838 2232 0
1918 -1603 0
390 2570 0
-2903 -2985 0
1764 3391 0
-1923 -1872 0
-1737 -2020 0
-3282 -3259 0
-2062 2361 0
3083 -1641 0
3146 2856 0
3092 -436 0
-2701 1225 0
-281 2027 0
-3179 454 0
1288 55 0
3380 -1614 0
3193 1119 0
2295 2366 0
315 2440 0
2254 -1523 0
-1902 3141 0
-2943 2690 0
-617 -2580 0
2578 -1546 0
-409 1933 0
-2598 -2521 0
-1649 567 0
-1637 3329 0
-1530 2838 0
2958 -1397 0
-3309 2947 0
-2685 928 0
2320 1811 0
669 -2532 0
-1545 998 0
-693 -2320 0
2443 -1491 0
312 -2475 0
-1010 1220 0
1095 -1255 0
-1604 1411 0
2961 3182 0
-1320 -1119 0
-2570 -3393 0
1600 -2612 0
-1194 -1763 0
-1140 263 0
768 -3311 0
2438 -2396 0
2377 2830 0
766 -3139 0
-519 -3162 0
-2635 -1430 0
3344 -482 0
769 -796 0
-1663 1261 0
1043 -1251 0
-2880 2313 0
3115 2596 0
2327 -744 0
1774 -1977 0
461 814 0
3072 -2600 0
-2976 -2459 0
-2226 -790 0
1789 -2705 0
1670 753 0
-3224 -1688 0
3165 994 0
65 -584 0
1149 2426 0
850 -170 0
2870 1116 0
1621 -2820 0
-2620 157 0
-2516 2004 0
-284 2269 0
-3242 -1724 0
2417 2092 0
1017 -2452 0
-1758 1834 0
2058 -3098 0
-1663 -132 0
2167 320 0
126 1120 0
-342 -1756 0
1835 -26 0
-968 3167 0
699 3321 0
-1154 -2934 0
2117 322 0
1405 1965 0
-393 -2800 0
1277 2334 0
1971 -1505 0
3294 3029 0
-3286 3112 0
2667 1264 0
-3038 -2654 0
2882 1337 0
-2362 -1159 0
-695 -2779 0
-2165 2658 0
-471 1368 0
-1291 -2084 0
2547 2206 0
-3001 2908 0
-3071 -645 0
-2178 3251 0
2801 2270 0
-478 -1890 0
-530 1836 0
3108 2203 0
-2439 1601 0
463 1854 0
-279 2382 0
-876 -877 0
-2371 -274 0
1590 2792 0
2635 -1600 0
990 2449 0
-1741 -1408 0
2478 3346 0
2689 1558 0
2591 1208 0
2586 1936 0
-2297 357 0
724 1376 0
-753 -2221 0
607 -519 0
1269 -712 0
-605 3186 0
-571 3065 0
-1329 715 0
2554 -3276 0
-749 3202 0
1668 -735 0
1285 -1914 0
2948 854 0
2906 -2699 0
812 1086 0
12 2567 0
-2559 2764 0
2719 -973 0
2139 383 0
-3237 -394 0
-987 -2938 0
-2820 -2686 0
-968 330 0
165 640 0
-1158 824 0
-1622 -2597 0
-3261 -697 0
-144 2310 0
3219 -2452 0
-1337 -3396 0
-2229 2270 0
-550 1880 0
1767 741 0
44 2212 0
739 1279 0
1804 -1267 0
-3398 -3172 0
-39 -915 0
-1007 -2162 0
-1120 -85 0
2005 -2349 0
-1505 2415 0
606 2194 0
-2299 -1231 0
784 2952 0
668 2666 0
1225 -2636 0
795 -1295 0
-2082 380 0
2313 2186 0
-1566 -1725 0
-142 -2693 0
-317 -1044 0
1268 2954 0
1068 1952 0
59 -671 0
-886 -433 0
-1599 -640 0
-1018 1879 0
-1871 2097 0
322 271 0
1137 -2260 0
2838 1937 0
1375 669 0
156 1684 0
-436 2105 0
2291 -1010 0
-328 1449 0
-2853 921 0
483 -962 0
2772 -822 0
1434 229 0
1760 2161 0
1347 -2831 0
-2957 1496 0
-1608 -2703 0
3196 858 0
-65 2458 0
945 -2806 0
1749 1858 0
-50 -133 0
2085 -1217 0
-1362 -2542 0
-1890 2307 0
-1181 -2389 0
-1118 -3307 0
1554 -1514 0
813 -2356 0
68 -902 0
2035 2408 0
-1815 -716 0
-1482 2940 0
1837 313 0
3366 364 0
-2955 566 0
534 -2328 0
2302 -2637 0
2982 3069 0
3270 -1766 0
-431 -1142 0
-3283 2312 0
-2826 918 0
-23 -764 0
-156 -2427 0
-710 1349 0
1667 2483 0
334 2041 0
-527 -72 0
1834 -1414 0
-1490 2394 0
-388 1038 0
-3077 -3280 0
-2882 1688 0
-2113 -1022 0
2733 1195 0
3295 2034 0
-728 -2625 0
3216 -2686 0
-2910 2072 0
-2893 -484 0
-1216 3353 0
-2084 2812 0
1108 -1414 0
65 -1641 0
-3032 -2861 0
2114 1388 0
2485 1279 0
-3170 1498 0
-2330 -3248 0
1578 -2508 0
-861 2516 0
-1186 2675 0
3029 -3215 0
2274 -2108 0
-2298 158 0
-580 2326 0
-1022 1252 0
2803 -780 0
43 -1121 0
-1684 2841 0
-2024 3099 0
2070 1039 0
460 -2885 0
-600 -1745 0
1015 2197 0
2563 1364 0
122 -2081 0
2817 -1463 0
-2244 442 0
-1514 -3050 0
-658 319 0
592 -1787 0
-1377 652 0
-878 -2032 0
-3333 1987 0
-2623 -2872 0
1842 -1160 0
-1947 1577 0
-450 -289 0
-2744 1295 0
2849 -1603 0
-140 -2227 0
-87 3266 0
-874 795 0
-1482 -1658 0
-342 -654 0
2914 -3054 0
-2210 2656 0
-917 -1870 0
-259 2038 0
3096 -1509 0
1078 3370 0
1054 -1983 0
-2245 1282 0
296 -2762 0
-2534 2280 0
29 -2903 0
2033 -2185 0
-450 1118 0
1597 2322 0
-1922 2164 0
-2441 1316 0
2860 2242 0
-1633 3348 0
113 -1968 0
1507 3159 0
2587 2123 0
-453 -547 0
-2687 -1779 0
555 -2141 0
-1626 -2334 0
-1177 -1840 0
-1572 -2494 0
240 810 0
1045 1521 0
793 397 0
-56 -788 0
1801 1499 0
1495 235 0
-695 -2745 0
-1373 3073 0
-712 647 0
-3354 -3053 0
907 -1239 0
2013 -299 0
-1600 -2176 0
203 1823 0
3077 -1339 0
2588 1593 0
2246 -2611 0
881 -1516 0
-1455 2675 0
-1432 -399 0
1592 1173 0
1700 -3117 0
556 3274 0
2923 -482 0
-2323 875 0
1706 -731 0
3152 346 0
-2336 3140 0
1856 2614 0
1652 -2892 0
2224 357 0
1424 -1200 0
1712 -985 0
-2435 -808 0
802 2916 0
1655 1404 0
-2070 -1969 0
-3405 -240 0
-1138 2445 0
-1426 -511 0
-2340 -2356 0
425 1737 0
2396 1164 0
1956 -983 0
-1482 -415 0
-2713 -3173 0
-621 3187 0
2644 200 0
2000 -2126 0
2937 2832 0
404 1112 0
2670 477 0
-3202 998 0
1365 -2944 0
954 -1284 0
-3120 -1814 0
-667 -2688 0
-2967 -975 0
535 -2678 0
-2399 -2054 0
-1403 -505 0
2532 1748 0
2757 2671 0
2077 -2638 0
-277 -2515 0
-422 1101 0
1442 -2743 0
2328 -1790 0
2537 2558 0
1153 2018 0
1495 644 0
-1230 -653 0
-780 -3266 0
2151 1839 0
2612 1419 0
-854 -2113 0
-2715 -1306 0
-1864 -2066 0
-2528 -149 0
1544 -2648 0
141 -3125 0
2070 2355 0
-908 -778 0
-1357 -1945 0
-3068 -2152 0
1461 -3188 0
-2309 -1955 0
-875 -907 0
158 -614 0
336 355 0
-1776 -2278 0
-1280 1250 0
1628 -3262 0
2854 1838 0
-2420 1493 0
-985 2635 0
59 494 0
1818 -1503 0
3339 -3185 0
-612 2648 0
-2318 -464 0
1161 -1591 0
-695 -1432 0
-2520 2694 0
668 -2428 0
-3273 -2804 0
-1766 2457 0
-1045 -393 0
440 2960 0
2041 -2833 0
-354 -1509 0
-2523 -829 0
1448 2679 0
-509 -669 0
1918 -1039 0
-1385 1292 0
277 2911 0
-1905 -582 0
914 1088 0
1955 -2909 0
-3175 -1251 0
-1644 -2234 0
2694 -2821 0
-55 1525 0
-2398 1083 0
-1847 -2110 0
1357 1631 0
-2517 1522 0
1002 365 0
1899 -1331 0
564 -363 0
-1066 1545 0
-2427 2965 0
-2368 1040 0
-2851 -2830 0
-2769 1950 0
-2297 3224 0
-523 2241 0
-2650 2599 0
-822 -1662 0
-1393 -1497 0
-1307 -1632 0
-1024 2429 0
-1346 -2544 0
1650 685 0
-1376 2902 0
1675 517 0
-1555 737 0
-1637 -1181 0
-1499 -1110 0
-436 2357 0
365 1109 0
-2086 -2366 0
2572 371 0
-2866 3364 0
2845 -3400 0
140 3277 0
763 510 0
2206 215 0
2630 -1359 0
378 2991 0
-1103 2032 0
2017 2342 0
438 3278 0
602 68 0
-1661 -698 0
-315 1821 0
2951 2100 0
2960 -1670 0
2311 -2204 0
-2336 -2834 0
1838 899 0
-1026 -1839 0
282 16 0
-2882 -1322 0
-1658 -1158 0
1173 300 0
-79 -1431 0
-1107 -1289 0
1327 -3270 0
2782 -245 0
-803 1207 0
1220 1835 0
2291 -1100 0
-1096 1715 0
545 -2995 0
273 -1316 0
634 1785 0
-1924 963 0
2470 1892 0
-824 2424 0
1489 3031 0
-2211 -779 0
278 2962 0
1017 -1705 0
-1761 -3317 0
-1371 2260 0
-404 -2421 0
2541 1521 0
-1133 975 0
-1732 2718 0
-527 -3355 0
1350 1421 0
3077 457 0
-3060 -1375 0
-2869 -2642 0
1905 2896 0
2497 707 0
-1180 -3142 0
-1871 27 0
1345 430 0
-1927 -2289 0
-153 426 0
-2158 -58 0
-800 -635 0
-1194 -2595 0
-1751 2862 0
-2475 -1608 0
2807 563 0
3082 -1444 0
-507 543 0
2860 -1643 0
-955 -3011 0
513 -1770 0
-2829 2982 0
2239 -3260 0
-1951 -2494 0
1017 -342 0
-1211 -2027 0
-1967 2758 0
2181 -1093 0
-2109 2070 0
-3097 2605 0
-2488 -2811 0
2650 239 0
1042 1743 0
1723 1679 0
-1476 -3280 0
-2325 3120 0
-688 3236 0
-2727 -1741 0
-505 430 0
41 -1706 0
901 -411 0
3390 -1506 0
-2451 2403 0
-3262 -2445 0
-2719 -1923 0
-702 2068 0
-2949 -3274 0
-1398 957 0
1647 -1458 0
2127 3231 0
-1350 2974 0
-1049 -2663 0
2174 -1785 0
-258 1775 0
1182 -1653 0
-2013 771 0
-1923 -2885 0
784 940 0
3315 324 0
-342 1522 0
-1427 -2778 0
2044 1151 0
-1803 371 0
2569 2810 0
-2686 -1558 0
-1922 -2502 0
3196 -1836 0
937 919 0
911 1370 0
-2547 2310 0
-80 -2410 0
-2502 772 0
-3357 2894 0
-2978 -1 0
678 2390 0
-2406 3406 0
-2394 -1342 0
-2431 322 0
-928 -2621 0
683 -955 0
2930 2636 0
796 -408 0
346 2456 0
878 3153 0
-1995 1191 0
-2226 -1198 0
3043 2912 0
-1909 3354 0
1178 3155 0
-865 -493 0
-990 -605 0
-511 -1342 0
-2999 2975 0
1469 3000 0
166 -857 0
-2675 2764 0
-12 -2323 0
-546 -3003 0
44 -1143 0
310 947 0
-1843 -3180 0
-1617 -1990 0
-1683 34 0
3330 1665 0
1839 -317 0
1573 2015 0
-641 2219 0
-2314 215 0
-3100 -409 0
-1022 1093 0
2485 1353 0
3059 1361 0
-398 -398 0
27 1985 0
2444 -2972 0
-2572 2859 0
1698 1242 0
-1695 -3308 0
-976 547 0
1327 2844 0
-2318 -2979 0
-2611 -632 0
690 -968 0
-149 -2367 0
-3259 368 0
-1440 2724 0
-88 1865 0
1731 -2769 0
246 851 0
-288 687 0
-3179 -2893 0
2897 -2309 0
-985 266 0
180 1807 0
2579 -1704 0
1297 1487 0
-3033 -403 0
1351 496 0
-1977 -938 0
3215 -1106 0
2860 -2350 0
2981 -3374 0
-711 3201 0
-3064 -231 0
3210 936 0
1796 2460 0
-3279 2836 0
1240 656 0
564 293 0
9 1624 0
18 -1780 0
-2354 -3254 0
1660 1623 0
2965 865 0
-2428 -2060 0
641 -3235 0
-2669 -522 0
3228 2669 0
145 3041 0
-652 908 0
-1924 2878 0
3158 -437 0
114 -2326 0
2968 1803 0
-1736 2432 0
2476 -625 0
-1370 -2345 0
-1003 -2154 0
2814 1343 0
-574 -1850 0
1504 -2934 0
-1324 -3180 0
-2160 -9 0
594 -3398 0
3234 -3216 0
-97 3006 0
1078 1366 0
-372 145 0
-1927 -246 0
-1538 -285 0
-2669 2518 0
-1980 499 0
-2143 -273 0
-263 2191 0
1937 3145 0
-53 -2330 0
116 2848 0
-3352 -3181 0
1612 -1071 0
1021 -2714 0
2279 -2680 0
1020 -2374 0
1468 -2689 0
-818 1235 0
1288 -2501 0
-3345 2451 0
-2117 -924 0
-123 699 0
-630 -2951 0
2139 -2223 0
-1228 2908 0
-2373 2544 0
-1671 2685 0
2191 -3065 0
-332 2603 0
1998 -1230 0
911 -2225 0
316 2192 0
-1603 -2857 0
1869 253 0
-1319 293 0
-573 -2774 0
-465 -758 0
1813 136 0
1575 612 0
-1249 3313 0
2589 -3068 0
-1823 -2178 0
-653 -329 0
2217 2317 0
1833 -2509 0
-1987 -3050 0
-155 1857 0
-2915 1703 0
1629 1286 0
3314 310 0
-148 1286 0
1385 505 0
-1794 -1738 0
2175 1987 0
-856 -254 0
-584 -148 0
-159 -1726 0
307 -2575 0
2111 1355 0
-418 3316 0
3365 2383 0
1361 2656 0
2273 3089 0
547 -1470 0
-3304 -3026 0
112 -48 0
-2098 -1158 0
-2319 -1951 0
-995 1182 0
-1060 -2086 0
-825 -2451 0
-281 -2271 0
-1851 -1004 0
-729 -188 0
-863 2436 0
-2995 931 0
-1993 -180 0
2583 -166 0
-1762 -2362 0
-2773 3246 0
-2779 1630 0
1365 -72 0
-2458 -1538 0
3162 -2559 0
-1452 -1374 0
1605 -1702 0
-1591 -2639 0
949 -968 0
1040 -1842 0
1404 161 0
-2878 2304 0
756 1265 0
-3287 -883 0
1509 -2511 0
-250 2867 0
-679 2061 0
2261 -1711 0
-1410 1845 0
2952 1249 0
913 3351 0
2457 1999 0
2188 -1266 0
-3079 1954 0
2645 1365 0
-3258 -2308 0
-3009 83 0
-953 437 0
397 -3086 0
-1494 -882 0
-2256 -3019 0
624 386 0
3076 3037 0
644 3095 0
-969 2074 0
1087 -856 0
-107 1344 0
-1255 -2807 0
-2559 342 0
3076 -642 0
2166 -118 0
397 -1433 0
3189 2725 0
-1827 1271 0
3010 2062 0
-446 -1590 0
3317 743 0
212 -1760 0
2995 810 0
-3041 -3128 0
-3180 1598 0
2586 306 0
-1012 -3146 0
-1647 978 0
2761 -1220 0
-916 497 0
1549 1020 0
-1503 -2959 0
3047 456 0
-366 184 0
981 1101 0
-275 1334 0
-2750 1641 0
-185 3067 0
-3259 254 0
2775 190 0
787 1016 0
2899 3377 0
664 -2414 0
-1875 -1919 0
-2657 -1630 0
838 -1665 0
3141 -255 0
-2740 2453 0
1765 -865 0
-2584 -2080 0
1556 -826 0
2711 -1743 0
-2692 412 0
1368 51 0
2250 1786 0
-3052 2619 0
1861 -1420 0
-1483 -1758 0
370 -186 0
1883 269 0
-2788 2775 0
3225 2272 0
-2978 -2359 0
1979 -3366 0
317 801 0
3162 -3150 0
-3196 1023 0
-227 2079 0
-592 1111 0
1302 -737 0
-1225 -1928 0
-878 -3405 0
-1714 536 0
-91 2030 0
-193 291 0
1998 -2326 0
1793 1827 0
-751 -37 0
1166 -707 0
345 -2005 0
2501 3253 0
-3320 1960 0
598 -329 0
-3395 576 0
-3074 -3351 0
3317 1318 0
-938 -1374 0
-1058 2716 0
2483 1258 0
1548 -84 0
-1457 -2862 0
-290 3316 0
3029 850 0
2781 1313 0
1625 1252 0
-1607 -1143 0
2387 -3066 0
-2907 -264 0
2202 -2917 0
-431 -329 0
2810 707 0
2939 -2583 0
3045 854 0
-533 114 0
-2533 -1915 0
-727 -3260 0
-1109 -1603 0
3234 310 0
1343 -2924 0
-58 3348 0
-1770 -3257 0
757 -626 0
2981 -2311 0
2281 -2964 0
-1797 -3055 0
2717 280 0
327 -2919 0
915 -413 0
1946 -3024 0
-3354 1316 0
542 -2364 0
2891 -348 0
2526 2483 0
1544 1562 0
1675 3326 0
-1155 -124 0
-2353 -708 0
1159 -1117 0
659 -1905 0
-3127 2070 0
1452 -3066 0
-672 -1356 0
-967 -3099 0
-1522 -1473 0
1078 -820 0
2589 -1842 0
-1790 2810 0
-410 2673 0
620 3380 0
1461 2004 0
-2272 1816 0
350 1862 0
-194 2503 0
-191 -2493 0
3270 -3026 0
2551 -2341 0
2830 2823 0
-2520 1166 0
3073 -2417 0
-415 -2271 0
606 1277 0
-2513 700 0
-2146 59 0
-1589 -840 0
-283 -126 0
-142 2843 0
-2345 -2350 0
2170 -1761 0
-1661 357 0
283 1551 0
-1638 -168 0
2163 -487 0
970 3105 0
-2847 1083 0
-1779 3010 0
-1532 -2589 0
205 944 0
3263 2065 0
1284 2931 0
1784 -1580 0
2683 1803 0
-388 -1570 0
-38 1045 0
1536 -411 0
2591 -3038 0
2774 2466 0
1481 1146 0
3075 -2202 0
842 -656 0
1219 2552 0
-2301 -583 0
-2218 -2034 0
-2835 426 0
-110 2966 0
221 -2015 0
545 -3156 0
-1756 2048 0
1481 -1190 0
2423 1183 0
1903 -3296 0
2912 868 0
-2447 -776 0
-1846 869 0
2383 -495 0
3161 1715 0
-708 -1520 0
-3019 -1897 0
-1574 2003 0
1782 -3223 0
2632 1562 0
-1420 -1330 0
1429 -369 0
-123 1847 0
-1977 1086 0
902 2187 0
-78 -625 0
2958 -3332 0
-302 169 0
-3118 -1532 0
-2211 541 0
769 538 0
-1002 -1266 0
2968 43 0
-1424 2961 0
419 -1626 0
2862 3047 0
2716 -191 0
-223 534 0
-2460 -2913 0
-2090 -679 0
-2556 -459 0
-1700 2982 0
387 -922 0
-1358 2779 0
-2302 -965 0
933 -349 0
-1171 -488 0
-94 2155 0
-863 -2397 0
-2686 -3283 0
1314 -3405 0
2011 1638 0
-1041 2602 0
-3345 -3017 0
-752 -2148 0
674 2223 0
2591 -1395 0
-1408 -3112 0
2424 2908 0
-1090 2588 0
2648 92 0
500 3304 0
-1873 -257 0
3180 -952 0
2450 -822 0
1799 -2505 0
-814 121 0
591 3211 0
-2143 -1814 0
-2779 -23 0
337 2384 0
2892 339 0
2586 -3200 0
992 1938 0
-3198 -3034 0
-1827 3008 0
-1936 -487 0
-1456 1250 0
-2794 3360 0
1234 2718 0
973 -502 0
-3376 1605 0
923 -599 0
235 -1062 0
1624 2861 0
2856 186 0
-386 2161 0
2339 -1079 0
1850 -2883 0
2765 -3358 0
-1709 -1811 0
2270 1244 0
2902 2350 0
-3079 1723 0
-12 3057 0
2870 168 0
-954 2317 0
-186 -2918 0
-2106 683 0
463 -1512 0
-2728 3205 0
1378 -1452 0
1208 3092 0
-784 43 0
-3341 -2735 0
1652 -1035 0
2384 3301 0
-2737 -2773 0
85 -3229 0
3167 -1980 0
507 864 0
-281 2990 0
2055 2076 0
2982 1290 0
-1081 2399 0
-268 -3156 0
-2221 567 0
3014 -2950 0
-371 2641 0
2819 2476 0
-2530 978 0
262 2635 0
1715 28 0
2492 3325 0
1675 2239 0
-1344 944 0
1267 -542 0
1166 -2677 0
-963 -1930 0
-3300 -1189 0
-1247 408 0
2519 -999 0
1472 -305 0
349 -920 0
4 -1641 0
2765 2381 0
2576 1101 0
-969 2765 0
-471 -3007 0
-2189 -2717 0
-2032 -1295 0
2982 -3366 0
-419 2321 0
368 2766 0
2054 -2297 0
-1790 -2790 0
2690 340 0
-804 -2949 0
-239 1584 0
2671 2602 0
1933 -1246 0
2906 -1166 0
-1998 -3392 0
-103 -411 0
2465 1396 0
-877 -2436 0
-2762 -1023 0
-683 -2067 0
-1442 871 0
1887 3186 0
1497 -2748 0
221 -1001 0
-838 1403 0
-1087 506 0
-2481 2070 0
-1636 -1690 0
1357 -1367 0
-2489 -3164 0
1799 -215 0
-3209 -1117 0
-354 1226 0
-1498 1084 0
2795 1762 0
-3143 2108 0
-1031 3252 0
-713 15 0
-3120 -909 0
848 -212 0
-830 278 0
2958 2982 0
2188 -2785 0
3367 1199 0
-1433 -1272 0
-290 -302 0
-133 -1747 0
-1190 -3069 0
-1485 3125 0
2396 2512 0
-1739 -1165 0
862 -1665 0
2758 1464 0
697 -1192 0
3226 2114 0
-465 -352 0
-1461 1787 0
2635 -684 0
2737 -5 0
-1919 -3286 0
3187 2228 0
-3305 -2451 0
-1918 -1606 0
2948 -1231 0
-3047 -1639 0
-1676 2694 0
2519 1285 0
937 3284 0
1299 1173 0
-984 557 0
3187 2387 0
1619 17 0
-3124 3063 0
-3373 -611 0
-3106 -1124 0
-284 -1640 0
-78 -381 0
185 300 0
-2929 -465 0
2914 773 0
-2840 -542 0
-1135 -1469 0
-1566 2930 0
-1586 -2597 0
2627 -671 0
-1234 -1249 0
-3088 150 0
-1724 -1238 0
-940 -2932 0
-572 -2580 0
156 3206 0
1060 -1105 0
-221 -3050 0
-2612 -1978 0
-3218 228 0
167 957 0
25 1029 0
-123 1476 0
2454 904 0
-1990 847 0
1580 -2634 0
-783 -3345 0
-746 -3232 0
-819 -1497 0
2449 169 0
-1882 -1643 0
1449 1886 0
1587 -1724 0
1328 2205 0
186 -2602 0
-2084 1978 0
1646 71 0
305 -1163 0
3011 -1217 0
3288 -1664 0
-3153 251 0
22 3351 0
1016 1823 0
-2621 1087 0
-1574 3127 0
-1990 -23 0
1841 656 0
2107 -3160 0
1323 -1661 0
1229 -1913 0
-1546 650 0
-3157 1268 0
913 2394 0
3113 -3335 0
-2402 -3337 0
2296 -2475 0
-834 -1810 0
2232 2656 0
1098 395 0
1992 -2746 0
888 2605 0
2984 818 0
2179 -2995 0
-76 417 0
2830 -1663 0
142 604 0
3228 -1913 0
1014 846 0
-1109 -3297 0
3228 165 0
-2948 -563 0
2449 -3057 0
2270 342 0
-1352 -452 0
-3090 738 0
-76 -1662 0
-1043 957 0
727 1132 0
607 2954 0
-1903 1869 0
2477 1652 0
-354 2215 0
-2889 -1676 0
-589 -721 0
-553 2651 0
-1872 2511 0
2432 -760 0
520 2044 0
3344 -386 0
-2464 -1222 0
-2143 -768 0
-1659 -585 0
893 1971 0
807 -1695 0
1451 318 0
2746 -1024 0
-2383 2667 0
1507 -393 0
-1359 -1216 0
370 2070 0
-1007 -1818 0
-1123 -168 0
1809 -1160 0
-1372 3017 0
2382 356 0
503 -3402 0
2701 1562 0
-331 -1290 0
2540 -559 0
-2802 90 0
1764 -2642 0
1836 2360 0
1686 1930 0
1363 957 0
607 -1507 0
3407 -1772 0
-1342 -2443 0
-556 2099 0
1265 -2061 0
2490 1020 0
-2108 -1174 0
-2009 515 0
-1198 -118 0
-969 -2264 0
1140 -1931 0
-3269 -2082 0
-1138 -2967 0
-3399 2191 0
2440 -926 0
3319 429 0
2891 1625 0
-24 -2517 0
2057 315 0
784 -2806 0
1051 507 0
882 417 0
1290 -2299 0
-1724 -2430 0
-2489 -3013 0
1366 -2101 0
-512 -69 0
-1143 -3406 0
-2316 -207 0
564 2057 0
2241 1036 0
-137 165 0
2174 620 0
1495 2666 0
1769 2483 0
1865 1731 0
2745 2067 0
-2616 -328 0
2315 507 0
-118 -1322 0
2308 872 0
1764 1056 0
-2826 -732 0
-2515 -580 0
-118 -1168 0
-2490 180 0
1689 3231 0
-767 329 0
-2447 217 0
-167 2277 0
1617 -1238 0
-2453 170 0
-2177 -307 0
-865 -1457 0
141 2952 0
2414 -1585 0
2206 -781 0
-571 2672 0
2684 -315 0
2206 1894 0
-997 1173 0
530 -2081 0
-3136 2843 0
-1801 -2001 0
1610 2315 0
1114 2211 0
-106 2062 0
2122 2342 0
-3068 1268 0
-2949 3236 0
2856 -2235 0
2011 -27 0
-1410 -2917 0
1541 -172 0
-1312 2022 0
925 3294 0
-1775 -2869 0
947 1878 0
-1841 780 0
352 -912 0
-1186 -2750 0
-2135 -1062 0
-257 77 0
-2243 -2294 0
724 1277 0
-1335 -493 0
-1443 -1211 0
2462 -1993 0
2984 3340 0
-2861 -1191 0
-1804 1528 0
-1439 2026 0
-1420 1628 0
-3190 -107 0
3082 970 0
-1880 -3230 0
-72 -2578 0
675 2584 0
-1595 -52 0
1171 530 0
2048 -644 0
-561 -2633 0
-2144 -1757 0
1263 1629 0
-1980 1536 0
-2707 -154 0
1350 1787 0
1646 -2394 0
1437 -535 0
-602 -1732 0
1071 -2811 0
2107 3323 0
-1104 22 0
-943 602 0
-601 -3022 0
-3035 207 0
-680 1636 0
3102 609 0
-803 1127 0
-448 -3324 0
1521 -56 0
-19 -30 0
-229 1562 0
3237 -3096 0
-832 551 0
-893 2666 0
1138 2557 0
-1581 1881 0
210 -1935 0
1901 1427 0
687 -3379 0
1017 -281 0
-1230 -2364 0
-2356 -3377 0
-3357 653 0
-2153 -1214 0
543 -206 0
-3266 -733 0
223 2225 0
814 -1766 0
-1346 -341 0
896 -2877 0
-1103 1151 0
2268 -1583 0
1356 626 0
2592 -57 0
301 1766 0
2250 439 0
-3151 949 0
-2441 -1955 0
527 127 0
-3265 -2076 0
270 1720 0
2864 -1900 0
1353 -2384 0
3118 -2068 0
2579 2819 0
-1001 1583 0
1527 2204 0
459 450 0
963 1549 0
1345 526 0
-2154 1214 0
2500 2174 0
-1119 -1887 0
-706 -1580 0
-436 2039 0
-1184 -12 0
-3200 2191 0
955 -248 0
-3318 -3042 0
-2724 1930 0
-2769 167 0
-2448 622 0
3343 2323 0
251 -1554 0
-1438 -1624 0
1971 501 0
463 -965 0
-1948 3192 0
-1657 -107 0
-2666 -433 0
1322 -1889 0
-1998 -3346 0
1723 -1472 0
-840 15 0
-2698 756 0
-1493 -938 0
597 -1212 0
1349 3191 0
-2511 2894 0
-303 -650 0
224 449 0
-2872 945 0
1344 -1131 0
643 2213 0
-3242 2603 0
-2288 -3253 0
-1284 771 0
507 3174 0
607 2307 0
1505 -354 0
-408 -1304 0
-3333 -2368 0
-3164 400 0
381 -3318 0
3196 1506 0
-2074 3351 0
1423 1424 0
-735 -1748 0
-1367 2857 0
-2275 872 0
-750 2568 0
1236 145 0
-1968 -1487 0
-2840 2133 0
-187 2464 0
285 -3106 0
228 -771 0
-535 2526 0
1069 3026 0
2444 347 0
-1256 3146 0
-2919 585 0
728 2813 0
2836 -577 0
3207 1508 0
2163 -1410 0
-1102 1621 0
99 797 0
-1544 -2225 0
1330 3062 0
10 1087 0
-1782 303 0
2199 -676 0
2250 -1099 0
371 -3310 0
-3320 1656 0
-3029 -1665 0
-2227 54 0
-3034 977 0
-994 116 0
2166 3075 0
-939 -2366 0
797 -2328 0
-2235 75 0
-3394 1942 0
-1813 -2704 0
-368 -3316 0
-1021 1851 0
-2398 -2728 0
-718 -3026 0
-1897 1985 0
3146 -3168 0
2940 -509 0
-2125 -2469 0
-1948 1791 0
-69 -1965 0
3082 -832 0
977 2396 0
-3189 -1158 0
-1513 -1397 0
-2600 -1437 0
282 3355 0
2394 1357 0
3183 1287 0
-1194 -2598 0
128 -2972 0
1963 1190 0
2950 -597 0
-3312 1640 0
-2590 2397 0
576 -1776 0
-2308 -2882 0
-2045 2701 0
1895 -1649 0
-3009 959 0
-2330 100 0
-3051 -305 0
1113 -1738 0
1578 1625 0
-1168 2223 0
-3046 -2053 0
3098 -1155 0
3383 2991 0
2311 2158 0
-1936 -1173 0
-2332 -3276 0
1701 -88 0
1670 -1404 0
1880 1001 0
3347 350 0
2279 -380 0
3210 3073 0
-2032 -114 0
-1570 86 0
-2769 -2443 0
-721 -756 0
996 77 0
836 -2607 0
-3021 2087 0
-340 -3172 0
-864 -3138 0
-1462 2795 0
-2524 76 0
1168 -2062 0
158 152 0
-1009 25 0
-2820 1779 0
1536 -1199 0
1422 -1376 0
3088 982 0
-2334 -2425 0
877 -1890 0
2616 318 0
-2221 -2171 0
-2520 69 0
-3338 -848 0
2131 -1529 0
-1052 -2639 0
-895 -2117 0
1203 1902 0
473 888 0
753 619 0
2473 2865 0
2478 2623 0
-1758 3347 0
1305 893 0
1112 -854 0
165 1398 0
-3181 2923 0
-1818 3305 0
1564 935 0
3351 -2418 0
1517 -1199 0
-1535 2476 0
-1123 1763 0
2985 1178 0
-1431 1355 0
2026 -321 0
-1967 -2557 0
-2288 977 0
2929 2641 0
-3365 945 0
1441 -454 0
-2897 -2498 0
-2724 814 0
2731 -1983 0
-1061 -1777 0
-2743 -2792 0
3081 1183 0
3293 -3175 0
1431 1389 0
-2300 -1674 0
693 -2054 0
2139 -3156 0
-2957 -1626 0
1577 1421 0
-1182 -1984 0
-1413 -2520 0
-3250 2599 0
1007 1054 0
-1337 2855 0
65 3086 0
613 475 0
-2933 -464 0
3093 242 0
-3211 -1157 0
-45 -180 0
896 2273 0
1489 -712 0
1656 -2935 0
725 -614 0
2185 -1628 0
1854 274 0
804 501 0
-3129 -3173 0
-1452 3158 0
-210 -2496 0
900 -2925 0
-455 2365 0
2284 1875 0
2183 -1269 0
1372 -1591 0
-2974 2114 0
609 -15 0
-1505 2457 0
-2203 3097 0
-2917 2064 0
3391 -2935 0
1556 914 0
-3199 1930 0
1036 639 0
3400 568 0
-376 1705 0
-1596 2510 0
-780 -2057 0
-276 -1763 0
-1096 -3249 0
835 -311 0
50 3347 0
-2341 -209 0
351 3107 0
2137 1557 0
-286 -861 0
2823 -507 0
-2290 -663 0
2658 751 0
-2676 -2962 0
-1810 -313 0
859 -2362 0
3033 -2738 0
2815 -2515 0
-390 -1320 0
1265 1616 0
2430 -303 0
-746 1535 0
-599 456 0
2986 -2285 0
2127 232 0
-204 521 0
-84 282 0
-3139 472 0
-2293 -2020 0
2325 -17 0
-927 -3093 0
-1409 -2342 0
113 616 0
-2340 946 0
1390 1274 0
43 -2007 0
-2042 2322 0
146 1720 0
1445 -942 0
-693 -2242 0
-3008 -127 0
-2627 -235 0
1254 2797 0
959 2451 0
-1420 -1573 0
904 2710 0
426 2691 0
-2188 -2259 0
-2316 -1918 0
2229 -606 0
2338 1812 0
728 -53 0
-508 -1117 0
637 -3305 0
3180 242 0
469 815 0
935 1826 0
-1447 -479 0
-1337 -3260 0
2588 1184 0
1828 1351 0
-2675 61 0
1229 -2226 0
-91 949 0
1869 -931 0
-1880 2561 0
2061 2372 0
-3337 -862 0
655 2836 0
-680 -2713 0
-2448 -1039 0
-2170 -1517 0
-1575 1875 0
1447 2386 0
-2452 663 0
-165 -2359 0
-1744 -3346 0
2445 699 0
790 -2218 0
-2428 -1699 0
-900 -1742 0
-3186 -1046 0
-957 1953 0
2463 771 0
140 -1951 0
-1911 -1984 0
-3388 -3261 0
-1336 -1594 0
-2755 1016 0
609 2257 0
2785 2423 0
-1567 344 0
250 815 0
3231 -1001 0
3113 2186 0
3198 -1923 0
-1636 -2384 0
7 -1212 0
-1913 -2312 0
3377 2406 0
556 3285 0
1181 3383 0
-2077 -46 0
-2402 -1152 0
525 1478 0
29 1778 0
1886 505 0
2909 1557 0
1220 442 0
779 -1453 0
-2769 -3143 0
-3059 3084 0
3231 3356 0
-1895 -2371 0
-747 3298 0
3194 -2396 0
-3261 -1337 0
2424 -1393 0
51 1255 0
2894 2031 0
1049 2854 0
-1330 -2659 0
2601 2315 0
1522 -411 0
2720 -1417 0
-571 -1182 0
2867 2049 0
1658 1640 0
2132 2943 0
-285 -2539 0
2423 -3056 0
-359 1767 0
564 -1604 0
1908 -1580 0
-1109 -1399 0
1147 477 0
-2676 -470 0
-111 -980 0
-1036 234 0
747 481 0
-2398 1174 0
565 2058 0
1224 3075 0
184 65 0
-861 -1046 0
-3290 2527 0
-2909 870 0
-505 -2406 0
36 1066 0
2780 631 0
-1223 -1157 0
1040 2335 0
-41 -1896 0
-2962 271 0
1465 2419 0
-2138 571 0
1919 -439 0
-1820 -2377 0
3125 -2607 0
3271 579 0
2822 -120 0
2862 -3066 0
2941 1129 0
-1107 -2532 0
467 2323 0
-1130 1451 0
-1534 2455 0
-511 287 0
-554 2295 0
378 3023 0
-1346 -213 0
-555 1133 0
1625 353 0
2766 1252 0
918 1195 0
1454 -1510 0
-107 -185 0
-852 -594 0
3345 2961 0
2456 -546 0
-2677 1366 0
-2651 1670 0
242 -2461 0
-821 2375 0
-186 1926 0
1646 -900 0
-3069 488 0
-3119 -3258 0
-1218 -1456 0
-1756 -1887 0
298 -2844 0
-2027 -2620 0
2712 -110 0
605 -1815 0
2290 1242 0
-2515 2892 0
-629 -2072 0
-1228 644 0
-2252 -1348 0
70 -3322 0
217 1989 0
2484 1537 0
-1087 -940 0
1190 -2452 0
1652 3067 0
3065 -3323 0
-166 3377 0
-1718 470 0
-1465 421 0
2606 -340 0
-2596 -3311 0
-672 1159 0
-250 -1553 0
-752 -88 0
3185 -3232 0
-2861 -1691 0
1544 -1442 0
-1593 3131 0
1425 2859 0
-3136 1103 0
324 442 0
1741 1250 0
-2712 -617 0
-119 -3046 0
34 -90 0
-122 5 0
2689 -1112 0
-2496 -1395 0
2332 3364 0
2107 -1314 0
3098 -2811 0
388 -3071 0
993 507 0
-786 1619 0
-867 171 0
47 687 0
-1615 3147 0
-2138 -108 0
-1975 -2228 0
-1719 -1070 0
-953 -3050 0
-622 -1487 0
-3096 2775 0
1335 2071 0
1751 2070 0
-2388 741 0
1767 2830 0
-582 -2039 0
-630 460 0
1669 -331 0
-1848 2020 0
-1365 2965 0
-392 150 0
1044 -826 0
-199 -1125 0
1081 2018 0
-714 -1055 0
-838 858 0
-876 -744 0
2322 -1767 0
716 1252 0
2870 -2956 0
-2824 -2699 0
818 2453 0
1714 -2634 0
1087 -3020 0
440 -3118 0
-2516 -243 0
2681 -3005 0
2000 1344 0
-2388 -2033 0
-16 2284 0
-938 1060 0
88 -2060 0
-1122 -1221 0
-2316 640 0
-2791 -1500 0
-2839 3088 0
1079 -65 0
-57 -3303 0
2922 -1897 0
737 -2724 0
1456 -2179 0
-1319 1786 0
-262 396 0
451 -245 0
-2328 474 0
893 1625 0
-2822 -1970 0
3372 1929 0
2920 1893 0
-1091 2009 0
2174 2849 0
1196 -1818 0
1886 -2495 0
760 -2669 0
1425 2063 0
663 1568 0
-364 -230 0
-1779 2899 0
-2147 -1851 0
-2023 514 0
953 2155 0
821 614 0
1586 1052 0
-1332 -1905 0
817 2947 0
-3022 475 0
1787 824 0
-2315 -1977 0
2883 268 0
280 2734 0
-1066 -3144 0
-574 2658 0
1307 -3032 0
-1314 -714 0
1700 -2610 0
2386 -3379 0
3089 359 0
-1603 1891 0
-377 -2632 0
-276 -2623 0
-2236 3283 0
1307 216 0
143 2151 0
284 815 0
797 1986 0
-1193 -1153 0
2486 1479 0
-494 -2636 0
2512 1168 0
-2991 -2266 0
-3011 -562 0
3395 -3268 0
-1654 -67 0
787 -1949 0
-2793 1939 0
2994 -62 0
-1513 -288 0
-1186 1274 0
-1859 -3195 0
1050 -1742 0
1421 1411 0
248 -2134 0
-472 2562 0
-3122 -1338 0
3245 -2944 0
-952 2784 0
-2004 -399 0
-1335 -303 0
834 -720 0
-567 1821 0
1865 -2078 0
2939 -1787 0
3191 99 0
1886 -1997 0
-2487 -2485 0
792 2750 0
1826 -2519 0
2277 2569 0
1880 946 0
-3024 -3043 0
-3180 2077 0
3120 552 0
2689 1779 0
3022 -129 0
-2501 1482 0
2658 -2547 0
-728 3291 0
-2513 -2829 0
3207 3364 0
-2726 2595 0
2891 -2707 0
2697 344 0
-2226 373 0
2283 -3405 0
2558 -384 0
2405 -1070 0
234 -2128 0
1940 -698 0
-2915 2685 0
342 1686 0
679 -556 0
648 -189 0
2551 -621 0
419 1541 0
-1296 -2174 0
643 -2104 0
-222 3138 0
2063 -1323 0
292 -2320 0
-94 -2815 0
2087 -1072 0
906 -476 0
-2565 -1832 0
-1884 -2387 0
-164 1260 0
3344 1023 0
2607 147 0
-621 -1034 0
-3183 1512 0
-106 2774 0
2614 1262 0
1414 1027 0
-1076 2173 0
1379 -2515 0
-1936 2783 0
-2083 2798 0
-294 3070 0
-520 -2465 0
-2642 626 0
-1214 -1445 0
-546 -617 0
2828 922 0
-85 -418 0
26 2501 0
-2839 607 0
-299 1640 0
-1432 -2803 0
3004 229 0
-1145 -2074 0
-2669 281 0
-1247 2065 0
-2344 -1806 0
2516 2109 0
-1931 -2531 0
-1737 -408 0
1108 620 0
-21 -2349 0
1522 -1711 0
1084 1570 0
2667 3101 0
-502 2394 0
-3179 -1702 0
1294 3071 0
2116 -1414 0
1146 653 0
2660 1472 0
-1071 2000 0
-2846 3224 0
3333 -3276 0
589 1988 0
-471 -3026 0
1512 -188 0
-354 -864 0
-1186 2746 0
942 3186 0
1073 547 0
-20 -780 0
36 -2698 0
-1209 -3304 0
-2276 -1386 0
-665 -783 0
-2540 234 0
-2475 1033 0
1552 189 0
1918 -400 0
-666 -643 0
3014 -1142 0
3119 -863 0
-2979 -865 0
-2642 -2066 0
836 -2812 0
-2994 -2027 0
2884 -1223 0
-817 758 0
1084 2050 0
2285 1359 0
-1338 498 0
-2509 2601 0
1577 1384 0
767 1421 0
-80 2728 0
-1621 2238 0
-957 2825 0
1687 960 0
2537 1908 0
478 -129 0
1278 -806 0
2234 2965 0
2317 2545 0
-1122 -1239 0
2774 1767 0
-1604 526 0
-1538 578 0
2835 2808 0
-1994 3056 0
3135 -2351 0
-569 -2430 0
-2117 1797 0
317 -3296 0
423 2876 0
699 -3156 0
-2537 2970 0
2695 -602 0
-839 -1484 0
-1861 -2884 0
3274 -208 0
1460 -2189 0
-1320 3204 0
3251 3224 0
-1850 795 0
-1159 -2969 0
-2811 -275 0
1813 -2516 0
2618 -2966 0
362 1646 0
2279 3056 0
-1251 1971 0
350 1845 0
488 -1637 0
1274 1354 0
2026 -1119 0
1496 -2623 0
-87 964 0
-3222 -837 0
-2776 -701 0
-2067 807 0
-1994 -1893 0
-2555 -93 0
-146 -2628 0
-1249 -432 0
1275 1837 0
-2570 -2185 0
-1781 -2089 0
-3392 520 0
-1914 -1181 0
-64 2744 0
3343 -2936 0
-1722 1865 0
815 -2874 0
-2498 -1973 0
-1005 -2693 0
2127 3197 0
-1870 1250 0
-1843 2174 0
-2373 1133 0
-1414 -1736 0
874 -618 0
1749 2603 0
-1257 1715 0
-3179 -2006 0
-1861 -3361 0
3402 1336 0
1892 -969 0
943 2000 0
313 -1066 0
-1925 256 0
1117 -1246 0
2667 -863 0
2510 -2795 0
592 -1583 0
-3282 2561 0
2176 -2294 0
-2748 1010 0
2981 763 0
1718 80 0
-2897 1206 0
-859 -112 0
-485 -3200 0
-2933 1889 0
-2636 1258 0
1084 -3203 0
1553 2787 0
1584 1587 0
-561 -462 0
-2251 1676 0
1302 3079 0
-2124 1816 0
-2025 956 0
1328 1945 0
2417 2294 0
-1021 2011 0
1636 -507 0
-1783 -297 0
1100 -2252 0
3182 -1143 0
-2802 488 0
-1433 -3000 0
-1383 -381 0
-2089 -204 0
3104 -2834 0
-30 -983 0
317 -1475 0
2399 -1661 0
-3000 2355 0
368 2339 0
-1257 -2265 0
2786 387 0
-2706 -1724 0
1962 -2905 0
1155 2555 0
-1237 -2717 0
1082 -594 0
2173 1235 0
1838 114 0
-3183 -985 0
-1690 -3168 0
2514 -1363 0
-3318 2432 0
-2312 -1852 0
548 3151 0
-3404 -3100 0
-62 838 0
-3396 -2372 0
1628 2956 0
3274 1348 0
179 -1931 0
-2432 -269 0
228 -1881 0
2772 1694 0
-1770 525 0
3240 503 0
565 1789 0
-2453 1421 0
2835 -3091 0
-2612 -1559 0
438 3292 0
964 -1046 0
-2234 -809 0
-2023 -2323 0
-577 -2149 0
1049 -2451 0
-1514 256 0
-2325 1771 0
-80 -1041 0
2419 -1695 0
-1996 2252 0
-2318 2158 0
1584 -398 0
-1499 -847 0
-246 1219 0
2142 -1602 0
-2420 -380 0
-1171 16 0
-584 2849 0
-2625 -2388 0
-2057 -3111 0
-3041 -314 0
478 3092 0
-1365 1891 0
278 -3283 0
463 343 0
2996 -2117 0
2534 3367 0
1449 -1671 0
-762 -1120 0
-2812 608 0
1089 -846 0
-3254 1667 0
644 899 0
707 3084 0
1240 3313 0
-2335 1401 0
-1009 1155 0
-1058 -31 0
2969 3327 0
-1523 2943 0
-1005 -2611 0
-481 -433 0
-1686 1693 0
2632 -1964 0
2976 2860 0
1008 1540 0
-1999 -2996 0
800 2725 0
-1932 2783 0
-1709 -1344 0
-2841 1539 0
280 1828 0
1959 3083 0
899 -2443 0
775 -1518 0
-3254 609 0
596 2805 0
-992 -2330 0
-2595 634 0
-3370 3382 0
-428 1858 0
3029 -1247 0
-3383 1968 0
-3365 822 0
1667 -499 0
2349 -1209 0
818 -1676 0
1276 -2924 0
1290 1915 0
658 -2319 0
-2922 49 0
1478 -3151 0
394 2072 0
2302 462 0
-2210 -1363 0
429 -2481 0
855 1381 0
1495 3222 0
1180 217 0
-1650 -1736 0
3012 1816 0
2399 2038 0
-2221 -212 0
1766 -184 0
546 581 0
2691 2628 0
352 1621 0
-2592 2116 0
2834 1454 0
-1520 1299 0
-3020 2742 0
3239 -2241 0
1122 -1118 0
151 2085 0
2685 -2389 0
-2128 -1085 0
309 2859 0
-1561 768 0
-400 1437 0
685 -2237 0
-1974 1939 0
-980 3222 0
246 -1420 0
-2885 321 0
-969 -401 0
-2324 -2842 0
-949 -2562 0
-1487 604 0
-715 685 0
261 294 0
-765 49 0
-2363 -854 0
-118 1923 0
901 -190 0
2550 -1490 0
-1638 1299 0
1852 1731 0
-2421 -1655 0
-965 564 0
2423 -2229 0
116 -1709 0
-3361 -2056 0
-2446 921 0
-1783 -2766 0
261 -1303 0
-3245 -3347 0
-2086 -2078 0
-401 292 0
-1262 2011 0
3401 -938 0
2282 -453 0
26 2800 0
934 3077 0
-3323 -2843 0
1861 -816 0
-336 2137 0
1755 5 0
3304 3270 0
-1351 100 0
-36 -2636 0
100 900 0
-874 2907 0
-2680 2473 0
-2495 1697 0
1667 -703 0
1901 2009 0
2442 -864 0
-1829 2574 0
-2412 1624 0
2746 -3003 0
-1016 -2146 0
-414 -940 0
1665 2876 0
-1552 667 0
-1308 -635 0
1022 -2027 0
549 2098 0
-649 419 0
802 -3403 0
-3217 -1125 0
-1136 -2220 0
-3072 -1209 0
2227 2390 0
1087 829 0
1722 2809 0
2912 2986 0
1274 1267 0
1492 21 0
-3302 -637 0
-996 1487 0
-1517 -1218 0
1042 1555 0
503 2662 0
-651 -33 0
-2944 3344 0
5 -1127 0
-2837 3121 0
2834 -928 0
-1092 976 0
-385 920 0
2961 -381 0
16 2163 0
-149 387 0
-1556 1576 0
-556 2185 0
717 615 0
2770 -1206 0
1836 3074 0
1691 -860 0
1345 -605 0
2780 497 0
-2910 -1153 0
-880 2564 0
-1786 567 0
2088 1728 0
-522 932 0
-3357 -2661 0
3228 665 0
-2228 2908 0
2458 -125 0
243 547 0
-2069 333 0
2808 -947 0
1138 3222 0
2920 -512 0
-1585 -28 0
470 -2603 0
-1365 -850 0
-213 -2806 0
-2593 -482 0
97 3061 0
2633 -28 0
1907 2095 0
-1291 88 0
-1855 -3196 0
-1794 1255 0
-2312 3077 0
3389 2978 0
-3314 1129 0
-1008 1092 0
-226 3104 0
2879 -2069 0
2931 2072 0
-130 350 0
-1001 2447 0
223 -2517 0
-2944 2233 0
3211 3023 0
642 -1531 0
790 224 0
1324 -1546 0
-2014 -2948 0
2460 -3201 0
552 -2229 0
2045 -1778 0
2153 32 0
-1373 -2806 0
-1842 -895 0
-247 156 0
-1179 -1127 0
2248 692 0
-2488 2825 0
3040 -2336 0
936 3262 0
-766 3313 0
-45 3098 0
2522 -710 0
2136 -2151 0
2943 2926 0
1681 2195 0
-93 322 0
276 -2349 0
-2412 -2546 0
-1479 -1726 0
-1969 -3062 0
100 -1204 0
-3278 -2665 0
2832 1532 0
-651 -1569 0
-868 -1905 0
2458 2418 0
518 -610 0
2319 159 0
1401 -3110 0
1271 1853 0
1793 -2125 0
2135 1303 0
1751 -1534 0
-446 -873 0
2912 -3327 0
-85 1582 0
379 2293 0
2105 -1998 0
1643 -1113 0
-2149 1588 0
-1260 1857 0
-676 -2733 0
-320 -2742 0
2766 -281 0
-394 -2760 0
2992 -2637 0
935 1102 0
191 -663 0
392 -949 0
3174 -2648 0
-2990 -3168 0
306 -3393 0
2409 -392 0
-336 2214 0
231 2312 0
1372 -1017 0
2117 -3064 0
1341 3079 0
325 1098 0
-3093 -1130 0
-1972 -2650 0
-514 -3046 0
1959 1793 0
1849 -3087 0
-3140 -120 0
595 1364 0
-621 2857 0
2335 -170 0
-2096 2918 0
-1379 -1247 0
3107 -3124 0
-2184 -1022 0
-741 869 0
1024 -1737 0
1036 569 0
-3254 -1222 0
-277 -2683 0
-2579 1459 0
2073 2190 0
-1184 -1056 0
-413 -2500 0
-975 52 0
613 2100 0
2087 2683 0
-597 665 0
-2122 -1510 0
-1497 -3284 0
251 -2147 0
-417 2617 0
430 518 0
-121 -2592 0
2203 1770 0
-2032 2056 0
1482 1697 0
-2141 423 0
-30 2238 0
2143 -3032 0
2627 -2898 0
-147 -1566 0
-2452 1417 0
358 2823 0
-1064 -2351 0
1962 -3296 0
-1248 3172 0
-2719 -1768 0
-2328 -1649 0
-1118 1659 0
-7 1332 0
3025 2933 0
-2373 -525 0
-2916 2849 0
332 3195 0
898 -3311 0
-1028 -1758 0
2230 2633 0
-2322 1150 0
-3072 -487 0
-1948 -3027 0
-1843 1640 0
1492 1520 0
-2467 3165 0
-996 2557 0
-1049 1884 0
-632 1424 0
-1002 2670 0
-1909 -3246 0
-1465 -174 0
2908 -1109 0
-394 -2202 0
420 2753 0
998 -785 0
2185 -110 0
1391 -1550 0
2824 -2067 0
1063 -2949 0
1459 -527 0
3334 -298 0
2166 -495 0
2320 -3345 0
2830 -2358 0
-732 -528 0
1452 2925 0
-2159 974 0
505 2232 0
578 -1817 0
178 -1684 0
3362 -1318 0
-2039 -1310 0
463 462 0
3378 3302 0
-1697 1006 0
3112 1354 0
-1421 -2612 0
1472 1943 0
-2171 2101 0
2166 2867 0
-464 -10 0
11 896 0
757 208 0
1957 3358 0
733 3395 0
861 3381 0
1801 669 0
1806 -2788 0
2961 1480 0
-1847 756 0
2664 2485 0
-1054 -1797 0
-2025 -2122 0
1678 -1266 0
2389 -303 0
-1226 -3282 0
1111 1882 0
850 2053 0
-2426 -2607 0
810 301 0
-678 899 0
-3342 -3266 0
-1928 1865 0
2846 -3323 0
-2558 1632 0
2352 -3065 0
-2430 -509 0
1057 -524 0
16 534 0
1941 1544 0
-3359 3222 0
-1394 2056 0
-1367 3257 0
496 -3223 0
581 1710 0
1578 728 0
-2898 2931 0
3091 2087 0
-2344 2746 0
-2784 2911 0
29 3339 0
1476 601 0
-1333 -2191 0
268 -72 0
-2233 1942 0
-2392 48 0
-1495 -2349 0
2046 -1085 0
-1237 1021 0
-1745 -2722 0
1888 -1738 0
1212 1788 0
-1560 -2622 0
2834 -587 0
-2493 -1227 0
-54 61 0
-2968 -2005 0
1706 -3213 0
1174 -107 0
2854 2769 0
1353 -2677 0
3107 2742 0
-1593 16 0
-90 -2247 0
254 -3189 0
-2055 -886 0
-3188 1705 0
-2236 -399 0
3183 2385 0
3249 2956 0
-2749 3379 0
-2748 2037 0
-2884 -2010 0
3210 3061 0
1982 1531 0
2408 -2829 0
2848 -2517 0
1122 -382 0
-2691 -3341 0
-1145 -208 0
629 2958 0
1942 2313 0
2216 -2365 0
-2723 -3041 0
-643 3000 0
-746 -946 0
-2369 -2079 0
-3271 -1639 0
-1923 -220 0
-2650 -1378 0
-1428 2212 0
-1062 -3334 0
-31 109 0
-1313 2551 0
-866 1265 0
1639 -1058 0
2035 821 0
1302 -3148 0
3021 -2803 0
-727 -2247 0
-2094 -3124 0
2694 2573 0
-647 1913 0
-621 3347 0
-1756 -2430 0
680 -891 0
15 1777 0
-1046 -3390 0
2328 3249 0
-965 1321 0
-878 2798 0
-1876 858 0
-2262 2561 0
-2769 -1997 0
2055 569 0
-1440 2529 0
2103 2800 0
1407 763 0
-2399 -2790 0
86 2670 0
-1511 -952 0
-2036 -2649 0
-878 -619 0
-133 -1676 0
-1475 -1057 0
-920 -3047 0
534 3148 0
1612 -1359 0
774 2869 0
-2001 804 0
2078 -1771 0
-1062 -1370 0
2534 -17 0
1774 -1470 0
2150 -354 0
-3349 -2103 0
-1518 2054 0
1730 -2804 0
-2669 -2415 0
842 648 0
-2129 437 0
3217 432 0
2718 2402 0
-2649 2666 0
-2517 -1615 0
543 2482 0
2726 -1422 0
239 160 0
1315 2676 0
-212 768 0
216 -130 0
-3066 2806 0
909 -2515 0
1268 -3113 0
1327 3099 0
2911 -1370 0
3329 -859 0
1511 -1459 0
-1213 -2846 0
-2626 -1045 0
1200 -1775 0
-1366 -2657 0
1300 34 0
3407 -134 0
268 -425 0
1401 3253 0
774 -782 0
911 1467 0
-1918 -676 0
-2112 -1671 0
-1602 -2040 0
-1360 -2650 0
-2344 -2002 0
279 2423 0
3343 -1 0
1050 3247 0
3317 -348 0
-57 -2042 0
484 807 0
-1218 1153 0
-2716 -349 0
143 2661 0
-376 -446 0
2614 1730 0
2355 743 0
2904 -1607 0
1200 216 0
-1674 3114 0
1229 -1388 0
3249 655 0
288 -623 0
-2368 669 0
-554 -687 0
62 -1321 0
5 208 0
1429 -1243 0
2087 824 0
-1168 -288 0
1752 262 0
-1319 -1052 0
3407 -2633 0
-1193 -2167 0
-465 629 0
-899 -1190 0
-2260 -2234 0
-1019 2450 0
-2669 550 0
-835 1651 0
346 -2151 0
-289 -1587 0
-38 1334 0
-857 -3360 0
-2631 2561 0
-1989 2456 0
1506 1499 0
1029 -934 0
-2771 1029 0
741 2982 0
1878 3362 0
1799 2374 0
2960 3208 0
1765 829 0
1590 -146 0
1868 135 0
2029 2813 0
-1517 2066 0
-2142 2603 0
-1060 1420 0
-812 -149 0
-586 -2480 0
338 2012 0
2992 2731 0
534 2366 0
1080 -1041 0
-893 1894 0
2361 3128 0
605 -1827 0
-2440 2111 0
860 474 0
-1507 1773 0
-3245 1200 0
2721 2907 0
-2585 -2756 0
1470 24 0
2370 -2117 0
-1096 350 0
-3204 -2562 0
-497 -3307 0
-1199 -2027 0
2017 2479 0
-2034 -3252 0
3321 -3083 0
1548 -1925 0
-1776 -275 0
-2484 970 0
2825 634 0
-1978 -2602 0
1890 -1890 0
-3308 -1614 0
-537 -2538 0
-1296 1215 0
2867 -1791 0
3125 425 0
-152 -3144 0
1425 -255 0
-2694 -1066 0
-2467 -1606 0
2498 -3262 0
1579 1681 0
2579 -3173 0
-3182 -1980 0
332 -2353 0
-453 -302 0
1953 -1743 0
-1426 1451 0
3183 -1645 0
3367 -2247 0
-572 -3318 0
898 2961 0
-2005 -843 0
-1758 861 0
467 783 0
-1601 -1362 0
-989 1779 0
3007 775 0
766 2945 0
1666 -1761 0
460 863 0
-3276 2802 0
-712 -1260 0
-2357 44 0
1226 1014 0
-2044 -2426 0
3178 -2756 0
347 378 0
-1370 59 0
1871 -3120 0
2073 2582 0
-2743 2583 0
-3213 -1887 0
80 664 0
1039 -2559 0
-2356 -486 0
-489 1784 0
-1973 -2292 0
921 -427 0
-2858 -2450 0
3052 973 0
2388 1646 0
2119 2981 0
-650 -2946 0
1445 3302 0
-2372 1078 0
1682 -782 0
-2653 -295 0
3138 -1394 0
-1408 3067 0
1526 3389 0
1370 -2488 0
2668 2467 0
-1252 -1175 0
-1945 318 0
-2577 903 0
1170 2982 0
-2195 870 0
3134 -479 0
3056 -96 0
-2001 -2669 0
760 -2696 0
-1242 157 0
-666 514 0
-1348 -1363 0
1876 2739 0
1335 -3308 0
1745 -2252 0
-2824 2338 0
-214 925 0
1729 3133 0
-2333 -148 0
-2332 1357 0
-873 -3100 0
-2068 1573 0
1857 -642 0
-3363 2018 0
1362 3045 0
2770 -1403 0
459 -668 0
2786 -2488 0
434 -1385 0
-2080 -886 0
319 -3185 0
-2228 55 0
-681 -2626 0
-1752 -2700 0
-2949 2180 0
-2523 3335 0
-1070 1344 0
-3370 2718 0
-2628 -2349 0
-3179 -1684 0
-517 2427 0
-2968 -134 0
-1862 3293 0
-2177 273 0
3400 957 0
-84 -1045 0
268 1507 0
1015 -1179 0
1912 -2003 0
-1066 2419 0
-1499 2618 0
-1269 2393 0
2206 -1638 0
-785 2667 0
3072 900 0
-50 1468 0
2980 2029 0
-2526 -919 0
-1989 -3105 0
2140 -1248 0
-1235 -1567 0
231 -130 0
-1737 -1969 0
2512 -2686 0
-894 -383 0
-749 -2866 0
-3226 1784 0
2209 -2082 0
-3039 3183 0
1378 -2785 0
-1482 2469 0
-3087 -1661 0
1617 1165 0
71 2466 0
-282 -625 0
961 1242 0
2886 3177 0
-3163 -860 0
-3015 2775 0
2709 -72 0
-1280 2058 0
724 -1536 0
1834 611 0
3220 -2218 0
-2511 689 0
2810 2576 0
-772 -87 0
-726 -3090 0
-714 -580 0
-1350 -399 0
-1955 -9 0
2793 2649 0
549 2185 0
-1510 2676 0
-235 -3119 0
422 -2318 0
456 2223 0
-1890 -2433 0
-707 1031 0
839 2771 0
2085 2781 0
2951 843 0
-2247 -740 0
-1096 2952 0
-1355 1731 0
43 1463 0
86 -369 0
-3336 1868 0
-738 -1026 0
-1368 -176 0
-2557 2299 0
2970 -975 0
-2880 1874 0
550 -2160 0
1670 462 0
-1708 -2036 0
-2995 2198 0
3289 2404 0
-2241 -436 0
-952 -2679 0
-237 -352 0
-1018 2070 0
-2094 -2221 0
374 2181 0
3147 -710 0
-2749 89 0
2674 1094 0
-3143 -3318 0
1870 -2421 0
1418 -1266 0
-1442 -3354 0
-3265 2354 0
2444 -3136 0
-2937 -1326 0
-3086 2800 0
-599 2735 0
-940 -911 0
2406 -2036 0
-308 -2801 0
-62 -331 0
-1019 1364 0
-1482 1188 0
-1399 -401 0
-2266 984 0
-3046 2363 0
-2374 -2847 0
-786 656 0
1332 3037 0
737 2780 0
1416 -909 0
93 326 0
988 2464 0
1366 -2025 0
2031 -2435 0
-881 1355 0
-1414 -2144 0
449 -3280 0
1926 -1330 0
-1774 1875 0
1000 -514 0
3146 -2501 0
-2683 -1485 0
2792 -1326 0
2000 2024 0
-1052 533 0
718 -2157 0
-2654 -3250 0
3128 2649 0
-3368 -1376 0
-3175 -2774 0
-2475 1106 0
-3338 -1560 0
1709 -1041 0
2725 3048 0
3215 -756 0
2739 2202 0
-2533 -1887 0
2123 -1057 0
-35 -2740 0
307 -723 0
-2924 1646 0
1962 371 0
2892 3112 0
639 -841 0
-1189 -1052 0
2280 -2687 0
338 2158 0
277 2366 0
-59 244 0
-1296 2582 0
2216 174 0
-2847 52 0
-1417 -3237 0
-2410 100 0
-2298 -2730 0
3285 866 0
-1477 3360 0
216 1087 0
2278 -1400 0
2401 -1014 0
-2002 -1162 0
-2804 -2743 0
1183 -2380 0
-2495 -2367 0
-1669 2683 0
-582 834 0
44 -2581 0
1285 1865 0
-2659 3025 0
-3170 3382 0
1098 -268 0
941 -1910 0
-3243 592 0
-128 2628 0
-3027 2118 0
-2994 -1213 0
604 -3001 0
3227 -2015 0
756 -2049 0
-2171 -2983 0
3233 -3108 0
536 -468 0
-1656 -867 0
-597 -2951 0
-3289 2776 0
-1472 2317 0
2817 2525 0
1687 817 0
-2562 1611 0
1278 165 0
-3171 2079 0
1350 529 0
-1778 410 0
-3059 -10 0
-2719 2150 0
1230 -885 0
1179 -1750 0
1039 -2060 0
484 2874 0
-433 -148 0
-2270 2633 0
-2067 -2160 0
-1857 -2612 0
-3237 654 0
2626 158 0
2064 -1506 0
1302 3016 0
-2402 2808 0
3318 -1342 0
426 1507 0
131 224 0
527 -1701 0
-3265 -1510 0
-907 470 0
-37 -2984 0
-2294 -92 0
821 -3270 0
-95 103 0
-3359 1373 0
-2726 -2822 0
-2938 -1001 0
-942 -2067 0
1437 1016 0
-636 1151 0
-340 2452 0
350 669 0
3280 -805 0
-2760 -1860 0
-3248 2324 0
1536 1018 0
1972 2489 0
3226 -1621 0
1839 -1282 0
-1237 1978 0
141 2615 0
2053 -3402 0
1906 3097 0
1974 371 0
-3058 -3253 0
3183 1789 0
-2487 -1468 0
-398 2887 0
353 2545 0
-965 -2818 0
625 1824 0
-1691 994 0
-2590 -591 0
-3144 -669 0
-1191 -3023 0
-2259 1363 0
-2358 -1553 0
846 -1992 0
-837 -1488 0
-123 2760 0
-2808 1748 0
-1872 1897 0
753 -209 0
2366 -696 0
-1323 -96 0
2056 -3034 0
1791 1004 0
-3211 421 0
475 297 0
422 -2216 0
29 34 0
969 -673 0
-2042 -5 0
-3003 3115 0
3265 332 0
-374 -376 0
-1876 1977 0
508 -3225 0
591 -2262 0
2381 121 0
2868 1117 0
-519 464 0
309 457 0
-362 -1457 0
3089 3067 0
-2657 -2885 0
-2712 -2371 0
-1653 1044 0
982 909 0
-2672 -2650 0
690 54 0
2450 3084 0
2306 -736 0
-1204 1064 0
419 -415 0
2438 -2340 0
462 -2356 0
2899 1672 0
2012 296 0
-1180 2029 0
2202 2445 0
3196 26 0
-1951 2024 0
-171 454 0
-1061 -2147 0
279 800 0
3363 -41 0
-2441 -2615 0
65 1091 0
-2087 -856 0
-2259 2179 0
-2260 -1946 0
3321 2981 0
2702 2705 0
-732 3407 0
183 -3035 0
-2774 -3381 0
-1964 -2546 0
322 -1770 0
-2047 -34 0
-2945 999 0
-3078 3170 0
-502 608 0
-1272 637 0
-1385 2031 0
3052 2959 0
1971 -1052 0
-3242 1013 0
3162 2456 0
507 -3088 0
-3209 122 0
1444 698 0
-457 -862 0
-3369 2511 0
1419 1388 0
-667 2873 0
-155 -2616 0
2525 1941 0
-3076 793 0
1597 3345 0
-2359 -2804 0
-2438 -2234 0
-2121 -417 0
238 -2967 0
2603 255 0
-1561 1201 0
2891 1525 0
-2583 3088 0
-618 -1721 0
-2840 -2211 0
2455 634 0
658 -1239 0
1554 2701 0
-559 2330 0
684 1806 0
-2518 357 0
1637 -78 0
3295 -363 0
-420 -1211 0
-148 618 0
-2426 -1505 0
-837 -2917 0
3289 -1712 0
-2268 -257 0
1150 -3123 0
-2375 1686 0
872 395 0
3288 -2845 0
-867 2651 0
83 -378 0
3310 -2635 0
675 -1127 0
-1854 -148 0
2434 900 0
-2422 2491 0
2525 -1331 0
479 2136 0
-2550 -705 0
2900 697 0
697 -1998 0
68 2154 0
314 3070 0
3233 1445 0
313 904 0
1402 -2435 0
1111 1498 0
2354 -660 0
-637 1730 0
-2273 -123 0
3277 -842 0
-1837 -168 0
2605 -2853 0
2299 -1264 0
2901 2919 0
2661 2185 0
-1037 -2309 0
-3223 -272 0
577 -3248 0
968 -3385 0
2936 295 0
1429 -677 0
706 -2565 0
4 1619 0
-2604 452 0
-2395 2665 0
-35 -1753 0
1761 2474 0
-1584 -1045 0
52 -964 0
-80 794 0
2105 1719 0
2609 -752 0
-2138 2627 0
3141 -2314 0
-558 3374 0
536 1122 0
3291 1522 0
-33 -2449 0
-811 -2972 0
1876 1025 0
-1538 -1882 0
-609 262 0
-2997 -2353 0
-1171 1927 0
-3220 2272 0
-2866 -2047 0
2107 1207 0
-592 -2910 0
-3221 -3096 0
-710 2413 0
175 1615 0
-2643 -286 0
-1738 -2783 0
31 1317 0
3302 -1503 0
-3020 -1705 0
-3349 -1431 0
-2333 -3176 0
-847 -2995 0
-97 2219 0
-3314 848 0
966 -1005 0
-1180 -2433 0
1397 -1556 0
-331 -1729 0
1467 -708 0
1520 -2205 0
-303 2234 0
2614 199 0
-1363 -559 0
-1847 -1946 0
-687 -3054 0
2944 2317 0
-647 3353 0
133 -786 0
147 111 0
-1163 2002 0
3353 -1799 0
-196 -1254 0
-1410 -2963 0
-2166 2761 0
41 567 0
-1615 1149 0
-895 1840 0
3378 -240 0
3162 -1064 0
-987 2765 0
1980 -208 0
-918 4 0
-2146 -3108 0
3082 -1416 0
3173 1433 0
-2261 2498 0
-1376 280 0
-339 -2895 0
1370 945 0
1319 -1361 0
-2348 -2098 0
-183 1341 0
-2627 -1226 0
3401 -1371 0
-2475 -563 0
132 -100 0
1131 986 0
-2233 -726 0
-2641 747 0
-2594 -1509 0
-307 -2934 0
3149 3014 0
-3390 1161 0
-2572 1953 0
2235 2162 0
2110 1491 0
-1516 -2790 0
-2521 -3122 0
-703 -2451 0
-1442 -730 0
-1402 3011 0
3401 -2936 0
-3059 -1795 0
-3333 574 0
-2505 1792 0
-1434 2403 0
2739 -1940 0
-2769 3009 0
-153 1336 0
11 1804 0
-2314 2394 0
-313 -1973 0
3202 893 0
-2217 2127 0
3364 -1323 0
20 -1808 0
-257 375 0
-2039 1589 0
-3175 -467 0
751 -2119 0
1200 112 0
-2309 1679 0
-1374 799 0
1509 1714 0
664 -2008 0
2856 3364 0
5 1718 0
-3166 2544 0
2525 -2842 0
-1122 903 0
-733 -1948 0
419 1038 0
1103 1056 0
-893 2166 0
2341 395 0
28 1148 0
-555 3094 0
1448 131 0
-1848 1371 0
-696 1867 0
1908 2981 0
-3394 -3259 0
-3118 2039 0
1313 -3157 0
-1169 -2434 0
1684 3307 0
223 -2196 0
60 2474 0
-1763 1764 0
-2950 -1113 0
2063 2183 0
2975 2122 0
2419 724 0
3056 73 0
-1566 -169 0
-608 -1321 0
2942 2864 0
-1035 -1975 0
105 -3308 0
79 -3053 0
24 -3093 0
-952 1052 0
758 -1542 0
-1542 -2511 0
316 331 0
2268 592 0
-1955 800 0
2950 2248 0
-832 -563 0
551 -1232 0
-361 3211 0
-1213 -3222 0
-164 2828 0
892 1401 0
2346 -1609 0
-1385 2568 0
-2888 839 0
-2264 950 0
2658 1002 0
1734 356 0
1963 -1475 0
2414 -2151 0
-2041 1731 0
-816 550 0
-2740 2493 0
25 -3240 0
-632 658 0
1431 2751 0
1424 790 0
-1474 -2767 0
-450 620 0
-2458 1504 0
-3002 -2309 0
2499 2476 0
2329 1268 0
1962 -2158 0
-1010 -946 0
3269 -93 0
-942 1058 0
-3346 -1177 0
3051 -662 0
-1668 -1291 0
-57 2916 0
-473 2302 0
1796 1956 0
-3405 -1293 0
-1134 -481 0
-2225 -1997 0
-265 2900 0
-2432 215 0
884 -786 0
-849 -541 0
42 2569 0
3075 -1626 0
-1842 -1529 0
-196 -1255 0
-1599 2915 0
2073 1885 0
1283 1302 0
2132 326 0
381 3310 0
2919 -912 0
-1005 -1358 0
-3051 2898 0
-3320 -2305 0
2178 203 0
-3187 -2815 0
1146 -117 0
18 3369 0
262 2755 0
3040 -2881 0
3381 881 0
-318 935 0
-806 2775 0
-3323 -1849 0
-2428 1151 0
571 1306 0
-2550 -1374 0
961 2122 0
-3259 -1128 0
-1984 741 0
-286 -629 0
-641 1963 0
295 -1890 0
3091 -33 0
-1105 -2216 0
122 -2193 0
2848 -865 0
-64 -299 0
-174 -2351 0
1472 2213 0
-1633 1812 0
2798 1225 0
-1252 -1626 0
424 -2231 0
-1772 3207 0
-1808 -1919 0
1541 1004 0
-2211 -1070 0
-1117 -573 0
3380 -2482 0
-1607 -1992 0
-124 1625 0
2385 -2418 0
1245 3359 0
1996 3289 0
-623 -2875 0
3206 -3223 0
-436 2755 0
3161 -365 0
-822 997 0
1263 -2701 0
3208 -1 0
1415 1504 0
858 1138 0
282 -1536 0
-2993 -1133 0
923 -823 0
-311 -629 0
-969 1764 0
3374 -2367 0
-1371 -826 0
2073 -3382 0
-2709 -3221 0
-700 2139 0
-1569 -2598 0
2187 713 0
2102 924 0
-1346 -3221 0
-2599 3173 0
176 -1422 0
-538 -3360 0
-905 -2309 0
-2520 1685 0
-1866 -2276 0
145 3065 0
-3108 -1082 0
-3215 1636 0
-2749 930 0
-62 3070 0
1624 -2053 0
-1221 758 0
-1282 -266 0
2449 -366 0
-1312 -750 0
2904 -2082 0
884 2786 0
-298 2678 0
1694 787 0
913 2526 0
3362 -199 0
1891 -1096 0
-660 1672 0
-2191 -544 0
2107 2877 0
-640 -1428 0
-1127 1193 0
-3177 2895 0
-1564 3061 0
3187 1283 0
-62 -695 0
-2548 -3030 0
-2769 -2726 0
-897 1970 0
-2871 1875 0
1131 1624 0
3301 116 0
-2750 -2926 0
-1416 -1606 0
984 1153 0
3022 -1565 0
-2668 3269 0
322 3322 0
-1973 -2725 0
2971 -838 0
-1981 244 0
1576 -2397 0
-1005 2776 0
-3074 2673 0
1083 3311 0
-1115 -2219 0
1111 765 0
-2604 3381 0
611 -1490 0
-797 2066 0
3211 -385 0
-35 324 0
772 791 0
-161 -30 0
-3333 3074 0
2718 -1272 0
-3213 1765 0
3160 3234 0
-941 -681 0
2364 -755 0
-2705 1260 0
1950 -3135 0
-2143 2751 0
-3032 1355 0
-914 -166 0
362 -1884 0
1128 -1371 0
-665 2716 0
-2790 562 0
845 1927 0
-1102 -2937 0
2307 1435 0
3364 1594 0
-1514 -937 0
-1453 -2936 0
2033 -368 0
740 1069 0
-982 1435 0
-1702 -1455 0
-3396 -3223 0
-825 343 0
2857 -2547 0
2410 -2475 0
3176 -1809 0
1076 -2305 0
-3038 1459 0
360 806 0
1622 -1342 0
-2395 1933 0
-2760 827 0
-1708 -2369 0
1555 2238 0
2849 -1994 0
-129 -2951 0
-3229 2503 0
3141 -1713 0
-420 -2226 0
-865 -2098 0
2449 2408 0
607 -2364 0
-3121 -368 0
-2992 -2706 0
1731 -2945 0
2742 928 0
552 -2216 0
2499 -1052 0
2810 -2262 0
-2080 2385 0
2550 1801 0
1618 1084 0
-1976 1610 0
-2161 3125 0
-953 -3318 0
-2711 1025 0
-1464 -1059 0
510 913 0
1419 858 0
-2306 -2444 0
-221 -2025 0
-199 -3307 0
-2430 -1225 0
-1763 -583 0
-2010 -3245 0
1304 -885 0
-3405 -45 0
-3034 492 0
-545 -1545 0
-110 190 0
2804 -2909 0
-2942 -864 0
-1192 2348 0
2617 -3019 0
3302 -2600 0
-1543 -847 0
1396 662 0
-3249 434 0
-2631 -943 0
-2150 1619 0
-669 3326 0
470 390 0
-1736 136 0
631 -3021 0
2588 200 0
1722 2966 0
4 2701 0
-2822 -1896 0
-2858 -1707 0
2782 2734 0
1075 1347 0
3397 -1757 0
624 2998 0
1344 -2992 0
-627 1449 0
1789 -2712 0
-2408 -2589 0
216 -2147 0
-2517 -2210 0
-2733 -3244 0
-108 264 0
-1639 -2564 0
3274 2204 0
-682 135 0
143 1217 0
2135 529 0
1701 -825 0
-1085 -1438 0
-3 1137 0
274 1472 0
-1847 2421 0
730 -1853 0
565 -605 0
891 -3261 0
-3245 3142 0
1262 -2504 0
851 -826 0
-190 -2655 0
-1845 -183 0
-1690 -1312 0
-2041 1946 0
758 3009 0
-2543 -2147 0
1094 -658 0
2143 2346 0
-1061 -875 0
-1420 -2963 0
1937 729 0
-679 -704 0
1842 1899 0
3222 841 0
-1197 19 0
3117 -2141 0
-2268 -2824 0
-717 127 0
-1814 1151 0
116 -779 0
-3074 -2781 0
2422 -447 0
2472 3253 0
2239 1067 0
2242 3084 0
-2640 -398 0
950 -766 0
3043 2811 0
-3118 -2668 0
1748 -3265 0
1032 -2750 0
1129 -1430 0
1026 -17 0
-2337 -2117 0
127 2445 0
-2307 -3320 0
2183 2232 0
730 -705 0
970 274 0
1941 2679 0
-1415 634 0
523 608 0
-2808 -2926 0
-2526 3348 0
-3064 2 0
628 3236 0
-3009 -1425 0
-2959 -2218 0
-1296 2073 0
-1359 -174 0
597 -952 0
3275 -3341 0
-448 2256 0
-2091 138 0
724 -2423 0
1640 -3160 0
-2565 2003 0
-1061 -680 0
2705 -1255 0
3325 73 0
-2714 -779 0
-875 1423 0
-3057 157 0
835 1080 0
444 800 0
2301 -2078 0
-1021 -838 0
163 -960 0
3255 -185 0
-2606 1874 0
2605 3126 0
-962 -2339 0
1672 -1995 0
2894 976 0
-1107 -2203 0
-719 622 0
-2847 -2089 0
-3329 -2108 0
1566 2978 0
2428 -2969 0
-2424 -1606 0
2482 3009 0
1392 2308 0
-1096 2574 0
1396 2397 0
2419 -1646 0
-2359 1832 0
274 -866 0
-136 2434 0
1075 2952 0
1607 -812 0
-2283 2672 0
-1266 766 0
83 -811 0
2511 2240 0
-3034 -3065 0
2307 589 0
-2123 -2435 0
3103 -3303 0
2115 321 0
525 -3040 0
2186 2020 0
-1032 -785 0
-1310 -2104 0
2133 171 0
1187 2714 0
1823 1526 0
-708 2155 0
-969 -2294 0
-3190 -2085 0
2922 72 0
-3209 -2949 0
-1064 3069 0
-1950 2596 0
561 2577 0
100 -3033 0
-2238 -1007 0
1830 1820 0
-377 2315 0
-3365 -2100 0
-2604 -2637 0
2545 -609 0
1101 1058 0
1956 -577 0
-2894 1329 0
844 1722 0
-2400 2008 0
-2783 -2316 0
-782 -1989 0
1937 -2079 0
68 -715 0
355 -3228 0
2150 263 0
173 -3326 0
-922 -986 0
1764 325 0
-1082 2974 0
2862 1701 0
-2007 2013 0
1987 516 0
3068 383 0
3084 1204 0
707 -230 0
2935 -311 0
589 -2229 0
660 -2032 0
-1296 -931 0
898 -1636 0
-2028 -1729 0
3110 -1331 0
-2822 -2382 0
820 -428 0
1076 2317 0
1526 -1168 0
-320 -2908 0
-545 -299 0
-3053 -660 0
-3119 3366 0
-1864 646 0
-1997 1476 0
-1643 2984 0
-3394 1209 0
2982 -1031 0
-1680 -388 0
3160 -2661 0
-398 -2196 0
65 1523 0
-1062 2114 0
-2324 -3123 0
-1162 3044 0
1598 -1469 0
3091 -2711 0
-1248 1648 0
1985 -3395 0
9 -2345 0
-2858 -473 0
-2718 2633 0
2599 -2538 0
1071 -2531 0
-2531 55 0
2688 831 0
-2247 -227 0
-1070 -2186 0
-1375 -2927 0
2674 714 0
2773 -1075 0
-2562 1559 0
-8 1329 0
-1375 -3078 0
-701 -1655 0
397 1967 0
2382 -3058 0
29 1078 0
1511 501 0
3327 -1288 0
-1888 2622 0
-2166 839 0
-718 2679 0
-671 -1778 0
3044 2360 0
3113 -1617 0
-1955 -3235 0
2056 3185 0
1581 274 0
2249 3050 0
-3270 -1058 0
-205 -2799 0
-1302 1217 0
3167 378 0
-670 2613 0
-1548 3154 0
-2395 2442 0
-2226 2299 0
3326 1348 0
-2247 124 0
-1967 769 0
3099 -3058 0
802 1903 0
2361 1960 0
2286 -2789 0
-2934 -1110 0
3371 659 0
-826 -3121 0
-1911 466 0
-2716 -980 0
-435 741 0
153 1351 0
2935 1555 0
3161 -874 0
3321 -173 0
70 3169 0
1446 26 0
-164 1236 0
2605 2232 0
-2164 -802 0
2640 -1193 0
997 651 0
2502 2711 0
248 100 0
-770 2132 0
-2795 -1564 0
1742 -309 0
-1775 1032 0
-638 -3122 0
68 2592 0
-2662 2379 0
-417 2690 0
1332 -1041 0
2956 -2207 0
3371 -782 0
2927 -1123 0
2832 -1664 0
-78 2564 0
-2630 715 0
2860 1335 0
2317 1449 0
3214 -192 0
-3323 113 0
1715 -85 0
2874 -2938 0
544 -3258 0
-860 -1836 0
2100 132 0
1714 -81 0
2130 -1515 0
-3065 -3244 0
-3199 1544 0
-208 173 0
753 -3186 0
-528 3105 0
752 1373 0
-3003 1708 0
-1980 2367 0
1898 2842 0
-3001 -2283 0
-2834 -163 0
-2746 -176 0
1976 3351 0
753 -3082 0
364 3406 0
-2283 2779 0
1054 1516 0
3000 -185 0
726 -1096 0
-692 -1426 0
1008 795 0
-1462 -139 0
1 -916 0
52 -1517 0
-2258 -1844 0
2523 1904 0
2190 -1326 0
1629 -2184 0
-1640 3344 0
-351 881 0
-2143 -233 0
-1168 472 0
3226 -2276 0
-1663 -2059 0
1372 -240 0
1119 65 0
-1889 -2527 0
-1112 -1377 0
-1464 1516 0
-2832 1762 0
1705 -1073 0
1477 833 0
-3398 -3064 0
-181 -2461 0
2309 1381 0
887 -1331 0
-686 684 0
553 869 0
-2080 265 0
-2270 -2432 0
2691 1697 0
2633 -3402 0
1195 870 0
-517 3233 0
-2169 -2229 0
2328 -168 0
1136 1331 0
-673 -2625 0
-1092 3176 0
-1879 3285 0
1899 -474 0
2405 2828 0
-909 2967 0
2306 -1145 0
-2542 -605 0
-2342 -2881 0
-285 1043 0
-2956 -702 0
372 823 0
1888 -584 0
-1650 2705 0
2133 2302 0
3221 -2842 0
1367 540 0
-649 -1298 0
-66 1705 0
2810 2810 0
-3334 3363 0
-1680 405 0
636 -375 0
-91 1150 0
-1945 2619 0
-2196 -2323 0
1752 3047 0
2222 -2559 0
-234 -2453 0
2911 -1995 0
1661 1286 0
-995 -386 0
-372 -2959 0
1710 117 0
-596 -1542 0
55 -393 0
-3377 1846 0
-1221 -635 0
1892 -2865 0
-2336 -2668 0
1283 -1955 0
229 -2517 0
2223 2181 0
2392 -1381 0
-2430 -1411 0
-3186 2635 0
-2935 3274 0
-996 -2774 0
-1204 2361 0
-972 -886 0
-1453 3069 0
-1367 -2572 0
-2440 2709 0
19 2732 0
2583 715 0
2277 -1271 0
416 -1358 0
-1409 496 0
-1915 262 0
-410 -1944 0
1310 1038 0
1405 593 0
3025 1159 0
-61 -168 0
2954 1068 0
-3345 -2581 0
-1378 -1062 0
-1910 1148 0
3357 -1480 0
1562 -189 0
-2665 287 0
3192 162 0
-3386 2518 0
-2014 2163 0
-2488 2590 0
-1119 -2122 0
-1776 1873 0
2814 159 0
367 1906 0
-2245 2904 0
536 634 0
-3024 -332 0
1355 2304 0
183 -2440 0
61 925 0
328 -2811 0
-2713 -785 0
-1589 608 0
-1976 -420 0
1128 -3311 0
819 1539 0
-2528 -880 0
-1591 923 0
-1890 2376 0
1899 -2878 0
358 2231 0
1767 -1704 0
1033 -1214 0
2432 -710 0
3196 -948 0
-3175 -437 0
-152 1692 0
-2373 -3159 0
1882 -714 0
2525 -1688 0
-2168 1289 0
-2793 -2915 0
-1760 -2205 0
-2211 2004 0
420 1512 0
3093 -2157 0
2113 -1981 0
-3089 293 0
-882 -188 0
-1464 -2576 0
1777 -1546 0
3301 -2505 0
2609 -2470 0
3145 2094 0
-2529 2666 0
100 1579 0
-2096 -52 0
-1506 1617 0
3029 -474 0
-2203 381 0
338 1491 0
1547 3002 0
-1644 340 0
3087 -517 0
769 -744 0
-1797 1749 0
-1870 6 0
-2749 -2580 0
3357 1351 0
-733 8 0
-1708 2512 0
-1835 -31 0
1697 -1518 0
786 -3089 0
-2253 -568 0
-1739 2401 0
-2547 -2888 0
882 -2905 0
1134 -366 0
359 246 0
-3401 622 0
-263 2240 0
-2858 850 0
1276 -213 0
319 -1339 0
1532 -1213 0
967 -2157 0
-1082 -2268 0
111 1126 0
-3079 2072 0
97 -3242 0
-2806 -626 0
2954 836 0
-2478 -1936 0
-2934 -2967 0
301 -38 0
3003 833 0
1265 3169 0
-2147 1068 0
3055 -146 0
2548 -1592 0
993 -2250 0
-1732 2602 0
-1225 2846 0
-917 -2617 0
-2628 -915 0
-3354 -433 0
452 3174 0
1123 -281 0
-2717 829 0
3347 852 0
-227 -2705 0
1601 941 0
-345 -3316 0
2509 -2898 0
-1333 -2625 0
-1110 924 0
-3074 -2361 0
3253 -1197 0
-1949 -1615 0
3260 -2587 0
2902 1429 0
1462 -2630 0
2779 -413 0
3297 -2444 0
-3074 625 0
-531 2075 0
3115 -149 0
2195 -2249 0
-3130 503 0
-247 3196 0
96 168 0
1435 -2055 0
2628 1476 0
-1964 1080 0
220 608 0
1924 1380 0
1245 3050 0
-2531 -3187 0
745 79 0
2645 -219 0
-1712 1784 0
-2650 3186 0
-1701 3259 0
-1336 2307 0
-522 -625 0
-2752 -966 0
2698 1693 0
2264 -347 0
612 2111 0
3203 -514 0
337 -1422 0
966 2304 0
-2637 2539 0
1629 2605 0
3079 2720 0
-1019 -2937 0
-3328 65 0
-1320 3162 0
-364 -1838 0
-2792 -1856 0
521 -2949 0
-839 -363 0
513 -2149 0
521 2095 0
-1041 1304 0
-1253 -3054 0
-537 -2669 0
-1410 -64 0
-2565 -1083 0
-2130 270 0
-1924 1848 0
-1298 -2783 0
1427 324 0
3369 -2119 0
-434 1956 0
-2349 -1980 0
601 -2763 0
-2466 1617 0
2539 2012 0
3351 -1525 0
-2644 -1797 0
-1583 2843 0
70 -733 0
2347 -1320 0
1706 -1237 0
61 -2720 0
-2972 1731 0
1813 2709 0
3253 -1052 0
131 -2678 0
2796 131 0
-1453 -2944 0
282 -2817 0
3289 3224 0
-667 141 0
2941 -2256 0
-2959 1138 0
2113 1229 0
-2717 -1249 0
1579 -1143 0
1506 -2671 0
3162 2093 0
-1128 -1175 0
1135 -257 0
715 -2502 0
-1831 743 0
1830 1926 0
-1495 2190 0
-2250 -3034 0
3052 -3008 0
-1473 -1333 0
-1967 -3238 0
-1952 3095 0
-2970 1347 0
1452 1295 0
758 -117 0
3348 -3283 0
2758 2340 0
2981 2970 0
-1743 3280 0
-2659 69 0
-1725 -1098 0
2307 -614 0
2773 -586 0
1015 3383 0
-830 -539 0
-1066 -3016 0
-529 -450 0
-1833 -2196 0
310 -1185 0
1937 -2505 0
-1188 -3228 0
933 2800 0
236 -1633 0
1889 1467 0
2051 -1979 0
604 -535 0
-2169 1666 0
-1799 1508 0
-1070 1743 0
1280 2525 0
3327 1009 0
-1634 1824 0
-197 1506 0
-3265 -222 0
3176 1084 0
1261 170 0
335 1568 0
1720 2845 0
-421 607 0
-1527 1448 0
-1872 -3251 0
-2246 581 0
1205 -1947 0
127 271 0
994 240 0
2370 -1431 0
-3056 2173 0
-1606 1209 0
1027 -1996 0
3247 -1367 0
1520 3215 0
1544 -2027 0
-1955 -1092 0
-2855 -825 0
-288 3097 0
-2992 -399 0
450 2794 0
2798 -619 0
-1194 -1110 0
-571 3244 0
902 -2854 0
-311 2410 0
165 2158 0
552 3291 0
1584 -2858 0
3330 -589 0
-3173 1419 0
-209 2288 0
2843 -2909 0
1501 1832 0
567 -3337 0
1307 2978 0
767 -1340 0
-1871 42 0
-2640 3041 0
-3165 2780 0
-1074 -1240 0
-2827 -1191 0
-3168 -3037 0
1686 1921 0
-2909 1128 0
-2044 2111 0
-2689 1651 0
769 -720 0
2220 1555 0
-1450 -1535 0
-975 -1408 0
-213 119 0
-647 1618 0
-1112 1496 0
-2194 2971 0
726 -2589 0
2317 -3041 0
2065 183 0
836 -3201 0
-1414 2191 0
2882 -885 0
-3392 1354 0
-434 796 0
1767 845 0
3208 3196 0
-509 1579 0
-539 -1208 0
-2802 2408 0
-225 -3042 0
1619 -201 0
1351 67 0
-1326 653 0
2245 3028 0
1394 1762 0
1764 -1975 0
-1091 -1013 0
-2589 -1093 0
-1654 -698 0
322 443 0
-149 -505 0
-3365 -1239 0
3142 -2494 0
312 1691 0
468 2350 0
1655 1481 0
1477 -1899 0
-37 3065 0
502 1894 0
423 -572 0
1854 2037 0
-1655 2618 0
1519 1167 0
3003 543 0
616 2180 0
1986 2057 0
2374 -2940 0
3312 -2177 0
-3254 -1927 0
-1192 -1607 0
-149 2721 0
-397 1136 0
-2578 -1976 0
-234 2045 0
-2803 1797 0
2243 3372 0
2723 -1049 0
15 -163 0
-2506 1749 0
-1268 -1650 0
2108 1694 0
-1261 -846 0
-1828 -2269 0
-1814 1830 0
1368 -2806 0
2143 -1991 0
917 2780 0
-2358 -2974 0
1364 193 0
1541 -3178 0
-2237 908 0
796 -154 0
-915 -3267 0
810 -2076 0
-1419 2928 0
-2565 168 0
-2741 -2330 0
-1058 3343 0
-537 -31 0
1368 -3150 0
2370 1682 0
1744 -2421 0
-2402 -1844 0
-2869 -197 0
-2432 1360 0
1413 -342 0
2366 -2538 0
-945 -2218 0
3092 -2337 0
-3028 -435 0
-995 -1061 0
372 -3167 0
-1843 1307 0
-1687 3122 0
1304 -1960 0
2392 944 0
2263 383 0
-3017 -3019 0
-520 1528 0
-974 -1912 0
-2207 -835 0
-375 297 0
3271 689 0
3013 2618 0
-805 -2942 0
2361 -2412 0
2830 -1016 0
-281 -3310 0
-808 -767 0
-1278 936 0
3096 2792 0
1769 -129 0
557 2603 0
3364 2377 0
-1703 1207 0
-2245 1234 0
1700 1896 0
1612 1307 0
-1926 -3244 0
-2435 -2471 0
2030 3091 0
-766 2008 0
141 2453 0
637 2545 0
-382 1158 0
3317 3113 0
2940 2666 0
-861 -2308 0
-246 -3200 0
2940 -220 0
2180 -1786 0
-2181 1799 0
800 -1414 0
-2733 928 0
-1490 -1115 0
-2583 -1370 0
65 396 0
-2788 -1469 0
-577 2071 0
2901 -2671 0
-2343 1590 0
-1271 -342 0
490 2217 0
1266 1095 0
2317 -2850 0
2899 -1372 0
3234 2835 0
1909 -2433 0
396 -3365 0
-2636 2736 0
1017 -653 0
-954 2443 0
3366 3236 0
1728 1086 0
2770 -3279 0
2175 2294 0
-2853 607 0
2257 -10 0
1042 -2443 0
-2762 22 0
-2349 2863 0
278 -2782 0
-3310 1902 0
-903 -2556 0
1714 1506 0
-2523 747 0
-2282 -940 0
-1361 -1881 0
2034 -1331 0
-1218 2723 0
1657 -1893 0
-2380 671 0
-80 1824 0
-2365 -303 0
603 -80 0
1966 -545 0
2865 -1690 0
-1380 2658 0
-109 -2268 0
2061 -988 0
996 -3116 0
529 318 0
123 1200 0
211 765 0
2217 2345 0
1953 2053 0
1287 806 0
1734 -2579 0
1670 1556 0
3136 796 0
-2513 -2491 0
-69 -183 0
1651 334 0
1743 2208 0
2483 -1240 0
-2373 -3380 0
-2608 -3167 0
-812 358 0
-1107 855 0
1354 1529 0
2295 -3373 0
-340 904 0
-447 3008 0
-2165 -584 0
286 903 0
-1541 -865 0
3084 -1943 0
-2447 1268 0
1074 -1542 0
206 2837 0
-1700 1774 0
101 -878 0
-1412 -1174 0
-2764 -394 0
473 2558 0
2750 2243 0
1060 3321 0
1058 379 0
595 851 0
573 -2552 0
534 -299 0
1481 1669 0
-1541 1605 0
2408 237 0
2456 278 0
292 -435 0
-2653 -1149 0
1425 -2482 0
3109 2529 0
-2617 486 0
-824 2687 0
2378 1389 0
1930 -860 0
-2098 -1931 0
-1615 2321 0
-3336 -2712 0
254 1811 0
-825 1898 0
-3080 -1090 0
-2795 -2309 0
-2565 1742 0
2495 3302 0
-2280 -452 0
615 -3266 0
1302 -1249 0
-2420 1871 0
-3274 -2882 0
3389 2307 0
2419 556 0
-3305 1144 0
2649 1991 0
2116 2029 0
-2740 1367 0
-2470 -2840 0
-721 2736 0
-1249 -1588 0
491 -2897 0
-3092 253 0
1678 2366 0
3149 -605 0
-1104 -1081 0
-1439 -1580 0
3165 1098 0
1677 -228 0
1948 3298 0
1555 1508 0
53 957 0
-309 -2509 0
-2441 1097 0
2902 -250 0
-1675 1452 0
-1707 -2210 0
2825 -1883 0
-1051 1810 0
-841 483 0
-1864 461 0
-696 -595 0
682 -1928 0
2241 497 0
-978 1415 0
-741 -742 0
-2551 -3258 0
2895 255 0
1432 -707 0
1957 183 0
1494 2739 0
1175 864 0
-286 -1289 0
-1154 -3140 0
-2809 2280 0
1731 2207 0
-2246 3346 0
-1618 -2465 0
686 48 0
-1552 395 0
2403 -1257 0
2098 -2157 0
3381 -1426 0
2116 -462 0
1023 -2155 0
-849 -49 0
1330 -2146 0
-2715 2386 0
1447 2304 0
-2571 -393 0
3356 -2957 0
1939 3108 0
-2180 -735 0
-2871 280 0
-364 1303 0
1970 2797 0
-2969 1618 0
1802 -3128 0
1 -1977 0
-54 -2347 0
-605 -2623 0
3014 -2163 0
1849 673 0
-1552 1059 0
2419 -1093 0
2425 -2412 0
-3235 -3151 0
2346 3190 0
177 805 0
-1635 -1248 0
1658 156 0
-727 -554 0
1294 -506 0
-2575 857 0
-3175 -1712 0
-1104 -3384 0
-1118 -357 0
2809 -1767 0
2917 1289 0
-1188 2752 0
2513 203 0
810 -952 0
903 1264 0
-1764 -93 0
296 -1926 0
-1932 2323 0
-1428 3320 0
1853 -1174 0
-2143 2975 0
2767 -1000 0
3256 3113 0
1163 -3358 0
-2574 -3150 0
-2537 1268 0
-3334 1013 0
3250 3127 0
472 1617 0
814 2409 0
1937 1719 0
3019 -1583 0
-1905 -644 0
1771 -819 0
-2655 -1483 0
310 -67 0
-604 -667 0
1752 -1190 0
1442 2315 0
2099 1212 0
-2866 3173 0
3040 2980 0
-351 -653 0
235 -2105 0
697 514 0
-382 1449 0
-19 1999 0
1783 -1279 0
2866 1069 0
165 585 0
2721 -2317 0
904 1690 0
-2042 -1295 0
2329 803 0
1301 296 0
-3289 -825 0
2522 2239 0
29 -1480 0
-3022 -2412 0
-992 1636 0
-2965 -1566 0
853 998 0
-332 1528 0
-2799 2540 0
-260 463 0
-777 -544 0
2386 1204 0
-1482 2386 0
-643 2413 0
2525 1696 0
-1952 -3143 0
1681 -3082 0
2155 -622 0
-3116 -232 0
-2747 -2583 0
334 1420 0
-185 155 0
956 -2659 0
-1375 -2497 0
-1525 2956 0
-3026 1025 0
2013 -2967 0
2401 1184 0
-512 -1064 0
1799 -3010 0
1846 -1157 0
-489 -676 0
-1376 729 0
622 -621 0
2306 -2314 0
2306 -1856 0
-2169 -701 0
25 115 0
2399 -1540 0
-757 -1661 0
-705 899 0
1107 -1960 0
-1385 265 0
-2271 -2496 0
-1991 1415 0
-473 2749 0
-1018 212 0
957 -1980 0
2372 1149 0
2341 3112 0
-1560 3252 0
684 2164 0
2704 870 0
2375 -2975 0
3203 1057 0
-3223 1365 0
-1960 1086 0
1106 -1475 0
-3188 -2042 0
-3357 2854 0
-408 -1505 0
2627 -2439 0
-3194 1781 0
-3388 -1635 0
-624 -2972 0
585 1925 0
2182 2192 0
1012 -3229 0
-2525 -860 0
-3219 3363 0
375 1081 0
2239 1250 0
-1861 3040 0
-786 -879 0
2469 -1991 0
1474 3367 0
-388 2321 0
2288 381 0
-1761 1328 0
-2764 -2200 0
1859 1459 0
-508 117 0
1754 2720 0
-2647 40 0
-2083 3188 0
1020 -3300 0
-594 238 0
-2159 -2365 0
-1235 -908 0
2718 2963 0
990 -1735 0
-1383 -1488 0
-1856 -3129 0
-2324 414 0
-1813 -1535 0
-3066 -2676 0
2375 -2714 0
324 2297 0
-1163 -3262 0
2446 -1484 0
3284 2972 0
-369 1174 0
-3202 -1550 0
-3160 -855 0
-1141 890 0
2317 263 0
1114 59 0
-144 3330 0
-342 1656 0
-2076 -2441 0
-1000 1506 0
-2581 -1544 0
2876 -2618 0
-339 -2460 0
1772 191 0
-207 -413 0
1452 -574 0
2105 1948 0
1768 658 0
-1453 -808 0
-3030 -2188 0
-1533 977 0
-494 2527 0
3180 2420 0
-2 -3261 0
-2730 -701 0
-992 -3209 0
-2926 -3261 0
1646 -634 0
-1008 -3050 0
-2292 1152 0
-2143 431 0
-2888 -3109 0
-1754 1874 0
256 -2920 0
1518 -108 0
590 -1092 0
-194 -2511 0
2700 100 0
-2524 1602 0
2681 2975 0
-3328 -1046 0
396 2423 0
2206 -915 0
59 -1022 0
-956 1789 0
3062 2648 0
1920 -2481 0
-558 837 0
525 -783 0
3221 -2356 0
2739 824 0
2538 3348 0
-1651 -1119 0
2538 1308 0
2022 3105 0
-420 -1622 0
1310 229 0
1685 -854 0
-1695 -3012 0
2055 2188 0
2100 -1100 0
456 2311 0
-92 2921 0
1895 -980 0
1536 86 0
3110 -1890 0
-2409 3192 0
1234 -744 0
2721 -146 0
2159 -1024 0
-1078 2648 0
-400 924 0
195 -832 0
-1027 344 0
736 408 0
-2282 -2782 0
3070 -500 0
-144 2190 0
-2345 -965 0
-3204 -1320 0
396 -1684 0
466 3229 0
-733 -1267 0
3265 2228 0
2731 -3405 0
1014 1542 0
2670 893 0
1441 -1423 0
-2636 947 0
-1928 2920 0
1183 -2714 0
1441 -2907 0
-1806 2231 0
1737 -39 0
1788 -2818 0
1247 2781 0
2438 -463 0
-1928 -1837 0
3042 815 0
1846 3347 0
-1622 534 0
3094 -3052 0
-30 1954 0
-1280 -1406 0
1400 -1082 0
-1797 1892 0
-3032 -916 0
-1177 2069 0
-3151 3021 0
-2611 -2126 0
2074 405 0
2450 3400 0
281 -613 0
-2931 2737 0
310 -1022 0
2305 2231 0
-402 -1525 0
-1741 -885 0
2161 -1487 0
1242 -2166 0
709 -271 0
-3317 -1882 0
-1951 606 0
-1 -2347 0
1406 1822 0
159 -3392 0
2009 -532 0
715 391 0
-2353 -2712 0
-895 901 0
-1379 -1211 0
1480 2361 0
-3010 3384 0
265 2974 0
-2021 155 0
-252 2717 0
-1658 2605 0
2489 2942 0
-3003 2613 0
689 1955 0
-1946 1717 0
-2948 2742 0
2822 -1545 0
-2117 2106 0
-8 657 0
2557 -995 0
1511 2286 0
2034 -1794 0
3216 2980 0
-2239 1568 0
840 -2636 0
-493 -1082 0
841 1102 0
496 -806 0
1297 1463 0
-2152 -2385 0
-1533 1390 0
-486 -3402 0
-452 -658 0
-2948 1250 0
-1886 -2717 0
-1620 2582 0
-2841 -3172 0
-1115 1774 0
-3267 -2288 0
-1670 2512 0
2216 1302 0
-1490 -2676 0
1057 1861 0
-406 -1401 0
2281 176 0
2559 648 0
-3303 2500 0
-3085 1925 0
-2729 -1783 0
2721 -1395 0
1835 -1691 0
-2437 2718 0
2055 -1480 0
-106 -1546 0
2101 -1802 0
-55 -808 0
-2082 -1476 0
-1434 -2081 0
1150 -2508 0
-1875 1287 0
2167 162 0
958 -2556 0
2619 2024 0
-1358 1548 0
-1513 2404 0
-2036 300 0
-3036 775 0
-2875 1590 0
-2128 -1230 0
3006 2507 0
-782 -2731 0
3181 927 0
2960 2594 0
3395 829 0
-2623 2315 0
-44 3191 0
-1001 -2788 0
-1897 1020 0
-712 2911 0
-915 -751 0
2070 2056 0
1040 -2788 0
-1218 -3223 0
-1749 3321 0
736 -2994 0
2116 -1743 0
2786 -616 0
1058 3255 0
2986 2868 0
2759 49 0
-802 -2380 0
-1280 -3141 0
3350 1697 0
-3181 131 0
-960 -2766 0
-2425 -2249 0
-2094 2183 0
-1657 -373 0
-1530 -1319 0
2737 2944 0
1215 2545 0
1306 -3002 0
2942 -1806 0
-1845 3061 0
-323 964 0
-3248 373 0
528 -2251 0
1261 269 0
1809 1825 0
1132 135 0
1501 292 0
2558 2486 0
-3119 -1385 0
-2443 -124 0
-3126 -1501 0
-1876 -3096 0
-1998 1263 0
-3036 -2749 0
3013 2943 0
1306 -2520 0
-1470 2542 0
-1291 2295 0
-2431 655 0
1029 985 0
-477 1556 0
-2506 -2951 0
-2951 -48 0
1722 2965 0
-575 -2055 0
578 -2436 0
-2465 -3170 0
-3287 337 0
307 -3338 0
-3144 676 0
-31 2669 0
-1383 3146 0
-1365 -2427 0
1333 -1790 0
311 273 0
-960 -1911 0
-3358 -104 0
-1671 -2701 0
1095 -1690 0
-2709 -2585 0
1959 -2058 0
2903 595 0
35 -3009 0
-2647 2433 0
1933 -2407 0
1925 130 0
-1037 2503 0
-2712 2317 0
-3385 -1085 0
1489 1108 0
-91 2921 0
-3213 -2363 0
2012 3079 0
-3224 1826 0
-1382 -1433 0
2548 -2344 0
3277 -2728 0
95 3022 0
2821 -2130 0
2688 -1900 0
-402 1672 0
-1369 -1098 0
961 100 0
2227 -3245 0
2075 852 0
-1770 341 0
2338 1471 0
-1717 456 0
-2486 -1330 0
-2015 -762 0
717 -1231 0
2304 1731 0
-1051 -2214 0
3158 -187 0
-1796 1807 0
-1716 -206 0
-2526 -1003 0
449 1547 0
-1814 -1487 0
294 -3010 0
-188 -531 0
3177 1914 0
-821 -574 0
-2514 223 0
-486 -3341 0
1317 -2354 0
2684 1496 0
1957 -1515 0
-2903 -2244 0
2469 1209 0
2340 -1323 0
-290 -589 0
-2578 -927 0
739 -815 0
-1943 1881 0
-2412 1364 0
294 -3396 0
-2871 -2340 0
2135 -2913 0
3004 2399 0
1450 -330 0
2939 -360 0
-632 -1752 0
2338 -701 0
1025 -763 0
2130 -2536 0
-140 -1843 0
1506 -1204 0
-1847 -2229 0
1083 -1503 0
1468 -2921 0
3188 730 0
-2959 814 0
2101 2314 0
-155 104 0
-2261 -2473 0
3070 889 0
2038 -3102 0
2453 2133 0
-1886 -862 0
2399 -1596 0
-704 1017 0
2357 1219 0
1265 -1709 0
-1991 2187 0
-2584 1662 0
739 -2452 0
1065 3069 0
221 -1516 0
-1993 -1323 0
-2905 -436 0
-1931 -3185 0
-1199 -1955 0
-2754 1139 0
1968 2116 0
-1222 3298 0
-1156 1625 0
797 -2707 0
2186 950 0
-2488 1382 0
-2147 -2553 0
2533 1618 0
-56 1720 0
-161 -1246 0
1005 -1783 0
-1339 -1987 0
-2528 2814 0
1232 -1159 0
3239 2730 0
-1756 -920 0
-502 -915 0
2797 1585 0
2590 159 0
1490 2660 0
-2631 2512 0
-1309 3061 0
-2732 -514 0
1986 -1426 0
472 2375 0
1477 3030 0
2710 3231 0
1996 -376 0
631 117 0
-3360 -1732 0
1146 1739 0
-463 3061 0
3206 -3 0
-2634 3247 0
-1810 2973 0
-3361 1136 0
-1344 -3286 0
2088 1822 0
-1695 1007 0
3075 688 0
692 775 0
-2271 1907 0
-2637 -829 0
-464 2864 0
1283 -2205 0
-3267 2641 0
-1103 -742 0
-825 -2774 0
-2069 2361 0
1378 -2646 0
-735 971 0
1060 1496 0
2399 -881 0
1407 -2606 0
-3100 2008 0
457 2313 0
3026 -2301 0
-2055 2310 0
1742 1719 0
373 -2846 0
845 -709 0
3310 2633 0
-2314 -3063 0
3312 2013 0
1496 -3131 0
-3402 921 0
-2043 -1822 0
758 1980 0
2436 545 0
594 734 0
-2814 2635 0
2034 -3156 0
-1296 -1894 0
-2500 2213 0
976 -3202 0
1335 1449 0
2240 -498 0
2015 -1815 0
2449 1114 0
1094 264 0
1495 928 0
87 1056 0
1478 925 0
-2528 2119 0
2170 2895 0
-2612 -2924 0
1751 -2807 0
2111 944 0
-2710 489 0
2366 -2744 0
1528 -1685 0
-2784 1438 0
1250 3400 0
2684 689 0
-3151 344 0
-56 1916 0
-2296 591 0
1297 -2547 0
-2420 -786 0
379 1404 0
-2711 1391 0
-133 3250 0
-1226 3198 0
2419 1387 0
2165 -2847 0
-1574 3069 0
-1455 -3349 0
311 -3148 0
3059 -2905 0
696 2729 0
-2578 3322 0
2523 1881 0
2280 460 0
-308 -3191 0
1183 -2674 0
-1215 -108 0
-3368 4 0
-589 -391 0
-1961 -2107 0
-1738 831 0
-2863 -1422 0
18 -628 0
2954 -1742 0
-3232 -1155 0
-647 1584 0
40 293 0
3142 2697 0
2438 -1618 0
-2900 -153 0
-500 241 0
370 -1900 0
1260 -218 0
-508 -84 0
1029 -483 0
-1561 -2440 0
2489 -707 0
-958 66 0
2998 2370 0
-1225 1391 0
-1314 -3050 0
501 -2858 0
-1272 -1700 0
498 -53 0
1869 3395 0
-3222 3162 0
2648 -1250 0
-2955 -3139 0
-3181 2805 0
1218 65 0
3377 2854 0
-1760 -546 0
2468 268 0
-494 -1844 0
3162 505 0
266 -2134 0
1640 -1503 0
3115 804 0
1106 851 0
1725 425 0
-438 -962 0
-1642 1901 0
-3078 890 0
-3055 2358 0
1679 -2053 0
-1359 -313 0
-2616 324 0
365 123 0
-1067 834 0
706 3342 0
-857 -112 0
3006 1597 0
2864 -561 0
3222 -1818 0
-45 -1494 0
2545 440 0
1220 -2354 0
1162 -2441 0
1921 -1249 0
1551 -1486 0
1979 2606 0
-2879 1540 0
-2412 -260 0
1962 1138 0
-1708 -895 0
1625 3084 0
2609 174 0
3051 -3103 0
-1760 -1404 0
955 -981 0
-1905 678 0
3186 -1882 0
2950 692 0
2232 -1961 0
-2578 -1233 0
1152 -816 0
-1879 -3053 0
-1030 -1754 0
1446 3168 0
-721 666 0
-939 -1540 0
1460 -2686 0
129 -887 0
-2815 -1767 0
-3023 1283 0
-673 -2570 0
622 -2667 0
-1668 -2811 0
929 -706 0
3295 187 0
1822 -1060 0
3387 -1159 0
-2025 233 0
-95 548 0
-2581 2985 0
2828 -1795 0
904 1556 0
360 -2542 0
3343 2783 0
387 3248 0
-2763 -1500 0
-1258 -750 0
1392 3120 0
2865 -943 0
-237 -3235 0
1610 882 0
806 -2260 0
-1725 3217 0
-754 -1466 0
1715 3048 0
1677 -2474 0
1908 2175 0
1605 3095 0
932 2950 0
1742 1454 0
-415 -888 0
-3292 -733 0
974 -3129 0
-2957 -1191 0
-653 -2304 0
1437 -2502 0
2876 409 0
215 -375 0
369 -3049 0
-2184 2431 0
3285 435 0
986 -1195 0
2591 -2661 0
1396 870 0
2280 -3309 0
-3244 2789 0
-23 -30 0
838 3247 0
1165 421 0
-2933 -1155 0
-2344 2233 0
3095 2984 0
1497 -2592 0
1791 -1722 0
-1263 2912 0
2173 173 0
325 -273 0
1328 -981 0
1731 -701 0
588 -318 0
3250 -577 0
-2209 527 0
404 -786 0
99 1120 0
130 -2889 0
-850 -1363 0
-2226 -895 0
3356 851 0
-2298 -760 0
-857 3336 0
533 1301 0
2720 -3315 0
-1580 -689 0
578 -909 0
-1326 1187 0
2760 -2787 0
-1863 -1577 0
-64 1399 0
3377 -743 0
2363 -1224 0
-3369 1290 0
1088 -211 0
-3130 -1487 0
784 3249 0
-1226 1896 0
2135 2267 0
1306 -2999 0
-1438 -212 0
-1227 -404 0
2446 -617 0
-2426 3203 0
3098 469 0
-1752 -1058 0
1936 3216 0
2388 1095 0
1929 1100 0
656 692 0
-2686 1831 0
506 2758 0
631 -3152 0
-989 3332 0
1812 -142 0
454 -3351 0
2107 140 0
-2743 -3037 0
-669 1389 0
2553 -530 0
1076 -2518 0
-1599 -2475 0
937 -2216 0
501 -1419 0
1411 -555 0
-1993 -302 0
-2288 2471 0
42 -3124 0
1987 3077 0
2563 -3267 0
228 291 0
-2524 2228 0
921 -3015 0
1575 -1823 0
-2738 -3295 0
1766 2863 0
2872 -1341 0
-3249 -2661 0
1039 2482 0
524 6 0
-3020 -703 0
-1642 1536 0
-3309 -3158 0
2857 1268 0
-2023 1873 0
-1123 3341 0
-849 -2785 0
2915 2066 0
-992 -2678 0
-2980 236 0
-942 645 0
963 905 0
3210 1754 0
2812 136 0
-2938 677 0
404 769 0
3073 -1365 0
2542 -2274 0
334 -1492 0
-826 1714 0
-3013 2265 0
549 1424 0
-2052 -532 0
-910 -2268 0
2750 -2054 0
-1212 -3042 0
3263 -2714 0
745 -1867 0
-116 -2749 0
2862 -2084 0
-1211 1556 0
-2736 1651 0
397 2329 0
-1305 -2676 0
2794 1939 0
-2108 -2922 0
729 -2442 0
741 1643 0
-605 273 0
2299 -869 0
2104 -1722 0
-1535 -1785 0
353 -3103 0
736 -2546 0
2716 -2595 0
-2606 -313 0
-1218 3395 0
3102 2326 0
2780 2952 0
-1667 661 0
-2516 1252 0
-2020 2168 0
1666 -2319 0
-2955 3105 0
-1531 -2630 0
-254 2442 0
-3024 -2143 0
-2427 3016 0
-960 -3166 0
668 1537 0
1446 80 0
-95 2385 0
3135 949 0
-2638 -2706 0
-372 -1823 0
-1680 -1410 0
-1717 2695 0
-1757 -288 0
486 -1457 0
1100 1853 0
1878 -1219 0
841 -2935 0
-590 419 0
-1323 -1222 0
-3328 944 0
-2170 -1393 0
82 3095 0
-948 -2202 0
705 -130 0
-639 3028 0
311 -1326 0
-2365 432 0
-125 -2797 0
-867 1996 0
-2858 1121 0
-2292 3370 0
1411 454 0
-782 -874 0
1625 -498 0
-1863 989 0
-1827 1986 0
2591 2735 0
503 -3314 0
-2940 1833 0
1906 3353 0
1354 -1622 0
-3380 -2358 0
2499 212 0
3236 -1758 0
3095 -3064 0
2729 1521 0
2596 -677 0
3156 3331 0
-3212 -2814 0
3192 2187 0
-2620 2659 0
-2969 2666 0
2878 -2704 0
1441 -3195 0
3255 2816 0
3163 -1155 0
1412 -1913 0
-2488 -2011 0
-3239 858 0
-2580 2333 0
468 775 0
-1387 1223 0
-2578 -2110 0
-1360 2720 0
769 -1171 0
-1810 170 0
449 190 0
-2470 3087 0
-1510 -2235 0
631 -1174 0
2105 3053 0
2552 -322 0
-676 1942 0
3364 -2653 0
1397 305 0
2321 972 0
-1433 -1920 0
263 85 0
824 150 0
108 1526 0
700 -1352 0
-544 34 0
-1018 812 0
2222 -1096 0
2429 -260 0
2860 -283 0
1994 -2149 0
1509 -1041 0
-1471 -527 0
-2280 -2219 0
-1414 2240 0
1944 -2123 0
839 2172 0
-2102 2833 0
-878 2161 0
541 2580 0
2898 -3357 0
-1975 -392 0
-599 -3266 0
-1003 -618 0
-1753 2696 0
-561 -303 0
-2556 -1943 0
804 999 0
756 375 0
-32 -3068 0
2538 -1519 0
-710 68 0
-2002 -1088 0
-78 -1998 0
2707 -3397 0
3216 1547 0
-1399 3127 0
-1492 -2934 0
743 1032 0
2208 2304 0
1297 -2898 0
2804 -1823 0
1304 -2274 0
1588 666 0
628 -1346 0
-2719 -3398 0
1387 -3357 0
-2067 -1113 0
337 1015 0
-2514 2392 0
-3068 -1119 0
-1279 -3058 0
-2063 2644 0
-1838 1259 0
3211 -3007 0
-2528 749 0
2183 -576 0
2418 3384 0
2810 1329 0
2761 -1408 0
1578 1452 0
-1790 2389 0
-1609 1666 0
-1842 1430 0
1772 2101 0
-1547 2658 0
2569 1154 0
3375 391 0
-3402 -309 0
-120 -1642 0
2371 834 0
-1067 -1159 0
2896 2380 0
-895 1263 0
-840 1786 0
-2572 3365 0
-3065 3263 0
-2677 -3133 0
718 -1993 0
-2026 2136 0
-1593 -499 0
-2431 -1341 0
2957 2550 0
-254 3203 0
1558 -1221 0
-837 -991 0
-18 2725 0
1798 -680 0
3179 2166 0
-2495 -202 0
-1736 671 0
-3019 3041 0
-3193 3094 0
914 2778 0
2037 -3353 0
1165 -2716 0
184 724 0
-2740 -922 0
-410 2836 0
-2396 3298 0
421 1186 0
-1379 1238 0
2317 3021 0
-2143 851 0
1242 278 0
2239 -265 0
2695 -2058 0
3228 -3066 0
1815 -1237 0
-1635 843 0
-1098 2317 0
-2032 -1656 0
-563 -2395 0
3298 -1161 0
944 -1664 0
3173 -138 0
1963 -2962 0
2775 2301 0
-2888 2262 0
-1608 2566 0
-369 979 0
2866 -1439 0
-3 867 0
1971 -2350 0
1519 -2657 0
2319 -1035 0
3390 1152 0
119 293 0
3078 -806 0
-494 2626 0
-181 1283 0
-1011 -776 0
2072 -2281 0
3127 -2665 0
1906 -453 0
-1760 -2589 0
2544 -3309 0
700 3384 0
-1375 2959 0
-3124 -2913 0
1178 1091 0
-1194 1287 0
3245 1802 0
-2991 2630 0
-1008 2814 0
-2385 -98 0
1195 2266 0
1992 -2627 0
-2039 -1190 0
2682 -2673 0
-2767 2213 0
-2035 3292 0
1383 3045 0
1120 -140 0
-894 1746 0
2140 -3267 0
-2057 -1676 0
-2517 -2115 0
2931 -1909 0
-671 -791 0
-2767 1157 0
-2447 -3296 0
-1354 -2703 0
-3268 -3386 0
1886 -1273 0
2095 -1484 0
-2215 2845 0
-948 1054 0
-1331 -3316 0
905 289 0
1906 -2409 0
2753 -570 0
-9 3313 0
1672 80 0
2338 1837 0
-740 1746 0
2833 -1145 0
-3128 -2349 0
1691 -35 0
-166 -2960 0
657 -1525 0
-2613 -218 0
-2696 1080 0
-805 -3264 0
-1213 2482 0
-1880 2761 0
70 2467 0
-1019 1228 0
-166 -1555 0
2223 2674 0
-2009 -220 0
2066 1571 0
-3371 -877 0
-1639 3226 0
-23 2714 0
3255 -1914 0
-1198 -3079 0
-1610 2140 0
2525 -2865 0
-290 -2036 0
-1242 476 0
2939 -3030 0
-814 -3272 0
-673 -2515 0
1788 920 0
-2872 -2004 0
-473 2911 0
174 1355 0
-226 587 0
3331 3030 0
2857 -2772 0
-2283 -2782 0
-2566 -3232 0
-3170 1903 0
584 -367 0
-455 870 0
2436 660 0
2195 151 0
-856 2053 0
2682 757 0
2852 704 0
-2770 -2150 0
-471 2443 0
-2663 -3269 0
-2287 2837 0
1170 -1130 0
2865 1476 0
-2354 486 0
-268 1912 0
-240 2007 0
3185 -1056 0
-943 -133 0
-1162 -246 0
1368 -2093 0
-2699 -229 0
774 1452 0
826 951 0
1521 -3109 0
3230 -1410 0
-746 -3299 0
-8 -2428 0
389 1043 0
-2625 844 0
-3286 -1671 0
2386 -2167 0
1648 1113 0
-2962 1435 0
777 2887 0
1613 2463 0
2471 3393 0
1283 -3065 0
316 -2230 0
-374 2163 0
1937 1208 0
-1200 -2972 0
-1535 -472 0
232 1794 0
2429 3186 0
-985 -3313 0
121 -3345 0
-1693 -2428 0
1239 -2610 0
2792 1031 0
-943 458 0
-2908 -3248 0
-766 -388 0
1493 -401 0
1684 2347 0
882 -1189 0
2343 2015 0
-1468 1250 0
1080 -2855 0
2646 203 0
-935 -519 0
1076 3186 0
-23 434 0
-1246 -2217 0
-1073 -1766 0
-2084 -2324 0
-2681 2443 0
3231 -535 0
-2130 -108 0
4 -845 0
2852 2865 0
151 2634 0
965 -1318 0
145 1844 0
-2296 1888 0
-724 -60 0
-2824 -1661 0
227 591 0
-3135 578 0
-2112 3291 0
890 -299 0
1823 154 0
1682 -2745 0
-641 -470 0
-1070 2590 0
-1923 -15 0
-2110 -2050 0
1465 769 0
833 260 0
-522 1952 0
1307 1731 0
-1049 1847 0
-3397 -2565 0
1410 -2850 0
78 -246 0
-2661 -42 0
-744 -326 0
1149 113 0
1915 -941 0
2874 1303 0
-2749 -1149 0
-3262 924 0
2637 -38 0
83 2202 0
-2082 -341 0
572 -58 0
3252 602 0
-1699 700 0
-5 1260 0
3391 -1328 0
-1000 1496 0
-350 1803 0
-667 -659 0
376 -1711 0
-1281 3062 0
-1387 -703 0
-437 -2395 0
-597 -2585 0
1592 1309 0
391 -621 0
-285 151 0
845 -2618 0
-2937 1244 0
-2522 986 0
-2513 2648 0
551 -3150 0
-811 1624 0
2478 -2557 0
-2677 2265 0
2252 -1742 0
-1074 944 0
-2735 -3148 0
-1332 -2916 0
-2734 2836 0
-2943 2105 0
1332 -1810 0
763 1329 0
3285 1747 0
-3116 -414 0
1220 374 0
-3082 896 0
-2993 -2593 0
414 2746 0
-398 -125 0
-3335 -1980 0
2038 3299 0
-2535 1971 0
-2805 1719 0
-316 2599 0
2335 1804 0
3135 2088 0
-393 1452 0
2777 -361 0
839 2972 0
-3386 -2278 0
1260 -1869 0
1917 34 0
-414 2404 0
3251 -1377 0
1202 2387 0
2015 1544 0
-2738 1750 0
2236 -1935 0
2032 3185 0
-394 3207 0
-1075 1200 0
2012 2145 0
-992 -2562 0
-44 -2125 0
-1130 1809 0
3147 2044 0
-2977 -707 0
-2833 2667 0
-16 1205 0
-2844 67 0
-1801 1685 0
2375 -2062 0
28 57 0
-973 -2268 0
-1735 87 0
-2930 2166 0
-1644 -1950 0
-434 1183 0
-2600 -452 0
1984 356 0
104 31 0
-791 -3331 0
-2065 598 0
1999 -3058 0
2409 1495 0
-3117 -1680 0
-572 -2349 0
873 -1782 0
3192 3044 0
-3160 814 0
-171 -576 0
3293 789 0
1095 3290 0
1773 -683 0
-2200 -142 0
2016 1816 0
1875 -1831 0
-129 1730 0
2150 -663 0
-2154 -1090 0
-3036 -2020 0
-1914 -3091 0
-1553 1126 0
-180 2788 0
-167 -418 0
-2318 1262 0
-82 2109 0
82 -494 0
2321 3044 0
-2312 -848 0
1790 -92 0
1450 -2471 0
-133 -3113 0
-3184 -1046 0
-208 1501 0
3150 -1361 0
-1781 -709 0
-2815 -214 0
2338 -3100 0
2512 2031 0
-328 295 0
1722 1645 0
-652 -3171 0
185 -138 0
-1764 939 0
-3038 1766 0
-3051 -3126 0
-850 -1934 0
759 -812 0
1352 247 0
-1374 -1683 0
3146 -1080 0
-2346 3069 0
555 -84 0
2761 -2676 0
3345 830 0
-1383 3360 0
-1662 2296 0
-522 -2963 0
-2207 -1310 0
2527 -2324 0
-3237 2337 0
-1897 -666 0
2003 -1926 0
368 3005 0
-3365 1404 0
2203 -2402 0
469 3032 0
-137 187 0
1661 2443 0
-3338 -295 0
430 1699 0
-2020 864 0
223 2271 0
-1263 2648 0
3305 -2840 0
1672 454 0
-1612 3216 0
1004 -719 0
127 -1673 0
2869 -2033 0
-2443 -62 0
-2152 -3126 0
1218 -1140 0
2302 1833 0
-704 1532 0
3153 -876 0
2255 -1124 0
-878 60 0
681 1677 0
-1227 -650 0
2954 926 0
2321 777 0
2673 -2211 0
-2017 1773 0
2114 2660 0
1418 -1716 0
2038 1727 0
2849 -3212 0
1176 -1453 0
150 -2885 0
2730 2281 0
3333 253 0
-1059 -1060 0
-214 -2123 0
1548 -3028 0
-409 513 0
1068 -2380 0
2449 581 0
2375 3342 0
543 -262 0
-331 -3305 0
-1982 -2872 0
2324 -1783 0
-980 291 0
-2415 699 0
2368 3056 0
976 -27 0
1395 2846 0
3341 -791 0
477 -1427 0
1965 -3271 0
-22 -3243 0
-3140 1768 0
-831 -401 0
564 -946 0
-2871 -1905 0
1300 -2229 0
-3245 2886 0
-3133 2185 0
2809 -1869 0
-1398 -2036 0
-2418 3000 0
-2427 -792 0
1443 901 0
1773 1114 0
-2750 -3128 0
1835 1203 0
1755 1214 0
-1550 3095 0
-1935 2879 0
335 923 0
466 3155 0
2926 3102 0
-1614 -49 0
-1305 -1717 0
2170 608 0
510 1543 0
1618 -398 0
-1595 525 0
-2800 3356 0
3129 229 0
2588 2074 0
2952 18 0
1850 2940 0
49 2812 0
3102 -914 0
842 496 0
-3120 -1591 0
165 1344 0
-334 3403 0
-382 1229 0
3037 2757 0
-2015 -2547 0
1054 963 0
775 -3201 0
1458 -2364 0
-828 669 0
463 -1645 0
-2059 335 0
-521 -37 0
-1921 -588 0
542 3211 0
3162 -2013 0
2182 2633 0
-379 1077 0
453 -740 0
1632 -3203 0
-1905 1702 0
3226 2596 0
-2084 1058 0
-409 -863 0
1258 -2693 0
2103 -1206 0
2650 -1742 0
-1158 2188 0
2243 -425 0
131 -121 0
2644 -3152 0
1908 2849 0
-3334 65 0
-731 421 0
2524 2031 0
-1060 -3148 0
-385 997 0
-3287 1735 0
1793 -672 0
-584 -966 0
-570 964 0
-2606 2601 0
-328 -2501 0
971 3236 0
-2659 -3103 0
701 1182 0
3131 -194 0
-940 2778 0
-3195 1456 0
2210 -2555 0
3207 -2939 0
1243 2200 0
-1739 3313 0
-2897 2604 0
1655 -2997 0
924 -3345 0
-502 1579 0
2418 -1784 0
-647 1588 0
2609 1404 0
2229 -1312 0
388 -1701 0
-1365 299 0
426 -602 0
-1385 -661 0
2127 1251 0
-2638 1773 0
1672 -3006 0
-3007 -320 0
-2541 304 0
2908 2317 0
1404 1223 0
3312 -754 0
-1305 -1808 0
370 -2764 0
-973 203 0
596 1568 0
615 -2048 0
3043 2571 0
2298 -973 0
265 3182 0
-493 -629 0
3010 -2203 0
-120 2267 0
1508 -543 0
-1552 -1919 0
2775 -2075 0
-433 1294 0
-2302 310 0
-972 -2717 0
-3043 1165 0
2874 2716 0
2708 1736 0
-1457 2508 0
-1491 -3106 0
1392 2629 0
-309 -2195 0
-2007 -1342 0
-1646 1532 0
2202 -309 0
-1750 -1537 0
-3242 -1155 0
1081 2426 0
-2916 1636 0
825 -1234 0
-1936 1250 0
55 2590 0
-2244 2233 0
-1106 1078 0
-2752 -2086 0
3340 2753 0
-1730 -1709 0
-167 3039 0
3158 -2656 0
-1914 -672 0
1452 324 0
-2514 2388 0
-1440 -384 0
-3281 1500 0
-409 -2560 0
820 -3138 0
3274 -2691 0
2318 1727 0
1803 3055 0
-1192 882 0
-2156 -968 0
3141 154 0
-2580 -3232 0
1041 2118 0
3326 584 0
804 1731 0
2564 1481 0
2826 3251 0
-2206 -58 0
101 -3373 0
-2279 2213 0
-2127 -1273 0
2162 -2946 0
1676 2174 0
-913 1803 0
-330 1757 0
1415 2392 0
-1138 -575 0
-1719 3255 0
-952 -2497 0
-2785 -219 0
-1121 463 0
2525 3362 0
543 -129 0
792 1371 0
1598 -2673 0
-1382 1286 0
-1818 768 0
-1638 -614 0
370 3003 0
-1439 1537 0
1218 -2287 0
1481 -2546 0
-791 1123 0
2849 344 0
156 -665 0
-3122 1528 0
-1956 2222 0
1817 2103 0
-2943 -1199 0
1492 1311 0
1266 3379 0
-774 1355 0
1652 1703 0
-162 -3075 0
-2212 -731 0
-1958 -1980 0
-1268 -1561 0
-1135 2346 0
2027 -272 0
172 -531 0
976 -1905 0
-476 -1393 0
803 -1484 0
585 -1126 0
3126 -1500 0
2476 186 0
745 798 0
-420 156 0
-154 2404 0
1624 -2401 0
2474 -1701 0
2768 3067 0
-941 796 0
3066 -1363 0
3313 -830 0
1769 3146 0
-2178 2994 0
2357 -3108 0
-2092 -520 0
-1458 1805 0
2436 -303 0
-1712 1012 0
1940 373 0
418 -3024 0
-1527 3125 0
382 -886 0
-741 2443 0
-2803 -1863 0
2135 -979 0
-2309 -1710 0
-2246 -1694 0
1697 3292 0
1972 -3382 0
-2490 2679 0
-2323 3367 0
592 887 0
-1928 810 0
1865 -1208 0
-3254 424 0
2652 -1819 0
-1001 537 0
456 1268 0
108 -1701 0
-130 2462 0
-1059 -2916 0
-2377 2662 0
-962 1702 0
-1645 518 0
253 -1491 0
833 1788 0
-2978 1300 0
-2197 3383 0
411 1202 0
2656 -2926 0
870 -99 0
-2273 1809 0
-2756 2046 0
-109 -430 0
-1303 -3258 0
-1209 358 0
-318 310 0
2877 2466 0
-1156 56 0
-2897 218 0
-2897 -2453 0
-2127 2179 0
-2134 2687 0
3274 -1611 0
-2975 2837 0
3252 2921 0
-1468 1241 0
-372 -1215 0
-1607 -3085 0
2212 2451 0
3355 1679 0
-2897 -3311 0
100 640 0
-968 2689 0
-1542 -1318 0
-1362 -1495 0
-1259 -3237 0
1396 -2294 0
-1736 1607 0
-1991 3134 0
830 -3313 0
540 -3049 0
501 -709 0
-2887 -80 0
-1492 -1163 0
-455 -1199 0
-2165 -1607 0
2132 -734 0
-2207 2679 0
257 -594 0
77 -367 0
2795 49 0
-2365 -3179 0
-2237 6 0
-1221 2541 0
-1746 -873 0
279 -1943 0
-3050 -2042 0
2394 2644 0
2633 -3001 0
3317 3023 0
-2008 -7 0
221 1556 0
-2615 2400 0
2771 -1091 0
-1877 631 0
-58 2919 0
-191 1540 0
-1492 3304 0
1364 -2685 0
-298 2339 0
-3330 -214 0
221 -2949 0
1679 -443 0
398 2868 0
-1589 3371 0
1221 -1796 0
1070 -2562 0
2308 113 0
-613 -2653 0
1163 52 0
1677 -1264 0
1314 -309 0
3176 -2212 0
1084 -1232 0
966 1456 0
-969 -290 0
2024 173 0
-2841 879 0
-1533 -689 0
2736 3156 0
1392 -1421 0
-970 1722 0
1978 -922 0
816 73 0
-603 634 0
600 1775 0
1785 -877 0
2681 -3289 0
2335 -678 0
2857 -2070 0
-693 -3009 0
71 1229 0
-1089 578 0
2732 3390 0
-2242 -1607 0
1749 -1625 0
-731 -1576 0
-1927 -2335 0
-1848 -3325 0
3062 1053 0
1274 459 0
2825 -3078 0
1537 1648 0
476 -1305 0
-2547 1515 0
610 1626 0
996 1056 0
200 -2826 0
-1904 1575 0
-3323 1916 0
-1612 -647 0
