c bounds 100 132
p cnf 775 1705
-50 -653 0
-569 -40 0
119 465 0
-347 -199 0
606 280 0
-192 -533 0
-580 427 0
356 100 0
715 573 0
-227 766 0
30 -220 0
-158 -138 0
-504 767 0
-66 56 0
568 -526 0
382 -539 0
1 266 0
266 -38 0
537 628 0
666 637 0
-363 596 0
-242 -507 0
269 -631 0
-335 -569 0
391 -482 0
229 242 0
-549 662 0
-70 695 0
148 -416 0
-714 549 0
-54 433 0
740 -606 0
-397 9 0
392 228 0
-160 269 0
-293 -115 0
-408 186 0
184 15 0
-350 88 0
-541 -195 0
-662 186 0
465 -571 0
756 -174 0
346 198 0
-566 -241 0
-84 74 0
542 160 0
138 48 0
311 -263 0
519 458 0
-674 -237 0
-363 -765 0
-154 152 0
743 219 0
-308 50 0
390 563 0
394 -322 0
739 -714 0
729 727 0
742 -168 0
492 596 0
-517 -528 0
611 9 0
-664 -94 0
700 482 0
-567 -353 0
687 -516 0
-175 538 0
276 386 0
-561 181 0
345 628 0
718 394 0
525 -574 0
599 -574 0
458 1 0
514 491 0
728 44 0
285 -554 0
-52 693 0
-409 433 0
-554 -613 0
135 -453 0
-517 634 0
-182 496 0
301 534 0
718 289 0
-258 511 0
522 -494 0
-323 -194 0
-494 261 0
-483 69 0
-637 375 0
713 -387 0
286 393 0
665 -263 0
727 -710 0
367 107 0
-504 -196 0
-645 -631 0
-277 334 0
-616 -113 0
-260 -634 0
-41 -272 0
247 -607 0
607 202 0
478 -320 0
-559 -102 0
740 771 0
-69 732 0
691 -166 0
648 565 0
51 602 0
-300 -272 0
389 -88 0
160 -316 0
36 352 0
-106 9 0
-294 -37 0
-359 -539 0
473 469 0
-17 -695 0
-396 658 0
-684 -138 0
-550 415 0
-524 95 0
-742 183 0
-159 732 0
41 442 0
146 465 0
-37 190 0
340 646 0
-147 440 0
384 299 0
-508 353 0
37 284 0
-769 -507 0
-527 -762 0
383 -539 0
140 -299 0
-625 493 0
-283 475 0
-647 384 0
171 -715 0
-566 -652 0
-517 483 0
-744 320 0
-111 119 0
491 431 0
-723 646 0
-507 -736 0
-278 -686 0
-377 -340 0
-578 -112 0
-240 375 0
603 748 0
-31 314 0
53 727 0
-552 -519 0
-108 87 0
64 -552 0
-102 747 0
105 161 0
306 513 0
57 -72 0
-149 -722 0
193 -718 0
-701 455 0
-496 -209 0
748 704 0
193 -559 0
261 -56 0
533 111 0
-68 -396 0
566 -610 0
-159 2 0
-621 415 0
312 64 0
328 55 0
6 -666 0
757 -602 0
-20 -333 0
-195 379 0
431 -601 0
-11 -278 0
516 133 0
-374 -131 0
-333 -17 0
-571 -590 0
-139 724 0
645 312 0
-410 105 0
505 140 0
-541 -771 0
-571 -249 0
713 -400 0
246 -613 0
406 250 0
323 -570 0
357 -303 0
77 -147 0
33 338 0
118 108 0
289 556 0
-348 -396 0
-188 763 0
-523 82 0
-573 38 0
471 -403 0
216 -180 0
-275 188 0
-228 -492 0
104 -771 0
386 -302 0
312 391 0
-225 579 0
-676 -489 0
9 573 0
262 -217 0
368 17 0
-243 -257 0
-610 415 0
529 316 0
405 150 0
675 -323 0
478 -665 0
775 -221 0
-151 234 0
-236 -738 0
406 311 0
-555 757 0
442 465 0
-226 -728 0
682 -73 0
-678 -385 0
166 -79 0
-768 -643 0
622 146 0
-580 674 0
-158 -716 0
207 702 0
-421 -41 0
-205 -709 0
573 -589 0
244 -35 0
213 -622 0
-407 358 0
-547 707 0
383 -520 0
552 -342 0
-750 186 0
-566 -494 0
496 392 0
468 596 0
448 -240 0
-138 -416 0
423 -317 0
52 -553 0
427 530 0
711 -149 0
-39 666 0
193 -483 0
744 -274 0
419 373 0
-158 -353 0
423 375 0
-108 767 0
-365 -518 0
-335 587 0
197 638 0
-129 478 0
-572 -629 0
704 599 0
-567 -236 0
722 -163 0
-185 389 0
516 -66 0
-399 471 0
-166 -59 0
-226 -529 0
408 -647 0
337 -527 0
-46 54 0
214 509 0
282 69 0
-312 -127 0
703 573 0
612 250 0
-273 -187 0
388 673 0
343 -425 0
179 -196 0
-615 731 0
475 -322 0
68 351 0
257 559 0
-497 -599 0
379 416 0
-416 -749 0
640 552 0
-54 56 0
543 -483 0
-730 454 0
327 -579 0
-536 98 0
354 752 0
578 -122 0
562 264 0
-473 -44 0
-149 578 0
229 -60 0
-85 714 0
-280 204 0
4 -449 0
-299 -169 0
-28 214 0
-85 550 0
-414 677 0
396 448 0
10 377 0
402 -403 0
-454 45 0
-59 335 0
-196 618 0
146 655 0
-286 141 0
459 291 0
-554 768 0
-530 -192 0
-457 -663 0
-87 126 0
-363 -572 0
-532 -598 0
-274 376 0
-279 64 0
-408 319 0
731 332 0
-281 458 0
-128 -616 0
-24 126 0
316 -210 0
764 -265 0
-559 761 0
-749 -131 0
-522 -129 0
171 -201 0
-176 200 0
-627 411 0
-123 110 0
-624 420 0
-430 255 0
-29 109 0
-93 -494 0
44 -15 0
-345 -270 0
257 772 0
691 152 0
399 -324 0
173 -206 0
-684 265 0
271 204 0
664 543 0
739 -28 0
92 12 0
659 724 0
-741 367 0
414 -542 0
653 -709 0
-108 -566 0
285 -761 0
588 -353 0
374 550 0
-408 358 0
585 71 0
-444 278 0
121 -662 0
-70 -758 0
-304 -570 0
490 -102 0
-456 451 0
689 -696 0
-43 -292 0
455 496 0
-734 -532 0
318 -517 0
-153 474 0
-8 314 0
393 -562 0
-294 175 0
-621 -163 0
-68 101 0
-307 -707 0
-559 -54 0
-80 -613 0
-75 -138 0
425 611 0
477 -625 0
145 178 0
-397 -426 0
-572 -133 0
312 -705 0
133 -54 0
193 -370 0
-236 728 0
-523 -213 0
496 598 0
-746 314 0
295 -773 0
-121 -166 0
58 124 0
766 -344 0
-432 -395 0
24 -726 0
-540 705 0
-477 -63 0
24 -614 0
-494 -224 0
55 162 0
-745 626 0
-584 581 0
257 -111 0
-424 -743 0
-168 257 0
278 -498 0
513 -227 0
-49 -196 0
637 -737 0
105 444 0
267 -84 0
-45 -569 0
-625 338 0
173 -405 0
677 -474 0
-774 415 0
472 744 0
512 -96 0
-336 241 0
332 -584 0
228 367 0
-185 -430 0
-460 317 0
531 588 0
171 383 0
358 -323 0
-133 -519 0
-639 -634 0
-176 544 0
68 71 0
678 372 0
-465 417 0
-521 -286 0
-244 238 0
-170 -176 0
-289 -621 0
-106 191 0
-92 -66 0
349 418 0
183 450 0
-453 325 0
427 660 0
320 190 0
-258 761 0
433 -163 0
128 372 0
312 -432 0
-722 6 0
-114 27 0
-256 313 0
-695 720 0
179 81 0
-173 -715 0
-315 71 0
606 741 0
-265 -707 0
567 415 0
702 411 0
171 -352 0
-553 684 0
-393 343 0
-300 425 0
694 232 0
-685 724 0
587 390 0
-714 598 0
186 -131 0
-473 98 0
-223 -238 0
-500 420 0
-243 -74 0
-711 509 0
-217 -487 0
560 -230 0
-260 -519 0
-741 346 0
-440 736 0
-281 -508 0
679 -443 0
400 -368 0
34 6 0
-647 -370 0
578 -695 0
-426 557 0
-635 -207 0
-588 -121 0
567 406 0
699 203 0
464 -609 0
-334 101 0
-143 -595 0
-747 398 0
8 283 0
202 480 0
-683 653 0
518 408 0
-546 629 0
12 -66 0
-571 -113 0
388 -279 0
269 -540 0
-201 223 0
583 -655 0
-404 434 0
-756 641 0
775 367 0
283 -477 0
-56 33 0
423 -427 0
-584 -39 0
-299 -500 0
-629 -337 0
-139 428 0
-547 -205 0
-704 -570 0
-599 -582 0
367 538 0
175 -734 0
669 286 0
-462 -522 0
-720 181 0
-425 -537 0
-491 34 0
-339 187 0
-294 -233 0
-85 433 0
-365 -265 0
272 356 0
551 257 0
379 -605 0
655 -79 0
-762 560 0
225 -654 0
-205 403 0
340 466 0
-64 -532 0
-774 -703 0
689 -114 0
-422 386 0
-192 417 0
65 -600 0
147 295 0
253 110 0
466 -662 0
233 -116 0
660 517 0
635 -174 0
-641 768 0
676 637 0
687 59 0
-424 567 0
-342 -773 0
-105 153 0
124 21 0
-141 204 0
152 361 0
-263 -194 0
526 564 0
-422 -54 0
-461 -147 0
-270 -477 0
-407 -275 0
3 578 0
-227 731 0
-365 -224 0
-174 689 0
733 -762 0
-284 -161 0
55 -44 0
506 250 0
-485 302 0
745 -91 0
-600 -177 0
-762 -664 0
28 -668 0
-76 -536 0
-206 -388 0
-223 340 0
14 46 0
91 -310 0
738 -704 0
-279 461 0
496 -487 0
715 129 0
398 -591 0
-243 166 0
-590 -451 0
111 542 0
212 -415 0
-574 495 0
-640 134 0
740 434 0
-755 -681 0
152 -4 0
-710 -427 0
232 3 0
-701 107 0
-436 175 0
-40 -79 0
-134 -201 0
516 676 0
-494 -402 0
60 161 0
371 471 0
-65 487 0
88 469 0
-760 592 0
-691 -464 0
603 33 0
-179 150 0
-211 771 0
152 304 0
-716 677 0
364 386 0
-730 -26 0
647 -139 0
-537 531 0
-631 -549 0
-308 83 0
-535 465 0
331 -99 0
-653 585 0
737 -347 0
553 420 0
-98 491 0
-552 295 0
-639 -205 0
339 -242 0
-687 -200 0
-205 599 0
-387 22 0
141 232 0
573 -543 0
732 -20 0
326 -181 0
371 -756 0
-478 -15 0
331 615 0
-97 152 0
268 120 0
482 -113 0
-569 -323 0
-616 299 0
-586 -755 0
252 36 0
-385 358 0
-294 -344 0
-114 -263 0
289 1 0
145 723 0
78 -558 0
-772 259 0
456 -549 0
-190 186 0
-347 -481 0
-757 -245 0
105 107 0
-291 -297 0
214 31 0
697 433 0
-256 321 0
102 474 0
596 -659 0
-760 693 0
135 770 0
-487 711 0
-187 34 0
-236 673 0
-629 -245 0
212 209 0
414 -182 0
-492 -120 0
271 -668 0
-142 624 0
209 -130 0
383 -198 0
215 132 0
446 -178 0
248 -332 0
-245 -241 0
-767 307 0
295 -507 0
332 4 0
159 -98 0
166 -279 0
387 604 0
162 301 0
350 107 0
-50 122 0
49 -497 0
669 -471 0
3 559 0
-192 -525 0
319 101 0
198 530 0
558 726 0
717 156 0
-743 233 0
-64 -296 0
-470 -596 0
-682 -499 0
182 282 0
495 -449 0
598 644 0
18 -16 0
642 -501 0
308 -540 0
309 -63 0
-656 -324 0
177 543 0
7 101 0
-741 -552 0
-705 -710 0
-43 385 0
656 -318 0
512 365 0
-290 -707 0
-279 -733 0
-595 575 0
52 45 0
-615 -170 0
123 603 0
182 128 0
-387 606 0
-405 -334 0
-610 -739 0
-697 -616 0
543 -653 0
-173 -243 0
427 -350 0
-760 502 0
652 -134 0
515 758 0
-658 -710 0
-697 697 0
257 226 0
268 -263 0
588 235 0
-462 -195 0
122 484 0
458 303 0
528 234 0
-289 -19 0
-687 422 0
-148 154 0
148 543 0
-507 -302 0
354 159 0
14 321 0
-76 -489 0
619 641 0
2 -43 0
48 -222 0
309 427 0
455 407 0
-674 -652 0
-206 296 0
298 -85 0
-229 414 0
-337 693 0
-72 626 0
-696 696 0
-139 605 0
-127 747 0
-330 569 0
-601 -61 0
-33 382 0
-105 134 0
-755 -38 0
551 596 0
-293 608 0
316 42 0
493 724 0
703 349 0
122 -542 0
339 534 0
-607 -57 0
-720 154 0
133 162 0
691 -773 0
648 274 0
-123 266 0
-505 -29 0
-77 579 0
-253 581 0
-4 441 0
-595 -598 0
-481 160 0
-599 -730 0
-22 -265 0
-405 -741 0
-121 -561 0
31 135 0
585 -314 0
132 472 0
-601 -92 0
278 652 0
-600 -316 0
115 -755 0
-94 32 0
305 -273 0
-541 -156 0
-236 -18 0
748 -771 0
-758 -108 0
-267 6 0
632 -684 0
-552 -330 0
-586 561 0
-7 -154 0
2 731 0
110 489 0
291 -83 0
624 -2 0
-684 718 0
-520 -645 0
-208 -503 0
166 711 0
-47 -627 0
-443 364 0
-456 -574 0
-109 -246 0
-169 402 0
-681 -757 0
150 349 0
-213 271 0
460 16 0
506 136 0
-609 -405 0
626 507 0
167 -69 0
-315 -68 0
499 103 0
45 -96 0
160 221 0
669 -446 0
-692 -774 0
-672 652 0
8 194 0
-564 145 0
-546 -20 0
-120 82 0
-494 -357 0
213 666 0
-255 -384 0
591 184 0
209 564 0
446 -224 0
350 -21 0
-740 -259 0
637 -205 0
417 262 0
246 650 0
-181 -497 0
159 -621 0
720 -696 0
538 410 0
669 -378 0
-592 589 0
491 -67 0
-464 439 0
311 105 0
-396 -153 0
598 -720 0
-190 -424 0
-39 191 0
-760 555 0
105 269 0
354 -760 0
-156 367 0
-151 739 0
-106 418 0
506 -571 0
-605 -286 0
-194 546 0
309 -464 0
728 -556 0
560 292 0
585 -455 0
-743 478 0
-214 219 0
-462 -371 0
-254 -686 0
-674 -485 0
408 -35 0
729 340 0
491 -366 0
585 -618 0
269 -200 0
10 -86 0
331 -243 0
-545 218 0
-59 -91 0
364 -274 0
-311 542 0
-528 585 0
585 -116 0
-239 86 0
-39 742 0
563 767 0
-336 -716 0
732 683 0
-528 -716 0
-581 -365 0
-714 -643 0
-342 -264 0
-553 -579 0
-617 -675 0
157 -249 0
-353 -769 0
184 505 0
378 164 0
529 556 0
-165 501 0
586 25 0
-615 -567 0
545 -700 0
124 734 0
-597 220 0
-574 -644 0
-401 -680 0
623 -760 0
-214 146 0
-347 -263 0
-756 -279 0
33 -740 0
691 -744 0
-588 647 0
-259 -323 0
-304 602 0
687 118 0
-668 663 0
178 -681 0
-195 -574 0
744 -704 0
172 609 0
-544 -745 0
414 -687 0
-409 563 0
53 -593 0
711 19 0
-133 270 0
42 273 0
-113 412 0
441 659 0
-160 -488 0
717 591 0
-695 -5 0
-613 317 0
499 -639 0
301 73 0
-130 -228 0
289 64 0
-165 -200 0
534 437 0
-299 -162 0
572 -32 0
-552 -710 0
-62 11 0
-533 691 0
-576 -397 0
265 340 0
269 587 0
225 -522 0
773 514 0
-549 121 0
-567 -99 0
128 34 0
732 -485 0
516 738 0
247 -757 0
-489 -640 0
414 638 0
-112 338 0
-314 -17 0
345 -249 0
2 612 0
-209 -688 0
-256 -154 0
2 -288 0
220 -401 0
469 367 0
-86 697 0
109 618 0
36 293 0
-323 -591 0
-323 -683 0
-236 479 0
351 -218 0
182 367 0
506 -774 0
478 -521 0
72 468 0
723 -629 0
-168 -701 0
525 -106 0
-19 -386 0
-567 490 0
-532 -445 0
-576 -456 0
-254 -75 0
-442 619 0
-657 717 0
676 -303 0
-439 -494 0
-315 -35 0
-757 -61 0
-298 -746 0
-636 -47 0
306 -489 0
766 -222 0
732 -70 0
-120 -204 0
-254 -774 0
435 -222 0
-164 -592 0
651 -254 0
-413 -333 0
250 533 0
-108 -288 0
107 -500 0
407 268 0
-336 -584 0
6 313 0
272 27 0
147 -201 0
-91 345 0
632 31 0
697 -138 0
58 407 0
10 489 0
-83 -144 0
137 1 0
125 -365 0
-46 -119 0
-97 509 0
-289 45 0
-754 -643 0
-563 -194 0
-227 70 0
-520 -337 0
231 -241 0
-489 -616 0
-243 -601 0
256 146 0
-437 97 0
-643 -434 0
-25 117 0
-68 -369 0
611 421 0
-554 -520 0
711 -525 0
-303 514 0
-72 -138 0
478 471 0
-103 -594 0
446 312 0
726 -425 0
333 691 0
-110 -286 0
368 -86 0
45 -207 0
-506 -437 0
-244 -138 0
-82 -741 0
100 763 0
-395 -367 0
570 -569 0
-554 279 0
733 -277 0
307 106 0
250 -578 0
193 -723 0
315 -698 0
-77 373 0
36 100 0
9 -68 0
-245 246 0
-518 -286 0
325 -537 0
500 175 0
-14 -253 0
-712 -201 0
191 95 0
-580 -754 0
-116 -756 0
518 -480 0
-410 601 0
-258 -200 0
-646 -485 0
467 287 0
-278 350 0
691 657 0
55 -254 0
-679 603 0
667 27 0
-600 -621 0
179 -472 0
184 -130 0
-89 -495 0
-459 744 0
-247 122 0
-114 -412 0
373 -589 0
-523 33 0
376 -234 0
68 368 0
-639 -86 0
-199 768 0
-93 -707 0
772 257 0
332 -197 0
332 -63 0
-762 -325 0
361 556 0
312 546 0
-403 -237 0
94 181 0
109 -247 0
745 634 0
-568 -504 0
179 -595 0
-362 -265 0
-769 551 0
-507 -212 0
-704 -241 0
-394 -463 0
262 715 0
117 -452 0
126 -641 0
36 -8 0
383 579 0
-548 686 0
693 484 0
543 -153 0
111 -717 0
708 -570 0
-315 282 0
-641 -704 0
691 162 0
351 714 0
-64 -274 0
-87 -99 0
-591 -614 0
-229 -15 0
190 -265 0
230 -334 0
528 -593 0
-752 -91 0
-703 305 0
-78 -106 0
405 -274 0
718 284 0
-462 233 0
539 -283 0
156 -147 0
-206 -359 0
-189 -572 0
-559 -752 0
119 234 0
458 721 0
61 301 0
-237 24 0
-608 375 0
36 -535 0
-403 317 0
563 -68 0
463 358 0
-218 -670 0
-158 -593 0
-164 -72 0
-225 -287 0
233 632 0
-290 571 0
699 438 0
146 338 0
-559 -223 0
-594 80 0
97 -225 0
577 709 0
361 -21 0
2 463 0
-91 442 0
-112 -10 0
551 -206 0
-93 -427 0
-643 55 0
501 -646 0
45 80 0
-159 255 0
-750 -66 0
426 -182 0
634 366 0
-652 634 0
193 40 0
-488 109 0
690 452 0
372 -171 0
-361 -374 0
-359 88 0
-148 718 0
611 -534 0
28 600 0
519 -133 0
-337 21 0
-271 -532 0
626 758 0
204 30 0
444 262 0
491 -418 0
469 52 0
234 454 0
116 55 0
194 -532 0
671 -487 0
-21 -476 0
-723 -445 0
-649 5 0
-289 109 0
30 551 0
-762 451 0
742 57 0
279 588 0
-158 -20 0
-228 -311 0
-601 -180 0
-748 48 0
-298 -259 0
-39 644 0
390 -708 0
556 337 0
474 770 0
-393 -234 0
-771 -315 0
-676 -449 0
775 -457 0
721 363 0
362 300 0
472 -296 0
9 770 0
708 -443 0
-697 -208 0
-621 -619 0
-255 580 0
469 -734 0
13 466 0
510 13 0
-721 557 0
88 -607 0
152 -439 0
-618 534 0
11 -534 0
-487 486 0
57 -710 0
-714 40 0
568 -443 0
568 180 0
-541 316 0
-68 -251 0
543 -534 0
170 -112 0
247 188 0
491 177 0
531 -170 0
126 521 0
-404 331 0
381 293 0
321 -775 0
346 -182 0
229 123 0
-234 -313 0
367 -552 0
545 -213 0
-483 -534 0
476 129 0
131 -535 0
-308 -638 0
-755 -525 0
-554 111 0
-112 613 0
-286 59 0
428 -237 0
-185 -59 0
362 169 0
-237 709 0
-411 197 0
679 565 0
-727 -388 0
-581 -424 0
-553 451 0
-10 -336 0
-656 656 0
-313 -680 0
-340 -525 0
-698 319 0
499 -641 0
395 -234 0
-242 393 0
34 -392 0
-58 -113 0
-682 296 0
-193 588 0
312 385 0
153 -220 0
-722 -270 0
-337 669 0
-512 -572 0
-44 -168 0
-201 363 0
-151 -605 0
51 76 0
694 264 0
404 259 0
-430 -714 0
156 429 0
285 432 0
338 -434 0
448 346 0
276 87 0
-170 -707 0
427 -339 0
-463 202 0
-701 -299 0
719 526 0
-159 -330 0
362 -492 0
691 -526 0
493 734 0
-769 440 0
36 745 0
50 -698 0
231 474 0
-324 -436 0
188 -695 0
-65 85 0
338 677 0
-283 -743 0
659 647 0
644 452 0
-571 -80 0
526 529 0
-292 103 0
572 -246 0
-79 183 0
-450 -242 0
-709 -664 0
-444 493 0
-688 -670 0
-480 191 0
35 215 0
-370 370 0
-674 725 0
-733 -562 0
675 -80 0
-286 -771 0
761 539 0
-730 -759 0
53 383 0
-426 362 0
513 -213 0
646 -457 0
58 581 0
110 75 0
-260 -1 0
240 602 0
267 -200 0
-79 -584 0
-620 -408 0
-234 -428 0
-203 -314 0
-489 758 0
-503 233 0
378 124 0
-25 372 0
-552 147 0
26 -772 0
-466 -755 0
-485 -638 0
38 -536 0
-397 274 0
-374 759 0
731 -201 0
-551 -72 0
-377 309 0
-483 -42 0
381 -516 0
-462 671 0
-280 385 0
-619 633 0
147 731 0
252 -543 0
-695 392 0
-169 428 0
-49 -588 0
471 526 0
90 558 0
-485 640 0
-437 -424 0
-253 -292 0
319 281 0
225 -707 0
214 -602 0
-404 694 0
418 -519 0
196 -142 0
-112 -370 0
-515 110 0
-7 506 0
-224 2 0
-241 -89 0
-715 -657 0
-655 -729 0
-5 22 0
466 743 0
26 -176 0
-339 -730 0
103 457 0
-565 -294 0
-566 326 0
-443 -15 0
24 649 0
-177 -28 0
642 -463 0
-399 499 0
-199 -582 0
737 373 0
-611 -769 0
448 651 0
-12 -572 0
-66 441 0
-293 -321 0
-324 -27 0
131 752 0
-607 244 0
-353 -15 0
-712 495 0
366 472 0
499 -186 0
-110 10 0
-114 -738 0
220 667 0
407 -108 0
578 -747 0
358 268 0
-374 381 0
499 -592 0
-270 494 0
-173 70 0
-674 45 0
-49 -743 0
-373 482 0
-326 -136 0
-225 332 0
467 -208 0
-755 210 0
-47 -394 0
660 -689 0
699 -106 0
445 324 0
-490 291 0
564 175 0
-743 -336 0
8 550 0
533 723 0
-273 -555 0
-588 -54 0
-629 384 0
67 -279 0
458 -324 0
207 55 0
-532 586 0
-40 -45 0
219 -72 0
-20 99 0
345 -527 0
452 -226 0
-56 -17 0
-621 533 0
-559 -259 0
-21 -527 0
603 145 0
86 455 0
-527 213 0
-264 -243 0
-600 128 0
-508 770 0
392 -251 0
479 8 0
-480 409 0
-304 531 0
-527 -264 0
501 -147 0
352 -233 0
-655 -228 0
-163 -569 0
575 -424 0
-205 -494 0
526 24 0
-499 -281 0
-278 -573 0
-742 -690 0
765 -168 0
-305 105 0
561 732 0
574 -59 0
758 202 0
731 -409 0
214 309 0
-546 -212 0
-292 -510 0
534 38 0
166 -120 0
-622 276 0
694 -84 0
89 399 0
434 622 0
205 311 0
-682 521 0
-683 478 0
84 739 0
689 -536 0
561 -274 0
486 -171 0
735 -68 0
721 -9 0
-580 380 0
739 133 0
-431 298 0
250 -489 0
221 -688 0
327 -548 0
492 578 0
-447 569 0
-698 22 0
626 -524 0
53 505 0
-286 144 0
603 -628 0
-19 -92 0
503 652 0
-745 -84 0
-95 -723 0
451 199 0
418 654 0
-32 702 0
160 443 0
-151 485 0
-188 -251 0
646 204 0
-323 -568 0
-666 -192 0
-203 -495 0
-566 375 0
527 -52 0
-654 123 0
-678 138 0
-547 107 0
383 -38 0
-74 191 0
97 651 0
499 -582 0
76 -185 0
-459 513 0
-562 561 0
281 154 0
-401 190 0
-72 425 0
-330 -325 0
-616 475 0
-75 143 0
563 650 0
240 431 0
651 -607 0
-610 47 0
-728 204 0
-400 533 0
-656 -644 0
384 227 0
-498 694 0
606 -742 0
-241 -731 0
288 -564 0
-396 134 0
-68 454 0
752 79 0
-643 -213 0
735 147 0
770 -439 0
697 442 0
732 202 0
-612 202 0
350 -233 0
-290 110 0
342 -401 0
-184 -371 0
-444 149 0
-661 654 0
510 -494 0
-683 39 0
-520 524 0
-126 -155 0
717 522 0
266 -385 0
-139 2 0
432 -205 0
-504 248 0
-136 110 0
-434 -80 0
-555 -163 0
-497 533 0
-58 683 0
322 -47 0
-164 69 0
-46 -618 0
-261 -480 0
351 721 0
25 476 0
205 -76 0
115 -155 0
758 537 0
-98 -461 0
450 -374 0
542 533 0
-337 96 0
717 -629 0
-305 -337 0
624 501 0
-323 679 0
8 551 0
561 349 0
736 640 0
9 125 0
734 162 0
549 -522 0
459 -416 0
-134 -79 0
494 162 0
433 -768 0
-400 -342 0
-73 -772 0
341 212 0
-290 305 0
-46 74 0
-213 -655 0
577 117 0
-72 -382 0
309 -426 0
209 -559 0
310 -552 0
400 526 0
647 -772 0
-579 167 0
-518 203 0
407 -655 0
320 -155 0
-23 224 0
-523 -712 0
-483 623 0
-201 458 0
-177 -14 0
-395 77 0
481 509 0
-174 535 0
609 474 0
-488 -723 0
135 -101 0
-309 -15 0
26 -476 0
-136 -693 0
-180 443 0
766 579 0
-688 -444 0
507 -131 0
265 -428 0
-182 -309 0
-151 -517 0
64 -165 0
458 -629 0
762 -629 0
-730 -194 0
440 459 0
-403 -237 0
57 707 0
466 -26 0
-702 -260 0
-108 129 0
-616 367 0
-177 495 0
