c bounds 80 80
p cnf 415 788
-114 -196 0
-102 386 0
67 -122 0
-258 -388 0
117 -20 0
-396 70 0
-204 334 0
-309 -335 0
151 79 0
-41 -161 0
-388 -127 0
19 224 0
-42 -225 0
-325 198 0
122 116 0
172 -132 0
-342 -310 0
-377 135 0
-405 -354 0
356 -219 0
216 303 0
-400 -274 0
-382 -362 0
-235 -397 0
234 189 0
-270 -36 0
141 -114 0
87 -395 0
149 -259 0
15 -285 0
-187 -205 0
183 -298 0
1 38 0
106 158 0
119 293 0
204 -58 0
386 -212 0
-404 118 0
23 -21 0
-261 -336 0
-265 -213 0
193 -138 0
97 399 0
240 -95 0
181 109 0
368 256 0
44 130 0
128 -107 0
-277 93 0
-350 166 0
-319 192 0
-57 -309 0
-352 -129 0
-103 -50 0
-235 35 0
94 334 0
378 -334 0
-235 272 0
-389 370 0
-30 -320 0
-39 139 0
165 -36 0
263 132 0
-262 123 0
112 323 0
-21 212 0
9 184 0
-350 109 0
-179 -393 0
-259 111 0
-319 312 0
68 -33 0
-300 -90 0
-296 -258 0
35 23 0
250 -202 0
-123 239 0
266 -265 0
74 -68 0
-30 -136 0
249 24 0
124 297 0
-172 209 0
318 195 0
137 -199 0
408 -271 0
386 154 0
-2 -355 0
-354 401 0
-20 398 0
-189 -148 0
-36 -307 0
339 -235 0
51 366 0
177 182 0
412 77 0
322 -363 0
55 72 0
-82 -166 0
-344 -103 0
-17 -121 0
309 -390 0
386 331 0
356 -312 0
-50 305 0
26 -185 0
-12 -385 0
-211 -28 0
-200 -257 0
-287 130 0
-380 6 0
58 193 0
-280 -191 0
206 -310 0
-373 -251 0
283 171 0
-264 -145 0
48 -289 0
173 -228 0
184 297 0
-253 -377 0
-320 -367 0
414 -11 0
-268 334 0
147 271 0
-59 343 0
-144 306 0
-36 154 0
-362 -252 0
366 -148 0
287 -245 0
-186 -96 0
139 -160 0
-407 -66 0
-148 75 0
-309 -341 0
-376 268 0
99 189 0
99 264 0
131 250 0
338 -406 0
-198 -368 0
-235 84 0
6 366 0
218 -14 0
-395 -87 0
-173 368 0
-31 -1 0
-394 374 0
-309 -328 0
123 -282 0
59 -49 0
-363 -272 0
367 205 0
235 -125 0
401 291 0
-138 68 0
408 -344 0
101 369 0
-155 -8 0
414 -306 0
-134 -146 0
344 -327 0
-191 -45 0
110 239 0
-22 -310 0
318 -127 0
360 17 0
-179 -385 0
280 -133 0
190 239 0
-377 162 0
-92 172 0
238 -304 0
104 372 0
-373 415 0
-345 -13 0
-253 229 0
-337 -190 0
-315 -288 0
-381 -111 0
-160 -228 0
-361 -149 0
410 353 0
314 309 0
-334 -373 0
280 58 0
154 229 0
218 379 0
-347 -254 0
-128 248 0
81 -172 0
210 268 0
-325 14 0
121 -315 0
-260 -352 0
-66 233 0
245 317 0
326 -167 0
400 -98 0
-296 -328 0
90 -121 0
-142 38 0
111 -360 0
-405 219 0
270 -217 0
-127 -83 0
-2 124 0
74 251 0
402 200 0
337 323 0
-232 343 0
-245 327 0
391 -228 0
175 310 0
-230 165 0
214 17 0
-148 256 0
-8 118 0
-193 -36 0
230 -145 0
-373 -80 0
384 49 0
183 -209 0
356 -241 0
177 321 0
-31 -198 0
-236 -122 0
276 -252 0
40 324 0
174 68 0
-371 -73 0
58 -300 0
-10 195 0
377 10 0
210 -78 0
97 310 0
-258 -124 0
-84 -129 0
294 -302 0
-207 -28 0
-66 -37 0
-128 -139 0
-4 402 0
48 263 0
398 -325 0
-284 -29 0
251 272 0
-362 -266 0
-211 175 0
398 -381 0
-11 -182 0
354 -141 0
-14 -265 0
384 -245 0
194 -77 0
101 56 0
-53 400 0
133 -370 0
176 -134 0
106 -143 0
-307 44 0
19 228 0
-125 -398 0
-326 -155 0
-405 -177 0
-240 -320 0
-189 -371 0
46 -374 0
401 -25 0
24 43 0
76 106 0
283 -52 0
100 -40 0
225 60 0
222 156 0
377 -227 0
378 -402 0
154 98 0
308 369 0
286 -140 0
350 -379 0
24 -274 0
-352 -202 0
-22 51 0
80 209 0
40 -247 0
121 207 0
-43 230 0
-400 -350 0
79 -7 0
-130 -138 0
227 12 0
-126 -194 0
-373 361 0
-405 -41 0
-204 325 0
287 222 0
-105 407 0
-46 314 0
-14 237 0
69 209 0
-242 -224 0
-373 138 0
102 16 0
331 -411 0
-129 -150 0
-232 -58 0
-98 -55 0
-134 -175 0
64 -125 0
306 274 0
248 -373 0
392 -236 0
377 -275 0
269 360 0
-369 -58 0
-206 -182 0
-355 194 0
-273 -21 0
-343 -84 0
-383 321 0
-149 87 0
122 54 0
262 286 0
24 -15 0
-163 -167 0
-186 -242 0
225 -132 0
220 182 0
-113 344 0
351 -150 0
-30 -26 0
48 -109 0
111 -264 0
-408 176 0
185 -199 0
-336 -85 0
-164 -152 0
247 376 0
-176 170 0
297 146 0
-357 77 0
342 -149 0
408 34 0
-379 175 0
-379 -198 0
-94 396 0
209 -28 0
62 68 0
-2 -291 0
-18 -28 0
396 -258 0
-301 -316 0
83 -175 0
-101 -235 0
-237 62 0
326 343 0
330 -98 0
-168 192 0
-277 99 0
-336 -284 0
-185 -75 0
-269 -102 0
131 224 0
337 8 0
26 8 0
-389 -400 0
113 -395 0
-1 -13 0
102 20 0
125 46 0
-264 -332 0
-168 -66 0
43 -213 0
-405 306 0
344 47 0
-127 -145 0
-248 208 0
202 157 0
220 378 0
-355 -345 0
-156 227 0
402 -66 0
-186 -40 0
-396 376 0
326 284 0
-236 -308 0
-294 -295 0
324 -216 0
101 -411 0
271 -346 0
-141 252 0
-159 -11 0
338 100 0
-54 -148 0
-289 246 0
165 -317 0
-265 76 0
-380 6 0
271 84 0
-8 39 0
-398 -377 0
-129 -105 0
-259 -145 0
-274 70 0
7 -310 0
401 -166 0
-189 -384 0
-121 -174 0
-201 386 0
259 -333 0
-242 -284 0
214 -292 0
189 16 0
334 308 0
-235 347 0
-133 344 0
347 51 0
343 301 0
305 189 0
-101 -33 0
-346 -162 0
-354 188 0
281 -264 0
-16 -138 0
-99 -261 0
368 338 0
-327 -147 0
195 128 0
-294 -172 0
108 -319 0
172 -224 0
246 89 0
-134 400 0
253 389 0
377 143 0
414 360 0
-12 -295 0
111 93 0
-242 -269 0
104 -238 0
-377 -53 0
68 337 0
-158 81 0
-167 58 0
-390 -145 0
-251 52 0
-236 239 0
59 113 0
-300 227 0
-281 -351 0
-209 220 0
-92 122 0
131 -100 0
297 236 0
-12 396 0
-218 -148 0
182 136 0
-345 208 0
-22 261 0
-150 215 0
49 -324 0
-186 200 0
225 -178 0
-202 -212 0
26 -45 0
-271 -290 0
144 -269 0
306 -234 0
-369 339 0
333 -109 0
-246 -14 0
323 136 0
343 -281 0
-160 12 0
-86 -306 0
-19 9 0
62 -394 0
315 250 0
301 193 0
254 258 0
-197 112 0
-156 -163 0
51 288 0
173 131 0
155 -156 0
-298 -206 0
266 -202 0
-34 -351 0
-279 321 0
-65 175 0
27 -354 0
-193 -138 0
-292 207 0
-246 339 0
-202 -71 0
91 -152 0
172 45 0
116 -92 0
151 398 0
-333 -256 0
99 34 0
120 228 0
-409 400 0
-17 -267 0
96 229 0
-259 74 0
168 -197 0
39 -149 0
128 -363 0
-383 -323 0
368 341 0
123 -311 0
93 330 0
-238 -320 0
340 96 0
-79 46 0
117 78 0
-243 -110 0
-332 -376 0
-36 119 0
-292 368 0
-273 102 0
266 334 0
-316 -18 0
-292 214 0
-290 -205 0
74 -162 0
-27 -300 0
-106 -390 0
-391 -302 0
145 -265 0
241 76 0
394 137 0
284 209 0
-279 -264 0
-163 -164 0
-7 180 0
-164 -375 0
38 202 0
-282 -252 0
396 113 0
81 43 0
375 -18 0
-261 38 0
-280 -411 0
-192 120 0
200 305 0
-198 -208 0
-24 -371 0
-3 406 0
369 -205 0
277 -230 0
267 173 0
-144 318 0
83 -279 0
-85 131 0
410 -322 0
-355 -352 0
119 -222 0
285 -230 0
68 246 0
297 347 0
93 97 0
-377 -260 0
-347 -266 0
-393 -41 0
-283 359 0
246 -2 0
291 221 0
-85 250 0
-280 51 0
194 224 0
-71 181 0
83 -83 0
-287 -346 0
-234 233 0
171 -250 0
-213 297 0
-180 148 0
-43 117 0
280 -77 0
171 199 0
-264 -325 0
91 -145 0
-14 201 0
301 378 0
-264 -30 0
-150 321 0
-393 -159 0
25 183 0
40 340 0
72 -54 0
-6 183 0
367 278 0
135 266 0
338 87 0
351 -17 0
91 -86 0
217 158 0
99 246 0
-383 -233 0
-95 171 0
-397 -121 0
359 -7 0
-134 -291 0
-89 -109 0
-365 51 0
6 67 0
277 259 0
216 120 0
-30 -23 0
-337 -295 0
336 -347 0
215 306 0
67 -318 0
38 -274 0
-163 306 0
322 -398 0
189 -371 0
303 -373 0
-285 -197 0
-224 126 0
364 113 0
-134 -1 0
44 -222 0
110 323 0
200 -233 0
-32 296 0
117 -85 0
157 332 0
93 -257 0
263 67 0
236 -187 0
-247 203 0
-345 287 0
-57 -384 0
-287 177 0
143 17 0
158 285 0
224 -11 0
201 281 0
-379 -351 0
240 286 0
-323 -264 0
-251 38 0
81 349 0
268 -209 0
-221 -107 0
-145 -296 0
-247 -321 0
15 -140 0
165 -374 0
44 104 0
-407 -164 0
276 166 0
278 170 0
-398 -191 0
-105 130 0
285 206 0
-360 -353 0
151 -198 0
317 12 0
-94 -44 0
-163 120 0
170 -390 0
-352 158 0
-375 -339 0
132 41 0
5 -152 0
120 -260 0
227 175 0
363 -142 0
340 244 0
-69 410 0
-83 -71 0
-165 -103 0
68 -37 0
4 -50 0
-265 182 0
208 -235 0
181 278 0
-242 187 0
-242 106 0
346 117 0
-233 -116 0
-28 307 0
-18 -383 0
368 -292 0
-224 390 0
153 357 0
153 -138 0
111 -40 0
6 -84 0
280 166 0
19 -181 0
-78 46 0
91 -191 0
-243 -402 0
124 -79 0
414 -65 0
68 240 0
367 15 0
-413 -105 0
-409 88 0
165 241 0
269 -355 0
203 97 0
370 -150 0
-66 -398 0
-289 71 0
267 406 0
238 -310 0
222 282 0
38 87 0
67 -274 0
324 26 0
168 -134 0
301 -119 0
286 236 0
132 -61 0
-53 173 0
-328 -2 0
-379 -14 0
-407 -326 0
-126 -334 0
68 274 0
-120 229 0
298 156 0
358 137 0
-166 178 0
153 -202 0
193 182 0
-391 -37 0
177 56 0
367 -323 0
47 -231 0
-105 62 0
120 323 0
321 21 0
-228 -138 0
-391 349 0
13 68 0
91 364 0
253 -194 0
133 -16 0
323 45 0
340 -143 0
195 -4 0
-371 -373 0
240 228 0
-140 203 0
348 30 0
99 -133 0
100 -111 0
-346 -317 0
51 -309 0
105 -187 0
144 -390 0
150 -185 0
382 268 0
-394 -206 0
-243 82 0
216 -53 0
-163 284 0
133 -366 0
-190 347 0
-389 75 0
136 -355 0
-145 -189 0
-198 203 0
-118 -311 0
168 -191 0
120 -113 0
110 -415 0
-109 224 0
250 -86 0
-68 -2 0
-401 132 0
-156 320 0
339 -373 0
137 406 0
-302 -395 0
9 -39 0
304 395 0
-211 -37 0
28 -75 0
