c NF
p cnf 467 420
-439 -286 0
336 -466 0
-79 442 0
436 437 0
-238 -231 0
-358 102 0
-192 385 0
255 402 0
-412 -304 0
408 73 0
-1 -166 0
152 -259 0
-399 -105 0
361 36 0
-56 18 0
-238 -70 0
145 -79 0
288 -176 0
114 173 0
117 -253 0
454 -305 0
330 -43 0
395 -72 0
172 126 0
-462 338 0
360 -160 0
-136 101 0
-322 -383 0
-311 388 0
-394 -377 0
-162 122 0
317 266 0
431 -38 0
-13 119 0
-188 -179 0
-63 -66 0
-389 357 0
211 367 0
56 425 0
228 213 0
10 -332 0
257 -113 0
29 -153 0
236 278 0
-300 -183 0
361 60 0
36 90 0
-49 -310 0
368 -67 0
-467 -388 0
44 152 0
214 317 0
-297 251 0
-130 444 0
-193 -464 0
149 261 0
-337 183 0
270 -280 0
-405 -146 0
-403 349 0
-112 289 0
-89 59 0
291 -19 0
-437 446 0
158 -250 0
400 172 0
-264 320 0
-393 -329 0
24 -131 0
425 -404 0
143 -403 0
406 13 0
325 132 0
373 55 0
-40 155 0
455 178 0
-21 429 0
225 -435 0
98 -83 0
-392 233 0
264 -291 0
-247 -156 0
-295 427 0
-83 45 0
415 -385 0
86 -457 0
-282 -315 0
390 -241 0
-104 -380 0
-165 -113 0
-54 320 0
-301 264 0
152 -51 0
-323 -60 0
-344 -213 0
336 311 0
-51 -94 0
69 296 0
-121 -146 0
440 58 0
-303 189 0
-207 310 0
395 -21 0
102 110 0
-97 10 0
341 435 0
-322 -13 0
-424 338 0
-239 -337 0
-257 221 0
354 175 0
-252 -139 0
-49 -435 0
-339 -295 0
-365 150 0
-453 75 0
-430 74 0
48 208 0
-182 48 0
-296 -404 0
416 -411 0
355 366 0
179 239 0
-68 -402 0
-402 325 0
-208 187 0
-384 -411 0
441 -345 0
151 -384 0
-145 66 0
357 13 0
161 -410 0
-249 406 0
-349 306 0
425 69 0
-300 -345 0
-201 143 0
-324 -310 0
236 -271 0
-166 -345 0
-131 134 0
58 -247 0
-393 258 0
84 336 0
-467 -261 0
-74 396 0
-241 -350 0
297 -106 0
-316 398 0
294 95 0
378 -160 0
-372 -81 0
-34 378 0
273 -185 0
-428 221 0
-80 107 0
74 -328 0
-201 217 0
149 267 0
-356 55 0
-284 -292 0
430 -443 0
-36 89 0
-312 23 0
-53 258 0
83 -465 0
57 315 0
421 -362 0
-141 -409 0
-447 31 0
-31 348 0
-178 -317 0
229 233 0
164 146 0
187 -134 0
231 313 0
-192 -381 0
-304 138 0
-9 102 0
157 116 0
-124 -129 0
237 -290 0
-2 -459 0
156 212 0
-449 -392 0
152 277 0
217 -132 0
345 221 0
-146 -372 0
-433 144 0
-217 256 0
-56 312 0
-16 24 0
-144 359 0
-26 100 0
-192 -415 0
277 22 0
-117 306 0
346 -132 0
-53 -168 0
7 -354 0
-394 -329 0
171 -70 0
-28 409 0
333 233 0
310 403 0
187 -436 0
413 -56 0
407 164 0
64 -4 0
-140 -154 0
217 272 0
-74 -268 0
290 -212 0
-462 300 0
-147 295 0
-53 46 0
159 190 0
-84 363 0
-154 -247 0
328 202 0
418 -351 0
320 -260 0
435 -246 0
-129 -65 0
-28 -209 0
399 -165 0
-40 299 0
-33 -281 0
-179 122 0
251 295 0
-85 -140 0
18 294 0
-73 -389 0
-85 41 0
292 177 0
-460 317 0
-191 -419 0
-99 -300 0
157 -245 0
134 289 0
93 -93 0
-219 407 0
-376 -207 0
466 -293 0
-343 -193 0
377 -223 0
-322 157 0
-457 -194 0
-40 301 0
80 288 0
-436 278 0
432 342 0
59 330 0
-72 216 0
227 -450 0
269 260 0
63 242 0
-20 -252 0
343 35 0
45 -60 0
-147 328 0
138 -357 0
-128 128 0
-321 -243 0
-29 -40 0
-344 -358 0
303 218 0
211 -328 0
114 -124 0
164 -246 0
295 -160 0
446 -190 0
-154 -53 0
-98 -139 0
-443 95 0
263 77 0
375 -253 0
205 66 0
-178 27 0
-456 119 0
-92 -42 0
-392 -395 0
-271 -381 0
288 -371 0
-100 222 0
343 256 0
-145 -142 0
202 456 0
-90 407 0
-155 64 0
47 -268 0
-72 -247 0
59 -362 0
33 288 0
105 -308 0
-25 291 0
-51 236 0
458 -76 0
14 458 0
-369 -290 0
-441 -241 0
220 260 0
-440 -419 0
18 -394 0
393 171 0
-223 -357 0
-72 291 0
-287 308 0
-84 66 0
-466 224 0
105 -369 0
-276 326 0
352 4 0
221 232 0
372 -254 0
97 256 0
158 248 0
-316 -42 0
-364 374 0
156 307 0
-39 126 0
-276 -296 0
-251 216 0
-165 451 0
272 -345 0
126 -163 0
277 -409 0
267 -259 0
189 205 0
82 22 0
406 285 0
437 -396 0
270 -227 0
-396 192 0
456 -49 0
213 -407 0
-245 -140 0
165 -234 0
-139 -452 0
137 -157 0
-35 -161 0
-182 156 0
18 126 0
-278 236 0
-249 -49 0
317 -336 0
242 212 0
224 373 0
-316 357 0
-232 -391 0
-204 256 0
23 87 0
-124 318 0
-126 213 0
-246 124 0
-159 325 0
-201 -79 0
180 417 0
122 -334 0
-423 -113 0
-229 -412 0
93 -354 0
275 -358 0
33 -387 0
-326 -403 0
416 -104 0
187 154 0
373 -9 0
12 380 0
-356 -1 0
-245 119 0
-426 423 0
-218 180 0
-356 -159 0
401 -253 0
-243 -361 0
467 -329 0
-302 -48 0
-382 -358 0
-384 -280 0
325 -415 0
-435 451 0
-464 -162 0
421 -196 0
216 277 0
-419 -100 0
416 422 0
-394 1 0
-226 1 0
-340 455 0
237 -84 0
258 25 0
-131 288 0
55 -62 0
-317 -192 0
452 259 0
-245 404 0
-135 -37 0
460 -393 0
-172 286 0
422 -441 0
-444 -384 0
250 -261 0
-449 19 0
-367 359 0
-6 -441 0
-219 -253 0
459 442 0
267 -241 0
-358 300 0
-6 106 0
-201 -465 0
97 -192 0
-239 -426 0
122 180 0
-327 370 0
455 222 0
-363 -385 0
95 318 0
