c NF
p cnf 3652 4748
-284 -2452 0
-1537 1660 0
1892 -1437 0
-84 -3065 0
1961 2775 0
-188 892 0
764 -2778 0
-3382 2462 0
2360 -1045 0
-585 -1345 0
-2340 -3577 0
2042 -2559 0
-535 -2567 0
-3505 -2958 0
-1208 2182 0
2285 779 0
-2659 -2727 0
2265 -61 0
1069 -2318 0
-1613 -345 0
540 2811 0
899 1526 0
-3479 623 0
3146 -2256 0
-319 -2919 0
133 3426 0
126 -2034 0
-2491 -3027 0
3636 2005 0
-3427 -1050 0
-1666 3316 0
2989 252 0
-2582 -1924 0
-1548 -1357 0
792 2179 0
1937 -2225 0
823 1603 0
1080 2663 0
-2762 620 0
2714 2498 0
3234 958 0
1798 577 0
-475 -2661 0
3481 2353 0
-3088 2964 0
-1312 3370 0
-3299 -3650 0
-1557 -1698 0
864 -2498 0
2778 -1758 0
3121 3150 0
3596 1650 0
-1868 -1016 0
1014 -3065 0
3378 2098 0
2627 -2043 0
500 -1198 0
1704 -2928 0
2255 387 0
-376 -1330 0
1785 205 0
1277 933 0
800 -1879 0
-1748 1983 0
3162 -1945 0
40 2002 0
3367 1822 0
-3640 1313 0
3649 105 0
1369 -951 0
-1156 -561 0
1552 -2255 0
2241 -1672 0
-2725 2426 0
-2307 -879 0
-508 -1015 0
1366 -759 0
764 -2337 0
-3064 -3284 0
-426 -1555 0
-493 -205 0
-1461 -2808 0
550 -233 0
-1847 -1955 0
1791 -1572 0
-1931 -759 0
3611 2233 0
-1266 -2218 0
-1114 -317 0
27 -3163 0
-9 439 0
-2892 26 0
2386 -2343 0
281 3550 0
1371 -2444 0
2048 -2375 0
-1725 -2594 0
-1075 -1041 0
-2335 442 0
-825 2811 0
2872 3128 0
2455 -1548 0
-2516 -1694 0
-294 -3513 0
1074 -1943 0
-861 2295 0
2537 -2996 0
2645 -1342 0
-749 -1397 0
2159 494 0
-22 1608 0
3136 3075 0
2682 -3343 0
425 -3047 0
1517 1764 0
-1432 -224 0
3295 -3526 0
-1658 -1127 0
1093 2042 0
2522 3558 0
559 -2023 0
1033 -3186 0
2886 -1275 0
-1330 564 0
238 -1371 0
1011 3488 0
-560 -1301 0
-1147 -2410 0
880 1369 0
1082 -1522 0
3481 1706 0
-1137 2137 0
155 1384 0
-2730 -2563 0
1253 1751 0
-2757 -1836 0
2719 991 0
3551 3208 0
3318 -3582 0
-495 -80 0
-548 -268 0
421 -1778 0
-13 2598 0
703 -969 0
2340 1918 0
-1763 -1288 0
-1256 -2702 0
1723 1755 0
-767 1236 0
2055 -1025 0
2593 -3040 0
1436 3297 0
-1506 -2117 0
-1654 -1094 0
-3496 -2946 0
-1684 -1335 0
-3536 -2531 0
1753 570 0
-2645 1488 0
2522 53 0
-476 -3580 0
-2218 -3297 0
2608 488 0
-136 1393 0
2252 -1634 0
-1806 2228 0
2948 2903 0
-3024 129 0
920 -2304 0
704 -1505 0
-2250 -3025 0
173 -1477 0
-103 -3007 0
1103 -527 0
2745 -319 0
2729 3085 0
2733 1373 0
3107 -1073 0
-529 -1716 0
-1141 691 0
2908 -993 0
1007 -122 0
18 -3414 0
-741 -2968 0
-1257 -2445 0
2586 -2641 0
-1367 1447 0
730 1609 0
-1737 673 0
-2854 -2938 0
3055 2910 0
-2571 -454 0
-356 -79 0
-87 2506 0
-934 2977 0
1622 -2898 0
425 -1134 0
-179 -3077 0
3563 -1321 0
-1195 2597 0
831 -1730 0
2033 -1788 0
473 -1322 0
1663 1373 0
-683 -3340 0
-1530 -784 0
2565 2859 0
-2027 387 0
-2813 1018 0
627 -1266 0
1061 1782 0
412 667 0
1250 -3384 0
1947 -653 0
2870 -2368 0
-1528 -1027 0
2187 -277 0
-416 2416 0
1347 -531 0
-2372 -904 0
-2858 2736 0
-127 598 0
3591 3496 0
1951 -3389 0
1612 3050 0
-1776 -1004 0
2522 2457 0
-1298 344 0
2267 3216 0
-2027 102 0
3559 -531 0
-1019 2456 0
809 -1916 0
-401 1786 0
1404 2160 0
-2512 -1579 0
1114 2571 0
1255 616 0
3421 1501 0
-2574 -2350 0
3113 -634 0
-2236 -1850 0
3544 -1835 0
-1389 -1260 0
-483 -2074 0
-3158 480 0
2298 2934 0
-3327 -473 0
460 1857 0
-2007 3267 0
-1248 573 0
-1762 621 0
-2388 353 0
1520 672 0
-472 -2002 0
2055 -1083 0
3649 -253 0
-1675 2114 0
-1437 577 0
300 -2616 0
-936 1520 0
-1252 1860 0
433 -3095 0
819 3145 0
1778 480 0
2354 1280 0
-1441 -436 0
-2750 2019 0
1069 -2851 0
2712 2960 0
411 -1035 0
-3528 621 0
2383 -2560 0
-574 -230 0
-2624 2876 0
-968 823 0
839 3146 0
2060 -1491 0
-1888 -1316 0
3256 -2068 0
2104 3425 0
2518 -374 0
2131 -3075 0
2120 3320 0
1996 962 0
-488 2094 0
177 -791 0
2428 -973 0
399 -2898 0
506 -1331 0
-2480 1608 0
679 2208 0
237 3642 0
-1715 1377 0
-2448 556 0
1519 125 0
-1900 675 0
-3284 -2385 0
1098 325 0
-3516 207 0
864 -2314 0
-2931 337 0
2887 -200 0
-1805 -2046 0
-1694 1433 0
3501 2031 0
2246 1396 0
1613 1078 0
-2636 2095 0
3036 -3632 0
744 -3439 0
-279 2019 0
-3074 -1390 0
-2391 255 0
-2722 2438 0
-235 -2687 0
2561 1956 0
-1045 476 0
-261 -2434 0
-2037 -3284 0
-3255 -373 0
792 -2920 0
1464 1093 0
-2136 -2486 0
3449 3490 0
584 -2127 0
-2864 -956 0
1797 -1202 0
1359 -1260 0
-2327 2036 0
2859 -3359 0
345 -2270 0
3087 -1132 0
-2517 -1169 0
2238 630 0
3305 446 0
386 1309 0
2413 -753 0
1325 1589 0
3286 -3452 0
-2191 2485 0
-1611 3293 0
2693 1608 0
145 1728 0
1761 2408 0
-2517 2357 0
-1359 -2857 0
-2503 1944 0
-2527 2006 0
1907 -873 0
3375 1284 0
-2861 905 0
-2727 -2069 0
-1288 -2740 0
-60 -2121 0
3100 363 0
-169 -1240 0
2213 -2477 0
2518 -3433 0
-2321 -2715 0
-2 1515 0
-1461 3582 0
2831 -329 0
-2271 -1128 0
-1467 -2029 0
-3359 -3070 0
-223 -2487 0
-1934 2719 0
2293 -2464 0
-2661 1509 0
1093 -3272 0
246 1436 0
2558 940 0
-3024 3630 0
370 531 0
2261 -874 0
1731 341 0
2297 521 0
1173 -1485 0
-3017 1680 0
199 1018 0
-1218 -1082 0
3043 -3091 0
-412 316 0
932 -945 0
2174 -1561 0
-2258 3323 0
-1085 -954 0
2817 -3565 0
1520 1336 0
-1783 617 0
-1678 -2082 0
-1367 -2172 0
1614 -1089 0
1604 -2661 0
1372 -3517 0
2295 3634 0
152 2409 0
1537 -3528 0
3378 69 0
3638 -1006 0
966 -2354 0
-2633 3511 0
-1461 -2958 0
-1855 3435 0
1798 -1102 0
1028 -261 0
482 -520 0
1653 2754 0
-734 -2260 0
-3535 1395 0
1515 2961 0
2390 2083 0
1653 1074 0
-1860 2294 0
-2885 -2574 0
-213 1645 0
-140 -2981 0
1146 667 0
-1915 866 0
2455 2808 0
1720 -1150 0
371 -2371 0
232 -1705 0
89 -2896 0
-3104 1286 0
-3084 585 0
-3519 -3537 0
2717 -2373 0
1114 2545 0
-3637 1719 0
2329 -3081 0
2080 -2517 0
1743 1729 0
-3245 -1924 0
-2710 -2511 0
-2119 1813 0
-2191 1370 0
1286 -1364 0
774 -496 0
-2866 -641 0
1498 -2534 0
2833 1965 0
2993 2406 0
-1428 -1719 0
-2593 2384 0
2700 2596 0
-2046 1650 0
2577 2304 0
123 -403 0
3598 2063 0
-885 1991 0
2338 -1140 0
-410 -2336 0
-2628 1467 0
1038 -1781 0
-1517 3464 0
3581 3304 0
137 -1312 0
3341 -2478 0
-1367 -2000 0
-3058 -2276 0
-2094 -1135 0
-3479 -1836 0
-24 3451 0
3224 127 0
-2005 -1587 0
2477 -1453 0
-3539 2002 0
729 -1879 0
-2512 -41 0
2537 -2104 0
1921 -1831 0
914 -2863 0
3218 -2830 0
-2511 -3258 0
-2481 -1545 0
494 1741 0
-482 1053 0
-1488 857 0
2689 3570 0
1614 2952 0
-2954 -3012 0
2607 -1944 0
2744 3208 0
-3431 -82 0
3440 -2991 0
-1762 1784 0
-1574 -534 0
-1388 1882 0
-1730 496 0
-735 3456 0
-3368 -1681 0
938 -3572 0
998 -2221 0
-1500 -618 0
3521 3032 0
-1421 -1431 0
-590 152 0
-951 3378 0
842 1346 0
-820 1539 0
2393 358 0
-930 3042 0
2495 -1306 0
-1399 -2170 0
1009 -449 0
1985 297 0
962 2187 0
2908 -3373 0
-1991 -2213 0
-172 -635 0
3634 1417 0
3115 1906 0
-3510 -2786 0
-52 -947 0
2967 -1969 0
2027 239 0
-2642 2216 0
-2511 383 0
-140 -1237 0
3165 -1805 0
-738 -1634 0
-1104 3170 0
1536 -631 0
-29 -210 0
-356 -915 0
-2531 2960 0
607 -2994 0
1327 101 0
-2296 -1721 0
-2655 -1714 0
114 -3101 0
949 3273 0
-1710 -2467 0
2840 2750 0
2513 -1580 0
-2951 1980 0
2945 -3624 0
-1479 512 0
976 -2337 0
-3579 201 0
-394 -1076 0
-2872 3308 0
3351 484 0
-1280 -1506 0
3191 -1490 0
1378 896 0
-41 -205 0
-502 2988 0
-245 -1567 0
1680 1344 0
10 -916 0
-3528 -3340 0
-2239 -2892 0
-479 -2823 0
-445 3057 0
3064 -3526 0
1476 -674 0
2729 -3283 0
3566 -3215 0
2938 -1172 0
-2629 -702 0
-171 1177 0
-1858 2195 0
2709 425 0
3171 2274 0
2744 1500 0
-788 2215 0
1182 -136 0
-1490 3274 0
1158 -3548 0
3500 176 0
857 -3471 0
-665 3126 0
2411 -3538 0
1484 541 0
-2825 -3319 0
-656 2983 0
-3260 792 0
-1932 2406 0
-2156 -2391 0
-928 -519 0
1166 2401 0
-767 -1967 0
-1953 1639 0
-2798 -1817 0
3039 -3528 0
-458 -1568 0
-1942 2665 0
-501 1141 0
653 2501 0
369 -3608 0
-2491 549 0
3573 -3516 0
2961 -2913 0
-1675 2617 0
-1419 -822 0
-1639 2918 0
1405 1115 0
567 -166 0
-944 -1046 0
-2964 -3476 0
-3017 1286 0
-1600 2389 0
-2750 -1000 0
-2993 2637 0
-3339 -375 0
-3449 2062 0
746 2783 0
1162 2151 0
1017 -1192 0
267 -5 0
-2542 -546 0
-1980 -1657 0
-2027 -3381 0
2678 -3633 0
-189 -1968 0
-827 -2809 0
1963 2277 0
655 2957 0
-599 3325 0
-639 2368 0
1547 2144 0
-3092 182 0
3146 892 0
1278 -3454 0
-3610 -2812 0
2461 982 0
-990 1233 0
-2050 -121 0
2588 3278 0
-33 2133 0
2277 559 0
465 -1173 0
3652 1963 0
-2561 -3105 0
464 3506 0
3108 -64 0
1321 2674 0
-2592 -1478 0
-3021 -2691 0
2689 -195 0
-836 -544 0
1570 -398 0
2626 -1702 0
1274 2621 0
513 -1441 0
2888 -2997 0
1161 3207 0
122 -2121 0
-3631 -1270 0
-173 -1004 0
573 -2486 0
1934 -522 0
-140 2923 0
2514 416 0
-3249 1786 0
2915 -990 0
969 -2531 0
-2822 358 0
1289 -885 0
188 -3155 0
-3505 3552 0
-498 -1007 0
2986 -1037 0
-1871 248 0
3467 -5 0
780 1864 0
58 -2188 0
3121 -3117 0
-1934 1080 0
-726 1441 0
2548 -2954 0
-1714 -51 0
390 -2767 0
-656 -1428 0
-1225 -1486 0
-572 3484 0
2052 2918 0
944 -3278 0
255 3645 0
-1135 -828 0
-2722 801 0
-517 -1416 0
-1501 -664 0
-2711 108 0
-1364 -570 0
3309 -2474 0
1973 84 0
3532 -270 0
-968 -3643 0
1791 789 0
-2411 -2196 0
-2579 -45 0
-904 -1518 0
2080 1385 0
-1335 -2505 0
-1719 -439 0
-947 3024 0
2487 -1942 0
-540 3441 0
2478 -1311 0
1886 -240 0
-765 -2130 0
-1590 264 0
-1105 1358 0
-2299 -1583 0
-512 1466 0
1819 -3580 0
719 2224 0
-309 3301 0
1759 -1969 0
810 2457 0
-1685 -57 0
17 -71 0
-3150 1472 0
-89 3356 0
-2896 -2676 0
2627 -2327 0
2370 -3442 0
1366 2888 0
-3477 -1204 0
-3517 -1707 0
-1235 -2151 0
3116 -627 0
695 -2080 0
-1393 300 0
2515 2883 0
1752 -1086 0
-1575 2385 0
-1317 2274 0
-878 3651 0
-1540 -2494 0
3001 3204 0
3425 1176 0
1986 -1043 0
-1594 -1105 0
56 -1711 0
2425 -2903 0
-2522 3493 0
1219 -660 0
2201 3211 0
2031 -2563 0
2008 2425 0
-2459 2444 0
-3019 -2588 0
-1806 -1097 0
-2306 -826 0
-770 2200 0
597 2940 0
-619 -2477 0
163 601 0
3503 -2245 0
3546 -436 0
-318 2414 0
998 -3261 0
-1876 1633 0
-3334 998 0
1452 -419 0
2670 -3356 0
-2549 1253 0
-3447 -304 0
2928 -2422 0
-549 1611 0
3427 -2025 0
-2965 -3143 0
1051 454 0
-567 2009 0
-3376 -2862 0
-3633 2819 0
-2420 1802 0
889 2962 0
294 -1132 0
1368 -298 0
1409 -1330 0
1993 -409 0
1582 642 0
1628 1054 0
-1431 2301 0
-1217 1881 0
-2402 130 0
-728 -1150 0
-2207 1702 0
1707 3389 0
-666 -2144 0
196 -2185 0
813 -678 0
2110 1269 0
3356 1538 0
13 -2057 0
1229 -3201 0
1596 -3096 0
1458 -512 0
-2332 415 0
1125 115 0
-2054 -2870 0
-2463 27 0
3506 -2535 0
1049 2150 0
2494 584 0
-1155 -3214 0
2726 2446 0
1163 1172 0
-2478 -2768 0
1361 -1075 0
-387 -1367 0
-3170 2273 0
-1346 3056 0
2402 1487 0
1611 -3111 0
-2456 3607 0
-3545 693 0
2645 -2655 0
2070 1226 0
-1086 1178 0
1809 1783 0
3137 2617 0
-1839 2779 0
787 -1796 0
1197 2591 0
-770 -841 0
-3623 3320 0
3260 2804 0
-1380 2650 0
1608 1891 0
282 421 0
-1928 -1015 0
3181 1815 0
-3371 -773 0
-863 2933 0
1386 -2860 0
-540 -3020 0
2098 1349 0
-2648 973 0
-1067 3309 0
-3531 -1568 0
1030 1084 0
-969 -1897 0
756 986 0
-2464 -3519 0
2154 419 0
-1784 -1068 0
-1592 722 0
-2944 710 0
-3117 -3095 0
106 2537 0
-1486 741 0
1389 -1110 0
741 703 0
2887 1382 0
-1177 -2024 0
3467 -1751 0
-1021 -138 0
43 1441 0
-3624 2201 0
-2908 1339 0
-3381 -2835 0
-79 1307 0
2985 848 0
1243 -2553 0
-2026 1025 0
-767 13 0
-603 -17 0
-1857 2017 0
-2217 -1776 0
2530 -364 0
-2678 -739 0
2250 -143 0
3618 922 0
-659 -2841 0
-1955 1768 0
2625 -2618 0
-368 2272 0
-3095 -2746 0
-2464 -1609 0
-588 1464 0
1719 -2103 0
-3523 1389 0
1488 -108 0
3163 -3354 0
3594 -1332 0
-799 2178 0
-709 699 0
-144 -753 0
2563 -2214 0
1377 -3598 0
1752 -1975 0
-3119 3313 0
-901 966 0
3525 2382 0
-3366 -1693 0
-1 316 0
2978 211 0
77 2745 0
-2720 -2871 0
-1179 2537 0
-3174 504 0
422 -484 0
1656 -1303 0
1524 -843 0
2045 481 0
2494 102 0
-2676 -3467 0
63 -158 0
-641 2166 0
-3647 1686 0
796 112 0
-1320 1314 0
1458 1803 0
3440 2436 0
1108 3049 0
-2906 -2970 0
1022 2399 0
460 -3370 0
-2222 -3391 0
-1452 3521 0
-1403 -1463 0
3404 -2905 0
-1586 -3105 0
-1035 2621 0
3302 906 0
2012 -1249 0
-2766 -53 0
-2061 -1543 0
-1269 2756 0
1371 -1587 0
376 451 0
-2792 -578 0
2773 383 0
-639 2776 0
1124 2260 0
-1770 2504 0
-3538 3069 0
1074 1165 0
-2026 -2553 0
-3232 2269 0
-769 -3184 0
3073 1004 0
2006 -1725 0
-1342 -655 0
1944 103 0
-1436 -2909 0
771 -2536 0
1272 1306 0
1571 2318 0
2938 -1819 0
3495 2698 0
1452 709 0
3225 2744 0
701 3596 0
1160 870 0
-3578 -379 0
1738 -1550 0
-2726 1592 0
-2155 510 0
3309 -3059 0
-2580 -2208 0
2981 -2334 0
-485 -279 0
-2343 -3255 0
2234 -3335 0
524 -2402 0
4 292 0
-213 1462 0
293 -3204 0
3609 1043 0
1412 3485 0
478 -1184 0
-1855 -3048 0
-400 -2674 0
-292 828 0
665 -856 0
2027 1099 0
-1797 22 0
-488 -567 0
2868 1761 0
-2021 101 0
1949 602 0
-3465 -476 0
-2452 -3608 0
-336 1402 0
1944 2201 0
1326 -3601 0
-3527 -3161 0
487 1632 0
3447 -1797 0
384 299 0
1917 -2913 0
-2731 2666 0
2927 -2289 0
2645 582 0
3125 -925 0
294 -1117 0
2981 184 0
2537 2552 0
3039 1802 0
-2337 96 0
-3455 2786 0
3409 -2594 0
1636 2043 0
-1800 -139 0
303 -35 0
1157 -2980 0
-2103 -3245 0
2301 515 0
-940 -700 0
1663 -26 0
3000 -245 0
-1029 2053 0
-3072 -2021 0
-3317 2856 0
-3636 -1843 0
-1742 -321 0
3022 -1453 0
-2630 3438 0
2703 766 0
2558 -3507 0
-2924 2685 0
-2760 3564 0
2187 -74 0
2821 -2553 0
-1473 2684 0
-1568 -3333 0
-243 -3259 0
-39 -342 0
3438 465 0
2795 3107 0
1456 2938 0
1970 -1089 0
276 -1821 0
494 2195 0
-3525 -1929 0
719 -3565 0
-2351 1963 0
906 -3564 0
684 1624 0
186 -3545 0
-3377 3552 0
-690 -536 0
2445 -539 0
2751 -2910 0
2071 3222 0
-1020 -104 0
-3524 -2863 0
-2458 935 0
1891 2510 0
-293 1680 0
-683 -3409 0
-116 1308 0
1931 1630 0
486 -3 0
757 -159 0
-343 -1563 0
3427 2234 0
3554 -2434 0
2036 -2417 0
-1504 -2194 0
-2343 1481 0
1002 2226 0
471 -2972 0
2894 -3195 0
3619 776 0
-1117 -2783 0
-2236 1528 0
-2761 3636 0
682 2049 0
2153 1827 0
412 3288 0
487 2163 0
-2809 -2239 0
2299 2522 0
-3290 -3091 0
-1667 -2999 0
2331 2779 0
72 677 0
-3368 -1038 0
-485 421 0
2291 -3199 0
-1270 -1526 0
1025 -2647 0
2313 -3601 0
3228 -1771 0
-210 -1954 0
-3566 -2559 0
-633 2042 0
-1443 -3065 0
2420 -1563 0
243 -1487 0
-884 -1240 0
2005 -310 0
-3563 -62 0
-2316 2104 0
-1805 282 0
-788 1945 0
3276 -88 0
-3243 -1435 0
2611 -1790 0
-1025 -495 0
3333 -2792 0
686 -2884 0
-1475 1156 0
-2812 -1895 0
2427 3364 0
432 2916 0
1796 2470 0
2250 -2275 0
-2412 2630 0
-979 -2985 0
2063 -3240 0
-3416 -87 0
3480 1178 0
1946 -1742 0
1578 -1290 0
-321 2033 0
-257 -1755 0
-1189 719 0
-1964 -1399 0
2667 -2833 0
2614 -228 0
1002 2562 0
-1868 -1627 0
-3217 -222 0
-3575 2723 0
620 -591 0
1914 2903 0
2402 1799 0
557 1652 0
1078 935 0
2616 2611 0
370 -2790 0
793 -3020 0
-993 -1940 0
2583 209 0
-113 1289 0
-1503 1909 0
-3091 208 0
2363 -3315 0
-2420 -738 0
2729 3141 0
312 1373 0
312 1751 0
-1834 -991 0
3162 2864 0
469 -2434 0
2757 -1408 0
-3166 2649 0
-1042 -1634 0
-2226 -1950 0
-2613 2253 0
1330 -1273 0
2767 2304 0
2518 -3430 0
262 -981 0
1305 3649 0
-3127 3216 0
-2379 2550 0
3035 1177 0
-822 1377 0
262 285 0
-1117 -2286 0
-2381 28 0
-3003 -883 0
-422 3596 0
288 353 0
2429 2567 0
-1209 42 0
-51 -2282 0
1110 872 0
-3477 -1170 0
-2692 -970 0
3520 -1650 0
-3510 792 0
-2580 270 0
-2951 3016 0
-1894 84 0
-2482 861 0
120 704 0
2160 3147 0
-2605 1191 0
-1105 -968 0
-1673 -1510 0
-947 72 0
-3020 -778 0
1324 -213 0
1641 3357 0
-1646 61 0
-2863 1706 0
-1979 467 0
2944 -2169 0
-177 1712 0
-3593 -2444 0
3222 -790 0
1893 -994 0
1523 1193 0
-1915 3024 0
1421 2577 0
3285 -3426 0
-2744 1145 0
1547 -90 0
-1275 -670 0
-2775 -104 0
1127 -3140 0
799 1451 0
596 -1108 0
-376 -2313 0
-2401 78 0
1640 -3528 0
-1420 3185 0
1457 -2524 0
2338 2892 0
-2099 -487 0
-1358 1227 0
-716 -2180 0
-1925 -159 0
1216 -1250 0
-1395 547 0
-531 358 0
2513 -75 0
-179 -1203 0
757 1921 0
-211 405 0
-3235 -437 0
1446 1308 0
2396 2380 0
-189 302 0
3250 393 0
-51 1807 0
623 -1302 0
-2226 3257 0
-1723 -489 0
-2496 795 0
-3574 -3503 0
2780 1233 0
-2866 -1077 0
-1639 2415 0
-2376 2205 0
-2835 659 0
3647 -2958 0
-1021 1503 0
-1672 1608 0
2867 3034 0
-798 -643 0
1539 -172 0
-1618 878 0
552 -3555 0
412 -2125 0
-2186 3626 0
-1862 2283 0
3008 2544 0
684 3610 0
3599 -3465 0
-3128 -2992 0
-1897 2279 0
1462 246 0
-1257 123 0
3473 3172 0
-1345 2947 0
-2979 2368 0
-2843 -1994 0
-1077 -1311 0
-574 667 0
-3252 -2038 0
104 -2748 0
-302 -385 0
305 1584 0
3561 2395 0
838 -2502 0
994 -3442 0
-2653 651 0
1663 -1101 0
133 -2372 0
-3228 2453 0
-2854 2218 0
908 1196 0
-2864 -1658 0
1180 1771 0
-2032 1647 0
-475 3576 0
-2594 -949 0
-496 -3293 0
452 1166 0
1653 -1716 0
-1162 2449 0
2790 3403 0
-2251 -2302 0
382 -2553 0
-1259 -3281 0
-1701 -291 0
3389 -2328 0
-562 -1035 0
623 807 0
348 3041 0
-1561 -2168 0
-840 -3357 0
2982 931 0
1918 2956 0
525 -277 0
2089 331 0
-923 1730 0
-3148 -2679 0
-928 1333 0
1165 -2649 0
2571 -1857 0
-2349 -432 0
-1292 147 0
2522 -2508 0
3166 -1202 0
-466 -387 0
-3537 691 0
1477 2938 0
800 3609 0
-194 -3327 0
-399 3610 0
860 3146 0
-1770 2834 0
535 1055 0
-3395 2226 0
2800 -3604 0
-1565 -2285 0
-2667 -705 0
859 -2448 0
-75 -921 0
-2898 2214 0
-2623 3267 0
-1739 -2340 0
1536 -3122 0
2383 3311 0
1039 -1275 0
2554 1578 0
3630 427 0
-1926 3490 0
924 1003 0
-1865 3354 0
-2812 3521 0
3070 -1321 0
2614 -3000 0
-80 -1331 0
-609 3445 0
3352 575 0
-2771 3520 0
3532 1442 0
346 1069 0
-2594 -3267 0
-3255 611 0
496 1963 0
-2424 -1177 0
-1204 -3483 0
446 -1204 0
-2307 -1386 0
-930 856 0
-2629 -733 0
3551 -1669 0
-2044 2685 0
-1390 -2467 0
-1482 65 0
-1330 1145 0
-608 106 0
-13 -3017 0
3429 -2307 0
-3186 962 0
-1903 2396 0
3456 -1461 0
817 -3012 0
2558 -1866 0
2676 -178 0
2374 2568 0
3617 -2905 0
2421 -603 0
-3121 3566 0
691 -1555 0
3542 1262 0
-574 443 0
-2896 713 0
1339 3353 0
2675 -1141 0
-2061 3222 0
-2369 2886 0
-2279 -2536 0
-1546 -194 0
-1711 2392 0
-2116 -1631 0
2413 -2891 0
337 1408 0
-2995 702 0
-1084 1399 0
679 -1030 0
1072 -3180 0
-457 -728 0
3637 822 0
-1240 906 0
-3229 -1032 0
3093 -146 0
1636 -2853 0
-2009 -3648 0
-784 1497 0
-1218 -3181 0
-3418 1775 0
-2812 -1031 0
2200 1038 0
-775 2908 0
-1723 -769 0
2683 -1998 0
890 -2317 0
-1475 -1752 0
-527 -2953 0
1017 -2626 0
-905 -807 0
653 2649 0
1884 984 0
-2602 -2792 0
-636 420 0
-1032 1802 0
2155 1190 0
922 -2644 0
1320 2386 0
127 -999 0
2529 -1799 0
3148 1457 0
-1426 482 0
-3348 -2884 0
2376 220 0
2264 1095 0
710 2181 0
-1936 3526 0
3336 35 0
3287 540 0
-587 3001 0
881 792 0
-2069 -662 0
-2324 -104 0
2114 1120 0
-1259 -2468 0
880 1507 0
2217 2386 0
435 -2778 0
698 -3379 0
1488 3283 0
-3320 -2896 0
-1588 859 0
-3006 2421 0
-2711 1959 0
-1562 897 0
1052 1467 0
3441 654 0
469 934 0
-648 3316 0
1682 2274 0
-2970 1396 0
-414 -1269 0
1303 2294 0
-1303 -3526 0
-3317 -2851 0
-1529 2747 0
-2124 -2016 0
702 3318 0
2341 -2219 0
1608 3371 0
3586 2455 0
2572 -1175 0
3134 -212 0
-2810 -138 0
2361 -2475 0
2076 -3455 0
3617 -2487 0
-2151 502 0
-973 3108 0
-509 2071 0
1927 -452 0
2613 2298 0
-1099 2567 0
2827 1820 0
-1505 -1490 0
-1519 -380 0
2176 -765 0
-3276 -1978 0
859 729 0
1987 -245 0
-313 2428 0
2480 1483 0
-18 -1416 0
-2375 -3598 0
-2375 1985 0
2683 -1291 0
-1378 -833 0
3310 -38 0
2942 298 0
3173 -1892 0
2152 -263 0
-3036 -1001 0
-3615 -2707 0
1584 -1394 0
-693 978 0
3170 -646 0
2127 148 0
792 -213 0
-742 -3558 0
-713 3548 0
-1420 -1066 0
1522 1933 0
2204 -3302 0
1452 1690 0
1261 1622 0
3337 -1669 0
-3071 -1942 0
552 1094 0
2383 -891 0
903 -3334 0
2371 -1542 0
2874 -2484 0
-134 2047 0
-2863 1650 0
541 540 0
-3460 2454 0
-2174 -1894 0
346 -716 0
-1349 2665 0
2918 -3215 0
1780 1808 0
102 391 0
399 -3541 0
-2161 -1775 0
129 303 0
3351 2020 0
571 1595 0
-2939 -1313 0
1422 2905 0
2557 -804 0
1299 -1498 0
2684 -1039 0
623 1341 0
984 -2528 0
2150 2713 0
307 -3439 0
-2857 -3021 0
969 2471 0
2651 -2737 0
-2750 2179 0
-365 -3282 0
-611 -941 0
-3342 3002 0
3526 3213 0
3153 -1615 0
-883 -2578 0
3346 -878 0
-235 2681 0
528 -1525 0
-1891 282 0
498 2585 0
1639 -993 0
2634 2860 0
963 -2102 0
847 185 0
-3525 384 0
-2092 -1819 0
-890 113 0
3134 -433 0
3616 -2584 0
2094 -806 0
675 -435 0
3561 80 0
1048 -3285 0
-3177 -2433 0
3603 -1688 0
3645 -1259 0
-3152 1731 0
2670 -626 0
2760 659 0
384 -2920 0
-1505 -647 0
1243 -52 0
-1462 148 0
910 589 0
1539 -3508 0
-2448 1546 0
-544 -36 0
-2640 -3290 0
-983 248 0
-589 -2917 0
-2593 -3477 0
1333 -2229 0
-3271 -914 0
-3286 -712 0
-3436 1837 0
-1810 -1326 0
-1704 386 0
-42 3125 0
-2757 -916 0
-2531 -2483 0
-362 842 0
2006 1236 0
2674 3204 0
2733 596 0
1366 2252 0
2609 -2936 0
-2707 1734 0
-3029 2288 0
-2804 -2579 0
-1431 1616 0
1016 -3289 0
-2470 -2695 0
2293 -57 0
-905 -2260 0
-2615 1669 0
-646 3443 0
-528 -2808 0
27 3118 0
-1652 -2509 0
1471 2081 0
-2129 -2781 0
364 1809 0
3193 2692 0
391 -1974 0
-2542 -783 0
2952 -808 0
-1235 -2168 0
-3157 3423 0
2765 3581 0
-1835 2780 0
-1318 1141 0
106 1399 0
-294 3560 0
-201 849 0
2838 -3510 0
-585 1765 0
3061 -191 0
-2784 47 0
-3270 -1554 0
-1051 732 0
851 1950 0
-822 694 0
-368 2367 0
1224 540 0
-2067 -686 0
-589 2564 0
-2631 -2147 0
488 -88 0
1533 -3334 0
-3252 1755 0
1555 1907 0
-2172 1237 0
-3159 -826 0
-3069 -1899 0
-3069 2110 0
-3079 -240 0
-3387 1120 0
955 -1202 0
3446 3645 0
-2153 3016 0
863 1616 0
-2027 -2520 0
-2466 -847 0
293 951 0
1774 -3021 0
-1119 -2339 0
2839 119 0
1304 -3298 0
-2245 263 0
-394 -775 0
533 -3614 0
1641 2481 0
675 -574 0
1985 1029 0
3413 3141 0
-1177 -2106 0
3351 -1835 0
3459 935 0
-262 -2579 0
1443 842 0
1315 1920 0
-1919 1050 0
-1942 1291 0
-2746 1682 0
-225 -1083 0
-821 -787 0
3643 2561 0
-53 49 0
-2094 903 0
519 -497 0
-3094 -3544 0
-655 -2130 0
2061 -90 0
-2905 1169 0
-765 -1559 0
2297 759 0
-1408 -3376 0
-2477 1279 0
2883 3573 0
3520 -116 0
3554 3381 0
570 -437 0
-3517 2314 0
2930 582 0
-2434 399 0
-1706 1507 0
2592 2219 0
-2232 -799 0
-2018 1324 0
2978 -40 0
3639 92 0
2178 2539 0
-978 -2994 0
-2334 2146 0
-1529 -2999 0
-1082 -901 0
286 1362 0
942 1775 0
398 -2373 0
-2274 2162 0
-1204 -1148 0
-1058 2796 0
917 2941 0
-2629 -1251 0
2626 2643 0
792 -3527 0
2154 323 0
142 900 0
-815 -202 0
2986 -268 0
1701 -3075 0
913 -524 0
-2009 -2633 0
-2766 2955 0
-888 -392 0
1717 -3352 0
-2041 -1062 0
-2323 -3341 0
-2647 -3606 0
-206 -3230 0
199 -2555 0
-1130 -2885 0
-2191 -2434 0
-2691 3620 0
-3448 -1506 0
-1031 -2744 0
-1634 -1946 0
3321 1092 0
61 1921 0
-2660 1335 0
1465 2139 0
3098 1915 0
-2443 -2798 0
-994 855 0
-3270 -2910 0
2158 2894 0
704 3224 0
3007 -3155 0
-375 -3096 0
2124 -2622 0
693 -2396 0
-2715 -829 0
997 2205 0
1993 -1307 0
1468 389 0
1360 675 0
-946 -2026 0
-972 3117 0
504 -1935 0
1815 317 0
2977 -157 0
-2455 2186 0
-639 -2268 0
-2129 227 0
-1798 3358 0
-1752 2659 0
-2419 2048 0
-1512 2756 0
2863 2912 0
2406 -2980 0
-869 -313 0
1284 3415 0
-264 -368 0
-2798 -1141 0
-3034 -1644 0
300 1425 0
1804 -2968 0
-2465 -263 0
2469 1647 0
-211 -315 0
-1173 2725 0
1738 -2054 0
2153 -1848 0
107 893 0
1614 2281 0
-2058 -32 0
-3421 3151 0
-2328 -2351 0
3554 -3407 0
2757 -1259 0
3282 2530 0
1748 2883 0
-3517 1333 0
-407 -2335 0
-802 3453 0
-177 -73 0
1396 -1652 0
-2952 2645 0
3297 -3097 0
2914 1287 0
-3548 114 0
2763 1639 0
-2472 -579 0
1896 566 0
-2660 -273 0
2619 -2629 0
1811 1909 0
-3530 -3603 0
-2734 1624 0
-1868 1547 0
-2939 -1226 0
-2873 -2172 0
-14 41 0
-862 -1336 0
-2730 -2011 0
1853 -1182 0
1910 3625 0
3428 -2644 0
50 -3642 0
2323 2254 0
-1302 -1726 0
3347 -2270 0
2145 -794 0
665 -2596 0
3544 -1626 0
2 -972 0
-43 812 0
129 494 0
-330 2640 0
1998 -1735 0
-630 -1871 0
-1387 1060 0
-70 3558 0
-1568 -740 0
-2730 2978 0
-605 3003 0
-3274 1210 0
3305 3109 0
2242 -2504 0
705 -457 0
40 976 0
1993 537 0
-946 1596 0
1695 1382 0
2447 -905 0
-2834 -3110 0
-2841 3034 0
119 -2628 0
-2136 1495 0
2975 -1779 0
-277 3405 0
2171 413 0
785 2164 0
3079 -1984 0
-1235 789 0
-2863 -2234 0
-2831 -1391 0
1232 -2473 0
-3055 806 0
571 2480 0
1165 189 0
2682 624 0
-505 -3028 0
-2161 2277 0
1999 2293 0
-405 3501 0
2204 933 0
-2884 -2009 0
1872 -1133 0
-964 -3289 0
2749 -1256 0
3416 2615 0
1702 977 0
1907 -1953 0
2458 2223 0
3154 -2252 0
1670 -1985 0
789 -3430 0
-1346 -1758 0
-2618 2956 0
2131 -567 0
-2330 1279 0
540 -2484 0
-839 2402 0
-1027 798 0
-2037 -353 0
-1179 -1822 0
-1796 -1231 0
-2900 -2531 0
-956 -44 0
-1006 1029 0
2199 2771 0
1019 1893 0
2529 3136 0
1674 1570 0
2981 -1091 0
-3002 -1106 0
-2720 -3341 0
-2988 2625 0
-3249 -437 0
-20 -545 0
-3177 491 0
311 2524 0
-2410 -3293 0
-3055 1022 0
-2679 -1487 0
1167 3651 0
1591 -1239 0
-219 -1733 0
-3633 706 0
-838 -3376 0
582 -2056 0
1114 3165 0
90 613 0
-2349 2255 0
3413 3454 0
2374 1421 0
3453 766 0
-3603 981 0
-2757 449 0
118 3362 0
1117 -768 0
2903 -2714 0
2923 848 0
2669 311 0
-3243 276 0
1711 63 0
-1953 -670 0
-689 -717 0
3136 236 0
364 -1277 0
1719 -2417 0
2237 -3285 0
704 2665 0
-1083 3186 0
-2035 2587 0
-661 -2330 0
2614 -2852 0
3291 -1131 0
-2447 2481 0
-281 2584 0
437 2685 0
1569 3224 0
-3395 -3625 0
-2305 461 0
1072 -3440 0
-678 -3041 0
-1011 -3592 0
-1995 1340 0
1321 -1594 0
2082 3482 0
-1577 -2571 0
-2825 2250 0
276 -2973 0
-1475 3618 0
2093 -2718 0
1262 766 0
-2096 -2059 0
-2606 1053 0
-2792 378 0
1446 -1500 0
3290 3301 0
569 551 0
1361 -3265 0
-2378 -3548 0
2028 -2979 0
-2950 -1900 0
-988 2377 0
-3223 1268 0
-94 -176 0
3420 -181 0
1482 348 0
-3614 -3560 0
-1008 -25 0
-585 631 0
-1525 -575 0
3225 2065 0
2659 -2367 0
2591 -158 0
-2368 -2787 0
-1266 2693 0
461 3314 0
131 1717 0
2777 98 0
2356 1000 0
1823 -3627 0
832 1319 0
493 -1502 0
1766 -3542 0
-2305 200 0
1163 -1505 0
-275 -2344 0
3002 -2907 0
-2059 -2305 0
-1633 -3415 0
-464 1064 0
-520 1829 0
-1655 -3041 0
1803 -1649 0
-1461 385 0
3162 -2353 0
1631 -347 0
-3421 -1006 0
2582 890 0
-545 1008 0
-2318 -1140 0
2279 -2766 0
3377 3430 0
155 -1374 0
-1634 2229 0
-2559 -1756 0
627 610 0
-2871 -2541 0
-2138 532 0
1931 1830 0
-2345 1716 0
-2926 -3384 0
-2778 1773 0
310 555 0
-3021 1553 0
1036 2202 0
-3024 -2919 0
385 -3621 0
465 -2614 0
-2889 3499 0
-3470 -3055 0
718 -3350 0
-1488 -2367 0
2591 -2242 0
23 2449 0
3052 -3422 0
3396 -3457 0
-3437 -1928 0
-792 -2328 0
-2074 2597 0
2084 1729 0
3493 1027 0
2613 2771 0
2663 -3341 0
-2726 3118 0
2546 -159 0
-1575 3120 0
-997 3647 0
-1508 -1535 0
1704 3310 0
749 -2069 0
3288 149 0
-1188 -846 0
-1675 2082 0
-749 3179 0
-774 -3420 0
3294 -2245 0
1226 493 0
703 135 0
2959 551 0
2385 3405 0
1313 2449 0
-1371 788 0
-821 -2463 0
-1659 -967 0
-3020 431 0
1993 -2506 0
2770 1432 0
-3384 980 0
1623 -417 0
1585 2101 0
-2899 3059 0
2692 252 0
-3416 -424 0
2351 -872 0
3562 2384 0
2265 933 0
-1021 2964 0
-1265 137 0
3492 -2393 0
-3148 976 0
2212 1967 0
2277 623 0
-633 -1637 0
960 670 0
967 -2049 0
-349 1664 0
-2394 -2016 0
-1701 -2432 0
-1402 -3061 0
1071 -1596 0
-2803 1980 0
-1857 -3255 0
-986 -2239 0
832 3556 0
-2170 -215 0
1839 121 0
1755 -2585 0
1603 -2670 0
-1817 -2032 0
713 -2718 0
1432 -3638 0
-1962 101 0
-980 -1178 0
-605 1605 0
2940 1246 0
-1150 2404 0
3499 3272 0
1656 -168 0
1433 902 0
539 2578 0
-465 2936 0
-3637 2535 0
412 2211 0
-1688 -723 0
56 367 0
-684 3609 0
743 -522 0
-1407 2858 0
-322 -320 0
-51 1436 0
-2255 -151 0
-1437 3123 0
2735 570 0
2612 -740 0
296 1884 0
-85 -312 0
892 2306 0
-903 -717 0
-3115 -762 0
-1544 395 0
-738 -3288 0
-1506 -1765 0
-2047 -3281 0
-1615 3013 0
1242 3380 0
-2862 2365 0
3218 3021 0
3444 3323 0
1404 2130 0
-466 -1903 0
-2391 -2369 0
896 -184 0
2571 -1378 0
2598 311 0
3370 -1486 0
-1578 1757 0
623 -2883 0
3641 -2265 0
-942 510 0
-656 -3244 0
-473 1084 0
889 374 0
2719 822 0
-2902 216 0
1054 2826 0
-2896 -3470 0
-984 323 0
-230 2355 0
-1949 -1134 0
542 249 0
3052 113 0
-1303 -798 0
-1317 -2720 0
2923 -814 0
-2103 -1027 0
-401 2453 0
2379 -9 0
510 3052 0
-1663 -1390 0
-3224 -1649 0
-3286 -2841 0
-2939 1151 0
-414 2803 0
-1470 -722 0
282 1704 0
2796 2918 0
2413 -2024 0
-2213 -1224 0
-1100 -1667 0
-1846 -1054 0
-1719 -1204 0
1480 -108 0
-3416 242 0
2042 -2001 0
-1678 -1705 0
1593 -3099 0
287 2481 0
949 -2344 0
-3094 -1481 0
1792 -3465 0
809 -1673 0
-24 -2049 0
3261 -455 0
-2227 -919 0
-748 1971 0
3624 -1217 0
49 2664 0
-2521 -2314 0
2890 779 0
-1791 401 0
3059 -762 0
-2801 2829 0
-2366 2020 0
183 -1652 0
-2424 2382 0
-2993 -1791 0
2733 -2799 0
3576 2583 0
-2372 -1063 0
-645 -1424 0
-205 803 0
-158 -2812 0
785 -1913 0
-1283 -3383 0
873 1861 0
-590 -3584 0
383 -498 0
-1111 -908 0
-1004 1250 0
-1904 2539 0
-3142 592 0
-3327 600 0
-457 2072 0
-3269 1663 0
-599 2443 0
-88 2116 0
-2784 -3606 0
2358 -1565 0
-2348 2795 0
320 2610 0
1636 -2101 0
1107 1990 0
1905 653 0
2623 1872 0
-644 1721 0
-2058 1397 0
-2666 -2900 0
3399 -1509 0
1329 3420 0
529 -349 0
-2742 1653 0
2287 -1071 0
-195 -2276 0
-89 2962 0
1667 -2447 0
-1067 3630 0
-862 3260 0
-437 -1892 0
3367 -1742 0
2468 -1356 0
-3158 1925 0
-988 -2750 0
-3548 198 0
1887 -2750 0
710 848 0
-3443 -372 0
-3138 1152 0
679 -2915 0
-2989 1729 0
3432 -154 0
-1886 1619 0
-3070 2747 0
1175 -298 0
-2022 2421 0
-824 1328 0
774 820 0
3222 -3648 0
-3200 8 0
-815 2782 0
3000 -372 0
-1397 3116 0
1528 -1712 0
-1553 997 0
-2966 3061 0
2073 1304 0
1918 3358 0
-100 -1666 0
-456 289 0
581 -3609 0
-2182 -2752 0
105 -1598 0
-1700 2148 0
1324 -509 0
-2409 -887 0
157 -1667 0
-488 2220 0
-2615 1732 0
397 3612 0
217 1616 0
424 2095 0
-138 -954 0
-2354 -2213 0
3617 -35 0
1945 -2010 0
-2316 2583 0
-1658 2335 0
1447 -3051 0
-238 2536 0
513 1238 0
-373 -1975 0
-3508 -266 0
2945 367 0
-1672 -654 0
-815 -2723 0
-380 -3160 0
311 1540 0
3185 -329 0
3175 -3635 0
-679 106 0
-173 -525 0
843 -1656 0
1817 -2189 0
-3452 3268 0
-2106 -1756 0
-2410 2347 0
3598 -368 0
-1414 2148 0
-2284 2729 0
-290 -2157 0
3138 -1219 0
326 2535 0
1871 2144 0
3112 -24 0
425 60 0
2284 1036 0
1690 -2498 0
-1327 -3595 0
-1409 -707 0
-3415 -82 0
3539 -2789 0
-1596 546 0
-237 -122 0
-1640 1792 0
-3575 797 0
-183 -1141 0
1092 2858 0
882 -2213 0
-2592 -3594 0
3458 3172 0
2073 -1896 0
-1060 -1943 0
-2033 2984 0
-2527 3061 0
445 -3286 0
3598 3425 0
3034 -1129 0
3170 2047 0
2733 -2263 0
-166 -3570 0
1944 107 0
1279 -1702 0
-1798 728 0
2337 2725 0
1688 -1714 0
3506 -2874 0
-1173 -2717 0
662 -1863 0
-2423 822 0
2894 -631 0
-350 -2328 0
2178 2897 0
-812 -479 0
1124 1152 0
-2655 2455 0
-2411 2732 0
2640 -2349 0
2543 1660 0
2407 -1994 0
-2656 -179 0
2727 -381 0
2329 -2434 0
-718 741 0
-824 -24 0
-1651 2765 0
1186 2837 0
2023 1930 0
226 3445 0
-250 -2408 0
692 2804 0
-775 2587 0
-2932 -3614 0
1617 -670 0
2346 608 0
-2444 -1418 0
-2999 434 0
-2016 -2542 0
261 -2644 0
3493 106 0
2723 -2434 0
-832 -498 0
-812 -590 0
3364 -2106 0
1396 1946 0
-302 276 0
-3349 -3314 0
1384 3617 0
-1013 1341 0
-3368 -2126 0
-1617 554 0
-2463 1554 0
2946 663 0
1163 -1858 0
525 -1001 0
2972 -24 0
-2935 -646 0
-2578 -614 0
1482 -2286 0
1597 2822 0
-445 2673 0
-867 -2112 0
879 -104 0
3570 1794 0
-2423 3293 0
673 3613 0
-939 -1689 0
-909 -212 0
2072 -38 0
2220 2099 0
809 2736 0
1104 -509 0
-1898 -908 0
-733 -2137 0
-1830 2059 0
-1565 -357 0
-468 2360 0
-3035 -2461 0
-2596 242 0
-458 2877 0
-417 2518 0
-345 289 0
-3235 1314 0
3036 -1125 0
2171 -56 0
431 1060 0
3355 1363 0
3476 -2987 0
2479 -332 0
-3639 -817 0
2177 3070 0
-2583 973 0
-3354 3505 0
3050 -564 0
1776 2842 0
2377 -1060 0
-1024 1901 0
-2075 557 0
2605 -3525 0
2807 364 0
-3569 -160 0
1441 1036 0
465 2164 0
3477 2567 0
2113 684 0
778 -2768 0
2441 -928 0
-3326 2793 0
-3217 -2746 0
2289 -344 0
-3628 -672 0
-2706 3325 0
-1178 3626 0
-2667 -2738 0
-2823 -439 0
297 -3322 0
168 -2282 0
550 3112 0
-130 -1798 0
3565 -2127 0
2487 -2776 0
-1626 -2143 0
-2882 -1041 0
118 1461 0
-931 -1705 0
-2968 -1977 0
1910 -311 0
644 -221 0
-101 1462 0
-1170 -2457 0
-573 -479 0
3386 2925 0
-2505 2158 0
-2216 -1256 0
1261 3201 0
1925 -558 0
-3209 -2174 0
3132 -609 0
-1200 1644 0
-704 341 0
2256 3077 0
2184 -548 0
2001 -150 0
1427 1884 0
-2481 -606 0
-2008 -407 0
-1519 3462 0
-267 2136 0
-2245 -2085 0
-3640 -2784 0
641 -2074 0
-1191 -3255 0
-1043 -2487 0
-1883 -2841 0
-2019 -2740 0
1569 2156 0
2135 1552 0
1590 1590 0
2321 -1058 0
3520 1171 0
-2665 -3646 0
3302 2428 0
-2642 -2908 0
-93 256 0
-1635 -1050 0
-1854 -2369 0
-2143 1193 0
-1487 676 0
1933 -2721 0
3104 -2554 0
1712 2272 0
-1463 3480 0
-3475 985 0
-1547 -2780 0
-1747 2743 0
-1420 -3390 0
-71 1540 0
-2505 1691 0
1500 -773 0
-2391 -1598 0
3506 -126 0
-1858 -198 0
3008 -758 0
3258 2983 0
1922 2012 0
-2951 2679 0
-2830 -3117 0
-3355 367 0
2922 -2066 0
-1526 2057 0
1750 -1383 0
-169 -1011 0
-344 3625 0
1559 -2994 0
-794 -3096 0
-1353 1631 0
-2558 -202 0
3620 3522 0
1823 2506 0
-3455 3329 0
2082 -2029 0
-1693 729 0
3309 1979 0
1518 1484 0
-2393 -605 0
-2784 -1315 0
515 -1487 0
-633 1803 0
3446 2845 0
2516 58 0
670 -228 0
3298 3098 0
-977 1707 0
-57 -2048 0
-3498 3153 0
2111 -2716 0
-472 1380 0
2488 -3380 0
1046 -2878 0
3004 -2850 0
-867 -2088 0
-956 -1954 0
-1846 -1902 0
3074 2847 0
-783 -981 0
-2527 2835 0
-2928 2154 0
-219 1393 0
2441 107 0
3550 -82 0
-1510 687 0
1161 1882 0
-294 63 0
1162 704 0
1307 -3464 0
-2197 2668 0
-396 -116 0
3411 2307 0
214 -1169 0
2168 1161 0
-3161 -604 0
-802 3204 0
2005 746 0
3521 -1024 0
1193 3034 0
-1426 2867 0
-3545 1306 0
2975 1557 0
3389 1515 0
3438 293 0
-941 -2076 0
3394 3558 0
2872 3505 0
3262 -2370 0
1690 1786 0
-799 -724 0
-3206 2300 0
2647 1105 0
1481 -466 0
2077 -3073 0
-2041 1234 0
3446 -1941 0
2306 -3265 0
-1508 -223 0
-849 3456 0
-3586 2055 0
-904 -3352 0
-2022 1840 0
1393 -2171 0
519 -945 0
-3243 3225 0
998 1231 0
1329 -921 0
-706 2564 0
3571 -144 0
-1282 2306 0
383 3141 0
-1184 -1923 0
1474 -2399 0
-1741 2498 0
1023 -2487 0
-3529 3277 0
49 2507 0
-2493 -3037 0
1356 -3065 0
-461 1884 0
-1706 -2361 0
-605 743 0
-1900 1941 0
-366 -2487 0
1969 -2037 0
-251 -2316 0
-339 -2203 0
-605 -133 0
2905 -170 0
-2535 3505 0
-2434 2053 0
-2921 2918 0
379 73 0
-330 1931 0
2665 -1800 0
-2709 -3014 0
-2999 -2622 0
-1836 -2010 0
2386 2277 0
2737 -3434 0
-1046 -1443 0
2019 1486 0
1477 58 0
3336 -249 0
1089 -2405 0
-639 2614 0
-1864 1643 0
-2418 2697 0
116 -2688 0
3369 597 0
3387 89 0
2290 2007 0
-3385 3331 0
-273 -1714 0
1861 999 0
2481 1092 0
-3362 -1838 0
-234 -1608 0
-1551 2677 0
1326 2436 0
1446 -2995 0
3608 1552 0
1665 1764 0
3056 693 0
-2318 -493 0
3297 3405 0
2126 -2084 0
-1479 -173 0
-2951 -2012 0
-602 -2611 0
1531 -14 0
2713 3454 0
1047 2397 0
-324 -2278 0
1227 1003 0
-1214 2132 0
-2644 -385 0
-3531 2367 0
-2644 1220 0
-407 691 0
1807 -878 0
2670 24 0
-2369 -814 0
2326 2894 0
360 2806 0
2414 -3018 0
1751 973 0
-2541 246 0
-2600 17 0
3415 732 0
-937 2163 0
2265 -3625 0
-3577 -368 0
3112 -2974 0
1885 3174 0
-676 -2970 0
3456 2800 0
786 894 0
-2560 -2179 0
306 -2852 0
2361 3214 0
-3137 -2551 0
3152 -2516 0
295 -3526 0
-3384 2133 0
2015 -1823 0
-387 -1989 0
-2316 -3418 0
-81 1446 0
1265 1490 0
-1283 -2694 0
-1556 12 0
-1726 -1081 0
-3437 2129 0
2253 -2466 0
-2774 2539 0
2171 2603 0
-325 -2461 0
-1924 1839 0
1787 3107 0
-1733 809 0
3304 995 0
3043 -2708 0
1122 2051 0
-2216 3451 0
1127 -458 0
938 -2125 0
-3411 -1155 0
-2899 -1475 0
1038 -2014 0
-2282 -3102 0
1387 3246 0
-2556 1697 0
2074 -91 0
3193 -607 0
-3632 2865 0
1447 3227 0
329 2301 0
-2688 -1159 0
2104 -2551 0
-205 1947 0
2008 -2676 0
-250 3230 0
1586 -599 0
809 -2562 0
-1200 447 0
406 -1941 0
-2788 1402 0
3394 -2784 0
884 -3594 0
-2519 -3017 0
1422 -1181 0
3197 -2671 0
-439 1924 0
-2851 2531 0
-236 3440 0
2632 -2302 0
2865 3620 0
-341 2145 0
2569 -1804 0
2909 -5 0
-3213 1474 0
-1272 2357 0
759 -188 0
190 -711 0
-1588 -572 0
-261 -1100 0
2766 486 0
-2188 2900 0
2831 -135 0
2988 -3560 0
280 2334 0
2791 1102 0
756 -1894 0
617 -2235 0
2653 -87 0
868 -1512 0
2465 1241 0
-1000 -1975 0
-24 1446 0
-69 1023 0
-3633 -424 0
2273 753 0
2777 -1694 0
-2194 -128 0
550 -2652 0
-878 -2046 0
-772 3271 0
-1250 398 0
616 3115 0
2552 -751 0
-1170 2591 0
-3264 2228 0
-2509 -2827 0
-3165 -2188 0
2037 712 0
-2660 1285 0
1823 -1660 0
2551 701 0
406 -915 0
-457 2463 0
-195 1227 0
416 3346 0
-3579 1097 0
3255 -1711 0
3227 -2757 0
1973 -1478 0
-2592 732 0
-857 2572 0
1946 -213 0
3151 1359 0
-3597 -1111 0
3363 -1322 0
-2623 3547 0
-722 -43 0
-3631 3268 0
-499 3521 0
2383 3556 0
-3412 -2198 0
1625 -3282 0
-968 1082 0
2660 -1522 0
1867 -521 0
3121 672 0
1514 709 0
-1261 1127 0
-1098 1766 0
-1510 -1551 0
-2553 3520 0
-266 852 0
3100 -254 0
2506 -2253 0
1210 3424 0
-3117 -2381 0
-1974 45 0
-3133 1258 0
-209 -733 0
1497 -3321 0
-619 -3579 0
-1351 1467 0
-720 -1601 0
291 -3209 0
1255 2201 0
-653 2865 0
-1985 1736 0
464 -1083 0
2080 -87 0
38 3234 0
-2998 -1715 0
3393 495 0
-469 -375 0
3251 3461 0
672 -829 0
1856 -3379 0
386 2695 0
-1180 -74 0
-1273 1748 0
44 341 0
2643 -1109 0
-1142 368 0
-927 1484 0
1724 -2363 0
1765 1987 0
1250 894 0
-2231 2160 0
-3157 -1576 0
1971 -1732 0
1435 194 0
3246 -2311 0
-409 3182 0
2149 -2633 0
700 2178 0
-2193 -2227 0
-2571 510 0
-944 -2645 0
3138 -1015 0
876 3504 0
989 -1459 0
-106 -2628 0
-672 863 0
-2085 -1810 0
-364 2110 0
1793 3094 0
-2672 3585 0
-3396 -474 0
3107 -3409 0
2599 2601 0
-1717 1731 0
2377 2648 0
-2669 -1594 0
-1004 -146 0
2791 -1118 0
3417 15 0
-1957 1508 0
-2578 -194 0
1118 -1374 0
-1145 -368 0
782 3417 0
2400 -1786 0
-1953 -1469 0
2304 -2676 0
3257 -3317 0
264 -3245 0
735 -548 0
-1633 3103 0
2184 -1655 0
1055 -2516 0
1649 -1814 0
2940 1227 0
-3625 -2910 0
-3209 2882 0
2033 -2101 0
-469 -3185 0
645 75 0
1572 2118 0
-1810 2488 0
1622 -244 0
-815 -3115 0
-1004 1668 0
-600 2029 0
-3520 1215 0
1480 1193 0
-3106 -3437 0
1971 -3307 0
-1639 2046 0
229 1306 0
-91 2426 0
-3537 -2920 0
-742 -3286 0
3341 -349 0
-966 -1643 0
-24 1003 0
-1187 -1068 0
2279 -224 0
3152 187 0
1469 -1140 0
-812 -1649 0
1618 -3306 0
-3593 -3481 0
1802 2209 0
-2294 981 0
-1250 2882 0
-753 -528 0
-1826 -9 0
2072 2611 0
-725 2141 0
-927 -2794 0
-3307 -1090 0
2454 128 0
-400 -1217 0
1271 1266 0
3468 2077 0
-743 3123 0
-2638 -139 0
399 1053 0
-3470 3326 0
-458 -353 0
1323 -2406 0
2597 -2642 0
1950 3008 0
-2236 -3124 0
-331 903 0
2877 -2254 0
-2035 1467 0
3299 -393 0
-1567 565 0
-894 -94 0
3554 -1102 0
-877 -2026 0
1571 -2748 0
218 -1903 0
-2738 -1592 0
1093 -1965 0
1469 -2598 0
2558 -3376 0
-1001 -2388 0
2821 -3252 0
1705 -580 0
459 -867 0
2781 -54 0
-3200 -2892 0
-66 1941 0
673 -2934 0
-807 146 0
2911 1617 0
-1977 1874 0
-1582 -1942 0
-3595 3060 0
1379 1019 0
-315 -2311 0
166 -2216 0
924 777 0
-2889 -29 0
-3161 141 0
-1858 -1901 0
-1704 -2210 0
-587 -2528 0
3649 3132 0
141 2057 0
3194 1856 0
-1861 3287 0
3527 663 0
1452 1897 0
-1800 643 0
-1523 -2995 0
-2386 -3510 0
3565 1228 0
-3642 -3367 0
-1021 3221 0
2214 3197 0
-714 484 0
-1417 -665 0
108 3353 0
-3562 -1269 0
-3052 2794 0
-2714 1662 0
2122 1243 0
475 3208 0
2894 1877 0
-2311 2471 0
1080 835 0
-2375 -1188 0
1437 2304 0
-3183 215 0
658 -2469 0
2096 863 0
-3134 -529 0
-54 -2125 0
-3177 -738 0
-1843 1782 0
1000 -1529 0
-2230 -1260 0
-1428 -1644 0
-3527 975 0
2932 -2214 0
-2029 -3178 0
320 245 0
1937 2950 0
-2519 3591 0
92 -1094 0
979 -3040 0
-1956 431 0
860 1465 0
36 -3057 0
-2144 -3166 0
987 -2097 0
1514 787 0
2771 2620 0
79 -3131 0
-2347 -1466 0
303 3150 0
342 -445 0
-1671 -1978 0
-1132 732 0
-2478 -927 0
3056 -3306 0
-3551 -2606 0
1578 -564 0
-689 -2803 0
1861 -1699 0
1696 1342 0
367 786 0
-3133 -1301 0
-792 2030 0
2756 -530 0
2516 516 0
-2480 -2942 0
779 2414 0
-1296 3610 0
1016 -1673 0
-2515 650 0
-1144 2935 0
-3545 -2994 0
3595 -1832 0
-195 -2875 0
1869 50 0
-927 1359 0
-3633 -3066 0
-1930 1882 0
-840 2933 0
-2610 2804 0
167 963 0
3210 -2798 0
2216 -283 0
-660 3520 0
859 -3427 0
-2048 -3414 0
-349 3201 0
-621 2401 0
-1158 -2245 0
-3410 361 0
-2978 1460 0
-1425 -1618 0
1220 3405 0
-1020 -2316 0
411 -988 0
3578 1890 0
-2509 -2883 0
-2038 -72 0
124 2385 0
226 -266 0
2690 -274 0
769 2086 0
-805 -781 0
365 719 0
-2735 3108 0
-2316 -455 0
-571 298 0
661 2108 0
3530 -1826 0
1703 1119 0
-2798 2089 0
92 -1648 0
1237 2658 0
-751 -15 0
-3401 -969 0
3193 -3548 0
-2058 2046 0
-2011 -180 0
-2237 -2395 0
-2319 -3633 0
1742 1497 0
-467 3481 0
1078 -1791 0
-2573 -1955 0
3164 2745 0
3536 -2841 0
-3147 -1560 0
1536 2517 0
2021 2348 0
-826 1065 0
-409 -1311 0
-2369 -1508 0
408 3628 0
-576 -2642 0
2427 -663 0
-2512 -1101 0
2522 -3131 0
2775 2617 0
-2067 2643 0
-3378 108 0
-1149 -2632 0
-850 1660 0
-594 2361 0
-1934 -2261 0
2096 -488 0
2734 1732 0
-1431 3016 0
2300 863 0
1580 -663 0
895 1660 0
-1647 -1503 0
-2688 -277 0
-2601 2886 0
101 671 0
-2045 -807 0
2406 3464 0
-637 -3044 0
893 910 0
2090 2379 0
2201 2650 0
1445 -1698 0
-234 3007 0
-2099 -2919 0
-432 2834 0
-2660 -635 0
-2541 -1822 0
3015 -1496 0
1968 -3350 0
-1654 -3163 0
-2966 -2635 0
1078 -2705 0
-54 512 0
18 -3261 0
-2281 -23 0
1881 -134 0
902 -2776 0
1271 107 0
1183 235 0
-1615 390 0
3371 3 0
-714 -2112 0
299 2775 0
1992 2613 0
239 1651 0
-1526 -1598 0
-1730 1303 0
-3373 -3359 0
-2526 -2487 0
48 -3042 0
2814 1696 0
657 -865 0
-566 -3299 0
2858 2400 0
-3116 -1695 0
1170 681 0
-659 3193 0
-2228 -2524 0
-497 -3360 0
2450 1351 0
-2717 -964 0
2490 2407 0
-3593 -876 0
-1636 -1247 0
-3603 -2860 0
-984 -1252 0
3633 1220 0
-715 -290 0
2699 -652 0
-2559 -2174 0
-2437 239 0
313 3099 0
-128 -285 0
-1268 -2660 0
3011 12 0
1894 2384 0
-3349 -508 0
-2731 -812 0
899 -3087 0
3319 -751 0
2168 -2534 0
1619 419 0
-1176 2462 0
1393 -1386 0
2483 -1555 0
1107 -2016 0
1769 -742 0
2195 3591 0
-1164 1080 0
2022 -319 0
547 2125 0
-70 665 0
254 -1663 0
-2719 -2933 0
-2594 864 0
1993 550 0
-2464 3261 0
1439 661 0
1881 -2219 0
140 1253 0
1543 -68 0
1557 -711 0
-1851 1842 0
-2599 -1427 0
3585 3234 0
3260 2186 0
-1771 -3602 0
1368 653 0
1672 2086 0
-1097 1784 0
-1575 -3317 0
-3119 -1189 0
779 2948 0
-3013 -317 0
3380 3310 0
-814 -3491 0
1183 3075 0
-1747 -280 0
-555 -1162 0
511 2365 0
1605 -1178 0
-1999 -3384 0
76 -1755 0
-1977 627 0
-3169 -3449 0
-317 -999 0
307 -19 0
-2397 -3463 0
-1575 1432 0
-3031 980 0
-249 757 0
-1240 217 0
3628 -1955 0
-2787 -1291 0
-261 -3056 0
-76 -2909 0
-544 203 0
2695 -3327 0
2302 -2362 0
-1243 -3364 0
3291 50 0
-2227 -3091 0
3227 2450 0
546 778 0
-2984 -3028 0
1228 -2143 0
-3520 2355 0
2572 2588 0
-2810 -3499 0
675 2115 0
-885 525 0
-2878 3378 0
2273 -3608 0
1603 1943 0
-1144 -362 0
-2743 1423 0
-3401 -22 0
-766 -3099 0
2855 2872 0
2396 -2527 0
-622 -544 0
2274 -275 0
-1850 -722 0
-1878 -267 0
-1618 -2333 0
-2296 -2519 0
-874 -2854 0
3219 -1981 0
-1613 492 0
-343 1623 0
-3314 -969 0
499 1701 0
-2418 272 0
3208 -1901 0
-1762 -3101 0
1664 2665 0
997 -88 0
2783 -486 0
-3573 -2334 0
86 1241 0
3088 -602 0
524 3138 0
938 -1797 0
2525 3378 0
2146 -209 0
3291 -2863 0
516 -2327 0
-1421 1907 0
-1413 -96 0
-2275 1120 0
-2515 -804 0
-1369 133 0
3308 -3198 0
-512 -2232 0
2626 -1517 0
-1677 -1185 0
-65 3468 0
1578 -3622 0
703 -791 0
-1356 3521 0
238 832 0
-2798 2277 0
1297 570 0
402 3561 0
1603 2397 0
1311 -2695 0
3384 2044 0
-1353 -2082 0
1052 -1174 0
-2333 -1499 0
-1819 1628 0
1068 -1768 0
2139 546 0
-3249 2573 0
-3326 -1760 0
87 -812 0
899 -1035 0
615 -1953 0
1077 1698 0
-3391 -2275 0
780 -1602 0
1379 -1340 0
811 -1459 0
-250 843 0
-223 1243 0
-1634 -2419 0
1188 -339 0
-733 -2698 0
-1867 -887 0
-3430 835 0
2754 34 0
1702 -2716 0
-1381 519 0
-1859 233 0
2470 505 0
2823 3248 0
1558 -2468 0
-2785 2664 0
-131 3444 0
822 -2738 0
487 1550 0
1856 756 0
-429 -375 0
2783 3120 0
-2087 -2799 0
1222 -102 0
2470 2260 0
-581 2799 0
2246 -2257 0
2500 3640 0
1434 2210 0
-1603 613 0
822 1472 0
1262 -1464 0
-2332 1290 0
1455 -1304 0
-2037 -2984 0
-775 2323 0
-1837 1582 0
1861 -1701 0
-2792 -602 0
1559 -2626 0
1084 2442 0
1139 -567 0
3194 2720 0
2222 -2630 0
-3566 -2467 0
3025 -936 0
-3634 1480 0
1172 2500 0
-807 2511 0
3146 -3168 0
2580 -886 0
1261 3183 0
-1632 -385 0
2836 583 0
1250 -1419 0
-1257 -3582 0
3062 -577 0
-477 2019 0
-244 270 0
-1880 480 0
2908 120 0
3351 -3593 0
115 -289 0
-768 -532 0
3358 -318 0
3624 214 0
-588 -2038 0
2709 3075 0
1578 -1824 0
1114 -2845 0
-3553 -3517 0
-103 764 0
2576 770 0
-1978 -253 0
-2308 3484 0
-1676 874 0
-1278 -2676 0
-901 -1876 0
-823 1286 0
699 -511 0
-1847 633 0
-1848 1824 0
327 -3449 0
-3305 -2121 0
-186 2855 0
-2965 3415 0
2986 2462 0
-3368 3463 0
2530 -1506 0
-1763 -2112 0
35 3054 0
1010 3288 0
-779 1163 0
-3329 2119 0
2865 -740 0
289 -1044 0
884 -2083 0
-3611 -2497 0
-3554 373 0
-3517 1793 0
-1076 33 0
-610 -1019 0
-2096 2984 0
-796 1685 0
-2310 -1269 0
1759 -2274 0
-162 1398 0
-3270 -3354 0
803 3648 0
-2726 3488 0
-2886 2800 0
-832 -1221 0
-2203 -2031 0
-2068 -1110 0
2437 -1588 0
2428 770 0
-2338 1824 0
2181 2905 0
503 2407 0
-3391 -2627 0
1467 -24 0
-2018 -1331 0
-2183 -2389 0
-210 -2439 0
-2558 -2866 0
-3474 -1327 0
-1115 -3578 0
-496 1693 0
-834 -1626 0
3153 -87 0
-29 2093 0
3255 -436 0
-2918 1396 0
-2904 -542 0
2907 -3019 0
1334 1136 0
-1778 2304 0
-535 152 0
-2605 1229 0
1603 -1986 0
399 2016 0
428 -2029 0
3213 -1280 0
-3403 -3104 0
-2503 -1654 0
1476 589 0
-2892 -1709 0
-2242 1215 0
-1587 3006 0
-312 3478 0
-450 -1718 0
-1139 2963 0
-2025 -1957 0
2173 -1739 0
-351 152 0
-3037 1194 0
3272 1828 0
630 2209 0
3429 -2953 0
1215 -1645 0
596 1387 0
344 1827 0
-1207 -2977 0
2303 -1765 0
-797 -647 0
-780 -1001 0
1603 3522 0
2732 -3032 0
1253 2427 0
-1007 1818 0
2052 584 0
-3464 3446 0
1378 2384 0
1964 2944 0
-2853 -3498 0
-2243 2603 0
-3458 510 0
2635 -3147 0
3524 -964 0
-1595 -74 0
2599 3440 0
-3274 1105 0
2173 2874 0
2584 -3322 0
-2748 347 0
-318 1826 0
875 -696 0
-558 -599 0
467 -1521 0
3290 -328 0
1728 1653 0
1745 360 0
-2193 2518 0
3086 -2291 0
-3625 -1320 0
370 -2992 0
-2906 3424 0
3184 -3069 0
2671 -2022 0
34 242 0
860 2298 0
-1122 1435 0
1168 3103 0
3188 1712 0
1577 771 0
2164 -1318 0
3070 -2279 0
756 -2270 0
-3411 -3643 0
3341 -2375 0
750 -2998 0
-232 -2580 0
1052 -3351 0
-140 1632 0
782 -1359 0
1490 2360 0
1549 -1765 0
3368 -2312 0
1761 -2753 0
1640 3584 0
133 -2305 0
-3311 -1197 0
-3117 3073 0
-1817 -3203 0
1698 -806 0
101 -2946 0
-1972 2161 0
1591 -195 0
-1287 -484 0
2042 2179 0
-1260 507 0
-867 3115 0
-1732 -1854 0
-2937 -643 0
-3003 -826 0
3300 3266 0
-1320 -2858 0
-1565 -2909 0
-3511 -2331 0
-2795 1849 0
772 1268 0
2336 2379 0
530 3577 0
802 3537 0
-3177 -1857 0
-357 -2889 0
-1962 -371 0
2233 -1282 0
-1716 1177 0
779 3248 0
-2654 3085 0
-716 2429 0
1899 -158 0
-2958 -3390 0
-3254 -742 0
-590 3605 0
2874 1225 0
-2502 2524 0
1241 2105 0
1209 2934 0
270 -3387 0
-29 1509 0
-2693 1939 0
-879 -59 0
1474 139 0
-67 -704 0
-1090 -3145 0
2859 -280 0
-2423 -696 0
1868 1036 0
1929 340 0
2497 -2286 0
2930 -2814 0
-2260 3447 0
-476 -2838 0
1685 -357 0
-3050 -1790 0
-1726 2172 0
-1253 3237 0
-3066 -2197 0
2660 1372 0
-2620 -3278 0
2506 2409 0
1022 -3545 0
2118 -1312 0
-1547 858 0
2775 -2852 0
2130 -1188 0
1809 -1580 0
2463 -2982 0
-125 235 0
1184 132 0
1457 -317 0
-2502 2440 0
-2014 -1139 0
2071 1010 0
-2420 -1399 0
-1707 2179 0
3550 125 0
-3528 2362 0
-2151 -35 0
-655 997 0
3068 -3623 0
2259 131 0
-2169 3241 0
-3083 -104 0
-2986 -1575 0
736 314 0
348 1137 0
2586 -2042 0
2428 -3008 0
-2458 2396 0
2329 2044 0
3144 1282 0
1773 -2328 0
-2295 -2947 0
747 -3266 0
2373 2997 0
1340 2054 0
-2553 2220 0
2363 731 0
3030 1536 0
3026 1792 0
2000 2795 0
-1491 -1896 0
-335 2469 0
-3422 2620 0
-1297 -7 0
-1629 2580 0
-725 2979 0
-3133 2222 0
3571 -3021 0
-2668 149 0
-1525 -3314 0
-304 2572 0
-1218 -1456 0
-3603 -2657 0
3043 1707 0
989 234 0
755 2630 0
-3234 1152 0
-1540 -2993 0
2599 3184 0
418 432 0
-622 1879 0
3128 -2962 0
-303 -2838 0
2190 755 0
-350 2696 0
-1505 1831 0
-2557 730 0
1470 2617 0
-2917 1765 0
-1802 -3631 0
-3283 -1221 0
1726 1581 0
3641 -2374 0
1883 2222 0
2723 -2585 0
-3097 1359 0
-2834 -3174 0
-1121 -1066 0
3193 3182 0
-1508 1016 0
3571 1591 0
404 -1386 0
-493 -312 0
730 -1863 0
3358 3144 0
3134 -3130 0
2012 2238 0
-2742 2384 0
2387 3457 0
-1157 -3137 0
-2440 1571 0
1208 559 0
-759 -1816 0
1630 -2064 0
63 259 0
-3074 626 0
-366 -1926 0
-1231 3463 0
-2076 1987 0
237 -1030 0
1538 348 0
-1678 -1673 0
-1337 3423 0
242 -1689 0
3260 -493 0
-1104 -3160 0
2988 1790 0
-3122 2940 0
-212 1148 0
-1108 -2231 0
-3020 -893 0
-427 -2839 0
300 -1551 0
-3363 -1566 0
2842 -2776 0
-3087 2926 0
1603 2876 0
-1274 -3254 0
-2618 -2838 0
-3495 2793 0
-1749 1565 0
-2488 -1331 0
-3520 -1858 0
1522 1668 0
2723 -3616 0
-3498 431 0
-3484 3542 0
-1293 2126 0
3497 306 0
-1009 -2004 0
2439 418 0
2234 -1305 0
112 2197 0
2118 985 0
-220 1249 0
-2415 -2283 0
1751 -2597 0
-1101 87 0
1464 -1957 0
416 -2953 0
964 -3075 0
-3452 3370 0
3312 2046 0
-589 2819 0
-697 -1897 0
-3061 -2601 0
-2541 -2603 0
-2731 -144 0
-2485 -860 0
-2321 2408 0
-2200 1712 0
-1715 -977 0
7 2689 0
-3143 471 0
2915 778 0
-3058 -3120 0
-863 1147 0
3377 2261 0
-3597 2020 0
-3171 854 0
2052 105 0
3085 -2180 0
1524 2945 0
-1428 -162 0
-2552 206 0
2219 -1733 0
1316 -733 0
-2908 2596 0
1349 464 0
2918 1517 0
-1758 -1760 0
-1779 -196 0
3199 -447 0
-1731 -2553 0
493 2414 0
-635 3093 0
-1257 -3243 0
2369 -2593 0
552 -2686 0
1684 -2825 0
1049 -2475 0
1893 -947 0
1944 3336 0
2169 3497 0
1997 -643 0
-666 1824 0
-3263 -1743 0
-1976 -1577 0
3005 2782 0
-3280 338 0
-2419 -1230 0
3089 3218 0
411 1463 0
-3277 -867 0
641 1845 0
-3028 -963 0
4 2869 0
-2676 831 0
972 -2939 0
-2097 2845 0
3356 2379 0
3192 1038 0
-2939 -3081 0
2875 -442 0
2408 -912 0
1323 3487 0
749 431 0
-109 316 0
3573 -2754 0
-86 -1378 0
269 576 0
1699 -2253 0
-996 546 0
3478 354 0
-165 2949 0
722 396 0
474 3585 0
984 3609 0
1376 3506 0
699 723 0
-159 471 0
729 1639 0
852 1612 0
2281 282 0
1794 -3509 0
-76 -200 0
-2153 -3278 0
-1241 45 0
102 1007 0
285 -1565 0
2671 -3354 0
3522 -239 0
1189 -1047 0
2301 -2814 0
3382 -153 0
892 1244 0
3291 -2017 0
1155 -2646 0
2180 2584 0
-3141 -2397 0
2508 831 0
-2973 540 0
189 3361 0
906 1581 0
-2571 54 0
-2806 2093 0
3555 1646 0
3520 3391 0
2438 2425 0
2397 511 0
1334 -1869 0
-1588 -3299 0
-2804 3616 0
-3349 3374 0
1072 -1334 0
484 -3285 0
-2386 3540 0
-3426 -2043 0
-1503 -946 0
2664 -2394 0
-2397 -2789 0
-2906 -3311 0
-2039 -672 0
-51 -3624 0
-1894 -151 0
2583 541 0
1059 1484 0
-2245 -2172 0
553 -2816 0
308 -1856 0
-209 -266 0
3414 1351 0
-120 1891 0
2859 -2293 0
587 -2141 0
-1247 -2589 0
-961 39 0
-3149 -3288 0
-3167 205 0
-2502 555 0
-1976 1581 0
-1846 1141 0
3135 -528 0
1955 -502 0
3416 -2560 0
1175 2162 0
2338 -914 0
2665 1494 0
1294 -3563 0
3045 -2427 0
771 3379 0
-1391 -1172 0
3259 929 0
-1778 3356 0
2590 -3640 0
-2748 -592 0
-526 -3633 0
-1809 -424 0
-654 1631 0
-490 -209 0
232 1509 0
2972 -816 0
1130 -3612 0
-1747 3214 0
2027 -1760 0
-709 -2447 0
359 1918 0
1359 -3504 0
1823 1681 0
2777 3173 0
-238 -1495 0
-2229 2781 0
1721 837 0
2833 1512 0
2403 2683 0
837 -3592 0
3397 -3568 0
1134 2689 0
1304 -634 0
-722 3038 0
545 2564 0
36 2654 0
-794 -3515 0
1577 -3512 0
1640 -403 0
-450 2054 0
-1390 1818 0
133 -319 0
2433 -424 0
1832 -3306 0
336 3100 0
2879 -3130 0
-2310 1554 0
2494 -245 0
-630 -2169 0
-3081 582 0
-807 34 0
2561 136 0
611 1559 0
-2396 -3614 0
2961 -420 0
-219 1139 0
78 3583 0
268 2546 0
2581 -2104 0
-1437 -3061 0
161 -3001 0
3342 1792 0
-484 1442 0
1754 -1584 0
1939 2791 0
-1284 -697 0
3240 -2932 0
2776 -2018 0
-2894 764 0
2779 -827 0
2229 989 0
-3427 1910 0
-654 2019 0
753 -2788 0
-981 598 0
187 1137 0
2672 -1128 0
-2547 -950 0
3457 -2368 0
-2594 -893 0
-604 1047 0
3648 2071 0
2200 3616 0
1215 446 0
-879 3121 0
-2211 1084 0
-916 -514 0
-1194 2934 0
-791 -1723 0
3250 -864 0
-905 -1315 0
-954 2983 0
389 -201 0
-2839 -2106 0
-686 -350 0
2352 1346 0
-2339 1190 0
2315 -464 0
-3378 -229 0
-3178 214 0
1627 389 0
-1336 -2109 0
-796 -3447 0
-2838 -766 0
3352 1541 0
452 -1446 0
2204 1636 0
1273 78 0
-3616 -2954 0
2308 2925 0
-1298 2123 0
3366 -2153 0
-2403 46 0
899 1613 0
2392 -170 0
-869 -1388 0
3501 -3099 0
-1954 -2658 0
3630 -1194 0
2094 -2517 0
76 1558 0
1458 -3400 0
2743 -3260 0
-279 -219 0
393 -2554 0
-2117 1169 0
2186 -1020 0
3483 -961 0
1010 1996 0
1063 -419 0
-3040 50 0
-442 -3201 0
1444 2273 0
1393 -474 0
483 510 0
1106 -631 0
-2719 2844 0
210 -3386 0
-1730 -1432 0
2867 2380 0
2426 -2957 0
498 257 0
2108 1937 0
-1749 3266 0
2246 3344 0
-2845 -2294 0
1958 3364 0
-3146 -1821 0
-288 -2056 0
-2050 1603 0
1401 -276 0
258 -157 0
1797 -2516 0
-2907 1663 0
-1877 310 0
1778 2630 0
-2499 -1288 0
1473 3481 0
303 -102 0
1914 -3584 0
2871 642 0
-2327 2736 0
2862 2972 0
1754 -916 0
1552 1048 0
3275 3443 0
1547 1180 0
1930 -3534 0
278 649 0
2749 1656 0
-16 -2814 0
2643 -3093 0
1590 -96 0
-2027 -827 0
1428 -754 0
453 -174 0
1966 1179 0
1740 1458 0
27 -257 0
3021 -1577 0
3375 383 0
-2970 -2566 0
-2518 -2590 0
-905 -1530 0
-3543 2677 0
-2557 1215 0
-2121 2864 0
-1955 -3623 0
1030 -31 0
-1739 2956 0
2449 2101 0
-2653 71 0
-3205 -2646 0
-1217 -3456 0
712 2831 0
1999 -462 0
2173 -2094 0
3191 3029 0
1125 43 0
2673 -277 0
1327 983 0
762 2599 0
-2467 2766 0
-2214 421 0
3295 -2624 0
675 1451 0
-1337 1357 0
2811 3116 0
-2779 -1525 0
443 -2870 0
1378 -2870 0
452 -1311 0
-1000 307 0
-1793 2997 0
2721 2280 0
-2682 -2765 0
-257 -2992 0
-3134 -2765 0
2915 3361 0
-1142 -1292 0
-1950 -1195 0
3461 -233 0
3183 2071 0
-7 -474 0
-686 845 0
-3480 1129 0
-1380 377 0
638 283 0
2048 227 0
-3519 2250 0
2605 -1592 0
-2225 1953 0
-542 -2026 0
783 -3081 0
-2645 -318 0
-3112 2180 0
973 -1122 0
-1512 -3567 0
1613 -561 0
-1624 2603 0
2058 -1266 0
1985 2299 0
-2594 810 0
-10 -2252 0
-3441 3150 0
-2323 -1725 0
-1082 -781 0
2569 -3135 0
-1609 3004 0
1037 981 0
2678 1916 0
-1178 2683 0
1698 -2381 0
2969 -2415 0
-368 -670 0
1400 1172 0
256 1885 0
-759 -3610 0
673 848 0
-3405 2647 0
1243 3045 0
2412 -20 0
3275 -2762 0
3004 -1641 0
-3025 304 0
1402 3193 0
-870 343 0
51 -3384 0
1746 -3281 0
3329 1233 0
1712 3183 0
-2377 1702 0
2936 1940 0
327 2550 0
583 3182 0
3268 2003 0
-1836 413 0
-862 -1453 0
3219 -462 0
115 2713 0
-2953 -2594 0
3139 -1415 0
-1120 -811 0
-3161 -3430 0
-1134 -260 0
-1698 -1030 0
1305 1081 0
3039 1300 0
-2941 -935 0
-2546 -2891 0
2211 108 0
1716 -1424 0
2605 -537 0
-165 694 0
-825 -1912 0
-3237 -1672 0
855 -870 0
-1760 -1711 0
3117 -3302 0
1988 -2605 0
-817 2779 0
-3182 -1473 0
1110 -878 0
913 -646 0
-2445 663 0
890 -1521 0
-2532 -2549 0
3431 -1543 0
-197 1436 0
-94 -2909 0
-2312 -2185 0
-714 -3340 0
-2929 2198 0
316 -2838 0
350 996 0
-1863 1716 0
-1461 -3344 0
1444 -1769 0
-888 -2444 0
-69 426 0
-3180 1664 0
-3164 -2481 0
-250 1505 0
2455 3288 0
217 610 0
1026 2446 0
-711 3359 0
-1609 2942 0
1675 2317 0
-3116 2206 0
92 -2752 0
1109 2137 0
3103 133 0
-1095 747 0
-886 2229 0
3153 -3121 0
-2818 -183 0
-202 3570 0
-116 -2687 0
-2460 -590 0
-1986 -639 0
-2394 -686 0
-433 -2003 0
-389 -172 0
2386 -1238 0
-2384 440 0
3246 -2120 0
513 126 0
1123 -696 0
794 -33 0
3052 1569 0
-550 273 0
-1278 -1264 0
-2653 899 0
-3245 -1262 0
3435 -351 0
-37 2665 0
-3342 -2765 0
2864 -390 0
3467 3630 0
-1468 -793 0
-2781 -3432 0
-54 1737 0
-1232 -1495 0
815 -1502 0
1558 -3572 0
2630 1576 0
-922 1640 0
2346 703 0
-856 1389 0
-1814 2006 0
127 -1311 0
2048 -1951 0
-2621 1597 0
1117 3590 0
-873 2844 0
951 1249 0
3448 695 0
-1892 3374 0
-722 3191 0
-138 -1771 0
1705 -2812 0
2152 -2003 0
133 -2217 0
-483 -3071 0
-2893 -3069 0
-92 416 0
1878 1080 0
3616 214 0
3500 1849 0
-640 1481 0
3272 1664 0
-1281 -2380 0
43 3475 0
-140 -1652 0
1494 912 0
1569 3638 0
1562 -662 0
1253 -2543 0
-2585 -301 0
-1694 505 0
-2235 -1872 0
862 -2552 0
-1149 -3191 0
-863 -205 0
-1368 1993 0
491 1289 0
2549 928 0
-436 3446 0
3108 -1599 0
3434 -372 0
-3560 -2731 0
3271 427 0
-1091 2472 0
-916 2667 0
-1126 203 0
-382 2144 0
-957 -3297 0
-3062 2200 0
-3516 947 0
-2990 -1234 0
2488 1856 0
-99 -995 0
2555 -2594 0
147 -428 0
-1070 2782 0
-1860 -3465 0
-2010 2930 0
2677 2132 0
2866 2923 0
-2958 431 0
-63 3374 0
718 -100 0
-3163 -3454 0
-1588 2551 0
625 2104 0
2799 2869 0
1793 2023 0
-2589 2285 0
2367 1553 0
-1714 2023 0
-335 -365 0
-2439 3001 0
3085 -2805 0
441 1622 0
3312 -2781 0
-2970 -1588 0
3543 -611 0
-1117 243 0
3556 -647 0
3469 2574 0
-3079 -497 0
-1315 128 0
1666 1176 0
16 -3494 0
1054 2334 0
3229 541 0
2100 -2250 0
1946 -1707 0
3394 -2084 0
-717 603 0
1012 -3169 0
979 -1776 0
1105 -1237 0
2835 2829 0
-1762 1153 0
-1275 -2004 0
1653 -2307 0
-2432 1214 0
3146 2257 0
-2672 -1645 0
2384 1386 0
-2185 3132 0
3063 2961 0
-2193 -607 0
2846 2913 0
-1101 -2671 0
-2545 2537 0
-3224 2912 0
-2463 -2802 0
-2570 671 0
-2351 165 0
-1671 1946 0
-9 2635 0
2945 2701 0
-2619 1328 0
-3513 -50 0
-352 -2624 0
-600 1788 0
-1014 -343 0
913 -993 0
1365 3546 0
489 -1201 0
106 -2687 0
1165 -1188 0
-559 -2905 0
-1694 1432 0
-2976 3081 0
-3498 -1563 0
-261 2684 0
-1317 -3448 0
1667 -513 0
-145 -1818 0
-3588 -2045 0
3179 3573 0
1710 -3566 0
2793 -1659 0
1288 1700 0
2623 -530 0
1998 3591 0
885 -2772 0
963 -1317 0
2569 1497 0
1261 -3191 0
3614 370 0
902 612 0
3402 3274 0
976 281 0
-2935 1089 0
327 1164 0
-1135 1331 0
-1853 494 0
888 899 0
2355 -339 0
79 -2585 0
513 -1704 0
-2855 -526 0
-3649 -3235 0
2346 87 0
-1839 -2576 0
1278 252 0
2989 -2707 0
2642 1418 0
2674 -2788 0
3436 -3094 0
-2197 2853 0
311 -1340 0
-3567 -2144 0
3154 -615 0
-202 3223 0
2886 -2461 0
1380 -711 0
-2710 1547 0
871 -2018 0
2088 -697 0
2592 281 0
1973 835 0
-3037 2152 0
-1598 -2643 0
2911 2815 0
245 -3289 0
-587 -2371 0
743 -1 0
2126 2219 0
1418 -55 0
-501 -1476 0
-442 638 0
-2775 -3650 0
-2240 1047 0
-998 1753 0
-3608 2547 0
3328 -1147 0
1585 3634 0
3108 -1238 0
-656 1326 0
-1185 -335 0
-1825 3292 0
1855 1028 0
2670 1125 0
-1961 -3468 0
-1489 1667 0
-2743 -406 0
-1797 1632 0
-2351 -2169 0
391 -1491 0
1220 -3160 0
-1020 -2637 0
865 -1264 0
2916 -2760 0
3405 -2265 0
-1240 2960 0
-586 1809 0
-2592 -726 0
-80 -1081 0
1335 -1777 0
-687 2608 0
3620 976 0
1072 3374 0
1150 415 0
523 2409 0
3645 2234 0
929 1494 0
-691 -94 0
-3224 -2740 0
2223 -951 0
2783 2139 0
2401 1747 0
3238 3075 0
-2112 473 0
2101 -1278 0
-982 1869 0
126 1170 0
-461 -2795 0
-3556 -2841 0
1973 84 0
2732 -782 0
-2027 -2214 0
-1502 2106 0
2445 -1066 0
-1416 1786 0
935 -2670 0
1643 -3215 0
3293 2321 0
-3584 -1314 0
3182 3298 0
3512 3546 0
-2629 3031 0
2200 3523 0
156 -1397 0
1159 294 0
-2917 -445 0
-2967 -319 0
-381 1281 0
-1953 2529 0
-2702 2909 0
-410 -1263 0
-1132 -3235 0
3325 3458 0
-3617 -484 0
-1574 1295 0
598 -194 0
-2270 -1084 0
-1017 1808 0
731 -365 0
-1760 777 0
-1495 -2970 0
-2828 -3426 0
2811 893 0
-353 1986 0
-3650 -1353 0
917 -336 0
-2757 -639 0
-333 3434 0
-869 2297 0
-3036 -2257 0
542 -1131 0
-3096 3589 0
-792 2728 0
1319 796 0
909 -1185 0
-2054 3180 0
-1587 2993 0
-2507 -1606 0
-2981 -1578 0
3189 -926 0
-3334 -2075 0
500 3221 0
2265 1325 0
3011 -1943 0
-2237 -2420 0
-1863 2594 0
-2469 384 0
3045 1995 0
693 -1758 0
-3373 3570 0
190 -1547 0
967 -1368 0
1110 1197 0
-105 379 0
-3614 -2714 0
-2761 607 0
-2892 -3011 0
444 -1784 0
260 -24 0
2267 -1865 0
1611 -3131 0
-2407 3347 0
111 -1722 0
-3650 -3635 0
3225 170 0
-2541 -1598 0
1151 2385 0
1690 -2854 0
-1671 3593 0
2086 -1819 0
-1872 2462 0
-3310 3113 0
366 -2665 0
3002 -2239 0
-2448 -1435 0
-2526 1214 0
-316 650 0
-2909 -2127 0
86 -1352 0
949 3580 0
1704 786 0
-1200 -824 0
-3263 -1543 0
2192 -3515 0
-633 1382 0
3188 -233 0
-1496 3273 0
-1844 3362 0
2278 2145 0
-3409 -3212 0
-2797 1264 0
-3317 -1012 0
-1793 603 0
-259 -2141 0
-2574 -3507 0
3545 3358 0
1183 -2063 0
-3327 3205 0
566 -464 0
1421 2878 0
-2848 3098 0
222 1366 0
1370 3268 0
2803 2411 0
-2505 3100 0
1492 387 0
-2623 925 0
-3404 2611 0
2201 1389 0
1931 3129 0
743 -720 0
-2434 -1354 0
1442 3422 0
1339 899 0
2572 129 0
2955 981 0
1874 -2107 0
422 1159 0
3277 1822 0
3473 -197 0
-1677 1110 0
-2711 -1688 0
1140 3063 0
889 -1202 0
2149 3541 0
-212 -806 0
3411 307 0
2145 3227 0
58 2683 0
-1699 -342 0
-3072 -1598 0
-2646 3565 0
-1275 -1651 0
-3534 3291 0
1603 595 0
-2316 -3404 0
-1680 3183 0
2186 1919 0
703 250 0
-2199 -2232 0
-15 -2516 0
384 876 0
933 -1288 0
1997 2284 0
-340 -2919 0
-44 -3345 0
2771 999 0
-1108 -2527 0
2113 2890 0
1377 -66 0
-3368 -814 0
-1226 2536 0
-1459 887 0
-1096 -3058 0
2974 843 0
-2357 -1846 0
141 -3047 0
-1520 1186 0
-3525 243 0
-1908 2180 0
-266 3450 0
-3195 1302 0
2971 2857 0
1964 -1911 0
-194 2469 0
-1592 381 0
-3176 2257 0
2089 492 0
-2377 1400 0
-2289 -1247 0
-1204 -2942 0
1558 -1317 0
-781 -1546 0
-1100 -889 0
-2963 2241 0
-2709 451 0
-2411 1803 0
-1576 1053 0
3299 -2915 0
2360 372 0
-1336 396 0
3114 2910 0
-2718 -1587 0
1238 -250 0
3651 -951 0
3296 544 0
1287 843 0
-2157 2138 0
-1657 -1772 0
3648 -3169 0
-44 -170 0
-1343 -2484 0
