c NF
p cnf 1447 6077
309 1441 0
-1043 123 0
-1270 48 0
251 -749 0
-353 -570 0
-328 -539 0
-647 -159 0
281 -1019 0
616 -1198 0
1299 -952 0
1184 -56 0
633 -1042 0
-343 -1407 0
829 1289 0
-1218 639 0
79 -545 0
-20 -1445 0
921 663 0
-1006 -1439 0
-1326 1044 0
-230 -1234 0
-955 -1030 0
-1128 453 0
-1208 938 0
319 699 0
429 1180 0
876 782 0
1103 991 0
1439 -1055 0
-706 -940 0
474 1185 0
-421 538 0
-461 -257 0
-947 227 0
1318 -266 0
-1357 198 0
-1054 41 0
747 -179 0
661 -1051 0
253 -917 0
-148 -913 0
1077 -1295 0
399 -1118 0
1189 -574 0
25 761 0
978 -1077 0
-1295 -1200 0
1294 -316 0
-853 -102 0
603 -855 0
1395 -1328 0
1183 365 0
1157 1400 0
-831 360 0
481 188 0
675 -861 0
-859 -1013 0
845 103 0
-801 -395 0
-159 -945 0
1387 1164 0
834 -142 0
607 775 0
-1347 884 0
210 -1350 0
581 900 0
1302 482 0
-46 -166 0
-401 1368 0
1062 -364 0
-953 -539 0
-80 415 0
-1020 275 0
1121 -527 0
-268 1180 0
-85 1174 0
323 1108 0
-244 -213 0
-1288 -867 0
238 -404 0
-1250 233 0
-90 1098 0
727 1114 0
-142 -1197 0
-1252 697 0
-975 415 0
678 1128 0
599 -1319 0
-1051 -103 0
-831 -1373 0
-1300 178 0
-715 642 0
-1143 -267 0
-1183 -1067 0
632 539 0
16 -424 0
-645 645 0
1290 -715 0
-810 -376 0
-238 421 0
-1273 626 0
887 -469 0
-993 32 0
-516 -1445 0
-1177 902 0
212 418 0
1227 -1332 0
411 189 0
-1259 -1044 0
-78 697 0
301 -33 0
237 1140 0
-1050 -351 0
-546 -297 0
-1256 450 0
-1049 -754 0
-947 -262 0
172 410 0
-76 -392 0
-908 -6 0
-1067 -180 0
-468 -1091 0
1021 -681 0
-266 -912 0
1319 -1029 0
-787 -723 0
-1226 963 0
-294 705 0
224 -1117 0
-1239 778 0
130 -1039 0
1436 -702 0
397 -816 0
-213 595 0
-1251 425 0
-499 302 0
1197 -1113 0
726 -61 0
706 290 0
-1164 -756 0
131 1358 0
415 -627 0
14 308 0
-1235 -81 0
211 -66 0
687 883 0
1150 -1093 0
-1379 -579 0
-835 -370 0
-955 -705 0
-517 -1336 0
-819 438 0
697 -985 0
264 -330 0
-786 -400 0
1209 -608 0
-1191 -962 0
-1200 -303 0
-1442 -767 0
-197 -1365 0
453 304 0
-659 -867 0
1414 1393 0
811 -47 0
319 -87 0
-1420 -1241 0
-820 -1435 0
812 -1281 0
-942 395 0
1239 -1342 0
556 1269 0
-799 -367 0
-119 1408 0
185 -1415 0
-282 -545 0
-1063 1423 0
-34 177 0
-303 -468 0
964 -1060 0
1173 238 0
-266 1387 0
-807 954 0
-970 913 0
-1218 603 0
-1245 -651 0
62 538 0
-1004 -999 0
1354 1420 0
-161 1014 0
40 -287 0
900 -69 0
451 132 0
-785 -690 0
1286 -530 0
891 -637 0
973 -1101 0
-1093 -139 0
-1165 569 0
806 -560 0
850 586 0
1404 741 0
99 -975 0
643 -24 0
-196 -158 0
-1229 1150 0
-409 -179 0
-1164 -148 0
82 1296 0
115 665 0
1071 843 0
442 200 0
-524 878 0
790 -614 0
166 -677 0
-798 -914 0
1019 -342 0
1223 321 0
147 -988 0
786 -989 0
582 555 0
-1446 1154 0
-252 1230 0
-297 251 0
389 -756 0
741 1439 0
-435 808 0
1260 1380 0
5 -651 0
-795 -1053 0
692 -1211 0
-1417 850 0
-43 230 0
697 44 0
424 1423 0
293 1351 0
622 1424 0
935 -125 0
1392 -225 0
411 1171 0
-950 1436 0
-193 -234 0
958 1392 0
665 1314 0
-573 541 0
-429 -363 0
1250 -320 0
35 -717 0
-736 485 0
-486 192 0
-938 321 0
-873 923 0
210 -900 0
-1338 -1096 0
-612 -949 0
-43 456 0
-1062 -1403 0
558 -33 0
509 386 0
-1325 115 0
-1388 1011 0
647 -88 0
1380 -789 0
420 -881 0
133 -500 0
426 -651 0
-873 -795 0
-400 1076 0
-316 -725 0
233 1241 0
-888 251 0
462 845 0
115 57 0
-258 307 0
440 -799 0
-1427 -437 0
289 742 0
-314 770 0
-911 -939 0
-904 -813 0
-1281 1340 0
-636 -1447 0
325 -473 0
330 -930 0
858 -471 0
1359 -199 0
-742 195 0
-520 -1151 0
1306 -868 0
125 911 0
-1265 -602 0
-1183 -397 0
-684 -157 0
451 -975 0
-1328 -1238 0
-363 1330 0
-1327 606 0
-695 191 0
486 719 0
-1000 -986 0
-1402 -98 0
319 528 0
-236 326 0
305 -688 0
406 307 0
-1253 893 0
462 214 0
1337 879 0
-317 -948 0
875 315 0
-592 -1274 0
-1370 1150 0
1313 -1052 0
-445 -940 0
-950 -967 0
-430 -1091 0
498 -1344 0
383 531 0
-1129 -254 0
41 -1019 0
-894 -303 0
481 -1110 0
1308 -5 0
923 1181 0
-676 -1263 0
-1434 137 0
672 978 0
-397 -341 0
1049 720 0
-412 -172 0
-505 -834 0
-1042 424 0
1287 446 0
346 907 0
-180 608 0
-961 -641 0
308 -432 0
-949 -244 0
997 -372 0
906 -1053 0
-221 -466 0
1423 -807 0
-188 1020 0
1132 1377 0
-17 1302 0
-1131 -778 0
-1260 -1347 0
1002 -1281 0
-1201 1180 0
-1157 -907 0
-728 105 0
-1148 431 0
-402 624 0
484 -868 0
-220 -640 0
1311 929 0
-611 -93 0
-107 -733 0
788 -582 0
-1345 -343 0
-135 -800 0
757 -1219 0
852 -1362 0
515 -400 0
566 655 0
786 610 0
-363 628 0
14 -670 0
-1166 75 0
-1319 212 0
1360 251 0
-599 -294 0
755 -1165 0
379 -614 0
531 1038 0
-1017 750 0
749 -447 0
928 -619 0
-99 938 0
-1387 -849 0
282 -830 0
559 -660 0
592 -133 0
-29 875 0
415 -89 0
-140 -924 0
710 138 0
345 -1287 0
1242 -473 0
177 -1095 0
1213 1001 0
119 1231 0
489 -934 0
-637 335 0
-856 -438 0
-702 -771 0
177 1045 0
95 700 0
-1227 909 0
1296 187 0
1291 1385 0
1311 -689 0
1084 -917 0
-430 -243 0
184 -1413 0
-308 35 0
676 514 0
-698 -1164 0
-142 91 0
902 1346 0
-1036 780 0
1299 -678 0
-652 -762 0
-1391 -718 0
542 285 0
-160 -1353 0
411 392 0
-47 -463 0
-686 1215 0
-1340 -1110 0
-346 699 0
964 -1072 0
-459 -903 0
-1080 -179 0
309 -1303 0
-1280 -1322 0
-956 615 0
-27 1312 0
82 1297 0
-591 -965 0
-1387 1305 0
-1215 -877 0
1094 -1062 0
910 -303 0
326 1084 0
-686 69 0
-677 809 0
650 761 0
1400 195 0
-213 -142 0
1430 -470 0
460 -690 0
-816 1172 0
814 136 0
887 -1390 0
-634 -801 0
-225 914 0
-945 685 0
-1211 -661 0
551 823 0
1223 -952 0
-1403 -1253 0
-504 -807 0
-505 -1249 0
-993 -181 0
-1345 -264 0
-1378 829 0
-516 -823 0
-763 990 0
-1359 1307 0
785 324 0
1075 -259 0
-1287 -1410 0
143 775 0
1330 436 0
-411 902 0
864 1107 0
-409 900 0
1258 481 0
-876 -825 0
-876 -1126 0
-723 -1223 0
-1128 272 0
1364 -703 0
24 -443 0
-373 663 0
-1145 731 0
-1386 -422 0
-694 258 0
-506 937 0
948 -994 0
428 1076 0
-94 432 0
1146 1259 0
233 -374 0
-1201 -945 0
-822 698 0
1116 228 0
-885 519 0
422 214 0
-681 -370 0
-611 428 0
-356 -1284 0
-1398 322 0
-566 -1405 0
831 1298 0
-430 926 0
-212 1365 0
989 -915 0
-206 -751 0
-144 -1114 0
-1252 1052 0
346 -788 0
170 482 0
520 418 0
-5 -61 0
-751 -1320 0
-296 -662 0
-629 797 0
639 918 0
-1213 -615 0
1394 -940 0
978 11 0
-1101 -957 0
-1304 -1364 0
-1203 -901 0
-1284 471 0
-1083 1204 0
811 -936 0
96 -703 0
554 334 0
483 -424 0
-33 415 0
-1357 -244 0
-14 -837 0
-436 -1196 0
-818 -1248 0
-1423 -868 0
387 626 0
-890 -949 0
-354 426 0
1200 772 0
-1088 911 0
821 -1196 0
-736 270 0
293 -1218 0
-1151 -316 0
411 -1111 0
1228 1291 0
-819 -1252 0
-375 841 0
1119 381 0
279 -1045 0
1283 288 0
-1049 1370 0
-1218 -404 0
-582 -682 0
-28 -414 0
-192 -831 0
655 -1443 0
-571 -714 0
-1092 -524 0
-150 291 0
25 -81 0
-1213 -276 0
285 -974 0
165 1276 0
66 1253 0
-685 -1431 0
1206 -224 0
-830 -313 0
-1074 -1131 0
-518 697 0
-402 746 0
-1258 -1317 0
321 -508 0
8 -545 0
-450 -259 0
-765 -801 0
34 959 0
1362 -679 0
30 901 0
1330 1107 0
1144 208 0
457 -458 0
-427 975 0
-1206 -1382 0
700 -284 0
-1060 -1089 0
-990 -93 0
-567 405 0
-913 -1340 0
1427 494 0
-89 1379 0
-863 -1306 0
-305 -647 0
83 -818 0
-760 1337 0
-753 595 0
-298 1288 0
-931 220 0
979 -85 0
1137 525 0
-1284 -1202 0
1130 -81 0
359 -759 0
198 989 0
-683 -1194 0
1068 291 0
-1315 -247 0
-816 393 0
727 241 0
1141 161 0
-1063 1040 0
-1406 -59 0
522 -15 0
1387 1107 0
590 -694 0
1368 134 0
431 1360 0
1309 -33 0
849 -612 0
-119 395 0
-836 648 0
-1220 -1024 0
864 -21 0
-702 24 0
-901 -609 0
1357 -821 0
-1299 -19 0
574 552 0
-93 1085 0
-948 1280 0
-58 -998 0
1130 -626 0
-476 -589 0
385 644 0
957 223 0
578 1040 0
406 -121 0
-871 1215 0
23 -1234 0
925 1360 0
-652 -44 0
-682 568 0
-366 -737 0
1182 565 0
602 -862 0
-229 -509 0
-354 957 0
-1410 -540 0
-1299 -1016 0
812 -58 0
291 -510 0
-164 -388 0
749 -148 0
-161 930 0
-1352 1116 0
-1253 -434 0
-583 484 0
-129 -1263 0
-926 -1388 0
1181 1253 0
16 522 0
945 -763 0
1118 -1234 0
231 -1223 0
-581 -1151 0
324 301 0
-1403 -881 0
782 1079 0
-625 1138 0
663 255 0
-972 -1194 0
631 -1370 0
6 -967 0
1440 -1136 0
1030 -982 0
556 952 0
523 838 0
-258 1059 0
-675 -1332 0
981 -1214 0
450 -374 0
-736 -629 0
-607 -782 0
-872 -341 0
367 -926 0
-861 -270 0
538 -290 0
861 -89 0
-209 1334 0
764 613 0
66 -656 0
57 -310 0
-396 1104 0
-59 -824 0
-838 695 0
774 -813 0
-1261 1150 0
-76 -729 0
984 1062 0
826 24 0
682 887 0
581 1198 0
-1002 -232 0
-426 405 0
-832 1276 0
239 -736 0
182 228 0
-1317 -120 0
-1068 32 0
-1346 1359 0
-67 -328 0
370 332 0
-412 646 0
-767 -165 0
-1194 -1105 0
1114 789 0
1407 -893 0
-165 365 0
414 -698 0
-851 763 0
-106 514 0
-1444 1206 0
-324 1236 0
-244 -1240 0
-31 675 0
522 -206 0
-1326 -949 0
-380 -801 0
-352 109 0
327 -1341 0
1316 559 0
857 206 0
-1228 -1327 0
-1088 -121 0
1270 -283 0
829 -363 0
1406 -934 0
-772 77 0
170 339 0
-853 -1007 0
-117 -413 0
-1159 34 0
-1117 -590 0
888 -547 0
1215 -34 0
1361 665 0
523 -992 0
1244 887 0
307 -992 0
-1323 -328 0
-121 -75 0
285 -130 0
-1353 -265 0
-1252 -962 0
-597 -10 0
-575 -263 0
-508 -988 0
40 -570 0
-245 -352 0
1188 1397 0
1020 -585 0
-1446 305 0
556 258 0
-1321 679 0
419 -58 0
500 604 0
-1353 1332 0
-977 -1269 0
643 -549 0
782 412 0
799 222 0
603 -431 0
960 666 0
494 -1009 0
809 -876 0
151 -612 0
1346 -1124 0
700 181 0
-553 334 0
203 357 0
-897 -654 0
1167 -1315 0
1102 -28 0
142 -550 0
-159 820 0
365 326 0
594 -64 0
1360 -294 0
-1125 -801 0
708 992 0
-550 -1338 0
1371 1 0
1022 -1123 0
399 -1381 0
1071 -1427 0
1079 -649 0
200 957 0
-937 -1048 0
-1214 1293 0
322 -1059 0
444 1279 0
-717 -659 0
-1240 766 0
-1031 -1170 0
-688 -862 0
-776 692 0
-1188 -702 0
958 -496 0
896 -521 0
-1036 971 0
1361 -952 0
153 978 0
1139 336 0
1131 -629 0
463 -1309 0
-1295 909 0
-289 45 0
-261 -722 0
-1378 -1097 0
1404 -1260 0
-728 -10 0
-885 -379 0
-1029 -38 0
-89 1103 0
411 -261 0
-758 -500 0
-649 -152 0
484 1437 0
-764 -271 0
1155 -322 0
1206 275 0
-380 289 0
-957 261 0
-1037 394 0
-1227 -211 0
817 1017 0
-658 -1327 0
-365 -1157 0
-98 -359 0
-28 1375 0
-936 52 0
-938 -922 0
-1208 1365 0
1439 50 0
1434 -753 0
1389 251 0
1059 489 0
399 -300 0
-1361 -296 0
-142 364 0
-1362 -486 0
-1410 578 0
-681 -580 0
129 1354 0
-70 -794 0
-163 -1093 0
460 205 0
-642 -455 0
858 171 0
-1132 -754 0
-267 -1098 0
382 -999 0
994 650 0
28 -261 0
-651 638 0
1123 1199 0
1075 -272 0
966 1232 0
18 -783 0
811 -947 0
129 -639 0
263 1351 0
1001 1232 0
-520 920 0
-1310 995 0
-38 -845 0
1312 1364 0
342 608 0
77 -876 0
479 1137 0
920 1299 0
-270 -246 0
1383 -112 0
511 200 0
-343 -1042 0
833 -492 0
-1068 -1405 0
947 1358 0
41 497 0
-607 -96 0
-593 -549 0
436 -14 0
-1234 1112 0
-952 257 0
380 906 0
-946 -1205 0
282 -1422 0
-1118 103 0
454 -458 0
73 -582 0
-1020 1266 0
1293 -43 0
494 1384 0
1348 1297 0
-202 663 0
100 -48 0
573 -873 0
1099 494 0
-247 24 0
1178 -889 0
-584 493 0
-9 -1304 0
-1379 -1196 0
549 1421 0
878 581 0
-1126 284 0
-121 585 0
-965 -412 0
705 -1336 0
-739 274 0
-1443 623 0
485 -532 0
580 920 0
1137 -865 0
-55 335 0
773 16 0
-386 503 0
-305 -510 0
1184 -865 0
1432 1077 0
-1436 -752 0
1070 -657 0
-401 -1428 0
-70 395 0
105 -969 0
-1170 210 0
-620 -1181 0
121 696 0
-1029 735 0
-547 -112 0
-607 -11 0
1085 380 0
-457 -285 0
429 535 0
-254 441 0
-140 1079 0
917 550 0
-945 829 0
1215 33 0
696 -535 0
-1091 -12 0
854 -275 0
679 120 0
519 -558 0
719 685 0
-1210 -1326 0
-829 -109 0
-803 -1062 0
-1018 960 0
-1401 1439 0
-1378 503 0
-75 -1134 0
383 866 0
-1013 -753 0
219 -869 0
-143 -970 0
-804 -934 0
-991 1272 0
-1283 1249 0
-645 1193 0
-352 -94 0
630 -567 0
-1231 -955 0
904 -267 0
-781 -368 0
412 812 0
-27 569 0
-818 1192 0
292 97 0
137 -1178 0
150 -683 0
-59 -972 0
972 -1403 0
104 -855 0
919 -953 0
814 884 0
646 -629 0
-1168 1278 0
284 -1028 0
51 837 0
-1206 -1278 0
530 -1224 0
1394 133 0
-795 -1405 0
-1235 870 0
-951 1311 0
-364 -730 0
-651 578 0
-896 -11 0
386 -1160 0
-625 -64 0
1411 -935 0
-146 -317 0
382 1404 0
1264 -1343 0
-1273 -933 0
1173 -315 0
727 -1018 0
-1364 1028 0
1272 73 0
294 1411 0
-554 862 0
49 -152 0
-1287 789 0
1062 -383 0
-529 -740 0
-783 400 0
-799 1385 0
-320 1108 0
-792 -1195 0
-1259 -1227 0
-405 -1324 0
-890 -472 0
-941 -301 0
22 742 0
-1046 301 0
-733 326 0
398 1272 0
1046 -1275 0
-1264 -899 0
-640 -86 0
-412 -1271 0
-580 -1363 0
-487 1082 0
22 313 0
603 -1136 0
24 -1064 0
1014 -925 0
-981 -1027 0
282 1070 0
700 -1424 0
1044 321 0
-1329 738 0
-752 -457 0
-641 -1137 0
914 -892 0
-442 1402 0
-517 288 0
-1039 726 0
1098 -375 0
114 280 0
-557 -205 0
806 1023 0
-657 1015 0
-629 789 0
1098 -652 0
1015 1116 0
-989 -1280 0
-19 735 0
1076 480 0
-1175 -1007 0
-124 -547 0
634 1356 0
-1017 -60 0
-267 1207 0
1078 -691 0
-502 399 0
-658 1109 0
-358 279 0
360 -231 0
-654 134 0
-1259 -221 0
1253 608 0
-1258 727 0
-898 -211 0
382 -108 0
766 -352 0
1353 -883 0
-3 -1164 0
-447 516 0
-336 469 0
709 554 0
-861 613 0
-1175 981 0
704 645 0
-732 1236 0
-492 391 0
40 -167 0
1180 589 0
643 282 0
977 -112 0
-1091 1152 0
-1328 643 0
-127 1266 0
36 -530 0
-495 311 0
-1016 -18 0
-970 -1263 0
1308 465 0
-835 1107 0
-57 1199 0
1185 -1168 0
-748 -68 0
63 491 0
1403 -404 0
1131 173 0
834 275 0
671 -1304 0
-364 662 0
-6 549 0
225 1242 0
18 1188 0
-26 739 0
1222 82 0
-419 57 0
1324 -771 0
1285 -64 0
511 406 0
219 843 0
49 860 0
-938 -963 0
25 -933 0
710 1146 0
1105 759 0
-1082 720 0
24 298 0
-66 -783 0
-292 633 0
410 985 0
72 -198 0
-1099 -900 0
460 1441 0
-1332 1025 0
-745 -1144 0
-953 -252 0
1363 452 0
-1009 -1269 0
459 1294 0
436 888 0
-950 1342 0
-163 -383 0
-541 -112 0
-1230 735 0
610 1185 0
-1051 -260 0
-509 261 0
-40 968 0
451 -632 0
-591 554 0
-161 -59 0
844 -582 0
-927 -299 0
923 155 0
52 81 0
37 -242 0
1416 -400 0
-225 45 0
246 -863 0
428 183 0
-880 -1390 0
729 -624 0
-252 765 0
1128 745 0
-294 -534 0
28 16 0
-1251 -36 0
1350 -1324 0
-990 -376 0
-867 -481 0
-2 -1269 0
-1084 1172 0
-1182 -1159 0
-585 978 0
-1135 1059 0
-496 744 0
-251 -1403 0
16 1343 0
-458 610 0
-1052 -265 0
181 820 0
1381 -1288 0
-807 -43 0
636 185 0
-1113 -175 0
-342 -353 0
750 -1226 0
308 1213 0
-1296 -403 0
647 -309 0
-852 -27 0
-444 463 0
-302 113 0
-1179 -271 0
-1255 -195 0
627 301 0
-1203 290 0
913 829 0
-1199 1215 0
1204 -647 0
1296 384 0
-1199 -810 0
-1413 64 0
715 242 0
1201 1281 0
-900 -334 0
171 486 0
347 901 0
-799 -634 0
-1085 735 0
-841 1070 0
-486 -502 0
-239 931 0
1346 208 0
-590 -723 0
624 -1384 0
-285 -1093 0
733 -1148 0
114 743 0
362 -492 0
590 896 0
-657 281 0
300 -855 0
-1212 -433 0
258 -569 0
-691 -101 0
-490 -93 0
949 554 0
1253 1123 0
-1236 48 0
-421 -1230 0
-252 441 0
1402 -262 0
-729 -1288 0
-1218 -426 0
629 869 0
1063 768 0
-1199 -1148 0
321 -1184 0
646 -215 0
264 976 0
-934 965 0
1263 943 0
-743 -869 0
237 -425 0
-1094 1075 0
-1325 1396 0
-591 -435 0
859 -1004 0
-591 -124 0
506 -557 0
18 793 0
-1072 68 0
-985 1421 0
874 1310 0
666 131 0
-350 -863 0
-695 -914 0
-744 1076 0
1226 -273 0
528 -1368 0
-1418 768 0
-659 1116 0
-1096 866 0
-582 -564 0
1206 775 0
1071 -270 0
-1009 -197 0
1232 1216 0
-316 -1259 0
782 -703 0
-1376 1237 0
344 -627 0
1224 1311 0
534 1099 0
-1175 -437 0
1407 -1036 0
-862 872 0
-454 -1089 0
-1295 1126 0
-1151 -469 0
608 1223 0
-1359 1222 0
1147 1263 0
472 -1342 0
1192 1037 0
230 -854 0
-1420 1164 0
-1060 631 0
-629 497 0
811 1013 0
5 -568 0
-1375 814 0
101 -673 0
-1287 506 0
806 -1292 0
-707 40 0
824 -733 0
-1238 1056 0
-74 -1238 0
1258 -734 0
484 978 0
1237 -973 0
-133 -1412 0
-435 -584 0
434 326 0
-1346 -106 0
662 553 0
-721 -273 0
-1329 -116 0
-1142 -337 0
-1091 -1295 0
292 79 0
1102 448 0
1330 606 0
-1023 1037 0
-128 1035 0
-24 -1186 0
-1345 1345 0
-325 -1205 0
95 160 0
-113 -162 0
95 -1401 0
532 -1200 0
318 -945 0
1291 -83 0
-1114 -190 0
1041 1206 0
36 638 0
-38 171 0
1394 902 0
-960 674 0
-810 -591 0
-467 511 0
394 -793 0
-1420 700 0
-690 -755 0
1192 483 0
-1323 136 0
1022 -1016 0
360 -207 0
-314 538 0
30 -685 0
-1071 1398 0
16 -475 0
1428 -933 0
1114 178 0
145 652 0
761 12 0
1235 262 0
215 1356 0
244 1191 0
-163 -1422 0
256 365 0
192 1438 0
241 647 0
863 -1446 0
1311 -1355 0
-1259 560 0
1072 1392 0
122 714 0
727 -148 0
-1065 1094 0
1085 1381 0
-1442 -1077 0
-657 -116 0
-1014 869 0
273 -163 0
-1422 310 0
-752 1286 0
889 32 0
-1424 1118 0
1330 1446 0
-684 690 0
987 45 0
1174 711 0
-325 -475 0
135 1047 0
-308 -303 0
-728 34 0
-106 1393 0
24 1123 0
275 -249 0
15 -913 0
-1359 -68 0
-244 346 0
-74 779 0
-1292 -343 0
-957 396 0
-1270 -50 0
-839 923 0
971 1342 0
-996 -1307 0
-914 -504 0
-82 -1443 0
319 -1394 0
-87 -1442 0
-563 -476 0
-1288 79 0
-545 -955 0
-1382 114 0
-1259 -317 0
137 -1239 0
870 633 0
-1311 -1265 0
-1092 -112 0
-651 -718 0
-825 494 0
-1068 455 0
1409 -671 0
-1431 132 0
-315 -865 0
882 -936 0
453 568 0
451 -1083 0
-792 522 0
1311 -133 0
-1097 -479 0
-151 1114 0
97 -324 0
-1237 -769 0
-1290 -159 0
-616 709 0
205 -1160 0
-988 -1258 0
-903 -1033 0
45 357 0
257 1172 0
1262 330 0
-170 -686 0
864 596 0
-717 573 0
-1169 442 0
-1138 418 0
-67 -788 0
459 534 0
-167 8 0
1192 100 0
-1292 39 0
-573 -347 0
725 -416 0
-121 -409 0
-1077 655 0
806 1085 0
-1385 -508 0
-1281 625 0
41 1271 0
-782 -1275 0
655 -725 0
-305 530 0
971 -848 0
-1415 -91 0
1198 -214 0
-235 1020 0
-152 724 0
272 -737 0
1360 -291 0
628 313 0
-1376 -487 0
41 182 0
-1010 -1308 0
123 580 0
1390 -28 0
455 1099 0
-783 142 0
879 -466 0
-585 1064 0
-162 -1350 0
728 971 0
-1399 1289 0
-61 -1043 0
-1298 -1023 0
850 285 0
285 589 0
605 -440 0
-162 -338 0
586 -1225 0
-930 -90 0
187 4 0
-646 -761 0
1227 532 0
898 -1049 0
832 613 0
-471 1272 0
-859 -154 0
957 -1138 0
-1271 740 0
-985 -372 0
-1088 840 0
-739 -1048 0
-709 804 0
-912 -1226 0
-702 552 0
-575 312 0
-357 -333 0
483 -651 0
687 154 0
-765 -647 0
1028 1032 0
-437 880 0
-1296 -591 0
1191 -992 0
-540 -137 0
289 -694 0
-153 750 0
542 -501 0
-1129 1185 0
-792 -4 0
-138 50 0
-1271 1181 0
1114 4 0
770 -578 0
155 1113 0
-1023 -915 0
-550 -940 0
-855 289 0
-387 -591 0
-311 -1413 0
-1303 -705 0
-467 -1281 0
-1442 -942 0
622 -1353 0
200 989 0
-1097 -814 0
385 -94 0
623 -1040 0
-748 1179 0
910 -481 0
621 -1068 0
-307 65 0
-518 -603 0
754 1174 0
1209 1007 0
-733 -467 0
-1166 -882 0
601 -1419 0
-1214 -1214 0
-619 -475 0
-1418 327 0
-1125 -41 0
-589 -148 0
33 -1208 0
-1031 1392 0
1269 1087 0
-129 870 0
-333 910 0
404 -758 0
-9 330 0
-1149 -1059 0
-148 524 0
318 -634 0
-277 306 0
1431 929 0
-1345 355 0
-986 348 0
304 -553 0
-571 852 0
1383 1044 0
957 -75 0
-149 1122 0
1137 266 0
-450 676 0
561 650 0
-1078 -1402 0
-712 -1008 0
1026 960 0
613 828 0
-1091 -795 0
-635 -849 0
-1251 -140 0
1429 123 0
-863 467 0
1362 -527 0
1099 -1097 0
-508 838 0
-333 294 0
-376 -89 0
827 -33 0
835 -459 0
-401 -295 0
-1269 1268 0
-142 1069 0
-742 -1024 0
-1158 -137 0
1127 -1201 0
-1403 -772 0
-391 910 0
-389 -402 0
79 -894 0
-651 867 0
1122 -65 0
-942 -1296 0
-1425 -1032 0
74 -439 0
1226 1184 0
-565 -915 0
198 -159 0
98 -432 0
-458 563 0
-632 315 0
1420 -232 0
-1104 486 0
1339 33 0
-897 436 0
860 -109 0
-640 842 0
-336 -694 0
-139 -236 0
-560 1330 0
-21 -866 0
-142 443 0
1152 160 0
1154 1311 0
917 289 0
613 854 0
1299 -662 0
-431 -1031 0
964 -359 0
10 1237 0
1432 -1051 0
520 -1097 0
-1346 -194 0
-783 891 0
-964 -897 0
-711 -1087 0
1293 -1145 0
-31 -989 0
-645 724 0
514 351 0
-1267 -739 0
-239 -917 0
-396 -673 0
721 1357 0
-722 -744 0
395 194 0
-1268 514 0
1443 442 0
-329 379 0
523 1041 0
-1351 732 0
-189 -1207 0
-325 -881 0
351 -192 0
1290 648 0
624 577 0
-1240 283 0
126 312 0
-259 334 0
1025 405 0
630 1149 0
911 -1296 0
-393 949 0
724 368 0
-166 1041 0
-682 1269 0
-162 1094 0
48 -1192 0
915 -33 0
1009 -194 0
565 -1151 0
-718 769 0
-590 696 0
-1412 -258 0
195 727 0
291 -1031 0
-1210 724 0
480 -338 0
-249 -547 0
-104 398 0
365 -1135 0
197 -159 0
-540 723 0
-1307 1130 0
-270 311 0
1185 -510 0
-1251 812 0
-369 514 0
-1168 -1413 0
-569 798 0
-266 1003 0
-138 -1017 0
1251 452 0
-818 1003 0
1421 1360 0
529 -1023 0
470 -358 0
-487 -1409 0
1036 858 0
-26 -1190 0
-4 -567 0
1360 -303 0
1354 -718 0
1137 6 0
523 242 0
-1415 -283 0
603 -861 0
-1399 -1294 0
-965 -270 0
-237 -706 0
-975 -1393 0
647 -1296 0
1307 -799 0
874 724 0
493 -426 0
-48 1421 0
959 -295 0
-400 -1050 0
-1151 -985 0
86 84 0
-1439 -1078 0
784 1390 0
348 346 0
1017 -746 0
210 -622 0
-541 -110 0
-509 1058 0
-76 -1333 0
-527 366 0
666 -1332 0
446 524 0
104 1298 0
630 155 0
-317 733 0
978 99 0
-1419 13 0
1108 398 0
-89 -53 0
-47 899 0
1403 -974 0
-209 -499 0
-28 -938 0
-769 -1236 0
4 -801 0
-606 371 0
389 -635 0
307 372 0
1367 -707 0
-58 -597 0
228 312 0
-239 1153 0
456 1375 0
558 -926 0
428 119 0
-1083 627 0
547 -568 0
-1332 -668 0
659 -393 0
147 -806 0
-1368 931 0
574 362 0
-705 54 0
-69 -236 0
1254 -544 0
421 364 0
-645 -680 0
732 -498 0
755 -409 0
-526 -96 0
-947 527 0
1123 311 0
137 -563 0
-509 1226 0
-1328 1076 0
830 -109 0
-977 -208 0
-236 -493 0
1224 -554 0
75 378 0
-10 -721 0
-96 30 0
755 -1323 0
-693 -570 0
-273 189 0
-1287 86 0
-566 -1208 0
-1405 875 0
910 213 0
-862 633 0
485 -246 0
-745 -428 0
1150 844 0
201 206 0
-527 -1156 0
-1147 -769 0
-352 -1348 0
478 -437 0
271 678 0
959 844 0
-599 1129 0
-163 1093 0
-1074 1278 0
-359 -507 0
-303 714 0
-801 284 0
-825 -156 0
-867 -1018 0
-1238 -242 0
-194 -416 0
-713 -1131 0
872 -1095 0
-752 377 0
1416 1119 0
775 -1078 0
-346 1219 0
-1260 1312 0
1438 272 0
-467 -1262 0
709 -363 0
424 91 0
797 678 0
-1332 1360 0
-296 1316 0
497 -676 0
943 -1389 0
1365 655 0
682 1145 0
1272 986 0
-730 1071 0
-67 -560 0
-951 1058 0
76 -374 0
-266 -696 0
492 -1097 0
-148 238 0
322 -1091 0
-376 770 0
516 792 0
-418 1176 0
-930 -885 0
1314 398 0
666 -1446 0
1143 911 0
1129 497 0
-320 326 0
1251 195 0
889 233 0
418 -997 0
833 -1327 0
-915 395 0
-1422 837 0
951 -715 0
1157 1113 0
384 856 0
-216 -558 0
-1431 -1036 0
1127 -517 0
-876 386 0
1047 634 0
674 244 0
-1169 -113 0
-847 14 0
766 346 0
1124 -354 0
-739 1277 0
949 74 0
1341 -1 0
1323 1373 0
-871 1260 0
1436 -169 0
1009 1041 0
-727 368 0
883 -942 0
357 114 0
189 -703 0
1230 -1428 0
902 1442 0
78 -869 0
-253 -1073 0
-1187 -1295 0
499 -1160 0
1171 439 0
459 419 0
-169 929 0
860 -1189 0
1411 -1295 0
1116 120 0
539 -989 0
697 642 0
976 702 0
-1166 -561 0
761 1069 0
-980 -1101 0
-372 -476 0
1375 925 0
-1196 153 0
-507 621 0
1241 256 0
506 1390 0
-159 125 0
-1208 -1262 0
-680 -42 0
-1333 1127 0
503 -232 0
802 994 0
564 -583 0
-209 468 0
1318 546 0
-1169 -15 0
421 -1332 0
-985 1152 0
1340 -571 0
24 -573 0
108 1299 0
-588 -1007 0
-61 562 0
-737 -591 0
997 1410 0
902 681 0
726 -72 0
-651 495 0
-183 -880 0
896 311 0
-502 -598 0
-1239 522 0
-620 -739 0
-70 1270 0
685 -1095 0
-1134 1132 0
620 -762 0
-932 -498 0
626 -1424 0
-1427 -448 0
-903 -1078 0
14 120 0
663 -1218 0
834 -1157 0
696 738 0
1013 993 0
446 -1069 0
-242 1038 0
-64 1068 0
-944 1167 0
1093 -1118 0
1071 -865 0
-854 -124 0
840 559 0
264 -1340 0
-255 -806 0
-542 -1320 0
-1276 1003 0
623 1012 0
1242 314 0
455 -1332 0
-791 4 0
-557 -325 0
955 -636 0
-199 -487 0
772 688 0
-1031 447 0
-491 -489 0
-1152 719 0
755 408 0
-683 -1308 0
-1355 1133 0
-458 184 0
-881 -1019 0
1258 -1332 0
-851 839 0
22 386 0
-867 954 0
-50 -896 0
-823 1440 0
-1125 60 0
-590 349 0
-216 220 0
-46 1264 0
1103 -593 0
-664 -1121 0
218 712 0
67 -1238 0
-1288 -1108 0
199 500 0
-954 -1162 0
626 582 0
1246 548 0
1055 812 0
271 462 0
-664 -962 0
1028 512 0
-852 1044 0
-1018 -253 0
-1252 614 0
-266 836 0
30 -1015 0
679 -474 0
667 902 0
-59 4 0
1309 -874 0
-685 -1397 0
-1319 413 0
-1212 262 0
565 581 0
1139 1310 0
935 590 0
-1440 -1189 0
-290 398 0
-757 309 0
-992 -203 0
11 -1303 0
-1159 -242 0
-652 208 0
874 455 0
-1403 -785 0
-815 -400 0
490 -1056 0
1434 -601 0
1223 -715 0
527 1037 0
-568 -477 0
1384 -1235 0
-1099 -254 0
-1010 193 0
-1407 -1095 0
552 1109 0
-466 -1255 0
175 497 0
-1440 451 0
-1225 -73 0
-892 -1368 0
1411 821 0
295 376 0
90 258 0
-359 -1320 0
-851 1045 0
-1077 1254 0
1411 114 0
-380 155 0
-1321 -190 0
-509 70 0
12 1414 0
1103 1102 0
-929 1109 0
368 575 0
635 -130 0
866 -129 0
-417 940 0
910 -215 0
-401 -1430 0
1337 -207 0
-1342 -1006 0
-821 922 0
1098 -631 0
566 565 0
-683 1195 0
519 767 0
-980 -1170 0
-1079 797 0
-306 351 0
1053 -1016 0
516 727 0
1156 661 0
-757 -475 0
-925 -80 0
-139 356 0
879 -1185 0
-1193 -94 0
-684 1023 0
-1421 -422 0
-1332 -96 0
922 738 0
706 -236 0
721 512 0
-175 1174 0
820 -1200 0
-231 -931 0
1112 845 0
1155 979 0
-1050 -1100 0
866 -148 0
696 480 0
-320 -795 0
-647 1114 0
-310 611 0
-955 1246 0
-381 -773 0
708 145 0
1014 -344 0
-1134 -306 0
-94 -1136 0
1266 129 0
-1330 183 0
321 -308 0
-636 -374 0
-465 -407 0
297 -162 0
1327 -1336 0
821 -847 0
-1278 -143 0
-419 899 0
489 -1187 0
1014 -195 0
-31 -1162 0
264 -686 0
-1111 -795 0
-1010 959 0
562 65 0
-702 628 0
-690 570 0
-489 -930 0
-482 114 0
601 -1433 0
-397 1358 0
-863 1307 0
789 -808 0
-1080 -657 0
-1266 -1408 0
-4 49 0
-225 -746 0
1071 1106 0
-148 -118 0
864 -1073 0
-610 1054 0
-776 -1103 0
-260 -489 0
258 850 0
663 788 0
-515 482 0
-92 -384 0
-121 -858 0
458 1143 0
-1320 1121 0
-895 -1157 0
904 149 0
-1249 -1428 0
-263 -58 0
796 224 0
145 331 0
666 998 0
-571 588 0
-331 -144 0
285 -493 0
-1240 -1443 0
-179 1103 0
363 484 0
-900 -43 0
528 854 0
1155 829 0
-1350 -1428 0
-501 78 0
-1259 -1337 0
-810 1353 0
-1329 -1424 0
-893 -1115 0
1439 -1014 0
1224 -489 0
1396 -462 0
-718 -218 0
7 -898 0
-1379 325 0
-419 264 0
-1359 -1327 0
-227 834 0
285 -88 0
-438 -240 0
-20 264 0
1099 82 0
887 491 0
909 528 0
-303 -109 0
129 -984 0
-594 200 0
594 946 0
-314 -387 0
1285 1126 0
-1287 659 0
1219 1067 0
8 -635 0
876 -1241 0
1116 24 0
1270 -414 0
-1241 -646 0
205 -170 0
-1239 881 0
-1140 514 0
-603 -355 0
-419 1033 0
-1315 -1087 0
-55 462 0
-698 607 0
-1427 1059 0
540 182 0
51 1408 0
1365 -1198 0
-1348 -636 0
57 -590 0
-215 -1278 0
503 -639 0
-530 227 0
-773 -522 0
779 -296 0
638 -1324 0
977 295 0
291 154 0
749 -1218 0
-557 495 0
-85 -297 0
963 605 0
-978 828 0
1385 -773 0
1072 -1043 0
1038 810 0
77 648 0
171 57 0
395 664 0
-641 784 0
-877 1322 0
442 365 0
-803 -763 0
438 -359 0
1237 833 0
481 126 0
196 1184 0
-849 1135 0
-1319 -1172 0
-571 483 0
-769 -1087 0
480 -815 0
548 1253 0
-384 -268 0
-1213 -1137 0
678 -1250 0
1161 1 0
-1344 1141 0
-457 -461 0
906 -509 0
-1386 -259 0
792 -813 0
-71 228 0
-649 -61 0
238 -769 0
-314 1235 0
-326 -1282 0
-483 738 0
-509 -199 0
578 -423 0
1188 -1301 0
-266 -1239 0
1438 -632 0
-1349 1043 0
376 -492 0
-1105 626 0
-1294 -294 0
198 -71 0
-724 1145 0
-985 359 0
-801 -694 0
799 24 0
954 1297 0
446 -1257 0
-526 -197 0
178 1383 0
-305 754 0
442 741 0
-740 586 0
493 -557 0
-876 1407 0
-320 741 0
-1050 -765 0
-947 -299 0
415 572 0
772 -143 0
713 -1337 0
-361 1172 0
839 -1314 0
382 474 0
573 610 0
-1303 -357 0
913 381 0
-1399 -776 0
-1101 -690 0
222 1368 0
764 1145 0
-16 899 0
-1252 -1326 0
852 -1068 0
-686 -422 0
1132 648 0
-803 922 0
-179 1162 0
-138 -303 0
-355 465 0
-1359 -479 0
-139 704 0
-1067 487 0
1025 -1395 0
-698 -264 0
169 1109 0
311 -833 0
874 649 0
-1128 670 0
-933 1025 0
1357 -668 0
-560 -1335 0
-247 764 0
-634 1349 0
-921 183 0
-1219 -1304 0
333 -96 0
711 -1389 0
961 -1239 0
1030 -270 0
-859 -140 0
-1124 490 0
806 674 0
-795 1129 0
-401 -998 0
-1340 -965 0
-1104 -536 0
-534 -836 0
-1025 -28 0
1283 -1214 0
-947 -725 0
-683 -783 0
697 -1431 0
-863 160 0
1229 52 0
-986 -1438 0
-1212 -1109 0
-504 -116 0
120 -802 0
4 -1042 0
-877 -566 0
1360 911 0
703 1426 0
-107 1192 0
-1261 6 0
606 315 0
789 -617 0
-939 1209 0
-950 1402 0
459 -429 0
-252 818 0
-395 1191 0
-55 -1067 0
590 693 0
1096 -358 0
-799 -487 0
-1075 -848 0
158 136 0
-1161 -520 0
919 -356 0
-380 -1445 0
-1345 794 0
-1095 -196 0
-838 -805 0
-752 -844 0
912 1357 0
-1074 59 0
-243 549 0
-1257 1420 0
418 1187 0
1339 -390 0
-1029 180 0
624 790 0
714 -1239 0
-179 1147 0
-1092 -888 0
959 752 0
-850 219 0
1351 755 0
-1032 216 0
893 311 0
-1158 -453 0
972 1169 0
-409 137 0
230 -1376 0
350 643 0
1262 11 0
-271 -360 0
-76 -1239 0
1103 -138 0
221 -396 0
1133 972 0
79 1355 0
-442 -1168 0
1201 398 0
505 -745 0
-1283 -892 0
-851 1037 0
1345 784 0
-1207 -1149 0
799 44 0
1424 -691 0
-262 165 0
959 -1245 0
-1324 362 0
-146 590 0
-440 -317 0
-992 -262 0
-109 -499 0
-1166 -644 0
-1337 -659 0
556 374 0
264 187 0
1072 -1301 0
1224 460 0
-808 -194 0
-800 -684 0
779 1010 0
-1249 1034 0
-1203 -1326 0
784 527 0
586 -95 0
1219 764 0
-1444 92 0
-219 679 0
-514 -19 0
491 741 0
-277 241 0
1061 -1359 0
-717 -199 0
-17 -575 0
-577 -1186 0
-466 -293 0
797 -563 0
100 -718 0
513 -752 0
-426 101 0
-968 741 0
779 694 0
-1345 -401 0
-811 960 0
-1261 -851 0
-1029 -1204 0
1206 263 0
145 606 0
-1043 1234 0
-357 378 0
-1049 556 0
688 -587 0
929 572 0
-899 1201 0
891 -27 0
-1324 497 0
-1097 -1173 0
-1076 720 0
1323 1270 0
699 -384 0
1351 -608 0
748 35 0
-527 603 0
-438 1158 0
-1293 995 0
-1032 553 0
559 -645 0
-487 615 0
-27 1361 0
-682 -370 0
229 -1101 0
-926 -730 0
-39 -1433 0
556 -1279 0
794 891 0
399 -671 0
1014 -1178 0
56 -1061 0
-498 54 0
-102 470 0
-1239 -1445 0
-127 234 0
-765 1269 0
-426 217 0
708 -302 0
-1032 887 0
-1444 869 0
-781 946 0
352 -777 0
-618 193 0
-1324 -414 0
-402 1098 0
393 398 0
724 -45 0
26 -501 0
334 438 0
936 339 0
742 1112 0
-190 41 0
-324 458 0
182 -734 0
-1270 178 0
-2 -180 0
-966 47 0
983 -944 0
-675 -1039 0
1298 -1417 0
647 -359 0
-485 586 0
-113 -975 0
-1080 97 0
695 -289 0
-759 906 0
-1131 -554 0
-1413 -1017 0
742 1367 0
-913 -646 0
-158 -699 0
1176 108 0
-933 -1043 0
-1131 129 0
678 -412 0
14 79 0
553 -540 0
-1386 1321 0
1221 -1334 0
168 556 0
1243 920 0
632 -1392 0
-819 -333 0
1384 -295 0
828 444 0
-13 -397 0
-501 421 0
-266 -952 0
10 -982 0
-895 -1405 0
-360 -1132 0
-1420 424 0
-973 -576 0
-1121 74 0
696 -238 0
89 -501 0
95 236 0
-914 213 0
204 450 0
-1422 -618 0
-1322 256 0
-812 1021 0
-570 -947 0
471 630 0
1381 446 0
1337 801 0
1202 -353 0
421 618 0
1171 -1239 0
875 -1283 0
1026 40 0
-1101 -1239 0
789 -771 0
-127 282 0
-977 1258 0
1053 151 0
444 1057 0
-1250 -1048 0
-698 1264 0
114 406 0
-1270 824 0
1341 -64 0
-1412 503 0
-853 505 0
473 782 0
808 32 0
1364 399 0
400 586 0
-1405 -736 0
905 1269 0
-404 -598 0
952 1127 0
-170 -460 0
1275 -1422 0
157 -541 0
-1282 1335 0
824 -372 0
1193 301 0
-487 -839 0
282 1171 0
-489 591 0
-201 1439 0
-1039 567 0
-1177 -1171 0
-841 -894 0
176 854 0
-98 -1289 0
-925 922 0
365 -172 0
-567 849 0
-402 -1379 0
1439 -907 0
1379 -656 0
529 -163 0
165 1315 0
141 1377 0
1014 13 0
802 789 0
904 1201 0
250 -1271 0
1337 -575 0
-73 449 0
1041 -1005 0
647 184 0
313 -986 0
-746 -9 0
-914 -393 0
-1317 375 0
298 1414 0
736 973 0
-1364 -725 0
230 700 0
1168 -197 0
462 1355 0
-886 154 0
-649 474 0
-660 677 0
1061 1012 0
-21 -736 0
1245 170 0
454 759 0
553 1309 0
1158 25 0
-232 160 0
-316 -7 0
162 233 0
-640 -614 0
730 351 0
566 -417 0
-674 -225 0
1018 -924 0
309 740 0
-96 -303 0
-1138 -665 0
1141 -413 0
379 602 0
451 1425 0
-915 304 0
-33 -262 0
-744 955 0
-1307 1071 0
-1386 1319 0
-795 916 0
544 622 0
334 -146 0
-753 448 0
1140 296 0
970 -341 0
766 929 0
1237 786 0
1079 -1413 0
525 -10 0
635 -1419 0
-275 178 0
357 -765 0
987 1098 0
-1228 1410 0
286 -202 0
-64 -878 0
727 996 0
-688 585 0
-338 1092 0
-916 746 0
-180 -1061 0
-664 814 0
-753 -1137 0
1058 -1374 0
-844 -439 0
-1015 -123 0
1216 -442 0
-1255 1242 0
-881 -1355 0
-391 783 0
704 35 0
-245 -1050 0
-780 727 0
108 -1364 0
735 -1096 0
-543 1041 0
1102 -106 0
-1196 -661 0
-959 870 0
-596 -67 0
110 -1303 0
-1243 1357 0
1038 -271 0
1360 -138 0
1367 442 0
-202 1419 0
228 1016 0
856 1099 0
-618 1105 0
-970 1045 0
-295 78 0
542 1026 0
441 237 0
-344 -486 0
-204 1305 0
336 1417 0
-864 512 0
1008 1040 0
-1278 -533 0
1224 -716 0
497 -646 0
739 -1270 0
-377 210 0
1405 1260 0
621 44 0
-800 32 0
223 -60 0
1297 878 0
-290 -1257 0
-249 365 0
-482 1358 0
-1385 -1039 0
-390 -457 0
835 1331 0
538 -914 0
-70 -690 0
-738 48 0
1258 1017 0
347 -470 0
810 840 0
-139 -350 0
-629 -97 0
-435 -689 0
-499 1311 0
147 1076 0
-1208 503 0
-499 -884 0
678 -496 0
-489 -1196 0
-1298 943 0
-1227 111 0
132 365 0
-1169 -975 0
520 -244 0
-119 1279 0
1026 -1342 0
-1274 130 0
-935 561 0
-158 -239 0
-44 -1168 0
-581 678 0
949 448 0
1265 184 0
-333 442 0
1040 -262 0
362 812 0
1270 104 0
835 1185 0
1379 -1287 0
462 -599 0
-608 -1093 0
923 206 0
-1368 1344 0
-541 -1179 0
1153 -139 0
-85 1112 0
-472 491 0
346 336 0
757 -196 0
535 -1108 0
1144 -949 0
-684 -854 0
-554 -1405 0
572 1392 0
-614 310 0
-694 577 0
187 201 0
-1009 -1186 0
155 -464 0
775 -1310 0
-1034 -203 0
-1390 -458 0
40 -1337 0
1318 -1284 0
-328 1122 0
-569 83 0
-886 1245 0
49 -58 0
-58 -928 0
276 -50 0
1035 -1388 0
-1174 90 0
602 -281 0
-59 174 0
-1234 696 0
-1103 -815 0
873 824 0
482 -820 0
779 -540 0
-1043 383 0
-912 125 0
-80 500 0
-758 -718 0
-550 -798 0
-892 -325 0
1399 84 0
917 1145 0
1372 -857 0
-476 840 0
-1088 1032 0
-830 -29 0
-10 594 0
1102 -101 0
616 498 0
300 1219 0
327 647 0
-906 -651 0
-1347 561 0
-1236 -1279 0
-1094 -1031 0
275 653 0
-121 -1048 0
-1034 742 0
1228 -792 0
351 912 0
191 1029 0
190 9 0
548 883 0
306 378 0
436 1025 0
-298 -613 0
-31 1242 0
-1150 1193 0
-1327 131 0
-1257 1379 0
740 295 0
523 -407 0
535 68 0
-358 -1343 0
481 922 0
1198 672 0
-795 -461 0
934 440 0
-13 1141 0
835 -884 0
1192 -719 0
859 -977 0
893 -897 0
895 -508 0
-531 -370 0
-363 -39 0
-433 227 0
-276 -163 0
212 1300 0
394 -791 0
452 -213 0
-1086 -729 0
-1248 -855 0
-992 -656 0
-157 274 0
-895 1309 0
1439 190 0
662 -1273 0
1042 -771 0
-533 -945 0
465 -687 0
1314 357 0
1119 -1267 0
402 665 0
1400 1059 0
-568 -659 0
-116 529 0
-356 1384 0
-686 -788 0
11 -1291 0
1044 893 0
-522 -743 0
-1332 515 0
-1083 674 0
549 -1278 0
1055 -1442 0
-1029 1052 0
308 -1031 0
-562 1439 0
-111 1010 0
518 -342 0
868 -657 0
-1149 184 0
-758 -199 0
484 -1094 0
-62 631 0
217 1045 0
-1089 -337 0
-395 -944 0
1190 1366 0
-491 -991 0
971 -539 0
-238 78 0
-994 -1006 0
-1099 -992 0
-957 1261 0
600 107 0
655 644 0
-1207 986 0
-320 -625 0
1107 994 0
-231 101 0
-799 436 0
960 254 0
-367 -822 0
470 -607 0
-486 -219 0
79 -1006 0
-277 -1156 0
-651 -401 0
1246 601 0
734 -1009 0
-751 -694 0
1107 266 0
693 414 0
-576 104 0
-1241 -1343 0
-496 150 0
-88 411 0
-880 -1420 0
976 -290 0
893 789 0
731 824 0
-1284 -1018 0
474 -1320 0
-689 1029 0
-143 -1175 0
-382 -851 0
-54 -1262 0
-416 1160 0
-1164 118 0
-1340 376 0
-1332 695 0
-1332 -102 0
-743 -626 0
-847 -776 0
-389 -886 0
-47 -93 0
-420 -359 0
-933 -912 0
861 -1427 0
398 864 0
-765 -845 0
178 356 0
147 -1023 0
-489 732 0
1188 410 0
621 -508 0
-813 -1164 0
1309 -158 0
-473 -526 0
1245 1226 0
1190 -1212 0
-293 1090 0
-802 1090 0
-940 459 0
1147 1275 0
1441 1000 0
623 805 0
1198 -419 0
-1015 216 0
605 -384 0
1394 549 0
317 1173 0
-1089 903 0
660 1244 0
664 741 0
839 635 0
30 -158 0
1255 -1427 0
1027 -1021 0
141 -994 0
211 854 0
700 114 0
984 -240 0
-141 99 0
-1161 -1295 0
-476 -531 0
329 -541 0
-1254 -1203 0
1021 -636 0
-818 679 0
-1228 608 0
524 -646 0
180 -1327 0
-914 -960 0
-270 237 0
-644 -942 0
-252 -991 0
1275 -74 0
865 842 0
-311 1027 0
1179 -876 0
-755 -92 0
1425 828 0
-310 -426 0
309 100 0
413 -583 0
-164 919 0
506 24 0
709 1140 0
-269 357 0
-1208 -660 0
711 442 0
832 386 0
407 -393 0
-245 -1248 0
-763 -320 0
486 1081 0
486 872 0
735 -91 0
997 -489 0
-695 -886 0
-954 -1401 0
1081 -1205 0
-599 736 0
-1382 -578 0
-341 288 0
401 -1188 0
-1237 -627 0
-207 978 0
-1158 82 0
205 -1191 0
727 -1057 0
290 448 0
-1067 1301 0
61 829 0
779 856 0
-808 286 0
-519 -986 0
-990 210 0
-718 -1333 0
-1372 -1279 0
900 1172 0
969 263 0
1236 -821 0
-99 -1169 0
-489 -344 0
-245 25 0
-957 -146 0
-1008 892 0
-534 973 0
143 -1420 0
1443 996 0
-76 -769 0
610 604 0
-792 322 0
1116 -667 0
-406 -1296 0
-1440 1396 0
-1356 968 0
-255 969 0
-517 959 0
-226 -1382 0
454 -658 0
-548 -580 0
1100 -611 0
-1413 1412 0
-1400 -707 0
832 1438 0
1423 1317 0
-527 -1307 0
334 -326 0
227 -283 0
223 -471 0
-269 -1332 0
-349 -873 0
264 248 0
-370 1310 0
850 1300 0
1230 603 0
566 -1049 0
-577 1155 0
-1121 67 0
-130 -787 0
274 149 0
718 -1159 0
-752 311 0
230 -1335 0
212 -504 0
-992 -375 0
1064 1259 0
-40 856 0
-1096 -495 0
-38 -467 0
552 166 0
-259 -120 0
236 605 0
-1010 1206 0
1250 -1148 0
1146 410 0
206 -1099 0
495 -1262 0
-1401 -264 0
-1007 595 0
698 -146 0
601 195 0
-747 291 0
-438 -811 0
622 528 0
-204 834 0
-298 -775 0
-432 976 0
240 1363 0
865 812 0
-241 1113 0
-341 -1005 0
-1319 1236 0
-1229 144 0
1085 -5 0
-995 171 0
1144 37 0
277 506 0
-1108 -1086 0
-755 -1190 0
893 277 0
-166 -1093 0
186 142 0
-212 -627 0
-1086 -1288 0
-991 839 0
97 -119 0
-682 532 0
436 -1211 0
943 279 0
-579 -242 0
-318 -1033 0
-477 -88 0
608 1044 0
418 302 0
-972 -763 0
-916 248 0
429 665 0
-651 -75 0
-69 -1208 0
-1019 45 0
1220 92 0
-1018 712 0
1432 -921 0
1054 -1293 0
723 -141 0
1058 -1184 0
-1419 -840 0
-306 148 0
-1319 697 0
425 -706 0
-1415 1268 0
1141 701 0
48 419 0
-23 1365 0
263 200 0
-254 -403 0
1291 -92 0
824 -221 0
-199 1310 0
-871 951 0
1011 814 0
794 -991 0
-995 680 0
450 67 0
-1288 -547 0
-563 -970 0
-197 832 0
-70 -179 0
-580 -1064 0
60 -1019 0
-345 -739 0
-570 -1257 0
-1290 1317 0
-1324 -59 0
-107 258 0
-649 718 0
1102 -882 0
832 -890 0
15 -1068 0
-835 817 0
-1225 548 0
773 1266 0
-267 -979 0
587 764 0
808 -916 0
-1298 -1295 0
-1056 -164 0
-598 -736 0
876 727 0
1362 302 0
776 528 0
-1364 -487 0
-745 775 0
-884 1053 0
1335 -1083 0
-1282 1202 0
-997 -317 0
963 -930 0
-625 737 0
1001 1178 0
1408 -967 0
481 459 0
-113 107 0
-1208 1258 0
918 -1345 0
-1343 491 0
514 -1393 0
123 -727 0
500 -874 0
-225 282 0
1218 54 0
311 -1348 0
1050 -271 0
-855 727 0
-314 533 0
14 -1419 0
984 899 0
448 1024 0
260 -20 0
446 -613 0
-1068 -1064 0
-116 1439 0
-1273 968 0
-954 764 0
-1168 255 0
-707 796 0
7 1231 0
-244 -1124 0
-605 48 0
105 623 0
-17 336 0
537 -700 0
216 1001 0
1311 -643 0
1058 -783 0
1088 1209 0
931 1026 0
1112 -350 0
-1158 969 0
440 -965 0
-867 1292 0
735 -717 0
112 -146 0
533 -480 0
-935 923 0
-495 -589 0
398 1185 0
773 -116 0
811 -1281 0
189 -96 0
263 314 0
1154 1370 0
153 913 0
-1081 256 0
-43 323 0
1363 -643 0
-1032 120 0
-199 -744 0
-357 461 0
1242 -1136 0
426 108 0
452 12 0
534 -1007 0
702 1204 0
1258 -562 0
-238 -1000 0
-1066 342 0
-236 -586 0
-130 -628 0
-753 946 0
135 -99 0
1203 1294 0
-684 712 0
387 -909 0
913 -407 0
713 -904 0
-774 -447 0
-255 332 0
-1119 532 0
1163 1129 0
-984 -861 0
1084 349 0
253 -118 0
1396 1364 0
-703 360 0
322 817 0
-1224 100 0
-168 980 0
-838 228 0
661 405 0
-949 -1424 0
26 1351 0
-872 -509 0
-897 953 0
373 616 0
-1011 313 0
1129 1030 0
742 -1054 0
-1106 1347 0
428 905 0
568 -156 0
1078 -1016 0
-430 964 0
-577 -530 0
-305 -834 0
-358 1236 0
-931 -670 0
1254 906 0
-397 -175 0
-1093 291 0
1341 343 0
-368 -587 0
590 875 0
-557 -207 0
-967 -224 0
1193 648 0
172 -773 0
1071 743 0
-585 312 0
1301 -359 0
241 -1386 0
-168 530 0
-237 -1359 0
485 -1091 0
361 1276 0
1195 -923 0
237 -142 0
207 -322 0
1332 -1169 0
-1296 70 0
-932 775 0
1193 -1265 0
1041 335 0
865 -541 0
-379 453 0
-1284 -877 0
-177 -1440 0
907 666 0
-946 -704 0
1351 833 0
490 -513 0
203 821 0
660 655 0
-1340 199 0
844 -291 0
-1382 -645 0
263 465 0
-128 -550 0
-1004 -730 0
829 -991 0
1371 -691 0
85 -229 0
806 -1018 0
-1083 -612 0
-400 1285 0
-1089 949 0
1112 -837 0
1339 -486 0
736 -777 0
-497 -1061 0
832 998 0
529 1250 0
1038 -1051 0
850 -118 0
90 -744 0
1097 459 0
-749 366 0
-272 -1077 0
863 -1392 0
1199 1145 0
-269 -1005 0
-947 833 0
418 -447 0
567 -43 0
1082 506 0
-337 -1110 0
1076 -398 0
-1406 -583 0
286 1325 0
-1083 -1202 0
187 136 0
227 572 0
-1261 1102 0
721 315 0
167 -716 0
-467 708 0
-972 1079 0
-636 -772 0
330 -1160 0
-667 -1289 0
1059 -14 0
-763 542 0
577 605 0
-1272 -1270 0
394 663 0
-1181 -1217 0
-55 885 0
479 801 0
-505 997 0
436 -1353 0
452 -514 0
30 -120 0
311 -1347 0
-847 383 0
-1399 -1207 0
-1447 -227 0
951 513 0
131 51 0
-1357 -106 0
608 -737 0
-562 785 0
-1158 -899 0
764 -209 0
368 644 0
834 455 0
779 497 0
-414 692 0
639 -414 0
-194 133 0
-581 -116 0
1332 -748 0
308 653 0
1236 -1214 0
-627 918 0
-797 1268 0
-338 -1026 0
-265 -336 0
-87 -851 0
995 1033 0
-1412 633 0
-497 -1200 0
127 750 0
-956 -429 0
-627 1372 0
545 510 0
681 1372 0
506 -1265 0
-1183 -468 0
1137 182 0
-751 -180 0
-1370 -655 0
555 -687 0
-229 1180 0
-385 385 0
615 -391 0
234 -499 0
-275 -686 0
976 466 0
-776 -878 0
1317 -1304 0
-775 764 0
755 67 0
485 1285 0
-1073 -815 0
-328 -1015 0
840 -456 0
819 784 0
-111 217 0
-651 737 0
198 -1088 0
204 -475 0
1407 1268 0
52 286 0
1357 465 0
-232 227 0
409 721 0
-460 1105 0
-375 -629 0
-857 1094 0
11 762 0
-1136 -1392 0
-50 -931 0
287 1258 0
663 697 0
1392 1381 0
639 -759 0
-1169 667 0
-1415 -200 0
-809 -686 0
-777 621 0
-1422 1116 0
-898 740 0
451 1323 0
-710 784 0
-596 653 0
680 -873 0
1354 -338 0
-487 -397 0
621 1158 0
-1241 1195 0
-1310 1414 0
168 -1142 0
-1083 -1180 0
-749 655 0
-1412 -1359 0
547 -152 0
756 -367 0
-574 -202 0
895 -11 0
555 -341 0
-472 -1175 0
-115 615 0
615 -746 0
300 -1190 0
198 904 0
-980 90 0
-553 -353 0
-363 -1159 0
-1133 661 0
-1444 -897 0
71 1123 0
1365 -947 0
542 -407 0
852 -1239 0
-939 52 0
-580 1382 0
172 -112 0
884 669 0
785 -1185 0
-765 961 0
655 393 0
-80 -96 0
-1257 -1431 0
-1437 -271 0
-759 817 0
-547 -1024 0
54 -420 0
280 1109 0
-1059 -343 0
-696 -1117 0
78 1235 0
-1096 -667 0
101 -737 0
1363 -986 0
-967 -507 0
1384 1270 0
819 -1080 0
-1301 1184 0
-657 -266 0
197 147 0
691 1313 0
-682 -566 0
-1274 130 0
480 -798 0
-1200 -641 0
1172 1100 0
1109 -118 0
756 -857 0
-755 386 0
1172 -1319 0
-310 272 0
-1409 -951 0
323 1286 0
857 1062 0
-880 1205 0
147 -238 0
-1442 666 0
4 538 0
511 720 0
-1271 1413 0
670 -89 0
845 271 0
273 891 0
-716 -817 0
-1437 1305 0
1181 -743 0
787 -1329 0
-688 762 0
-1443 -404 0
281 -808 0
-686 -628 0
-489 182 0
1438 -1147 0
644 -341 0
1208 -1043 0
-789 701 0
448 -1225 0
644 173 0
-38 511 0
-1166 -310 0
-951 419 0
214 1148 0
-506 623 0
460 489 0
45 -23 0
515 981 0
-637 497 0
-102 738 0
1421 580 0
-740 -683 0
-974 -1025 0
-746 -167 0
1176 -1071 0
796 -587 0
1059 -1403 0
780 -683 0
-564 -576 0
-1284 212 0
-90 -143 0
-798 298 0
-509 -175 0
-403 812 0
-1081 -967 0
-310 -1403 0
633 1148 0
79 122 0
-236 -172 0
-404 -1403 0
319 997 0
1412 -141 0
491 -743 0
-988 630 0
1171 -305 0
-96 -262 0
-1417 -1346 0
-170 804 0
-445 -733 0
653 -913 0
513 -629 0
869 321 0
-1015 -121 0
519 385 0
806 -338 0
424 994 0
1023 -461 0
866 -820 0
-1031 835 0
-242 670 0
-723 -186 0
467 558 0
330 313 0
-121 395 0
-913 610 0
-690 54 0
-711 972 0
-206 -841 0
-281 -389 0
1254 -83 0
1308 -575 0
-438 448 0
1005 -64 0
-769 -1304 0
465 1043 0
491 1289 0
-629 1358 0
563 917 0
305 -1159 0
-769 1150 0
-508 181 0
-240 -1086 0
402 1052 0
-1425 -737 0
734 -1327 0
-461 -787 0
-394 -880 0
-338 -983 0
-95 537 0
301 -877 0
308 876 0
105 322 0
-138 -1243 0
-390 365 0
176 544 0
264 1230 0
-266 828 0
-673 -1295 0
580 1035 0
1286 812 0
237 -409 0
1046 764 0
250 178 0
-47 -629 0
1046 1441 0
-1164 -320 0
814 -1158 0
1133 405 0
-207 -19 0
155 877 0
673 621 0
319 -897 0
444 -1085 0
1035 -895 0
-278 1001 0
1127 1198 0
-957 -662 0
-384 704 0
366 1311 0
-781 1004 0
-652 594 0
-1248 -1273 0
669 -636 0
847 741 0
1131 246 0
849 -1051 0
697 608 0
681 601 0
391 -299 0
-584 1390 0
-1179 1014 0
-87 348 0
-914 -105 0
925 -357 0
-76 441 0
-604 827 0
828 -1403 0
-1072 54 0
240 603 0
1348 465 0
-942 14 0
-1024 493 0
-1303 231 0
-653 -627 0
51 -261 0
-1368 -328 0
252 -1310 0
-915 -111 0
538 828 0
45 1224 0
1383 -264 0
-325 -1298 0
-870 -294 0
556 613 0
-33 317 0
961 -47 0
-299 243 0
-521 1414 0
-1182 -426 0
872 1225 0
626 255 0
525 1420 0
-764 -113 0
-1304 -326 0
59 -956 0
-751 880 0
14 -565 0
-96 -1104 0
796 156 0
972 -619 0
923 993 0
677 -1190 0
-1424 -179 0
660 1353 0
1156 714 0
981 -247 0
-452 843 0
-1036 -1356 0
848 713 0
-859 -53 0
-1123 424 0
-403 -579 0
-1262 -704 0
1017 -1010 0
-273 -1245 0
-667 -652 0
1257 -273 0
-143 295 0
-910 1250 0
850 615 0
1341 849 0
-152 898 0
-983 -473 0
-372 28 0
-417 115 0
399 -1304 0
588 1174 0
-1359 1176 0
-772 1020 0
1192 -222 0
-1303 1416 0
405 287 0
-393 30 0
1417 -636 0
-926 772 0
309 41 0
-983 -830 0
-625 901 0
1105 1144 0
-800 -1230 0
940 662 0
1175 -641 0
-1104 -23 0
738 1062 0
-1050 -193 0
-1446 -1391 0
1034 -1210 0
-355 -993 0
919 -876 0
737 1085 0
-838 543 0
-965 -919 0
-1165 -61 0
72 -845 0
-60 -88 0
852 -593 0
304 725 0
276 -1117 0
-1163 -863 0
608 -1341 0
301 1185 0
-1409 18 0
-109 -547 0
-262 312 0
-340 -817 0
-158 -1123 0
-1198 52 0
65 57 0
802 -1335 0
106 184 0
220 1069 0
-130 -724 0
-853 -445 0
327 768 0
-1446 1299 0
709 -447 0
1054 -1338 0
-978 -1425 0
-1211 -541 0
-568 757 0
395 -160 0
329 -432 0
-1108 -298 0
184 1164 0
1003 -517 0
631 -193 0
1381 -1329 0
1288 1439 0
1035 -118 0
1268 -1302 0
1200 300 0
1150 -243 0
-1429 1201 0
-641 -1269 0
-788 766 0
35 1199 0
-1278 1104 0
812 1109 0
1246 1197 0
-734 -990 0
864 -667 0
470 -969 0
650 -254 0
-708 -1234 0
258 -760 0
-1074 -1363 0
219 -948 0
-1088 -47 0
1206 878 0
-774 881 0
1060 1423 0
917 -530 0
425 -598 0
-413 31 0
960 -433 0
-210 -578 0
302 757 0
559 -600 0
297 601 0
617 531 0
-1049 1099 0
441 -262 0
198 1166 0
-1122 -609 0
-143 712 0
-861 -324 0
-1445 60 0
288 1156 0
763 964 0
1227 4 0
1366 -1068 0
-1344 -305 0
-944 -369 0
-13 822 0
1167 576 0
-354 -826 0
1247 -142 0
849 -930 0
133 325 0
89 327 0
307 708 0
1312 -156 0
-1417 168 0
775 -131 0
-1370 -470 0
182 1361 0
-809 639 0
-1293 -1189 0
-443 -863 0
-1424 -1220 0
-1031 147 0
-1335 1128 0
1206 -245 0
572 34 0
603 944 0
726 -1368 0
1173 -1105 0
-502 -218 0
-618 1417 0
-260 552 0
-408 1325 0
-861 1129 0
722 -593 0
-818 902 0
-101 -915 0
1073 902 0
-2 -931 0
968 1345 0
-146 554 0
-813 228 0
-580 1048 0
-915 697 0
-79 606 0
1294 1132 0
-703 803 0
108 -1211 0
395 -1427 0
1060 -1089 0
-992 -1131 0
1206 481 0
-1221 786 0
339 790 0
-808 854 0
838 -1352 0
-1149 -726 0
258 -55 0
-71 -514 0
146 -331 0
-1355 -604 0
227 328 0
550 -769 0
942 -13 0
531 884 0
551 -104 0
1351 -1444 0
-877 -1447 0
491 -209 0
1025 1280 0
1421 -1058 0
600 -1401 0
-524 712 0
-599 -524 0
913 592 0
234 408 0
609 386 0
9 448 0
-904 1061 0
-1180 -119 0
174 442 0
533 555 0
1132 -1095 0
1149 14 0
-1417 1285 0
377 -1063 0
330 -1002 0
-1110 -385 0
1343 -668 0
-1105 -1302 0
-1248 -158 0
-913 182 0
149 1096 0
-517 -950 0
-1234 395 0
1180 111 0
460 527 0
727 1412 0
25 -565 0
-20 210 0
-109 135 0
-657 -307 0
-13 -1032 0
388 653 0
509 835 0
1069 1296 0
-773 1025 0
-562 -451 0
-158 -1279 0
670 -1290 0
-1378 564 0
-929 -408 0
465 -504 0
330 -1286 0
319 -692 0
924 188 0
288 -41 0
-886 556 0
-636 -1192 0
-470 1145 0
-1444 1300 0
1299 629 0
-1418 -1221 0
816 -83 0
996 -961 0
1312 -1030 0
321 -159 0
-678 -280 0
-67 1114 0
-466 1185 0
192 400 0
-753 345 0
-1445 -278 0
-1138 273 0
661 399 0
45 -994 0
1079 -1281 0
-1198 1053 0
959 616 0
998 -1329 0
-88 -1255 0
459 -148 0
-644 536 0
770 104 0
-1006 674 0
-102 556 0
201 686 0
1081 -534 0
-283 479 0
-748 -1181 0
-1042 -170 0
-281 814 0
-562 377 0
68 -485 0
-15 1044 0
-589 -878 0
871 935 0
-168 -861 0
688 623 0
1379 -31 0
-265 -1080 0
-923 -1050 0
-73 902 0
-553 716 0
-945 -264 0
-363 -1238 0
-44 54 0
463 91 0
1055 -1262 0
-1422 -464 0
561 -1024 0
-353 752 0
-890 696 0
-61 -1213 0
914 -1009 0
1076 267 0
965 -43 0
-805 -1317 0
-918 288 0
880 -1382 0
920 587 0
1383 -97 0
-141 1315 0
-566 -843 0
-889 1357 0
-759 -303 0
1373 -104 0
1201 -31 0
-567 -650 0
-998 -1401 0
-774 358 0
-647 147 0
809 22 0
-122 -248 0
-1125 -157 0
-1039 1359 0
-391 -495 0
929 -1249 0
548 -1132 0
1331 465 0
-988 -265 0
616 -1274 0
-1322 1246 0
-992 1327 0
1025 907 0
-265 890 0
930 -1335 0
-915 270 0
1363 -997 0
-80 -1264 0
347 -808 0
-1080 1197 0
996 717 0
-630 -1074 0
-21 -1401 0
530 421 0
-1204 -461 0
-258 719 0
-1291 329 0
-1388 -93 0
-614 -730 0
-1223 -1050 0
377 -241 0
821 -197 0
1037 1354 0
-460 1376 0
-1059 -1007 0
-1420 -777 0
-104 -881 0
-67 535 0
491 425 0
542 391 0
-847 549 0
-598 860 0
-43 1153 0
1116 -534 0
1057 54 0
-37 -5 0
-508 -508 0
37 981 0
552 -1438 0
836 1295 0
976 183 0
812 1245 0
-391 -554 0
395 969 0
-401 415 0
1012 261 0
-464 347 0
713 81 0
-889 342 0
-1340 1104 0
-318 -111 0
525 -1411 0
-297 -951 0
-1248 -816 0
-497 -1049 0
445 54 0
1143 1288 0
-383 90 0
-522 963 0
1162 1209 0
995 -934 0
1441 389 0
-1369 -646 0
-1256 -1101 0
-583 -604 0
995 1423 0
-788 -1268 0
-180 -1238 0
1239 -1329 0
310 327 0
361 491 0
-1203 23 0
-380 1360 0
624 -1025 0
-467 -994 0
1002 980 0
-632 893 0
-634 -517 0
697 -1428 0
-933 1221 0
-626 -970 0
224 -938 0
-753 -1323 0
-1417 615 0
-970 742 0
-139 -198 0
538 497 0
1258 462 0
286 395 0
1266 327 0
411 -789 0
-914 1276 0
738 -33 0
462 1398 0
-754 -870 0
-580 95 0
709 -706 0
1431 -1320 0
40 691 0
-573 1143 0
-1320 -886 0
494 131 0
-888 -356 0
-557 -1242 0
-15 679 0
-573 -560 0
-171 -673 0
-355 772 0
-1170 -303 0
87 -657 0
770 750 0
-1256 1204 0
-240 761 0
-117 1154 0
973 -1095 0
-531 -930 0
-139 -819 0
-1227 -1009 0
742 53 0
-952 -182 0
1446 1411 0
860 -267 0
-593 1037 0
-612 -1003 0
-1068 -86 0
114 -698 0
-588 -432 0
-571 -909 0
-104 1020 0
-703 798 0
1421 851 0
949 -1143 0
594 113 0
1130 -120 0
-660 -91 0
-858 -476 0
-219 561 0
1370 -310 0
-1082 351 0
253 -1024 0
-486 194 0
1174 772 0
767 -1433 0
1079 -961 0
479 552 0
1438 -1247 0
-546 -1292 0
-1063 -1194 0
345 -866 0
208 1204 0
38 -682 0
-473 -1272 0
845 -1235 0
-14 1181 0
286 -742 0
-703 -913 0
-293 1189 0
1391 -569 0
340 -1368 0
-834 1242 0
-193 -142 0
142 -517 0
158 -1046 0
-1078 1320 0
227 -1212 0
-864 -164 0
-49 -168 0
-221 -1389 0
-570 988 0
674 899 0
335 -725 0
-848 -243 0
-140 1111 0
-278 1084 0
-736 -488 0
635 -656 0
1121 -1284 0
1032 -373 0
228 62 0
-1281 -985 0
-174 -690 0
-773 -1178 0
-50 -101 0
-1336 -552 0
929 -1083 0
-157 -890 0
-1019 364 0
-1095 1029 0
-1152 -629 0
-1217 1293 0
1175 894 0
1185 -866 0
1269 -1238 0
-945 -544 0
-1016 49 0
-733 22 0
665 44 0
586 -866 0
735 -1435 0
687 -164 0
-970 1022 0
-871 -667 0
775 -896 0
-1437 -1103 0
624 -460 0
1203 -144 0
736 -1406 0
1320 -154 0
-467 -1064 0
-1428 1259 0
490 -934 0
1012 1065 0
378 -985 0
87 719 0
44 -567 0
23 -567 0
287 -211 0
371 -1227 0
554 -1279 0
10 -975 0
38 -651 0
1243 -75 0
-1249 568 0
905 797 0
-290 292 0
-48 -486 0
40 382 0
1346 -1403 0
-790 563 0
-230 394 0
-811 1002 0
-548 -654 0
-1389 -1210 0
786 20 0
-1389 124 0
-721 1313 0
-492 282 0
-55 -74 0
1309 1177 0
389 -718 0
-755 258 0
1110 -356 0
1026 -1319 0
-1310 -952 0
-1295 1354 0
185 -1374 0
-1162 -1319 0
-94 -1067 0
-927 307 0
-995 104 0
1385 -148 0
1080 1146 0
490 1267 0
-39 -23 0
-43 469 0
1046 285 0
953 428 0
607 441 0
1178 1071 0
519 1098 0
638 -254 0
-466 -27 0
1084 262 0
-1094 -27 0
-981 1276 0
279 -653 0
340 1195 0
1408 -218 0
910 -70 0
729 -703 0
-1175 1222 0
49 440 0
-221 237 0
622 -316 0
-952 -380 0
-1265 -461 0
1181 -1089 0
-596 -1043 0
-249 1384 0
215 -235 0
931 -1368 0
-596 623 0
129 -682 0
-1394 428 0
1234 1180 0
674 1398 0
-579 -1081 0
275 -730 0
-32 -987 0
-1279 -1320 0
1354 -1039 0
1348 -765 0
-871 395 0
-514 -473 0
-305 -192 0
-604 -577 0
-1027 693 0
-1043 263 0
-1167 1162 0
-544 1243 0
1232 1423 0
-232 -1031 0
1038 -1027 0
-503 811 0
-1303 -760 0
275 -557 0
-987 1120 0
490 -530 0
-914 -492 0
772 893 0
511 1044 0
1113 805 0
-952 191 0
254 -914 0
4 -151 0
674 350 0
503 -754 0
-1370 256 0
-732 -762 0
972 346 0
-1124 973 0
-1226 -573 0
-934 1380 0
-94 1058 0
429 -46 0
1219 -146 0
-1242 282 0
-924 1008 0
496 160 0
488 -585 0
458 918 0
63 1350 0
817 -1185 0
-1274 1191 0
265 -1189 0
-645 186 0
-591 -290 0
329 -604 0
-1225 208 0
736 -1132 0
546 -791 0
870 964 0
-1348 -916 0
-1268 -759 0
805 977 0
570 -955 0
-306 1191 0
-331 -1208 0
-199 395 0
-367 -1278 0
701 -458 0
237 491 0
-637 947 0
1347 440 0
1223 744 0
-359 749 0
1319 1430 0
1190 -1239 0
493 539 0
427 -174 0
-897 -1105 0
-1214 -562 0
60 -545 0
217 -452 0
482 383 0
-299 -72 0
-1307 1348 0
-457 1140 0
-129 -799 0
1144 -1201 0
1325 1044 0
-64 891 0
345 -712 0
454 -33 0
913 -278 0
-986 -1086 0
-397 850 0
-723 -598 0
-216 495 0
-1092 -643 0
-259 1102 0
6 -1324 0
-111 -320 0
-990 540 0
-324 -1418 0
489 1022 0
-403 726 0
-235 -1219 0
-752 1277 0
174 -393 0
-213 856 0
-236 -155 0
201 214 0
-408 1323 0
1025 49 0
-1305 1100 0
147 -275 0
-541 1125 0
246 1073 0
614 -1369 0
751 1130 0
250 -1045 0
24 976 0
1434 -180 0
1299 90 0
-367 -628 0
653 -1389 0
929 -1270 0
325 -209 0
526 502 0
-1164 -880 0
-612 911 0
1277 -1230 0
-1356 -283 0
-1288 -496 0
-913 -1439 0
389 1237 0
-1392 -86 0
996 -609 0
-88 -217 0
500 -372 0
-468 -58 0
534 1054 0
1339 -1164 0
809 775 0
1443 436 0
-574 -25 0
696 -143 0
-763 1062 0
-470 -1121 0
626 537 0
45 -404 0
-1330 149 0
-1033 -1003 0
68 732 0
-919 37 0
962 284 0
1264 -239 0
462 330 0
-77 60 0
538 957 0
-111 -1326 0
1338 -124 0
-518 1159 0
-1327 -813 0
693 271 0
34 -377 0
-486 -425 0
63 -792 0
-1186 -694 0
-1164 908 0
535 975 0
-1428 -6 0
379 -1113 0
-64 564 0
-641 -1005 0
-1278 1341 0
-116 -1415 0
-607 26 0
-108 -584 0
-1123 456 0
345 -415 0
1387 -771 0
272 -886 0
-1175 726 0
156 -620 0
-340 -1155 0
482 -91 0
828 -70 0
-12 46 0
246 -641 0
1314 -1321 0
-552 519 0
-382 -876 0
-326 1047 0
-1342 -1385 0
444 -256 0
875 293 0
1035 -187 0
-649 784 0
373 -1138 0
-1045 -970 0
1219 252 0
-981 -984 0
-374 1287 0
-1391 1033 0
-666 1373 0
-970 -1192 0
-575 311 0
724 255 0
403 1341 0
245 -1183 0
-221 -998 0
-566 701 0
-356 841 0
-888 1358 0
398 -1378 0
-433 -1233 0
-578 -950 0
-124 -182 0
871 757 0
1278 -1183 0
1402 -1082 0
-1042 603 0
793 1180 0
-663 858 0
-346 -1039 0
-272 -163 0
205 -690 0
-83 -579 0
563 1254 0
1187 -1281 0
957 -262 0
-1351 980 0
1387 648 0
84 536 0
-1395 -1401 0
-633 693 0
888 -791 0
30 144 0
-808 -374 0
-1251 -1392 0
-463 -1108 0
25 1187 0
-1240 -640 0
626 1099 0
-1336 504 0
993 672 0
-331 -1415 0
1320 -61 0
-438 448 0
-1331 -1067 0
-602 -1303 0
-575 1430 0
34 -148 0
392 -384 0
-116 368 0
-801 1182 0
132 -72 0
-1124 566 0
710 868 0
-1015 1023 0
-936 809 0
613 -1072 0
780 1367 0
8 -1376 0
415 728 0
531 -1055 0
965 1354 0
1446 -831 0
787 -1443 0
-1080 1001 0
-28 -484 0
-946 1184 0
-1196 69 0
845 -1149 0
-1446 132 0
-1370 865 0
-1307 -717 0
-1347 954 0
442 -654 0
1351 857 0
1025 789 0
1375 131 0
-94 -1027 0
-446 -1065 0
703 -618 0
1321 -22 0
57 1044 0
-894 -1157 0
662 -17 0
-930 -332 0
-19 436 0
1076 333 0
-841 -1421 0
1055 -1058 0
-58 1411 0
-1370 1389 0
-788 530 0
425 904 0
149 1029 0
666 -43 0
1040 802 0
-971 -685 0
-830 16 0
718 -632 0
103 -1021 0
-1008 590 0
653 928 0
840 402 0
-294 -521 0
453 -1007 0
-109 235 0
590 486 0
877 -636 0
697 184 0
-569 -715 0
-1165 -342 0
186 -927 0
-385 938 0
462 474 0
1434 -1194 0
718 519 0
1080 -331 0
1233 703 0
-1076 1272 0
-571 -1405 0
-1356 -12 0
910 -1062 0
-146 821 0
737 1357 0
-1447 -919 0
-100 171 0
-1393 -408 0
878 676 0
-1051 784 0
1214 -1225 0
-216 448 0
1331 935 0
-1436 -82 0
-795 -284 0
149 -784 0
-130 1441 0
549 -792 0
619 -1431 0
323 35 0
1253 595 0
551 91 0
1335 -945 0
128 943 0
-116 -1030 0
-733 -1260 0
347 -1380 0
147 951 0
669 -1226 0
-63 -547 0
-17 -768 0
446 -100 0
1049 845 0
36 276 0
476 131 0
363 -106 0
559 1245 0
-439 1145 0
39 -423 0
-1087 -1297 0
394 741 0
1356 37 0
-1015 808 0
557 494 0
22 787 0
459 -1414 0
212 786 0
-707 504 0
125 -1205 0
-1004 478 0
-1403 -694 0
-1345 -1342 0
852 -272 0
893 543 0
-1170 -468 0
-162 770 0
-1336 434 0
-545 -534 0
1109 -1205 0
861 -1391 0
-965 -732 0
556 1182 0
1258 216 0
895 384 0
-1063 1433 0
520 57 0
701 574 0
283 -94 0
-390 -773 0
62 378 0
556 546 0
-294 -751 0
1012 300 0
809 701 0
768 616 0
-736 711 0
-635 -703 0
-268 877 0
-587 -1308 0
563 -1176 0
-164 -901 0
-1433 -851 0
486 995 0
-1165 -574 0
1185 -1083 0
-881 -960 0
1447 -496 0
802 -1007 0
-354 597 0
-2 -1273 0
623 -583 0
-316 -31 0
1300 210 0
-1372 1237 0
-1200 -1304 0
-1409 -344 0
-443 -217 0
-46 399 0
-1400 -5 0
658 -213 0
104 371 0
579 -1440 0
-970 -651 0
-886 -1096 0
-46 -372 0
-427 1367 0
1267 -1125 0
-195 -656 0
-1427 -182 0
-114 332 0
-756 -1382 0
-408 772 0
-1445 269 0
-690 951 0
-161 1373 0
464 -4 0
-1016 -1245 0
-568 274 0
-753 1297 0
346 -403 0
769 1130 0
-27 1103 0
-383 -843 0
-1442 -693 0
1297 -1340 0
257 537 0
-723 1197 0
392 251 0
-517 779 0
101 921 0
963 835 0
-825 511 0
1244 290 0
-354 -1022 0
-775 621 0
-1188 -698 0
961 -1419 0
-1260 -33 0
33 1100 0
1441 -1020 0
-1347 382 0
-1376 -1177 0
-792 -881 0
1044 1357 0
810 666 0
203 -1378 0
681 428 0
791 1438 0
155 -604 0
888 -933 0
843 159 0
-1279 1111 0
-32 -1089 0
-27 -437 0
-126 290 0
-1230 135 0
1058 -1413 0
1365 -589 0
403 -759 0
-237 -6 0
1391 181 0
-266 835 0
-641 -1332 0
-226 -10 0
446 921 0
207 494 0
-707 -696 0
-926 1053 0
539 -342 0
151 496 0
1262 -604 0
208 624 0
-1077 -1445 0
-602 1313 0
-1050 -359 0
323 -601 0
1074 -407 0
-1263 1014 0
-798 518 0
-1198 -579 0
108 -10 0
-1393 -194 0
-865 1105 0
-812 844 0
-783 1446 0
509 -110 0
42 -507 0
-204 210 0
360 -758 0
-1106 -466 0
222 -924 0
285 -628 0
-1324 258 0
459 -953 0
-886 533 0
-457 -249 0
45 721 0
358 -320 0
-838 -1400 0
-505 969 0
1396 154 0
-67 -883 0
608 885 0
1216 -1010 0
1069 312 0
-1106 1229 0
-259 -1083 0
1364 -1381 0
-315 1014 0
-96 -705 0
1384 894 0
-1049 932 0
-1326 137 0
-565 -236 0
-297 -1108 0
713 -1427 0
284 -800 0
422 -1256 0
827 1422 0
1424 49 0
-650 -862 0
287 -1350 0
-1300 1059 0
453 -770 0
1404 1319 0
-1312 963 0
1372 -1230 0
1360 911 0
381 1374 0
250 126 0
-626 264 0
-825 122 0
1094 684 0
-848 -413 0
872 -1289 0
-635 1193 0
-1415 1055 0
-648 506 0
-706 -276 0
-1367 814 0
-994 -780 0
-1442 275 0
-99 696 0
678 1142 0
-5 -261 0
1118 -1406 0
1315 1095 0
-583 -499 0
255 -521 0
-517 -405 0
-774 195 0
456 284 0
-1106 131 0
-1087 267 0
648 774 0
-58 -151 0
-875 -1190 0
485 -807 0
335 706 0
-310 -627 0
-1324 -1013 0
-750 386 0
406 -232 0
-1091 1102 0
189 98 0
-1104 -1066 0
-427 311 0
326 908 0
50 -1186 0
822 1387 0
1268 -98 0
414 -567 0
1090 1204 0
81 -6 0
-1186 -159 0
187 832 0
-1034 -497 0
747 1204 0
-1010 -1191 0
-46 -988 0
607 824 0
972 417 0
-830 -1067 0
-1091 742 0
-717 -1101 0
690 555 0
-216 1085 0
-91 138 0
-1288 369 0
-1324 264 0
-655 712 0
1128 1439 0
537 1184 0
-874 674 0
-383 572 0
173 -667 0
1236 466 0
852 503 0
253 -710 0
-144 763 0
875 473 0
469 -544 0
-1371 -458 0
-962 335 0
-1389 -945 0
181 1425 0
-1380 208 0
549 -439 0
-1108 793 0
44 -1129 0
491 -1320 0
887 1304 0
1404 1354 0
866 -501 0
338 -388 0
-854 -1082 0
-821 842 0
-983 257 0
607 84 0
-1243 -788 0
-344 -1320 0
-1379 -572 0
-144 362 0
996 -1444 0
-1418 -506 0
347 680 0
-1029 10 0
-834 1313 0
1059 -404 0
477 257 0
1027 350 0
1385 1205 0
-433 1390 0
-1192 -762 0
33 1276 0
-1127 178 0
752 103 0
944 436 0
-745 669 0
676 881 0
734 1276 0
-1138 946 0
1011 -261 0
-544 987 0
519 -891 0
-476 -569 0
441 465 0
1254 120 0
1234 463 0
-69 -29 0
1040 1165 0
917 -1207 0
-1196 -580 0
120 64 0
1192 -1063 0
806 -194 0
-1265 -1329 0
-157 -141 0
332 -969 0
1081 -1282 0
776 -1210 0
910 91 0
512 -246 0
1300 -986 0
36 353 0
-299 611 0
-299 107 0
-879 48 0
-251 530 0
-803 1036 0
-1161 1222 0
-942 1226 0
463 495 0
755 894 0
-167 -1309 0
111 866 0
1095 964 0
-470 720 0
-363 88 0
-1290 -898 0
479 1388 0
-954 438 0
-16 78 0
-1137 894 0
224 -924 0
858 800 0
1123 379 0
796 -1013 0
-116 1085 0
-1402 -1214 0
-1420 -1215 0
772 1348 0
336 -481 0
552 -299 0
-760 -1037 0
-128 525 0
214 -1390 0
351 129 0
-1199 734 0
205 -917 0
-913 172 0
-879 613 0
-1350 -1174 0
-824 1438 0
-457 -304 0
1083 839 0
1251 1055 0
-1292 -898 0
365 -960 0
908 237 0
836 256 0
387 -859 0
-630 -1023 0
-948 -580 0
-323 133 0
-456 1432 0
-457 -220 0
-808 449 0
-426 231 0
-1098 420 0
512 -372 0
1111 523 0
-1317 -31 0
1416 184 0
-908 845 0
-328 240 0
-816 549 0
1323 -815 0
-1227 1130 0
-1348 1102 0
1041 1337 0
-939 -576 0
-406 151 0
-473 327 0
1013 519 0
157 1443 0
327 -1116 0
-602 -1431 0
770 -68 0
-628 726 0
798 -946 0
-1433 -76 0
72 -1267 0
482 1047 0
-120 -1060 0
-948 1115 0
-1332 -398 0
32 -243 0
337 1021 0
-252 -1097 0
597 1185 0
500 -1227 0
-130 -481 0
-328 1392 0
-555 -567 0
359 1135 0
734 1152 0
555 -607 0
-1013 -1310 0
-875 1001 0
701 556 0
-1225 1322 0
1400 1000 0
-634 -867 0
327 800 0
-503 -904 0
1180 699 0
1188 -375 0
-1376 -930 0
1184 1178 0
-24 1362 0
-1368 851 0
809 -1187 0
324 479 0
1084 -1083 0
-748 -841 0
-560 -693 0
854 24 0
979 348 0
235 613 0
1333 -705 0
-1282 989 0
-1177 203 0
640 77 0
407 -803 0
467 767 0
-1359 -333 0
-417 -826 0
-1334 -1124 0
-83 483 0
-402 -1307 0
-673 -689 0
-1205 -781 0
-1028 176 0
-922 -689 0
539 1089 0
-523 1094 0
766 879 0
-556 -111 0
-511 -748 0
169 -999 0
-127 -602 0
1235 -921 0
110 1058 0
-299 1100 0
136 -528 0
-391 -1126 0
164 -892 0
-694 -53 0
826 -1387 0
1339 -52 0
1441 866 0
988 893 0
960 800 0
289 -358 0
115 377 0
-1433 747 0
1438 692 0
-13 -576 0
1326 -128 0
-174 802 0
184 -933 0
-397 -1287 0
362 -3 0
956 515 0
-438 -1406 0
415 626 0
211 -1091 0
-1256 125 0
1156 -340 0
1215 -169 0
-829 -1249 0
1022 -125 0
-948 -1254 0
-92 -1259 0
-1217 -519 0
1392 -518 0
-353 -1092 0
901 545 0
696 -1336 0
-1210 952 0
-116 -1198 0
416 1129 0
-142 -1256 0
-604 -584 0
-179 -520 0
-1001 -587 0
301 -1126 0
1351 -957 0
-1096 -260 0
1007 -520 0
1407 -696 0
220 -688 0
575 1385 0
1083 -80 0
136 -1005 0
-961 -1200 0
1078 -889 0
1357 -702 0
-1051 1341 0
-111 -354 0
916 -1170 0
-993 128 0
-1253 697 0
-273 -20 0
616 1071 0
552 -1101 0
-1189 834 0
-400 -11 0
-768 -66 0
-1138 842 0
-389 -762 0
-573 1362 0
1323 -528 0
738 -394 0
-1258 -1247 0
-70 392 0
-489 -1326 0
-164 967 0
-1447 655 0
498 -1267 0
-659 -939 0
-438 -1416 0
-1285 1364 0
-76 -1171 0
-1134 1271 0
-774 -498 0
477 -148 0
-738 895 0
371 1025 0
-404 -146 0
-645 1307 0
-375 -104 0
999 -1406 0
-489 -310 0
727 311 0
97 -1247 0
755 -12 0
225 -733 0
-169 768 0
-1017 25 0
1199 530 0
216 -167 0
-1218 -862 0
-673 -1157 0
431 958 0
-430 1394 0
-146 464 0
395 -157 0
1339 300 0
941 -1189 0
499 -1157 0
838 -325 0
1339 -635 0
511 1257 0
-574 384 0
-734 -521 0
1105 728 0
618 1215 0
-383 -690 0
-337 -487 0
872 1282 0
-1133 1387 0
866 726 0
-132 286 0
-1217 891 0
611 -624 0
-689 512 0
793 1022 0
-370 -572 0
644 -1360 0
696 686 0
465 -966 0
201 -1371 0
1108 -1203 0
979 1130 0
403 178 0
515 198 0
1003 173 0
817 189 0
917 -475 0
-94 207 0
1426 -989 0
-244 217 0
-1279 398 0
-934 900 0
-737 1152 0
1058 672 0
374 1041 0
964 -680 0
-308 285 0
-96 745 0
683 -1433 0
392 246 0
-90 131 0
-511 493 0
1407 49 0
-211 -1016 0
-310 -404 0
-260 1305 0
1054 1257 0
289 179 0
233 -1115 0
660 590 0
-500 -981 0
1103 -937 0
-1030 -1399 0
409 -276 0
-1344 1027 0
-668 -1230 0
-737 1320 0
1278 1176 0
1116 355 0
-1408 1000 0
464 -1145 0
1145 306 0
-1092 -675 0
3 1432 0
-1432 -1282 0
894 1134 0
1371 -88 0
929 1354 0
-687 120 0
-28 -93 0
-876 -588 0
-1444 -701 0
754 653 0
784 -1067 0
-260 -771 0
-356 -351 0
514 462 0
-1050 1237 0
-1399 -927 0
58 1204 0
-42 456 0
-1065 786 0
125 125 0
-445 -773 0
-412 963 0
924 -213 0
1061 -1410 0
906 -488 0
-693 1291 0
-124 1417 0
-1073 453 0
-1359 -38 0
-1104 1439 0
150 -1009 0
-1221 465 0
-232 1050 0
137 -950 0
-646 235 0
101 -838 0
319 -339 0
-1306 721 0
832 -59 0
181 -1100 0
397 1377 0
-1202 -133 0
696 742 0
348 -1265 0
-504 -121 0
-924 -284 0
653 37 0
68 -501 0
-229 759 0
1051 -743 0
223 131 0
704 1329 0
-372 -1001 0
1421 -580 0
-1145 204 0
166 -289 0
-560 710 0
-524 -1346 0
1022 -438 0
-814 -1061 0
1180 -1300 0
1199 1320 0
338 203 0
-192 -98 0
1070 1405 0
498 -337 0
173 406 0
224 -346 0
-271 184 0
-473 -1132 0
844 -1029 0
-964 -1148 0
-1164 -962 0
108 154 0
132 1075 0
9 -724 0
1381 320 0
-268 617 0
442 774 0
-232 255 0
-1405 41 0
1103 1141 0
1221 542 0
1238 -1068 0
605 -800 0
621 938 0
1326 -1097 0
1298 229 0
1076 874 0
-378 -12 0
-1320 1272 0
1374 -1399 0
151 -138 0
7 -575 0
-1168 318 0
-449 -645 0
-1293 -848 0
1199 -299 0
-314 -1106 0
134 -543 0
1401 672 0
-179 -1356 0
1282 -604 0
1102 -1087 0
62 162 0
410 579 0
-982 846 0
1182 159 0
-209 -6 0
-1319 387 0
-488 248 0
622 461 0
-472 1386 0
750 1076 0
985 1064 0
-691 959 0
332 -1319 0
-25 806 0
1139 -840 0
360 289 0
203 54 0
1241 1145 0
-283 1285 0
824 534 0
-900 579 0
935 785 0
1399 699 0
-1256 -816 0
969 321 0
755 1429 0
7 -918 0
971 481 0
-1348 513 0
-218 1219 0
-1259 -283 0
62 -1256 0
332 -1148 0
-354 -111 0
1209 835 0
-344 -1373 0
155 -1226 0
899 -619 0
561 -341 0
526 -1164 0
-139 934 0
-790 949 0
1381 -666 0
1220 516 0
-1101 -591 0
-900 -833 0
-880 -715 0
1371 111 0
-975 -1362 0
548 -694 0
754 -1125 0
-1130 182 0
-589 789 0
1102 -1101 0
455 1135 0
4 133 0
-99 541 0
-619 3 0
-492 -255 0
-42 -1073 0
-1047 943 0
-264 -573 0
497 436 0
-1163 -748 0
365 1377 0
-936 -194 0
610 -656 0
85 -76 0
-746 -1090 0
533 -846 0
320 -1088 0
175 -499 0
1172 14 0
-1406 719 0
-314 1409 0
-1443 532 0
-1061 -852 0
725 -838 0
-1177 -698 0
60 -606 0
-868 -508 0
-1202 438 0
-534 -749 0
-873 -1283 0
1130 168 0
-240 -112 0
-1113 224 0
632 -577 0
559 -86 0
1383 815 0
402 -505 0
425 -987 0
-540 -362 0
846 -791 0
565 834 0
-1196 1215 0
-660 1054 0
539 284 0
-939 1062 0
-495 -1310 0
858 -963 0
657 836 0
-1218 1384 0
495 -270 0
-725 -216 0
575 497 0
1115 -1324 0
731 406 0
354 -819 0
-844 -956 0
-1376 1035 0
-1184 -320 0
551 -739 0
-801 789 0
-550 1298 0
1312 -467 0
-822 -1118 0
-179 -640 0
727 -61 0
-1383 1414 0
351 -1271 0
695 785 0
1407 448 0
120 140 0
1381 -41 0
-1153 -619 0
-592 -116 0
-473 84 0
875 227 0
1145 -25 0
812 -1363 0
960 -967 0
-699 -314 0
412 727 0
-859 115 0
-1160 -266 0
-221 -34 0
-737 -1229 0
384 -790 0
-759 -898 0
-1087 1139 0
461 -435 0
548 -1119 0
1359 -96 0
821 1402 0
-1031 383 0
-911 1085 0
1053 -509 0
1340 537 0
-1202 279 0
150 323 0
-881 65 0
256 147 0
68 -76 0
-163 -856 0
-1414 84 0
87 1065 0
-961 9 0
-566 -280 0
545 -728 0
-1087 748 0
336 770 0
285 109 0
228 -165 0
402 572 0
-162 1167 0
398 -830 0
-303 1375 0
-1058 279 0
-927 -688 0
-330 242 0
715 -965 0
-1274 -897 0
151 948 0
-47 -42 0
-1364 1223 0
-424 1150 0
1041 523 0
866 1367 0
417 -89 0
-574 275 0
1065 961 0
-683 1236 0
507 -816 0
-916 1202 0
687 -27 0
-70 -807 0
-1104 1371 0
-211 494 0
34 -1327 0
-1087 -1240 0
-17 995 0
-486 -353 0
-256 -659 0
767 -1230 0
-340 -1349 0
-617 -1082 0
-11 -627 0
-499 798 0
869 -45 0
-653 -1087 0
478 -783 0
-1175 -109 0
-1031 1426 0
-958 -1218 0
-5 -1086 0
-815 -1000 0
90 444 0
770 1417 0
-213 336 0
456 -753 0
972 55 0
-1301 -442 0
-707 1207 0
525 -1382 0
874 -758 0
-1392 -584 0
-430 -764 0
-99 -215 0
-1417 881 0
71 1079 0
-761 1123 0
521 -404 0
-1091 -1026 0
261 1098 0
1147 746 0
-1443 -297 0
-1118 -1311 0
-818 172 0
-503 -240 0
-861 1162 0
-609 30 0
-279 687 0
556 -706 0
-29 852 0
458 -437 0
64 558 0
-813 187 0
1155 -716 0
710 1064 0
1360 1371 0
-1065 -400 0
1294 1178 0
1278 1358 0
893 1108 0
-888 1005 0
-529 -1175 0
-112 214 0
850 541 0
381 189 0
156 -1082 0
-19 1303 0
-778 -675 0
-330 329 0
945 -898 0
-225 -1131 0
-579 -408 0
-1301 -650 0
764 1281 0
-1436 -1408 0
899 675 0
207 300 0
-225 523 0
-219 -926 0
-830 -1205 0
-272 -1187 0
-989 352 0
797 714 0
-750 -121 0
-211 202 0
-16 -737 0
-1086 -344 0
-330 1318 0
680 407 0
-983 290 0
450 1 0
-124 1418 0
-413 -384 0
729 -1170 0
309 672 0
-496 -1387 0
1128 -352 0
-887 911 0
-298 -822 0
456 454 0
974 -936 0
-437 -47 0
150 -268 0
-802 -1403 0
-518 -1427 0
-463 157 0
18 687 0
808 -146 0
1374 467 0
-344 100 0
55 1312 0
30 664 0
-761 14 0
317 864 0
873 549 0
137 1342 0
828 -278 0
1038 -1274 0
-803 638 0
-253 1432 0
164 -226 0
-607 -951 0
-1151 -764 0
1155 -1267 0
-1096 1404 0
-283 192 0
-1214 -89 0
514 410 0
-608 -281 0
497 860 0
-1343 351 0
-228 523 0
-174 -705 0
-440 -1348 0
442 -1033 0
-421 371 0
-154 -229 0
-754 806 0
1358 -1091 0
1070 1282 0
398 272 0
279 -433 0
976 -121 0
1028 -532 0
506 661 0
-876 1276 0
-880 -560 0
-1376 -1008 0
673 -1251 0
1439 667 0
173 -400 0
-433 1002 0
-853 780 0
-433 -245 0
-743 523 0
194 973 0
-482 940 0
-444 -791 0
626 -1017 0
-1267 1402 0
-507 -1295 0
-1061 -541 0
-402 1309 0
-493 -158 0
-759 -838 0
226 -447 0
-527 169 0
-609 -776 0
647 -553 0
893 1223 0
351 -1265 0
279 -1069 0
-494 -1270 0
502 -1031 0
-1417 -357 0
810 664 0
811 -1042 0
-635 -610 0
150 -1386 0
-1341 973 0
290 -211 0
693 442 0
-8 735 0
1073 1153 0
421 662 0
-624 -1177 0
-736 72 0
301 894 0
-73 710 0
209 -994 0
-161 -1213 0
957 -1392 0
901 377 0
740 726 0
-1208 1018 0
-1279 541 0
960 -985 0
-1290 -612 0
-1393 -443 0
4 589 0
-230 231 0
1306 -226 0
-1306 523 0
750 1167 0
-731 -815 0
-898 1374 0
198 -438 0
425 -515 0
340 1293 0
-1430 -412 0
-771 223 0
1116 1012 0
60 -500 0
668 -1262 0
1114 741 0
-1266 597 0
-873 -1350 0
-623 201 0
1238 -1401 0
-567 -408 0
-1289 836 0
-455 1358 0
227 -96 0
685 -825 0
-383 848 0
115 -1288 0
-1165 -614 0
-277 -1248 0
-383 -420 0
106 -1409 0
1095 34 0
186 1146 0
2 -1419 0
136 624 0
475 -296 0
-1136 1035 0
-1357 581 0
-649 -635 0
-660 288 0
879 624 0
1316 -1251 0
-262 -245 0
-35 -1017 0
635 -74 0
-1297 -1262 0
1268 -1304 0
845 -986 0
644 -575 0
-320 -1383 0
979 -1177 0
1427 1070 0
-51 -1207 0
135 117 0
-75 178 0
312 -337 0
277 1054 0
511 -320 0
257 491 0
875 -1362 0
-491 -427 0
335 499 0
244 -1207 0
-340 1376 0
1235 -303 0
-308 -946 0
-630 23 0
-1134 816 0
-258 452 0
562 104 0
740 282 0
406 -236 0
1035 -1122 0
-604 -1100 0
365 -1106 0
669 -954 0
-1358 -534 0
879 -1320 0
-1263 -640 0
463 594 0
97 851 0
1266 596 0
440 330 0
586 -892 0
149 705 0
-1255 -848 0
-850 -579 0
1363 -527 0
-295 -830 0
738 -1252 0
-296 -543 0
-507 626 0
1170 52 0
-882 357 0
526 -168 0
-1065 1425 0
-341 930 0
157 1390 0
-111 1337 0
515 -864 0
1069 -640 0
-196 -215 0
71 463 0
601 -534 0
15 197 0
253 1133 0
810 365 0
-489 890 0
1195 -41 0
-769 -749 0
960 995 0
-588 700 0
435 -1256 0
-468 6 0
-932 392 0
-801 -1382 0
-1095 1145 0
-735 -983 0
-440 -1344 0
-1125 1434 0
-1287 680 0
-1045 949 0
807 -1307 0
747 1035 0
515 171 0
-1284 126 0
916 -216 0
1052 1234 0
-843 -439 0
539 -1043 0
-506 -637 0
-1217 39 0
1421 814 0
347 -388 0
-599 1216 0
274 1267 0
183 -813 0
-1355 1094 0
-171 -1175 0
830 -443 0
-414 286 0
1178 -636 0
-643 -1196 0
-64 -965 0
349 -220 0
665 -1349 0
506 51 0
784 -777 0
234 -1405 0
-472 -999 0
1255 -235 0
18 696 0
1383 -1124 0
1158 -216 0
-194 -767 0
-1235 86 0
993 -1334 0
-981 -1123 0
-999 1181 0
-1149 159 0
1391 -1420 0
205 210 0
-305 1045 0
-448 -743 0
-941 1387 0
-106 192 0
-89 -1181 0
1166 -254 0
-1008 1267 0
493 -134 0
-287 -1010 0
1205 697 0
-841 -643 0
1011 834 0
-443 -1328 0
-501 1311 0
-1189 -1157 0
971 -1226 0
-422 -427 0
617 46 0
-1241 322 0
-853 -393 0
-619 1196 0
661 365 0
87 1126 0
-632 -1004 0
-1440 363 0
18 -750 0
-396 -739 0
728 700 0
-352 1079 0
-165 1327 0
-769 189 0
-464 879 0
-906 -1168 0
-800 384 0
-718 -1127 0
-1189 -419 0
323 588 0
1432 160 0
-509 -1352 0
-1204 -1280 0
709 -508 0
16 976 0
767 -939 0
251 -260 0
-1349 310 0
1020 -1261 0
-437 456 0
-1039 1163 0
700 412 0
673 1245 0
52 -956 0
401 968 0
41 1412 0
-748 301 0
1133 -714 0
552 424 0
-686 -576 0
601 892 0
-532 398 0
-595 -999 0
-343 1259 0
-124 480 0
-502 601 0
-272 -505 0
-816 842 0
7 -1087 0
829 349 0
-1078 414 0
155 263 0
171 -1211 0
1321 -553 0
1123 1286 0
-543 182 0
1145 -1210 0
929 -892 0
529 -834 0
937 -305 0
1181 -792 0
-444 -1091 0
-174 -1316 0
1001 -523 0
-673 -393 0
-1149 -13 0
54 -1280 0
-662 -110 0
-1327 387 0
1090 19 0
1176 997 0
268 -820 0
1351 -868 0
1156 512 0
482 1093 0
1282 949 0
-737 -433 0
-324 74 0
896 1140 0
977 911 0
-499 -1015 0
-927 -115 0
41 1358 0
621 1252 0
-799 668 0
1103 322 0
1162 -1023 0
735 -1282 0
343 1321 0
