c bounds 297 297
p cnf 505 252
136 -125 0
239 498 0
274 -170 0
355 267 0
65 -95 0
444 232 0
320 175 0
-34 70 0
259 4 0
494 142 0
-467 -472 0
-246 217 0
-151 418 0
-469 37 0
-473 351 0
-224 63 0
-226 74 0
76 -410 0
-132 41 0
-437 -207 0
375 337 0
-26 -287 0
-52 -79 0
-446 -100 0
-380 -71 0
-324 486 0
311 -42 0
65 -471 0
249 -315 0
-261 180 0
308 -262 0
160 -356 0
-318 483 0
249 -249 0
501 -197 0
208 252 0
-97 86 0
340 -47 0
441 -245 0
174 289 0
-347 316 0
-167 322 0
-359 484 0
179 -48 0
-452 -379 0
57 295 0
493 336 0
-19 210 0
168 -95 0
82 -268 0
-323 352 0
-10 -392 0
-265 -111 0
264 -167 0
505 -207 0
431 55 0
-202 -387 0
4 -292 0
132 -279 0
416 -257 0
272 3 0
58 -462 0
105 233 0
190 -311 0
141 -205 0
461 -349 0
86 -139 0
57 -26 0
217 -360 0
168 191 0
489 213 0
295 270 0
480 -29 0
212 459 0
-25 468 0
154 -104 0
370 274 0
-271 -348 0
-265 493 0
-49 -130 0
-164 64 0
74 40 0
-43 147 0
76 85 0
-340 -374 0
307 86 0
227 -183 0
229 447 0
-411 -283 0
-382 121 0
85 363 0
-327 270 0
103 171 0
-296 398 0
-406 245 0
-243 179 0
272 91 0
57 119 0
-432 354 0
165 -86 0
468 12 0
-252 -29 0
-150 247 0
68 214 0
41 -211 0
-130 49 0
282 -11 0
216 -257 0
-182 502 0
335 445 0
353 -280 0
355 228 0
481 -30 0
-133 488 0
-453 375 0
-452 92 0
-303 -29 0
-368 113 0
-48 382 0
-382 -173 0
252 -473 0
442 360 0
-234 -397 0
299 -437 0
382 -478 0
-25 316 0
-46 -114 0
-196 -251 0
204 -378 0
280 227 0
-402 109 0
-96 179 0
39 153 0
-182 -243 0
-80 -273 0
473 80 0
220 33 0
-67 -361 0
63 -145 0
479 -421 0
124 195 0
397 -123 0
-293 36 0
240 -94 0
-55 -119 0
423 173 0
-361 -245 0
-381 383 0
80 -474 0
-347 -91 0
-166 -345 0
65 -163 0
-397 -55 0
-321 473 0
232 204 0
217 -84 0
-48 438 0
-465 89 0
291 23 0
-333 81 0
-476 177 0
444 350 0
-52 -462 0
-51 -457 0
-80 343 0
135 391 0
-139 -468 0
-210 462 0
-195 7 0
-332 -458 0
-51 -202 0
190 196 0
169 -298 0
-79 466 0
-269 92 0
-301 227 0
292 -46 0
-238 -285 0
-427 413 0
49 -334 0
335 62 0
411 -238 0
-73 393 0
-415 -45 0
53 -355 0
-488 -292 0
-27 408 0
-369 -201 0
-238 -386 0
-413 21 0
-205 56 0
213 331 0
184 172 0
41 -420 0
-331 -438 0
65 -333 0
39 -379 0
-466 375 0
425 -151 0
-239 -285 0
-281 -241 0
-200 369 0
-97 -252 0
-418 -328 0
153 283 0
475 -365 0
420 312 0
18 379 0
337 442 0
-314 234 0
117 416 0
17 -343 0
172 -19 0
360 -215 0
139 156 0
420 17 0
-16 -237 0
270 293 0
218 225 0
-4 160 0
-2 197 0
279 403 0
-385 -301 0
32 -158 0
418 235 0
-430 -291 0
185 -174 0
387 -380 0
-177 -387 0
135 132 0
8 310 0
333 -98 0
178 -402 0
-184 -260 0
-276 -430 0
-273 -9 0
-162 403 0
488 -182 0
-365 501 0
309 -287 0
-177 -189 0
291 -78 0
-194 -228 0
-94 125 0
-409 -231 0
-414 -183 0
-267 -173 0
-450 378 0
395 310 0
-445 -150 0
-211 -233 0
422 -232 0
