c bounds 127 140
p cnf 460 598
-151 396 0
-140 -22 0
137 342 0
-402 -166 0
349 95 0
395 -424 0
296 -231 0
153 416 0
313 -244 0
-365 -191 0
-132 -414 0
-62 426 0
-165 -51 0
14 -63 0
436 374 0
-152 345 0
79 1 0
-78 -278 0
-376 443 0
-191 272 0
149 51 0
3 128 0
-292 397 0
191 142 0
-46 -456 0
250 -93 0
117 232 0
-119 20 0
245 122 0
344 433 0
-122 -341 0
88 270 0
-416 322 0
356 -105 0
365 363 0
1 76 0
58 -178 0
213 219 0
179 194 0
-398 105 0
-250 -414 0
248 -73 0
417 81 0
-234 -283 0
-94 -364 0
-376 -270 0
78 -102 0
38 413 0
270 361 0
385 87 0
-284 -290 0
198 -211 0
-331 360 0
-246 374 0
146 164 0
386 440 0
-7 -23 0
-336 269 0
141 8 0
-2 -242 0
-174 -262 0
-28 -341 0
37 -377 0
-153 -402 0
135 -28 0
-68 347 0
-456 -139 0
114 -135 0
6 -217 0
61 331 0
-259 301 0
-249 253 0
344 397 0
99 -28 0
452 245 0
357 -105 0
-141 -117 0
-286 40 0
-78 -272 0
-74 -96 0
374 13 0
355 -285 0
-274 257 0
366 372 0
-177 356 0
365 424 0
-368 -411 0
-338 268 0
361 411 0
191 359 0
-118 205 0
-166 393 0
-267 -74 0
104 -63 0
-21 72 0
18 403 0
88 250 0
-63 -297 0
454 -410 0
364 313 0
-59 -434 0
175 187 0
-399 17 0
404 77 0
85 212 0
-44 -29 0
447 -403 0
237 247 0
-138 -217 0
393 -109 0
354 -284 0
459 -112 0
151 -95 0
-351 -256 0
-246 -167 0
423 -425 0
423 -4 0
47 -337 0
-206 101 0
62 -136 0
321 -262 0
363 -41 0
-190 135 0
-93 228 0
-298 -173 0
149 171 0
-182 -291 0
-425 -337 0
-456 -154 0
-183 -422 0
-152 -72 0
24 -278 0
-154 299 0
-367 -152 0
-424 387 0
-292 -308 0
-24 -295 0
-33 309 0
-172 -414 0
457 45 0
245 230 0
73 93 0
210 -17 0
25 -226 0
382 -28 0
174 41 0
-42 384 0
-334 -448 0
-144 -145 0
385 344 0
230 -64 0
-429 433 0
-68 -179 0
-290 -391 0
-97 435 0
139 274 0
-286 -350 0
-254 61 0
335 -26 0
132 -30 0
-341 260 0
121 -315 0
113 -368 0
191 297 0
175 144 0
205 450 0
-125 -80 0
-314 273 0
11 74 0
417 -419 0
41 303 0
85 -457 0
-126 210 0
-263 -60 0
-80 -427 0
19 108 0
321 275 0
187 -183 0
-181 -394 0
-441 98 0
250 -248 0
-218 204 0
19 149 0
-94 -310 0
24 -392 0
-234 286 0
195 -383 0
-172 -117 0
-380 77 0
460 -326 0
316 -74 0
-155 -172 0
244 -20 0
-379 -353 0
164 -407 0
-126 -405 0
44 58 0
189 316 0
229 141 0
-326 -183 0
267 80 0
299 382 0
353 201 0
-393 -337 0
-384 237 0
32 -232 0
-351 7 0
-106 -457 0
163 315 0
224 47 0
454 -131 0
330 -172 0
-28 60 0
-271 -159 0
360 -310 0
-231 -109 0
237 425 0
158 -298 0
156 -419 0
79 -456 0
155 -261 0
-301 350 0
-288 256 0
97 369 0
107 -378 0
229 86 0
151 -246 0
7 -191 0
335 341 0
325 404 0
-115 -175 0
9 75 0
249 344 0
270 30 0
180 -305 0
-130 342 0
99 151 0
-389 -171 0
439 -240 0
447 -277 0
51 -51 0
109 -124 0
300 -8 0
215 -220 0
-105 3 0
-182 281 0
185 -231 0
30 312 0
-182 105 0
-391 -16 0
178 -316 0
241 -203 0
269 -144 0
-117 -82 0
-152 89 0
153 -90 0
-11 267 0
-172 -71 0
-152 384 0
151 -444 0
-120 -215 0
413 -308 0
206 -78 0
102 340 0
-312 359 0
-277 -154 0
-118 -14 0
89 341 0
-80 389 0
-290 -58 0
86 -308 0
419 194 0
-93 128 0
-206 228 0
-108 157 0
-160 322 0
180 407 0
-159 297 0
-73 365 0
77 -244 0
-305 308 0
50 94 0
-431 -40 0
113 -47 0
258 -238 0
-439 -138 0
-93 197 0
-68 48 0
-450 192 0
390 -414 0
33 -340 0
349 -172 0
269 -223 0
18 211 0
-314 174 0
260 24 0
-283 -181 0
-332 -271 0
355 -71 0
-268 277 0
274 -154 0
-193 -409 0
-435 -125 0
-244 -109 0
-59 -230 0
50 230 0
78 427 0
-264 124 0
317 169 0
-70 -424 0
-367 -408 0
-231 -21 0
72 -402 0
-173 -409 0
-123 -458 0
7 -369 0
-125 18 0
425 -414 0
38 -270 0
-218 -325 0
-22 -203 0
103 289 0
-435 -195 0
312 37 0
363 312 0
133 -77 0
-122 -410 0
221 441 0
-155 -261 0
-346 -260 0
-13 116 0
99 72 0
-48 -62 0
-280 -191 0
-243 -203 0
263 356 0
-154 -438 0
303 163 0
452 392 0
266 -228 0
203 -377 0
434 -161 0
-46 -2 0
-364 -231 0
225 -447 0
247 -110 0
-195 -291 0
-14 -80 0
329 109 0
340 445 0
-252 310 0
-331 -17 0
18 -324 0
360 -151 0
-370 128 0
-141 250 0
6 458 0
-93 249 0
-384 -43 0
234 333 0
-70 -332 0
-257 79 0
48 -188 0
-414 159 0
-398 -125 0
-452 -326 0
111 116 0
161 -95 0
56 416 0
434 224 0
-190 -197 0
308 -339 0
-276 -398 0
-304 265 0
-314 -16 0
-380 227 0
417 351 0
-337 -42 0
-41 -102 0
-367 -348 0
256 -410 0
418 27 0
-167 309 0
290 -80 0
-430 -10 0
-170 -365 0
300 -108 0
85 385 0
346 -5 0
-5 152 0
45 235 0
340 184 0
-305 424 0
-66 98 0
77 -61 0
-275 319 0
-375 54 0
38 117 0
-425 327 0
86 208 0
265 -5 0
151 -295 0
229 -338 0
-117 -81 0
436 -202 0
-60 -359 0
-217 -74 0
-174 196 0
-240 348 0
127 55 0
-458 -161 0
-118 128 0
-440 -413 0
-84 24 0
15 -152 0
162 -261 0
313 413 0
-294 -59 0
377 -119 0
-198 378 0
-165 137 0
361 17 0
408 -43 0
25 -144 0
-124 -400 0
-295 -366 0
-255 361 0
-380 -19 0
266 101 0
-50 -423 0
363 -255 0
-238 460 0
52 7 0
-96 90 0
-303 222 0
-133 -290 0
133 441 0
-261 -134 0
-352 -272 0
-456 317 0
-345 427 0
-160 86 0
386 -88 0
-256 53 0
-172 180 0
273 -94 0
-441 -391 0
-155 -141 0
65 248 0
-34 -310 0
-234 -453 0
333 -357 0
-71 -332 0
-225 376 0
-456 35 0
-357 -399 0
394 -221 0
93 -318 0
58 -89 0
444 -99 0
-332 344 0
-321 459 0
267 363 0
294 172 0
7 -152 0
128 -202 0
309 177 0
-44 221 0
272 328 0
388 -261 0
204 313 0
133 -12 0
374 83 0
-249 -201 0
430 -218 0
209 -215 0
355 -237 0
-253 323 0
49 169 0
444 427 0
-176 -71 0
458 260 0
-444 -207 0
367 142 0
-372 -95 0
-413 104 0
-117 -260 0
-74 460 0
-376 -430 0
-59 -20 0
43 266 0
370 -225 0
-95 -256 0
434 -2 0
-228 124 0
187 247 0
-170 -341 0
-150 -94 0
-402 -31 0
164 -17 0
-247 -415 0
24 230 0
11 -83 0
-276 -29 0
-351 -276 0
450 -203 0
-268 -26 0
-348 58 0
-220 447 0
-144 -193 0
370 207 0
-141 24 0
304 -400 0
-72 439 0
425 58 0
-214 3 0
-391 98 0
-303 -26 0
361 454 0
186 267 0
317 126 0
-235 288 0
383 -68 0
-202 142 0
-422 104 0
349 -89 0
-305 -273 0
-115 -62 0
217 45 0
428 -450 0
-352 -448 0
-92 455 0
192 -460 0
-234 -194 0
128 247 0
296 -346 0
-218 -343 0
-430 -96 0
309 -176 0
107 98 0
-302 -196 0
382 206 0
-9 199 0
-337 78 0
59 242 0
-21 91 0
433 135 0
-226 -93 0
-412 -26 0
-201 416 0
-447 -283 0
-403 -64 0
-346 -78 0
-17 -144 0
-409 -103 0
130 358 0
279 450 0
443 -61 0
-385 73 0
-29 325 0
128 29 0
420 -421 0
183 -370 0
-88 355 0
194 -9 0
148 278 0
59 157 0
-39 -168 0
260 -80 0
-424 -115 0
-214 -122 0
-313 433 0
-398 -330 0
24 -13 0
69 18 0
-391 -311 0
-450 -154 0
114 391 0
-402 -250 0
-446 -117 0
-274 -141 0
-21 77 0
-212 129 0
268 439 0
-298 -127 0
-36 -95 0
286 304 0
180 323 0
-235 120 0
437 266 0
210 -162 0
-152 176 0
347 -120 0
-123 363 0
38 -416 0
396 -410 0
-47 -206 0
292 -131 0
