c NF
p cnf 4387 9213
-2353 -1608 0
-2595 2484 0
583 -320 0
-3447 -859 0
2200 -3986 0
1214 3729 0
980 2016 0
2067 -1350 0
-1602 -663 0
-4254 -2120 0
-3110 -3876 0
743 2539 0
467 -2849 0
-515 -1556 0
-2937 1350 0
2018 3950 0
-524 -3147 0
-4 2144 0
-2682 2570 0
-3824 -3969 0
722 -2925 0
-1481 -1103 0
739 -252 0
-194 -137 0
-2480 1708 0
-381 -3316 0
-845 1591 0
266 3489 0
-3077 -3326 0
-848 3004 0
-1006 -166 0
2242 -309 0
2115 2079 0
-2750 -2682 0
-3347 -1909 0
-2332 151 0
-3946 -28 0
1942 -735 0
-904 -386 0
-855 -2132 0
-3738 2892 0
3638 2817 0
3660 1160 0
3846 517 0
-914 -1476 0
3740 1565 0
1454 2425 0
1442 3909 0
1025 1790 0
1547 -632 0
-1500 292 0
2472 -334 0
-375 3079 0
3732 1827 0
715 -944 0
-2211 -3076 0
4151 -4152 0
-2598 -15 0
1317 1853 0
3689 1919 0
-309 -1258 0
838 4341 0
-2683 439 0
25 -2104 0
-1506 -2309 0
-1031 365 0
-3139 -1978 0
-4295 -4135 0
-3356 -3968 0
-3478 -2565 0
2859 4273 0
-1866 -3885 0
-627 849 0
-3747 173 0
-603 2122 0
-1552 -4097 0
62 -2895 0
1623 412 0
-3397 -3637 0
-1676 2952 0
1686 2165 0
3854 -2921 0
-4244 -4146 0
1910 2212 0
3758 1126 0
-2849 -844 0
-3310 2524 0
-1067 -1753 0
-338 -596 0
-4234 -3739 0
1352 413 0
-3009 3258 0
-2303 -490 0
2089 -184 0
-1931 -937 0
3428 -2212 0
3900 -4163 0
2118 -3851 0
1743 -1964 0
2536 -4140 0
-898 -206 0
-48 -3772 0
-2597 -1726 0
1748 798 0
-893 -2865 0
1108 -371 0
1584 -189 0
2249 -2118 0
-968 -325 0
-589 -1657 0
2371 3704 0
254 1161 0
-4026 3474 0
-1195 -3438 0
-1118 3036 0
-2797 -192 0
-1228 -1720 0
-3398 -416 0
3167 -4243 0
624 -771 0
-67 -3266 0
-3855 4092 0
-2113 -1861 0
2514 -1091 0
2312 -2389 0
-2636 2261 0
3197 4103 0
-372 4068 0
3592 943 0
3885 1796 0
603 3906 0
-3837 -633 0
1877 169 0
-1291 -351 0
437 319 0
579 4137 0
1993 3527 0
3532 2930 0
-233 4339 0
-39 2062 0
4053 1024 0
-1703 -2833 0
3665 230 0
3687 2177 0
860 -1833 0
1097 -1037 0
3263 -687 0
-2758 4079 0
-101 3570 0
4007 -2873 0
-797 -999 0
-2193 -27 0
-3821 2190 0
-3589 2539 0
1445 -121 0
-2856 -1831 0
3530 -3379 0
-2951 -3137 0
-3722 -1397 0
-217 -1292 0
4057 3479 0
-2691 4253 0
-1637 -3327 0
-3864 -2360 0
-724 1134 0
804 3243 0
-594 2410 0
-3587 -1474 0
598 -222 0
-4139 -2120 0
1378 399 0
1891 -2241 0
-1837 -159 0
3134 660 0
-1342 2046 0
1198 -3478 0
-2264 1594 0
-476 529 0
-3793 -469 0
1609 945 0
-3631 -793 0
-2276 -2264 0
-1703 -1292 0
60 -2086 0
2863 1907 0
3992 -189 0
3387 3598 0
3906 -709 0
-1773 3502 0
399 -3841 0
-1166 -4276 0
1201 -502 0
-2509 871 0
-1087 -1250 0
3899 2643 0
-2555 2586 0
2919 -2812 0
1747 2297 0
-2812 -1708 0
789 1978 0
2456 3953 0
2610 -2209 0
-290 -1958 0
4335 -207 0
2585 481 0
2121 -1969 0
-1197 -147 0
-1818 -2751 0
2828 195 0
4372 2246 0
-1089 3669 0
-2702 -961 0
1726 -1120 0
-2895 -2331 0
-2042 -3741 0
-3000 3632 0
3371 1573 0
683 1167 0
-3599 -2216 0
858 2343 0
3596 -1581 0
-1230 528 0
-1171 1535 0
-2136 -2065 0
-1007 -2465 0
-4337 -710 0
3869 -407 0
1877 1950 0
1916 630 0
3880 3581 0
107 -688 0
2921 -4026 0
4240 2065 0
3579 -525 0
2269 -808 0
3795 -1096 0
808 -1103 0
1885 -1012 0
4235 1529 0
-1832 1196 0
3155 27 0
920 -3105 0
-958 -16 0
795 -308 0
-3535 -2886 0
3905 3307 0
3135 -1479 0
289 -4090 0
1947 4040 0
4196 -862 0
-3338 1484 0
259 -4296 0
1733 -3750 0
1558 -456 0
835 -3784 0
-1855 -1440 0
-1348 2228 0
-1391 -648 0
662 1765 0
-941 -1284 0
2105 -1680 0
-2692 -253 0
3346 -3946 0
-775 2251 0
3497 4147 0
333 1141 0
3387 599 0
-2597 -2373 0
2478 -3308 0
3493 -3307 0
4247 -3630 0
-2608 3749 0
358 3483 0
841 2604 0
-3677 2542 0
-604 -1884 0
197 3445 0
-2535 -555 0
-838 -4150 0
-1053 1893 0
1217 -2357 0
4354 -2829 0
-1751 -543 0
-1935 145 0
3818 1785 0
246 1286 0
-3278 -2264 0
880 1497 0
4049 -3035 0
2084 2703 0
-2341 -3750 0
4116 -376 0
2382 1598 0
772 3904 0
-3137 -550 0
2908 4137 0
1818 -2313 0
2783 -1482 0
-4344 -1517 0
-3251 3372 0
3732 -3708 0
-2244 -3503 0
1835 3144 0
2919 3958 0
3429 -3480 0
1470 -3673 0
2671 2513 0
-3273 267 0
-936 2276 0
-2140 2712 0
-2847 2270 0
214 -1185 0
-3062 3244 0
3507 -1418 0
-1131 760 0
1802 -4007 0
2089 1590 0
-2687 -3112 0
2294 1462 0
-1479 -1554 0
-3377 1764 0
3156 771 0
-3889 -936 0
2527 -3196 0
-722 -4097 0
-3310 -2395 0
-405 -3325 0
-2590 -4138 0
2233 1752 0
4081 -1011 0
-4379 982 0
-1623 975 0
-2734 -592 0
3491 -3093 0
-1020 1879 0
-2559 -673 0
114 1348 0
-2266 967 0
-1624 -4374 0
3729 785 0
-736 -4209 0
-3218 1424 0
-3814 -689 0
-3608 188 0
-3660 -263 0
-1458 1891 0
678 3209 0
-884 -1104 0
-4360 3184 0
-3357 2453 0
-3264 3276 0
-36 430 0
3788 -2462 0
-1268 2168 0
3859 2898 0
-1936 2450 0
598 -3399 0
3883 4242 0
-1342 2958 0
-528 -2593 0
-3688 -3754 0
2893 -548 0
-4138 -1646 0
-545 -2260 0
-3742 4312 0
-3016 1037 0
257 -2376 0
-484 4223 0
-2087 -2226 0
-573 -1065 0
-247 3622 0
-366 -3091 0
-4321 -432 0
-2141 2225 0
2286 1175 0
785 -3595 0
4259 3448 0
-476 387 0
4037 -3520 0
1798 -1838 0
-1511 3027 0
-2260 1028 0
4164 -1654 0
-3081 3072 0
4139 -2036 0
-1110 -1795 0
942 -2572 0
-1120 237 0
-3272 -3131 0
-3426 1092 0
1551 -689 0
2128 841 0
1496 -680 0
2052 -3763 0
2745 282 0
-2234 4284 0
972 -4195 0
-12 -1451 0
-2014 -2222 0
3914 -4346 0
-2437 424 0
3146 862 0
-1283 1728 0
-3254 -2434 0
2245 -3110 0
-752 2848 0
75 -203 0
4042 563 0
-3622 -2140 0
1147 3682 0
1788 4260 0
-3855 -280 0
-147 -418 0
-3294 2791 0
-3989 -3060 0
2031 -436 0
3840 1743 0
1633 4076 0
-4276 -1517 0
-3692 -4188 0
520 -2457 0
2944 1709 0
-2814 -3772 0
-1923 739 0
-2880 101 0
3210 -872 0
-1548 -3822 0
-1663 2738 0
-3902 3974 0
-2318 2585 0
238 3081 0
1957 -676 0
1189 -4327 0
309 -3523 0
-2549 3189 0
1648 333 0
3651 -2097 0
-2477 2397 0
3835 -824 0
2199 2621 0
2200 -2745 0
2502 -2245 0
-2265 -3614 0
3072 -2070 0
3386 -450 0
3301 -2746 0
-2889 -1044 0
167 1920 0
-1669 3752 0
3306 2871 0
2039 1227 0
-4258 -1863 0
-3843 3829 0
3282 1585 0
2779 -1302 0
2965 2381 0
-45 -2744 0
-3692 -2788 0
-666 1694 0
-2770 -3381 0
1099 -2083 0
3650 -1472 0
3613 2003 0
4350 4035 0
666 -2599 0
-3947 2075 0
1910 -4075 0
-328 571 0
-1740 2244 0
1073 2983 0
-4365 -795 0
-555 381 0
1595 1690 0
1976 4112 0
-1421 945 0
-2924 -4360 0
-3125 -3113 0
4178 2246 0
-722 -3325 0
407 -4108 0
1354 -176 0
59 -3870 0
-165 -2818 0
2762 -369 0
334 3751 0
-4071 -3018 0
1622 1157 0
-3874 853 0
2567 895 0
-1764 -3929 0
1727 -2613 0
-3724 1607 0
3903 2093 0
3770 -509 0
1014 -926 0
1810 1173 0
3441 -3895 0
-2556 4030 0
863 1185 0
-3331 -3125 0
-2029 207 0
3615 3501 0
-4370 4287 0
4046 -1696 0
-2402 988 0
-3014 1379 0
-826 -1805 0
-3948 -2867 0
-2544 727 0
412 3990 0
-2866 -1570 0
2775 727 0
2472 -2665 0
2339 2330 0
-4120 3719 0
-1895 3467 0
2423 1988 0
3161 -2224 0
3324 -4118 0
-555 1617 0
-838 -3055 0
1158 354 0
1219 3224 0
-912 3174 0
-827 4283 0
-3071 -2133 0
3882 -3090 0
3311 -3462 0
1292 -252 0
-1750 -1345 0
2415 703 0
-359 865 0
3130 480 0
3156 -969 0
4143 -3310 0
-1662 -2872 0
3367 -2962 0
-766 2885 0
-1575 -818 0
-1642 39 0
-2447 702 0
-3260 -282 0
690 -2782 0
887 -597 0
1444 -1952 0
-1323 -1752 0
-4011 2862 0
2064 -2967 0
-4333 -3024 0
41 2699 0
-573 -2629 0
415 4200 0
2320 -510 0
-4083 3867 0
-3422 3713 0
-4089 1756 0
-1497 -901 0
-4314 2518 0
-3726 -1850 0
-1845 2438 0
536 348 0
1234 -2392 0
-3373 3756 0
-4172 -1585 0
-4311 -3620 0
1163 -3206 0
4066 -2150 0
-1002 1062 0
-1507 -1915 0
-2634 -3302 0
-2610 -1555 0
-1206 -3988 0
2551 -3619 0
3224 2292 0
1486 2940 0
-2981 2213 0
3800 -452 0
-603 3146 0
-653 -3064 0
193 -2892 0
-3737 1144 0
2075 -4145 0
2569 -528 0
102 195 0
-3281 -3581 0
-383 -2232 0
2627 924 0
1156 -3880 0
1077 3570 0
3026 2395 0
-176 -1257 0
-2033 -703 0
-2865 3844 0
2245 2827 0
2469 739 0
48 -593 0
3008 2348 0
-788 -3142 0
-4318 -482 0
-4071 3811 0
2473 4319 0
2913 -723 0
4089 1804 0
-3549 -3940 0
1916 3629 0
442 -3503 0
-2626 -3725 0
1929 812 0
-1828 -4105 0
3721 -1520 0
951 -350 0
2783 -755 0
-3257 -3280 0
2526 -4036 0
427 -3500 0
-772 -3703 0
2875 -3576 0
3277 3582 0
-629 -3578 0
-826 -2817 0
-2579 -3357 0
2392 1769 0
-13 -3139 0
2397 3757 0
-546 2239 0
2830 3093 0
-3315 -3435 0
1439 -2107 0
-1751 2347 0
-775 3645 0
-1238 2286 0
-883 4095 0
-2612 -1836 0
-3932 479 0
4101 721 0
796 4149 0
-923 3643 0
1074 -2755 0
-4023 -3344 0
649 2633 0
-4200 1457 0
1678 3955 0
3501 -4084 0
-3161 -133 0
-1970 -1587 0
-3357 746 0
-616 -709 0
-3960 -1137 0
-1159 1733 0
2508 -2088 0
3881 -261 0
3335 390 0
-1417 -1547 0
-4150 -4172 0
-297 1694 0
-3687 2214 0
-3822 254 0
-3044 1205 0
-1761 2416 0
447 1134 0
-2663 1519 0
3304 2510 0
3039 1530 0
-4302 -1138 0
80 -381 0
1121 2542 0
937 -912 0
288 -2584 0
2414 -337 0
955 -2920 0
4161 -165 0
1827 -2818 0
-1742 -3686 0
-2848 -4281 0
-48 -239 0
-1301 1982 0
-276 2562 0
1496 1531 0
-3202 4189 0
2642 -3056 0
114 1727 0
4288 684 0
2868 -4152 0
-1798 3129 0
1257 -3371 0
-3747 -2219 0
-2956 -3656 0
3129 3487 0
1754 -2971 0
-3533 4256 0
-2691 2765 0
-326 690 0
-1465 -3155 0
-2993 -1686 0
304 1242 0
1962 -3734 0
-4368 2031 0
1471 1535 0
-1390 2580 0
-1689 -1409 0
1841 -4304 0
2006 3490 0
1320 3030 0
135 -2548 0
-1324 4141 0
1965 22 0
125 -3571 0
-334 297 0
3475 -3310 0
818 -1301 0
-2776 3046 0
3193 -1021 0
3203 -2118 0
-3243 -2132 0
-2199 -3377 0
2276 688 0
-2543 -2475 0
821 3071 0
2962 -4214 0
-2572 399 0
1253 -3780 0
-1706 2442 0
3802 -2192 0
4366 -3179 0
-1943 172 0
4127 3622 0
3189 -1301 0
-3346 -1386 0
-2670 -2224 0
2024 2476 0
-813 -111 0
-46 -4387 0
2753 -1 0
-2256 -332 0
329 -2283 0
-2724 -2223 0
-3647 -471 0
2215 -1140 0
2153 61 0
3012 -3390 0
-450 -2897 0
2076 1157 0
942 -2323 0
-588 -2818 0
-2658 -2595 0
-1686 659 0
-3759 1617 0
-4236 -1656 0
-2662 1780 0
-1185 3390 0
-2907 -2281 0
1932 691 0
-3185 3369 0
-3995 4155 0
1357 -2739 0
-75 812 0
-324 3821 0
-4131 779 0
-3205 -3963 0
701 4256 0
-260 -1046 0
3627 3236 0
-968 -1633 0
-3084 -3051 0
-159 1068 0
-3182 396 0
3191 1821 0
4111 1178 0
2058 2101 0
1873 -1875 0
3773 -3276 0
-667 529 0
2413 3874 0
-1935 -1465 0
1591 3555 0
885 2776 0
445 4045 0
-716 1566 0
1789 3921 0
816 -1281 0
656 1714 0
-1750 1531 0
-400 -1555 0
3865 -3131 0
-3519 -3390 0
130 4287 0
-1969 3441 0
-1355 627 0
1498 3428 0
-925 2056 0
2006 2518 0
2957 3706 0
796 -2782 0
-1248 2399 0
-4385 953 0
-3214 956 0
3196 2972 0
3691 3630 0
-3251 -2613 0
2865 315 0
-1393 -3749 0
3037 3473 0
-2549 461 0
-3241 -2875 0
2289 -4192 0
2256 1322 0
-1995 -2771 0
114 -1406 0
185 -1931 0
3473 -882 0
-2782 3086 0
-3628 2520 0
-3283 2650 0
-3028 2856 0
-2718 -2012 0
1703 2186 0
-3840 -3597 0
-3613 3359 0
-364 -492 0
3801 -3946 0
2857 1364 0
2694 3175 0
3290 2253 0
2098 4056 0
-904 2286 0
863 -1202 0
-2902 1540 0
2938 2683 0
2938 3631 0
3812 -4223 0
-355 -675 0
1813 3200 0
-3991 -921 0
-3904 -1192 0
-3426 -160 0
3901 347 0
483 3850 0
-3448 -3567 0
-835 -937 0
1655 1596 0
-1604 -2249 0
285 1085 0
-171 4154 0
-1209 372 0
-1027 -904 0
350 3115 0
2923 2832 0
-801 -1274 0
-3536 -49 0
438 2488 0
2440 680 0
-1539 4122 0
2628 2060 0
-2861 556 0
211 -737 0
-2266 4020 0
-1301 2900 0
4111 3282 0
-1880 -2219 0
-4177 -1368 0
-1324 1887 0
2954 3762 0
504 1530 0
-1296 -249 0
1779 2858 0
1730 -3652 0
2289 1389 0
1703 -1699 0
2776 -2370 0
4020 154 0
1247 3713 0
-1633 1002 0
-788 -1812 0
-2094 -560 0
1987 -659 0
-860 1255 0
3618 1153 0
1405 1177 0
3994 4203 0
1539 -2649 0
1029 2876 0
-2051 -575 0
3548 -2389 0
-2124 -2377 0
-4363 2893 0
-111 -4191 0
-2463 -180 0
2066 2836 0
3709 -2775 0
-3035 135 0
-771 -634 0
-3777 -3615 0
-1648 1449 0
-996 4271 0
2856 4316 0
-3110 4216 0
174 -2120 0
-2735 -71 0
-2353 -1636 0
-648 1916 0
-4031 3256 0
2468 1148 0
-2812 -1820 0
-2143 3779 0
-2615 -123 0
3716 -1071 0
4347 493 0
-3881 -3822 0
379 900 0
-1323 3855 0
1133 90 0
-2757 121 0
-775 1078 0
-995 -2572 0
-693 -371 0
796 3979 0
-2081 -912 0
-3385 -551 0
-2526 -4 0
2149 -339 0
1437 -1289 0
-1853 3755 0
108 2101 0
83 1945 0
-1540 -43 0
188 2462 0
-572 2911 0
3061 1652 0
4237 -3148 0
-3944 -3489 0
-1120 1437 0
4134 -252 0
2006 -1296 0
2532 -3724 0
1424 4113 0
4127 1015 0
1469 -3455 0
-1116 -3251 0
-2915 864 0
-2458 -339 0
712 -1168 0
-4351 -359 0
100 2260 0
3171 -3599 0
-1708 -1180 0
-3950 -3012 0
3022 -1827 0
905 -2020 0
868 3892 0
-1941 -133 0
554 1122 0
1645 -3344 0
-1434 -1637 0
-2434 -4015 0
-2731 3491 0
-2463 -3586 0
1724 -4344 0
698 2963 0
762 -2579 0
-2392 849 0
2184 1978 0
-3109 -3303 0
3759 3961 0
-3603 -1116 0
2169 1497 0
-1550 2828 0
-2096 -1736 0
1766 -3228 0
2454 3039 0
2563 3767 0
-1737 2411 0
2355 -1763 0
-3624 308 0
-2808 -2626 0
-636 3885 0
2004 1631 0
230 3979 0
3712 -745 0
-3770 3526 0
-2953 1774 0
-1998 4181 0
-147 -2377 0
-3592 2185 0
-4208 -73 0
647 -1140 0
378 4253 0
4364 134 0
-440 -1733 0
1225 -595 0
2075 -486 0
-3364 -1715 0
-2601 -1167 0
-3554 3398 0
504 3847 0
-1298 4222 0
924 3010 0
-3032 -587 0
-3935 979 0
913 -2912 0
-1923 2389 0
-3795 456 0
-1435 -4041 0
-494 524 0
-2037 -3296 0
-412 3099 0
-612 857 0
584 -3567 0
-3461 -4072 0
-3569 1899 0
-674 -838 0
2101 673 0
-1457 197 0
-948 -3388 0
3927 -3991 0
-3630 4095 0
2573 -3948 0
183 -1914 0
-3733 -338 0
-3251 -2552 0
-900 -3731 0
-3231 601 0
-806 2583 0
1541 2340 0
4150 -4322 0
1935 -747 0
150 4216 0
2934 1885 0
-612 2527 0
2452 3787 0
2795 -1068 0
-818 -243 0
-2137 -3547 0
2725 -1481 0
3138 -829 0
3506 4089 0
1161 130 0
991 3435 0
-1852 4332 0
3371 -3964 0
-273 -4153 0
-224 1638 0
-1221 395 0
2608 -2232 0
56 -4278 0
-1367 -662 0
-3428 1445 0
1723 1943 0
-1983 -1122 0
-2995 -3942 0
3670 2289 0
-4054 4179 0
-1854 3979 0
-722 -3056 0
1820 -2645 0
-1693 291 0
2180 -2222 0
4384 -2985 0
-1125 -2033 0
-867 -4344 0
-617 2696 0
1154 -2912 0
-3938 1656 0
-3434 3806 0
-2354 558 0
1461 -3947 0
1713 -3930 0
513 -2459 0
-3638 -1884 0
1422 1251 0
3577 2324 0
2119 242 0
-4009 246 0
-183 1629 0
-1093 -813 0
-246 -2159 0
-1354 2719 0
-2712 696 0
1990 -3192 0
797 -2029 0
-2121 -330 0
3835 105 0
-266 4096 0
3131 -1523 0
-3914 1793 0
3830 3429 0
-2090 2225 0
-2702 -1925 0
-39 -861 0
-4028 -2858 0
1756 460 0
-3214 -2139 0
-380 -1239 0
3651 -775 0
-1660 -2545 0
413 -2428 0
2994 -1206 0
2944 1379 0
-468 1841 0
-1696 -2295 0
-4329 -3503 0
869 -1021 0
1774 152 0
1011 -3700 0
-3392 -3119 0
-3154 3919 0
-197 3403 0
-3697 -3370 0
1707 -748 0
-4125 -3310 0
-1773 -1565 0
-2912 3384 0
-3729 -1796 0
2290 2202 0
219 2214 0
-1502 493 0
3635 3692 0
2585 -839 0
-2736 1868 0
4297 -2215 0
1201 174 0
1170 3800 0
-589 -2100 0
-1645 -1669 0
-239 -1911 0
2947 2092 0
2789 1117 0
3123 2401 0
1192 -3546 0
-2892 -3018 0
-4295 647 0
3546 3216 0
-4144 -789 0
-1933 3442 0
1510 -2458 0
-839 -1921 0
660 3626 0
3096 -1415 0
3968 -4333 0
-3033 330 0
1743 4111 0
3245 -598 0
-2915 3249 0
2743 -2845 0
-486 4260 0
3507 -557 0
3557 4098 0
4301 738 0
412 -2174 0
-3645 -3646 0
-2629 3812 0
626 1344 0
1061 997 0
410 -3091 0
-3733 -1516 0
-3369 -3541 0
-2681 -4058 0
3411 -2381 0
-3483 2583 0
3037 622 0
250 -875 0
-1506 2438 0
704 3099 0
-2535 697 0
1796 -3027 0
-3938 -2881 0
-2309 2440 0
2115 4012 0
-1899 507 0
-4223 -2291 0
-3034 2319 0
1603 -3038 0
4 4026 0
-575 4040 0
-63 -2638 0
-2931 -619 0
1527 1684 0
-2903 -4121 0
1716 225 0
-21 -791 0
2325 4180 0
2581 2853 0
2620 435 0
711 2791 0
-4101 705 0
-1511 508 0
891 -239 0
2860 -4067 0
2864 3103 0
4260 3061 0
-958 -2407 0
-910 -3078 0
-2837 -4291 0
-1333 -456 0
3795 2524 0
4328 3001 0
3251 3792 0
-2634 1054 0
3466 -2318 0
3551 1392 0
-41 -1259 0
3305 3681 0
-2082 1561 0
-1760 3191 0
2427 2143 0
554 -131 0
994 1441 0
-349 -289 0
-1361 -2656 0
340 -2812 0
2992 1883 0
2157 2373 0
-4219 -628 0
4235 304 0
-6 -931 0
-4285 -3767 0
2268 2652 0
-3248 -456 0
215 -3098 0
-1159 3233 0
4361 1105 0
2733 -983 0
-2250 2024 0
-4261 570 0
-215 -4209 0
-645 -1222 0
375 -677 0
-1481 -116 0
-3018 -322 0
-4272 -571 0
3451 -52 0
1320 3791 0
-2407 3667 0
978 3831 0
2222 715 0
-2802 342 0
1852 2031 0
1612 2278 0
2710 -2781 0
3879 -1139 0
-2434 1437 0
2954 -3140 0
2963 1210 0
4361 -1341 0
-2662 -4077 0
1956 -4314 0
1150 -1336 0
3244 -3037 0
-2020 1778 0
-1393 -3890 0
3560 -4194 0
2066 -2325 0
-591 2986 0
1897 513 0
-2777 1917 0
3615 -2149 0
2896 3628 0
136 -1212 0
1386 -1297 0
-3153 2052 0
2104 -3094 0
1656 -1652 0
-134 200 0
-3461 -3466 0
-3361 -1104 0
-1378 -1693 0
1211 -794 0
-400 869 0
1307 2408 0
258 -2148 0
-1519 -3920 0
-4375 3045 0
3559 -2567 0
-428 3849 0
-3356 -2553 0
1439 -2839 0
3068 -2633 0
-2125 -2890 0
2505 1201 0
4118 1199 0
4079 1661 0
-2753 880 0
1461 797 0
2241 2234 0
4305 2455 0
4318 3923 0
2319 2530 0
-3567 3439 0
910 -4378 0
2748 -263 0
2016 -3291 0
-181 4197 0
-729 1210 0
-3950 -1045 0
3992 -2881 0
-3470 2787 0
-1780 3629 0
2340 -3383 0
-829 4088 0
1783 2700 0
-2716 1065 0
237 3779 0
-1582 3648 0
-2579 -948 0
-3534 3770 0
-3650 346 0
4110 4044 0
1934 1803 0
-3549 1406 0
-803 3594 0
-1160 4323 0
-3340 3872 0
-2074 -4317 0
1827 2948 0
670 -3332 0
-1125 -784 0
-2357 -3094 0
1291 -1189 0
-4330 -3766 0
-2273 -100 0
-788 2778 0
570 -2494 0
1788 837 0
-4042 3144 0
-1640 1645 0
-3448 2467 0
518 643 0
-3717 -2720 0
-3411 920 0
2169 -2403 0
2630 -3666 0
190 4288 0
-3204 633 0
1216 -1571 0
-18 495 0
3584 2184 0
-1687 -3889 0
2151 -959 0
-4366 -528 0
-3298 1783 0
1798 465 0
-2889 -1561 0
2192 2473 0
-3997 3527 0
-208 831 0
-638 -48 0
2858 -3109 0
2654 -84 0
1796 4224 0
-2399 585 0
-352 361 0
-4084 -3609 0
-1400 -4057 0
2438 -516 0
-768 -2674 0
-309 -4267 0
-3373 -1010 0
-799 -1384 0
-4106 2176 0
-3674 -2090 0
2453 3665 0
4277 4110 0
-2741 -2967 0
-2769 1509 0
-3432 742 0
-2898 423 0
-3011 1876 0
3520 -1691 0
-2639 -3483 0
-779 -3364 0
-971 -3744 0
-829 3969 0
1281 1479 0
-322 3753 0
3483 -3508 0
-3814 -1056 0
-2335 -870 0
3465 1469 0
425 782 0
1790 -4061 0
-2983 695 0
-3967 -1426 0
2355 3171 0
-2005 -1362 0
-3393 3030 0
523 -871 0
-2646 -872 0
1932 3110 0
-3356 -3457 0
-2621 -4205 0
-4017 4269 0
2810 1928 0
700 2807 0
-1113 2915 0
-3731 3551 0
400 -2558 0
648 4331 0
3766 2264 0
3611 -2035 0
-2398 2741 0
-1783 -3017 0
-3354 1549 0
-1295 -182 0
251 2503 0
-149 -3418 0
-3916 -2591 0
-4261 -2582 0
-813 1444 0
-4069 3231 0
377 -464 0
1060 -1071 0
789 542 0
-1365 60 0
1060 -1574 0
-1064 1104 0
2032 3584 0
1082 2075 0
-3082 -162 0
998 2634 0
701 3318 0
-1628 -1749 0
4143 -1729 0
-1956 836 0
2012 -2817 0
1539 -2019 0
-2842 1755 0
-1708 -2197 0
-4110 -1857 0
2947 2499 0
520 -4019 0
1591 -2861 0
-3695 -3893 0
-3658 -2420 0
1226 -488 0
-344 -3435 0
-4146 940 0
-1154 3806 0
-777 1212 0
3012 2835 0
-366 -3811 0
3443 867 0
-2588 -1365 0
-1041 -3240 0
-129 -1835 0
1025 845 0
-1917 4224 0
-1628 -3621 0
-965 1440 0
-2451 -3375 0
3730 3903 0
1947 -3531 0
3313 -1959 0
3893 4026 0
2130 -1064 0
2415 -3454 0
679 3882 0
-1929 4343 0
-3886 3717 0
-171 164 0
-3650 -248 0
1578 3309 0
-1872 3418 0
1420 -3406 0
-4075 -360 0
1592 -1599 0
-2098 -4325 0
1873 -1750 0
-1622 1569 0
2290 -1154 0
703 -216 0
1317 -602 0
951 -1722 0
1614 -2680 0
-2222 -957 0
-1427 -1683 0
-1331 3859 0
-3409 -4311 0
-112 -901 0
-972 -2650 0
-3551 -411 0
452 -1784 0
-1543 65 0
997 1222 0
-1902 1107 0
-421 -2098 0
4358 -2537 0
938 4095 0
2653 -1660 0
-398 4382 0
-4304 1990 0
696 -2843 0
2296 3415 0
-2420 2588 0
-2841 3028 0
-3443 -71 0
-2784 2785 0
-198 -673 0
2328 2275 0
879 -3661 0
-1898 554 0
-2732 -3323 0
3072 4155 0
2142 -2272 0
-1706 4189 0
-3625 -1750 0
-1786 869 0
426 -1506 0
285 -1002 0
-665 -962 0
384 -1640 0
-1133 -3936 0
3416 -4153 0
2003 2244 0
127 -721 0
-4116 -1960 0
-232 797 0
-2100 -2834 0
3100 3543 0
40 -2169 0
66 372 0
-733 -466 0
3272 -2809 0
1783 4376 0
-3565 2965 0
-878 -1600 0
-1530 8 0
2280 -3274 0
2024 -2947 0
-1152 1626 0
2035 -3604 0
-620 2832 0
709 257 0
2869 -818 0
-1008 -3798 0
2572 -3044 0
-2610 -3896 0
3457 -807 0
-3175 -28 0
-3059 -3968 0
-2820 -2360 0
790 -1100 0
1037 17 0
-3961 2350 0
-3158 -1030 0
-2431 4073 0
3553 -2091 0
-3127 -2771 0
1327 247 0
3739 3744 0
-1034 -4313 0
-4240 -1440 0
-3188 3282 0
1425 2446 0
-700 -994 0
-954 -175 0
-4093 -3900 0
-3813 2190 0
2226 4316 0
-1384 1314 0
-358 -3693 0
2883 2146 0
2321 -3938 0
3626 822 0
-3533 -1901 0
-3106 1748 0
-3002 -1075 0
-4257 -2022 0
1378 4068 0
2305 1818 0
-653 2916 0
-3388 -2803 0
-205 -3831 0
-2242 858 0
-3172 -819 0
1123 -2499 0
3878 -750 0
4060 -3697 0
-2395 4280 0
1220 -571 0
3667 1153 0
-4379 784 0
910 1491 0
-1367 3581 0
1760 -2774 0
1899 -1611 0
-1894 -2477 0
-3086 2290 0
2076 464 0
507 -3601 0
-1215 3293 0
-4131 2874 0
935 -501 0
-3054 794 0
250 -729 0
241 582 0
1197 3682 0
3267 3737 0
160 -3291 0
-782 -3408 0
-3935 -2752 0
-2 -3466 0
2928 -847 0
2130 -525 0
-382 -2648 0
1993 -467 0
2581 1727 0
-3327 4008 0
-1631 -1254 0
3527 2429 0
-422 3129 0
887 -3995 0
-3570 -1465 0
3075 -2562 0
-181 -202 0
2199 1529 0
431 -3379 0
-265 191 0
3829 1567 0
-470 -3426 0
328 1286 0
-2806 2238 0
-1032 -371 0
-308 3769 0
304 306 0
-2616 1318 0
-1080 2972 0
-2548 1322 0
4382 -3200 0
822 -2920 0
-2447 -1125 0
-2435 -3969 0
-1014 2289 0
447 4355 0
-4061 2481 0
-1659 1188 0
4170 -2279 0
3219 -899 0
-1972 -783 0
2581 401 0
4368 -1 0
50 3956 0
-3788 1316 0
-3259 2905 0
3605 112 0
-2574 -1221 0
-4158 -3429 0
-1720 -2994 0
1529 -269 0
-249 -4099 0
-2987 863 0
-1556 -2346 0
-1008 -2924 0
717 373 0
-3916 -253 0
16 3330 0
399 -3450 0
1161 -806 0
4240 -3194 0
473 -4085 0
2235 -1841 0
2456 1972 0
-1183 3840 0
3293 3952 0
1004 -2820 0
4210 3128 0
934 410 0
1351 -792 0
-725 -4059 0
-528 -2625 0
-2377 4339 0
3474 -149 0
2474 -2265 0
3280 1789 0
860 -4272 0
1097 4171 0
169 -261 0
2267 -2934 0
-2364 3673 0
-3999 -2184 0
-2510 452 0
-4168 1962 0
3668 3516 0
-309 1504 0
-261 -1404 0
206 3511 0
-3194 4008 0
-1418 -1466 0
-840 -511 0
-4030 3292 0
-1383 772 0
-3294 829 0
1700 -2575 0
-280 3953 0
-2145 2381 0
1686 1994 0
2268 3276 0
-3863 878 0
-601 3088 0
2528 1281 0
-2354 -3837 0
-3430 454 0
-4185 -622 0
-2693 -2921 0
1009 -289 0
527 1661 0
-2562 4240 0
-1685 -1114 0
3952 3449 0
436 3217 0
-2960 2063 0
576 2454 0
-2405 1128 0
554 -2444 0
-1597 -655 0
-1766 2244 0
3618 -4144 0
-1128 -1639 0
-3554 -3996 0
4274 2622 0
-2706 -2274 0
-3777 -2603 0
-2653 1419 0
837 -1576 0
2793 -17 0
3049 -606 0
-623 -3004 0
-486 2251 0
-2524 1601 0
-1074 -98 0
4230 3341 0
-3010 2979 0
-3114 -1982 0
-2898 -3682 0
2976 3611 0
-2609 188 0
-4183 -2107 0
-4014 4193 0
567 2256 0
1031 -2531 0
92 1157 0
320 -3565 0
1235 -4097 0
-3874 2297 0
-2406 3485 0
1870 -820 0
4005 778 0
-3437 836 0
-1673 -969 0
-2935 -256 0
408 -409 0
-4186 -43 0
2182 -1715 0
2252 2464 0
-306 -648 0
-3307 3665 0
1644 -1083 0
-1336 -1712 0
-1392 -3202 0
-1635 4094 0
-2975 2949 0
695 -3091 0
1968 -806 0
2622 909 0
1540 -779 0
-1315 3496 0
1956 2798 0
-2851 -3731 0
-1121 1530 0
1217 1569 0
3429 1945 0
-1317 -1308 0
2948 -1705 0
1457 2969 0
1381 906 0
2465 -3945 0
-1150 -3907 0
-3190 -2392 0
-2250 -1611 0
-3985 -3644 0
3335 -3677 0
-2788 -1123 0
1681 3181 0
-2853 -715 0
2935 2759 0
785 778 0
3570 -2597 0
-1783 3668 0
2533 -4314 0
3373 4076 0
-199 -4022 0
2071 -86 0
-917 -840 0
711 -963 0
-3537 -2918 0
3470 -3379 0
-4120 -2409 0
-3421 2364 0
-3494 -31 0
-2436 -2689 0
-1120 2574 0
-3444 4200 0
-352 3479 0
-2312 -1116 0
-2103 3859 0
-1044 1857 0
-3453 1143 0
-827 -2993 0
-1283 -715 0
951 -165 0
-1512 3612 0
-339 -1733 0
-555 2210 0
906 1042 0
-1048 -3512 0
2467 1058 0
1272 3391 0
1569 -1229 0
2670 -691 0
3487 -835 0
58 1160 0
-3627 3908 0
-728 -3138 0
-3399 -3385 0
-3194 -1244 0
-284 265 0
-17 -235 0
-465 1243 0
-3764 -1471 0
2623 -1432 0
-1404 -3182 0
-4332 3286 0
-3065 -3078 0
-4188 -492 0
-3525 -4369 0
3800 3629 0
-1772 2650 0
-939 -4148 0
1190 -1452 0
2954 -3975 0
2338 -3657 0
-3114 -1566 0
245 -2084 0
-2781 1593 0
-1675 1017 0
1488 3701 0
1774 -2384 0
-3821 -1367 0
-2702 520 0
3716 -2038 0
-3452 -2761 0
-2748 -845 0
1050 -1741 0
393 2666 0
257 -1520 0
-1463 1009 0
-3695 -935 0
-1838 -4181 0
-229 -3870 0
-151 -3724 0
3672 1330 0
-1088 1702 0
1415 -832 0
-3942 4040 0
907 1950 0
4052 1455 0
2724 157 0
-203 2727 0
2840 2841 0
3315 1042 0
-1912 -2053 0
-3709 1226 0
3250 -4367 0
-44 -2847 0
284 -2688 0
1552 1679 0
2914 812 0
3325 -2323 0
3288 1746 0
4084 -3794 0
-43 1108 0
1707 -2235 0
1562 2884 0
-1080 508 0
3791 -3200 0
-2087 -4372 0
-2316 342 0
-218 -3300 0
387 -2054 0
-1741 4113 0
-4186 -264 0
-2170 -2254 0
-1350 -147 0
243 -17 0
866 1735 0
-1574 597 0
-2272 -308 0
-3770 -1641 0
3379 1784 0
-1923 -3172 0
127 -720 0
24 862 0
-1432 3262 0
-1296 3390 0
1821 -2113 0
-3825 2191 0
3010 2410 0
-4183 1736 0
-3166 833 0
-1089 -15 0
1042 360 0
-824 -3202 0
2210 -1587 0
-2184 1584 0
-3354 -1350 0
-989 -845 0
-2469 -3562 0
-381 769 0
703 2171 0
-4278 -1951 0
-3481 -1333 0
789 1254 0
-3153 -3666 0
-3270 2137 0
686 -2917 0
601 -189 0
-1714 1163 0
-4026 2770 0
-2362 1375 0
3879 3221 0
-3215 -516 0
-1850 -828 0
1004 -404 0
-1675 2327 0
686 3979 0
441 -3572 0
1603 -1083 0
2653 2441 0
337 -687 0
-552 3162 0
-3036 2716 0
3288 1420 0
-797 -2597 0
-151 2417 0
-1768 3452 0
-2572 2523 0
1625 -1365 0
1356 -2362 0
3204 -1262 0
-3890 3338 0
2500 336 0
2246 3213 0
1816 3821 0
-2977 -2661 0
-2015 1755 0
-3793 -3825 0
1573 1788 0
2478 1509 0
1181 -2452 0
1865 -3622 0
-3517 4169 0
-1722 3978 0
946 -2611 0
408 -3842 0
-3694 -1838 0
-3373 -2138 0
-3184 2013 0
377 -350 0
151 -724 0
2685 438 0
-4162 -221 0
2461 3977 0
-645 -370 0
1638 -353 0
1960 2798 0
1055 -3655 0
-1080 169 0
-1250 697 0
-1060 3990 0
2254 -4294 0
880 -1906 0
3053 -1336 0
-4235 2353 0
-1956 -1651 0
3610 -159 0
-257 -3248 0
173 258 0
-914 -3182 0
2601 -4167 0
981 -1090 0
3049 -3047 0
-4383 3516 0
-2516 1415 0
2280 -1319 0
2711 1874 0
-2605 3529 0
-501 -2835 0
-2748 4097 0
-2320 1570 0
2596 -3700 0
421 109 0
-1152 2199 0
551 4048 0
-2050 -2360 0
157 3456 0
3726 -1421 0
1157 3751 0
3601 3968 0
-3228 173 0
-2547 2715 0
3107 -313 0
924 -2563 0
2268 1836 0
47 -1593 0
-3460 4296 0
-1749 -2518 0
-4285 -2206 0
-1867 3908 0
-42 -505 0
-2251 -2332 0
150 959 0
-2658 -46 0
-1285 2079 0
-429 -2336 0
4047 936 0
3529 -2181 0
-1862 2217 0
2339 -1674 0
-3323 78 0
-3718 -2734 0
459 -4268 0
3488 22 0
1085 1712 0
3515 610 0
-1211 3312 0
3923 -1599 0
-936 -80 0
4085 -1790 0
1266 -1817 0
2471 857 0
1198 -3166 0
-2665 1955 0
-253 2625 0
-2903 476 0
-1639 -4344 0
-878 1486 0
3892 58 0
1004 3606 0
934 749 0
4035 -512 0
-711 1346 0
354 2300 0
-2183 -1658 0
2965 3210 0
-2362 4110 0
-1019 498 0
-2654 1730 0
693 -3196 0
-589 -1 0
-160 1919 0
-1900 -3357 0
-3705 -4001 0
402 -2591 0
-2250 -1341 0
-299 -278 0
-3331 -830 0
3918 3403 0
-3867 -2412 0
622 29 0
-558 2586 0
-4323 -2587 0
-4371 4171 0
-205 3702 0
3379 289 0
-1630 1364 0
-3500 2202 0
2787 -2758 0
2955 3616 0
-1969 -1390 0
-3683 -2013 0
-1957 2904 0
1264 3319 0
4004 -4040 0
2276 -4158 0
-2688 2125 0
2236 -3628 0
2626 -1322 0
1247 -3445 0
-124 4224 0
3530 -3755 0
-3599 3643 0
140 -4374 0
-1646 4110 0
-911 -844 0
-3937 4030 0
684 1529 0
-339 126 0
610 738 0
610 -1222 0
-3464 2708 0
-2379 997 0
591 4244 0
-3458 4189 0
-2047 2337 0
215 -2387 0
1319 -4203 0
-3021 -1918 0
3094 -560 0
512 -4225 0
-3602 -3228 0
-1593 -644 0
-3580 -3176 0
-3739 4110 0
3122 -2550 0
-2154 4043 0
-3797 -192 0
-2159 -3827 0
-1355 73 0
334 1484 0
1997 -3971 0
1682 -3337 0
44 -4099 0
-483 -3008 0
-160 4300 0
539 1682 0
3155 1530 0
2063 -493 0
-1111 -3444 0
-2392 -4209 0
4291 -3411 0
2908 3564 0
-2291 633 0
3515 -1315 0
2838 -2850 0
2954 -2373 0
-2490 4376 0
-1660 2492 0
-4177 -1182 0
-1442 -3400 0
2957 4310 0
-3459 -4047 0
-2555 -219 0
-1971 3310 0
2808 -3703 0
-3984 2312 0
-2218 -3627 0
-350 1953 0
4014 766 0
-1574 3216 0
3947 -1909 0
-4058 786 0
-1380 1809 0
2864 -3096 0
-2936 -495 0
-2985 923 0
752 3476 0
2481 -4152 0
-2584 2768 0
1468 658 0
3047 -1536 0
-2094 733 0
-3535 3463 0
4376 -3752 0
828 -3372 0
4192 -329 0
-1119 3326 0
-1437 -3862 0
2443 -3762 0
-2695 -3907 0
-3218 -144 0
-2255 -2420 0
-2068 -2814 0
-2845 -2680 0
-85 1595 0
-4278 -2068 0
1069 -1909 0
1699 -3424 0
-1194 1558 0
649 3432 0
2934 -3283 0
-2918 3378 0
-3904 -3916 0
2347 -389 0
-734 808 0
-2969 -194 0
-2358 102 0
980 463 0
970 -1519 0
-1489 -737 0
-4322 -4112 0
1330 -4042 0
2078 -959 0
422 4304 0
-1787 2211 0
-2063 428 0
1972 716 0
2670 2045 0
-3430 3510 0
-67 1833 0
1075 -311 0
4047 -1577 0
3875 -1268 0
649 -597 0
1338 1939 0
2003 1690 0
-3053 4200 0
-244 -3361 0
2823 4023 0
-1427 -514 0
-3165 2774 0
-2535 902 0
-4327 -2155 0
-3084 2924 0
1292 -1763 0
1190 647 0
-2100 2125 0
-4093 1232 0
3512 -2598 0
-3430 93 0
2319 -1519 0
-3274 -4105 0
3221 -423 0
-652 -2601 0
-954 1578 0
-1232 4315 0
788 -2593 0
3696 2470 0
-2966 931 0
4046 -761 0
3579 4272 0
-4166 3269 0
-795 858 0
4106 2908 0
1199 2543 0
-1023 -184 0
-3236 -4144 0
-604 -3507 0
3459 1607 0
-2907 -677 0
2331 -852 0
3142 -515 0
-2086 -3086 0
-4186 -2579 0
-710 -573 0
-3771 681 0
2773 4300 0
2058 930 0
2584 -611 0
57 -167 0
-1525 3047 0
-1495 1474 0
3449 -673 0
-175 -3065 0
-2176 -2722 0
-972 -202 0
853 -348 0
2919 -3713 0
-142 -3431 0
-3502 2116 0
4004 3095 0
-612 -2961 0
-2595 1994 0
2408 -1017 0
-23 3980 0
4114 1338 0
-3268 -1807 0
-2966 3702 0
380 -3242 0
-344 733 0
-3778 -2927 0
-1456 -17 0
3023 535 0
-2831 -1367 0
2214 3912 0
-263 3928 0
-4083 -4211 0
-3085 -1695 0
-1696 -3093 0
-166 1646 0
-1265 -3114 0
1285 4350 0
629 4214 0
2000 -3497 0
3945 -523 0
3796 -497 0
-48 1166 0
-2009 611 0
1813 269 0
2648 3880 0
-3114 -419 0
-1074 3046 0
1434 -505 0
3593 3410 0
-1929 -4059 0
-3317 -827 0
-249 988 0
2446 2232 0
-2591 3525 0
3220 -2096 0
-3932 4244 0
1405 2873 0
2768 -1814 0
-3723 -3344 0
4136 -3882 0
-3619 -2581 0
1014 -590 0
-3671 -2662 0
789 -4089 0
-2675 -1259 0
-3109 1514 0
-686 2389 0
-398 -3133 0
3007 4318 0
-3571 4030 0
-2159 -3105 0
-525 114 0
-3859 4197 0
-2615 -1275 0
3783 3662 0
1205 3445 0
2711 -2117 0
2586 -3448 0
-2230 4260 0
-81 2733 0
1509 3704 0
2708 -2835 0
-1893 -1831 0
3789 -3731 0
2013 53 0
4113 3502 0
-2715 -3475 0
-2201 1027 0
-481 -3569 0
1734 2772 0
4046 -233 0
1321 2013 0
2538 2504 0
3234 1029 0
3537 4306 0
242 628 0
3707 -4175 0
-1712 1352 0
-2910 -1047 0
-3311 -2104 0
-2490 -2875 0
-1280 3537 0
24 2778 0
4235 -3777 0
-1423 3442 0
-4028 4319 0
-2804 4112 0
-248 1215 0
579 -3858 0
1487 -452 0
2562 -1611 0
-3461 -2469 0
-1072 -1991 0
27 -372 0
3856 3894 0
4 4305 0
2428 1307 0
3335 3121 0
3216 4384 0
-2579 2414 0
3335 -1967 0
1965 56 0
-3991 656 0
2163 1477 0
-3201 -3008 0
-1640 1935 0
-2718 4023 0
-3493 -1519 0
-2136 1680 0
-2821 -1993 0
-2911 2184 0
4103 -476 0
304 -2158 0
-3571 3937 0
-3361 -787 0
-2164 -1526 0
2467 -1446 0
-1554 -3705 0
-1902 1989 0
-1825 -2943 0
-1512 1266 0
-1371 -1833 0
-824 2622 0
-3025 1657 0
-147 205 0
1724 -2814 0
1493 -2280 0
-2094 3038 0
-687 2565 0
-1803 -3281 0
1926 -2190 0
2419 2466 0
-3992 -548 0
3060 2198 0
3338 -1565 0
193 1679 0
-422 4216 0
-3239 1744 0
1896 -2741 0
4253 3497 0
-729 -499 0
1781 -1641 0
-207 -916 0
-2233 -2206 0
1939 2517 0
-3813 3890 0
-2255 2525 0
1441 -4205 0
-3052 995 0
3377 -1235 0
4227 -669 0
3958 -3098 0
1685 342 0
613 -3270 0
1394 -1710 0
3637 889 0
4188 -794 0
-1865 -568 0
3861 4095 0
-4071 -2149 0
-1708 -1574 0
2569 -4190 0
3496 -3056 0
-4299 2991 0
-4264 -2866 0
-2471 -521 0
-2737 402 0
-4179 -3966 0
-2012 922 0
2185 -938 0
114 686 0
481 2745 0
-2620 1448 0
-1888 3495 0
2859 3799 0
-2663 2869 0
-2329 1707 0
-391 -154 0
1263 3937 0
1913 -950 0
2813 110 0
158 -1475 0
-283 3363 0
4007 -2909 0
-1350 3206 0
-64 -432 0
-4104 3584 0
4206 2382 0
27 978 0
3826 740 0
1252 2164 0
2063 786 0
1903 -1834 0
1015 -4109 0
-1853 2267 0
-4167 -1167 0
-4117 1303 0
-3175 1465 0
1307 1674 0
-2093 -851 0
-1661 1264 0
94 -1060 0
-2820 -55 0
2856 1585 0
-3614 1092 0
2295 -793 0
2765 -2072 0
-2550 1554 0
-3270 -4131 0
3047 2504 0
-3137 -1196 0
2890 504 0
241 1742 0
1431 -3587 0
-3114 726 0
1002 -2143 0
-1623 -2715 0
-4188 1027 0
4310 -299 0
260 801 0
2684 -1422 0
4203 -2720 0
2754 -1476 0
308 -1511 0
1822 2243 0
1213 52 0
3380 -1427 0
2030 4332 0
2518 -3663 0
-248 2765 0
-2381 -2870 0
-4359 3258 0
2623 2890 0
-3153 -1280 0
2551 -3307 0
2003 1892 0
2744 -1882 0
3572 -35 0
-2175 -4351 0
-2943 1249 0
-3411 2114 0
-3195 -826 0
-2225 2161 0
4261 25 0
-699 -439 0
-1393 -1995 0
2031 190 0
-2176 2844 0
-2763 2447 0
3688 1883 0
-91 3314 0
2619 2539 0
3616 -3789 0
1934 2950 0
1725 947 0
-2136 4090 0
-2960 3875 0
4117 277 0
2164 -2078 0
2853 -1452 0
-2959 3053 0
-1637 4164 0
1840 -4061 0
1402 4086 0
-3133 989 0
1180 -3695 0
1299 -3905 0
-3716 -1521 0
-158 2524 0
-954 -50 0
-3024 -2336 0
-3039 -4372 0
3601 -2339 0
-1239 -1868 0
-3109 1217 0
3571 969 0
2525 1208 0
2244 2753 0
1858 1115 0
-3194 2086 0
-3102 3773 0
2529 -1323 0
1923 2641 0
-253 -1323 0
132 -2724 0
2319 3267 0
-2121 -1100 0
-1762 -3944 0
2967 3243 0
-1481 -261 0
-1174 2504 0
-1184 -1736 0
-669 -63 0
-2154 934 0
-3270 -4205 0
3211 2010 0
203 -1291 0
3983 -3019 0
-2811 -3076 0
-912 -3599 0
237 2553 0
-3847 1129 0
3742 -2644 0
-1678 2492 0
-3066 -36 0
-2110 -2379 0
634 -4131 0
945 -2548 0
-3205 -1685 0
984 1332 0
-2479 -979 0
3163 -2604 0
-2373 2558 0
-3331 -1222 0
-893 322 0
-2384 -2020 0
-1828 1769 0
-3109 -2928 0
3006 4167 0
-850 2861 0
1756 -2246 0
-3989 -1935 0
-1150 1501 0
-3451 -3692 0
1503 2076 0
2281 -995 0
3803 -1232 0
-1931 -264 0
-3331 -1986 0
3041 -2983 0
1666 -4387 0
4004 -3787 0
1244 -549 0
1257 1303 0
400 188 0
4283 -1737 0
-3757 -1218 0
903 991 0
3682 3632 0
3952 1674 0
-3388 -908 0
-1534 -2327 0
-1283 1102 0
2896 3588 0
-1574 -3266 0
-2566 -495 0
3162 2973 0
-921 -71 0
260 -4314 0
-2563 -1360 0
2726 -1622 0
-3875 1217 0
-2434 1185 0
428 3458 0
1285 -4085 0
-2759 1725 0
2263 -1793 0
3007 2016 0
1126 -1091 0
2291 3425 0
1876 -920 0
1381 480 0
-100 -1776 0
3588 2671 0
-1723 -3817 0
843 3776 0
588 2502 0
1804 -2521 0
947 180 0
100 -540 0
-3637 2042 0
-3360 2296 0
3277 3332 0
1620 -3975 0
2584 -2077 0
4328 3519 0
-1348 674 0
-868 1999 0
-4272 -1554 0
-4051 -460 0
-1451 1153 0
4200 1388 0
-3087 3868 0
333 -4186 0
3245 -532 0
1520 -4320 0
-2499 3186 0
107 2298 0
499 981 0
4168 1682 0
891 576 0
-2501 -2100 0
-307 -446 0
-2509 1548 0
2195 2399 0
3405 2698 0
-2899 475 0
-1982 2359 0
1928 -4146 0
-156 -2411 0
-285 2498 0
1111 2393 0
1680 346 0
-458 336 0
-617 2662 0
2881 -3593 0
2586 1030 0
3301 -956 0
3428 -3560 0
-3922 2863 0
-2621 3307 0
2090 2194 0
754 4063 0
-632 -1154 0
-297 -2009 0
-1466 -1930 0
2619 -3917 0
4113 3180 0
2949 860 0
-1685 -1980 0
2287 518 0
-3752 1566 0
-1982 -4271 0
2433 -3810 0
3511 -4299 0
-1306 -2423 0
-564 -3130 0
4151 -1671 0
-3297 -84 0
-64 638 0
2044 4085 0
2506 -2596 0
2273 1192 0
-1998 3857 0
-1432 -530 0
-1371 -3945 0
-572 -179 0
-103 1959 0
-1485 976 0
1679 -937 0
3292 -3581 0
3463 1689 0
-123 2429 0
-2720 -2736 0
1124 4087 0
474 -1656 0
-1280 19 0
956 3873 0
3852 -1434 0
-4147 3598 0
518 -933 0
109 -1572 0
-717 493 0
2586 843 0
-2270 -3779 0
2311 3169 0
-3754 1238 0
869 100 0
-1283 -3095 0
2179 -1534 0
-3531 14 0
-4317 2707 0
-3173 -3561 0
-3437 3877 0
-479 3552 0
-478 -2381 0
-4327 1034 0
-2856 -4067 0
3846 197 0
-3111 -1394 0
-3303 3804 0
2877 -1612 0
172 -3750 0
-983 4033 0
202 301 0
-1283 -397 0
2011 -2087 0
-254 -634 0
-1911 -3051 0
1535 -1534 0
-193 755 0
214 1450 0
-465 2662 0
1532 -2797 0
1668 1469 0
-946 -888 0
-161 -4079 0
2510 3775 0
-1814 30 0
-3566 4350 0
-2809 -2598 0
4122 -162 0
-2300 -1984 0
-2774 4166 0
-1900 172 0
2465 -117 0
473 -2999 0
-2332 3886 0
3774 2055 0
1051 1816 0
-4371 -4120 0
-4298 -3451 0
3970 -1816 0
-1455 -2993 0
1309 -2543 0
3109 -3114 0
-1469 -3760 0
-3432 -1435 0
-2392 1472 0
4085 -1528 0
3801 -423 0
-1345 -1536 0
-4357 3425 0
4094 -3882 0
-3950 -2489 0
-1481 -750 0
239 2921 0
-2955 635 0
-1867 -335 0
-3141 -1982 0
-1651 84 0
-2572 -155 0
4294 -1196 0
1525 -1639 0
-3464 -946 0
1473 -71 0
-3685 2840 0
246 921 0
-525 2300 0
-4019 -3067 0
428 -3095 0
4083 -2139 0
966 3253 0
-1376 65 0
3369 4198 0
-131 -4255 0
3634 3287 0
389 -3165 0
3421 3587 0
-721 -1372 0
2149 1540 0
718 -3314 0
800 -1987 0
2610 -736 0
481 3469 0
1619 2064 0
3199 77 0
-96 3694 0
3250 4206 0
1859 3470 0
2478 250 0
-2749 3333 0
-617 2580 0
-1764 -386 0
-2583 1021 0
439 -4155 0
-1400 -2726 0
-4131 -3291 0
-2557 -2094 0
1171 1154 0
-1386 1176 0
-1029 541 0
1200 1655 0
224 -1343 0
-3285 -3817 0
3774 -1023 0
-929 3697 0
-1093 -353 0
3437 2875 0
2675 1858 0
1989 2742 0
-2861 -4330 0
544 -549 0
3576 531 0
1108 -3293 0
-1070 -4311 0
-1565 -55 0
-1702 -1298 0
426 -1918 0
685 -2071 0
-1831 1319 0
3299 555 0
2678 4275 0
-781 -396 0
-167 2176 0
2307 1323 0
2019 3171 0
-3963 1793 0
1856 -3270 0
379 -61 0
-1260 -1981 0
2585 -1858 0
725 -2651 0
-2310 274 0
-131 -1904 0
-2146 58 0
-2535 3978 0
2998 -4306 0
-681 4254 0
-1005 -252 0
1647 -3756 0
-1261 2076 0
-2851 2754 0
2453 4135 0
-2127 2194 0
60 2529 0
-72 -4272 0
-3871 3649 0
885 1843 0
1828 1094 0
-3525 3583 0
-2358 3299 0
-3902 -3700 0
1859 -3988 0
-2407 -1454 0
2211 1224 0
2198 3893 0
-519 2523 0
-2910 2263 0
-3719 -3457 0
-149 -4242 0
3989 -3340 0
-2541 70 0
4376 3227 0
-4097 2297 0
526 305 0
41 -2999 0
-71 204 0
-1950 -3385 0
2348 -1464 0
318 30 0
-3975 2542 0
398 584 0
3581 3643 0
644 -2691 0
-1720 2397 0
-3367 -449 0
2459 78 0
-845 -2743 0
4275 -1122 0
-307 1177 0
4216 3720 0
3061 -273 0
-1119 -1960 0
3993 2413 0
2060 3431 0
-681 -2645 0
-4063 -3738 0
-3661 -3556 0
403 3688 0
-3573 -2459 0
-3794 -941 0
-915 -3027 0
4263 3713 0
2477 2883 0
-1911 3710 0
-4106 -1590 0
-1852 -4186 0
2830 3684 0
-1070 507 0
4295 -1649 0
-4304 1098 0
-3235 2963 0
-3013 -2381 0
-3946 2522 0
-3032 -2630 0
-138 -1495 0
-1090 -2021 0
3611 -2335 0
1559 803 0
-3014 2801 0
1366 2840 0
3571 -1411 0
-3180 272 0
-2611 -1834 0
-3298 -2279 0
136 -217 0
916 3660 0
-673 280 0
3227 -1491 0
-3263 -1283 0
-4207 -2570 0
-4019 1943 0
-3866 -3823 0
473 82 0
-547 1684 0
-5 3978 0
2368 4124 0
-4186 -3409 0
-665 3688 0
989 -2408 0
-779 2125 0
-774 -3895 0
-1841 2210 0
-1181 -2888 0
1392 -1768 0
-2604 -2968 0
322 -1265 0
-3938 501 0
-1176 271 0
2850 -2480 0
2342 3789 0
4012 -1556 0
-889 2346 0
-743 4129 0
-3830 -3636 0
3790 -2845 0
225 -1216 0
-484 39 0
-3058 3059 0
1707 1820 0
-1526 3191 0
2137 3488 0
3226 -2985 0
2367 -3981 0
-787 3470 0
-2616 69 0
-4386 1757 0
1489 -16 0
2698 3441 0
1967 3919 0
3019 3484 0
-2395 -1917 0
-1533 2948 0
-499 1157 0
-1801 -2797 0
-2629 -3282 0
-1298 3918 0
-1819 3006 0
4361 -2462 0
-655 -3757 0
3840 1495 0
687 -2966 0
-737 -4201 0
-3450 1919 0
2303 395 0
153 3792 0
2538 -1068 0
-3847 -1393 0
2875 3562 0
2122 3245 0
837 -1936 0
2316 -1419 0
-553 -247 0
305 3800 0
-2625 -3586 0
2919 2779 0
400 -42 0
-1415 -1291 0
-3229 -386 0
475 -340 0
2492 -4082 0
240 1784 0
-2448 -2917 0
-4030 -418 0
-775 -3123 0
-2977 4263 0
-2017 -1464 0
3367 1575 0
1320 2786 0
-3745 1163 0
-2077 -2144 0
-3978 676 0
3178 2770 0
-308 -399 0
2007 -373 0
-3926 -1969 0
-992 -872 0
2164 -1430 0
2016 -559 0
858 1333 0
-3870 1176 0
-2313 -4176 0
-1104 30 0
-3369 616 0
1853 2672 0
2776 -3860 0
1579 950 0
3108 -1634 0
605 1403 0
-3101 2893 0
4174 -914 0
-1472 -3418 0
1321 -33 0
4244 3715 0
-340 4031 0
-3869 -404 0
-608 -3242 0
-2611 -468 0
4331 1117 0
4206 885 0
-4297 -1729 0
-2143 -15 0
-2626 3296 0
-1987 -1160 0
-848 1354 0
1687 1114 0
-1978 2873 0
183 -160 0
-3814 3187 0
445 -1345 0
-813 2940 0
2998 2206 0
-1604 -506 0
-1979 854 0
1132 2084 0
1060 3060 0
-1533 2826 0
175 507 0
2598 -1463 0
1937 506 0
2992 -1848 0
-371 785 0
-3341 -956 0
-1767 534 0
-2870 -3920 0
-284 -4179 0
-3821 -2249 0
-2932 1481 0
-3538 2258 0
-4258 2551 0
-1521 -3699 0
-3737 3916 0
1104 3811 0
280 -2579 0
-2638 1504 0
-3252 228 0
2042 -3767 0
2721 754 0
-1857 -144 0
1069 -3630 0
3683 3168 0
154 -1901 0
306 -3860 0
-3278 3025 0
-631 -4311 0
619 1870 0
-4149 1379 0
3651 1589 0
-3382 3040 0
-1720 895 0
1387 2918 0
2502 624 0
-2371 2481 0
-2865 -1904 0
-3713 4030 0
-2745 245 0
2028 599 0
-2649 -2622 0
-1372 808 0
3813 -3065 0
1479 -3542 0
2041 99 0
-2897 3286 0
3649 -4028 0
-2242 -3346 0
1944 1994 0
1919 3258 0
-1650 -3339 0
2794 -2534 0
1305 2794 0
-3259 2766 0
254 -940 0
760 -3578 0
3709 3607 0
429 2832 0
-2489 -2825 0
908 1953 0
475 -3622 0
2068 -2281 0
1093 853 0
2221 -1904 0
-2615 -2042 0
-1397 -940 0
3156 2077 0
2941 1146 0
3103 3259 0
1539 397 0
3144 -2072 0
362 -2743 0
-2580 93 0
-2252 -1312 0
-648 -1926 0
2350 2478 0
2293 141 0
-1517 -2915 0
-3130 274 0
-1330 -1809 0
-528 315 0
-4186 -3039 0
-1364 -3388 0
3618 -3485 0
-3740 -4334 0
-4247 1981 0
3308 -2934 0
-2038 2498 0
621 4309 0
-3105 3416 0
-2192 -78 0
-1035 4029 0
-3894 964 0
-2571 453 0
1621 3286 0
2393 2368 0
-2903 4123 0
2141 3902 0
2411 3906 0
-1093 -1301 0
-1851 2607 0
-2456 3886 0
3067 -2061 0
-708 -456 0
-2682 3937 0
3302 2522 0
300 -271 0
-1842 -3599 0
-3308 2513 0
-2342 3895 0
3449 2839 0
2162 2187 0
3233 3559 0
3463 4342 0
24 2647 0
1425 1647 0
1730 2023 0
-2277 -2254 0
-355 1118 0
1547 -1261 0
3020 3176 0
3987 -2687 0
-2640 -2803 0
4112 3894 0
2695 4339 0
1927 -533 0
2059 2725 0
-1536 -3474 0
3074 3435 0
-3586 -4003 0
656 2249 0
-1869 1956 0
4355 -3578 0
408 -2647 0
1802 -3052 0
-133 -452 0
-3352 2982 0
2246 -3931 0
2376 1080 0
3792 -2384 0
3917 -1099 0
3594 1520 0
-2932 -3158 0
-2929 2040 0
-478 2967 0
1732 789 0
1975 -3880 0
-2892 -1963 0
-590 -3197 0
-926 1341 0
-3536 -397 0
2269 -2242 0
-3707 -2811 0
2028 636 0
-3811 -2531 0
4336 3579 0
3199 -3639 0
614 -2150 0
-571 39 0
1514 -4338 0
-4320 -3173 0
4288 -2720 0
-2309 1199 0
580 100 0
-2153 -98 0
-1189 306 0
-1182 -4225 0
-647 -3871 0
4052 -2487 0
2858 2465 0
-3201 426 0
2360 -4310 0
-2914 2205 0
-2563 -1138 0
-1169 -2668 0
-1451 916 0
-122 -3948 0
-2036 1490 0
4213 -516 0
-4089 -3427 0
-3170 -963 0
-1427 -2767 0
-2788 2385 0
2870 -1110 0
987 1621 0
-3875 2923 0
-840 2236 0
-113 -2476 0
-3814 1133 0
2786 -173 0
3227 1943 0
-630 -637 0
-1511 3387 0
-3500 -1119 0
1671 -1129 0
2606 -3873 0
-3018 -673 0
3555 -3746 0
4366 2848 0
-850 -1185 0
-2123 1402 0
-2768 -3671 0
787 -3744 0
3292 -4264 0
-1904 3030 0
2492 65 0
640 743 0
1484 -2384 0
-2797 -2139 0
-860 1551 0
-4321 4302 0
-2204 1927 0
-1669 -1226 0
3304 -2616 0
-2523 -248 0
-84 234 0
-2116 246 0
3378 -2574 0
-3373 3648 0
-655 -3003 0
-4340 4145 0
-1189 1365 0
-2768 472 0
-1180 3532 0
2979 3739 0
2731 2497 0
48 -369 0
2474 2401 0
-2560 -2504 0
-4356 3356 0
4355 131 0
1721 -608 0
3004 4385 0
-2983 2994 0
-3671 -1592 0
-1013 -2834 0
842 -1895 0
-116 174 0
-4063 3858 0
1488 909 0
-2809 1908 0
-3160 2457 0
713 3607 0
-3616 4080 0
1541 -1386 0
3222 1053 0
-1775 2713 0
169 1438 0
3230 -4170 0
4355 -1373 0
3075 4299 0
-325 -3008 0
-3399 -1729 0
-3522 -547 0
-322 797 0
1607 1412 0
-1174 -3139 0
-4186 1491 0
4169 3758 0
-3416 3873 0
1559 -2615 0
-2184 4121 0
-292 -2153 0
-2491 -3082 0
1840 3766 0
3392 -3891 0
1349 1514 0
815 -1862 0
656 3784 0
3473 -2385 0
8 -2827 0
603 2790 0
-3671 2426 0
-1792 -3811 0
-3718 -3959 0
840 2079 0
-3642 -2668 0
3308 -2844 0
-1984 408 0
3909 -1505 0
-3424 3086 0
3107 -2009 0
-3056 -2503 0
3265 -3483 0
4104 337 0
3983 2246 0
3854 -332 0
-1545 -3199 0
-4108 -3614 0
-28 -1938 0
-4229 4072 0
-1196 -2720 0
3626 2790 0
-2798 661 0
4130 -1398 0
2393 3882 0
4338 3090 0
2341 -2642 0
3940 3642 0
-4006 3091 0
-3891 2928 0
121 4102 0
-3590 824 0
-1110 1061 0
-627 -3730 0
-3716 1908 0
3435 -1585 0
-2291 2203 0
-849 -1842 0
-3508 -1340 0
3753 236 0
1148 -3250 0
-3517 -3985 0
-3764 3640 0
-2646 -2763 0
3310 -1176 0
934 -542 0
-724 -3481 0
-370 -4268 0
2864 -4221 0
3308 -4378 0
-1571 -2691 0
1761 -2503 0
1674 1601 0
1468 4238 0
-3074 1031 0
-4035 53 0
-2583 -1612 0
-1365 -1557 0
486 -1458 0
-369 -3241 0
-1084 -3134 0
-478 802 0
-886 -3287 0
-3381 3883 0
-2906 1975 0
3981 1732 0
424 -317 0
-205 -2098 0
4306 3106 0
3612 3981 0
-3014 3899 0
857 3635 0
-2403 -2487 0
-751 2427 0
-340 -1577 0
3487 865 0
1798 -2436 0
-2686 -2982 0
712 -1188 0
-3377 -4333 0
733 4061 0
-883 -2852 0
-4167 -999 0
24 -4372 0
3915 -1175 0
2538 -2392 0
-3743 -3674 0
2059 2429 0
4306 343 0
1462 -2878 0
4118 2438 0
-1961 -86 0
2287 1609 0
75 -2833 0
1610 -1705 0
-1795 -2590 0
861 -1064 0
4319 2606 0
-2113 -2176 0
-3814 -3780 0
-1376 -321 0
2918 -722 0
2027 -2255 0
3836 1927 0
-3143 -433 0
193 -593 0
-2569 1964 0
-1615 -2434 0
-3844 -3888 0
-590 13 0
342 -3983 0
1735 1688 0
3658 1599 0
-4294 2300 0
470 -2966 0
4018 -2149 0
3063 -1977 0
3517 -3646 0
1101 -3120 0
4028 -2127 0
285 742 0
-2492 -2804 0
-3415 1594 0
-1718 3981 0
1502 274 0
-237 1210 0
-3337 2500 0
-3077 -4329 0
-2167 -3512 0
-753 -2303 0
-474 873 0
3864 -3572 0
-2388 -1763 0
2380 519 0
3344 2679 0
3084 3009 0
1426 -620 0
-974 2083 0
-2748 4262 0
108 -4105 0
160 117 0
-982 3127 0
3491 -4183 0
-574 4285 0
-1272 173 0
2607 1859 0
309 2339 0
-4303 702 0
3204 4115 0
-1721 293 0
3909 2656 0
-4145 2869 0
-1165 4253 0
2870 -802 0
3129 2208 0
-4205 2183 0
-2054 -3599 0
-3605 4168 0
-2548 935 0
-2351 -1639 0
2161 -3542 0
3982 -3354 0
-3946 -3689 0
4074 -3356 0
-1924 2893 0
4262 1261 0
-4131 1019 0
-660 2191 0
3149 2617 0
-1667 1199 0
-4214 102 0
-838 -2083 0
601 -2850 0
1830 2412 0
-1333 2101 0
-2767 -3285 0
314 -1069 0
-1377 978 0
-3673 2230 0
909 -4124 0
1112 -3671 0
533 -2409 0
4126 2228 0
1247 -3759 0
3191 2404 0
-3586 1921 0
-2134 -4085 0
2794 2820 0
3451 718 0
2445 3659 0
1896 628 0
-1883 1664 0
3591 -3164 0
187 -712 0
-1622 4157 0
1550 3991 0
-313 -309 0
-32 -3551 0
1088 3501 0
-3310 3897 0
-4378 -1901 0
-1838 2985 0
-3749 2929 0
-3057 -2393 0
-4297 -2285 0
51 1357 0
-956 743 0
4386 895 0
-1089 1543 0
-3188 3095 0
-3626 -3388 0
-355 1937 0
4262 -4006 0
-602 3557 0
-1277 1140 0
-135 279 0
506 -2300 0
315 -2308 0
-2318 2717 0
-2232 -1854 0
-822 2383 0
433 -1129 0
4075 -807 0
2754 2685 0
3229 -280 0
1407 4359 0
-2064 -2990 0
3820 -2873 0
2945 196 0
1051 -2050 0
-1342 -177 0
-1681 -3694 0
3319 -2775 0
1227 739 0
-2177 -3896 0
264 -574 0
2205 922 0
-388 -2931 0
379 -1463 0
2508 2676 0
508 -1266 0
-1937 -673 0
-3629 -2684 0
-1341 2400 0
-1992 -787 0
3358 555 0
2950 1271 0
4114 -4082 0
4267 2099 0
2567 271 0
1374 -882 0
4262 -1335 0
-2043 1320 0
107 -4040 0
959 200 0
981 -705 0
-329 -318 0
-2660 -3478 0
-673 4226 0
2723 -2095 0
-2148 -3736 0
-4291 1232 0
-4214 -2465 0
-239 -3064 0
3876 -3356 0
1450 -2277 0
3869 -2570 0
-840 -2136 0
3776 -2839 0
1735 2407 0
-2128 -1878 0
-2964 -297 0
-2609 4127 0
-2379 1655 0
-1006 -968 0
-2808 -15 0
-1386 -1656 0
-1724 3146 0
-418 29 0
2699 -2917 0
2417 835 0
3167 -2119 0
-3564 -3070 0
2514 2799 0
2232 -2804 0
-3440 -71 0
-126 -1265 0
-885 1040 0
2076 -1718 0
1919 -3287 0
-2727 -401 0
953 -2825 0
170 1862 0
-3991 4352 0
848 2054 0
3633 -813 0
-964 4107 0
1178 -3105 0
-1759 -3995 0
-3939 2238 0
3931 3618 0
-1212 2673 0
2991 136 0
3785 -3229 0
-2862 -3975 0
-564 -366 0
-4061 -3478 0
3438 -1793 0
-4049 3174 0
2617 -1816 0
-2574 -3868 0
-1261 1364 0
2762 -1152 0
1273 279 0
-1731 -1450 0
3406 -877 0
2411 2506 0
-751 837 0
-47 -2557 0
-63 -1278 0
-2599 2559 0
-1343 4150 0
426 -2621 0
-2334 998 0
4052 -282 0
-3266 -3929 0
-2876 -2039 0
-440 -1721 0
-4033 -1459 0
2487 -421 0
-2252 -1878 0
1318 1507 0
-1162 -983 0
-2311 2102 0
2810 -449 0
-3290 3959 0
-2736 -2666 0
3060 -2543 0
-1004 909 0
-919 -1826 0
1366 -837 0
615 3761 0
4154 2754 0
4377 2646 0
-2320 3153 0
-3298 -4309 0
-2900 -2073 0
-65 -443 0
541 -871 0
-3951 -4087 0
2698 1662 0
4052 -1201 0
2930 -2895 0
-448 -3047 0
-3453 3761 0
3047 -2136 0
3529 -2112 0
-3982 4171 0
-611 4331 0
-3064 4055 0
1311 -2436 0
-1084 -1475 0
4145 2882 0
2519 2753 0
2133 -3283 0
-2069 3623 0
-2672 919 0
899 -1115 0
1151 -2750 0
-2391 3056 0
-153 -2512 0
-2613 3701 0
992 981 0
3663 1092 0
3467 -1513 0
-641 -3022 0
2630 -1650 0
-301 4043 0
173 -2773 0
3299 -3390 0
-3058 4169 0
4212 -564 0
-857 1066 0
2033 2952 0
1343 3882 0
-1343 -590 0
712 3000 0
2063 -3521 0
-2252 -3065 0
3696 -79 0
-1785 2235 0
1429 -926 0
3880 3805 0
1576 -4070 0
4181 -1141 0
3714 -2868 0
4227 2128 0
2182 -3134 0
2137 -1804 0
3347 441 0
-1729 -2529 0
2299 831 0
596 2280 0
-3500 -3507 0
2742 3903 0
-1059 773 0
-3073 4198 0
3864 1100 0
794 -3901 0
-1702 -3442 0
3241 3759 0
-129 -2129 0
-2529 -191 0
-2601 -1517 0
2286 -3743 0
-2757 -349 0
-3257 -4184 0
-84 89 0
3668 -3679 0
1944 4251 0
594 4079 0
695 128 0
2587 3877 0
-3828 -333 0
3132 2344 0
1409 -2775 0
-2350 1139 0
823 490 0
-2227 4336 0
428 3128 0
2813 -4372 0
4228 -4013 0
823 4179 0
1349 2766 0
3767 -64 0
-3266 -1741 0
-1777 -1553 0
-4033 472 0
4193 1940 0
-1428 1886 0
-3069 2650 0
-609 -2629 0
-1449 -277 0
-1318 -4162 0
228 -3161 0
2438 -1261 0
-415 -3791 0
-1833 2699 0
-3714 2048 0
-2545 -2158 0
-1007 -125 0
2831 3037 0
621 3538 0
4136 -2275 0
1389 -4188 0
-3685 1514 0
-63 2821 0
1494 2295 0
4268 1465 0
-41 -1083 0
2184 3884 0
-3908 -3548 0
-325 3220 0
-2396 -3125 0
-1695 -2982 0
-2198 4222 0
-3999 2435 0
-337 -2254 0
2430 2763 0
-3391 2617 0
-3534 1330 0
-410 1370 0
519 1735 0
4368 -1079 0
740 4121 0
-4075 -1852 0
-3191 2816 0
1968 4173 0
3638 232 0
-1517 3396 0
1550 490 0
-603 -2214 0
2076 -727 0
35 -992 0
-726 -1034 0
-417 -3839 0
927 -696 0
-2892 981 0
1621 -3564 0
-1628 3651 0
-55 -2771 0
2346 -1563 0
3355 2278 0
227 757 0
718 4355 0
2164 2427 0
1919 -4337 0
-3692 -3251 0
1014 -911 0
537 3328 0
1920 -1457 0
-3109 -1928 0
-867 1986 0
3767 4180 0
2963 -545 0
-3035 -1771 0
58 -2598 0
1857 661 0
154 1850 0
-1256 -2740 0
-1811 -4120 0
-2936 -2645 0
1559 245 0
1756 1656 0
622 -350 0
-3635 3019 0
4196 917 0
264 1404 0
1304 -3386 0
-1664 701 0
-4010 1964 0
699 2388 0
264 887 0
-4295 -451 0
-3782 48 0
-838 1042 0
-3630 -975 0
986 -3789 0
-515 -2425 0
-2156 -1846 0
2133 791 0
-2834 3602 0
3696 -327 0
-105 2102 0
-3995 3100 0
-2404 -3457 0
583 -779 0
3425 2494 0
2671 -3246 0
-201 1209 0
250 1435 0
2699 -303 0
808 933 0
1006 4230 0
957 -3332 0
-3471 1823 0
-4251 3664 0
2794 -4069 0
-1838 1531 0
-1833 2841 0
-1376 1190 0
1601 4136 0
-3494 2572 0
139 -766 0
-1529 2836 0
48 3864 0
3267 1757 0
3527 -1720 0
-3285 -3782 0
-1142 3351 0
2827 4348 0
1069 4344 0
862 -4129 0
1668 1216 0
-868 3433 0
354 238 0
1351 -2457 0
-4214 -3754 0
944 -288 0
-1945 -3679 0
3543 1276 0
-2100 4178 0
-3081 2558 0
2202 -560 0
354 -563 0
-2976 2762 0
-1479 -2542 0
-728 718 0
1040 853 0
540 -978 0
-3699 1115 0
-3743 -4205 0
760 4020 0
-3970 988 0
-1176 -2962 0
-3203 1844 0
609 2247 0
-116 2322 0
-4211 -120 0
-2690 -1555 0
3416 3078 0
1394 -479 0
414 -840 0
1984 -1975 0
2210 1727 0
-3692 883 0
-269 -2741 0
-896 4280 0
-1333 350 0
-2155 -52 0
-644 -126 0
1151 -2705 0
-3080 4007 0
-3669 270 0
-3638 3654 0
2224 3943 0
-916 -754 0
-557 2978 0
-3822 -1145 0
-3161 -1839 0
-3935 -4342 0
-1283 4154 0
-3478 -686 0
-683 4212 0
-1898 1894 0
-560 -1512 0
-1148 3472 0
2246 -3992 0
-2057 3549 0
3029 1707 0
-72 75 0
4259 133 0
594 2901 0
1880 -924 0
-3065 2991 0
1269 3328 0
1976 508 0
-1826 3836 0
-1923 -141 0
-2931 4282 0
1423 3256 0
4318 1851 0
3983 -3966 0
-712 -2804 0
4032 84 0
-417 -3131 0
-4291 3927 0
607 2598 0
-872 -12 0
801 -832 0
-573 -3539 0
3592 -65 0
-2533 2989 0
-1875 -1050 0
69 513 0
-226 316 0
-1417 1563 0
51 -2646 0
-2390 2033 0
-3887 -3900 0
-646 930 0
2862 -1872 0
1567 1214 0
-4368 1791 0
-865 1964 0
-450 -3580 0
4037 -2129 0
1638 -2548 0
3922 3749 0
3698 1158 0
2510 -564 0
-2387 4174 0
-3374 -18 0
100 -3598 0
184 -1573 0
773 -115 0
579 -3701 0
114 -1906 0
2105 855 0
903 -2882 0
-2282 -1657 0
-814 -2137 0
-2115 3649 0
1548 1435 0
-2352 4284 0
971 -2598 0
-3243 4147 0
822 -1017 0
737 -3958 0
1087 3309 0
-766 3570 0
2624 1031 0
1770 -2591 0
-2659 2879 0
-2255 -3248 0
-4378 -568 0
-3978 -3669 0
-2635 2994 0
-1372 1576 0
-1176 842 0
836 4187 0
3796 -213 0
711 -1283 0
-691 -1686 0
4046 -2584 0
-2806 -244 0
712 764 0
1716 3859 0
2185 3966 0
1356 -22 0
4110 -2573 0
1193 3469 0
-3478 3423 0
2587 1816 0
2694 -3834 0
3191 2882 0
-436 -226 0
-164 4352 0
2811 -4172 0
-158 -2038 0
180 447 0
644 -3918 0
357 -3586 0
-317 -2052 0
1289 1837 0
1014 1062 0
62 -1700 0
-2616 4179 0
-1570 -2628 0
-2823 3196 0
-3133 389 0
-3033 3452 0
4154 2994 0
-340 3095 0
-2571 3323 0
841 1956 0
-2603 -3967 0
26 739 0
-3212 3221 0
-1704 -4261 0
3756 -2006 0
3664 3966 0
4292 -1653 0
266 934 0
3171 2339 0
2586 3405 0
2544 -3699 0
-33 2325 0
-4346 667 0
-3073 2192 0
3815 -802 0
2871 1915 0
4280 -1549 0
3129 1058 0
773 2044 0
-4321 -333 0
1870 -676 0
-1350 -3911 0
-3087 1551 0
-3958 4151 0
-1811 -735 0
-1139 4356 0
3531 919 0
540 -1719 0
411 -2780 0
-536 4305 0
-3549 -3477 0
1612 -693 0
1364 909 0
-3597 -3503 0
2758 -779 0
112 3737 0
-860 4065 0
-2672 -4270 0
-3581 -1659 0
-882 -1248 0
155 3213 0
916 1541 0
-180 3329 0
-1023 2624 0
1734 2059 0
-632 4118 0
4048 3555 0
2426 -1169 0
-2716 4010 0
-3835 3324 0
271 2421 0
564 -723 0
2911 2167 0
241 -3051 0
2893 3187 0
2006 -1283 0
3473 2364 0
-3379 -3080 0
-2872 -2535 0
-3245 2510 0
-1140 3666 0
-1289 -3382 0
-3754 -1577 0
792 3876 0
-2734 188 0
2856 -1318 0
3522 1697 0
2649 3198 0
3058 1025 0
-734 462 0
-1186 -1068 0
4251 -523 0
-1805 -3899 0
-3888 842 0
-2114 200 0
1193 -2437 0
3497 4255 0
3589 3618 0
-1278 3776 0
-3564 -1526 0
-938 -3935 0
4243 -1277 0
-920 1751 0
-3974 1420 0
-2077 541 0
-3491 -2061 0
-2914 -4321 0
822 -3988 0
2249 666 0
-3605 -1802 0
2380 1088 0
-1540 1704 0
4138 3019 0
3556 -1866 0
-768 -746 0
4323 -124 0
731 -1419 0
726 -2710 0
4251 62 0
1964 2785 0
-4055 -1540 0
3591 -4343 0
497 3821 0
-1430 -521 0
134 841 0
-50 -1672 0
3837 -1422 0
-2690 2397 0
-3598 -1560 0
1237 -4085 0
-1938 -2653 0
2311 2969 0
741 -2772 0
2231 -3814 0
1601 -3260 0
1424 4382 0
2430 1172 0
2598 -4036 0
-737 -1579 0
-617 2296 0
-492 4129 0
-1320 2783 0
2074 254 0
-1178 -3576 0
-2795 -2725 0
586 -3185 0
1789 -518 0
-298 -178 0
2115 2425 0
1314 -615 0
-3908 1538 0
-2096 2627 0
-4351 -4031 0
1329 -3680 0
1844 -239 0
4252 1518 0
-798 4297 0
1564 -2815 0
1349 2417 0
-2381 -509 0
2413 3071 0
-2842 145 0
51 -364 0
-1069 -4362 0
4169 1417 0
1421 2044 0
4178 3449 0
855 2060 0
-2105 -4140 0
-3791 2973 0
-1267 2305 0
3071 2730 0
-478 3107 0
-3331 -3300 0
-321 994 0
2799 140 0
-454 -3659 0
4066 -435 0
868 3878 0
-1223 -3675 0
4354 10 0
-1391 -3310 0
-2973 1446 0
1110 3396 0
4071 3583 0
1765 -1236 0
2586 1670 0
469 3486 0
-3106 887 0
-2028 -3367 0
-991 1564 0
-4070 -1279 0
492 -2175 0
-2136 1694 0
3545 -3905 0
-2828 2762 0
-2964 3492 0
-2269 1017 0
3028 2735 0
469 -1925 0
-3899 -4001 0
2142 -923 0
1489 1548 0
4370 1468 0
3819 2387 0
-1162 70 0
739 -1617 0
-1929 2022 0
-1489 -2763 0
2025 -926 0
316 3617 0
-3391 199 0
2384 -1304 0
4169 2327 0
49 1344 0
-2364 -3148 0
-2352 4126 0
2332 -3276 0
2446 -32 0
-4069 -1296 0
4143 4069 0
-4091 155 0
-2460 -3642 0
-3043 3713 0
-1284 4231 0
2418 -1969 0
1192 -46 0
-4359 2590 0
-1118 -1426 0
3266 2194 0
3054 -2854 0
-4011 2347 0
2080 3156 0
2711 -643 0
-3610 -2391 0
1197 951 0
10 -1133 0
2034 1305 0
-1819 -1705 0
-3238 1945 0
-88 1162 0
-900 -4291 0
3387 3971 0
-759 3586 0
-48 1991 0
-1363 -3395 0
-1652 3575 0
2565 16 0
-3174 -1174 0
4139 372 0
4291 2507 0
1913 1156 0
3302 998 0
-3770 3546 0
-2497 1877 0
1002 -486 0
-4122 -3991 0
-960 2169 0
2838 -3051 0
-3746 1132 0
-1848 3402 0
-3193 1018 0
970 -94 0
-3988 -3637 0
-1397 -3101 0
-512 -4084 0
3584 -3966 0
3830 -1084 0
3894 -2851 0
-2597 -1973 0
-3832 -80 0
970 -1089 0
-3732 -630 0
2152 -2470 0
-3756 -3085 0
-2482 4082 0
-2012 -4307 0
922 740 0
-2728 1029 0
1352 -898 0
-2740 -3746 0
-766 -2005 0
-1741 -3061 0
1520 1810 0
3335 -1274 0
2628 -3479 0
377 601 0
2616 3279 0
2347 -3646 0
1318 -640 0
3095 3867 0
3176 -1080 0
4235 -564 0
-511 246 0
-3086 -970 0
3232 -1295 0
1934 -310 0
-2014 -1345 0
3441 -2541 0
4287 -2413 0
-2636 -2030 0
-2436 -986 0
1654 -2140 0
-3356 -2940 0
-2183 -2244 0
-4311 2522 0
-2444 107 0
3611 -292 0
414 3445 0
2479 1444 0
-944 -2144 0
-33 3310 0
-3851 3970 0
3937 930 0
-2387 4259 0
1512 1278 0
3020 2137 0
2441 -862 0
-1068 -57 0
-2285 981 0
2174 -798 0
-1019 -393 0
-3346 2594 0
2356 3226 0
-778 2423 0
2295 563 0
-4249 1484 0
-720 402 0
4307 -1316 0
2213 -239 0
-1818 2185 0
389 2088 0
3189 -1327 0
474 2348 0
-781 -1490 0
-3478 1462 0
520 352 0
2643 4289 0
1141 -4363 0
-4242 -1741 0
-995 4387 0
3143 1793 0
-3624 1559 0
2517 2621 0
-995 4153 0
3555 -3579 0
-2889 2030 0
-2424 586 0
-1304 1238 0
880 -4111 0
-3724 2244 0
3871 -1057 0
-1044 1018 0
-3395 -3276 0
-4221 -3700 0
-2192 3882 0
-3630 -3196 0
-1447 -2374 0
2631 1629 0
3716 -3135 0
3846 -3790 0
-3845 -1883 0
248 -3799 0
4024 -1638 0
-429 -2484 0
3484 3634 0
1850 3121 0
1990 1444 0
550 -593 0
-1244 -3496 0
1263 3857 0
3943 480 0
-1379 -2434 0
496 29 0
1946 4173 0
-322 -2648 0
-3385 2334 0
-355 -3241 0
4020 1595 0
-2971 -3394 0
-837 209 0
-1384 1 0
1589 453 0
1919 3658 0
3568 -906 0
-4026 -495 0
-2050 3748 0
-2632 704 0
-2252 -3519 0
-4275 -3444 0
2355 -2286 0
-3596 -555 0
940 2048 0
-637 1807 0
1740 3990 0
2147 -3887 0
-201 2177 0
4368 -1183 0
1078 -3264 0
-2878 4065 0
2704 -3743 0
2938 1096 0
-965 873 0
-3246 -4208 0
-3426 2623 0
-485 -2635 0
1722 328 0
3499 -1513 0
-2457 1062 0
-1586 -1444 0
3783 -3197 0
3324 1461 0
1954 1239 0
-3729 -2287 0
3488 2770 0
-926 -246 0
-1797 -1441 0
-3170 443 0
-1485 2088 0
3742 -2424 0
-1296 3813 0
-956 -3874 0
2576 -2479 0
-3064 -4200 0
1616 3956 0
3213 2377 0
-1452 3808 0
753 -720 0
3829 -1831 0
-2962 -2020 0
-2816 -3971 0
2108 1197 0
-744 -519 0
-4195 1989 0
-1991 -2662 0
1792 552 0
-3439 -1470 0
2950 3357 0
2016 4375 0
-1969 843 0
-72 3616 0
3890 -1539 0
-2962 -378 0
-3844 3765 0
3156 638 0
3410 -1532 0
940 -2917 0
-355 1855 0
-3951 3293 0
-983 2974 0
3375 3034 0
3744 -2084 0
238 3234 0
1584 1783 0
-2021 3154 0
-2840 2309 0
-1586 -2714 0
-732 4324 0
-3260 -507 0
-2740 -2693 0
4307 -2285 0
-525 1131 0
664 -1700 0
-1129 -3557 0
1390 3439 0
-2033 -3446 0
2237 4359 0
1791 1394 0
-1989 4165 0
-3584 -3809 0
-3409 -4219 0
-3085 -879 0
-4006 -2009 0
-344 -369 0
1499 -3300 0
2437 -653 0
1253 -487 0
1156 -2670 0
2368 -982 0
414 -838 0
1997 2582 0
4353 -3021 0
-1302 -1570 0
-157 -3900 0
-124 1990 0
3067 -2751 0
-4281 -2934 0
3060 -2850 0
2543 1528 0
2102 -755 0
869 3400 0
-2433 -3971 0
-367 -1801 0
-976 1448 0
-767 -2035 0
2315 -1820 0
-3116 -928 0
-2680 -1772 0
-1567 2664 0
398 -3731 0
-3245 3501 0
-1791 1928 0
4002 4044 0
1812 245 0
3491 2178 0
1550 3211 0
2649 -3297 0
-1704 -1308 0
2722 4143 0
3695 -2748 0
1112 -2198 0
2312 1598 0
-2012 -1280 0
3859 2792 0
-1637 3423 0
408 4287 0
-3359 -3505 0
-2231 -2308 0
-1928 1106 0
2760 -994 0
-2358 -2057 0
-990 -3717 0
4315 -3018 0
-2782 1046 0
572 -2962 0
-3146 -2118 0
3847 -672 0
-1696 -3794 0
-1575 1385 0
-4083 -1191 0
-640 -236 0
-2036 -532 0
222 -458 0
1187 3380 0
425 410 0
786 -3685 0
-1691 -4025 0
-3413 -3410 0
-3608 -1133 0
1191 3529 0
2435 -1775 0
-1235 -4191 0
2181 1036 0
3704 -1889 0
89 -3650 0
2976 1648 0
-1560 2960 0
2414 3707 0
-3595 49 0
2072 320 0
-4184 4097 0
595 -3874 0
2232 1594 0
-1477 -249 0
1944 2159 0
-3051 3842 0
-3877 -2833 0
-4198 -2853 0
-1968 552 0
-2139 216 0
-561 4375 0
2415 3829 0
4187 1170 0
-2476 3080 0
-1626 -2693 0
1681 -2739 0
-1706 2943 0
-3332 3918 0
-3862 -113 0
-2250 3516 0
-2419 -2696 0
-3444 -3379 0
328 2415 0
3903 3005 0
-42 215 0
-572 1934 0
-2677 3026 0
-990 3120 0
-4178 1310 0
-1328 -4055 0
262 -1656 0
1994 -1958 0
-1772 -3420 0
-3367 -403 0
4233 2562 0
1955 1954 0
2874 4039 0
-1141 508 0
-2119 3022 0
4236 -1925 0
2400 -960 0
1111 -2080 0
-1918 3219 0
-290 -1143 0
-4194 1356 0
3662 2472 0
-1305 1764 0
58 -542 0
3602 3612 0
-860 -1451 0
39 3121 0
-501 3874 0
3996 1469 0
2501 -3331 0
3634 -4359 0
1102 -2212 0
-834 -954 0
-4311 -3348 0
-1854 3138 0
-2381 -3252 0
3537 -850 0
620 -785 0
531 2044 0
-3990 -829 0
-2583 -2215 0
-4227 3680 0
-1029 2627 0
1866 -1463 0
4119 -4255 0
-2083 1951 0
995 -3082 0
4018 -1621 0
-2244 -3854 0
-920 -1581 0
1862 806 0
-3017 -3638 0
1246 4103 0
-1271 -100 0
991 -3670 0
156 -513 0
3602 107 0
1492 3460 0
-1456 3993 0
-1086 2339 0
-389 -1900 0
-4229 1945 0
-2335 436 0
-719 3168 0
-3900 155 0
2401 -1602 0
3486 -1812 0
-4059 3267 0
3153 -2721 0
3303 445 0
-773 -1084 0
949 -2390 0
1051 -4036 0
4205 -476 0
1437 -3340 0
-2071 -3513 0
2798 2500 0
4379 -3175 0
989 -1612 0
3441 -3891 0
811 -2995 0
1994 3550 0
1789 -2477 0
-3340 -1760 0
2624 1697 0
1535 -1354 0
3992 -142 0
-612 3623 0
2919 -4006 0
-3246 3201 0
-694 3856 0
-1833 3378 0
-1166 3638 0
4100 -1505 0
2485 -1803 0
-2865 1280 0
-1269 588 0
2662 -2638 0
1403 -3113 0
-3699 1617 0
3759 2333 0
1019 -3385 0
-3400 4129 0
1971 -1754 0
2857 -2884 0
726 -2298 0
2409 3244 0
-815 3939 0
-2440 -3192 0
-974 3126 0
66 -1817 0
2086 2418 0
-3137 668 0
-2066 -4229 0
-2100 -3697 0
-3705 -4299 0
-4198 3433 0
3086 1282 0
-2686 1181 0
-3637 3720 0
3178 1316 0
-4048 3949 0
3969 -1632 0
2278 2318 0
-3727 4056 0
2165 -158 0
-600 -2772 0
-2029 855 0
-232 -389 0
-1565 -3350 0
-3254 2820 0
-971 -1221 0
-131 -14 0
319 857 0
-3320 842 0
520 213 0
-3369 2686 0
-3054 -234 0
2240 -1142 0
2746 -2274 0
4209 1677 0
-2958 4050 0
-2059 2527 0
739 -478 0
342 -2793 0
-4360 3233 0
69 -3361 0
-1896 -2121 0
-2529 3607 0
-3948 -4199 0
101 -3620 0
-982 164 0
2637 2475 0
3466 1903 0
1724 -2480 0
2669 -1047 0
4248 -979 0
2983 -4086 0
1211 -2895 0
3504 -2340 0
-768 4267 0
-1600 4101 0
791 733 0
-2338 -2049 0
-3626 2240 0
858 -127 0
-63 1495 0
-875 -2900 0
-35 -1532 0
1967 4132 0
39 3138 0
-616 206 0
3231 -3533 0
-2425 657 0
-3107 4284 0
-2895 1617 0
2486 -3256 0
278 718 0
-2886 399 0
718 3180 0
-2429 1856 0
-1723 -4167 0
-2609 3343 0
-1613 -3569 0
-793 1535 0
3691 4141 0
1087 -226 0
-2823 740 0
2836 -3733 0
2270 -2535 0
-1185 1437 0
2755 -926 0
3663 -3837 0
47 -3200 0
-2903 -3941 0
-897 -3810 0
-4329 2311 0
483 -852 0
825 366 0
564 3490 0
-662 3275 0
845 -2299 0
3026 1187 0
1713 -2717 0
-3550 3167 0
-1599 -2253 0
-1964 -2885 0
-2505 -2829 0
-255 -2682 0
1867 -4362 0
1719 354 0
2491 2056 0
-1803 683 0
-1080 110 0
764 567 0
3941 2690 0
2098 53 0
-3051 1469 0
-1335 487 0
4251 -261 0
-1696 -1624 0
-1998 -2687 0
2899 -2314 0
-2466 -641 0
3057 4068 0
-2677 4257 0
2749 -959 0
-1776 -3896 0
-3805 998 0
1804 -1798 0
2271 2841 0
-2515 1594 0
-2418 2055 0
-2029 -2705 0
-3896 4174 0
3446 -3694 0
-3006 -1614 0
109 -3894 0
-2648 1496 0
-1930 1836 0
1112 4317 0
-3828 4161 0
3624 -3549 0
3302 3360 0
-1353 -2018 0
-3134 3331 0
-3239 3510 0
2709 -91 0
3814 4056 0
-2468 407 0
930 1716 0
-3034 3474 0
1855 -2813 0
-4371 1796 0
-4203 -2898 0
-3543 2182 0
-2305 2486 0
-3505 -2350 0
3905 -808 0
-3483 -3011 0
-2677 -3964 0
2281 -1174 0
3278 -912 0
2647 4361 0
3314 -1600 0
-662 2585 0
-369 -11 0
-3271 -768 0
-2535 1969 0
1843 36 0
-2090 2556 0
-3185 -3590 0
-270 -3625 0
2817 -2872 0
1430 -2091 0
-2547 -3580 0
1843 -2484 0
193 114 0
1825 -198 0
2160 -1195 0
3760 -672 0
-2836 3284 0
2560 4103 0
3142 -2532 0
2075 2649 0
-1961 -2456 0
-3967 434 0
2413 4131 0
-3815 2382 0
1727 163 0
-986 2054 0
389 -2803 0
4061 183 0
3205 -167 0
603 2075 0
-3841 -410 0
-2448 -4264 0
2360 -2436 0
4357 -15 0
3808 1864 0
2929 1607 0
3607 -3279 0
1756 2724 0
-3150 1150 0
-2095 -536 0
-3264 4024 0
1816 2346 0
-911 3670 0
-672 1270 0
-1557 997 0
-3966 -3199 0
-846 -1259 0
787 4233 0
-1041 3869 0
991 -1829 0
1958 -4040 0
1136 3910 0
716 -67 0
1252 1264 0
3589 -4213 0
-334 -1915 0
-1501 66 0
4000 -4183 0
-3200 -2261 0
474 -1596 0
942 -2937 0
-1540 2961 0
2455 3730 0
-2735 820 0
502 -2300 0
3461 2770 0
-2717 -4102 0
-2227 2355 0
-2707 -3475 0
439 -2696 0
-4229 514 0
-579 2376 0
-2070 3157 0
3647 -3499 0
3444 -3458 0
-2996 670 0
-1409 3806 0
-3033 1900 0
-636 4143 0
-1474 1619 0
-4358 -2103 0
864 -3281 0
2346 3766 0
-3867 -3239 0
-861 -311 0
-1098 2134 0
-727 4373 0
-1226 -3582 0
3942 -142 0
2471 -1696 0
-973 -3544 0
1317 4201 0
3707 -1641 0
1504 863 0
-814 2883 0
1410 -1616 0
-1552 2589 0
-4261 1449 0
3414 -2799 0
3714 -3798 0
506 1317 0
-3710 -1365 0
1454 -3296 0
1013 3531 0
-6 -3966 0
-1367 -3609 0
-1670 1273 0
-1133 -625 0
-2463 -2159 0
-856 -4204 0
-313 -3131 0
-1736 1224 0
3772 251 0
-1664 1884 0
1780 1907 0
231 4019 0
2159 -3450 0
2247 822 0
2928 3759 0
-3694 -1866 0
-2862 -3950 0
-3385 -3742 0
-1287 286 0
-1640 -137 0
-3282 2445 0
-1852 -569 0
-3837 3314 0
-352 -732 0
-1250 2491 0
2326 507 0
-374 -687 0
-2772 3663 0
3052 2502 0
-3063 3447 0
1670 2248 0
-3248 2128 0
553 1027 0
-1419 -4083 0
3429 1746 0
2865 1255 0
1031 -2370 0
1535 -4137 0
-9 -2537 0
773 3332 0
-1398 1563 0
1448 -3794 0
3343 379 0
4280 -435 0
-1353 3489 0
-4045 -861 0
-3310 2654 0
-2587 3083 0
1856 3523 0
2105 1938 0
1093 -4120 0
3855 1568 0
-250 -3666 0
3287 -1170 0
2454 -28 0
636 -799 0
518 -3243 0
2128 -1600 0
3090 -1119 0
263 -2124 0
-2549 -3796 0
872 -1483 0
1209 3625 0
4382 -2419 0
-1246 2321 0
4363 -4054 0
-1547 2825 0
2416 -810 0
3704 2239 0
883 1928 0
-701 -3725 0
-3110 -2781 0
-2841 -2183 0
-3869 2941 0
-2345 -1245 0
-1914 4024 0
2972 1682 0
-2611 -4007 0
2053 -2811 0
715 -265 0
-4155 167 0
1078 1409 0
568 126 0
-1664 3182 0
2328 -1550 0
-1559 -3750 0
927 2951 0
2220 2211 0
-220 -639 0
-1753 3198 0
-3524 -2592 0
1466 39 0
-482 2236 0
-4069 2322 0
356 4384 0
2162 -4376 0
-1140 2261 0
1800 -4029 0
3908 1177 0
-2571 511 0
-1719 -2173 0
2008 2031 0
2410 2304 0
3010 -3559 0
4359 2327 0
4024 4089 0
-433 2563 0
78 4091 0
-4146 -1809 0
-1622 -1087 0
2948 -3741 0
3917 -1623 0
-2312 3806 0
3028 2522 0
-133 3594 0
896 2589 0
-1841 3403 0
-4295 -1465 0
-2702 -3694 0
-1368 3866 0
2491 360 0
-931 1248 0
3735 2390 0
-2501 -3767 0
-4026 -1848 0
399 2812 0
-4333 -1513 0
3445 -4333 0
1743 -1969 0
2056 -3367 0
3663 3540 0
705 -2802 0
3466 -737 0
1728 -1952 0
-2720 4334 0
-2808 953 0
1307 534 0
-3524 3118 0
-2415 3979 0
-1460 331 0
971 1293 0
118 -879 0
-2579 3417 0
474 2192 0
4173 -378 0
3819 -957 0
-252 2279 0
-3014 961 0
3743 -3133 0
2709 -458 0
-2793 570 0
76 1588 0
1145 -1831 0
2333 -1254 0
-318 592 0
-1451 -3265 0
2770 -4079 0
-1674 2093 0
-1130 -561 0
-4072 -277 0
-4072 -3630 0
784 838 0
2086 1764 0
3245 2233 0
-1617 537 0
-3414 3387 0
-2407 -2111 0
477 -354 0
-2085 -2009 0
834 1898 0
2 327 0
2666 2211 0
4339 2545 0
-4379 664 0
1129 -615 0
-1294 1883 0
-3154 2729 0
-2482 -2232 0
3801 1996 0
754 -1933 0
3786 -3456 0
-1838 -2880 0
221 2998 0
407 -2415 0
844 -612 0
-2912 -3565 0
542 4100 0
-3402 2979 0
-3419 1771 0
405 -2886 0
1219 -3599 0
-2903 1443 0
2315 -521 0
-2504 4326 0
-4281 4238 0
3114 2697 0
469 2631 0
-2294 -892 0
-1912 357 0
1022 -1008 0
-4225 3800 0
2405 -675 0
-3409 1211 0
-2497 2141 0
-783 3627 0
-3282 1303 0
3934 -37 0
3899 -2705 0
40 -3905 0
-766 -1260 0
-963 3525 0
-1476 -2038 0
2553 -2829 0
-2309 -2809 0
579 -299 0
4226 -1010 0
-3795 -3396 0
-1634 -653 0
2214 -3130 0
4081 -3223 0
-3438 1346 0
-3943 2970 0
1201 -3110 0
1244 2734 0
-3982 2864 0
1493 -1876 0
1218 -1767 0
195 4307 0
3566 -3871 0
-269 -766 0
-2083 3524 0
-448 -2881 0
-4006 1129 0
2423 1551 0
-3547 -3364 0
-3648 -383 0
2955 -1882 0
-1148 2346 0
-1434 1947 0
-245 -3027 0
-2666 2130 0
-948 -156 0
-1550 -1556 0
-2406 1613 0
-4119 2755 0
-2199 -4265 0
-1130 -3678 0
-1369 943 0
287 -3003 0
1390 2805 0
1989 1997 0
3176 -742 0
-2563 400 0
-2667 2748 0
-1606 -2597 0
1740 1431 0
2833 3877 0
-1997 -3419 0
3957 -1309 0
-2459 1544 0
-3505 -1675 0
-3175 3433 0
-2391 266 0
-2550 -1498 0
112 -4011 0
1429 924 0
-3634 -3580 0
-4134 -1803 0
-1558 2671 0
-996 -165 0
-4068 69 0
2875 -2041 0
1283 -3824 0
-3228 -1145 0
140 2377 0
-1915 2375 0
-1028 -3194 0
988 -2443 0
1881 -1415 0
-1023 -2933 0
-4364 3812 0
2123 -3017 0
598 999 0
1583 1237 0
-2814 3973 0
1176 -2593 0
4256 -129 0
-2235 708 0
-1748 302 0
-381 4197 0
-2423 -2645 0
2633 1358 0
-20 923 0
3627 2976 0
-469 -1814 0
-2458 1853 0
-1597 945 0
858 1622 0
-1037 -332 0
-4126 -244 0
-1839 4103 0
-958 -2308 0
-3372 -1372 0
-433 -2104 0
-2797 -2806 0
-1923 3552 0
606 2905 0
279 -3842 0
2840 2179 0
4279 869 0
618 -2504 0
-3885 3917 0
-18 -3386 0
-3958 -277 0
-3404 4060 0
1577 -2763 0
-2825 -671 0
2726 -3839 0
-3215 3363 0
-2772 -3542 0
2976 -2825 0
712 3241 0
-1526 -1373 0
-1878 1680 0
-2233 -3508 0
-3640 2766 0
-2659 665 0
-2740 1039 0
2481 2850 0
335 1805 0
683 3277 0
-3828 3346 0
-2772 -3441 0
-2510 345 0
-3975 4332 0
3247 598 0
305 3042 0
1717 -2951 0
1085 755 0
89 -2115 0
1601 -403 0
1582 1193 0
-2113 -3874 0
2214 2834 0
-956 431 0
-1130 -437 0
1440 40 0
1975 784 0
762 3526 0
-61 -630 0
-3141 864 0
2613 811 0
3905 -997 0
-275 -3876 0
-2985 -1964 0
-2379 -2560 0
1671 -1115 0
909 -361 0
-1933 3346 0
-1968 463 0
169 -1372 0
1115 -1754 0
379 -2244 0
1788 197 0
364 -868 0
3831 1742 0
24 1876 0
3144 -2688 0
-2042 1700 0
-2545 -6 0
3801 -464 0
-431 -70 0
-1270 2387 0
-545 -2382 0
703 2357 0
1547 -573 0
-3861 -1812 0
1231 1603 0
2328 -2220 0
-2693 -2092 0
4327 -2735 0
1618 92 0
1454 -3961 0
-1201 -1709 0
3889 -4252 0
-3625 2972 0
2950 -3634 0
-2127 3636 0
4101 3348 0
-1717 -3516 0
2285 -1414 0
-4147 -1418 0
-3343 1370 0
-2788 -3946 0
1013 -4042 0
-4250 -1717 0
-2178 -769 0
2240 -1543 0
1771 1734 0
319 -1266 0
1797 2013 0
-886 2763 0
-2800 -3578 0
3669 2371 0
168 -1372 0
-1759 -992 0
2243 -4120 0
-3087 3805 0
1745 1671 0
-4310 107 0
3773 3879 0
-1545 -1475 0
-1300 3357 0
4280 4065 0
3258 -1509 0
-110 262 0
-2831 -1209 0
-782 2431 0
2122 -3604 0
-4334 -2330 0
3959 -1615 0
2348 -49 0
2691 -3699 0
665 -162 0
1206 1461 0
2346 76 0
658 -1689 0
4024 2922 0
-708 -1669 0
-2363 -3055 0
3761 -954 0
-2093 933 0
4089 4110 0
1584 -1929 0
3579 1086 0
-2114 -2549 0
3616 2870 0
3031 2125 0
225 4206 0
-2847 -4034 0
-636 -2693 0
-612 -1525 0
-3303 -1151 0
-566 -805 0
2819 269 0
583 2082 0
2398 -1809 0
-3733 -1688 0
1868 -238 0
-2847 -3593 0
3325 2048 0
-2850 1005 0
4182 -3050 0
991 -731 0
946 -3689 0
-1033 1106 0
825 -2123 0
-890 -233 0
3582 2779 0
834 2875 0
-2526 -3323 0
-3748 3305 0
695 -1023 0
1137 -3420 0
-2426 -2670 0
-3942 -1580 0
1761 -2882 0
1784 86 0
-2372 2855 0
-3464 -3824 0
-1754 1282 0
3498 269 0
-3175 -1224 0
-3199 -2895 0
-494 -2332 0
4014 -3852 0
-1139 -1573 0
2808 1596 0
409 880 0
3015 3894 0
2204 -3845 0
264 38 0
-3459 -1904 0
-547 2894 0
-465 -624 0
-4000 -3483 0
-2758 -252 0
3187 -392 0
-1038 -3860 0
-243 1873 0
2346 4277 0
-911 790 0
3758 -1649 0
-1865 2688 0
-3858 1416 0
1734 242 0
1051 3162 0
-2069 -2667 0
2449 4004 0
662 2255 0
2471 -1079 0
-2455 2315 0
511 -203 0
627 -2745 0
1697 1042 0
-3362 302 0
-659 3332 0
-4315 -3383 0
2944 603 0
-2707 2558 0
3256 -818 0
-113 524 0
2612 -2550 0
-1175 3765 0
3939 1292 0
1858 2751 0
3607 -3640 0
1409 -3970 0
2104 -4327 0
3216 3572 0
-698 3275 0
-522 -1357 0
-3616 -688 0
2573 685 0
4246 -2983 0
-3816 -166 0
2468 -3566 0
-691 4203 0
479 -2849 0
1406 -2658 0
4206 -781 0
2027 -323 0
1082 -3285 0
-1606 -4302 0
-3782 -1206 0
-615 -4277 0
2817 -2482 0
-4351 -744 0
-888 -2321 0
4299 -1010 0
-817 -2782 0
3764 1822 0
2959 -3693 0
3045 -1953 0
320 -2851 0
-631 -2352 0
-76 2426 0
-2869 -3565 0
-1060 -4178 0
636 3156 0
-1264 -1296 0
-621 4223 0
-1825 59 0
1411 1844 0
-1986 4315 0
-370 3614 0
-4075 -2305 0
-3671 1566 0
-2219 2911 0
2767 -4205 0
-3455 -1267 0
-44 -1135 0
766 1684 0
-3604 -2654 0
1910 4268 0
3955 1287 0
-1494 -1513 0
-2159 -3080 0
2813 2021 0
2753 3796 0
-1225 1370 0
-3150 613 0
-652 835 0
-284 -1102 0
2985 3732 0
2793 784 0
102 2091 0
-1122 2131 0
2674 1667 0
1181 3877 0
4166 1364 0
4313 -4321 0
-414 -4134 0
1563 -1155 0
-3595 1762 0
1013 -1138 0
4225 -3585 0
2051 -491 0
850 -999 0
-3139 1406 0
1722 -3356 0
1018 2892 0
1567 282 0
-2090 -1581 0
-3251 -2506 0
-2136 -3702 0
4045 -944 0
3282 2720 0
-1055 2730 0
2180 3912 0
3844 3242 0
97 1910 0
846 1293 0
-1121 -1933 0
3098 30 0
-1358 1648 0
-4174 1247 0
4192 -2104 0
-1332 -2038 0
-2273 2102 0
4209 831 0
3812 2411 0
2123 -440 0
-2756 -357 0
1453 2329 0
4097 -3628 0
-4038 1052 0
2923 -3458 0
3387 1759 0
3631 3219 0
4273 -2867 0
-1820 -886 0
-563 -2693 0
3598 -737 0
1756 -2416 0
3053 -2824 0
2812 -3862 0
-1812 -1977 0
-3912 3489 0
660 -912 0
-1489 -1753 0
-1653 -2894 0
-4325 315 0
-3499 1030 0
-4286 1881 0
-2683 -858 0
2926 696 0
1122 -3454 0
460 -1921 0
20 2151 0
-2901 -2314 0
2749 -98 0
-2230 -491 0
757 -312 0
-423 4066 0
3198 226 0
2652 -106 0
-1933 4064 0
-514 3748 0
1320 1538 0
338 2366 0
2687 3256 0
-1417 -1999 0
1132 -814 0
362 -1264 0
348 -3930 0
-3415 -3131 0
-3105 4343 0
-877 2596 0
1546 -759 0
3857 -949 0
2128 -3232 0
-46 -2347 0
-785 -813 0
3062 -4374 0
-269 3492 0
4343 -637 0
-3663 -1325 0
-1810 -3523 0
-2452 -3914 0
-4224 -2917 0
-3328 3522 0
-501 -2550 0
2744 -2721 0
138 1959 0
-4106 661 0
2365 970 0
-1125 1827 0
-2257 -1047 0
2730 -3269 0
3027 -1272 0
1540 346 0
2952 -2395 0
765 -1543 0
-1818 3279 0
-2138 2952 0
-111 4197 0
-3716 -3283 0
-2094 1714 0
-3066 3631 0
1197 -1997 0
390 3276 0
1568 3802 0
1147 -1274 0
-1778 -2490 0
-1998 4006 0
-352 2541 0
-3709 2865 0
-1911 -3590 0
-3317 -1700 0
-193 789 0
3243 -2136 0
2235 989 0
-3526 345 0
1777 87 0
2671 1444 0
1163 -1639 0
1856 -463 0
-3254 2193 0
-3596 2046 0
-2142 -3512 0
-2495 4210 0
-1020 1679 0
2275 2923 0
-955 2573 0
-486 1713 0
-3542 -2636 0
-358 -2629 0
4343 -1829 0
-3902 3834 0
-3973 3674 0
1689 -972 0
3995 4158 0
1535 3660 0
30 2624 0
2180 1788 0
1453 150 0
-3499 -2702 0
1406 -3824 0
-2170 -1129 0
-70 2005 0
-1984 2810 0
4154 1761 0
-3464 -3509 0
-2332 1584 0
1366 -37 0
-1256 -3001 0
-575 3033 0
2935 1073 0
2579 4095 0
130 1124 0
302 4064 0
-4027 1279 0
4059 3221 0
2847 4112 0
-1467 3571 0
4014 3045 0
2636 474 0
-2386 2540 0
3560 447 0
-2544 -480 0
-779 1572 0
4116 3465 0
3507 2667 0
2023 4124 0
-3604 3575 0
1846 -994 0
-4003 -2615 0
-2351 -615 0
3502 -3847 0
3131 3956 0
12 4332 0
-2592 73 0
4119 -2516 0
-294 3204 0
-712 -4105 0
-1846 1498 0
3979 -2357 0
-1584 1802 0
896 -1458 0
-4140 1888 0
-3247 4181 0
-2209 3553 0
3958 1136 0
-2396 3803 0
2709 -4203 0
359 1765 0
-2882 412 0
3511 3758 0
293 -1349 0
-2897 -448 0
-2844 -1082 0
3280 -2104 0
-2794 -861 0
2057 -2380 0
-769 1529 0
4287 -411 0
-208 -3513 0
3894 1162 0
1696 274 0
588 3271 0
1466 2669 0
-445 2857 0
1917 -276 0
-2173 2082 0
2399 224 0
3171 892 0
3803 -527 0
3963 2620 0
-3172 -4351 0
-1096 -1551 0
-1580 -924 0
-2969 -211 0
83 -555 0
-1400 -1552 0
4155 1251 0
-742 -770 0
704 1174 0
-2698 -4249 0
2470 -1554 0
14 1526 0
1501 -2912 0
1121 -3125 0
-2707 -573 0
1747 -2475 0
1531 -283 0
759 -3680 0
-364 -1969 0
3181 -4325 0
-65 101 0
2542 -3832 0
-2350 -453 0
1727 -2927 0
343 3042 0
-2584 2337 0
238 3264 0
1446 2185 0
-3922 -578 0
2897 2513 0
2537 2338 0
-972 2514 0
-2900 -517 0
-3197 218 0
-4063 -1342 0
3263 -311 0
-1673 361 0
4023 1364 0
704 2642 0
-3457 -2693 0
-3038 1369 0
-1145 2589 0
-277 -895 0
4341 -4062 0
-2639 353 0
1389 -71 0
-3858 629 0
3499 -1925 0
-3146 1692 0
-153 3497 0
-3782 -3897 0
-3394 -1129 0
2316 3378 0
-3749 -564 0
706 -2205 0
-3051 215 0
1322 315 0
-737 1823 0
-1624 -549 0
-4176 -3904 0
-1216 989 0
-4058 -1994 0
3570 -3640 0
849 2016 0
2453 754 0
542 3501 0
-3940 2753 0
-1496 -3944 0
-3391 1644 0
2356 -4170 0
299 453 0
3141 -874 0
-2628 -788 0
-2379 871 0
654 1772 0
-2437 1666 0
-158 1830 0
-878 -3536 0
-286 -3453 0
-958 -1323 0
3567 2581 0
2217 -2659 0
-3337 -1532 0
-4167 -1764 0
4356 1934 0
598 519 0
3916 2155 0
2643 -4019 0
450 4279 0
-1400 -931 0
-3663 -88 0
3235 -1295 0
-2194 1807 0
-887 -1672 0
-3708 1546 0
-1057 3133 0
-759 1595 0
-2543 1888 0
2333 3696 0
-603 4216 0
2268 -3656 0
-3954 2383 0
-2996 -1659 0
-1918 -2658 0
14 2955 0
3009 3387 0
3330 -2793 0
155 -43 0
686 1286 0
-1268 -1229 0
-384 488 0
-1776 -598 0
-3837 -413 0
-4321 2609 0
2955 348 0
-3442 295 0
-4230 -3382 0
4354 -2748 0
-4232 -3232 0
-452 -3054 0
-3000 -3373 0
61 2767 0
3314 -1077 0
4340 -1543 0
-1872 1846 0
3844 -700 0
-4023 2289 0
477 -3200 0
3208 -2989 0
281 -113 0
-3080 540 0
4024 -861 0
-1272 3304 0
1944 1139 0
169 -299 0
3653 1887 0
-3920 1673 0
1118 4187 0
1117 2594 0
1199 756 0
539 2718 0
-3993 -1657 0
4015 3785 0
3756 -1433 0
-2800 -2070 0
2235 823 0
-1174 2839 0
-1089 -695 0
2511 1013 0
3892 2662 0
640 -2112 0
4071 2518 0
-2534 -2995 0
3510 3296 0
-3596 1225 0
-3402 2105 0
-845 -1383 0
-2262 -3077 0
445 -2883 0
362 3478 0
958 -3556 0
-579 -3117 0
-3044 1707 0
1331 1600 0
2750 -2230 0
3447 -3960 0
3572 -2344 0
-1422 1194 0
2135 -3789 0
713 -244 0
-3718 1321 0
-3852 -2679 0
727 -2932 0
2161 2351 0
-353 1938 0
906 -2636 0
-2444 -3139 0
-2264 1777 0
2276 -3585 0
4254 1017 0
-2146 -1051 0
-2389 -2066 0
3788 -2372 0
3330 -2117 0
930 115 0
702 -2206 0
-3763 2786 0
109 -1943 0
2274 3282 0
3006 924 0
2290 -959 0
3765 203 0
-3951 4109 0
3279 -1642 0
655 785 0
-1675 -666 0
3311 4032 0
-1934 507 0
2858 -3554 0
2704 3090 0
54 -3909 0
1528 -538 0
523 -814 0
1746 3042 0
-3223 -1190 0
282 -2552 0
1671 4032 0
3108 2156 0
3447 2883 0
-2773 4117 0
-974 1975 0
-457 2349 0
3469 -3225 0
828 4014 0
3506 -2596 0
2151 802 0
-852 2574 0
-812 717 0
-3567 1572 0
-3932 -782 0
-724 -3926 0
2570 4275 0
4237 -3845 0
-2037 2721 0
2287 -1400 0
997 163 0
2484 1694 0
2896 -2944 0
-2107 -2032 0
711 -1236 0
-1496 540 0
3374 708 0
1083 1406 0
-3580 -4084 0
1736 2016 0
1182 3093 0
-669 -2217 0
2442 659 0
3973 2756 0
-133 -1048 0
44 -4356 0
1226 -171 0
839 4088 0
598 -1404 0
-189 3536 0
826 1956 0
-2666 2625 0
2469 -3835 0
-565 1959 0
-970 1618 0
3265 1475 0
-3039 -2117 0
-3900 -2897 0
1441 -374 0
-3932 657 0
3725 1539 0
2519 1499 0
-3049 -3426 0
618 4345 0
2602 3701 0
-4252 3034 0
1945 1776 0
-2484 3001 0
-1467 3869 0
3449 -3154 0
-28 -411 0
-2386 3507 0
-3987 -3545 0
4367 -4 0
-3719 4180 0
-3260 1582 0
3318 -2610 0
783 2056 0
-4091 1529 0
4292 -3902 0
1429 3406 0
-3264 -2899 0
-1662 -1883 0
1155 -3803 0
-832 446 0
-3686 2866 0
-3874 -3238 0
-207 3776 0
-995 2793 0
633 -3679 0
1359 4173 0
-3934 -3272 0
-2859 -4017 0
2615 2821 0
-548 858 0
3279 803 0
3668 2920 0
-295 -2548 0
3837 -3113 0
-4387 1980 0
-1010 3579 0
2502 -995 0
-843 -1788 0
-3882 -2932 0
4301 -1546 0
-2800 -2999 0
-2946 3570 0
1974 2508 0
2026 697 0
784 -3937 0
2157 3446 0
-3533 3279 0
-2069 -1925 0
2203 2657 0
3064 -2136 0
-46 -1051 0
-974 -2646 0
2967 2326 0
3005 -4313 0
1278 3486 0
218 3484 0
-2173 -4018 0
-1643 -1 0
864 -2263 0
-2535 -546 0
2877 -3906 0
-2800 -1454 0
-2272 67 0
1040 3644 0
613 2214 0
3269 4332 0
4031 1741 0
-1010 -3822 0
3034 -2228 0
1203 -429 0
1515 -2375 0
1684 -2614 0
-763 -3741 0
-1515 -3386 0
1054 2324 0
-3388 574 0
-2671 2793 0
3493 -411 0
898 1124 0
2884 -789 0
1835 4169 0
2743 -778 0
2501 4233 0
-3863 -2148 0
2963 -2257 0
1972 -1133 0
109 4099 0
1039 -3736 0
108 -4252 0
-116 104 0
-2000 -2456 0
-3149 2013 0
-4155 -3390 0
2031 -272 0
151 -3855 0
-1924 2570 0
-3623 3596 0
-3125 -4086 0
1285 -307 0
-4383 -2790 0
3351 2704 0
-659 -1976 0
-1054 -1003 0
-3475 68 0
1094 3203 0
2602 -2903 0
2412 -2747 0
-3283 3575 0
-3748 -603 0
-644 -2261 0
551 -462 0
2248 3254 0
3804 3359 0
-2033 2015 0
627 3013 0
2249 -2183 0
2502 2278 0
-3975 -2677 0
342 4116 0
4087 -810 0
-4220 -400 0
-209 2840 0
-1947 2066 0
4066 -1516 0
1178 1014 0
-2839 2554 0
1305 -721 0
1765 602 0
1305 569 0
-1843 2413 0
-3276 4198 0
-3841 -3697 0
1317 -2476 0
-1797 -2496 0
3323 1916 0
-4092 873 0
65 -420 0
107 3521 0
2551 857 0
-3150 458 0
3986 -4195 0
-4004 3309 0
1893 -2038 0
3288 1762 0
1437 -3902 0
3696 895 0
-467 1225 0
3312 -3090 0
-2603 3062 0
3007 1842 0
4192 3609 0
-1555 1490 0
2235 -2156 0
-875 -3393 0
-1700 1507 0
3419 1760 0
-1952 877 0
1108 -3405 0
900 3104 0
1403 4267 0
-2795 1528 0
541 270 0
-3645 1584 0
-1955 2031 0
3046 2052 0
771 857 0
394 1097 0
-3730 3169 0
-1475 -1902 0
-2593 1712 0
-80 3716 0
3890 -3387 0
-1422 2108 0
4319 -3717 0
3873 2921 0
1554 576 0
-2117 -1074 0
-2219 -2844 0
-255 -829 0
-2996 -247 0
-4378 4228 0
-572 428 0
-689 1736 0
-1035 955 0
-1020 -1578 0
-4058 -1768 0
56 3443 0
274 -1083 0
4271 -755 0
-1267 930 0
-2201 -1863 0
348 529 0
3831 3616 0
2446 -859 0
2591 -4217 0
3665 -2283 0
2947 4054 0
-2890 1008 0
951 3574 0
-2598 2347 0
-2815 1596 0
1473 4375 0
-3610 428 0
2764 -868 0
2183 -2761 0
-2394 2056 0
-2521 -4299 0
-970 -1404 0
3871 -752 0
1668 -2459 0
414 -2364 0
2570 -4144 0
-3909 -4363 0
-2924 2376 0
1906 -52 0
-3017 -2805 0
1778 1247 0
-972 -1913 0
701 3865 0
-2257 -1285 0
-1927 -3058 0
-1074 -2165 0
-3214 -2863 0
-1592 -3828 0
-636 4319 0
3658 -4344 0
2307 -2009 0
1158 3275 0
-2673 352 0
-2903 -4286 0
-1145 1296 0
-1673 1231 0
4304 2400 0
2267 809 0
4073 -3873 0
-2158 -4166 0
-1032 -1170 0
1862 3343 0
2864 600 0
-2172 2064 0
3159 -3067 0
-908 -4011 0
1006 4343 0
-1580 2576 0
1237 2753 0
47 -3679 0
-222 -3935 0
902 2513 0
1903 -3980 0
2817 4316 0
2223 -1367 0
-4200 2256 0
-625 1665 0
-956 1700 0
2406 76 0
319 2231 0
-3565 2486 0
2875 3843 0
-3517 -2772 0
-2672 -628 0
333 -4049 0
-3476 -1915 0
1389 4375 0
-198 -2176 0
-1958 -592 0
1333 2025 0
1804 2642 0
-349 -3311 0
-1216 273 0
3401 -1099 0
4099 -2352 0
-1325 -1089 0
808 4318 0
-2216 -3339 0
-810 3879 0
-3709 -3697 0
-3218 -3139 0
-3576 451 0
-1762 4096 0
2757 933 0
792 4130 0
-2083 1488 0
-3465 -4181 0
-1303 -1283 0
-1952 3543 0
2518 2933 0
3688 2821 0
1843 382 0
736 -1824 0
1061 563 0
-3624 -3333 0
-1050 3371 0
-3942 846 0
-2718 2289 0
1488 -1122 0
-1979 -2727 0
-479 1970 0
-1640 -1312 0
3858 -606 0
912 -1983 0
3134 2770 0
4033 128 0
-1380 3992 0
-3132 -1499 0
-3535 -728 0
1321 -1365 0
-2550 -2116 0
3473 1900 0
-3341 49 0
-1617 2339 0
-2066 1697 0
-605 164 0
3964 570 0
-2808 -300 0
-2600 3102 0
-98 4108 0
730 1264 0
-3291 3849 0
1531 3487 0
-3709 3378 0
-519 -3109 0
-3795 1725 0
-3656 -1997 0
3625 -1915 0
246 2243 0
-2856 -2898 0
-2962 -114 0
-3129 -2675 0
-1988 1841 0
-4327 2213 0
2307 2928 0
3187 315 0
-3424 -1909 0
1178 1919 0
453 2992 0
2010 4193 0
-2285 -3650 0
1271 1808 0
-2077 -2076 0
2357 2353 0
-3780 -1690 0
-2496 1352 0
-2210 -1376 0
-595 2891 0
4320 -4298 0
903 -4109 0
3757 -3948 0
2896 3924 0
-4092 1654 0
4254 -3125 0
4197 -2620 0
-2671 678 0
1104 -3166 0
3848 3025 0
-2038 2696 0
3433 -4327 0
3258 -2949 0
1329 -3364 0
679 -1188 0
-1469 -3777 0
3039 1420 0
-4249 2942 0
-2624 2527 0
-4171 2484 0
3668 1855 0
2678 -1820 0
53 -4001 0
-4102 -1202 0
3652 1862 0
-2330 2315 0
-3205 633 0
3695 -1935 0
-1080 -4091 0
2411 -272 0
4269 2798 0
-2566 -1753 0
-3937 1703 0
-2311 3019 0
4295 2214 0
-3723 4307 0
21 3965 0
-3437 -1688 0
4038 347 0
1190 373 0
-1323 2303 0
807 923 0
-3193 -3807 0
-2283 225 0
-3171 855 0
1039 1846 0
-789 -3705 0
-2090 -2127 0
-3276 3594 0
-4091 4255 0
-3081 -3015 0
-1898 3271 0
-3847 -2706 0
-3549 2086 0
1114 -3517 0
-1377 2214 0
3744 765 0
-3564 1701 0
-2571 -324 0
-4152 402 0
307 228 0
2825 -3076 0
-1785 3159 0
-4070 -3958 0
454 1356 0
-2435 4072 0
2074 -1395 0
1992 -1669 0
4234 -1146 0
4058 2259 0
3220 -313 0
-432 2905 0
-4007 474 0
2793 -1774 0
3074 1657 0
-566 -2543 0
3328 1948 0
-2299 -1535 0
3005 -1131 0
-4317 -3589 0
-3139 2927 0
-2017 1235 0
-2988 -685 0
-2198 -4349 0
1999 -175 0
4052 -2855 0
-2342 -584 0
1480 4108 0
1311 -103 0
-1411 1228 0
909 -1304 0
2276 -2026 0
2650 -3480 0
2722 2309 0
1899 455 0
-4032 3296 0
2429 3805 0
-2360 1721 0
-154 551 0
677 -932 0
1432 -1864 0
-1190 2427 0
-2667 4303 0
-3399 -3684 0
-3071 3808 0
157 4352 0
3185 3510 0
801 3461 0
3454 -1771 0
-2086 -4302 0
-3542 -155 0
-404 2359 0
1531 -1185 0
3280 1991 0
633 -4138 0
1780 4049 0
-3815 -2932 0
-3260 3488 0
1028 -1881 0
-1394 1732 0
-1170 -3951 0
-1342 -458 0
-4077 -2113 0
-1268 -4378 0
-3534 -137 0
4143 355 0
-1613 -2272 0
884 2326 0
2762 387 0
-2168 -4208 0
-3778 1991 0
-804 347 0
-106 588 0
-2668 -2526 0
3840 -180 0
1450 1061 0
2725 -2885 0
531 537 0
-141 -3641 0
928 -2373 0
-2403 4269 0
-2890 268 0
1514 -3911 0
-1995 -475 0
-1516 -1303 0
-3824 -2525 0
3145 4012 0
-1943 2640 0
3910 -283 0
-1798 -440 0
1684 -303 0
3896 588 0
4118 -2190 0
4376 1252 0
-912 -3556 0
-436 -1249 0
1070 376 0
2258 -3493 0
-3002 -2741 0
-3547 381 0
1801 -42 0
-2966 -139 0
2908 206 0
1544 -3523 0
3438 3681 0
-4375 2901 0
-4013 3019 0
-625 -2310 0
-1438 -3989 0
-4124 -909 0
-44 645 0
1397 -3881 0
3996 885 0
2663 -2994 0
-2125 -3136 0
-462 -1448 0
-19 -514 0
-3979 302 0
520 -4210 0
1333 -3544 0
3818 -1589 0
2016 1306 0
-332 1948 0
-4039 1454 0
-2896 -3248 0
-2274 -4300 0
679 171 0
-93 -1288 0
-4172 4074 0
-1441 -2817 0
2321 -2109 0
-2117 3475 0
951 -3357 0
-1446 4127 0
2313 1450 0
-2953 -2056 0
-161 195 0
-1423 -2774 0
-4131 -1094 0
2796 551 0
926 -4006 0
-1931 -2203 0
1833 4368 0
-793 946 0
2676 4021 0
-1335 -3273 0
-2828 -782 0
2874 3859 0
-2603 -3524 0
2178 1559 0
-3271 -3494 0
-2139 2289 0
2716 2467 0
-1403 3441 0
-417 3883 0
4057 -3723 0
2704 3009 0
3597 -3938 0
-2019 -478 0
-2686 -1013 0
4059 -1045 0
1636 -3779 0
1802 451 0
3649 -65 0
1804 -3197 0
-941 -2672 0
185 -2676 0
2970 69 0
-6 2283 0
-1340 3146 0
3189 -3432 0
4311 -1961 0
-2103 -3901 0
-691 3891 0
-146 -574 0
-1861 -2612 0
574 -1553 0
2099 -71 0
-4278 696 0
-3930 -1096 0
614 3665 0
-187 -484 0
3795 -265 0
1004 -31 0
2731 3183 0
-3765 -542 0
2923 2808 0
154 -828 0
-599 3995 0
-840 3030 0
906 -3114 0
3298 1603 0
-751 -868 0
-605 3303 0
1368 2062 0
2834 -232 0
-3655 -78 0
-2719 3211 0
477 625 0
-2052 1779 0
-1593 -2712 0
-70 -3098 0
-748 -1633 0
4030 285 0
-2654 -3466 0
-976 -384 0
-199 -3781 0
458 2123 0
-28 -3931 0
-247 2431 0
-3935 -2912 0
1157 2573 0
757 4127 0
-1500 -3291 0
190 -3365 0
-1675 4271 0
2052 2489 0
-842 1036 0
-3106 -1034 0
-919 -88 0
-2606 -2831 0
-2750 -289 0
-1320 4368 0
-3730 4259 0
-3602 2650 0
-3961 -1801 0
-3424 2474 0
-81 -2536 0
-2048 -57 0
463 -3763 0
266 2580 0
4212 -3266 0
853 4337 0
-3845 -2063 0
2596 3711 0
-4140 -2618 0
737 350 0
4247 3177 0
251 3627 0
-4227 -3539 0
3927 -4032 0
-1174 -3696 0
3676 -3324 0
-1040 -3780 0
-4346 3010 0
3280 4005 0
3837 -3242 0
2560 200 0
-1625 -2548 0
1104 -3360 0
-3142 -3657 0
3778 1149 0
-1447 -1107 0
2594 4377 0
2812 -2071 0
-3678 -478 0
1334 1577 0
3712 -3138 0
4268 4163 0
-1050 3846 0
4154 579 0
-2232 2013 0
-3966 -3075 0
892 2306 0
2322 -2474 0
-3164 -2297 0
3909 1994 0
360 3377 0
937 -2749 0
2687 -1180 0
2426 4381 0
1554 -3351 0
-1138 3333 0
684 -1479 0
-147 1670 0
240 -540 0
673 2166 0
-3562 -3450 0
-2537 -1642 0
348 3445 0
1700 3219 0
-2057 -457 0
-3776 -3170 0
673 2076 0
-1861 2677 0
290 1573 0
3305 720 0
4331 4355 0
-2592 -3122 0
-1833 1025 0
-433 1590 0
-3483 2321 0
-1030 -1752 0
-617 -2353 0
1000 3906 0
3392 -4346 0
-3251 -2197 0
-3190 -2946 0
965 -2660 0
-2695 2011 0
-4322 -2626 0
-452 -1294 0
-2 -896 0
-1184 -3206 0
-3979 903 0
1225 -1669 0
-527 -2068 0
2657 1454 0
-4264 -2595 0
-1634 2508 0
-1627 3159 0
1242 -3530 0
2394 4280 0
4367 -780 0
2942 -122 0
-207 -2017 0
-2938 305 0
2786 -1721 0
-410 -280 0
-881 -475 0
-3738 -918 0
-3188 -3750 0
-541 -3871 0
3972 -1606 0
-4328 -2476 0
4377 3476 0
1793 -1788 0
903 -566 0
-522 2887 0
1666 2784 0
2801 -3924 0
722 89 0
3515 1006 0
285 3042 0
-2273 3522 0
-1619 -1007 0
-2956 815 0
-1718 3748 0
-3886 -4161 0
3252 -2011 0
-3368 -948 0
-2875 1257 0
2018 -2109 0
441 1923 0
-3499 -1138 0
-1636 629 0
-3845 -3979 0
-1616 -3958 0
2754 2538 0
2706 -514 0
1946 4259 0
474 -997 0
120 295 0
-1882 3530 0
1382 3109 0
-3700 -4231 0
-3080 -2584 0
-2772 128 0
25 124 0
1152 939 0
-4283 1097 0
-3534 -4284 0
1488 -2519 0
2796 -2374 0
-1379 -2881 0
3737 -1088 0
3229 2383 0
-3523 -3935 0
-214 459 0
1102 -3339 0
-3350 -640 0
4026 1454 0
4110 -3602 0
-284 -3549 0
523 -3113 0
-84 -3724 0
-3560 3189 0
3349 800 0
435 2787 0
3269 1943 0
-755 3184 0
-3779 3523 0
3662 2963 0
-1210 1683 0
-1622 -2267 0
-3662 -2880 0
-393 -2384 0
2403 -471 0
102 -1745 0
-1612 -2839 0
3708 -817 0
-1093 2960 0
-3514 -2689 0
-3263 4164 0
-948 2071 0
-404 4136 0
-3781 -2986 0
-3342 51 0
-2567 945 0
1734 -1521 0
-3750 1806 0
2728 917 0
-2081 2002 0
4271 4318 0
-3056 -2002 0
-44 269 0
1683 -393 0
250 -3980 0
-899 3970 0
-2720 904 0
1959 3155 0
3393 3463 0
-3419 3918 0
3268 -371 0
2736 2980 0
2955 -524 0
1867 -3050 0
3456 3924 0
-3590 -3124 0
297 -1216 0
-1086 2385 0
-874 2585 0
1559 -1017 0
3441 3007 0
-3082 -4062 0
3457 2765 0
-19 2623 0
-3449 -2537 0
-1575 1210 0
4145 -653 0
1097 4189 0
2618 -28 0
540 -3233 0
181 3629 0
-17 -3175 0
-3730 -2716 0
3234 -73 0
-2885 676 0
-2041 1405 0
4023 -1206 0
-4008 -2718 0
150 1049 0
-1067 598 0
3008 1226 0
-3459 4109 0
2883 2739 0
794 -3862 0
4223 -2127 0
4285 -1881 0
-3105 -839 0
1947 -2612 0
-332 -2657 0
-1672 -3290 0
419 3213 0
986 1962 0
-121 -911 0
-2014 2866 0
-1020 -866 0
3843 -2090 0
-661 2013 0
2863 -2315 0
-3315 1959 0
-457 -1077 0
2030 4381 0
-2501 -2768 0
2122 421 0
4121 -2847 0
-1545 -2083 0
788 -1552 0
885 -1035 0
2486 982 0
-3649 2054 0
-3236 2523 0
-3665 -2218 0
-2844 -3054 0
-2373 -1615 0
-3605 2377 0
1245 -1056 0
1816 -2622 0
-2842 2915 0
-1933 970 0
4192 1219 0
1941 -1071 0
750 737 0
-1555 4358 0
2208 -3641 0
-2755 -602 0
1257 2028 0
-2378 231 0
-2849 3473 0
-4083 -598 0
-1650 996 0
2028 2794 0
-3958 943 0
-2906 1413 0
-1733 -2591 0
2606 -701 0
-2943 -297 0
-979 4351 0
-2140 3007 0
-1936 -3740 0
2614 -313 0
4380 1151 0
-3150 3383 0
-1708 -3759 0
-355 2846 0
331 -17 0
-3585 -1324 0
-1151 2768 0
1040 2973 0
4292 3111 0
-1390 3951 0
714 -1368 0
519 -1555 0
2520 2468 0
3848 173 0
4328 -3867 0
1899 869 0
3192 -2959 0
3787 1237 0
-745 1644 0
-3560 2161 0
-2781 -573 0
3501 3039 0
-3153 3357 0
2181 3751 0
3659 2324 0
-865 -799 0
-2983 -2553 0
1845 -70 0
1628 4002 0
-1978 -2 0
-2407 2625 0
2783 579 0
1205 267 0
-3527 -1384 0
1721 -41 0
2592 -3188 0
1592 -4333 0
-2198 -862 0
78 -1557 0
-611 -1776 0
-3268 -799 0
1812 -3932 0
525 -2739 0
613 -3142 0
-2081 2231 0
3830 -1780 0
622 3486 0
-3769 745 0
4057 2077 0
1004 -2456 0
2410 1106 0
2884 649 0
3349 2052 0
4038 -578 0
-142 -696 0
-741 -3098 0
-2691 1699 0
-2646 -159 0
-657 -3718 0
4260 1386 0
4339 2642 0
366 -2534 0
4074 -1614 0
3577 -3130 0
2995 1779 0
-1691 -3075 0
-2870 -390 0
1155 1179 0
2130 3551 0
-121 -4211 0
2547 -1283 0
-3239 2342 0
-2255 -1785 0
-3214 2773 0
-3464 -2537 0
266 -1904 0
-1587 -3332 0
3272 -2326 0
-610 2371 0
1788 -2129 0
3099 3737 0
298 43 0
988 -1145 0
-2850 -1577 0
3747 4353 0
2730 -2029 0
-3901 1386 0
3156 1518 0
-675 952 0
-436 274 0
-397 4052 0
212 819 0
-318 2736 0
-1023 -381 0
1740 -2081 0
-3883 -3112 0
-3896 1075 0
-591 4355 0
1825 989 0
2069 4081 0
1538 556 0
-814 -3519 0
2965 2006 0
-1429 2991 0
-351 1183 0
1948 -110 0
862 -2296 0
3539 -708 0
1914 3342 0
1869 -395 0
-3731 -3297 0
-957 -910 0
436 3425 0
-1761 2152 0
-2148 4354 0
-4102 767 0
-1008 3601 0
3438 -495 0
-723 -3509 0
1001 -2610 0
-2715 477 0
-706 -2916 0
1701 -837 0
1807 4046 0
1959 -1983 0
-1159 3667 0
4288 -584 0
1666 2922 0
1581 -9 0
3308 3403 0
4286 1598 0
-634 2068 0
-960 2671 0
-2802 376 0
-407 -1077 0
3146 -3721 0
3260 -721 0
2397 -173 0
-289 -2556 0
2870 -2512 0
-4385 3489 0
4198 3129 0
-4023 -2717 0
4182 3605 0
613 4240 0
658 -1602 0
-2926 -3288 0
-2895 3407 0
-833 27 0
1592 -2251 0
-2914 -864 0
2184 357 0
150 -1023 0
2678 -73 0
-807 2364 0
3437 1729 0
-1893 -3479 0
-3015 1829 0
4216 -1126 0
1746 -557 0
-4278 3589 0
-1225 1905 0
2631 2120 0
2004 1226 0
1136 -1930 0
4380 -2205 0
-3056 -1599 0
-4130 -3729 0
-912 3829 0
-3185 -1773 0
-4294 1817 0
3489 -3297 0
506 271 0
1864 2273 0
3759 1476 0
444 -3599 0
-3188 -222 0
3451 1159 0
2607 -182 0
-4376 1701 0
2456 3800 0
2576 -4087 0
-1610 -787 0
1023 -1419 0
1066 -2701 0
79 -3603 0
118 -1734 0
-2985 2685 0
-958 3235 0
-3033 -2188 0
479 -1649 0
862 2949 0
-1445 3335 0
1638 155 0
-1742 1812 0
-996 -3812 0
-1673 2960 0
-2051 -146 0
-3594 2471 0
3074 1658 0
1600 -1547 0
1365 464 0
-278 -3531 0
3006 252 0
-4373 -769 0
2373 -1525 0
-3444 -3143 0
-1653 1901 0
-194 -3941 0
-1363 -2264 0
106 453 0
2711 3782 0
3444 3312 0
-1750 -4330 0
-530 -2223 0
1167 -261 0
4256 -3540 0
-2011 4121 0
-3039 3513 0
4345 3079 0
2262 547 0
-78 -3352 0
-1678 2910 0
1576 -2173 0
928 1410 0
2410 -3562 0
-3148 3175 0
-233 1382 0
-3154 -4069 0
859 2819 0
-1514 -2824 0
676 160 0
-999 2521 0
2664 -3770 0
2406 -28 0
-2881 -2567 0
-1442 -2261 0
-174 1796 0
1271 1777 0
1192 -626 0
-216 2136 0
445 -3246 0
3753 2879 0
-699 -798 0
357 2576 0
1243 3892 0
-2714 -1522 0
-4100 -3503 0
1784 2075 0
-522 505 0
-3745 1229 0
-141 -1005 0
-1640 1665 0
-854 3343 0
1732 3817 0
-676 214 0
-2262 3747 0
1575 -3288 0
-3205 -219 0
-3935 -1409 0
-3366 1282 0
2818 409 0
3630 2652 0
-321 -1390 0
-1610 1933 0
1614 895 0
1420 -535 0
-1618 -2 0
-3519 191 0
-3405 3387 0
-2244 -2172 0
1983 -782 0
1188 1860 0
-761 -988 0
3057 -351 0
-3541 -3640 0
461 -976 0
-3999 -3855 0
2054 3522 0
3271 3416 0
-4214 -1545 0
-449 1864 0
1043 3456 0
-4124 1105 0
3 2400 0
-2882 3406 0
-2799 3299 0
-2037 -339 0
3449 -1006 0
1861 138 0
3157 -2613 0
-3297 1619 0
-3832 735 0
-1883 1459 0
-1591 853 0
-1269 -1867 0
-2531 -2684 0
1331 4322 0
4165 1356 0
-2702 3775 0
-4295 -2989 0
-2373 2295 0
-3367 2234 0
3105 3893 0
-2721 3441 0
-2573 -3137 0
3647 -449 0
602 3801 0
-2653 -3420 0
-3326 4264 0
4321 -549 0
-295 -1072 0
3892 -625 0
-664 -2374 0
-403 -1294 0
2174 -9 0
4033 -1154 0
-3701 2055 0
-2282 4300 0
-4359 2826 0
2938 -2209 0
3015 -3621 0
3335 3343 0
58 4303 0
-875 834 0
-2067 424 0
-471 780 0
-1390 532 0
2920 -3646 0
-1460 1802 0
3100 4002 0
-3439 -634 0
2857 -2708 0
1927 1609 0
2565 -3656 0
-2225 1493 0
3665 2435 0
-3778 2862 0
2794 -2890 0
539 -3175 0
-4016 2122 0
1930 3654 0
1954 -1025 0
639 -2010 0
-3328 261 0
412 -3730 0
-1417 1027 0
4024 374 0
409 4068 0
2454 2039 0
1849 -4335 0
1141 -457 0
134 1884 0
-778 -3323 0
1331 1286 0
4316 -4194 0
3767 3651 0
1629 -3839 0
-3411 3562 0
3787 -3705 0
2235 3642 0
-1048 -2914 0
3834 4232 0
3818 -4007 0
2499 3935 0
2117 3046 0
-1264 -3199 0
-2242 -2579 0
3226 -2433 0
1347 3005 0
-1088 -3946 0
-1237 1745 0
426 1410 0
1743 -1267 0
-1915 -2341 0
-427 3573 0
-1995 -3705 0
-832 2182 0
-2567 2821 0
1993 4358 0
1544 4257 0
-3054 994 0
-3669 678 0
2483 14 0
4125 -3951 0
2235 -2923 0
3382 -3281 0
-2758 -3804 0
-974 1490 0
2986 -858 0
766 1017 0
-2801 3447 0
2674 2906 0
3002 2978 0
787 4260 0
157 -2145 0
2467 1810 0
945 2969 0
1698 37 0
-1329 -2905 0
-514 2221 0
2301 2969 0
2948 -842 0
1269 149 0
2531 3053 0
-1524 -924 0
4106 54 0
696 1645 0
-172 953 0
-2682 1158 0
-148 -747 0
-992 -96 0
103 508 0
2922 -3196 0
3405 1527 0
3783 -2507 0
820 -3028 0
3753 -3499 0
-1367 4349 0
1998 -1173 0
3273 3840 0
3549 -2140 0
3455 1964 0
3025 -3465 0
-1395 -3054 0
2263 -584 0
-1098 3829 0
3024 1102 0
2583 3878 0
-1341 -143 0
-4240 4014 0
3178 923 0
1401 -3410 0
-736 -2631 0
1311 -3269 0
-1156 2455 0
109 -3496 0
-789 629 0
-4362 -2044 0
-1917 -3505 0
-2814 1262 0
360 -4234 0
4245 -4317 0
-61 -1574 0
4136 -4241 0
2422 -3279 0
-615 -1928 0
4372 3439 0
-3780 -1028 0
-2512 992 0
350 -207 0
-3106 -108 0
3359 -2600 0
-3270 -4182 0
3914 3255 0
2290 3431 0
-3995 -270 0
2774 837 0
-341 -3851 0
-614 2467 0
4375 2907 0
4384 -877 0
2602 1946 0
1222 1405 0
263 2152 0
-1048 -1485 0
344 -2927 0
-130 -240 0
906 1776 0
-2038 1349 0
-2443 2425 0
3530 -3604 0
188 -4098 0
27 -3227 0
629 3305 0
-574 -2701 0
3694 -599 0
3124 -44 0
-1456 2039 0
707 3353 0
3528 -3373 0
563 -3481 0
-791 3420 0
-4370 -2988 0
-524 495 0
798 3635 0
4024 3871 0
399 1240 0
1913 -465 0
-353 -2940 0
-1440 421 0
570 2776 0
3034 -4220 0
3622 -489 0
774 2306 0
906 -3517 0
-2132 3089 0
-1758 949 0
4296 3772 0
-833 -2981 0
1278 1374 0
3579 -2583 0
422 -2355 0
1944 -880 0
-4071 -444 0
556 -1904 0
-2549 -3404 0
-1118 -2340 0
-3563 -2543 0
-2379 -4364 0
-811 2650 0
3757 -3376 0
392 30 0
-2055 -3395 0
-216 -491 0
-3648 -106 0
2848 -2550 0
443 1241 0
-599 2404 0
4351 4360 0
-4207 -3012 0
-3099 -1643 0
-3695 2483 0
2415 1254 0
879 -4250 0
2354 1266 0
3831 -3071 0
-321 591 0
-3823 3192 0
-3703 -1182 0
4182 -1640 0
2373 -1100 0
1220 -1586 0
797 -3814 0
3755 -2397 0
2126 672 0
4000 3452 0
-3944 -494 0
825 -4205 0
3029 -101 0
-3461 1298 0
2853 2765 0
-418 -3425 0
1591 607 0
-3784 4373 0
-3419 -3797 0
-2070 3818 0
-2399 1028 0
-2140 4209 0
3581 -2886 0
-2049 -2699 0
1123 -2674 0
1945 -3452 0
-2774 4254 0
3497 2747 0
-2604 3043 0
2412 480 0
2086 1002 0
2306 216 0
2162 3693 0
1669 -4017 0
-2430 1583 0
322 68 0
-2702 3356 0
-4028 2414 0
1344 -2468 0
2302 -911 0
3747 3368 0
750 4216 0
3857 -124 0
1254 1396 0
-1695 -57 0
2158 1136 0
1493 1853 0
118 3088 0
4001 -2994 0
-700 -4300 0
-3750 2818 0
-3609 -633 0
4195 1220 0
609 1144 0
-128 -378 0
2946 282 0
1529 -2934 0
-1292 -465 0
-33 -2575 0
3425 -4274 0
-552 -2848 0
-3804 -1400 0
-2477 4094 0
991 -2375 0
-2900 -3362 0
-239 -2563 0
2547 -2742 0
1948 1780 0
1575 1590 0
-2148 -1664 0
-3738 -2261 0
1810 -1568 0
4375 -3548 0
380 -1018 0
3007 869 0
-1265 1791 0
-915 3618 0
3805 1833 0
-4349 -4191 0
3142 -3556 0
1030 707 0
1186 -2319 0
-432 -904 0
-2076 -761 0
3892 -1063 0
-3130 4152 0
-1809 2645 0
-4230 3363 0
-2310 -3842 0
2719 3959 0
1346 -1872 0
-753 -1503 0
-2176 2566 0
241 -1526 0
-1562 4257 0
-285 2618 0
-1733 1745 0
4353 2342 0
2296 -2221 0
3274 -1627 0
2410 -316 0
1273 -1065 0
3380 2892 0
1257 4137 0
-215 1837 0
-1814 -77 0
-1609 -2931 0
1740 56 0
-3522 -1294 0
4062 -954 0
1828 -675 0
1111 -1479 0
-466 -4122 0
-2017 516 0
-1873 2819 0
-3172 -2279 0
2694 -410 0
3205 -1820 0
2660 -177 0
777 -1857 0
4216 1707 0
1774 -384 0
4100 -724 0
-952 2258 0
2688 -2833 0
2539 -3086 0
1859 -2415 0
3145 -1531 0
-1244 -2687 0
-1551 -1517 0
3832 -3555 0
-3695 1025 0
-4120 -2047 0
-721 1516 0
1371 4113 0
1603 -1732 0
-2936 798 0
-3661 -1621 0
-3070 -2324 0
-2218 -3042 0
1161 -2188 0
3217 -204 0
3536 -843 0
119 -532 0
-152 -1167 0
2992 3057 0
-1129 -2441 0
-747 467 0
-1705 -2475 0
-1454 3104 0
3762 1210 0
4310 -1297 0
2325 3380 0
-2394 -3712 0
1159 3456 0
-3918 -847 0
40 -3837 0
188 -2752 0
1477 678 0
3217 -1440 0
-1460 206 0
1040 2676 0
-3355 241 0
507 7 0
-3055 1403 0
-500 -88 0
-1839 451 0
1670 -1248 0
3142 -2629 0
-3533 3935 0
-4344 -1094 0
-1847 4316 0
1550 -1789 0
-1399 -3273 0
-2574 3204 0
898 1722 0
2767 2841 0
-2572 3203 0
-1162 -2038 0
-960 3445 0
1596 -3458 0
-261 1829 0
-3714 3664 0
1541 387 0
3848 431 0
3121 3570 0
-274 1922 0
3418 4104 0
-1514 -3521 0
-1547 -4254 0
-1572 1871 0
224 3739 0
-2297 2852 0
-3309 1774 0
1126 3476 0
-3337 2297 0
3430 -2913 0
-1913 2377 0
-1265 3757 0
-417 -3246 0
2581 -2655 0
2970 2189 0
-3531 -3992 0
-2404 3467 0
2225 -4186 0
3103 -791 0
853 -3226 0
-406 199 0
-1416 678 0
3779 2678 0
-2525 -565 0
-1664 2078 0
-1985 638 0
-387 3980 0
3488 449 0
-1936 -2085 0
665 -2174 0
1278 -1180 0
-1565 -323 0
1480 -2902 0
953 2926 0
2783 3628 0
3877 3699 0
4361 971 0
105 2484 0
-1177 -681 0
-3543 -2686 0
3585 924 0
-2201 3843 0
-80 1271 0
-1640 -3697 0
-3417 474 0
3575 -787 0
-3986 841 0
-2002 -1710 0
2328 2672 0
-2436 1986 0
-2174 389 0
-3333 -2803 0
2765 -3607 0
-612 4243 0
3971 -2230 0
-3461 -648 0
-1168 -3323 0
1813 -1056 0
-671 2760 0
-2097 713 0
367 828 0
-689 -419 0
-626 3773 0
3743 -509 0
-3562 -4050 0
548 -2660 0
4377 2852 0
1627 1864 0
-1395 -3676 0
-1612 -3883 0
1666 -2794 0
-1048 -4116 0
-2910 -2255 0
3351 -2586 0
-4182 3878 0
-4250 3365 0
237 -3165 0
-1037 1022 0
-3056 248 0
-116 -1780 0
2329 -4020 0
-2122 298 0
1874 3536 0
3664 3074 0
-3933 -2451 0
-3152 -3718 0
2423 -3065 0
2565 4139 0
1186 -3443 0
-290 1446 0
-1534 -1302 0
-3167 -2073 0
-3362 3808 0
701 2356 0
-2544 459 0
-1729 -1299 0
-3585 1270 0
1052 2380 0
-1298 3307 0
-521 -2403 0
2168 2487 0
3380 -4286 0
-416 -1918 0
-2834 -1745 0
2085 -104 0
-1787 -1998 0
2640 -480 0
426 1232 0
-859 2018 0
-193 3144 0
-664 -4234 0
-2604 -4118 0
-3692 -2038 0
1574 -1979 0
2651 537 0
-811 4383 0
-3992 -2181 0
-2386 2869 0
2273 3507 0
1661 -3499 0
242 -478 0
998 3550 0
-2582 259 0
-3223 1688 0
-519 -2300 0
3437 -2666 0
4122 649 0
3172 4104 0
1190 -3015 0
2210 -2580 0
2599 -2693 0
2573 258 0
1096 1601 0
2403 4161 0
1357 2712 0
2534 2722 0
-2898 3571 0
811 4369 0
-3351 3145 0
1765 4139 0
-3898 1932 0
-3747 2622 0
4322 -4364 0
-181 2630 0
202 2382 0
-3050 3585 0
-1607 -505 0
-1296 -2850 0
-3914 -359 0
996 389 0
2797 846 0
-2313 242 0
-2993 789 0
2292 231 0
-3821 -3122 0
-263 3359 0
-1920 -1635 0
2039 -2659 0
-2803 4303 0
2617 -2239 0
-3863 -4077 0
1073 -4142 0
-1610 3946 0
-2670 -3580 0
-1343 2625 0
342 -4205 0
1719 -4047 0
-2775 2823 0
3167 3178 0
-1556 3224 0
586 3005 0
3371 372 0
2874 -640 0
1170 4283 0
-1098 843 0
-2254 3502 0
-2049 -4358 0
-2352 -1639 0
1957 -3365 0
-284 -235 0
3177 3783 0
-606 1613 0
-2443 -3934 0
-875 1591 0
-899 1053 0
-133 -3257 0
3083 2155 0
-2081 3121 0
2176 2713 0
-3780 1941 0
-446 2413 0
-3354 -1557 0
-1937 3634 0
3022 692 0
-521 -2005 0
-1045 -3949 0
-1500 3669 0
2101 2539 0
4296 4173 0
-2460 -2733 0
2133 2826 0
-2736 -1295 0
420 3806 0
1117 -3122 0
-1103 -376 0
-3587 -688 0
-845 4204 0
858 3950 0
4156 3640 0
-3521 -85 0
3573 -4282 0
-41 -2589 0
1095 -1080 0
-877 1814 0
427 -2799 0
1040 3400 0
-1912 1616 0
1144 3405 0
-235 2157 0
104 -1962 0
3660 3073 0
-4382 2169 0
-2584 -732 0
3178 -2602 0
2732 -288 0
1563 78 0
2627 4014 0
-2462 -16 0
-1278 -1640 0
3469 -3083 0
2025 -1829 0
-3359 3329 0
-810 1603 0
2187 -2077 0
-1135 3067 0
-2667 -1268 0
2997 1836 0
-651 3208 0
3818 375 0
-4278 2501 0
-1675 3313 0
3548 -3366 0
3151 -1287 0
-2188 1878 0
-482 4372 0
1092 721 0
-3107 -3313 0
1686 -1739 0
1980 -2206 0
-2187 1163 0
1285 -1060 0
2253 1070 0
-3319 -3153 0
-87 -4208 0
3937 -2405 0
-1430 4326 0
3939 -833 0
3540 -2119 0
1222 1913 0
-3554 -1913 0
-1379 -440 0
330 -2436 0
-3993 1427 0
-2889 1228 0
-3852 3861 0
4336 -1319 0
302 -1372 0
2928 -867 0
-531 -3008 0
-3347 3435 0
-2747 1596 0
-1346 2217 0
2048 -4225 0
-2895 3539 0
1853 1043 0
4383 3349 0
3463 2757 0
-4339 -4277 0
-4258 4280 0
-1271 1976 0
-389 -386 0
-3134 -3700 0
3055 3238 0
1546 4251 0
-1738 -809 0
-2715 2086 0
3077 1493 0
3629 606 0
-1175 3224 0
2567 -2756 0
566 -3950 0
4217 -723 0
-810 1309 0
-2118 -1901 0
-2074 -3848 0
1237 -3983 0
-1532 844 0
544 3022 0
1051 -1130 0
1385 2161 0
2975 1568 0
-898 -4108 0
-2914 877 0
-32 3472 0
3234 -2769 0
502 4154 0
-2488 1835 0
-2318 174 0
3978 1772 0
1037 -4363 0
-512 4215 0
-2809 -3580 0
3513 4038 0
-4264 2499 0
972 1356 0
4217 -1699 0
3100 -1627 0
716 -1149 0
-2149 4080 0
-3328 3899 0
4240 -2476 0
-479 174 0
-2478 -3931 0
2649 -247 0
1813 2341 0
1256 -4142 0
3822 2018 0
-2714 -94 0
319 3857 0
-63 3330 0
-370 150 0
1821 4066 0
-3950 -2333 0
-3586 -4293 0
-1309 680 0
691 2921 0
2861 2289 0
487 3880 0
3713 926 0
3072 -2182 0
3626 1104 0
1864 -4291 0
-1693 -1717 0
-850 4262 0
3742 -3816 0
-296 -2019 0
-4190 1838 0
1674 684 0
3470 -3265 0
-2372 -3395 0
-2065 2913 0
-3257 555 0
3759 2683 0
3829 696 0
-2822 -3825 0
-1935 -3461 0
1854 869 0
130 -28 0
447 -2615 0
2330 60 0
4280 -1972 0
-775 -154 0
1423 -2802 0
704 -3266 0
2056 -3017 0
3997 4119 0
2081 539 0
1621 -1640 0
-2353 905 0
3020 2144 0
-3486 -689 0
1320 3259 0
4017 -1087 0
-3026 2262 0
-555 -2468 0
3794 3980 0
2492 -37 0
-572 2487 0
2772 -3505 0
-2912 -2582 0
-3399 501 0
1016 -3324 0
974 3079 0
3834 -4290 0
-50 681 0
2084 4128 0
-1435 -2375 0
-2833 -539 0
-1307 -1261 0
108 -3826 0
-1485 210 0
2166 -2971 0
322 -595 0
2580 -873 0
-198 1941 0
3925 -3728 0
3476 4271 0
-1693 3132 0
-4225 3926 0
3649 3980 0
2901 2509 0
-2273 -229 0
1444 1696 0
3957 1667 0
1810 -2255 0
-3935 887 0
-283 -1040 0
3486 -2571 0
549 -2082 0
-2545 -3725 0
1359 694 0
-3963 3447 0
-2319 2786 0
-1624 -1961 0
-341 -4007 0
657 -41 0
-819 3584 0
-253 -2552 0
616 3977 0
-2351 -1953 0
1319 3698 0
-493 -3236 0
99 -2741 0
-268 3681 0
-3404 717 0
1108 -2276 0
-63 -3352 0
4248 -161 0
2864 1575 0
-473 2376 0
3351 -4065 0
1498 544 0
-3236 3260 0
366 -4036 0
-1946 -2783 0
-2332 3185 0
-960 -3244 0
-3223 4269 0
-252 -821 0
2869 -3583 0
-3442 -936 0
2236 879 0
-2398 -1962 0
-3528 2625 0
-178 1143 0
4122 -4086 0
4142 2852 0
357 3410 0
713 -2932 0
2862 1354 0
-2460 928 0
1436 3165 0
-1883 1336 0
-3218 1105 0
2521 -4201 0
-764 -4062 0
-4287 649 0
-1119 -3257 0
-1497 3825 0
-2604 -193 0
69 2410 0
-1519 1336 0
402 3551 0
-2437 -1955 0
4230 1637 0
-1096 -429 0
1932 790 0
239 -208 0
-3893 1403 0
-1513 -36 0
-1775 2809 0
842 3945 0
4200 -3870 0
1322 -1961 0
-1997 827 0
1644 -1400 0
2854 -3746 0
-3450 172 0
-142 -3640 0
-103 545 0
3643 -3767 0
2322 1467 0
1718 1802 0
-3223 3109 0
1106 4016 0
-4163 -2424 0
1575 4287 0
-316 3186 0
-1674 2494 0
-3316 2042 0
1609 3505 0
3526 -987 0
697 -3556 0
-658 -3617 0
-432 -2021 0
-479 -3362 0
-4133 -3554 0
-2606 -3949 0
-241 2760 0
1405 -1709 0
1637 1319 0
2637 3351 0
-1640 3611 0
-3049 2262 0
-246 751 0
-3032 -1046 0
-3022 -2120 0
-1753 -2985 0
10 -597 0
-3032 1142 0
3784 228 0
-476 -4087 0
-2742 4068 0
887 857 0
-4126 -4097 0
-2411 -4004 0
3579 3238 0
-3019 3498 0
4245 -3350 0
1795 -1376 0
-1270 -1558 0
3294 -2548 0
1577 -512 0
-1752 1402 0
1284 -4206 0
3495 -2567 0
-1000 3412 0
425 1334 0
-1494 439 0
-329 1071 0
-921 1071 0
-614 -1146 0
-3931 3622 0
-813 -4087 0
3917 -3566 0
-1460 894 0
-339 -3214 0
-432 -1354 0
-3164 3033 0
-3086 523 0
4068 -4320 0
3522 -3574 0
2866 -346 0
3253 745 0
-2695 951 0
1146 1269 0
-2897 -2903 0
-2651 3371 0
-3554 2271 0
3770 2031 0
4300 -1241 0
-2846 3488 0
1964 1734 0
-1130 4118 0
787 -2874 0
3193 -1375 0
-527 994 0
-3885 1576 0
-2533 -1137 0
-3214 3937 0
-1615 -4170 0
-3920 -3697 0
1956 -1376 0
3111 -2061 0
4021 -2476 0
2379 53 0
-886 -628 0
1376 3829 0
-352 3761 0
-1819 3735 0
2993 -739 0
-3017 -544 0
-4032 -397 0
-3251 2478 0
3598 2752 0
1529 817 0
2562 -3590 0
-587 936 0
2141 3146 0
-3252 -3232 0
2896 964 0
-3617 -3938 0
3063 1637 0
3449 -1768 0
2897 2517 0
3882 80 0
-2305 -753 0
544 -1414 0
-287 2519 0
2195 -2555 0
-2332 -3182 0
820 -575 0
-723 -2780 0
3928 2712 0
446 173 0
2248 -2235 0
3891 1014 0
-3608 165 0
-2502 2164 0
-2258 3583 0
-990 3435 0
507 -3233 0
2413 -1654 0
259 -231 0
-2980 698 0
-1329 2563 0
1391 -2845 0
2304 -3940 0
-1933 -145 0
986 -3613 0
2891 3577 0
-3367 -3239 0
-268 -4209 0
173 2524 0
129 2268 0
1258 2852 0
1859 -326 0
-1985 3602 0
3626 -129 0
-2550 -3856 0
526 -3855 0
3578 1661 0
3405 -2534 0
1466 -3981 0
1203 3606 0
-2839 -2907 0
-4194 -1137 0
-1688 -1689 0
-1831 -4038 0
-2673 -2936 0
1108 4192 0
-3633 -111 0
826 1942 0
-521 -2737 0
-1627 -1636 0
148 -734 0
-1932 1454 0
1784 -1690 0
1078 -1677 0
-2021 2679 0
2180 -2833 0
-2684 -968 0
-92 1765 0
-3285 -3319 0
1155 422 0
-4176 -2363 0
-3980 -3596 0
1395 -3360 0
-3306 3295 0
190 -988 0
249 1354 0
4286 -4277 0
1799 -2033 0
-3278 -265 0
2943 946 0
3623 556 0
-1203 306 0
2762 740 0
1484 1597 0
-3609 -2885 0
-2703 -1522 0
-570 -824 0
-699 -2739 0
-3424 -3702 0
-41 -220 0
2227 1492 0
1790 -2409 0
-4028 340 0
3990 -1522 0
-915 2227 0
1266 -2320 0
-1712 -2814 0
3891 740 0
2225 -2014 0
-1706 -4041 0
1555 -1059 0
2758 605 0
2630 803 0
-2265 -1400 0
2269 3152 0
3570 1179 0
4269 -1515 0
-2295 -3694 0
-1900 3388 0
-3301 -4027 0
1912 2765 0
-458 239 0
-3673 -807 0
3754 2622 0
-1272 -3807 0
2617 -3968 0
-142 -1915 0
-1836 858 0
291 -4255 0
4022 558 0
-4096 -193 0
-2244 2958 0
-1353 1240 0
2632 618 0
1453 1289 0
4074 4126 0
-129 -766 0
-669 619 0
-711 3111 0
-2321 498 0
-3685 -1018 0
-1290 -1971 0
-2049 -258 0
-2849 3629 0
-4255 849 0
-2478 -2977 0
-1254 225 0
-534 -1289 0
1487 2711 0
-3943 1972 0
4240 -4271 0
3463 503 0
-1859 -2934 0
-3582 2144 0
950 2380 0
2012 1607 0
258 3051 0
-805 -3215 0
3342 -3867 0
-3416 -1068 0
-1330 30 0
-3112 911 0
-4061 -3116 0
2534 3035 0
-4245 1177 0
-430 1041 0
3679 -3212 0
-3850 -1508 0
-396 -3405 0
576 1766 0
1862 -4183 0
-2680 1296 0
-2542 2798 0
-3847 -431 0
727 144 0
298 3132 0
4113 -1176 0
2455 117 0
4301 -3862 0
229 -4072 0
4018 -1472 0
727 1525 0
-1723 2112 0
-111 2301 0
-167 2930 0
21 -1900 0
-2910 -975 0
1192 -345 0
1924 -3354 0
-1799 -3574 0
870 -975 0
-2968 2034 0
-2878 -4054 0
-3938 1928 0
2594 3892 0
3284 -370 0
2147 3047 0
-44 -2940 0
1231 -3386 0
132 -3206 0
-4039 -811 0
-2226 -3206 0
-2182 2998 0
-4264 3011 0
3638 -3506 0
1626 -2020 0
1651 -3722 0
-2000 997 0
-3981 1504 0
-4285 2642 0
-1027 -1689 0
1859 -3312 0
3381 3698 0
2625 -2239 0
2607 -4138 0
2871 -400 0
3632 -3912 0
-1098 3445 0
3056 3840 0
-1354 1690 0
113 -3608 0
-3185 -634 0
-491 -1799 0
1896 -3737 0
1272 -3206 0
3071 -52 0
-2380 2201 0
-113 2858 0
1836 -3562 0
17 -3102 0
-3038 -4244 0
-3531 -2451 0
1668 -3421 0
1837 3864 0
-283 -2892 0
1352 -2608 0
1820 2167 0
-1799 1934 0
-3387 2945 0
284 -937 0
1252 4192 0
-4072 1777 0
-2100 -2373 0
-2536 -1165 0
605 -3762 0
-15 4313 0
-4060 -3102 0
1961 -1021 0
-2893 372 0
1897 -1455 0
-871 -297 0
2703 2984 0
-2849 3919 0
-4192 -436 0
-1529 -32 0
3118 1981 0
-4305 3726 0
3483 -2676 0
-2684 3583 0
-414 4368 0
3640 1321 0
-1733 -847 0
2523 -3284 0
-4168 1040 0
-1974 -4131 0
3897 -1651 0
3202 2207 0
2714 -3999 0
-2550 -914 0
1220 3048 0
837 1514 0
3572 855 0
-26 3905 0
-1830 -4190 0
-1649 3612 0
780 -1735 0
4053 -1689 0
1253 1977 0
-1581 1176 0
1589 -3759 0
3738 -3728 0
2101 -3001 0
-837 2304 0
-3435 2007 0
-1481 3437 0
2387 -1502 0
2916 -4131 0
3469 -1332 0
3301 -1638 0
2980 -1589 0
-3890 3906 0
-655 -1679 0
-2557 -2999 0
1316 -4079 0
-2391 608 0
-2485 3142 0
3846 1980 0
3030 4242 0
4266 -3442 0
1468 4180 0
-568 2258 0
4306 -4356 0
4001 -3316 0
-4089 -2857 0
-4120 654 0
-2665 -35 0
3058 2263 0
-3767 981 0
-968 -1494 0
-2146 -952 0
-3748 3917 0
-2160 769 0
-1312 -4132 0
1645 -3209 0
-3604 2282 0
2538 989 0
-3564 -2369 0
-487 -1060 0
3947 -3073 0
-3481 616 0
3065 1677 0
-1643 -2545 0
3674 3491 0
-2369 1384 0
2949 -2144 0
-1682 3600 0
4012 2790 0
-2344 -2564 0
4100 1726 0
3179 1575 0
-3963 460 0
-1856 1617 0
3672 1596 0
-292 -1656 0
3256 -137 0
-913 1053 0
-585 3345 0
2167 3942 0
2576 -475 0
1238 -4241 0
-4309 373 0
-1935 1571 0
1949 -3574 0
-1250 -440 0
-526 -1497 0
1582 -1778 0
1180 903 0
765 -2823 0
-2937 -3558 0
-3364 787 0
1581 3162 0
-2817 3459 0
345 665 0
1761 726 0
-3639 -3636 0
793 -2074 0
-3186 2316 0
-1580 1386 0
3045 1774 0
-1317 1666 0
-4294 3990 0
-4216 -1640 0
-3680 -373 0
2560 -985 0
85 2171 0
-1116 -3536 0
-3812 2637 0
1104 -1604 0
-2226 4223 0
-3495 3698 0
3115 -580 0
2229 2944 0
-2730 1091 0
2357 -3889 0
-1996 438 0
3786 -1921 0
109 -3207 0
-520 -742 0
-2953 1793 0
-1113 1425 0
-1726 1893 0
-3294 -3926 0
2003 3210 0
-2132 3471 0
2208 -375 0
-1747 2018 0
2864 -3662 0
1962 -3166 0
-3995 -22 0
-1383 -1150 0
-965 -4091 0
-2676 -1085 0
2022 -910 0
-1376 -1544 0
-2223 -4241 0
389 1577 0
23 2798 0
-2457 -361 0
-2054 -2077 0
-3920 -2673 0
-3595 -1720 0
3724 4098 0
-4386 -3851 0
2703 -4358 0
2736 -3039 0
699 -3841 0
-1878 -1232 0
-4282 2576 0
-2865 -783 0
-2890 -3413 0
-79 841 0
-1167 -186 0
2826 2506 0
-2845 -4163 0
1457 -3552 0
4284 -43 0
1648 3804 0
3710 2176 0
1845 3584 0
-3367 4257 0
-352 62 0
4135 -3749 0
84 1837 0
3435 -192 0
-2612 -840 0
-1733 14 0
1950 2748 0
-3187 2709 0
-1067 -3357 0
-2903 4319 0
-1702 -1678 0
145 2441 0
-2781 -3153 0
-3693 1724 0
1839 -530 0
2805 -3270 0
1938 2371 0
3701 2268 0
-3819 -3887 0
2765 -455 0
554 2013 0
-1829 -4067 0
-3285 -3005 0
-1612 -1460 0
679 1223 0
170 -4242 0
2044 -1130 0
-2213 -565 0
-2772 -4270 0
-4328 -2373 0
-1251 -1558 0
-2755 -1717 0
3654 746 0
1195 -2206 0
-3523 -2696 0
627 748 0
-3219 424 0
-80 99 0
-1915 74 0
-947 -4322 0
-284 -3969 0
-1256 451 0
-3288 -3321 0
-3593 3884 0
-1129 1303 0
1808 2855 0
805 164 0
-2298 2227 0
-3012 -3666 0
1990 2838 0
-3643 -1578 0
-3841 2315 0
1241 3166 0
-2516 2619 0
-1545 2682 0
843 2578 0
-255 4348 0
2086 3979 0
-3566 -158 0
-318 3153 0
1919 48 0
3296 -3566 0
2301 2098 0
-574 -1615 0
702 -4371 0
-3931 338 0
-838 2330 0
-179 236 0
3555 -2586 0
-344 758 0
-4186 -1096 0
2079 -625 0
-868 -3719 0
1539 -3970 0
-3624 3992 0
-1706 -347 0
93 3225 0
-2041 3346 0
3271 -1113 0
-3092 -198 0
-3386 -3545 0
-1133 3377 0
4065 3104 0
-536 -193 0
-868 374 0
-2800 3772 0
-2564 1928 0
-2069 -3266 0
-1571 3908 0
733 3276 0
-1097 -1968 0
-893 2746 0
1802 89 0
2823 2492 0
4129 474 0
-858 596 0
472 4104 0
3812 -2985 0
4125 1300 0
4352 1869 0
-1790 2554 0
-1156 -2302 0
-3248 -2927 0
-2299 1083 0
-3818 1620 0
3958 678 0
-2221 2385 0
2785 1403 0
1488 -2293 0
-1515 3645 0
-302 303 0
391 -2095 0
-3704 -4179 0
-3660 -3863 0
583 2925 0
3234 1841 0
2664 1551 0
-2670 -2088 0
3884 3924 0
4185 -944 0
1665 1551 0
-692 2921 0
16 -527 0
-4096 374 0
657 -2252 0
-4198 -1708 0
-2313 2670 0
3602 -2487 0
1052 1351 0
2791 1939 0
79 -1343 0
-274 3908 0
-3647 -724 0
-136 3250 0
2690 -489 0
-52 -3467 0
-4071 3316 0
952 -4055 0
-3025 1535 0
1000 -1775 0
-578 3157 0
357 -2274 0
2527 -2181 0
-175 1774 0
-634 -2704 0
-2479 3797 0
4273 809 0
-2350 1573 0
-1437 1703 0
-1036 1836 0
2470 240 0
-1667 111 0
-1862 3856 0
-3385 -2752 0
-2285 -2614 0
373 -3823 0
-1904 -975 0
1922 2201 0
1879 -1939 0
1258 -1173 0
-503 4092 0
-1820 4349 0
2060 -4020 0
2904 2397 0
3775 414 0
-3680 2598 0
-287 4338 0
-2193 2464 0
3808 -1402 0
-1895 -4051 0
133 2177 0
4132 -915 0
754 3732 0
695 2827 0
1172 178 0
-3092 -3650 0
-546 1646 0
-3385 3584 0
1190 1455 0
2960 -1222 0
300 3914 0
-2406 -3939 0
402 -2562 0
3584 -1672 0
-1882 -898 0
-3152 -311 0
-1080 2980 0
2700 -2555 0
-1995 -1442 0
-3601 1449 0
3065 -522 0
740 2735 0
2656 -1985 0
-777 -1669 0
-211 -26 0
-174 -2757 0
2418 3921 0
-2404 3504 0
3080 3397 0
4046 3167 0
197 3418 0
-4353 1594 0
-2899 -1917 0
4205 2944 0
3989 -2017 0
-3968 -3873 0
-3214 -289 0
-3180 -3182 0
-1391 2657 0
997 2784 0
1873 1695 0
-2863 4003 0
-1259 -2288 0
1658 -1715 0
-2889 3190 0
-4040 -166 0
-3064 -2633 0
-1232 1955 0
-3044 2420 0
578 -1020 0
-1964 4232 0
4193 -330 0
-3228 1922 0
-1667 -1283 0
991 -3863 0
3747 3736 0
-198 -2364 0
-2945 298 0
-839 -2490 0
-2266 -975 0
-1735 463 0
917 186 0
-3379 3200 0
-2131 3061 0
465 2184 0
3796 624 0
2499 257 0
130 -1632 0
-244 4224 0
2578 -640 0
-4039 1728 0
1387 -3655 0
-644 3371 0
95 -1612 0
-3344 -1096 0
1702 3453 0
-1050 -16 0
-4106 4107 0
-359 -4156 0
-3646 1748 0
2942 377 0
3585 -299 0
-2163 -710 0
-2114 2765 0
-4225 -807 0
-2966 3733 0
4200 -1035 0
481 1748 0
3207 -1415 0
-2309 2114 0
3862 3672 0
724 -95 0
3783 -3435 0
4052 3067 0
-1771 1446 0
799 2152 0
-3150 3180 0
-3360 3436 0
-2047 3830 0
-1555 -4140 0
-1436 2168 0
2292 3564 0
-1911 -1719 0
3061 -449 0
1161 1507 0
-2863 -4153 0
-1718 -3609 0
2650 3163 0
-1737 1401 0
3616 -3540 0
2469 -1992 0
2317 -3650 0
677 3186 0
3756 333 0
-63 -2136 0
-435 2777 0
-1947 136 0
641 -2352 0
3673 79 0
1200 -3783 0
271 3076 0
1727 2229 0
-3353 4066 0
531 -3789 0
-1396 830 0
-432 1783 0
383 -1762 0
2473 -1643 0
3079 -1542 0
3057 -1998 0
-2402 2944 0
-3661 1229 0
-2869 -652 0
-1508 1732 0
3924 3710 0
-4176 -194 0
3456 -4205 0
1341 -2958 0
-3630 -1162 0
-2566 -971 0
-262 -1871 0
-1343 3651 0
-3189 -1986 0
-572 3398 0
2517 2402 0
-1672 -3837 0
-844 4077 0
-2215 -1558 0
-2772 -2461 0
1845 1764 0
-737 -1675 0
-1633 3264 0
2969 -2197 0
-3732 254 0
-1650 -963 0
-3780 7 0
-1642 3557 0
-3193 257 0
-133 -141 0
1157 3269 0
-652 762 0
2047 4150 0
2436 3674 0
4255 822 0
4323 492 0
1078 -3686 0
872 2762 0
1139 2263 0
3087 839 0
1057 -247 0
-3828 3437 0
-2029 -2102 0
2992 1299 0
562 79 0
-3795 1178 0
4260 1219 0
671 607 0
-3576 -1703 0
2978 -3612 0
1869 -1046 0
-2665 -3670 0
-926 1334 0
-2978 1254 0
4051 2807 0
3626 2374 0
-3822 -1862 0
1743 -3273 0
-3599 3330 0
-2716 -3603 0
-3622 4173 0
-5 -389 0
4038 2565 0
-156 1871 0
2241 990 0
-2784 483 0
-3791 3499 0
-2613 801 0
291 2239 0
-47 -27 0
3635 4386 0
3430 -2927 0
-2135 -1691 0
-1380 3610 0
-3117 2594 0
-64 93 0
-2776 4092 0
-2804 160 0
1081 -2240 0
1908 -2601 0
754 -3092 0
1764 -2844 0
-619 2781 0
-3888 1209 0
-2839 4311 0
789 -573 0
3515 1941 0
-1622 -1775 0
-1838 -1809 0
-3463 -2361 0
-1008 -4000 0
-3251 -268 0
1860 1356 0
-2739 -533 0
-1689 -2680 0
3718 -3781 0
-616 -1915 0
207 -971 0
-785 2304 0
69 -3373 0
-971 3246 0
-3948 157 0
-2491 1187 0
-1421 -2643 0
1211 -2173 0
-900 -2038 0
-3582 1178 0
-186 685 0
-2070 4137 0
1105 -1061 0
-3133 -2045 0
2338 -23 0
-4056 -936 0
-397 -3571 0
2446 1999 0
4164 909 0
3392 -2083 0
782 548 0
2650 -2943 0
3131 -3596 0
-3982 2397 0
-3161 1334 0
-902 1351 0
-3502 2938 0
-3477 -1284 0
2317 1944 0
-416 -1940 0
-286 1480 0
1845 -2343 0
-3799 4381 0
-517 -1335 0
-4042 -3720 0
3468 2032 0
3980 1016 0
4029 79 0
250 1283 0
3236 -4299 0
1949 -636 0
839 -2639 0
-3507 2063 0
3652 4331 0
-4078 3125 0
1774 -475 0
-1072 -362 0
913 2034 0
3999 1217 0
2347 -1556 0
1061 -3990 0
-810 -2398 0
3132 2554 0
2517 -3312 0
8 241 0
2113 2267 0
-1439 3154 0
-2313 -3486 0
-2549 35 0
4008 -979 0
1991 -2568 0
3702 716 0
678 -2507 0
-1188 3542 0
-2907 -2543 0
1912 -1663 0
-2001 -3957 0
3071 1070 0
-1083 2831 0
3603 1203 0
-341 135 0
2455 -913 0
-3447 375 0
-4033 2335 0
1968 -3926 0
-1519 1445 0
4232 62 0
2636 -3002 0
1320 2385 0
2336 4368 0
-553 643 0
-2902 172 0
1184 -4320 0
1880 -3839 0
478 -2682 0
-619 1327 0
375 3445 0
1477 -525 0
-341 -3749 0
-307 663 0
-1550 -2196 0
-2221 -4163 0
-1156 3007 0
-2599 -611 0
-2103 -192 0
-3115 -3556 0
-3673 169 0
-1429 -1397 0
849 -133 0
2414 -3920 0
-1963 1339 0
-2433 2223 0
373 -1350 0
802 1153 0
3526 -1858 0
183 -4068 0
727 122 0
3037 3925 0
-3195 -923 0
-516 1062 0
649 -4068 0
-308 1576 0
-3586 -1523 0
-2505 2792 0
-727 -2894 0
169 2299 0
-1261 3331 0
-91 -3114 0
-2843 -2894 0
-444 -1372 0
-1395 -1472 0
-4033 3921 0
1252 -2749 0
842 645 0
2551 4288 0
3765 199 0
-3754 -3306 0
-3210 3289 0
4150 -969 0
-2909 -3085 0
3227 -1851 0
-193 1648 0
-221 -65 0
92 3552 0
3968 -3995 0
-2031 -284 0
197 -2485 0
1935 4056 0
8 -3034 0
2840 -4017 0
-127 1887 0
2192 -1508 0
-4185 -3477 0
-1758 2504 0
842 -167 0
633 -4030 0
-501 -2685 0
391 2664 0
-4304 3075 0
66 169 0
-3950 3418 0
-3641 3936 0
-1699 1637 0
-4195 4350 0
1895 2731 0
2356 3351 0
173 3277 0
-3569 -2964 0
-265 -3051 0
-897 1621 0
1084 -2109 0
1644 -874 0
-3214 -1496 0
