c bounds 67 67
p cnf 550 1815
512 532 0
-227 203 0
389 227 0
463 472 0
-258 423 0
422 -81 0
231 488 0
-188 -296 0
-427 -480 0
547 386 0
-79 -492 0
-271 -308 0
-344 -372 0
188 -418 0
-345 -122 0
-177 -234 0
-250 48 0
24 468 0
382 248 0
418 -531 0
-33 254 0
-334 476 0
331 421 0
83 302 0
190 410 0
-269 525 0
98 -344 0
501 372 0
40 -14 0
-41 -344 0
-117 -184 0
521 -247 0
-480 254 0
-344 -73 0
243 -120 0
528 -509 0
-328 -131 0
-57 -286 0
479 61 0
-55 -514 0
281 -47 0
104 -16 0
-335 535 0
358 -502 0
251 458 0
151 -513 0
305 396 0
54 -409 0
-152 -385 0
-387 -359 0
54 379 0
523 -362 0
-307 435 0
335 -27 0
-211 48 0
-495 -422 0
478 522 0
-136 -47 0
83 -124 0
-291 537 0
82 82 0
95 164 0
-127 -384 0
530 -315 0
274 -112 0
88 211 0
-385 -81 0
304 -457 0
-60 -304 0
-147 -420 0
-33 227 0
130 -125 0
-411 160 0
-531 -258 0
-440 450 0
401 -371 0
-467 397 0
26 -261 0
-234 -151 0
339 -224 0
-167 149 0
546 -167 0
43 372 0
-426 -503 0
-295 -191 0
92 -66 0
-262 134 0
159 87 0
-451 227 0
-139 222 0
178 -373 0
-226 454 0
-363 381 0
-234 232 0
-493 156 0
125 140 0
507 69 0
-282 -425 0
-206 225 0
-299 -300 0
-104 401 0
187 -48 0
158 74 0
302 402 0
402 -236 0
82 -216 0
-496 60 0
-26 314 0
320 -521 0
-540 -363 0
-302 -514 0
-244 408 0
-126 199 0
-231 351 0
-169 407 0
425 -75 0
-278 -512 0
163 17 0
43 -408 0
219 431 0
-75 304 0
19 -545 0
-386 406 0
-413 102 0
-216 -53 0
-459 -478 0
-261 59 0
-509 -201 0
206 214 0
298 82 0
340 107 0
445 -280 0
-541 150 0
-211 352 0
422 -541 0
527 132 0
168 300 0
194 370 0
98 -306 0
324 297 0
195 472 0
152 -343 0
-75 535 0
39 338 0
515 381 0
-52 -375 0
-521 187 0
97 433 0
405 -191 0
-494 -438 0
-186 117 0
-135 -283 0
-440 388 0
-227 -201 0
-16 465 0
-208 -491 0
-113 515 0
155 73 0
55 -543 0
264 -59 0
384 378 0
98 -550 0
410 359 0
-498 -282 0
-99 90 0
98 -193 0
-529 -113 0
27 87 0
361 -342 0
-363 -281 0
-235 64 0
512 -215 0
259 178 0
-349 167 0
-106 -525 0
526 8 0
-178 1 0
200 -245 0
108 -340 0
-79 -297 0
399 200 0
88 379 0
25 -326 0
258 146 0
-98 384 0
-97 76 0
-498 282 0
395 -66 0
-28 -215 0
-9 -391 0
58 220 0
402 -550 0
-427 -258 0
-233 227 0
472 -149 0
276 -189 0
456 -6 0
480 339 0
300 -145 0
63 3 0
418 -95 0
52 165 0
475 37 0
-420 529 0
-307 -300 0
-16 -53 0
-288 -147 0
415 -321 0
-385 -381 0
494 -138 0
-152 -319 0
-86 -308 0
440 -109 0
-474 89 0
-405 323 0
345 300 0
271 488 0
8 314 0
-144 -191 0
-390 -201 0
345 -234 0
-216 517 0
-118 -290 0
-120 -413 0
74 -87 0
-417 140 0
-160 -333 0
537 418 0
-53 397 0
466 -196 0
-264 378 0
491 -434 0
143 501 0
-363 353 0
-540 -145 0
-501 -197 0
535 289 0
160 398 0
60 -472 0
249 -16 0
229 413 0
499 -314 0
41 -216 0
-441 -16 0
-39 -75 0
-67 -251 0
128 488 0
2 -142 0
491 265 0
469 -162 0
-320 -242 0
209 -37 0
-434 178 0
-235 -438 0
303 408 0
-535 -545 0
420 117 0
-366 -496 0
-176 166 0
185 192 0
456 -538 0
-156 125 0
1 -436 0
328 -18 0
-201 -26 0
291 318 0
434 -304 0
536 -132 0
-38 -121 0
382 -542 0
-450 178 0
-252 -226 0
-335 463 0
135 186 0
-173 484 0
95 48 0
-465 -104 0
252 -181 0
-385 283 0
-434 -75 0
-308 -141 0
259 -228 0
531 463 0
-550 437 0
-426 -319 0
-330 447 0
139 470 0
470 184 0
-503 -337 0
-351 -86 0
1 379 0
295 442 0
517 -502 0
-53 376 0
453 -420 0
163 72 0
-438 -62 0
41 -518 0
-476 281 0
-463 -443 0
285 55 0
-350 63 0
-217 -436 0
89 539 0
522 166 0
143 -501 0
479 414 0
-13 12 0
-409 -285 0
-85 -342 0
-114 114 0
-98 310 0
-464 -367 0
279 118 0
119 -198 0
-406 -374 0
352 306 0
-465 443 0
-329 447 0
163 74 0
-85 297 0
142 108 0
511 167 0
-312 265 0
402 -460 0
370 -99 0
-182 -147 0
-53 78 0
374 -15 0
140 422 0
-498 -286 0
59 221 0
-289 106 0
209 511 0
-497 -110 0
-301 -207 0
-15 501 0
-79 166 0
-429 272 0
259 -225 0
-477 111 0
-360 -201 0
-497 49 0
-436 369 0
-30 -106 0
149 143 0
-29 214 0
-509 232 0
-224 270 0
384 -348 0
-333 -34 0
-51 -222 0
-469 -86 0
-493 63 0
-531 -469 0
147 -528 0
-518 398 0
-390 -403 0
299 473 0
-207 -307 0
353 404 0
289 486 0
-335 455 0
-396 -496 0
322 410 0
232 -478 0
-225 31 0
407 302 0
-225 478 0
-214 369 0
-516 60 0
-134 -549 0
220 -32 0
-211 -536 0
118 476 0
-27 -282 0
-395 94 0
-166 -359 0
388 -25 0
401 -148 0
200 -54 0
-191 -290 0
-385 -223 0
302 -11 0
402 426 0
373 89 0
-283 106 0
154 -465 0
-171 -12 0
311 318 0
142 -286 0
266 528 0
-135 398 0
432 355 0
486 93 0
508 266 0
79 -435 0
-320 59 0
130 -30 0
-59 -267 0
-477 -389 0
495 -459 0
-329 405 0
-247 -152 0
358 -197 0
379 204 0
27 -421 0
-132 377 0
275 488 0
350 413 0
-511 284 0
306 539 0
-467 515 0
54 78 0
-158 311 0
-530 -16 0
-365 479 0
-220 105 0
411 -321 0
-381 257 0
-231 402 0
227 46 0
413 -444 0
369 -450 0
133 -316 0
215 -110 0
111 193 0
-387 92 0
-150 -519 0
357 -37 0
173 -54 0
-334 510 0
-24 358 0
-429 -174 0
215 -110 0
-268 471 0
510 -349 0
104 265 0
-537 132 0
130 186 0
328 87 0
-531 59 0
-4 500 0
-419 -482 0
-114 281 0
-367 -498 0
-530 -363 0
-356 345 0
-477 -471 0
-416 349 0
148 -465 0
-489 162 0
21 -105 0
-344 -425 0
176 -193 0
-459 -543 0
389 -234 0
505 -434 0
-189 -65 0
-330 -154 0
463 341 0
429 -461 0
-397 68 0
390 87 0
-536 -301 0
500 213 0
-495 12 0
429 69 0
-241 115 0
-154 408 0
-444 524 0
458 -85 0
273 522 0
-72 -41 0
-363 -276 0
369 -193 0
500 227 0
-2 -30 0
-386 511 0
-328 -127 0
-200 -270 0
295 -80 0
-407 -364 0
236 -548 0
352 392 0
-499 -491 0
-263 -387 0
433 -286 0
4 455 0
-409 152 0
32 368 0
-267 -14 0
180 -84 0
160 -456 0
-331 176 0
369 328 0
348 188 0
-380 26 0
399 378 0
-154 178 0
-42 -92 0
-31 -220 0
-124 -364 0
-479 282 0
-127 -545 0
382 331 0
530 198 0
-269 -163 0
-318 -81 0
128 -33 0
376 -270 0
295 394 0
348 199 0
214 277 0
-21 -338 0
292 -156 0
-118 -239 0
-279 -255 0
-12 429 0
-448 -68 0
233 12 0
422 -54 0
524 539 0
-338 325 0
479 377 0
-359 -453 0
272 -544 0
-429 -358 0
123 -428 0
222 -550 0
251 -136 0
-249 -22 0
88 199 0
387 -201 0
2 -459 0
-131 506 0
217 14 0
249 472 0
380 -239 0
487 -135 0
-368 32 0
202 -400 0
-219 -425 0
541 -31 0
-422 -223 0
505 432 0
423 -246 0
149 -113 0
526 -362 0
217 -133 0
123 138 0
46 440 0
512 46 0
166 -547 0
-531 -197 0
-394 325 0
-477 142 0
-284 70 0
330 115 0
44 -23 0
-221 251 0
265 -35 0
202 305 0
474 397 0
-92 63 0
-142 426 0
-333 354 0
-362 -534 0
549 -84 0
-304 -271 0
122 504 0
336 -66 0
417 220 0
91 151 0
168 417 0
203 209 0
456 -96 0
163 441 0
513 -285 0
217 -477 0
8 256 0
-247 407 0
58 533 0
543 78 0
177 167 0
-62 -342 0
-166 352 0
-416 213 0
-161 30 0
-363 279 0
-112 -261 0
-167 533 0
-335 74 0
-316 371 0
-15 218 0
18 306 0
407 257 0
-114 -109 0
-380 -141 0
-344 -47 0
-3 501 0
170 -304 0
127 153 0
487 8 0
20 -502 0
-513 -428 0
159 -105 0
426 305 0
8 534 0
-341 175 0
236 166 0
64 287 0
-261 -40 0
149 297 0
-78 149 0
-405 116 0
-329 263 0
28 220 0
-226 -370 0
289 -462 0
504 365 0
-121 -281 0
163 151 0
529 -319 0
-33 203 0
-282 476 0
-170 500 0
-144 -303 0
-460 -38 0
-11 -286 0
-446 193 0
50 200 0
-440 433 0
227 74 0
52 391 0
-280 -507 0
-134 -184 0
-194 -110 0
105 -417 0
-142 140 0
-39 105 0
-147 -62 0
397 294 0
8 -15 0
-57 -85 0
352 -344 0
243 232 0
-519 -546 0
139 537 0
-147 289 0
-90 -364 0
338 -184 0
242 -212 0
-161 -473 0
174 -148 0
93 -221 0
-316 478 0
80 70 0
517 -461 0
-307 63 0
-67 456 0
57 464 0
-14 -300 0
289 77 0
-301 454 0
-89 -162 0
415 22 0
143 550 0
303 -503 0
159 408 0
-342 -478 0
472 5 0
-17 -134 0
-409 360 0
500 -536 0
126 511 0
-393 111 0
242 -322 0
-298 404 0
200 335 0
498 -387 0
412 494 0
463 -465 0
273 -524 0
73 -364 0
-161 -373 0
107 -116 0
-256 242 0
-99 150 0
-181 -216 0
56 538 0
248 -54 0
490 87 0
288 163 0
56 -16 0
282 550 0
130 -206 0
-514 157 0
-66 -177 0
-495 289 0
-36 68 0
-441 -150 0
172 46 0
76 488 0
217 490 0
-409 -112 0
370 -38 0
308 -280 0
-97 -393 0
265 347 0
164 186 0
452 390 0
-508 -508 0
28 142 0
273 -384 0
74 368 0
340 81 0
-344 -241 0
-405 -128 0
452 -485 0
209 101 0
-528 -90 0
-5 491 0
111 517 0
178 161 0
-161 -414 0
169 407 0
-356 -512 0
-91 87 0
209 -483 0
518 -309 0
-212 264 0
-334 -173 0
344 -349 0
537 -243 0
284 -462 0
-191 124 0
-188 -144 0
2 88 0
-212 464 0
387 -224 0
-509 -443 0
266 522 0
-280 -191 0
-222 -141 0
-225 -294 0
88 8 0
40 485 0
-290 -445 0
354 -443 0
-548 -511 0
-545 266 0
204 -523 0
549 -277 0
-38 372 0
288 -489 0
-351 530 0
413 50 0
213 41 0
-542 -528 0
5 -344 0
407 -252 0
314 432 0
368 356 0
208 409 0
397 489 0
-244 -513 0
371 28 0
-318 -209 0
14 -327 0
309 486 0
345 -469 0
-523 -14 0
117 162 0
-359 101 0
418 122 0
455 -144 0
314 -376 0
366 -153 0
183 422 0
-493 173 0
4 -316 0
-492 -376 0
-436 197 0
500 126 0
311 155 0
-528 289 0
-403 -274 0
142 -390 0
-481 306 0
505 223 0
-223 -69 0
276 194 0
535 208 0
83 87 0
-392 -262 0
-479 94 0
432 458 0
-245 62 0
-309 353 0
549 -54 0
-433 55 0
-88 310 0
-316 -521 0
547 230 0
428 -528 0
-534 55 0
-403 -169 0
282 -152 0
19 -62 0
-424 -401 0
-191 468 0
183 -349 0
213 299 0
398 -336 0
-15 56 0
-94 199 0
284 164 0
-219 166 0
1 -372 0
150 -324 0
260 284 0
-339 -313 0
458 -503 0
305 -177 0
465 251 0
-236 -386 0
195 135 0
-130 39 0
271 94 0
-98 76 0
199 -546 0
-219 -189 0
-67 -248 0
-477 162 0
279 476 0
246 287 0
451 98 0
-297 98 0
402 189 0
-242 200 0
115 -12 0
-192 39 0
404 -451 0
69 -430 0
-166 -30 0
10 254 0
310 254 0
145 515 0
-27 352 0
-77 -31 0
74 265 0
90 395 0
466 36 0
-237 432 0
-12 94 0
-201 273 0
-495 380 0
476 -12 0
106 -422 0
148 431 0
34 -391 0
332 -463 0
137 331 0
52 -453 0
-257 -198 0
-303 -523 0
198 252 0
203 530 0
-16 -139 0
412 -518 0
102 220 0
404 272 0
185 -210 0
-16 -180 0
193 242 0
156 -529 0
-370 -306 0
-285 140 0
413 405 0
-265 -228 0
354 252 0
-264 537 0
-286 413 0
440 -57 0
-298 22 0
-157 65 0
506 456 0
-533 270 0
-293 -70 0
-361 -393 0
95 -544 0
458 236 0
-392 -547 0
460 233 0
19 -410 0
-426 -38 0
-448 432 0
407 11 0
476 522 0
-28 450 0
-41 -324 0
-455 -475 0
145 -496 0
254 11 0
-301 542 0
-9 105 0
397 403 0
102 -238 0
-208 537 0
-100 -79 0
287 108 0
-64 -47 0
307 -85 0
324 24 0
-335 -465 0
-344 156 0
62 149 0
28 369 0
357 455 0
252 -70 0
522 -343 0
395 118 0
431 435 0
133 -132 0
-497 61 0
154 49 0
-335 89 0
-121 505 0
213 129 0
-22 472 0
530 88 0
-518 332 0
187 -361 0
63 -395 0
-3 -326 0
422 27 0
361 -489 0
-133 282 0
-250 -214 0
-34 265 0
415 398 0
512 -469 0
69 213 0
-237 36 0
-455 506 0
-141 285 0
432 43 0
498 -416 0
-258 -468 0
-321 332 0
-532 -226 0
110 -498 0
471 331 0
-339 -491 0
-474 324 0
-115 426 0
-319 292 0
-144 -304 0
447 157 0
-206 -151 0
3 95 0
-21 178 0
-403 -318 0
407 364 0
-304 -290 0
-528 -516 0
-381 42 0
102 -206 0
146 -122 0
-541 -519 0
-318 322 0
128 166 0
-480 -25 0
-343 129 0
373 -19 0
451 93 0
95 -170 0
-294 124 0
-45 -348 0
-2 -174 0
-365 471 0
-228 408 0
521 95 0
-443 -135 0
43 -335 0
-428 -392 0
486 -461 0
84 299 0
251 397 0
373 -34 0
-509 480 0
69 -175 0
-211 -11 0
-327 -472 0
-240 -181 0
-55 314 0
-386 -14 0
-144 170 0
-148 -350 0
63 158 0
-342 185 0
-322 -211 0
257 -269 0
124 -212 0
-438 -86 0
-100 179 0
-35 -165 0
88 154 0
-127 203 0
265 183 0
-409 -232 0
124 -284 0
155 150 0
250 -550 0
-187 470 0
107 -110 0
312 -129 0
185 -439 0
194 -392 0
368 257 0
311 -264 0
-128 -205 0
61 101 0
348 171 0
-35 -361 0
158 -34 0
185 -258 0
-503 -95 0
282 419 0
-207 99 0
-38 404 0
-512 -537 0
-14 -290 0
485 -543 0
-353 220 0
-285 63 0
252 -354 0
-119 -96 0
-543 324 0
118 -507 0
373 550 0
-120 -216 0
-521 71 0
470 539 0
176 344 0
67 -180 0
-467 536 0
-359 311 0
-10 499 0
-317 -87 0
183 -409 0
-482 -437 0
-440 -245 0
373 -18 0
509 -448 0
425 -518 0
396 408 0
542 345 0
273 92 0
124 227 0
-492 537 0
362 190 0
-514 345 0
-23 57 0
-472 125 0
-412 373 0
544 408 0
-110 -84 0
-225 -118 0
451 -42 0
-110 -386 0
-290 465 0
182 479 0
265 526 0
420 -489 0
-342 287 0
339 -121 0
521 -448 0
340 -277 0
450 -117 0
-120 -487 0
187 -148 0
507 -227 0
-482 -206 0
504 -511 0
-248 -126 0
159 10 0
43 341 0
-508 298 0
-149 164 0
-238 -210 0
-392 54 0
-473 -175 0
-361 -409 0
289 -433 0
-375 474 0
-466 142 0
151 174 0
-47 -505 0
97 -480 0
193 -72 0
-256 -544 0
-38 176 0
448 -453 0
-301 -78 0
-495 429 0
470 -435 0
-16 -485 0
310 -316 0
422 -219 0
262 179 0
221 90 0
-155 3 0
-428 -475 0
88 -425 0
-343 -224 0
-179 177 0
-198 118 0
283 -184 0
406 496 0
254 -325 0
-420 -376 0
-297 480 0
507 -88 0
-471 500 0
486 -242 0
-361 -376 0
295 -488 0
292 -215 0
481 -451 0
-100 88 0
-228 454 0
549 144 0
-484 39 0
-300 -161 0
-313 312 0
159 209 0
-341 2 0
140 -150 0
-473 -416 0
119 504 0
412 -157 0
450 -369 0
-329 501 0
339 499 0
151 106 0
-249 -337 0
-253 -144 0
-483 -272 0
-480 -276 0
19 -500 0
-489 161 0
470 -130 0
-101 -392 0
-52 546 0
-451 106 0
-109 -385 0
257 85 0
77 -365 0
514 357 0
-531 -47 0
-465 401 0
-386 -127 0
-33 314 0
-245 541 0
260 130 0
-259 -342 0
-524 357 0
203 341 0
-433 265 0
388 202 0
-243 -211 0
234 -344 0
88 187 0
450 546 0
17 200 0
232 420 0
407 410 0
242 -449 0
-11 -217 0
-232 266 0
192 -246 0
98 413 0
484 200 0
-111 360 0
270 68 0
173 -323 0
-445 193 0
-449 484 0
230 17 0
234 -453 0
-387 140 0
-23 466 0
204 -11 0
-238 -491 0
-223 535 0
-421 -159 0
270 192 0
411 78 0
-305 -181 0
287 118 0
-309 506 0
463 205 0
1 -41 0
329 -171 0
93 537 0
-198 256 0
-126 341 0
-19 157 0
-444 371 0
-150 95 0
505 -493 0
-135 203 0
-477 -24 0
21 -118 0
179 -55 0
-255 -314 0
277 -486 0
-409 -523 0
-550 132 0
524 -322 0
-416 455 0
508 -307 0
-362 55 0
46 457 0
547 504 0
165 -198 0
432 -98 0
-493 -280 0
-211 163 0
-185 105 0
376 -239 0
-25 -222 0
373 49 0
157 148 0
350 -283 0
-388 249 0
142 -38 0
158 -523 0
-192 -268 0
382 401 0
413 418 0
-294 115 0
403 -385 0
-223 -207 0
-190 164 0
232 -548 0
203 -206 0
-370 -514 0
511 -545 0
-392 -311 0
546 380 0
-61 368 0
-441 513 0
468 195 0
-191 184 0
162 295 0
-536 -285 0
-9 -71 0
-247 532 0
538 535 0
115 384 0
-332 -385 0
542 395 0
-187 107 0
203 -343 0
-330 -406 0
-424 281 0
466 229 0
526 254 0
351 236 0
347 -247 0
-480 -399 0
10 -380 0
252 188 0
-159 253 0
215 -419 0
104 169 0
213 -438 0
-315 -317 0
-409 505 0
23 -361 0
305 356 0
374 -261 0
-5 -462 0
-322 -540 0
254 351 0
-425 -207 0
-67 308 0
-347 -181 0
95 411 0
-136 355 0
-359 136 0
-501 292 0
-508 -33 0
190 347 0
-418 408 0
-333 -338 0
371 -134 0
-34 -497 0
363 -381 0
-173 368 0
504 -427 0
476 245 0
69 -471 0
-179 -301 0
-460 -537 0
148 452 0
379 237 0
64 -477 0
110 312 0
143 -119 0
-171 -186 0
-237 -506 0
203 102 0
162 -29 0
-420 484 0
208 105 0
-224 -367 0
-225 -70 0
-340 -250 0
-198 -413 0
413 241 0
-244 -40 0
-372 15 0
490 -169 0
18 -550 0
159 -390 0
155 -535 0
470 16 0
243 -174 0
511 496 0
-368 499 0
327 43 0
-372 -126 0
414 -420 0
-498 -361 0
169 488 0
530 -221 0
-171 346 0
-338 153 0
-112 426 0
-57 -56 0
-198 405 0
324 218 0
50 -498 0
498 -459 0
522 184 0
242 61 0
376 65 0
285 -326 0
-231 176 0
182 -12 0
-360 539 0
484 -476 0
-320 395 0
-103 40 0
504 -334 0
8 505 0
-135 -308 0
280 -383 0
325 282 0
-458 -294 0
296 463 0
201 377 0
-78 232 0
-315 233 0
313 325 0
-496 59 0
-443 -98 0
-111 -390 0
123 58 0
164 295 0
492 76 0
89 -298 0
-481 282 0
412 -537 0
395 366 0
-521 -477 0
193 106 0
-12 -71 0
-390 -502 0
5 499 0
-412 -344 0
168 -38 0
351 105 0
281 -103 0
50 -298 0
351 -122 0
-382 37 0
-99 -39 0
291 240 0
-55 -81 0
142 166 0
236 -277 0
-177 446 0
541 -482 0
402 236 0
-288 411 0
-6 486 0
-395 7 0
-395 233 0
241 250 0
-498 -287 0
-86 -336 0
537 -106 0
28 72 0
-141 -425 0
-281 168 0
-309 -69 0
-226 -77 0
484 464 0
-276 507 0
117 147 0
-529 -139 0
63 482 0
80 384 0
548 537 0
-138 312 0
-196 299 0
-75 -478 0
6 479 0
232 -134 0
-293 -520 0
-71 289 0
-35 431 0
-529 15 0
-533 485 0
-17 -147 0
357 -58 0
-531 -27 0
80 218 0
-471 39 0
332 343 0
-462 -209 0
-33 268 0
-162 -294 0
159 353 0
500 -34 0
-50 547 0
540 182 0
190 -175 0
-47 -430 0
113 -77 0
-57 -162 0
-359 -483 0
359 -79 0
-267 -18 0
138 327 0
190 -228 0
-543 547 0
-541 31 0
373 -355 0
311 64 0
396 -354 0
-512 395 0
-240 -231 0
-141 541 0
164 44 0
157 -403 0
500 -29 0
280 -261 0
229 -247 0
-56 -322 0
-335 -24 0
162 -344 0
-458 85 0
-333 506 0
-275 -215 0
-207 19 0
423 108 0
-512 282 0
8 33 0
187 -416 0
-225 -478 0
465 -518 0
444 376 0
-295 230 0
523 137 0
-100 422 0
-443 156 0
-323 123 0
-34 118 0
324 -520 0
-50 -320 0
-283 488 0
345 277 0
512 88 0
379 -313 0
-314 17 0
-474 -180 0
-82 -136 0
-7 249 0
-550 98 0
467 165 0
-514 147 0
288 473 0
-438 -61 0
164 -391 0
-5 -421 0
-439 192 0
274 535 0
51 58 0
537 146 0
305 -238 0
208 462 0
-225 23 0
-162 367 0
163 -121 0
300 95 0
-45 442 0
117 -537 0
-510 433 0
314 -438 0
426 499 0
-68 -391 0
139 38 0
182 -523 0
-247 550 0
-501 182 0
467 -349 0
87 -312 0
-441 -508 0
-308 -337 0
-402 282 0
366 439 0
210 350 0
-148 -253 0
543 193 0
425 355 0
-237 -322 0
-544 460 0
-512 -259 0
-291 -212 0
-26 -543 0
-477 -337 0
-152 249 0
190 -436 0
507 -251 0
539 487 0
106 250 0
494 -510 0
177 39 0
-489 158 0
18 188 0
-158 -71 0
207 -9 0
-365 -535 0
540 260 0
-343 105 0
-99 2 0
187 -125 0
-16 214 0
125 407 0
-534 -459 0
325 371 0
31 484 0
396 138 0
180 -434 0
379 -326 0
307 415 0
-250 -159 0
-25 418 0
-24 165 0
389 292 0
15 395 0
-543 -466 0
-353 -41 0
473 -259 0
432 404 0
-214 305 0
511 -440 0
-276 128 0
-99 -56 0
-144 -165 0
-435 -374 0
-141 -45 0
377 352 0
-38 -417 0
414 -540 0
4 -26 0
517 -185 0
421 -127 0
515 106 0
-411 -100 0
-443 -92 0
-57 -329 0
304 505 0
474 -497 0
-480 -345 0
-346 -121 0
190 -223 0
500 -422 0
55 -462 0
227 -309 0
-12 -436 0
193 -471 0
203 358 0
462 -77 0
34 125 0
-93 -120 0
383 -392 0
-300 501 0
498 -496 0
61 -35 0
-25 413 0
419 414 0
228 -388 0
-212 274 0
166 273 0
-410 243 0
361 -545 0
-377 -489 0
549 -437 0
426 307 0
72 132 0
227 -364 0
-380 -259 0
406 209 0
547 373 0
379 423 0
373 408 0
473 -416 0
160 260 0
-104 -508 0
-482 417 0
-107 20 0
-46 312 0
-460 -387 0
-288 -90 0
485 -365 0
-148 -427 0
352 -505 0
-99 -68 0
-170 -512 0
432 -319 0
-239 -30 0
385 -127 0
504 283 0
452 -498 0
-92 505 0
-264 48 0
88 74 0
-141 -484 0
470 -27 0
17 -181 0
165 310 0
-287 151 0
295 -260 0
455 -112 0
149 370 0
-391 -392 0
256 179 0
501 -548 0
-294 464 0
-193 -462 0
-105 426 0
-451 -181 0
493 -212 0
351 -191 0
-297 395 0
146 151 0
-9 -271 0
-424 -457 0
469 -367 0
-201 -386 0
88 -182 0
-27 450 0
-3 -497 0
-161 -490 0
35 430 0
353 160 0
-135 -57 0
409 -326 0
-297 -497 0
164 -387 0
-149 166 0
186 161 0
-325 -300 0
-548 -208 0
445 252 0
298 470 0
-135 -356 0
308 -427 0
-149 78 0
331 181 0
-198 2 0
-319 294 0
410 501 0
-492 -428 0
-533 -186 0
37 -54 0
275 -267 0
-504 -322 0
-296 40 0
-333 -405 0
-100 153 0
-444 48 0
61 414 0
-67 535 0
-41 398 0
-439 -238 0
-280 145 0
-124 -12 0
122 98 0
204 517 0
44 -136 0
-123 3 0
-549 140 0
443 155 0
162 40 0
411 -438 0
-84 70 0
-296 -15 0
63 41 0
308 413 0
145 314 0
-19 -255 0
-224 220 0
101 -265 0
539 379 0
-219 -364 0
314 -465 0
360 -477 0
-362 -182 0
-87 -268 0
-513 342 0
295 376 0
-101 176 0
-330 430 0
542 423 0
363 -77 0
422 -405 0
386 526 0
-250 -262 0
418 284 0
20 -428 0
59 -312 0
-226 -300 0
-498 18 0
232 -14 0
508 355 0
24 70 0
386 406 0
295 -315 0
-491 -443 0
332 -521 0
-394 314 0
-297 -320 0
-547 78 0
140 -427 0
80 -283 0
-387 -184 0
442 -514 0
128 199 0
486 -432 0
-525 -123 0
531 535 0
372 87 0
65 59 0
-235 517 0
359 195 0
422 -381 0
-208 210 0
114 -441 0
-540 349 0
276 394 0
-317 -410 0
550 442 0
334 -54 0
69 354 0
534 62 0
-71 -190 0
48 274 0
-453 116 0
-80 442 0
-367 -93 0
-509 190 0
160 -464 0
-329 -132 0
124 -238 0
-496 -409 0
-386 -392 0
-481 -12 0
522 264 0
523 452 0
187 59 0
-85 111 0
-80 -319 0
201 -33 0
239 -543 0
380 546 0
1 222 0
535 389 0
132 514 0
-9 547 0
-39 -212 0
258 -362 0
-24 -138 0
48 467 0
-345 10 0
-206 -414 0
241 123 0
131 373 0
-120 524 0
538 -1 0
-337 6 0
51 -510 0
194 384 0
192 141 0
495 -316 0
237 -268 0
40 -184 0
-136 -16 0
