c NF
p cnf 4755 6182
2565 3410 0
-362 1101 0
-1989 245 0
689 -1200 0
3685 867 0
2785 -3803 0
2458 -1361 0
2590 -2264 0
-1192 -567 0
2363 1282 0
4048 869 0
1656 -4293 0
-1685 -927 0
762 4110 0
-91 -3321 0
-468 -4676 0
4301 -3053 0
-1993 180 0
-761 2326 0
1928 3960 0
-2207 -1469 0
3519 3556 0
-4345 2451 0
2133 4536 0
2370 1320 0
-281 -3324 0
4547 -4001 0
-1925 868 0
1309 -4584 0
-2721 -3658 0
2437 4693 0
-4088 -2919 0
2563 3862 0
3349 2972 0
2013 -4692 0
-2227 2639 0
144 -57 0
3737 4738 0
556 49 0
-1894 33 0
629 642 0
-340 -3660 0
-1489 3176 0
-639 3748 0
-1115 -4445 0
-4304 4548 0
625 566 0
2576 537 0
3852 -399 0
-4392 -2649 0
-1931 3197 0
3522 1727 0
-1832 -1936 0
-752 -3005 0
-1280 -942 0
-1233 3227 0
-1723 -2414 0
3337 1953 0
-3556 -4206 0
7 -2337 0
-19 4561 0
1555 -78 0
-4551 199 0
-2843 20 0
-4635 -1880 0
-1993 676 0
3178 -1701 0
-1688 -3755 0
853 3710 0
4162 -1419 0
-4246 -950 0
-4586 -1519 0
2029 4529 0
-947 2261 0
457 1166 0
-709 -1115 0
930 812 0
967 4194 0
-3761 -1460 0
1701 -3298 0
-4453 4730 0
-3350 4343 0
-2861 -2179 0
2078 -957 0
-491 4163 0
4395 -205 0
2438 107 0
-1884 712 0
-1504 -3586 0
-1905 809 0
3104 -2659 0
-614 -1230 0
2792 2753 0
4188 -3667 0
-1190 2743 0
-1378 856 0
968 -4241 0
3059 3457 0
3411 -1694 0
-2496 -787 0
-1191 -1408 0
3064 2309 0
3045 1266 0
2463 -4559 0
1165 -2564 0
-2597 -1365 0
-1592 -2024 0
2624 4657 0
4163 3866 0
2844 -4467 0
2117 -182 0
-4485 1956 0
1961 1846 0
3425 581 0
-4328 1335 0
-322 -3401 0
2032 -2725 0
78 -4084 0
2214 -1432 0
-1201 2342 0
2554 4511 0
-303 -1772 0
3402 1021 0
3040 4510 0
-885 2927 0
4524 -3725 0
-924 2723 0
-4321 2498 0
-4500 1173 0
171 3319 0
4270 548 0
554 1556 0
2568 2272 0
199 -241 0
-1184 -3777 0
-4291 -1878 0
-4434 1929 0
2150 605 0
-1826 3016 0
-1698 -2865 0
3328 -3968 0
4195 4185 0
-3983 4090 0
-1037 3961 0
-1212 -334 0
-2381 1856 0
1696 3020 0
441 652 0
3163 3 0
307 -3222 0
3459 -2266 0
-2163 -3675 0
-541 -1490 0
4269 -1182 0
4098 -4280 0
4699 569 0
-2171 -4194 0
631 4746 0
-4716 94 0
749 4363 0
1569 -4164 0
-1829 3358 0
1688 -1977 0
1335 -2138 0
-1984 3619 0
3086 2243 0
278 -2762 0
1063 -1561 0
452 -2257 0
-2047 -3935 0
325 -2249 0
3159 -253 0
4023 -3656 0
4056 -2170 0
-90 -3313 0
-2717 -2194 0
-996 -3091 0
4405 3006 0
-2313 -4721 0
1733 -3460 0
1316 -78 0
-2835 1179 0
-80 4404 0
-2259 -3586 0
-1777 3006 0
2642 -2589 0
3403 1906 0
-803 -4279 0
-731 -2441 0
-4131 -4274 0
3439 2103 0
3407 -2435 0
1165 -3944 0
1025 2799 0
-4061 -3114 0
3583 -4277 0
-931 1271 0
3873 -940 0
1423 -777 0
2115 2893 0
3867 1949 0
-221 -737 0
-3341 1324 0
-791 2758 0
1173 2102 0
-880 -2523 0
-1180 1153 0
2844 2608 0
-1936 -2596 0
-680 1938 0
4513 -4553 0
-8 532 0
773 -3630 0
-4603 4482 0
-2135 -2668 0
-1783 3951 0
1098 4323 0
-2357 -2954 0
242 -3123 0
4549 -695 0
-4339 4358 0
-13 -4430 0
-3551 -2387 0
4083 2562 0
-1418 553 0
-2089 1467 0
2773 -1209 0
1001 3389 0
2825 -3363 0
3444 1246 0
-2200 325 0
3100 4507 0
928 -405 0
4179 -109 0
-4695 -1675 0
3780 3991 0
-2042 125 0
4150 3406 0
-3420 -2746 0
-2794 3732 0
-4227 18 0
3 161 0
-677 4547 0
3087 -3126 0
-2597 1062 0
3541 3542 0
537 -4453 0
-1010 -4628 0
3009 75 0
-2541 -4120 0
-3045 3685 0
-1044 675 0
3792 -4670 0
-2056 -1793 0
-455 4300 0
-3831 -274 0
-4047 2707 0
2336 -3684 0
1194 -1273 0
3232 -1704 0
-2194 -4165 0
3402 4055 0
1433 -1937 0
-456 3783 0
838 -214 0
2003 -4512 0
3821 -2855 0
-3310 -4072 0
3979 -4029 0
4139 -1275 0
641 1729 0
-965 2676 0
3829 4326 0
-778 3969 0
-726 -4039 0
581 -3000 0
-1201 1505 0
2393 3017 0
1843 3676 0
-4361 4568 0
-1015 -1002 0
-1026 -226 0
2854 -1975 0
3559 1856 0
4256 -2033 0
2602 -4738 0
396 2301 0
2566 -608 0
-2013 3437 0
-542 2489 0
2117 -2316 0
-2837 739 0
3487 4226 0
3825 3925 0
668 -4201 0
-2611 3541 0
2122 -779 0
2060 1354 0
-1812 2952 0
4401 -224 0
-4038 -2304 0
-422 2901 0
-2822 -4654 0
1645 -3980 0
-133 2772 0
4668 -1054 0
-3033 1289 0
2329 -4735 0
-4179 -683 0
-1736 -497 0
-1069 4384 0
1226 -512 0
187 -3902 0
-577 -1158 0
4125 -1056 0
3922 2245 0
-942 -4640 0
1210 2765 0
634 -4605 0
-2238 -4524 0
-4449 2486 0
1648 4348 0
2529 4468 0
4305 268 0
2337 -310 0
-3113 -822 0
644 -385 0
-1175 3151 0
4419 -1880 0
-3841 -2311 0
-4045 -338 0
-1491 411 0
-1783 -911 0
-4179 -3571 0
1931 -771 0
-4187 1564 0
-1021 4049 0
2399 -1246 0
1490 -3454 0
-1375 -3690 0
-989 -1069 0
-1399 -3336 0
-467 4217 0
-3596 -1367 0
3245 -1755 0
268 -955 0
-1128 2188 0
1246 772 0
-156 -4264 0
-749 937 0
-1518 -4114 0
367 -4021 0
4466 2554 0
-3908 813 0
3179 2758 0
-2872 3600 0
36 2420 0
-1440 3850 0
390 -458 0
2625 896 0
-4283 3066 0
-3049 -3693 0
2459 -2255 0
-2573 3075 0
4554 -4451 0
-4479 -3188 0
-181 1523 0
-608 2682 0
-3192 -4247 0
-10 1221 0
967 -4692 0
-579 4082 0
1738 -3961 0
-234 -4065 0
-4366 -3524 0
-1329 -3188 0
4047 523 0
-4636 -2477 0
1211 -1991 0
-539 -3241 0
4077 1675 0
-2984 2935 0
2075 -4219 0
3401 -837 0
1929 1875 0
1960 -822 0
3071 259 0
3895 -3030 0
269 -2433 0
-388 -3212 0
-1114 -4227 0
3710 3617 0
-1747 -820 0
-2611 2743 0
-1043 -4581 0
3444 1786 0
-2660 -255 0
-3596 3677 0
1008 1762 0
2958 -3533 0
-1768 3581 0
-1688 -1136 0
3554 377 0
-767 -3034 0
4055 212 0
-391 1536 0
-4302 337 0
-998 3675 0
2208 2971 0
3517 4282 0
-716 -1273 0
-2666 -4212 0
-4146 -2517 0
-2776 -3111 0
232 -2693 0
-1191 1843 0
-4084 84 0
1796 -2518 0
-3932 -1044 0
-3676 1423 0
1328 -517 0
-3153 -3494 0
1777 4203 0
1320 -4350 0
2930 -18 0
829 1305 0
624 -2592 0
-2462 -1756 0
-3646 3063 0
-1903 455 0
196 319 0
-4488 4342 0
3777 343 0
4298 2834 0
1516 1322 0
-2463 -682 0
2625 -2456 0
2436 388 0
-2795 -889 0
2797 3215 0
4457 400 0
663 -1883 0
-2087 -632 0
718 3729 0
-556 122 0
1700 2859 0
4282 2574 0
621 1306 0
-4483 -3865 0
-2784 2052 0
160 1332 0
-2315 4455 0
-2624 3127 0
4688 2057 0
-2345 4647 0
-705 -4708 0
-1685 4317 0
4579 -4122 0
-3967 2670 0
-3885 -946 0
2332 2769 0
-579 -3598 0
-4417 -4753 0
-1552 4373 0
896 -2447 0
2615 -1223 0
3468 734 0
574 -2610 0
-3591 1363 0
-563 522 0
1651 -4572 0
2746 3201 0
-2777 -1199 0
2621 427 0
-3570 -4621 0
4292 -3277 0
-4080 -2351 0
2795 -3246 0
2692 3836 0
2119 448 0
201 -3656 0
-2601 -2699 0
434 -4728 0
-3758 4184 0
436 1371 0
-3267 1133 0
1353 2261 0
-796 -3795 0
-2850 1062 0
-3144 1691 0
4638 880 0
4730 2449 0
209 -4253 0
-2789 3740 0
2665 -4340 0
2495 -351 0
-1479 -3369 0
268 -3077 0
1720 -2080 0
3857 172 0
-3998 3183 0
2126 1297 0
150 807 0
-769 4749 0
1740 1366 0
1438 -4075 0
303 -2264 0
2191 808 0
-1858 -3361 0
-194 4750 0
1766 1370 0
1731 -3087 0
341 2050 0
-4076 -733 0
933 3401 0
3964 3734 0
2073 97 0
3374 4444 0
-854 -997 0
-4381 -184 0
-4138 -2748 0
-3752 -3113 0
-2528 2889 0
2302 -3524 0
-4662 4142 0
-3896 1182 0
-1559 -1663 0
652 183 0
577 3150 0
-3690 3752 0
-82 2182 0
-286 2344 0
-3579 -3286 0
3467 -711 0
3662 2010 0
3392 -815 0
-419 1967 0
-1084 -4550 0
1010 1849 0
4708 4341 0
-1966 -1126 0
-3763 4446 0
1536 4022 0
4669 -4746 0
2325 -3883 0
-1684 4004 0
299 2199 0
-1831 2334 0
1326 -3384 0
-1744 -1783 0
4610 116 0
3401 -103 0
797 1602 0
746 -3736 0
2 -129 0
-1002 -731 0
-940 2309 0
-3165 1386 0
-1464 204 0
-4208 -1181 0
1877 326 0
3873 1569 0
1475 1197 0
3087 -4724 0
4612 -738 0
2605 -620 0
-2951 1180 0
13 174 0
-3174 -4365 0
468 -3052 0
3723 -347 0
-23 -585 0
2242 -4740 0
1853 -1383 0
-1544 3116 0
1127 248 0
95 2765 0
1363 483 0
-3090 3793 0
1938 4587 0
3115 2985 0
-951 1405 0
1446 -2034 0
878 -1727 0
819 -4708 0
2152 2501 0
2672 -2125 0
-3059 -1942 0
-1407 -151 0
-1134 384 0
3857 1309 0
-2277 3906 0
-3984 2126 0
-3828 -2532 0
-3788 900 0
4547 -1383 0
-1530 -203 0
-427 -4020 0
-4479 2265 0
-1674 3122 0
-2301 2758 0
-2756 1220 0
1620 3300 0
-927 -3425 0
-4260 -1176 0
-1339 -3332 0
-1769 -1930 0
167 -2734 0
472 305 0
-301 3463 0
437 3695 0
-201 -4707 0
4195 1051 0
2993 2587 0
4669 -766 0
3914 -65 0
-1962 1510 0
-4506 -1740 0
-1644 -3688 0
1282 3323 0
-1138 2110 0
-1498 1327 0
-1767 -4521 0
-1840 -917 0
-2905 -4356 0
-1164 -241 0
-116 46 0
4433 4498 0
-4229 -49 0
-4640 -3960 0
-3278 -500 0
925 3108 0
-4053 -1758 0
-2970 -123 0
1508 -3540 0
2500 2842 0
-3262 -3052 0
3452 3740 0
-1966 -4556 0
1613 -682 0
1359 1473 0
-3408 -4553 0
-1651 3612 0
2062 1512 0
-4236 -2105 0
2675 3757 0
608 -3342 0
4510 4336 0
4270 1848 0
-939 -1681 0
2146 -3973 0
3994 2872 0
2859 -129 0
3314 -3704 0
-3739 2516 0
4251 2924 0
-376 4620 0
-1308 -4714 0
2195 -1980 0
-2451 -1736 0
-2413 4598 0
-2809 876 0
-4106 -1018 0
-2683 1253 0
1779 -1872 0
-4106 4697 0
-253 -2482 0
2325 -4275 0
-4598 996 0
-3944 -4134 0
4113 -316 0
-2080 -1447 0
1769 -2051 0
2675 1911 0
2304 3294 0
2265 -3571 0
4007 -3757 0
3731 2376 0
3003 -1468 0
-973 2263 0
2336 1336 0
595 2188 0
-1970 -200 0
3792 1700 0
-1333 3279 0
-2129 41 0
4282 -420 0
-2945 465 0
-1682 -3338 0
-3554 -3320 0
-1353 -3251 0
-1560 -165 0
795 -3251 0
-4128 -1439 0
633 -538 0
-4589 -273 0
-2988 748 0
-1170 -2180 0
-3957 310 0
2684 -710 0
1369 -4748 0
1416 -4328 0
4067 -1499 0
2430 -1078 0
-3290 354 0
-2757 -3974 0
-234 77 0
-3767 4621 0
2087 3605 0
4367 -2480 0
1130 4686 0
4217 3354 0
440 2774 0
-2973 -1972 0
45 3330 0
-1048 3296 0
1001 -3762 0
2786 -3102 0
1150 -898 0
410 3894 0
131 3452 0
2057 -2525 0
-2881 -4102 0
-388 -3294 0
-640 2343 0
389 3670 0
-2647 4343 0
3293 4552 0
-2382 -3350 0
-2699 -3678 0
-47 -4452 0
-1476 920 0
3933 1196 0
-977 1433 0
-4228 3588 0
-2713 -649 0
2093 -2676 0
-3549 2890 0
1036 1201 0
-2739 2505 0
-1865 1677 0
2556 2785 0
-3307 4303 0
-3558 2584 0
4295 1540 0
-4076 4729 0
548 -1966 0
298 3688 0
1333 -1090 0
-2220 -1844 0
-2529 775 0
-4635 1848 0
1322 903 0
791 1316 0
-2772 -1141 0
-828 544 0
-822 -1736 0
1507 1290 0
-4734 3789 0
4166 -65 0
841 -2725 0
-3299 1650 0
-1061 3288 0
-3577 -4251 0
1656 3080 0
-858 3373 0
1545 3163 0
55 -937 0
3959 825 0
-1949 2326 0
2174 -499 0
1980 -1126 0
1512 3090 0
2548 1118 0
-3158 -254 0
-3620 2072 0
-1868 -4425 0
-3323 91 0
1703 3945 0
1752 -456 0
-1956 3245 0
1852 -1933 0
-2017 4270 0
2317 2069 0
-591 -1840 0
967 1809 0
-2054 -1651 0
-1390 3233 0
3409 1208 0
-985 2859 0
762 1346 0
4604 -4004 0
3705 -1598 0
3053 2399 0
3464 -2314 0
3238 -2705 0
-3418 -3460 0
-471 -101 0
2285 -2033 0
-2545 4669 0
485 -4674 0
2177 1049 0
1305 -718 0
-2297 846 0
-2945 3603 0
2240 -4566 0
2511 4036 0
-1263 4261 0
-1626 3237 0
-1717 -2542 0
963 -3065 0
980 -4613 0
-2573 2932 0
3415 3179 0
-2811 -255 0
-1682 -708 0
-2662 -40 0
-3893 -421 0
1684 -3145 0
-3802 2707 0
-2272 -608 0
-4501 -377 0
4543 -1579 0
-416 1986 0
3003 218 0
469 2829 0
1019 4401 0
1731 -310 0
3703 -4490 0
-4568 -1894 0
-4250 -3553 0
251 3039 0
-678 -2816 0
2581 -4657 0
-1539 -3471 0
-2739 -3827 0
-3045 4065 0
428 -1466 0
1260 -1227 0
-2154 -3170 0
-3332 -4646 0
1000 -1704 0
-1832 840 0
104 -1717 0
-3854 -267 0
763 142 0
2682 1097 0
3980 -1535 0
-1735 -14 0
-3957 869 0
-1426 3497 0
3344 -149 0
-4071 405 0
-4107 -720 0
-3467 -1204 0
3354 -3727 0
-3223 4632 0
3089 739 0
2902 1438 0
2996 68 0
-1244 -2886 0
-3184 -4353 0
-3180 -2573 0
-2499 4210 0
648 4519 0
2500 -858 0
-2259 -1358 0
1789 2977 0
-4179 890 0
-1090 -3258 0
2153 2286 0
2365 -1130 0
-1894 1283 0
3611 -1431 0
2337 -1272 0
-534 1423 0
3718 1299 0
2652 1254 0
52 3798 0
503 1193 0
-4449 -918 0
181 1523 0
792 3122 0
4080 -998 0
-639 141 0
493 4728 0
-3302 -323 0
3269 -3564 0
-901 -3663 0
-3100 -3767 0
-2732 -2838 0
-1839 -3496 0
-726 3225 0
-4303 9 0
-1724 -503 0
-2078 2500 0
-2284 3891 0
-2805 1179 0
569 2223 0
915 -1412 0
2265 -2647 0
3689 2683 0
-4202 3380 0
1650 161 0
2133 -482 0
1198 -43 0
1579 -3739 0
1668 1022 0
788 -4464 0
2891 1360 0
-3171 -1189 0
-4523 -2254 0
2358 -576 0
1317 -3251 0
-3822 -618 0
3477 -746 0
-3099 -1077 0
-2136 -3135 0
4233 1136 0
-2292 2889 0
2928 -2318 0
-2683 -1439 0
257 -4658 0
1060 3047 0
-3780 -3030 0
-2550 -3654 0
-378 2441 0
-32 2160 0
3146 2766 0
-4120 -1768 0
-1871 1113 0
-1857 3469 0
-120 -2776 0
-2188 -2583 0
2319 744 0
-7 4724 0
-207 -1300 0
-392 -1010 0
2212 -2105 0
-1385 -4069 0
439 494 0
4615 2285 0
-4603 614 0
-242 -428 0
3268 -3260 0
-579 4393 0
4109 -3940 0
724 -1374 0
-3056 -3366 0
1665 1634 0
-2972 2886 0
1854 521 0
253 181 0
1948 783 0
-3106 616 0
3443 -726 0
-475 -1611 0
-873 -4243 0
1564 1572 0
-3376 -47 0
607 -4221 0
-2852 -2134 0
4693 1771 0
2159 -2154 0
-141 -4020 0
3873 4303 0
2382 -2090 0
-3674 -4507 0
3513 -720 0
-711 718 0
678 -4287 0
3321 2501 0
-1611 -193 0
-2065 2380 0
217 -411 0
1531 3939 0
-4205 1066 0
4577 -3482 0
3754 -2382 0
-3570 2277 0
-3601 3345 0
1069 -3164 0
-3708 -4022 0
-1874 60 0
760 -983 0
-2553 -614 0
774 3321 0
-1975 -3991 0
820 -1382 0
3461 -3357 0
-3665 -854 0
1337 3006 0
-1316 3430 0
2987 2290 0
3235 -4275 0
3999 1107 0
1255 -4601 0
-3799 443 0
4616 -2872 0
-4281 129 0
-3252 712 0
-1469 601 0
4677 869 0
-3878 -4238 0
-1687 394 0
3344 704 0
165 1729 0
-1165 2251 0
-3246 -1683 0
2330 3150 0
3068 -4490 0
-1303 4729 0
1551 4158 0
-4652 -305 0
-832 -4344 0
3258 4469 0
2774 487 0
-243 2331 0
1002 2627 0
4479 -2915 0
-2596 1327 0
3723 -2554 0
4264 -5 0
-2003 -212 0
-347 2924 0
-3667 -4233 0
-3327 -742 0
-4509 -3264 0
-2283 -2363 0
-4391 -1961 0
436 -4197 0
1833 -1562 0
-2945 -1559 0
572 628 0
3430 525 0
-3240 4173 0
-4451 -3463 0
823 4109 0
-2982 -1575 0
737 1110 0
-997 -629 0
-2846 -95 0
389 -765 0
878 -1530 0
-318 4652 0
287 -1459 0
2785 92 0
-4515 2122 0
-686 3612 0
-963 2916 0
-400 -4529 0
-3543 4664 0
-1674 3264 0
-4359 3380 0
3366 4257 0
-2653 -4711 0
-2477 1129 0
-2199 4222 0
1902 3402 0
-391 596 0
3793 3127 0
-2843 -1663 0
3746 -3448 0
3523 3847 0
4517 2410 0
-1083 3476 0
-783 -3121 0
3502 -3988 0
4055 763 0
327 4731 0
-4285 1197 0
4292 -4648 0
-3334 2027 0
-2468 2337 0
3821 -4270 0
-1823 -3746 0
-1075 -3072 0
-3858 1436 0
-1679 -4301 0
-2509 -2027 0
3551 -829 0
-2644 -2350 0
-4745 4227 0
-4022 4585 0
-873 797 0
-3483 -3874 0
-1558 1879 0
1432 -859 0
1786 -96 0
3927 741 0
-606 1302 0
3578 -1651 0
2566 159 0
-957 -1152 0
191 -2837 0
1095 3393 0
3885 -4223 0
-3113 -1622 0
-2461 -3806 0
-2600 -461 0
-1780 1716 0
1910 -939 0
1675 873 0
2528 4175 0
3868 -2227 0
1150 1963 0
-3578 3074 0
-1732 -4123 0
-3449 -923 0
3741 -3807 0
-218 -2702 0
505 2500 0
2759 4129 0
3519 3115 0
600 -1579 0
908 2379 0
209 -3302 0
3927 3535 0
-4703 955 0
-3196 -1 0
-3610 4161 0
-3694 -3001 0
2479 1597 0
4167 651 0
-692 3958 0
55 3886 0
-1768 -2975 0
-2252 -1134 0
1512 -2807 0
-218 -726 0
516 -2566 0
4611 4753 0
-3333 37 0
3649 2360 0
3230 729 0
3735 -810 0
893 -4503 0
-1397 -4006 0
-3864 -1040 0
-4584 -770 0
3098 -2515 0
499 -1099 0
-885 -2886 0
331 -4649 0
-3120 -456 0
-668 -1823 0
-4169 3175 0
3875 -4181 0
251 2519 0
-688 -4384 0
-4357 1581 0
1395 3789 0
-3759 1081 0
3493 -3693 0
-1839 -423 0
155 -1246 0
-2004 1456 0
-707 858 0
-3601 3020 0
-3291 4730 0
2234 1089 0
1502 3804 0
2225 -2501 0
2369 48 0
-46 4471 0
2914 -2832 0
-2487 4740 0
2265 4342 0
-3152 -240 0
2073 -4661 0
2440 -1356 0
1360 2997 0
-3445 -570 0
2142 1965 0
-534 3346 0
-695 -718 0
-207 -2984 0
2354 -1607 0
2440 3406 0
4265 4317 0
-1190 -1312 0
-1021 3280 0
-3037 -1447 0
758 4089 0
-3762 -22 0
1504 4547 0
-2536 1785 0
-4440 -38 0
144 -1734 0
655 4592 0
4547 3557 0
-1490 -2792 0
2266 4082 0
1677 4189 0
151 2742 0
-3719 -1514 0
-1190 1628 0
1466 2873 0
471 -101 0
-1832 2191 0
-2526 2659 0
-3138 3384 0
-2318 2753 0
-3157 3618 0
2193 1873 0
-1059 -439 0
3749 3256 0
-1898 -1647 0
-2497 -3381 0
-4345 -2070 0
2828 1080 0
3606 3423 0
-149 -3426 0
1620 1158 0
-4422 -3265 0
4630 3819 0
810 3761 0
-892 -798 0
1498 2311 0
2308 4621 0
-1163 -3601 0
-2157 -4476 0
4679 -2676 0
2667 -2550 0
-618 473 0
-2218 -4014 0
-3145 -3055 0
-2034 1995 0
938 -3162 0
1720 1647 0
4040 3897 0
-3983 -1304 0
-694 -7 0
2152 3018 0
2111 2832 0
-1813 2946 0
1106 3326 0
2099 -3187 0
522 4679 0
4691 4287 0
383 1003 0
-4582 -4506 0
161 -3674 0
-3205 1696 0
-2577 1936 0
-3622 2125 0
-3343 2103 0
-3072 1778 0
-4735 -4545 0
-3788 2938 0
-1868 2341 0
20 3986 0
2456 2771 0
3953 1628 0
-4753 -1669 0
-1042 -4423 0
-1043 -3324 0
-1332 -1113 0
-4400 -4433 0
-4606 -3156 0
-4538 481 0
1409 1558 0
1432 -3462 0
-3657 4394 0
629 3952 0
2204 606 0
-2640 1013 0
4428 618 0
-2735 1941 0
-2970 1158 0
-4685 2 0
4160 3674 0
-1730 4249 0
174 300 0
2580 1219 0
-30 -2700 0
160 4720 0
-827 -2243 0
-3992 4068 0
4462 -597 0
1123 3929 0
-2515 -3360 0
-1230 2687 0
-1892 -3689 0
-841 -2184 0
338 -773 0
2426 -3334 0
2784 -3210 0
-4451 2356 0
-118 2492 0
-4677 3312 0
2675 -2991 0
-2950 2971 0
-210 -3327 0
-2407 397 0
-3908 4682 0
701 -2563 0
4619 -2172 0
2377 3584 0
-1441 -2562 0
3140 -4216 0
-2366 2364 0
-4381 3845 0
-3319 -4592 0
1785 -1319 0
1664 -192 0
3898 4743 0
-4449 685 0
425 2916 0
2339 -2353 0
4433 3672 0
-4023 -4661 0
3243 -1466 0
3732 -3971 0
-1670 3725 0
-4429 -3034 0
-3725 -4041 0
3519 1001 0
-71 2401 0
-2461 -4558 0
-426 -2377 0
3288 516 0
3695 4281 0
-3656 -159 0
1011 -2339 0
1449 -2002 0
2588 3302 0
4317 -2174 0
-878 -4647 0
325 4391 0
-3275 -843 0
4303 657 0
-2753 -197 0
-1853 862 0
1817 -4501 0
2655 2111 0
-1898 -30 0
-218 -3062 0
-3881 -2695 0
-1002 -3133 0
-2049 648 0
-3267 -3140 0
750 4001 0
-3480 3302 0
1938 -3476 0
-1628 4184 0
4196 -347 0
-1048 -852 0
44 -3247 0
2821 2620 0
-646 -798 0
874 -2815 0
1613 -4295 0
-4547 4039 0
26 2115 0
948 1478 0
-2276 -3814 0
-2570 -3141 0
-390 -740 0
-4268 3373 0
-756 -3471 0
1899 -3381 0
-4676 4597 0
3685 1112 0
-4070 -2600 0
-506 1953 0
1807 -3638 0
-4598 262 0
-2538 -2968 0
3644 -4189 0
4479 4410 0
2799 -2747 0
-761 2720 0
-1977 -265 0
-3160 3480 0
2451 1794 0
-873 -342 0
711 3408 0
1413 -2014 0
-2825 2290 0
1511 -1900 0
829 -3085 0
-1919 3022 0
-216 -2454 0
-3485 -1436 0
38 2797 0
-3617 -4575 0
4620 -2695 0
-308 4236 0
-2315 -484 0
-1753 -4334 0
-3584 -3566 0
-905 2143 0
4329 435 0
-1093 4280 0
-4366 1546 0
1084 4371 0
-3063 -1430 0
461 4660 0
-1353 4620 0
2494 -1373 0
-1577 -3836 0
-1219 -2647 0
-3792 309 0
-346 -521 0
1887 -834 0
4737 3771 0
-1020 1269 0
4239 596 0
2560 -2233 0
-2465 -233 0
788 2636 0
-429 3060 0
-616 1892 0
-196 -3596 0
3930 4553 0
-2194 -2381 0
-4415 -1718 0
2401 -4703 0
2696 -1831 0
952 2431 0
499 -3052 0
-1274 1593 0
-3970 1325 0
-3056 -3803 0
4511 -246 0
-4418 -795 0
280 -1061 0
-3055 777 0
-2187 -1464 0
-2581 -1601 0
-649 4477 0
3345 542 0
-3331 3444 0
-3398 1804 0
-3322 -3276 0
1728 -3690 0
-2261 -1750 0
-2983 1688 0
3724 -820 0
-1514 -3657 0
1797 2797 0
-3151 3365 0
2694 -3095 0
-1208 3838 0
1572 -3525 0
125 -2440 0
-7 700 0
-1978 2879 0
3812 2455 0
3850 -905 0
3283 -3356 0
-2202 -2551 0
551 -385 0
-3129 2776 0
-756 1084 0
837 1294 0
2290 952 0
-2627 1357 0
4312 3349 0
3743 3075 0
415 -1954 0
-1093 -3714 0
2606 2048 0
-3774 2710 0
-2283 -132 0
-4483 -813 0
2350 -1556 0
652 1208 0
1693 4599 0
1902 -1568 0
-4400 -1340 0
3633 -3430 0
942 -529 0
-2013 866 0
-1421 -630 0
-3624 -2028 0
3530 4636 0
-391 103 0
-3152 4005 0
1396 2692 0
1564 -3442 0
1305 -4052 0
-4341 -336 0
-2061 1542 0
-1164 -4586 0
-379 -4336 0
2654 -1210 0
-3944 -2456 0
655 1225 0
2530 -3327 0
-994 823 0
-2396 2227 0
3219 767 0
1522 147 0
4131 -2967 0
-4491 -435 0
4255 104 0
3930 -858 0
-1611 3378 0
-933 -4232 0
376 -1352 0
-147 -1619 0
-4136 -4526 0
-3637 3624 0
-2220 1626 0
3875 832 0
-1357 -2427 0
4514 552 0
2906 2263 0
4328 2239 0
-3103 -54 0
1667 -2194 0
-2524 2132 0
-2948 394 0
-4713 -1971 0
-1831 2252 0
-4297 -4210 0
-2853 3731 0
-77 3483 0
4572 -2944 0
3013 -4130 0
-3512 -659 0
3430 -2664 0
612 -3925 0
-910 164 0
-513 4538 0
-2606 -1020 0
-209 1396 0
2500 -2605 0
-1996 -2496 0
3428 -4100 0
2638 -3701 0
-840 266 0
-3538 2821 0
4159 3379 0
700 -550 0
-2692 -293 0
104 -4513 0
4603 3403 0
2552 -4399 0
1407 2102 0
2617 -990 0
-1543 -1085 0
-2235 1958 0
4043 2266 0
-2090 -1241 0
-2975 -3537 0
-1695 -1520 0
3508 3365 0
-3638 -1330 0
2537 2315 0
4621 486 0
-4371 -2076 0
-3421 -4057 0
4389 -483 0
-4070 2808 0
-1430 -3812 0
-1887 -2658 0
1405 -354 0
1671 4591 0
-137 -4650 0
-2162 -2212 0
-4645 -3967 0
-927 1417 0
-3553 -2158 0
4644 -1224 0
-3285 -3239 0
-2104 -984 0
2441 -2781 0
-896 -529 0
1493 2955 0
-538 2060 0
3861 -3466 0
-3590 4135 0
-226 -449 0
-82 -2786 0
473 -3189 0
2335 4631 0
2769 -547 0
2521 -39 0
4469 -3612 0
2293 -2203 0
4246 -888 0
2651 3571 0
-2668 4689 0
-928 4367 0
-428 -576 0
-1922 2788 0
-4508 -562 0
127 -56 0
-2504 3656 0
-895 511 0
-3807 663 0
-4627 -728 0
-4086 -4733 0
1906 -478 0
-972 -230 0
4016 -1951 0
2405 -1435 0
-374 -2323 0
3779 900 0
4636 -668 0
638 -2892 0
-1442 1040 0
-1886 793 0
-4641 -4715 0
2960 4300 0
-3510 -1724 0
-3189 1114 0
2011 -2733 0
-2972 1261 0
-4128 -1977 0
1595 -1811 0
-484 2349 0
4368 -4464 0
-3437 -791 0
-3437 388 0
-1067 -169 0
-1958 -2586 0
2163 -549 0
-4516 -1068 0
-659 2165 0
-2471 543 0
-3690 -2714 0
4139 4688 0
-3324 -3557 0
4319 -4168 0
-599 -3867 0
-3148 -2058 0
3249 2132 0
1751 2401 0
-2213 1180 0
-4659 -4301 0
-3895 4085 0
-2202 3925 0
422 531 0
2314 1247 0
-3168 -2736 0
3960 -536 0
-3869 1001 0
700 -4093 0
-3491 -3968 0
-2511 3783 0
-1727 2481 0
4547 2428 0
4446 4522 0
-1705 -4614 0
2462 -2879 0
3755 4109 0
-2868 3953 0
-220 1733 0
-1870 673 0
-2990 2617 0
-530 12 0
-992 -4617 0
3743 530 0
-529 1781 0
-4235 -4518 0
-2413 -3047 0
-2375 407 0
-265 1156 0
4656 -1091 0
553 -4743 0
1316 -2503 0
3875 -417 0
1187 1165 0
569 -683 0
-3997 -620 0
3598 -4294 0
-1168 3985 0
-617 3367 0
-3265 1536 0
-1804 -2552 0
-1375 550 0
638 3385 0
37 3179 0
-3855 4054 0
392 1563 0
2894 -2412 0
4091 711 0
462 -3032 0
-3611 -3139 0
3556 309 0
-3988 -464 0
1845 3640 0
-1868 -1144 0
2140 -314 0
-1621 -59 0
-4372 -794 0
1480 4261 0
3519 -2179 0
-1043 -2268 0
3648 -72 0
-4193 338 0
-3719 4622 0
3490 2118 0
286 4085 0
-2313 4191 0
2528 -3966 0
2614 -877 0
3171 3492 0
-1662 705 0
4208 -1776 0
2382 -4391 0
-4355 -4506 0
-3195 -1954 0
479 3347 0
3025 -399 0
-3164 312 0
4081 962 0
-4105 1459 0
3201 3397 0
4140 694 0
-2201 -2923 0
-2616 628 0
-1857 129 0
3573 919 0
-2454 -1318 0
2215 772 0
206 4433 0
-456 520 0
4177 3627 0
2771 4001 0
-4646 1594 0
4214 -4386 0
-1965 3779 0
3703 283 0
-294 4466 0
-3447 1635 0
4203 -2535 0
2761 3603 0
1059 -504 0
3302 1265 0
1643 715 0
-1323 -1774 0
-2683 -1314 0
2123 2958 0
-2477 2683 0
-3710 447 0
3551 -3093 0
491 2124 0
-2582 1928 0
506 1566 0
-4161 3313 0
1979 -3077 0
2806 -1891 0
-1514 -719 0
588 3242 0
1415 -2825 0
2930 -3252 0
-2789 -3809 0
2097 2148 0
-2365 -1898 0
-387 2111 0
-1945 -3059 0
-1245 3215 0
3104 2107 0
-1406 2530 0
-395 2626 0
4618 -4639 0
2624 4245 0
-1416 -4677 0
-1039 580 0
-970 -4058 0
-2362 -4386 0
-2734 -940 0
3946 3150 0
3477 3168 0
3745 1029 0
-1268 -1138 0
3854 1276 0
-4266 -2483 0
-4547 4319 0
2664 -3010 0
4527 -3159 0
-2414 2221 0
-3745 923 0
-3789 1235 0
187 2882 0
1153 2357 0
-3031 -4052 0
-1644 -3106 0
-3418 -73 0
2634 1712 0
691 1144 0
282 -1476 0
-1015 -3105 0
2581 -3830 0
-4668 -3936 0
-4108 -3265 0
-3399 -4696 0
882 2369 0
4220 -25 0
1421 -4022 0
3537 -665 0
-4336 -2516 0
-4735 -4344 0
-3243 4493 0
-510 -3865 0
-2915 -2681 0
1161 -1034 0
-2527 4153 0
-808 3364 0
2241 -123 0
-548 -695 0
3343 1668 0
-547 -491 0
-2427 2061 0
-1542 -1099 0
1907 -1994 0
-3868 -1678 0
-4059 825 0
-868 -3959 0
-3072 4552 0
-1149 -4341 0
-1368 2619 0
-2086 1606 0
-3519 -3285 0
2980 3943 0
3723 -1209 0
-863 -3571 0
4497 3449 0
2351 2957 0
735 2390 0
1714 2765 0
-4655 638 0
-830 2163 0
-1748 681 0
-4594 635 0
3559 2612 0
-2329 3762 0
-1430 -3787 0
4154 -4047 0
-3254 581 0
178 -4628 0
2246 914 0
546 1107 0
-480 3020 0
964 3955 0
-3367 -967 0
-4037 -3466 0
-363 1223 0
-4312 2966 0
2769 -4716 0
-2201 -4480 0
-3774 -1930 0
3375 -4020 0
4094 1949 0
-2047 1430 0
800 -626 0
-3992 3826 0
3285 4215 0
-2571 -4706 0
-1436 1709 0
236 4203 0
535 2223 0
4145 -4287 0
-4592 -496 0
2599 3587 0
-4734 3338 0
2626 3383 0
-2907 -1339 0
-907 -4401 0
4289 -1871 0
-3019 -444 0
424 -775 0
537 -1777 0
1677 4531 0
2678 11 0
2886 384 0
-1260 -2941 0
2932 722 0
3933 -973 0
-1226 3099 0
1667 -786 0
73 -3566 0
2376 -417 0
-1758 -3812 0
3397 4283 0
-1154 3569 0
-3338 19 0
860 -2721 0
-1995 -3821 0
-1880 -2578 0
4554 4298 0
959 -4378 0
-1865 -439 0
-4252 -3652 0
-4384 1355 0
-3539 -3027 0
-1989 -578 0
-4449 4314 0
-3103 417 0
-487 -1635 0
702 4186 0
-3814 3656 0
-4517 -2468 0
3900 4245 0
3942 -22 0
3990 -3060 0
2320 2073 0
698 2159 0
-3433 -3616 0
2405 -2201 0
-2003 -3368 0
190 -2967 0
-1034 -2164 0
-3719 4373 0
-4440 -1851 0
3321 204 0
-1727 52 0
2687 2265 0
4503 4291 0
60 986 0
-2830 -2058 0
3150 348 0
4257 3503 0
3412 3918 0
3573 -623 0
4452 443 0
-3079 3452 0
-2730 -358 0
-4526 -2622 0
-4636 -1821 0
-2556 2148 0
-4025 -1518 0
2875 2490 0
2479 3490 0
1208 -3008 0
-476 355 0
-4676 -4092 0
3549 1186 0
-4561 -3396 0
1618 3982 0
959 -4374 0
-3603 -3596 0
4301 -3938 0
-3446 -4507 0
-464 -4667 0
-3758 -2530 0
-3110 -640 0
4439 -3194 0
-1922 -3545 0
4688 -4069 0
2326 -1220 0
1593 3884 0
-3163 170 0
-1966 2230 0
2943 93 0
-2962 -1337 0
1222 -1632 0
-4221 -4377 0
85 104 0
2730 -2819 0
-3596 -3341 0
2019 -2588 0
3988 3783 0
-1544 2724 0
-3982 1267 0
-3012 -168 0
2813 -2255 0
-580 -2184 0
-365 -1460 0
3208 3022 0
-3446 819 0
-1832 -2345 0
-98 1563 0
1784 1545 0
-3837 -3145 0
-3591 1264 0
3300 -2077 0
-4258 -207 0
-3947 3236 0
-4506 -4187 0
-196 -4625 0
3472 1007 0
-4397 2859 0
-1438 -1935 0
-2956 2255 0
1364 -1244 0
-3012 -3251 0
3543 -189 0
-3552 -2725 0
2451 -1268 0
-390 3882 0
-413 1356 0
42 -268 0
4696 154 0
1630 3225 0
-1403 2345 0
-4192 -3688 0
1201 -4117 0
-4414 -3618 0
319 2967 0
3474 -1263 0
4498 2275 0
1079 3680 0
-4020 -963 0
3477 -1565 0
-4434 -737 0
-4566 -2454 0
2390 -2770 0
-3749 -55 0
-3351 -724 0
2998 2886 0
121 836 0
-3085 -1783 0
-3528 601 0
3302 488 0
809 -1194 0
-201 -938 0
-3377 -2026 0
4452 4155 0
763 -4031 0
4651 1734 0
-3988 -3003 0
3022 -141 0
2247 -1680 0
3541 2172 0
13 -2997 0
-1424 1262 0
-3154 164 0
-1749 -3317 0
-2221 4130 0
-1292 1025 0
-1962 3635 0
-2523 1677 0
1053 -4601 0
44 2097 0
3872 657 0
-2723 2302 0
-1686 -4609 0
-378 1520 0
-3186 3101 0
4646 2947 0
2894 -656 0
-4530 3544 0
-248 -1865 0
-1092 -987 0
-1066 2391 0
4691 -3392 0
729 817 0
4582 -1527 0
-841 4660 0
-2087 1023 0
-2351 3203 0
-2027 -4207 0
-378 -982 0
-4614 1710 0
1864 2312 0
-1629 -2123 0
-2306 1566 0
-1965 -4162 0
3182 2282 0
2882 -487 0
-451 -2581 0
-1466 -3531 0
-3309 511 0
3334 2671 0
-3863 -3269 0
2124 2247 0
3866 -363 0
1987 -4730 0
-3819 -3750 0
2812 -1794 0
4379 -1802 0
2399 1567 0
-4187 4423 0
-1866 -1144 0
-1026 -1681 0
353 -48 0
2464 2 0
1673 -3770 0
3329 3229 0
712 -3938 0
-3333 -3178 0
-770 -3260 0
-644 -314 0
437 -956 0
2289 236 0
2874 3590 0
-2311 2031 0
-3103 -4452 0
-2982 -2466 0
4704 -4324 0
2548 2309 0
2085 4618 0
2168 -427 0
507 2002 0
4470 3510 0
2069 2954 0
3283 2320 0
1626 2974 0
-1685 4247 0
-4293 -3794 0
-640 257 0
-3096 -2001 0
-4335 -2796 0
-3469 -4371 0
-3380 -4425 0
315 232 0
-591 -805 0
1453 -2200 0
-1502 3042 0
-1741 1531 0
1925 -1559 0
-852 -1 0
-3644 1127 0
-3157 434 0
3731 329 0
2449 -1302 0
4576 -974 0
1265 -772 0
-1309 4177 0
1182 3921 0
-2445 3976 0
-2611 3308 0
-1960 1542 0
-1666 -1508 0
-2823 3301 0
624 4629 0
497 3001 0
-163 4649 0
-3741 -4205 0
4398 -2293 0
2900 -1429 0
-2982 2229 0
-554 4306 0
-1081 -4221 0
-1514 3540 0
-177 -3379 0
2505 -1098 0
-4106 3250 0
1531 -455 0
-4617 -1949 0
986 300 0
2031 -2113 0
-415 1405 0
-4117 -593 0
-1776 -2108 0
951 -1917 0
315 2368 0
-1836 1523 0
2266 4712 0
-3763 -4633 0
3530 -1584 0
712 1399 0
928 4359 0
3893 -4144 0
-4031 377 0
4105 3395 0
-153 -3290 0
-391 -137 0
1167 -317 0
4378 635 0
-1689 -325 0
-4739 -4683 0
-2817 -1147 0
-1160 1531 0
4395 1617 0
2756 4179 0
3564 2701 0
-2738 3849 0
3583 -4342 0
-3604 4225 0
-3593 4319 0
-3117 -3722 0
-2015 702 0
3018 -2862 0
1596 -2709 0
1510 3736 0
3548 -2540 0
4351 1587 0
-3970 -1890 0
3008 -906 0
-99 962 0
-4679 1454 0
845 4380 0
-2878 -19 0
-2447 -3181 0
882 -4674 0
451 2964 0
-115 3713 0
3819 783 0
-3446 2409 0
3862 -1426 0
-4208 4470 0
1598 -1318 0
4372 -225 0
2659 -4542 0
-4703 4065 0
3541 -2340 0
535 -2844 0
1350 -4719 0
1924 -4326 0
-2981 -4237 0
-4242 -4711 0
-34 -2294 0
1685 -4402 0
-213 -1768 0
-3248 -3896 0
645 3311 0
755 -4280 0
-2415 4695 0
-4106 -1966 0
-4670 3242 0
2673 -3788 0
304 887 0
-679 3152 0
-3063 2122 0
-4369 2667 0
-354 -2166 0
1172 705 0
-3980 3231 0
-1313 -49 0
-342 -693 0
-2483 2680 0
873 257 0
4652 2083 0
175 2184 0
-1657 3886 0
-763 914 0
-28 3381 0
-3116 -2362 0
-1208 -2413 0
3281 1405 0
4163 -1365 0
2945 -3550 0
-678 2584 0
4282 -430 0
-3607 3141 0
924 -4375 0
762 -740 0
-2348 -4222 0
1221 -2802 0
-3050 -711 0
-2965 2905 0
-3651 2523 0
4465 4109 0
2877 147 0
1076 -3304 0
1459 1810 0
2448 -153 0
3009 -86 0
3402 916 0
4003 -3063 0
813 1147 0
-1038 -3739 0
2296 1571 0
2173 1176 0
1932 -668 0
-2036 2489 0
1271 -3398 0
3715 3549 0
-2726 -4118 0
4556 -243 0
-1242 -4665 0
287 -3617 0
3385 -3094 0
3554 855 0
2942 -1634 0
3969 -1658 0
4000 1370 0
785 -2926 0
968 -2772 0
1098 4128 0
779 2710 0
-243 -764 0
-2715 1370 0
2028 4693 0
4089 -2408 0
382 1250 0
-1311 2796 0
3958 -713 0
-226 2332 0
1571 -4073 0
-2504 -994 0
1998 -3951 0
-4334 -76 0
1478 4447 0
3183 3472 0
-2328 -3101 0
3861 -3508 0
-3959 3709 0
-3329 170 0
-3807 -4011 0
-4416 4418 0
3204 3629 0
-1186 1386 0
-2513 -3011 0
3760 -577 0
-2248 -812 0
3655 776 0
-4476 4329 0
3626 -2184 0
2966 -854 0
-2497 -4562 0
-3979 -4100 0
-4476 -798 0
952 -4241 0
781 1790 0
-2672 -4310 0
527 -730 0
-260 4468 0
398 -540 0
-1135 1029 0
-2776 2998 0
-3744 -208 0
2901 -4070 0
783 4109 0
3116 -3651 0
2031 128 0
-1206 -4545 0
-4694 -2697 0
2686 1129 0
1355 797 0
4455 1608 0
3885 3180 0
1275 -364 0
-2502 -1110 0
-2894 -3963 0
-2098 73 0
-3454 3252 0
-112 -974 0
-2846 -3296 0
-3856 2657 0
3201 3926 0
4659 383 0
2762 3634 0
-3864 -894 0
-2751 -4068 0
3376 -3178 0
-131 2022 0
4579 914 0
-506 -1268 0
-1128 908 0
1812 -2383 0
-2890 -2398 0
-4120 -700 0
3699 -4 0
1746 497 0
129 -962 0
236 3117 0
1481 -4703 0
-1496 1391 0
2848 4503 0
-517 4220 0
-2466 2745 0
-3860 3296 0
3786 815 0
-771 -4496 0
-2238 -1280 0
-1695 3547 0
-14 4585 0
-1063 2435 0
-4524 175 0
-2911 2712 0
4184 -2447 0
-94 -1898 0
2528 -1058 0
-1421 -788 0
230 -4358 0
695 -1649 0
4330 4405 0
3753 366 0
4326 1256 0
280 -2233 0
902 -3322 0
2038 3167 0
4292 -2404 0
4029 3385 0
7 -3960 0
-2026 373 0
3139 -4011 0
4266 -4381 0
-4716 -2105 0
3420 2774 0
3218 3851 0
4428 2851 0
2229 1216 0
-1467 2580 0
-1228 4623 0
-4250 240 0
-2475 -4630 0
-2255 -2879 0
227 -1223 0
4636 4517 0
4085 -2713 0
-1896 -3614 0
-119 -1366 0
4641 1532 0
-3446 241 0
221 737 0
-1701 -208 0
514 868 0
-137 2491 0
4173 -2599 0
1597 -376 0
-1048 -1802 0
4115 3890 0
4461 4307 0
-3380 3969 0
2635 4610 0
4732 -2656 0
-1215 1497 0
667 2748 0
-1279 -527 0
1631 2350 0
-2089 -4718 0
-1404 -2841 0
884 -1710 0
-1228 -3089 0
-1201 -4031 0
1083 1100 0
1935 -2762 0
-1574 -969 0
-1730 -970 0
-4572 -2341 0
-623 3690 0
3685 2639 0
-3664 -553 0
2280 -2242 0
-3658 -444 0
432 3649 0
-288 1806 0
365 -1325 0
-2092 4466 0
4352 -1763 0
-559 -321 0
3192 1376 0
-2333 3953 0
-3793 2416 0
2093 3977 0
-327 642 0
-1775 717 0
344 -4669 0
-1739 2727 0
3964 4468 0
3388 1827 0
12 -872 0
-4586 2418 0
-3488 -2588 0
-4063 3073 0
-369 -4319 0
3185 -4264 0
3507 1243 0
-1490 -3518 0
-1189 1664 0
3544 1034 0
4235 3094 0
516 -1629 0
1571 2532 0
-3060 -1279 0
1491 2829 0
1264 -378 0
2384 1498 0
4466 -2550 0
-1426 2548 0
-2507 -2662 0
-1440 188 0
1238 13 0
-4665 80 0
-3630 4047 0
3330 4468 0
3322 -2994 0
2007 1549 0
-111 303 0
3696 -3219 0
898 -2457 0
76 -4562 0
3739 57 0
1371 -2956 0
-3270 1630 0
-2220 2812 0
3207 3975 0
3381 4060 0
600 741 0
-2779 -2920 0
1976 4201 0
4582 -3869 0
542 2390 0
1087 -3861 0
461 -3977 0
-4593 -2052 0
-4538 2294 0
2883 -2566 0
-1632 -625 0
-1279 1752 0
2060 -2576 0
4004 -786 0
408 -3763 0
131 1598 0
-3807 1595 0
4211 924 0
-3615 -249 0
2289 3427 0
-204 -3928 0
15 962 0
1106 -1519 0
-1973 -3907 0
2230 3507 0
3485 1321 0
4095 -3345 0
-3536 3415 0
168 1944 0
-244 170 0
2059 3201 0
-1032 4449 0
-3368 1199 0
1067 -133 0
-2527 531 0
3492 627 0
2288 -4550 0
1021 -1150 0
-1144 160 0
-6 -4546 0
-2973 1415 0
2112 -4371 0
-416 -1962 0
-3503 4115 0
-3311 -1439 0
-3470 633 0
-1287 4462 0
-1756 -1138 0
-1301 -4191 0
-4517 1845 0
-3816 4458 0
-465 -1346 0
-3208 -203 0
2464 2278 0
3474 -2864 0
4011 2711 0
3449 -2207 0
-362 2644 0
2486 -414 0
4033 3544 0
4104 3330 0
3244 -3445 0
-1707 -427 0
1598 -162 0
-597 -3727 0
3023 -1908 0
1904 972 0
1070 -3133 0
-3464 835 0
-1181 -4304 0
1900 227 0
2394 959 0
1590 4127 0
-3661 -2356 0
-3881 -3433 0
-2365 4208 0
-4075 -207 0
-2254 1868 0
287 1778 0
-714 -2438 0
2738 163 0
4236 1304 0
-3091 4008 0
1373 2729 0
4635 -1851 0
3401 3826 0
424 2694 0
-1611 1428 0
-2552 2685 0
-4152 3937 0
-1589 658 0
625 -4220 0
-3091 597 0
-636 448 0
-3530 -2008 0
-4745 -3268 0
1076 1320 0
-4714 1966 0
-1152 -3639 0
-2279 -1399 0
-2724 -4377 0
848 1001 0
2528 1624 0
-3965 3018 0
3751 -1741 0
-372 2717 0
-2559 1376 0
-991 -1245 0
-4736 -2754 0
-686 -147 0
-4272 2979 0
-2215 3372 0
-2295 4619 0
3361 -3088 0
4494 855 0
-3725 -2299 0
4210 3811 0
1619 2375 0
95 -2504 0
2348 -2794 0
3551 -2618 0
4440 3612 0
-1954 2418 0
-1183 -3305 0
1481 1408 0
-1286 527 0
3529 2195 0
4425 -2432 0
-3331 1398 0
1690 -941 0
-2083 221 0
-2030 3836 0
-1469 4618 0
-2586 1978 0
-3395 2635 0
-351 434 0
-182 -3903 0
2730 4318 0
-978 1506 0
-4108 -3708 0
-2572 -4191 0
-585 -1918 0
-3961 3705 0
-4238 1402 0
2335 -2383 0
37 676 0
-4694 2264 0
-183 319 0
194 4739 0
-1765 329 0
4601 -1884 0
1003 2778 0
-2070 4749 0
4306 -2218 0
612 4473 0
2132 3047 0
2345 2819 0
-4437 1023 0
4103 -936 0
-3466 -4573 0
-2165 -2904 0
-1942 1764 0
3070 -3098 0
-219 -1904 0
855 -601 0
3975 2006 0
434 -2480 0
-2823 -2748 0
-2510 -3526 0
181 -1645 0
166 -3328 0
-599 -429 0
1918 -335 0
2903 -1461 0
1134 -4341 0
1967 3841 0
3934 165 0
-103 2477 0
575 98 0
-2467 -2581 0
-3027 2792 0
-3602 640 0
-2021 -4308 0
4265 -3732 0
1662 3288 0
-1610 -3467 0
-2469 2150 0
-4742 1211 0
-2462 -3045 0
2943 3038 0
1182 -2905 0
-518 2702 0
185 972 0
-4666 2579 0
-94 -541 0
1205 -1482 0
-4382 2068 0
2938 2971 0
-722 -1575 0
-1105 1139 0
15 -2733 0
3927 -4188 0
2583 3871 0
915 4042 0
-3123 -3368 0
-190 -1772 0
4379 -3568 0
-1214 497 0
4608 3900 0
2946 -1488 0
2398 3288 0
4755 860 0
3280 3585 0
4178 3172 0
2984 -4753 0
-359 -910 0
-1074 2173 0
2169 -2506 0
1820 -2961 0
-430 -1337 0
3094 3937 0
-3424 1638 0
-4494 -4516 0
4060 4166 0
-463 4316 0
2343 3559 0
4633 1593 0
-2373 -881 0
-2575 -532 0
3741 -2278 0
-4629 -4107 0
-4296 -260 0
1660 3950 0
70 4428 0
3239 -4022 0
92 4213 0
2753 1999 0
3007 299 0
1874 1283 0
1330 3720 0
-2940 -3903 0
-4287 -532 0
-2397 1072 0
1620 -4396 0
2345 -2333 0
-1380 -2415 0
-2640 -241 0
-4253 -1319 0
3567 3594 0
2956 1066 0
1410 -3010 0
3118 808 0
983 3587 0
-1513 619 0
1540 1678 0
3679 3595 0
1297 3308 0
-3504 -2367 0
3600 -1462 0
3239 -2586 0
2451 -2779 0
-2914 1843 0
-1472 -2524 0
-1080 1362 0
-1824 -821 0
-4417 916 0
-1163 -361 0
178 1013 0
1980 -3028 0
3362 326 0
-3130 -935 0
1029 -3974 0
1335 1263 0
2566 4236 0
-4742 -4430 0
-1727 -4641 0
2367 3617 0
961 3952 0
1675 3721 0
1311 2601 0
1510 2 0
1049 3452 0
-4425 -3002 0
-4614 2689 0
13 4733 0
-2963 199 0
2046 -2383 0
-2355 -2465 0
1093 2627 0
-3724 -4313 0
-575 3179 0
-2157 -1885 0
3846 4437 0
1231 -2293 0
4459 2634 0
-3793 -1891 0
-3992 -1727 0
-1107 -1486 0
-4345 2301 0
-787 -106 0
4383 3502 0
3463 -2377 0
-2427 1771 0
-3246 3003 0
-4554 -1726 0
1835 -305 0
-1390 3022 0
2458 -3205 0
-2739 -2781 0
1517 2653 0
-1024 -750 0
-3681 -113 0
3653 -2408 0
-4609 4569 0
1121 -815 0
-2534 2453 0
3565 -4564 0
-2998 -1857 0
-3454 938 0
-2521 287 0
3582 -448 0
-983 812 0
2955 1897 0
-540 3807 0
3587 4487 0
-4472 1150 0
2059 -1007 0
4511 -452 0
-2921 2902 0
-733 326 0
-653 -4344 0
-2678 2812 0
-3273 -3502 0
826 1261 0
329 816 0
875 -922 0
598 2498 0
-2620 -1134 0
3099 -514 0
1778 -4509 0
4463 3449 0
-2690 257 0
1582 4702 0
2642 -4340 0
1267 -4090 0
-2581 -2667 0
-3763 3226 0
-165 -1938 0
-4275 4268 0
21 777 0
-320 4143 0
-4441 1153 0
2929 132 0
4671 -2042 0
4335 104 0
3148 -3211 0
-4751 -4164 0
-3523 -3844 0
-3546 -1380 0
-3763 -557 0
2947 -4084 0
-1851 3791 0
-1096 2117 0
2758 3405 0
-3951 4522 0
-1353 3118 0
-4739 945 0
-3799 4308 0
-4690 2674 0
-4562 -4302 0
1939 -1875 0
961 3828 0
-416 1375 0
122 -936 0
-3366 -943 0
367 96 0
648 592 0
2416 4054 0
1055 -383 0
-917 -2238 0
-2733 -2263 0
3285 1221 0
3877 2275 0
-2339 2178 0
-3419 -2158 0
2876 -2891 0
2142 2812 0
299 1993 0
3045 -1310 0
-4231 -4460 0
-4639 1331 0
4461 4055 0
-1068 1454 0
1993 -1151 0
-4458 3304 0
880 3073 0
1687 -1525 0
2951 -3830 0
-2445 -94 0
2060 1555 0
-1686 1249 0
-131 3882 0
4735 158 0
1683 -2348 0
836 -2805 0
2672 3242 0
-1562 -179 0
-3433 2640 0
-3583 -1067 0
-267 2742 0
4050 -3727 0
839 4262 0
2780 1465 0
-3095 -1791 0
3386 3044 0
4363 -2777 0
642 2739 0
3031 1330 0
979 -4685 0
-4458 237 0
-3859 4537 0
59 -1472 0
791 4682 0
-1625 2379 0
-4665 3380 0
-2970 -4498 0
-4280 1062 0
4491 2424 0
-3339 -169 0
3679 -3771 0
-3454 -830 0
-1721 -4147 0
754 -880 0
-422 -2897 0
3186 -1576 0
-1255 -509 0
3017 3900 0
-231 -898 0
3956 -246 0
-1951 -3842 0
2845 -2866 0
4588 -1419 0
4754 -874 0
-1700 -3195 0
4727 1161 0
1582 4261 0
4352 3554 0
-449 -3040 0
2949 -465 0
-4555 -820 0
1734 4254 0
-4516 3300 0
753 -3574 0
4566 2538 0
-176 -2250 0
1789 -4031 0
-3449 -3211 0
-1380 -3502 0
-1514 120 0
-402 4404 0
-2702 730 0
-1772 -1359 0
142 -1093 0
831 4401 0
-4129 3535 0
1008 -735 0
-2341 1383 0
1110 1558 0
1730 894 0
2472 -1190 0
1914 -3673 0
-3677 -3019 0
-3716 -2480 0
2931 2743 0
-708 821 0
209 -927 0
2731 -2664 0
-2586 -1459 0
-28 -1040 0
-3606 -671 0
2287 4728 0
-1973 1202 0
-1433 -4135 0
-3510 4550 0
-352 3350 0
-166 4405 0
2630 -962 0
-3396 1022 0
-2774 3609 0
-1113 -4000 0
-2767 -3971 0
3203 4109 0
4270 4572 0
-4218 -2484 0
1798 -2011 0
2639 4509 0
-3620 1139 0
-77 1361 0
-755 -3213 0
-1710 2083 0
-4412 4157 0
3401 750 0
-3828 -2578 0
-1007 -2825 0
-1863 -2550 0
1680 3822 0
-1991 -1753 0
-1804 -2652 0
3760 -411 0
-4206 132 0
-1159 4677 0
-2643 3390 0
-1149 756 0
-829 -427 0
-1748 -2480 0
-927 2683 0
-3946 4116 0
-2944 2664 0
2401 -1978 0
4228 1087 0
1897 -2538 0
-2015 2425 0
1495 3390 0
-1621 -594 0
1688 -3492 0
3969 3308 0
-2549 -4099 0
-501 2806 0
341 -330 0
1844 -1390 0
-4090 4482 0
2378 -3068 0
510 838 0
4188 -2768 0
-568 1891 0
4401 -255 0
3006 1775 0
1056 3939 0
-12 -1356 0
2773 3453 0
-1176 -1432 0
-2017 1875 0
4089 3399 0
-2551 4730 0
-1020 3513 0
-2186 2769 0
1385 3495 0
3733 3733 0
-1751 1847 0
-4332 3101 0
2569 -2194 0
-4237 2192 0
3242 2358 0
2930 -372 0
-2757 -4755 0
4470 -2241 0
-984 3858 0
1667 -1097 0
-2982 2236 0
-419 -3715 0
-3189 -3981 0
-195 901 0
4648 1528 0
-2349 3537 0
-970 639 0
-4659 -1671 0
-2497 4339 0
-4351 2390 0
-4674 1790 0
257 2410 0
-4577 2827 0
1276 -1603 0
1151 96 0
-4444 3912 0
-1871 -941 0
2706 2708 0
3558 2376 0
-1430 -4603 0
-1878 1777 0
-3831 3742 0
-2155 -4483 0
-1928 -1755 0
-1892 -1219 0
1923 319 0
1804 1609 0
-385 -3517 0
3558 -708 0
-4402 4499 0
3498 -3219 0
307 -2176 0
-19 689 0
3942 959 0
1232 -2696 0
1543 2910 0
-1711 -3743 0
4459 2690 0
-1545 -4243 0
-157 -3803 0
-2009 -1896 0
-1336 4129 0
-1686 -3530 0
3200 -450 0
-1028 1414 0
918 660 0
717 -4100 0
-4386 4022 0
-4692 4558 0
-1547 1696 0
835 -3605 0
-3729 -440 0
-3482 431 0
-3476 -4453 0
574 1031 0
-418 -4218 0
-3433 593 0
2065 -4755 0
3036 -769 0
2508 1265 0
1012 -139 0
-4421 -3880 0
4680 -163 0
4619 -1595 0
-295 -4403 0
-3733 -4272 0
-3517 -601 0
-2670 -4079 0
2515 -2852 0
2390 2241 0
4532 465 0
1949 -4362 0
-1114 1124 0
-1622 -2040 0
570 3291 0
-3432 -3127 0
1732 -2199 0
458 3074 0
341 -777 0
1653 4154 0
-440 -3582 0
-2922 2771 0
-1346 -2074 0
2066 -4607 0
-3432 2796 0
-1615 -3183 0
1577 4619 0
-2320 1405 0
3423 3990 0
-3374 -1896 0
792 -2940 0
-3664 -2145 0
3975 3014 0
-1937 -2200 0
-3290 -2055 0
3729 3561 0
406 2690 0
-3752 3308 0
-3912 1934 0
4459 -3697 0
-1749 -2327 0
-159 633 0
3625 -3063 0
-1596 -3798 0
4448 2560 0
2840 756 0
-3120 -2599 0
720 2099 0
1079 4388 0
3107 534 0
-3524 1877 0
1992 4271 0
339 3039 0
3778 4180 0
-1432 2229 0
-3457 -2134 0
-1927 1342 0
-2887 -3994 0
3953 180 0
-1647 -4115 0
4226 1620 0
3026 266 0
629 -2789 0
3387 -761 0
-2966 4282 0
-2754 -2028 0
2164 4634 0
2942 -626 0
2485 4172 0
-4030 -3459 0
1892 -1452 0
1004 117 0
2460 2537 0
445 2994 0
2241 1201 0
2704 -2787 0
-2586 -3778 0
-3601 4524 0
-3602 -3584 0
-3255 2774 0
1703 -3061 0
1682 2810 0
4502 1836 0
537 1254 0
3394 4633 0
591 1482 0
3493 -4613 0
-3360 2571 0
-2771 1385 0
3943 -1578 0
4168 3258 0
-3630 -706 0
-872 3691 0
-929 4373 0
2028 572 0
-3393 210 0
-2252 4330 0
3510 -3352 0
2614 -3807 0
-2223 -327 0
-1579 -2557 0
-2946 2028 0
2211 2203 0
3317 -1295 0
4537 -1041 0
-2192 -2211 0
-3540 995 0
1058 1115 0
-2822 -2825 0
-1636 4644 0
2287 3809 0
-2418 -3957 0
1110 1474 0
11 -646 0
-3854 4444 0
-2954 -4194 0
-653 3329 0
764 -736 0
3284 909 0
4142 4559 0
2577 -4023 0
-3109 201 0
3644 -1505 0
2725 -1054 0
3875 2135 0
4640 2150 0
3335 -480 0
1638 -3310 0
76 -843 0
-1700 -1435 0
3479 -4707 0
823 653 0
4175 3639 0
-591 356 0
2122 -2838 0
-4371 -919 0
-2740 3826 0
894 -2005 0
-4534 -3165 0
2666 -2791 0
3785 -3407 0
-1610 1657 0
-4270 -1097 0
-2879 4354 0
3072 -66 0
-1168 -2987 0
-216 3700 0
4263 2046 0
392 -2546 0
-3739 2245 0
-1056 3614 0
3925 -3389 0
4253 -2905 0
2023 -4755 0
2560 -2269 0
3541 542 0
-2762 1246 0
-3874 4617 0
1957 -2415 0
3931 2205 0
-202 3680 0
-2432 2750 0
-1113 -2298 0
-871 3723 0
3560 83 0
-3307 -3157 0
-481 -1088 0
-4571 -905 0
1899 3374 0
2858 256 0
1798 -1679 0
2573 2498 0
2996 -1922 0
4114 401 0
2826 2309 0
3229 -134 0
-2573 198 0
-2699 -1812 0
-291 481 0
-2105 1019 0
-4597 4211 0
-686 -3860 0
869 2862 0
-4328 388 0
990 872 0
2452 -1374 0
-3444 4144 0
-2450 3059 0
-1480 -4751 0
-3799 3202 0
-3082 -2253 0
-3756 3392 0
-315 -2873 0
-2489 -1090 0
3047 2681 0
3577 -2860 0
-2908 1876 0
3151 -1979 0
645 -2405 0
-503 -1890 0
819 19 0
-4478 1008 0
3977 3494 0
-2218 2913 0
2215 -910 0
-1034 553 0
-920 -4212 0
-2626 2020 0
-1955 893 0
4008 3318 0
-4131 -270 0
-4486 -1294 0
475 -4470 0
-3335 -3135 0
4119 -3551 0
-1295 -4347 0
-4245 4125 0
1267 -2782 0
299 -4640 0
-177 1766 0
-1543 188 0
2737 -3221 0
3306 -1521 0
-4028 1501 0
230 4054 0
-3067 -4746 0
4142 1287 0
1794 -1124 0
168 -909 0
1791 -4361 0
3877 700 0
-412 1207 0
-4218 2438 0
-3160 -1323 0
4228 2464 0
-3151 -4489 0
-4021 -352 0
3888 3385 0
-681 4661 0
3539 -691 0
4364 3135 0
-3068 -1863 0
-255 -1992 0
-1935 1420 0
-2975 -740 0
-621 -4584 0
-3787 -4455 0
1266 -1134 0
3122 1613 0
1531 4255 0
675 1768 0
-2200 -133 0
4660 -984 0
-4588 -108 0
1158 422 0
-3808 2873 0
-2677 -1038 0
-4648 -3336 0
-3459 -4196 0
3925 -227 0
4661 807 0
2298 -1971 0
-3015 868 0
-425 3752 0
-2230 3473 0
-3263 517 0
-3032 209 0
-1964 2752 0
-3836 1398 0
4329 888 0
-3432 -3950 0
-4233 2508 0
453 861 0
2778 2976 0
2976 -3777 0
-636 -3133 0
1353 -2733 0
-3988 -982 0
3752 3297 0
-3088 4529 0
-2332 -186 0
3966 -1850 0
-3503 1544 0
-3043 -1496 0
-219 -2150 0
1646 1468 0
-3524 -2310 0
1341 2062 0
-1744 -140 0
-570 -361 0
-3974 -4707 0
-1952 -1872 0
1638 -3853 0
-1078 3638 0
2790 -4631 0
2480 -2321 0
4338 -30 0
-2700 2128 0
2202 1205 0
4731 2025 0
3655 1413 0
2621 -936 0
3207 1747 0
718 -3199 0
-1700 4312 0
2359 -500 0
544 726 0
-3252 -2527 0
-2513 1058 0
2300 4297 0
-3267 -2026 0
3902 2543 0
-2825 -3491 0
4269 176 0
-1815 3303 0
3428 629 0
4535 3656 0
-3153 1915 0
3142 4027 0
-3679 -377 0
-4571 -2602 0
2258 4151 0
2568 4633 0
2063 3861 0
2941 -308 0
804 3552 0
-4012 2823 0
-2186 -3889 0
-2268 -727 0
-3134 3079 0
2135 -3139 0
-23 -1184 0
2799 -628 0
-201 4303 0
3755 4593 0
-781 -899 0
-524 1572 0
3485 4172 0
-2819 -2463 0
-966 1438 0
83 687 0
875 3512 0
816 -1510 0
-3033 1629 0
-4013 4590 0
-554 -1855 0
3141 3614 0
1680 1320 0
1381 -108 0
3202 3774 0
1941 2519 0
-1705 -4083 0
1519 -1840 0
-3682 -3506 0
2771 3867 0
-3535 2456 0
-2400 2730 0
288 4308 0
4421 2694 0
-694 1194 0
4597 -3426 0
-1462 1012 0
1153 -641 0
2724 4211 0
3878 -284 0
1288 -4388 0
2765 1757 0
-2564 4699 0
-1791 63 0
-4360 2106 0
-1565 -4655 0
-722 1909 0
-1734 -504 0
2896 3952 0
-584 2852 0
4395 -4044 0
3744 143 0
4208 -2921 0
2061 -2655 0
-3011 2382 0
1338 -3739 0
3534 1616 0
221 1297 0
392 -1018 0
4298 2931 0
-2441 -686 0
249 3933 0
715 638 0
-274 -3963 0
-4219 -1520 0
3098 -3275 0
-208 -938 0
-1124 -135 0
3042 3783 0
-3292 4457 0
-4189 -1346 0
-3095 -3339 0
3228 1108 0
-4293 -4674 0
3280 2654 0
4100 -3488 0
4649 -1096 0
-4463 4254 0
-477 -216 0
38 52 0
-688 466 0
-446 -656 0
-217 -2622 0
-4454 2977 0
-4205 2389 0
462 4113 0
-4514 497 0
3506 204 0
2246 1380 0
-4217 2060 0
667 -2619 0
3541 -3293 0
-1158 661 0
-3676 4470 0
-1161 -850 0
-4352 -3356 0
-3606 -2361 0
2637 -1963 0
436 1656 0
-363 -3118 0
2409 3563 0
-3492 -2181 0
-4458 914 0
2985 -3968 0
525 635 0
-3259 4304 0
4260 -1791 0
593 -4490 0
-4575 1296 0
929 -674 0
2582 2274 0
-4665 -913 0
-3869 -1049 0
4614 -2984 0
-672 3686 0
-504 -4204 0
-1345 3287 0
-3800 -4480 0
13 4132 0
-1918 3549 0
-3081 2780 0
4614 508 0
2373 1683 0
1366 4655 0
-160 2346 0
-1743 -1519 0
791 -2859 0
2870 -596 0
-1876 3456 0
-3716 -924 0
-77 3863 0
-208 2037 0
477 930 0
-3108 4593 0
-1981 -4684 0
-3182 1721 0
897 -2172 0
-3034 2100 0
-45 566 0
704 -1741 0
-927 167 0
3462 3451 0
-4640 4325 0
3555 -133 0
-982 -3889 0
4125 864 0
-4073 -3505 0
-290 -640 0
-4575 -3320 0
4174 2971 0
-4405 2531 0
-1274 447 0
2832 1529 0
3045 1656 0
-2878 3126 0
-2803 -807 0
3309 -2995 0
-3294 2281 0
2374 -4351 0
405 3571 0
2797 -3272 0
-3755 -3366 0
-1955 2135 0
-4358 -2709 0
-2071 1641 0
1501 3860 0
-1744 4091 0
3625 3470 0
1495 1087 0
-1601 -4275 0
-2761 3239 0
-2355 1487 0
739 2523 0
-3454 -137 0
4576 2887 0
465 -2087 0
1932 3092 0
-365 -1206 0
-2076 -3605 0
516 -1024 0
-2183 -811 0
-1278 -3967 0
-3209 -2469 0
3281 -3477 0
-3331 -502 0
-991 -1989 0
-3277 -4711 0
-550 991 0
1751 3733 0
-4280 2294 0
2114 562 0
-3025 3193 0
3332 3532 0
-3446 -4356 0
1231 101 0
-508 -3446 0
-2504 4295 0
1822 2843 0
-391 -830 0
-666 3569 0
-81 3066 0
1208 -3962 0
-594 -1640 0
836 -2515 0
1769 4158 0
-1611 4288 0
-1944 -1074 0
-4077 1480 0
-472 392 0
-4747 -3182 0
4197 1038 0
4140 -4052 0
-4605 -532 0
-3445 -4445 0
4390 718 0
3923 -1491 0
2606 -3331 0
-1154 -4231 0
4321 -1681 0
3321 -4449 0
-1445 -2049 0
552 1229 0
3925 -2624 0
4299 -694 0
-737 210 0
-2214 -968 0
-3590 -1513 0
2533 -3714 0
2041 -4069 0
-2304 -2923 0
-2994 4717 0
-4606 3421 0
2057 -2071 0
885 -2314 0
1832 4370 0
-798 -3721 0
3272 4276 0
1827 -2764 0
128 2917 0
-3781 -1793 0
-99 3697 0
4404 -2598 0
-3394 -2828 0
-2622 -2406 0
1071 -1446 0
1498 -3638 0
-3855 1270 0
-1666 2882 0
-1457 417 0
3159 -534 0
4737 -1441 0
-735 -4188 0
-4181 -172 0
-2252 1514 0
3600 -1046 0
-505 -121 0
-3807 2838 0
1730 1470 0
-2261 2842 0
-1118 -4068 0
-108 4206 0
-3922 4630 0
-4403 -3545 0
3218 -2989 0
638 -2551 0
-4712 -989 0
4254 1916 0
-3035 -184 0
1123 4627 0
3791 -3188 0
1795 -4241 0
-1826 524 0
-2112 2585 0
751 343 0
-2807 -565 0
-594 -3928 0
1107 -4387 0
4332 3626 0
-4132 -2768 0
164 -3720 0
-347 4720 0
1703 -590 0
-471 947 0
1725 -864 0
-2920 -4455 0
-1585 -150 0
-1732 -1220 0
-3091 3024 0
-1951 -452 0
703 129 0
-1331 -2491 0
-423 -4123 0
1660 2728 0
-2607 -4534 0
4479 -4321 0
-3099 -297 0
1052 2163 0
-1369 -4205 0
3720 -3311 0
4379 -1009 0
-2408 -4431 0
-3770 -72 0
-4598 -651 0
-1737 1255 0
-1752 4146 0
1125 1796 0
-115 4377 0
-4124 -1462 0
2916 1691 0
4479 -4531 0
-13 -3639 0
2142 -4015 0
-4196 -2788 0
4568 2204 0
-3478 506 0
1623 3405 0
1766 -4545 0
3405 2969 0
-2929 -1406 0
-982 1602 0
2817 -2992 0
-1314 -3825 0
-2377 -727 0
-3951 1873 0
165 4702 0
-1651 3122 0
-2515 -1956 0
-3082 -4477 0
-688 -2200 0
4557 1765 0
-4436 -2517 0
-265 -838 0
-2919 -1841 0
-4721 4092 0
2208 4370 0
-1676 1803 0
-1993 1495 0
4209 359 0
-1139 -3827 0
785 -1748 0
2726 4354 0
-585 3898 0
4011 -4546 0
151 4144 0
4217 2146 0
1893 -1261 0
-1206 3474 0
4709 -1720 0
2132 -3566 0
55 -1750 0
582 -564 0
-2079 3259 0
2002 -1107 0
2388 -4403 0
-2143 -165 0
3689 2205 0
-3431 4569 0
3087 1215 0
1830 -333 0
-4680 3126 0
1822 4444 0
-3835 2048 0
2480 -4508 0
4053 1340 0
-830 -1966 0
2347 2092 0
963 -3146 0
-3662 3500 0
-1946 -3348 0
-3148 -1747 0
-1589 -4147 0
3171 3138 0
4063 872 0
2455 -4633 0
4449 1117 0
-418 -2858 0
-1955 2708 0
-2945 1051 0
-1452 1243 0
3468 -2482 0
-3339 1781 0
2443 475 0
2110 -727 0
-2903 -469 0
-4122 4379 0
3862 3579 0
-1670 3453 0
-4581 -1412 0
-1000 1244 0
-731 -1959 0
-922 -1178 0
3125 1319 0
-68 615 0
-1402 3783 0
2265 -2795 0
-939 372 0
535 2442 0
1624 2263 0
2181 4615 0
-1797 -3436 0
-1584 4473 0
-1812 -690 0
1516 621 0
-1487 -227 0
-3282 -3947 0
-3904 1507 0
2305 1852 0
-1982 -1421 0
-4108 2393 0
-2697 1872 0
-208 574 0
-1228 -3082 0
3145 -4218 0
3605 11 0
-4702 3701 0
1435 1697 0
-2201 -2443 0
-735 2429 0
-3589 -3980 0
37 433 0
3005 2626 0
4289 -2785 0
-531 -4297 0
1191 4428 0
-269 3383 0
-1476 3610 0
-4645 1084 0
-1743 -3298 0
-2719 474 0
1505 3603 0
1650 -2111 0
864 3155 0
4568 531 0
2642 1410 0
-512 -4571 0
-2372 1760 0
3067 -4294 0
1606 -3355 0
2551 4646 0
527 2272 0
-3353 2828 0
3141 -1338 0
2723 -3103 0
278 -3271 0
-2645 2327 0
-4378 1283 0
317 3102 0
-2284 2554 0
-1524 2977 0
-316 -3141 0
1453 3871 0
4237 -3219 0
-4377 3255 0
-4108 1119 0
4731 -1718 0
1163 -1584 0
-3038 -1521 0
-2570 1953 0
-3506 3898 0
1198 -1711 0
3912 1503 0
-3523 -2927 0
1938 289 0
1733 -1816 0
818 4077 0
2343 -554 0
1819 -4573 0
-3812 2440 0
-1318 1542 0
4495 4306 0
-4681 -1343 0
-1752 57 0
-20 4513 0
3729 2015 0
-3909 1140 0
-2794 3519 0
392 2356 0
-3562 566 0
2312 134 0
604 -1038 0
-2108 600 0
1592 2438 0
4696 -3216 0
3735 -1767 0
-3062 -1451 0
-3175 3982 0
-25 -3008 0
-4162 2347 0
2543 2435 0
1002 -2523 0
2757 -1478 0
-985 2640 0
1185 -2512 0
-4194 -38 0
-63 -1268 0
-4275 -4217 0
-934 3619 0
-1558 -3886 0
-4396 1737 0
3987 3849 0
4549 -4117 0
3245 -3734 0
4117 3796 0
4640 434 0
-1971 -4484 0
1761 954 0
-4743 344 0
3685 -1699 0
3865 2403 0
248 1626 0
2312 -3854 0
-2970 300 0
1129 2352 0
-73 3078 0
-519 2975 0
2554 3885 0
-2950 -1992 0
3332 3766 0
3272 948 0
-2687 -2837 0
-4254 1326 0
1236 -3521 0
1933 1717 0
2627 -4232 0
-439 105 0
531 752 0
-2409 308 0
-4490 138 0
-2965 2312 0
3982 -3346 0
-646 -1995 0
-2662 -905 0
-658 1497 0
4619 78 0
3297 -2394 0
2821 -1441 0
2757 -1183 0
-1038 -2015 0
964 220 0
-731 -3820 0
-1123 -2313 0
-4740 2538 0
-65 3531 0
-199 4610 0
4040 -3215 0
-1032 -3326 0
1022 -774 0
4270 -4466 0
-15 3775 0
-3127 3975 0
-713 -705 0
2238 -3631 0
-364 1714 0
3290 4103 0
-928 -2383 0
-3669 -4608 0
-524 -2047 0
-3642 2698 0
-3663 -4172 0
-2772 3404 0
2849 3563 0
4737 2182 0
-2190 3697 0
-2606 -1654 0
185 4368 0
793 4490 0
-489 4404 0
4701 2219 0
-3671 -3990 0
641 -3842 0
-1223 2527 0
1385 -3011 0
2346 -4461 0
3585 781 0
4189 -2950 0
-1944 -4274 0
1355 3891 0
-2910 3508 0
54 -2227 0
-4545 -2871 0
4609 1129 0
-1984 833 0
-381 -4436 0
-2128 -4464 0
4433 1559 0
-184 1960 0
4512 853 0
4255 -598 0
-2786 -2680 0
2500 1207 0
113 -94 0
4620 36 0
-1753 -4719 0
2814 3701 0
4709 -4677 0
2176 -1311 0
-1965 2752 0
-4120 -2034 0
-1962 -715 0
-3341 1137 0
-563 1682 0
1785 3425 0
409 -1654 0
2862 72 0
-3682 2637 0
1713 -203 0
409 3495 0
-1908 41 0
3913 1297 0
2764 3779 0
716 -1702 0
-2273 -300 0
3580 2877 0
-4599 -1000 0
1282 -3772 0
2262 2130 0
-710 1806 0
3785 3884 0
-3050 -2469 0
-318 340 0
2580 996 0
2521 -1080 0
847 -881 0
-2484 1064 0
2848 4214 0
2271 3390 0
1789 3915 0
-2406 -4477 0
-202 -2071 0
-2445 -3652 0
-4075 3313 0
-618 -2884 0
2476 -18 0
-2488 -2085 0
4233 -343 0
4023 -2739 0
2308 3225 0
-3700 1758 0
-330 -2794 0
-158 -673 0
694 1593 0
-2240 -4525 0
-4065 4620 0
2206 -4223 0
-2257 922 0
-3722 2365 0
1666 -998 0
-2582 3075 0
1098 -1773 0
1158 -2582 0
-2228 -616 0
-4218 3708 0
-2662 528 0
-1666 -2965 0
-3081 -1850 0
-3068 1948 0
3584 2809 0
-4544 -4597 0
502 -3180 0
4715 2938 0
1123 4001 0
-564 1030 0
3526 -2463 0
-3928 -2613 0
1859 -1908 0
-4652 3620 0
1948 667 0
-1733 1369 0
-1698 -867 0
-3564 1782 0
-177 1328 0
4517 3695 0
-153 1728 0
-3818 -2460 0
2708 -1733 0
1713 2848 0
-3924 -3573 0
2862 -216 0
-1607 1485 0
-2187 -4006 0
-220 338 0
-44 33 0
-1800 -1878 0
-117 -3221 0
-3381 185 0
1681 645 0
3449 2054 0
-3268 -3056 0
-1505 301 0
-113 -102 0
2085 2163 0
362 3130 0
-2461 -721 0
-872 268 0
1738 1784 0
-4481 1557 0
-721 1728 0
-3926 -3538 0
2093 3509 0
2935 -828 0
3826 298 0
-152 -3635 0
2749 4163 0
1208 -3931 0
-3786 1041 0
-4167 -1663 0
2246 4313 0
-600 2354 0
-3529 -301 0
3838 4206 0
-620 -3499 0
-4076 -3570 0
-1741 2051 0
1348 -3915 0
-140 -1814 0
-1979 -17 0
1415 -2733 0
-2184 -2147 0
478 405 0
1663 -1199 0
-2610 -3076 0
4169 832 0
-2524 1706 0
-1186 -4634 0
-2392 4592 0
3922 3863 0
-3728 -2103 0
2141 95 0
-3604 3441 0
3468 2375 0
922 1931 0
3383 95 0
-1351 -933 0
-2409 1346 0
-987 -1647 0
920 2314 0
2881 1421 0
-942 2503 0
-1170 -3764 0
-4065 628 0
-2566 -3497 0
652 733 0
-94 -1175 0
-1964 561 0
1056 -3075 0
3105 -2235 0
1616 324 0
1963 -2231 0
962 4143 0
1212 245 0
2700 -403 0
1635 676 0
3906 3829 0
-1351 4674 0
-2846 -2286 0
-3336 -1421 0
-2936 -1907 0
4010 1003 0
-4504 1781 0
-485 -1328 0
2164 -1637 0
2540 3428 0
-3198 -1284 0
-3480 -514 0
309 2103 0
-1346 -2005 0
-622 2440 0
4590 -3194 0
-1561 3618 0
-2378 -4686 0
1409 -1154 0
2918 4048 0
-3396 3429 0
1266 2608 0
-1343 3538 0
4735 3800 0
1204 -4121 0
-2197 2816 0
1276 2387 0
-944 2307 0
-4508 3714 0
1655 -2554 0
-4463 -636 0
1431 2474 0
4541 -1947 0
-2699 642 0
-3935 -3077 0
445 -3371 0
3481 903 0
2332 -738 0
-1435 -82 0
4728 -1403 0
-3406 2193 0
-2822 -216 0
3108 -639 0
3895 -239 0
-1823 3373 0
2066 2511 0
-1505 1771 0
-1212 -2771 0
958 2073 0
-1253 52 0
-2296 -179 0
-1464 405 0
3790 -46 0
-2269 2149 0
3386 4229 0
374 -509 0
-989 -3569 0
-22 3914 0
-3572 4256 0
1386 -657 0
3800 -2042 0
-3812 1173 0
2475 -4271 0
-4238 2630 0
-2172 -2232 0
-2221 -997 0
3629 997 0
166 -3000 0
4185 517 0
35 3494 0
528 -1366 0
-2358 -2784 0
-3188 -23 0
2457 -3908 0
-342 -1485 0
2150 -2327 0
-1433 -2703 0
-2430 -4544 0
2661 508 0
1210 278 0
-4510 -4752 0
-1344 -3050 0
2097 -214 0
1958 2693 0
3042 -3449 0
-3658 -1209 0
-1606 -1964 0
-3545 2484 0
-3169 -4639 0
1831 -3263 0
-2000 1770 0
-2108 4511 0
-689 3655 0
1692 -3275 0
2912 -4711 0
1456 -1639 0
343 -2355 0
-4111 -2394 0
968 -868 0
1572 4562 0
4740 1599 0
2635 2330 0
-4271 371 0
-4484 3127 0
-2400 2257 0
-634 -3675 0
3423 -4476 0
317 -709 0
-4589 -4487 0
-247 1602 0
-2478 -3362 0
4093 -4491 0
-3606 -2513 0
2836 -4525 0
3191 -289 0
2976 -80 0
1150 -4214 0
3408 -4184 0
4556 -501 0
-1408 1828 0
4083 3199 0
943 3238 0
-4218 313 0
-1710 3058 0
-758 2356 0
-2392 2326 0
-883 -3739 0
1881 -888 0
-146 -3798 0
2313 3800 0
3716 -238 0
-4337 666 0
1464 3985 0
-541 -1888 0
2883 -2009 0
-3485 -4550 0
-1414 -4108 0
3640 1564 0
98 3622 0
4373 -139 0
3649 -2388 0
-3450 4630 0
-1080 -535 0
-2489 -2237 0
-2629 269 0
634 -4674 0
4138 -3362 0
-2339 -1170 0
2532 1886 0
-2600 -3339 0
-2888 3568 0
-3863 -1153 0
-2972 -3431 0
-459 -4651 0
-2966 1725 0
-2632 -1203 0
455 -863 0
1925 1119 0
-2912 3203 0
566 484 0
480 -4146 0
2285 -1913 0
1581 1926 0
-2570 1285 0
1646 1854 0
-4022 1197 0
4159 -1683 0
-3893 2470 0
-1191 3348 0
2738 -2232 0
1157 -3481 0
2167 -1434 0
-3358 -3012 0
406 -2224 0
-1974 4275 0
995 4417 0
3042 31 0
-3835 3063 0
-2024 2402 0
-3988 1422 0
-3488 3565 0
2771 -3453 0
2186 -4340 0
4718 4346 0
1140 -2778 0
3816 4732 0
2326 2132 0
267 1361 0
3185 624 0
-4068 920 0
3105 -4154 0
-3277 2520 0
650 4751 0
4406 -3647 0
-1011 1023 0
-2294 -1373 0
2446 3347 0
-1132 3734 0
-3607 -3010 0
-3310 767 0
-4546 -1531 0
-3766 3486 0
124 -1621 0
3405 986 0
-4490 1718 0
130 3441 0
-3195 4191 0
-2962 2097 0
438 2602 0
-15 -2421 0
-3640 -1644 0
-3686 -2315 0
-2415 -1804 0
3374 36 0
-2735 -3587 0
-1369 -4676 0
-2106 4123 0
-26 3106 0
4654 -890 0
4046 -4104 0
380 3185 0
299 375 0
-2237 3049 0
-4655 -4234 0
-1732 -2177 0
-4605 -4333 0
398 4416 0
3565 -4674 0
3583 -2989 0
-1690 -2994 0
-2654 3534 0
4178 2752 0
-3263 4687 0
2785 2803 0
3100 55 0
-2036 3383 0
2080 3845 0
103 604 0
2149 -3872 0
-2113 -3611 0
-1978 -3300 0
-3613 -748 0
-4258 2288 0
-1249 -3082 0
-1374 -2774 0
1172 3223 0
1016 3291 0
3320 4270 0
2691 136 0
1361 1359 0
149 3265 0
2152 -2327 0
1775 2680 0
-4133 -1214 0
-4010 1797 0
625 3099 0
1243 3442 0
609 1789 0
-2888 5 0
-4571 -2853 0
-1054 4487 0
4213 -425 0
1778 40 0
2009 3993 0
1762 -2411 0
3040 -2666 0
2917 2540 0
-1966 908 0
-907 -1119 0
-229 -196 0
860 1070 0
-1262 -4092 0
-3338 -4398 0
3746 -2353 0
-2483 104 0
-1654 3225 0
3044 2426 0
694 1897 0
-2701 2839 0
-3488 1965 0
-4745 -2011 0
1490 4632 0
2987 3450 0
-4023 -1083 0
3792 4531 0
-1790 1788 0
1350 -1838 0
-4280 -3203 0
-3184 4028 0
-4554 770 0
-2807 -4030 0
1146 -342 0
-1463 -1277 0
3046 974 0
3398 -2577 0
-1063 -3654 0
2449 -2203 0
-1296 -2981 0
4208 -1488 0
589 814 0
3093 -16 0
-2157 1589 0
4460 -1010 0
-2551 3249 0
2020 1011 0
-4753 1298 0
4668 -4193 0
-2832 -2021 0
453 3687 0
-4714 290 0
-2891 -812 0
1629 2775 0
3519 -4007 0
-1432 -861 0
4051 -3684 0
3891 3878 0
4011 3173 0
-4246 -4315 0
-135 2866 0
4706 2093 0
-4467 -4102 0
1674 3055 0
-2773 -2338 0
4019 -2121 0
3272 1301 0
173 3691 0
2615 -4693 0
1528 -3351 0
-2242 -684 0
4305 -1551 0
3137 3560 0
-667 -3892 0
4013 -1199 0
531 1608 0
-207 -671 0
952 1605 0
1187 -516 0
-3717 -1019 0
3449 2490 0
2714 808 0
-976 4094 0
683 -4004 0
1904 -1416 0
-3162 1322 0
-3139 3362 0
-1273 -216 0
175 3001 0
-3573 -1971 0
-779 2707 0
1941 -20 0
-1965 -1561 0
-4512 -3378 0
2114 -3931 0
4363 3033 0
739 3493 0
127 -1559 0
-1951 4158 0
-812 2204 0
607 4745 0
470 -3032 0
-539 1264 0
-2654 3124 0
-2581 1258 0
2905 1849 0
-2216 4195 0
-3736 3096 0
2940 -3928 0
-2123 88 0
1718 -4229 0
1184 -3983 0
-974 4154 0
105 -3857 0
-465 399 0
-1159 4201 0
3172 -787 0
-1068 -3992 0
1316 -2967 0
-3856 1359 0
478 4252 0
4213 -4493 0
-4390 594 0
-799 -4222 0
-367 -1301 0
-2783 -2759 0
3173 1868 0
1243 -2356 0
-2465 -68 0
-3461 -1582 0
2726 3897 0
-2130 1137 0
-1562 -2777 0
3353 1906 0
-161 4185 0
3199 2356 0
1425 -2043 0
-88 -1968 0
-3381 -22 0
-4430 -3536 0
-3112 2877 0
378 2092 0
-4187 -2968 0
-4003 -3035 0
-1233 -557 0
-3851 -2193 0
-2676 3375 0
4094 36 0
65 1417 0
4275 -3106 0
-604 2593 0
3776 -361 0
4189 2298 0
-68 -3186 0
-2922 -902 0
2247 2265 0
366 -1464 0
-1498 -4369 0
2171 -3316 0
-1033 2133 0
-1637 472 0
1803 -943 0
3 -179 0
-4498 -4020 0
1897 319 0
-4284 -2488 0
-1826 -453 0
3087 3026 0
-2853 -1679 0
-2060 1422 0
-2677 3292 0
-3768 1055 0
66 -1610 0
-268 -4701 0
-1815 3394 0
-34 -606 0
4109 -348 0
-1077 -4515 0
-2477 -2344 0
432 1297 0
962 4572 0
3705 -4339 0
-2011 2999 0
-3137 337 0
-2014 3770 0
-5 4299 0
1367 -4311 0
4367 3948 0
1438 4276 0
395 -4225 0
-3106 4726 0
882 2032 0
1089 -414 0
-2759 3997 0
-2786 3836 0
2637 2726 0
-906 2643 0
-4222 4523 0
3884 -145 0
1386 1605 0
-442 -3945 0
-1324 3059 0
3319 -2358 0
1681 -1322 0
-2163 -3358 0
4712 3817 0
-468 -2469 0
2690 4261 0
2780 -1289 0
288 1665 0
-1917 879 0
307 -3389 0
255 -3591 0
4157 -4400 0
-1859 2625 0
2246 3370 0
3530 4346 0
3025 -4398 0
-786 2165 0
2386 3962 0
-3602 -4664 0
8 -1618 0
-1463 1248 0
-1753 1599 0
3207 -4497 0
1642 421 0
-2259 -1046 0
-2800 3037 0
4211 -567 0
-4132 -4186 0
4149 -1704 0
3715 -4558 0
-4532 -4710 0
3269 -3453 0
-3077 552 0
-3674 1656 0
-885 -2627 0
-414 -2768 0
2229 -217 0
3670 2028 0
413 -4366 0
1692 3485 0
4235 4704 0
1629 348 0
1023 3127 0
4399 3047 0
3258 2359 0
-2941 -3782 0
4733 -618 0
-3338 2438 0
-2145 -2859 0
3648 -2634 0
-3071 2938 0
-3183 3921 0
4270 -2316 0
4491 -4220 0
3358 -3566 0
3274 -4542 0
-1973 1041 0
3081 2523 0
1606 -2728 0
-357 -3183 0
-1988 -572 0
-3680 4447 0
-1119 -2606 0
-2071 -4637 0
1360 256 0
-3814 -2590 0
3227 -4382 0
94 -1314 0
1865 652 0
2412 2000 0
4155 -4136 0
-1018 -1919 0
-61 1709 0
-196 -1173 0
-1521 1753 0
826 70 0
-3620 528 0
564 1569 0
-870 560 0
-3722 -3230 0
-1888 175 0
-2055 -1536 0
3534 -4671 0
-2608 -1723 0
2261 -1394 0
137 995 0
-3546 2856 0
-4665 1289 0
1814 -639 0
-226 -1072 0
-670 1707 0
-2329 4613 0
-4136 -3584 0
83 -3863 0
-735 -2113 0
-236 1538 0
-2309 -1492 0
-2038 3513 0
-30 4075 0
-4191 -3082 0
782 -1046 0
1439 -1561 0
3557 -1710 0
-4572 -81 0
3207 -2094 0
-1044 2726 0
3862 -584 0
2517 1500 0
-545 -3478 0
-1821 3326 0
4473 -1657 0
1957 -1067 0
2345 -4589 0
-2250 -3807 0
210 -3746 0
1001 507 0
-1702 -1431 0
2563 -1896 0
-98 -4635 0
-3428 -2094 0
1022 -2847 0
-1584 3135 0
2282 1670 0
1332 1182 0
-4518 -2259 0
-4624 2564 0
-1868 -1549 0
-3730 -2198 0
3898 1319 0
-4207 -1633 0
-1424 886 0
301 1693 0
-881 2214 0
-2191 -2915 0
2671 -3916 0
-4565 -985 0
-2244 -1426 0
-1576 884 0
-1383 2193 0
-4321 3229 0
-2932 -3195 0
4298 -2469 0
4363 -4339 0
1163 2069 0
4568 -3370 0
-1552 -3368 0
3868 927 0
-4270 908 0
621 -4534 0
-662 2639 0
-1823 -242 0
4563 -2325 0
-2751 -3186 0
-23 -2355 0
2292 -3980 0
3774 3180 0
2178 -1876 0
2118 4233 0
-4621 4288 0
609 264 0
-3315 855 0
-3724 -3055 0
2195 56 0
-2353 -3996 0
2916 2166 0
-1301 -1549 0
-2641 -2763 0
-1019 -1361 0
-2761 629 0
-3114 -2740 0
-3499 -3903 0
-986 -2569 0
3404 -3538 0
4178 1437 0
4640 847 0
2961 -3496 0
1388 -2886 0
-649 -4592 0
1672 -2747 0
2120 549 0
891 4036 0
3617 3250 0
-972 260 0
-894 -2145 0
-2019 -3097 0
1209 2865 0
3521 -1273 0
-2315 -675 0
-549 -3845 0
-1965 429 0
-4711 -1767 0
-1748 -4632 0
2750 -3041 0
-1869 2671 0
-377 -4009 0
756 -2555 0
1315 -2036 0
-3633 3677 0
844 3127 0
-579 4113 0
-3211 806 0
1849 -4666 0
4185 4613 0
4363 4168 0
1809 -279 0
2867 -3566 0
3439 2606 0
-4068 613 0
-3106 114 0
-1535 3373 0
-2437 4252 0
-1252 477 0
-3965 -1510 0
3443 3621 0
-3458 1110 0
-2575 -1011 0
-1944 -4455 0
-351 3474 0
-2482 287 0
-35 2229 0
-651 -1439 0
4702 -1988 0
4352 3352 0
1308 -4621 0
-3172 3347 0
3280 4113 0
606 2256 0
3588 757 0
3219 3910 0
1484 -581 0
1756 3239 0
3502 -142 0
4208 2953 0
-567 2738 0
3018 -1085 0
655 -4509 0
4389 -1452 0
-679 -859 0
-4582 3844 0
-1946 1528 0
-1734 -72 0
-235 1564 0
4679 -2026 0
1342 -3351 0
-575 -4036 0
-3144 -4314 0
149 2775 0
2037 4383 0
682 298 0
2451 1403 0
4307 -4355 0
4263 -1443 0
2400 161 0
2950 1623 0
106 -122 0
-111 -3020 0
3032 -1195 0
-2404 -418 0
-1409 -4451 0
4265 -3562 0
1910 -2261 0
-4347 -2659 0
-1252 4507 0
3110 -1590 0
-617 1473 0
3720 246 0
-4275 -2919 0
2806 -858 0
-636 -3218 0
-4753 -4676 0
-2984 3458 0
-2870 -3306 0
4295 -3693 0
-2278 4048 0
-3604 -1822 0
2156 4250 0
1976 -3381 0
1241 -1562 0
-2071 3575 0
3986 -3164 0
3388 -3121 0
-2071 855 0
129 1047 0
-3824 3973 0
2960 1868 0
-3825 4364 0
1964 -2372 0
-668 1846 0
1507 1480 0
-681 305 0
-666 199 0
-2734 4077 0
-3114 4282 0
1289 -573 0
193 46 0
-4391 1258 0
-2739 -457 0
1350 -3107 0
-2703 230 0
240 4167 0
928 702 0
-349 -1547 0
259 2692 0
-1965 -3545 0
-636 4091 0
2571 -97 0
-4735 -1149 0
3259 -1625 0
4644 -3497 0
-3152 -1909 0
663 -1970 0
-1930 -1852 0
2685 -1607 0
-863 1667 0
-3060 3342 0
-2670 -1027 0
725 4485 0
-3818 2708 0
-4496 -1136 0
3792 -2561 0
-2059 -2884 0
1177 -2525 0
2451 -1875 0
990 3182 0
-2228 492 0
-3497 1752 0
1546 -4347 0
-3951 4380 0
3388 3430 0
-2994 3477 0
-885 -225 0
1706 4429 0
-4509 -3395 0
2382 -716 0
-2209 476 0
696 3599 0
-3257 -2119 0
928 3787 0
2261 3669 0
356 -2775 0
-4372 -2941 0
-4727 1216 0
-292 2749 0
2707 -751 0
2625 1415 0
-4645 -2754 0
1106 3670 0
2368 -1919 0
1427 1901 0
1197 -1648 0
153 -1012 0
-1450 -365 0
303 1658 0
-322 -620 0
-2094 3215 0
4423 -4747 0
2688 -3688 0
-4440 3584 0
-2145 3832 0
-4323 4540 0
-2230 4630 0
841 2293 0
-2250 1901 0
-1801 -4523 0
177 -737 0
4531 -4420 0
-1319 -49 0
2227 4214 0
-4246 -3657 0
1878 2006 0
3666 2453 0
1784 64 0
903 290 0
-2311 -2041 0
-567 -1545 0
4400 -4297 0
1575 -840 0
-4392 1123 0
-4050 1276 0
4515 -123 0
-4330 -2025 0
-4399 -3076 0
1376 3425 0
-4130 2464 0
654 1976 0
990 1934 0
1799 -2299 0
3039 -3045 0
-4657 -3984 0
1846 2104 0
-2329 392 0
-550 -1430 0
452 1087 0
-136 2955 0
767 -3247 0
-647 -4341 0
1239 893 0
-3565 -1576 0
1809 4197 0
507 -1578 0
2490 2914 0
-2430 -1552 0
-1259 4074 0
-3807 2859 0
-1112 896 0
2419 3755 0
2257 4103 0
1984 -363 0
-26 -4404 0
3208 -4211 0
-1817 -3165 0
-2900 4364 0
4127 3537 0
-3035 1706 0
3271 2661 0
2144 1111 0
-4334 4080 0
1564 1321 0
-3578 -350 0
4005 -1322 0
-3545 -4603 0
-412 2756 0
2953 4623 0
3703 -1032 0
3019 -2015 0
-2592 -3052 0
2854 2331 0
-2430 3767 0
2343 -2621 0
3300 -3082 0
-4436 -3481 0
4412 -1153 0
3469 -3194 0
-2951 1809 0
-953 -2174 0
4354 -1655 0
-4425 -3915 0
-1528 -570 0
-2084 -4022 0
2100 1931 0
3868 -3713 0
2102 -2377 0
-2667 4584 0
-800 1036 0
-1586 -2834 0
-2756 -165 0
1607 3826 0
1906 -707 0
2515 -3795 0
-1890 -3961 0
-3050 4208 0
-3881 -537 0
-1832 -212 0
2691 -3922 0
-281 -413 0
-4177 -520 0
-985 1201 0
-3782 43 0
3731 2006 0
-945 -1961 0
-581 1416 0
-1589 2899 0
1251 1098 0
1447 -4674 0
-2316 -3170 0
4180 -3855 0
-811 -371 0
697 777 0
3922 99 0
3376 -3389 0
-2937 -3891 0
-2858 4588 0
-1515 2789 0
2701 2213 0
-1039 4658 0
652 3803 0
3534 -2106 0
-281 -2749 0
2789 -3613 0
-1237 2173 0
3860 3081 0
4285 -819 0
814 4097 0
3674 -2925 0
2586 -2035 0
4547 -1562 0
-1977 -4356 0
1508 2063 0
1757 987 0
-533 -2007 0
1336 -786 0
4638 -1588 0
-4710 -4639 0
-1534 607 0
-192 1923 0
4153 4087 0
2976 -623 0
-4144 3786 0
2044 1922 0
-4476 2770 0
-2125 -2469 0
1900 4162 0
860 209 0
1339 2129 0
687 -243 0
148 7 0
-3630 -370 0
-1120 -226 0
3003 2359 0
-1390 -3037 0
-1518 1908 0
-3165 -2846 0
1398 -1727 0
1253 3468 0
4575 3375 0
-1428 1994 0
-1747 -793 0
2326 1533 0
-194 1827 0
3134 202 0
3706 -499 0
3444 4646 0
-1383 2246 0
-192 -584 0
-1839 -1931 0
-4349 1694 0
4306 -202 0
481 -3583 0
1343 2858 0
3147 3646 0
3542 -404 0
2714 -3052 0
-3009 954 0
-4609 -2593 0
-1970 566 0
851 -979 0
1619 3966 0
3373 2117 0
2770 -3947 0
3840 1029 0
1012 -705 0
-1632 -2459 0
-233 2938 0
-4711 1675 0
4713 -811 0
4151 -4304 0
-2833 -3400 0
-153 -4045 0
431 -2270 0
2221 -1244 0
542 2508 0
-1305 522 0
3633 818 0
-1303 -1724 0
2689 2999 0
-4716 4228 0
-3208 4073 0
3731 2233 0
-3577 -327 0
3167 -3591 0
-1994 2775 0
3203 -2855 0
2087 -3467 0
-1449 3149 0
3689 -3515 0
4197 -3742 0
-3414 -3570 0
4065 4576 0
-4099 -3282 0
1495 2176 0
2651 -906 0
4001 4089 0
1410 -1476 0
-536 -221 0
180 4030 0
3726 -3639 0
-3388 -3540 0
-3302 -679 0
-504 2854 0
-40 -3524 0
-2871 3843 0
608 -3667 0
-617 -350 0
-974 3271 0
-3054 -1541 0
-3842 3181 0
4252 -362 0
1598 23 0
-1167 2350 0
-2521 -2589 0
-1666 255 0
-672 1540 0
182 -3894 0
2060 -323 0
-2101 2260 0
3715 1110 0
4267 -4155 0
-1424 -2516 0
2591 -4486 0
1504 3218 0
-4170 -2017 0
-1082 804 0
2840 -394 0
97 751 0
-4076 2274 0
2441 -2042 0
3343 3775 0
3558 -1677 0
-3571 -2840 0
595 806 0
3854 2449 0
2003 -3095 0
-1920 -1959 0
-2546 1891 0
-1841 3197 0
3529 3691 0
961 -4124 0
1361 3953 0
1477 2692 0
4089 3440 0
1691 -4146 0
-853 4493 0
-2570 1285 0
-678 2330 0
-56 3548 0
1405 -4234 0
-3245 2282 0
-3260 2282 0
-4381 -2496 0
2790 1324 0
3250 2603 0
-467 4730 0
-4025 -4022 0
-1403 3712 0
-4172 -1750 0
4689 2393 0
712 3315 0
-1682 -2332 0
-4341 1775 0
1642 -512 0
3064 1786 0
702 -4059 0
3215 -2764 0
-561 2972 0
1455 1393 0
3518 -1114 0
-3118 -3328 0
-1582 2219 0
-1735 1975 0
-3010 4728 0
-1664 -2812 0
3559 -3660 0
3260 746 0
-4594 -2580 0
104 -3306 0
2541 406 0
1736 3250 0
-3576 1557 0
1600 -3355 0
-2735 -4683 0
-1727 3556 0
-3593 -2556 0
3111 3964 0
2126 4466 0
-232 -442 0
-2376 63 0
1525 1062 0
-3270 2601 0
3416 1396 0
2848 -3094 0
-924 4557 0
2104 3612 0
4651 2953 0
-1352 -334 0
1656 -1808 0
-261 -1506 0
-1243 -1808 0
-3883 -221 0
-155 -2101 0
-4505 3450 0
-4479 116 0
-4193 -4460 0
1442 911 0
-3360 817 0
-4024 -1937 0
2395 -4477 0
4392 -4004 0
-2000 -344 0
-4436 1666 0
-148 -1959 0
-2042 2437 0
-915 -3152 0
1290 -1518 0
-2946 1721 0
-1035 2846 0
-410 -4649 0
-2026 -1863 0
4578 3011 0
4403 -1842 0
4256 -614 0
3565 -1643 0
1932 2110 0
-4339 -4599 0
2977 2912 0
-4397 -3730 0
-4241 3407 0
225 230 0
316 -4418 0
-695 84 0
3948 -1609 0
479 4027 0
-2089 -2426 0
675 2005 0
1872 -233 0
-1426 -4292 0
-4571 1217 0
-2191 2140 0
3911 -3506 0
2751 1227 0
-1592 -1868 0
-2238 763 0
4524 3308 0
945 1202 0
-69 1115 0
-3072 2037 0
-3040 -3109 0
-957 -1989 0
-4481 4125 0
2952 -3461 0
1454 2718 0
-931 -2119 0
1193 267 0
4104 232 0
-4009 -2879 0
3130 198 0
-2967 -1882 0
1385 2046 0
-2092 -1465 0
-561 -3656 0
572 4213 0
-4599 -1572 0
1376 -4237 0
-4136 -894 0
944 2148 0
3123 675 0
3469 705 0
2263 -672 0
2459 -870 0
2506 3587 0
2720 -1380 0
3305 -1829 0
3424 4047 0
3775 -4649 0
-3480 2853 0
2893 1757 0
3053 -2632 0
2810 -4367 0
96 4130 0
-1548 2185 0
-4277 4038 0
-2090 -3523 0
-4232 3026 0
3385 1790 0
-727 -608 0
4017 4305 0
2094 -2967 0
645 3737 0
2044 -2683 0
-4302 650 0
949 3301 0
3599 -1100 0
-1963 -941 0
-3797 3567 0
-3676 60 0
4330 2365 0
4487 -4555 0
-3770 -2145 0
1148 -2794 0
-313 2091 0
-4283 2249 0
-179 4049 0
-316 834 0
-1705 -1043 0
1646 1531 0
1820 -1960 0
1001 -4446 0
1716 -469 0
-145 2837 0
3414 -464 0
3147 -270 0
3766 2610 0
-814 -1240 0
3131 -2494 0
-1568 -4354 0
-649 423 0
-3847 -2465 0
-3844 1084 0
3653 -4707 0
-946 1484 0
-1944 1738 0
-4680 2310 0
-69 4336 0
2020 -857 0
-424 3283 0
-570 2764 0
4026 -4674 0
946 -3054 0
-3284 3259 0
-3863 -2318 0
-3763 9 0
625 -3394 0
-3253 117 0
3165 -3903 0
2459 4669 0
2181 -3316 0
4113 -4755 0
610 -3667 0
-13 -1120 0
359 1468 0
3527 556 0
645 -1687 0
3904 -4528 0
549 4699 0
2107 -611 0
-1314 3469 0
-2634 3793 0
2957 -3121 0
3657 3895 0
-1689 3016 0
-4381 -4333 0
-4454 1292 0
-1039 569 0
-3416 4424 0
-3149 -4037 0
-1981 -1704 0
1419 -1136 0
656 -3926 0
3938 -2051 0
-4202 -858 0
899 -2101 0
-3372 600 0
-2332 3363 0
-3676 49 0
4287 1092 0
3020 1511 0
833 1877 0
-2888 1326 0
-1164 -1934 0
-3114 907 0
-4651 21 0
229 3430 0
-4394 1639 0
-2393 4330 0
-1391 -3230 0
-1684 4742 0
-3326 1014 0
2317 949 0
2545 -3882 0
-3285 3201 0
1089 -1394 0
4529 -1161 0
-33 1257 0
-2697 873 0
314 -3856 0
-2506 483 0
-3736 1960 0
-2161 505 0
1910 966 0
-1953 -583 0
-1251 1776 0
2188 -2944 0
3938 2170 0
-742 -3592 0
1877 3220 0
-456 1559 0
-3481 -4285 0
-252 3430 0
3421 -2338 0
106 -2221 0
-2403 3779 0
-254 914 0
633 -4622 0
-1890 247 0
-2070 3232 0
4602 -1523 0
-3311 4666 0
2686 4379 0
646 -2248 0
-3957 2397 0
4248 1706 0
-4582 -3970 0
2318 -4136 0
-4378 -2997 0
1854 -3965 0
4290 -2052 0
-4567 -3209 0
-1861 -3904 0
-4240 4157 0
3742 2156 0
-728 -3948 0
-3434 1101 0
3534 -2402 0
3183 -1745 0
-2982 4398 0
-4637 -2003 0
-809 -3764 0
2672 3582 0
-324 2539 0
-1881 2878 0
-1626 4625 0
-155 -3500 0
-4516 -1508 0
4117 1236 0
2699 -3574 0
-151 2215 0
2156 24 0
-4714 -856 0
4578 4329 0
1834 -3127 0
-792 -326 0
3953 2855 0
-2831 -1213 0
-1875 -2479 0
-3677 142 0
-539 -82 0
-4041 -3771 0
-960 -3872 0
-1427 -983 0
-2909 1170 0
3150 2449 0
-4060 2834 0
746 864 0
-3389 274 0
-1022 -2071 0
-340 -3840 0
1881 -1818 0
2365 1046 0
-2432 -3684 0
-4550 -3277 0
765 4259 0
565 -1573 0
-939 -892 0
3018 3457 0
-2278 -3091 0
-2462 -2022 0
526 -4243 0
3703 -3097 0
3717 2133 0
-2209 -2853 0
-2700 3510 0
2585 -3338 0
2389 -2134 0
961 777 0
2146 2168 0
3723 2869 0
3304 -103 0
831 2836 0
-3503 3857 0
2108 -1734 0
-3881 -2361 0
-4555 2023 0
2052 3785 0
2535 -3279 0
4516 -65 0
-2404 -2923 0
2901 -2168 0
81 -1321 0
4324 2742 0
-323 1843 0
-224 1816 0
2261 -3070 0
3632 1378 0
2133 -4201 0
409 1183 0
-4599 4126 0
493 -13 0
-3550 -4561 0
853 2883 0
12 -4320 0
-4652 2351 0
-1059 -3434 0
2142 1011 0
-2925 2565 0
809 465 0
-4256 4494 0
4069 873 0
4331 1701 0
4495 2333 0
3848 -2402 0
1045 -948 0
-2938 -859 0
-1115 810 0
-3104 -2534 0
1459 -4753 0
2925 -2941 0
-3991 -1635 0
2226 3468 0
-799 -2584 0
2054 2740 0
3012 -1885 0
2124 -779 0
2865 1891 0
180 -1140 0
-261 1866 0
1719 3048 0
972 1297 0
-426 1500 0
2897 3315 0
-2713 -1515 0
1106 -4064 0
-157 3388 0
-1194 2002 0
-95 -1097 0
-2801 2806 0
-2794 4232 0
-275 -1678 0
-2192 -2980 0
1650 -1848 0
-3054 -2738 0
-2252 -1260 0
3495 1359 0
-3439 -1681 0
-2876 -1736 0
-3711 -4693 0
-253 1777 0
4466 -4494 0
3670 2842 0
-845 -277 0
562 -2961 0
-87 -3949 0
1016 3700 0
-3174 1924 0
-2518 -444 0
126 -4230 0
-1718 -2807 0
-2464 -829 0
3894 1934 0
-3083 4691 0
-3370 -1272 0
-87 898 0
-165 97 0
150 -1774 0
-110 3502 0
477 407 0
-3507 3074 0
-3988 -4106 0
-4191 -1274 0
-1951 -4567 0
479 3527 0
439 2990 0
-2046 3560 0
-3203 2874 0
-4018 -1327 0
-1997 4503 0
3776 -1432 0
525 -1804 0
-4187 3009 0
410 -3001 0
3735 4268 0
-4538 -731 0
-308 -132 0
-4667 3342 0
-4689 3723 0
581 -2856 0
-1044 -1583 0
2741 -2636 0
2773 4405 0
3359 -3087 0
-2735 -3521 0
319 -1947 0
-3988 3857 0
-2284 1749 0
-4459 3838 0
4250 -4202 0
2410 3327 0
2020 2043 0
621 1891 0
-743 -577 0
-1582 -4339 0
2273 1597 0
3830 -2267 0
-489 -1065 0
-118 3443 0
3960 3104 0
-1069 306 0
-1734 -1337 0
3951 2826 0
-259 3893 0
-3722 -1069 0
1066 3082 0
-3747 3823 0
-565 3770 0
583 -4438 0
1455 1491 0
2133 -2491 0
-937 2170 0
-267 -3730 0
-133 4611 0
-3203 2957 0
1278 -837 0
3261 3561 0
4286 587 0
-2192 2015 0
654 -1678 0
2405 -1607 0
-444 -3550 0
-2975 -2784 0
2991 -621 0
-1138 4636 0
1255 -3734 0
1096 4195 0
-4417 -3248 0
2393 -2253 0
1934 -1341 0
-2850 2866 0
1556 -1779 0
3375 -3421 0
-2099 3605 0
-1549 2674 0
4637 -4025 0
493 3116 0
2741 -2663 0
-263 4312 0
2111 -1344 0
-3125 2118 0
-510 -3502 0
2081 3836 0
2433 4644 0
-3974 748 0
-2911 1877 0
3410 3823 0
-2482 4023 0
-3295 -3448 0
-3222 700 0
2287 4299 0
-4656 3953 0
3330 -2964 0
-3692 1526 0
2867 2219 0
-3085 -93 0
1274 -1960 0
-1615 -4741 0
2765 3551 0
4189 -4534 0
1010 -4190 0
-1836 1172 0
-614 99 0
-2721 1677 0
-3151 1877 0
2468 -3096 0
-4240 -3788 0
2761 -326 0
547 1920 0
1215 1252 0
-1349 -1856 0
1017 -1160 0
1470 -4132 0
-2253 3953 0
-1871 -2315 0
529 -1429 0
2261 -102 0
-3803 -4392 0
-216 -560 0
-2503 -3822 0
968 -3344 0
-1431 -2015 0
-2515 2675 0
-978 4339 0
-761 404 0
1778 -2209 0
2899 -3725 0
3960 -872 0
-2564 -1175 0
-1846 2742 0
-1732 -781 0
-1934 -2494 0
896 -540 0
-2172 3657 0
3159 3705 0
-4441 -4634 0
-4516 4656 0
366 2583 0
1713 -1139 0
-4353 -2727 0
3952 -1349 0
-2382 -3724 0
-3743 1852 0
-2627 -892 0
-3505 3186 0
4209 -2354 0
3042 3490 0
-2512 -2070 0
2257 97 0
631 1447 0
3923 2137 0
-640 -1505 0
-4509 1404 0
3546 2705 0
3300 2866 0
1409 1245 0
3761 2559 0
3584 -4021 0
2256 -3427 0
3457 -332 0
-95 -3069 0
1676 -2341 0
1068 -907 0
700 -592 0
4654 1100 0
-4699 1289 0
2413 -102 0
-1707 4724 0
-101 1684 0
-1095 -617 0
-4291 -1823 0
-3790 -2693 0
2563 -2049 0
4089 3365 0
583 -4097 0
1946 1297 0
-1872 1893 0
3698 511 0
4033 -4449 0
-4463 1483 0
542 3476 0
1583 -442 0
3561 -334 0
152 1410 0
-623 -994 0
-2512 -4498 0
-1414 803 0
-3245 4619 0
-429 -1848 0
-1248 -1773 0
1906 -4141 0
1323 -2907 0
-3604 2769 0
903 2013 0
-3603 4688 0
2910 4238 0
-1590 -998 0
-1919 -4191 0
1566 4165 0
1315 -2908 0
1016 2005 0
-3025 4602 0
-4351 2839 0
-3195 -2090 0
-3419 1042 0
-2328 -3015 0
-2831 -4241 0
-4311 -4113 0
-4124 4695 0
180 -3815 0
206 -1613 0
2204 3705 0
-1019 3291 0
2031 1624 0
2591 3547 0
3197 -536 0
1689 1146 0
-3570 -2015 0
1071 -1668 0
3654 -2210 0
2785 4338 0
3015 1071 0
-1372 -1930 0
2412 -123 0
3004 150 0
4695 187 0
1820 -22 0
1076 -369 0
-2818 -3275 0
-1067 -1792 0
1587 2603 0
-1270 1365 0
-2831 -3801 0
1217 3093 0
-2900 -3638 0
259 1196 0
-1614 2843 0
-2703 557 0
4572 -3320 0
-749 -3491 0
4536 -753 0
-3924 2996 0
465 3627 0
1655 -3844 0
2368 -1975 0
123 3895 0
3313 3597 0
1421 4137 0
-3825 3706 0
4296 -353 0
3245 -3623 0
-3939 4646 0
-2100 -623 0
-2157 3344 0
-942 1849 0
3499 3292 0
-781 -2745 0
4303 -742 0
2193 -167 0
-3150 3873 0
-4440 2747 0
-4532 -1313 0
-1537 -638 0
2807 -957 0
-3871 1294 0
-4160 451 0
1958 -1620 0
3709 1364 0
916 -1548 0
1198 -766 0
1079 -3930 0
-3324 -3108 0
-839 -3317 0
-3038 1956 0
818 -693 0
3490 372 0
2195 2227 0
-766 1200 0
-2254 2606 0
3239 895 0
284 1363 0
-3362 -3962 0
-103 -711 0
-1212 3933 0
-996 -1882 0
-1485 3739 0
3230 125 0
4544 -1015 0
946 1222 0
-1813 -2245 0
2132 4568 0
-3995 -3727 0
4385 3295 0
516 -4288 0
-1995 -700 0
-3361 12 0
-4216 -3360 0
3387 -998 0
-2196 2037 0
3763 -3630 0
-3853 1598 0
4007 4109 0
2883 -3876 0
-2968 -530 0
2837 -3305 0
-110 3347 0
-775 -2395 0
-1067 501 0
1265 1049 0
1002 1786 0
2847 -589 0
4194 1784 0
96 1003 0
-376 2663 0
-2743 -2201 0
-998 3071 0
-113 -1014 0
-3225 3230 0
2868 -4091 0
-1618 4279 0
-1351 1706 0
-4623 2486 0
3132 4580 0
1324 -2871 0
2112 -2080 0
-4230 1964 0
-1219 4479 0
-2839 268 0
-111 4549 0
2448 -1574 0
4583 868 0
-2545 2378 0
-3146 -634 0
3732 1926 0
-1232 -3358 0
1683 -324 0
2827 -2566 0
-106 -1825 0
-3106 768 0
650 4253 0
1809 -3063 0
109 2604 0
663 1137 0
-669 -4099 0
-2876 3891 0
3583 -3762 0
-3532 3700 0
3161 2193 0
-435 4727 0
2128 2729 0
-163 72 0
4006 979 0
4493 396 0
-3349 251 0
-3040 -237 0
-3271 2951 0
-2038 3086 0
3716 85 0
-1027 -916 0
-1092 2820 0
-1218 -2168 0
-3899 -2130 0
3374 -3667 0
-3543 211 0
-1149 3122 0
2398 661 0
3365 2044 0
-779 1729 0
3603 2966 0
3493 2479 0
-2767 -3427 0
1237 -584 0
229 2164 0
3229 2955 0
-1232 685 0
472 4541 0
2747 -3148 0
4326 -4605 0
1145 -1866 0
-1391 4373 0
-1867 -2676 0
-2888 -2359 0
-2017 1523 0
-3287 3649 0
-536 3167 0
2053 1236 0
-1636 864 0
3516 2783 0
-4258 3967 0
-794 -2882 0
-3909 27 0
-346 -2820 0
2774 2093 0
-1869 2029 0
4033 108 0
3359 1675 0
2155 -3033 0
875 1260 0
-874 -4271 0
-1889 1660 0
3173 -4004 0
1177 -987 0
-2908 745 0
3619 1420 0
-3846 1129 0
-1292 1576 0
2490 -729 0
-3346 3499 0
-2962 -4120 0
-659 816 0
76 -4108 0
-3266 3893 0
580 -1661 0
4307 79 0
-752 1263 0
2618 4693 0
3053 -4721 0
3306 2369 0
-2343 -4647 0
2796 -4340 0
-2005 1778 0
1148 2810 0
1984 2369 0
-234 4319 0
1226 -2520 0
-246 -482 0
830 -3090 0
-2377 -1693 0
-885 1556 0
-4745 4384 0
281 -4571 0
-266 -3186 0
475 -993 0
-320 -357 0
-2712 -3212 0
170 4592 0
-121 410 0
-401 -1799 0
-3151 146 0
-4092 1861 0
4508 4063 0
-3939 -147 0
3636 -3058 0
-1485 -3834 0
-3995 -1413 0
-890 -4218 0
3558 -1010 0
493 3591 0
251 -3222 0
-2683 1771 0
-1074 -2028 0
-4484 4739 0
-737 -2852 0
-1565 -3044 0
-681 -2213 0
2975 -349 0
2945 -1271 0
-1359 -1637 0
-3160 1846 0
-69 2097 0
2955 -45 0
1447 647 0
4169 3616 0
2683 -2994 0
2205 2082 0
16 -3824 0
4634 2592 0
2608 2054 0
1809 2728 0
-4061 -1895 0
149 1329 0
-1304 -554 0
1993 -3643 0
991 -3593 0
4362 1256 0
-1868 819 0
-3096 687 0
-3786 562 0
-1748 4552 0
911 367 0
451 3871 0
226 2813 0
4114 -2491 0
-3498 2234 0
-3364 43 0
-2955 -870 0
1726 132 0
-167 -3389 0
1820 -4665 0
580 3383 0
2881 4410 0
531 -4017 0
3181 1971 0
1882 2185 0
-369 -2146 0
-3327 3498 0
1366 1923 0
-4716 -3464 0
-1953 3621 0
642 1007 0
-799 -4525 0
-1114 -63 0
-1225 -2047 0
2580 -1227 0
-273 -291 0
-3891 3547 0
