c NF
p cnf 2182 8292
638 -1999 0
-1344 -772 0
36 2130 0
-1390 138 0
-345 -1673 0
1425 -582 0
-85 -1318 0
1365 -882 0
2015 1158 0
-1841 2115 0
-1071 1378 0
704 -991 0
-1905 392 0
-1791 1781 0
2168 -2091 0
2037 -1495 0
-198 -465 0
-1632 -1521 0
-1874 1267 0
469 -1095 0
1478 467 0
1616 945 0
-889 1546 0
-723 -868 0
-374 -963 0
1069 651 0
-1356 2048 0
-2145 -2026 0
1571 76 0
-706 -1255 0
-1240 404 0
94 151 0
-1576 1578 0
-1727 -1080 0
-2004 1116 0
455 -263 0
1150 670 0
-1079 -979 0
762 1880 0
-857 1043 0
208 110 0
-1693 -800 0
-967 2079 0
492 639 0
-2051 -1400 0
1712 1163 0
1249 1679 0
2133 -1359 0
883 954 0
674 1386 0
584 1565 0
-1523 1338 0
-825 607 0
-1878 1407 0
1003 -661 0
-1887 1048 0
171 58 0
-1564 -935 0
439 -1056 0
-63 1146 0
-344 15 0
-1001 -129 0
-951 578 0
-1264 1024 0
-1944 -1322 0
1019 1853 0
-1432 -1330 0
1764 394 0
1516 1175 0
-132 2120 0
-1081 -1828 0
1080 1152 0
-391 -1633 0
-186 1023 0
-1860 2142 0
-764 -539 0
-104 593 0
1058 -1326 0
-1930 -645 0
-1269 -1208 0
-319 47 0
-386 -1368 0
2045 385 0
1203 480 0
589 -1511 0
950 -1703 0
436 -1682 0
1397 -1253 0
1854 880 0
-659 -11 0
-805 -1961 0
2112 -1929 0
607 -1042 0
-624 -1421 0
928 191 0
-1431 -849 0
535 549 0
-1487 -1391 0
-1545 -2177 0
748 -715 0
82 2144 0
1740 -1500 0
1931 1139 0
-426 -559 0
1557 -1007 0
-885 -258 0
-322 -1126 0
-691 -97 0
-635 -890 0
1352 -1765 0
-1729 -1448 0
709 -1321 0
477 1453 0
748 1389 0
910 763 0
-214 165 0
-1028 -2053 0
10 409 0
872 1444 0
-539 2139 0
-1673 -439 0
-1929 1358 0
212 -378 0
-2097 -1245 0
1093 1699 0
-434 -439 0
-530 398 0
1265 -1823 0
-1448 -1320 0
-843 -341 0
806 1600 0
274 896 0
-932 5 0
-1167 1794 0
-545 1541 0
125 1594 0
-1140 1387 0
907 2077 0
1631 2064 0
-1731 1740 0
175 2165 0
1003 -361 0
787 -562 0
499 -1748 0
-1079 -909 0
1097 -819 0
1785 833 0
-704 -334 0
-681 1422 0
1525 218 0
-2085 -355 0
-1967 1435 0
-129 2024 0
-1389 -702 0
1746 2091 0
-1886 1393 0
-526 -1560 0
-1809 531 0
2056 1593 0
46 -804 0
-1767 10 0
-573 388 0
771 211 0
-1770 -839 0
1631 1725 0
798 -1384 0
-1812 -1379 0
607 992 0
352 2043 0
881 -596 0
-109 -1455 0
-1340 87 0
-2106 11 0
-945 565 0
-2027 1231 0
95 180 0
-1628 639 0
-1919 2164 0
1041 1830 0
1686 -1217 0
-2090 -1505 0
1849 -1129 0
1186 665 0
1282 46 0
218 -1491 0
-2129 -1611 0
953 -26 0
-405 1111 0
2098 369 0
-632 -1351 0
-1947 14 0
13 -260 0
-847 -904 0
1545 -1030 0
-2131 497 0
-1166 -1657 0
-1767 2163 0
-1601 -1615 0
747 78 0
415 1854 0
916 -1437 0
-1613 -786 0
-1824 -645 0
615 -1207 0
-125 668 0
1783 -1784 0
561 -177 0
-2109 -1362 0
165 -1603 0
163 39 0
-772 14 0
-563 -1884 0
-676 1795 0
-1389 -915 0
-1863 -44 0
1139 -1524 0
-314 -1233 0
769 -2036 0
-1139 -1505 0
-801 -483 0
100 -322 0
-1066 -2092 0
133 1934 0
-1044 706 0
-978 1849 0
1832 -2142 0
1303 957 0
1412 1239 0
-738 -1203 0
-1332 1754 0
2132 -868 0
-1985 237 0
938 -110 0
-1759 1346 0
1781 -841 0
-1175 -2119 0
-104 -1600 0
187 -909 0
-208 -1371 0
-417 1347 0
963 222 0
2155 -698 0
-1982 1498 0
-534 386 0
260 1229 0
-2016 -744 0
1645 1932 0
-1436 -530 0
-1258 -1593 0
230 -2012 0
2182 -936 0
-1426 -509 0
1409 1868 0
759 1594 0
1279 1329 0
-1449 219 0
-421 -1595 0
-294 -1978 0
-740 -2166 0
213 -903 0
-534 1517 0
1366 -1797 0
1444 -271 0
2111 -1023 0
1600 -475 0
-1038 71 0
-1506 -276 0
-935 159 0
-401 -1009 0
-245 1353 0
1524 -358 0
1823 1593 0
81 1180 0
-1768 -708 0
-309 157 0
800 443 0
1439 -1094 0
-1060 1082 0
-672 -308 0
112 -1913 0
-1207 1928 0
1290 -1117 0
-211 -502 0
1115 -1599 0
1960 1544 0
-392 -349 0
-965 -557 0
-335 -1741 0
560 -1992 0
-2036 2170 0
-118 -123 0
-967 -1619 0
-1208 1441 0
-1010 -1756 0
-1986 -822 0
513 252 0
2091 -242 0
-1932 1719 0
849 1097 0
1807 1574 0
1592 1153 0
-355 -1821 0
1890 187 0
-1791 -1057 0
39 -502 0
-1556 -48 0
4 -1119 0
-843 1186 0
-1772 2038 0
-587 -1569 0
1136 503 0
-603 943 0
-1179 -1217 0
-372 -779 0
1180 1370 0
-1183 1373 0
-1017 1116 0
213 339 0
588 1789 0
2082 -636 0
-921 -1724 0
2016 -117 0
-1630 1767 0
-294 1847 0
840 -1480 0
2031 -1493 0
1720 -1185 0
-1801 933 0
-336 1589 0
-436 -307 0
-66 649 0
1140 2010 0
1618 883 0
-1752 1524 0
-1791 -1631 0
1377 -2112 0
680 -177 0
-1277 -1007 0
1841 -1732 0
1234 -1870 0
28 -614 0
1720 1212 0
1454 247 0
-1633 2093 0
292 1620 0
-1125 -193 0
-2028 -1399 0
-1977 -275 0
2062 -2080 0
796 -1251 0
-578 1555 0
1287 101 0
-18 -448 0
1944 1790 0
1411 -78 0
-972 -936 0
1394 -1951 0
1215 -1738 0
354 2048 0
-1709 1819 0
-284 -634 0
-1528 1461 0
476 147 0
60 -569 0
1596 1967 0
1167 2164 0
2089 -773 0
-2016 1365 0
-783 -1050 0
-1178 1801 0
1712 -1193 0
-576 438 0
1065 -496 0
-926 -2149 0
1079 872 0
903 1621 0
1095 771 0
372 799 0
-1825 -586 0
-906 -259 0
-2112 -1660 0
1573 -624 0
751 -1860 0
1505 -795 0
-349 -2098 0
1279 595 0
-531 -1967 0
-437 -769 0
1269 662 0
560 1676 0
-451 -66 0
-20 414 0
527 -1831 0
758 -1916 0
2159 -1587 0
876 -104 0
-1993 909 0
736 722 0
1503 909 0
1127 -891 0
-1738 -1219 0
1555 -1920 0
2155 1923 0
1299 792 0
-2022 -964 0
1212 1775 0
-1928 889 0
65 -1507 0
1659 -96 0
-1415 -1531 0
92 1168 0
305 801 0
1992 -789 0
1463 -1911 0
210 103 0
641 687 0
-1379 21 0
299 -2106 0
1001 -1451 0
-2133 -2131 0
791 425 0
1988 -637 0
1621 -1569 0
1866 744 0
697 477 0
-1247 -1149 0
-1953 -656 0
-116 213 0
1346 1906 0
-52 -1543 0
-419 -145 0
-1573 -2141 0
1148 21 0
-692 -1 0
-132 -1569 0
-1260 -1690 0
1849 -1465 0
-1732 1227 0
-1075 32 0
-1874 -1368 0
-221 -1111 0
695 -1036 0
1631 1597 0
1718 -1151 0
2006 -1718 0
-1036 -1949 0
1085 -297 0
1360 -1376 0
-2100 485 0
372 -1352 0
1927 -1566 0
-485 -1821 0
-1308 1176 0
1034 -2063 0
-302 595 0
716 -607 0
494 -639 0
1931 1319 0
-1588 669 0
453 289 0
-1106 -2122 0
-913 855 0
816 -851 0
-2100 -1850 0
682 749 0
104 -1538 0
1349 439 0
-294 -632 0
-300 982 0
-1144 -112 0
-1111 1178 0
1378 -1155 0
-974 -866 0
-2073 -72 0
-433 518 0
-726 -848 0
1526 1708 0
-1386 2182 0
-2159 764 0
296 422 0
-1353 252 0
-966 -1061 0
-2143 -1192 0
-963 1229 0
-1194 -1561 0
-833 1219 0
-526 959 0
1990 -948 0
-1899 394 0
-2126 -1042 0
1928 794 0
1784 2182 0
-1632 -1100 0
-1872 1764 0
672 1133 0
1572 1859 0
-470 1726 0
-93 -2149 0
-170 -1831 0
427 -713 0
-1994 2143 0
-1870 -179 0
78 28 0
1650 1267 0
1726 -676 0
945 2110 0
1104 -955 0
1678 647 0
-112 1719 0
-257 -1443 0
2065 273 0
1663 -1539 0
295 1187 0
1095 241 0
-105 -1793 0
616 -1997 0
-1967 1276 0
-506 -655 0
2172 -150 0
-1289 408 0
-811 353 0
1005 -1282 0
2105 -2027 0
-817 -1703 0
-1958 2018 0
-672 -2182 0
120 1922 0
-381 1924 0
758 -806 0
1430 -97 0
1331 -2177 0
1313 -30 0
2035 1551 0
-946 1599 0
1085 -1692 0
-1588 578 0
44 1703 0
57 -356 0
-1617 1843 0
-641 1177 0
1233 1935 0
-2153 -661 0
1224 -853 0
-22 1003 0
928 194 0
-2047 -1225 0
1954 690 0
577 455 0
1181 945 0
-1696 2011 0
-1243 -237 0
-1949 -1155 0
-944 -355 0
385 -1838 0
1243 -342 0
1426 868 0
-1643 -2085 0
1581 -1961 0
-2054 115 0
1233 -1494 0
-755 1384 0
-388 -1698 0
-654 -601 0
1684 -29 0
1684 -1936 0
1043 1023 0
1862 -704 0
2104 1424 0
-1984 1971 0
-1099 -819 0
-613 -590 0
1456 290 0
-701 -1897 0
-1318 1134 0
-1484 488 0
597 -1049 0
-376 -1433 0
-864 1060 0
1691 2037 0
1916 -1882 0
-843 -1862 0
-1768 -398 0
-315 548 0
1885 1739 0
-387 162 0
-554 903 0
-622 -245 0
-127 1223 0
836 1946 0
1216 1377 0
-1950 252 0
1654 -2109 0
1865 -1057 0
-2157 -715 0
523 -2072 0
-735 1305 0
-1839 -1680 0
301 -682 0
1861 -985 0
1974 674 0
-1968 -1309 0
387 1172 0
-418 1406 0
-419 2070 0
-1340 -874 0
129 -302 0
-1765 -956 0
1880 1150 0
1423 -407 0
1616 1497 0
230 -783 0
-2148 1381 0
-1432 -1954 0
-1569 735 0
-2092 1159 0
-1240 -633 0
-78 499 0
-1544 -89 0
1143 1961 0
1088 296 0
-1860 -180 0
-418 449 0
-714 1031 0
1534 2015 0
2013 -1935 0
-1054 118 0
-1462 153 0
273 -358 0
411 1090 0
-1827 1478 0
-1039 1359 0
-1402 1467 0
-1464 1798 0
1155 1564 0
-1960 1141 0
-1106 -1045 0
-623 312 0
-1779 44 0
-1986 369 0
286 -1147 0
-767 960 0
1119 243 0
-1607 1426 0
1237 -1120 0
1570 1703 0
-476 -1395 0
2051 1029 0
2096 396 0
269 1109 0
-1877 1613 0
-80 1339 0
599 -2056 0
1231 -1673 0
-1547 -2092 0
1817 1195 0
1793 1201 0
1229 632 0
-1559 -1950 0
-1893 792 0
77 -1247 0
-1229 -15 0
-811 -485 0
1660 976 0
610 -2141 0
989 211 0
860 -1269 0
-1664 1997 0
-1995 1146 0
1547 1359 0
2060 139 0
1002 -377 0
1062 954 0
-1705 2020 0
156 -25 0
1685 -714 0
780 -807 0
-486 -1159 0
-1514 -247 0
1430 2064 0
2175 -777 0
1993 -1569 0
938 247 0
1737 1700 0
1473 -1449 0
-666 -2164 0
213 471 0
-1870 -1477 0
-330 -242 0
1755 1163 0
-1160 2097 0
1811 663 0
-1627 318 0
-1591 -606 0
-166 665 0
-2094 -995 0
-539 -1036 0
-1035 -2033 0
-112 -202 0
-84 -622 0
-1253 950 0
268 -1704 0
-1250 -218 0
-496 -756 0
-707 -1362 0
-1898 658 0
1203 402 0
1645 435 0
-973 155 0
-1537 945 0
1252 63 0
347 -715 0
1467 -229 0
650 2102 0
81 983 0
-179 -1842 0
-886 -1883 0
-2088 -1380 0
-189 185 0
-1029 -702 0
180 -1849 0
1289 2115 0
-1582 -1299 0
198 169 0
351 -434 0
-862 -484 0
-1911 1192 0
1129 -446 0
1817 760 0
1037 647 0
-837 -1020 0
1368 -980 0
-1665 1031 0
-2143 1326 0
-526 -275 0
-808 -606 0
1427 1228 0
-104 733 0
1123 -169 0
171 1288 0
290 1123 0
-585 203 0
1863 -1088 0
-136 663 0
112 -1358 0
-2123 -378 0
-239 203 0
895 298 0
1959 1673 0
-525 696 0
-428 1355 0
-1970 30 0
-1680 929 0
-1476 -838 0
996 1823 0
-2029 897 0
-1132 -463 0
-239 -292 0
1684 938 0
1502 2127 0
-128 1439 0
-1762 889 0
1472 -1706 0
629 -1282 0
998 -746 0
1821 -1390 0
2121 -1036 0
1840 42 0
434 -1239 0
636 -1093 0
352 996 0
-571 1334 0
-1585 1592 0
-1893 1866 0
-483 -347 0
-1606 1495 0
-314 -1642 0
139 -2088 0
1581 914 0
-1772 1720 0
-20 1604 0
-1899 1959 0
-669 5 0
1161 -1423 0
1496 1868 0
981 -404 0
2076 -1321 0
-198 -309 0
-502 -2050 0
-199 1749 0
-1372 2127 0
1628 1524 0
768 648 0
2167 -1208 0
996 -1543 0
-65 510 0
1616 -1756 0
27 -1848 0
199 -426 0
154 1885 0
1457 1238 0
-883 -703 0
659 -2112 0
-1671 1481 0
1710 -346 0
-36 1240 0
564 -2136 0
-1275 -1114 0
-1154 -242 0
508 -216 0
1970 960 0
1484 -1468 0
1561 1122 0
-793 -1140 0
-392 -1936 0
-15 1077 0
-1898 -1150 0
1586 1687 0
-464 1681 0
-1191 1589 0
76 69 0
1077 -1346 0
-1695 621 0
1753 1034 0
865 -1912 0
693 273 0
937 278 0
-2009 2167 0
2097 -743 0
-1751 -372 0
1976 14 0
248 -152 0
1703 -107 0
185 1438 0
1669 -2153 0
-2070 853 0
-1661 -1066 0
585 -1477 0
-2162 -301 0
-171 -281 0
-2086 -574 0
798 -1743 0
-280 778 0
-767 -980 0
1049 1532 0
-529 148 0
2077 -1320 0
-1540 1580 0
149 -904 0
2017 -545 0
-466 -824 0
112 -816 0
662 -487 0
-568 348 0
813 -31 0
-666 -910 0
-335 1835 0
-1441 1117 0
477 -823 0
-1106 -1497 0
-830 1366 0
1058 291 0
1865 -840 0
-1178 1645 0
-201 -509 0
1052 587 0
1540 -1643 0
-271 35 0
382 518 0
1859 -39 0
-1680 -1697 0
1149 930 0
1995 536 0
1031 -645 0
1494 801 0
281 -1335 0
-670 770 0
-1840 2011 0
1592 -2026 0
1275 1244 0
-1879 212 0
169 1784 0
2069 -688 0
-1545 888 0
1840 1294 0
559 -1061 0
-1741 -1260 0
1837 -2002 0
1487 2053 0
-274 629 0
-1641 885 0
1318 -202 0
2078 1181 0
-721 708 0
-541 -2001 0
-313 -163 0
-709 -1289 0
547 57 0
720 1955 0
95 1476 0
-1565 1272 0
67 -862 0
-505 -1240 0
-2181 -1155 0
953 1964 0
-423 -1556 0
438 142 0
1405 -757 0
1027 -964 0
-465 948 0
-2094 -1815 0
1778 -1345 0
-1724 -1922 0
1268 -177 0
2163 -1706 0
-431 -1442 0
1675 1248 0
753 1235 0
201 -1641 0
-1725 1786 0
-1508 1988 0
3 -460 0
1468 -337 0
1309 827 0
689 896 0
-301 -1015 0
1750 430 0
1496 770 0
2160 -1945 0
-488 272 0
-1608 -868 0
-1681 969 0
-914 388 0
-1163 453 0
478 -1291 0
799 -1198 0
-1615 1197 0
767 -1137 0
-1167 1903 0
-58 253 0
-1766 1767 0
-817 -308 0
1889 384 0
460 549 0
-1326 975 0
434 -581 0
1160 809 0
1879 1396 0
-1648 2044 0
924 -1996 0
-1688 2091 0
-1386 -1508 0
646 -927 0
-1425 2179 0
771 -534 0
-375 769 0
1062 524 0
-2016 -1059 0
796 -1582 0
-1703 1393 0
2116 1542 0
621 1581 0
-843 -233 0
556 -1601 0
-1832 -1943 0
1079 2059 0
1905 458 0
1899 -1168 0
1411 -399 0
-1885 210 0
19 870 0
1014 1359 0
770 430 0
-11 -2005 0
-1307 1149 0
589 640 0
1589 893 0
1201 1462 0
-718 2140 0
62 -1123 0
-610 1029 0
-1131 -1118 0
2175 1518 0
-283 -344 0
2168 -178 0
588 1075 0
-878 -810 0
190 -1717 0
877 -1108 0
-1519 1342 0
-2181 1787 0
-2128 651 0
-759 806 0
1095 -1326 0
1999 2173 0
305 992 0
1210 -1123 0
-2 -1094 0
1818 1803 0
-1909 1386 0
2035 -861 0
185 -822 0
2104 1319 0
-724 1651 0
-1995 1201 0
-825 665 0
1236 -1962 0
1950 -1723 0
1364 1640 0
993 641 0
-1639 1577 0
729 -815 0
-1649 -1627 0
-1565 -721 0
-105 2129 0
975 1088 0
1647 1526 0
1100 -1640 0
704 -1413 0
-2006 1892 0
1013 1438 0
2013 -2118 0
-1957 839 0
-1500 1578 0
-1045 1733 0
-2099 -660 0
-99 -2030 0
1803 -1770 0
-1883 1379 0
1266 55 0
-2101 -661 0
-1813 1121 0
2068 622 0
-1155 -407 0
876 -2131 0
1302 -968 0
-697 557 0
-1261 1916 0
2096 220 0
-109 5 0
-263 1423 0
-927 594 0
-2117 -1582 0
-1418 521 0
1117 1844 0
-1468 913 0
-1242 -846 0
-1175 -495 0
-1825 -1655 0
830 497 0
592 -380 0
1100 37 0
-1799 589 0
1129 46 0
-1835 -1363 0
1161 994 0
1314 -1914 0
1863 -1711 0
302 -1999 0
-1374 92 0
-103 -1179 0
-988 1053 0
231 584 0
979 1840 0
-1238 272 0
-586 -461 0
538 -386 0
1156 298 0
-383 553 0
611 -1285 0
-694 -381 0
-948 1249 0
502 1463 0
1498 370 0
2161 134 0
565 -1520 0
963 -2039 0
-721 90 0
222 -790 0
-1217 513 0
1715 1258 0
-1161 -1947 0
-2123 1566 0
1428 -1762 0
-1016 -1930 0
2126 1981 0
-1258 769 0
-309 -1807 0
1321 -1183 0
1676 -337 0
1626 -857 0
-879 638 0
2101 2094 0
909 -901 0
699 -621 0
-1994 -833 0
485 -2141 0
-617 -950 0
1205 -617 0
-1342 1412 0
-686 2126 0
182 67 0
-891 -1369 0
296 -2132 0
-1297 -302 0
2024 194 0
1501 -1905 0
-1599 2178 0
1361 8 0
154 414 0
1019 -503 0
1040 -285 0
-151 -1374 0
-21 -410 0
1472 -547 0
-1569 -1617 0
2071 -2028 0
-574 1646 0
894 -1612 0
1076 1397 0
402 1421 0
-51 -1420 0
-265 740 0
-494 733 0
-1027 1557 0
-1689 854 0
1424 1536 0
2122 644 0
-1846 319 0
-1648 699 0
1321 727 0
-1323 729 0
911 1058 0
-1481 -1825 0
-2051 -1203 0
815 -457 0
-1442 -772 0
-1377 1246 0
430 -80 0
1080 -1238 0
-1038 2026 0
365 438 0
-1713 1836 0
1231 -2143 0
-182 542 0
-43 -848 0
865 1608 0
1728 1427 0
-1989 -331 0
1115 -707 0
-1235 -20 0
635 189 0
1367 260 0
459 915 0
-935 963 0
-1877 -1091 0
799 1419 0
1532 -1291 0
507 1299 0
639 -436 0
278 -124 0
1491 -974 0
1527 367 0
-1945 1990 0
-2177 -1544 0
-540 -370 0
-351 -1492 0
236 -1482 0
-488 -1695 0
862 1064 0
2110 -1653 0
-2081 -752 0
-1508 -1787 0
-2133 1422 0
-65 -300 0
-1452 3 0
1038 2002 0
2176 -250 0
-1382 -1914 0
-1673 1340 0
663 1475 0
1970 1948 0
-1907 -1061 0
-837 -1677 0
1778 147 0
-306 1135 0
-1090 -1476 0
108 238 0
-1855 -891 0
1905 182 0
1621 1277 0
1703 1343 0
222 -796 0
1045 -703 0
674 -2029 0
-1636 -1087 0
-403 -258 0
517 -487 0
447 -1648 0
613 -64 0
-99 574 0
-428 1594 0
1860 -104 0
-496 -107 0
1282 -380 0
1555 619 0
-412 -386 0
-1095 -1698 0
-2163 801 0
1415 -895 0
-1959 1524 0
-1431 -1037 0
-706 578 0
1050 -2137 0
2174 -2067 0
-597 2157 0
-1190 -652 0
1755 96 0
-406 -1486 0
-247 869 0
260 1547 0
1121 2040 0
1309 -2143 0
1338 -1446 0
1185 2079 0
-807 1038 0
-190 -1601 0
-1471 1003 0
-1237 761 0
-286 1441 0
642 -205 0
294 -461 0
-750 -1912 0
1990 1186 0
989 422 0
-233 476 0
-655 -1698 0
402 -1002 0
-350 -1626 0
1077 -1685 0
-2041 -278 0
1043 231 0
283 -1528 0
696 900 0
-65 158 0
282 2032 0
2013 1223 0
498 1548 0
-1826 -597 0
1761 -556 0
1234 -1804 0
-943 2163 0
-305 -345 0
964 -739 0
-1877 -849 0
2095 1220 0
1931 1169 0
-1045 2158 0
-244 -536 0
-1760 -506 0
1652 -644 0
593 819 0
-783 1177 0
-1005 -1111 0
552 -1722 0
139 -2070 0
-1368 937 0
995 -1639 0
1359 -654 0
1239 -263 0
-436 -1175 0
2101 561 0
51 789 0
163 990 0
290 339 0
-808 1616 0
1652 2160 0
-264 -543 0
840 -1272 0
-1258 -883 0
-1637 2062 0
2111 753 0
170 1395 0
725 -986 0
1962 2060 0
1569 -2020 0
-1922 1507 0
-1558 562 0
-2003 1591 0
-1772 -570 0
1528 -1667 0
-81 1627 0
812 -1873 0
1547 -722 0
-493 -1445 0
1679 1041 0
-1497 -1187 0
-1443 -1071 0
73 -281 0
-484 1490 0
-1330 -462 0
510 1293 0
-2050 568 0
172 -1470 0
1625 1675 0
855 832 0
171 1794 0
-1152 -579 0
-1705 -2086 0
-1317 777 0
826 983 0
-1668 -521 0
-464 -1160 0
-1841 629 0
-1239 -1351 0
2047 1594 0
930 -656 0
1569 -6 0
-1137 1427 0
-1226 103 0
1228 2017 0
1532 -214 0
-1705 377 0
-1596 -313 0
460 1807 0
1884 45 0
766 2176 0
1384 1532 0
1588 1663 0
-159 -2136 0
764 -1740 0
1961 5 0
1345 2097 0
-93 707 0
-1167 -521 0
-1191 -1878 0
1203 -1521 0
1990 1990 0
-783 212 0
86 -1500 0
-1297 128 0
549 1838 0
-1319 293 0
-1528 -1573 0
290 -25 0
-1079 -2065 0
530 2120 0
2159 -1083 0
147 -181 0
953 -988 0
1868 -173 0
2031 71 0
-568 127 0
-1682 2105 0
1708 729 0
-1507 -393 0
608 -1540 0
662 -1851 0
8 -1304 0
-922 941 0
-1419 -779 0
1281 -103 0
-1850 140 0
219 -33 0
-1015 -1474 0
-1656 2138 0
-55 525 0
1197 985 0
674 -933 0
222 -1597 0
799 229 0
1793 576 0
-509 745 0
1499 564 0
1925 889 0
-1348 1408 0
-2102 -2109 0
-138 2065 0
-232 -1828 0
1844 -1234 0
2058 2074 0
-838 -1159 0
800 -2044 0
-1589 697 0
794 1403 0
-942 -1694 0
-233 -2036 0
1271 -1627 0
-1536 1083 0
1788 1655 0
1549 -1459 0
234 1939 0
-2146 -325 0
-1047 1505 0
950 -1162 0
-1300 -1155 0
2013 -319 0
602 917 0
-951 1580 0
2010 -178 0
749 1888 0
1355 1415 0
458 -622 0
1219 2091 0
-811 -2072 0
968 -1731 0
1987 981 0
162 202 0
812 -857 0
-1480 -1055 0
510 1186 0
1871 -1725 0
-206 2074 0
1831 979 0
-822 352 0
159 -611 0
-980 -217 0
-511 -23 0
1802 424 0
-235 -746 0
-501 1537 0
1525 -1492 0
779 1932 0
1083 -1936 0
1552 -234 0
-2158 77 0
-1533 -2020 0
-749 -127 0
214 -321 0
692 -1739 0
-405 1002 0
-459 -1516 0
315 303 0
1646 1066 0
-1523 1670 0
62 296 0
-124 -1878 0
-76 -2049 0
1068 -543 0
-1495 425 0
-1549 -1276 0
1790 -1563 0
-60 -384 0
343 -1178 0
567 -1344 0
-271 -113 0
140 -1661 0
1981 1439 0
2138 772 0
1116 -307 0
-1448 877 0
751 317 0
1253 -7 0
387 -1960 0
-918 -443 0
-1475 -1979 0
-1424 43 0
-85 737 0
354 -859 0
-31 608 0
145 634 0
-944 684 0
-2089 -1527 0
-1545 440 0
-120 -2113 0
146 1066 0
25 -285 0
1546 987 0
255 -1432 0
220 126 0
-572 1296 0
796 -706 0
304 -338 0
-1333 175 0
58 -1458 0
909 -343 0
1895 -1176 0
771 -637 0
-787 -2169 0
-31 -431 0
780 -1755 0
1890 1782 0
761 -1284 0
787 1103 0
1972 28 0
-774 -539 0
-313 1101 0
-590 -1163 0
-1672 -443 0
-2013 2005 0
1547 -861 0
552 -1863 0
1654 63 0
1228 -782 0
1311 -583 0
1861 1355 0
163 693 0
-1649 1634 0
-2160 893 0
-1400 293 0
-1688 1631 0
-1385 -1888 0
1232 -657 0
1388 352 0
-1217 978 0
2145 -1732 0
-615 -1256 0
-370 420 0
-1711 1415 0
-1431 -1711 0
-255 -1919 0
231 -1834 0
371 531 0
-323 -739 0
-206 434 0
-1235 -208 0
-56 548 0
1616 -299 0
1928 -368 0
-1578 932 0
836 260 0
1182 -1316 0
-1113 345 0
925 1935 0
-1105 -211 0
1970 1095 0
-184 -2152 0
-1169 -1759 0
1892 -361 0
-1651 -582 0
-2051 -1373 0
-2159 -807 0
1151 -1572 0
-1750 643 0
-1727 1837 0
908 -333 0
-1026 -735 0
-93 456 0
-842 449 0
-425 -1549 0
136 2076 0
1561 -395 0
-257 -856 0
1770 -1569 0
1241 -1570 0
-1078 79 0
713 -87 0
965 -1140 0
-1966 -690 0
1574 -1694 0
897 -186 0
-1264 -1164 0
-2061 -736 0
1904 -1060 0
215 -859 0
-854 695 0
71 -1393 0
1675 1385 0
-570 -979 0
1523 623 0
-1508 -57 0
2036 -416 0
1808 1523 0
1949 -2149 0
1066 -1420 0
602 -721 0
410 -1770 0
-729 -417 0
-482 -784 0
828 1398 0
-354 16 0
1310 -687 0
-98 -2050 0
162 1250 0
-1321 -452 0
-1850 637 0
-327 -754 0
308 247 0
-329 1236 0
564 -1398 0
-1598 -1989 0
-2092 -2042 0
-263 -1445 0
-25 79 0
855 -1089 0
428 1097 0
-346 -1201 0
-128 -1248 0
-1097 1104 0
-1206 -1416 0
2122 -372 0
1743 -1887 0
-2129 -1275 0
-523 -873 0
-2069 -354 0
1684 1379 0
1225 -1541 0
-90 172 0
124 -974 0
-2053 821 0
1158 -1339 0
-857 996 0
2116 1534 0
492 951 0
-640 1945 0
663 -221 0
-1845 1851 0
-1340 1053 0
1276 -316 0
43 -1709 0
1618 -685 0
-291 -1850 0
976 557 0
-1000 1908 0
-189 2080 0
-1797 1949 0
499 279 0
-392 1552 0
1557 573 0
-2094 -1737 0
-1420 458 0
-1840 1907 0
-407 -1911 0
-1623 649 0
-1519 40 0
1351 643 0
449 -366 0
2164 -123 0
-549 1783 0
2026 1992 0
-90 -308 0
-383 396 0
1595 1542 0
223 524 0
335 -1301 0
-2051 1066 0
-53 1341 0
77 1483 0
1319 -333 0
1030 -886 0
-1595 1496 0
-1874 -187 0
-1899 -1534 0
-1307 1956 0
868 -684 0
-1829 -1688 0
51 -37 0
-1845 1401 0
937 1903 0
786 1473 0
-1238 1829 0
-306 577 0
-1937 -757 0
-575 991 0
839 -189 0
1466 952 0
1373 765 0
-1546 168 0
-1142 1513 0
1568 -1433 0
2128 -1762 0
-1491 659 0
2064 998 0
1625 16 0
398 -1140 0
-907 1479 0
-105 -943 0
1387 -1691 0
-594 -1142 0
1568 -1308 0
-850 467 0
-1898 -328 0
-1705 -1406 0
1158 -588 0
-866 548 0
592 -548 0
1991 -1562 0
-1799 -1589 0
1604 1487 0
1640 -1635 0
953 -1593 0
196 549 0
833 1535 0
1004 900 0
2053 -141 0
-2100 1036 0
1293 -2178 0
850 605 0
-1055 842 0
926 1412 0
-115 942 0
-1090 1771 0
411 507 0
1841 1093 0
619 -262 0
698 2031 0
455 -1036 0
1997 -2126 0
-1763 415 0
542 -1579 0
1125 1101 0
-739 901 0
1127 1386 0
-1291 687 0
71 -1867 0
1576 2151 0
-1432 167 0
-626 1074 0
414 -1036 0
721 -25 0
-1051 475 0
1926 -1639 0
544 -203 0
-1974 296 0
279 1246 0
-1744 -1791 0
1960 413 0
-1518 1620 0
1935 618 0
1854 1875 0
1595 1915 0
1836 2161 0
1430 -1784 0
1939 -1110 0
-1320 -1400 0
-292 368 0
884 1918 0
-772 -1484 0
-1628 -157 0
-1624 -2007 0
-1216 599 0
-1011 1859 0
-423 1914 0
-2068 1058 0
-575 1047 0
-1223 -1903 0
1201 -927 0
1141 1110 0
-171 -1308 0
-1119 1795 0
210 -1425 0
-1217 -966 0
-614 -659 0
-378 76 0
1577 1519 0
1751 425 0
-1742 951 0
-839 -1166 0
1475 -1576 0
1695 1712 0
1000 -444 0
-1769 30 0
1616 2037 0
-842 2182 0
-90 -1312 0
1712 915 0
1948 -1245 0
-1095 -1805 0
-534 -1062 0
-822 -100 0
1991 -1112 0
-1915 1973 0
986 -1216 0
-2017 -2133 0
783 796 0
-1288 -495 0
1094 -723 0
-672 1524 0
-1698 1908 0
-1679 -910 0
2004 1807 0
1384 -932 0
-1777 536 0
-801 1866 0
-40 -986 0
1469 -741 0
1854 -410 0
-975 1948 0
1584 -2051 0
249 -1737 0
892 -714 0
-1140 -1531 0
-48 1140 0
-1855 -556 0
1214 -1086 0
-2093 -891 0
211 2163 0
280 1468 0
-372 -145 0
203 -1470 0
-217 -394 0
2042 514 0
-380 1146 0
-1432 -487 0
-399 118 0
1932 -685 0
196 1923 0
-1316 -131 0
1371 1210 0
-1044 1657 0
1233 629 0
-1613 -551 0
-1330 1557 0
79 -529 0
-830 -1305 0
136 -924 0
2036 -355 0
2130 1575 0
153 316 0
-1725 -1681 0
-1272 584 0
1319 527 0
122 1898 0
-831 836 0
-1354 44 0
944 -600 0
-690 -237 0
1672 597 0
1773 621 0
-1282 -856 0
-1826 -283 0
1592 2179 0
215 -1605 0
1481 1211 0
-1063 1019 0
-1616 -568 0
-894 593 0
1451 1158 0
553 -502 0
-2094 -1684 0
394 214 0
-232 -1754 0
1718 -240 0
-446 -917 0
1568 1548 0
-1868 -176 0
-98 -208 0
-423 -1380 0
61 -1886 0
1329 2107 0
-2135 527 0
602 -1659 0
-2000 51 0
-1166 1873 0
1035 -1729 0
2097 -772 0
1550 -748 0
-366 619 0
875 893 0
1216 -1877 0
-121 535 0
-918 1874 0
795 1719 0
158 -484 0
190 172 0
1774 -2153 0
1657 796 0
-688 -1285 0
-300 -1345 0
366 -21 0
2128 502 0
2064 -982 0
518 -1512 0
-1894 645 0
-1220 1683 0
79 -1485 0
-446 1927 0
-1681 -1857 0
-1502 -365 0
934 -184 0
929 -846 0
1589 -1832 0
1790 -2057 0
-1905 1029 0
1149 -1894 0
931 -906 0
781 -967 0
-1396 253 0
-2015 1745 0
458 1972 0
1362 -1601 0
18 1466 0
-1482 1571 0
1569 232 0
1933 2064 0
-308 -966 0
1062 463 0
-1545 -2053 0
2015 1472 0
-1208 -1667 0
1400 -495 0
-2140 -1093 0
-1254 -1296 0
-486 -2130 0
-1986 2106 0
-1181 -3 0
2027 -34 0
824 143 0
-1451 2152 0
480 1889 0
-1790 282 0
2124 164 0
367 -1838 0
-283 1753 0
380 1899 0
290 -429 0
2088 168 0
2075 -1931 0
-2142 -386 0
-1828 1572 0
-1060 1888 0
-338 -750 0
478 2034 0
-1994 -1936 0
-2169 609 0
2145 745 0
-911 1502 0
-2087 2034 0
234 855 0
1053 318 0
-1966 -528 0
718 1700 0
1161 2046 0
-757 384 0
-1606 -1809 0
-1476 1326 0
621 -790 0
-1183 1443 0
-1828 -177 0
882 1968 0
1871 -1184 0
-2098 1306 0
2164 -1505 0
1292 -1470 0
2052 -255 0
-921 281 0
-410 -2032 0
1847 966 0
-2043 1668 0
438 -56 0
-1912 866 0
1210 -1500 0
-706 -2121 0
1645 -1736 0
-1773 -965 0
1453 -1571 0
1408 -1035 0
942 -672 0
1899 2075 0
-908 802 0
1900 -1069 0
-1226 1822 0
396 -1015 0
760 -4 0
-96 704 0
1342 201 0
-1722 -296 0
-160 1870 0
3 2113 0
1045 -1022 0
-1835 -667 0
-2084 -1092 0
937 1303 0
-2139 -2146 0
-65 1879 0
778 -840 0
424 -1522 0
1019 -670 0
-627 -1052 0
1164 1530 0
1516 1843 0
1720 -1779 0
1754 261 0
-1889 1123 0
1749 435 0
1974 409 0
-737 67 0
-1128 -1608 0
626 1865 0
-748 695 0
-371 -652 0
1498 -482 0
76 -717 0
1982 -437 0
165 -1848 0
820 348 0
452 -1828 0
-122 778 0
-1456 -227 0
-1381 -1851 0
-753 929 0
975 1901 0
1764 -303 0
601 548 0
-1214 -772 0
158 -851 0
2019 1991 0
-400 -1870 0
-1814 -942 0
-2162 1989 0
-742 312 0
1945 -1090 0
2104 -715 0
-387 599 0
467 -1627 0
1719 1513 0
261 244 0
1859 -916 0
-607 -1236 0
-437 -226 0
531 1591 0
-967 799 0
927 -1388 0
1699 466 0
-615 -1284 0
-2172 -1734 0
-1660 2118 0
-1912 -828 0
-1958 -675 0
-613 -1296 0
1561 1642 0
-1765 -634 0
-978 -607 0
-1855 346 0
-1106 775 0
-717 1904 0
92 -1424 0
1541 248 0
1013 -1302 0
1053 -1203 0
-1404 -1381 0
500 -1539 0
848 -612 0
-1893 -1673 0
-482 -618 0
67 -1250 0
-276 -1771 0
-1748 -1890 0
582 -1367 0
446 -1521 0
-1044 -401 0
-1576 1545 0
-1621 250 0
-739 1558 0
-1567 151 0
1633 -2002 0
-2126 -273 0
87 1647 0
459 865 0
-161 -560 0
-395 -1799 0
2112 -1209 0
532 -1688 0
-1976 -811 0
594 -106 0
1355 1739 0
-1039 -1560 0
898 1675 0
-1994 1325 0
2130 1359 0
291 755 0
773 -186 0
-1244 1105 0
1854 -1950 0
250 -2004 0
1176 -1268 0
-1815 1521 0
-640 -1645 0
1310 -307 0
2059 -1522 0
-364 2112 0
-1159 1668 0
-510 923 0
1672 714 0
116 -1938 0
-143 -570 0
2163 2083 0
1322 1366 0
-1301 1696 0
-1729 1185 0
1968 793 0
-432 1087 0
557 2120 0
-1997 1925 0
919 1447 0
-1086 2059 0
602 709 0
-1540 1003 0
175 1219 0
-1400 1300 0
-1613 -1059 0
870 629 0
-309 -319 0
-1710 74 0
1450 2011 0
-762 -965 0
1368 643 0
-1401 1594 0
1738 610 0
369 -1199 0
-1368 1912 0
1600 -1092 0
1247 -374 0
-264 -668 0
-1621 -226 0
1998 920 0
-1601 -1509 0
-1175 -428 0
2077 -1350 0
-188 1923 0
-480 -246 0
-1070 -791 0
1685 -543 0
650 722 0
-1227 689 0
-1456 -2168 0
1960 -923 0
405 713 0
1663 1996 0
260 235 0
-390 -1079 0
-2041 -379 0
-381 2122 0
923 1040 0
188 -199 0
-1943 1272 0
58 -1351 0
1640 -2053 0
-2002 -1638 0
-2088 -2029 0
-2061 603 0
995 -2047 0
-2061 1531 0
368 -862 0
11 354 0
-1934 -1354 0
-2129 -517 0
-574 1972 0
-679 -298 0
1928 -1928 0
354 -534 0
1375 430 0
-1752 -1766 0
-41 -1648 0
408 -1225 0
-1948 222 0
-2182 1479 0
1654 -477 0
1217 -1839 0
352 499 0
-47 1067 0
1882 18 0
1084 748 0
-309 -433 0
1963 -1804 0
1195 318 0
-1073 222 0
1115 -1572 0
1220 1728 0
2037 -1781 0
470 -1265 0
-853 -292 0
-1557 1084 0
518 -629 0
383 -1399 0
1494 -1658 0
2001 -65 0
-891 1684 0
-1795 2110 0
584 -967 0
-1643 -1753 0
1990 835 0
-574 2003 0
1523 -1790 0
1198 976 0
-1200 1069 0
-1032 1164 0
-2142 -263 0
-65 -967 0
332 -1446 0
123 -1322 0
380 1503 0
-1935 -914 0
1106 -249 0
1695 -1428 0
2076 -495 0
2085 1844 0
312 -47 0
-2144 1103 0
1663 -2119 0
-719 1926 0
833 -562 0
-1026 -324 0
-238 194 0
2024 216 0
-645 1793 0
-1248 1863 0
-1978 -899 0
1037 -445 0
1687 172 0
-2042 1006 0
-1742 -177 0
833 1979 0
-1977 39 0
424 -1472 0
-351 1422 0
819 1408 0
1934 -158 0
941 1395 0
-2118 -2126 0
-1068 163 0
1296 1900 0
-2169 -1730 0
1935 -1549 0
988 1011 0
-1711 41 0
25 -345 0
-559 -1603 0
-2146 -1021 0
-690 1182 0
1160 -2022 0
601 651 0
-951 -1642 0
-1199 -1985 0
-793 -608 0
2067 -344 0
1113 -1989 0
1114 -1191 0
1465 -112 0
1580 -1953 0
-25 808 0
440 432 0
-1089 -251 0
1135 488 0
1104 817 0
2172 2052 0
538 -1512 0
153 1303 0
-1363 226 0
-52 826 0
504 -162 0
-1045 1170 0
-205 -1052 0
-1943 248 0
1921 -458 0
-1579 -868 0
2058 -804 0
813 997 0
2103 -1874 0
2176 -1777 0
1431 -1007 0
893 760 0
-1781 300 0
-80 2113 0
-249 -953 0
-1739 358 0
931 -1617 0
840 1599 0
-556 154 0
826 -1901 0
-1772 -575 0
51 59 0
538 -2124 0
2068 1924 0
-1055 1768 0
921 1998 0
306 1064 0
1062 -1288 0
-1557 -316 0
-2041 758 0
-426 -1321 0
1248 -264 0
-807 -1677 0
1964 854 0
-1464 -1433 0
-837 722 0
488 -1651 0
-337 -1418 0
-835 1076 0
604 1807 0
-1029 993 0
101 -1967 0
-1069 -1651 0
-1136 269 0
1460 -1848 0
-776 -1999 0
1379 2091 0
-783 -1545 0
-1947 95 0
288 1995 0
-791 -1731 0
993 -594 0
-239 1649 0
-825 -810 0
2135 -2057 0
-921 -2174 0
-2024 1852 0
847 542 0
1694 -1636 0
-9 -646 0
1609 108 0
-1138 -311 0
-1780 806 0
909 621 0
2037 -1233 0
516 515 0
-602 1364 0
-1603 -450 0
-1900 675 0
-2055 2010 0
-1720 114 0
398 -894 0
-1163 134 0
-837 -460 0
1700 182 0
1127 -342 0
-265 1835 0
1733 1822 0
-1408 930 0
593 -1057 0
-1611 -1523 0
1751 -837 0
1347 1678 0
-1565 -631 0
1763 1103 0
-1527 1520 0
-534 2148 0
908 599 0
-887 -1394 0
-967 -161 0
-1312 352 0
-973 1923 0
907 -1448 0
569 -265 0
-1150 -656 0
1617 -2007 0
8 -51 0
1001 228 0
-973 2119 0
-2039 -1925 0
63 -2176 0
-468 -404 0
-648 1384 0
-1482 -1697 0
375 -2059 0
210 -2034 0
854 397 0
54 -132 0
952 733 0
848 1479 0
-976 415 0
1389 -342 0
548 364 0
-1688 -507 0
-961 -315 0
-394 -359 0
-1949 839 0
1805 -810 0
-875 -1759 0
-1235 -1470 0
-1276 -1151 0
1005 -1318 0
1692 424 0
-2137 -1298 0
-1936 -277 0
1996 -1202 0
-835 -273 0
501 -648 0
-1441 1377 0
-1752 468 0
1226 -1204 0
1149 -1988 0
-333 2017 0
-1909 305 0
1091 -1106 0
-1857 1353 0
1185 1424 0
671 -213 0
2164 213 0
-2001 -799 0
398 -399 0
-346 1236 0
35 1334 0
1280 -20 0
613 2063 0
-832 527 0
1085 -1388 0
-866 -2054 0
2044 -400 0
1635 1210 0
2157 3 0
-1691 -2056 0
-556 1899 0
796 -1265 0
2161 -302 0
1018 -500 0
-1857 -523 0
-2035 934 0
777 631 0
-2117 535 0
-475 -1872 0
72 -2166 0
1144 632 0
1440 -2039 0
-75 536 0
-1970 712 0
-510 1889 0
-1069 2036 0
418 1937 0
1222 102 0
162 -1162 0
-1712 -2070 0
791 -688 0
-1268 403 0
1044 -1223 0
-23 1262 0
-740 973 0
1701 -1914 0
-1846 -2117 0
-1179 1405 0
-808 114 0
1846 -1759 0
-2152 -437 0
1778 -1520 0
413 -1865 0
1215 1935 0
30 -816 0
387 -902 0
823 1152 0
-1359 367 0
-1722 1058 0
-1897 590 0
-620 1038 0
-105 1950 0
1571 392 0
122 31 0
-284 162 0
452 74 0
2067 1592 0
560 -1210 0
261 424 0
-1245 534 0
-1261 693 0
1123 1392 0
-890 300 0
-1982 402 0
-1519 552 0
-1516 -1191 0
1082 -947 0
397 -1664 0
1719 -1228 0
954 360 0
586 222 0
537 424 0
-2022 -1917 0
-690 45 0
-113 1824 0
-974 173 0
-1367 756 0
2178 -428 0
-246 -2056 0
-919 -2003 0
-829 -1240 0
1424 -2023 0
1063 1479 0
1850 187 0
-541 2171 0
1850 1481 0
-1794 -506 0
1350 577 0
804 -137 0
-1638 1666 0
2050 -947 0
-1071 40 0
1416 835 0
-1798 -712 0
-1150 -278 0
-2138 2110 0
763 3 0
952 -676 0
-1725 770 0
-1159 -1512 0
148 -435 0
1887 1823 0
-205 1454 0
1117 850 0
2134 -1385 0
-741 383 0
696 564 0
-623 -2045 0
-2064 2127 0
342 -259 0
693 1077 0
1564 -1651 0
2100 -135 0
88 -170 0
1491 -542 0
1387 -246 0
-1194 -1348 0
-1238 -109 0
-1030 -15 0
-1623 118 0
758 -1636 0
83 -1130 0
-1724 720 0
42 268 0
709 -381 0
-787 -2043 0
1215 -2025 0
820 -1412 0
269 -2057 0
1365 -1753 0
865 -860 0
-521 -49 0
-1403 -343 0
-1114 1853 0
-1881 2176 0
1921 1616 0
2167 -648 0
363 -1328 0
-1178 -841 0
605 -226 0
-816 -731 0
-1984 -699 0
2107 -1510 0
1500 -249 0
814 -775 0
-1313 564 0
190 776 0
-2140 -66 0
-1363 1223 0
-645 -127 0
1000 -921 0
443 -23 0
-1048 -244 0
-773 -2104 0
510 -1050 0
1713 -445 0
769 593 0
1270 -949 0
-499 1454 0
1548 -1281 0
-1541 1075 0
-737 961 0
-585 -706 0
1011 -724 0
-580 689 0
-1566 -858 0
1430 -1363 0
1487 -2042 0
286 51 0
-1856 368 0
1824 -1689 0
-1629 2178 0
-245 1760 0
2127 -1671 0
1719 265 0
-1689 -166 0
2116 -1996 0
-1048 -1189 0
-1732 1000 0
-520 834 0
1718 -437 0
1031 -1474 0
2038 1726 0
1480 -1845 0
1225 664 0
2127 840 0
-492 616 0
1248 1744 0
-440 -1421 0
-237 -931 0
107 -1886 0
667 2096 0
-1034 -1362 0
1201 -1398 0
-770 -1535 0
527 73 0
-2141 -958 0
272 1996 0
967 812 0
808 1796 0
909 892 0
-543 -896 0
74 -1819 0
905 1852 0
-150 64 0
203 869 0
1298 1876 0
1782 -676 0
-36 -129 0
568 -1385 0
-1308 -1753 0
1884 -292 0
-1468 1454 0
230 -857 0
-65 397 0
830 -191 0
1275 1107 0
1783 -1911 0
1256 -237 0
-1243 -640 0
198 180 0
1418 2024 0
-2001 225 0
-787 -1978 0
-697 -364 0
1499 733 0
-292 1785 0
-694 1457 0
-175 -1399 0
-1349 -203 0
-1874 992 0
369 776 0
1295 1564 0
-203 -2105 0
-1089 630 0
1621 -2091 0
979 94 0
866 -1088 0
-1551 332 0
1122 1858 0
430 -228 0
646 -2084 0
-1875 -887 0
-703 697 0
-1213 -1413 0
209 305 0
976 -901 0
615 736 0
-1520 1330 0
-273 1294 0
-2050 82 0
-2023 49 0
-1422 -2031 0
-99 -1804 0
32 1580 0
2158 1552 0
-1069 -151 0
733 963 0
1265 -106 0
218 1261 0
1708 -1553 0
1588 -1779 0
-731 -1190 0
-1429 -874 0
-338 -1757 0
-1495 -329 0
757 1708 0
-974 229 0
727 1185 0
1993 1756 0
371 1880 0
-2030 2024 0
-1332 1105 0
162 800 0
1281 139 0
-668 -1179 0
-1089 -1930 0
593 -676 0
-2130 1707 0
-1386 246 0
-247 432 0
-533 -1050 0
-1693 -15 0
-1961 844 0
-1258 58 0
636 622 0
1077 994 0
1136 1650 0
-864 -714 0
-806 -781 0
526 373 0
842 1650 0
1501 -2061 0
-2072 -2051 0
794 1699 0
804 -2090 0
-982 -1099 0
1662 789 0
-780 394 0
1659 -1306 0
-1400 -647 0
-2031 -660 0
-359 1143 0
1984 1364 0
1901 164 0
-303 60 0
1317 692 0
-1987 -462 0
-236 -1536 0
-2056 538 0
-2043 -1262 0
-1098 -453 0
-482 -1073 0
-133 1581 0
-1309 629 0
212 1158 0
-143 -1572 0
1839 -479 0
867 678 0
-1113 -1474 0
1152 -1248 0
43 -1691 0
-1321 -1476 0
1636 1490 0
-1140 -1213 0
-1315 -105 0
1116 -649 0
-197 1620 0
1620 -473 0
-1692 1988 0
-1838 1259 0
1916 -1308 0
398 -529 0
-1095 268 0
-1160 886 0
-807 -783 0
-397 -574 0
-574 -2182 0
-2030 -1774 0
-1113 -1178 0
-642 -2005 0
1006 -2179 0
410 -1517 0
-1938 2116 0
190 -1460 0
-2107 1024 0
-135 -489 0
684 -887 0
1582 -879 0
-1131 -1115 0
516 402 0
241 1022 0
-1607 -2046 0
-444 222 0
1092 288 0
378 -930 0
-662 -1184 0
1598 -756 0
-169 -1361 0
-1511 -1693 0
-1821 -911 0
1469 232 0
1434 184 0
421 -129 0
1992 -604 0
1904 1095 0
-1425 -547 0
-1016 100 0
-726 -581 0
-1287 -755 0
-80 -1534 0
-1869 200 0
622 -386 0
991 2060 0
-160 -1060 0
966 -1003 0
1441 -685 0
470 -987 0
136 -645 0
1434 2035 0
-423 -1048 0
-1621 -203 0
-474 483 0
-491 -234 0
825 -445 0
1979 -1045 0
1589 -1363 0
-392 -1425 0
-1576 1745 0
-1516 -1642 0
1611 829 0
283 -1999 0
-2053 -397 0
945 2147 0
-1844 1526 0
-424 -1260 0
-1179 -537 0
1438 185 0
1904 -1627 0
1822 -1531 0
1834 1634 0
-1662 1287 0
2182 -41 0
-1889 1618 0
-1418 -1641 0
1262 761 0
-127 1123 0
-1540 -1460 0
1320 532 0
1732 1182 0
-984 1344 0
1779 905 0
181 -585 0
-1548 -615 0
305 -363 0
-1991 -654 0
-1846 -1708 0
492 909 0
-1674 -747 0
744 1353 0
559 1457 0
-2033 134 0
-409 -459 0
392 -2066 0
-1036 10 0
-1078 -412 0
1608 -464 0
-423 1597 0
696 -72 0
1552 -111 0
-2142 1940 0
845 1456 0
-1092 -719 0
-1136 1861 0
698 733 0
-1504 762 0
123 -1776 0
-1167 1635 0
1480 -656 0
-170 -219 0
-1268 -1793 0
1279 659 0
2182 868 0
392 1398 0
471 1885 0
1774 -1170 0
-9 -280 0
-1042 -256 0
643 131 0
-727 720 0
1262 437 0
-977 1581 0
-2140 -1756 0
-2022 -1399 0
437 -1810 0
-467 1796 0
91 673 0
-1648 2047 0
-492 10 0
432 -2139 0
290 1453 0
860 -273 0
1745 2050 0
128 -1752 0
1538 -1913 0
1228 -746 0
-1346 -1223 0
-693 -1845 0
697 -715 0
149 761 0
647 2128 0
-439 -1071 0
1177 1750 0
-1468 -1823 0
-334 -1424 0
-943 1310 0
1515 -346 0
1133 -2010 0
-459 -2140 0
642 1327 0
276 2167 0
447 -490 0
-1360 1905 0
-1541 656 0
131 145 0
-242 592 0
1614 -419 0
-647 245 0
-1188 2006 0
-1234 -405 0
-1276 1520 0
452 -1781 0
-678 -96 0
1137 1862 0
-1352 1731 0
557 -316 0
-2075 833 0
499 -1883 0
1439 1590 0
-1811 -721 0
-312 754 0
1443 1457 0
-1089 -1178 0
-1874 -1544 0
-552 -971 0
1796 -826 0
1176 -1916 0
-1813 -1968 0
-476 1932 0
-1709 1125 0
1655 -1321 0
330 630 0
-1459 -755 0
-166 -1259 0
-1251 825 0
-1292 -2051 0
1713 514 0
-320 34 0
-1065 -2079 0
-1080 -2087 0
-2072 -2113 0
-1997 -1886 0
-680 -1323 0
1728 -1946 0
-90 975 0
-1230 247 0
-1747 1821 0
-1601 909 0
554 -426 0
-965 297 0
-1335 631 0
708 1215 0
-1519 1910 0
-906 602 0
-1709 1813 0
1763 -1763 0
-2033 318 0
-1251 73 0
-882 -942 0
440 1272 0
-652 -44 0
403 -274 0
1747 -1343 0
-161 1285 0
-900 241 0
1822 1165 0
-1768 97 0
-1922 -1804 0
-251 2006 0
5 -1145 0
-331 -1509 0
1255 -982 0
-743 -898 0
-90 -1391 0
660 -1399 0
-1047 1589 0
-1150 -2 0
-200 -1304 0
390 1336 0
-1129 -1382 0
-1189 -1724 0
-607 2063 0
-1112 1571 0
-1488 1944 0
-2051 -1579 0
-2139 -1216 0
-181 968 0
860 1417 0
1685 -625 0
-1459 1482 0
-1466 -1583 0
2099 -2103 0
-971 -1544 0
164 1191 0
-598 1564 0
-965 1587 0
-1781 454 0
-1402 -782 0
-1239 -1147 0
-1767 -320 0
1470 -480 0
307 -313 0
1038 -1007 0
-1809 -136 0
297 1895 0
-1318 922 0
220 1523 0
-2023 213 0
2090 -1280 0
-258 -2114 0
-234 1891 0
-228 1686 0
43 1979 0
1970 1416 0
-264 1714 0
1397 -209 0
2112 1377 0
-1159 -983 0
413 -1953 0
-99 1654 0
-1128 -1038 0
504 1610 0
-1732 619 0
-2121 -876 0
-1298 -1761 0
-843 -586 0
-877 1245 0
-1145 1229 0
117 415 0
-1418 -1394 0
-1366 1139 0
782 1555 0
1062 967 0
1496 -1800 0
1329 -193 0
-1270 1932 0
2110 635 0
-47 138 0
-1332 1075 0
986 1580 0
-229 -142 0
1278 -735 0
1415 -911 0
1906 -1752 0
-2034 -1279 0
2160 1313 0
-496 -1559 0
-1627 -1142 0
-735 165 0
-1947 392 0
-714 -1538 0
1073 -1012 0
-658 1798 0
-1667 -1109 0
-1764 -1790 0
-1538 -706 0
-329 1710 0
-2119 56 0
-1527 -558 0
896 406 0
-1082 1672 0
269 -365 0
441 -1791 0
-287 1198 0
862 -1238 0
1384 -1582 0
-1131 1138 0
-1724 1104 0
547 1062 0
-957 1959 0
-500 -1022 0
685 -1333 0
-1738 1529 0
422 1730 0
-1435 2036 0
1424 -710 0
-614 -1867 0
732 2172 0
-1732 1924 0
-859 558 0
-1856 -1966 0
650 -1359 0
1032 -202 0
-1040 -426 0
133 2108 0
2024 733 0
-808 -1036 0
231 1306 0
-1260 -352 0
1858 1533 0
186 -1147 0
-689 2176 0
1730 -1048 0
-1510 -1194 0
-1476 -1203 0
851 751 0
662 16 0
1453 -334 0
-1495 -1717 0
-735 1579 0
-1079 -2158 0
678 1920 0
1919 4 0
100 2175 0
808 577 0
204 -2087 0
-1603 -732 0
-1448 -1364 0
2168 -1621 0
1923 1611 0
-1576 -2109 0
74 -1119 0
621 -469 0
-551 832 0
155 1008 0
-1216 241 0
571 -2055 0
-2106 1746 0
-1836 -102 0
292 180 0
623 1932 0
387 130 0
748 -933 0
59 1477 0
1482 83 0
-843 -2127 0
-445 -683 0
-981 -851 0
-1883 -1374 0
2173 -944 0
1490 448 0
118 -2085 0
-1109 831 0
-2152 -142 0
860 2082 0
-1341 631 0
-445 641 0
-281 1675 0
-103 -1415 0
-132 -1919 0
-25 -1919 0
-1566 -1234 0
-2080 932 0
255 -1251 0
-1101 989 0
380 424 0
-25 -1290 0
-907 143 0
2169 247 0
1875 1457 0
-1468 312 0
320 -1236 0
-2169 -612 0
-902 -1812 0
-177 1551 0
-310 -1333 0
-517 1586 0
590 126 0
-1360 -275 0
73 2165 0
414 -1595 0
449 -818 0
-1898 -1030 0
1315 -997 0
1844 491 0
-1962 679 0
589 564 0
288 -1888 0
523 266 0
-1614 -1236 0
-1592 1904 0
-1230 -1595 0
2130 1238 0
-2029 2005 0
-53 -1381 0
-1326 945 0
-1307 -474 0
-1693 1232 0
-506 2125 0
-113 -1556 0
1883 -1419 0
-964 1337 0
1064 -2044 0
1026 -925 0
-846 -644 0
-1906 699 0
1339 -1734 0
-947 588 0
-1325 408 0
-1509 749 0
808 1146 0
-972 -1890 0
357 -1874 0
344 1934 0
-1284 923 0
-807 1608 0
961 -1095 0
-2043 -995 0
1433 -982 0
953 -1217 0
776 2159 0
1966 -1760 0
172 -683 0
-505 -1521 0
-1933 -2101 0
2008 -612 0
1550 -1798 0
564 1210 0
-123 826 0
-1709 286 0
-1042 504 0
-2084 -84 0
-1503 794 0
-2089 -1822 0
1146 -1108 0
1390 -757 0
-709 1188 0
2130 11 0
-2099 -1346 0
234 1324 0
1854 -220 0
-54 1655 0
-1623 1172 0
697 867 0
-693 -914 0
930 -1095 0
427 1684 0
1923 1274 0
-1385 -1778 0
-199 -484 0
550 -1301 0
-398 -2005 0
-1406 -462 0
789 1515 0
-863 1483 0
511 -700 0
-548 -876 0
1894 1344 0
-1147 2048 0
801 1542 0
-1209 -2033 0
1407 -265 0
-1360 -1714 0
-1801 -819 0
351 883 0
330 46 0
609 2118 0
297 -732 0
151 -1305 0
477 -2053 0
-1505 178 0
518 423 0
1720 1082 0
-715 -863 0
-446 742 0
-1300 1926 0
893 -228 0
-1725 369 0
-1224 -2029 0
-106 1645 0
323 1244 0
1987 1137 0
-1603 1837 0
-452 1398 0
1094 385 0
561 1003 0
-1089 -1681 0
166 549 0
346 -2154 0
454 -708 0
-143 1325 0
-1841 1974 0
1785 1362 0
1908 -287 0
-1680 -1664 0
-338 1896 0
-868 1859 0
994 1325 0
-1591 63 0
1157 995 0
1445 -1285 0
279 92 0
1910 1318 0
-1060 -1258 0
-245 2178 0
1434 -1048 0
-2117 1831 0
1516 -1147 0
634 1491 0
211 348 0
870 -1582 0
839 -1731 0
589 -1506 0
-575 -1564 0
2011 -49 0
-1119 -851 0
-502 2135 0
-1906 -987 0
-495 685 0
-59 138 0
950 -1484 0
1721 -1899 0
-238 -313 0
-1099 -725 0
373 -728 0
-609 1721 0
-1772 -711 0
-1558 1742 0
-680 -1724 0
-654 1896 0
1169 108 0
-445 1145 0
2017 449 0
-435 1481 0
1560 -862 0
-701 748 0
-1106 -1772 0
1728 -610 0
2166 -1009 0
402 925 0
1172 1293 0
253 -1560 0
-1320 11 0
1255 -1510 0
-1235 992 0
825 -1662 0
1219 107 0
1920 -1548 0
-2181 998 0
5 1967 0
1263 1640 0
-1317 1037 0
263 -956 0
2062 -630 0
-596 -1946 0
-1612 610 0
-1407 191 0
-2164 1267 0
-355 -1760 0
-1521 -2168 0
40 -977 0
1600 1426 0
819 -1548 0
494 -1041 0
589 -1339 0
1158 -818 0
-1337 278 0
397 -522 0
1850 -353 0
-1148 934 0
1160 -714 0
12 2084 0
1364 394 0
1466 419 0
-1393 1338 0
-687 -1195 0
468 -1582 0
-1453 866 0
941 -568 0
1876 1293 0
1431 -34 0
160 -1297 0
184 59 0
-894 -1767 0
604 1101 0
-1768 -426 0
-632 -311 0
467 -1791 0
1339 1823 0
136 1074 0
-659 -479 0
1103 1031 0
-1742 -1386 0
-192 955 0
1993 -985 0
-1653 595 0
1984 1269 0
71 1954 0
2133 -1330 0
-1418 -355 0
-1059 1329 0
-833 2116 0
1944 -1444 0
1998 -409 0
-429 499 0
-1987 2013 0
-1098 -199 0
-1244 -1130 0
-1077 -80 0
-500 -972 0
470 650 0
-2047 -1398 0
1187 1079 0
1657 -1391 0
1547 -939 0
655 -1199 0
1503 1755 0
-1113 1987 0
426 619 0
-1057 -732 0
-1913 -337 0
-1601 -581 0
513 1941 0
1775 -396 0
823 -19 0
1344 -756 0
-885 1478 0
2092 -34 0
1187 363 0
-986 1414 0
-1023 -1332 0
-676 3 0
711 97 0
-2169 1796 0
413 -512 0
-464 1717 0
1623 -473 0
2179 1021 0
395 -1795 0
1649 387 0
-262 652 0
357 -2111 0
1391 1686 0
-926 228 0
1028 593 0
-1911 1177 0
-774 1325 0
-72 -1132 0
290 -107 0
1733 321 0
-1726 1516 0
1589 -908 0
-2009 533 0
761 -904 0
873 -2113 0
908 812 0
-911 1447 0
-1792 745 0
1151 2102 0
1652 -2100 0
-452 -1958 0
1111 1063 0
-1506 -1491 0
2148 -687 0
-1323 -775 0
273 668 0
349 -489 0
-842 -1273 0
-773 -1421 0
379 120 0
2175 -588 0
-1039 -1045 0
-1912 -348 0
-1770 776 0
421 803 0
1353 -2089 0
-1332 -1471 0
1656 46 0
63 -206 0
-1529 -530 0
-1419 -119 0
-743 -1749 0
-911 1080 0
-1423 -626 0
952 765 0
649 439 0
1339 -647 0
1842 1866 0
1663 -932 0
1232 2129 0
2012 -955 0
-2097 1998 0
406 1778 0
-971 -481 0
-843 1540 0
-841 1012 0
-1367 -545 0
1854 497 0
1171 1840 0
-380 -510 0
-401 -693 0
1031 -1454 0
-1794 -774 0
-843 771 0
823 -1330 0
2128 -452 0
658 792 0
-2169 1292 0
441 -1570 0
-41 1801 0
-435 1622 0
1905 -186 0
-1741 1889 0
-383 -1736 0
1271 647 0
-1814 -477 0
-1009 761 0
-1541 2119 0
-483 -1406 0
-1568 -5 0
371 1708 0
-2112 140 0
-2037 -1893 0
763 -473 0
-980 -1107 0
1528 -225 0
1665 1916 0
-2111 -1343 0
-1646 -1810 0
855 2180 0
-1915 -1354 0
-1761 2045 0
-1698 498 0
-341 1364 0
-1798 -2088 0
1982 2090 0
1143 375 0
629 -230 0
1960 1214 0
-111 -1396 0
998 -1890 0
-559 930 0
1197 -262 0
-1170 782 0
638 -731 0
1234 310 0
-1455 171 0
2154 10 0
-1019 -342 0
8 -1695 0
-1383 969 0
1661 -1468 0
1212 1862 0
-798 -655 0
-1452 -11 0
829 -26 0
-300 1104 0
467 -1533 0
-967 869 0
786 1529 0
589 -493 0
-459 862 0
1547 230 0
-1505 1766 0
-2169 -868 0
-1667 128 0
893 1975 0
35 1862 0
1663 1120 0
1861 -311 0
-535 -1431 0
1691 1342 0
639 183 0
-2133 -637 0
981 82 0
-743 114 0
-577 -1660 0
169 914 0
-43 1918 0
467 1886 0
-981 53 0
1034 673 0
2101 347 0
-1199 844 0
1364 565 0
-1834 -1113 0
730 1624 0
-905 1786 0
-1446 -1810 0
2176 -884 0
-1913 -686 0
-1659 -1683 0
1566 -1857 0
-853 1302 0
789 -1244 0
-546 2071 0
765 1004 0
1526 1289 0
734 1924 0
-1773 -97 0
-1947 -381 0
-1056 -997 0
143 -1541 0
-7 593 0
553 923 0
7 208 0
-1842 -177 0
776 1597 0
1260 -271 0
1803 122 0
804 -509 0
-2142 -1757 0
-972 -743 0
957 -1845 0
1330 -1174 0
-1547 -1295 0
2144 -808 0
-792 -626 0
-161 281 0
1726 940 0
963 -1485 0
1959 -526 0
-715 -1093 0
154 2000 0
1002 -917 0
442 -481 0
2079 1392 0
-1669 893 0
1292 1121 0
1210 -1757 0
192 160 0
-363 -247 0
-1068 -1951 0
-593 -2039 0
596 153 0
-707 226 0
1503 1499 0
1496 -1026 0
1685 -343 0
2173 2093 0
-124 1062 0
158 2159 0
-2119 -1967 0
-1643 1899 0
881 -184 0
1874 -741 0
352 1702 0
802 554 0
1554 1504 0
1486 -1826 0
-452 406 0
-1061 -18 0
989 -2140 0
-1539 87 0
2179 1 0
16 54 0
-629 1440 0
-1613 954 0
-81 -891 0
-209 -1013 0
-1495 542 0
1920 811 0
-1069 -1084 0
1457 -1065 0
-36 1389 0
1353 -1044 0
559 -651 0
1370 -1286 0
-431 1286 0
-1156 716 0
590 -1056 0
-1426 -835 0
-1614 -1615 0
339 -1684 0
693 1173 0
-471 981 0
528 869 0
-640 -920 0
729 1649 0
-181 1259 0
-1385 -694 0
-1326 -2092 0
-1831 77 0
110 -1584 0
-647 509 0
-1583 1875 0
-1325 -1527 0
-2043 -162 0
-1655 515 0
-1547 1650 0
-1290 -91 0
467 419 0
-251 1949 0
-474 2137 0
814 -779 0
-265 818 0
1303 212 0
74 -1433 0
-1050 354 0
-807 202 0
-1710 -65 0
1219 -1363 0
240 -1497 0
1963 1920 0
1762 2065 0
1919 -530 0
2054 2159 0
-1945 -563 0
-1425 1650 0
-311 1412 0
-1246 -1484 0
-1113 1245 0
-1837 861 0
-1217 -1231 0
-1664 -1031 0
1584 1429 0
-555 -455 0
1287 -1238 0
-533 -134 0
-2017 1087 0
1891 -1001 0
1174 1955 0
953 -1736 0
-1970 385 0
-752 38 0
1242 -1111 0
-316 704 0
-789 1430 0
649 1541 0
503 -1497 0
14 -1567 0
1315 803 0
-1421 448 0
-1839 -1295 0
329 1793 0
-1010 -1557 0
-1220 1481 0
2137 -1309 0
1561 -591 0
-2098 1986 0
1685 350 0
129 -256 0
1719 -1109 0
618 -2143 0
-1765 1605 0
-822 1920 0
-1898 842 0
-215 627 0
-1820 1440 0
-436 -773 0
1886 -1056 0
-1482 -790 0
-540 1188 0
-1060 -1385 0
-2044 2075 0
-991 1750 0
-1638 -346 0
-480 -464 0
1003 71 0
-666 -287 0
427 -1224 0
347 498 0
1652 -855 0
-1418 -2164 0
-309 -1538 0
-665 -669 0
-921 -1313 0
-1932 1640 0
1849 1576 0
-1711 -1535 0
-150 390 0
-1482 -1367 0
-472 -500 0
-1232 -1602 0
-424 1749 0
293 -1902 0
1331 1729 0
1378 276 0
208 -371 0
855 1196 0
-940 1266 0
1604 1139 0
-1790 1330 0
-270 -465 0
309 -304 0
-434 -1595 0
1350 699 0
932 245 0
-1735 1404 0
1702 -1605 0
-1885 1161 0
-43 1856 0
612 1948 0
1548 -474 0
-1879 -361 0
1599 1155 0
1439 366 0
430 -1831 0
1645 986 0
-1909 -1454 0
2 -1284 0
-1557 1816 0
-1071 1496 0
-1499 1870 0
-97 448 0
1428 2047 0
-933 -986 0
206 -1254 0
-309 -1863 0
1383 -36 0
1081 -1977 0
-964 1503 0
1687 1578 0
-2036 2143 0
1204 -882 0
-1797 1796 0
428 1069 0
1941 -271 0
-673 120 0
366 776 0
-1374 1774 0
-1957 1107 0
-2162 -1970 0
-1236 -1080 0
-868 1534 0
1234 1125 0
-784 -1397 0
-453 1426 0
704 2005 0
499 1749 0
-826 538 0
-1114 1875 0
-7 2017 0
-611 427 0
-1130 -554 0
-1374 -1270 0
-157 1581 0
-908 196 0
-153 49 0
621 -284 0
-1124 208 0
-146 280 0
-1103 -1601 0
-1938 -1274 0
152 -434 0
601 -335 0
2064 1086 0
21 1001 0
75 -1179 0
-1400 1599 0
1646 636 0
-265 1475 0
-234 30 0
-1056 -441 0
969 -1107 0
1074 -62 0
-216 774 0
972 -1919 0
-2165 -2119 0
1618 -1320 0
28 -1763 0
-1462 -1743 0
863 396 0
-2007 1647 0
1128 791 0
-1113 -642 0
-227 -774 0
-807 -107 0
-542 -1890 0
-400 446 0
185 254 0
-864 -938 0
-498 -330 0
1288 -1748 0
-901 -1579 0
-1623 1292 0
-854 1231 0
-1894 854 0
1587 425 0
-429 1302 0
-84 -1054 0
-910 -769 0
-1865 -15 0
392 -718 0
-1898 -540 0
1084 -1330 0
122 -754 0
-1853 932 0
-201 -1421 0
920 -379 0
1384 2058 0
785 -1356 0
1577 1772 0
1037 1263 0
1482 -1770 0
1655 1228 0
-990 523 0
864 -1534 0
-1361 -1267 0
-15 166 0
224 2005 0
834 1892 0
1045 2047 0
1485 -1436 0
-535 -910 0
-1318 -724 0
-342 1823 0
1616 798 0
232 -1894 0
-796 1841 0
-348 587 0
-1448 -2142 0
1823 -517 0
-1207 -1022 0
626 -1449 0
-1957 -1169 0
-1988 1540 0
-309 1412 0
1774 418 0
2110 2165 0
-97 1151 0
-949 -2156 0
905 1370 0
1687 2073 0
-452 -338 0
449 1240 0
-884 1139 0
438 -1090 0
-233 1412 0
1969 787 0
-283 1172 0
720 411 0
-224 1954 0
803 -918 0
-923 957 0
-681 247 0
1465 435 0
1383 1548 0
-65 31 0
-400 1671 0
-2009 -2099 0
540 1749 0
592 -807 0
-1443 -2008 0
-1977 -541 0
1041 -1510 0
-2165 -1448 0
1832 1214 0
-90 -2004 0
-491 -1680 0
-642 510 0
-1691 1244 0
-430 477 0
-1550 1973 0
-2053 -955 0
-2166 -334 0
-755 1511 0
-484 102 0
-398 1080 0
-918 1204 0
539 1571 0
-1629 -1981 0
3 203 0
-596 1185 0
-1183 1820 0
768 -1423 0
532 -35 0
-1967 320 0
-1212 -2139 0
-1780 -1135 0
-817 -404 0
1411 567 0
865 -1751 0
-527 -1789 0
1699 -1556 0
875 -19 0
-496 -1741 0
-525 1657 0
716 1931 0
-1091 1868 0
-321 -465 0
-353 847 0
-1419 -1230 0
914 1387 0
1026 898 0
602 1014 0
1359 -661 0
125 2131 0
1650 -414 0
-331 1717 0
-410 -1950 0
-234 -550 0
-1150 1417 0
2059 -430 0
-1147 1784 0
1753 -2042 0
1210 80 0
1591 1504 0
-509 981 0
1699 1137 0
-29 -1050 0
-383 -1030 0
306 -1483 0
726 -97 0
1628 2157 0
-862 -495 0
2147 1860 0
447 318 0
-1857 272 0
1568 -2143 0
-1189 670 0
2008 -551 0
2067 2096 0
548 -218 0
521 2072 0
-1238 -1821 0
-1991 447 0
1255 -1777 0
950 -1082 0
-858 -765 0
-551 -1804 0
-1188 1766 0
-110 -1946 0
-961 -5 0
1034 749 0
-848 -1420 0
130 1494 0
-1195 -1661 0
-2139 846 0
174 814 0
1173 1658 0
1127 840 0
1208 -1943 0
-712 994 0
42 470 0
-2120 2116 0
1137 -849 0
1832 -626 0
1918 -1103 0
2049 -563 0
2013 -51 0
-419 1928 0
1487 -281 0
801 -258 0
2017 -1716 0
1726 -1142 0
-1837 -1387 0
-848 -202 0
274 1336 0
2036 -309 0
8 718 0
-1311 1109 0
-406 941 0
-117 -2007 0
-1820 -1169 0
-848 -1098 0
1447 -859 0
1428 -746 0
-614 517 0
1041 -1356 0
2075 -255 0
-1827 2168 0
472 -105 0
28 1521 0
-459 -1298 0
-1159 329 0
-887 52 0
1597 -1792 0
411 -1113 0
-463 397 0
1461 -1319 0
1596 -83 0
-257 -158 0
179 609 0
229 515 0
-1243 -1005 0
-910 -759 0
-724 -1278 0
-1985 -1738 0
1195 1793 0
-323 1063 0
-410 1175 0
-418 284 0
1750 -243 0
1050 -1507 0
711 -1875 0
-726 843 0
-1506 -268 0
-99 -376 0
-980 96 0
291 -1366 0
-1387 -1391 0
620 485 0
-1728 -933 0
-1849 357 0
-1013 1267 0
57 -550 0
610 -1273 0
1084 -668 0
462 -585 0
-883 375 0
602 1591 0
1031 1047 0
-490 -927 0
-692 1121 0
633 -1770 0
1581 -730 0
2179 499 0
1840 -1927 0
214 2110 0
-1824 -1763 0
117 -75 0
-916 -1764 0
-1759 828 0
-751 872 0
2072 7 0
-186 -2037 0
850 1068 0
-156 -1381 0
28 551 0
-2164 -337 0
414 92 0
1038 1946 0
-1582 207 0
-774 223 0
-159 1829 0
-1357 -1930 0
-466 1331 0
1485 111 0
-105 -640 0
-237 -680 0
734 -585 0
1529 -279 0
912 890 0
1525 1292 0
579 2071 0
-493 450 0
1222 -538 0
-784 398 0
1268 -1716 0
-2007 1911 0
288 713 0
1347 1123 0
-640 1085 0
-1015 -1522 0
-807 -2085 0
-1913 -2002 0
892 -947 0
1786 -1105 0
-774 88 0
1657 -1569 0
-1633 1784 0
1037 1104 0
-1354 2056 0
-674 1920 0
-1162 -1299 0
-2109 2070 0
-85 -1470 0
-90 928 0
1439 1063 0
-1426 -1326 0
-1729 -2091 0
-1283 -701 0
-1072 -1624 0
414 -1007 0
948 1283 0
200 299 0
-1872 425 0
200 -1195 0
616 -706 0
-647 -1012 0
-732 145 0
-735 -452 0
716 376 0
231 -341 0
302 820 0
564 -1867 0
502 -606 0
1841 -309 0
-269 1704 0
-625 565 0
-884 -1206 0
-1753 -861 0
-1933 -1111 0
-1987 -1628 0
-427 989 0
-543 966 0
576 699 0
-1506 -1207 0
-1175 -259 0
-800 1529 0
-1816 730 0
1565 -1994 0
-1780 -740 0
-1770 -502 0
-476 -1978 0
1766 769 0
-885 -544 0
1637 -369 0
1554 -2164 0
-1152 -808 0
567 1451 0
-644 -1701 0
2007 2157 0
-219 -1527 0
-68 1350 0
302 1841 0
28 -879 0
-970 -1594 0
1584 -602 0
-1140 2130 0
176 366 0
744 -843 0
-1741 1858 0
-2181 -2113 0
200 1869 0
-774 283 0
1252 -1282 0
-877 -1774 0
1645 1771 0
-215 -157 0
826 308 0
-1468 1460 0
-685 1606 0
1733 1324 0
1749 -1672 0
1910 834 0
1891 789 0
832 -96 0
-389 -108 0
-2007 1752 0
-1483 -1309 0
2096 -901 0
-902 292 0
-718 421 0
1002 -2014 0
430 -1683 0
394 2156 0
-1936 -534 0
190 -1878 0
-97 -871 0
804 -1076 0
-616 -105 0
-1814 672 0
-832 49 0
-1989 -251 0
1551 -258 0
1502 2172 0
-193 662 0
-534 860 0
-1023 1343 0
670 -2033 0
-1344 794 0
-1549 112 0
1872 -1051 0
535 -65 0
2101 1811 0
-1784 1592 0
-538 713 0
-1434 134 0
1177 -1887 0
-1669 1504 0
590 385 0
2159 -1651 0
-704 77 0
-973 -1472 0
1959 -23 0
1503 394 0
764 -492 0
-1805 1064 0
1806 -1131 0
-1912 926 0
58 -1247 0
1116 2095 0
305 -29 0
824 1889 0
-1622 1387 0
2048 -2069 0
2160 -643 0
1187 -2123 0
-947 -355 0
-874 -1695 0
-961 -1498 0
244 70 0
1932 -645 0
1467 -1272 0
-797 1592 0
-1227 -1804 0
1621 -691 0
514 -1696 0
-1999 1600 0
1489 1949 0
-1183 -1347 0
-1349 769 0
-810 192 0
-1510 311 0
412 -1833 0
-1492 1297 0
400 -20 0
1896 -2182 0
-1147 -1614 0
-579 2054 0
1621 -623 0
-2154 -1218 0
187 1152 0
440 1604 0
-1356 -370 0
1975 1880 0
2016 -1385 0
2093 1313 0
70 -711 0
1024 1017 0
422 -1369 0
-1089 1519 0
-738 693 0
-2065 1646 0
675 -1574 0
1064 407 0
948 1604 0
-1053 2059 0
-2067 1206 0
-986 -1480 0
1640 1655 0
147 147 0
-213 1146 0
1453 1357 0
1210 -1879 0
-1432 836 0
1185 268 0
-1905 1324 0
-2076 -382 0
2000 19 0
392 -1507 0
1290 -2031 0
1619 -1572 0
46 -2153 0
-202 1840 0
-705 -414 0
-1305 1745 0
-382 1299 0
-1573 -460 0
-1933 1198 0
1900 -1285 0
-1290 43 0
1044 1028 0
1600 66 0
-607 839 0
1502 1122 0
-957 -1739 0
1176 -819 0
-1326 -582 0
905 1006 0
1437 1075 0
-1426 -1204 0
2083 83 0
1812 1886 0
-2119 -2025 0
-1493 1197 0
1425 -1890 0
1581 -776 0
-1826 628 0
290 408 0
660 923 0
492 1555 0
1486 -2061 0
1366 1811 0
247 -1702 0
1442 1473 0
-707 -2134 0
290 1599 0
871 828 0
1684 1006 0
-907 -1769 0
-682 1671 0
-193 1515 0
1397 1766 0
1416 2027 0
1907 -1171 0
-1899 -907 0
-257 1006 0
-146 -526 0
-188 -161 0
-1558 -2036 0
1121 -1727 0
-334 1303 0
1489 881 0
-2094 -169 0
-1103 428 0
-1528 -803 0
-1132 140 0
168 1857 0
-1780 -904 0
2114 2048 0
-269 -573 0
895 -1227 0
1080 -1943 0
-989 -726 0
-2055 -372 0
170 969 0
1939 639 0
-919 32 0
1904 2115 0
44 1409 0
-790 -2119 0
185 -1361 0
-1081 1133 0
424 -2126 0
-529 -951 0
1144 881 0
-1760 -1337 0
1153 1077 0
-1835 1598 0
-55 394 0
-1056 172 0
247 1863 0
608 -648 0
-1975 -757 0
-530 -1071 0
-652 -515 0
-652 -117 0
-1592 -1283 0
588 400 0
-1795 -2036 0
1480 1084 0
-1482 779 0
2079 -511 0
598 -772 0
2046 140 0
881 1358 0
-1291 196 0
-1603 1143 0
-1738 1751 0
1880 -1249 0
671 -700 0
-1795 -1743 0
-1432 -1469 0
646 -342 0
1141 2029 0
1969 1589 0
768 -395 0
-1035 654 0
1653 -942 0
1287 845 0
1058 1538 0
-447 1816 0
-1784 490 0
-993 82 0
352 1466 0
110 -1600 0
1439 579 0
206 -1089 0
699 -377 0
-1842 -568 0
649 -1557 0
-281 765 0
-1833 -661 0
728 -1116 0
-1623 1316 0
1826 791 0
-1495 -1618 0
-1569 -1283 0
-258 -215 0
1334 1101 0
-367 1243 0
-525 831 0
2122 -1250 0
-1211 807 0
2151 332 0
1829 142 0
632 14 0
896 -593 0
1427 500 0
464 -1677 0
2043 307 0
1110 -669 0
-690 -216 0
1491 -1514 0
917 -2142 0
-476 -1509 0
1751 -632 0
-1042 1393 0
675 -446 0
1443 -1135 0
764 -2077 0
1232 2128 0
-1202 -1133 0
2058 -1172 0
307 -1662 0
468 -426 0
-720 -1653 0
1137 -1945 0
2161 1753 0
-725 -1060 0
-2056 1587 0
180 143 0
-1519 -2048 0
1580 -99 0
1310 24 0
-1860 -1536 0
2114 1377 0
-1158 -647 0
1126 1365 0
126 681 0
-335 -1446 0
1123 -406 0
-821 -2023 0
277 -427 0
-1821 -590 0
-1911 -320 0
-2090 2011 0
-1208 641 0
-1805 830 0
-705 683 0
1038 -2089 0
-620 -1179 0
-297 1681 0
-1122 5 0
-1813 1291 0
1959 1193 0
-1883 -930 0
-1011 1395 0
836 414 0
-1783 -581 0
689 -2044 0
-80 1364 0
-1102 395 0
-1602 -1036 0
73 2107 0
1261 2056 0
1075 -365 0
-1729 -1519 0
260 1733 0
737 555 0
-980 431 0
1650 -310 0
1286 -1090 0
1116 2134 0
313 -1163 0
1093 -701 0
-451 1599 0
597 2171 0
-55 -1423 0
750 1815 0
2128 -277 0
917 -998 0
-959 1646 0
1885 -617 0
1292 -331 0
-505 -1288 0
-1456 -1330 0
-1879 -714 0
1771 -188 0
588 1119 0
409 -37 0
358 -1534 0
-1057 391 0
938 79 0
490 -2050 0
-1406 -1307 0
-986 -774 0
1535 -1797 0
1031 -1711 0
503 -1176 0
314 -1402 0
-1383 -66 0
-65 -880 0
-462 -221 0
1104 1901 0
1296 2065 0
-1563 -1598 0
554 434 0
1856 -1082 0
-1579 408 0
-1825 909 0
457 799 0
1620 -1654 0
1477 1014 0
-1680 -1064 0
1618 2107 0
1120 1646 0
1921 793 0
467 60 0
-529 -1797 0
1053 -983 0
-904 1644 0
639 2012 0
625 -2108 0
-1595 -601 0
-22 -1945 0
-221 -477 0
-857 -2157 0
1875 -533 0
-640 390 0
-1493 -458 0
-1374 -407 0
791 -1093 0
-806 -415 0
-343 -1175 0
966 -556 0
-2057 194 0
408 -2002 0
-113 -209 0
1394 -808 0
744 -1584 0
-98 -1470 0
-287 1218 0
-630 -309 0
-242 -1166 0
1818 31 0
-1089 -2020 0
-2032 -1791 0
-7 931 0
1408 -106 0
-1952 605 0
820 896 0
1133 631 0
58 51 0
-57 1366 0
-1145 43 0
-846 -1638 0
-186 -810 0
-1800 1846 0
-628 -1102 0
551 814 0
-386 -65 0
-426 -17 0
-1837 1774 0
-359 1723 0
2038 -1333 0
463 612 0
91 -1258 0
-1308 -1429 0
564 -1152 0
-582 387 0
-865 -224 0
-810 -105 0
-1126 162 0
1721 1512 0
1700 188 0
1123 -1941 0
1573 1796 0
-1348 -106 0
532 -731 0
2007 1244 0
126 -568 0
-1381 1428 0
1453 402 0
1907 -429 0
-645 -1642 0
-1174 -1846 0
-1189 -812 0
-1902 -1942 0
369 -1706 0
-493 -216 0
1520 -205 0
2166 1917 0
1916 -405 0
-1112 -1535 0
2157 -174 0
912 442 0
1498 -1855 0
1856 -1833 0
-1617 -2027 0
-1125 279 0
2012 -1919 0
-1603 1403 0
-1190 440 0
-757 218 0
-417 2081 0
824 -679 0
-686 -1970 0
-1958 -1004 0
-1139 1991 0
1767 1547 0
1135 697 0
135 288 0
1219 -831 0
-2007 1037 0
-131 -1661 0
-741 -1491 0
2158 2068 0
523 -1934 0
-835 -108 0
1127 1643 0
-251 1374 0
-1092 223 0
-1648 290 0
1403 2151 0
1559 383 0
-106 2023 0
-1055 -2090 0
1119 306 0
-1967 67 0
187 1922 0
-547 -604 0
-500 1908 0
-1236 523 0
-1584 -1352 0
355 421 0
-1737 422 0
-1966 -1348 0
-1279 49 0
-1985 -1804 0
-1639 1638 0
1686 -1175 0
1856 1858 0
-1459 1310 0
-429 1726 0
2011 -1069 0
230 -974 0
-1739 -770 0
165 -998 0
-707 960 0
-2063 -2053 0
-1061 197 0
-690 -868 0
-88 557 0
1708 -1034 0
-676 2162 0
-117 2022 0
166 1040 0
387 1190 0
806 -1770 0
-1937 46 0
-547 1555 0
-1218 1620 0
-1367 560 0
-2135 -1967 0
1644 1366 0
-142 -71 0
2043 -1651 0
-1297 1465 0
535 1234 0
-65 -186 0
595 -1390 0
2138 1932 0
370 1393 0
-1191 12 0
297 -132 0
-1914 -652 0
200 -1989 0
461 2044 0
-11 1981 0
-1051 -408 0
-110 -2003 0
656 269 0
522 -564 0
-242 -1108 0
1829 1378 0
455 -1073 0
1231 -1698 0
-806 -272 0
1465 1670 0
-1059 -1098 0
1903 -169 0
-1530 -1617 0
-714 519 0
1068 -1147 0
898 1858 0
996 2064 0
-1188 934 0
28 -361 0
-305 -1827 0
171 -390 0
653 -1533 0
-784 1561 0
-1723 1783 0
-1462 1703 0
-1822 733 0
349 1192 0
-1884 866 0
-1788 -116 0
1370 -790 0
-1411 565 0
667 92 0
1032 1026 0
-463 -1674 0
1140 82 0
-1270 2169 0
-921 -1976 0
1737 1530 0
1782 297 0
277 -1887 0
-453 -404 0
2047 744 0
1079 17 0
-2113 425 0
-1387 969 0
2058 1359 0
1289 -407 0
-1867 1745 0
541 -2057 0
555 -1702 0
1367 -102 0
-276 -649 0
248 250 0
387 338 0
872 1224 0
1105 -396 0
758 716 0
1786 -1194 0
2165 -1236 0
1936 1019 0
1621 -234 0
1586 -1517 0
-131 1671 0
-63 200 0
-1176 953 0
902 711 0
373 -161 0
-1289 1205 0
-1813 1957 0
576 -775 0
492 2121 0
1372 -1754 0
-1069 696 0
-415 373 0
560 -588 0
-2034 -1041 0
1023 -1380 0
94 2119 0
-237 226 0
409 1043 0
860 -1195 0
703 -1448 0
-193 -1944 0
-1625 -2029 0
-9 183 0
-185 555 0
948 228 0
215 -705 0
-205 651 0
-1096 1997 0
2157 1087 0
-1052 -381 0
1148 -996 0
1290 -1425 0
-1568 -174 0
945 -1409 0
-666 -1543 0
-1415 -724 0
-823 -1420 0
-556 1640 0
1685 913 0
-929 396 0
-1956 1861 0
1438 15 0
-1953 -1639 0
-1239 2058 0
-350 -26 0
1034 501 0
-199 -125 0
-1003 240 0
370 -1392 0
934 2079 0
-325 1643 0
2045 -1913 0
-1738 -1247 0
-1599 2180 0
-1510 1985 0
1687 -1997 0
338 -1389 0
794 1485 0
-186 -1367 0
1491 508 0
2157 1134 0
839 616 0
694 16 0
1083 635 0
-849 1141 0
1031 1053 0
880 1336 0
-1150 247 0
-1905 -1984 0
1212 1966 0
1758 -1855 0
1473 938 0
126 643 0
-617 -166 0
-1526 1751 0
-1019 -1258 0
-274 -211 0
-468 1393 0
393 1972 0
-633 1713 0
-157 -743 0
-1754 2068 0
2071 -1398 0
69 -977 0
-850 1152 0
729 1777 0
1316 239 0
134 -746 0
1627 1395 0
1327 -358 0
-1714 2116 0
-686 -2110 0
-1878 -1791 0
796 -1140 0
-1122 -2140 0
-299 -359 0
71 699 0
144 4 0
94 61 0
-1699 -1795 0
-2101 -1711 0
-1850 1259 0
92 -459 0
1394 1211 0
-1787 673 0
-327 2113 0
-1231 1940 0
560 1067 0
1398 -1308 0
-1523 -9 0
186 -1307 0
-1488 -531 0
17 -938 0
1749 1916 0
1678 -1040 0
-1149 -362 0
-859 393 0
777 1355 0
1004 2152 0
50 1461 0
487 -376 0
1548 -1328 0
1476 -1386 0
152 590 0
-165 -1042 0
1990 -1251 0
1423 924 0
-1054 -417 0
-292 1015 0
-1471 -118 0
2179 -1229 0
-2122 1395 0
-1200 857 0
-467 1355 0
1972 -2084 0
523 -1356 0
454 458 0
-1132 -480 0
391 -1432 0
1781 1616 0
1889 -1889 0
1454 -1365 0
-516 119 0
-976 588 0
458 149 0
806 -316 0
-225 1523 0
-968 -1494 0
-1189 -1538 0
479 1650 0
-1963 -364 0
190 518 0
723 1412 0
-848 -1544 0
756 247 0
-1786 250 0
1310 1684 0
-1733 1027 0
1868 -48 0
1894 -834 0
-15 1869 0
1203 -346 0
1996 -326 0
495 1668 0
678 914 0
121 -1432 0
1972 261 0
770 1019 0
-1534 -255 0
631 1504 0
-742 1841 0
-1341 -302 0
-398 -1299 0
-1154 1218 0
-1600 -489 0
-1647 2079 0
-1079 1845 0
-244 -1900 0
-1471 -372 0
-59 456 0
-2088 1119 0
-1285 -454 0
-2111 -892 0
-1093 1823 0
-1517 -889 0
2137 -1462 0
1355 -445 0
1616 -806 0
-1902 118 0
182 -245 0
1144 -518 0
603 -782 0
1709 -1211 0
318 77 0
1329 624 0
1303 -1875 0
1228 1802 0
695 -1026 0
931 855 0
1958 -276 0
1740 -757 0
-1810 -80 0
557 1879 0
2160 -1472 0
-788 -1039 0
1035 315 0
578 1628 0
-2169 144 0
2150 -218 0
1844 833 0
-661 915 0
415 89 0
334 1873 0
-1484 956 0
-941 1974 0
-1135 56 0
1346 -2079 0
204 -1477 0
-106 -543 0
832 -807 0
-1518 -890 0
298 -694 0
1394 -225 0
-1609 1338 0
444 -1098 0
-34 1570 0
-638 1290 0
-1906 1583 0
453 1052 0
-320 -135 0
-85 -330 0
-726 -1627 0
1048 634 0
1135 1405 0
-1458 1184 0
-543 1577 0
1631 953 0
-1070 -95 0
1151 -409 0
70 -323 0
-1785 100 0
-847 -201 0
-324 1972 0
1978 -1204 0
1032 -1817 0
40 -1449 0
1094 1127 0
1269 125 0
590 650 0
885 1003 0
-1015 975 0
87 -556 0
-1160 55 0
168 -1540 0
1771 -597 0
1000 373 0
900 276 0
-1728 -285 0
-904 1059 0
-666 -1175 0
549 683 0
-1723 -890 0
371 1747 0
1336 -398 0
-1842 1242 0
-1625 553 0
2044 -865 0
-1007 -1791 0
180 -1083 0
-549 422 0
1675 -2054 0
-1217 -1035 0
-2087 768 0
1867 804 0
-864 -211 0
-1885 -534 0
76 -463 0
1702 -1994 0
2117 -1089 0
-961 -922 0
-1437 -690 0
-1950 -1528 0
-1291 1109 0
-437 -186 0
2155 2082 0
-1068 -1016 0
-1659 -1051 0
-1641 -1893 0
1269 1239 0
-1281 1864 0
1348 1918 0
2133 -927 0
1043 251 0
-715 137 0
-764 1028 0
-1476 1883 0
463 426 0
-1429 588 0
702 -1160 0
1477 2122 0
-1198 49 0
-1630 1063 0
-440 -585 0
347 1800 0
367 827 0
-205 -1849 0
594 138 0
-1563 -892 0
-109 1205 0
-690 1141 0
408 -575 0
-1776 865 0
-647 1464 0
-864 2059 0
-45 -149 0
-1759 -43 0
-51 -1217 0
1004 1029 0
-1790 -1927 0
1663 -1211 0
-7 -1596 0
-1298 -2084 0
1471 -256 0
-1846 2159 0
-41 2105 0
833 2037 0
1018 2120 0
855 -2124 0
1942 1228 0
1513 -822 0
-980 1959 0
1532 -2074 0
-1598 -186 0
1587 299 0
-1510 -435 0
133 1427 0
-215 526 0
1041 -296 0
110 1654 0
-1114 -1331 0
-1066 92 0
1542 -1582 0
722 -1905 0
2003 397 0
-111 1851 0
400 -1603 0
477 1231 0
-910 167 0
1416 1164 0
-35 -1392 0
-745 -1756 0
524 -1150 0
-685 -1839 0
2068 93 0
-806 -1302 0
-1013 -549 0
1750 1531 0
-1628 -991 0
1156 525 0
1655 -1131 0
776 -1328 0
763 -2016 0
-1661 -1007 0
-1839 1686 0
-1795 831 0
-1929 1255 0
1961 121 0
-698 -562 0
1062 -388 0
196 1747 0
-1235 -65 0
441 1925 0
2130 -2143 0
-1042 -729 0
-841 -1920 0
1490 -1328 0
1596 -1987 0
-1602 184 0
164 596 0
1520 692 0
1327 1928 0
690 360 0
1405 2147 0
-476 -1508 0
-1486 1379 0
1103 -1909 0
-1722 -1168 0
-1976 295 0
-2081 411 0
1031 845 0
-1810 192 0
-924 -690 0
-112 800 0
1591 1158 0
605 -1936 0
952 -1569 0
-686 223 0
-452 1258 0
1627 -1096 0
1298 -400 0
337 930 0
1792 -2154 0
1880 172 0
-680 -464 0
21 -135 0
-887 -1958 0
695 1252 0
-444 2182 0
-1183 564 0
-1104 2125 0
-1963 1982 0
663 -1913 0
407 -461 0
1305 865 0
558 26 0
1686 1243 0
1424 -2053 0
-1356 1959 0
-1821 732 0
-92 1592 0
-1028 1871 0
-567 -847 0
581 21 0
1250 -1794 0
370 -942 0
-1363 1534 0
-1216 562 0
-1914 1687 0
856 -1399 0
1511 173 0
-1723 -1129 0
-47 2062 0
-2059 -691 0
928 2039 0
-289 -1776 0
-2180 1981 0
-2014 892 0
-1562 -1174 0
-1449 1439 0
-275 130 0
-377 -1525 0
-946 1043 0
-1096 -882 0
-1826 -1406 0
-1806 839 0
-828 -491 0
-772 1082 0
-743 698 0
-1054 -161 0
990 -1856 0
-1369 2031 0
-2107 1440 0
-113 1375 0
-681 1494 0
-1734 -902 0
995 -1250 0
241 461 0
-1695 -1399 0
1892 1395 0
-440 -1780 0
640 1365 0
1593 -942 0
-1737 -2146 0
-867 -1278 0
1222 -740 0
266 -1930 0
-220 2111 0
900 494 0
1668 789 0
-933 -1953 0
1215 -1046 0
-2033 510 0
-405 2090 0
417 -985 0
906 -2057 0
-1429 -1980 0
-1683 -514 0
2132 774 0
218 -2076 0
1472 896 0
-1363 1221 0
2120 1051 0
-1712 95 0
-1131 -1371 0
-1048 -1720 0
2120 -718 0
2093 156 0
-575 -1432 0
110 251 0
-1158 204 0
-76 1316 0
461 1581 0
1670 -208 0
775 2048 0
954 1656 0
-1685 180 0
-1270 1453 0
1158 -1301 0
-1217 -2 0
-395 -2090 0
-246 -568 0
2128 458 0
322 1542 0
-1576 -1219 0
-845 -859 0
1168 1557 0
-380 523 0
1270 -999 0
929 -1385 0
-1649 -568 0
1332 1628 0
-491 925 0
135 2048 0
2065 -1739 0
782 -100 0
-1741 1923 0
-470 -1459 0
-1907 1515 0
-709 -657 0
-1268 831 0
1070 -1691 0
-495 1881 0
-1859 2157 0
-1051 1927 0
98 -1202 0
325 -1966 0
1898 78 0
294 1152 0
1034 1436 0
1027 -302 0
255 -305 0
1331 1523 0
-1705 -1178 0
-1141 -1613 0
-228 -507 0
1218 1467 0
-956 -287 0
-631 -300 0
286 -456 0
-1449 1229 0
2105 -1956 0
1446 1444 0
1000 -61 0
744 -1240 0
497 2165 0
-1726 1249 0
-1747 -658 0
1366 1640 0
-754 317 0
794 -1661 0
-684 -530 0
912 -799 0
2146 -25 0
-407 1822 0
-1245 -379 0
829 -962 0
2093 -1010 0
2124 -1876 0
-657 -1932 0
1976 1718 0
2027 -690 0
-1493 -1174 0
-1389 -834 0
-627 1640 0
1604 -1367 0
413 1053 0
63 -99 0
1656 78 0
-928 1203 0
625 584 0
1952 2180 0
-364 1115 0
1690 -570 0
-1 1247 0
720 2125 0
-1899 1127 0
-202 -956 0
-999 -974 0
1745 -280 0
-1696 621 0
-1565 1800 0
-521 1649 0
2087 147 0
190 -2143 0
-615 196 0
1 -1825 0
36 -483 0
466 1375 0
1466 -578 0
-741 901 0
2126 601 0
1923 -234 0
-1086 917 0
-1059 2174 0
-1647 306 0
1972 -1437 0
-2134 2063 0
-1692 145 0
-1902 1590 0
1000 1850 0
-714 -743 0
-1385 1767 0
21 1424 0
-1585 -605 0
-541 -1173 0
-350 2155 0
898 -1072 0
-469 2182 0
-1890 -1066 0
1867 1116 0
954 -1474 0
1569 -575 0
163 539 0
-1347 578 0
-1733 441 0
-1449 -1095 0
-384 1733 0
-275 -2004 0
1785 2027 0
1760 578 0
1030 -735 0
816 -717 0
136 -316 0
504 2060 0
-755 180 0
-125 -431 0
-2090 1952 0
-1094 962 0
870 -967 0
-1856 1981 0
296 1102 0
-1466 -1369 0
5 -1392 0
-1057 2077 0
1329 -287 0
-1238 147 0
-459 1586 0
1902 2063 0
-1570 -655 0
-1986 -2035 0
-988 1555 0
1923 1764 0
699 -2090 0
483 1176 0
2048 340 0
-864 1185 0
-1505 -166 0
-1190 -559 0
989 247 0
1589 1278 0
-91 -281 0
-2034 1777 0
-1492 -1795 0
902 -159 0
-344 906 0
-201 -1942 0
-1043 1339 0
-1848 563 0
1142 -658 0
453 -247 0
-1354 -1248 0
-64 758 0
1707 1930 0
2021 2072 0
-2108 1767 0
-753 -790 0
-1087 -2145 0
1517 1886 0
-2177 -23 0
43 -1102 0
360 1328 0
2172 1546 0
1187 1973 0
-688 -1118 0
1130 727 0
-1660 -1009 0
-444 -1024 0
-926 1009 0
298 -1946 0
14 -1883 0
-609 -1352 0
1800 -68 0
636 -1463 0
-1575 -259 0
-517 938 0
-6 1081 0
-978 -48 0
818 -246 0
-1926 -964 0
169 -136 0
1172 -1721 0
738 -1528 0
47 -506 0
-1930 -1872 0
-845 2035 0
-500 2088 0
328 219 0
-1520 452 0
-1936 1637 0
-1833 -947 0
351 -1745 0
-2127 -1988 0
931 -901 0
1591 -2119 0
1118 1447 0
353 -1732 0
-1759 -1226 0
-1598 1198 0
1829 -1306 0
649 1253 0
-950 1979 0
-1900 -1531 0
838 1188 0
-1335 1876 0
1927 -2048 0
47 94 0
-818 -1967 0
1831 -1154 0
232 -657 0
2137 -1541 0
-1920 -1804 0
1831 -334 0
213 -40 0
1995 1715 0
-1421 2159 0
1379 -443 0
714 -1368 0
1619 -2007 0
-471 817 0
-1556 809 0
-1870 121 0
1276 -517 0
-327 -1433 0
1143 775 0
-882 319 0
1499 -705 0
373 867 0
-529 1 0
1337 -365 0
1694 179 0
-1773 949 0
-886 782 0
398 -686 0
1233 -1757 0
771 1793 0
2125 -1612 0
1281 646 0
-796 1745 0
1335 1972 0
-421 1767 0
1328 -1277 0
-459 1196 0
1052 -851 0
-1692 -380 0
976 -1812 0
-1531 361 0
1289 750 0
-1512 -1546 0
-580 2154 0
-1006 1733 0
-849 -111 0
-1747 -146 0
1878 -1857 0
625 1995 0
-331 -1076 0
796 239 0
-245 2132 0
-330 160 0
502 -2020 0
1188 2157 0
317 1439 0
-1499 535 0
246 -1988 0
1300 590 0
-265 425 0
1717 -2113 0
-808 1552 0
-2030 1448 0
1706 -964 0
-644 -1091 0
-793 -1406 0
-1307 -1367 0
-1960 832 0
1071 2073 0
-1996 -1653 0
-747 -1035 0
-1557 -1357 0
2175 929 0
377 -669 0
-2007 1083 0
-575 2167 0
-661 -482 0
1922 1453 0
1798 -1312 0
536 -1738 0
-1641 1986 0
-1917 -1055 0
492 -2166 0
-174 1981 0
962 -1738 0
-41 1226 0
-859 550 0
-132 957 0
-302 -1325 0
-57 -1776 0
728 -702 0
121 -1259 0
-308 2012 0
-1771 -1929 0
-1541 99 0
1373 550 0
1444 -1371 0
844 733 0
-346 -735 0
1517 -1725 0
1122 303 0
418 1650 0
-128 1439 0
2159 -1015 0
1100 -241 0
-1391 147 0
-841 1441 0
52 1668 0
-111 -915 0
-1331 -1855 0
-281 -2114 0
-705 -1213 0
-1211 892 0
216 2066 0
1639 -487 0
-375 -685 0
552 341 0
-1187 -795 0
-1468 1599 0
-2137 -1066 0
-1241 -1433 0
427 1384 0
1864 1127 0
584 909 0
14 -1663 0
-909 1873 0
1863 239 0
33 1104 0
1702 -1946 0
1886 -1160 0
-1450 -2052 0
-1274 -746 0
250 258 0
-1509 -420 0
-208 802 0
-1322 1542 0
1866 1031 0
-782 1645 0
518 -1395 0
-978 237 0
-1213 1801 0
536 473 0
89 -885 0
-1729 452 0
-1662 -497 0
30 968 0
1283 277 0
-1742 1700 0
191 1279 0
-1648 160 0
1620 1748 0
518 843 0
1420 1581 0
1548 2158 0
-277 -2108 0
-614 270 0
-1838 -431 0
1116 -2133 0
-199 889 0
643 -568 0
-1551 1910 0
-745 -624 0
1277 878 0
948 -1892 0
-705 2059 0
1735 -149 0
154 -1817 0
772 73 0
-405 -917 0
-353 -973 0
-891 -1184 0
-603 2000 0
316 1375 0
-1149 1192 0
746 -464 0
1048 63 0
27 -489 0
1428 -1688 0
-93 -1584 0
1745 1005 0
135 -226 0
-247 -1980 0
292 -1978 0
1146 2115 0
1259 -2177 0
2083 1445 0
1427 1212 0
77 -1277 0
-428 -1765 0
-468 2082 0
1158 2023 0
725 -2115 0
-1588 -1653 0
-1077 597 0
-1299 -720 0
70 -1385 0
60 -2166 0
-1226 1321 0
992 -370 0
-304 -734 0
2151 -148 0
2093 -435 0
889 -306 0
-707 -58 0
-692 932 0
-742 -1362 0
-771 -2119 0
431 -80 0
-918 301 0
1233 145 0
1397 1979 0
-882 1780 0
1317 -72 0
-442 -834 0
-1632 128 0
929 1292 0
-1910 449 0
1490 1469 0
-1400 1476 0
450 -1210 0
-614 -1987 0
-1450 1964 0
1688 2066 0
1749 -863 0
-2129 347 0
1742 -858 0
834 -437 0
1750 -1834 0
1888 -350 0
-381 1303 0
1185 1896 0
-164 1116 0
-75 -500 0
1187 1744 0
271 -322 0
373 123 0
-1065 160 0
-999 -1666 0
-1134 1144 0
-81 336 0
-1721 -1662 0
-1754 -637 0
1511 716 0
1587 1973 0
-1764 -710 0
-508 603 0
1067 690 0
-2053 -876 0
-465 -583 0
-1192 -916 0
631 453 0
-1938 -645 0
-88 1411 0
-703 1018 0
-731 52 0
-1607 1192 0
-1832 -1202 0
1958 -1183 0
1786 2068 0
290 -2167 0
-1735 1269 0
454 -913 0
-47 1413 0
2150 -599 0
-1057 555 0
-1713 2115 0
773 536 0
-1718 538 0
1257 851 0
-1132 -117 0
-31 1630 0
-759 1854 0
402 -506 0
-1787 -1904 0
1604 124 0
416 39 0
907 797 0
1810 1803 0
-1971 -789 0
-258 -1985 0
-131 -1580 0
1928 1873 0
14 -1879 0
-1696 -1823 0
-1666 1570 0
-2099 853 0
-1277 766 0
-1780 1447 0
-197 -157 0
-757 -1649 0
533 137 0
-648 110 0
1504 817 0
-2034 271 0
-1064 -1702 0
-739 -594 0
35 288 0
1396 1895 0
-570 -920 0
1103 836 0
1398 -811 0
745 -1150 0
881 1356 0
274 -1082 0
1771 -747 0
2015 4 0
247 -735 0
1473 -1956 0
-123 -1728 0
1365 -1022 0
1066 1100 0
238 -107 0
2150 947 0
-263 -575 0
1296 822 0
570 1334 0
-1739 -645 0
1161 487 0
119 -1470 0
-1929 -1467 0
-836 889 0
-632 -319 0
-1435 -1769 0
1771 -329 0
1407 62 0
8 723 0
-596 1476 0
-1506 -8 0
-1661 162 0
-1324 -2009 0
-1633 1083 0
63 40 0
-1474 647 0
-808 1816 0
-1676 -258 0
1712 -786 0
-1549 -838 0
929 2101 0
-1562 -1166 0
868 -846 0
-119 -1314 0
-141 1656 0
-2130 432 0
-184 548 0
-1031 -863 0
1716 -146 0
1146 -987 0
839 1527 0
-425 -579 0
-984 114 0
116 1518 0
360 1796 0
138 1818 0
902 -1573 0
1530 888 0
-1950 639 0
-1836 -1273 0
1421 1242 0
-1823 -570 0
-145 78 0
-1220 1142 0
731 -1474 0
-206 1956 0
141 1008 0
1491 1619 0
-901 515 0
1633 1491 0
1125 100 0
-946 403 0
-387 312 0
764 1134 0
-862 501 0
1608 1546 0
911 1733 0
-623 1952 0
-846 -484 0
-964 -1016 0
-1633 -493 0
-1278 132 0
786 262 0
-117 1458 0
-580 -2167 0
76 135 0
-2054 463 0
-2171 -399 0
-258 -209 0
615 532 0
542 740 0
-216 -2038 0
-419 -907 0
681 -1792 0
1728 1263 0
983 1501 0
1633 -1683 0
1325 1372 0
-2067 -1493 0
-767 1290 0
296 238 0
187 888 0
1326 1161 0
94 1279 0
-1260 828 0
829 1726 0
1247 185 0
1345 -1514 0
-246 -1620 0
-807 -158 0
-2162 -1832 0
-1260 235 0
-851 686 0
-127 678 0
-1315 867 0
479 -399 0
-1751 1267 0
267 -927 0
853 46 0
706 -2146 0
-770 -25 0
-623 1241 0
503 -1500 0
1011 604 0
1817 1810 0
-2003 -552 0
-1304 -1369 0
1476 -249 0
-350 1996 0
-420 1637 0
-1871 1657 0
-1844 1466 0
903 2179 0
1040 31 0
549 809 0
-64 -1297 0
143 1589 0
-66 -309 0
-1839 717 0
-1807 -1436 0
-1906 1644 0
1890 992 0
740 1407 0
1334 862 0
-1924 248 0
1372 -1947 0
-1389 856 0
2106 -377 0
-1794 -1903 0
316 1287 0
628 -1720 0
1803 -1342 0
-1815 -882 0
-168 -1930 0
-475 -2181 0
453 -1269 0
-1116 -1633 0
86 -2051 0
66 -562 0
-1768 -1108 0
1052 2120 0
-1710 -1977 0
-132 -393 0
460 -561 0
881 443 0
-545 838 0
-777 1926 0
-575 -432 0
-1629 -529 0
-1497 550 0
1280 -1662 0
-583 -1878 0
-398 -634 0
-1450 1184 0
-1335 500 0
1336 -823 0
-1544 -2169 0
1122 -1620 0
-1363 419 0
1116 -1344 0
1594 1327 0
1123 1981 0
1319 -1485 0
1698 1678 0
-719 718 0
665 738 0
-2028 866 0
-972 -574 0
-1476 1384 0
713 -1860 0
-1536 39 0
792 1262 0
1419 -149 0
816 -1282 0
-2133 1105 0
-617 1782 0
-1505 1427 0
1473 899 0
839 195 0
1589 -1784 0
-897 1700 0
-745 154 0
-1458 -1149 0
-1704 993 0
-1197 -1332 0
1931 635 0
-1169 1053 0
-131 1117 0
1371 1087 0
-1504 -596 0
-2137 -1679 0
-1432 1403 0
-225 -2013 0
-143 -1504 0
-1042 -1864 0
970 -1757 0
-63 1856 0
497 899 0
746 -1741 0
751 -1667 0
-1588 -2066 0
700 1017 0
1127 744 0
901 -682 0
827 -1119 0
392 -1105 0
983 1558 0
-1474 866 0
-1409 -205 0
1916 -1063 0
2026 -1433 0
2041 1311 0
1032 -497 0
2138 766 0
-1732 1037 0
-1572 -1400 0
1886 1469 0
699 1142 0
339 1663 0
-737 -626 0
-1472 -574 0
-1517 1033 0
1744 -1221 0
-2171 976 0
-562 -2108 0
1780 136 0
-2041 2045 0
-416 742 0
-103 -2119 0
1294 1581 0
-491 -2085 0
1816 1721 0
-616 -633 0
-381 -890 0
-570 -323 0
-993 -1486 0
1052 434 0
1285 -1183 0
-1288 331 0
36 561 0
1133 744 0
2130 -1710 0
1482 1840 0
-1420 2057 0
-1538 -935 0
-1047 -1955 0
211 266 0
1393 392 0
-1896 -324 0
-1543 -870 0
380 67 0
-234 1689 0
802 1565 0
345 1157 0
1534 207 0
1172 2164 0
-1848 678 0
-2069 920 0
1228 1901 0
-880 -374 0
-285 1685 0
-1433 -228 0
342 -885 0
-1772 -1947 0
2150 -257 0
-672 -1260 0
196 310 0
100 1095 0
-851 -440 0
450 1334 0
943 -1487 0
1046 -469 0
-46 -1276 0
-129 -986 0
-1887 -2138 0
-1272 442 0
-1976 531 0
-772 937 0
1708 1049 0
-1846 222 0
282 1908 0
169 -1988 0
-1963 -1678 0
848 441 0
926 -2056 0
-1497 -1402 0
-693 1529 0
137 -1855 0
-2024 -1305 0
-1302 1157 0
1546 -1962 0
1568 -871 0
-1173 592 0
1014 -1411 0
1082 169 0
182 140 0
-2087 -927 0
1724 -2142 0
-1480 41 0
-701 -1891 0
-1360 1289 0
-110 -1191 0
1000 1619 0
2113 1066 0
-876 1842 0
929 995 0
1328 -1102 0
727 1266 0
-1640 336 0
-1358 -1553 0
-1436 692 0
2046 -1942 0
-900 -652 0
-661 445 0
-1204 -1565 0
1740 477 0
145 -1719 0
990 -1853 0
1417 2164 0
1607 1675 0
725 -1874 0
966 -626 0
1771 1661 0
352 71 0
1338 2125 0
-1446 1224 0
994 174 0
2066 -1081 0
2045 -495 0
1775 893 0
1740 -426 0
-1305 -23 0
-1794 -2120 0
-129 -1894 0
1327 984 0
-1036 -550 0
213 1318 0
-323 -1280 0
-1827 -733 0
1983 -1044 0
1951 -1617 0
-75 -888 0
-337 -384 0
609 -2086 0
-1145 -68 0
-1258 1829 0
-1856 -2162 0
-238 979 0
1628 2138 0
-1397 -2036 0
869 1746 0
-658 -1321 0
-1358 -974 0
1467 -755 0
952 -607 0
-112 2074 0
158 1249 0
-1702 1217 0
-483 124 0
-324 2086 0
1963 -1390 0
-1263 758 0
-1773 1816 0
-1922 838 0
-4 -1938 0
-585 920 0
-1822 460 0
-1235 -905 0
-442 -1814 0
-2049 953 0
-2009 -1273 0
482 -1789 0
854 1037 0
-338 -50 0
-1833 -1131 0
1860 -355 0
711 -349 0
-562 533 0
-866 2035 0
-1937 628 0
1740 1641 0
1327 1396 0
-1258 288 0
1083 -40 0
1590 1299 0
-2016 1560 0
-895 -897 0
1973 1548 0
1890 -265 0
1237 2121 0
1690 -1717 0
-856 1830 0
1399 -377 0
-730 1555 0
-19 -2166 0
-55 504 0
-304 -2115 0
26 1017 0
-1624 -1731 0
1713 204 0
-483 -177 0
1045 1444 0
1996 -1120 0
-645 -1537 0
1269 378 0
-350 1647 0
1945 -1642 0
1014 -235 0
-1355 -275 0
-1579 899 0
1647 -1661 0
-2022 -1512 0
388 -1524 0
-383 16 0
-1971 -1414 0
-194 1338 0
1640 -690 0
603 -595 0
638 -1873 0
1959 426 0
1656 491 0
-1280 -1738 0
403 -2129 0
454 -1632 0
-2173 -1455 0
-1391 -2022 0
1637 -11 0
-373 932 0
964 -211 0
1014 -1480 0
-1814 -914 0
1130 427 0
-1449 213 0
-1823 -2162 0
-926 -245 0
-1853 1568 0
-2108 1853 0
1591 -91 0
838 550 0
2013 -2132 0
121 -1272 0
-892 2071 0
1924 -641 0
2035 -1730 0
-572 964 0
-2180 1817 0
-2047 1899 0
-1110 -526 0
-997 -1096 0
-866 -572 0
512 -1838 0
-1845 -1625 0
-486 -1155 0
-1619 1271 0
867 2104 0
-109 1207 0
-873 -105 0
1715 1591 0
832 -1174 0
1440 -2080 0
1490 -894 0
-1478 -2142 0
-2050 1906 0
-732 -1738 0
646 -545 0
-1714 1151 0
-2112 -947 0
-1299 40 0
395 -775 0
-510 2054 0
-684 835 0
-471 -669 0
-2040 964 0
198 -1066 0
1993 3 0
1406 -918 0
527 -1696 0
56 -249 0
767 -1964 0
-970 1842 0
1808 -534 0
1370 -1176 0
183 1118 0
-1906 1445 0
1830 -340 0
-1108 1884 0
839 1221 0
453 -451 0
1657 -1611 0
1357 -1429 0
1016 -2181 0
1652 871 0
-466 1630 0
2025 -1492 0
784 532 0
-1145 1266 0
2028 -621 0
735 1267 0
1939 -74 0
-1380 -1128 0
-1971 425 0
1121 295 0
-1264 -1217 0
-1976 107 0
708 -1351 0
1172 -965 0
252 -961 0
-1484 1669 0
-1984 1491 0
1441 599 0
2018 1465 0
1570 1743 0
1754 1712 0
-2153 -981 0
1403 -1451 0
-335 1641 0
-1970 969 0
-1615 1113 0
-1402 -1525 0
415 -1119 0
621 1830 0
1694 1461 0
-1798 1998 0
1444 1244 0
-606 323 0
2047 1444 0
-32 1796 0
-1244 -510 0
595 -1092 0
-437 -805 0
-1825 494 0
-2169 -1641 0
-484 1124 0
507 1783 0
1971 415 0
99 -334 0
1555 -251 0
945 -852 0
-814 260 0
-115 -431 0
1521 704 0
1267 313 0
1397 1515 0
797 1970 0
651 -2068 0
62 1057 0
-1309 1801 0
-227 950 0
22 1027 0
262 -732 0
-1844 1428 0
503 789 0
-754 -372 0
71 -425 0
-1443 247 0
125 -394 0
1502 1533 0
-1240 89 0
-1094 -1639 0
-2154 -1600 0
1725 336 0
971 424 0
-1388 1040 0
974 -1615 0
-1585 796 0
-113 408 0
1610 1404 0
57 1230 0
-1199 -397 0
-430 1766 0
-1648 1144 0
-1360 291 0
-1004 -1496 0
-1429 -1396 0
-904 243 0
1807 1339 0
1372 268 0
-1477 769 0
-1953 -969 0
430 -851 0
654 -81 0
-426 293 0
898 -1618 0
-482 -149 0
-2145 1939 0
-1853 -1194 0
306 1002 0
-1559 -942 0
-1087 -737 0
120 1198 0
869 1 0
781 1209 0
1008 2134 0
-1488 547 0
1359 1955 0
535 -855 0
-1614 -1772 0
-1646 -2053 0
1561 -939 0
-1639 1534 0
-246 -933 0
1164 -2166 0
-1392 1699 0
-1162 1292 0
1907 125 0
1364 2181 0
2130 -1688 0
-633 385 0
-1283 2135 0
-1971 -117 0
-1981 -835 0
-68 1921 0
803 1066 0
-326 -1447 0
2059 1379 0
1448 736 0
-747 635 0
-1108 -163 0
-939 892 0
1865 1513 0
-1147 644 0
-1165 -309 0
1373 2101 0
398 -1204 0
1262 -845 0
959 -276 0
-2145 407 0
1621 645 0
38 1838 0
1889 1954 0
-435 -1630 0
1464 941 0
-1874 882 0
-1474 501 0
818 1115 0
754 1570 0
378 -1241 0
-2002 664 0
-1747 1321 0
387 -1291 0
1932 -793 0
-1611 948 0
-1108 1469 0
-1298 -533 0
-1696 -2031 0
1082 1573 0
-1963 61 0
-1718 1551 0
1728 -1514 0
212 1645 0
772 -740 0
-1322 1673 0
446 1444 0
21 1293 0
318 181 0
497 941 0
247 1435 0
-2152 -35 0
-790 -1333 0
2065 -627 0
-2055 665 0
659 -2041 0
-1665 -1412 0
2174 1886 0
-432 -54 0
-1953 -1070 0
-23 1952 0
-717 -382 0
429 241 0
387 1730 0
-1748 798 0
753 -1124 0
1885 -751 0
785 -816 0
475 -2112 0
603 1542 0
-1553 1685 0
427 -1638 0
1932 -1761 0
-830 40 0
1329 -1179 0
-59 1152 0
-1633 -1300 0
-501 1908 0
1758 430 0
-651 -1505 0
76 106 0
937 1985 0
1783 -1164 0
-1183 458 0
-184 -1224 0
-1009 1266 0
639 -1673 0
16 -2108 0
2164 1127 0
1793 80 0
-112 15 0
650 795 0
-1178 1920 0
-455 -1234 0
-835 371 0
-591 -380 0
-1704 720 0
-66 622 0
-1114 375 0
-1665 494 0
-44 270 0
-466 -613 0
1104 -1865 0
375 1998 0
-2085 1650 0
-64 1889 0
1694 820 0
1368 438 0
596 951 0
-112 293 0
-772 -271 0
-1251 1096 0
-1588 -863 0
5 2031 0
1829 -1364 0
-652 -2165 0
965 -1204 0
1859 1653 0
-1945 1859 0
2107 -749 0
-2102 -709 0
307 441 0
-2162 -2118 0
-1999 1011 0
-348 -401 0
1746 -1204 0
-1126 1034 0
-414 1926 0
-2022 -2169 0
-84 -2049 0
-875 -1562 0
-97 1053 0
-471 1843 0
1395 1133 0
144 -876 0
2110 -1520 0
2000 -1327 0
-906 1903 0
527 -752 0
-1821 1866 0
-111 929 0
990 585 0
852 -512 0
-2123 -775 0
968 -1488 0
-784 1346 0
-1668 367 0
384 -1380 0
-1188 1875 0
237 1917 0
-1975 -1774 0
-592 750 0
-856 -1561 0
-1074 943 0
1294 -691 0
100 516 0
776 1496 0
1278 1726 0
-2012 2135 0
-1850 -593 0
269 -1774 0
-58 1631 0
1900 -912 0
-1310 -1953 0
-1057 -353 0
539 -342 0
981 1430 0
-1065 778 0
-558 693 0
-1999 -984 0
-1472 -559 0
-1747 1779 0
1006 -334 0
711 694 0
127 -184 0
-1761 375 0
-1343 -1971 0
1115 1849 0
1742 -944 0
1398 599 0
538 712 0
417 -707 0
1668 308 0
-1784 1066 0
-899 -2094 0
83 -1421 0
1621 1054 0
2161 -1530 0
-1614 78 0
-1282 83 0
1574 378 0
2006 -31 0
-2034 -1056 0
-1642 369 0
-2137 -2123 0
-1527 1411 0
-702 -1945 0
-2087 362 0
-851 -1086 0
1742 -1540 0
-998 2001 0
-2053 787 0
548 -1162 0
-318 1983 0
2120 -1617 0
-1924 -1209 0
145 2163 0
1003 -693 0
-974 1244 0
-308 1516 0
-536 800 0
-346 1876 0
449 -935 0
-1878 927 0
1122 -702 0
1246 1150 0
-417 1716 0
1925 -1235 0
327 -1579 0
-828 -1371 0
1799 -1848 0
-316 -805 0
-1300 1783 0
-9 1936 0
251 -2004 0
-1598 -1742 0
-481 896 0
1097 -2134 0
-1516 1187 0
478 156 0
-875 -1874 0
771 1786 0
-1111 -1644 0
279 -169 0
-978 -1483 0
536 1984 0
-1099 750 0
371 1558 0
733 1655 0
1657 -1734 0
641 1244 0
-1705 1475 0
-1697 1306 0
-465 -1579 0
-440 819 0
-320 -1191 0
953 282 0
-331 -715 0
1422 595 0
19 569 0
-1098 -669 0
694 631 0
-1262 536 0
-920 -2139 0
-1892 -455 0
819 -330 0
1996 1540 0
-1437 243 0
-967 -1877 0
1660 -1299 0
-1911 -1698 0
1966 -848 0
-87 1384 0
2093 1996 0
94 -127 0
1316 -318 0
486 95 0
-154 -1779 0
-859 1505 0
499 -2083 0
-1206 -1152 0
-1185 1034 0
336 133 0
-416 1937 0
472 1279 0
-28 -1227 0
180 -1092 0
504 -1754 0
1910 -453 0
-745 175 0
-1514 -916 0
1376 753 0
1462 -1781 0
-1132 -1502 0
792 1062 0
1491 -940 0
-2113 -726 0
2006 -1926 0
-103 489 0
1528 839 0
1264 761 0
1114 -244 0
2102 141 0
-1598 454 0
-1231 145 0
-1129 -1062 0
-585 1940 0
-882 -655 0
1487 -924 0
-20 1774 0
-1933 648 0
118 -1483 0
596 983 0
-651 -1309 0
-490 -1147 0
-256 -1402 0
764 1238 0
-761 379 0
-598 -1977 0
-921 -24 0
-2088 1350 0
1234 -1672 0
1062 284 0
-1989 -1644 0
-1856 1600 0
1408 18 0
1072 -1489 0
214 1615 0
2000 -1982 0
-1497 1286 0
-1988 -382 0
184 -1250 0
974 -852 0
1842 -583 0
394 1292 0
-1314 1635 0
62 -968 0
-203 238 0
-1956 -309 0
1251 677 0
1523 -77 0
-1547 -1661 0
-1060 -1163 0
-661 943 0
-159 -784 0
1408 2072 0
232 76 0
1721 1234 0
100 1524 0
218 360 0
-617 -92 0
1753 -1585 0
-2152 -250 0
-257 1204 0
-1910 -655 0
886 1955 0
-853 2178 0
-1284 847 0
-1208 1404 0
894 1622 0
1396 -803 0
1196 -1980 0
1820 896 0
193 -381 0
-205 265 0
-855 1377 0
-495 1427 0
1269 1993 0
192 761 0
-364 -539 0
1823 765 0
-996 1591 0
-129 -2036 0
500 1822 0
-539 -327 0
-1189 1093 0
-1561 554 0
1712 1077 0
1457 1316 0
361 943 0
-1211 1438 0
-1172 554 0
-1747 1786 0
-211 653 0
763 -2030 0
243 -1821 0
568 1856 0
273 295 0
-1739 -913 0
-1406 610 0
1214 -973 0
-142 1856 0
-717 -1900 0
-1367 -1960 0
1818 -2182 0
1616 -907 0
842 -1710 0
-1484 -1133 0
-669 -73 0
794 -1725 0
-1615 -296 0
955 414 0
-700 -285 0
1981 -1340 0
1942 -98 0
-161 1850 0
-1042 425 0
-804 -455 0
199 1604 0
-830 -2100 0
-952 831 0
-1634 -1855 0
2078 -407 0
1932 -906 0
-1152 -1282 0
1226 -1833 0
-2126 -1758 0
1224 -1449 0
1499 -1936 0
-1956 -1913 0
-1652 -2142 0
-582 690 0
-583 -1270 0
-821 182 0
-950 -330 0
-939 1425 0
-1094 261 0
-1340 1919 0
-1559 718 0
370 -1342 0
169 1481 0
-1473 1863 0
-666 -487 0
-1018 -1967 0
367 317 0
-482 989 0
1365 983 0
-1661 1694 0
2079 -1572 0
333 663 0
471 -612 0
-2171 1208 0
1173 2127 0
604 -936 0
-1385 1725 0
-386 494 0
-1629 -890 0
-2030 -582 0
-1556 -442 0
-1134 1646 0
362 5 0
-1183 1888 0
-287 953 0
224 1447 0
1138 1695 0
-306 -848 0
-251 -608 0
-1999 -14 0
429 1117 0
-1106 1283 0
-938 1973 0
-1949 749 0
185 1968 0
1901 -1511 0
-624 -911 0
-971 -1070 0
524 866 0
582 711 0
97 1146 0
1192 764 0
2060 1891 0
588 538 0
-536 867 0
-1484 -1272 0
-91 -836 0
832 -1302 0
535 1057 0
-513 -1093 0
1257 -880 0
-1762 -247 0
-1458 1869 0
-1323 -738 0
-246 579 0
1889 1900 0
659 101 0
14 -1711 0
1081 -1278 0
-772 -1522 0
-688 -1555 0
1596 1744 0
736 596 0
-1163 521 0
1143 -1684 0
-1798 -852 0
766 -988 0
414 -1711 0
1182 1487 0
-669 568 0
171 663 0
742 1049 0
1600 -2030 0
-1978 2057 0
536 -1012 0
-2017 1944 0
1519 1384 0
-1594 1640 0
-640 -984 0
-1919 -1356 0
970 -442 0
374 699 0
-320 34 0
-793 -746 0
-1810 -848 0
209 -2131 0
-511 137 0
-1890 -284 0
-149 -921 0
280 -283 0
-367 1542 0
555 1906 0
952 -1646 0
829 815 0
-1443 -868 0
-1468 -1505 0
1265 1707 0
2150 -770 0
1596 1976 0
504 340 0
268 -365 0
628 -1623 0
-26 1462 0
-1357 -9 0
-1115 152 0
-755 -594 0
198 1609 0
-1810 -14 0
1570 -1124 0
1196 -679 0
1167 -2043 0
1746 1624 0
1526 -316 0
958 1946 0
-707 2158 0
569 826 0
1836 -543 0
939 -985 0
1197 -1151 0
1551 373 0
1335 378 0
-521 518 0
-1759 -1818 0
453 1320 0
86 208 0
-2055 994 0
-453 -270 0
-1099 -2112 0
888 -441 0
1365 -496 0
-1149 1246 0
829 -1166 0
-743 19 0
-491 737 0
1690 1663 0
-115 -2125 0
-1547 1635 0
1362 1101 0
-1144 -1680 0
-1651 -51 0
-1627 -1113 0
-847 -1990 0
725 181 0
1470 1577 0
-1247 -819 0
2164 -578 0
-590 -1563 0
955 -1055 0
670 243 0
1326 -1437 0
352 1172 0
-1968 1923 0
424 208 0
597 -661 0
-1779 1775 0
4 1481 0
1659 764 0
-685 -1214 0
-502 -279 0
-414 -150 0
394 1505 0
1293 -1828 0
870 952 0
1803 1079 0
417 -575 0
-534 -475 0
-2041 -134 0
1923 -112 0
2012 2060 0
1818 -1462 0
-1377 -1887 0
-1094 -1136 0
-72 -871 0
110 -44 0
-1577 -1155 0
-222 1210 0
-1145 1961 0
-818 -1876 0
2020 1397 0
447 -1314 0
499 -1148 0
-235 639 0
958 -1120 0
-344 -149 0
-680 -294 0
1412 580 0
1355 120 0
-1281 -250 0
-550 -1365 0
-265 -740 0
1209 -2112 0
552 1561 0
1903 470 0
686 -2038 0
1803 1918 0
1865 -715 0
-443 -48 0
-835 2082 0
-1572 -1136 0
-1468 -2105 0
-1057 1990 0
-692 -331 0
-511 610 0
-622 207 0
-877 1493 0
1456 -271 0
508 -1576 0
1408 -1334 0
1373 1302 0
2157 -2129 0
365 369 0
-543 -1633 0
-118 1577 0
-2038 213 0
463 -111 0
232 255 0
-178 -1039 0
-1212 -1111 0
-1295 1453 0
796 -2071 0
1591 1876 0
1151 -308 0
387 -1282 0
1434 1444 0
1699 455 0
1287 -337 0
140 -276 0
1532 2096 0
-177 -1272 0
-1917 -1068 0
941 397 0
-113 534 0
1767 -1839 0
-560 1292 0
564 1165 0
-1710 -1985 0
-1624 360 0
-136 -787 0
-1711 -876 0
-780 1786 0
-1254 -2167 0
-909 1008 0
-2141 -36 0
552 300 0
-1717 345 0
-582 584 0
-29 609 0
938 -691 0
326 441 0
1903 616 0
-1436 -1373 0
-1104 -1579 0
559 -1359 0
24 -1896 0
1552 1469 0
-1126 1242 0
-215 1306 0
241 71 0
1847 218 0
-2154 1720 0
-1200 1998 0
17 1256 0
1339 455 0
1820 -1358 0
-2022 -1406 0
-549 893 0
-1482 1679 0
1547 597 0
14 -740 0
-2030 -825 0
-1019 290 0
-823 2079 0
-649 1133 0
-214 -202 0
-1159 46 0
1364 -1908 0
-1933 -1857 0
-260 441 0
-1432 2024 0
-147 1955 0
-1489 -2047 0
-1343 -84 0
446 -810 0
-1520 1855 0
-1408 -703 0
394 1783 0
-581 -1176 0
-1476 1142 0
832 1511 0
-1496 15 0
1960 214 0
1871 -1321 0
394 903 0
-292 249 0
-318 -717 0
-1089 -502 0
149 -1826 0
1849 2046 0
619 1267 0
1649 -1357 0
1670 70 0
-1312 1205 0
-269 625 0
848 -1354 0
-653 -234 0
-1378 1137 0
-509 -2036 0
-623 -1642 0
-1333 -1909 0
-711 689 0
-1493 -765 0
-179 -927 0
961 1915 0
12 13 0
-1658 -176 0
768 1235 0
310 -451 0
-1425 -1168 0
-990 -968 0
-2056 -1683 0
2093 1000 0
828 990 0
2135 1159 0
2057 802 0
42 -1648 0
1449 -1963 0
815 82 0
12 1075 0
-982 -734 0
-1035 -294 0
-100 49 0
1170 685 0
936 137 0
-211 -2120 0
1969 -1354 0
-1749 -1562 0
1746 1597 0
1679 -1248 0
1317 -904 0
-261 1293 0
-1716 -1545 0
-901 -2033 0
-242 1176 0
-109 219 0
-908 -1503 0
-1585 -1500 0
-2022 -1122 0
-103 2154 0
-1361 1604 0
-233 -223 0
-1305 -1798 0
-1005 -1290 0
1876 -821 0
-754 -1321 0
-387 -1541 0
-484 -509 0
469 -335 0
1634 -224 0
-1086 -872 0
-2087 1787 0
190 1837 0
-1588 -195 0
-322 -537 0
-65 174 0
-1495 1432 0
1422 -410 0
964 -1761 0
-1236 23 0
-1220 1352 0
-1914 2097 0
935 -1706 0
-1492 -1042 0
1499 999 0
1608 -873 0
-1092 1006 0
1324 -610 0
-2128 950 0
-1636 470 0
1587 2042 0
-1893 -1838 0
-2073 812 0
-1208 -2154 0
2172 784 0
1718 799 0
1336 427 0
2172 -1510 0
1422 -1087 0
-1472 -330 0
-450 -1256 0
1981 -806 0
-1798 763 0
1212 426 0
-376 1862 0
-1477 -2157 0
-1260 439 0
318 -251 0
460 -282 0
573 -759 0
-335 -2068 0
1859 -2063 0
1447 -1289 0
-899 439 0
321 1832 0
-1611 1569 0
-1202 265 0
-1965 -585 0
1634 1261 0
1176 519 0
433 -1575 0
-1873 -1605 0
-1280 312 0
1910 233 0
-1673 -1299 0
411 -283 0
360 1174 0
-1589 1271 0
-1464 -1419 0
-309 -534 0
-1988 994 0
-1512 -1567 0
87 -1343 0
-228 1817 0
-1709 -1792 0
2123 -1337 0
1594 -246 0
893 1865 0
1461 -613 0
-2008 -1277 0
301 -1258 0
201 -1070 0
529 -1429 0
-264 179 0
948 -1549 0
1926 -2056 0
-735 -344 0
1203 -815 0
-1260 -497 0
1801 -329 0
1672 1033 0
-486 65 0
787 744 0
-612 -1174 0
1255 -1532 0
1171 1970 0
-810 1502 0
130 -304 0
312 -846 0
173 -1339 0
-304 -1784 0
-477 -72 0
-438 1564 0
-1727 1781 0
-1225 1276 0
-176 -1174 0
130 -1242 0
-684 663 0
1713 441 0
-1064 -1060 0
-949 -919 0
-617 -1054 0
577 -812 0
1134 -1291 0
-2094 1501 0
1156 -121 0
2017 470 0
-654 -104 0
2008 2012 0
-1214 761 0
1914 -1781 0
-1020 -1150 0
163 -709 0
1581 54 0
724 -596 0
-653 -1389 0
-770 70 0
-1980 802 0
-1946 -622 0
219 702 0
-643 1604 0
1516 -1480 0
1618 2073 0
-271 -479 0
4 -763 0
1718 -2107 0
1844 -1603 0
475 -1363 0
-965 -1083 0
-1171 2175 0
-301 1690 0
-529 -1 0
-2043 1949 0
408 -471 0
383 1972 0
-1909 1276 0
-1118 173 0
-1544 1628 0
-1853 -1572 0
310 -545 0
-1306 1080 0
-581 957 0
695 -221 0
-949 -1812 0
-737 -1801 0
-913 1451 0
-1878 1466 0
621 -683 0
-1975 -684 0
-1398 -1508 0
-124 -1893 0
1141 163 0
-1012 -508 0
-1565 1192 0
428 738 0
1158 -96 0
1534 -1359 0
-2096 1398 0
1539 2086 0
-1534 -575 0
-1942 -155 0
-1282 714 0
1790 -1374 0
1234 -947 0
-1618 -1930 0
-1291 -388 0
-1163 -161 0
-2141 934 0
1435 -1696 0
1292 -123 0
273 767 0
15 1244 0
-437 2151 0
1291 -834 0
9 557 0
1221 -694 0
1377 73 0
638 -135 0
-2139 1017 0
-902 -1942 0
-858 713 0
-1375 -2054 0
1896 -235 0
-406 872 0
-1946 -1706 0
1674 67 0
1584 -547 0
-146 2090 0
2035 -2014 0
295 -193 0
-28 1269 0
-1262 1637 0
-1475 -295 0
-1911 -1010 0
1726 -1023 0
-1825 -664 0
-968 2083 0
627 -193 0
1384 -405 0
1642 -1464 0
-384 618 0
1350 2036 0
347 1681 0
-694 1353 0
278 3 0
1172 318 0
-1349 -2146 0
-1355 -895 0
1550 2090 0
-62 1232 0
-506 -189 0
-2004 -844 0
56 372 0
-719 2000 0
-1238 -1971 0
2064 1589 0
-1022 -1814 0
326 -2040 0
713 636 0
1494 -1877 0
1349 -1638 0
1740 -1188 0
-1035 -1033 0
2137 -1922 0
537 -54 0
-2113 1567 0
-1596 -75 0
664 -1598 0
-627 -688 0
-1031 1836 0
-1742 490 0
1203 1833 0
1956 -1983 0
-1853 199 0
2064 1938 0
-1712 1728 0
-2145 -1704 0
1926 219 0
1473 432 0
1908 712 0
2179 861 0
-1130 -23 0
-575 -1551 0
-614 2179 0
-591 1266 0
1717 -1963 0
-1906 53 0
-952 -500 0
-1406 291 0
439 -1717 0
974 501 0
-1821 -1090 0
33 1719 0
128 -624 0
-849 1806 0
-981 578 0
200 301 0
1077 992 0
429 2128 0
-1857 -1090 0
-1895 328 0
-305 -986 0
-1846 1563 0
378 1992 0
2157 1431 0
-1846 -1456 0
-837 -1188 0
2024 -894 0
-1649 1640 0
2063 -1288 0
70 -475 0
1315 930 0
487 185 0
1885 135 0
-1696 1307 0
-451 -929 0
1940 -637 0
-199 836 0
1869 -1484 0
854 -1860 0
-1767 86 0
-726 -1270 0
1697 549 0
-89 -593 0
-857 776 0
1973 -925 0
-1720 -462 0
-1734 -1459 0
984 2073 0
920 -1467 0
1265 -793 0
1981 -1438 0
-426 -2166 0
-418 -1144 0
-1160 703 0
2078 -1238 0
1557 777 0
1648 1844 0
-282 1895 0
832 -233 0
-1613 -474 0
-1095 1271 0
165 1244 0
1796 -364 0
-84 -483 0
-1889 -1627 0
-826 -707 0
-407 219 0
-1608 952 0
745 -1813 0
302 2058 0
2026 40 0
-1674 -1702 0
1646 -1855 0
404 -1696 0
-941 -2042 0
1180 780 0
-696 306 0
1103 2150 0
-1759 826 0
216 -444 0
-601 -883 0
2026 -1855 0
1004 -1302 0
1271 -199 0
174 -478 0
-81 -771 0
-853 -1523 0
76 1787 0
1882 -482 0
-2145 253 0
-1098 2173 0
15 -265 0
-1638 423 0
905 -307 0
-2047 -1507 0
-197 -584 0
-1732 -1112 0
2047 118 0
1873 -1961 0
-680 -2122 0
-1328 -1094 0
1043 -1066 0
-137 -773 0
813 139 0
-1167 1028 0
-656 -394 0
1618 461 0
135 1981 0
1985 -474 0
-1908 2013 0
-745 2167 0
308 1454 0
2156 -80 0
-2049 1194 0
-11 -1935 0
269 654 0
958 830 0
-1761 -1417 0
650 1100 0
-509 307 0
-364 -519 0
-386 -1480 0
2031 279 0
-1098 1710 0
1506 667 0
-1994 -1370 0
-142 -1197 0
680 1715 0
778 -670 0
1877 -873 0
966 1375 0
339 -918 0
-925 1238 0
457 -1227 0
1061 1907 0
1937 -1449 0
617 220 0
-2013 1926 0
-1906 367 0
-1835 -790 0
-1291 1098 0
-97 -11 0
-817 2163 0
-1330 -1472 0
-1661 -1622 0
-436 765 0
179 1704 0
1753 1317 0
-1182 1695 0
-1070 -1160 0
-400 1905 0
-289 2138 0
1366 776 0
-1507 -243 0
760 -1879 0
727 1141 0
1014 240 0
-1357 -1509 0
-1654 1862 0
1012 1249 0
1675 -815 0
1417 -1941 0
-1930 1281 0
-1354 266 0
-972 1454 0
1345 -965 0
1446 1927 0
1081 -1717 0
-1 -889 0
1063 -1891 0
-1877 -336 0
1074 692 0
171 1875 0
651 -1659 0
1494 -451 0
-512 1062 0
-106 1408 0
-979 -585 0
1228 527 0
1063 2052 0
788 1407 0
1439 1587 0
-1453 1127 0
-1312 1222 0
-1846 -11 0
1547 -1792 0
-1373 -1598 0
1743 -2096 0
778 -453 0
-965 -1057 0
-72 803 0
1896 -256 0
1313 -1328 0
-337 -1970 0
200 -1061 0
361 888 0
1265 1652 0
-1155 -482 0
-236 1101 0
-1658 -427 0
484 1948 0
827 -615 0
482 -1760 0
1406 1215 0
-1933 333 0
-1673 -1052 0
155 804 0
2142 -1385 0
692 540 0
1020 1454 0
2135 1764 0
900 -1090 0
1350 -1839 0
-1523 -1855 0
-184 1244 0
-1512 1202 0
-1652 -511 0
-562 -1688 0
-865 360 0
-2144 -346 0
1453 2104 0
-70 273 0
-1563 841 0
-274 296 0
611 1107 0
1559 1745 0
-1042 -300 0
-500 -18 0
-141 1628 0
1619 -351 0
-1307 -2123 0
554 1766 0
-1310 -1698 0
406 1207 0
-728 2114 0
1663 451 0
2087 1397 0
-997 1041 0
30 -1723 0
1916 46 0
-2167 1377 0
-643 -1190 0
210 994 0
1115 1000 0
-335 919 0
2019 -1083 0
1008 1580 0
-2009 -752 0
-738 -1301 0
2007 -257 0
1179 440 0
-292 1171 0
-9 1126 0
992 -1808 0
-1112 566 0
-1658 1377 0
460 -1136 0
201 -1677 0
649 1924 0
-462 267 0
1227 -390 0
1483 -885 0
2015 389 0
587 -1949 0
1263 804 0
1428 1868 0
1507 140 0
1296 -503 0
-1769 635 0
69 -1937 0
2151 -1753 0
2091 -1654 0
504 -651 0
93 -201 0
274 2118 0
-2154 -908 0
762 1853 0
-700 108 0
-1813 1249 0
1735 -612 0
1483 -1720 0
-322 -1405 0
-608 -918 0
-686 -890 0
1262 945 0
969 2118 0
1416 -1705 0
1746 -632 0
474 -972 0
-227 1233 0
1289 -56 0
-1534 921 0
-90 -1734 0
-1985 631 0
-136 1443 0
-1827 97 0
-1827 2028 0
-1246 1793 0
999 468 0
1699 551 0
1416 -2057 0
-625 -1136 0
346 -1846 0
614 -1462 0
458 158 0
-1791 1263 0
-308 -793 0
-1689 1386 0
-1488 1350 0
1102 588 0
-1509 603 0
693 -1464 0
-2123 2028 0
909 -566 0
-1020 1587 0
-582 1758 0
-104 -1861 0
1818 -1988 0
1899 824 0
1673 378 0
2067 318 0
-1398 -968 0
229 -2075 0
1421 976 0
1510 78 0
934 2114 0
-97 -705 0
191 1902 0
-307 1267 0
1156 -1669 0
-1274 258 0
-252 1715 0
-1178 -2045 0
171 272 0
-1460 702 0
2082 -1639 0
668 1080 0
1397 -1872 0
1690 -1258 0
-1264 2176 0
1317 2113 0
-442 -1352 0
-884 -1369 0
1378 2014 0
1973 -1983 0
1487 -489 0
569 -2101 0
-1691 868 0
-1655 -181 0
-161 173 0
-343 -799 0
-1221 -1007 0
363 -1947 0
1557 1019 0
-1717 286 0
476 1584 0
869 -1452 0
-1514 2029 0
979 -571 0
-879 -1426 0
-1224 1485 0
2050 148 0
1905 -1920 0
-2109 12 0
-1013 -844 0
-376 -1784 0
1606 903 0
453 1624 0
-1447 -890 0
1968 1883 0
-2036 885 0
1257 2125 0
1219 -651 0
1550 -578 0
1807 -880 0
-1601 570 0
-1399 -1238 0
1197 1633 0
-1369 1785 0
-44 164 0
-808 2064 0
1590 -1036 0
-1827 -663 0
41 1700 0
-1790 -951 0
-620 -384 0
1970 1628 0
-193 -1942 0
-1868 -1199 0
-1285 -1544 0
983 729 0
-2067 1857 0
2144 1449 0
-363 -737 0
-2061 145 0
-816 -1987 0
-281 -1135 0
453 -1451 0
298 -1272 0
1485 -756 0
-1611 -1623 0
1006 -1181 0
299 2174 0
-1428 59 0
-320 1384 0
-422 -1111 0
-1388 -795 0
2066 1287 0
-96 538 0
-1028 -974 0
-490 -676 0
2052 364 0
-426 -742 0
2081 1489 0
-940 -1797 0
405 -547 0
-2 712 0
2063 -1662 0
60 -1000 0
-626 -602 0
-961 -1426 0
-856 -753 0
599 -1956 0
846 -1535 0
1109 -1579 0
-537 95 0
-1065 1133 0
1417 -1928 0
456 966 0
-322 -1744 0
-1544 -1731 0
-885 836 0
-856 -1325 0
-1932 101 0
-382 -1204 0
1201 54 0
-2115 -793 0
1546 -783 0
-1180 -1035 0
-579 1434 0
-389 1403 0
-1791 1633 0
-458 -1828 0
-54 -466 0
1987 -779 0
-2034 -1568 0
-747 733 0
-1812 -266 0
-909 -1456 0
-710 -1826 0
727 -218 0
367 1322 0
-1298 15 0
-980 -896 0
-949 1263 0
-14 1529 0
-225 -54 0
-1475 826 0
582 -637 0
-1727 -1136 0
1225 881 0
-1047 3 0
521 341 0
-1833 -858 0
-387 -166 0
798 222 0
1562 -215 0
339 -992 0
-1602 1122 0
839 2180 0
-846 2035 0
-407 -330 0
2026 694 0
-1191 1494 0
-515 1153 0
-688 -239 0
48 -907 0
-1030 309 0
-211 1963 0
-1309 -1482 0
-446 -2111 0
823 1455 0
412 -99 0
2164 -599 0
603 1403 0
-1278 -1217 0
-1555 432 0
-2139 -1858 0
-1194 1746 0
606 -384 0
-1693 -1286 0
-562 -1718 0
-795 -2151 0
1148 2058 0
-431 2110 0
-1162 110 0
1805 520 0
-758 -1340 0
1084 937 0
-334 639 0
2076 191 0
760 -2126 0
-1810 -1333 0
1148 306 0
1918 -600 0
114 -1484 0
-1985 -1539 0
1900 -1587 0
212 -2034 0
866 629 0
2036 -1533 0
1475 100 0
1892 1181 0
1703 720 0
-2041 -464 0
-562 -1284 0
-986 1053 0
266 -996 0
546 1195 0
-2146 -227 0
2138 -1689 0
-326 1088 0
-789 -1696 0
2077 2155 0
1151 1628 0
863 1137 0
1972 -1357 0
-1048 -2069 0
733 2012 0
-1102 -1745 0
133 1115 0
1261 -12 0
-35 1699 0
1042 -1609 0
403 1928 0
-914 -1800 0
-1307 -1209 0
-59 -642 0
-309 2078 0
-402 -708 0
-609 762 0
943 -2162 0
-310 -1585 0
-1743 -1729 0
875 -1765 0
424 1943 0
-1044 1203 0
1209 948 0
-1330 -584 0
-1262 -1761 0
1046 -1450 0
1561 2024 0
-1086 -1933 0
126 -1525 0
-538 -1624 0
-304 314 0
-304 802 0
-71 -2123 0
1904 1718 0
1718 -33 0
-833 -655 0
1008 -1481 0
1869 -575 0
1840 -338 0
131 -1220 0
1664 -1909 0
-345 -833 0
1002 2048 0
-1506 1841 0
-1007 1618 0
1871 960 0
287 1440 0
-1054 -1791 0
1119 -1250 0
-2088 153 0
816 1028 0
-628 212 0
1057 1871 0
1240 1246 0
-1772 -2087 0
-1017 670 0
-652 -2003 0
2096 166 0
372 -556 0
1185 -170 0
989 -41 0
-1295 -1717 0
-804 1115 0
1038 498 0
-2016 -645 0
-1375 1441 0
-670 -626 0
-810 -1970 0
1168 -1794 0
489 -755 0
2122 332 0
1935 -300 0
1463 1110 0
-1497 870 0
-575 589 0
591 -1570 0
-2177 -1275 0
-1848 -1882 0
-1209 -1738 0
-1371 1253 0
776 -588 0
-2108 1569 0
330 1180 0
-2100 805 0
-64 -2050 0
-985 -1949 0
-883 282 0
557 1412 0
-543 -743 0
2072 119 0
-1683 1442 0
924 -2154 0
1894 -1598 0
-1376 1303 0
-2090 -575 0
923 71 0
-1456 -1386 0
-1803 2135 0
-469 103 0
-305 -1005 0
-1787 1271 0
425 693 0
869 101 0
146 -389 0
1034 2161 0
1664 -1168 0
786 -2032 0
1934 1247 0
-839 288 0
347 736 0
2015 -452 0
515 -907 0
2182 715 0
-302 -1932 0
1571 2107 0
430 -708 0
-1612 -657 0
546 -2134 0
1728 -1468 0
343 -886 0
700 604 0
-727 95 0
716 788 0
1563 1253 0
-680 -1521 0
-1260 1168 0
-520 1993 0
-670 1885 0
-1355 -1791 0
-787 1670 0
-1047 44 0
175 1823 0
-125 -1898 0
596 -811 0
-2102 147 0
1087 -848 0
959 1883 0
284 -1357 0
-330 -1639 0
764 100 0
-1281 1925 0
-413 -47 0
-1899 1267 0
1233 173 0
-1104 182 0
664 -1398 0
2010 -131 0
755 804 0
1462 -1845 0
-1034 1483 0
-309 1232 0
678 1106 0
-1081 -830 0
-1500 1857 0
14 823 0
-1454 1882 0
-2070 -1134 0
420 1356 0
-555 -735 0
-1145 1101 0
808 -2070 0
-974 -1996 0
-142 1958 0
-1163 -471 0
-1314 116 0
1566 1032 0
-1358 -822 0
332 -2126 0
-1168 -1633 0
-1840 1915 0
-1725 2061 0
1117 1026 0
-1199 901 0
1461 -572 0
1943 -946 0
-509 272 0
299 454 0
811 156 0
1740 -1776 0
2168 438 0
695 3 0
-66 501 0
2064 308 0
219 -1968 0
1524 -939 0
-1874 295 0
1723 -1251 0
529 70 0
1779 711 0
537 948 0
520 1414 0
261 808 0
-2008 793 0
-343 1542 0
162 -464 0
-416 983 0
2010 -476 0
-228 -105 0
-479 -2008 0
-381 219 0
-1825 1732 0
1128 1045 0
-484 1925 0
1038 1195 0
-2048 -329 0
838 2010 0
-464 -1358 0
1253 -1399 0
-1616 1604 0
-135 -1021 0
498 -2179 0
-436 291 0
1006 1008 0
2136 1937 0
-1492 -792 0
789 970 0
-2054 -1484 0
1015 -1399 0
-1638 1491 0
5 -1271 0
-1595 1474 0
-1362 190 0
-283 -423 0
1984 -1119 0
1171 -1495 0
-960 -908 0
951 1644 0
-1349 -717 0
-1001 -1909 0
198 -1815 0
-541 1962 0
1193 -470 0
-1789 -1360 0
-676 1198 0
-263 -421 0
566 1905 0
1918 -1347 0
1011 527 0
-1446 -1224 0
1526 -1681 0
979 -211 0
408 794 0
152 -200 0
-611 1709 0
884 1430 0
-964 -606 0
1310 -520 0
-355 628 0
384 -188 0
-452 597 0
255 513 0
1698 -228 0
-15 2059 0
-857 1423 0
1895 -1627 0
976 -1651 0
-1277 627 0
-300 492 0
-914 2013 0
-615 -1149 0
-1322 1000 0
-1363 762 0
402 1895 0
1963 1546 0
628 -1012 0
-187 -124 0
869 409 0
1263 -681 0
-642 1067 0
1859 172 0
1002 -1181 0
-2102 -596 0
1338 -1328 0
1486 1052 0
-1049 1704 0
-1563 384 0
1540 1863 0
445 -997 0
-25 -779 0
52 1662 0
-1436 456 0
-686 1851 0
1144 1452 0
1336 -2022 0
-245 1340 0
-359 -1578 0
-1034 -1777 0
-852 108 0
-1540 -15 0
-667 -861 0
1829 546 0
1349 -502 0
-659 535 0
-1598 1240 0
-380 -381 0
272 2020 0
526 -757 0
-1005 1182 0
651 -1236 0
1845 2059 0
1408 943 0
-949 -637 0
-463 2082 0
564 -302 0
1293 338 0
-1010 773 0
-117 1885 0
879 39 0
1390 -1736 0
1030 668 0
-729 1907 0
-946 172 0
388 202 0
-103 1339 0
1203 1869 0
1366 -365 0
-2129 485 0
-2061 -1868 0
-1474 1063 0
214 1974 0
-1446 1597 0
-2125 -1942 0
1916 698 0
-1114 -1504 0
288 -870 0
-244 2182 0
2168 -473 0
1501 516 0
-58 357 0
-640 -1276 0
-1779 1162 0
-767 -486 0
1597 -1374 0
780 -1489 0
767 -837 0
-382 1034 0
-884 531 0
-1124 -1127 0
-899 366 0
-1883 11 0
235 2151 0
-818 439 0
1945 -1798 0
-304 -1801 0
-2104 194 0
-91 -381 0
1014 1554 0
-1178 -511 0
293 1766 0
1665 508 0
-1320 -918 0
-606 1649 0
-691 -1129 0
1719 -1943 0
-2137 -596 0
-1005 515 0
-2181 1872 0
-1434 -904 0
-249 -849 0
-330 -1006 0
-108 -419 0
-1742 -1449 0
427 1830 0
-1722 969 0
-1395 -1124 0
2037 -1456 0
