c NF
p cnf 590 1770
49 217 0
-413 -157 0
241 -44 0
-195 134 0
-134 192 0
511 -73 0
-272 222 0
246 -217 0
448 -164 0
-103 -190 0
-189 291 0
117 193 0
-311 -415 0
271 -352 0
-109 -549 0
-440 112 0
111 -309 0
288 75 0
-223 -33 0
-243 228 0
514 -483 0
-150 558 0
-482 -270 0
495 -461 0
590 310 0
485 -131 0
103 264 0
345 376 0
440 580 0
564 521 0
-295 -441 0
-163 567 0
13 -521 0
572 -206 0
336 -284 0
-118 378 0
358 181 0
460 514 0
-232 454 0
-268 -368 0
-397 211 0
-421 248 0
583 346 0
-313 -36 0
-406 -262 0
-341 -571 0
175 -470 0
442 325 0
-504 -501 0
-1 266 0
460 254 0
-181 357 0
456 -25 0
215 -265 0
-529 419 0
-176 -428 0
17 293 0
-522 -408 0
486 371 0
-575 293 0
-107 -208 0
-291 -73 0
436 409 0
147 303 0
-439 510 0
351 369 0
-416 -513 0
-495 75 0
-453 -561 0
115 -508 0
246 -99 0
487 -252 0
115 487 0
277 47 0
-520 6 0
-558 567 0
486 -59 0
442 -427 0
508 275 0
-37 -532 0
-19 532 0
583 -410 0
108 548 0
359 241 0
-132 -152 0
-119 377 0
552 117 0
-191 -151 0
341 286 0
-518 -70 0
-39 419 0
-455 292 0
-141 -3 0
267 -97 0
70 -381 0
-174 499 0
139 326 0
173 -521 0
192 -146 0
120 347 0
212 -197 0
-223 484 0
-572 117 0
151 -447 0
-410 -189 0
147 392 0
392 -367 0
197 -334 0
449 205 0
213 -381 0
-92 322 0
-57 415 0
-111 515 0
-327 228 0
-580 12 0
-349 209 0
-79 -284 0
-37 426 0
301 -304 0
156 272 0
53 299 0
64 70 0
-137 -179 0
-324 -521 0
-63 529 0
-577 405 0
-151 -295 0
-178 -116 0
27 494 0
483 195 0
395 -112 0
-221 -501 0
-467 491 0
290 -345 0
463 101 0
557 -409 0
487 59 0
312 588 0
144 -438 0
-344 -15 0
-586 -553 0
-301 106 0
316 171 0
-502 -99 0
-287 -517 0
-183 -510 0
454 26 0
3 274 0
-22 583 0
177 -161 0
-172 453 0
350 -370 0
-282 200 0
-188 -137 0
-95 279 0
241 -276 0
-185 -508 0
-269 -229 0
-397 -143 0
-172 153 0
58 -42 0
-286 -54 0
21 -499 0
-119 450 0
-109 -131 0
396 -537 0
283 -62 0
285 -308 0
112 251 0
-368 554 0
52 -468 0
-528 152 0
-536 218 0
-265 585 0
-105 258 0
-413 -473 0
75 -284 0
-15 -188 0
263 257 0
17 -508 0
-368 177 0
-47 -235 0
-94 -351 0
371 103 0
5 -458 0
227 -359 0
-59 -172 0
427 57 0
432 -83 0
110 -67 0
171 138 0
-402 -505 0
-125 -425 0
15 565 0
497 193 0
418 -109 0
-237 -308 0
551 -386 0
-316 -99 0
415 -172 0
23 323 0
-335 -417 0
315 -100 0
429 382 0
561 93 0
331 359 0
-157 -295 0
273 -2 0
343 353 0
175 17 0
-313 -63 0
-446 530 0
-340 142 0
542 20 0
-168 -89 0
-482 487 0
241 8 0
-549 -227 0
199 -320 0
192 -67 0
-109 -355 0
545 61 0
-322 178 0
260 -205 0
419 -253 0
-365 -153 0
486 585 0
471 19 0
-480 34 0
-258 170 0
134 469 0
563 -362 0
64 -465 0
78 -50 0
-470 61 0
-413 422 0
-565 -366 0
-162 141 0
254 276 0
456 -420 0
-113 -399 0
195 -15 0
31 62 0
305 463 0
496 175 0
193 155 0
165 -2 0
-356 574 0
-406 -378 0
469 -323 0
-129 117 0
525 411 0
-501 -100 0
435 -156 0
-397 -113 0
-583 289 0
280 208 0
461 252 0
343 519 0
288 407 0
333 -517 0
-351 427 0
-299 539 0
557 -239 0
-325 -63 0
-298 -290 0
336 -202 0
222 80 0
-207 265 0
-354 35 0
-568 -589 0
119 475 0
201 -30 0
444 51 0
-368 -508 0
-300 169 0
-46 -7 0
195 518 0
-552 330 0
321 418 0
-90 -406 0
-231 -167 0
409 469 0
-261 373 0
128 -114 0
-331 333 0
-457 -372 0
-461 405 0
456 221 0
269 -29 0
475 532 0
192 -206 0
492 -166 0
316 -524 0
-252 -63 0
-346 533 0
321 587 0
374 379 0
-537 569 0
-121 -47 0
184 -447 0
491 273 0
378 -476 0
235 -391 0
243 277 0
321 -318 0
226 101 0
392 -508 0
92 466 0
-510 -75 0
565 -38 0
494 399 0
253 249 0
-333 129 0
90 353 0
283 376 0
355 69 0
234 -352 0
48 228 0
-404 463 0
-547 -564 0
-13 211 0
-56 53 0
-160 196 0
-403 461 0
-388 -409 0
-263 514 0
8 -588 0
-231 405 0
-547 58 0
67 -170 0
-79 305 0
225 -383 0
-122 417 0
-447 -46 0
45 -535 0
374 395 0
552 -268 0
-172 200 0
-290 378 0
400 -520 0
-3 203 0
528 224 0
-326 -457 0
278 -119 0
-323 155 0
216 -420 0
-163 89 0
65 -331 0
536 -30 0
256 -556 0
519 -396 0
-96 -439 0
77 -340 0
-327 355 0
352 289 0
-335 563 0
124 315 0
-69 -307 0
-97 538 0
330 -16 0
-441 -118 0
-319 137 0
159 -156 0
410 80 0
-387 -217 0
-67 406 0
272 -305 0
555 538 0
279 154 0
-424 -541 0
-429 128 0
347 98 0
-282 281 0
-521 -166 0
-324 6 0
-36 135 0
301 -282 0
220 437 0
505 238 0
-390 -223 0
-413 423 0
205 -154 0
516 -244 0
-396 -511 0
200 38 0
236 225 0
160 283 0
85 589 0
110 225 0
-10 148 0
-295 472 0
-10 -520 0
-213 -63 0
126 148 0
-290 48 0
-153 -457 0
90 -578 0
347 -66 0
195 -230 0
93 332 0
-441 127 0
466 -444 0
480 355 0
-154 174 0
373 267 0
448 327 0
-265 309 0
-535 500 0
-100 -37 0
6 -390 0
125 -221 0
-16 378 0
138 45 0
-117 -549 0
330 201 0
-320 -55 0
302 62 0
-76 -420 0
490 -442 0
-282 -83 0
225 -508 0
186 573 0
177 -37 0
-365 380 0
-351 -194 0
-74 -370 0
-123 -441 0
37 -316 0
503 -390 0
-70 -71 0
176 -305 0
-285 -216 0
-188 -157 0
-25 273 0
-259 -320 0
-576 483 0
168 -477 0
99 -305 0
-530 -340 0
-222 -3 0
-423 357 0
50 -387 0
-234 539 0
589 -229 0
371 -405 0
576 256 0
-214 503 0
-480 -586 0
212 386 0
-551 77 0
175 -354 0
194 -88 0
-207 -530 0
-52 -189 0
-383 -426 0
-207 571 0
-295 -535 0
468 474 0
-518 155 0
-119 -492 0
-536 357 0
-128 -203 0
155 324 0
-196 124 0
77 332 0
-42 93 0
3 310 0
-504 272 0
-507 -335 0
500 -431 0
333 268 0
374 -454 0
-368 333 0
-565 -130 0
104 385 0
-70 499 0
506 242 0
291 119 0
234 -289 0
545 456 0
-69 -116 0
-383 -325 0
-119 182 0
-323 251 0
-340 -332 0
13 -30 0
171 505 0
506 -88 0
455 28 0
-206 176 0
-196 -517 0
567 249 0
-559 -348 0
492 480 0
-300 -112 0
225 400 0
-415 279 0
64 -8 0
499 87 0
254 291 0
-269 147 0
426 -122 0
-396 565 0
-65 565 0
233 487 0
502 107 0
148 349 0
-159 378 0
208 -335 0
-85 26 0
-101 -11 0
-89 474 0
-115 90 0
-381 259 0
501 438 0
462 337 0
-377 -134 0
-405 -120 0
-147 280 0
-496 165 0
-349 315 0
-161 -444 0
285 -498 0
-571 80 0
214 -232 0
126 337 0
453 -37 0
-87 394 0
-217 393 0
478 -371 0
-383 -464 0
216 555 0
542 48 0
115 -290 0
-529 -69 0
-274 -345 0
437 555 0
-2 193 0
-510 552 0
-313 484 0
487 -173 0
-143 -446 0
-96 -568 0
235 -200 0
-15 -396 0
588 371 0
-299 439 0
290 438 0
-223 -264 0
-383 -16 0
-105 417 0
-35 204 0
489 6 0
-73 545 0
538 545 0
-318 32 0
373 82 0
-115 472 0
505 377 0
-342 500 0
-582 -125 0
-384 -345 0
451 -314 0
373 145 0
-461 -403 0
539 -22 0
-139 264 0
26 183 0
42 266 0
71 -510 0
484 477 0
-493 -556 0
502 124 0
222 477 0
-70 421 0
-366 -158 0
479 135 0
-250 474 0
236 421 0
-239 -327 0
413 110 0
43 213 0
167 -324 0
240 -3 0
-550 -515 0
382 31 0
-125 489 0
-97 -32 0
378 -288 0
-268 -529 0
-433 -265 0
-338 144 0
-100 -568 0
-541 373 0
273 589 0
-411 492 0
-442 195 0
-265 531 0
53 -372 0
490 -271 0
-154 64 0
183 -404 0
-442 -503 0
1 156 0
-425 -146 0
-134 -164 0
-143 -61 0
92 -94 0
393 -53 0
88 -239 0
-39 463 0
217 158 0
-261 -152 0
17 204 0
-458 -20 0
-355 229 0
115 -163 0
384 -219 0
350 574 0
-172 -513 0
-29 -56 0
536 40 0
43 443 0
-51 567 0
-120 468 0
21 -73 0
-429 259 0
60 -288 0
209 209 0
-136 348 0
-428 -144 0
393 331 0
435 -70 0
-359 -358 0
562 488 0
-52 -33 0
-311 463 0
-109 181 0
-206 -529 0
-403 -501 0
-412 -272 0
280 26 0
-124 -541 0
-245 274 0
-114 463 0
260 -317 0
340 -516 0
-2 186 0
431 344 0
429 510 0
313 407 0
-328 -529 0
403 23 0
-454 -145 0
-120 443 0
325 566 0
384 17 0
466 -388 0
178 -116 0
234 426 0
-560 -313 0
-402 -451 0
5 -346 0
548 507 0
-528 -80 0
-301 494 0
6 -237 0
526 572 0
237 115 0
-571 106 0
-303 40 0
-9 -266 0
-369 -161 0
523 -296 0
138 -318 0
-39 -153 0
128 -426 0
333 -383 0
488 -123 0
574 -157 0
273 -258 0
91 214 0
551 -406 0
-373 -74 0
358 -447 0
-159 570 0
536 -203 0
-491 -422 0
-507 -465 0
-519 -158 0
-440 -469 0
-441 222 0
-372 194 0
510 251 0
-296 105 0
129 573 0
207 357 0
209 228 0
580 6 0
-308 -501 0
-377 23 0
46 -271 0
195 -526 0
374 464 0
466 -493 0
104 246 0
230 325 0
183 -80 0
-107 -107 0
-436 255 0
-465 -62 0
225 -348 0
-120 -306 0
448 -79 0
-554 338 0
186 -123 0
-561 3 0
-313 -380 0
256 98 0
285 -410 0
19 -338 0
-39 -212 0
-581 -116 0
6 -313 0
515 -360 0
364 -510 0
538 574 0
557 -377 0
-54 -120 0
540 -284 0
572 -295 0
147 566 0
590 177 0
447 438 0
222 137 0
-5 84 0
81 5 0
-540 -307 0
354 -434 0
-298 -356 0
415 573 0
-213 577 0
-535 247 0
-554 -130 0
180 -495 0
-90 448 0
48 40 0
-340 -519 0
-428 432 0
-113 213 0
418 366 0
-509 483 0
405 148 0
-449 472 0
-12 280 0
104 222 0
464 -172 0
372 -46 0
116 395 0
426 -140 0
430 199 0
306 -262 0
73 185 0
-65 -276 0
41 -352 0
127 561 0
505 -476 0
274 -575 0
-495 -339 0
97 532 0
-364 589 0
-452 -417 0
-292 31 0
-453 235 0
176 -452 0
256 8 0
159 -167 0
207 392 0
437 382 0
-398 112 0
183 -479 0
472 396 0
-299 -481 0
-286 474 0
-108 429 0
-474 514 0
-93 -202 0
94 108 0
-49 80 0
271 337 0
81 279 0
101 -321 0
-549 353 0
-46 -188 0
133 548 0
83 210 0
-448 -28 0
-200 225 0
-36 -387 0
79 -41 0
-263 564 0
-96 -436 0
-132 563 0
466 175 0
293 118 0
399 -311 0
179 32 0
41 273 0
369 -383 0
432 -590 0
-67 519 0
-115 -172 0
349 -270 0
-538 344 0
-528 110 0
-562 -141 0
222 422 0
-511 -248 0
583 236 0
414 -132 0
-73 -162 0
186 99 0
-188 -402 0
411 -307 0
-254 -174 0
494 -541 0
-328 -377 0
-389 -281 0
415 135 0
-242 -270 0
227 32 0
74 -105 0
236 184 0
-191 346 0
-95 79 0
566 76 0
466 -547 0
536 405 0
-354 230 0
338 -552 0
36 -484 0
551 -183 0
384 492 0
-515 336 0
-134 -247 0
515 -141 0
-501 -291 0
573 338 0
257 554 0
406 112 0
-93 61 0
139 -468 0
160 234 0
-253 -137 0
302 292 0
-119 -524 0
270 -402 0
412 -584 0
-295 478 0
197 3 0
136 384 0
-42 -95 0
281 -353 0
-366 164 0
20 361 0
357 121 0
430 179 0
274 519 0
125 -353 0
-554 -453 0
-522 -288 0
-402 66 0
422 -346 0
205 161 0
-313 -439 0
-434 -380 0
77 -453 0
-303 215 0
575 13 0
386 -253 0
57 -400 0
-498 63 0
-89 -299 0
-468 436 0
48 -2 0
-313 -376 0
-295 409 0
409 319 0
-526 57 0
-172 -242 0
221 444 0
33 374 0
454 -5 0
-468 -323 0
558 409 0
173 12 0
-410 -406 0
317 -25 0
-14 -198 0
490 -423 0
-327 7 0
31 138 0
-564 184 0
218 -230 0
-420 -161 0
124 -443 0
375 -509 0
-533 71 0
-540 -396 0
273 152 0
-47 -36 0
353 -331 0
181 5 0
102 65 0
277 -470 0
-224 527 0
-519 407 0
222 -533 0
25 -130 0
26 -330 0
-400 456 0
407 395 0
308 -526 0
-95 53 0
445 466 0
291 -440 0
8 180 0
350 9 0
-247 -13 0
269 -359 0
322 -314 0
557 293 0
277 -240 0
266 13 0
-449 -525 0
-459 302 0
215 -185 0
-142 570 0
113 44 0
337 -190 0
-406 -470 0
-213 -470 0
-471 -384 0
432 -327 0
-285 -250 0
236 -503 0
-29 -428 0
-542 511 0
-307 -339 0
-30 -428 0
-251 -471 0
9 -296 0
178 -114 0
-43 103 0
-508 -121 0
20 113 0
-545 -211 0
321 419 0
-540 -226 0
392 149 0
-68 -73 0
-467 125 0
503 -436 0
-362 152 0
-459 -158 0
-189 -116 0
430 50 0
325 550 0
-581 259 0
-328 273 0
167 350 0
-365 288 0
-528 -265 0
56 256 0
-509 342 0
333 -28 0
-493 322 0
337 374 0
183 121 0
-345 45 0
-157 588 0
552 -11 0
523 212 0
-361 266 0
552 379 0
34 255 0
-68 165 0
-4 -519 0
-490 176 0
-550 392 0
26 431 0
-362 559 0
-365 -53 0
159 559 0
478 1 0
-388 336 0
487 -65 0
-300 -493 0
264 -76 0
570 -20 0
515 -187 0
-280 374 0
-461 -557 0
-219 -328 0
360 519 0
204 529 0
566 -145 0
-303 400 0
-199 -481 0
-71 249 0
-318 183 0
405 249 0
-345 119 0
145 -94 0
466 546 0
288 -86 0
-440 -126 0
23 -320 0
-46 -494 0
-321 -2 0
84 -435 0
490 246 0
589 152 0
-584 291 0
328 -120 0
176 410 0
200 104 0
-146 376 0
-306 -268 0
119 583 0
-567 123 0
273 -92 0
369 90 0
252 279 0
435 558 0
-371 490 0
-271 -545 0
390 -421 0
-329 -153 0
-564 -305 0
505 330 0
293 -537 0
135 535 0
-351 -373 0
-142 71 0
543 -196 0
-537 -477 0
-328 -240 0
241 -394 0
579 462 0
-232 119 0
341 272 0
-561 306 0
-560 -369 0
218 563 0
242 17 0
13 12 0
474 298 0
184 -306 0
-47 -434 0
-586 -45 0
326 78 0
449 407 0
-524 -326 0
-381 359 0
110 -370 0
131 -164 0
150 560 0
-232 548 0
135 250 0
-450 -287 0
500 508 0
-312 413 0
-478 200 0
-582 250 0
212 500 0
212 -284 0
494 -516 0
68 -352 0
-250 -28 0
-196 496 0
-396 -452 0
494 -581 0
-265 376 0
-3 -11 0
350 -329 0
26 -533 0
73 52 0
-419 553 0
-109 -398 0
-424 312 0
534 36 0
215 -56 0
-268 -570 0
589 464 0
8 559 0
-428 274 0
-385 -278 0
-357 -137 0
-496 -313 0
-98 98 0
7 464 0
17 21 0
-159 -340 0
-553 45 0
-541 74 0
477 446 0
-434 -284 0
322 426 0
179 380 0
280 -386 0
390 315 0
-489 494 0
420 -74 0
-338 -203 0
-191 -100 0
-540 462 0
283 278 0
-200 256 0
240 -368 0
310 301 0
-62 -493 0
-590 -341 0
-410 -58 0
-168 -116 0
79 -269 0
-442 194 0
-493 448 0
226 -32 0
182 159 0
487 504 0
-213 548 0
330 -53 0
-143 -149 0
-529 358 0
-422 -56 0
313 409 0
-494 20 0
100 -434 0
-4 186 0
51 226 0
466 -514 0
374 -549 0
-118 418 0
-130 235 0
-245 -417 0
-399 476 0
-33 -431 0
374 -571 0
432 288 0
374 524 0
-476 15 0
-303 -249 0
-20 499 0
-359 287 0
-13 340 0
217 358 0
-241 -243 0
89 291 0
114 -425 0
-396 -358 0
136 408 0
-549 -38 0
-72 -254 0
420 552 0
276 -262 0
518 445 0
-405 499 0
-62 143 0
567 558 0
410 -333 0
-55 183 0
-481 194 0
532 -355 0
558 181 0
337 534 0
574 126 0
410 -329 0
-76 -162 0
123 418 0
-522 579 0
434 -443 0
-49 -338 0
-413 430 0
-20 159 0
-484 134 0
415 334 0
354 574 0
-75 470 0
288 435 0
-340 317 0
-226 267 0
-586 -537 0
393 -166 0
-444 199 0
-32 181 0
-564 -493 0
-71 -116 0
-347 10 0
-298 246 0
-535 -272 0
-9 224 0
332 488 0
285 -4 0
-183 -510 0
-543 -88 0
-362 -192 0
-356 -113 0
-5 473 0
233 411 0
-348 409 0
-554 237 0
-586 -536 0
386 150 0
-47 -123 0
-41 239 0
396 -571 0
-166 -229 0
90 84 0
-299 -485 0
-3 215 0
-247 -338 0
156 -385 0
357 276 0
-409 267 0
283 299 0
-242 -162 0
435 35 0
-139 186 0
551 74 0
242 572 0
-404 -282 0
438 318 0
-483 -321 0
272 352 0
-205 -348 0
183 -339 0
468 -309 0
-160 -343 0
49 264 0
-381 77 0
-457 -100 0
-385 -226 0
-349 307 0
-22 354 0
12 220 0
-581 45 0
18 -29 0
-160 -24 0
588 -514 0
-388 75 0
-86 -537 0
174 -58 0
-501 259 0
-476 -416 0
-514 121 0
-364 299 0
68 -516 0
-391 -508 0
-172 -100 0
-313 -467 0
-578 -425 0
-242 548 0
-328 404 0
-394 551 0
-587 -329 0
267 324 0
-205 565 0
-354 333 0
-205 -421 0
-343 64 0
126 541 0
-114 569 0
-113 -481 0
-116 309 0
64 -271 0
-318 -75 0
122 331 0
-315 -55 0
589 257 0
-364 196 0
-452 -326 0
426 331 0
-323 391 0
-13 -128 0
568 -3 0
527 -241 0
-196 396 0
-547 3 0
423 -313 0
107 -482 0
148 437 0
-406 442 0
410 279 0
-447 -185 0
-326 -63 0
275 478 0
-321 215 0
178 -303 0
556 -421 0
-140 538 0
215 530 0
196 -417 0
-96 580 0
580 -31 0
429 237 0
179 -306 0
-111 -145 0
-396 130 0
233 224 0
21 -92 0
502 -442 0
527 -15 0
-190 451 0
-307 382 0
588 -379 0
-269 -299 0
-397 241 0
-430 363 0
-496 -164 0
-145 135 0
557 249 0
-313 -301 0
-99 338 0
315 198 0
90 19 0
475 -177 0
475 -317 0
-427 149 0
-492 -153 0
-143 -85 0
475 -565 0
-265 377 0
-149 -356 0
-23 -143 0
77 -301 0
-29 507 0
37 -72 0
379 523 0
165 -227 0
-15 -10 0
376 188 0
290 -32 0
321 279 0
297 -213 0
351 -187 0
-518 149 0
536 114 0
266 -513 0
385 -219 0
373 -93 0
419 187 0
-399 -187 0
73 45 0
288 67 0
-109 -380 0
-162 225 0
412 226 0
-460 527 0
16 273 0
-588 -452 0
210 518 0
201 562 0
-270 278 0
493 444 0
-196 508 0
-420 270 0
48 575 0
91 -392 0
-482 160 0
-368 589 0
213 -164 0
-396 -49 0
-369 559 0
-447 -362 0
-166 -468 0
403 224 0
-123 -449 0
446 371 0
386 330 0
-336 304 0
-424 1 0
-503 -14 0
288 -49 0
-148 414 0
-296 -62 0
-172 281 0
32 255 0
511 112 0
-468 184 0
546 119 0
136 -420 0
-32 -343 0
-188 -236 0
525 453 0
393 279 0
185 240 0
559 21 0
363 -114 0
379 -14 0
-97 -494 0
174 229 0
-62 -573 0
264 -30 0
279 -362 0
-19 583 0
344 -191 0
-568 281 0
286 314 0
8 -496 0
-380 566 0
-547 -586 0
514 50 0
450 -140 0
-413 -99 0
-24 -512 0
-72 256 0
-588 139 0
-383 172 0
438 503 0
459 412 0
384 -255 0
-380 463 0
218 -311 0
139 363 0
-237 178 0
-218 -308 0
163 291 0
472 300 0
545 -209 0
21 -13 0
433 -308 0
344 -333 0
-74 109 0
-379 450 0
21 278 0
-141 -351 0
572 588 0
-303 -328 0
-320 34 0
-394 -549 0
478 -506 0
-208 -198 0
-119 -222 0
537 432 0
430 193 0
432 -378 0
98 -258 0
-527 -172 0
-540 570 0
267 507 0
445 41 0
523 -377 0
-491 -571 0
-383 -136 0
-232 -342 0
-560 -114 0
-219 241 0
-256 61 0
34 548 0
331 -424 0
473 96 0
-451 93 0
-191 171 0
-114 186 0
-576 -132 0
-13 149 0
-461 204 0
-428 58 0
179 205 0
-262 -136 0
475 233 0
438 443 0
-580 -510 0
503 14 0
-108 -62 0
-397 316 0
-289 293 0
-545 -501 0
-157 158 0
-163 14 0
321 -582 0
-551 221 0
-41 463 0
433 -412 0
-69 247 0
110 296 0
356 -584 0
-306 554 0
-285 -214 0
277 -345 0
139 -465 0
-313 -549 0
-368 -422 0
409 322 0
-533 -354 0
148 587 0
168 269 0
327 20 0
65 466 0
357 -193 0
-1 -319 0
-434 117 0
-46 246 0
-163 10 0
-464 -506 0
-416 -530 0
-152 -316 0
49 -16 0
417 -54 0
78 -9 0
-41 134 0
131 -55 0
-119 -544 0
246 -406 0
429 -426 0
-248 -393 0
-581 -539 0
-311 -200 0
-83 310 0
215 168 0
-179 -32 0
413 135 0
-503 555 0
-248 -538 0
502 -36 0
-296 -74 0
90 -484 0
-244 -312 0
331 336 0
-129 -146 0
199 253 0
-571 -488 0
489 199 0
-214 -402 0
562 118 0
-378 -271 0
76 539 0
152 -206 0
26 80 0
108 308 0
438 -502 0
-139 -141 0
168 -238 0
457 -290 0
433 298 0
480 209 0
-530 -472 0
-12 195 0
568 -287 0
-423 532 0
-331 375 0
-440 -131 0
-404 580 0
373 11 0
119 445 0
456 451 0
-557 255 0
-86 404 0
-540 -203 0
-543 -493 0
342 409 0
-78 -316 0
226 -460 0
-191 38 0
431 550 0
465 267 0
587 233 0
503 -352 0
477 -256 0
156 -232 0
568 240 0
-240 -416 0
182 -227 0
572 -283 0
150 12 0
159 -298 0
-290 416 0
575 515 0
483 355 0
213 115 0
-28 -391 0
-149 460 0
572 -199 0
-482 513 0
-138 65 0
-445 -590 0
-144 204 0
-579 546 0
225 -153 0
35 -203 0
273 479 0
-498 -549 0
-476 440 0
54 199 0
-361 -127 0
529 579 0
-490 249 0
504 -142 0
-317 425 0
-174 107 0
545 583 0
-345 -389 0
-268 -541 0
-447 173 0
-130 -365 0
-237 379 0
-521 217 0
41 -434 0
109 577 0
-424 -46 0
-555 559 0
494 171 0
-70 99 0
63 -521 0
-373 -105 0
90 -342 0
-143 273 0
-410 -38 0
-483 492 0
301 496 0
-12 -354 0
-446 13 0
127 359 0
-87 578 0
-183 347 0
433 -92 0
-396 -130 0
-28 514 0
-37 422 0
410 -328 0
138 -106 0
-458 405 0
64 168 0
-353 444 0
-365 101 0
129 357 0
259 81 0
-27 -509 0
353 -402 0
-312 -92 0
-444 264 0
-142 -82 0
-140 146 0
-495 -331 0
-383 -87 0
-223 330 0
184 491 0
-149 543 0
583 326 0
-565 -66 0
254 -250 0
209 -422 0
548 551 0
543 -297 0
205 334 0
155 -509 0
87 -441 0
-550 -332 0
-55 278 0
226 -243 0
-190 -165 0
-391 -323 0
126 -224 0
-101 -402 0
-232 136 0
448 -501 0
-258 -442 0
453 -143 0
-181 -3 0
-411 -223 0
202 -385 0
-432 455 0
197 402 0
-127 193 0
56 101 0
-95 34 0
218 -339 0
-330 322 0
-386 -443 0
-156 -79 0
-457 538 0
447 546 0
-113 -563 0
467 241 0
-98 -191 0
-88 207 0
-531 551 0
236 561 0
-182 209 0
-96 -507 0
241 579 0
71 404 0
194 -191 0
249 -86 0
-468 499 0
195 -233 0
454 -403 0
-458 -248 0
-69 -185 0
173 368 0
82 98 0
-263 -33 0
299 407 0
-214 278 0
140 460 0
-309 29 0
-211 220 0
-447 277 0
475 71 0
-303 195 0
-324 -531 0
-69 -187 0
280 -105 0
511 -349 0
-544 179 0
-442 -406 0
-258 422 0
-335 133 0
-100 -22 0
-99 -53 0
517 553 0
-161 -380 0
194 -33 0
-390 90 0
489 276 0
40 -307 0
527 -369 0
-86 -63 0
-94 470 0
-556 247 0
-513 -202 0
99 195 0
68 -119 0
210 -65 0
230 58 0
334 -141 0
-219 48 0
-556 -513 0
221 155 0
-447 302 0
81 -362 0
-19 173 0
-457 515 0
448 335 0
-588 224 0
353 -153 0
270 -111 0
147 -360 0
229 51 0
156 285 0
-268 -161 0
238 -181 0
-550 261 0
452 -116 0
452 -170 0
-445 502 0
-85 -365 0
60 374 0
-568 235 0
264 -67 0
385 -88 0
-458 -405 0
-536 215 0
178 313 0
518 -372 0
115 -471 0
-508 165 0
320 -213 0
