c NF
p cnf 3652 10956
201 -3625 0
2723 -1555 0
1214 3593 0
-1748 2242 0
-146 405 0
-2529 3315 0
3560 -443 0
-702 3510 0
-3533 -416 0
1866 -347 0
2661 -771 0
-1224 107 0
-1307 122 0
-857 -2426 0
48 3321 0
-1324 -2957 0
-1417 -976 0
1368 -1290 0
-2917 -2484 0
1726 259 0
89 -406 0
2287 3360 0
-1014 -121 0
15 2012 0
2697 1075 0
963 -1959 0
2437 -3532 0
142 1042 0
-1217 -703 0
-579 -3530 0
2579 2593 0
-3345 1148 0
3005 -1247 0
907 -1451 0
85 2997 0
402 -1434 0
287 -3176 0
3601 2010 0
-524 1567 0
-2872 3272 0
3263 -1497 0
2707 -344 0
-2395 -3040 0
2996 3326 0
-23 -941 0
-189 50 0
987 -1963 0
248 711 0
-2930 -1963 0
2428 327 0
881 -369 0
-3331 1559 0
-761 -423 0
-2618 1496 0
-2845 23 0
-3018 1813 0
2849 -310 0
-2006 -1725 0
-873 -2660 0
-878 914 0
-1084 -2367 0
444 -3512 0
-3104 -1139 0
-3221 -246 0
-1882 -3094 0
1461 -1472 0
3003 3621 0
-839 -218 0
-1669 1483 0
-3614 1810 0
2606 -2780 0
2086 3373 0
-1943 -3470 0
2293 -2864 0
-3143 2962 0
-3641 -3377 0
1885 3513 0
2975 -700 0
-399 -187 0
3337 2713 0
3627 -1396 0
2220 -3156 0
-2656 691 0
-2595 691 0
-2902 -2582 0
-1442 421 0
456 -2155 0
1901 229 0
-2394 301 0
-1407 -266 0
2136 -2618 0
2435 -179 0
-186 -2072 0
-1880 1191 0
-2670 -1905 0
-1582 -706 0
-1388 3281 0
3514 -2973 0
-3083 -2897 0
-825 2714 0
2057 1408 0
2410 620 0
2870 -186 0
2129 2260 0
47 2212 0
-3230 -3602 0
1873 2234 0
3017 121 0
464 192 0
-1882 145 0
-249 -2076 0
-3451 -1190 0
640 1723 0
-1249 2756 0
968 665 0
892 3418 0
-1597 1118 0
490 402 0
-3000 949 0
-950 -2085 0
1082 -3537 0
930 537 0
1407 1846 0
1216 3183 0
-89 -801 0
-2990 3033 0
-2449 -3563 0
1080 -3173 0
-400 1983 0
2781 535 0
838 2912 0
-1689 -1711 0
-133 -667 0
470 -2024 0
937 -1929 0
-2788 -1455 0
-846 -3563 0
-92 2989 0
1984 3155 0
2511 487 0
1199 -673 0
-1003 -1968 0
349 1121 0
626 903 0
2279 -475 0
821 2714 0
3538 -2060 0
663 -1290 0
-53 -680 0
-750 2428 0
1524 685 0
-2028 -2850 0
-3555 -2162 0
1123 326 0
-3143 -2852 0
1985 -2112 0
3344 1153 0
-358 1378 0
-3390 -1819 0
-572 782 0
-1726 -2576 0
-182 -3371 0
-595 2296 0
1875 2142 0
2368 439 0
-1542 114 0
-429 154 0
185 1901 0
-2168 3637 0
-2076 -2858 0
-3440 1576 0
-1284 1107 0
961 504 0
473 1304 0
2970 3111 0
-2264 -498 0
-2944 877 0
-3302 -2662 0
1631 2736 0
2580 -2318 0
-3362 539 0
-487 -639 0
3554 3495 0
193 144 0
-1848 -3481 0
-1848 -1616 0
-1919 -93 0
-1259 3061 0
69 -1325 0
1126 1832 0
-1674 1431 0
24 71 0
2949 504 0
-2306 1621 0
834 833 0
769 -2151 0
-1489 -2981 0
2970 -3006 0
3394 -1988 0
-1358 989 0
-1503 907 0
2125 1744 0
-3435 -1050 0
3478 540 0
873 -329 0
-952 -1780 0
2989 617 0
-1736 -1951 0
-2793 -921 0
3128 -3471 0
-245 -2048 0
216 912 0
1406 813 0
-1792 752 0
-3038 3230 0
-379 2676 0
-485 -76 0
1798 2057 0
-2441 -1677 0
-3505 -485 0
1117 -2277 0
-1302 -714 0
-1181 3315 0
3436 2034 0
2834 -451 0
-2832 2607 0
1150 -672 0
-1895 -1542 0
1377 -1869 0
1254 -481 0
70 -506 0
-1418 3585 0
-2856 -38 0
-3125 3308 0
3120 2233 0
-3249 -2308 0
-243 663 0
795 -1823 0
-265 1410 0
2425 1637 0
-2155 1622 0
-1232 -2249 0
3201 -1776 0
2034 -2848 0
697 2927 0
843 3133 0
1853 522 0
-304 -1052 0
-2937 -1282 0
2046 -624 0
3307 -1222 0
3631 -1551 0
413 -2645 0
-559 -1219 0
971 997 0
420 2440 0
-2990 1092 0
-2287 1991 0
-2225 -224 0
3488 3022 0
-2043 2253 0
2724 2751 0
-3442 -1185 0
-2533 -288 0
-2824 -184 0
-2450 -2847 0
-2310 2857 0
-3126 -2034 0
-3 -2166 0
584 -3067 0
2457 3213 0
-2312 -1603 0
2097 1852 0
447 -3189 0
2724 3286 0
3278 -581 0
2470 -145 0
-2088 -1981 0
-2299 82 0
2062 1643 0
-2126 -1090 0
3345 1232 0
2081 2947 0
3332 -2560 0
-332 -304 0
-2171 -1680 0
-395 1195 0
-1182 -1716 0
-420 156 0
-2484 603 0
-2307 2689 0
-3186 -418 0
562 -223 0
-1988 -1896 0
2400 -3472 0
-3545 2101 0
1649 950 0
729 2477 0
3508 3315 0
1277 3237 0
1858 1222 0
569 3610 0
248 -2542 0
-3302 2070 0
929 2752 0
1120 918 0
-3587 2353 0
1351 2319 0
2271 -358 0
-1818 1396 0
2301 -3559 0
-2307 2388 0
575 -3440 0
360 3524 0
-964 -531 0
-1515 -2125 0
978 1956 0
-2575 -2133 0
-3097 -1474 0
-606 -2617 0
-2781 -377 0
-594 -583 0
-1554 -1790 0
-2569 -1927 0
137 1649 0
-2947 812 0
-274 -195 0
2420 -1536 0
1752 -2212 0
190 -2320 0
-1950 -890 0
3080 -1549 0
1329 1664 0
3595 -994 0
3453 3217 0
-2689 963 0
853 -1428 0
2726 1258 0
-848 -3385 0
1388 1879 0
-2616 -1284 0
-1154 -571 0
1003 -560 0
891 -2076 0
2443 1832 0
3102 1463 0
-1339 -3063 0
1918 -3271 0
2719 1485 0
2331 303 0
-2125 2374 0
-2185 -255 0
-1465 -2562 0
2856 530 0
-1583 2980 0
-2852 -1531 0
2596 2350 0
-3424 700 0
795 -3044 0
1503 -1923 0
-2756 1825 0
179 1802 0
-1398 3224 0
2874 3184 0
2986 -1562 0
-584 723 0
1998 2977 0
2948 -42 0
805 -2411 0
3435 -727 0
-2449 2061 0
1964 -1453 0
-394 3358 0
-486 349 0
-1114 223 0
-1488 -970 0
349 -2697 0
-1262 -725 0
1809 3043 0
3144 1030 0
3252 3502 0
-1903 2098 0
-1963 -2308 0
-1539 3623 0
1613 -2828 0
1023 -521 0
47 -2175 0
-1880 3381 0
-2773 47 0
-2169 -2823 0
-310 -720 0
1799 -3410 0
-1737 -2906 0
3588 -1665 0
277 3052 0
699 -1300 0
-2673 -1202 0
-2632 1534 0
2512 1483 0
610 1191 0
1527 -2919 0
928 -2017 0
-776 712 0
593 -691 0
2999 103 0
-552 1645 0
1959 -1750 0
1638 2753 0
2831 -406 0
1007 682 0
1709 -723 0
-900 2972 0
-2923 -79 0
-2805 2765 0
-393 2930 0
933 1698 0
-3214 -1528 0
-2578 3358 0
2002 544 0
-3493 2215 0
-2608 3213 0
-137 -1589 0
2474 1389 0
-489 -784 0
-1472 768 0
1132 -2320 0
630 3629 0
-1913 -604 0
-3432 28 0
303 1831 0
-1877 2719 0
-325 -1269 0
-1816 -351 0
-3018 -227 0
-2005 -983 0
-837 254 0
3466 -1884 0
2215 -753 0
428 -2074 0
41 762 0
-543 -1198 0
752 423 0
1538 -2405 0
-2006 564 0
-2544 231 0
-532 1036 0
3486 710 0
2832 511 0
2535 2178 0
-1203 3570 0
-1985 2074 0
-94 -1619 0
3547 1206 0
-1724 -1680 0
1318 2267 0
-1756 554 0
1087 -3514 0
-1705 1862 0
-573 -39 0
-3523 2832 0
3144 2366 0
2752 3411 0
-1564 71 0
-475 3650 0
1502 1897 0
992 1839 0
-1541 835 0
-2661 -790 0
-2797 -1748 0
-934 970 0
-2502 -2513 0
-1478 2507 0
-104 -2780 0
3464 534 0
-3406 2152 0
-3106 2228 0
-3514 752 0
3163 2199 0
2010 -206 0
534 1749 0
-3481 3603 0
-2640 2217 0
-2195 -956 0
2277 -1226 0
2573 -293 0
1011 907 0
1611 -3081 0
-1495 -2804 0
1766 3388 0
2194 297 0
-2068 265 0
1972 257 0
1258 2679 0
-1050 757 0
-463 -607 0
-3122 -1639 0
38 436 0
-3374 637 0
-900 -3016 0
-919 295 0
-345 730 0
1133 -1963 0
-3170 -3512 0
1655 2939 0
-1544 -534 0
1403 916 0
-188 766 0
-497 872 0
1068 -2745 0
2066 1510 0
3142 -3177 0
-3079 -1737 0
814 3575 0
1630 -2723 0
835 -2108 0
-1931 -1911 0
-1497 -3307 0
1807 -187 0
295 2732 0
-2961 2822 0
3438 -1973 0
2620 -956 0
2023 2530 0
580 653 0
-3180 -2048 0
712 -3448 0
-3572 -3563 0
375 -2453 0
-3291 -1623 0
3407 -1358 0
-1911 1895 0
666 -3121 0
1936 372 0
3516 -2208 0
-1552 -3041 0
3206 158 0
613 311 0
-3358 -3538 0
-458 -718 0
2316 -145 0
-338 -1341 0
-2830 -958 0
2200 -2610 0
-1722 1403 0
645 -3368 0
2823 -3370 0
-1314 -344 0
790 1266 0
3513 829 0
1182 599 0
-234 963 0
2922 1801 0
-1834 2926 0
884 1419 0
2115 538 0
1794 -1763 0
1128 -3268 0
75 711 0
-2157 3501 0
-3286 208 0
2334 1317 0
-2083 -506 0
-870 818 0
-2012 309 0
-3314 -3592 0
391 571 0
2013 -703 0
-1205 -2675 0
1275 -3577 0
446 1451 0
1813 630 0
-2006 1432 0
-72 2547 0
3341 3095 0
-245 -2555 0
726 -2214 0
527 -2494 0
2472 360 0
3384 -1048 0
642 2983 0
-955 2670 0
2550 -1971 0
2709 273 0
-3258 -1092 0
-2083 2957 0
-2863 -2291 0
-3322 3179 0
1068 -2598 0
-22 -1143 0
3617 15 0
161 2226 0
274 93 0
2228 1474 0
1028 2460 0
2522 -147 0
-24 846 0
2947 2682 0
-104 -3071 0
3221 137 0
-954 -3470 0
1821 -328 0
-1677 2330 0
3125 3069 0
2241 991 0
1008 -1072 0
3388 -310 0
-949 3384 0
3438 -1346 0
-79 2046 0
2619 1403 0
-1063 2123 0
526 -801 0
1976 -1871 0
-1061 550 0
1960 415 0
-1982 2075 0
2541 -2647 0
1645 -1917 0
1097 1332 0
-1165 -1783 0
-615 -500 0
660 2025 0
-1950 163 0
360 3100 0
473 -501 0
937 219 0
2597 2940 0
1461 -2134 0
3288 306 0
-264 1576 0
580 2024 0
2243 3294 0
-1102 55 0
888 -2177 0
2933 2294 0
-1440 393 0
-3530 -436 0
1882 -1616 0
-3456 1111 0
-982 2820 0
2899 3617 0
2464 -2114 0
-2507 204 0
-2378 -2013 0
-3334 -867 0
2478 -1371 0
-1023 555 0
1223 3462 0
172 2770 0
2503 3594 0
525 -3557 0
2469 -95 0
-855 1502 0
-281 3403 0
-3047 1559 0
-2848 2325 0
2893 -521 0
-3011 -850 0
-1906 -1267 0
905 -834 0
3235 3341 0
2348 -3008 0
-818 -2915 0
-27 517 0
-1627 -1090 0
-1705 -2053 0
2691 2116 0
-1279 -3579 0
591 3239 0
-1735 2516 0
-1706 523 0
-1456 -696 0
311 115 0
-1370 -1952 0
93 -1302 0
-510 -1628 0
618 -2125 0
881 1455 0
-2175 -1821 0
-1337 -872 0
2192 3417 0
-3147 2359 0
-2210 -588 0
-2784 1587 0
1261 -1857 0
-1912 -1717 0
3437 -1221 0
-2602 -2117 0
1725 2558 0
-390 -40 0
-873 -1625 0
1687 12 0
2356 -1754 0
1415 -1300 0
-3647 -3477 0
-1811 3149 0
-35 3202 0
1714 1362 0
2604 2344 0
1463 -1513 0
-2028 -125 0
-625 -2899 0
-3364 3503 0
2259 211 0
-2520 3200 0
-2513 -1882 0
-475 -1647 0
-2710 -2171 0
-2567 2340 0
2987 -2725 0
-1684 -176 0
-3588 -1488 0
726 974 0
-889 -1185 0
-1372 -811 0
-3510 1087 0
-2883 3389 0
2860 3338 0
-3232 2854 0
-2944 1055 0
3158 303 0
-1530 -1905 0
-2093 2324 0
-2525 -508 0
-934 -3251 0
1477 314 0
-2696 -1507 0
2890 -1653 0
2631 -1710 0
-2288 50 0
2622 3284 0
2203 -842 0
3540 1649 0
-566 1623 0
1751 2034 0
2538 247 0
-1549 -808 0
396 -2567 0
-2057 -853 0
-601 -2341 0
3543 -3216 0
2281 1918 0
-1074 -2570 0
1790 -3006 0
-2735 -1746 0
1343 2854 0
-2311 3430 0
2182 757 0
1590 454 0
3010 -1332 0
843 2063 0
-1743 675 0
2991 1193 0
-1022 -108 0
-2907 -1550 0
2273 -2116 0
-922 348 0
-313 -2195 0
-3097 2440 0
-1708 -867 0
19 -171 0
139 3312 0
-3499 1337 0
-62 -371 0
2131 3095 0
1723 183 0
-843 -872 0
-1862 520 0
-2231 -533 0
3169 2337 0
-1008 -1291 0
1345 2918 0
1455 2294 0
960 471 0
-386 -1718 0
-2519 779 0
-1437 -1846 0
-754 147 0
2242 1571 0
-2858 77 0
2174 -2374 0
-70 282 0
-3296 -1515 0
3468 -2972 0
-741 -198 0
-1748 -897 0
1768 2615 0
2738 764 0
3061 -3177 0
1347 -801 0
3395 1907 0
1524 -2963 0
-1716 2686 0
-2919 -765 0
-1564 307 0
-786 -819 0
2565 724 0
-3520 3035 0
2594 3469 0
1223 909 0
-416 -2913 0
-1335 877 0
-481 -3633 0
-2969 3227 0
2062 2294 0
-1563 -2346 0
3224 -2300 0
-2955 -1980 0
2935 -205 0
1864 116 0
282 -669 0
3507 -1049 0
2942 -3646 0
-26 551 0
-3386 -3136 0
-1612 -1036 0
-705 1149 0
-216 -2249 0
-1074 2754 0
-2062 -630 0
-2615 1831 0
2922 1234 0
-2676 553 0
3121 2696 0
1021 -1981 0
3066 -2315 0
2886 1015 0
-3437 -104 0
-2197 -2369 0
-295 968 0
3357 2205 0
1878 1387 0
-1600 841 0
2289 -2544 0
1767 1010 0
-1254 176 0
924 1062 0
-560 -846 0
2337 -839 0
234 -3036 0
392 2063 0
1296 -3539 0
-525 1415 0
2195 3472 0
3453 -2326 0
-1515 983 0
-2053 3405 0
-805 -368 0
1005 -3573 0
1168 -2049 0
-3596 -1228 0
882 -242 0
1670 3328 0
2228 -1285 0
195 -318 0
-1325 2831 0
-2094 -2710 0
1046 2262 0
2738 566 0
904 -1273 0
-304 2794 0
-3177 3203 0
13 -2325 0
-2256 -2250 0
-1503 -1884 0
-578 1517 0
1909 537 0
2503 505 0
-202 3622 0
-1111 1309 0
-82 -1381 0
2536 -1612 0
3516 -2102 0
-309 1065 0
2747 1955 0
-1336 -671 0
1873 -825 0
-647 3376 0
-54 -2094 0
1752 3504 0
-1259 -1396 0
2307 -3167 0
3445 2597 0
-1524 -516 0
2737 2926 0
1501 -1224 0
3196 -3488 0
1396 3204 0
-2892 -3033 0
2046 -616 0
2709 1652 0
-926 2625 0
-1826 1159 0
-441 2721 0
103 3326 0
2640 3330 0
3604 -2797 0
2737 3146 0
-1628 -3155 0
1275 -3012 0
-59 3622 0
269 -2481 0
-3090 -197 0
-196 -428 0
-860 -1413 0
2980 2032 0
2981 -3149 0
2599 482 0
-2119 -657 0
2091 3234 0
-2167 3378 0
1769 1726 0
-1539 1035 0
-504 -1153 0
-2107 3078 0
838 3552 0
-271 2561 0
1513 -2601 0
1719 -2971 0
2197 -1789 0
1822 2783 0
2346 1129 0
-2060 2733 0
3211 2687 0
-121 511 0
2989 -608 0
-545 3347 0
-1339 1742 0
233 -561 0
-3206 3076 0
-2534 1188 0
204 482 0
-3207 -2451 0
2806 11 0
-1402 792 0
-630 1378 0
-2244 -3302 0
3196 1814 0
-2777 2554 0
-1784 -1297 0
-191 -3251 0
-1141 328 0
2025 3518 0
-1923 3128 0
3160 -1538 0
3137 -1067 0
-3316 -2658 0
-1510 -3431 0
2464 -876 0
540 1442 0
-313 209 0
1735 -2684 0
2261 2895 0
-1259 2298 0
1170 -198 0
99 -2360 0
-3070 355 0
3636 -3040 0
2742 3616 0
-671 2114 0
961 -1036 0
3100 2204 0
-163 65 0
-1605 274 0
1259 1113 0
-1279 2285 0
-2355 2492 0
2986 -2983 0
-231 -2592 0
1406 -2360 0
2548 -2736 0
-3049 -3349 0
-2061 -3202 0
-372 -1545 0
819 3539 0
2151 -1954 0
-1710 -1054 0
2203 -2742 0
-3468 3274 0
2901 3159 0
-3239 -988 0
-2195 3207 0
-1205 1911 0
-1922 729 0
-1930 419 0
-2701 -1912 0
-2113 -1783 0
-2881 -2085 0
-870 -832 0
-133 -813 0
-2261 3007 0
-167 3627 0
-1515 -1003 0
-2843 -3268 0
3418 -136 0
3356 1555 0
-2975 -1549 0
-1546 -2957 0
273 637 0
-1392 1055 0
1880 -3291 0
1636 2969 0
1196 -2972 0
-3209 2199 0
1048 1934 0
-350 2198 0
1118 2550 0
-2489 3544 0
1094 -955 0
2108 1706 0
2090 -359 0
706 1637 0
3018 2064 0
-2427 -3631 0
-3256 -1747 0
3244 -2163 0
354 -6 0
-942 3133 0
-2057 2531 0
1636 -3152 0
540 -517 0
-3554 3187 0
2435 -3634 0
-700 -3019 0
-490 -2897 0
331 -1250 0
2105 3411 0
-2823 1112 0
1065 -1728 0
3340 2250 0
544 1816 0
115 -672 0
-3018 -2226 0
-2713 -3600 0
940 1877 0
931 1838 0
501 -505 0
-1541 1568 0
-2987 587 0
1782 -134 0
3060 1395 0
-2766 2767 0
-1755 -908 0
-2496 1772 0
2826 865 0
1393 -1365 0
-3628 -2318 0
-1382 -3018 0
46 2698 0
3539 523 0
1241 3300 0
-744 1446 0
1704 -106 0
-1550 -2804 0
-2716 -1005 0
-3251 -1961 0
3383 1742 0
-1086 1115 0
1730 -2307 0
1559 3091 0
1033 -3046 0
2718 -1072 0
355 3063 0
-2661 -686 0
368 3406 0
-1498 -763 0
905 -1922 0
-725 698 0
171 2547 0
-591 -910 0
-3015 -427 0
253 -3198 0
-3619 3475 0
3425 -488 0
-3241 1411 0
1224 -715 0
-3468 -3034 0
-961 943 0
2381 3298 0
85 -3129 0
874 -2225 0
3465 882 0
2279 1026 0
816 2947 0
1482 -3318 0
-1195 -1488 0
-2888 -1712 0
-967 2265 0
1580 -3468 0
1669 2797 0
561 311 0
829 -2680 0
-1149 -1623 0
1742 3638 0
251 -3038 0
646 3516 0
2252 1227 0
1964 -817 0
2133 3516 0
1138 1122 0
3261 -2124 0
-1654 1329 0
976 -3328 0
-1635 3533 0
1752 -2367 0
39 -3612 0
-1632 -1950 0
1082 -717 0
-996 -766 0
814 691 0
-2808 -1947 0
-541 518 0
1494 1210 0
1308 -2969 0
-602 -1437 0
-950 -2218 0
1617 -1525 0
276 2908 0
2292 2699 0
3082 -195 0
3163 -1417 0
3503 -108 0
-2549 2203 0
3509 879 0
1110 -825 0
637 -2895 0
-2442 -1066 0
2939 1633 0
-2760 1909 0
3462 3176 0
1479 -857 0
3501 -381 0
-1027 -3145 0
265 -3651 0
2211 2765 0
-2988 -1114 0
-2197 1502 0
1270 -2775 0
-513 -3319 0
-1675 1824 0
1976 -2032 0
2105 3537 0
192 2244 0
621 -2094 0
-141 -1226 0
914 1260 0
2454 1837 0
2172 3366 0
823 -408 0
-1291 -865 0
-659 -1450 0
-1790 -2463 0
1531 -519 0
245 1514 0
50 -3077 0
3109 2987 0
-3158 3471 0
367 -2085 0
3410 -1057 0
-2028 3514 0
-3540 -1171 0
472 -3106 0
-2207 115 0
2269 731 0
810 3460 0
-883 2918 0
2381 -2674 0
-3094 2717 0
-723 3156 0
2359 -3601 0
-3621 -1176 0
474 -1452 0
-1165 -1448 0
768 282 0
-2688 -2390 0
985 -990 0
25 -1362 0
-205 -1209 0
1856 1930 0
1239 -1977 0
-1540 980 0
2313 -2915 0
-2496 -44 0
-3612 -525 0
2731 2712 0
-3239 -2478 0
505 1414 0
323 -3626 0
2842 1928 0
2963 375 0
-2869 -1241 0
3336 1131 0
-3172 865 0
1858 3573 0
1648 3111 0
-3170 -3462 0
118 -44 0
-840 -3068 0
-2919 3078 0
413 2453 0
2488 -1401 0
-2287 1677 0
2070 -161 0
2065 1832 0
1561 2392 0
2502 -3511 0
-249 1150 0
-2295 2043 0
2282 -2920 0
336 3353 0
-427 -3086 0
-2452 2857 0
1199 3126 0
-1284 69 0
281 -2393 0
1115 3051 0
336 2414 0
-2909 -1743 0
3517 -3258 0
975 1876 0
-29 356 0
-119 -1472 0
-1128 1271 0
2574 -2650 0
-3550 -2423 0
2564 -1922 0
-312 2212 0
1511 -998 0
-913 1440 0
3001 2244 0
-3277 907 0
-2930 2542 0
-1045 2368 0
3555 1765 0
2100 -2792 0
1652 -1453 0
-2771 1000 0
-1074 1819 0
-3554 -2368 0
3 -1383 0
238 1555 0
-2963 -3070 0
-342 3475 0
-2405 166 0
-36 -1187 0
3479 -3631 0
-1729 2451 0
-836 990 0
-1823 -825 0
282 1278 0
-3164 -634 0
2386 3224 0
575 -3350 0
989 -1524 0
-265 -3309 0
-1915 -2158 0
2597 -2644 0
2666 3239 0
-1583 -362 0
1318 -3600 0
3352 -1574 0
-2768 410 0
1863 -2249 0
-1321 -200 0
-2451 -98 0
-234 -1777 0
871 2902 0
-3396 -2335 0
2928 1903 0
1094 -3114 0
1952 2343 0
-505 -3473 0
2660 -3527 0
3326 -1647 0
1221 -903 0
-1235 11 0
3229 2623 0
2685 -2998 0
-645 -2184 0
773 96 0
-3216 -2686 0
-810 -8 0
-260 873 0
2798 -1430 0
35 306 0
-749 -3166 0
2389 -3460 0
3345 2988 0
-3094 -2888 0
2906 2987 0
3443 -785 0
525 -3457 0
-3567 -1269 0
-887 378 0
-145 -130 0
1817 1808 0
-1112 66 0
-3455 -521 0
904 1321 0
-2142 1208 0
1225 1742 0
1775 -945 0
-989 -51 0
-2465 -2673 0
3474 -1735 0
-2968 -1151 0
3293 3084 0
1852 2396 0
-3054 -1228 0
-993 2178 0
2064 2044 0
-2654 -1972 0
-1776 165 0
-3454 -3523 0
1271 1889 0
3595 970 0
-1215 709 0
-3432 3272 0
-3140 2383 0
655 2552 0
556 3643 0
-922 -497 0
-1876 -3195 0
2116 -3463 0
1485 2560 0
-365 -1644 0
3444 3537 0
24 -1265 0
-3055 2287 0
-2577 265 0
-2308 -231 0
-3609 2864 0
-132 -3614 0
477 2106 0
822 340 0
1697 -3471 0
767 1152 0
-2835 2236 0
515 129 0
1994 52 0
2974 579 0
-944 3507 0
-1187 -2907 0
2965 -3157 0
2727 -2716 0
1032 -210 0
1513 3136 0
-1138 -2786 0
-1583 2878 0
-3457 1414 0
-759 -2950 0
-2 -1105 0
2469 -1260 0
522 -1080 0
-3316 -1345 0
1891 3284 0
-1886 1129 0
1363 3097 0
-2986 -2130 0
-2651 2519 0
892 -1273 0
2396 -1728 0
3027 2945 0
-395 3594 0
-1052 -878 0
-425 -3103 0
825 -1819 0
1649 -3555 0
355 2259 0
-1605 2428 0
-2846 2715 0
1009 -1899 0
-1496 2348 0
1867 -3282 0
-2603 1326 0
-399 -620 0
1502 -3112 0
-3302 -2831 0
-191 -1766 0
-1704 -1355 0
2538 -2040 0
3414 1607 0
2329 644 0
-2970 1361 0
2022 734 0
-2401 -1021 0
314 -2303 0
3109 -706 0
3473 2698 0
1249 1558 0
-1734 -896 0
-3015 676 0
780 -2949 0
132 -2513 0
-2860 -2893 0
-2781 -2630 0
1196 -2112 0
-445 -689 0
2724 3514 0
734 -459 0
-3132 2299 0
1459 -525 0
2823 -3236 0
-3110 3597 0
1281 -3290 0
1276 1655 0
1038 2865 0
-2606 -2960 0
2293 -496 0
-361 2092 0
3296 -2325 0
715 -3341 0
1372 -1571 0
2666 772 0
1486 1267 0
2835 -2218 0
-2858 1649 0
3107 -2365 0
753 -2 0
637 -2713 0
-1564 3290 0
-2716 770 0
-2733 502 0
-2634 498 0
3210 1377 0
2766 -732 0
-364 -508 0
-1369 -3393 0
3211 -2450 0
1295 -790 0
-744 3597 0
3086 -1961 0
-228 -528 0
-1105 1318 0
314 2149 0
270 -2957 0
-2495 2112 0
-1362 3340 0
-3008 2626 0
2658 -2195 0
3185 1320 0
2450 -2812 0
631 172 0
-3385 808 0
1470 1424 0
-580 3337 0
-1040 -1640 0
2084 1615 0
-510 2433 0
2688 -1491 0
-3370 -1688 0
3336 393 0
3079 2222 0
-358 3174 0
2162 1928 0
-1813 1134 0
-2262 -3415 0
2232 1580 0
2062 -260 0
2611 1883 0
-251 -1963 0
-3418 83 0
1886 357 0
1307 1013 0
1636 -1229 0
3413 2605 0
-3273 -1656 0
-2915 -2486 0
2982 474 0
996 3142 0
1983 617 0
-2724 -2177 0
933 2823 0
-2452 -1688 0
450 1833 0
-675 -3331 0
-953 -3420 0
1146 -183 0
56 1232 0
2473 -2560 0
-1366 2135 0
-1163 138 0
-3126 -2312 0
229 -2670 0
-2411 2568 0
-2460 -1570 0
1457 -2356 0
-162 -1812 0
311 -3559 0
205 985 0
1415 140 0
1063 2304 0
1255 575 0
-2822 -3103 0
-1165 -2450 0
2821 -1315 0
-292 -2259 0
965 2093 0
-2880 -2505 0
1522 2257 0
-3547 2714 0
-2789 901 0
3449 -1139 0
15 -3122 0
-2157 -2230 0
3493 578 0
1482 1839 0
-1957 -1529 0
673 1737 0
1546 2080 0
-2785 -534 0
-79 3196 0
3117 -834 0
437 1944 0
-3507 1097 0
3096 1894 0
-2519 1821 0
-665 -3619 0
1694 -2723 0
1626 1908 0
-1285 1129 0
84 243 0
-3282 -2639 0
115 2683 0
1184 122 0
3032 -1913 0
-3547 -3172 0
597 287 0
-1267 -3060 0
-878 -373 0
-2186 3652 0
2735 2205 0
1902 1385 0
-2218 -1765 0
-2578 -3497 0
-805 1561 0
-1569 -361 0
3169 1996 0
3163 -2563 0
-1954 1643 0
2940 510 0
3614 -723 0
1809 1195 0
2791 376 0
-3270 1295 0
-67 1111 0
3524 82 0
3409 178 0
-888 -2899 0
-718 -403 0
-2037 910 0
-3343 1650 0
2711 2685 0
2301 -2907 0
460 -371 0
2739 -2853 0
-3632 -2411 0
-2877 2537 0
2941 -2445 0
2976 -1401 0
-2318 -1325 0
2589 333 0
-3143 -314 0
-1233 1193 0
556 -3521 0
-1823 -711 0
-2172 303 0
1410 1934 0
1856 -820 0
1839 -705 0
-2998 3531 0
-2104 834 0
-3317 264 0
913 -2572 0
-2867 -158 0
-1072 1753 0
422 3119 0
339 1745 0
808 -3270 0
-1668 -2876 0
2712 -1745 0
1489 1326 0
-1216 1440 0
-3393 3045 0
-1929 -2943 0
-3640 2633 0
-1812 3078 0
2960 1587 0
-1963 -941 0
-1764 -2780 0
2460 -144 0
-3 2016 0
1671 -3564 0
1260 2957 0
444 3438 0
-3214 -3307 0
-114 1154 0
-2654 1925 0
701 -1955 0
-2749 346 0
-3323 167 0
-2652 1834 0
2347 957 0
1796 -1681 0
-3483 2305 0
-1493 3441 0
2805 -305 0
-2147 -1646 0
-3170 411 0
1435 -749 0
1314 601 0
-3329 -552 0
2203 3033 0
1675 -1591 0
575 -1295 0
378 -240 0
-733 -999 0
2344 2209 0
-1424 -3623 0
-560 3520 0
3042 1078 0
-2993 -3524 0
2337 3140 0
1485 -364 0
2286 2583 0
3301 1218 0
1978 -1385 0
-1923 1297 0
-3120 -2476 0
-1216 -912 0
-1815 2688 0
598 -1901 0
-1385 2592 0
-1164 3622 0
2201 169 0
-2196 -483 0
-2509 -76 0
-3275 -1311 0
-1965 -2787 0
-2961 -2601 0
-133 1150 0
-920 118 0
-207 2874 0
3102 1580 0
-909 1233 0
-2122 2248 0
-1731 1494 0
-307 -1019 0
2988 2933 0
-1247 516 0
3404 -6 0
-3126 -1791 0
-1658 -2650 0
-1509 874 0
-2 -174 0
166 3511 0
2248 2954 0
1199 -944 0
-1247 2403 0
-1564 363 0
417 2646 0
1261 -3174 0
-3525 -1750 0
-804 1256 0
-2253 1161 0
-824 2760 0
2167 1676 0
247 -1501 0
2528 -131 0
-1069 -1867 0
166 -1559 0
-2260 -3165 0
1229 -3218 0
-1766 105 0
2172 1315 0
-3582 -2556 0
3602 -1855 0
267 -1051 0
-3512 1336 0
-3451 1956 0
-1818 -1686 0
3051 1519 0
-3548 1458 0
973 -2559 0
-1499 -26 0
-1578 -1355 0
-1490 1892 0
-1817 2875 0
1220 1941 0
-1698 -2856 0
-1899 3068 0
-1912 -3105 0
-1262 -2376 0
-1936 3012 0
-580 -3055 0
1645 -218 0
-2084 1501 0
1316 -312 0
-1770 3059 0
2785 2527 0
-1739 -2560 0
-1376 1403 0
-354 -3393 0
-1066 827 0
88 3235 0
-1777 -171 0
2937 -2508 0
-819 -1418 0
-3401 2100 0
-558 -1717 0
-85 -34 0
-781 423 0
2411 3539 0
2586 2128 0
-3061 2239 0
733 -1337 0
-777 2850 0
-3651 -2608 0
-1481 3219 0
871 1413 0
-3302 -1908 0
-3102 -818 0
-968 -2456 0
3014 -701 0
3510 -1635 0
2791 1742 0
-3231 -2390 0
-3363 -1468 0
-3491 1206 0
-446 3430 0
158 -2578 0
-3522 -3194 0
-2214 3474 0
1231 1772 0
-171 -2716 0
1725 -1409 0
-3194 3064 0
2797 -771 0
3591 694 0
750 -2946 0
-1660 1983 0
3343 -2686 0
-116 -2220 0
470 -3615 0
-3012 -606 0
2381 947 0
2866 308 0
-518 438 0
-3548 -784 0
-2023 -421 0
3579 -654 0
703 2612 0
-3423 -242 0
-291 -1748 0
2677 -602 0
-1544 -2610 0
-717 3159 0
2143 2873 0
812 -2057 0
-754 -2785 0
-927 2369 0
459 -3394 0
-2472 -3016 0
453 3652 0
-3433 290 0
2606 -700 0
1707 -1143 0
245 264 0
-22 1101 0
-256 -2858 0
2599 -1740 0
2492 -2157 0
-2861 -640 0
1344 -834 0
-1941 2935 0
-3607 -435 0
3498 -2466 0
1296 1030 0
121 -1323 0
3075 1637 0
441 -3441 0
1587 -2244 0
1998 -818 0
1213 -3377 0
1172 2922 0
2209 -2544 0
243 1522 0
-1903 -1367 0
3462 2637 0
-1378 -1528 0
-3423 551 0
-1038 -165 0
-1652 63 0
-1869 -3087 0
-34 -2765 0
2979 -1332 0
-3561 2855 0
2525 -3082 0
2480 -865 0
-54 889 0
1558 2304 0
-3423 2979 0
-3557 1938 0
1919 -3173 0
449 -3571 0
-1013 -1041 0
1953 299 0
2184 -825 0
1508 -2370 0
-1464 -1265 0
-2821 2225 0
376 3463 0
-1294 2054 0
3592 1298 0
-92 3253 0
-433 -211 0
1330 1587 0
1862 -1735 0
1480 -2559 0
352 -1781 0
3037 -2660 0
1084 1164 0
354 62 0
2903 2111 0
538 235 0
282 -3563 0
-51 3393 0
-1348 -3136 0
3517 1384 0
-3126 2930 0
-698 -2862 0
3084 -1375 0
1753 833 0
-583 -1819 0
2950 3285 0
527 1669 0
-447 -2190 0
-2311 2363 0
-1735 1185 0
-2573 535 0
-239 -1247 0
2186 -3635 0
914 1849 0
-792 345 0
-433 -331 0
-2510 -2361 0
3133 -813 0
264 2348 0
3135 -1041 0
835 -2059 0
201 -2872 0
416 1317 0
2255 -2133 0
-3584 -382 0
1039 -332 0
1937 709 0
2178 1260 0
-3398 2086 0
1020 2377 0
2482 -1903 0
1091 3288 0
-1147 755 0
1508 1635 0
2590 1176 0
3388 -400 0
-2690 2599 0
269 102 0
-875 -461 0
1645 1827 0
2914 1441 0
282 2246 0
822 -195 0
247 -3308 0
2510 -1437 0
790 -1290 0
1324 -2218 0
258 -1397 0
-2865 -751 0
2769 3096 0
-3217 2398 0
-1467 1554 0
2321 -1533 0
-3435 1171 0
-696 -2718 0
1611 904 0
-2160 -1765 0
3233 -38 0
-2608 -2734 0
-2268 -2654 0
2531 463 0
2482 1312 0
1561 -2847 0
-62 -1834 0
-458 -1372 0
540 3139 0
-2646 1095 0
-1027 -2179 0
-434 -2254 0
-2520 -695 0
1807 2008 0
-510 -1201 0
-2033 -1462 0
2347 3504 0
-2320 -1279 0
2474 -1645 0
-3436 944 0
568 -2493 0
-3252 -3441 0
426 -2671 0
593 2859 0
-194 -3455 0
-1042 2302 0
-1372 583 0
-2271 212 0
-2811 -276 0
128 1396 0
3272 -2237 0
-2037 -644 0
-1056 3418 0
-111 2212 0
78 -493 0
2870 2471 0
1435 -121 0
520 2290 0
2989 2121 0
1751 -1849 0
2695 -374 0
-3514 2987 0
-3335 3130 0
-1325 2817 0
-1997 3094 0
1317 -1566 0
1525 -2683 0
2901 1137 0
335 61 0
3447 144 0
480 -2513 0
-145 -1748 0
3037 1913 0
-897 -799 0
-1297 2992 0
-1712 2694 0
-2805 947 0
772 487 0
-1835 -592 0
2322 1675 0
1081 1828 0
-324 1434 0
-1344 -241 0
1987 -3246 0
-3567 -1114 0
-491 -671 0
-1860 -257 0
-975 3452 0
31 -1981 0
1328 -3423 0
679 32 0
1909 -1898 0
1086 -1188 0
1660 3276 0
1600 -2909 0
-2667 -3524 0
1263 1517 0
517 -1593 0
1305 -1226 0
-41 782 0
-507 -1748 0
3175 -441 0
1711 1694 0
999 3099 0
3255 -805 0
2536 1076 0
1236 -1656 0
1754 -946 0
-162 -2759 0
-2305 -3147 0
383 -2230 0
440 22 0
2001 -2904 0
2499 1365 0
-19 1557 0
-968 2364 0
201 -1815 0
189 772 0
2397 1663 0
3479 -3386 0
-1466 -2716 0
3060 -883 0
2794 -1192 0
-2041 3293 0
1235 1432 0
-1296 2987 0
1806 2641 0
535 666 0
-1777 1896 0
2187 2520 0
-2342 3338 0
882 152 0
-602 3032 0
544 3485 0
2709 -3364 0
1712 -1119 0
101 524 0
-2354 3217 0
3200 -33 0
-1284 2122 0
-2142 -1348 0
-1757 1396 0
2824 -790 0
1308 -418 0
1255 3043 0
2910 -3277 0
-2166 -3278 0
-2445 -1386 0
-2696 2965 0
-3607 -202 0
-2738 1318 0
2445 294 0
-472 3312 0
-2204 -2947 0
-2744 1580 0
-1394 -1097 0
814 -2352 0
-561 3400 0
1461 3057 0
-1056 359 0
1432 433 0
-4 577 0
-613 -198 0
366 -1753 0
-1820 470 0
1461 -2955 0
1986 2251 0
-1356 -117 0
-3567 1956 0
834 -1913 0
-2044 -1633 0
-3598 714 0
-2280 678 0
-3267 -434 0
1618 3398 0
73 -2538 0
1117 2499 0
1824 -1289 0
-359 -1087 0
170 -1463 0
-305 1099 0
1238 -524 0
1180 -28 0
2182 3618 0
1225 1808 0
-2834 -949 0
-1572 28 0
-2017 -832 0
3027 378 0
3432 1329 0
3048 -713 0
-680 -2825 0
1024 2069 0
-1728 -3268 0
-2009 366 0
2620 -1220 0
-2481 -2384 0
-2676 3528 0
-777 -1115 0
2353 -3421 0
-1073 2878 0
2228 -496 0
-382 -674 0
-1689 -702 0
-1242 1192 0
-754 3024 0
1335 -2377 0
1770 58 0
-1349 1003 0
-2493 -2576 0
3259 2698 0
-3230 -945 0
2285 -2535 0
711 1901 0
1876 -2389 0
3255 -2361 0
-941 -2304 0
1410 1451 0
214 1277 0
3047 -959 0
-3093 1482 0
-68 -997 0
-3277 -2797 0
1844 -3633 0
-217 317 0
1627 3226 0
288 -2894 0
-11 -96 0
-607 2140 0
2999 -944 0
-915 1138 0
471 634 0
916 318 0
3398 -2449 0
-3136 -1265 0
1976 -2311 0
-1841 -3319 0
3586 -245 0
-3571 180 0
-1358 -1647 0
2292 -2288 0
-1034 1668 0
-2843 2597 0
-832 -2083 0
2039 2024 0
3449 456 0
2510 -1598 0
2627 -543 0
3338 945 0
-3277 -1410 0
2429 -2655 0
-262 -339 0
3010 -1580 0
-1485 -1658 0
-2253 1543 0
2959 2885 0
2830 733 0
1791 1239 0
-1180 -213 0
-2958 2767 0
-1269 1893 0
223 -537 0
379 3198 0
-2529 -1413 0
1894 2944 0
2240 -951 0
2364 -916 0
1651 384 0
117 160 0
1009 650 0
-1074 -2732 0
-2873 3505 0
1941 -1287 0
760 -1609 0
827 1937 0
-3131 -2792 0
-1279 -798 0
973 -3500 0
2443 -2909 0
-407 -789 0
-2701 -1614 0
-1589 762 0
-3256 -237 0
1904 793 0
923 1874 0
152 2988 0
-3206 3099 0
2682 760 0
1050 1558 0
3160 -2526 0
2203 1270 0
2063 -3434 0
3461 -2575 0
-2956 3411 0
-111 897 0
1166 43 0
-1186 -1206 0
-103 1037 0
-2756 -647 0
1602 1114 0
2996 -2723 0
-641 -3322 0
-2980 -957 0
-2981 1312 0
-1161 1015 0
392 267 0
-2595 -700 0
976 30 0
666 -3607 0
160 -2584 0
-2234 1337 0
1277 -2486 0
-3257 879 0
3447 2798 0
-2343 -2763 0
2249 -2430 0
-2450 -1431 0
969 -2167 0
-3238 3044 0
2820 2389 0
1006 -3302 0
1317 -438 0
-1622 3477 0
-2182 804 0
3127 -1582 0
1897 -561 0
-620 -2887 0
-1550 -1540 0
-3600 2007 0
2346 2804 0
40 2364 0
3298 -2110 0
387 3398 0
-3049 313 0
1337 -864 0
-3209 -389 0
1387 2438 0
-2782 -3089 0
576 -2780 0
3044 1514 0
323 -2459 0
-1719 823 0
-186 -1731 0
-2200 1455 0
-2672 -2534 0
3027 2249 0
-2754 -2271 0
3238 -3416 0
-1700 2339 0
2102 -1395 0
1652 -1833 0
2176 -591 0
1058 1588 0
-468 -2766 0
-1913 1865 0
3622 3319 0
3238 705 0
1210 -2638 0
1037 256 0
1089 2678 0
2860 625 0
-459 618 0
2526 2422 0
2978 -886 0
-320 -260 0
-1164 1806 0
2897 1350 0
3389 -1488 0
-1641 -962 0
170 3516 0
-56 3020 0
863 1385 0
132 -3501 0
-1720 -2534 0
-1374 950 0
462 -149 0
2271 21 0
-409 -3387 0
-834 2696 0
-3206 203 0
-3104 2065 0
3060 -1599 0
1384 -2846 0
-2069 2215 0
-1265 3522 0
-2154 580 0
-2334 -1362 0
-1547 -1563 0
-3367 -1133 0
-1488 -3350 0
2692 2052 0
-2166 -2884 0
2201 2465 0
-1372 -1659 0
1652 -3000 0
-990 -2578 0
2081 -256 0
1669 -940 0
1304 2696 0
-3117 -3041 0
-2291 566 0
3634 -2571 0
2089 2491 0
295 3473 0
2878 -1656 0
2787 -4 0
-573 2865 0
-1452 -120 0
-2401 3272 0
2455 -607 0
88 2769 0
1892 1657 0
-367 -802 0
-2237 989 0
1403 484 0
3272 869 0
-281 3114 0
566 831 0
-2575 1043 0
-2185 -1194 0
-1039 143 0
2937 -1347 0
-913 -44 0
2500 2679 0
-1050 3066 0
-583 -3209 0
-1663 3439 0
2760 407 0
-2944 -2259 0
512 -3231 0
-1397 -377 0
-3006 522 0
-941 -2793 0
-878 -959 0
1584 -1946 0
-1258 -1594 0
-202 -1905 0
1108 -1064 0
1649 86 0
1158 2319 0
-1968 -1038 0
2095 -1544 0
-1879 3574 0
-2745 2053 0
-189 1953 0
-2191 -123 0
2152 -1942 0
-3015 -1773 0
2170 -1122 0
797 1791 0
382 730 0
175 3474 0
2961 3597 0
3529 3124 0
2499 -2843 0
1241 -401 0
3038 -1344 0
-201 3072 0
2575 -1959 0
1683 3085 0
-1571 -1794 0
2616 -2049 0
2720 -340 0
1431 -1835 0
3300 3560 0
-322 1724 0
2936 1411 0
3328 238 0
-998 -1326 0
-1496 -2576 0
2005 3358 0
-2670 898 0
-3442 -1666 0
2469 -2159 0
2012 -3600 0
-3065 829 0
-3145 2891 0
865 -556 0
-1379 -1784 0
1062 -203 0
-2610 3221 0
937 3071 0
-2391 -2817 0
-3045 -2993 0
899 -1789 0
3498 234 0
473 -1886 0
2222 3071 0
1522 1873 0
2615 -2284 0
1783 -155 0
-468 1791 0
1576 3529 0
-3341 3152 0
-3390 -2265 0
3565 -1161 0
3604 -3609 0
-2763 156 0
2469 3433 0
1192 -953 0
-2750 651 0
-442 -740 0
2714 2930 0
-3020 -832 0
3257 849 0
1441 -603 0
-1333 3381 0
-2395 -249 0
899 3503 0
2097 181 0
-3094 -781 0
-784 -3634 0
-27 2429 0
-3367 -3170 0
-1982 1420 0
2878 911 0
-1292 1761 0
2882 410 0
3451 2541 0
-3423 -2157 0
-1001 2669 0
78 -3276 0
-2398 1266 0
2063 -1709 0
-359 -3232 0
-1565 352 0
3233 3643 0
-3372 -3171 0
-1441 -2275 0
-2526 2435 0
-1615 -1144 0
2532 -1114 0
935 910 0
659 432 0
666 -196 0
3389 -2213 0
-2159 -1471 0
3132 3321 0
-1622 3544 0
-3110 -3417 0
3021 2649 0
2624 1520 0
-623 3375 0
-598 1403 0
811 3578 0
-1148 2612 0
-2502 2364 0
-1168 3439 0
1520 329 0
-3137 -3099 0
588 -2280 0
575 -1103 0
2054 643 0
-3620 -1806 0
-607 3453 0
2584 -3297 0
-298 1166 0
-2119 3182 0
-2288 -2981 0
-2936 611 0
-778 -2570 0
-1068 2492 0
141 1121 0
-3322 -3406 0
1722 -2125 0
-3642 3304 0
483 -2086 0
-2294 13 0
544 -1970 0
-368 -920 0
-3161 -3417 0
2316 -3588 0
3518 -1499 0
1382 1880 0
-1053 -3558 0
-3209 1968 0
-847 -1635 0
196 -1900 0
3624 2648 0
1673 1859 0
-168 229 0
1434 -685 0
-677 78 0
-768 2405 0
-786 -2869 0
1700 -2968 0
221 772 0
-1353 -2608 0
3269 -67 0
-2841 -81 0
-43 473 0
-1267 -1952 0
-101 2933 0
-1283 -589 0
-3615 -3334 0
494 2731 0
-992 2917 0
-221 1338 0
92 -1646 0
-742 -2880 0
-1373 -1754 0
-1785 1430 0
-3086 -1002 0
-2532 -2564 0
-2947 197 0
-1431 -1732 0
1289 -3442 0
353 280 0
-762 1651 0
748 1458 0
-2183 1593 0
2645 -2159 0
3305 2199 0
-1014 -1397 0
2682 2903 0
-58 -630 0
3338 3146 0
3253 -3196 0
95 -1622 0
-1983 3074 0
-181 1687 0
-2884 -1842 0
-2142 -1109 0
2064 489 0
-3269 -26 0
-655 -3181 0
-1381 -1860 0
1943 77 0
-1851 244 0
2615 -2521 0
-1908 -1950 0
164 -3374 0
-278 -1979 0
1782 -1539 0
-1916 2194 0
3505 537 0
125 1077 0
-3433 1043 0
-1658 -2899 0
-3377 -3528 0
-155 1566 0
-459 -3260 0
-2378 1506 0
995 1401 0
3199 -1397 0
-2108 -1740 0
2890 -1161 0
142 -1058 0
2269 -3135 0
3325 -320 0
-2809 -2213 0
-3444 2747 0
-2464 1006 0
-2336 -1542 0
456 -294 0
-1598 808 0
-218 -1789 0
1871 514 0
-2863 1141 0
-1797 -3377 0
-3027 2840 0
-1915 274 0
2392 699 0
-203 2598 0
3284 1338 0
-1395 -259 0
3230 -1792 0
1312 664 0
3515 -671 0
-3016 -908 0
2174 -653 0
3380 -1212 0
-2540 -2559 0
1002 881 0
-1218 2874 0
-255 -549 0
3197 -1039 0
-3387 1429 0
-3442 254 0
615 -2439 0
-1614 -1335 0
3084 -2705 0
2417 3350 0
-2356 365 0
-2155 -2476 0
-492 -97 0
584 2689 0
443 3020 0
-3563 1579 0
-1620 -3165 0
-1355 -1556 0
-3284 -1710 0
-3274 -1302 0
-1556 -1705 0
3513 -433 0
877 2219 0
-7 1964 0
333 -3555 0
1308 -812 0
-628 1771 0
-3056 2284 0
-1793 2243 0
2242 -1399 0
2045 -751 0
-3278 1283 0
-1870 -2609 0
3407 -3222 0
1151 1217 0
-1529 -3640 0
1822 -1017 0
-645 3394 0
-3166 -3246 0
1071 -89 0
1862 -28 0
806 -352 0
1186 -3363 0
1081 278 0
2078 -2100 0
-1731 805 0
2908 567 0
815 1797 0
1376 227 0
-3435 -893 0
-1273 -3217 0
-3049 -1537 0
746 2362 0
2983 2719 0
-2029 886 0
942 3002 0
-1112 -2846 0
2475 -1913 0
-1200 1911 0
806 -910 0
-350 552 0
956 -3103 0
-1775 -2005 0
1855 -977 0
-2214 -1301 0
-2197 2680 0
2162 2886 0
-1201 1478 0
2166 790 0
-2154 1044 0
-1749 -1047 0
2109 2987 0
-2432 -2786 0
3211 -1868 0
-2733 3065 0
3230 2018 0
2613 47 0
690 -3081 0
-1539 -2451 0
-2036 -1756 0
-1862 1897 0
-2058 755 0
2488 -421 0
2079 -768 0
2709 -1762 0
2830 -961 0
1132 -3557 0
-1364 -889 0
-2062 1806 0
822 -1466 0
465 -241 0
-791 -3249 0
1613 -205 0
-1755 -2837 0
80 3011 0
-159 1481 0
2757 -2049 0
3356 3187 0
-2985 -878 0
-1326 -3546 0
3518 -3052 0
-773 1058 0
526 -1402 0
-3143 -3385 0
-1413 -430 0
-3183 3502 0
-3390 1195 0
-764 -461 0
-895 -2780 0
3516 -848 0
2888 -2868 0
43 -3110 0
-372 575 0
2792 -1161 0
-2097 -1995 0
-2570 1209 0
-285 -394 0
-2556 2693 0
-1025 2086 0
-1493 -362 0
2938 -549 0
-2477 -2494 0
2782 2678 0
-3103 -2987 0
-2684 1324 0
2317 1832 0
2309 -1797 0
2201 -1138 0
1314 -1176 0
924 3017 0
1164 -2123 0
-755 1760 0
3052 1926 0
-365 951 0
-792 -3643 0
814 1025 0
-3221 -1147 0
482 -79 0
-3255 -3209 0
1500 1902 0
-610 -2177 0
-488 -2952 0
2820 -2249 0
612 -3301 0
-1319 1086 0
2444 9 0
1482 -376 0
1802 -627 0
-3403 -1805 0
841 1849 0
567 2722 0
-2118 -3341 0
-742 494 0
298 1654 0
3020 1268 0
1329 3121 0
-3436 -244 0
-1816 -126 0
-854 3387 0
1109 1252 0
-1297 -2616 0
-489 -1372 0
102 -1810 0
-1351 -191 0
-425 666 0
3531 -110 0
999 824 0
2350 2995 0
1111 2998 0
-2377 1665 0
-2535 -2737 0
3426 -1511 0
-3317 2935 0
2338 2741 0
450 -24 0
-550 -3255 0
-1882 3450 0
-681 2525 0
-771 -1331 0
-1837 -2005 0
-209 2537 0
526 2444 0
-1994 267 0
-516 2704 0
-3625 -2984 0
1379 318 0
-1229 497 0
658 3405 0
2222 1289 0
3380 -205 0
3420 -873 0
-1393 -1786 0
-689 466 0
-1116 2297 0
1630 366 0
-439 3419 0
2149 -2159 0
43 -729 0
323 2938 0
-187 26 0
2310 1909 0
-1953 2987 0
-816 -2691 0
1325 -1373 0
-3026 -3109 0
-897 3304 0
3537 3443 0
-3291 3183 0
211 -614 0
-539 3333 0
2231 -952 0
-1103 -2673 0
-2000 1005 0
1166 -1960 0
-1853 -2309 0
-3497 2486 0
-2265 -1497 0
2178 2370 0
2733 -126 0
1075 2856 0
1541 2095 0
2559 2078 0
-1570 -1538 0
-2600 3550 0
3197 -2033 0
1432 -3449 0
2864 -1781 0
768 -2015 0
-3209 3524 0
1951 87 0
-2668 2064 0
-573 2290 0
138 -3017 0
2170 2827 0
3482 530 0
-1678 2966 0
1613 1730 0
-269 -1645 0
-1433 100 0
-3247 1857 0
-2260 155 0
-2237 -276 0
-826 2755 0
824 -3650 0
1816 1657 0
3638 1283 0
-760 498 0
-1905 -3261 0
-545 2447 0
-3176 -2136 0
1125 -3148 0
-749 839 0
1097 619 0
-505 2940 0
-717 -1530 0
-2083 -1690 0
-1933 2488 0
1667 3060 0
-3311 -2374 0
3296 2377 0
-714 2622 0
3362 -3304 0
619 3484 0
-1150 1859 0
3180 2776 0
2459 -1699 0
1907 2483 0
-2609 -1384 0
-101 733 0
-513 3154 0
1734 2363 0
2996 3100 0
1683 3037 0
-261 -3411 0
-435 -2696 0
-22 2092 0
-1385 862 0
410 1393 0
904 -900 0
-3180 -59 0
-1610 -171 0
3463 -1097 0
-2478 3641 0
-3364 -1367 0
-1173 3454 0
-1551 -3293 0
-526 2709 0
-1260 1378 0
1815 -3031 0
772 -724 0
-607 936 0
-3623 1514 0
1975 -2250 0
1359 -693 0
2045 -640 0
-3104 -674 0
3234 -2341 0
2364 -1280 0
-1823 2117 0
-265 2937 0
-1384 -3063 0
-1747 -1426 0
-807 3422 0
-298 2135 0
-3609 -945 0
3496 2989 0
-102 391 0
536 -2396 0
2571 3064 0
-2028 1110 0
-3096 1782 0
-1665 2999 0
2293 2124 0
-3150 -88 0
-2754 871 0
2427 2149 0
-7 1128 0
1921 3445 0
676 208 0
536 -1397 0
2008 -1384 0
-563 1007 0
-34 3641 0
-3599 1196 0
1626 -284 0
-2370 2753 0
1427 -1232 0
1141 1266 0
1007 -2720 0
2212 -1672 0
-1358 -2857 0
2255 -918 0
2627 -2310 0
-618 -34 0
978 -223 0
-338 -1430 0
3573 -1970 0
506 -3288 0
-3340 642 0
2832 2978 0
-1226 -1409 0
-3145 -1456 0
-2745 255 0
-1162 -1447 0
-348 -977 0
3187 1787 0
-459 3256 0
813 -133 0
2220 1516 0
766 1375 0
-2067 781 0
-3296 1853 0
-2346 -862 0
1145 1742 0
2105 2008 0
-1072 -1550 0
-474 -414 0
61 -1646 0
2990 -156 0
81 -1456 0
-731 -3009 0
-1763 2677 0
-1049 2089 0
-3045 -1208 0
-714 -251 0
1405 -823 0
30 -1398 0
-2400 -2604 0
1386 -24 0
1985 -2083 0
2494 1342 0
-175 -505 0
-22 1701 0
390 2352 0
-1102 2443 0
1286 -1819 0
954 2956 0
-1226 1185 0
-1492 3131 0
-3000 -3429 0
-918 -181 0
3154 919 0
1886 1990 0
3153 -2284 0
1606 -3252 0
-1437 -3353 0
907 2609 0
3357 2157 0
1016 1110 0
1334 3090 0
-3428 -1574 0
2343 -880 0
2739 2996 0
3048 891 0
1695 466 0
-302 2547 0
-2444 -159 0
-2130 1305 0
-2884 -3640 0
3445 3259 0
3391 1860 0
-2089 -919 0
560 -2244 0
-2191 -868 0
-3372 -534 0
-2494 1636 0
2208 -77 0
3087 -434 0
-1452 334 0
2235 -1133 0
-2330 1839 0
2532 2185 0
1099 -2943 0
-3074 -2883 0
498 -202 0
2388 2670 0
1317 -1816 0
-1131 -2604 0
847 2201 0
1876 3340 0
2314 2888 0
1112 948 0
685 2039 0
637 -3564 0
-1658 749 0
160 2918 0
653 -1440 0
-1283 3413 0
-2907 -983 0
-1466 -2595 0
290 -194 0
3140 2781 0
3357 -3228 0
1141 1181 0
-3114 1227 0
752 -1607 0
968 912 0
-1122 -2122 0
-1960 1121 0
2431 -1001 0
-443 -3581 0
2120 -1730 0
2239 -2429 0
-2278 -2565 0
859 -2735 0
-1148 -2231 0
-3291 -1105 0
-445 1328 0
-411 -1854 0
3047 3068 0
599 2046 0
1142 -723 0
-959 -486 0
-967 -921 0
-1549 3347 0
-3200 2217 0
583 974 0
1927 -3522 0
-2411 2482 0
106 1594 0
1765 1377 0
-3432 1584 0
-1578 1495 0
-3644 314 0
-236 -1200 0
-1681 2873 0
3213 2544 0
1163 2714 0
2751 3503 0
-718 52 0
-720 2950 0
3200 -3043 0
-1496 127 0
2672 3021 0
-2061 -2513 0
3612 1601 0
-1228 741 0
-3246 -561 0
-3374 -2199 0
-3278 1739 0
-1410 -1634 0
858 564 0
-500 -3511 0
1668 1117 0
-88 -2150 0
2574 -2043 0
1298 -2777 0
-1124 1980 0
1071 1101 0
311 -172 0
2346 -2012 0
2731 3449 0
2602 -24 0
-604 141 0
3084 -1167 0
1630 -1013 0
-395 2211 0
2086 -42 0
-183 2908 0
838 1553 0
-963 914 0
-1715 2776 0
3043 2643 0
-3275 1062 0
-944 -1961 0
-427 1400 0
-1535 3351 0
-862 3145 0
1013 -377 0
-2501 729 0
-554 -3377 0
-435 508 0
2986 56 0
-1630 -3540 0
-1267 1596 0
1065 -2807 0
-2273 2712 0
1522 -621 0
1277 -1662 0
-2816 -2277 0
-1954 3351 0
3074 -1931 0
-2634 -1563 0
-3603 515 0
1665 -722 0
2337 -470 0
3234 2653 0
1219 -370 0
1752 2417 0
-460 2362 0
-1348 -992 0
889 -3258 0
108 -1689 0
1036 1265 0
1511 3562 0
1988 208 0
2591 1275 0
-673 -140 0
-2794 1095 0
469 -258 0
-3575 394 0
1296 -1075 0
-3106 -3311 0
915 -917 0
-2578 -17 0
-1138 2184 0
2183 465 0
-2783 -1636 0
3127 1745 0
1870 2561 0
-813 1023 0
3305 -2756 0
2008 3565 0
2240 1144 0
2661 1414 0
1759 -1912 0
1091 -1712 0
2917 171 0
2312 -358 0
-2958 3183 0
-1233 -21 0
-602 -1734 0
-2490 660 0
2561 -2000 0
-653 -754 0
-547 230 0
-2061 -3182 0
-2326 1097 0
1874 -1444 0
-1985 -890 0
-195 2034 0
3210 59 0
-1552 3471 0
155 1958 0
-3580 2263 0
1770 2457 0
-1464 -2981 0
1498 -1462 0
3637 -2114 0
797 2173 0
1598 774 0
33 -1957 0
-1555 3245 0
2111 3040 0
1057 1697 0
-161 -260 0
3253 -2662 0
-2186 -46 0
2718 3262 0
1507 -1905 0
-1260 323 0
-3341 -607 0
-3387 2328 0
-2196 -369 0
-762 -3006 0
-2486 -603 0
1500 358 0
-1515 -203 0
-136 -3601 0
-1008 1914 0
3372 3458 0
-223 -2053 0
869 3642 0
-3122 108 0
-1651 -1967 0
-430 2161 0
2250 -2507 0
-2997 2587 0
2047 -1383 0
-1119 10 0
-1529 3 0
-1409 -1783 0
-145 2966 0
-1466 -2815 0
-1759 3025 0
2908 -2857 0
-3553 838 0
613 2448 0
1016 -916 0
1741 2216 0
2420 1566 0
-73 2813 0
3588 2643 0
1960 3560 0
-3214 -1170 0
-266 3563 0
810 -3015 0
3452 626 0
-1074 -1911 0
2242 319 0
1714 -560 0
1469 -544 0
-1384 1222 0
2490 1107 0
-3451 -480 0
-944 303 0
-694 3193 0
3405 2129 0
3652 1871 0
-1543 -2122 0
-2061 -1229 0
3007 3344 0
-3454 -3584 0
3286 901 0
-1940 1328 0
-1347 -964 0
3362 2425 0
1970 -163 0
43 3617 0
3276 -2676 0
859 -3370 0
349 -591 0
3469 -1733 0
-153 -2640 0
865 -456 0
-3645 2938 0
-2628 2577 0
-713 3265 0
-2218 -3186 0
382 -1537 0
2461 -862 0
-2183 -422 0
-2898 -3085 0
1393 -1995 0
-1512 960 0
-260 -182 0
2095 1518 0
1780 -651 0
1407 -938 0
154 -2440 0
-1261 -2213 0
-787 -2751 0
2841 886 0
1849 -82 0
549 -1563 0
777 3233 0
2305 -1212 0
1826 -2571 0
-145 -993 0
-2912 -2069 0
-2118 -2031 0
3394 2078 0
70 1993 0
2530 -1432 0
-3031 2799 0
1944 465 0
-3121 -1687 0
-1333 2681 0
-2532 -521 0
-3457 3478 0
-2690 -1421 0
32 -1155 0
2874 145 0
973 1746 0
-56 -3455 0
-2690 -2965 0
2438 1739 0
-3112 -2588 0
816 -1367 0
1592 798 0
-3311 1062 0
833 2445 0
-2519 -891 0
2615 -1594 0
3398 2869 0
2350 23 0
5 -3116 0
-1903 -201 0
-1135 1983 0
-3016 -550 0
2627 814 0
2741 -2846 0
3072 1474 0
-2356 1009 0
-41 -3313 0
-3073 1260 0
2805 1095 0
2097 2212 0
1879 -2735 0
-592 858 0
3142 303 0
-1739 -79 0
1490 551 0
-3031 3109 0
-978 -1978 0
-1081 1361 0
-3592 875 0
3447 -890 0
-3381 1473 0
-3567 281 0
897 -977 0
1037 -3477 0
-1685 410 0
3072 -1401 0
135 3516 0
-2076 2446 0
679 -188 0
-2787 1828 0
-371 -2344 0
-745 2708 0
2021 -2825 0
-2967 -773 0
-2050 518 0
-42 -2242 0
-1623 -2318 0
1769 -1444 0
3073 -1757 0
3212 1387 0
201 -1057 0
2006 2862 0
-2499 1210 0
-1625 -2904 0
1650 -1182 0
3226 1863 0
-2119 1159 0
2525 -1015 0
70 -3277 0
-3609 -1940 0
3366 -2885 0
-485 -2996 0
-3181 1115 0
-2871 125 0
961 -27 0
-1352 2602 0
-2653 1791 0
-1913 -2541 0
465 -1076 0
-3214 -2561 0
-2856 -1802 0
-800 -767 0
3213 -2723 0
-725 507 0
164 3614 0
3602 3257 0
1551 -3216 0
404 1972 0
2224 -2456 0
-298 2645 0
1060 2495 0
1998 2332 0
-3243 820 0
2164 -105 0
3286 3444 0
-302 -2115 0
719 863 0
-1982 1693 0
-3295 3279 0
-3335 594 0
-2014 1602 0
1741 2902 0
-3100 -832 0
-1819 -1132 0
-1575 1525 0
-3367 1568 0
3257 1379 0
-85 -305 0
2010 1103 0
2615 -1489 0
-426 3234 0
-1030 1596 0
3115 1840 0
312 -1194 0
1277 2861 0
-1274 3261 0
1643 278 0
3086 -2975 0
1913 -981 0
-1941 1551 0
1576 2428 0
417 -2726 0
-15 1211 0
1693 -1488 0
-1973 -845 0
3157 -3022 0
-2252 2129 0
794 -1848 0
-1639 1482 0
3195 319 0
3370 969 0
1901 2593 0
491 2063 0
-1377 1833 0
3253 2359 0
3024 2447 0
2459 -3437 0
582 -2494 0
1738 264 0
3623 -2109 0
-1955 1892 0
586 2510 0
2217 -2191 0
2166 -2551 0
2392 -1014 0
362 2798 0
-3041 1810 0
-3091 2751 0
2324 2493 0
410 -2939 0
-245 718 0
-449 3483 0
2782 -740 0
43 -2844 0
-2138 -1713 0
-1581 -2301 0
-2050 -2635 0
2146 1728 0
1000 909 0
2961 -3121 0
1025 2472 0
-453 1961 0
2170 437 0
3328 458 0
2829 -147 0
-2692 1509 0
-1496 -1258 0
-1794 -2088 0
2082 2549 0
2296 2608 0
62 185 0
-766 1906 0
-2164 -1946 0
2009 -2057 0
3127 2789 0
1031 -3075 0
3427 -1074 0
2691 -2431 0
2211 -3579 0
-3117 -1813 0
1637 -3541 0
3513 -2307 0
526 300 0
-2088 -365 0
-2196 -3188 0
2773 -2749 0
1170 3235 0
1257 2950 0
-741 -2133 0
-2260 2603 0
1051 3485 0
-2741 1864 0
-2716 -1339 0
1351 -700 0
-1718 -845 0
1775 858 0
-911 -435 0
608 -1680 0
-2941 438 0
2985 32 0
-83 -1868 0
-2306 2282 0
-3132 -3572 0
3187 2949 0
936 1159 0
814 2832 0
323 3553 0
-227 -747 0
2263 135 0
-209 -3523 0
23 3379 0
-1179 2434 0
-1741 3409 0
1744 -3143 0
2595 -443 0
1965 2423 0
-126 -2727 0
1353 -1721 0
-595 3050 0
2576 -269 0
-2379 -2320 0
333 -1135 0
3180 3213 0
2556 -1993 0
-3396 3001 0
992 1100 0
-996 1275 0
-3211 3228 0
-1261 -2887 0
924 -1602 0
1110 -205 0
-2934 -1249 0
865 -1264 0
927 -3630 0
-3106 -957 0
-3588 852 0
3428 -2613 0
30 -1954 0
2064 3465 0
-3624 3462 0
-3625 226 0
-1362 -2357 0
2382 3119 0
-1449 326 0
3614 611 0
2833 -3482 0
3607 2761 0
-3235 586 0
-749 -129 0
-2321 -3122 0
2803 -2072 0
2011 1416 0
851 -1389 0
3233 -1063 0
-2770 1592 0
-714 -749 0
2499 2828 0
-1570 354 0
-1285 -1939 0
-2543 2977 0
121 158 0
566 -1505 0
-2476 3606 0
-953 -232 0
-1716 -53 0
-1920 -1951 0
-2002 -2807 0
-3173 2374 0
-1982 1161 0
2502 1016 0
-1748 -2874 0
-3331 1765 0
335 3111 0
-1221 1127 0
-247 2523 0
-3376 -3161 0
-2106 -2265 0
2983 1816 0
-2044 3482 0
-2898 1833 0
1246 3303 0
2483 1328 0
843 1077 0
-1902 -651 0
-1899 3107 0
498 478 0
2818 -2722 0
2790 -39 0
-2723 -504 0
-995 3380 0
2790 -1215 0
1315 1005 0
1304 -1774 0
-2780 1715 0
-2938 -2884 0
-2557 -3367 0
88 2774 0
-1436 -1033 0
1642 125 0
-2711 -3230 0
303 2918 0
3011 -2622 0
-2513 -2647 0
-10 -2904 0
3398 -2892 0
-1077 892 0
-1339 -2880 0
2933 -295 0
2718 551 0
-1280 -763 0
3469 2472 0
3486 -2299 0
-3138 2549 0
1182 -343 0
527 -1714 0
-2596 1481 0
-1501 2438 0
899 368 0
-2014 -3050 0
3312 -2873 0
-1929 2106 0
-462 -3261 0
3356 -2130 0
-3526 2224 0
2131 3610 0
-620 2655 0
2039 495 0
111 2586 0
-8 -2206 0
-2746 -2497 0
-918 -1422 0
164 -1992 0
-2453 -2326 0
1054 1723 0
2874 3298 0
354 1865 0
-2160 3425 0
2597 1096 0
-3565 858 0
-911 823 0
3361 -3178 0
1651 -820 0
1422 -2577 0
1794 -972 0
1811 3294 0
-918 3281 0
-227 1756 0
3042 292 0
-2432 1608 0
2629 1613 0
-2765 -1788 0
-549 1791 0
-2903 -2421 0
-2816 79 0
-2035 -3139 0
764 -3270 0
-3612 3175 0
-1681 348 0
956 -3077 0
170 -2271 0
-3103 -2905 0
-1571 1654 0
-2530 2669 0
-951 -1705 0
-3214 -139 0
-1049 -3057 0
337 567 0
2594 2380 0
-2266 -2590 0
-1468 1196 0
-1487 -373 0
-3498 -462 0
-2782 3532 0
-1114 1828 0
-3168 -2496 0
1664 -111 0
-1233 2937 0
-920 2344 0
1936 2342 0
-158 2835 0
1885 -2832 0
3072 2644 0
-2784 317 0
1892 1384 0
-1933 -252 0
473 522 0
-2310 2472 0
2491 474 0
-2805 3235 0
-1164 -1171 0
-512 491 0
-3462 2703 0
-3511 1629 0
3285 579 0
2142 2801 0
3174 -163 0
-2015 2794 0
-3218 75 0
-1628 659 0
-345 1586 0
-2864 -689 0
2803 -2240 0
-2489 731 0
-1575 -414 0
-2793 1981 0
-2271 2438 0
2609 -2185 0
2053 489 0
2622 -329 0
-2381 2541 0
-1575 -775 0
-870 1002 0
-2309 -624 0
-2409 -3133 0
-1330 841 0
-1333 3170 0
-1397 3259 0
1924 1006 0
-2644 1483 0
-2439 -2790 0
-3347 1558 0
-1735 3113 0
3391 1204 0
15 -941 0
640 2829 0
-54 2437 0
1715 -3102 0
-3046 3608 0
-175 -2251 0
-2000 1315 0
-88 -951 0
2624 -645 0
-1259 -2005 0
3572 -1110 0
-3635 -1169 0
-1262 -3082 0
3359 -2669 0
545 -1605 0
2519 -3058 0
-2353 -2412 0
1258 -1015 0
-2366 2239 0
2185 -1279 0
137 -1398 0
-2856 2987 0
946 -3182 0
376 2072 0
-813 676 0
2144 1910 0
1771 2854 0
-2529 -3405 0
-2033 2115 0
-1171 -2564 0
933 -2938 0
2179 -892 0
-2021 2813 0
3381 -3569 0
143 -1290 0
3029 -1430 0
2194 69 0
3257 1000 0
299 -1959 0
1109 1158 0
1119 -6 0
-1397 -3470 0
-381 -89 0
-2911 726 0
-994 -418 0
-1076 436 0
-2423 -1728 0
-1536 -1084 0
1772 -1497 0
3341 -2433 0
2694 -2346 0
797 -502 0
-716 -34 0
2110 -2420 0
1124 -1197 0
3461 2706 0
-2798 -2177 0
815 1338 0
-2690 -3634 0
1068 3392 0
1579 78 0
3112 3337 0
-1253 -462 0
2208 3356 0
-1243 -2196 0
-324 -480 0
-182 2712 0
2041 -932 0
3591 -1523 0
1043 -2390 0
3239 -2750 0
2431 3397 0
-2058 -2402 0
-1437 98 0
-2192 1237 0
-2658 1652 0
582 -1624 0
77 -1898 0
-2366 -2213 0
2173 3127 0
2612 1005 0
-2114 1572 0
-2007 1836 0
-134 -3487 0
-2572 2942 0
-791 3405 0
2901 928 0
2625 599 0
2055 -1893 0
1827 -2026 0
-39 1203 0
-1269 1088 0
746 -1932 0
-1535 -2978 0
3100 1320 0
3102 247 0
-1297 -1381 0
-1976 1251 0
-3418 -1122 0
998 2077 0
86 2533 0
675 3475 0
840 -1641 0
-391 2276 0
-2681 -228 0
-34 -1985 0
-3370 -3338 0
1199 1696 0
1107 569 0
2133 539 0
-1305 551 0
993 -911 0
1422 -2849 0
-2839 -1820 0
-2563 -1047 0
-428 -159 0
-2481 -467 0
-2481 -1756 0
-1750 3403 0
-3082 2414 0
2719 2469 0
-2672 -2094 0
1902 387 0
2776 2976 0
1404 -674 0
-2490 709 0
-1187 -2610 0
1966 1932 0
-2807 823 0
2679 -945 0
678 3482 0
2861 -1228 0
3391 -2265 0
-3008 -3290 0
-993 326 0
2238 -870 0
2190 -1905 0
2568 3545 0
-3127 -1712 0
-1559 966 0
-1293 2293 0
1966 -3542 0
-199 -2955 0
-528 -861 0
-3492 1824 0
-2270 20 0
1294 -3565 0
1837 -1133 0
-2538 -1349 0
-1912 -3094 0
3544 -1825 0
-2110 -1931 0
-1554 722 0
-2821 665 0
-3 3393 0
524 149 0
-2063 -1381 0
-2863 -416 0
832 2656 0
3337 -3128 0
377 -18 0
-743 -1554 0
-397 -424 0
-104 2959 0
-3481 -2733 0
2129 831 0
-346 2741 0
-570 -130 0
2997 309 0
1946 -3152 0
-1034 2536 0
-1644 -338 0
-622 -2141 0
-2262 3438 0
-437 -941 0
1807 1751 0
2706 -1217 0
88 407 0
3430 -590 0
1327 -1929 0
-2820 489 0
1476 -723 0
-1502 -2824 0
1050 -1485 0
-801 -3097 0
-1167 2233 0
-2361 -1819 0
-1266 -405 0
-2783 209 0
-1451 -1788 0
3577 -1372 0
247 3597 0
-3104 3474 0
3369 -101 0
2570 -2489 0
2729 1902 0
1685 456 0
3500 464 0
3287 -393 0
402 3640 0
1351 -1971 0
-1245 1775 0
-1620 -159 0
-1169 1694 0
29 483 0
1300 2795 0
-2586 3109 0
1911 3263 0
-1475 -933 0
41 1255 0
1441 -1168 0
-1250 -2061 0
-1157 1259 0
-447 1751 0
-800 131 0
-3511 -1305 0
559 -2208 0
112 1953 0
1487 3147 0
-789 -1257 0
-1668 2431 0
277 790 0
1441 2332 0
-2163 -610 0
703 615 0
402 -2174 0
2619 -2704 0
1555 -3288 0
2236 -3345 0
-240 844 0
1706 -3442 0
1962 3652 0
3154 863 0
-1603 -2729 0
-2811 -1621 0
-1313 1233 0
-2343 -3244 0
-275 506 0
-981 -1682 0
-2538 1652 0
-960 3017 0
1015 2718 0
437 2678 0
525 -1570 0
3112 225 0
-1241 -3062 0
-2258 -763 0
-1251 2622 0
-2808 -688 0
-1450 -1575 0
-1360 -2376 0
-649 3462 0
3327 1669 0
-1540 -3340 0
1421 -2812 0
-2459 2886 0
685 400 0
1033 -886 0
-3108 -3216 0
582 -443 0
-2308 -1748 0
-3646 -2333 0
2018 1424 0
-3136 -3127 0
3567 -2869 0
3230 -2083 0
1246 -2672 0
2701 -1713 0
-2998 -2204 0
-1291 893 0
112 -1862 0
2106 -1134 0
-2747 -3006 0
3289 -2062 0
1110 2865 0
452 -1678 0
3517 1057 0
2319 961 0
2005 1858 0
-3176 -299 0
3539 -3166 0
-585 -2221 0
-3 1926 0
1435 -1562 0
1795 2803 0
1193 2829 0
180 2369 0
-637 -1699 0
2066 -2842 0
-1497 -2539 0
-3511 78 0
-3350 1260 0
-226 2696 0
-909 1686 0
278 -2277 0
393 2770 0
3157 -493 0
1824 1937 0
2683 -3167 0
2212 -796 0
1759 -3370 0
-1876 -1739 0
-2582 -3503 0
2878 433 0
-1732 2870 0
-342 -2923 0
1872 1749 0
943 -1823 0
-1409 -443 0
3159 823 0
-2356 987 0
3635 1096 0
-3540 -3304 0
597 2724 0
2933 -3038 0
2952 1636 0
3389 -980 0
-607 -1846 0
-3596 1487 0
713 3486 0
-1042 1428 0
-1450 3585 0
1584 -1285 0
-727 1321 0
-214 83 0
470 -1728 0
2170 -1357 0
991 -2634 0
948 -2309 0
1881 473 0
314 -1063 0
-1666 -2777 0
1220 -2025 0
-3199 1971 0
-3435 3385 0
831 1070 0
2898 -836 0
2106 -465 0
-2524 -1142 0
-3145 -2299 0
1609 2804 0
-1990 166 0
404 3351 0
2516 2659 0
408 -2143 0
-1421 822 0
1676 1348 0
-873 1840 0
1783 -2879 0
-96 2178 0
-337 -1611 0
2292 -3012 0
-1675 1928 0
1867 2770 0
1452 -1341 0
2022 3379 0
3065 -111 0
-471 -2153 0
-956 3187 0
-2309 -262 0
3505 -2423 0
-2141 3027 0
-304 -1127 0
2974 -1309 0
1232 -2863 0
2 -230 0
3070 -2872 0
-972 178 0
-2897 -188 0
160 852 0
-3315 -2320 0
436 -3298 0
1266 -119 0
-2811 530 0
-1496 -2566 0
2582 2659 0
1903 3520 0
3462 -2409 0
-1035 -2214 0
-2883 2382 0
-2566 2664 0
-3511 -1365 0
-1440 70 0
-2971 2333 0
1268 3148 0
2154 307 0
219 3398 0
1220 870 0
-1658 -1410 0
2277 -2118 0
-1816 -2213 0
-24 -3372 0
1832 772 0
573 1856 0
-3097 1288 0
465 -1273 0
2960 -1272 0
2340 -2883 0
-569 308 0
892 -880 0
-690 -3166 0
676 -2663 0
3257 1236 0
1804 2827 0
494 1453 0
1389 1444 0
-1024 -902 0
548 1697 0
1892 3232 0
-321 1176 0
2224 -2974 0
3487 -934 0
646 2015 0
1815 2151 0
84 754 0
-921 -3096 0
2051 -964 0
1876 -2272 0
-1074 2786 0
-714 -3097 0
-3092 2588 0
2633 -495 0
-2644 -1601 0
-574 3456 0
2176 -1939 0
-2329 -3258 0
1202 -1366 0
1026 1206 0
-616 -1819 0
-2277 -622 0
-2396 -139 0
2483 2050 0
-2548 69 0
2923 -3273 0
2573 -236 0
1066 -205 0
-636 -3356 0
3621 1987 0
3281 -3642 0
1561 3618 0
2445 -3209 0
-1884 -1922 0
980 -3090 0
2835 3480 0
-1599 2073 0
-3049 2164 0
-1552 1254 0
-1773 3456 0
-2413 -636 0
1099 192 0
1021 135 0
2039 339 0
2878 -561 0
531 3544 0
-3528 2221 0
3475 593 0
-1239 2364 0
-2768 710 0
1793 1062 0
2653 -1284 0
585 -1208 0
2373 1137 0
-1200 1978 0
535 -2514 0
410 1932 0
1457 -1951 0
2740 2093 0
-1426 -3232 0
2340 -1239 0
3628 1881 0
-3155 -2840 0
-2288 773 0
3216 1163 0
1435 -1276 0
183 -2029 0
-1771 970 0
-1539 -1128 0
3453 2049 0
-3460 2715 0
-451 935 0
-3397 -2952 0
831 485 0
2488 -1496 0
1455 587 0
662 1435 0
-2813 -3541 0
-416 893 0
-1801 1055 0
-2868 3082 0
2363 -148 0
-3365 2554 0
-1335 590 0
-2824 2060 0
1153 1553 0
-2044 2186 0
-3465 2699 0
-864 -733 0
1714 -1271 0
1953 3602 0
2525 -329 0
3159 162 0
-1718 1193 0
2882 2620 0
981 -2159 0
900 -1182 0
-3399 -2890 0
2422 697 0
-310 -2925 0
-1747 383 0
-2871 -462 0
2649 1188 0
-943 2908 0
653 -2652 0
1288 -3288 0
3301 -1951 0
1680 -448 0
1940 897 0
-2163 -2433 0
223 530 0
-604 -968 0
1895 -2554 0
1125 833 0
111 -17 0
689 -577 0
833 -760 0
-3126 -266 0
1204 1542 0
3498 -3587 0
-3330 -2943 0
-921 -818 0
-2843 1342 0
-3557 -1597 0
2422 2269 0
1522 988 0
2479 -862 0
-10 -1084 0
971 1979 0
-2212 -2892 0
1373 -339 0
1515 884 0
-825 -2667 0
-2119 -2596 0
1286 -481 0
3509 1804 0
-90 2018 0
-2645 1740 0
-1244 1050 0
-2989 60 0
869 3461 0
1790 -1819 0
3250 -2210 0
1911 -1985 0
-1192 3485 0
-829 -2785 0
2757 376 0
-2780 3141 0
-1429 -2540 0
2006 2769 0
-812 -3421 0
2387 3395 0
32 -146 0
1446 -1214 0
53 778 0
-240 -2203 0
-2376 1804 0
666 1787 0
222 -1286 0
3330 -760 0
1300 -1305 0
1162 610 0
2771 1364 0
-1715 -1366 0
800 -2291 0
-2443 1806 0
-1668 111 0
-1002 2710 0
2276 2988 0
2764 688 0
-403 -2399 0
-2021 974 0
3203 634 0
1876 -3214 0
2436 1363 0
-2609 3201 0
-2029 2782 0
3107 -57 0
-3089 -3531 0
1553 3192 0
664 3179 0
-7 992 0
2025 -2027 0
843 -1863 0
-3425 -488 0
-284 2142 0
-1207 1733 0
520 -1291 0
498 1092 0
1060 -3185 0
-55 -3225 0
-2811 3131 0
1261 -2695 0
1490 1524 0
1101 -381 0
-988 -3122 0
-2143 3480 0
-1297 -458 0
-2808 -931 0
-59 -1748 0
-2361 -3631 0
152 3024 0
1306 -581 0
2474 -3183 0
-2908 853 0
1434 3078 0
871 1324 0
-654 -1816 0
-932 -1343 0
2260 2607 0
2930 -1752 0
2482 1148 0
-1931 1065 0
-3507 2098 0
-743 -3212 0
-2603 2066 0
-1871 4 0
2604 -3246 0
1095 -3275 0
1145 -2845 0
2583 2992 0
742 685 0
-1148 2261 0
92 2097 0
-1877 75 0
-1440 1747 0
-164 2900 0
-2702 2004 0
2445 2608 0
-1029 -2100 0
-1283 -2673 0
-1712 -325 0
-3563 -2378 0
-3292 -151 0
-2214 2092 0
-3311 -262 0
598 2589 0
-416 1060 0
-2690 -759 0
3648 2552 0
3119 1289 0
1272 1802 0
-2040 -2815 0
638 -2424 0
2505 -584 0
-997 -2368 0
68 -378 0
681 1632 0
3132 -3056 0
464 -2782 0
39 -571 0
3364 -1747 0
-1272 24 0
1943 -1273 0
1805 2111 0
-1378 -8 0
-1472 -2165 0
2117 3030 0
2083 25 0
1319 -1845 0
2712 -3368 0
-3088 -3343 0
916 2150 0
954 -1274 0
-2827 -429 0
-2127 -1404 0
96 3310 0
-1494 3649 0
-2119 1863 0
2523 -2307 0
2896 -3129 0
-1979 724 0
-869 -2043 0
2965 -3575 0
-1149 -1869 0
834 175 0
-1840 -3371 0
-1558 605 0
-232 -173 0
-191 3146 0
1921 3373 0
91 1808 0
247 2607 0
-2593 1476 0
-2556 923 0
644 -2508 0
1893 -3108 0
-1274 -3501 0
-2060 -2496 0
-2873 -3545 0
2710 467 0
-736 -2120 0
2425 2552 0
-2241 540 0
2056 2523 0
1336 -406 0
-3280 2645 0
-3510 -3040 0
-1040 -1201 0
-3104 -1216 0
-2865 689 0
1359 3548 0
-2529 1011 0
-3573 2075 0
570 -1644 0
2260 3171 0
80 -1355 0
-1112 -2244 0
1938 -1178 0
-898 3379 0
-226 -2214 0
-309 1569 0
2208 -3367 0
1927 2044 0
-993 -3562 0
115 2607 0
773 -946 0
445 2245 0
3428 -1980 0
-2294 -1674 0
-1003 -2099 0
-2915 2330 0
-1851 3106 0
311 -445 0
3611 -1156 0
-3528 -1135 0
1097 -3401 0
-1743 -510 0
2322 1035 0
-1002 2461 0
650 3077 0
-481 2505 0
432 -1083 0
2791 2558 0
589 -1280 0
219 -1497 0
-620 646 0
1102 1969 0
-1860 -1575 0
-1784 -2596 0
3602 2219 0
2537 -3217 0
-1130 2372 0
-2993 905 0
-38 -1515 0
-3145 -1488 0
-3108 -2320 0
-3545 39 0
-2148 1602 0
622 -1287 0
855 2603 0
-384 3202 0
2765 1721 0
-780 3590 0
-2015 3066 0
1356 751 0
1832 2597 0
-727 1897 0
599 -2891 0
-173 2414 0
2299 -2449 0
-3515 -1929 0
2607 -187 0
-2025 -497 0
-573 1019 0
-2947 2627 0
3132 2932 0
-284 745 0
-1586 2931 0
-2589 -3364 0
130 -3261 0
-1588 -198 0
-1935 369 0
2283 -140 0
-2658 9 0
-868 -3446 0
-3402 -121 0
-3582 1696 0
984 3154 0
-2727 3237 0
2386 -3392 0
3199 -3353 0
-3123 1722 0
3480 1441 0
-1535 2632 0
-2051 -93 0
-2520 -2849 0
2474 2522 0
1156 -3002 0
1383 32 0
2179 49 0
1664 2273 0
2638 277 0
-2413 -2508 0
-2634 1693 0
-3332 -2101 0
-1161 -2078 0
910 -3039 0
-2942 -2746 0
3464 -22 0
-556 -1156 0
2937 -1788 0
641 -1931 0
3557 -2535 0
-3173 3149 0
-1200 1820 0
1902 -965 0
963 -316 0
2157 139 0
-1362 -3483 0
-3609 2478 0
-431 3535 0
3448 -1779 0
2457 3377 0
-29 3441 0
-647 198 0
-203 -3371 0
1987 -3395 0
1543 -558 0
9 -168 0
-1930 1309 0
1256 3031 0
3229 -3651 0
-1959 -1547 0
2277 2764 0
-1208 -767 0
2510 -3016 0
2692 -1237 0
-3355 -365 0
3051 750 0
-3420 1968 0
3490 -3448 0
-2955 2382 0
608 2393 0
-168 1331 0
3356 442 0
-2898 -2343 0
-468 -959 0
599 919 0
2546 -47 0
2642 2620 0
-1140 -2246 0
154 3173 0
710 931 0
-3596 -627 0
-3645 -1252 0
1907 3576 0
-3258 -3650 0
-470 2331 0
-1740 -781 0
-771 -2276 0
3193 -237 0
336 -1234 0
-3649 3002 0
-1005 -1877 0
2019 -190 0
-3262 -2157 0
2937 1804 0
70 -154 0
-2610 -1679 0
313 -1967 0
2709 1886 0
1130 427 0
849 82 0
2873 3243 0
2736 3580 0
-1549 -2659 0
-1391 -3546 0
2718 -1285 0
-993 -3351 0
-1119 -2113 0
-1867 -657 0
-1297 299 0
69 -702 0
-2738 -3117 0
-700 -3273 0
-2544 1836 0
2040 1360 0
-958 -548 0
-34 3323 0
3124 -520 0
-1208 673 0
2378 3380 0
1866 1459 0
-3129 1547 0
1591 155 0
-1335 882 0
2200 3496 0
1878 -1373 0
1870 467 0
2424 2707 0
-2132 1287 0
-2110 -613 0
1158 3115 0
-1997 2155 0
824 -1130 0
16 1119 0
3250 -3282 0
2057 -3650 0
312 1258 0
2909 -337 0
3306 -195 0
-2337 -2371 0
-3468 3346 0
-84 1487 0
-2177 1623 0
-3201 3551 0
-2024 -2171 0
2257 3063 0
-2888 -1786 0
3496 3021 0
2301 -1157 0
-1848 1277 0
1953 -504 0
2447 2261 0
-2571 -1002 0
3018 -2975 0
-2773 -419 0
-2577 -359 0
2981 -297 0
178 2397 0
-1690 1902 0
-2772 -2911 0
-1819 3061 0
-1970 -2749 0
-1604 2459 0
2384 -576 0
-1444 846 0
57 1831 0
-3185 -168 0
-3067 -1414 0
239 -1180 0
1798 -93 0
-1637 -2884 0
2764 3517 0
-2789 -2858 0
1971 754 0
-3492 2406 0
2704 -3142 0
1446 -1698 0
-1421 3487 0
-203 -2763 0
2963 -2256 0
2117 64 0
2022 2854 0
82 -3521 0
-2242 -2847 0
-867 860 0
-2454 -954 0
-843 -3596 0
-93 1597 0
2700 -2126 0
-3446 1450 0
780 -1076 0
-2914 3604 0
1284 2935 0
837 -3586 0
-2230 2719 0
-3058 992 0
2101 -2071 0
3011 -1907 0
3052 2998 0
-2956 2333 0
-1245 3456 0
-1441 2471 0
1206 -1325 0
890 1237 0
-153 -550 0
1434 632 0
729 2542 0
2941 367 0
631 -547 0
-2632 3483 0
3429 -2102 0
1315 -1594 0
3409 2026 0
-602 268 0
-1386 -3265 0
-2944 2412 0
2703 664 0
-832 512 0
2722 3121 0
-2957 1811 0
1209 -339 0
309 -847 0
682 -550 0
2264 -427 0
711 2587 0
1199 -2313 0
2098 -1574 0
2715 1861 0
-496 541 0
-2787 2106 0
-834 1998 0
-1119 3011 0
-293 -1545 0
-2853 869 0
-171 445 0
265 139 0
-1336 3621 0
766 2757 0
16 -1860 0
2793 -1779 0
2393 471 0
-2300 1243 0
-858 2966 0
239 -1748 0
-867 3095 0
-90 847 0
-1753 -2898 0
1043 1300 0
-58 234 0
-2871 815 0
-467 -867 0
1345 -2927 0
1288 637 0
-1041 -1726 0
1491 -2308 0
-930 3473 0
-1680 2782 0
2595 -2378 0
-2879 -602 0
552 3458 0
1904 -2978 0
1108 -932 0
959 -3335 0
3591 2808 0
-972 -45 0
293 3646 0
-379 -3398 0
1117 2195 0
244 2885 0
-704 -245 0
226 3610 0
-1619 -2687 0
2587 2128 0
-609 -1096 0
-2593 3234 0
-1903 3245 0
-1979 1927 0
1009 192 0
-2788 1106 0
2070 -1390 0
46 -1100 0
123 2172 0
3264 -1493 0
-2711 -1414 0
1531 1809 0
1576 2807 0
-3521 -475 0
3214 1700 0
959 1424 0
1508 -2423 0
707 -1108 0
2976 3617 0
2229 -3387 0
983 508 0
3060 -395 0
-2036 -1392 0
-564 -3428 0
1674 2594 0
2764 -3310 0
-3467 1036 0
-1066 -421 0
-1699 -2892 0
-1439 1899 0
2573 1477 0
1111 5 0
2289 694 0
1012 303 0
-847 -1041 0
-2621 1722 0
-1673 475 0
3027 1760 0
-580 1327 0
755 201 0
-2456 -1168 0
791 -2420 0
-1519 -845 0
-1838 -989 0
-1685 2642 0
897 -585 0
-2042 634 0
679 3644 0
-2929 -868 0
-623 -2145 0
3485 2365 0
2695 1376 0
-3620 -1231 0
538 2832 0
-3043 270 0
-1906 -1301 0
2064 3593 0
-1264 -1207 0
-761 2026 0
1998 -2948 0
-3474 3269 0
211 -1727 0
-2984 1652 0
-1344 562 0
1461 3201 0
83 176 0
2055 -3261 0
-2598 474 0
2175 279 0
1683 2517 0
1425 3300 0
1910 -29 0
567 1600 0
1441 803 0
2917 -3266 0
-3169 1328 0
-898 -2 0
-3303 1040 0
2877 2042 0
-705 449 0
2974 -1860 0
-620 1983 0
-3276 -2093 0
-624 1382 0
2779 2927 0
-1056 922 0
2624 3436 0
-3263 155 0
-1826 631 0
681 1236 0
-3274 -2923 0
1568 1476 0
-2874 1218 0
-1430 -2280 0
-233 170 0
2152 -2685 0
1044 -1452 0
2891 -3161 0
3110 -1526 0
638 2090 0
1201 2240 0
-3190 2000 0
-3631 1718 0
2488 2077 0
-789 259 0
-2256 -2684 0
-2045 1006 0
1600 -1478 0
9 3500 0
-1668 128 0
3589 -1413 0
3085 -3258 0
2275 -641 0
-2369 -946 0
1426 2393 0
1530 -304 0
2947 -2832 0
977 348 0
1674 2383 0
-3513 -3056 0
-318 -1254 0
666 -2570 0
-512 2467 0
2648 2874 0
311 -995 0
-2446 -590 0
3337 -1861 0
3142 -1103 0
407 -1667 0
-1160 2939 0
-932 -3466 0
28 3017 0
1796 254 0
2023 -508 0
1191 1641 0
2505 -868 0
-2102 621 0
-2602 -2814 0
1280 -679 0
3213 3077 0
1875 -1346 0
-578 -3071 0
848 -3327 0
-1834 3023 0
-2916 1037 0
-2108 -657 0
3285 -1079 0
1018 -3036 0
1505 1803 0
-945 1988 0
-18 -466 0
-1027 1717 0
-1356 -165 0
-1041 -2177 0
2453 1324 0
1112 960 0
1945 -380 0
-1934 -1780 0
1559 2498 0
-2481 -660 0
-484 3026 0
2874 -1115 0
-111 -1422 0
2532 3491 0
1230 738 0
1115 -3143 0
370 1623 0
2738 3475 0
764 2629 0
-2716 -2720 0
-76 -2388 0
-1386 -605 0
1625 -2968 0
-1185 -2079 0
-2589 341 0
3011 -2772 0
-380 -3202 0
-2511 -3122 0
-1291 931 0
-3441 682 0
1060 -2 0
-1542 1558 0
-1371 -2299 0
985 290 0
2185 -198 0
889 296 0
2424 2869 0
-1008 -2904 0
-147 1068 0
1114 -616 0
1283 3012 0
3348 550 0
2724 -3257 0
520 -1366 0
2830 1974 0
2243 798 0
890 3589 0
-3501 392 0
1086 -3212 0
2629 915 0
-1391 -370 0
964 551 0
2797 1846 0
1607 2465 0
3332 -2670 0
3441 -260 0
2682 -3335 0
461 -377 0
-202 -2009 0
432 1621 0
-2415 3417 0
-2528 315 0
-492 -1797 0
-76 -628 0
-263 3179 0
1741 -3308 0
17 -2680 0
-2648 553 0
-2579 3589 0
3304 -134 0
2752 3004 0
924 3205 0
-1219 -205 0
154 -110 0
1009 -2139 0
3005 530 0
2447 -655 0
-3566 -1917 0
1241 2824 0
128 -1429 0
1170 -648 0
-1524 -2963 0
2753 3412 0
-591 -867 0
1476 -2466 0
188 1021 0
3033 -1963 0
-2781 -1028 0
-1864 2255 0
485 -783 0
-1556 3035 0
3267 2570 0
253 -1502 0
2790 3560 0
1894 3610 0
263 3167 0
-1914 127 0
1469 -3600 0
-543 1838 0
2921 -1577 0
-3647 1981 0
-3138 -199 0
-1528 -2347 0
-801 2580 0
-2057 3508 0
1210 944 0
1173 3439 0
-1116 -3274 0
-2880 -2763 0
550 -225 0
-747 -2433 0
2607 -2280 0
-365 -2419 0
2299 2939 0
164 2548 0
3214 893 0
-1674 661 0
3043 1241 0
-3020 -213 0
3433 1320 0
438 3441 0
-908 169 0
1317 1046 0
124 3467 0
1847 -1842 0
3518 -3120 0
1461 639 0
2950 -3472 0
-3449 -1961 0
-1943 -2578 0
-784 2148 0
-542 -1705 0
-100 3262 0
-2294 3084 0
255 -3432 0
2186 -2624 0
-2943 3622 0
-3330 3416 0
2011 2625 0
955 2794 0
-3535 -2047 0
-3143 -2361 0
-652 -590 0
1625 -3168 0
-2432 3510 0
3044 256 0
-689 -2646 0
-2769 -2904 0
-1143 -1267 0
3105 -2500 0
3072 2500 0
-953 -1748 0
-708 -1247 0
3611 -602 0
822 617 0
1773 1278 0
-1993 -9 0
1019 -2756 0
973 -1008 0
430 -2160 0
3281 2624 0
-594 -1468 0
-616 552 0
-350 2002 0
3539 2103 0
-2517 3281 0
3413 3179 0
1890 1998 0
-492 -1514 0
-1313 -1283 0
-29 2587 0
2368 -409 0
-3314 -740 0
-3108 1261 0
-67 1077 0
-1733 2982 0
-2814 372 0
-3533 751 0
-272 3358 0
-889 2661 0
251 -46 0
-1342 -123 0
-3519 -1503 0
1760 -1786 0
-448 -3239 0
1544 2801 0
2082 -2002 0
-2289 -1644 0
2831 -1799 0
-1944 -1789 0
3298 -747 0
-3475 2236 0
-1489 3390 0
-2740 516 0
3157 -1490 0
-1884 -2063 0
-2839 404 0
1493 748 0
-2668 3241 0
-2531 814 0
3433 -1409 0
-2629 2587 0
2188 2456 0
-3322 -113 0
-2583 -870 0
3194 -3130 0
-3045 -1543 0
3602 -182 0
2562 1858 0
3024 -121 0
3636 1020 0
-472 -147 0
2421 2704 0
-39 -1420 0
-213 3260 0
-653 -77 0
-1042 -3008 0
1009 -2046 0
610 1381 0
2128 384 0
-1224 -1682 0
-706 -1868 0
1176 1005 0
211 -3256 0
-2865 1701 0
697 -2681 0
-658 1113 0
-549 2046 0
-765 -2374 0
-1784 -2863 0
974 -996 0
1073 -259 0
415 1307 0
652 -620 0
3137 -2800 0
863 -978 0
-2515 2148 0
3589 -2938 0
270 -3251 0
2231 -1691 0
-484 -42 0
2168 -998 0
2531 948 0
915 2509 0
3624 -2654 0
-688 -1803 0
-2405 2497 0
2533 -2484 0
1783 -1528 0
2402 2863 0
198 -3467 0
1460 465 0
-3542 -2560 0
954 -896 0
-2650 -1946 0
-2519 -182 0
-3181 1497 0
986 -3519 0
-1576 -3584 0
-336 1094 0
-2572 1851 0
249 -3276 0
-136 -2169 0
-1879 2942 0
1209 -1186 0
-3099 -2614 0
3508 -109 0
-7 -2184 0
-2854 -26 0
2222 -2407 0
28 -1970 0
2643 -1652 0
-1691 966 0
-384 -3091 0
925 -2737 0
-3321 -3431 0
-419 -1829 0
2537 -1109 0
301 -1765 0
1169 -1901 0
-2370 -1203 0
3054 1752 0
-430 -3147 0
2992 1946 0
-1670 2866 0
-1603 -2140 0
551 1611 0
-175 3146 0
3183 278 0
-194 -3632 0
3184 1180 0
-1074 -583 0
-790 2940 0
2436 -2975 0
3272 -2528 0
-463 -1920 0
-898 -1082 0
-1817 -1190 0
215 -2154 0
3482 -3423 0
2547 1260 0
3455 -298 0
-640 -1324 0
299 -2956 0
-1066 1302 0
3027 2192 0
1265 2902 0
-2085 -359 0
2891 -1105 0
-784 -3381 0
2222 3273 0
-2452 1425 0
2192 2938 0
3403 2694 0
936 -953 0
-2674 -737 0
-35 3641 0
-284 -2488 0
-609 1050 0
-261 -10 0
522 2598 0
1586 -3004 0
-2029 3153 0
1858 2352 0
2962 2412 0
1765 -3365 0
1771 1536 0
-2494 1561 0
1861 -2339 0
2360 -1045 0
2976 -2530 0
1762 -112 0
-1711 2992 0
3076 -788 0
-1268 2255 0
-3189 2313 0
-3215 31 0
-1498 2194 0
690 -3125 0
-597 750 0
2920 814 0
-963 2818 0
2207 660 0
-1988 3294 0
-2202 -300 0
-906 -2033 0
-1621 -2613 0
-3080 -1100 0
-1913 1589 0
3415 599 0
2654 3415 0
-1306 -3089 0
1005 2945 0
331 -3399 0
-1009 746 0
-433 1479 0
2593 -913 0
3610 -530 0
3510 1164 0
3236 -781 0
-1620 -1105 0
264 2532 0
-3171 3469 0
3596 -998 0
3251 -1079 0
-2450 498 0
2979 2913 0
3014 739 0
-116 -2687 0
596 253 0
-1988 -1956 0
-173 -863 0
-2654 -1592 0
-2247 -3557 0
-640 2694 0
735 1102 0
2974 2493 0
-1970 1016 0
-1626 -3542 0
99 -2898 0
-662 228 0
-1238 483 0
-2856 1036 0
118 505 0
2193 -2072 0
2724 -2207 0
1581 -2183 0
2298 655 0
-886 -3040 0
2648 -3112 0
2808 192 0
-1168 -3441 0
-988 -2174 0
1902 -2888 0
2581 1405 0
2371 -371 0
-2750 3427 0
1087 757 0
-936 -1047 0
-174 2695 0
277 584 0
1996 -840 0
1129 -2867 0
-1921 2073 0
-1571 35 0
-1994 2778 0
-3203 -386 0
-2844 -845 0
-1827 -1468 0
-2082 -3557 0
-1645 -2533 0
1937 1886 0
-3221 3334 0
-2463 1917 0
-2967 -2950 0
1389 -2571 0
243 -2045 0
-2520 -2711 0
-3279 2864 0
-684 2743 0
-3385 94 0
1592 904 0
-2781 -216 0
-800 -1986 0
-3432 1319 0
-2555 -528 0
173 -1978 0
-3094 1966 0
-1621 -1245 0
-1643 -2647 0
-1067 2699 0
-3062 -2416 0
-75 139 0
-2650 1082 0
-2587 1509 0
2788 -340 0
-1622 -1249 0
-2 784 0
3023 -1162 0
-636 3472 0
2004 2794 0
1324 2573 0
-1335 1460 0
1260 -2786 0
-501 2550 0
780 -403 0
-805 -742 0
1556 -1175 0
1354 1162 0
1129 -756 0
-2473 -563 0
2652 1611 0
724 1263 0
-1756 -631 0
1734 -3270 0
-2660 -3501 0
-1219 1271 0
-1973 1125 0
389 270 0
-3261 644 0
-1392 -971 0
-1901 446 0
-2624 -1978 0
-2717 -1559 0
2705 1869 0
-842 -1011 0
-616 2724 0
2914 3025 0
-2495 3156 0
-3011 1237 0
-1033 -2647 0
73 -3614 0
3456 1808 0
1373 -136 0
1396 2475 0
-3533 -862 0
-52 580 0
3483 -2072 0
-2326 2022 0
423 -557 0
446 3581 0
2718 42 0
-1090 820 0
1188 3420 0
3333 -2876 0
-3341 -1209 0
-367 893 0
-2869 -3544 0
-1279 -1753 0
826 2797 0
3272 495 0
3283 2261 0
1596 -1864 0
2364 2995 0
1926 1370 0
-1954 -1692 0
-2124 -3609 0
866 58 0
-2956 374 0
3614 -2762 0
-1447 -1172 0
402 -1049 0
1438 552 0
1566 1891 0
1608 -933 0
-2317 -934 0
1480 -1793 0
1375 -785 0
-207 -2350 0
-2395 3566 0
-719 1934 0
2682 -624 0
495 2875 0
2546 2196 0
-1099 -2286 0
-3421 415 0
-785 3272 0
-801 78 0
2940 509 0
-2904 1120 0
3045 449 0
507 -3415 0
2064 -2831 0
1777 -259 0
2480 -1272 0
1652 -2806 0
2643 1111 0
566 -3368 0
-2429 334 0
3222 -1339 0
-2904 3268 0
2906 -924 0
-3461 794 0
2851 1354 0
-3101 -3043 0
-1757 -2320 0
79 -3220 0
-509 1760 0
-1615 -211 0
-3038 -2861 0
-1584 -2147 0
3361 2854 0
-527 3380 0
1960 2320 0
-3594 -1673 0
-2789 2926 0
-3419 996 0
-1349 -80 0
969 -1170 0
3061 -1370 0
795 50 0
3621 -2605 0
-2404 -1382 0
-83 1219 0
1007 2050 0
749 424 0
612 2192 0
2974 157 0
2452 -2526 0
3502 177 0
1424 3367 0
1953 -3041 0
1889 3630 0
-2571 -3202 0
-480 -181 0
-2938 -2784 0
-2560 -1665 0
3425 -1242 0
1557 -1292 0
-1480 684 0
619 2492 0
-2108 -1623 0
1538 2861 0
-480 -903 0
-737 -806 0
2718 995 0
-3651 -1019 0
3366 -1949 0
3526 -2910 0
973 -2975 0
-3230 2422 0
-2774 3170 0
541 2011 0
-2855 348 0
1779 -3592 0
326 -1609 0
2207 80 0
220 -1668 0
3422 -1074 0
259 3356 0
-2267 -1663 0
-1362 -2083 0
959 2082 0
-1764 2224 0
2996 -2644 0
-2697 2572 0
2615 1437 0
-3466 -488 0
3237 -5 0
118 2413 0
-1753 437 0
-3117 735 0
-1408 2991 0
-144 1239 0
-1585 369 0
3027 -1180 0
-195 2224 0
-1499 -3004 0
-1507 1614 0
-3326 3333 0
-2732 -79 0
-2156 956 0
-1569 -982 0
1844 -546 0
3072 -144 0
1893 -2157 0
-1472 -2676 0
2840 -2610 0
-3500 3595 0
-1549 1676 0
2103 161 0
411 3361 0
-11 -1047 0
2079 1098 0
772 -1991 0
-3372 1258 0
541 2386 0
-318 -491 0
-3173 2996 0
-3220 1071 0
-1777 3224 0
-11 -692 0
2950 3055 0
653 1971 0
1568 3316 0
2422 -560 0
-2772 2961 0
1569 -438 0
-1462 -2118 0
34 -2592 0
151 1457 0
-1136 -3086 0
-3236 63 0
2927 2263 0
-2100 446 0
-1515 -3055 0
2762 1299 0
863 -1924 0
2141 -2461 0
552 -772 0
3577 1068 0
-3263 -3642 0
270 2802 0
-174 -2773 0
1694 -438 0
-3082 2354 0
3364 98 0
3109 -3 0
138 -2748 0
1845 1342 0
881 -1212 0
-761 -2292 0
2445 -1587 0
-1413 2011 0
2693 -3285 0
-341 -2934 0
230 1308 0
-1624 -565 0
-284 -368 0
2354 1183 0
-123 -2343 0
-44 -898 0
-3342 -1394 0
-2268 -2779 0
-788 2580 0
-2602 -2635 0
-657 -3058 0
644 -1311 0
-3490 466 0
198 -110 0
2468 3392 0
497 3473 0
-39 2305 0
-64 2541 0
-675 2636 0
2760 3434 0
-832 -1808 0
334 -405 0
1988 2194 0
-2366 940 0
-2300 -721 0
3142 -1707 0
-3322 1814 0
-2762 -1005 0
2226 -195 0
-3233 2176 0
3437 -1529 0
-3029 -2970 0
2478 3503 0
-2457 -1750 0
-2489 3303 0
49 2828 0
72 3203 0
-35 109 0
-1640 -1455 0
897 -722 0
-2686 -2590 0
2992 -912 0
2901 -2248 0
1217 -2371 0
887 -1990 0
-2652 148 0
-2723 1370 0
-2033 323 0
-479 -2630 0
-3172 -90 0
828 2612 0
-1397 -3161 0
253 3527 0
1534 2579 0
-2851 -2391 0
-484 -2505 0
440 -1771 0
256 1203 0
2045 465 0
3289 -3485 0
2719 -1078 0
3190 3027 0
1131 2751 0
2954 1644 0
-2683 154 0
-1154 3650 0
2687 -1888 0
3636 933 0
256 2192 0
-1236 2338 0
-1360 -1496 0
-140 2348 0
577 -1555 0
1880 -93 0
1008 2722 0
363 3103 0
9 -200 0
1092 2127 0
-44 -1874 0
-975 -556 0
952 2176 0
-1640 2818 0
-509 -3401 0
-1147 -3029 0
1498 -1008 0
2375 2304 0
3392 -1835 0
-1202 -2888 0
-1887 1637 0
-1391 -1063 0
1253 -1478 0
1703 -1737 0
2820 -496 0
-1955 -1578 0
1726 -711 0
-949 2922 0
-2153 -2690 0
-3164 -2429 0
-3054 1030 0
-1797 2822 0
246 1451 0
474 1294 0
-1530 3016 0
-580 1376 0
1022 984 0
2968 -1465 0
219 2687 0
-2457 2855 0
-1395 2900 0
-2259 -536 0
2605 -3511 0
-2685 -230 0
1450 155 0
-491 3590 0
1194 1546 0
2620 -2049 0
627 152 0
-1109 1091 0
-3612 2381 0
-2952 -534 0
1586 -935 0
-698 -2378 0
-1357 -683 0
-2931 -2493 0
-2668 -2696 0
1972 3219 0
-2929 -1709 0
2043 751 0
-2775 -3015 0
-3565 -812 0
-1648 1362 0
3211 -36 0
-2748 2383 0
-3137 3276 0
827 -2153 0
2065 -670 0
879 2788 0
-3302 1425 0
-1346 3510 0
1909 568 0
-398 -2607 0
-1372 -2177 0
425 3299 0
194 -3634 0
1194 -2858 0
-2536 -1648 0
-483 -2489 0
1380 1770 0
-3026 3207 0
-1811 2268 0
1082 -966 0
-2845 -1835 0
-2923 -839 0
-2943 358 0
2706 2985 0
3317 2766 0
-1698 -917 0
552 -3619 0
-3246 3531 0
-387 3360 0
-2268 -1399 0
52 402 0
2016 -435 0
2878 -1879 0
-2089 916 0
1209 -3249 0
1902 -3405 0
-1568 -217 0
1161 1159 0
-1789 31 0
-3570 674 0
2891 -371 0
2928 -3581 0
277 555 0
-2193 3371 0
-3126 2398 0
2928 -2730 0
-1375 -2495 0
945 -2247 0
-499 -898 0
-3200 1092 0
3001 -2025 0
-176 1935 0
-93 1585 0
3198 704 0
2203 -913 0
-129 -2582 0
-2779 -443 0
-2493 -1197 0
-1830 2272 0
-1528 1562 0
811 -1069 0
-3366 1617 0
2144 778 0
2203 1585 0
-1234 3403 0
-3584 2423 0
1953 1253 0
-3648 3311 0
-603 3234 0
746 1909 0
1144 1206 0
1374 -1174 0
-2857 -629 0
1881 2073 0
732 474 0
2772 -2577 0
2179 3582 0
3338 -2055 0
2315 -3285 0
3269 -3645 0
3071 2499 0
3174 768 0
86 324 0
2283 -2861 0
2248 -737 0
1007 3354 0
609 -1170 0
2257 833 0
-2572 -2758 0
-779 -355 0
3357 26 0
-1344 2642 0
-1987 -233 0
-2366 2465 0
-2458 -1336 0
666 1697 0
-760 -2551 0
654 -1287 0
2047 2036 0
2827 3507 0
-1014 -2404 0
-2126 2962 0
-3624 2709 0
-2934 518 0
2276 10 0
2222 530 0
-2786 2975 0
-1205 2941 0
-1056 -2770 0
859 -1982 0
-959 -3561 0
2729 1109 0
-2253 -784 0
-1895 -3117 0
63 1650 0
-425 1246 0
251 -2202 0
-877 -2268 0
-1384 -2975 0
2594 -648 0
-2572 -2940 0
-946 -3523 0
-2858 -465 0
-2568 -3568 0
-3385 2187 0
1645 -1620 0
-244 -276 0
-3039 2874 0
1162 -3574 0
2890 -3574 0
-409 -2519 0
-3114 80 0
933 -1711 0
3234 -2817 0
-2289 1891 0
722 1319 0
3618 -149 0
-2630 -2756 0
-1779 -349 0
-3404 -2697 0
3414 2404 0
2122 -877 0
-2959 3461 0
-2773 -3227 0
968 1188 0
-1978 -2510 0
520 -1518 0
-1244 82 0
-654 227 0
1751 1111 0
3248 -941 0
3537 770 0
2071 -600 0
1956 -982 0
-1383 228 0
1577 -1681 0
165 342 0
-3541 -2880 0
-834 -1987 0
2307 -2792 0
-3632 -2336 0
-2800 3479 0
2135 -1542 0
400 1719 0
-1700 -1735 0
1207 402 0
2116 -1577 0
-836 -2466 0
2148 2798 0
-931 2830 0
-1285 1280 0
615 -2918 0
-3050 2656 0
1359 884 0
3010 1651 0
2656 2789 0
-1686 -934 0
256 125 0
-2776 -1867 0
-944 -2188 0
-2145 -704 0
-133 2343 0
-3387 584 0
-2057 -395 0
2306 2954 0
1880 -1176 0
2270 167 0
536 3485 0
-1441 -1588 0
-2617 -3571 0
1275 549 0
-603 2690 0
3627 2506 0
1370 1691 0
-461 1101 0
3525 -1049 0
552 -1812 0
642 -822 0
3211 336 0
3375 -502 0
-2659 -146 0
2201 264 0
445 -2723 0
-178 -1074 0
-1720 -3067 0
-1220 -630 0
-459 142 0
-3055 408 0
-59 2526 0
3579 2772 0
591 -3468 0
-1355 2166 0
168 1642 0
-1781 -1043 0
-911 2844 0
2322 -310 0
3379 -3162 0
2179 -2558 0
369 -803 0
-1514 -1265 0
-921 2315 0
3340 2841 0
2431 1984 0
2813 679 0
-405 -1068 0
-316 -1759 0
3334 1858 0
-1175 366 0
-2263 2260 0
2379 310 0
2582 -1384 0
-1581 2302 0
2367 -59 0
3575 -2592 0
-2749 -1145 0
-1970 -676 0
2523 2859 0
-1872 -2829 0
256 -720 0
-3137 -3425 0
-2473 1103 0
1240 257 0
1596 1405 0
1350 -3538 0
-3168 438 0
1558 -2600 0
-2623 2305 0
1531 -647 0
-2514 2212 0
1785 122 0
429 2889 0
2796 1450 0
-3536 2339 0
2100 3362 0
-1929 -337 0
-1958 732 0
-2628 974 0
-2041 -1377 0
-1686 1167 0
1494 1589 0
-1335 -1985 0
-1545 1466 0
2337 1030 0
-3176 -755 0
-1172 1830 0
-2326 -2719 0
3343 -3647 0
-330 1162 0
1642 3239 0
-2214 -608 0
-2686 -1764 0
215 -1988 0
73 3167 0
-1671 770 0
-2458 -3648 0
1096 -2553 0
2225 -591 0
-3541 1918 0
-367 420 0
417 -3333 0
1 1634 0
740 -3381 0
2854 -875 0
309 1461 0
2080 -2382 0
3210 -3051 0
1059 -108 0
-2330 -181 0
1626 3456 0
1887 -2560 0
2314 2649 0
-2690 3379 0
-1194 -1352 0
-807 -207 0
-2925 3552 0
2138 2748 0
1240 -2848 0
2212 2429 0
3402 -1767 0
-771 -2924 0
2951 1955 0
1744 1896 0
2002 1101 0
-1778 -2029 0
948 9 0
-3510 312 0
-2809 2445 0
-2032 -632 0
2201 2107 0
-2351 -1045 0
2359 -1745 0
360 -1582 0
2383 -3382 0
730 1522 0
-3519 -3460 0
-1544 1239 0
1897 -2773 0
-1529 -1439 0
1512 -1249 0
3365 -549 0
-439 -1131 0
-767 -3509 0
-266 -889 0
-1167 2100 0
1198 807 0
-1639 -2421 0
3407 281 0
-243 -2576 0
2122 1450 0
506 -903 0
-3092 3318 0
2221 -373 0
-3541 -2343 0
-3227 -1047 0
2740 -3000 0
823 3250 0
1476 1002 0
3281 2769 0
1187 -1391 0
-1676 -3171 0
734 3009 0
1745 -3056 0
-3383 -1383 0
-2941 -1640 0
-491 2902 0
-945 -728 0
3052 -2051 0
2272 -1493 0
-2998 2119 0
2900 -584 0
105 2928 0
-1039 1542 0
-2084 -3067 0
-1869 2685 0
538 2635 0
3043 -2711 0
2590 -1671 0
-514 839 0
-1597 -100 0
3346 2546 0
-584 -1769 0
2857 2240 0
1524 -1641 0
-1661 63 0
-2936 1799 0
3345 -1546 0
-630 -2392 0
3133 3526 0
-3524 192 0
-2567 1283 0
-673 82 0
2822 -1361 0
104 1301 0
-1057 -3545 0
-3639 -3388 0
-1779 -2100 0
3422 -3390 0
1837 -2357 0
-245 707 0
-3625 2116 0
-1233 -1514 0
-2756 1370 0
3361 1362 0
812 428 0
-2938 2596 0
3057 -1449 0
1275 -3295 0
1927 -3418 0
580 -2108 0
-2041 1897 0
3638 1140 0
3013 2034 0
2972 2721 0
-2671 -2061 0
-444 2222 0
2831 163 0
2753 -1895 0
3529 2358 0
2960 -680 0
2625 353 0
2607 1626 0
2788 2018 0
-256 2081 0
3578 -2007 0
-947 412 0
-458 1633 0
-2808 666 0
-2943 -1295 0
2054 2470 0
-875 -1163 0
1844 2297 0
2527 3468 0
1350 78 0
2325 3102 0
-1242 2465 0
2490 974 0
-3515 -76 0
-1705 389 0
-1259 -3252 0
-1489 2159 0
2369 -2765 0
1706 782 0
-3019 -920 0
-918 3649 0
3085 -2413 0
1559 -2949 0
-846 -669 0
1856 1738 0
1870 2053 0
814 -3077 0
1195 1386 0
-2005 847 0
-1167 -3521 0
-477 -2786 0
-2255 -1977 0
-2800 2716 0
-3359 1010 0
-2307 -519 0
3263 -1323 0
-1851 928 0
-2356 -2844 0
2603 -1494 0
-1001 -1834 0
1746 -1970 0
2434 437 0
-1252 2404 0
915 -3582 0
-737 2591 0
152 3630 0
282 -235 0
1005 1918 0
2724 425 0
-126 2965 0
-2287 -1607 0
2532 1030 0
1482 -2478 0
2566 -1306 0
-2108 653 0
1196 -421 0
-1536 2720 0
-3232 -1637 0
2797 -658 0
-1539 2607 0
-2920 -729 0
-2944 2153 0
2022 -3171 0
2339 -1223 0
-2857 935 0
-207 3529 0
-3572 256 0
1340 1752 0
-1260 460 0
-2725 2117 0
-2896 -1039 0
-134 -1450 0
3247 -1366 0
-3015 2820 0
-1039 2233 0
3154 1834 0
-2824 -560 0
2083 1044 0
1879 -2847 0
312 -505 0
-3461 -303 0
1914 1752 0
795 353 0
342 3262 0
-245 -3584 0
3605 2494 0
-1493 559 0
69 -1493 0
2358 671 0
1502 -534 0
-2502 -1569 0
-1521 -415 0
-1168 -2364 0
-2198 -90 0
3604 2139 0
-2014 173 0
2622 3066 0
-182 2306 0
-2349 -787 0
-2268 -206 0
2387 -1722 0
3483 1847 0
1059 -2082 0
-657 -1756 0
2087 1940 0
-2869 2166 0
-2028 3627 0
-1879 -1224 0
-3060 -801 0
-3477 -2902 0
1506 -1161 0
2479 -1957 0
-3115 -64 0
-3410 3295 0
-1969 823 0
1406 -1854 0
3037 -2792 0
1354 -3138 0
1449 3430 0
541 1172 0
-3612 126 0
2277 430 0
-1024 2568 0
2026 6 0
452 150 0
-887 221 0
-3507 -190 0
-1840 -2608 0
-2099 2794 0
527 752 0
-3446 1947 0
2168 -1594 0
-589 -703 0
3327 2977 0
3021 -2350 0
-53 2908 0
2767 -784 0
1853 3000 0
2346 2755 0
2614 1987 0
971 86 0
-1356 1279 0
824 -2415 0
881 -2621 0
-3030 -2020 0
-497 1408 0
-2604 -517 0
2775 3641 0
-2535 -1748 0
-3255 1242 0
1483 -1008 0
2188 810 0
875 2023 0
1372 -496 0
-1917 2164 0
-722 1443 0
1428 -2547 0
3323 -2329 0
2464 -183 0
832 -1550 0
-2680 -2175 0
-1819 -2508 0
1224 -3168 0
-459 -1792 0
-188 3403 0
2470 2072 0
-2218 -286 0
2926 -1130 0
3228 -274 0
-484 -3246 0
-2793 -1759 0
-1548 -1344 0
2546 -2746 0
1665 -585 0
1319 1901 0
1260 2298 0
3310 283 0
-2746 683 0
2547 3466 0
-2434 208 0
-632 469 0
1471 1894 0
-2112 821 0
-364 -1272 0
1683 1125 0
2870 311 0
-372 677 0
1072 -704 0
-3518 1476 0
-3582 -1524 0
-2716 -2971 0
2830 -3628 0
-2013 -145 0
3414 1083 0
-419 -3511 0
-2145 2969 0
-64 618 0
2775 973 0
2461 1833 0
638 -2163 0
1837 2234 0
2284 3327 0
3612 3131 0
-2521 1677 0
3207 -1356 0
3309 -3564 0
-573 3399 0
263 884 0
2335 3360 0
-1531 -3390 0
1199 2450 0
2857 2448 0
-1795 2152 0
2748 3314 0
-2043 249 0
411 -2836 0
71 2504 0
1032 -1191 0
-197 -1788 0
-192 -2363 0
1609 -1735 0
1354 331 0
1037 2166 0
3499 -3195 0
-1172 2566 0
242 523 0
-3527 3197 0
2192 -1228 0
941 2933 0
-2212 1964 0
-2028 3477 0
-3642 411 0
-3470 -1814 0
-169 -1391 0
806 3532 0
-548 1782 0
285 2498 0
3639 -46 0
-2988 -3501 0
-2851 -2967 0
-2996 2522 0
1772 -1068 0
1949 -2450 0
-359 -199 0
1483 -1042 0
-240 2312 0
-1491 102 0
2470 944 0
-1556 402 0
-386 -3539 0
-3104 -976 0
1861 -21 0
1765 2804 0
2667 -700 0
778 2103 0
-1344 -25 0
208 391 0
-2172 3414 0
1863 -2631 0
3030 -2159 0
-3301 1631 0
2179 1425 0
2054 -258 0
1451 -2998 0
1579 -2962 0
-1528 12 0
1813 2063 0
-2071 997 0
-3301 -1414 0
809 -1745 0
150 -2121 0
-2235 1192 0
-2409 -2197 0
-2699 -3278 0
3293 -283 0
-834 355 0
26 2515 0
-319 -1789 0
2415 2783 0
1012 -271 0
-3161 -2105 0
-1501 3148 0
-2884 1766 0
-3125 856 0
-789 -2923 0
-3149 422 0
-1494 2187 0
-234 1480 0
-3434 -2496 0
-222 -1897 0
-2932 1113 0
2682 -2567 0
3010 2008 0
1336 -2271 0
-1744 -2880 0
-3634 -995 0
-3067 -822 0
-64 -2264 0
929 1812 0
1627 2102 0
-213 -1287 0
-3189 -2402 0
-583 -1715 0
1888 3257 0
-3255 1836 0
-768 3488 0
-1100 -772 0
1191 -1310 0
-3313 -979 0
2535 -136 0
1893 2952 0
-2808 2791 0
2744 212 0
-1274 -807 0
2102 769 0
3174 1652 0
-939 223 0
-639 -1239 0
2890 1943 0
-563 385 0
-3448 2747 0
-364 -749 0
-1176 250 0
-3227 -391 0
-504 1062 0
-2708 -1775 0
270 1479 0
3517 -338 0
-1429 -3255 0
753 -2967 0
692 -103 0
-811 -1439 0
1290 -1664 0
-3574 -785 0
1650 -1528 0
2176 1452 0
-1183 2653 0
-1663 -868 0
2368 -2888 0
-1153 -2261 0
1323 -972 0
-2762 1368 0
2550 -3579 0
-3068 499 0
3092 1760 0
1777 402 0
3529 -1622 0
2283 2710 0
1415 2841 0
-1878 345 0
3602 -3071 0
1530 -598 0
3637 1492 0
2951 -1313 0
3525 -1334 0
2728 1315 0
-232 762 0
2958 -1768 0
-1654 1308 0
2431 1586 0
-223 2470 0
2091 484 0
389 3224 0
2612 387 0
-370 2040 0
-1715 1672 0
2 -1720 0
2830 2038 0
-40 830 0
576 1144 0
-1686 113 0
-2952 1427 0
-2681 -2476 0
2810 -577 0
-2840 248 0
-2006 1385 0
-271 1887 0
-3443 155 0
1638 666 0
-577 -573 0
112 -3500 0
2765 3494 0
-2912 2801 0
-881 2875 0
1150 1755 0
2643 -2054 0
1844 -1122 0
28 1830 0
2991 3118 0
2768 1255 0
1162 -542 0
2353 -2371 0
-3282 -2453 0
-2507 2172 0
-489 617 0
2217 277 0
-226 2436 0
2073 3413 0
23 3488 0
2146 2632 0
3321 -90 0
3508 2171 0
-1680 1784 0
-157 1260 0
663 1221 0
424 -2257 0
2335 382 0
3281 1480 0
482 3373 0
1567 -869 0
2760 -3431 0
1833 1748 0
296 592 0
1131 1728 0
3309 -3186 0
-1395 -1825 0
-3474 3520 0
1210 3204 0
974 -3597 0
3259 -2287 0
2459 1838 0
-365 2885 0
-1377 1567 0
-3467 690 0
-1686 3249 0
1318 1153 0
3622 2369 0
-2826 -3420 0
2640 1907 0
-2045 3128 0
-1029 804 0
-1892 -3322 0
1729 -3345 0
-3016 2609 0
364 -1835 0
-2684 3334 0
-2650 -1547 0
-3344 1477 0
229 782 0
-2412 -2565 0
3588 41 0
1820 1655 0
2951 1002 0
544 1498 0
-3071 -2864 0
402 1084 0
3023 1250 0
-217 2387 0
-3468 -2058 0
2419 -2062 0
2084 -1667 0
-401 1232 0
-1484 1621 0
614 -291 0
-436 1672 0
3387 1062 0
-2530 2369 0
870 2178 0
-1283 2904 0
-3618 3578 0
-2035 -1116 0
-2083 -3604 0
1977 -2154 0
1293 1238 0
139 -3381 0
306 -3185 0
-1820 1527 0
1947 1100 0
1745 -2131 0
3373 2325 0
138 -159 0
2226 -1932 0
-2118 -179 0
-1246 685 0
673 -3261 0
-2606 -451 0
-2556 -3218 0
2119 1005 0
2045 -1833 0
-1022 -2290 0
1060 3008 0
-1639 3429 0
3143 -3123 0
2611 -3056 0
-250 3338 0
-1402 -845 0
2252 -2708 0
1723 3245 0
1068 -3434 0
-3244 -2626 0
-2572 -590 0
3023 -16 0
3011 2487 0
-203 -1159 0
1672 -2142 0
-630 -1054 0
-1963 2618 0
980 -1332 0
2482 3513 0
-1751 1599 0
344 3048 0
-3618 2890 0
-2584 -232 0
-91 -2277 0
-2314 279 0
777 1574 0
1376 2667 0
-1572 -274 0
-2841 -3150 0
2796 3507 0
-2781 2114 0
928 -3356 0
-1582 -1100 0
3540 1547 0
466 -2252 0
1101 -2307 0
3516 611 0
3075 -232 0
3064 1626 0
-2888 -1178 0
-720 -2131 0
-3568 1777 0
-629 2233 0
-2336 -1799 0
-2314 268 0
-134 3046 0
3131 2625 0
328 -2577 0
-3600 298 0
1358 -1682 0
-162 -2777 0
1050 -979 0
-3542 2940 0
-30 -528 0
-3092 -2781 0
3595 2158 0
-264 1220 0
-1199 -2837 0
-195 -2915 0
88 3176 0
1142 -2914 0
-2173 2086 0
1715 -3213 0
-278 3486 0
3621 1768 0
-791 -2152 0
-571 527 0
-1450 2659 0
3028 -3050 0
-2318 -577 0
161 -1735 0
-103 2418 0
3585 -2435 0
1196 -1705 0
-885 -1793 0
1464 -1235 0
-1147 -938 0
-2510 -2557 0
-3628 -2019 0
-2959 -2234 0
-1863 487 0
-3582 -3493 0
1242 -1624 0
1686 -1512 0
2355 619 0
699 3210 0
-27 -1815 0
-2787 -702 0
-1692 507 0
-1321 -1323 0
-23 -872 0
3449 -660 0
-2142 -2677 0
-184 1719 0
-1015 2051 0
2167 985 0
-688 1910 0
195 -606 0
602 -1325 0
601 1189 0
-2901 331 0
-512 -2550 0
413 2291 0
-1545 -3320 0
-3084 -3436 0
-3183 -1272 0
-2200 1028 0
2996 -2980 0
660 -3343 0
-3511 2705 0
1617 -2675 0
-3584 -2806 0
3395 -1178 0
490 195 0
-3422 2980 0
-3020 175 0
-335 -1524 0
-493 -1880 0
-840 473 0
2635 -836 0
1038 1118 0
3542 -1252 0
2161 -2209 0
920 -981 0
-2808 -1581 0
-3463 -2317 0
-962 3137 0
1340 -1877 0
-2913 -3306 0
1609 484 0
-2737 -3522 0
-2717 -816 0
2359 2063 0
-3410 -876 0
-1635 -8 0
2323 331 0
-1438 -3220 0
-2721 2086 0
70 -3514 0
-832 580 0
2950 2490 0
-1466 -1909 0
1675 -1563 0
546 -3231 0
-648 840 0
2417 -1569 0
1754 -3524 0
-2367 -2181 0
-187 729 0
-2780 -3616 0
2263 2970 0
-2675 -1146 0
1163 -3265 0
1394 -2256 0
-1587 411 0
-3090 -3185 0
-71 621 0
-3292 3540 0
2208 2298 0
-1565 2024 0
-381 1968 0
-3220 -2140 0
1619 617 0
-1429 438 0
3516 662 0
-3329 2666 0
2638 -1624 0
387 89 0
317 1326 0
3045 3242 0
1131 1840 0
1889 188 0
1792 1547 0
-1193 2162 0
175 -3443 0
391 -736 0
-3270 960 0
-1138 851 0
-876 -575 0
-1331 -1723 0
-3524 2786 0
-765 3042 0
-354 852 0
3061 -2100 0
2133 -2610 0
-892 553 0
-3145 1262 0
-1054 986 0
-2844 -63 0
-1540 -2559 0
-1385 -2714 0
404 196 0
-2392 2978 0
-3399 2793 0
-2493 2222 0
1948 -999 0
-200 -1594 0
1517 -1418 0
3471 -2880 0
-2012 851 0
3298 2924 0
-997 2714 0
-1438 774 0
1338 2239 0
165 -1063 0
-3386 2402 0
-1846 -704 0
2390 -1519 0
-2317 -3321 0
-1274 2610 0
-1709 2986 0
1648 892 0
1382 1928 0
-2316 3646 0
-3172 -1149 0
-1622 -1769 0
78 -1404 0
-1559 2188 0
2627 1964 0
-558 2985 0
-1456 -2339 0
-2795 -1583 0
1283 1908 0
1316 1236 0
-3130 -518 0
3407 -1087 0
-146 -2948 0
-1362 1832 0
-3571 -817 0
1335 -1078 0
-2872 -1656 0
1937 -3627 0
2541 1391 0
1657 2419 0
-2969 2747 0
1338 1334 0
-2902 3111 0
1326 2522 0
-738 -3279 0
-3161 -3122 0
-3500 -383 0
3119 -3609 0
-549 -1055 0
-1690 1481 0
323 -1279 0
3440 2986 0
-83 462 0
113 1979 0
-2651 3085 0
2954 -2890 0
-2955 -2609 0
1018 2074 0
-3596 1615 0
-1549 2966 0
3310 3438 0
1321 -1693 0
-588 1446 0
2179 3452 0
3427 -2430 0
-1114 -3371 0
-1898 2857 0
-32 268 0
-958 3517 0
3511 -1778 0
-2967 3211 0
1113 -1045 0
3363 2841 0
315 -823 0
3420 -1758 0
-330 -2032 0
3383 1986 0
-1603 1151 0
380 2510 0
3248 2049 0
-1334 -991 0
1838 2778 0
1904 3203 0
-830 2274 0
-3172 665 0
-2492 3036 0
-1893 -771 0
2270 309 0
210 470 0
2252 -3417 0
3455 567 0
916 1210 0
1092 -1959 0
1310 2679 0
3412 2290 0
3440 1809 0
3103 74 0
-860 -805 0
-639 1303 0
2229 235 0
3544 -2244 0
-37 -132 0
-2846 -771 0
-1489 -1185 0
1306 -2501 0
3157 -3575 0
-403 -2066 0
-1461 -119 0
1177 3166 0
1138 -1679 0
538 -2366 0
1686 -2609 0
2992 -2574 0
-2120 167 0
2656 633 0
-228 2839 0
3497 2539 0
-1846 2107 0
-2047 -2655 0
368 -3517 0
1304 -1859 0
1557 2 0
-917 -2309 0
442 125 0
2580 -1516 0
-3570 1719 0
-2030 -732 0
2550 555 0
-2736 -266 0
-671 2305 0
-1447 -2295 0
511 497 0
-3102 -2069 0
-1401 -2923 0
-1413 -2193 0
490 -2204 0
-3376 -2274 0
-818 3593 0
-2280 1898 0
-2849 -1137 0
-2238 2594 0
2821 -1456 0
-623 2601 0
562 2097 0
-2198 -2083 0
2038 1889 0
-411 -1988 0
495 155 0
2122 -2725 0
3495 -957 0
1517 -2293 0
-288 -1221 0
2989 1317 0
1807 -3117 0
2367 1256 0
-3263 -2670 0
-867 2656 0
-676 619 0
1494 2902 0
122 2667 0
-230 3461 0
-2287 1800 0
1431 -3050 0
411 -1080 0
619 212 0
-791 -1392 0
-1712 559 0
1015 1982 0
3321 249 0
474 -1948 0
-2632 -2135 0
2927 -3134 0
-1235 99 0
-2896 -1677 0
-3376 -1852 0
-612 -218 0
-815 764 0
1594 3529 0
1661 1875 0
-278 -946 0
-1205 3100 0
-2390 -358 0
3505 847 0
-1721 -876 0
3508 -2259 0
-2948 -120 0
-3369 -2118 0
720 2581 0
-2712 992 0
641 3529 0
-572 1532 0
-1097 -1739 0
-448 1073 0
-2367 532 0
-2727 1440 0
3103 -2143 0
-458 -2164 0
-792 -1548 0
-1529 -1084 0
-3560 3276 0
906 -3640 0
2273 -2378 0
589 3287 0
-1923 -2752 0
-3431 -2629 0
3629 -1873 0
1424 -3035 0
-2217 -224 0
2032 -1418 0
2120 2849 0
-2195 422 0
1983 -294 0
-557 2184 0
-1270 -2577 0
1052 -255 0
2298 57 0
-2461 2174 0
-3598 1730 0
-3556 2559 0
3652 2730 0
2987 -1014 0
-2219 1407 0
-2422 1724 0
2122 831 0
49 1058 0
3234 2290 0
-3532 -3322 0
-381 -2062 0
1365 -35 0
-3191 942 0
-2112 1300 0
-1536 -383 0
-732 -1124 0
3506 3253 0
2511 -721 0
1177 -3251 0
-2196 -2869 0
1764 3310 0
1191 2722 0
3156 3411 0
2778 258 0
-1368 -1512 0
52 -1686 0
-656 125 0
-1589 1122 0
54 -119 0
3460 618 0
3017 3400 0
2208 -160 0
-1757 -2246 0
2562 2465 0
718 -457 0
587 -2249 0
2381 3511 0
929 626 0
-3110 3069 0
2662 -1343 0
-2121 -2931 0
705 -398 0
3522 1485 0
2834 1222 0
-1231 348 0
2710 1884 0
1262 74 0
3336 -1874 0
-591 1082 0
2568 -2230 0
-2576 -2244 0
-706 -3016 0
-2881 1449 0
-1924 2645 0
2360 2010 0
1611 1362 0
-1617 928 0
-240 -2864 0
-895 3141 0
2777 2977 0
-777 3265 0
-3348 869 0
-2716 1685 0
-2407 -1634 0
329 -228 0
-978 -704 0
2859 2414 0
1345 -2247 0
2186 2937 0
2151 1263 0
-3344 2822 0
2648 3426 0
577 -383 0
2287 2398 0
2656 542 0
-206 1921 0
-607 -2278 0
-3619 -2479 0
-2897 -3261 0
-2514 2458 0
-1923 -3121 0
-135 -1061 0
1236 -2982 0
-3252 3432 0
1127 884 0
687 2546 0
-2162 -1420 0
-3401 3443 0
-803 3046 0
3638 1240 0
-925 -2954 0
623 -188 0
1194 -2632 0
2940 3633 0
-117 50 0
-2566 1412 0
3217 1601 0
1427 2412 0
391 -775 0
-2365 2221 0
2548 129 0
-2030 2122 0
-3145 -3250 0
2506 -2961 0
2696 -305 0
-1322 3223 0
-971 -481 0
-3157 438 0
1669 -3596 0
-1223 -741 0
1285 -404 0
-890 1615 0
-1476 -3058 0
-2773 -2779 0
-2072 -585 0
-3511 1351 0
3070 2221 0
-2297 1179 0
-864 2883 0
-828 3428 0
-696 3622 0
2941 3385 0
968 2417 0
539 184 0
-8 606 0
-2068 831 0
2431 1791 0
2630 -433 0
-755 -2340 0
994 -1214 0
-452 -1582 0
2595 2260 0
-2896 3417 0
-192 -1682 0
-1425 -3277 0
-3090 -2360 0
3317 3084 0
2996 -936 0
750 -2502 0
-3429 -1423 0
673 -501 0
-132 -2973 0
-1941 -1156 0
-2371 -1727 0
3408 647 0
2665 2995 0
2505 82 0
2511 -3220 0
2003 3124 0
-2367 1062 0
3270 -2953 0
-3566 3079 0
-994 1104 0
1980 -19 0
43 -602 0
-329 -2987 0
3181 -2107 0
180 535 0
794 668 0
-427 -813 0
267 -1977 0
-3100 -1622 0
1397 544 0
-785 1900 0
822 -1772 0
-656 1599 0
2324 -3609 0
2358 -3256 0
2491 2864 0
1800 577 0
2250 -2081 0
-1885 138 0
2150 13 0
-2244 1088 0
3521 3333 0
-3455 -2118 0
2460 -2881 0
-3138 2966 0
-207 2738 0
986 -90 0
3043 973 0
-788 -200 0
-1979 -3058 0
1044 -3499 0
916 2784 0
2323 -3519 0
897 -607 0
2434 -624 0
2599 -3284 0
-2811 3536 0
2823 -1285 0
3562 205 0
3495 -1067 0
2646 -1265 0
-813 1175 0
-1206 2945 0
1701 -736 0
-2750 -548 0
1559 1360 0
1831 1678 0
-2058 -200 0
15 -3165 0
2658 -2823 0
-1515 3444 0
-2631 210 0
325 -2259 0
-2615 3485 0
2009 -3316 0
2382 -864 0
-373 -3088 0
2619 1487 0
2434 2523 0
171 -3046 0
-1268 -2783 0
-2369 1159 0
1152 -1744 0
-1127 3024 0
-3432 -3419 0
-351 -54 0
1475 65 0
1928 -11 0
-2809 -2371 0
748 -143 0
-1957 3283 0
-3006 -898 0
3285 1471 0
-2770 2913 0
-1836 2966 0
2968 2304 0
3078 1829 0
-700 -908 0
2008 1514 0
1587 -661 0
-12 829 0
2347 2491 0
-3446 -2885 0
-2106 -1816 0
460 -2078 0
-283 -2142 0
-697 43 0
2444 -2591 0
-828 -2101 0
-556 2024 0
2039 -714 0
432 -3560 0
-36 -1625 0
-1519 -2665 0
397 -1175 0
2331 1237 0
-2650 738 0
-2778 797 0
2109 -3441 0
761 -207 0
-2729 -453 0
16 -2651 0
-1413 3356 0
-1958 -2578 0
2525 1921 0
-633 -1917 0
-3220 -2092 0
2853 -1122 0
-1913 -1057 0
-985 -2846 0
2637 -2444 0
435 3452 0
3513 1329 0
142 2206 0
293 -81 0
2068 -953 0
2886 1875 0
345 -3156 0
-398 -1021 0
-556 -1030 0
-1346 1835 0
2954 3232 0
-1941 -2085 0
-3126 -448 0
3474 -1681 0
2914 -1564 0
536 1736 0
-1940 3012 0
-1079 846 0
-2874 -3600 0
-2957 2880 0
-3542 2162 0
2614 2223 0
3167 -1017 0
1492 -1597 0
-2647 16 0
-56 3336 0
1752 1743 0
3059 -2835 0
-3158 2390 0
1910 2208 0
-3220 2395 0
-184 1683 0
1608 3422 0
2634 -313 0
-723 3610 0
637 2979 0
-2453 -2707 0
-2618 -2563 0
2152 -3504 0
-3322 2715 0
3113 -1014 0
-717 2871 0
2499 308 0
-2113 -2837 0
-3289 -233 0
3043 927 0
1630 -1478 0
1278 1268 0
2531 -2902 0
1601 -1673 0
-3632 261 0
2257 903 0
-2251 3310 0
1260 2220 0
-1556 -3227 0
-3432 -1183 0
-3164 -1488 0
2282 2316 0
450 -584 0
1436 141 0
-821 -3005 0
-2543 -3206 0
2700 1726 0
-2326 -823 0
3148 -111 0
1706 -6 0
-1688 1280 0
3554 -1731 0
1833 -2969 0
2005 -2210 0
621 753 0
545 -744 0
446 -3627 0
351 1730 0
2125 2223 0
3576 -2677 0
-563 487 0
2874 1384 0
488 425 0
1354 2806 0
1107 -2837 0
813 -2955 0
-1940 1098 0
-1554 -403 0
-319 650 0
-281 -3524 0
1875 474 0
-2500 681 0
-3150 -3592 0
-311 3319 0
1223 3239 0
1148 -2449 0
-2031 -260 0
405 -3316 0
-2238 3272 0
-1871 1442 0
100 1837 0
-1510 477 0
1081 2562 0
-1846 -3199 0
611 2465 0
-1240 -552 0
1691 -3614 0
2261 -3581 0
-2721 -1867 0
-2253 -461 0
-662 3447 0
-1805 43 0
2225 202 0
937 -1961 0
-825 -1413 0
-947 -1682 0
-736 619 0
1091 1998 0
-3129 1882 0
-1474 -992 0
-801 -513 0
-3406 -2106 0
-2616 -1264 0
-3294 3602 0
-517 -409 0
-3494 -864 0
52 -3150 0
3636 3650 0
3579 -2513 0
-2325 3154 0
-2557 -252 0
1298 -224 0
2933 3151 0
924 144 0
-2087 -1952 0
865 2512 0
290 -2538 0
-2181 2232 0
-2924 1252 0
1972 -2818 0
3508 2662 0
-2571 2347 0
267 403 0
628 3375 0
-2265 2888 0
3417 -1689 0
157 -731 0
2672 -877 0
-298 -2510 0
2757 842 0
1006 -3209 0
-1064 -492 0
-1912 1198 0
-2754 -104 0
465 -543 0
3322 3531 0
-1719 100 0
-3419 -2231 0
-288 2458 0
2266 -3103 0
1270 530 0
-233 2010 0
3005 2841 0
-2002 2927 0
-3075 2184 0
-1147 -3086 0
-969 1937 0
1388 612 0
2811 -1281 0
2988 -125 0
-1389 2229 0
-330 2284 0
1281 802 0
3244 551 0
295 -2736 0
-2409 -1980 0
2712 -1798 0
1810 -675 0
3558 638 0
2824 1910 0
-619 3629 0
3430 -2932 0
-2171 -3377 0
3050 -2853 0
50 2664 0
2262 -2674 0
-579 -1750 0
-1558 -213 0
2414 1891 0
1859 -1930 0
-3529 1310 0
-2526 -222 0
-2494 3573 0
1302 -2267 0
2979 -2474 0
-380 135 0
1912 385 0
-2455 342 0
3525 1545 0
769 2968 0
3091 -3471 0
2796 -2749 0
-1450 3451 0
-2473 74 0
1484 -3619 0
1860 -1614 0
1862 -3249 0
1714 65 0
-776 -2476 0
3371 -2738 0
-2910 2696 0
1673 -1047 0
-2591 -2232 0
-3311 -2312 0
150 -749 0
-1802 2223 0
-3332 3366 0
2741 2282 0
-1053 1486 0
-2615 444 0
-398 2410 0
139 1459 0
1965 2803 0
-1830 -2074 0
2541 -1813 0
666 -3483 0
2343 -3541 0
142 885 0
3080 3447 0
2207 -2206 0
1437 -3308 0
-620 -2649 0
-2575 653 0
-957 2393 0
-688 -1777 0
-451 -3605 0
449 3059 0
-923 -3477 0
-3586 2077 0
3392 -2247 0
1091 -1281 0
833 -1772 0
1094 -2685 0
-491 -2814 0
-2032 409 0
2170 3520 0
-344 2658 0
-178 -2277 0
-2922 2730 0
-2289 176 0
378 301 0
845 3270 0
-2544 -817 0
1488 1408 0
-3436 -2800 0
-3291 -2619 0
-2068 -1753 0
-283 1393 0
-3242 1858 0
1098 395 0
523 -2061 0
-2810 1332 0
-3276 -168 0
1618 -603 0
-2671 544 0
-2040 2315 0
2490 -3490 0
3366 -451 0
1489 1832 0
-3386 -44 0
2362 3485 0
-470 -384 0
3167 -1604 0
-288 2607 0
-3582 3186 0
2013 -3273 0
-836 87 0
579 -3540 0
1276 1805 0
2029 -854 0
465 -2061 0
2167 -2009 0
-674 1043 0
-1590 1434 0
3652 25 0
389 -3174 0
-1053 1513 0
-636 1046 0
-3516 -1312 0
-144 181 0
1110 2190 0
-3550 -1185 0
2086 2129 0
-1830 538 0
-2600 -1297 0
2194 673 0
-423 -379 0
23 -3620 0
-377 2672 0
3124 963 0
-2921 2464 0
95 -3287 0
-1737 -880 0
-2569 -2125 0
-1883 -199 0
691 2886 0
-2895 -3277 0
564 -783 0
-680 2703 0
-3086 2380 0
-2359 3228 0
2989 3061 0
-1844 1318 0
1490 2646 0
2741 3141 0
-850 -2278 0
2668 -3244 0
-602 -2852 0
2861 748 0
-2322 -2551 0
3426 -3514 0
-3382 1359 0
-1149 886 0
-2197 3193 0
-1157 1662 0
-1311 66 0
-569 697 0
-2256 -217 0
318 1131 0
769 3203 0
-2497 1574 0
1435 515 0
-64 1816 0
102 2946 0
2324 3407 0
-964 -1350 0
-340 2859 0
2388 3064 0
682 3317 0
2019 2530 0
1106 -2803 0
2431 2220 0
3432 3196 0
-1588 214 0
2773 -2134 0
-2968 -1689 0
-1817 -687 0
-2239 -3511 0
-1848 1897 0
3356 -3578 0
-3182 -2244 0
-1572 1641 0
-386 3321 0
1602 829 0
-199 -1450 0
2369 -2094 0
297 562 0
-3031 -1963 0
-606 1670 0
-199 742 0
2861 -247 0
-401 -439 0
2033 -1203 0
-1554 -2448 0
-2973 562 0
-3134 -2187 0
-893 2590 0
3504 -1122 0
1549 1814 0
1360 -2595 0
2980 -1265 0
-1598 -2052 0
267 -1680 0
2541 -431 0
-2704 -332 0
-1920 -3166 0
1480 -3461 0
-2150 -3639 0
2962 -803 0
-630 -1873 0
1144 2633 0
1593 3473 0
-3011 309 0
-3100 212 0
724 -202 0
-2169 2488 0
1565 -813 0
3116 2861 0
2151 937 0
2293 -1575 0
3203 326 0
2832 -123 0
2941 -2271 0
-964 -617 0
-2690 274 0
-321 3303 0
-2143 3182 0
-3408 -3431 0
601 -483 0
-716 1787 0
2371 1675 0
1251 -1507 0
538 -3143 0
-3175 2956 0
-1662 1868 0
-686 -942 0
-1705 -1614 0
880 -785 0
-698 885 0
1773 -989 0
-214 -1597 0
-1389 2966 0
1966 -2530 0
710 322 0
-1820 2980 0
3636 1604 0
440 -702 0
3332 1059 0
776 2624 0
1277 1409 0
-275 -342 0
-1453 -3222 0
-2339 -1952 0
-1858 -269 0
-2535 -897 0
-2177 -1476 0
1011 -2936 0
-1042 -1730 0
-3528 -1571 0
-1039 -421 0
-1115 579 0
2 352 0
-2784 3089 0
300 -1449 0
495 -1156 0
1480 -842 0
-2788 1293 0
2991 2281 0
1896 -517 0
354 1079 0
-581 2205 0
-70 -3214 0
-715 -917 0
21 3433 0
-2565 642 0
2447 -1207 0
-3328 3118 0
-3190 -3087 0
-441 1104 0
-1048 3469 0
309 762 0
-1297 -1713 0
2241 2053 0
-3254 -852 0
-1504 1858 0
-288 -3515 0
323 1640 0
-324 -1304 0
-3120 -2862 0
-2898 748 0
-3474 -887 0
-2043 -2076 0
355 -3485 0
1009 -2194 0
-3417 -2896 0
-1148 1107 0
2734 3483 0
1894 -1439 0
-719 -2025 0
135 2831 0
-2446 2262 0
-3462 -1331 0
1296 2568 0
-878 -3642 0
-744 2217 0
-1968 -938 0
-1886 -2567 0
-1927 -1456 0
-1977 -3287 0
-1799 -1795 0
-706 -159 0
-2399 2573 0
-2267 -3494 0
2761 3001 0
332 3502 0
-597 372 0
3107 1359 0
-1153 2167 0
-1848 3219 0
-825 -2153 0
-1880 2156 0
3485 2347 0
1128 -3254 0
-453 3385 0
689 1940 0
-2338 -3325 0
503 2431 0
-153 436 0
-469 429 0
983 -3351 0
-3404 1945 0
-2461 704 0
-3293 1232 0
-416 -3485 0
641 -2745 0
-1709 -2423 0
-212 1498 0
-3619 1427 0
-1473 -902 0
-2553 -2894 0
-162 -3058 0
-546 2095 0
219 2348 0
-2600 -1562 0
1677 -771 0
246 -3423 0
452 1104 0
-1902 2329 0
474 -2561 0
166 -615 0
-1708 2250 0
-3068 -1475 0
1279 1494 0
-845 -1249 0
1052 2892 0
2743 -3645 0
-735 1329 0
-2072 -2540 0
622 2986 0
-1439 -2074 0
3502 967 0
3031 -3494 0
-818 -1708 0
-1260 -339 0
-3017 -1933 0
-1267 -2924 0
-2839 -1215 0
69 1095 0
1087 -1821 0
-2946 -601 0
1534 -2661 0
-2155 -3291 0
3133 -1849 0
-886 1255 0
2674 3503 0
-543 -486 0
2196 -1132 0
2192 312 0
-41 1271 0
-1782 -708 0
-913 1437 0
-785 876 0
869 342 0
1405 3527 0
-701 -3533 0
3238 -3208 0
2284 1628 0
-1750 -3434 0
-946 -918 0
-1879 -3147 0
1673 3478 0
-1630 -919 0
-1583 2801 0
-1747 -2415 0
-2598 344 0
3438 -1681 0
-2558 348 0
2193 -2267 0
-320 -198 0
-2822 -2069 0
3592 -2565 0
1474 -1776 0
-2781 3014 0
-1436 1568 0
3147 3048 0
2146 2167 0
1703 -690 0
-1743 -1692 0
-206 -2890 0
-512 -2171 0
-1912 1354 0
1520 -2076 0
-2674 1975 0
3286 776 0
-2490 376 0
-941 -1528 0
2950 -787 0
1722 -2760 0
626 1144 0
-69 102 0
1552 -3106 0
-179 1113 0
141 2677 0
1567 3467 0
-1636 2296 0
1749 1815 0
-3372 -1879 0
-2785 -3352 0
2041 2979 0
-103 -2027 0
-3300 -882 0
-2912 1453 0
-110 3472 0
1204 -627 0
-2157 2365 0
180 2341 0
-1573 -409 0
-3522 -1709 0
-975 -230 0
941 2167 0
1464 960 0
1266 449 0
1133 -2204 0
-2068 2290 0
-2007 -2071 0
3625 -2363 0
503 2744 0
3301 -3152 0
-1161 -2276 0
429 505 0
-246 -1920 0
1703 -1748 0
-720 -116 0
2902 -2449 0
1203 478 0
2935 -3474 0
839 -463 0
681 -1440 0
300 1950 0
-3240 1114 0
2915 514 0
1023 -2726 0
-1458 -2847 0
3529 -1517 0
-2430 1375 0
555 190 0
2648 -3266 0
-1790 -747 0
977 576 0
-1118 -233 0
2638 2433 0
-438 1852 0
618 -211 0
2862 700 0
-1899 -2152 0
1253 153 0
3007 -3530 0
2414 -1737 0
-435 -3103 0
3099 -2000 0
-3384 2102 0
-1409 -717 0
2917 -1278 0
-3461 -1112 0
-2715 -563 0
-1233 -567 0
2030 -1099 0
3253 584 0
-3565 3547 0
-1682 885 0
-2694 -3524 0
-1421 -1572 0
-1178 -1245 0
3073 -1922 0
-2283 -1871 0
-777 -3015 0
2827 -3191 0
483 -979 0
1595 -2182 0
969 -528 0
1516 -2957 0
3238 -2975 0
-1053 1223 0
2770 -2562 0
-451 -2463 0
916 3523 0
-2723 -515 0
3486 -2201 0
-3140 -693 0
-1523 1156 0
-848 481 0
-1285 625 0
-2486 -379 0
3238 -2628 0
-3613 2708 0
1363 -811 0
280 -936 0
3233 292 0
2883 135 0
1316 -399 0
-3442 -2449 0
2747 -1494 0
-505 3145 0
-3583 -3645 0
-1426 -604 0
672 -1892 0
-2533 16 0
3294 291 0
-2140 1124 0
1558 -3514 0
-3428 1070 0
1843 2373 0
154 2527 0
2871 -2127 0
-560 2713 0
1706 -3013 0
2886 -2544 0
-2468 -59 0
-695 -27 0
1387 2589 0
1412 342 0
3622 -2033 0
2619 3034 0
2933 -3454 0
666 422 0
2604 -285 0
-2636 -1872 0
-1402 1479 0
968 -2142 0
24 -1705 0
-1292 2459 0
-1114 -454 0
1773 -850 0
-1525 684 0
-545 -1163 0
-2124 2804 0
-3596 -647 0
-2779 127 0
2704 1240 0
2091 334 0
995 -2356 0
-2971 -1549 0
3076 -2753 0
-2226 1576 0
1104 1481 0
-3122 1314 0
-6 -1829 0
3004 2355 0
2905 236 0
1108 -3330 0
2794 1476 0
-641 1379 0
-23 279 0
2380 720 0
-1274 -1123 0
1020 -1018 0
270 -2109 0
1647 -576 0
829 -1359 0
-792 -784 0
-758 541 0
3338 252 0
-3443 -130 0
-1993 3407 0
-1394 184 0
-3359 -439 0
-2994 2775 0
2062 2663 0
3061 -2842 0
-1691 -3188 0
3646 -2834 0
37 -3531 0
2512 -1681 0
-957 1028 0
3649 273 0
-2763 2497 0
417 -2896 0
3478 3170 0
3197 -2841 0
-1698 -2452 0
2509 704 0
1668 2678 0
-3165 3129 0
-2524 825 0
3263 -2049 0
2308 3111 0
3639 3042 0
2225 554 0
12 -271 0
-1178 -51 0
855 -1116 0
3140 -1478 0
3135 -3028 0
-898 528 0
3062 1429 0
-122 -2037 0
-1107 -3419 0
-1763 -2877 0
-1848 -3612 0
375 3403 0
-3651 2790 0
-1952 3417 0
-3297 -3279 0
2123 1276 0
2348 -1027 0
-171 2664 0
3100 -1550 0
-285 -50 0
-3651 -3038 0
1343 450 0
3584 -484 0
-1708 -2888 0
-241 2334 0
-3497 -106 0
-3314 1702 0
-3594 635 0
36 -2817 0
313 -1707 0
901 1783 0
-1371 -2423 0
1250 -500 0
-402 -2872 0
-1228 -1506 0
-1950 -246 0
1219 -903 0
-2220 -988 0
-1654 -1644 0
3359 -162 0
1388 -1505 0
2905 2009 0
-3592 -1044 0
-2622 -1868 0
-2165 827 0
367 -2231 0
3107 -3314 0
-3526 3576 0
425 -1528 0
2930 -2521 0
2637 2707 0
-1064 3500 0
-36 1420 0
-1045 565 0
1979 780 0
2250 -1467 0
-3650 295 0
-2622 3304 0
222 -2033 0
-224 3030 0
1215 2683 0
3360 1875 0
3275 -1245 0
419 -1575 0
1521 -1064 0
-2152 -67 0
2315 -3437 0
213 -1659 0
-848 -2124 0
1446 3369 0
-779 -2809 0
-3054 1722 0
-2861 -2630 0
1956 -1618 0
-272 -3400 0
-550 -2202 0
-2798 -3550 0
3412 3513 0
-1059 2203 0
-1805 -3528 0
-2231 -2831 0
202 -868 0
2059 2348 0
2597 3242 0
-865 -2057 0
-3256 -1432 0
-836 -3553 0
2293 -2115 0
1327 2197 0
1687 1836 0
-1423 -1060 0
-2059 1828 0
-721 894 0
2387 2111 0
2120 -291 0
1513 3154 0
3596 2239 0
3651 251 0
-2160 1336 0
-1207 -2258 0
-1409 -1944 0
-947 -209 0
633 363 0
2911 2098 0
1217 -2198 0
3479 -652 0
-903 -145 0
-1951 -3151 0
-500 -1930 0
-2670 -3408 0
1768 2087 0
2403 973 0
626 407 0
2683 -2080 0
-3312 341 0
525 3273 0
1938 2430 0
-2025 -2317 0
851 -3419 0
-2538 -435 0
-2881 481 0
-3376 965 0
-266 280 0
-3412 -1854 0
-2892 518 0
922 -1267 0
1904 2365 0
-2112 1253 0
-550 -1526 0
1912 118 0
2503 -422 0
-1336 -830 0
-3050 -3160 0
1558 356 0
746 -3112 0
-1284 2838 0
3188 -269 0
23 -542 0
-1413 -148 0
938 -252 0
550 2274 0
-591 -1073 0
-3540 -1516 0
-2404 241 0
2810 -667 0
-3096 1405 0
-409 -1371 0
-763 -2033 0
-718 1891 0
426 -2596 0
-499 2538 0
-2325 -2108 0
2803 -39 0
-2489 -2770 0
-1536 2942 0
-1003 704 0
434 3449 0
594 -1302 0
-2018 -2210 0
2570 -496 0
-1225 -1216 0
-459 -2427 0
2559 2316 0
-967 3185 0
804 3582 0
-3013 377 0
893 321 0
2651 -2758 0
2937 413 0
-1178 -946 0
-2527 -2163 0
2207 3128 0
1592 -621 0
-104 -3154 0
3491 -2897 0
-572 -3192 0
1449 1492 0
2014 734 0
2224 -2701 0
1376 -2719 0
334 -2325 0
1607 -3435 0
1956 -2608 0
2699 -2460 0
-1200 -580 0
3520 -705 0
647 -2153 0
83 568 0
623 -1545 0
2369 1177 0
-733 -2984 0
88 670 0
-1699 -2953 0
2709 2054 0
2093 2566 0
-1425 -3019 0
2929 3605 0
-3363 3148 0
-2088 -835 0
1477 2729 0
3229 -861 0
2802 -2052 0
-1469 794 0
2079 1874 0
-1108 -3206 0
-2892 -2466 0
-2371 -2300 0
-3588 2682 0
-3598 3199 0
-1577 -713 0
-3574 2728 0
-2569 -1535 0
-759 -3363 0
309 -1798 0
3238 1225 0
-36 -1006 0
1086 907 0
2962 2526 0
-1352 -514 0
-2010 -2601 0
-2275 3083 0
2926 -2782 0
2000 1652 0
3109 -3341 0
-1776 154 0
-1185 2466 0
-3329 2302 0
-2670 -1004 0
2378 -2880 0
32 -1714 0
1612 -2227 0
-3625 3203 0
-2593 1293 0
166 2660 0
933 3215 0
1709 -2325 0
896 -304 0
45 -231 0
-955 -1755 0
349 -46 0
-3524 812 0
-2792 -2074 0
2092 -1790 0
-2887 -508 0
-1695 1464 0
1861 -2792 0
1734 -797 0
1670 432 0
-1303 -2673 0
692 2717 0
71 -2218 0
-2403 -2858 0
-2986 3115 0
2650 1651 0
460 -955 0
1675 3551 0
-3564 -2231 0
-2404 1560 0
2274 -3540 0
2280 586 0
3005 -3488 0
-1692 -3031 0
2769 1924 0
-2852 1832 0
-952 2920 0
2034 1582 0
1255 2950 0
611 3539 0
-3239 -414 0
192 -3447 0
-2956 2895 0
-1069 -512 0
-2861 2861 0
-1556 119 0
-1505 -2182 0
1585 1002 0
2190 -766 0
3059 2771 0
2867 2922 0
-1497 3541 0
642 3434 0
-3609 -1816 0
-3426 3576 0
2612 -3287 0
-2576 -1540 0
2967 -2738 0
-1341 -3250 0
3109 2352 0
-2696 935 0
2020 985 0
-1713 2530 0
-1897 -2058 0
305 -3316 0
369 3641 0
-2025 -889 0
-608 -1635 0
-2596 -3016 0
2064 -149 0
1375 -2842 0
649 2861 0
2930 2371 0
3589 -630 0
3261 -463 0
-939 176 0
-1180 -1510 0
2084 -1397 0
-298 469 0
2071 -3592 0
-2929 936 0
2877 -1489 0
1966 -3511 0
2525 -1550 0
424 -1708 0
-2661 -2653 0
2281 -3242 0
3233 -2067 0
2370 370 0
-2117 -2896 0
375 2522 0
3111 3037 0
3487 -1569 0
-403 -90 0
-2467 -190 0
1110 -3277 0
-654 -3127 0
2038 -3190 0
-1089 -1093 0
1035 1439 0
-1681 -820 0
579 -157 0
3151 -689 0
32 -1454 0
-1347 -497 0
1038 1388 0
-2275 3228 0
391 192 0
-683 935 0
445 2380 0
3503 3080 0
-2958 378 0
-1205 -945 0
-56 -1119 0
538 -1329 0
-946 2215 0
2305 -1944 0
-1477 -77 0
1527 -2620 0
1773 2185 0
3640 -705 0
1175 -2652 0
-2449 3091 0
2901 2711 0
1814 598 0
3135 82 0
-753 3550 0
87 1111 0
502 1638 0
-1856 3042 0
-1079 -2894 0
1085 -3608 0
-2964 -153 0
-2378 -538 0
1941 -1515 0
-1372 -2157 0
2908 -3232 0
-3205 2330 0
495 2018 0
487 176 0
3330 2096 0
-3294 1693 0
-1664 59 0
3251 1376 0
-239 -328 0
1482 -1718 0
974 -563 0
3103 1506 0
575 -1941 0
-3409 -743 0
-3488 1589 0
2903 1432 0
-2133 -2996 0
-574 -186 0
630 658 0
495 -528 0
-1361 -1257 0
527 858 0
1416 -1323 0
191 724 0
-3648 813 0
1340 814 0
-172 252 0
733 3172 0
3513 2091 0
-1133 2066 0
-1943 -347 0
-253 -3364 0
927 -981 0
-3005 1046 0
-2391 1436 0
-1648 -2579 0
-1088 2011 0
665 135 0
-3589 -305 0
2080 -2719 0
2347 1983 0
-48 -1234 0
-698 2136 0
3334 -3538 0
1174 -818 0
-3170 131 0
1918 814 0
2445 -991 0
-2202 -1658 0
2296 -1909 0
-1249 -3251 0
-954 -321 0
1253 -320 0
253 -1661 0
-1944 2130 0
3162 3076 0
970 1669 0
1340 -704 0
-1054 1103 0
1201 -793 0
128 -3049 0
1337 -140 0
348 366 0
2331 2898 0
-2884 2232 0
-404 -1095 0
-2065 2290 0
-2529 2961 0
-3038 3606 0
-3090 3606 0
-624 2664 0
-3316 1473 0
1007 495 0
109 -2690 0
643 552 0
3103 673 0
373 -2130 0
3344 1887 0
1405 -1541 0
-1219 -1435 0
-1929 -2460 0
-2610 3633 0
-866 -1347 0
716 -3093 0
-2366 1481 0
1399 -2963 0
-618 -1064 0
3080 3357 0
3460 1665 0
353 -2898 0
-659 -1756 0
1253 2878 0
-3619 1686 0
-2842 3078 0
-1495 -1617 0
-3626 857 0
-2575 -1559 0
-2393 -1899 0
-3307 1611 0
1007 -1906 0
-2367 1276 0
3435 1881 0
-2766 -3112 0
-3501 349 0
-2536 1304 0
2366 -3514 0
3546 -189 0
-1452 3012 0
-780 2806 0
1139 758 0
541 -2683 0
-1099 3339 0
139 2665 0
2022 -3033 0
2820 2583 0
3321 3388 0
3033 615 0
576 -596 0
-2043 -2055 0
-2471 -2462 0
2841 -769 0
2162 -124 0
-919 1693 0
-3335 939 0
-1084 -1944 0
940 -90 0
-1161 -2527 0
1613 -1673 0
1652 3643 0
3392 -11 0
984 3441 0
3309 2360 0
-2206 -1834 0
3476 1882 0
1461 -3372 0
-3325 -3516 0
-455 -1429 0
1241 -2064 0
-520 1907 0
-1335 -3152 0
3410 1506 0
2950 -1440 0
-2819 -991 0
1862 2120 0
2877 5 0
3103 -3540 0
-3393 408 0
-38 192 0
45 -3153 0
3038 2440 0
2205 1089 0
3576 -1522 0
-2484 -2059 0
-607 2997 0
2758 167 0
-1620 934 0
-3335 -2248 0
-3147 -2632 0
3416 2698 0
71 3069 0
-289 1618 0
497 2649 0
-2775 -2582 0
-408 2420 0
1382 364 0
-1421 3480 0
-2084 1771 0
326 -108 0
3333 2693 0
-811 -1673 0
-1055 -3285 0
1600 2751 0
-3441 -2388 0
-3379 2117 0
-1337 -1257 0
2625 610 0
2286 3140 0
203 2635 0
2888 -2780 0
-1625 -2177 0
487 782 0
-701 -2048 0
-1628 -550 0
773 -2130 0
-528 -637 0
-786 473 0
847 -640 0
127 -3170 0
1429 2098 0
3580 1842 0
3580 1024 0
-1074 2951 0
-2163 1998 0
896 -3218 0
-2567 -3264 0
-3556 -2673 0
2902 -957 0
-1132 -1168 0
947 2172 0
-2256 2170 0
3024 2870 0
-1295 -3431 0
3599 551 0
-481 -3335 0
-3404 -2088 0
2658 -3417 0
-2956 2652 0
151 1374 0
1187 2771 0
1765 1345 0
869 -235 0
-2012 -1406 0
1075 3188 0
-1892 -3609 0
1222 3018 0
-715 3060 0
3194 760 0
-430 901 0
238 -3549 0
859 -2450 0
-775 2323 0
-2452 -2307 0
-2353 -1787 0
-1094 -1352 0
-480 -3023 0
-3461 511 0
47 247 0
229 2703 0
2579 55 0
-558 -1721 0
-150 1974 0
-1097 -2929 0
-1914 115 0
2804 -89 0
-188 2073 0
663 2531 0
-720 -528 0
2248 440 0
-2621 1120 0
-3288 -3178 0
-2169 -1821 0
2448 -1949 0
-3406 -749 0
-1474 -3187 0
506 -2871 0
142 -434 0
-2288 1981 0
2771 3250 0
1771 -3173 0
-949 -423 0
3492 263 0
-3028 3475 0
-173 962 0
1191 -2898 0
3199 1557 0
-3396 753 0
-920 -1504 0
-998 511 0
-2868 -3037 0
520 2531 0
1020 1766 0
-1353 -2956 0
1313 2828 0
160 -2032 0
-483 2010 0
-2555 200 0
-2352 -393 0
1491 906 0
745 -972 0
2861 -3125 0
-2711 677 0
3100 -1814 0
-3134 -2716 0
3539 2806 0
2386 -214 0
-1664 1893 0
-2275 2982 0
-1959 2472 0
-1481 -3231 0
3426 3187 0
908 -708 0
-523 773 0
174 -768 0
1577 -896 0
3427 2770 0
-262 155 0
-2124 -3145 0
-3401 677 0
3617 -2432 0
1597 -2749 0
-13 -2845 0
-1494 -22 0
-3348 2167 0
-1186 -2718 0
-984 88 0
779 -3314 0
-1175 -1011 0
-2224 2859 0
-1686 3024 0
2197 3633 0
1804 -2131 0
-3280 190 0
1666 3255 0
2594 1206 0
-1299 1326 0
-96 3111 0
1281 1585 0
-244 -48 0
539 2351 0
-723 3002 0
-1720 -2668 0
-2958 716 0
1781 1532 0
-3291 3262 0
1822 -1965 0
-1778 -731 0
-17 -106 0
1649 -1658 0
-174 -1056 0
2095 -806 0
-1210 1336 0
2907 -2452 0
364 -2513 0
2525 -1365 0
-2316 -2100 0
3304 800 0
1910 -2529 0
3488 -1373 0
1180 -1247 0
-3029 -1957 0
1484 1586 0
1187 2282 0
-898 -2589 0
1400 -1950 0
1627 -441 0
160 1547 0
1589 -747 0
2428 -2197 0
-81 -2210 0
355 2222 0
-1265 1115 0
1320 -2244 0
2498 -3003 0
-382 1263 0
-669 -926 0
-949 -29 0
2601 -3524 0
-1368 3475 0
1174 692 0
-2247 1822 0
-713 398 0
1239 -2383 0
709 360 0
-3264 -1746 0
-3555 2572 0
-3152 3156 0
1255 -302 0
3444 37 0
3400 156 0
1791 453 0
2710 -2952 0
1037 -3268 0
1351 -488 0
-3612 -1081 0
-151 2364 0
1910 -1825 0
3514 -261 0
1547 2306 0
-1317 -2545 0
3474 3563 0
1179 -1970 0
-1738 2568 0
1094 84 0
948 -2544 0
-2640 3123 0
1783 -768 0
-944 905 0
31 1292 0
1505 -1675 0
-54 -1771 0
2375 3257 0
1585 360 0
487 -1179 0
-1764 -2356 0
-2349 -555 0
-1223 389 0
-2131 -585 0
3330 203 0
1380 2043 0
3487 1462 0
3518 -156 0
-3564 -938 0
170 2770 0
-2939 2855 0
-205 2465 0
-81 -2219 0
-484 1195 0
1829 3159 0
930 -1471 0
-2020 -3241 0
-1242 -2267 0
-2442 -1315 0
2837 -596 0
-1678 232 0
-2276 -2555 0
-1593 3248 0
-3299 711 0
1296 -3319 0
-850 342 0
2351 1856 0
2710 -2116 0
-1344 -3535 0
-753 -600 0
-2669 3391 0
448 -3574 0
2721 1453 0
2108 21 0
-2578 121 0
-259 41 0
-1373 -2857 0
-397 2711 0
-1144 247 0
-3185 1701 0
-776 -344 0
3269 -2458 0
730 -926 0
2186 3369 0
-1896 1052 0
-971 -1641 0
804 1606 0
2642 -3558 0
-104 -2600 0
914 -2963 0
3287 2732 0
1625 402 0
1991 -3446 0
-1388 527 0
1309 -2775 0
-632 184 0
2117 -3282 0
-1590 -2626 0
654 2402 0
2787 -1821 0
-1207 1082 0
311 -1346 0
-1958 -1718 0
-946 -1049 0
2257 -2133 0
-3347 923 0
3057 3259 0
742 -286 0
-3307 -416 0
3013 3007 0
1030 -1514 0
857 2646 0
1854 -3091 0
-2404 -1880 0
-803 -2886 0
-2481 3085 0
1500 2405 0
25 3305 0
-2182 3555 0
-3287 -740 0
377 1566 0
-2160 911 0
2946 175 0
1071 -733 0
2670 1223 0
-3221 -1094 0
3496 1 0
3297 -1622 0
-3563 -1669 0
3518 369 0
-763 -2606 0
2574 3405 0
1986 -2259 0
1581 2504 0
-2327 -3324 0
-3301 -531 0
-3098 2530 0
30 -488 0
-1205 904 0
2985 2611 0
1352 -1526 0
1608 -259 0
-3245 1237 0
795 -912 0
1459 -1631 0
79 1455 0
1400 2597 0
-3558 -2828 0
3211 -1261 0
-441 -855 0
3399 1852 0
1723 -536 0
2166 736 0
-751 2070 0
2712 -2718 0
383 3014 0
840 -379 0
-3591 3028 0
-1089 2077 0
3168 -1355 0
-2768 -194 0
1905 1553 0
2506 2629 0
-1894 -603 0
-2315 -397 0
-2402 1696 0
912 2846 0
118 2521 0
2271 963 0
-623 464 0
178 -2461 0
1303 -3419 0
2833 -2543 0
432 -993 0
-1042 -2684 0
3107 1593 0
1673 -3202 0
-3565 530 0
-232 1394 0
-1066 -920 0
3269 -1497 0
185 1011 0
1110 -1679 0
3577 735 0
-1153 -2233 0
2188 -2909 0
1366 -189 0
-1080 -117 0
1726 -496 0
-3214 1902 0
-1063 -3635 0
-2975 3392 0
2318 -3368 0
-1948 3046 0
-1906 -76 0
193 2782 0
-1056 566 0
-3130 -1420 0
-6 -1735 0
-736 1390 0
-1188 -3623 0
2516 -3288 0
1552 2018 0
-1112 733 0
3070 -3443 0
-2433 -807 0
1724 -998 0
658 88 0
1161 -2000 0
-3300 1740 0
3221 -42 0
-3166 -514 0
-1869 -132 0
-2295 2759 0
-2131 2838 0
3445 -3488 0
574 -731 0
-1103 -842 0
2692 -2512 0
1261 -2503 0
-1776 57 0
395 3003 0
-320 -3423 0
2559 1744 0
1508 1077 0
-1982 1327 0
-2394 -1107 0
1412 -1440 0
3066 -3226 0
1787 -3284 0
3034 1808 0
970 -2017 0
3386 1568 0
498 -2527 0
-3596 2415 0
-2050 -466 0
-1168 -2466 0
647 1038 0
629 963 0
-95 1702 0
-1167 1120 0
2874 -2214 0
-472 -1549 0
-2006 2499 0
16 2660 0
-2342 426 0
-38 -2844 0
2884 3118 0
3027 3096 0
-2473 2504 0
-3086 -26 0
-1587 2398 0
735 1664 0
-732 2499 0
2536 1259 0
-132 3099 0
-3234 -1830 0
-3649 -2206 0
1101 1656 0
3024 -2578 0
905 -664 0
2766 -2955 0
-2948 -3598 0
2528 2618 0
-3127 1625 0
-3171 -499 0
1739 -2800 0
-1111 -2881 0
3024 2339 0
2528 1580 0
1033 -3423 0
901 518 0
586 2325 0
-1777 1853 0
697 3521 0
-1080 296 0
-3217 -2267 0
-1362 -1594 0
-1003 2620 0
-2405 -3268 0
-2532 -1628 0
3590 -3134 0
-2686 -1930 0
1702 -1336 0
-348 1379 0
1015 3505 0
-1365 2881 0
-2806 -1739 0
-1498 712 0
1899 -2451 0
2442 -334 0
2841 -2784 0
2930 -2648 0
-973 -1537 0
259 -2545 0
-2955 -1078 0
-1492 -1854 0
-1824 -18 0
1861 2392 0
-836 -1386 0
-3591 -2101 0
851 -382 0
-2679 -1615 0
1424 -1031 0
1453 2055 0
2004 3227 0
3351 -1920 0
1167 -56 0
2194 -1347 0
-1704 -908 0
2340 2549 0
-395 -2196 0
-915 2327 0
-2617 1925 0
1937 -3497 0
-2497 2327 0
351 3102 0
1878 1809 0
3214 -2452 0
1455 -320 0
-3226 2928 0
-3599 2499 0
190 1075 0
2220 -1824 0
-2559 3063 0
-792 -1421 0
2047 -2050 0
-1221 2983 0
-1262 -717 0
422 1621 0
-1287 3451 0
838 -42 0
-1753 -2371 0
1310 3534 0
-2200 2705 0
-3640 1713 0
1335 3576 0
-3282 -964 0
-2748 3469 0
-3594 -1809 0
-764 -5 0
2190 -1720 0
-818 -3179 0
2630 3504 0
-2433 481 0
-291 -2686 0
-2260 3450 0
-3388 -2837 0
1927 1075 0
3064 -3129 0
-2409 1905 0
1586 1814 0
2643 -2243 0
-2196 687 0
806 -3170 0
1929 812 0
1314 1179 0
-2672 225 0
-1349 -43 0
158 -3400 0
-698 -575 0
-3401 2804 0
-3033 -480 0
1361 -1793 0
-816 1686 0
739 -2601 0
1761 -1717 0
287 -2683 0
478 2815 0
-632 248 0
1086 917 0
-3306 1345 0
175 158 0
12 2208 0
128 -2021 0
1227 1324 0
3289 -22 0
1011 -1790 0
2431 -2826 0
1494 -3119 0
2039 -1133 0
-720 -776 0
-1674 -3536 0
-2086 -2675 0
2985 -1939 0
-2958 1188 0
-867 -1350 0
2023 3534 0
-2534 3414 0
360 -590 0
-3631 364 0
-1167 1645 0
539 1845 0
3507 -477 0
1028 -3110 0
1701 1585 0
-404 586 0
2769 375 0
1052 1380 0
-1577 557 0
948 2913 0
2091 -632 0
597 -3297 0
-17 -1401 0
2705 349 0
-713 -1215 0
-613 -681 0
2543 280 0
-1535 993 0
3184 25 0
69 -243 0
-2793 390 0
-281 3349 0
-2311 2197 0
-3295 -2069 0
2693 3127 0
2678 -2990 0
-695 -1620 0
2597 -3287 0
-1226 -867 0
447 -867 0
-2923 3092 0
-3019 32 0
-3457 746 0
1781 3072 0
-1884 2498 0
-2310 -964 0
-2670 -3265 0
-716 -1614 0
-2190 -654 0
-2608 3129 0
2974 1090 0
3233 1996 0
1516 -3488 0
-2494 3396 0
551 3099 0
-727 2350 0
3596 -2953 0
-450 2305 0
1802 -59 0
830 -2837 0
2316 -1069 0
1770 3240 0
-2336 1270 0
3336 -3646 0
-585 1462 0
2736 -1615 0
750 -3168 0
658 2787 0
-2616 226 0
-702 -428 0
-35 1414 0
918 2509 0
338 -2467 0
869 -2762 0
-2023 -967 0
221 -1664 0
1575 -975 0
-2074 -913 0
-2338 -1985 0
3539 -338 0
2211 56 0
-2342 3536 0
1709 -3137 0
-1635 -2275 0
3407 1577 0
-530 -1970 0
814 -79 0
-2488 2220 0
2448 -2271 0
615 -2237 0
216 -2907 0
-76 -2090 0
978 849 0
2007 1139 0
734 -1505 0
-3292 2931 0
-114 523 0
3010 -1979 0
723 550 0
2324 3094 0
3520 -1743 0
2938 2393 0
3042 -233 0
1096 -1993 0
-549 -2159 0
-469 -1507 0
-1460 2719 0
-532 2433 0
-3531 3611 0
-2899 2712 0
-1746 778 0
-766 77 0
-3524 -915 0
16 1018 0
-302 263 0
236 -1420 0
-1750 -475 0
-2628 -1044 0
-289 -3454 0
-3451 -1405 0
-2863 929 0
-394 -2355 0
810 -2283 0
3454 -3647 0
-2719 676 0
1058 -1835 0
315 -982 0
141 3078 0
-3210 -766 0
-395 -1431 0
-3286 2854 0
-3157 2790 0
3374 2757 0
-2462 -3149 0
-1339 -949 0
1748 2158 0
1807 2931 0
1052 -3014 0
2400 937 0
-2594 2627 0
1742 1861 0
2305 429 0
1189 122 0
2193 2152 0
-1347 1468 0
1162 2012 0
-2486 -3220 0
-630 2864 0
2886 707 0
-2535 1859 0
-53 -1290 0
2992 -1377 0
1017 2886 0
688 -414 0
-2137 2846 0
2789 214 0
-305 395 0
-3646 -2651 0
-2398 3142 0
-2116 -2374 0
-244 2754 0
-2047 2728 0
-1656 3447 0
-1821 -1172 0
1314 -806 0
-2630 -157 0
2674 1177 0
-2897 2399 0
-873 2536 0
-1467 828 0
1303 2054 0
851 -3335 0
1928 508 0
795 2612 0
2293 3236 0
-2919 996 0
468 -5 0
-2606 904 0
1358 -2108 0
-2361 -87 0
-2075 -3506 0
3449 -3295 0
-1999 3539 0
2933 899 0
1669 -882 0
-571 -2050 0
-180 1380 0
-3420 -3011 0
-1717 -766 0
2889 2801 0
-3093 -1805 0
-1381 -1944 0
3560 -693 0
-2296 473 0
-1558 3033 0
-1697 797 0
-345 -3521 0
3248 897 0
-3122 -3290 0
659 -394 0
3190 -2308 0
323 1307 0
-962 -205 0
239 694 0
2488 -1157 0
2681 1724 0
-338 -2302 0
-2865 1027 0
-2964 3311 0
-1102 -1707 0
-221 -777 0
2528 1911 0
1130 699 0
-2207 -3271 0
-534 -3349 0
-2112 1978 0
2442 3240 0
-1112 -2690 0
2994 -3347 0
-1459 -900 0
2568 2975 0
-586 498 0
-3292 938 0
-1524 1251 0
-2028 292 0
-2141 -987 0
-1056 744 0
3229 -2530 0
-2795 37 0
3371 1693 0
-51 1762 0
154 2749 0
-2556 3384 0
303 -1406 0
-705 2806 0
-2784 3365 0
2871 197 0
-266 2144 0
-3146 3250 0
1060 -712 0
-1859 -3634 0
-380 2300 0
-114 -183 0
-3000 -2329 0
-135 2257 0
-3103 -1925 0
-2894 -3461 0
780 -3203 0
923 2226 0
2473 1645 0
-2507 2278 0
-635 -3614 0
1598 928 0
2607 2252 0
1107 -1048 0
1269 -3521 0
3192 3643 0
-750 -3302 0
1277 1558 0
-2112 2424 0
-1137 -1057 0
-2893 -1088 0
2313 3369 0
593 719 0
-2495 1098 0
948 -163 0
3139 1942 0
-1709 -706 0
-793 -1581 0
-2061 3021 0
-2722 2091 0
-2976 -2462 0
-1778 1732 0
-832 1177 0
-1433 -2576 0
-951 -83 0
1543 78 0
1596 -2043 0
-1258 -1727 0
76 1910 0
-1643 2290 0
-2243 -365 0
-3498 1057 0
3204 2423 0
2099 -1774 0
-3239 2549 0
-3646 -2231 0
1547 -2693 0
-731 -1244 0
-2958 -72 0
-635 -2349 0
-2019 -3480 0
2690 -2993 0
725 -1753 0
-1743 227 0
-2929 1658 0
1352 1843 0
-1146 2079 0
-3601 -3244 0
3118 548 0
622 -1362 0
-2856 -3048 0
1124 852 0
983 -2311 0
-854 -1834 0
-1504 3603 0
-1628 -3096 0
-442 -2218 0
352 86 0
-215 2304 0
257 -1653 0
-1691 -928 0
-1898 -800 0
-792 -2514 0
-1240 -2154 0
-3651 3134 0
542 -3242 0
-957 2727 0
-777 658 0
-310 2525 0
2129 2771 0
141 1640 0
-1897 833 0
2859 2731 0
443 -481 0
-2910 1829 0
1195 -2259 0
-27 -2160 0
-1754 -2650 0
3624 1500 0
-1775 -2118 0
-976 -499 0
3454 -2549 0
3165 -236 0
-574 -1137 0
-2071 -2009 0
-3558 -1610 0
-2001 1239 0
2026 -2742 0
-92 1610 0
-685 -1551 0
905 1446 0
-2409 1979 0
-272 2201 0
-2879 -2390 0
-3487 2442 0
-777 2444 0
-2353 167 0
2786 -431 0
2458 2950 0
1269 893 0
3120 -2246 0
-1154 -73 0
154 -2052 0
-1562 -2884 0
-844 -2817 0
3602 -1662 0
-283 2280 0
839 -2308 0
1408 976 0
2470 -646 0
-1699 2362 0
1829 177 0
-3418 883 0
-1376 -1008 0
-3435 3263 0
-500 95 0
-134 1488 0
2365 -215 0
-1722 688 0
2708 2234 0
1318 785 0
-2385 1432 0
28 -3563 0
28 2481 0
1759 -742 0
-269 -233 0
3239 3321 0
-577 2084 0
1760 -743 0
3072 3034 0
-2779 1271 0
3478 1990 0
-674 -1586 0
16 -2321 0
-3457 3021 0
-1013 -1402 0
2946 638 0
-3587 75 0
-3267 1321 0
2695 2619 0
-2217 733 0
236 3083 0
157 2024 0
178 -1466 0
3134 1250 0
-1872 3156 0
-2259 2818 0
1223 482 0
-1333 1210 0
2958 -328 0
2174 1230 0
-268 599 0
126 1651 0
-3587 2438 0
-1297 417 0
2026 3509 0
-2374 -1060 0
-573 -2926 0
1429 2876 0
-1349 -1910 0
-2783 -335 0
1345 3287 0
-1108 3139 0
174 -2884 0
-2740 -2085 0
3632 1246 0
-1631 968 0
-1161 -1565 0
1587 -1166 0
3154 1180 0
300 -3369 0
-2095 1212 0
1317 -2756 0
625 610 0
-444 -1720 0
-3324 2314 0
-1351 -2779 0
717 -888 0
-788 -2925 0
-873 -3073 0
-790 2874 0
618 1638 0
-3352 2188 0
236 1742 0
-2272 3484 0
-1749 -1439 0
1514 -3054 0
-1572 -1729 0
635 530 0
-488 2072 0
884 -684 0
1129 -275 0
1908 -1003 0
-533 -2856 0
-51 1981 0
423 2234 0
-1189 -1688 0
-3056 -2005 0
551 2079 0
3217 3445 0
-2694 -3354 0
-3498 -2796 0
-1042 422 0
-694 -2934 0
-26 705 0
2260 1592 0
-240 -2100 0
-2328 -3138 0
40 3443 0
2574 857 0
824 1127 0
305 -292 0
2284 -927 0
2850 -728 0
1483 -894 0
2891 -1397 0
-466 -3341 0
-1057 2878 0
-2778 -2711 0
-3110 -347 0
504 -3358 0
3425 2400 0
3549 1509 0
-313 2298 0
1675 3379 0
2605 -62 0
-2869 -1173 0
2742 3572 0
1376 -111 0
-69 -604 0
95 2792 0
-47 -35 0
-2601 -1946 0
2328 -3068 0
67 1117 0
-3533 786 0
2723 1461 0
2382 -2386 0
-3496 -1233 0
1174 2385 0
1657 -329 0
366 -2664 0
552 -3017 0
248 3345 0
-1491 -3651 0
-1853 2002 0
829 -2413 0
-3311 -408 0
869 421 0
-2899 2787 0
922 2294 0
3218 -3132 0
2440 -1193 0
2946 1192 0
-3146 527 0
-1877 -2707 0
128 -2279 0
106 1350 0
-393 -1891 0
-1748 2271 0
-3418 204 0
2532 -147 0
-1578 -67 0
1016 -3327 0
-1713 -2781 0
-1650 1918 0
-2017 -1778 0
-2416 -3221 0
-3333 85 0
1672 2855 0
2947 3349 0
-133 277 0
-2885 387 0
-1794 -2047 0
409 924 0
984 -1356 0
1849 -635 0
-2038 -3023 0
199 -2968 0
2693 -2896 0
829 -406 0
2713 -517 0
-3390 -1572 0
-955 937 0
307 2250 0
580 2586 0
54 1308 0
1023 -12 0
-2684 -351 0
-2568 -624 0
-1083 -1445 0
3183 1144 0
557 -1774 0
-3132 -2951 0
-672 -725 0
663 -3467 0
1524 -1685 0
2736 -958 0
1118 -497 0
614 -1048 0
3496 -111 0
-1854 -3559 0
-530 780 0
-3488 2379 0
-2937 -1495 0
2018 525 0
-401 -961 0
2225 -2458 0
-1711 -2407 0
-2814 -3205 0
63 803 0
2643 3440 0
2552 1815 0
1196 -3173 0
-2124 1864 0
-1798 3118 0
2490 1741 0
-3462 293 0
-964 2996 0
-2569 3496 0
1887 -3607 0
-3365 -2785 0
2193 1022 0
-1738 1374 0
-500 -1155 0
2443 1406 0
1093 2252 0
-1065 2269 0
-3586 3427 0
-1737 3139 0
2332 -3135 0
2201 -3350 0
-2556 -3461 0
3398 1257 0
1144 2123 0
2840 -1200 0
1507 -3435 0
-2218 362 0
2554 551 0
1881 2232 0
1720 -3025 0
1257 3505 0
-2502 695 0
2045 2586 0
2189 -842 0
1334 -820 0
1505 1812 0
3578 783 0
-1292 -117 0
494 1715 0
2300 -320 0
-2477 -705 0
1911 2123 0
-3137 3020 0
-341 -187 0
-1310 2144 0
-2786 1459 0
467 3205 0
-3152 2918 0
901 -2833 0
2688 -2610 0
-49 -2396 0
2643 -2707 0
-1082 -3087 0
-3441 -983 0
1101 -455 0
3483 3194 0
-379 1275 0
-1021 -1933 0
963 -92 0
202 366 0
3361 2901 0
2065 3030 0
-3093 -2830 0
253 -2019 0
-2653 181 0
3332 1213 0
835 -2586 0
-375 -1127 0
-12 -1963 0
1401 1576 0
-3190 -2182 0
-1946 -3311 0
-2454 -2225 0
-2816 -1882 0
-1990 -406 0
-1954 2364 0
3097 336 0
-2119 2247 0
2729 -497 0
3509 -3526 0
-1228 -737 0
-3302 -848 0
-3250 -2723 0
1396 2320 0
-1539 -2438 0
-297 -281 0
1298 -388 0
1063 -146 0
1230 1563 0
-3579 1864 0
2234 -2407 0
424 2304 0
-194 -2199 0
-3273 -3017 0
-2595 3216 0
1007 2324 0
-3538 1952 0
1140 -670 0
705 -493 0
560 326 0
1038 -1090 0
349 2701 0
-101 692 0
-1325 547 0
-2349 2015 0
522 -3092 0
-427 -2332 0
-1027 2771 0
-1076 1886 0
2304 117 0
1963 -2526 0
612 2505 0
-2299 2296 0
-3567 570 0
372 1918 0
1981 -2823 0
-2391 -3139 0
2605 -3031 0
3022 2277 0
1046 -38 0
1945 -1573 0
2226 -2645 0
861 2683 0
-2609 65 0
-1390 2979 0
2587 -869 0
2831 -1449 0
-1389 -2674 0
2437 -3460 0
-2037 2731 0
-471 -381 0
-1391 2540 0
-2368 3156 0
785 1131 0
-3419 626 0
-1626 1088 0
-2822 1670 0
-3497 2491 0
-3474 -479 0
-2578 2004 0
-2780 -3403 0
-2778 -1367 0
3204 -990 0
-3224 2448 0
1874 1425 0
-293 2499 0
3063 -1935 0
-2197 -1137 0
1802 1150 0
253 -777 0
2175 -3056 0
1231 60 0
714 -3418 0
-1725 823 0
-2362 539 0
-870 -1339 0
-2374 2348 0
-1011 468 0
-492 1638 0
-3345 3436 0
-3512 -2893 0
-802 3473 0
-1774 -3602 0
2550 2533 0
750 733 0
-674 3601 0
-670 -2505 0
-2702 -753 0
2999 -3276 0
-2049 -2545 0
-1887 -2412 0
3337 3458 0
2696 1813 0
-3226 886 0
2099 708 0
-1664 1544 0
3558 -803 0
-533 1569 0
-3249 2122 0
112 1021 0
3602 -3179 0
-3649 2065 0
-1644 1561 0
1802 559 0
-1643 583 0
-3106 1279 0
1028 3210 0
2197 -1713 0
3075 2612 0
-3417 625 0
484 2605 0
348 -3261 0
3609 3474 0
-2661 -1440 0
1469 -955 0
-1721 2141 0
-3596 -1220 0
1023 1214 0
-1628 -385 0
-1530 1680 0
1787 -535 0
2846 86 0
-867 -1789 0
3276 -3275 0
1121 -949 0
-2535 2778 0
-39 -308 0
-1145 3357 0
-322 1318 0
-275 -1980 0
3334 949 0
1862 -1852 0
3396 1159 0
454 -2832 0
1608 -2897 0
880 762 0
750 -1604 0
-318 -1528 0
1078 -3376 0
-813 3524 0
-3623 3035 0
-405 531 0
3411 -1846 0
-729 -2501 0
1142 -2894 0
-2027 226 0
-1982 3333 0
-1957 -65 0
-1292 -533 0
-3343 411 0
-116 -758 0
2137 -908 0
-1497 -2408 0
-1109 1071 0
3045 -2418 0
-1282 2036 0
712 -181 0
-357 -2477 0
-2953 -232 0
1802 -2905 0
-1664 -2072 0
-2938 -1153 0
997 724 0
1773 -1613 0
-2407 603 0
723 2106 0
1984 52 0
-3557 221 0
1177 203 0
-2058 -1912 0
-966 -3019 0
2625 -1144 0
-2542 1261 0
1278 -668 0
-1042 3004 0
3163 -2993 0
-332 -2568 0
2999 -2423 0
-1722 333 0
-3206 -1039 0
-1859 1599 0
328 -1084 0
-2570 548 0
1613 -515 0
-1359 853 0
2728 -2258 0
2539 690 0
-2818 3476 0
72 84 0
2116 797 0
2621 514 0
-67 716 0
1233 3389 0
-172 -3437 0
3274 2340 0
-2262 1635 0
-3384 -572 0
-1083 -946 0
1310 -3372 0
-3049 2753 0
-2000 3472 0
3592 2431 0
-414 -2462 0
-2774 -3305 0
-398 592 0
2417 -900 0
-1789 2604 0
-2456 -3518 0
-276 -1850 0
-3521 -3287 0
-2841 -237 0
-2271 -1903 0
-727 1568 0
-656 -1924 0
-1951 2403 0
-1813 3034 0
1136 -3396 0
-2180 -2259 0
-1262 -3199 0
-1571 -1240 0
2234 -1791 0
-1224 -59 0
3513 -1114 0
-2514 1088 0
2111 -3623 0
3649 2643 0
-2118 928 0
-2083 -1052 0
-2304 -766 0
1198 1931 0
-195 -3106 0
-3367 -2426 0
-3227 -401 0
-2281 1134 0
567 -224 0
-1057 3378 0
1719 3057 0
-140 3430 0
3572 526 0
1183 -2726 0
166 -1610 0
659 -1310 0
1520 -1981 0
1260 -1747 0
2645 -2061 0
-2244 515 0
2724 1791 0
-1312 -3205 0
2498 -3466 0
-725 -740 0
1058 771 0
-2213 3247 0
-1944 -3240 0
1852 -2808 0
1719 2725 0
2778 -2591 0
3156 -104 0
-1072 2386 0
-2626 -2863 0
-2667 -702 0
2354 -1971 0
2475 -2271 0
-172 -769 0
-1699 794 0
-889 -395 0
-182 -949 0
3646 2798 0
-160 -3132 0
3616 2279 0
-97 -3109 0
-1778 -90 0
2229 551 0
3240 -1923 0
495 -1257 0
3095 299 0
58 2828 0
-1171 -2168 0
1730 346 0
3165 -2981 0
-710 2375 0
-1269 -2985 0
3485 -477 0
650 -96 0
1308 3397 0
-1427 -1439 0
-583 -2954 0
-620 -1454 0
2328 -2341 0
2355 -3595 0
-500 -996 0
2367 3495 0
-3302 -2814 0
3202 2365 0
2498 -1373 0
1408 1308 0
2675 -944 0
-2381 1181 0
1424 1247 0
-669 -2102 0
-1315 -173 0
3402 474 0
-103 -2407 0
-3410 -281 0
1801 -3101 0
977 -3547 0
-3339 1527 0
1903 -2774 0
-2909 -1732 0
-3377 2696 0
-1341 763 0
-1307 -34 0
-3152 2659 0
1982 1191 0
-2636 907 0
2499 -2225 0
2946 -1264 0
1918 -3212 0
-3612 -204 0
-1518 -298 0
1807 -2844 0
-2598 51 0
561 2861 0
130 1989 0
-2953 -636 0
3189 -754 0
-47 1195 0
463 -556 0
-2857 2351 0
-1272 1042 0
2573 -1190 0
432 1181 0
-1613 -2907 0
-3055 -2344 0
-3244 -3543 0
3465 -34 0
-2008 -1605 0
-1462 -2508 0
-733 2530 0
3485 1226 0
-2557 508 0
2802 1699 0
-3533 3166 0
1097 149 0
2331 -1157 0
2864 663 0
-3376 591 0
-2717 3032 0
410 -1944 0
-3353 1113 0
-2254 855 0
-1193 1875 0
969 2782 0
2786 -2484 0
-2613 1860 0
-359 841 0
3050 -3086 0
-1042 1638 0
1094 -929 0
-1532 -217 0
3204 895 0
1983 -1789 0
-1447 -1011 0
-999 73 0
1232 2144 0
2485 -2361 0
-3495 1188 0
-217 -1392 0
-14 -2880 0
2432 -2069 0
-777 2198 0
396 155 0
-630 -1863 0
-1947 679 0
-1419 443 0
-2507 2675 0
1000 534 0
301 2579 0
1800 -947 0
-2409 -2215 0
1936 1084 0
1801 -2316 0
-997 -1532 0
-3190 -1416 0
1146 -2569 0
-1279 -3176 0
1360 1105 0
-1946 -2758 0
580 -1104 0
781 -3512 0
2223 608 0
-970 2546 0
-3339 -1743 0
-79 31 0
5 3194 0
-1472 -410 0
-1228 2013 0
-1896 -32 0
-1680 -289 0
3043 1929 0
-3108 2707 0
-1417 979 0
75 -478 0
-2764 3617 0
2461 -512 0
-2173 2319 0
-1801 -3168 0
2054 2244 0
2633 2654 0
-3062 -3032 0
-1587 1706 0
3310 -3006 0
-2614 2720 0
3044 1162 0
2947 2749 0
-2101 -412 0
1148 1477 0
1794 -1264 0
3061 -3339 0
-2478 -1123 0
-3634 3012 0
-284 -1939 0
2680 -1603 0
1206 -3353 0
-3647 -1085 0
220 523 0
1065 -251 0
-2041 2910 0
2201 3642 0
1758 -1659 0
-2367 1756 0
960 -3034 0
-3158 -700 0
-1640 -1892 0
-2423 -3349 0
-702 1015 0
-1013 9 0
2268 3033 0
-2049 3159 0
-1423 916 0
1632 1482 0
-932 -2463 0
-2402 2373 0
961 762 0
1323 -3029 0
1263 -999 0
-2800 1199 0
1430 2980 0
3504 1702 0
3426 -693 0
-942 14 0
-2238 -1256 0
2173 3524 0
-1716 1902 0
-3359 2820 0
-2640 -1844 0
-709 1670 0
596 -3277 0
-3223 -302 0
-2778 2221 0
-395 -1669 0
-602 -2545 0
-2777 1975 0
-422 -689 0
3355 -3293 0
-3339 -1458 0
-1305 712 0
366 -2792 0
-1313 -3081 0
-2074 815 0
2635 3567 0
2087 3201 0
-2915 66 0
2095 -2501 0
-3626 -3525 0
3138 -573 0
-896 -686 0
2761 1657 0
-932 2297 0
-648 372 0
-2548 -1913 0
-2665 70 0
1340 2715 0
-3511 1832 0
1534 734 0
1196 3261 0
2369 863 0
-645 3410 0
3315 -3450 0
-270 3403 0
1571 802 0
628 2889 0
-2512 3577 0
2658 -3105 0
3127 1000 0
-2601 786 0
-3396 2545 0
-1880 -908 0
-528 72 0
1675 884 0
440 -2160 0
31 3332 0
111 2505 0
-2774 3190 0
-2385 -1562 0
2314 -2598 0
-2111 -2376 0
50 966 0
277 2963 0
3065 992 0
102 -1718 0
-1552 1519 0
-1841 2054 0
-1017 2293 0
-1369 -579 0
2381 2256 0
2184 -2958 0
-1072 802 0
-1598 -1026 0
2874 -177 0
-2133 -736 0
2105 -1982 0
-1211 -630 0
-1742 1256 0
363 663 0
-2297 -1882 0
-2781 -1145 0
-3381 -3092 0
1769 -2639 0
3430 -630 0
3316 1361 0
860 1595 0
1613 -2556 0
-1695 2862 0
1173 -2848 0
-1737 2370 0
615 1177 0
3160 2552 0
-2837 -903 0
-172 234 0
-1555 302 0
699 588 0
1636 -611 0
3100 2595 0
560 -1997 0
-3341 -796 0
1277 364 0
-3280 2298 0
-1097 -3106 0
2722 -1947 0
2513 -505 0
3076 -674 0
1561 -367 0
2728 3466 0
3469 1266 0
1095 1208 0
-1051 -295 0
2854 -3028 0
-1720 494 0
-3135 268 0
2417 -3185 0
330 -3121 0
-2441 329 0
-2240 2387 0
883 402 0
2997 -1830 0
-2977 1945 0
3100 -365 0
1044 3454 0
1708 3630 0
3373 649 0
-1742 -1985 0
1142 -951 0
3380 1924 0
-3241 2617 0
-571 2022 0
219 2877 0
-1153 246 0
-3526 -2997 0
-2347 1618 0
-1779 -1159 0
3373 1125 0
2630 -1766 0
-2494 1393 0
-3512 3188 0
642 2005 0
2399 -340 0
1987 -522 0
1482 -1821 0
-510 -3323 0
-2853 334 0
2223 -2228 0
220 2840 0
-2843 3015 0
3039 -3534 0
873 -813 0
-1709 -1228 0
-1733 -3368 0
-900 -1387 0
1796 -1543 0
902 1514 0
1276 -205 0
2863 2720 0
-1639 2448 0
3200 -3075 0
-3187 -35 0
-577 2666 0
1927 -1841 0
234 583 0
-77 -1046 0
-2455 -1632 0
2370 -2420 0
3504 -3545 0
-294 -2595 0
-784 -569 0
2336 1461 0
-2237 -1625 0
263 2440 0
1609 -545 0
-200 2358 0
73 -1135 0
2874 1109 0
-1653 196 0
-2260 2709 0
-1335 -1114 0
-2714 1769 0
788 -39 0
2587 -2310 0
-1753 -3285 0
-3161 -2160 0
279 -3255 0
-2790 2866 0
-2443 559 0
-3323 -1973 0
1407 -2356 0
258 929 0
2224 -393 0
-2409 2977 0
-751 -1458 0
-1339 3630 0
-1738 2160 0
1636 -2103 0
-3381 -1107 0
-3174 1342 0
2902 -3423 0
2966 2344 0
-3278 1258 0
-1570 -458 0
-902 -463 0
-8 2988 0
3241 -2675 0
2631 -639 0
58 -2812 0
-1347 -1772 0
1602 1229 0
-3290 -3441 0
472 -2092 0
-462 1525 0
-2555 1249 0
1470 -2049 0
1726 354 0
267 3625 0
3198 3513 0
-1291 978 0
1793 70 0
-3242 -1274 0
2352 -1349 0
3159 2802 0
16 2833 0
-177 711 0
-2829 487 0
1772 -3470 0
1806 3524 0
1224 1914 0
-458 -2483 0
-2246 -959 0
1164 2424 0
1832 1195 0
1046 -1967 0
2913 -1641 0
-1056 1289 0
-3401 -2461 0
-2119 1200 0
-894 1924 0
-1868 -176 0
-2484 1727 0
-1287 -63 0
523 2997 0
-2815 -1146 0
-503 2228 0
-3423 1890 0
2309 243 0
-2392 -1701 0
-2571 -1442 0
-2309 -175 0
2897 2685 0
-1112 -888 0
251 -2432 0
1962 2063 0
823 1927 0
-2458 2940 0
-2731 3449 0
-790 -1192 0
487 -1809 0
874 -214 0
-1176 1870 0
-740 -2062 0
-3141 -1365 0
-3117 -1397 0
-2544 973 0
-739 391 0
-7 -782 0
599 -3216 0
-1775 -498 0
-3384 637 0
-3109 2866 0
-116 -1116 0
-1799 2242 0
-2479 1261 0
-2220 -393 0
-1202 3317 0
2932 -1543 0
1096 -2122 0
1718 2144 0
-1571 -1141 0
-1896 1227 0
-3571 -2444 0
2497 -393 0
1498 3162 0
314 893 0
3490 -210 0
2262 2798 0
-214 1892 0
452 1060 0
1060 -698 0
1324 211 0
2811 1329 0
8 -2237 0
3329 -284 0
2364 -1676 0
-2501 -3605 0
-1555 180 0
-1042 412 0
-530 2503 0
2431 635 0
563 -2395 0
-1331 2789 0
137 2498 0
2748 3176 0
-2799 2324 0
3355 -1499 0
-3382 3580 0
3084 -1460 0
-1346 -2602 0
-508 592 0
-1552 661 0
-1997 2192 0
2648 388 0
1888 -2130 0
-698 -2218 0
-270 -2133 0
454 3429 0
947 -1940 0
-3614 -2700 0
-2432 1200 0
-2329 -2520 0
-1053 -2035 0
1060 -1568 0
-1563 1412 0
1897 -1583 0
-805 2931 0
-3168 2905 0
1654 -771 0
1580 47 0
-2609 2649 0
2388 -3224 0
-754 -1591 0
323 2620 0
-848 984 0
3625 -1426 0
392 -2358 0
2550 1590 0
1650 3514 0
2638 -1418 0
-118 -1626 0
2651 -2896 0
2612 -2609 0
-19 -2060 0
46 -2610 0
-3517 650 0
2637 2297 0
-591 1777 0
-1899 2965 0
-1780 -1977 0
2036 -657 0
2928 -2925 0
-158 349 0
1345 109 0
538 241 0
-946 -227 0
1971 442 0
-3181 2695 0
-3314 1267 0
-2903 -1543 0
-2317 399 0
1836 -2074 0
1189 -270 0
144 -2867 0
2142 -1119 0
3554 895 0
1796 1768 0
709 905 0
-2631 -1774 0
2603 -3450 0
1909 3535 0
2145 -2 0
843 2062 0
2789 -3561 0
1883 -2047 0
-3085 1808 0
-2755 -3123 0
-761 -2044 0
-1120 2428 0
-1431 -3268 0
3552 1359 0
-871 -2497 0
-3501 -2811 0
413 -988 0
-1941 -3182 0
412 -652 0
1384 87 0
2725 1295 0
-547 -1348 0
-3212 -3584 0
3573 -813 0
275 -1626 0
-2119 2625 0
353 -252 0
-953 -1229 0
-1325 -1202 0
-1183 413 0
1730 -1011 0
1393 -571 0
-3526 1838 0
-2235 1984 0
3059 2633 0
1162 -619 0
390 -1394 0
514 -1773 0
-1231 1683 0
-236 -3462 0
1749 -3645 0
-2154 -670 0
1981 1379 0
3573 1601 0
-1817 2058 0
-1606 -2911 0
678 2633 0
-1589 -314 0
-2598 -2233 0
-1167 2950 0
539 -1956 0
348 2936 0
-2886 829 0
-1830 -2709 0
-1540 -2727 0
535 2707 0
837 2656 0
2492 16 0
-1148 -1496 0
-319 2445 0
2742 -1073 0
-36 -1815 0
68 404 0
-2621 -1591 0
-3325 2122 0
-1450 -295 0
355 -3339 0
-1579 -1290 0
2344 -3120 0
-847 870 0
928 -382 0
-2545 -2272 0
2080 -343 0
1111 -2245 0
-1452 2700 0
-747 -2889 0
2294 3492 0
-3459 -2740 0
-834 34 0
2675 2372 0
-2751 -3348 0
2597 3534 0
2601 -2262 0
2752 -2426 0
-1109 -1079 0
-2120 -3368 0
2110 466 0
-44 -2038 0
2541 -716 0
-2108 1848 0
3163 -508 0
1119 135 0
-3168 -2133 0
-2320 3075 0
2765 630 0
-1040 2578 0
-1332 -287 0
-2311 -1 0
-3635 -512 0
-613 -2025 0
1822 -973 0
778 2270 0
1807 -1154 0
2151 804 0
-347 266 0
-1815 1738 0
1196 -1390 0
1125 530 0
882 -377 0
-894 -1216 0
37 277 0
2512 100 0
522 1117 0
-1526 785 0
-642 -286 0
-2483 3480 0
-2565 3196 0
2148 3479 0
778 2593 0
-495 -1939 0
-614 -687 0
-3014 -3521 0
-237 2274 0
1956 -1197 0
-271 -625 0
1823 -3161 0
1163 -1523 0
-367 -977 0
-2186 -2227 0
1451 3503 0
1551 1937 0
-813 -2491 0
-2721 -3341 0
162 -3519 0
-1712 -3566 0
2263 -3091 0
2306 3315 0
-213 2965 0
1316 -2079 0
2143 -1430 0
119 253 0
3286 1947 0
1307 -2256 0
1042 -2846 0
-1678 -3504 0
-83 444 0
2241 -3311 0
862 711 0
482 1933 0
1509 2181 0
2011 -208 0
-519 -453 0
-766 2020 0
312 15 0
3266 749 0
-3563 3405 0
189 2989 0
1328 -346 0
-1332 -3182 0
-3350 206 0
-2199 2852 0
2406 -1749 0
3532 2284 0
2106 2429 0
-144 3356 0
863 3009 0
1746 -3570 0
2332 772 0
-997 605 0
3248 -797 0
626 2212 0
2820 1316 0
3504 -2433 0
3360 2212 0
-2131 513 0
2722 2403 0
-2203 -2408 0
3064 -872 0
761 -1626 0
1561 -2870 0
2215 3279 0
-682 1098 0
-3188 -2094 0
537 -2813 0
1162 -1591 0
-305 -2745 0
2097 -1679 0
-811 2388 0
-3097 -3103 0
1234 -1836 0
60 -2448 0
-3631 -963 0
-2819 -3108 0
-202 2976 0
284 -903 0
-2964 -861 0
641 -1496 0
804 2784 0
3153 -2899 0
-1267 2371 0
1320 -3466 0
171 -1979 0
-2709 2997 0
-1656 1334 0
3270 555 0
-281 2667 0
-2165 -2830 0
1250 2890 0
-2655 -1536 0
2965 1481 0
3315 1965 0
2906 -893 0
-1356 2969 0
2309 -705 0
-2979 1231 0
-1105 3103 0
-556 1999 0
451 2498 0
798 1908 0
571 3513 0
-543 -1564 0
-1315 -2122 0
3116 -1979 0
2691 -632 0
-2419 -2852 0
-1656 3125 0
-1292 -1220 0
-3349 -1705 0
2358 2179 0
-2508 735 0
3622 -868 0
1729 -22 0
3166 2767 0
3498 1609 0
363 385 0
3380 -1377 0
3106 -999 0
-2132 -976 0
3187 -633 0
3464 40 0
2085 1878 0
1197 1250 0
-233 2170 0
-1515 -1294 0
454 3353 0
2034 3081 0
-1720 3418 0
-630 1702 0
1943 1642 0
-3418 -56 0
3592 -3164 0
-1405 -3308 0
253 -388 0
1585 -781 0
1875 -3188 0
2298 216 0
2079 -400 0
246 -2418 0
-689 2730 0
-298 -1951 0
-3544 -3511 0
1401 1913 0
-3423 -1219 0
1590 868 0
1037 -1917 0
821 -3424 0
-1004 1949 0
-1646 3215 0
1642 -1577 0
1666 2698 0
-609 -1656 0
2985 -3511 0
-218 2957 0
3099 3084 0
3541 1873 0
2011 -1521 0
137 -501 0
2981 2970 0
3171 976 0
-1279 2400 0
-2865 1482 0
-3273 -2653 0
-223 -2600 0
-1931 -2185 0
162 1798 0
-1620 3441 0
-1756 -484 0
3405 2584 0
780 -1988 0
-719 3001 0
-3158 2861 0
1056 2854 0
-768 -1101 0
826 2111 0
-2994 1630 0
-2256 -2330 0
294 -316 0
-571 -3446 0
-532 -492 0
937 -821 0
-2285 -2251 0
2287 -3455 0
-527 -979 0
1486 -3353 0
-3491 582 0
-2489 1327 0
3122 1432 0
-1347 -2048 0
3652 43 0
-435 3466 0
-2143 2921 0
-852 -1681 0
-265 -2155 0
1077 49 0
2957 -1339 0
2344 -1531 0
-1585 -103 0
-373 -1233 0
-1144 751 0
1956 -2936 0
1047 -1658 0
-32 2832 0
342 -1528 0
-3245 -1116 0
-1199 -1754 0
1697 -2821 0
-3274 -2897 0
-2150 1511 0
937 -1017 0
-51 -2524 0
2422 2388 0
-2482 131 0
1314 -660 0
603 3028 0
-2478 1538 0
-2139 -2020 0
-382 -3596 0
-1904 -1930 0
1864 1917 0
-177 1855 0
2425 1231 0
-3515 -2630 0
3272 -2023 0
-1735 -1413 0
2691 2717 0
-1993 1424 0
-1694 -2909 0
-1633 267 0
-3301 -5 0
2431 -2050 0
1719 1396 0
412 1746 0
-2182 587 0
-2853 261 0
327 3169 0
-191 -422 0
1874 542 0
-2701 -2699 0
3266 -38 0
-1128 -3395 0
-241 -2839 0
-870 -3397 0
311 -2663 0
-748 2706 0
2445 -3409 0
-587 -2450 0
1384 -101 0
-448 -3166 0
-1009 204 0
1818 -2287 0
218 -765 0
283 -3345 0
-925 2719 0
579 2157 0
-913 3404 0
1804 1671 0
3337 -1277 0
-1903 1185 0
1744 2699 0
681 -1672 0
-979 -1930 0
-3567 -1929 0
642 2983 0
2504 -3341 0
1802 139 0
-2910 -2891 0
195 -235 0
-2063 1065 0
638 -2449 0
-526 3004 0
-861 -1789 0
1890 -3327 0
3139 -1922 0
-3295 201 0
-2434 2597 0
509 1247 0
-3381 -850 0
-2654 3426 0
-188 -3559 0
525 1789 0
572 -2809 0
2062 -1581 0
1108 -3555 0
-1272 -1449 0
1237 -898 0
-1262 3325 0
-1615 3351 0
-1036 -1593 0
-1959 701 0
3065 -2626 0
-1346 -2199 0
-2072 -258 0
2730 483 0
-1995 -2879 0
1580 2473 0
-3139 -2353 0
49 2181 0
3304 -1903 0
-219 -1029 0
-1768 1789 0
1601 -2080 0
-1488 -2839 0
-1591 -89 0
-430 -2107 0
3082 -3158 0
-1397 1310 0
-1977 -3628 0
-1650 -1959 0
-2468 728 0
-64 3279 0
450 -460 0
2983 -3289 0
-683 251 0
1644 -1941 0
3132 578 0
-3619 -1674 0
99 -3422 0
-2743 -337 0
-403 1157 0
-130 2334 0
407 -2677 0
-3615 17 0
-2873 -3397 0
