c NF
p cnf 4877 11705
3519 -1927 0
3192 1902 0
-3720 -1481 0
-2485 -1867 0
-1690 669 0
-3589 -2783 0
-3888 -1387 0
4246 -4332 0
4671 3506 0
637 1101 0
199 3683 0
-2504 -3316 0
-44 164 0
2619 1291 0
2066 4653 0
808 1117 0
-4730 4177 0
-39 -4652 0
-2467 1154 0
4870 996 0
-292 -2336 0
-2000 -2151 0
1541 4647 0
3261 1211 0
4737 2444 0
-2972 1075 0
-2881 2444 0
-2497 -520 0
-3255 -1060 0
2109 -1611 0
-523 -2534 0
2631 -2709 0
2698 3031 0
-556 -933 0
4867 -1356 0
3546 -4611 0
2439 -2202 0
-2931 -2438 0
4788 4518 0
4447 3815 0
-3605 2167 0
-4263 -996 0
3176 1973 0
-2299 2196 0
-4207 4120 0
-3745 1099 0
2396 -4289 0
3927 1067 0
-1213 -251 0
-1455 4635 0
-1395 -4513 0
1345 4470 0
1076 -4103 0
2080 -1156 0
816 4307 0
2453 3097 0
-1460 -1628 0
4374 4232 0
-881 3230 0
435 -382 0
2409 -2719 0
1884 -4158 0
-3613 587 0
-61 2813 0
-3017 -2727 0
541 -2828 0
-896 -4572 0
-3557 2534 0
-3563 -4299 0
975 -3977 0
-2376 -4714 0
-2816 -3774 0
557 4425 0
4522 -3897 0
3163 2069 0
-1764 4678 0
-2753 4220 0
3260 477 0
-280 1215 0
4411 687 0
-2042 -3295 0
2195 954 0
-2707 -3976 0
35 -4739 0
1775 4426 0
-3928 14 0
164 -4803 0
-1211 -1661 0
3695 -1998 0
-4565 3222 0
-1389 -2070 0
-2408 -3477 0
-1577 -611 0
-3718 3653 0
4355 922 0
2147 -2646 0
1141 -4461 0
-2587 4179 0
929 -4678 0
2947 1097 0
-3647 -3890 0
-86 3097 0
-4003 3492 0
4619 -3815 0
3435 -4018 0
-2057 -2521 0
462 -781 0
2037 -2158 0
-4806 -2001 0
-2292 4370 0
-816 1417 0
-4577 -2253 0
-1603 1411 0
-2255 862 0
-397 506 0
2570 948 0
4411 1446 0
-2401 279 0
-3968 1789 0
-4847 -678 0
3671 -1458 0
2853 -4729 0
-1542 332 0
1956 -2461 0
3057 -1501 0
-3173 -1887 0
-1367 3720 0
-218 -2794 0
-3073 1450 0
-279 -72 0
-74 -4367 0
-1966 -2778 0
2457 -194 0
3200 2029 0
2738 3328 0
-566 -3945 0
1263 -832 0
-2075 -2204 0
2410 -4429 0
-2437 4571 0
-280 -1228 0
2600 -2495 0
-1866 4426 0
2135 -2781 0
-3802 -3344 0
368 -793 0
550 2101 0
-438 126 0
-952 4765 0
-964 1823 0
-2638 -3490 0
2901 675 0
-2505 -2001 0
-3920 1550 0
3918 -234 0
-1176 -4843 0
3904 -2442 0
-1929 3439 0
-835 566 0
-1617 -4341 0
4009 -1386 0
1558 880 0
4082 -1991 0
871 -971 0
-1836 2069 0
-3051 2463 0
-1734 -2349 0
-4066 -1376 0
-3149 -2065 0
-4734 -1036 0
4151 -2107 0
-2136 -1406 0
2122 4480 0
-4228 -2305 0
-1349 -3838 0
1910 -2407 0
2767 -4433 0
3244 832 0
-4328 -614 0
3588 -2143 0
-3110 -1059 0
-1898 3941 0
-4120 4043 0
726 -3913 0
-3264 -4823 0
3105 2754 0
2993 4107 0
-4131 2296 0
-2710 -1795 0
2361 2209 0
-1780 -3482 0
-1878 2098 0
-2980 2758 0
-1072 -3359 0
955 -4292 0
2765 2071 0
-4265 -64 0
3954 -2977 0
959 -3390 0
-3674 3284 0
1770 -1238 0
1018 2234 0
-3172 -2317 0
-3849 -3884 0
-3002 2893 0
-313 -4148 0
1700 -3616 0
767 4583 0
-2526 2946 0
-482 -3064 0
1085 -1963 0
104 1528 0
2752 -2521 0
3054 197 0
1823 4542 0
4676 -964 0
2267 -4637 0
-4545 -3612 0
-4355 -962 0
-2823 3122 0
-561 4127 0
-2832 -2370 0
-3991 -569 0
-1640 -2699 0
-3698 -4464 0
76 1175 0
4816 -4404 0
-3604 -3662 0
-3399 -1932 0
-944 -710 0
-3518 2519 0
-301 -1705 0
-1985 1304 0
3585 2901 0
-1689 -4725 0
824 3057 0
-1671 823 0
-3966 2057 0
-1759 -1177 0
-3062 2363 0
1517 1118 0
1175 3926 0
4326 -4761 0
1335 4845 0
-1280 -4624 0
-3179 -4388 0
-4674 -1965 0
4640 -2952 0
-3920 4764 0
77 239 0
-2059 -1641 0
-2771 4248 0
1450 4377 0
-4799 -2587 0
-744 -4671 0
3477 -2232 0
3979 -879 0
-1768 1336 0
-1910 4179 0
-3819 4524 0
-469 752 0
2355 3159 0
1216 2914 0
2628 462 0
-3805 -2534 0
2148 -3584 0
4506 705 0
115 -21 0
4105 -743 0
2334 -2872 0
3493 1958 0
2738 -4699 0
-542 -2826 0
2953 3738 0
606 -505 0
2750 -2380 0
1946 -276 0
-242 -2313 0
-438 2284 0
75 1761 0
-765 -1973 0
-304 4485 0
-2557 2904 0
4316 4574 0
3641 693 0
879 -1160 0
712 -4559 0
-2723 -2881 0
4317 1144 0
-3091 -1004 0
2470 -3148 0
3990 448 0
-1419 2378 0
-3515 -1108 0
-2955 4196 0
2764 3898 0
-303 4334 0
-1440 564 0
4836 -3234 0
691 2990 0
4365 -4258 0
2302 -2400 0
272 -1135 0
240 -597 0
3055 225 0
-516 3648 0
3473 544 0
-2086 4756 0
1137 628 0
440 -3749 0
4337 -2177 0
-1693 -451 0
-955 -4008 0
4195 -619 0
623 -948 0
4846 -2876 0
-1802 99 0
-3705 -914 0
-3108 3573 0
-233 1333 0
3927 2404 0
-748 -2618 0
3887 405 0
-4209 -2063 0
1004 -4184 0
-1467 -2883 0
-1860 -1333 0
-3006 742 0
-3279 3299 0
3804 4042 0
-339 1289 0
-4722 -4399 0
3833 -337 0
-1558 -2925 0
2785 -4493 0
-4403 -3011 0
626 -3741 0
-583 -4221 0
326 -53 0
1840 -206 0
3290 -2413 0
1084 -1229 0
-2429 3431 0
2376 3922 0
-4341 1570 0
4105 -4427 0
2435 1756 0
3441 3680 0
3644 1281 0
-2388 4822 0
915 3164 0
-3940 1061 0
-1874 -1185 0
3134 4821 0
-2149 4704 0
4352 2857 0
-4780 -2541 0
757 -4435 0
-995 -3247 0
-4376 -4323 0
3580 261 0
3323 -2814 0
4387 3425 0
-707 2586 0
4506 3501 0
-3115 286 0
-2390 4829 0
-55 2266 0
1226 1665 0
-1623 -1573 0
-4304 -2576 0
404 -4811 0
1987 4455 0
1900 -2128 0
3059 3237 0
141 1482 0
-1478 -3450 0
2193 1385 0
-749 4003 0
3662 602 0
2081 -147 0
-2432 -2178 0
-306 1453 0
1525 1426 0
-692 4656 0
-3838 2025 0
93 1260 0
-159 1719 0
4072 4031 0
-2379 -194 0
3686 562 0
-4514 1811 0
1667 4129 0
-2949 -3995 0
798 -3076 0
2423 -522 0
2803 3419 0
2452 -1794 0
-46 -3504 0
-3996 4540 0
-4845 3233 0
823 2884 0
1468 -3334 0
1006 -2478 0
4558 3638 0
2860 -1149 0
-1936 -2534 0
3540 -2753 0
-3679 700 0
1911 3316 0
3114 2716 0
-1347 4724 0
-76 -1097 0
-4842 -3324 0
-4144 -3218 0
2359 -4609 0
-995 -3538 0
1535 -4599 0
-3988 1067 0
1984 -4656 0
-887 -4807 0
-4861 -3785 0
348 -215 0
-1483 4136 0
3726 -835 0
1907 -613 0
-3023 -168 0
-3149 4615 0
-1572 -4136 0
-380 1976 0
2 -4098 0
3737 111 0
400 -544 0
-4520 1214 0
4346 -2027 0
-539 -2698 0
3731 943 0
-148 790 0
773 -2807 0
-3936 4162 0
2631 499 0
-4755 1683 0
723 1399 0
2409 -2472 0
4622 -1216 0
2516 3995 0
-2707 4815 0
2712 -410 0
-4435 -1899 0
-3634 -645 0
3509 493 0
3702 29 0
-4167 -2447 0
4662 2368 0
3954 -1756 0
-1468 3950 0
157 3246 0
-2498 -2877 0
-2539 2353 0
4065 -782 0
-3660 -932 0
-1200 1363 0
3182 1241 0
3728 -276 0
974 -3403 0
2867 -4276 0
3097 -2696 0
-1347 2180 0
1962 4583 0
-2021 -1625 0
4772 -3706 0
-262 4407 0
-1989 -566 0
1421 802 0
3872 -3073 0
50 -699 0
102 -937 0
-1348 -713 0
-3449 -3138 0
-3847 3163 0
-3714 -1915 0
-1026 -1937 0
-1359 -2124 0
1596 -2070 0
3032 318 0
4060 3609 0
-3999 1385 0
4127 -4779 0
-145 -3115 0
-4240 -2134 0
3078 3092 0
2236 1660 0
1426 -902 0
56 1298 0
1018 723 0
-1210 -3642 0
3134 4404 0
1210 -4354 0
-4144 -183 0
-921 -4600 0
2494 2446 0
-984 2443 0
527 -2058 0
4259 -3354 0
402 948 0
-1666 393 0
2165 3423 0
4845 -4187 0
922 1175 0
1327 -1213 0
770 2775 0
-50 3517 0
2508 1972 0
-2127 -4844 0
1114 -1222 0
-2858 -3593 0
4812 -89 0
3625 -254 0
520 -1423 0
-1930 -2781 0
4519 -2032 0
4563 -4535 0
-3881 3461 0
4148 -2449 0
-4674 -3828 0
2058 2234 0
-3494 -433 0
-3780 1122 0
-832 430 0
-2440 -2938 0
1448 -4541 0
-481 -3173 0
-1052 -3256 0
-1976 -612 0
-412 -1631 0
2987 2967 0
411 -1785 0
-4136 480 0
-690 -1335 0
1218 -820 0
-639 -533 0
-1746 4863 0
1183 -483 0
883 -3127 0
-2559 -1811 0
1956 -1951 0
1890 -1986 0
-2078 2887 0
-4760 -3718 0
-2982 4267 0
1993 -2737 0
2760 1076 0
378 -3227 0
1255 2897 0
-1951 1625 0
-2877 -2385 0
-4594 4416 0
-2535 -2932 0
-94 1700 0
-3629 -3448 0
2208 -3601 0
4839 -1492 0
-2323 4418 0
3648 -1361 0
-1156 3665 0
3682 -145 0
-2612 4488 0
-4250 -3849 0
2709 -4119 0
2752 -329 0
3872 1931 0
4113 1086 0
559 203 0
-3324 -1332 0
309 -2122 0
3064 4737 0
-3090 -3688 0
2418 -4532 0
-4668 3709 0
-1204 -4410 0
3837 3939 0
1695 3283 0
-2469 -3139 0
3979 907 0
-901 2011 0
2322 -2476 0
-789 -2516 0
-1636 3911 0
-4656 -1815 0
675 -774 0
1447 3632 0
-3236 -662 0
-3835 2716 0
176 1890 0
-4407 4407 0
-3586 1064 0
-4395 1861 0
1668 4239 0
2839 -1740 0
593 -4501 0
-1727 4316 0
-1173 2317 0
-3861 -1927 0
-442 -1561 0
208 4451 0
-814 -4717 0
-4716 1210 0
4676 3833 0
-2897 -825 0
-4645 -213 0
-1492 581 0
3896 3640 0
-4188 4100 0
3695 -2975 0
-2968 -50 0
2266 169 0
4732 -2193 0
2088 -1654 0
-3991 -249 0
-2601 4477 0
3169 4565 0
-1485 1437 0
-489 2600 0
3209 -4592 0
-3158 -1423 0
2489 -950 0
-4042 4680 0
1925 -1735 0
-2553 4118 0
-2557 -2316 0
-3158 -4434 0
2397 -2942 0
2678 -3815 0
-709 3395 0
3910 -2512 0
-3695 2717 0
4205 2732 0
4334 -3418 0
-2469 3013 0
-4232 -3998 0
-2893 -2767 0
3845 529 0
-2643 68 0
399 1613 0
-119 -3901 0
1812 -3748 0
-4324 -1027 0
-2296 -3715 0
-2036 -2388 0
2726 2734 0
-426 -2689 0
1246 1664 0
-288 -2991 0
3212 786 0
-3622 2663 0
-4567 -4193 0
4130 726 0
-1957 842 0
-1657 -1562 0
3462 -1088 0
3841 -2472 0
2869 3729 0
-1438 -1358 0
-1976 -3224 0
-3919 -2482 0
4343 -2152 0
-356 -3555 0
-999 -3600 0
2786 -3929 0
-4078 -1912 0
-857 1038 0
3328 526 0
-1163 -288 0
-2590 691 0
-4718 4012 0
3322 -4049 0
1133 3986 0
4307 -762 0
1439 -4796 0
3438 -4107 0
1736 -4653 0
-2232 -113 0
-2838 4094 0
-2367 387 0
-3089 -3703 0
4679 -4347 0
1308 1589 0
-3278 3140 0
2782 2765 0
-4328 1176 0
-323 -464 0
177 -1212 0
1928 -333 0
1115 727 0
-2183 -1579 0
3080 1345 0
1198 3189 0
2707 -224 0
-2633 -1052 0
1039 -3252 0
4319 4038 0
-1733 1157 0
-4026 -1532 0
-518 -2306 0
-1372 -1077 0
-1150 2769 0
-428 -1029 0
-1834 -1379 0
4595 -1271 0
-4744 2555 0
188 4835 0
1758 527 0
-1678 4259 0
-3725 -4196 0
-2802 -4600 0
-1482 -1505 0
1529 -1847 0
-4677 4238 0
1851 3907 0
-88 -4704 0
-4733 -2617 0
4452 2364 0
1438 -2036 0
2475 3860 0
-1800 3140 0
-3953 -1408 0
-1937 -1403 0
2068 1119 0
4728 -959 0
3828 177 0
615 2654 0
1675 -375 0
-473 -1938 0
-4320 -1913 0
1893 -4381 0
4492 -3574 0
1254 -4298 0
-4081 665 0
1294 -4711 0
3468 -1226 0
3718 -1588 0
-1045 3552 0
2861 2679 0
-4059 -1261 0
1023 1419 0
3718 56 0
-3563 -1457 0
4059 -61 0
-2541 -4814 0
-2955 4112 0
-3002 -4394 0
1493 2151 0
1201 -1108 0
-2188 -3725 0
834 282 0
-4417 -248 0
-211 -2190 0
-2795 -2138 0
1205 -3191 0
-1712 4709 0
483 -3310 0
-2205 -296 0
2116 -4757 0
-915 -2178 0
-4110 4582 0
2744 -4166 0
2885 -904 0
3009 1138 0
-1757 -4583 0
-2641 728 0
-3738 -4206 0
-3267 4835 0
3683 2652 0
2769 -15 0
-1279 627 0
-3101 599 0
362 4244 0
3487 3817 0
-819 -2486 0
2382 -3465 0
1559 -1977 0
-3849 -1782 0
230 2383 0
1809 1217 0
-1204 -2935 0
-159 -1060 0
-4406 -4637 0
-1531 3010 0
-4636 -314 0
2045 2303 0
3161 -3829 0
1309 -586 0
4826 -2160 0
1005 35 0
24 306 0
-3966 -674 0
135 3447 0
-1571 -1172 0
-4332 -2212 0
-1955 -1373 0
4132 -835 0
-1621 1112 0
1721 -195 0
1374 3003 0
-401 -3116 0
-3335 75 0
-3162 4061 0
2962 -510 0
4136 -1124 0
-2366 -3340 0
-454 3896 0
3626 2501 0
3134 4028 0
-2954 2311 0
-2184 -1164 0
-1121 558 0
-2957 -1393 0
-3919 2899 0
-4133 -1981 0
-1810 -4805 0
-2963 -1618 0
-2931 -2584 0
778 4820 0
4707 3059 0
4570 -2239 0
2553 3850 0
-799 4846 0
3366 -2498 0
-4020 750 0
-3406 -856 0
4175 597 0
-3521 -4523 0
-1895 3651 0
1221 -3797 0
-1332 -1586 0
199 -3065 0
4717 -3400 0
1736 2373 0
-2058 -3186 0
-986 49 0
251 -1451 0
3142 -3672 0
3611 2465 0
-3208 4812 0
1030 -3946 0
-2841 651 0
-2934 -2854 0
-3410 1260 0
4444 -3690 0
719 -2275 0
1883 3859 0
3418 -3990 0
4321 59 0
-4220 1636 0
-1129 3330 0
4071 4435 0
3035 4459 0
-464 3261 0
802 1698 0
3014 -4410 0
-4788 -2626 0
277 2601 0
871 3395 0
-3378 -238 0
-2206 -1815 0
-269 777 0
-2304 -1003 0
4063 4452 0
-2485 2671 0
3979 1157 0
-3445 -3826 0
3931 -1252 0
3299 -2333 0
-4697 -4842 0
1080 -4682 0
-3611 -998 0
1314 217 0
3705 -496 0
-4601 -586 0
-2596 3371 0
-3778 4428 0
294 -1294 0
-4872 -3380 0
-2364 -1309 0
-2118 3468 0
-4010 2180 0
4729 -330 0
-1699 1211 0
1874 1539 0
2449 -3732 0
-3774 -1854 0
-2228 -2656 0
2627 -4144 0
2424 -1998 0
3952 -240 0
247 670 0
-3389 -2379 0
2866 -2937 0
58 -2838 0
2252 104 0
-1086 60 0
2197 -1737 0
-1615 3557 0
-1381 3954 0
-3521 1522 0
-884 4700 0
-2974 -158 0
3246 -847 0
-4183 896 0
-3640 2901 0
1545 -2898 0
4774 1515 0
1233 -2194 0
-2790 -2953 0
-3697 1102 0
1232 2168 0
-4523 2578 0
390 1519 0
-1014 3188 0
1201 -2078 0
-4343 703 0
2649 2732 0
375 -2703 0
4708 -4569 0
2520 2129 0
796 1705 0
728 4772 0
733 4382 0
4111 -2850 0
-750 -2644 0
1266 324 0
1037 -2836 0
-1653 1264 0
4642 742 0
-4523 -3607 0
183 4865 0
4660 -818 0
-410 4290 0
2687 2901 0
-3634 2797 0
-252 -2418 0
1117 246 0
-3467 1654 0
-2469 -4205 0
1497 4156 0
2372 -2140 0
2085 2029 0
2375 -179 0
-4410 3598 0
-1547 3323 0
-1759 -3565 0
584 2109 0
-4716 3670 0
-3498 549 0
-4010 1840 0
2811 -719 0
1682 647 0
-1473 -2913 0
-4279 1508 0
-163 1244 0
-2886 388 0
-1568 -4624 0
2356 3487 0
2065 -3642 0
-3807 1581 0
3258 797 0
687 3681 0
-2100 -445 0
-1529 -309 0
-3374 -1776 0
-1449 100 0
-1053 -1342 0
2451 -3599 0
-168 2889 0
-4630 -1232 0
270 -4751 0
82 -3076 0
3377 1093 0
-3802 4254 0
-2608 -3196 0
1625 140 0
-245 1884 0
248 -4361 0
4045 1527 0
968 4447 0
649 4134 0
-1437 2695 0
3406 3415 0
4518 -3004 0
-181 1101 0
-1178 -1735 0
-1818 -277 0
1060 2603 0
547 -237 0
2754 4621 0
-1256 3473 0
-3925 1604 0
3727 4293 0
877 -2451 0
4762 -4721 0
908 2997 0
2374 -135 0
2211 2820 0
513 -4216 0
-1176 2562 0
-2651 -1517 0
-1708 1079 0
1876 2121 0
2571 4733 0
-2517 -1489 0
1881 -1708 0
2610 3376 0
-3484 -3259 0
-3516 -3213 0
3181 -4766 0
-2709 -1542 0
3233 2148 0
1989 2444 0
4400 4621 0
2287 -1371 0
-1678 -1872 0
-632 2409 0
723 -19 0
-4610 -4380 0
-3437 -3351 0
2437 4491 0
1487 599 0
-1801 -3738 0
1494 1353 0
3517 4834 0
1311 667 0
-2276 3831 0
-1129 -1335 0
1482 4120 0
161 3388 0
-4168 546 0
-4000 -2662 0
3855 1569 0
4599 1905 0
-3179 2536 0
1340 -1979 0
-2249 1959 0
3775 -1407 0
-1300 395 0
-4010 -4227 0
-3857 2449 0
2639 -1315 0
-278 -1129 0
-965 1050 0
-3861 -2440 0
2663 -2991 0
-2402 -1358 0
4198 4561 0
575 -807 0
3188 -3634 0
-2161 -4229 0
-1337 -1625 0
-2284 -3819 0
-918 681 0
507 -2589 0
799 -3600 0
-2646 -1741 0
-1600 4210 0
-856 -1860 0
-4765 -2835 0
3118 1143 0
855 884 0
272 847 0
2601 3542 0
-3664 344 0
4133 384 0
1812 675 0
-2722 -2304 0
2563 3097 0
680 -1699 0
-2859 3384 0
-3454 11 0
-3780 3814 0
4848 4702 0
1157 929 0
4668 4076 0
4710 1425 0
-4124 4780 0
-4410 -1230 0
-994 -824 0
3708 2725 0
-3107 -4128 0
1915 -3185 0
-1986 4436 0
-2850 3639 0
1657 4045 0
-1439 1450 0
2316 1807 0
-4741 4371 0
-337 2806 0
963 948 0
861 4069 0
3825 -929 0
-4487 1866 0
1427 1468 0
2766 -316 0
-161 -4154 0
-4062 -2471 0
435 -3894 0
2946 4352 0
-2819 -2280 0
914 -3725 0
-4690 -561 0
-1354 2114 0
-4122 4243 0
3667 3499 0
4460 4655 0
4400 -4860 0
-61 -73 0
-768 -2717 0
4141 4797 0
-567 2749 0
164 -959 0
-222 -1159 0
-787 -3843 0
-2633 207 0
1760 -333 0
2647 -2378 0
-950 1639 0
4571 3351 0
3479 4237 0
-946 451 0
4574 -4763 0
2375 -2288 0
-1893 -754 0
1835 486 0
2961 -1259 0
-4856 103 0
-1108 -2974 0
-2308 -498 0
-1516 653 0
2037 4567 0
-4310 -836 0
-560 -2217 0
2225 -3340 0
4629 771 0
2636 -4176 0
4238 3522 0
4308 -4168 0
1983 -2604 0
2620 2820 0
2021 2957 0
3570 -4813 0
4741 -305 0
3432 -4221 0
-2348 4004 0
-3869 -3739 0
-1455 511 0
-1212 -3955 0
-2396 -1937 0
10 3702 0
-3377 2099 0
-1577 -4721 0
3898 -1741 0
-2290 3591 0
-870 59 0
-344 -1924 0
3182 1622 0
4195 3373 0
-2175 -4099 0
-1968 301 0
-2212 -1263 0
-2720 -2401 0
-838 -773 0
2972 4795 0
910 3495 0
-595 2669 0
-1231 1437 0
3666 3858 0
-3221 175 0
-2256 3835 0
2755 -754 0
1382 -3376 0
-4083 4871 0
4280 -1588 0
1717 1292 0
3292 -4838 0
2513 1555 0
-892 1683 0
4774 -1124 0
623 578 0
4759 -260 0
2900 -3652 0
-2011 -1988 0
1917 2145 0
-1199 3566 0
3307 -3029 0
-1658 -2278 0
-1007 4511 0
-4482 336 0
-2753 -206 0
-240 -1141 0
-3193 2785 0
1597 -1893 0
1185 4288 0
461 854 0
1912 -2703 0
3803 2859 0
2387 1561 0
-2459 3737 0
-420 -2521 0
403 -87 0
-2101 -4455 0
-4276 3712 0
-4069 -1114 0
3041 1056 0
-3619 -220 0
1679 2839 0
3577 -2065 0
673 -3547 0
-3378 -3700 0
-2559 4208 0
-1380 669 0
3356 2023 0
-1801 3443 0
-2239 4293 0
389 152 0
-1034 642 0
-1239 -4231 0
-442 3179 0
1413 -3983 0
-2216 925 0
-2957 3184 0
-2719 -1401 0
1706 1349 0
-1392 -4428 0
3941 -4497 0
-1278 4061 0
-2092 1042 0
2390 -1576 0
-864 3676 0
-221 2683 0
1134 4844 0
2929 -1822 0
4266 3198 0
-3133 -4609 0
-2349 3959 0
-4571 1201 0
-2901 -1048 0
1703 -1278 0
4146 2650 0
-1000 -4303 0
2075 -3662 0
-3946 -63 0
-632 -2155 0
2903 -3752 0
-4524 3982 0
1392 143 0
4808 -1919 0
3892 -1390 0
190 3441 0
4710 3306 0
-3456 739 0
435 4530 0
-1649 -3435 0
-2563 -463 0
4821 581 0
-961 -449 0
3755 603 0
1646 -4464 0
607 -2129 0
767 -1737 0
243 -1821 0
1680 -1653 0
4636 -961 0
-4576 -578 0
2155 265 0
275 -3 0
-4258 -521 0
271 -888 0
-844 -525 0
4426 -3230 0
3600 -3046 0
1770 -4376 0
-3561 3566 0
1985 -2998 0
1176 -2835 0
752 -1888 0
2861 -3312 0
-504 -3906 0
2500 3518 0
2515 1668 0
-446 4460 0
-4678 -2462 0
1432 3377 0
4857 -4381 0
4312 -657 0
-4719 -2589 0
-4011 -2904 0
262 2032 0
2948 -519 0
-531 -1036 0
-2801 -375 0
-979 -2286 0
3446 542 0
-2123 -4722 0
-1778 -2505 0
3720 1411 0
-80 -1026 0
1425 -1600 0
-3466 -1860 0
-4474 -1219 0
1846 3810 0
-1515 1810 0
2559 1222 0
2912 -4283 0
-1965 1920 0
-79 -683 0
3287 -3842 0
2085 -405 0
854 183 0
654 -2880 0
3141 -1018 0
3001 3414 0
-4770 2379 0
971 -3899 0
622 2789 0
877 4058 0
581 -871 0
2411 -3611 0
-1441 -4176 0
-628 -4228 0
-34 2600 0
-1229 1971 0
1424 -1626 0
2794 -704 0
3500 4562 0
628 3182 0
1571 -331 0
4346 1626 0
2950 -2055 0
-408 -3656 0
-1287 2800 0
3859 2465 0
4485 4662 0
3811 -1376 0
150 2685 0
-1240 -2482 0
1831 3948 0
3427 2585 0
-4300 936 0
1022 550 0
2382 2348 0
-906 -755 0
1783 -2459 0
3233 -4389 0
-4272 -1297 0
228 -1350 0
-1089 -2043 0
-710 -2643 0
618 -2827 0
-4860 -2538 0
-4717 -4499 0
2900 -2895 0
-1080 909 0
1995 -3440 0
-4243 -4343 0
-1601 3083 0
-190 -2576 0
-3191 3091 0
2495 360 0
3130 -1645 0
-2440 -1552 0
986 4585 0
2798 558 0
3499 2134 0
4072 -1269 0
-1072 4426 0
1427 2004 0
766 -407 0
1467 -3856 0
-747 2535 0
-814 -1538 0
4639 3277 0
2566 3746 0
-734 -3116 0
-1135 -2618 0
-3863 -2671 0
-1569 2649 0
-1998 1626 0
2553 2904 0
1620 -2573 0
4710 -1551 0
3319 -1596 0
-3416 957 0
-4484 -2975 0
-3176 -734 0
-382 -1238 0
-2742 3377 0
2158 3095 0
-2776 -1229 0
-4148 2076 0
723 2913 0
3910 -3132 0
1975 -2515 0
-1479 -1095 0
3039 2941 0
-2388 28 0
-1688 -4530 0
-3442 2910 0
1429 4106 0
4697 4512 0
-1982 2570 0
2345 -4578 0
-3914 -3801 0
-119 2113 0
3125 -4087 0
4334 21 0
-4104 1661 0
-308 -115 0
2518 336 0
577 -4732 0
946 -4657 0
1940 458 0
-3312 -664 0
1439 1575 0
4364 -2022 0
2664 -1851 0
933 -4320 0
-3488 4113 0
-4684 2436 0
2375 -1945 0
1264 -1142 0
-4552 -1733 0
505 948 0
-709 3938 0
1749 -4146 0
2825 -293 0
-3550 -95 0
-1740 4293 0
-454 -282 0
2824 -4611 0
-2450 1272 0
3196 4687 0
-1463 2615 0
-2183 -3771 0
-2549 2117 0
3167 1949 0
1151 1523 0
130 4340 0
4103 -781 0
-1170 -2552 0
-1682 402 0
2210 2226 0
3013 3562 0
788 -4487 0
-2564 -3984 0
-462 1146 0
-137 -2483 0
-2398 4655 0
3880 -2427 0
-4234 1529 0
-2945 -2037 0
-1516 -4653 0
-340 -4317 0
3095 -79 0
-309 1133 0
4363 -792 0
4257 314 0
-1941 1094 0
3247 4410 0
-3717 -4450 0
4267 3032 0
2319 1316 0
-66 -3816 0
3377 1598 0
4794 2475 0
-3611 -439 0
3726 -724 0
-3644 -88 0
-3508 4307 0
4720 -1414 0
-4868 -2308 0
2815 -4717 0
3691 -2112 0
1597 -105 0
477 -763 0
1583 -3444 0
-209 -4009 0
2302 3165 0
4650 1077 0
-4755 -3728 0
-4707 -1954 0
4159 -3958 0
-4381 -1850 0
822 -2147 0
4827 -4783 0
3682 -1803 0
4749 -1408 0
1713 398 0
3175 -195 0
1685 3622 0
3788 -925 0
-4364 -3004 0
-4031 2725 0
862 4814 0
3880 -3412 0
1710 -1204 0
-95 2374 0
4787 2637 0
1218 2430 0
3049 -4247 0
2947 -1569 0
1810 -4155 0
-3104 -3538 0
-4216 258 0
-3259 1797 0
-1942 -2080 0
-3148 2311 0
-213 1046 0
-4125 -3945 0
58 4702 0
-2157 -3333 0
-2207 2212 0
2907 -1911 0
2633 -88 0
4659 771 0
-810 -1890 0
-4543 3638 0
-361 -2082 0
-2762 -2370 0
2088 86 0
-1592 4862 0
-4813 3349 0
-3079 969 0
-3514 -3107 0
2271 -949 0
1387 -3900 0
4457 1716 0
-4095 1363 0
-3091 -1433 0
3287 329 0
-4385 -2556 0
2654 4192 0
-2715 1270 0
1163 3771 0
4086 -784 0
-4792 -3936 0
2847 -244 0
-4037 767 0
-607 -3358 0
-3505 2548 0
-1579 -2920 0
-1557 434 0
627 -2334 0
185 -4098 0
-396 -3317 0
2872 1927 0
-1019 -3645 0
-1297 3148 0
-1175 -1489 0
-4293 -4041 0
435 2010 0
2316 -1547 0
-861 -3990 0
408 -4398 0
3702 -1628 0
3269 -3871 0
2188 3201 0
3520 -3637 0
300 2493 0
2664 -3834 0
-1368 -1103 0
-3202 -147 0
-635 2398 0
-1252 2119 0
-2364 -974 0
30 4735 0
-3926 -971 0
-1848 1399 0
2262 1777 0
2516 -3146 0
3853 -1120 0
1548 1519 0
3623 2443 0
-671 -832 0
4539 4591 0
-4301 2037 0
2241 -3357 0
-4433 4771 0
-2954 -2537 0
-3011 1231 0
4517 -928 0
-840 -2706 0
4217 2777 0
2705 3041 0
-2137 -2684 0
-2302 4591 0
2579 -2366 0
-1969 360 0
2731 -3877 0
-1896 1352 0
-1242 -1807 0
4199 1787 0
3682 3237 0
2704 3558 0
4634 3768 0
1927 1502 0
-3108 -330 0
2397 3118 0
-306 2623 0
-3751 4034 0
4373 -106 0
-1350 -4304 0
-1617 -4763 0
-1865 958 0
-1737 2447 0
-1457 -3601 0
1777 446 0
4325 -3055 0
-949 -1899 0
4835 3795 0
-4277 -1347 0
4083 -2070 0
1126 148 0
3175 -42 0
4054 -342 0
-2110 -1283 0
2217 1815 0
-2731 -1109 0
-3592 2732 0
1022 3788 0
-1319 -2837 0
-4501 -3296 0
-1335 -2471 0
4318 -2942 0
529 -2563 0
403 968 0
-2960 4233 0
-1341 -2115 0
115 -1514 0
4196 -723 0
-2932 2666 0
-1985 4375 0
1911 -2975 0
-2480 -3305 0
-3488 4473 0
-4228 -1293 0
-811 2745 0
1456 -3170 0
2756 1222 0
-400 -3138 0
734 1716 0
-1948 2700 0
2864 -3999 0
-936 -3023 0
-1859 -241 0
-2246 -3470 0
387 1757 0
1124 3609 0
3141 -4068 0
441 3478 0
-4362 401 0
3714 727 0
4645 289 0
-4022 -3285 0
505 1430 0
1840 -2321 0
-2745 2764 0
-2119 -2921 0
4160 4523 0
-1309 -4541 0
321 -4474 0
4655 -2751 0
-4267 -2517 0
-3318 -3718 0
203 -2772 0
2697 2614 0
161 1575 0
2377 -3569 0
-255 135 0
-1878 330 0
2050 -3668 0
3642 2715 0
-2559 -4218 0
4299 -4361 0
1925 2314 0
4507 3253 0
2039 -779 0
-4088 -3841 0
-2101 -1757 0
1972 617 0
3608 -3115 0
3033 -2938 0
4568 3867 0
-3158 2526 0
-4663 4406 0
-4817 4305 0
4498 -594 0
-4743 3447 0
-2664 -3485 0
-1043 -1545 0
1210 -4314 0
-3883 1386 0
45 2524 0
3349 2315 0
-4181 -548 0
3658 2917 0
3672 -4066 0
928 -1514 0
-2081 -395 0
3141 -61 0
-3435 4175 0
-1368 -3005 0
-439 -3806 0
197 10 0
-2124 1971 0
-3279 -872 0
-2290 -2456 0
2827 -1347 0
264 -1802 0
4127 286 0
3105 1438 0
-1965 2768 0
-4522 798 0
-1193 -4637 0
-3035 -1639 0
-4384 -2648 0
4609 3399 0
-4576 4629 0
-4688 4392 0
-1241 1998 0
-1784 325 0
-4345 -3847 0
2393 3103 0
2556 -4083 0
-2211 -743 0
1327 -3368 0
-1478 -2076 0
-4388 1871 0
888 -399 0
4291 1489 0
1303 2768 0
-3776 1548 0
2701 -3344 0
3128 1124 0
-4612 4128 0
-3718 3498 0
-1321 -4131 0
1856 680 0
-3573 -3167 0
-1786 -758 0
1153 -2476 0
-3662 -2053 0
835 4770 0
4748 2290 0
-1199 -4686 0
-4248 4606 0
-3503 -917 0
3869 281 0
800 -4805 0
679 -4209 0
-3174 4672 0
-1661 -4280 0
-1680 -1099 0
-308 3995 0
191 3585 0
2203 4562 0
-1942 -4434 0
-3546 4447 0
4354 -4464 0
-2044 3859 0
1496 -4364 0
1201 -3858 0
914 3480 0
2453 -3070 0
3168 1149 0
636 -3334 0
-4228 -4140 0
2479 3704 0
-3280 4000 0
4457 2669 0
1446 -1628 0
3475 -77 0
85 4517 0
3806 1249 0
-2517 -1911 0
2377 -882 0
-4445 3916 0
3032 -2903 0
-4437 764 0
-255 4613 0
4344 -1332 0
1752 2339 0
-2782 1635 0
4704 1614 0
3597 2553 0
-4122 -2938 0
-3217 -2832 0
2302 1344 0
3307 1599 0
-3432 1100 0
4105 4697 0
3245 3874 0
-1005 -276 0
3401 4224 0
4369 -4834 0
-4031 -3951 0
-3993 -2396 0
46 -4772 0
-63 2990 0
3031 -2196 0
-4649 1228 0
-2737 -4544 0
227 -3897 0
3411 -934 0
-4723 -4134 0
4700 4827 0
-4801 -3797 0
-4464 3307 0
1226 4034 0
-2634 -982 0
-4027 -4428 0
-4700 89 0
4455 4818 0
-481 -2154 0
3443 4056 0
-1798 2857 0
-1505 -3632 0
-301 -4036 0
-3999 -850 0
-4807 -1642 0
-1752 4789 0
-3210 -270 0
1661 -1953 0
-4140 4540 0
609 -4070 0
1642 -2541 0
2266 3587 0
2154 -1446 0
-2604 -3063 0
-938 3249 0
-2869 4581 0
1201 3646 0
2374 1442 0
-1894 -351 0
-874 -4489 0
-4132 -1354 0
2778 1420 0
4432 -3210 0
-1477 4578 0
1946 -3256 0
-798 -3517 0
4352 1494 0
-202 3349 0
2639 -3586 0
4518 1127 0
1149 -3511 0
-4262 4767 0
-817 4125 0
2293 -1949 0
-1489 -4499 0
676 -498 0
1602 -4836 0
-736 -245 0
2996 662 0
-1733 -718 0
-166 -4553 0
-2686 -2416 0
4588 -2746 0
-4380 3402 0
-1657 -2228 0
-4825 -2901 0
902 -2634 0
424 1343 0
-1280 -3997 0
-3065 676 0
-3755 -1388 0
-2234 4511 0
1495 4051 0
3298 -4066 0
-1722 -2495 0
-6 2233 0
3348 -2071 0
4780 -2902 0
3954 1786 0
-3772 -3294 0
-1936 2861 0
-134 4613 0
1517 -3085 0
-464 1227 0
-246 -2283 0
1161 -4526 0
716 -268 0
1947 3141 0
2431 -4249 0
1907 3422 0
-4616 4620 0
-3123 -1884 0
-3873 3726 0
3247 1695 0
-2709 271 0
-2482 -747 0
2671 -591 0
4081 -2863 0
3299 546 0
2466 3059 0
3435 3822 0
2214 1485 0
3019 4855 0
-1882 -3902 0
575 -3717 0
1076 4437 0
-1304 -2256 0
-2757 2866 0
-1877 -2031 0
-2182 1025 0
-1111 -4124 0
-4092 1749 0
-3335 980 0
3122 3138 0
861 -1207 0
-1531 -4244 0
-816 -4385 0
1614 3817 0
-1860 -1178 0
-3964 3666 0
3555 1430 0
-4204 638 0
389 3639 0
1986 -3437 0
-1276 -3795 0
-652 4137 0
1326 -344 0
-1694 3935 0
-1295 3338 0
-1544 -4769 0
-4500 4357 0
-475 3492 0
1856 4763 0
2869 -941 0
3407 -2877 0
2313 324 0
-510 -4651 0
3323 -1864 0
2929 -3535 0
-4558 958 0
-1397 -4140 0
-3622 4032 0
-2333 2297 0
3020 2851 0
1665 4830 0
-252 -846 0
4109 -1686 0
3783 2600 0
-4832 178 0
-1478 -1931 0
-2369 1526 0
4298 -1367 0
-2400 -2886 0
2452 -4259 0
-1762 -3544 0
3703 -3012 0
4259 -3545 0
2785 1653 0
619 -4241 0
2990 420 0
270 1215 0
-4270 3737 0
1627 -4643 0
-982 -1827 0
30 -1435 0
2618 -4563 0
3777 4328 0
-2543 -3402 0
3630 -2077 0
3748 -652 0
-545 -1021 0
2298 2878 0
3419 -2714 0
-1843 -4680 0
1610 4773 0
1665 -306 0
-2989 1023 0
3260 -2750 0
-3172 -1690 0
-2736 -662 0
-1762 2239 0
3197 2766 0
274 -2360 0
-2428 -920 0
-3446 -1938 0
-1545 -2714 0
-1392 -563 0
-370 -592 0
-4153 3778 0
-126 -4796 0
4317 876 0
2656 3165 0
3509 1705 0
3302 -1594 0
1226 -1127 0
490 1972 0
-2261 -2777 0
300 -2101 0
-4068 -4066 0
-1140 1903 0
-3883 3145 0
1748 -4154 0
3809 1041 0
-3515 -3644 0
-2015 1078 0
-2281 4339 0
-4202 -3387 0
-899 1282 0
-1066 2886 0
3168 -949 0
3284 2679 0
-2161 810 0
-1644 -3665 0
-3596 547 0
-1576 -2183 0
116 -2436 0
-2476 4039 0
-4612 540 0
-4237 4488 0
-1293 4246 0
1626 2887 0
3091 3860 0
4342 -4696 0
-973 1923 0
625 -997 0
68 2792 0
-3378 3718 0
1056 -3840 0
2097 -4619 0
-4851 -489 0
-1465 3302 0
-1725 4641 0
3094 -2263 0
1682 -2140 0
-3581 2860 0
1302 -4119 0
-2988 -1172 0
-526 3756 0
289 1930 0
4313 867 0
-4738 403 0
-1952 -136 0
2016 2827 0
-449 4638 0
2575 -3436 0
2048 -1099 0
-4420 1161 0
-3385 -4183 0
4151 -3175 0
-321 -2996 0
231 -3795 0
-815 1702 0
-4250 -2232 0
-929 -2474 0
4024 1675 0
1895 1271 0
-4493 -41 0
629 -720 0
-613 -1979 0
-4041 158 0
2606 -408 0
1434 2530 0
695 -1162 0
-1107 -4657 0
1655 -446 0
91 4719 0
3648 -2071 0
-4804 -4602 0
4473 -211 0
268 -2426 0
1765 4768 0
811 2111 0
-1694 2947 0
3535 -1849 0
691 -231 0
-1175 3684 0
-1953 1808 0
-2704 4374 0
-4725 2977 0
2832 92 0
3994 176 0
-320 -2746 0
245 -3227 0
-2104 -1196 0
-2095 988 0
4043 3739 0
2488 -1965 0
-215 -3238 0
-3449 -1189 0
-1608 2325 0
-1756 -2557 0
4788 525 0
3441 2873 0
4456 963 0
-3778 -639 0
2410 951 0
-4858 2173 0
-881 -2112 0
-4701 904 0
-3662 1438 0
-2099 -1445 0
2687 -1773 0
-3396 -3108 0
-2003 -4476 0
670 4192 0
3205 4016 0
-1757 2067 0
2272 1605 0
-1231 877 0
-3543 -3134 0
2936 2395 0
-3645 -3066 0
2496 -4135 0
-1093 765 0
-3949 -704 0
-3096 -3452 0
3323 4664 0
3160 -832 0
-562 -4454 0
-630 4354 0
-4133 -4604 0
374 -3040 0
297 529 0
-3085 -96 0
3911 -978 0
-972 -72 0
-526 2134 0
-2550 -1381 0
3546 -1502 0
-1589 -2778 0
-3798 2382 0
-1078 -4770 0
-4649 583 0
-4811 -3390 0
4424 -3137 0
3163 1886 0
1964 270 0
2614 -4022 0
396 3216 0
4036 2824 0
-1379 -1112 0
-3424 988 0
-846 3093 0
-4579 -2010 0
-144 585 0
-334 2000 0
194 -2966 0
2347 1603 0
-686 -616 0
-3102 3294 0
-1130 -4599 0
4046 -4590 0
-419 -4770 0
-1122 1646 0
1139 4808 0
417 -981 0
-3988 681 0
-2651 -1086 0
2069 -4130 0
-856 -2343 0
4377 601 0
306 4558 0
-86 -4572 0
-4351 -2563 0
-3012 -2609 0
3148 3747 0
1763 3487 0
675 1379 0
-1994 848 0
3402 -4679 0
3744 652 0
-3358 508 0
-3314 3859 0
-2534 -644 0
3137 -2690 0
-1796 1030 0
1333 -1443 0
798 -119 0
-4277 -1082 0
4045 -2845 0
257 2484 0
3275 4585 0
-3992 4009 0
18 -3440 0
-3998 -2117 0
4639 23 0
-3270 -1869 0
-1793 1935 0
-2827 -2272 0
521 3533 0
3110 1161 0
1793 -3592 0
-364 1249 0
184 2606 0
3738 -131 0
-2141 -4833 0
-1708 2662 0
3071 -3096 0
3628 -2365 0
4349 -2730 0
-902 2287 0
-315 -4200 0
-1970 -4193 0
-3465 4005 0
4231 1419 0
4372 -12 0
-2417 2439 0
-4857 1452 0
-3431 -1019 0
-2380 3834 0
3008 2885 0
-2379 -2131 0
3999 -4484 0
-4133 408 0
2820 1138 0
4704 1697 0
592 4567 0
3817 -2851 0
-3440 -2921 0
3029 -2157 0
-2246 -3409 0
-557 -2834 0
269 -416 0
-4409 -792 0
-444 2848 0
-4492 1305 0
-2644 -787 0
3464 4468 0
-3607 -4227 0
-1301 -3060 0
-1616 -2815 0
4695 -559 0
-1779 -1598 0
-3513 -760 0
4529 -2704 0
-427 -36 0
-2793 2383 0
-4115 2076 0
2902 4820 0
-1407 -3991 0
1278 -4285 0
212 1460 0
1227 4327 0
-2245 -1248 0
1637 -2286 0
-3803 -3545 0
-2473 -562 0
3331 3036 0
-3649 3157 0
-1082 -760 0
3921 -797 0
-3323 -4003 0
-2704 -3809 0
-1542 -4021 0
3663 -3955 0
888 2106 0
3487 256 0
1080 1752 0
-1001 -4594 0
4295 2553 0
3929 -4632 0
1266 -3349 0
323 272 0
680 -3525 0
-2011 -1310 0
4562 3744 0
3352 -2369 0
-3728 1865 0
2562 1585 0
-3157 3028 0
2691 755 0
2559 3331 0
-521 2499 0
1536 3455 0
-2590 -3284 0
-2584 2166 0
-3909 -3967 0
-3206 694 0
-1261 2533 0
34 4664 0
-4832 -159 0
1355 1872 0
-4666 4510 0
-2578 -3326 0
2192 4568 0
-3061 2987 0
2546 -1786 0
-4809 -3212 0
-1189 815 0
-3662 -3316 0
2132 -602 0
-3718 1659 0
-1147 -24 0
793 4503 0
2663 -1447 0
829 -4524 0
1465 -1389 0
-3596 -944 0
-2061 -2931 0
999 866 0
-4548 -322 0
3755 2994 0
-1686 1502 0
-2272 4007 0
-1660 -3782 0
4850 -4200 0
-3216 -927 0
-119 82 0
243 1163 0
1054 585 0
631 4677 0
-2365 -948 0
-1585 3052 0
-1350 3556 0
-391 -4064 0
1745 -718 0
-4306 -3202 0
3769 -3688 0
-2364 2734 0
-1925 -2188 0
1488 3022 0
2561 -2920 0
1659 4101 0
-4701 4095 0
-1890 1404 0
-41 1050 0
2961 1635 0
-616 -2884 0
3830 -3217 0
-2837 250 0
-343 4806 0
2332 470 0
2743 4093 0
-903 -350 0
720 1139 0
3153 -658 0
-4421 3637 0
-885 4257 0
3972 4151 0
-3857 3168 0
4533 1422 0
1585 -2908 0
865 -1919 0
-4427 471 0
-708 -2655 0
-578 -1417 0
-4814 -2601 0
-3177 1105 0
2545 2979 0
534 2717 0
2444 3034 0
4286 3865 0
46 -3251 0
-3486 -718 0
-407 1801 0
-3543 1099 0
-3179 -1988 0
2414 -1150 0
1251 1756 0
-682 2592 0
3352 -2545 0
-2236 1920 0
25 -4494 0
-3516 1123 0
-4743 1621 0
-3489 -4092 0
-2071 4418 0
679 -4339 0
3030 3696 0
2061 4762 0
-864 3314 0
3030 2861 0
748 845 0
-2378 -1633 0
-2283 2031 0
1500 3708 0
868 312 0
4874 1668 0
4400 2367 0
3225 423 0
1191 -4084 0
805 3765 0
-3601 -2502 0
-4267 -4186 0
547 -4044 0
-1722 3092 0
886 -2216 0
298 1799 0
3418 1588 0
91 1887 0
465 -1939 0
-3903 1504 0
-2608 4285 0
1241 3472 0
1316 -769 0
-1599 4740 0
-3486 -621 0
4261 3199 0
1820 -4421 0
54 833 0
4162 4215 0
1697 3142 0
1234 -148 0
-3654 -2949 0
-2554 1561 0
-52 -1124 0
2577 -3454 0
4061 3496 0
362 -2794 0
4315 -1897 0
-1680 2259 0
-2152 300 0
2758 -4231 0
4246 3289 0
-3070 -2844 0
-2007 -2814 0
-4270 2463 0
1293 2389 0
-294 2698 0
577 -4437 0
-1875 843 0
-3565 1639 0
1677 269 0
1346 3088 0
-1189 -4025 0
4104 -21 0
-389 -368 0
4822 -971 0
-2676 4765 0
4127 -65 0
4178 2603 0
3961 3709 0
4007 -1601 0
1771 2025 0
2558 2024 0
-3442 1473 0
4145 14 0
4288 4644 0
176 4603 0
-1460 2291 0
3030 2404 0
-2978 2347 0
3770 4359 0
-62 -2496 0
3229 230 0
4090 3500 0
-4150 2661 0
-536 1966 0
-2322 -318 0
4428 -1930 0
3336 183 0
-524 3089 0
-369 -2554 0
4387 289 0
-3474 -4644 0
-737 2407 0
-1561 -1974 0
-4423 -42 0
3982 2205 0
-4244 1646 0
-1450 1894 0
-2561 977 0
-2861 -42 0
4398 4422 0
1310 3195 0
769 -4698 0
-373 69 0
1232 2111 0
-2658 -1049 0
2385 -2443 0
1716 -4738 0
-2838 4374 0
-1611 3448 0
-2429 -1008 0
-2486 -2544 0
-3072 3111 0
-752 -2284 0
1681 1335 0
4765 3263 0
-50 -1910 0
4267 396 0
3500 -1174 0
2633 -3559 0
936 2176 0
4349 -2223 0
-3505 4472 0
-1880 3091 0
3262 -1981 0
-891 -4233 0
554 2169 0
2515 -4811 0
4175 1379 0
-995 -3501 0
-1888 -427 0
774 -3189 0
-80 4179 0
2435 -3163 0
-457 493 0
-1679 -1209 0
1783 -3605 0
-4186 -2537 0
-3122 1913 0
1401 -4618 0
3222 4181 0
-2031 3863 0
503 -2966 0
1370 -3446 0
997 -3425 0
-2722 -2181 0
-4110 -3055 0
341 -4384 0
-4824 -3126 0
795 -3231 0
-2298 -3330 0
-644 -1263 0
1631 2210 0
-2041 -3820 0
4218 4512 0
-3474 2566 0
-353 -2541 0
4369 116 0
4692 -3559 0
663 4237 0
294 -4077 0
-2184 -818 0
4719 -3016 0
4645 -39 0
-1770 -904 0
4271 -2249 0
-2665 1795 0
3712 2582 0
1468 -7 0
-2551 3729 0
1502 1247 0
-2675 3395 0
-2672 -2119 0
2400 -4274 0
-4690 4008 0
-1891 -1560 0
3970 -3492 0
-1386 -1008 0
-3902 1083 0
-255 -834 0
-1460 2475 0
-3672 4450 0
4565 1539 0
-2902 1072 0
-1629 4818 0
3247 715 0
3715 -1780 0
-1849 -1777 0
388 3245 0
4710 -3183 0
4375 -273 0
-1547 1598 0
-1938 1956 0
-841 1575 0
-4572 1826 0
3187 -3706 0
-4861 -3920 0
2263 -1407 0
4491 -3132 0
1262 2039 0
-2886 -3888 0
2324 60 0
3395 -2352 0
4342 -3990 0
-4345 -1662 0
4428 2396 0
598 2493 0
2342 -2166 0
-1478 -3378 0
-1935 -981 0
3263 87 0
-1762 -1758 0
3656 2060 0
-3752 -2265 0
3713 1968 0
-3420 2305 0
1434 -4461 0
-2284 1106 0
-460 3182 0
4187 -1758 0
4418 3634 0
3701 2232 0
1804 3883 0
4309 -4259 0
4834 953 0
3438 931 0
-1990 -51 0
3012 2600 0
-4668 2618 0
-1311 -3547 0
-2123 1260 0
577 -2635 0
533 -3005 0
1146 1754 0
-376 -2458 0
1706 4797 0
-513 -783 0
1100 -519 0
606 -1177 0
-814 2258 0
-4096 3012 0
-3965 1000 0
-3381 1052 0
3741 -37 0
-4667 1523 0
1742 307 0
4349 -2195 0
4495 181 0
-3273 1751 0
4344 3257 0
-4674 -280 0
3950 2132 0
3439 295 0
1242 -4312 0
-3549 -4355 0
3855 2027 0
914 -4263 0
-3012 114 0
111 -407 0
-536 -2184 0
-3572 4117 0
-3664 -3208 0
-2850 -3989 0
1605 -4393 0
-741 -2473 0
-1106 -1888 0
-3372 -523 0
4073 -3900 0
2592 2518 0
-2443 1212 0
922 -3246 0
-1383 -4135 0
92 2866 0
645 376 0
3554 -2161 0
4723 289 0
-3098 3466 0
-1127 -333 0
-890 -3866 0
3393 3835 0
4622 2657 0
2435 998 0
-875 4603 0
3493 2304 0
4536 -843 0
4367 823 0
-2149 3864 0
-2853 232 0
-4249 1705 0
-495 -3272 0
2291 -3611 0
4712 1447 0
2160 234 0
-2903 -1505 0
-2051 -4576 0
2323 4565 0
3054 2446 0
2883 -3091 0
3465 3392 0
-4417 -828 0
4542 -759 0
-425 -1726 0
-2394 -3248 0
-4314 3042 0
1473 1786 0
2374 -3098 0
-2618 292 0
667 -4778 0
-3783 -2850 0
-2249 -3660 0
-1625 -3552 0
28 954 0
-3797 -4362 0
2485 2081 0
3362 1021 0
-3119 -3083 0
-3257 -2170 0
-3838 -1368 0
-4731 -2770 0
4134 -2060 0
881 1287 0
-1848 -4360 0
-3781 -3006 0
2 -4077 0
-1007 -531 0
-3645 4594 0
4433 -520 0
-4004 4565 0
-3452 610 0
3033 -1622 0
1735 -790 0
608 -1535 0
890 -1252 0
4145 4459 0
4151 -1470 0
418 -4345 0
-2985 -4561 0
-1546 -234 0
3076 -833 0
-4837 -941 0
-3496 -1169 0
676 324 0
-1618 -530 0
1456 866 0
-4760 -1143 0
-80 3925 0
922 2984 0
-148 -1520 0
465 4529 0
-111 -1050 0
2682 3401 0
1809 2701 0
-807 297 0
1647 3424 0
3675 -3705 0
-3663 -3140 0
285 2017 0
-533 -1654 0
1179 1152 0
4546 -2265 0
-3110 2548 0
919 -1443 0
330 -4427 0
-2816 2440 0
3168 1474 0
-2196 2400 0
-1483 380 0
1571 2615 0
-772 -4498 0
1411 3706 0
1763 3597 0
-4088 895 0
-1476 626 0
-4676 1450 0
-3820 4430 0
-385 4556 0
-2394 2795 0
-3401 1858 0
-3682 -2812 0
2852 -3079 0
-4512 -2112 0
3742 2593 0
1619 -2763 0
-1839 2006 0
-1709 -3883 0
-3150 862 0
-1533 4042 0
-3967 -3704 0
349 -4453 0
3057 -416 0
4160 -4262 0
-1062 4827 0
-4509 -2014 0
264 -527 0
-340 963 0
-410 -2773 0
325 2678 0
2453 3065 0
4799 4533 0
1913 1763 0
2768 -4601 0
-4430 -3600 0
3599 -2550 0
-2893 2234 0
-2421 -4498 0
351 -3557 0
-2904 -847 0
-2770 -1158 0
1843 -2979 0
808 2514 0
-386 -3201 0
1822 3049 0
-2478 93 0
-283 4267 0
-2768 2371 0
3531 -331 0
4020 905 0
4677 1956 0
1829 3057 0
-83 -2128 0
1886 1475 0
-3334 2125 0
4723 2765 0
-1634 -1835 0
4058 4754 0
-3812 -844 0
-3060 2367 0
-4834 2197 0
-482 21 0
2868 3663 0
-4096 261 0
2735 -4234 0
-403 -2643 0
-2710 -1924 0
2243 -244 0
-4186 -3243 0
355 661 0
-4410 -673 0
-1172 1729 0
4548 -4132 0
-2133 1987 0
-4323 -887 0
-3997 4065 0
2176 -1510 0
769 -3296 0
4777 2657 0
673 4392 0
-613 4821 0
-2154 -4179 0
-377 -317 0
3073 1655 0
3783 -3070 0
-2213 -1934 0
524 4322 0
2610 2264 0
3181 -2580 0
-341 -2837 0
3926 -942 0
2220 -4313 0
-3976 4111 0
865 -249 0
839 -3924 0
1328 -2516 0
-1051 4340 0
-4106 -1725 0
1209 -101 0
-220 2776 0
2846 97 0
-2952 3979 0
-1033 -4654 0
4155 -1364 0
-1714 1519 0
1568 -2473 0
-1307 -3179 0
3883 -2338 0
-2932 4574 0
3401 -2938 0
-3891 -1760 0
-598 3880 0
2961 4710 0
-2381 -813 0
364 -3731 0
3091 -3599 0
3558 2319 0
-4847 -3261 0
4551 -1657 0
1883 -1468 0
1305 3854 0
3004 -3206 0
1529 4828 0
3032 1963 0
-2834 -774 0
-3469 -2423 0
4218 -2442 0
-1278 -356 0
2350 -1171 0
2606 1819 0
2926 -1158 0
2956 -172 0
-3809 29 0
-3723 3099 0
-534 -1239 0
-2816 -805 0
-4122 -2510 0
-3530 298 0
-650 -4159 0
4318 -1765 0
-1465 -4092 0
-2674 61 0
-4758 -1631 0
-3853 3848 0
-3675 3225 0
-1329 2236 0
-1912 -2655 0
-117 -2301 0
3997 -542 0
-1389 -316 0
3855 -4083 0
3646 463 0
237 -2511 0
2678 975 0
1925 221 0
-1070 1392 0
-478 1938 0
1291 4185 0
4319 4835 0
-1417 -1293 0
-292 4108 0
-997 3501 0
3203 1074 0
1138 -4855 0
-3045 -4024 0
-2156 191 0
-4532 -218 0
3121 4543 0
2059 -166 0
-4645 4323 0
1965 -1392 0
-4199 -4011 0
4746 3460 0
-3230 4760 0
4299 -1600 0
3319 -3269 0
4040 -1985 0
-2372 -873 0
-2980 4797 0
-3827 -2010 0
3541 65 0
2011 2297 0
4263 3054 0
2875 -3905 0
-400 -4354 0
2943 -1171 0
4509 -4351 0
-3680 -4185 0
2315 4667 0
-194 -1725 0
-4731 1711 0
909 -1733 0
4105 -4146 0
4877 -1443 0
4271 -1175 0
-3753 2548 0
3496 -1065 0
4683 -2007 0
-2070 3669 0
2005 -294 0
-3704 295 0
-3870 4053 0
2483 -1360 0
3630 -707 0
2970 2631 0
-3869 1494 0
456 101 0
770 3298 0
-3926 -3998 0
-2484 4869 0
1406 3207 0
-3964 -2510 0
-4153 -3330 0
-1741 -1575 0
1734 2647 0
4252 984 0
-3501 20 0
3961 -2365 0
-2080 -2811 0
3539 3287 0
274 -2010 0
-2042 -210 0
-923 -846 0
2823 3014 0
-4530 -558 0
-389 874 0
-4807 4227 0
4698 3462 0
2501 1504 0
-709 2118 0
2603 4808 0
-4042 -3038 0
-3967 -1445 0
1445 2850 0
1226 -4081 0
4063 -3017 0
-233 -1641 0
-3569 -1166 0
-613 -2202 0
1586 -872 0
-4540 4515 0
4219 -2370 0
-4534 2809 0
90 -2161 0
-1218 -754 0
-492 2226 0
-4069 -1592 0
2614 -3141 0
-3106 -4618 0
273 266 0
-4211 3991 0
-2048 -3646 0
-2880 2825 0
2654 2198 0
723 -229 0
4441 -196 0
3770 640 0
-581 4641 0
-2399 3306 0
-523 4049 0
2728 -4650 0
2806 1276 0
-3875 -1033 0
3025 833 0
-4129 -3654 0
-4680 2838 0
-373 -2251 0
1401 3483 0
-2224 -1829 0
-806 2647 0
3639 2762 0
1233 4846 0
4783 -2019 0
-2602 3573 0
-3136 1795 0
1327 1393 0
2718 3935 0
-1735 192 0
-98 622 0
-1554 -2372 0
-3781 2363 0
-449 -2768 0
-2443 -1843 0
3349 -1287 0
-1017 3908 0
2944 -127 0
-3263 -2388 0
2197 -3888 0
4562 795 0
-4110 -2211 0
3461 -3012 0
-371 -1107 0
-4573 -677 0
-3007 1138 0
-1939 -3236 0
-3870 2328 0
-3955 2849 0
-1896 -1991 0
3898 3969 0
3708 3037 0
4551 -2417 0
2234 2163 0
2687 167 0
-925 -2604 0
-2735 -3849 0
-1755 -1788 0
-3557 122 0
-1549 1762 0
-4718 270 0
143 3233 0
2862 -2475 0
-1952 2950 0
-1147 -4542 0
-469 175 0
-2757 3693 0
1029 645 0
4015 -391 0
552 -391 0
1822 1820 0
2514 -107 0
-897 -3761 0
1586 -4622 0
-1938 4112 0
-4758 -3743 0
4724 1024 0
3636 -3572 0
1190 -2670 0
2431 -2203 0
-2496 -3523 0
-1341 -3813 0
3235 -3477 0
-3249 -937 0
-2383 -2802 0
-4372 3786 0
1360 -3007 0
-288 2323 0
-4084 -1123 0
-2230 -1985 0
3307 627 0
-4684 2100 0
2508 -3572 0
2665 2365 0
4107 3723 0
-2658 573 0
4336 -531 0
-358 800 0
-2415 3370 0
-4042 -4199 0
-3433 2411 0
-4303 793 0
-1390 4468 0
-2644 1830 0
-3958 -4470 0
-2831 -2531 0
4244 4726 0
-1578 589 0
155 -3762 0
-4379 4525 0
1602 4269 0
-1407 -1385 0
1519 2968 0
-1028 -1267 0
87 3488 0
-3616 -1944 0
-3274 2363 0
3638 2010 0
502 3070 0
-4604 503 0
2644 2607 0
3314 -249 0
-2084 -4734 0
-3984 505 0
863 2534 0
-190 -1385 0
-984 3769 0
-1548 -1785 0
1514 -1719 0
-1253 -839 0
2434 -938 0
2284 3848 0
3393 -1725 0
3044 -740 0
1469 -2286 0
-3690 -85 0
1079 412 0
2214 1494 0
1571 -2937 0
3012 -4522 0
-963 3609 0
-3618 -3424 0
-1431 1775 0
-4398 4034 0
2711 -1805 0
-3807 -887 0
2595 2465 0
-2863 -4035 0
-2243 1839 0
-3023 1662 0
4505 4655 0
1594 -4611 0
1905 -3173 0
2649 4130 0
-2461 4756 0
656 3688 0
1022 -3856 0
-560 -1474 0
-3044 -225 0
-4010 -1934 0
1326 2231 0
3436 52 0
1301 -1013 0
963 -2402 0
4751 3829 0
-4286 517 0
-4443 1990 0
1853 -3527 0
134 -492 0
-1816 -1526 0
2192 4281 0
4396 559 0
-2303 4034 0
-1114 -4122 0
-3113 2472 0
-208 2593 0
75 -1181 0
3289 -4594 0
-3951 -676 0
-3092 1913 0
4308 -1486 0
2493 4873 0
2082 -2533 0
2609 -3045 0
3667 2619 0
2235 -655 0
-1017 2347 0
627 2898 0
764 1369 0
-2598 842 0
-1238 3121 0
-4597 3668 0
-4561 -4458 0
497 2359 0
-3616 2720 0
-2746 1072 0
-1617 -3821 0
-2859 3636 0
1389 -4763 0
-1466 4694 0
-1510 1043 0
-591 4012 0
1832 2132 0
-2982 4836 0
2810 -2230 0
3083 3380 0
-4853 -3211 0
-512 -1105 0
-2206 2354 0
-1963 -2232 0
-2408 -2780 0
-386 3950 0
3319 -1663 0
3854 -1182 0
-4096 883 0
2209 2606 0
1834 4318 0
-1094 3481 0
-2638 301 0
4316 -457 0
-3536 2999 0
2756 2303 0
2398 -1532 0
661 786 0
-115 2514 0
2880 -3632 0
1415 665 0
-1089 1505 0
-1181 627 0
-4666 -1113 0
-3216 698 0
-2913 -3490 0
-2763 17 0
-882 -3344 0
-4185 1171 0
2439 900 0
3589 1778 0
1054 24 0
-4496 4187 0
-1916 -2648 0
-1782 -445 0
-1199 753 0
-1368 -1881 0
-3150 3302 0
-3505 769 0
-3828 -662 0
3796 3438 0
1777 -1171 0
-2970 -3205 0
2660 1425 0
3896 -1269 0
922 -3561 0
-2157 2273 0
4364 -1324 0
4503 3500 0
61 4293 0
290 2986 0
2928 -2545 0
-2967 -766 0
-977 3410 0
795 -4848 0
2956 -3921 0
3604 -4345 0
-4450 -3031 0
-1999 -666 0
219 -101 0
3858 3376 0
1147 3441 0
2505 1336 0
186 3765 0
397 -4077 0
-4085 -4161 0
-2274 -2262 0
-2667 -3495 0
140 2056 0
-3732 -261 0
-130 2232 0
662 2302 0
-3676 -2275 0
-2938 -3649 0
-3586 1379 0
-1987 -2356 0
-3991 -4262 0
2532 -2847 0
2069 -2633 0
-40 199 0
2983 1190 0
-553 -2966 0
1570 -22 0
-4601 -1474 0
-3460 -766 0
4004 -2227 0
3105 1178 0
4237 -3812 0
-1089 -1994 0
-354 -2620 0
-30 -936 0
614 -2882 0
-4249 4246 0
2203 2004 0
1226 -2865 0
-3957 -2810 0
2586 -1520 0
1518 2967 0
874 261 0
-2000 -2799 0
-672 -2591 0
-1521 -532 0
-3748 151 0
1375 704 0
-129 1762 0
-3781 -1522 0
-873 -2390 0
-4512 4314 0
2856 -3082 0
1194 -3689 0
-4331 -504 0
-2992 -975 0
4639 1270 0
4834 1520 0
4216 -832 0
-364 -4714 0
1447 4737 0
-2114 2693 0
-3749 -4133 0
954 -1595 0
3705 -4576 0
4041 -4189 0
-3191 -2773 0
4141 -1413 0
-3532 -1615 0
866 3373 0
1558 2851 0
-2583 1324 0
-1242 -4791 0
4157 925 0
815 4609 0
3702 -2336 0
4664 -4277 0
3286 3642 0
-3641 1341 0
-4831 -1051 0
-4163 4344 0
-2858 -4044 0
-2381 -1465 0
4632 -1153 0
-279 -165 0
4377 -4287 0
2198 -2150 0
-1232 3823 0
4591 3697 0
-1887 -1474 0
-4130 -4499 0
-3230 -3919 0
-130 -1891 0
3515 -1267 0
-1097 608 0
-2658 -4565 0
-1001 4442 0
-4677 4441 0
-4003 -1089 0
-4162 -3605 0
-2640 1450 0
1134 -2057 0
3761 761 0
-4438 4301 0
4536 2270 0
965 4155 0
4181 4021 0
2512 -3550 0
2643 -2680 0
3385 2007 0
-2619 -4167 0
2416 -4771 0
4299 925 0
-3579 -4417 0
-4276 1352 0
-4666 -37 0
4677 -1299 0
1370 3603 0
456 -4148 0
2318 -3511 0
-234 -64 0
-3079 -37 0
1018 -1187 0
-1737 -265 0
503 886 0
-1096 1057 0
-1383 -4571 0
-1419 -2882 0
-3336 3883 0
46 -362 0
-2814 3566 0
3413 -53 0
459 -1475 0
2657 -1970 0
-1823 2912 0
2718 -2813 0
3278 -3193 0
-444 -1366 0
4067 -1311 0
-3278 1543 0
1508 -1617 0
4221 2575 0
1669 -2036 0
4324 3188 0
-2173 4578 0
-3102 -3239 0
-2963 -1247 0
-641 3323 0
2677 -3341 0
-2984 4673 0
2677 4216 0
-479 2265 0
-2835 3750 0
1357 2718 0
2017 1784 0
1143 -4492 0
-4244 -3653 0
-1796 4069 0
4370 -4254 0
589 -1459 0
-2825 3584 0
-1781 1011 0
4728 2408 0
-3846 4063 0
-4831 -1513 0
567 -2804 0
2192 2905 0
-4209 1814 0
-1189 -2429 0
-177 3468 0
3334 -4096 0
-4674 -3288 0
3723 1019 0
221 2650 0
-1528 -3879 0
4822 -3322 0
-1293 -4319 0
4802 -1177 0
1883 3867 0
1567 4488 0
-517 332 0
-2687 -1100 0
-2987 -174 0
-3899 2097 0
-2668 -740 0
432 -954 0
-3720 -669 0
-2469 1420 0
-1641 4202 0
2167 -2247 0
737 4058 0
1638 4767 0
-4858 962 0
1179 3014 0
-2484 680 0
-1879 2923 0
-2527 -2728 0
-4112 -3933 0
-1812 -2417 0
1023 1946 0
-4019 3235 0
-523 -1465 0
3621 1425 0
1095 -1393 0
3512 3949 0
-193 1607 0
-299 2605 0
219 224 0
3648 -3999 0
-241 -2511 0
-158 -52 0
4720 -1265 0
328 2750 0
1143 3487 0
1827 926 0
4246 -285 0
-189 1600 0
549 -2020 0
2499 1848 0
-917 4111 0
2645 860 0
2647 -91 0
1213 1151 0
953 1319 0
-3958 -1281 0
1298 4774 0
2946 3097 0
400 -1235 0
3483 4146 0
751 641 0
-2132 1077 0
-2687 -3013 0
-2208 3855 0
2569 3597 0
4627 6 0
-1176 -2550 0
3496 -428 0
-3532 897 0
163 -3095 0
-2889 1852 0
1796 1776 0
1021 -4424 0
3059 4239 0
-2612 190 0
-3622 -339 0
-3725 -1078 0
-302 2079 0
-3359 -4424 0
2009 629 0
-1818 2302 0
676 -185 0
3042 3677 0
-4111 -3773 0
-210 -3731 0
-1736 -491 0
-265 3399 0
2635 -277 0
1942 506 0
-3990 -1166 0
987 -1175 0
-2621 -296 0
-466 3886 0
188 2269 0
4412 4269 0
-41 -552 0
4156 -985 0
-3767 -968 0
3755 -1861 0
-2232 3790 0
-3992 3675 0
4149 1164 0
968 -1451 0
804 -2897 0
-1278 -3160 0
-2087 2072 0
22 -3994 0
2451 -2862 0
122 884 0
-2646 -3343 0
1328 3348 0
424 -1229 0
-3893 1412 0
-1001 4587 0
4086 -2840 0
-1606 -210 0
-3792 -4146 0
1162 -1901 0
1536 4473 0
2317 1629 0
4331 -599 0
1271 2439 0
-3652 -3455 0
-3748 3454 0
1278 -4707 0
217 241 0
-2287 -3221 0
2176 -4638 0
-3554 -2063 0
-2633 132 0
1274 -4069 0
75 162 0
-1253 2615 0
-1046 4602 0
7 -3324 0
4549 -2216 0
761 2667 0
-563 -1210 0
988 652 0
-115 2717 0
4522 3657 0
1777 -2196 0
-3617 1673 0
1290 3723 0
4055 4832 0
-464 -373 0
-4557 -4858 0
-1606 2132 0
-2096 4395 0
-1090 4208 0
-3570 -529 0
2882 -4545 0
-2067 -3914 0
3431 -1936 0
1537 -3792 0
2466 517 0
-2140 -3616 0
-3475 2786 0
1302 -1932 0
7 -2395 0
2319 67 0
-1606 -1631 0
273 -601 0
-1058 -646 0
1526 -4589 0
-4376 1676 0
-1006 -255 0
-4249 4577 0
702 1944 0
2207 2441 0
142 3821 0
1941 3858 0
4421 -4241 0
2696 3282 0
-4528 2383 0
818 -2568 0
-2201 3235 0
-1639 4587 0
-4794 -4497 0
4060 -3599 0
-1688 -1835 0
-1332 2005 0
-2308 -4434 0
-1937 2569 0
4719 -934 0
3044 2696 0
1993 -4307 0
1434 4874 0
3636 -2737 0
-873 4051 0
3727 3356 0
1897 4430 0
-4121 -4187 0
1018 -722 0
-867 4685 0
2458 189 0
4518 -2265 0
-3895 -1764 0
-4033 3767 0
-1416 -3261 0
4004 506 0
2958 -749 0
4510 -393 0
-4781 -2034 0
-900 227 0
4525 2990 0
3144 517 0
-1195 3516 0
423 -2874 0
2431 3227 0
283 -3550 0
3233 3426 0
-284 1676 0
849 3401 0
-3980 -698 0
4508 -1436 0
-1211 1426 0
1762 -4801 0
-1444 3393 0
-942 -3005 0
3675 -624 0
3175 2570 0
-4186 -3994 0
4577 963 0
4396 1116 0
-4867 -3296 0
2434 2106 0
-953 4056 0
-3585 -807 0
-4363 4360 0
-2005 231 0
-1990 -4690 0
-2875 -3402 0
-623 1950 0
918 4627 0
-1695 2525 0
-2425 1041 0
1210 517 0
945 -2338 0
-4657 -4103 0
-501 641 0
-2288 -2911 0
3031 -3208 0
4107 4133 0
161 -2288 0
-3305 1871 0
1713 -3941 0
3309 -991 0
-3425 2541 0
-3115 -2534 0
3768 -3255 0
3790 -3224 0
-2280 4808 0
-1463 2519 0
2279 2444 0
-4183 -1196 0
3705 -652 0
-849 -1618 0
-1988 3301 0
-3654 -4059 0
4269 -2706 0
-2502 -4107 0
-922 1836 0
-770 -2882 0
-2915 -4736 0
2543 273 0
1447 1295 0
1555 3585 0
-687 3152 0
2419 2582 0
3782 -202 0
-3582 -2074 0
-4080 3792 0
1233 121 0
-600 -4140 0
-2231 -4715 0
-2115 -4055 0
-1703 1351 0
-768 -4013 0
2698 -1739 0
-2862 2909 0
3666 -2047 0
4250 1218 0
177 3210 0
-1440 -930 0
-4139 1181 0
3343 -1001 0
-4716 -4627 0
3518 -1440 0
2400 3176 0
4329 -1362 0
-4019 -3862 0
-2973 3005 0
-4176 2045 0
711 150 0
-1151 -570 0
-2841 4499 0
4856 -4684 0
-3218 -4174 0
55 1003 0
3303 -331 0
-1838 3477 0
4610 -4131 0
1290 -4174 0
109 1190 0
-1666 -3369 0
1959 847 0
-481 2701 0
3203 -1387 0
-2426 -1501 0
-1895 -4423 0
4613 -224 0
1491 1223 0
-3307 2179 0
-3953 -3288 0
-1083 190 0
-4121 1004 0
4742 3537 0
-354 731 0
3744 -1734 0
-3101 -83 0
-3861 1167 0
1310 -1795 0
-3318 -879 0
-4728 -2924 0
-2511 1517 0
1119 -4789 0
2551 -3240 0
731 4437 0
529 -3462 0
-135 3427 0
1076 2600 0
-2392 3631 0
-3319 -4027 0
4330 2164 0
2625 -4674 0
-2955 3351 0
1200 2059 0
-358 -2710 0
-923 -1793 0
-3534 -844 0
-350 -690 0
-2994 -1524 0
-1130 -2070 0
4230 -1722 0
1527 -530 0
602 3364 0
3803 -3328 0
4254 -3021 0
259 3215 0
3364 -2567 0
756 -667 0
3230 -410 0
3798 2689 0
-4796 -3629 0
-743 3232 0
-1785 -4061 0
-4012 -460 0
-4355 2657 0
-1253 1029 0
-1686 -2275 0
3041 -991 0
-2108 -1532 0
549 4198 0
-3636 -4482 0
1144 -1246 0
1163 -1405 0
566 1709 0
3831 -314 0
2887 -3998 0
1684 1239 0
1684 -3692 0
-4119 -244 0
-1512 1728 0
-479 922 0
2631 -3362 0
-147 -4308 0
1752 -2347 0
428 3514 0
3009 -14 0
-1642 -1398 0
-333 3455 0
-4784 -2975 0
-466 2591 0
-1387 461 0
-3071 751 0
844 3580 0
-1790 2558 0
-2067 -4243 0
-2252 -3377 0
-1396 -1302 0
1719 -2904 0
-2843 -4133 0
4307 -2869 0
704 -1565 0
3001 -2869 0
-1699 -1045 0
-873 -3132 0
-4758 -337 0
-4413 -2429 0
-1524 -949 0
-3826 -1561 0
-2079 -3666 0
1030 1889 0
-450 4845 0
-3185 2081 0
2125 -2500 0
-3947 4712 0
-303 -1322 0
3299 -1475 0
3138 -494 0
3146 -1909 0
-3283 -4309 0
-4601 -1971 0
468 2845 0
-4574 2410 0
-3325 2533 0
4783 2448 0
-4147 2383 0
2505 3720 0
-1150 -2923 0
3708 -4191 0
4207 -3484 0
1225 4399 0
-3669 155 0
3670 -3105 0
-3877 2692 0
2806 4556 0
2607 4667 0
-94 4446 0
2902 -2399 0
-297 2459 0
4045 -460 0
555 -4492 0
3754 4749 0
3769 852 0
2398 -1558 0
2437 1 0
-2684 593 0
-2572 2258 0
3686 55 0
-1466 2271 0
2073 -1555 0
-591 4187 0
4307 -1787 0
-2994 2839 0
3069 -3698 0
-4692 -4723 0
-3813 -2096 0
-3536 1414 0
-4494 -641 0
-3951 -3129 0
-2303 -4297 0
-4127 271 0
-3697 -1929 0
1780 2839 0
4806 -3595 0
212 -4135 0
-4843 -88 0
-269 24 0
2672 -1369 0
3114 4053 0
-2264 -4692 0
1557 -688 0
-1048 1882 0
-4343 3105 0
-4649 3693 0
-4703 3247 0
1506 -3477 0
1619 -1369 0
-1615 -1109 0
3975 -1404 0
3838 -3150 0
4586 4622 0
2851 -1417 0
-2030 -2709 0
-3143 2548 0
-2780 -1217 0
-2441 -2989 0
4539 -2893 0
2193 -3778 0
-3363 -3090 0
-3616 1672 0
-817 2757 0
-2089 -1169 0
3727 -2628 0
4812 4205 0
-4399 3953 0
1912 2160 0
-4250 -689 0
-3010 2793 0
347 769 0
3638 3499 0
2022 -2507 0
-3324 2509 0
-3877 -2376 0
-4729 -3627 0
-4013 1511 0
3678 -2287 0
-337 -1008 0
1412 2406 0
763 -4460 0
-2975 1992 0
-1143 1810 0
-923 -3353 0
-3811 2771 0
-3066 -4820 0
-1050 -4709 0
128 2984 0
2113 1326 0
-1005 3036 0
-4610 1924 0
-2150 -1715 0
-4670 4587 0
238 3254 0
2279 -694 0
-3869 -1259 0
-512 4858 0
-768 -2203 0
-3835 4233 0
3376 3496 0
895 3509 0
2993 -3404 0
1398 -3942 0
1781 257 0
53 4171 0
-3642 -3616 0
983 -3698 0
-1903 1468 0
-3096 -1985 0
-2203 3568 0
-3104 2822 0
3137 -1633 0
2037 -3475 0
2612 2276 0
619 2833 0
-2294 -2049 0
2422 4841 0
-3470 -3061 0
4780 1277 0
-3983 -1383 0
-1370 -3070 0
-3490 383 0
1624 -3070 0
42 -2462 0
-2170 -3082 0
-3717 -2261 0
-4048 -2863 0
-3099 4184 0
-422 152 0
-2340 1228 0
3200 90 0
-535 -1785 0
-4746 788 0
-3013 -4423 0
-509 -2628 0
-3927 2234 0
2342 -4578 0
3246 -2862 0
4099 3304 0
486 -2874 0
-2601 1190 0
-2954 4103 0
-4522 2787 0
-2246 621 0
3099 -4064 0
3114 3691 0
2145 676 0
-1096 -2666 0
440 4598 0
-4842 -985 0
313 852 0
-2406 -410 0
3277 4844 0
-1408 -4087 0
4093 4316 0
623 -469 0
-3904 3875 0
-3387 -4193 0
4187 185 0
-2706 3026 0
3102 2588 0
2852 172 0
-4782 2882 0
3868 2548 0
-917 4559 0
-2512 542 0
4791 2509 0
-2128 3531 0
3106 3663 0
-131 2299 0
-1106 4540 0
2094 138 0
3861 -79 0
-4122 1193 0
465 549 0
-1415 -712 0
1714 2789 0
-291 2011 0
2385 2411 0
142 -3261 0
2100 -656 0
-155 -727 0
-3330 -4175 0
2062 -1730 0
-3162 -3613 0
4266 -1608 0
-1928 -2362 0
-2592 -3550 0
-2112 623 0
-4421 3973 0
-4257 -4653 0
3299 3992 0
795 526 0
-3553 4810 0
2400 -955 0
1975 -3757 0
-619 -2817 0
4845 -611 0
1217 -4451 0
2535 4111 0
-58 -3619 0
125 1695 0
-749 2414 0
-3843 -217 0
4101 -956 0
-3006 -710 0
3533 -3718 0
3480 -4393 0
3275 -500 0
-121 4404 0
802 3205 0
3258 4282 0
-2287 774 0
-3497 3995 0
1084 259 0
1159 2386 0
-3336 -3173 0
-1508 -4130 0
3169 -3786 0
488 2808 0
1073 1618 0
1069 184 0
-956 1116 0
-3936 -380 0
1391 -3305 0
-998 761 0
3686 -823 0
-1111 -510 0
3694 -2858 0
2004 1453 0
273 2425 0
3522 -2315 0
-3552 2565 0
-2592 -3305 0
1505 839 0
-3613 4852 0
-2344 3490 0
96 948 0
-1855 -291 0
-4361 3661 0
-572 -1623 0
-3054 -3685 0
2452 3233 0
3537 -2335 0
2683 -4174 0
4098 -4227 0
-1886 -3212 0
588 -3826 0
-3103 1963 0
-4070 2800 0
-101 -4755 0
-957 2289 0
-4597 -2817 0
2158 -1733 0
-1452 1316 0
-248 3184 0
-4754 2084 0
1602 66 0
-2056 -2653 0
3625 2045 0
453 1056 0
-2727 -4730 0
1555 -308 0
-2374 3346 0
3884 2823 0
-2842 4245 0
-835 2524 0
-274 1830 0
2422 -4091 0
-1825 -594 0
666 -1654 0
-1317 2278 0
2300 -562 0
614 -2239 0
3580 -2370 0
-3796 -4498 0
4613 -1171 0
-4603 4844 0
-665 -2513 0
-2061 -3278 0
-2869 4076 0
-3197 4558 0
4091 -4744 0
301 3714 0
-3249 2650 0
3926 3052 0
-2534 3085 0
-348 2950 0
1357 -2468 0
-3508 4015 0
981 1104 0
693 -4060 0
2434 2681 0
-251 -3232 0
-1308 3464 0
-1628 43 0
-1380 -2092 0
186 -2406 0
4265 803 0
-2298 -2396 0
1102 3574 0
3913 1081 0
-2266 -3390 0
4129 653 0
-325 3462 0
2040 -904 0
4065 -3918 0
-1842 -2887 0
2643 -4520 0
-931 -2093 0
-215 3814 0
-3945 -2633 0
600 1721 0
-3632 2215 0
1970 -2240 0
3620 -2000 0
874 865 0
4833 -514 0
806 2102 0
-479 -398 0
-1097 -4598 0
-1478 -2690 0
1629 593 0
4360 395 0
-825 1549 0
-4842 -1053 0
3648 -2158 0
-287 4618 0
-1086 2749 0
1212 3461 0
-2292 4183 0
2722 1504 0
-1034 4627 0
4202 2139 0
-1501 -1576 0
-4446 -2543 0
831 4865 0
1226 -1002 0
-2871 -1722 0
-3929 -4019 0
3661 2066 0
-2881 4591 0
-1989 -2331 0
-3486 4361 0
-4499 -619 0
2236 -3021 0
493 4074 0
-2877 -2437 0
-842 -1204 0
1403 3475 0
593 -3774 0
1556 -3221 0
-2187 1491 0
-1322 -3545 0
996 108 0
-2788 -2407 0
-2898 -1207 0
-1435 1491 0
-2543 -849 0
-2657 -3684 0
4631 -873 0
-455 2558 0
-2158 -237 0
-3068 2564 0
-4543 -4752 0
2642 -4682 0
-1640 2140 0
4623 919 0
2966 -1297 0
3972 1704 0
-2767 1604 0
2947 152 0
3325 -351 0
3961 2374 0
1266 1287 0
3630 1026 0
3471 797 0
4039 -1808 0
-4837 4493 0
3362 -1376 0
-882 -3147 0
-3966 3622 0
-210 -15 0
-4637 799 0
3630 -3357 0
-103 4825 0
-2949 2336 0
1671 3378 0
554 -4051 0
-4205 4328 0
4401 1257 0
-1757 -1770 0
-1979 34 0
-3101 -3121 0
3727 -4219 0
1931 2905 0
-1481 1316 0
1770 -137 0
-88 -1930 0
-2420 -1733 0
629 -2361 0
-4094 -2390 0
-4685 97 0
408 4390 0
-3343 4032 0
4738 -4701 0
4218 -655 0
-2029 -4824 0
2287 -4332 0
324 2341 0
-2181 4750 0
928 -3990 0
-1005 3754 0
-2801 -3679 0
-230 -335 0
4469 2797 0
3756 367 0
-3849 1328 0
4746 -3435 0
-2218 -3121 0
332 -3542 0
4101 -1212 0
-3490 3538 0
3041 -949 0
2878 113 0
3001 -2983 0
2512 -1414 0
-4423 3417 0
-4467 -3248 0
4045 2910 0
2281 3650 0
2622 -3295 0
-3031 -2114 0
874 2515 0
3475 -4433 0
-4817 465 0
-3454 2554 0
-2480 2255 0
3886 1852 0
1733 -791 0
-4069 -2835 0
-159 4538 0
-1965 378 0
-1621 1485 0
-3079 -3258 0
-1917 346 0
2156 -3374 0
2687 -1068 0
-1948 -4195 0
3889 4418 0
-2055 -2480 0
-3903 3922 0
-2712 -3216 0
3142 141 0
1077 2948 0
1233 -952 0
1449 -4413 0
4811 1276 0
4480 4556 0
-2346 682 0
-4074 3346 0
241 1684 0
3386 -1121 0
-3374 -205 0
4436 3759 0
2308 -2246 0
3475 -2206 0
4257 -293 0
2412 771 0
-3730 -1941 0
4686 -1059 0
3500 -1817 0
-3440 93 0
3200 -1151 0
2756 4472 0
1455 -2925 0
-3222 2553 0
4165 -1990 0
1424 3786 0
2727 -1800 0
-3572 -2705 0
65 -4256 0
2106 -1568 0
4610 -321 0
-4197 1090 0
3186 -971 0
-525 -1297 0
2553 7 0
2699 -2009 0
1909 1673 0
-2385 3987 0
1074 -601 0
1729 2816 0
4091 -234 0
4716 546 0
-1368 -3403 0
1325 3136 0
-4045 -4351 0
-1120 1684 0
-3256 -1618 0
-2695 1290 0
-1149 -148 0
1693 -4279 0
-2565 471 0
3156 3670 0
-3899 -2126 0
-2852 4426 0
2629 -790 0
3824 -1497 0
4639 -2529 0
1295 -4048 0
193 -4254 0
-1014 243 0
-3570 -3005 0
-4578 2452 0
-1317 -2943 0
-4771 -1953 0
-2099 -4087 0
-3002 3244 0
-1228 -3899 0
-1332 3918 0
-522 -4258 0
-1692 3397 0
58 -4143 0
4552 3145 0
2958 3763 0
3506 -474 0
-1383 969 0
2675 -531 0
-634 -3643 0
1374 4053 0
-1856 -2628 0
3648 -1129 0
3226 2798 0
-268 270 0
-1318 -3482 0
-665 -3477 0
1108 1662 0
-2634 526 0
1935 4280 0
-2793 -4350 0
4034 435 0
-3000 -896 0
-2310 -4600 0
-984 3695 0
-2836 -2905 0
1781 1420 0
4442 3415 0
-3072 332 0
1305 -1841 0
913 4032 0
703 -875 0
-3381 -3683 0
3858 4784 0
-1740 -4313 0
-2875 -2232 0
447 447 0
4866 2625 0
4392 -4058 0
894 289 0
-799 -1214 0
-3872 3397 0
-1085 -1441 0
-1236 307 0
4549 -1261 0
-2175 3355 0
-177 -1628 0
1562 -4246 0
4086 3219 0
-188 3798 0
4437 1682 0
346 -4666 0
-4686 -4083 0
-2285 -3204 0
1499 -3170 0
1791 3165 0
3100 -530 0
-3353 -689 0
-3178 2859 0
-3 -4351 0
704 -2844 0
448 -4126 0
-3413 458 0
1223 -2753 0
1263 690 0
-725 2371 0
-2287 -3907 0
1638 -3951 0
814 -718 0
378 2361 0
4020 -3719 0
1330 2424 0
2103 -1072 0
-217 -2429 0
4728 -3138 0
-3743 -4740 0
3264 -251 0
-4739 273 0
-2634 3703 0
4773 2148 0
4171 -4161 0
815 4465 0
-1737 -889 0
-2730 -2537 0
-1024 589 0
2584 -3148 0
4265 -2101 0
-1966 1086 0
852 2920 0
-2034 -2215 0
893 -8 0
-1541 20 0
797 -1249 0
-4669 -3567 0
-4235 -1464 0
2103 4077 0
-3294 1116 0
-4466 1186 0
-3634 3816 0
-3766 673 0
4377 4134 0
2516 -1734 0
2428 -3750 0
2650 4463 0
-1228 -1002 0
-933 1236 0
3062 249 0
1573 -516 0
-3695 -4135 0
1512 4108 0
4575 -2334 0
2515 4477 0
-400 55 0
4654 2395 0
-3250 2177 0
-3433 3338 0
1987 2885 0
-934 -2082 0
-1174 -4742 0
-2040 3908 0
4728 -1096 0
-4273 -366 0
2435 -655 0
-3594 -3506 0
-1067 -3654 0
-3282 3950 0
-1388 -1812 0
3165 4058 0
1564 851 0
-2187 435 0
-3604 -2876 0
-730 -1020 0
-886 1605 0
4611 -1444 0
2986 -4433 0
4028 4052 0
1468 -915 0
-535 1594 0
4056 -3091 0
4634 -1893 0
2884 4091 0
2271 -2157 0
1524 1984 0
-3455 -1315 0
-3870 -1197 0
1054 3496 0
-2538 -2414 0
3491 -3290 0
-3227 -2751 0
153 2158 0
3879 -213 0
572 -2555 0
2909 3308 0
74 -4626 0
-3031 3001 0
461 -3348 0
-4404 3323 0
2271 110 0
4548 2291 0
-381 4781 0
1753 1206 0
824 86 0
-3027 4682 0
-1695 -1247 0
-343 -554 0
1168 -1097 0
-1407 -2471 0
-1091 -4763 0
-1838 3401 0
-4630 -3552 0
2319 3397 0
-3072 717 0
-3125 -984 0
3022 -1384 0
3860 125 0
1317 -1051 0
582 -1407 0
55 -1235 0
-4805 3691 0
-409 -2758 0
2627 -3067 0
-765 -4739 0
2386 3978 0
-4663 3512 0
203 67 0
-2709 -2534 0
-1951 2642 0
-3333 1421 0
566 1854 0
872 -3132 0
-2299 -2439 0
4451 1101 0
2821 -391 0
-311 4748 0
-3613 -4674 0
-1366 -2137 0
-3895 896 0
396 18 0
-4494 -4728 0
-2587 906 0
4562 -3308 0
2496 1250 0
-861 -3445 0
4753 4143 0
-2905 1079 0
-920 2612 0
-2468 2975 0
-3897 -1847 0
-4152 1548 0
-836 188 0
-2968 680 0
-1771 -1742 0
62 -1058 0
-4561 3798 0
-3824 -3597 0
4322 -4389 0
-2881 -3750 0
2155 -740 0
-3840 -1558 0
-4278 260 0
-992 -810 0
-3458 -3961 0
-3190 3377 0
-3034 2887 0
-275 1580 0
1324 -1313 0
887 -2260 0
-213 1809 0
4159 3286 0
-4427 -274 0
-501 3759 0
4035 18 0
-2224 -2949 0
-3202 -2559 0
4137 4220 0
1430 696 0
648 -2370 0
2669 -3010 0
3839 4314 0
-3164 -1465 0
495 3470 0
257 -3609 0
-1304 177 0
-3147 2748 0
-896 4083 0
-3440 4017 0
433 2297 0
-4078 -4380 0
2109 -1507 0
-36 2625 0
866 2435 0
2263 -2705 0
-3273 3135 0
-521 -2078 0
-1625 -1978 0
-2941 4206 0
1355 -2906 0
1344 -3663 0
-1259 -3802 0
-581 -1653 0
315 726 0
-2893 -4682 0
1579 -1825 0
-510 2259 0
-4423 2123 0
-2517 2605 0
-4725 -2352 0
467 1488 0
2774 -2642 0
1244 2533 0
-3110 -504 0
-591 988 0
-4626 4696 0
-1095 -898 0
2163 -3655 0
65 -2782 0
2444 3329 0
254 -1442 0
2977 1947 0
366 -2069 0
4842 1787 0
-3137 -2675 0
2130 2571 0
-710 3244 0
4559 -4612 0
-3102 1503 0
1953 -3531 0
2666 3587 0
1671 2839 0
-410 -3936 0
-4539 1108 0
4390 465 0
1217 3207 0
4636 -2218 0
2503 3603 0
-3725 -1921 0
-954 2627 0
4393 4756 0
33 177 0
-3418 -4763 0
-2011 761 0
-213 -2282 0
-237 2728 0
-2690 2367 0
1358 1614 0
3051 -1901 0
4057 -2727 0
-2397 -3740 0
1412 -3023 0
-3594 -1818 0
3014 -3275 0
-571 126 0
2427 3143 0
1691 -1266 0
-2321 4756 0
-590 1969 0
3171 405 0
742 -2245 0
679 -759 0
-2118 -4110 0
3628 660 0
-932 -4631 0
2652 -3000 0
1752 2391 0
-2832 2875 0
830 3661 0
-1877 1256 0
-4326 1519 0
2362 -696 0
3217 488 0
3769 1273 0
-4522 4287 0
-4703 -4216 0
-1719 2852 0
4322 560 0
-1203 198 0
1814 -4572 0
-4301 427 0
-1466 -2286 0
-1388 1146 0
-3570 3460 0
-1643 -536 0
-536 3427 0
1918 -1030 0
3275 1773 0
-4438 -4415 0
-3101 1725 0
-4362 2493 0
4528 4562 0
-2473 -4025 0
4560 413 0
3837 -738 0
888 -3216 0
-3389 632 0
-2807 3310 0
-4359 -2013 0
-4284 2107 0
4639 43 0
3886 3493 0
2985 -3797 0
1908 -2429 0
-407 -1509 0
-693 -1140 0
2423 4515 0
-3804 1585 0
-1507 3088 0
-627 4832 0
3325 122 0
4341 -2070 0
1375 1141 0
-4363 2564 0
3619 -2063 0
2769 4020 0
2067 1829 0
-3121 -573 0
-4538 4642 0
-4737 3761 0
-3074 2712 0
-1382 384 0
566 -2436 0
-363 4742 0
-3412 -3909 0
-1247 -1001 0
-3010 -1030 0
-3412 -223 0
1175 -3018 0
786 4370 0
1403 3884 0
-996 2199 0
-950 305 0
-3482 2654 0
-137 -3306 0
1738 4084 0
3112 4269 0
2442 1467 0
2225 -296 0
-3844 273 0
-453 1426 0
4353 249 0
-2744 1499 0
-3484 -1189 0
-1140 -3919 0
-3448 -681 0
2172 -2713 0
1141 -653 0
-3478 -4260 0
3924 -1981 0
-3567 328 0
-1598 -874 0
3324 -363 0
4032 711 0
2516 -849 0
-1495 -1136 0
-4875 -2188 0
-4304 -2362 0
4079 3682 0
-3807 1629 0
-4835 -1202 0
3821 4581 0
4265 -867 0
-2565 1434 0
-2009 -2248 0
2398 1610 0
2326 -1022 0
1638 3827 0
-3863 -2651 0
1531 349 0
3625 1707 0
2930 4265 0
-2584 383 0
3094 -899 0
3956 54 0
-4842 -1284 0
4379 -896 0
4330 4506 0
3950 371 0
1268 3943 0
3049 1677 0
2043 4335 0
2669 -2947 0
4163 4806 0
2514 1694 0
4733 4341 0
-4703 1620 0
1839 2425 0
3589 -3397 0
-3236 4647 0
2808 -4552 0
943 -3485 0
4093 -2416 0
606 690 0
-3422 -801 0
-3270 -398 0
-3046 608 0
1327 4716 0
4118 -656 0
-484 -2670 0
-3561 2620 0
2723 4380 0
3056 2182 0
-1896 2500 0
1556 -3188 0
-910 1983 0
3189 404 0
-3343 -2259 0
-3006 816 0
-4234 210 0
3428 4694 0
-3772 -810 0
4232 -848 0
580 -765 0
4519 1571 0
-1257 -4123 0
4506 4411 0
-2868 -1699 0
-2029 4045 0
-2783 4835 0
3366 4861 0
-562 4331 0
-3245 -2596 0
-3137 -3604 0
3814 4667 0
-3089 89 0
3286 -2663 0
-3717 1651 0
1011 2367 0
-812 3069 0
2049 -4021 0
56 -2847 0
-4332 2223 0
1029 -1199 0
-3571 1851 0
-3512 -649 0
4203 -1327 0
-613 -3347 0
-1239 -1449 0
-2244 4093 0
915 3984 0
3414 -2592 0
-4166 -2903 0
-2739 1014 0
3288 4285 0
4591 85 0
-1130 3650 0
49 -3479 0
-1357 -2905 0
-183 1562 0
2631 -4140 0
4555 1318 0
-4310 -790 0
2024 -4592 0
-2420 1570 0
2187 -3125 0
-1308 -3873 0
4505 -2844 0
-3287 -4270 0
4412 -311 0
-246 4012 0
1833 2933 0
-14 -4278 0
3146 -4152 0
-1032 -3217 0
1145 3553 0
-3908 151 0
3265 -1916 0
-2099 -1550 0
4390 -889 0
3192 480 0
810 -1848 0
-1247 -2236 0
3282 -1562 0
2295 -856 0
-4490 22 0
-4566 1379 0
3307 4825 0
-4523 2898 0
-3769 4850 0
842 2674 0
694 -2819 0
-4463 4806 0
1391 -944 0
-3532 2751 0
2687 -4722 0
1148 1000 0
4824 4293 0
-818 -3054 0
-2794 -1373 0
-2910 2238 0
-2842 -2294 0
-3872 -3259 0
312 154 0
-4528 1949 0
3446 2003 0
-4598 -1553 0
1514 -1175 0
2347 -2077 0
-1483 3788 0
693 3176 0
4861 705 0
-4665 2318 0
115 3078 0
3099 -113 0
-2844 561 0
-2689 4260 0
1841 2201 0
-4011 3429 0
-1449 2968 0
2257 1897 0
-1484 356 0
-884 4702 0
3009 3656 0
-3208 981 0
3428 1859 0
-3953 -2473 0
-3137 -280 0
93 -4109 0
3187 2601 0
4808 -4611 0
-1607 -2543 0
-3223 -435 0
2099 289 0
-244 3911 0
-4860 -1337 0
2795 4052 0
1913 -1522 0
2270 372 0
3841 -4617 0
-4377 -4545 0
-4079 -2191 0
1226 -2863 0
-4521 -3084 0
-1279 -4643 0
3499 4797 0
4213 -871 0
-104 4317 0
-3048 -4448 0
623 -4086 0
2875 1646 0
944 4568 0
2764 -1730 0
895 2353 0
-2674 742 0
-2349 -2155 0
1485 1956 0
-4636 2383 0
1091 -2496 0
-2023 -636 0
4448 -4277 0
-1550 -1823 0
2099 -4383 0
-2954 -4367 0
2163 -4686 0
48 1447 0
1394 -948 0
-2025 157 0
-4162 -4384 0
-2968 -1530 0
-1670 -2822 0
-1044 2219 0
-1299 71 0
3034 -2803 0
-759 4619 0
-1237 -4178 0
-2473 4451 0
-2439 -2577 0
-2394 -597 0
-1139 -208 0
3361 197 0
3756 -2376 0
-4869 -1734 0
-3545 877 0
-124 1017 0
2227 3151 0
4529 -4423 0
4702 4050 0
-2365 -4823 0
-2061 -4012 0
-1484 -253 0
621 2535 0
-1026 -1373 0
-378 1619 0
2947 4201 0
-4170 -1013 0
3906 -746 0
4242 -490 0
-4631 -4783 0
-1223 -444 0
-58 2616 0
4261 189 0
-560 -3583 0
-4138 1920 0
2302 4677 0
-2104 4015 0
228 1694 0
-2920 4481 0
-1031 4555 0
-2727 -3395 0
-4162 -4600 0
4396 -297 0
-53 2625 0
-2207 -4394 0
-1130 -1435 0
549 2330 0
-119 4466 0
1819 4780 0
4718 -3318 0
-914 -3895 0
1960 680 0
-3752 3283 0
1292 -2690 0
-1187 1218 0
1095 3183 0
1806 3457 0
1796 -3824 0
-3467 -1778 0
-1640 -4141 0
-4240 -56 0
-646 2257 0
201 2566 0
-1092 4045 0
1315 -899 0
-4349 -1068 0
-3752 4489 0
-3746 -41 0
-363 -399 0
2548 2411 0
1095 -3454 0
2685 -2358 0
-3126 2303 0
1125 -2297 0
-2016 2490 0
155 745 0
3950 1933 0
-421 -170 0
4737 2627 0
-4362 -765 0
3667 2715 0
3443 4662 0
544 -870 0
-1172 1233 0
-2797 -1368 0
4316 -2415 0
-1977 -4562 0
-2736 759 0
-1213 -1084 0
-2753 -1141 0
4676 -1457 0
-3443 3556 0
-2510 -4646 0
559 615 0
-1418 4676 0
3971 -4842 0
411 4329 0
-473 3066 0
3352 3511 0
4165 1736 0
-3426 4635 0
-4468 -2867 0
4242 -2297 0
228 3389 0
3814 3376 0
-3711 1088 0
-3990 3524 0
1083 3176 0
-3968 -548 0
-3213 4240 0
-4042 -2881 0
-4335 1503 0
-1311 -1563 0
3520 -3845 0
3744 3779 0
-4258 -3072 0
-830 -410 0
-4758 2830 0
3292 784 0
-3993 -3426 0
-1930 -3445 0
-2537 -3815 0
1288 177 0
-3116 4 0
-2138 2088 0
3130 1195 0
2297 24 0
-2573 -1391 0
323 841 0
-3460 3766 0
502 1639 0
45 383 0
3357 -1278 0
1080 -3102 0
4773 1781 0
-1446 -3259 0
2293 -2599 0
4799 -1592 0
-3526 -2273 0
4185 1349 0
-3397 -3280 0
-804 4259 0
4431 -1742 0
1207 2236 0
-3106 277 0
-3447 3414 0
3111 -4220 0
-3107 -4071 0
2108 4525 0
-2844 119 0
4367 -4411 0
-376 464 0
-3048 -1640 0
-1449 -2409 0
-2415 1675 0
2734 -4037 0
1813 -689 0
115 -917 0
-1392 -4249 0
1810 2353 0
-1129 -4031 0
-4347 -1957 0
840 1219 0
1884 4209 0
1495 -697 0
-3151 2934 0
-3104 -1067 0
1865 -4537 0
-360 -2932 0
-3463 -2801 0
-1886 645 0
-3895 -2634 0
-3174 3545 0
-1724 -2219 0
-1121 2262 0
-389 1476 0
4196 -2879 0
-1563 3052 0
-4522 1289 0
2424 4183 0
905 3184 0
3421 4617 0
-1188 3428 0
161 -499 0
2600 4381 0
-4842 -1641 0
2125 -1159 0
3828 1032 0
2757 3201 0
4530 -3993 0
-119 2774 0
-1399 4108 0
22 3993 0
1124 238 0
-2690 -1243 0
4808 -2100 0
2322 -3180 0
-2299 -2463 0
-2302 626 0
-4623 -1274 0
1346 -3466 0
-283 -1664 0
-4251 1576 0
-1694 -127 0
3608 -3764 0
-2787 -1708 0
4783 723 0
-3877 3879 0
2647 1768 0
2091 -2680 0
1713 -361 0
-1828 2958 0
-236 4316 0
-3096 3772 0
-4651 -3201 0
1186 2886 0
4511 -3196 0
-3632 4524 0
-3955 939 0
-3557 -63 0
-4650 2703 0
1412 788 0
225 -1453 0
-1357 38 0
-4243 -2912 0
2024 -1119 0
-2642 -1 0
1535 -4477 0
2386 -1847 0
3230 -4572 0
-4819 -3280 0
-1877 -3844 0
-3527 -2175 0
-3458 2269 0
-515 2149 0
646 -2188 0
4795 4476 0
-729 -4085 0
-2323 -1282 0
-2886 3263 0
3952 -4663 0
2072 2038 0
3580 -4016 0
-3079 4606 0
658 -3045 0
827 4747 0
2451 1353 0
2819 -1129 0
-3125 1186 0
1350 -4013 0
-679 -4549 0
473 -181 0
4773 -933 0
-2801 2119 0
-558 4420 0
1040 -4854 0
310 -2431 0
2421 1133 0
-1406 -4359 0
-2587 1908 0
-1869 -3644 0
185 -2840 0
-2802 4417 0
4480 -223 0
532 3886 0
-1596 3288 0
-4395 -3511 0
2907 -4123 0
-2331 898 0
2845 983 0
3020 3785 0
1967 1856 0
242 -3435 0
4630 -1055 0
2895 -1847 0
2870 4553 0
4172 273 0
-1097 -494 0
-4763 -42 0
-2338 1056 0
-452 4844 0
1891 3524 0
-4756 2558 0
740 3298 0
-2799 -750 0
4034 -1457 0
4666 -4249 0
2613 54 0
-4611 -3849 0
-3295 4302 0
-749 713 0
1289 -4534 0
-2897 2125 0
645 2911 0
-1489 -3568 0
534 -1282 0
2960 -4434 0
-2658 -1814 0
3881 4181 0
1638 1894 0
-3854 3470 0
-1520 1391 0
-3703 11 0
-4385 2277 0
-1065 1894 0
4155 2106 0
4709 -740 0
-93 -1577 0
-1401 4288 0
-3528 -3605 0
2725 4070 0
-2677 4460 0
-1088 -3324 0
154 4681 0
3384 2886 0
-765 3924 0
2260 2139 0
-44 -3799 0
-1682 1447 0
1094 -382 0
-2307 2783 0
-1442 -1507 0
1777 -301 0
-1373 1104 0
-4549 3289 0
-1595 2368 0
1205 4031 0
-753 4082 0
-475 4197 0
1851 4403 0
-2552 399 0
2756 -2186 0
4173 -580 0
2569 3945 0
-3695 2929 0
3276 -3975 0
-2259 -4255 0
867 -4448 0
-3083 -4486 0
1870 -3211 0
648 10 0
-1143 71 0
1819 2885 0
2445 32 0
-2472 2610 0
3099 1063 0
3657 2903 0
3691 -3663 0
3052 -1857 0
-3102 -3836 0
-2491 2897 0
1714 4835 0
-3572 290 0
-370 975 0
-3664 -3000 0
458 1620 0
-533 -24 0
-969 2843 0
-966 -1671 0
4485 -2698 0
622 -487 0
-1994 4272 0
-4078 -2391 0
182 -1359 0
3982 1144 0
1072 1402 0
1221 -2580 0
2299 -322 0
2750 -2642 0
2087 923 0
-3111 -2003 0
-4579 1105 0
-2602 2199 0
-256 -3735 0
-563 -1199 0
-478 682 0
-4493 -2307 0
1957 2459 0
1865 -849 0
-3510 -1937 0
-2030 -2253 0
-3978 -2480 0
-597 2918 0
2738 -1799 0
-249 -914 0
-4299 -624 0
4575 -174 0
1619 -4806 0
1042 -68 0
4762 -246 0
3351 -1170 0
-2138 4172 0
4430 136 0
-4418 -1546 0
-4408 -1052 0
-505 909 0
-4257 404 0
-723 2777 0
4687 2012 0
3473 3927 0
-1050 461 0
-2031 -664 0
4144 642 0
4457 2937 0
2234 -753 0
-187 -2976 0
-994 4722 0
-2832 -904 0
4581 -2066 0
-4398 -1324 0
-2527 -489 0
-4547 -1865 0
2624 -1449 0
-2598 1589 0
4338 -2957 0
982 2169 0
-4512 3241 0
2575 4554 0
-3318 -1390 0
2586 -163 0
-1338 2732 0
-4283 3655 0
-4559 -4497 0
-319 -255 0
4574 -3933 0
4100 3376 0
2032 656 0
-3642 1770 0
4733 -3517 0
2328 -433 0
1980 -4278 0
-4614 3530 0
1394 4145 0
3146 3419 0
-3920 -2230 0
4636 -2840 0
3769 -1154 0
2363 -2437 0
-3085 3424 0
-4802 4319 0
844 325 0
4073 -966 0
-2365 3281 0
2192 260 0
-1140 -4507 0
2960 3189 0
-67 3816 0
77 -1647 0
-2943 -4405 0
4662 1326 0
-4255 1621 0
1032 -2938 0
-3333 -3135 0
-994 -4573 0
-3000 -758 0
1303 -2013 0
4295 1030 0
-846 1884 0
4027 -4857 0
-3574 -3244 0
-1382 750 0
1577 -4738 0
-1066 2733 0
-1142 3495 0
2728 1702 0
2860 4586 0
4286 329 0
-528 -3485 0
-3112 953 0
1826 4319 0
-1877 -3298 0
-607 2225 0
-3684 -3093 0
-1409 1039 0
1079 -4712 0
1620 3495 0
3493 3008 0
2679 1977 0
-3273 4443 0
4307 3890 0
3631 2767 0
-4039 -3815 0
990 -1547 0
3245 4605 0
-822 3237 0
4465 -4682 0
-2443 796 0
1101 232 0
4578 -2526 0
-5 -4525 0
-4406 4370 0
2405 4673 0
526 1085 0
-55 4403 0
2888 -53 0
-3240 375 0
-552 3409 0
-3095 3935 0
3410 -85 0
-2259 -4349 0
-3176 -2982 0
-2307 -3559 0
2258 -531 0
-4499 -2544 0
-3006 -1565 0
4614 -3836 0
1956 -4522 0
-597 -279 0
3290 -2698 0
-3901 990 0
1605 -4696 0
4773 3195 0
1363 -2788 0
3978 2289 0
4053 2073 0
3304 2685 0
-2216 444 0
2063 -2644 0
-2711 579 0
-53 1161 0
1723 3281 0
23 -97 0
-4083 -4231 0
1770 2329 0
360 -485 0
4547 -100 0
-4463 336 0
-4548 -1253 0
2280 1706 0
-2868 1513 0
4196 1419 0
-964 1363 0
2512 302 0
4835 1468 0
-1825 -4596 0
-637 2326 0
-3259 984 0
-777 -2568 0
-52 -1375 0
2193 3974 0
-3371 3464 0
-4875 -4696 0
3938 -1609 0
4020 4344 0
-791 -4805 0
-1248 3754 0
-1510 -50 0
2524 -1347 0
3859 -2063 0
2885 1766 0
-1936 390 0
-1306 2501 0
2348 2449 0
-3038 -2986 0
-4526 -1048 0
667 -4640 0
-4321 -904 0
-691 -4532 0
-2616 2097 0
-503 -781 0
4378 3328 0
4810 -2273 0
3680 -3657 0
-3958 3886 0
-181 -4443 0
-3330 99 0
-3374 4700 0
2222 -3844 0
1765 -1051 0
3513 -4167 0
1531 300 0
4446 -2949 0
2518 -898 0
2251 -4707 0
-3908 -2716 0
-1258 895 0
1535 -4395 0
-952 -1999 0
4778 553 0
393 -2709 0
2878 768 0
4375 -1854 0
3808 503 0
-267 -1592 0
-4031 3918 0
1974 4342 0
-1869 3103 0
-373 2232 0
-928 3306 0
-696 915 0
2825 -2766 0
2383 -3354 0
352 4634 0
-3743 -2680 0
-149 -293 0
3650 4459 0
-4663 4229 0
1503 3652 0
3825 -3689 0
4582 2465 0
-224 -2784 0
-3086 2956 0
-878 3360 0
4113 -830 0
2043 -1386 0
-3104 -3065 0
-4646 -1421 0
1347 -158 0
4845 -766 0
2688 -3866 0
-695 3171 0
540 -2550 0
-1428 2509 0
4846 -2107 0
-2370 -1028 0
4180 1621 0
868 3577 0
-2965 2662 0
-4049 2964 0
38 -3665 0
-223 -4867 0
-4493 2564 0
-1238 -3758 0
-1837 -3193 0
-2279 4349 0
-3792 -4099 0
-880 -1248 0
654 -2714 0
3833 -2826 0
4181 21 0
-3409 -560 0
428 476 0
3630 4620 0
-848 3656 0
-4650 4756 0
663 3854 0
-1440 -2694 0
-40 1281 0
3399 -4279 0
-1340 -1790 0
-372 -1280 0
1292 -830 0
3989 -3861 0
3670 3482 0
3083 -4649 0
-2719 -2969 0
-4626 2389 0
47 -3340 0
-2188 1316 0
-4621 -1124 0
-3870 3119 0
-891 3339 0
136 -4012 0
4343 -1654 0
2444 566 0
3320 -942 0
235 -498 0
-40 -1284 0
3085 -2619 0
986 3392 0
-1419 -3122 0
3222 -971 0
688 1728 0
4573 3088 0
-3967 1738 0
2662 -3436 0
-210 -2235 0
1892 1655 0
-425 3922 0
2514 3114 0
4204 -1467 0
-3334 -2000 0
672 2406 0
-888 43 0
-1153 -372 0
1975 3539 0
401 4517 0
-1665 4653 0
-2607 -3358 0
-3437 -4106 0
555 -3836 0
-1958 3556 0
-2480 -2607 0
913 -506 0
-1778 -4243 0
4364 -3492 0
-1513 1291 0
-1356 2650 0
-1029 -4531 0
-4004 -1948 0
-1898 462 0
-604 -1828 0
-1675 3269 0
-2271 -3489 0
2642 -136 0
-3606 -2538 0
2985 4235 0
-3205 -4775 0
2577 -1297 0
282 -1689 0
-4706 4008 0
-4503 -4122 0
4242 -2014 0
1738 2353 0
3144 -1454 0
715 -3006 0
-595 -3610 0
-3278 1828 0
4016 1835 0
-4403 3034 0
1339 4369 0
-2094 -3474 0
3322 116 0
3328 3784 0
4300 2976 0
-614 2039 0
-4048 -3931 0
3510 -2661 0
549 -3170 0
2082 4242 0
-234 436 0
3638 -1474 0
963 319 0
2225 -23 0
-70 -902 0
-1278 3580 0
-3280 972 0
-3232 3618 0
-4624 -4792 0
2964 -1608 0
-2124 859 0
-347 -2187 0
1275 230 0
3989 216 0
2911 -2124 0
-2243 -378 0
-1168 -2026 0
-3912 -248 0
-3937 -2086 0
114 1717 0
3302 -2843 0
2896 2494 0
-253 -2915 0
2864 2035 0
-4510 -4669 0
-4088 29 0
4787 -4280 0
-58 161 0
4064 2829 0
-4311 -4513 0
3596 -826 0
2376 1009 0
1324 -3303 0
-2714 1791 0
4502 1586 0
247 1117 0
-287 -1980 0
-2380 4269 0
-4758 1249 0
-2476 -2437 0
1011 -993 0
-1661 2250 0
4822 3952 0
557 4053 0
-2570 2976 0
4422 1288 0
-4240 -3067 0
658 2990 0
-3925 -984 0
1518 -2191 0
-4660 -1382 0
-4267 3353 0
2620 2361 0
2171 964 0
-852 -3471 0
-2855 4838 0
-2643 -3928 0
-278 2354 0
725 188 0
3462 1102 0
-620 1831 0
1581 2632 0
-3110 3871 0
-2334 -4232 0
306 -1847 0
-4715 -4846 0
-4752 3729 0
-4854 263 0
-1903 3588 0
1992 887 0
-2188 -4284 0
2546 -3219 0
-2526 687 0
-4232 -2511 0
-2147 1148 0
3317 -4328 0
-558 1504 0
4313 711 0
-638 -339 0
2400 -4566 0
3206 -4701 0
1843 2311 0
-1901 3502 0
-3857 3062 0
4242 2250 0
-376 3237 0
2047 -1321 0
871 -67 0
1104 4271 0
-2851 1222 0
1321 3747 0
-2668 1143 0
779 2120 0
3978 -2496 0
-684 -1 0
2374 -1070 0
1261 -1251 0
-3720 -2091 0
2800 2575 0
-4166 -4167 0
-151 -3063 0
2717 2848 0
-928 2074 0
328 -2456 0
-919 -2157 0
4437 4058 0
1161 1971 0
-778 3375 0
855 3781 0
638 4165 0
4605 4485 0
1715 -2854 0
-3608 -4332 0
-3550 2730 0
-4122 -2770 0
-4594 2043 0
1080 -2323 0
835 -1759 0
-1715 -3577 0
-1455 -4018 0
-3049 4002 0
1328 -374 0
557 4683 0
-39 -1059 0
-2562 1635 0
706 2701 0
496 -4791 0
-864 2775 0
298 368 0
1107 1335 0
3130 -4815 0
-4074 -4679 0
-840 -2614 0
2199 142 0
-1478 -1066 0
-1249 2765 0
1783 -2507 0
1217 1478 0
-1816 -3583 0
2107 1289 0
2723 -2908 0
3493 4837 0
642 -3010 0
-2604 3588 0
-4227 2544 0
3499 -2897 0
-829 -4027 0
-1845 4406 0
597 -401 0
2601 1198 0
4753 -3931 0
-4659 -2467 0
2716 2752 0
2914 720 0
1327 1397 0
1206 -4645 0
-44 4448 0
-4170 171 0
-2163 -2635 0
-1658 -165 0
-4795 -2170 0
-4752 -832 0
-1589 123 0
1704 714 0
656 -1798 0
-1375 4404 0
1519 3200 0
-2737 4726 0
3145 -2796 0
-4421 3941 0
-3943 1351 0
2205 -4357 0
-2327 1260 0
211 15 0
1939 1615 0
-3893 -1154 0
202 3246 0
-772 -1390 0
-917 -3032 0
-484 -680 0
1003 -4004 0
2228 695 0
943 -2717 0
1400 4379 0
4795 4871 0
-2469 -2277 0
2958 -4423 0
1656 4343 0
-3382 -3802 0
-4589 3819 0
869 -2056 0
-1052 158 0
-1184 -1058 0
1933 4367 0
2403 -2290 0
-2927 3597 0
4100 -2994 0
3399 3790 0
-2963 3541 0
-2846 -2965 0
2441 -493 0
4295 -1017 0
3562 4099 0
-1700 1835 0
-2434 -4142 0
-1565 -2089 0
3922 -1538 0
-2733 -603 0
2233 -4754 0
1523 -1953 0
3179 2234 0
-4568 -2055 0
-3199 1934 0
2911 3395 0
-1780 3315 0
1270 3650 0
-4121 3155 0
-275 4371 0
-2005 839 0
-4580 1552 0
-4793 -311 0
-4281 2171 0
-406 4349 0
-1862 -3668 0
-4772 1491 0
-3707 -1215 0
-1228 -2156 0
2271 2861 0
-2226 4319 0
-1741 -2109 0
-698 -404 0
-3460 -3717 0
-1068 -4299 0
-386 4401 0
4175 3099 0
1321 -4497 0
-4705 -3556 0
455 -854 0
-3480 681 0
-4100 -1815 0
-2243 1883 0
191 3243 0
-2150 -1099 0
2095 695 0
-4559 -4077 0
-156 -3185 0
1408 -4715 0
-3802 -3102 0
3447 -252 0
-1650 3324 0
2866 4474 0
1279 -2931 0
4525 1785 0
485 -4743 0
1148 -3112 0
-4722 -3404 0
3584 2137 0
-1158 -770 0
3730 -226 0
4400 -1270 0
-325 -1916 0
-1595 -695 0
-489 -2464 0
-53 -2845 0
4212 1426 0
-4803 3819 0
4509 2843 0
3402 2209 0
49 4623 0
-496 1982 0
694 -2965 0
-4703 3200 0
-16 3200 0
-975 -2628 0
3010 -3942 0
1064 -354 0
-2263 -641 0
-4602 1314 0
-3240 -4342 0
2818 4694 0
1343 1425 0
-765 -1464 0
-523 -4630 0
1826 3506 0
-4594 -2537 0
-2917 2155 0
4145 -1143 0
1264 -4772 0
125 -2292 0
3312 798 0
3871 1063 0
1786 3880 0
1947 1863 0
1624 -1189 0
-1010 3233 0
-900 -2031 0
-3509 -998 0
-3248 -1373 0
2437 896 0
874 1291 0
-643 2295 0
-3075 -3226 0
-532 -3644 0
490 -4867 0
-2787 -1722 0
-970 1433 0
4545 -472 0
-980 -3709 0
-4035 -3118 0
-4482 -907 0
-1727 -836 0
647 -2862 0
-303 -1299 0
-1156 -2832 0
-1955 2264 0
-1788 3724 0
-842 2444 0
4547 -3660 0
3162 3020 0
-824 -4743 0
3861 -4180 0
3087 -2079 0
-3993 744 0
4009 3106 0
-4261 4295 0
-4645 -810 0
1659 -10 0
-552 -1558 0
4079 -614 0
-1042 2145 0
-178 -4167 0
-565 -2778 0
2788 -4102 0
-3974 -312 0
4696 3750 0
-4655 -4055 0
3623 -4706 0
128 -2588 0
1290 2848 0
-78 735 0
-3004 1032 0
-3152 3597 0
1852 -1522 0
2138 4753 0
-4649 -2437 0
-1764 3476 0
1602 4471 0
-4461 4816 0
186 -2676 0
4565 4084 0
-4690 2100 0
-2190 56 0
-2942 -2263 0
-3983 -862 0
-2352 -2920 0
948 -4161 0
789 434 0
-1195 4457 0
4695 1403 0
1750 -4522 0
-1294 -2127 0
-1800 3398 0
-196 3941 0
2037 2282 0
-3983 3280 0
3441 4062 0
4445 2021 0
2175 -1980 0
3417 -1916 0
-2836 1303 0
-3870 -3540 0
2152 2936 0
-4832 -864 0
1360 -952 0
-4285 -2327 0
-3420 2820 0
4772 -1208 0
-4098 -4066 0
2057 3591 0
-302 1617 0
4053 -1788 0
-1968 3090 0
2629 4525 0
-128 858 0
-649 1067 0
-1197 -2519 0
3922 3099 0
1096 -2474 0
-1008 -3457 0
-53 -718 0
1335 -53 0
4553 -1986 0
-2165 -4509 0
-4303 4522 0
-2428 -1980 0
2860 2090 0
3770 2726 0
952 1566 0
-3151 -1753 0
4029 -1188 0
-2873 -2391 0
2626 2907 0
2665 3590 0
-708 -3245 0
-4298 2608 0
4724 415 0
-4631 -1235 0
-2658 -3154 0
-4463 4071 0
2661 -1339 0
-2226 -4763 0
1777 -775 0
2266 -1052 0
3238 4647 0
1055 342 0
-2980 -1379 0
1918 1413 0
-649 -3058 0
-3725 -1838 0
2575 -749 0
3044 3081 0
-4827 -4669 0
-3673 1205 0
-4133 1628 0
-1486 -2671 0
1878 -3762 0
-4137 3637 0
-4251 1227 0
-4650 3845 0
1143 2327 0
-3654 2962 0
-4174 4462 0
-1606 4105 0
-67 -80 0
-2213 -3788 0
3960 1679 0
-537 1744 0
-1174 -1497 0
996 1789 0
2491 -3534 0
3349 -2887 0
1279 2339 0
615 2067 0
-1431 -1733 0
481 -1948 0
-2942 -2781 0
2916 4414 0
-4324 -609 0
4686 -1849 0
1789 -423 0
1607 -830 0
3616 341 0
2593 -1647 0
-3166 -2798 0
-74 -2617 0
3286 -3563 0
-3428 -3199 0
2829 172 0
-2497 -3768 0
-3705 3817 0
4746 3714 0
-4672 -2713 0
-950 -4050 0
1502 -1504 0
3360 4269 0
2179 -2057 0
888 1114 0
-2194 -668 0
2834 503 0
1822 2431 0
-3071 913 0
-1310 4726 0
3141 669 0
-3480 -2008 0
-2773 -3496 0
3680 2922 0
-4345 -3060 0
1217 1209 0
-1451 -3679 0
1556 -3217 0
3817 -2686 0
-3585 -3903 0
3388 -4696 0
3176 2363 0
3417 -2325 0
-4594 1091 0
-230 3979 0
-3581 -3756 0
-1865 -887 0
2361 2224 0
109 -1837 0
210 -1010 0
892 3941 0
1116 -522 0
-393 -2510 0
-1273 3324 0
2486 -1248 0
3846 2432 0
-1919 -145 0
3320 -3659 0
-2077 4029 0
-3999 1131 0
1018 -2584 0
-2529 915 0
4838 2390 0
4415 -1248 0
-890 1276 0
-3842 -3904 0
38 -2762 0
1222 2848 0
-2979 -3236 0
-46 3129 0
377 -4299 0
2546 -4462 0
-666 -2975 0
35 1273 0
-1245 516 0
3189 -3366 0
1566 4818 0
3887 -2783 0
2073 -2705 0
517 -924 0
-2344 -2014 0
-2638 4561 0
1958 -3578 0
-2746 -4036 0
270 -4666 0
-1966 -2584 0
3903 -3047 0
-1084 1649 0
-258 3309 0
2490 2895 0
1676 -1767 0
-78 -4207 0
4589 -4791 0
-4347 2894 0
2872 3711 0
765 -4785 0
1489 -3139 0
2948 2747 0
2258 -2370 0
-1407 1391 0
943 -3143 0
-386 1832 0
1881 -1207 0
-4720 3397 0
888 3673 0
2410 716 0
-872 -1418 0
-2838 1853 0
3435 4726 0
-3216 1922 0
-2070 -707 0
-2261 -180 0
-1896 -753 0
-753 2992 0
3714 -1380 0
-2910 2459 0
3896 -1407 0
3795 2562 0
3636 4298 0
4308 -2203 0
-3167 -556 0
2119 169 0
2885 -2069 0
1146 -1674 0
-1715 -4426 0
-3600 -743 0
-3212 -3113 0
-399 -2719 0
579 -1529 0
1923 3812 0
-1546 -1000 0
-1577 1291 0
-2732 -3079 0
-2587 -1376 0
-952 -3654 0
-3652 -308 0
3136 -3025 0
193 4590 0
1192 -4319 0
-573 4666 0
4683 -2793 0
-3912 -1158 0
3496 2515 0
-2463 4538 0
-4519 -4205 0
412 1121 0
3138 -699 0
-314 -4534 0
850 3081 0
4115 1149 0
-1920 -1991 0
-4674 3792 0
1545 -3413 0
-4035 3854 0
1132 -345 0
-4711 4386 0
714 3984 0
-4304 2523 0
4533 -389 0
4039 -4359 0
2663 -2803 0
2982 1626 0
-3703 -4046 0
-3126 4457 0
-4769 -3782 0
-980 622 0
-2372 -3055 0
-2973 1183 0
4655 3882 0
2735 -2171 0
-1194 1590 0
3282 4132 0
-2267 -748 0
4252 -4531 0
-1262 4395 0
2493 -680 0
425 -3089 0
-88 144 0
3136 22 0
171 1947 0
-1806 647 0
2282 -1337 0
4196 -1478 0
-4160 1064 0
-2584 423 0
3059 -3508 0
-2274 4101 0
458 1346 0
2938 1014 0
-2975 -2841 0
2796 -85 0
4425 -648 0
4242 3921 0
-2036 2765 0
311 -1306 0
1268 93 0
-2921 -4112 0
-131 955 0
-3678 -2161 0
-4736 1783 0
2597 -2461 0
1288 426 0
4734 1717 0
2681 -3258 0
4297 855 0
-2491 -1546 0
-1498 2529 0
4649 -351 0
2427 -981 0
-75 3117 0
-3550 -560 0
832 683 0
-187 1712 0
-3214 2613 0
903 -2792 0
4590 4500 0
1133 -752 0
-2183 4456 0
-1642 4124 0
-2842 676 0
-2706 1715 0
2778 2558 0
-1115 -4714 0
1402 -1337 0
-3907 4105 0
3288 2049 0
3648 -464 0
-16 1197 0
-1345 2695 0
2846 -2635 0
-3505 1925 0
281 -4318 0
2001 4288 0
2145 -2619 0
4740 -1063 0
-3903 41 0
-342 -1715 0
-3571 -3889 0
-4601 4560 0
4774 2744 0
3703 -816 0
-172 3395 0
1151 1889 0
-3333 -4625 0
254 -2287 0
-918 -798 0
-4520 -364 0
4763 800 0
-4249 3637 0
-636 -2355 0
1230 -3394 0
4012 3525 0
-1263 4620 0
-1216 -1027 0
-625 -2317 0
-3127 -4736 0
4313 1694 0
-283 -3992 0
2806 -1407 0
2986 626 0
2827 1123 0
-2129 -4717 0
3398 1254 0
-443 205 0
4233 -1578 0
3816 3963 0
-1920 -2702 0
600 2148 0
4132 -4459 0
-404 -2013 0
-3660 4319 0
-2083 606 0
3313 3169 0
3909 -2999 0
-4084 -4084 0
-3208 3359 0
2139 -3290 0
-528 -4817 0
-2541 4230 0
1776 -2381 0
230 1401 0
-3378 3340 0
-3101 -830 0
-1932 -2498 0
4090 -3743 0
3839 -2146 0
2934 -3164 0
-2121 1186 0
1637 4216 0
-495 910 0
13 1291 0
-4004 470 0
502 1582 0
-2843 -4731 0
3037 913 0
-2944 2811 0
2238 -67 0
2880 -600 0
-205 -3434 0
1374 -831 0
-1455 265 0
-749 677 0
3824 1128 0
-339 681 0
-1452 -3942 0
146 -1350 0
-782 4597 0
-4394 -249 0
3562 -3513 0
-1962 -2018 0
4667 -4532 0
401 -2651 0
-616 1203 0
-3751 -1947 0
2416 1643 0
-2205 -2873 0
-3303 4567 0
2850 4476 0
4467 -885 0
1718 2492 0
2931 4539 0
-3749 -3604 0
2354 76 0
-1946 -1049 0
-1708 3080 0
3073 4572 0
4332 3142 0
1148 -2159 0
3372 -1113 0
537 -3660 0
1281 -2050 0
-3067 587 0
4645 4478 0
4322 -3194 0
-1507 3692 0
3079 3128 0
-4555 -444 0
-2118 -2179 0
2423 -4568 0
-619 4219 0
-381 556 0
3940 -3612 0
2924 -672 0
-3629 -3569 0
2005 -3403 0
4147 2534 0
-3692 3784 0
-3315 429 0
1923 -530 0
1227 -223 0
182 4473 0
-4096 -2214 0
-3367 4536 0
4732 3093 0
-1666 -3838 0
3881 3165 0
-249 3192 0
4799 -3952 0
-108 1903 0
-728 -1508 0
-3066 3300 0
2714 1819 0
-294 -287 0
2857 -4819 0
621 1361 0
581 -974 0
-470 1163 0
2475 -1230 0
1503 -3793 0
4029 -3716 0
-1763 1830 0
2324 1126 0
1081 2834 0
626 -4303 0
1620 4673 0
3561 3121 0
1720 -3769 0
-4867 4779 0
4877 -4262 0
4078 1884 0
1752 1809 0
1490 2477 0
4068 -1617 0
-1278 3995 0
3987 -725 0
3632 2786 0
4031 -2272 0
1218 1959 0
1052 953 0
4218 -1402 0
-1194 1918 0
2016 -3253 0
1750 1638 0
-4073 1324 0
-52 706 0
-1445 4786 0
-4603 -4657 0
-3111 776 0
-4230 733 0
1839 2291 0
-117 -985 0
1113 534 0
-1170 2354 0
2703 4804 0
2123 -2667 0
-4805 -209 0
-809 -4336 0
-2107 -454 0
-3365 -4130 0
-474 218 0
-3774 -1309 0
3542 1736 0
284 -2265 0
-2989 -1767 0
-2905 3169 0
-1380 4205 0
-4817 1381 0
3241 3352 0
406 1719 0
-2265 -1457 0
2776 -3840 0
287 -2047 0
-2311 1702 0
-630 808 0
4109 295 0
-940 4485 0
2650 -3591 0
3635 2907 0
-1988 -31 0
3969 -2229 0
3229 4317 0
-1182 1996 0
-3679 1939 0
879 -1644 0
-4811 -2315 0
-4069 -1891 0
-3398 4683 0
2892 4678 0
-734 219 0
3855 3175 0
-741 4685 0
3237 3858 0
3700 -807 0
91 -4189 0
1940 4608 0
-1116 -4682 0
3499 4650 0
2419 3536 0
-1421 2033 0
197 919 0
554 1956 0
1775 -2826 0
2472 -394 0
-1325 3076 0
-848 1277 0
-3957 -4504 0
-1014 4367 0
4375 -1096 0
341 -2888 0
2485 -590 0
-2278 3742 0
4484 4147 0
-1217 -3991 0
4828 -2249 0
3255 -3948 0
-1659 93 0
2427 -2171 0
-1618 1724 0
-82 865 0
3093 -3997 0
2110 424 0
-3715 1500 0
838 4617 0
4608 1043 0
-2190 798 0
-1929 -2074 0
868 -1505 0
895 2165 0
-1510 -2797 0
-2332 3754 0
4219 3568 0
1006 4863 0
3001 2692 0
-2832 -4592 0
-779 -796 0
580 -3107 0
3785 3648 0
2999 298 0
1472 4288 0
-1890 -1127 0
-3996 -2886 0
178 -2527 0
-3642 2535 0
-1628 2095 0
-4198 1914 0
1786 -3101 0
-4199 -3167 0
-3413 -3906 0
-3526 -545 0
2743 -2568 0
-991 -1392 0
2716 1370 0
2547 3754 0
2849 -3719 0
-1497 1516 0
-416 -3800 0
-2541 -2931 0
-4154 603 0
-619 1088 0
-1621 2852 0
-2835 1253 0
3304 -3323 0
-1497 -2672 0
1604 4760 0
4065 -1875 0
-672 -1533 0
2593 -3883 0
-805 -3463 0
1172 2241 0
100 607 0
501 -1871 0
-2731 2204 0
-657 -4206 0
-558 -4281 0
-2173 -3916 0
-2231 -2488 0
-2364 3628 0
2197 -3559 0
2751 4871 0
-2381 -1305 0
3513 -1187 0
-1850 -1873 0
1881 4662 0
2522 -2330 0
-335 4548 0
900 -2417 0
-1898 2534 0
-4011 -1256 0
3742 3760 0
1370 -3258 0
-3649 2945 0
-1818 -1125 0
-130 1496 0
3084 -3880 0
-297 4830 0
-668 -105 0
3129 -1525 0
-4085 -2858 0
690 -4259 0
425 1217 0
2105 -797 0
-4185 -1896 0
1305 2121 0
-906 4781 0
3882 -1747 0
959 -2690 0
-1828 -1936 0
1353 -956 0
1080 -521 0
-2433 -3226 0
-2309 2188 0
2144 -548 0
-3056 2726 0
1215 551 0
2798 -962 0
2694 -1592 0
3861 4129 0
1324 1491 0
1260 -2211 0
1463 4508 0
-2986 -4112 0
3397 -2191 0
-2104 2962 0
936 1564 0
2452 -4696 0
772 982 0
-1240 -3862 0
3280 3430 0
-1666 -2410 0
-1643 662 0
-613 -2494 0
1097 1286 0
-3953 703 0
3789 -530 0
2997 -4802 0
-2845 2111 0
-3931 -2154 0
-4602 1681 0
2612 2133 0
-2599 -521 0
2692 230 0
-1247 3555 0
4512 -4690 0
706 4111 0
1254 -2467 0
-4319 -315 0
2292 4775 0
-4236 3056 0
3423 -2978 0
1659 -912 0
-2908 4128 0
-3416 -460 0
719 -426 0
-3816 3497 0
-3927 -1616 0
-1424 4713 0
4231 -1211 0
-2549 4066 0
3539 565 0
-713 2990 0
-558 474 0
-2810 -4428 0
2874 4086 0
685 -598 0
1075 2979 0
-4269 -2253 0
-3593 -2294 0
-91 -1542 0
-4682 -4811 0
-1060 3100 0
2076 2106 0
4070 -2432 0
-3557 -332 0
1289 4169 0
-4738 3593 0
2104 -4186 0
3524 4525 0
-2095 -3308 0
-1641 4854 0
3187 3214 0
-2854 -1095 0
3661 -1818 0
1065 4630 0
1112 2373 0
-4541 -4734 0
-3748 3385 0
4593 -2480 0
3670 2350 0
793 -4779 0
-4106 2931 0
-858 2756 0
-701 -899 0
-3022 1084 0
2896 -4121 0
-513 2087 0
2800 4380 0
-3113 -572 0
-4230 -2555 0
-4099 -4717 0
-1803 -764 0
-2413 -4812 0
3905 982 0
-1852 -1096 0
2093 -2707 0
1769 2119 0
2012 1141 0
-3863 2199 0
-78 1241 0
2080 -416 0
-3600 3637 0
4506 4002 0
1652 3949 0
-4618 -42 0
-4646 -1657 0
3150 -974 0
2701 1571 0
-3466 2915 0
1028 2132 0
2413 -1879 0
4359 -2228 0
2766 -30 0
1054 1473 0
-3769 -2064 0
3285 3770 0
-3041 -4872 0
-279 -2840 0
-950 -4449 0
-1445 -2290 0
-2443 4058 0
-1206 582 0
-2149 -2862 0
1789 1936 0
-843 -4703 0
4281 1400 0
-1532 -3939 0
-1168 3735 0
-122 -1175 0
-3044 -1451 0
2815 1639 0
2425 2682 0
4809 1745 0
-2239 1826 0
-591 592 0
445 1023 0
389 -4436 0
-3083 3339 0
-1267 4805 0
4638 1398 0
-2151 -3842 0
4170 -312 0
-1693 2132 0
-3310 -1519 0
4244 -4503 0
-379 2545 0
-4026 1430 0
-2536 -2357 0
-521 2208 0
-4526 2644 0
-968 2434 0
-990 2415 0
-2675 3807 0
-124 453 0
2345 4431 0
467 1581 0
3189 -386 0
2640 -531 0
-2041 2175 0
-4255 -4396 0
1563 4143 0
542 -3173 0
-2136 1787 0
-3986 -2757 0
4165 3220 0
1087 2791 0
-2074 -3008 0
-148 4167 0
-4154 617 0
671 1327 0
-2985 -1208 0
64 -4776 0
-499 -237 0
-357 3726 0
1163 -1796 0
-97 2983 0
-3984 1819 0
3359 -367 0
674 4596 0
179 909 0
3424 -1801 0
462 -3144 0
-900 1347 0
-2502 3338 0
-559 -595 0
-4091 3554 0
-358 -563 0
3648 -4464 0
2383 -1208 0
-4220 2995 0
-4463 581 0
-4662 3069 0
-4063 -2968 0
3961 -2462 0
3338 2441 0
4407 3186 0
1414 -3367 0
2505 177 0
-1800 -2114 0
-200 -4388 0
-2431 2711 0
4559 2024 0
-1896 -3569 0
1124 -4197 0
516 -3907 0
833 1084 0
3424 963 0
3487 -2261 0
1871 432 0
3913 -4523 0
-2577 -269 0
2339 -1648 0
1750 618 0
3360 3802 0
2528 2903 0
-860 4237 0
2304 1527 0
-98 -700 0
439 -2460 0
4070 -4639 0
3513 2347 0
2193 1417 0
-4194 -4708 0
-4663 -2077 0
-1180 -705 0
-158 -2524 0
1948 1637 0
4333 -4104 0
2304 4202 0
2295 -4384 0
3144 2415 0
-604 1071 0
2003 1570 0
-820 1305 0
-95 3149 0
-4133 -615 0
-4122 3370 0
-1054 -2761 0
69 -172 0
-138 254 0
-1053 4826 0
2129 35 0
-4084 -2737 0
4859 151 0
638 -460 0
-1757 2512 0
3020 1728 0
-3330 -1978 0
4478 150 0
-1502 -945 0
1336 -3964 0
656 2279 0
-1712 -4723 0
1314 2547 0
-1703 -3388 0
451 2866 0
3233 -2814 0
3207 2986 0
4308 -3744 0
56 1923 0
-1408 1925 0
4058 4463 0
4339 -2480 0
1188 -3687 0
622 -2957 0
2384 -4663 0
1187 1221 0
-697 -3176 0
-4197 3114 0
-4244 -857 0
3670 -2190 0
2334 -121 0
4349 -1891 0
1786 4629 0
-660 3265 0
-1272 -1504 0
-4681 4681 0
4086 -2402 0
-1472 3078 0
-639 -154 0
3062 -2498 0
4727 160 0
3350 -948 0
-431 -3182 0
163 -4817 0
-1791 1131 0
-3612 1363 0
-3725 1249 0
4594 -3027 0
2082 -4443 0
-3415 3979 0
-376 552 0
-257 -1877 0
1879 665 0
-790 3034 0
4695 3206 0
-917 802 0
3975 2758 0
33 -2427 0
-2877 -3009 0
-2466 142 0
2061 -2667 0
1594 -1209 0
1536 -475 0
-1972 -1653 0
3871 -3228 0
-1017 -4173 0
634 -1582 0
-237 -2663 0
3750 -3782 0
2252 -3232 0
2171 -2737 0
3650 2460 0
3897 -2804 0
-1740 2227 0
2423 2926 0
-2357 4314 0
-4750 3166 0
-4402 -3219 0
3155 -756 0
2087 643 0
-2271 4086 0
2067 -1306 0
-3587 -2398 0
3427 -2433 0
-3715 -509 0
-721 2650 0
4197 1975 0
-1898 2110 0
4555 -2248 0
-2277 -2704 0
2781 -3688 0
1370 1503 0
3921 -3058 0
2592 -1934 0
-2101 -4491 0
-65 387 0
4733 1104 0
-637 863 0
2548 2588 0
-3914 -3072 0
3905 3186 0
-4293 3299 0
-4069 4796 0
2601 3383 0
139 -2202 0
-870 -1738 0
395 4572 0
4108 -3158 0
1016 -1024 0
-521 2661 0
1170 1011 0
1394 1030 0
-1119 -1667 0
-3247 -4491 0
-3536 -1964 0
-289 112 0
-2467 -4228 0
-2069 -41 0
-747 3162 0
-1397 4871 0
-3985 -1575 0
-2985 -1626 0
-502 2475 0
915 542 0
1561 68 0
1508 1308 0
-3011 -919 0
4747 -3404 0
3359 563 0
429 3539 0
2330 -1774 0
-1785 -4063 0
-2275 -3906 0
2607 -2573 0
3706 -4520 0
4339 -2177 0
-2878 -445 0
-3346 -4059 0
-1098 -4453 0
-2343 -2357 0
-4043 -4005 0
772 4845 0
3042 -1658 0
-2685 -2511 0
2690 -2893 0
-703 2548 0
3683 -2271 0
-2204 -63 0
-3025 2293 0
-4166 287 0
-1388 640 0
2642 634 0
1799 -3846 0
-2797 -4294 0
24 1399 0
-3185 -3093 0
1290 2962 0
2500 785 0
1273 719 0
-2855 3117 0
3325 -4759 0
4776 2130 0
75 1284 0
4870 1980 0
3319 -389 0
1618 4048 0
-78 -3504 0
4659 -3107 0
-3815 -3062 0
1480 -1965 0
3800 2247 0
1135 -4594 0
3390 1345 0
719 4444 0
-1886 3120 0
1338 2729 0
-4708 4553 0
-1082 2611 0
-881 3562 0
-3489 -1875 0
-932 3381 0
314 3834 0
507 3770 0
-4393 -3025 0
2807 -2244 0
922 -800 0
4406 -3127 0
-4074 1681 0
3073 -4095 0
-3319 2316 0
155 -1764 0
-4284 -4254 0
-3815 1057 0
4757 3744 0
4020 -868 0
-3958 -1742 0
4593 -297 0
865 474 0
290 2167 0
-2358 -3715 0
1453 -1826 0
3584 -1766 0
3905 2258 0
3854 -3643 0
4364 3990 0
4536 4225 0
-4406 1399 0
-1864 998 0
-897 -4317 0
-4115 -1421 0
1054 -4542 0
3009 -1367 0
-4202 -3284 0
3385 2892 0
3708 703 0
-3897 65 0
2791 2490 0
-4600 -3902 0
3399 3006 0
581 3953 0
-2714 4565 0
-660 -4251 0
-4089 3657 0
834 -3074 0
-72 2722 0
-2634 1091 0
-2517 3987 0
4252 2060 0
-3988 -974 0
4815 4650 0
4413 -4135 0
-318 -932 0
2897 1644 0
-4854 686 0
888 -3512 0
-2134 -3883 0
4198 -4818 0
-1444 1549 0
-4041 -1864 0
-3457 3934 0
279 -4139 0
-521 -885 0
-183 3848 0
2912 3025 0
3189 212 0
-1435 1649 0
-1152 566 0
-4784 -1339 0
2840 -3565 0
-4240 2242 0
-4692 1286 0
-1426 -684 0
-4514 2523 0
121 -900 0
-2314 3989 0
3628 -3204 0
-4853 -3704 0
-1253 1392 0
2665 4113 0
4423 -1113 0
1795 4412 0
-2263 -4845 0
1925 593 0
4272 -940 0
-2390 -131 0
2006 -1231 0
-4221 -2971 0
-3873 -2746 0
-1767 24 0
-2320 2382 0
-521 508 0
1376 3275 0
4478 1159 0
-3996 -1889 0
-3109 3573 0
-1064 4691 0
3524 -1823 0
2238 3493 0
3022 -4108 0
2708 1146 0
-2124 -3240 0
-928 -2877 0
3103 -4183 0
4130 -1159 0
-4763 -4579 0
-3464 2221 0
1835 2404 0
4459 4198 0
2244 2739 0
-4176 -1347 0
648 -504 0
-4289 2635 0
2409 -3794 0
-1385 3444 0
4478 -2804 0
4622 3916 0
2026 2504 0
1619 3830 0
-2308 324 0
-2001 -2041 0
2981 172 0
-1638 -1238 0
3614 -832 0
4743 2850 0
-3998 -2414 0
2203 -1191 0
-738 -420 0
-2461 -2161 0
1064 341 0
2635 1639 0
-781 -2240 0
-1943 1994 0
3294 3484 0
2757 -4674 0
1971 1384 0
-2891 -2449 0
-2662 2887 0
-2000 2205 0
-3218 1736 0
-4302 -701 0
2336 3676 0
-3136 -660 0
-4698 659 0
-398 3105 0
1457 843 0
-1997 1666 0
2863 -3239 0
-3459 -4199 0
-2014 -2531 0
-4578 4202 0
-1177 2312 0
2878 3835 0
-3537 -144 0
-3386 4542 0
-3600 -3288 0
-3442 1830 0
542 -2589 0
3686 -1634 0
102 -3893 0
-4823 -3623 0
4754 -742 0
2716 -1882 0
1284 1883 0
3997 -791 0
12 -1636 0
-637 -892 0
-103 3159 0
-251 -2476 0
491 -1431 0
-452 3392 0
1963 -3166 0
2352 -2299 0
3024 -3028 0
-2668 -30 0
1263 -3957 0
2267 -415 0
-809 783 0
-202 4696 0
-267 503 0
3765 -1824 0
-4466 4557 0
2224 -492 0
2736 -3389 0
2462 -3624 0
-1978 -4186 0
-4262 -1659 0
-4772 -210 0
1775 -978 0
2657 -466 0
-2591 -3959 0
-2408 4397 0
1614 -4533 0
2882 -2000 0
-2462 -3088 0
-1301 4017 0
-1581 1944 0
3290 1064 0
3461 2813 0
4690 -619 0
1798 3747 0
-4527 -3018 0
1772 -302 0
-3955 2530 0
-1491 4473 0
1580 2176 0
1982 -4781 0
-1860 -4526 0
-3212 2955 0
-836 -4011 0
3141 1395 0
1557 2804 0
-3337 4795 0
-1663 -1055 0
-840 -2372 0
4090 3618 0
-4545 -3503 0
2416 -3367 0
4515 1338 0
-2161 -3317 0
4357 720 0
-3963 846 0
-3836 804 0
4047 2463 0
-3936 -2506 0
-415 119 0
169 -3996 0
-2041 -1089 0
-3689 4075 0
-4379 179 0
719 4118 0
3769 -2561 0
-2889 3419 0
-3005 1300 0
749 3313 0
1686 -4618 0
1144 -2237 0
-1517 -644 0
-990 -218 0
-4858 229 0
-1708 1367 0
-3225 1148 0
1494 -2592 0
-1050 -3337 0
2508 -3936 0
-507 -136 0
1826 -864 0
4610 -3764 0
-2981 -3507 0
2080 -3753 0
-3166 3834 0
-223 -1359 0
441 2642 0
4556 -2802 0
1410 -4209 0
273 289 0
3383 2733 0
-664 -2368 0
-233 2176 0
3262 2184 0
-3597 1702 0
4533 -2231 0
-2623 1078 0
-3293 4696 0
3100 4627 0
1586 -223 0
3698 -3101 0
-646 2423 0
-4133 -1895 0
2067 -2571 0
-1112 -1256 0
2884 -4210 0
769 4819 0
-4385 2802 0
199 2236 0
3970 175 0
1939 1590 0
-2805 1296 0
874 -1497 0
-1772 -1688 0
1286 -3059 0
592 -1781 0
-2732 459 0
4582 -478 0
910 2809 0
-4364 -42 0
-2589 3443 0
-3367 -4381 0
293 -2080 0
4204 3353 0
-893 -2023 0
-4449 -4717 0
-1855 -1440 0
2642 2134 0
3622 -4509 0
1004 -940 0
4756 -2665 0
2456 4816 0
-1351 3359 0
3462 3368 0
718 3051 0
2488 3593 0
-4777 -461 0
-3624 -4038 0
-1355 4556 0
1969 -334 0
757 -4050 0
3105 3776 0
-2760 4862 0
-1302 -4317 0
-1318 -100 0
3295 -2844 0
4234 -2096 0
-3572 2599 0
1841 -4030 0
-729 4137 0
-88 -311 0
2227 -2612 0
1729 4452 0
3297 508 0
-1801 -2681 0
1201 -3485 0
-4770 -4219 0
-3407 -4703 0
-1068 -457 0
-3976 -1300 0
-3317 2417 0
4370 -4552 0
-666 -3137 0
-418 4407 0
-2332 3239 0
-765 655 0
-119 -2107 0
-1927 1731 0
-4442 -4464 0
-214 -1154 0
-2972 -298 0
-4579 -4847 0
4269 -1505 0
686 812 0
-3016 3452 0
446 -107 0
-2354 -4856 0
1569 -1882 0
4635 2526 0
-1516 -4206 0
795 -1050 0
-3172 -4844 0
3020 -157 0
-2761 -3144 0
-180 -4413 0
-1786 2158 0
614 3671 0
-930 1158 0
1325 4636 0
2420 -1143 0
3708 4397 0
-1788 -2978 0
-3648 -1405 0
-215 4862 0
441 -1908 0
-2113 -3972 0
743 2245 0
-2450 -2010 0
-136 -2736 0
-2889 2033 0
-3223 4639 0
806 -1794 0
4794 -1136 0
1488 3760 0
-3957 -226 0
320 4488 0
-3730 4696 0
2574 -4801 0
-2796 1289 0
-1129 3379 0
1294 -1910 0
-1014 4505 0
-3160 -1966 0
-3440 -2198 0
4408 3076 0
-4717 4492 0
-2268 -1347 0
-817 3845 0
2773 -3698 0
-3454 -1300 0
1598 -467 0
461 -4279 0
2888 4028 0
4763 701 0
295 805 0
-4276 -2674 0
-3783 1183 0
4272 1147 0
-1887 2537 0
1668 -980 0
4551 -3292 0
-2985 1264 0
2586 4129 0
-58 225 0
-392 -588 0
572 -1245 0
4294 -2247 0
-41 -1053 0
-4831 4359 0
-1107 4845 0
-4592 -1406 0
629 -75 0
-4778 -189 0
4585 -2844 0
-4283 2332 0
-616 -2547 0
506 -4793 0
-4476 -3645 0
-4670 1424 0
3828 2329 0
-737 -3704 0
506 1072 0
-548 4725 0
-132 1662 0
-428 -4102 0
-2825 2361 0
-1961 -1950 0
1786 -3735 0
370 -3083 0
-4479 3237 0
1138 -2809 0
-4500 -2011 0
-3552 3290 0
-4409 -2455 0
520 2695 0
1133 -4353 0
-1788 1990 0
-4171 -3563 0
-2089 -1364 0
-1780 158 0
1605 33 0
4171 -4815 0
2908 -4110 0
-4837 -2659 0
3495 -634 0
3171 -967 0
-902 -1740 0
560 -3335 0
-2016 2385 0
-3902 -107 0
2848 -3038 0
3892 -1794 0
4207 3027 0
816 4795 0
-4292 4346 0
2124 -4096 0
86 1556 0
2642 2074 0
-114 176 0
1934 1790 0
527 1006 0
83 1783 0
997 3059 0
-1753 -407 0
2161 -810 0
-1832 2051 0
-5 -829 0
1292 -3578 0
349 -2007 0
-3081 -3135 0
-2062 -3992 0
4793 -4023 0
-1783 -548 0
-3698 2316 0
-3641 -3798 0
3397 2622 0
220 1400 0
2666 -3111 0
1345 796 0
3139 -1802 0
4635 -1904 0
-2495 186 0
3697 1260 0
549 3829 0
-2596 -2394 0
2666 3443 0
-2760 -655 0
384 224 0
-919 -1048 0
4818 -1533 0
2615 -2220 0
-2799 -1616 0
-866 402 0
480 -821 0
-1008 2887 0
261 -795 0
-407 -4802 0
1575 1496 0
-1329 -3007 0
-3757 -4646 0
-3642 -4086 0
-2999 3734 0
1413 4159 0
3854 3906 0
3801 -2999 0
-4846 4009 0
-4739 1008 0
-3643 4485 0
-1910 88 0
2451 -4252 0
2088 2679 0
-324 732 0
-3283 -4013 0
2437 -377 0
446 -2298 0
-2834 1509 0
4506 4652 0
-2598 295 0
4678 -1390 0
-2010 3167 0
-1164 1270 0
4863 724 0
-438 -4085 0
-879 2742 0
4404 -2268 0
-3050 -4663 0
-2136 1122 0
-3481 -3569 0
-981 821 0
874 3299 0
3360 -3687 0
4568 -4727 0
202 -4348 0
-2378 567 0
1038 -984 0
-1521 4224 0
-1201 4473 0
-4019 -1219 0
-965 3926 0
-4127 2477 0
3954 3728 0
-3587 3114 0
796 589 0
-3019 -2854 0
-885 -2855 0
-3989 -2975 0
-3249 -2028 0
541 4705 0
1314 1697 0
-4148 3539 0
-1985 -4420 0
4832 2119 0
-3753 -679 0
1629 -4672 0
3441 2185 0
-3656 2818 0
-2555 182 0
-1642 4302 0
1005 -3160 0
851 -1183 0
1270 3001 0
1852 2729 0
2889 -2621 0
-3224 -2559 0
3091 -956 0
534 -4534 0
-4183 -4021 0
-1572 -2057 0
-4777 -3017 0
-3353 -643 0
-1773 521 0
-1612 1813 0
-3924 755 0
-896 4176 0
-3690 -4526 0
1696 -2447 0
-951 -1942 0
-4595 3734 0
-3703 4279 0
-4197 -416 0
-333 1098 0
582 -539 0
-670 861 0
-2411 352 0
-3611 -2040 0
3273 2745 0
-3264 -1601 0
3145 1137 0
-3702 198 0
585 -37 0
802 2601 0
2134 -386 0
3320 410 0
-969 -3797 0
4052 -431 0
1589 662 0
4117 -280 0
-3411 -2114 0
3307 3247 0
-4401 4476 0
-2575 3276 0
-1898 -843 0
-523 -2181 0
3894 4442 0
84 193 0
2336 49 0
-667 -220 0
-6 -1928 0
-2200 -4537 0
3332 1667 0
2067 -697 0
-3252 3042 0
-3809 -2230 0
-2275 -3095 0
-2680 4476 0
3960 4543 0
-1197 -1391 0
-1755 4176 0
-2837 -1914 0
-1335 111 0
-1896 -513 0
-2968 -2730 0
930 -2842 0
2862 -992 0
-4132 2 0
-1362 4259 0
1398 2062 0
1944 -4044 0
280 3200 0
-1668 -374 0
-3902 -4595 0
-2487 -3757 0
1244 3080 0
929 -4847 0
197 -2366 0
4835 -3607 0
3287 -1034 0
1363 -1922 0
85 4834 0
-1855 2105 0
-1202 3967 0
4065 1559 0
2311 -3840 0
1559 -1298 0
-3327 -1751 0
-4604 2225 0
3343 -1515 0
-3618 2803 0
-2476 2611 0
-3822 2328 0
1163 -4188 0
-810 -3981 0
-2003 4802 0
-2367 1970 0
-1577 -193 0
-4813 -156 0
-2816 -4404 0
-4143 -3604 0
-1415 -4432 0
-2321 -74 0
-3330 -3502 0
-4649 -1928 0
-3490 4277 0
-4577 1403 0
4532 -3869 0
332 -408 0
-277 -3272 0
-2573 -2973 0
910 2494 0
-2525 1217 0
4795 4007 0
2795 -3416 0
-4435 4854 0
2535 -610 0
3609 2767 0
-4333 -810 0
958 -1690 0
3111 4471 0
-4744 -4603 0
1502 -1335 0
4695 -2111 0
-3876 2682 0
-3312 -2359 0
946 -1842 0
-4155 154 0
-3718 185 0
-1458 -766 0
684 -902 0
-2275 3792 0
3470 -1466 0
3349 -2256 0
767 2323 0
4609 4019 0
-2043 4408 0
435 4225 0
1882 -1176 0
1157 735 0
1093 126 0
-2955 -717 0
-1305 -277 0
4207 -2256 0
1568 2435 0
-3367 -210 0
-1624 -2898 0
-2368 -2213 0
4471 -2126 0
46 -2490 0
-689 566 0
-2281 -888 0
976 -3863 0
691 -3273 0
-159 2484 0
4808 -550 0
-1777 1668 0
-1072 3801 0
1140 2512 0
-2645 -4672 0
-978 -3348 0
-4033 -1452 0
2754 3475 0
1349 -2407 0
-970 -3825 0
-392 3077 0
-3284 -1919 0
1785 1682 0
-849 3311 0
2849 1729 0
-2118 1763 0
-2521 -3612 0
3891 -509 0
3573 -275 0
-4036 1426 0
687 2089 0
681 4014 0
-1700 93 0
-3196 -4823 0
1316 -330 0
-3713 -2568 0
-3468 -263 0
2366 2233 0
4650 -1679 0
568 -1203 0
1315 -1887 0
-1925 -3209 0
-3824 -4459 0
2828 -1356 0
-1559 1329 0
416 2997 0
47 3822 0
-4872 -1401 0
-3433 -981 0
-817 2291 0
-491 -533 0
-2728 -3295 0
-2433 -3521 0
-3218 2936 0
-3403 -727 0
-385 1967 0
2548 -1634 0
-308 4061 0
2134 1862 0
1510 -2429 0
-3851 4830 0
2790 -3492 0
-3388 2772 0
-3315 1499 0
731 2336 0
-3266 -321 0
-4532 -1222 0
3228 -1864 0
-1566 -2670 0
-4708 490 0
-1869 -1525 0
1846 2103 0
-1015 2044 0
-2617 958 0
4829 1061 0
2283 -4656 0
2798 1940 0
1858 4358 0
-396 4495 0
453 674 0
-4019 375 0
-1615 -2204 0
-175 -4238 0
-4730 895 0
1903 -901 0
3708 774 0
-3919 -1386 0
4531 3112 0
2779 -2799 0
-4418 -4588 0
-1932 -4653 0
4667 228 0
-4778 3328 0
-848 -768 0
-4869 2910 0
438 -3050 0
4582 -3191 0
1399 3971 0
3681 -949 0
2947 -668 0
-2408 -865 0
3529 -4410 0
1488 -835 0
2489 3769 0
1885 3271 0
973 2990 0
-4498 -4654 0
-1655 2303 0
-2724 2643 0
-3209 -2515 0
2387 -3115 0
578 -344 0
-1837 -3032 0
3356 304 0
-3395 -4872 0
753 2569 0
-4428 4517 0
625 -773 0
2104 -2005 0
810 2347 0
-1132 3744 0
3422 943 0
-2196 1094 0
-314 3420 0
126 4682 0
-1973 -4051 0
-1527 2764 0
2717 3761 0
1341 3866 0
-1877 -830 0
3406 4151 0
-1331 -2803 0
-3713 1250 0
-2085 -1332 0
-3535 2436 0
-2443 2593 0
606 1363 0
1115 -2581 0
-573 1384 0
-3664 4030 0
1627 -2539 0
-3798 3147 0
-927 574 0
2393 480 0
-1168 -3578 0
-3610 1581 0
1216 636 0
2236 -1987 0
-4263 185 0
-3448 -1916 0
-3659 4541 0
-1321 -1322 0
4215 4447 0
3497 -549 0
-2058 -1052 0
3125 -1807 0
923 487 0
3098 -1490 0
-4122 1117 0
3987 -1610 0
1772 -4415 0
-2359 2514 0
-4743 2600 0
-1692 422 0
-399 2306 0
-2823 -4652 0
-4509 -2888 0
2606 3798 0
3331 3141 0
-3532 3215 0
-4497 3164 0
-1170 -1795 0
-3570 3553 0
-1558 29 0
-3119 -887 0
-334 -2488 0
-2828 -2901 0
3136 735 0
-433 -2150 0
-2480 2439 0
-4866 2046 0
-3046 1902 0
-4016 860 0
-2526 -1535 0
953 2635 0
-1426 -1762 0
-2073 352 0
79 1125 0
-2781 -4345 0
-3318 2796 0
2347 912 0
975 2428 0
3777 -2675 0
-2230 2449 0
-3563 4799 0
1775 -2142 0
-1925 3168 0
3712 490 0
508 1781 0
1022 -1703 0
-532 3909 0
-52 3829 0
1758 1939 0
3982 -3674 0
1468 2232 0
1168 3747 0
3466 701 0
-899 2175 0
-1567 -4778 0
-1660 4587 0
663 3313 0
-1771 -3158 0
969 -1910 0
-1488 -4866 0
-2276 -3299 0
1587 -4332 0
-3243 77 0
4222 1205 0
-307 1779 0
975 -1916 0
-604 3163 0
-1389 4045 0
537 -1139 0
2405 3178 0
1983 -2059 0
4275 3183 0
3275 835 0
3979 -2758 0
-3956 -781 0
-4684 204 0
-4258 2576 0
4741 -2361 0
-814 -3098 0
-590 -364 0
3760 3398 0
-318 -4875 0
-2008 4260 0
-2187 -2666 0
2917 4800 0
-2438 375 0
-3420 -4443 0
-3988 3631 0
-1615 -484 0
-4809 3879 0
3248 -2401 0
922 3002 0
3397 -2003 0
4286 -610 0
228 3954 0
3808 2323 0
4233 593 0
1497 3709 0
432 3638 0
3130 1913 0
615 -567 0
2462 1343 0
-1103 4319 0
-2468 1635 0
-2783 -1620 0
-4038 1796 0
2514 -3741 0
1928 -1140 0
4265 -3151 0
2717 1808 0
-3800 -3774 0
-3660 -622 0
-1966 1907 0
4282 -3638 0
3968 4565 0
-1358 -2597 0
1464 -358 0
1845 -2331 0
-4047 -2594 0
-2660 -251 0
-2791 -1430 0
-3443 1775 0
224 -967 0
-546 -4119 0
-684 4063 0
2435 2947 0
-512 -2646 0
220 1260 0
-3123 2808 0
1117 1334 0
1012 497 0
3782 4366 0
1607 2373 0
2924 -819 0
-1129 -3933 0
-2801 4030 0
-2850 4093 0
566 -840 0
-1322 3238 0
2198 -1218 0
2136 2666 0
2520 2251 0
-1608 2166 0
-4405 -4796 0
1438 4487 0
349 -1770 0
2240 -2399 0
606 -1053 0
-2645 -2226 0
2225 -1882 0
-590 2628 0
-1245 -995 0
417 -501 0
1806 1420 0
798 -4703 0
3075 2312 0
-1557 -2028 0
-4825 -1514 0
-1620 -181 0
-2490 10 0
-3612 84 0
3027 -1296 0
-1644 4318 0
-3477 -1778 0
-2996 868 0
3060 2565 0
4414 3242 0
-4388 2722 0
-2719 4518 0
3458 3495 0
-3489 4163 0
4391 -3368 0
2926 -911 0
-2387 -2288 0
2100 3539 0
-3285 -379 0
-4462 2405 0
-961 263 0
2508 -4831 0
-3360 3201 0
785 -1098 0
2808 2575 0
837 -1621 0
662 -2526 0
2876 -215 0
3347 -508 0
462 -3983 0
-3035 4679 0
1377 111 0
-789 -3493 0
-2090 -2454 0
-4792 4002 0
3401 2885 0
4060 -3143 0
-4220 -576 0
234 -3591 0
1897 -1989 0
60 605 0
-4713 -4123 0
1249 3081 0
4548 -4361 0
1050 2712 0
-573 -1673 0
-1096 169 0
4786 1616 0
2189 -1051 0
-1457 1899 0
-3230 3754 0
1001 -2212 0
2564 -4707 0
2774 3353 0
4634 996 0
3145 -3957 0
3683 4109 0
4626 3547 0
-4197 3579 0
340 2225 0
1787 -68 0
-1145 2700 0
1837 4404 0
-4576 -3310 0
1597 -1033 0
2441 3373 0
-1182 -3238 0
-1778 -3226 0
-4189 3719 0
676 -1240 0
-4376 2155 0
991 -2457 0
1926 -2996 0
191 -1751 0
-807 4551 0
-713 -3040 0
-124 -3612 0
4001 1892 0
-3317 -1886 0
-2706 -1299 0
679 -4139 0
2105 -3512 0
4353 4056 0
-912 615 0
1346 -3673 0
-4110 378 0
-4538 1125 0
-860 -3569 0
-3488 -2481 0
-2754 -2840 0
-1709 3136 0
3980 4780 0
327 -3389 0
-4650 -3039 0
-4350 -2659 0
3777 2579 0
-1660 -4712 0
1327 -3365 0
2303 -1473 0
461 -3381 0
-840 2490 0
-2865 1961 0
2700 2726 0
4728 -1386 0
-3862 1868 0
-2214 3059 0
-4513 -2924 0
1874 -3776 0
-2837 -2271 0
-3646 -4192 0
-4442 -3475 0
2960 4029 0
816 -2680 0
2025 1821 0
-4383 2818 0
3665 2984 0
-801 -3996 0
-309 -4377 0
-3035 2549 0
-3878 4130 0
80 -1521 0
4378 2173 0
-3630 -3906 0
-3521 -1549 0
-2445 -1792 0
4472 757 0
4180 1537 0
-2128 -1610 0
-3555 1612 0
-57 -2401 0
2037 -1619 0
-3533 -3856 0
-780 1826 0
3470 319 0
-1421 2636 0
3188 782 0
-3095 -567 0
-76 3837 0
-1678 -1702 0
-1854 865 0
2681 -3389 0
1226 -180 0
-2470 1975 0
-4495 -595 0
-4239 -3212 0
-3459 4082 0
2747 4111 0
-1755 -3606 0
4758 -3139 0
2045 1163 0
3088 -3250 0
-2955 3620 0
-405 3583 0
-3998 3291 0
-4837 2590 0
1507 1077 0
-4520 -4534 0
-2284 2831 0
-105 -4738 0
2947 3136 0
3415 4282 0
458 -1232 0
-2997 1134 0
-3542 -2941 0
-1431 -4075 0
772 670 0
4462 -2638 0
243 1787 0
3024 -4223 0
2176 -957 0
-4375 -369 0
-381 -2987 0
-3143 4339 0
-407 2110 0
4565 -1722 0
4507 1946 0
1057 2901 0
-1715 4821 0
-2653 3935 0
-848 -2642 0
4169 -2797 0
3240 -721 0
-1082 -3069 0
-2705 -3592 0
-1439 153 0
-3193 1920 0
3931 -1869 0
3996 1950 0
2849 2 0
-394 327 0
-4531 4555 0
-2683 -4413 0
228 -531 0
338 -532 0
-2224 2220 0
-4221 -3790 0
2729 3521 0
-993 1295 0
-2062 -2088 0
2559 -496 0
-3349 -3644 0
3314 3069 0
-1369 2160 0
-2378 -410 0
139 -1612 0
-436 -4305 0
575 -1047 0
2785 612 0
-3943 3288 0
1303 -2913 0
-4499 -1902 0
-3571 1770 0
1328 -394 0
-2684 1122 0
-4822 -4624 0
-4671 254 0
3628 -35 0
2974 3621 0
1310 -1188 0
-1464 -4814 0
2857 -2285 0
3308 -3045 0
-3173 3556 0
1370 4713 0
-1844 4581 0
1668 1741 0
-4126 2081 0
-44 -2130 0
-1695 -524 0
2160 -86 0
-3295 -1880 0
-907 2356 0
-2886 -974 0
-4104 -4171 0
4628 -2884 0
-3588 2601 0
-944 2398 0
-321 -234 0
453 -4828 0
3702 3403 0
-1457 842 0
4616 -746 0
-2096 -1585 0
616 1288 0
3349 -4672 0
4446 -2042 0
-1254 -686 0
-2462 -4766 0
-1460 2758 0
-4782 2266 0
3724 511 0
-1690 1134 0
785 1784 0
-4604 4733 0
-3896 -916 0
-3098 -4458 0
1661 -3676 0
878 1275 0
3491 -2040 0
217 -2062 0
1354 -1185 0
-4531 -1614 0
3048 -158 0
155 2960 0
-1464 2270 0
-1997 2148 0
1424 913 0
2699 -479 0
2598 -1633 0
-2127 -287 0
-2216 -2044 0
-1740 2411 0
-2561 -1134 0
3032 1029 0
-1752 -4383 0
-505 -3119 0
-2978 -2795 0
-411 1100 0
3024 622 0
2793 -738 0
3860 3088 0
3738 -3689 0
-870 2972 0
-4653 133 0
1556 -4308 0
2042 1108 0
-1982 -438 0
-3762 -1854 0
-3099 797 0
-410 -1641 0
-988 2786 0
-2098 3406 0
-381 1343 0
1584 -2401 0
3450 -1196 0
-1994 3641 0
4802 836 0
711 1431 0
-3966 3602 0
-748 2180 0
3539 -2531 0
787 4409 0
2455 -3065 0
-312 3780 0
3484 4465 0
178 4198 0
2178 4007 0
2348 -3612 0
-2071 2084 0
-1344 3727 0
69 -96 0
3057 -4386 0
3698 -3824 0
-1732 -3933 0
2656 -1497 0
-704 3700 0
581 4391 0
1010 -420 0
4748 4525 0
341 -3752 0
-4316 2209 0
4446 2708 0
3093 4150 0
-3322 -1995 0
-4622 2909 0
-2231 868 0
-2761 -4529 0
4335 -2374 0
-1584 -639 0
-879 2386 0
2949 1374 0
4493 -3739 0
2089 -4736 0
-1702 -4869 0
384 796 0
-2218 -1005 0
-3195 675 0
1115 209 0
-3996 2248 0
-1116 70 0
2017 4103 0
-3188 -2651 0
1866 -4805 0
-14 -1899 0
2710 4485 0
2430 -1359 0
-614 -2672 0
3639 -3198 0
-1272 322 0
-2078 1949 0
3508 485 0
4407 -4419 0
-4857 907 0
93 2730 0
1211 -1057 0
4477 193 0
924 803 0
1859 -3678 0
-3733 -1233 0
-363 -320 0
3989 -2023 0
-1879 -1049 0
-2502 -811 0
-1271 -140 0
3445 3499 0
-4755 667 0
-2901 -3633 0
-754 -3616 0
3462 -2594 0
1027 1559 0
1663 -2068 0
3270 -3458 0
-661 4830 0
-3113 3390 0
-4594 -1520 0
-3156 4441 0
-4409 173 0
4718 2587 0
3286 -454 0
-3646 1711 0
-3536 4329 0
3938 -499 0
-1753 -3239 0
-2968 -2358 0
900 3042 0
1641 -1844 0
3272 4015 0
1592 403 0
3289 -3671 0
-1878 -3029 0
1364 4469 0
-1247 2679 0
-4410 4695 0
-4427 2003 0
4054 -2833 0
3114 -4492 0
-2257 -479 0
1917 -609 0
-758 -1411 0
-4088 4193 0
780 -1033 0
1074 -3907 0
-532 -4702 0
-119 -2319 0
-3201 -1160 0
2197 2509 0
-2741 2999 0
735 4505 0
-4598 -4202 0
-3513 4518 0
-1783 4017 0
-4195 -422 0
-611 -4126 0
-4438 2570 0
4747 -148 0
-3436 3144 0
2375 -4147 0
4745 4678 0
-1739 42 0
-917 -4415 0
-2686 -406 0
2351 693 0
-1135 -3612 0
-3226 -1465 0
867 1286 0
4742 3601 0
230 1535 0
-112 4678 0
3995 -521 0
-3211 -4616 0
-21 2506 0
2104 -1372 0
2793 -1409 0
1857 -1446 0
-4173 -1397 0
517 -4259 0
3424 -629 0
-79 -3101 0
-2187 668 0
4647 2637 0
2808 -2596 0
4472 628 0
-998 -44 0
2447 4093 0
-783 1267 0
-2591 -3268 0
-4872 4163 0
-4232 804 0
3836 -3571 0
-4365 -846 0
3950 -3132 0
-1035 35 0
-3442 -2672 0
1341 -3940 0
1160 -3787 0
1087 -3679 0
1517 1117 0
424 -1864 0
1707 -3016 0
4588 2130 0
2569 1106 0
4642 4032 0
-2188 -3178 0
3875 2383 0
-1472 -3034 0
-1836 126 0
-2609 -3043 0
-3365 -2810 0
-1478 691 0
-2908 -2582 0
2397 711 0
-4623 2849 0
2480 2896 0
4704 3819 0
-1831 2654 0
-4854 -4763 0
1075 2419 0
551 4840 0
-1732 -4236 0
-790 302 0
-2758 1128 0
-2707 -4614 0
1768 -38 0
515 -3204 0
-4595 3380 0
3269 -2778 0
-3957 -2318 0
-297 -3125 0
-4756 352 0
3423 -4796 0
2786 26 0
1734 -1995 0
-2987 -1490 0
-128 -1294 0
-4601 1736 0
-4074 3148 0
3864 3486 0
4196 -2484 0
-2734 -1262 0
-2305 -1468 0
422 -2464 0
3735 28 0
997 514 0
-4383 1775 0
4584 1349 0
3291 -175 0
-4241 3775 0
4728 2940 0
340 -252 0
-76 -3442 0
-1703 -3946 0
-251 4042 0
-306 346 0
251 -2081 0
-1237 3077 0
-760 1331 0
-2669 -1124 0
-1001 1435 0
-3704 -1373 0
-1834 -2583 0
-800 -1390 0
2549 -2019 0
-3869 -403 0
-4418 2494 0
-4592 3597 0
3896 -3249 0
799 4125 0
-321 -3038 0
766 3084 0
3014 -3726 0
1695 -3025 0
2624 4202 0
-788 1083 0
-4429 3055 0
3122 4274 0
3198 -1193 0
-4365 -3408 0
2685 2613 0
4322 4668 0
1015 -3897 0
3591 1227 0
1357 3501 0
-3816 3575 0
-564 -995 0
-2523 -405 0
1981 1574 0
-4035 1210 0
375 -958 0
-4737 2090 0
-3118 230 0
-218 4581 0
-992 3169 0
3704 1740 0
-3500 -2321 0
-997 2435 0
-4197 -1301 0
1491 4460 0
380 2573 0
4207 -1049 0
-1916 -1052 0
3872 -580 0
3708 2171 0
1605 -3043 0
-1336 3431 0
3510 4365 0
-627 -4714 0
1078 3138 0
-2284 -2130 0
1112 -4630 0
3100 3398 0
-3824 -2102 0
-2321 -3511 0
2928 -2761 0
3747 1058 0
-484 -1882 0
871 -3611 0
-112 4295 0
4502 618 0
3635 -1443 0
-3937 -1259 0
4314 599 0
821 -4688 0
3665 4850 0
534 4704 0
3397 116 0
110 4046 0
-2707 -2970 0
-3047 376 0
-927 -4390 0
27 2852 0
739 -1098 0
2936 2915 0
2512 744 0
-2577 -1648 0
751 -1564 0
-2963 -1752 0
-4552 4530 0
4844 3451 0
-3322 3465 0
4290 -993 0
2179 176 0
4702 383 0
-3096 4607 0
4434 182 0
-36 3581 0
1315 3576 0
3113 2466 0
4774 1331 0
271 -2611 0
-1140 -4376 0
-677 3722 0
-4785 -80 0
4851 4779 0
2899 -54 0
-2443 896 0
-1274 -949 0
-3340 -4376 0
-1008 593 0
-2301 -2122 0
1350 4590 0
3941 4505 0
2545 -2014 0
345 -3160 0
-1256 639 0
-2887 4473 0
2870 243 0
750 4253 0
-146 -4329 0
1491 -3902 0
-1679 3136 0
-2968 -2901 0
28 1196 0
-2847 -768 0
-2000 -3826 0
-3874 -3711 0
-818 -4680 0
3927 -588 0
-2124 2544 0
1402 3767 0
-2963 -3732 0
3119 1485 0
-1710 708 0
3031 4867 0
3401 -2358 0
1775 3301 0
-4671 3580 0
1218 -2080 0
-1754 -521 0
-1670 2612 0
4838 2482 0
4019 -4351 0
-1988 -828 0
461 -3109 0
3967 4022 0
3057 -3963 0
3349 -3949 0
-4781 -835 0
-3123 -827 0
-942 4066 0
3401 2051 0
4189 -2854 0
-2143 -3278 0
-1120 -4599 0
-2719 -4443 0
3615 3399 0
3614 3021 0
2163 -2721 0
4720 -1942 0
-1383 4181 0
-2924 -2577 0
-2770 4274 0
2225 -2309 0
3070 2681 0
-3958 2205 0
-3607 -4744 0
2129 -2308 0
-4427 -1 0
-1341 -165 0
2120 -2346 0
-4268 -4784 0
4256 1148 0
-57 3977 0
-2424 1084 0
-4366 -2474 0
3415 2622 0
-2396 -116 0
4821 -3835 0
3152 -62 0
-3433 1620 0
-2838 4399 0
271 1369 0
4208 2510 0
54 -4599 0
4606 3826 0
-3534 2035 0
699 -3296 0
-4746 -4276 0
1909 -4434 0
1835 -632 0
487 3964 0
-372 -3955 0
-1328 2035 0
-2049 -3815 0
1123 2656 0
-3757 -3018 0
-4493 1849 0
-3718 1777 0
-1528 2640 0
4529 -4057 0
-2935 404 0
-4460 1875 0
2718 -3228 0
3114 4860 0
97 4595 0
3380 2312 0
4749 1616 0
2726 2226 0
-1105 3973 0
694 645 0
-3990 -1120 0
2515 3203 0
2448 -1442 0
963 -1208 0
687 -3862 0
3635 484 0
-3367 20 0
3541 4797 0
109 576 0
3041 4269 0
-2296 -1234 0
3535 589 0
-944 -1778 0
-438 -71 0
849 2166 0
-2541 1876 0
-2719 4877 0
-1723 4668 0
559 666 0
-1814 3891 0
-3048 4042 0
1529 -4632 0
661 1526 0
-1641 -1386 0
1494 -1103 0
-4771 3788 0
-1311 -4180 0
641 -3063 0
3891 967 0
4738 2592 0
-3538 -1749 0
1534 -1901 0
644 3635 0
2775 4711 0
2382 -2421 0
-3274 -4769 0
-3598 -1322 0
3176 -3909 0
1123 1177 0
4187 2400 0
1351 -4781 0
-4659 -1994 0
452 -4651 0
139 1759 0
-4596 2797 0
-2392 1557 0
712 -1671 0
3834 -822 0
-2357 -43 0
-1372 2762 0
-1700 3218 0
4016 -3002 0
-1825 2852 0
-3981 -3633 0
-4656 1482 0
360 -4790 0
-2259 395 0
3460 -1578 0
-335 2991 0
1611 3414 0
-2480 -4862 0
-1755 -858 0
2065 -2487 0
146 4002 0
4472 -73 0
4678 4377 0
-4493 3880 0
3130 -3947 0
-266 -2672 0
-1684 -3909 0
3530 -2885 0
-276 -3415 0
-4142 201 0
-4162 981 0
-2913 199 0
-4456 3155 0
4517 557 0
2640 -4541 0
-3609 1658 0
-1404 823 0
-783 405 0
-1722 3706 0
-1320 2825 0
172 4291 0
3580 4291 0
1816 360 0
1447 -1474 0
3770 -1694 0
-4655 -3102 0
-1074 -1040 0
169 4679 0
448 -3960 0
-3465 -1231 0
1065 -4474 0
1940 -3907 0
524 -1915 0
1535 -4334 0
-255 -326 0
4105 626 0
4511 1515 0
-1735 -1271 0
1931 -2804 0
-144 -807 0
-1944 1831 0
822 1513 0
3464 4307 0
3792 -320 0
3112 -1667 0
-1261 -4717 0
705 3781 0
3307 -2469 0
4437 -2286 0
222 -2656 0
4639 -4061 0
1569 4451 0
-148 -841 0
419 4837 0
-3553 2102 0
2488 3556 0
-655 -3272 0
-3907 3922 0
-2405 1918 0
3000 136 0
-4365 3182 0
3865 -438 0
-2937 -3740 0
-3040 1972 0
4388 -4000 0
-413 -4823 0
1470 -1132 0
-3293 -4562 0
1047 2322 0
2470 -1916 0
-4473 -1710 0
3664 -840 0
1809 831 0
2542 3645 0
-3948 789 0
-4712 264 0
-1679 -1253 0
3520 -2867 0
2312 4581 0
2327 2111 0
1413 -689 0
3877 587 0
-1337 1889 0
2705 4685 0
3500 4406 0
-1904 -1834 0
-3849 -2539 0
-206 2453 0
2602 -709 0
-2459 4356 0
-600 -4493 0
-1844 -3330 0
3220 -2576 0
-676 332 0
4338 -2924 0
3422 2590 0
2155 305 0
1615 4293 0
-625 -4262 0
92 -2343 0
-1697 3635 0
134 1931 0
3780 4319 0
2199 2174 0
4051 -389 0
3197 -3205 0
395 4177 0
-4437 -348 0
-2622 -724 0
-3519 -2239 0
-994 -869 0
-1550 913 0
3796 3525 0
-870 -95 0
-4701 3298 0
858 -40 0
669 -4062 0
-2252 4148 0
19 -1874 0
-1299 3878 0
-4579 3138 0
307 -3054 0
-67 600 0
-1207 -322 0
-747 4034 0
1169 2195 0
-2613 -1372 0
130 -524 0
-3001 -340 0
-1545 4502 0
1080 1786 0
774 1530 0
540 -4768 0
-2131 4859 0
-1506 -1165 0
3761 -2634 0
-2432 2403 0
2082 3197 0
-304 -725 0
1344 4809 0
-3510 3496 0
-4306 -1858 0
-3053 4288 0
2439 -4815 0
3663 3549 0
4696 -3416 0
-1103 2916 0
2116 4862 0
3039 3741 0
-1045 1187 0
-555 4065 0
-2738 4132 0
-4170 2982 0
3884 -3126 0
-2573 -1447 0
2933 1496 0
-3646 351 0
2404 2229 0
-1328 -3268 0
-3570 2135 0
3192 3944 0
4454 -4534 0
4105 1398 0
1307 2214 0
-2481 2107 0
916 -2767 0
-3050 -1173 0
3423 2017 0
-1353 1572 0
-807 3168 0
4262 3073 0
2570 -3125 0
1792 -1255 0
-1578 2906 0
-2528 -1629 0
327 -3685 0
706 3530 0
-120 -4333 0
-1616 4370 0
-753 2515 0
-3793 690 0
1746 461 0
-1686 -1998 0
-2901 140 0
-4178 4834 0
-430 -2212 0
4666 -98 0
-1724 2870 0
-3090 -618 0
-1322 -3148 0
-521 2290 0
2730 -1815 0
2269 -1778 0
-2882 266 0
-3543 -2941 0
-1988 3382 0
670 4098 0
-4169 4510 0
-499 -3643 0
2436 1104 0
2718 3765 0
-4251 -297 0
-4808 669 0
1606 1496 0
2729 -1505 0
3138 3108 0
-1333 2691 0
-3007 -2810 0
3204 43 0
4748 3276 0
-1632 -1955 0
1775 -387 0
-2604 4634 0
-3991 -1961 0
-3922 -3943 0
-1880 1664 0
-2391 -2888 0
-1126 3553 0
527 -415 0
559 -782 0
-4355 2158 0
-3863 -4521 0
-811 4375 0
4818 2293 0
-36 3256 0
1146 1311 0
1566 4789 0
-4660 4072 0
1261 1983 0
3387 -1376 0
2215 230 0
-3718 -1467 0
-3655 -4874 0
-4682 -5 0
446 2354 0
-1520 -4176 0
2463 3354 0
1765 -2409 0
1424 -4091 0
1431 -1460 0
-2040 679 0
-131 -3914 0
3281 -4790 0
-4059 4732 0
-3095 138 0
-3679 2851 0
-2243 -2639 0
431 -3381 0
3068 -1075 0
739 -2705 0
-4149 -2689 0
-455 1402 0
3164 249 0
3302 2312 0
-3253 687 0
-1986 -2717 0
-3477 -1835 0
-2994 3529 0
-3802 1900 0
247 2254 0
-3469 -2495 0
-2029 -3013 0
438 -1821 0
-3847 2317 0
-2880 691 0
3855 3299 0
-3133 4808 0
4190 -4790 0
-1180 -645 0
1467 -1730 0
-4395 -3158 0
1131 740 0
4864 -2863 0
-2809 -2150 0
2700 -4267 0
4290 -879 0
2852 -1879 0
3022 2870 0
4369 1133 0
4064 3418 0
583 4054 0
2540 -2261 0
1953 -2015 0
70 -3763 0
-219 -2218 0
2837 -4304 0
4780 4238 0
452 -4299 0
-1794 4844 0
-1715 -4633 0
-2587 -885 0
4574 1827 0
-3615 -906 0
390 -3183 0
1846 -2203 0
3421 -109 0
-2361 2631 0
3447 -3902 0
3691 4651 0
-2812 3302 0
4213 1638 0
-4712 -1924 0
2399 3081 0
2006 -4509 0
1300 1123 0
-981 897 0
-2582 4622 0
-3153 2121 0
3966 -1279 0
-4698 -956 0
-3337 -1951 0
-1180 -4205 0
-250 -4179 0
4060 1110 0
3038 -1522 0
-1038 -1853 0
-977 1266 0
-1449 -4838 0
-15 4754 0
-3698 2282 0
-37 1993 0
-2231 1960 0
-58 1044 0
4835 -1169 0
-3714 -3757 0
-3440 1510 0
4687 -772 0
1612 -386 0
-2129 2222 0
693 -4250 0
4720 4246 0
-255 2125 0
1627 -2402 0
28 3788 0
2119 351 0
-4650 567 0
1101 937 0
-3665 -1665 0
-2801 -3050 0
3282 -400 0
-4615 -831 0
-2071 2108 0
-1245 1233 0
1890 -2598 0
-2019 -204 0
-3040 -632 0
-2106 -1551 0
-1395 2016 0
-3246 3760 0
-1627 1610 0
-3368 772 0
1693 3792 0
3960 -2694 0
642 -3205 0
56 1559 0
-1126 -484 0
-673 -1933 0
1342 973 0
-2349 -962 0
1669 4278 0
2947 2799 0
1853 1729 0
403 2517 0
-689 -1369 0
-4098 1144 0
-4737 -1961 0
-3 -2788 0
3222 1721 0
3400 -2537 0
3854 -1610 0
1331 -2711 0
38 1118 0
4679 -4122 0
3801 -2005 0
-2391 -4614 0
-4263 -2913 0
2059 1092 0
-1698 -4477 0
-2837 2803 0
-1167 4512 0
1931 -3882 0
-1840 -2115 0
1887 2569 0
4518 -4622 0
-365 800 0
-2978 -3668 0
-3281 -2128 0
-3748 2456 0
151 -4060 0
-961 -3132 0
-1168 4873 0
-55 3625 0
-3618 -402 0
1685 -4519 0
2463 -749 0
422 -1688 0
-3184 -303 0
-309 12 0
-1706 4343 0
4536 4788 0
4451 -4105 0
-830 -1334 0
-1545 70 0
3097 -1983 0
-1830 2857 0
-1431 4187 0
777 2586 0
-3954 436 0
-1755 -1197 0
3610 1645 0
1183 -3003 0
4466 -3986 0
-635 -4544 0
-4676 -1641 0
4346 -4743 0
-3642 -1739 0
-84 3822 0
2892 835 0
3130 1405 0
-2294 -3465 0
2941 1993 0
3864 -3548 0
-2552 4798 0
1941 600 0
-2974 2712 0
-1444 4225 0
4034 -643 0
774 -181 0
3903 693 0
-218 208 0
-3575 -4621 0
-3282 -3143 0
1144 -1933 0
-368 266 0
-1338 -4089 0
2964 517 0
4053 -1730 0
-3549 275 0
-2600 -4782 0
3349 -2988 0
53 -1901 0
-4507 4569 0
-1245 3667 0
-3249 4430 0
-2003 548 0
-3319 4318 0
-3521 -1219 0
2409 2031 0
3754 -4318 0
4578 575 0
-3660 778 0
-718 2344 0
986 -2618 0
-4429 -1097 0
2339 3634 0
-4827 -1833 0
-582 -114 0
-3377 -3705 0
2608 -1753 0
-2746 863 0
-586 -3446 0
1263 -2273 0
1707 2338 0
-4296 3622 0
2458 2743 0
3033 -3322 0
4355 -4326 0
1349 345 0
-546 -2773 0
-2253 1894 0
-4166 -538 0
578 922 0
1507 2270 0
3426 -3341 0
4191 -611 0
-209 4655 0
-2310 2971 0
-846 4652 0
1821 -495 0
4113 -51 0
3979 4386 0
-2663 -1229 0
1497 4473 0
847 -1578 0
936 3830 0
2138 767 0
4484 2410 0
1595 3169 0
4083 -1842 0
-2163 2032 0
4771 4629 0
599 -2685 0
-4163 -1887 0
4242 -4068 0
-1214 -3534 0
-2891 1158 0
-4417 3683 0
-1214 4625 0
-4711 2524 0
-1424 -2152 0
-3686 -699 0
-4678 -1812 0
-1844 2572 0
2225 32 0
1928 -1213 0
4606 -4327 0
-4606 2262 0
-714 852 0
-888 1470 0
-1215 -4226 0
-953 2551 0
3669 -222 0
-204 -1379 0
3698 -1625 0
-1997 -3686 0
2046 2088 0
-2206 -1302 0
2707 -2232 0
2103 1043 0
4008 -4227 0
3212 2745 0
-4397 -2313 0
-2729 1447 0
215 -1390 0
156 -3190 0
-1082 2450 0
1597 -2990 0
-1627 119 0
992 2132 0
-1332 -3905 0
-2355 -1339 0
-662 -1778 0
3324 2516 0
989 4022 0
-1952 -198 0
1509 -1778 0
3909 -3604 0
1934 2852 0
2779 222 0
4649 -115 0
3888 404 0
4619 345 0
-1620 -4489 0
-4597 -965 0
1460 -1877 0
-2736 -3832 0
-3681 1787 0
-1386 -4037 0
-2351 -3454 0
-4153 -1122 0
1314 -4579 0
-2582 3329 0
3446 -1667 0
-4195 -3491 0
3082 -1036 0
-74 -1689 0
2038 -2123 0
-792 3656 0
877 -3130 0
2180 3245 0
2387 4794 0
-3289 1475 0
1462 3890 0
1161 -3389 0
4449 -3600 0
3220 -2844 0
4089 1897 0
4467 534 0
-2070 1410 0
2459 -3219 0
2179 264 0
1198 -1229 0
-1708 3800 0
-4196 1643 0
4857 -2510 0
403 1113 0
4855 3981 0
-692 -874 0
-2265 -520 0
1859 -2988 0
-930 -2220 0
4105 465 0
-3141 -4814 0
410 -2999 0
2120 780 0
230 766 0
-880 -2008 0
-3548 2663 0
-2052 1499 0
317 4780 0
-3547 3979 0
4428 -1926 0
2629 2132 0
-3828 742 0
-392 -142 0
-4817 3144 0
3528 -3010 0
2147 724 0
4873 -3963 0
-3805 1209 0
1056 -4087 0
4587 -2942 0
1025 -3058 0
1889 2152 0
-364 -3148 0
-2912 1655 0
1835 -3247 0
1692 -278 0
170 -4152 0
-3473 2254 0
810 3880 0
69 1597 0
-1817 -15 0
-658 -3642 0
1376 2887 0
3956 -4867 0
3524 2766 0
3267 1069 0
-1069 -2528 0
1711 4705 0
188 1939 0
688 2681 0
3246 458 0
-1935 793 0
-3904 2057 0
-2462 1858 0
1585 -3838 0
1469 943 0
-3839 -2349 0
-2304 -2393 0
-3398 -2881 0
-3066 -4809 0
3320 -1934 0
2830 -3984 0
-2946 1752 0
-80 -1373 0
-2852 -2989 0
-272 -42 0
3704 -443 0
1002 568 0
-3565 4620 0
4675 4447 0
-3839 38 0
-864 4207 0
-1733 666 0
-1213 1401 0
3329 -2595 0
-124 -2812 0
2489 -4395 0
-422 1281 0
3337 -168 0
1944 2148 0
1398 -1452 0
4872 1346 0
1288 3701 0
3981 -1287 0
4097 -3005 0
-147 3112 0
-3527 -4290 0
-1357 -3795 0
-2063 2518 0
2851 -906 0
-3874 232 0
2985 -3839 0
-2327 246 0
-115 -4263 0
-959 -427 0
3472 3176 0
-1082 4575 0
-3647 4426 0
680 -434 0
4280 4170 0
-3095 -2290 0
-2070 4801 0
-3296 -2253 0
3898 1675 0
-4036 -329 0
-1031 4428 0
2880 2475 0
4279 -103 0
3584 275 0
-2524 -2724 0
-670 2482 0
3507 -118 0
1447 -3377 0
3347 367 0
-2591 2059 0
-2652 2601 0
2400 -2189 0
-3336 -83 0
1010 487 0
3105 -4589 0
-1973 368 0
-2325 -1644 0
557 -1165 0
2634 -3387 0
-4714 -3389 0
785 -545 0
3564 4024 0
2285 -469 0
1581 3145 0
-3705 -2230 0
1539 -1831 0
-277 3721 0
257 4482 0
4459 69 0
3036 2242 0
1375 509 0
-3549 -3543 0
3847 487 0
-4118 -3883 0
4108 908 0
-1213 -2845 0
2477 -4190 0
-817 3122 0
-875 -2215 0
-2597 2904 0
-560 -747 0
-754 -3687 0
-3593 1295 0
-2534 -3223 0
2373 4378 0
-3523 -1305 0
3786 4420 0
2950 -4771 0
255 3677 0
-604 3222 0
-3335 -4852 0
-2702 32 0
-430 2764 0
2630 4679 0
1343 -4372 0
3533 4477 0
-2847 3347 0
-2902 -2151 0
-3454 830 0
818 -920 0
-960 -4037 0
3566 2143 0
-4380 852 0
1579 92 0
-2787 306 0
-2900 -3591 0
-1322 2117 0
-3368 4353 0
352 -2537 0
2639 1107 0
-4867 1745 0
295 -3485 0
65 3533 0
3702 -2939 0
3895 2463 0
-2471 -3541 0
2599 -3987 0
2831 2683 0
-4008 1485 0
3309 3601 0
-3121 4873 0
-492 4386 0
-4169 -779 0
3561 -3813 0
4821 -768 0
3738 -4228 0
2897 -2803 0
-3980 3597 0
-4439 2959 0
-1997 430 0
2468 -2181 0
3360 3576 0
-4289 -4416 0
4469 1338 0
-2104 -479 0
-1378 -2581 0
2155 -3835 0
415 -3227 0
1963 -2503 0
4558 2404 0
3547 -443 0
420 675 0
-809 -1637 0
3908 332 0
2805 -635 0
-2147 4479 0
-338 -4171 0
4770 -344 0
2312 -3486 0
-4135 1975 0
1307 -582 0
-3968 -2052 0
-1029 293 0
-4176 1025 0
3303 2420 0
8 -1239 0
947 -1264 0
-2655 1659 0
-3419 1668 0
1090 4136 0
-3050 -2122 0
-279 -1688 0
4157 3302 0
-3764 -2073 0
1929 4735 0
18 -778 0
-3645 413 0
-3438 -747 0
366 -2814 0
-3915 -189 0
-4531 360 0
-3594 -505 0
82 -3193 0
-4233 3037 0
-2987 -1679 0
2910 -4632 0
-881 293 0
-3486 -759 0
-2083 1808 0
1146 4751 0
-1996 -1049 0
-1890 -183 0
3513 -1970 0
-1376 672 0
1456 -3826 0
-3137 -1560 0
953 179 0
1029 -4496 0
493 -1319 0
-4719 2033 0
-881 4718 0
2651 313 0
-3912 2917 0
571 -1399 0
3662 2105 0
-4053 4876 0
-2618 -836 0
2810 4681 0
-2127 23 0
-4734 4814 0
-664 -3252 0
-2988 3915 0
-421 1772 0
2103 1646 0
2777 4760 0
-2445 -2761 0
4565 -2409 0
4664 624 0
3869 -31 0
-1174 289 0
4644 -1994 0
623 2316 0
2446 4731 0
1292 -1917 0
2613 764 0
-642 1377 0
-678 2323 0
3687 -1451 0
-4689 3118 0
-2814 -2130 0
-3025 3168 0
-2721 -4111 0
3653 2284 0
-4309 3190 0
-2263 -1771 0
4808 3764 0
-4670 -1235 0
304 4703 0
1003 -306 0
521 2958 0
59 2647 0
-110 3636 0
4031 3494 0
-1821 -3063 0
-1848 -4390 0
2593 -1045 0
-2431 -1055 0
-4692 -2917 0
2230 2907 0
1116 -3656 0
2314 1621 0
4400 3880 0
-1258 -3488 0
2562 -4410 0
3848 -4422 0
-1737 2247 0
-3029 1569 0
-3135 -1551 0
-3372 4022 0
2517 1134 0
-1066 847 0
4785 3245 0
3717 -489 0
-4308 -522 0
-2285 -4468 0
-2019 -3637 0
1048 -2207 0
-2246 2616 0
-3598 -3149 0
-942 3148 0
-3141 3039 0
851 4076 0
-2746 -746 0
-3856 -91 0
1894 3306 0
-3034 1671 0
2937 4215 0
1310 -4734 0
-578 -3497 0
1382 -3907 0
-2028 -4798 0
496 3696 0
-2872 -393 0
-4230 3524 0
-3018 4673 0
271 -1558 0
-4517 -945 0
1643 -1521 0
2983 -1452 0
-2552 2085 0
-54 -3061 0
537 4322 0
-1938 -614 0
1871 -1036 0
-483 251 0
2939 -1868 0
4511 411 0
1463 604 0
3088 -4241 0
2825 167 0
4140 -2645 0
-1847 4040 0
360 -1277 0
-4744 1827 0
-759 4512 0
-1538 2174 0
3000 3239 0
1263 -4036 0
-3177 -1160 0
3816 1745 0
-619 -2863 0
-1953 1726 0
126 4432 0
-2624 1884 0
-3283 -3849 0
-1882 -2284 0
-482 -139 0
-3632 4604 0
2914 1075 0
1702 827 0
4224 2290 0
813 -2390 0
1104 771 0
4780 -1456 0
151 3701 0
4536 3474 0
-3599 -2280 0
-2667 3206 0
-1244 -3126 0
1775 4173 0
1591 -4394 0
324 -2794 0
183 -1200 0
-3326 2185 0
2141 3880 0
2512 2996 0
-144 -48 0
-1294 -1506 0
2490 2649 0
2574 2362 0
4660 -3939 0
-3618 436 0
1603 1221 0
2120 -3219 0
4607 -201 0
-2678 -1973 0
-699 -3771 0
-3690 2034 0
-1937 2888 0
-2115 3122 0
2781 2657 0
3286 -194 0
4657 1219 0
-3290 -1113 0
2700 1485 0
1230 1628 0
-1302 755 0
4379 -1868 0
-661 4171 0
1360 -3017 0
3839 4364 0
1081 -1009 0
-2951 4619 0
-3068 526 0
4455 -1796 0
-961 -2731 0
764 3399 0
4425 2477 0
1694 -3436 0
-754 3438 0
-619 3184 0
-2218 3503 0
-1259 -3987 0
-171 -4688 0
-2150 2900 0
-3844 -288 0
3822 -3549 0
4553 2398 0
4462 -4297 0
3609 -1091 0
4641 -2812 0
3514 -3181 0
2046 2303 0
675 4400 0
1621 -428 0
1157 3812 0
403 -2104 0
3370 3613 0
-2346 2754 0
-4738 4425 0
3911 -67 0
3549 2154 0
2649 4340 0
-3361 -2481 0
-3063 3950 0
1763 -2286 0
3287 262 0
2378 -1715 0
-396 -2608 0
-3381 -3958 0
2614 1546 0
-4719 -2127 0
-491 -1466 0
-703 -1359 0
30 772 0
-2283 2518 0
816 -3569 0
3359 -4771 0
-101 2620 0
835 -376 0
638 -153 0
3231 2378 0
2537 3934 0
4065 1852 0
1860 4058 0
-1143 -2290 0
4619 -3212 0
-5 -115 0
341 -1259 0
1447 4574 0
4097 2295 0
-143 -1184 0
2415 4131 0
1723 4481 0
-1106 4122 0
-1649 1485 0
3289 -2147 0
-3239 -4814 0
1627 -175 0
-2623 2434 0
-4553 2692 0
-4063 -3148 0
-3917 -3361 0
-4861 -3318 0
-1577 4516 0
596 4655 0
2795 -217 0
-3953 -4395 0
2979 866 0
1286 661 0
-1455 4871 0
45 -4493 0
3927 -1928 0
-2946 -4010 0
2111 3127 0
-1935 -4622 0
-1010 -1144 0
-801 -4121 0
-987 2163 0
-1733 1096 0
3656 -3125 0
4548 633 0
-1888 518 0
3364 1166 0
863 -1762 0
-2584 2267 0
-3079 -645 0
609 -2319 0
-496 3272 0
3910 12 0
-2445 2998 0
2934 492 0
2207 -1214 0
845 1463 0
1619 961 0
3086 2353 0
1668 1319 0
-4748 3230 0
-562 -3214 0
126 -496 0
819 -2284 0
-3643 -3102 0
4101 646 0
-3592 1085 0
2392 -1378 0
-1331 -4531 0
2695 -2117 0
4222 -3027 0
-1345 2091 0
3831 1447 0
1316 -643 0
-3767 -570 0
3694 -3012 0
-4492 -1957 0
-2272 1586 0
-4697 3410 0
1391 749 0
3008 -2055 0
-66 3399 0
-2165 2374 0
975 4638 0
4198 -3534 0
3173 -204 0
-440 2383 0
3868 4870 0
299 -3842 0
-748 -4732 0
1040 661 0
-2022 -2971 0
-2217 -898 0
1814 1504 0
-3939 4116 0
2456 230 0
-3256 4581 0
4543 2155 0
-4822 36 0
4572 4222 0
-930 -1396 0
-4653 4042 0
2470 4457 0
-3442 2652 0
-4800 -484 0
865 -4552 0
-754 322 0
-3265 -2688 0
-4551 -3460 0
-4793 -3634 0
-3807 -2530 0
-1747 3005 0
4659 4269 0
-3369 -3535 0
2409 869 0
1649 -403 0
4622 -129 0
7 -1598 0
2206 -348 0
2178 -3079 0
-263 -4521 0
-2528 -1543 0
-4703 -2275 0
1325 -707 0
69 1990 0
-155 3263 0
3144 -2187 0
-4235 1074 0
3042 -4479 0
-4128 1282 0
-811 18 0
2425 3738 0
4792 -4355 0
3757 264 0
1502 841 0
-2819 -1588 0
3880 -2407 0
55 -782 0
-2392 -3951 0
2084 4039 0
-1415 1429 0
-1012 2339 0
186 -4601 0
1496 -1641 0
-1198 3288 0
-1620 -3654 0
4730 -1709 0
-4583 1713 0
3641 4100 0
-2004 -65 0
-3608 2339 0
-3160 -4759 0
-4606 -2949 0
-3131 -1229 0
-2092 -3560 0
-3862 4123 0
1909 -2171 0
-1339 4744 0
-1883 1004 0
-3276 -4433 0
3372 -2731 0
2350 -820 0
-686 1111 0
3064 3790 0
764 -142 0
-2953 -1980 0
-4194 3011 0
973 1474 0
4187 -400 0
-287 -4002 0
-4562 -809 0
2798 -53 0
676 -1046 0
1286 3379 0
3111 461 0
-4003 3660 0
-1474 -4099 0
723 -901 0
1495 -1180 0
-732 -174 0
2199 832 0
3532 506 0
-2094 -4226 0
-3830 -4031 0
-2904 -256 0
-3180 2654 0
1457 -2403 0
2102 -4722 0
1025 1602 0
-4690 -3143 0
-1656 -3483 0
1100 -1928 0
568 -1209 0
1591 -3671 0
511 -2396 0
4367 2760 0
-1321 -821 0
116 1822 0
1152 1539 0
2594 4360 0
-2319 2442 0
-3615 4619 0
-4077 1088 0
-740 -3291 0
4280 3440 0
4835 1985 0
-573 390 0
-901 -1380 0
-1780 935 0
1920 3558 0
-277 708 0
-4509 1639 0
-1864 946 0
-1545 1314 0
-2559 -4316 0
1097 4172 0
-1982 4366 0
-629 -165 0
-315 -3343 0
-4077 -3371 0
-2875 4667 0
4477 4225 0
1844 2492 0
-2547 -3920 0
-789 3434 0
3154 -4827 0
-3975 -2308 0
-1348 3212 0
2250 1949 0
3981 4104 0
-3790 -2218 0
2549 -3718 0
3851 -806 0
-4770 2352 0
-708 -3542 0
1205 -2052 0
-4292 -2166 0
1971 3096 0
-1943 -4136 0
-1481 -3095 0
-1221 -1337 0
397 881 0
-869 3440 0
2911 887 0
-3542 595 0
2677 -2191 0
-1393 -4601 0
4548 3187 0
2257 235 0
-3205 3514 0
-2949 -1214 0
4081 -3280 0
2097 -1624 0
-445 926 0
-2246 -3056 0
3409 1473 0
3604 4392 0
1384 2278 0
225 -3627 0
-1895 3256 0
2116 2620 0
-4487 -873 0
-1088 -986 0
-4608 3629 0
1210 -4106 0
1469 4191 0
-350 3317 0
2342 -3694 0
3942 -1531 0
2378 -2887 0
-4184 893 0
1288 -207 0
-1785 -475 0
-1404 -2011 0
-3519 -4351 0
-2799 -170 0
588 -4305 0
-4801 2783 0
219 -4268 0
4560 2200 0
4506 -130 0
-2812 -4120 0
-4027 -3451 0
2808 -1469 0
3306 2360 0
1485 424 0
2905 -144 0
2145 -3061 0
-3968 3973 0
-2940 -3100 0
-1358 794 0
667 2755 0
2532 -907 0
839 -1004 0
946 -4668 0
4678 -64 0
731 -1066 0
1635 -958 0
-3624 1245 0
1664 -1651 0
4716 -1409 0
-1554 -383 0
3498 -3690 0
-429 -137 0
3729 3790 0
290 -3498 0
-1605 3972 0
3410 2025 0
-3245 3763 0
4556 4478 0
-3449 1756 0
4040 597 0
2049 -4715 0
-3407 -3747 0
-1828 -2846 0
648 -1405 0
-3090 4477 0
3870 1795 0
4265 -3970 0
4841 -1413 0
-2448 -831 0
-4107 -2540 0
-800 -267 0
1163 -2462 0
-4450 -2853 0
-3828 3161 0
-3459 -2138 0
2066 1156 0
1254 -800 0
4775 1014 0
-1890 4667 0
3009 957 0
2858 -3063 0
1253 3169 0
-2987 3873 0
-482 1077 0
-562 -4220 0
-1390 -3440 0
3171 11 0
-3176 -522 0
1721 2985 0
-781 1272 0
-2667 -292 0
2938 3351 0
-4334 -1247 0
-332 -2286 0
-1071 -4658 0
-3321 4710 0
-3083 430 0
2964 -3150 0
-2257 -3404 0
-879 -1688 0
-4704 1329 0
-1168 3792 0
-4154 -2955 0
1916 -3690 0
-1497 -2313 0
4563 -672 0
-2025 -2430 0
-1901 241 0
44 -3387 0
-2115 2617 0
4739 2105 0
2990 -2630 0
-994 -1761 0
2329 -502 0
170 -2591 0
4525 2538 0
803 -322 0
4259 1244 0
-1301 633 0
-59 -1618 0
-3665 -3260 0
-4839 -1272 0
2296 -3442 0
225 -3844 0
3468 2124 0
-1811 1975 0
3593 1221 0
806 232 0
-4605 -2919 0
610 -2044 0
-393 1892 0
-2562 1736 0
2914 1123 0
-3294 -3309 0
-595 257 0
1575 -166 0
3691 140 0
-3402 1526 0
3949 1854 0
-4383 -950 0
1349 1479 0
-1583 4567 0
448 -2816 0
177 -896 0
-3227 -1883 0
4629 -2674 0
4655 -1372 0
2571 1552 0
-4060 2425 0
-1546 2250 0
3727 -944 0
4317 757 0
-3953 -4583 0
3596 4510 0
3031 277 0
-3711 -2029 0
-1825 2217 0
-663 -3548 0
1981 674 0
-3645 -397 0
4186 3130 0
-1039 4659 0
1021 -1520 0
-188 -959 0
-1472 1175 0
-1203 -3481 0
4765 2288 0
3075 -1272 0
504 3114 0
-4131 4791 0
-807 -2022 0
4772 1816 0
4652 -3465 0
-3707 -1196 0
448 1881 0
-4246 -401 0
-2987 675 0
2903 2362 0
4832 -557 0
-4140 4513 0
-4524 -1102 0
-2531 -1393 0
-641 -777 0
4265 4406 0
4308 -1774 0
-4799 716 0
3637 -1678 0
331 2911 0
-2721 -1441 0
2569 2341 0
-3422 442 0
3666 -4222 0
-138 2907 0
-1460 -1927 0
-1251 -220 0
-2482 3956 0
910 4525 0
-1631 4732 0
3209 4315 0
4022 -439 0
-4846 -442 0
2593 -4758 0
1313 -2656 0
-343 2636 0
-1284 3593 0
-3335 -2506 0
-1408 467 0
-1052 2899 0
-1532 -1220 0
2492 1071 0
1699 -853 0
3388 -2161 0
3639 917 0
-2430 -2002 0
-806 -3799 0
1716 4091 0
-1002 3420 0
-1306 2406 0
-3087 -430 0
-4133 1493 0
-1072 3515 0
649 -1550 0
-4059 4267 0
-422 -481 0
-1349 -3985 0
-2208 -2876 0
-3202 -3029 0
3626 -2005 0
-4037 3131 0
-2868 -4104 0
4748 555 0
-393 3300 0
3738 -4114 0
-2436 3359 0
2709 -3610 0
-4405 -3976 0
4591 3526 0
-4169 -3662 0
-255 4260 0
2192 -1732 0
-2836 -989 0
-3231 -2668 0
-3651 -1880 0
4380 -206 0
1582 -3937 0
-1866 -4186 0
-2260 -4537 0
4705 -2036 0
4339 3178 0
3490 -4121 0
2039 -2769 0
4219 4070 0
2642 -1149 0
-3029 3515 0
-3574 2784 0
-713 -740 0
-1533 1133 0
786 -710 0
2210 2287 0
-1143 268 0
606 -3137 0
4587 -339 0
730 -1877 0
-2498 1450 0
255 2227 0
874 355 0
-3218 2293 0
-3409 -3418 0
1789 -815 0
3529 4795 0
-3469 -1340 0
3712 4035 0
4641 -262 0
-2710 4757 0
3977 -1758 0
-3716 -2278 0
4693 2444 0
2185 982 0
331 -3925 0
3727 -1188 0
1535 -4050 0
-3975 4094 0
3260 -3668 0
-4464 1243 0
-1648 -1293 0
1317 -4860 0
-4154 -4305 0
-78 2202 0
-4247 -4684 0
-3329 2241 0
-1916 608 0
3291 1710 0
4042 -1228 0
3370 -913 0
4315 555 0
4322 -727 0
1184 -954 0
-146 -4645 0
-4339 3768 0
-3741 -4051 0
3492 -3199 0
2409 -519 0
3332 -1535 0
3830 -934 0
3494 60 0
-481 4356 0
-3456 -3844 0
-3208 -883 0
1270 -1409 0
78 -978 0
3896 4874 0
-850 -2342 0
-1095 -1703 0
-1790 4115 0
-1308 4231 0
-4326 -3428 0
2453 1065 0
-62 -1440 0
3081 3924 0
852 -4044 0
2167 -515 0
4845 2412 0
893 272 0
-684 1993 0
4449 -4096 0
3021 4295 0
3162 1164 0
-2794 -560 0
-3613 346 0
1377 1489 0
-2219 1763 0
1950 -4190 0
1193 4815 0
-2591 3466 0
-2351 605 0
4086 -4369 0
-809 4523 0
4280 866 0
209 2879 0
4320 -2955 0
-4620 1500 0
-262 -6 0
-4542 -4361 0
4315 -3109 0
-464 3040 0
4128 -4578 0
-2875 -1490 0
3496 -4167 0
-2527 -1451 0
2896 3436 0
-1000 -3166 0
575 1152 0
-1367 4157 0
-2055 -2178 0
3500 -722 0
-3295 -1992 0
-817 -3487 0
228 -662 0
665 762 0
-416 1540 0
-3899 -275 0
-3919 1694 0
2586 -1725 0
3678 -894 0
-1617 -4633 0
-3859 -3992 0
2404 -4768 0
2325 -1650 0
2658 2525 0
-1153 1499 0
-3008 3577 0
3051 -3027 0
-1880 3647 0
-3486 -633 0
3951 -1121 0
-2430 -3959 0
665 4172 0
-4051 2034 0
-2455 -3960 0
1345 3844 0
-2544 1622 0
-3506 2479 0
-3989 -663 0
2234 814 0
-925 -2115 0
-3818 -1461 0
-1628 -526 0
1134 1012 0
-3806 -2986 0
-2523 2514 0
499 -3907 0
4710 191 0
-535 3968 0
3289 3754 0
565 -3258 0
252 3825 0
2123 3114 0
-2632 -494 0
-3643 3368 0
3503 -1348 0
-2028 3810 0
668 -1703 0
-1855 -2137 0
-2898 -4778 0
-2822 -4292 0
-952 3043 0
-2618 1268 0
4294 -3422 0
-4171 -1550 0
4738 -2074 0
-4575 1303 0
4113 -4785 0
-2061 -1280 0
3532 3896 0
3398 -1673 0
3495 -2483 0
-2005 -729 0
3957 2683 0
375 -1698 0
2505 -2898 0
-4158 254 0
2139 -4777 0
2511 549 0
512 3913 0
1190 186 0
4352 -4633 0
380 866 0
848 -1099 0
-677 -2150 0
-560 -4791 0
-1409 -1531 0
-136 -4527 0
-670 -2481 0
2841 2373 0
2462 654 0
-1430 -48 0
4564 705 0
-650 4834 0
298 26 0
1487 -3889 0
-2941 4263 0
-175 -3861 0
3960 3830 0
-3216 1024 0
4867 4093 0
4301 3396 0
1123 3616 0
-2392 1712 0
-152 -3442 0
-1654 -1299 0
-834 -2391 0
-3752 2696 0
-590 -3644 0
-3272 -1635 0
-713 -1159 0
4368 -1362 0
-1824 -3008 0
-2665 -916 0
-1798 -1181 0
-3487 3031 0
-2537 -4487 0
4268 -614 0
2241 332 0
-1115 -348 0
-51 -2629 0
629 571 0
-1055 3917 0
-4716 -1878 0
-3085 -329 0
-4738 4531 0
3894 2814 0
1659 719 0
3319 -1161 0
2453 4591 0
-1725 -3251 0
4840 2639 0
-2773 -1131 0
1647 3500 0
1125 302 0
-4025 3110 0
-220 895 0
1959 3220 0
921 -2058 0
-302 3062 0
-4501 -3916 0
-3605 1769 0
4431 -4675 0
-2399 3884 0
2043 -2585 0
-3273 3447 0
-1084 -139 0
4310 -3612 0
-4864 -3439 0
211 2759 0
-3903 924 0
522 4789 0
2451 3164 0
-1176 1335 0
2764 -1528 0
3904 3377 0
232 -2870 0
3044 893 0
-2576 -4119 0
-2609 3577 0
-2442 4330 0
-2146 -3162 0
-3298 -2274 0
-2229 2873 0
-1793 -4294 0
1583 -1294 0
-494 -3227 0
4755 -1854 0
-853 1057 0
4723 3262 0
-3405 1905 0
-2143 -2062 0
1300 -1364 0
-1373 -2363 0
-2078 3583 0
3746 3777 0
1102 4687 0
3801 -2540 0
4788 -3558 0
2768 412 0
-3515 -3484 0
-1886 4783 0
2377 -1625 0
2034 3810 0
-1405 4650 0
-172 -1725 0
624 -3365 0
-2670 1072 0
855 118 0
2378 4229 0
-2454 2178 0
-999 -2337 0
3944 284 0
3723 1510 0
-2115 -3709 0
-639 2171 0
-3085 -1101 0
-1416 -653 0
-1057 -3481 0
3713 -356 0
-3481 -649 0
-2531 1896 0
-2496 -1640 0
1529 -3157 0
-2131 -4322 0
-1174 3423 0
4695 1736 0
1851 -3755 0
3165 809 0
3842 3553 0
-4598 -1606 0
-189 283 0
-972 -3148 0
2586 -2769 0
1337 4020 0
-3661 3673 0
-2132 -247 0
2910 4426 0
2341 4510 0
140 3945 0
1035 1183 0
-4116 3830 0
3121 -1575 0
-2265 -4712 0
-3607 436 0
-1193 -556 0
-2155 3105 0
1498 -2996 0
1200 1329 0
447 4324 0
-4256 -4595 0
-3511 -2660 0
-3991 -3785 0
366 -129 0
-2690 -1392 0
-470 -3620 0
-4621 2376 0
1992 -2201 0
-1404 -194 0
-2899 2892 0
-189 4576 0
-2392 2072 0
3518 4511 0
3537 -784 0
-1 1718 0
3155 -4450 0
3972 -3166 0
-3735 211 0
-605 -3251 0
-4766 470 0
684 -2567 0
2889 3437 0
609 -263 0
-2455 1167 0
-775 -492 0
-2904 4844 0
1426 2831 0
3114 1432 0
-4369 -3295 0
-3392 -3123 0
2829 -851 0
4629 -3752 0
4762 -4397 0
1660 4009 0
3650 -2915 0
-4577 -2275 0
-214 868 0
-314 1570 0
-940 3876 0
1085 -2468 0
1608 -206 0
4477 -952 0
3821 379 0
-4031 -3337 0
-1500 -3790 0
2487 1884 0
1450 -1169 0
-2609 855 0
156 -4113 0
-553 2649 0
3837 -2193 0
-4406 726 0
2692 3022 0
-2953 -4725 0
2305 -4310 0
-1418 1510 0
-4729 4278 0
398 -1489 0
-4012 -4209 0
-3457 3319 0
4214 2070 0
3141 1311 0
1784 -2941 0
107 4797 0
-3939 -678 0
-117 946 0
1694 -3752 0
-1323 841 0
3261 3341 0
-4569 -2399 0
3154 -1313 0
-1833 -405 0
-2338 -3246 0
-333 105 0
-200 -4358 0
-3974 1614 0
-415 3554 0
2085 1697 0
-3565 3242 0
1126 1542 0
-3208 -2263 0
-1038 3830 0
56 -3940 0
-3293 4553 0
3918 -244 0
2479 -562 0
527 3672 0
2123 -1998 0
-3215 -1498 0
-3948 1960 0
-972 -2530 0
20 -334 0
1761 -978 0
-1666 4743 0
3565 3009 0
-2472 1806 0
968 4827 0
-3580 -4624 0
-1456 -1207 0
4247 723 0
-4263 150 0
163 -4167 0
-1657 -5 0
3277 80 0
1650 -1615 0
3837 -865 0
-1210 3138 0
-185 943 0
1512 201 0
2929 1945 0
-1534 969 0
2989 -418 0
2384 -3793 0
2483 3934 0
1161 -4376 0
-1932 -865 0
-1467 -4481 0
-452 1038 0
-2469 2947 0
1812 -2432 0
-3369 -1335 0
1265 571 0
-8 -3291 0
-3744 4580 0
3766 -2723 0
2090 3267 0
395 2774 0
201 4632 0
-1210 706 0
3221 4082 0
821 3887 0
755 4782 0
-1898 796 0
-4449 -702 0
-942 -3591 0
-4651 1667 0
3484 -3990 0
2428 -4063 0
-2912 3623 0
4719 -2278 0
1710 3597 0
4177 4335 0
290 -283 0
3814 176 0
-2598 -1353 0
3014 -3295 0
1863 1280 0
3001 -457 0
3636 -4372 0
-4483 2104 0
-4723 -998 0
1270 4330 0
-2069 -4524 0
-202 -236 0
-4419 -4047 0
-708 102 0
3071 -1662 0
-699 -2906 0
4664 -2201 0
3122 -3137 0
2674 1375 0
-2285 -1427 0
82 -2145 0
-996 -4821 0
-256 4327 0
3312 -3917 0
-2936 3134 0
-4740 368 0
808 -3560 0
2909 3544 0
-4736 -148 0
2385 -239 0
-3931 1210 0
-1798 -2952 0
2740 -2529 0
-2216 3996 0
-1327 -4729 0
4039 -4374 0
1529 -1726 0
-1725 4447 0
4865 4129 0
235 1008 0
-3492 -1035 0
2998 91 0
-3588 1992 0
-3268 4799 0
-3907 -1497 0
-1332 1694 0
-259 3292 0
4056 1434 0
4265 -1081 0
-4196 -4442 0
-3940 -513 0
-1228 1293 0
-3510 -1988 0
-329 3301 0
-4765 -1723 0
719 1457 0
3444 -4114 0
695 -4689 0
-2658 4808 0
-2930 2665 0
197 -3986 0
1165 -2572 0
3865 -496 0
-2022 1087 0
-1999 -4505 0
2329 -4725 0
-4464 -884 0
2507 4250 0
-1479 -1995 0
139 3760 0
3357 -4589 0
-813 -4306 0
1355 3642 0
4326 4359 0
2291 -4381 0
3495 3948 0
-1739 -3461 0
2106 -1124 0
318 -3645 0
1769 -4693 0
1716 3940 0
-906 1958 0
627 -1191 0
3458 4269 0
-622 199 0
3323 3476 0
184 -1062 0
4242 3409 0
1857 -3601 0
-2618 -3134 0
-3297 -1818 0
-3622 -4457 0
-1189 -4709 0
-1655 -2101 0
1884 -296 0
3846 -3249 0
2135 1819 0
4233 108 0
994 -1016 0
325 -3379 0
1211 3549 0
3888 -854 0
4789 -3866 0
4876 1786 0
-4641 4015 0
2406 -3354 0
-236 -1547 0
851 -2531 0
1270 3343 0
-59 1056 0
-3333 -2333 0
768 -1156 0
3808 4414 0
-1421 2327 0
-2557 -3533 0
-4395 1853 0
-2109 1313 0
-2670 834 0
-3559 -3675 0
-1213 -2778 0
1080 -1790 0
-1705 860 0
-2309 2632 0
3564 4101 0
-1017 1783 0
4549 1969 0
342 -4785 0
-692 4408 0
-2634 -538 0
4404 -3630 0
-3249 3509 0
4265 -611 0
-4712 3837 0
3174 -2799 0
-3199 -3937 0
837 978 0
-1379 -146 0
-753 3973 0
850 -2634 0
423 -147 0
390 -3371 0
-2002 -3034 0
3404 -3211 0
-2354 -4393 0
4789 -1099 0
-4152 -658 0
-428 -10 0
-1814 -4091 0
-3916 -1687 0
338 3207 0
-2431 -2211 0
1129 -2651 0
4014 -24 0
1976 457 0
2929 -3485 0
2826 -2832 0
-2104 -2916 0
-3976 -2008 0
4760 -4263 0
-2923 3797 0
-902 -1198 0
102 -4230 0
-3719 -1933 0
2240 4561 0
1804 -2570 0
2280 4833 0
2944 741 0
-337 -2151 0
2452 2879 0
3770 -4206 0
2830 1697 0
3855 3232 0
1714 3200 0
-1284 24 0
4109 1630 0
303 -3720 0
-1833 3370 0
3194 -3269 0
-2844 894 0
-638 -3710 0
3186 2702 0
-1890 -3722 0
-3613 -4779 0
-417 2637 0
-1378 3899 0
-4454 107 0
-4837 1014 0
645 797 0
-4370 1028 0
4330 -2888 0
764 939 0
-351 -3162 0
4786 3199 0
3735 -3503 0
1119 -3173 0
-4160 -4194 0
-1253 4054 0
-742 -2184 0
3351 2632 0
613 4137 0
-2403 731 0
3430 4652 0
1824 -2417 0
4616 -3471 0
4820 1776 0
2854 -4594 0
2138 -1202 0
-1435 1223 0
2192 -4176 0
2980 -1234 0
4359 2726 0
-2648 -3221 0
-3105 -3416 0
777 -2942 0
-2768 -2079 0
-3097 -3347 0
-3434 -3985 0
2267 -1636 0
3674 3168 0
4714 395 0
2073 321 0
-4351 1779 0
-1020 -1557 0
-1654 -2817 0
-1428 3105 0
2654 1792 0
2040 2409 0
-2686 461 0
2060 -2630 0
2564 183 0
-4832 -2218 0
-3883 -1721 0
4101 -1771 0
2572 4554 0
666 -4521 0
447 -4789 0
-457 -4124 0
-1105 -3688 0
-1790 -4248 0
3894 -2195 0
2651 526 0
-945 1308 0
3984 -1479 0
3666 -3251 0
3713 489 0
1594 -2731 0
1557 3831 0
-3177 3050 0
424 -1980 0
-208 -3371 0
3913 -2502 0
-2941 -2450 0
298 -3367 0
-749 -1415 0
-4618 2697 0
3021 -1654 0
4417 1218 0
-111 332 0
-344 2877 0
-3611 -1270 0
780 4395 0
-4110 -1936 0
136 -604 0
2032 -4596 0
2477 3763 0
4231 -1170 0
-53 3947 0
-4273 1117 0
4711 -2432 0
2780 -4672 0
-2865 -1611 0
-1232 -3272 0
2677 -1459 0
-4465 4422 0
1789 -1237 0
2395 1555 0
-2309 -95 0
1336 -2893 0
3882 1570 0
-4753 -597 0
4254 -4847 0
-2521 -2047 0
-1662 1907 0
2681 -312 0
833 -3117 0
281 -1616 0
-538 -1394 0
-4433 -2756 0
-306 3612 0
126 -2114 0
-4729 -1478 0
-2344 -740 0
-4513 159 0
-857 -3812 0
3542 -1208 0
-590 -118 0
-1617 -1724 0
-3311 -2814 0
633 1426 0
-2616 -2380 0
662 1186 0
4426 -3740 0
3155 2824 0
-4576 2848 0
-2149 1473 0
-1672 -365 0
-2522 -1758 0
-2883 -3728 0
-2877 3662 0
-2821 141 0
-3244 -1010 0
-276 -85 0
3235 19 0
-3542 -2645 0
1846 2467 0
620 -2310 0
2757 -3295 0
-3279 1050 0
1852 2818 0
-2558 1345 0
3042 -2003 0
-536 -2758 0
264 1447 0
837 -1847 0
822 -255 0
-3425 3631 0
4020 -2426 0
4125 -3311 0
-3945 -4634 0
-3940 1001 0
-1367 4578 0
-56 4017 0
-2806 3447 0
925 1843 0
-1879 -836 0
750 -482 0
4120 1892 0
1399 -2346 0
-415 -3797 0
3845 3775 0
-139 -4769 0
-497 3789 0
2567 4374 0
-2625 -1121 0
-3812 -4255 0
4242 139 0
3079 1839 0
3631 408 0
-2078 2004 0
-2618 -2230 0
-2200 -4465 0
4001 903 0
-3334 3225 0
4135 -826 0
2293 -4608 0
-3214 -15 0
4825 -1703 0
1468 -115 0
3759 848 0
3670 -1240 0
-427 -4300 0
-4668 -4220 0
-375 160 0
-4280 -4807 0
-3218 -2035 0
-3243 -1474 0
3855 -4544 0
-428 -4088 0
4323 -2780 0
4492 4724 0
-1780 893 0
-3460 -4700 0
861 4134 0
3848 -1917 0
3406 3551 0
-4507 2813 0
-1215 -182 0
-352 -4630 0
3100 -1613 0
-3958 -1873 0
4223 277 0
695 4706 0
448 2960 0
1149 4726 0
-3596 4274 0
4706 -2224 0
-2647 2806 0
152 -1112 0
-468 -1896 0
1669 -1720 0
-1602 -816 0
671 2752 0
3163 429 0
-576 3881 0
4710 -3323 0
4676 -2573 0
-3075 2506 0
-2834 1900 0
-456 2012 0
1254 -1127 0
4108 256 0
-4430 2475 0
-1521 -2341 0
4133 -381 0
-773 -1567 0
4114 4366 0
2548 -509 0
-4368 -3775 0
-1723 -3964 0
3171 -1306 0
-3836 542 0
4533 826 0
541 -2401 0
-175 4558 0
3112 2022 0
-4670 -1457 0
-2559 -3716 0
-765 -1392 0
2725 -4479 0
-1179 3158 0
4648 2907 0
4190 2490 0
2117 -2584 0
1983 -2292 0
3094 -1575 0
-2959 -1097 0
-4646 -512 0
-4869 -3571 0
-2661 -1746 0
1574 -2340 0
-3286 2696 0
3752 -1373 0
638 3947 0
-2854 4286 0
3585 -482 0
2830 -2399 0
4058 -4577 0
-3840 -3632 0
3000 1166 0
1900 2851 0
-2673 3810 0
-2416 -1553 0
-2597 -240 0
-2807 4342 0
3123 2551 0
2999 346 0
-1596 -1573 0
-841 -4606 0
1555 -1286 0
1285 4326 0
2059 4113 0
-1412 -2323 0
-2752 93 0
3882 730 0
-4165 -4501 0
953 2444 0
305 1752 0
-4109 3401 0
3759 -1087 0
-4069 3846 0
-3482 1494 0
4125 -1436 0
1435 1913 0
1293 1219 0
-196 -3849 0
1192 3501 0
-4468 1275 0
2061 -4438 0
4306 1537 0
2477 -4123 0
3259 -3160 0
4087 951 0
2756 1752 0
3491 1661 0
4695 -3365 0
-944 2089 0
4046 -688 0
-4468 -879 0
-1572 2012 0
96 -4528 0
-1173 -3148 0
4154 -1013 0
-918 -3095 0
-912 3547 0
-588 3244 0
1275 -1446 0
1842 -1417 0
4184 -2598 0
-2615 -3072 0
-2004 2341 0
-766 1403 0
553 -1746 0
-2000 844 0
1931 2849 0
-1165 4249 0
2483 -3221 0
-3154 2325 0
-1013 1300 0
-1074 2944 0
1655 -105 0
3525 4316 0
-4282 -2853 0
-4365 -2541 0
-1158 4245 0
-184 -3634 0
770 4235 0
-2693 -2927 0
2125 -653 0
1296 -4745 0
-2244 -1505 0
4151 3184 0
-4088 2703 0
3955 4721 0
715 -2530 0
557 523 0
4265 -4768 0
-674 3379 0
-2682 -1513 0
-3211 -3269 0
362 4526 0
2237 -2440 0
-2423 1480 0
3853 -2108 0
1027 4747 0
-4497 1345 0
-902 -672 0
-1324 3176 0
3458 3159 0
2655 -80 0
-825 3808 0
-1258 3174 0
769 -4413 0
1875 -2301 0
-4053 -14 0
3796 1280 0
3927 -4509 0
1119 78 0
4469 -2118 0
3373 4839 0
696 -2030 0
2997 -3184 0
-1545 2730 0
-86 4859 0
4007 -2584 0
3054 453 0
4102 -3048 0
3876 4407 0
-4863 -131 0
371 855 0
4570 -4851 0
-315 -4129 0
-2471 -4129 0
3261 -1005 0
3809 -2834 0
3421 2 0
2374 -1272 0
33 2650 0
-116 -933 0
-343 -3734 0
-1262 -1082 0
-3632 2296 0
3678 -1734 0
-4419 1041 0
2926 1287 0
4655 2458 0
804 1184 0
-1392 2351 0
-877 2107 0
-2630 -3369 0
-4818 1042 0
-1352 -337 0
641 -2672 0
1862 -1202 0
-1837 -2402 0
-1483 -1567 0
-3060 2761 0
1907 4506 0
3482 -508 0
1436 2302 0
1989 -164 0
2553 2405 0
3702 -3907 0
-2028 -4245 0
-3172 112 0
1809 -3673 0
-1388 -1221 0
425 4359 0
-4520 2174 0
-4448 -2619 0
-408 -2391 0
820 4048 0
-4847 1224 0
-2461 -708 0
-3681 1016 0
3819 -4438 0
-4856 -4582 0
-1191 3604 0
-2799 -655 0
-4016 -4523 0
1316 2027 0
2777 2139 0
3812 -2244 0
-3503 -3641 0
-911 1133 0
-3628 -3774 0
3015 3458 0
455 3492 0
-3244 4488 0
3411 4004 0
1345 -1316 0
-2563 3930 0
14 2132 0
3164 800 0
2862 2527 0
2431 4628 0
-221 3635 0
-3409 -2905 0
-1996 1334 0
-961 -3448 0
-4458 -379 0
-524 -994 0
-528 -1605 0
-2542 3696 0
3446 1207 0
943 1345 0
-407 3964 0
2327 -4766 0
-3157 1963 0
-1246 4595 0
2078 -3173 0
2880 -4698 0
102 -822 0
-3448 2504 0
1286 591 0
-4323 3589 0
806 3299 0
4739 -4166 0
-1034 49 0
-2408 -934 0
3934 -4386 0
-1936 -522 0
-2879 -2741 0
4546 863 0
111 258 0
390 -4710 0
-4038 3263 0
2754 1934 0
-2864 -4139 0
2958 -3883 0
2411 -2902 0
-4074 681 0
4132 2094 0
-2845 -1980 0
2348 4696 0
-2674 -4248 0
3421 3075 0
-1068 -316 0
-3333 -954 0
-1771 3558 0
-499 -3832 0
4169 109 0
-1180 -635 0
-2525 -4347 0
-4115 -62 0
4230 -3784 0
716 4401 0
-4725 826 0
2 1552 0
-524 -4836 0
-2086 4553 0
1923 1875 0
-2132 3496 0
-3719 3893 0
3139 2866 0
2750 4430 0
-4686 1256 0
-4117 -400 0
3181 4420 0
2617 -1237 0
-431 -3601 0
-3532 2657 0
4702 3768 0
2723 2698 0
-4114 -3856 0
2105 -4648 0
-4450 1620 0
4004 -4735 0
-4770 2148 0
4406 3865 0
3060 1751 0
3342 3014 0
-105 -2689 0
170 592 0
4022 -1600 0
-1428 3696 0
2415 -1650 0
-2041 338 0
2853 4073 0
-3999 253 0
-4531 1600 0
661 2832 0
4787 339 0
-2001 -1154 0
4509 -158 0
1172 2824 0
1908 -2371 0
503 -1450 0
827 3119 0
2588 -3208 0
-1131 1028 0
1621 -4595 0
-292 -4181 0
-1986 3402 0
-2246 4029 0
-1140 -1243 0
4702 -1388 0
393 4404 0
-3400 -832 0
990 3049 0
2499 620 0
793 -825 0
3261 -4541 0
-214 1786 0
-1216 -2668 0
-2018 2965 0
173 2627 0
4172 -2661 0
2879 498 0
2439 -1945 0
501 -3670 0
880 2162 0
1591 2492 0
-2583 -4270 0
3671 3551 0
2609 -655 0
-1679 4691 0
-4212 -2603 0
-1178 1587 0
625 -2587 0
-2436 -4258 0
-1153 -2767 0
2121 1809 0
-1283 2046 0
-1440 2617 0
-4234 2458 0
-1303 4335 0
-3218 -4268 0
4469 1566 0
-1332 129 0
4058 4642 0
-3300 4505 0
4006 -3541 0
1086 -200 0
572 4169 0
1841 3696 0
30 4418 0
2328 661 0
4622 2424 0
-4227 960 0
-1634 -1258 0
-2215 -2730 0
-3157 -3994 0
-1802 1239 0
-967 271 0
-2863 3709 0
-614 -3018 0
-4572 -2080 0
840 -1784 0
3282 4775 0
4019 4072 0
3865 626 0
2116 -1615 0
-2746 3974 0
1911 3811 0
2488 2269 0
3804 -4784 0
-247 2782 0
-208 4655 0
-3193 -2634 0
3872 -1252 0
4447 -1521 0
2590 -3386 0
2362 684 0
-343 54 0
3427 1868 0
-3572 3941 0
646 -2710 0
1083 3433 0
2877 2425 0
281 3588 0
-2610 4048 0
616 -1027 0
-4602 299 0
45 -3137 0
419 3877 0
-2502 -3961 0
4746 28 0
-1816 -3762 0
-175 92 0
-1954 -2780 0
4756 4808 0
2257 -3299 0
1990 -1028 0
-942 1085 0
