c NF
p cnf 2305 6915
2149 575 0
-2243 -623 0
-129 -2268 0
1103 -290 0
-1543 -885 0
-226 960 0
1679 2248 0
-1915 -2304 0
192 -1456 0
-414 -1139 0
1474 -2036 0
-1376 -2062 0
1733 1878 0
-421 -868 0
1402 -1600 0
1575 1871 0
-1560 1648 0
-1199 1776 0
-456 1866 0
1310 -2291 0
827 412 0
2187 -565 0
-2030 215 0
-886 1306 0
-1915 -1456 0
-1275 -1559 0
-1946 -332 0
-76 -2228 0
-637 932 0
-1051 1247 0
-194 -541 0
1573 2096 0
693 -281 0
-381 170 0
-895 -221 0
1571 -2252 0
-448 1242 0
403 -1830 0
-456 157 0
276 -392 0
-632 174 0
-314 174 0
-472 1514 0
230 1744 0
-850 1410 0
-1298 -4 0
758 -2183 0
-1974 1773 0
-956 -779 0
495 -2153 0
1411 -1954 0
-1171 -1702 0
-553 1887 0
676 1314 0
1243 -390 0
1007 1474 0
-1098 -297 0
-1439 -434 0
213 -1451 0
-527 2184 0
-1505 -46 0
-2133 -1481 0
915 1618 0
-946 -199 0
1853 -1305 0
-148 132 0
483 1638 0
-71 -1433 0
1366 1610 0
89 1965 0
784 -1846 0
979 -1030 0
1820 2246 0
-1198 920 0
-1989 -1016 0
-382 -1847 0
751 1444 0
-909 893 0
-1088 2071 0
-575 -298 0
1401 1468 0
904 -400 0
948 -1847 0
1121 529 0
2215 -2010 0
1369 -1803 0
-1416 1425 0
-489 -951 0
1985 1991 0
1515 -387 0
127 266 0
-1875 277 0
-2250 -1093 0
1914 1285 0
-1410 -4 0
-697 -854 0
1761 989 0
1420 2142 0
1574 2250 0
-902 1794 0
1577 -1367 0
-1210 -2000 0
63 -1739 0
-2187 1267 0
-503 1401 0
-246 -109 0
-2265 -626 0
-1374 -2251 0
-101 -1785 0
-829 677 0
-585 269 0
-1192 33 0
-1273 -1047 0
-949 89 0
1909 2180 0
-878 -1068 0
464 -1454 0
1523 2263 0
524 539 0
1722 -591 0
2219 -2036 0
-1008 761 0
-687 -1886 0
1090 -1171 0
408 -613 0
-2080 1846 0
532 478 0
-568 1938 0
-1168 1295 0
593 -2118 0
-48 -935 0
1274 -1226 0
-1785 669 0
-409 283 0
-54 -723 0
-682 1715 0
-1394 -919 0
-1384 443 0
-119 1699 0
-1835 -1055 0
-1506 -665 0
-878 1263 0
-1138 -1604 0
-1594 1017 0
1460 -1061 0
1358 2168 0
262 -2176 0
-1045 -1123 0
141 749 0
-2268 1432 0
-237 1537 0
-1413 1144 0
-1970 -1903 0
106 1109 0
-2139 -1663 0
2116 237 0
-745 -159 0
1541 964 0
-553 513 0
833 186 0
567 -1777 0
-1247 -1599 0
-1850 828 0
-1598 -610 0
-1721 2091 0
-28 -1924 0
-1929 -1879 0
-995 -987 0
-940 -129 0
2137 1114 0
1545 188 0
1998 1136 0
784 294 0
-1649 -191 0
-2103 -1576 0
934 -1116 0
-195 2288 0
1647 -1283 0
-851 530 0
-1596 968 0
153 1712 0
1420 2109 0
-2260 402 0
349 1219 0
-166 827 0
1849 -2203 0
-1352 405 0
1318 -1238 0
1647 1472 0
2291 2058 0
-1203 -1702 0
1854 214 0
-214 -1749 0
-1503 -821 0
-1782 2186 0
1552 -1187 0
1100 -1665 0
-1723 -1543 0
1495 -75 0
-1906 1209 0
962 -659 0
1652 372 0
918 934 0
1565 -1497 0
1580 -1303 0
-38 -1523 0
-94 -1297 0
-1514 -1925 0
-1612 -697 0
-721 -1353 0
1747 705 0
2070 1721 0
1062 -1083 0
-1058 233 0
1524 1293 0
-1070 -719 0
-1702 1983 0
995 1150 0
896 1817 0
-1862 818 0
-1183 1808 0
-94 249 0
2209 -1324 0
312 -2062 0
1915 1922 0
-1180 -924 0
-799 707 0
-1695 -2241 0
-2197 -964 0
-446 -1149 0
-1275 -90 0
2084 1632 0
-1267 998 0
-657 -1718 0
-1150 1360 0
1591 -342 0
-813 692 0
-2135 -1044 0
787 41 0
1597 636 0
1005 -1555 0
2186 -712 0
669 1195 0
59 1784 0
2103 1379 0
2200 -2156 0
775 1447 0
-2284 729 0
-1171 -286 0
1819 -2140 0
1634 -1989 0
-1827 1556 0
-1360 -1449 0
1244 601 0
811 1915 0
2147 -485 0
699 -1949 0
-298 -661 0
1610 -1461 0
410 1084 0
-2219 -1160 0
904 -1201 0
-2128 1204 0
852 771 0
1753 1146 0
-803 -1858 0
331 317 0
647 -2078 0
-1745 2011 0
697 681 0
-1025 -1817 0
821 820 0
2184 1789 0
752 1216 0
1979 1173 0
-279 2105 0
-1879 -1127 0
56 2109 0
-2170 1533 0
-823 1195 0
2171 -446 0
585 1056 0
-230 -62 0
-668 1265 0
-570 -511 0
324 -727 0
-2208 121 0
-923 -1214 0
698 -1601 0
1173 -287 0
-492 -2052 0
877 -771 0
-448 2295 0
-1756 517 0
34 2095 0
-1417 -415 0
1426 1524 0
960 -2014 0
-2002 1482 0
1788 -1583 0
-922 1458 0
-564 -323 0
-1468 2239 0
-1624 -1296 0
286 -1616 0
-298 1595 0
-1941 -619 0
-1205 330 0
364 1191 0
-764 1184 0
-1245 1319 0
11 692 0
597 -225 0
-871 -2059 0
82 -646 0
2062 -42 0
1389 -1526 0
1722 -1101 0
1299 -80 0
-552 -1498 0
936 -587 0
-1019 905 0
270 1963 0
-114 95 0
451 -1587 0
1855 2029 0
1857 -527 0
-1361 740 0
-2134 -1041 0
-1600 1831 0
-1711 2285 0
2215 -216 0
-263 -1655 0
914 1688 0
-763 1492 0
-1785 -1164 0
-1167 -147 0
-321 582 0
-974 575 0
-994 101 0
-1622 -1108 0
-1452 -915 0
-1149 -1501 0
1579 881 0
1342 -1334 0
-49 1350 0
-908 -2183 0
-2244 1288 0
-960 -2183 0
-882 -1818 0
704 1103 0
338 1675 0
-1736 -1859 0
1431 -1706 0
2271 1923 0
1904 -659 0
-253 -1278 0
-1565 -1683 0
-1810 -1708 0
1804 838 0
1472 1395 0
-794 -1913 0
-1354 1310 0
2070 -2213 0
966 655 0
1626 1514 0
-1522 -1025 0
-586 -260 0
1606 -2287 0
921 -880 0
1491 -1561 0
81 -1023 0
-2268 -840 0
692 -569 0
295 755 0
-1068 -497 0
901 -2263 0
-1616 1076 0
-2198 -555 0
445 2114 0
-2247 -225 0
958 -1622 0
1029 1641 0
1761 15 0
-1849 1530 0
1304 -430 0
600 1640 0
-433 943 0
-97 -985 0
-331 -187 0
-1009 -33 0
2164 1910 0
-623 1296 0
-184 61 0
-1826 -1797 0
-210 -1595 0
-2171 -1474 0
423 743 0
70 -1502 0
-1407 -1888 0
589 1116 0
1651 -1092 0
2070 -1113 0
384 2266 0
1272 -1768 0
417 -2031 0
-1529 -1071 0
69 1819 0
707 -151 0
1408 -1328 0
-1178 1633 0
-1325 -1501 0
1124 -1821 0
-795 -74 0
-1830 -292 0
-396 -564 0
-1129 -1772 0
-428 -1457 0
928 -2088 0
-147 -180 0
-1180 -2257 0
901 1665 0
1571 -307 0
1977 -496 0
671 -120 0
1669 -2145 0
-2289 437 0
593 720 0
-1345 2080 0
-535 -373 0
1546 -1023 0
-1277 -1758 0
1607 2200 0
-702 368 0
-1657 -2168 0
2247 960 0
-2026 757 0
314 -331 0
411 1233 0
112 -60 0
772 2294 0
1267 -2053 0
-1993 -222 0
-1928 -2224 0
-1011 2128 0
-1546 404 0
1669 -1406 0
-1389 965 0
1440 879 0
-2009 -1922 0
-1067 -2052 0
595 1028 0
1301 877 0
-1260 -1176 0
1251 -1777 0
133 939 0
1515 766 0
223 -2287 0
555 1129 0
25 -2249 0
94 740 0
-891 2044 0
-674 -1465 0
1544 -2186 0
909 289 0
-1336 -702 0
-1051 -1538 0
-1734 474 0
-1395 2049 0
1020 2235 0
1069 -1452 0
-221 -146 0
-224 -210 0
-143 45 0
20 1204 0
943 21 0
1610 2132 0
939 -1513 0
-701 -1327 0
2217 1149 0
-2296 -915 0
-2278 -898 0
939 1929 0
-2177 -725 0
-190 371 0
-1445 311 0
-603 1140 0
-725 1557 0
-1480 -2130 0
-625 1641 0
-22 1892 0
1084 2152 0
2067 916 0
-221 206 0
-1267 -1348 0
-1309 59 0
-1686 1352 0
-1301 -325 0
-314 -783 0
-1615 -985 0
-2004 2144 0
-2028 -502 0
9 -203 0
-2289 844 0
1934 -328 0
-1770 261 0
31 -1174 0
1796 -1623 0
-2038 1851 0
1214 -2301 0
627 214 0
997 81 0
687 1759 0
-3 2294 0
968 855 0
-1852 -1485 0
-1567 1957 0
-777 -879 0
690 -1390 0
-2049 335 0
-1778 -721 0
244 286 0
-1068 -1192 0
270 1408 0
-553 83 0
1792 192 0
1291 834 0
-2170 1721 0
-1518 1003 0
-1763 -192 0
1350 -1448 0
2201 213 0
1879 -1479 0
1522 -745 0
-1362 1284 0
2046 2049 0
240 -418 0
-345 -6 0
-1014 -517 0
1332 1962 0
-1589 -2224 0
1535 283 0
1450 1209 0
-1086 -494 0
-776 1612 0
1148 2121 0
-54 1279 0
-838 1489 0
-246 624 0
-1784 1914 0
1806 1141 0
2086 -1782 0
-862 653 0
-1509 2129 0
1307 -1276 0
953 483 0
99 -1331 0
893 986 0
-1465 622 0
-187 1828 0
-951 1756 0
1336 -369 0
125 1302 0
1143 1184 0
-1139 527 0
1216 1798 0
-2085 -1030 0
429 1325 0
2121 -1020 0
104 785 0
-1361 -764 0
-1793 -1977 0
1015 1693 0
-1857 1764 0
2282 -1818 0
691 -562 0
-964 -1761 0
-1875 -279 0
-2042 664 0
147 -895 0
-823 1741 0
-1871 -2034 0
1236 -882 0
-903 690 0
70 -1818 0
161 1887 0
-1511 2237 0
-1035 -853 0
-1046 -638 0
536 -736 0
1011 434 0
2273 -151 0
-147 -1246 0
-1030 -978 0
1276 -65 0
1530 -334 0
-1051 614 0
-1818 637 0
591 1243 0
-502 1672 0
-508 1368 0
1842 -1208 0
1189 -506 0
2299 -1134 0
-637 -2275 0
545 1320 0
81 -786 0
-712 -2210 0
-442 -1357 0
365 -1577 0
-1767 1682 0
-219 1060 0
30 2201 0
-1329 -275 0
-494 -1213 0
-1232 -1182 0
-2157 1635 0
-2270 724 0
-1198 1796 0
-1420 1015 0
761 326 0
379 -1403 0
808 -140 0
-1112 -97 0
1373 901 0
1591 -2094 0
2047 -191 0
-139 -747 0
99 -1945 0
-1197 1993 0
-77 2212 0
-82 -1018 0
-2180 223 0
-894 1970 0
-2081 441 0
-238 2001 0
1911 533 0
925 -1702 0
-392 1905 0
-1379 -2257 0
-821 1805 0
-2232 -106 0
-377 -552 0
1325 1710 0
-712 1684 0
-637 -1025 0
799 -957 0
1059 2083 0
-682 1540 0
2168 1482 0
-359 654 0
-8 -862 0
1243 1954 0
-1233 578 0
1941 -1751 0
-1838 1438 0
-1264 -2249 0
-44 276 0
2239 445 0
-1031 -481 0
1239 282 0
-2280 -1285 0
399 856 0
2199 1981 0
-1247 1657 0
1684 -356 0
-318 -1133 0
-1259 -1197 0
-1993 -1949 0
2064 -1486 0
1831 -1829 0
955 1926 0
-670 1662 0
1633 676 0
905 1505 0
-183 -1800 0
733 -871 0
-2129 -620 0
-383 110 0
1598 -297 0
-541 1642 0
-651 1556 0
-2027 -503 0
1055 -85 0
-684 -729 0
-508 -1558 0
909 769 0
1426 124 0
-1405 2240 0
396 -2133 0
942 2275 0
1833 -812 0
2131 268 0
1556 -1976 0
-811 463 0
-1359 92 0
2026 -1405 0
-764 1466 0
2031 -149 0
-2132 -1713 0
1055 -1746 0
1223 -298 0
424 -849 0
2044 -938 0
1443 -954 0
-235 -1757 0
-2123 -2124 0
1824 -1197 0
-1811 -1372 0
-1125 -1674 0
16 1200 0
-900 -429 0
1990 275 0
115 -1868 0
1656 -1681 0
-16 -596 0
2236 -1651 0
-1476 649 0
-1112 -372 0
1587 2244 0
-911 980 0
1133 -1529 0
-1343 1832 0
-241 114 0
-618 581 0
-969 -331 0
-1416 1315 0
-365 143 0
1571 9 0
-190 435 0
672 -1962 0
2153 -779 0
1162 466 0
-1470 51 0
151 926 0
-868 1217 0
1120 1617 0
-2032 1615 0
1733 896 0
-1692 -1073 0
9 1678 0
-1190 -2182 0
-880 -1963 0
-259 1016 0
347 -1257 0
-1894 -1771 0
-1466 1082 0
1996 -1313 0
-1044 2254 0
-1668 -762 0
667 -793 0
1750 577 0
-1332 -715 0
-954 -1319 0
1069 -1954 0
2190 -1261 0
-1516 1056 0
-1794 1613 0
734 -1290 0
75 -726 0
1350 -774 0
176 -431 0
34 867 0
-440 -1038 0
-455 1730 0
550 1747 0
1062 1933 0
1562 -358 0
2292 -1910 0
-1813 462 0
1515 297 0
-1467 -1521 0
1484 -1865 0
2125 -1344 0
2001 2218 0
-1261 -2032 0
-1448 -1429 0
2128 -1419 0
-415 2294 0
-720 -642 0
-660 1940 0
1228 2232 0
-956 -2116 0
1565 -1413 0
-119 -629 0
2072 625 0
296 1232 0
2010 443 0
1004 -1550 0
1471 -889 0
1653 -2187 0
-1137 1514 0
2296 -2171 0
1772 917 0
301 51 0
273 2121 0
-439 -1932 0
-1116 -716 0
-1014 -829 0
2041 1711 0
2209 -526 0
-1367 20 0
-1582 -2257 0
-1221 -1092 0
837 2021 0
-101 107 0
199 -2225 0
1546 1119 0
-2212 -1581 0
-614 -1141 0
-388 384 0
-547 -1919 0
-626 2147 0
-2139 818 0
1620 481 0
-1199 1276 0
924 -1127 0
-1944 -1231 0
-1906 -168 0
2059 1589 0
-322 1698 0
-32 2248 0
1738 -2124 0
-1125 -1895 0
-2305 -574 0
-1976 574 0
-618 2204 0
1685 316 0
834 1014 0
-2080 -365 0
-386 -1899 0
-1263 -1511 0
1166 738 0
623 802 0
1443 917 0
120 2098 0
-2017 2126 0
-900 -2082 0
1838 1638 0
-2055 1241 0
2071 1745 0
-118 966 0
-1903 -2245 0
2124 944 0
2168 -195 0
996 6 0
-1925 -1790 0
2217 1473 0
-1257 -628 0
2204 -1163 0
-757 -1669 0
319 95 0
-1626 -1142 0
103 1182 0
-1873 -1246 0
196 1162 0
-2270 -846 0
875 2143 0
1730 -597 0
590 -226 0
116 513 0
-298 -1598 0
230 -1520 0
269 -396 0
732 814 0
-2208 1204 0
-145 1839 0
1180 683 0
-1774 2012 0
-1064 -957 0
-1203 -1982 0
-1167 -960 0
1397 -1121 0
-1824 2114 0
-2147 1679 0
-1078 1753 0
458 1325 0
1542 18 0
-1395 -1366 0
368 581 0
-1341 1713 0
-694 -8 0
1753 269 0
2138 -1533 0
1604 -1951 0
1393 -1843 0
1763 -1931 0
-1445 -779 0
-543 -449 0
-1874 -266 0
-1531 -36 0
1728 1346 0
1043 1148 0
214 -2236 0
334 -1375 0
827 -625 0
173 802 0
-1787 -1973 0
-610 1381 0
597 1121 0
1505 -1696 0
370 -1924 0
-852 410 0
860 425 0
2132 -568 0
1703 1142 0
-17 84 0
-628 1913 0
-1387 1922 0
677 -775 0
-2222 2219 0
624 -671 0
1236 -1740 0
1108 -243 0
-2103 -2221 0
288 -732 0
1391 1002 0
-1066 2209 0
1651 -1518 0
855 14 0
1482 388 0
157 471 0
-91 1119 0
-1816 420 0
-737 773 0
-2045 -717 0
-1108 -1972 0
-1903 -2298 0
1792 -631 0
-202 -1105 0
417 -1867 0
-1071 -2099 0
216 -1462 0
-1254 919 0
-1907 -1207 0
584 -1514 0
433 -625 0
1681 2227 0
-1791 -1009 0
-2210 574 0
-476 -32 0
948 1719 0
750 -117 0
2128 90 0
-10 1403 0
186 1143 0
-1916 -1738 0
-1581 1776 0
-1903 1851 0
-1164 284 0
-854 -1109 0
492 1935 0
1689 -1289 0
1696 -1277 0
-2249 -901 0
-181 -566 0
1046 -1558 0
615 1285 0
1641 945 0
-2287 197 0
1267 -175 0
-2152 -2213 0
1991 452 0
-903 203 0
-779 -1668 0
-1030 -1749 0
-894 -1536 0
188 -1581 0
306 -170 0
520 2265 0
1834 -1947 0
-1542 -820 0
-2076 -494 0
1408 -1878 0
1308 -241 0
-1502 2102 0
2299 2288 0
-1717 -1920 0
-234 -209 0
-2229 2031 0
-1071 -1555 0
179 20 0
-1033 75 0
-1138 1081 0
-1875 -1613 0
163 -1335 0
-430 -1875 0
485 -710 0
-1681 -1997 0
-1523 -78 0
1434 2119 0
-199 1488 0
-415 1958 0
1493 -1087 0
574 1434 0
-2239 -631 0
2017 -1340 0
1621 1063 0
126 836 0
-1203 2020 0
1101 -1479 0
1187 1661 0
-673 1098 0
655 -36 0
-675 2255 0
-2090 -1180 0
-855 -911 0
-357 -20 0
1507 1310 0
-1362 545 0
-290 -2250 0
1493 -906 0
-44 -1884 0
1979 1905 0
1196 -2281 0
1858 -2079 0
962 -945 0
1290 2061 0
-1554 179 0
972 -2058 0
591 -1787 0
-1444 -1045 0
1948 1824 0
2283 1964 0
-967 -2225 0
-547 -1751 0
2007 1865 0
-42 709 0
-721 904 0
-944 711 0
1524 -1180 0
-1224 856 0
-1424 -1774 0
2153 1437 0
2285 -1866 0
-184 -1705 0
439 -999 0
1621 1849 0
-1154 2234 0
-489 -1330 0
1662 -1334 0
22 1213 0
-1220 -291 0
-96 231 0
-1760 -1545 0
-265 -568 0
2121 -1138 0
1703 -2066 0
1949 2085 0
-148 1703 0
-2022 -872 0
-2060 -1616 0
600 1300 0
1461 2222 0
-1044 -49 0
937 -2287 0
905 -1444 0
798 -1268 0
1404 468 0
-2134 1505 0
-1385 852 0
-1218 -147 0
-1495 -1102 0
1607 -1631 0
322 -60 0
-299 1349 0
690 2268 0
411 1153 0
-1287 2149 0
2047 -73 0
510 -12 0
1231 881 0
546 -1742 0
1632 540 0
683 1269 0
-946 -2280 0
-2133 -1692 0
-618 -164 0
-1586 2231 0
145 661 0
1115 -32 0
-294 1805 0
452 -1922 0
1670 -885 0
276 -1857 0
1804 -1168 0
-2123 -1890 0
2205 -1895 0
681 -1836 0
1512 1668 0
1856 -1120 0
1268 363 0
2102 224 0
1957 -1829 0
2002 -2187 0
1000 1805 0
532 357 0
-1481 512 0
132 -90 0
1571 -1168 0
-239 -342 0
2207 1032 0
-924 2263 0
-119 -2170 0
-716 124 0
-727 1450 0
-735 -1677 0
769 -122 0
-1760 -2171 0
1940 -1851 0
-1596 2096 0
-903 2224 0
-1819 -1627 0
-205 1078 0
1428 -2052 0
-533 -1226 0
-1678 -1066 0
-1924 2290 0
-1332 -1603 0
-819 358 0
-1224 -1253 0
-696 1091 0
361 -1867 0
1135 190 0
1578 2044 0
366 -786 0
-1875 -1458 0
1185 -906 0
71 1306 0
-2026 -2027 0
1905 756 0
30 1213 0
-791 1722 0
-2278 -631 0
-834 2111 0
-835 1437 0
189 -510 0
-2256 541 0
-486 -2158 0
881 1258 0
-1531 -1012 0
586 1704 0
-2293 -1517 0
1566 1117 0
144 -1474 0
-1226 1442 0
-107 136 0
1642 -1406 0
-997 2249 0
2026 1650 0
-846 -2042 0
-509 425 0
1251 1870 0
-1777 1308 0
-1510 1287 0
235 310 0
449 -1024 0
1650 -1972 0
-488 29 0
-1538 429 0
-356 1854 0
29 2167 0
-1569 473 0
1508 1120 0
-565 160 0
1629 793 0
214 -1617 0
-1644 1219 0
-698 2119 0
-1025 1893 0
-1596 -1131 0
-2027 1259 0
308 -258 0
-475 -1010 0
706 384 0
-1894 157 0
-1587 726 0
1178 -122 0
-1639 1204 0
-294 1915 0
1574 510 0
2110 -2107 0
-34 -999 0
2189 2096 0
1315 -524 0
1173 1458 0
-1645 866 0
-1036 -749 0
-734 -413 0
-1583 -1070 0
1046 673 0
1972 -1312 0
2199 1567 0
-953 1641 0
2021 801 0
2137 -219 0
1380 -1393 0
-1266 936 0
-1462 -1337 0
2249 -1877 0
-862 1407 0
-1886 -629 0
-1234 -1356 0
922 -268 0
-94 -170 0
105 1068 0
1178 1405 0
1300 -2108 0
-2 -1999 0
-2268 1109 0
-955 -147 0
2050 -2287 0
-735 -139 0
-1170 1325 0
-355 1769 0
1813 -2074 0
964 1741 0
1642 -1028 0
-1414 867 0
1630 -1603 0
-1182 -228 0
-1417 -921 0
-2104 1978 0
125 -2058 0
-1725 -180 0
1146 2272 0
-138 2159 0
406 -295 0
-641 158 0
1353 215 0
-1039 -1508 0
-193 -2057 0
-2027 -1437 0
-1356 -375 0
522 1581 0
891 -1036 0
1272 489 0
-1681 -642 0
1817 -1019 0
-1108 126 0
-173 -730 0
364 -1756 0
25 1621 0
-328 -1183 0
-1414 130 0
-1759 69 0
1256 452 0
1426 815 0
501 -1086 0
340 2238 0
1710 -2087 0
671 2120 0
-1361 935 0
-253 -2056 0
-1088 -2147 0
-1901 1211 0
752 -2113 0
-392 -2106 0
-1742 -637 0
1925 -579 0
1233 -1009 0
-166 391 0
-563 -723 0
-736 -1766 0
358 1636 0
-1823 120 0
-1448 -2035 0
1173 -1728 0
658 -696 0
106 366 0
-1230 -1181 0
1164 733 0
1736 -119 0
1832 1833 0
1793 1292 0
1723 2189 0
757 158 0
-1702 730 0
-857 -880 0
-1789 2101 0
-1550 -1194 0
2215 -911 0
-1068 -461 0
961 -234 0
1823 2236 0
-1695 -853 0
-711 -321 0
-1872 -1362 0
-778 1933 0
-376 -1689 0
953 122 0
1113 98 0
-2065 636 0
573 -285 0
-774 1128 0
68 -2198 0
-687 -1455 0
-330 -1967 0
-715 -1101 0
-2257 1961 0
-50 425 0
-62 1941 0
643 -393 0
-1331 812 0
715 396 0
-882 -1959 0
1318 1654 0
-1149 -637 0
1315 2288 0
837 1697 0
-721 934 0
2076 -1387 0
2212 -1262 0
1048 -1680 0
1302 2247 0
-786 -1637 0
1095 -522 0
928 1215 0
455 -345 0
1730 1349 0
2240 -709 0
-650 -755 0
-2016 -2023 0
-1509 -40 0
1595 -1041 0
1657 -35 0
2067 -109 0
1101 1095 0
1839 -1963 0
1950 -1125 0
-1232 671 0
-578 500 0
1491 -1058 0
1507 -2161 0
144 -1079 0
1356 -1742 0
577 -2133 0
-2182 -1014 0
-1935 1765 0
444 -1532 0
855 220 0
-1633 100 0
-2273 -369 0
-1807 617 0
-2284 -519 0
342 886 0
1649 819 0
-32 408 0
708 -811 0
-682 -2301 0
1443 -1955 0
-1280 334 0
1167 1464 0
724 -865 0
-851 393 0
1145 2007 0
68 -811 0
1440 1941 0
750 -171 0
-1464 782 0
1562 -450 0
1003 -1175 0
-1010 1248 0
-921 1845 0
-1953 1417 0
279 -357 0
-911 2226 0
104 2127 0
814 341 0
2283 692 0
-162 1053 0
-971 -1972 0
1656 666 0
-196 1432 0
761 -563 0
-606 1710 0
-446 -1113 0
2041 63 0
-1091 -1655 0
-1249 -1962 0
-2058 -1658 0
-1813 1737 0
1244 1140 0
-405 1184 0
-137 257 0
1099 -1549 0
2127 1063 0
-1070 -2111 0
-1078 1299 0
-1255 -911 0
1608 996 0
1148 -1280 0
1228 566 0
-878 638 0
-1579 -1307 0
-1879 1731 0
194 -418 0
-1866 636 0
2235 -1638 0
606 -2107 0
1048 -13 0
-1439 612 0
619 -434 0
120 -1009 0
-2210 -1722 0
2246 2003 0
-1296 1275 0
1551 1934 0
-2109 1904 0
-42 1371 0
252 789 0
-1966 -2167 0
-1785 -1548 0
-2170 1671 0
1248 -1692 0
-1989 -1746 0
914 1726 0
1909 2021 0
296 -1501 0
-1716 1333 0
-429 2160 0
-266 1351 0
-995 -831 0
-1091 -289 0
481 109 0
603 1085 0
1970 -200 0
520 -325 0
1496 -924 0
1515 -1392 0
678 495 0
1957 -1909 0
-159 588 0
-1975 -1208 0
2258 -560 0
-450 -1167 0
236 -1789 0
2254 300 0
-2301 -522 0
-2224 -2203 0
899 363 0
1092 -757 0
362 -541 0
58 2092 0
1219 -1938 0
-1785 942 0
-2265 1225 0
-5 2112 0
1939 1684 0
-1582 -1710 0
-1874 494 0
-1922 1689 0
-1781 -1576 0
-1426 1089 0
-2078 -1320 0
1046 385 0
-1397 750 0
160 2209 0
-659 1551 0
783 343 0
-234 -1352 0
-2213 -2246 0
239 584 0
1420 -541 0
442 -1677 0
1206 26 0
-1593 2280 0
1359 808 0
-602 -1049 0
62 1046 0
-610 -1464 0
-2284 -907 0
514 1097 0
-625 -1362 0
2224 1865 0
1396 -1088 0
872 -1047 0
1156 -864 0
-306 -53 0
-234 890 0
-1087 952 0
-41 433 0
-206 912 0
197 -1925 0
2019 -13 0
-1497 565 0
2226 -140 0
1082 183 0
998 1775 0
32 215 0
502 795 0
-665 2005 0
-1144 -2265 0
447 1320 0
-1827 1198 0
-390 1455 0
590 -2240 0
275 -2028 0
1156 1907 0
-212 -359 0
1565 -2278 0
-85 -1282 0
2273 1028 0
685 847 0
-1686 -2236 0
2105 -1451 0
-927 -1590 0
-2255 -1932 0
223 1112 0
1595 -878 0
1661 -774 0
1458 33 0
334 1300 0
836 1480 0
2252 1005 0
-1018 -1127 0
-1544 1605 0
-651 -1497 0
567 1050 0
2279 2205 0
1456 2238 0
1371 1097 0
-137 -1286 0
520 -601 0
178 -1899 0
-1586 -1320 0
-316 1450 0
861 512 0
2 1491 0
1775 -1077 0
-399 2055 0
795 -1405 0
-565 179 0
-1793 -788 0
-1845 -4 0
539 -1398 0
173 -1479 0
1527 -484 0
-1310 260 0
1675 288 0
1646 -742 0
1200 -1137 0
-1413 -313 0
126 -554 0
967 141 0
800 1886 0
1438 -822 0
-2215 -472 0
2124 -1424 0
2012 1661 0
1420 -1451 0
-870 -822 0
-442 585 0
-1715 1979 0
-2102 1502 0
-1974 388 0
-535 -650 0
-882 1139 0
955 -2290 0
2011 -1270 0
295 592 0
292 483 0
-1231 2055 0
1892 -903 0
1179 -1452 0
818 -697 0
2061 -583 0
-1840 -1171 0
1437 1891 0
2093 -1123 0
-2107 -956 0
2283 -1595 0
-1811 1624 0
-280 -1819 0
-233 -1794 0
568 335 0
300 364 0
-1994 22 0
-659 -1791 0
-1921 1059 0
-637 2173 0
588 577 0
468 -827 0
688 -1474 0
1280 1854 0
-1601 -1131 0
-1444 -1812 0
341 -918 0
442 1648 0
-1850 85 0
-1151 -365 0
2192 -496 0
1813 500 0
-2216 -970 0
1263 1618 0
-1166 -1543 0
1535 1191 0
189 -759 0
2084 -143 0
1488 767 0
-88 269 0
-667 554 0
1748 -282 0
881 203 0
271 2086 0
1006 -1746 0
-40 149 0
1491 202 0
-2060 -1378 0
751 -1115 0
297 -560 0
838 -483 0
-2179 -1778 0
177 -279 0
1107 -398 0
-1811 181 0
1240 -839 0
-1501 2240 0
2020 458 0
131 -712 0
-902 1577 0
520 1279 0
1741 904 0
-390 -1778 0
-239 -1715 0
-2065 -82 0
-60 -1056 0
424 2296 0
355 170 0
7 -1866 0
-684 942 0
-1177 1923 0
17 578 0
-267 -675 0
432 2148 0
-2191 981 0
591 -2186 0
1034 2116 0
929 388 0
-246 -345 0
1755 316 0
1164 1528 0
-1743 -1355 0
-1554 -1906 0
-610 194 0
2181 269 0
-1619 1783 0
-286 -2220 0
-1720 115 0
488 2011 0
2180 -367 0
726 1640 0
-1327 1695 0
427 -1348 0
1247 2240 0
-1596 -149 0
1431 1647 0
683 -1290 0
373 1016 0
403 -2138 0
-1812 1969 0
1089 1039 0
1612 1371 0
368 1069 0
-2052 -1803 0
923 -1906 0
1731 -467 0
1067 -1823 0
-1724 562 0
-929 1811 0
-242 496 0
1470 -1539 0
-321 2042 0
919 558 0
-1226 1822 0
-2206 527 0
211 2114 0
-694 -1547 0
-561 873 0
-2228 956 0
2182 2068 0
629 1990 0
1173 -1726 0
-915 1046 0
1895 -422 0
-1959 -259 0
753 2226 0
-2036 -417 0
-1862 -2113 0
1085 265 0
676 -2052 0
-1959 1825 0
2246 -526 0
-657 584 0
1579 662 0
771 -392 0
-438 -64 0
-1079 -2229 0
-2023 726 0
-171 -1417 0
-1461 -791 0
-1803 -2200 0
-921 1025 0
1637 -504 0
537 -810 0
1805 -1428 0
-1714 -675 0
-672 -1503 0
353 -73 0
1787 -1773 0
805 616 0
-627 -1070 0
-552 -1785 0
1373 -1315 0
-861 -529 0
-241 -450 0
2092 -1896 0
1528 -625 0
-829 -1059 0
-919 -864 0
-335 1898 0
1515 304 0
388 -2054 0
1978 -2160 0
1682 -2074 0
1966 -387 0
182 -1861 0
1072 1898 0
1082 -1123 0
469 2221 0
380 1837 0
-2172 1591 0
1 1816 0
-1479 842 0
-205 -1803 0
2102 881 0
90 589 0
-66 1758 0
1279 -248 0
303 -1492 0
-1340 -1036 0
-788 -2206 0
1119 -277 0
-933 -1627 0
2031 -1690 0
-33 2002 0
1257 -2011 0
1111 -2294 0
1588 1840 0
2135 -753 0
-1426 755 0
445 1433 0
1571 330 0
-425 -841 0
-2162 -2138 0
-234 1066 0
1719 -2016 0
1131 -1742 0
-344 -1193 0
-27 -1264 0
-1486 322 0
1341 918 0
2269 -156 0
366 1283 0
1173 -1522 0
-2252 1961 0
1937 -1012 0
-1428 -316 0
714 -158 0
1874 1286 0
-1427 -932 0
-677 -50 0
1255 1689 0
-1211 1371 0
2238 837 0
-209 -467 0
-116 -1605 0
-1549 -470 0
-1429 1869 0
-1505 -425 0
-737 1471 0
-1730 1233 0
-1279 2182 0
-1306 -1935 0
2126 -1809 0
2151 -919 0
-1966 -2261 0
2288 1805 0
-1037 841 0
-2190 600 0
-1955 742 0
-561 -2131 0
-1312 -2091 0
-2271 217 0
-267 1058 0
-2157 1885 0
808 1028 0
-2010 -944 0
-1564 1747 0
-238 263 0
-2289 -1839 0
-950 443 0
-1045 -2219 0
-974 519 0
-2066 -1440 0
-1079 1783 0
-755 -1008 0
-684 1760 0
-1151 281 0
-1722 -2134 0
-2042 1843 0
379 590 0
-1116 -1066 0
1333 2149 0
1745 1984 0
1528 909 0
497 1319 0
-1890 688 0
-876 2128 0
252 -530 0
726 -1026 0
-1992 1350 0
-1218 -265 0
-1997 -544 0
833 1069 0
1661 -1616 0
861 -267 0
-958 203 0
-721 -18 0
-282 242 0
2048 1555 0
-1501 -1030 0
-685 -1427 0
705 334 0
-2196 2243 0
-597 397 0
-1293 -1601 0
-1165 176 0
-927 1278 0
1916 -1803 0
88 1750 0
1477 510 0
2061 1905 0
-2262 2006 0
-1795 1512 0
-1105 -1550 0
-1883 -1228 0
-966 1988 0
-331 -515 0
-654 43 0
1894 1725 0
-102 -930 0
1447 559 0
713 -44 0
693 1928 0
-2188 756 0
-257 -1808 0
-1025 88 0
-1539 1961 0
2090 -1821 0
901 -1374 0
591 -1339 0
1687 1432 0
-1427 -1617 0
-1702 648 0
-1401 1194 0
310 846 0
68 2269 0
-859 306 0
-2295 -1086 0
1196 2186 0
1638 -1178 0
-451 -254 0
-623 -2124 0
572 715 0
1828 517 0
1373 2207 0
1501 -1617 0
1685 -1489 0
-1232 -837 0
2184 -237 0
1238 2302 0
-903 -1691 0
-1658 2124 0
-298 -794 0
412 -1532 0
2240 -258 0
-244 698 0
1466 1133 0
-982 -1968 0
-418 -452 0
508 1140 0
-1875 252 0
-1691 1659 0
45 -2226 0
-1331 -66 0
-372 -1412 0
-620 2254 0
-1499 987 0
-569 7 0
-1094 1782 0
901 943 0
-1529 -1308 0
-270 -1021 0
668 1470 0
2049 -423 0
192 -1192 0
-994 -173 0
1228 1620 0
2109 1308 0
-1439 1267 0
1029 1254 0
2168 1875 0
795 1519 0
-1449 -665 0
-758 -1958 0
-485 773 0
2189 281 0
-313 -502 0
107 -1576 0
1513 420 0
-1038 371 0
1758 545 0
1502 985 0
-832 -2224 0
1822 -280 0
868 -54 0
-1099 1068 0
2033 181 0
631 2167 0
-797 -25 0
-443 -41 0
2255 752 0
368 304 0
-928 1002 0
-81 2162 0
-1307 -279 0
2291 -637 0
-143 -765 0
-1720 2102 0
-304 382 0
-665 -307 0
1241 578 0
1303 -661 0
123 876 0
1007 243 0
1189 439 0
-744 -1782 0
-302 1109 0
-757 99 0
-564 -514 0
-1189 1639 0
1613 -1079 0
2105 -2296 0
-1890 1575 0
-1249 -342 0
-672 2293 0
-1031 909 0
-1926 -1383 0
748 -1422 0
1231 342 0
2080 1513 0
766 -144 0
-1061 -1627 0
-253 835 0
-2305 842 0
2132 -2018 0
64 342 0
-1009 1453 0
-683 -553 0
155 2043 0
-1201 -1919 0
-1852 -360 0
-1457 -2039 0
-2193 -1275 0
-2146 1710 0
8 -2032 0
-602 514 0
796 1572 0
423 1494 0
1064 -2200 0
1183 1876 0
31 1582 0
-456 56 0
1112 1257 0
-2044 -164 0
581 1876 0
-1670 -305 0
-2208 -319 0
-964 1876 0
-2135 -35 0
142 -1480 0
506 61 0
-449 -1862 0
132 676 0
2276 -1047 0
-771 1860 0
2115 -1517 0
1163 719 0
-1139 1375 0
2049 -1210 0
-1470 1933 0
-1778 -1266 0
776 237 0
508 2038 0
351 -180 0
-2253 1350 0
274 -2056 0
2279 -2224 0
-1973 967 0
2022 -271 0
-1529 1910 0
-278 -1953 0
886 2165 0
2047 -2300 0
2211 787 0
95 2294 0
1961 -2163 0
1414 962 0
-1041 824 0
1729 1977 0
-1341 -491 0
1768 -339 0
-1930 942 0
-712 860 0
674 1626 0
1895 1651 0
-1519 -226 0
-1530 1186 0
1707 -1935 0
615 677 0
-1203 470 0
-1615 -1220 0
86 -1090 0
405 1783 0
1384 985 0
2219 -863 0
551 -2270 0
2007 269 0
715 1626 0
1368 1726 0
578 -2171 0
-575 1223 0
272 -1847 0
2065 795 0
1668 584 0
-1316 -721 0
62 -232 0
-2217 -1383 0
1792 -1369 0
2271 -110 0
-556 1641 0
-327 666 0
1883 2180 0
1748 -768 0
-222 -1478 0
-225 -266 0
274 924 0
-1263 -2046 0
577 -678 0
-2256 126 0
1556 -879 0
1447 756 0
-1847 -2045 0
-706 -1576 0
2069 -949 0
1699 -1946 0
661 -1329 0
-355 -894 0
-232 -1457 0
828 1565 0
-2254 752 0
-503 -391 0
155 463 0
-1807 1309 0
1020 -2172 0
-745 1484 0
-298 1986 0
2015 130 0
20 -1898 0
167 2126 0
-1071 -1285 0
-2287 -776 0
-482 283 0
-2284 1458 0
512 -1517 0
2006 -1323 0
1805 395 0
-394 -2305 0
9 -972 0
410 -1829 0
-380 -994 0
-356 -678 0
254 2184 0
1058 -1772 0
2111 -1719 0
-1183 1372 0
2097 537 0
-101 -529 0
90 1280 0
319 -1131 0
-2278 -1202 0
2007 -2053 0
-958 1054 0
-1109 -1112 0
-977 1632 0
-1279 262 0
187 -2190 0
1408 -258 0
577 -888 0
1402 -539 0
-1583 -1800 0
1584 -930 0
288 -2269 0
-1164 686 0
1943 1139 0
667 -1868 0
-1888 -1932 0
-807 -1652 0
-1734 -983 0
-205 -1330 0
2199 -538 0
-1364 936 0
991 48 0
1349 1287 0
-1892 1088 0
-2275 -2066 0
2097 1482 0
-880 -901 0
-2035 -620 0
-5 746 0
437 -941 0
1043 2043 0
-2203 2178 0
1322 -640 0
1626 1432 0
-774 -901 0
-649 348 0
1779 1135 0
-2203 210 0
303 -2072 0
1386 962 0
-1676 -504 0
91 1779 0
-158 1219 0
-1840 668 0
-1505 -1810 0
-446 2016 0
296 -2225 0
725 -2179 0
1998 2112 0
662 354 0
-1933 508 0
1342 1468 0
-1701 2212 0
-1982 2075 0
-216 -2287 0
2047 -1388 0
-2262 154 0
-1334 422 0
471 -1203 0
2028 -1741 0
1153 -825 0
827 -1154 0
295 1966 0
-1817 -2009 0
-1878 1107 0
555 -641 0
-1680 1991 0
-757 953 0
-471 1736 0
-1531 -596 0
-360 -2054 0
-467 2268 0
2241 -1720 0
-502 983 0
-2125 675 0
2286 1708 0
-2067 1388 0
-1579 1802 0
1206 558 0
1646 375 0
1333 1184 0
-1875 -509 0
-1295 -1249 0
797 141 0
692 -331 0
-1962 339 0
732 382 0
-2144 -1872 0
913 -2196 0
609 768 0
-166 1911 0
101 -1693 0
-979 -1655 0
-1314 -150 0
-1610 1076 0
-265 467 0
1402 -2273 0
-1835 1586 0
2263 253 0
-1902 106 0
925 -1584 0
1596 -902 0
-1748 1527 0
1500 -1717 0
1631 -586 0
2259 100 0
-1146 2015 0
-1752 1851 0
-832 -1298 0
-2085 1122 0
557 -739 0
-1422 -1126 0
-968 1372 0
-1003 -1834 0
306 1728 0
1688 359 0
2069 -352 0
-639 -2186 0
-1924 1638 0
-1577 45 0
-604 271 0
-357 1069 0
-580 1010 0
592 -835 0
-913 11 0
1689 747 0
959 837 0
513 -130 0
-1835 743 0
614 1043 0
-1803 -2020 0
-2045 -1324 0
-961 -1235 0
-2235 -1892 0
624 305 0
-239 -1147 0
-483 299 0
603 1438 0
890 -594 0
396 -1014 0
-1995 -902 0
2245 -1915 0
403 379 0
1648 -310 0
-659 -2027 0
-450 402 0
-272 -1691 0
952 -956 0
-1060 1718 0
-1072 -777 0
-356 -1466 0
-430 500 0
32 -2026 0
-71 -1416 0
1895 1360 0
-2228 -1063 0
-957 -2226 0
-1521 859 0
-1558 -1729 0
-1587 393 0
160 -586 0
-1025 -1162 0
2275 801 0
878 -1713 0
-60 -1429 0
-678 -2079 0
-1731 -1909 0
1536 -870 0
-577 984 0
-6 -200 0
873 590 0
2126 174 0
-1507 -387 0
1670 443 0
162 2204 0
1462 -696 0
-1929 2214 0
-1051 -854 0
55 1117 0
2241 691 0
964 -1239 0
1471 -812 0
1853 -1621 0
-2128 1661 0
-149 -1778 0
-705 2199 0
2214 683 0
-765 1796 0
-1879 -1865 0
332 1150 0
1217 -1884 0
1134 -1476 0
1733 -416 0
740 -1053 0
-1057 859 0
548 1204 0
51 -1966 0
2171 -885 0
1937 -1544 0
-1782 -1296 0
-1873 -1259 0
-902 -1239 0
1322 -430 0
-11 1611 0
-2149 -561 0
292 896 0
-1680 1206 0
81 -991 0
-2262 56 0
-2053 1735 0
-178 -1174 0
-2079 -1453 0
1174 1571 0
1711 -298 0
-2188 -1617 0
-731 -1888 0
1754 1629 0
1562 -2166 0
-1566 -13 0
-226 -2043 0
-531 -1871 0
245 443 0
-499 758 0
1876 -2167 0
-42 671 0
-1124 1262 0
-1510 -669 0
134 601 0
-1300 -173 0
-317 -1138 0
-239 -785 0
-1282 -555 0
2033 487 0
2055 -1560 0
2085 -2162 0
1709 -974 0
605 494 0
-434 1546 0
-147 -2068 0
571 -1812 0
564 -1645 0
1189 2171 0
-1009 -629 0
1662 -2124 0
-2272 -190 0
1512 145 0
-988 -1407 0
931 544 0
-2102 1050 0
-693 -1804 0
775 1499 0
543 1210 0
1152 371 0
1062 658 0
-1460 -610 0
1882 1173 0
-1624 1699 0
-1058 691 0
363 -990 0
-1174 -1523 0
2231 1621 0
-224 -1973 0
-791 -1197 0
1573 -499 0
1112 -1772 0
205 -136 0
1595 -1809 0
1436 -139 0
1135 939 0
-85 1217 0
-486 -1644 0
734 1029 0
-363 -1710 0
-830 -321 0
-2133 955 0
-2229 385 0
953 -1724 0
979 -2180 0
-2071 378 0
-436 303 0
-1959 403 0
-449 1952 0
1504 861 0
2207 -994 0
425 700 0
1764 1254 0
969 495 0
660 2190 0
489 -1968 0
-2127 306 0
-645 1474 0
2150 -841 0
-637 814 0
-1763 583 0
-1857 -1151 0
-1028 574 0
-345 1880 0
1514 -1165 0
866 413 0
1288 1495 0
-1460 -2112 0
2106 -1993 0
70 -2057 0
-416 2279 0
-1673 -1921 0
-1110 -1995 0
-1628 725 0
1850 2222 0
754 -315 0
-1650 -272 0
545 -2232 0
-2071 -1067 0
-1968 -1393 0
976 -1011 0
-2158 419 0
1858 1923 0
636 -1823 0
-315 -1364 0
2126 -1052 0
-547 648 0
464 -1357 0
662 2164 0
-1167 -718 0
-472 -2027 0
400 -1433 0
1272 2296 0
1333 1134 0
505 2192 0
-231 698 0
2155 -2026 0
-1030 67 0
-2265 512 0
-190 -1816 0
-1058 633 0
939 1998 0
-554 -174 0
-753 -639 0
-15 -143 0
1425 -1704 0
-2097 -869 0
-2220 -563 0
223 1766 0
-1829 1690 0
1121 -1272 0
-1100 -1030 0
-320 -1510 0
2289 557 0
567 -1414 0
-1038 -334 0
1633 -1291 0
2033 -190 0
342 -461 0
887 -2303 0
-932 -536 0
945 1487 0
425 -1161 0
1295 404 0
1299 1586 0
722 55 0
-2104 9 0
1155 541 0
-845 823 0
262 -250 0
-1097 633 0
-228 420 0
-205 -220 0
89 -1094 0
1316 -1553 0
-455 1100 0
733 57 0
1742 -1270 0
1658 115 0
48 839 0
1262 303 0
-1135 -1079 0
-671 -1810 0
161 2089 0
1387 1791 0
-2133 2119 0
-601 -101 0
1243 353 0
937 -950 0
2148 1315 0
388 -935 0
-86 -1523 0
-1033 -2201 0
2183 -831 0
-700 -174 0
-1106 1437 0
351 -1975 0
1573 -114 0
-1167 -1868 0
-143 369 0
-2272 1202 0
-2079 -1230 0
1954 -552 0
11 -995 0
726 715 0
-1797 -2040 0
-613 1087 0
322 -2179 0
-1731 1639 0
-923 -709 0
1033 1072 0
-1686 2234 0
-1620 582 0
-1730 1273 0
230 1291 0
-1467 -398 0
2124 -630 0
532 -839 0
-1928 223 0
-2242 2213 0
-1871 -1178 0
1802 1331 0
230 2236 0
204 -1177 0
-1296 -1229 0
-1152 -1713 0
-2056 -1543 0
-184 -709 0
-1587 1881 0
113 435 0
-1868 -433 0
-2154 -1394 0
170 1007 0
-499 960 0
980 1911 0
-1023 -220 0
-173 1166 0
2234 309 0
506 519 0
-1571 605 0
1833 -455 0
-2104 -2102 0
-889 -1529 0
-1513 1799 0
-980 1569 0
-1982 -73 0
-1497 911 0
-60 813 0
2019 -2208 0
1003 -345 0
1527 2035 0
550 709 0
-1165 1527 0
-1932 -641 0
-1789 864 0
-66 -176 0
-1975 -1435 0
-1505 1206 0
-1018 -648 0
-957 -357 0
-849 914 0
-165 -35 0
1475 860 0
-2198 1954 0
-1906 1120 0
-279 1467 0
-1663 -1166 0
-1859 -2092 0
-1554 1029 0
1678 -1852 0
1096 -687 0
1091 195 0
-72 -1234 0
-173 1306 0
426 1976 0
2126 -774 0
2060 473 0
1403 -248 0
895 -1454 0
-1714 -782 0
20 335 0
18 -315 0
1719 -280 0
-1800 2117 0
573 355 0
1048 -1433 0
-1564 -563 0
-1253 -1304 0
-1657 -2093 0
304 2136 0
1512 -268 0
2152 -1137 0
-894 -2189 0
-1960 1558 0
1610 -2294 0
2160 2094 0
2298 -2017 0
887 1567 0
-1794 -2257 0
-304 -300 0
323 1266 0
2127 -731 0
785 -603 0
1828 340 0
510 2152 0
-793 -1315 0
-1710 -1815 0
2208 -1152 0
-87 211 0
1751 -1011 0
-31 2239 0
945 1402 0
1367 -1479 0
2096 -251 0
-755 -2276 0
-1676 -998 0
1384 -516 0
-1975 -82 0
1425 235 0
988 -1199 0
686 1477 0
1457 -694 0
159 1849 0
-1109 1803 0
-656 539 0
593 -1278 0
250 1540 0
-2261 -2202 0
655 -1313 0
-192 486 0
1966 -1947 0
2261 1891 0
-1878 1458 0
1653 1944 0
771 796 0
-636 1096 0
-320 410 0
-576 -396 0
-1299 1466 0
1307 2293 0
-736 -1202 0
587 -1594 0
1796 -280 0
-1553 -1141 0
891 1064 0
-2157 1458 0
1734 1255 0
-2025 -1822 0
1771 316 0
-1581 -153 0
-1387 -421 0
1223 -927 0
-2168 2246 0
1755 1527 0
-165 -23 0
1508 302 0
-2021 -219 0
-1830 498 0
63 959 0
94 -1767 0
-1812 1961 0
1262 -615 0
2201 1574 0
-1415 1754 0
1580 2184 0
-202 -36 0
962 683 0
-1358 658 0
-2025 795 0
-1175 -2282 0
1563 -1281 0
1270 1050 0
1055 -772 0
813 -1813 0
-92 -1318 0
-867 -1717 0
671 -603 0
1752 -1138 0
-1504 -1101 0
-1157 -2276 0
1913 1679 0
-613 462 0
1733 -265 0
1898 -1451 0
-806 2096 0
-871 1106 0
-858 444 0
2159 1881 0
-1657 -476 0
904 1813 0
-434 1552 0
-2099 -598 0
2282 2121 0
860 -2283 0
-1448 -1840 0
-2266 -606 0
133 1326 0
-1702 2094 0
-1164 1136 0
-1830 181 0
-521 -324 0
-241 -1035 0
2132 184 0
560 -1810 0
-328 972 0
-616 -1087 0
431 1065 0
-1339 -1542 0
649 1569 0
1517 -1596 0
-136 1719 0
1395 1958 0
1589 -309 0
1654 -947 0
370 -1601 0
1041 -1074 0
-1335 -1687 0
-929 -331 0
1477 -1360 0
-610 2035 0
1518 1747 0
-1972 2149 0
35 -2300 0
341 1468 0
341 -363 0
1102 -1585 0
573 252 0
-1500 726 0
-240 -1774 0
-1047 588 0
-2292 965 0
-408 1075 0
382 -359 0
-1497 1831 0
-367 964 0
1898 -39 0
-134 317 0
1735 -147 0
-515 2182 0
1336 1103 0
-507 -1989 0
-1826 1687 0
-4 2213 0
1338 -939 0
1300 1545 0
-1327 -832 0
-1544 2180 0
-264 -1969 0
199 -1370 0
-809 -209 0
935 -78 0
-2196 1485 0
-2056 78 0
1195 -982 0
-618 -1873 0
-2281 -1972 0
-230 1802 0
-458 1737 0
2061 -344 0
-300 1491 0
-2075 -849 0
1915 1820 0
1240 2063 0
904 -28 0
2119 -59 0
-58 1905 0
833 1745 0
1484 -1375 0
1069 -1798 0
545 -1297 0
-25 1573 0
-673 -2147 0
288 -1843 0
545 2103 0
-228 1625 0
2269 -1412 0
1165 -1596 0
1256 -1091 0
-2201 -1599 0
-336 -1457 0
1641 -1596 0
1977 349 0
2279 105 0
292 1822 0
-1079 1105 0
1982 1237 0
-2233 -1376 0
-1297 159 0
-2261 1442 0
-609 -2034 0
-742 175 0
-770 -10 0
-2283 -843 0
-1195 378 0
-1974 -2295 0
1482 288 0
-109 144 0
-1013 950 0
-1978 513 0
-2255 1103 0
-1896 717 0
-1342 574 0
-1928 -799 0
1983 1223 0
-302 1587 0
1007 -1789 0
1211 -1154 0
1453 1303 0
-1110 153 0
-1325 -1789 0
-537 -763 0
1500 2247 0
1338 -1702 0
-1139 83 0
135 2215 0
-141 2029 0
-1050 -117 0
-267 1162 0
-2095 203 0
1466 -1214 0
1713 1072 0
-1752 -1441 0
562 311 0
662 -1437 0
516 589 0
857 198 0
-203 -598 0
1000 1730 0
786 2204 0
1359 -1467 0
-503 1542 0
2243 -9 0
-800 2240 0
-825 1805 0
1166 -999 0
-356 -1471 0
-1373 -2118 0
14 969 0
-2065 1582 0
-442 -1595 0
371 -102 0
1386 1998 0
-417 2050 0
1805 -878 0
2093 1905 0
1252 1645 0
-1681 -209 0
-1020 -2008 0
-2171 -2053 0
6 -2009 0
1744 43 0
1835 -1220 0
-835 1330 0
935 -228 0
-1584 1137 0
-2276 921 0
-2076 -1523 0
1798 -1280 0
-700 807 0
1527 -1642 0
-1579 -768 0
-318 -1323 0
-2144 634 0
-1013 -1094 0
898 -876 0
-712 635 0
-1585 -52 0
-190 -166 0
1653 -1681 0
1288 1920 0
2174 671 0
2061 2135 0
-1646 -526 0
-477 -201 0
-241 -324 0
-394 -1679 0
1842 1446 0
-1683 777 0
-447 460 0
1764 -1507 0
-319 -1298 0
1670 1117 0
975 -2106 0
-1419 1986 0
-1271 750 0
-471 896 0
-2057 968 0
-2025 -658 0
-1462 -1275 0
-2155 303 0
-576 -1871 0
504 2227 0
1566 1117 0
-532 1927 0
-779 -1875 0
-709 -1538 0
385 -562 0
1103 669 0
-148 411 0
1718 784 0
1831 -290 0
18 -71 0
1306 2136 0
-191 1318 0
-304 -938 0
-374 953 0
660 -1871 0
2285 -1651 0
-892 674 0
-117 -49 0
-1403 -200 0
-1913 -1925 0
-504 777 0
309 -1004 0
-1047 159 0
1805 1959 0
1152 263 0
109 2044 0
-1537 2002 0
-268 448 0
-868 1351 0
28 -1594 0
87 2166 0
-821 -221 0
-2160 -1883 0
-131 2054 0
1043 1167 0
1175 1401 0
-182 426 0
866 262 0
45 -2209 0
909 1589 0
1545 -723 0
-781 -787 0
-1167 190 0
1408 1986 0
-1734 211 0
1507 100 0
-999 -1200 0
-502 -868 0
1110 1911 0
1244 -1509 0
2218 1148 0
-1829 1072 0
532 233 0
-191 1014 0
-740 -2032 0
-2196 -1317 0
-610 181 0
401 1550 0
1473 -6 0
-1394 -212 0
-731 1013 0
-1742 2025 0
418 2235 0
2107 -229 0
2261 2105 0
-342 1589 0
-712 1614 0
1506 1149 0
1641 -2128 0
1184 -2138 0
1500 1038 0
-631 -308 0
-1962 -1507 0
1158 -509 0
-1861 1323 0
-1342 -1739 0
2292 358 0
-825 -1138 0
1797 2131 0
-95 -1973 0
2042 -1456 0
105 -2113 0
2296 -1302 0
-1602 169 0
1095 -2197 0
2214 -195 0
-1989 1750 0
-2241 -275 0
-1161 -1544 0
708 -2112 0
1740 -2078 0
-359 1928 0
1752 847 0
1206 -137 0
140 2235 0
-438 -49 0
-1041 1752 0
594 -2230 0
1020 -932 0
2204 -1715 0
-39 1963 0
-685 -1757 0
1841 125 0
-868 291 0
-1430 1915 0
1650 768 0
717 20 0
655 -379 0
-1492 -621 0
-1734 -2060 0
679 1755 0
-823 861 0
1648 86 0
-1834 15 0
905 1113 0
1206 -569 0
2255 -1107 0
1428 -1261 0
1195 -38 0
368 -1991 0
-453 133 0
-1470 -1536 0
-2097 2137 0
-1570 2012 0
1259 -1046 0
-1357 1919 0
-483 1582 0
-1110 1361 0
2199 1699 0
961 1762 0
-1808 -2025 0
-980 -1429 0
-879 -1034 0
-1366 -1626 0
-148 1816 0
-463 -1836 0
-24 -389 0
-243 1776 0
-1914 -2287 0
-635 2233 0
-2094 -623 0
-1018 -1700 0
-1115 1733 0
-1047 -308 0
-1234 -1433 0
-623 -261 0
-290 -1112 0
-2198 1780 0
976 2290 0
-1628 -1962 0
1897 -567 0
2097 2133 0
627 -441 0
968 -644 0
817 -2176 0
-190 -607 0
-113 -764 0
-2301 554 0
-2242 -293 0
1065 -2017 0
-676 -1273 0
-1375 -1288 0
-113 -101 0
-1558 -1320 0
-244 233 0
-2250 742 0
408 134 0
1700 -1009 0
-1181 867 0
1722 -506 0
-1154 1688 0
-38 1164 0
-966 70 0
116 -913 0
661 1772 0
-94 -964 0
-1892 1479 0
-2288 -1295 0
-1317 -711 0
995 -1129 0
-570 1151 0
1974 -2035 0
-225 708 0
145 406 0
-794 406 0
-357 -319 0
962 -1705 0
-1740 -561 0
-1247 -1313 0
907 -2301 0
1046 1099 0
2273 -2108 0
-786 414 0
-387 -1136 0
-865 902 0
-2175 557 0
690 904 0
381 1605 0
1115 1625 0
-2146 -1109 0
-1422 1014 0
1637 -2156 0
-1874 1482 0
-351 1048 0
-830 295 0
-1641 646 0
2156 981 0
-2223 -1776 0
-1522 -40 0
32 -1197 0
98 1785 0
1822 1266 0
-456 -1206 0
45 2235 0
1277 -1549 0
544 -2080 0
-2300 1323 0
-369 1015 0
-1354 912 0
-927 -221 0
1227 -1922 0
128 -143 0
-913 761 0
-1599 1055 0
1366 -380 0
1876 -239 0
1625 2042 0
-735 48 0
-637 -170 0
-1012 568 0
551 -606 0
530 856 0
1815 -493 0
-853 -974 0
462 -356 0
-389 -6 0
726 -480 0
-832 -48 0
266 -1044 0
1535 219 0
-1064 55 0
1578 1801 0
-258 2259 0
-1777 1036 0
972 -625 0
123 1288 0
-751 -559 0
2181 -425 0
-1356 -1606 0
-2079 1251 0
1724 15 0
-833 743 0
396 1340 0
1119 1043 0
-887 2217 0
-1273 -1460 0
1043 742 0
-249 -460 0
-1799 -172 0
-966 1676 0
1707 736 0
-420 965 0
447 2048 0
-1170 -1813 0
934 -1604 0
-1467 -1283 0
-458 -955 0
1985 -1001 0
-1419 -1958 0
1848 -347 0
1920 1955 0
-398 -688 0
-60 320 0
-1818 -2305 0
273 1123 0
-1584 1820 0
2055 -499 0
1588 960 0
-311 -570 0
-1901 -1813 0
1007 -1898 0
-300 1072 0
1257 1149 0
1040 -1729 0
-398 1077 0
818 1639 0
1213 2282 0
-1199 1860 0
729 1670 0
-1347 -1182 0
-220 96 0
-2197 -305 0
-2005 564 0
-745 -614 0
-1681 1704 0
2041 -1649 0
2182 1881 0
448 351 0
361 2162 0
1716 -1135 0
-1296 303 0
-28 2050 0
1522 1059 0
-841 -394 0
-2099 730 0
-759 814 0
1494 2080 0
-1363 -63 0
1861 677 0
-172 497 0
1418 214 0
-187 -1484 0
-1398 704 0
-1982 -1668 0
-1378 1200 0
-1509 1659 0
678 30 0
-1654 522 0
-1752 -448 0
1933 -854 0
-1474 1702 0
1075 -1108 0
2096 -312 0
-1182 -1042 0
364 -1318 0
-60 2292 0
-2107 629 0
-635 2018 0
-1751 732 0
2151 988 0
-272 -1295 0
-1520 -964 0
-1906 -2150 0
-913 845 0
-116 -1771 0
-1247 1255 0
1759 -1932 0
1716 1228 0
272 1035 0
1716 505 0
-987 80 0
1535 1700 0
-1359 -209 0
325 -1803 0
85 559 0
2094 -788 0
-1763 -823 0
273 -1113 0
1084 1398 0
-1194 1519 0
2061 472 0
1188 -822 0
-1394 -1729 0
-1994 2273 0
-894 115 0
1988 -1197 0
1307 574 0
-621 -1418 0
490 1726 0
1916 -871 0
132 893 0
1762 -1662 0
443 1231 0
1163 -1858 0
1914 -1757 0
-1511 -1038 0
-1161 -1333 0
875 1075 0
327 1419 0
-120 -2087 0
1727 -1270 0
2186 -1896 0
922 2136 0
1034 2246 0
531 -1366 0
1371 857 0
-1748 -376 0
-2247 -1152 0
2061 -533 0
1984 -14 0
526 -1151 0
2021 -1963 0
-1579 -2219 0
2015 -1712 0
-1359 -1412 0
1141 -1824 0
1382 -1880 0
-2019 1891 0
-727 -180 0
710 -1066 0
1707 378 0
-872 -667 0
21 1222 0
515 1144 0
-398 -842 0
-1407 1494 0
15 -2303 0
942 -270 0
582 1080 0
1440 -2040 0
2233 360 0
55 -1291 0
488 -1613 0
85 -1363 0
1684 74 0
-1097 -1078 0
-1400 335 0
1403 2015 0
802 642 0
-1394 -1354 0
-841 495 0
1958 2047 0
-250 498 0
-2270 -2106 0
-569 1598 0
-1769 -2102 0
515 1246 0
208 929 0
-1761 2048 0
-569 -554 0
-831 591 0
-629 -378 0
-378 969 0
-1951 1663 0
1499 -360 0
-1521 741 0
1493 2068 0
-1078 -302 0
-1105 1897 0
41 144 0
-1701 -1343 0
-1573 424 0
1030 -212 0
-1545 1420 0
90 1985 0
1458 1484 0
1032 -850 0
417 1368 0
1488 1639 0
1477 1197 0
119 1033 0
499 -1608 0
2172 -1932 0
1225 997 0
1685 1520 0
1237 -1997 0
2153 -1955 0
-1527 2073 0
604 1969 0
294 138 0
1629 -119 0
1134 -1900 0
-2087 1931 0
1898 756 0
519 -1871 0
1609 1145 0
-246 -1087 0
603 113 0
-1583 333 0
-1413 1677 0
813 1646 0
214 1990 0
1843 -1609 0
178 67 0
1621 1144 0
-2224 -571 0
-1825 -809 0
995 287 0
1545 1784 0
75 1387 0
1017 -1363 0
67 -1527 0
1178 1975 0
-828 2273 0
1575 -43 0
-881 -2216 0
-1218 -1589 0
-1974 -2032 0
49 1703 0
-158 1791 0
-568 571 0
1153 -107 0
-1600 -1941 0
2086 -526 0
197 -1768 0
1527 -971 0
-2055 -1301 0
-225 1293 0
-2142 -2267 0
1456 -885 0
-1683 -2088 0
-613 -323 0
-1757 -1686 0
963 2100 0
-1933 -516 0
1818 91 0
-911 1625 0
1390 -1154 0
-2196 622 0
-310 -216 0
1408 -1002 0
-568 -67 0
-295 -74 0
-1658 -547 0
1366 1920 0
96 2114 0
-1468 2182 0
-1590 -2221 0
-700 471 0
1969 1910 0
1408 662 0
138 -202 0
1216 1694 0
1970 -206 0
-340 -1839 0
501 1033 0
569 1395 0
143 1284 0
-823 -1680 0
-1924 -1936 0
-1504 918 0
1744 1582 0
493 678 0
-96 -29 0
1048 -1478 0
1544 -17 0
2290 -1405 0
-461 2155 0
-555 1648 0
-433 1654 0
989 -246 0
-382 1679 0
-1868 2141 0
776 699 0
-1152 -950 0
-590 2219 0
1073 1931 0
2206 -2010 0
1002 -958 0
361 491 0
203 493 0
-1603 -581 0
450 1450 0
730 1828 0
-1674 -1224 0
-2173 1933 0
-526 -2140 0
66 -39 0
2069 1523 0
531 2125 0
-2112 315 0
-1878 1825 0
63 1209 0
-1385 -1773 0
-1474 1358 0
-1695 424 0
1980 1668 0
704 1194 0
1686 -830 0
-1068 2153 0
-66 860 0
-1926 2091 0
2236 -1899 0
-1218 634 0
1134 271 0
68 -337 0
1341 501 0
-634 -111 0
-398 1443 0
1895 1440 0
-1316 1559 0
-1193 -538 0
2113 2006 0
-1108 1456 0
1506 2041 0
-1823 -1552 0
-643 -287 0
1534 -1623 0
-2301 -685 0
-73 1631 0
-2172 -547 0
1939 -1217 0
67 -1137 0
-2264 -92 0
1482 -1631 0
1621 -536 0
-1157 -1375 0
81 -1013 0
-1673 -1633 0
-2025 -1821 0
-187 2131 0
1850 -843 0
-642 1185 0
825 1337 0
-2088 525 0
-874 617 0
-36 -297 0
1000 58 0
-1828 750 0
-436 -1384 0
-968 -1427 0
-68 -825 0
-516 -2256 0
324 1464 0
-1790 -487 0
1001 -1778 0
469 2253 0
-1066 470 0
681 -1503 0
-710 -408 0
699 -1771 0
1654 -313 0
-1650 1155 0
2296 1857 0
1180 1322 0
-1376 -1146 0
-822 -302 0
-237 -484 0
-1969 2049 0
-111 -800 0
2211 976 0
62 43 0
427 -1400 0
-838 577 0
15 -31 0
2237 2041 0
2093 -35 0
1781 -956 0
899 -1585 0
557 -2262 0
2295 2080 0
-1739 348 0
-559 1505 0
145 -1946 0
-1123 884 0
-1731 2261 0
1851 -659 0
1483 -397 0
-422 -966 0
604 -1565 0
-1159 127 0
-220 864 0
2160 1697 0
1403 2195 0
-1959 -221 0
-1527 -623 0
-530 2059 0
-1795 1226 0
-1387 497 0
-2256 1133 0
-2240 -1366 0
-1430 -1110 0
-731 576 0
1356 -1622 0
-1025 -331 0
-377 -2051 0
-2272 -1163 0
1798 2060 0
105 278 0
-1657 1447 0
383 -1629 0
-1084 -2056 0
-114 218 0
-2053 1403 0
1530 -1042 0
-1467 802 0
-2281 1733 0
66 -1734 0
-1125 -1340 0
115 -2224 0
-1061 1727 0
-670 -204 0
-1123 -1476 0
1778 -1609 0
-2305 600 0
-319 -119 0
-540 -1937 0
110 -840 0
1401 587 0
-1613 2083 0
-678 1582 0
2167 902 0
1750 1413 0
-1814 1720 0
438 1268 0
-146 1875 0
1823 536 0
1824 1863 0
1991 -881 0
803 681 0
-1465 1366 0
2294 -166 0
-1925 2187 0
33 -1347 0
1680 2269 0
1217 -658 0
1119 -1428 0
-272 -1376 0
434 -337 0
-2158 289 0
1552 1208 0
1603 373 0
86 -1157 0
875 1738 0
1291 1139 0
468 -2216 0
-1635 -1393 0
331 -687 0
973 -543 0
1429 1724 0
1703 -2134 0
-1130 -63 0
1395 -1659 0
-345 817 0
-887 -674 0
-46 -1853 0
1860 -799 0
-1946 526 0
-429 2167 0
2048 -282 0
-718 322 0
-987 1272 0
-691 681 0
2007 -1174 0
-594 2094 0
-1043 1653 0
-1498 -2026 0
-1780 1478 0
2022 -783 0
742 635 0
-1305 -247 0
1060 -1564 0
1147 -540 0
1133 -1697 0
-333 -534 0
2203 -1127 0
-827 -1880 0
466 -1428 0
-886 1698 0
-1596 -854 0
419 -76 0
1217 379 0
-1407 -1466 0
349 -1735 0
-2004 1096 0
286 1015 0
1701 -204 0
7 1786 0
1172 737 0
-1551 636 0
-1678 692 0
1148 -2117 0
1499 67 0
-1677 417 0
1881 506 0
240 1908 0
79 -1433 0
-1800 325 0
2177 451 0
1889 -944 0
-1400 -381 0
-736 -359 0
-1878 988 0
1432 -2197 0
1791 -580 0
351 1464 0
-913 1709 0
2022 143 0
-689 1611 0
384 116 0
1909 1732 0
-703 -314 0
1402 -2206 0
1957 -1214 0
-2183 1580 0
-1047 -2304 0
-1757 -1420 0
1321 -389 0
-74 -596 0
-1973 2030 0
688 1635 0
-1891 1432 0
-2004 13 0
-1211 138 0
-157 -1623 0
-467 -1206 0
-1370 -2035 0
-1164 1 0
-2054 -869 0
-2197 1656 0
156 2114 0
1561 342 0
217 -1451 0
1940 -1756 0
1036 -1883 0
-100 -2056 0
-450 -1436 0
1703 -1484 0
1870 -1406 0
-404 1114 0
-592 -1784 0
-2032 -1011 0
1681 144 0
-1478 -746 0
228 733 0
-1769 -1156 0
11 204 0
-1453 262 0
-1899 -1416 0
-2029 1393 0
-564 -2049 0
2252 1876 0
-1264 2022 0
-50 -777 0
-1224 -2215 0
-978 1242 0
714 -1389 0
1351 1258 0
20 1167 0
1965 2014 0
-1061 1157 0
-2156 -239 0
-1830 1677 0
-1810 -1774 0
-1177 -502 0
-2065 1464 0
993 1401 0
1597 -1611 0
-1912 819 0
1990 -941 0
-477 391 0
-430 -1615 0
1806 1607 0
-1229 2229 0
1494 161 0
-832 489 0
-2078 -2157 0
1462 -1585 0
-1105 -1633 0
-641 472 0
-1765 -225 0
26 919 0
-314 -683 0
-2017 -1164 0
136 -946 0
858 2219 0
679 -59 0
919 885 0
1707 -244 0
-1795 1223 0
2217 -2261 0
-277 223 0
-799 2059 0
-1967 58 0
2069 2150 0
-348 1417 0
420 936 0
-157 805 0
-1925 -1048 0
290 1325 0
17 1719 0
-1523 -219 0
-538 1173 0
2158 -1836 0
-1017 -2300 0
-277 2051 0
-229 -850 0
1225 1023 0
-1258 -389 0
690 1520 0
-675 2102 0
-2018 -1139 0
-606 1741 0
-2194 366 0
730 -2127 0
34 2281 0
-2040 460 0
1512 1611 0
-2213 -771 0
-1885 812 0
-615 231 0
-1667 2118 0
-144 68 0
-10 -2065 0
68 187 0
-2303 -1437 0
-534 -2277 0
-24 -1595 0
-1451 -1957 0
-1025 -479 0
-267 -547 0
1517 634 0
-421 125 0
652 1906 0
2098 -1911 0
-547 980 0
-948 1392 0
-289 -1298 0
-23 1469 0
1912 1582 0
-174 -1254 0
-1655 -1356 0
-879 744 0
2097 -585 0
-894 -1621 0
1143 852 0
-978 -17 0
-1458 -929 0
1354 1420 0
-394 924 0
-2032 -1334 0
1417 1262 0
-1339 501 0
-280 -31 0
-2120 -1486 0
1897 -2285 0
-24 183 0
587 306 0
1262 906 0
1432 1236 0
-133 106 0
-1107 1469 0
2250 -1320 0
-870 -760 0
677 493 0
-193 -1325 0
456 1500 0
-454 991 0
-1199 528 0
-632 2058 0
-695 -762 0
-1222 34 0
-882 -92 0
-2060 468 0
-1551 2083 0
-239 1006 0
-1212 -2200 0
-760 -2112 0
-824 -1063 0
227 1046 0
-676 1570 0
1261 240 0
-184 -854 0
1487 2264 0
1028 -2024 0
-314 -1406 0
385 2156 0
-2113 -859 0
1479 -780 0
-988 -220 0
-1645 -849 0
2166 965 0
-930 -1208 0
-1878 2227 0
-1889 2146 0
-1201 -1612 0
-2066 1915 0
-1533 2072 0
-2026 1851 0
1623 -1595 0
427 -1316 0
-1771 -1283 0
-713 -582 0
-2009 1184 0
1315 -315 0
1682 -825 0
296 -1016 0
530 1711 0
1680 -60 0
23 1930 0
1950 -491 0
-2121 -1104 0
-1182 -1486 0
787 896 0
1023 -721 0
398 -1115 0
-1595 1815 0
-710 1436 0
-1129 -1356 0
1000 1792 0
20 1259 0
-411 -428 0
-173 220 0
814 -1272 0
45 -2018 0
541 276 0
-1816 1341 0
-2188 -2052 0
1346 498 0
353 -1266 0
-1523 -205 0
-2289 2147 0
2132 1236 0
476 198 0
1145 1151 0
-1765 2277 0
-1902 1986 0
-1686 753 0
-1895 -1608 0
-1984 -409 0
21 1017 0
-790 -1453 0
-557 -974 0
158 -1492 0
1511 919 0
333 -843 0
1977 -2260 0
333 1410 0
-1451 -1039 0
-1691 -986 0
2273 802 0
32 714 0
498 -1461 0
18 -2133 0
-2272 -33 0
1827 -713 0
660 2071 0
2041 -855 0
-655 -1347 0
1495 -1115 0
-1766 -1539 0
1497 1926 0
-1020 1397 0
-137 -952 0
1956 95 0
-1357 -234 0
-1086 2091 0
-1010 -334 0
1891 880 0
1589 -1866 0
67 -1369 0
1349 -623 0
995 -1346 0
470 1956 0
1976 1240 0
-654 83 0
-256 -961 0
33 -1963 0
-1230 792 0
-908 1562 0
-1188 1736 0
-1284 991 0
-1039 -1585 0
-1246 1135 0
217 -1586 0
-390 1985 0
-130 -256 0
1981 -387 0
-1847 -460 0
1134 1174 0
-1444 -2289 0
1860 1677 0
-1342 -603 0
1218 1303 0
-605 1733 0
-1757 2041 0
-586 -1362 0
138 -40 0
-376 139 0
-1809 -1567 0
1631 2161 0
-1807 -1982 0
-1056 574 0
590 -1880 0
-1606 -1115 0
330 -1466 0
851 -822 0
-882 271 0
-1409 -1182 0
1361 1080 0
469 -896 0
-865 -2287 0
851 -88 0
-240 -1533 0
-1163 -224 0
-1922 -690 0
1491 -639 0
1597 1610 0
-133 964 0
-1041 -1419 0
275 -1947 0
-609 -1874 0
1265 -1917 0
2260 1615 0
1786 2111 0
-1049 -608 0
2019 463 0
1063 -764 0
591 -288 0
-2070 -759 0
604 158 0
-1190 1358 0
1641 -1836 0
1126 1288 0
1569 2121 0
1592 1244 0
2236 -1595 0
-93 227 0
-282 369 0
2274 1319 0
-2057 2238 0
1981 -674 0
1911 -990 0
255 -506 0
471 2273 0
2091 2168 0
1582 -403 0
-566 -1945 0
880 1651 0
-1686 1434 0
2022 1634 0
-1715 -1269 0
1776 915 0
2174 -7 0
1965 574 0
-544 1758 0
1173 543 0
1115 322 0
192 -1777 0
382 -456 0
-903 1050 0
816 483 0
383 1920 0
-2191 17 0
1239 -300 0
586 426 0
-562 -715 0
-2203 -507 0
-763 615 0
732 660 0
-718 -1505 0
2217 -422 0
-1923 -825 0
798 -586 0
984 1370 0
769 -858 0
-2139 2290 0
-223 -1277 0
2111 1930 0
574 -453 0
1725 -1742 0
-1101 523 0
-31 -173 0
-2223 -2113 0
206 1784 0
-1328 1149 0
136 -509 0
1837 1207 0
-950 -1263 0
-167 -705 0
-1183 -230 0
-1511 -2138 0
-1206 1251 0
1238 -741 0
1779 986 0
1545 -156 0
-1417 -1823 0
-599 1305 0
203 -2271 0
557 1033 0
860 -2065 0
-2234 2115 0
2143 2013 0
1043 1206 0
1695 -1433 0
-1874 -1731 0
-1261 -515 0
303 -1340 0
-361 -832 0
748 1822 0
-85 2282 0
1984 1206 0
2279 -2299 0
719 2305 0
552 -1790 0
-1033 2143 0
-413 -1560 0
131 175 0
613 912 0
807 1488 0
-1565 -2293 0
815 -2240 0
951 115 0
866 1330 0
-2176 -1295 0
-1459 2300 0
-130 -1074 0
338 1487 0
2102 535 0
-1917 410 0
-1549 -1453 0
984 506 0
-1081 -2063 0
-1016 1855 0
-2253 2199 0
1688 -42 0
-1742 508 0
-1424 -242 0
-2076 -1164 0
961 -1130 0
1474 233 0
-280 -597 0
-932 -2277 0
-1932 465 0
-1033 1385 0
443 -8 0
-1600 -2291 0
1895 -44 0
1997 749 0
-1727 -49 0
1758 329 0
-1067 1216 0
-800 1571 0
-495 -1490 0
445 378 0
-1133 2217 0
-1532 2153 0
417 -2149 0
-1807 575 0
1552 818 0
429 1155 0
555 -221 0
591 -1110 0
874 1802 0
2214 -1255 0
-1297 -561 0
478 351 0
-1441 -957 0
2061 846 0
-862 -589 0
-1915 -1296 0
735 804 0
-428 -1842 0
1528 124 0
-1812 1488 0
2253 1633 0
-1756 -1077 0
-723 1294 0
1656 -1466 0
-663 -592 0
1843 985 0
1721 -918 0
-1814 -2040 0
562 -2109 0
376 -723 0
353 -1969 0
-1806 471 0
-986 -509 0
-1061 1704 0
-308 875 0
1062 1002 0
-1065 -2023 0
1698 -825 0
-872 1995 0
1302 1308 0
-2275 170 0
1862 -599 0
1103 -1643 0
-1563 -409 0
-1301 -1206 0
1738 1129 0
463 170 0
-393 -1074 0
610 -597 0
1067 -2081 0
995 -771 0
-1830 1678 0
-72 1798 0
-943 2085 0
-1755 1998 0
-96 -1468 0
276 2257 0
-1598 -261 0
1384 -1176 0
316 1980 0
944 441 0
-1378 2189 0
-631 19 0
-2025 1944 0
-676 -1521 0
-902 61 0
2074 917 0
-1427 1384 0
-1826 -617 0
708 459 0
1569 580 0
-79 1970 0
-1499 1144 0
-2105 1050 0
-891 1268 0
1133 -1505 0
130 -349 0
-553 1169 0
-1344 -1490 0
-1347 1736 0
-1861 406 0
1358 1417 0
-640 -854 0
-1487 -1768 0
1890 -308 0
69 1029 0
106 1240 0
-1726 -10 0
-1416 196 0
-1679 -485 0
2288 229 0
-219 1098 0
1187 632 0
-380 100 0
-2042 -2171 0
-897 -1118 0
1206 -1008 0
510 162 0
-1823 -367 0
1578 -330 0
-1884 174 0
1880 -1009 0
-592 257 0
-2083 215 0
-130 -249 0
-606 -567 0
-1391 -138 0
-1811 -772 0
2218 -196 0
-228 -67 0
600 231 0
-1521 -1353 0
-753 -1676 0
-267 -92 0
276 1474 0
2102 1268 0
1425 -1603 0
-2198 -1013 0
-997 1958 0
1582 -672 0
-890 1187 0
-1674 -401 0
-1549 -1232 0
-1731 -1303 0
367 575 0
-1290 -1828 0
-1110 -1730 0
-822 -1062 0
2116 -1125 0
-1486 2005 0
-707 -1600 0
-1498 -1847 0
-1980 -940 0
1520 177 0
-680 2287 0
-1225 1005 0
522 -1513 0
-293 -1479 0
2135 -915 0
1747 1549 0
2246 811 0
-24 -1578 0
1848 165 0
-968 -2099 0
56 -1167 0
1001 773 0
-736 749 0
622 -87 0
2091 -197 0
-686 -1558 0
372 1003 0
-93 1161 0
-222 -2127 0
2164 -1414 0
-492 -563 0
105 1727 0
-2240 -477 0
-1054 2161 0
2119 -826 0
-129 701 0
-147 -1455 0
-1097 -2267 0
-180 1306 0
78 255 0
1150 1429 0
-907 -2070 0
-2304 437 0
-1286 1624 0
-765 1907 0
-610 -1223 0
186 1639 0
543 -670 0
1496 1831 0
-1513 823 0
-1886 460 0
2008 -44 0
-885 -670 0
233 -345 0
2152 1566 0
802 -1444 0
1708 218 0
1881 -676 0
-1785 1236 0
1826 -120 0
-10 -1613 0
1114 -359 0
-2250 -1394 0
1878 1027 0
2073 465 0
-1067 -1803 0
959 -1275 0
361 -946 0
836 838 0
845 1633 0
-1243 1355 0
1219 -872 0
932 -1760 0
-2114 2261 0
-1010 401 0
-53 227 0
1060 -4 0
585 -1714 0
2 750 0
490 111 0
-1357 544 0
1216 1691 0
-1874 -1715 0
2204 -824 0
-19 100 0
-130 1758 0
2292 -1166 0
883 -1481 0
-872 -1788 0
90 1480 0
-1371 -1381 0
-1266 -1852 0
573 1184 0
1097 1596 0
901 693 0
615 -1549 0
-54 2294 0
307 1870 0
933 2221 0
-1449 2291 0
1432 188 0
-1697 2109 0
-280 -2103 0
2282 -1803 0
-490 -2016 0
1525 -730 0
1687 1981 0
-823 -553 0
2118 1765 0
1853 -1311 0
135 1694 0
408 -156 0
1555 -574 0
1719 -248 0
51 -954 0
1555 -2216 0
1796 -1205 0
1954 -1345 0
550 1905 0
-1736 -1858 0
-1312 126 0
-1667 648 0
255 2277 0
-332 -2107 0
-1378 -167 0
-261 -1816 0
-2079 1477 0
1198 307 0
-870 858 0
-344 915 0
-2049 1647 0
-974 1031 0
-1553 692 0
2150 -669 0
-422 -854 0
-2077 699 0
-1514 -580 0
2061 -754 0
-550 -442 0
1023 -291 0
-109 -1177 0
-628 -1967 0
1582 2296 0
944 -971 0
-554 -821 0
406 968 0
-863 2089 0
1469 554 0
368 717 0
1739 -229 0
2080 -297 0
-1041 1215 0
-359 -2133 0
-483 -1283 0
-1463 2236 0
-1150 -1245 0
1110 -38 0
80 182 0
358 -2125 0
1065 -1294 0
-940 722 0
-2287 -1462 0
-2040 1150 0
1955 1327 0
1039 -222 0
-1332 -559 0
-15 707 0
1268 2113 0
972 -595 0
1162 683 0
1421 -1585 0
254 -290 0
-1466 1244 0
-97 -2017 0
-699 490 0
-297 1253 0
-1518 -1902 0
668 -1518 0
2160 -1931 0
-587 -2163 0
1402 55 0
-415 1089 0
-1203 -1033 0
1492 -175 0
-956 -1157 0
-638 668 0
-682 -1670 0
2147 424 0
-1660 982 0
1632 1846 0
-586 -782 0
1861 -2017 0
1698 -1826 0
2048 -639 0
977 -1316 0
1602 1785 0
2019 2277 0
-1674 2284 0
1469 1119 0
-1127 -1224 0
1319 -1375 0
668 1374 0
-2203 2117 0
661 500 0
2263 828 0
1652 2022 0
301 623 0
-1066 -1557 0
309 -831 0
69 1845 0
-1804 2014 0
2073 -1747 0
-2035 -858 0
-1127 -1285 0
-1790 867 0
1188 1360 0
-367 803 0
-1775 646 0
-2304 20 0
1437 -1100 0
-745 859 0
2286 1518 0
-2208 -1271 0
2297 -1594 0
-1986 399 0
-517 2258 0
709 -1383 0
-1604 -1366 0
1763 1507 0
859 -1267 0
-709 -361 0
-321 1671 0
4 2075 0
-2 452 0
977 -1966 0
-1772 1682 0
-1603 -743 0
-1752 2254 0
1280 -1655 0
1023 -1518 0
-121 -419 0
-287 1035 0
-579 2076 0
-829 1808 0
286 -1906 0
-1850 830 0
996 504 0
584 -504 0
546 -2247 0
949 914 0
498 -894 0
-50 439 0
921 -1079 0
-143 1582 0
342 1882 0
-2227 -200 0
1170 134 0
-1313 -778 0
905 -75 0
1353 1654 0
299 -1295 0
-1021 1781 0
-1230 -1480 0
-1430 752 0
-2277 768 0
-519 941 0
-1706 1329 0
-1710 -1461 0
-1064 -173 0
706 1043 0
-262 -1480 0
1860 2263 0
-1897 501 0
-1129 1194 0
2224 1411 0
1930 1233 0
562 1248 0
1436 1083 0
-497 -1789 0
-1341 792 0
-1279 2013 0
-141 -1341 0
799 152 0
925 -1127 0
2011 -814 0
-1498 1175 0
2178 506 0
-1476 -1868 0
1187 284 0
-2221 1235 0
357 -551 0
-2275 1379 0
1428 1763 0
-1999 1334 0
-279 1721 0
-176 1733 0
-1181 1726 0
1689 1020 0
-765 -1857 0
-1794 1050 0
1494 -1080 0
-461 152 0
-1389 -871 0
-131 -2046 0
347 1073 0
775 -2270 0
1624 242 0
1431 -1053 0
1156 -1224 0
168 -1441 0
-1182 -461 0
-2208 -1739 0
-1400 -1236 0
316 411 0
-767 2084 0
1697 1720 0
652 -56 0
-419 -2131 0
-320 858 0
-1656 -783 0
-2287 -2275 0
1073 -243 0
1345 -237 0
-142 -165 0
-118 -180 0
-1576 207 0
2120 1279 0
2020 1865 0
-249 1546 0
1542 -2108 0
-2285 1721 0
-1182 -2027 0
1512 -565 0
-1115 1389 0
-239 -346 0
171 257 0
-1024 -1364 0
1923 -882 0
292 -53 0
2222 334 0
-2037 -774 0
989 751 0
-829 998 0
1708 -786 0
-2293 -1650 0
-1690 -137 0
1236 260 0
1208 -1587 0
1377 1986 0
-10 -111 0
1169 1799 0
-879 -222 0
-2281 -74 0
461 266 0
1929 -619 0
468 -1099 0
13 1058 0
-542 -1467 0
-2188 316 0
-551 -2161 0
308 2189 0
-25 -1732 0
-800 1303 0
1344 -1844 0
2024 -1313 0
918 2175 0
819 -2225 0
1451 -650 0
-1249 -625 0
-755 -1079 0
-913 1557 0
1076 2295 0
-94 1153 0
-822 -1109 0
1898 1176 0
1000 1283 0
1570 -2138 0
-840 -369 0
-1841 -1708 0
-1514 1881 0
1069 2017 0
-2052 -2168 0
28 -503 0
-1180 2012 0
572 1239 0
-1849 2230 0
1891 1826 0
-1284 -2046 0
291 -277 0
1272 819 0
-1612 -1312 0
564 -1025 0
-869 -2275 0
157 814 0
1727 925 0
-1334 2012 0
608 -1229 0
-376 -2212 0
-1884 434 0
-1803 -1782 0
833 -1310 0
-678 770 0
-454 1741 0
-1078 -311 0
2230 -930 0
-23 -22 0
-1806 335 0
1241 -85 0
-1667 -154 0
-846 1096 0
-621 776 0
-823 1945 0
1467 -1760 0
571 -1954 0
-830 -846 0
1248 -2258 0
1775 1743 0
-1231 652 0
-178 1258 0
-702 1174 0
896 2159 0
1289 -201 0
2298 -1813 0
1105 1869 0
-413 1407 0
-1528 -1340 0
1652 -1211 0
1166 -1875 0
1652 -1433 0
557 -198 0
-1430 -1549 0
383 217 0
180 993 0
1688 -2100 0
-1835 1935 0
1259 1563 0
969 -874 0
-1643 -4 0
-1061 1678 0
-141 -1801 0
-1446 -1374 0
219 -1643 0
-101 410 0
706 1852 0
1839 1979 0
1981 163 0
160 -1752 0
-1981 1057 0
-244 2161 0
504 838 0
1092 1035 0
-2245 -621 0
37 -950 0
-1560 2167 0
-1941 1675 0
1155 1000 0
-1790 -1258 0
-2200 489 0
2249 1395 0
1668 -1510 0
968 -166 0
949 1516 0
-2052 -1387 0
1572 -1860 0
683 -2068 0
803 -1480 0
477 -2035 0
807 -305 0
1239 2157 0
-872 -971 0
1309 2232 0
1691 -1418 0
-1801 -100 0
1952 1661 0
353 -363 0
-2286 875 0
-1372 -1804 0
1408 689 0
1857 -2077 0
-247 1637 0
96 1289 0
-821 827 0
-84 1089 0
572 2143 0
-1520 -1981 0
2046 1054 0
1255 -1812 0
-650 1777 0
-772 -1238 0
43 1829 0
-772 634 0
2072 282 0
-487 1134 0
752 780 0
-1088 172 0
2192 -108 0
-1335 420 0
-1692 833 0
-168 -1789 0
1628 1525 0
2061 -347 0
2073 1337 0
-1127 -640 0
-1870 1431 0
-68 2083 0
-951 -1892 0
-243 1810 0
2100 -1607 0
2213 2205 0
-833 -821 0
-1577 -415 0
876 663 0
-1577 1848 0
1768 -386 0
-118 469 0
1256 138 0
-1890 -696 0
1808 1173 0
2047 834 0
328 1611 0
1085 -1318 0
-1125 1620 0
-1795 269 0
933 46 0
-201 -1092 0
-2274 2001 0
1379 1922 0
366 1699 0
-1591 -2079 0
-558 1358 0
-1284 2094 0
-1925 -2170 0
2058 1094 0
1290 -2210 0
-1610 1111 0
-1094 -54 0
1196 1203 0
887 -1068 0
-2194 -1676 0
-554 -1192 0
-1078 -271 0
-1245 -1729 0
1092 2236 0
-1359 -1878 0
2207 920 0
2102 -509 0
-1381 177 0
1956 -1906 0
-1300 636 0
-1051 2168 0
2019 2051 0
1881 -629 0
1043 1765 0
-1646 812 0
2161 600 0
-1143 752 0
-2287 -1753 0
502 773 0
1909 1335 0
-1681 -1615 0
-1282 -1919 0
-2140 -539 0
339 -356 0
-909 476 0
21 -623 0
106 1122 0
-71 2174 0
-1234 1126 0
-9 600 0
1566 31 0
-1481 1721 0
2234 276 0
1402 1186 0
1458 -1144 0
572 1841 0
-1106 -323 0
-1474 2254 0
-93 2161 0
1739 -76 0
-1254 739 0
-1282 -1613 0
1377 -894 0
-464 1487 0
-1693 954 0
679 1227 0
2058 1652 0
-1969 2283 0
931 1235 0
1592 -1184 0
-302 -1290 0
-2203 -126 0
618 2071 0
-2040 569 0
262 477 0
-806 757 0
1572 -1462 0
643 154 0
1747 399 0
2238 133 0
734 -1296 0
-44 -933 0
791 -541 0
720 764 0
630 -871 0
-570 1156 0
-488 -2050 0
-1282 -1386 0
501 299 0
-628 -263 0
-684 -1961 0
1212 993 0
688 1518 0
-385 1215 0
-2057 -937 0
-1573 -314 0
-1995 -107 0
-794 -914 0
366 2020 0
-2220 -1377 0
-1304 1465 0
-246 1288 0
-1813 622 0
1703 -636 0
2169 1186 0
517 -1361 0
-848 -1649 0
20 2086 0
379 1233 0
1108 -725 0
-1449 1066 0
-999 1242 0
1659 754 0
1503 -293 0
-1452 109 0
-1455 1289 0
2058 -783 0
-1381 -1239 0
381 -136 0
1920 2199 0
-2018 -2074 0
293 -118 0
477 1029 0
-2157 -1531 0
-843 -1738 0
1112 1762 0
-1042 -964 0
483 -2107 0
82 2168 0
1018 1242 0
435 -2010 0
15 93 0
-6 2258 0
1646 166 0
1703 -1190 0
-813 1686 0
1437 438 0
1046 1242 0
1703 -1475 0
-1033 1264 0
795 -1129 0
2220 -826 0
1192 1236 0
924 1172 0
520 -54 0
-1434 -1619 0
-1315 296 0
-1366 627 0
123 -568 0
312 -360 0
-1459 -597 0
-1782 -1297 0
-253 -355 0
-1318 -713 0
-2154 2033 0
2255 -1495 0
-73 -815 0
-2012 -687 0
-2276 -3 0
1648 500 0
-910 1208 0
-1636 -1290 0
1602 -42 0
1410 739 0
-1636 -467 0
-1040 -1651 0
-1160 -1520 0
-1652 266 0
182 -362 0
-2243 -486 0
-506 1442 0
1528 1326 0
-64 -918 0
-2125 -1337 0
361 1150 0
374 -1375 0
-928 -456 0
1991 -1427 0
-1723 113 0
-408 -780 0
1432 565 0
1215 -2064 0
1074 -1051 0
2143 681 0
1060 -1760 0
1481 -1705 0
-253 -937 0
-131 -1768 0
810 -560 0
1538 -797 0
1573 1668 0
179 516 0
1853 -1429 0
1938 766 0
-230 -1639 0
717 -1781 0
1369 113 0
-2220 -2022 0
2097 1187 0
-1167 2210 0
492 728 0
-407 85 0
1541 2294 0
2291 -701 0
2067 -843 0
891 -1131 0
-304 -1529 0
-895 -1691 0
-1627 1208 0
-705 912 0
-1470 -238 0
88 583 0
-1913 -1352 0
439 -1258 0
371 -625 0
931 -2073 0
-72 403 0
-862 -1576 0
-1660 868 0
-474 -391 0
498 -1874 0
1470 1745 0
-2149 -1099 0
-782 549 0
1097 -1574 0
-2107 597 0
-291 -1430 0
-2027 -2210 0
952 1145 0
-1249 2031 0
-1827 -1216 0
-2010 -1009 0
1998 -351 0
2024 867 0
-1558 -1331 0
-1246 1118 0
44 668 0
2098 -1458 0
-935 1924 0
1237 332 0
-213 -2030 0
366 1612 0
494 -807 0
370 1722 0
1792 -867 0
-748 1057 0
-4 1961 0
-37 900 0
512 1746 0
2121 -370 0
-748 748 0
-2266 -566 0
1452 -42 0
-656 1912 0
1373 1921 0
-2263 -1339 0
1442 -680 0
746 2165 0
72 -314 0
-1990 1759 0
2204 -1386 0
-377 2067 0
-1772 -1086 0
-139 2167 0
-1787 -1553 0
2279 -1419 0
-2025 695 0
-715 -595 0
-1037 -6 0
646 -614 0
-1945 -1967 0
-412 -558 0
-1635 -1514 0
1135 1000 0
323 2010 0
-1493 -1585 0
1188 1734 0
-1131 -584 0
370 382 0
-1475 1979 0
-805 100 0
-1122 758 0
1881 -869 0
64 2162 0
-249 617 0
522 388 0
1945 732 0
950 2047 0
-1247 89 0
-421 1819 0
2140 2258 0
-1732 -1769 0
1862 -1235 0
1300 -511 0
1169 1125 0
-1268 1688 0
-1509 -879 0
-1778 508 0
-872 -1081 0
886 1023 0
-65 -626 0
-1320 -2099 0
1473 -1915 0
808 -1765 0
1197 717 0
1256 1846 0
1817 1271 0
1423 -148 0
2236 -1824 0
-2161 -494 0
920 -1295 0
1458 741 0
2102 135 0
-324 1744 0
1360 1681 0
-595 -472 0
1704 1379 0
860 327 0
-46 1327 0
-2265 148 0
-261 1641 0
884 -1902 0
-1232 178 0
1914 346 0
1822 -1608 0
-1008 -1705 0
-1841 -1370 0
2119 -1490 0
-166 -1512 0
574 2236 0
729 1339 0
1217 518 0
531 1470 0
2199 -869 0
2171 -1816 0
128 -1283 0
-114 291 0
2146 -107 0
873 -950 0
1500 -1490 0
1957 650 0
1497 -527 0
-156 -573 0
1781 -923 0
-1785 -1346 0
-297 -86 0
-1511 912 0
-724 82 0
2097 -108 0
-2188 -1148 0
1463 1537 0
-344 -2131 0
-1228 -360 0
-1600 -724 0
-277 -1334 0
2031 2169 0
-1503 204 0
1856 1346 0
-16 -1421 0
175 1015 0
-2164 1376 0
-212 -1047 0
1923 1568 0
-313 -836 0
1582 -102 0
2126 -587 0
-429 -357 0
-804 1258 0
406 1941 0
-786 2302 0
1931 1843 0
-2186 85 0
989 1349 0
-210 -892 0
405 1153 0
-504 -454 0
82 -448 0
-1066 -1691 0
-2191 -763 0
-715 -628 0
-1066 -1445 0
-1522 -1398 0
1524 -1801 0
2015 1854 0
-1844 1900 0
-1283 2219 0
61 -196 0
-865 402 0
-326 1450 0
-1692 -491 0
-2082 98 0
-1182 -1674 0
1166 -2026 0
-298 153 0
-953 1198 0
-1404 255 0
-607 1220 0
-1051 1165 0
1672 -631 0
-1220 1027 0
1515 -1877 0
-2303 369 0
973 -1752 0
-1406 1900 0
-2147 2182 0
250 -2242 0
155 -914 0
-1380 -357 0
535 -1811 0
400 -1418 0
-131 373 0
-2222 1069 0
-2265 -2129 0
1079 -2001 0
1895 1381 0
507 -1893 0
-613 833 0
-862 272 0
-2106 -1809 0
1409 366 0
-1004 -1001 0
-2163 -294 0
-1298 1035 0
-2093 89 0
-629 2171 0
-1642 1709 0
1143 -2102 0
-1892 667 0
-1364 1126 0
-1505 742 0
-2213 2140 0
1855 -1770 0
-1201 1408 0
548 448 0
-253 1655 0
-722 -708 0
1057 -150 0
-2039 2001 0
2175 2076 0
-716 1341 0
-22 1849 0
43 1082 0
-2227 1338 0
-216 833 0
507 -756 0
470 1253 0
-143 -240 0
427 -168 0
582 1518 0
-973 1136 0
-1047 987 0
-415 1054 0
-1229 -1333 0
-1479 1346 0
-1551 -232 0
751 608 0
973 -1878 0
1373 -1244 0
578 1365 0
-637 725 0
949 -489 0
-250 1602 0
1978 -1036 0
1138 1463 0
-1701 -539 0
1005 382 0
-375 470 0
2049 -1131 0
-50 -825 0
578 -924 0
1567 -1638 0
1455 416 0
-219 976 0
-2175 -502 0
410 1014 0
-54 -359 0
-310 -244 0
-564 1203 0
1917 -1221 0
1957 -287 0
-1808 -1246 0
651 -1767 0
-2245 -585 0
-2197 -2061 0
1392 -2067 0
1791 2296 0
-821 -1389 0
-1658 1298 0
-2232 1118 0
137 1969 0
-1063 -972 0
-506 -1235 0
292 644 0
-1031 -1005 0
2010 1322 0
-970 -1284 0
1158 1237 0
-2206 -130 0
-940 -1104 0
399 -1383 0
-1025 -1264 0
480 1931 0
-1129 227 0
-1675 -1019 0
-141 520 0
-443 1822 0
-260 1243 0
2096 784 0
-1298 -1998 0
-489 677 0
651 -1604 0
663 412 0
-713 1323 0
520 1314 0
-663 -429 0
-1790 1485 0
1403 2146 0
-1832 1605 0
-1660 700 0
-1094 21 0
-1101 -605 0
591 1320 0
1016 -210 0
29 437 0
918 -85 0
-1794 1980 0
1977 619 0
-2223 1440 0
2055 712 0
-467 -1448 0
31 2226 0
-892 -1640 0
2277 -754 0
938 1007 0
-1833 -220 0
-93 154 0
-1714 -2001 0
1482 -845 0
-1710 816 0
-938 -487 0
-849 1833 0
2147 473 0
881 41 0
274 628 0
1346 -2074 0
-727 1540 0
1467 -1622 0
-587 847 0
2010 1150 0
1519 -229 0
68 -1698 0
-36 -393 0
385 250 0
2197 -990 0
2147 1466 0
2298 276 0
-1426 -1613 0
-1315 1996 0
-1462 -44 0
-1541 1851 0
920 1398 0
1546 -711 0
-608 -1155 0
1722 148 0
-95 -2154 0
-760 -1803 0
266 -872 0
-1777 1982 0
2283 216 0
325 -209 0
-655 -1264 0
-1339 -1611 0
-1363 -2088 0
1865 -967 0
-1198 -117 0
-1030 836 0
-428 1507 0
-281 459 0
-2134 463 0
-550 -1767 0
-205 -1592 0
1718 -1658 0
1299 -519 0
359 -879 0
2233 -1701 0
-1130 177 0
-845 83 0
-293 -1170 0
-1156 -1657 0
-667 103 0
1326 2015 0
-6 708 0
605 -914 0
-1314 -994 0
-1006 -184 0
-1542 210 0
-1257 -46 0
-364 -630 0
-889 2296 0
1417 57 0
-1309 -2017 0
1281 1152 0
1268 983 0
-1749 -484 0
1981 -2248 0
-1238 -1499 0
830 2230 0
1030 -35 0
-697 55 0
1095 1031 0
-1801 1256 0
-521 -1153 0
-1989 -253 0
-638 -1418 0
80 -1708 0
1207 775 0
-597 1525 0
-1694 -1766 0
110 -1615 0
-1845 1776 0
-2125 -1548 0
769 2122 0
47 1721 0
1349 -375 0
1004 2285 0
1085 720 0
-1702 -1657 0
-1137 -823 0
549 -563 0
1242 517 0
-162 941 0
-1752 544 0
-1004 2132 0
-2000 1236 0
-612 2148 0
-1773 -1226 0
159 1257 0
310 1222 0
2096 -220 0
-1400 955 0
-1533 955 0
1650 -677 0
72 2231 0
1349 -786 0
330 1689 0
-990 711 0
600 -607 0
1464 -1944 0
1668 -1034 0
1865 502 0
1152 -332 0
-209 215 0
72 1447 0
-1627 -1649 0
1792 1403 0
2068 -380 0
843 501 0
-2065 2104 0
-1355 -627 0
1184 1971 0
-436 -302 0
-222 26 0
1073 125 0
-1668 991 0
494 -62 0
-467 1401 0
618 1725 0
767 741 0
-2196 -2123 0
-1609 2153 0
-743 1662 0
-780 1949 0
-1068 258 0
1044 -212 0
-391 -2115 0
2083 -1527 0
-1320 -1079 0
-290 -1113 0
-1102 750 0
-2234 1228 0
2078 1519 0
42 -1801 0
-1374 -2118 0
1757 -1370 0
-1824 1886 0
218 592 0
-257 -94 0
1142 179 0
1754 869 0
2245 1019 0
747 1851 0
1783 1150 0
2067 47 0
2072 -1650 0
-1525 -2088 0
1255 -2202 0
-544 -297 0
189 -327 0
-1001 -38 0
1864 -1889 0
-1180 68 0
-639 -1280 0
1278 952 0
1870 -1 0
-1337 -2272 0
-933 -419 0
1359 -37 0
-2051 254 0
688 924 0
-987 60 0
-2110 2288 0
1470 -29 0
1144 -786 0
-323 -216 0
-1639 -1449 0
-263 -279 0
-1885 -1690 0
-670 -238 0
-1292 176 0
651 457 0
1520 -2042 0
1578 -1570 0
-799 -2287 0
-620 2238 0
2181 -761 0
-2303 1233 0
1558 -940 0
-24 -2271 0
1265 1132 0
-2068 1672 0
-2076 1268 0
1247 836 0
744 1652 0
-667 273 0
341 1865 0
-1701 1865 0
-1993 -923 0
-1835 578 0
620 -716 0
-73 1452 0
1484 -209 0
-1601 -1558 0
-719 -1821 0
-1348 -400 0
18 -523 0
-1475 -1081 0
-1599 -2283 0
493 1559 0
-1954 -674 0
2213 257 0
-1974 -857 0
162 -453 0
-319 1524 0
1585 -76 0
2196 -241 0
-537 -1879 0
-1860 839 0
-1147 15 0
341 -537 0
1417 -116 0
2199 -999 0
2057 -319 0
660 383 0
1607 1118 0
94 742 0
1158 110 0
215 1775 0
2029 -350 0
1507 1745 0
-2139 852 0
732 2281 0
274 -259 0
1471 -145 0
-2287 1300 0
671 2011 0
-1896 -1137 0
1688 1472 0
354 383 0
463 45 0
1260 1767 0
2110 -1870 0
1559 174 0
11 1194 0
1222 2146 0
237 -826 0
1925 2297 0
-94 2131 0
-2242 -1598 0
1185 1709 0
2171 604 0
1644 -1987 0
-2233 1547 0
1139 -1706 0
1256 -1543 0
2067 796 0
2119 -2112 0
-560 -1620 0
-774 674 0
-1611 1848 0
992 -1001 0
-200 -240 0
2137 -2268 0
-1388 -2298 0
2253 -171 0
-1566 -1366 0
1923 2218 0
2127 385 0
-1400 -1992 0
-625 1980 0
2121 -166 0
-199 2282 0
-1529 -2244 0
2181 -897 0
999 -1537 0
-719 2048 0
2293 -569 0
-1243 1454 0
-613 -1795 0
-1106 315 0
2011 1152 0
2015 -2226 0
-2113 99 0
-1958 -2024 0
500 280 0
-386 -2208 0
-697 1196 0
-1063 -1391 0
-719 1824 0
1581 1822 0
-308 1899 0
1445 -1771 0
-946 729 0
1927 400 0
1524 1651 0
-1393 -1505 0
-1156 -1501 0
831 -612 0
333 1053 0
-116 2285 0
470 -1295 0
-1294 -114 0
-2298 -2212 0
-1793 634 0
-1855 -635 0
2230 660 0
1938 1588 0
-373 1640 0
-143 655 0
896 405 0
1928 -197 0
-702 231 0
815 454 0
851 1074 0
-2289 -722 0
1254 -210 0
-2197 -1906 0
-823 -1610 0
-1932 1428 0
-1008 -763 0
1708 1397 0
-2021 -921 0
-212 -1723 0
808 -442 0
-2208 634 0
-1995 2014 0
1087 965 0
1533 -394 0
506 2178 0
1774 2263 0
1737 -1359 0
-76 426 0
-1418 935 0
-1144 2111 0
403 -1864 0
1822 -1622 0
-2120 1007 0
-1407 1213 0
1318 1940 0
1848 -2129 0
744 1382 0
-1050 1392 0
-1521 -1952 0
-746 344 0
1698 -43 0
-1941 -824 0
579 -1505 0
1864 816 0
42 -2163 0
909 2064 0
-652 1737 0
904 358 0
-781 -913 0
725 -480 0
1722 1809 0
292 -204 0
-199 1555 0
1646 508 0
-445 349 0
-480 -1812 0
-561 -1274 0
225 1007 0
1147 1272 0
1887 1663 0
-516 -491 0
-450 -41 0
808 1268 0
-145 1338 0
-39 -618 0
-552 -678 0
-177 -1453 0
1237 -1404 0
1575 1986 0
1786 1219 0
-1794 919 0
384 -2100 0
957 -2274 0
289 893 0
728 -415 0
-1999 787 0
-479 734 0
411 -2304 0
188 -825 0
775 1432 0
-2304 410 0
-737 618 0
-74 1679 0
796 -1850 0
-1866 1413 0
-371 -1928 0
2285 -720 0
979 -1134 0
2299 1419 0
-2134 1058 0
809 309 0
267 -2163 0
1621 2087 0
-1715 1237 0
48 -1941 0
1685 502 0
-1369 1638 0
2008 -1079 0
-900 -1831 0
460 -1719 0
-1960 1562 0
-2284 -720 0
30 -243 0
-1060 -2057 0
-1343 453 0
-52 -351 0
844 83 0
-1813 426 0
1563 103 0
342 -82 0
-640 -1914 0
2193 -1435 0
-386 -1756 0
1575 -307 0
1898 1281 0
2028 1307 0
-80 -474 0
-1117 1741 0
-559 1296 0
-589 2283 0
-545 2084 0
411 616 0
-628 412 0
-2036 -74 0
1262 -1783 0
-2080 -22 0
1378 -1878 0
743 985 0
-1429 -1584 0
2258 -1579 0
-484 -1908 0
2223 1639 0
-1866 -1282 0
615 -1821 0
543 1960 0
1213 -1426 0
-1583 758 0
1003 -1461 0
141 1641 0
-34 -1357 0
-1544 -784 0
1138 -440 0
-1230 -1734 0
210 -1587 0
-277 -1444 0
1084 -321 0
-727 -1838 0
-114 -1224 0
901 186 0
787 -1215 0
1023 -649 0
1890 2187 0
-10 850 0
-1429 -1423 0
-458 -869 0
2181 -1802 0
-504 -2091 0
-930 -1500 0
-1615 589 0
-153 -2232 0
1920 317 0
135 2128 0
-2242 1000 0
-1347 -1451 0
-1657 1835 0
375 276 0
-1328 -40 0
-883 1419 0
1707 -95 0
-777 -1513 0
342 1242 0
125 -788 0
-1736 1288 0
106 843 0
-1996 -420 0
-1557 -1245 0
-695 692 0
-1520 1306 0
-1113 -1057 0
1677 -862 0
-700 404 0
-1982 427 0
1671 -2173 0
522 208 0
-429 -1272 0
806 -810 0
1952 670 0
-1959 -667 0
-1594 1367 0
2058 -700 0
-1772 158 0
1035 1716 0
303 90 0
1983 -1903 0
-2138 331 0
583 1631 0
-826 -1369 0
1839 2214 0
699 78 0
2098 85 0
1730 -1163 0
-1149 1144 0
-56 106 0
1017 -32 0
2049 1507 0
1473 -170 0
-1924 -945 0
-766 -139 0
1716 605 0
1119 -1404 0
2231 1732 0
636 -2054 0
1236 500 0
2051 -1320 0
-356 1055 0
-1408 1741 0
-1099 -1152 0
-258 37 0
-1175 -640 0
577 525 0
-1212 1592 0
1988 508 0
-1261 -1475 0
797 -1520 0
-1617 1282 0
915 1721 0
-601 -168 0
1610 -1589 0
753 -480 0
-1492 138 0
1695 -2137 0
75 -128 0
-2062 -1256 0
-2274 -987 0
525 -2186 0
-356 2102 0
-1818 242 0
1931 -191 0
2077 851 0
-743 -800 0
2148 -1417 0
1811 1591 0
-197 933 0
1336 -879 0
-1710 -1873 0
-1867 -1335 0
-2024 1984 0
-1247 2302 0
-1171 -2113 0
1760 -737 0
770 -2234 0
-1486 -49 0
154 -716 0
1242 408 0
2257 -1246 0
-1041 -897 0
-1036 -1288 0
-76 739 0
-1411 15 0
142 48 0
1500 1558 0
-323 125 0
-1015 -1951 0
73 263 0
-891 -1875 0
1988 1535 0
2189 -2102 0
1076 -781 0
1242 1133 0
-471 -1757 0
-1310 -2014 0
2195 -1387 0
650 -253 0
-396 -1936 0
43 655 0
1469 -2112 0
-1082 2214 0
2230 1178 0
-180 971 0
-518 -339 0
1602 -1408 0
1986 1244 0
288 799 0
959 1647 0
1483 1015 0
-389 -1987 0
838 2230 0
1530 -1916 0
-594 920 0
1688 2298 0
-1046 1423 0
-1474 -626 0
590 -114 0
-193 1427 0
-715 -1202 0
1066 1725 0
-2041 1215 0
-612 1463 0
1504 98 0
-529 -1789 0
-563 -1586 0
849 -765 0
-2049 326 0
-2267 -799 0
1801 2243 0
992 -967 0
-1867 1265 0
-974 -2228 0
70 1191 0
1301 1089 0
2088 1765 0
-713 -259 0
-146 1393 0
-49 -1956 0
2075 1798 0
-845 -325 0
-2123 454 0
-2005 1196 0
-1622 1954 0
2145 1638 0
-1500 922 0
2121 968 0
792 -2299 0
-2302 -1893 0
548 302 0
-986 719 0
-1830 -1136 0
-1871 -1424 0
111 -568 0
1961 -385 0
-245 -271 0
1781 -374 0
1089 -2074 0
-1210 127 0
-1760 -1940 0
1056 -2157 0
349 1445 0
2091 -1654 0
-1847 1959 0
-74 1876 0
-42 -2037 0
-779 -1807 0
-1385 323 0
-420 -755 0
-1714 395 0
1735 -1357 0
107 1382 0
887 621 0
692 -701 0
-1223 -932 0
1690 -168 0
1231 -132 0
1393 1083 0
189 2261 0
516 181 0
1822 1927 0
1919 -1789 0
-1331 -1365 0
688 -431 0
-989 -3 0
2020 -1606 0
-260 78 0
99 536 0
1956 1377 0
996 1656 0
-827 -2210 0
1306 1259 0
259 1134 0
-2294 189 0
-2198 1126 0
-1257 -1254 0
-381 2184 0
181 -1445 0
-2194 1722 0
862 351 0
402 117 0
-1781 619 0
918 2269 0
98 -1192 0
1384 -2067 0
42 214 0
-90 -2272 0
1395 -2244 0
-1026 203 0
536 -1700 0
2277 1541 0
967 -1168 0
-2029 -1429 0
-1574 2132 0
-1847 820 0
1652 -1606 0
-2147 1941 0
-1125 1680 0
-2126 2246 0
-1886 -1355 0
163 -28 0
-730 1980 0
739 -37 0
-2075 -2304 0
-2081 -1959 0
2175 -863 0
1792 -1588 0
-1518 -137 0
1132 1072 0
-1485 604 0
421 -261 0
-1239 1276 0
403 -1528 0
-561 -844 0
-658 -967 0
1733 -1399 0
-1584 223 0
-152 95 0
-1715 717 0
-1086 -370 0
1230 -967 0
-1224 -1614 0
-576 -1677 0
-1380 775 0
-695 281 0
1698 1412 0
-1189 -778 0
-1380 1689 0
-2265 2244 0
155 985 0
-2061 -561 0
-1051 -1774 0
1432 -1829 0
420 -359 0
-983 -1843 0
-923 105 0
847 -503 0
1160 769 0
2269 -642 0
-2281 2204 0
-783 -883 0
470 -1823 0
-676 1229 0
711 -172 0
942 1788 0
283 1513 0
1952 2091 0
1685 -1015 0
-148 -1982 0
-965 -760 0
-738 -431 0
886 -1047 0
1570 -69 0
83 -2112 0
-630 218 0
1637 -1097 0
1343 -1171 0
-1315 2189 0
1163 -10 0
735 -1185 0
-374 121 0
-678 1210 0
2250 1473 0
-657 1122 0
1748 -1800 0
649 1271 0
714 -1110 0
2251 366 0
1283 1399 0
1917 1998 0
-1140 257 0
2153 1782 0
-1906 2136 0
-2106 -630 0
-1972 2047 0
457 2215 0
-1226 -813 0
978 -40 0
-13 2291 0
-180 -1479 0
1521 -654 0
-440 1423 0
-1210 -1529 0
-1550 -1657 0
-906 -327 0
1358 1396 0
758 -1192 0
470 -904 0
594 496 0
-428 -219 0
-285 -437 0
2115 65 0
2061 326 0
-2276 -557 0
-1967 -317 0
1053 -307 0
-380 -2286 0
1931 -184 0
2274 -1752 0
-1665 -1945 0
1455 -400 0
-787 43 0
1586 -779 0
-1192 -1826 0
136 -1892 0
1125 1624 0
-1877 496 0
-133 -784 0
172 960 0
-977 -304 0
372 -1585 0
1303 286 0
478 1724 0
277 -1518 0
-1313 -1020 0
714 1255 0
1447 1043 0
-1447 692 0
-886 -321 0
-64 1813 0
1629 1305 0
-1967 191 0
-103 2121 0
-1751 -80 0
1526 584 0
1695 -2138 0
-1240 1969 0
972 -1942 0
-235 -869 0
2285 -1260 0
1602 1703 0
251 1207 0
936 -1436 0
-1425 651 0
-2087 531 0
-1271 801 0
1292 1453 0
-147 827 0
-990 2028 0
11 -397 0
1243 -1036 0
-917 -929 0
821 141 0
866 -2120 0
-436 2006 0
-1010 1620 0
1410 162 0
213 -818 0
-602 466 0
663 2066 0
1519 492 0
2150 728 0
1905 1763 0
-96 -2301 0
2290 1243 0
-38 -1551 0
1208 457 0
-1973 -2079 0
-230 -1081 0
-1127 441 0
-1765 -1454 0
-1902 -2219 0
-248 -2043 0
1032 819 0
1198 1551 0
282 -1893 0
298 183 0
-1585 145 0
-1855 461 0
930 -307 0
-1486 212 0
1006 -128 0
-1607 1575 0
1627 -1063 0
-1976 2251 0
-2004 1885 0
-1107 -218 0
-1092 -1737 0
1574 410 0
1509 349 0
-2244 -429 0
-500 -832 0
469 -282 0
574 -1791 0
604 -1717 0
-2179 -1181 0
1197 -1950 0
1412 428 0
1661 1200 0
-762 -538 0
512 538 0
993 -1199 0
2159 1638 0
-763 -1394 0
38 -1603 0
1784 -1223 0
1432 859 0
1318 -895 0
-1084 -1505 0
-102 -487 0
1807 1755 0
-2142 -1727 0
-1662 1046 0
-475 368 0
856 379 0
587 -800 0
1985 75 0
732 1534 0
904 536 0
-184 -1480 0
1293 -1809 0
-1407 -164 0
-1706 276 0
-1677 886 0
-1755 395 0
-2065 -1618 0
-1932 -1892 0
-1648 1915 0
-328 -1267 0
-2125 1090 0
534 -656 0
1961 -448 0
-2274 -774 0
-1943 -1377 0
2285 -831 0
2232 322 0
-1965 169 0
-1455 2180 0
-372 1350 0
2222 -1879 0
-992 362 0
-1383 -2029 0
2055 1610 0
1983 1469 0
550 -743 0
-1290 5 0
-139 1799 0
443 -394 0
1859 -1074 0
-744 -1245 0
-111 2068 0
-729 -293 0
1166 638 0
1763 -1270 0
-2165 -2295 0
1670 1437 0
2039 -753 0
-1950 1477 0
1741 1044 0
-1363 195 0
266 1319 0
2098 -2206 0
-1694 1965 0
-465 -390 0
-12 -985 0
668 1054 0
2148 -413 0
-2225 -2127 0
1499 275 0
482 992 0
-2080 769 0
1911 -319 0
1274 -1474 0
1990 1531 0
1380 -2257 0
1253 1186 0
252 1891 0
1976 -354 0
880 -1613 0
1986 -609 0
470 2045 0
-196 159 0
849 965 0
1248 -1889 0
1957 1617 0
1043 1065 0
-921 -180 0
995 -2276 0
1294 -524 0
-1245 585 0
698 -1224 0
-685 877 0
-414 -265 0
1829 773 0
1242 1574 0
1747 -802 0
-1387 -9 0
-626 -2217 0
-1669 -2016 0
695 -1151 0
-637 -1181 0
-2303 -1860 0
-1449 -1830 0
860 -86 0
463 1132 0
-17 -190 0
-778 836 0
-457 -664 0
-2063 1304 0
775 1745 0
2013 -613 0
-857 1496 0
-345 -1908 0
590 -1831 0
2113 1141 0
-294 -430 0
-963 -1108 0
2263 1529 0
1027 -1381 0
1927 -1004 0
-721 1897 0
495 879 0
887 -431 0
923 2013 0
-527 -1912 0
-2121 -1020 0
2209 -2249 0
-551 1628 0
464 -1191 0
-967 2259 0
-2005 208 0
1926 -1478 0
1346 -806 0
-1348 -2088 0
246 2151 0
645 1488 0
1555 -1322 0
-1426 706 0
41 1638 0
1227 2137 0
1803 -656 0
-2144 -2034 0
-655 1195 0
-344 -474 0
-42 1309 0
417 1905 0
-2266 1711 0
-1705 269 0
-1841 654 0
1382 -136 0
-436 2203 0
1256 1114 0
-607 -1378 0
-999 -751 0
2136 -1889 0
1783 -1549 0
-392 -110 0
-560 -934 0
-1088 -1946 0
1671 -108 0
-2156 -1865 0
-164 2295 0
-1247 -762 0
2210 1371 0
386 -22 0
259 2271 0
-2122 1288 0
-873 138 0
340 -1847 0
195 192 0
-1161 792 0
2025 -1585 0
-110 -356 0
2204 908 0
-1616 63 0
-2225 1212 0
-835 -1091 0
1633 -2008 0
-730 -1014 0
-2018 -1328 0
1931 1255 0
-2146 2286 0
-1363 -1470 0
1380 -1367 0
468 -544 0
-448 1824 0
2255 -1696 0
1215 -1407 0
-811 1102 0
-2194 1926 0
584 193 0
-245 -612 0
-1275 -1336 0
1403 761 0
-1210 -226 0
-698 1762 0
-1894 -526 0
-63 572 0
-108 -232 0
-650 -1052 0
-1731 95 0
2171 -1505 0
412 289 0
-766 -230 0
-2179 186 0
-2249 -1906 0
1159 434 0
203 667 0
-1403 1053 0
1368 -284 0
-1861 1420 0
-1232 -82 0
274 2218 0
1282 1169 0
-976 -2248 0
-1710 -726 0
-1342 -1749 0
-982 918 0
-45 1447 0
-591 1450 0
2222 1152 0
-645 1419 0
-1500 -982 0
-1131 855 0
478 1749 0
486 -2241 0
-226 1468 0
1415 1833 0
176 -363 0
-2291 -1807 0
-699 -2135 0
919 -886 0
1578 652 0
481 2105 0
-1234 -1486 0
21 1920 0
-1766 -1849 0
-871 2163 0
212 -391 0
301 -2104 0
1825 -324 0
-2282 -129 0
-865 -1426 0
246 1679 0
528 211 0
-1873 -703 0
401 -426 0
1410 2078 0
-1373 401 0
-1774 638 0
169 842 0
1397 -441 0
706 -1110 0
-2011 -781 0
1447 751 0
-1730 1385 0
1615 784 0
581 -1571 0
1561 110 0
-1127 1669 0
-1488 -53 0
1974 1540 0
570 385 0
-1417 1029 0
-770 -192 0
-374 -1782 0
-1026 262 0
-237 289 0
-2298 1802 0
-1558 459 0
1298 2169 0
-893 -710 0
1158 2209 0
-1523 -200 0
661 -2039 0
1524 2273 0
-759 2050 0
1442 -1611 0
916 -1646 0
1051 -290 0
-1729 -1461 0
-1159 -1285 0
-387 1338 0
1307 -1896 0
-2077 1303 0
-1808 -876 0
-6 191 0
1483 1695 0
998 1791 0
-256 -2099 0
-2204 -2081 0
2051 -1522 0
-1660 -480 0
-1014 -527 0
87 -1456 0
-1555 -873 0
283 245 0
1986 55 0
-112 803 0
-2003 1264 0
995 -2164 0
1696 -2034 0
-1941 452 0
-1348 -1297 0
-869 2176 0
283 1089 0
434 -1643 0
276 -1657 0
-2255 -1800 0
208 -779 0
79 -553 0
1318 709 0
-286 -1581 0
2192 -1084 0
1466 -433 0
1028 -1094 0
736 1860 0
-397 1051 0
-1874 2031 0
904 2044 0
1839 597 0
1279 -596 0
-1472 -338 0
1398 -143 0
-381 -1028 0
1029 -25 0
392 -1924 0
-503 -2039 0
-653 -1880 0
-17 922 0
47 -1106 0
-730 83 0
1988 -1167 0
522 -533 0
-521 983 0
-566 -1051 0
-1034 -1724 0
1991 527 0
1765 -2291 0
1876 -136 0
1314 1146 0
2059 273 0
1078 -1532 0
-1104 -1129 0
-62 329 0
-1491 266 0
-879 1985 0
766 1846 0
-2198 2117 0
-397 501 0
1534 1802 0
-2145 198 0
1517 1050 0
304 -1359 0
1770 -480 0
-386 395 0
-1736 732 0
1932 206 0
-1933 2243 0
897 -280 0
1187 1018 0
1979 1923 0
-1178 2234 0
1185 877 0
-1973 591 0
931 166 0
-1215 1056 0
1286 2124 0
1624 -328 0
-247 1349 0
-667 -1139 0
1147 608 0
1540 -1227 0
120 1222 0
-857 -1371 0
15 2206 0
635 -2229 0
-1052 -1978 0
-2143 -1130 0
1811 989 0
-2124 1178 0
869 1895 0
-1091 -1221 0
1999 -1526 0
1687 -1116 0
1462 1507 0
2119 1188 0
-1727 1455 0
1704 -382 0
2181 1555 0
-461 -265 0
-2090 1604 0
-1903 -229 0
462 1286 0
1168 -241 0
-630 -2300 0
-480 1697 0
2157 -108 0
-1658 1748 0
2204 -709 0
484 544 0
1984 -2166 0
-1841 -1513 0
2007 1871 0
-148 -1068 0
-2079 151 0
-2266 456 0
-2117 19 0
1602 -1588 0
-1113 922 0
1545 126 0
-1688 59 0
1481 1323 0
2022 -705 0
-1629 -715 0
-387 -2276 0
205 -1190 0
922 -429 0
373 271 0
1237 -453 0
-878 484 0
1561 1384 0
-289 -856 0
-252 1410 0
1230 -41 0
-2037 2205 0
1385 1765 0
-1723 435 0
270 -225 0
1148 -1767 0
-728 -566 0
2185 -1935 0
-85 1561 0
-2199 617 0
1108 1195 0
968 1447 0
549 -1956 0
-956 141 0
406 697 0
5 145 0
-930 1467 0
-948 -1370 0
145 1403 0
908 1373 0
-542 1149 0
1120 -623 0
-870 -1214 0
-1353 -629 0
-62 -794 0
-1715 2021 0
-1271 -1357 0
-2193 1147 0
677 1540 0
330 -1928 0
-742 -601 0
-1706 -1761 0
1222 -861 0
1149 -1899 0
-1464 -595 0
321 -191 0
-473 1194 0
1525 804 0
517 1582 0
2005 1148 0
-1176 2004 0
449 -1347 0
1327 -758 0
-20 1934 0
-2033 2166 0
640 1207 0
1155 -638 0
-504 2100 0
-1033 -317 0
1165 1272 0
-895 389 0
-1435 1302 0
-1342 426 0
1271 -2108 0
859 -1201 0
-1987 764 0
-1036 -196 0
-676 -495 0
-1847 -1821 0
-1283 591 0
1886 -418 0
867 -423 0
1429 483 0
-139 366 0
2254 322 0
1603 -1249 0
-1958 -1606 0
992 -375 0
-1549 -2201 0
-1510 -2216 0
824 -222 0
652 -1787 0
292 -533 0
-955 -1033 0
-50 2051 0
1885 -645 0
-1919 -802 0
-603 -1183 0
1535 726 0
2246 2201 0
-333 -2118 0
-324 -834 0
1929 2071 0
1006 485 0
-494 607 0
1469 -1146 0
-1475 -956 0
1401 466 0
-613 1754 0
-630 1026 0
1931 -1497 0
-1578 744 0
-1690 941 0
-366 -790 0
2165 -2057 0
1092 1912 0
-970 1916 0
-1255 -1627 0
-1523 1929 0
944 2258 0
2257 -237 0
-2223 -331 0
1290 1003 0
-2027 -863 0
1938 -298 0
1231 1713 0
1684 1124 0
-1584 1067 0
-57 -1127 0
-534 -734 0
-2190 1498 0
-629 1914 0
1569 -1383 0
-174 812 0
621 -1049 0
746 1646 0
427 -1911 0
-125 2174 0
-1880 1322 0
-1571 -1312 0
-1771 41 0
1098 -560 0
1796 1753 0
396 2069 0
523 -602 0
228 438 0
-1026 -1786 0
1912 2191 0
-737 -25 0
1114 -1518 0
786 2264 0
-1122 2067 0
45 -1130 0
-574 2286 0
-143 -607 0
-1064 1433 0
83 -1573 0
-879 -1755 0
-220 -971 0
-527 280 0
-63 214 0
965 1673 0
-239 1404 0
-2133 -171 0
583 -634 0
-692 -354 0
-1137 1304 0
2277 1093 0
427 849 0
2235 299 0
-767 -1334 0
-1835 469 0
1629 -1170 0
-264 -1617 0
-353 177 0
1049 2174 0
1739 1138 0
-411 2209 0
481 -1896 0
1 589 0
886 -232 0
1281 1792 0
1631 1438 0
2108 -1532 0
732 484 0
-1214 -2116 0
1032 952 0
501 -2087 0
254 440 0
867 -1315 0
2177 385 0
1078 1403 0
-1995 1283 0
-272 924 0
-1440 -2063 0
451 67 0
-1537 -1586 0
594 1140 0
1737 -1775 0
-723 -1173 0
1750 1032 0
-2045 -2092 0
1925 789 0
-1025 981 0
-1694 -127 0
-1515 550 0
-1996 1194 0
1584 -602 0
-1928 -136 0
1150 -291 0
550 -2057 0
-1449 -2156 0
1088 -1818 0
413 769 0
-102 -1313 0
-901 2299 0
-1600 2201 0
-112 59 0
-315 -1492 0
781 1046 0
-579 1035 0
-356 745 0
-291 1646 0
1679 -2049 0
1318 851 0
924 -1472 0
-1232 -1353 0
-678 -1523 0
223 -486 0
818 1303 0
2102 1535 0
-1819 -1794 0
362 -1480 0
-389 2037 0
-1556 -1501 0
489 2205 0
-1665 -517 0
-340 1938 0
2184 1325 0
-2206 -1700 0
1716 1040 0
2204 -300 0
683 1293 0
-1183 386 0
666 1420 0
799 -1841 0
834 -1885 0
-1667 121 0
-724 -23 0
364 1551 0
-1124 -82 0
1055 -433 0
-248 -1129 0
2011 -1994 0
463 -443 0
309 157 0
-1579 -556 0
1655 1898 0
113 -1852 0
1307 -1330 0
69 -164 0
-776 -1529 0
-1804 946 0
-1690 -306 0
-1732 1300 0
1983 1072 0
1484 -1700 0
1758 -746 0
-974 610 0
-1702 -2042 0
-40 2268 0
-853 -2274 0
-977 122 0
-1655 -807 0
-1008 -718 0
1187 1015 0
447 -2296 0
-294 -1057 0
411 -394 0
-1809 2208 0
1095 1287 0
-1369 -570 0
-567 -2003 0
678 1032 0
-1205 1418 0
-691 -929 0
1604 1545 0
-1114 -689 0
-1298 -988 0
1096 -165 0
1669 -1088 0
964 796 0
-915 48 0
-318 -1950 0
1122 -1502 0
1386 478 0
-1107 -107 0
-1972 1306 0
-1618 -894 0
1398 -1182 0
-448 -2201 0
1842 1054 0
-6 -1782 0
1404 141 0
1436 -1955 0
-572 -477 0
89 958 0
660 2116 0
526 -1462 0
-892 1882 0
-421 201 0
-304 -449 0
-1919 1834 0
-1224 960 0
-1567 711 0
1623 742 0
346 -1217 0
73 1170 0
634 2246 0
924 -1277 0
66 1685 0
-947 -1383 0
-1069 2041 0
-505 1557 0
-2050 1050 0
1687 691 0
-1144 -2262 0
4 -2147 0
1395 448 0
-2187 1811 0
-547 477 0
1775 820 0
-339 403 0
-62 918 0
1352 -1549 0
-1163 1589 0
1490 -294 0
19 1966 0
