c NF
p cnf 4020 7638
262 3504 0
689 -2611 0
-3728 -1890 0
-2787 -1424 0
-2074 347 0
-2909 -99 0
-3678 -181 0
3839 -3814 0
646 -2523 0
-2095 -3362 0
3056 985 0
1201 3861 0
-3042 -497 0
795 -2844 0
3875 3732 0
2338 3365 0
-2400 1960 0
-3139 1222 0
-1946 3488 0
-397 -2846 0
-3491 -1268 0
-530 -3685 0
-1 209 0
3145 3589 0
731 3240 0
-477 -1416 0
222 -2797 0
-1799 3679 0
2427 -3546 0
3425 -2442 0
2114 2855 0
-2979 -1214 0
-2934 -1060 0
3545 -386 0
-2469 2287 0
-2286 1032 0
2788 -1108 0
-3068 3116 0
-3075 3705 0
3083 3685 0
-3513 2814 0
488 -2612 0
-1827 2783 0
-1506 -629 0
1144 -360 0
2292 -14 0
3317 3931 0
253 -2719 0
3107 285 0
3494 -1255 0
-3625 1607 0
-412 330 0
458 -2940 0
-3770 -1684 0
2848 1379 0
253 3376 0
-1210 2368 0
-1147 125 0
2061 273 0
3486 -16 0
3516 -3600 0
-2714 1931 0
-295 3610 0
548 -1863 0
3439 -2177 0
2772 -2489 0
-3031 2144 0
2690 2401 0
2703 2202 0
-528 -712 0
2697 627 0
-713 1002 0
-2456 866 0
-3417 2466 0
987 -987 0
2032 -2 0
-1957 474 0
-1255 772 0
-504 -1438 0
918 -574 0
-2969 2984 0
2213 -1100 0
-433 -3309 0
-3093 -1221 0
-2265 -1897 0
-2873 -477 0
-16 -2868 0
3871 -2827 0
3343 -1250 0
3767 2837 0
1895 1240 0
1703 75 0
1037 1806 0
-1305 -472 0
-1459 3444 0
2582 -3812 0
3603 3402 0
1124 417 0
-2323 2983 0
-3004 3123 0
991 -3011 0
3344 -465 0
3253 3967 0
-2518 -1877 0
1488 -1347 0
-313 3292 0
-3974 -2627 0
1266 -2958 0
-3823 150 0
-3258 2505 0
-1359 -935 0
-694 2189 0
1309 3584 0
3496 1406 0
3842 3300 0
-458 2365 0
2017 519 0
-2860 -2258 0
-2036 3608 0
-3892 -3922 0
3531 -3183 0
-3398 -671 0
1130 -869 0
1094 2615 0
2937 2997 0
-189 -543 0
-1569 -256 0
-2514 -632 0
-1628 3160 0
1421 -3275 0
3452 1448 0
1489 2981 0
862 89 0
-2370 2760 0
2347 3133 0
-2779 1339 0
-3860 -1431 0
-912 -2182 0
-215 2029 0
2468 -810 0
466 3521 0
-3834 -1936 0
786 -2683 0
1392 1868 0
2069 -372 0
1711 2200 0
-1226 -1290 0
-806 2017 0
1084 1168 0
3771 -1041 0
-33 -3862 0
3827 -1929 0
3741 3559 0
-174 16 0
-3790 3482 0
1058 1732 0
-2738 -3685 0
2396 1228 0
-3385 -3992 0
3788 4014 0
-1057 -1622 0
-689 -3102 0
3687 -1123 0
-227 -2757 0
1303 -1760 0
1654 3433 0
-2426 3124 0
1790 -1248 0
-1709 -662 0
-3715 1223 0
589 2959 0
-2667 772 0
-1256 -2635 0
-845 245 0
1749 -737 0
-1673 -2316 0
-3624 -417 0
-203 393 0
1659 -1834 0
1326 142 0
-392 -2557 0
-2308 -1075 0
2280 -1243 0
-165 -2333 0
488 -2028 0
2386 3466 0
-1626 -1332 0
-2059 599 0
1450 1542 0
-156 -1239 0
-418 370 0
-710 -3849 0
-616 1611 0
-3682 -102 0
3877 911 0
-1876 3728 0
-2116 -3003 0
1465 -3748 0
-997 -3214 0
-956 3349 0
-2868 -85 0
-3397 1763 0
1118 -2266 0
1670 -2369 0
-832 -2936 0
3206 -2940 0
1960 2569 0
3680 2762 0
-1099 -2441 0
-2671 -2164 0
2128 2977 0
-2371 3906 0
-1211 3193 0
-345 474 0
2537 2008 0
2662 -3014 0
-1888 1553 0
-1525 1007 0
1729 -1118 0
-2895 999 0
-1191 2686 0
1904 1084 0
1948 -2508 0
1868 526 0
3244 -212 0
-3608 -1363 0
1322 1715 0
-3342 864 0
-3755 -196 0
1985 3997 0
3704 -2009 0
-1381 1127 0
3216 -1581 0
-1682 -2843 0
2137 -3910 0
2553 -3207 0
2123 -2682 0
1755 1895 0
-3205 853 0
-3141 -1267 0
-14 510 0
926 3760 0
-409 2362 0
683 -3526 0
2386 1306 0
-2904 261 0
-3290 2859 0
1039 2809 0
1037 2387 0
417 2149 0
-1560 -336 0
-1256 -2282 0
-160 -3022 0
-925 997 0
-2252 2917 0
3916 299 0
-3786 2083 0
3317 1445 0
-463 -1392 0
-1188 -3011 0
-2369 1493 0
-166 1078 0
-161 -3670 0
-1822 -3928 0
-3993 593 0
2590 56 0
-3861 -772 0
-1167 1426 0
-2027 736 0
290 988 0
1146 2381 0
1046 2821 0
1223 -3287 0
-2369 -1207 0
819 -2981 0
1990 3431 0
-2156 787 0
-1769 -892 0
-2205 1721 0
1158 -3887 0
-3713 468 0
3438 -3261 0
-295 593 0
-3035 -792 0
-707 3946 0
-2446 -3031 0
-878 3947 0
841 -1061 0
-3197 -1704 0
1652 3126 0
229 1221 0
-3294 -2210 0
-1392 2431 0
1902 3890 0
-3859 3781 0
1202 -1568 0
-511 190 0
-1241 -363 0
722 -994 0
2240 699 0
1796 -269 0
2661 179 0
-3261 241 0
-121 -786 0
-2122 -2012 0
2218 3926 0
3413 -1418 0
-1495 1077 0
-2376 -145 0
67 1410 0
1978 -1246 0
-416 152 0
-196 2799 0
1831 3595 0
-347 3587 0
3947 388 0
1479 -2860 0
1477 684 0
3498 3716 0
-3427 -4010 0
2892 1406 0
-3865 -2150 0
2925 1895 0
-904 -1949 0
-771 468 0
3510 -48 0
-2384 162 0
476 -2331 0
1552 -1534 0
3773 -2144 0
2303 -2818 0
1714 -3942 0
2945 1658 0
3262 683 0
449 -1356 0
-867 -216 0
-638 521 0
-1911 3297 0
-3326 -1818 0
-415 -3248 0
-476 -935 0
-3238 -455 0
576 -1093 0
366 -2548 0
3941 3618 0
3952 657 0
-977 2015 0
-2193 -3633 0
3280 1591 0
2519 -1793 0
-460 2390 0
2946 1393 0
2277 -1165 0
1943 3322 0
393 1174 0
-2796 -621 0
3016 3768 0
2576 3615 0
-786 663 0
1857 -1089 0
-3596 -2336 0
-1562 -2011 0
-1578 -3937 0
3342 1833 0
-2171 -2627 0
1465 3432 0
3956 3437 0
1185 2929 0
-130 -1721 0
58 3740 0
-3361 -3677 0
3942 -902 0
2747 -3218 0
1986 -933 0
-3479 -3450 0
-487 -439 0
2708 473 0
3530 2986 0
-654 3149 0
-3910 3328 0
1730 1608 0
3492 -3508 0
-1521 1536 0
-3808 355 0
2708 -2708 0
1375 -3486 0
1869 -1555 0
3657 -2760 0
1869 3089 0
-27 743 0
3131 -96 0
-3519 -564 0
-2620 -3883 0
2134 1792 0
450 3226 0
1695 2355 0
3669 -3488 0
-279 -1526 0
495 -348 0
-606 2915 0
1605 2000 0
2297 2196 0
-300 519 0
69 -2134 0
-724 -198 0
774 1542 0
-2697 -258 0
3934 -1464 0
137 -1773 0
-2854 -4002 0
-29 -2725 0
2987 -1650 0
-3865 -476 0
-712 3584 0
-2979 -1028 0
1445 3 0
1546 1704 0
-1322 -609 0
-1451 -3057 0
-2071 -773 0
1309 3211 0
-1283 3489 0
-461 -3664 0
2126 -3233 0
3814 -3411 0
-3591 -2245 0
-1951 1019 0
-1276 -1215 0
-1430 3857 0
1695 1293 0
-1827 3183 0
-2634 -1202 0
2811 -524 0
-1306 1405 0
-1611 -1509 0
826 1909 0
-3483 -2858 0
-3309 -1123 0
2943 -2957 0
2809 -2973 0
-489 3359 0
3985 -1611 0
183 -2105 0
473 -287 0
-3441 -1735 0
-183 -375 0
-2436 -3128 0
1974 -3399 0
-1023 -3252 0
2412 3121 0
272 -1507 0
-2060 2361 0
1730 -2343 0
1279 1516 0
-660 3646 0
-3959 -1356 0
464 1174 0
3716 -2655 0
2409 2235 0
1301 -3146 0
-3941 -2285 0
-407 -1981 0
3375 3683 0
662 3374 0
-3265 -436 0
93 1613 0
2608 3421 0
828 2559 0
2867 -1176 0
-910 -3078 0
3593 3038 0
2405 547 0
880 2865 0
-7 3392 0
2987 2784 0
-3411 1724 0
3209 -2452 0
1024 -704 0
-3624 3131 0
-3818 393 0
-2321 1939 0
2263 -1599 0
-594 -437 0
3617 1921 0
-2171 -3531 0
-410 1445 0
-3381 -3293 0
-1431 2387 0
-1656 172 0
-1384 -3245 0
3196 2776 0
-1085 -2921 0
-2886 -3227 0
2011 -3914 0
2252 3239 0
-832 2642 0
581 1815 0
-3713 -2775 0
-541 602 0
3795 30 0
2657 3016 0
-2196 -2836 0
2153 -3996 0
3772 -606 0
-2848 -478 0
-3463 -984 0
2727 -1889 0
-2151 -2840 0
1769 -3339 0
-710 -3968 0
-2590 -1868 0
1308 154 0
-3781 -3242 0
2362 2740 0
-251 1980 0
1163 1742 0
613 3073 0
2495 -553 0
-2687 -1654 0
-39 -2258 0
482 292 0
2299 106 0
3563 -2770 0
-2722 3601 0
1996 -933 0
-2512 -3775 0
2250 -3429 0
2720 -823 0
3131 845 0
3432 2908 0
-1629 -3067 0
1064 -1244 0
-679 3482 0
1919 -2711 0
2843 2981 0
-1079 -105 0
-2710 -1578 0
1522 -533 0
-3552 283 0
-1841 -2451 0
-1220 -3964 0
2199 949 0
1060 2520 0
-839 -2372 0
-1668 -2834 0
3246 -2332 0
3504 -3988 0
1659 -2160 0
-1096 2555 0
1882 -90 0
2829 3020 0
3254 577 0
-3755 1386 0
1696 395 0
1081 -2490 0
822 1638 0
62 -249 0
-2154 -1197 0
1943 -2569 0
2855 -559 0
-2028 -3851 0
2088 2556 0
-3427 -788 0
1935 3622 0
-1575 -3358 0
-307 2697 0
-2349 2948 0
2086 -3370 0
2403 -2148 0
2131 3231 0
-2781 -1653 0
2867 2362 0
140 3158 0
-3993 -1319 0
2466 -99 0
-2831 3092 0
3906 3295 0
-2005 -1470 0
-2645 -2426 0
-431 1811 0
1712 -1899 0
-1927 -279 0
-2383 1924 0
-878 3975 0
-2155 -3794 0
897 3402 0
-3762 -2075 0
3442 3813 0
-360 2223 0
-1381 -2139 0
99 2592 0
3638 2824 0
2072 -1529 0
1940 -2435 0
-2441 1695 0
922 2034 0
-1856 -1903 0
-690 2646 0
1665 -1765 0
-3788 -1709 0
2401 2881 0
3906 -2290 0
-1219 -3860 0
1055 -30 0
1608 -3181 0
-3000 2752 0
2229 -954 0
4012 3611 0
-3887 1119 0
-1907 2967 0
-1586 110 0
3580 -2043 0
126 -1157 0
-1239 2161 0
-494 1892 0
3436 -663 0
2287 1094 0
-3156 -1033 0
352 827 0
3580 -1663 0
313 2511 0
-3508 3798 0
-1331 1153 0
-1905 -3707 0
-2495 38 0
-943 -2108 0
922 -1769 0
-2312 -3322 0
-2988 -994 0
965 -1417 0
114 -2768 0
538 -3432 0
-2652 -3148 0
2021 74 0
-3855 1129 0
2630 -1249 0
-121 -2226 0
4011 2429 0
-1481 2360 0
-3695 -2310 0
-906 3742 0
187 3645 0
-2119 -1051 0
-2782 -3388 0
-2329 -192 0
3795 -2961 0
2963 -2539 0
-557 2819 0
489 3998 0
2405 1130 0
3790 -2527 0
-257 1038 0
1184 -1561 0
-1011 -67 0
-2682 -2111 0
2460 -2913 0
2536 -3483 0
1817 -602 0
-3774 -2884 0
-3804 -2099 0
2231 -3082 0
500 1327 0
433 -762 0
1853 -2403 0
226 2709 0
2934 132 0
1517 559 0
-1851 -1041 0
1742 834 0
-3690 -3639 0
-3082 917 0
3383 -2357 0
-961 939 0
1530 2527 0
2287 2479 0
-2032 -1224 0
3125 2309 0
-174 2872 0
-1390 -732 0
3806 488 0
1939 1398 0
-1507 2158 0
-1143 138 0
-927 3558 0
-587 3392 0
-2236 -3258 0
1877 1112 0
-2816 -1091 0
-1366 3022 0
-359 -1317 0
512 -184 0
-2211 1013 0
260 -1246 0
118 1960 0
-3276 1508 0
-3602 2302 0
-3049 -348 0
1736 1974 0
1655 2772 0
3568 -3662 0
2348 -3190 0
125 -706 0
-1105 -1290 0
-3169 770 0
-1383 -2634 0
-2973 -2870 0
-812 1861 0
1862 2144 0
2529 -1388 0
2397 1262 0
-3101 1915 0
-606 -2978 0
3662 798 0
-1899 668 0
-2349 666 0
2920 1327 0
967 -2298 0
-1108 2206 0
1739 2415 0
1558 -262 0
-993 -587 0
165 -154 0
1878 379 0
2476 2659 0
3978 -2985 0
-178 3239 0
-2084 2557 0
1329 3319 0
1743 3950 0
-3600 2169 0
-3218 -2458 0
450 -149 0
244 -3405 0
-3705 -1499 0
1869 -800 0
2955 -1776 0
-3162 277 0
3259 -2906 0
-2444 -7 0
45 -2562 0
3130 3133 0
-2945 -953 0
1645 -2314 0
3582 420 0
811 2093 0
-2090 -1508 0
-784 81 0
-2563 -3614 0
-3865 -3814 0
304 1686 0
936 1074 0
1859 -2012 0
-482 -1020 0
-380 -1755 0
3728 2910 0
1913 1454 0
-3974 -1292 0
-3972 3381 0
2287 283 0
-3470 -765 0
489 -1235 0
3915 -3991 0
-3469 1390 0
461 100 0
393 -1847 0
-1655 1717 0
2877 -2353 0
2256 -304 0
-841 -2483 0
1649 -855 0
1800 -2138 0
-124 -2625 0
-2732 -2283 0
-3846 -2420 0
1279 3060 0
2005 3553 0
747 915 0
491 238 0
3895 1632 0
-2146 -3690 0
-2376 -1224 0
-763 -842 0
-1931 -3041 0
-2583 3898 0
3722 -2699 0
1274 -2249 0
-753 -1239 0
3345 -3956 0
3854 3460 0
3924 1163 0
-2353 -131 0
-3578 -1089 0
-1659 -1736 0
-2016 -3703 0
1175 376 0
-1675 -485 0
3913 -2168 0
1064 662 0
-3116 -406 0
3577 -1706 0
-158 2713 0
3127 -1082 0
-1618 2120 0
1153 -1450 0
-2563 722 0
-953 -1600 0
-3313 -1377 0
-2854 2364 0
1650 405 0
-3505 905 0
2145 -1306 0
-1003 -1448 0
1080 -911 0
1531 -753 0
-548 2079 0
-1438 -339 0
2128 -2037 0
1849 175 0
1793 3020 0
4004 1552 0
3614 2633 0
-2032 -2692 0
319 1487 0
-3739 1671 0
-102 -3735 0
-3963 2162 0
-3770 126 0
3383 967 0
2547 1616 0
-3283 2589 0
3403 1546 0
1493 211 0
3683 2482 0
3986 1579 0
-3479 -455 0
-3914 1099 0
1873 -2639 0
657 -2175 0
2298 -1917 0
-2166 -3129 0
354 1732 0
-2742 -3740 0
3168 1229 0
2558 -3040 0
2814 2527 0
3329 -1032 0
980 -1984 0
-98 1393 0
331 1642 0
1403 769 0
1696 -3409 0
-1046 3606 0
-1774 3 0
-639 523 0
-2888 -3123 0
-3195 -1960 0
1328 -2929 0
-2907 285 0
-2471 3080 0
20 3416 0
-2357 1053 0
1113 1452 0
-1382 2340 0
1708 -1781 0
-3790 3470 0
-3176 -2414 0
-1288 -821 0
1339 1876 0
-2485 3221 0
-3387 -587 0
-3105 -3920 0
-397 -3486 0
1193 2020 0
-1151 3754 0
1536 804 0
2045 1006 0
-3957 -1225 0
1773 -332 0
-1912 3405 0
1979 -1512 0
3904 2530 0
-493 409 0
2123 3245 0
-3749 -1917 0
-970 -2417 0
-2441 2042 0
2832 -3880 0
23 1245 0
1770 -1206 0
2196 -3035 0
2778 3220 0
-2232 689 0
291 -646 0
-3043 1046 0
593 -371 0
-2630 3365 0
-421 689 0
-2845 3531 0
3122 2505 0
-374 -2251 0
3168 103 0
-122 -1707 0
2148 1200 0
-2377 3828 0
3070 816 0
383 3972 0
1097 -2566 0
3654 -3897 0
-1134 -708 0
-54 3858 0
939 -3308 0
-394 3161 0
1222 3803 0
890 1521 0
-3591 -3031 0
-1709 -158 0
-3707 -2556 0
-2834 -2639 0
3785 542 0
2423 751 0
1577 -2631 0
-60 -3040 0
406 2272 0
1738 -1329 0
2623 2950 0
-4010 2076 0
844 1904 0
2392 -1435 0
-1121 -3842 0
816 3592 0
3692 -2096 0
331 956 0
2063 2073 0
-2406 682 0
-3079 -2879 0
-3767 988 0
-1351 3119 0
-3639 -2151 0
-2329 2570 0
-3469 -1479 0
-1312 355 0
1931 -1705 0
-655 -2100 0
473 -358 0
383 -695 0
60 -3187 0
1195 2991 0
1630 -2493 0
-1134 2042 0
-3090 2186 0
-3980 -66 0
2959 -1787 0
-1660 118 0
-2222 -3832 0
2747 2467 0
-2535 -2139 0
-731 2590 0
-2506 -489 0
-3340 2339 0
1737 -2753 0
2649 -2568 0
-721 -3142 0
-1476 794 0
-1676 -3018 0
-1330 -655 0
-1205 -1761 0
401 -930 0
3698 -591 0
-2966 -2900 0
1814 -1932 0
2654 -3097 0
3004 1085 0
-2149 -3455 0
-1270 -2209 0
-2040 -2117 0
-616 774 0
2922 936 0
-1802 206 0
2370 -2616 0
3345 3552 0
2807 -626 0
2335 -1031 0
-2022 -3110 0
-333 677 0
-319 -2725 0
-3713 2525 0
1400 -457 0
2421 -2600 0
300 3907 0
-490 -3307 0
-3351 -206 0
927 2910 0
3497 -3627 0
-1963 1315 0
1126 -2104 0
-271 -2639 0
-1732 -3866 0
-3324 -2506 0
3222 -2192 0
-2535 -1290 0
2734 -3662 0
-335 128 0
-3994 -2648 0
-2584 -1010 0
-1860 -1028 0
-196 -2969 0
516 1947 0
2284 3600 0
-3937 773 0
-907 877 0
3606 2892 0
-3509 -444 0
-3355 -3189 0
-1788 1879 0
-2329 -928 0
3877 2350 0
312 3594 0
3132 1253 0
1918 2405 0
-674 277 0
-3839 2178 0
-1581 1161 0
-1147 -1450 0
-3634 2272 0
3468 -2935 0
-16 895 0
1684 2273 0
-1068 527 0
-3236 -1100 0
2347 1472 0
-1149 226 0
-482 1615 0
2218 3728 0
-27 -550 0
2642 -3426 0
-3881 2409 0
-3653 1193 0
869 -2516 0
2596 2901 0
3289 -3515 0
2376 -814 0
2241 3068 0
1618 -2921 0
-3915 1571 0
-3784 2232 0
-3651 -2999 0
-2103 -2589 0
-2319 3174 0
-588 829 0
853 1187 0
-2614 3684 0
230 68 0
151 -3621 0
3008 -1429 0
447 -3970 0
3744 2085 0
-3094 1505 0
1982 -401 0
-1043 -3013 0
-3390 -1679 0
-2094 -1598 0
1822 -3241 0
-2828 559 0
-1538 3863 0
3220 3575 0
309 -1748 0
2522 1794 0
-1839 3950 0
2334 -3467 0
1787 -822 0
-980 2777 0
-789 -3148 0
1801 -3255 0
431 -1896 0
1155 -3488 0
-2156 1990 0
-3255 -2538 0
3880 3462 0
56 531 0
-247 685 0
1056 2068 0
-2547 -425 0
377 1461 0
-44 -2782 0
-1270 3904 0
-164 -745 0
-3394 -3302 0
-533 -1788 0
2415 1160 0
-346 -2888 0
2595 -1573 0
997 2432 0
-2201 -2426 0
-144 602 0
-2867 673 0
-1785 2273 0
-120 3716 0
3365 3527 0
1650 2211 0
2302 3967 0
-1335 300 0
-3941 -2640 0
-2220 3930 0
-3136 -1133 0
-2938 -586 0
-2611 -1429 0
1333 -3171 0
148 629 0
1685 1619 0
-637 -3707 0
547 3784 0
-621 -3668 0
1579 -406 0
-2353 -1077 0
-3057 -2965 0
2120 764 0
-2039 -2612 0
-457 1468 0
-553 1302 0
1766 -2065 0
-902 2393 0
2112 -3483 0
-78 3369 0
1698 -1645 0
-1683 637 0
-3448 -872 0
2199 -3617 0
3959 -3567 0
2992 -1874 0
-2376 3405 0
779 -3287 0
-731 -3092 0
3280 1768 0
1567 1733 0
-1065 -1681 0
2480 2492 0
3784 594 0
-185 -1353 0
3527 -1911 0
-3935 97 0
-1183 -2016 0
-2309 -115 0
3854 -2344 0
-3064 3193 0
3631 -3373 0
3298 3773 0
-2861 -2524 0
1343 -2512 0
-871 3954 0
-3067 -1700 0
146 -2868 0
-3731 1620 0
2162 -770 0
-1969 -1252 0
-3406 -3788 0
-2681 -1581 0
796 -3378 0
532 -2447 0
2202 89 0
744 1308 0
1865 -2012 0
-1501 731 0
166 648 0
-772 3722 0
-3519 3772 0
-2614 -1508 0
1207 -2165 0
-322 -529 0
373 -3523 0
2097 -1433 0
3530 1782 0
-934 -3764 0
-2688 -3044 0
-376 377 0
545 -1808 0
474 -2897 0
-1342 -402 0
-654 -1848 0
-3301 1035 0
-3622 -2356 0
-360 -1509 0
-1543 -3914 0
3635 -2985 0
1849 -2311 0
-3719 38 0
4019 -2519 0
-2689 3341 0
-713 -3835 0
-1828 -2171 0
1451 -3824 0
-1872 458 0
1905 2758 0
-1231 -2371 0
53 1852 0
3913 -1262 0
-2142 354 0
-2595 -3765 0
-2409 -1341 0
-629 -436 0
-1981 1818 0
2346 674 0
-301 -1782 0
-1399 -1818 0
-740 -3819 0
-2443 3212 0
-3054 3706 0
-382 -2107 0
1699 -2570 0
-3404 3300 0
-1484 -3314 0
1540 318 0
-91 -2330 0
2129 217 0
-1081 -1051 0
3581 3926 0
-1551 1424 0
-3720 784 0
1382 2835 0
2526 -1533 0
3671 -2864 0
1528 -2776 0
1892 -2295 0
1117 1058 0
608 -1384 0
-3773 -3148 0
2674 -1119 0
-878 1913 0
-952 -3782 0
2133 -173 0
1150 2277 0
3363 -3397 0
-3006 1531 0
-2313 -911 0
-744 913 0
1990 3525 0
3649 -1529 0
1730 2315 0
-3413 1658 0
3325 -2488 0
-391 1935 0
-3704 1948 0
-1129 2778 0
133 3862 0
-704 -2935 0
-3358 -3860 0
1666 -3961 0
932 -2508 0
-444 3667 0
-1549 -66 0
1755 -469 0
-391 3298 0
-3107 -2334 0
-2265 2859 0
3708 3148 0
-3099 3445 0
3207 2135 0
3740 956 0
3006 484 0
2374 -1612 0
1947 2808 0
-2319 1457 0
1219 -3291 0
2015 3143 0
172 2406 0
3253 -3482 0
2061 -1133 0
590 3874 0
2463 -671 0
-3625 1993 0
274 -2746 0
873 1291 0
-3483 713 0
-3042 548 0
-1522 -2409 0
-458 -3524 0
2651 2772 0
1321 2651 0
1339 2841 0
3883 -315 0
1089 -510 0
3488 3721 0
-10 2808 0
-3407 -1567 0
579 3872 0
-2562 3452 0
2279 3829 0
-209 -2964 0
-60 2953 0
2357 -945 0
-2731 -2775 0
910 1690 0
-3775 2308 0
-649 1018 0
-3812 -455 0
3376 2375 0
2997 -910 0
-1972 -599 0
3923 -2460 0
-2768 2227 0
1186 3039 0
253 -3650 0
-459 -2379 0
3884 1272 0
2222 -3437 0
3609 2433 0
236 2654 0
3482 2706 0
2124 -546 0
3393 1052 0
-2533 -1961 0
3435 3852 0
-994 -469 0
-1779 -1785 0
2337 -2941 0
-1122 2695 0
-41 -809 0
-3409 2106 0
-1188 2835 0
-4006 2004 0
1930 880 0
3311 -95 0
-844 -381 0
1585 1630 0
3769 3932 0
-606 3100 0
3945 -1522 0
2227 -1866 0
3092 -681 0
114 -3074 0
3999 -2330 0
2263 -2086 0
-2022 -1802 0
-660 1689 0
2108 1148 0
-3919 1211 0
-335 3645 0
1025 -851 0
1638 -252 0
-3962 -879 0
803 1783 0
-1766 -3010 0
2783 3481 0
172 -3167 0
-2336 3415 0
-818 -1571 0
-2781 521 0
-1068 -3117 0
-3366 -1317 0
301 639 0
-3908 -1391 0
-53 -2708 0
3913 -2113 0
820 1473 0
-1748 -1876 0
1728 -3717 0
-439 -934 0
3500 -3698 0
-3258 2966 0
314 623 0
3784 1297 0
-3757 -2964 0
683 -385 0
2164 3023 0
-1556 3766 0
-90 2123 0
1154 -2618 0
2083 -414 0
-193 1775 0
-498 -3929 0
-2023 -1628 0
2438 2134 0
618 2157 0
3370 -3431 0
435 895 0
2915 -1256 0
3365 -3141 0
2235 -1562 0
-2471 -3950 0
-2361 -3105 0
-3663 -3637 0
3716 -3133 0
-3213 -2849 0
2842 -3418 0
1113 -1079 0
292 1935 0
3123 -3465 0
-235 1107 0
-720 -1291 0
3159 3874 0
-2391 -3908 0
3882 -3226 0
-640 1525 0
-3443 2984 0
-3310 -2893 0
3919 2174 0
308 758 0
3385 -946 0
172 -690 0
-3729 1806 0
-2862 1483 0
-687 -602 0
-3142 719 0
-1224 -443 0
3696 126 0
1177 -2873 0
-294 2276 0
-1551 -3031 0
3732 -2857 0
2247 1740 0
73 -544 0
-1063 -2949 0
-697 648 0
3832 -1461 0
-2162 -1285 0
3019 2138 0
-1988 1332 0
-2379 -3465 0
-2499 3868 0
-409 -261 0
3054 1034 0
-3935 -603 0
-2634 490 0
240 1711 0
-1296 -1154 0
-3775 3701 0
-2232 -512 0
250 -2510 0
2755 -2856 0
2523 -2924 0
-3072 2465 0
-102 -1031 0
856 2818 0
-1656 -2882 0
-3873 2253 0
-412 -3478 0
-2886 -1298 0
-2317 3539 0
551 2516 0
2007 -513 0
2548 3935 0
3374 416 0
-746 212 0
-3567 1133 0
2052 -2489 0
3104 -1516 0
-3353 3806 0
-2403 2532 0
140 -853 0
957 -2630 0
3874 -498 0
-2953 -605 0
-95 -3456 0
3787 2632 0
1941 -832 0
1603 1019 0
-2060 -1739 0
740 -2335 0
-538 2110 0
2769 869 0
1198 -1432 0
1116 1072 0
-2997 2843 0
2720 3753 0
506 -706 0
-1803 -973 0
-1343 -1370 0
-1803 -1642 0
-87 1202 0
-3082 -548 0
1055 -3885 0
-137 -78 0
779 2495 0
-3599 -3276 0
3376 1655 0
1915 1434 0
1289 -3140 0
1053 3852 0
-1745 -823 0
-2822 -944 0
-2436 4016 0
890 -3669 0
689 -3930 0
-171 2113 0
889 370 0
-1995 -2805 0
-2370 285 0
630 894 0
-3819 -791 0
-3505 -3814 0
1481 3621 0
-2769 -3658 0
-3260 3597 0
2200 -1775 0
-3952 2500 0
-1636 2465 0
1834 -2989 0
1228 -2737 0
1547 -2844 0
-3453 -947 0
-2609 -286 0
2 298 0
3924 -2101 0
3037 -379 0
-2815 -1578 0
875 -1168 0
2971 2592 0
-1551 -4005 0
-2579 4019 0
3249 -1096 0
2630 2584 0
-733 1201 0
-2407 1908 0
-2500 -1915 0
-3355 1524 0
-3742 2822 0
3563 -2811 0
3883 175 0
1942 -513 0
2792 3121 0
1476 -2591 0
741 3561 0
-1757 -2773 0
-868 -2758 0
523 1467 0
-3409 -2283 0
-2506 -3491 0
-2275 -172 0
-3291 -2929 0
1080 -2683 0
-3546 1503 0
3870 -3566 0
-2217 -3156 0
-1084 2983 0
-2506 2158 0
-2712 1375 0
-3988 -2909 0
-3175 2576 0
-1664 -2219 0
1959 -1511 0
-770 -1789 0
-661 -1461 0
3131 -1244 0
-1006 -2006 0
-3030 -195 0
-591 3446 0
-211 -3747 0
-704 2655 0
-2041 -2019 0
1207 2215 0
-1203 -2040 0
-3042 2551 0
2433 -698 0
2141 -2426 0
2204 -2497 0
-2183 290 0
-586 -3594 0
1000 3014 0
3799 3371 0
1312 728 0
273 3699 0
-3152 2496 0
1160 1825 0
-1788 3024 0
-351 3916 0
582 3015 0
-3371 -3248 0
819 3439 0
-1599 -2804 0
-1749 -104 0
2170 299 0
2056 1003 0
-3080 -970 0
-2701 3024 0
-2681 -3920 0
620 -390 0
1799 -602 0
3506 -561 0
-1098 -3120 0
435 -436 0
-3090 481 0
2332 -1281 0
753 1006 0
326 3273 0
-771 1431 0
-2872 -2878 0
3841 993 0
1635 -579 0
-2115 -3115 0
3175 3948 0
1557 3473 0
1521 -330 0
-2977 1156 0
-1434 2322 0
-118 -2508 0
3691 1850 0
3036 3132 0
-1545 -790 0
3208 2850 0
2550 2103 0
-1668 2132 0
-3769 -708 0
-2385 3138 0
-238 -937 0
2421 -5 0
3454 2958 0
-1776 -456 0
3180 2381 0
-3151 2378 0
1666 1408 0
2109 3317 0
-1062 83 0
565 2365 0
2924 580 0
-2077 -2940 0
1299 604 0
79 -2098 0
-3455 3616 0
-1641 -941 0
-973 219 0
-3884 3310 0
2980 3982 0
-2780 2935 0
4001 3084 0
593 -1911 0
2979 -1402 0
2954 -1606 0
-2749 -2962 0
3189 1666 0
382 3915 0
2010 3407 0
-906 648 0
2980 485 0
993 1418 0
-1654 1851 0
1546 -1845 0
543 -3810 0
2998 -1828 0
-2870 278 0
-406 3109 0
1320 -1445 0
3425 -2407 0
2439 -34 0
-1739 -2526 0
-2428 -814 0
3554 2123 0
-2349 -56 0
1711 824 0
1487 -2512 0
-705 1691 0
1157 782 0
-1154 -3748 0
-2071 3483 0
1943 -1219 0
-2954 -3897 0
-2292 -1274 0
-184 -628 0
-305 1213 0
3031 -3000 0
-963 2780 0
429 -3723 0
-3285 3086 0
3020 -414 0
454 2630 0
897 -3320 0
-2205 -2957 0
2738 673 0
-3177 -712 0
2207 -1557 0
-525 890 0
1795 -601 0
1284 -356 0
1474 159 0
-1178 -2061 0
-546 -2130 0
-1333 -3290 0
2513 1249 0
-529 -1652 0
-321 3032 0
1228 778 0
2871 892 0
-1333 -2038 0
-2307 -3547 0
-1947 1358 0
-2725 369 0
-1626 -3251 0
3176 2471 0
2740 -3325 0
3647 1428 0
-1217 3016 0
-2702 1775 0
-2647 4019 0
686 -3982 0
3597 718 0
-1102 -400 0
-1168 -3313 0
-3378 1265 0
589 -3021 0
3176 -3084 0
-21 -1341 0
2409 -3561 0
-1686 41 0
-2877 3521 0
-258 3162 0
3161 2430 0
1030 559 0
422 453 0
-3444 -2662 0
222 -399 0
2454 -722 0
3530 23 0
-2760 -2033 0
-2801 -2875 0
37 -1047 0
-31 -3779 0
-563 1071 0
889 1428 0
-3442 3042 0
-3033 3675 0
-618 -487 0
3597 1877 0
-408 1926 0
-480 427 0
-1095 2465 0
46 -2656 0
-1205 -2942 0
-395 -3660 0
3899 246 0
1183 291 0
3384 2761 0
-2054 3843 0
2556 3499 0
-2494 -3624 0
4007 -2880 0
3711 -2629 0
-3305 -3421 0
2394 1654 0
709 1002 0
3431 -325 0
-680 -2781 0
2041 -1644 0
-2508 3210 0
2004 -3090 0
509 693 0
1902 -2049 0
-2331 -3189 0
-2388 -3849 0
-631 -3799 0
-1211 393 0
-1403 643 0
-3058 -1975 0
-2938 -566 0
103 -1459 0
-2444 2821 0
3631 -410 0
267 -1107 0
-912 -2506 0
3462 -3509 0
-3528 -3241 0
590 3027 0
966 1122 0
560 1317 0
-3490 2238 0
755 -3807 0
-2435 -48 0
-1579 -805 0
-1892 901 0
-1050 3111 0
133 -592 0
3184 1302 0
-731 1492 0
-82 -2427 0
3369 2761 0
-1432 338 0
1309 -1811 0
3359 -3511 0
-986 -3190 0
3023 369 0
-1181 3127 0
-3162 24 0
-2231 191 0
3 2585 0
1006 3145 0
1077 -2971 0
1507 -2746 0
488 -1979 0
-90 -1514 0
224 -3000 0
-1686 -1182 0
1866 1123 0
1400 -4003 0
3988 2890 0
-3272 1134 0
-1908 -2752 0
-2667 1794 0
-3195 -1632 0
-4010 -3460 0
-2903 3606 0
-1052 2453 0
-3692 1465 0
3862 1554 0
991 -786 0
599 -2644 0
-1170 -1668 0
-3974 2856 0
-360 3390 0
1589 -2916 0
2179 -854 0
852 -1130 0
537 1097 0
-2692 -296 0
-1397 -2212 0
-242 268 0
693 2093 0
2472 3975 0
-828 810 0
-1125 -1945 0
-2610 -2584 0
-2499 1820 0
843 -2190 0
-2031 1895 0
-1803 -3934 0
-3402 3557 0
1604 -3911 0
2161 3244 0
1053 1429 0
-95 -3119 0
1370 -2076 0
3529 367 0
-3270 3207 0
-1324 2988 0
182 2912 0
-1436 3374 0
525 -1162 0
2080 225 0
3786 -1518 0
1727 -2035 0
1977 895 0
-2143 -1390 0
1271 -2186 0
2387 -731 0
3852 2300 0
-2513 1849 0
-1463 2796 0
2020 -673 0
3943 2576 0
1015 2535 0
2351 3722 0
-988 76 0
-307 -1129 0
-2784 1619 0
-3471 716 0
-3835 2092 0
-372 1784 0
-1871 766 0
-842 -807 0
93 -3536 0
2974 -3502 0
1828 3856 0
3302 2826 0
-3892 -3912 0
-2977 2097 0
-1787 3204 0
-1726 2147 0
754 -1975 0
-911 -130 0
2850 -3936 0
-2294 -1292 0
2963 -729 0
-813 2909 0
2949 -2861 0
-1855 -1489 0
-1694 2681 0
733 3898 0
-1366 3109 0
198 -242 0
1207 -848 0
1974 3348 0
-1822 -628 0
-1151 -3805 0
75 -3883 0
-1404 -1718 0
232 -2325 0
-3983 -1821 0
1919 2656 0
449 -2834 0
435 -3160 0
-1431 3569 0
2013 -2173 0
-3340 -3753 0
3242 -3435 0
1131 3828 0
3238 852 0
-2041 2779 0
1755 79 0
-583 1652 0
6 -1625 0
-3116 2631 0
-1576 2083 0
-3173 306 0
-2159 2294 0
-822 -34 0
-3293 -1583 0
2635 1714 0
1951 -628 0
-2420 1269 0
3519 -2719 0
-644 1991 0
-3931 1056 0
2836 -2978 0
3037 1689 0
3813 3680 0
471 -3906 0
-941 3549 0
-2880 3704 0
1831 -1140 0
-3409 -1648 0
-3049 2209 0
-1977 -2770 0
3705 -3543 0
-2444 2609 0
2231 2288 0
-1997 -2452 0
-3756 453 0
-1441 103 0
-2579 -2497 0
1789 -2488 0
-3066 -516 0
-2483 1042 0
3516 -3271 0
-3953 -3039 0
1892 1584 0
453 882 0
616 617 0
-1074 -2420 0
645 -3540 0
-1099 1295 0
555 379 0
-1215 3666 0
692 -3041 0
-2624 3496 0
3276 382 0
287 379 0
-1432 93 0
-1416 -577 0
1360 2037 0
2531 -2015 0
-3058 113 0
1632 -1251 0
-1459 1307 0
69 -3517 0
3913 -1108 0
2978 -2723 0
-201 -202 0
-3399 130 0
-3048 -3156 0
496 2555 0
-3349 -2713 0
3459 -2540 0
422 -3277 0
-1510 1811 0
3052 -3890 0
-3980 -3693 0
3752 2975 0
-809 2595 0
-1911 -431 0
3002 -925 0
61 -1193 0
1598 2321 0
1043 314 0
-1889 2054 0
668 -1440 0
-2529 -3807 0
2059 692 0
-4020 3118 0
-2931 589 0
3225 -2271 0
-2269 -2012 0
3002 3446 0
-944 -436 0
-462 -3388 0
3666 3953 0
196 -949 0
296 633 0
3951 -1051 0
-1809 861 0
1335 2392 0
2100 3890 0
3771 -931 0
2522 1448 0
-3848 -1304 0
-2627 338 0
1046 -1551 0
-3896 3144 0
196 288 0
2222 1315 0
2710 530 0
1231 -3061 0
1015 606 0
-2589 -533 0
-1050 2557 0
-735 3926 0
3569 -156 0
-2787 -71 0
2276 -1882 0
-1470 -2435 0
329 -1003 0
-1232 2349 0
-1356 633 0
-3706 -3880 0
-3393 1673 0
-40 -1409 0
-2323 -1043 0
-3769 -793 0
-1353 2937 0
3446 -591 0
543 3671 0
-95 865 0
-1842 -2899 0
1887 2586 0
-2476 3250 0
1558 -3811 0
-2001 2421 0
851 618 0
-2324 -704 0
-2307 264 0
1338 3288 0
-2831 2284 0
219 2449 0
-123 2466 0
-704 -608 0
3388 1228 0
-2703 2419 0
2382 -1283 0
-2377 -2904 0
1539 3292 0
3161 2439 0
2129 -1636 0
-259 -4008 0
2633 3012 0
-3447 3368 0
3760 3932 0
2620 1922 0
248 -583 0
1360 -2064 0
-2412 100 0
57 -1881 0
2053 67 0
1308 -236 0
-2476 3131 0
3559 3828 0
-2461 -2286 0
-1390 -2298 0
995 128 0
291 2585 0
-1151 -878 0
215 159 0
587 286 0
-1714 -329 0
-2622 212 0
-1075 2046 0
-3445 -2573 0
1548 -514 0
-2095 -2450 0
3971 58 0
-3366 745 0
209 3892 0
-3318 1349 0
-3029 -3512 0
1897 2381 0
-3547 -3741 0
-240 -3161 0
552 4010 0
1902 757 0
-166 2154 0
3329 1844 0
2131 168 0
2564 -2588 0
2628 -3695 0
-1361 2768 0
3927 -4020 0
2458 -1264 0
-2380 2347 0
-122 3157 0
-299 2291 0
-2250 -1140 0
-3711 3969 0
2439 3666 0
1571 -3996 0
3668 138 0
-575 -1798 0
-3386 -2976 0
767 1949 0
2596 -3000 0
3129 2542 0
724 1174 0
257 -1079 0
-3147 3684 0
989 2318 0
-3235 2288 0
-1794 1347 0
-3151 -2577 0
2357 -1472 0
1492 -178 0
2124 -3356 0
-1402 482 0
-1604 1161 0
-299 -753 0
-2713 3580 0
-3075 1193 0
-1266 3649 0
2237 -482 0
-553 -1650 0
377 -1054 0
-1357 628 0
-3194 3557 0
-2337 1980 0
-2893 -3068 0
-2607 3263 0
1773 1564 0
-3334 3597 0
-463 -1727 0
3435 833 0
-878 -59 0
3575 665 0
-3006 2570 0
939 -2129 0
3752 1927 0
107 -1965 0
2577 -3035 0
-2880 -2562 0
1661 1054 0
718 -2102 0
-3222 3890 0
-2614 -3978 0
1841 -2377 0
560 3400 0
-3939 1673 0
352 -874 0
3515 -1663 0
250 -3865 0
373 -2727 0
1682 -591 0
566 -974 0
694 -699 0
-2457 -3382 0
2594 1060 0
2510 -2972 0
-1979 -2199 0
3417 -201 0
126 3011 0
293 3260 0
-3878 -2355 0
-1559 2532 0
-3901 3863 0
-2506 -3346 0
-2116 -3224 0
-295 3169 0
-2212 -2040 0
1786 -3461 0
1944 -353 0
-173 3960 0
-2371 1825 0
-482 435 0
-2503 -3712 0
609 -333 0
3080 476 0
-2745 -2386 0
2401 -436 0
-3952 -3618 0
-1867 -3302 0
-3458 913 0
289 3543 0
-310 -2172 0
-1390 2632 0
1697 -1710 0
-3051 3191 0
-3901 572 0
1347 1381 0
2786 -145 0
-2301 -2658 0
2053 3306 0
-1465 -1267 0
2649 2074 0
-3395 2431 0
1005 -2315 0
-2482 -3739 0
2315 -3611 0
-2767 2021 0
-2586 -2761 0
663 -3817 0
-3113 918 0
3799 388 0
1627 762 0
-2346 2243 0
2823 2911 0
3680 25 0
1794 -1921 0
2005 3423 0
268 -546 0
3995 -2740 0
95 244 0
3958 1779 0
-3865 -2044 0
1738 1546 0
1568 -1563 0
-923 2594 0
-2300 3982 0
-2104 2968 0
3249 -3856 0
1915 1674 0
-1683 2048 0
2161 -1956 0
488 748 0
2481 3444 0
-3887 -2788 0
-1621 1817 0
487 -2171 0
-2307 2611 0
1781 -330 0
-677 662 0
94 -1039 0
3271 -415 0
-14 3040 0
-2848 -2854 0
-2768 -1409 0
-2108 300 0
-1199 -734 0
1257 1004 0
-2039 -3554 0
-674 64 0
-2372 3195 0
-674 901 0
-3903 -2350 0
-1321 -374 0
1421 19 0
3900 902 0
1786 -1323 0
617 2166 0
-72 -714 0
-1687 940 0
3959 -2547 0
869 3291 0
-3103 2046 0
2810 1154 0
-176 1703 0
-872 -3469 0
-328 -1324 0
66 -42 0
3997 -810 0
-467 3693 0
2391 -3614 0
1955 -1366 0
1047 3511 0
3405 -536 0
-1092 3551 0
-1354 2911 0
-1865 -2358 0
-2702 -2694 0
3172 3704 0
2363 1412 0
1672 494 0
-2499 2073 0
-337 197 0
1477 1055 0
-101 1616 0
-455 214 0
-2122 -43 0
-690 549 0
2728 -1871 0
2119 2151 0
3461 -1140 0
-836 2482 0
-365 2158 0
1192 1019 0
1893 3024 0
1472 -454 0
-2198 -1128 0
-894 -3488 0
-3222 3753 0
1619 -2188 0
930 30 0
3313 -588 0
-1646 3226 0
-410 -145 0
3971 -1966 0
2161 542 0
-435 4 0
2612 -392 0
1754 -3994 0
-2508 -812 0
3916 -1299 0
-3475 326 0
3044 305 0
1270 -1972 0
-3427 -1467 0
-2588 -1606 0
2561 816 0
1799 424 0
227 -2422 0
3249 1189 0
3927 -3588 0
-804 3551 0
-747 1738 0
1556 -946 0
1302 -2629 0
-2111 3548 0
-565 1608 0
-1659 -2677 0
3285 -82 0
364 769 0
547 1733 0
2387 3002 0
607 1389 0
-1772 -3636 0
175 -2079 0
743 2257 0
-3436 -528 0
-2385 -2723 0
1370 -425 0
-2336 106 0
-1288 -489 0
-766 -2105 0
2036 -2195 0
3481 -1438 0
2130 1869 0
2578 -2327 0
-3647 -1203 0
-703 -3302 0
-737 109 0
3130 -3596 0
264 700 0
-3518 427 0
-1194 3918 0
2368 -3142 0
-1695 898 0
-1851 -2895 0
-3432 2268 0
2920 -2177 0
-3334 -3364 0
3025 3437 0
-2720 3921 0
3691 3503 0
-3124 3805 0
-173 -3656 0
3337 -256 0
-2295 -48 0
-1343 -1738 0
-3221 2577 0
1922 118 0
-1068 -3930 0
3169 -1941 0
387 -2442 0
938 -2324 0
2272 -2613 0
-3724 1923 0
-1518 -827 0
-2886 3619 0
526 -2264 0
3131 -2427 0
-717 1702 0
1923 -1482 0
-1646 3113 0
63 379 0
-2363 3812 0
-336 3337 0
2776 -1312 0
2820 -2944 0
2348 1919 0
-588 -2123 0
2062 -2733 0
-1849 1505 0
623 3619 0
-2613 -2299 0
2774 -1781 0
-885 -174 0
-3915 2107 0
-3464 3979 0
1046 -2661 0
-1063 2673 0
923 -2369 0
-2895 3745 0
-665 -2897 0
194 153 0
2526 -1448 0
-1049 -1341 0
1846 3869 0
3239 -2885 0
-1171 3223 0
-123 3721 0
1577 -2230 0
2983 -1323 0
-1774 -2497 0
-989 -3744 0
2074 -3214 0
-2317 3590 0
-1661 -72 0
-1718 46 0
1127 2299 0
-3887 2132 0
2651 1145 0
1361 -1238 0
579 3151 0
-1205 989 0
-1634 -3838 0
-1562 -1312 0
-1107 2986 0
1944 2604 0
-1085 -2445 0
-3682 -1103 0
2077 1344 0
2617 -1625 0
-793 -2105 0
534 1375 0
2585 -1281 0
2344 -1526 0
-230 853 0
-3551 1242 0
3951 -1266 0
-1600 3981 0
-2259 177 0
666 -1735 0
-1516 -2323 0
1531 3368 0
-3495 1020 0
-1388 -2339 0
2679 -3307 0
3506 -3659 0
-2008 1492 0
-1402 -1258 0
-2211 -738 0
1924 -3961 0
2621 1670 0
-3550 -3170 0
3965 2169 0
3890 1635 0
829 -2715 0
2411 -1051 0
-1687 -2461 0
3818 -2490 0
2218 -3682 0
-589 -1281 0
-366 -346 0
-3430 749 0
-3207 -1032 0
-3021 -1442 0
1287 -2674 0
-2617 558 0
3738 -2636 0
732 -1134 0
-73 -180 0
384 2529 0
-935 -3378 0
-1096 -1494 0
-2486 -2742 0
-1747 -2321 0
-333 -887 0
-3588 2861 0
-2590 -3074 0
1764 -631 0
3501 1547 0
1528 -2407 0
-2085 1245 0
-2923 -2018 0
884 -2923 0
1386 -2247 0
-1394 2908 0
-3879 3177 0
3280 -3425 0
1818 3431 0
3497 1052 0
2365 -2022 0
2512 3496 0
-3458 1643 0
2325 28 0
-3033 3654 0
-723 152 0
-3892 -2276 0
-2528 -1578 0
2843 -1925 0
-3332 2655 0
-521 3330 0
3713 -3965 0
268 3467 0
-1020 3872 0
-2027 -1466 0
-3790 3861 0
1449 916 0
-3213 -3596 0
-1813 1674 0
-976 828 0
3882 30 0
-3628 1854 0
-2587 3813 0
-425 -2183 0
-1167 -3760 0
3874 1357 0
-268 2768 0
2526 -446 0
2881 -3340 0
-1092 -1747 0
3001 -241 0
-3187 -2094 0
-1972 -1256 0
3159 177 0
-738 -607 0
-2803 -2014 0
-2782 860 0
1815 1207 0
-2628 -860 0
-3074 362 0
3973 -1429 0
2911 -808 0
2018 3220 0
-2869 -1486 0
-3281 -1485 0
-724 3232 0
-1563 3340 0
-3420 1473 0
2201 -715 0
1623 2401 0
3125 1716 0
-456 1313 0
-1123 1307 0
3 -2621 0
-3061 -3208 0
3632 -1599 0
3312 2819 0
3083 -1378 0
-2767 3730 0
881 150 0
2131 3066 0
-3030 1668 0
-1597 -315 0
944 -3460 0
-1385 -2410 0
-875 3580 0
21 2200 0
-3332 10 0
-1533 -3082 0
761 2004 0
-632 3005 0
-3178 -680 0
-727 -1952 0
-967 -3672 0
1564 3123 0
555 -2449 0
-3846 1368 0
-3038 -2892 0
-709 3543 0
3152 657 0
1313 -1937 0
-2606 2481 0
3437 3229 0
1730 2243 0
2476 -2946 0
-439 -3104 0
-1818 -1067 0
3504 -1772 0
751 1181 0
944 -2872 0
-2098 1782 0
3923 3071 0
-1376 -3853 0
2593 -2198 0
-3624 -753 0
3020 -3495 0
-169 1531 0
-243 1363 0
3756 187 0
-3613 2959 0
1196 589 0
-518 -3627 0
2180 587 0
-1740 2470 0
-2311 3453 0
3871 3821 0
1983 -2130 0
-3541 2556 0
374 -3332 0
1007 -2866 0
-1282 3494 0
-3644 2527 0
2184 3475 0
-269 -2625 0
961 3888 0
1703 3525 0
-1557 692 0
-781 -1068 0
-3976 -3167 0
-3190 262 0
3137 -3629 0
2097 3633 0
-812 -1214 0
-2099 -560 0
3211 -581 0
2596 -67 0
-1905 2181 0
3687 -3308 0
3712 -2629 0
-1079 405 0
1744 -2304 0
-1016 -48 0
-358 1146 0
-1243 -6 0
3631 -2569 0
-2683 1649 0
3741 -1020 0
3481 -533 0
2865 2907 0
1359 407 0
2398 -1489 0
-3892 -365 0
-514 -1893 0
1154 -1368 0
-3936 450 0
-720 3268 0
36 -1318 0
2106 -3829 0
2377 545 0
571 2295 0
2738 -2442 0
995 -1001 0
2142 -2692 0
-3484 -3541 0
-222 -1513 0
-2440 -404 0
1284 1340 0
796 3980 0
-2547 302 0
1464 -14 0
-786 -2261 0
-2484 -1241 0
895 -2397 0
-3643 3911 0
3204 -2625 0
2157 -3302 0
2052 -2580 0
-466 -2411 0
370 773 0
-256 -3317 0
4004 1386 0
2175 2337 0
1751 607 0
1234 2881 0
-3650 -861 0
-1967 -3293 0
-2763 361 0
-1404 -3185 0
-690 -1071 0
-2196 -642 0
3122 -2123 0
-78 3008 0
-3927 -1692 0
-2934 3479 0
-2145 985 0
-2055 -1501 0
-1188 3778 0
-3400 667 0
-2556 1457 0
2920 2632 0
1462 -3439 0
-3773 3502 0
-2071 2785 0
1130 2397 0
-658 2087 0
-3947 1414 0
3752 -3094 0
1065 3321 0
1936 162 0
188 1910 0
2520 3573 0
-838 -3912 0
-3803 -2137 0
-2191 3400 0
-2355 -1995 0
-3506 -2754 0
2830 -909 0
-2190 1703 0
692 3770 0
3500 -1464 0
-1204 -734 0
1032 2756 0
-3712 1600 0
2180 2603 0
2795 1465 0
2020 -3137 0
-3502 1794 0
293 -3966 0
-3372 -3951 0
-3082 -1460 0
1492 -2375 0
3955 -475 0
-2325 -3006 0
-3241 1487 0
-1959 3948 0
-2403 1787 0
19 -3088 0
42 -3293 0
-2064 1091 0
-1977 2117 0
-1042 -43 0
-3728 3671 0
3548 -3364 0
-2023 2037 0
1961 1282 0
3018 3499 0
1818 1015 0
-785 -2484 0
-3628 -1147 0
-1434 -3223 0
3146 -3067 0
-1870 -3779 0
-2076 -3030 0
3106 665 0
3421 2575 0
1000 -1811 0
12 -2620 0
-249 2537 0
-16 -1978 0
858 -1063 0
-1130 -2936 0
-249 -336 0
-304 3139 0
594 895 0
3904 1338 0
-3693 -2766 0
286 666 0
3934 1303 0
-3571 1478 0
652 2480 0
2005 -806 0
-1011 3797 0
-2939 -2844 0
-2933 531 0
-498 -3193 0
1 -1517 0
-1015 995 0
1658 3405 0
-1691 2043 0
-3462 -3908 0
2218 1504 0
506 -2046 0
-2872 353 0
1676 3204 0
1909 -541 0
1139 2467 0
1348 1814 0
-3277 -2438 0
-902 -1348 0
-2035 898 0
-2380 2740 0
-3623 274 0
2644 2194 0
-1659 252 0
-3429 2926 0
1763 3514 0
-1599 -2031 0
-2489 728 0
3271 -2507 0
3417 2427 0
2021 -2345 0
3600 -2504 0
956 205 0
-2389 -31 0
-3396 2686 0
1708 3799 0
-1969 1948 0
-3903 -3064 0
-3445 2134 0
-1435 177 0
-315 850 0
-264 -1188 0
1259 3634 0
-1956 1528 0
-637 2356 0
126 2253 0
1059 1011 0
-2322 -3599 0
-3154 -698 0
2719 -1221 0
2234 -1378 0
1367 -661 0
692 2603 0
-426 -3225 0
-1092 -2025 0
-1591 1784 0
-1534 2857 0
3870 470 0
-975 3203 0
-1769 3346 0
3471 2787 0
-758 1418 0
1911 3028 0
1641 3 0
3831 1107 0
1610 -1403 0
-2704 1507 0
-3217 -2966 0
3403 3790 0
111 -3142 0
1242 1330 0
-1708 358 0
-3448 3333 0
344 2558 0
2283 -1896 0
-446 -1886 0
-3647 2479 0
-871 -2852 0
-2075 -825 0
3054 1498 0
3441 -3805 0
-3725 -947 0
3300 -352 0
-3867 -2695 0
-1687 308 0
3548 1945 0
-3513 -2041 0
1410 -2708 0
-4010 -3007 0
-546 1396 0
-1125 -577 0
-3616 3891 0
1406 -925 0
3722 -782 0
2690 2653 0
-3203 541 0
-2264 3595 0
3795 -3723 0
2089 2253 0
589 668 0
2028 -458 0
-2284 -1889 0
210 396 0
159 931 0
-2476 2641 0
-1585 3895 0
502 -1474 0
706 -3432 0
-368 940 0
-349 -2198 0
2404 2876 0
-3784 -160 0
-320 -3743 0
2222 238 0
3637 -167 0
151 3323 0
3435 -1657 0
-2882 650 0
-1151 2471 0
-408 1074 0
3872 1303 0
-2713 -1966 0
1734 1108 0
-2295 -3705 0
-1820 -211 0
-28 -2950 0
-3918 1472 0
3082 -1444 0
-2287 2914 0
1000 1769 0
3165 -952 0
2192 1773 0
1805 1929 0
393 -2992 0
-520 -2483 0
-2372 2251 0
-1789 541 0
-2165 1661 0
1880 -992 0
1890 2822 0
-2426 1726 0
-1097 -2917 0
-619 3186 0
-2507 -732 0
3341 -613 0
157 -2072 0
1187 -804 0
-3219 -1460 0
2125 -87 0
2632 -1904 0
1964 3134 0
-195 3317 0
2763 -3072 0
-2443 2027 0
-3612 2995 0
3516 -1167 0
-1550 3646 0
-2249 607 0
-1027 2764 0
-2247 -800 0
-2816 3297 0
-3863 -504 0
-4007 1697 0
2039 3026 0
2401 1594 0
3948 -2797 0
3534 3817 0
-423 -1495 0
2297 878 0
2162 -1183 0
1984 2765 0
-3565 1074 0
-1916 1964 0
-293 1623 0
-1479 4007 0
1213 -1463 0
-1855 -761 0
-3974 58 0
-1380 2431 0
-493 -588 0
-3975 2907 0
-2949 -2241 0
-357 403 0
2388 -3807 0
-1424 10 0
3987 3858 0
3507 -2518 0
2254 654 0
2128 -73 0
-964 -3127 0
-97 -1470 0
-2140 1627 0
2366 -1755 0
1395 1832 0
2762 -2424 0
-1206 -1719 0
-1010 -1871 0
-2700 -3682 0
3489 1320 0
973 -1392 0
2636 1113 0
-3201 -1564 0
1406 -1773 0
-1290 1267 0
193 3220 0
-3222 -2603 0
-847 -230 0
2999 -35 0
-458 -2581 0
-1216 -3503 0
1465 -3381 0
3346 -3695 0
1798 3098 0
-3770 2462 0
-1267 3557 0
561 -1588 0
-130 -518 0
-2105 -1102 0
-494 -1901 0
269 -909 0
1492 644 0
-3627 3521 0
3950 -915 0
-814 -3333 0
-2782 474 0
-45 -3933 0
1933 3267 0
3858 1842 0
-2335 -460 0
3283 -697 0
-856 -3182 0
2685 -1533 0
166 -1896 0
2561 -1333 0
-808 -1360 0
-729 1763 0
-511 -2358 0
-3212 -1654 0
-2828 3287 0
1052 -4014 0
-351 3479 0
-1863 1421 0
216 -818 0
-3830 -3046 0
19 2026 0
-2555 3907 0
854 -202 0
1809 3380 0
-759 -3276 0
12 -3278 0
-1480 -2664 0
1084 -2667 0
897 3115 0
-92 -2972 0
2017 -1511 0
1815 -962 0
-864 -1674 0
-1372 -189 0
1608 3561 0
1506 -1819 0
-2460 3666 0
466 -2486 0
-1801 -2686 0
3304 -844 0
-2750 429 0
-2342 -2695 0
3657 -141 0
2989 -1851 0
1341 -2154 0
1249 112 0
2511 -3970 0
-1954 859 0
3550 2903 0
906 -2960 0
-2683 1879 0
-3101 -2461 0
-3792 -1184 0
-1977 -1459 0
2009 1431 0
1056 320 0
-960 2116 0
2959 2732 0
-1721 -2993 0
536 3939 0
2367 -163 0
2225 1431 0
3569 228 0
3001 2808 0
-1485 3160 0
2889 940 0
3345 210 0
2627 2018 0
-2787 -238 0
-2258 -529 0
-1747 1067 0
-1720 3412 0
-3484 -1186 0
3909 3962 0
-3919 -1631 0
-2311 -2754 0
1838 -1491 0
-1417 3533 0
-395 985 0
-79 1715 0
861 2948 0
1156 -2758 0
2957 -2407 0
2393 505 0
-727 -651 0
102 -2593 0
3283 2743 0
2992 -2236 0
-3856 -2949 0
-385 -3709 0
171 -60 0
2603 -232 0
-2719 -2559 0
-1847 2126 0
3028 -3832 0
3542 -774 0
3272 -2478 0
-1084 733 0
3010 -1270 0
2300 752 0
-2237 142 0
2073 3891 0
-3859 2382 0
-1111 3996 0
-1011 -4006 0
3174 -256 0
549 -1635 0
3793 1835 0
79 -3598 0
-3095 11 0
886 -975 0
3430 3606 0
2914 -3752 0
876 3968 0
1364 3436 0
793 -2949 0
3267 -1541 0
-1218 271 0
3280 -2082 0
1264 -2754 0
3144 1347 0
945 4003 0
-3623 -2993 0
-1305 665 0
-2583 3454 0
3943 -2672 0
-1510 -3218 0
-940 897 0
-3171 -3555 0
985 -1512 0
-2278 3946 0
3828 -3222 0
-2861 1428 0
343 3022 0
3619 3163 0
3786 2728 0
3646 1924 0
2034 -719 0
1534 -746 0
-591 3122 0
-2901 2288 0
1565 1284 0
-3616 2200 0
-2806 3642 0
161 -1917 0
1386 1037 0
3956 3728 0
-2886 3585 0
-270 -626 0
-2295 1314 0
-2469 -2888 0
3186 234 0
1158 -1280 0
44 -482 0
4004 -2619 0
3709 2670 0
1501 3709 0
1401 -3123 0
-2589 -538 0
-2358 -564 0
-2296 -3912 0
174 -2936 0
-3127 1626 0
2817 -2137 0
2853 -2219 0
2678 2713 0
1007 2540 0
-2226 1874 0
-3006 1854 0
-1270 162 0
3215 -1247 0
-3277 -486 0
-912 3382 0
-1785 -1275 0
2017 -2044 0
-249 2656 0
-2070 -2080 0
2059 2852 0
-3307 -2793 0
1452 1509 0
3122 1483 0
839 3957 0
-3216 -3975 0
-874 3947 0
-1374 -1720 0
1892 1449 0
-2770 3717 0
325 -2734 0
-3650 2205 0
-973 2467 0
-3508 1690 0
-1945 -764 0
2498 -141 0
-3901 -1871 0
-3656 979 0
-754 3692 0
3657 -1129 0
2796 -1862 0
-3774 -3438 0
-2399 -1928 0
1163 1013 0
2351 -802 0
-3719 -2725 0
-899 -3889 0
801 -2369 0
-3944 -2271 0
3052 1981 0
3351 -135 0
-1712 -1275 0
2987 -1251 0
1564 2024 0
370 3793 0
-3938 -296 0
-671 1642 0
987 -1034 0
3791 2483 0
1058 -1628 0
-1566 2571 0
1587 -128 0
-605 636 0
-2075 231 0
3614 -3241 0
47 -121 0
3428 3659 0
3937 2477 0
-940 1672 0
2558 958 0
635 -393 0
-2631 914 0
3473 -4003 0
3357 -163 0
3633 -3532 0
-900 956 0
-2659 3421 0
1249 -1063 0
3026 -3385 0
-1331 -3271 0
631 3631 0
-380 2006 0
-313 2657 0
1242 1339 0
1994 416 0
18 2590 0
391 -45 0
577 -1431 0
1661 -186 0
-2151 2413 0
-581 -2257 0
336 2806 0
-2815 -3385 0
2218 3070 0
1324 -2634 0
768 3402 0
-1840 -2388 0
-800 1571 0
3430 -2934 0
-1857 2103 0
-708 -678 0
-442 3915 0
1790 2181 0
2350 -2865 0
1181 -3225 0
2110 1269 0
2242 -240 0
3428 -3698 0
-1181 -1771 0
-1767 1777 0
-2616 3822 0
-1095 -262 0
1650 -1395 0
979 2420 0
-3739 -3663 0
3429 3654 0
3684 -735 0
2187 568 0
2073 -1329 0
2738 -1659 0
-3232 3957 0
1375 -769 0
3188 -462 0
-333 -2738 0
1224 3648 0
-2355 919 0
-563 -2203 0
2560 -2047 0
-54 1196 0
4007 1665 0
-3077 1245 0
-764 -3139 0
-2492 -91 0
6 46 0
-49 -962 0
-1217 2422 0
258 -860 0
3120 -3764 0
3513 2158 0
-434 830 0
-461 -3678 0
2632 -974 0
1474 -2177 0
-2052 619 0
-2289 -2356 0
-772 -339 0
-180 196 0
3654 -295 0
3423 1000 0
1057 2165 0
-177 -3167 0
1037 -2625 0
281 -3537 0
-446 951 0
-584 3369 0
-2001 -3633 0
-2712 -771 0
1771 1768 0
1487 284 0
1077 -1215 0
1178 1496 0
2899 1185 0
-3314 -2658 0
-3756 1873 0
-2640 -3507 0
-1210 2328 0
455 3763 0
-874 3764 0
739 1792 0
1072 -3815 0
3330 3816 0
-2486 2367 0
3413 406 0
1189 1198 0
-3773 -715 0
-3537 1007 0
89 458 0
-1396 -3316 0
2466 3137 0
-3761 3038 0
1575 56 0
-821 -784 0
2819 624 0
3362 -3584 0
-3178 2819 0
1517 2623 0
-2001 -3410 0
-601 3882 0
3348 1955 0
1760 2194 0
-1221 -667 0
361 -1133 0
1071 -541 0
-2047 1259 0
-2111 -416 0
619 -2776 0
258 -1227 0
-1206 -380 0
1701 -2604 0
3831 -457 0
3544 -2869 0
6 -1053 0
-463 3502 0
-3662 409 0
196 -237 0
2245 2107 0
-3307 1806 0
-937 1763 0
-3443 3284 0
3376 182 0
1588 2282 0
-1239 -2934 0
355 2129 0
-1211 2186 0
-2706 -1585 0
531 -1874 0
2807 3683 0
1133 782 0
-3310 897 0
2749 -2355 0
2571 -1091 0
301 2467 0
2433 1220 0
3446 1578 0
-1368 -2672 0
-742 755 0
1779 -509 0
-870 -924 0
-1283 2515 0
-349 -3787 0
652 1286 0
-3287 -1876 0
-317 1947 0
-1030 2513 0
932 -1840 0
-1578 3137 0
778 -3725 0
-931 -707 0
1359 -1929 0
-3636 3521 0
-2137 -1172 0
-2892 -3034 0
3883 -3538 0
3246 -3174 0
2068 -2806 0
-42 -3261 0
-1342 -3785 0
-327 987 0
-1811 -1528 0
-2257 -2254 0
-1020 -719 0
-3178 380 0
-3366 -681 0
-2917 -454 0
88 1576 0
3740 346 0
-1210 -1585 0
-2226 -3140 0
3260 -3843 0
-1392 2501 0
2925 3601 0
181 -1118 0
-151 2842 0
-2164 684 0
1307 2408 0
-480 265 0
-1218 -1318 0
-735 -1222 0
1762 2424 0
641 3898 0
-1728 929 0
-705 2098 0
2496 -1747 0
-732 245 0
-2252 924 0
-3261 -1011 0
-2189 3930 0
1086 700 0
966 1899 0
684 517 0
3318 -1907 0
-2248 -3264 0
-3207 2754 0
377 2774 0
-3442 2004 0
-200 -2573 0
-1433 2676 0
1359 1798 0
1892 -1899 0
-490 -747 0
-665 1703 0
1614 3937 0
1317 1697 0
1033 -574 0
3135 -2507 0
2287 2260 0
3677 1992 0
-4004 -735 0
-995 2268 0
-4005 519 0
-1219 3831 0
2880 1308 0
1272 2226 0
576 -252 0
-3094 982 0
2821 527 0
3176 -2802 0
1427 179 0
-2028 1282 0
-3340 2577 0
-3162 2269 0
1633 3221 0
-86 -82 0
-2030 -3796 0
1067 -1238 0
3989 -3930 0
1132 -1267 0
-697 -991 0
182 686 0
-1561 1860 0
-3227 -655 0
3609 3006 0
3521 -1097 0
-1864 2348 0
-1376 -1727 0
-2973 -696 0
-3623 -1165 0
-2909 2293 0
3357 -1019 0
-3719 -397 0
-3851 2061 0
187 3861 0
1452 -535 0
-3418 3732 0
2797 -2707 0
-2950 -655 0
-1087 -3993 0
260 -2287 0
-3950 -3343 0
-2377 4020 0
3945 1325 0
-904 223 0
-2551 -3518 0
-1063 401 0
-2329 3085 0
-1945 3530 0
1070 -1775 0
-3170 -3289 0
-200 3747 0
2799 2500 0
3699 4019 0
-3567 -329 0
-261 -1973 0
-2988 -1787 0
-2118 -3591 0
-824 -2699 0
2468 643 0
2557 -233 0
-1458 1254 0
-234 -1831 0
2347 -2015 0
1186 -900 0
-3386 1554 0
-65 2964 0
-3417 246 0
-404 -2114 0
-183 1166 0
-469 -3763 0
624 -1527 0
1693 -566 0
3648 -3799 0
3051 -98 0
2145 -1802 0
-2614 517 0
-1664 3303 0
3271 3674 0
-3245 1921 0
1260 -931 0
-216 2797 0
-2780 -258 0
-2414 2925 0
-2714 2286 0
-1445 -1071 0
-2195 3566 0
1656 -3178 0
1620 -3912 0
-279 -524 0
2235 -3162 0
-1601 2830 0
-1987 -813 0
-14 -3058 0
1530 -2076 0
-3804 -2306 0
-1509 -2844 0
-3619 -3832 0
2479 1675 0
1644 2179 0
-327 3089 0
-3143 1482 0
2027 3112 0
3267 2114 0
-1219 -3787 0
1058 3153 0
3071 -309 0
3893 -2336 0
2931 146 0
-2713 -2088 0
1607 -451 0
-1708 -2036 0
-3620 -1300 0
-930 -3134 0
-747 1054 0
2132 2790 0
-3324 -295 0
-813 -3367 0
-1225 2611 0
-7 1727 0
-3124 -1811 0
2689 54 0
-1764 -3987 0
-838 2771 0
-3596 -3175 0
-1 -91 0
3346 -2751 0
-1655 -1403 0
-1304 1435 0
3002 -1740 0
2807 -969 0
-2460 2136 0
1849 1221 0
353 -2647 0
3497 -638 0
1920 -295 0
-2508 1324 0
3666 368 0
1755 -475 0
3772 -1360 0
3651 -1533 0
-2879 -2861 0
-1468 -1422 0
-117 3826 0
1854 -1967 0
1946 -790 0
563 3234 0
-1617 988 0
706 2068 0
-3351 186 0
2891 -165 0
1294 -1224 0
-1433 -771 0
2824 2576 0
-1125 -2005 0
627 -2023 0
2086 -3079 0
-3345 -2868 0
1611 -3006 0
-3278 3062 0
-2751 59 0
-2359 -2358 0
3636 -531 0
-832 -3640 0
-3410 2858 0
1045 -3992 0
-2234 -1578 0
3881 -177 0
-1293 3369 0
1962 -3264 0
-1195 -3927 0
3496 -3288 0
-793 -2168 0
-1822 -961 0
3382 -1613 0
-844 1316 0
-3883 -234 0
3109 2641 0
-2239 512 0
2531 -832 0
1859 2089 0
726 2615 0
2729 -3266 0
3723 2307 0
-2485 -2241 0
2155 -82 0
3272 103 0
3930 1764 0
-789 3018 0
-1563 -3850 0
-2503 574 0
-491 391 0
1347 -2811 0
3111 2083 0
152 -1912 0
1861 -2376 0
-868 -1148 0
-3306 -796 0
-917 3084 0
1199 2023 0
-415 1337 0
56 -2081 0
-2066 -1216 0
-1652 -887 0
3232 1189 0
-82 -3868 0
-2245 1699 0
-2462 -84 0
-1375 3640 0
3012 1723 0
-2796 -943 0
-850 3749 0
3272 -213 0
2313 3951 0
2037 -3683 0
3671 -183 0
3055 -2104 0
-1317 -414 0
1452 1858 0
-621 -2580 0
1697 -3478 0
-2404 -1841 0
-3707 -478 0
-2142 -207 0
1069 2491 0
368 744 0
-3218 888 0
789 2615 0
3644 3633 0
-1655 -871 0
275 3804 0
1493 -3297 0
-2442 1381 0
2229 1167 0
-2075 -1646 0
2021 -2389 0
-741 -2958 0
-444 -1829 0
-2664 -3369 0
1645 3799 0
-113 233 0
-1377 3657 0
1602 -123 0
3542 -1782 0
-1281 1990 0
-300 777 0
730 -3700 0
-1830 132 0
967 3160 0
278 -4003 0
-3907 -3992 0
-2916 -2793 0
615 -1105 0
2123 3300 0
-1821 1714 0
-3989 3500 0
833 3018 0
-2242 -3863 0
774 489 0
-70 -371 0
1598 736 0
675 2618 0
1207 -2225 0
-3169 -2767 0
-1991 -1082 0
-4018 -3859 0
-3634 1462 0
724 2981 0
4005 3044 0
1085 -958 0
-1394 3062 0
-1601 -932 0
-1115 57 0
3904 237 0
-195 3361 0
2859 2248 0
-2317 -1144 0
2819 -3650 0
1014 -1653 0
-2425 -1683 0
-3469 954 0
155 -3225 0
1299 172 0
-113 3525 0
-3309 233 0
-2658 -3351 0
658 -3967 0
748 -3542 0
1286 107 0
-2380 -2937 0
-1444 -979 0
736 -2544 0
3297 -483 0
2200 3983 0
-3897 -924 0
294 -2990 0
-168 -3894 0
-1427 -801 0
-2501 -2066 0
308 117 0
65 -2141 0
-854 -81 0
1374 2273 0
-2894 -2413 0
2594 -893 0
-2993 -1125 0
3604 2455 0
987 -3608 0
2756 -76 0
3057 -2298 0
-1050 -3763 0
3694 -2467 0
-1385 1829 0
3382 3253 0
2557 -3463 0
-1409 638 0
-2047 -1378 0
2209 3208 0
-648 -124 0
3257 1400 0
-2777 -1373 0
1212 -651 0
3946 1480 0
-1585 -174 0
-1039 -2142 0
-2267 816 0
1784 -2854 0
-1053 -656 0
1930 1689 0
-3472 -601 0
-2791 401 0
406 -3387 0
781 -3821 0
1672 3968 0
-3294 2571 0
3969 2103 0
3916 -934 0
-241 -590 0
2957 742 0
2434 2421 0
-3967 1935 0
4013 3016 0
-3435 747 0
-3647 1297 0
1169 -2579 0
2227 1535 0
672 2758 0
645 2863 0
-92 2772 0
-2497 18 0
-2940 2404 0
-2655 3708 0
-1774 -2939 0
3747 3371 0
1558 179 0
-511 -903 0
596 907 0
2350 -1479 0
2008 -2680 0
-1560 -3508 0
2772 -658 0
990 -3189 0
-1855 -1875 0
-180 1672 0
1848 2877 0
3196 -70 0
3882 1220 0
-2613 -2888 0
2264 624 0
1277 -1674 0
-3030 -2703 0
2350 -2584 0
2350 -1836 0
-1679 1943 0
-1180 781 0
889 2480 0
-2190 -3419 0
2769 -2921 0
1835 1948 0
-861 -1075 0
-2060 2685 0
-1075 984 0
-2790 2967 0
2310 2516 0
-1387 186 0
-2355 883 0
-83 -2904 0
1095 -1264 0
-1143 3114 0
-709 -1048 0
-2584 -762 0
-2844 -629 0
725 -658 0
-2759 -2784 0
3553 3862 0
-2000 -1628 0
304 -471 0
2829 2794 0
3641 1546 0
3549 3448 0
2877 2538 0
2898 3423 0
3246 -1808 0
745 -2949 0
3793 3139 0
-847 179 0
-2939 81 0
117 -3277 0
2945 2813 0
3068 2381 0
573 -868 0
-3241 3200 0
-1104 -3190 0
230 2222 0
-3775 -3012 0
-404 746 0
2377 718 0
3506 -2112 0
22 -1026 0
993 3799 0
-2121 -3846 0
-3523 -2873 0
-3975 -2993 0
928 -2628 0
940 -907 0
-1557 3910 0
3033 2017 0
280 3454 0
757 -3181 0
3188 1784 0
-3835 688 0
2283 -1622 0
-3981 -3665 0
-639 -3704 0
-1978 -392 0
3202 -3640 0
2687 -2317 0
1511 2185 0
1983 -2883 0
-3832 2926 0
2959 3875 0
-1674 1107 0
-3880 1433 0
624 1253 0
-1836 3330 0
274 -659 0
692 2214 0
647 -624 0
119 3490 0
-1950 -164 0
-3326 -1114 0
1796 -1232 0
-3720 1939 0
-2718 127 0
1936 3688 0
488 -1420 0
950 -2420 0
-3014 -3669 0
1493 1753 0
-1340 1919 0
99 2548 0
-1963 -2318 0
3388 150 0
-614 235 0
-1742 -3964 0
2495 -247 0
3391 -3987 0
-3372 1641 0
2571 -3237 0
-1273 2951 0
-1413 1047 0
2862 -3804 0
2050 3562 0
-2591 89 0
3250 3353 0
-2636 -976 0
-2706 -2193 0
3721 -1893 0
2019 3146 0
-1122 1901 0
3876 -492 0
2927 -867 0
-1683 -2782 0
-544 -2350 0
1618 1960 0
-365 3228 0
-2755 -626 0
-1639 -608 0
-472 -2979 0
-2833 -2319 0
2827 -3184 0
-631 3746 0
2328 1778 0
-1477 2467 0
-1641 -2242 0
-2573 1323 0
-1646 3869 0
982 2216 0
-3608 -3512 0
1129 -414 0
2147 -3368 0
-3816 -2125 0
3636 -806 0
3635 -2434 0
-169 1155 0
-3476 -1267 0
-3803 3401 0
2668 -3030 0
1346 3500 0
-2789 3758 0
2879 268 0
1777 1344 0
962 777 0
2079 -2378 0
1365 -3905 0
3412 -1780 0
-1237 2598 0
-3180 -2556 0
1572 -1065 0
-3047 3937 0
1569 3620 0
980 -698 0
-3305 2078 0
97 3592 0
3176 1347 0
2551 1544 0
3753 -2336 0
1494 -2798 0
-2775 -3103 0
2310 2229 0
-2087 3753 0
-1928 -1728 0
-1847 2840 0
-1562 3404 0
-1496 -1485 0
2870 538 0
1195 3358 0
-294 -2684 0
-971 3870 0
-3733 -56 0
-1204 -3498 0
-2961 117 0
-1591 -3735 0
487 -3061 0
3016 -3973 0
-1681 118 0
2596 3691 0
-1336 -2464 0
-3141 3432 0
-1809 466 0
464 1779 0
-477 2630 0
238 1409 0
-1071 -2483 0
2281 883 0
-2745 3727 0
-3665 -1214 0
3552 -1116 0
-3267 3073 0
-2201 -447 0
3357 -3079 0
-1409 1845 0
-3025 1614 0
26 795 0
3708 -3795 0
-737 546 0
-3736 -2079 0
3885 -3983 0
-3880 3933 0
-2026 3196 0
-2755 -1643 0
-3558 -1418 0
2084 1302 0
-1043 1059 0
-3742 -1741 0
1912 3629 0
-986 -1591 0
1628 1405 0
2479 3680 0
1824 -2384 0
1047 1056 0
3355 2133 0
-3940 -435 0
3050 -1565 0
-1580 -3942 0
1426 -2417 0
-1404 1367 0
3028 -3207 0
-3467 638 0
3125 3085 0
-1340 -2890 0
3556 470 0
1711 -3392 0
939 -3943 0
3842 2707 0
2744 -322 0
2431 -809 0
1248 3501 0
-1475 -3871 0
690 -1580 0
1646 3640 0
829 2515 0
3568 1229 0
-3257 1477 0
2806 1938 0
2008 -3664 0
3909 3144 0
-2913 -2169 0
-2984 -1986 0
2702 -2444 0
-1250 1371 0
-3275 -3855 0
-3273 106 0
-147 -2579 0
1799 2138 0
2589 2165 0
2672 -204 0
-192 -2943 0
-693 -2141 0
-3451 985 0
-1719 -1161 0
-958 -2671 0
1960 -3275 0
-1820 3996 0
2581 -2790 0
556 -674 0
-1969 683 0
-2181 1064 0
-494 282 0
3862 3913 0
3983 861 0
155 1503 0
-644 -3129 0
-3864 -3991 0
2880 -3855 0
1924 2919 0
-1981 2658 0
-2143 -3195 0
-1767 1134 0
-929 -3332 0
1261 -1860 0
543 -3645 0
-2157 2741 0
-2749 -150 0
3640 -4005 0
-3042 851 0
3477 -1217 0
-2655 -2755 0
-3287 2815 0
-3769 -603 0
-638 3840 0
-2962 -1313 0
-2507 -2412 0
1083 -37 0
-3632 990 0
-1638 3957 0
-1215 -2090 0
-507 -1711 0
1130 859 0
-3161 1002 0
-2783 -3941 0
-2929 3845 0
-1878 -92 0
-1629 3547 0
1522 -653 0
-3944 794 0
3389 -3358 0
-2923 880 0
-3301 304 0
1619 -2844 0
935 -2580 0
-2266 3654 0
-1829 2036 0
-3864 643 0
-3396 3464 0
3099 -3130 0
-606 2450 0
-1384 1382 0
-3920 1001 0
-3148 -3765 0
197 -2934 0
2606 -2426 0
2334 1880 0
-2886 1028 0
-3082 1004 0
133 -4017 0
-1997 -896 0
3644 3972 0
-381 -3698 0
2093 -2137 0
-1797 -416 0
949 -2708 0
2516 2755 0
-256 2078 0
-1325 3822 0
-2030 3530 0
-896 1561 0
1652 -1556 0
-330 -1510 0
-1531 2947 0
-3022 3349 0
-2012 -2576 0
-1519 -2083 0
148 -3409 0
-2691 -812 0
-2820 -2322 0
2931 3909 0
3123 -2694 0
1608 2008 0
686 -420 0
-2849 2494 0
2421 3330 0
2347 403 0
169 -3665 0
-3148 -286 0
-349 2911 0
-267 1044 0
1199 37 0
3409 747 0
2839 1201 0
1907 2353 0
-1918 1059 0
-1787 288 0
1678 -2138 0
2376 -1899 0
519 -1959 0
-3748 -3403 0
716 2452 0
2797 2729 0
-610 1872 0
-737 -1162 0
-2722 674 0
253 -2213 0
-3336 -3376 0
3065 3553 0
2179 883 0
3991 -3656 0
-3020 736 0
3821 3519 0
-566 294 0
-1522 -1758 0
1819 3840 0
3982 2241 0
706 -2957 0
2326 -3088 0
3195 -1770 0
1483 -335 0
-1905 -254 0
2285 769 0
766 762 0
2088 -762 0
-1766 -70 0
-1346 -257 0
3563 1505 0
-2508 1419 0
895 2325 0
-3735 1716 0
-1880 2922 0
-3714 3458 0
901 1453 0
1881 -472 0
2742 1753 0
2391 -2285 0
-3862 -249 0
3231 -3971 0
-2484 -410 0
-912 -2678 0
-3094 -2 0
3012 -2023 0
-2930 -2868 0
-63 3112 0
1150 -3532 0
-3128 2071 0
3382 3534 0
3275 521 0
292 -1737 0
576 -2257 0
-3237 -395 0
1482 2596 0
-1016 3408 0
-3703 -521 0
-266 -3116 0
-123 -2782 0
1837 1225 0
-2054 3085 0
-3317 1571 0
245 -2063 0
-3983 1002 0
3363 1677 0
-695 -1633 0
2131 -487 0
-3381 1633 0
2707 -1927 0
3223 -2964 0
2970 939 0
1137 3481 0
-1330 -964 0
-2329 -1730 0
664 -2559 0
3689 -3539 0
-259 425 0
1389 -1543 0
-3802 1420 0
1240 -1636 0
3423 3571 0
3859 2393 0
-1028 783 0
-455 3098 0
-749 582 0
-1312 2492 0
3721 -2541 0
706 -576 0
-1208 3541 0
-841 -3291 0
-960 -973 0
3957 -2236 0
3371 -3688 0
-3096 3360 0
-2499 74 0
2365 -3837 0
1477 130 0
2280 -3245 0
767 -2151 0
3232 -642 0
1166 -3846 0
3039 -2322 0
-765 2822 0
-2406 1534 0
3894 -2047 0
-3364 -3872 0
-2321 -1107 0
2600 3223 0
491 -3259 0
268 -426 0
-3379 555 0
2718 -34 0
1221 -2081 0
-2245 3452 0
2366 2352 0
-390 -1129 0
-753 -643 0
-3320 3317 0
-698 286 0
-2157 -2320 0
-3386 -2347 0
1126 440 0
-1102 -3140 0
1922 -2221 0
-2723 1471 0
-399 3945 0
3056 -357 0
-1561 27 0
-1548 1025 0
2235 -1740 0
-3584 -2575 0
-248 2814 0
-3447 543 0
102 -31 0
-1639 3899 0
-2936 2786 0
1410 1401 0
292 362 0
-428 -3838 0
-412 939 0
604 4003 0
-2673 -328 0
471 211 0
-2223 1347 0
2650 3460 0
1438 3774 0
-2654 728 0
3299 772 0
383 388 0
-808 -1856 0
-2463 -3269 0
-1257 3226 0
1800 3294 0
665 2252 0
-3669 -3560 0
-382 -704 0
-3903 -1250 0
-3355 -1002 0
-1194 -2154 0
-421 -2621 0
819 -1565 0
2427 1404 0
1186 762 0
-3117 -749 0
-2990 134 0
-2522 886 0
-3283 2705 0
1320 369 0
-2944 -1905 0
-2223 -1375 0
2776 -3092 0
1992 -868 0
-3960 -124 0
-1181 2545 0
711 3083 0
-3001 -2746 0
-2742 -434 0
309 3895 0
2996 320 0
2321 -758 0
-3320 -2877 0
-3749 -1603 0
1143 -666 0
213 -826 0
920 389 0
-1961 3732 0
3852 3640 0
-965 1596 0
626 -2212 0
1846 3825 0
2531 1605 0
-3230 62 0
3434 -1162 0
-2888 -21 0
-788 1842 0
-3315 1520 0
-2217 -2648 0
1076 -2311 0
-946 -3797 0
-2625 -830 0
-2584 2615 0
1810 2089 0
2480 1035 0
3130 1935 0
-2538 -2196 0
3122 937 0
-497 357 0
-2676 700 0
1494 3200 0
1520 -2654 0
-3403 -2188 0
-1261 -2196 0
-1695 252 0
-1062 775 0
30 2427 0
-3619 3990 0
-669 2532 0
659 3945 0
-3193 3086 0
915 -1834 0
3339 535 0
-2059 1084 0
-908 1475 0
1388 -262 0
-445 2557 0
2387 144 0
1183 1414 0
2841 -2844 0
-1276 -1245 0
-1813 -872 0
-2944 -1222 0
-1105 3204 0
769 -709 0
-3490 -2846 0
3496 1274 0
1713 1325 0
-951 2282 0
-581 1644 0
-1024 -3231 0
-645 3200 0
3383 2383 0
1695 -3268 0
-3539 -41 0
-629 -897 0
1913 -2962 0
3732 -1230 0
-3923 1959 0
-3012 217 0
2705 -2413 0
-3136 1327 0
-2113 -448 0
-1194 -994 0
1600 -34 0
-738 768 0
-1599 -2183 0
-2692 2096 0
2932 1108 0
-3653 -2463 0
1301 -3931 0
3112 765 0
-3973 3304 0
2661 -2075 0
2740 -537 0
-3970 -3612 0
-2700 -247 0
3553 -3016 0
-3032 61 0
-1803 3040 0
3682 73 0
3221 -16 0
2177 -3975 0
-2960 -793 0
1171 -1836 0
1175 3402 0
3243 -2233 0
-3620 -2665 0
-2580 -3207 0
1408 -1239 0
-2913 3313 0
-981 3414 0
3354 -2206 0
2531 -1723 0
2837 2968 0
-964 -3521 0
3638 -3676 0
-2499 3992 0
2459 -558 0
-3826 -3838 0
-765 -3622 0
56 -3622 0
3346 -3317 0
2842 -3992 0
2247 -2428 0
-3936 -1493 0
-2779 2798 0
-775 2213 0
-1444 358 0
-1856 2320 0
-3411 769 0
1006 -2833 0
3629 3593 0
-564 1410 0
367 922 0
1389 572 0
-2542 -920 0
3527 -863 0
-2717 -266 0
524 -1529 0
1179 3350 0
26 1598 0
3875 869 0
93 -1315 0
1513 -477 0
3993 -1809 0
1420 -877 0
3030 -3167 0
978 -1010 0
-2076 74 0
-3966 2869 0
3785 325 0
-339 1654 0
-3291 -3140 0
449 -331 0
1019 -661 0
-3415 -3015 0
484 -1457 0
-2949 -1441 0
-2042 1904 0
198 -3693 0
-264 1921 0
1052 -1917 0
-2002 687 0
-86 3581 0
497 3107 0
-3711 -731 0
-1017 -3879 0
-50 -2266 0
-3723 1393 0
3855 232 0
-3679 -2370 0
2623 3606 0
-3129 -1128 0
2600 1450 0
-1749 1579 0
-1118 -2671 0
331 2395 0
-2081 2537 0
-1257 -2462 0
1566 3350 0
18 129 0
1982 -1489 0
3172 1957 0
-1235 536 0
-594 -1418 0
2492 2364 0
-2681 2672 0
3916 2746 0
3468 1750 0
-837 -1805 0
-3836 2806 0
-3863 3689 0
623 -2851 0
300 -2274 0
-2726 -3300 0
1058 -20 0
-3478 -3129 0
916 -1499 0
3420 -3812 0
3473 2980 0
931 -1686 0
4007 -81 0
-425 3068 0
4007 -2374 0
654 -462 0
1527 3819 0
-3991 114 0
1632 -1657 0
-206 -2681 0
-2458 3890 0
-2938 152 0
-2047 -1301 0
-1371 2386 0
142 1632 0
3019 3235 0
1035 -223 0
1800 -364 0
258 -3427 0
3377 552 0
-1520 2945 0
461 -2920 0
179 1543 0
-968 -632 0
-3584 3679 0
-1176 -2211 0
776 2285 0
805 -459 0
2381 3615 0
272 -2254 0
3669 -1421 0
1192 517 0
3004 -3599 0
-3239 -2440 0
2215 45 0
1878 2845 0
-932 1698 0
3786 -2263 0
2766 -2190 0
-2748 -870 0
3840 -3893 0
3572 705 0
2564 -475 0
2089 -1411 0
-3528 4005 0
1810 -1738 0
-701 -1017 0
2026 -319 0
3181 725 0
1672 -946 0
3698 -498 0
1139 3831 0
-378 2773 0
3470 3763 0
186 2639 0
2471 2646 0
1770 -3865 0
989 -3290 0
-3651 -1334 0
-2508 3392 0
3161 2422 0
-3147 -442 0
3581 563 0
1546 -3507 0
1956 2875 0
-3264 2537 0
-3636 -50 0
3112 582 0
-3322 -2501 0
-3547 -1453 0
3422 -3779 0
-1541 -154 0
2999 -442 0
236 325 0
1763 -2994 0
3408 -1013 0
-843 -1057 0
502 -1173 0
-878 -2348 0
3360 -1165 0
2253 994 0
1908 3091 0
-1872 -2695 0
-3927 -2499 0
1652 347 0
3463 -2369 0
-4013 1136 0
-1335 733 0
1346 990 0
51 -649 0
-3011 -3228 0
702 582 0
-3727 2523 0
-1430 -2086 0
661 2766 0
3605 -677 0
1769 3705 0
2739 2539 0
2997 -1876 0
-2470 -564 0
1193 -3772 0
-1372 2643 0
-2431 -2943 0
3617 -2916 0
-3835 -1300 0
2286 -1211 0
1762 -181 0
2630 3820 0
-1407 3130 0
-2694 686 0
-1860 625 0
1077 -3769 0
105 -2398 0
-2947 3444 0
1317 2531 0
3624 721 0
-1665 -705 0
-3497 2182 0
3106 -1368 0
686 -3843 0
-1976 2368 0
99 -30 0
2651 1362 0
2685 3619 0
-941 3265 0
-3948 2475 0
3493 1835 0
2699 2382 0
3473 2415 0
194 1005 0
-2578 3736 0
2917 -1653 0
-2168 1106 0
-1737 1294 0
2545 2830 0
-123 3930 0
1025 3159 0
3231 2005 0
3369 -529 0
1292 -904 0
-1541 3150 0
2209 -2224 0
-1448 1874 0
-3343 1510 0
-39 -3801 0
-2212 260 0
-183 647 0
-3063 3176 0
3202 -3275 0
-2904 -3274 0
997 -2398 0
3118 617 0
3797 -1350 0
2643 3629 0
2018 1681 0
-1019 194 0
-658 1325 0
3561 -1850 0
-1865 2107 0
-71 -440 0
3192 3945 0
-2149 3682 0
-2684 3683 0
3531 3107 0
-3439 1508 0
-3533 -2141 0
-2568 3418 0
568 -2144 0
-836 1806 0
-1675 75 0
-337 2428 0
-90 -2278 0
-2076 637 0
-2324 2538 0
3589 -3421 0
3977 831 0
900 2058 0
1390 -2290 0
1524 2808 0
-259 -1574 0
-2194 -1533 0
-3455 684 0
1243 -3134 0
-2461 3559 0
-2012 -3919 0
1439 2209 0
-2030 1960 0
-3625 1925 0
3891 -2164 0
685 2622 0
3185 2247 0
-3435 1038 0
3016 -2005 0
949 -1103 0
2395 -3827 0
-2627 342 0
3700 -3901 0
1415 -90 0
4008 728 0
-2580 775 0
3711 -2154 0
-1883 2996 0
1736 2197 0
604 812 0
-3235 2813 0
-822 -1692 0
-3888 -322 0
1215 3084 0
597 2574 0
3205 1375 0
-2567 89 0
119 1748 0
-3795 3301 0
-1395 1284 0
-3429 82 0
-609 -1573 0
2902 2535 0
-3385 3605 0
-1089 2764 0
-1917 1908 0
3909 1345 0
2255 -296 0
-3785 -2958 0
-1761 -3728 0
-1494 2213 0
-2466 3872 0
-1256 -3334 0
-2566 -3215 0
2363 -2059 0
3161 3541 0
2774 1387 0
-418 554 0
2826 -1541 0
-3106 -566 0
-3324 1915 0
-3868 -3051 0
-1350 -2888 0
3954 -3952 0
-3843 1475 0
269 1482 0
71 -2236 0
-1342 -2330 0
186 -379 0
-3964 -2508 0
-1706 -3494 0
-1839 -267 0
264 3651 0
-2871 -2099 0
-3286 2835 0
267 2603 0
-113 2794 0
2328 3538 0
1052 2179 0
2106 544 0
3882 -3438 0
-2903 -2179 0
3560 3416 0
-1563 -2736 0
3601 -3001 0
1496 1884 0
-2639 -1325 0
-975 824 0
-2952 3423 0
-487 2404 0
3317 -2472 0
920 -1523 0
-3933 1429 0
1184 2865 0
-1801 -1634 0
2233 933 0
1408 -2207 0
-2141 2501 0
1311 377 0
-189 -2249 0
3596 3647 0
-498 -148 0
-3293 -1149 0
783 3840 0
-2601 534 0
-1494 -3154 0
2150 2208 0
2970 1177 0
-3959 1113 0
3713 -737 0
-2558 594 0
1773 -698 0
1863 2455 0
-2193 -3908 0
-1029 975 0
1962 3570 0
2234 3899 0
963 1055 0
-327 -221 0
2586 -1104 0
2153 -939 0
-3252 -2339 0
-2158 3086 0
-557 -2737 0
1135 675 0
3549 3024 0
2101 1259 0
-660 2317 0
-1007 -595 0
-1939 1932 0
-3593 2807 0
-2818 2649 0
-3917 -305 0
-437 2246 0
951 -1729 0
-1314 848 0
962 -682 0
1398 -1848 0
-2554 3858 0
-268 -295 0
-2710 -1507 0
-2734 -780 0
-1775 -894 0
-1300 -2619 0
3273 -3065 0
-271 2747 0
-2613 3669 0
-2491 -3233 0
282 3952 0
2349 1091 0
-804 2930 0
2679 -1677 0
-1084 -660 0
-754 2352 0
980 -3309 0
760 -47 0
1765 4019 0
-1364 447 0
-1930 -3337 0
-27 -2095 0
-1944 -2492 0
-574 1562 0
1858 -241 0
797 610 0
-2746 388 0
3530 -3712 0
479 1477 0
679 -60 0
542 2699 0
2010 -1695 0
579 -3910 0
3430 1478 0
3995 989 0
1635 -1950 0
856 -2052 0
1345 1753 0
-2448 2186 0
-2610 -1179 0
3404 -576 0
2724 -1300 0
-1494 1015 0
-1828 -687 0
-3996 -2561 0
2882 1272 0
338 2595 0
-1774 -1901 0
-518 735 0
-3119 3718 0
-2599 -720 0
3311 3327 0
1098 -1509 0
1571 -2482 0
2964 2907 0
1019 -1498 0
2216 3682 0
698 1684 0
2386 480 0
-437 2549 0
-2440 -424 0
1529 761 0
950 -1283 0
553 -1636 0
2842 -2896 0
-3386 1 0
-2173 -1344 0
-2325 -2827 0
2837 -1781 0
-3819 -1316 0
-1644 1101 0
976 -1722 0
-558 2582 0
1200 -391 0
3732 922 0
2114 364 0
-3177 945 0
478 810 0
1418 2455 0
1228 3496 0
-2643 -1918 0
912 456 0
1614 -2672 0
-3094 -1541 0
-400 3377 0
3689 1865 0
-656 -3927 0
-2353 2259 0
-3600 -2448 0
-1905 3340 0
1735 3945 0
1426 518 0
134 -2562 0
-2021 3354 0
-763 -3703 0
-541 -3536 0
-3396 -2467 0
3532 3762 0
-1738 -1781 0
-1843 -731 0
-349 2092 0
-2734 3205 0
2676 327 0
1130 -279 0
-2489 -3075 0
-2481 2069 0
-2832 -2779 0
-91 987 0
1122 -128 0
-958 -2923 0
-2613 457 0
1152 3776 0
-3634 1406 0
-1489 1003 0
1410 75 0
961 1566 0
848 -317 0
-3040 -1427 0
-2059 -2902 0
3258 2069 0
-2007 -563 0
-3402 -2964 0
-3670 2519 0
-3151 -1941 0
2753 -631 0
3188 1007 0
3293 1069 0
-2040 -1741 0
-2177 3087 0
-84 -2321 0
73 2341 0
-892 2156 0
2416 -1850 0
-3910 2315 0
1816 2275 0
3248 -2840 0
1174 2145 0
-2717 -3209 0
-3251 1759 0
-1748 795 0
-1708 -1225 0
-3832 -749 0
-2065 417 0
1757 -392 0
1069 -3450 0
-2787 1949 0
-1374 -2188 0
1778 -3149 0
2548 744 0
-907 -1312 0
2641 2606 0
-744 -3621 0
1074 3702 0
1994 3842 0
-2846 -3971 0
-3286 -279 0
-429 -2155 0
-1973 1238 0
2267 3368 0
3716 -115 0
-1089 -2658 0
-2486 -2191 0
3722 1839 0
-2751 3789 0
-1748 3172 0
147 609 0
-2399 -2641 0
-1750 2947 0
-3766 -2491 0
-2901 1881 0
2876 2785 0
1489 1172 0
-3064 1499 0
-1025 -2385 0
2357 173 0
-1302 1828 0
1726 3623 0
2938 3404 0
2714 3828 0
2111 3108 0
1813 2796 0
-2425 -3258 0
-1501 2391 0
-2899 -3708 0
1243 1902 0
-1421 1412 0
139 -2498 0
1153 1558 0
3400 1871 0
1554 -356 0
2645 2463 0
810 2276 0
-2372 -370 0
1784 -2700 0
-1114 -272 0
-333 3871 0
3100 2161 0
2887 -1299 0
-3095 366 0
1309 273 0
2306 -2074 0
801 -2691 0
625 -310 0
3281 -2050 0
-1813 -824 0
1689 -1540 0
-3973 -3068 0
2127 -341 0
3433 651 0
2930 -2006 0
846 -1775 0
-2540 -495 0
-3246 775 0
-1485 1753 0
3269 2799 0
-2620 422 0
-611 820 0
-640 -2697 0
610 -2398 0
875 -3348 0
-3423 -3802 0
-3784 -1745 0
939 -1331 0
1161 1726 0
2011 954 0
-2319 -1442 0
1150 -1514 0
179 3899 0
-533 -1014 0
3525 1652 0
-3837 1503 0
2406 3615 0
1502 -3957 0
-3758 3404 0
-1338 -2716 0
2792 3170 0
-753 -527 0
360 -2414 0
-3715 1702 0
-2220 -2885 0
-596 -2343 0
4013 -3409 0
1615 -893 0
-2390 3149 0
1208 3488 0
-3375 775 0
-2462 -2984 0
2847 1100 0
3342 2905 0
3111 -1195 0
-868 -3248 0
4014 -1580 0
3007 -2797 0
1568 -2614 0
-2769 767 0
-3011 -1193 0
3702 -3824 0
-2973 2729 0
2213 -1009 0
-608 3306 0
1311 287 0
331 3202 0
-882 434 0
238 1981 0
1984 -285 0
-1061 2291 0
3829 -1369 0
2697 2343 0
3215 1154 0
2273 -1319 0
-2679 -3810 0
-2033 -774 0
-2113 3728 0
1014 -2521 0
-3681 -1167 0
2310 3150 0
-2113 2029 0
-2672 2387 0
-2106 417 0
2091 -1193 0
3382 -2086 0
23 873 0
-1980 -7 0
-861 -3191 0
-2406 -3262 0
666 -2116 0
2854 3741 0
3922 -901 0
1685 2101 0
282 -2223 0
2667 -3517 0
-2588 503 0
911 -1351 0
1596 -1200 0
3344 3024 0
3298 920 0
2084 -1599 0
3945 1553 0
-3747 -760 0
2146 445 0
-1966 -144 0
-1679 3503 0
2722 -695 0
278 585 0
3121 858 0
1215 -2067 0
-774 2020 0
-2456 2128 0
-2453 6 0
-2658 -84 0
2104 -664 0
-992 -3265 0
-2110 -493 0
-3214 -1811 0
1032 2303 0
-3229 -1681 0
2270 1980 0
3462 713 0
118 3781 0
787 -3727 0
-1486 991 0
3713 389 0
1550 3569 0
-2060 -3045 0
-2932 -477 0
1201 1730 0
2713 3276 0
-847 1209 0
-2207 1246 0
-2860 1040 0
-2929 -1792 0
-3433 2611 0
-1774 2883 0
1559 500 0
2276 -1981 0
2770 -3803 0
994 -1761 0
811 -3284 0
-1423 568 0
-2307 -2292 0
2144 1138 0
1852 1436 0
3694 1968 0
-2401 641 0
-1326 3227 0
1490 3302 0
-2193 3062 0
3268 1583 0
-107 -2923 0
3024 -1699 0
2987 1723 0
521 1648 0
-3868 -81 0
3934 13 0
686 1115 0
2712 -382 0
3672 -2437 0
1979 3502 0
3920 -2026 0
-1344 579 0
-3121 823 0
-383 561 0
3789 -3334 0
2100 -2974 0
-3387 1538 0
-538 2025 0
1864 3486 0
-3677 -1101 0
-3741 -3090 0
3759 3840 0
-1444 1492 0
-962 -464 0
2656 2197 0
2025 795 0
3506 -1180 0
2784 1828 0
-2413 -542 0
-1943 -1204 0
2970 876 0
556 1556 0
-1037 -3491 0
-2203 -4011 0
-1687 -1082 0
711 -916 0
-1740 -2487 0
-199 2626 0
-2584 -2975 0
-3153 -658 0
-485 1488 0
2308 299 0
1856 2333 0
2115 -710 0
-1989 2894 0
2073 1904 0
-2683 -414 0
20 -907 0
1744 -2261 0
-3440 2256 0
-2420 -339 0
-961 -2896 0
-2781 -839 0
-2968 3008 0
-2798 3513 0
-262 -2320 0
1853 -2384 0
3124 -2259 0
-1369 -17 0
1034 -2868 0
-536 -650 0
-1003 1891 0
-1684 2807 0
-171 3015 0
1169 -2062 0
-3918 339 0
-1507 -2755 0
1222 -3926 0
1199 -1726 0
1456 -1429 0
-647 -1669 0
-47 -3356 0
-2105 3071 0
1317 3093 0
3771 -3893 0
-3489 2045 0
2720 1024 0
-1281 -1165 0
-72 3858 0
1736 -2149 0
2243 -3627 0
3104 -3523 0
-2395 -2024 0
-3061 3996 0
2072 2070 0
714 -2593 0
826 -3897 0
2840 3534 0
1317 1713 0
-889 -262 0
-2405 -1550 0
3306 -416 0
-428 -921 0
-1152 510 0
3446 -552 0
422 -3730 0
-1991 -3251 0
1364 -457 0
-1722 -2755 0
3062 -3053 0
1419 -1209 0
-1927 2813 0
-2565 -3235 0
1934 3895 0
-3229 3962 0
138 -836 0
2451 2890 0
3403 -2797 0
1753 -3875 0
2360 3962 0
3966 2404 0
3348 3131 0
-2976 -3552 0
522 1058 0
-2171 3327 0
946 -2318 0
2366 -1526 0
3084 1302 0
-2024 259 0
833 2900 0
-3938 -4013 0
-1208 1894 0
-1446 1005 0
341 2631 0
-2829 1773 0
-2754 -2809 0
-1105 -1631 0
318 -1792 0
-2904 -2087 0
-1438 3526 0
517 2954 0
-1201 1992 0
-2220 -1239 0
-2065 1684 0
-1132 -1813 0
-1372 -1292 0
-1567 2450 0
-2850 -2504 0
-1811 984 0
1799 2816 0
2059 -487 0
-655 2550 0
-1322 -2236 0
-3747 -2208 0
2687 -1692 0
-954 3269 0
3599 3968 0
-695 1966 0
-2427 2531 0
-3713 3698 0
-65 502 0
-1951 -3283 0
-724 1558 0
481 -3674 0
-909 2347 0
-1999 -3610 0
-1026 296 0
-3586 -2457 0
-3610 -3182 0
-496 706 0
1479 -2295 0
-3017 -1966 0
3582 1751 0
-960 -2598 0
-194 -2715 0
-3543 -1756 0
-3106 848 0
-560 428 0
-3767 -3287 0
-41 1563 0
255 -573 0
3104 -687 0
2337 3120 0
1959 3012 0
-2044 -1435 0
-2730 -566 0
-2434 -2687 0
-2575 -593 0
1939 -2682 0
-1978 -3173 0
196 -513 0
-887 -3779 0
3419 -2322 0
3781 3968 0
1155 -1828 0
-1463 -709 0
-492 -2787 0
-3886 -3082 0
239 3963 0
940 -3308 0
3848 -2985 0
1212 -3411 0
-1761 -2877 0
-2950 838 0
-1429 604 0
-2895 -1023 0
-753 3055 0
3298 -1775 0
379 2022 0
-2409 1509 0
-2885 975 0
1277 2304 0
1359 3336 0
-3873 282 0
-3124 -1709 0
-2137 3191 0
847 1938 0
1410 -2775 0
-1511 4005 0
-1204 -3351 0
-2217 -3912 0
1572 -3156 0
-2813 422 0
-2803 1695 0
3412 3489 0
2178 -11 0
521 -2797 0
443 -2934 0
2328 -316 0
-2521 1401 0
2034 3500 0
-2439 -3126 0
334 -1666 0
297 252 0
-3975 -2433 0
1505 -2882 0
-2696 -457 0
-242 -2297 0
543 -2685 0
685 2475 0
-3748 727 0
806 1703 0
-1519 3361 0
-462 -1486 0
-426 -3409 0
-158 2235 0
1152 742 0
-365 -3210 0
-1937 -2884 0
1169 -1961 0
-2984 2579 0
83 692 0
344 1474 0
-3550 -2804 0
-41 1526 0
-3560 -822 0
268 -2690 0
-2556 -1034 0
2303 -933 0
-564 251 0
2178 2459 0
1245 2482 0
-2767 -2894 0
2983 3770 0
-3385 -2024 0
-3889 1189 0
-554 1015 0
3610 1267 0
-3724 542 0
2729 -1841 0
-892 -1498 0
4007 -2099 0
-2380 -2292 0
-3760 1513 0
1002 -3153 0
-741 -152 0
3109 3228 0
-654 940 0
-404 -3101 0
-2239 3312 0
2977 -3842 0
-1988 2157 0
1676 3762 0
3257 1824 0
-1664 2253 0
-1256 1027 0
153 -556 0
-2402 3730 0
-1547 3845 0
1862 -2406 0
-2323 -149 0
3811 2055 0
1608 -2207 0
1046 -3943 0
-2392 -2844 0
-2578 3465 0
-2306 2202 0
1687 -2759 0
3431 3149 0
-3211 3875 0
-2283 -3932 0
3759 985 0
-1299 -2822 0
-498 -46 0
3197 -2521 0
-233 2293 0
1251 2823 0
-850 1755 0
889 -2493 0
-759 568 0
684 3184 0
2881 1393 0
1066 -2722 0
-15 -1683 0
153 3240 0
2004 -2344 0
-1895 3318 0
-2391 -1781 0
-1534 -1234 0
-3588 2181 0
-3285 -1721 0
1684 -661 0
-3163 1891 0
-1645 370 0
-1751 455 0
-1151 -1098 0
-2952 -2081 0
2690 -3288 0
-2540 -1441 0
-3734 -3898 0
179 1504 0
3544 -3560 0
1127 3304 0
1944 -3760 0
-3223 377 0
-1289 888 0
1112 -2751 0
-1896 -811 0
1428 -1944 0
1765 1681 0
-698 3008 0
681 3497 0
-1848 -3872 0
-3584 -1021 0
2858 -3626 0
3319 3763 0
-1712 -3071 0
1112 -266 0
-1491 655 0
-3092 179 0
3696 730 0
1734 935 0
3935 3529 0
2418 542 0
2298 3506 0
1070 -355 0
1027 -48 0
-85 -2518 0
-3464 -2447 0
-3560 1247 0
3477 -2895 0
-3787 -235 0
3687 2301 0
1865 1127 0
2771 -2322 0
3234 370 0
926 3711 0
-2616 -3102 0
3899 -1292 0
-3484 -3109 0
-3334 3947 0
-2324 704 0
1143 -1603 0
-2839 410 0
-780 3088 0
3174 2263 0
3024 959 0
1614 2478 0
-4012 268 0
865 1080 0
-1203 1628 0
-2704 -3418 0
758 1939 0
-2883 -1489 0
877 -1323 0
3741 -2148 0
1136 2198 0
-1666 99 0
2534 1775 0
542 -1537 0
269 -2505 0
-1599 -2065 0
2646 265 0
1400 -3218 0
-2116 -1374 0
-3607 -3738 0
3653 1779 0
73 -1286 0
-2757 2139 0
-2934 1975 0
3568 -4011 0
1866 -3336 0
-3692 -2094 0
-332 -347 0
-3936 2404 0
-48 2105 0
-792 -3538 0
-1466 1025 0
-3538 -3552 0
3716 -2775 0
-404 -2942 0
3813 -2150 0
2498 -2191 0
-77 2031 0
1042 3735 0
-1115 528 0
-2973 -1926 0
2461 1884 0
881 2640 0
-3566 2974 0
3158 -439 0
666 2758 0
3454 2422 0
-2065 -486 0
34 -3483 0
2367 -1347 0
-1917 1369 0
473 3638 0
-1791 -2851 0
-1086 -2389 0
3973 -2053 0
950 2983 0
885 -358 0
-3540 849 0
990 1243 0
-3325 -2979 0
-1986 -1903 0
-2063 3053 0
-1582 -424 0
-1203 -1387 0
3740 810 0
3453 -851 0
-3005 -2744 0
289 248 0
-3460 194 0
2313 -2903 0
2811 289 0
302 -2852 0
1054 -1962 0
3711 766 0
-1533 2891 0
-717 2111 0
-1153 -1144 0
-1914 -773 0
-724 -2832 0
940 2439 0
-1126 1478 0
-3340 1143 0
2537 -964 0
-3161 -3242 0
-367 -439 0
2341 -1152 0
-2637 -1090 0
-1967 -567 0
-3732 -3792 0
2471 2097 0
-1503 1798 0
1410 4011 0
-1940 -2250 0
3026 3803 0
-1244 -2285 0
-2164 3906 0
-2275 -3673 0
1916 1600 0
1427 -317 0
-1051 -2064 0
-1018 3342 0
3133 2086 0
2538 2204 0
-1319 -3548 0
1232 2451 0
149 3022 0
160 2300 0
2157 -3125 0
313 1073 0
1837 1222 0
-1528 -3082 0
2597 -1711 0
-1917 -3337 0
-1781 1408 0
1262 1464 0
-508 -3400 0
1179 1730 0
-2754 -2836 0
3485 3478 0
3900 1372 0
2068 818 0
833 3488 0
-599 3724 0
1630 1212 0
-2210 -937 0
3559 1698 0
-2287 1070 0
-1519 -937 0
-3534 2268 0
2519 3470 0
3429 -1801 0
3177 -244 0
-953 -2960 0
2845 820 0
1322 2516 0
3101 -2399 0
-3639 -199 0
1197 379 0
-3718 -501 0
2900 -1769 0
-1531 -3743 0
3844 -3651 0
3900 248 0
-3450 -147 0
988 3522 0
-1698 271 0
-1683 -3944 0
503 3493 0
3482 -2906 0
-3355 -1326 0
-2584 1771 0
2270 -1867 0
1051 -704 0
3684 -728 0
3431 -1780 0
-3871 -2202 0
278 1742 0
-756 3069 0
-513 -1647 0
3732 1734 0
-2596 2898 0
291 3380 0
829 3303 0
-3602 3185 0
-1660 -1202 0
-2191 2535 0
1399 -838 0
4003 -259 0
-3912 530 0
-152 -3203 0
-328 -1432 0
1278 1913 0
-1820 1361 0
-1486 3728 0
2637 3732 0
-3737 -854 0
761 -2728 0
1627 2036 0
1515 -237 0
-3099 -148 0
3416 491 0
2275 -164 0
-573 -1232 0
-1562 2376 0
-2805 2393 0
1819 -2085 0
-3248 -2407 0
1742 797 0
2197 -2380 0
-2319 2876 0
3224 483 0
1399 2835 0
1039 1303 0
-3743 -376 0
-1273 -729 0
-1381 2645 0
-249 -83 0
-1045 -362 0
302 -2799 0
1314 4019 0
-944 2243 0
-3578 -2321 0
1842 73 0
2585 -1513 0
935 810 0
2595 -444 0
-1908 -2735 0
-2564 -2025 0
-2040 -3389 0
-2814 -3227 0
2843 3587 0
2299 3740 0
1469 2738 0
3333 3654 0
2259 1892 0
-3370 -3943 0
-717 1110 0
489 -4010 0
2792 -1653 0
-699 239 0
-2560 2922 0
-734 1313 0
-3509 2261 0
2887 -2290 0
2708 -1639 0
-2700 2886 0
-1113 -1274 0
2313 -750 0
3348 -2805 0
-562 -2469 0
3752 -2702 0
-1542 3468 0
-1599 1619 0
3088 -3273 0
6 -1863 0
3332 1196 0
1892 -2796 0
1948 2614 0
-2914 284 0
-3713 1741 0
-419 -1083 0
3288 1546 0
-82 -2379 0
280 3025 0
1565 363 0
-2914 1067 0
-960 -2851 0
2189 1118 0
-410 344 0
-3508 -321 0
-195 -1343 0
3402 1758 0
3759 -2112 0
-1351 -1012 0
-312 2635 0
265 -545 0
-1687 -2680 0
1326 -3804 0
3541 2765 0
3862 -1919 0
-3011 -2676 0
-426 -3612 0
1570 -3356 0
-1045 583 0
-3879 2958 0
-458 -2533 0
-3551 -1020 0
-1774 1477 0
3894 -3042 0
-2257 1669 0
-2656 -2811 0
222 3608 0
361 -3662 0
-564 -1670 0
1392 -2816 0
-2489 -771 0
-172 3667 0
-300 -3855 0
404 589 0
2936 3119 0
-2305 1321 0
2926 -2207 0
-870 1760 0
3268 2757 0
-1778 1888 0
1547 2844 0
1419 -1197 0
3403 -2471 0
-345 744 0
-1666 3057 0
-601 1541 0
-3571 -230 0
1487 -2841 0
-1538 1943 0
-1102 1457 0
2706 -32 0
-2449 -178 0
1891 -1243 0
2215 3668 0
3684 -2318 0
-3379 1461 0
-2882 2985 0
301 -2224 0
3823 3041 0
1523 1420 0
-347 1638 0
-1232 3865 0
3438 -2563 0
-508 -1227 0
1983 -981 0
-616 2317 0
-3747 -1555 0
3107 808 0
3259 2880 0
440 2077 0
2511 -524 0
-3275 -2939 0
-3814 536 0
2421 1112 0
-1875 433 0
-467 -3738 0
3208 1080 0
-1060 -540 0
-350 1363 0
-475 2942 0
-3790 3088 0
-3726 2659 0
-1581 -1988 0
3496 -835 0
1249 -505 0
-608 -3041 0
1843 3771 0
-672 2752 0
300 -3625 0
-2271 2202 0
1577 -2385 0
-1730 -2972 0
-3223 -2336 0
-3049 3115 0
-2620 3265 0
-2682 -1818 0
-3187 2365 0
2438 -1541 0
2948 -3869 0
-2517 2214 0
-3784 -1126 0
3729 -3791 0
2494 2386 0
2135 3425 0
-3051 660 0
1468 2428 0
618 1855 0
-3129 -1950 0
-1423 -3733 0
674 -3670 0
-3672 1445 0
-2193 3395 0
1691 -3164 0
3106 1372 0
-2740 -1198 0
-799 2606 0
-1500 -340 0
-2460 -1765 0
-814 -2246 0
2993 2282 0
2980 3028 0
-1789 1571 0
-1157 -3993 0
97 -1775 0
-3832 1610 0
114 3141 0
-1586 -340 0
2642 -2831 0
2981 875 0
-1286 1272 0
668 -54 0
-3206 -1642 0
1218 -2507 0
-3980 1759 0
-2447 -1433 0
-3966 -3450 0
-2609 654 0
3799 2747 0
-3453 1142 0
-1523 -1805 0
2204 -1589 0
3657 -448 0
-3514 1358 0
-3433 -372 0
-1247 228 0
-419 -2257 0
-346 3181 0
3174 1387 0
-829 -1803 0
2034 -2451 0
921 3246 0
-3140 3588 0
-3975 -2633 0
2686 2741 0
3356 2433 0
-327 -3648 0
3642 -3129 0
2898 -1567 0
137 -4007 0
-959 1996 0
1188 -3511 0
-1588 -4018 0
1236 2137 0
830 -1694 0
2112 -3798 0
-1348 3468 0
3257 2004 0
2186 2641 0
840 3093 0
-2438 -3639 0
-1978 339 0
-3252 727 0
2600 -860 0
-1179 948 0
378 -622 0
3862 -267 0
2570 2749 0
2414 1650 0
2296 2922 0
-205 -3068 0
-1915 3573 0
971 3881 0
755 -113 0
3393 -2723 0
-3158 3091 0
2988 1689 0
-3515 421 0
-180 2362 0
-467 -2186 0
2301 1356 0
1976 3573 0
-996 -2601 0
1595 -2155 0
-3605 -1183 0
-2886 1210 0
-2116 3528 0
-3690 -3643 0
-2304 298 0
-3252 156 0
-1396 3806 0
-2033 -1062 0
2690 1735 0
-3941 169 0
-3150 -467 0
-2734 2589 0
2391 2367 0
1645 -2386 0
3922 3 0
3224 2221 0
-3127 -3688 0
2527 1415 0
3617 2071 0
3710 334 0
2644 -487 0
1351 -664 0
-917 -74 0
2128 3028 0
1764 3066 0
3939 -2824 0
-2226 -1218 0
2019 2450 0
2316 -1507 0
-3258 -3918 0
1943 -660 0
1586 19 0
1050 1604 0
-2403 3108 0
1393 -3274 0
2005 2838 0
1569 1186 0
3006 -451 0
2654 3039 0
1678 -2984 0
3475 3334 0
1964 -897 0
-1562 -3379 0
-2286 2646 0
-2032 -610 0
-2060 -76 0
3137 3231 0
2122 -2746 0
-3191 2391 0
663 -1288 0
-664 -334 0
642 1548 0
928 -2518 0
-1877 -2056 0
-3195 -2148 0
-1619 1799 0
3718 -11 0
-2537 -507 0
3234 -933 0
-2072 2690 0
972 -103 0
3070 -1070 0
-814 -878 0
2133 -2314 0
-1405 -2438 0
1135 -2681 0
-3251 3762 0
3284 1154 0
2169 3338 0
590 1546 0
1162 2199 0
-1941 2672 0
-749 2315 0
-1386 3659 0
-15 -3042 0
2685 1767 0
-867 1802 0
-2871 -3366 0
2915 441 0
-1969 -2815 0
3801 -1850 0
-814 -732 0
-3011 3024 0
3646 1457 0
-800 3158 0
-578 -1295 0
1968 2384 0
-3908 -1491 0
3729 -3833 0
-2379 -88 0
4007 -195 0
730 -1178 0
2326 2451 0
-242 -531 0
-1227 50 0
-410 -3938 0
2394 -3150 0
-1119 -808 0
156 2905 0
-2944 -1543 0
2777 2279 0
-3116 2340 0
1538 -825 0
-3072 -3187 0
-3178 2107 0
-2432 3247 0
-1355 -246 0
-4 2144 0
-221 -3797 0
2464 635 0
3025 303 0
-1485 -2684 0
3750 2428 0
-2990 -2271 0
-1858 -463 0
3110 -2561 0
1461 -1541 0
-1667 -649 0
-738 -3803 0
-2903 -131 0
-3864 2838 0
-3093 153 0
-3678 -1541 0
-2455 2169 0
2878 -3876 0
716 1671 0
2903 -2354 0
-1115 1071 0
-2137 2804 0
-3972 -1901 0
-1237 2819 0
235 -1945 0
1171 2495 0
-916 2907 0
-1109 669 0
618 1210 0
-419 2116 0
3433 -1443 0
3830 -66 0
-2440 -813 0
3065 1860 0
3555 -358 0
1288 1069 0
-1176 2865 0
-2596 -442 0
1688 -531 0
2004 -3067 0
1051 -4017 0
-3894 3389 0
-3991 -2920 0
-546 -3911 0
615 2356 0
2061 -1732 0
-2059 -629 0
-1767 1749 0
3496 209 0
2741 -3006 0
-3288 554 0
1227 2706 0
-3371 2129 0
361 -1921 0
-3573 -1865 0
-163 1314 0
3321 -337 0
-974 -2472 0
1304 -1952 0
1798 1627 0
-2792 347 0
-1941 2676 0
2937 37 0
2109 590 0
889 -1953 0
1339 2835 0
2661 3073 0
2855 3723 0
-428 596 0
770 2622 0
-784 5 0
368 278 0
3759 2014 0
-2535 -1653 0
2145 -736 0
2306 -36 0
1635 1479 0
-1532 -1290 0
-826 -3068 0
3801 3390 0
2151 -1559 0
3292 -29 0
-2110 3395 0
-3225 733 0
229 3367 0
-814 -1765 0
3098 -2321 0
2604 1610 0
2302 -2129 0
-940 -2502 0
-2651 -3394 0
-857 3238 0
1941 2604 0
3 1553 0
-2135 -796 0
-2083 2000 0
597 2432 0
2222 -3279 0
-579 -3678 0
2936 -262 0
-1105 1763 0
2553 2291 0
-2355 350 0
-1898 -91 0
1271 1279 0
-2061 -337 0
1456 -2709 0
-718 3934 0
3521 3054 0
-2343 3022 0
2147 -1911 0
-1308 1262 0
-1138 1127 0
2123 -3657 0
-3439 -3608 0
2155 -1831 0
2295 1375 0
3219 -2201 0
384 -3257 0
-1523 3140 0
2208 1208 0
3376 761 0
1345 1741 0
-3362 -2828 0
-2403 -2918 0
392 693 0
-2614 1791 0
-932 973 0
3793 -1794 0
781 284 0
-3873 1297 0
-963 -2378 0
-2087 -2702 0
186 -845 0
-1899 -60 0
3786 -246 0
-2019 2056 0
-1275 2562 0
3093 453 0
1717 -2063 0
877 -365 0
-3921 1873 0
-1178 3542 0
2955 -2939 0
-931 3822 0
-2604 898 0
-131 -2667 0
-3747 1292 0
882 -9 0
-2542 -2708 0
-827 2566 0
3746 -3735 0
-3585 -3313 0
-2020 -1917 0
1681 3100 0
1080 -207 0
2525 -916 0
-322 797 0
-719 3405 0
-380 -3293 0
814 -803 0
-3766 -1381 0
-2746 2345 0
3666 -2177 0
1854 2043 0
711 -2275 0
-1848 -2612 0
-1531 1849 0
-2836 -2082 0
2621 2793 0
-2838 3710 0
2756 1966 0
-803 -1882 0
-2443 -367 0
2057 3275 0
-1403 2762 0
3813 471 0
2430 3435 0
2214 131 0
-2502 -2020 0
1738 945 0
-2873 762 0
-677 -3153 0
1170 -3267 0
369 -1859 0
-3734 -745 0
-978 -1051 0
3447 -3541 0
-1063 3092 0
-805 -1345 0
3843 -2152 0
-2201 1752 0
-359 -931 0
1956 -1862 0
-2143 -3536 0
-2344 2974 0
1805 -3429 0
2191 -653 0
-3560 -3972 0
-2571 2855 0
75 -1394 0
3026 981 0
993 -984 0
3904 1367 0
2492 237 0
957 3906 0
-2940 -2022 0
-2997 84 0
-2939 1368 0
-663 699 0
3312 -680 0
-1147 723 0
-1180 -2330 0
-2537 -528 0
-2696 1524 0
-1841 1376 0
3787 782 0
-2658 1951 0
-1162 -188 0
3821 -3731 0
-3874 -48 0
-3511 3614 0
-838 435 0
-3460 -3883 0
-1582 2347 0
-146 -3656 0
1992 -3162 0
288 2527 0
102 3031 0
-3735 -1021 0
-3853 1730 0
-1757 -1526 0
1302 1415 0
-612 1303 0
393 -346 0
3498 -479 0
-1845 -266 0
-3938 -1173 0
873 3020 0
331 849 0
-2322 1072 0
2895 1282 0
-3068 3262 0
3240 -1329 0
1792 1689 0
-3230 -1010 0
-3444 -3991 0
-3047 -3422 0
3888 -2040 0
368 3326 0
-2963 -1205 0
492 -3003 0
2994 3997 0
2621 -2142 0
4008 302 0
-2447 3676 0
775 -3880 0
1196 -2801 0
3652 -1236 0
-1179 -2629 0
1435 2431 0
-2168 -1957 0
-2402 1119 0
688 -3762 0
-1618 3181 0
-139 -507 0
-3733 -2284 0
2522 -1923 0
3378 3654 0
3997 3166 0
-479 -1076 0
-2989 4008 0
3879 2534 0
-906 1293 0
3653 931 0
1139 3921 0
-2366 -394 0
442 -1038 0
-941 3555 0
-968 -595 0
1027 1688 0
53 -2803 0
-1612 -2785 0
3267 1154 0
-553 -382 0
2171 -188 0
-2708 2136 0
1038 -1550 0
-3894 -3323 0
3287 2799 0
-3155 -1105 0
293 -578 0
-791 -2044 0
-3476 1682 0
3501 -1768 0
-2527 -3309 0
-833 -770 0
3816 -2409 0
-2816 3229 0
414 -2318 0
2681 551 0
-588 -2154 0
-1458 2004 0
-169 2171 0
1928 177 0
200 2124 0
1015 3989 0
2482 2346 0
-3141 1722 0
2983 -1043 0
342 -3848 0
-1674 1539 0
-235 -175 0
1321 455 0
-2714 -2736 0
-3724 -2850 0
-1627 -2098 0
191 -1406 0
550 -2473 0
-1214 598 0
3993 3552 0
1615 3734 0
78 1067 0
-1279 401 0
-3255 -3728 0
-555 -2182 0
-3385 3188 0
-2249 -2989 0
3248 152 0
-991 -72 0
-3994 657 0
1791 1791 0
1987 1853 0
-3778 -2656 0
2863 -966 0
-2087 3499 0
-2483 2691 0
1080 -3450 0
-180 3318 0
-3195 -3378 0
-176 1338 0
-1591 3012 0
-822 204 0
-2656 490 0
-2168 1484 0
360 29 0
2253 2825 0
-2691 29 0
3059 2086 0
-2989 -2688 0
-1732 572 0
423 2953 0
-1966 1282 0
3986 3820 0
478 -1522 0
-2948 1980 0
-3251 -1856 0
1891 225 0
-2580 1362 0
3431 3459 0
-2545 1771 0
163 -784 0
1880 2926 0
399 -1061 0
-2474 3989 0
-3296 -2185 0
3610 1725 0
-597 -1954 0
4009 3923 0
2172 -3630 0
-2320 -2984 0
-136 -2108 0
-3162 228 0
-2014 1454 0
-2673 2677 0
-1954 -2986 0
1150 2046 0
3874 3875 0
1700 -631 0
102 852 0
-2208 3054 0
-1377 -1224 0
3444 -3916 0
3296 1456 0
-1128 -3452 0
383 -2919 0
1322 -3288 0
-1155 -3194 0
-2016 -2266 0
2076 881 0
284 -2808 0
2942 -3695 0
202 3300 0
1998 -3002 0
3257 -1298 0
3539 -2781 0
1453 -3884 0
2874 2832 0
-2121 65 0
1342 3107 0
3827 1421 0
1185 3329 0
-3447 2397 0
3026 -3930 0
-1355 911 0
3916 -390 0
-2208 2965 0
-1123 1769 0
-1090 3044 0
-3561 -3584 0
-2379 -1 0
1218 691 0
-3333 -2917 0
1628 3303 0
3405 3375 0
-1193 2928 0
-1718 -1508 0
-2955 -3520 0
-821 1013 0
-894 -3623 0
-3357 -3333 0
2826 1520 0
-92 2980 0
-991 -3355 0
-3678 -936 0
-1252 3264 0
-2011 -487 0
11 1649 0
-1123 1731 0
-1736 2068 0
162 -1926 0
-2650 924 0
-3347 3611 0
1889 -2438 0
561 3707 0
-1141 -2882 0
3369 -1852 0
2837 377 0
-1442 3615 0
3188 2385 0
-517 -1128 0
3640 2909 0
-670 3773 0
-2301 -719 0
3172 -2610 0
706 -2388 0
-1340 2774 0
3388 -837 0
2459 3375 0
-3712 -1348 0
1186 -3632 0
-206 1537 0
3732 -3721 0
1272 399 0
-495 2945 0
1427 -415 0
-1604 -2267 0
-555 3840 0
3167 768 0
-3703 2124 0
3827 2732 0
389 204 0
-1515 -1395 0
-3362 -1129 0
-1910 1664 0
3906 -1963 0
3659 316 0
1849 -726 0
1076 3040 0
-3373 2187 0
2922 2255 0
938 2227 0
-2700 1783 0
2237 -47 0
-3683 -2636 0
-3744 1827 0
615 -2072 0
-2231 -122 0
-3106 -2751 0
446 861 0
3364 -1479 0
435 -1708 0
2780 2021 0
2080 2910 0
-2695 -61 0
3119 -349 0
765 4016 0
689 280 0
2078 -1561 0
-1232 704 0
-3925 -1789 0
1517 51 0
-1809 -3199 0
-363 -288 0
-2951 1478 0
3859 -2695 0
-3147 766 0
1791 863 0
2282 2283 0
-1787 1210 0
-844 -935 0
608 -1537 0
-2371 1463 0
-3782 347 0
3414 -3690 0
3330 -2319 0
3948 -765 0
2173 -3814 0
819 -150 0
443 -663 0
-2916 1544 0
-253 -1561 0
1202 -735 0
2112 -3125 0
-2747 1951 0
2646 -2048 0
2468 3766 0
-415 -1443 0
-3835 -2799 0
-1846 -719 0
-565 -2604 0
-222 -2030 0
1104 924 0
2324 -2416 0
1391 -1122 0
-3676 -925 0
-3270 -826 0
3878 -1038 0
3751 -3866 0
3988 164 0
3594 1866 0
3893 -870 0
-32 -2339 0
1566 3089 0
1885 889 0
-2346 2669 0
-2040 2925 0
3856 -1660 0
420 -3166 0
-3852 49 0
-803 -2242 0
-3983 -2379 0
-2040 907 0
-720 -2665 0
-149 -311 0
-2962 -2598 0
-894 227 0
-1973 2261 0
-788 -3236 0
2206 969 0
2429 -462 0
1354 -871 0
1667 1693 0
1349 2622 0
-846 510 0
3882 -1599 0
3572 2017 0
-2256 125 0
-1103 -2647 0
-1585 -3887 0
-1376 1636 0
-3319 1987 0
-1893 -3169 0
-2438 -2286 0
-1299 1184 0
1955 -2509 0
-2760 2779 0
-3208 914 0
-1151 961 0
914 -2495 0
1080 -2944 0
3798 -1783 0
-2363 -2711 0
-1096 399 0
-1685 -2762 0
2335 -1841 0
-2805 1912 0
2548 3798 0
2803 3740 0
-1216 2465 0
-3673 761 0
-1264 -3269 0
1824 -622 0
3592 1671 0
-1858 3466 0
-3379 3405 0
-3460 3143 0
-465 -828 0
-3396 -2622 0
1506 -34 0
-3910 -1675 0
-1825 -1390 0
-177 -2356 0
3609 555 0
-3793 3823 0
3611 1166 0
2464 3609 0
-1512 2894 0
-681 3790 0
-598 1991 0
-3844 -2581 0
3934 2756 0
-3558 2855 0
-3447 2548 0
-2550 -3248 0
-3680 -1782 0
-2828 1248 0
1605 -315 0
3200 2576 0
-3281 -413 0
-1244 -3567 0
-2376 1775 0
-1334 -1549 0
-1812 3693 0
171 2133 0
596 2039 0
2651 1223 0
4019 2488 0
-596 -868 0
-2865 -3327 0
-464 -2119 0
-3576 2136 0
-3067 -3154 0
936 2387 0
-2899 3682 0
-1843 1412 0
-3847 1437 0
823 -2857 0
212 -1048 0
-3405 3208 0
-218 -406 0
-2059 878 0
-3559 430 0
-557 142 0
226 1523 0
-242 2759 0
2583 2051 0
-719 1031 0
-3356 -165 0
-234 1321 0
-1706 -819 0
300 1103 0
3449 -1468 0
860 -2713 0
-465 -256 0
3512 260 0
855 -1612 0
2338 3167 0
3042 -3449 0
636 -269 0
203 -250 0
-879 -2544 0
1625 -2897 0
-1252 -3623 0
-1144 -1893 0
2357 1929 0
2700 -509 0
3092 -147 0
-352 1758 0
2643 3539 0
-1154 2470 0
-3687 3208 0
-3680 -371 0
320 998 0
2801 -122 0
-3950 -1319 0
-1756 -3557 0
-1194 457 0
1773 1125 0
-1021 -1059 0
-2624 3091 0
-265 -221 0
-1275 2149 0
-3099 -3598 0
-1942 1152 0
-631 -2460 0
2218 63 0
-682 1707 0
2182 -866 0
-2317 2345 0
-3843 549 0
-2514 -2143 0
-3444 1130 0
2060 -1081 0
-442 -3289 0
-621 -3237 0
-444 -3209 0
3710 3205 0
-648 -2269 0
2813 225 0
2956 2246 0
2218 -1775 0
-1179 1389 0
-1050 2372 0
-1612 3014 0
-2050 -2438 0
528 -3242 0
1452 -1631 0
-2864 950 0
767 -1003 0
-1504 1605 0
-1533 3535 0
3179 791 0
1417 2531 0
-1628 3111 0
1988 -1461 0
-2232 -87 0
26 2336 0
2548 -1590 0
3243 -1350 0
-2266 -3234 0
-3392 2225 0
-1418 1632 0
-1157 -1850 0
1690 2061 0
-2220 -49 0
-2468 -2007 0
2526 2086 0
-3203 2300 0
3481 -2717 0
-2512 -2333 0
-2474 3298 0
-2353 -941 0
1814 -2728 0
1733 3838 0
-3872 2935 0
-2559 2824 0
2622 3674 0
-1520 -2024 0
-2384 -2584 0
2092 -1065 0
-1548 1791 0
-3014 -922 0
-1353 2075 0
1314 -1396 0
-3028 2008 0
-1772 1800 0
-709 -353 0
478 3883 0
3556 -904 0
-2460 -1492 0
368 3554 0
-1995 -2868 0
1325 -769 0
3549 2850 0
-482 -2268 0
1671 -3886 0
270 -2069 0
1212 -3721 0
3914 1672 0
-2655 -2560 0
2139 -416 0
-1907 1564 0
-1544 -645 0
-2783 2478 0
-1890 -257 0
1951 430 0
-3517 1920 0
1269 1449 0
-2075 -3429 0
-1965 2635 0
-917 -1444 0
-2894 -731 0
-2372 3024 0
-3455 -2022 0
2294 -249 0
-1716 -3600 0
-1883 -3839 0
-2325 -1315 0
1726 1272 0
-1097 834 0
-2184 1495 0
2078 -3330 0
19 329 0
2973 -2886 0
-3545 3776 0
535 -410 0
-1986 -2613 0
1085 3527 0
354 -1527 0
-2995 3749 0
-2521 -2747 0
-3237 2650 0
697 3088 0
-1318 3050 0
-3879 -233 0
-3845 -1965 0
3770 -2537 0
3121 -1879 0
-1133 -972 0
2293 2159 0
2324 1838 0
-1114 1133 0
-702 2705 0
-2985 2501 0
-3517 -3196 0
-1549 2758 0
532 2544 0
-3478 2045 0
2406 -164 0
-50 -1040 0
39 1007 0
-3479 2982 0
246 1940 0
3770 -2099 0
-705 -3129 0
-903 -2715 0
-2014 1911 0
-149 10 0
-1534 2875 0
-1014 -973 0
2006 -1377 0
-868 1328 0
-1309 -34 0
-2392 -1476 0
-448 -1758 0
3262 -3715 0
3745 129 0
1943 393 0
-1030 2956 0
-98 -1310 0
547 -334 0
1891 449 0
-3569 -1513 0
-3748 -3418 0
2680 -3058 0
320 -3821 0
-909 2552 0
-1521 -3559 0
3259 3492 0
57 -2998 0
2600 -2634 0
-1901 -3206 0
698 -2190 0
-33 758 0
-2031 3295 0
-446 -846 0
3386 -671 0
3981 3304 0
3947 -538 0
-2382 -1215 0
3357 -1262 0
-419 -2188 0
-3346 -494 0
286 -2636 0
1517 -815 0
3695 -2285 0
-594 3493 0
271 -2135 0
3403 1451 0
-1075 -943 0
-3768 -2789 0
-1510 2472 0
-2523 -1376 0
3722 1127 0
1090 -2177 0
2357 -2794 0
-318 1661 0
3928 3587 0
3189 1397 0
1602 -2028 0
-1863 -1578 0
-1124 -278 0
-3820 -2143 0
2741 2703 0
1149 888 0
-3358 -3779 0
-4011 -2402 0
1502 2216 0
2211 2857 0
-1364 -1843 0
-871 2879 0
1831 -2700 0
1251 -3213 0
61 162 0
3267 -3540 0
-3737 -3747 0
488 2873 0
941 -3812 0
3681 3592 0
1616 886 0
2132 1688 0
3454 -2464 0
2666 -3222 0
1487 2979 0
-511 578 0
-2217 -3585 0
-2283 1023 0
493 -1522 0
2514 -3843 0
3563 2344 0
3109 3466 0
2612 -2292 0
-3089 -1026 0
3202 1164 0
648 3666 0
-2581 3050 0
3497 1389 0
2298 3024 0
3581 3053 0
312 3521 0
1728 1849 0
1931 -3386 0
-3434 1913 0
-3585 -713 0
-167 1853 0
-1776 3118 0
-3059 848 0
182 62 0
-1133 -3698 0
3149 -1321 0
-593 1846 0
1550 -2449 0
-3602 -1876 0
3412 2758 0
-1241 -3120 0
-2070 2640 0
792 3605 0
2903 1778 0
2112 -2627 0
997 -2302 0
618 3436 0
3992 -1466 0
1366 1401 0
3503 795 0
289 113 0
1991 -41 0
-2809 3923 0
2743 29 0
-1326 395 0
2349 -2694 0
-591 3536 0
-350 344 0
1980 -296 0
-3642 1113 0
-746 -1867 0
1057 -1700 0
-1356 1265 0
177 -2379 0
-1970 -1708 0
-2609 -3239 0
-103 -2629 0
3827 -1079 0
-1896 1158 0
806 1693 0
3761 1621 0
-3246 75 0
3228 -1135 0
-3793 2352 0
-3095 -2692 0
-1617 -2242 0
-971 -3522 0
-3152 3921 0
177 -1735 0
-3751 3122 0
-915 2552 0
-3917 3262 0
-1582 2345 0
750 -2803 0
869 3553 0
-35 -608 0
-2869 -3195 0
3180 -266 0
3474 902 0
-2593 2921 0
742 47 0
-1582 -3258 0
-2372 376 0
3831 -3422 0
1882 3969 0
-2811 -1336 0
721 -2654 0
2765 -2698 0
191 1039 0
2107 3727 0
-682 2018 0
-1474 1375 0
-3687 3087 0
3490 -1646 0
-1912 -1537 0
2818 420 0
3631 -902 0
3608 1517 0
1269 2237 0
-1158 -2490 0
347 1325 0
802 -375 0
-3855 3188 0
-3939 -392 0
2935 -676 0
-409 -429 0
-2041 -780 0
1101 2124 0
-832 -3646 0
2058 541 0
-1385 -1377 0
237 -262 0
-3856 651 0
-3560 -3853 0
1623 579 0
-2242 -1540 0
3112 -1279 0
776 1215 0
1919 3657 0
246 -2026 0
2074 -399 0
-473 -887 0
3413 1284 0
-3229 -250 0
-2236 2313 0
1798 -305 0
-1209 -1858 0
2795 -2367 0
-2469 2100 0
2701 3820 0
1412 -3363 0
1490 -3796 0
167 300 0
-1243 3442 0
-1784 -653 0
1568 1335 0
3449 -16 0
1512 1363 0
48 -2379 0
-3739 -3830 0
-3543 -3775 0
2774 -844 0
-607 -634 0
-2484 673 0
2359 1248 0
-1158 297 0
334 -2770 0
1386 -3628 0
1405 2845 0
-3854 -1165 0
2514 3645 0
851 -1306 0
-2737 -3864 0
-1531 3762 0
-1225 701 0
-454 3356 0
819 -3609 0
1677 -3111 0
-1560 -3130 0
-1056 181 0
734 294 0
-585 -764 0
-826 2793 0
-873 2451 0
-717 -2076 0
874 3768 0
-1770 855 0
2287 -1982 0
-3430 -3876 0
3721 3277 0
2906 2273 0
1822 137 0
-3822 -759 0
-574 -4000 0
-2503 -390 0
366 2672 0
2687 -1911 0
-1770 -95 0
1920 1883 0
-683 -642 0
-2599 1045 0
3800 2101 0
-1421 -1843 0
2710 -3515 0
1930 3997 0
-3445 -357 0
3833 -71 0
2963 -1809 0
1761 -3291 0
64 -2308 0
917 3125 0
-2848 -1251 0
-1273 -1489 0
-20 -1461 0
1601 2754 0
-2820 1763 0
-259 1044 0
3841 -2454 0
3376 2099 0
-278 -4018 0
-2664 -2269 0
-544 1929 0
-2245 -3748 0
1659 361 0
-27 -1107 0
1425 1954 0
-3006 -3215 0
-2521 3422 0
-2350 -1486 0
-422 1072 0
-2274 -3996 0
-1763 -1908 0
148 1335 0
-2329 -1269 0
-1036 -866 0
2008 1737 0
-2199 -2122 0
1132 2549 0
1990 2734 0
3956 2367 0
-2250 622 0
-2116 -2510 0
1537 -3807 0
-1570 -3774 0
1378 1248 0
-2289 -1075 0
-246 1577 0
-234 3601 0
2710 -3448 0
2730 2360 0
-2164 931 0
2287 4000 0
2595 -2218 0
3233 1602 0
1437 -153 0
1629 -86 0
-444 -2683 0
-2845 -3388 0
-2215 368 0
-1595 3203 0
1660 3210 0
3265 3338 0
388 3872 0
1841 2263 0
2826 3956 0
922 -2639 0
-3182 -2547 0
1335 -3623 0
-2023 1096 0
1902 -1521 0
-1104 3427 0
-1842 377 0
1891 3013 0
521 -1988 0
678 -2757 0
3243 -2671 0
1568 -411 0
192 2404 0
-2726 187 0
-1501 -2088 0
-2436 -999 0
-2461 -696 0
-2064 -730 0
-286 2078 0
-3496 -3984 0
-1622 842 0
1810 437 0
-3244 -3095 0
2145 1754 0
2582 5 0
-2138 -3729 0
-1969 1789 0
-3518 -3552 0
-771 1657 0
-3474 781 0
-41 -1357 0
-237 62 0
-1506 2908 0
2538 138 0
-1285 -1935 0
236 526 0
-493 2199 0
-3715 2313 0
1817 2048 0
-1022 1726 0
2422 -50 0
-3386 -2873 0
2469 -2110 0
-2939 1637 0
3995 2421 0
3452 3363 0
1882 -2250 0
1439 -507 0
-1251 -2084 0
3152 3396 0
-822 -3274 0
-927 -3083 0
-122 2430 0
2555 -3427 0
3330 2746 0
-70 -3811 0
-1108 1638 0
-472 1102 0
3009 -3809 0
3740 2207 0
-1087 2540 0
-2660 591 0
816 -2518 0
-1445 3570 0
-3007 -2567 0
2189 1940 0
-417 1783 0
2015 -1640 0
-3808 -3643 0
543 1161 0
2969 -2666 0
2474 3741 0
1257 3716 0
1463 -436 0
-1380 2567 0
3232 2879 0
2169 -1311 0
3644 3682 0
1249 -812 0
3420 -3205 0
-982 -1893 0
2891 -1868 0
3869 1142 0
-2920 -463 0
832 -2798 0
1576 1382 0
1556 -3782 0
-3238 -1900 0
2795 2829 0
2247 -3835 0
3649 -2445 0
185 2645 0
-2437 -3492 0
1737 57 0
1640 -900 0
2270 -1147 0
-1 1272 0
-2673 381 0
2524 -1125 0
-3912 3148 0
-142 -1834 0
329 -896 0
-2569 1563 0
-2918 -1327 0
1032 -1173 0
2799 3085 0
3240 -1253 0
-72 -3967 0
-2671 -3307 0
2331 1106 0
-3059 3988 0
-2210 3665 0
3530 3365 0
3742 -518 0
-1578 2583 0
768 -123 0
1200 3481 0
223 -2220 0
-179 2974 0
301 -532 0
1272 -3672 0
2797 459 0
-3936 2329 0
635 1124 0
1558 1299 0
-3402 2055 0
3482 3398 0
-1026 181 0
-3314 -2943 0
1976 -1802 0
-3094 1477 0
-896 3652 0
613 3265 0
94 -812 0
-3432 -640 0
-3287 1898 0
1468 -3838 0
2715 -445 0
-1380 -3306 0
1064 1237 0
-356 -255 0
-2356 2879 0
1340 689 0
-1911 -1597 0
1000 2008 0
-2142 -3260 0
-244 3330 0
696 -1675 0
-2132 -1975 0
-1827 -2581 0
3098 730 0
1892 593 0
-2647 -2924 0
-3484 1965 0
-1685 -1447 0
-395 -990 0
921 236 0
-3829 -2004 0
3177 3754 0
-2587 -184 0
3974 2654 0
2018 2825 0
-2550 -640 0
3671 -724 0
1962 2650 0
2411 -1498 0
-2302 -1017 0
-1464 1784 0
-2879 3208 0
-2588 -3712 0
424 688 0
165 -1973 0
-3864 2783 0
1862 -841 0
-2056 3877 0
-2324 3253 0
3268 -3758 0
107 -514 0
-3428 -2292 0
-3387 -3426 0
1121 10 0
-416 -43 0
-939 -1989 0
-3893 -644 0
-1214 -1038 0
-3215 -1521 0
1551 -3134 0
104 2093 0
-2805 -130 0
3780 -54 0
112 -1611 0
871 -1585 0
3508 2475 0
831 3873 0
-1918 -354 0
3628 -2944 0
-1175 120 0
2256 1535 0
-3386 3243 0
3449 3451 0
1090 -2332 0
-3649 -87 0
1413 -2324 0
386 840 0
-2745 950 0
2260 431 0
2951 -558 0
2542 1506 0
-3014 -2788 0
-3313 2789 0
-3599 3137 0
-505 2073 0
-3796 3766 0
739 2487 0
-2672 2964 0
-2882 2256 0
-1130 2229 0
-3952 -1387 0
3706 95 0
-3864 -1900 0
2774 -1162 0
-3420 1503 0
2132 3007 0
1336 -2116 0
-3156 1190 0
2179 3760 0
3604 -3134 0
1541 2163 0
2278 1279 0
452 -3913 0
1804 -1648 0
1670 -1841 0
1136 -2191 0
-72 1506 0
393 -3530 0
-1993 -104 0
751 -2205 0
2871 -233 0
920 1393 0
-124 3172 0
-1238 1924 0
1259 77 0
2973 1314 0
-611 2998 0
-1892 -3670 0
-3492 432 0
-2870 491 0
3648 1095 0
-1855 2205 0
-3893 1154 0
-1430 -2962 0
-765 3884 0
-1329 2257 0
-3402 -2292 0
-2831 3359 0
2530 -416 0
2606 1748 0
-1205 1387 0
-276 733 0
1366 -392 0
-465 230 0
1571 527 0
1590 3087 0
3345 3486 0
-3843 1960 0
-2458 2576 0
-43 3173 0
-1444 3708 0
2996 2563 0
1935 2196 0
-1114 1923 0
-1682 -866 0
-1236 -1867 0
-2201 2055 0
2869 -3598 0
1869 3694 0
116 -2913 0
-3027 2056 0
3149 -2569 0
228 -131 0
-3106 1072 0
673 379 0
-1802 3217 0
623 2977 0
3927 668 0
2041 1421 0
-600 3861 0
-645 -1863 0
4020 3022 0
-463 2424 0
-271 2935 0
2516 -670 0
2625 -335 0
2635 -2528 0
-1063 3326 0
-3941 -2652 0
763 -3195 0
3292 -2859 0
673 3125 0
539 -1530 0
2980 -513 0
2822 1150 0
1853 -1695 0
1913 717 0
-1175 -3779 0
-1854 -2784 0
1353 -2459 0
-1682 1790 0
2134 -2050 0
1671 2653 0
1287 -3739 0
3781 -896 0
-1247 2731 0
1980 -1153 0
3271 -1464 0
1811 152 0
3742 2556 0
1497 -2504 0
3170 3002 0
742 -2515 0
1833 -1519 0
807 3673 0
-2226 -2853 0
-1686 3834 0
-2950 3507 0
-1837 1638 0
2706 -3449 0
-3782 2345 0
-602 3692 0
536 -1797 0
2533 -3999 0
-2105 -3480 0
1800 2465 0
1626 -3747 0
-433 744 0
2209 2364 0
1405 19 0
-710 3225 0
580 -2318 0
3268 2881 0
1596 3549 0
-1306 -2884 0
-760 567 0
1059 2562 0
2873 -2709 0
1504 2356 0
2025 727 0
957 2202 0
208 -2870 0
3918 1439 0
-1527 1454 0
-3715 2935 0
3419 2959 0
2763 -1543 0
285 -1371 0
-1238 1256 0
-2869 -2139 0
1050 3852 0
-1943 2622 0
-2787 -660 0
269 -2271 0
-3889 2293 0
3723 1292 0
-2692 2287 0
-1683 -1818 0
2169 -2573 0
2976 2819 0
1575 -1076 0
791 -3194 0
-361 3564 0
-1557 1594 0
848 -788 0
-1205 876 0
202 3412 0
-1377 4012 0
1877 3354 0
-2059 -821 0
2046 2912 0
1331 -27 0
3307 2204 0
-423 168 0
1579 277 0
-618 -2897 0
1527 -2664 0
2381 545 0
-384 3381 0
-1433 3460 0
1233 1546 0
2772 -2712 0
3380 2294 0
-2634 -960 0
1406 1464 0
2680 -2043 0
-2388 -1108 0
-1094 1527 0
-738 1171 0
-786 -2289 0
-3719 -1599 0
2008 3015 0
-2647 1917 0
1627 -3029 0
1205 -2590 0
-810 522 0
2792 -2817 0
-2137 -3120 0
-1684 -3851 0
-2673 1536 0
-1500 -3216 0
-3514 2020 0
3050 3470 0
-3554 -3075 0
-802 1399 0
1924 1209 0
-2138 1644 0
2270 2816 0
1861 1638 0
183 1688 0
2363 -480 0
-236 2106 0
1765 -3756 0
3514 516 0
-1146 543 0
-2076 795 0
-2202 3303 0
3716 1494 0
3940 57 0
-3287 1613 0
-3588 3125 0
1307 -3767 0
-3203 -837 0
-372 -2418 0
58 -1897 0
-1366 -1503 0
3997 3985 0
-2680 -1651 0
2608 1113 0
-2805 -1579 0
