c bounds 402 402
p cnf 685 342
-51 300 0
-29 526 0
-109 -468 0
678 -148 0
-159 260 0
620 267 0
-99 555 0
-461 529 0
-171 366 0
-174 41 0
589 162 0
28 16 0
104 321 0
-407 -358 0
-204 156 0
584 529 0
606 -493 0
259 -451 0
471 -529 0
572 -591 0
-659 -295 0
463 543 0
614 -445 0
-658 664 0
-672 300 0
448 -194 0
-73 466 0
426 118 0
-166 358 0
256 -463 0
-55 490 0
-602 -506 0
-459 427 0
-648 -218 0
622 -629 0
-207 364 0
-221 6 0
-630 -21 0
82 503 0
618 -387 0
156 -251 0
-461 -620 0
679 490 0
224 600 0
546 359 0
-52 46 0
238 616 0
-384 668 0
37 -517 0
361 -90 0
510 -369 0
144 -243 0
-364 161 0
462 127 0
256 -56 0
351 -609 0
-357 108 0
161 -367 0
-348 257 0
-180 -495 0
49 457 0
-380 457 0
-101 485 0
-85 469 0
274 220 0
-647 23 0
216 -209 0
-452 368 0
-296 -386 0
118 -533 0
-102 -12 0
-493 -241 0
-148 207 0
-659 320 0
-339 393 0
142 169 0
175 179 0
78 -619 0
40 221 0
90 -372 0
-164 -669 0
294 -586 0
315 -649 0
524 16 0
-291 -350 0
-541 -643 0
4 104 0
-216 511 0
561 163 0
642 169 0
120 -292 0
603 161 0
79 673 0
673 -660 0
-372 -642 0
-291 -494 0
635 -570 0
433 -91 0
296 423 0
380 -553 0
550 441 0
601 -402 0
596 -652 0
347 23 0
-89 139 0
-46 -434 0
366 396 0
203 -426 0
-124 -378 0
-233 241 0
396 9 0
-603 121 0
-271 -310 0
-391 -124 0
149 124 0
-676 -563 0
388 395 0
672 -487 0
157 522 0
18 -613 0
-589 504 0
481 -560 0
-595 566 0
357 240 0
437 543 0
-438 -443 0
-210 587 0
-46 188 0
-412 -452 0
168 -335 0
-666 -121 0
-346 474 0
-613 633 0
326 -89 0
-536 58 0
434 173 0
82 -613 0
442 -685 0
-392 -422 0
-638 420 0
-535 -108 0
-135 -89 0
-521 -162 0
-608 -488 0
39 -598 0
413 -231 0
407 597 0
237 -140 0
-35 186 0
-401 321 0
51 237 0
-642 -153 0
356 -354 0
-387 229 0
-545 292 0
88 -45 0
42 118 0
94 -223 0
398 -166 0
-629 29 0
-262 -109 0
289 611 0
-86 215 0
36 -367 0
-567 -60 0
-419 92 0
-269 437 0
-481 -394 0
270 520 0
78 285 0
366 -445 0
535 -106 0
-170 280 0
415 -568 0
337 622 0
-596 -223 0
-490 -518 0
113 65 0
-678 -282 0
-324 549 0
-50 503 0
-352 -103 0
-48 277 0
-685 -429 0
145 -151 0
54 -644 0
275 235 0
-151 305 0
611 -104 0
416 -101 0
-303 82 0
-212 280 0
-135 441 0
-361 229 0
-108 -189 0
-586 -14 0
-287 203 0
313 230 0
36 -445 0
60 630 0
82 -26 0
-151 270 0
-352 668 0
-613 -125 0
288 -271 0
251 -503 0
-677 -428 0
-325 616 0
-439 -419 0
-669 -428 0
-82 -371 0
107 237 0
168 350 0
552 -631 0
625 255 0
-517 -478 0
-103 -672 0
347 294 0
530 -175 0
-551 318 0
471 197 0
17 -365 0
618 177 0
-558 41 0
245 -182 0
-346 183 0
-607 490 0
672 215 0
681 368 0
-443 -286 0
-544 81 0
-408 566 0
305 177 0
213 360 0
159 365 0
-96 97 0
-515 -659 0
427 -73 0
-40 473 0
520 -152 0
252 268 0
-199 -459 0
246 186 0
278 -463 0
610 252 0
286 398 0
94 -330 0
-204 550 0
-286 53 0
-29 492 0
616 212 0
290 6 0
-492 72 0
592 519 0
-293 65 0
297 -133 0
199 -236 0
-51 -141 0
600 261 0
335 367 0
563 -305 0
26 155 0
-644 -224 0
-596 -544 0
308 41 0
172 217 0
603 116 0
-86 442 0
449 201 0
-409 597 0
61 12 0
-544 -353 0
-378 265 0
-171 -419 0
-160 614 0
203 321 0
-515 460 0
315 -590 0
-468 249 0
-650 432 0
393 232 0
-685 652 0
218 -372 0
-350 -315 0
665 -299 0
-137 551 0
126 -381 0
654 -543 0
430 156 0
-269 -84 0
638 -21 0
-462 -205 0
362 548 0
335 180 0
168 -137 0
-574 467 0
-173 -244 0
550 -193 0
277 16 0
196 -254 0
285 -271 0
-654 -508 0
644 -409 0
175 -625 0
309 -70 0
423 -350 0
650 673 0
661 -637 0
-342 -603 0
-638 -228 0
679 -483 0
616 12 0
-379 361 0
180 287 0
582 189 0
161 443 0
149 154 0
-609 -110 0
-524 -50 0
-557 660 0
-184 -449 0
618 -489 0
442 144 0
-286 511 0
525 -681 0
477 104 0
178 426 0
-23 49 0
-317 522 0
-184 577 0
-547 -597 0
201 -245 0
612 -281 0
-623 -330 0
245 -122 0
-493 320 0
479 -391 0
590 172 0
618 -651 0
123 -518 0
620 -621 0
-554 -38 0
