c NF
p cnf 4632 7411
-1667 -4335 0
-3549 3850 0
2636 1941 0
-760 2811 0
1650 2548 0
769 3816 0
-1359 3127 0
-3756 1858 0
-1661 -272 0
-428 2059 0
2981 -1704 0
2838 -860 0
-1399 -2173 0
-3187 2454 0
4576 3638 0
4165 3210 0
464 -1880 0
-1607 -929 0
-364 1705 0
7 1243 0
1749 -3679 0
-612 2284 0
-4577 3790 0
2622 3554 0
-4006 3136 0
4121 -2102 0
314 -3722 0
1753 -155 0
3428 -4106 0
3674 2352 0
-205 -64 0
2570 4061 0
3115 -1340 0
-1001 569 0
-2155 -6 0
3335 -3554 0
3339 1683 0
1870 1868 0
4538 -4027 0
2634 2688 0
117 -3794 0
1604 2449 0
-1146 3967 0
2021 1305 0
456 1186 0
3079 2271 0
-2933 -4507 0
-2883 -2241 0
3150 -3581 0
-4424 -2370 0
-3181 -1488 0
-4454 -899 0
-1748 3899 0
713 1264 0
3222 3222 0
-3072 3366 0
-1546 -3966 0
-691 -3269 0
777 3014 0
2810 2264 0
2001 -4546 0
-1145 1516 0
-3028 225 0
2989 -3996 0
-998 -491 0
-3198 4402 0
4630 -1252 0
-586 2242 0
-625 2393 0
2791 -2523 0
-4588 3124 0
4244 2951 0
-2878 -337 0
-4347 3248 0
-2478 4055 0
692 -2042 0
-2107 1751 0
-1362 1627 0
1904 670 0
-2713 862 0
4252 -4582 0
-1916 2582 0
-3556 601 0
2055 3965 0
568 -1452 0
2254 2199 0
-4392 1512 0
-3799 -1982 0
-1564 1460 0
1424 2738 0
4000 -3915 0
-3705 474 0
371 -2834 0
887 -2579 0
-1913 -3140 0
4510 -3620 0
1961 -3693 0
-2784 1520 0
1959 1317 0
-1954 3798 0
-1430 2141 0
-1495 1027 0
4472 -2895 0
1443 1049 0
3538 -3739 0
-4019 -4521 0
2369 3933 0
-2304 -2770 0
-4370 -3367 0
-4436 -43 0
1058 -1915 0
3645 1029 0
3579 -513 0
2785 -4497 0
-2707 -102 0
-4375 -2561 0
660 2238 0
-1120 4053 0
-4243 938 0
-3895 -379 0
2623 633 0
-565 4310 0
139 1208 0
4035 2343 0
-2069 2980 0
924 -2395 0
-3379 -237 0
-1251 1210 0
-2642 -2472 0
1323 2741 0
935 -2513 0
-4127 2194 0
-2940 3142 0
27 4200 0
4528 3146 0
-1159 3885 0
-3948 -2857 0
-1564 297 0
-2274 -3074 0
-3024 597 0
397 2988 0
-2411 2773 0
-2552 -2471 0
391 4198 0
2441 613 0
2034 -1601 0
4352 -793 0
-2118 2146 0
-660 69 0
4088 -3058 0
-2003 -1498 0
1672 2043 0
-3324 -3072 0
-4526 -3838 0
1132 -2208 0
4232 -2017 0
115 3453 0
-3094 -3715 0
-3909 2479 0
-3458 527 0
-4181 -416 0
2211 3837 0
-1504 1113 0
-2783 437 0
-2982 2003 0
-3009 -2074 0
-3603 -4258 0
-1159 4601 0
-1727 855 0
1814 -2130 0
-3510 -2148 0
2002 4219 0
-2124 2913 0
4077 -2708 0
441 -984 0
-774 -2837 0
2862 347 0
615 -2231 0
4553 473 0
1248 -2415 0
-3494 -1784 0
3500 653 0
1148 2043 0
1403 1110 0
-433 3034 0
-1582 -2134 0
-604 -237 0
-4173 3592 0
3724 4495 0
-425 1151 0
-649 -4018 0
-2270 1776 0
1405 -190 0
-2275 -2537 0
426 -1195 0
1587 -738 0
-423 -1511 0
242 -2925 0
-854 -4080 0
-4328 -3158 0
4120 -3859 0
2465 -4388 0
3901 2614 0
-393 -1913 0
2018 -4313 0
2603 3996 0
-2067 3356 0
-4569 -1413 0
950 4548 0
-328 -2093 0
-1465 -1747 0
-1177 2934 0
-2218 -3960 0
-828 -379 0
1500 -1938 0
-3697 -3813 0
4097 -3813 0
3212 3636 0
-540 -2668 0
3042 4153 0
-1271 -3712 0
169 2622 0
2437 -1894 0
1699 2114 0
1679 3217 0
-778 2393 0
2171 1244 0
-359 1095 0
-2787 -2990 0
848 3715 0
3430 -1241 0
-4053 -1539 0
-2092 3383 0
2413 -1802 0
2682 3571 0
1450 2592 0
521 -3184 0
-1828 -1425 0
1406 -209 0
-1754 -929 0
2124 -5 0
-3190 1988 0
-3271 -2310 0
3373 3079 0
-1559 -815 0
1040 1112 0
-3993 -1001 0
3239 -542 0
2883 -4051 0
4219 1342 0
-1941 270 0
-586 -1747 0
4436 -3249 0
-2613 -291 0
1981 -2196 0
-4234 -3917 0
3822 1780 0
2398 2474 0
-4623 -40 0
2427 174 0
-3511 -2353 0
-3351 1417 0
1905 1156 0
-990 3427 0
-1500 -3357 0
-3618 1109 0
3371 -1443 0
1392 2320 0
1920 1157 0
3353 -1054 0
-1306 -1451 0
-972 -1943 0
182 -56 0
1292 -1096 0
1312 -555 0
2470 -1168 0
-2682 -1673 0
2198 1909 0
3500 1639 0
-42 1833 0
4361 3524 0
1398 -383 0
2963 1155 0
-1079 -1975 0
3895 2607 0
-1005 -3083 0
-3832 4429 0
-1434 1867 0
-3711 -4285 0
1258 816 0
-171 -1303 0
-1162 -4153 0
3638 76 0
-3073 -386 0
-3101 -1658 0
2536 -109 0
926 3723 0
3091 -4537 0
-131 -1091 0
-3697 -1001 0
-2119 3491 0
2169 2979 0
3928 -3483 0
2617 2690 0
2693 -3502 0
-4479 -2114 0
4225 2704 0
-65 3693 0
4600 -1388 0
-1103 3661 0
-533 696 0
2886 -4381 0
-1239 -4158 0
-1113 -293 0
3975 2733 0
1716 3147 0
4426 -229 0
-3864 -954 0
3164 -3259 0
1422 3588 0
4475 -4191 0
3429 -854 0
136 2260 0
183 1160 0
-1491 2573 0
3042 -3050 0
-425 507 0
-2903 4075 0
2581 -3615 0
876 757 0
850 -3031 0
-4450 1611 0
1887 -2383 0
1795 -1813 0
-4504 -1786 0
-760 -1241 0
-3082 237 0
-3760 -2010 0
-3504 881 0
-1463 3586 0
4050 4245 0
3676 -339 0
2994 -1249 0
401 2015 0
-2677 -1182 0
-2027 3169 0
-2885 468 0
-3190 2992 0
2890 -4016 0
-4066 2058 0
-509 16 0
1138 1917 0
1144 -1796 0
596 -2112 0
568 2439 0
-3982 -1321 0
138 1156 0
-1185 2024 0
-3597 3449 0
-3992 -3824 0
-3849 -3200 0
-3895 -2693 0
-219 1334 0
823 3251 0
1902 -3845 0
-4611 -2733 0
-2284 -397 0
3895 2356 0
3974 -4013 0
4288 -4327 0
-2622 337 0
2387 -4319 0
2318 264 0
-2653 1442 0
-60 449 0
-3202 2671 0
-3235 -2716 0
-3256 346 0
-4116 894 0
-1385 3479 0
-2699 -3236 0
2414 -2352 0
2181 2180 0
-3403 1765 0
1632 3554 0
-760 -164 0
-980 -1987 0
-3555 181 0
-3168 3598 0
1671 416 0
-1516 725 0
-1682 2471 0
4556 -669 0
729 2915 0
556 2076 0
4436 2443 0
1928 676 0
479 -4431 0
667 1657 0
2316 -3876 0
-3888 2229 0
-2975 837 0
3365 -3727 0
332 -3229 0
-3830 -4354 0
1775 -3211 0
-1669 2771 0
304 3240 0
-2848 2990 0
2131 -4620 0
-3513 1833 0
-4497 1198 0
4039 1586 0
4156 4309 0
3831 -1738 0
-903 751 0
-2227 -923 0
2533 3057 0
4156 1560 0
1987 1459 0
1129 -1365 0
2858 4017 0
-2337 -4372 0
-861 4562 0
-1103 1033 0
-698 -3357 0
-2501 472 0
3046 3186 0
2634 -1024 0
3439 -619 0
-3053 3391 0
3920 -31 0
3789 -3689 0
-2122 2723 0
-4073 3196 0
-2961 3876 0
660 2516 0
-4331 -2019 0
-2277 -140 0
3676 -3130 0
-383 -443 0
689 -798 0
-1266 -4249 0
988 3775 0
2040 -1091 0
-1689 -2714 0
4316 -3350 0
340 -4345 0
903 848 0
1700 3494 0
938 -4147 0
1336 -2706 0
-24 -118 0
-2974 -211 0
-1254 2296 0
-3522 4025 0
-476 -2302 0
1900 -2419 0
-1302 -288 0
-852 -3752 0
2049 676 0
2425 -1636 0
2053 -1993 0
-2007 -2816 0
3839 -2977 0
610 616 0
-151 -115 0
1522 -4521 0
372 -2224 0
-4590 3416 0
686 -2549 0
-3728 -979 0
-3560 -800 0
4522 4367 0
3532 -2291 0
-431 -4355 0
3169 -2669 0
-889 2188 0
-4278 -1223 0
-4362 4340 0
1693 -3361 0
-954 1768 0
-1515 -2626 0
4349 -1242 0
3293 -1684 0
168 -746 0
-1304 759 0
-281 4374 0
-990 -459 0
-591 -710 0
1142 2219 0
2138 4249 0
-2899 1272 0
-3473 -718 0
-1626 -2568 0
4032 -1559 0
-698 -645 0
-3117 2222 0
2652 794 0
-3908 3963 0
-3528 -2764 0
-1714 582 0
1224 4090 0
1391 -4329 0
-3331 1323 0
-1635 -174 0
1205 122 0
676 -660 0
-545 -1337 0
-1036 1299 0
-2765 4304 0
-4242 -1223 0
-4329 1277 0
4259 -352 0
-2931 -2807 0
1345 -2060 0
-4385 -2555 0
4136 4624 0
2425 -2829 0
-205 1305 0
1568 1617 0
-2669 -3089 0
-4183 -1035 0
-1373 -1010 0
-3804 -843 0
-1089 -1796 0
1646 -645 0
3310 486 0
-1414 2773 0
-548 -14 0
-2880 1906 0
-747 3335 0
-1154 2104 0
-2317 -229 0
-1038 1869 0
1745 2740 0
1909 -1015 0
2463 -1361 0
4043 1953 0
-1167 -695 0
-3828 -2933 0
-310 -2226 0
2398 -627 0
-4494 63 0
3127 2083 0
-3519 2066 0
969 4608 0
113 -581 0
-1519 -824 0
2257 -966 0
2237 -2880 0
1496 2230 0
2511 -1787 0
926 -367 0
1592 -913 0
4274 -191 0
3213 -1973 0
-2420 4299 0
-394 -843 0
-2605 -1969 0
4137 -1033 0
-333 1906 0
-1223 -4424 0
3088 -1247 0
2236 2734 0
-4592 -1559 0
-2457 3999 0
-566 3438 0
4188 -3686 0
2362 4479 0
3388 -824 0
2668 -2567 0
-1742 -2479 0
-1732 1123 0
-2677 2861 0
-3331 4624 0
4414 -1620 0
3245 -616 0
422 2401 0
-619 872 0
3321 -413 0
938 -4273 0
4577 -2442 0
-3160 473 0
-1444 3693 0
-1278 -2271 0
564 168 0
-411 2582 0
-400 -484 0
-3336 -2461 0
814 -2027 0
410 -925 0
2442 2676 0
3770 -3597 0
447 -3515 0
-688 -2306 0
1928 1597 0
-1745 4334 0
-616 2418 0
2164 -1917 0
2703 4557 0
4203 1252 0
-1638 -3069 0
926 -1877 0
-2092 4124 0
31 -4542 0
-4040 2841 0
550 -1925 0
-3686 -310 0
4372 -2763 0
-3191 3482 0
-3966 4504 0
2443 -2262 0
-551 -3035 0
-2052 -1642 0
-4586 -3735 0
-707 -2791 0
-3977 -1029 0
-2273 -3269 0
-489 -4448 0
-1340 4146 0
-378 -347 0
-2537 3072 0
1522 3586 0
2108 1346 0
991 2683 0
2300 3561 0
-4162 112 0
3731 -393 0
-2341 2690 0
-4605 221 0
1128 -964 0
3452 -4471 0
-2795 -1931 0
-2824 -1387 0
-465 -3070 0
1499 2156 0
-1247 4417 0
-511 741 0
-868 1026 0
-4369 -2568 0
2717 4397 0
-2062 -1730 0
1944 -1024 0
3419 -782 0
-3411 -4460 0
-1956 -687 0
-2352 -3647 0
-2880 -1104 0
-2952 357 0
-3340 1484 0
4550 372 0
4170 473 0
2215 -753 0
-2257 716 0
-1032 2029 0
3166 1845 0
1515 -922 0
-1860 874 0
2910 -3140 0
-1979 3573 0
-1445 2144 0
1825 -2041 0
705 -3228 0
3441 -2931 0
-1607 1468 0
3335 395 0
-882 2896 0
-2045 1054 0
1487 -3967 0
3708 -2182 0
-3835 1176 0
-1436 2658 0
-3488 1306 0
-2070 296 0
1735 -3230 0
-1092 1170 0
2379 600 0
-702 -4049 0
3833 -3789 0
3507 -4619 0
885 -4581 0
479 3353 0
-3520 -282 0
-523 4195 0
-2268 3386 0
-2601 3013 0
187 -798 0
63 -471 0
-3918 2140 0
1168 -2050 0
-1782 1727 0
377 -339 0
2729 -2128 0
-400 -54 0
4423 109 0
-3829 -3117 0
-2716 1280 0
-452 -4065 0
-868 -884 0
-2105 721 0
-2952 -1823 0
-219 -1580 0
-3563 827 0
4380 2597 0
-1837 1290 0
3586 -466 0
1050 -2094 0
-3520 4603 0
2045 -488 0
1735 228 0
3556 -3125 0
4198 -3495 0
-2901 915 0
478 3418 0
-3076 -1009 0
-1022 4091 0
718 2017 0
2390 -736 0
-648 -3623 0
4045 1434 0
-4379 2731 0
-1921 4382 0
3635 -3328 0
-1359 -3608 0
-2801 2122 0
196 556 0
359 3951 0
-3917 806 0
1333 187 0
-3414 -1757 0
3024 -4130 0
-75 -1435 0
3807 2021 0
-3558 -1202 0
-3010 2434 0
-1863 3131 0
4062 -4059 0
-4174 -3073 0
1326 -1381 0
-2707 -3736 0
-1431 1724 0
-3540 -2970 0
-89 -3439 0
1382 -1032 0
-1972 4411 0
-2383 -1459 0
1336 817 0
2237 3330 0
1443 -3175 0
344 2924 0
-1766 -3083 0
21 -4509 0
1589 85 0
-427 -3567 0
-2531 955 0
-375 -1601 0
-1960 3492 0
521 -4067 0
2558 454 0
2102 4113 0
598 286 0
2096 -468 0
-3192 -684 0
-1466 2404 0
-1911 2983 0
-1049 182 0
-2924 2386 0
-1689 -1092 0
1875 -2514 0
-573 3391 0
-2266 1499 0
371 4203 0
-921 -1449 0
3122 -453 0
1863 -4519 0
-1185 1232 0
3092 -251 0
-1358 3433 0
-3343 3581 0
290 -719 0
872 4426 0
-2190 4182 0
-4154 2913 0
3104 2807 0
-3440 -3991 0
-175 -283 0
2801 2357 0
730 3179 0
2479 3009 0
-4261 -4340 0
279 -2859 0
-2121 -3699 0
4299 71 0
528 -3289 0
-1350 1230 0
616 -458 0
1651 -1391 0
-2069 3207 0
3860 1054 0
117 -3297 0
-205 -2922 0
-702 -502 0
3082 -2269 0
-378 -150 0
4165 -1201 0
-3865 -537 0
1142 2749 0
632 -3150 0
-1120 -1243 0
848 -3579 0
-1765 713 0
-1394 4235 0
519 3586 0
-3802 -772 0
-120 -776 0
-1967 -3702 0
-77 -536 0
-3974 -2184 0
-1109 2867 0
3665 -3616 0
-3234 -1630 0
-2682 -626 0
-1779 -1510 0
3645 3827 0
2037 1360 0
1308 -2190 0
-3132 991 0
2816 1345 0
3709 1547 0
3929 4574 0
-2993 -3953 0
-2663 1143 0
-3486 375 0
936 -2648 0
-2484 -2588 0
-1425 -4595 0
3045 -2679 0
-1703 729 0
2539 -4577 0
3237 -2557 0
-390 3816 0
-2737 2027 0
-3547 1827 0
-180 876 0
2406 -3473 0
4296 -2642 0
-3622 498 0
-1678 -3271 0
1783 1846 0
2611 4402 0
1598 -2143 0
-2948 -2355 0
-443 -2600 0
-1283 2606 0
375 1075 0
-4069 1363 0
-457 -4437 0
-3706 2736 0
-833 1039 0
-3264 3338 0
-4154 2517 0
3423 434 0
-1074 2362 0
-743 -2956 0
-3077 -27 0
-3438 -565 0
-3362 3079 0
-1898 2386 0
886 715 0
718 3443 0
2158 -2250 0
-3968 395 0
-2391 4222 0
2690 -3066 0
-879 1693 0
-2523 -4063 0
542 2642 0
2341 -2271 0
-4479 -1985 0
2931 -4003 0
-2959 3334 0
3964 3964 0
-4099 -1724 0
-1141 -850 0
76 -1159 0
-1777 874 0
-4054 4529 0
849 476 0
-4242 1498 0
-622 -167 0
-912 -666 0
4137 3959 0
2195 -3319 0
3754 -3841 0
2064 -2178 0
3228 -2272 0
-4003 3405 0
-1324 -4199 0
-1503 438 0
3857 742 0
-4421 3883 0
4177 -2385 0
1974 2516 0
-719 -3709 0
3306 -3979 0
4425 4236 0
2603 -3438 0
3159 1781 0
4298 3275 0
-954 2504 0
3929 3754 0
-2450 -1183 0
2536 -2659 0
-1600 665 0
682 -204 0
840 1093 0
2571 -1582 0
-1120 4380 0
4476 882 0
2489 -966 0
-1352 -1457 0
-53 3903 0
2700 1258 0
2222 3260 0
-4540 1068 0
-347 -3571 0
2857 -3611 0
-2042 -2231 0
-3988 2029 0
-1388 -613 0
-390 208 0
690 -591 0
1257 -2629 0
-1487 820 0
2542 -1452 0
4475 4579 0
434 -370 0
-1852 -2980 0
-2850 -2276 0
3737 4381 0
2057 -1147 0
-2463 601 0
-1661 623 0
325 -3082 0
1552 -2104 0
-2528 -4517 0
-1114 -2310 0
-3488 -2706 0
-221 -3474 0
2622 1054 0
-3377 4044 0
-4168 1868 0
-1207 -2805 0
1107 4488 0
-606 -2250 0
666 3365 0
3501 2997 0
-1747 -3931 0
-4587 -382 0
2288 -1526 0
637 3556 0
2080 -1062 0
887 1354 0
1313 -2022 0
-906 277 0
2803 2506 0
-4046 -2496 0
4007 -2836 0
-4455 2500 0
3292 -2505 0
-186 883 0
1560 -1116 0
-3931 4085 0
-1667 -4056 0
-2143 1860 0
-4345 1238 0
-2427 -2718 0
-3569 4468 0
3764 3892 0
2922 -1806 0
-4029 3060 0
-19 -3449 0
-3936 1527 0
3496 2581 0
2774 2227 0
1448 -3503 0
4156 2865 0
4527 -360 0
-1802 3335 0
1591 1833 0
-3602 2116 0
2130 3883 0
4452 -790 0
-2878 938 0
-251 -445 0
4463 -2760 0
-468 -472 0
-1373 3742 0
-4331 -912 0
3814 -4452 0
3827 1422 0
-3728 -72 0
2124 -1087 0
-3978 3578 0
-4612 -3474 0
405 -1162 0
236 -2096 0
875 58 0
-3294 4114 0
-3213 -2627 0
300 -3942 0
-782 1070 0
-872 4226 0
2979 -1296 0
-1868 32 0
-3562 1586 0
-3323 -135 0
169 -641 0
-1601 -3827 0
-466 3967 0
59 3138 0
4429 -1555 0
-499 3527 0
-3906 -2777 0
-2580 -4277 0
345 -58 0
-2077 211 0
3663 -83 0
2634 -1049 0
1983 2754 0
-1812 -3054 0
3742 -3512 0
2047 -4261 0
-3679 2651 0
4441 4353 0
-3577 -1643 0
520 -2041 0
-1992 -252 0
-1533 -2391 0
-1854 841 0
3786 4561 0
2096 1952 0
-4539 -1865 0
-1483 -1192 0
4055 3589 0
-4388 3300 0
-1489 1919 0
1064 1235 0
2333 -2277 0
-4075 -1915 0
-2933 -1038 0
-2261 257 0
-4136 -2173 0
3323 2666 0
1409 -2801 0
1250 2399 0
-661 -1606 0
-2190 -1742 0
-1846 4244 0
907 3681 0
4489 4413 0
2617 2140 0
-4186 -939 0
-2737 4350 0
-4438 -3794 0
-140 -1521 0
1058 721 0
2596 4093 0
-843 -1861 0
2661 4239 0
889 3504 0
914 1643 0
-2874 -3521 0
2182 -316 0
-1706 3013 0
3940 -338 0
-1932 2491 0
4081 -494 0
-983 -2279 0
124 889 0
-2281 4295 0
1448 -1656 0
-1483 1330 0
-2656 -1275 0
-2928 1046 0
-3612 -1529 0
-4286 -1546 0
-2763 -3418 0
-3845 -1847 0
-3845 1522 0
-4504 3453 0
1631 -2685 0
-1767 1081 0
-1137 -4314 0
-3865 -3190 0
-2530 3769 0
-3875 914 0
2524 -4076 0
12 4348 0
890 -2120 0
3554 2803 0
-797 382 0
2079 -3301 0
3868 3350 0
4077 -1516 0
160 4219 0
835 4194 0
3414 2852 0
-1459 -89 0
3017 -1790 0
305 1983 0
4472 -3362 0
3394 593 0
-3811 4591 0
-753 -982 0
4245 -3649 0
2203 258 0
-2602 -2710 0
-1778 -2477 0
1050 2684 0
1337 823 0
-1559 1020 0
2049 1008 0
-2534 866 0
4258 3591 0
-4399 -4197 0
-1494 882 0
3639 351 0
806 -2972 0
-3965 -4600 0
4333 -300 0
-1549 -1816 0
-2149 -425 0
3199 -3748 0
-3094 3505 0
-3202 2418 0
1581 299 0
-824 3150 0
-1005 -3829 0
1781 -604 0
2862 538 0
-4030 808 0
-2637 4210 0
2528 745 0
1857 544 0
305 -1804 0
1477 2730 0
2534 -4226 0
-1777 3643 0
4113 1155 0
642 -1616 0
3030 3921 0
3291 3678 0
4608 316 0
-1679 3399 0
-4281 4243 0
-1925 2657 0
2859 -1061 0
2654 -4428 0
3525 -572 0
-671 -1646 0
-206 -1986 0
2896 -3249 0
-2208 481 0
187 180 0
-1105 -90 0
-3373 -3838 0
4038 -1721 0
-1726 4028 0
3087 -3143 0
2495 97 0
2317 3388 0
3857 -3623 0
8 2499 0
755 3240 0
-4030 1488 0
-3869 689 0
3060 -15 0
26 -2066 0
1520 4408 0
3689 -700 0
-758 1900 0
469 -4281 0
-1390 -2857 0
-2386 785 0
2940 -671 0
1355 -363 0
289 -1419 0
-579 -3122 0
1816 -4006 0
2322 3913 0
-191 4552 0
-2564 -3171 0
-1137 -452 0
-4382 255 0
-4570 1007 0
-513 -3286 0
1229 1320 0
2797 3095 0
862 -4407 0
4515 -2835 0
156 3785 0
-1662 -3105 0
-414 -3997 0
1496 163 0
2449 1772 0
-1526 -3414 0
-4118 -213 0
-602 -1805 0
3051 -3416 0
-1877 2469 0
-4294 2860 0
930 -1079 0
-4245 1371 0
988 -3527 0
151 406 0
145 -309 0
2187 71 0
4504 -4364 0
3643 -3080 0
-3481 1807 0
-3109 -975 0
-1361 3648 0
2829 -3668 0
3674 -2437 0
4095 -3792 0
886 3322 0
2682 1003 0
4613 1454 0
1177 -344 0
-3539 1155 0
-2645 1227 0
2267 3321 0
2255 396 0
1664 -1217 0
2230 2419 0
-1592 4009 0
2675 -249 0
3306 1760 0
3220 2586 0
-3033 -1936 0
2794 2621 0
-2505 -2689 0
3342 -3064 0
-3866 4579 0
1231 -1318 0
2455 1334 0
-878 2807 0
-282 -1140 0
567 -432 0
-3256 -1858 0
2848 2158 0
2552 -4588 0
-97 3246 0
655 331 0
604 2603 0
-1803 -2840 0
4092 -3068 0
-893 2988 0
-4006 2437 0
2246 4172 0
1169 -3837 0
-4596 -4372 0
218 -2750 0
1430 -1369 0
3160 3962 0
1101 -1206 0
-2834 -2776 0
279 -1086 0
-4421 -3803 0
1118 -424 0
2216 3946 0
-921 -416 0
4079 -507 0
1808 -1009 0
-1247 4275 0
-2576 -3987 0
-960 -4086 0
-2708 3212 0
4041 -2136 0
-4122 1507 0
2517 -1159 0
1196 -2665 0
-2336 -613 0
4357 4089 0
2347 -371 0
-2464 3798 0
2731 3660 0
2970 -813 0
4180 3342 0
415 -3224 0
4534 -2677 0
3921 3728 0
2479 -642 0
2886 2943 0
261 -1058 0
1648 1491 0
352 -548 0
-1264 3391 0
582 -3207 0
-184 1612 0
-3494 -3707 0
-4538 -2039 0
1280 -4120 0
4618 2833 0
-4000 -1289 0
2137 3443 0
-36 -856 0
-1002 1947 0
2788 -3423 0
-4307 -729 0
-1109 2897 0
-2925 3265 0
3780 -2880 0
4194 -3017 0
-2771 -4118 0
-3828 3394 0
-20 -2160 0
-3865 3836 0
18 -4630 0
-3618 -935 0
-2923 -3960 0
-4390 411 0
-1590 3745 0
-1062 1437 0
1506 4536 0
-815 -3356 0
-3721 -3784 0
2857 -195 0
-3690 -4515 0
-2027 -3357 0
-521 -1624 0
1055 -4080 0
-3073 -2297 0
-1930 -1733 0
-1278 -2934 0
85 1869 0
-3839 -1913 0
930 -2965 0
712 3151 0
3945 -4302 0
-511 366 0
-4435 -932 0
3303 4330 0
986 1797 0
-1269 -1421 0
1173 3398 0
-4018 1547 0
-3997 -2714 0
-1288 -700 0
3407 -3907 0
-2940 -196 0
-4237 1704 0
3833 -152 0
2804 -743 0
2611 2504 0
4496 2351 0
-3017 1060 0
-389 -1340 0
-822 2709 0
-1594 4070 0
1480 1733 0
4099 448 0
-2673 1749 0
-2866 -847 0
2181 -2632 0
2163 -3742 0
-217 3053 0
-1009 -445 0
1231 -93 0
4299 2675 0
3451 -3555 0
-3831 -1883 0
-1493 -4598 0
1449 227 0
4393 1300 0
2395 -4046 0
-3237 -4186 0
874 -1820 0
3115 -1388 0
-692 2738 0
3095 355 0
-2932 -2472 0
-2706 446 0
978 -3596 0
-2410 3175 0
3363 -3216 0
896 -899 0
-2931 3727 0
1662 -4596 0
-4116 -2329 0
1339 -203 0
-239 4318 0
2288 2046 0
-503 -2287 0
-1892 375 0
2794 -1442 0
848 1259 0
2847 -2042 0
-4430 -4445 0
-670 -3882 0
469 654 0
4259 2584 0
-1451 -4531 0
4623 990 0
-3917 -2551 0
3878 -2014 0
2603 3208 0
-3434 -424 0
2886 3117 0
-2910 -1837 0
4469 -3818 0
-660 -196 0
151 -539 0
-1748 -1317 0
1811 14 0
1069 -1224 0
-4109 168 0
-3300 3672 0
-4550 -4002 0
-2863 4487 0
4014 -4031 0
3426 4102 0
-3056 -4291 0
3826 -3873 0
2394 -3385 0
2002 1303 0
1200 3212 0
3799 1040 0
-3432 -2948 0
-3765 -3722 0
2453 -2341 0
2823 -339 0
-2446 734 0
-790 2892 0
3413 -3739 0
-3797 -4468 0
941 501 0
-4306 -4360 0
1771 -3727 0
2384 1856 0
-1129 3544 0
3357 -3454 0
-2808 -4064 0
4015 -4363 0
391 2297 0
1950 4091 0
-559 -2187 0
-3690 364 0
-2602 1589 0
4502 -3954 0
-404 -2387 0
-3727 -1116 0
979 4226 0
4249 723 0
3946 1358 0
1071 -1789 0
-1432 1364 0
1130 1734 0
3955 2115 0
-4016 -463 0
-3073 3057 0
191 -2943 0
-905 2739 0
4624 -3076 0
2237 233 0
3696 3322 0
-707 -2410 0
-2650 -3202 0
-3575 642 0
-4497 3415 0
-416 2631 0
-2564 3912 0
-560 -2554 0
1636 3323 0
-2391 -694 0
-3330 -4105 0
2178 2261 0
-2197 1489 0
-598 950 0
-4448 -2470 0
-884 4004 0
905 432 0
-3995 2480 0
1846 4419 0
-696 1182 0
2281 165 0
3066 -1619 0
4361 1614 0
-3820 2019 0
-3947 3254 0
735 898 0
-2472 31 0
-562 -1756 0
879 -3028 0
1516 3027 0
-321 -3224 0
1204 633 0
-804 -2654 0
3631 1127 0
-229 -2031 0
-1777 -416 0
3584 -1838 0
3089 -1603 0
-870 1304 0
3144 1235 0
3871 2960 0
615 -1674 0
-4182 -1816 0
4294 -50 0
1640 -1845 0
1134 -207 0
-2311 4295 0
4206 2307 0
-4068 2855 0
795 -91 0
-211 -1877 0
-9 1103 0
3326 716 0
1895 425 0
-3411 183 0
1155 -2165 0
-2681 831 0
1787 4385 0
-4423 2912 0
-3404 3525 0
-3938 1312 0
3809 -3821 0
1988 -1048 0
-4496 351 0
-1057 -2348 0
-2314 -3357 0
1056 2118 0
-273 1133 0
-462 -3993 0
2412 -622 0
-3539 -482 0
2604 -2298 0
-3523 3605 0
4011 75 0
3357 4091 0
3277 1969 0
-1185 -1613 0
-4276 -4087 0
3844 -614 0
-4327 -4224 0
2192 -854 0
4166 3651 0
-972 -3291 0
4586 872 0
-2223 -393 0
-4403 -3577 0
3747 1281 0
-512 -3670 0
1861 426 0
-3979 -432 0
4167 4129 0
422 151 0
-28 3063 0
-1939 2208 0
-640 -2848 0
-979 -3925 0
-3692 1115 0
1696 -3572 0
2063 1934 0
3450 3592 0
-1540 3291 0
-3583 -2151 0
1547 -2364 0
3245 -314 0
-1302 -4286 0
2978 -2722 0
663 -3683 0
-3258 -3249 0
2234 -1723 0
-2325 -4281 0
-1055 655 0
-483 2405 0
3145 1645 0
2616 -2767 0
-3248 105 0
-195 -3762 0
4112 4399 0
2150 -1361 0
1281 4294 0
-1749 -1658 0
4567 2532 0
308 1962 0
2592 33 0
1855 2749 0
-620 2567 0
2230 -3689 0
744 2045 0
4012 331 0
-1988 582 0
-4594 -2512 0
960 4082 0
-2849 402 0
-3959 -211 0
-3508 3688 0
-3479 -4378 0
2536 -1021 0
2068 3352 0
153 4351 0
3570 3467 0
1948 -1063 0
3822 2972 0
-901 -1188 0
4459 -369 0
4480 -1473 0
3616 1180 0
952 649 0
4443 -577 0
2044 2186 0
295 644 0
2979 3376 0
734 2967 0
1059 -4579 0
1484 -1350 0
-3942 -3744 0
-979 -3573 0
2217 287 0
1257 73 0
-1890 669 0
-1194 -2287 0
-1601 -2455 0
2463 2508 0
558 899 0
-3271 3232 0
-2671 2699 0
-2885 655 0
-529 4263 0
-1483 3612 0
-3898 -912 0
2097 -3934 0
1705 -495 0
-3697 -1380 0
1548 -3094 0
818 3034 0
-739 1268 0
1645 -2901 0
-1298 -978 0
-4331 -1484 0
-4383 -1992 0
-767 1974 0
527 -4356 0
-393 -1563 0
2488 -3230 0
1379 -4118 0
-2869 -1589 0
673 1880 0
3982 -3702 0
-2685 2652 0
4537 186 0
1794 -1099 0
3923 -2190 0
2751 -1380 0
-4048 -3136 0
-2776 3878 0
-981 3290 0
1465 986 0
3830 -2823 0
3154 918 0
320 -353 0
4371 -3046 0
-1568 2324 0
3421 576 0
142 2479 0
2920 222 0
710 -2765 0
4302 3941 0
-244 -905 0
4149 2977 0
-1616 4120 0
2237 1766 0
-2601 -636 0
4585 -1451 0
-3169 -1193 0
-3024 -101 0
-1785 3470 0
-639 -1492 0
1934 1309 0
-2863 555 0
3584 -1705 0
4304 -609 0
3578 -3682 0
-262 872 0
669 -4438 0
4574 -236 0
4299 -122 0
2548 -401 0
-2100 3502 0
948 -4327 0
-300 4216 0
2252 -2392 0
2334 2331 0
-687 3777 0
-2091 -2572 0
162 -3004 0
1940 -3617 0
3967 -3838 0
3182 601 0
-4115 3621 0
-4610 -2388 0
1962 1996 0
390 3091 0
3699 3289 0
4180 -3370 0
2866 2018 0
4547 3823 0
2222 1907 0
1596 -240 0
1769 -24 0
4511 -2577 0
-3758 4560 0
3644 1253 0
-2321 -2775 0
-3010 3306 0
218 1743 0
-1213 3875 0
3970 -2640 0
-2877 3455 0
2725 -3946 0
-3828 901 0
-1689 1227 0
-1975 2802 0
1547 -1257 0
-1243 1845 0
-3239 -1502 0
-1021 2339 0
3472 -1115 0
-4548 -166 0
-2893 2859 0
2593 1650 0
-4247 191 0
-204 1647 0
-70 -3244 0
-4439 1963 0
2696 -379 0
-2011 -3402 0
-477 1937 0
4327 970 0
-2377 2948 0
201 1588 0
1919 4058 0
2963 -4594 0
619 2117 0
2235 -4191 0
2407 -2082 0
3369 -3031 0
3941 -1900 0
-1742 396 0
-3937 1455 0
4589 1189 0
-975 1223 0
4262 -3788 0
3980 -3609 0
3393 4571 0
976 -2239 0
2317 -2296 0
-2245 3161 0
3304 38 0
-3171 2964 0
-4533 17 0
787 3235 0
2794 -3377 0
3858 2117 0
2105 -3009 0
-1874 3079 0
-3778 709 0
-993 -781 0
-1899 -1893 0
-4537 -4347 0
2916 4026 0
3524 3096 0
304 1565 0
3968 4424 0
4076 -298 0
2451 4166 0
2654 4454 0
892 2134 0
1082 -584 0
1196 321 0
2438 -1999 0
-2679 -891 0
1576 2477 0
-3867 -3938 0
3589 614 0
2455 -2992 0
-86 -3896 0
-907 68 0
-4213 -1995 0
1257 -1891 0
2787 -3359 0
-2748 -1137 0
-4399 -4311 0
4002 -921 0
-1436 -207 0
3143 -3454 0
-3359 -4108 0
-2248 -3187 0
1205 -953 0
888 -2424 0
-19 -3150 0
3726 2971 0
-4602 -2359 0
-2685 -3403 0
1740 841 0
-1835 1808 0
-1214 -3003 0
-1387 238 0
4501 2325 0
-802 2834 0
-2964 -3713 0
1850 2525 0
-1533 3775 0
3983 -448 0
1029 -97 0
-2878 -3633 0
-3713 659 0
3240 -3049 0
2227 -1176 0
-3965 -2142 0
1118 -1492 0
2318 2788 0
-2250 2216 0
3788 -3648 0
3310 3172 0
4459 -4308 0
-2035 -2268 0
-1381 4296 0
-3082 3817 0
-39 1841 0
-4150 -1221 0
-3841 -34 0
3497 586 0
4093 -3725 0
4439 1980 0
-2469 1799 0
4162 -2548 0
2357 1533 0
-180 1242 0
2251 -4544 0
3405 4296 0
3074 -332 0
-3168 -3362 0
-16 -512 0
4457 275 0
575 -2962 0
2095 403 0
-1794 4351 0
-2457 -3388 0
-2067 1179 0
-3549 2012 0
1469 3596 0
-1397 -3972 0
4599 -602 0
4080 2564 0
-3318 -3401 0
568 1230 0
3563 1297 0
2120 3225 0
323 3103 0
-4513 -4196 0
1637 298 0
-1214 -4417 0
949 -1447 0
-276 -4154 0
-1894 2060 0
-4535 -3520 0
-4261 -3619 0
-670 -206 0
1010 -3830 0
-658 1516 0
1764 -1485 0
233 -3850 0
-1108 1557 0
3883 3045 0
4437 -3968 0
2443 -2465 0
-3466 64 0
2394 1385 0
4626 2047 0
-2605 -3255 0
-3135 -3902 0
-3865 -641 0
-1428 4041 0
4111 -490 0
3559 -2911 0
-1213 -2011 0
3336 2274 0
-4008 -771 0
3588 3302 0
-4093 -825 0
4394 -4350 0
3470 2347 0
1050 3114 0
-2752 -4506 0
241 -2727 0
-1215 1345 0
265 592 0
515 -1908 0
-2099 -2480 0
279 -127 0
-799 2439 0
1935 2903 0
-3442 4256 0
4452 3152 0
-3510 81 0
-1999 -1066 0
693 1037 0
-1577 -4232 0
3833 4588 0
-410 -320 0
2218 3126 0
-3015 -3954 0
3572 -4532 0
638 3703 0
3365 -3410 0
-3817 -1241 0
-3263 -239 0
1194 1726 0
-3932 -1151 0
2766 1498 0
1294 1849 0
-2598 3409 0
-40 -2184 0
1203 1998 0
2454 1954 0
1060 1701 0
4080 2373 0
-2711 4562 0
439 364 0
-3668 -1410 0
2968 4263 0
3249 884 0
-737 -2157 0
-2717 1294 0
3186 257 0
4518 4364 0
-2939 -2291 0
4253 2623 0
3543 -3028 0
3767 643 0
-4484 452 0
2978 -4095 0
-3930 -3512 0
4203 -1268 0
38 -2804 0
2063 3241 0
-2741 3133 0
2964 -399 0
4251 2474 0
-1796 -4454 0
441 1323 0
-3051 3437 0
4262 2024 0
-4154 4511 0
4359 767 0
-158 -4270 0
2654 2392 0
-642 -4596 0
-792 4413 0
-714 4440 0
4572 -643 0
3310 -3537 0
-3128 -893 0
-537 4354 0
-3276 4413 0
755 4199 0
606 1563 0
1073 2673 0
-4170 1809 0
3501 -2401 0
2937 2047 0
-3830 685 0
4561 -868 0
-2771 3126 0
-3500 560 0
-531 -2310 0
3685 -661 0
-453 -3285 0
-2260 -1729 0
-1917 -1242 0
4176 -189 0
-4496 4608 0
4026 -3383 0
988 438 0
788 -1975 0
928 4387 0
1749 4253 0
3657 4459 0
4373 -3793 0
4355 2971 0
1492 -4550 0
2534 -893 0
278 -172 0
4496 620 0
4254 2564 0
-3155 -4439 0
4259 -236 0
2325 372 0
1848 -3926 0
-1244 -782 0
2639 -2567 0
3516 2071 0
72 2221 0
1670 2529 0
655 138 0
4036 553 0
-3959 4411 0
4265 1478 0
-1582 -851 0
35 -3134 0
2485 -1302 0
-2997 1725 0
3425 4352 0
-49 3267 0
-84 -3983 0
-2952 -1333 0
-236 8 0
-2801 2660 0
3485 -541 0
-4159 3757 0
-1256 3319 0
4227 2106 0
-1115 -270 0
456 -2358 0
339 1591 0
4194 -3062 0
797 3817 0
-1353 -963 0
-3971 2228 0
-152 -573 0
-913 -2927 0
-4507 -2612 0
3127 -59 0
3658 1799 0
-48 -2285 0
-1865 -1947 0
630 -4150 0
-1331 4177 0
141 -172 0
-21 4208 0
-2497 -4465 0
-1831 4091 0
-4453 50 0
2354 4386 0
4373 4527 0
2847 -847 0
2189 -696 0
3666 -2286 0
-1967 -1100 0
4209 -167 0
-2056 2645 0
-1585 2896 0
-4068 1202 0
-2907 1157 0
1126 613 0
-2825 -2939 0
-12 -581 0
2663 -3149 0
1883 -2512 0
1689 -3598 0
-2094 2160 0
-1865 2415 0
-2527 3475 0
1027 3185 0
2862 -2854 0
4376 299 0
-158 617 0
3606 4613 0
2105 1402 0
4574 1263 0
-3727 -1997 0
1550 -3348 0
3153 -4517 0
-53 -4290 0
3224 -1206 0
331 3061 0
-987 -1213 0
3975 -2662 0
3335 4411 0
-3351 3606 0
3855 -798 0
-632 -1773 0
-3628 164 0
-2121 -3803 0
-245 734 0
-3695 -2763 0
-3375 -925 0
1614 1845 0
4394 -3338 0
-669 2439 0
-1028 23 0
4086 1268 0
804 4522 0
4317 3250 0
-2368 -1545 0
-1317 3543 0
3468 -169 0
-2741 -449 0
-563 -2530 0
-3479 -1721 0
4517 -1249 0
2147 1923 0
4509 3726 0
4003 -1439 0
2380 2459 0
4143 2073 0
4434 -1436 0
-230 -541 0
-3354 2142 0
-1107 1840 0
-2650 1421 0
-1363 1988 0
-953 113 0
-2555 2140 0
-3696 -4233 0
-2807 1528 0
2331 -4096 0
-1332 -1157 0
2487 1026 0
691 4011 0
4063 4246 0
2438 2607 0
1341 4128 0
-1855 -2163 0
2153 2896 0
-1686 -2288 0
1917 3515 0
-4503 -2875 0
1492 -4307 0
1182 -2962 0
2751 -1595 0
-899 2492 0
4627 -1538 0
-2050 2945 0
2318 -581 0
-3710 -1396 0
1170 -1940 0
2252 -3267 0
-618 -3685 0
-1831 -3170 0
4300 -4478 0
-190 -480 0
-1706 -3370 0
-3932 3408 0
-3991 -4116 0
-2284 3427 0
-1311 -2783 0
4008 556 0
403 4066 0
32 3250 0
2074 4176 0
3613 2152 0
-4409 1343 0
160 4514 0
-3622 1384 0
-2932 -405 0
-2710 935 0
3365 1759 0
3255 -4482 0
1453 3179 0
-2084 1760 0
-2805 -507 0
592 915 0
3231 -3236 0
-2603 -580 0
-2447 -4122 0
-2741 1182 0
3918 -162 0
4489 802 0
1550 541 0
-340 -1262 0
-3942 3301 0
2692 1267 0
1146 -2892 0
2046 -4499 0
-2296 -2471 0
2327 -765 0
2928 -171 0
-1977 790 0
-1067 150 0
1309 -1721 0
537 -1532 0
-1304 -112 0
-1103 3412 0
-1317 -4071 0
-4307 2842 0
1580 -221 0
-2897 -1097 0
-3234 1186 0
3639 -4206 0
1686 2810 0
-2891 -46 0
-3661 2615 0
-736 1984 0
1550 3438 0
-268 -3419 0
2673 800 0
-4569 4198 0
-4289 2782 0
-2206 -3124 0
-2096 -2981 0
-2364 3374 0
574 165 0
-1986 4277 0
2475 261 0
-4209 3501 0
1523 2356 0
872 -1431 0
-1982 -4181 0
4563 3276 0
-4470 -4409 0
1186 1995 0
3241 2392 0
-2047 1809 0
-4312 -4105 0
-4545 3861 0
1432 2750 0
-3585 1061 0
-308 -3690 0
-2746 -1950 0
1330 -512 0
313 3188 0
-4295 -2936 0
-867 2297 0
-3122 251 0
1872 -2718 0
4621 2197 0
-1154 3467 0
-471 235 0
349 1593 0
2460 -352 0
-1826 3376 0
1188 -431 0
673 4384 0
3429 -475 0
-2885 -1929 0
-3877 3506 0
3201 -324 0
1574 2564 0
-1946 -4205 0
642 -1318 0
4035 3145 0
2671 -3343 0
2330 -4076 0
351 108 0
359 3660 0
-207 -699 0
3395 2717 0
-3229 4628 0
1100 168 0
-4605 1177 0
2978 -1933 0
-4455 3550 0
2929 -728 0
-114 -3129 0
-3867 -484 0
2096 -4460 0
-2727 540 0
4587 1285 0
-747 -4579 0
-2417 -4237 0
399 3921 0
-1501 -2669 0
-4541 -521 0
3775 2628 0
-3489 1000 0
1121 -4511 0
354 3025 0
-2183 -1877 0
-4524 2965 0
1420 -3678 0
2295 1333 0
-1917 -1053 0
-4329 3342 0
569 965 0
112 -2193 0
2806 -2412 0
2690 -1289 0
-3507 -3700 0
-1316 4000 0
-3187 1424 0
-770 -2375 0
4538 -3390 0
-659 -3278 0
3991 2378 0
-3098 -214 0
-3748 -409 0
-3613 -4461 0
3734 2347 0
-2940 -3213 0
-3687 -1601 0
3355 4263 0
3305 2755 0
-692 1167 0
347 -110 0
3506 4482 0
-3963 -1378 0
2393 682 0
-3150 -3571 0
-2860 -1063 0
1250 -4064 0
-1514 -2312 0
-2133 273 0
-4484 3747 0
726 -338 0
-2870 3452 0
3671 3182 0
-3777 -3871 0
-2953 -362 0
-3294 2202 0
-2642 731 0
2234 1608 0
-240 67 0
2214 1253 0
3508 -2083 0
-3304 -1045 0
-2205 -1751 0
-3721 -3140 0
-3977 -3393 0
2183 3893 0
3621 4553 0
81 909 0
2023 1050 0
1781 1811 0
1988 -3901 0
885 -328 0
-1495 4344 0
-3082 370 0
1088 -2640 0
-1890 4615 0
-2552 2789 0
-1915 4068 0
1938 -154 0
-1115 3562 0
3280 -228 0
-3862 -1284 0
2862 2686 0
2724 -3076 0
855 3636 0
-1954 -2512 0
2560 -1758 0
3913 -552 0
-2656 -2286 0
1037 -734 0
-3415 2406 0
2092 1437 0
-2596 1341 0
1558 1482 0
-3508 3446 0
-3518 4443 0
-834 -2806 0
-3576 686 0
-336 -717 0
712 4498 0
1617 2109 0
-1086 -2628 0
-4200 1980 0
-2347 2516 0
2189 -442 0
-3469 -1181 0
-4521 -2563 0
-3428 -4160 0
-2894 -2489 0
4561 2993 0
4162 1520 0
2158 2670 0
-272 4301 0
-1331 2828 0
801 1875 0
-3057 2542 0
1248 494 0
1293 -491 0
263 -838 0
3845 -453 0
-3136 1259 0
4182 -3661 0
-2554 -3651 0
399 -3807 0
4050 2847 0
-553 -2497 0
-1062 -2974 0
4297 -394 0
-2551 -3585 0
518 403 0
3436 3827 0
-30 -1219 0
-1443 -3557 0
3026 904 0
-992 -2959 0
-2885 -114 0
-2122 1368 0
-4557 1609 0
1771 -3435 0
3387 -273 0
4061 1052 0
-4218 -4593 0
-2000 361 0
-4133 4102 0
2595 4379 0
-454 1940 0
836 -611 0
-2696 1817 0
2582 -728 0
-2011 -422 0
2857 2000 0
-3968 3434 0
209 -2428 0
-3585 2427 0
1801 -27 0
-4191 2987 0
-4064 3551 0
-4118 -1667 0
1869 3251 0
1481 -2509 0
1146 531 0
-3110 -1346 0
-510 1270 0
-1247 -4040 0
2242 -2203 0
-2798 -2186 0
2616 1537 0
-2933 890 0
-1544 -3076 0
-3352 -3508 0
3734 887 0
574 -4301 0
-2669 882 0
-1452 608 0
-188 3695 0
3203 -3487 0
2287 1794 0
-2588 -4519 0
1320 -1435 0
2355 -1801 0
4287 395 0
-2684 -339 0
-4306 666 0
241 716 0
-4399 -184 0
-3871 -39 0
-3822 -3551 0
3827 -3076 0
-230 2034 0
3114 -3151 0
-1921 -979 0
3161 -3760 0
-3768 -3904 0
-4181 -4615 0
-1136 -353 0
2357 -2066 0
1172 -2735 0
1187 2113 0
3074 -1423 0
4024 2730 0
-4151 -1434 0
-2085 103 0
1145 -2985 0
-2637 -4289 0
-268 3395 0
-371 -2268 0
1360 3085 0
-2002 -4284 0
3039 -1925 0
-670 3379 0
1476 -3461 0
1609 952 0
278 -2753 0
-3802 -4312 0
-3549 -4044 0
-3202 1683 0
-2691 -2853 0
-4579 -2579 0
2555 2000 0
-1238 919 0
-3178 514 0
-506 1341 0
2113 -3794 0
-3603 2485 0
-4298 1014 0
-1397 368 0
3477 -3478 0
-3145 384 0
-736 -2799 0
-2151 372 0
3405 -1811 0
4381 2299 0
-3255 -2578 0
-157 2639 0
1235 -881 0
-3087 -346 0
-397 -1150 0
-1152 4566 0
-1349 -2370 0
5 -256 0
-3364 3536 0
764 599 0
-2295 -1946 0
-884 -1798 0
2380 -2924 0
-1845 -60 0
-3494 2234 0
2299 -648 0
-3519 -1420 0
-3626 -405 0
3272 2207 0
4095 -103 0
346 -1788 0
3821 3797 0
-3783 -529 0
809 2895 0
-2401 3673 0
4238 2609 0
-3213 36 0
2504 -640 0
-3335 -4540 0
2107 3763 0
-1706 -2133 0
-3497 1841 0
1274 -488 0
-2630 -2615 0
355 1690 0
3743 1846 0
2610 4558 0
-3329 -4390 0
612 769 0
1438 1447 0
3113 1104 0
-2277 -770 0
3169 1656 0
-79 2198 0
-2804 1716 0
1918 1207 0
-1966 3261 0
-225 -3117 0
262 -2655 0
3154 -2191 0
4525 -2781 0
2382 -1623 0
-794 3065 0
2553 -1097 0
2764 -4354 0
-1266 3973 0
-1896 1751 0
-1589 -4491 0
321 -250 0
-3308 2748 0
-131 -1129 0
3613 -717 0
1974 -1129 0
-4626 2198 0
1371 612 0
-1861 -1834 0
1471 1419 0
-4460 -4326 0
3419 -1956 0
-4553 -2497 0
-4618 4357 0
1494 -926 0
2036 -4448 0
-341 621 0
766 -471 0
593 4559 0
-3813 1499 0
-1824 -3022 0
4017 1794 0
872 2717 0
-2397 -4454 0
4056 -2655 0
2495 -71 0
-2894 474 0
-3861 2214 0
-4418 3922 0
-1777 2966 0
1251 634 0
-1775 134 0
2404 23 0
3863 -3234 0
2967 -2761 0
-3137 2166 0
-61 -1465 0
-4480 3912 0
198 -4415 0
-343 4027 0
4073 -3672 0
2375 2998 0
-1436 1839 0
2824 -330 0
3728 -3077 0
1933 -3648 0
3316 -605 0
-1641 841 0
-3789 278 0
-3750 -341 0
-2933 905 0
-4363 -380 0
-3035 4382 0
2651 -100 0
1895 2361 0
-3303 474 0
-2699 -3286 0
4553 194 0
4608 853 0
3509 1863 0
-3477 -3996 0
-3278 -4100 0
-4187 826 0
-1604 1799 0
1809 2315 0
3812 -1138 0
2547 -1130 0
-3986 1478 0
-2804 -221 0
1776 2739 0
2658 -3623 0
-103 -3750 0
-4506 338 0
-1390 1696 0
725 1438 0
-665 -4471 0
680 748 0
-1390 4385 0
-813 2534 0
-3623 3043 0
-4575 3943 0
-4397 876 0
-2546 -1328 0
-2235 2961 0
-2817 1909 0
-1835 -1198 0
872 1994 0
-1762 -2507 0
1978 2753 0
-3036 -3683 0
-736 1048 0
2941 2110 0
466 -704 0
-2413 -1933 0
3477 2357 0
-4540 -752 0
-2387 220 0
154 2207 0
-4330 -2573 0
-1596 4491 0
2280 -4549 0
-4090 -2407 0
-4603 -1447 0
-3096 525 0
-4623 -154 0
3190 3525 0
3798 4463 0
-2764 842 0
-1222 3162 0
-2885 1920 0
2733 -1024 0
306 2394 0
1487 3185 0
1786 1384 0
4489 -187 0
-4204 1715 0
1550 -3980 0
447 4394 0
1824 -3737 0
-1966 -959 0
3412 -2589 0
653 -3225 0
4077 2276 0
1595 2823 0
-589 -2122 0
2001 2202 0
3640 -172 0
-1224 -3247 0
-3073 -1903 0
3243 3922 0
-1478 1330 0
3582 3962 0
3382 2911 0
4468 -2936 0
3953 1552 0
2533 948 0
1972 1744 0
1889 3476 0
1905 -590 0
-694 -2059 0
3281 1204 0
3007 -92 0
2292 -2182 0
-4482 986 0
486 4428 0
-1546 -2537 0
2696 -2332 0
-1967 295 0
183 1719 0
2976 -1939 0
-1916 -4431 0
2288 2267 0
-4503 3133 0
-468 -3183 0
549 -3889 0
3785 -589 0
475 930 0
-162 71 0
1529 -2264 0
2801 -39 0
-60 -3272 0
-1608 -2712 0
-612 -2569 0
-3388 4214 0
756 -931 0
3844 -2505 0
668 -4559 0
4230 -1021 0
-4067 2755 0
4136 1351 0
1733 -3920 0
-322 3266 0
1741 -432 0
3031 -1385 0
-1538 4408 0
-972 2320 0
-385 -617 0
-3379 -638 0
-3953 -1056 0
3039 -1359 0
-2412 -842 0
-4159 2467 0
-2273 -2588 0
3080 1071 0
3814 2139 0
-1478 -4155 0
4357 -294 0
3764 4261 0
1430 3584 0
-3307 446 0
-2448 684 0
688 -3428 0
-3357 -4097 0
3451 -3160 0
1387 2726 0
3057 -73 0
179 -1670 0
3408 1667 0
4364 1060 0
-628 2328 0
4256 4483 0
3508 712 0
1453 -2959 0
1230 1051 0
-78 -2484 0
-3930 4540 0
136 -1932 0
3612 4186 0
-1120 -3730 0
4325 -3480 0
-1212 3157 0
-4607 -4593 0
-2051 341 0
-453 -3542 0
-2971 -1803 0
161 -702 0
-3347 2266 0
657 3212 0
3949 -143 0
-1309 946 0
-471 -678 0
335 -3065 0
-2686 -2567 0
627 1333 0
-2046 2008 0
1690 -1580 0
-135 4468 0
2112 -3198 0
-1137 2034 0
4459 2704 0
2406 -4230 0
2796 1971 0
195 -3948 0
4332 2650 0
3108 2415 0
-1135 -2326 0
3524 -72 0
-3083 -793 0
-2074 -4359 0
-590 -407 0
4086 -1618 0
-1767 -365 0
-351 -4331 0
4242 -4575 0
4000 1709 0
3572 2683 0
-1623 2192 0
2947 -2345 0
-395 -197 0
2154 -1943 0
1290 -3590 0
2963 -2674 0
1527 1113 0
4246 -3370 0
-2747 2659 0
3677 1860 0
990 1109 0
-3587 -2676 0
-3195 -1166 0
787 -3057 0
4441 881 0
1602 -145 0
1143 1683 0
2123 4443 0
3460 -347 0
2418 2789 0
498 3177 0
2838 1495 0
-1836 -749 0
-4122 3770 0
3312 -2840 0
1167 -3258 0
-3841 -2151 0
1127 -2356 0
2823 924 0
3766 576 0
1064 617 0
-3826 3372 0
-222 -3683 0
2794 1349 0
1718 -3192 0
3394 3177 0
-597 -4611 0
-1187 2955 0
3302 -4013 0
-2308 800 0
4146 874 0
2008 2528 0
-457 2657 0
-155 4121 0
-3684 -2320 0
4340 -3152 0
-1941 -1237 0
3755 1459 0
-591 -4604 0
-3437 -42 0
2350 4358 0
-2378 -3033 0
4104 -2933 0
1272 -2701 0
4016 1808 0
-2858 -1392 0
127 4631 0
2022 3120 0
2875 2680 0
-807 -545 0
2748 -3769 0
686 -1272 0
-2254 -4189 0
-451 -4592 0
2503 -278 0
-3157 -557 0
-2098 847 0
533 -788 0
-209 3868 0
2734 163 0
1899 -1673 0
433 764 0
816 -3751 0
2445 -1624 0
1138 650 0
3475 -1856 0
4269 -4472 0
-800 -3235 0
1358 -2086 0
1060 1668 0
-2658 3844 0
-3404 1842 0
-3577 -1177 0
3117 3079 0
-2973 918 0
-3780 2139 0
-3225 3194 0
1163 422 0
-1663 1011 0
-687 3892 0
1560 3857 0
-2061 526 0
4483 -1327 0
-2587 4612 0
-2588 -1738 0
-1049 1341 0
3302 -3970 0
-1580 -3620 0
1348 -3227 0
1651 1894 0
472 -2411 0
-4328 -667 0
3129 -1499 0
-1874 -1856 0
4617 -2408 0
3205 -1360 0
-3603 498 0
-2155 4351 0
1813 146 0
-4262 -4168 0
-2927 909 0
3074 1014 0
-280 4607 0
-2383 4600 0
-724 -1573 0
2913 -3529 0
-960 2974 0
3717 108 0
-4097 -3147 0
2572 1875 0
4271 -660 0
1758 -2329 0
-1472 -815 0
-760 540 0
4626 1693 0
-3581 2452 0
-1951 -849 0
-1387 4119 0
4308 -1939 0
1813 -4008 0
1068 1248 0
-3997 -3224 0
-2256 3731 0
2455 4537 0
-3486 -2871 0
681 -1112 0
2449 3672 0
-3998 -591 0
1523 1661 0
813 -2093 0
-2359 2824 0
-2192 -3529 0
1410 2288 0
3485 -1102 0
2084 -1896 0
2108 -2467 0
1767 -3697 0
3209 3952 0
4156 1047 0
2065 -1451 0
-2023 -577 0
-4075 -365 0
-1514 4328 0
-3293 -2014 0
3699 3688 0
3485 3280 0
1524 3645 0
2653 -4524 0
-663 2111 0
2562 4011 0
2166 -110 0
-3080 -3185 0
-55 2580 0
-2869 -3993 0
-2810 542 0
-431 1826 0
1333 -413 0
384 -44 0
-3247 -1863 0
-1408 -3819 0
2773 2326 0
1535 1349 0
1106 3331 0
2704 2682 0
1119 2784 0
-1033 3210 0
-4454 194 0
-796 -223 0
-825 1424 0
2449 -2030 0
1107 4019 0
-3021 -1425 0
1210 2300 0
1235 4554 0
2969 -2716 0
1228 -2287 0
1413 -3545 0
-2120 3056 0
-2737 -3944 0
1548 3095 0
4591 2183 0
-596 -2265 0
3008 -2261 0
3813 -2281 0
319 2987 0
-2381 -2118 0
2 3240 0
-1208 2156 0
2804 -2792 0
-1721 -2445 0
4212 -2926 0
3733 -3524 0
-2093 2429 0
3931 -2836 0
4061 -4464 0
-3237 -1726 0
-1686 2892 0
-4167 -4237 0
297 1265 0
863 44 0
4062 2144 0
922 3921 0
3102 941 0
-4109 -648 0
-3681 -455 0
-3149 481 0
-924 -2537 0
-3696 3606 0
1243 3089 0
4327 -2205 0
-2403 -3846 0
1658 -1667 0
21 -1018 0
-3401 4284 0
-4327 1996 0
-4402 3442 0
-3773 -304 0
-4614 -3520 0
-867 3519 0
-1580 160 0
-365 -1107 0
-2540 1138 0
-2054 -1378 0
-3177 1256 0
3791 -1419 0
-1820 2895 0
1028 1260 0
-1183 1959 0
-244 4110 0
-339 439 0
-158 2422 0
-217 -1422 0
2600 -3909 0
2982 1954 0
-594 2937 0
-4223 3755 0
1821 -2743 0
-2718 -3211 0
3392 -3939 0
-3496 2603 0
-536 1866 0
4067 3548 0
-1473 2436 0
-746 -504 0
-2899 1849 0
4156 -3131 0
4406 -3553 0
-4150 2678 0
4071 -2039 0
938 3990 0
3607 435 0
-1579 -1767 0
2177 -250 0
3574 2739 0
4311 -3305 0
1328 -978 0
-2178 2235 0
-652 -1041 0
-1722 48 0
-4357 3698 0
-3140 -848 0
465 1705 0
-1569 -1101 0
-4499 3438 0
4210 1131 0
2102 -3684 0
-958 -143 0
-2274 -4046 0
-2057 -2067 0
4189 -1676 0
-316 2158 0
-3570 -1063 0
23 225 0
-337 2622 0
-333 -650 0
2809 -1261 0
3507 3060 0
-196 -2160 0
1401 3536 0
-4301 3660 0
-4478 -2630 0
-2721 -776 0
-1478 -1450 0
1739 326 0
-4389 -4164 0
3667 -2279 0
-775 -2063 0
3121 4630 0
-1703 -1635 0
-2952 -4330 0
-2332 2876 0
-3503 -2499 0
-148 592 0
2485 2266 0
-1099 2641 0
2368 -1938 0
2875 -4408 0
-4194 -2990 0
4397 2101 0
3567 -2925 0
1653 337 0
-2754 434 0
2307 4330 0
-84 -2601 0
-3981 3240 0
3461 -1702 0
2439 -2961 0
1858 816 0
3651 1507 0
-278 -4118 0
-1616 1123 0
-1809 -2524 0
-2363 1838 0
-1921 1659 0
2766 3451 0
1489 3296 0
-1964 2784 0
-3157 3628 0
-4326 3120 0
-2851 -2892 0
-3542 -618 0
-3637 2948 0
3713 126 0
2074 3504 0
1264 -3497 0
3188 -1057 0
2658 4305 0
-4045 1508 0
-1492 -40 0
4350 -3370 0
-4238 4110 0
-1497 842 0
2187 4357 0
-1233 1663 0
-3537 264 0
-3750 -3022 0
2275 -917 0
-1633 -2949 0
2860 -1461 0
-1947 4556 0
3884 -3987 0
-1624 1435 0
-221 -3073 0
-4483 -3721 0
-4295 -2808 0
125 -1733 0
26 2330 0
-3360 -530 0
-480 -4197 0
2372 -2973 0
-2664 1173 0
-1475 -3134 0
-4150 -3940 0
-4382 -4347 0
1762 382 0
-2470 -60 0
-3257 3440 0
919 -987 0
-4273 2484 0
1912 -3861 0
-4168 4522 0
1472 4042 0
2423 1817 0
3186 988 0
-1982 -540 0
2013 -966 0
4417 2481 0
-3690 -1007 0
3148 -3191 0
2317 -4355 0
966 2653 0
4508 -4597 0
4485 240 0
3411 -369 0
-4162 1423 0
-1115 -1076 0
-3626 82 0
2280 -405 0
-40 4478 0
-3354 1522 0
4328 801 0
-2515 -247 0
-1110 -1431 0
764 1074 0
1477 4537 0
3808 314 0
-3987 1776 0
-3359 1200 0
2570 3538 0
-2319 -1309 0
-3752 989 0
1557 -487 0
-1667 -1158 0
22 -647 0
-3503 1270 0
2002 -66 0
-891 -1630 0
4291 2192 0
-1851 2593 0
-3766 -3906 0
-689 299 0
-2637 605 0
3304 -1731 0
3927 662 0
912 -3998 0
-4179 1013 0
-3343 405 0
1617 -4315 0
3764 4401 0
1657 -3108 0
-1510 -1363 0
1505 2019 0
3392 -174 0
-1116 -3296 0
1635 52 0
-2580 1333 0
-2845 3353 0
2733 1616 0
1380 2595 0
2957 -1913 0
637 -529 0
3612 4394 0
106 -960 0
-1706 -2752 0
-3189 3084 0
-22 -2509 0
725 -1126 0
3498 38 0
-3869 2355 0
-3073 -3180 0
-2117 3672 0
915 434 0
-1604 -496 0
-3061 -1049 0
-2334 -993 0
3328 -4551 0
-2478 -1244 0
-4030 3967 0
-3077 2380 0
2336 -1345 0
3174 4186 0
40 3337 0
-1804 4079 0
-171 -4399 0
-3075 2588 0
-2535 -2361 0
3002 -1858 0
51 -1584 0
4107 2487 0
2605 629 0
4343 -3933 0
2449 4625 0
-1661 462 0
-148 35 0
3515 3741 0
-1082 -1448 0
-1804 1087 0
-2600 839 0
3537 4259 0
3684 -3557 0
-3874 3628 0
-684 4472 0
-3106 -2469 0
4207 2261 0
3158 -3327 0
602 -3472 0
4110 608 0
-1287 2328 0
4413 -3480 0
3755 2046 0
325 -1157 0
-2437 -2190 0
4257 3432 0
-1247 -298 0
3975 -4514 0
-2440 422 0
-1012 1799 0
3779 2240 0
528 -1047 0
785 21 0
2913 1210 0
-1732 -1497 0
2353 -2635 0
-3890 -459 0
2703 -870 0
-3362 4601 0
3831 1118 0
1822 1645 0
-1948 2628 0
587 1290 0
494 -2384 0
-3893 -1408 0
4170 3392 0
2509 3045 0
-1173 2080 0
-1553 -4557 0
-698 3479 0
1657 4212 0
-4553 -3061 0
2643 1407 0
-3896 -519 0
380 -121 0
-987 305 0
-992 -235 0
4222 -34 0
1322 9 0
305 2135 0
2652 -4247 0
2800 1008 0
-2118 -4403 0
3797 -1759 0
4160 -1930 0
2048 1735 0
-89 1477 0
2755 -2208 0
2469 -372 0
-1837 1510 0
-1216 1271 0
-4502 371 0
-3631 -3736 0
-2492 -3180 0
-3613 1632 0
279 -2623 0
-3738 -1930 0
3496 -3911 0
-3790 206 0
-829 2 0
348 3419 0
129 4058 0
2300 2902 0
2604 4078 0
2687 4622 0
779 2719 0
-4153 -345 0
2413 -4241 0
689 3051 0
1741 -4492 0
-2161 1142 0
4334 3742 0
1792 1412 0
-920 965 0
2862 995 0
1267 -4005 0
2831 -2318 0
816 2114 0
-2663 -2049 0
2742 812 0
578 703 0
-807 -987 0
-3670 -873 0
-4188 3051 0
3225 1808 0
-700 -3371 0
1124 -2371 0
2723 -2644 0
-1131 1871 0
-3947 2853 0
-1343 549 0
-228 2240 0
-339 3537 0
-3503 -136 0
4504 1058 0
848 -4204 0
-2709 -4069 0
1863 4394 0
-1352 1177 0
-2970 -4559 0
3811 947 0
4548 2559 0
-3264 -3088 0
2298 -3601 0
-1619 -343 0
1986 2974 0
-1357 -3463 0
1171 -420 0
1974 3647 0
-2801 4526 0
3024 1078 0
1884 4035 0
1757 -250 0
-2727 -2332 0
3188 -3136 0
1096 -3315 0
2849 2523 0
12 599 0
847 -4118 0
-1722 2603 0
-3044 3559 0
-318 1055 0
4217 -2322 0
3942 -2883 0
-757 1974 0
-785 2307 0
4538 -4088 0
1353 -3615 0
-2048 -14 0
-4301 703 0
3062 1269 0
-2070 4259 0
-4465 3393 0
2221 -3703 0
3649 2478 0
2852 2945 0
-2787 -4251 0
501 4262 0
-2660 -815 0
2789 2662 0
-774 998 0
-2924 -1941 0
-2265 -1835 0
-738 -517 0
-1461 -1743 0
41 761 0
4554 -2074 0
-2290 2184 0
-2891 123 0
-1311 4099 0
2829 -3796 0
-1567 1892 0
3391 -1769 0
1140 -2082 0
2793 193 0
1958 -2557 0
4476 -1421 0
-2035 28 0
-1782 -1478 0
1394 -1728 0
-2884 681 0
-332 1415 0
-999 2214 0
1430 -1321 0
-3189 984 0
1942 49 0
-2928 1923 0
4410 -4595 0
96 -2475 0
3024 3233 0
-3056 947 0
-1436 -835 0
1800 1104 0
3675 3626 0
558 263 0
-1903 -1368 0
2283 -2211 0
-2777 4085 0
-4596 -2546 0
-1977 3167 0
-4201 1733 0
-3577 4209 0
-1799 -2263 0
-4462 -693 0
4595 1259 0
4304 -2809 0
1126 261 0
-4089 -2762 0
-4099 -1194 0
2683 103 0
-3170 -3377 0
2850 -3408 0
3825 -2428 0
-4387 1550 0
3436 -575 0
-4534 -1724 0
-4022 -1112 0
-412 2989 0
-447 -288 0
-4544 3934 0
4364 1724 0
-3456 -2550 0
4177 -3587 0
1018 -278 0
-2530 2438 0
3913 -1166 0
-2249 1210 0
2098 -1537 0
-4451 -983 0
-3999 3999 0
-3520 -3244 0
-447 212 0
-4582 4408 0
2169 1885 0
-104 3400 0
846 3282 0
3047 -3618 0
-3672 3242 0
4377 3197 0
2042 2110 0
-2361 2018 0
-1085 -1363 0
-3194 -1694 0
1123 1734 0
-2248 2770 0
3470 3049 0
3582 -4483 0
849 -2542 0
2118 2858 0
2441 -3670 0
-1801 -3854 0
248 2772 0
-3661 -3125 0
-2227 3527 0
-3044 3078 0
1848 1844 0
495 -3577 0
4630 -3082 0
852 816 0
2740 -378 0
-2011 1001 0
-3576 1904 0
-1197 -2435 0
2934 -641 0
1085 4566 0
-4467 -1019 0
-4155 -4320 0
-3737 852 0
4227 1085 0
-789 -2696 0
3939 551 0
1814 -376 0
635 -4099 0
4414 2278 0
-757 1076 0
1165 888 0
726 1398 0
2978 3113 0
-4228 3746 0
2320 5 0
-3430 -3010 0
3226 1641 0
-2812 3476 0
-1536 308 0
3815 -1501 0
1002 3439 0
1892 -3654 0
3527 1413 0
2976 958 0
4533 2440 0
1641 1876 0
-1582 2622 0
2180 -1339 0
329 196 0
-600 88 0
-394 4325 0
-789 -2822 0
3812 1306 0
-395 795 0
-1585 -1080 0
-738 -2265 0
2726 -687 0
-2476 -2059 0
2559 2848 0
-192 -628 0
-2401 -834 0
1090 442 0
1591 -864 0
-3029 3683 0
-115 3329 0
4161 -3683 0
-1 3706 0
2773 910 0
-1755 580 0
1476 2716 0
-812 2745 0
2629 2547 0
-70 3638 0
-437 3628 0
1185 4305 0
3784 2906 0
3868 3660 0
296 3026 0
-3104 3266 0
220 -3177 0
-1869 1025 0
-315 3481 0
292 -2411 0
1878 -1274 0
1772 250 0
-1603 -2257 0
2631 2859 0
-1171 3639 0
3434 2726 0
-1253 -177 0
2117 -1902 0
-3486 4222 0
-1789 3555 0
1964 -1486 0
986 3895 0
2257 125 0
-3490 -795 0
4357 3535 0
-459 3279 0
2580 1110 0
989 16 0
-688 -1857 0
1775 -1483 0
1013 1177 0
3331 -2282 0
-1396 2968 0
1699 2554 0
-4521 -4043 0
3669 2344 0
-1461 -2645 0
3713 104 0
-1929 -4196 0
-3986 -3554 0
761 2234 0
-1282 4133 0
4496 -1281 0
-3807 1760 0
4296 -3209 0
-457 4052 0
-3046 -421 0
3152 587 0
2010 -4133 0
-2314 -1139 0
-1828 -2626 0
-4089 817 0
-2660 4296 0
1372 -2645 0
-2583 -324 0
2782 -763 0
-4123 -1013 0
2392 -3173 0
1239 761 0
-2908 -3327 0
-1969 -335 0
-4311 -4120 0
1366 2634 0
3854 -1135 0
4087 4253 0
-2957 3794 0
-1849 -1879 0
3164 1772 0
-4362 2902 0
-4247 -1966 0
528 -649 0
1184 3883 0
-174 1994 0
3234 -4588 0
2144 814 0
1113 -2566 0
3350 2461 0
1552 -86 0
2972 -1304 0
3323 2273 0
3541 -4360 0
4143 -2988 0
-1957 -3147 0
-352 -397 0
-357 -2229 0
3973 -2632 0
3904 -4577 0
-2185 -2575 0
-2032 4306 0
-95 -705 0
667 3099 0
4145 -2295 0
-1258 348 0
-2920 1793 0
712 2051 0
-431 2905 0
-2006 -2480 0
933 -2246 0
-1715 -2839 0
-3356 -3762 0
-4598 -2222 0
-2729 -3617 0
4017 -419 0
-2554 -3702 0
312 -3 0
3099 -1771 0
1007 746 0
2810 2421 0
3515 4256 0
1119 -3513 0
-3716 56 0
3634 -1655 0
-3029 3453 0
-236 -2168 0
-1990 575 0
-3150 -2115 0
1082 556 0
-2486 311 0
-2805 4151 0
-1408 660 0
610 3064 0
-1630 1736 0
3045 -3390 0
2156 -27 0
3460 -4570 0
-3069 1080 0
1887 3989 0
4033 -2483 0
1312 -3672 0
216 -2950 0
-2722 575 0
3614 -251 0
3148 2558 0
-2722 911 0
-1197 -380 0
-3101 1817 0
-1188 -4146 0
1007 3619 0
3823 -3951 0
1695 1827 0
305 -1081 0
-2049 3213 0
-3030 -3805 0
-3833 168 0
3408 2999 0
-4499 -832 0
-2766 -4240 0
1609 -2449 0
1899 -1905 0
-4216 3017 0
4000 3312 0
4405 -3234 0
4580 -2372 0
3415 4073 0
-3986 272 0
4145 -829 0
2146 2238 0
-3468 656 0
-3046 -2161 0
-2622 -3285 0
-3088 1752 0
4271 -4154 0
-2679 -4072 0
-537 2344 0
-1458 3830 0
-3594 -4202 0
1957 -987 0
4021 2861 0
-95 -446 0
4609 -4540 0
-3697 4434 0
-3595 -2100 0
-421 -3267 0
-148 -3198 0
681 -1212 0
203 3369 0
-1026 -2277 0
-271 -2497 0
-747 -2674 0
2643 -511 0
-1626 2522 0
849 -4511 0
-1951 3873 0
-2668 -3301 0
2221 2583 0
-2637 -4113 0
1130 2084 0
-2348 -1382 0
-555 1280 0
-3466 -4147 0
-1992 -1243 0
-80 106 0
-4528 1907 0
-321 4529 0
-1456 -2484 0
-3415 -3774 0
3410 1133 0
4005 1445 0
4232 -2204 0
-3485 3515 0
541 2563 0
787 2806 0
-2884 2169 0
-4247 -2253 0
450 3272 0
3111 -4437 0
84 1006 0
-3682 3541 0
3491 -2277 0
-921 -2265 0
656 -2461 0
2641 3906 0
2122 787 0
-1289 -735 0
-2948 4517 0
1401 -4569 0
-4084 2399 0
2507 -1499 0
4552 668 0
-1305 130 0
2195 1980 0
3524 26 0
-1212 -2273 0
2000 -1259 0
-2731 2351 0
2048 -2843 0
-1019 -3874 0
3628 -707 0
1313 2071 0
4317 541 0
-2500 454 0
-3106 -2901 0
3428 -799 0
-4512 759 0
2434 -1606 0
-3034 3901 0
2065 1501 0
3409 3329 0
1699 -1390 0
3695 2676 0
-1909 3781 0
-3194 998 0
3212 4404 0
-166 1639 0
-4288 1377 0
2991 1329 0
-3223 3922 0
-3706 970 0
-1451 -4096 0
-1226 -1157 0
-1518 3336 0
3879 3901 0
-2273 4155 0
-4344 -3390 0
1453 3290 0
-4462 -1116 0
343 -4247 0
-119 2396 0
-4454 3119 0
4449 4250 0
1935 2972 0
3634 1616 0
638 1809 0
-2599 -1348 0
-1249 -3228 0
-1517 347 0
-2380 -60 0
691 1482 0
-377 -886 0
3808 -3048 0
4523 1366 0
1889 4375 0
-374 -333 0
4330 1460 0
3764 2034 0
1865 -4068 0
4324 920 0
-4076 -459 0
-1873 484 0
-1647 4582 0
346 -3598 0
3040 4171 0
-3894 1237 0
4221 -4611 0
3059 2203 0
-2034 -2029 0
3117 423 0
-2131 3429 0
-12 3253 0
1008 2462 0
2219 -2102 0
-4464 632 0
514 -1732 0
2592 -397 0
5 4120 0
575 -3893 0
3448 1761 0
-3923 885 0
3246 -3580 0
2015 -1443 0
-3076 -1637 0
2355 -4410 0
-523 2369 0
-393 270 0
-1710 4023 0
2414 3983 0
4088 -2513 0
1423 -1612 0
4008 3450 0
3442 3862 0
2636 460 0
4457 346 0
-4464 -2320 0
-4403 3157 0
3913 963 0
2913 -2169 0
-2242 -4168 0
3283 -204 0
791 1904 0
313 1812 0
2727 1522 0
852 3405 0
-1187 2189 0
-739 -3577 0
639 3860 0
-3560 -2308 0
-4122 -1439 0
-4220 -1716 0
-1026 -3026 0
1353 -2931 0
889 1254 0
-1664 -1941 0
3142 -1453 0
-3087 -2849 0
-2600 -171 0
-1232 392 0
-3032 2597 0
3008 2492 0
1202 -931 0
2913 1382 0
-1532 -2590 0
3800 -2009 0
-3813 -2049 0
99 -470 0
3196 -3422 0
4269 1670 0
-2966 -339 0
-3995 547 0
-2209 520 0
4343 -746 0
905 1064 0
1935 3797 0
256 4352 0
-1577 837 0
-3483 122 0
-374 3524 0
-2910 -758 0
3970 59 0
-841 4163 0
4378 -318 0
4415 112 0
-1356 1277 0
-563 -3751 0
3669 -231 0
1924 -1147 0
4501 2823 0
1701 4615 0
2375 948 0
-3028 -3906 0
-215 -362 0
-1606 -1614 0
321 -1936 0
-448 -4101 0
4127 -1584 0
3323 3065 0
4513 3707 0
-679 3386 0
3016 -1595 0
2823 -1910 0
-4039 -3473 0
3754 4594 0
-3566 4490 0
-4417 1958 0
1477 -811 0
-1623 389 0
-476 -4247 0
1977 748 0
71 3386 0
1053 -3905 0
3876 3363 0
2567 -377 0
-2167 2193 0
2500 -1437 0
-893 1596 0
-1959 1983 0
1295 -3852 0
-979 132 0
-2776 -1426 0
1312 3284 0
-2134 662 0
979 62 0
-1328 -1910 0
1581 -470 0
-3343 3145 0
2485 317 0
-2239 -169 0
-4237 1919 0
2420 -4631 0
-1367 -3004 0
394 -1894 0
-1817 1204 0
-1262 -628 0
371 16 0
-4540 -550 0
-1076 3419 0
-3018 -343 0
-4065 -2282 0
-1199 -463 0
1622 -1745 0
-3858 -1224 0
-1472 -2544 0
-4080 2732 0
2365 -74 0
332 -4203 0
3582 -4176 0
-3984 2904 0
1380 1900 0
-2999 974 0
-4220 -4321 0
-462 3232 0
1864 -195 0
-4108 4085 0
-4334 -3244 0
-1603 -4409 0
-2456 -1741 0
-3687 -1890 0
-2312 3223 0
-4505 -94 0
2861 2057 0
-4505 3788 0
-1343 -4597 0
188 1875 0
4324 -2090 0
1717 2272 0
-1183 -3974 0
4333 3887 0
-102 -3301 0
4169 555 0
-3100 1719 0
-2910 -3359 0
-3211 3573 0
-4191 4432 0
-1555 -194 0
1506 1575 0
3649 -4400 0
-4008 -2392 0
-3572 1275 0
-4240 3009 0
1871 3943 0
-3574 -1957 0
1160 -422 0
3222 1163 0
3491 2534 0
-268 3299 0
2728 4380 0
-4365 183 0
3574 -4380 0
3243 3217 0
2315 2300 0
2507 1705 0
-3341 -2830 0
1541 3894 0
258 -2870 0
3999 -4514 0
-3889 945 0
-2431 2882 0
2078 -4134 0
-3197 2558 0
1779 -4155 0
-898 -2918 0
-3967 79 0
-902 3681 0
-3607 122 0
3347 -1267 0
1893 308 0
3154 916 0
-467 3162 0
-892 4203 0
1354 -2407 0
-1410 3049 0
-3071 -2605 0
796 4047 0
-1304 2346 0
-3007 498 0
-3286 585 0
153 -2660 0
3002 -4586 0
2071 4217 0
1547 3556 0
-2934 -529 0
1942 -1416 0
1690 1845 0
-2524 -1971 0
3442 -4545 0
-3717 -4351 0
2974 1730 0
4522 2955 0
4612 -540 0
2135 -2717 0
-565 -764 0
1551 -1051 0
4219 3450 0
-2913 -470 0
-1735 1228 0
2090 2149 0
2784 2454 0
3927 3162 0
3731 3815 0
325 2678 0
202 1355 0
4574 -4447 0
-2727 1209 0
-782 3916 0
4212 2305 0
3236 1485 0
-2928 -60 0
4105 2036 0
3669 668 0
-533 -2914 0
1436 1618 0
1020 -3226 0
777 -763 0
-1614 3919 0
1524 1652 0
1860 -1490 0
737 -443 0
4366 1272 0
-2340 4555 0
-4122 -3662 0
3096 -4482 0
4138 -4459 0
3131 305 0
1980 2511 0
-2710 3807 0
323 635 0
795 1060 0
-3401 -3549 0
986 681 0
2895 -2756 0
4054 3066 0
-3202 -1097 0
-3867 -2921 0
811 -833 0
-1081 3089 0
2366 2131 0
822 -2364 0
1569 1908 0
-4520 -894 0
-1980 1857 0
-2650 1946 0
2724 2611 0
3830 -3526 0
-1647 791 0
3661 4314 0
2987 619 0
1163 2452 0
2946 -275 0
1227 -4054 0
-1607 -1798 0
-524 3099 0
2917 2144 0
-3757 -758 0
-4241 -3511 0
-2579 -1532 0
517 2722 0
-766 -2659 0
-463 4482 0
318 -2218 0
4394 -3678 0
-1021 -520 0
-4467 -2328 0
837 2026 0
4504 4528 0
2195 -2982 0
-2747 -724 0
-3837 -4547 0
4479 821 0
-4462 3493 0
1140 -3909 0
-4239 535 0
4371 2847 0
1080 -4445 0
54 620 0
2525 -3638 0
-606 4029 0
765 96 0
3367 -432 0
3587 -284 0
3336 2626 0
4141 -3729 0
-4255 -610 0
1453 -3435 0
3059 1032 0
-1790 -2883 0
-306 3893 0
4209 2565 0
-3976 1460 0
-236 2885 0
-2828 -2771 0
-1542 4180 0
-1400 3536 0
-4159 844 0
2375 -1565 0
2485 630 0
-2351 2956 0
253 -2342 0
1221 3654 0
-1441 -626 0
-4518 -2553 0
-3185 -4427 0
1676 -477 0
-710 1528 0
-3804 211 0
-4235 -1166 0
-4614 -3965 0
-2475 1708 0
874 3896 0
2773 -2281 0
-959 -495 0
2465 2061 0
965 474 0
4193 612 0
3040 -2950 0
-4221 3188 0
-2691 -508 0
-145 -4314 0
39 -580 0
3806 -982 0
-989 -2423 0
787 -3156 0
-770 2081 0
-2500 1195 0
-4362 -1394 0
3880 2342 0
584 -1063 0
-3029 335 0
-3495 -860 0
-1385 1858 0
4297 -626 0
2596 -48 0
2759 882 0
-1966 411 0
-2866 -2469 0
-1883 -3448 0
-4251 2323 0
4554 2993 0
-4475 -2660 0
-91 -305 0
-1909 -419 0
1662 -3809 0
-4489 -2671 0
-1373 -3130 0
1724 905 0
1993 -1431 0
1697 1727 0
-1270 4356 0
750 -2978 0
3934 -1392 0
4583 18 0
-955 4112 0
970 341 0
995 1171 0
-4121 3199 0
-3042 -493 0
-3731 2632 0
-986 -38 0
2784 -3230 0
-3151 1465 0
-3937 -4598 0
-4043 -2640 0
-4055 407 0
1672 1069 0
3755 -1153 0
1748 -595 0
-4314 -3932 0
-4502 -2933 0
-958 -3459 0
2631 2276 0
-3662 -4491 0
-60 1211 0
2414 -2936 0
-4128 -288 0
-4502 -3256 0
4101 337 0
939 -3459 0
3085 4332 0
-1944 3920 0
4405 -2766 0
-4342 308 0
4291 1471 0
737 4351 0
736 -664 0
2490 -234 0
404 -1075 0
3827 -1232 0
2903 4602 0
-395 -4577 0
-370 -1661 0
-968 -2675 0
4567 2374 0
1610 3229 0
-2742 4024 0
891 1859 0
1142 1752 0
4299 -2079 0
-2808 -945 0
-3874 -2155 0
2487 -2071 0
4567 496 0
1130 -2265 0
-1089 -3073 0
-1555 2844 0
-1048 666 0
1047 -2878 0
721 4390 0
-2322 -4342 0
3442 2289 0
1409 -856 0
1233 -1921 0
1433 -977 0
-2913 1914 0
-4141 2529 0
4519 855 0
-1363 -3679 0
3220 3074 0
3410 -4100 0
3878 -1710 0
352 -2358 0
-3750 -11 0
4286 539 0
-3772 -4570 0
106 -782 0
-3528 4353 0
2611 -3340 0
3561 -3930 0
-1884 4423 0
4591 2149 0
2754 141 0
1091 4386 0
-1399 -529 0
2995 -4445 0
-309 2662 0
2571 4026 0
2969 283 0
-120 -930 0
-1744 -722 0
-3739 689 0
-2637 1705 0
-1713 717 0
-3428 -822 0
-819 1416 0
-644 2015 0
1605 920 0
1343 -4479 0
-2012 -1134 0
-2131 1307 0
-581 -4606 0
-960 -503 0
3531 -3851 0
-3031 1368 0
3665 2614 0
1221 -405 0
2833 3817 0
-2790 -2949 0
2691 -2027 0
-2484 -3937 0
-3634 3491 0
2563 -3284 0
-1368 -1620 0
3530 2457 0
1563 -2781 0
-3082 -4507 0
1830 3299 0
-4285 1970 0
-1420 -1754 0
1013 -4398 0
4381 -3263 0
4090 2009 0
2748 2279 0
-3045 4487 0
1014 1785 0
2262 631 0
1342 -4169 0
4012 3135 0
-1463 -254 0
3244 3326 0
-591 -1896 0
-2537 -3267 0
1591 -3432 0
-1201 2935 0
3300 2347 0
2705 -1646 0
3420 -4201 0
-3179 -240 0
-166 -1217 0
2558 -3122 0
541 916 0
-2687 -939 0
-1105 3809 0
-1504 30 0
-1789 767 0
-3046 -236 0
-1063 -1073 0
4113 -2015 0
1389 3460 0
-2155 -1452 0
-680 475 0
965 -3983 0
-2936 583 0
-657 2129 0
4299 -4553 0
-2042 -3513 0
1308 -3590 0
970 -1069 0
1733 -772 0
-1571 32 0
4136 -2442 0
-2035 3296 0
1810 2977 0
2325 -476 0
-3492 2644 0
989 4379 0
-724 259 0
-3468 -891 0
-3899 2632 0
1875 -3753 0
-2313 -968 0
4268 -3362 0
3593 -1175 0
-333 594 0
2600 -2017 0
-2706 586 0
270 4252 0
756 2587 0
937 655 0
1119 -1556 0
2865 -3923 0
3565 3174 0
3615 -262 0
3169 2138 0
-3404 1914 0
-1303 3141 0
-1536 3681 0
2754 -207 0
1969 4559 0
-2991 1322 0
-3778 -96 0
-4601 1597 0
514 3208 0
3696 3871 0
1202 4231 0
3022 384 0
2485 -3867 0
2076 -876 0
-4263 4240 0
1799 -2343 0
124 2234 0
-2744 -3773 0
-2190 -3999 0
-2490 -3273 0
-1201 2844 0
-3195 -2598 0
-3813 -711 0
3727 296 0
-833 -1618 0
-2567 -10 0
-4346 1321 0
1988 -3347 0
1914 514 0
2612 3688 0
1553 1677 0
336 -3874 0
-1953 1010 0
1117 -2990 0
4467 593 0
-4065 2014 0
-1104 -4072 0
400 -3648 0
-3865 -1152 0
-652 -466 0
-509 1699 0
1128 2632 0
-744 2006 0
3355 -3004 0
-4074 1343 0
-1585 -2685 0
3678 449 0
3813 -3749 0
622 -1529 0
110 2140 0
325 -699 0
-2157 773 0
750 3418 0
-1214 -3903 0
-1696 -3802 0
-2311 -3073 0
-994 3341 0
-2998 -805 0
-1363 -2787 0
1953 1253 0
4010 -3998 0
-815 -1876 0
444 572 0
-4607 3921 0
2114 -880 0
1390 -2467 0
4433 -1184 0
-2372 -567 0
3401 -4599 0
4266 3267 0
1616 -2841 0
2880 16 0
2145 3701 0
-2440 -1504 0
-2458 986 0
3563 2896 0
-2931 -1230 0
-1045 369 0
-3239 -660 0
-4193 -3360 0
2627 -2582 0
-1570 1142 0
3251 634 0
3167 4459 0
-143 -2011 0
1953 -4589 0
2857 -1779 0
-1278 -3917 0
-3737 4259 0
2200 -4575 0
-345 -877 0
-1141 -2237 0
-3019 -3441 0
-4598 2535 0
-1385 2631 0
-1684 397 0
-3309 -4367 0
-2700 1740 0
3810 -1254 0
-1680 -1527 0
-4535 393 0
-251 1576 0
-613 4174 0
134 -51 0
2607 -3208 0
-933 -1120 0
-4499 -4310 0
4509 513 0
-2952 3903 0
1018 3631 0
-1916 -3887 0
-2382 -1127 0
2768 -180 0
3947 509 0
2379 2436 0
3509 -3455 0
-3633 -3607 0
4496 -3324 0
-3637 -1657 0
-3890 -2298 0
-504 1576 0
260 -93 0
-1474 2511 0
-4417 -788 0
2755 -1329 0
4203 738 0
3395 2139 0
4613 -4428 0
3056 -979 0
2015 -1828 0
4026 3676 0
1895 -1324 0
-1673 43 0
-3332 292 0
4320 -1059 0
-4000 -50 0
-3594 -2229 0
-420 -805 0
59 -3054 0
3156 608 0
-3151 -1630 0
1431 1651 0
4087 -1898 0
330 2241 0
-1985 -960 0
1238 -3070 0
924 2156 0
-169 -729 0
1074 -3850 0
2289 2373 0
-1667 3299 0
3239 1628 0
-334 -4563 0
-2918 2005 0
-1159 -2870 0
3956 -3956 0
2903 -3424 0
3544 -2815 0
-2315 726 0
3672 2373 0
-2055 105 0
-1560 -4233 0
-413 3941 0
3111 3892 0
1398 3295 0
1462 -2859 0
3018 4616 0
-4251 2667 0
-975 1111 0
-4323 2370 0
-2975 -9 0
475 -4268 0
6 -3434 0
-2612 -968 0
-4290 4253 0
-920 4376 0
480 -428 0
1068 895 0
-3965 -628 0
1489 -3788 0
2177 630 0
-3523 -2349 0
3602 -2161 0
3664 -2206 0
1448 -3001 0
-2915 -2388 0
314 1739 0
-4109 -2178 0
3395 430 0
-3267 884 0
3584 1549 0
983 2653 0
1001 3431 0
-3761 4451 0
3066 3584 0
1728 -1595 0
-1581 568 0
-533 2487 0
3018 -3510 0
-2191 -4434 0
2129 -819 0
2153 94 0
1833 609 0
2215 -3277 0
-2719 -1122 0
3503 930 0
159 2628 0
-1272 2557 0
4244 -116 0
-2852 -2679 0
3281 -1931 0
35 4076 0
3861 -3596 0
-3810 -12 0
-2672 -3679 0
-2573 -3616 0
-3805 566 0
-3449 -3846 0
-757 -1513 0
-774 650 0
-1666 -3728 0
-2432 -276 0
-1246 1044 0
3782 -4350 0
277 -2235 0
4263 -4318 0
-2814 -2630 0
-3864 678 0
2230 -1692 0
904 1014 0
-1572 2782 0
3032 -10 0
1696 -3819 0
-2691 -3389 0
-3173 3986 0
-1816 4608 0
-128 3201 0
-3358 -714 0
-2647 180 0
543 -971 0
3720 -2354 0
-3483 601 0
2391 4370 0
1420 2183 0
-4002 -893 0
-3699 2904 0
-44 3684 0
-603 -4465 0
3945 -3280 0
3804 -4580 0
-356 3186 0
2831 4317 0
-2927 949 0
1659 1209 0
-2376 -584 0
-3295 2144 0
-3893 2919 0
3913 3995 0
-4168 3924 0
-2909 -2619 0
-692 3091 0
245 3420 0
4583 2215 0
66 -2358 0
-2218 685 0
-2908 688 0
3413 -3837 0
2060 -3702 0
926 -2138 0
3378 -4422 0
4218 -3222 0
-3890 -1099 0
-2353 -342 0
-4312 -1222 0
-347 3380 0
-3771 721 0
-4449 -3936 0
2667 4207 0
2888 -3084 0
2004 -2041 0
1839 -2333 0
-436 -6 0
2831 -4600 0
4350 3279 0
-4483 -2399 0
2168 -2217 0
3945 510 0
146 -1834 0
2848 3934 0
2469 2732 0
3557 2342 0
-2694 2219 0
-2918 -4089 0
4162 3822 0
1498 -2806 0
928 -724 0
-4250 -1041 0
4554 3629 0
541 -4524 0
1653 -1941 0
-2092 2865 0
-2060 3165 0
741 -1571 0
2230 -134 0
172 4376 0
2829 -641 0
-1660 -1804 0
3600 3582 0
-130 148 0
2052 -3469 0
4386 -2961 0
-611 -4287 0
1197 137 0
2667 616 0
2122 -2125 0
-3212 -2064 0
2202 -532 0
-1595 -517 0
302 -2855 0
2962 -4065 0
4493 3739 0
2065 -1590 0
-807 -202 0
56 -521 0
956 -792 0
2894 1899 0
-2014 -3374 0
-3133 -1421 0
88 3329 0
-368 -3359 0
2700 1811 0
1906 -4540 0
-797 2895 0
2683 2781 0
2222 4297 0
-2037 -3528 0
2292 -4545 0
3406 2059 0
485 2995 0
2117 -1328 0
-2268 475 0
1748 -3871 0
1069 3582 0
3138 -2101 0
2365 3196 0
-996 2603 0
2987 2528 0
3033 -2062 0
885 -2846 0
-4211 1794 0
-3651 -4250 0
-3265 2461 0
4616 -256 0
3419 1781 0
-2941 2778 0
1482 -2955 0
-379 -3469 0
2126 2511 0
3632 2939 0
837 3218 0
1138 3736 0
1926 -2296 0
-1009 -541 0
919 1275 0
-177 -2810 0
1294 -1466 0
-1797 -2403 0
3252 -365 0
1828 -1905 0
-1589 -2609 0
2081 -61 0
-1041 -2191 0
-3021 -1320 0
-150 -2744 0
4608 3528 0
2588 3412 0
3406 -3869 0
887 2992 0
4222 1188 0
-431 -17 0
4017 2998 0
-4399 125 0
-1896 -3960 0
2733 1040 0
3161 -1114 0
33 -151 0
1200 -4158 0
548 -4319 0
2339 -4335 0
919 -1479 0
-1779 -3223 0
117 2903 0
-356 -3262 0
-1947 2973 0
2033 -4153 0
4163 -1367 0
-2208 4332 0
-2069 -3745 0
4350 1255 0
71 3772 0
104 742 0
-69 -2954 0
-43 -3553 0
-2995 881 0
-167 2761 0
-3320 1430 0
-2103 -387 0
-1562 2667 0
-3082 2644 0
-1435 -3228 0
-1451 4115 0
-1461 2530 0
3156 2734 0
1006 2022 0
-1486 4345 0
-2284 -2319 0
-823 2533 0
3574 1301 0
2755 3958 0
-3347 1644 0
-1311 -2166 0
-3722 4294 0
1720 -398 0
-4136 -2991 0
-103 -2591 0
2238 -4593 0
1111 -3230 0
3749 -2407 0
878 3242 0
1962 3981 0
-3600 1286 0
-3480 3794 0
2173 -887 0
894 -1987 0
1113 -2287 0
4308 -882 0
-1665 703 0
-3241 -3499 0
-19 680 0
-2706 1303 0
-70 -3994 0
-34 -2406 0
1496 1588 0
-2324 -1261 0
-3752 -3422 0
2859 3967 0
-399 384 0
3958 3591 0
-3585 1327 0
1391 -3141 0
-526 1468 0
-3180 -2397 0
-1185 -4190 0
-2532 -2178 0
1762 3090 0
2216 3644 0
4482 -664 0
3548 865 0
-2882 2490 0
-1135 -679 0
742 -3539 0
-2334 -3947 0
-2050 -2209 0
756 1826 0
2562 2562 0
432 4121 0
-1419 -3533 0
-2651 834 0
4428 3352 0
-1809 -2391 0
-3739 3711 0
1972 4418 0
-4466 -267 0
1200 134 0
83 3797 0
1645 1955 0
-3547 -3407 0
3466 -2329 0
-623 -858 0
2981 -2822 0
-1583 2106 0
-342 1438 0
3631 -1538 0
1880 -2337 0
3584 543 0
-1215 3992 0
520 -1121 0
3300 769 0
1719 1148 0
-2544 -2225 0
3338 2402 0
2195 -2864 0
711 3185 0
-2383 3329 0
4254 -2833 0
-3449 -1821 0
-1715 2915 0
-1112 -4281 0
-1415 -2569 0
-1245 -1861 0
2531 2951 0
2485 -2107 0
-58 1142 0
3665 157 0
-2497 1264 0
583 -2134 0
2166 -4155 0
3555 1471 0
-2462 2639 0
3281 -3657 0
-2162 -611 0
2238 1741 0
3959 -1580 0
-4244 3225 0
-1594 1808 0
-2630 933 0
-508 739 0
-2310 732 0
4428 1734 0
1536 3212 0
656 -288 0
-2829 6 0
-2165 -2315 0
-2138 1769 0
-2598 454 0
-2549 4434 0
-1451 -3219 0
-2358 1578 0
-548 -2249 0
1738 201 0
-3474 -1578 0
-4078 879 0
1546 311 0
673 -230 0
787 -1060 0
-3723 3910 0
2596 -4491 0
3559 575 0
-1758 -2312 0
-154 -1271 0
3422 -244 0
1235 3229 0
-907 -2321 0
-1870 4253 0
1477 -1828 0
-2459 873 0
761 -592 0
3222 -3005 0
-3009 1940 0
885 2491 0
-2887 3807 0
3943 2897 0
-2908 -3629 0
951 2110 0
1788 457 0
-4171 905 0
4487 2597 0
-2056 -1606 0
4039 122 0
-63 2408 0
3502 4271 0
898 3684 0
-1703 4190 0
3119 -2630 0
445 -1497 0
-586 938 0
3025 -87 0
-1244 -3761 0
741 -4172 0
3453 -3872 0
-44 -1355 0
3662 2160 0
1607 2101 0
-1604 -775 0
2546 -4617 0
4148 3369 0
-2656 -545 0
-3597 3647 0
-2248 4473 0
3912 1964 0
-603 -1348 0
3990 -3779 0
1980 -23 0
-638 -492 0
3040 3671 0
-3974 -1511 0
-3494 -523 0
2698 750 0
2964 -38 0
1264 -141 0
-1837 2026 0
4527 583 0
652 3051 0
1378 848 0
2939 3899 0
-1715 3589 0
-1044 -4518 0
257 -1331 0
1752 1615 0
1657 3798 0
2368 -2585 0
684 -3319 0
-3244 1790 0
1567 -2335 0
-2358 2838 0
2813 831 0
-3328 3738 0
621 -3235 0
-123 4227 0
-2277 3506 0
3948 -529 0
447 -1395 0
1110 -2715 0
-738 -1629 0
-2377 -3964 0
-2736 -3874 0
-2270 -3481 0
1835 684 0
-2013 4052 0
2366 1985 0
-838 17 0
980 -4025 0
-1544 -2785 0
1785 -3134 0
-307 -308 0
-2677 -2060 0
2859 4384 0
-3096 3189 0
1863 1140 0
2299 -851 0
-619 4119 0
-688 1300 0
-3680 1839 0
-2480 2066 0
3733 604 0
-1147 1221 0
-2921 -1684 0
-1300 3536 0
-3816 1040 0
-670 -1931 0
-4569 -3776 0
1241 -1075 0
1064 2241 0
316 -29 0
426 -1465 0
2961 -3610 0
-1447 119 0
-1461 -3100 0
1751 740 0
-1092 970 0
-3295 -691 0
-4107 -459 0
2046 -3411 0
1882 3650 0
-3211 -1718 0
-2105 372 0
-567 -1684 0
-2901 4373 0
-4478 3202 0
-2013 487 0
-3882 -2665 0
-1059 -1621 0
2144 3361 0
-1539 4493 0
-1941 4305 0
-1266 -2695 0
790 1048 0
-1287 3097 0
-4036 -3829 0
880 -772 0
-3773 -2322 0
-1314 -3545 0
1647 -1929 0
-3349 -4114 0
-1917 2114 0
-4499 2950 0
1306 2835 0
-226 -2329 0
-2801 -2322 0
-3379 2912 0
-1311 3869 0
-4192 601 0
-4426 2437 0
3899 1853 0
4034 -2730 0
2227 -1819 0
3507 -4082 0
-2382 1366 0
2357 -3017 0
-3994 1523 0
2644 -312 0
2638 2036 0
4534 -1421 0
3922 -2677 0
1208 1841 0
-1908 4361 0
608 -738 0
2089 -4124 0
4575 -1005 0
2246 -3657 0
2117 3170 0
-3665 3709 0
572 3334 0
-526 -488 0
-3168 2465 0
-1008 -4426 0
1000 415 0
-2845 -3479 0
-1925 2024 0
796 3796 0
202 3570 0
-967 -1370 0
-272 -417 0
-1512 -3080 0
-3187 706 0
-1504 1859 0
-2288 -309 0
-4155 2021 0
-2526 522 0
-3139 2404 0
4589 -119 0
310 4507 0
1001 677 0
590 3127 0
-2554 -3442 0
-121 -115 0
-300 4425 0
-100 2517 0
-2814 3177 0
4063 -902 0
-2450 4057 0
-1961 -639 0
-4239 -2221 0
936 -2486 0
3664 -1828 0
-1157 4063 0
2679 -2771 0
-4383 -2607 0
1089 -3189 0
-2925 2441 0
3968 -4500 0
-4017 3501 0
2168 -1932 0
-3062 -4087 0
2021 -3240 0
-3344 1501 0
4034 -1993 0
-1004 3606 0
783 -2344 0
-1563 -3621 0
-3865 1513 0
596 -3673 0
-2202 -4116 0
-3926 -4183 0
-2631 481 0
2058 909 0
-2409 3288 0
-3702 -983 0
-1987 1773 0
-2301 4184 0
4078 1952 0
-1179 3823 0
-4003 4219 0
-94 2803 0
-49 -4296 0
-3155 -1318 0
2593 -3499 0
3321 1717 0
-3508 -1875 0
1631 1179 0
3489 3896 0
-1765 2539 0
-1752 2626 0
1361 -951 0
-304 -3927 0
258 4017 0
1295 2889 0
3980 60 0
-4228 -20 0
81 1535 0
-456 1422 0
-611 -2003 0
4084 2076 0
-1526 1048 0
-3950 -4233 0
1787 134 0
-3225 1833 0
1083 -546 0
-508 -4029 0
-2798 2468 0
-2668 -552 0
2638 -1608 0
3909 -592 0
-3780 -3679 0
-3193 -3295 0
-4 -2550 0
-3081 -3654 0
1804 -3128 0
194 1842 0
-458 4334 0
1628 -1715 0
2794 -581 0
-3106 4256 0
-2371 196 0
3879 361 0
3161 -1505 0
-4 -4596 0
-3534 1279 0
-2114 2820 0
-1204 -383 0
-2431 227 0
-2611 -1890 0
-2028 -4247 0
-1278 -1902 0
1830 2871 0
-2803 2065 0
-4276 3792 0
2573 2562 0
-600 -401 0
989 3306 0
857 -3866 0
-1407 -3488 0
-987 -4025 0
-2893 3153 0
-717 478 0
-3007 -1112 0
820 2589 0
-1255 -547 0
-1526 -2763 0
3581 1480 0
4205 3339 0
-1333 2548 0
-1096 -1612 0
4071 2159 0
1637 1972 0
409 -3942 0
2438 -33 0
4274 2542 0
-2304 2708 0
3438 -1302 0
-3712 4176 0
2553 -938 0
-1406 -1534 0
979 -3712 0
-4359 -3130 0
241 -4009 0
56 -2659 0
-1714 -4347 0
-864 3267 0
4172 -537 0
-1092 1602 0
1287 -3703 0
4020 4474 0
4397 1165 0
2257 3223 0
-3315 4559 0
3040 3421 0
4063 2673 0
794 4594 0
-1653 -4331 0
2755 -3569 0
-3942 2374 0
-4159 1507 0
-3221 -345 0
-1223 4038 0
-1655 -886 0
-4213 835 0
1985 2868 0
-4060 -1666 0
3369 133 0
-2613 -1688 0
-4155 3312 0
-2850 -243 0
878 3099 0
4082 -3423 0
-2826 926 0
-1390 -112 0
-4465 684 0
3788 -2982 0
-3636 593 0
4065 3347 0
3208 2745 0
3425 2856 0
-3798 3975 0
-3178 -4140 0
2745 1981 0
-148 -4564 0
2882 4162 0
2915 -2284 0
-1083 -4515 0
-250 -207 0
-3872 -2878 0
131 4279 0
-2720 2857 0
4548 -3753 0
3872 -1216 0
-2761 233 0
341 -1194 0
-300 4493 0
1748 441 0
1519 1948 0
-3364 3149 0
-1762 3420 0
-1724 1936 0
4624 1697 0
4407 -2142 0
1996 3317 0
2942 1633 0
219 -1973 0
3041 3323 0
-4210 -3498 0
1674 -978 0
-3055 263 0
2218 85 0
-1004 -3151 0
3082 -3417 0
3798 697 0
-1543 2350 0
3443 1148 0
88 -1101 0
3872 1128 0
2711 1692 0
1965 -2816 0
-3898 -3841 0
1676 -1214 0
897 739 0
478 -554 0
2447 269 0
4476 -1379 0
-3873 4086 0
-394 1280 0
-4460 -1311 0
4261 -660 0
-2853 -3220 0
-954 -1595 0
-3519 4441 0
-1344 -76 0
-1922 -404 0
3971 1972 0
3830 3417 0
-2136 -968 0
-4051 -559 0
2438 696 0
384 -26 0
3650 39 0
462 -300 0
3728 -3712 0
-450 -2957 0
418 -1762 0
2876 -1250 0
949 1872 0
2348 1983 0
-2948 -714 0
-2169 4120 0
1218 -3938 0
1027 -3903 0
2769 3498 0
-2612 -781 0
-2526 888 0
3391 3505 0
-301 1055 0
2325 187 0
4503 3639 0
-2200 -1600 0
-1136 408 0
-3588 -1601 0
2760 -2313 0
-40 -936 0
4021 -1250 0
596 3990 0
-4174 -2150 0
-1946 -2417 0
-2883 -1334 0
875 -4359 0
1710 -1411 0
-1987 -1257 0
4257 1909 0
-3503 3172 0
1457 1132 0
-3379 -999 0
-699 1127 0
2309 1988 0
-4004 -98 0
-4068 -562 0
4199 1033 0
2780 -805 0
3522 3323 0
1429 -100 0
3491 1913 0
862 3697 0
1840 -920 0
2678 184 0
4361 -4312 0
974 1418 0
-2639 -3047 0
1281 2641 0
2719 -4150 0
-3767 4380 0
561 -4187 0
-1094 3635 0
-1778 3201 0
-484 2968 0
1774 -1771 0
3609 2955 0
-533 -4310 0
-2885 -2973 0
-2192 3755 0
3122 -3897 0
3339 3494 0
-1388 -3890 0
2399 -524 0
82 155 0
1337 -1819 0
-3018 2890 0
1908 372 0
-3871 -1251 0
-1859 -4499 0
4401 -2172 0
2402 -3547 0
3229 -487 0
-4590 -911 0
-3252 -2554 0
-4388 -3806 0
3066 3851 0
-267 2605 0
-1661 -3356 0
-2191 -962 0
186 -2711 0
-1107 -3984 0
-2554 -3417 0
1111 3735 0
2016 3362 0
2205 1800 0
2759 -1544 0
1060 1560 0
-308 2020 0
-2366 -1271 0
-4487 4467 0
2873 1054 0
804 -3971 0
-4617 -4097 0
168 1716 0
-1187 -3983 0
4112 -2813 0
-1649 -3290 0
525 -3710 0
1760 -2381 0
1384 -1007 0
397 2297 0
2186 -2842 0
3881 -2639 0
-2998 194 0
1046 -3204 0
4121 4434 0
311 -4330 0
1919 1591 0
-2060 4413 0
-3793 1505 0
4123 -4337 0
4361 944 0
-3766 -4395 0
-1684 432 0
3710 1600 0
-3580 -392 0
88 1904 0
2794 223 0
-3163 -2579 0
3578 -541 0
-1629 2708 0
2718 2242 0
-562 3251 0
-2345 543 0
2285 917 0
-1100 1569 0
-2644 -3019 0
-209 957 0
3656 -3826 0
4211 -2216 0
3805 -1971 0
-86 -1659 0
-1112 2255 0
-3625 821 0
2920 4320 0
-1492 -1837 0
-1987 -3942 0
-1318 -1922 0
3064 1729 0
4234 -1411 0
3755 2900 0
750 -4516 0
-781 -4235 0
219 4472 0
-221 2182 0
-859 3357 0
-4507 -4575 0
-529 3163 0
1960 3747 0
1652 841 0
-2830 -3469 0
2344 3285 0
-1183 -3408 0
3507 42 0
-4550 1699 0
3649 246 0
-4268 -2973 0
-2215 4356 0
-2011 -1381 0
-3858 3444 0
-3399 2275 0
3892 -350 0
-617 4403 0
4178 -1653 0
-510 3879 0
3303 -2924 0
2498 -971 0
1893 3552 0
-3595 2528 0
1528 -2181 0
-1722 3768 0
-481 -2177 0
3949 -4043 0
1748 -1105 0
-2337 4432 0
-1918 -1856 0
2065 3274 0
-1730 -2804 0
-109 2642 0
1593 -1681 0
-3179 -3902 0
-2296 -3634 0
-1752 -2190 0
-353 -4233 0
-2168 -3484 0
-1095 1335 0
2813 4375 0
-301 -1279 0
3374 232 0
-1261 -133 0
993 -3716 0
-1797 -1977 0
-3690 -463 0
3194 2981 0
4467 4468 0
3065 1636 0
863 1069 0
-2708 -1992 0
-4040 96 0
-428 1741 0
6 3631 0
-2284 2586 0
3924 -84 0
549 104 0
3323 -3385 0
-4255 3509 0
-3230 2224 0
-4185 2663 0
4044 -2267 0
-4471 292 0
-3520 -2176 0
123 104 0
2830 3064 0
-1328 -1849 0
-1435 -684 0
-276 2191 0
1166 2246 0
2165 3369 0
-2594 2259 0
-4029 4229 0
259 -454 0
3002 616 0
-3502 1212 0
418 -3401 0
862 2453 0
-2917 2058 0
-1238 2234 0
4271 -1548 0
1736 4193 0
2626 -90 0
4487 -2099 0
1119 1833 0
-1640 -2291 0
-3007 -3281 0
-992 -2130 0
-591 223 0
-1024 2922 0
2516 -2413 0
-1295 627 0
-4620 395 0
3782 1117 0
-180 -4259 0
-2843 471 0
-2508 1039 0
-3493 -3294 0
-2535 3273 0
3002 -4082 0
-1919 2171 0
1371 2203 0
-743 3900 0
-2579 323 0
3671 2002 0
-3478 -31 0
-2082 235 0
-3187 -2566 0
1617 2262 0
1050 259 0
-906 3800 0
-1372 -3057 0
-533 4239 0
2631 4358 0
-4409 2890 0
4169 979 0
-1782 1840 0
1562 766 0
173 -1178 0
3411 367 0
-1192 -3679 0
729 1469 0
1288 2548 0
4581 3917 0
3359 -3657 0
-2377 -1005 0
1309 -1378 0
1257 970 0
543 2364 0
-1881 364 0
1032 1645 0
1923 -2893 0
989 -3517 0
3448 -3748 0
1572 -4482 0
2860 756 0
2704 3222 0
1058 -2738 0
-4020 -1838 0
-873 -3662 0
-256 4152 0
1359 1306 0
-1898 1984 0
-2319 4137 0
-4145 -738 0
4528 4183 0
-1024 -2229 0
4380 -4217 0
-3077 706 0
266 3639 0
-1603 -1523 0
336 -2549 0
59 -1324 0
375 -4160 0
2188 3948 0
-3250 -167 0
-2291 331 0
-1449 2113 0
-1449 -1433 0
240 -1217 0
3518 -3187 0
322 -2524 0
-2351 582 0
-825 1693 0
1525 1407 0
4016 -1600 0
3524 3129 0
4271 -1155 0
2634 896 0
-4593 -1520 0
889 -4454 0
261 2172 0
-1599 -1401 0
-2741 2769 0
-2552 -2640 0
-823 -2711 0
-3551 4092 0
767 4244 0
-18 1482 0
-3366 -3354 0
-2461 3441 0
-4430 -2988 0
-1137 -603 0
-3488 -3420 0
-1754 587 0
331 2408 0
4397 3322 0
-1742 4413 0
1700 -3062 0
-843 4423 0
1807 3270 0
-922 -1492 0
-2735 2379 0
238 -966 0
-15 3518 0
386 3325 0
2209 615 0
-539 -3688 0
-2714 -2373 0
4522 1756 0
2898 -27 0
-4271 1259 0
-2659 275 0
-4518 -1711 0
3523 812 0
-3855 3377 0
-1876 -521 0
30 3162 0
1285 -2352 0
-3598 4206 0
-3513 -1053 0
4193 2627 0
1858 -922 0
1377 -4230 0
-4312 3380 0
3463 3876 0
-468 4254 0
-2287 -3586 0
1106 -4328 0
876 -2787 0
2922 2105 0
-2917 -2353 0
3348 -2530 0
-3280 3253 0
-2609 1987 0
3178 -2413 0
2054 -1863 0
-1611 -626 0
-237 -2370 0
4625 367 0
1572 2449 0
2090 1746 0
-4451 -1019 0
-2298 806 0
3575 3752 0
2491 3312 0
-47 -401 0
-3642 -1623 0
3326 4266 0
1720 3392 0
-984 2967 0
-4191 -28 0
-153 1964 0
2984 -3021 0
2923 -538 0
1628 437 0
-1679 -4063 0
-1311 -4301 0
-2614 -98 0
-1181 4378 0
-277 2393 0
-4554 1813 0
1027 -4507 0
1397 -1977 0
4184 -1098 0
165 1873 0
3663 -4506 0
-2601 -903 0
-1739 -2208 0
4136 2728 0
-4428 1513 0
-3689 3049 0
26 -966 0
-4008 -1255 0
-4157 -3072 0
-4159 -1408 0
-4436 4299 0
-1838 -3988 0
-2908 3507 0
1958 -3649 0
2631 2713 0
4627 -738 0
-3241 4126 0
4099 -2314 0
-4363 -1405 0
448 -4329 0
-2553 384 0
4094 2521 0
3676 -1481 0
2059 -1141 0
-1925 3676 0
-447 4603 0
1008 4514 0
224 2253 0
-1534 2400 0
-422 -3752 0
1587 967 0
-325 -3031 0
3450 -1021 0
-3087 3555 0
-1963 -3481 0
2682 -4182 0
1170 -4122 0
3456 -3061 0
-1524 2227 0
2451 -379 0
4356 -3783 0
2455 -488 0
4248 3658 0
-120 -4178 0
-1604 2269 0
-3130 -1824 0
1676 -4281 0
-1394 -1715 0
817 -3134 0
2636 4227 0
3904 -1815 0
1944 1859 0
-3143 1912 0
-3690 3856 0
1426 2420 0
-2503 4299 0
-1635 -981 0
-887 3809 0
1918 2795 0
1772 2182 0
-355 4120 0
2675 1845 0
-2730 4303 0
2505 -70 0
-780 -4575 0
-4393 891 0
-4281 403 0
1550 -4461 0
-2378 2113 0
3210 208 0
-3622 746 0
3879 4009 0
-418 -1025 0
-4364 105 0
30 -350 0
-993 -2647 0
348 58 0
-2456 1123 0
2507 -1963 0
-3824 -2526 0
-2852 -562 0
-2782 -678 0
-3828 -2852 0
-3457 515 0
2183 -3398 0
-3026 638 0
-4358 3588 0
-4170 -2029 0
-8 4352 0
3348 2621 0
-4035 -140 0
-2692 -3547 0
-1915 3989 0
-1516 2867 0
4104 2127 0
895 1465 0
1195 -1252 0
4520 -1108 0
-491 -2233 0
-4150 1227 0
-3449 -2841 0
1195 3820 0
-2027 -507 0
3951 -569 0
2829 -1724 0
-3551 1622 0
-1099 -411 0
1030 -1206 0
2797 -14 0
850 -1636 0
-270 -66 0
2369 -788 0
-1806 -738 0
4034 -2166 0
4082 -1582 0
2281 3409 0
3467 -2804 0
-3977 755 0
4067 -1298 0
-4239 -446 0
-4607 4120 0
-3044 226 0
-2554 -3082 0
-2170 -2841 0
-3062 -3706 0
2048 -588 0
-785 -711 0
2803 -2204 0
-3287 -1715 0
-1079 4260 0
656 3296 0
-3790 4457 0
986 -1829 0
2188 -2405 0
1705 302 0
3795 3514 0
1640 -1001 0
-3617 -4005 0
2222 -4611 0
-3747 1920 0
755 -1002 0
-657 3550 0
249 -1931 0
-1097 2623 0
-532 -455 0
3710 1117 0
3203 4275 0
1469 -3820 0
3544 -2770 0
-2528 -29 0
135 3863 0
556 -2361 0
1180 3010 0
1033 4339 0
-2576 -3604 0
-554 4615 0
-1355 3025 0
-1301 4165 0
-3954 -2752 0
-2345 -3475 0
-3141 -590 0
-1923 1550 0
4283 3806 0
4313 -2323 0
-2377 -1490 0
4244 -2321 0
1707 -2185 0
3718 -2579 0
2531 2592 0
634 -2269 0
-3998 1838 0
-1035 873 0
2440 -15 0
773 -1798 0
-3195 -2711 0
-1337 -1761 0
1990 3763 0
-4409 -2729 0
-1857 -1870 0
2172 -37 0
382 -1894 0
-2642 -4122 0
-2254 -4221 0
957 2001 0
1591 -1140 0
-2066 473 0
3066 2295 0
-1513 -4247 0
3445 784 0
3884 657 0
395 1169 0
-209 369 0
-1314 2381 0
-25 1235 0
1819 -3284 0
4501 454 0
807 -286 0
-2459 3010 0
-3199 -27 0
-77 -1511 0
-3999 331 0
1496 340 0
-4307 -2887 0
474 -2855 0
1201 4415 0
247 2911 0
-1704 -2374 0
3081 4091 0
2242 3541 0
4023 1207 0
3742 4566 0
-619 4624 0
2441 1652 0
-4205 -2337 0
-4171 -2714 0
2180 -337 0
-2330 1460 0
1132 -1290 0
-1992 -2048 0
4450 -1905 0
2644 2375 0
2803 1128 0
842 2974 0
-4419 -4346 0
-3812 4217 0
-2501 -3854 0
3656 -3565 0
-4205 -3469 0
-301 274 0
2639 -2577 0
3352 929 0
2422 3669 0
1351 -3749 0
3444 2189 0
2527 -154 0
-3605 2285 0
-1902 3476 0
934 -3125 0
-717 293 0
1692 -891 0
2567 3811 0
2223 -595 0
-2340 -824 0
4044 -1855 0
1419 3261 0
747 -3828 0
-250 2387 0
-1803 -3807 0
2611 -4432 0
-3867 1734 0
-869 -3936 0
3465 -3164 0
-2902 -1457 0
2912 1210 0
2375 760 0
-234 -2151 0
-1425 3566 0
2525 1021 0
1514 -2012 0
3520 1696 0
-1242 -2605 0
-1040 -3603 0
2106 -3352 0
-41 -2434 0
794 3864 0
4320 2022 0
2712 289 0
3856 3351 0
-336 -1724 0
-2777 -3102 0
-948 -352 0
-533 -88 0
-1005 1736 0
3386 -2722 0
-3112 -4159 0
-2883 -2556 0
4389 2288 0
-2935 -2804 0
-2028 2731 0
1554 3420 0
901 1956 0
4463 3993 0
-3221 -3858 0
1585 -4118 0
1993 -3757 0
2516 2743 0
-2160 586 0
573 -271 0
745 2034 0
-2655 1350 0
-1938 4518 0
2522 -2027 0
-4039 247 0
1838 3111 0
4351 -3047 0
-53 -2262 0
-4094 -4598 0
3833 -3352 0
4252 3727 0
2391 -1020 0
3925 -1769 0
1143 -537 0
-3297 -1005 0
2002 -3821 0
2216 2961 0
-2212 -1038 0
-820 3166 0
-2287 -3129 0
-1559 -4003 0
-3974 -2068 0
2332 -671 0
1862 3373 0
222 -968 0
-1417 2540 0
-630 -4362 0
555 1202 0
-3660 3612 0
-1189 -3217 0
1035 -3209 0
-462 2864 0
1201 3400 0
2292 -3084 0
2591 -3144 0
-2749 949 0
3336 452 0
4100 -3774 0
3817 -411 0
1127 -3352 0
-2575 -3861 0
520 -1504 0
-3621 257 0
-635 4332 0
-4524 1988 0
3300 -3723 0
455 -3378 0
-2456 2402 0
3695 -799 0
4193 -777 0
-1327 3685 0
631 852 0
-3215 803 0
-294 495 0
1158 -4527 0
814 2010 0
1774 -4577 0
2315 -702 0
4211 -1004 0
2003 -4540 0
-3802 441 0
2231 58 0
3629 4101 0
421 -833 0
-339 -4078 0
-1152 -1373 0
2844 -1879 0
538 -2059 0
2842 3751 0
-293 998 0
-3854 -4372 0
2708 -1564 0
-1635 4194 0
3831 -1951 0
3120 -1197 0
-2232 -3173 0
-3562 2402 0
-3904 1597 0
-3219 -545 0
4544 -641 0
1930 1940 0
1641 66 0
1219 2351 0
1889 2956 0
-1111 937 0
1535 1819 0
3634 2518 0
956 -3819 0
4088 83 0
1271 3851 0
-404 1709 0
-2301 -939 0
1608 4415 0
-214 -14 0
447 564 0
-4037 2731 0
4067 4072 0
-723 -2743 0
-1100 -4271 0
849 -248 0
2651 2390 0
1432 -3430 0
-351 -3104 0
-996 -4046 0
-2286 1958 0
-1418 2215 0
358 1433 0
-1226 1114 0
3429 -3471 0
-89 4572 0
2876 -4318 0
-3313 -1611 0
-4616 258 0
2059 88 0
-1833 3795 0
-1940 2937 0
3365 3239 0
-381 -897 0
2786 3803 0
2474 2570 0
1166 -3608 0
-1571 591 0
809 1101 0
2381 4401 0
2898 2860 0
3578 -687 0
1772 2190 0
2030 -750 0
-4598 -4467 0
2691 1293 0
-2884 2496 0
3844 2001 0
-2803 -1684 0
-3853 -2229 0
-298 -1956 0
399 2200 0
1977 3251 0
-954 -4617 0
1665 901 0
-1750 -1256 0
-1525 -4479 0
4118 -4315 0
3599 3515 0
3468 -1422 0
670 2528 0
1137 3575 0
-3055 1894 0
-4630 -2345 0
705 -3404 0
1413 3242 0
-4154 202 0
-3900 -2467 0
2241 -4032 0
1759 2584 0
3432 -4427 0
1756 2819 0
1746 -1634 0
2215 -2588 0
179 2333 0
-1724 2196 0
-378 1911 0
-14 4608 0
-359 -1252 0
1360 3292 0
3138 -2026 0
-3685 -4360 0
988 -1183 0
-2997 -2113 0
1305 1230 0
-1126 -4372 0
-3555 -3305 0
3039 -2405 0
-2234 708 0
-1162 148 0
1972 1228 0
528 520 0
-1647 -64 0
4364 -980 0
-1757 1399 0
4457 -1701 0
874 -4556 0
-503 2926 0
-2366 1374 0
-1622 -3813 0
-3564 -1461 0
3209 -1203 0
-1714 3307 0
-3140 -912 0
-2999 665 0
2283 -1937 0
2615 -1995 0
-1225 -2870 0
3748 -639 0
-3435 330 0
3534 919 0
-3385 -373 0
2105 672 0
1263 2443 0
-437 -2772 0
-482 1135 0
-1254 2242 0
4001 316 0
-3616 3594 0
-1105 -1346 0
2625 313 0
-2311 -2537 0
831 653 0
-668 -226 0
-2039 722 0
28 384 0
-4428 3374 0
-1345 4459 0
797 -2408 0
-3251 -1626 0
3786 1499 0
-2784 111 0
-414 -1286 0
-3687 -769 0
4581 -2880 0
3544 296 0
-73 -3235 0
3504 4441 0
-4478 -281 0
619 -3181 0
3030 -1567 0
-4545 -2642 0
-1199 -1115 0
-3755 919 0
2739 3363 0
-2783 2448 0
-370 3474 0
-2921 2759 0
2570 -3548 0
1959 391 0
-1777 -922 0
17 -2367 0
-2962 2292 0
165 -4184 0
-1739 -399 0
-790 4120 0
-43 -1289 0
4059 -1370 0
-1493 -1173 0
-2624 3147 0
-3269 4323 0
-1777 -4537 0
-55 -2049 0
-3936 3409 0
-4009 2047 0
-1967 -4372 0
2261 -1089 0
-3631 -2391 0
4350 -1254 0
4469 2064 0
621 -2940 0
2438 -39 0
-279 2418 0
-2261 -318 0
4062 150 0
2293 3363 0
-2394 -4311 0
-4164 -355 0
3650 -3122 0
-2719 23 0
-2363 -546 0
2351 -2612 0
1783 878 0
3989 2179 0
-4482 60 0
1962 3705 0
1743 3856 0
2568 2189 0
-2663 3625 0
3605 1009 0
4223 -1735 0
3561 -3805 0
1827 1311 0
-4272 -1870 0
1358 3682 0
1833 2542 0
-2699 2066 0
-3280 3642 0
2622 -2170 0
-3646 -440 0
-3963 -4376 0
-1617 -3821 0
2465 -536 0
-3748 1754 0
-3111 4319 0
3534 -2158 0
3266 -4312 0
-4519 -1027 0
-2444 2974 0
-4511 -2638 0
-865 372 0
-3143 -3906 0
1881 156 0
-3936 -4221 0
-2406 -133 0
3888 -190 0
-3287 -3260 0
-1369 2730 0
-4046 1549 0
-2105 1796 0
-1343 -971 0
-1336 3941 0
-3128 1927 0
-300 -3178 0
2565 3540 0
3191 -1319 0
-3852 -2703 0
2850 1108 0
4077 -4235 0
2021 1902 0
2437 -797 0
2451 1853 0
4398 2121 0
-872 2688 0
-1118 -1344 0
699 -3382 0
3818 689 0
2757 -3105 0
-3944 -3213 0
2676 1379 0
4009 -4356 0
2140 -4183 0
-2411 -4198 0
-4392 2298 0
727 464 0
4136 2547 0
-2997 -3492 0
-779 -3231 0
2304 3693 0
-3293 -665 0
2375 -1847 0
-591 4419 0
-1789 -2870 0
-24 311 0
-2428 1944 0
-1703 -3184 0
-3845 -19 0
-63 4130 0
4469 -2225 0
2602 -523 0
665 -2381 0
-3743 1330 0
-2846 4214 0
-4048 4364 0
3862 1914 0
-50 2726 0
4549 -166 0
954 4126 0
-4 3440 0
1959 -662 0
4085 1169 0
-28 -500 0
-2672 37 0
3912 -1153 0
3336 2055 0
4539 -2249 0
-1855 -1647 0
-1771 1738 0
253 346 0
4070 498 0
-2253 -832 0
-3977 4148 0
2563 -2432 0
-1878 4135 0
-1282 765 0
-2695 -2936 0
2681 973 0
-1655 -4101 0
2753 -1516 0
4128 2879 0
3326 -3692 0
-1217 -1981 0
-376 -358 0
-4035 -945 0
-2568 -3454 0
2622 2767 0
-2056 -1834 0
-2227 -3012 0
-1212 391 0
593 1067 0
-435 4265 0
2632 -4451 0
-1543 -986 0
1941 -1901 0
1528 -2151 0
-3703 -689 0
1442 202 0
-679 2259 0
-3694 1306 0
3602 -4233 0
-205 712 0
2972 -4078 0
-2493 1055 0
305 2615 0
2504 -3318 0
2867 2708 0
4128 1993 0
-131 1959 0
640 104 0
-2943 2124 0
-3829 1245 0
1460 -2411 0
-1574 -3645 0
2211 2112 0
-1990 3622 0
3954 187 0
3260 -151 0
-2210 -3483 0
-3101 -3974 0
2641 3074 0
673 -3596 0
677 -2313 0
3884 -4407 0
-2707 -1960 0
-2787 69 0
-2405 -1122 0
291 2472 0
-3768 -1454 0
-2981 -3959 0
-1920 3204 0
3589 -879 0
-229 3196 0
-3489 -3486 0
-902 -1243 0
4081 -601 0
3324 4573 0
310 1500 0
-1548 -2583 0
-800 4000 0
-3384 -2909 0
-4101 -1810 0
-2377 2057 0
3657 -4345 0
-4524 -4629 0
-1731 1414 0
-2326 1371 0
-3367 3620 0
558 1469 0
-412 -1032 0
1200 3177 0
494 593 0
2257 3416 0
4472 -822 0
2693 281 0
3699 -3734 0
-3497 4174 0
3906 -1141 0
-2151 888 0
-4270 3731 0
-3957 2234 0
-1149 2611 0
666 -700 0
2993 -3705 0
28 4272 0
3108 -4426 0
481 -4170 0
-1284 -3956 0
756 -4106 0
-4419 -237 0
-4168 -2665 0
-68 -1486 0
-3626 2617 0
-3035 2736 0
1039 -2578 0
2591 -239 0
65 -3810 0
2356 2570 0
1236 -2704 0
-3041 1476 0
-2952 1967 0
251 3723 0
4099 -2713 0
1806 607 0
-2961 -2885 0
4252 -2182 0
897 791 0
3116 1265 0
4573 -1970 0
-1046 -1836 0
-4134 2668 0
-2729 460 0
-3179 2980 0
283 -57 0
1809 731 0
2766 -3183 0
2235 -3486 0
-4425 -15 0
-461 -126 0
1760 312 0
-2997 2512 0
3979 1723 0
4286 -4411 0
3401 1787 0
-1836 -4173 0
-595 4424 0
3798 -2091 0
-215 329 0
265 -4589 0
4157 1895 0
-3222 2305 0
-4603 3643 0
623 4562 0
-60 -3027 0
-1381 -3773 0
-1396 842 0
3922 -828 0
-1568 -183 0
-3775 1052 0
-1025 -3677 0
3079 -1721 0
3712 2270 0
-2466 -744 0
-2834 -145 0
-2094 55 0
1857 -2451 0
1639 1464 0
-3694 865 0
4082 -664 0
-347 -4383 0
4356 3243 0
-671 -2898 0
-702 -954 0
2912 -4624 0
-2926 1320 0
-633 -4197 0
1848 161 0
3982 169 0
-4264 3208 0
-788 274 0
3323 414 0
-2426 -2804 0
-764 -2537 0
2099 -2353 0
-736 -610 0
2955 4322 0
-2685 -797 0
-431 1862 0
4094 3216 0
-525 2546 0
-1465 -4338 0
-492 -3829 0
2218 -3011 0
-3494 2231 0
3647 -1990 0
-1420 -294 0
3288 -4352 0
2719 -4158 0
-2614 -2861 0
3266 -831 0
1918 -3148 0
-4065 2268 0
1465 1107 0
-249 -1513 0
405 -576 0
-669 2084 0
-4053 2653 0
2326 -2998 0
4264 1668 0
405 718 0
3882 2955 0
896 2198 0
-2281 3978 0
785 445 0
1145 1189 0
-3788 -637 0
-2590 -2627 0
603 -1186 0
3542 4073 0
-2630 -4253 0
-3265 -3516 0
-2520 -1999 0
1224 830 0
3437 626 0
3785 -1485 0
-2887 -4236 0
-1739 2779 0
-4380 4283 0
3393 -1173 0
1796 -3186 0
3987 -2133 0
-2874 -2981 0
-657 1496 0
-4487 -3128 0
3731 -2513 0
-1919 -4040 0
4156 -1475 0
598 595 0
2432 -2203 0
1429 1433 0
-2566 -2777 0
1466 -185 0
2589 286 0
284 -1579 0
3142 157 0
-3004 -3765 0
-4261 -2543 0
-1626 4462 0
1000 -2040 0
-2580 -4030 0
-2959 -1458 0
3796 3724 0
1504 -1012 0
691 3776 0
-2173 -3717 0
1693 -3346 0
-3603 3860 0
-3846 2187 0
-980 -3635 0
-2401 608 0
4456 2688 0
-4323 -2509 0
1221 1590 0
-3969 3296 0
-1064 -2222 0
-2489 -4069 0
843 -3932 0
1413 3753 0
1593 3909 0
-564 -3870 0
865 3227 0
-2612 862 0
2456 3660 0
1155 -3522 0
-4089 1501 0
2852 -3830 0
-3706 -1120 0
-781 578 0
3538 -1700 0
2593 -3749 0
-2286 -1024 0
4127 2680 0
-1425 -270 0
-2470 -775 0
-587 1053 0
-437 212 0
3675 1053 0
-2091 -622 0
571 3984 0
-3879 2031 0
1488 -479 0
4188 -2516 0
-2925 2030 0
1942 1209 0
4625 -3942 0
2238 -1949 0
2048 2138 0
1001 3203 0
-3165 4285 0
4111 4584 0
122 2682 0
1490 3113 0
-1593 3246 0
-2910 171 0
-3135 4324 0
3111 -2640 0
3794 -4159 0
-3062 1411 0
1207 870 0
-4528 -727 0
2876 2574 0
-2928 3653 0
1663 -613 0
3463 -4197 0
4138 -2516 0
4034 -1373 0
-3438 -1108 0
1529 -1275 0
3431 -917 0
-1486 -3535 0
-194 -1629 0
-113 4391 0
2280 4430 0
4592 -1378 0
-696 3999 0
-1655 555 0
1235 -2277 0
-1121 329 0
2046 4044 0
-1505 4302 0
-1314 -3638 0
-4479 -1141 0
-2409 1207 0
4139 2749 0
320 -4397 0
-3258 -2026 0
340 -3742 0
2524 -3254 0
4561 4227 0
572 -52 0
3302 3074 0
3453 -907 0
596 1706 0
-736 -3057 0
2632 1665 0
-2818 2504 0
4319 -1529 0
2795 2525 0
-1540 -4104 0
-760 -577 0
-2389 -780 0
1308 -958 0
-4458 -1951 0
-2685 -4560 0
-4055 124 0
-547 -2525 0
4049 -2609 0
-3641 626 0
3030 4336 0
1073 -532 0
2870 990 0
3142 -2023 0
-3056 1185 0
-893 -4190 0
-58 2261 0
742 -4192 0
-3906 756 0
3060 3592 0
-980 927 0
2484 -1361 0
740 2451 0
-2460 3912 0
3582 4358 0
299 2453 0
4396 3304 0
-1353 1793 0
-3576 -420 0
4472 -2496 0
3506 -2436 0
-4170 3094 0
2023 -2482 0
-2458 -845 0
1740 229 0
218 -2397 0
3340 2794 0
1593 -2832 0
2586 -657 0
2316 3485 0
-1086 825 0
-574 3199 0
2006 -4497 0
-3966 -1298 0
2984 -360 0
1540 1338 0
-4467 -4080 0
1016 -2373 0
-1043 -2902 0
1290 4295 0
2981 -870 0
-1119 -1762 0
2969 2502 0
1650 -3226 0
-118 -2489 0
277 3574 0
-3680 -429 0
-3155 -179 0
-784 -2314 0
-984 3844 0
1697 478 0
-1262 2062 0
-1441 334 0
-1133 4188 0
813 -251 0
-735 100 0
138 -3012 0
898 -2324 0
1325 -3473 0
-953 3777 0
4550 -3038 0
1113 3788 0
-3297 -4391 0
-837 -1879 0
452 -2460 0
-3382 3771 0
4378 4324 0
2066 1299 0
1008 2778 0
1627 -4480 0
-1938 -2550 0
3184 -1464 0
3909 1775 0
-3094 -3665 0
2553 -3992 0
-614 -3975 0
-4247 1458 0
2289 -2254 0
4575 -3826 0
-2143 1355 0
3340 -557 0
4584 -4546 0
4228 1857 0
-512 3604 0
-907 2562 0
850 2137 0
381 -3735 0
-2637 2356 0
4008 255 0
-2650 -2231 0
-2851 2756 0
-868 3645 0
3423 745 0
1128 1489 0
-3122 99 0
-4420 -3535 0
2632 -3537 0
-1899 3233 0
-3165 -3320 0
-858 834 0
4261 -1518 0
617 2069 0
-3617 -671 0
4507 -3866 0
3491 106 0
1487 -3891 0
4218 -1536 0
-1449 4193 0
-3771 1344 0
3200 4478 0
-4301 3945 0
1572 1723 0
-3041 -4333 0
-263 -135 0
-4372 281 0
-669 1978 0
6 3787 0
4476 -1888 0
-1724 2553 0
-2636 3147 0
-1804 -658 0
-1836 3782 0
4316 4148 0
-1330 686 0
-4548 2615 0
-1930 642 0
1329 4300 0
873 -3956 0
-2196 -3058 0
2597 352 0
-1447 1589 0
-150 -1201 0
2454 2897 0
-3716 53 0
-161 -1310 0
541 3975 0
-1596 3850 0
-2527 -4473 0
-4128 580 0
-3847 -3988 0
-3564 -4030 0
-550 1717 0
-3976 -1102 0
-3314 595 0
-2799 1472 0
-3626 -2614 0
3969 947 0
-3211 -3043 0
1790 -4209 0
-1858 -747 0
-3343 -1164 0
-3053 3920 0
3212 3332 0
-1431 -1185 0
-2521 -2770 0
-2871 3347 0
1113 -1451 0
4597 538 0
3646 -3526 0
3372 1594 0
2141 -4426 0
2847 4533 0
-3726 2836 0
-1762 -4359 0
4622 -2412 0
-1879 -2230 0
4627 3270 0
3049 -2920 0
-3708 3785 0
-2401 -1680 0
-2415 -1355 0
615 2006 0
3296 2058 0
369 -345 0
-157 1073 0
-4230 -70 0
2055 25 0
-146 970 0
3632 95 0
3655 -398 0
-3191 3861 0
-4161 843 0
-833 -4422 0
-1773 -2988 0
240 4457 0
-2180 3669 0
3642 603 0
1192 -2301 0
4006 1400 0
2078 2501 0
-1548 442 0
-2148 -1846 0
67 -3061 0
3314 4152 0
1858 1070 0
-1283 3587 0
2660 -327 0
4374 2531 0
3940 396 0
3234 -2880 0
942 3672 0
1546 -363 0
-2265 -1116 0
-640 4199 0
2332 3165 0
24 -3028 0
1609 -1252 0
-1451 -3738 0
-2538 -2541 0
-1579 1077 0
-3006 -3379 0
-829 -4557 0
-2701 -2039 0
1695 2155 0
-2316 2119 0
920 819 0
632 2399 0
2590 4246 0
-2583 4038 0
-1022 -1391 0
2277 -3511 0
-2742 2251 0
-3625 -1971 0
-267 -371 0
2209 -1089 0
-3714 4203 0
1920 3407 0
-1561 -4455 0
3063 -1145 0
1935 -3668 0
-1889 -1828 0
-2448 -1958 0
3688 82 0
3543 -397 0
3344 1263 0
332 -508 0
-1515 777 0
-2173 406 0
212 1978 0
4617 412 0
1684 -2908 0
3435 4371 0
4219 -2687 0
3240 -3132 0
-1088 3380 0
-3651 3867 0
1478 3470 0
-374 10 0
-2538 2715 0
-1660 -3186 0
-3214 -3821 0
-1828 2913 0
1464 -3837 0
-386 -2273 0
3353 -1643 0
-913 450 0
-3703 -778 0
568 -1394 0
4293 3442 0
4458 -1754 0
-2206 -3377 0
3066 854 0
586 -1768 0
-3358 3470 0
3336 1121 0
3904 -628 0
-3125 -3423 0
1387 -1742 0
-1641 4397 0
482 1627 0
1741 2264 0
1316 -2681 0
-547 1530 0
-4490 349 0
1733 -3267 0
2152 -2936 0
-2338 -2507 0
4029 -3831 0
-2421 3592 0
-2800 3743 0
-4454 -59 0
-3919 -2573 0
-4377 -3193 0
1233 -180 0
4305 1961 0
-1430 4011 0
-1456 321 0
-1992 -2918 0
2156 -3742 0
1055 2860 0
-2869 168 0
-2746 -4053 0
-3841 -1068 0
1286 -4171 0
3331 -1122 0
-891 2515 0
2773 2218 0
-3309 187 0
-123 -3119 0
-1711 -1359 0
3475 -4470 0
4379 994 0
1341 1083 0
1500 -2174 0
973 973 0
-75 536 0
1702 -2018 0
3330 -2085 0
3003 -4494 0
1101 2031 0
-3958 -378 0
2497 -3655 0
3552 944 0
71 4552 0
1337 -2282 0
-3786 -1762 0
4073 4395 0
2980 -2309 0
4149 -2434 0
1380 2239 0
1856 2629 0
397 -3611 0
-1648 -4276 0
-4047 877 0
1412 -640 0
-613 -2714 0
-1999 3352 0
-1411 3582 0
1466 -488 0
-879 3586 0
-3267 1291 0
-1369 -3577 0
-2352 22 0
1017 -2043 0
-3739 -1274 0
422 -2938 0
1202 3044 0
3485 -2803 0
-4512 3875 0
-1780 -14 0
-955 2180 0
-2870 4331 0
-626 -98 0
-1778 -711 0
1312 -3005 0
4141 -4444 0
-1019 2884 0
-158 -88 0
-2082 3424 0
-1982 4234 0
3391 -3054 0
3127 -519 0
-3497 4604 0
1434 405 0
-3455 -4100 0
-1737 498 0
-1836 -458 0
763 -131 0
-4407 627 0
1007 -526 0
1525 3084 0
-2888 2141 0
-641 -3295 0
3511 -2460 0
3283 -1244 0
-432 -2861 0
3483 603 0
3175 -1973 0
-2691 -1298 0
-4037 -1196 0
3986 1347 0
-3596 2787 0
-487 -2499 0
-491 2760 0
3749 -4292 0
-826 -752 0
-118 1809 0
1670 -4586 0
-267 -1361 0
3098 1323 0
3350 -3019 0
-2735 -1749 0
-1517 355 0
3719 -906 0
-1284 -1733 0
4463 -3131 0
-3826 3803 0
985 -4471 0
3867 2460 0
-4337 4283 0
-959 903 0
1572 -1350 0
1227 -509 0
-3616 3037 0
-2796 -1174 0
-1676 4474 0
2008 -1803 0
-3238 4559 0
-4363 -1154 0
-3316 -2752 0
2362 -2288 0
2890 -1079 0
633 -1595 0
-4155 318 0
3060 4395 0
1487 -1401 0
-236 869 0
-674 3572 0
-3617 4365 0
2251 -389 0
-155 -1070 0
-1262 4587 0
4054 4537 0
-3803 -2383 0
1622 1312 0
142 -4048 0
-283 1433 0
555 156 0
734 -4415 0
-57 4161 0
2693 1226 0
-4275 795 0
716 3034 0
1257 -4317 0
1699 -4376 0
2699 4165 0
-1820 2564 0
-3317 890 0
4286 2987 0
-2974 1466 0
-3599 -3677 0
3088 3415 0
313 -1715 0
-4218 906 0
1225 1259 0
2627 -1854 0
-2685 -4022 0
-4078 1228 0
3243 -745 0
2760 -1012 0
-783 -3314 0
3395 -721 0
3839 1405 0
-1154 2798 0
3743 -2282 0
-1479 -2313 0
3025 -1784 0
1822 4043 0
3339 4496 0
4271 -1443 0
-2296 -459 0
-1439 -2253 0
2133 4253 0
-1630 -4290 0
-3508 892 0
-3003 2234 0
-4568 1665 0
-1202 -786 0
4015 -1794 0
-354 498 0
4453 969 0
4544 910 0
-1895 -1100 0
-4389 976 0
2638 -3695 0
-356 -3211 0
156 -3127 0
-3062 -1683 0
317 4357 0
-2036 -2982 0
-141 1924 0
1469 969 0
-264 -2831 0
-3498 -3015 0
-3324 -3882 0
-3390 -389 0
2930 2653 0
1767 -4593 0
1690 666 0
-3289 1913 0
2983 -3669 0
4357 1517 0
320 -1383 0
65 4131 0
-4277 -2196 0
2176 2333 0
219 -4383 0
-275 -1660 0
-2984 89 0
-3137 -1463 0
1007 -2838 0
-1677 4449 0
3451 3421 0
4386 -3351 0
4617 2374 0
-96 1640 0
2683 -1533 0
-2961 -3215 0
-477 777 0
890 -502 0
-799 -92 0
-343 -700 0
3254 -1243 0
2506 4300 0
-725 2477 0
2316 3682 0
-3031 3756 0
488 3701 0
4458 -3854 0
-659 -953 0
3787 -946 0
1720 -2027 0
2781 1970 0
-101 -3295 0
-565 -4144 0
4493 2643 0
-2503 -4289 0
613 1433 0
2753 -4598 0
3431 3451 0
-3471 168 0
-3211 4628 0
4328 -2353 0
142 4420 0
2291 -3869 0
358 4548 0
3422 1653 0
-2554 -2390 0
4182 -2062 0
-4265 -3717 0
-1194 180 0
4376 2460 0
2394 4257 0
-3068 1028 0
3406 1235 0
-1384 796 0
3034 -2655 0
4229 -3566 0
-2437 3331 0
-3557 -2437 0
2911 -2797 0
1261 4226 0
-3673 739 0
-285 501 0
-1190 974 0
-2505 -4399 0
1858 1912 0
-1196 -50 0
-1388 -3976 0
-1329 -3585 0
-3700 4079 0
-1283 -1619 0
2676 3501 0
-2845 2318 0
-2091 -4058 0
4211 -316 0
-2297 4349 0
-3469 3034 0
-3585 1344 0
1559 -864 0
4385 -2353 0
-1171 -4312 0
-316 -1146 0
-3122 4106 0
1480 -2902 0
-2635 -1261 0
3448 2190 0
1244 -1352 0
-1492 -491 0
4591 2026 0
-4202 -411 0
81 4571 0
-89 -3261 0
1995 -3046 0
-897 381 0
970 -3700 0
3018 -418 0
4179 3515 0
-3 -4276 0
-4211 4038 0
-585 3811 0
-2791 2067 0
-2985 -2652 0
-1157 -2949 0
2449 -1373 0
-2787 -2299 0
1995 -4023 0
3945 -1724 0
-1078 2306 0
-1087 988 0
1193 1993 0
-484 -4409 0
-4407 1827 0
-1962 3246 0
201 1735 0
4066 -2676 0
2926 2695 0
-2613 2500 0
-1314 -4128 0
-170 3383 0
-574 -1829 0
-3908 -2527 0
429 -3031 0
-3159 2824 0
-244 -2105 0
1413 -712 0
-894 -3005 0
-670 -1934 0
2815 -502 0
-3021 -396 0
-2947 2579 0
-4168 -4037 0
269 891 0
-2587 -2763 0
-3221 -3758 0
604 -1451 0
545 -1784 0
204 -1021 0
-1068 -420 0
3090 3108 0
-819 -482 0
-3852 352 0
-2106 1633 0
-1844 -1785 0
3612 3881 0
591 -1863 0
2477 2301 0
-158 -808 0
-3770 67 0
2073 3538 0
4208 654 0
270 3172 0
1658 2621 0
-645 -3153 0
4094 2306 0
1501 -4093 0
1878 3817 0
303 -1034 0
-1203 -4468 0
3152 -4617 0
-2262 344 0
1101 2179 0
