c bounds 111 151
p cnf 730 1387
510 242 0
678 646 0
-156 187 0
227 -179 0
552 258 0
-667 608 0
703 502 0
334 241 0
650 -677 0
-256 -19 0
-13 542 0
-619 -255 0
-343 525 0
188 -85 0
116 107 0
663 240 0
336 407 0
285 -411 0
-697 -395 0
-194 563 0
-177 258 0
669 -414 0
-670 365 0
143 72 0
115 498 0
-251 188 0
663 -622 0
-328 416 0
-111 -125 0
-534 47 0
314 368 0
602 -2 0
416 -616 0
-264 221 0
194 625 0
-117 94 0
-229 582 0
-635 -244 0
453 619 0
588 -529 0
462 609 0
420 -284 0
-478 -618 0
-454 638 0
-467 -285 0
-415 -315 0
163 419 0
-470 31 0
166 -491 0
-226 105 0
-405 -713 0
-396 23 0
-211 185 0
-111 -170 0
-120 -485 0
-632 -152 0
-558 -179 0
435 272 0
-13 -146 0
605 -167 0
-306 582 0
-617 431 0
111 265 0
550 368 0
238 -162 0
50 -299 0
615 -271 0
-169 -698 0
482 -451 0
-449 -296 0
571 -559 0
188 -491 0
-151 544 0
31 -212 0
-681 550 0
419 689 0
570 -20 0
268 725 0
61 221 0
-664 548 0
281 -354 0
-702 -509 0
-255 -40 0
-683 -208 0
116 375 0
38 -571 0
377 -159 0
149 -261 0
-662 -414 0
-196 571 0
-394 -486 0
-373 -727 0
437 -436 0
-620 233 0
388 -66 0
52 -254 0
143 -545 0
103 384 0
-391 614 0
-442 -65 0
194 -520 0
-248 -367 0
-325 527 0
365 612 0
-275 -560 0
183 -181 0
-586 335 0
-66 160 0
-603 693 0
-500 -276 0
207 -425 0
10 366 0
-361 619 0
660 346 0
-201 700 0
228 -133 0
-595 695 0
238 578 0
253 449 0
695 -395 0
-688 106 0
722 552 0
-234 674 0
311 -150 0
-707 402 0
142 -347 0
-549 724 0
192 398 0
-435 -237 0
-623 -546 0
308 -520 0
182 -518 0
-360 425 0
-636 -88 0
204 -641 0
726 -235 0
-261 60 0
-478 252 0
656 -337 0
-21 266 0
7 -577 0
668 -309 0
-32 -514 0
-632 -132 0
388 591 0
-133 -245 0
365 -370 0
-709 88 0
-342 -108 0
72 -46 0
-71 -211 0
689 366 0
-363 -728 0
644 -337 0
-706 -708 0
-596 560 0
-234 -121 0
172 160 0
485 -83 0
-143 188 0
630 84 0
-467 227 0
390 -453 0
642 31 0
-710 -330 0
-296 614 0
353 626 0
188 -33 0
346 263 0
239 52 0
-328 -688 0
-12 -410 0
166 354 0
705 340 0
387 -252 0
-297 -150 0
663 -183 0
-550 -592 0
278 -305 0
-646 -507 0
451 -7 0
-716 457 0
401 262 0
96 672 0
-514 646 0
286 211 0
-710 -670 0
494 -372 0
460 -492 0
267 -578 0
-466 204 0
460 92 0
102 170 0
155 292 0
82 -77 0
121 388 0
597 127 0
230 633 0
-461 47 0
634 -480 0
-531 -74 0
363 593 0
-659 666 0
658 626 0
-592 -492 0
-89 -97 0
263 110 0
176 -439 0
543 -151 0
-650 -428 0
-180 -140 0
-6 727 0
63 721 0
-712 355 0
240 509 0
371 -315 0
-214 -250 0
196 -7 0
-645 -196 0
-189 -172 0
307 459 0
269 419 0
-723 -141 0
283 -150 0
-258 -349 0
-714 218 0
385 420 0
-560 -680 0
578 291 0
-140 477 0
578 64 0
371 -311 0
417 505 0
-289 311 0
-360 -522 0
-488 -130 0
-92 237 0
-158 -246 0
160 -531 0
-445 -259 0
699 -316 0
398 377 0
-584 713 0
-639 -229 0
371 -48 0
-190 423 0
-208 419 0
-159 -344 0
-74 -464 0
293 563 0
-228 526 0
346 399 0
-98 397 0
-391 -565 0
-108 -274 0
218 -10 0
-556 -525 0
240 599 0
93 -473 0
178 -561 0
29 -662 0
-415 469 0
3 60 0
57 -673 0
-565 379 0
-91 -485 0
356 246 0
306 -364 0
495 -397 0
-232 161 0
397 710 0
660 -226 0
695 -164 0
77 -480 0
461 461 0
332 276 0
358 -621 0
300 -316 0
151 -259 0
-109 -166 0
650 -477 0
-471 -384 0
-459 117 0
355 642 0
-379 -161 0
-195 204 0
-250 -165 0
20 282 0
113 601 0
100 716 0
-328 -158 0
-410 102 0
-145 631 0
341 34 0
92 702 0
339 -280 0
-378 210 0
-477 -290 0
-675 509 0
-289 -440 0
-620 376 0
94 -533 0
363 -5 0
534 -149 0
-391 305 0
-191 -360 0
29 235 0
442 -226 0
705 585 0
-382 -4 0
351 724 0
253 -525 0
292 -547 0
-407 228 0
102 -626 0
566 202 0
-530 -523 0
40 -702 0
-504 176 0
724 351 0
122 -112 0
-81 669 0
-701 -721 0
710 -413 0
515 -460 0
-229 457 0
-144 666 0
-574 -78 0
472 610 0
616 187 0
370 -143 0
150 -81 0
-669 -352 0
-457 456 0
-467 463 0
153 -251 0
413 292 0
-323 -226 0
66 -435 0
633 154 0
416 -448 0
-212 114 0
-570 -149 0
1 456 0
-426 -288 0
-727 -622 0
231 424 0
-289 -600 0
690 651 0
576 -715 0
-509 -88 0
399 -691 0
-514 534 0
719 -620 0
-416 591 0
419 589 0
-568 -108 0
685 -492 0
218 -344 0
-636 226 0
-59 -156 0
26 486 0
-373 -170 0
-88 -690 0
689 -170 0
227 -336 0
-718 179 0
385 206 0
-720 -134 0
-379 -32 0
-255 134 0
346 -623 0
-513 -682 0
605 615 0
-538 -400 0
275 670 0
43 -265 0
536 243 0
135 -164 0
80 95 0
243 -318 0
-595 -145 0
52 194 0
-502 542 0
-262 726 0
-419 708 0
-11 566 0
359 -454 0
-101 427 0
408 222 0
225 -502 0
124 -585 0
-213 -140 0
-103 515 0
134 -53 0
-718 -28 0
-669 -257 0
49 53 0
-618 -465 0
-502 -526 0
236 312 0
-156 -115 0
-207 -592 0
-7 -557 0
35 -318 0
168 598 0
-379 629 0
-709 87 0
674 -40 0
34 292 0
-443 -565 0
47 -503 0
-388 242 0
61 59 0
-698 586 0
341 -117 0
-316 643 0
-65 540 0
575 571 0
598 608 0
273 176 0
111 -79 0
-180 -477 0
-122 -374 0
-304 -131 0
-211 -494 0
-671 528 0
284 135 0
-455 -259 0
61 -611 0
-51 712 0
-396 26 0
-62 -668 0
-494 -314 0
436 597 0
467 714 0
45 -115 0
472 703 0
654 -166 0
-470 -36 0
-280 489 0
397 616 0
-654 668 0
694 -485 0
-631 -680 0
243 -698 0
-577 -540 0
211 -190 0
366 64 0
-555 639 0
306 523 0
700 -91 0
-144 31 0
158 315 0
-41 -222 0
-62 704 0
-386 -528 0
-517 63 0
-502 -285 0
564 -82 0
-58 298 0
-2 57 0
-266 -576 0
-526 -5 0
96 -170 0
418 -723 0
-11 -486 0
627 -135 0
-613 721 0
550 -19 0
102 -324 0
-330 -610 0
-428 -630 0
428 29 0
320 624 0
615 646 0
-10 -262 0
-60 -622 0
93 718 0
-413 -268 0
185 644 0
-191 62 0
588 -62 0
-651 -504 0
369 -216 0
-331 -226 0
-225 110 0
693 647 0
-648 -356 0
-630 359 0
459 -454 0
-502 -712 0
222 -618 0
-605 654 0
-128 -624 0
-299 -561 0
-573 641 0
-621 -546 0
-289 578 0
622 -210 0
244 -114 0
-571 427 0
-351 479 0
669 -161 0
-614 -452 0
301 -719 0
-178 -549 0
142 29 0
218 203 0
616 626 0
555 -522 0
682 -327 0
-238 713 0
165 -492 0
-149 -559 0
-40 423 0
418 -546 0
-654 -91 0
427 718 0
85 397 0
395 258 0
627 315 0
107 -682 0
270 297 0
-213 -533 0
-215 -276 0
-549 -269 0
-543 358 0
-427 -104 0
61 722 0
-512 663 0
457 303 0
-438 -180 0
199 -259 0
61 -440 0
136 656 0
-648 -247 0
197 -9 0
427 -205 0
-492 -675 0
34 -394 0
-165 -285 0
416 -15 0
278 519 0
582 -622 0
-675 400 0
597 655 0
-74 -485 0
708 93 0
-148 685 0
-492 -536 0
-351 669 0
325 -514 0
52 432 0
-566 416 0
5 356 0
-352 395 0
401 -524 0
467 460 0
345 211 0
-209 -614 0
-464 -125 0
312 -508 0
-411 -670 0
-285 545 0
433 319 0
-413 539 0
552 -634 0
369 -500 0
118 261 0
-611 408 0
694 -631 0
-509 -318 0
-468 -692 0
-116 601 0
-650 -561 0
-466 -127 0
-618 -297 0
-304 -628 0
-544 -40 0
-273 101 0
-28 196 0
75 -609 0
-557 -114 0
-475 666 0
425 666 0
535 368 0
355 -633 0
-97 -208 0
415 -417 0
660 616 0
-277 -250 0
193 221 0
-64 33 0
670 -682 0
-658 727 0
-144 -640 0
218 518 0
672 125 0
-720 -379 0
244 572 0
201 -697 0
-32 648 0
3 709 0
-468 52 0
-407 -608 0
-503 -107 0
-698 481 0
-702 -623 0
31 -605 0
-363 -13 0
174 -55 0
-164 -465 0
-159 300 0
400 -190 0
-698 -370 0
-226 80 0
322 -676 0
631 419 0
-77 54 0
288 258 0
-419 -266 0
-287 410 0
-12 -686 0
346 -572 0
420 -476 0
-397 -115 0
427 466 0
-626 416 0
-664 694 0
535 -458 0
-173 94 0
709 -513 0
505 -262 0
-557 -51 0
-201 223 0
527 -344 0
-484 249 0
44 47 0
-134 498 0
-560 707 0
376 -357 0
-423 -510 0
68 -353 0
604 142 0
-177 -290 0
483 537 0
-222 145 0
406 -504 0
427 323 0
19 724 0
451 -429 0
588 643 0
-524 -722 0
-375 110 0
-71 385 0
-226 -610 0
299 39 0
-137 -4 0
-587 10 0
244 -269 0
585 -619 0
81 -208 0
-400 384 0
-303 -688 0
-417 571 0
75 593 0
57 94 0
264 355 0
-69 -313 0
-728 -623 0
-444 -636 0
123 -717 0
-115 -168 0
239 -318 0
162 -617 0
-704 -687 0
-255 -98 0
240 179 0
279 -712 0
204 -469 0
-525 -23 0
-191 255 0
-40 474 0
-262 -22 0
-309 -636 0
-549 -725 0
-637 -119 0
329 726 0
-362 218 0
-190 -612 0
-376 708 0
532 -455 0
-47 54 0
42 59 0
-536 -435 0
660 -429 0
-218 -409 0
315 -31 0
-62 727 0
-195 603 0
295 -507 0
-298 345 0
306 -593 0
512 -709 0
-164 -371 0
-687 -180 0
612 537 0
-633 -634 0
129 -114 0
193 356 0
-134 167 0
359 -10 0
342 -696 0
328 102 0
-21 -531 0
109 300 0
-458 -650 0
338 256 0
132 -411 0
519 223 0
-557 -452 0
708 -112 0
582 -69 0
-251 626 0
418 29 0
-255 359 0
-296 712 0
-109 437 0
512 202 0
279 -584 0
-345 321 0
-506 693 0
437 459 0
189 519 0
-289 609 0
146 -552 0
483 -717 0
562 -509 0
708 -126 0
597 -655 0
552 -683 0
-137 -556 0
-616 535 0
456 -91 0
549 82 0
84 -584 0
-373 -701 0
374 225 0
188 -584 0
-363 555 0
-212 -536 0
-303 -497 0
-115 -713 0
-134 318 0
-720 -105 0
568 -717 0
-191 -9 0
437 -656 0
-19 -486 0
-58 -585 0
216 585 0
-43 334 0
-404 -652 0
-30 463 0
214 135 0
603 439 0
348 226 0
-423 452 0
-195 -95 0
-685 -140 0
657 -586 0
5 590 0
194 -516 0
17 564 0
711 408 0
-393 312 0
-224 -532 0
626 212 0
-291 36 0
-80 -520 0
-319 703 0
-652 -169 0
-178 -361 0
527 595 0
-379 27 0
-108 244 0
447 203 0
-67 288 0
215 84 0
164 -215 0
616 -393 0
385 -233 0
-675 -630 0
-373 -701 0
-200 205 0
537 686 0
-520 -558 0
684 124 0
-352 408 0
705 -415 0
652 -646 0
-50 -688 0
488 -15 0
-684 -277 0
-606 -191 0
-506 -318 0
-125 660 0
-394 -236 0
-37 293 0
334 421 0
694 -290 0
-473 -409 0
-80 -314 0
386 -271 0
-327 391 0
-28 254 0
452 -323 0
-632 -614 0
-547 187 0
-178 690 0
168 84 0
-260 261 0
-613 -319 0
-703 -2 0
-511 265 0
502 163 0
366 138 0
-60 -518 0
499 -425 0
541 125 0
-20 -637 0
-34 197 0
668 102 0
253 517 0
218 475 0
539 -521 0
-258 194 0
-549 392 0
346 437 0
590 -403 0
187 257 0
-490 47 0
452 216 0
-352 -571 0
-85 -14 0
198 693 0
-381 693 0
169 -304 0
-464 607 0
213 258 0
-159 309 0
516 -60 0
-719 -415 0
678 553 0
219 -191 0
-671 87 0
-156 -92 0
394 -302 0
-661 -166 0
593 647 0
432 383 0
-490 205 0
-697 188 0
218 -108 0
416 348 0
431 31 0
236 182 0
-596 -405 0
-633 -279 0
-425 715 0
-289 233 0
-579 -109 0
-311 -349 0
-362 -311 0
80 139 0
654 307 0
645 437 0
-606 -149 0
-231 -76 0
370 -429 0
519 515 0
63 -429 0
-725 -720 0
709 -367 0
711 6 0
110 459 0
-138 203 0
-147 -207 0
384 9 0
286 295 0
724 -526 0
59 -339 0
-609 543 0
-126 242 0
549 627 0
-322 -391 0
-146 -318 0
-16 200 0
-433 401 0
629 5 0
-667 353 0
-7 92 0
154 -308 0
-555 -314 0
-381 355 0
-488 644 0
61 -668 0
-107 13 0
100 181 0
312 -294 0
429 321 0
-424 -240 0
-147 230 0
334 576 0
-658 421 0
246 223 0
410 513 0
525 489 0
626 528 0
377 102 0
235 -532 0
656 581 0
323 -501 0
-399 -632 0
-65 678 0
-372 -198 0
359 -652 0
654 -156 0
-405 -245 0
-633 303 0
521 525 0
230 542 0
-308 143 0
616 -487 0
91 358 0
-567 -302 0
-688 103 0
338 -496 0
130 8 0
-671 90 0
-285 -79 0
-641 -518 0
-347 262 0
-555 66 0
57 -497 0
-638 -614 0
441 62 0
-363 660 0
-551 674 0
-669 204 0
523 -503 0
-591 512 0
-635 298 0
417 119 0
-144 -714 0
-646 351 0
-299 579 0
-443 527 0
241 520 0
319 202 0
439 627 0
-303 -361 0
527 390 0
-595 8 0
103 334 0
375 132 0
-232 -572 0
679 202 0
-564 -179 0
450 524 0
386 -208 0
-287 -531 0
268 358 0
-453 -229 0
669 -520 0
-586 524 0
434 282 0
-128 315 0
-119 -570 0
-222 726 0
521 184 0
679 -417 0
484 305 0
-620 -483 0
-382 -480 0
-416 103 0
536 267 0
-670 -728 0
-166 590 0
237 323 0
315 410 0
688 320 0
576 -577 0
-618 -59 0
75 487 0
268 -181 0
306 96 0
-683 674 0
494 218 0
-133 -633 0
496 709 0
-250 -184 0
-611 447 0
-256 -186 0
657 -619 0
-729 -349 0
-323 -256 0
328 721 0
472 456 0
-544 111 0
57 710 0
663 -206 0
609 -280 0
419 -425 0
293 -376 0
-525 -667 0
575 434 0
-273 -611 0
246 329 0
703 -434 0
169 -267 0
488 691 0
242 544 0
602 -51 0
118 445 0
42 -246 0
-694 92 0
-683 -339 0
610 34 0
122 356 0
-317 -257 0
-126 -86 0
219 -165 0
-298 363 0
34 -410 0
-507 -386 0
-420 -631 0
587 -325 0
600 -483 0
-715 180 0
383 59 0
673 -12 0
607 728 0
-234 -557 0
-40 551 0
-228 -595 0
-32 -366 0
413 -612 0
-431 10 0
-503 -598 0
-186 -618 0
264 183 0
-119 287 0
-364 11 0
-63 539 0
-538 -424 0
631 693 0
-644 -70 0
339 -492 0
-729 160 0
288 -558 0
63 -662 0
469 -212 0
-165 -492 0
11 317 0
-485 475 0
33 -330 0
-509 -125 0
424 342 0
-699 281 0
-209 -271 0
-200 677 0
619 -523 0
-329 -326 0
-22 100 0
-105 -645 0
-177 181 0
420 584 0
-299 422 0
-569 527 0
-719 643 0
-506 -667 0
-603 587 0
616 -316 0
234 593 0
-529 -407 0
-264 -720 0
399 269 0
171 -60 0
-422 101 0
651 -104 0
410 -612 0
454 489 0
-141 272 0
-76 461 0
37 627 0
113 -680 0
703 10 0
-708 -389 0
-310 -205 0
205 -151 0
98 -687 0
-677 296 0
569 195 0
253 524 0
-623 150 0
-420 463 0
-603 121 0
531 542 0
-71 42 0
398 -180 0
-257 -709 0
381 260 0
-98 190 0
-578 -649 0
398 -659 0
724 364 0
-234 266 0
134 49 0
-190 725 0
505 -530 0
-12 113 0
-367 677 0
453 339 0
372 283 0
729 228 0
581 689 0
369 34 0
724 -653 0
-600 -12 0
136 339 0
-129 -492 0
-33 -501 0
-559 -484 0
269 -270 0
151 -712 0
196 -425 0
-266 542 0
-719 -320 0
49 521 0
-162 -298 0
-538 463 0
537 -449 0
-18 -555 0
25 722 0
-248 -550 0
383 219 0
253 -192 0
-93 -314 0
-491 374 0
-680 508 0
-714 427 0
-104 112 0
589 -219 0
-657 -411 0
497 -543 0
-298 -392 0
-179 47 0
-137 -49 0
-43 -420 0
585 291 0
100 -617 0
6 491 0
632 -468 0
-43 512 0
-280 169 0
-582 588 0
-389 87 0
-320 87 0
75 4 0
-263 660 0
-43 81 0
321 654 0
-509 472 0
-385 -214 0
133 -513 0
-213 97 0
215 -445 0
-431 8 0
687 689 0
605 223 0
519 574 0
337 -428 0
354 -487 0
362 -653 0
281 93 0
-258 332 0
-428 -610 0
-40 -64 0
47 176 0
250 629 0
575 -212 0
-470 -550 0
550 252 0
-234 447 0
-146 -313 0
128 -67 0
338 384 0
-509 383 0
-509 108 0
354 -238 0
-536 -585 0
219 540 0
152 615 0
-623 663 0
203 449 0
334 -397 0
-179 -327 0
-648 -167 0
-5 241 0
451 -722 0
621 -610 0
421 272 0
-300 -530 0
-264 -280 0
64 -506 0
604 346 0
83 -157 0
-632 -124 0
-57 95 0
436 325 0
570 534 0
639 313 0
160 82 0
-62 -439 0
360 -636 0
472 637 0
-688 35 0
-434 -518 0
-355 227 0
-435 681 0
703 -428 0
-361 207 0
-211 640 0
88 -428 0
-550 223 0
64 -354 0
301 -546 0
175 334 0
87 171 0
-138 -252 0
-685 -58 0
-200 35 0
519 -100 0
52 -352 0
-711 704 0
6 517 0
489 118 0
-44 -671 0
-493 -247 0
-613 -622 0
540 -282 0
335 -158 0
-302 -462 0
219 -112 0
-557 93 0
471 -632 0
575 -133 0
-311 -251 0
-709 48 0
-653 -549 0
-219 700 0
-15 668 0
-266 70 0
-245 399 0
-680 549 0
-145 18 0
-692 -518 0
-360 707 0
150 334 0
-215 726 0
183 -87 0
-374 516 0
393 -570 0
-63 427 0
122 -259 0
-470 2 0
358 -385 0
-196 -337 0
372 -500 0
703 -485 0
485 -120 0
63 -698 0
480 486 0
-464 -313 0
227 -145 0
486 334 0
578 590 0
-664 199 0
237 -592 0
270 110 0
581 176 0
500 -523 0
135 -79 0
-129 31 0
-419 -20 0
47 284 0
-417 616 0
670 -641 0
311 64 0
146 -4 0
-32 -659 0
-167 203 0
627 -684 0
-304 684 0
542 -665 0
703 385 0
-634 657 0
-561 408 0
-64 292 0
612 -517 0
236 -565 0
550 588 0
463 -142 0
511 338 0
539 -634 0
573 -158 0
556 368 0
-610 375 0
-156 439 0
367 -379 0
168 728 0
-368 -417 0
728 -5 0
384 -63 0
-191 -564 0
-531 35 0
-547 -314 0
589 229 0
585 -544 0
-524 -255 0
-157 -215 0
287 682 0
93 214 0
-576 -478 0
431 420 0
297 554 0
-65 -156 0
306 389 0
237 198 0
602 158 0
-687 -250 0
281 116 0
-538 288 0
-715 713 0
-668 -133 0
626 -42 0
-632 49 0
240 376 0
463 339 0
142 -180 0
-81 158 0
696 585 0
-549 -636 0
54 -21 0
-178 -81 0
-609 -700 0
-449 -166 0
287 106 0
353 -488 0
-8 -364 0
-109 144 0
96 -278 0
-396 -166 0
-125 310 0
-140 516 0
111 721 0
50 -314 0
-729 -411 0
94 -202 0
-24 -112 0
724 -667 0
344 -555 0
456 144 0
438 -173 0
638 -466 0
299 -556 0
196 101 0
-324 -627 0
334 301 0
246 -151 0
564 -264 0
10 -78 0
-402 -393 0
-648 -254 0
-325 281 0
