c NF
p cnf 712 1424
282 -658 0
-124 69 0
-479 442 0
300 -605 0
265 -159 0
572 483 0
-97 65 0
21 -239 0
-687 -469 0
-207 -325 0
-592 -426 0
-309 -593 0
-422 141 0
9 585 0
-152 471 0
88 -222 0
-413 673 0
135 648 0
103 -241 0
-326 -289 0
-603 602 0
-171 342 0
552 609 0
-653 -310 0
289 690 0
308 -254 0
361 -482 0
23 294 0
-205 -417 0
-644 -92 0
-350 -256 0
496 159 0
343 -125 0
-317 548 0
-576 565 0
278 -549 0
-383 291 0
113 390 0
-204 -312 0
356 152 0
-357 -266 0
529 -389 0
-606 133 0
442 -550 0
300 136 0
471 -316 0
-67 619 0
687 -79 0
-158 316 0
-478 -197 0
-606 93 0
100 -233 0
-243 501 0
704 -73 0
-508 -559 0
509 203 0
-246 -281 0
-521 -356 0
-181 -708 0
-204 -498 0
275 586 0
85 82 0
-634 -72 0
390 498 0
-212 474 0
-310 413 0
87 -224 0
402 405 0
184 -420 0
402 -509 0
134 261 0
-417 -432 0
215 309 0
-418 380 0
84 46 0
19 145 0
-633 495 0
32 -233 0
16 473 0
-7 -685 0
-628 -545 0
-542 387 0
-403 249 0
-15 271 0
410 -467 0
-595 -221 0
-5 425 0
-648 149 0
206 269 0
-246 -516 0
626 -298 0
-147 684 0
-386 -250 0
-333 -524 0
156 -159 0
-439 224 0
305 514 0
642 -552 0
436 148 0
413 -635 0
165 -527 0
539 -178 0
-460 437 0
-74 -383 0
2 397 0
632 -218 0
514 604 0
673 -363 0
676 -159 0
474 -349 0
-616 -37 0
289 -11 0
-348 -85 0
273 382 0
-82 -438 0
467 599 0
471 683 0
-284 -255 0
-640 -61 0
442 366 0
-434 -198 0
76 -125 0
284 139 0
115 -560 0
-44 146 0
-302 -72 0
284 -561 0
-464 88 0
609 -430 0
-705 -675 0
-462 -165 0
-639 -395 0
-462 -166 0
-617 626 0
-505 687 0
587 684 0
595 -545 0
-577 -336 0
-486 -218 0
356 279 0
566 -327 0
220 -7 0
-50 -627 0
-201 -121 0
-141 -390 0
596 -313 0
-651 -271 0
272 -435 0
-685 -646 0
526 484 0
197 -423 0
148 -562 0
174 653 0
571 215 0
-207 700 0
-381 490 0
-374 554 0
678 177 0
-380 -517 0
619 -283 0
145 336 0
-18 -359 0
-692 117 0
175 97 0
327 -705 0
-348 669 0
-350 165 0
335 -569 0
-479 404 0
-213 -576 0
-505 -297 0
-422 394 0
-286 -667 0
-313 3 0
502 646 0
118 -534 0
-328 413 0
609 498 0
-373 336 0
-708 519 0
-313 -153 0
-110 265 0
-371 -592 0
197 -298 0
174 25 0
489 666 0
257 -443 0
-493 -499 0
-301 515 0
-161 607 0
643 -575 0
-390 282 0
580 284 0
82 108 0
654 12 0
-72 -513 0
-373 508 0
620 -630 0
-378 -324 0
-541 -454 0
-379 458 0
662 -70 0
-358 55 0
-336 -34 0
285 -35 0
-53 683 0
-681 -73 0
538 66 0
-367 -123 0
-98 570 0
297 672 0
220 249 0
-97 578 0
-367 -562 0
584 -341 0
360 4 0
-10 -479 0
-282 244 0
64 494 0
560 -618 0
410 -288 0
376 -710 0
-111 280 0
461 335 0
381 -201 0
454 -98 0
-34 -534 0
98 431 0
-219 -415 0
167 -401 0
-584 704 0
-182 565 0
-38 587 0
275 13 0
20 -439 0
134 -462 0
-126 -118 0
188 635 0
-449 24 0
507 -228 0
226 -312 0
-50 628 0
-628 473 0
262 -373 0
-566 683 0
204 -684 0
375 442 0
548 -627 0
-471 618 0
572 618 0
-702 -348 0
256 284 0
574 611 0
-216 -250 0
-700 36 0
487 525 0
-686 472 0
173 618 0
440 105 0
329 698 0
-693 -409 0
-552 267 0
-243 28 0
704 657 0
635 161 0
-298 -202 0
-631 -583 0
443 76 0
45 646 0
-484 -650 0
-234 504 0
-169 -685 0
-557 235 0
-198 -485 0
238 29 0
-602 -347 0
-651 22 0
403 -649 0
257 -136 0
-218 2 0
-439 -523 0
149 187 0
145 82 0
-260 427 0
506 -197 0
632 278 0
229 -536 0
-256 -54 0
10 76 0
-307 71 0
516 515 0
-692 -492 0
668 -476 0
152 -279 0
217 257 0
262 579 0
396 442 0
-580 336 0
181 56 0
-392 46 0
-423 663 0
521 546 0
360 416 0
-492 -378 0
-485 190 0
644 567 0
632 143 0
682 76 0
-89 693 0
-494 -651 0
689 185 0
-518 -63 0
-265 -660 0
249 -360 0
-173 703 0
198 91 0
291 -67 0
105 663 0
667 -73 0
165 -640 0
129 470 0
668 -505 0
202 -448 0
195 -407 0
49 103 0
393 304 0
-36 -289 0
-118 -203 0
-82 -456 0
-143 698 0
-595 293 0
20 61 0
115 -468 0
581 704 0
444 -681 0
377 -105 0
-342 391 0
-55 -23 0
426 -107 0
425 332 0
-246 510 0
-231 -621 0
365 -150 0
-646 -90 0
444 -317 0
366 -307 0
93 -562 0
-679 226 0
-287 -637 0
-589 64 0
-75 203 0
331 470 0
-438 -99 0
-218 344 0
495 29 0
110 335 0
136 -348 0
420 180 0
546 66 0
-561 160 0
82 600 0
-119 -137 0
11 58 0
185 604 0
-289 -409 0
-89 445 0
656 194 0
-624 259 0
626 -637 0
-62 -70 0
129 -15 0
-164 393 0
329 37 0
-502 605 0
33 709 0
23 -44 0
689 667 0
94 -374 0
-43 -599 0
193 -289 0
-256 -521 0
-691 -280 0
91 -31 0
244 690 0
-73 421 0
-589 298 0
526 -281 0
343 331 0
-224 -184 0
93 377 0
102 234 0
477 587 0
382 657 0
-449 -389 0
207 291 0
196 -17 0
-148 427 0
429 -605 0
-53 23 0
-577 -180 0
305 622 0
186 14 0
388 -523 0
620 -44 0
-459 -325 0
186 -469 0
-459 -124 0
-704 353 0
679 477 0
415 -3 0
-243 602 0
467 164 0
647 -294 0
-390 -81 0
26 188 0
-26 164 0
-540 388 0
391 488 0
-42 -209 0
-142 212 0
-447 -480 0
-20 56 0
647 -577 0
-427 263 0
228 -612 0
636 188 0
161 -281 0
79 -378 0
13 -529 0
17 394 0
-427 579 0
212 -318 0
-8 -540 0
689 -67 0
-18 -247 0
64 280 0
136 -263 0
-206 -154 0
98 197 0
181 427 0
481 525 0
-682 -624 0
-98 346 0
658 -418 0
-243 -43 0
-189 -591 0
-558 129 0
181 282 0
618 -185 0
-517 -414 0
149 -260 0
-578 -453 0
-636 696 0
618 252 0
491 -601 0
267 282 0
581 -142 0
546 576 0
617 -97 0
-316 -482 0
-345 520 0
-254 -230 0
-67 81 0
-346 -58 0
-627 447 0
-342 -274 0
483 278 0
-707 -505 0
-237 -63 0
122 264 0
149 454 0
145 121 0
-527 282 0
-669 396 0
193 230 0
-43 131 0
-127 491 0
-430 445 0
432 -238 0
86 22 0
682 688 0
390 425 0
-110 -100 0
-675 704 0
-270 -666 0
368 196 0
-217 638 0
470 539 0
283 596 0
119 526 0
-691 288 0
553 -234 0
1 580 0
-322 -571 0
108 -347 0
157 682 0
-394 19 0
185 -383 0
-126 -614 0
-685 498 0
-28 -176 0
-375 706 0
-432 623 0
-635 -380 0
-310 515 0
-130 -341 0
139 -664 0
34 -710 0
60 623 0
493 109 0
416 384 0
311 -684 0
-376 392 0
-183 630 0
-123 707 0
-225 -590 0
340 -27 0
-348 407 0
-409 -407 0
-1 531 0
289 -321 0
-350 -85 0
672 192 0
-584 607 0
380 47 0
409 -247 0
638 98 0
265 -492 0
-534 180 0
503 -529 0
-584 607 0
182 -337 0
-305 -536 0
552 -348 0
-675 212 0
-664 -376 0
-169 604 0
354 -61 0
656 -641 0
366 546 0
42 -325 0
171 320 0
-639 90 0
336 402 0
710 294 0
55 -422 0
148 221 0
-289 -350 0
-449 -489 0
-399 -502 0
-144 168 0
220 29 0
466 -57 0
-107 304 0
-319 280 0
11 -80 0
3 -527 0
-496 661 0
24 -51 0
-350 -393 0
205 -394 0
-461 -371 0
392 -464 0
-279 669 0
646 -414 0
386 430 0
-212 60 0
-310 -172 0
405 -259 0
-535 36 0
344 -435 0
-614 -590 0
-577 168 0
-646 -72 0
-354 -57 0
-420 -91 0
503 -255 0
-35 -390 0
-547 248 0
-77 -709 0
469 458 0
-654 412 0
-274 -558 0
688 -449 0
92 -459 0
195 104 0
293 234 0
-667 520 0
388 688 0
-331 -543 0
-93 -591 0
638 -380 0
523 696 0
440 -107 0
444 -83 0
-3 340 0
532 393 0
612 596 0
429 676 0
-272 -357 0
537 499 0
-252 70 0
-426 -70 0
454 492 0
-141 -506 0
115 -289 0
434 265 0
504 675 0
425 609 0
-486 -34 0
-456 -63 0
-318 -114 0
555 491 0
-482 569 0
494 -492 0
-440 82 0
375 475 0
477 -312 0
181 -120 0
-633 -568 0
-88 -448 0
-604 -307 0
-547 698 0
-612 -582 0
-61 627 0
328 -450 0
568 403 0
-15 121 0
211 -578 0
-481 88 0
553 -573 0
-363 566 0
680 -390 0
-78 510 0
648 -61 0
592 221 0
186 625 0
235 -664 0
51 -184 0
-103 -436 0
-534 483 0
111 -443 0
165 704 0
-539 -337 0
-659 497 0
356 -497 0
678 553 0
115 -6 0
56 -151 0
-493 -78 0
282 -259 0
-532 -238 0
-157 -349 0
602 633 0
643 -245 0
377 -182 0
-712 -590 0
620 20 0
140 -97 0
-158 638 0
-302 -276 0
-402 -640 0
355 -44 0
-500 -326 0
-368 212 0
-246 70 0
-240 470 0
679 694 0
-545 -210 0
-706 188 0
676 507 0
-276 -16 0
-253 -337 0
-415 -144 0
-492 -75 0
-475 -315 0
2 -423 0
464 -463 0
477 121 0
68 -273 0
-360 -486 0
36 554 0
255 -124 0
-542 401 0
14 341 0
-667 42 0
636 270 0
-240 300 0
-153 -187 0
481 410 0
-325 169 0
-316 -284 0
-471 -252 0
280 -127 0
354 -165 0
-645 -308 0
134 454 0
298 -87 0
402 -608 0
-658 -243 0
431 442 0
-189 -453 0
-467 -310 0
-553 -528 0
-603 50 0
-698 -73 0
418 19 0
-152 -548 0
-276 -103 0
-430 -557 0
-387 671 0
143 -511 0
-518 -494 0
-598 382 0
85 -415 0
481 431 0
-542 -658 0
120 515 0
-127 643 0
396 216 0
231 -96 0
-422 -260 0
-541 516 0
-280 -640 0
452 294 0
217 424 0
529 670 0
181 -99 0
-96 -154 0
230 -652 0
-430 600 0
161 527 0
262 22 0
-207 -37 0
-111 -184 0
93 354 0
97 408 0
477 37 0
-472 592 0
45 507 0
293 -443 0
-419 -116 0
-468 336 0
708 99 0
611 -334 0
-547 -505 0
-92 633 0
-583 -663 0
-493 399 0
-639 174 0
538 618 0
218 -430 0
225 -396 0
-261 -685 0
-686 -522 0
-542 493 0
-561 -366 0
499 701 0
-694 488 0
-37 363 0
-693 233 0
-478 -570 0
76 -543 0
-665 -684 0
-65 -198 0
-496 685 0
-200 439 0
685 -433 0
-31 -75 0
-385 -73 0
701 -198 0
-95 -383 0
-230 -206 0
-707 136 0
284 -572 0
-475 -182 0
196 307 0
585 -674 0
-395 -119 0
-336 703 0
319 -160 0
157 282 0
-50 169 0
116 -310 0
285 249 0
250 59 0
-603 -480 0
272 548 0
-702 -245 0
25 570 0
607 124 0
261 -80 0
-130 69 0
671 -479 0
-322 697 0
201 -514 0
-630 -297 0
257 301 0
-705 -475 0
-46 235 0
-457 525 0
-464 212 0
287 -144 0
567 -74 0
645 -597 0
486 -642 0
-177 -119 0
-383 630 0
-511 157 0
51 332 0
-84 -81 0
-595 -366 0
-599 602 0
241 -463 0
-302 -352 0
-335 -44 0
-189 590 0
-367 261 0
-288 -79 0
-15 -141 0
-201 374 0
403 -108 0
-200 -514 0
105 197 0
671 -279 0
-258 548 0
-668 -302 0
-597 43 0
191 -7 0
-704 76 0
-346 -37 0
-85 -328 0
25 643 0
-514 -687 0
-702 -273 0
596 404 0
560 275 0
476 179 0
-36 451 0
-570 600 0
-312 29 0
129 -246 0
473 690 0
302 -310 0
592 416 0
175 -453 0
58 194 0
49 20 0
-7 169 0
-627 -149 0
578 -666 0
-38 269 0
-190 -561 0
147 262 0
103 211 0
-621 443 0
566 547 0
-528 424 0
-419 -58 0
-10 649 0
193 -354 0
103 105 0
504 -214 0
-189 -341 0
597 -448 0
459 257 0
-103 589 0
-533 -245 0
248 401 0
263 596 0
-173 626 0
111 -665 0
-90 -83 0
24 533 0
-147 536 0
-582 -573 0
156 468 0
61 377 0
-283 -386 0
-526 -593 0
655 500 0
-342 -576 0
296 602 0
410 555 0
299 533 0
240 548 0
-67 -249 0
-26 -592 0
155 -110 0
41 431 0
-4 -462 0
661 20 0
580 287 0
486 -171 0
66 -451 0
-190 -545 0
-174 12 0
212 200 0
25 -34 0
-702 503 0
-7 146 0
133 -385 0
-77 -453 0
330 -710 0
306 673 0
652 491 0
-576 -301 0
-201 -508 0
177 394 0
-213 504 0
-654 512 0
-21 106 0
-374 -707 0
-577 125 0
127 -202 0
-224 -312 0
700 -407 0
204 -239 0
364 30 0
-325 626 0
-316 -21 0
-468 -565 0
-583 336 0
342 -220 0
265 -135 0
-509 588 0
615 607 0
270 -573 0
486 320 0
-132 566 0
-130 420 0
88 -460 0
304 523 0
-101 106 0
703 644 0
251 -275 0
181 511 0
249 22 0
487 12 0
-162 -334 0
-197 -209 0
-415 149 0
669 234 0
220 40 0
-688 264 0
322 674 0
8 -518 0
683 397 0
-239 -478 0
-150 263 0
615 530 0
-461 -653 0
-340 291 0
-514 133 0
257 -695 0
163 -13 0
-3 -127 0
-684 508 0
349 695 0
-559 550 0
466 64 0
271 -3 0
-316 472 0
-463 15 0
76 -455 0
569 -550 0
514 59 0
-651 157 0
-38 -398 0
13 -598 0
-137 102 0
649 293 0
-335 -117 0
-430 470 0
625 -327 0
392 186 0
157 -514 0
107 191 0
-692 212 0
-379 -243 0
548 -286 0
178 215 0
-505 381 0
327 -524 0
574 -662 0
349 284 0
-89 273 0
262 -467 0
-543 -29 0
-659 305 0
658 678 0
393 -206 0
-272 -328 0
682 -18 0
624 -246 0
-43 527 0
-352 632 0
114 271 0
302 -621 0
-210 -375 0
-640 -185 0
-61 497 0
397 -35 0
-395 1 0
190 215 0
467 -246 0
-324 136 0
656 2 0
-184 -298 0
446 -593 0
-389 -556 0
-254 -479 0
515 -134 0
546 302 0
314 -486 0
284 115 0
-74 230 0
-683 305 0
325 -289 0
-331 4 0
265 -494 0
448 548 0
-563 498 0
-628 12 0
-665 -7 0
320 179 0
149 161 0
604 121 0
343 176 0
710 588 0
104 182 0
696 -57 0
-461 -710 0
366 580 0
-23 414 0
-281 -34 0
665 -684 0
-487 -99 0
-70 314 0
680 -695 0
304 -384 0
-241 630 0
333 -539 0
282 -152 0
-189 -534 0
-219 -10 0
-534 467 0
-204 707 0
647 153 0
-686 447 0
-77 -247 0
-484 101 0
-412 59 0
244 -660 0
-709 -471 0
661 -321 0
-508 -76 0
-481 122 0
29 189 0
-184 329 0
-328 46 0
-473 -677 0
433 331 0
-108 347 0
-644 88 0
506 -109 0
-593 -82 0
119 193 0
-707 301 0
-212 -675 0
-456 151 0
-705 -345 0
369 225 0
-540 -452 0
335 -208 0
296 -202 0
291 -583 0
63 -315 0
-341 73 0
195 -75 0
673 650 0
-20 557 0
-201 -522 0
-108 -189 0
225 358 0
143 -471 0
208 -311 0
-363 452 0
-411 610 0
418 -171 0
106 564 0
-400 -639 0
193 -653 0
7 498 0
405 222 0
-327 -462 0
-110 -443 0
446 168 0
-273 575 0
-379 504 0
-337 -255 0
-425 -371 0
127 -169 0
-183 -147 0
601 -528 0
120 -424 0
232 -418 0
273 -355 0
255 -87 0
-475 -320 0
148 -221 0
-238 -436 0
179 -133 0
691 -130 0
669 271 0
543 -308 0
195 65 0
-456 536 0
-400 -517 0
439 248 0
-585 -536 0
585 251 0
-238 504 0
665 -681 0
-487 -505 0
631 -227 0
474 32 0
-163 507 0
-141 -691 0
-657 -311 0
-158 52 0
263 324 0
-511 179 0
-630 -653 0
-189 -156 0
-181 -524 0
-693 149 0
-407 -674 0
604 -73 0
412 654 0
-34 243 0
-235 645 0
236 574 0
-307 -243 0
71 -684 0
24 -56 0
217 -67 0
515 -350 0
25 304 0
-435 231 0
501 2 0
-426 349 0
658 585 0
299 -254 0
-513 -129 0
614 -426 0
-137 513 0
386 -623 0
77 -210 0
-452 340 0
194 20 0
218 -312 0
59 -184 0
262 211 0
386 161 0
259 288 0
103 354 0
-555 25 0
263 -630 0
65 270 0
301 -375 0
-684 435 0
304 -519 0
-524 296 0
335 -230 0
-276 620 0
-360 483 0
-126 524 0
39 353 0
-271 520 0
280 121 0
251 -696 0
403 -426 0
360 387 0
-5 396 0
-427 94 0
-329 -692 0
623 453 0
-254 167 0
429 -590 0
-288 -240 0
483 559 0
145 270 0
603 647 0
280 303 0
335 514 0
-166 426 0
70 220 0
-651 57 0
683 -11 0
517 25 0
585 -327 0
-8 448 0
-1 -462 0
-406 -675 0
134 -70 0
161 25 0
-295 -157 0
548 345 0
-435 579 0
36 566 0
-542 193 0
556 212 0
412 -56 0
-611 -677 0
-288 56 0
642 230 0
-314 -97 0
-241 -4 0
257 -302 0
665 676 0
-527 -486 0
-377 -709 0
99 494 0
547 335 0
209 -207 0
22 344 0
-10 560 0
66 401 0
-645 392 0
351 100 0
-382 -6 0
156 -229 0
594 -617 0
-184 -518 0
560 611 0
235 -207 0
-408 500 0
215 16 0
-409 143 0
-443 -308 0
-708 250 0
-35 325 0
-541 -316 0
526 668 0
-479 -644 0
-685 679 0
-700 592 0
-505 398 0
193 -399 0
432 265 0
298 386 0
-582 515 0
257 -702 0
-358 91 0
-535 -102 0
-687 309 0
-648 -542 0
-30 -582 0
-445 -338 0
-639 -142 0
-482 42 0
421 5 0
-184 313 0
33 -358 0
-548 625 0
510 -542 0
-451 515 0
-108 -286 0
-408 -53 0
-646 -116 0
439 -550 0
106 436 0
191 -40 0
643 592 0
-90 -416 0
407 304 0
-614 299 0
-634 540 0
-524 -308 0
108 296 0
-371 -671 0
-541 -535 0
683 478 0
388 -77 0
223 -272 0
366 123 0
-374 -99 0
555 369 0
-285 522 0
301 19 0
122 421 0
-114 -44 0
260 -703 0
279 -591 0
-296 -206 0
557 -711 0
-172 691 0
-163 -3 0
22 -542 0
581 260 0
-539 220 0
-117 -86 0
-617 691 0
-378 164 0
-640 -238 0
-448 -251 0
216 505 0
602 -710 0
-417 -662 0
-684 -63 0
-406 21 0
695 -415 0
594 -73 0
143 291 0
455 -420 0
-640 -460 0
-260 669 0
116 114 0
388 682 0
668 421 0
-119 481 0
-63 -206 0
-70 664 0
-228 -513 0
-549 -413 0
-78 -581 0
-569 465 0
-607 -345 0
507 579 0
-85 605 0
-475 -499 0
697 -685 0
623 461 0
320 567 0
24 -698 0
134 482 0
574 -200 0
-236 -204 0
335 23 0
581 674 0
62 -250 0
-562 -339 0
3 -420 0
543 59 0
-711 623 0
-704 95 0
434 -83 0
-345 -340 0
340 647 0
-639 585 0
540 -49 0
-11 -185 0
-268 93 0
659 -552 0
-527 -406 0
-633 -190 0
360 -464 0
-152 -140 0
451 284 0
-302 57 0
324 -200 0
-610 499 0
144 46 0
162 -621 0
-171 -504 0
305 163 0
64 120 0
-453 274 0
553 548 0
-665 -403 0
-417 -420 0
-539 -79 0
-423 -581 0
-212 -479 0
-435 106 0
465 -292 0
123 394 0
173 282 0
505 441 0
599 15 0
-139 262 0
14 -676 0
-135 131 0
-56 282 0
-593 245 0
-627 514 0
66 60 0
-392 -497 0
-651 -16 0
21 -328 0
463 -252 0
165 -219 0
-463 -245 0
-118 652 0
-373 -98 0
-545 64 0
-300 9 0
431 -103 0
3 -653 0
464 596 0
-124 402 0
-283 -160 0
-250 17 0
-677 -693 0
596 -177 0
-494 469 0
533 -13 0
627 -534 0
-241 56 0
646 -150 0
124 -147 0
-361 267 0
638 672 0
-31 655 0
-297 16 0
-8 -563 0
-622 -373 0
252 382 0
90 -137 0
-608 -347 0
639 -315 0
381 129 0
-456 -280 0
