c NF
p cnf 1815 2541
-774 -313 0
1793 556 0
-835 303 0
-532 466 0
-1147 -860 0
-1268 206 0
311 821 0
-709 -1686 0
1093 1331 0
-26 -643 0
1084 -1025 0
597 287 0
53 -1734 0
-715 -1495 0
694 1647 0
-1253 870 0
-989 258 0
1656 1521 0
-1355 -122 0
-950 -1346 0
95 1799 0
-586 1479 0
1618 1301 0
-798 -1472 0
-1009 1694 0
-11 1152 0
-573 -1718 0
-724 380 0
4 417 0
-1789 1359 0
-855 -1377 0
-562 -58 0
-1242 -65 0
1687 1354 0
-827 1673 0
-239 1123 0
737 1031 0
942 141 0
1555 -1640 0
1137 18 0
409 1777 0
-1598 517 0
-1223 -555 0
-1015 620 0
-1242 916 0
-1623 -252 0
-682 281 0
-453 392 0
-950 -716 0
-908 -1814 0
1076 799 0
1031 -823 0
1004 1121 0
1539 1701 0
1774 -83 0
1266 867 0
1147 317 0
-477 1440 0
1713 -1091 0
830 -1716 0
340 -283 0
1679 -770 0
-1366 -1765 0
503 -526 0
687 1485 0
-1036 -1413 0
-253 485 0
879 1513 0
-126 1011 0
-984 514 0
-1067 1356 0
-1306 169 0
-458 -93 0
1572 1017 0
1619 -216 0
1161 -708 0
-1664 1274 0
-855 -681 0
-1181 329 0
-1759 -1446 0
1412 -1574 0
-891 530 0
-624 -492 0
-1699 -573 0
1353 -1186 0
-762 98 0
971 900 0
-228 1009 0
-1713 -1233 0
-1799 -1090 0
-1582 -618 0
572 -1584 0
1722 1147 0
-623 -470 0
822 -1379 0
1280 357 0
1035 1173 0
465 15 0
667 -655 0
710 -1012 0
405 1363 0
-673 1562 0
-1705 486 0
602 -920 0
-774 -1369 0
213 -670 0
1043 -197 0
-1385 -1756 0
-1337 -393 0
-776 76 0
1120 327 0
-1405 -644 0
1586 592 0
768 -1709 0
-1481 -1307 0
-1462 190 0
-1204 -898 0
983 -1518 0
-1126 -1093 0
-482 -1333 0
-965 -1478 0
1393 -261 0
1642 273 0
287 -523 0
-337 263 0
-772 488 0
1121 -752 0
677 153 0
-1603 1380 0
-1407 -541 0
-1551 1021 0
1176 -691 0
-1484 27 0
595 -932 0
1806 993 0
-1134 -282 0
1333 904 0
-1709 -1391 0
770 789 0
92 507 0
151 -985 0
1062 -1408 0
880 -858 0
-1675 -1242 0
-658 -1361 0
-1630 -1607 0
151 1128 0
300 1351 0
1358 -1706 0
-1189 -1113 0
112 -160 0
1099 -1259 0
-1222 -422 0
897 -1689 0
-865 895 0
1388 1368 0
1061 594 0
-1340 1119 0
819 -1343 0
-226 850 0
1177 1234 0
-538 -1750 0
1608 -1262 0
-1780 727 0
-1791 850 0
-978 184 0
1395 -1026 0
1349 -282 0
-990 1632 0
1117 -1657 0
-1577 -1257 0
-55 -1111 0
-1459 -1505 0
-251 849 0
880 653 0
-1723 -1702 0
1750 504 0
821 -976 0
781 -694 0
1043 1035 0
-480 1206 0
-1271 -867 0
521 -572 0
-216 1279 0
-677 -130 0
72 905 0
1811 1570 0
1058 178 0
1237 1350 0
1309 -1557 0
-455 1312 0
1398 -1716 0
-443 54 0
393 667 0
1289 1346 0
-677 570 0
686 -1236 0
-32 -1488 0
1164 503 0
1488 -861 0
1040 -1528 0
654 327 0
505 1004 0
-626 1132 0
-720 -1527 0
-488 712 0
1070 1407 0
-1162 -1474 0
417 75 0
-1624 -1402 0
-963 -1743 0
819 -1428 0
-470 -359 0
-31 -1327 0
-1221 -52 0
-1097 79 0
-49 943 0
-969 1180 0
-545 -995 0
1493 -623 0
-1577 524 0
-1063 486 0
-1627 -579 0
1146 1 0
22 1222 0
-136 699 0
1140 -1751 0
-1111 430 0
-150 1163 0
-811 -305 0
759 1168 0
-982 -1684 0
-1115 1390 0
586 -1087 0
1705 385 0
-791 -1326 0
261 -714 0
219 -761 0
1265 9 0
-1458 -709 0
-1359 1563 0
72 1775 0
-1433 -448 0
-1040 743 0
-1754 28 0
737 986 0
-591 -222 0
85 1565 0
371 -1483 0
-603 1197 0
711 1624 0
964 -1769 0
-1476 904 0
-1361 1139 0
-562 350 0
-8 -1265 0
1331 1510 0
-354 528 0
-1611 -1644 0
-140 1444 0
-1702 -841 0
1534 -1116 0
-72 1195 0
-1616 1636 0
572 1805 0
1684 273 0
1295 1063 0
-1446 321 0
423 1749 0
558 521 0
83 1282 0
-773 415 0
-179 1044 0
513 533 0
-1740 1215 0
1016 -1034 0
964 -1079 0
42 -1416 0
-321 -1444 0
879 651 0
652 483 0
-1236 1484 0
-1493 117 0
-739 -532 0
-1427 1757 0
842 67 0
1216 -1086 0
1492 -1427 0
-74 -241 0
1123 -149 0
1679 -874 0
1120 -905 0
223 1041 0
-1330 406 0
-1622 -1009 0
1214 -907 0
-1306 -336 0
-1539 -187 0
1116 1505 0
484 -548 0
-1339 92 0
-1012 -1757 0
605 546 0
764 221 0
775 -965 0
-1198 1533 0
1651 -51 0
1498 512 0
-1288 -1314 0
-1762 563 0
818 -325 0
542 -767 0
486 -1123 0
1270 1804 0
-823 376 0
-1648 1617 0
-421 1744 0
1627 -806 0
-1371 -167 0
-833 1782 0
-68 -1476 0
1810 1172 0
1365 -1439 0
853 172 0
1306 465 0
-1033 72 0
878 -383 0
650 357 0
-982 -618 0
-545 815 0
-89 636 0
-286 938 0
-1583 1252 0
467 1670 0
-1640 1299 0
1184 -676 0
-526 -859 0
464 689 0
840 880 0
788 1123 0
1508 295 0
-118 336 0
1359 -352 0
1308 -748 0
-1805 186 0
-1287 -384 0
467 -727 0
1155 -1073 0
-367 425 0
1193 1184 0
-107 1565 0
-308 1286 0
-906 -37 0
43 -1645 0
80 1721 0
1085 49 0
193 650 0
1164 539 0
-1090 -26 0
1116 -335 0
636 -1110 0
713 -114 0
-1408 1687 0
-313 -616 0
1713 -1784 0
1542 -548 0
1624 -241 0
636 26 0
1444 1484 0
1560 -470 0
493 -76 0
-1175 640 0
-1796 893 0
342 -651 0
954 -907 0
1158 904 0
387 -137 0
-753 409 0
-233 -1201 0
-793 -934 0
920 -1107 0
-624 440 0
822 870 0
1741 -587 0
685 28 0
84 -1663 0
-1352 1115 0
25 -1767 0
-62 1599 0
-984 -1131 0
-1793 1808 0
-395 -541 0
-63 -1441 0
-1205 -681 0
-1045 1345 0
-1616 511 0
-1001 1168 0
1368 1549 0
1116 -1136 0
910 1710 0
-1314 -1161 0
1708 900 0
-1373 -1541 0
268 -629 0
-1620 -919 0
62 -29 0
-1739 329 0
61 80 0
789 1360 0
-1503 1045 0
270 -295 0
-126 628 0
-49 -1548 0
-255 -980 0
-319 -686 0
316 1548 0
-1311 380 0
883 -925 0
-1404 270 0
-1659 -260 0
-1155 406 0
-565 1704 0
-720 7 0
-1609 -281 0
587 542 0
180 835 0
-317 936 0
354 -1483 0
-1347 1063 0
1800 -1770 0
1081 687 0
1115 -649 0
1774 812 0
-1365 -1553 0
367 1601 0
333 318 0
1118 1313 0
1240 543 0
547 181 0
-1094 1387 0
404 657 0
782 257 0
-1797 -826 0
-730 85 0
957 -319 0
60 1548 0
242 1078 0
-1518 -1139 0
637 494 0
-1204 571 0
1463 802 0
1061 1743 0
-106 -1536 0
870 398 0
632 -1762 0
-614 787 0
812 1592 0
-1767 -353 0
-709 1455 0
1539 789 0
-720 -139 0
-605 1095 0
822 56 0
118 779 0
668 592 0
269 -1085 0
-414 -670 0
1686 138 0
597 -460 0
-742 -939 0
-330 1080 0
356 -1508 0
-378 1587 0
829 -1251 0
1322 72 0
-1010 -1224 0
-907 262 0
-1138 1327 0
-642 -557 0
-578 936 0
-75 -1356 0
-735 -849 0
336 -1175 0
-447 -480 0
-720 204 0
1683 149 0
1107 183 0
1116 -104 0
1545 -643 0
1206 -1470 0
-1271 1068 0
1567 1524 0
1639 -1418 0
-1604 622 0
-1812 879 0
499 1054 0
-1720 -220 0
-401 21 0
-59 481 0
-494 1470 0
599 -1093 0
-1127 -1376 0
900 406 0
190 -1113 0
-1284 255 0
1517 -357 0
-1501 1806 0
-68 170 0
1756 -1327 0
-1630 -1441 0
1050 -501 0
1324 1358 0
1783 -951 0
782 738 0
131 1642 0
1055 -1723 0
-478 1497 0
1067 1804 0
180 1014 0
-1260 704 0
-1262 60 0
1246 -1355 0
722 -1112 0
-530 -89 0
-444 683 0
1306 1674 0
-1509 -583 0
-428 -1726 0
-165 -1794 0
561 1114 0
1140 -106 0
1353 71 0
-92 -132 0
1669 -599 0
-864 1170 0
-1073 528 0
-1714 996 0
-1296 -357 0
-179 1798 0
-174 -1218 0
-709 -1812 0
280 1173 0
-816 -132 0
1587 1396 0
-1008 -1595 0
579 1594 0
1602 -350 0
284 796 0
-529 -772 0
1539 -69 0
-626 -1108 0
1679 -552 0
993 963 0
1491 1394 0
-344 -632 0
-256 633 0
205 -1198 0
78 1354 0
-538 -1431 0
-379 1040 0
1672 -1413 0
1488 1422 0
-744 -211 0
-618 249 0
-691 1273 0
568 519 0
1010 -79 0
-1766 -681 0
359 -776 0
993 -70 0
-315 -1043 0
507 780 0
73 -835 0
840 -958 0
-1091 -913 0
1243 1665 0
1010 86 0
-1065 -1600 0
1270 -21 0
1172 -849 0
-239 -402 0
15 857 0
149 848 0
-1537 559 0
964 1458 0
10 564 0
717 521 0
-1208 72 0
-1418 1214 0
-679 1546 0
-1305 -1215 0
-1221 1680 0
-356 156 0
-457 801 0
1007 1463 0
-1725 -1514 0
-801 -1662 0
-1394 -1649 0
-986 -723 0
1347 -1485 0
50 -567 0
1243 -1375 0
1217 218 0
1379 -321 0
920 221 0
-1789 191 0
-644 -1572 0
-543 1608 0
-1296 1711 0
1565 1455 0
-1639 -1287 0
-381 -1050 0
-1601 -1515 0
53 1516 0
1578 -606 0
2 -1585 0
-179 -673 0
-1229 -1635 0
-210 -490 0
1562 1368 0
268 858 0
1348 -173 0
401 -1029 0
800 -874 0
-1627 332 0
-426 -1771 0
7 448 0
1291 215 0
-1314 -18 0
1377 1473 0
1568 -162 0
-1804 673 0
-1099 932 0
-546 912 0
1710 -680 0
1312 310 0
-990 1517 0
-1515 168 0
-1109 -1419 0
-888 937 0
129 -1059 0
1626 122 0
-1093 -1336 0
1782 -1408 0
412 466 0
-540 404 0
-799 254 0
1651 1676 0
795 -1478 0
690 329 0
-1527 -100 0
397 218 0
-1076 1210 0
-41 -654 0
-969 1375 0
-1677 1173 0
1124 151 0
567 703 0
1754 1484 0
-196 -404 0
-1246 -1187 0
-1739 -1794 0
-1536 -1336 0
1377 -664 0
462 75 0
-176 443 0
570 -1174 0
1512 -1600 0
870 -121 0
288 1195 0
-1332 -172 0
504 -940 0
704 586 0
1197 -758 0
-778 -791 0
-197 -1073 0
1661 1605 0
-286 1052 0
-1432 -390 0
1549 1080 0
864 1711 0
-619 -1776 0
-1032 -216 0
-449 -1336 0
-402 791 0
-1213 153 0
-660 1063 0
-1031 -1450 0
-1731 -1012 0
-1359 213 0
850 -220 0
622 1312 0
866 1353 0
-57 -520 0
-335 1190 0
565 143 0
-1568 1057 0
615 1752 0
-399 1105 0
415 -220 0
1516 525 0
-1011 -300 0
-818 1617 0
1570 -1657 0
82 -587 0
-795 -999 0
5 -963 0
646 1047 0
985 318 0
-866 -629 0
602 -1165 0
408 911 0
-903 -1269 0
-982 -60 0
-1782 744 0
-61 64 0
-1388 536 0
-1006 -497 0
1619 1454 0
420 -456 0
-987 1381 0
-1366 -1254 0
-1399 -1709 0
-929 -977 0
1227 191 0
595 1137 0
279 142 0
-348 261 0
533 1558 0
809 -1612 0
1500 52 0
931 -995 0
1417 -1318 0
684 -1453 0
891 326 0
168 618 0
-1429 846 0
141 1773 0
1021 1080 0
1414 1116 0
1013 1520 0
1240 -1407 0
-532 -1021 0
942 -1145 0
-203 -1015 0
-1725 165 0
769 117 0
-580 1352 0
-716 -650 0
836 -391 0
-1196 756 0
-1808 -426 0
374 -1569 0
888 -1643 0
-718 -232 0
-891 -147 0
-478 603 0
1471 -1559 0
-983 852 0
6 -1373 0
1638 -1613 0
-168 -1551 0
-1611 671 0
-1427 1666 0
-370 1746 0
1145 1420 0
737 599 0
1493 -1231 0
619 1364 0
-1625 1209 0
430 804 0
-1174 783 0
1018 1108 0
-119 439 0
1563 -1766 0
-333 -1478 0
-365 1547 0
1258 -253 0
214 -990 0
100 -1074 0
-733 -1657 0
1363 -1487 0
843 -1701 0
-1359 -1406 0
-1044 -751 0
892 1691 0
-1297 1638 0
1442 -545 0
219 1147 0
1659 1386 0
1605 -739 0
21 -1133 0
931 -1728 0
471 -902 0
1799 1715 0
1003 -1576 0
-650 -783 0
-132 -115 0
1032 1290 0
1328 641 0
-1737 1350 0
-759 684 0
-451 1497 0
1733 1313 0
-453 -1775 0
-1325 -716 0
-1178 -1574 0
1202 -1261 0
-1718 480 0
1165 984 0
-1000 1779 0
-147 193 0
-845 -1650 0
775 -178 0
-1474 113 0
1053 1257 0
625 -239 0
-47 -16 0
-560 -1451 0
1104 24 0
-1582 -618 0
-1636 504 0
1733 -1557 0
1552 1029 0
1052 -956 0
-1766 -1536 0
-226 602 0
568 1641 0
1306 -1051 0
-87 -530 0
-954 183 0
1137 620 0
-696 848 0
1419 60 0
-940 -1093 0
148 546 0
942 20 0
-1280 1583 0
571 -1302 0
794 1062 0
-456 817 0
40 769 0
767 -960 0
-811 -1425 0
-607 1555 0
1659 -1083 0
-1287 -1045 0
-695 568 0
1239 1278 0
-294 1075 0
-979 253 0
-798 -1487 0
484 571 0
1533 1642 0
1424 -567 0
1335 1743 0
-367 789 0
-1562 808 0
1130 1748 0
-1612 112 0
-1568 -968 0
-1571 -1478 0
-1194 1615 0
-1412 -791 0
1145 984 0
219 -237 0
1055 -1394 0
-1433 -1716 0
182 1694 0
1546 47 0
700 868 0
-1635 -1457 0
1565 681 0
345 1056 0
-1345 -1153 0
-267 354 0
1397 -1766 0
1587 1063 0
317 1334 0
-1051 645 0
-611 -1650 0
674 1116 0
-1219 -1028 0
156 1557 0
796 142 0
-517 -1763 0
429 1122 0
848 852 0
1347 -578 0
-434 -1481 0
1614 1125 0
1418 961 0
1003 1435 0
1756 -501 0
1201 -611 0
768 -227 0
-932 1641 0
1420 1721 0
-1808 -583 0
1736 -281 0
-1790 -1268 0
-1383 -965 0
358 -655 0
1214 -532 0
-742 1104 0
43 -983 0
1726 752 0
-1236 -320 0
-321 1277 0
647 1813 0
-925 1539 0
-1370 10 0
845 -1402 0
333 1295 0
70 1259 0
771 558 0
142 -336 0
21 835 0
-874 1226 0
973 -1769 0
-1366 825 0
829 -686 0
1741 80 0
901 -619 0
-832 1677 0
-1036 1350 0
963 -102 0
924 -491 0
-543 1165 0
1448 925 0
776 107 0
906 -1306 0
1174 -1423 0
118 -63 0
-342 -185 0
-1576 521 0
-166 1004 0
655 444 0
-946 -1181 0
246 1557 0
785 1795 0
-618 380 0
1218 1199 0
611 -1413 0
551 1717 0
856 -157 0
-245 772 0
256 -1212 0
688 -1038 0
706 -1472 0
-1443 -1392 0
-435 -1246 0
664 -1204 0
32 387 0
-1020 1720 0
-359 -1642 0
22 -604 0
92 -708 0
-4 -799 0
-1198 1180 0
757 1336 0
664 -559 0
-376 -808 0
895 1278 0
252 1368 0
-1269 -776 0
721 -1789 0
-1502 -540 0
-1574 -470 0
-710 1548 0
-894 -1172 0
-1021 -1469 0
-532 1458 0
322 -159 0
-1763 -1552 0
-977 -954 0
1302 1719 0
-1477 1100 0
180 318 0
298 -747 0
150 -529 0
1163 -261 0
-765 -1586 0
-204 1032 0
-1328 1195 0
-419 -1459 0
605 928 0
212 1136 0
1451 153 0
-1144 656 0
308 -1328 0
1247 1806 0
616 896 0
-1190 1278 0
-562 -236 0
-554 602 0
-580 -240 0
486 1203 0
1205 -724 0
739 -750 0
350 1761 0
1474 764 0
422 1010 0
304 -1068 0
508 894 0
892 -1519 0
543 -28 0
1486 -1312 0
600 -1031 0
-919 1192 0
-1326 1414 0
201 563 0
630 1400 0
835 1170 0
824 1544 0
537 442 0
1316 -1451 0
916 632 0
16 -1709 0
-49 -1450 0
-686 -1008 0
919 873 0
1611 -934 0
-1179 537 0
138 117 0
7 -1188 0
-713 -378 0
-262 -876 0
1687 -354 0
877 98 0
1590 -765 0
-320 1445 0
-127 1266 0
-18 314 0
-642 422 0
1414 -1604 0
-1763 -360 0
616 -165 0
1070 -176 0
686 877 0
1801 -1040 0
1516 -817 0
-136 400 0
1676 1743 0
395 -471 0
572 107 0
-560 1127 0
1374 1502 0
1135 1671 0
-1367 -1576 0
446 -1695 0
336 82 0
952 -1038 0
-616 829 0
-572 -1190 0
-1762 -1387 0
438 -275 0
-126 1007 0
271 -90 0
482 -552 0
-1718 147 0
1788 1529 0
-1336 1206 0
960 -1428 0
-1332 741 0
-1654 -196 0
-24 -1246 0
466 79 0
734 -1679 0
1055 1342 0
256 395 0
-1723 86 0
-827 -206 0
-463 145 0
810 -313 0
-209 -1200 0
-1625 -298 0
-1774 -451 0
448 1744 0
1673 122 0
-564 99 0
320 -583 0
96 -657 0
-1150 -829 0
981 -1420 0
-1622 525 0
1736 -200 0
57 266 0
477 -860 0
194 1278 0
-292 1137 0
1193 736 0
-1527 -1237 0
92 224 0
462 16 0
-1633 -1047 0
276 -1814 0
112 653 0
1257 246 0
-610 -1674 0
22 -1429 0
738 420 0
115 -1657 0
-63 -315 0
-1434 605 0
702 525 0
-159 -1434 0
-489 1135 0
-1527 -1273 0
410 -1437 0
1672 -443 0
364 -1668 0
-783 -55 0
-1759 634 0
714 1436 0
-133 250 0
726 1735 0
1546 862 0
-1181 805 0
1582 -1441 0
1617 893 0
1596 -1697 0
-908 311 0
415 -514 0
-205 464 0
-1574 -236 0
-604 1190 0
-964 1075 0
-236 214 0
1424 -526 0
-1416 1235 0
1467 -1358 0
-641 -716 0
863 -858 0
-644 -540 0
1457 -181 0
-86 -965 0
908 559 0
1254 -320 0
-8 856 0
456 -1557 0
-1295 1227 0
-1195 697 0
1187 -643 0
351 -735 0
1149 -956 0
-1184 153 0
701 -76 0
828 -1094 0
-193 1602 0
-1581 112 0
-1540 657 0
-1792 -1544 0
-1189 -1089 0
-415 -1690 0
133 690 0
1726 1465 0
1204 -239 0
1229 -172 0
-1314 -402 0
385 -934 0
1710 296 0
24 -1196 0
-1784 591 0
1416 -1518 0
-1413 1014 0
-843 1400 0
1022 -472 0
-764 1060 0
-594 -1208 0
-1118 -1520 0
-173 1217 0
-67 -773 0
-1172 186 0
-1542 1238 0
1420 841 0
9 -340 0
1155 516 0
846 -545 0
-1517 879 0
-1174 1479 0
1511 1139 0
-1392 75 0
475 1243 0
1392 -570 0
-761 1097 0
-723 1284 0
1056 -146 0
1795 926 0
1534 1243 0
-388 -197 0
168 -561 0
1319 518 0
1138 462 0
1634 1462 0
381 -58 0
1161 190 0
842 1749 0
-1083 522 0
291 168 0
-1552 1057 0
-1418 -1036 0
413 105 0
-26 1084 0
-457 970 0
-931 -766 0
-416 -228 0
-1431 1053 0
-783 532 0
62 -500 0
356 160 0
1260 1792 0
303 206 0
1074 1534 0
389 1518 0
-649 -55 0
364 -809 0
1743 -1129 0
129 1628 0
6 -474 0
416 -1122 0
725 -123 0
1084 820 0
-372 777 0
-359 1788 0
1167 32 0
655 -172 0
-1729 817 0
-320 -507 0
-1657 -1113 0
-1503 -347 0
25 1726 0
852 989 0
1322 -1005 0
-1530 250 0
-1438 1156 0
-1146 164 0
-1259 -1020 0
495 -849 0
-1587 398 0
270 747 0
721 1066 0
1408 1414 0
1539 -1357 0
397 -120 0
1592 -184 0
-570 -1652 0
-1622 382 0
-226 1145 0
-1017 1426 0
-1167 824 0
-1681 1364 0
-1175 1364 0
-1482 869 0
1680 2 0
-190 954 0
674 -408 0
1156 -1512 0
-319 401 0
-1014 960 0
-1759 -1774 0
-1684 1007 0
-940 -240 0
3 300 0
356 1056 0
766 1186 0
-532 -1354 0
1564 -1472 0
-607 1366 0
602 429 0
1470 1242 0
876 -1635 0
-1416 54 0
96 -66 0
-1568 -510 0
-109 1507 0
1555 420 0
-114 -1556 0
1128 -1262 0
-58 -683 0
-804 -776 0
1046 316 0
1396 -507 0
-1059 -1452 0
645 606 0
-1604 1004 0
-349 1265 0
1363 122 0
-1005 -410 0
1080 1075 0
669 822 0
632 -94 0
-152 -1431 0
-1615 1559 0
1154 -314 0
796 970 0
-575 570 0
196 268 0
-526 -530 0
-49 -1097 0
-478 1754 0
1146 1703 0
-1697 72 0
1343 1528 0
212 -1395 0
-605 -1811 0
-39 163 0
-1658 1312 0
-1266 105 0
-315 -1433 0
1787 361 0
544 -1207 0
-1265 -1534 0
269 -1117 0
689 969 0
-404 -8 0
1431 -709 0
-947 377 0
43 -476 0
589 475 0
-977 1588 0
335 821 0
217 -484 0
1190 1140 0
1677 -979 0
926 -1730 0
654 957 0
138 350 0
51 627 0
-891 1656 0
-1530 -593 0
-810 -103 0
706 -886 0
1078 -723 0
-199 -218 0
1228 1125 0
-994 -1321 0
-1403 29 0
-1036 -572 0
-1755 -1066 0
453 769 0
1334 1152 0
67 1663 0
-1008 1056 0
924 -92 0
586 1770 0
-96 1004 0
1663 -211 0
1578 -1650 0
-251 -1354 0
971 1318 0
688 -871 0
-278 -1699 0
1362 -1732 0
446 -594 0
-1327 113 0
1742 -235 0
4 -1508 0
1092 1067 0
413 165 0
-1348 1523 0
-762 -106 0
-1162 875 0
257 -1749 0
-563 -312 0
-92 -794 0
788 769 0
253 712 0
1570 64 0
-659 1564 0
-908 1508 0
1195 708 0
980 -109 0
2 736 0
592 -1213 0
1266 -1563 0
1274 -875 0
332 561 0
736 -315 0
-1160 -189 0
813 1656 0
1510 957 0
1302 -81 0
5 -1006 0
-585 1460 0
437 -961 0
-998 108 0
-233 -434 0
978 1565 0
1647 -297 0
1490 -1506 0
518 984 0
602 -1253 0
374 -514 0
584 306 0
1694 853 0
1305 1337 0
563 -1351 0
-181 704 0
-777 -211 0
1753 -1738 0
-1298 459 0
1331 -598 0
619 375 0
1753 -1533 0
-1185 912 0
75 -1606 0
596 756 0
-825 -92 0
-142 -1259 0
737 -682 0
47 1672 0
636 852 0
-120 -1780 0
877 -572 0
62 -139 0
181 -689 0
-644 -1315 0
1634 -721 0
193 -524 0
1173 -45 0
-1418 1805 0
956 1669 0
-1096 -1306 0
72 -527 0
-1387 975 0
-235 856 0
1135 1101 0
-1238 -1284 0
-439 -1443 0
1270 1187 0
-1653 1095 0
1729 469 0
-1263 -1375 0
-822 1104 0
-1598 976 0
-1069 -730 0
14 1251 0
1618 1776 0
-679 927 0
-826 -1702 0
292 -1580 0
-865 -1633 0
-754 1318 0
-1248 1781 0
570 -951 0
411 1028 0
1084 -373 0
-512 527 0
-1288 -1060 0
-1104 1467 0
-891 -817 0
-678 1697 0
-1138 -1009 0
749 -49 0
-1419 -938 0
-350 -8 0
895 611 0
1539 -139 0
-1070 -1589 0
973 848 0
-534 -299 0
-1266 1045 0
217 -198 0
-1008 -1593 0
225 1355 0
1449 -939 0
-1440 -1553 0
1082 -956 0
896 1618 0
-352 -1791 0
221 -1623 0
-1446 1810 0
-728 -1099 0
1368 -1385 0
1301 -1287 0
824 -107 0
1618 1773 0
-1700 -916 0
-234 1094 0
-1070 1516 0
1634 1171 0
-233 -634 0
113 -1743 0
768 1609 0
-1604 1049 0
1408 1151 0
-639 -474 0
-1617 -1175 0
1143 -1275 0
-1684 -641 0
1318 423 0
1256 1595 0
-1338 -1327 0
-287 -1327 0
1746 -101 0
-658 301 0
1432 425 0
429 9 0
1298 -1590 0
-77 -1320 0
852 853 0
-434 -1640 0
1309 -1196 0
-1591 757 0
-88 -995 0
1307 -534 0
1378 885 0
-1012 -951 0
1227 165 0
-628 1798 0
-602 -1583 0
-1461 873 0
-1164 -1640 0
591 437 0
5 538 0
857 1057 0
-56 695 0
301 9 0
-1667 -1051 0
1452 -793 0
-1658 795 0
47 -322 0
-434 -652 0
219 758 0
94 -174 0
-1588 1444 0
1006 1507 0
-1396 566 0
201 -1089 0
1442 -995 0
1676 -410 0
-300 -585 0
549 1705 0
-11 1717 0
-346 596 0
1468 -418 0
195 -489 0
-1809 -577 0
-1141 1330 0
732 1343 0
1074 -1646 0
-1482 885 0
1573 1691 0
-1741 237 0
1466 1191 0
1555 -1731 0
-137 -1432 0
584 -175 0
-1786 -973 0
532 1408 0
965 -929 0
246 248 0
1187 -142 0
1670 -99 0
-340 -1511 0
-1300 -1508 0
84 1388 0
1115 1751 0
1210 -342 0
-654 74 0
-422 -843 0
78 -1199 0
1421 496 0
1247 -1736 0
475 801 0
1414 761 0
843 -1339 0
118 447 0
-1285 40 0
1469 -983 0
-1144 1751 0
847 -930 0
-1719 -1102 0
-1354 675 0
-219 1505 0
244 1399 0
-1458 1595 0
-536 829 0
1328 567 0
-1680 290 0
-964 389 0
1698 611 0
-203 538 0
-943 -557 0
1636 -1563 0
39 1260 0
1602 361 0
-1419 -772 0
1123 513 0
997 1502 0
721 -207 0
-619 991 0
-451 318 0
1261 -552 0
1787 -1800 0
-612 -663 0
1793 -57 0
199 -7 0
1467 981 0
-1706 1680 0
1291 -1185 0
-973 459 0
243 893 0
1592 486 0
-693 712 0
-1445 635 0
-32 1286 0
-1143 -1211 0
-1693 241 0
1662 1062 0
988 -1339 0
510 295 0
-764 -1718 0
444 -383 0
-710 -1658 0
-88 -1653 0
1263 -284 0
993 -910 0
-1096 260 0
417 -957 0
738 1457 0
-980 1481 0
1788 1793 0
1309 -279 0
862 -365 0
145 -736 0
33 -1697 0
1804 -1480 0
1192 1375 0
816 575 0
-1221 -662 0
-450 1762 0
974 -1616 0
622 1666 0
118 -762 0
1058 -1383 0
1320 -1039 0
1016 1315 0
-1292 -1379 0
1021 1177 0
1614 299 0
-390 1412 0
-919 -1077 0
-1366 -1754 0
1596 755 0
1726 -519 0
-593 -429 0
353 -437 0
1150 1782 0
-228 1327 0
-1405 -1569 0
655 547 0
621 180 0
-319 -1318 0
-309 694 0
362 -1355 0
-603 -1029 0
327 531 0
-272 313 0
-1065 329 0
1529 -30 0
-1121 846 0
1732 -323 0
1422 -1250 0
1156 -1356 0
327 -41 0
1084 -1046 0
-1324 -1308 0
203 1468 0
271 1298 0
1386 -114 0
1020 -529 0
944 57 0
1098 -86 0
-514 -126 0
-116 -1778 0
-1074 1457 0
1166 -1411 0
1715 1088 0
-447 706 0
1531 -488 0
101 764 0
1382 1678 0
-954 298 0
215 -1754 0
-1241 722 0
842 -86 0
1110 1010 0
62 882 0
-1668 648 0
-1436 -1374 0
-313 1549 0
-200 310 0
819 697 0
-334 -309 0
109 396 0
-1357 -1412 0
-893 -394 0
-1284 -1099 0
553 1079 0
1423 -576 0
561 405 0
1006 -220 0
167 -47 0
1168 -1201 0
-589 1649 0
-1590 -663 0
518 1507 0
-91 1438 0
930 56 0
-923 -1198 0
726 -335 0
992 -825 0
-1462 54 0
-159 148 0
1157 -414 0
1523 -791 0
-1758 -1588 0
1173 -1640 0
943 -383 0
1123 376 0
-1252 852 0
-691 1695 0
232 1154 0
1175 -1437 0
-1722 1396 0
396 -1284 0
-493 -1340 0
1422 -951 0
-1038 70 0
-374 249 0
296 1802 0
271 309 0
-505 1737 0
1061 1180 0
600 -174 0
-1667 -41 0
1424 -454 0
466 -1176 0
1325 1495 0
1409 378 0
-293 1745 0
-503 327 0
-468 -580 0
35 620 0
1177 744 0
1313 -1265 0
-1452 1707 0
-481 1240 0
464 258 0
-1136 1753 0
1110 1183 0
735 -229 0
9 1799 0
-1595 -421 0
1062 636 0
-919 1700 0
807 82 0
-121 -784 0
1291 821 0
1799 1331 0
6 1559 0
-346 -1073 0
527 1357 0
1582 1347 0
448 1213 0
-1579 -672 0
362 636 0
1108 -1236 0
-8 -265 0
-12 34 0
961 -622 0
704 122 0
1539 -1775 0
-692 432 0
382 1230 0
1694 -419 0
-58 -275 0
-1542 -946 0
367 1687 0
-508 459 0
746 -400 0
-1578 -1453 0
-1324 -66 0
-772 1533 0
1769 79 0
-796 1636 0
1422 533 0
-1354 -1785 0
-1440 -1231 0
1393 -1681 0
1093 1537 0
1328 795 0
1450 1618 0
-1240 1330 0
-614 -1460 0
-144 571 0
-1252 1369 0
-404 389 0
-272 -136 0
1160 -177 0
766 -810 0
135 813 0
-672 1264 0
-985 -1525 0
1198 1238 0
1279 -184 0
688 -1452 0
1186 -277 0
-307 66 0
-514 -1246 0
-63 -1175 0
-448 1157 0
943 -180 0
1770 -467 0
-371 -1148 0
561 -837 0
-795 1666 0
-565 1409 0
888 -1580 0
272 -683 0
1115 527 0
-1482 1440 0
-1185 355 0
1672 -1276 0
834 -176 0
-1351 -1114 0
-58 -117 0
-545 1272 0
-1598 803 0
614 -809 0
-828 728 0
-1285 -157 0
-1480 -494 0
-642 -355 0
-1247 24 0
481 1647 0
-1584 -87 0
197 243 0
-1315 -1022 0
1545 -958 0
1074 -874 0
1455 583 0
1615 195 0
241 -967 0
-10 -524 0
-509 214 0
408 615 0
283 -1383 0
-239 -1553 0
1068 100 0
1052 -405 0
-1257 -384 0
-404 -1252 0
1246 -412 0
1699 639 0
-208 664 0
-32 -906 0
1161 1747 0
1262 327 0
838 -1205 0
267 -1105 0
-443 516 0
962 17 0
1288 362 0
1781 -517 0
1013 -138 0
-1278 -827 0
-1321 -1049 0
1549 1592 0
1707 -429 0
10 -508 0
1159 169 0
492 1540 0
1201 227 0
-1491 -1558 0
864 -227 0
-1046 -845 0
1297 949 0
258 -1715 0
-1102 1483 0
-807 796 0
-172 -1253 0
1408 -1620 0
1152 -389 0
242 -461 0
-899 398 0
1170 528 0
-729 -272 0
418 -28 0
974 1567 0
-97 -1526 0
186 528 0
363 1656 0
-1181 -1243 0
-672 1726 0
1529 -744 0
850 -207 0
34 -1099 0
-236 -1159 0
1440 373 0
-672 -791 0
1643 504 0
-1321 -1255 0
-472 -550 0
1183 -833 0
-341 712 0
-1269 1236 0
1597 -1383 0
-1574 -1272 0
-324 -1750 0
-1305 -1529 0
1264 142 0
-1240 544 0
1192 1655 0
1700 1167 0
1030 1663 0
235 -950 0
231 440 0
-1285 -985 0
-1376 -185 0
-256 32 0
1139 1378 0
274 874 0
-1026 -426 0
-546 -140 0
-559 706 0
164 -1188 0
259 680 0
-232 -1223 0
-1372 864 0
-1324 1064 0
1035 731 0
1774 -925 0
-1335 1088 0
-654 1611 0
536 1100 0
890 -1303 0
-436 1174 0
-907 -1736 0
1770 262 0
-1809 275 0
-1336 -478 0
1698 452 0
-496 854 0
-329 -155 0
-159 516 0
1539 -887 0
1621 -1376 0
-547 807 0
-187 -323 0
1566 558 0
889 1302 0
-351 364 0
-1496 1229 0
-1405 530 0
-916 771 0
-1365 -1064 0
-1733 -400 0
-1664 -224 0
-628 1515 0
1332 1076 0
1308 767 0
606 -1649 0
-532 -1490 0
1513 737 0
1483 775 0
-831 -1247 0
-1583 965 0
-1405 694 0
705 -456 0
862 -1632 0
-910 1720 0
1382 875 0
1597 -1360 0
665 1693 0
-784 1085 0
250 1277 0
-709 967 0
-414 1477 0
1167 -1240 0
64 702 0
711 -451 0
-242 -1616 0
-634 77 0
938 -1427 0
-1370 -1184 0
-1086 1559 0
-236 639 0
563 -285 0
1533 379 0
744 431 0
-275 -1750 0
1057 1206 0
-388 345 0
1764 1330 0
-1580 756 0
-690 913 0
-1781 -1383 0
-868 -1602 0
-1000 83 0
372 -726 0
-1752 -666 0
1406 1344 0
1190 1192 0
75 -77 0
-46 -1561 0
-280 -1722 0
-1098 286 0
571 -1195 0
-1384 54 0
-1256 108 0
-948 80 0
-509 642 0
-1370 -1445 0
1365 1636 0
-115 -1280 0
1707 1257 0
-545 -908 0
-1138 679 0
930 -359 0
-434 139 0
-149 357 0
962 1590 0
214 -485 0
689 1022 0
207 1440 0
698 -1735 0
-303 -1186 0
764 527 0
-59 599 0
497 1100 0
584 -167 0
889 -516 0
151 -150 0
722 -116 0
1516 1230 0
1595 -1636 0
-96 -662 0
-1162 1531 0
-940 679 0
1703 -57 0
-1668 -1272 0
-950 685 0
-853 -1645 0
-958 -950 0
836 -692 0
-1294 -556 0
1179 -1355 0
801 -765 0
975 1514 0
-1471 1363 0
-34 1783 0
971 768 0
1209 -1126 0
-710 -536 0
-1514 -1227 0
-1565 -949 0
237 -1441 0
-1527 -1129 0
901 -1660 0
-454 -703 0
-1343 673 0
-1285 753 0
-984 437 0
1741 -696 0
-1070 1420 0
1172 262 0
-1759 -1633 0
-1084 892 0
1545 818 0
1096 -30 0
-314 240 0
1563 1274 0
-1687 1104 0
-1242 -583 0
-1219 1241 0
-1385 -1719 0
-1722 -1712 0
507 1176 0
552 -663 0
1563 -1651 0
-912 878 0
-1436 293 0
1737 897 0
1494 469 0
-1551 -484 0
-111 -811 0
-1616 1308 0
706 402 0
249 1209 0
747 -982 0
-604 -1130 0
-76 473 0
-110 404 0
1459 104 0
1488 1085 0
1007 258 0
945 293 0
1167 -1719 0
1746 771 0
-517 432 0
-1220 -411 0
-97 -127 0
555 -1012 0
-75 612 0
1753 -1707 0
-341 -1329 0
-68 -1042 0
-1441 -843 0
-625 769 0
1477 -51 0
1592 1586 0
94 72 0
258 -1141 0
1535 -317 0
651 -56 0
401 -626 0
1547 685 0
-540 1604 0
-1469 387 0
423 -1803 0
741 -80 0
-926 171 0
-321 702 0
-951 811 0
-4 -1208 0
-29 -1357 0
-236 588 0
1185 581 0
-98 571 0
-582 945 0
-1761 1749 0
1491 -310 0
305 1370 0
-690 1127 0
230 -1246 0
684 -1498 0
874 1420 0
1669 -690 0
-1785 1717 0
-94 -369 0
-567 752 0
-742 64 0
-1692 -1367 0
1257 -953 0
583 889 0
1556 -623 0
-932 -1097 0
-1510 -1205 0
-1029 1282 0
-1259 -425 0
-1772 896 0
895 -63 0
5 -1470 0
1279 -1271 0
-1164 -1355 0
1309 295 0
135 8 0
206 -652 0
-1195 608 0
-1140 688 0
-748 -372 0
-1506 -1750 0
1331 -1399 0
-1143 -240 0
-643 700 0
1334 1389 0
1493 -65 0
-1109 1547 0
-1144 1698 0
1263 1675 0
1034 446 0
1536 -336 0
92 565 0
982 1705 0
-106 166 0
-329 575 0
-1252 -83 0
-1383 456 0
1393 -1194 0
92 112 0
1323 382 0
1783 814 0
-1561 -1760 0
-1197 -1246 0
815 591 0
-946 -1011 0
-1652 1453 0
3 -430 0
974 358 0
-1365 1407 0
345 -410 0
337 1798 0
1171 -953 0
-1032 -1736 0
1684 1318 0
-1809 -1029 0
-1330 208 0
-429 812 0
351 1563 0
-1368 1764 0
-1511 -218 0
1614 -98 0
-1472 1078 0
930 -953 0
-1514 430 0
703 1063 0
1375 488 0
1092 -1213 0
-1053 1741 0
-681 -1094 0
879 1567 0
273 392 0
561 160 0
1034 -1347 0
1255 -1198 0
968 967 0
-891 -1029 0
95 -1765 0
389 -12 0
55 -244 0
340 -980 0
1772 1324 0
-222 -1486 0
-233 -646 0
-195 -1033 0
1299 746 0
1187 -244 0
-952 1686 0
-1793 216 0
1702 544 0
942 -1091 0
-1128 -716 0
-94 -1355 0
1566 1155 0
-426 -759 0
1283 -200 0
-1789 -1067 0
1279 -747 0
808 -320 0
-1764 34 0
-304 1325 0
-956 199 0
-659 -522 0
150 -709 0
-832 -896 0
-983 248 0
538 -1137 0
1636 1776 0
-381 1190 0
-1340 957 0
700 -786 0
1806 690 0
1507 1047 0
681 1351 0
-278 -1402 0
-45 416 0
362 974 0
-925 1071 0
1019 -1352 0
-224 1036 0
219 -121 0
-1785 -378 0
1463 -1249 0
-889 -724 0
343 24 0
1586 -541 0
-1398 -730 0
-1287 1186 0
78 -1547 0
-1137 -580 0
-1135 -341 0
736 -1007 0
810 -453 0
1045 -1461 0
-1012 706 0
1533 -425 0
104 -448 0
-1121 1219 0
-1191 1297 0
-1151 -1763 0
-1573 374 0
1743 -877 0
1081 1028 0
1526 -831 0
881 1669 0
-31 -1763 0
1077 1201 0
-173 805 0
509 1353 0
-1684 1415 0
1546 1140 0
475 -87 0
306 536 0
926 -676 0
1010 34 0
-97 -1162 0
282 -806 0
1661 807 0
869 4 0
967 1338 0
-1172 839 0
-1130 1658 0
1320 301 0
-1303 1421 0
245 1624 0
1080 158 0
-173 580 0
44 -414 0
1651 1526 0
423 4 0
721 1313 0
561 262 0
984 1060 0
-33 -1544 0
-1523 1351 0
655 310 0
1133 807 0
246 1278 0
409 434 0
1781 -1041 0
-1383 1012 0
-1718 -1241 0
1191 -1141 0
-330 -1209 0
-474 -1011 0
-1487 -201 0
1415 -811 0
1155 497 0
715 -1150 0
855 1707 0
-507 935 0
-1244 -1282 0
781 1161 0
384 1077 0
611 1216 0
-1254 18 0
1773 -1432 0
21 -939 0
-499 -1298 0
1282 1565 0
862 1716 0
-1484 1295 0
1438 23 0
600 1040 0
-1720 1154 0
-1432 1614 0
-39 1249 0
-1683 1299 0
1638 -1618 0
-924 1129 0
1421 -659 0
-1684 1431 0
-411 1108 0
-1239 -119 0
1224 -1105 0
680 -1094 0
-1476 -1430 0
1258 363 0
-1673 494 0
36 1016 0
-1265 1528 0
1588 -659 0
-1010 150 0
1237 613 0
-244 -1652 0
-1241 -1748 0
-406 1118 0
-1121 27 0
-117 311 0
368 -1150 0
-745 -1769 0
-881 1815 0
829 -1447 0
1393 523 0
-1495 -1114 0
542 1774 0
-806 -1561 0
-330 361 0
-1544 -91 0
-989 778 0
1757 -1383 0
-725 -1765 0
651 -686 0
276 898 0
-1331 -111 0
71 1098 0
184 -956 0
-527 -707 0
-778 902 0
1014 826 0
-436 -728 0
-361 1627 0
1331 880 0
808 511 0
789 -604 0
-144 1054 0
-275 -444 0
-739 397 0
-179 -1298 0
554 -1588 0
-449 -1050 0
-835 1783 0
-662 1078 0
-1252 1024 0
-696 -292 0
295 -1369 0
303 1486 0
358 744 0
671 1609 0
1508 429 0
1800 -1293 0
658 -1678 0
-1243 -1758 0
1402 -1792 0
-189 -126 0
357 1283 0
-1733 -175 0
1270 1387 0
-1484 -1511 0
1502 -693 0
-235 1034 0
1594 538 0
-114 1126 0
-244 -962 0
-990 -1657 0
301 1076 0
-56 1503 0
208 -164 0
155 -1551 0
507 666 0
-676 1793 0
-1576 248 0
1735 -364 0
-86 -1105 0
736 -1532 0
460 1187 0
193 1245 0
505 -601 0
-1228 177 0
-230 -1012 0
-894 1592 0
-1049 1559 0
1175 1529 0
-1181 1275 0
363 -713 0
1126 -369 0
-638 1318 0
973 -1444 0
-1725 -1701 0
-1203 -543 0
24 -1006 0
1165 1467 0
-827 222 0
-888 332 0
1648 1451 0
446 -1404 0
-1649 -1398 0
-1522 -330 0
1358 1259 0
-157 1062 0
-1031 -463 0
75 -1362 0
-1184 -297 0
1703 649 0
390 -1339 0
-1640 -1738 0
-1755 -367 0
-359 1524 0
-13 -657 0
-920 -1610 0
-1184 -1438 0
1251 240 0
636 1543 0
259 1521 0
-1099 770 0
574 332 0
1335 -556 0
1168 -212 0
-707 -1524 0
-1621 -1048 0
-220 1569 0
459 906 0
382 -1259 0
-1590 6 0
161 1266 0
-58 -1463 0
1108 -41 0
-1140 713 0
-1643 -1434 0
1260 1227 0
882 957 0
-534 -1206 0
83 815 0
-809 872 0
1744 1429 0
1302 1242 0
-1733 1540 0
612 -496 0
-1796 1362 0
156 -579 0
1704 -539 0
1599 -1099 0
-324 -1413 0
-1673 307 0
1075 1497 0
1420 -1664 0
1733 1116 0
-552 363 0
896 -336 0
-145 -1762 0
768 1523 0
-1243 1407 0
873 1189 0
1062 336 0
313 -1593 0
1378 758 0
-1581 1716 0
-1797 1265 0
1522 270 0
-179 343 0
1737 -1410 0
-1438 -677 0
-1103 -1731 0
-1629 -1406 0
1648 -1597 0
-412 1587 0
-1552 544 0
-509 663 0
100 1031 0
54 682 0
-1473 602 0
1109 -663 0
834 779 0
1733 782 0
1290 587 0
1592 -303 0
1517 -1587 0
-715 -1041 0
