c bounds 89 94
p cnf 460 874
-248 25 0
233 372 0
-243 427 0
-216 207 0
45 358 0
72 -129 0
-270 -456 0
35 62 0
-87 20 0
271 119 0
-94 283 0
309 -293 0
-195 48 0
-302 -154 0
34 36 0
205 1 0
-3 -254 0
368 81 0
195 376 0
77 -188 0
326 -102 0
-446 -361 0
-90 257 0
273 207 0
-134 148 0
393 439 0
31 -232 0
-225 354 0
378 -174 0
96 389 0
-257 322 0
68 49 0
-43 -99 0
-404 -295 0
-167 197 0
-302 -159 0
429 222 0
175 -422 0
-235 -168 0
-135 156 0
353 -18 0
-221 436 0
362 385 0
-247 416 0
-426 -448 0
-443 142 0
-261 339 0
387 -399 0
408 -241 0
-205 427 0
59 302 0
339 307 0
-163 -270 0
-124 -375 0
-125 -324 0
119 -318 0
-373 -416 0
-199 28 0
-432 -5 0
-8 -416 0
-381 -259 0
88 410 0
-402 -399 0
351 -391 0
-187 222 0
446 93 0
105 10 0
-70 61 0
389 145 0
325 -281 0
-392 -392 0
146 -82 0
-12 -120 0
240 -262 0
297 -149 0
178 -165 0
-16 -63 0
-453 292 0
93 -99 0
-460 94 0
354 -438 0
340 62 0
-298 -458 0
-431 -235 0
64 -90 0
138 238 0
-73 -52 0
93 105 0
454 12 0
-108 -86 0
-313 454 0
178 -124 0
-211 325 0
51 -210 0
297 218 0
424 153 0
-90 96 0
215 -152 0
233 -428 0
-380 173 0
-342 134 0
358 -447 0
339 400 0
-359 -64 0
214 389 0
-95 456 0
394 -218 0
-460 -311 0
81 284 0
438 -269 0
435 -431 0
-167 -269 0
-373 -85 0
196 319 0
305 87 0
199 77 0
416 292 0
-429 -256 0
395 -207 0
72 260 0
24 16 0
416 -249 0
-447 17 0
226 -407 0
-445 -420 0
322 -265 0
-103 127 0
-23 218 0
394 222 0
-167 157 0
357 371 0
-443 159 0
-380 456 0
-313 -359 0
73 -87 0
-26 -169 0
40 -20 0
-413 -243 0
228 -340 0
185 -335 0
-347 139 0
380 305 0
-399 -247 0
-401 231 0
69 155 0
-279 -226 0
77 254 0
-123 304 0
79 159 0
167 -23 0
258 -348 0
354 -367 0
-328 -246 0
448 378 0
-397 -101 0
88 -323 0
-8 -152 0
-210 -43 0
119 -234 0
-210 -176 0
6 112 0
-397 155 0
357 395 0
-7 -161 0
-236 -459 0
-52 -434 0
-363 -289 0
191 -211 0
297 -93 0
365 117 0
258 84 0
-363 -413 0
-345 140 0
168 -388 0
350 -155 0
-136 177 0
-12 219 0
102 -320 0
293 159 0
394 205 0
336 -397 0
-164 103 0
156 449 0
-380 -90 0
408 -24 0
-406 159 0
-178 237 0
126 376 0
204 290 0
384 441 0
-182 -304 0
-24 -403 0
-402 59 0
28 -371 0
17 -167 0
255 265 0
441 -218 0
165 -344 0
-332 -294 0
-212 -336 0
-70 -53 0
-181 -125 0
13 -12 0
-192 -38 0
-327 117 0
395 -169 0
-157 -267 0
-264 -362 0
19 -198 0
-212 429 0
-32 346 0
-83 128 0
-421 -150 0
143 -192 0
217 -108 0
-237 -442 0
-213 314 0
-293 344 0
88 135 0
21 130 0
346 295 0
-157 307 0
4 -66 0
-308 291 0
424 455 0
387 -390 0
1 127 0
-250 449 0
-123 -64 0
102 266 0
-165 -192 0
-373 -327 0
21 -107 0
-208 -7 0
449 6 0
-316 -355 0
-416 -361 0
-221 -410 0
140 9 0
102 194 0
-103 389 0
459 -107 0
384 -383 0
7 29 0
380 -298 0
-407 -288 0
406 -219 0
313 -409 0
-458 4 0
-327 433 0
40 318 0
-403 -430 0
6 263 0
-296 153 0
-82 231 0
-443 215 0
303 -336 0
257 149 0
208 -82 0
114 50 0
-216 -96 0
125 -63 0
-378 -79 0
-121 -23 0
170 -6 0
-78 304 0
185 92 0
441 91 0
-70 -110 0
-459 -303 0
308 -196 0
237 -224 0
66 81 0
12 133 0
-104 413 0
131 -74 0
279 -187 0
35 -150 0
360 -93 0
128 -365 0
351 214 0
-272 -403 0
306 -228 0
191 228 0
-152 297 0
-403 -60 0
159 -375 0
291 69 0
-437 -443 0
242 -390 0
184 271 0
392 61 0
172 267 0
-115 -26 0
68 55 0
-160 -116 0
-243 51 0
385 175 0
394 378 0
-192 335 0
-131 -102 0
-270 -386 0
-206 432 0
-115 297 0
117 -289 0
-309 -259 0
-55 -224 0
134 -81 0
-199 -209 0
-349 455 0
1 207 0
-6 -241 0
-151 -181 0
-455 81 0
20 43 0
157 198 0
-231 394 0
73 -271 0
130 -377 0
342 -321 0
-171 -263 0
126 -104 0
-241 379 0
-397 58 0
-135 -138 0
449 -411 0
145 226 0
394 376 0
3 198 0
-327 -17 0
-83 21 0
-23 -71 0
29 198 0
53 -161 0
-406 98 0
39 35 0
139 -397 0
82 61 0
1 -355 0
113 224 0
358 -141 0
-293 24 0
-453 53 0
-273 274 0
-261 -152 0
-157 -124 0
367 -423 0
72 149 0
-203 -317 0
77 -276 0
-427 267 0
224 -212 0
-284 -125 0
145 265 0
-95 -93 0
-99 93 0
-127 329 0
-348 -376 0
71 -307 0
-416 193 0
284 -412 0
24 -375 0
212 -381 0
47 98 0
2 266 0
174 -116 0
-2 229 0
288 386 0
211 351 0
-330 -53 0
21 339 0
407 456 0
-45 83 0
165 -268 0
324 -22 0
315 -383 0
-360 -285 0
-424 96 0
-37 36 0
40 -111 0
33 123 0
-82 -161 0
60 454 0
-162 88 0
315 353 0
59 97 0
394 -156 0
-182 -344 0
315 345 0
-55 -275 0
220 -421 0
-218 369 0
326 90 0
-38 427 0
434 378 0
-295 -212 0
114 -115 0
61 257 0
352 250 0
-135 -169 0
-248 57 0
295 -308 0
-366 -66 0
132 31 0
-422 296 0
436 173 0
-290 358 0
301 -338 0
-414 -446 0
-221 -358 0
-82 -284 0
7 -261 0
103 -417 0
-142 301 0
-281 331 0
-436 59 0
179 91 0
230 257 0
-116 227 0
134 -184 0
199 -414 0
-424 -451 0
-124 -29 0
-30 240 0
376 197 0
-203 170 0
133 80 0
191 -319 0
-347 376 0
-287 -101 0
-424 -320 0
133 398 0
230 37 0
178 179 0
-100 228 0
-176 397 0
315 -236 0
319 451 0
-313 331 0
-61 -190 0
-11 -85 0
-243 -252 0
-147 -163 0
-104 385 0
-15 443 0
-199 -58 0
-12 44 0
127 -371 0
-363 255 0
176 185 0
410 -331 0
248 86 0
325 -210 0
-341 82 0
-165 -434 0
123 408 0
-244 -126 0
58 -244 0
139 318 0
206 -263 0
-183 -298 0
-317 -30 0
-214 89 0
-138 31 0
-70 -19 0
-409 266 0
426 -87 0
198 54 0
-121 -423 0
408 439 0
-76 -362 0
60 189 0
448 435 0
251 -295 0
-432 -166 0
171 306 0
-367 35 0
-20 -210 0
-228 -146 0
-71 426 0
-200 -316 0
-307 -440 0
368 191 0
91 404 0
-30 -446 0
-397 365 0
-241 392 0
-458 280 0
-317 -73 0
60 -174 0
-106 -99 0
-112 -440 0
-251 438 0
224 35 0
6 -95 0
-368 49 0
48 -60 0
-162 195 0
-237 -434 0
-225 82 0
389 -359 0
454 429 0
-46 296 0
-29 -208 0
56 258 0
-164 114 0
426 391 0
-395 85 0
-417 -108 0
-247 -142 0
-375 213 0
332 -151 0
-372 408 0
-362 136 0
-438 -27 0
-437 -298 0
35 279 0
-69 365 0
329 -200 0
98 32 0
396 -319 0
122 148 0
98 58 0
-359 -106 0
115 -311 0
309 242 0
-309 -397 0
245 -357 0
-392 111 0
-415 -246 0
-38 -304 0
-294 34 0
51 363 0
279 -387 0
-263 -299 0
-30 -24 0
406 88 0
-210 219 0
-172 -407 0
-349 -293 0
-409 -53 0
-86 119 0
-80 -50 0
324 -62 0
331 -274 0
-92 -419 0
-381 13 0
-40 433 0
414 389 0
-11 292 0
89 -81 0
-385 86 0
-210 -397 0
-160 157 0
-396 -261 0
411 -298 0
-180 -250 0
177 376 0
121 313 0
-93 -254 0
-135 -115 0
-199 72 0
86 325 0
-426 -282 0
119 29 0
-143 436 0
-11 -250 0
-225 352 0
-108 55 0
-269 178 0
-80 142 0
-254 -449 0
131 132 0
-159 39 0
-332 219 0
278 -328 0
-264 76 0
-109 449 0
133 436 0
-53 129 0
207 -237 0
38 -142 0
8 -94 0
-129 -336 0
-335 33 0
18 -413 0
-333 -432 0
444 127 0
-330 -184 0
366 444 0
-390 -99 0
-62 410 0
229 -224 0
36 114 0
-409 -30 0
-398 29 0
-60 -453 0
227 -208 0
-314 -199 0
86 -423 0
-201 -253 0
-405 395 0
117 245 0
438 71 0
288 323 0
-343 -55 0
-77 387 0
313 167 0
376 -305 0
-158 394 0
-234 208 0
-295 -336 0
-408 345 0
-190 -209 0
-50 85 0
310 -36 0
-20 -424 0
283 -281 0
-166 309 0
-225 148 0
290 314 0
137 26 0
105 172 0
305 394 0
155 157 0
-154 438 0
-431 -239 0
-126 313 0
271 -442 0
305 -422 0
-404 -270 0
-241 244 0
-121 4 0
275 -114 0
-362 -100 0
-182 96 0
159 336 0
-240 360 0
410 310 0
-161 89 0
130 413 0
-260 -442 0
287 -210 0
77 -322 0
-266 308 0
-399 422 0
-312 421 0
-58 37 0
194 268 0
387 -386 0
-67 136 0
132 -282 0
-229 387 0
51 -71 0
-259 -448 0
413 -235 0
394 -175 0
-27 -195 0
81 117 0
-127 200 0
368 -235 0
314 -302 0
-57 -296 0
200 98 0
16 178 0
-232 -231 0
-88 61 0
438 127 0
199 50 0
-388 64 0
242 -14 0
-282 -237 0
-256 -162 0
-65 192 0
263 -442 0
-334 251 0
406 -273 0
78 -132 0
-432 369 0
-145 -157 0
140 444 0
-126 -218 0
-5 -333 0
376 364 0
268 144 0
-167 -259 0
-408 -176 0
-176 150 0
279 -120 0
-412 359 0
354 235 0
145 -332 0
168 -101 0
111 -417 0
134 305 0
93 -309 0
422 376 0
-192 -284 0
60 238 0
-101 435 0
-400 444 0
222 455 0
-184 -254 0
-150 85 0
-23 -4 0
98 -259 0
-276 165 0
161 209 0
-45 -203 0
-402 116 0
-235 219 0
-327 313 0
-187 275 0
-64 -57 0
427 -167 0
-266 270 0
372 -404 0
-268 -441 0
-94 -203 0
400 228 0
-15 360 0
-76 262 0
103 -121 0
-341 318 0
296 376 0
-332 170 0
6 32 0
-456 -123 0
-175 -420 0
258 -121 0
288 -308 0
-285 439 0
-61 24 0
92 -224 0
246 137 0
-371 238 0
196 1 0
-107 449 0
-284 17 0
161 -390 0
304 51 0
-107 -196 0
233 -225 0
412 427 0
163 255 0
186 -237 0
-386 267 0
127 -125 0
315 -65 0
-45 35 0
-142 -210 0
178 -252 0
173 -117 0
227 394 0
-327 107 0
-302 -202 0
274 -282 0
445 -7 0
28 -164 0
247 372 0
-263 -5 0
-390 -430 0
-251 -361 0
-341 -446 0
257 -318 0
83 -4 0
457 203 0
257 -348 0
-287 98 0
34 309 0
-407 359 0
-397 384 0
426 -192 0
-61 -115 0
-417 174 0
306 -164 0
-268 -238 0
198 -70 0
328 276 0
-303 100 0
-333 458 0
-292 145 0
354 -200 0
2 -423 0
112 140 0
-163 -229 0
139 60 0
-413 454 0
-192 -45 0
354 21 0
-45 391 0
33 -166 0
-268 -15 0
128 -278 0
408 198 0
-341 -420 0
139 122 0
-424 -326 0
-164 178 0
176 145 0
-301 -422 0
-358 -407 0
-158 448 0
459 154 0
84 354 0
-8 16 0
-425 37 0
-178 -252 0
-337 -87 0
-312 -78 0
205 40 0
-313 -359 0
-411 -212 0
-308 324 0
228 -307 0
252 220 0
140 -423 0
-215 -271 0
-79 -64 0
36 384 0
-107 -25 0
150 367 0
-261 234 0
385 3 0
18 -432 0
-166 -151 0
211 347 0
-287 -38 0
80 -253 0
-302 -359 0
-207 28 0
164 -416 0
261 43 0
258 -307 0
198 -455 0
100 133 0
155 296 0
18 -418 0
80 -383 0
295 459 0
304 -453 0
395 -409 0
28 74 0
-281 -80 0
232 63 0
9 -383 0
132 229 0
-106 -54 0
-403 -30 0
-355 -229 0
394 -45 0
174 33 0
-402 98 0
-47 237 0
-293 231 0
-260 426 0
-422 -233 0
-240 -146 0
330 186 0
352 -128 0
134 -23 0
-164 -63 0
155 347 0
-364 -250 0
368 441 0
-281 275 0
-440 418 0
11 -30 0
352 -226 0
213 8 0
450 -69 0
-59 275 0
-101 -311 0
319 274 0
