c bounds 46 46
p cnf 370 1147
-39 -55 0
-7 -205 0
-110 10 0
238 -193 0
237 -172 0
324 -233 0
225 370 0
91 128 0
-125 -273 0
-33 -278 0
-103 172 0
-323 76 0
-332 164 0
320 -223 0
-214 -314 0
-42 26 0
3 -200 0
278 -258 0
211 45 0
186 -140 0
-105 -281 0
3 237 0
154 -317 0
-7 353 0
317 267 0
3 97 0
-54 274 0
-273 -225 0
249 -248 0
-339 359 0
283 -271 0
-251 331 0
312 -27 0
329 -330 0
249 342 0
92 -166 0
347 -22 0
126 107 0
355 -306 0
346 -55 0
-289 -5 0
-295 -210 0
21 368 0
28 243 0
-274 -151 0
240 -251 0
282 247 0
-14 302 0
-64 -354 0
-169 189 0
229 14 0
140 -221 0
361 357 0
10 -122 0
-134 -24 0
-49 -167 0
-354 11 0
-113 273 0
-256 -131 0
-164 -112 0
338 99 0
-85 -81 0
-197 60 0
-335 148 0
204 -262 0
-283 -174 0
-45 -314 0
369 319 0
193 357 0
241 123 0
-358 -256 0
-82 306 0
-364 -218 0
153 208 0
-358 51 0
-158 221 0
255 276 0
15 -157 0
194 290 0
-137 -231 0
-320 176 0
11 342 0
-356 -221 0
286 -150 0
286 109 0
91 -279 0
110 103 0
-80 367 0
-36 191 0
-187 -53 0
152 -199 0
-339 95 0
-181 -129 0
-168 181 0
-288 304 0
-82 -179 0
133 124 0
357 -198 0
91 -156 0
-241 -332 0
290 -205 0
-192 -333 0
261 -288 0
-272 -239 0
-236 -66 0
23 370 0
38 -177 0
3 20 0
-36 48 0
293 -93 0
185 270 0
162 1 0
244 335 0
-187 366 0
-126 194 0
-288 213 0
4 138 0
-352 -55 0
209 -70 0
-1 311 0
292 -42 0
-7 169 0
-340 -21 0
-346 -126 0
332 307 0
-223 -268 0
153 291 0
171 -333 0
298 -321 0
37 -283 0
-277 -126 0
86 -12 0
177 322 0
195 -97 0
255 -170 0
-290 186 0
-129 -196 0
-245 370 0
21 -341 0
276 362 0
71 236 0
-138 220 0
-239 189 0
-179 -297 0
15 175 0
284 304 0
177 -162 0
166 84 0
-125 -103 0
-239 -236 0
73 201 0
240 116 0
280 -183 0
172 -89 0
-195 -109 0
-199 -352 0
190 181 0
-259 -97 0
60 -195 0
46 57 0
-333 -344 0
328 142 0
121 361 0
-265 -164 0
-65 -196 0
-41 -166 0
148 -173 0
90 -356 0
332 360 0
-211 60 0
320 -268 0
-19 -48 0
-297 -189 0
84 -130 0
-174 40 0
336 103 0
-309 -306 0
-331 52 0
-177 -296 0
69 -74 0
-108 -178 0
-6 236 0
49 312 0
-107 -353 0
348 -183 0
345 120 0
-178 -316 0
-174 -43 0
69 -24 0
-320 70 0
-164 -32 0
-217 -344 0
65 294 0
-214 62 0
276 232 0
67 -80 0
309 -206 0
-275 185 0
138 -52 0
64 38 0
-266 303 0
6 -112 0
114 32 0
227 54 0
-8 -96 0
-280 4 0
-67 185 0
-117 -330 0
169 -271 0
-77 -223 0
320 -309 0
211 -129 0
-108 -170 0
343 -361 0
124 143 0
121 172 0
-200 -160 0
-60 -16 0
-83 -134 0
-100 98 0
24 -318 0
79 -179 0
-199 134 0
-298 -244 0
317 58 0
-313 -55 0
-79 182 0
-344 69 0
18 60 0
-212 -18 0
70 -2 0
357 -251 0
-12 5 0
131 360 0
-260 -135 0
87 355 0
296 289 0
246 -91 0
50 -170 0
365 -180 0
149 222 0
-66 -261 0
-285 -356 0
-290 -23 0
-127 -153 0
261 -111 0
-160 59 0
-162 74 0
346 120 0
237 -176 0
207 99 0
212 -180 0
129 155 0
-133 229 0
26 -349 0
95 293 0
-74 -257 0
-197 302 0
170 1 0
70 104 0
154 -236 0
-180 95 0
186 -165 0
-209 -301 0
-210 285 0
-196 104 0
216 -174 0
276 264 0
-99 229 0
225 -332 0
-117 61 0
-260 4 0
-217 -91 0
-149 -43 0
156 142 0
242 285 0
-291 -317 0
187 236 0
178 4 0
63 -277 0
313 213 0
-225 -363 0
355 -21 0
-131 -336 0
-315 101 0
5 299 0
258 21 0
190 19 0
-232 9 0
-127 -150 0
28 -257 0
114 189 0
202 246 0
179 -82 0
-55 263 0
-129 -273 0
349 154 0
89 95 0
19 -30 0
-233 -266 0
255 -234 0
-321 115 0
-217 -289 0
-31 41 0
-259 -243 0
173 -243 0
-44 -319 0
209 163 0
86 183 0
79 -24 0
-34 -238 0
218 47 0
69 141 0
50 -263 0
-344 -232 0
266 120 0
287 312 0
186 -277 0
-295 2 0
182 -362 0
-123 336 0
268 18 0
302 9 0
208 276 0
-318 -321 0
49 -224 0
-161 -234 0
-36 355 0
36 242 0
-136 -25 0
-199 -342 0
-127 -48 0
-48 27 0
-226 152 0
99 156 0
6 -222 0
-175 208 0
27 99 0
-364 -270 0
-43 28 0
3 147 0
-200 -160 0
306 -287 0
-291 275 0
-317 37 0
182 -16 0
-18 226 0
110 -89 0
86 87 0
-166 -183 0
246 -234 0
-102 326 0
194 151 0
-224 -102 0
-231 -100 0
14 -152 0
-63 -303 0
-225 182 0
176 -150 0
-81 248 0
-339 -246 0
-298 -268 0
269 -346 0
-234 -183 0
-123 -300 0
-251 -55 0
249 -115 0
-66 314 0
-348 351 0
-308 -333 0
-161 -34 0
-143 324 0
186 229 0
-305 125 0
220 -332 0
-53 208 0
-6 -215 0
155 -93 0
255 230 0
-217 359 0
-138 -134 0
1 96 0
-348 104 0
140 -221 0
181 114 0
224 261 0
172 -168 0
102 -170 0
-31 112 0
89 -200 0
-9 -165 0
-262 -63 0
-165 77 0
-271 198 0
157 280 0
282 -225 0
342 233 0
-167 81 0
-275 -292 0
-97 -74 0
113 -158 0
-291 -111 0
-98 -361 0
71 340 0
-12 -186 0
-210 220 0
-303 -92 0
-281 -25 0
-129 113 0
-287 -192 0
-39 264 0
-25 123 0
218 -174 0
74 15 0
-248 -130 0
329 334 0
61 -176 0
95 -263 0
154 295 0
349 -219 0
83 -252 0
-183 -128 0
260 132 0
-125 -134 0
212 -295 0
-177 1 0
60 14 0
318 -97 0
-164 279 0
222 366 0
-82 227 0
-330 94 0
116 68 0
-292 -21 0
-117 -230 0
173 366 0
347 59 0
236 58 0
-270 57 0
278 242 0
360 89 0
-213 6 0
347 2 0
-287 -367 0
-244 -39 0
211 135 0
339 370 0
-273 -173 0
-170 -295 0
-116 335 0
-289 -8 0
-224 176 0
-148 14 0
7 278 0
241 278 0
-224 188 0
136 296 0
-274 304 0
-111 204 0
-53 -74 0
27 -108 0
-285 -99 0
-183 181 0
-167 -232 0
13 99 0
-18 27 0
-19 118 0
248 -24 0
41 272 0
-34 -153 0
-76 -247 0
-329 -202 0
-219 -180 0
52 -170 0
-21 -234 0
-258 264 0
-277 117 0
-211 -315 0
-43 -210 0
-55 -114 0
-210 -70 0
-8 -81 0
164 -169 0
57 216 0
-219 -129 0
121 -38 0
-10 32 0
134 -325 0
-66 -227 0
-303 -177 0
-81 -43 0
-263 3 0
311 -233 0
272 282 0
-96 194 0
65 -130 0
-6 -18 0
302 187 0
-82 -121 0
-42 209 0
313 -166 0
132 -202 0
-237 -58 0
211 340 0
-67 212 0
159 -316 0
328 -205 0
-325 -113 0
190 187 0
-196 -223 0
278 -113 0
-209 -76 0
-43 -170 0
-212 41 0
-299 -336 0
-179 -39 0
-233 -337 0
60 138 0
-135 164 0
-137 309 0
228 -225 0
246 89 0
19 38 0
299 -189 0
242 -91 0
-269 252 0
-35 207 0
3 30 0
261 41 0
37 -226 0
-348 266 0
302 -210 0
-263 -67 0
-85 312 0
-146 116 0
190 236 0
-164 208 0
-135 -213 0
218 201 0
-340 37 0
-22 370 0
359 -236 0
262 351 0
338 -202 0
155 183 0
216 123 0
335 -253 0
252 219 0
-266 -307 0
171 -52 0
136 163 0
163 343 0
77 -59 0
-50 -212 0
-9 236 0
241 -130 0
-133 227 0
-288 171 0
-164 -63 0
-211 13 0
-353 10 0
-254 -109 0
-42 -161 0
347 138 0
-323 -179 0
329 27 0
36 -23 0
-1 -288 0
-297 -235 0
-89 -126 0
324 -153 0
227 -25 0
-323 -223 0
201 -369 0
-95 -193 0
46 306 0
-314 -244 0
-39 308 0
279 10 0
-358 107 0
159 186 0
278 -245 0
-213 -174 0
-162 360 0
-146 -331 0
265 -199 0
-311 155 0
349 -212 0
-122 259 0
-25 -250 0
278 204 0
-9 29 0
-267 28 0
-315 -160 0
370 -117 0
-327 -180 0
187 -342 0
112 204 0
-258 175 0
306 -318 0
-229 -127 0
344 198 0
250 -76 0
-280 149 0
153 241 0
263 -11 0
-161 -129 0
71 276 0
121 103 0
-32 173 0
-279 57 0
5 256 0
186 139 0
-318 -24 0
-230 -174 0
337 294 0
-9 286 0
-48 -291 0
267 283 0
-166 176 0
-174 185 0
-165 -285 0
237 -177 0
341 -291 0
141 -70 0
159 -354 0
69 -328 0
-254 188 0
-103 -32 0
-367 -291 0
-135 -243 0
138 278 0
-258 211 0
70 -33 0
78 -260 0
229 -166 0
362 75 0
-82 -142 0
215 -196 0
342 -108 0
-287 -300 0
-156 -330 0
331 304 0
77 -262 0
-273 2 0
-350 -71 0
258 -346 0
-296 139 0
-10 26 0
341 -362 0
-120 -228 0
-44 -174 0
91 358 0
-151 -336 0
74 54 0
194 296 0
189 -151 0
359 191 0
267 -353 0
302 143 0
-346 301 0
-350 304 0
-70 143 0
-90 -45 0
279 12 0
351 -356 0
-263 229 0
307 339 0
-331 -129 0
-144 -292 0
227 191 0
-108 140 0
-303 -270 0
-288 -16 0
-344 194 0
118 237 0
169 261 0
-243 44 0
-122 -224 0
-79 355 0
-363 321 0
255 286 0
-31 279 0
229 -367 0
245 -6 0
-133 278 0
51 -53 0
-39 60 0
-138 290 0
-271 190 0
195 15 0
134 -113 0
4 310 0
-174 38 0
208 -172 0
327 19 0
-248 -160 0
176 -365 0
-350 -72 0
-259 -230 0
330 181 0
-139 171 0
-354 347 0
-81 96 0
-122 21 0
164 15 0
-44 -291 0
-194 365 0
92 101 0
139 -360 0
141 -19 0
120 -210 0
-65 -353 0
147 186 0
4 290 0
-146 -298 0
361 -171 0
227 164 0
-309 69 0
96 -285 0
116 51 0
160 -256 0
270 1 0
167 327 0
-51 362 0
-139 -174 0
88 -353 0
-62 67 0
79 -82 0
216 77 0
-76 -52 0
370 -365 0
-160 -170 0
367 367 0
109 -42 0
-93 327 0
262 -244 0
-9 198 0
-288 336 0
77 -151 0
19 278 0
-131 23 0
319 -11 0
-349 -316 0
261 -287 0
131 -34 0
-238 331 0
258 -136 0
59 -177 0
315 152 0
-111 -33 0
-77 -256 0
21 296 0
360 143 0
-8 11 0
-75 -109 0
-11 311 0
-226 -16 0
14 346 0
-163 -8 0
343 175 0
107 -301 0
-22 -287 0
60 -60 0
-172 293 0
153 -241 0
-151 92 0
-177 276 0
-270 -310 0
57 -121 0
11 336 0
24 14 0
-65 -16 0
-94 252 0
46 17 0
-314 -41 0
-111 -41 0
248 -234 0
1 -223 0
362 -127 0
-11 -211 0
-45 278 0
-57 -258 0
-122 -36 0
-230 68 0
333 32 0
-45 19 0
-362 -230 0
-80 323 0
26 356 0
366 -125 0
-127 -333 0
290 105 0
156 244 0
-220 -308 0
-192 -348 0
120 -19 0
209 -197 0
-240 -234 0
263 -164 0
-313 -251 0
-53 2 0
-120 -284 0
-162 -12 0
122 -221 0
-303 -232 0
-41 293 0
348 -177 0
-341 154 0
-370 -352 0
-167 -97 0
-230 104 0
-315 -319 0
38 133 0
9 119 0
-280 207 0
-82 -284 0
-112 114 0
250 -174 0
194 237 0
328 -234 0
-18 359 0
-134 -182 0
-28 265 0
-263 -242 0
182 -144 0
188 -18 0
-33 -352 0
-8 295 0
361 -157 0
-101 14 0
-109 154 0
-357 -271 0
356 -8 0
219 -24 0
242 45 0
-88 -145 0
71 204 0
-197 -254 0
-239 -77 0
252 69 0
302 137 0
362 186 0
-186 279 0
-43 -212 0
331 -82 0
-301 -340 0
-198 203 0
6 211 0
123 61 0
-332 360 0
366 130 0
-83 84 0
-300 -329 0
-364 -49 0
15 -107 0
19 7 0
353 322 0
-259 -345 0
117 -31 0
272 163 0
-302 313 0
-167 -143 0
-8 190 0
111 -136 0
310 140 0
138 -268 0
77 -10 0
-313 123 0
-339 -272 0
78 40 0
188 302 0
-96 -333 0
337 139 0
-330 -80 0
97 -345 0
15 50 0
-49 312 0
-79 186 0
-18 221 0
9 270 0
-66 -63 0
-308 88 0
293 -229 0
57 -6 0
-299 184 0
-66 -50 0
-16 195 0
-246 143 0
-176 -108 0
-65 -126 0
-352 287 0
-169 -52 0
78 -272 0
112 362 0
253 347 0
-300 -313 0
355 245 0
-289 41 0
-63 322 0
82 60 0
84 311 0
132 -339 0
-343 307 0
42 -167 0
-161 335 0
32 -202 0
125 -155 0
-162 -62 0
-353 -63 0
229 194 0
-258 177 0
11 -169 0
56 92 0
40 112 0
-234 47 0
46 366 0
-8 331 0
15 -150 0
68 -332 0
-131 92 0
-285 -125 0
152 360 0
10 216 0
-186 -9 0
124 -6 0
161 -76 0
153 -11 0
20 -285 0
-206 64 0
72 -234 0
128 -133 0
-301 -192 0
154 -94 0
-305 -54 0
-261 141 0
342 -54 0
136 -89 0
-196 225 0
331 127 0
-206 175 0
-239 17 0
301 220 0
-141 119 0
-232 134 0
-258 -208 0
220 188 0
266 -202 0
57 88 0
105 119 0
-81 209 0
-205 -166 0
-298 286 0
-23 -102 0
199 -101 0
216 163 0
-287 -156 0
-110 37 0
2 46 0
-197 278 0
347 271 0
-18 142 0
75 255 0
313 66 0
291 182 0
287 -363 0
-55 253 0
-158 299 0
63 140 0
-134 -40 0
-287 -333 0
325 60 0
232 120 0
-220 -354 0
276 -257 0
-277 45 0
-352 -176 0
338 247 0
35 -94 0
-52 138 0
304 68 0
-159 -31 0
116 247 0
154 -253 0
-99 -131 0
-231 278 0
244 -39 0
-28 -42 0
304 237 0
-275 -225 0
219 -42 0
-113 148 0
-179 188 0
-161 71 0
61 -291 0
119 -148 0
-221 99 0
-240 157 0
272 182 0
-366 248 0
190 -224 0
-82 -352 0
356 -20 0
-356 109 0
143 265 0
242 -297 0
-247 -167 0
319 327 0
12 334 0
-263 -54 0
192 201 0
236 205 0
-146 -232 0
-74 116 0
322 126 0
-64 -319 0
209 280 0
247 -111 0
220 -36 0
-90 -339 0
279 -205 0
369 -254 0
-339 46 0
177 -193 0
-50 -115 0
-197 171 0
-189 -90 0
340 245 0
285 3 0
-180 269 0
-134 150 0
-99 302 0
-145 -21 0
216 -281 0
250 -223 0
-311 312 0
369 247 0
190 118 0
250 312 0
368 -195 0
-298 -356 0
-297 -104 0
-242 45 0
38 -122 0
-243 208 0
121 -130 0
230 120 0
276 10 0
-53 -21 0
-260 40 0
-291 -140 0
-24 -223 0
125 234 0
-77 -23 0
209 226 0
-301 -289 0
335 -171 0
27 217 0
-246 124 0
-277 -94 0
14 218 0
-126 148 0
-329 -193 0
-87 26 0
-244 317 0
182 261 0
84 139 0
296 -232 0
255 -39 0
278 -155 0
334 -179 0
95 -86 0
321 264 0
193 -287 0
60 -263 0
21 178 0
-276 349 0
171 152 0
4 -121 0
212 -179 0
352 -113 0
280 357 0
77 5 0
147 171 0
-251 -261 0
28 317 0
-263 142 0
138 -273 0
-214 206 0
-109 106 0
46 109 0
56 353 0
291 -166 0
342 -358 0
5 -130 0
-218 -103 0
-51 -137 0
-190 -62 0
-190 -55 0
-274 1 0
-18 110 0
-75 204 0
268 -128 0
336 214 0
56 -231 0
248 1 0
-242 185 0
205 -72 0
290 -110 0
125 -145 0
270 -337 0
-102 -222 0
-130 -154 0
324 271 0
-169 364 0
-60 -308 0
259 70 0
86 -62 0
-112 275 0
-58 43 0
86 311 0
-52 61 0
75 -82 0
327 333 0
11 32 0
-257 150 0
-66 185 0
219 -125 0
71 299 0
363 59 0
172 -319 0
-226 -202 0
186 -315 0
-256 -58 0
77 202 0
-179 -325 0
-21 128 0
-162 -60 0
-291 365 0
-191 -20 0
-303 104 0
217 -162 0
-190 -300 0
51 329 0
-66 -335 0
-33 304 0
333 326 0
