c NF
p cnf 4755 20922
1585 4442 0
341 4710 0
3781 -2444 0
-4427 1782 0
4455 4307 0
-1575 -781 0
-4177 42 0
769 1650 0
1115 3918 0
653 1050 0
2407 -2018 0
-65 -11 0
1762 -283 0
4735 3559 0
1829 -3670 0
-1566 790 0
-759 4196 0
-787 -3474 0
-3615 -3526 0
3882 1909 0
2700 4028 0
-4165 -4718 0
4532 4 0
3536 -1365 0
-4541 728 0
-3296 -2599 0
-3161 3405 0
-2065 -1274 0
-390 4616 0
-1766 -2917 0
3816 2426 0
-482 3067 0
-307 -447 0
-1355 3474 0
2877 59 0
4338 546 0
-4580 -275 0
2392 766 0
388 1916 0
-598 566 0
-4715 1417 0
3362 3793 0
-2798 -3616 0
3498 -2075 0
4423 2809 0
-442 -717 0
1832 -2668 0
2507 479 0
2849 -3213 0
-2562 -870 0
-2706 -1825 0
-1134 1181 0
-1552 -880 0
-2794 228 0
-1274 -662 0
1618 1338 0
-4599 -2291 0
-3117 -1140 0
4204 -3634 0
1978 -1114 0
2846 3741 0
-3987 -2129 0
1476 -3484 0
-4505 3485 0
-2475 -1380 0
3932 -415 0
3620 4520 0
4041 2225 0
2181 4644 0
1869 3898 0
-3939 1251 0
1724 -1805 0
-657 2736 0
976 -1157 0
3566 3181 0
4658 1002 0
805 -1709 0
-1853 3374 0
-312 559 0
-1982 -99 0
-4115 3469 0
3288 -2192 0
84 2828 0
-757 -3851 0
-1494 124 0
805 2809 0
-2508 1468 0
4198 -3369 0
3420 -553 0
1010 1476 0
4555 3274 0
-1747 3727 0
633 2734 0
-1351 1785 0
4215 2092 0
1024 3392 0
1146 -2289 0
1652 -4285 0
-3956 4356 0
562 3833 0
-632 -1189 0
-3836 -4112 0
1679 -3884 0
1746 -1121 0
-2283 -1656 0
-3319 559 0
-893 2513 0
2790 -694 0
3288 3942 0
-1952 2965 0
-635 1802 0
3807 -3975 0
-2182 -389 0
4460 -4449 0
-4648 -3303 0
-1105 1013 0
-3794 3117 0
2310 1900 0
4751 137 0
-1089 -2422 0
-3441 -3704 0
-2860 -1206 0
3658 -2357 0
-1348 -2207 0
-1969 -432 0
-3718 3697 0
-214 -1042 0
-3643 475 0
565 -4180 0
-200 -1894 0
-1509 1803 0
-313 3722 0
1402 -1933 0
-2023 1228 0
332 503 0
2567 -1442 0
3977 -664 0
4589 -4382 0
-4601 -4048 0
116 3779 0
-1261 774 0
3918 -4193 0
-1107 4177 0
-1875 -3442 0
-3773 -24 0
334 -2658 0
1333 1564 0
-531 3089 0
2117 -2756 0
-1953 -2182 0
-3822 -2376 0
1670 -2786 0
-1963 483 0
-4624 -3456 0
-1208 886 0
-3233 4358 0
1683 758 0
3977 -2179 0
2088 892 0
-3002 1320 0
229 -593 0
-4267 -4095 0
-1918 2461 0
-1519 -3205 0
-3130 2354 0
1312 40 0
-2594 -3428 0
3488 4375 0
-1134 -2304 0
-2734 -1671 0
-3595 -954 0
606 -112 0
-1880 -3520 0
985 -679 0
2938 -2093 0
3998 590 0
701 830 0
-2410 -143 0
-3199 1301 0
-2304 -4690 0
689 2850 0
1463 3003 0
-3321 -3143 0
1757 1903 0
-1361 -1707 0
1599 3877 0
-1713 973 0
1983 -1502 0
2809 3123 0
-3633 -2691 0
-4104 -1662 0
-3338 -2609 0
-898 -4718 0
-1734 -2788 0
2875 1995 0
-3494 55 0
-4441 2901 0
4145 -1050 0
1834 2045 0
3755 -3962 0
475 -4315 0
-293 1601 0
-4732 -1254 0
4486 -932 0
-3722 -182 0
-3806 -1246 0
2340 -2166 0
-2905 -433 0
-1131 -4704 0
1090 4023 0
3294 1616 0
3011 -130 0
2167 -404 0
348 3964 0
2337 1885 0
-2167 109 0
4651 -3141 0
2532 -2788 0
1032 -4090 0
-3713 -1127 0
3978 2545 0
3566 4045 0
-3758 1337 0
-3159 4053 0
343 -1699 0
-4095 1174 0
1522 255 0
4142 2912 0
583 3040 0
-2872 1090 0
-2314 -81 0
1674 -280 0
1786 -3744 0
-4483 1556 0
-4067 -4363 0
-572 -2003 0
3455 -3873 0
-208 -4434 0
-1692 -1419 0
-4229 3649 0
-1596 -2341 0
-883 4456 0
-859 838 0
-3106 3071 0
-2494 3214 0
-3792 -1513 0
-1442 -1504 0
-351 1172 0
-2450 3410 0
2074 1486 0
-2720 -4217 0
-3062 -92 0
4216 369 0
-1139 74 0
-2496 -2977 0
1777 1033 0
4480 1014 0
1999 2127 0
1123 885 0
251 -2024 0
-3177 -4091 0
-1470 3102 0
-3233 -4011 0
2223 2715 0
-1739 2165 0
617 -128 0
2751 -4532 0
4230 -2003 0
-662 -2643 0
-4707 1416 0
-1015 2494 0
-1500 -475 0
290 1384 0
-1753 419 0
829 3375 0
-4398 97 0
2031 -965 0
-4673 1783 0
1116 2702 0
4742 -4230 0
818 -3212 0
9 3906 0
-1700 -182 0
1365 -4059 0
518 233 0
356 265 0
-4743 -3770 0
4635 675 0
-1550 2493 0
-1467 1976 0
1298 -3627 0
3608 4039 0
-2875 4568 0
-791 3271 0
-1490 2225 0
-3176 3795 0
-2282 549 0
791 3533 0
-154 4454 0
1591 143 0
-3665 -494 0
2877 218 0
-4682 -180 0
-158 -3927 0
275 1659 0
-3899 -1027 0
-3709 593 0
323 -3215 0
2546 3435 0
-4687 -1238 0
1024 1925 0
2721 641 0
538 3109 0
-2528 -827 0
-2134 -1425 0
565 -3664 0
-3641 1729 0
-594 -752 0
-2956 1913 0
-4018 -2981 0
-1097 704 0
-1224 2571 0
-711 -3462 0
-2658 -721 0
4193 3033 0
2857 -3939 0
4307 1988 0
3598 -1789 0
-3115 3191 0
2210 -1112 0
-4626 -4088 0
-1137 -2319 0
1938 343 0
1999 4119 0
-1825 754 0
-2233 -2041 0
-1651 -978 0
2148 1692 0
785 -4051 0
4379 242 0
1146 1242 0
3182 -4534 0
-1112 2774 0
3916 156 0
-3146 -2723 0
-1297 763 0
-3106 1064 0
2106 -1054 0
1686 4163 0
1264 -522 0
-3497 -4328 0
2016 -2346 0
708 1718 0
2220 3326 0
-1418 4103 0
3252 -3685 0
-4545 1838 0
-1805 456 0
-2976 -2249 0
3348 4368 0
-65 -3157 0
-2758 -1955 0
2713 4484 0
-480 3827 0
2845 -2243 0
-208 1025 0
2931 -681 0
-1508 2200 0
2220 3277 0
4147 -1289 0
-2820 1904 0
3581 2318 0
-3898 -2443 0
1136 -3308 0
-2370 -4378 0
-184 -744 0
3580 2428 0
-2747 3312 0
1077 2128 0
3311 -1614 0
-4221 -2837 0
630 -388 0
1658 1699 0
-4665 2116 0
-332 2838 0
-3776 656 0
-2635 -1689 0
3529 -2626 0
4458 -3293 0
4186 -4042 0
-468 -3003 0
-1554 -4129 0
2696 187 0
2174 -812 0
3094 -3686 0
3834 3162 0
-1057 2846 0
2256 61 0
-2596 -4294 0
3789 1895 0
-1099 900 0
-4393 4730 0
369 -2884 0
-4292 1377 0
763 -2524 0
1992 -3335 0
3666 -3857 0
-4116 -1715 0
-2645 1563 0
2898 2776 0
2934 -3835 0
2396 -3758 0
3866 -1518 0
-1682 -2743 0
-1124 577 0
-3677 1777 0
338 -496 0
3581 70 0
-4082 -2393 0
-1975 2744 0
-2937 -3720 0
-319 3263 0
-829 -3494 0
4612 4629 0
-4477 -2693 0
338 592 0
-3691 -4341 0
1813 -98 0
-3658 1610 0
-3079 -1028 0
-2883 1569 0
3110 -2074 0
4524 3658 0
-2197 2253 0
-3001 2932 0
4002 -785 0
-4125 -2806 0
-2548 -2689 0
-905 191 0
1965 181 0
625 -2060 0
-1419 -1281 0
-3614 3206 0
-2200 -989 0
-4244 2922 0
-2549 -610 0
4375 -3762 0
-66 -1392 0
-1061 -2918 0
-4692 1746 0
3457 79 0
78 4314 0
-43 3777 0
-2682 -2367 0
-2328 1439 0
1315 -554 0
-2746 -1094 0
-4547 -1867 0
-2839 -4075 0
-3135 1228 0
2289 3009 0
3317 -1964 0
-1729 -1450 0
-2912 3928 0
4372 -4007 0
-1954 -4355 0
3780 -969 0
-3950 705 0
-490 -2113 0
3910 4677 0
-334 -4115 0
-1555 699 0
1196 3209 0
671 3675 0
124 -1307 0
1965 -2503 0
2821 -2881 0
-2647 3257 0
-3491 -72 0
1310 -3410 0
-236 -729 0
-1159 673 0
-2594 2830 0
-2531 -990 0
4155 -4394 0
-4179 1812 0
-287 -156 0
-1828 3178 0
81 -2743 0
-1901 -4011 0
-4451 -1086 0
-4584 -3533 0
844 -4255 0
3720 -2956 0
315 -1177 0
1579 -2911 0
-456 -2423 0
-525 2376 0
-1958 4467 0
-3015 4006 0
1075 -3288 0
-723 -316 0
-4437 -3539 0
3349 -651 0
665 -3930 0
4349 -3733 0
2400 158 0
3109 -3911 0
4559 3421 0
-852 2254 0
4700 867 0
3348 2925 0
777 -4564 0
-428 -1218 0
-3417 2816 0
1740 -4011 0
-3158 2364 0
836 -349 0
-2659 3668 0
145 4710 0
-4336 293 0
4636 -1603 0
3907 790 0
4423 2241 0
-3599 -2867 0
-3340 640 0
3649 2950 0
-3209 4752 0
4298 -288 0
2633 3873 0
-1089 -3776 0
-271 -986 0
-2577 -2820 0
-4115 3095 0
-2415 -1867 0
3143 -4743 0
-4356 -3987 0
-2648 4095 0
2779 -4090 0
2318 3387 0
-2846 -1334 0
1154 3051 0
-4386 1282 0
705 1653 0
3783 2568 0
2797 -2311 0
-4218 2773 0
1038 3245 0
1895 1359 0
-3657 -624 0
-2666 883 0
-2874 3572 0
4121 2347 0
1073 -4667 0
-2713 -4437 0
-1131 -3451 0
-3257 3 0
-2512 -905 0
-3919 1876 0
-995 4379 0
2878 628 0
-157 4387 0
-269 1319 0
-2533 -427 0
2408 -3719 0
3888 -3127 0
-3837 -4626 0
2266 2741 0
-1095 940 0
1686 -295 0
-1323 -2892 0
-2880 -1231 0
2623 -2072 0
-2066 -4120 0
1063 4590 0
-74 -1631 0
1347 4245 0
2125 -4122 0
3698 -610 0
-2879 2324 0
-4061 -95 0
-3313 -2878 0
2928 265 0
-648 3526 0
-1590 -2128 0
-2323 131 0
1737 4430 0
-4253 -507 0
-1798 -2704 0
-1039 -1256 0
2436 -484 0
-1054 -2680 0
1858 -934 0
-3917 3623 0
-1549 -3216 0
272 -2927 0
-1034 4415 0
971 725 0
1784 -3399 0
-2643 -3149 0
-427 1507 0
-3356 -1254 0
2666 -2980 0
4458 -4366 0
-3038 2306 0
1308 2731 0
-4360 4259 0
3332 -24 0
-4373 3816 0
1952 -575 0
-3103 799 0
2620 -3657 0
-1634 2866 0
-1708 -3037 0
4213 -632 0
4261 -583 0
-2444 2620 0
-3195 -3087 0
-4263 3708 0
-2238 4087 0
3346 -1842 0
262 128 0
4266 -1177 0
619 910 0
-2329 -3858 0
-2689 3432 0
-3713 3595 0
836 2161 0
-3228 1776 0
-2238 735 0
-1785 2236 0
-3345 3756 0
4664 -1736 0
-2879 809 0
1119 982 0
-2891 -3841 0
1810 -4534 0
4623 -1234 0
-826 -2132 0
-2496 -4700 0
-2477 2242 0
-1689 4096 0
-1338 -4012 0
-1166 3633 0
-4044 800 0
-2505 -4541 0
-2107 3386 0
-2438 -4280 0
-3299 -4508 0
-913 -3445 0
3300 57 0
4249 -3391 0
1369 -1135 0
3421 2873 0
-614 -4437 0
4354 -1067 0
2801 4283 0
-2570 4273 0
4154 -48 0
3542 1227 0
-2787 -1584 0
-3191 -2112 0
4243 677 0
3516 -4393 0
1245 -1565 0
1653 -3478 0
-2444 2640 0
3320 -2178 0
4738 -3499 0
-3972 -3291 0
1572 4631 0
-1837 464 0
4709 4588 0
-642 -2003 0
1911 1479 0
-754 574 0
-813 3918 0
3596 2309 0
2724 -3211 0
-1681 2013 0
1674 3710 0
-1937 -4085 0
-3479 1033 0
-1845 4173 0
-4587 -235 0
4445 -1005 0
1012 -3106 0
1683 -4188 0
-4319 -1746 0
1293 -2232 0
-4742 3355 0
-2071 -3340 0
-3577 274 0
-2438 570 0
2132 -3050 0
-1931 -3504 0
-2992 2576 0
816 -3967 0
-1291 -2676 0
-1624 4536 0
586 4307 0
2378 -1940 0
1401 -534 0
-4643 2829 0
-4682 -1456 0
3909 1376 0
1858 2801 0
3767 2483 0
2570 511 0
-984 4002 0
-1215 -2376 0
39 -2717 0
-2114 2468 0
-1867 3292 0
-1494 -809 0
-2854 2903 0
-1641 -676 0
-1419 -1725 0
979 -4475 0
2852 1069 0
-2289 -2129 0
-1810 255 0
-3380 4267 0
3403 3640 0
-2408 -4252 0
2789 2356 0
-2418 3444 0
-3024 4357 0
255 3936 0
358 244 0
1812 -4414 0
-4519 2558 0
4047 -2068 0
858 -30 0
-3060 2623 0
-3519 2612 0
358 -3005 0
3769 -3464 0
253 -1940 0
-4086 -3902 0
-3231 -1446 0
4610 1715 0
-3786 3605 0
-1745 893 0
-4589 -816 0
-4677 897 0
-3636 -4172 0
3543 -2410 0
2424 -409 0
468 -4612 0
-997 4675 0
1873 -3987 0
142 4723 0
1116 2413 0
886 -4252 0
-1160 -898 0
4420 -806 0
-1831 2888 0
2073 -3482 0
3421 -1367 0
-2862 2071 0
-4511 -2344 0
4522 875 0
4014 3732 0
1084 -2149 0
331 -2808 0
-478 -681 0
-4411 -206 0
2599 -2757 0
-3141 -4088 0
-1351 -2095 0
-901 3847 0
-4329 1016 0
-4588 -1316 0
-3143 -2985 0
3668 -482 0
-2742 -2328 0
-3581 -4325 0
3658 -2590 0
750 -123 0
-3370 1802 0
-2779 -1071 0
1171 -363 0
1114 -1672 0
3542 -880 0
4707 -4513 0
-2510 3185 0
2755 -1617 0
-1509 -2636 0
-4596 -27 0
-4232 -836 0
-4628 -3172 0
3335 3403 0
-3551 -809 0
3173 3159 0
-4296 4718 0
2649 2986 0
3108 731 0
-610 4361 0
1539 4344 0
-4213 -88 0
-4179 -3704 0
3851 -2968 0
2145 1015 0
1897 399 0
-3930 -1110 0
446 3845 0
-556 1971 0
105 -989 0
2696 -2574 0
2265 3681 0
4204 2499 0
-2087 3455 0
1997 2375 0
1724 -252 0
-2654 -50 0
-3263 256 0
4586 1642 0
2031 225 0
2810 1723 0
2069 1055 0
513 1454 0
-3856 -2548 0
2406 -3767 0
-599 3880 0
-401 -3619 0
-607 -551 0
-1377 4081 0
1169 1332 0
-1753 -2810 0
1282 -1853 0
2390 -1392 0
433 4382 0
2257 -4040 0
-2991 2519 0
2360 1551 0
-4643 1468 0
561 -202 0
299 2455 0
3966 2867 0
-1702 900 0
-4003 -3799 0
-3236 -681 0
4594 -2595 0
592 2016 0
-4599 1730 0
829 -1852 0
1310 -4215 0
-2951 -2977 0
-3629 -3774 0
-271 -801 0
-3716 -1615 0
-4665 3275 0
4719 665 0
-1863 2966 0
-367 -4680 0
3184 1284 0
-4730 2043 0
1323 -2798 0
-916 2714 0
-3116 2900 0
-161 -2522 0
528 -3774 0
947 1937 0
-3535 922 0
-865 -3975 0
1324 221 0
-2691 353 0
-3332 2584 0
-4593 2579 0
175 1365 0
-4584 -1336 0
42 1912 0
-3344 4292 0
3527 3502 0
3006 42 0
1357 2993 0
1967 -3415 0
3283 -3257 0
-3546 -518 0
-1878 4437 0
-3054 279 0
3697 -2896 0
-4488 -1981 0
865 820 0
-891 -1845 0
-4584 4064 0
550 3417 0
-2320 -2219 0
-4714 2592 0
-1166 -1379 0
683 -3638 0
4539 -3091 0
-3685 4370 0
-703 4643 0
-1406 -923 0
-1389 -162 0
-3001 304 0
3592 -2950 0
1040 392 0
2473 2145 0
3421 3117 0
-1409 628 0
1749 1160 0
-3691 3169 0
3046 -3613 0
-1584 -3953 0
-125 4700 0
4381 -4071 0
-2534 4186 0
1859 2860 0
-2039 -452 0
-1087 -2269 0
-3309 4632 0
4243 352 0
862 -305 0
4154 2215 0
1070 2418 0
3702 2014 0
-4180 -3475 0
1474 -235 0
-605 1981 0
-2809 -3782 0
-1418 97 0
-161 -4323 0
4257 2914 0
-756 2515 0
2095 1148 0
194 4589 0
-3336 -12 0
362 -4645 0
-3097 -2361 0
-2534 3343 0
-3967 -1408 0
956 -1864 0
863 1246 0
4629 -4653 0
-1370 -2653 0
-3784 2322 0
2389 1640 0
636 -4342 0
2059 4646 0
2610 -3198 0
-3969 -2295 0
1251 -2481 0
-2079 3202 0
-3861 3285 0
-191 -2729 0
4152 60 0
3076 3706 0
-1100 3354 0
3935 1283 0
2017 -1112 0
2893 -38 0
-4507 -4170 0
-484 2489 0
-3430 -2340 0
1080 -3733 0
-2103 -2590 0
-1464 -4515 0
-652 -2090 0
-1888 4367 0
-4097 -2953 0
-1184 3852 0
3906 2926 0
-637 2636 0
2075 4176 0
2710 -4501 0
2685 1296 0
389 3833 0
-1734 -317 0
-2415 -870 0
4737 -69 0
-4072 537 0
3829 356 0
-4463 217 0
-3656 -2809 0
2539 -4148 0
-1647 -545 0
3679 4114 0
3883 4293 0
-3135 1335 0
2673 -2459 0
3886 2462 0
-2374 1626 0
4605 3512 0
2216 4724 0
1996 3807 0
608 2209 0
-3157 1536 0
-3657 4565 0
-472 -671 0
3782 -1561 0
-1989 1073 0
-2746 -692 0
-1693 1560 0
-2223 -3244 0
3960 -1334 0
-1100 -4446 0
-1805 -1846 0
235 -2381 0
4358 -504 0
-4509 3371 0
-1823 1561 0
696 856 0
-4092 -2708 0
-2466 2923 0
-2434 4094 0
-3709 4143 0
3745 -3767 0
3515 1088 0
-3288 -1509 0
-2988 510 0
-2988 1188 0
-983 -2259 0
444 2016 0
-2845 -3318 0
-3449 1290 0
2583 1292 0
1074 4637 0
4074 3609 0
-2212 3088 0
1281 1680 0
1469 -580 0
-3470 -825 0
2534 2850 0
2422 1114 0
1267 -265 0
-2718 3549 0
-1934 4059 0
-2239 -4269 0
2880 2516 0
3886 -2528 0
-1953 -3467 0
-1531 1854 0
-2230 1080 0
2146 -387 0
-4038 856 0
-487 -508 0
-2280 -803 0
-1286 2178 0
-2492 829 0
-2300 3196 0
-1802 -4263 0
-4031 1050 0
-4343 -2969 0
1752 -4466 0
-3690 -57 0
-2384 -3954 0
3651 -170 0
3712 -1267 0
-977 -1841 0
-2015 -3269 0
-3812 -4444 0
-2569 -2835 0
-4192 -3848 0
1737 -589 0
2590 -3108 0
701 -3433 0
2261 -2154 0
4272 -170 0
4755 -817 0
4187 -3835 0
-746 3119 0
3988 1655 0
-2161 -4393 0
-3949 261 0
-4491 -1545 0
3479 -2730 0
4312 -1442 0
-816 2058 0
3502 -2467 0
1486 -2190 0
-1051 4490 0
89 1725 0
1625 1269 0
-3709 -545 0
345 -1143 0
3024 -2361 0
2074 3928 0
-235 4552 0
1344 -1243 0
3043 -2191 0
1845 2587 0
-1887 441 0
-1721 -14 0
139 -1881 0
-3335 -1842 0
-1928 -2250 0
-1436 -121 0
-2238 1559 0
-213 -4541 0
3454 -2646 0
2826 1171 0
-2127 3108 0
-1853 -4503 0
-993 449 0
3277 849 0
-4208 3471 0
3818 2143 0
-108 -1197 0
2471 -541 0
1892 4411 0
1565 2125 0
2546 851 0
865 1146 0
2074 -1415 0
-1038 -1810 0
-3368 3929 0
-3979 -3788 0
3242 284 0
1118 4310 0
1295 379 0
4161 -3616 0
2889 2697 0
-2558 -126 0
3908 -1446 0
-2057 1919 0
2332 3420 0
805 -1781 0
-1100 -752 0
477 -3247 0
2908 -1470 0
2725 -430 0
-518 4631 0
1241 -588 0
408 4033 0
1395 -3513 0
1037 733 0
-4697 1010 0
78 630 0
2378 3020 0
2138 -4737 0
-2139 -4245 0
-2959 -1651 0
-355 -3347 0
-4645 2437 0
-3842 3755 0
1947 -2560 0
4537 3262 0
-934 2954 0
3506 3777 0
1408 3888 0
-1789 3742 0
-502 -243 0
-3941 4308 0
1270 -2196 0
-648 3246 0
326 -2788 0
537 -356 0
-3460 -3323 0
-849 -1552 0
328 -2275 0
4651 3558 0
-3978 -3373 0
1279 -2884 0
-3643 -2474 0
3060 1840 0
-178 629 0
-753 -790 0
-3219 882 0
3720 309 0
-4379 -960 0
-185 4400 0
4452 -2673 0
-126 1745 0
-3831 519 0
-855 1277 0
-3875 -395 0
-1424 -243 0
660 2138 0
-1140 -2300 0
-22 -287 0
-3856 2589 0
136 -2981 0
3386 2615 0
1420 -4327 0
-2822 -226 0
2361 1717 0
3283 -1179 0
-3918 726 0
202 -1443 0
2703 -2577 0
-4444 -2950 0
-2991 -4577 0
-2014 -1621 0
1605 1733 0
-2543 4244 0
3871 3708 0
2896 2106 0
511 81 0
-4216 -471 0
3489 -3865 0
4127 -808 0
-2744 2885 0
3011 -3958 0
-1388 -3976 0
-2787 1880 0
201 -307 0
4207 -3389 0
1506 -3614 0
-2025 2672 0
3629 -3406 0
-3244 -944 0
-2551 2687 0
-1691 -439 0
1864 3536 0
4657 2727 0
-3261 -1125 0
3429 -4416 0
3890 894 0
2067 3328 0
-2049 936 0
-1748 973 0
1916 -1366 0
2775 -1124 0
1035 -1521 0
-2104 -3792 0
4700 2855 0
-204 1109 0
2917 3271 0
-4624 -527 0
-2675 -3579 0
-1945 -1286 0
2658 1996 0
1048 -659 0
-1270 -4434 0
-3290 -2788 0
3476 3417 0
-984 -3742 0
-3198 906 0
3081 3099 0
-3807 1063 0
-3304 -3820 0
-239 -4609 0
-1584 -130 0
2965 4312 0
2782 -238 0
-2952 2331 0
555 -327 0
-4644 -454 0
-3678 -3001 0
-1928 4526 0
-110 2989 0
4579 -3940 0
-3710 -1921 0
-429 3021 0
503 1487 0
-4069 4275 0
866 -3863 0
3434 -3863 0
3287 -2160 0
4268 -737 0
-887 -4363 0
2901 4421 0
3759 4558 0
1106 -2968 0
-4690 -3646 0
-664 3688 0
-1726 2935 0
-213 4045 0
-2948 1765 0
-2315 -4750 0
1813 -1361 0
3493 2088 0
-1592 2466 0
-4520 -4492 0
3012 1452 0
-4008 -4192 0
-4721 -1911 0
-1152 -505 0
3341 -1702 0
-1089 4580 0
-1169 -1337 0
2225 3625 0
2938 -3356 0
1273 -1418 0
-4185 3247 0
-4040 -4069 0
-3334 -344 0
3386 -4231 0
84 -4507 0
1331 3431 0
3789 -1604 0
-2926 358 0
385 2571 0
897 -784 0
4645 -672 0
2912 -4157 0
-1353 -2045 0
-3930 -1308 0
-2312 3398 0
-2815 -1651 0
3998 2011 0
2408 4336 0
-1199 -4695 0
4434 -1404 0
2105 -506 0
-1692 -4205 0
186 3381 0
1804 -1147 0
984 -45 0
1113 -5 0
-2427 -1253 0
-3308 2967 0
-657 3450 0
-2840 1790 0
1068 -2178 0
4500 -2260 0
1341 237 0
-4113 -2808 0
-724 2998 0
-4394 -932 0
1483 4506 0
1053 -1366 0
-3814 3840 0
2679 3437 0
1144 -3353 0
-1354 -3767 0
3586 4298 0
2236 -3566 0
4149 3233 0
2386 2760 0
2000 2790 0
2916 -1931 0
1492 1301 0
-3716 4036 0
-3806 -3567 0
-4052 -535 0
3545 3411 0
-2504 -3826 0
-2595 3909 0
2006 -73 0
-336 2125 0
-4567 -2609 0
2008 237 0
-1548 -626 0
3740 3060 0
4514 2312 0
-1033 -3804 0
-441 -1577 0
-323 1239 0
-2015 2307 0
-267 -3473 0
-1665 -1758 0
-694 1017 0
-4129 -1852 0
-3883 -1691 0
-4566 -52 0
-1979 -1943 0
-3205 -4231 0
1416 88 0
536 -4061 0
2778 1987 0
1626 1462 0
-2577 -3475 0
-2420 -3725 0
3754 -3318 0
-3134 1804 0
-4027 4433 0
-3264 4118 0
-1519 3851 0
3227 -1642 0
-1847 3121 0
-3713 113 0
-4644 -649 0
3507 2316 0
-1930 -3783 0
220 -2772 0
3249 550 0
1398 -1359 0
-3395 -2336 0
1807 -3942 0
-1705 2401 0
2351 836 0
-3806 3319 0
2812 2709 0
-3290 4267 0
-2141 -3082 0
153 586 0
-1005 -3111 0
-4063 -843 0
-270 -1007 0
-1861 -2037 0
-2753 -929 0
34 -1634 0
-2656 -4626 0
-3921 -2066 0
-1421 -1688 0
322 1601 0
4235 -1432 0
-1953 2428 0
1627 1929 0
4743 -4002 0
-3511 3595 0
2453 953 0
-4720 -1598 0
2866 -3265 0
680 -721 0
2302 3769 0
3896 234 0
3440 -4086 0
-490 -588 0
-3476 -3967 0
-1720 -169 0
-1741 -3092 0
2930 2888 0
4529 -1271 0
-4528 -3971 0
3309 -3198 0
-1011 -415 0
-2030 2467 0
-2680 4699 0
1400 -2090 0
2198 1363 0
-553 -1185 0
-2307 -66 0
-1604 -1615 0
-1894 -2856 0
-4140 4677 0
1950 -2864 0
-313 68 0
4344 -2497 0
-805 -2833 0
2123 -3159 0
-4546 3143 0
-404 4534 0
-554 2427 0
2000 3537 0
-3299 464 0
1984 4509 0
1578 -223 0
-2875 2626 0
3829 3078 0
39 -1145 0
-3318 4552 0
-3375 3877 0
-1334 -1504 0
181 -2798 0
-3147 3701 0
-900 -4698 0
2061 -1082 0
-2602 -974 0
-3814 -3448 0
3865 -3121 0
2275 -1065 0
227 1064 0
-1705 -2120 0
-4125 -4497 0
1009 -4260 0
3779 2213 0
3123 -605 0
-3534 -2220 0
2582 2038 0
-2670 -114 0
-906 1824 0
4214 -477 0
3440 2817 0
282 838 0
-986 556 0
3667 -521 0
3332 3611 0
-4052 3294 0
3301 2264 0
-1386 -1356 0
-2127 -4205 0
-1823 -262 0
1390 -2291 0
86 -3023 0
-4033 3625 0
-2490 -3812 0
-610 2289 0
2361 490 0
3404 -1184 0
-3804 25 0
-689 -3574 0
3310 660 0
516 899 0
2366 -1881 0
-3079 794 0
4045 -4213 0
1533 -959 0
1106 3173 0
-3404 -1220 0
-4394 -92 0
2888 -210 0
674 2392 0
4325 2602 0
-3753 -3113 0
3949 -380 0
1228 -1909 0
-2858 58 0
3830 579 0
290 -3938 0
2253 194 0
3738 -580 0
2249 -1983 0
-2551 -3971 0
-4193 2214 0
-2537 -4550 0
-1690 -2655 0
-865 3300 0
-548 -3674 0
-3039 1777 0
-4195 -4318 0
-4061 -2483 0
4284 -2417 0
-2643 1240 0
3169 2337 0
3975 -4241 0
1182 -3743 0
1184 -2259 0
-4056 268 0
-4228 -585 0
4404 2388 0
-535 -3606 0
2036 -2214 0
1755 -3909 0
-1332 -2832 0
-909 4149 0
-3791 -886 0
968 -1159 0
-1726 -33 0
-2175 48 0
342 1648 0
3931 556 0
79 237 0
-4153 -4141 0
-427 4382 0
3385 -119 0
1956 1132 0
1260 1539 0
3768 1595 0
-243 -3274 0
2253 2877 0
-860 -1349 0
-416 -2470 0
815 4654 0
-4723 -4448 0
1166 -4444 0
3748 1897 0
-2416 -4590 0
3557 2293 0
-2964 -3715 0
1597 -1376 0
-3114 3060 0
1944 -4120 0
4386 2836 0
-148 2476 0
-33 4035 0
-2191 -4652 0
281 -3344 0
1983 2105 0
1984 3755 0
-1591 -911 0
-1448 -4186 0
-3453 3807 0
-522 2939 0
2567 622 0
-4192 -2205 0
-4150 -4158 0
3161 -2516 0
4322 2165 0
3432 -2213 0
-790 -1285 0
-1699 578 0
4214 -3488 0
2791 141 0
911 209 0
4100 4644 0
113 -4278 0
1185 -3565 0
3327 -3487 0
4127 -2515 0
-3838 -946 0
292 -658 0
-202 2382 0
3751 -3091 0
-3279 3713 0
419 -3579 0
-3420 4022 0
1148 587 0
1832 3528 0
-4664 -3892 0
-2476 -4104 0
-3024 -4148 0
-3899 3182 0
4415 1322 0
3435 -1392 0
2590 1716 0
559 3437 0
964 3829 0
2641 2495 0
4514 -3052 0
-1624 2388 0
3515 2551 0
-201 2630 0
3426 -3617 0
3283 2694 0
735 -4373 0
4611 1554 0
3039 186 0
1000 -230 0
-4435 -4193 0
-1328 3706 0
2390 -4714 0
1454 1069 0
1482 -279 0
4417 -2707 0
-4405 4753 0
-44 -1551 0
-1628 1393 0
-2872 332 0
3510 -3637 0
2453 -2006 0
-1496 2349 0
-304 -2774 0
2943 2790 0
-85 3094 0
420 2822 0
-2547 401 0
3423 2235 0
863 -1536 0
-4515 -349 0
-4082 -3482 0
3418 1674 0
-1238 -987 0
4559 -130 0
-3215 -940 0
-697 -2656 0
-3582 -470 0
1149 4480 0
-4688 4536 0
2097 -3490 0
3256 -4210 0
1262 -1203 0
1920 60 0
-2839 -2357 0
3010 -2774 0
3091 -3606 0
-524 448 0
-1614 -1560 0
786 4486 0
704 1709 0
-4441 -1993 0
2595 -471 0
4436 3751 0
2681 -3569 0
-4293 -4591 0
-301 -1546 0
2558 -3442 0
-1613 1132 0
-1658 3035 0
69 -2489 0
-2761 -965 0
-3631 2757 0
333 -3031 0
2446 -3216 0
-4552 -3580 0
568 -2418 0
-1633 4486 0
-1098 -1799 0
-3743 -388 0
4249 729 0
-3743 -3173 0
-3566 761 0
2751 -4492 0
-4505 -1075 0
-3910 656 0
6 -2223 0
3061 -4034 0
2530 2019 0
351 -3399 0
385 -2739 0
-849 3181 0
3724 -3458 0
-3590 1815 0
3140 -3344 0
-1938 -488 0
4571 3457 0
-479 1264 0
-2445 -3353 0
937 1985 0
-3427 -4263 0
2250 4117 0
2631 1912 0
1049 4189 0
-694 -3504 0
-3215 -2865 0
867 2146 0
-743 -573 0
3505 1553 0
3888 -2601 0
3730 -3425 0
4614 -948 0
-1527 -3285 0
2628 -2852 0
-2956 803 0
982 -3495 0
-2316 -4091 0
1737 -3222 0
188 -4460 0
2714 1738 0
639 -137 0
861 1064 0
1563 3093 0
7 3201 0
1832 796 0
-3463 1816 0
623 -2095 0
-3769 -4193 0
1273 2408 0
4126 -2127 0
-4356 4709 0
-4187 -2509 0
-1443 -2530 0
-2871 502 0
-3062 87 0
2642 -1654 0
-4408 4198 0
4636 -2718 0
4540 3744 0
185 3980 0
-4085 3578 0
434 3881 0
-1253 3728 0
-934 -523 0
241 2113 0
3007 859 0
-1093 856 0
-2437 3992 0
-2779 -2997 0
2615 -2438 0
-4728 3103 0
4321 270 0
-1776 -1548 0
1499 -3513 0
-4243 -1788 0
1169 -898 0
1693 1508 0
2471 -3105 0
-3954 -1860 0
-591 -4649 0
-2583 -1689 0
1294 2338 0
1727 4208 0
3424 -4527 0
-4293 2623 0
-1302 3206 0
-3424 4734 0
-3048 -2964 0
-2665 -2301 0
1078 -802 0
-1931 -2018 0
-4548 885 0
624 -3621 0
-3814 -3322 0
3202 4523 0
991 -4729 0
4655 -716 0
-697 494 0
1992 3542 0
-3221 -3572 0
2490 2858 0
3300 4594 0
-1561 3695 0
-2549 4030 0
-4570 438 0
-3092 -1619 0
-3814 102 0
-2523 4442 0
-2447 -2815 0
-1690 2708 0
-2327 3793 0
-1133 -466 0
-4218 -1238 0
-188 4506 0
-159 -1961 0
-2834 -855 0
2371 1463 0
4668 915 0
-3419 -4734 0
-583 -2863 0
632 4658 0
3599 1080 0
-1572 -2433 0
1913 440 0
2936 2203 0
-1872 -2673 0
-2024 -356 0
1985 4010 0
-1447 3752 0
1287 1650 0
3538 -1725 0
309 -2408 0
-50 -1404 0
-1591 1268 0
461 1915 0
-1647 -545 0
-489 -2981 0
-3111 -1359 0
3348 2601 0
755 3883 0
-3578 1340 0
2891 2612 0
1449 -2704 0
-4267 -4106 0
-4436 2507 0
-212 -583 0
-3192 -2527 0
4235 2688 0
175 3658 0
4596 -1266 0
26 229 0
3875 -1413 0
4660 559 0
-3873 -1749 0
2287 -4040 0
2281 -2139 0
1619 2236 0
-627 -100 0
3417 1460 0
-1180 4275 0
3820 -1647 0
-4285 -3610 0
3513 3747 0
1568 2680 0
1918 1263 0
3559 -3787 0
-1943 -3523 0
1475 2370 0
-1018 -3209 0
-3092 -4047 0
-1788 -4130 0
1301 -2785 0
-3045 -3218 0
-3020 3182 0
-3675 -2582 0
-508 -4464 0
641 1103 0
435 -1214 0
-4326 1013 0
2727 2470 0
-1889 3446 0
406 -3423 0
-4017 1430 0
-2469 1459 0
-4065 3262 0
2835 -1799 0
3726 1238 0
795 -2417 0
4105 1068 0
-260 4431 0
-3265 448 0
-2488 453 0
-8 1547 0
-2330 -2818 0
-278 -106 0
-3115 -376 0
-1705 1216 0
535 2777 0
2341 3295 0
851 -1390 0
-3884 3847 0
-206 -3313 0
2527 1164 0
-732 -1703 0
-3053 -901 0
-2260 671 0
4380 2829 0
1979 1001 0
3537 -226 0
-2907 -3982 0
675 986 0
3103 3980 0
1694 4538 0
-1508 -4698 0
-1159 -4557 0
-1958 -4534 0
3604 4295 0
-849 57 0
-3237 -971 0
1617 -3290 0
677 -4025 0
1063 3987 0
-596 1843 0
-4346 3964 0
-896 193 0
-862 4228 0
621 -1115 0
2081 -3255 0
-2931 4309 0
1033 4054 0
-1491 3431 0
-3269 -3572 0
3397 -2323 0
-3725 1 0
-4154 -2950 0
2048 -4098 0
-4150 1250 0
-4750 -4445 0
-102 810 0
-808 -4309 0
1149 -4067 0
-1186 1757 0
904 3334 0
2393 -3264 0
-682 -3352 0
-510 -3800 0
-271 1500 0
578 2507 0
4382 3747 0
4100 -2775 0
-4525 1924 0
-462 -3255 0
3145 4582 0
2440 1224 0
1906 -1568 0
128 921 0
-4405 2264 0
4372 -1717 0
-2356 -2578 0
-4269 3765 0
2057 1971 0
931 -4722 0
-3197 2824 0
2699 -2548 0
2262 -3562 0
3878 369 0
884 -1781 0
4753 -3303 0
1683 4378 0
-2379 -1805 0
-1287 2200 0
880 2931 0
3887 -456 0
-4081 1543 0
3860 -1305 0
2102 2112 0
4566 2633 0
-4088 -4507 0
3946 -1442 0
-2334 -1333 0
3536 -4542 0
-160 -2188 0
-752 2243 0
834 -2312 0
-1108 10 0
756 -852 0
-2162 2253 0
3828 -2477 0
-4443 2698 0
4317 -849 0
284 -3713 0
-4547 2832 0
-3794 -3601 0
26 -1002 0
-3158 3175 0
636 -334 0
1280 -3524 0
2807 -4147 0
1081 -2655 0
-3958 1757 0
-2681 -2330 0
-802 -2338 0
2679 1383 0
-1141 -47 0
-3743 4240 0
3927 -4116 0
-1149 -2890 0
-2095 683 0
2849 -2728 0
-1950 -2390 0
4326 -143 0
1295 -3729 0
1297 1685 0
1124 -3301 0
-740 -99 0
135 2093 0
1920 3251 0
-3074 264 0
2631 4446 0
-3529 -4136 0
1559 1842 0
1041 -2323 0
-767 2749 0
-1763 -4349 0
-1185 -1731 0
-2220 1939 0
702 294 0
4573 -585 0
4298 -2438 0
981 -563 0
-2192 4112 0
-2170 -3805 0
3757 -1420 0
-2793 2942 0
4350 -2627 0
3237 -1056 0
1276 -2457 0
-2171 -180 0
-3183 -1454 0
1101 2669 0
1044 4703 0
-3551 931 0
1886 269 0
-3915 3649 0
-821 2335 0
1497 -424 0
480 972 0
-2446 1762 0
950 -3524 0
-3221 4661 0
4322 -4669 0
3644 -425 0
-3179 370 0
4397 -4131 0
183 1233 0
-2412 3777 0
3022 2559 0
3946 1428 0
327 3877 0
-4097 1743 0
617 3919 0
1285 -2597 0
4207 2840 0
491 1402 0
4265 -2391 0
-3139 -4025 0
-2456 1091 0
2019 -1448 0
2623 132 0
-3812 -1549 0
1315 -24 0
1479 -2655 0
3660 -153 0
2021 -18 0
2557 2341 0
2898 -1926 0
-959 2038 0
-4309 -1668 0
-4523 2342 0
1909 -3884 0
-1669 -2527 0
-2177 3179 0
-123 1288 0
2758 4638 0
3507 -3435 0
361 731 0
1956 -3263 0
-4142 -3303 0
-3728 497 0
-299 -647 0
-3332 678 0
-3858 812 0
-1380 -1624 0
742 2429 0
540 1369 0
292 3538 0
3755 909 0
2206 491 0
-2445 -3834 0
-4000 288 0
233 2318 0
-3939 3155 0
463 -3786 0
-2684 -4753 0
2479 -1878 0
-3417 -2720 0
4215 -3074 0
2772 2000 0
-3421 336 0
1173 1686 0
1893 3795 0
-1030 1506 0
-962 712 0
2172 2426 0
301 3167 0
-257 1873 0
4370 3990 0
1428 3521 0
-1437 -832 0
461 3714 0
-498 4188 0
1774 -4172 0
2760 -128 0
4066 -3601 0
-1964 2138 0
930 1439 0
4751 -3497 0
2844 -3934 0
4174 -3339 0
3693 -4669 0
-1982 -2285 0
-1098 -2181 0
-2990 2057 0
646 4555 0
3792 1539 0
-4184 -4444 0
4716 162 0
3979 -1392 0
-762 3286 0
-773 185 0
-112 -3783 0
-1030 2209 0
3459 1227 0
-2898 -798 0
-3808 -4414 0
-1530 4512 0
-2964 -3463 0
-3822 -1422 0
-958 -2772 0
-934 2292 0
3333 -223 0
2548 -762 0
2101 2181 0
-598 158 0
1911 3737 0
1479 -1744 0
4181 2316 0
-2734 2062 0
-608 -4359 0
2373 109 0
3818 4329 0
1085 -3948 0
-3437 4070 0
-3666 3606 0
-2390 -3399 0
52 -518 0
911 1068 0
-781 695 0
-1881 -3840 0
-1990 3787 0
3439 1546 0
1449 2292 0
-393 1791 0
3922 -4468 0
1612 -3183 0
2227 22 0
145 2120 0
3024 1422 0
-4143 -1002 0
-4074 378 0
-1998 3975 0
3032 -1088 0
2096 2462 0
4073 -1947 0
-536 -17 0
2495 1162 0
-1531 1275 0
3455 -2495 0
67 -2381 0
-4751 -1828 0
1301 4678 0
-1823 3934 0
-3114 1057 0
1176 4436 0
-208 1012 0
-342 -1794 0
-2445 2930 0
-2533 1696 0
-117 826 0
4368 -311 0
-2172 -1435 0
936 -872 0
4417 2199 0
528 -2251 0
118 476 0
-2476 -3069 0
1814 -3425 0
4352 3304 0
-4107 -4156 0
2749 -325 0
-444 -4338 0
-2134 -4244 0
2700 -3861 0
-4581 1342 0
-3228 2646 0
2707 2740 0
-3278 -508 0
-3063 2897 0
-1528 -1149 0
-2599 1073 0
-3404 -4498 0
3997 434 0
1988 -3850 0
1648 -1511 0
4464 -2447 0
-3822 2906 0
2028 -3454 0
-173 -289 0
-4539 -272 0
-3891 -1597 0
1032 -1467 0
2857 -1785 0
-324 728 0
-558 3983 0
-1195 -1211 0
4404 1206 0
3722 -1404 0
-3294 1407 0
-4629 -4119 0
-1647 -1605 0
1472 1811 0
-4119 199 0
2824 -3898 0
3430 1490 0
-1622 4251 0
3234 3582 0
1123 -317 0
-2116 -3735 0
-182 -182 0
-2995 1905 0
-2734 -727 0
-4324 615 0
565 -596 0
2085 -3618 0
-1913 3852 0
-1920 -3987 0
-213 3468 0
3042 -3555 0
521 -3435 0
3639 3405 0
-926 -170 0
-1124 2690 0
-3868 -4092 0
-1570 -3339 0
1265 -561 0
-1493 -4744 0
925 -29 0
-3116 4432 0
-2354 -3699 0
4220 1582 0
-2272 1974 0
3870 -3446 0
1886 -2362 0
4250 4471 0
4544 -3588 0
869 -1951 0
693 3874 0
4285 3454 0
-1268 4158 0
630 1069 0
2064 4024 0
-1654 2538 0
-3825 -1302 0
327 -1592 0
-2337 -727 0
-3621 1414 0
-4267 -4346 0
4236 -1121 0
-2096 336 0
1834 4240 0
-4071 -59 0
4001 -2345 0
2021 -3074 0
4312 2538 0
-855 -888 0
513 566 0
-4203 4512 0
-2948 1541 0
-3180 -852 0
4530 3818 0
446 1713 0
-294 20 0
2417 684 0
446 3454 0
-2395 -2594 0
-2498 2002 0
-4502 -3016 0
-1265 -4732 0
-933 1202 0
4134 1488 0
-2731 -2987 0
1476 -363 0
2317 -3572 0
-1998 3612 0
-599 -3225 0
-3940 3772 0
3206 -1113 0
2612 2395 0
-155 -4725 0
-1124 -988 0
3752 -3017 0
2525 3365 0
-4069 4462 0
856 -2683 0
1074 1393 0
2131 4380 0
134 3999 0
3191 3625 0
4152 -3655 0
2710 -4378 0
-1453 4383 0
2602 -2813 0
3611 -238 0
3425 3308 0
275 982 0
-4019 -3454 0
3994 -3024 0
167 -3293 0
-4274 -83 0
-2355 -3483 0
836 1613 0
-3421 -4577 0
1275 -333 0
4289 3884 0
-2445 -4511 0
3162 1601 0
-4632 62 0
-178 -3771 0
3780 1175 0
4138 2844 0
3920 -161 0
-4099 4582 0
-1192 3715 0
-4241 1740 0
1336 -4166 0
3304 4293 0
186 -4685 0
2622 4594 0
966 919 0
3728 -884 0
-500 2522 0
-239 -3476 0
3890 -1656 0
-581 -4150 0
-1025 -3534 0
-1866 -1820 0
1890 667 0
2749 -4548 0
4116 2318 0
3274 -227 0
4054 -3160 0
4686 3831 0
-3338 -1673 0
592 2690 0
-2655 -402 0
1136 -1191 0
4307 -2575 0
-2795 4515 0
4253 -2570 0
-452 -4191 0
3243 -4645 0
1764 -1588 0
728 4674 0
3182 2652 0
3236 -830 0
-1386 3256 0
1427 1042 0
-3490 -1406 0
2672 -2926 0
1768 2322 0
4537 1436 0
-1268 -2058 0
-1237 -3787 0
87 4283 0
-1566 936 0
3572 -3661 0
683 -540 0
1890 2384 0
-3649 2966 0
4343 4155 0
-3438 -792 0
1800 -2791 0
3217 -471 0
-687 1407 0
-3888 1750 0
751 3175 0
-356 3684 0
538 807 0
-533 -978 0
-1348 4176 0
-424 3208 0
-287 80 0
-2352 -4325 0
4303 -1105 0
-458 1635 0
-2120 -1195 0
722 1484 0
4311 4423 0
2339 23 0
-1668 1691 0
-4619 -1270 0
3593 4475 0
-4450 2053 0
-2491 -4549 0
-756 -1141 0
-533 -2594 0
-1898 1820 0
-1852 204 0
-632 -1417 0
-3946 -4421 0
4221 868 0
-637 1759 0
1185 -2585 0
847 2132 0
3257 -2437 0
2455 1811 0
2028 2618 0
3776 -4347 0
3403 3787 0
2401 2275 0
4489 -2158 0
2297 -1308 0
2160 -3947 0
3667 -4124 0
-3263 -3036 0
4100 -3820 0
2454 -1253 0
2598 2344 0
1715 729 0
1587 -3198 0
-3816 -1779 0
-4086 3842 0
3384 761 0
2003 364 0
2232 -3657 0
-4062 3230 0
-2423 -3710 0
-340 1226 0
-4695 1044 0
-2658 -875 0
-1905 720 0
3620 1322 0
2450 -3340 0
3717 -1404 0
-1455 -75 0
-1819 245 0
-3453 3258 0
4572 1756 0
-191 281 0
736 -4658 0
-4315 -1843 0
-575 2779 0
4544 3662 0
-4147 4094 0
-2928 -2182 0
-4415 -1823 0
-2301 2817 0
-2237 687 0
398 3166 0
-4399 -2142 0
4400 -3334 0
-381 3054 0
-2304 434 0
-908 -209 0
1636 -72 0
353 3833 0
4513 1505 0
-4270 -3137 0
2225 3851 0
-3771 -2995 0
-3381 3082 0
-528 -2625 0
460 -4443 0
-27 3451 0
-60 499 0
-4365 4704 0
-2710 2944 0
3390 3918 0
1820 2804 0
3145 -4433 0
-664 -3042 0
1322 2797 0
-3798 -2667 0
-959 -4277 0
2342 -4557 0
3089 -2054 0
693 -4433 0
1629 -4642 0
976 615 0
-994 -38 0
3469 2143 0
-3392 -913 0
-4268 -190 0
-3339 -817 0
-1705 -1728 0
591 -458 0
-1969 -2969 0
1360 -1050 0
-1873 3369 0
1436 4676 0
1134 -3108 0
-1 4578 0
4333 -2232 0
2968 -1208 0
466 -3467 0
-4610 3589 0
-4437 -1525 0
-2759 -2572 0
-4372 1110 0
3681 -3832 0
-12 434 0
2114 -1566 0
-3778 -1106 0
-459 296 0
2907 -2041 0
432 1954 0
-4302 -3175 0
1071 3009 0
-4041 -4669 0
2698 -2677 0
3420 -4237 0
-4679 -4703 0
-1836 1202 0
-2232 -2089 0
-1421 1999 0
1576 -1749 0
-807 2220 0
-3440 3689 0
-410 -951 0
-2148 -1381 0
3869 4659 0
-745 97 0
-2454 3163 0
-787 -3330 0
-1588 -4442 0
-783 -1968 0
2187 -229 0
-2833 2336 0
-2642 1684 0
-1766 -1445 0
-1833 -1223 0
2092 1967 0
-2976 -4284 0
1718 -4384 0
1825 1262 0
2406 3158 0
4046 -1559 0
-3691 4343 0
-1180 240 0
3681 -2090 0
976 1007 0
640 1326 0
-2741 -883 0
-1166 -3147 0
2455 -343 0
4409 -1505 0
-736 4431 0
-1779 -1033 0
-4674 2397 0
3468 -2340 0
2646 -4066 0
-794 371 0
4484 814 0
-2769 4748 0
2700 991 0
-2392 513 0
422 -743 0
103 -934 0
-3025 1763 0
3649 -1784 0
-1941 -1607 0
3628 -4525 0
-4444 -12 0
-4395 -1357 0
-662 3572 0
1281 2965 0
-1357 -1208 0
2138 -3224 0
797 1347 0
-3926 2014 0
-983 -3900 0
3119 496 0
-4267 2235 0
-114 3726 0
-4539 -4634 0
-14 -1137 0
-1911 -2412 0
-3002 -954 0
2277 765 0
-1005 -2675 0
857 -4359 0
-2389 1494 0
-3642 -4279 0
-4448 -512 0
4160 -3305 0
-2985 4586 0
2760 964 0
-2276 -905 0
-3702 -2389 0
-959 -4602 0
4080 -463 0
-1902 -2138 0
-4221 4622 0
-4738 -2312 0
2030 -4343 0
-3823 2665 0
-3835 4117 0
602 -4716 0
807 3679 0
-1099 3927 0
1042 -764 0
-870 3563 0
1694 -2606 0
-2047 -1518 0
-1343 1838 0
1703 4236 0
2436 2885 0
1466 2385 0
-527 -1704 0
2187 -2442 0
1648 2819 0
3571 -3822 0
285 3719 0
2013 -3412 0
1941 -3251 0
461 4000 0
-2864 1937 0
9 3694 0
-2666 -706 0
3587 4146 0
4290 -1348 0
-4062 -4410 0
-1592 3005 0
4471 1169 0
-3940 -204 0
-1069 709 0
-3191 2210 0
-3865 2700 0
3382 -3964 0
-4558 -3808 0
-316 1726 0
-1277 -2903 0
290 4184 0
-1636 -2019 0
-1606 1725 0
-3324 -750 0
4635 3387 0
-2243 -2636 0
-4063 -1987 0
135 -1629 0
-2330 -2347 0
-3969 2654 0
-1040 -3203 0
-1332 -2429 0
3167 4324 0
-1540 393 0
1444 4565 0
-721 -1983 0
-2557 -716 0
-1245 -4179 0
-1594 -2725 0
-2188 -4741 0
-698 3436 0
-4081 -2684 0
-4247 -2031 0
3750 2938 0
1991 1812 0
4588 -3825 0
298 3029 0
4409 -4512 0
-1551 3825 0
-2946 -2447 0
-3158 -4008 0
142 282 0
-2136 -2181 0
3227 617 0
-749 -3947 0
-4134 706 0
1008 -2823 0
-1766 -1276 0
4303 701 0
2562 2965 0
-2783 1855 0
1048 709 0
-1600 -1385 0
-1543 -2548 0
1599 2893 0
-69 -1746 0
-1017 633 0
3255 -3771 0
-334 -3608 0
-1765 4533 0
-3403 430 0
-4093 -886 0
2781 -1668 0
2589 -1594 0
-4410 1132 0
-2249 -254 0
3809 1424 0
-4421 -3486 0
1876 -449 0
4405 2629 0
-299 -1241 0
1329 3230 0
-2444 2875 0
-3314 39 0
2730 617 0
-7 -4250 0
-3108 2828 0
1549 2929 0
4586 2534 0
-3615 -1429 0
1176 1657 0
655 -621 0
-4055 1546 0
-1252 4436 0
-2346 -1001 0
-2837 -1602 0
-204 75 0
-711 -2445 0
-4725 1711 0
1630 -1700 0
-4002 -1450 0
137 4608 0
-798 -4105 0
888 -1385 0
-4063 -4478 0
-2963 1170 0
-4541 -254 0
4204 3962 0
-4285 773 0
-453 -4450 0
-652 3073 0
-1533 -3902 0
-4382 -2683 0
2859 4220 0
2806 1128 0
2769 -1718 0
-1676 2136 0
-1274 -2039 0
2700 3097 0
2541 -3842 0
1481 -178 0
-1822 -241 0
3904 -2695 0
-4252 177 0
-3229 1624 0
3726 -2741 0
-3199 4241 0
-2889 -1491 0
-1195 -3358 0
-320 -2654 0
3149 -2332 0
-3202 1663 0
-4052 -460 0
-4189 3863 0
-3991 449 0
-3301 -3037 0
-3852 2353 0
3700 1305 0
700 490 0
-547 2686 0
-2155 -1477 0
4253 4321 0
-263 -284 0
2709 -437 0
-2425 -2583 0
790 -3952 0
1319 2122 0
594 940 0
-4721 3113 0
-4637 -1644 0
3350 -4603 0
-1080 1475 0
2406 2946 0
-1038 -4361 0
-3190 -1148 0
2146 3061 0
4738 -1823 0
1108 -3361 0
3763 -333 0
-2295 -105 0
623 1589 0
4454 -3902 0
609 -2238 0
766 3636 0
4222 -673 0
-4580 2768 0
-4724 -123 0
2896 -3899 0
-2984 985 0
-3953 1661 0
-2337 -1913 0
-4114 -1686 0
-4547 -3885 0
3016 -3135 0
-475 2131 0
-3372 3979 0
-3293 3562 0
4027 1842 0
-2251 4374 0
-2045 4177 0
-1192 2032 0
-4547 -202 0
-1178 -743 0
-3687 1106 0
-735 -2495 0
-445 4458 0
737 -549 0
1641 -1933 0
-3191 2819 0
-4052 -1264 0
4701 918 0
-3090 -2349 0
1472 -4042 0
-880 -844 0
-4276 -3001 0
1250 -370 0
1993 1476 0
-4335 2637 0
-2743 923 0
4452 -3768 0
4671 3966 0
-3373 -100 0
-3670 2057 0
-333 -2680 0
2888 -2551 0
2200 -4174 0
3591 1695 0
1569 -2052 0
-3757 -4725 0
4313 -3155 0
3567 1406 0
4140 3556 0
277 1644 0
-403 -3453 0
538 4711 0
-3718 -3378 0
1862 3885 0
1356 -454 0
-722 3021 0
3421 -181 0
-681 -1382 0
-1403 -4727 0
-4115 2669 0
-3949 4694 0
497 -2890 0
-2233 -3863 0
678 -964 0
-4605 2125 0
-3948 2756 0
-2155 42 0
3829 544 0
-3531 354 0
-2188 3556 0
39 -3501 0
3546 -3070 0
-4698 2209 0
2028 3813 0
-1992 -2114 0
-1582 -2673 0
-610 3497 0
-344 3792 0
2871 827 0
854 -3222 0
-926 229 0
-1278 -1899 0
460 -4611 0
-4636 945 0
-556 2581 0
-3330 4341 0
4218 -3917 0
-826 -4067 0
-2234 -2904 0
4202 -523 0
2220 -1338 0
-1669 4700 0
-894 -1053 0
2392 113 0
2723 4303 0
2197 -747 0
3071 230 0
3351 -3279 0
1301 -845 0
298 759 0
1153 -3008 0
-178 -312 0
-390 663 0
-248 -242 0
-488 -416 0
1366 2300 0
3963 1600 0
-1156 -1105 0
-1575 -4318 0
-879 -2573 0
-2237 3569 0
1256 3834 0
42 -1839 0
-4345 1246 0
-2746 2147 0
-959 -2347 0
-2687 -2300 0
-1978 -4122 0
3207 -3527 0
3608 3393 0
-3596 246 0
-1210 -2723 0
-3652 4702 0
-2057 -4347 0
-479 -710 0
-3050 -4335 0
-4647 3247 0
-1782 1013 0
2585 4583 0
2433 -3168 0
3843 4390 0
-3343 1585 0
1266 -2053 0
2558 4161 0
-2457 -1451 0
-3814 4509 0
-1843 1231 0
3753 2118 0
2025 3515 0
-381 -4324 0
-454 -3297 0
-1836 -4159 0
-4538 -1245 0
4479 1521 0
-1445 -561 0
2708 3317 0
-262 42 0
952 2812 0
-2650 3038 0
2974 -1366 0
-3208 -694 0
-1330 2078 0
-1883 -3837 0
-3062 1853 0
-4369 700 0
-3978 -4648 0
478 420 0
3794 -2675 0
-1758 1240 0
-3751 1168 0
-720 2164 0
-625 4101 0
-3254 4167 0
1023 -3336 0
2350 128 0
-718 -3862 0
3145 111 0
-1194 3861 0
-2601 4418 0
1198 -111 0
-300 -2763 0
329 -1816 0
3943 -3261 0
-2938 -112 0
-4660 1479 0
2681 -4525 0
3294 -3370 0
-44 3245 0
-4188 3542 0
-2616 108 0
-2089 -4683 0
-4091 2281 0
1418 3103 0
4475 -3845 0
-1464 -3112 0
825 -3710 0
-4509 2484 0
-629 369 0
1060 2267 0
-1986 3544 0
331 3764 0
2140 3611 0
3085 -3045 0
-4468 2532 0
1454 1487 0
-4556 -598 0
-888 -3543 0
4632 -311 0
3503 3328 0
677 -3413 0
4235 -4125 0
472 -478 0
-477 2013 0
-1694 4234 0
-1114 -3597 0
-2 358 0
911 943 0
4245 3933 0
-1560 -4351 0
-3421 -4201 0
4702 -3262 0
-997 3691 0
2619 4489 0
1980 824 0
286 2215 0
1433 -3104 0
4444 -2548 0
159 4105 0
2572 1590 0
-1679 786 0
-2922 -2765 0
-2780 -4069 0
-3200 -2834 0
2746 4033 0
-1304 4246 0
-206 726 0
4499 -1796 0
-148 1957 0
4680 62 0
-3479 2098 0
2809 -1039 0
-4228 -2068 0
2841 -2654 0
16 -2842 0
1703 -1951 0
-4093 -4755 0
-3864 1336 0
-4743 -912 0
-1271 -2878 0
-990 -3387 0
627 -102 0
-4320 -714 0
3631 -2489 0
-2158 -688 0
-45 2852 0
2978 -4432 0
3402 254 0
1275 639 0
143 -4220 0
-4051 -2985 0
1242 3729 0
-2809 119 0
-4457 -2667 0
-1536 256 0
415 -44 0
-477 -4678 0
-4436 3765 0
8 -1969 0
2125 -3855 0
1111 -1682 0
2399 3252 0
-4533 -3365 0
1601 -4183 0
3423 -2775 0
-941 -3846 0
1362 3316 0
-1375 4699 0
2087 -3631 0
709 -71 0
2586 1606 0
2733 -3132 0
-3842 3230 0
2656 1074 0
-613 -1581 0
561 745 0
-1026 1004 0
3823 -4339 0
1057 -1766 0
-922 -3727 0
-703 -4130 0
-2827 -169 0
4289 -854 0
3288 851 0
-3146 1148 0
2042 3007 0
-2006 -4683 0
-507 2058 0
-3641 -1932 0
-4654 -3540 0
3653 4520 0
1908 2633 0
2775 2266 0
-4485 -1876 0
-4561 -2001 0
-2451 -2084 0
-2805 -2909 0
-3168 -1336 0
-457 3822 0
2150 1239 0
2481 4694 0
-2962 4297 0
2928 4676 0
3961 -1545 0
-2720 1838 0
-787 -2007 0
-702 -403 0
1235 -1561 0
1111 -3642 0
-1201 1557 0
3588 2687 0
3422 2401 0
2136 -1960 0
1133 -3335 0
-4122 2947 0
-2334 3538 0
-4568 3522 0
-405 -3390 0
-2148 -2810 0
-300 4617 0
3855 -1841 0
-1778 -4691 0
-3765 4305 0
-4505 2004 0
3815 -3235 0
-1590 2462 0
-1593 -278 0
-2987 3813 0
273 -4217 0
-610 -3811 0
142 -3574 0
914 -3305 0
-2429 2350 0
-2534 4522 0
-1594 1421 0
-4338 4654 0
-4013 -945 0
-885 4499 0
-3489 -2915 0
-4342 -3171 0
1543 3675 0
1959 3390 0
4666 -237 0
614 3206 0
234 3277 0
1403 1085 0
55 -4251 0
-2978 -621 0
-2410 3287 0
-2708 -3714 0
-1638 1132 0
-2233 108 0
1251 1609 0
-4229 -730 0
-3577 8 0
-4300 2245 0
1554 729 0
-2279 -723 0
3549 -936 0
1772 -821 0
1362 1574 0
309 379 0
-4240 2322 0
1116 -2504 0
-3008 795 0
-1019 -3463 0
2374 -755 0
-4524 -2492 0
328 -494 0
-1841 -1103 0
151 1282 0
-4743 2163 0
4073 -1514 0
-3146 -199 0
-4069 1545 0
-3240 2925 0
2514 -1945 0
2402 1358 0
3374 1732 0
-2534 1714 0
-2963 4272 0
188 -4125 0
205 -2296 0
1239 -4372 0
2669 -1823 0
3017 -2851 0
-631 -4088 0
382 4428 0
2421 -757 0
-1350 441 0
1252 4515 0
516 2109 0
-1218 2698 0
981 -3953 0
-189 -4636 0
2988 -170 0
-2429 -2352 0
803 -3642 0
2462 1044 0
3749 -3418 0
3589 3483 0
-3870 -1293 0
-3800 1377 0
332 838 0
-951 693 0
2044 1924 0
3521 -2979 0
-839 -861 0
4726 -3638 0
1980 -949 0
-2521 -4437 0
1863 2345 0
3046 -3836 0
3547 -257 0
-3373 -2304 0
-2855 3591 0
881 -4057 0
2289 -4426 0
3047 2930 0
-1190 -4462 0
-955 -2513 0
-1103 3824 0
4540 4564 0
2839 225 0
4570 -3251 0
-3254 -239 0
3963 -3519 0
859 -334 0
-2009 2302 0
2244 3378 0
2123 3850 0
-3978 3780 0
-1076 2597 0
-55 -1271 0
-2349 2727 0
-1220 -1551 0
1129 4500 0
2850 2789 0
2020 1257 0
1049 1813 0
-2948 3663 0
3651 -2433 0
-3031 -662 0
-3292 719 0
1722 4393 0
4327 -771 0
1105 -4262 0
2866 2914 0
2932 737 0
500 -3901 0
4514 1743 0
4353 -1510 0
4579 3334 0
-3141 4054 0
969 -3446 0
-2970 -4059 0
-2449 157 0
1407 -877 0
-2874 -3655 0
-574 -611 0
-2448 320 0
-285 56 0
4372 -1547 0
-1964 3659 0
3607 -1568 0
-3462 -3131 0
3601 -2195 0
4474 -552 0
1387 4550 0
-2685 365 0
-409 -2965 0
1298 3047 0
-2233 -3341 0
2197 -3073 0
4602 1090 0
903 747 0
4198 -4494 0
-2418 3920 0
1658 -1759 0
4745 -2195 0
213 88 0
-4107 -2160 0
-2563 631 0
-765 1640 0
319 4594 0
2414 4701 0
2587 -3389 0
-1937 459 0
-2185 1744 0
4364 4398 0
-2230 -2024 0
-4396 -3570 0
3102 -1002 0
1958 -889 0
4053 -1603 0
3185 4122 0
696 4064 0
-3720 4334 0
-2181 4220 0
-2616 397 0
4686 905 0
-566 -846 0
2277 -2243 0
-3447 166 0
-1816 -486 0
-785 302 0
2378 -658 0
2081 3789 0
1428 3445 0
152 2821 0
-2345 2571 0
2099 1439 0
4699 3072 0
4208 -4315 0
4247 -4512 0
-4551 -4755 0
-1683 4687 0
209 829 0
-1215 675 0
2304 4118 0
401 -327 0
-131 3764 0
4583 4178 0
-891 723 0
486 -1176 0
3584 -3926 0
1674 1366 0
710 -3572 0
2944 -3547 0
3880 -416 0
2479 4053 0
-3357 3234 0
-4042 4123 0
-1890 2016 0
-1464 3923 0
2479 -4571 0
2516 3006 0
788 4180 0
-1350 -1363 0
4625 -425 0
3374 -3860 0
-711 -3627 0
1175 -2748 0
3667 1458 0
1750 -4087 0
-672 -2155 0
1441 3415 0
-4577 3026 0
3750 1093 0
1157 -3301 0
-659 -1062 0
3337 1409 0
-642 3331 0
1317 4185 0
1844 -2059 0
-2951 -779 0
39 2707 0
-543 -2213 0
3036 -278 0
-1927 -2816 0
-634 -1765 0
4705 -4175 0
-255 -2334 0
2641 -4253 0
4268 -2939 0
4033 -1220 0
-201 -4498 0
2879 2646 0
2427 -512 0
-2804 -2237 0
2523 3546 0
-3234 -3873 0
-3970 -3107 0
-2802 -4403 0
1903 -2896 0
-3370 619 0
-886 -1413 0
-1977 629 0
4375 -1676 0
-63 4418 0
-5 -3064 0
-1206 -4021 0
1329 2050 0
-1611 3397 0
-1253 -456 0
788 3859 0
-4240 -1166 0
-3892 4374 0
3830 942 0
-1029 132 0
-3328 115 0
3721 -3846 0
-2919 -1868 0
1408 -4335 0
306 2270 0
4440 2407 0
3238 2351 0
-2500 -4086 0
-4572 282 0
-3393 4292 0
4048 474 0
69 -3438 0
-4693 1225 0
1214 174 0
1323 2072 0
4358 3332 0
3739 -482 0
-3862 -1947 0
3099 1483 0
2238 3392 0
432 683 0
801 -16 0
-554 1897 0
68 242 0
1033 -1757 0
301 3118 0
-4494 3727 0
904 3694 0
1068 -1379 0
-373 1505 0
-2718 3163 0
1231 4067 0
227 2974 0
631 3342 0
-1487 4222 0
-2352 -4626 0
-928 -75 0
3384 3728 0
4305 1062 0
-4006 -679 0
-821 4467 0
-1276 -1320 0
-3635 -4731 0
1877 2378 0
-4020 -2308 0
158 2026 0
-4288 -3872 0
-888 -4010 0
2590 -582 0
-2704 3698 0
4394 1147 0
-2006 -773 0
-2055 -4648 0
4572 -4485 0
-1089 3635 0
249 -1554 0
-4028 -594 0
114 -4278 0
228 -512 0
1911 -1298 0
3397 -3084 0
-3540 4514 0
2786 -2362 0
2857 -2987 0
758 1732 0
-2658 -1304 0
-3597 -4221 0
-4458 1523 0
-1082 -3700 0
-3831 244 0
3117 3653 0
1266 2468 0
3283 1201 0
4704 692 0
-2214 3632 0
3100 775 0
212 870 0
-3554 3696 0
-4523 -578 0
-1822 -156 0
-1968 2944 0
-3933 2117 0
-1656 -213 0
878 619 0
1735 4190 0
2897 3158 0
-2597 -823 0
1004 2646 0
4038 3504 0
4253 -2159 0
117 4100 0
-4393 -4377 0
-1504 1532 0
3791 4428 0
2548 -1089 0
-1905 78 0
-3026 3406 0
1177 570 0
-4591 2140 0
-3447 3366 0
-3643 2283 0
3560 4095 0
-2763 -2079 0
-33 830 0
4653 -4429 0
-3913 -432 0
-652 -2428 0
3674 -3790 0
2471 931 0
4110 1657 0
-2514 1940 0
2812 -3573 0
1407 80 0
1447 -2718 0
-1016 -3776 0
-1656 2749 0
4163 -51 0
2824 1395 0
3595 469 0
3965 -2986 0
-7 -2252 0
2519 3300 0
-13 -791 0
-4184 -3111 0
-179 -1460 0
4384 -4107 0
1188 -4091 0
-2719 -3001 0
306 1117 0
4018 1121 0
-2884 -3070 0
2183 719 0
-3350 4070 0
-112 3347 0
3511 3603 0
-4692 -2301 0
3344 154 0
2688 4384 0
-2753 2021 0
-3985 2228 0
-3299 739 0
-4020 4158 0
-2874 -634 0
1137 3604 0
-3731 4269 0
-3437 -4314 0
-4071 1646 0
276 650 0
-4714 -2142 0
-2392 3311 0
3491 2607 0
3908 -2542 0
2886 -81 0
-3225 -3894 0
-4661 -3335 0
-3830 1077 0
-236 -1518 0
-4015 -3127 0
-313 2408 0
-3301 -4445 0
3807 1345 0
-2274 1925 0
-2895 -167 0
-2928 1661 0
3030 2786 0
1980 -2737 0
3928 2521 0
-985 1033 0
-3565 -1498 0
-2510 3400 0
-3902 1164 0
804 2652 0
-4518 -3721 0
3797 1441 0
-3594 3604 0
-3151 3779 0
1886 4517 0
-2737 4226 0
-630 1886 0
3912 -4194 0
-2251 -1211 0
-833 -913 0
-3497 -3241 0
-88 -3641 0
2214 2275 0
-2111 4679 0
600 -2606 0
-192 4503 0
4476 -4221 0
-4123 -2258 0
1881 3999 0
-4094 1712 0
2165 -3446 0
-2585 1924 0
1639 4037 0
-4507 -1240 0
942 2001 0
914 -2502 0
-3258 -361 0
-817 -3817 0
-992 -409 0
1729 -1809 0
2516 1824 0
3692 1317 0
-735 -2953 0
976 410 0
4621 4154 0
3208 1686 0
1951 -4218 0
1658 1132 0
2849 -3985 0
-2324 2310 0
3032 -2995 0
2759 4469 0
97 4420 0
4495 -523 0
-4554 1650 0
-2892 -920 0
742 2860 0
2495 528 0
-2099 -842 0
1220 -4619 0
-2063 -2183 0
-2853 -1758 0
-394 -2710 0
1538 2356 0
2404 4200 0
-487 -4725 0
-2108 2613 0
-2320 -643 0
-3449 -2695 0
-2946 2493 0
-11 -243 0
-4362 4026 0
-4245 4679 0
-787 1580 0
-2196 2426 0
398 4582 0
4735 2168 0
1676 -3960 0
815 2841 0
3309 -2623 0
2726 -827 0
2322 -44 0
1193 2763 0
-283 3023 0
-2284 -3668 0
702 -3538 0
4454 3883 0
-4666 -4338 0
2850 -2456 0
3289 3404 0
3594 -1153 0
4679 -4 0
-4388 3402 0
-2561 -1736 0
-2304 663 0
-2197 2614 0
-2450 2587 0
-3620 920 0
3055 3376 0
-3623 -4172 0
586 -828 0
-939 3544 0
-1999 1414 0
-531 -3739 0
-3779 -428 0
-2768 3781 0
3371 -2497 0
-3715 -3513 0
-4117 -3665 0
-381 -2664 0
353 -4360 0
-2635 4638 0
-4621 -4179 0
-374 3049 0
2200 -3376 0
-540 -4483 0
-823 -845 0
-4070 4377 0
-2004 3171 0
1972 -4685 0
-3769 -1568 0
-2225 -3822 0
502 3893 0
-4641 -2286 0
-3011 -1775 0
2096 904 0
-4092 -4423 0
-3613 -323 0
-1103 4436 0
3647 -1705 0
1864 4467 0
-1342 1472 0
1061 -3497 0
501 -126 0
-742 -1461 0
3009 -1690 0
917 3110 0
2734 -4614 0
4462 -4720 0
3105 -260 0
-4127 2630 0
-422 -3521 0
-2477 -824 0
2118 3374 0
1265 -4055 0
-999 -2952 0
735 -1027 0
1598 -4339 0
-171 -2574 0
3252 3999 0
2904 -1745 0
3277 2678 0
-1515 2262 0
2227 -4595 0
3095 4679 0
-477 430 0
-2531 1237 0
3126 -2274 0
-2740 3886 0
-828 -4523 0
-2918 2498 0
396 550 0
1622 1926 0
4350 -4241 0
-2448 -2339 0
-3978 -1537 0
3727 357 0
3834 -4058 0
3902 -2656 0
100 1198 0
-326 2966 0
2220 -3375 0
2086 1886 0
1029 -334 0
4058 -3702 0
-600 -1386 0
736 631 0
3680 -3734 0
-2052 -2076 0
1946 -1957 0
132 131 0
3450 -4246 0
638 1521 0
-1425 -402 0
-2419 4347 0
132 -4641 0
3553 -1977 0
-3053 -1540 0
2305 793 0
-4172 -2712 0
-4615 3034 0
2099 4357 0
-293 3467 0
-3872 1579 0
4038 -4700 0
-4746 -1328 0
3059 -3532 0
4259 -1018 0
-3734 2483 0
1336 2244 0
2921 3408 0
2417 1627 0
688 -3555 0
2897 4589 0
4290 -3571 0
-2233 -1865 0
750 4142 0
2505 -3691 0
-3390 3376 0
-4452 4126 0
-3315 587 0
3737 2461 0
-174 2827 0
3525 3587 0
-1441 -818 0
-2357 -113 0
-4228 -3379 0
4029 -2190 0
-2459 -2891 0
-2308 2709 0
4178 -201 0
-3087 -2399 0
-3965 -3329 0
-1933 -2099 0
1795 1310 0
3371 391 0
-4155 3964 0
4518 4127 0
-965 799 0
832 -3101 0
-3190 -166 0
-3309 -3875 0
2011 801 0
3036 1468 0
3383 322 0
-1783 -4376 0
2225 1792 0
4079 2839 0
1700 1142 0
2213 1996 0
3833 3582 0
-3013 -1164 0
809 -691 0
-1795 2629 0
2462 2822 0
-4577 701 0
4006 -3704 0
847 -3874 0
3762 269 0
-1816 -523 0
-3785 2350 0
-4471 4447 0
-2666 2042 0
-4524 -920 0
-2332 -4402 0
1587 -2243 0
1673 1686 0
292 3294 0
1791 -4364 0
-3028 413 0
656 -2692 0
-2066 -4714 0
-708 2127 0
3239 -26 0
2400 -4091 0
1353 -1079 0
597 2395 0
565 -1906 0
-269 1199 0
1132 72 0
-3210 1232 0
-1481 -3249 0
992 -3720 0
4561 2629 0
3374 86 0
2109 2020 0
3128 4238 0
4322 -3696 0
-1190 3421 0
2007 4436 0
-3010 4563 0
2744 3014 0
3035 -12 0
2764 -3127 0
3174 -1005 0
-200 -4348 0
957 -3547 0
1914 -4620 0
3371 -4327 0
-4338 3523 0
3938 4472 0
-1977 4214 0
251 1331 0
-2603 -3713 0
-2609 -4282 0
-1956 -989 0
-4159 1757 0
-2572 -1832 0
1244 -333 0
-211 3770 0
20 -4336 0
3755 -1079 0
2409 3344 0
-4187 -50 0
-1944 1920 0
3692 892 0
-3659 -2787 0
766 474 0
886 -2188 0
-153 -1043 0
-125 3696 0
1894 -1655 0
715 -1678 0
1795 -3269 0
877 -1701 0
4415 -3303 0
1692 4670 0
-1208 -3456 0
162 -2994 0
1846 -3189 0
-110 -4131 0
-3745 -472 0
2403 2278 0
-2310 2155 0
2853 473 0
2564 -614 0
-2009 1051 0
-3686 1306 0
-4633 2192 0
2932 -454 0
-3786 3671 0
1311 -1873 0
-275 1421 0
3928 4027 0
-2103 3528 0
3991 -3834 0
-224 -2594 0
782 2118 0
1434 4518 0
3585 -1963 0
411 -3735 0
520 1329 0
3235 -4246 0
-3148 -2502 0
4314 -2019 0
-2759 -927 0
1113 1565 0
-4171 4178 0
1321 3207 0
-1178 -2417 0
4384 -558 0
3648 818 0
-4498 3745 0
-123 1416 0
-3464 4670 0
-899 498 0
379 -4439 0
58 -951 0
-822 -2987 0
-2787 -2233 0
-310 -226 0
-916 2192 0
-4174 -3482 0
-1926 810 0
-3449 -4301 0
3999 -4739 0
-3169 -2049 0
4276 3537 0
-4023 -2718 0
-2835 950 0
-2618 -2182 0
767 337 0
804 -3477 0
-1274 3242 0
2163 3383 0
-2632 1714 0
741 348 0
-4240 3667 0
-3722 1976 0
2075 3592 0
300 -1769 0
-405 1090 0
2441 2921 0
2314 -4278 0
1434 -1736 0
4291 3093 0
-3386 1893 0
480 -1933 0
-910 1533 0
-3851 3221 0
4167 -196 0
-4493 546 0
-3888 -860 0
-2712 -1495 0
736 -836 0
164 -2071 0
1094 -4460 0
-454 4632 0
-4018 1207 0
1499 -4453 0
1629 -389 0
-1543 1283 0
-3441 -1092 0
-1162 -349 0
-3137 2269 0
-3316 4450 0
-2208 894 0
-3464 1942 0
-4016 -3538 0
-1646 -72 0
1788 -2995 0
-2009 -2673 0
2471 -2182 0
1161 -4729 0
1275 -1649 0
375 1244 0
715 -565 0
3946 -2617 0
2878 -3783 0
2697 -746 0
-3279 -4107 0
625 4631 0
-4690 -2786 0
346 4019 0
2588 535 0
158 4643 0
4557 -4378 0
211 -4092 0
-868 3505 0
-4202 2556 0
-1924 3328 0
3973 -830 0
2331 -3440 0
-4103 352 0
-4722 3662 0
-2324 -2301 0
-585 -1784 0
-1455 -4433 0
2235 -4068 0
2673 -738 0
2110 -4606 0
2586 -3172 0
-2632 -4017 0
-549 4495 0
177 -1288 0
618 -3952 0
2554 3038 0
783 -3703 0
2975 2414 0
-3027 1994 0
-4338 -2094 0
-1373 -1684 0
-4181 -4712 0
430 1267 0
-2449 3957 0
-2946 1683 0
4559 -580 0
1971 -1299 0
4417 -1738 0
-4433 255 0
-2698 -2604 0
4126 3799 0
-3126 3106 0
-849 -3077 0
-912 -2758 0
273 4731 0
-1839 -4150 0
-1355 -1227 0
-602 -1969 0
-3835 -2340 0
-4709 -1582 0
-1166 -1229 0
3435 2364 0
-4320 -3203 0
-2519 70 0
3308 1813 0
-1172 -3308 0
448 191 0
-2825 3731 0
1505 -2324 0
3824 -2238 0
4489 4204 0
2411 4305 0
-4065 4049 0
-2981 -1767 0
-4468 1661 0
3187 -2161 0
-2577 -605 0
-3320 62 0
-249 -2456 0
93 -1603 0
-1409 4538 0
-1596 1007 0
3639 -1455 0
-4124 -915 0
1506 4284 0
252 -31 0
-1179 -596 0
-1757 1624 0
2649 2132 0
4517 -3965 0
-2526 2756 0
-2981 -2918 0
2197 2973 0
1986 2780 0
1976 -2639 0
2990 -1816 0
-1931 699 0
-639 3459 0
-1617 2708 0
-2412 -194 0
4691 1877 0
3793 3313 0
3469 -3627 0
358 2879 0
-3443 -4019 0
-1427 -4354 0
4190 -533 0
249 -1185 0
1715 -2049 0
-1620 -29 0
2706 -3637 0
-2296 -2861 0
2725 4023 0
4497 -2678 0
-3302 1117 0
-2182 1611 0
-4070 515 0
886 -1751 0
592 -3934 0
1521 97 0
1329 1078 0
-1601 -2311 0
-1196 1760 0
-3060 -4483 0
-549 4197 0
-373 -70 0
-1217 1184 0
-3701 900 0
4257 2557 0
2253 -699 0
2916 198 0
2872 3286 0
2088 -943 0
-3415 -2542 0
4706 -1131 0
2415 1303 0
4352 -3350 0
-237 -3077 0
-105 4029 0
-3482 4380 0
2436 2077 0
-3512 -873 0
-1091 4631 0
-2627 1636 0
1288 287 0
-2826 4683 0
3038 -1769 0
-3219 -3453 0
2119 -1830 0
1680 4735 0
3235 -1476 0
-4734 3228 0
-1546 2135 0
3308 -4403 0
-3199 -3671 0
4071 3167 0
4029 2349 0
-4358 -1989 0
4307 3402 0
-3341 -1481 0
986 1755 0
1190 294 0
-4351 3456 0
-4466 3626 0
183 30 0
3915 -764 0
3873 1926 0
-2827 -4152 0
3654 4209 0
-2786 4462 0
-990 -28 0
2706 1329 0
4713 1144 0
-3584 920 0
-3896 2149 0
-2292 -4090 0
-716 -2701 0
-2630 -4313 0
-1918 -2579 0
-642 -1268 0
-4355 -3401 0
2156 12 0
2343 -639 0
3427 -2021 0
-504 -1465 0
1187 446 0
-3683 1451 0
3883 -1558 0
2903 3747 0
-1676 2697 0
-1848 1516 0
410 3344 0
-1639 -2218 0
496 133 0
-4490 -1460 0
3089 -178 0
940 4612 0
2689 -168 0
2695 4036 0
-1099 2794 0
2562 -243 0
4548 -2010 0
-3393 -613 0
-3270 3409 0
178 -4350 0
-513 4050 0
-3714 -989 0
-1381 -2442 0
1872 -2265 0
2206 -4573 0
-3031 3492 0
-2216 240 0
-1646 -287 0
-1480 -4300 0
4304 1062 0
-818 2379 0
-4360 -549 0
-3142 -3609 0
2701 1831 0
-4130 3001 0
-549 -2453 0
3994 -79 0
-3667 342 0
-7 3942 0
792 -539 0
-677 4235 0
3756 -1585 0
-2453 -1403 0
-4032 -3211 0
-3400 3748 0
-774 433 0
-429 731 0
-4397 -1022 0
-3199 1144 0
-3265 2610 0
1993 -455 0
3042 2943 0
-2982 1582 0
430 567 0
-3017 -4490 0
-740 2474 0
4026 -754 0
-530 -2425 0
-442 -1725 0
-2498 4523 0
2545 725 0
480 3848 0
2482 3465 0
1270 -2765 0
-1479 -3423 0
2601 3327 0
-2341 -980 0
379 1838 0
-1483 152 0
2237 -312 0
-3216 -2922 0
-3882 -2664 0
-3139 4331 0
3664 -1537 0
1 3964 0
-4356 -2055 0
-2598 -1937 0
3273 -169 0
726 3411 0
-3444 4042 0
-747 -3967 0
-534 619 0
-3718 3895 0
3123 1767 0
-357 4051 0
3882 -2429 0
-4362 2666 0
1597 3024 0
4588 1425 0
3140 1295 0
4248 -1418 0
2278 3833 0
-3189 1493 0
1686 1906 0
3070 1352 0
3165 -848 0
1535 -1223 0
1545 4471 0
-254 -482 0
4170 4181 0
-2602 -3677 0
3593 4383 0
-3264 -4359 0
2091 -1628 0
-4244 -3800 0
-3926 -2669 0
-4203 1939 0
3397 -3649 0
-1854 1246 0
-380 -3792 0
-2991 3823 0
3529 3371 0
1713 -336 0
4503 -4704 0
1133 987 0
-476 -224 0
1011 3879 0
217 4607 0
1622 2364 0
607 -192 0
475 798 0
902 -1444 0
-3972 4080 0
-3302 4454 0
4476 -3661 0
4239 2440 0
-4041 -2936 0
2276 -2399 0
3486 3201 0
2428 -1508 0
-251 2881 0
-3332 -3357 0
-3077 -371 0
-4412 -3875 0
-4356 -4510 0
-3776 -216 0
-1836 2529 0
-3853 2011 0
-4402 -4469 0
-4391 434 0
-1412 -3315 0
781 3465 0
-683 79 0
182 759 0
-4732 3694 0
3407 -3814 0
3819 3608 0
1935 -197 0
1649 -1227 0
3484 3297 0
1667 -1025 0
-2918 3802 0
3873 -2597 0
2576 -4176 0
-2627 -1304 0
-898 -4418 0
-3602 1932 0
4613 -1868 0
-2841 3394 0
-929 -4012 0
-539 -1305 0
-466 -2464 0
-202 481 0
2889 -1879 0
2874 -2295 0
1352 1607 0
3544 1526 0
-439 570 0
-1074 976 0
-962 3450 0
1544 -1243 0
-4544 3271 0
-1789 4520 0
1054 700 0
3319 -3912 0
-1641 4377 0
-1060 -1807 0
4217 2069 0
2789 -1007 0
809 -3906 0
-4052 3619 0
-916 4565 0
-2988 -4486 0
2830 3361 0
-2410 -2713 0
-748 -2239 0
2858 3252 0
448 3912 0
3909 2165 0
-3232 2147 0
3117 -1460 0
3380 4625 0
-955 111 0
-4250 -2708 0
4436 -3563 0
-86 1717 0
744 3520 0
-382 518 0
-1958 2996 0
-3220 -3306 0
3349 1750 0
1295 -4446 0
1671 -2009 0
4379 -1487 0
-1873 -2215 0
-3406 2885 0
-4113 -706 0
-2682 2760 0
-340 -4580 0
2209 2565 0
3755 2165 0
1101 -4541 0
1830 -933 0
1352 2490 0
4001 -12 0
-2698 176 0
551 2014 0
-4708 -2980 0
-4342 1713 0
-4399 -1413 0
1473 1636 0
142 2885 0
-2425 4210 0
-1046 2248 0
4331 1773 0
2212 1482 0
3173 -1067 0
-1284 1726 0
-3430 -2597 0
-2203 -102 0
1357 -3656 0
-3818 4681 0
-544 1361 0
-840 1492 0
2229 2309 0
2817 -2543 0
-1701 -1362 0
3158 2593 0
817 1508 0
164 1645 0
731 4017 0
-507 2929 0
-1542 -126 0
3476 -2015 0
3740 3149 0
2017 2568 0
1648 -1225 0
-2600 2030 0
-2359 -1966 0
1547 -1670 0
-1554 2854 0
-4474 4293 0
3465 -1880 0
3606 -621 0
-4518 -1389 0
-2280 4089 0
139 4563 0
3763 1926 0
4346 -2733 0
631 -3372 0
3692 4651 0
-2895 1807 0
2955 1991 0
640 2505 0
3506 2414 0
-4116 -2998 0
3928 2939 0
-454 -1574 0
4636 -2446 0
1695 -4741 0
-4429 1520 0
1353 -1781 0
-69 3636 0
-1100 349 0
-1388 4516 0
-3798 3685 0
-1975 -4083 0
291 3992 0
3315 1344 0
2994 -2630 0
1167 -4246 0
3529 -322 0
3614 -672 0
2106 3430 0
-3037 1900 0
-395 -4681 0
2117 1743 0
747 584 0
-3665 -2274 0
1080 2318 0
-124 2520 0
-3082 3034 0
-2064 638 0
3046 3018 0
-3573 4469 0
4210 -69 0
3515 645 0
4544 -1552 0
-4091 -1546 0
-487 2958 0
1752 2268 0
-1282 -3550 0
4561 1110 0
-1990 2485 0
1225 -3929 0
-2304 715 0
-796 -525 0
-2465 -4218 0
-2511 2714 0
2457 -1140 0
1090 -4325 0
4439 1420 0
623 819 0
-405 -1124 0
-1413 1806 0
-4043 1051 0
-2017 -1733 0
3208 969 0
-1197 4036 0
-2642 -18 0
-2930 1320 0
-2381 701 0
2181 -3298 0
3021 4020 0
-3184 -1958 0
2846 1122 0
-2056 -481 0
3824 2879 0
2425 749 0
870 -4685 0
-2905 -919 0
-2452 1187 0
-905 -2037 0
-2120 -3608 0
-3958 3310 0
4248 -4216 0
2375 -2256 0
2279 -3308 0
3475 3499 0
-227 3848 0
-3851 3936 0
-219 -2693 0
3221 -872 0
-1340 3821 0
-4600 -1028 0
-1430 4163 0
-1547 -110 0
-156 297 0
3170 -2875 0
-126 3423 0
4707 -1830 0
2898 -2142 0
3611 2820 0
2644 2966 0
-1159 -1157 0
-2448 3123 0
2182 40 0
-2030 -3472 0
-1496 -1837 0
1541 3978 0
-1586 -825 0
4556 2167 0
2805 2014 0
-2893 4092 0
928 819 0
1722 -4273 0
3971 1526 0
2663 -3097 0
-1411 4233 0
799 -989 0
-1076 -1582 0
731 -1617 0
777 603 0
2420 -1267 0
2448 282 0
-2911 944 0
1034 -2765 0
1846 2473 0
-3155 2111 0
-3426 -2382 0
145 4169 0
-3174 1078 0
336 -2044 0
1764 1294 0
-2526 -1174 0
422 4661 0
-3251 -3301 0
2769 -3398 0
-1524 160 0
-2204 -1939 0
525 -3361 0
2789 -3509 0
-2734 -4750 0
-3610 3730 0
4740 2112 0
3770 124 0
2435 -2148 0
1272 3094 0
3500 1158 0
-1038 1112 0
2836 -1024 0
-1098 4208 0
-157 -1474 0
-1598 -2992 0
-1533 4735 0
185 -1444 0
-1648 -111 0
2235 2772 0
-3462 -4571 0
-4718 -878 0
1219 -4263 0
-1845 -3863 0
3407 -710 0
1995 1661 0
1356 -3242 0
1086 4175 0
2013 1098 0
-3897 -1560 0
3587 -315 0
-2758 284 0
804 3646 0
-2508 -3155 0
-603 4668 0
2738 -2498 0
4353 937 0
-637 3029 0
849 -3955 0
-3840 1816 0
3658 -2541 0
325 4555 0
-4426 -1800 0
-2423 3446 0
-3002 3309 0
-3345 1378 0
3428 3285 0
-2622 -197 0
-1095 -1664 0
4745 -3438 0
-3656 -2164 0
3347 1657 0
613 211 0
3860 -1080 0
3887 1233 0
1516 -2482 0
-2698 -541 0
1099 2559 0
4748 461 0
3363 2829 0
-3088 187 0
1277 -1083 0
4652 3859 0
-2487 -581 0
-2388 250 0
2028 4612 0
4407 4379 0
-2151 668 0
-1115 689 0
3591 -575 0
-851 -884 0
-4523 806 0
302 -2574 0
384 2816 0
3479 4131 0
888 -642 0
3178 4042 0
-90 3318 0
3553 -3638 0
1932 -3190 0
-1239 -3445 0
2918 -300 0
-1115 3667 0
4120 -3037 0
-3568 2971 0
1263 -2160 0
262 -2643 0
-2444 2336 0
3636 1861 0
-3450 3507 0
3897 -4324 0
1809 3196 0
-2865 1840 0
2829 -1301 0
4663 -2192 0
-2937 2585 0
-3985 -700 0
3990 4628 0
2525 1556 0
-3813 -470 0
-2129 451 0
-3288 -2087 0
4105 490 0
4687 -490 0
-3363 3167 0
1071 -4107 0
1045 -3905 0
2952 -3571 0
-3708 326 0
4453 845 0
1560 1712 0
-548 2060 0
1345 -2722 0
-1912 -4562 0
-4124 -1202 0
2645 4406 0
-1746 3980 0
-4355 -3362 0
-2103 -4185 0
-2995 3139 0
-2940 2860 0
-581 340 0
869 -750 0
-501 -2906 0
-2133 -447 0
1231 -2051 0
-1380 150 0
-4090 -629 0
-1254 -3157 0
-4441 -4428 0
-1425 -845 0
-4199 -2049 0
-179 -2052 0
2349 -1723 0
4682 -2296 0
4480 -3356 0
1695 3625 0
-2072 3931 0
-2737 -4748 0
657 4220 0
191 -1852 0
-818 -65 0
-218 -2015 0
2013 -1689 0
1610 1043 0
-2929 -1628 0
4458 4395 0
150 2737 0
1441 -3906 0
-3485 -2557 0
-1672 4514 0
586 2506 0
3732 -1701 0
-3102 -3031 0
2885 -4229 0
4434 -2820 0
4475 -2183 0
4337 -204 0
-1447 2235 0
689 717 0
-2873 -2015 0
-3894 976 0
4631 3951 0
-1136 4160 0
2316 1122 0
775 2372 0
1463 3178 0
-2009 445 0
-2025 2450 0
3204 -2925 0
2302 4715 0
113 -1316 0
1301 -4334 0
2848 2498 0
-3445 -1033 0
3556 4451 0
4118 4653 0
3239 1066 0
1072 4485 0
-2304 1650 0
-2541 793 0
3181 -735 0
-632 3460 0
1544 977 0
1170 -458 0
-4240 2484 0
2740 -2071 0
1340 3166 0
-194 4038 0
-4121 -4451 0
571 1404 0
3536 3319 0
-605 77 0
3205 -3159 0
-1937 -4507 0
-2113 2288 0
1685 3754 0
4110 2265 0
3564 2748 0
-961 -2699 0
-627 4212 0
3047 2234 0
2989 -1695 0
-1496 1687 0
-1964 -2389 0
-1971 1507 0
2741 -744 0
2107 -639 0
-4300 -1482 0
4475 1724 0
3463 -3643 0
3807 521 0
-3342 4152 0
-4034 -3127 0
-4065 -3716 0
-708 3989 0
-1658 4266 0
1507 -3890 0
-866 3060 0
2801 -2504 0
-2459 1951 0
1618 -4280 0
-2327 3290 0
1697 1559 0
421 1948 0
736 2169 0
1463 1258 0
-1286 2469 0
-2918 -1972 0
1490 -1455 0
3309 -1462 0
-1888 2628 0
2347 3485 0
-3912 2022 0
3961 3197 0
4331 4635 0
2828 -1131 0
1853 -111 0
-3831 135 0
555 -81 0
643 1392 0
2975 700 0
-52 -1155 0
1874 3415 0
1309 2480 0
270 2730 0
479 -2430 0
2714 -3483 0
1666 3406 0
-3884 3981 0
-1136 4415 0
4732 -4260 0
-3538 3337 0
1831 -3313 0
1401 664 0
1414 -3430 0
-4333 -3037 0
2972 1474 0
-3428 168 0
-3697 -4168 0
3676 857 0
4243 -1883 0
-2365 1300 0
-512 -4451 0
4138 1126 0
2342 -675 0
4653 1073 0
-3896 3882 0
-110 2701 0
4613 4386 0
-3149 -1386 0
411 -2104 0
-1455 -3579 0
2216 -4642 0
2882 2996 0
932 3181 0
4304 2243 0
-4300 3066 0
692 3618 0
-4437 398 0
-2717 628 0
3778 3220 0
2949 -1108 0
4646 -3171 0
-309 -3597 0
1371 -1218 0
3813 -535 0
4110 3136 0
3153 394 0
46 -1671 0
4383 -3674 0
-3400 -1204 0
-418 3886 0
1371 653 0
879 2335 0
-2459 2436 0
-2444 3641 0
242 4425 0
2331 -2076 0
603 4491 0
1092 -2111 0
3567 3690 0
-4753 -3975 0
-3668 -937 0
2100 4588 0
2600 4702 0
1673 2546 0
946 -2124 0
-2335 2630 0
3590 3610 0
3701 -3411 0
-3267 4549 0
-1780 -1422 0
2225 -4622 0
-1265 -4750 0
-439 86 0
-389 -1561 0
-9 2109 0
3343 2225 0
-888 -3462 0
1053 1116 0
-4124 -4488 0
-4135 -2464 0
-1883 -4466 0
-2353 -1889 0
2700 -208 0
-3503 1408 0
-3445 4594 0
231 -844 0
2790 -3218 0
-8 -3597 0
-3956 1569 0
253 -4099 0
11 3510 0
1628 -71 0
-1837 788 0
15 -3711 0
-3950 -1316 0
-1552 2011 0
1838 -684 0
4644 -1594 0
4629 -1244 0
3697 460 0
-3716 1395 0
-4560 166 0
2598 4697 0
-3858 4460 0
-1388 1135 0
-1566 1893 0
3816 -936 0
-2024 3239 0
568 4610 0
491 -2091 0
-3180 -429 0
2043 -4287 0
517 1545 0
-4683 -4314 0
-4567 -3068 0
-1076 -1368 0
2565 4411 0
-112 977 0
1946 2066 0
-199 4699 0
-3483 -2780 0
1207 -3975 0
-4598 3232 0
-85 4580 0
2146 126 0
-2505 1639 0
-1095 1869 0
2383 2589 0
516 2426 0
1221 -3738 0
1506 2843 0
-24 -3540 0
3246 -3567 0
2507 1505 0
-2417 -4027 0
-3669 -3637 0
-4606 -439 0
1049 -1323 0
2218 804 0
-4058 1369 0
4733 -3010 0
4623 -673 0
3655 -52 0
-2554 -2733 0
-3840 -1825 0
2211 2030 0
4589 4350 0
1804 171 0
1078 -3675 0
3300 -4014 0
331 -413 0
1163 -2902 0
-1166 -1918 0
-1677 3921 0
2009 2119 0
-1055 -4591 0
-543 2116 0
-1388 3273 0
1235 1610 0
-2938 2996 0
-2580 -3894 0
-258 1064 0
2042 2776 0
-3023 4265 0
-424 -2434 0
4211 -3028 0
2672 -1124 0
3750 -4166 0
-264 502 0
411 -2651 0
-3863 561 0
2647 2685 0
-3719 1159 0
-2108 1629 0
-1462 -1610 0
4200 271 0
2580 2552 0
3751 -447 0
-4508 -4608 0
1842 -3453 0
2920 -3897 0
-1941 -1633 0
4253 3243 0
-962 -1881 0
896 3772 0
4149 4211 0
-3028 1478 0
-1729 -1211 0
-238 3855 0
2558 655 0
-2995 530 0
2802 2627 0
591 -1368 0
-2074 1864 0
4407 3543 0
-4102 373 0
-258 -2545 0
-112 1320 0
4658 1365 0
-3694 3588 0
-4674 3748 0
-4131 -4148 0
2500 1358 0
-3907 1231 0
-183 3629 0
-3570 3689 0
1013 4605 0
-1179 3181 0
-4323 -2766 0
-2506 1167 0
3513 -690 0
-747 517 0
-2043 -1789 0
-2045 -406 0
-816 2781 0
4152 -3013 0
2350 -1997 0
-2655 -2605 0
2932 1706 0
-4584 1541 0
-137 136 0
-3930 -2988 0
1024 603 0
4212 1605 0
1172 -4272 0
-1251 -2880 0
-549 -1914 0
1938 1097 0
-2738 564 0
-2090 2159 0
-362 4163 0
-3702 1652 0
-3203 4733 0
2176 1782 0
2710 4637 0
-917 1546 0
-1029 -4716 0
-2364 -1243 0
-3870 -2504 0
4036 -588 0
4060 -1519 0
-4362 -3122 0
-95 -4612 0
895 626 0
-164 3928 0
-103 3538 0
-106 3373 0
799 3523 0
-2936 -3720 0
1269 2412 0
1297 -4107 0
-1880 1054 0
-4107 3843 0
-103 -3940 0
2807 745 0
106 1013 0
-1311 3406 0
4365 4149 0
2306 4448 0
779 -3480 0
3091 3617 0
2790 3747 0
-4622 2487 0
-2606 -10 0
-2037 -3421 0
-2787 3886 0
887 734 0
3293 -3772 0
2292 1773 0
-2044 3979 0
-2283 1528 0
-4272 3178 0
1205 2524 0
2051 4016 0
4448 -2604 0
-3210 1233 0
1825 3936 0
3428 414 0
215 -4628 0
2400 -1461 0
-2083 1569 0
-3996 -2 0
1945 -4015 0
564 2703 0
4707 3987 0
-1675 -215 0
-2045 -1993 0
-561 1723 0
-1922 -3978 0
1918 -1500 0
-2543 -4511 0
1077 -3360 0
-1085 1043 0
4659 -4639 0
3584 -2865 0
-3873 -168 0
-742 4747 0
-284 -1439 0
654 2622 0
3983 -258 0
4354 -999 0
699 966 0
-2459 -731 0
4553 4337 0
2791 1896 0
4146 -681 0
3138 -2980 0
-40 -3774 0
-164 -2554 0
-31 1862 0
-178 614 0
4238 3659 0
-1569 -2959 0
1095 2465 0
3311 1543 0
4335 -4662 0
4689 -1271 0
4679 -280 0
-3595 906 0
177 -4266 0
-1290 -2494 0
1018 -2164 0
2520 911 0
1319 -1937 0
-1312 -2175 0
1104 3105 0
484 -3330 0
-4579 -3692 0
2460 1231 0
-2057 -994 0
1815 2070 0
4209 921 0
1490 3447 0
-2940 -2681 0
2612 -2128 0
2910 2042 0
891 2686 0
459 3259 0
-3637 -4609 0
828 -3471 0
2374 -773 0
-2355 -2550 0
3796 587 0
-425 4390 0
4679 -312 0
-3458 -3053 0
-1518 3406 0
3739 571 0
-449 322 0
1636 -4494 0
1478 1612 0
4439 -1037 0
-3763 -880 0
-2708 4484 0
-1211 3777 0
-1912 325 0
-4058 -2982 0
2166 -629 0
-3573 1971 0
-2397 1409 0
-3645 -274 0
-589 -2961 0
1600 -2685 0
-4093 -2649 0
-2148 2249 0
-633 -1200 0
1040 1362 0
-4527 2943 0
-3517 2273 0
-3621 -2744 0
575 -1440 0
-4726 -4451 0
4526 -608 0
3391 -2423 0
-534 -859 0
2109 3238 0
-3391 -2375 0
1683 -283 0
3299 -3460 0
-3127 -4498 0
-3009 -2195 0
-531 1726 0
3457 -3050 0
668 2328 0
-1223 1791 0
21 806 0
2924 -2884 0
-3491 1618 0
3985 -190 0
2248 -234 0
2525 2472 0
-1454 -3985 0
3641 -2251 0
1000 1538 0
-1341 -3941 0
2666 -2531 0
1682 -3519 0
-4431 -1816 0
4568 -3084 0
-16 2974 0
1267 -4422 0
132 4691 0
-404 1559 0
-937 -2642 0
4247 3094 0
-3451 1607 0
3019 839 0
-80 -4076 0
-3971 1148 0
-3381 132 0
-4344 4276 0
-2161 -4210 0
975 3180 0
-1869 -1281 0
4480 129 0
3930 -439 0
433 -3583 0
-1083 2692 0
-1180 1753 0
-791 -567 0
3067 4639 0
4109 -1368 0
1521 -3194 0
1175 3039 0
4032 4235 0
2835 1077 0
1135 294 0
2344 2349 0
-3380 3333 0
229 2031 0
-4341 -304 0
-1541 -2851 0
-1197 -289 0
4655 -917 0
3075 2706 0
4063 2785 0
-4043 655 0
-3153 2461 0
3685 -2041 0
-1496 -3398 0
-1608 325 0
-100 4596 0
-3879 -3832 0
-3475 -682 0
-1656 -3517 0
885 654 0
2792 -841 0
1502 -1665 0
1345 1198 0
3689 1851 0
-1586 3350 0
-125 3373 0
-4618 -1538 0
-4247 2008 0
-2760 -3504 0
74 4742 0
1178 -577 0
-3144 21 0
2146 -2624 0
2922 3570 0
-679 1625 0
-1540 -1639 0
-4286 156 0
3030 3296 0
-762 -1500 0
-4191 -3266 0
-4601 3141 0
-4219 2753 0
-3120 -509 0
2329 -2236 0
1393 2699 0
1553 3278 0
4520 -4406 0
940 491 0
-1738 4257 0
225 4583 0
-419 4182 0
-4601 1742 0
-963 -4148 0
666 4083 0
-3925 1188 0
-1021 509 0
-1238 4692 0
2765 -4031 0
3309 1865 0
-1187 -2320 0
-373 1508 0
-2310 2277 0
4380 -1419 0
-1642 311 0
3761 2372 0
-3288 1674 0
-3062 -155 0
-722 3106 0
-4113 1606 0
-558 -1525 0
-594 -4362 0
-4187 -1377 0
-2381 3672 0
102 -3716 0
3825 4343 0
2540 3444 0
-2274 -2396 0
-3801 2617 0
3793 -2163 0
-3052 -4403 0
-2837 -2635 0
-3261 -3456 0
3508 -2613 0
-2820 -2426 0
-973 -2560 0
2920 -4690 0
661 -794 0
-2402 -514 0
-77 2823 0
-425 -1071 0
-3785 -2203 0
-3069 -279 0
2866 1239 0
4222 658 0
3165 -4474 0
-200 13 0
1429 -921 0
-3414 329 0
138 2447 0
-2201 -3799 0
1538 1730 0
2904 2625 0
-2570 107 0
4754 -717 0
-41 3726 0
-3385 -4174 0
-1673 3653 0
-912 -2316 0
4266 3581 0
-3276 -2184 0
-4086 -3572 0
2828 3963 0
-2881 -3778 0
-3622 -1733 0
1850 -4658 0
-2554 549 0
-3191 -2043 0
-1418 -3864 0
2193 -1933 0
-3756 2671 0
-1507 -4292 0
-75 269 0
-4716 -1515 0
-117 2082 0
3697 1572 0
-462 -1784 0
-2791 576 0
-440 -3682 0
-283 -1697 0
770 -2713 0
-3216 15 0
617 4400 0
-2162 1660 0
3396 -3624 0
2111 703 0
3609 3796 0
-681 245 0
-3791 -834 0
-4121 4088 0
-564 3922 0
4295 2838 0
125 -1031 0
2031 4446 0
4687 3697 0
1948 4488 0
3663 3613 0
-4381 -1603 0
137 1718 0
4572 329 0
-3139 -379 0
-3463 935 0
1686 -174 0
2493 882 0
-1891 -3249 0
868 2752 0
-400 455 0
3240 1698 0
-1432 -1628 0
-1481 -425 0
440 591 0
-2557 1592 0
2889 1184 0
-235 4337 0
-2683 -292 0
-2314 -3919 0
2478 -1768 0
-2525 1357 0
-2661 2706 0
-3184 -958 0
972 4306 0
2780 2467 0
1237 -652 0
-3291 2397 0
4025 -19 0
-752 1296 0
17 -1083 0
-3078 -3729 0
2275 2931 0
4305 2198 0
-3263 -4730 0
2877 -4443 0
2392 1895 0
4118 3972 0
-1202 3272 0
767 -125 0
4026 2860 0
706 -3297 0
2974 -2136 0
1804 3524 0
3246 2780 0
-836 -2442 0
1402 3182 0
-4194 -4550 0
3171 -86 0
-1486 67 0
-4324 -2934 0
-1200 -2201 0
2342 225 0
-543 359 0
779 -2743 0
-1141 -2267 0
-2619 -4566 0
671 -4179 0
4177 -2456 0
989 1128 0
3359 -1275 0
3220 3952 0
4747 -4519 0
-3222 325 0
3985 -2999 0
-2069 -3687 0
-1143 -3490 0
-1631 -4107 0
2406 -500 0
2659 -105 0
2631 2425 0
2682 -46 0
3348 3317 0
865 -2726 0
-3593 3075 0
-3524 -4228 0
-2179 4700 0
-845 1297 0
-2248 -1896 0
-254 2770 0
-3760 1911 0
29 719 0
2156 -1128 0
3524 1885 0
1035 4512 0
3456 -3909 0
3400 -4695 0
347 -1214 0
1490 -572 0
2078 -2505 0
-305 -158 0
-415 801 0
-2008 -3754 0
1685 2845 0
-2830 924 0
2088 4397 0
2595 431 0
-1007 2947 0
2661 337 0
1813 -2202 0
3166 -1777 0
871 571 0
2070 382 0
3351 4578 0
4197 4198 0
-2195 -3531 0
-3872 1432 0
2206 -3016 0
-1283 -1873 0
3925 -2977 0
2473 3673 0
-926 2670 0
-1435 -1199 0
-4737 -762 0
-4398 -305 0
1364 4475 0
1154 -2295 0
2663 863 0
-1350 623 0
3459 -4619 0
3153 1146 0
-4427 387 0
1269 1502 0
3810 -1598 0
4485 4312 0
-3147 -3259 0
-1626 3015 0
-1026 3038 0
4574 2375 0
366 -2216 0
1930 -2007 0
2754 -549 0
687 -1278 0
4073 -1991 0
3223 -3631 0
2203 290 0
124 -2186 0
146 3029 0
-2597 -170 0
3252 -2511 0
3138 1000 0
-3982 2045 0
3347 3397 0
4178 931 0
-1946 -3002 0
2462 -2476 0
3407 -1455 0
-95 3558 0
-1007 688 0
-1863 -2935 0
-2452 4489 0
-3303 2437 0
2587 4180 0
-1555 -1384 0
-3116 3527 0
2076 2495 0
2529 1068 0
309 1074 0
1762 678 0
-4089 -2567 0
-898 -3214 0
2587 4143 0
1840 -902 0
4052 -2368 0
2032 -3933 0
-3615 3477 0
2579 -1362 0
-200 -3729 0
1718 -3783 0
-4119 1530 0
-4398 -570 0
-2800 -896 0
-2219 2623 0
-2300 -125 0
2246 -4626 0
4511 4009 0
-1715 838 0
-3446 -2793 0
476 1871 0
914 1040 0
1569 4511 0
4381 2341 0
-915 -1100 0
-2362 -3784 0
-2295 1229 0
-338 -2729 0
-693 -2984 0
-109 -3692 0
-1018 -733 0
772 -45 0
-4729 2140 0
-506 -2547 0
2007 2868 0
654 -1407 0
1334 -3353 0
-4301 183 0
-1137 -540 0
-4545 -3915 0
2439 -3757 0
2766 32 0
2811 2289 0
3501 -2196 0
-360 545 0
-1060 4701 0
-1032 -4185 0
-92 1791 0
-2798 -744 0
-2255 90 0
-2892 4448 0
-3517 2373 0
1385 -569 0
-4695 64 0
862 2168 0
1045 -575 0
-825 2527 0
-1934 -4083 0
1750 -1257 0
714 -17 0
-4069 3189 0
1023 2566 0
-2413 -3027 0
-3822 -2121 0
2443 -826 0
3706 985 0
-51 1467 0
-1030 -2993 0
1092 1015 0
-1241 3925 0
2545 -407 0
1397 2540 0
3869 -1467 0
-3222 -512 0
-713 -2742 0
-1060 -2983 0
-4192 1730 0
-3073 -2297 0
1494 -4172 0
991 -3360 0
438 -974 0
-3696 -3919 0
628 3120 0
-321 1416 0
4571 -3854 0
-3854 -4180 0
-4223 246 0
-1751 -4508 0
2677 -7 0
-76 -2071 0
292 -3809 0
-2016 464 0
-3552 1110 0
1563 947 0
2378 2774 0
-334 -2328 0
2932 -251 0
-1291 -3696 0
-3219 -2136 0
-2818 4745 0
-4171 1784 0
3739 3764 0
-3000 1496 0
1360 -3008 0
862 3112 0
1033 -4089 0
3658 -835 0
-1959 -2208 0
-3206 -339 0
4078 1826 0
-778 795 0
-1581 1434 0
-352 3977 0
4629 -4320 0
-2514 -882 0
-4662 722 0
-490 -4340 0
3125 496 0
-2140 2420 0
-3334 3169 0
51 -3375 0
-2671 4235 0
-1065 1435 0
-3634 -4058 0
4048 -1289 0
4668 -3814 0
-4678 3018 0
354 343 0
-3761 506 0
-1489 3279 0
-4136 1993 0
-3822 737 0
-3092 -2948 0
-426 -2388 0
2764 594 0
-2104 -459 0
-555 -3687 0
2730 4641 0
1248 1553 0
-3430 -114 0
-3278 -573 0
2374 -982 0
1657 1048 0
3362 -569 0
1982 2370 0
379 -3243 0
-4131 -1695 0
-534 2176 0
3975 194 0
-2743 1609 0
-4414 3336 0
-3575 1898 0
-2410 4176 0
858 2321 0
-4130 -1226 0
763 3804 0
-3699 -4577 0
-831 1641 0
-4198 -4085 0
-4033 3293 0
4110 -4476 0
3124 2783 0
-1632 102 0
-2106 1886 0
-197 1999 0
-724 1955 0
-1311 -4547 0
-3969 3408 0
-1499 -172 0
-2757 2335 0
4309 1982 0
-201 3400 0
-1038 -490 0
-3267 -4065 0
-4477 -4338 0
4216 873 0
394 -3381 0
-4678 853 0
-442 -2856 0
-796 -3024 0
-806 2335 0
-1784 1526 0
-2301 3773 0
1063 3997 0
626 2436 0
-3456 4167 0
814 2993 0
464 3918 0
2450 -2818 0
1275 1230 0
829 3723 0
2221 4428 0
-1040 134 0
-2127 2176 0
3697 -2891 0
1858 -3671 0
4411 2965 0
-1841 -4009 0
-376 464 0
-1997 1530 0
-3511 4438 0
-4172 -3088 0
-3353 559 0
-3496 -3610 0
-4642 79 0
-773 -4445 0
25 -1710 0
-585 -2006 0
-3683 -3486 0
683 3609 0
-2652 3486 0
968 2080 0
-4124 -3578 0
924 2146 0
894 -4645 0
3962 1233 0
1282 -3033 0
2914 4206 0
-2449 -4329 0
4488 1207 0
-3575 3027 0
-1399 1320 0
550 -1930 0
4137 645 0
4400 1727 0
4364 -3030 0
-4310 3550 0
-4300 4528 0
4477 2834 0
-1527 4553 0
-772 4419 0
-1082 -1211 0
2686 1795 0
3503 -317 0
-843 -4568 0
1383 2329 0
-258 33 0
4318 469 0
-823 3507 0
927 -4657 0
744 -4092 0
137 -51 0
-1584 3670 0
-4719 -4101 0
2525 1313 0
-2298 -3489 0
-3092 4293 0
115 2574 0
-1748 -141 0
-3479 -2179 0
-790 1310 0
-4665 2085 0
1420 -4225 0
1939 -2647 0
-1925 -466 0
-1290 1024 0
814 -1761 0
-535 4312 0
-879 -2344 0
-2661 4572 0
-4034 -3368 0
1164 3146 0
3007 3479 0
361 2578 0
-2528 1804 0
-711 4555 0
-4034 1497 0
1866 -4091 0
-1737 4471 0
90 -849 0
-2699 1857 0
-4430 4348 0
-4153 -1825 0
-4609 -2280 0
237 4715 0
-573 -824 0
-1783 -1776 0
-3570 1618 0
3243 2404 0
-3325 -1465 0
3 -1858 0
4160 1035 0
2082 -47 0
-2257 -850 0
-3028 -1974 0
-3610 2898 0
-614 2749 0
-551 4630 0
-1143 3751 0
-2191 -1966 0
-2970 4251 0
759 1839 0
2386 3854 0
-42 -4003 0
-1139 -766 0
814 1409 0
-2983 459 0
2149 4301 0
-672 4467 0
3747 -2911 0
-4737 4149 0
-96 3878 0
1261 -1736 0
150 -2717 0
1663 -3201 0
-998 3847 0
-2976 -2809 0
-806 -4441 0
3426 4326 0
-519 2969 0
1968 -2195 0
4702 819 0
-2906 -255 0
3766 4331 0
4654 2170 0
-1442 2087 0
1058 -362 0
-1229 -4055 0
-193 3196 0
-3518 -1052 0
-2166 -4645 0
1355 49 0
-3463 384 0
-254 -2591 0
3348 2937 0
4443 4178 0
3781 -3048 0
2235 -4119 0
-626 433 0
519 -1823 0
3397 -1127 0
-1703 -2555 0
-4742 -4551 0
3581 4324 0
-2490 -4749 0
2732 -4673 0
-608 2155 0
-974 -4178 0
-954 2079 0
3467 759 0
739 -1983 0
-3090 2589 0
166 -1815 0
401 473 0
3715 -251 0
-3527 -3466 0
-1095 4286 0
3873 -4595 0
-3209 377 0
3971 154 0
4643 -4567 0
3253 -3313 0
932 389 0
-530 1369 0
-2987 4161 0
-2946 -1051 0
-4108 1361 0
187 -1413 0
-561 -4208 0
-3152 -2911 0
-123 2640 0
-3895 -2982 0
-4225 -1243 0
-4621 747 0
1699 4323 0
-3384 -3790 0
11 -1775 0
83 -2573 0
-2911 4056 0
2005 -2430 0
-4049 -2543 0
2474 -3400 0
2128 -2636 0
-525 -754 0
2278 1570 0
1361 -3135 0
-2795 2542 0
3659 -4416 0
4381 1707 0
-1052 2493 0
-4527 -1681 0
-657 -3269 0
-758 417 0
-3867 -667 0
-112 -166 0
3157 2894 0
2064 2762 0
-2906 3415 0
2608 -1094 0
4270 2256 0
2058 -4063 0
-2429 -57 0
-2833 4207 0
-2833 4637 0
-2667 1908 0
-561 -1708 0
-1847 -3277 0
-1081 -2660 0
-1759 384 0
-3919 -1411 0
-3303 -3754 0
4167 3819 0
461 1365 0
1324 -2018 0
-187 -1337 0
-4095 -3896 0
-1649 -4730 0
2277 1057 0
-898 -2344 0
-2066 -109 0
2353 -4227 0
-2873 2590 0
-1373 -4335 0
745 278 0
1438 -4215 0
-4193 2506 0
-2404 -3130 0
-1591 379 0
-2910 1748 0
847 -2835 0
-3153 -2173 0
-4403 1499 0
2106 1194 0
837 -3225 0
-4269 4627 0
-3856 379 0
-1638 -2643 0
-1666 -4642 0
2878 2125 0
-1814 -3728 0
1093 3979 0
-1121 -1617 0
-4289 3073 0
-4296 1399 0
-3075 3322 0
-902 -4184 0
2235 3549 0
-141 -1401 0
2617 2850 0
-3085 377 0
-368 2017 0
1478 2515 0
-1157 -3665 0
3296 2113 0
2560 -773 0
2530 3252 0
-1048 911 0
-4110 2391 0
3689 -865 0
1275 -704 0
2779 -224 0
3273 -4345 0
4482 -2334 0
2132 -1285 0
-3871 -2182 0
-1931 906 0
4362 -3142 0
1469 -3144 0
1852 3932 0
-4102 -3383 0
2556 -2651 0
-1679 -1349 0
-4406 3131 0
3021 -2321 0
2351 255 0
-1189 3293 0
-4265 -1465 0
2157 -1462 0
3708 1860 0
-1276 2626 0
-2815 3244 0
2390 -855 0
3621 2277 0
2585 -1912 0
-2590 3663 0
1232 -4526 0
-133 -280 0
-4430 3295 0
2325 -3690 0
-3184 2744 0
-4319 977 0
-3213 1677 0
-95 -2238 0
3684 -2164 0
-1563 -913 0
945 -2236 0
-4116 -2266 0
4526 677 0
2876 2556 0
3529 2034 0
-877 856 0
3162 252 0
1251 2936 0
-219 -4577 0
4487 2588 0
575 4406 0
-4502 731 0
3277 -2455 0
2272 -2492 0
-4136 -4527 0
2149 -4716 0
3537 -2706 0
2384 -926 0
-1863 1609 0
-1889 3766 0
1630 2001 0
1777 2146 0
1928 2949 0
3824 4329 0
-4449 4310 0
956 -392 0
2630 -3568 0
-4136 3079 0
3318 1158 0
1790 3588 0
1407 -278 0
1085 283 0
9 3196 0
-1238 785 0
-526 265 0
3162 -1997 0
-815 -1442 0
-2843 365 0
3464 -1788 0
2253 3350 0
-1518 -1631 0
899 -1785 0
-3767 -4657 0
904 -448 0
2644 473 0
2352 -2521 0
-2865 -2578 0
-666 -4017 0
2316 3385 0
3892 -2380 0
502 -3310 0
3704 -978 0
3969 3623 0
2384 -81 0
-4568 1201 0
-3081 2428 0
-1966 2022 0
-568 780 0
1530 3869 0
2091 2749 0
979 -2344 0
1781 3275 0
-2263 -1821 0
-2995 628 0
-1177 749 0
-3067 2202 0
1875 4057 0
-4130 -605 0
-619 559 0
-4656 -4039 0
-2805 439 0
-2245 -3513 0
3853 -3953 0
-2640 2520 0
1433 3906 0
-4028 -1759 0
-2637 -1010 0
3021 -3726 0
3587 -1956 0
-2164 2382 0
3341 1064 0
-4669 2467 0
-2798 -3838 0
4659 -4491 0
4372 561 0
-89 -3905 0
-2212 -244 0
2264 -3264 0
1540 2065 0
3723 -3127 0
-2563 -3836 0
321 -2145 0
1085 4426 0
3137 -2222 0
1663 -1818 0
2113 2713 0
-1374 -1900 0
-4319 3634 0
4452 1729 0
2945 -1200 0
3362 497 0
-673 2735 0
4406 3521 0
-2547 -4595 0
782 1542 0
-1161 -913 0
-1003 -508 0
-4494 3618 0
-488 -657 0
-4751 4573 0
3783 -2601 0
156 -696 0
-3085 2241 0
2771 -893 0
-215 -2451 0
-334 639 0
2249 -3151 0
775 -1847 0
2267 3373 0
1772 2005 0
3384 609 0
-1455 -114 0
-2798 3767 0
724 -264 0
2596 91 0
-577 3467 0
-4567 2848 0
-4602 3803 0
-1539 -4157 0
-2128 4473 0
-3418 -3814 0
-4463 -1911 0
-1349 -1016 0
447 3227 0
-2562 -4634 0
-4136 -4187 0
-2665 2085 0
-822 1807 0
1042 3422 0
2319 499 0
-2043 2209 0
3427 126 0
-610 -437 0
1188 -208 0
173 480 0
-527 2355 0
2349 -1830 0
-2076 4453 0
-4515 -467 0
-3082 587 0
1271 765 0
-4138 3855 0
-1530 -4524 0
2583 1774 0
-2837 -3344 0
493 3461 0
-4461 2568 0
-76 930 0
4520 -2933 0
3484 -2508 0
2290 -4501 0
-238 2401 0
-1593 -3478 0
-1047 3386 0
-901 2523 0
4363 3750 0
-776 -1500 0
-408 319 0
-408 -3400 0
-1021 2601 0
2078 -1076 0
-2864 1981 0
3036 1578 0
1090 678 0
-931 1091 0
-168 -4115 0
2451 1077 0
3764 -1051 0
4027 3510 0
3283 -1501 0
2863 -2873 0
1019 -846 0
-1270 -428 0
2590 3821 0
3617 -2837 0
-1260 -2388 0
-264 -2903 0
522 -3853 0
-3616 -2569 0
-1411 -87 0
2441 -534 0
-3000 611 0
-1582 2356 0
2290 3493 0
4575 -3470 0
3721 2276 0
-4287 2369 0
-4668 -2601 0
2488 2668 0
-2501 3158 0
-2518 -3059 0
-1845 -2121 0
4536 -783 0
-2827 -4220 0
4477 -2091 0
-3462 -2179 0
-3732 2452 0
2525 -1537 0
-744 -1936 0
-79 2858 0
1499 -3569 0
-847 3007 0
-1083 3134 0
1933 -2073 0
-874 3332 0
-4385 2565 0
2600 -807 0
1508 -2842 0
-3767 -691 0
-830 -3317 0
-727 3450 0
4409 4027 0
730 2434 0
193 -2177 0
2610 -1792 0
-2786 -3028 0
84 -952 0
4046 3845 0
-3267 3123 0
3697 -3332 0
-3238 3285 0
2911 625 0
1889 1993 0
-4404 -4272 0
-2961 2633 0
-2594 4521 0
-3812 375 0
3206 3087 0
204 -2763 0
-637 3180 0
-3282 -146 0
-320 -960 0
-3574 1156 0
-2535 3701 0
-2890 307 0
1366 491 0
-1779 -324 0
-3643 -4172 0
-1006 3849 0
1637 1216 0
-1196 -1471 0
-1552 892 0
3749 1082 0
1984 -1313 0
-1561 1101 0
3712 -1188 0
-1821 -2909 0
-3488 -170 0
712 -2269 0
-2137 1130 0
-2108 2841 0
3976 2738 0
2146 -1264 0
4540 -3614 0
4163 -2979 0
1488 -3321 0
523 -4193 0
4291 -4206 0
-2129 -271 0
-75 -1934 0
-2734 -2428 0
894 -3683 0
-2919 -3601 0
-1772 -2192 0
4679 -1561 0
4735 1560 0
3625 3250 0
-1603 -3182 0
1369 544 0
2217 306 0
3543 1897 0
-2912 895 0
-1868 3616 0
511 699 0
-3426 -1668 0
-4385 3695 0
-4483 4666 0
-2503 -3297 0
1571 3979 0
316 309 0
4287 -3865 0
3934 -2729 0
3468 -3715 0
1214 2484 0
-860 747 0
782 -4491 0
-1026 763 0
-1791 191 0
56 -3053 0
3409 2042 0
-1621 -1087 0
-291 -2508 0
-3814 2989 0
-1822 -631 0
-599 2318 0
-1998 1813 0
2960 2960 0
2209 -3279 0
-4274 2117 0
4511 4411 0
-3035 -926 0
-3720 -1070 0
2817 3580 0
4610 3010 0
-540 -4330 0
-1679 -3300 0
1662 1823 0
2623 -3973 0
759 -2927 0
4666 2861 0
3417 -1689 0
3924 1993 0
290 -1183 0
2318 4477 0
-2869 1078 0
4236 2806 0
-3191 1267 0
-2640 779 0
-2219 -3973 0
2686 -964 0
-3244 2403 0
-376 -965 0
-2944 -3023 0
2190 -4442 0
-1175 -159 0
-3175 1529 0
2608 4424 0
-4552 -2650 0
2169 -510 0
2866 2198 0
-2991 -2276 0
-2465 -416 0
-1917 -4614 0
-1763 -380 0
-2808 -317 0
1284 -2719 0
3426 4477 0
4030 -170 0
-1644 3095 0
-4442 -2955 0
-1042 -909 0
-2560 2949 0
-3518 1090 0
4530 2242 0
-2666 1941 0
3987 -2382 0
641 993 0
-970 -1253 0
2421 2378 0
3868 3573 0
1876 4060 0
1375 -1644 0
-4680 -3276 0
3574 3178 0
410 -32 0
-4512 1119 0
-816 -362 0
-2874 2270 0
-392 814 0
1894 -250 0
4027 -3678 0
1969 4754 0
70 842 0
-3495 -45 0
-1776 -2046 0
2474 1829 0
-4685 9 0
-1051 705 0
1209 -4254 0
2944 -2350 0
3219 -2742 0
-1141 -3008 0
1835 -3195 0
1252 364 0
2146 907 0
3103 1360 0
-3279 391 0
-3322 1028 0
35 1944 0
-3777 -844 0
-750 3692 0
180 -2986 0
1015 4136 0
-1650 1710 0
-2763 -4316 0
1790 -3898 0
-3287 -1083 0
1013 648 0
1061 1065 0
3079 -1676 0
-1342 1898 0
-263 -1192 0
-2057 -4290 0
-3267 4121 0
-1410 -2071 0
2160 2544 0
1435 1819 0
-2668 -883 0
4656 1886 0
5 4754 0
4076 3131 0
3403 3441 0
4204 -820 0
4138 4745 0
-103 2414 0
2226 13 0
1443 2989 0
-2441 249 0
2860 170 0
-100 3743 0
-865 -866 0
1869 -390 0
2034 -1742 0
-1005 -846 0
2934 2309 0
591 6 0
-2056 684 0
225 -1865 0
-2292 4209 0
-3121 3846 0
-367 3789 0
3129 2869 0
-521 3025 0
282 253 0
-3364 -632 0
217 -4553 0
2361 -2448 0
-954 4149 0
3018 -1164 0
1118 3750 0
-822 -2041 0
-1897 -1519 0
-662 2509 0
1939 -271 0
379 -4000 0
4199 -3891 0
2488 -1931 0
4027 973 0
-3940 -3172 0
4252 -426 0
-797 -3003 0
2125 -4203 0
1416 2828 0
-590 3219 0
-891 -2889 0
-3258 1451 0
4327 1686 0
-2830 -3335 0
1199 -245 0
-3914 -1149 0
1633 -1765 0
-2375 -3152 0
-81 -3595 0
4383 -1477 0
2724 -2718 0
2789 -1810 0
1038 -2269 0
-711 -4587 0
462 -487 0
-451 3564 0
3665 -169 0
433 1558 0
-121 -1648 0
4646 1015 0
-4314 -2181 0
480 -2298 0
444 1159 0
-422 2332 0
1618 1637 0
-4693 -3441 0
2493 3961 0
-3627 -4025 0
1331 -4504 0
-2678 1615 0
2791 1655 0
-1833 3480 0
-962 2583 0
2272 4208 0
-2772 -3195 0
-1396 407 0
32 -1809 0
-1787 1625 0
-3235 3818 0
1261 3697 0
3920 193 0
1417 -4420 0
-2716 -3638 0
119 -1036 0
-4720 892 0
-148 -3676 0
-2827 1221 0
-2822 -3025 0
-3479 -4059 0
2102 4614 0
-1299 -2235 0
-2678 3618 0
-1925 -2306 0
3781 144 0
-3128 -1192 0
-4012 473 0
4346 -3281 0
179 -3534 0
3751 -1121 0
-54 -4230 0
-3622 -4179 0
2458 2884 0
-3534 2207 0
1387 4006 0
2769 -958 0
-2477 -170 0
-4376 -292 0
4236 -848 0
3641 1801 0
-690 -3046 0
-4599 4559 0
3402 -4742 0
460 1886 0
2807 -2009 0
4685 -608 0
-1655 -2934 0
3793 -4031 0
-2555 -1156 0
2859 -2580 0
4256 2011 0
-3588 3275 0
1901 -3357 0
-205 -2120 0
-1001 -669 0
-1891 -4248 0
423 -2059 0
2280 -3441 0
-860 -3878 0
-1387 -802 0
249 695 0
2099 770 0
-2558 -2978 0
174 4632 0
-1157 -2162 0
292 2261 0
-2820 3558 0
422 -4301 0
3904 -180 0
-802 72 0
-1141 4603 0
-1555 -3647 0
-2711 -3229 0
-2833 -156 0
4428 -230 0
3659 -2281 0
4217 3312 0
4254 3733 0
2335 -1059 0
-86 -143 0
-769 1732 0
564 2289 0
1721 1211 0
-3184 -4518 0
-3395 3697 0
-4752 -3710 0
-3438 -3157 0
1919 -2150 0
-2787 386 0
-2883 1508 0
-1766 1275 0
4447 3406 0
-2306 -3199 0
-4603 2045 0
-1686 -1281 0
137 -1469 0
663 -4421 0
4328 -3799 0
2726 -3466 0
457 868 0
4303 767 0
-2323 -1133 0
3883 139 0
-3394 -937 0
1436 1583 0
4443 -224 0
-2908 2436 0
-3500 -3626 0
-1036 4251 0
436 -4060 0
2705 -147 0
-1131 1180 0
-3806 -1634 0
4231 -3494 0
2317 3430 0
-89 3557 0
-933 -2000 0
-3329 348 0
4724 -2803 0
2517 -27 0
1487 2566 0
2483 -2223 0
-846 1727 0
-1503 1296 0
-4537 -748 0
3255 2385 0
603 -1803 0
719 -2809 0
682 -4755 0
1694 -2675 0
1870 -3195 0
4483 3134 0
-3790 468 0
-2929 2484 0
-283 -3618 0
-3505 2942 0
-4429 4272 0
-4203 3586 0
-4429 3644 0
-1156 -2358 0
-4318 129 0
-1788 -4037 0
-3800 24 0
-1883 -2141 0
1293 -1073 0
-920 1994 0
2528 -47 0
493 755 0
-4088 -2232 0
-2129 -2861 0
-381 3576 0
150 -3097 0
3564 3431 0
2211 2522 0
1915 886 0
3108 3378 0
-3617 -1796 0
317 2012 0
2867 -4071 0
4240 37 0
467 -4249 0
1375 3427 0
-881 -765 0
619 -4099 0
273 -3017 0
-3589 -2981 0
-3369 1953 0
3655 -2929 0
-1568 332 0
-4103 -4075 0
-3298 3109 0
2908 1709 0
2767 1928 0
-4058 -1152 0
-809 -467 0
-1679 1927 0
-1348 3489 0
-512 843 0
-1822 -1854 0
1523 3936 0
-562 4332 0
-3894 4711 0
-359 -2427 0
1259 2274 0
-4420 4006 0
3056 1971 0
-2252 2735 0
-3753 -2121 0
-3447 -2817 0
-3646 -2410 0
279 -4221 0
953 -2854 0
-2285 342 0
-4375 -4545 0
-3369 -278 0
3977 1223 0
-974 -3142 0
1894 1451 0
-4589 -3791 0
3827 -2795 0
-2232 -943 0
-1234 -3930 0
2054 3946 0
49 -2062 0
-1211 -3829 0
3125 4337 0
-3566 -108 0
13 -1690 0
-4476 4369 0
-3575 -3829 0
425 3843 0
3651 -371 0
2655 564 0
-2956 4427 0
2220 -2793 0
3498 564 0
1840 3885 0
3510 3485 0
992 -3375 0
-1797 2214 0
-4113 565 0
-752 -2470 0
-3902 -401 0
3646 3035 0
-3947 649 0
-3804 2859 0
-2563 -2219 0
2853 -4642 0
2000 -2083 0
-4656 -4720 0
3923 2369 0
1576 1682 0
-125 3348 0
-548 1563 0
-92 -4631 0
-2579 -1337 0
3830 -3025 0
-4391 3640 0
1948 -330 0
2622 1051 0
4514 -1935 0
3425 -1052 0
761 3289 0
3447 2784 0
-4096 3505 0
2174 -3105 0
-125 2018 0
3485 4723 0
-4320 2124 0
-169 4430 0
2360 3102 0
570 1319 0
-679 -3034 0
-1416 -4547 0
-2510 3208 0
-4722 1804 0
-1223 -1348 0
1786 1109 0
-1671 -2515 0
-3050 184 0
882 -766 0
-614 -4094 0
-3018 -941 0
2529 -2311 0
4572 3811 0
1424 1609 0
4733 4470 0
-1672 -1542 0
394 -3184 0
-363 -4541 0
1983 55 0
-4451 -2418 0
-4528 -470 0
-4061 440 0
3392 -815 0
1855 630 0
-3054 -1672 0
2369 -991 0
-1584 575 0
-1121 -3924 0
3063 -2314 0
-340 4577 0
2146 1398 0
2604 4535 0
-4559 1096 0
2220 -2056 0
2878 1086 0
2104 1333 0
1978 -2735 0
-1343 -2080 0
-1636 -2052 0
-4057 2347 0
-3754 177 0
-2259 110 0
-2334 -4673 0
-2388 4441 0
-4547 1444 0
-4334 -1380 0
3698 -786 0
3801 -4277 0
-415 265 0
-4187 4312 0
2392 -4191 0
704 584 0
-4555 1660 0
1533 1939 0
1796 -1201 0
-3200 -2459 0
2285 759 0
-1404 4644 0
-3429 3516 0
500 -4008 0
-3114 2347 0
942 4137 0
524 918 0
-738 -1887 0
-3720 1931 0
337 3649 0
-1757 2332 0
1692 860 0
2164 3439 0
-1575 -3055 0
3685 3294 0
4737 24 0
3996 -45 0
3109 -2244 0
4653 311 0
976 -3509 0
-318 -2544 0
-748 -3715 0
1680 -3009 0
3439 2520 0
-1540 -4716 0
1344 3416 0
-2012 -4170 0
-1224 -4177 0
2162 1548 0
4682 -4279 0
2976 378 0
464 1561 0
3425 -605 0
-3992 1474 0
3262 -217 0
943 -762 0
983 3085 0
351 2219 0
-2232 -76 0
-4693 1148 0
-140 -4031 0
-3829 2967 0
3968 2607 0
-1536 -1366 0
2918 -4621 0
1158 779 0
2200 1857 0
3136 -3388 0
1294 2577 0
-2369 -2297 0
-660 -3875 0
-3828 -2672 0
-2007 -2137 0
1770 197 0
-481 -311 0
-2708 -1621 0
1197 4110 0
-1512 2791 0
256 -3273 0
-1278 3387 0
2045 3594 0
1787 4100 0
-209 210 0
4740 2247 0
-3433 3813 0
-4503 -3531 0
2335 1557 0
-2743 -627 0
-1456 -2623 0
-3685 -1814 0
877 -600 0
-258 2494 0
-2564 -1407 0
2060 -2436 0
758 707 0
-2508 -3612 0
-530 -2019 0
-3834 -2934 0
-1339 -2788 0
-3170 1722 0
-701 88 0
330 -2151 0
-4363 411 0
-858 739 0
-2189 -3442 0
-2735 2042 0
-1186 3382 0
4745 272 0
-2150 -876 0
346 -2674 0
442 4454 0
-2323 -834 0
1193 604 0
1764 2140 0
-2075 -1866 0
-3092 -4510 0
377 -4059 0
3646 4571 0
-4307 3851 0
2387 -4107 0
-102 -3701 0
-83 -2182 0
4364 -2003 0
-4504 -3418 0
4516 -3165 0
-1395 -1404 0
-4743 3456 0
-2003 -3806 0
2210 4425 0
-1776 -2343 0
-267 -1617 0
2241 3676 0
78 -1529 0
650 -2359 0
-3801 592 0
1399 -61 0
-1119 -3330 0
-93 -2237 0
-2381 -1152 0
-4514 703 0
-2716 -1785 0
2525 -1800 0
-3364 4388 0
-1575 3339 0
237 -2734 0
-626 875 0
885 -4192 0
-3621 -3358 0
129 -157 0
67 -2738 0
-2401 -1821 0
-1014 1926 0
-2080 3636 0
-1598 4430 0
1317 2425 0
4473 1543 0
-4157 1884 0
-1841 -926 0
-4261 4482 0
1600 -657 0
-2997 4689 0
-1419 1 0
2700 7 0
2644 827 0
-3798 3575 0
4208 4415 0
4358 2200 0
-910 -2959 0
-3661 1750 0
-1033 -2813 0
-4358 1895 0
-489 -3472 0
-490 -2460 0
-1690 3507 0
74 -2832 0
-4193 -457 0
3123 2558 0
-4575 -2448 0
1870 -3056 0
513 1514 0
3745 -1680 0
2347 1004 0
1154 369 0
-4691 4082 0
-1951 3848 0
-752 1635 0
-1459 3708 0
2481 -2148 0
-189 -364 0
-3725 -834 0
-3791 -2243 0
2691 3107 0
2501 4370 0
-4246 -1650 0
1648 343 0
160 374 0
-192 -220 0
-186 3029 0
4000 -3377 0
-4523 775 0
2745 3225 0
2777 1305 0
-303 799 0
1579 -4491 0
-2057 -2246 0
-872 4598 0
-1498 -424 0
-3510 -1309 0
3094 -2047 0
3526 2563 0
-1440 2732 0
1090 2528 0
-3832 358 0
1333 -2142 0
-2321 3576 0
-2873 1478 0
1629 2881 0
3311 1130 0
-2022 1764 0
-3743 -2762 0
3610 820 0
2853 4658 0
-1370 3457 0
1030 2199 0
-2925 -3312 0
-4240 4198 0
73 -1240 0
3352 707 0
2787 4509 0
3247 3674 0
-4092 3771 0
80 -3864 0
1280 -2010 0
-1038 -4715 0
-3936 -1337 0
4672 -1635 0
-2611 -1715 0
1869 -463 0
-662 -1582 0
-360 -1073 0
2799 -4017 0
-1177 -3500 0
-3910 -96 0
4582 -3144 0
-4669 -1768 0
1371 -4200 0
2097 3074 0
2183 4182 0
3242 4327 0
623 804 0
-1041 3201 0
-931 3660 0
-3356 3684 0
379 -63 0
2740 -1019 0
4381 1119 0
2844 -3624 0
4289 -2969 0
3119 2636 0
-1923 2752 0
-4731 -3267 0
1813 -3414 0
2651 2460 0
-3439 -324 0
-3953 3775 0
2303 1224 0
-2946 -4255 0
-4194 -340 0
-4247 668 0
1744 2493 0
-113 322 0
-3774 2370 0
1986 4664 0
-658 -350 0
-906 -964 0
3697 1252 0
-1629 3736 0
3489 -727 0
2998 430 0
530 817 0
-827 -2138 0
-2039 -4311 0
-2528 3515 0
-1358 -753 0
2012 -469 0
1011 -1461 0
753 -2396 0
817 3150 0
-526 -48 0
-1152 1523 0
1508 143 0
2461 -3593 0
3559 4486 0
-3863 2169 0
-4016 -2188 0
1196 4132 0
-1232 -4292 0
2028 -437 0
2662 -3439 0
3458 -2195 0
4374 3462 0
-1176 2615 0
1528 1296 0
-363 -3919 0
1616 -3404 0
-3332 -4101 0
-1574 1302 0
-1807 1187 0
-2835 4694 0
118 1350 0
-1593 -2546 0
156 2457 0
2237 1486 0
-2902 3440 0
-3334 -188 0
-1010 3122 0
-4362 -104 0
423 1394 0
-1858 -4359 0
-3340 3175 0
-4002 -2086 0
4152 -581 0
3925 -2736 0
3868 -1411 0
4700 1770 0
-1456 -2089 0
-2003 3801 0
-2674 3440 0
2967 2942 0
-250 2924 0
-4087 -2528 0
-657 793 0
4111 -85 0
3577 -1798 0
-4543 -3865 0
-4501 -2746 0
4330 2235 0
-4177 -1082 0
-1413 4738 0
-364 -3083 0
-2980 1777 0
-1388 517 0
3239 445 0
325 3602 0
-1728 -2426 0
2971 1582 0
689 2731 0
-852 -3230 0
1884 -1627 0
-884 -1339 0
346 -3522 0
3876 404 0
2553 -2895 0
8 1057 0
-1921 -4516 0
-1108 -1697 0
4445 1640 0
-462 58 0
-1990 -3934 0
-1470 440 0
622 38 0
745 614 0
3625 957 0
355 4737 0
-1461 3976 0
2264 3468 0
282 3530 0
-456 -437 0
2718 2299 0
1225 -4284 0
4688 3427 0
-2384 4508 0
-2519 -1031 0
4694 245 0
-4292 -4561 0
3283 1945 0
1314 -3897 0
-2656 3888 0
-2108 3892 0
2147 -3308 0
-4711 1972 0
2275 576 0
-250 -4666 0
2542 -4649 0
-3530 -1089 0
-4188 2311 0
-2798 -1005 0
3043 2907 0
546 -4379 0
-1859 3327 0
1101 -3616 0
3226 4178 0
1312 -1866 0
-2361 2494 0
2473 -3630 0
-4075 -991 0
60 684 0
-2766 -3645 0
-457 3145 0
-882 963 0
4582 1199 0
1469 4666 0
-4319 149 0
4292 -572 0
4080 -1611 0
-176 -4313 0
-1245 -307 0
4605 2354 0
3894 1650 0
4554 2308 0
-3759 160 0
3197 661 0
1406 -2956 0
-1105 4374 0
2071 -2883 0
2488 -2142 0
1042 59 0
-1837 -197 0
-1667 -2305 0
-3948 -840 0
-3116 -3558 0
-4737 780 0
122 997 0
3040 1307 0
-4203 -4553 0
-3303 -663 0
-2991 -4554 0
-4441 1419 0
1197 2797 0
1233 -1317 0
-1192 2074 0
3393 -3524 0
4631 -658 0
2938 1384 0
3137 3509 0
1842 3366 0
244 -387 0
-2759 513 0
3705 -2293 0
-317 2659 0
-3857 2879 0
2350 -854 0
795 768 0
3362 -287 0
4516 1434 0
-1707 1507 0
-452 -1748 0
-3058 2356 0
-4286 -2976 0
4110 3076 0
-1896 4506 0
221 1537 0
3153 2974 0
3821 -3493 0
-3764 -2833 0
975 838 0
2311 2894 0
3235 1844 0
4404 -2473 0
-2201 1870 0
-1892 2473 0
-3229 3204 0
1064 -2511 0
-1818 1815 0
1196 2588 0
150 4155 0
-1342 -2945 0
1962 78 0
-2508 -1558 0
-1506 -1577 0
-3144 2030 0
1267 459 0
-2643 -3670 0
2349 3284 0
3161 3512 0
4325 -1568 0
2946 3752 0
4064 988 0
20 859 0
449 -1848 0
2522 59 0
-1831 -2333 0
-1933 4381 0
2277 -2405 0
2415 1801 0
1703 101 0
-1988 2727 0
-4755 320 0
2414 3816 0
3986 1924 0
4307 -1422 0
-2039 2520 0
-3092 -1815 0
2482 -2652 0
3089 2566 0
4622 1449 0
3815 -1005 0
101 -1351 0
1777 3870 0
1727 -1416 0
2614 517 0
895 -3376 0
1723 -4067 0
-2808 -4205 0
-3948 2729 0
3231 3824 0
-4325 -3566 0
1980 3621 0
4531 70 0
2209 2957 0
-717 1464 0
-928 2801 0
2138 3748 0
-2156 118 0
1910 345 0
3456 1122 0
-710 -2309 0
-1750 -43 0
2020 -4627 0
2904 -2201 0
1602 -510 0
2323 4580 0
-2344 -3095 0
-983 1627 0
2932 4337 0
3309 -223 0
140 3639 0
21 -826 0
-1410 4139 0
3175 -1016 0
-2883 2463 0
944 1136 0
-1849 -1604 0
649 660 0
4315 -4262 0
-3292 4658 0
1084 1490 0
-3695 2341 0
2310 -1688 0
3363 -4633 0
3745 -178 0
-1376 3945 0
-3894 1721 0
3854 232 0
4066 710 0
1704 687 0
-3732 2954 0
1356 1496 0
-3719 -844 0
2083 3132 0
-4189 2264 0
-3216 -4749 0
-2330 -3626 0
-1780 3178 0
-482 -961 0
2513 211 0
3694 1442 0
1886 2761 0
1333 2792 0
749 4724 0
-2296 -1400 0
-1792 2880 0
2176 -4189 0
-960 4514 0
-981 2799 0
-3088 -1847 0
-2445 2536 0
918 3847 0
-66 -1758 0
-2456 -4275 0
-2982 -4082 0
4588 -2864 0
-2045 -1881 0
-291 -184 0
-1261 -3198 0
-4213 2693 0
-1310 -2158 0
1384 1130 0
1542 2929 0
1600 2679 0
-4598 956 0
-4477 2132 0
1730 -1020 0
4651 -912 0
3001 -4515 0
-3017 1985 0
-1242 149 0
-979 1173 0
4718 2407 0
-2068 1814 0
3928 -1897 0
-1304 -1245 0
2318 270 0
810 1939 0
2921 -4328 0
-1021 -3457 0
-1172 -1203 0
3570 2262 0
1136 4685 0
2245 -334 0
2849 4042 0
775 -1697 0
-2062 -164 0
-383 2897 0
4146 -987 0
-3141 2929 0
3603 -87 0
-2086 4444 0
-1489 -813 0
3973 -2311 0
-3969 1352 0
-1493 3091 0
2902 -3212 0
3918 1414 0
1492 -201 0
2191 4368 0
3250 2958 0
4236 1670 0
-1002 -409 0
2520 1528 0
151 2622 0
-3709 4262 0
-4383 1532 0
-3017 4212 0
2943 -2313 0
3528 1445 0
2263 2401 0
1242 -632 0
1485 2347 0
864 -1197 0
2882 4326 0
1073 -1990 0
2579 675 0
3408 1918 0
-3631 2685 0
4648 -1688 0
2696 -4097 0
-1489 -3390 0
2018 -768 0
227 -1348 0
-520 4680 0
-3479 -506 0
-1565 1987 0
-4031 3747 0
276 2427 0
3484 1036 0
-4394 3927 0
2443 1318 0
-2681 1924 0
-339 3779 0
-3927 -784 0
-4595 -1781 0
-3362 3887 0
-834 1905 0
-1891 1457 0
-4529 -721 0
-1092 -4107 0
3152 -3329 0
-1387 -125 0
-3086 -163 0
3320 67 0
-1382 1730 0
3098 -1836 0
-1836 -667 0
4630 -2906 0
-4078 -2030 0
4100 2998 0
3888 -1882 0
4554 -4015 0
-1253 -4494 0
4219 2804 0
1317 1424 0
-4736 4531 0
2904 -1671 0
3751 3067 0
-1675 -2049 0
582 4266 0
3040 2853 0
96 3823 0
220 150 0
3752 2905 0
-4256 3673 0
1938 2735 0
1096 1543 0
-1407 -714 0
-1872 -3875 0
4591 3468 0
-3958 1915 0
3851 295 0
4474 3136 0
-4550 3250 0
-3554 425 0
2419 886 0
-1161 1317 0
-3911 2094 0
1376 -483 0
494 -2982 0
4366 -3267 0
-1338 -4025 0
-3781 -3140 0
-3341 -2646 0
4593 -1584 0
2981 4573 0
1452 -2959 0
-2612 4583 0
-1100 38 0
-1226 -3573 0
-669 -2477 0
3588 -1410 0
2901 3351 0
167 2606 0
1897 -366 0
2723 -1263 0
3761 3039 0
645 -3688 0
-2891 544 0
1173 -2683 0
-3742 -3642 0
-1389 266 0
877 -3148 0
-1530 -1335 0
3102 -4576 0
1073 2924 0
-2579 3163 0
-4225 431 0
-3189 -4261 0
3100 2904 0
1698 2234 0
3964 3325 0
2164 -1789 0
4329 -3241 0
2721 -1672 0
-3057 -4304 0
774 -313 0
4254 3227 0
-3551 -4302 0
676 2065 0
-2008 -3105 0
-4218 -4463 0
-3737 -484 0
3693 -1867 0
1543 4082 0
-4347 2696 0
3124 -3147 0
4563 2376 0
3066 -1006 0
-2999 3191 0
927 -545 0
-3466 -3438 0
-515 3928 0
944 -2726 0
-4355 645 0
4299 -362 0
2119 -4716 0
364 4155 0
4 -3814 0
3812 -1552 0
-1842 -1630 0
940 -1971 0
-2374 -4272 0
-3916 -4422 0
-3840 2516 0
1957 -1304 0
-4278 3862 0
2566 -3627 0
4334 -932 0
-2727 3944 0
-111 915 0
265 3128 0
2672 -4189 0
981 1894 0
-1129 -29 0
-2135 -1321 0
1059 4075 0
952 -2775 0
196 -2066 0
-395 -484 0
-3101 -4474 0
-826 273 0
1500 2493 0
3751 3117 0
4400 -2547 0
1285 2471 0
2462 1296 0
3267 -3971 0
-4653 -3810 0
2076 -312 0
-4021 76 0
-2906 -3654 0
-1375 3939 0
-4272 4009 0
-2987 -99 0
2086 -657 0
2058 -1679 0
4229 2475 0
3684 4184 0
-4028 1025 0
2067 -4206 0
-1386 323 0
-4619 2083 0
-2746 2705 0
3538 -3427 0
1148 2677 0
-864 2486 0
-3172 4412 0
-1925 -1324 0
-455 -4301 0
4736 -1023 0
2586 1376 0
768 -296 0
-2316 2293 0
-1763 -922 0
-525 1458 0
-1769 357 0
-3657 -1730 0
4433 4055 0
2570 661 0
2690 446 0
-608 -1328 0
-197 2227 0
876 1397 0
-1977 4668 0
1066 -792 0
1150 -559 0
-454 -3483 0
423 -2285 0
-1217 3396 0
3053 1795 0
-557 -141 0
-1575 3465 0
-2676 4023 0
-642 -4429 0
-878 -873 0
-172 1750 0
2611 127 0
-2827 2644 0
4278 -3656 0
-4178 -1827 0
3223 -1798 0
-1297 1057 0
-2818 -1388 0
-3384 -1530 0
-3019 4054 0
-1974 2871 0
-284 -4441 0
4306 189 0
-1638 1167 0
3492 4393 0
991 -2283 0
2118 -3011 0
2101 1242 0
3427 -17 0
268 -2492 0
-711 158 0
1747 -3083 0
-2371 2099 0
-3605 2405 0
-2177 1484 0
-3152 106 0
-2325 2265 0
-1953 -2427 0
2603 -3146 0
-204 -3209 0
942 -926 0
3053 -487 0
-3480 1112 0
-3168 -443 0
-1867 -3055 0
2020 1009 0
-936 1189 0
4551 2426 0
-637 -4631 0
-1955 -2833 0
3275 -2834 0
-846 -4047 0
-1380 2637 0
2387 -4282 0
-1325 -1414 0
996 4465 0
1827 982 0
-4650 -3916 0
1919 715 0
-659 -4743 0
1598 -1190 0
1063 2199 0
-131 4577 0
1739 -3344 0
1066 -919 0
3110 -4159 0
-3838 13 0
-1301 -1370 0
-691 -2936 0
-1794 680 0
-2228 -226 0
1556 -4734 0
1703 1435 0
-3477 -3218 0
-2598 1061 0
-1967 -1792 0
2866 -545 0
-4669 2811 0
-2 1090 0
-935 1028 0
-4115 1081 0
-606 4204 0
-3430 1560 0
3886 901 0
2565 2350 0
2497 1764 0
-1535 3304 0
1836 -4341 0
4096 -2076 0
245 3675 0
-3996 -1868 0
3232 -1529 0
4209 -823 0
4371 -1455 0
4221 3047 0
-3917 -3046 0
-2429 -2492 0
150 -518 0
-3764 1538 0
-439 -1780 0
-3064 4248 0
1557 1635 0
-1414 2690 0
283 55 0
-3098 -3080 0
436 -3983 0
2675 74 0
-4200 2409 0
863 538 0
1940 4582 0
2797 -1693 0
-2629 -3210 0
4149 -102 0
914 3431 0
3703 -377 0
3113 1132 0
1944 -2546 0
1147 4384 0
1677 -903 0
-662 -2902 0
3525 284 0
1226 -3723 0
-4233 -1389 0
-4074 -2049 0
578 -3561 0
3375 3352 0
2002 500 0
430 -3877 0
-3920 1723 0
-582 -4315 0
961 1553 0
3756 -547 0
2141 -778 0
1382 3292 0
4622 4208 0
-330 100 0
-1522 -2796 0
-2320 -4550 0
3861 -2209 0
-981 -1325 0
227 -4329 0
1290 -2010 0
1439 -4670 0
4118 4009 0
3076 -3382 0
491 -3088 0
-4055 1579 0
4141 1344 0
3223 -4679 0
-750 3141 0
-4660 -1186 0
-972 -1839 0
970 781 0
-3517 -418 0
-986 3696 0
-3039 2101 0
1252 -958 0
-1903 -2658 0
-2310 3720 0
550 -3838 0
2593 2357 0
-67 -4218 0
-4071 -3609 0
2400 -2024 0
-4221 -3193 0
-3765 -3316 0
2271 -557 0
-2548 3013 0
4723 4713 0
2117 -4540 0
2481 -1248 0
-148 -4088 0
-2643 331 0
-1331 3557 0
146 -3573 0
3639 2387 0
661 537 0
2986 2288 0
4140 -3940 0
3560 3866 0
3460 -1738 0
3990 2957 0
3251 1542 0
3433 -4047 0
-1294 -3513 0
2428 -1752 0
4417 -2576 0
3125 2370 0
-60 -3716 0
2218 -1237 0
-3038 -2 0
-280 -3040 0
1767 4661 0
1948 1768 0
1585 -786 0
-1610 -2367 0
4735 -4697 0
2525 -3798 0
-2417 -3886 0
538 -1925 0
4646 -1699 0
215 -1760 0
-272 -2453 0
-3754 -2305 0
-2238 -1935 0
2120 -219 0
-4603 51 0
614 -2157 0
4271 2582 0
2124 1894 0
884 3402 0
314 2781 0
4343 -1663 0
1148 4010 0
-1076 4023 0
2841 -2523 0
104 -3661 0
4271 -1816 0
-2315 900 0
-931 -4725 0
3381 -446 0
2559 -2985 0
4184 -3460 0
-3776 1028 0
-2439 -3079 0
1316 -3616 0
-1808 2969 0
-247 -2205 0
-3824 -4189 0
-1866 1554 0
4484 -4267 0
4287 -3467 0
977 3121 0
-4660 2272 0
-1686 1167 0
3763 -3939 0
-1054 -2796 0
1575 3153 0
2748 4571 0
-3307 2110 0
-4432 347 0
-4166 2654 0
2117 -2605 0
2364 4237 0
-376 877 0
-2216 151 0
4197 738 0
-2587 -545 0
801 -3122 0
-3591 -3487 0
-4037 -3913 0
-1243 -1454 0
1068 1295 0
-4346 -3962 0
3030 1609 0
1706 -1886 0
978 -2549 0
2876 937 0
-2884 -4231 0
-3031 4371 0
-4722 3747 0
587 -2308 0
4425 -1596 0
1087 3877 0
2886 -1002 0
-1434 196 0
3978 -3548 0
445 -2088 0
302 2465 0
3254 -3211 0
-1354 1235 0
-2557 984 0
3747 2181 0
3214 4482 0
-2718 -4491 0
3445 3693 0
4648 -4575 0
-2148 -424 0
-203 3639 0
-1514 2476 0
-3714 3752 0
152 1505 0
2200 -1074 0
3124 -219 0
-3093 2751 0
-1137 2739 0
-4463 1582 0
1653 347 0
2821 3246 0
-1855 -4213 0
-204 3601 0
2816 1703 0
1183 1466 0
-1069 1973 0
2945 4022 0
1086 2598 0
-3714 1956 0
3021 3560 0
-4325 -1159 0
-1859 3158 0
-4291 3407 0
-2108 -571 0
-1222 4379 0
-2480 -4330 0
166 -816 0
378 2069 0
3830 272 0
4227 -3097 0
1282 -3198 0
2539 -139 0
1785 -4318 0
-807 2764 0
4276 -4231 0
2463 -2019 0
-2062 -1106 0
-2457 -3340 0
-2893 2995 0
-2219 -3189 0
-2423 3773 0
-961 986 0
3309 104 0
-3241 -2315 0
492 -1624 0
-171 -182 0
-1581 3188 0
-2974 -903 0
-604 4694 0
-2761 -2253 0
-1953 1109 0
-4369 3656 0
1308 -139 0
-1177 -4577 0
1849 -4742 0
-1379 -3648 0
3043 3722 0
-1570 -1509 0
2389 1171 0
4580 -4455 0
2655 -521 0
3046 -2207 0
-4660 -2141 0
-1226 -1140 0
-3076 -1668 0
-4619 664 0
2615 -1939 0
745 255 0
-3667 -2159 0
303 -4708 0
-2564 910 0
-3406 3797 0
-471 2414 0
4409 -179 0
64 2829 0
-4537 1405 0
3636 3512 0
3818 -2407 0
-936 1754 0
4178 -306 0
3999 3332 0
-4523 702 0
329 1255 0
704 4014 0
-414 -3619 0
-3215 3207 0
3787 2175 0
-875 -1996 0
-2761 -266 0
-1580 2922 0
-4437 -34 0
699 -2594 0
1714 1209 0
3606 142 0
-1020 460 0
-2638 4274 0
-3652 795 0
2828 -3369 0
-809 -4347 0
-3031 2197 0
465 -2019 0
-1166 1693 0
-320 -2368 0
2592 973 0
2038 2342 0
435 -3076 0
4623 -3198 0
2706 -2990 0
-4446 1578 0
591 928 0
-3805 2285 0
1399 -1658 0
-3001 -4375 0
3892 2165 0
338 -2662 0
-3864 -2636 0
882 -54 0
-2426 -743 0
1224 -471 0
1798 -2474 0
4235 -2231 0
-4735 -3037 0
-554 3403 0
-792 -2693 0
-3306 1970 0
-4730 -1588 0
1281 1814 0
-1901 -816 0
3559 -875 0
-1550 -1467 0
-10 -3542 0
4100 -2257 0
-999 -684 0
405 -855 0
-3088 2464 0
1077 -2414 0
1643 435 0
-733 4168 0
1813 4567 0
-4205 -1437 0
-4247 1266 0
-4712 -1967 0
1172 -3245 0
1658 -3788 0
-572 -2982 0
135 -2912 0
2974 -2212 0
-3661 2565 0
-4427 3971 0
538 4288 0
-909 -4169 0
-1009 -826 0
-4150 3439 0
-635 -4083 0
3620 -381 0
3516 -2063 0
4530 -3412 0
2406 -921 0
-3443 3991 0
-4104 -2523 0
-496 -1707 0
-3361 -1206 0
-3440 4671 0
4254 -4744 0
926 -2549 0
-3527 4543 0
-598 4451 0
945 -1165 0
-1644 -3326 0
1648 1819 0
-4691 -4600 0
-2393 1649 0
533 1090 0
3610 -3229 0
-504 -3700 0
-170 4009 0
-3826 -3871 0
-4213 205 0
-1425 3373 0
38 800 0
2026 -4140 0
623 3410 0
-831 1272 0
-1908 179 0
829 4562 0
650 -870 0
-2521 -3899 0
-4280 -4010 0
1492 479 0
-4315 -1774 0
1043 489 0
3292 -2260 0
474 -2646 0
3016 3285 0
-2041 -476 0
3288 -1914 0
-1494 1743 0
1376 488 0
-2968 2823 0
-4031 -2961 0
3830 4033 0
-630 -1093 0
-3113 2721 0
-1424 -3817 0
-3550 3295 0
3739 -2126 0
-1799 2776 0
-649 3651 0
676 -3150 0
-3524 4132 0
1702 2928 0
3366 3935 0
508 -2015 0
-743 4353 0
3112 -797 0
-3710 2438 0
-2054 -2986 0
1505 -2320 0
-141 -4286 0
1250 885 0
2480 4155 0
-3065 -1176 0
2487 -1569 0
2915 2208 0
2535 4017 0
-431 -300 0
1133 -2051 0
-1654 3312 0
811 3861 0
1466 -1460 0
-30 257 0
3246 3973 0
3386 3791 0
-861 -3726 0
3840 2533 0
1741 4583 0
1245 3736 0
3434 -981 0
2305 1322 0
2852 3538 0
-1547 2750 0
2553 414 0
-1641 4009 0
1838 -159 0
1317 1557 0
3747 -357 0
-2367 -884 0
4179 4404 0
-2275 -3806 0
-2287 41 0
3719 4470 0
-3236 -2986 0
-4088 -1184 0
1862 -1963 0
-3555 1989 0
3380 4677 0
306 4085 0
-1819 -4371 0
2164 4197 0
-3737 -3903 0
3587 -3146 0
-3675 4407 0
1907 -3904 0
1084 3121 0
2337 520 0
-3366 1590 0
-4241 3610 0
3674 -3630 0
-1634 -4612 0
1358 -1900 0
3386 443 0
-2511 1664 0
3005 -2508 0
-1619 -1400 0
3006 3233 0
-3197 -1837 0
507 4556 0
727 -529 0
-2878 -3003 0
-1060 -896 0
1727 -506 0
-495 2631 0
-3375 -1022 0
2279 2403 0
3736 -2033 0
-3258 -1093 0
4614 2266 0
-1676 1401 0
1612 2805 0
1208 4537 0
-3530 -2902 0
2685 -1302 0
-2604 3284 0
3721 -4528 0
2661 -4657 0
388 -4129 0
-2931 -4617 0
4294 -179 0
1722 -3676 0
-1885 4580 0
-778 -4046 0
-3919 4060 0
88 -2561 0
1054 1384 0
-3898 -63 0
-3387 -3828 0
4101 -1844 0
2317 -1242 0
628 -1644 0
3817 -8 0
670 -3443 0
-4219 3011 0
-4703 -1536 0
2821 4735 0
491 3721 0
4367 -649 0
-4585 -577 0
-3930 -2835 0
4029 -4410 0
2681 -756 0
-254 -2906 0
3765 1793 0
-268 3238 0
-1663 -213 0
3515 -2953 0
-349 2682 0
-3895 34 0
-206 3324 0
2450 105 0
706 -3732 0
619 4160 0
-2211 1970 0
-4434 -4150 0
-4653 940 0
1605 2474 0
1341 -3941 0
-1863 -874 0
-4312 -236 0
-2871 -2430 0
596 4556 0
644 -4086 0
2853 261 0
191 -3369 0
-1038 1128 0
3997 -1239 0
2747 -2569 0
-588 -346 0
244 3905 0
2373 2819 0
-913 -1953 0
1772 4197 0
-827 -2627 0
514 4465 0
3286 4672 0
42 -120 0
-2712 -3105 0
3409 -1958 0
-3594 -662 0
-2913 -4335 0
-827 -3899 0
-1063 -2140 0
-731 -376 0
3066 -2168 0
-4095 1986 0
2011 -1857 0
-10 -750 0
-1092 -3288 0
-2653 3029 0
1272 913 0
2614 3509 0
1423 593 0
604 3249 0
-3684 -2722 0
892 494 0
453 -1888 0
-624 -1670 0
-1355 34 0
-2753 2810 0
-3036 -2551 0
-1787 -1396 0
-2194 -2211 0
3486 -3026 0
-2222 -3513 0
-1682 -1061 0
2559 -4475 0
2914 -2110 0
-141 1416 0
-577 56 0
-829 1645 0
-482 -1074 0
449 -111 0
-2417 -1087 0
2700 1308 0
-888 -1149 0
-2830 2662 0
-4115 -4451 0
-2121 1048 0
4726 2214 0
3288 -3031 0
2780 3512 0
-4090 2492 0
-2180 4378 0
-1241 -4157 0
988 1333 0
2238 2391 0
3653 804 0
-1254 -1029 0
1380 -3898 0
-1278 -1190 0
1011 -310 0
2463 5 0
-4085 -3257 0
1171 -3796 0
-1927 -495 0
624 -555 0
2967 1463 0
-3025 -3562 0
-3610 4686 0
-1858 -3807 0
1647 -1159 0
-1094 1452 0
-1617 2791 0
-3940 -3112 0
4155 -1383 0
3695 1156 0
3635 1789 0
1684 3866 0
1636 -524 0
4517 -3445 0
-4730 -131 0
-2396 322 0
-4278 1262 0
-3086 -280 0
591 -1290 0
2668 -1839 0
-421 1697 0
2611 4022 0
2499 -4160 0
3359 3765 0
1254 3130 0
3263 441 0
1721 -3123 0
3917 -2638 0
-2227 -3477 0
1963 -3670 0
-2001 2823 0
1194 -4097 0
-19 -1467 0
3637 -4090 0
4056 -1071 0
1366 -2936 0
-981 -1654 0
1854 1183 0
-4417 -488 0
-2505 2116 0
-1611 -3474 0
-3635 3977 0
-3097 -1826 0
-3856 -1174 0
-1995 -2951 0
-4645 -4030 0
1866 2779 0
622 -1809 0
2371 1989 0
-3734 1826 0
-2377 2302 0
1918 -4186 0
4654 2632 0
-1728 3905 0
3421 -800 0
-2708 -2782 0
-303 3712 0
-390 -2446 0
1228 1117 0
-3652 1363 0
-2989 1331 0
201 -3894 0
-997 102 0
-3037 2147 0
990 -4647 0
1015 -1287 0
-3851 4738 0
1590 -3510 0
-2720 2692 0
-2632 -2215 0
1101 -4388 0
-2084 -4721 0
-4755 -2340 0
-4284 -3428 0
-2151 4726 0
-1847 1263 0
435 2120 0
4740 -375 0
-873 1501 0
1818 4044 0
-3771 1187 0
-2716 -832 0
-3151 -1112 0
-2178 2430 0
1656 3833 0
-3496 -3258 0
-316 -4445 0
-250 -1150 0
-3430 -3761 0
-1023 -3686 0
-4378 -3950 0
-3930 1013 0
-1012 -1420 0
-3735 1085 0
-3675 -2429 0
291 2271 0
1294 -2452 0
1626 -1733 0
800 -1702 0
3761 829 0
1180 3094 0
-3964 -2435 0
-36 377 0
-1218 3328 0
-2218 -1127 0
1694 -3590 0
-2502 3706 0
3384 3936 0
-3339 2030 0
4482 4254 0
3997 -2532 0
116 4747 0
758 -806 0
-225 1025 0
-1885 -1803 0
3612 4193 0
595 -2531 0
-4748 -1334 0
-3666 1544 0
1940 2998 0
2610 -1480 0
2852 2816 0
2295 -4466 0
1302 2430 0
4520 -2203 0
2069 -451 0
1214 -4255 0
-4360 -3034 0
880 2215 0
-2652 -4316 0
-504 -993 0
4671 1506 0
-1889 3183 0
3560 -4110 0
3832 459 0
-386 -4501 0
3375 4142 0
-229 1844 0
-300 -4211 0
1906 660 0
2821 4194 0
-4552 -4641 0
-820 34 0
265 3535 0
2686 -3973 0
-2098 -1335 0
1722 -2032 0
285 -772 0
2458 -1759 0
-2684 1378 0
371 1729 0
-3601 1062 0
-4637 107 0
-582 3044 0
-791 -1808 0
394 -1964 0
-3641 -3644 0
-2228 4486 0
2005 -3619 0
-1782 -1035 0
1994 -3039 0
-4755 3464 0
3558 2524 0
-1952 -4021 0
4672 -1471 0
814 -2673 0
4635 1583 0
3232 -2885 0
-4542 4158 0
3439 -1020 0
-1484 -2357 0
-2653 -381 0
-3917 29 0
2756 2001 0
-847 2041 0
2562 952 0
58 2482 0
4458 -2591 0
-1488 2816 0
266 -3159 0
1961 -4096 0
-4691 758 0
-3444 1474 0
3992 -740 0
-3798 -3867 0
513 -3224 0
282 -2001 0
4689 -1107 0
1073 -3112 0
1222 -2412 0
-4602 1214 0
-3046 -2985 0
-3791 -4272 0
-785 2246 0
-197 -31 0
-2800 1569 0
55 2071 0
-3903 -1712 0
801 2097 0
1035 -2335 0
289 -1003 0
4082 -4403 0
-4074 1446 0
1988 3352 0
-2838 1541 0
-4704 3553 0
-1131 -1037 0
324 -4061 0
982 520 0
1626 4495 0
-1921 -1421 0
-986 -1951 0
-270 -3930 0
-2815 2010 0
2050 -1745 0
-4070 -1971 0
688 -2973 0
1878 1626 0
1674 4177 0
-2979 1369 0
3744 385 0
1270 -1192 0
4173 -4501 0
-779 -3313 0
-3898 -3776 0
-2973 3153 0
1428 2429 0
-4449 -2451 0
3592 263 0
3401 1732 0
2347 -3773 0
-3537 -1697 0
-4696 -3610 0
911 3808 0
-1771 -1002 0
279 -3898 0
-3148 4602 0
1050 1882 0
194 -3147 0
2696 109 0
2414 2303 0
-2939 -1082 0
-1802 -4292 0
-839 -1366 0
1330 4415 0
1632 3651 0
1040 -2754 0
-1830 248 0
-929 4451 0
-4278 -4096 0
3287 2483 0
2603 279 0
729 4293 0
-2843 4722 0
1342 2011 0
4536 36 0
4248 -1868 0
3123 -2765 0
2266 2487 0
739 -3862 0
4072 1956 0
-2594 -3098 0
298 -1219 0
2308 -3675 0
1559 -3313 0
-2129 2336 0
-2658 -1915 0
2676 4282 0
410 -4603 0
-1378 3649 0
-840 -3154 0
3519 -1372 0
636 -4353 0
-4456 -3132 0
-1959 -1055 0
3921 2980 0
3938 2082 0
-1602 3001 0
4233 1433 0
1324 403 0
231 -3084 0
1776 -472 0
-421 332 0
3798 976 0
725 -1594 0
-1619 3580 0
661 4196 0
-2570 3851 0
1415 3071 0
-1967 -1115 0
4305 4254 0
-3332 -316 0
1590 -3371 0
171 -2150 0
-2856 866 0
519 -4021 0
-2214 1091 0
-2296 4233 0
2995 3500 0
2480 -4445 0
-437 4584 0
377 -336 0
140 -1588 0
-3124 1932 0
2480 1739 0
-2473 -2736 0
-2214 3079 0
-3490 -1327 0
3518 -606 0
155 2119 0
675 3928 0
4209 -1551 0
35 -2708 0
281 -546 0
171 4528 0
1386 -4272 0
2841 -1931 0
256 -340 0
444 -3913 0
-3644 -3828 0
-717 -275 0
-925 4641 0
-541 377 0
-2985 -2118 0
3439 -2816 0
418 3248 0
-4614 -2691 0
776 3072 0
1327 3164 0
-4158 925 0
-1506 -504 0
-4138 1214 0
2213 -4225 0
-3587 2947 0
4143 1674 0
-2532 -1659 0
-1669 3010 0
-4341 -1669 0
-4366 537 0
2421 -890 0
2949 1578 0
3274 -2128 0
1162 -3399 0
-1604 -6 0
191 -2613 0
3976 4680 0
2603 -2302 0
-2788 -333 0
-110 -720 0
-4551 -1047 0
2600 3334 0
2930 -3757 0
-848 -4192 0
4677 -205 0
176 162 0
1685 -4218 0
-1338 -3322 0
-3461 -606 0
2439 -3903 0
840 -3495 0
-2600 4748 0
-452 1490 0
-2851 4422 0
-3964 3365 0
-3972 -3058 0
-2028 -413 0
4626 687 0
-3308 -1241 0
-2106 -2982 0
4169 2345 0
-4454 -1571 0
77 2027 0
1352 397 0
4427 -1418 0
2947 3981 0
-2529 2061 0
-3240 296 0
4521 140 0
-4329 3320 0
437 1132 0
-1555 -2251 0
-3986 3248 0
3242 -1511 0
-3711 -2534 0
-752 -241 0
-1212 -1941 0
1417 4118 0
-3148 -2597 0
2806 -490 0
-629 -3579 0
591 -2061 0
2289 -1140 0
-1850 2919 0
2559 -2554 0
2559 4440 0
-1736 2156 0
1652 2026 0
-1422 160 0
-3341 -3563 0
3646 -964 0
-485 -2231 0
1716 1151 0
-1386 -3355 0
-3193 2487 0
-2360 2356 0
4067 4045 0
-1334 3003 0
1314 600 0
730 3344 0
2522 -3581 0
916 -4076 0
-367 -2024 0
-2460 -275 0
-3204 -125 0
-3197 -395 0
2038 -918 0
-4595 -52 0
-1350 4023 0
-3940 55 0
1804 2532 0
689 -757 0
-2144 3838 0
-4614 2063 0
1979 -713 0
4238 2677 0
-2766 -487 0
-2127 2535 0
345 -1854 0
3403 3091 0
-2632 2463 0
-694 -2820 0
-2693 -4746 0
4299 4423 0
-1676 2936 0
3726 -3596 0
-278 172 0
-2123 -2490 0
315 2015 0
-3511 -4286 0
2848 228 0
2617 -3159 0
-1811 1439 0
-1821 -870 0
2855 -4022 0
950 4195 0
1623 483 0
2016 3564 0
-4292 6 0
3386 3409 0
3968 -1005 0
-1260 -3699 0
-980 -3185 0
389 3646 0
1314 4226 0
-1022 3166 0
497 4024 0
-567 1429 0
-531 4725 0
-338 -1766 0
-2768 -1053 0
592 4391 0
-3465 3284 0
-218 -85 0
1558 2458 0
4651 3573 0
-3840 825 0
-28 3373 0
3876 -1697 0
-4715 4701 0
-4115 2107 0
-3247 -2534 0
-4419 3208 0
3589 1763 0
4733 -850 0
-1823 2054 0
4138 3170 0
-634 -528 0
2912 -861 0
3650 2339 0
2807 52 0
3419 1998 0
-249 -4325 0
516 1996 0
-274 2919 0
-2675 -1316 0
-2900 -2430 0
4509 -855 0
-1683 -157 0
1476 2209 0
2998 -2534 0
-4286 786 0
2157 414 0
-690 -809 0
1936 3653 0
1634 134 0
4724 -3915 0
-3351 3522 0
-1968 -766 0
-4604 -3016 0
98 -926 0
-2992 -727 0
4412 -598 0
-3004 4108 0
366 -3179 0
-4056 -3894 0
-2110 -3431 0
1317 610 0
683 3567 0
692 4582 0
3284 1691 0
-2648 -1368 0
-3135 -1277 0
2071 3119 0
21 1493 0
2948 -552 0
1634 -2761 0
-798 -4403 0
-260 -2526 0
-4498 -3898 0
988 3190 0
4630 -2708 0
-1774 4487 0
3811 1850 0
3462 -563 0
1201 -413 0
-4310 4439 0
-2036 1295 0
-4432 -2307 0
-4578 -2818 0
-209 -2970 0
-1643 570 0
514 1948 0
2674 -4095 0
1196 1553 0
-2520 -733 0
-1121 -2938 0
-1439 4500 0
-3642 3558 0
-3689 1300 0
-2520 -3825 0
-1617 -818 0
1513 166 0
-2289 -4752 0
-3859 2206 0
-4567 -2658 0
-4608 1357 0
1296 -4250 0
1068 4545 0
-4099 1922 0
687 4360 0
-2082 -541 0
-4169 -4104 0
3249 2837 0
3203 -4230 0
4104 3410 0
205 2318 0
-1055 -1572 0
-757 -3946 0
-2452 -4078 0
-1186 -3364 0
-1753 -220 0
-1776 -96 0
3310 -867 0
-1905 161 0
-213 228 0
-2474 358 0
-2322 -131 0
2411 2866 0
3809 -657 0
2210 2910 0
826 -1697 0
183 -2037 0
-2029 1035 0
-2863 1595 0
3988 1410 0
393 20 0
-4378 -3058 0
2637 -3692 0
-2821 4629 0
3807 2610 0
-1031 -2876 0
1045 -1993 0
1042 47 0
1088 1518 0
1423 -1151 0
-545 3407 0
-1782 -4098 0
-2355 4067 0
492 -1678 0
3054 -2386 0
2391 -1738 0
4665 1359 0
3277 -4307 0
3545 -1601 0
-2691 2231 0
4307 -3910 0
1423 -802 0
3371 -205 0
4013 -869 0
2506 1443 0
-881 -3739 0
-777 1696 0
-1438 84 0
-257 2589 0
-1448 -3400 0
2903 -4669 0
-370 3068 0
-168 350 0
-1977 -774 0
3747 -2145 0
887 -4171 0
2764 1587 0
-2710 -4541 0
-628 -1075 0
3520 1012 0
4291 2853 0
-2281 -2120 0
2546 -4322 0
-3831 -2528 0
3397 -3996 0
2835 1113 0
2146 -392 0
4137 604 0
3741 2559 0
-562 -3148 0
-2497 -1863 0
2236 -259 0
-4334 4250 0
-3715 2883 0
4279 4572 0
-1477 -925 0
2394 -2398 0
-312 -4663 0
1808 -3853 0
-923 3892 0
-4515 -2110 0
-4370 3175 0
-1881 -4369 0
989 -720 0
3725 -82 0
-2701 -2285 0
-4019 -3949 0
-842 675 0
-4021 -549 0
3861 -1296 0
-1903 -3547 0
-1519 872 0
-2999 -3862 0
3498 3140 0
49 298 0
-1979 -217 0
1814 -2365 0
3176 -585 0
736 -3687 0
751 -4615 0
-1966 3256 0
-1791 -1676 0
160 938 0
4018 -650 0
1261 -827 0
3812 -1642 0
4534 -2816 0
881 -2927 0
4508 3029 0
1010 -3090 0
410 -907 0
-2451 -3279 0
1879 1890 0
-3644 -382 0
354 1243 0
-2725 -2586 0
-4472 2647 0
904 -3691 0
-1512 -3641 0
-3512 -3665 0
4350 -4708 0
3939 1946 0
450 -3496 0
583 4537 0
4616 2794 0
3277 4475 0
-4502 -2651 0
-992 2828 0
-1514 -102 0
-3900 -202 0
-3202 2014 0
1895 -2404 0
3876 2635 0
4646 1416 0
-96 3771 0
-3213 3135 0
-1552 -3688 0
-3773 -3810 0
3331 2161 0
-152 3762 0
1651 -806 0
-4523 -1342 0
2222 -3984 0
-3595 4709 0
198 -4487 0
2654 4094 0
4328 4068 0
1465 853 0
-1079 3502 0
-4388 -448 0
-3222 -1210 0
-4016 1661 0
-4600 4628 0
-407 -1620 0
-1025 -3231 0
-685 2433 0
1284 1779 0
2622 -4442 0
-4042 -427 0
3207 3780 0
2737 2903 0
-533 -1700 0
-4464 3798 0
-997 119 0
2828 -2673 0
-655 4202 0
4501 -3389 0
1151 141 0
-1238 -4026 0
-2288 4433 0
-4545 885 0
-1715 -1196 0
-1033 -4523 0
563 -239 0
-2130 -2528 0
3170 3553 0
1951 -1274 0
-1961 -2949 0
701 1456 0
-803 -2729 0
4331 -1631 0
4350 1302 0
-24 4455 0
-4313 -4570 0
27 2341 0
4716 -111 0
2360 182 0
-4223 -3543 0
2567 -2238 0
-3672 2797 0
-2663 -4750 0
3544 -43 0
669 -1258 0
-3041 -2659 0
2652 3934 0
-4346 -4548 0
-3870 4573 0
-1388 -4548 0
-2712 3181 0
-4385 -2828 0
-200 -4499 0
-184 -4233 0
-3532 -3811 0
3226 -3756 0
-903 -883 0
-3087 -157 0
162 4624 0
1313 -2632 0
-4259 -2338 0
1091 -1123 0
3968 -79 0
2981 1810 0
-4220 -182 0
2668 3545 0
-4575 -2320 0
1101 -927 0
-4633 -1134 0
-425 633 0
1115 2213 0
-3902 -2346 0
-2039 1091 0
-173 537 0
2644 1608 0
1439 -2624 0
-3766 2860 0
-3210 2802 0
1946 -2 0
-1858 -523 0
3230 -2105 0
-3691 -4041 0
3961 1832 0
-2184 -3927 0
1386 -3661 0
-2145 34 0
-2204 -4463 0
-4015 3638 0
277 2008 0
-2925 3605 0
2191 -4102 0
4254 -4082 0
-1844 -637 0
1683 1999 0
2487 2850 0
1040 3403 0
3033 683 0
-711 -989 0
-708 1390 0
-5 2778 0
-3273 -2977 0
-3825 3681 0
1374 2138 0
-1803 2286 0
-4208 -3151 0
290 -963 0
-1029 361 0
-2941 -4095 0
-4211 -2128 0
-1096 -148 0
-2672 -3231 0
-2708 -3995 0
-1075 2293 0
1546 -3345 0
2518 1111 0
-2241 4216 0
-142 -3003 0
1229 -1325 0
-404 -1152 0
3124 3541 0
-108 3507 0
-2626 -4081 0
-2448 -1946 0
4509 -3896 0
-1705 -4051 0
4011 2852 0
139 -487 0
369 483 0
-4624 -3692 0
-1137 -4716 0
-1121 2693 0
-2255 2192 0
3311 -496 0
-471 -259 0
-1406 -1725 0
3976 702 0
3818 -866 0
-4107 -538 0
1511 -1337 0
240 2878 0
2221 2828 0
3407 1880 0
-686 1855 0
1417 -1575 0
-3687 2966 0
-2276 -2140 0
-2110 2242 0
-3347 -4657 0
304 -4028 0
4155 905 0
1327 3876 0
-1926 3922 0
1259 -1184 0
-4603 -2926 0
3175 -13 0
814 3063 0
2842 -732 0
3600 -1165 0
-3101 -2451 0
4033 -4070 0
2428 -2964 0
-3531 3514 0
2316 3039 0
-904 3880 0
154 1804 0
1897 -329 0
-4206 4333 0
4380 298 0
95 -2008 0
-3037 83 0
-27 2934 0
3256 -2255 0
4663 34 0
480 2800 0
750 -4569 0
-1628 2171 0
1725 1977 0
-1445 2568 0
270 -3921 0
442 -1854 0
3995 2639 0
-5 -818 0
-3129 2168 0
-806 -1005 0
2152 4385 0
2855 -317 0
-740 1008 0
4555 -3003 0
3994 -3291 0
-2310 -1853 0
2768 3705 0
2647 -50 0
-1852 3919 0
-3022 -2762 0
1832 2572 0
4452 -474 0
-1529 4740 0
2089 -3069 0
-4504 -1642 0
134 -4195 0
-4048 2470 0
-3331 4038 0
4132 1390 0
-1315 -1958 0
-1686 -1009 0
-3863 4026 0
3692 -100 0
4322 3643 0
176 -2105 0
4428 4618 0
2000 -7 0
-2386 -4378 0
-597 4499 0
1104 1146 0
-2144 -1964 0
4492 1711 0
-4693 -4385 0
133 3459 0
4078 -1450 0
-5 -1061 0
1977 -2586 0
-3648 -3867 0
4065 979 0
1238 1324 0
4590 -1226 0
-1411 80 0
-342 -376 0
1813 -2018 0
-776 3457 0
2928 3254 0
-3115 -1076 0
-3156 2780 0
-2232 -2491 0
-2585 3175 0
-543 -4647 0
-3805 3154 0
4667 -3679 0
1485 1176 0
924 -1936 0
1591 3262 0
-4606 928 0
2332 -1613 0
-3702 269 0
1885 1927 0
-173 -3630 0
3841 -522 0
3697 1984 0
1783 -402 0
1552 -6 0
4075 4138 0
3731 3645 0
3690 1622 0
3512 -2132 0
-1782 1297 0
-423 -3958 0
1429 575 0
-4232 477 0
-1722 -776 0
4606 602 0
-597 1446 0
649 3461 0
-652 3893 0
46 -7 0
-4001 -3831 0
-4077 -3839 0
3740 -4410 0
-3569 -4075 0
2173 3390 0
1119 -4652 0
-3553 -100 0
2369 -1635 0
3006 4369 0
-4051 -1518 0
1640 518 0
-1867 -529 0
-4284 -539 0
813 822 0
-1758 -2562 0
-1052 1171 0
356 -1679 0
4618 2789 0
2418 2105 0
-4418 3990 0
104 -748 0
-1369 3421 0
4638 -720 0
-4180 1358 0
-851 -2825 0
740 -3261 0
699 899 0
-96 3017 0
-1670 -253 0
-757 -2871 0
3361 -121 0
-3746 -772 0
-738 4676 0
-4577 -828 0
-870 3963 0
-3419 3749 0
37 158 0
2089 737 0
-3718 -1381 0
-2767 -3517 0
2081 -2180 0
1465 -3194 0
3921 4352 0
-777 4257 0
1543 -654 0
3170 -1336 0
2751 4198 0
606 -3785 0
2614 3948 0
2306 -937 0
-2010 4631 0
2768 4461 0
-335 2450 0
1893 -4262 0
2039 -4689 0
-2899 248 0
-1309 -816 0
-94 -3554 0
3502 977 0
-4399 3795 0
1623 -3367 0
-3319 -4188 0
-4231 4675 0
3184 -3551 0
15 3749 0
-1001 -2365 0
-2963 2813 0
2401 187 0
-2503 2965 0
3838 1485 0
3750 -367 0
-4652 3289 0
-3672 2342 0
-1363 306 0
1220 4202 0
691 -655 0
-2330 -4103 0
-1481 2140 0
-1912 56 0
2819 3633 0
-3077 4241 0
300 -4206 0
470 401 0
1399 -3982 0
-4115 3314 0
-3327 3206 0
-672 -3181 0
-667 1627 0
1877 3161 0
-439 -3421 0
-1516 4348 0
-748 4544 0
2607 2505 0
4468 -771 0
-927 3416 0
2845 3516 0
1155 2437 0
2299 -2093 0
-2704 -1751 0
265 -3954 0
3006 2395 0
728 3897 0
-3725 1626 0
3921 84 0
-4649 3498 0
1650 -3132 0
4622 1165 0
-4505 1703 0
-4613 -4574 0
4415 -2677 0
-544 3029 0
2991 -1157 0
-732 3294 0
-2737 -1607 0
-2214 -3185 0
-3057 4310 0
2735 -737 0
2577 -3375 0
1913 4178 0
1735 -579 0
502 4513 0
643 3849 0
347 800 0
-2346 -1537 0
3375 2387 0
2846 2143 0
-3058 3020 0
-4060 -2951 0
1193 65 0
431 -552 0
336 -4596 0
-3097 -3026 0
36 -1364 0
-148 2696 0
4715 3880 0
-1601 2274 0
497 3964 0
-3794 576 0
-3822 4100 0
-4336 -101 0
1514 -1240 0
-3449 -2528 0
3674 1971 0
-2066 -487 0
-4062 197 0
-1286 3726 0
-1212 156 0
4272 -3276 0
-2416 1308 0
1135 4642 0
-1775 -3382 0
-1249 1430 0
-4308 -1119 0
1469 -240 0
1693 -4486 0
2796 177 0
-3119 -580 0
-4236 -1250 0
-428 4383 0
-4514 3304 0
3309 -2492 0
3260 3374 0
-516 3362 0
-1793 -2166 0
-1316 -2400 0
3868 852 0
-1087 -430 0
-749 3928 0
-2128 4509 0
1896 820 0
2633 3296 0
2079 -1836 0
-426 2790 0
2335 -3121 0
707 -2841 0
-228 -4139 0
-763 -4743 0
-4327 -416 0
-1020 4349 0
-1276 -509 0
-3228 3444 0
-3702 -694 0
-2037 740 0
-1372 -1816 0
2967 -1592 0
3027 2129 0
4337 2707 0
342 -1762 0
-727 -4394 0
163 -2304 0
-1551 2348 0
2911 3538 0
1642 1123 0
-3955 351 0
-1019 -847 0
696 -778 0
2870 2943 0
2819 -960 0
-719 2050 0
2063 -96 0
-1778 391 0
3156 4197 0
-3788 2740 0
-2503 2841 0
3488 3040 0
-1991 3505 0
-2557 -4719 0
2109 4556 0
1068 -2682 0
683 2465 0
-3671 -820 0
1319 2573 0
-3647 2862 0
-2208 -4525 0
-881 1723 0
2150 -3638 0
603 -1094 0
-4243 3733 0
-3873 2207 0
4290 2694 0
-4048 -2056 0
-2490 722 0
963 56 0
-4378 149 0
1522 -1888 0
-420 3450 0
1473 235 0
1123 2238 0
-2567 3680 0
-980 495 0
-2721 229 0
-3144 3262 0
1170 1428 0
3010 -4664 0
2391 3227 0
-859 4572 0
2741 1791 0
2804 595 0
-3958 -372 0
-2973 -4291 0
-218 -214 0
-2205 763 0
-216 -3715 0
822 -2233 0
-3932 1059 0
2467 1313 0
517 -3375 0
1 2760 0
-1601 -3243 0
-1422 -2201 0
2734 4080 0
838 592 0
760 3500 0
1988 -2527 0
-4175 -4159 0
-4220 -2674 0
-3209 4144 0
-7 -2725 0
2007 3276 0
3119 1870 0
-431 -2718 0
-52 -284 0
-2367 -648 0
-2760 -1412 0
3037 -2835 0
-1698 4068 0
-1363 -2526 0
-2720 2643 0
-1522 -3610 0
2994 1067 0
-860 -2155 0
-3938 -1056 0
4591 -4444 0
4674 -2492 0
-4310 -2808 0
2131 -4045 0
1046 -948 0
4036 -3932 0
873 2965 0
-518 -796 0
-514 -4164 0
1558 446 0
-1305 -4256 0
3284 -4249 0
-2792 4499 0
-4423 -159 0
-1688 -3699 0
249 -2871 0
-2233 1077 0
4036 -1700 0
-4542 1345 0
3945 -3414 0
-2475 -1908 0
269 -1460 0
1111 -1345 0
-1449 -4065 0
1452 -687 0
-980 4202 0
2781 -3080 0
-849 554 0
858 3082 0
2473 -3252 0
2946 -990 0
-1112 3418 0
1485 -1089 0
795 -2488 0
1283 -2197 0
-1891 2558 0
-1344 -4512 0
-4071 840 0
1356 91 0
-2959 -4147 0
3455 2117 0
1073 -2577 0
-1805 -4000 0
-495 2705 0
-230 -2690 0
3376 -1244 0
1165 -723 0
-989 3820 0
1685 315 0
2488 -429 0
1919 -4752 0
2452 2051 0
-2572 -3897 0
1735 999 0
3916 2363 0
2889 -2161 0
-508 2802 0
-5 -3729 0
-4410 -2985 0
-2097 -1443 0
-3290 1058 0
1618 -4270 0
4093 -3948 0
3711 -3842 0
-2962 -2272 0
-2366 -2758 0
789 1813 0
3739 4716 0
-1556 -1154 0
1556 782 0
-1115 -3297 0
-4704 -250 0
-823 2758 0
3094 -1375 0
-3281 4603 0
-1121 2431 0
-1933 612 0
-4135 674 0
3175 3447 0
-3825 -2144 0
-3171 3120 0
4294 437 0
-1388 2790 0
-3641 -2502 0
-3323 -1179 0
-3788 -3510 0
-3513 32 0
-910 -4407 0
2331 2351 0
-4137 2093 0
-3222 -4541 0
-757 4526 0
3243 3325 0
-1310 1000 0
1855 -4442 0
2222 623 0
4264 1229 0
4307 1231 0
-1839 3237 0
-1094 3107 0
3786 -3568 0
-339 -4334 0
-1567 2005 0
1898 4027 0
-16 -1890 0
-2269 -2824 0
3438 -4170 0
-408 -958 0
2662 -4449 0
3761 -1021 0
4736 3842 0
1526 -270 0
226 -1763 0
-3983 -1736 0
-3146 -1229 0
4318 -2913 0
-2878 -2973 0
-2326 1314 0
2222 1226 0
-2151 -1172 0
513 -1521 0
2343 719 0
-73 -1648 0
-2084 -638 0
-3584 -4552 0
-1867 -1672 0
-3465 -4463 0
1458 550 0
-3929 -192 0
-3672 503 0
4240 3105 0
-817 -1540 0
-4374 -220 0
-4526 -4128 0
-997 -3996 0
1520 1822 0
1012 4113 0
445 -4346 0
-4059 1009 0
-869 -1774 0
-2739 3418 0
-2236 -44 0
-3824 -3540 0
1721 -608 0
40 -2862 0
-2551 -4388 0
-425 2823 0
-2962 3463 0
92 3871 0
1430 -481 0
-670 -4153 0
-1009 -2933 0
-1075 2329 0
964 1658 0
-422 519 0
-212 -2505 0
4406 -3470 0
4280 2536 0
374 -1071 0
4240 -4435 0
237 -1574 0
2630 -51 0
-2134 2599 0
-38 2659 0
3187 -2512 0
-1986 -4098 0
-276 3651 0
-647 -3602 0
4152 3334 0
933 -2808 0
-4591 4391 0
3872 -2569 0
-2543 1656 0
-961 1903 0
-4034 -414 0
-3868 -288 0
2779 1282 0
-2109 -1568 0
3138 -1762 0
974 -2151 0
4422 -2560 0
-3900 -206 0
-2178 -264 0
2265 3957 0
4163 -3422 0
-929 -2587 0
-2951 -1816 0
461 2923 0
-2962 3921 0
1222 -220 0
4736 -4203 0
-2477 -2691 0
-1026 -1350 0
389 -2224 0
-2602 2143 0
2838 1505 0
-3916 -4727 0
2912 -2766 0
-2509 3986 0
1629 -4150 0
-3181 -3267 0
-3758 2202 0
-3953 3997 0
-875 -3345 0
609 1563 0
-3045 -3145 0
4184 2378 0
3049 -3373 0
-3375 2584 0
2371 159 0
-3577 -4144 0
-2524 13 0
437 1423 0
2810 2662 0
2541 -340 0
-3452 2715 0
4010 -2364 0
-2171 279 0
-3264 -3741 0
-441 4080 0
-1981 2793 0
-2997 -3550 0
-3087 2808 0
188 -1896 0
-2568 2626 0
-2803 -1676 0
-2000 -3971 0
3701 502 0
636 -81 0
-842 4658 0
3625 1870 0
-2139 -2570 0
997 353 0
3530 -1218 0
-3323 -3683 0
-1816 158 0
22 3309 0
-2430 4414 0
4237 -1123 0
2018 -1919 0
2021 -1687 0
-2648 3071 0
3650 -2537 0
-979 411 0
1961 -3116 0
1929 1265 0
2832 -1765 0
4497 2613 0
-2747 2085 0
4715 -1966 0
37 -2989 0
4132 -2336 0
-1297 175 0
2642 3855 0
3748 -3062 0
3986 -3186 0
-840 3980 0
-3183 -4115 0
-2938 -288 0
4103 3649 0
2821 -2648 0
4081 2091 0
1714 -3510 0
2235 450 0
-790 3986 0
2292 1140 0
-3845 1239 0
138 2765 0
-4332 -943 0
629 -1342 0
-2537 2341 0
-371 578 0
-4346 2523 0
-4059 3280 0
-415 1635 0
3747 -3578 0
-4751 4211 0
-1531 -3437 0
4466 3237 0
-2714 3165 0
2215 3521 0
2565 570 0
1879 2 0
4311 2690 0
-180 -3103 0
-4461 209 0
-1506 -844 0
-634 -3766 0
193 -2609 0
-1218 4500 0
-2540 -4359 0
-2489 -487 0
221 -3835 0
2476 1576 0
4217 -4098 0
4399 -2366 0
-4211 3705 0
-938 1685 0
-482 3361 0
-1352 501 0
4666 -2676 0
3166 -2958 0
895 -1688 0
55 -2695 0
-518 -2476 0
-3581 -1780 0
-248 704 0
-1308 -1113 0
-3804 -669 0
-1119 697 0
4309 -2796 0
4440 -1245 0
-117 4429 0
-251 -2873 0
-1476 2299 0
-4710 156 0
2482 2764 0
-4194 5 0
1129 -2230 0
-4608 1357 0
-2551 -2846 0
686 1202 0
-3570 -3550 0
3265 -1592 0
-1051 -287 0
3674 -3445 0
4309 3322 0
2401 -2775 0
-2670 -599 0
1747 1639 0
1093 -4147 0
-1780 4117 0
-1129 3728 0
2576 -3779 0
-1914 2107 0
-2190 -2857 0
1187 -303 0
268 -803 0
2013 -911 0
-1646 -2604 0
4352 -943 0
2726 -3279 0
4200 -3202 0
-4345 -3004 0
-1233 2288 0
268 1781 0
3552 1202 0
-3453 -1695 0
-1423 -1782 0
-3510 -3332 0
-2992 -253 0
-1928 -3638 0
-4028 110 0
4536 3854 0
-225 2645 0
-3554 -313 0
-3954 4045 0
4701 934 0
4070 2850 0
2699 4479 0
2628 3118 0
1452 -4102 0
-2491 466 0
-3905 -4369 0
-4229 -454 0
1931 835 0
-1425 -4240 0
3711 1329 0
791 2615 0
1419 -1342 0
-1614 771 0
1990 -179 0
894 -2765 0
-1018 -523 0
-1607 -3616 0
4402 -3368 0
-4270 -2019 0
1131 -569 0
1045 1137 0
3619 -2305 0
314 -3144 0
-561 2066 0
2779 -1154 0
-4441 3052 0
942 46 0
389 -248 0
1028 2169 0
-545 1353 0
-2951 761 0
2389 -1418 0
1126 2033 0
1231 -3631 0
-1534 2057 0
1891 37 0
-3803 4724 0
4197 -3434 0
3973 55 0
1310 -4740 0
1336 770 0
-2927 1315 0
-2185 1213 0
-1630 819 0
361 2826 0
3905 3890 0
-3441 3903 0
942 1578 0
-3119 2807 0
3649 -537 0
-871 -526 0
-1619 -3596 0
-2465 -7 0
-3548 -3539 0
2045 3556 0
4018 2396 0
-1938 -723 0
-2110 4404 0
-1417 -1487 0
3175 -467 0
2816 4255 0
4582 4681 0
3185 2144 0
2063 -2062 0
-824 -4330 0
-4575 -4138 0
2513 3359 0
2780 -4752 0
3311 3737 0
-1708 -3449 0
2019 3964 0
-2005 3206 0
-4705 -4371 0
-1231 -100 0
-2686 -3056 0
-227 -4474 0
1218 -1953 0
4574 -827 0
-327 -4642 0
1505 2033 0
1846 563 0
2520 1103 0
4570 1357 0
1301 -1729 0
-3305 3001 0
-1482 1885 0
-431 272 0
-416 -316 0
2374 -1923 0
-1500 -1554 0
-2602 -2743 0
1942 -4658 0
-1285 -1835 0
2916 2272 0
-4469 707 0
2287 2345 0
-1350 -186 0
-414 -3112 0
3227 140 0
-1999 693 0
4214 1548 0
653 800 0
-1332 -4589 0
-3631 2309 0
1722 -3332 0
-2936 2510 0
228 -2575 0
-3062 1562 0
-4413 -3348 0
1812 -2530 0
-922 21 0
-2328 -2743 0
2866 2210 0
-2693 -758 0
2395 3076 0
1719 -4113 0
3666 107 0
-4128 2213 0
-3643 -4285 0
-614 3841 0
1629 -1218 0
2387 3479 0
4180 1487 0
-3929 3893 0
663 498 0
2386 -4639 0
-494 900 0
484 -3534 0
-2718 -4211 0
752 4753 0
-2476 4691 0
-3855 -3758 0
228 3851 0
1576 -4004 0
-2976 -4682 0
-3011 -1159 0
4518 603 0
1205 -3423 0
-1607 -3595 0
-2284 1210 0
11 3813 0
-4645 578 0
4533 -4505 0
-4449 -4400 0
-4240 -2009 0
1314 -1736 0
-2875 154 0
-2375 2078 0
-2893 -1471 0
3295 -1969 0
2499 -1026 0
2965 -2938 0
-4113 4194 0
444 2684 0
3050 -3798 0
-2008 3126 0
-2229 -2340 0
-1236 3703 0
1387 -1713 0
1159 -1291 0
-2701 2450 0
4020 -582 0
-889 -3443 0
3557 1576 0
2791 2070 0
3514 -1975 0
1421 -2742 0
2565 3773 0
-3333 93 0
-3687 -3019 0
-830 3362 0
-1694 -796 0
4378 2249 0
-3321 -1406 0
3625 4329 0
2817 2265 0
-2881 -3575 0
1624 3145 0
400 2755 0
242 -1689 0
-1376 -3266 0
4386 4672 0
-1047 3698 0
-131 -842 0
4708 -492 0
1037 -3465 0
1379 56 0
-3702 2034 0
3607 2555 0
4253 626 0
-4070 -2788 0
-727 -4055 0
-1040 -3637 0
-1058 -3792 0
-2078 3180 0
-458 -3023 0
1804 966 0
3894 -3458 0
-26 3603 0
-2010 -4641 0
1663 499 0
1115 -3179 0
-3265 3783 0
3124 1105 0
-2741 -2573 0
-2011 -3118 0
4166 -1922 0
634 -1575 0
1453 2777 0
3292 3122 0
-1848 4050 0
1613 -4314 0
-2441 1867 0
-2101 285 0
-3531 3223 0
-552 -2927 0
-335 -1541 0
3666 3503 0
-1868 486 0
451 2443 0
-1421 -448 0
4337 -75 0
-3321 -345 0
1611 66 0
-2715 -1799 0
3446 -3467 0
3396 -2248 0
267 -2413 0
770 -3783 0
-701 1725 0
-1206 -1538 0
136 -4206 0
4637 3585 0
-3290 4067 0
2082 942 0
-2502 -1146 0
4268 -1763 0
-3827 -4488 0
3921 1929 0
3374 -1910 0
2207 3691 0
2893 2287 0
-3903 -879 0
-2748 -4198 0
383 1336 0
-1381 4118 0
3347 -4652 0
-4601 -3059 0
2525 4370 0
-1518 -964 0
-2435 221 0
2440 -4684 0
1573 -599 0
-2556 3736 0
767 1034 0
3035 3302 0
497 -99 0
3698 2133 0
-1809 -896 0
2293 -2286 0
1932 233 0
-1277 3663 0
2548 -2959 0
3713 631 0
2100 1569 0
-3146 963 0
-2809 570 0
-3135 2398 0
2220 2271 0
-1933 325 0
-4171 189 0
2792 3933 0
3623 3526 0
-1534 -924 0
-3782 -2142 0
-4339 -3462 0
350 -4595 0
2960 -809 0
-1584 4669 0
384 2901 0
-633 2347 0
515 742 0
-3721 3248 0
-1167 -3338 0
-3261 -4025 0
3821 2448 0
-3050 1303 0
3119 939 0
2941 2839 0
-862 -3305 0
3322 -2114 0
-535 4116 0
282 -2959 0
-2194 -330 0
-4570 3413 0
3944 4679 0
-2797 -2234 0
-908 118 0
-4688 -1440 0
-891 -1902 0
1271 -278 0
-3243 -1345 0
-3864 -423 0
1542 4200 0
1634 1395 0
4364 -1277 0
2614 1493 0
-554 -3117 0
-1959 -951 0
4705 -178 0
1164 -2537 0
3580 -2898 0
-3348 -75 0
2195 -2803 0
3522 -4355 0
-4422 4395 0
2840 2093 0
-387 2738 0
4463 -3276 0
-4243 3633 0
-648 1790 0
2146 1737 0
3553 1472 0
2202 -530 0
1212 -1843 0
-3757 3704 0
-2049 -4697 0
4176 -3088 0
-2621 1737 0
3666 -3170 0
-1038 4500 0
221 -3668 0
-2688 2525 0
2854 4637 0
-2133 -2142 0
1049 -713 0
-4225 -2581 0
-3003 -3727 0
312 446 0
-2158 -802 0
4089 3654 0
-4082 4668 0
3909 -4163 0
-3146 2544 0
3503 -4754 0
1813 3595 0
1262 78 0
3438 587 0
3385 -1227 0
-360 -2010 0
-3651 -2604 0
417 2559 0
3350 3486 0
-2155 2159 0
2185 -1561 0
3717 1981 0
1136 895 0
1663 -2948 0
4285 4317 0
-325 -3263 0
2894 4068 0
382 -1450 0
3893 64 0
-3801 -4717 0
-1046 -4532 0
1870 170 0
2320 789 0
-112 -3753 0
2541 -978 0
599 -3200 0
1414 1631 0
-189 1616 0
2974 -493 0
-4736 2360 0
-3920 2356 0
3046 2341 0
-161 3887 0
-1462 -1010 0
2253 3277 0
104 3333 0
-131 -4298 0
3005 2624 0
2847 3149 0
-75 2 0
-1323 -2551 0
-993 1842 0
-2750 571 0
2652 -4042 0
-874 4709 0
3911 -4240 0
-1811 -3955 0
-857 -283 0
-2660 3279 0
-3250 93 0
-3510 -1299 0
3461 2762 0
1468 3844 0
-2297 4079 0
-1852 148 0
3848 3311 0
-2585 -2614 0
1944 -2889 0
-1754 -1877 0
2569 -1651 0
2762 -3338 0
519 -3282 0
-3088 -2477 0
-651 -2795 0
-1270 2351 0
-3826 3859 0
-1186 1577 0
-4744 -370 0
1623 1018 0
-1467 -3823 0
3362 -1137 0
-3982 -2646 0
4018 -1943 0
1511 3889 0
3665 3476 0
3986 1246 0
-1955 695 0
-3899 2935 0
-1267 -733 0
1499 496 0
-3892 -4463 0
-4697 -1582 0
-3652 -1940 0
3015 -2194 0
4335 783 0
-1422 -3614 0
4348 -4345 0
-1300 -3197 0
-3897 3271 0
3675 -1614 0
-525 1463 0
3575 3582 0
-4705 -1348 0
-1591 3135 0
-3718 1516 0
2479 -2572 0
1025 -576 0
1294 4043 0
-4087 -2048 0
3861 -3270 0
-2649 2603 0
4030 -3024 0
2929 2965 0
-1742 -814 0
-1651 1438 0
-772 812 0
-4598 -3308 0
2838 4723 0
4381 -3398 0
-3927 853 0
-2669 -3820 0
1235 -2276 0
549 -2077 0
-3710 3607 0
2752 991 0
-2894 -4119 0
93 -2195 0
3971 -4359 0
-4400 2738 0
-2818 -4350 0
1365 2538 0
2930 -4261 0
-4625 2197 0
4371 1221 0
-3075 1844 0
-4553 -3686 0
-2843 3974 0
-1868 -2534 0
-978 3553 0
-1461 270 0
2387 319 0
-2379 2224 0
3320 410 0
-2606 1283 0
-2715 -1989 0
3574 -1798 0
-2307 1091 0
2026 3277 0
3995 -3510 0
172 2776 0
1413 2662 0
-3470 -2199 0
3859 2160 0
-161 1692 0
-3273 -1853 0
-527 -2933 0
-1105 2129 0
1557 -322 0
-2831 2751 0
-3326 2988 0
-4210 519 0
3322 3999 0
-1206 -2968 0
1475 -1847 0
-2423 -3259 0
-3144 -3274 0
-15 -3791 0
-1708 3539 0
-4291 160 0
1549 1848 0
-1512 1142 0
-2733 1041 0
-2423 4258 0
-484 -4562 0
-4056 -4180 0
3876 4046 0
2920 3227 0
3150 1850 0
-721 122 0
-2651 -1237 0
-332 -3867 0
-3712 1608 0
-1943 4192 0
-1798 -1248 0
2941 -3490 0
-1540 1119 0
-2435 -4223 0
-320 -3985 0
-3867 -746 0
2030 4434 0
-1190 1010 0
1793 -2416 0
973 795 0
4419 128 0
-3263 -711 0
-3152 3505 0
1594 631 0
918 -1045 0
1199 4116 0
-4303 -1847 0
-807 402 0
-1028 -2120 0
4151 1063 0
-4172 -3905 0
-1515 3770 0
2702 -2295 0
-2237 2540 0
-2712 -155 0
820 4083 0
1272 770 0
2767 -283 0
2112 -3596 0
-1514 -3268 0
-4741 -447 0
-1536 3081 0
4087 2093 0
-2978 -2585 0
-3855 -103 0
-768 -3571 0
3047 1600 0
-1554 381 0
3273 -2469 0
-846 1336 0
1322 4322 0
1979 1654 0
2654 291 0
2645 2631 0
-4096 1851 0
2204 -2180 0
-305 1440 0
8 -73 0
-300 -4367 0
-2911 1216 0
1272 4566 0
1378 4394 0
2581 964 0
3089 3094 0
-2656 -2842 0
-4277 3669 0
2721 3178 0
-2864 -220 0
-2359 2032 0
-96 -3952 0
-1443 1956 0
2841 -2592 0
-3233 2593 0
-4157 -1552 0
-4651 -2548 0
-1866 3458 0
-2009 -2139 0
3163 -3084 0
-409 -4067 0
3605 -916 0
4735 -178 0
-783 -2153 0
-3812 -677 0
-4151 -4464 0
-1892 3280 0
3071 785 0
3910 -3268 0
4497 8 0
1694 -2200 0
-2134 -965 0
-3115 -332 0
2926 -879 0
1779 135 0
417 -883 0
2353 1421 0
1637 4622 0
-1285 564 0
-2120 4677 0
-528 -3974 0
-1990 -223 0
1106 -3379 0
1606 4363 0
4145 2416 0
687 2406 0
4277 -2586 0
-4052 -3717 0
4337 1123 0
1542 -4394 0
2849 2686 0
4102 -1403 0
-564 3603 0
2392 3481 0
1893 68 0
-1026 3678 0
-4263 2636 0
2031 -1020 0
3976 -3337 0
4154 -1373 0
4326 -3496 0
-3077 -10 0
-335 -274 0
-390 -3366 0
-3637 4336 0
4297 -3771 0
-1381 -4382 0
-1380 -1345 0
628 31 0
-1870 -3048 0
-1933 -3269 0
-844 -933 0
615 -1145 0
-3669 -3954 0
-3488 -1632 0
546 -2700 0
2351 -3487 0
1183 -2121 0
4511 3407 0
4073 -14 0
363 4176 0
2211 378 0
3558 4164 0
3559 -1778 0
4716 -202 0
-1576 3054 0
3510 -3267 0
1183 -112 0
2538 -1006 0
1369 170 0
-4580 564 0
-2325 -111 0
-3276 1944 0
3017 84 0
-3533 2064 0
3317 -3247 0
1104 -2237 0
-3666 2421 0
2797 -1094 0
471 4409 0
-2399 3821 0
1040 156 0
-657 -2562 0
4453 -1766 0
128 4191 0
-52 987 0
-2415 -53 0
-891 -503 0
2386 3930 0
167 460 0
-4310 -3336 0
780 1872 0
-165 -534 0
-1909 -3865 0
4711 -4361 0
4200 -4431 0
-1065 -3315 0
-4139 -346 0
557 346 0
-1780 2814 0
-431 1084 0
2364 -620 0
-3759 -855 0
3230 -3342 0
-3364 -2420 0
4671 -4356 0
-1348 3782 0
952 4340 0
1606 -2535 0
-113 851 0
-697 -3573 0
522 -344 0
-2374 -837 0
501 1772 0
-762 2354 0
1507 505 0
1605 763 0
-774 -2353 0
-2077 -2790 0
519 -1708 0
-3775 -3266 0
-3902 -4380 0
1300 -652 0
2974 -380 0
2977 361 0
1939 -2687 0
2662 3027 0
1911 1068 0
2366 347 0
2212 -4627 0
-4141 -3190 0
-2104 -4627 0
728 3686 0
2454 4472 0
127 460 0
3283 3180 0
-553 4127 0
-2778 -3265 0
1351 2440 0
1329 3159 0
-3857 -1793 0
-4692 -438 0
-2215 -139 0
1822 -1139 0
3207 -635 0
-608 -4466 0
2000 -629 0
-4656 -3506 0
-2629 2516 0
-554 -736 0
-3972 2066 0
3005 -631 0
4039 2014 0
4537 1252 0
-4277 3405 0
-1793 2375 0
1380 -4256 0
2020 -1421 0
-4272 646 0
-95 -12 0
1012 -4571 0
-2425 -3728 0
-1180 -380 0
-3810 -1312 0
2360 -3622 0
3079 -4324 0
2806 -3598 0
1280 -2490 0
1857 2663 0
-3873 -1053 0
4550 1324 0
-1756 -1928 0
2210 -2439 0
-357 -2504 0
714 -4376 0
-2887 203 0
1869 -4408 0
4390 945 0
1447 691 0
-4365 -4537 0
-4270 2848 0
2122 -4270 0
-3029 -1682 0
701 4075 0
-651 2305 0
1056 -4096 0
4353 2647 0
-3280 -1139 0
176 3415 0
1244 497 0
-4195 192 0
1040 3047 0
3542 -4478 0
-1806 3665 0
-2512 1167 0
-1678 360 0
1273 78 0
-189 283 0
-3989 -3798 0
-4654 20 0
-2413 -2683 0
3282 -1902 0
693 -4540 0
-2803 2957 0
198 -1070 0
-4329 871 0
-4551 115 0
-4320 930 0
-3641 -556 0
3151 2914 0
-4399 3691 0
4417 -2233 0
-2143 2100 0
-71 -4107 0
-3904 -1785 0
-2145 -2881 0
-1745 -2762 0
2621 -3422 0
-716 -639 0
4753 -2231 0
-2035 3332 0
1721 -1559 0
3273 -775 0
-3098 1699 0
-329 -2228 0
-3135 -908 0
-1960 -4121 0
-1746 -4194 0
1929 2343 0
-1399 -146 0
1703 -2294 0
-1703 625 0
2622 1833 0
-2572 1210 0
-4188 -412 0
-1016 -1610 0
1712 -942 0
-4696 -1125 0
-4150 -1967 0
1387 3020 0
-1033 1011 0
-4139 3149 0
379 -1981 0
4530 -1246 0
-3388 -1102 0
-941 2847 0
-818 -225 0
616 1811 0
-365 -247 0
-5 3283 0
3768 3876 0
-3383 3562 0
3394 -557 0
622 -4149 0
-4628 -1952 0
3287 2766 0
2192 -4581 0
1252 3452 0
4710 -3709 0
-2537 -1115 0
-4584 379 0
-4078 -1413 0
-1277 1700 0
697 -3956 0
1678 -3598 0
-444 2760 0
-2900 -1731 0
-4672 -2367 0
-2383 166 0
-3164 2870 0
-4077 1466 0
-3671 2365 0
4138 2858 0
-625 1032 0
-4328 -4420 0
807 346 0
472 -1460 0
-3130 -1964 0
868 2440 0
1009 -4442 0
-3326 3992 0
-3915 3712 0
-4420 -3875 0
-1140 -3438 0
-3047 -4231 0
-990 -1799 0
-2905 4506 0
-1593 2216 0
-4252 1277 0
1025 4317 0
-1985 -2668 0
-2098 -2504 0
4743 2707 0
1214 3392 0
-3631 -4114 0
-2320 4087 0
3162 3501 0
-4753 2576 0
3852 -3308 0
4048 -2873 0
-1443 -600 0
-2948 -4283 0
1056 -110 0
-1759 1066 0
-122 -2410 0
-2324 4188 0
-1247 -2157 0
642 -2596 0
4149 -769 0
1126 4561 0
-3077 -1064 0
-111 -3777 0
2162 -1505 0
-3243 2272 0
-1555 -1054 0
-457 4714 0
2207 -4435 0
4416 -4642 0
-199 -1134 0
-2465 2454 0
-1220 56 0
4268 3538 0
4038 1555 0
1479 -4157 0
-1372 2631 0
349 -2575 0
-1738 -1128 0
-2761 -2415 0
4234 105 0
-3155 -4075 0
-1905 -569 0
3553 3346 0
-2788 -4386 0
-1578 -4017 0
-4188 3952 0
-4051 4143 0
-4409 -4750 0
2821 -1213 0
211 4616 0
-2613 -3045 0
2264 387 0
4295 -816 0
-4111 -4103 0
3324 1627 0
-3864 -3200 0
-4415 -1518 0
354 -4011 0
3234 -4508 0
-159 -2129 0
-1371 -4115 0
-3988 1040 0
3351 -3779 0
-3142 -1437 0
4167 2738 0
-3194 -3969 0
-2887 68 0
2482 -4443 0
1301 -411 0
2753 1694 0
-5 1794 0
-2856 4717 0
3771 3979 0
-2004 2481 0
-330 660 0
-303 -4139 0
2708 911 0
-3577 -118 0
4590 3762 0
2668 -540 0
-3537 -2554 0
-272 4666 0
-2024 2884 0
-3661 282 0
1135 -3566 0
323 2626 0
234 1547 0
-3534 3721 0
852 -3937 0
391 143 0
1694 4256 0
3809 1074 0
3988 2343 0
-3547 -664 0
-3218 3505 0
4539 -702 0
256 -1044 0
-3913 -3502 0
-2665 3934 0
-1184 1623 0
4415 -1815 0
-703 1398 0
-3524 917 0
-494 1033 0
3206 1161 0
-969 -2068 0
4676 -3102 0
-566 -3255 0
-631 -948 0
-2250 3413 0
4604 3383 0
-207 4276 0
2642 -374 0
2600 2644 0
-2376 -2667 0
242 3582 0
4646 -1219 0
-254 -4359 0
4726 1814 0
-1524 3042 0
-3318 280 0
1023 3165 0
1145 -1381 0
3860 -4516 0
-1682 1322 0
-2194 3565 0
-4315 -4439 0
2391 3196 0
-4241 -101 0
-3203 285 0
-3053 -769 0
-416 1844 0
3230 -2232 0
3543 -822 0
-1608 -4426 0
2369 -3904 0
-39 1954 0
-3816 -948 0
2242 3036 0
-4246 -334 0
-1415 1477 0
122 2922 0
-4093 -3497 0
-2247 -3111 0
3910 -16 0
-2747 2791 0
-1172 1709 0
4665 -4111 0
662 -1963 0
-4378 329 0
3057 -362 0
-139 4597 0
3739 -904 0
-1845 1907 0
-1564 2935 0
-3537 995 0
-3729 -694 0
59 -996 0
-4656 -1415 0
-2987 -4609 0
-4008 -1834 0
-3953 -3329 0
-2367 -2243 0
4684 697 0
-3645 -3441 0
1443 725 0
-1160 4538 0
-901 4174 0
-538 819 0
1017 -4025 0
169 -1936 0
-2696 2853 0
-1271 -4013 0
4293 269 0
-3048 -807 0
-3262 -1733 0
2575 -1285 0
-1668 -2890 0
-1745 -1584 0
212 -382 0
4142 137 0
3087 -698 0
332 2600 0
3420 -1502 0
4306 -1845 0
-2079 2353 0
-3600 3410 0
4182 -3630 0
-3121 -367 0
1745 4425 0
-2529 1222 0
28 -4445 0
1439 -237 0
405 -590 0
2351 2021 0
-1577 -2301 0
1124 3563 0
1365 -4005 0
-2594 -4364 0
-4663 2587 0
2533 3956 0
-3854 -3924 0
-1742 892 0
2072 -2561 0
1538 2261 0
1041 2263 0
-3727 -713 0
-3731 -482 0
4719 2152 0
2987 -2019 0
-1727 -1029 0
-4281 -98 0
-3437 647 0
704 2112 0
-372 4625 0
-1339 4647 0
2216 991 0
-3891 -3340 0
2836 -1335 0
1539 -126 0
-467 -1140 0
-3828 2147 0
-4195 -2154 0
2758 4745 0
2647 2011 0
-1487 1132 0
-3487 852 0
1882 1816 0
-3218 3015 0
-2000 3166 0
-3146 -2110 0
2614 -4085 0
270 641 0
109 -2532 0
191 1898 0
-329 766 0
-921 -827 0
-2365 128 0
-1445 3584 0
-969 -4628 0
-3566 -4548 0
1610 4146 0
1648 4703 0
-4390 2467 0
3506 2156 0
-4486 -3051 0
1000 -541 0
-2624 1983 0
2145 -2452 0
2525 2988 0
-2763 -3389 0
-2719 -3835 0
-2222 1280 0
3605 4664 0
945 -570 0
532 2994 0
2618 1014 0
-4126 203 0
4615 -450 0
4306 871 0
2590 3358 0
-4574 -4605 0
-190 -645 0
-418 2706 0
2193 2811 0
-785 -3055 0
165 3842 0
3523 435 0
-3978 -2818 0
4709 -4113 0
1447 -4530 0
4438 582 0
-1588 -2877 0
-1770 1182 0
3819 4199 0
1001 1185 0
-613 2662 0
-2145 4027 0
-504 4458 0
-1639 3583 0
-1031 13 0
-493 -3895 0
1373 -2574 0
1993 -3547 0
-452 -2459 0
4586 -4286 0
559 -3110 0
-2641 -272 0
-2399 2788 0
-2875 1663 0
-818 -3398 0
-1261 -254 0
3196 -1334 0
-2229 421 0
3855 -3157 0
1493 125 0
-135 -2563 0
1848 -2076 0
2773 2584 0
-1652 -1889 0
-4511 -3532 0
3902 3427 0
4322 2621 0
-685 -3346 0
1436 -3812 0
736 -3948 0
1142 -1082 0
-2924 -1858 0
-1808 882 0
-4446 -2918 0
-201 -2477 0
-678 -1634 0
-4644 3094 0
2042 -4239 0
1519 -2765 0
1058 -2325 0
-3470 4168 0
-1591 4543 0
4138 -4608 0
-2155 336 0
1284 -1025 0
147 -590 0
1671 2566 0
4297 660 0
-4144 2645 0
4352 1097 0
747 3035 0
-870 4015 0
736 -3229 0
-2137 -1152 0
4185 3684 0
1371 1415 0
2581 -2388 0
-2766 -3917 0
149 4354 0
-4217 2699 0
-4198 -3345 0
1053 -4507 0
-3057 3167 0
-1758 3973 0
3153 2093 0
1230 3397 0
-539 4260 0
-3806 -903 0
2075 4467 0
-78 -2377 0
-1358 -589 0
1078 3615 0
-1125 3451 0
-2012 -1241 0
4042 -1075 0
-1924 -418 0
-3878 1586 0
1291 -2999 0
4594 1170 0
-2379 415 0
-3931 -3601 0
-2150 -2152 0
2767 1866 0
2885 -2527 0
-2178 -1794 0
1546 2463 0
2850 663 0
-872 1840 0
1871 4224 0
2443 -283 0
-1633 4705 0
1907 3789 0
-3052 -1498 0
2023 -403 0
1812 -437 0
329 -4401 0
1432 559 0
-4749 576 0
2259 1088 0
2353 -3100 0
-895 -3754 0
367 -3308 0
3646 -3368 0
4127 -1933 0
3533 -2446 0
-501 4178 0
-2820 -4170 0
1954 3186 0
4148 -243 0
-2449 -343 0
-3806 2864 0
-2466 2439 0
4311 -3852 0
4361 -4513 0
2628 -3348 0
3704 -996 0
3905 -2379 0
-3872 421 0
4433 4218 0
1030 -1308 0
3816 -1077 0
-4675 789 0
-1215 558 0
4596 -4195 0
4027 3392 0
-2187 779 0
-3480 -1998 0
-1635 -3192 0
-4351 -2016 0
2852 -4016 0
3800 4659 0
-632 2823 0
1696 -123 0
-4445 1319 0
402 2439 0
-2739 -599 0
-3580 -428 0
4455 -1103 0
-814 175 0
1740 -519 0
-869 -3203 0
-1560 -4062 0
-443 -4517 0
1732 -2270 0
1741 3781 0
-4434 3311 0
2706 3718 0
1150 4547 0
-2113 -1889 0
-634 -3767 0
252 3171 0
-3191 1768 0
-2711 -968 0
-329 -2936 0
1198 3493 0
-2472 -4721 0
2673 2565 0
-249 -1311 0
-1447 3434 0
-1125 3587 0
-890 570 0
-2195 -2280 0
394 3881 0
1378 -2310 0
4653 3648 0
894 -1372 0
-2331 -4334 0
-3872 -2107 0
-2959 -2258 0
-2948 -2902 0
-110 4236 0
1242 2957 0
-2274 -3398 0
-910 -4755 0
-3463 -3442 0
-2066 4745 0
2087 784 0
4590 -3912 0
-1286 -3088 0
-4584 -3184 0
4110 -3864 0
-1207 2319 0
-2593 -251 0
142 2030 0
2639 902 0
2665 -4176 0
-2963 -2216 0
-1046 671 0
1761 1492 0
1983 1730 0
-121 -2094 0
-2933 675 0
-526 -2807 0
2898 2120 0
3234 -1016 0
1247 -4168 0
4381 3592 0
3436 2123 0
4604 3989 0
-74 -335 0
-1498 575 0
-695 -1038 0
-1771 -909 0
-372 3277 0
42 4018 0
-2606 -71 0
2955 -2548 0
1253 -1745 0
3024 1580 0
-238 23 0
3283 2961 0
-909 -4559 0
233 -3429 0
-447 -2835 0
-5 -3497 0
4747 -651 0
-2678 -2835 0
2361 -3361 0
4405 4344 0
-4609 3596 0
-2549 115 0
-342 -548 0
3367 1363 0
3572 4156 0
-2677 3359 0
-990 2622 0
-1403 -4092 0
-184 1339 0
2366 -2557 0
3357 988 0
-1012 781 0
3744 4709 0
-1603 1951 0
3700 -4008 0
-3682 -2926 0
-3103 3006 0
4312 -841 0
-409 3209 0
2015 2316 0
1831 3677 0
2753 1682 0
3766 4569 0
-669 884 0
-4124 -2020 0
3010 2855 0
1415 3374 0
3516 -63 0
1037 -2219 0
-2788 516 0
-2121 2278 0
2906 1469 0
-1308 237 0
4346 3201 0
-4730 -1533 0
2750 -4317 0
-809 -2177 0
-1409 530 0
1436 3827 0
-3013 -2787 0
-1492 1814 0
1795 -1466 0
-3356 -4647 0
-4233 1089 0
-2615 4053 0
-197 2303 0
3587 2725 0
-830 2947 0
-2196 306 0
3287 -2409 0
-2493 1539 0
1328 -1056 0
-629 -4535 0
-1316 -3426 0
-2743 4534 0
-1651 4623 0
2777 3895 0
2443 3757 0
3526 4680 0
-4410 4607 0
-4069 3128 0
4080 -4341 0
1945 -1185 0
-3802 623 0
897 -4031 0
-408 -2403 0
2332 2914 0
3482 -3555 0
-3574 -1108 0
2974 911 0
392 2455 0
-1300 -3778 0
-4743 798 0
2801 1434 0
572 -1512 0
-2666 2772 0
-915 1249 0
2199 -2977 0
3592 1305 0
588 -1217 0
-757 -267 0
-4215 -1463 0
-3158 -2874 0
-3547 3664 0
-4488 -600 0
-2161 4499 0
-1733 -4334 0
-1896 -1899 0
-3433 157 0
2791 2677 0
-1029 1056 0
-1580 4672 0
2200 2248 0
2034 2296 0
-531 -3730 0
-1708 1559 0
-580 124 0
-2347 -3948 0
-2114 -2291 0
-4741 1000 0
1371 795 0
4625 -3950 0
-1250 3307 0
2484 -3222 0
4110 1051 0
-295 1468 0
-1305 -4373 0
886 -4515 0
-1113 331 0
1864 2630 0
2341 1014 0
3608 2637 0
1328 -3444 0
115 4429 0
2804 -1079 0
4251 -2381 0
782 1478 0
2937 3904 0
1420 -3079 0
1147 2536 0
3095 2809 0
-4054 -397 0
-613 1529 0
3160 4109 0
-3510 1714 0
-4282 -4652 0
4234 -4057 0
-126 -3393 0
4283 -3441 0
-2594 -2095 0
293 3095 0
3703 2349 0
-1106 2210 0
-3123 633 0
-2640 -3003 0
-981 -2680 0
2532 -605 0
-4340 -912 0
4407 -3240 0
-2284 1524 0
-2328 -3732 0
3193 -2879 0
1773 3552 0
4452 -2211 0
-1143 3599 0
391 -4071 0
4268 2297 0
1706 869 0
751 -2631 0
-1530 520 0
-2033 -892 0
-4083 -3135 0
-2996 -2895 0
-3092 -3317 0
-823 -2577 0
160 565 0
-4441 2206 0
890 3182 0
604 2082 0
4322 -786 0
2105 4724 0
-4089 3032 0
-1403 3091 0
-3993 -2489 0
-2658 -2490 0
496 2821 0
-4113 3756 0
3998 -4187 0
-2319 -2884 0
3911 2676 0
-3208 1523 0
3081 353 0
128 1730 0
-1966 -2041 0
-278 -3569 0
87 -992 0
1756 4053 0
-4262 4339 0
-2182 3673 0
4447 -2191 0
1525 2487 0
2581 -2324 0
4099 -4730 0
2531 -168 0
2889 4344 0
-230 -3535 0
-4478 4456 0
3553 3738 0
-4490 -4730 0
2409 -1925 0
2057 -3404 0
644 3051 0
2593 -3951 0
1414 4109 0
3718 2671 0
-3229 -2458 0
-1351 -4072 0
4745 -2415 0
-585 703 0
-4388 -3754 0
-3836 -2088 0
3329 2156 0
-1961 -174 0
-4330 -527 0
-4105 -3937 0
455 2918 0
-1556 -1419 0
1834 1663 0
3020 2318 0
-1678 -2233 0
2749 -791 0
3503 862 0
3164 -4220 0
2481 -3419 0
-3425 1135 0
2944 1607 0
-3363 -1762 0
2607 876 0
-734 1835 0
4110 2786 0
-284 -1008 0
-548 -4100 0
1164 -157 0
-1491 -3968 0
310 3469 0
-1363 -1501 0
-4593 3660 0
-3579 1693 0
1668 3935 0
-4339 -2185 0
-1085 -1744 0
1152 -4223 0
640 530 0
-1343 4329 0
1999 3522 0
2444 -148 0
-3589 4004 0
-1099 1451 0
-4720 3027 0
-257 -1673 0
2552 3149 0
-108 2629 0
2715 -1260 0
-3095 3895 0
2846 -3271 0
-4551 4182 0
813 181 0
4724 4599 0
-1143 -785 0
4667 -3577 0
2082 -4269 0
985 -3731 0
600 150 0
3835 1282 0
-4016 2955 0
-2047 -344 0
-4609 1769 0
-4178 4543 0
4390 -1440 0
-4355 -2097 0
-1742 -464 0
-417 570 0
-3939 4176 0
-1876 -3949 0
3324 -413 0
-742 3105 0
2661 -3619 0
3980 4623 0
931 -3111 0
1819 2545 0
-4080 -3627 0
4248 -572 0
2760 -3286 0
-616 -1271 0
1035 -3095 0
-4246 1902 0
-4479 2983 0
3923 3399 0
1246 -4262 0
-3204 3427 0
-3975 2235 0
211 -3787 0
2455 3259 0
-4048 902 0
-4103 880 0
-3141 2031 0
3171 2894 0
-1839 -1558 0
3653 -2884 0
-239 -1414 0
-2690 1117 0
2741 1692 0
3461 -3400 0
4269 -3155 0
2208 -2891 0
-3766 4257 0
-4106 1251 0
-4642 -3516 0
-505 -4141 0
2882 2118 0
-3959 -4277 0
-2855 -293 0
3228 88 0
4713 848 0
2136 1209 0
2394 -297 0
2903 4080 0
-3617 -4403 0
-583 -3330 0
-827 636 0
2371 -2988 0
559 3267 0
-2935 -833 0
-3411 -4166 0
1995 3541 0
-1084 -1598 0
-77 -3308 0
1510 4605 0
2536 3124 0
-3270 4470 0
1636 376 0
-974 3523 0
-3524 -929 0
-1404 3581 0
-3498 -796 0
-2052 -524 0
-292 972 0
3163 2322 0
-1005 -4474 0
1880 -3069 0
-4697 -25 0
-4434 -1410 0
-1022 840 0
2242 -3899 0
3117 -1339 0
1365 -608 0
752 -2585 0
2876 -2250 0
-3682 2439 0
530 3392 0
814 -3408 0
1245 297 0
1363 192 0
-4343 -1234 0
137 -1570 0
-4186 2923 0
-2434 -3216 0
-2970 240 0
3108 -4044 0
4028 3882 0
-130 -3225 0
-3550 -4562 0
-3753 -1497 0
-2076 -3776 0
-3075 -53 0
-3466 -614 0
-418 2885 0
-4615 3403 0
-3761 -3850 0
2334 -3213 0
-4732 -3642 0
-2429 2553 0
4501 2260 0
-2747 1831 0
3452 -4601 0
3162 1178 0
-4227 1048 0
2590 -3448 0
676 3885 0
-4656 -4310 0
1810 -1390 0
-796 4467 0
-3803 1219 0
-1593 4727 0
-3583 -707 0
-4164 -1542 0
3584 565 0
-1102 -1633 0
-2512 -95 0
4152 -3282 0
282 -3680 0
395 -1140 0
-2707 1302 0
-1471 2486 0
-2632 322 0
-3183 -4427 0
128 1177 0
2477 3526 0
1306 3311 0
-1787 -2787 0
2020 2670 0
4565 -2148 0
2017 -1121 0
2038 1057 0
-1700 2379 0
-4455 -1789 0
3562 -2291 0
4222 3561 0
1389 3991 0
3223 1761 0
-2291 -1516 0
-1421 1874 0
2931 -4519 0
-68 -572 0
-1127 4733 0
2332 3429 0
-1617 3553 0
-1410 -3165 0
2901 -4614 0
-1040 -2964 0
-2925 -1798 0
3498 2639 0
3667 -1197 0
3188 4137 0
-1419 -2640 0
-4184 -971 0
3176 4663 0
-1437 -4065 0
4585 -1783 0
336 -3683 0
3304 3760 0
-4393 -711 0
-2229 1472 0
4353 -3228 0
-1470 -4187 0
555 3277 0
4243 3922 0
-423 4222 0
2686 -2191 0
2525 1712 0
4589 -3528 0
-3431 -2301 0
2026 -1238 0
1641 3533 0
1592 -3671 0
-3894 3957 0
-3323 -915 0
715 -1039 0
-2798 3773 0
145 4471 0
1022 -368 0
-180 -4153 0
258 -2142 0
-1941 -4739 0
-320 -4706 0
-4432 -2046 0
2008 -4346 0
2539 3515 0
-1540 -4124 0
3479 1959 0
-1211 -1997 0
475 1547 0
-610 2019 0
2143 -1545 0
1117 -4252 0
-1920 -2448 0
-4715 -2534 0
2694 4344 0
-1087 4731 0
2967 4488 0
3205 620 0
-2058 3374 0
2033 2565 0
3081 538 0
2164 3674 0
3141 2724 0
151 881 0
1441 -454 0
2709 2256 0
-3674 -2739 0
-4301 -2246 0
-4426 2503 0
-2469 -3065 0
-3063 -2246 0
-615 -802 0
3117 -1250 0
-993 -2863 0
2330 -523 0
4687 3802 0
-2776 -3142 0
-2773 1994 0
4140 -4695 0
-1193 -1697 0
-2129 2230 0
-1764 3764 0
-172 -3104 0
-3209 69 0
2744 346 0
-2340 332 0
-525 -549 0
2907 2937 0
-4708 4154 0
3300 135 0
1770 -199 0
-3492 2928 0
2470 -2296 0
-3982 -2081 0
-194 3567 0
-1894 87 0
-1054 3536 0
-2438 -6 0
3961 -4009 0
109 -155 0
-4713 -2046 0
-4456 -3192 0
929 779 0
2879 87 0
2291 -4335 0
3166 751 0
-3616 3540 0
-300 -772 0
-4445 4646 0
-485 -1957 0
2274 3589 0
4358 2564 0
3160 -892 0
4573 -4431 0
1269 1110 0
-3670 -3835 0
4080 -1607 0
-3997 1128 0
-586 2156 0
2978 -259 0
2240 4141 0
1187 4546 0
927 45 0
242 -432 0
-619 2455 0
-4231 1661 0
-3955 -1980 0
-673 -3190 0
-2969 -3735 0
1674 122 0
2289 1315 0
4075 1884 0
-3996 -4341 0
-1095 -1846 0
3386 -4195 0
-1718 4311 0
4444 -2172 0
-4206 -2283 0
10 -3336 0
-4364 2955 0
-278 3925 0
-3889 -1143 0
-4605 -3532 0
-1715 4413 0
-4115 461 0
2778 1905 0
2168 1215 0
-3409 -1982 0
-3665 -1030 0
-1679 -1872 0
-1138 -2939 0
2618 1135 0
325 -735 0
2170 -2241 0
2240 -2276 0
-1834 -1935 0
-3894 1063 0
1618 -4660 0
-1006 1108 0
4639 -2872 0
-3762 4538 0
-432 2924 0
3881 3890 0
3034 1600 0
1622 -1667 0
3152 -3982 0
-2136 110 0
4653 -2733 0
-4000 -2733 0
490 -4074 0
-716 -4525 0
3834 2802 0
1233 3094 0
3249 -534 0
1930 1640 0
-3502 4176 0
-4173 -1449 0
2841 338 0
-5 3740 0
3396 -2902 0
1207 -990 0
-447 4321 0
878 -2988 0
4534 -1459 0
1911 4098 0
-4542 2536 0
1158 557 0
-19 -2404 0
-4623 2844 0
-1268 2088 0
-649 -477 0
1481 -2798 0
2044 -1277 0
-2962 -3626 0
-2880 -3894 0
3076 -951 0
-4709 2841 0
-2094 2766 0
2833 -38 0
4526 -1364 0
3273 -912 0
2715 -2076 0
4415 -2854 0
781 954 0
2070 1738 0
-1901 -1397 0
1835 -3357 0
1118 3519 0
-2684 -3429 0
-431 -4334 0
2837 1439 0
-1153 3337 0
4631 -3014 0
-566 1836 0
768 3469 0
-80 856 0
-1863 -637 0
-2611 3961 0
4030 -2230 0
2168 1560 0
1479 -928 0
3127 1398 0
2405 428 0
-4577 2922 0
-3513 -1940 0
3500 4237 0
4677 3677 0
-2102 2721 0
1475 1560 0
1845 -841 0
-800 -4714 0
-61 3561 0
-999 1526 0
2878 1814 0
-3856 3292 0
2187 4651 0
1996 2869 0
-2441 -1201 0
1725 -4547 0
-1311 -869 0
2702 3242 0
-614 1221 0
3812 1244 0
-2256 3974 0
-4420 -1641 0
-1298 4030 0
-2874 -2849 0
-330 3975 0
3134 -2555 0
291 1168 0
-3358 2558 0
-3822 -1268 0
-2126 -848 0
448 -4574 0
-1915 3977 0
2830 -4250 0
-1245 -1371 0
4045 4599 0
-888 3990 0
3992 1211 0
328 4506 0
-2132 -534 0
-4548 -1567 0
1899 -3477 0
-1949 4746 0
-4695 -2396 0
-1406 -147 0
-1989 -3486 0
2847 -4704 0
-1092 4161 0
-3541 -4622 0
749 -4082 0
-917 -62 0
3377 3178 0
954 3712 0
968 -2865 0
-977 2220 0
2874 -3318 0
-1345 1933 0
-1522 -2533 0
-1054 -2815 0
1476 -3574 0
2797 3577 0
-1274 1813 0
-2199 -4055 0
3479 2915 0
-4547 -1063 0
149 -2601 0
1457 -72 0
4733 -3613 0
-2013 -4081 0
2528 2943 0
-1920 1831 0
3635 -4028 0
3880 -1619 0
3408 -3441 0
1608 3317 0
-1036 -421 0
1578 213 0
3818 1273 0
2485 2958 0
-526 -4020 0
-1517 602 0
4178 4268 0
3895 -1707 0
-1997 1550 0
1553 -2038 0
-2827 3737 0
4374 -1565 0
927 1244 0
3971 -3438 0
2811 1449 0
-681 -1842 0
-4230 -173 0
681 3888 0
4214 3084 0
-1040 -2379 0
-175 3827 0
-2697 -989 0
-2918 2292 0
268 3598 0
-1975 114 0
-4410 -2899 0
-234 1716 0
4698 -1418 0
55 432 0
-2352 4004 0
1836 864 0
-2618 639 0
1626 -4283 0
-3852 593 0
1467 -407 0
-509 271 0
2099 -921 0
-3475 -2819 0
-4618 2226 0
1287 2629 0
-117 -264 0
451 4501 0
1956 -696 0
2096 143 0
-3972 -3229 0
2773 -4140 0
4039 2810 0
2910 -987 0
2618 -1920 0
3759 -4487 0
2844 -405 0
3824 2262 0
-4201 2840 0
-3592 -1540 0
-1440 -4704 0
3673 3758 0
1638 1357 0
2433 4023 0
-1189 521 0
2131 1004 0
-4621 -2497 0
3516 -2188 0
-2823 -506 0
-1477 2644 0
3586 1807 0
-4515 -1457 0
2972 874 0
2097 767 0
-427 3605 0
1348 4482 0
1222 -384 0
-3670 -4325 0
3679 -1042 0
3909 -143 0
-466 153 0
4635 74 0
-326 296 0
-2929 -3874 0
3603 -2303 0
-4009 3362 0
1244 -3374 0
4684 -3075 0
4205 -916 0
-4377 4515 0
-3573 -3645 0
4455 -690 0
-676 4658 0
-2373 -1461 0
-1089 -3566 0
-1518 2600 0
3771 1774 0
-1046 107 0
4513 4490 0
2624 2443 0
4161 3029 0
-232 2290 0
935 -3031 0
2396 40 0
2250 3934 0
-1766 1317 0
72 1587 0
-2281 -344 0
2179 4343 0
2374 1274 0
2439 -4124 0
368 -4166 0
-2547 -2314 0
-3939 4712 0
180 1132 0
-4744 4297 0
2169 4295 0
-3044 1045 0
-462 -2005 0
1564 3988 0
1068 4234 0
-4371 4527 0
-2981 2989 0
-3528 3936 0
2626 -1005 0
4046 3400 0
-1955 2190 0
3128 -2151 0
-3865 2302 0
-3381 -272 0
1163 495 0
-1411 -2358 0
-3054 2198 0
3300 -3587 0
4582 -4115 0
144 628 0
3947 3246 0
1499 2143 0
1984 -1476 0
-606 1976 0
-2510 -4676 0
1585 -4341 0
919 1994 0
1662 -2300 0
3977 -1623 0
-1052 -78 0
-1514 -965 0
391 1011 0
-4375 -4628 0
3498 -2625 0
1747 695 0
4462 -2255 0
3072 2253 0
2392 892 0
3321 142 0
783 4090 0
-2718 2321 0
3972 709 0
-4424 1474 0
2260 4712 0
1371 3224 0
1328 -2554 0
2836 -1422 0
-99 3930 0
-2927 2473 0
176 -683 0
-1495 -670 0
3892 -4551 0
-3327 -2259 0
-4009 -2746 0
2156 -3084 0
-2340 1102 0
3383 1252 0
-4588 801 0
-4072 -1465 0
791 4156 0
1436 2607 0
-3839 4167 0
347 1782 0
988 212 0
-2550 4152 0
1780 4343 0
1816 2221 0
4564 -2377 0
918 4614 0
1818 805 0
-564 -4062 0
-3404 -918 0
-2452 2676 0
-1989 3392 0
-2042 140 0
-477 -1489 0
1616 4645 0
2336 4626 0
1712 -695 0
4644 4209 0
-4591 497 0
299 2224 0
-1790 417 0
2017 -4701 0
2038 4236 0
2918 -1219 0
1361 -567 0
1618 -1209 0
-3472 -395 0
963 -3097 0
-1299 -455 0
-2977 4540 0
2608 1563 0
-1690 2740 0
475 -1182 0
-2250 695 0
-2503 -4535 0
2534 503 0
-3626 1415 0
-4345 1116 0
-3768 -4302 0
-2987 -1528 0
-1763 1913 0
-3731 3022 0
3275 3887 0
1164 -2822 0
-695 3755 0
4118 -4012 0
-3400 3492 0
-4377 -4493 0
4443 650 0
-4187 -1394 0
-4007 3632 0
-756 -3570 0
-3526 1008 0
-2039 -4360 0
-3798 3319 0
-1167 -4334 0
3177 1328 0
-4210 -3162 0
-1618 655 0
886 294 0
2069 -810 0
-2177 3366 0
-1684 3208 0
-117 -2867 0
-2115 -525 0
-772 -2890 0
-316 1664 0
-3589 3273 0
-561 -2234 0
3140 -634 0
1813 -1583 0
4234 4262 0
4054 -1779 0
4321 -1569 0
-3937 2186 0
2858 2624 0
-3047 -4158 0
3039 -2341 0
3625 1227 0
4300 4149 0
-2006 -1708 0
-2548 -4560 0
2450 -1534 0
-3269 2662 0
123 412 0
-1604 1118 0
2621 -925 0
-1798 3525 0
-355 -1981 0
-720 158 0
-69 -4562 0
127 -1212 0
-348 -1781 0
158 892 0
470 4654 0
1609 -331 0
4383 -3907 0
-342 -1007 0
-1700 -2742 0
-3398 -1816 0
-913 -659 0
1526 -3714 0
451 -3472 0
1409 3427 0
-1106 -1166 0
2730 2213 0
-626 -1830 0
-4319 -171 0
-117 -1224 0
-4358 -1935 0
2084 -1845 0
-1066 -521 0
-4373 2094 0
-1431 -1074 0
-2596 3348 0
4660 4237 0
486 3038 0
2078 -4417 0
-2757 2947 0
-2613 -3208 0
-1635 4717 0
2761 -3626 0
-4170 112 0
3775 -2871 0
832 3931 0
2065 152 0
-4429 3841 0
-2513 -3633 0
2203 3539 0
4160 -2998 0
715 88 0
-2651 -4339 0
1212 -608 0
3235 1636 0
1640 2518 0
201 3452 0
-1534 -1480 0
-1598 -898 0
-4097 -2249 0
-3466 2428 0
1974 2065 0
1327 -2232 0
1412 151 0
3509 -686 0
-1139 -979 0
3027 -2231 0
-422 1348 0
1851 -1018 0
-849 2555 0
4073 346 0
983 -4590 0
2812 3240 0
418 755 0
-806 -3023 0
2195 -3884 0
-1955 218 0
2538 -3242 0
-225 -1955 0
-4362 354 0
-4692 -4329 0
-614 -4327 0
-2186 2263 0
-2514 1438 0
1298 -3215 0
-172 917 0
-2301 3113 0
543 479 0
4237 3021 0
-2160 -1218 0
-1375 -3786 0
1602 -3967 0
1050 1829 0
3994 -931 0
-3108 -2981 0
-1957 2465 0
2846 -2591 0
-3541 -4629 0
3046 -2534 0
-1139 1351 0
-2674 -2951 0
786 2301 0
1169 3560 0
-4411 2646 0
4137 791 0
-304 -367 0
-1184 2286 0
-4419 906 0
1531 982 0
149 -3176 0
-2190 1033 0
2176 3417 0
-2309 3302 0
1056 -112 0
-1630 1813 0
4137 3500 0
-1107 -2089 0
1063 -3284 0
1363 3930 0
3153 -1584 0
703 -4229 0
-693 2454 0
4123 -4286 0
-99 2695 0
-1076 1802 0
3570 3250 0
-114 747 0
-2213 -3867 0
575 2699 0
2476 -2080 0
-1569 -161 0
-2818 -2872 0
768 1979 0
2478 -3767 0
986 -3133 0
4643 -4524 0
4530 -732 0
-4297 -121 0
-3894 2027 0
-3255 -3539 0
-4437 2424 0
2070 -1937 0
-1396 -865 0
-1654 -136 0
-48 1520 0
4183 2701 0
-2849 -4319 0
937 4381 0
1044 2423 0
-4696 -2164 0
-3088 1146 0
-1144 -45 0
29 892 0
4613 -1853 0
-4422 1609 0
4122 464 0
-1297 -1480 0
3816 415 0
-3578 -2736 0
178 2263 0
3415 -295 0
2265 -1631 0
-4129 -3250 0
4163 -727 0
3005 -3471 0
3651 1848 0
-2145 3763 0
-636 -4727 0
914 -1893 0
4133 -3596 0
-965 -2555 0
-50 -2239 0
-2247 2315 0
2200 -2755 0
515 4329 0
-2036 4677 0
2411 39 0
-2851 -1200 0
-1788 -879 0
1643 1567 0
-4187 45 0
2936 -3550 0
-3062 -4431 0
1229 1369 0
-4043 2004 0
3696 950 0
1492 1843 0
3120 429 0
1745 3755 0
-464 448 0
-1859 -2406 0
1626 -3687 0
2726 -3449 0
-4235 3850 0
-1143 -3604 0
-73 -2869 0
4155 2064 0
1506 2880 0
2091 -2165 0
-423 -1219 0
-2569 -4347 0
1898 -3445 0
-2126 451 0
-3071 -3768 0
-2490 -4693 0
918 930 0
-3101 4537 0
3865 3558 0
-2636 -2523 0
2557 -257 0
1144 2603 0
2026 -3818 0
2529 2725 0
3365 -4302 0
2329 -3127 0
-1355 -3783 0
2821 4298 0
-3908 -2820 0
-4077 -1882 0
1478 2451 0
3173 892 0
-4188 -1774 0
4059 3639 0
-1160 -3774 0
-2482 -3953 0
3944 -553 0
1663 -2239 0
-2338 2769 0
4146 516 0
-3742 4613 0
342 703 0
2727 -371 0
-1492 -314 0
-3365 4036 0
702 -4706 0
2960 2942 0
351 -3904 0
408 -2757 0
4482 -1519 0
-2167 2209 0
-2487 1600 0
-2188 1146 0
551 3514 0
2342 4667 0
-2504 117 0
-4714 -31 0
-3739 4565 0
-4338 666 0
-2884 4690 0
-103 4529 0
-1505 2780 0
4461 3272 0
2525 2116 0
-4222 -1410 0
-159 -3996 0
-1039 -3097 0
-1913 -3473 0
-2529 -494 0
2252 -1491 0
-4117 3451 0
-3755 -2510 0
241 2137 0
-4330 -1471 0
-2833 2655 0
1469 4234 0
-2151 -3979 0
-2588 1698 0
3542 1173 0
3503 -2509 0
-524 1833 0
-1821 -145 0
-2279 -2412 0
3816 -1878 0
3918 1162 0
-3339 -4218 0
424 -4628 0
2633 4046 0
-47 -4512 0
353 -4059 0
-274 1535 0
1627 -4503 0
3974 340 0
-287 -1421 0
-3248 575 0
3324 2665 0
1088 238 0
3177 -874 0
1387 -1343 0
-168 2636 0
2261 -2638 0
-49 -3571 0
-2892 -218 0
-2412 -3594 0
3105 -1776 0
1059 1371 0
1214 -1928 0
1112 -1477 0
-2388 -3160 0
4150 -1672 0
-213 -3186 0
1287 3866 0
864 -1022 0
-4260 -4646 0
56 265 0
2762 486 0
4440 -1238 0
-3350 -4185 0
-2858 2965 0
-794 -1883 0
486 614 0
-4491 -3367 0
166 -1094 0
-4464 -686 0
563 3149 0
3310 3350 0
1052 -1765 0
-386 -3279 0
-3190 4335 0
613 -3840 0
4095 -521 0
2363 1619 0
-3760 -2027 0
-4494 4276 0
571 -2964 0
963 3555 0
-2805 -2848 0
-3949 -1829 0
3403 3394 0
3469 4226 0
-2010 4306 0
2991 3653 0
983 -1625 0
-2212 -1572 0
398 -1642 0
1551 3285 0
-4606 -4478 0
4699 -4456 0
3714 -4460 0
-4313 4295 0
-2872 -3142 0
699 899 0
4556 -922 0
1726 -1054 0
-879 2253 0
2203 -2893 0
-383 1192 0
-1259 -4124 0
-2393 3065 0
-4108 -2325 0
1954 311 0
-774 4694 0
-4706 -1406 0
3067 1566 0
2930 3298 0
-1634 4203 0
-3405 4754 0
4653 2052 0
2690 2731 0
3797 -52 0
3027 -4448 0
-194 -2887 0
1575 3014 0
2714 -2038 0
-3852 -533 0
3119 689 0
3033 -1867 0
1680 -4642 0
3464 -2763 0
4582 4589 0
621 -4451 0
1035 -3240 0
2418 3042 0
-3318 -2497 0
-199 -1728 0
1526 4636 0
1706 -2487 0
-3378 -1311 0
1992 152 0
3739 -2960 0
-4179 2311 0
3917 2414 0
4009 -2329 0
3315 -4634 0
3428 4181 0
859 4730 0
-4449 3494 0
-2523 2507 0
4072 -2970 0
-4634 2949 0
1017 132 0
1643 -4341 0
-2094 91 0
2630 -2501 0
-1002 -1936 0
-1270 -2776 0
-3859 3429 0
-1204 -2587 0
3843 -3980 0
2268 946 0
3506 -3128 0
2118 -1286 0
650 1419 0
645 -2900 0
-2154 -1960 0
1114 -2655 0
-2448 -4275 0
2249 3909 0
-875 794 0
3429 -1474 0
-1572 -1928 0
-2291 2546 0
2848 4372 0
-293 -2645 0
-4707 -2466 0
-4660 1824 0
261 1609 0
-4207 -1421 0
-114 3634 0
977 -1804 0
1498 -236 0
-1696 2721 0
-4288 -647 0
-68 963 0
859 -2233 0
2591 4368 0
4074 -3225 0
1402 -764 0
-4243 2102 0
1196 1716 0
3358 -2850 0
3371 671 0
985 2295 0
1994 -4398 0
-622 1040 0
-3489 1828 0
-2097 -3873 0
3992 -1908 0
1752 -1176 0
-3740 -416 0
-1862 -2616 0
4631 4276 0
4006 3133 0
3403 -4329 0
876 4586 0
-1215 1813 0
1143 -3683 0
-1610 3385 0
-327 684 0
-457 -4444 0
-2736 2943 0
-1525 -1804 0
-3229 -364 0
-3811 651 0
-3096 -4160 0
-1094 4081 0
-3856 -1039 0
-763 1956 0
3710 2533 0
-155 176 0
2409 126 0
-2979 -3323 0
3605 3851 0
3201 2193 0
-1594 2908 0
-4031 271 0
947 2205 0
-3641 1156 0
1326 2409 0
4049 -996 0
1045 -3656 0
-4697 -241 0
2208 2636 0
3089 -3571 0
-3872 -3626 0
3150 2370 0
-157 -1377 0
630 3212 0
3034 -3254 0
2533 2706 0
2070 4558 0
-374 160 0
2619 4364 0
1974 -3026 0
-1561 3258 0
-2365 1623 0
-380 -1945 0
-3170 -1789 0
2002 994 0
-2098 -4188 0
-3373 -1778 0
4331 71 0
4036 -2777 0
4225 3625 0
-4039 840 0
-440 2436 0
-4069 -1742 0
2572 -632 0
2303 -2944 0
-1746 -4172 0
3892 -2049 0
-2076 3708 0
-4739 2863 0
3817 -2982 0
1842 2428 0
3091 -2678 0
4100 2012 0
-210 4383 0
-278 2049 0
2206 -4158 0
4704 -2055 0
2370 -4221 0
2789 -1431 0
-3761 3747 0
2935 -4641 0
-377 -1445 0
3989 2399 0
-2857 -3430 0
-4567 -3709 0
1052 2769 0
-949 368 0
3541 -1480 0
-312 -4494 0
3845 4626 0
2149 -1348 0
-1972 -493 0
3271 1991 0
-1196 -717 0
1829 2709 0
4367 2908 0
304 739 0
-121 -2234 0
-258 2985 0
2098 -2632 0
-3236 2568 0
-3742 2052 0
-3484 -1002 0
-3783 4174 0
433 -2585 0
-2490 2943 0
-4420 -4293 0
4553 -4116 0
-2320 -3308 0
4049 -443 0
2628 -4680 0
-2188 -254 0
-551 -3846 0
3991 -2201 0
3300 3491 0
3866 -3681 0
-4531 1497 0
-4201 2517 0
-2831 786 0
2097 -2762 0
291 -2685 0
1727 -4199 0
1590 -2499 0
-621 -2153 0
896 -2188 0
-106 -3956 0
1122 -1694 0
-1018 -3510 0
4090 4037 0
-4136 -4206 0
4473 2974 0
2152 3252 0
-360 -2544 0
4409 1188 0
680 1423 0
3311 -934 0
-4300 3333 0
1181 4089 0
3609 -2731 0
2180 2696 0
-4376 -1139 0
-1232 989 0
-3467 1652 0
4666 4087 0
-112 608 0
3427 -1679 0
-1490 674 0
3136 3314 0
-2552 -1424 0
297 -2362 0
-550 820 0
4651 2119 0
4230 3182 0
2401 3653 0
-959 -1827 0
1520 2256 0
-2625 -4130 0
1284 1971 0
-3586 683 0
-4103 -4239 0
-1180 4645 0
2516 781 0
-713 4174 0
4126 -753 0
-4104 1044 0
-1377 -1731 0
2590 3240 0
-511 241 0
4308 4016 0
128 -2933 0
4603 1072 0
-2312 2919 0
656 -23 0
3223 -2934 0
-4395 -3006 0
2081 -745 0
4009 2814 0
3110 754 0
1142 -898 0
-3577 2002 0
-1024 2205 0
-2948 4716 0
1486 -3817 0
4389 2125 0
-2019 1833 0
-3630 -2046 0
-4739 -2408 0
-2894 -1373 0
-1030 -2888 0
3461 -739 0
3765 -2401 0
-1154 2812 0
1972 -785 0
2355 3944 0
4411 2291 0
1699 -2870 0
2176 -830 0
-3732 -4268 0
1058 -4577 0
-1138 1254 0
-1465 4705 0
3723 -3908 0
-397 -1338 0
1227 1810 0
2857 -1784 0
240 2486 0
3137 -1010 0
104 -2808 0
-2341 -4056 0
4612 -4403 0
1292 -3387 0
745 2763 0
-4125 1367 0
-2330 1214 0
134 3727 0
-3744 -4241 0
-2569 -4590 0
-3924 -3673 0
987 -2477 0
-3148 4200 0
4302 975 0
-2157 729 0
2677 2003 0
2074 4433 0
-2196 713 0
1327 3065 0
129 1145 0
-4584 2250 0
2194 -3692 0
-967 4585 0
-1112 -3517 0
-616 -3225 0
3687 3819 0
2205 -3874 0
1341 2834 0
-1003 -234 0
-1419 -2214 0
449 -1695 0
3499 228 0
-1306 3392 0
2156 -1229 0
2140 3365 0
2938 4665 0
1594 -476 0
-485 -3928 0
790 1573 0
-2187 -1584 0
-4199 -128 0
3897 1163 0
-4186 1969 0
4654 -1271 0
2408 2403 0
1742 -3489 0
4269 -3195 0
1002 -327 0
2552 2078 0
3551 -1827 0
-3909 -4600 0
1865 -250 0
2222 166 0
-1442 4006 0
-1189 2943 0
4439 -3707 0
-4175 -1603 0
2894 3895 0
-4690 3107 0
-4275 -4371 0
-2771 -763 0
2540 -3281 0
3526 -180 0
3263 4623 0
2922 649 0
-1953 3312 0
-1912 3810 0
695 -1087 0
4023 3033 0
959 3285 0
2830 517 0
-2277 -1141 0
2673 246 0
-525 4040 0
-179 -1100 0
-3444 628 0
719 -3228 0
-1966 -3983 0
-3776 -794 0
1303 -3520 0
-2464 1080 0
-201 -476 0
-2152 4564 0
-287 -1134 0
3423 -106 0
1072 -91 0
-1161 2224 0
-2073 -3788 0
1155 1065 0
-92 4612 0
-4523 -2450 0
2069 -1190 0
4000 -101 0
2614 4214 0
479 2816 0
868 -2491 0
-723 761 0
-1827 857 0
-3430 -3510 0
-799 4629 0
-3920 -1357 0
-1293 -75 0
-1597 463 0
-714 -147 0
-3200 2178 0
3468 -4164 0
215 -1937 0
1852 1838 0
1083 3246 0
-2040 2125 0
-4693 -2631 0
4208 -3068 0
391 1544 0
-980 3133 0
2886 -688 0
-1368 -3479 0
2473 3846 0
4297 3788 0
2940 1815 0
909 -561 0
-3805 841 0
3387 -2656 0
-2093 -4077 0
-973 4411 0
2083 2529 0
923 3625 0
1538 -1176 0
23 -1982 0
-2722 -274 0
3933 -4261 0
815 1998 0
2650 3730 0
1430 3333 0
-1738 3930 0
2122 4650 0
3405 -4357 0
-717 -240 0
1735 1851 0
3295 -2637 0
-331 -2793 0
-2742 -2273 0
-3314 -4720 0
4511 -2139 0
-3239 23 0
3087 -2333 0
249 113 0
3492 -2036 0
-3282 -4597 0
976 -4610 0
4677 1954 0
3559 1907 0
3724 2482 0
3432 -3652 0
4586 1936 0
463 304 0
-3424 -259 0
2779 -509 0
564 -1057 0
-4231 -2374 0
-3529 -545 0
-847 -967 0
1760 -304 0
-2971 4456 0
-1839 -1335 0
2134 546 0
-3960 -3110 0
3632 2030 0
-1411 -3625 0
1489 1293 0
-4706 -2910 0
39 3291 0
3090 625 0
3514 4305 0
-2296 -3838 0
1655 -2994 0
3595 1926 0
-1332 -4030 0
3591 4324 0
-1631 2219 0
-4547 1073 0
3549 -365 0
4089 -398 0
1692 1635 0
-4282 3944 0
863 -4149 0
463 1110 0
-4186 -3138 0
-865 1018 0
-4697 2271 0
-1520 378 0
-2590 1916 0
-4627 -2930 0
2046 2369 0
-3497 -1486 0
-2654 -1396 0
4293 2287 0
-764 -3086 0
2098 3657 0
-1207 -2584 0
-1467 4376 0
-3375 4006 0
-4078 4457 0
252 -941 0
113 -1560 0
-3336 -90 0
629 3849 0
-178 -773 0
782 -1542 0
1761 2755 0
3123 -4034 0
3986 4229 0
1618 4467 0
863 3705 0
2907 -3687 0
-409 3745 0
-1391 -1625 0
-2936 -2076 0
2064 -1616 0
1901 -2635 0
3704 4208 0
3486 -2657 0
-4099 -69 0
1677 -2706 0
-2952 -4379 0
-4205 4488 0
-3364 -3005 0
391 3032 0
3171 -4340 0
-2110 3540 0
3561 3210 0
-45 600 0
3931 -4232 0
700 -144 0
2429 1764 0
3905 -1445 0
1497 1554 0
-1770 -3638 0
-2454 3854 0
-4133 3962 0
-439 2241 0
2841 -433 0
513 3389 0
-417 2495 0
-360 91 0
-447 3503 0
-1095 2028 0
-2667 3981 0
1111 -4277 0
2910 -514 0
-4755 -1261 0
-2396 2323 0
-1657 3394 0
-1586 -2017 0
1101 -3353 0
496 -2242 0
-4479 224 0
4494 1557 0
2897 -912 0
-3067 -1002 0
-3762 -3139 0
-1513 -4070 0
-4551 -321 0
4235 -3961 0
-1856 -3940 0
-2882 165 0
-1011 -1374 0
-529 945 0
-369 -1027 0
4608 3443 0
-2891 2296 0
-3473 -271 0
1784 -1586 0
4288 3945 0
2017 -978 0
2848 -4013 0
-2951 4078 0
4291 -1442 0
-2103 538 0
-2365 -3955 0
-2736 4408 0
4359 2967 0
3358 -2046 0
-470 580 0
-913 2389 0
-3054 -907 0
3667 3550 0
1101 3219 0
2511 -4547 0
-3192 1187 0
-3481 -3644 0
577 1302 0
1549 -1656 0
3047 -1394 0
-2583 1113 0
-3009 3889 0
1579 2840 0
-1982 2205 0
-3776 -4025 0
886 3087 0
4646 2750 0
-558 -591 0
-1253 3486 0
1802 -4138 0
-2988 -3759 0
-1224 -1155 0
4694 -4489 0
-2334 2870 0
111 -933 0
-3037 -737 0
-1379 -1633 0
-556 -3095 0
2145 -2375 0
2780 4746 0
1667 1867 0
2579 3862 0
2784 4361 0
2841 3058 0
1069 -4151 0
1920 -3041 0
3287 -1710 0
4173 -2417 0
-3342 1534 0
-1654 -3330 0
-531 2427 0
-794 -4172 0
-4562 -218 0
3272 548 0
2213 1777 0
3022 3650 0
528 4361 0
1313 -563 0
100 -3460 0
-4642 -762 0
-3264 -1522 0
4089 -324 0
2294 -2490 0
2773 259 0
-968 2598 0
-1353 -1838 0
1040 4497 0
-2763 -1992 0
-1442 -1237 0
-2132 231 0
540 -1053 0
1799 1589 0
-422 -2231 0
-3620 4364 0
-3303 -4165 0
-942 -545 0
-2276 -929 0
1596 -2325 0
-881 225 0
331 528 0
2470 1786 0
-3323 -664 0
-1342 2291 0
2983 4300 0
182 2308 0
-92 1322 0
2723 3668 0
-3154 2738 0
-2739 -2788 0
836 3645 0
-3760 3944 0
-1185 1795 0
3910 2268 0
-2006 1383 0
-1241 -237 0
-3947 -2030 0
1932 -2435 0
1674 3317 0
-3246 3082 0
4522 -2846 0
-925 3106 0
4177 -1276 0
2849 4173 0
-3820 4657 0
3898 736 0
1495 3802 0
1995 3845 0
-27 2423 0
4384 1928 0
3828 -3114 0
2018 431 0
-3745 -3088 0
4242 1442 0
2840 -3059 0
4309 -4278 0
-1241 -2138 0
-2809 2963 0
2164 918 0
-4241 -3091 0
622 -2626 0
2373 887 0
171 3087 0
-1099 -3800 0
-4336 -1459 0
4721 127 0
2099 -1422 0
-3244 -2447 0
-311 -2186 0
4573 3186 0
3410 -2314 0
483 -2971 0
-2945 3219 0
3401 2287 0
2459 1280 0
4129 -3008 0
520 -1261 0
-482 3208 0
-3393 -133 0
-3542 -2508 0
2337 -3049 0
-3674 302 0
351 -787 0
93 131 0
-3422 -299 0
-641 -2573 0
-1943 -219 0
-4315 2581 0
-2708 -1991 0
-4455 -2255 0
1473 -923 0
-4093 -295 0
3795 -2214 0
3839 2823 0
-2610 4465 0
3802 4532 0
2099 4384 0
-1157 -71 0
-837 2322 0
-4334 674 0
804 -775 0
836 782 0
-3335 -3617 0
-3572 2824 0
-3970 -3761 0
298 1970 0
292 662 0
3043 -634 0
-1695 629 0
775 -4466 0
2350 -1246 0
4216 -1308 0
-4749 3578 0
-3766 142 0
2253 -1426 0
-2883 -3693 0
4409 4200 0
-1148 -3474 0
132 1001 0
4640 4700 0
1848 856 0
3312 -3213 0
3521 -3200 0
-1177 -1975 0
838 4375 0
-1503 692 0
-1456 -1101 0
3160 -3910 0
3928 2696 0
-3688 1706 0
-2438 -161 0
-287 -255 0
-1159 1941 0
3286 -2746 0
40 1748 0
-1120 1123 0
4160 -1498 0
-566 105 0
2467 2565 0
4390 3595 0
3907 2199 0
1544 995 0
2937 -3510 0
-2280 -2111 0
-155 3819 0
-3185 1228 0
1451 1554 0
3476 1062 0
4654 377 0
-784 -3951 0
-16 -3302 0
-4654 1313 0
-3176 -1113 0
-4036 128 0
475 3747 0
-1322 2267 0
-3551 1884 0
2937 1838 0
747 265 0
1537 2351 0
3537 4421 0
-989 -4581 0
-427 -3737 0
-3326 2870 0
2685 4185 0
2594 780 0
-2519 549 0
-3962 -1139 0
-4653 122 0
-1603 4574 0
-3139 753 0
3656 -1854 0
-2856 2130 0
3649 -3757 0
-2984 3787 0
211 4255 0
3167 -4282 0
2838 3234 0
2589 2306 0
3193 4328 0
2017 1104 0
1244 1106 0
-4413 390 0
3277 1799 0
-1221 3681 0
-4399 1638 0
-816 -3232 0
190 -1830 0
-1734 2840 0
3040 -3644 0
4687 -2487 0
3787 -4134 0
3853 3538 0
3001 -4249 0
-2956 -2045 0
3789 -669 0
-2044 3800 0
1484 -3884 0
-4498 1452 0
2846 -933 0
-4166 -647 0
668 -3881 0
-4510 1686 0
1613 -1375 0
2468 -2413 0
-2532 -2719 0
1021 -2154 0
3780 -4670 0
-4602 -1675 0
3868 2472 0
1964 -3301 0
-3116 1275 0
4087 1455 0
-4039 -2286 0
-2601 -2011 0
2280 4705 0
-2640 -955 0
-2286 4430 0
-197 -1938 0
-2311 3411 0
-38 -4755 0
-2430 -4490 0
2309 3707 0
-1701 -4116 0
-3002 1110 0
-61 -3569 0
1257 3021 0
-3056 2970 0
-2962 2226 0
-2121 2819 0
-625 -357 0
-1775 3403 0
2747 2125 0
4029 -1418 0
4588 3143 0
124 63 0
-1808 -3827 0
2621 4282 0
1767 313 0
4679 1201 0
1693 -2422 0
-3112 1040 0
2088 1846 0
249 -2804 0
-1562 3459 0
537 3625 0
-3624 -4120 0
-3138 538 0
3100 -2945 0
-1620 728 0
3793 -1108 0
2421 3921 0
-2114 1280 0
2287 -940 0
-597 -400 0
1369 1594 0
3869 366 0
3763 -3755 0
-277 -197 0
4268 -2294 0
-1955 1214 0
-1679 923 0
-1465 -1669 0
-4065 345 0
3365 -1833 0
-4231 479 0
1960 -161 0
-750 -2910 0
-370 2691 0
-2164 2789 0
-3791 -1884 0
1136 3214 0
-2974 -1766 0
-3011 -852 0
1810 3906 0
-2240 212 0
-1065 1791 0
-3883 1226 0
3022 -3476 0
-596 -960 0
-2172 401 0
1579 3942 0
3114 393 0
1238 3888 0
-1353 4260 0
-3307 931 0
513 -2404 0
-874 2980 0
-3863 -943 0
-4050 -178 0
2635 -1866 0
3869 -2729 0
-823 -4452 0
1433 1903 0
3072 4094 0
-3074 -1321 0
2994 1412 0
-326 1488 0
-3550 1073 0
-4231 -2933 0
-667 4586 0
3415 2390 0
253 1893 0
-1568 -1596 0
53 -2635 0
4477 -4130 0
-3643 -3200 0
-2895 -106 0
-4570 3589 0
3029 -818 0
-1482 4349 0
765 1023 0
-3838 -4548 0
1994 2852 0
754 -2893 0
-4148 3277 0
-4461 3593 0
4424 -3087 0
4440 2215 0
555 4683 0
-4606 -318 0
815 2501 0
-1604 614 0
-2074 4340 0
-3678 4452 0
587 2384 0
1262 -724 0
-4168 -3051 0
1835 -36 0
-109 2215 0
842 -2906 0
3512 2052 0
-1617 4482 0
629 -1923 0
-3112 814 0
1915 -226 0
2529 3849 0
-3571 1058 0
3283 4667 0
3744 3032 0
2208 943 0
3831 -3171 0
-4261 -3665 0
-1981 -4459 0
-864 1906 0
215 3979 0
465 -2800 0
3415 -2666 0
2246 518 0
1876 1899 0
2102 2773 0
-4035 -4086 0
3781 -4458 0
-8 845 0
842 134 0
3198 4454 0
2341 -1647 0
3185 -1766 0
-1291 2738 0
140 -690 0
2021 -4631 0
-516 -4603 0
-1623 2698 0
-2432 2823 0
4661 -3988 0
2714 -62 0
-3389 1929 0
1192 2060 0
-3804 777 0
115 3242 0
4424 -4542 0
-4040 -832 0
-3799 -3402 0
2897 -4568 0
3756 1749 0
-2936 -2225 0
-1055 2790 0
-387 -4123 0
-204 -4192 0
-1354 -1138 0
-3913 -438 0
4654 -1241 0
-1790 2487 0
-43 2657 0
-4364 -1003 0
-3540 -2540 0
3434 -1230 0
61 -727 0
1183 -2724 0
949 -637 0
3514 3960 0
378 1096 0
-588 4576 0
-1519 3974 0
-1271 453 0
-4429 1819 0
-3743 1439 0
-4119 4291 0
-1606 -1817 0
1765 -944 0
-3215 -819 0
2928 -3775 0
4232 -2185 0
3667 69 0
1501 -54 0
1071 -2182 0
2709 -2275 0
-1456 -711 0
3957 3238 0
3299 -3763 0
1471 -4090 0
2857 -676 0
2240 2807 0
3096 2665 0
4542 77 0
2665 -1812 0
3911 163 0
3525 -2459 0
4342 -2651 0
2750 1904 0
-3341 -3840 0
3886 -2799 0
3170 -440 0
572 3516 0
-871 -839 0
-1608 491 0
1287 820 0
-4528 -4191 0
97 2231 0
-2030 -2320 0
-852 1652 0
382 364 0
-1760 4554 0
3591 2310 0
-1695 2279 0
3866 -3372 0
3992 -3652 0
-2263 185 0
-2332 -504 0
309 1958 0
3218 1387 0
546 84 0
1721 2632 0
443 -3884 0
-1356 1698 0
-2352 1762 0
-4122 -2989 0
-2544 1507 0
-3602 2879 0
-4664 1590 0
-498 -4068 0
3740 -1299 0
-3096 2974 0
-4401 2005 0
438 3251 0
2203 1378 0
2132 70 0
-4277 3422 0
-4505 1330 0
1113 -1092 0
3931 3996 0
-2798 -1250 0
-2945 -3453 0
-2995 3284 0
-1450 1042 0
687 -1217 0
1053 -2280 0
2506 -1723 0
212 1203 0
1506 2241 0
-1442 1591 0
3455 -155 0
-1795 739 0
1420 1580 0
361 1265 0
730 -2058 0
-3119 -573 0
739 -4455 0
-4586 1770 0
2784 -3225 0
-2212 800 0
-4642 -2509 0
3791 3024 0
3095 -672 0
786 337 0
369 451 0
3645 -3854 0
-1620 -3832 0
-2663 3684 0
-1530 -4475 0
2653 3592 0
-846 4099 0
1078 -3743 0
426 -1861 0
-2362 -521 0
739 -396 0
-1260 2699 0
3679 -3732 0
-4421 1335 0
4532 -1028 0
1433 2889 0
-4090 1517 0
-4231 -3965 0
-2444 -1553 0
-220 3309 0
-4644 -3760 0
3243 -3601 0
576 -4485 0
-2043 -4043 0
1540 1939 0
-2229 219 0
-769 3923 0
-3057 1556 0
4066 -770 0
3797 1475 0
-2707 -3428 0
3401 -3191 0
-3261 -4434 0
-2498 3993 0
691 4027 0
-3257 -1213 0
4125 3527 0
3741 677 0
804 2897 0
-384 -4505 0
-1180 -198 0
-490 1814 0
1233 2197 0
-4195 -2514 0
-1566 381 0
-220 844 0
-4050 2143 0
-2194 992 0
-949 -4043 0
1722 -1600 0
-2184 659 0
4672 2652 0
3766 1283 0
-2998 -4615 0
1824 2851 0
-3278 -3675 0
-1522 131 0
-2842 -4604 0
-2137 4089 0
499 -4202 0
-1075 -2734 0
684 -2904 0
-146 -1309 0
612 -1152 0
2349 -4584 0
-866 -919 0
4128 1050 0
-3319 4379 0
-732 588 0
2291 -922 0
1193 2520 0
1327 266 0
-959 -4146 0
1330 -2813 0
-3905 478 0
2475 -483 0
3191 -3052 0
-4404 154 0
53 -1179 0
-3341 799 0
4530 475 0
2294 2942 0
140 2318 0
1411 -1676 0
3959 -943 0
4109 -4067 0
2451 -3690 0
-4603 -1830 0
-226 -3929 0
-802 -2418 0
1414 -865 0
311 3493 0
87 -3173 0
-4113 -4641 0
-1311 -472 0
187 -2281 0
-2497 4726 0
538 2630 0
4581 -917 0
-2952 4736 0
832 -3673 0
2902 2092 0
-1368 1229 0
1628 -426 0
-991 -1179 0
-1901 2593 0
1955 1148 0
289 1749 0
1710 1944 0
-2272 1252 0
2351 2544 0
-854 1269 0
1479 -1887 0
3587 -2344 0
570 -4213 0
3073 -709 0
-3466 -4468 0
-2419 624 0
-4320 -1471 0
-255 -2257 0
-996 716 0
309 3572 0
1661 -4173 0
2280 3252 0
1176 818 0
3009 -1189 0
-2317 2145 0
-3715 2817 0
-635 4537 0
2661 -4339 0
-3157 3499 0
-600 -102 0
-216 -147 0
-3381 -3130 0
23 -3708 0
-2887 -1695 0
-806 -2073 0
4027 307 0
-2593 2475 0
1072 -3513 0
-3143 1085 0
-2257 -1474 0
2861 -2554 0
1645 964 0
-4446 -4198 0
760 -3254 0
-611 -2550 0
361 1375 0
-3258 -681 0
-4520 4482 0
-2298 2789 0
-3357 -1828 0
-4451 -3557 0
-2451 -1298 0
899 2623 0
-70 -2765 0
-2887 -3702 0
4700 423 0
1320 804 0
-1960 1969 0
-1582 4265 0
-558 -2301 0
820 -155 0
-2719 -2280 0
2681 -2616 0
2871 2774 0
-2 -1568 0
-2201 2744 0
-4026 -4092 0
445 3788 0
-3965 -4267 0
1838 -579 0
-3990 -4542 0
-3716 -3479 0
-1762 -612 0
1328 1081 0
-722 4751 0
4217 -2416 0
-4119 -840 0
-1638 -53 0
2742 4419 0
-2606 -2221 0
634 -3596 0
4643 -1692 0
2110 348 0
1764 -2229 0
1810 3571 0
-468 -2301 0
3566 -1540 0
2410 -1601 0
-3332 -1213 0
-1975 -1518 0
4394 -652 0
2602 -3523 0
-140 -3041 0
2818 775 0
2828 877 0
2702 4023 0
1974 -3890 0
20 4588 0
-1354 -3839 0
3053 2723 0
4222 -4736 0
-1936 -2586 0
3544 -4217 0
2624 -3609 0
-1343 -3600 0
-649 -3538 0
1300 2568 0
-3861 40 0
3959 3769 0
2628 -3478 0
-3438 -2127 0
3185 301 0
3362 1720 0
-4023 -2523 0
-1913 91 0
2394 3997 0
3005 2801 0
1991 -1415 0
456 847 0
-994 -1125 0
2267 4407 0
4040 -579 0
4469 -2280 0
-2678 -2989 0
1053 3405 0
1317 4627 0
4598 -1333 0
2326 -1456 0
2458 -3888 0
793 846 0
1541 -2495 0
4340 4242 0
-3467 -1870 0
4236 -4150 0
-3517 -3600 0
-3873 465 0
-3597 -855 0
4083 2400 0
-660 -3864 0
4579 -987 0
-2188 3023 0
3246 2118 0
-2913 3326 0
3683 -3742 0
3091 -3299 0
3599 1144 0
1970 3119 0
1919 -3871 0
188 104 0
1835 -2990 0
4617 -2748 0
2814 281 0
-1432 -4106 0
-1495 349 0
1003 -219 0
-863 -3642 0
1409 -3290 0
-880 -1778 0
3970 -1504 0
3588 -388 0
1499 -4743 0
-870 2252 0
-2365 -4358 0
-1633 4134 0
-604 2409 0
3771 -1603 0
4337 -3607 0
446 -1105 0
-740 -474 0
381 -2982 0
2295 -1518 0
-4618 -3899 0
3486 -2330 0
-735 1422 0
-1177 1155 0
-2739 1834 0
923 -4025 0
-4750 1629 0
1347 -2086 0
1193 -151 0
-916 4578 0
2122 4471 0
3746 2535 0
1680 2605 0
3121 -2172 0
-3126 -1594 0
4496 4351 0
-3995 -1843 0
-1631 -1359 0
-3327 -3810 0
-4241 3418 0
1097 3739 0
-448 -3488 0
2424 1174 0
277 -4450 0
2085 -3234 0
3354 -397 0
3849 -1800 0
-1237 2974 0
-2890 1933 0
2013 -4714 0
-2537 -690 0
-3417 -250 0
2685 -2405 0
-3447 2115 0
-3805 -2479 0
3089 2433 0
-596 995 0
-3930 3221 0
-822 1576 0
1471 -3424 0
-2090 -651 0
3976 -1168 0
3648 3549 0
4623 4190 0
-1148 1466 0
-3770 315 0
1416 4009 0
3744 -1134 0
4590 449 0
-4466 3581 0
-209 -738 0
4117 -2945 0
4166 -3734 0
4748 -1585 0
-3303 3479 0
-4593 -1125 0
-2062 -4385 0
3427 -3940 0
2273 -220 0
-4650 -4193 0
3193 736 0
3999 134 0
-130 232 0
4390 465 0
3694 2744 0
699 2102 0
-797 3750 0
-919 -1087 0
-545 3396 0
-2158 2963 0
-3055 1282 0
4375 4236 0
2665 2247 0
1085 628 0
-1153 3329 0
-2716 -1602 0
3217 -3413 0
-4323 3181 0
-1646 -4618 0
-4418 2181 0
-111 3200 0
1118 2163 0
-4450 1445 0
-3662 -4015 0
-486 1716 0
-1250 -4406 0
-355 4266 0
-879 -4047 0
3166 -4621 0
-1852 -445 0
760 1166 0
-3538 -4410 0
3612 4409 0
-2476 -984 0
4752 -386 0
1380 2931 0
-1566 2803 0
195 4323 0
-3779 -1690 0
-1736 4520 0
4334 -1959 0
-429 3682 0
-337 1980 0
4487 -95 0
-3178 -685 0
-424 2769 0
-1447 -4566 0
2487 -3709 0
649 3909 0
4137 -2195 0
177 3514 0
-2306 1361 0
-2526 455 0
2570 4564 0
1344 -2799 0
33 -1536 0
-1908 152 0
1824 701 0
-351 3173 0
739 4436 0
804 732 0
-3874 2665 0
-3295 2610 0
-122 -2591 0
1894 -1887 0
4094 804 0
-4042 -2328 0
-851 -3597 0
2441 4305 0
-1093 4156 0
3549 194 0
3089 -4171 0
2881 1242 0
834 2484 0
-4398 2034 0
4740 -3576 0
2405 -2625 0
2953 -4580 0
782 -4618 0
833 1811 0
-1197 -26 0
-305 -342 0
1272 -4110 0
-3216 1944 0
3562 3338 0
-842 -2424 0
-1900 -4187 0
-3382 1508 0
2353 -3846 0
-2242 780 0
-4510 -3551 0
835 1984 0
-558 -980 0
2245 1374 0
2207 761 0
781 1066 0
3736 -2713 0
568 -3168 0
4173 -315 0
3963 -548 0
4181 -267 0
448 -3502 0
-580 -738 0
1735 -2233 0
1539 4502 0
1669 3317 0
2288 4283 0
838 -2699 0
-1455 -2070 0
-527 -3217 0
85 -2502 0
4097 1168 0
1434 1827 0
-370 2277 0
-2478 3405 0
149 1525 0
-179 -4003 0
-4176 2479 0
-837 2439 0
1667 4225 0
251 -1424 0
1011 1207 0
-3303 -2419 0
-1959 -903 0
3033 -1131 0
-905 280 0
3645 2387 0
1209 2991 0
-2897 -2905 0
3284 -4058 0
904 1528 0
1529 -681 0
4273 2031 0
1243 1980 0
-3198 2101 0
-1348 -2641 0
-1576 -383 0
-2035 950 0
4635 1921 0
3009 -1705 0
3724 2995 0
-3305 -2757 0
-1373 2152 0
-3613 711 0
2263 -3285 0
-3297 2540 0
2375 4 0
3796 3667 0
-1300 1011 0
2935 -3569 0
-2373 -335 0
2908 -1962 0
4390 4661 0
-4557 -3169 0
328 -2941 0
-542 -1923 0
1875 -4557 0
704 -461 0
-2965 -1731 0
-345 897 0
-2978 828 0
3777 -4336 0
3302 639 0
-2480 -2423 0
-3596 -4105 0
-1186 -1321 0
4687 -2962 0
-2905 151 0
-1513 -1002 0
-4617 269 0
-3000 -1728 0
4238 -1145 0
3496 699 0
-253 1351 0
544 4609 0
-2121 3034 0
1689 4585 0
2662 4698 0
-2221 1988 0
2622 -1628 0
-4575 3716 0
3367 1770 0
1315 -1354 0
501 315 0
-1522 -4616 0
1062 -3224 0
-2766 4441 0
-3920 1499 0
3527 -4665 0
4504 1980 0
2645 -2440 0
297 -2408 0
-4459 3423 0
2784 2697 0
-2862 4589 0
1930 -1213 0
-4749 -1669 0
-3880 -525 0
3106 1291 0
-550 1939 0
-406 -3831 0
-3522 -3534 0
-1715 4069 0
-3539 3769 0
-4340 -2833 0
2791 3974 0
-626 -4464 0
3298 3586 0
-2751 3459 0
-301 -4227 0
-932 3153 0
3744 -1347 0
444 105 0
-3620 4182 0
-4398 1947 0
-4142 -1421 0
25 -2770 0
1990 -3233 0
3983 3525 0
1802 -3844 0
4224 -2286 0
3119 -268 0
3123 -2382 0
3544 -4106 0
-3643 -2956 0
4289 1991 0
-3383 2770 0
-3496 -482 0
-3487 -4606 0
-51 1066 0
2935 4453 0
3097 -2362 0
2309 4258 0
-1929 1877 0
-1373 -323 0
1684 3458 0
308 4670 0
-2825 -1292 0
2567 4629 0
-1804 -66 0
-3583 -594 0
-999 -4330 0
-4685 44 0
-3273 -1691 0
-1881 1273 0
4601 4701 0
-112 -3435 0
-2521 426 0
-2712 2091 0
-1671 -1522 0
256 3253 0
-500 -368 0
2496 -3788 0
3796 2122 0
1819 2775 0
-1319 -2136 0
2224 3234 0
-756 -2142 0
-3783 -2198 0
2672 -2145 0
-2003 686 0
1740 3602 0
1397 3987 0
-3251 -4445 0
-1212 2533 0
-1388 3684 0
-3216 -2853 0
1657 -4120 0
-812 1948 0
2455 -4267 0
-3941 -1664 0
586 4426 0
667 -1442 0
-2543 -1763 0
-1836 -1628 0
-1935 -1989 0
1750 334 0
1979 2682 0
-196 3516 0
3255 3893 0
2291 -217 0
1742 -3464 0
4514 -4652 0
-1172 -1323 0
-4112 2506 0
-1213 1942 0
3998 -2141 0
3094 1678 0
-944 -4360 0
3679 2102 0
-2781 -2793 0
1875 -3550 0
-4296 1193 0
3095 3190 0
266 4037 0
4228 -2150 0
1786 1086 0
-2375 3310 0
1407 -3172 0
-823 302 0
-221 2686 0
-4394 -1644 0
3608 -2625 0
-3557 -4170 0
124 887 0
3206 -1100 0
-4691 4724 0
-533 -2325 0
1246 -2501 0
-1534 1793 0
3741 1258 0
3163 2369 0
3926 -4055 0
-4369 -3024 0
-304 1475 0
-683 1057 0
1343 -4595 0
-3513 3100 0
2270 -387 0
2085 -2469 0
2507 -3016 0
1711 -4713 0
-1138 -1259 0
1919 4161 0
-955 -1345 0
-1868 4374 0
2515 1013 0
3181 1497 0
3493 -2273 0
2582 587 0
-1962 3868 0
957 2284 0
1499 2167 0
-2076 1133 0
3976 -3101 0
-2278 -2258 0
4274 -1889 0
-131 2050 0
-2010 -1498 0
-1260 242 0
393 -4372 0
3851 3885 0
4449 -3448 0
1133 -1949 0
479 -884 0
-3244 -2712 0
-3876 3397 0
-2666 -420 0
-1841 3507 0
2612 -2679 0
-2338 4264 0
-981 1496 0
3374 1481 0
1284 4405 0
-4745 4354 0
1957 1819 0
-212 -3783 0
1829 3170 0
-4312 -4523 0
-679 -1263 0
4208 844 0
1523 -294 0
3162 3039 0
-4478 2836 0
1101 3639 0
-4241 -1381 0
-764 -310 0
-3227 -1179 0
-4692 4430 0
-257 -3577 0
-1854 -3737 0
-1264 -1217 0
4380 4384 0
-1482 991 0
-830 -1696 0
-57 -4678 0
1553 -2169 0
-3372 -2163 0
-617 1444 0
3388 -1002 0
3990 -2891 0
-4272 -4035 0
-2305 4349 0
-3552 2533 0
-2991 -3420 0
1212 -1422 0
1897 4015 0
1158 -2733 0
-1261 2292 0
-1841 -4578 0
286 3769 0
1725 -4403 0
981 2730 0
-476 1458 0
-3737 3424 0
-1416 2540 0
-3255 -834 0
1182 1307 0
-830 3265 0
-4445 -1933 0
343 -2415 0
-1781 -3190 0
609 708 0
-2542 2365 0
-916 2204 0
-2531 -3151 0
4664 -4647 0
-2148 2227 0
-912 3608 0
-1656 -1177 0
1543 -2429 0
-1205 -1359 0
1443 -3497 0
21 -1521 0
-2993 -1424 0
-2865 -1955 0
3881 -3547 0
-1746 2536 0
2454 3869 0
-190 -2927 0
1919 -2739 0
392 4165 0
-165 3618 0
2439 -1628 0
-2134 -810 0
2844 4162 0
-959 -3048 0
-954 964 0
1984 3868 0
-3096 -458 0
-3972 2459 0
4077 1612 0
-1881 3327 0
3664 4118 0
4294 3807 0
-859 4408 0
900 -2259 0
-1306 2387 0
-1464 2708 0
218 3073 0
2020 -4056 0
3859 1162 0
281 -3776 0
-831 -2212 0
2874 -2365 0
-3165 2240 0
1324 -4066 0
-344 602 0
-3900 -1497 0
-4619 -2739 0
-316 -2241 0
4645 -3738 0
-2881 663 0
3366 4024 0
-4168 2857 0
728 2388 0
-2742 2385 0
2659 -3327 0
-1095 4176 0
1104 -4058 0
3736 -3334 0
-3065 775 0
-1758 2317 0
-51 3617 0
-118 -4541 0
770 -3051 0
-4694 -4413 0
-540 -513 0
2036 -944 0
-4547 1103 0
-1564 -1941 0
-4406 -2171 0
1992 3436 0
-2742 -4143 0
-3756 3634 0
377 -236 0
-2746 4639 0
-1419 -692 0
1258 -3926 0
-4429 4248 0
-2358 3582 0
4060 -12 0
577 372 0
-4563 358 0
-2779 -1055 0
-861 -3936 0
3185 -850 0
1717 2439 0
2227 -1659 0
-3229 2980 0
-2656 1914 0
-4500 1320 0
-3112 3178 0
-4159 989 0
699 -2543 0
-1189 -127 0
1320 2836 0
3243 -1464 0
3408 228 0
3119 -1312 0
325 593 0
-1480 -319 0
867 -2881 0
-3825 3767 0
970 -4557 0
2152 2904 0
3386 -4376 0
-12 3854 0
-3806 4329 0
-2518 -1027 0
-626 -3689 0
2252 -4576 0
-4188 1271 0
-4241 -3116 0
-3897 -2748 0
-2574 630 0
-4721 970 0
-1672 2863 0
3376 4356 0
-1551 -758 0
-4245 3165 0
-1498 -2120 0
-4241 464 0
345 -4362 0
-2324 3405 0
-1671 862 0
-950 -320 0
-403 -4386 0
-595 -357 0
3284 4735 0
-4461 3987 0
369 4315 0
-2751 3053 0
1868 -38 0
-3729 -1582 0
-2068 2212 0
-2281 -3719 0
-3261 -424 0
-3768 -3644 0
-771 2002 0
2844 154 0
-2642 3428 0
-2012 -4545 0
814 -223 0
-1514 2458 0
4503 -722 0
-4676 -4618 0
-1624 -1531 0
2087 -2748 0
-1374 -2063 0
4568 -1656 0
-1771 924 0
3328 3779 0
-1862 -3050 0
-3612 2107 0
3751 -3195 0
-3972 369 0
-3546 -2079 0
-1141 -4438 0
2804 -1538 0
2629 2381 0
2336 3582 0
-658 -1925 0
-2028 3220 0
-960 -2257 0
573 1236 0
-989 -548 0
3295 -3161 0
151 1629 0
-2357 -3405 0
-2654 -4607 0
1259 -1220 0
4600 -1213 0
-2764 -4621 0
-4013 143 0
2794 1930 0
2776 865 0
2221 508 0
813 -1668 0
-1508 3653 0
-3902 -1681 0
-911 -917 0
1198 3741 0
4662 -3086 0
-2555 -4205 0
4748 4228 0
2339 -4081 0
2133 947 0
4370 2303 0
-4170 -4633 0
1447 356 0
988 1562 0
-681 267 0
885 1698 0
-1135 1600 0
-2949 2168 0
2517 3261 0
-3825 -957 0
3068 306 0
3344 3248 0
-4315 -1445 0
3750 2930 0
1982 -1713 0
-1320 -3980 0
1431 1903 0
-2599 4716 0
-3486 786 0
-1951 1135 0
392 2953 0
-1328 -28 0
-1421 3433 0
-4408 3666 0
1288 2065 0
-656 -1522 0
-4255 4248 0
-730 4154 0
3293 -1830 0
-465 2118 0
-4047 -3436 0
3117 1172 0
-2956 -3591 0
4746 2520 0
2458 -2068 0
250 2463 0
3188 3295 0
-2018 3245 0
516 4295 0
-794 -3251 0
755 -4524 0
278 -370 0
950 -1781 0
-1957 -4056 0
-483 -437 0
1062 -233 0
4228 -1426 0
2999 434 0
-3087 -987 0
-439 4157 0
-1040 3331 0
-4214 2828 0
-1821 -654 0
813 3448 0
-3298 1502 0
523 3040 0
-1231 668 0
4074 -260 0
2907 -2275 0
-3596 3021 0
-693 4607 0
1686 3160 0
-4715 -971 0
2363 -2272 0
-2871 1855 0
1356 -973 0
-3399 933 0
1877 -1178 0
3073 -48 0
-4362 233 0
183 4266 0
-2119 2426 0
-582 110 0
-1394 -3908 0
-4049 -3834 0
3455 2753 0
-1570 1113 0
-4696 731 0
-347 799 0
4607 -649 0
365 884 0
-2948 -520 0
-2510 -3675 0
-290 -685 0
-4357 -4669 0
-4439 -1639 0
1765 4411 0
275 -1731 0
-962 -363 0
2436 -2204 0
-1935 -271 0
4160 1055 0
-4568 565 0
-1286 2860 0
-594 -769 0
3091 -2513 0
-1784 -2234 0
-4682 -4195 0
4105 1752 0
-2344 1754 0
-4550 -2580 0
4458 -3875 0
-141 4743 0
-85 3070 0
-4547 -3638 0
1043 684 0
2061 3050 0
4637 -4348 0
-1997 -1635 0
83 -3446 0
2197 -4185 0
4048 3843 0
4604 2522 0
-4032 -264 0
3540 1438 0
1786 -342 0
2692 4463 0
-13 2915 0
1313 -621 0
2300 53 0
-2895 649 0
-526 -4329 0
-3616 2865 0
2988 -99 0
-101 477 0
-2670 -1118 0
1876 4423 0
-1495 1815 0
4663 -477 0
-2441 982 0
-1566 -1807 0
-373 481 0
-2873 1414 0
749 -2310 0
4295 -987 0
2541 1423 0
-1462 1636 0
-2129 -314 0
-2995 3949 0
801 3726 0
-3091 604 0
-4346 3124 0
2520 3788 0
-1621 -970 0
4383 1586 0
1505 4289 0
-338 1870 0
-2927 1267 0
-1027 802 0
-4724 -1342 0
-3713 1831 0
3915 -581 0
-3657 2546 0
1608 -1828 0
900 2910 0
-4499 -3715 0
741 -4070 0
3935 3397 0
2060 -2445 0
2374 2271 0
1560 911 0
-4346 2196 0
2303 -3492 0
1542 -4521 0
701 -1139 0
-1006 -4554 0
-527 -2620 0
137 -1357 0
4341 -1079 0
2700 1110 0
-2110 3262 0
4091 -647 0
3572 3892 0
-2728 3727 0
-2707 1444 0
-3058 689 0
829 -2134 0
2610 -4272 0
1212 1311 0
-3142 867 0
4578 4291 0
766 2309 0
-3599 1256 0
-3630 -1521 0
1914 4497 0
-2029 -431 0
4284 -200 0
-776 -43 0
-3491 -3416 0
-1018 2828 0
211 2267 0
-4386 4470 0
-4345 1555 0
2169 -3470 0
-2351 -888 0
-2861 1133 0
-2695 41 0
2871 2904 0
2238 -2666 0
-1427 3193 0
1291 1015 0
-4140 -1946 0
499 4113 0
-413 -399 0
-137 -3315 0
-2574 -1775 0
-27 2685 0
2485 228 0
-4753 2371 0
-3889 -98 0
2414 1215 0
-2957 -4144 0
1405 19 0
3533 -2794 0
4719 67 0
-662 -941 0
4306 806 0
1797 1069 0
4198 1318 0
-146 -2395 0
-3758 -2983 0
-608 -3682 0
-2615 -3058 0
-1276 766 0
1151 3804 0
4589 -703 0
-3828 -1700 0
4423 914 0
-2037 3809 0
3022 3824 0
3020 2665 0
4016 2958 0
-2259 -2127 0
592 1813 0
3637 -4392 0
-519 -2378 0
-1968 436 0
-732 -715 0
3489 -620 0
-4518 -3177 0
4236 -2027 0
3287 2736 0
-4243 -3269 0
-856 815 0
-3366 -66 0
-3236 -3869 0
3784 -776 0
-1593 3895 0
-2242 3530 0
2470 -3869 0
2174 252 0
-4385 -2129 0
3653 4663 0
3534 -2746 0
274 -2056 0
2378 3580 0
-269 -1591 0
750 2701 0
-4490 983 0
-254 1292 0
-3002 64 0
-590 -1002 0
-2047 407 0
-3900 -938 0
-1882 -1513 0
-5 -2660 0
-3672 -2496 0
2069 -140 0
-2510 -367 0
-3450 -2040 0
-2108 2845 0
268 4141 0
3943 -2539 0
-1139 -2832 0
4563 2700 0
-130 604 0
-8 697 0
-2958 -1195 0
853 -4028 0
1141 1256 0
-2417 2828 0
339 3861 0
-4233 120 0
-427 2181 0
3775 -2428 0
-3552 -1858 0
2270 4318 0
1829 -4 0
1513 3405 0
1358 37 0
195 1976 0
1916 1468 0
4027 -2854 0
-3398 1090 0
4578 2027 0
-1880 1405 0
-2510 4697 0
995 4337 0
-933 -2732 0
1487 -791 0
381 2751 0
-1397 1732 0
250 3262 0
-4418 -3437 0
-3212 -2243 0
384 1453 0
2443 2544 0
-1431 -2379 0
1365 3454 0
3779 -2476 0
-4000 4409 0
3694 2777 0
-289 80 0
-4157 -3251 0
4132 -407 0
-2845 3371 0
3333 -3183 0
-1416 2335 0
578 3718 0
-432 659 0
-792 3756 0
3535 -1780 0
3107 1998 0
-1695 -2410 0
3536 -655 0
-4153 2482 0
-3401 4470 0
544 -3531 0
-4310 941 0
3059 2037 0
4255 -2884 0
3153 -917 0
619 4462 0
-1882 -4488 0
433 1529 0
-1775 2281 0
-3495 -2798 0
88 808 0
-796 -1673 0
2221 3489 0
-3682 2421 0
1564 1549 0
-2683 -4746 0
-2298 -2382 0
-1570 -3263 0
-333 1417 0
2881 1122 0
1371 -3627 0
1396 2495 0
-833 1227 0
2939 444 0
3348 546 0
-4259 3385 0
640 1993 0
4380 -4485 0
1818 -4369 0
516 -915 0
-1919 3782 0
-2548 33 0
-3064 3642 0
62 428 0
-2623 4379 0
2431 2721 0
1307 1112 0
-989 -4402 0
-708 1292 0
1081 542 0
-1935 -3575 0
-3050 4182 0
3880 -4096 0
-3216 1621 0
1842 -1222 0
829 -4471 0
2689 -4508 0
-125 -2994 0
-4033 1882 0
3207 3520 0
-1060 4300 0
-1566 4326 0
2454 -3846 0
4748 2021 0
-3349 455 0
1170 2023 0
2091 -4725 0
-4067 -2970 0
4487 -4652 0
1556 -1099 0
4020 -2094 0
1081 -3175 0
2432 3247 0
-4091 897 0
-3281 3337 0
-4307 -3093 0
-2181 4 0
4251 3119 0
-3657 -1420 0
3333 597 0
1232 -3517 0
-1425 2558 0
4639 -3588 0
-495 -1106 0
2920 446 0
1127 1235 0
4306 -3628 0
-3544 -2276 0
-1176 -4459 0
664 4089 0
4381 -623 0
-2807 -4206 0
2853 2658 0
-2429 1608 0
-574 -4664 0
2741 2745 0
2439 1395 0
4730 -2089 0
-3825 3605 0
-234 -3829 0
-3238 -289 0
1727 182 0
-3904 4675 0
-1310 -1039 0
-4606 -1775 0
2931 -2456 0
3006 -606 0
1626 1256 0
-3949 4500 0
977 -3504 0
1732 3780 0
-106 2849 0
2817 -1197 0
818 -1522 0
-3645 -4548 0
-3913 -1141 0
-2355 -4401 0
3498 -3922 0
127 -3754 0
3711 42 0
860 343 0
-2243 3386 0
1738 -1570 0
1044 751 0
2600 1319 0
1091 -3172 0
-3118 745 0
3751 -3273 0
-1842 -89 0
-861 1709 0
3015 -840 0
-3464 4692 0
836 -2101 0
-2181 -2324 0
-987 -4128 0
1176 4368 0
-2291 1898 0
4748 2260 0
-1602 194 0
-2977 4004 0
-4054 1777 0
-2151 571 0
4430 -2550 0
1331 -1513 0
-811 3516 0
1474 2183 0
-308 -3952 0
4362 -840 0
-3568 -2632 0
-3940 939 0
1154 3922 0
-1821 -243 0
-994 -3261 0
-3846 -1271 0
460 -4055 0
679 -2926 0
-3097 -1200 0
-2316 -2814 0
-2605 2958 0
-1712 3782 0
3518 -3403 0
4417 -2232 0
291 1138 0
2468 1686 0
-790 -627 0
3330 -2250 0
2779 -1031 0
2180 -934 0
-976 -3785 0
2319 -2237 0
-605 2140 0
-2522 2092 0
2461 4211 0
-2763 -4266 0
3354 -1019 0
3018 2898 0
2911 1752 0
-1131 513 0
-2978 -734 0
-2498 -1319 0
1685 -600 0
-2547 2595 0
2332 4585 0
2300 -1465 0
3594 2811 0
-2594 2374 0
4156 1476 0
-4562 3766 0
3401 -4600 0
-2637 -848 0
3243 2422 0
-2890 -2981 0
-125 -1169 0
3516 2812 0
4326 2645 0
1637 -1555 0
-2304 -3690 0
2347 4001 0
3242 3483 0
640 1584 0
4251 -2646 0
1057 2520 0
-4057 3015 0
-3433 1272 0
-3806 -4380 0
1896 499 0
2317 -3322 0
-583 1065 0
2779 -2208 0
-2139 -794 0
-1426 -4606 0
-2555 2804 0
3129 -4346 0
-4442 3484 0
-2796 -274 0
-1390 -4690 0
4679 -393 0
2915 2669 0
-1428 -756 0
-3631 1404 0
-980 1384 0
578 -3982 0
1957 -210 0
3436 1180 0
-2 -3730 0
3426 -1678 0
2270 2772 0
-4298 2949 0
1590 -2283 0
-3706 3259 0
3328 -285 0
-356 -1474 0
-3179 1227 0
1469 4234 0
2177 2198 0
-1728 1640 0
2953 -3080 0
3859 1957 0
-2851 -3601 0
-2998 1626 0
2323 -2389 0
3145 -2918 0
4207 -408 0
-4303 -482 0
2706 -1389 0
1395 1024 0
-1996 -10 0
-537 1986 0
1209 1619 0
-4284 -227 0
1890 -4486 0
-4730 -1697 0
1950 1399 0
-4055 -251 0
-4446 3581 0
3721 -4391 0
972 1111 0
1252 -4259 0
-1804 2539 0
-2090 733 0
1388 1151 0
-2111 3182 0
-1248 -259 0
-4111 3210 0
-2030 1293 0
1578 -943 0
-3757 1694 0
429 -1159 0
-4729 -941 0
4284 1397 0
282 -2804 0
-4731 -3756 0
2916 -2499 0
-4286 -1499 0
-901 3493 0
4737 -625 0
-1286 2044 0
-698 -717 0
-2642 145 0
-3730 3649 0
897 -1038 0
-1837 564 0
2230 -2683 0
829 794 0
-3204 -3310 0
4694 -2239 0
2132 -295 0
1544 1752 0
-3618 -1355 0
-2534 -1470 0
464 3661 0
2571 1482 0
-3643 2198 0
-481 3401 0
-2191 4578 0
4208 -3642 0
-3078 -3806 0
735 1629 0
4269 -14 0
4448 -1935 0
-3361 -1776 0
1915 -3445 0
-4583 1050 0
-2575 -3652 0
2436 -2464 0
2644 105 0
-1537 779 0
-1962 -994 0
-911 -1 0
-1968 4733 0
2550 2871 0
2803 242 0
-570 2007 0
3012 -1762 0
2414 -883 0
-2104 -44 0
-205 1378 0
3608 1314 0
2071 3157 0
1897 3317 0
2939 -2759 0
-4710 -3270 0
1889 -811 0
3382 1828 0
281 -1941 0
166 900 0
-949 -4189 0
-1759 1358 0
-4115 -3168 0
-352 -3544 0
-2368 -1704 0
-1905 3934 0
-3075 -2113 0
1274 -4286 0
1197 2131 0
-1902 -45 0
3396 -572 0
2453 -2159 0
-1743 -2045 0
-1570 2824 0
2343 -1637 0
-2040 -2772 0
-626 2916 0
-4298 2165 0
-556 2558 0
1705 2292 0
1447 4517 0
154 3657 0
-2995 -3548 0
-2095 937 0
-4591 -4185 0
-858 -1071 0
1441 1248 0
-3283 -3863 0
1775 2371 0
-803 4722 0
3279 -4104 0
-1662 1050 0
4519 -4558 0
-3723 -3303 0
3390 3002 0
4731 -3878 0
-2696 -4402 0
-746 2555 0
3533 -1533 0
1244 -1616 0
-1450 1606 0
2078 3512 0
-2201 -1594 0
-2825 -2476 0
1269 2994 0
3325 -1192 0
3931 -2925 0
-2074 -194 0
-874 -4464 0
-2311 -2725 0
-926 -3307 0
-4141 -1861 0
4620 1838 0
-1204 -3908 0
429 -4019 0
1126 -4081 0
436 -3438 0
3018 -3575 0
-4648 731 0
656 -3350 0
2749 -4367 0
-3431 2300 0
-4257 1383 0
-4175 3711 0
945 1877 0
-4210 -3680 0
4351 -855 0
780 3193 0
-1997 459 0
-3397 -3786 0
-2365 1358 0
4289 -416 0
-2398 2939 0
-174 -2575 0
-1268 -4561 0
-27 1798 0
4328 2051 0
2760 -1510 0
1674 -157 0
-979 -1787 0
-830 -4148 0
-1981 -1603 0
3416 2869 0
-307 3476 0
4100 -2876 0
2590 -2776 0
-632 3157 0
-3281 -811 0
-4561 4460 0
-3776 4624 0
-2880 689 0
3105 -3729 0
2543 3889 0
184 -3318 0
-2761 4452 0
-1204 -3293 0
-1570 -43 0
4296 1645 0
1663 2147 0
-3723 4699 0
3105 1033 0
-3421 -2803 0
-598 -3288 0
3349 -4179 0
-1105 4192 0
686 3240 0
4083 -1166 0
767 4393 0
1344 -1817 0
-3617 152 0
1167 3473 0
-2617 -1516 0
3038 -4190 0
2649 -564 0
3248 1487 0
-2435 -3532 0
550 3068 0
3512 -382 0
2025 -1666 0
-2069 -682 0
-3218 -17 0
2957 4085 0
-2732 -2021 0
4155 1587 0
2774 12 0
-1705 -2681 0
2745 -3314 0
-2596 -1982 0
-1010 1737 0
1430 -2537 0
-4619 4214 0
3248 2291 0
-1107 -2378 0
-4000 1573 0
2398 -4633 0
-4416 530 0
-484 1621 0
3035 -4696 0
1643 -3223 0
-4079 946 0
-2270 -3734 0
-1000 -2683 0
-809 -3464 0
4659 1589 0
-4617 883 0
-1145 1233 0
-172 -4655 0
-854 1346 0
-1738 -2359 0
1944 -4356 0
3231 2920 0
-2973 3348 0
-1334 3679 0
4578 331 0
3825 -837 0
-1511 4554 0
1662 -152 0
23 1539 0
-4516 3850 0
1789 203 0
-2933 2570 0
-1003 2729 0
4317 4029 0
-1391 -4609 0
-932 -3000 0
2775 1429 0
1174 2844 0
2395 4685 0
-3236 -1305 0
2552 -1604 0
-4090 -1759 0
3493 3014 0
-1880 701 0
-2383 768 0
-3487 -3810 0
-1068 4303 0
-4282 -503 0
-4732 4289 0
3192 2756 0
-4617 4653 0
-1166 3497 0
1414 -2576 0
175 4570 0
2924 -1888 0
-81 -5 0
2769 -167 0
2026 2249 0
1242 399 0
-83 3038 0
1085 1436 0
-3142 -877 0
-1697 -2446 0
-4013 -1677 0
-2909 2517 0
-854 -3042 0
-3695 -746 0
-2605 4274 0
2240 -1890 0
-769 -805 0
2495 -2038 0
-3528 4598 0
-3985 2886 0
-1451 -3949 0
3300 1698 0
-1935 3406 0
-4298 -4331 0
2994 2783 0
4534 -1929 0
2516 4599 0
-4369 -2269 0
59 -278 0
1221 -2498 0
-1969 1046 0
-3198 3195 0
2498 -1808 0
4487 -4159 0
-1513 -3515 0
1151 -4221 0
-1761 1363 0
-4641 2224 0
1601 3169 0
-2929 -3372 0
1214 -475 0
1035 -2799 0
3519 -3184 0
1142 2916 0
3367 3683 0
-3985 -480 0
-2367 -4050 0
-3224 -2115 0
2834 401 0
-1570 3213 0
-2527 4217 0
3338 461 0
3772 -3476 0
3660 -1917 0
-85 -311 0
-4174 956 0
858 -1213 0
-2619 -178 0
-1734 -3200 0
-2115 1150 0
578 -3436 0
287 2565 0
-116 -4529 0
-3541 -1642 0
3998 2099 0
653 -4171 0
3752 -4299 0
4677 3219 0
-1977 982 0
3461 -1586 0
-1312 1654 0
-2854 2914 0
1487 489 0
1434 -3141 0
-4303 -2732 0
-1333 -2684 0
1913 -2236 0
-344 4580 0
1184 -3491 0
-310 -3253 0
-3857 -280 0
3864 2867 0
1307 -23 0
-4133 -218 0
-4685 -1029 0
-4702 -4410 0
1431 1664 0
-2899 -1819 0
-785 -4111 0
4178 -3573 0
-990 295 0
1844 -4628 0
-4607 -601 0
-207 2275 0
4118 -3191 0
1360 2262 0
1216 -1943 0
-4595 -3717 0
1202 -4070 0
2397 -1662 0
835 -2463 0
-4147 -3056 0
1008 -1525 0
-12 1979 0
953 3429 0
-2759 -2677 0
3783 -547 0
-771 -2407 0
3094 41 0
-4558 -2741 0
-3089 3390 0
-1701 -1534 0
3272 -882 0
-2305 -2433 0
3832 1170 0
-473 -2155 0
1207 3285 0
-2527 -2948 0
-849 2354 0
2424 -1934 0
-1991 1356 0
1915 1589 0
-159 -3433 0
-1563 -3949 0
-1100 457 0
1834 -4708 0
2735 1147 0
-726 2363 0
1820 -4714 0
-48 1692 0
956 -4018 0
2822 -3460 0
1370 -1872 0
329 4050 0
-2891 2392 0
2501 -1833 0
-4074 4344 0
2120 -1450 0
-1325 -686 0
2894 2491 0
3397 2455 0
-1639 -1127 0
-742 -3716 0
-1365 3365 0
-169 4708 0
-984 -1103 0
2729 -1868 0
-3664 2618 0
-3057 -3133 0
2604 2378 0
3439 -184 0
-2732 2502 0
-1928 -1417 0
1117 -543 0
-3233 1974 0
4535 -4396 0
-4335 -2359 0
1387 -4047 0
-3774 -689 0
315 2311 0
-3130 668 0
-8 4469 0
3185 3125 0
3324 3182 0
4343 -3470 0
160 -2391 0
936 -3463 0
1622 387 0
-4457 -3624 0
-2151 3479 0
-3978 -842 0
3877 3327 0
-2765 436 0
-3035 321 0
-3700 2097 0
1090 4325 0
-3589 2414 0
4740 4712 0
1084 -2917 0
-1481 -571 0
4132 -4474 0
4312 2568 0
-1178 241 0
-738 -3305 0
1212 19 0
2838 4640 0
-4534 4018 0
-216 -3216 0
4710 1147 0
1764 1116 0
-2799 -1598 0
-1969 4368 0
-3405 1569 0
3166 -3177 0
639 -459 0
-4438 -299 0
-861 2163 0
-227 151 0
2483 -4674 0
-1235 1716 0
1064 3730 0
-4595 -144 0
2323 1824 0
4659 1822 0
-3873 -2072 0
-198 -3446 0
-1012 -2518 0
-3828 -1096 0
2290 4707 0
1795 -95 0
2436 -3296 0
1241 2329 0
-4063 -1010 0
-3820 3109 0
167 -123 0
460 -3181 0
4458 -2881 0
-2071 719 0
-2444 -705 0
-4340 3516 0
-1708 1384 0
3717 40 0
-567 1768 0
3525 -1279 0
-473 3451 0
-849 3457 0
2529 -2216 0
-4640 -3314 0
574 2646 0
-756 -2076 0
-1081 3076 0
477 4458 0
-1413 3809 0
3248 3364 0
4702 -3734 0
-4523 -1717 0
3310 -4388 0
3553 2485 0
-2202 2240 0
2325 -425 0
4149 -62 0
-2895 212 0
3282 -2179 0
59 1998 0
-2355 -1008 0
-4123 -220 0
1880 -2635 0
2425 -2330 0
-1534 -787 0
3830 -468 0
1168 -4350 0
-4751 -941 0
1432 3309 0
-379 445 0
-1787 3170 0
-1849 1043 0
-3247 -4141 0
-2194 3186 0
4659 2875 0
553 575 0
-1464 -3023 0
-2880 -105 0
-4373 3044 0
1146 -2532 0
-4562 3575 0
-1928 -897 0
-1010 2145 0
1993 -91 0
-2880 -2388 0
3493 3974 0
-3896 1613 0
496 -3731 0
-884 3464 0
2897 -826 0
-336 3507 0
621 -262 0
-367 -3767 0
-1985 -3192 0
2320 -1418 0
1549 481 0
-3261 2082 0
-4566 -1893 0
-4481 2405 0
-2950 -1207 0
1115 886 0
924 -270 0
-1968 -3973 0
-502 -339 0
-752 4752 0
4423 -108 0
1423 1458 0
-484 -2491 0
-2689 2439 0
-3649 4610 0
-3373 -3612 0
-1006 -2693 0
587 -945 0
-259 -976 0
1296 1647 0
-2019 1971 0
373 34 0
1724 430 0
882 -1767 0
-3873 -3464 0
-2358 -1581 0
2919 -4683 0
-1807 -2171 0
2223 -545 0
1457 -4162 0
-2257 -1419 0
4213 -2258 0
1829 3683 0
-2466 -1246 0
1429 -608 0
2102 1112 0
-1931 3457 0
1376 -4040 0
4448 -3377 0
918 -4388 0
3865 -220 0
487 -3102 0
-694 2423 0
4464 -131 0
2018 -3643 0
167 -2963 0
3223 4526 0
3390 -2722 0
147 3852 0
2871 271 0
1680 1538 0
687 1843 0
1746 -1592 0
-605 2767 0
-3086 568 0
4658 4726 0
-562 -2726 0
2270 862 0
2436 -1495 0
1463 -1520 0
3852 4385 0
171 -1456 0
2109 3754 0
3938 -3814 0
1301 894 0
470 3706 0
636 2131 0
-14 -2521 0
1459 -1166 0
-690 2539 0
1470 -4139 0
2413 -1260 0
2994 -1257 0
-4451 1541 0
2408 1914 0
-63 2389 0
-3225 -1152 0
2275 627 0
1487 4562 0
-646 4100 0
-3407 4754 0
2521 3347 0
-800 -1889 0
-1558 -1833 0
1256 -3313 0
4480 -1425 0
4461 2672 0
-597 -3062 0
4182 3908 0
-1146 -1646 0
-1323 3542 0
3061 2020 0
-4618 4245 0
2576 -146 0
1648 -125 0
4029 -105 0
-4618 -2417 0
2403 -3133 0
2493 697 0
3711 4133 0
-4754 -2425 0
-2250 119 0
-3747 -3343 0
-2191 -3791 0
1257 2009 0
-80 684 0
4419 3995 0
2499 -940 0
91 2647 0
-2492 3206 0
-3654 343 0
2278 -2127 0
603 -1568 0
297 702 0
-3840 -2171 0
-948 766 0
-280 -590 0
802 1466 0
-3023 -3853 0
-3388 -3859 0
-1528 -1949 0
-1513 229 0
722 3038 0
3223 -3432 0
-3755 -2787 0
-4247 -1312 0
4225 -2134 0
3282 1609 0
-523 2780 0
-4204 -4399 0
4141 -1076 0
-4463 2156 0
4651 -4597 0
-2 -753 0
-460 -796 0
2768 -4651 0
-4296 -3803 0
1178 3163 0
-3403 451 0
-4003 -2004 0
229 2801 0
1164 -2044 0
-1075 1649 0
-2010 -506 0
-526 1402 0
189 -2611 0
1544 1490 0
-2476 3008 0
-1566 -3668 0
1082 410 0
-962 571 0
-2308 -562 0
-3373 2024 0
-3853 -571 0
-3470 2536 0
3208 -4647 0
1421 -3251 0
437 1091 0
-527 369 0
1423 1361 0
-2466 646 0
-2873 4252 0
676 1507 0
1445 -606 0
-253 -4409 0
-4272 1234 0
4198 3860 0
-4113 2589 0
-3597 3994 0
4514 -3453 0
894 2672 0
1122 -4481 0
-3804 -1153 0
3542 3780 0
-4302 -4113 0
2738 -2095 0
-1907 4593 0
-2997 -2951 0
3841 -4493 0
-177 783 0
3258 273 0
1042 3506 0
2293 281 0
2931 -3784 0
1895 4495 0
851 2221 0
-4492 4742 0
129 -3278 0
-3091 2093 0
-585 1658 0
3739 2706 0
-461 -4429 0
2888 -1593 0
-2695 -3019 0
1898 4404 0
1272 -488 0
-722 -651 0
3526 -4532 0
1130 -2880 0
1525 2252 0
-1591 4355 0
4419 1896 0
1838 1772 0
-3238 -994 0
3912 -896 0
3337 -2537 0
-4226 4540 0
-721 -4039 0
-3299 2598 0
-308 -2188 0
4594 181 0
3145 -3744 0
-1908 -2860 0
-1035 -1464 0
3492 -3174 0
3239 -2872 0
-3897 4275 0
3913 867 0
-1594 -2622 0
3760 2888 0
-125 676 0
4674 2938 0
-4474 2534 0
-110 185 0
-4032 -596 0
-2023 -1568 0
-690 4495 0
3465 -3051 0
2380 4091 0
856 -3154 0
3632 531 0
-2537 -429 0
-2291 3520 0
-1312 2723 0
-2434 -705 0
-762 -16 0
3484 3571 0
673 -291 0
1858 -1375 0
3034 -1286 0
-2000 4520 0
-4283 -1461 0
-647 1256 0
-595 2478 0
-213 212 0
2436 2347 0
-2825 1718 0
-3802 -2514 0
2122 4499 0
-4469 -642 0
4397 -2596 0
2545 2525 0
-274 -2454 0
-2912 -2839 0
-234 -405 0
3389 -1237 0
-2653 2082 0
1220 3049 0
4440 -2630 0
1947 4142 0
-1259 -1238 0
-4314 3711 0
-3982 -4267 0
3242 -2037 0
-2201 1307 0
765 1579 0
-3470 -4529 0
-2667 4697 0
-594 1634 0
-466 -1860 0
2638 347 0
1560 -1710 0
4724 -2519 0
4727 3226 0
-310 -3624 0
4245 3948 0
3584 3490 0
4747 -648 0
-1570 -795 0
660 3598 0
-1733 -4350 0
3706 3253 0
-365 638 0
-110 -177 0
-293 -3601 0
4048 -552 0
683 2221 0
2256 -1695 0
-204 813 0
2345 3417 0
4451 4666 0
-2195 -3453 0
-3650 3250 0
-2360 3553 0
-3630 -4257 0
-681 -443 0
-1247 -4179 0
-2872 630 0
-433 2600 0
919 3723 0
-4295 809 0
3223 2079 0
-2000 -4743 0
2264 -1864 0
2612 1428 0
-3379 -3221 0
142 -2989 0
-1185 2707 0
-4036 -2153 0
3693 795 0
-344 490 0
3585 -3500 0
3763 -1861 0
-4507 1015 0
-490 1907 0
-3950 4663 0
-52 3563 0
2388 4344 0
-3258 -2550 0
-2880 -2474 0
4724 2137 0
2764 -412 0
-4406 -3446 0
-482 2671 0
-4022 -3490 0
759 -9 0
2271 -1211 0
-4474 -101 0
-3392 40 0
3711 4490 0
166 2103 0
1262 2703 0
-1849 -86 0
2511 -2544 0
4473 -4443 0
3432 -1152 0
2568 1387 0
1668 -3148 0
1488 368 0
-1066 -2668 0
-4403 -3316 0
-2918 -3561 0
2481 4445 0
2764 2091 0
-1947 3149 0
3241 -4262 0
-344 2315 0
-3364 -2716 0
4185 3609 0
4328 1553 0
2078 1973 0
-557 1358 0
353 -2566 0
1954 1791 0
1218 1645 0
4425 4664 0
1625 -2148 0
4466 142 0
2270 931 0
2481 -4645 0
-4422 940 0
-687 1196 0
-4463 -3325 0
3533 4629 0
-2653 -3831 0
1398 1838 0
809 2774 0
-737 3608 0
1184 -4552 0
2467 1986 0
-3079 -1380 0
674 3789 0
687 -3982 0
-3320 3187 0
2562 -4140 0
-927 3610 0
-1107 -3952 0
-1708 1860 0
-2427 -374 0
565 -3619 0
-159 3538 0
1703 -669 0
4253 -2304 0
-2421 -1403 0
-2502 -605 0
-4638 1444 0
-3876 -86 0
3557 2072 0
2709 4277 0
69 -2657 0
2861 -2286 0
610 -2148 0
-1458 1712 0
2462 -1554 0
-4359 -3218 0
-4095 1800 0
3981 3469 0
-1794 1278 0
-4235 -4062 0
-4466 3098 0
-773 3989 0
4379 -427 0
-4223 3921 0
4054 -725 0
4306 -2743 0
660 -2186 0
4209 -1012 0
4681 1813 0
-1809 4317 0
-2578 4223 0
-2089 -376 0
-1425 -3431 0
632 -2476 0
-248 3092 0
-3960 -1296 0
2753 -1985 0
2522 -733 0
4346 2579 0
-3463 -1922 0
-1028 -626 0
-2217 1760 0
-1167 -4285 0
1783 -544 0
-97 -3308 0
-4336 -2305 0
-746 -3333 0
3791 4480 0
-4085 -3223 0
1018 4623 0
221 434 0
3210 -356 0
3889 -4485 0
3476 -1860 0
867 -2011 0
737 -3897 0
2789 -2418 0
2975 -4194 0
558 -1386 0
1378 464 0
-3722 -436 0
2310 2271 0
1898 -2037 0
-3947 -549 0
-2362 -626 0
176 -1945 0
-2412 -4205 0
3797 -2708 0
-4246 810 0
1233 696 0
2123 -2157 0
4384 269 0
1543 290 0
1061 4578 0
-996 -3231 0
1612 -2302 0
-4394 -1400 0
55 2582 0
4497 2225 0
3318 887 0
3903 -2457 0
4323 -1312 0
-3135 1235 0
-2976 3625 0
-2669 -2941 0
3339 2903 0
384 -2530 0
-1381 1128 0
4079 -2627 0
-3843 4309 0
-3699 -4075 0
1647 -4678 0
-1765 -3437 0
4252 -549 0
1233 -4076 0
1462 -330 0
3334 -4517 0
1104 -2709 0
4054 -3241 0
2953 -1457 0
-740 1404 0
3294 4294 0
-287 -828 0
886 -701 0
-502 2821 0
1085 1115 0
-2518 -1883 0
-3366 -590 0
-556 4101 0
820 4735 0
-3171 -1296 0
176 -4642 0
-3862 2213 0
-24 2815 0
-1311 3372 0
3206 1046 0
3936 -180 0
-2276 151 0
2928 -2342 0
-1387 3752 0
-4462 -3360 0
4311 4222 0
1104 -2822 0
-2078 -4165 0
3639 -2122 0
3150 3945 0
3591 3847 0
1490 2997 0
-4521 -452 0
2011 2781 0
-890 -2825 0
3031 -3574 0
-3345 3968 0
-2849 -1863 0
3262 -2715 0
-1486 3706 0
-479 3726 0
3270 3526 0
4636 222 0
-790 -2726 0
-1040 -4095 0
4313 3689 0
2819 -802 0
-4189 -3595 0
4598 -3141 0
-4398 220 0
2867 1208 0
-1125 -1481 0
3563 3208 0
4089 796 0
2592 781 0
-1891 2776 0
-2022 268 0
-575 -2678 0
-470 -634 0
3294 2251 0
-1665 -1383 0
-471 1663 0
2279 3376 0
-439 209 0
-4256 1432 0
-2184 -1555 0
-3179 -4167 0
2426 1303 0
-89 3778 0
4391 -525 0
673 2077 0
-6 2253 0
-1615 1686 0
-1290 -4559 0
-2280 6 0
4262 459 0
-3171 4511 0
-990 -3637 0
-1790 -17 0
1924 -3883 0
-2950 4607 0
677 580 0
-3244 -4074 0
1146 651 0
-1186 3893 0
1697 -1023 0
1183 4737 0
1429 650 0
4619 -3028 0
2630 4579 0
-3683 1711 0
-4370 -3754 0
-525 -4353 0
-3557 -1669 0
-3652 -144 0
-1887 -4632 0
4372 739 0
-4406 2885 0
2594 -4387 0
-1190 -2859 0
-3102 2778 0
-3704 -4005 0
2433 2870 0
4194 3909 0
-4755 1739 0
-4494 2954 0
-3210 -2112 0
4031 4544 0
1992 1490 0
-3866 -3369 0
-3862 2659 0
3961 3936 0
-3828 -3710 0
-2585 3597 0
3701 1370 0
1840 1765 0
1618 -4179 0
650 3607 0
-240 -2968 0
448 2608 0
-3019 3740 0
-2718 -1190 0
-4271 -3058 0
967 3602 0
1273 -3483 0
-1201 -845 0
-3183 3467 0
2224 4380 0
-3734 -376 0
-3724 -2301 0
3498 2745 0
-1442 -3393 0
3059 -930 0
-4219 -1988 0
-4296 -3352 0
-1695 -3452 0
-1745 -3207 0
-49 -484 0
-874 -2305 0
-2591 -1724 0
2133 3081 0
444 1605 0
-1262 4534 0
1877 -1544 0
-2446 3809 0
150 455 0
-3054 -3958 0
-4683 -4436 0
-840 2038 0
-944 -4150 0
3080 -648 0
-3917 3609 0
628 40 0
-548 -721 0
-4000 -1089 0
3937 -3190 0
1844 2011 0
4440 4550 0
-2712 -756 0
-2723 -458 0
4240 -4455 0
-4705 3327 0
-2751 -2398 0
4400 -2886 0
3515 2329 0
-3595 2130 0
2718 -3398 0
-3269 -1291 0
-3124 -253 0
-2379 2334 0
2663 430 0
294 -23 0
3538 2484 0
3340 1696 0
1486 -184 0
1441 1848 0
-1243 -1124 0
4715 1846 0
-919 1294 0
3094 -3794 0
-489 1123 0
-493 2652 0
2501 -411 0
4089 871 0
514 -651 0
-2704 -3954 0
3451 -3915 0
-190 1512 0
1115 2475 0
4349 -4356 0
2070 2130 0
-2759 3691 0
285 -657 0
1387 967 0
2411 -2158 0
2804 691 0
-3930 -1093 0
496 4596 0
160 -1349 0
369 -1752 0
1752 988 0
2213 222 0
4044 2294 0
3359 150 0
-4485 2844 0
-551 1993 0
-620 -689 0
2495 -2031 0
4742 499 0
4221 2308 0
-3825 -426 0
1760 -3531 0
-2514 -418 0
2992 460 0
1852 3818 0
1684 -2501 0
-134 -3369 0
4305 2193 0
3287 -1201 0
-1963 -2137 0
2730 685 0
-3987 -2186 0
3788 377 0
2337 1324 0
-2208 -3282 0
1983 -4119 0
827 1850 0
1474 2403 0
-3431 -2809 0
-890 454 0
301 2193 0
808 -3713 0
-1617 -2688 0
3111 -3601 0
812 -1881 0
1202 -1143 0
-1552 -1776 0
3802 -628 0
-1729 579 0
-715 -3630 0
-4201 -921 0
-3737 2778 0
4510 1249 0
2391 3066 0
4668 2975 0
-804 -4065 0
4352 -980 0
2212 -3873 0
-4501 -4349 0
-169 3914 0
-3080 -1584 0
-1621 1126 0
-157 2350 0
-4545 3658 0
3371 -2492 0
-1097 3874 0
-223 -1177 0
1567 -431 0
-199 -762 0
-2438 1507 0
-3389 4753 0
-1644 3311 0
2372 -2518 0
1355 3962 0
4323 1920 0
-1857 -2625 0
1555 -1143 0
-3240 -752 0
3476 -485 0
1170 -4661 0
-1511 -1495 0
67 -2973 0
1144 -3278 0
2164 -7 0
3106 4415 0
-3410 2483 0
3890 -3269 0
331 1357 0
-3135 -2310 0
1025 2480 0
2370 -2757 0
2026 2688 0
-3130 -1556 0
-1603 -2926 0
-3437 3141 0
692 2676 0
-4172 4462 0
-3418 2794 0
-892 4616 0
157 2306 0
-64 -1591 0
-3602 -1568 0
4113 2855 0
2767 -197 0
4302 -562 0
2259 389 0
-1543 3766 0
-2797 480 0
-4029 -4124 0
749 4479 0
873 -4378 0
1718 665 0
4279 2290 0
4238 1390 0
3074 207 0
2951 -2141 0
4323 -1720 0
-1334 3530 0
-3790 2934 0
-2444 3674 0
-1123 -3714 0
-1454 -3219 0
2105 -848 0
2553 1492 0
2156 -3778 0
-1247 3138 0
767 -2887 0
322 3355 0
-2601 1281 0
971 4198 0
-378 -3771 0
-833 -466 0
1375 -2453 0
744 414 0
2620 3362 0
3831 2540 0
58 -4609 0
4169 1534 0
2649 2728 0
-46 -4550 0
567 -3532 0
480 -2761 0
-2890 -3098 0
2241 4416 0
-1578 3639 0
-3371 -4082 0
4211 4583 0
1068 771 0
1811 -740 0
2345 1958 0
-4715 -732 0
-3489 -3004 0
303 3712 0
-519 394 0
-2167 -2983 0
3234 1083 0
-4275 -1030 0
1 -620 0
1864 -3632 0
-4005 2174 0
-3391 691 0
408 -4320 0
746 -2718 0
1084 -2325 0
-895 -2551 0
-1888 -947 0
351 -3741 0
2021 2194 0
3543 -230 0
-4021 4715 0
-2103 -4353 0
4152 1432 0
3850 -3141 0
-3785 -1639 0
-1075 -344 0
4191 166 0
1648 -151 0
-1023 1832 0
755 2618 0
-2438 -3291 0
4357 -274 0
-4733 -248 0
-4005 -2272 0
-2771 -4605 0
-3953 -4005 0
-419 3181 0
2682 -2285 0
3387 1955 0
-2280 -3132 0
4578 545 0
261 -427 0
3827 -1262 0
-4349 1846 0
-2327 2490 0
4670 -4211 0
-3818 1336 0
-431 3629 0
-4351 714 0
493 -4175 0
574 -318 0
-308 1464 0
-1262 -4028 0
3286 2308 0
-498 -4340 0
-283 2931 0
2994 -3429 0
-4442 -590 0
2802 -2315 0
-1368 1039 0
3635 -964 0
4151 3658 0
1973 1712 0
-2444 67 0
-3621 -2194 0
-885 3405 0
3343 2060 0
3329 -880 0
4220 -3727 0
-3193 -149 0
-3146 4020 0
-3629 4608 0
-2429 -1528 0
767 -4567 0
2983 -2412 0
4415 -3779 0
-1858 765 0
-3020 1996 0
3098 758 0
4151 -3654 0
-3541 3359 0
269 2757 0
-258 1900 0
244 -2364 0
111 2467 0
3974 2676 0
-14 -2185 0
-4653 -2166 0
-3360 -1728 0
2769 4068 0
3977 -2974 0
3309 1081 0
-2355 2623 0
-4466 3129 0
-1501 420 0
167 -2010 0
2380 -764 0
-4457 338 0
-1776 -1351 0
-1577 3630 0
-3864 2715 0
1301 3489 0
1674 -844 0
-862 -28 0
710 -2429 0
-2569 1965 0
-1706 -1240 0
988 3133 0
3221 -1909 0
1142 -300 0
4236 -1310 0
-411 4500 0
-3198 3965 0
-3252 4438 0
4127 2740 0
2375 -2337 0
683 -2717 0
-4431 -4403 0
-2769 -1354 0
2823 -1301 0
-3391 -3800 0
678 4579 0
-1129 614 0
-4377 666 0
-598 -3672 0
4307 -2094 0
-4098 3751 0
-4673 -2263 0
1652 2473 0
2205 1429 0
-1448 -4153 0
1062 790 0
-217 -4550 0
3823 553 0
-3443 -466 0
-202 -92 0
-1045 1585 0
-3770 -2076 0
3989 3461 0
-2895 1962 0
1168 -3517 0
742 -408 0
-4226 -3774 0
-1323 -3023 0
4220 4710 0
-4282 -1913 0
969 -3063 0
-3395 1427 0
2127 -4206 0
1485 -1025 0
3181 -2723 0
3038 -2089 0
3556 1256 0
3345 -1442 0
3286 3437 0
-90 873 0
2621 -4451 0
3795 1808 0
4588 1741 0
-2703 2277 0
2441 1752 0
-1824 -3643 0
522 -4744 0
3719 -547 0
2235 -3735 0
-1211 2714 0
-3466 124 0
2980 968 0
-2037 781 0
-4691 1376 0
-4750 -2973 0
3362 362 0
1993 4356 0
-537 -3967 0
2878 -3808 0
2705 3001 0
-865 -4292 0
2859 1298 0
-1803 2169 0
4690 -2129 0
-1477 -4329 0
3299 -949 0
-1959 -964 0
-948 -4175 0
-1289 -3798 0
-1842 2279 0
2409 2069 0
-714 -4565 0
-4720 207 0
-4529 1389 0
4045 -4174 0
122 222 0
3387 -3341 0
3341 736 0
-3560 -3378 0
-2897 4309 0
-3065 -2350 0
2260 -54 0
237 3237 0
2150 -3791 0
-1047 -3028 0
1401 341 0
4122 2750 0
3876 -1353 0
-2598 737 0
2348 901 0
-297 1657 0
2045 966 0
-80 -3413 0
-3551 3721 0
628 -3319 0
4406 -2687 0
1538 1210 0
-2935 819 0
3938 -1721 0
-3079 84 0
-2037 584 0
-1324 -3130 0
3890 -2229 0
-1419 3082 0
-4104 -569 0
218 3606 0
-283 -2212 0
-1448 3058 0
-2185 3425 0
529 -2312 0
-4664 4532 0
-2476 -4509 0
3798 -2570 0
-1596 -2267 0
1585 -3774 0
-3608 809 0
-4074 -3880 0
-4360 1265 0
3126 4005 0
-3723 -3211 0
-410 -531 0
2908 122 0
-3972 -3631 0
3407 -1867 0
-1089 1398 0
1405 -2237 0
-954 -3342 0
1644 1340 0
2629 -1244 0
1457 -3678 0
2259 -1833 0
-1137 -2710 0
726 -1903 0
-1901 2346 0
2104 3061 0
2632 -2638 0
-2638 1287 0
-47 1826 0
-3913 -4096 0
-896 -1547 0
-1464 4720 0
-2111 -3683 0
2382 -1806 0
-612 -2960 0
2595 496 0
-1759 -2933 0
-3268 -1085 0
2666 -3940 0
4495 -4668 0
-3229 -2325 0
3368 2529 0
4386 -209 0
1683 357 0
-1241 2624 0
4015 1882 0
-4281 -4413 0
3610 -157 0
50 -4420 0
630 -3243 0
1897 4455 0
185 1575 0
-1274 573 0
936 686 0
-2448 3559 0
-577 -2636 0
-3194 3328 0
-3593 2424 0
1429 -641 0
-2464 -1867 0
-1136 2273 0
1804 -2328 0
-4661 4384 0
2595 -3904 0
200 4415 0
1939 -4488 0
4377 -1943 0
-3338 2113 0
-1905 -425 0
3613 -585 0
1246 1911 0
3317 -1729 0
1147 814 0
1135 2705 0
2308 -4437 0
1613 -994 0
-3574 2335 0
-2009 1976 0
-3620 2646 0
-3057 1649 0
1919 1566 0
3452 -3197 0
4416 -81 0
-849 -1517 0
824 3234 0
2958 4044 0
3621 4333 0
-1213 3963 0
-4184 -4106 0
3153 -1075 0
-4401 446 0
-3735 3012 0
-3916 -3979 0
3982 -2068 0
-1455 4228 0
1309 -3314 0
-2660 -1037 0
-1957 2309 0
-3579 -3562 0
-4164 -123 0
191 -691 0
-636 -3531 0
2203 -3314 0
-174 628 0
109 -4459 0
-2531 -696 0
-2956 -3256 0
3465 1555 0
-1427 367 0
-3306 -1490 0
2930 -3914 0
-883 2563 0
4497 -2339 0
-2280 -299 0
-89 3733 0
3756 -2506 0
3003 -2754 0
3053 -3926 0
2709 3124 0
1589 804 0
-4166 1842 0
1219 -3599 0
932 -3316 0
-102 1019 0
-2666 -4463 0
438 -4753 0
-3382 2866 0
2813 -4466 0
763 -4483 0
2967 -3739 0
-4682 -2719 0
-2228 1172 0
-1385 2433 0
1288 -903 0
-573 -359 0
-4437 -3517 0
3884 -47 0
4348 -2577 0
150 3293 0
-3391 2498 0
-869 1797 0
1785 4456 0
-4497 -1309 0
2619 -1785 0
3392 3032 0
3676 2568 0
389 1832 0
2340 -2762 0
1767 4323 0
-4251 3094 0
-152 1118 0
-4597 918 0
-2089 -3156 0
3485 2220 0
3143 2045 0
-1846 950 0
4306 -3582 0
-454 2960 0
3276 -4464 0
-3548 -3086 0
466 2701 0
196 2635 0
-4186 -3644 0
3662 4268 0
-2531 -3013 0
-1693 4679 0
-417 2225 0
-787 663 0
2291 -1700 0
-4718 4054 0
2935 3294 0
2339 -4741 0
3188 -3293 0
680 -1003 0
-4526 2996 0
4173 -4065 0
-2080 4454 0
-1797 -78 0
1468 -3778 0
-1610 -1345 0
-4692 -4577 0
-2872 -4309 0
-3513 3052 0
-2992 -4533 0
3590 4629 0
3081 -4520 0
-1185 4610 0
4667 -3656 0
-1427 2943 0
-3332 -2149 0
2631 -263 0
-2579 -3086 0
-2946 2673 0
2205 -2639 0
2025 -1986 0
4428 1311 0
-1345 -2355 0
-1801 -1642 0
-2305 4704 0
-683 1942 0
-2003 3638 0
-3186 -247 0
-1955 -1688 0
1198 298 0
-935 -654 0
4202 -2570 0
4087 -4222 0
2825 -5 0
-2168 3623 0
1395 -44 0
2172 496 0
1194 -2316 0
-4056 -1333 0
2501 -845 0
763 -3443 0
-3939 2640 0
-4376 4041 0
3691 -1803 0
819 2921 0
-3165 -1806 0
-3162 -429 0
739 1755 0
-3473 2013 0
-3655 -632 0
-4431 684 0
-4674 -4393 0
-1683 3587 0
-4285 2856 0
-3903 -3413 0
2443 -2389 0
2745 -528 0
639 4431 0
3030 4050 0
3825 -913 0
1640 -1023 0
1150 4363 0
-1085 -721 0
-3026 2743 0
4050 2173 0
3931 -2786 0
4379 3173 0
2093 -4687 0
15 -4604 0
-874 3206 0
-204 -2669 0
-4098 3713 0
-4194 -2437 0
2493 3178 0
2673 4734 0
-742 -545 0
-1544 3813 0
4154 -1108 0
-225 956 0
54 3752 0
1044 4641 0
2206 3826 0
2302 -4368 0
815 -2951 0
1870 4181 0
-4082 2694 0
-1567 -4 0
2043 4335 0
-3225 1557 0
542 -849 0
782 1818 0
1820 -1871 0
833 -2743 0
-331 1876 0
-3193 134 0
2654 3819 0
-1926 3073 0
1103 -2045 0
4636 -2739 0
-3797 4258 0
-3456 446 0
4740 -3203 0
1903 966 0
2246 -2334 0
-1914 457 0
-2936 -620 0
565 4624 0
-3140 3652 0
-166 2309 0
-406 1008 0
-184 -4624 0
-1931 3732 0
526 -2554 0
2756 -4416 0
-4096 3683 0
-672 701 0
-3056 2914 0
3464 1939 0
2082 -4184 0
567 4456 0
1263 -1980 0
-2881 -823 0
-1179 -3647 0
-3952 3657 0
2530 -2342 0
1074 3132 0
1300 2662 0
1595 -2635 0
-368 -1053 0
3107 -3765 0
329 2614 0
-4400 -1386 0
4285 -195 0
-1249 3005 0
3213 -1325 0
-746 -1221 0
-529 -102 0
-110 1462 0
4497 -4720 0
3923 -3213 0
1542 -1663 0
-2497 -2748 0
-3478 -4690 0
-130 851 0
3655 -243 0
-1762 -3387 0
2433 2199 0
3088 2735 0
4629 145 0
3242 -4552 0
-3165 -2584 0
3362 3634 0
1246 -3782 0
-4755 2199 0
-2758 -896 0
-3282 -1592 0
970 -1323 0
2096 2101 0
-2532 -4310 0
471 3756 0
-556 4643 0
490 3829 0
-3233 -3353 0
3100 3947 0
3163 351 0
749 -866 0
-3460 1189 0
-3033 -1348 0
-2976 4539 0
-1345 -1540 0
67 -809 0
3499 3621 0
-3614 -1997 0
1088 1399 0
3694 -1894 0
1560 -1493 0
1635 -339 0
500 2002 0
-792 3225 0
1317 2602 0
4389 -2846 0
4298 -2281 0
-2666 4105 0
-2635 -3174 0
3498 -3737 0
3010 351 0
-2887 4383 0
4611 643 0
811 -529 0
2370 523 0
-1391 3070 0
-3215 -3704 0
1957 553 0
268 3995 0
252 4162 0
4009 665 0
-554 3120 0
-8 -3633 0
-1856 -301 0
-1410 -1633 0
-2129 1621 0
-998 3457 0
3629 2387 0
1611 1611 0
129 -4614 0
-4203 -2040 0
4530 451 0
-2163 3762 0
1573 3855 0
128 2499 0
1667 -327 0
772 398 0
1588 -4633 0
-2309 3390 0
-1816 -1471 0
-1833 -3740 0
-3450 -912 0
2084 451 0
-485 -3685 0
110 -549 0
410 -406 0
2201 1563 0
3456 -1483 0
3609 -4395 0
-494 -367 0
-2813 -410 0
1877 2507 0
-4019 1512 0
-2784 -909 0
-4221 1279 0
-2705 2587 0
164 -2477 0
-3148 -4551 0
-3387 -4081 0
-511 1657 0
1463 3930 0
1146 2608 0
-806 2997 0
-4334 1825 0
-310 3166 0
-2708 480 0
947 -264 0
3629 4525 0
4182 -81 0
1785 -2231 0
1948 2145 0
4018 3935 0
-1105 3554 0
-4288 -3463 0
3247 4742 0
-3526 -2691 0
191 4024 0
3268 -580 0
2741 1725 0
-2742 -4131 0
4202 -3245 0
-2416 -1211 0
1266 -4106 0
-3801 3418 0
3496 4605 0
256 4530 0
2331 2359 0
-3798 -2691 0
-1504 3792 0
603 -541 0
-123 1952 0
-1363 -2180 0
-99 703 0
3557 3841 0
-1210 2376 0
-4527 3366 0
4597 3366 0
3868 -1161 0
2838 -2964 0
-1319 -3613 0
-3839 -3133 0
-3514 -1788 0
4380 4699 0
-846 -190 0
409 567 0
2421 -521 0
-3238 -374 0
-2858 -3463 0
1661 -2891 0
-3527 2694 0
2908 -2758 0
1217 -3570 0
-3151 -1837 0
3431 -3863 0
2071 675 0
-822 2694 0
1986 -3213 0
1408 2032 0
1884 -2873 0
4695 -2656 0
2982 -3760 0
433 3759 0
-839 1188 0
-146 -3134 0
3094 2801 0
4409 -2130 0
4405 967 0
2167 -3179 0
-1912 -4654 0
-3594 2943 0
-1512 -848 0
-4240 4408 0
4711 -2476 0
4361 2107 0
4156 1907 0
-4514 2478 0
1371 2792 0
-1651 2705 0
-4323 1954 0
-4436 2520 0
3331 3973 0
-2404 4571 0
-963 604 0
1371 -1454 0
-4591 2003 0
565 3324 0
999 4680 0
-1051 3477 0
-3636 2287 0
2294 2663 0
4707 -1011 0
-1527 -2615 0
337 2472 0
4359 3618 0
-823 -3046 0
1305 4528 0
4233 3646 0
2493 -1371 0
-4557 2580 0
-583 -3445 0
-2003 -2251 0
-3531 -1851 0
-627 3082 0
-4327 2856 0
-935 -4485 0
4411 730 0
3818 -2110 0
782 -1263 0
902 -725 0
3376 -1917 0
-3368 -4073 0
2233 -1528 0
281 2708 0
2800 -3970 0
2989 4683 0
2965 2358 0
2541 4696 0
-3418 1884 0
1712 -2613 0
-4576 78 0
-3659 36 0
-2522 -4088 0
-1082 4671 0
-2497 3014 0
-2166 463 0
-3258 836 0
423 -3601 0
737 -1881 0
-4205 2149 0
-1892 -3268 0
-2660 1096 0
-2815 -2748 0
4397 3531 0
-3139 -156 0
-2490 2728 0
-4241 695 0
-3441 3806 0
-4012 3606 0
-2373 4590 0
-1485 1472 0
2107 3738 0
3679 -748 0
3138 -2250 0
-3995 -103 0
-226 1199 0
755 3968 0
-1427 -3652 0
2499 -3754 0
2359 1884 0
-4480 -2757 0
1327 4041 0
3696 -4015 0
-2227 -368 0
-2004 2537 0
-1009 4332 0
-935 916 0
948 -1955 0
-3687 -4180 0
1187 -3142 0
-4199 4446 0
-2506 -3971 0
643 -1299 0
3348 3971 0
328 -4587 0
3001 -1803 0
-1265 628 0
-2669 -1736 0
-3340 1985 0
-392 4733 0
1538 3548 0
-2935 1118 0
-3570 3237 0
-1867 -3592 0
3912 -2478 0
1413 2957 0
-293 1938 0
3920 -345 0
-4051 779 0
-129 -3891 0
1662 -1962 0
-1697 -2739 0
2266 -3047 0
-1733 2682 0
3173 2802 0
2219 1028 0
93 1205 0
-1896 2380 0
-426 -2568 0
4699 -1455 0
-4150 4425 0
3485 -4175 0
-4738 -4734 0
-1117 -1700 0
3666 4115 0
-944 -3509 0
-1352 -1108 0
-1546 2753 0
-2674 -4 0
1233 -3397 0
-619 3253 0
-1119 -4063 0
-4170 3473 0
3918 -2255 0
-1559 -2228 0
2807 -3098 0
-4040 -2188 0
1292 -898 0
380 2679 0
2074 -1141 0
-1583 1088 0
-4253 -3388 0
2714 -3164 0
884 -2383 0
-3336 3346 0
1447 -3460 0
1733 242 0
463 1336 0
4151 -2644 0
-3663 -2970 0
-3215 1114 0
3408 3322 0
2097 -1969 0
-257 -2762 0
4582 2139 0
-53 3169 0
4373 -4252 0
-2814 2401 0
-442 -1934 0
3780 -492 0
-1989 2438 0
-3127 1606 0
-2262 4073 0
135 1310 0
407 -2451 0
1701 -3447 0
1777 -4210 0
1835 3093 0
-2186 1491 0
-2135 971 0
-3379 4276 0
1079 2889 0
502 -1905 0
-1690 -167 0
1288 -2789 0
-1881 -2178 0
2394 -926 0
34 -4504 0
-329 2165 0
-1429 -3602 0
479 3309 0
3371 -1018 0
-1200 -2352 0
472 -1054 0
-3591 -1969 0
3036 1580 0
2619 898 0
1882 765 0
2433 1569 0
-1431 671 0
-2052 3990 0
-4315 -4567 0
4248 -3748 0
-1058 -3626 0
1432 -2803 0
-4136 1606 0
-4078 -2513 0
4354 -1418 0
4212 2830 0
-4567 2721 0
4091 -2906 0
-3504 -1107 0
4266 -830 0
2051 -2376 0
430 -1822 0
2553 -2211 0
2604 3851 0
-4398 -4124 0
-1892 -523 0
1579 -2854 0
-4193 87 0
636 1573 0
-2998 -3875 0
3818 -3253 0
884 4353 0
-85 -2359 0
-4519 -2090 0
-3840 -3949 0
84 2542 0
-1830 -4683 0
-2798 1230 0
1013 -3073 0
-4176 2306 0
150 -4545 0
1767 -4670 0
1827 -3767 0
-1112 -1566 0
3076 4214 0
4686 -3839 0
4366 394 0
-202 177 0
1402 1830 0
3427 2725 0
-2557 3338 0
-4679 -4263 0
-600 -4600 0
2730 -4268 0
-2848 -4525 0
779 505 0
-1883 -4028 0
-3118 -2712 0
2841 2255 0
3667 3076 0
-4082 -302 0
1354 -2476 0
770 4709 0
-2825 3353 0
555 4198 0
-1816 -3053 0
-4688 -2474 0
692 -535 0
-2952 -100 0
-3972 -1133 0
-541 -3397 0
967 -4194 0
2198 1490 0
3691 4596 0
3292 3724 0
-4736 241 0
4363 -3534 0
3826 3005 0
-251 -2220 0
-471 -1822 0
-3231 3556 0
-576 -4371 0
-1504 -4447 0
-2987 -2495 0
-1861 -581 0
3910 -2960 0
1340 -1804 0
1585 1760 0
-1834 3603 0
1228 -4106 0
-3251 -4236 0
-282 4297 0
-4294 -4341 0
-1022 -681 0
-1200 3948 0
3283 -1171 0
-4569 4471 0
4658 2819 0
3434 4258 0
2190 -1591 0
4045 -2564 0
-4618 118 0
-1720 -3956 0
1547 1577 0
-2478 -4714 0
56 -3174 0
-2243 4639 0
-2844 3237 0
2767 256 0
-553 -2716 0
-2024 -1880 0
-3104 -1636 0
-1823 4567 0
-251 1295 0
2161 4700 0
-887 -264 0
-3374 -4113 0
-1155 -611 0
3273 2244 0
2620 4467 0
-2621 -1632 0
643 4307 0
1877 4635 0
-1933 2156 0
-2178 3247 0
-889 -3826 0
-4560 -4254 0
-796 -213 0
3015 -2596 0
488 2248 0
3415 -137 0
2540 -1350 0
1708 -4587 0
-2188 -155 0
-1317 2580 0
-1292 4467 0
-3511 -3287 0
246 -3722 0
-3809 536 0
-4136 -2053 0
-2669 853 0
4666 2923 0
-3840 -2022 0
3974 1383 0
-1125 -4476 0
2676 -2192 0
-387 3419 0
-449 -2597 0
655 2817 0
-1634 -3200 0
668 3559 0
-4677 -492 0
4409 -2646 0
2931 636 0
-620 -2748 0
-3803 -610 0
2829 -1031 0
-4047 3300 0
-2699 -4165 0
4480 195 0
3830 -2523 0
-942 952 0
-3692 4331 0
-4460 -3466 0
-845 941 0
-2555 -4500 0
499 -3144 0
-620 3437 0
3542 867 0
4343 -272 0
-2180 1345 0
2755 82 0
-565 -2570 0
-4165 3955 0
-4520 4607 0
-3334 -4238 0
-1056 -746 0
4456 -722 0
-3937 -1675 0
979 -4454 0
1196 2622 0
487 -2006 0
4208 55 0
4207 -3092 0
430 4288 0
1106 3759 0
-2570 64 0
-1252 -1889 0
-1308 1318 0
-2381 4562 0
-1318 215 0
-4342 4218 0
-785 1072 0
137 -3041 0
-2367 631 0
1659 -3828 0
-3023 2894 0
2478 -4186 0
-1058 328 0
-304 -3996 0
-3365 -4683 0
-568 702 0
-3873 -304 0
-2319 578 0
2633 2401 0
571 -3531 0
-4331 -3644 0
210 2760 0
3017 -2284 0
-3613 -731 0
4624 2877 0
654 1292 0
287 1562 0
4590 -2969 0
404 2565 0
4539 1297 0
-1303 1865 0
613 2448 0
-2651 3021 0
4549 -3378 0
-1539 -2230 0
-2323 2728 0
-3613 2249 0
2461 1300 0
-4375 -2144 0
2403 -1598 0
-2708 1176 0
1994 -2697 0
-2647 -1780 0
-110 2300 0
2711 1730 0
3896 4484 0
4651 -1550 0
-3075 576 0
-318 70 0
-4111 -1785 0
-4082 3403 0
2395 -4414 0
2106 4733 0
2108 -1827 0
-4553 -274 0
-3960 2860 0
-4752 2848 0
-4689 -2179 0
-2332 -4685 0
-1889 -2189 0
3133 3180 0
-3198 -1466 0
2652 1418 0
-3792 2921 0
4337 180 0
2087 -2211 0
-556 -2367 0
1619 -1630 0
-1224 -3472 0
877 -3527 0
1666 1730 0
1011 2239 0
-645 -1756 0
-3248 -2477 0
-269 -4633 0
2921 3005 0
-4750 1011 0
-2593 -258 0
4702 -1112 0
3143 1630 0
2113 80 0
3109 3234 0
2824 1964 0
2938 3513 0
-574 -1211 0
-3353 3390 0
-2074 2517 0
67 1050 0
561 -2747 0
-3150 3527 0
1378 3372 0
-51 -2623 0
-3470 -4155 0
3963 4647 0
-3751 2768 0
-4721 1102 0
420 -1984 0
-3335 -1245 0
-4219 4436 0
-4073 2640 0
-4252 766 0
-1504 3587 0
2383 -1769 0
-2766 -884 0
-2037 3046 0
2847 -1452 0
3317 -3148 0
2702 -4587 0
2840 1101 0
488 -908 0
3599 977 0
-1835 3181 0
3479 1984 0
3829 3100 0
2069 -1374 0
2804 -3898 0
958 -2511 0
-2894 4384 0
163 983 0
1468 4686 0
4247 4531 0
3051 662 0
-2780 -2257 0
3997 3125 0
3794 -2648 0
4687 1365 0
3314 3046 0
2463 -2305 0
-4310 -4092 0
-3083 2334 0
3166 -1949 0
3568 673 0
3807 -4376 0
-2788 1540 0
2096 3863 0
1170 1966 0
1327 4182 0
-1554 -3203 0
-2312 -1206 0
2392 -3894 0
-4247 1750 0
-7 2053 0
-3678 -1596 0
2645 -3898 0
4379 -1682 0
609 -2126 0
4209 1325 0
-1689 2134 0
3047 3824 0
-4560 2728 0
4480 3188 0
3557 -1350 0
381 -2617 0
3860 290 0
2458 -1808 0
482 2125 0
1019 -437 0
2146 1064 0
2409 4335 0
401 2957 0
-808 1721 0
-1215 -1966 0
3750 -1170 0
-459 3515 0
-3201 952 0
-2842 -1010 0
-1279 -870 0
3396 -721 0
-114 2139 0
3989 -2395 0
-750 3450 0
-2765 3325 0
683 -1387 0
-2379 2419 0
4736 2578 0
2760 -2527 0
779 4235 0
754 -2682 0
-1773 -1697 0
3078 2409 0
271 419 0
-938 1398 0
2966 -1678 0
-2708 -320 0
4097 3248 0
-1350 3452 0
-1554 -4055 0
2187 -95 0
1532 -1516 0
-54 3131 0
-3056 3022 0
2203 -2279 0
-2024 2025 0
1340 -291 0
-1792 4367 0
966 -757 0
2949 904 0
2165 -2722 0
-3837 3044 0
2299 -2734 0
-505 -1866 0
-4141 1326 0
4499 -4383 0
-217 -1135 0
3417 -2146 0
3540 -1083 0
440 4173 0
4036 -625 0
3613 -1678 0
1427 3632 0
-3330 -4374 0
663 -4408 0
-4031 -3568 0
3807 -4623 0
-705 -2948 0
2264 1637 0
1875 -81 0
-2606 -2426 0
1397 2789 0
4080 -4262 0
-3141 -99 0
-244 2971 0
774 -3028 0
2254 3055 0
3387 -4298 0
-2186 2203 0
-3542 -534 0
2118 3500 0
3408 -4210 0
182 -3669 0
-1793 -439 0
-106 3277 0
-2875 -437 0
-1359 -2654 0
-2016 -3863 0
-4317 4430 0
194 -995 0
3426 3054 0
1035 -1036 0
2744 1301 0
-217 -3340 0
2697 414 0
3829 -2050 0
-3853 1081 0
4334 -4193 0
3604 -2466 0
2091 -4587 0
-2190 3731 0
133 -997 0
652 2593 0
-4267 1201 0
1972 -679 0
-1259 3143 0
-3433 1433 0
1479 4552 0
2740 3598 0
2476 -1391 0
4676 3508 0
-2620 -1918 0
1399 -2626 0
-2890 1486 0
3522 -3379 0
3770 -2893 0
829 2309 0
-610 -3761 0
-1833 -1799 0
-2177 -870 0
2047 -3414 0
2449 -611 0
-309 -3083 0
3727 -812 0
-2047 -573 0
-4723 -596 0
-4180 -2041 0
396 -787 0
975 -3742 0
2026 2973 0
-3133 1971 0
-1310 347 0
1358 3356 0
3992 472 0
2428 -482 0
321 -3997 0
2083 1806 0
3277 -178 0
-3731 1021 0
1876 1373 0
2882 2603 0
2971 980 0
3992 -4546 0
-1106 -1440 0
2888 -1261 0
3606 -2776 0
3290 -103 0
-2399 -3202 0
-1341 -1780 0
412 -3604 0
1463 -4404 0
2965 -3956 0
-4387 241 0
3411 -4752 0
-2953 2403 0
2461 -4338 0
3484 -339 0
-980 3341 0
-3803 -1615 0
4036 2277 0
4018 -3965 0
-1468 1183 0
4713 608 0
2831 2731 0
3351 3709 0
505 -2242 0
-798 4540 0
22 -866 0
653 -1621 0
-798 4082 0
1398 -3561 0
-4345 605 0
-3464 -3240 0
-2159 4152 0
-549 -1157 0
2279 -3978 0
-230 -3364 0
-4722 -526 0
-3975 3103 0
3589 1929 0
1721 -1707 0
-449 1716 0
-4170 -2136 0
-168 1118 0
3549 4392 0
2887 -925 0
2464 2104 0
-313 2944 0
-3683 499 0
1934 1993 0
2516 -2333 0
2431 3325 0
-2183 -4247 0
666 -2204 0
-4078 -1455 0
-533 -1630 0
-383 -1617 0
419 1499 0
529 2709 0
-3981 -344 0
1277 255 0
4202 -488 0
-1360 2373 0
-123 -3506 0
-879 162 0
-494 3201 0
-569 1517 0
-3831 2491 0
936 -954 0
-3910 1414 0
-939 4307 0
-2732 2953 0
-4055 -3928 0
-4051 660 0
-3569 -3832 0
2002 -121 0
2370 2339 0
-2561 3338 0
3592 2698 0
4629 -2962 0
-4430 1622 0
4120 -4058 0
2092 2596 0
-2881 400 0
480 707 0
-31 1685 0
-2925 1787 0
3821 -2057 0
-3519 -3219 0
2326 4670 0
-526 -526 0
-3236 -2875 0
455 -1188 0
2888 -3130 0
-1689 -553 0
-3165 2525 0
-3045 -2130 0
4574 3207 0
739 1161 0
4235 -2802 0
-4401 2123 0
1008 2017 0
221 3689 0
265 2838 0
-326 -4047 0
1007 -174 0
-502 -3497 0
-230 -3531 0
2131 747 0
-545 -71 0
4566 -1554 0
-2026 3454 0
-335 2699 0
1169 4630 0
-4427 -763 0
2811 683 0
-385 1895 0
-1338 1898 0
4026 910 0
2145 -998 0
84 1738 0
-2527 -1501 0
1601 712 0
-3771 -4561 0
2073 2882 0
-1124 -3170 0
138 -2737 0
2129 1214 0
-3753 2900 0
2467 2318 0
-3593 -3721 0
-2636 321 0
4414 -2765 0
1078 -4443 0
4379 -230 0
-668 -1071 0
1383 -442 0
1303 74 0
3042 -2615 0
1026 -1827 0
2964 4348 0
3217 -4396 0
-676 -111 0
3215 -610 0
4567 4257 0
-4457 3762 0
-4042 2368 0
-1052 1064 0
3890 -2366 0
1532 -3706 0
3037 1275 0
-1291 2439 0
-4508 1330 0
-4620 3649 0
-4037 1502 0
-28 4116 0
2284 -1697 0
212 -1575 0
3002 1001 0
-4621 2645 0
2906 -2984 0
4265 384 0
-1733 -1514 0
-1161 -2348 0
-3302 -2412 0
-2547 -1048 0
3059 -836 0
162 -959 0
3663 2145 0
-4439 3126 0
-356 -387 0
-2213 1175 0
-2541 4572 0
-2529 -3839 0
3977 -626 0
514 1798 0
322 -4313 0
-2273 -997 0
-831 -1888 0
2871 -3872 0
867 4497 0
-2678 -2574 0
-2976 -1201 0
2568 844 0
-27 -519 0
4302 -4463 0
-543 1559 0
-115 -4013 0
-2655 -2097 0
755 542 0
-4085 950 0
4738 1168 0
-4210 -3100 0
-4267 -3199 0
-4247 1795 0
1478 3527 0
989 55 0
3705 3629 0
3709 3990 0
4696 -3828 0
-2861 -4503 0
-3995 -1461 0
-3631 -3132 0
-3738 4516 0
-1317 3813 0
2871 -3077 0
-3266 -1998 0
-3168 -3196 0
-4716 4295 0
3090 -5 0
-707 -126 0
3931 1745 0
-185 595 0
-2719 1061 0
2390 1096 0
-2523 -4182 0
4354 3633 0
429 -1647 0
1633 -3267 0
-118 -43 0
-3789 359 0
2908 1885 0
1068 2846 0
3709 1267 0
-1913 -4547 0
618 1395 0
2740 -3978 0
2876 1761 0
-4390 -173 0
2886 -3694 0
-481 -2575 0
2581 4132 0
4155 4210 0
-4216 1430 0
3030 -1993 0
-552 2315 0
-872 2078 0
-3119 -2004 0
-2936 -1989 0
-937 -4203 0
3048 -1415 0
-2976 4306 0
4686 -188 0
-1387 -2033 0
-1448 -1350 0
586 1221 0
-4744 358 0
-396 4509 0
-4690 -28 0
-2237 2001 0
417 3411 0
-4646 2200 0
2917 1831 0
-793 3479 0
-2455 -732 0
3421 -142 0
-3602 -4094 0
-4302 -3327 0
-2906 2916 0
-1370 2944 0
1777 -2911 0
2828 4674 0
2209 1992 0
2294 3648 0
-2101 1128 0
-4180 3787 0
-676 -1021 0
-3121 1793 0
1138 -2654 0
-809 1045 0
994 -4708 0
-4499 -2312 0
-2135 4494 0
2662 261 0
4433 -2910 0
2934 -4370 0
-616 4243 0
2078 -3365 0
1553 3509 0
2158 3668 0
-4000 -3788 0
2040 2206 0
-3617 -648 0
-3290 3249 0
4456 4555 0
3605 4441 0
420 1864 0
3149 -4312 0
249 -4282 0
-3554 -4638 0
1308 4366 0
-4593 -3812 0
907 1173 0
2074 755 0
4374 364 0
-4527 3206 0
404 -2410 0
-4136 4280 0
664 -708 0
-2307 655 0
-2416 -1348 0
2878 -2251 0
-3065 405 0
-1423 -1047 0
2169 -4546 0
-2301 -3661 0
-3717 -1753 0
-2966 3968 0
-3643 1315 0
3306 -4122 0
3816 2331 0
-3644 3881 0
-3940 -934 0
-4529 1077 0
-3550 1199 0
-2851 -2990 0
-340 4297 0
4458 -4726 0
2248 3736 0
2353 -3453 0
3959 2696 0
4124 2785 0
200 3150 0
1803 1652 0
-4460 3110 0
3942 937 0
-4623 -2716 0
-2216 -3342 0
2311 -426 0
-3641 187 0
2817 4737 0
-3537 3302 0
-1935 1783 0
2588 -190 0
3773 -3910 0
-2534 -3683 0
3142 -4398 0
989 371 0
-2028 3882 0
1436 2856 0
-3913 182 0
3503 -4304 0
1767 -696 0
-3811 -2839 0
4244 -405 0
2261 -2864 0
-1905 -3208 0
2844 32 0
-4232 584 0
-4041 97 0
-4067 856 0
136 -3240 0
415 1487 0
4048 1504 0
2303 -1400 0
567 -56 0
950 -4075 0
3852 -2971 0
-2765 -997 0
2245 1230 0
1791 -4611 0
488 -3652 0
2209 -1305 0
-1319 -380 0
-1323 -3464 0
3350 -3176 0
-4342 1204 0
764 -100 0
-1867 239 0
2957 3796 0
3235 4208 0
672 -1029 0
1545 1228 0
276 1116 0
-155 1133 0
-4413 2550 0
-2669 -4559 0
2909 3910 0
2603 1122 0
84 -3135 0
2065 -971 0
3475 3485 0
2091 -111 0
-3808 2199 0
-3414 623 0
-1105 4421 0
2562 104 0
-3973 -732 0
-1403 -4021 0
193 3230 0
1976 1562 0
1468 -3037 0
1539 -4693 0
-3731 -1609 0
-3350 2342 0
4521 1870 0
-209 3802 0
-2133 -3229 0
-3337 -4720 0
1397 1505 0
-19 1731 0
-2782 -2898 0
4334 -4108 0
1664 -4394 0
1996 2719 0
2584 3411 0
3535 1439 0
-189 1457 0
-217 -1224 0
-1489 2473 0
-2861 -2498 0
121 -3488 0
1544 -4121 0
-4194 4085 0
-1372 78 0
781 -3956 0
-2080 -1072 0
1482 1573 0
1091 -3787 0
-2551 -295 0
-244 3390 0
2737 670 0
881 -487 0
-98 1001 0
4622 -3480 0
-2098 927 0
-3269 4036 0
1246 3055 0
-2415 438 0
-1480 -2116 0
-1966 -193 0
1116 -1091 0
-2670 2426 0
1077 -2902 0
-3356 -2721 0
3043 3377 0
-449 -3301 0
2266 804 0
4 -2325 0
-3862 -1681 0
-1940 4451 0
-1803 3064 0
-406 -3927 0
-2056 3445 0
1134 -4420 0
-4714 26 0
2256 1074 0
761 -3438 0
41 -1697 0
-2244 4060 0
-1872 1943 0
4093 -3225 0
-971 -754 0
-4253 -1816 0
2073 -2053 0
3105 -1454 0
-581 1263 0
-2747 1576 0
76 -462 0
-609 -139 0
3451 -566 0
892 1383 0
-97 2501 0
-2024 2192 0
930 -3442 0
-1873 2985 0
-4568 -1020 0
3300 -1457 0
-134 -2814 0
-3251 -3732 0
-2052 -3461 0
224 124 0
2895 656 0
-129 -2445 0
-1 1509 0
3802 -3806 0
-4660 4720 0
445 -3105 0
4127 663 0
3392 1894 0
-3256 2369 0
1275 194 0
-2508 -2827 0
-2423 4375 0
-617 3007 0
3342 -965 0
-4296 4640 0
-2223 2280 0
4751 -2206 0
1301 3232 0
889 -3353 0
-844 -3192 0
2276 -2511 0
-1521 231 0
2352 4679 0
-3103 -3017 0
-1743 -148 0
4688 -2831 0
2035 -3566 0
3779 -2025 0
-3708 -2523 0
3517 3542 0
-2335 3909 0
3365 2411 0
-1572 4168 0
2890 3756 0
2955 -101 0
-776 2950 0
4564 2410 0
-3704 -2161 0
3403 -3399 0
-1300 2709 0
-1101 1619 0
2471 1392 0
-3055 -1124 0
-2523 -3672 0
-1332 3979 0
-1762 -3854 0
-3770 -2164 0
3469 3465 0
-4252 -2550 0
694 969 0
-4488 1175 0
3935 2755 0
-2673 1819 0
-579 -2700 0
-105 2322 0
4009 -37 0
-271 -2254 0
-3113 -4692 0
-4543 1414 0
774 3529 0
-4279 3310 0
252 2681 0
1857 3125 0
1350 2163 0
-4458 -3414 0
-4349 -4561 0
-150 -535 0
2558 3549 0
-1901 -372 0
-862 -2884 0
3485 -4667 0
1862 444 0
-831 4527 0
3220 -1993 0
-2708 -2805 0
-554 -3586 0
1650 4540 0
3847 3355 0
3912 -4651 0
4254 2462 0
-4084 3889 0
-3884 1264 0
2882 647 0
1391 1080 0
-2738 -3090 0
977 2431 0
4224 -3734 0
2451 -4552 0
2138 -986 0
3015 4034 0
-1498 2580 0
-3541 -1147 0
-1697 -1981 0
3106 1179 0
1197 2140 0
-706 -3539 0
-1820 644 0
339 -3209 0
1626 1255 0
1680 -2746 0
-566 3300 0
3859 2984 0
-1320 -518 0
3039 1100 0
1429 2777 0
1802 149 0
709 2750 0
3531 -748 0
-806 1547 0
3471 918 0
2914 -253 0
650 -1583 0
-3624 1682 0
-949 -642 0
-3948 244 0
-663 2205 0
-1830 -3297 0
3306 1360 0
3196 525 0
-4272 -4449 0
-3375 3183 0
-3650 3219 0
2060 -264 0
-3713 -822 0
2601 -232 0
-4576 -3534 0
1619 -3409 0
-2409 -305 0
-1093 -3270 0
3132 2023 0
2695 -826 0
973 -3135 0
421 461 0
101 -4508 0
-2563 2714 0
741 -1258 0
3250 -1258 0
-3598 4101 0
-2588 -4350 0
-3377 4018 0
-345 -3615 0
-284 -523 0
-2005 -541 0
3849 4006 0
-4288 2641 0
-2257 -1575 0
1224 -1593 0
372 2665 0
3044 2673 0
702 1808 0
4036 -3069 0
1059 3581 0
2017 -1738 0
517 -312 0
-2108 -4288 0
-3437 2780 0
2821 569 0
1048 2008 0
-1824 -1639 0
-3000 -4430 0
-1846 3925 0
-947 2078 0
1413 1104 0
-3504 3889 0
1394 1458 0
-466 4623 0
-1392 -1271 0
337 325 0
-3161 3359 0
2461 2569 0
-1629 -2357 0
-2163 1314 0
2360 413 0
-3041 -3813 0
1291 565 0
517 -2423 0
-98 -3114 0
-1192 -4614 0
1994 472 0
-4714 1208 0
-2958 -180 0
1692 3964 0
88 3880 0
686 -3453 0
1674 -962 0
1586 -1055 0
-1485 3331 0
-2230 -3152 0
2777 -252 0
-3083 1732 0
-1178 -534 0
1972 1866 0
3153 -1420 0
982 -3783 0
-3178 3861 0
-4640 3586 0
-4250 3799 0
-1481 -2577 0
-1368 -3578 0
851 294 0
504 1254 0
2729 -299 0
3283 -1586 0
1201 -4338 0
-2688 3202 0
461 -3931 0
-3559 2816 0
-2839 -1964 0
1879 -2211 0
-2316 3770 0
2862 361 0
-4550 1501 0
-155 4364 0
-824 -3471 0
21 -830 0
3363 -1598 0
2108 -4184 0
4439 2058 0
-825 -1647 0
-4159 3122 0
2712 -1403 0
4521 -3258 0
1985 1981 0
1366 3957 0
4132 4664 0
-3288 716 0
-773 -2944 0
-943 -3135 0
1858 -553 0
3938 3363 0
-3486 4411 0
-467 1907 0
-534 -3016 0
237 -2434 0
-861 2181 0
-141 317 0
-2269 -903 0
3712 -4727 0
-924 801 0
4408 3173 0
2292 -3760 0
-1927 -4186 0
-3359 1648 0
-3734 3238 0
-757 -4439 0
-1822 4308 0
-3956 3561 0
-1242 513 0
757 -1253 0
679 -2771 0
-3429 -4678 0
1173 73 0
441 -2910 0
1040 793 0
737 3288 0
2934 -1477 0
-1756 805 0
3671 -1503 0
-1284 -1145 0
-3270 -491 0
-3519 -4319 0
-4416 -3097 0
-3222 -655 0
4668 -620 0
-683 4209 0
3854 3485 0
3708 -2494 0
341 3442 0
-2766 4149 0
1777 -1706 0
-4116 4688 0
-742 2210 0
-2657 2087 0
-1473 -4457 0
2939 3512 0
-1555 -1029 0
1096 -369 0
-841 635 0
-2175 -1099 0
-4502 -1659 0
522 664 0
-506 2049 0
-511 3309 0
215 -3856 0
-2687 2077 0
-1162 3295 0
4540 -381 0
-2621 -2575 0
-3470 4542 0
-2307 -3370 0
-1141 4464 0
4291 3598 0
-4663 3164 0
-3047 4224 0
2394 -1353 0
2996 -3184 0
-2575 1306 0
-2320 -3627 0
-3363 -2719 0
-1948 3895 0
-1752 -452 0
-3435 -4131 0
-197 2416 0
-2192 -370 0
68 3628 0
1879 784 0
-2752 4105 0
-4657 3303 0
-1504 -611 0
3129 118 0
-4271 2391 0
-2902 -2913 0
-4139 2067 0
-3869 -2578 0
1316 -2513 0
4564 -437 0
-1783 2118 0
-3078 3899 0
4202 -2051 0
3927 -1298 0
463 3561 0
-25 3989 0
2319 57 0
-4685 -3576 0
-114 -4709 0
-3109 3890 0
-52 516 0
-2923 -3624 0
-1779 -3930 0
-376 1545 0
2846 3328 0
87 -4065 0
-2717 2145 0
-369 -1258 0
-4229 -3380 0
-3835 295 0
2835 3882 0
2730 -4434 0
2246 2088 0
-153 -1204 0
-2504 -3039 0
-1440 -1593 0
-3359 2275 0
-2202 -1498 0
1360 -259 0
-1305 2641 0
4368 3713 0
3772 -1258 0
693 4736 0
2061 2850 0
-4598 656 0
950 -4117 0
430 -2347 0
-3409 -1289 0
-4314 3238 0
-1233 3007 0
-205 349 0
1795 -4428 0
920 -3717 0
87 -45 0
-3915 -3265 0
-4603 603 0
1049 -2168 0
-1811 502 0
2011 -3253 0
-3723 985 0
-2787 3195 0
-2084 4530 0
-41 -3665 0
-1649 -283 0
-1087 276 0
2881 930 0
1037 -3115 0
1115 -2950 0
-3523 3500 0
-1734 -4245 0
-1203 4713 0
269 718 0
404 -1697 0
100 2005 0
-4649 2934 0
-238 326 0
1357 3987 0
3951 -4373 0
2889 -3147 0
-71 -1901 0
581 2316 0
3951 1791 0
1930 -2043 0
3202 -488 0
-860 -795 0
-2417 -3657 0
-2209 -1285 0
786 -1511 0
-3572 704 0
-4091 4072 0
3064 -772 0
1716 1983 0
-2657 -1771 0
-2043 273 0
2506 -2138 0
3248 -2567 0
1511 353 0
-226 -2949 0
211 -4671 0
-1608 -1537 0
3943 4343 0
1101 1317 0
-4553 2882 0
-12 -2556 0
-3338 2853 0
-205 2242 0
3886 481 0
593 2904 0
3027 3226 0
2141 -3822 0
1322 764 0
-1304 -3615 0
-635 1264 0
3015 -324 0
4318 473 0
-2898 -3092 0
-1158 -533 0
-4706 3187 0
-528 4484 0
-4187 -3808 0
-4215 4548 0
-3985 4465 0
4579 -4206 0
477 1563 0
3584 1172 0
4468 -563 0
2636 3044 0
4242 -1742 0
-1431 3931 0
-4755 2293 0
3201 1005 0
631 2106 0
4210 -3627 0
3108 3798 0
2561 1898 0
-1842 113 0
4405 -3913 0
3956 -1391 0
-937 -3159 0
204 2791 0
2198 4045 0
338 -3164 0
-3735 -2716 0
-3475 -528 0
1230 -2392 0
950 1919 0
2294 -76 0
1604 -2286 0
2718 -4478 0
-181 -2561 0
-854 2774 0
1686 2702 0
82 273 0
2099 -4721 0
4373 4428 0
4131 -960 0
1550 2492 0
792 -4188 0
-201 4749 0
-2900 1365 0
741 -2056 0
614 2764 0
-4660 56 0
751 -2195 0
1255 -2146 0
-3590 4532 0
-1586 3726 0
-4519 2628 0
-993 4605 0
1919 2960 0
968 1755 0
-1405 3906 0
-922 3982 0
-4055 2597 0
2294 -4060 0
-1158 -2985 0
-1234 3287 0
-531 1816 0
-1456 -772 0
361 3530 0
2439 -297 0
1266 -350 0
-1237 3901 0
3516 1522 0
-4185 -1889 0
1052 1599 0
1819 -765 0
-1020 4754 0
-808 660 0
4639 2624 0
-4174 1447 0
-4195 4477 0
940 4308 0
-4491 -2186 0
-1630 -1531 0
-1873 -1369 0
3953 -4075 0
1986 -3803 0
-4498 -635 0
3710 -672 0
-4168 -3548 0
-3282 -4660 0
2621 -1277 0
2020 -848 0
-4281 3175 0
2783 -4262 0
-1639 1265 0
528 1800 0
4426 -4504 0
746 -355 0
1379 1255 0
3325 2020 0
1720 -626 0
3954 -4059 0
3019 -1965 0
1101 -4489 0
-4741 417 0
-4611 -3939 0
249 -1827 0
-4155 -1353 0
-3281 -170 0
-2927 -4123 0
-1097 444 0
4736 2325 0
2694 4037 0
-2127 2489 0
168 1979 0
-1888 -1725 0
-3636 3607 0
1778 3607 0
-1750 4127 0
-2153 2308 0
625 3106 0
-2446 1479 0
2536 -172 0
3104 4417 0
-4056 2632 0
-1658 -173 0
-4077 -3357 0
-2820 -2027 0
1693 -1666 0
-3165 -1291 0
725 -1320 0
4182 2400 0
-2761 -303 0
-849 -3993 0
2738 942 0
-1402 -3794 0
-2582 646 0
66 -2747 0
1361 3448 0
-2674 -2549 0
-1138 4489 0
3718 3585 0
3235 -3501 0
2467 -2543 0
-1348 705 0
4531 -2798 0
3466 435 0
4075 -2182 0
1834 2104 0
298 112 0
1976 1073 0
-2043 496 0
2001 -480 0
1097 3252 0
-2627 3187 0
-3980 282 0
-4324 -4335 0
-4338 -3209 0
3687 -458 0
-2964 -4601 0
4578 1301 0
3408 -1584 0
-4685 -159 0
-3982 -2271 0
-940 252 0
-65 2478 0
2804 -1408 0
-3543 536 0
-183 -4144 0
3605 171 0
3637 -3464 0
-4393 2500 0
1111 -1008 0
-4499 -493 0
-248 3325 0
2990 2370 0
2574 3733 0
-4038 -3399 0
4306 2006 0
3764 -3677 0
1655 -3909 0
2913 -2448 0
4322 -478 0
221 3693 0
-1525 -4444 0
500 -2065 0
-2636 1438 0
-4698 -2321 0
497 4675 0
2199 2131 0
2225 -4446 0
-2163 -2148 0
-3848 -3896 0
-2691 4680 0
371 4140 0
4348 4109 0
-660 544 0
3909 4672 0
2738 193 0
-3419 -386 0
-2225 -1776 0
670 -761 0
3417 496 0
1569 -1140 0
-2625 4433 0
-3943 4535 0
-2821 -1372 0
-336 3681 0
-242 -3774 0
3081 -225 0
2112 4633 0
-4744 -3297 0
-562 -3101 0
1349 1252 0
-4223 1723 0
812 -4730 0
-4035 4683 0
3816 -3040 0
4361 2078 0
2521 -3535 0
2706 -4262 0
-4325 4256 0
-552 2302 0
-3491 3778 0
429 -1853 0
-1052 -4006 0
-3456 -1624 0
-4591 -1237 0
-3742 -1265 0
-3789 -2328 0
1932 3997 0
3283 649 0
-470 3156 0
-18 932 0
-1788 -3786 0
-530 -1410 0
-1 -4744 0
927 -2164 0
623 3576 0
-907 -4552 0
-662 -1219 0
-4493 1918 0
-1394 2904 0
-1483 -1441 0
2825 1187 0
-1427 3262 0
2702 -1601 0
-1121 -3183 0
-1921 -2728 0
-4478 1563 0
4424 2480 0
-271 4315 0
81 -999 0
1713 1463 0
587 -4293 0
1992 -971 0
293 -1372 0
-2395 570 0
3220 -4387 0
-3123 1662 0
-3599 -963 0
-3239 -4336 0
287 -2430 0
-1731 -2080 0
2672 1952 0
2458 -2230 0
-4077 -413 0
2168 3287 0
-571 -4518 0
-1457 4110 0
-1633 724 0
2070 3596 0
433 -362 0
2741 -1958 0
-492 -1513 0
2876 -115 0
-2885 1282 0
3362 1469 0
-3588 3830 0
629 2735 0
3383 -1664 0
726 1132 0
-434 -2874 0
-4451 2206 0
152 131 0
2157 -2716 0
2433 -581 0
-197 2202 0
3921 4511 0
-3159 -9 0
729 -3631 0
1194 4713 0
4508 -2684 0
879 -824 0
1497 -2989 0
2085 3454 0
-283 1433 0
-599 463 0
-1095 3019 0
-3208 -1410 0
2628 -2264 0
-406 2909 0
-2522 -3626 0
3944 -151 0
-2037 -3671 0
-2291 1049 0
252 -2526 0
1641 3512 0
-4278 -691 0
2479 -1897 0
-4618 3816 0
-3111 1092 0
3310 2903 0
694 -236 0
8 -984 0
3787 -670 0
-144 -2012 0
-831 -828 0
-3472 1869 0
-3003 -3280 0
1265 -585 0
-3425 -3675 0
4550 -4325 0
1151 -3199 0
-396 -3836 0
4717 -3644 0
-4697 4256 0
-4332 2149 0
3089 -500 0
2943 1940 0
3087 -3874 0
-2044 4548 0
-771 -2304 0
-1374 576 0
2649 -1480 0
318 -682 0
3988 -2459 0
885 89 0
-1299 3429 0
3684 3226 0
-1649 -1695 0
4208 1716 0
-1389 118 0
3033 -4689 0
-825 3424 0
3300 -3981 0
-693 2339 0
-4743 67 0
984 4608 0
-3621 -4282 0
-3130 -4052 0
2932 -2223 0
1801 -1051 0
-4103 1960 0
1376 4296 0
69 2556 0
266 592 0
-621 -333 0
-3373 -4437 0
-1224 -2296 0
32 3089 0
-282 640 0
-4318 -129 0
1267 -4698 0
322 3860 0
-3453 2443 0
3032 3098 0
851 -2456 0
-4125 -653 0
2589 -2679 0
1239 -1853 0
3280 -102 0
3564 747 0
-3441 -4662 0
948 4304 0
-2541 -2247 0
3906 1731 0
-1435 -2592 0
1347 1330 0
-1374 1665 0
4647 1170 0
-1019 4347 0
-2611 2248 0
2147 3160 0
-2703 -4524 0
3467 -1912 0
4271 -764 0
3152 -1969 0
2175 689 0
1932 -1319 0
3712 446 0
-4138 2373 0
-835 4593 0
3720 -1461 0
23 -3222 0
-4217 2251 0
2553 -3151 0
496 1977 0
-714 -2785 0
-3659 -1369 0
4343 3925 0
-4119 601 0
-3543 1971 0
89 1970 0
-1539 1045 0
-1159 -1862 0
-2038 1041 0
-3261 1633 0
-3939 84 0
4586 -1051 0
4331 -1451 0
-1555 -3848 0
-2507 -4601 0
-2430 2733 0
-526 -2913 0
3254 2443 0
2611 -26 0
1707 -3058 0
-2489 -2707 0
1081 1749 0
-2586 2361 0
1199 -3144 0
3642 3813 0
4676 2845 0
-4445 -4470 0
1898 -2523 0
3161 3995 0
-512 -534 0
3921 832 0
-1864 -374 0
-2190 529 0
-1968 -915 0
1290 2559 0
-1298 -849 0
2867 2166 0
-1033 3995 0
148 -1669 0
1285 -2657 0
3447 -1339 0
-1047 49 0
455 -1842 0
3726 -1397 0
4513 -2094 0
-506 971 0
4572 -937 0
58 -1858 0
3592 1130 0
-4423 1636 0
-1345 1737 0
1887 1292 0
2459 364 0
4022 3590 0
-3115 279 0
1848 -3099 0
-672 224 0
-2167 -1305 0
2199 -857 0
391 2582 0
2564 1897 0
-2029 -3316 0
1040 1423 0
3667 -1778 0
-798 -3443 0
2858 2955 0
2537 1493 0
4654 -4601 0
-3188 2450 0
-3750 -3085 0
-3513 3435 0
-1244 -698 0
2254 -3642 0
-2126 4537 0
2928 2162 0
702 2688 0
-573 302 0
2941 3082 0
2200 359 0
1832 -3845 0
266 -2324 0
-4548 1790 0
-2823 -4103 0
2042 2782 0
-1949 -114 0
-713 -3607 0
-70 1850 0
4290 2366 0
207 -3252 0
3966 -2780 0
2165 4608 0
-2679 -280 0
914 1872 0
-2406 1686 0
665 4481 0
3763 -1462 0
-4755 3431 0
1629 -3901 0
3160 2686 0
2682 517 0
-2782 -360 0
4351 2299 0
3782 -878 0
441 -1047 0
-1682 2787 0
-764 -2477 0
-2900 530 0
2673 1761 0
4312 -2869 0
2633 -1380 0
887 2426 0
496 -4122 0
3696 3755 0
-383 2958 0
-1792 4123 0
3673 -720 0
-1268 -4755 0
-850 1587 0
520 3425 0
1287 3328 0
-1584 682 0
-917 2832 0
-1189 3946 0
1579 57 0
-3716 -333 0
-2775 3677 0
4433 -3981 0
-4143 -1483 0
1188 543 0
1965 4661 0
-3978 -1240 0
4711 3220 0
-3086 93 0
-1597 3040 0
3117 1222 0
-1445 4564 0
-2219 -3595 0
-4517 -4385 0
721 -4553 0
2517 -1243 0
-2412 3877 0
-1271 3695 0
-1594 3500 0
-4458 3704 0
3522 -3590 0
4087 1671 0
-4669 2777 0
-3226 2494 0
-2875 -3363 0
4033 -1533 0
64 -2330 0
705 -980 0
-908 1230 0
-1260 -1906 0
4411 894 0
-3398 -3399 0
2966 -4595 0
3238 3307 0
1452 1934 0
-1445 290 0
486 4715 0
1454 1088 0
-917 2105 0
-1689 1664 0
508 1466 0
2919 -4360 0
3075 -3659 0
3265 -962 0
765 -3615 0
-1500 925 0
1875 -2773 0
3730 3034 0
-218 -4592 0
4528 -2568 0
-4388 -993 0
2807 4745 0
-3781 3994 0
-316 -2554 0
-1610 134 0
2961 3741 0
-3852 1457 0
3747 -2971 0
-51 -751 0
-2596 3616 0
-1962 -265 0
-3650 3638 0
-1255 2871 0
4131 1683 0
1032 727 0
-3596 -3090 0
-1076 1084 0
-2658 -1157 0
4619 -2204 0
3492 -3204 0
2997 -3332 0
-2428 815 0
2369 4616 0
1688 -1647 0
1205 1331 0
-4144 -4280 0
-415 526 0
-3378 857 0
2860 -62 0
-551 3652 0
-2945 -4111 0
-2474 897 0
3934 4689 0
-3594 1242 0
-96 1333 0
-835 -890 0
263 353 0
441 -1348 0
4312 -1658 0
449 -168 0
-4644 2085 0
4628 -3141 0
-1852 -2296 0
617 -4626 0
1717 1519 0
-2895 -1688 0
2894 1970 0
1317 -1702 0
2810 -3009 0
-2264 1233 0
4604 3289 0
2800 -4324 0
3537 -778 0
-2732 -1584 0
3129 -1253 0
4520 3886 0
-4620 3294 0
2366 -1154 0
-111 -3601 0
-57 -2960 0
1532 4152 0
-2466 2170 0
-3377 2326 0
-1481 -3256 0
2960 -1567 0
3752 -40 0
1215 3772 0
748 2834 0
-1096 1800 0
-470 2179 0
2725 3311 0
2484 -1136 0
-3884 -3181 0
-1763 -3732 0
-3098 -3455 0
-2814 3443 0
-748 2253 0
-2558 1860 0
-4122 -4008 0
793 -3676 0
-2890 1877 0
1903 -4444 0
-4093 -2137 0
-1165 -4157 0
2208 -225 0
-3215 -3332 0
-2924 -3908 0
-4518 1520 0
128 -323 0
3932 1539 0
-3202 3401 0
109 2794 0
49 -879 0
3578 -3776 0
1791 -4646 0
-3681 -1030 0
-144 3498 0
-3988 2254 0
2924 3933 0
-161 2778 0
265 2766 0
493 -454 0
3076 183 0
-4272 1341 0
-1669 -667 0
4554 1910 0
-1518 -710 0
4732 -4174 0
-2684 4536 0
-939 2434 0
3033 3380 0
-3720 -4078 0
-1479 3126 0
2622 715 0
1314 -2437 0
2514 -235 0
604 184 0
2339 -3001 0
3090 -1250 0
515 -3032 0
-4099 4048 0
145 -3025 0
-2604 -2796 0
-4441 -2959 0
-850 -1861 0
-787 -334 0
4679 4520 0
-511 -350 0
3341 1609 0
3486 -171 0
-4533 3775 0
-1007 -3577 0
3131 1390 0
-4650 -1381 0
-3633 2507 0
-4057 3021 0
1120 727 0
-306 -4574 0
-3357 -3462 0
2909 2004 0
-1298 2648 0
4267 1971 0
-3063 4178 0
2911 755 0
494 4654 0
-1734 121 0
3237 2420 0
-1247 1652 0
132 -4164 0
2511 -5 0
4674 2379 0
136 -4555 0
4305 4353 0
93 -2120 0
-415 2246 0
-4035 3921 0
-4541 -276 0
-2474 -3949 0
-2787 -3438 0
3145 -2911 0
-2320 1939 0
431 3634 0
-3689 375 0
-3221 -3395 0
2882 4637 0
3201 3284 0
1961 -1688 0
-3597 -4107 0
162 3205 0
-1983 -1566 0
4393 -3811 0
-2587 1225 0
2011 4742 0
4447 -3502 0
-4416 2316 0
220 -264 0
419 -2491 0
-4437 -381 0
-4703 -3465 0
-3054 -3244 0
1518 -4292 0
2140 -934 0
2695 -4609 0
-2377 1046 0
-4092 4001 0
-2766 -3088 0
231 -128 0
-1258 1367 0
-3217 2405 0
-4107 3542 0
-1212 1073 0
-504 2910 0
3279 3736 0
2683 -2762 0
-569 398 0
4006 4677 0
962 -4441 0
-721 2124 0
225 4036 0
4627 1783 0
-1325 2974 0
1544 -386 0
-2 -2033 0
2570 -4107 0
119 907 0
-3952 -3513 0
-962 -1204 0
1706 -364 0
180 -2747 0
98 -3132 0
-2369 4607 0
4462 -4654 0
2636 3095 0
-1358 1919 0
4091 3904 0
-117 950 0
-2056 4064 0
-2146 2483 0
1102 -4016 0
2029 -349 0
-562 372 0
3873 4632 0
-1598 -2654 0
-512 -3060 0
-2074 -527 0
402 2285 0
-3371 1118 0
-875 -206 0
-2039 1211 0
-4492 270 0
-2432 -724 0
2811 3255 0
1053 -2504 0
350 2571 0
1360 -2419 0
-4371 3805 0
2790 2102 0
3266 -1051 0
-3425 -4634 0
2281 -376 0
3483 3382 0
-4628 -1100 0
2965 2720 0
-4318 -3466 0
1517 -3473 0
3396 -1691 0
2071 2538 0
2641 -2371 0
-4367 -3309 0
-1572 2980 0
-1637 -4401 0
1703 -3984 0
-962 -1855 0
4206 -928 0
-3716 -1224 0
1234 2811 0
-1690 -4198 0
-2958 1916 0
1911 -3261 0
-2346 -2452 0
-2596 -3627 0
550 843 0
-2079 445 0
4449 -4350 0
1656 967 0
4567 -2381 0
4492 2701 0
-4681 -3413 0
4499 -3148 0
2421 3813 0
-589 -1236 0
-2448 -200 0
1384 2682 0
-457 729 0
2692 -4225 0
3659 -1392 0
4254 -4717 0
-2239 3256 0
-2330 -1147 0
1258 4364 0
461 -1915 0
-4749 2253 0
49 3130 0
21 -2710 0
-1046 4563 0
-2485 1209 0
-1737 645 0
3937 2525 0
2766 2871 0
2886 -2876 0
2969 -1540 0
-3052 331 0
1226 -2874 0
4392 -3691 0
764 13 0
-3598 -1216 0
-313 -1278 0
437 1855 0
-3067 -1304 0
-1733 -3335 0
442 -2457 0
-711 2916 0
2525 -4729 0
3545 -380 0
-2182 4030 0
3165 3486 0
1193 -3902 0
1747 4639 0
2652 3342 0
-2989 -1719 0
-2750 -1379 0
-1665 -3929 0
-3864 -3670 0
2061 574 0
-4135 -4099 0
4685 -105 0
-1749 -33 0
-3496 93 0
-2370 410 0
-1550 -1642 0
377 2494 0
-1462 -4405 0
-1762 1147 0
689 -4243 0
805 -199 0
-482 2092 0
-4148 3476 0
2337 -1967 0
-251 3545 0
623 770 0
3743 2005 0
1663 39 0
3777 -3101 0
-406 62 0
-3621 -2186 0
851 231 0
-1796 2020 0
-2093 3527 0
-685 -3757 0
4719 1048 0
-849 3024 0
3814 1972 0
4070 -2230 0
-1153 4081 0
107 -4188 0
57 -541 0
-4011 -3222 0
-3590 2651 0
465 -4156 0
1585 2932 0
1605 2943 0
-888 686 0
1363 3732 0
4568 -1350 0
4318 2777 0
-3088 -1782 0
108 -4712 0
4417 -1784 0
1749 4260 0
-4669 -2177 0
-3760 -2081 0
-1033 3419 0
2629 4018 0
-2018 4477 0
-2905 3547 0
694 -1016 0
574 883 0
4058 354 0
-866 3890 0
-1822 3842 0
1468 879 0
513 1231 0
2685 -3272 0
3853 294 0
3042 4066 0
1073 -3671 0
-2411 -2523 0
-4691 3546 0
-1620 -1457 0
652 1214 0
-3580 982 0
1589 1649 0
-4183 836 0
-1469 321 0
2858 1496 0
4453 -1966 0
-2490 -1602 0
3289 3007 0
2566 4526 0
-3887 546 0
4105 3851 0
-3841 3503 0
-1766 -827 0
1539 -347 0
844 644 0
1144 4606 0
-3307 4379 0
1075 4204 0
-17 2661 0
-367 -2605 0
-792 2925 0
4048 -3013 0
-3467 915 0
-2952 -3969 0
2545 3819 0
-2490 -3759 0
1439 3649 0
-4550 4716 0
3775 -3777 0
-467 1387 0
1854 -4096 0
351 4096 0
449 -4263 0
3668 -3788 0
2244 -652 0
367 3153 0
-86 -953 0
-2829 -913 0
582 -3947 0
4228 -4455 0
886 -3924 0
-848 -2290 0
-1951 -504 0
2375 -724 0
-2591 -1538 0
1319 741 0
1168 -3330 0
-2999 -2743 0
-4401 4245 0
-4106 -700 0
-3870 1573 0
-3814 -4622 0
-1691 485 0
4636 -632 0
-1536 -599 0
-2142 267 0
352 -4474 0
-2452 -628 0
-3457 -4587 0
-2988 -2772 0
4694 -4268 0
-605 -4483 0
2616 1306 0
-2884 1494 0
-1014 1313 0
3310 -4215 0
2729 4364 0
-1916 -3241 0
-3842 3773 0
955 3866 0
4740 -3355 0
1911 3325 0
1288 -1102 0
-905 972 0
464 4501 0
-2869 -3041 0
-1234 -4746 0
-3569 3762 0
-2519 -576 0
-1923 -111 0
277 2633 0
-4324 1898 0
411 -431 0
-4181 2078 0
-2055 -2466 0
-4479 4625 0
-3366 3021 0
-3189 4704 0
-1509 3500 0
-1033 2439 0
609 2259 0
2028 120 0
2311 -1124 0
-523 -2339 0
2640 2661 0
419 -3210 0
1739 2339 0
4265 -2018 0
-448 -939 0
1409 2942 0
-3550 -1654 0
3849 3527 0
-1888 2458 0
2428 3044 0
2375 1869 0
-2258 2975 0
3944 1804 0
-1856 1853 0
-3964 -1731 0
4672 4443 0
4749 -1596 0
4115 -1902 0
-2126 3981 0
2235 679 0
4688 2109 0
-2221 1984 0
-1624 -2435 0
-4360 906 0
1980 -3720 0
1146 -1691 0
4511 4525 0
-3409 -2573 0
-4310 1083 0
649 1479 0
-4550 -4087 0
-4369 -4189 0
4455 -1093 0
326 1832 0
-3448 2572 0
1631 1126 0
-1054 1652 0
3453 -4741 0
-4718 4105 0
1992 1894 0
2516 -3873 0
-2541 -1551 0
-3863 3117 0
-4139 3959 0
-3987 -945 0
-4096 2558 0
1064 -331 0
508 787 0
3030 -3103 0
-2902 -2333 0
-3984 -1634 0
-1084 1468 0
1559 -3171 0
163 2247 0
-3613 2206 0
4086 -2045 0
-3406 2109 0
630 3072 0
2623 681 0
2464 2721 0
1623 -212 0
-2041 -971 0
-949 3403 0
1526 2018 0
2692 52 0
4537 130 0
3793 -3086 0
-568 1910 0
-4502 1644 0
-1665 4236 0
367 -3956 0
162 -3189 0
-2520 -834 0
-1688 -958 0
314 -4365 0
-2247 4018 0
-3113 -3929 0
4754 -1602 0
4734 -3619 0
1512 3877 0
115 -2602 0
-1491 -1934 0
3283 3182 0
-1823 52 0
2791 1824 0
135 -3570 0
-2172 2306 0
-356 -1353 0
305 3795 0
-1339 -3989 0
3285 609 0
1140 3717 0
-291 -844 0
-818 570 0
691 1590 0
-205 -2664 0
3687 -1141 0
3545 2259 0
-879 3346 0
4109 2319 0
-714 -69 0
3421 -275 0
224 -3031 0
-3740 1428 0
2103 1441 0
-4083 2391 0
546 4640 0
1225 -3069 0
3772 -3148 0
-735 2775 0
1746 -3972 0
2202 -2745 0
2972 1064 0
2460 1081 0
-2369 -3078 0
2110 2085 0
1417 4037 0
-2591 -1107 0
-628 2409 0
2735 2288 0
-2190 845 0
2332 -722 0
4368 2357 0
314 1432 0
1155 -3996 0
1657 2531 0
-1723 -3111 0
-4618 4353 0
2672 203 0
-1600 -4388 0
955 1906 0
4579 1744 0
-3951 4054 0
-3846 -4707 0
-2826 2608 0
1365 3482 0
-3838 -350 0
-23 -1145 0
-1780 -2081 0
-2812 -2068 0
-555 242 0
4377 -1403 0
-1345 277 0
1367 -882 0
-3361 -672 0
1890 -1929 0
-3344 -1261 0
-493 401 0
2936 -3735 0
2932 -222 0
4137 -4347 0
-3971 -4351 0
4487 3119 0
-2113 -3345 0
1982 880 0
-2125 -4085 0
-99 1273 0
963 561 0
-1896 1618 0
-866 -3598 0
-4561 -933 0
-494 -3947 0
-396 1995 0
-2134 -4685 0
-753 2566 0
-4159 451 0
2146 -1491 0
3280 -3184 0
-807 -2627 0
4161 3326 0
-2213 -4464 0
3603 -1410 0
4079 -2097 0
256 -15 0
-2826 -679 0
-2720 -350 0
-3443 -2053 0
-2235 4572 0
-232 2759 0
1978 -3184 0
-3139 -1448 0
-3000 3506 0
3054 -3470 0
-2675 -1243 0
979 -1381 0
3527 -2632 0
-4501 -2280 0
689 3909 0
237 877 0
4202 2592 0
1599 3646 0
779 -3806 0
1758 -3475 0
3542 -3822 0
-4041 4123 0
2041 -4591 0
-539 -4178 0
-1817 -815 0
-1566 3615 0
23 -1678 0
-4551 4329 0
-2304 680 0
3180 -4433 0
2221 1951 0
2782 -839 0
-1286 1732 0
1142 -3073 0
2023 706 0
-923 4289 0
945 278 0
1430 -2555 0
1225 81 0
1872 -727 0
2292 2661 0
3425 -4697 0
-4431 550 0
2060 -1525 0
-1771 2857 0
1597 -30 0
3208 -3875 0
3156 -119 0
-4501 -3077 0
764 -3656 0
-4414 -2491 0
-4466 2418 0
1111 -680 0
3698 644 0
2209 -3917 0
500 -4065 0
2762 2246 0
4106 -3535 0
3962 1412 0
4286 -4478 0
-4007 -629 0
-4313 4038 0
1280 -2053 0
-4399 1489 0
2317 3604 0
-3455 -4432 0
-1253 -4528 0
886 -2849 0
-3900 -1166 0
2812 -1860 0
-2564 555 0
752 4050 0
-2860 3780 0
1903 3306 0
2241 840 0
196 -2459 0
4173 -712 0
91 -1498 0
2401 -748 0
-4550 -3849 0
-2127 -4121 0
-1792 -4523 0
434 2232 0
3275 -2086 0
-82 -2625 0
-1551 -547 0
-1179 4291 0
3049 3894 0
1659 -551 0
-3916 -871 0
-4452 -4634 0
3823 84 0
-2324 -4185 0
769 2535 0
460 4044 0
496 2401 0
-1080 -3314 0
-3447 1651 0
3923 4751 0
-791 -4726 0
2110 2626 0
-1456 -1069 0
3621 4671 0
-1853 4445 0
-3703 2860 0
3122 920 0
-905 -2021 0
-3357 1574 0
1724 2052 0
-1021 -68 0
3236 346 0
-1007 -2140 0
-1960 -330 0
1965 -3717 0
2997 -750 0
-2388 -2495 0
1901 -4062 0
-621 1875 0
2180 -3213 0
4027 -486 0
1959 1916 0
3667 4285 0
2933 -697 0
-2668 -668 0
-2425 277 0
2886 -349 0
2087 -962 0
-3291 -1525 0
147 -1833 0
-253 -1543 0
-1019 1007 0
3830 2942 0
-59 -2911 0
-1705 -4112 0
3996 2023 0
-3234 2207 0
-2024 -723 0
745 -4074 0
-4494 2060 0
-3814 -2760 0
3347 1652 0
4212 3875 0
-3388 -4755 0
1916 -39 0
4343 -4722 0
1812 -2449 0
-4000 4738 0
-3056 -4199 0
-1253 -36 0
-2084 4302 0
1717 -1813 0
3382 4494 0
-1273 -941 0
1875 -168 0
-1586 -1053 0
-4217 -988 0
-3433 -2641 0
-4552 86 0
-3377 3937 0
-3017 -2006 0
-2881 -3174 0
2216 4229 0
897 2565 0
3060 -2065 0
-154 -573 0
4611 -2718 0
3607 1306 0
1677 -216 0
-3474 -380 0
265 1390 0
-4131 -1699 0
-2444 3708 0
2322 -3101 0
3333 -206 0
-1741 -4741 0
-3902 3397 0
-2564 -4452 0
3082 2215 0
-572 -1501 0
-4427 4459 0
-2130 3832 0
-1437 4014 0
2031 -3548 0
-3967 2405 0
-1229 1951 0
3560 949 0
-2523 4459 0
-974 -1920 0
4745 765 0
1606 -4125 0
-3413 3080 0
231 1062 0
4675 -603 0
-4042 -262 0
289 -2412 0
-959 427 0
2318 -3972 0
-2149 2776 0
765 -3393 0
4612 -18 0
4631 -669 0
-3940 -335 0
1897 2495 0
-2436 -4195 0
455 581 0
3150 180 0
461 -1491 0
-4576 -1991 0
-2758 -3300 0
138 -95 0
-3575 -2725 0
3245 2292 0
753 2610 0
-3363 375 0
-1970 -3899 0
2406 -1530 0
-4281 3592 0
-3432 -308 0
-1966 4391 0
-324 1790 0
-1951 2646 0
4703 -4129 0
-312 -4132 0
2092 -884 0
1227 4201 0
3469 -2983 0
-4311 -226 0
1258 -1366 0
-2567 2058 0
-4633 978 0
2825 -4587 0
-1663 -3822 0
253 -1515 0
-645 2614 0
-1717 3906 0
-159 -2471 0
4674 2336 0
-1291 673 0
4705 -1878 0
-3941 -2772 0
-374 -1719 0
-1166 -504 0
2065 2511 0
-1373 3662 0
-4028 -2186 0
-2927 -1041 0
1213 945 0
1529 -2807 0
762 -2393 0
2679 -2121 0
-2695 -4559 0
2395 -3090 0
-4067 2700 0
1478 1662 0
-368 -2873 0
2688 2337 0
-613 -4340 0
3160 -642 0
-3146 2771 0
-4634 -1519 0
-1574 -4071 0
-35 -1205 0
265 -4720 0
2997 3396 0
3999 -95 0
-4166 -1722 0
-1889 -3133 0
-4406 2020 0
-4061 -3065 0
-3220 -3204 0
-1667 4152 0
-2611 1717 0
2670 887 0
-1914 -1483 0
-4224 -1036 0
-112 4706 0
-1625 2975 0
3385 1671 0
1819 2781 0
-3819 -1998 0
1677 4113 0
97 -3382 0
-282 -4386 0
3984 -3121 0
231 4177 0
2252 -1323 0
2485 2819 0
2958 -3115 0
2278 2106 0
-3374 -2019 0
1301 -1610 0
-3857 4204 0
4473 -1355 0
755 -4247 0
-2380 228 0
-973 1801 0
-1761 -3414 0
-4302 -380 0
582 -717 0
-1931 952 0
-4614 1290 0
-4239 1482 0
-4063 3741 0
-2412 -2430 0
-85 -1498 0
3634 -357 0
-4696 -1359 0
1187 4158 0
-4370 2866 0
-3313 -191 0
1313 2930 0
1905 -959 0
535 1310 0
-1738 -4061 0
-1745 -3149 0
-707 2067 0
1677 1650 0
-877 -3638 0
-2026 -2851 0
-4642 2565 0
37 -117 0
-1016 4494 0
-2603 -3734 0
3024 85 0
-1679 -2015 0
-2460 4264 0
-2752 -1999 0
-1185 -3520 0
3422 4473 0
-1380 -3897 0
106 -951 0
1925 4109 0
3208 -166 0
857 -930 0
2776 -4466 0
-52 1171 0
3995 -720 0
-2629 -413 0
-1792 1339 0
-1130 -2981 0
-1961 2421 0
-1808 147 0
1371 2346 0
885 -4339 0
1773 -20 0
559 4433 0
-3284 -4388 0
601 3455 0
4030 1668 0
2138 -1450 0
149 3691 0
3226 4741 0
1769 164 0
2394 -2108 0
3943 3698 0
-234 -339 0
1446 -2108 0
-4077 -2768 0
-2468 4697 0
1357 -2146 0
-1738 4190 0
1550 3525 0
4022 2133 0
3814 -4626 0
-2487 -4195 0
-3996 4638 0
-3880 4361 0
-1347 336 0
-2077 1506 0
-2656 508 0
1736 2034 0
-2419 -4613 0
3165 4390 0
420 -2198 0
2939 -2139 0
-1279 4436 0
-3155 -4359 0
-2188 -3393 0
-283 1043 0
829 2461 0
4440 -2782 0
2385 -516 0
129 1994 0
2351 2422 0
-710 2998 0
1846 -4064 0
1492 -2920 0
-1586 43 0
812 3704 0
-1106 3583 0
-1483 -1763 0
1233 -1923 0
-1858 -2442 0
3602 4428 0
2588 -4155 0
4717 3119 0
896 -1759 0
-2239 3754 0
-3090 3053 0
-209 -1695 0
-1771 2516 0
3824 2149 0
-989 665 0
2428 1150 0
-2096 -3393 0
4374 1243 0
-1642 765 0
-1512 763 0
3781 -1689 0
3010 -4281 0
-3543 4321 0
-3732 4515 0
1227 4232 0
728 1490 0
3038 -2223 0
-1536 2456 0
2173 -774 0
2754 -2095 0
-4138 -3839 0
4681 1741 0
-1409 1520 0
-1868 -3758 0
321 1911 0
166 3158 0
1486 522 0
-3626 3700 0
3522 1074 0
-2868 3038 0
-2818 3787 0
-1116 -1707 0
1147 -2073 0
-2747 -3087 0
1446 2267 0
3933 -3119 0
-1981 -929 0
-4573 -426 0
-145 1383 0
623 -2903 0
628 -2447 0
782 3901 0
-4396 -1055 0
-3529 -3305 0
3882 -4132 0
1667 4672 0
1263 -3174 0
-3875 -758 0
-4439 3038 0
-1633 3685 0
-3873 678 0
372 4457 0
-3799 1267 0
2267 2267 0
1927 483 0
2206 3904 0
4552 3935 0
-962 -4712 0
-796 -1962 0
-2510 -1587 0
100 4638 0
3797 -4197 0
-1913 3841 0
-4663 -1581 0
2921 3819 0
-3468 354 0
3049 -1634 0
3010 2272 0
4226 -112 0
2974 -2624 0
521 -2111 0
-2008 -3367 0
-3378 -2073 0
-2691 3938 0
1576 -2606 0
-1774 1869 0
118 3797 0
-2650 -3814 0
441 2714 0
2811 -4385 0
-2291 460 0
2317 2235 0
-1842 3214 0
-1163 -437 0
1791 3664 0
992 -1921 0
4142 3461 0
-3790 3847 0
709 -39 0
3962 -2701 0
-2858 -4746 0
1267 655 0
-3015 -1964 0
902 -4664 0
1622 181 0
-1854 -883 0
-847 -373 0
-3290 2532 0
-3354 -1565 0
-2510 -3448 0
1716 -2378 0
1999 3758 0
2220 1068 0
-4387 2670 0
-1268 -1580 0
2414 -361 0
4630 474 0
-1320 1398 0
4536 909 0
1970 623 0
-2056 4276 0
-2376 3354 0
4107 -2854 0
-3809 -2959 0
-4115 -5 0
-4704 3711 0
4690 1643 0
-873 -3303 0
-651 959 0
1412 1499 0
1662 -2860 0
-1776 969 0
501 2714 0
-1422 -3834 0
-2469 -3603 0
-1190 -4085 0
-2968 -2191 0
-4168 -1340 0
3918 132 0
-94 -350 0
1012 -283 0
-1384 -3444 0
-1139 4489 0
109 -1188 0
-2899 -2613 0
-340 1645 0
-1696 2780 0
-2515 -2964 0
2009 -2617 0
-3132 -843 0
4309 119 0
898 -178 0
2878 1860 0
-3666 -891 0
-2157 1322 0
433 3897 0
-2758 2939 0
-4067 -4466 0
3173 -1030 0
-3778 -1626 0
232 2972 0
-4373 2958 0
3042 -1021 0
2552 2150 0
-3351 1001 0
-3408 2828 0
3625 4605 0
-4276 -4300 0
-450 3985 0
-3484 2450 0
3899 -1018 0
-3786 -2164 0
1629 -4633 0
-4713 -2782 0
2821 -1812 0
-3157 602 0
1314 1579 0
3526 -3282 0
-465 2101 0
-2144 3298 0
4280 -3873 0
-4363 149 0
2424 2380 0
-4096 -2797 0
-2198 -1789 0
-3008 381 0
-719 2993 0
-760 4701 0
-2987 1754 0
3246 -4306 0
640 -167 0
4646 -4043 0
-1625 -1549 0
2115 -1442 0
-941 -3631 0
1964 -3902 0
4024 -2837 0
-4338 -1242 0
-3204 -1054 0
3964 1276 0
-260 1733 0
-3526 -4199 0
609 1876 0
-85 -1911 0
-132 -206 0
636 3588 0
2261 -2191 0
489 3833 0
4477 505 0
-3515 -498 0
3275 -2399 0
1316 4754 0
4324 2100 0
-905 1082 0
-3637 -2629 0
3357 4354 0
-1489 -445 0
3861 2998 0
-1751 -1243 0
-3316 1266 0
32 -3784 0
4527 3250 0
3268 -60 0
-2601 -4338 0
4189 4305 0
2877 -577 0
3353 -3565 0
-808 501 0
-25 -1161 0
3594 -3926 0
2842 4368 0
828 -1943 0
-1419 1414 0
-4130 3639 0
411 -539 0
-1586 -2650 0
-360 206 0
779 -813 0
-4494 2801 0
1523 4018 0
1396 -4641 0
-3052 4705 0
3114 3824 0
3156 4680 0
-2358 -3316 0
-1221 3158 0
-4363 2313 0
4626 3591 0
-1829 -1830 0
-861 -723 0
3314 -1426 0
2136 -3028 0
3333 -2783 0
229 -514 0
3354 2403 0
2740 2091 0
2165 2333 0
1328 4291 0
-1201 -250 0
3234 1443 0
2980 3232 0
-882 -3438 0
-2066 -3363 0
-4627 1616 0
-4627 -2459 0
3183 145 0
-2837 117 0
1787 -155 0
3276 -3323 0
3845 -3194 0
3852 -2684 0
-4373 -237 0
1576 426 0
1974 -4440 0
-4659 -4174 0
-3475 842 0
-3601 2187 0
-2153 -3683 0
-3124 1004 0
-2880 -4574 0
-48 1987 0
-1161 296 0
1262 -485 0
1811 2884 0
-1178 2727 0
3623 -1280 0
4444 -569 0
-4525 996 0
-1512 -4242 0
1205 -85 0
-4547 -297 0
-1866 -2062 0
1664 4245 0
-4351 -3093 0
3273 1583 0
1699 -4442 0
-179 3262 0
1811 630 0
137 1622 0
3422 2020 0
-1741 -1203 0
-4125 -4309 0
595 3574 0
4681 -1145 0
-4581 391 0
-1669 862 0
-3228 -1607 0
297 590 0
3983 647 0
1395 -711 0
3099 4667 0
1560 -1860 0
4575 1560 0
2993 -3911 0
-367 4054 0
-1566 -4063 0
-1392 443 0
-2281 243 0
-2196 -2670 0
-4043 -1484 0
-3309 -2913 0
-527 -4184 0
1041 1007 0
-3323 -1512 0
-2135 3103 0
2098 -3041 0
786 824 0
3797 897 0
3180 4010 0
2910 1272 0
2415 365 0
-3437 -2427 0
-3368 558 0
-2837 -3678 0
4006 3728 0
4060 -1935 0
3724 705 0
-868 2100 0
4154 4365 0
2123 580 0
344 -220 0
-902 4555 0
-3296 -3443 0
-2422 -2979 0
2159 2587 0
379 -1 0
-3102 -1795 0
-2413 3597 0
-1250 1562 0
644 -1093 0
-3454 -3298 0
-3276 -3228 0
-857 3131 0
3851 -2960 0
-4042 3106 0
-1537 -3188 0
2562 -120 0
-1481 4646 0
3407 1206 0
4267 -664 0
2783 -4507 0
-2505 251 0
1870 4596 0
1279 2265 0
-1429 -3602 0
-327 -3098 0
2810 1171 0
-1935 3136 0
453 2851 0
-2362 92 0
1703 -2089 0
-1217 758 0
3226 2530 0
3977 -4551 0
-1108 4651 0
-4005 2966 0
177 2563 0
3868 -3835 0
-2134 -1477 0
-4401 -3336 0
-2380 -1312 0
-2040 -2392 0
3999 -4725 0
3535 -4421 0
-1103 237 0
3100 1444 0
2922 1559 0
2923 4273 0
-2095 4310 0
4538 3611 0
-1704 1893 0
2810 3639 0
-174 -3415 0
2263 3121 0
728 2344 0
4226 3292 0
3071 3280 0
-3474 -1673 0
760 1101 0
-2610 793 0
-340 -2201 0
-425 3263 0
-3729 -3630 0
-931 3396 0
-3448 3854 0
245 -3348 0
3320 -3771 0
-2498 1774 0
4009 2725 0
1636 2725 0
4204 -895 0
2174 3185 0
882 2060 0
-912 69 0
3348 976 0
-3435 -287 0
2139 -1936 0
3854 -3100 0
-1005 4145 0
3649 -3192 0
3664 2845 0
-670 -258 0
-246 -910 0
3916 4258 0
-1583 3694 0
-3347 -4338 0
-2188 -2628 0
-4533 2056 0
3718 4702 0
-3074 1557 0
-3863 -968 0
-368 2652 0
-790 -1640 0
1451 1714 0
-4640 -4153 0
-2654 -542 0
4668 -2745 0
-3879 4311 0
-1249 622 0
2419 4499 0
-4240 -1782 0
-4457 1214 0
4274 -3987 0
1718 -278 0
3216 4556 0
-2703 4012 0
1688 3549 0
4323 -2879 0
-2973 -1614 0
-2221 -547 0
997 2600 0
2322 -2642 0
-3540 2396 0
-190 1746 0
-1698 1239 0
870 -1495 0
4472 4292 0
4285 3451 0
3824 183 0
-3222 2546 0
939 -713 0
-2235 -2754 0
87 -3636 0
-4362 2077 0
-520 -818 0
-4227 -31 0
2800 2536 0
-1372 1367 0
3147 2728 0
3495 3885 0
1929 -2451 0
-2766 -3627 0
-3791 1687 0
1135 3400 0
2100 75 0
-1211 1398 0
-221 1319 0
-7 133 0
-3916 1114 0
-2383 1382 0
3716 -2196 0
97 -4386 0
2162 -507 0
-503 1356 0
-1905 4388 0
2497 2859 0
1150 3015 0
4068 -2144 0
-2596 1300 0
1960 -2650 0
4402 -2926 0
-3422 -1105 0
-311 992 0
-2835 -4262 0
3066 -1965 0
3043 497 0
273 -2434 0
481 2971 0
2641 1048 0
1984 2288 0
-4248 1810 0
-3970 -2666 0
-2977 3326 0
-4537 -3096 0
-1977 -4749 0
1903 2566 0
2478 -2315 0
-2223 -2139 0
-1093 1415 0
-3828 3481 0
2844 -2416 0
-2435 4514 0
3538 4547 0
-4071 -2444 0
-944 3671 0
-1625 4127 0
2180 3529 0
-1420 -404 0
2486 -880 0
3693 -2228 0
-1166 4640 0
-250 -2010 0
-2089 -893 0
-1839 372 0
2882 2797 0
3290 3068 0
-2754 -1127 0
1762 3352 0
781 4655 0
-4286 1715 0
-2992 3051 0
-3291 4273 0
-1349 2947 0
-2856 3681 0
2799 1168 0
-4282 1069 0
1294 2848 0
-3646 -3041 0
2498 -3856 0
-1784 2626 0
1532 3 0
1302 -3465 0
2248 1942 0
1314 -3652 0
-898 2255 0
-1439 4472 0
1109 1325 0
799 -2585 0
-1891 593 0
-922 3167 0
-519 -3065 0
-898 -1133 0
3235 3538 0
-3165 4109 0
237 -112 0
-1380 -3640 0
-3177 2533 0
3217 -1966 0
-1534 -3326 0
3348 1162 0
1556 1812 0
157 -1756 0
1744 -3669 0
-604 2637 0
-2591 872 0
-490 1405 0
3148 479 0
-888 924 0
-3332 3604 0
-4545 4178 0
-509 -4113 0
-1335 -4283 0
2292 2680 0
309 646 0
-1194 3383 0
952 -3718 0
-1558 -4744 0
3173 -3326 0
-901 -3161 0
1176 -3804 0
-1483 1083 0
-2406 630 0
3306 -3462 0
4567 2287 0
-3438 4173 0
-2549 -4076 0
-457 179 0
955 -1880 0
-1591 -1742 0
-2268 -4373 0
-3941 -3360 0
-4734 2317 0
-1720 281 0
3284 -3811 0
4590 -1639 0
2292 -4693 0
-4036 -3872 0
736 3470 0
-2247 -874 0
-4229 -1063 0
1303 -3096 0
270 -2771 0
-2390 -125 0
3806 -4669 0
-1768 546 0
845 3843 0
-57 -1276 0
