c bounds 348 348
p cnf 595 298
-67 17 0
-406 62 0
294 526 0
-466 -460 0
-441 33 0
-548 -243 0
-8 521 0
-395 -433 0
-175 -440 0
-561 238 0
379 446 0
-510 -90 0
-215 -274 0
-5 -165 0
37 379 0
-116 228 0
-59 -481 0
-308 174 0
-51 -494 0
409 277 0
577 -281 0
-380 -185 0
356 -374 0
94 457 0
543 232 0
-126 211 0
95 -344 0
-223 -594 0
543 -153 0
205 194 0
232 357 0
316 -41 0
382 -367 0
578 149 0
124 -355 0
415 -466 0
-118 -436 0
99 249 0
-482 43 0
-593 526 0
201 -139 0
8 129 0
-203 500 0
17 -46 0
-285 -233 0
562 559 0
173 -90 0
318 37 0
-589 -340 0
133 -300 0
260 -302 0
-12 286 0
-269 272 0
543 -50 0
-112 -119 0
45 -215 0
-428 -506 0
556 -486 0
284 -510 0
271 -166 0
-359 -218 0
217 -14 0
-551 282 0
-126 119 0
357 169 0
429 -160 0
-341 -74 0
-274 -62 0
360 -322 0
355 394 0
184 120 0
30 -578 0
9 -194 0
-489 -303 0
-530 16 0
-12 -438 0
-537 -141 0
-106 29 0
-305 -443 0
591 -350 0
-246 236 0
-438 321 0
-26 216 0
552 -133 0
-50 -512 0
-425 53 0
60 590 0
386 330 0
505 320 0
490 309 0
577 2 0
-475 257 0
-417 -344 0
197 -338 0
169 172 0
-194 -383 0
-29 486 0
527 -14 0
283 -408 0
180 -46 0
-392 357 0
92 565 0
-122 456 0
-355 -255 0
-355 109 0
-271 -571 0
282 203 0
-543 393 0
273 158 0
564 -39 0
-126 -497 0
-489 423 0
574 527 0
-97 -189 0
223 382 0
-255 -389 0
-319 588 0
-359 17 0
512 458 0
-583 -211 0
149 -349 0
266 -17 0
-174 -548 0
-44 434 0
-88 310 0
-370 -303 0
382 -183 0
-213 -71 0
534 -97 0
490 541 0
-584 -413 0
-199 65 0
-365 -294 0
-544 -116 0
481 231 0
-209 34 0
-102 -172 0
265 -383 0
-61 -315 0
-140 -281 0
-255 223 0
336 145 0
-450 394 0
485 94 0
189 44 0
103 85 0
-294 -453 0
496 -184 0
276 260 0
-209 462 0
-21 -503 0
-489 119 0
572 -489 0
-449 31 0
-570 532 0
-454 -93 0
-100 413 0
-403 -114 0
-17 168 0
-287 -189 0
356 -202 0
-582 -103 0
498 -125 0
-20 61 0
289 510 0
-400 -526 0
-594 361 0
368 513 0
370 -125 0
-510 531 0
309 524 0
-227 234 0
38 6 0
406 -117 0
35 -523 0
136 -132 0
554 515 0
578 -80 0
-364 -290 0
129 562 0
-267 390 0
-219 53 0
-536 426 0
124 270 0
-383 161 0
112 567 0
285 -191 0
-480 500 0
-466 -196 0
-501 -13 0
-391 -392 0
-534 517 0
255 57 0
-593 -182 0
-581 337 0
-242 -303 0
43 555 0
-331 238 0
257 -5 0
-546 -558 0
6 37 0
102 -347 0
442 -543 0
394 49 0
511 -423 0
-102 -449 0
-495 -127 0
427 -199 0
-587 261 0
456 434 0
575 -475 0
21 554 0
415 -170 0
-475 -157 0
425 287 0
316 -209 0
538 361 0
316 -507 0
541 201 0
-195 -111 0
-483 512 0
-435 -254 0
-136 -162 0
-463 332 0
533 462 0
-463 -509 0
-584 -442 0
351 445 0
250 -443 0
580 -163 0
-572 165 0
-529 407 0
-383 -373 0
461 -290 0
-392 135 0
-522 323 0
-167 -154 0
84 -555 0
-332 492 0
234 -240 0
505 -15 0
424 -253 0
381 -364 0
195 -595 0
-319 -356 0
-41 -585 0
-259 542 0
-8 -312 0
53 265 0
517 307 0
586 120 0
-87 -468 0
-258 -208 0
-200 394 0
-540 -144 0
-560 -570 0
420 18 0
218 453 0
-273 155 0
-57 -595 0
-152 407 0
-508 -79 0
228 289 0
-537 -298 0
-46 49 0
-108 -508 0
38 -25 0
-297 519 0
435 54 0
-594 -513 0
-535 -404 0
165 356 0
476 239 0
54 193 0
26 -218 0
418 -294 0
190 -380 0
490 524 0
-183 240 0
220 -194 0
-37 -351 0
350 -302 0
-123 6 0
393 -219 0
-256 -35 0
-355 -314 0
-36 397 0
151 -5 0
254 453 0
93 -593 0
-414 -296 0
112 80 0
188 -8 0
356 215 0
578 205 0
-450 -31 0
-576 304 0
-439 34 0
