c NF
p cnf 1570 942
246 607 0
-540 -240 0
1455 -143 0
1510 -1320 0
184 609 0
-380 -1158 0
912 -756 0
471 708 0
-942 -766 0
666 -474 0
52 1296 0
-1183 -90 0
812 -401 0
-823 1460 0
375 -1226 0
847 882 0
715 538 0
-737 -352 0
-683 -188 0
1138 -691 0
903 444 0
-498 -56 0
439 -19 0
-1386 -301 0
-177 1375 0
-853 -586 0
-1339 -238 0
278 888 0
-1093 -224 0
-787 -303 0
37 1203 0
503 -502 0
-799 1193 0
962 384 0
-1321 725 0
-203 1520 0
1521 297 0
-1521 745 0
-701 651 0
-547 81 0
-125 893 0
-1059 -498 0
-24 972 0
-193 677 0
-47 -994 0
-1033 -1142 0
320 903 0
1095 -1340 0
-90 171 0
-351 -960 0
1328 -850 0
-91 1185 0
1226 106 0
-308 393 0
1146 -877 0
344 1494 0
-1294 -1407 0
273 -1524 0
1308 9 0
476 -1292 0
950 -1323 0
577 -539 0
1452 -848 0
-231 -958 0
684 142 0
-1405 435 0
953 211 0
769 -1468 0
-1166 682 0
945 -193 0
536 -958 0
1534 961 0
1031 1116 0
-654 -1013 0
620 -622 0
-332 -1468 0
-1361 620 0
-878 1277 0
1309 -67 0
-911 994 0
-790 -146 0
23 1084 0
-265 558 0
912 1362 0
1089 297 0
-174 -74 0
-140 -357 0
930 -592 0
1432 238 0
-1200 -488 0
-1356 713 0
-250 775 0
-1295 -1508 0
1361 137 0
-809 -1274 0
-1109 -1196 0
457 634 0
189 1203 0
-1463 -1370 0
-1541 842 0
-719 -464 0
-1392 1554 0
758 1217 0
-518 -513 0
488 -1410 0
-1302 -1175 0
-1152 -977 0
645 1256 0
-361 373 0
-340 -1531 0
-560 -875 0
172 452 0
-1069 -1300 0
-827 -858 0
-1067 -1359 0
477 -1499 0
-547 562 0
-1363 -807 0
353 809 0
-608 -266 0
-1430 1085 0
220 808 0
837 235 0
-1018 1085 0
565 639 0
1225 356 0
1185 -793 0
-477 -1377 0
1255 608 0
-1222 1398 0
435 -1444 0
-435 -1306 0
-1541 1378 0
-524 623 0
-1282 -303 0
-41 279 0
-284 79 0
818 -1327 0
1203 1245 0
-1210 -488 0
-1241 577 0
758 -586 0
-1150 114 0
-397 711 0
350 519 0
-495 1404 0
-921 -1428 0
-235 -1012 0
963 1205 0
78 1550 0
-612 400 0
-1259 -127 0
418 -307 0
-1421 764 0
-662 293 0
-430 -811 0
58 1491 0
-820 1108 0
-1373 -817 0
230 743 0
530 -590 0
-594 497 0
32 82 0
-446 818 0
1561 -4 0
-297 1121 0
569 -29 0
-1175 -205 0
164 21 0
384 670 0
-1046 427 0
-167 80 0
-661 435 0
-163 82 0
807 -266 0
-1266 761 0
1375 606 0
-139 1290 0
-1498 -1376 0
-1485 -296 0
-948 -747 0
1461 -805 0
-935 1502 0
-1451 703 0
432 1159 0
979 -177 0
-1068 -504 0
-1244 1511 0
-987 -29 0
1395 1465 0
380 -897 0
37 955 0
-1344 -401 0
-1139 -416 0
614 -934 0
-679 -1 0
1472 1163 0
1432 -208 0
-736 925 0
-940 1022 0
282 1543 0
-1265 -606 0
-1310 -459 0
1519 238 0
-1313 527 0
-699 -1133 0
-901 375 0
-184 1036 0
-66 -225 0
1089 259 0
788 -1314 0
818 132 0
632 -696 0
176 1340 0
835 -1203 0
-1123 85 0
782 -1460 0
-570 746 0
-477 839 0
-37 -1264 0
-1343 218 0
-90 -1151 0
952 336 0
-275 -886 0
-54 -846 0
9 -605 0
-1317 890 0
-1139 -1011 0
1010 -372 0
1177 685 0
811 -302 0
705 -1423 0
-1333 1530 0
-674 -1198 0
486 767 0
1072 -1437 0
-953 -760 0
817 -463 0
633 -218 0
376 69 0
469 655 0
865 129 0
844 -1224 0
1411 1022 0
-518 -619 0
734 1525 0
1033 -531 0
-1116 1042 0
486 -510 0
1401 -87 0
34 -646 0
257 -622 0
-43 578 0
1428 1261 0
-1140 -793 0
219 -1318 0
-999 1468 0
-116 -1452 0
866 1301 0
1329 -886 0
-1532 574 0
-1117 -1242 0
-1256 964 0
589 -861 0
-307 -280 0
821 -71 0
220 759 0
-1266 -8 0
1326 541 0
-1570 -602 0
-1449 156 0
-575 -754 0
-1276 453 0
77 770 0
-700 -1525 0
1222 -1459 0
-777 -689 0
761 1050 0
-511 -1151 0
-613 68 0
-1435 -921 0
220 1241 0
751 -474 0
359 1476 0
1375 574 0
52 -1011 0
-510 1065 0
393 450 0
392 -828 0
-1509 -530 0
124 909 0
-744 -1544 0
937 -325 0
-750 1514 0
773 622 0
1058 940 0
919 -1371 0
1178 -1566 0
-719 -1420 0
-249 272 0
895 -511 0
384 492 0
-1159 -1361 0
-97 408 0
502 -1407 0
-1082 154 0
190 -138 0
1351 977 0
1396 82 0
-26 519 0
893 -540 0
603 824 0
-1362 -843 0
821 -523 0
446 1381 0
-393 -1441 0
1254 299 0
-435 1389 0
-124 -788 0
-1191 1564 0
-1211 -496 0
-636 807 0
687 -856 0
597 875 0
-638 -1492 0
944 -1542 0
-137 -94 0
-162 -47 0
-338 1124 0
1471 713 0
-522 26 0
-1447 -1091 0
767 -1194 0
1271 65 0
-1278 -872 0
-326 1115 0
-1194 1309 0
-339 -459 0
-422 -1109 0
1401 226 0
861 677 0
384 938 0
1554 1487 0
730 1025 0
1397 -1107 0
173 -596 0
-546 860 0
-265 911 0
-1470 -1177 0
-831 923 0
-271 -1298 0
518 -997 0
563 507 0
976 -1052 0
1388 49 0
929 964 0
1194 -441 0
1263 -1130 0
-532 -1068 0
1564 611 0
289 -606 0
899 -188 0
-1423 -1354 0
-286 315 0
-1377 -1313 0
60 822 0
-1119 -252 0
1486 -1141 0
1516 106 0
-1357 853 0
-910 1288 0
-1483 -999 0
-428 -147 0
-204 489 0
1281 1110 0
842 1483 0
-1560 -722 0
412 1280 0
-747 -1235 0
-977 -520 0
-1483 -1405 0
1404 1135 0
343 322 0
957 838 0
-331 -1015 0
1125 -743 0
1400 -850 0
1548 -814 0
366 876 0
1232 1409 0
1369 1444 0
-298 -1544 0
1187 -1212 0
-1293 -1118 0
-597 1293 0
-308 -146 0
-718 196 0
1046 529 0
346 758 0
894 1267 0
-559 248 0
-877 787 0
-165 477 0
-1324 -253 0
-1182 1468 0
1137 -408 0
-856 -1128 0
-684 -754 0
1317 637 0
-518 -833 0
1045 -784 0
608 -1101 0
-343 541 0
799 918 0
-749 -709 0
-1454 -518 0
919 582 0
851 -485 0
-999 1249 0
186 1467 0
1055 547 0
-3 1468 0
91 518 0
-1122 227 0
-1291 1244 0
349 392 0
-1274 1546 0
-1066 -1009 0
-26 -585 0
-592 1217 0
685 -558 0
1570 -348 0
511 972 0
972 1285 0
124 -1118 0
-156 1445 0
932 768 0
424 1078 0
799 1186 0
-721 1191 0
-148 1425 0
-215 -775 0
-498 1373 0
611 34 0
-330 1518 0
860 791 0
239 -652 0
-677 -393 0
973 316 0
-361 -1116 0
-1239 -95 0
-297 146 0
190 -351 0
1160 -790 0
550 -1073 0
-487 -654 0
-580 -955 0
651 631 0
-1256 56 0
1160 1491 0
-667 1445 0
-1393 -1530 0
-675 1196 0
102 -1039 0
-402 -313 0
-933 -967 0
657 -217 0
-23 562 0
941 -1361 0
6 -277 0
51 -605 0
56 1221 0
1543 -37 0
-411 964 0
272 -1509 0
19 -1128 0
-1151 -564 0
1520 -1293 0
-383 -769 0
-939 -881 0
-243 408 0
-726 847 0
251 1551 0
-590 -45 0
1193 -946 0
-292 -1209 0
-1500 -1385 0
416 1090 0
1172 276 0
-1091 176 0
-1316 -1419 0
57 -1444 0
1293 -590 0
-571 -514 0
139 -1562 0
970 1262 0
473 681 0
1176 -1550 0
-1275 1058 0
-1562 1565 0
838 1436 0
-335 1552 0
-138 636 0
1045 -598 0
-941 -626 0
-700 -926 0
-506 1055 0
-784 123 0
-415 -1330 0
416 -1005 0
630 -29 0
-819 -243 0
712 -1118 0
137 -1540 0
864 -215 0
-490 1475 0
1171 382 0
-1272 1046 0
595 -1427 0
-45 1234 0
1233 901 0
521 -417 0
1065 203 0
1480 -454 0
1207 106 0
-112 720 0
1510 -283 0
442 -616 0
554 -858 0
293 -343 0
-70 572 0
1332 -423 0
-613 -1435 0
307 227 0
-1455 1445 0
-963 -1218 0
746 844 0
1255 1541 0
-401 135 0
-1519 -1423 0
1215 1208 0
1071 -1439 0
-1119 -213 0
-250 633 0
-1439 -1185 0
1319 1435 0
-847 -146 0
1305 -659 0
1228 -985 0
493 -1164 0
963 456 0
-882 858 0
-1547 -942 0
1382 296 0
-1264 1321 0
1443 -633 0
1452 786 0
191 -702 0
-256 -262 0
870 1354 0
-153 767 0
816 1232 0
-357 470 0
1409 -303 0
-99 967 0
-1307 -643 0
-888 -1508 0
-1204 -1112 0
1099 -493 0
1556 -622 0
-1542 1023 0
-167 -920 0
-1363 -273 0
-691 1177 0
-843 1482 0
114 68 0
-981 926 0
673 -1028 0
1245 -1419 0
-1392 31 0
75 2 0
-771 36 0
-591 1186 0
-1457 36 0
-1216 -1060 0
1266 1388 0
749 1026 0
-573 -214 0
623 65 0
-667 1186 0
-467 -454 0
1395 1215 0
-421 394 0
874 214 0
-1529 537 0
-37 1242 0
-480 359 0
-1401 -1410 0
-1130 -998 0
591 1054 0
-792 -248 0
338 -1323 0
-1516 199 0
-27 -1506 0
-249 -1539 0
-727 -255 0
32 589 0
-1007 -1291 0
-66 1259 0
-1363 815 0
-656 -1 0
642 -1542 0
820 1303 0
865 734 0
-253 -1264 0
-1167 -256 0
-855 927 0
42 1476 0
-876 -1517 0
-1017 597 0
-683 -1361 0
800 765 0
715 -123 0
-542 1035 0
683 437 0
904 -31 0
842 -24 0
348 -1148 0
-710 439 0
-121 -1319 0
-979 1493 0
-342 272 0
515 -490 0
355 -858 0
-536 582 0
822 1036 0
-1503 432 0
1448 -1222 0
-45 -1522 0
1552 769 0
-698 -723 0
238 1565 0
952 520 0
-1347 861 0
1135 -1171 0
-115 730 0
605 -689 0
-355 693 0
-956 68 0
1187 1255 0
232 -896 0
802 753 0
514 1277 0
-287 1026 0
350 1493 0
1294 -371 0
-593 632 0
-451 -1373 0
-1451 363 0
-747 1303 0
968 -987 0
-290 21 0
-763 -1541 0
215 -1282 0
-1392 42 0
1303 -327 0
527 771 0
-1436 305 0
834 170 0
-452 -1025 0
-854 591 0
-1132 1315 0
994 -431 0
-701 -828 0
234 817 0
-1283 1125 0
-653 1080 0
-1133 -1447 0
1084 -210 0
1136 1472 0
-354 957 0
-3 935 0
1306 938 0
944 362 0
674 56 0
444 -383 0
-1115 1064 0
748 1012 0
1125 -197 0
-756 -751 0
1132 650 0
1385 1207 0
71 473 0
-201 1373 0
1014 -87 0
-768 -1204 0
-1400 605 0
1438 -1152 0
-1069 -416 0
-159 266 0
1436 125 0
-70 1493 0
1018 856 0
594 388 0
440 -1204 0
-1180 931 0
-518 -483 0
-722 26 0
581 -203 0
995 655 0
748 660 0
-248 800 0
1523 -501 0
824 -1052 0
861 89 0
-1339 299 0
956 1010 0
-971 32 0
-209 1450 0
-1256 216 0
-302 -1541 0
890 -1554 0
151 1196 0
-861 -330 0
1261 -1486 0
526 -432 0
-1295 1329 0
-615 -783 0
893 1566 0
-585 -433 0
-430 1031 0
-1215 753 0
541 825 0
-1568 -572 0
-1337 -188 0
-649 -162 0
276 956 0
-37 -1028 0
-871 176 0
-253 887 0
-343 296 0
-99 -1493 0
-259 -97 0
1484 -1107 0
1359 729 0
-1331 -253 0
1440 223 0
12 -362 0
317 -1408 0
559 -1346 0
141 -157 0
1121 -279 0
169 -318 0
1045 -404 0
52 396 0
1214 1144 0
-735 1023 0
264 -721 0
-1449 -519 0
-1111 -380 0
-274 -258 0
-1427 -1541 0
-875 -145 0
815 -960 0
-874 -1214 0
1291 759 0
-173 1436 0
692 79 0
-431 757 0
1385 575 0
937 948 0
1318 -1490 0
1548 1202 0
-1132 -191 0
377 -1242 0
-1553 -1242 0
591 -488 0
-137 -131 0
-150 -1287 0
-1557 685 0
881 88 0
-241 1441 0
-533 1212 0
579 -308 0
-1008 -1221 0
-395 -1266 0
515 -1076 0
1147 -1441 0
-532 1013 0
-1534 -539 0
1385 -799 0
-296 1111 0
683 -947 0
1471 1132 0
983 -1197 0
503 1244 0
-192 -805 0
908 1559 0
-573 270 0
-832 -1002 0
1401 1383 0
-1156 1184 0
1333 828 0
-1394 869 0
735 -454 0
-768 1328 0
-1557 963 0
-502 -759 0
231 -524 0
583 -438 0
-1163 1103 0
-508 574 0
373 -1462 0
-897 -78 0
1549 -1286 0
1047 693 0
1022 -1068 0
-1101 -339 0
-657 -1199 0
1323 -1284 0
574 -1218 0
1050 -204 0
-298 1523 0
1175 1147 0
14 1430 0
1036 -941 0
1388 -68 0
1161 -705 0
-1238 -397 0
-549 1147 0
-1537 -1455 0
601 345 0
-911 750 0
1517 604 0
1270 -805 0
365 972 0
1196 426 0
561 -1027 0
-158 1155 0
-510 -1286 0
-476 251 0
872 -1423 0
1521 524 0
-342 1228 0
1127 -274 0
-956 1269 0
1268 190 0
-618 693 0
-1309 -492 0
827 -316 0
-1034 1534 0
-1015 -848 0
-477 1164 0
638 899 0
-86 -1279 0
-1231 -985 0
-409 1079 0
-827 -1264 0
-284 1434 0
-287 -1420 0
881 762 0
884 -22 0
1036 693 0
-940 1537 0
223 456 0
267 -475 0
5 -917 0
-1268 -223 0
91 -418 0
367 1292 0
-971 -262 0
-799 -1431 0
1435 -1087 0
-356 1032 0
-962 -1295 0
757 505 0
633 400 0
-346 988 0
12 -1562 0
83 342 0
728 714 0
-1106 -171 0
818 -298 0
-753 955 0
-1030 876 0
-1106 427 0
483 -1249 0
1116 -157 0
1228 -1281 0
-529 -305 0
-918 -1184 0
-585 981 0
-1293 72 0
-715 -1156 0
-323 -505 0
-996 -403 0
-3 -71 0
-69 851 0
1014 -76 0
1070 862 0
-243 515 0
1187 -547 0
600 817 0
1396 -291 0
-1493 50 0
326 -118 0
1435 207 0
309 841 0
-1404 1332 0
175 -1128 0
-496 -278 0
1343 468 0
-1131 -1184 0
-182 795 0
759 -309 0
726 1118 0
-1500 -96 0
-1495 -568 0
-1208 -867 0
-705 1243 0
-1449 -1118 0
-900 -700 0
1438 -217 0
282 -1392 0
1331 102 0
519 180 0
-997 -735 0
829 -611 0
1086 632 0
292 -1268 0
614 -792 0
-1480 -31 0
-533 914 0
-222 -1061 0
-303 53 0
-90 867 0
135 -444 0
151 588 0
-1195 -788 0
-975 -133 0
-651 -1107 0
-804 1193 0
