c bounds 83 83
p cnf 820 2788
-480 271 0
-457 597 0
498 -348 0
-477 -471 0
-500 80 0
397 464 0
-207 674 0
701 -4 0
745 697 0
640 -567 0
-108 -751 0
35 408 0
-621 57 0
733 -85 0
701 227 0
-548 484 0
265 216 0
709 734 0
272 39 0
-780 111 0
500 -579 0
-61 37 0
-287 -158 0
-350 698 0
298 283 0
-757 600 0
-31 230 0
-59 755 0
109 116 0
498 -218 0
-28 -366 0
-240 254 0
-109 651 0
-636 -340 0
586 -493 0
611 -691 0
422 -540 0
307 -712 0
-588 130 0
-568 455 0
619 -316 0
-378 -276 0
-567 755 0
534 -141 0
-574 638 0
259 29 0
-90 -642 0
-438 37 0
-703 -119 0
-121 -114 0
380 -719 0
-777 792 0
760 -534 0
498 -119 0
-310 517 0
546 26 0
49 123 0
-203 -178 0
-737 274 0
-164 648 0
386 -765 0
390 -430 0
814 815 0
-565 345 0
419 671 0
536 317 0
-693 -255 0
572 -218 0
783 -20 0
-438 519 0
7 -274 0
187 610 0
-23 -730 0
508 -569 0
267 -78 0
-712 117 0
547 488 0
534 14 0
-754 -418 0
-440 -393 0
-518 -109 0
169 -112 0
-69 294 0
-17 -552 0
451 601 0
274 -776 0
-66 -715 0
-174 194 0
-36 251 0
417 -71 0
-47 -816 0
-348 -585 0
-567 259 0
408 -253 0
-46 95 0
-213 633 0
-175 -46 0
-32 598 0
-495 761 0
-382 36 0
-315 -729 0
-592 -329 0
-200 -322 0
358 708 0
49 -287 0
-24 -106 0
-538 -84 0
706 -490 0
-124 302 0
676 767 0
144 794 0
72 -121 0
89 -9 0
-255 783 0
-42 432 0
481 -763 0
116 617 0
-294 510 0
363 -185 0
-199 -503 0
641 -766 0
308 624 0
-358 -813 0
328 99 0
-733 519 0
-64 -554 0
-287 -150 0
51 -195 0
-25 135 0
87 -129 0
602 -465 0
671 -482 0
-47 -451 0
267 -564 0
724 -470 0
547 85 0
385 408 0
-361 -55 0
706 72 0
-202 272 0
-790 -360 0
-697 796 0
-523 272 0
-361 -680 0
663 531 0
-580 562 0
407 -495 0
164 606 0
116 -284 0
50 238 0
248 659 0
381 -155 0
87 -765 0
659 681 0
-579 152 0
360 767 0
-264 -611 0
734 -42 0
-818 372 0
-724 -541 0
310 -160 0
-44 432 0
83 203 0
529 543 0
529 113 0
-503 -801 0
-779 247 0
-139 53 0
-659 -198 0
283 205 0
100 -645 0
593 674 0
-400 209 0
543 -136 0
617 -147 0
437 714 0
255 -392 0
-33 -195 0
-236 809 0
-155 697 0
-352 -798 0
-4 703 0
-160 642 0
572 463 0
767 -759 0
89 367 0
-481 -707 0
-512 24 0
645 229 0
203 727 0
156 -425 0
-200 614 0
296 623 0
151 -447 0
-413 -76 0
-237 -601 0
-426 138 0
648 -587 0
-145 -716 0
560 662 0
617 564 0
-619 -588 0
-485 455 0
672 -602 0
588 478 0
334 -188 0
-179 461 0
-282 765 0
-191 230 0
-514 -735 0
-319 598 0
-5 -630 0
-626 -49 0
-644 25 0
138 614 0
179 728 0
293 -390 0
-644 288 0
-790 -261 0
10 54 0
-583 -548 0
-112 392 0
55 -378 0
-249 222 0
498 312 0
417 -202 0
-657 773 0
625 -656 0
26 180 0
-159 -34 0
-574 -307 0
-45 -77 0
166 314 0
144 -257 0
683 -107 0
-747 205 0
327 209 0
14 222 0
-244 143 0
93 -678 0
-801 432 0
-583 -224 0
-585 604 0
648 600 0
-109 -581 0
-416 77 0
23 -177 0
369 -630 0
-594 752 0
550 435 0
109 624 0
-32 -12 0
-471 -267 0
183 809 0
328 -218 0
-517 -167 0
52 166 0
696 684 0
-109 -446 0
782 668 0
-447 -494 0
230 -722 0
-663 -192 0
578 -384 0
422 504 0
-374 729 0
-483 302 0
-258 -24 0
273 -110 0
-176 150 0
-105 -775 0
594 434 0
87 -786 0
-51 355 0
500 -735 0
601 440 0
351 -727 0
-106 158 0
-816 -241 0
43 -741 0
-794 481 0
14 -625 0
699 452 0
-110 766 0
804 -178 0
-807 -493 0
-79 -180 0
296 647 0
496 -465 0
-531 711 0
-350 -816 0
221 -470 0
384 -794 0
-170 254 0
-630 472 0
519 717 0
209 -153 0
543 -106 0
-21 754 0
-622 735 0
-814 -160 0
-148 -725 0
328 -303 0
628 -192 0
50 633 0
321 223 0
531 760 0
-345 -246 0
753 -670 0
-597 -168 0
-537 -694 0
720 -644 0
176 491 0
-509 -784 0
366 10 0
765 -477 0
-395 86 0
-564 -303 0
-303 -493 0
-599 -366 0
-633 -86 0
-168 503 0
-621 463 0
-517 595 0
419 735 0
275 -434 0
-643 396 0
-805 -626 0
464 -49 0
578 236 0
633 560 0
-305 -474 0
688 684 0
-430 655 0
-141 -350 0
144 96 0
-807 416 0
-32 715 0
54 173 0
-243 172 0
631 -345 0
-243 -563 0
-637 -232 0
-188 -632 0
-316 475 0
230 358 0
-608 -398 0
385 2 0
-774 -303 0
-577 -144 0
100 -760 0
-175 -375 0
-419 -479 0
202 -244 0
-36 -510 0
252 -623 0
-22 201 0
-285 -589 0
562 -212 0
426 234 0
740 -270 0
-251 230 0
288 -230 0
171 -430 0
434 -208 0
-421 -782 0
-765 44 0
274 315 0
75 -382 0
-801 -385 0
528 -178 0
531 248 0
-434 627 0
-566 508 0
500 -443 0
133 273 0
478 60 0
666 93 0
-632 -778 0
669 -319 0
718 -765 0
730 775 0
714 514 0
-797 601 0
595 512 0
507 51 0
-778 -465 0
-193 -87 0
-158 -373 0
161 -286 0
-563 262 0
-621 -369 0
120 166 0
705 -87 0
-686 230 0
514 382 0
-159 -409 0
-800 317 0
310 715 0
-203 -409 0
-343 -359 0
265 -591 0
-124 -120 0
-263 -587 0
151 797 0
-195 -249 0
746 810 0
-787 664 0
-799 -566 0
-98 -328 0
-362 -455 0
461 771 0
48 672 0
-375 185 0
-65 -227 0
267 596 0
654 281 0
-424 170 0
646 -770 0
-117 670 0
-642 -83 0
677 705 0
147 -183 0
667 -597 0
239 37 0
-424 476 0
-694 687 0
373 -589 0
136 -360 0
672 -137 0
521 -31 0
357 715 0
149 677 0
-27 373 0
-781 -722 0
-42 434 0
404 145 0
636 -580 0
617 -559 0
746 -511 0
711 787 0
-15 615 0
-509 -252 0
202 -149 0
-366 -70 0
321 -19 0
-88 676 0
144 394 0
121 294 0
-446 441 0
-496 -152 0
-258 -439 0
72 732 0
617 542 0
-2 808 0
-510 -244 0
-748 248 0
493 55 0
285 16 0
63 294 0
704 -500 0
681 100 0
122 -61 0
-124 418 0
737 -216 0
-305 541 0
-683 -269 0
-255 429 0
729 -770 0
672 567 0
37 366 0
270 -49 0
-274 726 0
-563 -14 0
-592 -82 0
-611 695 0
447 187 0
740 -711 0
107 502 0
780 561 0
796 62 0
-523 -721 0
-773 -68 0
-159 401 0
-309 697 0
-597 -445 0
26 -487 0
163 -399 0
-322 -255 0
396 -621 0
700 587 0
-215 643 0
318 -156 0
117 144 0
520 -533 0
145 429 0
809 -599 0
259 -412 0
-763 85 0
-297 24 0
-174 -388 0
443 -349 0
-237 227 0
-223 792 0
513 -550 0
422 -665 0
-288 221 0
-45 178 0
280 -14 0
731 -160 0
-452 -402 0
-772 -339 0
219 297 0
-416 99 0
-315 -135 0
-351 748 0
530 -448 0
-254 768 0
-531 324 0
706 -158 0
322 457 0
-562 -588 0
62 9 0
503 -554 0
726 -449 0
349 541 0
-15 806 0
-713 -763 0
-757 -588 0
-339 -751 0
-309 -719 0
-565 -568 0
-114 -4 0
-310 274 0
587 -642 0
-691 -313 0
687 100 0
353 -402 0
567 -46 0
51 -804 0
-48 489 0
-812 698 0
190 -818 0
-246 -98 0
749 654 0
-523 -680 0
-305 -164 0
-386 716 0
268 -360 0
-511 -121 0
-440 -771 0
115 -160 0
373 22 0
-269 -790 0
-323 -707 0
759 -743 0
-560 620 0
150 18 0
-19 521 0
316 -523 0
600 -597 0
51 584 0
31 381 0
721 -77 0
-703 -745 0
505 -208 0
42 -518 0
-568 -358 0
490 -454 0
582 158 0
330 741 0
-75 -115 0
-678 540 0
122 702 0
-391 500 0
-765 -101 0
-167 132 0
-730 652 0
221 603 0
-228 -246 0
111 451 0
-319 21 0
-27 315 0
415 -173 0
498 790 0
-785 671 0
173 -255 0
-736 460 0
-795 488 0
-178 -7 0
-650 637 0
-291 -325 0
-14 551 0
-266 -264 0
325 -49 0
-38 117 0
486 -34 0
-270 596 0
-157 485 0
-558 363 0
225 -349 0
-258 -521 0
-521 357 0
-218 -353 0
131 284 0
779 271 0
259 615 0
149 476 0
-105 536 0
304 140 0
154 -777 0
-468 -556 0
-90 -244 0
669 -157 0
551 -211 0
811 254 0
83 -86 0
-75 768 0
216 -533 0
294 757 0
620 -443 0
-710 -581 0
400 40 0
542 92 0
-182 -219 0
410 729 0
-378 487 0
380 679 0
591 606 0
-516 -326 0
-631 -287 0
-557 720 0
-470 -425 0
701 774 0
-543 -41 0
743 408 0
-58 106 0
-756 -239 0
-675 752 0
704 553 0
-42 805 0
488 -436 0
-218 -557 0
796 605 0
752 569 0
-506 753 0
-60 -208 0
-226 -578 0
-616 137 0
510 308 0
469 83 0
-62 -286 0
217 -607 0
-109 803 0
596 284 0
-228 -126 0
475 -691 0
293 61 0
-478 62 0
-673 604 0
-413 761 0
-769 -448 0
-577 344 0
-690 170 0
-800 -646 0
-500 683 0
-358 -734 0
416 520 0
163 346 0
386 797 0
183 -10 0
-726 -81 0
-523 -503 0
47 16 0
-819 -504 0
-570 405 0
-705 -722 0
337 695 0
745 -777 0
802 -784 0
1 -361 0
-581 811 0
-652 -735 0
-134 408 0
-39 -616 0
533 -397 0
405 -630 0
-750 2 0
-628 -39 0
-216 429 0
531 245 0
-192 -76 0
-341 250 0
-686 -438 0
-48 -423 0
619 473 0
-437 620 0
-7 -788 0
236 -379 0
16 -415 0
686 651 0
783 10 0
-181 -78 0
-563 -550 0
-8 -95 0
386 -25 0
243 616 0
663 287 0
617 -410 0
706 467 0
146 296 0
117 420 0
-698 720 0
128 -659 0
-597 105 0
-574 263 0
281 -282 0
-337 -42 0
118 -391 0
364 245 0
236 -766 0
356 -803 0
681 -288 0
486 -727 0
520 -762 0
-127 -795 0
223 -548 0
-406 -287 0
450 -575 0
92 124 0
-718 212 0
629 30 0
516 -749 0
-332 625 0
428 731 0
682 336 0
497 -262 0
-104 -120 0
-19 -588 0
306 -226 0
664 266 0
-68 -647 0
-401 -156 0
-186 380 0
-434 -374 0
-477 -718 0
71 -485 0
335 217 0
160 702 0
-160 -40 0
336 -698 0
18 -795 0
-778 -64 0
128 -58 0
-501 -391 0
189 -114 0
-810 150 0
-328 -358 0
431 546 0
738 -189 0
653 293 0
-430 387 0
-374 542 0
-264 387 0
760 -191 0
-752 -307 0
599 465 0
356 244 0
-380 -556 0
153 10 0
97 -250 0
460 199 0
-454 390 0
374 -563 0
267 -328 0
622 408 0
261 -102 0
170 -47 0
474 -550 0
128 -165 0
631 782 0
-169 333 0
-444 423 0
332 -57 0
-661 338 0
418 -27 0
54 667 0
808 702 0
-610 721 0
-158 817 0
223 -427 0
750 -237 0
236 -56 0
-490 -331 0
-66 65 0
-622 -51 0
-718 722 0
-244 797 0
-238 673 0
-12 -136 0
-112 566 0
21 -533 0
-260 791 0
-44 282 0
476 -21 0
254 -160 0
94 -416 0
714 204 0
551 -16 0
94 -372 0
702 -794 0
-577 -755 0
805 797 0
-810 662 0
-438 417 0
520 561 0
-691 251 0
581 -156 0
787 -255 0
725 149 0
-484 -424 0
172 -453 0
202 708 0
480 -416 0
-329 -287 0
-424 -611 0
12 -472 0
-369 654 0
-477 523 0
-442 782 0
562 -546 0
-34 -783 0
-127 -587 0
223 738 0
57 -563 0
528 687 0
688 306 0
351 -375 0
-77 383 0
-513 -470 0
-373 187 0
662 486 0
455 746 0
-818 510 0
775 -114 0
216 688 0
625 107 0
-82 371 0
-7 288 0
-578 137 0
-76 113 0
663 539 0
-49 -509 0
658 -791 0
-305 665 0
23 -258 0
-514 280 0
-542 -412 0
-318 102 0
-603 -319 0
-705 665 0
6 38 0
-392 498 0
-398 624 0
-434 -365 0
-264 -479 0
483 -457 0
224 317 0
-358 76 0
463 -724 0
624 -798 0
144 -168 0
697 681 0
37 107 0
-640 -623 0
-368 -571 0
724 -358 0
-313 -227 0
268 617 0
279 -776 0
-247 -615 0
437 624 0
775 -733 0
-650 -776 0
417 -24 0
-276 -204 0
738 -719 0
-285 -587 0
-436 177 0
591 -141 0
-694 288 0
571 -450 0
-470 -358 0
476 -594 0
-117 -388 0
478 -256 0
628 811 0
-319 -124 0
-396 -444 0
-500 -277 0
746 -341 0
-287 -228 0
-69 482 0
-736 -372 0
432 394 0
801 437 0
-698 707 0
-754 65 0
-384 107 0
242 423 0
-392 -651 0
620 176 0
403 136 0
471 562 0
-805 519 0
-163 -124 0
-74 -30 0
-444 -400 0
608 -570 0
510 419 0
-812 -198 0
436 116 0
-82 47 0
192 -770 0
-488 445 0
-65 -758 0
440 -375 0
658 136 0
31 512 0
-23 161 0
-694 746 0
-102 -226 0
357 -305 0
-664 290 0
510 750 0
-135 -121 0
154 75 0
640 325 0
-488 323 0
-673 223 0
-696 -135 0
-222 41 0
476 143 0
801 -518 0
-22 137 0
22 620 0
-723 -422 0
768 644 0
695 141 0
-795 -356 0
-772 -269 0
-60 339 0
224 -215 0
202 539 0
132 -174 0
-542 -61 0
445 585 0
-493 -270 0
-90 -124 0
-706 -214 0
144 372 0
183 -791 0
666 427 0
-190 -347 0
-169 155 0
-716 357 0
278 820 0
-460 442 0
474 -329 0
-218 491 0
132 -222 0
-377 -393 0
11 -750 0
461 605 0
792 634 0
474 -708 0
18 -5 0
-402 -177 0
-786 -5 0
469 -759 0
-581 290 0
-208 -763 0
-259 -22 0
264 -354 0
624 255 0
420 -426 0
-693 -628 0
-311 -664 0
178 224 0
816 476 0
-170 -513 0
-420 -87 0
205 -154 0
-633 -628 0
-154 717 0
-133 811 0
677 -748 0
43 -258 0
813 163 0
275 4 0
626 280 0
763 -351 0
-397 -295 0
666 434 0
792 -89 0
-701 -363 0
-145 -112 0
-33 451 0
-396 -70 0
624 -524 0
-587 -309 0
-114 -425 0
690 -377 0
-180 -328 0
664 637 0
745 695 0
-379 224 0
111 -204 0
-503 251 0
-372 -779 0
-601 -446 0
-452 -188 0
-344 294 0
-15 -652 0
-141 -585 0
-665 -384 0
-444 190 0
677 -128 0
741 200 0
364 -367 0
467 -340 0
777 -503 0
735 39 0
-729 97 0
-213 -664 0
-365 133 0
-692 -494 0
132 -28 0
-30 -630 0
733 -221 0
691 -424 0
422 728 0
108 -483 0
473 470 0
-778 658 0
-35 -458 0
324 -266 0
578 -778 0
-694 543 0
-407 -500 0
-612 627 0
-439 423 0
-774 -692 0
576 -816 0
-651 499 0
-589 182 0
123 760 0
432 -770 0
-29 520 0
740 165 0
767 -503 0
-86 496 0
584 604 0
624 193 0
-196 408 0
510 -639 0
-85 277 0
-202 279 0
422 265 0
325 -758 0
-394 -263 0
-651 -96 0
-210 727 0
-412 -402 0
-517 -256 0
818 230 0
426 504 0
-91 -15 0
-204 541 0
13 -196 0
747 -762 0
155 -704 0
83 -738 0
-12 270 0
-112 -685 0
-681 553 0
146 85 0
517 -61 0
732 223 0
-61 333 0
476 526 0
-558 -32 0
-436 399 0
-646 -367 0
-751 610 0
3 -193 0
-765 -711 0
-623 29 0
-649 -393 0
796 551 0
-339 633 0
-776 26 0
-35 -485 0
751 612 0
-448 766 0
-106 386 0
83 -675 0
502 -325 0
-253 390 0
84 669 0
81 -517 0
83 -141 0
-748 -360 0
361 450 0
-70 -424 0
-310 491 0
163 423 0
-818 457 0
-501 -256 0
745 150 0
-317 -226 0
749 -467 0
683 -229 0
275 473 0
683 -532 0
-713 574 0
-622 388 0
-462 -74 0
-570 732 0
298 214 0
-208 289 0
-367 -563 0
-199 -565 0
-390 -136 0
402 -378 0
377 669 0
279 -644 0
708 226 0
-329 -215 0
-366 -692 0
-400 24 0
-439 -751 0
-682 651 0
248 -11 0
529 251 0
181 378 0
-215 -410 0
410 -708 0
427 -88 0
746 675 0
631 701 0
573 423 0
-463 708 0
481 -166 0
283 768 0
-3 -12 0
-342 710 0
-5 706 0
-176 700 0
-654 -800 0
-563 495 0
-119 529 0
29 -731 0
-588 410 0
-295 -77 0
88 -616 0
526 -709 0
-527 3 0
697 192 0
250 -234 0
-520 321 0
-483 -443 0
-199 -235 0
-21 142 0
-666 -713 0
683 -703 0
543 498 0
-556 363 0
637 182 0
-153 549 0
107 -337 0
-31 -162 0
318 353 0
-135 -209 0
55 -113 0
584 444 0
-374 -495 0
-68 -430 0
-382 -256 0
265 189 0
330 -791 0
490 -94 0
224 -324 0
798 -542 0
-787 296 0
-44 -537 0
526 -566 0
-630 -521 0
-100 555 0
672 -210 0
662 -374 0
304 -804 0
230 275 0
552 -61 0
-502 -61 0
-745 555 0
-189 -651 0
63 461 0
-293 780 0
-256 -787 0
518 -215 0
-94 300 0
-342 686 0
111 -743 0
-110 -25 0
63 158 0
-54 -101 0
191 690 0
-536 130 0
-678 -246 0
-552 578 0
782 -473 0
818 411 0
755 -588 0
752 -301 0
-48 -610 0
-249 654 0
-10 584 0
427 -478 0
189 584 0
-673 -465 0
-579 637 0
435 399 0
641 -367 0
128 820 0
-139 -436 0
-142 -392 0
351 321 0
711 812 0
-457 -663 0
-157 770 0
-310 -698 0
805 -622 0
-309 -664 0
716 779 0
-333 -179 0
-779 -598 0
31 792 0
-805 278 0
-51 -798 0
-727 -331 0
422 89 0
224 -601 0
683 504 0
104 -107 0
-5 -210 0
455 607 0
-175 490 0
146 271 0
-703 122 0
-797 817 0
301 7 0
143 -258 0
-134 -186 0
-548 97 0
-484 -580 0
-363 -671 0
648 -547 0
14 -103 0
-134 818 0
-795 115 0
-61 -4 0
11 742 0
-697 -23 0
-337 62 0
658 768 0
426 -790 0
-712 645 0
92 800 0
767 243 0
-316 -102 0
42 756 0
445 520 0
-799 -645 0
602 367 0
184 -208 0
-802 -404 0
62 -649 0
437 516 0
341 -632 0
530 225 0
294 793 0
24 589 0
-283 -629 0
83 -123 0
-281 -656 0
670 -303 0
491 -765 0
202 574 0
-238 534 0
605 70 0
704 456 0
258 -722 0
465 258 0
510 -730 0
-77 -646 0
109 383 0
462 -60 0
-381 281 0
-790 296 0
-410 -527 0
419 24 0
641 164 0
-586 550 0
-171 -448 0
330 677 0
-129 565 0
721 -293 0
-195 -409 0
686 108 0
245 430 0
-297 54 0
755 -642 0
-759 749 0
649 -359 0
-28 312 0
746 97 0
737 -437 0
653 643 0
-98 -108 0
720 455 0
-19 654 0
394 427 0
-449 624 0
-396 511 0
638 231 0
72 68 0
-615 -172 0
714 651 0
-235 -485 0
-673 -664 0
218 -374 0
40 755 0
-440 -155 0
171 539 0
-269 -96 0
-226 -311 0
490 -278 0
768 366 0
-272 612 0
-321 -197 0
605 -125 0
-27 -361 0
202 -173 0
63 -392 0
610 700 0
672 133 0
-589 758 0
311 209 0
-650 -440 0
126 519 0
584 46 0
419 -262 0
-246 -317 0
136 525 0
-703 -416 0
-577 -78 0
-690 -806 0
323 193 0
-101 -145 0
-483 -94 0
171 -378 0
-502 496 0
-350 437 0
439 276 0
-28 745 0
-777 -59 0
508 380 0
-673 -407 0
-21 -742 0
-725 241 0
559 277 0
-803 50 0
516 -705 0
155 -438 0
741 -809 0
605 -788 0
435 21 0
108 -79 0
-372 -574 0
-238 -220 0
637 -568 0
377 -353 0
-414 159 0
241 73 0
-483 42 0
-107 496 0
21 494 0
196 172 0
-270 -189 0
709 -562 0
603 502 0
126 158 0
164 547 0
-792 -23 0
280 -538 0
-572 809 0
97 -194 0
-6 700 0
662 132 0
-608 298 0
-633 525 0
-416 -222 0
-240 -631 0
-332 -713 0
345 -375 0
-433 446 0
288 -680 0
32 -263 0
645 648 0
293 52 0
761 14 0
503 -361 0
199 -219 0
349 181 0
-358 80 0
-711 183 0
-110 663 0
-722 -660 0
702 -414 0
100 -480 0
469 780 0
163 -644 0
308 288 0
118 738 0
-624 138 0
381 46 0
224 267 0
697 103 0
301 -571 0
160 510 0
386 552 0
-357 -542 0
-14 186 0
760 -172 0
417 687 0
-328 732 0
-477 546 0
-507 169 0
343 -492 0
-237 -345 0
-650 -811 0
-365 56 0
572 -694 0
811 -803 0
279 -263 0
-692 -262 0
-765 558 0
217 -684 0
-566 415 0
-153 -223 0
183 86 0
705 610 0
729 -709 0
614 92 0
-152 -482 0
-310 -132 0
-613 -431 0
-525 -109 0
321 105 0
-623 -27 0
-15 -544 0
-500 -806 0
-180 359 0
-104 -658 0
555 12 0
617 202 0
450 -791 0
-316 80 0
523 -804 0
130 -102 0
655 508 0
594 165 0
716 -756 0
-638 -105 0
-247 343 0
400 702 0
541 -94 0
300 244 0
236 353 0
-622 -89 0
303 371 0
248 -237 0
-73 -119 0
407 -76 0
-730 178 0
-653 476 0
796 486 0
-282 -202 0
275 -571 0
771 675 0
146 581 0
602 -556 0
108 355 0
-169 711 0
-693 -596 0
-390 -395 0
552 -232 0
12 -552 0
118 -706 0
83 -778 0
-798 327 0
-334 -291 0
521 19 0
574 -712 0
306 -750 0
-253 526 0
-760 679 0
-49 354 0
-683 -252 0
726 460 0
-112 -647 0
200 -121 0
608 -751 0
-703 -581 0
-74 309 0
-19 -501 0
-398 -32 0
772 445 0
113 -333 0
-402 -235 0
280 300 0
-25 348 0
174 -239 0
790 137 0
-197 539 0
259 -725 0
230 124 0
202 427 0
-693 -141 0
-158 -518 0
538 -278 0
455 -439 0
-707 -233 0
-88 -739 0
185 510 0
135 -479 0
-73 167 0
690 176 0
747 -330 0
-309 -417 0
568 -340 0
760 122 0
-420 -544 0
-440 276 0
-214 -761 0
654 532 0
-544 -632 0
-616 703 0
418 -345 0
302 477 0
231 -268 0
-111 -12 0
778 582 0
501 229 0
-227 -439 0
603 -185 0
-27 -411 0
708 134 0
636 503 0
758 -104 0
-367 419 0
441 440 0
772 -382 0
-439 382 0
-373 -762 0
35 -223 0
121 301 0
306 -627 0
-65 -733 0
-650 -612 0
-778 -252 0
-157 716 0
-102 751 0
-366 151 0
484 -36 0
165 680 0
126 680 0
279 -623 0
-119 164 0
-364 593 0
99 -310 0
-20 -553 0
-536 -632 0
-384 274 0
171 -165 0
-575 461 0
-409 -689 0
-48 28 0
296 -145 0
-561 452 0
300 -392 0
97 -664 0
732 -680 0
-685 -101 0
-179 -794 0
85 -497 0
97 158 0
670 522 0
567 -21 0
783 590 0
6 464 0
39 109 0
339 461 0
392 654 0
743 767 0
-694 360 0
691 625 0
-447 182 0
136 -430 0
272 -559 0
280 735 0
323 524 0
-334 200 0
-818 -511 0
133 2 0
165 -135 0
51 -566 0
224 -430 0
-399 -551 0
341 812 0
-17 143 0
-39 -564 0
-735 442 0
-104 246 0
51 521 0
-346 612 0
7 482 0
295 -358 0
-109 -121 0
-413 -288 0
407 -69 0
725 258 0
450 416 0
-639 277 0
-12 104 0
-350 24 0
-164 -178 0
-58 125 0
787 377 0
-45 -143 0
456 327 0
-292 187 0
-773 -4 0
654 -692 0
138 -200 0
-474 578 0
401 -655 0
336 251 0
247 478 0
-533 -97 0
-568 182 0
-550 332 0
-118 -493 0
618 323 0
775 -133 0
-318 -643 0
717 702 0
645 -608 0
-87 187 0
-39 -71 0
467 410 0
-9 539 0
-509 -477 0
-619 569 0
455 -21 0
-160 -371 0
384 -646 0
-75 92 0
344 780 0
-440 473 0
377 -443 0
484 -43 0
815 -222 0
200 -699 0
605 27 0
-58 8 0
274 559 0
252 460 0
177 -345 0
258 -806 0
154 -258 0
217 -65 0
817 -97 0
82 636 0
-175 -391 0
-449 -657 0
-456 -156 0
-141 -75 0
777 267 0
-11 494 0
-182 168 0
696 531 0
149 269 0
-366 519 0
-200 302 0
-366 115 0
-740 -787 0
-244 792 0
575 666 0
18 516 0
-40 653 0
-566 478 0
255 -500 0
535 176 0
671 376 0
-32 -224 0
-800 -112 0
161 -489 0
783 349 0
281 138 0
63 526 0
-814 -351 0
-178 -599 0
-492 -419 0
-691 697 0
242 -219 0
657 -569 0
-212 -692 0
271 -744 0
182 357 0
411 652 0
-303 -287 0
553 -163 0
124 261 0
-716 -365 0
-388 80 0
484 428 0
789 -433 0
637 -371 0
-492 245 0
810 -599 0
-175 -814 0
504 -456 0
686 41 0
-60 -657 0
205 277 0
612 -572 0
-611 -44 0
-444 646 0
-765 -792 0
-101 -226 0
-367 -83 0
326 -159 0
-786 -118 0
-791 -550 0
663 817 0
749 304 0
-47 500 0
-787 699 0
816 785 0
584 242 0
-169 -574 0
-166 147 0
562 35 0
-340 -295 0
298 49 0
-36 -78 0
-167 300 0
-750 -307 0
-479 510 0
-438 610 0
358 -74 0
-659 -664 0
488 -589 0
-672 -750 0
-286 44 0
299 -81 0
645 780 0
343 420 0
-375 38 0
303 -597 0
411 -414 0
78 -569 0
506 7 0
-713 -335 0
763 -707 0
301 184 0
-38 284 0
-331 83 0
675 638 0
163 -230 0
-634 572 0
-174 684 0
-618 304 0
-657 -646 0
-264 31 0
-9 183 0
7 807 0
293 -76 0
-511 194 0
813 -721 0
-769 534 0
-659 -484 0
627 -342 0
-426 207 0
-787 11 0
-139 -732 0
64 -807 0
810 264 0
313 130 0
684 505 0
434 -407 0
248 -87 0
-803 445 0
539 473 0
432 -657 0
-382 474 0
441 138 0
6 -664 0
-730 -447 0
-412 130 0
-501 510 0
304 -799 0
209 543 0
-131 -22 0
726 366 0
-313 -683 0
-674 -656 0
-527 636 0
-720 -786 0
-331 -646 0
-96 -215 0
-57 280 0
63 569 0
289 -301 0
720 286 0
505 37 0
-33 516 0
785 -703 0
229 62 0
-56 812 0
797 -479 0
-687 -333 0
-247 -446 0
-646 462 0
-149 -731 0
321 199 0
509 -632 0
-270 599 0
151 39 0
-9 339 0
-450 322 0
680 253 0
662 594 0
35 -357 0
-673 721 0
-664 546 0
-552 119 0
243 -787 0
93 131 0
-574 -695 0
-49 415 0
591 -430 0
456 -633 0
-80 273 0
588 -135 0
669 -216 0
-141 662 0
672 -563 0
-790 107 0
19 -542 0
250 -500 0
785 -338 0
199 680 0
-39 -159 0
203 593 0
634 -798 0
-736 -692 0
-175 766 0
-130 526 0
572 462 0
-254 -566 0
214 -424 0
-664 817 0
-650 -746 0
-293 -124 0
-204 -354 0
-549 6 0
764 6 0
-241 452 0
-804 -180 0
176 267 0
273 -206 0
-430 732 0
-502 -412 0
239 38 0
367 -244 0
-282 715 0
398 155 0
582 -349 0
-802 323 0
-537 -366 0
-601 183 0
-255 -490 0
-721 -374 0
761 741 0
-20 442 0
-195 -334 0
319 -169 0
-77 122 0
-211 759 0
-689 -76 0
738 -106 0
-252 -814 0
-776 -373 0
502 254 0
51 -105 0
515 275 0
-247 -143 0
792 267 0
170 -99 0
-558 233 0
-588 285 0
-74 48 0
-3 -295 0
46 293 0
392 -134 0
-568 144 0
-2 668 0
-23 -713 0
-818 -722 0
-589 -559 0
108 -212 0
-389 298 0
-385 666 0
92 193 0
610 -358 0
-342 683 0
89 -184 0
-230 -611 0
-189 680 0
-587 134 0
-351 -295 0
-291 -357 0
-613 601 0
-304 -633 0
-32 413 0
64 -379 0
-73 -185 0
742 269 0
-479 315 0
-337 -363 0
-597 792 0
437 174 0
-15 186 0
-402 278 0
-736 -741 0
170 -512 0
673 -95 0
192 810 0
-240 257 0
-622 147 0
29 145 0
383 -155 0
-101 -475 0
-211 -563 0
135 -21 0
-465 -90 0
-78 349 0
-391 -209 0
165 -657 0
-574 -447 0
-654 -693 0
-777 -468 0
481 544 0
-392 -769 0
-45 268 0
442 480 0
-228 487 0
144 341 0
-799 326 0
-397 76 0
61 224 0
-605 -292 0
642 -723 0
-452 601 0
-232 -131 0
278 695 0
-428 729 0
-123 456 0
810 -401 0
424 -345 0
-241 251 0
-247 -689 0
-810 -192 0
-580 538 0
584 -286 0
-769 -786 0
805 -326 0
519 335 0
-724 197 0
-179 219 0
575 407 0
-255 -633 0
-353 809 0
-315 648 0
-378 4 0
-194 -38 0
-718 88 0
-92 666 0
624 -676 0
-137 -216 0
745 675 0
-194 -399 0
-424 -204 0
22 293 0
588 -791 0
10 135 0
-605 -210 0
-105 -597 0
51 445 0
259 679 0
496 -581 0
743 445 0
353 -717 0
138 -503 0
-634 186 0
226 97 0
95 648 0
-115 260 0
-416 -42 0
-590 510 0
-19 -775 0
51 433 0
-676 586 0
745 -355 0
53 -513 0
117 294 0
-805 -533 0
490 -397 0
434 476 0
24 -784 0
676 -156 0
432 -240 0
-114 521 0
-458 404 0
281 594 0
-374 -724 0
-579 -727 0
330 -328 0
301 136 0
-79 -159 0
396 -195 0
792 304 0
-457 -519 0
-674 199 0
272 -477 0
241 461 0
-284 729 0
-74 398 0
292 -503 0
325 526 0
514 248 0
-184 -305 0
-722 785 0
-314 143 0
602 -292 0
-643 483 0
-751 153 0
-9 -567 0
-374 -329 0
181 819 0
336 776 0
505 476 0
607 204 0
-305 -226 0
742 494 0
-585 -528 0
-156 220 0
-591 -471 0
-32 -559 0
308 361 0
568 714 0
421 771 0
-164 768 0
-52 151 0
543 -753 0
-340 762 0
-500 -198 0
-144 92 0
-682 -570 0
582 321 0
-197 -692 0
535 202 0
746 193 0
67 -151 0
-804 -56 0
-180 -188 0
679 -600 0
592 408 0
315 386 0
451 183 0
140 16 0
-46 55 0
-346 212 0
133 737 0
-384 499 0
-68 483 0
-65 -200 0
-301 301 0
-288 -485 0
-696 601 0
-321 -12 0
-218 238 0
560 -424 0
807 -596 0
53 -735 0
-90 -730 0
671 404 0
-585 416 0
-164 131 0
330 618 0
-527 -121 0
768 46 0
-405 296 0
758 -453 0
-337 811 0
816 332 0
317 245 0
-358 401 0
-110 -260 0
558 -661 0
406 -529 0
-646 429 0
171 338 0
413 685 0
-711 679 0
-110 455 0
725 -548 0
452 736 0
-174 -581 0
496 -731 0
674 -467 0
-318 39 0
327 413 0
123 788 0
-220 495 0
817 671 0
760 -242 0
229 174 0
551 153 0
474 -267 0
-630 422 0
732 155 0
-68 -659 0
678 -580 0
-617 336 0
631 280 0
116 -79 0
202 796 0
-814 429 0
-64 785 0
-672 376 0
-335 -623 0
170 -733 0
301 672 0
758 -372 0
-730 470 0
-52 95 0
429 505 0
-795 186 0
563 545 0
-768 -536 0
214 55 0
451 -303 0
301 168 0
-656 405 0
-20 781 0
455 -133 0
-646 650 0
-513 601 0
462 429 0
591 -503 0
-414 519 0
-373 10 0
-698 68 0
486 -5 0
-195 385 0
-262 -681 0
-430 217 0
434 752 0
-98 -766 0
236 214 0
-444 322 0
755 -535 0
-388 620 0
-557 599 0
-477 214 0
-41 -489 0
-340 -574 0
-345 234 0
-390 134 0
-754 552 0
-678 -465 0
-518 -710 0
-483 64 0
-730 610 0
-351 -103 0
92 -818 0
-438 6 0
66 -36 0
-73 178 0
92 806 0
81 -596 0
684 314 0
662 -799 0
-41 309 0
287 560 0
-690 -247 0
-814 304 0
383 132 0
-631 451 0
-769 -461 0
-563 676 0
601 -359 0
365 -135 0
699 -191 0
283 -632 0
-500 -366 0
-76 41 0
506 434 0
452 -460 0
57 558 0
-341 -786 0
-661 -220 0
151 -105 0
-42 -438 0
649 -629 0
-232 443 0
-43 7 0
530 93 0
-611 580 0
-635 -646 0
-513 -597 0
331 -215 0
-433 -817 0
473 -260 0
-612 -366 0
627 654 0
-640 351 0
-325 306 0
816 -763 0
267 -255 0
306 -40 0
599 441 0
771 -652 0
99 536 0
634 -799 0
758 547 0
-77 -5 0
466 -659 0
792 -778 0
267 -462 0
-739 -719 0
138 624 0
-483 -310 0
-110 341 0
601 -125 0
-282 78 0
-362 -640 0
-585 13 0
294 711 0
646 582 0
789 -438 0
307 -766 0
-493 -33 0
249 -141 0
-52 -320 0
278 450 0
661 506 0
-397 -223 0
-723 -155 0
-329 405 0
-420 811 0
-359 -61 0
538 434 0
272 331 0
635 -600 0
-354 -527 0
-510 524 0
436 -482 0
655 684 0
63 -181 0
-281 183 0
-106 245 0
697 327 0
-750 -269 0
411 319 0
607 144 0
631 91 0
-453 142 0
711 781 0
190 -73 0
-632 325 0
-105 -96 0
-337 187 0
427 -127 0
570 245 0
353 256 0
683 -739 0
-224 -689 0
-123 -803 0
496 664 0
466 -436 0
555 -642 0
639 756 0
-244 359 0
-177 -9 0
-664 524 0
696 236 0
213 -159 0
-630 -138 0
562 817 0
-208 -673 0
364 332 0
-125 617 0
645 -691 0
-59 -375 0
-368 -399 0
-449 -360 0
114 -523 0
-542 -49 0
-642 -611 0
659 -358 0
-309 -666 0
-82 724 0
276 -249 0
196 -507 0
203 66 0
405 607 0
377 -604 0
781 190 0
148 -485 0
-47 167 0
-731 -77 0
591 -770 0
528 -615 0
-445 -331 0
620 618 0
-632 258 0
478 -218 0
-689 -486 0
-350 742 0
-401 -818 0
-244 13 0
-507 49 0
-649 -523 0
704 215 0
-168 108 0
-305 -766 0
116 409 0
-291 -443 0
-238 341 0
-587 -475 0
-446 196 0
-74 641 0
818 760 0
-235 -334 0
-699 -185 0
526 -813 0
729 -503 0
-719 -69 0
-184 -60 0
-785 302 0
680 -442 0
747 543 0
301 21 0
138 -518 0
257 294 0
108 -820 0
-621 -331 0
797 16 0
-410 -228 0
-468 143 0
322 -650 0
669 435 0
-69 711 0
92 630 0
-722 793 0
127 -503 0
-538 407 0
-244 613 0
63 -744 0
521 -198 0
-493 366 0
-487 -436 0
-448 -316 0
508 -373 0
-628 -237 0
-315 -239 0
-161 497 0
-661 -652 0
-90 740 0
306 255 0
533 -730 0
151 -764 0
164 -112 0
-744 -243 0
-554 64 0
-411 62 0
-257 674 0
747 -369 0
672 178 0
470 -65 0
-220 326 0
755 639 0
795 -554 0
58 -368 0
-208 -192 0
-554 -341 0
281 -79 0
-596 22 0
-354 92 0
37 246 0
-709 -329 0
-472 -282 0
265 -359 0
-219 154 0
174 176 0
746 -791 0
172 118 0
181 -345 0
526 813 0
-439 -267 0
-232 -277 0
-402 651 0
808 -419 0
-616 -548 0
462 -444 0
-528 561 0
742 -164 0
-816 -634 0
-736 247 0
726 708 0
651 -778 0
-372 -530 0
380 -259 0
-359 474 0
611 117 0
474 -588 0
499 794 0
738 -218 0
-107 -731 0
-698 302 0
-493 44 0
53 347 0
502 -790 0
696 182 0
-424 -109 0
-141 460 0
-41 -701 0
669 -15 0
-485 -735 0
-87 -479 0
-724 177 0
30 703 0
-793 -239 0
328 403 0
248 796 0
181 3 0
201 499 0
362 -798 0
-744 -38 0
676 -64 0
-725 -750 0
662 -564 0
756 -544 0
-345 -718 0
401 -261 0
-395 293 0
-519 604 0
602 -611 0
-94 -820 0
-87 808 0
467 306 0
478 800 0
-193 -360 0
154 747 0
565 371 0
111 -130 0
566 -565 0
414 -388 0
620 -754 0
260 223 0
113 151 0
760 619 0
198 -548 0
796 747 0
308 338 0
-818 761 0
529 209 0
636 706 0
465 -635 0
-745 546 0
-798 764 0
-597 552 0
-731 -425 0
-360 -345 0
598 672 0
-105 456 0
-803 -791 0
-366 -705 0
-237 359 0
-739 94 0
-701 221 0
410 793 0
113 202 0
798 223 0
-705 668 0
-798 -29 0
684 33 0
187 97 0
-406 -609 0
-311 199 0
148 -22 0
-619 754 0
599 302 0
476 -13 0
534 -801 0
352 -688 0
-294 -414 0
761 -39 0
-214 201 0
-232 531 0
-699 136 0
-463 -764 0
469 771 0
-665 607 0
259 451 0
-67 811 0
150 505 0
716 571 0
-61 755 0
-20 -707 0
788 474 0
-398 293 0
-615 553 0
-459 -458 0
-56 -56 0
641 -252 0
-424 -180 0
-799 71 0
-191 -402 0
-200 -567 0
-171 685 0
-743 127 0
-779 385 0
-114 -123 0
-258 97 0
-532 447 0
436 -420 0
-389 -44 0
285 -647 0
-344 460 0
-794 171 0
-778 -657 0
397 663 0
-318 -195 0
47 302 0
190 -749 0
426 408 0
-98 457 0
-619 410 0
188 -349 0
-557 -286 0
-374 184 0
495 -235 0
-225 -220 0
-488 -597 0
-448 -70 0
778 528 0
-351 248 0
-761 641 0
731 -227 0
522 -41 0
374 43 0
-778 353 0
30 527 0
-607 24 0
700 61 0
-809 -173 0
565 405 0
488 322 0
516 -744 0
-75 636 0
186 594 0
343 621 0
708 -336 0
-569 283 0
587 130 0
591 155 0
545 490 0
-267 -339 0
-56 128 0
-235 -350 0
-424 31 0
370 667 0
85 -23 0
-392 -347 0
-696 85 0
-632 -757 0
258 -698 0
132 262 0
510 407 0
494 528 0
643 113 0
-419 143 0
-444 -30 0
71 -799 0
-267 -723 0
545 -84 0
223 364 0
747 605 0
317 -60 0
658 238 0
-675 714 0
-319 -248 0
155 504 0
547 384 0
606 641 0
-421 562 0
164 701 0
359 476 0
-96 -120 0
647 -651 0
-56 -613 0
-286 384 0
275 -22 0
-816 -64 0
547 -797 0
-393 464 0
419 128 0
-447 -198 0
-314 -543 0
136 186 0
-225 -596 0
761 673 0
-444 -239 0
30 394 0
-354 201 0
-516 474 0
49 -549 0
591 156 0
-816 -643 0
130 277 0
686 535 0
-751 -765 0
-486 170 0
297 -544 0
272 128 0
-158 302 0
-141 -650 0
-351 344 0
278 780 0
-813 300 0
-94 -305 0
321 -87 0
-173 714 0
520 125 0
-601 -609 0
-407 442 0
652 -369 0
164 672 0
-760 250 0
-270 676 0
-262 380 0
-751 -45 0
-607 301 0
478 714 0
63 5 0
-107 -480 0
-682 -575 0
-626 -362 0
-712 -745 0
-143 -646 0
402 -603 0
66 -87 0
-78 513 0
269 -158 0
-438 -544 0
-559 -34 0
184 505 0
316 -793 0
-388 128 0
-731 -534 0
-66 786 0
687 -387 0
99 -392 0
789 -617 0
-19 361 0
117 284 0
601 707 0
45 610 0
-102 566 0
-170 -448 0
-399 -66 0
249 154 0
-363 -557 0
-739 -71 0
412 184 0
-556 51 0
285 375 0
-596 728 0
-225 739 0
-341 -255 0
-566 -198 0
-699 -107 0
-70 529 0
-812 -236 0
538 552 0
312 621 0
-8 411 0
677 -317 0
-427 -735 0
-767 -81 0
-59 -3 0
757 63 0
-235 -577 0
-469 -378 0
526 272 0
780 -450 0
-650 -75 0
370 -55 0
-595 -754 0
635 -495 0
-735 559 0
210 478 0
609 -218 0
627 -702 0
529 -82 0
-150 202 0
484 318 0
-599 505 0
498 698 0
-114 654 0
573 -661 0
204 466 0
-233 701 0
785 29 0
-179 -133 0
-558 -119 0
478 -124 0
-339 -436 0
-397 682 0
-205 768 0
594 -753 0
-379 -529 0
808 -232 0
-79 539 0
-421 304 0
-654 165 0
401 -627 0
-393 -10 0
-212 383 0
717 -338 0
-7 -549 0
108 -327 0
-590 653 0
428 20 0
491 706 0
-615 -811 0
-348 -514 0
748 357 0
-49 452 0
434 -379 0
-712 757 0
7 -39 0
237 128 0
-313 578 0
-350 182 0
404 -432 0
691 729 0
-145 -656 0
-735 -564 0
165 756 0
-801 91 0
293 590 0
