c NF
p cnf 1325 2120
-25 -1315 0
314 878 0
-585 -1080 0
205 397 0
-352 -998 0
-824 626 0
350 -1168 0
148 -572 0
1007 -70 0
322 656 0
440 1172 0
1015 991 0
-568 -1032 0
-59 -841 0
1291 -436 0
315 1248 0
-1021 -1026 0
-815 -640 0
402 401 0
1019 -42 0
-1204 955 0
-679 -484 0
185 -104 0
-1081 855 0
-1091 1075 0
1280 307 0
-196 -285 0
-489 -582 0
542 -153 0
731 -810 0
567 -1019 0
997 -1058 0
-532 -1062 0
65 865 0
31 166 0
-422 1082 0
-949 -1227 0
-295 576 0
-361 471 0
1292 346 0
-1302 -171 0
-1055 -1087 0
281 869 0
-1179 889 0
-461 982 0
648 387 0
-523 -670 0
-150 94 0
1000 93 0
-693 -504 0
1209 1126 0
1243 330 0
-771 -158 0
149 693 0
1020 370 0
1111 -253 0
143 -955 0
-1056 -361 0
-951 666 0
909 -109 0
427 584 0
981 -243 0
1123 1118 0
30 267 0
-1137 674 0
-478 -1042 0
1052 991 0
1114 1144 0
601 1304 0
-98 1243 0
598 -58 0
108 1043 0
-1074 -350 0
-1057 988 0
1034 18 0
1207 -222 0
1325 -1127 0
299 483 0
-1310 91 0
-102 451 0
-534 787 0
-1302 319 0
-792 -522 0
959 -164 0
-1183 794 0
-1325 962 0
745 1325 0
819 330 0
-41 -1157 0
-510 329 0
10 -455 0
177 317 0
1250 650 0
-188 216 0
947 491 0
1289 -595 0
589 1278 0
428 -819 0
113 333 0
-239 766 0
351 -533 0
152 170 0
-316 459 0
832 -630 0
162 1261 0
237 -697 0
429 -1154 0
52 -185 0
-246 876 0
-294 1024 0
-481 -1274 0
431 816 0
532 610 0
596 686 0
-1034 781 0
-1254 -484 0
-43 507 0
286 510 0
307 -47 0
-778 -582 0
-175 453 0
593 -229 0
145 1008 0
1180 -289 0
-908 1110 0
-8 -172 0
-111 145 0
1282 -729 0
801 -97 0
990 -609 0
189 -939 0
-1009 -1031 0
1258 807 0
1270 372 0
-875 -1195 0
1172 -1262 0
-79 -1307 0
757 -873 0
1086 -358 0
-798 -117 0
425 592 0
-902 -398 0
601 -1086 0
-1051 1261 0
752 763 0
-1289 594 0
1212 1195 0
725 734 0
1223 954 0
-769 106 0
739 1279 0
-641 274 0
-1232 505 0
720 760 0
-1120 1184 0
766 -230 0
-488 247 0
1132 1069 0
-48 -437 0
-614 193 0
-638 -454 0
1160 -276 0
-799 -766 0
-581 1133 0
-210 1203 0
-1118 1148 0
1100 1103 0
-55 -287 0
530 -889 0
-1229 719 0
939 -1185 0
-326 1036 0
-646 883 0
848 501 0
1297 1154 0
211 1076 0
-285 -197 0
930 1203 0
-311 456 0
113 -1047 0
376 1034 0
-40 -1073 0
-400 212 0
35 906 0
-307 1139 0
367 814 0
589 885 0
-799 224 0
-514 -1305 0
-304 -1215 0
-1181 -12 0
-943 1222 0
-409 1205 0
868 -92 0
1219 946 0
214 -855 0
-911 -656 0
603 -1027 0
666 1259 0
1223 -342 0
80 -1122 0
-251 650 0
487 698 0
128 -485 0
-260 40 0
-300 1125 0
716 -134 0
1259 -1063 0
1296 -934 0
-1227 -29 0
536 83 0
1116 49 0
-198 876 0
-1197 -806 0
-522 281 0
1137 -802 0
1295 345 0
939 250 0
442 846 0
-580 -218 0
841 1232 0
-403 1170 0
565 -1092 0
328 243 0
-923 -1147 0
-865 80 0
-452 887 0
-780 -39 0
-966 1271 0
1125 760 0
-706 -9 0
166 994 0
417 517 0
-740 -131 0
-799 454 0
-851 -67 0
-491 -181 0
1220 -424 0
-677 618 0
-313 203 0
889 -1102 0
-296 506 0
-72 -848 0
-1127 -861 0
916 210 0
-945 1054 0
528 160 0
743 639 0
-754 1306 0
465 712 0
375 -1284 0
-787 -55 0
-800 77 0
108 290 0
927 479 0
-123 607 0
1313 317 0
231 366 0
222 -644 0
-983 -1020 0
-451 479 0
-146 -745 0
-164 1174 0
-725 300 0
-768 1295 0
506 -777 0
231 -333 0
576 189 0
452 -198 0
939 -92 0
-793 -1030 0
-476 -171 0
-628 -771 0
668 1081 0
-231 -442 0
118 -665 0
1158 -1018 0
1302 418 0
-1253 -619 0
1281 1303 0
-1124 835 0
1189 -1318 0
-1211 -521 0
-837 847 0
-332 -1184 0
-661 -1199 0
-1061 811 0
-1254 -601 0
-955 -875 0
-126 1275 0
170 1124 0
-436 755 0
-258 -98 0
-1051 -1312 0
-156 -179 0
325 -562 0
-1193 1269 0
605 -811 0
-754 -418 0
423 563 0
1138 -680 0
390 721 0
1088 319 0
734 319 0
-799 349 0
438 -422 0
423 528 0
-1178 -235 0
-1244 639 0
383 892 0
827 235 0
205 -1254 0
873 441 0
-177 1049 0
-1198 -482 0
739 -1089 0
869 693 0
-1208 645 0
-1320 296 0
-1314 -536 0
19 1291 0
543 590 0
-234 884 0
737 169 0
-542 105 0
1325 -549 0
1224 466 0
201 809 0
-251 -499 0
-565 -298 0
182 916 0
659 -581 0
718 -537 0
-1045 -382 0
-1037 134 0
344 721 0
-1247 -644 0
-657 577 0
224 -1259 0
-1115 -966 0
409 818 0
-554 565 0
696 371 0
-717 -1257 0
728 142 0
-1309 954 0
302 -837 0
-331 -515 0
-134 610 0
302 -130 0
-1073 -535 0
585 -1200 0
-332 972 0
-1086 163 0
-217 -399 0
-1190 938 0
-888 669 0
713 1260 0
-597 138 0
120 705 0
331 -704 0
927 330 0
-780 1298 0
-490 234 0
384 1121 0
-1105 387 0
770 -1186 0
1084 -1061 0
-930 281 0
-654 -139 0
103 559 0
64 -842 0
819 1121 0
-620 549 0
659 876 0
831 -1279 0
-968 642 0
840 1292 0
640 -299 0
688 886 0
-653 -682 0
608 -518 0
-829 -1037 0
-867 -492 0
-992 159 0
-414 -401 0
1235 131 0
-1247 653 0
-649 666 0
261 781 0
502 -519 0
-272 -106 0
642 -484 0
1039 253 0
401 164 0
-157 712 0
-316 543 0
339 -1142 0
-329 -41 0
-549 734 0
-375 874 0
-108 731 0
139 589 0
1085 430 0
-600 -649 0
-292 1202 0
-1038 -532 0
-136 -585 0
249 739 0
-114 -449 0
-785 1044 0
-133 -159 0
-635 1038 0
590 -1036 0
-243 220 0
-945 593 0
-930 -758 0
1249 -756 0
-1325 -442 0
1132 -68 0
41 -490 0
250 743 0
609 -257 0
-326 -729 0
-661 -278 0
1322 731 0
1077 1120 0
384 1097 0
1143 -799 0
128 1004 0
-960 1169 0
-233 1144 0
456 -191 0
-733 260 0
-725 880 0
-1227 669 0
-528 -429 0
818 16 0
603 107 0
-1097 676 0
322 -945 0
252 381 0
-13 -1131 0
447 731 0
1078 71 0
808 -1190 0
-707 -1262 0
-341 308 0
-963 1240 0
-921 -775 0
704 973 0
884 -1145 0
1232 -157 0
584 -991 0
535 772 0
-515 549 0
-82 -312 0
-62 299 0
-762 -1244 0
-505 67 0
-277 1034 0
775 1005 0
117 -1074 0
-313 -1122 0
-441 -766 0
283 815 0
-1152 1239 0
465 -853 0
307 -113 0
1325 -758 0
-152 -968 0
1240 -846 0
-1136 673 0
-479 -136 0
1133 -802 0
-59 -500 0
961 -750 0
-952 -420 0
-563 127 0
379 223 0
721 -1108 0
1301 -30 0
-152 -168 0
-1316 906 0
641 -76 0
-585 1138 0
-923 183 0
-1304 45 0
-585 -1193 0
-1078 1123 0
696 890 0
-561 399 0
418 -302 0
984 -677 0
99 -1022 0
-1154 78 0
-235 -314 0
100 1085 0
-389 -7 0
-1117 554 0
1278 -484 0
990 655 0
-1084 1026 0
-835 904 0
412 555 0
1145 -925 0
-977 -527 0
1273 -546 0
-1132 240 0
-1177 407 0
635 -628 0
282 -867 0
723 -902 0
215 194 0
-8 -249 0
835 1 0
-825 -1227 0
1000 502 0
-1026 448 0
-941 -624 0
887 947 0
-735 135 0
859 -168 0
481 -747 0
80 1240 0
35 -725 0
-1151 -1309 0
-39 -341 0
-1099 -1320 0
-1181 171 0
-147 727 0
-745 -330 0
-400 -223 0
407 -1315 0
-473 675 0
-983 575 0
-25 1171 0
712 1299 0
416 164 0
-1117 593 0
859 -33 0
-253 1123 0
-656 77 0
305 1240 0
398 165 0
128 -931 0
385 710 0
32 -921 0
-992 -461 0
735 -965 0
-846 -1164 0
-634 265 0
-904 -604 0
260 883 0
261 -456 0
-764 -337 0
746 -711 0
149 -479 0
-8 -1248 0
813 -833 0
122 -1201 0
-934 -549 0
-849 -78 0
914 1062 0
916 -1164 0
885 -308 0
-59 -260 0
-313 -1267 0
-252 166 0
501 -535 0
503 -553 0
-1239 34 0
749 -1163 0
-322 336 0
1235 -1291 0
158 724 0
-73 -404 0
325 -914 0
-853 621 0
540 459 0
-1309 -451 0
1072 -310 0
-18 -273 0
364 283 0
612 113 0
575 687 0
-1142 -994 0
225 -961 0
228 1261 0
1197 918 0
-714 590 0
996 -707 0
-697 1095 0
787 -439 0
-993 -1012 0
1123 -985 0
430 -767 0
642 819 0
330 -1153 0
-643 1037 0
1142 308 0
851 377 0
496 307 0
-963 596 0
781 366 0
-50 69 0
-380 812 0
-798 1 0
497 159 0
-670 574 0
-76 706 0
-15 1293 0
252 -256 0
-62 -851 0
-890 -1252 0
-101 431 0
-2 -241 0
-709 395 0
-662 -195 0
-456 -836 0
322 -509 0
11 1083 0
267 208 0
-1309 705 0
-846 -857 0
375 -462 0
-344 -361 0
808 189 0
-48 1244 0
609 -663 0
-310 -567 0
1115 1184 0
-937 -710 0
1323 368 0
250 -551 0
435 -1195 0
-688 855 0
-212 1028 0
-469 -283 0
1005 1067 0
-223 319 0
201 -673 0
696 -1089 0
-1309 1258 0
-1258 -137 0
-1013 -795 0
-988 6 0
648 -542 0
-799 589 0
571 1068 0
292 -445 0
-207 -831 0
-347 -577 0
-688 -1021 0
1298 -1142 0
928 877 0
-1074 762 0
-824 -643 0
992 509 0
1000 -295 0
1041 209 0
463 -278 0
-361 904 0
-217 -868 0
-133 -411 0
-483 -717 0
201 -1072 0
-1137 -111 0
-1091 1017 0
408 49 0
-1317 -416 0
1139 -9 0
510 564 0
-1234 1134 0
-556 975 0
376 -1087 0
1059 -870 0
-645 307 0
-131 -990 0
-1075 -445 0
-874 -609 0
-836 463 0
735 -785 0
480 673 0
1095 483 0
976 499 0
-790 -980 0
881 713 0
-424 -59 0
346 -555 0
-796 -1282 0
67 335 0
-337 64 0
-1108 627 0
-1042 -1232 0
-1204 582 0
796 -659 0
-652 1274 0
-542 -1024 0
1298 794 0
-979 12 0
-176 951 0
1149 -430 0
-1164 -426 0
1028 125 0
-2 1016 0
-1111 685 0
-1103 351 0
-799 46 0
523 -8 0
831 -691 0
573 1133 0
775 402 0
-54 796 0
-1146 -1083 0
921 971 0
-905 -898 0
-188 185 0
-670 576 0
-1320 1023 0
-951 -864 0
691 1159 0
-1110 -400 0
-94 -877 0
-1035 -422 0
-1282 160 0
474 -139 0
982 503 0
-682 -1007 0
-908 -299 0
947 -906 0
-645 625 0
816 108 0
-1070 1290 0
1199 796 0
612 -678 0
142 -1252 0
601 1293 0
128 -441 0
112 310 0
-13 -875 0
1159 786 0
-1256 -112 0
201 823 0
957 694 0
340 615 0
-166 -87 0
1072 -1293 0
-1011 118 0
-172 879 0
-2 988 0
224 -262 0
402 1068 0
772 414 0
-621 375 0
899 927 0
723 -1264 0
-1148 878 0
-154 -1197 0
159 552 0
988 -434 0
206 1222 0
-202 -548 0
86 753 0
-1181 -240 0
-1128 -560 0
-230 693 0
1306 -602 0
-1166 1281 0
-361 -626 0
-588 -977 0
340 615 0
-643 166 0
657 -1080 0
-736 790 0
-20 352 0
677 -1255 0
-1076 1268 0
-1190 -623 0
-486 993 0
-416 443 0
1138 -552 0
1221 -905 0
-7 -558 0
732 166 0
-203 -423 0
-177 -741 0
1222 687 0
120 677 0
-1117 567 0
-1245 1134 0
1188 -1018 0
1223 -762 0
-881 -1300 0
728 27 0
-500 -404 0
1151 -1141 0
-1180 596 0
-769 925 0
-1071 -1266 0
75 158 0
1274 199 0
-1141 -834 0
-327 206 0
643 -851 0
-923 -1002 0
-645 -18 0
-85 -325 0
-341 61 0
-218 -62 0
918 -523 0
250 -313 0
-166 -475 0
-272 848 0
970 -861 0
615 761 0
-544 -1295 0
-257 -1194 0
407 637 0
1104 707 0
100 -761 0
101 60 0
-333 826 0
1043 -556 0
-15 1241 0
708 -651 0
656 -588 0
1067 1255 0
829 935 0
695 -675 0
194 425 0
407 -756 0
-465 250 0
78 -414 0
548 -1183 0
-447 -371 0
10 1160 0
-468 -62 0
1117 792 0
-306 1045 0
-123 351 0
-647 212 0
632 212 0
868 -1250 0
685 2 0
-1256 -348 0
779 -257 0
98 56 0
-446 -180 0
-1261 204 0
961 900 0
484 454 0
-692 -482 0
1110 -905 0
663 330 0
883 379 0
-983 -1042 0
157 831 0
-924 1137 0
-331 -725 0
614 -119 0
1025 -540 0
730 603 0
-861 -121 0
-227 528 0
-1191 -1291 0
-913 862 0
-266 1072 0
-532 -857 0
893 -784 0
-982 338 0
-504 381 0
-358 529 0
1182 -1117 0
-432 716 0
1182 -908 0
-854 1196 0
687 -947 0
782 -1188 0
-38 -357 0
598 -249 0
-285 680 0
-894 335 0
228 -1291 0
-472 1006 0
-1263 378 0
1031 651 0
-397 -375 0
-683 -1087 0
-778 -849 0
-1061 -387 0
619 320 0
-843 48 0
34 185 0
961 -1189 0
467 -1093 0
668 814 0
1122 -1324 0
-49 -540 0
868 -1066 0
819 876 0
-159 16 0
791 779 0
-1094 -754 0
502 -1077 0
-1019 -705 0
366 974 0
715 -436 0
-535 -196 0
-1191 -809 0
-851 -571 0
-112 831 0
-1190 -1253 0
1197 1162 0
-241 -233 0
261 1234 0
-341 870 0
-1320 1254 0
-337 437 0
383 -227 0
-1114 -605 0
1324 494 0
-1313 527 0
-122 556 0
676 726 0
-249 -22 0
378 134 0
-600 1151 0
1069 66 0
1195 -415 0
-830 -439 0
1297 1302 0
-156 -1142 0
777 1134 0
1145 -1210 0
-923 289 0
-1081 577 0
-71 -454 0
-741 21 0
948 -491 0
-1056 -274 0
-1018 -1199 0
933 -325 0
-908 -267 0
404 28 0
417 899 0
-778 570 0
-537 -118 0
573 -1220 0
-229 -182 0
-678 1202 0
1021 575 0
530 531 0
-418 -753 0
-1042 645 0
-710 -611 0
-779 88 0
1307 1218 0
-1317 -634 0
-1292 1138 0
-554 805 0
528 -1122 0
-841 -1019 0
336 -767 0
957 988 0
-359 -1233 0
-71 295 0
-360 922 0
255 137 0
163 -442 0
655 937 0
1209 -1023 0
-1244 926 0
415 443 0
606 -1233 0
-1167 -332 0
596 887 0
1212 -552 0
949 -461 0
763 -234 0
-213 -675 0
37 562 0
559 208 0
-1322 -686 0
318 -272 0
-766 -48 0
627 -1220 0
-1018 1025 0
55 1137 0
1176 1124 0
-1011 1003 0
700 1067 0
1242 -447 0
-1171 -1183 0
345 536 0
519 -769 0
1219 1002 0
1137 156 0
1182 -324 0
834 497 0
-511 497 0
444 753 0
1199 1148 0
1171 -896 0
-1202 1098 0
-1285 418 0
1277 226 0
-1272 -779 0
931 45 0
-808 211 0
-115 -1181 0
-686 -1132 0
-561 -1077 0
987 456 0
-366 1207 0
879 -1081 0
154 358 0
369 947 0
-37 -532 0
-1254 335 0
-870 -428 0
1043 98 0
893 1277 0
716 1150 0
480 188 0
-133 670 0
87 458 0
593 -747 0
-400 -716 0
-432 1027 0
-668 615 0
564 114 0
-799 -1089 0
99 -620 0
1081 19 0
-432 -897 0
106 -1239 0
-566 317 0
-239 -1017 0
-326 1174 0
807 -840 0
-455 -870 0
452 1288 0
1033 807 0
-714 376 0
-1077 622 0
-794 -978 0
15 239 0
-1275 401 0
944 1074 0
-102 -332 0
97 350 0
-923 -1214 0
873 145 0
-284 -815 0
-948 56 0
-923 -1070 0
1052 61 0
63 -1302 0
1175 -159 0
1306 -1315 0
344 -23 0
-3 519 0
105 1082 0
-12 -220 0
-468 893 0
1001 -23 0
-1044 1021 0
-82 -780 0
753 556 0
-320 1029 0
471 -1015 0
78 790 0
35 -1101 0
351 -354 0
1251 1150 0
801 -790 0
437 431 0
869 666 0
-793 -941 0
709 576 0
755 1022 0
443 1213 0
-1102 -940 0
-1225 -798 0
1077 160 0
-279 -23 0
1032 -549 0
-133 -509 0
-1197 -1062 0
1188 -685 0
-1051 850 0
-1163 -344 0
871 100 0
-966 -1104 0
626 -1238 0
-1247 -7 0
-228 -306 0
238 -312 0
-87 -355 0
-1118 -649 0
51 1220 0
63 525 0
266 -1016 0
-686 339 0
1022 261 0
-643 -612 0
-40 1269 0
-858 -171 0
1159 -322 0
-473 -453 0
-555 -516 0
496 -473 0
824 -1062 0
1257 739 0
1269 634 0
-1187 -566 0
-514 922 0
1313 -583 0
713 31 0
-969 -207 0
1170 973 0
-316 1041 0
1318 -717 0
-1194 165 0
843 459 0
391 -1258 0
433 -461 0
502 -1044 0
-1173 -983 0
-18 837 0
861 -566 0
-1103 -1076 0
1158 -176 0
-1290 -980 0
-241 -647 0
372 437 0
-30 -30 0
-172 -844 0
952 -33 0
-693 -1032 0
-227 -342 0
1015 -610 0
-176 1188 0
951 83 0
290 114 0
980 927 0
135 958 0
-178 -426 0
-287 -628 0
-848 346 0
-532 -285 0
724 305 0
1279 -429 0
-870 -445 0
1278 1110 0
1221 406 0
-981 -322 0
916 351 0
-178 -245 0
-105 -198 0
712 197 0
1216 494 0
825 -1196 0
398 1212 0
140 385 0
-105 757 0
-678 -920 0
-903 1053 0
-1109 171 0
-450 1057 0
-978 -735 0
-114 -60 0
-530 -1258 0
-928 1081 0
607 1221 0
744 -840 0
-1149 -1281 0
-633 -635 0
-1318 -958 0
263 1321 0
826 -355 0
-424 113 0
-199 -773 0
495 154 0
1112 -721 0
71 212 0
828 15 0
-24 895 0
996 -1011 0
-561 -127 0
-980 1309 0
570 -1245 0
-551 394 0
1025 -569 0
-1315 -1080 0
1282 346 0
240 -717 0
1066 -42 0
231 -236 0
1147 -806 0
-572 748 0
958 -977 0
-148 -31 0
-699 -54 0
672 642 0
121 456 0
2 -1202 0
-665 -583 0
-43 263 0
-1102 1272 0
1000 761 0
-497 953 0
-48 -1239 0
-470 819 0
-958 132 0
1020 -614 0
-1300 100 0
-532 456 0
-419 1218 0
-1119 50 0
408 -1275 0
874 1075 0
801 402 0
1268 325 0
-585 665 0
-1040 -496 0
727 -946 0
928 938 0
-554 -1318 0
898 1171 0
-8 -925 0
-639 -1031 0
579 1314 0
-276 502 0
-251 1003 0
655 -979 0
-847 1278 0
565 789 0
-118 1145 0
-870 1112 0
648 -532 0
-430 -963 0
-986 183 0
1165 -848 0
1071 1261 0
638 635 0
-299 -1016 0
-1113 877 0
1110 -578 0
1306 -225 0
41 -1064 0
556 -761 0
-11 -1264 0
1192 1204 0
621 -223 0
-165 -663 0
-169 1209 0
1151 185 0
-567 -1079 0
-1093 366 0
-58 -137 0
-453 472 0
-241 835 0
1167 -408 0
-1244 225 0
-1097 -759 0
-557 -52 0
-547 555 0
-1179 502 0
337 901 0
-94 935 0
1186 -2 0
446 -9 0
407 -1300 0
203 743 0
-1226 378 0
792 -1106 0
-306 26 0
1049 112 0
-447 1120 0
901 -1083 0
-755 -1192 0
349 -1019 0
-1247 -105 0
731 -336 0
-923 585 0
-224 632 0
-299 273 0
173 -312 0
802 187 0
992 839 0
-115 -1242 0
215 -1210 0
305 -1120 0
-626 -719 0
1107 582 0
1148 -398 0
564 503 0
763 455 0
-292 -182 0
-1303 993 0
339 694 0
1120 -905 0
584 -295 0
-1143 -410 0
226 -196 0
-348 -829 0
-1229 -1202 0
-672 -555 0
-360 1147 0
-118 -837 0
-346 859 0
378 -1313 0
-902 -286 0
953 -303 0
-33 1278 0
460 502 0
1149 961 0
1182 -472 0
-516 -26 0
1230 214 0
975 419 0
421 -75 0
-619 1034 0
278 -260 0
753 1148 0
972 252 0
-1200 382 0
-115 522 0
-908 883 0
-126 706 0
-450 -1286 0
1 -338 0
-275 -1229 0
-324 -139 0
830 -1141 0
-1272 -964 0
-1083 -1279 0
14 808 0
618 798 0
201 1302 0
308 40 0
510 658 0
1303 570 0
1298 271 0
572 -312 0
93 1072 0
652 -467 0
820 -226 0
-484 -443 0
1307 -199 0
265 -588 0
834 770 0
-432 -817 0
-541 1076 0
-1019 1185 0
-892 493 0
-803 -1155 0
-479 -283 0
496 329 0
1224 240 0
67 -681 0
519 416 0
390 -1164 0
-158 -1317 0
1156 1219 0
-746 17 0
-626 -1037 0
-2 -979 0
994 464 0
-795 803 0
-34 -293 0
900 1017 0
-390 -873 0
-329 510 0
1036 708 0
1230 690 0
-173 1230 0
-725 742 0
-658 -196 0
-828 10 0
789 114 0
-676 -641 0
801 -706 0
743 -344 0
-439 -960 0
1014 -482 0
764 -344 0
-910 880 0
260 -395 0
1293 -430 0
788 -581 0
-1141 72 0
-559 827 0
-609 -236 0
-750 -19 0
-287 521 0
-324 -25 0
-404 -618 0
1192 -375 0
-1232 1031 0
-409 -1279 0
125 908 0
-771 358 0
-600 31 0
292 954 0
699 -585 0
501 796 0
495 -168 0
-294 584 0
-450 -279 0
161 606 0
783 962 0
49 -557 0
839 513 0
-1309 1038 0
-481 679 0
-1111 -116 0
-867 -1205 0
1113 -564 0
1252 537 0
-729 204 0
900 -149 0
389 487 0
1165 1302 0
-1010 82 0
129 -1055 0
1235 1138 0
-403 1076 0
11 -326 0
-112 854 0
-699 527 0
696 -57 0
1157 109 0
191 -403 0
-1299 -339 0
-140 -534 0
842 -139 0
-1187 -996 0
-1231 -1310 0
-1089 -277 0
-404 867 0
1288 1019 0
-244 -85 0
-789 957 0
305 793 0
814 -173 0
1213 496 0
-25 557 0
-960 -814 0
-464 -1283 0
-968 -1225 0
712 -334 0
-991 648 0
-137 -1183 0
-314 246 0
806 -1051 0
1325 -725 0
-1151 -881 0
718 1123 0
-1183 -140 0
431 914 0
28 -656 0
550 -94 0
-1323 -160 0
1260 739 0
774 68 0
96 141 0
1219 -1056 0
935 -1191 0
-43 562 0
1189 -324 0
-99 -810 0
-567 644 0
-511 273 0
1182 -1314 0
559 448 0
-560 -824 0
-542 1127 0
-48 -978 0
-741 -837 0
-1311 1168 0
-298 -90 0
-1179 -235 0
1048 -74 0
555 -820 0
-683 471 0
835 273 0
811 405 0
-579 -450 0
869 -773 0
-612 -479 0
912 -1315 0
-994 -1313 0
-244 -717 0
495 -985 0
206 -1140 0
1097 -237 0
1241 -221 0
-20 -956 0
743 -745 0
953 86 0
140 -1122 0
249 -620 0
-955 -333 0
-968 -1007 0
93 383 0
1003 934 0
19 1176 0
-187 1237 0
-297 -217 0
1237 1158 0
1277 1316 0
-999 129 0
-1293 398 0
-1292 -500 0
962 -1175 0
-202 -218 0
1036 -273 0
-331 -835 0
-794 415 0
721 -1160 0
994 -422 0
-309 -864 0
-708 395 0
-628 966 0
999 -1074 0
-115 -92 0
209 -134 0
-430 -622 0
-304 72 0
-331 -481 0
-728 402 0
1050 -239 0
1104 -1047 0
-864 346 0
476 507 0
868 667 0
568 -675 0
-473 -1136 0
-1006 -549 0
-824 923 0
-383 53 0
-759 382 0
417 269 0
-462 -1073 0
41 -875 0
-745 -537 0
1078 -1005 0
-539 -135 0
-157 687 0
-1262 -793 0
-400 -1108 0
-1208 -1308 0
-675 -578 0
-1314 651 0
800 337 0
690 582 0
-670 957 0
-257 -36 0
466 1224 0
-1308 413 0
497 -111 0
916 -857 0
-691 243 0
-118 -5 0
690 -421 0
-870 1009 0
-1191 -299 0
-679 453 0
-213 1057 0
-1056 -437 0
-377 -481 0
-37 89 0
1184 -190 0
438 -761 0
-123 -590 0
-297 348 0
-983 -634 0
573 -542 0
-934 398 0
-398 63 0
1216 -87 0
21 228 0
876 237 0
733 933 0
1216 954 0
1002 -491 0
935 -638 0
-530 1172 0
-583 -581 0
351 1161 0
1123 -995 0
-546 933 0
656 348 0
720 -151 0
1072 -167 0
-758 -899 0
-781 -1151 0
-414 419 0
-547 -771 0
-857 -220 0
-1238 20 0
1022 -1248 0
-865 -216 0
-636 501 0
-973 -813 0
820 -198 0
-402 1031 0
893 1314 0
993 -1046 0
937 144 0
-324 897 0
1100 228 0
135 -616 0
-293 986 0
295 -802 0
1069 -432 0
-1166 -1170 0
852 -398 0
-515 599 0
874 45 0
961 -924 0
-157 1003 0
994 48 0
-783 -1184 0
1124 -588 0
-320 1008 0
-1296 -298 0
-1294 -192 0
503 499 0
215 443 0
435 947 0
65 825 0
463 966 0
-824 -474 0
-1156 -326 0
651 52 0
509 425 0
359 -485 0
1131 1023 0
792 -88 0
319 856 0
-426 -521 0
633 1273 0
-1170 472 0
-840 572 0
-1298 -934 0
-1253 -873 0
772 -437 0
953 330 0
-630 -424 0
549 1192 0
-832 -820 0
1068 411 0
-1196 -292 0
-1068 -1124 0
-433 -491 0
305 -1179 0
-853 -322 0
135 -234 0
759 1212 0
564 -1306 0
185 -954 0
-1064 607 0
-7 -44 0
-711 377 0
-1050 517 0
712 295 0
1319 -42 0
1099 -960 0
-574 -982 0
-133 -561 0
954 -8 0
-1318 -338 0
-768 737 0
-284 -87 0
694 163 0
483 1172 0
-1319 -4 0
-238 -1229 0
-304 953 0
-1318 -588 0
-333 602 0
575 -438 0
357 -63 0
937 -785 0
-753 1162 0
-76 399 0
-1272 1020 0
-62 -1044 0
186 -1238 0
359 588 0
314 620 0
-84 328 0
-459 -658 0
-696 -482 0
33 214 0
1162 1021 0
-522 -66 0
520 712 0
-938 275 0
-878 -277 0
1316 -1128 0
-894 -436 0
-1317 -945 0
-897 -1103 0
-569 -469 0
1228 -1304 0
603 849 0
-600 15 0
480 -4 0
-1315 -1132 0
984 -1051 0
-61 808 0
-140 -334 0
-639 1292 0
-579 381 0
874 136 0
-670 -578 0
1028 -1042 0
-540 -495 0
-25 -1132 0
1113 -20 0
-132 -475 0
1187 879 0
-527 -1065 0
-753 -42 0
-1045 -768 0
860 543 0
740 883 0
-870 1312 0
845 631 0
-500 -426 0
144 -266 0
-430 -202 0
12 -241 0
-67 349 0
804 1183 0
1306 169 0
782 1015 0
-54 444 0
1103 125 0
212 -1069 0
-157 -1148 0
-85 -925 0
-1319 315 0
-896 -646 0
-400 668 0
844 780 0
317 -146 0
-119 -130 0
884 957 0
939 -277 0
-451 -410 0
63 339 0
-106 349 0
142 -285 0
-538 -362 0
1017 435 0
972 -488 0
425 1238 0
-1065 -175 0
961 67 0
-1000 828 0
359 -617 0
268 506 0
466 -1248 0
1075 -1201 0
-270 -541 0
-113 553 0
751 -403 0
671 -656 0
-504 1242 0
164 279 0
-1168 451 0
-339 95 0
-119 -883 0
-1239 60 0
785 206 0
-432 -636 0
1091 -952 0
1076 -102 0
1031 -146 0
555 -180 0
-280 -491 0
513 -1007 0
-190 20 0
370 -598 0
1186 696 0
788 859 0
564 -1083 0
-1131 -1077 0
698 -892 0
-40 340 0
-1282 -910 0
-649 -1153 0
199 846 0
-410 -722 0
-696 944 0
389 -775 0
-79 222 0
448 -891 0
789 956 0
600 -318 0
96 763 0
1267 -41 0
-534 -115 0
-996 1011 0
14 829 0
1005 1021 0
-398 86 0
368 1311 0
-574 -773 0
65 866 0
-675 886 0
321 765 0
468 635 0
709 -327 0
408 -753 0
128 -234 0
1317 1274 0
281 650 0
-733 474 0
126 67 0
-1145 1255 0
-482 251 0
591 -203 0
937 -1227 0
789 -1317 0
205 462 0
883 -1132 0
1161 231 0
-142 618 0
303 -48 0
-235 -409 0
-451 312 0
762 -1005 0
132 -414 0
-1311 -1247 0
450 103 0
105 -1311 0
-611 -559 0
-1264 1055 0
1169 -1201 0
-396 -261 0
444 -20 0
672 -758 0
-1197 -283 0
1325 352 0
-907 -1245 0
-229 -1163 0
389 -207 0
-38 -1199 0
985 377 0
-1114 76 0
-1141 1312 0
411 454 0
-912 -220 0
-773 -1105 0
-1206 -42 0
564 1038 0
-937 -1283 0
831 465 0
-1237 -676 0
-203 -603 0
964 -1259 0
-386 -592 0
-591 -561 0
250 317 0
437 -97 0
708 -106 0
-495 -106 0
1081 140 0
-646 275 0
130 994 0
600 653 0
-284 -1238 0
-177 -396 0
-491 131 0
621 -453 0
-223 632 0
823 56 0
-676 -361 0
310 -1238 0
-312 1132 0
672 -253 0
-481 -92 0
-1287 1233 0
-611 581 0
-1101 1062 0
-543 1171 0
-393 492 0
1221 1215 0
822 581 0
1091 -1319 0
159 -1209 0
788 -283 0
-1204 1081 0
-276 192 0
-270 -35 0
572 113 0
-784 -207 0
-649 -209 0
168 255 0
-1078 -656 0
-163 -380 0
-973 -1275 0
1014 -698 0
80 232 0
435 913 0
1297 1149 0
981 -963 0
1023 -778 0
441 -1087 0
-552 856 0
626 487 0
1082 578 0
-113 385 0
-682 1257 0
-190 970 0
-503 -1145 0
459 986 0
-197 961 0
765 405 0
-960 -1240 0
572 1324 0
273 66 0
1038 451 0
-1259 17 0
-251 1147 0
1288 970 0
-1103 -1150 0
1091 249 0
734 -47 0
-1117 -673 0
-996 358 0
-254 -799 0
72 1227 0
-68 -680 0
-1246 1236 0
-362 -43 0
121 730 0
-1087 -971 0
674 -175 0
650 -30 0
-1083 -1143 0
-254 -343 0
-849 -655 0
751 -1 0
48 -1074 0
-1067 -386 0
454 112 0
-313 -659 0
115 377 0
71 -678 0
307 -1325 0
-147 443 0
-1178 -1208 0
1144 1137 0
-392 248 0
228 422 0
441 1308 0
459 884 0
812 1269 0
-1258 1273 0
-780 194 0
-1165 924 0
1184 -127 0
595 839 0
70 -686 0
1011 594 0
-638 -1169 0
486 615 0
-1260 -790 0
127 1075 0
-3 -665 0
480 628 0
942 601 0
1052 -923 0
520 -890 0
249 -201 0
-477 507 0
29 -500 0
674 435 0
63 1216 0
-92 -1197 0
-401 970 0
28 792 0
154 -216 0
-131 839 0
-755 -82 0
-82 -1302 0
1080 -1071 0
-775 -383 0
-222 1081 0
-871 -623 0
789 -922 0
320 -1136 0
-85 -361 0
27 260 0
334 -1287 0
-1146 -1011 0
-1122 -695 0
-135 -778 0
648 -436 0
-430 -540 0
462 -434 0
339 -313 0
-584 -602 0
-157 -1012 0
1119 -303 0
1116 -203 0
-11 -1226 0
-1308 -677 0
-176 423 0
910 -638 0
-133 -13 0
1174 -1312 0
-700 507 0
-966 -294 0
415 428 0
-1234 -1220 0
9 -922 0
944 -457 0
-887 160 0
224 -1272 0
1255 -644 0
-397 724 0
-449 1148 0
-779 162 0
-1103 671 0
-518 211 0
-786 750 0
-331 436 0
-1205 -31 0
458 462 0
-1284 1158 0
953 1250 0
-1014 1082 0
-355 484 0
1162 -1106 0
598 261 0
470 -1126 0
-534 1025 0
953 1053 0
-464 1106 0
970 347 0
-444 -254 0
604 991 0
749 -984 0
-847 6 0
463 42 0
94 1004 0
210 -521 0
935 925 0
314 601 0
-1009 1159 0
-508 1107 0
-467 1021 0
570 325 0
1167 -983 0
627 1119 0
-867 -503 0
-1316 1067 0
618 -195 0
819 -167 0
383 983 0
1089 -372 0
-1271 -1287 0
1034 -228 0
1204 -1136 0
470 -273 0
-583 449 0
-477 -12 0
-985 -423 0
316 229 0
273 -812 0
935 -817 0
820 280 0
991 105 0
232 -99 0
521 -131 0
-455 825 0
40 -310 0
155 572 0
-66 45 0
-519 -171 0
883 -737 0
831 939 0
1217 -530 0
888 -654 0
-660 911 0
536 144 0
509 -150 0
-1307 -1194 0
965 852 0
-611 336 0
406 1182 0
345 384 0
-139 -897 0
144 -1233 0
-167 1231 0
1124 -313 0
-924 -9 0
1302 5 0
725 -905 0
-997 -1266 0
1207 348 0
634 -778 0
-1314 -13 0
266 -406 0
-754 -547 0
-524 -1089 0
40 -985 0
-1051 -1211 0
-453 -153 0
964 807 0
230 713 0
