c NF
p cnf 1937 1356
669 1027 0
1443 -1179 0
-549 -530 0
780 -121 0
712 -1537 0
-1440 -1519 0
-1013 -554 0
314 980 0
1486 -1641 0
-1358 1169 0
-588 1449 0
1438 426 0
-1852 1314 0
1673 1771 0
-1174 -54 0
1071 -162 0
-1186 1850 0
1657 142 0
210 -301 0
230 -1766 0
-1812 168 0
1717 1450 0
1004 -1499 0
-51 961 0
-38 -1571 0
412 947 0
-1665 -1607 0
419 535 0
-1293 47 0
-160 -238 0
-892 -1138 0
-1460 -670 0
-566 -1816 0
1168 -1069 0
1369 116 0
-1232 1923 0
-227 -443 0
-1501 -198 0
672 -1113 0
-1180 -829 0
793 -100 0
-1532 1844 0
-1896 1374 0
839 1111 0
-1232 -1565 0
-926 -1384 0
641 -1153 0
-449 918 0
-1758 652 0
-1551 1245 0
-304 -1856 0
148 1860 0
1289 1050 0
1747 1577 0
1676 -1691 0
-1772 -1686 0
-1842 416 0
1858 902 0
-1816 -1498 0
-1686 -1172 0
-726 -1812 0
323 955 0
530 -681 0
1051 1555 0
1863 630 0
-1343 1375 0
159 -416 0
64 -644 0
1549 1880 0
1545 1886 0
1151 -1843 0
-516 1129 0
-113 -1530 0
-1146 -1331 0
954 -769 0
1791 79 0
-263 435 0
32 246 0
287 1870 0
798 -536 0
-678 -854 0
-1135 -617 0
-66 538 0
-197 -1441 0
87 448 0
-643 -969 0
-1199 -1010 0
156 329 0
-1189 189 0
-1250 -297 0
531 -1644 0
1785 517 0
-1442 -741 0
-557 -790 0
-1678 1677 0
-1537 -475 0
-266 925 0
1761 -1086 0
-776 1328 0
-340 -244 0
1338 -1598 0
1697 1351 0
-1040 1760 0
-979 131 0
-201 1173 0
-361 -1752 0
-272 451 0
152 551 0
1374 -1447 0
406 -143 0
-432 -1227 0
-1131 -579 0
572 -1470 0
-509 846 0
1004 -1416 0
753 -124 0
-674 1658 0
1460 -1266 0
-1849 393 0
-1735 -1746 0
1444 -219 0
-1917 -125 0
-239 -308 0
1185 1252 0
1254 -1536 0
1937 964 0
-449 281 0
-78 -1161 0
98 1496 0
-1779 1219 0
-1201 29 0
-146 1497 0
-1084 105 0
592 1562 0
470 -1058 0
-979 105 0
280 -1298 0
1463 667 0
-103 40 0
-1530 165 0
-1597 -461 0
999 343 0
-21 1339 0
-1338 -1021 0
-467 737 0
1013 -1253 0
-1777 -269 0
-1043 1539 0
736 1341 0
-972 1615 0
-1670 1189 0
231 1490 0
-1261 1096 0
-788 -1710 0
-1569 284 0
-312 -983 0
1143 -605 0
-1428 1347 0
-1924 1344 0
384 1160 0
-1888 -375 0
1799 -415 0
-361 957 0
-542 1036 0
-1250 652 0
681 1155 0
-932 1144 0
-1851 -755 0
1326 -904 0
-170 1557 0
1272 155 0
1351 1147 0
1279 -95 0
286 -1105 0
-1274 -29 0
1597 588 0
985 1543 0
-1870 242 0
458 -964 0
-1450 -1214 0
473 -732 0
-1361 487 0
-5 -1886 0
-886 -1696 0
-467 -922 0
-1883 1108 0
199 -1455 0
781 1004 0
1469 1710 0
-1063 -668 0
-714 -274 0
-374 1278 0
-620 124 0
1892 -1203 0
1934 1400 0
1194 474 0
598 1874 0
1080 -1291 0
463 1883 0
-1174 1813 0
-66 -740 0
-1742 -329 0
-1234 571 0
-1825 248 0
591 463 0
1157 -1555 0
186 791 0
-166 -1730 0
49 -1001 0
-1286 -103 0
1379 1452 0
1186 -414 0
1544 -982 0
-1594 -1525 0
-1512 -222 0
-539 -795 0
-1640 -1457 0
-824 -1298 0
-580 -189 0
1726 -960 0
20 -1828 0
1091 -692 0
-1833 -1447 0
477 -979 0
-636 -1090 0
-13 -603 0
-1755 1272 0
-1580 -1526 0
-67 581 0
-1692 1497 0
-1522 436 0
-162 1850 0
-420 -1150 0
-1602 1335 0
-559 1588 0
-1060 -899 0
1249 1737 0
-1349 -1315 0
-1729 -831 0
552 -664 0
102 923 0
-1248 -1142 0
-672 1753 0
1079 -956 0
458 1321 0
427 1163 0
506 1814 0
52 -1541 0
-1009 973 0
-403 1454 0
731 -396 0
-1247 -1623 0
-934 1633 0
476 -736 0
-1070 -212 0
1787 -122 0
-444 613 0
-1122 1653 0
1214 710 0
167 -141 0
-1417 -1020 0
184 1604 0
1583 693 0
-362 202 0
-354 774 0
127 515 0
1124 1259 0
1341 163 0
1237 -1241 0
-472 1166 0
1894 1218 0
-1138 -1784 0
1791 -1 0
1375 468 0
385 -1366 0
719 -305 0
520 1620 0
-1694 1618 0
1806 -1161 0
-415 -1612 0
300 223 0
-1212 -383 0
-556 -935 0
-1170 354 0
-1362 862 0
1587 -793 0
1888 -625 0
1469 -1135 0
-197 882 0
1814 -1500 0
-1160 1535 0
1150 950 0
846 1552 0
1368 523 0
1456 -1374 0
357 1784 0
947 -1568 0
1334 -531 0
-1388 1455 0
42 -1440 0
-328 921 0
1651 -702 0
-842 1576 0
-1035 70 0
1678 -1562 0
-797 1312 0
-1167 1260 0
-1138 -1372 0
36 329 0
-581 1080 0
-282 -1457 0
-1310 338 0
1324 1253 0
173 -1502 0
-469 -1551 0
912 -1877 0
-1029 -101 0
1714 569 0
1661 1526 0
550 1819 0
-1376 680 0
-189 -1545 0
-1233 -1764 0
-992 735 0
-1049 -343 0
1128 1152 0
-1924 -535 0
1524 1294 0
-1895 -1487 0
1273 234 0
-1029 -33 0
-357 1897 0
1739 574 0
1649 1408 0
-936 -616 0
1017 -1839 0
1115 1045 0
393 838 0
1662 -960 0
-674 1544 0
1044 1722 0
-287 -1170 0
1419 -413 0
353 293 0
1405 -42 0
-1308 -1930 0
534 1407 0
1577 1743 0
120 -44 0
-1809 -1293 0
-807 -1007 0
1076 1627 0
-212 -1005 0
290 -390 0
481 -246 0
-856 -964 0
1076 -288 0
1923 -493 0
1299 -1501 0
-1931 -1693 0
-1586 11 0
-1709 1456 0
-311 536 0
1321 1324 0
-1581 576 0
487 484 0
667 1062 0
1466 1870 0
1656 -176 0
-444 -1658 0
-1538 355 0
1058 1578 0
36 -674 0
154 -582 0
-190 -1234 0
161 999 0
-1135 -741 0
-1501 -104 0
-1567 -114 0
1460 -180 0
1643 1616 0
-795 -311 0
1460 -1585 0
-447 -1420 0
863 1245 0
-54 -995 0
-932 1654 0
1675 -1840 0
1852 -212 0
1020 -328 0
1082 467 0
-875 -1845 0
435 -1403 0
7 -1217 0
-1852 -1934 0
-1327 1691 0
1735 298 0
1201 1894 0
-446 426 0
-1890 1294 0
-460 -1536 0
1543 1534 0
111 -296 0
-1363 -408 0
409 1526 0
1007 -868 0
511 405 0
-1739 -1878 0
643 -853 0
-1509 961 0
-441 515 0
887 1769 0
-625 868 0
1057 453 0
-972 677 0
861 -1477 0
-721 -1494 0
-831 -1533 0
898 400 0
864 1085 0
-1205 768 0
1609 845 0
102 693 0
-745 1232 0
231 1891 0
-326 46 0
1706 -1586 0
-179 -84 0
640 -797 0
-1685 -1451 0
-113 -1053 0
-656 -10 0
-44 848 0
-1098 -769 0
469 -775 0
1196 -702 0
-96 859 0
548 591 0
1285 287 0
714 -1067 0
768 203 0
876 369 0
-1248 1819 0
-1759 558 0
1714 190 0
1837 1019 0
1093 1111 0
1497 -1588 0
1726 -424 0
-1276 -725 0
-649 215 0
-1240 -1686 0
1880 111 0
-1852 172 0
1625 -444 0
-1410 303 0
-364 194 0
-1271 -1366 0
-1561 -1501 0
-1112 -910 0
169 1872 0
-650 1469 0
-1164 868 0
869 -1374 0
1110 -113 0
1246 90 0
1192 561 0
1155 1363 0
601 1351 0
615 115 0
-1068 1711 0
138 1657 0
746 -695 0
-905 -99 0
-1350 1585 0
1360 -722 0
-1274 483 0
-1261 1360 0
1137 -1410 0
465 -1472 0
1050 -1862 0
138 -1037 0
-908 -1721 0
1643 234 0
1053 1108 0
-5 1113 0
576 -710 0
-1832 -1537 0
743 -1455 0
876 801 0
-486 -522 0
472 515 0
-135 -805 0
181 1514 0
-194 464 0
-879 1016 0
292 1489 0
1600 221 0
604 401 0
-102 181 0
-1600 770 0
-1044 -970 0
1299 -17 0
-1933 1181 0
1748 1130 0
-1094 834 0
-916 -205 0
1185 707 0
360 -1094 0
36 -378 0
-223 -1599 0
-809 -503 0
-1907 708 0
986 -1430 0
-743 473 0
-525 396 0
-1509 -642 0
965 1738 0
1794 45 0
-887 -1091 0
1059 1505 0
-1679 1830 0
-1452 -317 0
-1013 249 0
-1274 -13 0
429 -757 0
1835 -312 0
-717 1183 0
277 747 0
-715 1312 0
-976 415 0
1669 1166 0
-397 -1594 0
1485 -885 0
267 1618 0
-794 -1320 0
-1690 948 0
-388 1000 0
-1704 286 0
699 -225 0
428 -1800 0
-525 -56 0
1195 1270 0
-578 1722 0
244 337 0
1691 959 0
-1247 -1062 0
86 -1354 0
-900 120 0
1722 -958 0
-540 -1840 0
-1023 -1130 0
95 1295 0
1140 677 0
971 -1318 0
-1071 -342 0
558 -1536 0
557 -1659 0
-486 -726 0
-1426 1019 0
-1060 -532 0
971 1844 0
1410 -710 0
-349 -1223 0
1400 1339 0
-277 -203 0
1292 -379 0
-1247 199 0
-1930 -344 0
-1250 756 0
-1443 -1263 0
-967 -828 0
-1255 -1118 0
1708 1583 0
-943 -1631 0
-15 1469 0
-1484 -1891 0
-1261 -1176 0
313 -1854 0
1295 -450 0
1158 -941 0
-1877 1366 0
1400 973 0
69 206 0
1465 1701 0
-1169 275 0
1535 -1441 0
133 -147 0
-211 -1888 0
-1364 -1174 0
-1228 -422 0
1891 1702 0
-128 979 0
-811 -699 0
-1600 409 0
1555 -1639 0
448 585 0
-1815 581 0
-1440 -601 0
1880 1549 0
1483 1291 0
-219 -927 0
-704 958 0
454 383 0
400 702 0
-1319 -1812 0
-828 -1862 0
-1924 706 0
-408 -978 0
-775 1583 0
1037 1695 0
-459 768 0
1304 -55 0
-362 -1799 0
1602 -1349 0
373 1810 0
-1812 -510 0
-1900 -1355 0
-1031 73 0
-1777 -1221 0
305 40 0
1207 644 0
1552 331 0
1068 1761 0
-1198 -71 0
1748 71 0
-1219 264 0
256 378 0
-1594 217 0
-987 1745 0
1620 -34 0
-551 -544 0
-1148 1833 0
514 793 0
477 1229 0
195 517 0
654 -1465 0
-1062 1075 0
-1546 1422 0
1178 -35 0
628 1610 0
792 -1664 0
-1354 -1019 0
-1885 -126 0
460 -60 0
767 1024 0
893 -1423 0
1514 1061 0
-1880 -710 0
717 1308 0
1711 724 0
-1554 190 0
1371 1252 0
964 1270 0
-1901 1931 0
-1652 -614 0
-1604 1613 0
1896 -1448 0
-1261 155 0
-44 -1471 0
1128 1544 0
1449 -1867 0
-1244 -704 0
231 362 0
-1104 199 0
-666 -237 0
-389 -1640 0
393 -1764 0
-1223 1591 0
1829 496 0
-823 -1447 0
511 -1770 0
-1117 1300 0
1875 347 0
740 -856 0
-186 -1447 0
-1889 1764 0
-737 -827 0
1283 -219 0
-13 720 0
-78 -408 0
487 1551 0
-704 -1574 0
-1635 -1515 0
-1081 -761 0
-51 974 0
1757 -1570 0
-1935 -1478 0
931 1922 0
-1511 1795 0
-551 -1708 0
-118 362 0
716 1528 0
990 -799 0
1224 -1924 0
128 -702 0
1831 1023 0
584 1045 0
-324 -836 0
1557 -1160 0
-500 -479 0
1643 821 0
747 1190 0
575 1848 0
1493 1510 0
-272 -735 0
1006 -1539 0
1380 842 0
1768 -135 0
-1863 1009 0
-573 1249 0
-1757 -869 0
-982 -271 0
244 608 0
-330 1518 0
-162 -1719 0
-1765 1793 0
112 1325 0
585 -1822 0
985 -211 0
-1459 1821 0
-1870 -1477 0
-245 707 0
1463 503 0
1370 -606 0
-1560 1832 0
-149 1732 0
-1137 1518 0
593 -1892 0
1843 -1685 0
1876 1147 0
-998 227 0
-194 1278 0
1219 -1816 0
1213 439 0
-341 -771 0
908 -927 0
-1218 -135 0
1330 -1009 0
-1259 -1635 0
37 -1506 0
256 1630 0
-6 -1869 0
-458 -63 0
1726 1180 0
-903 1540 0
-1537 -1883 0
-549 -826 0
948 803 0
839 1706 0
1807 -605 0
-659 611 0
1714 -418 0
-1385 -457 0
1751 167 0
-260 -1270 0
-785 -621 0
-1153 1841 0
-76 -541 0
1229 370 0
-1002 743 0
174 -575 0
-1682 -381 0
1387 1619 0
509 682 0
33 -1135 0
1636 1677 0
1936 -1190 0
985 427 0
-207 536 0
40 217 0
-185 1657 0
-827 -1910 0
141 -411 0
252 -1821 0
-1562 1644 0
1453 1112 0
572 1018 0
-1673 -1112 0
-664 174 0
267 -1765 0
927 -8 0
-1285 -274 0
-1016 1052 0
1467 1068 0
-1334 -816 0
1128 156 0
-55 240 0
1469 -805 0
-1138 -1885 0
267 -885 0
-1471 -1058 0
1560 -1793 0
1710 -372 0
112 877 0
-1623 -707 0
-185 200 0
-1112 -110 0
863 -125 0
1218 -168 0
1361 -1226 0
-92 241 0
1761 1125 0
798 1762 0
-274 408 0
-340 1338 0
-132 423 0
-1885 1756 0
-1500 211 0
1295 -572 0
1391 -1445 0
313 -1185 0
-1875 618 0
1228 1913 0
801 -120 0
-1722 1413 0
845 1538 0
-1146 -341 0
-799 630 0
1873 229 0
-1150 1153 0
1509 -479 0
-1419 1726 0
-728 -275 0
139 1128 0
838 1627 0
291 -348 0
-783 1907 0
-1750 496 0
-837 -129 0
1773 468 0
-655 -61 0
-882 -467 0
-1389 -1752 0
-1369 193 0
-1357 -390 0
-60 -1836 0
821 883 0
-732 -907 0
1163 -460 0
105 449 0
-927 1071 0
893 1604 0
-1608 -1786 0
-1482 -506 0
354 -1408 0
1297 -1365 0
-606 -1222 0
1825 595 0
1745 -467 0
1136 -1432 0
1636 -297 0
-219 -985 0
-113 455 0
1722 -871 0
-758 940 0
1154 1802 0
260 -1042 0
-1210 -1476 0
1651 -1178 0
-725 84 0
1173 -1164 0
924 -771 0
1661 1793 0
-389 -1222 0
-574 -194 0
-974 1280 0
1324 564 0
1684 -797 0
1540 98 0
-1937 -1781 0
1531 110 0
-1417 1738 0
-1028 1302 0
1310 396 0
-1420 -1933 0
-1654 -829 0
21 1546 0
1878 -915 0
314 -1784 0
-527 -1208 0
716 -1871 0
-1049 -217 0
904 -614 0
915 146 0
613 1119 0
1607 -1519 0
1146 393 0
-788 -245 0
-886 -1006 0
-452 -1064 0
-1380 -1654 0
1130 -494 0
-479 -843 0
-854 -1421 0
-228 -1610 0
1447 716 0
-1206 1481 0
520 1825 0
192 -1222 0
-1039 -1043 0
-368 435 0
-996 -176 0
-643 1157 0
1073 -932 0
1615 974 0
-1529 -1931 0
838 1367 0
-624 -617 0
-1384 -675 0
157 -175 0
-1312 -1174 0
749 -222 0
-1163 96 0
347 -1221 0
307 102 0
-399 1739 0
-905 1262 0
325 -876 0
214 -1242 0
-1861 1898 0
-38 -1658 0
1654 240 0
781 -50 0
-815 1524 0
-363 280 0
515 -29 0
-223 1062 0
692 -1135 0
-123 -159 0
-963 436 0
-168 -1910 0
-536 600 0
1259 -551 0
-1136 -1670 0
-598 -794 0
-869 961 0
59 1879 0
-255 1627 0
617 -174 0
-1267 -695 0
1767 1149 0
530 -1554 0
952 701 0
295 1291 0
529 951 0
1065 -29 0
-744 81 0
1827 1155 0
778 -908 0
378 1585 0
940 -1821 0
490 1480 0
-120 -1434 0
1095 497 0
358 530 0
-150 -356 0
-1889 1686 0
1375 393 0
-775 711 0
1585 1797 0
-868 958 0
-304 -608 0
-1419 -1543 0
-174 1697 0
-1521 285 0
-1023 -623 0
-1641 330 0
-1474 752 0
1429 -437 0
-1340 -18 0
1581 1003 0
-1343 -1171 0
-890 400 0
521 1677 0
1634 331 0
236 -1287 0
-1590 -925 0
-1109 298 0
-1176 -505 0
-1505 -659 0
1427 529 0
-1128 -1523 0
-376 -1500 0
-935 225 0
373 -1776 0
-361 295 0
1492 -1805 0
635 -755 0
161 -1417 0
803 1095 0
-1274 -1480 0
-1417 144 0
-1349 746 0
172 -94 0
1052 1720 0
-1936 1785 0
1831 1432 0
-570 1504 0
348 45 0
-1012 -233 0
-364 -582 0
1856 -1187 0
291 450 0
-68 -618 0
-393 -875 0
1406 17 0
-147 -478 0
-958 -224 0
153 546 0
1310 -735 0
-1858 -123 0
-121 1611 0
416 57 0
516 555 0
1807 966 0
-461 -1839 0
-1450 -1396 0
1154 -1159 0
-952 -1004 0
224 630 0
-280 846 0
181 -25 0
-1090 -1478 0
-1910 -1636 0
-1018 -1830 0
-58 1084 0
-987 -1783 0
-374 -1830 0
-1457 -1215 0
298 -1088 0
-909 -402 0
184 -772 0
-402 1218 0
914 -301 0
798 -835 0
-1276 -518 0
774 1712 0
89 1902 0
878 -583 0
-162 -1932 0
-1650 66 0
-1423 1321 0
964 608 0
748 939 0
223 -1660 0
983 1898 0
1893 1292 0
1194 469 0
-1268 -171 0
520 -75 0
-1753 202 0
-1038 -230 0
264 -1122 0
253 1338 0
-1779 -1265 0
-826 14 0
507 246 0
971 1287 0
-867 -526 0
-1428 -1696 0
-1598 -1236 0
-1222 1781 0
-267 -1530 0
363 -1774 0
1200 1914 0
53 69 0
1598 1802 0
860 648 0
-1624 373 0
-118 -1677 0
-936 998 0
572 1136 0
-1159 1521 0
-1555 1911 0
1485 268 0
-1678 -76 0
-1890 1416 0
-379 -1786 0
-1767 -188 0
-599 -1739 0
1097 -1821 0
-1309 1244 0
219 -449 0
-1163 -726 0
-86 -790 0
1901 605 0
1436 1588 0
1097 548 0
17 1144 0
1219 -482 0
1337 289 0
-1398 1843 0
-905 582 0
-1442 -182 0
-1085 1494 0
-56 -1357 0
-1861 1792 0
-95 1270 0
1871 -1017 0
-37 785 0
-1272 1553 0
393 485 0
12 1334 0
-1664 -1221 0
88 -1067 0
1609 290 0
200 -1663 0
-314 -71 0
-718 573 0
1458 832 0
-93 -621 0
891 -1827 0
1868 184 0
265 -917 0
-1432 -894 0
-118 369 0
-547 -1635 0
1114 -849 0
-987 1687 0
1302 426 0
1239 1203 0
-1261 373 0
-170 -566 0
1660 -85 0
-1366 -780 0
-1908 -709 0
838 1329 0
876 292 0
465 -836 0
-1464 -138 0
-1315 144 0
-112 -69 0
-1007 -437 0
1821 -1408 0
940 -1256 0
334 -1474 0
729 -1064 0
1710 -20 0
-1649 227 0
227 1249 0
-582 991 0
-1533 -162 0
-1568 1602 0
-1300 -600 0
1513 871 0
1626 -321 0
1026 -970 0
-1209 -562 0
-666 1936 0
-126 611 0
-1083 -732 0
257 -1032 0
757 49 0
-1540 -1721 0
1589 1390 0
971 -1087 0
1792 1729 0
539 -462 0
-1225 1643 0
-1430 1439 0
967 779 0
-1172 604 0
1741 1086 0
1880 -1042 0
1642 705 0
1084 -1774 0
1621 -1001 0
-1280 629 0
-1754 -710 0
-1199 -1315 0
-477 -1888 0
134 -1734 0
1334 1167 0
1424 -960 0
1577 1773 0
1262 1518 0
832 -1169 0
-1736 1177 0
1289 -306 0
-793 -1551 0
1793 -729 0
22 -152 0
677 161 0
-1863 1016 0
-327 -1800 0
1105 -482 0
270 -212 0
-1533 -1058 0
1807 1354 0
-217 -6 0
-187 855 0
-293 -1509 0
583 -1090 0
915 604 0
813 335 0
-1273 652 0
138 1789 0
-513 -1112 0
1458 1878 0
-1725 1033 0
-709 830 0
-191 -1414 0
1237 601 0
-207 201 0
-1608 657 0
239 -1616 0
256 758 0
1581 -953 0
-688 -1127 0
-354 -90 0
-610 1515 0
-767 -1772 0
-75 -634 0
1096 706 0
49 381 0
1016 -1749 0
706 937 0
-6 1311 0
1163 1108 0
-891 1932 0
-1828 1571 0
45 254 0
-868 1187 0
-708 1643 0
-1410 1138 0
-1758 1810 0
253 -1882 0
1888 1681 0
1768 384 0
490 1031 0
-54 1276 0
890 -299 0
1026 101 0
-732 -1673 0
-1723 863 0
1223 -919 0
1180 -33 0
1503 -399 0
-372 1831 0
-1208 1329 0
1472 -1018 0
-1239 119 0
925 -399 0
-261 -1586 0
-1346 -1793 0
-1587 -1436 0
1684 -1131 0
1096 -712 0
-922 888 0
-204 420 0
1898 -504 0
1514 -844 0
-1363 -606 0
-790 -1412 0
402 706 0
-804 -922 0
839 -828 0
241 796 0
1392 1832 0
-98 -1747 0
1748 60 0
-1296 -625 0
1706 -903 0
-1523 -486 0
1912 378 0
-1057 -643 0
-713 -1500 0
-650 -344 0
-606 -1047 0
640 -626 0
1283 -896 0
-1161 1465 0
383 -1206 0
1602 1162 0
-1601 165 0
-1793 -296 0
1704 710 0
-331 -1033 0
1119 742 0
1062 -235 0
-224 -164 0
-408 1080 0
1370 303 0
-452 29 0
1025 -9 0
1535 -1511 0
-1240 1711 0
523 -765 0
1107 728 0
-21 -1523 0
1684 -760 0
1296 89 0
-516 -354 0
1443 -1627 0
-1419 -1763 0
252 -1683 0
-670 1775 0
1314 674 0
585 917 0
1516 -1233 0
803 604 0
-1287 1517 0
-1217 -1206 0
-1366 477 0
1637 1501 0
-1838 -1864 0
1351 295 0
610 -570 0
1702 -1330 0
1111 -114 0
-99 753 0
834 1268 0
-1250 -1747 0
974 1508 0
-992 1259 0
1206 846 0
-732 -1006 0
-371 652 0
738 1633 0
-819 747 0
-385 1603 0
405 1683 0
-684 -1290 0
322 -1625 0
1324 -982 0
-213 -21 0
1508 -1167 0
-1277 -383 0
-510 965 0
1936 -20 0
171 -1828 0
753 -1801 0
1936 -1653 0
-1299 -786 0
1212 -527 0
-110 -378 0
23 1185 0
1757 857 0
1875 883 0
-1554 -1642 0
1737 -160 0
677 -266 0
-1060 794 0
-638 -689 0
1213 744 0
1832 -836 0
-1407 -933 0
914 -6 0
1175 -113 0
1067 297 0
631 1118 0
-1752 720 0
-869 142 0
-909 600 0
-1502 490 0
