c NF
p cnf 1080 1188
-939 715 0
372 17 0
-640 333 0
-1006 -866 0
-178 328 0
-151 768 0
132 -227 0
259 405 0
92 923 0
637 -789 0
719 -795 0
51 -720 0
425 -174 0
477 -489 0
-400 -735 0
579 -964 0
-493 -607 0
989 751 0
-170 798 0
-788 -1032 0
-180 -1013 0
-441 -14 0
-980 208 0
809 -767 0
-640 955 0
558 -54 0
596 1058 0
957 -756 0
160 -769 0
601 -192 0
384 114 0
-469 -672 0
98 602 0
-702 713 0
859 -990 0
212 -983 0
-784 -239 0
-197 856 0
-1021 -332 0
864 -340 0
420 -560 0
-571 682 0
444 -448 0
-344 -227 0
1046 499 0
-367 280 0
-320 -951 0
-296 -189 0
-772 -10 0
323 489 0
-850 322 0
499 117 0
-818 -442 0
-922 -647 0
965 -773 0
340 916 0
1024 -705 0
1012 -4 0
-227 -79 0
-464 -284 0
-468 560 0
782 -319 0
-16 21 0
490 -409 0
-1022 858 0
1074 -227 0
608 417 0
-647 -554 0
-535 -1043 0
65 1029 0
214 -117 0
725 96 0
-379 -835 0
535 951 0
-259 -169 0
-327 -714 0
-594 -63 0
182 357 0
-393 89 0
392 -586 0
669 90 0
479 -772 0
-588 -813 0
-751 -974 0
268 -259 0
1010 -337 0
428 -648 0
-232 329 0
915 -661 0
406 1020 0
520 -345 0
-1070 -39 0
626 398 0
797 -1080 0
-631 478 0
-868 -103 0
621 -441 0
472 322 0
-1042 387 0
-693 659 0
-389 -33 0
693 762 0
-632 -193 0
-1070 161 0
599 173 0
-273 141 0
-199 -558 0
-1045 -360 0
894 -192 0
998 -788 0
-127 -779 0
275 233 0
-23 225 0
-26 387 0
882 -382 0
-320 -390 0
-408 736 0
184 -239 0
273 6 0
53 394 0
527 -380 0
-379 -31 0
-1042 -200 0
-423 -12 0
768 873 0
304 783 0
709 664 0
-744 821 0
524 -671 0
-1070 -1038 0
-49 461 0
809 -669 0
973 -556 0
-560 -914 0
-549 -670 0
-470 -189 0
204 145 0
-464 787 0
-979 -453 0
768 -1060 0
-1004 457 0
196 369 0
-313 -873 0
497 -877 0
-420 -324 0
-559 860 0
733 -997 0
-519 928 0
690 -626 0
24 -18 0
-982 -401 0
-852 732 0
-1027 -750 0
-536 283 0
400 838 0
875 -517 0
951 509 0
-399 983 0
290 -667 0
608 339 0
123 -499 0
931 -535 0
-86 -1058 0
463 -343 0
920 -312 0
596 597 0
-139 -131 0
-77 213 0
530 -354 0
600 318 0
90 290 0
-695 -452 0
863 1024 0
-944 -69 0
-767 625 0
-1002 500 0
770 574 0
252 -287 0
-869 16 0
-956 -832 0
-738 926 0
-1032 -713 0
-849 323 0
477 -466 0
-284 931 0
974 934 0
-410 770 0
821 856 0
-290 439 0
4 364 0
-105 525 0
-687 17 0
-393 682 0
768 -335 0
-835 346 0
-541 -126 0
6 1011 0
1066 -572 0
369 -1010 0
-1003 193 0
504 -961 0
-829 -393 0
-407 -481 0
-172 944 0
-159 -104 0
584 427 0
-461 -361 0
-244 280 0
-590 525 0
21 797 0
-67 696 0
-320 621 0
85 -26 0
-479 410 0
552 -1001 0
145 408 0
-131 -779 0
11 -878 0
644 -246 0
1037 156 0
580 117 0
230 226 0
-298 -521 0
266 -241 0
364 -12 0
-288 821 0
387 443 0
829 -819 0
-924 674 0
-924 663 0
637 -871 0
-54 -462 0
890 -592 0
1014 -580 0
620 -322 0
-294 584 0
-776 387 0
-711 -657 0
210 -395 0
-885 94 0
415 301 0
1061 275 0
276 947 0
61 -871 0
-783 544 0
-396 230 0
-1048 -850 0
246 -103 0
929 -875 0
769 -226 0
622 -16 0
-1021 629 0
-339 -705 0
191 -600 0
548 626 0
53 572 0
880 -521 0
194 412 0
-184 -960 0
-395 -172 0
-604 -225 0
1017 1039 0
-313 -249 0
-559 -836 0
-142 979 0
-965 210 0
-946 -1000 0
455 -653 0
-748 -691 0
-309 -42 0
892 -286 0
182 414 0
-86 -722 0
524 -641 0
-483 -661 0
860 -529 0
-94 416 0
-1027 586 0
664 -360 0
-11 -561 0
-763 195 0
-160 -706 0
147 -690 0
508 -246 0
26 -493 0
478 1034 0
-346 -285 0
-560 83 0
365 321 0
-292 -320 0
-655 -221 0
364 -838 0
-433 -850 0
469 -1045 0
158 356 0
-543 -745 0
-744 123 0
-388 -691 0
-138 786 0
-1053 771 0
246 981 0
-8 -485 0
39 60 0
-215 -459 0
274 275 0
-500 230 0
322 63 0
-23 173 0
-140 232 0
489 792 0
-927 -785 0
-7 679 0
181 160 0
-652 -153 0
-573 -620 0
319 279 0
-704 -98 0
-1069 608 0
-442 554 0
-639 838 0
739 -201 0
568 327 0
698 703 0
493 53 0
-818 103 0
-692 -86 0
310 161 0
-22 791 0
-509 82 0
-310 732 0
979 756 0
-282 -375 0
-839 809 0
-818 926 0
846 155 0
90 525 0
-118 -54 0
142 79 0
-757 -81 0
273 1058 0
-558 906 0
732 775 0
571 -936 0
318 -162 0
485 194 0
-169 -181 0
122 87 0
177 -257 0
462 -1061 0
565 516 0
394 -671 0
295 867 0
-818 -1050 0
-167 506 0
515 520 0
-369 44 0
-115 -783 0
707 -972 0
953 318 0
-863 160 0
-540 735 0
-594 1019 0
-973 528 0
829 -907 0
193 1063 0
176 219 0
516 -434 0
-824 -228 0
-345 99 0
1045 3 0
254 -684 0
-801 855 0
-517 390 0
-1002 269 0
49 279 0
776 373 0
133 514 0
757 -226 0
-211 181 0
-758 168 0
-422 -568 0
-241 699 0
-303 352 0
842 -101 0
22 188 0
926 -518 0
-1066 -199 0
522 622 0
-192 158 0
189 -1021 0
754 286 0
863 604 0
-812 -1007 0
828 497 0
358 -382 0
185 634 0
840 -245 0
504 -369 0
405 1078 0
851 662 0
913 987 0
401 -115 0
-777 -1039 0
787 -533 0
-428 189 0
-467 -927 0
474 -735 0
-37 -805 0
593 503 0
98 787 0
-219 223 0
-410 -963 0
-908 647 0
596 523 0
744 -139 0
-256 60 0
-1006 -639 0
-251 870 0
-245 975 0
380 252 0
-248 -151 0
864 896 0
-958 670 0
-128 -646 0
-946 -364 0
183 -773 0
-215 -1025 0
910 -436 0
-431 -841 0
352 255 0
-371 -398 0
-105 967 0
867 -69 0
-699 -746 0
-306 44 0
196 318 0
92 282 0
-938 -891 0
850 -325 0
102 437 0
118 -705 0
-873 220 0
-717 -475 0
-717 -433 0
543 786 0
-285 1060 0
220 401 0
-439 -433 0
-1025 -614 0
625 1024 0
-790 275 0
-1016 455 0
770 -897 0
-767 821 0
-645 966 0
235 459 0
426 -824 0
678 -14 0
-685 429 0
257 -518 0
28 -560 0
-294 47 0
-683 346 0
-445 391 0
-250 -592 0
1043 -7 0
972 -34 0
986 -816 0
-833 -344 0
546 488 0
383 -620 0
-850 -52 0
-342 1078 0
-794 -488 0
-535 -357 0
845 -251 0
643 692 0
-1049 385 0
-542 -744 0
228 322 0
-1023 83 0
-1076 246 0
924 274 0
-985 -185 0
-545 -723 0
-723 121 0
603 -993 0
-208 798 0
-533 -255 0
774 41 0
-127 305 0
-10 212 0
-703 -175 0
-138 -907 0
-468 -1018 0
-591 -216 0
-133 81 0
89 770 0
100 252 0
927 -190 0
136 -952 0
286 647 0
-368 -1025 0
-545 -751 0
-818 843 0
-1011 -559 0
707 44 0
393 -559 0
511 -50 0
-217 -750 0
-191 -702 0
-15 -42 0
-517 -265 0
252 900 0
394 -46 0
383 -791 0
888 191 0
-183 -98 0
383 -177 0
514 -665 0
1034 -1063 0
-76 1031 0
976 418 0
41 966 0
-148 -955 0
827 -138 0
158 -748 0
699 1076 0
-143 612 0
-348 236 0
738 182 0
-508 -645 0
192 362 0
560 -172 0
-242 -66 0
68 -884 0
728 -211 0
-221 -949 0
-705 -436 0
-957 744 0
-935 762 0
831 -954 0
1046 -385 0
-262 894 0
722 334 0
552 682 0
-93 -320 0
-832 -739 0
-76 67 0
649 -407 0
525 673 0
463 1042 0
719 440 0
874 239 0
207 687 0
-409 350 0
-650 -1067 0
270 489 0
272 575 0
848 790 0
-1004 -343 0
-43 -720 0
346 -16 0
-484 451 0
-108 904 0
-274 -93 0
-923 -331 0
762 -281 0
588 330 0
-453 583 0
-234 1016 0
385 -826 0
-125 -1024 0
-314 -521 0
-225 223 0
-707 -488 0
765 -710 0
705 -507 0
-607 -471 0
-877 -162 0
819 -1025 0
-801 567 0
887 -143 0
191 -976 0
-842 827 0
817 196 0
195 -938 0
-402 -507 0
-310 819 0
-870 1066 0
1001 673 0
182 290 0
1026 -822 0
835 -757 0
-1015 972 0
-590 575 0
-1003 -804 0
-230 367 0
1031 301 0
1027 272 0
64 267 0
814 -835 0
-307 235 0
-787 -501 0
-627 17 0
792 -677 0
-455 -478 0
521 -925 0
386 198 0
142 -1014 0
-826 -681 0
479 71 0
-1002 774 0
593 340 0
283 919 0
878 524 0
323 -52 0
155 384 0
-447 -1053 0
205 232 0
-465 -455 0
-536 934 0
383 918 0
801 -592 0
-58 108 0
401 1076 0
808 -996 0
-816 -630 0
1027 -201 0
-156 -864 0
-988 -535 0
267 262 0
-433 128 0
-337 692 0
-651 716 0
158 -581 0
117 95 0
-662 982 0
-745 40 0
506 262 0
107 -307 0
-43 -368 0
-369 949 0
-241 587 0
-342 -481 0
-1045 1017 0
-526 350 0
-609 421 0
72 -564 0
443 514 0
976 815 0
-1020 30 0
-27 18 0
-1037 347 0
977 -808 0
196 588 0
880 -483 0
664 -613 0
-346 -453 0
962 -127 0
-201 816 0
474 1043 0
-535 -307 0
127 3 0
453 -728 0
-348 395 0
629 162 0
-137 829 0
-30 214 0
972 614 0
865 807 0
1018 693 0
121 330 0
-49 -814 0
775 1057 0
-118 -231 0
-575 -1016 0
-312 -622 0
77 -234 0
1024 28 0
156 680 0
927 263 0
511 295 0
627 -501 0
-270 927 0
-630 877 0
788 -861 0
-683 117 0
-436 293 0
-48 854 0
51 289 0
-582 -301 0
-433 -647 0
-49 -558 0
-704 329 0
498 -136 0
-72 -337 0
-881 -93 0
88 414 0
638 -282 0
-646 793 0
479 45 0
662 -542 0
-307 -776 0
-32 -63 0
-492 -332 0
-832 477 0
846 449 0
552 -634 0
-685 -382 0
238 993 0
-921 -922 0
44 837 0
301 -204 0
-853 756 0
-222 -467 0
390 659 0
-795 -422 0
-804 -801 0
42 -646 0
725 -146 0
-1012 -840 0
458 -1054 0
-847 580 0
-975 137 0
-637 932 0
-414 766 0
744 -38 0
442 -667 0
-661 -389 0
506 432 0
-817 369 0
699 910 0
793 -234 0
-742 -549 0
-72 805 0
-226 391 0
-351 -492 0
547 -49 0
351 -227 0
-937 316 0
476 275 0
220 765 0
-751 565 0
78 -258 0
-612 -340 0
943 858 0
-399 -656 0
-119 642 0
-651 -1042 0
53 -620 0
-354 10 0
334 -578 0
937 1043 0
-600 50 0
-545 -670 0
195 -786 0
766 631 0
-463 20 0
330 711 0
-536 -700 0
515 356 0
481 -198 0
410 37 0
-564 578 0
571 81 0
572 323 0
1018 -241 0
562 -747 0
-609 597 0
277 800 0
-575 -824 0
-464 551 0
-803 -815 0
-652 -788 0
625 -451 0
251 -341 0
-624 968 0
321 -503 0
532 898 0
-820 424 0
-536 1064 0
586 -463 0
1064 -977 0
841 268 0
-971 -505 0
937 -428 0
-952 -43 0
613 -887 0
872 158 0
970 246 0
-413 -482 0
-1071 637 0
-325 -567 0
-462 966 0
109 3 0
-620 853 0
833 -772 0
158 -681 0
330 587 0
-488 300 0
-1036 -165 0
-22 251 0
-1032 -924 0
129 1073 0
369 -646 0
-1018 1080 0
891 984 0
-546 129 0
-973 -1026 0
-232 793 0
336 -1004 0
161 602 0
-60 -1050 0
1067 -1061 0
329 930 0
595 626 0
-123 -428 0
843 -314 0
-779 233 0
552 1041 0
-453 -958 0
-395 -130 0
-687 -554 0
938 129 0
-674 1002 0
680 -812 0
634 938 0
372 191 0
-296 546 0
-468 219 0
84 -666 0
-201 185 0
677 837 0
-916 -470 0
-901 -771 0
-723 302 0
-462 -104 0
214 -74 0
-806 157 0
668 965 0
-761 -931 0
248 -95 0
548 -327 0
-370 1017 0
770 550 0
-960 -641 0
969 269 0
-184 175 0
-204 -124 0
263 -728 0
-438 -126 0
145 116 0
-345 -402 0
-897 -694 0
772 -558 0
-758 396 0
832 -500 0
382 974 0
712 109 0
1029 -751 0
938 -890 0
-601 -651 0
-963 392 0
-890 -144 0
-93 717 0
472 149 0
-300 35 0
399 929 0
90 -752 0
-453 730 0
-463 57 0
196 513 0
-629 -558 0
981 124 0
722 842 0
-1011 75 0
760 608 0
-465 356 0
17 677 0
-663 -906 0
173 -60 0
612 266 0
-66 -165 0
506 225 0
-891 976 0
778 896 0
814 -249 0
-11 668 0
-957 611 0
-704 176 0
-382 352 0
-987 -1050 0
153 -343 0
321 76 0
641 699 0
-652 293 0
-815 -200 0
182 -532 0
-540 -1000 0
878 70 0
-670 1056 0
171 -723 0
888 -783 0
812 -492 0
95 502 0
531 10 0
-1015 -259 0
597 -514 0
-620 366 0
-348 24 0
1043 -899 0
719 -126 0
-557 -830 0
-1046 -960 0
1042 -145 0
-299 -107 0
405 -613 0
378 29 0
-670 683 0
499 -757 0
54 -556 0
-88 -41 0
-283 856 0
-914 -728 0
838 762 0
-224 -746 0
982 3 0
-204 305 0
-79 663 0
-435 -383 0
960 951 0
-818 -447 0
-330 -661 0
900 139 0
-453 -566 0
799 947 0
161 -828 0
593 -590 0
500 -481 0
-716 -761 0
826 207 0
-1010 -844 0
855 -796 0
-263 -61 0
-702 677 0
-365 -957 0
-781 -765 0
-126 -663 0
373 -704 0
546 631 0
-46 142 0
-598 -882 0
20 626 0
-441 -331 0
793 -70 0
-123 -369 0
925 24 0
-162 -465 0
697 649 0
-972 -96 0
783 -1055 0
844 30 0
-446 834 0
-766 -1016 0
417 349 0
123 -599 0
454 -913 0
-579 117 0
-620 478 0
653 615 0
736 200 0
-66 916 0
874 699 0
687 144 0
-218 51 0
351 -130 0
-899 -522 0
-1077 1023 0
462 301 0
948 -1066 0
1020 -115 0
426 -1025 0
882 -366 0
-396 -190 0
-15 -1043 0
-1033 626 0
512 564 0
183 106 0
-11 -717 0
-572 938 0
-1061 109 0
755 668 0
-1078 -285 0
-934 1033 0
463 587 0
-277 -483 0
1032 962 0
552 255 0
230 -912 0
-471 507 0
871 -997 0
-747 976 0
-131 -666 0
570 377 0
855 -832 0
-295 162 0
842 401 0
207 -470 0
-1012 858 0
-325 778 0
531 452 0
-322 -886 0
297 -512 0
-635 788 0
823 917 0
-132 513 0
411 498 0
515 922 0
84 601 0
73 246 0
-270 -367 0
262 -482 0
618 588 0
35 255 0
1055 -344 0
-110 576 0
-885 102 0
-816 -635 0
1051 119 0
479 -827 0
-184 -471 0
-341 1014 0
369 144 0
292 -839 0
-443 253 0
389 -438 0
477 852 0
-742 574 0
-612 953 0
-1029 147 0
792 437 0
770 -518 0
-712 -918 0
-510 -561 0
959 719 0
663 879 0
548 740 0
683 -807 0
759 787 0
-1073 800 0
704 389 0
-757 -847 0
-1061 978 0
223 752 0
-787 498 0
-750 -168 0
-415 -140 0
811 439 0
855 307 0
-125 589 0
128 -706 0
75 783 0
-997 -466 0
772 -756 0
-292 -944 0
-660 -696 0
-163 975 0
827 -750 0
342 -700 0
551 336 0
682 -1064 0
561 724 0
45 606 0
280 406 0
35 151 0
264 -750 0
-639 9 0
587 814 0
622 -465 0
929 751 0
562 -1033 0
896 765 0
-111 -530 0
266 531 0
-990 -730 0
-422 -134 0
-925 -1055 0
-569 -112 0
233 259 0
-148 -161 0
-816 237 0
752 -1062 0
437 -47 0
570 301 0
105 523 0
-872 -592 0
-717 -458 0
-471 998 0
234 680 0
-614 -645 0
186 -159 0
-935 473 0
-568 754 0
879 -41 0
246 -548 0
-1069 792 0
-50 -186 0
619 -599 0
951 944 0
28 972 0
-300 666 0
517 -972 0
502 426 0
-749 147 0
-33 -498 0
840 361 0
12 878 0
938 399 0
759 127 0
387 -324 0
6 671 0
-619 183 0
-227 -197 0
551 123 0
899 476 0
862 -7 0
434 -1010 0
743 -627 0
858 766 0
-677 351 0
196 -220 0
693 156 0
-470 546 0
-311 -1002 0
992 945 0
690 -950 0
352 -639 0
-784 -408 0
-648 -331 0
158 -912 0
-750 -1011 0
202 287 0
34 -952 0
887 276 0
183 969 0
-942 306 0
511 -707 0
-205 237 0
785 614 0
435 -138 0
-1005 802 0
-282 363 0
12 -174 0
-1022 -119 0
-185 -298 0
734 -11 0
400 811 0
141 261 0
206 386 0
8 430 0
-975 747 0
-143 -606 0
858 -427 0
160 -787 0
261 -801 0
943 281 0
-86 -740 0
-684 504 0
144 929 0
-893 -529 0
-1019 885 0
913 -126 0
-1035 753 0
318 577 0
479 -54 0
708 473 0
-750 -964 0
-178 703 0
-767 -467 0
-735 145 0
-180 911 0
-1004 1063 0
-11 234 0
251 -301 0
-292 924 0
779 1007 0
965 -576 0
