c NF
p cnf 1692 2369
-857 1598 0
-102 -1434 0
-1582 -1250 0
1605 -1446 0
963 598 0
-69 282 0
-1188 132 0
241 -931 0
172 -1286 0
868 1103 0
-620 -268 0
-1429 -1053 0
970 -114 0
-1357 528 0
277 16 0
1019 -610 0
1538 919 0
1416 1308 0
-308 1458 0
1349 -475 0
1620 1253 0
-174 515 0
-1449 1184 0
1426 585 0
1076 -840 0
1403 322 0
-788 -740 0
1568 111 0
-1271 1293 0
527 -610 0
-1393 172 0
775 4 0
469 214 0
982 -1032 0
-1254 -330 0
-943 -1378 0
871 1665 0
51 1537 0
-193 80 0
-354 -27 0
-749 400 0
-164 -1049 0
-261 -902 0
-1452 -1442 0
308 -850 0
207 -128 0
-592 941 0
1067 680 0
-17 1276 0
726 1282 0
-553 -674 0
-1064 -840 0
-1392 -605 0
1274 108 0
468 -717 0
1663 1085 0
-1551 1251 0
1064 733 0
-1193 1050 0
1221 -265 0
-1351 -852 0
-1366 -1114 0
-239 -1059 0
-864 1196 0
-962 1535 0
537 -1026 0
-1235 -733 0
-590 -640 0
-1553 -700 0
718 1644 0
-823 1296 0
94 952 0
-841 -1201 0
1487 -1494 0
1639 463 0
1457 -1293 0
909 929 0
-1351 1413 0
1114 -864 0
21 518 0
29 908 0
1682 -1189 0
-1270 66 0
-1261 -426 0
-554 -758 0
349 -656 0
257 1138 0
-265 -767 0
-584 1086 0
1448 1521 0
202 1305 0
-1305 -560 0
689 1216 0
11 1458 0
-1206 -1005 0
-251 810 0
-133 -1422 0
-168 -809 0
-1484 1641 0
-1150 -1478 0
-1188 313 0
445 742 0
403 1278 0
103 -937 0
1122 163 0
673 -1522 0
1678 -540 0
229 -1644 0
-1652 1559 0
-837 -1139 0
1503 -706 0
-93 1404 0
-556 1186 0
651 -1688 0
-17 260 0
133 601 0
179 -1510 0
743 1505 0
1091 -179 0
1111 -1341 0
1669 23 0
-1687 -1283 0
-514 -122 0
-698 1381 0
-216 -1115 0
801 296 0
-452 651 0
-1058 -1486 0
-1336 -1377 0
-610 -125 0
64 1162 0
-1565 298 0
455 -855 0
-902 327 0
1302 1610 0
1526 -125 0
-667 1274 0
1068 536 0
-1050 -1344 0
761 494 0
536 1314 0
-746 1475 0
-640 1050 0
360 -430 0
14 -699 0
-12 -1410 0
-856 -496 0
-1283 -227 0
-1127 437 0
1568 215 0
-20 590 0
971 1561 0
1679 1425 0
-129 170 0
-643 -1670 0
-831 -982 0
448 1349 0
433 -561 0
1076 -1246 0
190 -1523 0
-1601 -1202 0
-1137 1674 0
-632 1309 0
1540 -155 0
-498 -1402 0
251 1291 0
862 77 0
1250 -1245 0
-982 -989 0
-1599 1682 0
1691 -183 0
-859 328 0
4 569 0
-926 291 0
1006 202 0
949 861 0
1610 -973 0
14 654 0
-60 -346 0
950 1138 0
-1603 214 0
222 170 0
356 1536 0
-747 532 0
-914 652 0
-1357 -510 0
897 -565 0
-1522 -1340 0
113 -30 0
1685 -1330 0
438 618 0
-1380 -159 0
-305 -90 0
1317 -1116 0
1160 1388 0
1225 -711 0
-298 -148 0
-701 324 0
-860 -1554 0
-415 612 0
1473 -1684 0
-1343 -482 0
-138 -208 0
677 -533 0
-1611 1545 0
-146 1381 0
-1277 -54 0
950 351 0
1349 874 0
-1304 1171 0
360 388 0
535 444 0
608 208 0
-1283 967 0
1113 -1524 0
1555 -1255 0
263 -659 0
1163 -1184 0
-1610 1558 0
-530 -919 0
-1415 1333 0
-857 843 0
1289 -454 0
-1241 -1261 0
1251 1418 0
1323 217 0
854 -149 0
47 1328 0
263 1497 0
945 307 0
59 -598 0
-1094 -1396 0
-1328 1624 0
995 -1546 0
-1392 185 0
23 1285 0
-573 685 0
125 1384 0
-1611 -1346 0
652 -1035 0
673 -1329 0
-823 -939 0
779 -461 0
-832 1417 0
853 -190 0
-190 -897 0
-1421 1 0
-134 121 0
537 444 0
1148 -821 0
-133 1338 0
851 -1017 0
-1167 764 0
1655 774 0
1405 -561 0
-929 -140 0
-924 -977 0
777 -1324 0
-1078 -1315 0
806 283 0
-991 -1593 0
525 -1432 0
1010 -342 0
-153 -995 0
-920 913 0
-801 652 0
-555 -643 0
1496 -1677 0
-1376 -327 0
-977 984 0
946 700 0
724 -48 0
-679 -1383 0
-1558 418 0
-1347 -1550 0
-576 629 0
-892 -1650 0
-81 891 0
-682 993 0
1138 -1537 0
-1093 537 0
124 -1536 0
1035 -605 0
-1230 552 0
-1630 1400 0
-523 886 0
1555 -1332 0
860 -1243 0
-454 -374 0
-705 -1058 0
-95 836 0
-1087 818 0
1186 1260 0
805 1416 0
445 607 0
-986 1580 0
397 834 0
400 950 0
-713 512 0
-871 -645 0
843 26 0
602 -606 0
-98 543 0
838 1634 0
604 122 0
589 -834 0
-719 720 0
1288 1064 0
159 1147 0
1453 849 0
228 -1601 0
-1145 1595 0
1467 -203 0
444 -914 0
1661 -245 0
-1097 680 0
1675 95 0
-265 -223 0
-1266 250 0
1241 863 0
-366 105 0
525 1044 0
-106 1538 0
-482 -37 0
1294 -1457 0
-264 -684 0
-1022 1371 0
-361 369 0
-1383 16 0
-878 -467 0
-1132 -184 0
-640 169 0
406 -640 0
475 -64 0
794 -566 0
-1230 -772 0
896 780 0
1417 1367 0
1067 745 0
418 977 0
-766 274 0
-1679 379 0
-895 948 0
-366 1339 0
-335 1378 0
1319 -1563 0
1463 -29 0
-1327 948 0
630 1213 0
607 407 0
383 -779 0
1616 985 0
49 -588 0
1420 -1285 0
-1484 167 0
1431 -1295 0
79 -1008 0
-1520 -993 0
-993 1356 0
819 857 0
-699 -566 0
-734 1621 0
-131 -665 0
-916 -1397 0
-1454 194 0
-158 -911 0
397 -279 0
1071 -1217 0
-993 1066 0
-1576 1083 0
72 1162 0
-832 -400 0
-1401 -1530 0
-617 -1411 0
351 -134 0
-1526 -1406 0
-479 336 0
-1471 1183 0
853 -1137 0
-982 -736 0
-1097 294 0
489 -992 0
225 1339 0
538 -101 0
-162 713 0
-1451 340 0
364 810 0
121 -1291 0
618 -459 0
-1648 -216 0
-1192 -437 0
1374 -198 0
661 -605 0
-1541 368 0
967 -1439 0
298 205 0
483 -785 0
-1257 468 0
-1644 -1055 0
-1081 194 0
-327 -533 0
-1671 -1637 0
-287 -836 0
344 1026 0
-687 627 0
-920 598 0
-1577 -929 0
1665 -1058 0
-167 -1066 0
-897 -1093 0
-701 1371 0
-254 857 0
806 -1073 0
-1625 -1141 0
1519 1048 0
1479 -74 0
1135 330 0
-359 1327 0
-1420 470 0
-1653 1456 0
1055 777 0
-1627 -991 0
502 -748 0
1278 -1556 0
-16 -961 0
803 1501 0
776 949 0
-854 60 0
-578 -911 0
916 -1538 0
-944 -927 0
-682 1561 0
203 -1408 0
1482 -125 0
582 731 0
-1073 731 0
-303 -174 0
-558 1250 0
-1659 -790 0
1022 -1092 0
829 -75 0
-792 -273 0
802 -328 0
-961 1529 0
1041 1169 0
-1261 1538 0
-647 329 0
-878 1161 0
-1368 -778 0
934 1052 0
-1550 -49 0
631 -48 0
194 220 0
-389 1479 0
1404 497 0
985 -1103 0
-206 -1014 0
-1253 1337 0
1178 1285 0
-733 -28 0
-1446 1129 0
789 -1112 0
1554 979 0
-701 -460 0
850 590 0
648 1535 0
-454 -397 0
1178 -459 0
-1003 -1227 0
-1687 -734 0
860 1500 0
-1609 721 0
752 -874 0
-1348 -809 0
1356 807 0
-389 713 0
-1252 -272 0
716 1242 0
-319 523 0
-927 -626 0
39 124 0
-674 1102 0
1686 1197 0
-1054 1036 0
-1215 -327 0
1102 -559 0
412 798 0
1404 -740 0
124 143 0
-19 -335 0
-840 597 0
-463 686 0
101 -1188 0
448 1216 0
520 1323 0
-1450 201 0
1014 461 0
-1479 300 0
793 1575 0
1525 633 0
2 -1637 0
803 -200 0
488 -1588 0
-889 1569 0
1568 -1625 0
-501 955 0
1663 250 0
-581 1323 0
358 -1325 0
-1077 -1176 0
85 914 0
-510 -364 0
-403 602 0
520 672 0
186 1605 0
1569 1030 0
1013 -1397 0
465 -961 0
-900 -1408 0
613 -1034 0
-1560 -346 0
1486 -494 0
-936 1676 0
-755 1467 0
-752 651 0
512 -1217 0
513 -139 0
1237 -1093 0
9 857 0
-653 1325 0
-114 373 0
673 1076 0
1171 -1607 0
556 681 0
997 53 0
499 -1174 0
1323 1219 0
912 987 0
-1252 1617 0
1605 -920 0
-137 289 0
-1161 183 0
446 1516 0
-252 -319 0
-510 794 0
274 894 0
1569 -76 0
-373 -1533 0
1022 -1316 0
-1257 -351 0
-1609 1052 0
-1676 832 0
-1322 753 0
1287 1680 0
1368 -1143 0
-29 -227 0
-564 -305 0
-991 980 0
-1313 -888 0
-1692 -1637 0
-76 -439 0
793 516 0
782 -1270 0
-944 -1556 0
925 -1255 0
-291 -1150 0
547 1084 0
-466 72 0
1400 18 0
-859 1159 0
1364 -1083 0
-1407 -29 0
-282 85 0
-809 1631 0
-1686 104 0
1440 -941 0
-1484 -1066 0
-1019 -390 0
-979 1364 0
1590 -1443 0
111 -639 0
1561 -1483 0
1356 -171 0
-1182 35 0
1031 370 0
752 -821 0
-778 -896 0
1146 -963 0
-1066 492 0
-906 1050 0
-647 -1455 0
-690 -1689 0
-1035 -518 0
1250 -619 0
-600 -225 0
-130 1645 0
1519 790 0
587 520 0
-518 -1687 0
-1230 1448 0
1278 1654 0
-602 -980 0
-1083 -1238 0
1292 1044 0
1664 585 0
-384 -377 0
-989 -1031 0
1121 1688 0
385 3 0
1501 1408 0
1588 -708 0
-1218 1524 0
-1346 -1249 0
998 -1079 0
-1152 -890 0
-151 -229 0
376 -1481 0
1464 360 0
629 972 0
-1320 -335 0
-1179 -1315 0
1197 1506 0
-1451 1074 0
69 -994 0
-441 1489 0
977 -649 0
501 -1478 0
-908 1325 0
-1171 1139 0
-187 -550 0
754 628 0
1328 115 0
-458 716 0
-567 576 0
-1613 1125 0
-583 562 0
-1437 -625 0
-425 -247 0
-1135 233 0
-1372 -1409 0
-56 533 0
-308 1333 0
920 890 0
-989 765 0
-1306 554 0
-233 1216 0
465 373 0
403 -647 0
312 -749 0
938 -1040 0
312 1390 0
250 308 0
554 -715 0
-842 -239 0
668 -839 0
-696 1261 0
35 -977 0
-1223 -1483 0
1278 3 0
582 1194 0
-539 -768 0
804 -865 0
471 677 0
-137 841 0
986 -1435 0
-740 -617 0
-428 -462 0
65 -232 0
1444 -199 0
-114 -1215 0
-1604 1353 0
-1243 1281 0
-694 -1642 0
-1324 1364 0
1423 -1571 0
-797 -1253 0
912 -289 0
-1268 -1644 0
1218 1163 0
-1340 461 0
-535 1229 0
1435 -1094 0
-444 787 0
-1225 -1526 0
-927 463 0
-586 9 0
1447 -1193 0
-150 -466 0
-594 34 0
1086 -1540 0
-88 -44 0
-832 1688 0
-974 1360 0
-825 590 0
1688 -1380 0
712 -170 0
-1066 -221 0
-1104 -218 0
1186 208 0
85 1535 0
-717 1026 0
-943 262 0
-779 630 0
-747 -1314 0
267 1096 0
-566 -750 0
-974 -456 0
971 -1174 0
-1637 -1312 0
641 629 0
719 1456 0
178 1640 0
461 -154 0
-237 -494 0
-504 -1136 0
-566 1243 0
1418 -1307 0
-43 1506 0
-1099 -1448 0
-225 -1288 0
378 -462 0
244 -650 0
-1355 -611 0
-612 -589 0
1324 1538 0
-1298 62 0
-475 -655 0
1076 1150 0
757 -901 0
-456 -31 0
-557 1331 0
-559 -1666 0
-166 -1201 0
393 1163 0
-1219 -1237 0
-658 -394 0
-63 1129 0
870 -248 0
-1093 486 0
-858 -621 0
-1565 -38 0
-518 1635 0
1673 1228 0
-748 -780 0
-1218 -98 0
262 817 0
-104 1414 0
-208 -489 0
1276 493 0
-489 -567 0
-1275 -961 0
140 1235 0
-663 240 0
-1672 -1566 0
607 -232 0
529 540 0
360 -738 0
133 -556 0
-685 971 0
-120 955 0
1259 990 0
-1621 -1465 0
-186 -632 0
88 -923 0
857 -279 0
1460 -974 0
129 1388 0
-1629 1478 0
-1042 395 0
1019 947 0
428 1245 0
-370 373 0
1345 1558 0
-1648 -1485 0
186 359 0
1518 -768 0
-666 -214 0
-149 1301 0
60 467 0
-1226 -1451 0
-477 1370 0
-317 997 0
-472 -54 0
-947 -887 0
-774 742 0
909 -702 0
-1526 1320 0
992 -715 0
-370 -1614 0
1269 -190 0
-993 170 0
-425 -927 0
-521 -625 0
-1023 1426 0
-1009 1517 0
-1601 -956 0
1578 404 0
11 438 0
-490 374 0
-76 1259 0
1609 736 0
-236 -1566 0
1000 81 0
-1152 -1605 0
284 -41 0
618 397 0
-988 1078 0
993 108 0
1182 -1192 0
-1638 724 0
-1019 -859 0
1649 -772 0
-932 1368 0
45 59 0
-462 1166 0
-565 512 0
-452 801 0
723 1242 0
92 -919 0
373 -778 0
825 238 0
-101 -586 0
-1436 421 0
-883 -877 0
551 791 0
1593 722 0
-1510 1659 0
1163 1224 0
-755 -1640 0
586 -608 0
1098 1250 0
-1255 -402 0
-1115 -1179 0
-497 1647 0
1638 -1001 0
1475 -1348 0
-134 -1154 0
799 11 0
-1492 1062 0
-1417 541 0
-308 -706 0
1050 -23 0
1547 -765 0
-937 1042 0
-428 283 0
1321 584 0
1066 1330 0
1362 504 0
1482 19 0
314 1378 0
-1583 -862 0
1643 -1091 0
681 838 0
1104 214 0
375 -1182 0
1270 1473 0
656 -773 0
-1126 169 0
-573 306 0
-459 1149 0
-1348 -844 0
-125 1328 0
815 1404 0
11 1562 0
1239 -533 0
213 556 0
1532 -364 0
-424 628 0
-1618 883 0
-46 -1040 0
-1437 -935 0
1125 -869 0
1303 57 0
1096 -857 0
1347 -1336 0
-1031 -262 0
1116 1461 0
896 1457 0
-1566 -152 0
-383 341 0
-595 -412 0
451 -1065 0
-33 1259 0
-1254 -718 0
1284 -1246 0
1453 1688 0
-978 461 0
335 -97 0
119 -1101 0
1568 -1366 0
1409 -835 0
927 1233 0
232 1374 0
1319 282 0
-1486 603 0
851 862 0
-1020 247 0
824 948 0
279 -259 0
315 -639 0
1201 -236 0
-980 134 0
1631 1276 0
1216 778 0
-1483 1426 0
437 -301 0
1084 1473 0
-1408 -1396 0
-632 -704 0
-208 -1653 0
-1164 -1442 0
-1243 -1464 0
1096 1592 0
1298 -114 0
-1452 -178 0
109 1520 0
-593 -1217 0
-1348 1451 0
358 360 0
-380 -1071 0
355 -166 0
-874 1583 0
-1136 -491 0
-569 95 0
95 -237 0
-1369 601 0
1162 224 0
-1174 -1217 0
-1330 1299 0
640 -1296 0
1398 -365 0
-1151 -1063 0
-1373 1208 0
1631 1517 0
-1492 1290 0
65 -169 0
879 -782 0
956 1345 0
-772 597 0
-823 -1491 0
-76 -682 0
-288 277 0
-772 -1548 0
218 563 0
-1642 1426 0
365 -1614 0
192 -320 0
1621 1185 0
85 -1266 0
442 584 0
1274 -1357 0
-5 -950 0
1634 1113 0
-1048 -225 0
-411 791 0
-962 294 0
-1544 1186 0
1122 328 0
-999 -252 0
-1689 978 0
-180 1458 0
-1526 -142 0
-370 54 0
-648 -1112 0
-167 129 0
-1653 22 0
-560 -168 0
-286 654 0
780 -1270 0
-1475 -1136 0
1153 96 0
-1676 -244 0
-1040 1363 0
-882 1185 0
281 1154 0
490 -735 0
-190 933 0
1300 -1261 0
545 -227 0
1515 -582 0
776 1327 0
843 -1302 0
471 363 0
-574 549 0
-1151 118 0
-1503 1487 0
924 339 0
750 1163 0
381 635 0
-186 1535 0
461 321 0
-623 -237 0
712 -580 0
860 -495 0
-1480 -1429 0
-1283 1259 0
559 851 0
322 1495 0
442 -221 0
172 1200 0
-1487 149 0
-1529 -430 0
-42 -1497 0
986 -1061 0
-1135 -1246 0
-273 1603 0
-539 686 0
-1046 -281 0
369 -1449 0
4 -753 0
1415 -1566 0
-99 1529 0
-29 650 0
1415 1011 0
603 75 0
1664 -462 0
1184 1567 0
-1164 567 0
1613 -1641 0
-1540 831 0
-5 -372 0
652 -510 0
1620 896 0
1067 395 0
688 -999 0
1406 -1415 0
-1050 85 0
-236 639 0
-740 -257 0
279 -1044 0
-1136 -170 0
1532 209 0
-1526 374 0
-670 -14 0
-1688 -1452 0
727 898 0
444 103 0
-1038 -1195 0
-1557 1470 0
1575 -293 0
-81 568 0
861 -190 0
499 -1132 0
1278 -1197 0
-430 803 0
-1196 -680 0
1511 -1135 0
25 -701 0
-104 -81 0
1335 1391 0
924 -975 0
-1043 764 0
14 -1507 0
1264 -1076 0
-455 -700 0
-1388 483 0
500 -1025 0
1086 324 0
812 -1337 0
581 672 0
1663 -552 0
-196 894 0
-410 373 0
165 360 0
1637 1113 0
-1267 415 0
546 -1379 0
-240 130 0
3 -647 0
875 963 0
-1289 -1489 0
792 1292 0
891 -752 0
616 57 0
-1436 1412 0
813 -1387 0
1326 -1395 0
1386 -63 0
92 1076 0
1680 1511 0
-1026 -1507 0
367 981 0
-340 1535 0
534 409 0
959 -874 0
-155 1381 0
819 424 0
1537 1597 0
1610 -1470 0
160 -1352 0
-10 16 0
780 -1670 0
1176 -1016 0
495 -1336 0
-1616 1144 0
1043 -643 0
126 283 0
-435 -618 0
249 -642 0
-1682 1274 0
-1078 1608 0
122 407 0
817 1189 0
-1251 -904 0
953 -535 0
-301 1332 0
-369 661 0
-38 1442 0
546 -110 0
1539 -1557 0
938 -63 0
499 -380 0
-377 720 0
-853 -1446 0
611 1571 0
-699 -1279 0
1232 970 0
-796 341 0
105 -1557 0
951 453 0
-572 376 0
-171 1244 0
-1523 433 0
-832 -962 0
-1210 1474 0
697 1509 0
-1557 -216 0
712 1531 0
164 1100 0
-1285 -1449 0
968 -1268 0
1657 599 0
541 -1256 0
1615 648 0
1331 728 0
284 -368 0
801 -343 0
-1456 -1059 0
-1625 516 0
-1470 -515 0
67 -502 0
-487 356 0
100 -884 0
1596 -856 0
-610 -1565 0
1442 753 0
716 539 0
-562 355 0
-1068 -191 0
-326 1075 0
-432 -1588 0
-132 324 0
524 -191 0
1204 -635 0
-881 186 0
949 458 0
478 -826 0
-476 1203 0
279 -1115 0
337 837 0
601 1229 0
-992 -74 0
-707 -1567 0
-930 233 0
-368 -507 0
-1291 -1433 0
1202 -328 0
72 1111 0
1146 507 0
-972 360 0
-855 1323 0
873 602 0
-235 1554 0
-1622 -352 0
-706 -41 0
1326 296 0
-463 -1551 0
77 -1244 0
-111 1406 0
-1100 -676 0
1527 -1467 0
-273 68 0
767 -965 0
152 1126 0
-706 1476 0
910 -265 0
-36 -315 0
1355 -1594 0
-1523 1633 0
-113 1214 0
506 1396 0
853 1616 0
782 1494 0
956 -1169 0
367 -1684 0
-206 518 0
-1450 928 0
-33 397 0
547 1092 0
-1509 916 0
488 552 0
-1499 -736 0
-177 -852 0
-530 -1180 0
-1090 1417 0
-666 -346 0
-1226 -74 0
1562 -1438 0
418 1124 0
-1051 197 0
-929 -1183 0
-862 107 0
1216 -201 0
1050 787 0
1195 1474 0
-468 -592 0
-114 -555 0
1243 87 0
-81 -1647 0
329 383 0
146 1086 0
1082 -1271 0
1438 -1133 0
-841 205 0
1046 -1003 0
771 964 0
-1285 1683 0
1228 1433 0
-781 -227 0
-320 -203 0
-1565 -1525 0
-1273 -1413 0
908 1143 0
-1255 1240 0
-1414 -150 0
578 1320 0
1521 95 0
-75 -968 0
-1197 413 0
-1197 -773 0
-1249 714 0
-1524 1219 0
-234 -1291 0
-40 -11 0
1176 -1689 0
1143 1010 0
-1330 -1092 0
-1006 -524 0
-662 -741 0
-333 -10 0
-1485 -44 0
1407 -265 0
-1173 1679 0
-1245 360 0
921 131 0
-1567 -1594 0
-1603 -712 0
1398 -1652 0
-597 -813 0
279 -394 0
-1507 1558 0
328 98 0
718 1166 0
1409 130 0
341 -1544 0
-1091 349 0
1105 404 0
1418 74 0
487 474 0
1657 1277 0
-1590 -1128 0
-1274 -1376 0
-567 6 0
1237 -1491 0
-995 371 0
-510 -1637 0
1440 -390 0
1430 332 0
1595 625 0
620 -747 0
437 -1082 0
-396 -116 0
-212 -883 0
1524 1258 0
-728 -1191 0
-1226 1474 0
-1281 593 0
619 -1155 0
-901 673 0
-1009 280 0
455 -60 0
1160 1003 0
-332 345 0
-1443 -42 0
-1307 -1478 0
302 800 0
800 -1028 0
-1581 -1341 0
-694 245 0
1377 1569 0
-315 -1043 0
439 1531 0
28 -1373 0
1178 1325 0
1476 -972 0
791 -824 0
-1517 -270 0
730 -471 0
641 1577 0
308 496 0
605 1053 0
-1129 157 0
614 1280 0
742 1201 0
-509 1505 0
1473 833 0
-704 -1505 0
419 1402 0
-1589 59 0
-1063 155 0
1674 794 0
727 -1457 0
-1470 -728 0
994 14 0
1080 1486 0
-1312 1620 0
195 639 0
1008 -1503 0
-337 -190 0
-906 -118 0
681 -248 0
1552 -1359 0
-1297 -29 0
-803 418 0
124 -1681 0
1219 986 0
829 124 0
-591 827 0
1500 1367 0
605 -272 0
-227 41 0
-619 -410 0
1271 302 0
1327 312 0
569 880 0
1313 -639 0
-1217 -801 0
-1015 997 0
1153 -1192 0
-1390 355 0
-988 803 0
-292 5 0
-134 1624 0
-292 -749 0
-1660 -649 0
1065 -391 0
-530 985 0
570 1305 0
891 -207 0
1294 265 0
-1224 1016 0
1368 -895 0
1320 504 0
-526 -694 0
-772 -368 0
-1038 21 0
1117 -692 0
-892 -1603 0
-875 -213 0
-711 -1220 0
-1625 296 0
500 1345 0
-705 1160 0
-1313 -193 0
-702 -1532 0
1493 -372 0
149 -1573 0
1459 646 0
675 1325 0
-177 1308 0
614 -643 0
1355 58 0
925 -1567 0
-1343 304 0
-556 -514 0
1539 -1581 0
-841 360 0
1364 -520 0
645 -1348 0
1594 -1249 0
1427 -1671 0
-1138 998 0
-1038 263 0
-1609 -770 0
1208 1084 0
-54 1104 0
-1470 596 0
-412 -1023 0
-751 -896 0
-1009 -307 0
-306 -196 0
-373 468 0
1086 -1469 0
-1284 -1273 0
908 -1467 0
602 407 0
-1670 -156 0
169 -546 0
1636 -823 0
-1122 1531 0
695 1382 0
-1449 722 0
1439 1617 0
-1691 -718 0
-1319 -152 0
-1199 -1616 0
-468 -479 0
-471 211 0
-1636 -1210 0
1400 -1565 0
-224 -216 0
-1264 1364 0
-139 1365 0
1539 -739 0
711 592 0
-125 -1226 0
1403 1633 0
-666 -850 0
1193 -517 0
-1659 1373 0
1310 -204 0
-535 -1154 0
-1429 -401 0
1672 758 0
-134 -1360 0
-302 -1652 0
944 1681 0
-1632 181 0
248 -934 0
849 916 0
-69 -1367 0
797 1457 0
1087 -420 0
-953 931 0
-1022 1208 0
-1538 52 0
909 -1491 0
279 1318 0
-557 -646 0
-725 -460 0
-38 199 0
947 -745 0
-1223 -1587 0
1656 -1641 0
-811 528 0
-335 -462 0
-726 1672 0
1535 1591 0
349 -1224 0
-13 -1426 0
-177 471 0
-1430 1086 0
785 474 0
430 -215 0
-498 -948 0
-1691 596 0
-591 174 0
-696 1591 0
1031 -1020 0
1290 1553 0
1236 -932 0
-883 1348 0
622 -460 0
-1070 892 0
1153 -1483 0
-188 878 0
1675 -1229 0
1404 -1471 0
-1686 1174 0
460 1402 0
-847 -947 0
-614 -26 0
-1087 -6 0
-1631 1453 0
1433 1121 0
-1537 881 0
1547 1365 0
-1453 -1324 0
-1238 -1099 0
-1263 -211 0
-1097 -419 0
1121 -728 0
-1231 1589 0
-1048 1644 0
400 1562 0
1093 -1224 0
-1483 1466 0
780 740 0
-865 -509 0
1563 79 0
-1514 757 0
1232 -1618 0
-540 -1638 0
-528 -911 0
-1375 986 0
221 1500 0
-1687 1520 0
-773 -1222 0
863 231 0
481 649 0
-231 96 0
812 1050 0
-875 -1152 0
-1446 -414 0
-317 -192 0
-1112 446 0
1416 555 0
-191 470 0
-1134 1417 0
442 -721 0
1204 -1225 0
675 -1462 0
-822 1091 0
-89 474 0
-572 -1246 0
-1372 -719 0
549 1257 0
1191 -1575 0
-1548 -368 0
383 -1039 0
489 553 0
-113 92 0
-40 -191 0
1052 -1171 0
-414 -1625 0
116 -1355 0
1435 -1167 0
-644 128 0
383 1099 0
-1390 325 0
339 799 0
-1411 1156 0
1360 62 0
204 -1025 0
1533 1549 0
667 808 0
-1043 -183 0
931 166 0
-1623 1429 0
-42 362 0
-298 -856 0
1371 1050 0
1440 1391 0
-177 1681 0
-1255 -217 0
1482 -1199 0
298 -1040 0
-202 -193 0
24 -1177 0
1019 1371 0
-1342 887 0
1282 407 0
-988 1524 0
-182 -2 0
-1170 -262 0
865 -565 0
-1287 -1246 0
-495 -556 0
1118 427 0
-444 -256 0
-536 344 0
569 1537 0
-1436 484 0
1558 1265 0
-285 418 0
672 -1625 0
-701 1225 0
1005 1672 0
-6 1288 0
-719 -584 0
630 -1001 0
-558 -1231 0
121 129 0
1597 -760 0
-766 1264 0
-1383 -581 0
1516 -1396 0
-402 1264 0
661 856 0
1331 1150 0
213 -698 0
-533 1301 0
1613 -333 0
1682 -1499 0
-1440 1189 0
1250 767 0
948 -1311 0
335 -254 0
279 -563 0
52 508 0
-1291 354 0
-907 -1173 0
334 742 0
279 -507 0
1204 -1550 0
-103 -315 0
336 1006 0
-1470 1621 0
1589 -1406 0
-275 92 0
194 -857 0
-613 684 0
-691 -1362 0
-1180 -1051 0
752 1425 0
-1525 1331 0
1169 -887 0
377 757 0
630 1008 0
-148 -482 0
-1554 837 0
1282 1552 0
-1012 -797 0
-235 1339 0
-94 148 0
-1169 -15 0
-1554 1403 0
369 712 0
-732 1157 0
-1077 -545 0
-64 323 0
-1401 602 0
512 -996 0
-182 788 0
-893 1569 0
-1477 969 0
-500 -501 0
-411 138 0
-1209 -957 0
268 690 0
-907 827 0
-203 434 0
1378 1242 0
1049 -415 0
-1369 1573 0
-376 174 0
586 909 0
-939 -811 0
-554 577 0
1673 1168 0
-320 879 0
-42 1219 0
-1630 -1520 0
-378 1588 0
606 1365 0
1316 631 0
-902 -576 0
1148 1233 0
667 -1096 0
-840 669 0
-27 1221 0
145 703 0
197 -1556 0
-1411 526 0
-396 -734 0
-694 -447 0
1538 -1574 0
144 -1378 0
-1205 -1199 0
-1469 -576 0
-1032 15 0
-856 -1212 0
47 -1106 0
387 1181 0
863 425 0
-269 483 0
-479 1196 0
1494 -1212 0
1675 -535 0
-1327 631 0
248 -203 0
409 -811 0
282 -237 0
413 668 0
655 1680 0
-664 711 0
-687 -946 0
-934 1392 0
-1397 -349 0
-721 -609 0
896 -1261 0
381 -1270 0
-227 2 0
-1474 -218 0
-1659 -883 0
1440 279 0
-460 -318 0
-1168 914 0
-1061 439 0
1670 628 0
129 1014 0
-73 -335 0
322 547 0
571 889 0
-1422 745 0
1670 -887 0
-569 -649 0
-878 -984 0
-1245 -460 0
-1398 162 0
-846 -728 0
-652 369 0
39 -621 0
1312 722 0
492 -34 0
650 1349 0
1328 1165 0
-368 1683 0
126 550 0
323 336 0
-932 882 0
-1025 1244 0
1036 -1060 0
1055 -810 0
-1480 -534 0
-293 221 0
578 -1369 0
-766 1107 0
-766 1351 0
-45 164 0
657 357 0
-678 -919 0
-525 -797 0
65 223 0
1540 1185 0
1310 928 0
1384 1584 0
-1123 -642 0
1334 -347 0
-892 -1341 0
-1575 1661 0
124 1356 0
-1238 1263 0
-329 1120 0
1430 1015 0
-1091 -682 0
-1489 -671 0
-1534 1301 0
742 -1270 0
414 -333 0
-211 1213 0
-705 1219 0
63 70 0
1456 1399 0
827 1569 0
351 -807 0
-1254 -675 0
-1595 981 0
-1179 -975 0
-1394 487 0
1147 1186 0
1591 734 0
-1439 -1354 0
371 787 0
-1210 1053 0
-34 571 0
1688 881 0
-1614 -338 0
-886 -1618 0
-414 819 0
1095 -98 0
598 -943 0
-1379 -13 0
1178 651 0
1225 -175 0
-1595 -1247 0
-159 -486 0
-1097 1638 0
1203 1341 0
198 387 0
-334 -215 0
-1510 1056 0
330 1074 0
-360 1459 0
-73 -1043 0
-894 -1028 0
-534 -456 0
-504 -6 0
971 1562 0
1390 -429 0
-1520 -1088 0
-1326 1512 0
-1129 -492 0
-1415 449 0
-330 -61 0
-476 -1045 0
1128 1356 0
1646 228 0
-542 62 0
-882 985 0
-196 -927 0
1227 -1257 0
886 842 0
-1519 -192 0
590 938 0
1103 785 0
-639 -1125 0
561 -1344 0
-17 1643 0
1294 -202 0
-118 889 0
-1500 -888 0
47 884 0
-462 1494 0
312 -862 0
1653 122 0
-1070 -454 0
-1080 -1559 0
123 795 0
941 -1089 0
339 -666 0
126 -663 0
266 -1623 0
-80 -71 0
779 477 0
-993 -674 0
-24 598 0
579 -542 0
455 818 0
1250 -1087 0
-1461 1532 0
361 749 0
397 1502 0
-1190 -25 0
1224 -1026 0
496 119 0
955 4 0
821 443 0
-615 -457 0
-380 949 0
269 998 0
629 -292 0
1181 -1453 0
-1245 -156 0
-1692 -84 0
81 -1430 0
813 -375 0
31 15 0
-1680 537 0
254 -1343 0
457 -1032 0
-1265 908 0
1259 -1598 0
-1176 -495 0
170 684 0
1413 -1347 0
-168 1029 0
534 1316 0
-1304 400 0
1382 -229 0
1107 439 0
409 1564 0
1428 -1290 0
1164 1479 0
693 -1154 0
-811 631 0
445 -1641 0
787 1466 0
-892 1474 0
1451 328 0
-1446 -716 0
-997 -1043 0
1240 -335 0
-1499 -562 0
-1261 1462 0
181 511 0
325 -578 0
-709 206 0
-218 635 0
264 -719 0
1114 -968 0
505 -185 0
260 293 0
657 -768 0
1143 -1072 0
-1503 -121 0
-1269 -212 0
-810 -1093 0
-1510 -1161 0
-886 -91 0
524 -43 0
982 -1633 0
548 -715 0
-1176 122 0
-270 28 0
613 -1468 0
-777 1420 0
275 -176 0
1377 712 0
-1386 912 0
1616 1649 0
-1575 -322 0
189 142 0
572 1350 0
1433 -1562 0
682 -333 0
1558 -603 0
-967 1203 0
-34 917 0
1318 -312 0
-1122 375 0
-182 -1019 0
1276 106 0
629 -289 0
22 -288 0
126 -1251 0
-381 966 0
-438 1613 0
1056 1135 0
-1530 -775 0
1504 1447 0
798 -373 0
1639 1292 0
-1419 -1618 0
-1150 -643 0
1351 848 0
848 1252 0
-1267 1098 0
-441 -1280 0
-609 -24 0
-385 1338 0
1353 -4 0
-286 60 0
1244 1433 0
952 1518 0
1513 -158 0
-1099 1252 0
-498 -456 0
1329 1570 0
-877 -1663 0
-1481 -1048 0
623 -974 0
-1503 1327 0
-1205 246 0
1095 -555 0
475 -557 0
-638 -248 0
611 1418 0
-1466 1165 0
-1019 -17 0
1242 557 0
-355 -740 0
1409 -244 0
288 -1554 0
1203 -137 0
975 -1165 0
-527 -1330 0
-489 -1147 0
900 -1035 0
-1487 271 0
913 1056 0
-860 -788 0
940 -1363 0
1110 1363 0
184 -388 0
-1142 -555 0
854 1600 0
-1440 -1115 0
730 700 0
-573 -1059 0
-785 -176 0
-1614 -1261 0
734 384 0
1585 1154 0
-1688 438 0
412 979 0
-319 -1236 0
1042 -746 0
-1168 -164 0
-1035 1650 0
384 321 0
1248 701 0
-1037 -1388 0
-765 1598 0
-694 -1411 0
86 673 0
-471 -951 0
1443 765 0
-1117 -216 0
-1268 884 0
1620 -120 0
-899 -960 0
890 -1270 0
-452 1644 0
-335 -237 0
-687 -733 0
463 -482 0
-535 1325 0
-320 -1686 0
-480 1151 0
-464 -1090 0
1588 1195 0
-99 810 0
840 1055 0
1688 141 0
-635 -963 0
-223 -1414 0
-768 -939 0
-1103 59 0
1327 -1145 0
635 -637 0
1468 -1322 0
43 -1298 0
-210 708 0
355 981 0
-1534 220 0
214 -960 0
-530 -961 0
-135 12 0
-1513 -1445 0
395 -671 0
-707 1194 0
941 147 0
69 -1356 0
-311 -56 0
1201 -494 0
1348 173 0
-9 1036 0
585 -1381 0
-277 -127 0
199 159 0
-1460 -1626 0
383 145 0
1319 -1623 0
-248 -1398 0
-380 -1660 0
-75 -1424 0
250 -1099 0
955 1527 0
-1214 1010 0
-1271 1569 0
108 245 0
-1617 -671 0
-1247 103 0
1087 -18 0
1312 279 0
-1320 1264 0
96 -365 0
-312 -1478 0
-436 -894 0
-831 -1106 0
1428 -133 0
-1182 -42 0
1107 -308 0
-295 407 0
1456 75 0
76 324 0
55 469 0
-334 1073 0
132 -1628 0
-116 395 0
53 435 0
842 -492 0
527 1381 0
-1384 853 0
-1490 931 0
-567 -1028 0
1669 633 0
1525 -74 0
25 102 0
216 -425 0
-291 396 0
869 -850 0
-534 294 0
889 -1282 0
324 -43 0
-910 428 0
1526 904 0
-1256 -1324 0
-656 1214 0
611 -434 0
-1040 -743 0
633 630 0
-1086 -961 0
438 -1289 0
200 -829 0
1299 -665 0
-1276 -486 0
-1563 -893 0
-550 1358 0
654 1562 0
-259 751 0
-624 -141 0
-365 -1309 0
160 -729 0
-1454 258 0
400 -468 0
711 -1050 0
14 -1114 0
1565 1405 0
1407 -993 0
-910 250 0
884 1134 0
546 -189 0
642 1572 0
-283 -441 0
-867 804 0
-178 1519 0
70 -849 0
112 -415 0
931 -749 0
-312 461 0
-1470 -1027 0
1381 -1459 0
-798 -1533 0
-77 -615 0
1360 844 0
-1014 -700 0
516 -566 0
-725 116 0
-206 941 0
-1280 -993 0
-1239 1426 0
764 -522 0
550 -832 0
-654 1264 0
-635 -815 0
-1662 -536 0
1425 -1633 0
-692 -631 0
1303 135 0
-390 1117 0
-1567 -1470 0
-272 43 0
-130 -904 0
-523 312 0
1314 -1097 0
284 647 0
356 1499 0
775 540 0
1641 -1588 0
512 -264 0
-1419 1148 0
561 -252 0
-1288 594 0
-936 -1352 0
16 586 0
1102 -451 0
-521 168 0
1423 1045 0
755 22 0
-97 -894 0
1014 -754 0
-1607 -1604 0
1678 1189 0
-285 1 0
-1192 -740 0
-298 1381 0
537 -1224 0
672 472 0
949 -1074 0
-73 1366 0
-930 -948 0
1122 -486 0
184 138 0
68 -1168 0
-34 178 0
1150 1473 0
408 -1581 0
-891 549 0
-22 648 0
-1632 -26 0
1240 1619 0
397 -1001 0
446 1272 0
881 -1145 0
275 -274 0
64 -226 0
1505 1615 0
970 290 0
362 -253 0
-1269 50 0
1571 -991 0
-165 -539 0
767 88 0
-621 -396 0
1101 1232 0
337 1084 0
1009 -1266 0
734 1665 0
1285 -1075 0
-835 421 0
310 -1449 0
603 574 0
1377 1364 0
-1629 -1623 0
35 260 0
1095 184 0
373 -137 0
1666 1331 0
1489 -1209 0
777 1668 0
-1532 1433 0
753 -1492 0
-357 -1038 0
-953 1177 0
-1499 1448 0
-1393 902 0
-259 -204 0
1383 -1228 0
151 881 0
-446 491 0
-1173 1194 0
297 1645 0
721 -196 0
-973 -1370 0
-1646 1431 0
53 -1313 0
468 -166 0
-456 1601 0
-807 -648 0
-1246 1048 0
-1611 -1576 0
590 339 0
967 728 0
184 313 0
-612 119 0
1349 916 0
-766 668 0
1025 -287 0
1002 -514 0
417 -494 0
791 -1457 0
-291 -333 0
-1447 87 0
-1467 485 0
-1026 152 0
-1173 329 0
-1538 -696 0
-1003 -773 0
-1392 -797 0
-1452 -440 0
590 -1444 0
-499 -999 0
-744 -397 0
1529 289 0
-460 1608 0
-853 -1155 0
137 836 0
418 278 0
-1135 362 0
368 681 0
162 1400 0
1527 -256 0
1440 1310 0
1447 -1678 0
-874 345 0
1458 1149 0
-148 -1555 0
39 1143 0
-13 -1171 0
-488 582 0
-727 -937 0
-58 1654 0
-840 345 0
949 506 0
219 1058 0
1244 1303 0
1359 771 0
111 -833 0
1116 1186 0
1352 -313 0
-1361 -544 0
1482 -771 0
1534 254 0
-354 1581 0
-1506 -1054 0
-1555 836 0
574 1473 0
1356 -876 0
1491 202 0
-526 914 0
956 -1144 0
-48 -361 0
-29 -1268 0
-1427 376 0
1549 -968 0
-1484 310 0
-965 -364 0
-496 -392 0
244 720 0
970 998 0
184 1515 0
1506 -875 0
861 -365 0
-681 358 0
440 1164 0
355 -1352 0
329 1293 0
1496 823 0
-494 727 0
-313 -840 0
616 1539 0
-26 -1614 0
-921 -809 0
213 1162 0
-1152 -532 0
1431 -176 0
1381 -820 0
-205 -74 0
-307 -748 0
-711 -1595 0
381 -475 0
1431 -373 0
-158 -1102 0
1146 -728 0
-745 -1019 0
81 1655 0
-1348 74 0
-384 853 0
1665 1581 0
-1043 783 0
1462 892 0
-1142 669 0
-1393 951 0
1194 -303 0
420 -411 0
-1027 -292 0
-128 1433 0
1553 -1571 0
-239 -177 0
1325 640 0
-1564 -1157 0
607 473 0
-262 -1289 0
1329 -1260 0
983 -60 0
1242 -515 0
-1236 -887 0
-813 -962 0
-1275 614 0
-807 -1061 0
854 -1273 0
487 1447 0
686 796 0
-549 861 0
-1526 -492 0
-775 1383 0
440 556 0
-1515 -1040 0
-871 -1346 0
436 -517 0
1619 -393 0
483 204 0
1513 -335 0
452 -1376 0
-553 142 0
-316 -1396 0
1250 -1406 0
1448 -81 0
-448 -1341 0
-1150 -646 0
-739 1181 0
-37 -1678 0
-824 -831 0
-855 1502 0
1143 1240 0
-1612 1590 0
-1197 541 0
