c bounds 14 14
p cnf 145 435
-79 88 0
-33 52 0
-40 90 0
-110 -66 0
77 -98 0
-120 -102 0
-31 72 0
5 -3 0
-29 -55 0
49 -115 0
-5 25 0
46 130 0
84 38 0
110 -124 0
-54 -61 0
-12 -30 0
-31 -121 0
95 -119 0
11 21 0
90 5 0
136 98 0
62 -128 0
78 131 0
15 -33 0
58 -23 0
135 90 0
-129 -124 0
-118 87 0
29 -55 0
50 126 0
-71 -66 0
27 5 0
63 -130 0
-141 -28 0
58 -42 0
117 -83 0
115 -121 0
10 125 0
-109 93 0
-12 -89 0
-48 22 0
21 10 0
43 -124 0
-1 -108 0
77 -30 0
-3 -93 0
22 -26 0
23 -5 0
-111 -129 0
144 93 0
83 -127 0
97 51 0
-129 35 0
-133 104 0
-102 82 0
65 -82 0
44 -72 0
107 -40 0
62 136 0
-51 90 0
95 104 0
-75 25 0
75 60 0
-48 113 0
114 130 0
128 13 0
-129 21 0
122 -23 0
31 25 0
12 73 0
-57 126 0
-128 -80 0
-28 -67 0
70 -129 0
8 16 0
62 59 0
-31 71 0
21 -3 0
-28 -42 0
-120 39 0
-69 74 0
-108 -74 0
20 -133 0
-26 144 0
53 -102 0
125 -80 0
-132 -75 0
4 -48 0
-134 -34 0
-109 -32 0
-140 19 0
-104 106 0
-118 -41 0
-129 -109 0
-117 -76 0
-116 -114 0
-112 126 0
130 5 0
-9 82 0
-64 50 0
58 145 0
73 -120 0
-112 -128 0
-14 115 0
-140 -95 0
93 -1 0
54 118 0
-64 56 0
113 -132 0
43 -41 0
102 -128 0
-132 134 0
113 -9 0
33 107 0
-89 73 0
-76 -21 0
-117 -1 0
125 32 0
-41 -76 0
62 66 0
-13 96 0
107 -37 0
46 69 0
-144 -42 0
64 22 0
96 -102 0
16 17 0
119 -31 0
86 -69 0
21 122 0
21 45 0
-143 102 0
-9 -49 0
-24 -28 0
-76 -24 0
23 -72 0
-77 94 0
-47 64 0
94 -20 0
23 -90 0
50 7 0
52 -60 0
-103 -131 0
14 -115 0
-54 84 0
-1 17 0
94 -60 0
-119 -6 0
-123 -110 0
-54 68 0
88 -39 0
-111 141 0
-56 81 0
5 68 0
-134 20 0
97 54 0
94 -104 0
117 38 0
77 -9 0
-110 72 0
7 -121 0
93 5 0
55 99 0
63 101 0
57 -35 0
31 126 0
28 -76 0
-7 -1 0
137 62 0
-69 -44 0
107 127 0
-116 103 0
126 -3 0
37 -121 0
84 59 0
93 -54 0
96 -64 0
-140 43 0
-80 91 0
-8 65 0
115 128 0
43 141 0
138 -33 0
141 99 0
-50 103 0
125 2 0
113 73 0
56 -42 0
-41 65 0
-116 143 0
-132 21 0
65 -27 0
35 -134 0
123 89 0
-120 -67 0
-109 114 0
69 70 0
-118 -89 0
99 83 0
46 56 0
-77 -69 0
-72 96 0
82 -2 0
-68 82 0
-140 -31 0
-110 -8 0
-89 1 0
45 48 0
-115 50 0
-74 -67 0
-133 73 0
-30 -110 0
-133 61 0
141 -109 0
13 144 0
129 122 0
-44 10 0
46 30 0
37 -51 0
145 126 0
-41 13 0
-43 -3 0
4 -6 0
123 144 0
-119 132 0
65 55 0
60 -9 0
77 13 0
9 122 0
-124 137 0
-28 89 0
139 84 0
-4 -98 0
-139 13 0
22 92 0
-107 -131 0
-6 -117 0
-27 -29 0
96 16 0
-129 -76 0
-33 -121 0
-28 -38 0
130 72 0
59 -35 0
126 -20 0
-48 -87 0
21 -78 0
-12 14 0
22 13 0
-57 49 0
90 39 0
-52 46 0
87 -23 0
-137 -140 0
-29 -64 0
139 120 0
-29 -17 0
38 30 0
-66 30 0
84 86 0
53 -60 0
-109 79 0
58 23 0
6 -68 0
15 -140 0
105 2 0
-71 -47 0
-41 -99 0
81 21 0
-85 -129 0
-116 -29 0
103 62 0
-94 70 0
-73 -8 0
12 135 0
2 -107 0
24 139 0
49 -22 0
-44 -100 0
5 61 0
-1 -89 0
72 111 0
-97 16 0
15 -27 0
95 26 0
-42 -7 0
56 -128 0
92 91 0
22 -135 0
-86 99 0
119 -66 0
133 106 0
-143 -121 0
46 16 0
-11 56 0
135 -31 0
-33 64 0
136 86 0
30 -43 0
-26 -108 0
-140 -8 0
-80 -33 0
112 -120 0
-66 -36 0
-81 106 0
-48 -87 0
90 -140 0
-23 91 0
-66 5 0
-8 -6 0
-80 77 0
96 38 0
-64 90 0
13 -118 0
-125 103 0
77 -66 0
62 -27 0
-127 -3 0
17 -143 0
-72 95 0
113 141 0
58 84 0
13 -131 0
38 118 0
44 107 0
-47 92 0
-119 22 0
-88 107 0
-33 53 0
-86 49 0
2 -116 0
52 -55 0
-43 14 0
-12 -71 0
-5 -80 0
96 -140 0
-29 -20 0
-76 130 0
107 -46 0
-28 50 0
-97 -61 0
-29 89 0
-94 65 0
99 97 0
54 13 0
25 112 0
25 -1 0
86 -87 0
-35 23 0
27 46 0
-75 4 0
-19 -78 0
94 -122 0
-39 97 0
116 106 0
32 125 0
59 -79 0
-69 -32 0
89 -98 0
13 2 0
46 -75 0
-116 -24 0
59 -80 0
-22 92 0
-17 17 0
-42 35 0
-55 -15 0
66 -110 0
-24 30 0
11 20 0
30 -8 0
-13 -10 0
-12 -80 0
107 -137 0
23 6 0
121 -54 0
136 118 0
-43 -3 0
-79 -47 0
126 -105 0
-119 -122 0
-55 -80 0
142 -26 0
-61 19 0
88 -61 0
-67 17 0
-9 -131 0
31 -140 0
-42 -55 0
-75 -72 0
138 -78 0
-78 -80 0
-68 46 0
-119 36 0
-34 98 0
57 -17 0
70 60 0
-73 -104 0
-34 -55 0
-68 94 0
-54 -29 0
-3 -106 0
-16 56 0
62 -55 0
102 144 0
88 123 0
49 23 0
-54 -131 0
114 -61 0
-3 87 0
101 131 0
25 -23 0
35 -118 0
-105 42 0
-42 101 0
-80 59 0
-69 -93 0
22 -69 0
53 9 0
99 -67 0
-140 -67 0
86 73 0
37 -33 0
-129 -134 0
21 53 0
63 92 0
145 -7 0
39 11 0
-18 -128 0
-12 113 0
141 41 0
-115 -105 0
5 -2 0
57 -84 0
-94 -48 0
