c NF
p cnf 957 2105
187 509 0
-332 277 0
-414 778 0
510 -14 0
-875 -683 0
199 -796 0
-308 796 0
286 -767 0
89 -899 0
-796 -99 0
617 -618 0
-500 42 0
111 65 0
-753 -285 0
-688 -477 0
762 -164 0
592 351 0
-583 898 0
323 339 0
930 568 0
549 18 0
-702 61 0
-526 -262 0
333 227 0
652 140 0
354 -775 0
-315 514 0
-848 667 0
619 -83 0
643 -178 0
532 298 0
63 -550 0
-294 -357 0
21 -772 0
55 215 0
-95 838 0
-83 -238 0
229 778 0
925 769 0
-427 -202 0
17 -493 0
-224 -301 0
656 -810 0
532 230 0
-392 917 0
572 370 0
-577 616 0
-543 380 0
463 422 0
-880 -757 0
617 -595 0
-748 886 0
-196 -242 0
-889 -295 0
32 700 0
-226 -875 0
94 590 0
-337 299 0
743 227 0
270 -750 0
576 204 0
-426 -301 0
751 365 0
888 88 0
-773 -769 0
-152 -647 0
458 -497 0
-724 -704 0
135 -865 0
441 733 0
-747 -592 0
392 -237 0
-642 413 0
571 -436 0
-595 515 0
-632 380 0
793 -217 0
-179 -467 0
363 466 0
-790 -818 0
-455 741 0
-540 -797 0
-254 245 0
292 325 0
131 -17 0
101 107 0
-501 -256 0
-551 841 0
435 27 0
412 434 0
471 -482 0
102 -324 0
-824 -901 0
425 296 0
-469 645 0
-699 -709 0
-204 184 0
462 -595 0
36 -307 0
-937 -387 0
-36 599 0
69 803 0
445 -416 0
-329 -919 0
-85 485 0
646 -96 0
-392 816 0
-572 235 0
-700 -437 0
108 -473 0
273 -734 0
938 780 0
-153 -246 0
547 -737 0
-212 -268 0
-799 -815 0
-657 -394 0
583 -207 0
143 145 0
492 581 0
953 912 0
417 84 0
857 561 0
476 -144 0
183 267 0
-875 -606 0
-271 317 0
225 -521 0
-317 -588 0
-699 -49 0
605 539 0
238 585 0
347 -505 0
643 108 0
-397 -200 0
-544 93 0
-921 -652 0
131 621 0
631 525 0
617 -133 0
47 548 0
-542 655 0
111 -879 0
-817 407 0
356 283 0
-822 -527 0
896 -138 0
-900 -827 0
602 -627 0
-309 -651 0
-440 838 0
768 35 0
-673 -546 0
-947 -747 0
902 -327 0
-620 803 0
190 89 0
-391 -556 0
-913 -738 0
319 382 0
133 46 0
-140 -47 0
899 410 0
726 351 0
498 -41 0
599 581 0
-332 -55 0
174 -565 0
364 -202 0
630 636 0
304 4 0
-812 444 0
-98 183 0
232 49 0
-805 -748 0
-784 898 0
755 -124 0
-474 -615 0
-81 138 0
-957 -226 0
-365 -845 0
326 808 0
885 448 0
99 650 0
-595 524 0
180 570 0
-205 -875 0
-698 415 0
521 -112 0
760 -729 0
455 105 0
-704 -499 0
-303 -845 0
-566 -659 0
-18 -611 0
-101 187 0
-192 -899 0
72 344 0
-118 662 0
-748 -209 0
9 939 0
-762 -124 0
936 903 0
-429 576 0
-357 -547 0
550 -768 0
41 472 0
289 184 0
215 528 0
-511 -218 0
183 548 0
12 489 0
-607 109 0
433 -932 0
297 -857 0
-261 -292 0
780 -444 0
893 -211 0
-157 267 0
607 1 0
-434 -432 0
-172 -103 0
806 -844 0
554 -886 0
785 -544 0
49 75 0
-119 -891 0
264 90 0
734 927 0
704 -773 0
-475 -723 0
-237 -537 0
-556 662 0
789 435 0
662 -929 0
-388 368 0
633 501 0
753 -128 0
480 -434 0
-802 787 0
-922 946 0
-830 296 0
-48 -488 0
927 -3 0
378 841 0
722 641 0
915 -75 0
657 935 0
-887 -331 0
150 361 0
-364 697 0
881 484 0
205 -455 0
-950 -891 0
-736 -700 0
49 -491 0
631 84 0
444 505 0
50 320 0
-100 400 0
-764 -877 0
-71 -410 0
53 288 0
-107 -262 0
841 -847 0
-310 184 0
781 246 0
-585 -278 0
614 -212 0
-912 446 0
-11 -426 0
-689 429 0
-215 150 0
828 -493 0
-164 785 0
3 -482 0
109 -779 0
-529 847 0
-294 -58 0
-203 173 0
-865 -398 0
-91 -254 0
-533 816 0
865 -944 0
-938 943 0
31 -582 0
45 -403 0
-438 587 0
184 -910 0
511 515 0
-535 -634 0
-824 -824 0
-337 457 0
800 704 0
-434 -891 0
-262 125 0
256 928 0
-180 -571 0
259 740 0
-268 90 0
763 -332 0
-62 804 0
763 -211 0
-469 19 0
483 273 0
-932 -876 0
745 401 0
792 650 0
106 603 0
-243 -178 0
581 -207 0
-154 950 0
512 281 0
-250 -390 0
17 342 0
610 -370 0
-595 147 0
-817 295 0
852 -487 0
-663 857 0
412 -864 0
161 842 0
-651 725 0
-546 -812 0
-123 572 0
-516 -211 0
-358 -678 0
208 245 0
-874 -764 0
-383 -286 0
-714 -861 0
-209 840 0
346 -196 0
-294 -586 0
-747 419 0
-219 -473 0
-270 -306 0
-138 -723 0
-459 359 0
-526 513 0
-287 -435 0
-314 837 0
231 4 0
323 415 0
-935 539 0
891 318 0
52 -124 0
145 -473 0
-510 430 0
258 -163 0
-719 -859 0
-850 -403 0
675 922 0
863 -249 0
810 439 0
-764 -45 0
-246 -838 0
581 -737 0
-371 281 0
229 -243 0
100 -863 0
-852 -463 0
-708 882 0
-346 827 0
395 -329 0
780 -538 0
420 -325 0
-491 276 0
-686 -196 0
-526 -861 0
-526 -460 0
339 -259 0
-837 439 0
-358 -692 0
-369 593 0
-212 -564 0
-819 -287 0
702 -945 0
654 -26 0
-309 -409 0
-628 23 0
150 -249 0
751 604 0
-526 405 0
-321 -734 0
353 231 0
943 -297 0
-524 -252 0
551 345 0
-3 -562 0
895 777 0
548 791 0
-851 476 0
651 416 0
-265 -470 0
-850 374 0
-626 -373 0
-755 143 0
-829 -100 0
-514 -373 0
-373 -345 0
761 622 0
613 -951 0
-797 -891 0
736 840 0
211 413 0
425 -411 0
264 668 0
326 723 0
-615 106 0
639 -606 0
186 -366 0
-415 -951 0
-672 654 0
-783 -702 0
607 -634 0
428 -764 0
892 263 0
-624 -865 0
-634 -851 0
-758 -267 0
-24 887 0
-522 661 0
-456 645 0
413 877 0
335 587 0
-571 557 0
-321 -505 0
-513 -134 0
512 566 0
-261 -906 0
-473 779 0
179 412 0
533 -359 0
-527 -747 0
420 432 0
193 -259 0
-592 530 0
-187 -583 0
-269 391 0
-574 362 0
-470 -555 0
-225 705 0
33 -40 0
-63 -888 0
243 933 0
-319 -374 0
749 -294 0
-148 233 0
-230 173 0
782 224 0
636 -346 0
-376 -885 0
551 -506 0
-575 158 0
-752 290 0
-814 93 0
776 282 0
-620 -870 0
391 -447 0
170 -447 0
832 -270 0
-840 -925 0
-328 -255 0
746 -579 0
289 866 0
-918 -550 0
-329 193 0
-30 -544 0
531 -51 0
-797 -281 0
400 710 0
519 521 0
625 -442 0
-218 -841 0
602 -356 0
-810 671 0
-66 605 0
-403 -535 0
471 -596 0
810 322 0
-161 -108 0
-329 -442 0
828 -473 0
-495 621 0
-244 666 0
-30 -456 0
-754 -290 0
547 793 0
-339 -502 0
-523 -692 0
184 125 0
-136 220 0
-261 -805 0
-577 559 0
-901 -508 0
619 702 0
440 349 0
-568 -48 0
642 -951 0
486 -838 0
644 480 0
576 473 0
-61 -68 0
761 538 0
247 930 0
-412 259 0
-637 -139 0
-158 -413 0
-25 -773 0
-526 383 0
360 -479 0
759 -84 0
-945 140 0
809 -953 0
-132 -379 0
-694 851 0
-161 -134 0
178 607 0
-99 -544 0
309 -392 0
-54 -305 0
574 -900 0
-420 -849 0
90 -722 0
-804 788 0
-758 -753 0
-483 257 0
-314 -50 0
584 -426 0
166 -873 0
-305 -309 0
-204 655 0
265 -481 0
947 -269 0
259 664 0
-343 -810 0
-836 -605 0
-360 -885 0
-845 -740 0
-483 410 0
357 -568 0
-308 905 0
105 -64 0
198 487 0
-391 -511 0
-248 738 0
-710 77 0
-692 -132 0
-5 -131 0
530 30 0
446 -626 0
-725 -483 0
560 885 0
-663 410 0
222 -367 0
682 247 0
173 567 0
-159 -603 0
645 632 0
415 23 0
4 -863 0
-298 866 0
-4 162 0
454 222 0
2 897 0
614 619 0
622 387 0
605 813 0
-846 668 0
587 602 0
-30 16 0
-160 -12 0
-120 -775 0
-767 -295 0
-577 -592 0
671 -884 0
458 -490 0
-134 -549 0
23 166 0
-133 -612 0
594 215 0
-12 14 0
-203 -212 0
793 385 0
-427 603 0
-688 -200 0
-436 1 0
-821 -728 0
-62 -509 0
881 466 0
-328 -209 0
-862 505 0
-951 326 0
416 153 0
-442 573 0
-482 -894 0
-256 491 0
943 194 0
517 -873 0
625 -857 0
-173 -459 0
786 493 0
954 -606 0
-384 810 0
-208 -567 0
201 676 0
-114 828 0
-635 110 0
-328 438 0
71 105 0
416 -61 0
-492 -642 0
-398 536 0
697 492 0
243 515 0
-194 -295 0
34 -208 0
769 239 0
-33 -541 0
-20 82 0
920 536 0
859 -722 0
-792 -212 0
-774 -304 0
49 -728 0
-800 -603 0
-772 -275 0
248 43 0
-931 843 0
428 848 0
-647 77 0
-33 747 0
437 -717 0
-718 9 0
-388 -923 0
-403 427 0
-18 -568 0
495 697 0
-610 -391 0
-645 -725 0
935 -33 0
122 669 0
-805 -112 0
91 -921 0
-669 661 0
-637 -333 0
681 -157 0
446 -957 0
-821 -746 0
478 -228 0
-907 -303 0
171 -647 0
898 -520 0
50 220 0
-213 -863 0
-286 290 0
-932 -877 0
930 350 0
584 -91 0
258 -844 0
357 534 0
409 423 0
871 884 0
20 186 0
789 689 0
939 -758 0
382 -893 0
342 -426 0
155 767 0
-861 397 0
-933 500 0
55 -469 0
551 -598 0
-908 -611 0
-635 -737 0
699 638 0
763 -180 0
-57 -556 0
280 703 0
755 288 0
-852 752 0
59 -315 0
-317 535 0
44 131 0
-384 474 0
-750 275 0
-483 -794 0
706 952 0
-951 -90 0
-658 442 0
433 682 0
165 446 0
150 -241 0
-596 363 0
-159 -284 0
107 -524 0
464 824 0
749 -440 0
-71 -495 0
-684 -181 0
-773 -704 0
-191 -72 0
-134 -768 0
-426 -685 0
-509 680 0
613 -37 0
-417 -649 0
-867 4 0
-178 476 0
801 -46 0
-301 585 0
-612 331 0
717 -255 0
902 -460 0
316 413 0
40 351 0
-99 23 0
893 -699 0
-12 -592 0
549 -177 0
307 386 0
-443 -778 0
456 841 0
-647 -828 0
-739 -508 0
-640 -578 0
-792 -584 0
626 458 0
-906 -509 0
-414 916 0
-947 841 0
325 -712 0
175 -201 0
853 -667 0
-861 323 0
-363 402 0
437 951 0
-371 -951 0
-913 -317 0
49 842 0
687 -211 0
601 -802 0
-197 548 0
-325 -587 0
-186 -772 0
320 73 0
-679 173 0
933 47 0
501 -341 0
227 -687 0
-553 829 0
-568 120 0
547 43 0
145 -87 0
-577 -551 0
142 6 0
840 115 0
-230 557 0
287 -940 0
225 -882 0
-723 48 0
-887 240 0
-694 515 0
211 489 0
-243 61 0
789 -475 0
-493 -863 0
167 -238 0
-603 -772 0
-488 -207 0
428 -899 0
510 621 0
-583 430 0
-159 -703 0
531 868 0
245 -440 0
-940 192 0
-760 -901 0
88 -143 0
-621 -817 0
534 369 0
-25 -649 0
373 -722 0
454 -865 0
20 -918 0
-646 476 0
202 -935 0
-76 572 0
77 -931 0
497 -456 0
-84 -818 0
37 757 0
-564 923 0
-329 907 0
-761 542 0
335 -294 0
381 523 0
-948 846 0
495 -366 0
-94 -191 0
94 428 0
-484 -953 0
-367 -135 0
-270 263 0
515 932 0
-33 -652 0
781 520 0
9 -450 0
947 -559 0
262 -496 0
776 -390 0
-831 115 0
38 -632 0
178 -408 0
510 347 0
883 -884 0
-22 589 0
-945 877 0
779 -693 0
503 940 0
832 261 0
-81 -744 0
-694 69 0
-718 -134 0
-197 463 0
-238 -305 0
175 522 0
-199 -427 0
-454 155 0
574 -729 0
819 133 0
727 73 0
654 -88 0
155 283 0
173 -662 0
-851 -494 0
-275 -799 0
-305 224 0
-920 -352 0
279 -881 0
-725 -606 0
582 402 0
-738 -98 0
780 134 0
354 654 0
203 -534 0
-943 857 0
-568 -164 0
-548 458 0
629 231 0
-200 810 0
-907 -168 0
-529 -833 0
-917 -860 0
-563 -573 0
515 631 0
118 -592 0
354 -310 0
624 -846 0
-692 -536 0
462 -202 0
-289 -887 0
706 386 0
-817 -642 0
-943 -209 0
721 -518 0
364 294 0
-57 15 0
-428 -723 0
-430 -783 0
477 -392 0
-914 667 0
61 276 0
763 409 0
-12 171 0
-304 -287 0
545 -110 0
675 -732 0
669 922 0
735 791 0
-493 -405 0
-793 463 0
-927 676 0
230 -608 0
468 -651 0
-308 -569 0
-92 395 0
-92 -304 0
-45 587 0
-322 145 0
-797 554 0
795 -927 0
801 151 0
-376 865 0
-104 -160 0
-308 618 0
-760 -482 0
-49 912 0
-853 631 0
-590 86 0
-306 -261 0
583 -161 0
271 779 0
846 -634 0
111 131 0
-617 471 0
-236 -19 0
231 -67 0
342 442 0
-516 368 0
-648 -694 0
528 43 0
790 -38 0
8 743 0
-266 -717 0
489 615 0
-194 881 0
-783 663 0
955 -635 0
227 -8 0
430 77 0
-84 -569 0
-194 -251 0
-139 265 0
-375 608 0
-692 -156 0
92 -321 0
337 745 0
675 581 0
-642 -763 0
-185 -269 0
22 -790 0
-708 315 0
-391 653 0
727 -352 0
-6 -944 0
-115 434 0
-514 -599 0
387 797 0
-836 -834 0
-72 -409 0
-304 752 0
-161 -814 0
745 152 0
616 -510 0
-130 -472 0
-590 -561 0
81 -485 0
-317 -35 0
823 359 0
52 -722 0
-160 -160 0
-683 632 0
442 928 0
-144 -628 0
-239 342 0
-783 245 0
253 448 0
-231 813 0
677 840 0
-541 -874 0
-295 -260 0
-129 -849 0
857 -590 0
-724 -731 0
-582 424 0
-700 -149 0
210 -792 0
-438 389 0
915 413 0
-822 -713 0
936 -1 0
162 656 0
694 -564 0
587 -883 0
-303 -913 0
-954 705 0
141 558 0
665 772 0
458 827 0
248 857 0
671 -778 0
742 537 0
-408 -40 0
306 826 0
695 -20 0
-350 -318 0
670 823 0
864 664 0
803 230 0
306 -874 0
190 775 0
380 773 0
-55 150 0
-724 -496 0
949 -856 0
115 -823 0
-317 -918 0
351 472 0
-805 -75 0
561 604 0
-50 109 0
-514 284 0
465 -881 0
849 530 0
362 740 0
-826 782 0
437 469 0
-922 -803 0
-592 274 0
641 903 0
358 -557 0
-826 386 0
151 -48 0
-695 585 0
-232 383 0
867 -29 0
-939 -937 0
902 836 0
-361 -411 0
-312 590 0
-200 509 0
184 -118 0
289 355 0
7 106 0
-766 65 0
-55 248 0
896 376 0
448 -167 0
702 19 0
347 -515 0
-405 876 0
83 769 0
-138 669 0
779 253 0
190 -796 0
-774 914 0
828 -433 0
-24 -210 0
186 781 0
-411 198 0
-556 53 0
916 -931 0
561 -201 0
-341 -135 0
504 -483 0
244 247 0
-648 -821 0
776 -95 0
-781 358 0
643 227 0
-612 -144 0
162 709 0
177 11 0
497 356 0
249 45 0
-257 -577 0
-549 594 0
65 673 0
-879 370 0
-579 -501 0
742 -887 0
-418 -506 0
801 452 0
-790 -286 0
93 395 0
830 675 0
-918 694 0
-494 476 0
-145 -874 0
882 882 0
-436 -431 0
327 273 0
-830 -490 0
-723 -161 0
-792 -904 0
-937 -104 0
424 -275 0
819 397 0
763 -366 0
879 302 0
24 412 0
637 919 0
-2 -40 0
229 -20 0
220 181 0
-898 -269 0
-502 5 0
-7 578 0
887 871 0
-837 -821 0
-773 692 0
420 701 0
-507 -159 0
-177 -800 0
745 531 0
-918 157 0
484 593 0
-940 360 0
251 883 0
264 326 0
428 -434 0
-790 729 0
-702 -872 0
-527 930 0
660 -334 0
188 63 0
-568 811 0
-176 76 0
872 -860 0
398 -346 0
-5 -246 0
-905 359 0
-147 18 0
-303 942 0
809 278 0
822 829 0
-459 793 0
-700 79 0
-646 -508 0
117 727 0
-324 370 0
511 522 0
882 875 0
489 -274 0
88 -902 0
943 -722 0
-156 -424 0
126 299 0
641 791 0
-304 93 0
344 459 0
-688 484 0
488 -751 0
-615 -730 0
661 727 0
739 -38 0
159 -844 0
-640 189 0
-130 550 0
-319 142 0
277 183 0
-192 -191 0
-283 539 0
1 -845 0
-489 -172 0
449 -741 0
-942 -739 0
-802 710 0
400 785 0
-67 910 0
-366 94 0
-272 104 0
362 956 0
-895 882 0
321 -288 0
253 794 0
-683 -309 0
390 911 0
-98 -307 0
-799 -603 0
779 748 0
-598 602 0
542 -121 0
-546 -673 0
781 -161 0
-398 -460 0
566 -137 0
498 677 0
7 -703 0
413 -1 0
464 772 0
-215 -263 0
681 -159 0
594 -851 0
519 -352 0
-471 912 0
-899 -706 0
45 872 0
-536 871 0
869 82 0
437 175 0
274 354 0
-274 779 0
791 17 0
-50 189 0
98 530 0
513 -426 0
-820 110 0
-314 -855 0
339 886 0
616 223 0
-914 -588 0
-234 -212 0
954 472 0
-470 297 0
653 -651 0
565 434 0
845 186 0
-275 -378 0
-470 -440 0
-90 60 0
-674 -582 0
-508 -753 0
99 174 0
-874 664 0
-794 -359 0
-160 92 0
-236 -343 0
-216 -850 0
299 917 0
857 601 0
-478 -642 0
598 -481 0
-895 -647 0
-301 -309 0
401 579 0
7 -704 0
-924 -561 0
-491 -479 0
471 576 0
592 -588 0
-714 -717 0
-205 -137 0
-53 -822 0
-546 -944 0
836 370 0
-525 677 0
-912 -887 0
915 -595 0
4 587 0
-525 -427 0
419 -749 0
-596 -346 0
814 654 0
-313 -768 0
-200 -431 0
927 -902 0
741 532 0
442 443 0
-393 90 0
832 453 0
808 437 0
676 116 0
586 -768 0
883 732 0
138 -370 0
-510 -135 0
-482 711 0
801 -209 0
633 -875 0
-621 240 0
952 795 0
-379 -41 0
-204 250 0
-425 -400 0
223 -295 0
379 -123 0
51 109 0
21 248 0
-511 -374 0
656 -367 0
833 -317 0
-835 -548 0
-717 -269 0
562 619 0
18 -207 0
-643 743 0
229 727 0
265 -325 0
692 -221 0
-121 633 0
220 242 0
557 -716 0
-303 -408 0
-425 776 0
457 -931 0
-134 -442 0
418 752 0
-798 -140 0
-906 -171 0
-314 -514 0
-876 -71 0
476 733 0
900 -319 0
-65 412 0
638 -387 0
583 705 0
875 -18 0
519 299 0
-266 32 0
331 -414 0
-436 943 0
-916 -600 0
830 -757 0
-207 -165 0
265 810 0
-570 -212 0
-121 144 0
926 -365 0
453 -198 0
331 516 0
-899 -240 0
654 -233 0
-443 -957 0
671 936 0
88 844 0
199 721 0
-575 -136 0
-163 -926 0
859 773 0
-98 -679 0
-777 860 0
-922 -784 0
-764 10 0
-12 279 0
63 458 0
19 493 0
-329 491 0
-118 80 0
115 549 0
-603 -250 0
-92 -937 0
585 806 0
644 -728 0
-756 621 0
-64 662 0
5 -867 0
109 78 0
237 -831 0
682 -286 0
652 -942 0
167 273 0
192 830 0
-782 560 0
-544 -942 0
-692 -97 0
825 -908 0
167 692 0
343 -308 0
-885 818 0
355 -603 0
894 -854 0
180 869 0
-157 877 0
949 527 0
381 -678 0
388 -712 0
-708 548 0
95 -191 0
-594 285 0
943 -805 0
113 -8 0
867 -754 0
-932 547 0
61 232 0
506 -58 0
591 -736 0
-378 191 0
-546 45 0
-332 848 0
506 264 0
-784 -285 0
244 -918 0
-162 -487 0
-791 -211 0
285 -427 0
22 223 0
87 -953 0
-337 740 0
-164 -56 0
52 619 0
751 273 0
-597 620 0
-255 464 0
-874 555 0
-444 519 0
554 -774 0
94 888 0
531 -795 0
372 -527 0
-951 334 0
-923 -814 0
-695 -272 0
-96 537 0
-774 -675 0
-300 -203 0
-332 -241 0
782 726 0
-309 -200 0
-755 -878 0
405 516 0
-79 620 0
-754 -627 0
535 42 0
657 928 0
-316 -278 0
755 -858 0
-825 402 0
-13 788 0
-660 28 0
528 760 0
-204 -254 0
696 96 0
871 -745 0
702 280 0
266 -758 0
-288 228 0
621 -582 0
486 -787 0
386 -891 0
73 451 0
-438 550 0
-696 713 0
331 536 0
533 68 0
34 707 0
-366 -395 0
-238 431 0
557 205 0
939 88 0
802 -252 0
-262 422 0
-505 545 0
-440 392 0
599 -176 0
248 -33 0
483 -329 0
-114 372 0
-809 -246 0
276 -940 0
-817 844 0
-261 503 0
-369 500 0
346 202 0
-803 -608 0
781 463 0
207 -811 0
-98 -175 0
-878 -913 0
-34 291 0
-527 -755 0
681 -421 0
372 871 0
-687 866 0
-176 -839 0
614 427 0
562 652 0
-703 589 0
-454 -933 0
-764 260 0
-835 685 0
818 -833 0
782 -254 0
-522 -630 0
-796 125 0
-581 379 0
-754 -688 0
247 -571 0
489 -851 0
383 126 0
573 -405 0
286 590 0
98 430 0
601 -304 0
-366 -357 0
764 90 0
531 -152 0
-119 -274 0
-569 61 0
86 -250 0
727 606 0
265 440 0
678 220 0
664 132 0
68 -732 0
388 886 0
549 340 0
-148 -90 0
-375 -905 0
498 357 0
-144 -79 0
706 -130 0
-399 -686 0
-317 -62 0
468 -10 0
930 65 0
508 -473 0
-147 551 0
-736 -241 0
553 -708 0
265 -472 0
449 -170 0
-244 16 0
444 5 0
-950 -570 0
-773 527 0
-33 896 0
395 -524 0
503 757 0
143 -532 0
926 330 0
-775 43 0
745 -2 0
-158 -541 0
-48 424 0
-68 703 0
877 -821 0
526 416 0
-83 721 0
-585 763 0
-933 -401 0
-387 -249 0
915 209 0
442 -143 0
-805 -302 0
103 -392 0
-17 243 0
738 777 0
-289 -22 0
87 628 0
381 291 0
923 896 0
515 -384 0
172 226 0
660 -199 0
-217 884 0
-538 861 0
409 554 0
-120 530 0
313 -441 0
-891 788 0
-863 -473 0
-802 351 0
-21 714 0
-336 -820 0
-128 -274 0
889 -683 0
-5 -625 0
169 871 0
-286 318 0
-855 471 0
-797 866 0
365 687 0
80 -556 0
-426 866 0
-43 760 0
-254 -178 0
-747 67 0
240 -74 0
174 327 0
-25 490 0
-649 333 0
-479 -877 0
-398 -486 0
654 670 0
-729 -147 0
-270 -876 0
810 -414 0
-206 467 0
-940 -744 0
264 -38 0
198 -372 0
-579 -94 0
-646 4 0
558 227 0
196 451 0
636 -284 0
-468 210 0
918 239 0
-456 909 0
896 640 0
-97 610 0
-23 698 0
-470 -763 0
188 -271 0
-84 -758 0
-398 792 0
-921 468 0
-837 -472 0
-795 607 0
667 769 0
763 715 0
-315 127 0
817 -797 0
-418 124 0
299 442 0
-209 659 0
-432 801 0
539 -932 0
545 651 0
-374 278 0
786 170 0
-262 257 0
-128 357 0
28 431 0
-82 349 0
-776 841 0
-334 -571 0
446 449 0
930 311 0
810 -255 0
-723 -529 0
-835 -543 0
-254 -527 0
-206 778 0
-315 826 0
909 53 0
251 -379 0
614 139 0
-352 -742 0
-334 -684 0
472 -413 0
104 146 0
-381 -155 0
376 243 0
395 44 0
939 283 0
771 598 0
-358 -874 0
263 -137 0
389 283 0
-185 340 0
-566 543 0
-487 778 0
930 -306 0
-163 696 0
572 772 0
-340 446 0
-249 -795 0
-852 534 0
-267 -856 0
59 -99 0
709 -875 0
630 -685 0
4 -647 0
-843 710 0
-543 572 0
175 -777 0
-33 642 0
845 -197 0
-32 825 0
-291 326 0
-816 -274 0
143 -918 0
743 -149 0
-953 383 0
115 936 0
528 1 0
589 -315 0
-678 -458 0
26 -224 0
-925 903 0
-703 -592 0
-608 -315 0
-941 536 0
313 491 0
-903 -707 0
-595 826 0
-541 -691 0
716 889 0
-457 229 0
349 -415 0
-686 -250 0
-869 -421 0
854 223 0
-30 -545 0
138 -730 0
787 -831 0
-933 -703 0
-732 -513 0
672 -15 0
711 -683 0
542 -554 0
721 -907 0
-879 -21 0
69 223 0
245 810 0
512 759 0
476 -275 0
-674 -532 0
759 -609 0
506 906 0
-606 -224 0
127 -499 0
813 121 0
226 -354 0
915 8 0
36 644 0
-163 256 0
-525 -393 0
439 -322 0
405 492 0
417 -336 0
-411 695 0
939 644 0
37 -495 0
93 -82 0
-252 -543 0
-324 321 0
831 -595 0
-673 -422 0
931 516 0
-49 -310 0
702 795 0
177 -905 0
946 -172 0
12 34 0
416 168 0
173 706 0
-14 -390 0
-367 593 0
-957 344 0
-647 -689 0
550 843 0
131 -234 0
-663 -664 0
-462 877 0
-36 203 0
793 -281 0
-579 -332 0
16 645 0
102 -209 0
-835 -201 0
-371 667 0
335 358 0
-71 -354 0
-2 668 0
331 673 0
841 157 0
-191 478 0
-319 -432 0
152 -908 0
103 133 0
-611 935 0
731 -420 0
377 -902 0
789 42 0
-485 342 0
-282 480 0
-483 382 0
-98 -172 0
-737 -139 0
780 -245 0
-381 818 0
248 370 0
934 643 0
-349 -329 0
-87 364 0
-553 59 0
394 -954 0
230 -141 0
642 -328 0
864 387 0
810 -579 0
494 751 0
583 707 0
845 716 0
-212 406 0
-814 -451 0
605 -157 0
-612 -405 0
-319 -232 0
941 616 0
-890 903 0
-700 -846 0
-568 275 0
-772 847 0
-95 471 0
-829 351 0
920 809 0
-18 780 0
735 -951 0
-268 -840 0
501 -410 0
844 828 0
-84 -340 0
-165 -91 0
311 -790 0
-389 -426 0
-191 747 0
-228 858 0
707 955 0
142 550 0
855 -659 0
-198 -700 0
877 -344 0
-120 -388 0
321 146 0
-233 -799 0
-202 898 0
253 218 0
139 -176 0
-160 -908 0
663 466 0
-799 185 0
604 184 0
112 -191 0
-573 -70 0
277 -450 0
-381 -193 0
452 -931 0
465 -922 0
-5 -890 0
273 219 0
751 897 0
866 -726 0
-300 -922 0
139 -221 0
-865 661 0
135 -613 0
-38 -58 0
428 -233 0
-420 -522 0
471 696 0
514 -118 0
-939 -525 0
-71 -482 0
-270 134 0
-336 -96 0
548 948 0
-755 655 0
-854 -158 0
-56 13 0
-196 -526 0
-742 -418 0
839 -816 0
-831 -308 0
-736 359 0
179 -483 0
794 445 0
4 -96 0
-367 -422 0
-762 -2 0
909 -97 0
523 532 0
227 474 0
116 -425 0
441 -208 0
458 -745 0
-756 -877 0
-400 -281 0
-462 -39 0
-132 -793 0
590 402 0
802 103 0
239 428 0
734 -275 0
-200 943 0
297 283 0
656 106 0
496 -950 0
-717 681 0
362 886 0
-67 59 0
33 946 0
701 -111 0
713 730 0
672 -852 0
-861 610 0
500 -132 0
-44 79 0
-756 -405 0
-920 386 0
694 155 0
862 701 0
8 -568 0
650 -906 0
-635 -155 0
871 15 0
-141 -705 0
150 -398 0
38 489 0
821 28 0
-328 -794 0
37 -393 0
-282 380 0
203 -525 0
-785 -771 0
216 662 0
124 -40 0
413 121 0
287 -241 0
-835 645 0
-44 -13 0
-713 247 0
-274 277 0
772 -711 0
-252 -237 0
889 840 0
920 -603 0
227 -20 0
170 -809 0
445 -879 0
-199 -216 0
898 202 0
-603 -123 0
-823 480 0
735 -311 0
-700 -388 0
474 -732 0
308 -308 0
466 767 0
-100 -556 0
-96 624 0
-5 639 0
807 -705 0
-11 -588 0
-321 231 0
285 247 0
533 540 0
702 -33 0
-133 -414 0
656 -271 0
387 -632 0
835 -711 0
929 -357 0
264 -564 0
856 -844 0
521 259 0
116 320 0
259 703 0
720 203 0
157 -642 0
9 364 0
610 -585 0
-854 439 0
-626 -558 0
-201 -943 0
763 -725 0
516 116 0
909 97 0
-497 -375 0
-96 -134 0
401 -556 0
-218 817 0
-809 -307 0
-729 -574 0
212 -730 0
-12 -398 0
277 -954 0
-572 -635 0
-509 -828 0
-821 39 0
871 -295 0
-133 -75 0
461 -5 0
-744 764 0
-890 -290 0
824 276 0
-201 430 0
458 222 0
258 -386 0
339 -739 0
-568 -839 0
-726 -950 0
59 103 0
-782 453 0
880 706 0
-621 848 0
-337 -473 0
-358 -40 0
-239 -336 0
448 -957 0
-831 590 0
839 434 0
-196 131 0
-8 -769 0
614 569 0
572 743 0
-921 -621 0
-92 -70 0
-679 -680 0
-142 -741 0
-221 -398 0
-552 -350 0
194 -461 0
668 13 0
316 -667 0
-823 302 0
-223 789 0
-350 564 0
-710 370 0
837 -234 0
-245 -132 0
-460 50 0
446 -15 0
572 -41 0
-821 550 0
302 -712 0
-360 767 0
434 -230 0
590 895 0
-307 -894 0
930 560 0
151 -92 0
-686 170 0
-191 248 0
-114 -164 0
-22 -118 0
138 -632 0
-243 -411 0
417 -888 0
364 -157 0
-872 -578 0
665 940 0
60 -65 0
809 273 0
-457 -343 0
574 107 0
-108 -597 0
494 -144 0
-446 -158 0
-216 585 0
695 -293 0
-32 -36 0
601 -292 0
-940 630 0
210 -374 0
663 655 0
-928 -165 0
731 842 0
-40 636 0
653 903 0
-945 -153 0
-822 -323 0
939 471 0
54 -391 0
-284 282 0
-295 20 0
-712 -39 0
616 -72 0
180 85 0
504 383 0
623 902 0
23 542 0
-864 738 0
-368 506 0
587 317 0
780 320 0
59 -816 0
-360 -847 0
695 497 0
-577 -901 0
606 695 0
86 -576 0
-544 -60 0
763 349 0
-197 98 0
-94 -328 0
45 -890 0
746 -774 0
-583 -528 0
-822 -302 0
351 826 0
351 370 0
73 -284 0
-394 -540 0
117 467 0
-734 -405 0
521 938 0
-208 -541 0
-89 27 0
-785 113 0
-403 457 0
382 573 0
-421 839 0
251 625 0
363 -868 0
497 57 0
179 697 0
-37 15 0
-330 886 0
-873 -789 0
-101 -362 0
-749 737 0
760 -657 0
-575 253 0
-371 514 0
-847 -942 0
-348 571 0
-552 807 0
605 412 0
-468 -287 0
306 531 0
-134 -547 0
168 -636 0
810 -76 0
377 372 0
274 162 0
-206 -356 0
32 -723 0
-693 -6 0
602 -851 0
156 -724 0
-766 61 0
259 254 0
-897 -591 0
793 941 0
876 107 0
-124 -522 0
619 439 0
567 -219 0
902 911 0
