c bounds 91 91
p cnf 955 3342
504 -632 0
838 -664 0
372 -12 0
-406 -338 0
653 145 0
-340 -605 0
305 -9 0
314 267 0
807 -950 0
165 880 0
-396 -814 0
850 877 0
364 857 0
744 -830 0
-635 -513 0
256 25 0
86 747 0
-862 -862 0
96 -510 0
75 -728 0
130 137 0
-61 720 0
-910 350 0
-683 -302 0
-643 257 0
-453 780 0
-80 954 0
-829 831 0
-504 -199 0
938 87 0
-273 -229 0
847 549 0
-627 -425 0
779 496 0
-293 518 0
-955 -277 0
23 467 0
-474 361 0
-912 -402 0
257 670 0
786 10 0
150 913 0
-424 868 0
790 760 0
-585 680 0
-437 85 0
-188 -776 0
116 -902 0
375 306 0
-145 -763 0
-61 -893 0
-898 -386 0
-775 -809 0
-870 824 0
784 -345 0
-231 319 0
795 359 0
-787 113 0
393 481 0
18 -181 0
-705 753 0
-151 -834 0
-832 413 0
426 871 0
914 -87 0
-296 -561 0
-699 -335 0
-575 -569 0
353 373 0
10 671 0
560 -638 0
-955 -211 0
-926 -611 0
-534 -423 0
945 -908 0
462 -97 0
807 -134 0
47 -617 0
-317 122 0
758 -262 0
505 -863 0
-371 -263 0
-380 -165 0
-44 178 0
643 -732 0
923 519 0
-827 717 0
633 -924 0
904 117 0
-343 -499 0
-888 177 0
179 15 0
-33 562 0
-232 -100 0
-62 570 0
-452 -647 0
943 -865 0
-720 219 0
-585 871 0
-97 -76 0
478 -759 0
-419 31 0
-97 623 0
-600 -380 0
-291 -876 0
-784 504 0
-535 -654 0
600 -451 0
912 -674 0
571 757 0
274 -47 0
-234 565 0
-448 -787 0
257 652 0
-169 -180 0
-537 -819 0
-428 -608 0
-874 678 0
484 871 0
294 630 0
656 -400 0
-365 -464 0
-410 901 0
802 727 0
-942 736 0
-132 -625 0
-798 784 0
446 891 0
-727 193 0
661 -243 0
-835 -790 0
-572 -97 0
-879 554 0
-305 -655 0
-269 393 0
-721 243 0
-588 -46 0
546 512 0
-344 752 0
819 -333 0
-175 648 0
-207 902 0
-364 743 0
-580 -749 0
-827 -433 0
-507 -915 0
211 -757 0
-867 899 0
796 257 0
-510 -137 0
662 -330 0
-157 -874 0
-605 -826 0
-75 -36 0
-81 -248 0
674 556 0
332 -649 0
935 -622 0
-738 -722 0
12 -279 0
-693 -291 0
-59 -287 0
-643 774 0
-220 -33 0
-676 299 0
-895 -82 0
515 27 0
-341 -248 0
647 -30 0
99 -192 0
-457 435 0
258 951 0
633 583 0
-363 -875 0
-287 -111 0
-719 -808 0
-712 -492 0
706 6 0
-677 213 0
-488 -452 0
156 853 0
598 -605 0
235 -621 0
219 -384 0
26 176 0
-58 -21 0
523 28 0
891 839 0
736 296 0
-416 484 0
951 -423 0
167 666 0
-694 536 0
-578 324 0
445 949 0
-746 -576 0
-96 -805 0
410 -125 0
900 171 0
-88 860 0
954 275 0
-208 876 0
784 -773 0
293 413 0
-639 -547 0
-561 383 0
295 811 0
-24 -192 0
-411 -358 0
803 -641 0
-876 -249 0
-476 792 0
325 -382 0
304 885 0
352 -274 0
573 873 0
-157 -741 0
-430 220 0
-758 780 0
474 351 0
293 -331 0
-651 531 0
-929 -684 0
-881 518 0
-413 -195 0
942 87 0
823 -783 0
-728 368 0
-699 122 0
96 -734 0
307 812 0
-945 329 0
30 838 0
162 650 0
388 -683 0
-480 -473 0
881 718 0
556 -934 0
-646 -806 0
135 -13 0
-586 -638 0
320 -952 0
-488 -267 0
590 -125 0
-92 -758 0
-822 573 0
854 -389 0
-521 575 0
370 -522 0
616 -87 0
142 -527 0
740 -238 0
-165 -179 0
765 -703 0
-914 155 0
52 185 0
-820 244 0
-543 93 0
-699 496 0
-170 -802 0
-109 45 0
-378 420 0
-735 -579 0
-550 -366 0
-65 -5 0
149 -645 0
85 196 0
-698 -793 0
756 146 0
562 519 0
-233 -369 0
715 679 0
-667 -628 0
-654 -70 0
-291 84 0
-889 -642 0
-312 434 0
-868 -128 0
-223 -122 0
899 -400 0
171 536 0
860 937 0
-738 -317 0
-485 -646 0
-424 -59 0
-530 432 0
737 155 0
-291 215 0
-761 -870 0
372 -380 0
3 -506 0
495 116 0
-485 -761 0
-367 63 0
-678 -328 0
862 144 0
435 -512 0
822 -55 0
-359 144 0
563 857 0
347 -364 0
-273 235 0
863 -205 0
467 551 0
750 -751 0
714 91 0
129 197 0
280 745 0
891 -682 0
-730 864 0
-270 382 0
-36 837 0
-100 -136 0
334 -78 0
252 -419 0
159 -944 0
-34 265 0
-72 29 0
-549 847 0
426 852 0
-763 -139 0
-430 -464 0
-829 -76 0
-22 -907 0
-759 -700 0
603 -707 0
-503 547 0
178 210 0
-753 864 0
-895 193 0
-649 -137 0
-865 -189 0
871 -552 0
272 -261 0
672 -383 0
318 679 0
-619 -416 0
-119 -843 0
-786 158 0
295 63 0
728 -431 0
-577 -328 0
-941 -389 0
37 406 0
-848 -235 0
797 244 0
819 733 0
-66 252 0
318 -770 0
696 -808 0
705 306 0
-904 -894 0
639 25 0
-163 654 0
-789 744 0
846 134 0
663 146 0
-139 272 0
-283 274 0
-503 -333 0
148 211 0
-94 -317 0
851 802 0
266 156 0
506 29 0
-388 -425 0
-786 636 0
734 621 0
-418 162 0
-283 -421 0
633 -944 0
-642 514 0
156 372 0
-832 -797 0
692 384 0
73 -37 0
-638 8 0
-615 742 0
-254 633 0
-245 462 0
949 573 0
-776 -499 0
-387 -934 0
12 -333 0
894 -356 0
260 583 0
674 879 0
-587 -751 0
716 -210 0
-643 179 0
-842 -862 0
-76 -56 0
135 336 0
365 144 0
-61 918 0
-349 328 0
-216 -533 0
318 388 0
-241 -11 0
-643 -872 0
-534 95 0
685 -82 0
-428 281 0
447 -451 0
148 -819 0
-57 363 0
725 301 0
-304 -366 0
-144 -455 0
-178 -245 0
153 -588 0
-543 -750 0
231 -184 0
361 -200 0
-639 370 0
-296 637 0
-427 670 0
339 -559 0
186 375 0
766 544 0
-926 860 0
24 336 0
-639 791 0
96 370 0
-636 122 0
-369 459 0
-710 719 0
-96 -724 0
412 -340 0
-608 -924 0
9 -60 0
-119 852 0
852 285 0
-684 592 0
-194 -129 0
937 -693 0
883 -561 0
-93 695 0
755 -57 0
618 -639 0
-598 -256 0
656 741 0
-502 -236 0
913 853 0
-333 693 0
-534 233 0
143 -264 0
934 -380 0
544 -219 0
-345 -491 0
-139 -636 0
-50 -126 0
590 836 0
-580 942 0
591 -855 0
-754 132 0
509 -758 0
897 -328 0
46 64 0
357 265 0
423 121 0
665 600 0
159 -755 0
-919 -732 0
-255 586 0
-618 549 0
334 -74 0
822 153 0
-471 97 0
-757 40 0
746 -359 0
905 -125 0
-253 -574 0
-461 894 0
159 -950 0
-545 -698 0
-467 -376 0
-945 318 0
-427 650 0
-798 784 0
-224 940 0
-215 -194 0
-234 -442 0
683 -258 0
-867 470 0
-453 649 0
-829 -561 0
825 -666 0
951 -366 0
-322 929 0
-408 822 0
846 111 0
488 -708 0
-80 -454 0
-915 -784 0
590 510 0
775 -569 0
357 -731 0
608 -21 0
289 -574 0
514 -250 0
-46 136 0
-665 769 0
167 -923 0
280 -157 0
1 254 0
-859 866 0
926 568 0
-912 925 0
-801 189 0
520 -679 0
241 361 0
-353 -885 0
253 113 0
184 -222 0
294 -312 0
-946 428 0
929 -337 0
-75 -366 0
824 646 0
405 -844 0
453 668 0
-738 -113 0
-243 -506 0
-584 -674 0
-736 -72 0
-810 364 0
-365 34 0
-470 767 0
47 -785 0
679 -233 0
-876 503 0
105 688 0
-131 310 0
653 103 0
-835 127 0
-80 295 0
-826 -228 0
762 765 0
-378 566 0
105 579 0
278 846 0
-901 65 0
146 -490 0
-595 -386 0
-203 -427 0
614 -456 0
388 54 0
736 -431 0
-889 845 0
-784 -450 0
-938 512 0
-62 318 0
670 -392 0
620 -190 0
490 43 0
-588 -266 0
-868 792 0
713 -912 0
652 -322 0
249 -876 0
767 410 0
72 -622 0
-851 -709 0
-832 -783 0
-97 686 0
-114 637 0
927 -884 0
-635 114 0
46 -429 0
-534 -313 0
709 -260 0
590 852 0
694 -425 0
273 -243 0
393 -415 0
-749 664 0
568 955 0
567 -529 0
621 184 0
290 -291 0
344 293 0
219 327 0
871 914 0
219 -571 0
-423 -520 0
882 -830 0
-642 802 0
-577 -735 0
-719 -93 0
755 -735 0
863 -614 0
197 551 0
269 847 0
909 -477 0
-532 -323 0
-332 -164 0
-871 493 0
103 -785 0
615 130 0
870 548 0
874 -682 0
-157 -817 0
496 664 0
126 193 0
-662 -821 0
-506 -649 0
712 183 0
295 -952 0
-484 -513 0
-109 586 0
873 -535 0
-451 -89 0
371 528 0
461 -145 0
-785 -789 0
135 -166 0
-398 -366 0
-444 -587 0
-707 -662 0
-609 240 0
393 -589 0
-884 -46 0
118 -729 0
350 -777 0
-211 -618 0
-728 -45 0
767 205 0
-615 168 0
-884 655 0
-379 733 0
-167 661 0
83 -487 0
601 300 0
-371 281 0
-114 -537 0
-161 -370 0
-402 -599 0
-832 -223 0
703 -42 0
114 -520 0
-946 -368 0
-381 -10 0
-102 412 0
-49 -400 0
188 52 0
-448 -501 0
-619 281 0
-642 -155 0
-763 192 0
187 849 0
-330 -626 0
924 374 0
943 95 0
-570 -623 0
441 431 0
-545 591 0
425 -531 0
185 151 0
843 690 0
-416 138 0
-584 -645 0
-886 -856 0
-527 -679 0
-552 332 0
509 720 0
698 -252 0
506 -691 0
-37 -126 0
-580 441 0
-242 -640 0
573 722 0
-28 183 0
-605 -200 0
-690 441 0
33 -609 0
-114 -477 0
381 -312 0
239 301 0
-946 29 0
787 -358 0
-88 875 0
201 -589 0
90 405 0
254 276 0
-562 734 0
499 -126 0
-640 472 0
292 469 0
-234 267 0
57 -228 0
-654 -676 0
528 1 0
-672 442 0
648 388 0
171 -594 0
176 155 0
670 358 0
-320 647 0
453 718 0
-386 -46 0
-245 636 0
-535 -388 0
136 339 0
-217 -746 0
-350 -8 0
218 753 0
517 77 0
-161 23 0
795 143 0
-888 900 0
251 214 0
-612 -691 0
658 -858 0
780 411 0
591 -663 0
257 -817 0
107 -220 0
-520 -427 0
857 951 0
-805 405 0
-470 -19 0
81 671 0
81 -685 0
-530 374 0
538 128 0
555 -942 0
-781 854 0
35 285 0
117 -378 0
289 -436 0
933 502 0
-149 32 0
901 -208 0
822 436 0
-546 98 0
-625 107 0
-862 -918 0
206 818 0
-826 539 0
923 -260 0
-174 -841 0
96 499 0
159 593 0
733 -924 0
63 -631 0
796 602 0
-727 -666 0
166 672 0
397 242 0
327 701 0
-551 466 0
-93 329 0
-716 -507 0
352 -270 0
-802 -584 0
-335 -243 0
818 846 0
931 -75 0
-926 501 0
-26 -918 0
-659 -479 0
285 -479 0
-680 828 0
28 -655 0
-381 330 0
-107 765 0
-666 143 0
-786 -530 0
-736 -638 0
-155 -376 0
-376 847 0
-634 -477 0
576 459 0
804 -756 0
-746 -359 0
-28 -291 0
166 -656 0
257 -677 0
190 171 0
122 -434 0
-651 -632 0
828 -532 0
676 -402 0
514 16 0
660 26 0
-582 -398 0
-775 -299 0
781 906 0
-209 -635 0
-320 784 0
847 -380 0
-270 -467 0
-837 404 0
-414 533 0
329 -814 0
798 508 0
-398 941 0
560 65 0
-107 954 0
-339 -772 0
746 -844 0
-634 342 0
-635 58 0
-725 186 0
-886 -835 0
739 -126 0
-410 857 0
923 558 0
852 -652 0
67 440 0
-587 915 0
719 -806 0
560 -386 0
931 -529 0
318 -65 0
676 57 0
819 168 0
-507 877 0
-359 -269 0
-422 328 0
875 -476 0
823 -937 0
-856 -279 0
361 -578 0
152 -82 0
595 -193 0
931 185 0
506 -502 0
306 564 0
-330 -224 0
-389 55 0
-458 113 0
-501 595 0
-273 -427 0
525 122 0
254 -898 0
551 689 0
-640 -546 0
-85 -925 0
169 -349 0
-39 -763 0
-558 -886 0
43 -13 0
-225 10 0
272 -376 0
-253 283 0
-343 593 0
-553 -77 0
-684 656 0
-529 -1 0
-816 81 0
853 -608 0
780 187 0
305 51 0
-529 689 0
863 748 0
-275 678 0
-146 -112 0
-765 752 0
-552 -330 0
333 121 0
266 510 0
634 -910 0
939 -62 0
-490 518 0
913 334 0
-651 885 0
464 672 0
883 -497 0
-789 -635 0
868 -485 0
-509 -679 0
-310 366 0
-45 307 0
671 -708 0
905 817 0
-387 -283 0
-716 -367 0
948 -285 0
-214 -484 0
-715 454 0
173 -87 0
-343 52 0
914 122 0
315 -935 0
-344 774 0
569 -465 0
41 -188 0
468 -825 0
-794 -264 0
-192 796 0
-154 -803 0
-486 -110 0
-407 -618 0
-356 230 0
3 414 0
-600 667 0
768 323 0
-331 54 0
658 753 0
122 -54 0
-500 -787 0
289 755 0
-321 -413 0
-224 213 0
-370 -263 0
-323 -160 0
-673 854 0
551 528 0
-423 737 0
90 -428 0
-563 538 0
-772 -176 0
-456 373 0
-630 938 0
-687 -827 0
-777 -816 0
-701 329 0
517 120 0
-814 -625 0
714 -330 0
-479 -485 0
-754 313 0
691 89 0
-248 801 0
-161 -535 0
-51 -867 0
-858 514 0
-679 -322 0
469 502 0
-834 270 0
-398 933 0
-342 117 0
-833 -507 0
544 -128 0
43 921 0
323 -693 0
305 661 0
-465 -375 0
-703 -724 0
227 652 0
-191 -442 0
-262 571 0
-242 -431 0
-291 460 0
278 388 0
825 851 0
768 -312 0
96 458 0
-561 490 0
-903 -118 0
-614 232 0
457 795 0
949 449 0
-528 159 0
187 791 0
-724 -618 0
-926 818 0
-440 -11 0
292 309 0
515 -926 0
152 877 0
-886 -54 0
-524 222 0
-421 949 0
132 -927 0
841 -597 0
907 -424 0
-597 -477 0
464 -89 0
-216 831 0
913 545 0
-225 306 0
243 387 0
-677 -444 0
163 -2 0
286 -655 0
-497 943 0
470 -548 0
647 195 0
239 -893 0
100 329 0
-266 158 0
622 -834 0
770 949 0
153 289 0
880 309 0
-114 906 0
-321 -97 0
835 560 0
818 757 0
737 622 0
-178 466 0
-765 490 0
-200 -599 0
540 -606 0
-370 -496 0
667 -57 0
-685 637 0
-237 -134 0
-475 -930 0
476 64 0
-89 -547 0
-547 -924 0
342 -709 0
42 540 0
-203 -500 0
-576 -38 0
-380 -80 0
765 34 0
-596 77 0
-776 -761 0
-419 758 0
40 113 0
-176 -868 0
-336 -500 0
802 373 0
-822 -806 0
-903 557 0
472 601 0
945 -586 0
162 -399 0
607 -577 0
160 351 0
-707 -370 0
-379 650 0
-217 837 0
-82 -81 0
-115 -941 0
174 -708 0
-643 643 0
317 -342 0
-390 728 0
-103 -685 0
126 -291 0
14 -92 0
694 -413 0
352 -321 0
-939 -282 0
-451 134 0
-622 -419 0
609 -564 0
50 -354 0
436 586 0
-793 389 0
-67 546 0
820 544 0
-39 186 0
377 -292 0
-520 118 0
409 -625 0
-501 713 0
-326 -921 0
859 152 0
933 244 0
-767 148 0
-188 -428 0
809 -400 0
-400 -276 0
741 705 0
-160 -396 0
-389 -382 0
316 -386 0
-33 740 0
560 186 0
-163 769 0
747 -693 0
155 -510 0
484 -865 0
-952 866 0
-228 -358 0
481 169 0
649 542 0
124 374 0
906 845 0
-58 759 0
-473 -439 0
-836 751 0
334 1 0
-517 718 0
760 -224 0
470 342 0
-450 -551 0
-814 -58 0
905 -148 0
-649 402 0
110 -429 0
-300 -448 0
39 837 0
-29 -701 0
301 -376 0
-221 706 0
-233 105 0
-308 -932 0
-849 661 0
117 -151 0
295 802 0
-547 -799 0
40 43 0
-555 849 0
-214 -911 0
-420 363 0
445 84 0
-905 -192 0
-651 233 0
-90 871 0
-708 16 0
-361 158 0
-724 -490 0
841 163 0
-761 253 0
-119 508 0
322 -227 0
-582 -106 0
-740 -61 0
-710 118 0
-579 -145 0
-595 -844 0
-87 405 0
-368 372 0
352 213 0
-893 -218 0
89 -642 0
122 525 0
-34 -346 0
65 500 0
-628 310 0
512 -543 0
635 -750 0
846 612 0
-886 633 0
-42 117 0
-296 -581 0
424 -911 0
-195 163 0
-639 641 0
251 372 0
319 -386 0
-784 629 0
624 -588 0
-134 803 0
-384 -594 0
-224 635 0
903 -333 0
-650 -485 0
209 127 0
-811 57 0
769 786 0
610 907 0
-78 58 0
-696 -803 0
757 -188 0
464 -494 0
-614 458 0
-94 -596 0
-535 -179 0
909 -36 0
459 -431 0
-712 -643 0
-794 -826 0
-488 182 0
-496 -943 0
121 841 0
-935 760 0
438 210 0
-479 -85 0
-797 -60 0
-653 880 0
846 141 0
711 -709 0
-58 -954 0
-585 708 0
-195 231 0
944 -60 0
-201 -664 0
659 318 0
219 261 0
-751 933 0
-773 -708 0
436 -892 0
-331 -784 0
935 -487 0
140 -31 0
-759 469 0
848 172 0
667 467 0
630 771 0
-396 -687 0
-890 -259 0
-370 -483 0
490 -296 0
-357 942 0
525 406 0
509 -724 0
-521 745 0
-654 133 0
744 351 0
187 196 0
-357 620 0
310 -33 0
739 170 0
77 -209 0
632 753 0
468 117 0
-419 722 0
-606 946 0
-681 223 0
-775 580 0
619 837 0
-215 931 0
783 -552 0
614 -886 0
77 940 0
-59 -179 0
-639 79 0
754 366 0
656 620 0
-947 -134 0
-927 -626 0
-754 307 0
-166 446 0
-519 158 0
406 529 0
-99 -285 0
154 545 0
896 544 0
567 703 0
-157 347 0
-92 -209 0
6 -797 0
655 -502 0
-709 110 0
907 -658 0
-418 -713 0
-115 888 0
-494 530 0
-252 750 0
663 -783 0
81 -708 0
-816 -502 0
431 406 0
-283 -217 0
-365 -217 0
-766 732 0
123 290 0
454 -488 0
-746 244 0
860 102 0
55 314 0
163 -119 0
313 299 0
394 -428 0
-421 514 0
-518 826 0
354 626 0
614 259 0
235 332 0
520 592 0
625 -269 0
303 185 0
753 -350 0
417 117 0
-346 -891 0
-727 131 0
-189 -641 0
-89 -844 0
-840 -749 0
911 880 0
537 448 0
831 618 0
101 608 0
-252 -497 0
-876 337 0
-82 691 0
936 -152 0
-442 -882 0
-321 -844 0
297 183 0
852 451 0
-585 872 0
-642 -219 0
905 308 0
-817 -596 0
-500 -386 0
-537 196 0
219 -390 0
-635 -501 0
-479 227 0
-264 -477 0
448 864 0
157 -142 0
181 -436 0
-760 -170 0
-267 -209 0
-594 594 0
900 480 0
308 -385 0
-190 846 0
908 -616 0
515 -690 0
449 491 0
267 913 0
368 799 0
-875 -332 0
-933 -284 0
-873 753 0
-623 -521 0
-808 -516 0
17 -927 0
612 -808 0
116 212 0
-450 832 0
-208 -406 0
-50 -281 0
556 700 0
413 393 0
924 593 0
-525 895 0
169 -672 0
79 839 0
-578 -141 0
-613 -46 0
-867 -730 0
415 280 0
410 -930 0
177 -510 0
-165 905 0
-521 660 0
-592 102 0
-507 607 0
-209 -390 0
866 -338 0
-948 -378 0
854 -433 0
574 10 0
25 738 0
-269 -216 0
-631 272 0
-634 485 0
-833 -444 0
-350 -709 0
394 273 0
-886 796 0
-388 860 0
953 123 0
792 786 0
-19 275 0
318 88 0
-524 288 0
-177 -208 0
621 -685 0
841 -348 0
345 755 0
663 -783 0
-926 429 0
669 -677 0
-370 -549 0
515 -651 0
344 355 0
-209 459 0
-651 -92 0
594 -78 0
942 923 0
-49 -424 0
837 -316 0
506 -465 0
-530 277 0
589 -379 0
-271 -66 0
117 -846 0
824 -114 0
161 -455 0
-618 513 0
-937 -228 0
-188 -635 0
17 -316 0
39 -229 0
545 -134 0
267 -389 0
-890 -99 0
216 122 0
422 -275 0
-713 528 0
313 64 0
-404 -902 0
-808 -690 0
-265 581 0
-614 -330 0
-902 603 0
325 138 0
-332 -328 0
-598 -512 0
369 -566 0
851 -844 0
843 606 0
498 -92 0
175 -110 0
-704 -137 0
44 159 0
-268 626 0
828 -493 0
-441 -698 0
855 -850 0
-953 457 0
-656 720 0
369 -412 0
601 154 0
377 -411 0
-10 468 0
367 -284 0
-84 482 0
385 709 0
-20 321 0
-584 349 0
533 -928 0
954 480 0
647 -616 0
-90 268 0
173 -854 0
354 -383 0
870 -103 0
741 513 0
-694 -783 0
-511 -580 0
275 441 0
-623 470 0
-579 -132 0
467 879 0
234 -188 0
589 -407 0
340 -882 0
-157 -682 0
731 -20 0
70 450 0
-119 538 0
372 -160 0
250 213 0
523 -278 0
382 -182 0
-924 860 0
-578 -538 0
-619 -564 0
839 -915 0
-296 -293 0
157 -208 0
-683 -770 0
22 446 0
15 839 0
435 421 0
562 519 0
-598 -708 0
-630 -859 0
-903 -624 0
263 -565 0
80 839 0
-868 -481 0
553 -170 0
91 788 0
-859 -434 0
289 940 0
745 917 0
545 -229 0
914 178 0
-886 921 0
-155 -605 0
-453 -305 0
356 871 0
-41 706 0
-87 -425 0
-65 -458 0
-910 852 0
-543 196 0
-743 -42 0
357 -505 0
718 375 0
-616 -834 0
177 493 0
-850 788 0
-676 -679 0
723 448 0
86 819 0
-242 -683 0
-507 677 0
-255 475 0
459 891 0
-73 -799 0
-441 -521 0
474 -85 0
396 -654 0
426 -486 0
-611 487 0
-258 -427 0
332 -498 0
-87 -622 0
-214 887 0
-22 -524 0
-365 -46 0
745 -131 0
283 -596 0
-941 168 0
-763 -646 0
336 -366 0
716 -251 0
-693 -363 0
-9 -437 0
849 -847 0
563 -189 0
-437 943 0
571 169 0
-564 480 0
352 -805 0
838 447 0
267 -709 0
162 -939 0
-437 483 0
-565 -576 0
804 -777 0
109 -16 0
-501 -377 0
7 365 0
-209 -893 0
551 -387 0
590 656 0
-684 -562 0
-264 -584 0
324 -503 0
-697 -525 0
-789 -252 0
-497 -67 0
-533 -895 0
-666 741 0
474 -883 0
-250 403 0
107 -642 0
266 307 0
-572 556 0
750 417 0
403 91 0
-249 354 0
-84 626 0
-188 341 0
-902 -796 0
636 415 0
402 235 0
-489 190 0
-182 -411 0
42 101 0
210 404 0
373 -542 0
-66 118 0
889 909 0
573 64 0
591 -344 0
-393 190 0
83 -527 0
505 -219 0
906 -876 0
-24 98 0
332 10 0
-732 647 0
-597 929 0
-658 -617 0
-135 824 0
305 -87 0
268 -894 0
-196 457 0
-784 -827 0
-816 -561 0
-2 -173 0
-767 -575 0
76 600 0
-404 661 0
3 449 0
922 664 0
-726 -476 0
-927 -220 0
-602 167 0
405 143 0
300 613 0
-418 47 0
627 -614 0
381 307 0
-201 -618 0
530 -279 0
-197 -339 0
-245 -580 0
-325 171 0
124 686 0
-442 -881 0
262 449 0
-197 942 0
951 358 0
797 257 0
611 650 0
-30 104 0
639 363 0
420 -120 0
931 417 0
317 -409 0
867 595 0
-396 -640 0
352 292 0
844 411 0
-889 -833 0
812 -131 0
-538 863 0
449 914 0
165 -331 0
773 725 0
805 -532 0
91 -202 0
-189 807 0
-203 -378 0
-401 -5 0
943 523 0
-487 522 0
892 -352 0
940 -191 0
-628 727 0
-726 -274 0
499 -1 0
-940 -216 0
506 821 0
23 847 0
320 -722 0
-434 -492 0
-396 448 0
-390 -787 0
-897 -917 0
53 -738 0
-358 -896 0
472 -92 0
-377 454 0
938 -835 0
-294 -856 0
691 -431 0
546 -796 0
-865 -116 0
-455 333 0
219 60 0
-698 681 0
-752 352 0
-541 -684 0
-508 861 0
-375 133 0
-458 -103 0
770 -328 0
-78 720 0
-48 -649 0
-681 949 0
53 -134 0
-34 -228 0
-794 551 0
-837 -85 0
-192 -589 0
-594 -615 0
-372 -84 0
-529 782 0
347 -841 0
-390 576 0
-465 356 0
-515 -875 0
-316 -133 0
-55 496 0
-33 598 0
102 -319 0
44 -505 0
-522 615 0
600 308 0
365 152 0
399 -421 0
-488 154 0
235 484 0
176 381 0
338 15 0
140 -97 0
273 -142 0
821 325 0
-658 -949 0
-487 -360 0
-727 -860 0
-679 152 0
-856 391 0
697 64 0
650 -218 0
822 -69 0
-367 -826 0
-943 97 0
207 546 0
59 -569 0
212 -202 0
-584 624 0
-932 -864 0
948 -584 0
747 -698 0
951 -633 0
-481 -460 0
-848 221 0
-88 729 0
721 788 0
276 -848 0
-727 -447 0
-947 680 0
188 894 0
288 281 0
608 506 0
949 -252 0
369 925 0
-47 143 0
-817 11 0
291 734 0
925 528 0
122 441 0
383 326 0
-395 65 0
899 667 0
645 304 0
265 591 0
101 -414 0
-581 925 0
-101 -252 0
-417 -683 0
-552 -786 0
137 -585 0
498 -695 0
-576 -728 0
716 -86 0
667 -332 0
891 856 0
332 -78 0
12 688 0
478 457 0
-728 252 0
702 -159 0
696 525 0
668 -308 0
870 -263 0
124 656 0
700 -306 0
236 857 0
907 715 0
-704 -649 0
505 -465 0
571 -720 0
803 864 0
-365 -602 0
-35 -416 0
-101 873 0
-688 -674 0
404 -869 0
-666 -27 0
-909 5 0
152 -128 0
-429 409 0
-245 689 0
-234 -711 0
945 11 0
905 782 0
-681 -664 0
-475 -69 0
-850 -66 0
856 -151 0
-455 474 0
955 -815 0
-174 -445 0
37 -342 0
482 -857 0
-772 -68 0
-525 -775 0
-327 -182 0
-11 -321 0
-722 79 0
-778 52 0
-118 791 0
-919 -810 0
-564 396 0
706 736 0
-429 -179 0
-231 -781 0
-274 149 0
-45 779 0
-92 -721 0
-953 -92 0
-293 -511 0
929 -655 0
-535 205 0
626 785 0
-302 -215 0
682 -783 0
-415 67 0
198 -208 0
-394 237 0
405 46 0
-425 566 0
-364 44 0
77 -838 0
436 281 0
-321 178 0
-659 688 0
563 -684 0
336 88 0
-842 -910 0
903 472 0
-340 -717 0
558 -151 0
-888 516 0
-2 323 0
268 -290 0
-201 -705 0
-494 165 0
-376 32 0
130 945 0
742 -3 0
556 -763 0
-882 -870 0
-860 -249 0
-665 -181 0
171 870 0
67 -203 0
915 647 0
831 -234 0
353 -424 0
-59 743 0
-438 301 0
-109 765 0
-24 -354 0
141 691 0
-208 228 0
-88 -370 0
-163 295 0
-114 -340 0
-569 -875 0
297 112 0
-479 158 0
-87 -432 0
563 122 0
-658 299 0
747 -906 0
792 515 0
299 392 0
-461 -624 0
-658 -509 0
-61 -378 0
201 -246 0
443 737 0
-879 -312 0
-116 -618 0
-777 713 0
199 -930 0
-934 856 0
-231 -654 0
320 38 0
409 -38 0
560 800 0
-497 817 0
539 -724 0
773 -918 0
-867 -253 0
-848 162 0
-106 -161 0
306 263 0
633 207 0
401 667 0
-19 429 0
-738 -335 0
-295 706 0
-432 -242 0
-597 -32 0
227 -885 0
-125 648 0
307 440 0
-723 -298 0
803 -85 0
-584 -817 0
767 -492 0
739 -893 0
616 254 0
-641 643 0
-589 611 0
252 -856 0
604 -224 0
-282 310 0
-606 -602 0
404 -785 0
278 -759 0
246 -487 0
-97 -628 0
-507 771 0
951 -172 0
198 -661 0
-662 707 0
-81 -128 0
-87 768 0
310 -578 0
942 -66 0
-302 -902 0
723 908 0
-113 463 0
-577 146 0
466 -857 0
25 558 0
-100 247 0
336 241 0
-248 668 0
-453 440 0
449 357 0
796 49 0
23 79 0
-322 -718 0
-396 -84 0
-251 -489 0
-865 -13 0
-743 43 0
405 -80 0
-747 -90 0
894 -135 0
-168 -164 0
-404 496 0
22 602 0
-4 810 0
-804 -832 0
-372 -35 0
-269 43 0
877 -452 0
-955 -782 0
-952 -642 0
-606 272 0
-749 -721 0
-438 -916 0
-780 118 0
-335 -416 0
636 341 0
864 390 0
-539 -316 0
71 10 0
263 -585 0
912 -479 0
311 205 0
-537 187 0
239 660 0
37 -911 0
857 -688 0
-844 938 0
344 105 0
26 465 0
-489 -274 0
308 -567 0
-411 -611 0
73 -59 0
601 -393 0
82 -684 0
-611 -852 0
523 98 0
-24 868 0
240 369 0
-89 -94 0
450 -425 0
-200 6 0
361 -194 0
-881 914 0
227 716 0
-30 -742 0
-22 948 0
470 504 0
8 861 0
-699 627 0
532 -609 0
54 -563 0
676 -883 0
-170 -786 0
202 555 0
98 774 0
-151 -80 0
-28 -227 0
145 -184 0
676 -2 0
466 -883 0
680 -207 0
-408 -310 0
193 -592 0
788 -292 0
-693 843 0
-24 -930 0
-54 -431 0
-754 -946 0
-227 -310 0
148 889 0
-426 -392 0
-249 426 0
-910 -684 0
219 -78 0
-834 -476 0
-258 657 0
-265 -244 0
440 747 0
-945 -192 0
694 -220 0
-721 612 0
810 18 0
748 -483 0
747 -472 0
123 304 0
-139 -778 0
-291 -585 0
-701 119 0
-858 498 0
-109 -700 0
-358 880 0
895 428 0
-921 -746 0
-128 -236 0
-324 -611 0
-80 -585 0
-200 -380 0
-806 -660 0
403 -144 0
403 375 0
-890 642 0
-792 -389 0
81 -787 0
-773 -775 0
417 38 0
196 -685 0
-553 -258 0
-343 491 0
-279 -50 0
52 -712 0
-498 -572 0
306 97 0
-909 955 0
691 757 0
779 631 0
171 -231 0
-827 -531 0
-302 101 0
-298 -136 0
-353 18 0
478 -924 0
680 -61 0
290 560 0
723 -323 0
-632 305 0
-19 287 0
791 -740 0
123 660 0
743 -154 0
-578 -909 0
-83 436 0
-565 -764 0
593 -242 0
652 522 0
-78 -579 0
906 -100 0
843 -793 0
-103 196 0
-726 689 0
254 57 0
-546 169 0
-522 -264 0
741 -428 0
77 633 0
-429 840 0
-425 921 0
-885 562 0
-328 -336 0
-81 -400 0
657 -31 0
-182 -516 0
-98 394 0
-194 490 0
-852 -103 0
-291 -886 0
106 -78 0
-359 135 0
-697 52 0
767 138 0
333 -492 0
-109 936 0
748 10 0
41 -553 0
-938 135 0
718 764 0
-415 -93 0
-275 576 0
113 857 0
-38 730 0
669 -248 0
521 -80 0
-194 409 0
288 -584 0
-438 736 0
-609 -717 0
-165 -667 0
-44 -641 0
653 -142 0
787 -228 0
768 731 0
-579 592 0
404 -567 0
-672 642 0
183 72 0
-183 645 0
-792 64 0
-424 543 0
-820 627 0
-392 -58 0
857 -204 0
-559 -932 0
-315 870 0
-24 -389 0
449 -291 0
907 -572 0
-607 -594 0
-84 395 0
901 -566 0
-574 -789 0
-639 -16 0
-409 -419 0
-935 923 0
321 306 0
-561 31 0
-8 158 0
-541 652 0
-297 26 0
300 -690 0
-924 -97 0
-486 -530 0
936 376 0
-389 453 0
-932 -657 0
-118 -564 0
273 230 0
-595 -439 0
332 2 0
-915 -626 0
767 820 0
655 -2 0
-102 -245 0
-697 -78 0
-618 45 0
-458 703 0
-597 866 0
-16 29 0
-524 784 0
898 671 0
404 190 0
263 193 0
-843 149 0
174 -246 0
6 -208 0
755 -215 0
852 -903 0
-220 922 0
504 -690 0
-869 -127 0
-903 854 0
395 620 0
823 -314 0
-395 -597 0
601 933 0
544 -498 0
-893 881 0
-346 -674 0
165 583 0
-886 -572 0
123 -110 0
-631 -125 0
697 -631 0
-708 47 0
562 -137 0
336 -651 0
237 -930 0
-455 825 0
814 -834 0
944 -273 0
-477 823 0
-889 -660 0
474 -442 0
-821 581 0
741 -445 0
952 -635 0
645 669 0
-596 -933 0
901 804 0
-380 -18 0
280 -786 0
550 -460 0
644 678 0
433 -712 0
-408 163 0
-924 -711 0
122 -672 0
-576 401 0
-460 -693 0
936 -383 0
-537 142 0
-32 138 0
215 -833 0
-373 -658 0
673 550 0
-173 -534 0
-161 -737 0
-97 776 0
339 -565 0
277 176 0
750 79 0
-596 -265 0
-829 823 0
668 -56 0
-702 840 0
-565 -366 0
193 -242 0
-260 -349 0
-74 504 0
-134 -299 0
-723 -782 0
-688 167 0
571 673 0
212 -824 0
-431 -351 0
269 -744 0
-255 35 0
-910 217 0
895 342 0
860 273 0
-550 636 0
74 485 0
-509 712 0
-355 297 0
859 -298 0
-147 -227 0
-726 649 0
357 -136 0
587 -533 0
413 -284 0
-367 766 0
47 -451 0
-839 852 0
-920 430 0
-252 937 0
362 542 0
-476 124 0
-611 16 0
-50 472 0
-387 -4 0
-947 -807 0
814 870 0
-433 -489 0
-903 -844 0
299 -787 0
442 -565 0
104 -458 0
-268 -222 0
-287 -373 0
-460 187 0
-704 838 0
489 571 0
-661 -785 0
409 646 0
-911 -535 0
341 178 0
-174 -600 0
-501 684 0
609 -566 0
-258 77 0
-374 -78 0
-564 663 0
423 -726 0
792 -620 0
268 -574 0
8 -316 0
119 278 0
-478 692 0
353 -616 0
-676 -537 0
-242 931 0
-57 -83 0
757 -865 0
-45 -137 0
143 -876 0
390 470 0
-115 -81 0
688 -935 0
-883 -367 0
105 855 0
275 795 0
787 755 0
-548 -216 0
-66 671 0
-660 -785 0
-459 -210 0
11 -793 0
-82 638 0
-508 -844 0
-110 626 0
-757 40 0
-38 791 0
-439 -28 0
-335 -752 0
-674 -78 0
-631 308 0
433 -561 0
-759 -421 0
380 -947 0
908 722 0
-473 53 0
470 -697 0
-358 817 0
382 -816 0
285 826 0
-743 -453 0
-184 876 0
745 -28 0
900 545 0
472 137 0
295 278 0
-577 -58 0
846 602 0
-150 -440 0
657 949 0
309 -172 0
655 274 0
-683 -274 0
-328 -16 0
128 219 0
-442 -564 0
-147 482 0
944 415 0
754 738 0
-400 374 0
604 109 0
514 -26 0
871 -439 0
262 -149 0
138 -708 0
302 -390 0
603 -821 0
712 -254 0
684 -205 0
-594 -439 0
-175 -799 0
-414 952 0
-244 712 0
148 585 0
-199 675 0
413 436 0
375 -527 0
-832 -671 0
-819 -614 0
847 778 0
179 -126 0
-728 -929 0
448 38 0
349 445 0
-547 -784 0
-392 -654 0
409 372 0
853 204 0
-12 -258 0
-339 -603 0
-440 18 0
-739 -724 0
910 -61 0
-851 621 0
-606 -383 0
105 -950 0
138 -738 0
322 508 0
737 -111 0
-21 69 0
-811 -138 0
53 -270 0
465 -684 0
463 -16 0
-659 396 0
265 948 0
-66 -682 0
12 181 0
504 -825 0
-28 -429 0
-561 652 0
-590 901 0
250 -110 0
796 737 0
-125 253 0
274 452 0
32 -472 0
-430 -525 0
-588 -509 0
-430 864 0
-677 -153 0
463 795 0
-389 -75 0
154 -641 0
-594 32 0
-131 863 0
691 -111 0
166 -936 0
-291 -176 0
849 -516 0
-859 -580 0
667 717 0
-492 754 0
514 167 0
-664 607 0
-298 -483 0
717 -548 0
861 135 0
-103 -868 0
535 -353 0
-423 -402 0
-437 -858 0
-836 -13 0
-778 -902 0
149 -796 0
901 -519 0
-732 -296 0
-625 -770 0
-631 735 0
817 -199 0
-322 948 0
-598 -818 0
868 -484 0
-371 -536 0
272 769 0
-59 -47 0
854 143 0
906 818 0
-132 -651 0
937 -392 0
47 186 0
555 156 0
360 217 0
-100 80 0
-727 -892 0
-416 481 0
192 65 0
-883 620 0
-255 -528 0
-126 -131 0
-54 742 0
-494 -272 0
-19 -192 0
381 57 0
629 -896 0
-353 406 0
-203 -270 0
107 871 0
356 -830 0
167 -497 0
880 615 0
454 839 0
-524 774 0
276 -649 0
702 495 0
-512 -271 0
466 356 0
-519 554 0
154 -670 0
-492 -514 0
-147 -409 0
545 901 0
-400 -322 0
-811 244 0
304 -920 0
-824 -447 0
-193 -100 0
-729 776 0
-554 -776 0
887 -367 0
-99 206 0
-726 -921 0
851 -934 0
754 -515 0
104 -154 0
-914 889 0
-165 -458 0
952 140 0
-39 474 0
-909 -173 0
-808 633 0
726 -400 0
-426 -368 0
336 397 0
-642 -255 0
-782 854 0
369 -155 0
812 -147 0
-365 163 0
338 -321 0
-759 -692 0
-843 676 0
-429 753 0
183 -413 0
-33 -487 0
676 333 0
71 14 0
451 -757 0
-260 52 0
-786 696 0
-326 863 0
524 554 0
469 -191 0
-863 127 0
-422 -168 0
904 158 0
950 212 0
604 383 0
736 -527 0
297 170 0
-853 -817 0
-453 -281 0
-254 610 0
-408 -705 0
713 467 0
773 376 0
-115 -461 0
796 -691 0
942 532 0
-109 280 0
-749 418 0
352 -770 0
-827 558 0
-737 341 0
721 913 0
518 108 0
630 928 0
647 91 0
-480 -743 0
-80 -258 0
295 557 0
403 110 0
-672 361 0
-676 107 0
-787 -266 0
-498 843 0
-651 -437 0
945 807 0
-328 900 0
167 379 0
612 -810 0
-528 -699 0
272 342 0
609 -699 0
-349 -697 0
626 -787 0
-654 -411 0
944 -263 0
15 -388 0
-246 -787 0
-387 405 0
512 313 0
-850 17 0
825 653 0
284 149 0
751 -820 0
468 371 0
-558 185 0
-87 -847 0
715 -463 0
-254 272 0
116 230 0
672 -349 0
598 -340 0
806 545 0
-179 -410 0
827 518 0
221 218 0
-256 -884 0
-19 -941 0
-82 -444 0
615 952 0
-270 -551 0
339 -392 0
-116 566 0
-561 -697 0
57 -693 0
425 -594 0
947 -520 0
700 -760 0
-69 -716 0
-107 -50 0
-425 -437 0
-898 311 0
627 -285 0
-900 -201 0
189 853 0
477 942 0
907 897 0
951 -198 0
141 361 0
10 -535 0
-60 434 0
-389 473 0
-811 -568 0
651 148 0
195 211 0
192 -477 0
-426 265 0
802 -265 0
86 -271 0
550 -611 0
737 243 0
589 -658 0
754 -874 0
-450 322 0
515 -287 0
-867 -660 0
470 -73 0
-326 -428 0
-207 -724 0
742 -777 0
-223 -206 0
326 120 0
523 483 0
-885 63 0
180 211 0
52 -660 0
444 -920 0
706 -522 0
-348 -679 0
496 -683 0
-101 807 0
26 -521 0
-821 55 0
-953 66 0
-522 -427 0
752 356 0
908 -150 0
554 -590 0
-912 -867 0
468 728 0
-608 -30 0
823 788 0
-11 -883 0
-660 -484 0
680 716 0
401 -908 0
169 783 0
-843 -153 0
-725 859 0
815 -781 0
-516 -781 0
887 -38 0
-58 -338 0
-480 555 0
-759 -282 0
852 576 0
-452 -858 0
-672 158 0
737 859 0
-876 241 0
-137 -867 0
447 678 0
-689 311 0
-815 -933 0
375 481 0
8 918 0
915 -13 0
73 -87 0
237 -85 0
872 -715 0
-726 -642 0
102 -20 0
-740 -797 0
338 107 0
-850 288 0
427 621 0
-699 -658 0
-778 -665 0
852 -801 0
250 164 0
-904 -531 0
227 -62 0
-564 574 0
-728 391 0
-661 -642 0
-331 514 0
748 -640 0
-721 -783 0
288 -12 0
-646 614 0
450 -481 0
697 734 0
-439 -355 0
-350 327 0
882 860 0
-379 -164 0
-442 533 0
538 -161 0
-724 942 0
-460 472 0
308 -75 0
-45 456 0
-709 73 0
206 -124 0
-349 -509 0
-281 -642 0
-767 68 0
-577 -400 0
-747 404 0
-317 -682 0
-211 132 0
-170 -64 0
772 713 0
-190 306 0
-793 -200 0
505 -14 0
921 29 0
-61 -275 0
139 753 0
694 -517 0
143 306 0
-716 548 0
744 -943 0
347 -485 0
814 591 0
-569 -239 0
895 -634 0
-391 -260 0
-161 -93 0
108 -528 0
-940 -419 0
660 913 0
264 -392 0
-1 -725 0
-936 -116 0
-381 -817 0
-692 454 0
523 326 0
-469 -440 0
-450 692 0
-266 443 0
-112 -684 0
306 -789 0
195 309 0
173 -605 0
849 718 0
830 718 0
671 -416 0
198 -920 0
-165 -408 0
847 172 0
954 715 0
601 831 0
-920 573 0
-145 -348 0
-195 -404 0
-147 -745 0
-888 -79 0
164 65 0
-359 -771 0
274 -40 0
892 -111 0
479 -953 0
-381 -552 0
272 -685 0
212 -298 0
773 -727 0
393 113 0
414 809 0
-115 847 0
821 551 0
691 -146 0
-414 661 0
-92 647 0
-800 -79 0
-898 -116 0
504 753 0
-298 603 0
486 563 0
-491 29 0
442 329 0
-451 758 0
-2 320 0
549 -38 0
108 -528 0
-380 -793 0
949 -297 0
392 870 0
138 -715 0
-448 -487 0
235 -370 0
-344 657 0
791 104 0
441 -385 0
-858 -206 0
875 -367 0
-641 -191 0
-666 -870 0
-901 954 0
-201 855 0
-503 -278 0
273 -128 0
-465 69 0
-249 212 0
-619 889 0
256 19 0
-618 -389 0
-218 56 0
-383 -350 0
-335 -728 0
71 98 0
841 -803 0
-366 774 0
-909 955 0
369 -626 0
494 159 0
-710 292 0
-552 287 0
141 -401 0
-345 -43 0
630 -479 0
938 -625 0
599 910 0
-560 196 0
728 -125 0
-618 -435 0
327 517 0
621 810 0
114 -66 0
-3 -291 0
-177 -148 0
152 588 0
-631 -764 0
851 398 0
-719 -764 0
-719 -395 0
495 615 0
284 -242 0
-679 -261 0
619 -386 0
-850 -115 0
-100 563 0
86 89 0
796 -654 0
-35 717 0
575 237 0
765 -794 0
715 106 0
-33 8 0
393 -488 0
-400 656 0
254 894 0
-681 719 0
-290 234 0
-256 181 0
700 662 0
67 -593 0
-231 -780 0
657 -536 0
-655 -313 0
344 198 0
-424 -346 0
276 -316 0
728 433 0
-484 945 0
829 -111 0
583 -955 0
676 -680 0
317 150 0
209 -876 0
951 -402 0
-488 13 0
726 -561 0
-883 -624 0
-805 914 0
705 -203 0
175 -224 0
-455 620 0
692 -425 0
-84 952 0
-286 657 0
-932 -585 0
318 -557 0
324 -741 0
124 -333 0
-589 -669 0
309 -49 0
497 -46 0
287 -927 0
-581 79 0
513 396 0
102 -171 0
661 322 0
502 -638 0
369 117 0
653 541 0
781 -475 0
887 -927 0
-883 -703 0
-296 857 0
547 406 0
918 101 0
-751 374 0
-870 -451 0
624 185 0
71 301 0
690 -195 0
327 -180 0
788 907 0
-728 -544 0
-202 314 0
-56 24 0
604 62 0
-440 210 0
-394 847 0
-63 107 0
-184 455 0
138 -362 0
549 548 0
818 -838 0
-881 -534 0
-95 311 0
-923 504 0
605 -416 0
-227 710 0
-111 937 0
149 294 0
-110 247 0
148 33 0
401 -358 0
773 -150 0
730 -114 0
604 -728 0
-916 -461 0
717 -881 0
195 326 0
-35 778 0
-400 470 0
842 171 0
-842 -835 0
-430 -743 0
-893 -69 0
-799 -346 0
676 742 0
629 667 0
597 47 0
-85 640 0
-110 -595 0
158 -174 0
-545 -392 0
-214 -928 0
658 -553 0
-805 -756 0
-293 -374 0
-840 809 0
-734 -270 0
332 610 0
511 240 0
-805 819 0
-471 -143 0
650 474 0
550 -20 0
200 -243 0
-649 189 0
-842 292 0
754 886 0
-780 41 0
-524 -829 0
-845 822 0
-608 515 0
509 432 0
-130 364 0
499 306 0
546 411 0
79 -205 0
424 334 0
234 -431 0
-345 562 0
-732 304 0
495 614 0
-596 -561 0
315 -693 0
-2 92 0
59 954 0
-200 -880 0
-380 720 0
855 100 0
-476 -517 0
-251 846 0
805 -722 0
603 459 0
39 -157 0
-810 608 0
-821 671 0
-84 544 0
-167 -574 0
-608 -191 0
914 -47 0
-432 -642 0
-442 -109 0
381 385 0
174 -432 0
692 876 0
-604 891 0
504 -718 0
65 -882 0
32 298 0
534 -912 0
646 -577 0
-224 951 0
-727 -259 0
203 -16 0
852 794 0
797 -182 0
-605 365 0
68 -858 0
-729 -699 0
-385 309 0
-469 -331 0
6 532 0
-833 925 0
-837 -89 0
-855 -223 0
-513 478 0
-844 -216 0
-609 -526 0
-582 -683 0
-9 -727 0
284 -38 0
599 -503 0
873 914 0
39 309 0
-461 774 0
37 75 0
129 519 0
-417 -296 0
545 715 0
-236 -947 0
-875 107 0
28 -750 0
-224 -739 0
715 756 0
-38 -754 0
401 515 0
871 -194 0
-516 -439 0
-501 -313 0
-726 -451 0
189 -169 0
-296 480 0
-282 -39 0
633 689 0
-483 182 0
-943 206 0
-195 59 0
-566 -727 0
-646 -9 0
155 401 0
662 120 0
447 -725 0
847 1 0
-337 341 0
-147 540 0
756 696 0
-199 -193 0
-424 -787 0
897 879 0
746 714 0
-392 -470 0
226 158 0
876 -427 0
436 758 0
-884 387 0
435 326 0
745 926 0
936 327 0
700 -66 0
-434 -827 0
103 189 0
374 721 0
908 -357 0
-836 -309 0
-226 84 0
-248 256 0
-598 399 0
-786 297 0
-17 885 0
-280 244 0
-365 566 0
326 250 0
-695 -589 0
-275 249 0
557 591 0
826 -763 0
-674 -836 0
404 -476 0
-109 154 0
-408 383 0
-6 -502 0
739 282 0
-293 512 0
894 -902 0
716 193 0
-209 -320 0
942 360 0
15 903 0
-485 -264 0
285 -911 0
10 18 0
706 -495 0
-488 708 0
743 661 0
542 -400 0
318 -128 0
-2 -865 0
-415 301 0
219 612 0
878 -379 0
872 915 0
-410 -440 0
-884 -882 0
102 369 0
-540 -827 0
696 -885 0
-172 -534 0
621 474 0
-231 870 0
336 -885 0
550 -52 0
459 520 0
257 213 0
135 89 0
118 -517 0
-643 -738 0
267 -478 0
206 -212 0
324 -782 0
-459 703 0
579 -606 0
-238 -270 0
-572 -592 0
44 -744 0
-920 -833 0
68 -278 0
656 -131 0
432 490 0
393 45 0
-525 -337 0
-789 -456 0
-904 -519 0
753 906 0
852 604 0
643 106 0
-85 -192 0
-366 -50 0
550 -547 0
-30 520 0
-697 -649 0
-257 -310 0
769 504 0
56 895 0
-180 -493 0
-103 309 0
-439 381 0
-319 502 0
704 722 0
860 281 0
-314 -607 0
-27 53 0
-813 -831 0
87 462 0
-883 433 0
478 -781 0
262 -520 0
-332 546 0
690 -775 0
908 737 0
719 -444 0
-695 490 0
-579 -303 0
-195 734 0
-270 488 0
563 -699 0
567 -806 0
382 246 0
-530 172 0
203 929 0
-561 680 0
700 436 0
870 691 0
571 -59 0
132 185 0
-1 -588 0
-520 120 0
518 -668 0
843 867 0
725 -175 0
-427 -574 0
758 882 0
-345 557 0
595 822 0
900 404 0
840 844 0
369 -815 0
-812 -18 0
261 549 0
-642 159 0
-258 201 0
-615 251 0
-744 -381 0
241 -253 0
-797 365 0
-56 -565 0
595 121 0
-639 -174 0
-566 883 0
-231 -638 0
514 922 0
-253 779 0
942 -817 0
483 -298 0
-233 608 0
473 -233 0
-46 -479 0
-882 357 0
-628 -728 0
-491 -910 0
-821 833 0
-187 -36 0
79 661 0
888 -638 0
-868 -732 0
371 -11 0
-295 -191 0
-649 -223 0
-50 -272 0
73 739 0
-552 -50 0
-54 925 0
-658 166 0
540 385 0
-941 -846 0
227 -16 0
-460 -660 0
246 840 0
-255 180 0
734 244 0
154 843 0
-429 -429 0
-789 460 0
697 940 0
103 -814 0
835 -93 0
-597 730 0
120 696 0
456 841 0
920 877 0
923 286 0
-529 -488 0
-842 -226 0
662 703 0
-548 -782 0
923 835 0
-446 -253 0
320 168 0
284 840 0
550 599 0
845 329 0
586 -677 0
-488 425 0
-302 -902 0
870 575 0
765 -750 0
-875 -14 0
-673 -366 0
-761 623 0
-948 -252 0
-582 -636 0
625 31 0
801 168 0
-151 -904 0
-914 944 0
58 863 0
412 -465 0
790 -269 0
-927 -833 0
-476 552 0
657 420 0
304 -81 0
-516 263 0
791 -121 0
801 -426 0
804 -9 0
146 -707 0
-16 85 0
-424 244 0
-235 -813 0
8 -255 0
-220 -575 0
-398 598 0
309 -35 0
286 -177 0
143 -484 0
632 855 0
420 509 0
268 627 0
211 -861 0
-812 704 0
-498 -247 0
-589 556 0
-635 -723 0
-265 -658 0
-642 -234 0
326 -184 0
450 583 0
-629 -109 0
-524 -805 0
-576 -865 0
854 -45 0
700 901 0
230 632 0
237 -937 0
-228 490 0
-631 571 0
771 -1 0
-119 294 0
641 409 0
-391 -857 0
594 -103 0
-241 -434 0
-72 -75 0
21 -88 0
608 -862 0
-499 583 0
-405 -371 0
769 237 0
-217 334 0
-655 -392 0
-21 305 0
630 -444 0
662 743 0
-642 -875 0
-584 -587 0
-844 -358 0
363 -761 0
-827 499 0
917 -547 0
-187 -480 0
601 897 0
