c NF
p cnf 3530 2118
2714 -2507 0
-146 1325 0
-3264 -699 0
-2508 -2085 0
1974 3045 0
947 2770 0
3196 376 0
329 -3197 0
-413 -3304 0
-3145 -2269 0
-452 3284 0
2313 -2514 0
1213 3440 0
759 -40 0
2598 3010 0
2715 -3299 0
71 -3335 0
1213 -1489 0
-3355 478 0
-1197 334 0
-2219 263 0
2794 2371 0
139 -3099 0
1692 -1100 0
2034 685 0
1590 -1006 0
1847 2887 0
-1602 -2925 0
-2509 2352 0
-1164 -1639 0
-3211 2500 0
-1971 2496 0
-3516 3398 0
-3025 -2897 0
2187 1019 0
-74 -116 0
3005 -118 0
-2667 -891 0
3441 3497 0
430 424 0
-934 -2446 0
-2851 2457 0
1607 -1280 0
2254 -1954 0
2272 1779 0
-1442 -3451 0
1448 -1374 0
-936 -3295 0
2267 -1878 0
-1440 -2056 0
1909 1107 0
-1136 402 0
2090 -2890 0
-1062 -3334 0
-744 1001 0
1764 -495 0
1508 3038 0
-1688 -2653 0
-3256 2533 0
1770 -2131 0
-1316 -1298 0
-3445 1768 0
-3194 -2262 0
2511 -2144 0
1911 2270 0
1557 -166 0
-3244 3062 0
2243 100 0
2500 -604 0
1681 -2283 0
-2417 294 0
-1528 -3081 0
1207 -959 0
-944 781 0
-2519 -3513 0
-3109 2946 0
-3010 2635 0
-268 3396 0
-446 2364 0
-694 -576 0
-2007 -3031 0
888 -383 0
2246 309 0
1605 884 0
-1231 1022 0
2524 2445 0
-1244 -499 0
-1256 1086 0
1767 -2604 0
-2959 2078 0
1487 -176 0
-3319 2901 0
-1702 -1275 0
1266 2985 0
-3195 -2753 0
-355 -199 0
-2943 -149 0
2256 -3288 0
-2050 2153 0
1911 2634 0
-956 443 0
3087 1181 0
2695 2571 0
3125 -2842 0
3110 1690 0
698 1673 0
-2968 2265 0
2572 -667 0
1286 -3288 0
-2319 -989 0
-3357 168 0
2805 3052 0
3391 -2257 0
132 621 0
-3374 -1545 0
1384 2365 0
-1720 -1755 0
-420 -189 0
-1862 -1080 0
1025 394 0
-3220 660 0
100 1626 0
-878 -1145 0
2769 76 0
786 255 0
2294 -1529 0
836 -2375 0
2783 282 0
2432 65 0
205 796 0
3183 1108 0
2805 706 0
-3025 -2675 0
266 810 0
1279 -2986 0
1166 -2601 0
3487 -2103 0
-323 -220 0
1979 627 0
1501 -3203 0
2922 1892 0
2700 1850 0
2173 750 0
-1528 2160 0
1078 -1923 0
1346 -2900 0
2514 -2055 0
-1664 3439 0
-60 228 0
2332 -249 0
-355 -1184 0
-2103 -2270 0
-1983 -324 0
-423 -832 0
-715 -2915 0
2559 895 0
1462 -2820 0
2342 1625 0
-1208 2270 0
461 -301 0
-2591 1071 0
-3000 1239 0
538 2118 0
-1184 2840 0
247 -486 0
-358 -2208 0
-391 3050 0
-2171 296 0
518 -1220 0
-1292 576 0
2775 1425 0
-116 -1183 0
-3351 -411 0
2702 3016 0
-391 -683 0
1271 -3082 0
2794 884 0
1293 -222 0
3247 2426 0
2407 2032 0
-845 -1810 0
3369 -2531 0
-1645 2130 0
1946 -195 0
720 -838 0
867 2154 0
-1678 2015 0
2633 893 0
-2836 1378 0
490 -655 0
759 -415 0
2294 3091 0
-1504 927 0
2137 -2601 0
762 287 0
-2933 2933 0
515 804 0
1831 1989 0
-1402 805 0
-446 2942 0
-3083 3382 0
-2238 2697 0
3043 -360 0
-607 981 0
1581 3022 0
-3215 -425 0
-2938 -2031 0
2582 -2253 0
-183 -2517 0
1054 -984 0
2332 -492 0
12 3310 0
1032 -3032 0
403 -873 0
3444 -2446 0
-3137 1141 0
3323 2543 0
-1379 2497 0
-1067 2152 0
-3044 -859 0
3348 477 0
1423 415 0
647 -1728 0
665 -3230 0
-2008 -1713 0
3142 3376 0
1740 1615 0
-1504 1698 0
-1640 -3200 0
-723 -733 0
2638 2468 0
2290 1151 0
2910 1722 0
-3075 -1924 0
-3485 224 0
2876 281 0
1854 1155 0
-3452 856 0
-2042 -2625 0
1002 1587 0
2244 -421 0
3282 1892 0
-2576 -2822 0
294 -1435 0
792 -2813 0
-1351 3174 0
-3528 -1928 0
3412 -1269 0
-1 -2653 0
1133 2001 0
1940 583 0
319 1108 0
1315 3196 0
877 1229 0
1505 346 0
-2284 -2960 0
25 2411 0
3200 -1133 0
-3482 3138 0
-3307 -1648 0
-2573 -89 0
1562 1219 0
-244 265 0
-1739 -368 0
2850 -1611 0
-1900 -1021 0
3115 -2244 0
1159 -2633 0
3001 398 0
1117 -1573 0
-3454 -1554 0
750 -3082 0
2010 2807 0
1961 -1300 0
-3337 2941 0
2135 -1123 0
2726 -752 0
-917 787 0
2543 2931 0
2967 1194 0
-3086 -1849 0
645 -2939 0
-1038 -1397 0
101 1764 0
1201 -537 0
150 -1043 0
1841 -3341 0
-555 -2288 0
-2898 -2677 0
1532 -1541 0
-1459 -2273 0
-1326 -291 0
-3103 836 0
948 1293 0
675 -1015 0
2717 2470 0
3457 -3185 0
-2644 -199 0
-2277 217 0
2347 -1233 0
2920 -2371 0
3525 1010 0
1287 -455 0
-2392 526 0
1305 -1332 0
-2016 2065 0
-365 -1276 0
2341 1368 0
-3178 2941 0
-654 -1115 0
-1786 1608 0
-340 -2760 0
-166 13 0
724 -1337 0
2136 1112 0
-556 2540 0
2277 -2819 0
-688 1315 0
1777 2473 0
747 -1261 0
-2222 2306 0
-2781 -899 0
87 2968 0
-494 3355 0
-2194 387 0
2630 -164 0
-3084 -305 0
-887 -1452 0
-1408 2586 0
3383 -1928 0
-3378 -75 0
2153 -2745 0
-983 -979 0
-1047 38 0
-377 -3307 0
-1290 -43 0
1193 -3066 0
398 -3307 0
-852 1086 0
-3123 1013 0
1262 37 0
-836 2973 0
-3262 -3132 0
-1995 -351 0
-3518 -715 0
-2055 1226 0
1970 453 0
2819 1889 0
-2967 -1484 0
-306 2108 0
2541 441 0
1391 1232 0
-1540 -1973 0
729 1523 0
-509 31 0
2518 66 0
-542 -1666 0
514 -811 0
1366 -290 0
-33 -1270 0
-420 1245 0
2626 2206 0
-3124 -3005 0
11 -1488 0
653 1986 0
-144 -1231 0
433 -1396 0
1606 2350 0
-1338 -1452 0
-1331 2390 0
1660 867 0
627 1302 0
1122 913 0
-904 -2798 0
992 125 0
237 -2859 0
3088 -2296 0
-177 -2303 0
702 523 0
-3131 -3193 0
2359 -3062 0
-1628 847 0
-2108 325 0
-860 311 0
-3119 -508 0
929 519 0
-1234 3522 0
1291 -682 0
2345 1134 0
2831 -998 0
171 3464 0
-625 -2309 0
-2562 2944 0
2611 -1872 0
1949 237 0
-2544 -1750 0
3447 -1776 0
82 888 0
-348 -954 0
2039 -1598 0
-2448 -1057 0
2082 -1832 0
2102 -1817 0
3451 -4 0
-1452 -2512 0
1269 2071 0
-1073 2077 0
-2764 -862 0
-981 -360 0
-3175 2009 0
1291 -3248 0
-2388 1832 0
138 -248 0
2288 1444 0
2826 2444 0
227 -1651 0
-2471 -2882 0
-719 878 0
2205 -2615 0
3398 -106 0
2609 946 0
2895 1559 0
-2048 1371 0
-1483 -1409 0
3238 -2284 0
2468 1195 0
1141 187 0
2441 663 0
488 3387 0
-2180 2811 0
-2471 3475 0
-3015 663 0
1917 -1364 0
2752 1890 0
3017 -993 0
3507 1489 0
3286 -120 0
-2780 1141 0
973 -97 0
-1604 -489 0
950 -2295 0
79 -3169 0
-2073 1286 0
-548 -2021 0
696 1276 0
3038 -1660 0
-484 -391 0
-107 -891 0
2136 -1034 0
-3050 462 0
-1564 -682 0
-35 1099 0
-3518 -1315 0
3292 -2944 0
-1492 364 0
-1138 -1862 0
-1580 -2442 0
-2784 -2698 0
83 1825 0
-1313 597 0
2465 2027 0
3404 -584 0
2482 510 0
-2311 -2149 0
782 1200 0
-1921 1221 0
-1295 311 0
-1498 279 0
-2088 204 0
3106 248 0
1331 -1429 0
-2066 -1712 0
-1021 -866 0
-634 259 0
-3317 39 0
-2866 -1657 0
-3257 606 0
-1610 998 0
2087 -1991 0
685 -857 0
711 1072 0
1225 -106 0
1711 -2599 0
-1139 3232 0
885 -1488 0
-2616 2760 0
-1965 -276 0
-600 3013 0
2917 -1759 0
2348 2568 0
-158 -891 0
-318 123 0
1723 -450 0
-1938 -2043 0
3191 -1288 0
-249 348 0
2615 633 0
-1689 2806 0
-3069 -977 0
-579 3526 0
1648 1336 0
-413 3324 0
2250 -2483 0
2355 1780 0
-2475 -2973 0
2445 2465 0
-1140 -1757 0
-1923 2804 0
912 -416 0
1962 1700 0
-2622 2060 0
-3267 1839 0
-163 -2818 0
274 -620 0
3447 -1040 0
-1004 2267 0
3204 -2952 0
1152 -2956 0
2436 1822 0
-549 -550 0
-1793 -541 0
2439 -1427 0
-2056 2854 0
643 -2051 0
2833 -3214 0
3464 2279 0
-1972 -2150 0
1239 2937 0
-571 -892 0
696 -1230 0
-740 3469 0
-2827 -3201 0
3282 2142 0
-3262 -221 0
2053 3530 0
2483 -802 0
-917 3 0
-248 384 0
2107 1839 0
241 1388 0
-857 1368 0
3099 417 0
-2160 640 0
-1885 3236 0
-173 -1485 0
-67 -2247 0
2376 -2617 0
407 501 0
2725 1612 0
2453 -2222 0
2644 1561 0
-2401 923 0
-1050 2711 0
3507 -2199 0
2236 564 0
-3137 -32 0
-1361 366 0
-2935 -2120 0
-1020 -3398 0
1768 1522 0
2766 2773 0
-1563 2577 0
3310 -1886 0
3159 -1694 0
2125 1848 0
1711 -666 0
764 -1057 0
3198 -2818 0
-586 -1987 0
160 77 0
1261 3448 0
1505 -2599 0
-106 1821 0
-2578 -2402 0
-106 -373 0
-1108 -908 0
2715 138 0
878 1543 0
-1934 2082 0
-2849 3209 0
757 4 0
-2195 -1501 0
1361 644 0
-2438 3336 0
2949 1356 0
2779 -2076 0
1679 -170 0
1700 11 0
-2401 2218 0
-1630 -1374 0
3391 1305 0
2879 3056 0
-902 3077 0
-1202 -2009 0
2924 346 0
334 -622 0
2835 2932 0
-1720 -673 0
944 -992 0
2079 -2903 0
-1396 1882 0
736 -325 0
-792 2974 0
2673 -3359 0
-1538 -1363 0
-1053 1392 0
2019 -2219 0
-3349 -1188 0
-589 612 0
-823 901 0
-1965 1625 0
3176 3148 0
-1480 3448 0
-2228 -1788 0
449 -726 0
-3455 3423 0
2558 3100 0
-2593 -1913 0
-1079 -213 0
-1334 -819 0
1389 2887 0
2111 1151 0
2441 -1330 0
1338 3324 0
3097 -1369 0
-1276 493 0
-3050 3004 0
980 1092 0
-2241 -138 0
-419 -2157 0
-646 3347 0
2089 2030 0
891 2095 0
3170 903 0
-2370 -267 0
2509 -3395 0
-1921 208 0
-766 2140 0
3465 827 0
596 270 0
1529 701 0
-277 -548 0
3158 1000 0
-830 -477 0
246 -3284 0
3486 -684 0
-1380 2412 0
1723 -1193 0
-1148 778 0
-3112 -1408 0
-1887 2094 0
-32 2405 0
-1789 2704 0
-3035 811 0
2202 1643 0
-1859 2750 0
716 946 0
-2776 3346 0
-1691 -3529 0
1059 3128 0
-2875 -2294 0
-43 -591 0
-31 -1965 0
-1804 657 0
2794 606 0
-3343 229 0
-3039 -173 0
3311 1370 0
-615 1767 0
1743 -2628 0
2876 -818 0
657 -3206 0
307 3454 0
240 516 0
2123 -2002 0
-869 -1176 0
3270 1013 0
1822 -3038 0
332 2966 0
-2183 -2681 0
-3214 3052 0
-714 -731 0
771 -3229 0
1684 2445 0
-357 -1185 0
1755 2879 0
-3250 -2862 0
646 2835 0
-2563 2985 0
-793 739 0
1653 2864 0
2588 1933 0
-921 2592 0
-2507 2407 0
-1657 -101 0
-1539 2477 0
2950 -864 0
-69 1508 0
-3260 -2851 0
-176 -150 0
1944 -2793 0
1104 -1022 0
1281 2003 0
1389 3389 0
-3228 -2723 0
2773 -277 0
-1073 2780 0
594 705 0
-708 385 0
-1364 -2185 0
1138 -994 0
3324 2905 0
-726 1740 0
2757 2057 0
1229 -2905 0
1506 -3250 0
3084 -1662 0
2884 -1664 0
1010 2719 0
-1808 2139 0
416 -2842 0
-299 143 0
24 3392 0
-1919 2581 0
123 -2360 0
3471 -1949 0
-857 2204 0
2153 2694 0
1512 1137 0
842 -2222 0
-2116 -1101 0
2733 2501 0
-3425 -174 0
1420 -3013 0
-1657 -2004 0
-3069 -2422 0
-734 1757 0
-892 3182 0
-3066 -3351 0
381 196 0
-2275 -3492 0
3459 161 0
899 -1708 0
2716 -542 0
-180 2096 0
2144 -1844 0
2067 -2121 0
2280 2411 0
-401 3491 0
823 3460 0
1089 500 0
-494 2530 0
-3057 -2994 0
-2934 -2556 0
-367 -2468 0
-841 -984 0
668 399 0
-1292 2134 0
3182 1003 0
-3210 2110 0
-2146 2143 0
410 2413 0
3329 427 0
338 773 0
-3524 -1246 0
-1627 -748 0
-1102 -2915 0
-207 2727 0
-2116 -216 0
1784 -2661 0
568 -2476 0
3528 338 0
2716 3504 0
-3356 2144 0
3012 -3308 0
741 -1694 0
1503 877 0
-1641 -2891 0
-352 860 0
2388 -3156 0
3122 2644 0
2869 -2252 0
-882 2644 0
1090 1395 0
-377 -3307 0
-797 1583 0
-1928 -1805 0
-1254 -2185 0
125 -1392 0
-409 -2256 0
1115 1404 0
-2638 -3274 0
-136 3030 0
2765 1942 0
299 1287 0
3422 619 0
-1119 1806 0
2747 -2282 0
-1636 -2760 0
961 2415 0
-261 1263 0
-751 3395 0
-1995 1020 0
406 -332 0
-1774 117 0
-2066 -2329 0
3136 2917 0
-3452 -348 0
-3287 -3499 0
-3372 200 0
-3426 1262 0
276 1213 0
-1225 777 0
2564 3166 0
1369 -2155 0
-2363 -329 0
-1598 2057 0
-2431 -1068 0
-2039 -1383 0
2109 1444 0
2950 -3136 0
1947 -975 0
538 2081 0
1017 1009 0
-2469 -1806 0
2321 3428 0
1209 -690 0
-2781 3440 0
2645 -2083 0
-1941 -2503 0
102 -3375 0
-694 1051 0
67 -3331 0
-1734 1664 0
1297 1005 0
-3011 2950 0
-353 2968 0
2774 274 0
529 111 0
-505 -275 0
-316 1585 0
-1445 -400 0
3423 842 0
117 -768 0
-2613 254 0
479 2039 0
-539 -638 0
-2510 1202 0
1933 -959 0
-3362 -490 0
2428 -3482 0
-3366 2596 0
-70 1939 0
213 2897 0
1120 -1149 0
-84 523 0
-1065 3190 0
1981 2919 0
263 -2209 0
3262 2572 0
1043 -2178 0
519 -731 0
-3020 3517 0
3324 -267 0
3299 -390 0
2506 2285 0
-629 -673 0
-3039 -1702 0
568 -1945 0
1150 112 0
-613 -2900 0
-3113 -3491 0
-1828 -2542 0
-261 3530 0
340 -1468 0
-1431 -831 0
3188 -851 0
796 -831 0
-1757 2102 0
364 568 0
-1662 147 0
-1026 429 0
-549 -2361 0
-2870 -2396 0
1961 -59 0
-80 478 0
-1340 -1085 0
1845 -152 0
-141 2105 0
271 451 0
2704 -2672 0
-997 3423 0
2279 1159 0
735 2093 0
1279 -2451 0
-439 34 0
2819 -1804 0
152 2936 0
965 -876 0
-3226 2163 0
611 1987 0
3092 -2189 0
-1858 -98 0
2359 -727 0
231 -2793 0
925 -673 0
2261 -2219 0
-411 -2900 0
-1938 -1469 0
-877 -81 0
-3284 2800 0
-2545 -1323 0
2486 -2001 0
2132 -2837 0
2941 -2696 0
351 2219 0
2727 3066 0
847 -1303 0
-2268 1322 0
-2902 2787 0
1535 -587 0
-1196 -1749 0
1256 2575 0
-2639 1534 0
-498 3126 0
3041 1955 0
-2378 -1878 0
-697 -382 0
2137 565 0
1066 3154 0
2882 -2796 0
2365 -2301 0
702 2465 0
3428 2780 0
3334 -2054 0
-3040 1892 0
2249 -674 0
-620 -1699 0
-1415 -695 0
-497 -739 0
1340 -797 0
-2402 515 0
2397 1309 0
-69 -792 0
71 -2343 0
-2318 -2242 0
-1287 2697 0
-2050 -2940 0
-1968 639 0
2232 -528 0
3053 221 0
1652 -2639 0
-1710 -388 0
3324 -650 0
-511 -3365 0
1552 919 0
2136 -351 0
3360 -2662 0
241 2839 0
2969 1940 0
28 241 0
-2055 1983 0
764 -1341 0
-1203 728 0
-2387 -1265 0
2887 3316 0
-682 562 0
-2958 1164 0
-3410 1942 0
-140 3067 0
598 2277 0
1480 -2203 0
1219 1229 0
-1690 -3406 0
1512 -1468 0
935 -2744 0
813 -62 0
676 2592 0
713 1989 0
1133 -1061 0
3485 1297 0
2120 2024 0
1926 -1433 0
-3411 1881 0
-1611 2413 0
1239 -2255 0
3235 -308 0
702 -942 0
-3194 213 0
1057 1999 0
2014 -534 0
-1990 1958 0
3360 -2204 0
-2139 -2953 0
1603 -2403 0
-1071 -1809 0
-3373 1961 0
2583 -3163 0
3504 1653 0
3444 -3463 0
-1099 -1003 0
-654 -3372 0
2091 104 0
2710 221 0
-1307 -3223 0
-1472 -781 0
-878 -3238 0
1213 23 0
-2326 -2703 0
1805 -2042 0
-1638 -3497 0
2888 -1358 0
-2545 3525 0
-1411 -2982 0
-2800 -137 0
-3485 -2664 0
3413 1570 0
-2319 1462 0
2947 2770 0
217 788 0
773 -2546 0
-1714 -3079 0
1535 3038 0
-1661 302 0
-1649 -1267 0
1568 3382 0
-2934 3260 0
991 -3449 0
999 -25 0
666 -2937 0
-2774 538 0
-2305 2871 0
2585 -2353 0
1441 777 0
1041 1419 0
-41 -1255 0
2035 515 0
-1083 -3015 0
-425 -1532 0
-2868 2033 0
826 924 0
3469 -35 0
1223 1694 0
3337 2321 0
3170 -766 0
96 -3394 0
739 -3062 0
1679 -3129 0
-2262 -2908 0
-2746 2825 0
1108 619 0
-3498 1695 0
-1515 378 0
-308 -1236 0
282 -747 0
-503 -728 0
-799 -639 0
-1637 -590 0
949 -1048 0
-592 -2361 0
942 1664 0
-1562 -3080 0
-604 -1333 0
-983 -1610 0
1961 -2638 0
-2766 -2239 0
-1960 -2218 0
-1117 -1174 0
1135 1581 0
-2342 -975 0
1751 3208 0
193 -2002 0
215 -1566 0
-2388 1177 0
1117 -595 0
1438 -2769 0
2409 2967 0
-803 -2229 0
-55 -1113 0
3294 -1890 0
-362 1920 0
1283 2660 0
2956 -399 0
-1748 1713 0
3291 1369 0
555 2407 0
2049 -2748 0
3272 378 0
2434 -3188 0
-2938 2596 0
620 3359 0
-2403 -100 0
-2690 3233 0
-2423 -2167 0
992 2206 0
2569 -2072 0
-1463 -1322 0
3021 -2861 0
1889 -672 0
-3330 -940 0
2854 -3399 0
-2924 1336 0
2651 -3334 0
-3039 -2306 0
-3489 -1899 0
-3076 3254 0
-2751 -1337 0
2244 457 0
227 -3339 0
2142 -1251 0
1384 770 0
2458 -2100 0
2728 -1547 0
1373 -2404 0
3121 -357 0
2708 -2000 0
492 836 0
1895 860 0
-2681 2620 0
3363 1544 0
-1969 2566 0
-1987 3140 0
1081 -3008 0
2039 1712 0
1436 -103 0
-2192 759 0
1193 -2980 0
2161 -2375 0
-1193 3470 0
2569 -1208 0
2492 -2513 0
3522 3231 0
-235 385 0
-2615 -481 0
-375 2969 0
1105 -762 0
-1540 -1396 0
-329 112 0
2610 -735 0
-1430 -3314 0
-1147 -692 0
200 2920 0
375 2149 0
-410 -3192 0
3447 1639 0
-16 -1901 0
447 -1447 0
2233 -696 0
-2098 -2261 0
268 245 0
2321 2389 0
-372 1749 0
-1763 3378 0
-2034 1717 0
3064 3482 0
-862 -3037 0
2083 -1383 0
2134 2380 0
-2414 3428 0
-2878 -2912 0
-2115 -2108 0
-726 -2511 0
-2263 703 0
2296 542 0
16 1339 0
-3187 716 0
1419 -465 0
-2417 -3422 0
-1669 201 0
814 -2115 0
2530 3200 0
-928 -1685 0
262 1820 0
-2068 2432 0
789 503 0
-3114 -2007 0
-2181 333 0
1932 2162 0
-2932 -1212 0
2511 -2995 0
-3524 -1906 0
-946 -1759 0
-62 707 0
-3022 837 0
-763 2745 0
-1864 -1538 0
-2205 2534 0
271 -3175 0
-3230 -2361 0
2574 685 0
-3008 -1128 0
335 -2999 0
-2326 -3309 0
2391 -180 0
-292 -663 0
1902 -2485 0
131 496 0
-3041 559 0
-2165 -2622 0
965 736 0
2140 958 0
-1441 -2706 0
-470 -3196 0
2743 -1223 0
2518 108 0
1087 545 0
-632 -1804 0
-2617 2569 0
1917 2674 0
-1503 2335 0
2143 -3208 0
-2332 2525 0
-880 2095 0
1453 133 0
-1374 -1040 0
1114 3057 0
-401 1367 0
1524 -60 0
-939 -1928 0
-411 2700 0
2842 -288 0
-2369 -2388 0
-2131 2101 0
-1504 2806 0
-280 -41 0
-3430 588 0
-1166 -3111 0
-762 -1374 0
334 1422 0
-2472 -2099 0
-2064 2907 0
-1860 3363 0
-3393 439 0
1207 -3047 0
-2976 1434 0
83 638 0
2375 -1820 0
-156 2346 0
1191 3172 0
1829 1215 0
-167 1495 0
661 -1095 0
76 1715 0
2301 -120 0
3020 306 0
-755 -1569 0
3150 -1909 0
1897 847 0
1740 -1936 0
-1055 2464 0
-1275 -3521 0
1842 -1764 0
2428 1110 0
2180 3418 0
-2770 3505 0
956 2301 0
1506 -3502 0
-2780 3382 0
2540 2728 0
602 430 0
3391 -1084 0
1468 2569 0
-2032 1362 0
-2278 3285 0
1990 962 0
-923 364 0
-731 -1374 0
-1050 2746 0
564 -301 0
-2930 -149 0
3152 -1251 0
-1426 -1431 0
590 123 0
1076 -2786 0
2924 187 0
736 -1006 0
-438 1794 0
-2402 -2455 0
-723 335 0
250 2016 0
300 3339 0
2968 -509 0
2078 3469 0
-2534 -912 0
-3333 -930 0
1830 -2780 0
3341 -1117 0
-830 2187 0
1785 2715 0
-2630 -1565 0
-1801 1713 0
2089 -3319 0
-1393 2040 0
-3409 -954 0
421 -799 0
375 -570 0
518 -3471 0
2926 -2523 0
-504 -3359 0
899 831 0
2025 -2440 0
1834 1750 0
-1923 -730 0
143 2253 0
-1866 318 0
-344 153 0
-1804 856 0
2996 2134 0
3121 -228 0
-2942 -2770 0
1846 -2605 0
-352 -3396 0
-1319 -2279 0
1469 2169 0
-959 2015 0
2381 992 0
-2548 -2363 0
188 -1872 0
-3047 -2814 0
1671 -2750 0
2777 2324 0
3173 -2561 0
1293 124 0
-634 230 0
-866 -2368 0
-166 1761 0
2785 -2010 0
2857 -2919 0
3100 924 0
1213 -3260 0
1346 408 0
2173 651 0
2618 -2852 0
-2939 3513 0
962 770 0
-1371 2981 0
896 -1127 0
-1216 408 0
800 2714 0
-1885 -1451 0
659 2223 0
-3147 -1873 0
1322 -1054 0
-128 600 0
-2889 -955 0
-648 -1004 0
-3325 3206 0
-2527 517 0
2786 1112 0
-2700 1646 0
2845 -2922 0
-2240 -1858 0
-2036 -628 0
-833 -2099 0
-371 3101 0
150 2052 0
881 -1804 0
1968 1215 0
3140 -951 0
1478 2871 0
1393 810 0
47 3405 0
3058 1186 0
-1647 1513 0
-752 660 0
1151 -3272 0
1428 1652 0
-132 1147 0
-923 -2935 0
-1345 2884 0
2923 2721 0
3304 3073 0
3056 3353 0
870 1761 0
-611 -1759 0
265 2336 0
-119 3506 0
-255 -1771 0
-1014 2682 0
2855 -3051 0
93 1322 0
732 -989 0
-2253 -1047 0
-1424 903 0
1207 -2151 0
-2677 -1605 0
2516 -3276 0
2233 -3339 0
-830 -1868 0
-2762 -1367 0
800 499 0
-1748 -2720 0
2088 -1556 0
-1516 -2309 0
600 -1003 0
-147 -1244 0
-758 633 0
1892 1733 0
-773 3026 0
3083 3475 0
-1875 1121 0
2885 1279 0
2258 3317 0
-1159 813 0
-2635 -1642 0
3042 -587 0
-1802 2217 0
-972 3305 0
-1764 -2043 0
3168 -639 0
930 750 0
-2846 -1269 0
-661 -2932 0
-2376 -1404 0
-1700 27 0
-2165 2519 0
-255 3382 0
-1768 1652 0
3118 -1099 0
2668 -2372 0
-43 -1852 0
-35 -2129 0
-2421 -3371 0
1140 -1946 0
-2993 3420 0
2079 3106 0
2161 1388 0
781 -1050 0
-470 -1589 0
-238 3166 0
3077 2888 0
1254 703 0
3232 -1580 0
-2101 -261 0
2071 3322 0
-1437 2276 0
2585 2389 0
1920 241 0
-337 2174 0
-980 -1734 0
2316 -72 0
726 -2427 0
-2048 1670 0
-2831 -1951 0
-2550 368 0
3 1066 0
1790 -1221 0
-3407 -359 0
196 -1563 0
1333 1001 0
-2080 -774 0
-1501 1325 0
-2474 762 0
3176 -270 0
-3292 -1710 0
-1048 3316 0
3130 -730 0
-857 -10 0
1486 -287 0
1723 1772 0
-3526 3421 0
2772 1883 0
-1283 -1838 0
2905 -315 0
1340 467 0
2345 1270 0
2792 -2550 0
-2276 3024 0
3299 3000 0
-3482 -1501 0
1468 -1880 0
281 2767 0
-2184 -2410 0
1000 -227 0
-334 1739 0
-2541 -2386 0
1679 990 0
3421 1670 0
1977 -3327 0
-1377 -96 0
-1339 1686 0
1577 2510 0
-1061 1461 0
-2743 3374 0
1095 1346 0
-2038 -26 0
-1637 3183 0
-1745 273 0
2406 1619 0
-2737 325 0
625 1518 0
2277 891 0
3024 -371 0
-2385 -1013 0
-3089 3330 0
-1283 750 0
-2175 -1906 0
1187 -1245 0
-740 246 0
29 -425 0
2973 2914 0
-2483 -1245 0
1060 -1490 0
192 3056 0
2107 -1228 0
-15 1554 0
370 -420 0
916 2223 0
-1818 328 0
-2386 -277 0
-3319 602 0
87 -959 0
1256 1333 0
-904 -2298 0
1362 -3198 0
-2501 197 0
2466 -2026 0
311 -295 0
2974 3130 0
292 -1071 0
-817 -908 0
1150 130 0
790 -1197 0
1583 -198 0
-2975 -1614 0
-367 3124 0
-2598 2566 0
2244 -1352 0
-1406 -853 0
-2574 1048 0
1370 3346 0
-951 1887 0
-12 -1053 0
2566 510 0
2507 878 0
-2498 -2355 0
-3167 2725 0
705 -889 0
2446 28 0
-3096 -3360 0
1440 -1243 0
-704 -1421 0
1407 -1959 0
-2915 203 0
2721 1968 0
-2058 335 0
-448 -117 0
-1085 -2775 0
-1045 -27 0
-1675 -1584 0
-408 -332 0
3282 1779 0
382 -1995 0
1770 2230 0
2774 347 0
2434 1709 0
-2652 -1295 0
1044 -329 0
-1461 -2966 0
-269 29 0
-2663 -3324 0
-3105 -16 0
-748 3503 0
-59 -3103 0
-784 2134 0
-2048 -2054 0
-1569 735 0
-1314 -2618 0
2099 -2930 0
3528 -33 0
919 251 0
2612 -3009 0
1926 3415 0
-1195 -341 0
2096 914 0
1185 462 0
1895 -516 0
3337 1625 0
-1695 -2197 0
2460 280 0
2633 -234 0
-2305 -1645 0
-1862 1684 0
-2420 2441 0
3434 -3070 0
3374 -3236 0
499 2867 0
-925 2187 0
-3158 3285 0
-3013 1987 0
845 2703 0
-2038 1505 0
-1573 -173 0
-324 2060 0
-1526 -1949 0
-1162 -679 0
2362 -2517 0
3138 646 0
1904 948 0
1752 -1334 0
1473 2441 0
-226 -2156 0
2910 768 0
-3241 -3137 0
-2009 -1841 0
-1048 -1007 0
2027 3054 0
-843 2267 0
1531 -2664 0
2939 -1746 0
1597 -1155 0
1078 3340 0
2434 2531 0
1903 -2734 0
-3189 -293 0
-1797 1419 0
-349 205 0
2659 1957 0
1697 97 0
-3485 3286 0
1730 -2614 0
3111 -823 0
-3080 2080 0
-1222 945 0
-183 -2335 0
-2009 3404 0
2210 2317 0
1367 2609 0
74 1476 0
-2421 -1094 0
-33 -2784 0
2879 2617 0
50 -444 0
361 633 0
2078 -934 0
1297 -2939 0
1206 -3259 0
1195 316 0
3294 -3232 0
2442 1742 0
1329 -1461 0
1889 -1780 0
-723 3410 0
-2823 821 0
-2906 -490 0
-993 3402 0
-2677 -3222 0
-2268 -2199 0
-1951 -31 0
-1046 -1498 0
1673 -1963 0
3031 -489 0
2763 1076 0
376 -3496 0
75 -2953 0
-2796 1682 0
-2257 686 0
-2017 3416 0
-1741 420 0
2206 1088 0
-1343 -356 0
929 2499 0
-3355 -979 0
1682 -631 0
-2496 -1746 0
-1068 -1342 0
2398 2260 0
3054 1323 0
868 679 0
2835 -2785 0
-1175 2176 0
-1161 -2741 0
1965 3464 0
-2795 2255 0
-1055 -456 0
3296 -3130 0
2805 3005 0
-2096 2135 0
3526 -557 0
234 -2071 0
-231 3348 0
1224 3454 0
-1872 2811 0
2627 2621 0
-3202 1457 0
2055 -2739 0
-1130 3404 0
2236 -3488 0
992 827 0
-1838 1808 0
691 2691 0
2727 -3366 0
68 -1287 0
992 2843 0
92 2271 0
3377 2273 0
3285 -2363 0
1539 -2433 0
-2559 -2902 0
-766 -2123 0
-2421 -1549 0
3344 726 0
-2230 2649 0
-758 1782 0
-907 -3120 0
1490 -3411 0
2505 651 0
2945 2676 0
-2561 2117 0
-1059 -1775 0
778 3240 0
-3089 -723 0
-3086 2621 0
252 2777 0
1760 -2706 0
1521 1670 0
1297 -2574 0
-3342 3218 0
3042 1353 0
2503 3395 0
427 -2536 0
322 2633 0
-1027 711 0
2483 -1780 0
-2746 1383 0
3036 -1361 0
2888 827 0
3151 948 0
-1891 -895 0
175 -1377 0
-3099 462 0
2782 -316 0
-59 -638 0
-2351 511 0
2253 -1011 0
282 50 0
-1174 -2007 0
606 3508 0
-1659 -2349 0
2986 -1245 0
952 852 0
1374 -1208 0
3363 2020 0
1949 2053 0
-436 557 0
-203 463 0
-868 -1285 0
-1397 -1327 0
-2343 3001 0
-2108 792 0
1493 -114 0
2052 1574 0
1044 -3483 0
1510 2059 0
2158 -3309 0
1913 -3079 0
-2126 2359 0
254 -470 0
-1034 -2855 0
-2870 -2368 0
-2904 -1503 0
-122 980 0
-2912 3481 0
360 -384 0
-370 -99 0
2962 -1935 0
-3385 89 0
1917 2629 0
3473 2053 0
-1669 1213 0
1444 -2536 0
3387 177 0
-3145 -3499 0
2108 -852 0
2747 1594 0
-1042 -1897 0
1265 2286 0
2507 566 0
-667 -1804 0
-459 -686 0
3059 1069 0
-35 -1776 0
2039 -2011 0
-2935 1719 0
-1135 -534 0
506 1733 0
293 -1901 0
1413 151 0
-2702 -785 0
1251 -1164 0
-442 1255 0
1770 -711 0
-598 1489 0
1129 -2726 0
2239 297 0
-2123 2344 0
-341 -367 0
-1592 -1933 0
-253 -2711 0
554 -2867 0
464 111 0
823 -2019 0
-576 -413 0
-2327 -1974 0
-2262 -1529 0
-2572 2667 0
-521 -2970 0
2775 1732 0
-1550 -930 0
-3441 -2164 0
1665 2033 0
2487 3262 0
1273 1350 0
3232 -2601 0
505 -2433 0
-56 2959 0
1990 -1040 0
1902 2001 0
1438 -1166 0
-1315 83 0
1993 232 0
1107 -489 0
-2359 2887 0
2733 -1622 0
-1253 -398 0
-1832 3250 0
-1443 -1530 0
386 -10 0
-999 -3296 0
173 3020 0
1383 764 0
-1709 1362 0
-2306 -3246 0
-1650 -563 0
1981 -3122 0
-1431 2616 0
-625 394 0
1717 -1047 0
2947 2249 0
-350 3110 0
-1802 -2905 0
-3428 -2383 0
2581 3204 0
-3432 2077 0
2560 2099 0
1835 -2337 0
-518 -1871 0
3130 1260 0
-858 571 0
-2228 2187 0
-290 -2221 0
3224 2697 0
-1299 -2952 0
3498 -2011 0
-1451 -1759 0
1836 -3480 0
-2683 241 0
-2739 949 0
1399 -1030 0
2379 373 0
2635 3196 0
1752 1738 0
-1843 -2613 0
-3251 -113 0
1696 -2608 0
2253 3154 0
3023 -1118 0
-764 -1786 0
3068 -2652 0
-3309 254 0
1445 3206 0
3286 -2369 0
2874 -2855 0
-3072 315 0
3405 -880 0
164 2188 0
-1646 -3494 0
-118 3509 0
-840 1974 0
-3191 1903 0
1159 -2976 0
2952 -3133 0
3304 872 0
-1103 -143 0
-2388 2666 0
-3359 2951 0
779 -320 0
-2015 -118 0
-2630 3192 0
1494 3293 0
2392 2414 0
150 3353 0
2564 2134 0
-452 -405 0
2001 -1880 0
-524 927 0
-452 2569 0
-2902 2480 0
1615 2683 0
-765 -1157 0
3330 -766 0
-498 -1470 0
-1371 21 0
3160 -684 0
231 -2533 0
1888 -962 0
123 2572 0
2783 -1134 0
2822 1551 0
3521 -1817 0
1794 -757 0
-1386 324 0
-594 3285 0
-940 -499 0
2193 2118 0
2342 3163 0
-189 -2015 0
1665 -1094 0
3207 -1848 0
-1916 -1984 0
-990 1211 0
-450 -3102 0
1925 2261 0
1800 581 0
798 1933 0
-1598 2602 0
-3456 -2707 0
-2693 1145 0
2075 -1521 0
523 3128 0
821 1342 0
-303 -2435 0
-1054 -1614 0
1606 -534 0
-1403 165 0
1354 1192 0
2193 -3181 0
-1106 568 0
2772 586 0
3054 -2315 0
2190 -3019 0
861 766 0
259 -2358 0
-979 3496 0
-1334 -3175 0
-147 -2589 0
-2383 -967 0
2370 911 0
-2722 1279 0
-2834 2346 0
-1283 -1776 0
-993 1228 0
801 586 0
2127 -514 0
2312 -568 0
948 -2279 0
2023 3240 0
-1593 3188 0
1318 -3503 0
241 -1103 0
2724 -2186 0
1412 -178 0
2434 -286 0
-1644 -2478 0
2637 -2073 0
213 -414 0
-2776 1047 0
389 -820 0
-1607 2214 0
-2132 1530 0
530 3386 0
3353 -2986 0
-3019 2269 0
-402 945 0
637 -52 0
2064 -2989 0
-1629 -2212 0
-3069 -1939 0
-1603 351 0
-2713 -1984 0
-2060 510 0
69 85 0
1596 -471 0
2617 -2056 0
-604 1857 0
-2433 1362 0
2027 1145 0
-251 1155 0
2562 -210 0
-2085 -3357 0
888 2584 0
3301 689 0
-1439 2511 0
-2605 1845 0
2207 -2128 0
-859 299 0
-2762 966 0
270 3398 0
2188 -2380 0
-697 1262 0
-604 -1632 0
-914 179 0
-2014 1246 0
-844 427 0
-2549 -1342 0
260 -1984 0
2097 1532 0
3481 2023 0
353 -100 0
-2659 3160 0
1576 1612 0
553 2413 0
1972 2147 0
1071 3247 0
1136 -3137 0
-323 1020 0
-2925 3336 0
2281 2016 0
1933 1622 0
-1603 -2665 0
724 -852 0
-2225 229 0
-3458 -1161 0
3070 -533 0
1925 2752 0
1568 602 0
-1584 -1499 0
-2898 376 0
840 1078 0
201 366 0
-2773 2392 0
127 -2705 0
-1218 -2529 0
717 1479 0
3372 1269 0
1811 -3149 0
-876 624 0
-301 -3330 0
3527 -2872 0
2279 1911 0
888 2734 0
2112 1723 0
-2613 -1148 0
211 2717 0
-666 1033 0
-39 -2668 0
1087 -1669 0
1506 3382 0
-2170 486 0
266 1129 0
3092 313 0
-3516 433 0
3450 -3346 0
779 523 0
-840 723 0
58 -2816 0
599 -1519 0
3174 3195 0
1337 -481 0
-2053 -1757 0
756 -623 0
-558 44 0
2149 1093 0
-1048 2678 0
-1232 3191 0
3264 -2515 0
-2436 2728 0
2090 -2386 0
-2054 1741 0
1130 1612 0
2459 -1342 0
-495 983 0
-3109 717 0
2333 -1376 0
476 -2987 0
324 -408 0
-749 777 0
-610 -2503 0
3501 1243 0
1804 910 0
-1575 2876 0
462 -1734 0
1809 1675 0
-2639 -322 0
1273 1872 0
1425 3369 0
2448 2990 0
-1589 -1530 0
2041 -14 0
562 -450 0
1704 -950 0
165 -2658 0
-1720 -1732 0
2159 -2968 0
3290 -1222 0
442 -2375 0
1456 -3226 0
-3012 -2578 0
-2185 -1529 0
2348 -2513 0
-864 1028 0
-926 -674 0
-549 -3180 0
1628 2371 0
3163 -2024 0
2923 -1980 0
319 3164 0
211 742 0
3072 -682 0
2402 904 0
250 -930 0
3240 1976 0
-1966 2980 0
-178 -2997 0
-840 2934 0
2381 1715 0
3208 2846 0
1626 -3185 0
