c bounds 81 81
p cnf 730 2336
71 -16 0
-589 -172 0
5 186 0
692 380 0
-326 394 0
-277 112 0
208 256 0
-91 360 0
199 -151 0
-431 649 0
352 559 0
305 -671 0
-690 -24 0
-96 -263 0
84 -652 0
-609 -597 0
-36 -327 0
452 -488 0
-434 149 0
60 541 0
-367 -204 0
502 -655 0
435 351 0
-221 167 0
191 -440 0
-337 -543 0
585 459 0
-571 -482 0
-133 661 0
611 -376 0
-482 290 0
681 -616 0
-610 568 0
-377 -450 0
-501 321 0
486 554 0
-382 679 0
25 -696 0
236 451 0
140 422 0
-149 2 0
-132 468 0
-58 -447 0
-491 -588 0
104 -203 0
-342 -51 0
-709 -300 0
-177 -672 0
-61 591 0
-24 468 0
-55 -139 0
514 435 0
470 -122 0
-8 245 0
-196 283 0
-339 347 0
324 530 0
470 620 0
183 -522 0
-321 -320 0
-168 -307 0
708 198 0
-476 -642 0
323 -504 0
-192 534 0
-548 397 0
-365 17 0
-661 -350 0
570 -393 0
93 605 0
-193 -300 0
88 -67 0
264 380 0
-88 234 0
-40 221 0
21 285 0
103 -581 0
-710 -355 0
537 -503 0
-27 480 0
-136 -562 0
-394 171 0
-108 -149 0
244 -428 0
562 -273 0
-115 38 0
471 148 0
-410 -630 0
-184 112 0
-82 -434 0
-317 720 0
50 497 0
91 643 0
303 -583 0
-535 -127 0
-250 18 0
574 -578 0
-528 216 0
-457 -98 0
385 -146 0
204 -618 0
-456 193 0
-266 -290 0
579 191 0
-196 228 0
304 209 0
-327 -534 0
470 -614 0
-51 44 0
608 260 0
-585 557 0
493 -612 0
218 14 0
316 613 0
-655 -184 0
532 -431 0
-326 -434 0
378 -661 0
175 -349 0
432 -605 0
-251 -253 0
571 444 0
-538 709 0
283 439 0
-105 585 0
-373 47 0
621 519 0
-501 -376 0
-155 542 0
-82 -711 0
205 258 0
206 643 0
-416 149 0
-588 -420 0
407 -217 0
-282 245 0
-280 -135 0
-42 -729 0
294 -241 0
-483 723 0
381 133 0
-660 136 0
-505 -625 0
-370 -237 0
-473 598 0
341 -210 0
150 559 0
152 -80 0
620 287 0
-504 481 0
611 -219 0
-331 -203 0
320 -307 0
389 -395 0
105 -260 0
-456 285 0
-45 421 0
422 364 0
-310 591 0
-32 407 0
224 174 0
-120 -26 0
124 585 0
-431 573 0
651 125 0
-543 -375 0
-455 428 0
60 340 0
-225 513 0
-158 53 0
-535 293 0
-79 92 0
-506 563 0
479 -567 0
-302 -431 0
412 -727 0
-156 659 0
297 453 0
-368 -418 0
-51 -350 0
236 265 0
-90 -583 0
-14 -314 0
-706 -248 0
516 43 0
-625 -11 0
632 -34 0
-402 239 0
335 316 0
-480 516 0
57 -509 0
322 -159 0
-232 -288 0
-356 -247 0
-128 -606 0
-481 510 0
629 -94 0
168 -155 0
353 622 0
565 635 0
-642 445 0
261 462 0
-301 257 0
246 523 0
-580 608 0
-302 -433 0
403 -660 0
-709 -277 0
351 -211 0
-95 384 0
-677 -262 0
-163 87 0
-670 -484 0
-198 72 0
321 614 0
-87 585 0
245 -323 0
498 -64 0
-434 -634 0
424 62 0
511 -431 0
-302 569 0
378 349 0
-182 -170 0
525 -284 0
-521 696 0
644 565 0
653 57 0
-341 507 0
624 427 0
480 -254 0
-251 279 0
30 264 0
726 161 0
173 -548 0
-145 -575 0
577 -528 0
-458 -485 0
-266 399 0
579 62 0
233 476 0
-533 -649 0
-449 -398 0
-461 -45 0
-589 649 0
-308 357 0
346 612 0
701 84 0
291 585 0
-402 -407 0
-154 229 0
-152 -633 0
-707 -291 0
-279 -260 0
-613 717 0
-255 156 0
-339 316 0
142 652 0
666 633 0
-257 607 0
-97 -61 0
60 -344 0
-486 -348 0
-665 697 0
275 -92 0
683 -24 0
-206 -455 0
542 172 0
675 -587 0
-289 -65 0
-521 9 0
28 608 0
-43 -73 0
258 -267 0
215 626 0
-720 1 0
-642 76 0
363 278 0
411 -438 0
552 61 0
-160 523 0
-498 -67 0
421 -328 0
567 -284 0
-539 -210 0
-654 81 0
212 427 0
-331 283 0
-73 -73 0
177 -169 0
321 -155 0
105 -146 0
-177 -543 0
-240 518 0
217 717 0
-150 544 0
-65 675 0
-86 60 0
64 -16 0
-43 687 0
-372 -453 0
196 -609 0
471 452 0
-619 -347 0
-228 -93 0
-19 385 0
-66 93 0
-325 546 0
391 -107 0
-375 558 0
141 265 0
-65 391 0
-446 -78 0
226 -372 0
-26 -77 0
729 -93 0
-679 -459 0
-655 515 0
227 288 0
-267 525 0
322 -183 0
-645 -372 0
-599 201 0
398 -85 0
245 -564 0
708 -472 0
-685 -615 0
594 -100 0
-508 162 0
-507 584 0
-65 422 0
574 521 0
-660 606 0
-259 -435 0
426 26 0
-221 -38 0
-365 132 0
-658 72 0
-512 -460 0
188 -168 0
200 -224 0
400 -591 0
216 321 0
-683 599 0
92 -298 0
233 346 0
-224 261 0
-553 -676 0
103 392 0
257 479 0
-161 270 0
148 429 0
156 460 0
-655 225 0
-367 -166 0
324 -590 0
361 606 0
-353 639 0
-246 -298 0
-692 -654 0
-587 -440 0
496 -207 0
-280 -259 0
-560 -153 0
-461 408 0
618 -630 0
132 -181 0
-725 -583 0
228 -251 0
637 204 0
432 204 0
-630 670 0
138 225 0
108 -520 0
-72 -633 0
-101 -341 0
-280 691 0
-327 128 0
213 -723 0
-395 -561 0
-676 435 0
-137 488 0
-474 422 0
-472 -34 0
-527 -698 0
126 209 0
-42 -55 0
577 546 0
-225 -443 0
532 -210 0
73 -226 0
-107 596 0
542 -291 0
148 -611 0
403 148 0
641 -715 0
126 620 0
465 462 0
-482 229 0
-95 -142 0
600 335 0
80 389 0
324 350 0
-67 -399 0
-219 375 0
-353 -63 0
-168 569 0
10 71 0
-490 246 0
-412 -429 0
426 591 0
465 128 0
-163 -154 0
3 164 0
228 -443 0
-610 661 0
-599 -111 0
-671 598 0
-684 -348 0
-418 216 0
-384 -506 0
132 -612 0
-54 -292 0
100 -463 0
272 566 0
-465 -522 0
-543 279 0
-616 557 0
417 144 0
478 -601 0
652 -415 0
1 629 0
-383 213 0
439 148 0
-533 -267 0
47 417 0
234 378 0
-571 -340 0
-259 71 0
318 -42 0
484 -498 0
333 -307 0
-339 511 0
-359 152 0
-86 -623 0
-338 164 0
61 16 0
361 625 0
364 701 0
442 -99 0
-490 -367 0
-32 -361 0
-117 517 0
141 6 0
164 121 0
-16 -196 0
-484 -423 0
-362 -228 0
445 427 0
85 -191 0
354 386 0
514 544 0
69 153 0
427 386 0
679 57 0
-81 -337 0
-377 710 0
57 680 0
80 -256 0
-266 -592 0
-647 84 0
-431 -536 0
562 -374 0
54 -241 0
-331 -160 0
76 344 0
414 204 0
580 -712 0
218 -522 0
346 -553 0
647 664 0
553 244 0
-636 259 0
-712 -448 0
-466 -298 0
311 661 0
41 220 0
105 480 0
-458 147 0
-634 -308 0
-383 310 0
-107 -551 0
288 -606 0
9 -171 0
-543 -686 0
465 249 0
-490 -478 0
-233 486 0
653 -187 0
411 -531 0
584 -117 0
-347 415 0
5 696 0
-133 195 0
46 -24 0
-337 99 0
-656 -550 0
-318 309 0
-67 -672 0
542 -688 0
334 -233 0
546 -314 0
-510 415 0
-505 106 0
-554 340 0
81 -499 0
-552 485 0
560 -75 0
647 363 0
472 -374 0
392 64 0
-565 205 0
598 305 0
-12 487 0
-124 558 0
-430 31 0
260 439 0
-159 -100 0
171 -24 0
654 -66 0
-440 -169 0
481 371 0
442 -388 0
-218 545 0
706 -597 0
316 272 0
-302 -333 0
-243 691 0
440 27 0
162 498 0
-220 174 0
614 -605 0
627 442 0
306 457 0
-416 182 0
-617 692 0
-546 -359 0
-705 -416 0
-203 -705 0
517 -56 0
234 -89 0
189 620 0
-211 380 0
-490 170 0
-626 -32 0
-202 121 0
161 590 0
519 249 0
705 622 0
216 -378 0
557 -728 0
-15 381 0
421 332 0
58 321 0
468 432 0
193 -642 0
-173 377 0
-11 -414 0
-484 -236 0
-350 494 0
176 494 0
281 322 0
557 -568 0
-403 -356 0
235 424 0
-470 -39 0
96 -663 0
-246 -586 0
343 -416 0
-654 -631 0
-346 -675 0
200 218 0
-85 -300 0
-395 -307 0
506 -313 0
401 -200 0
8 -248 0
-197 -203 0
-705 439 0
-343 417 0
-484 -20 0
-708 605 0
-86 285 0
-174 -12 0
-426 323 0
689 -194 0
-337 533 0
-710 -303 0
-595 174 0
483 700 0
-287 564 0
194 253 0
-280 496 0
37 -95 0
155 385 0
-334 448 0
696 -692 0
-473 219 0
-693 -11 0
651 264 0
510 -348 0
175 164 0
-601 82 0
-460 -51 0
632 566 0
-85 617 0
-72 334 0
157 -125 0
-293 328 0
-680 -7 0
-122 53 0
-194 -453 0
174 -30 0
128 -579 0
273 -300 0
-454 390 0
-650 353 0
-255 -185 0
263 -226 0
717 -421 0
-44 -409 0
-306 564 0
-698 -594 0
-20 -58 0
381 -201 0
-445 -586 0
321 -456 0
-624 300 0
656 -669 0
-493 432 0
-362 -49 0
403 -499 0
67 -535 0
-599 289 0
322 -101 0
577 442 0
538 162 0
550 -136 0
-680 345 0
389 521 0
74 292 0
526 -662 0
-547 -4 0
459 574 0
189 629 0
511 -49 0
-672 530 0
-302 -349 0
375 -7 0
-680 -395 0
633 -638 0
-277 354 0
-262 519 0
294 202 0
-236 -728 0
-670 -412 0
-502 -571 0
343 -541 0
500 -370 0
164 -599 0
239 -327 0
-524 -55 0
-657 -63 0
577 -593 0
637 -408 0
-119 126 0
405 309 0
-402 -241 0
-33 -718 0
-46 -60 0
-717 96 0
-252 -216 0
-253 -610 0
614 -224 0
-268 -357 0
-382 231 0
-441 -533 0
442 -302 0
-670 355 0
-270 -406 0
258 -552 0
-511 -154 0
126 -73 0
420 544 0
-562 -571 0
-603 529 0
118 434 0
-419 -313 0
-158 -190 0
-105 -681 0
500 275 0
-459 -589 0
667 481 0
76 -652 0
-306 699 0
-47 707 0
-313 418 0
-333 129 0
592 -379 0
265 623 0
-382 652 0
-217 386 0
555 272 0
594 -258 0
401 147 0
-501 -119 0
-653 27 0
467 -621 0
54 -693 0
-293 -666 0
82 -168 0
-159 311 0
585 -644 0
422 385 0
-718 -135 0
322 649 0
-228 119 0
7 -588 0
-401 88 0
351 298 0
-193 134 0
165 519 0
-156 -59 0
-228 169 0
637 -31 0
481 309 0
-9 -356 0
40 714 0
310 -189 0
-556 389 0
-307 77 0
-114 -683 0
636 -23 0
549 478 0
82 262 0
527 -431 0
577 -476 0
126 -577 0
612 -193 0
137 444 0
630 -13 0
153 209 0
-40 -626 0
480 -657 0
585 -126 0
701 507 0
-501 -534 0
-267 -575 0
-301 552 0
-726 518 0
-298 68 0
-23 -370 0
-72 340 0
-222 -194 0
-376 709 0
-344 543 0
193 1 0
-532 -155 0
370 316 0
613 234 0
38 -308 0
-56 -598 0
-215 204 0
709 -180 0
-698 585 0
649 -24 0
50 -594 0
590 -177 0
-374 79 0
-144 637 0
514 258 0
-418 672 0
3 -416 0
-536 -307 0
-402 -499 0
555 -722 0
-551 -652 0
325 347 0
-632 668 0
709 161 0
-51 -232 0
237 355 0
-194 714 0
-593 377 0
488 -267 0
552 261 0
-695 464 0
-712 57 0
716 -57 0
-689 -271 0
-65 -124 0
607 346 0
109 -520 0
-54 -222 0
81 670 0
-728 79 0
430 640 0
174 -270 0
493 492 0
235 132 0
-387 -536 0
400 -96 0
183 652 0
300 -282 0
693 -14 0
682 -537 0
-560 678 0
-386 297 0
623 -36 0
-428 -717 0
-428 205 0
-318 -441 0
471 277 0
-707 -574 0
484 -499 0
258 -214 0
-287 485 0
-336 460 0
-659 442 0
514 -337 0
-33 464 0
-374 -211 0
36 -303 0
-642 501 0
-523 330 0
-260 -218 0
493 602 0
-206 627 0
-55 466 0
485 -67 0
686 555 0
-42 -115 0
-67 -143 0
-133 98 0
-543 596 0
-459 -533 0
660 -491 0
60 -46 0
-581 -398 0
-263 -443 0
-373 -327 0
262 74 0
540 -45 0
-120 166 0
-413 -723 0
-282 208 0
-482 539 0
-143 -387 0
-292 -437 0
-222 627 0
-185 -275 0
-228 -659 0
-596 264 0
559 -158 0
-262 -491 0
-593 54 0
-262 -13 0
194 57 0
303 -355 0
-454 507 0
-437 -334 0
515 -616 0
-169 -544 0
635 322 0
45 699 0
-331 -255 0
-553 -137 0
310 104 0
-525 -472 0
-512 -552 0
589 212 0
-387 -266 0
-176 253 0
-243 -20 0
-29 643 0
242 -417 0
423 360 0
40 -419 0
71 -217 0
-372 -453 0
350 724 0
-726 -723 0
-221 496 0
238 -119 0
717 -262 0
85 3 0
-393 698 0
235 -430 0
-491 220 0
479 244 0
351 -152 0
208 31 0
-438 -366 0
-725 -140 0
-628 -663 0
-370 -490 0
-383 -248 0
414 -597 0
104 -46 0
-365 384 0
291 -573 0
-441 318 0
594 627 0
-468 414 0
-562 318 0
565 597 0
712 -277 0
-32 395 0
-219 -29 0
-116 242 0
-289 -476 0
454 -45 0
-719 -634 0
-437 167 0
-298 121 0
-599 577 0
68 -46 0
-560 34 0
323 -638 0
-488 -296 0
-223 -666 0
-333 -75 0
462 499 0
-159 441 0
-146 608 0
-631 -469 0
-396 553 0
-447 -684 0
227 235 0
668 -265 0
194 -537 0
394 -282 0
-624 427 0
205 -324 0
-449 486 0
-547 -355 0
-108 246 0
-715 -298 0
563 -589 0
-582 -531 0
-167 405 0
93 553 0
-111 598 0
-695 23 0
156 589 0
575 -292 0
270 369 0
-593 383 0
-81 577 0
34 -4 0
-117 253 0
649 -406 0
-616 -165 0
377 -702 0
301 -583 0
-539 -352 0
-142 -429 0
-40 -46 0
-184 -43 0
48 -550 0
60 228 0
126 -93 0
157 -512 0
50 234 0
-433 -641 0
651 641 0
244 619 0
147 471 0
202 -271 0
-658 595 0
-380 470 0
221 -312 0
96 -574 0
487 257 0
713 449 0
201 486 0
229 -164 0
584 284 0
-583 79 0
-571 319 0
-62 602 0
-52 -444 0
525 -267 0
273 311 0
315 130 0
-566 -125 0
487 332 0
209 -353 0
367 668 0
-343 388 0
700 -395 0
211 -458 0
448 -207 0
-19 -562 0
-40 162 0
72 639 0
-370 553 0
141 34 0
-406 -596 0
242 236 0
618 164 0
-491 651 0
388 -276 0
-416 254 0
-700 343 0
-462 -46 0
-260 -49 0
309 -520 0
-601 701 0
201 -435 0
717 652 0
417 -416 0
199 -306 0
-560 -615 0
725 321 0
-337 -428 0
-188 439 0
380 -450 0
639 -266 0
133 25 0
-316 -533 0
-268 365 0
384 189 0
363 -141 0
535 613 0
468 291 0
27 235 0
-88 595 0
546 305 0
199 -317 0
-240 -616 0
-191 391 0
471 -686 0
110 363 0
439 429 0
-628 -163 0
235 682 0
-668 -215 0
-84 -654 0
-505 -376 0
-292 -399 0
-657 -43 0
24 -537 0
-269 634 0
113 -492 0
279 -402 0
366 -167 0
496 508 0
-590 679 0
-590 524 0
19 393 0
124 662 0
-506 600 0
355 -72 0
-217 147 0
-397 -597 0
202 5 0
-279 68 0
-345 -190 0
309 -158 0
652 -16 0
485 -534 0
-726 -78 0
489 325 0
170 -723 0
221 -20 0
325 -447 0
-251 252 0
293 -146 0
-636 -91 0
668 -655 0
-398 -337 0
444 577 0
-240 -707 0
126 303 0
-522 415 0
436 -441 0
-671 -436 0
69 -395 0
114 -194 0
485 539 0
500 9 0
170 249 0
-471 -492 0
-331 388 0
89 378 0
-306 306 0
509 -266 0
513 -644 0
-66 -203 0
342 -352 0
-482 570 0
88 -16 0
-24 -93 0
713 -68 0
-167 264 0
100 405 0
62 -669 0
-72 621 0
-131 -47 0
-481 -729 0
-725 -242 0
-401 -11 0
664 714 0
674 -458 0
-251 406 0
627 620 0
-693 -608 0
171 -12 0
-203 24 0
74 -421 0
1 165 0
528 -12 0
4 -53 0
631 222 0
523 -241 0
676 486 0
579 141 0
421 -476 0
541 -161 0
-698 231 0
272 649 0
-56 -111 0
162 -206 0
-262 -473 0
650 546 0
-119 614 0
651 -319 0
667 -145 0
258 -406 0
-320 89 0
-280 -215 0
-683 16 0
89 -502 0
423 562 0
327 -682 0
136 -720 0
-575 -3 0
696 363 0
-693 -90 0
200 -281 0
639 539 0
-360 239 0
27 -13 0
79 89 0
-482 494 0
722 297 0
-127 109 0
140 262 0
595 633 0
703 -543 0
-353 -103 0
-165 -105 0
95 238 0
640 -120 0
-653 -675 0
-87 -6 0
89 -15 0
-8 523 0
574 471 0
126 606 0
-279 -146 0
-453 71 0
-10 558 0
-428 337 0
479 -226 0
-570 527 0
-503 -465 0
580 428 0
-534 539 0
580 -303 0
93 608 0
-651 186 0
-133 238 0
656 -459 0
-177 329 0
-526 48 0
-663 481 0
280 -686 0
129 -510 0
-87 488 0
-633 671 0
-457 -674 0
-32 -187 0
-223 118 0
-111 208 0
188 -214 0
336 -268 0
-447 -586 0
-250 32 0
130 621 0
-686 -683 0
346 -473 0
-406 -356 0
-725 -667 0
-99 -402 0
-6 362 0
-252 -57 0
-531 -583 0
513 -498 0
151 148 0
232 -615 0
260 721 0
-221 3 0
-450 -359 0
190 -266 0
464 -684 0
-575 202 0
520 -544 0
-364 19 0
-580 -729 0
315 -197 0
212 234 0
572 692 0
97 -611 0
-39 -618 0
-684 -367 0
-370 -601 0
548 -581 0
-228 301 0
-630 576 0
-430 111 0
429 -398 0
-106 -300 0
-105 68 0
459 208 0
322 152 0
529 -718 0
-326 561 0
417 435 0
-75 -702 0
480 -61 0
-135 -395 0
240 -457 0
583 -615 0
-443 -590 0
663 -390 0
-53 -6 0
-447 272 0
640 -135 0
-45 526 0
652 382 0
-97 -269 0
-206 261 0
-187 -460 0
-425 -688 0
-597 417 0
613 -270 0
-20 -137 0
-454 712 0
153 95 0
-212 -217 0
-103 -434 0
212 648 0
-504 -662 0
636 -155 0
-396 509 0
-339 -559 0
-680 -393 0
-108 401 0
-176 344 0
-187 486 0
306 -700 0
-698 -128 0
-657 -473 0
365 563 0
468 195 0
-638 8 0
555 -457 0
-624 201 0
-634 31 0
-393 498 0
91 183 0
644 -226 0
-353 496 0
437 257 0
-191 -576 0
-461 157 0
-102 159 0
716 -498 0
-728 313 0
397 205 0
29 -73 0
212 3 0
-676 -389 0
442 662 0
-260 525 0
-473 182 0
-605 -13 0
-155 -459 0
-582 -259 0
489 489 0
-312 -728 0
452 -548 0
480 -55 0
-538 156 0
227 -671 0
-280 -726 0
38 -214 0
646 423 0
476 -677 0
-94 155 0
-102 132 0
-163 -428 0
596 -402 0
586 -524 0
-247 641 0
-562 -181 0
179 -315 0
-684 59 0
-267 -347 0
-533 691 0
198 -520 0
470 679 0
591 -503 0
420 -342 0
-398 -534 0
299 -44 0
-241 684 0
-693 -201 0
-140 480 0
-221 183 0
414 622 0
-505 -344 0
-20 698 0
-293 -300 0
130 585 0
-30 295 0
527 -625 0
-653 89 0
-599 -102 0
71 -572 0
-251 664 0
50 80 0
256 -707 0
305 220 0
-724 -185 0
4 -370 0
-39 25 0
54 -501 0
-406 -232 0
-107 -624 0
686 60 0
-111 439 0
-403 -370 0
-154 245 0
-222 -403 0
-298 700 0
-397 227 0
668 -376 0
523 307 0
442 314 0
-228 205 0
-39 334 0
-23 -535 0
-526 131 0
-200 -356 0
-114 -22 0
665 82 0
-449 724 0
-454 147 0
494 510 0
470 -683 0
-339 -243 0
226 -49 0
271 -396 0
-189 -450 0
478 -719 0
-677 198 0
-150 172 0
679 -403 0
400 213 0
-131 673 0
257 -297 0
-11 -647 0
514 133 0
-454 -161 0
25 624 0
-396 -530 0
-434 262 0
44 299 0
-344 523 0
39 -682 0
-341 -68 0
409 174 0
523 717 0
-291 138 0
19 -449 0
580 421 0
-206 315 0
237 558 0
26 686 0
-31 -197 0
392 -533 0
-455 -425 0
68 -441 0
152 -302 0
-190 598 0
-202 -599 0
-434 666 0
614 -233 0
124 -516 0
417 361 0
171 610 0
545 253 0
88 475 0
-703 467 0
322 215 0
-42 140 0
-331 264 0
-277 234 0
19 721 0
-179 -160 0
-172 -252 0
483 235 0
317 -677 0
553 637 0
-30 -604 0
641 579 0
345 -245 0
-214 -145 0
-473 -391 0
591 85 0
609 330 0
591 273 0
360 -687 0
103 -610 0
246 -300 0
115 -302 0
502 217 0
-477 -604 0
191 523 0
323 -688 0
-723 -441 0
-382 466 0
-425 -303 0
-531 470 0
-72 263 0
-361 -106 0
-194 367 0
-125 -251 0
-42 363 0
-443 46 0
-2 -390 0
-528 423 0
462 -410 0
-471 -633 0
-292 501 0
227 -228 0
390 -222 0
627 -36 0
559 -418 0
-680 532 0
-504 516 0
89 13 0
728 321 0
377 -149 0
-326 -624 0
476 -350 0
-568 -38 0
-227 8 0
-97 -370 0
611 330 0
-166 446 0
346 572 0
-536 -202 0
-631 -654 0
516 726 0
124 -348 0
-183 164 0
383 -131 0
-221 654 0
201 -598 0
523 193 0
-31 332 0
391 226 0
285 647 0
602 -85 0
724 -463 0
232 -624 0
-651 -160 0
-288 -218 0
-426 -430 0
-111 -568 0
154 -399 0
691 691 0
-309 -108 0
664 354 0
207 485 0
-642 -224 0
-722 -700 0
470 -518 0
-348 -296 0
640 -459 0
-509 -214 0
-196 323 0
707 -277 0
-543 -517 0
227 -65 0
664 -262 0
-348 521 0
529 -86 0
309 -225 0
-405 405 0
132 -302 0
123 25 0
-82 129 0
129 -98 0
573 -56 0
-386 -547 0
168 -336 0
-327 -165 0
-298 439 0
363 -569 0
-725 660 0
210 141 0
-196 324 0
649 199 0
322 727 0
8 -723 0
-435 -461 0
-131 -622 0
363 -73 0
-160 -372 0
80 -73 0
631 -377 0
-357 146 0
-616 -215 0
-51 -414 0
220 -313 0
-168 346 0
580 -375 0
720 -655 0
48 -97 0
534 156 0
-228 285 0
-351 -379 0
-324 -66 0
300 123 0
-339 -347 0
-600 21 0
-78 -252 0
74 90 0
-370 -388 0
-308 113 0
-45 -220 0
50 471 0
417 524 0
44 -711 0
716 96 0
403 181 0
476 -139 0
15 635 0
360 -23 0
320 -331 0
365 -344 0
-375 -551 0
633 572 0
-461 629 0
-149 -493 0
-134 131 0
-326 -283 0
645 201 0
-114 -648 0
-589 402 0
437 -402 0
-47 340 0
19 131 0
603 622 0
-531 -533 0
682 -312 0
-243 341 0
-191 -102 0
717 62 0
-191 -560 0
-241 -89 0
-509 635 0
-356 -177 0
-100 270 0
122 -223 0
309 577 0
-238 -412 0
464 545 0
-273 -493 0
-367 217 0
-510 -624 0
-676 322 0
37 347 0
129 328 0
220 -653 0
-484 127 0
-75 476 0
473 -524 0
-425 -528 0
-473 -272 0
-82 164 0
-11 479 0
624 -214 0
235 -463 0
432 670 0
452 163 0
371 -5 0
-467 -532 0
-516 330 0
-587 -487 0
350 369 0
-86 -590 0
465 216 0
-65 -661 0
323 73 0
-376 -65 0
-312 242 0
-155 105 0
-226 43 0
708 200 0
671 -675 0
-262 -689 0
-97 701 0
-505 -374 0
-700 527 0
181 -72 0
571 -436 0
-597 126 0
-242 -64 0
-601 -599 0
-235 607 0
218 263 0
565 79 0
512 -15 0
-671 -590 0
481 -102 0
-305 -331 0
-200 311 0
-725 -377 0
-189 -40 0
643 -296 0
28 -296 0
-581 -285 0
569 -222 0
476 -199 0
-347 -177 0
378 -313 0
25 378 0
-388 -187 0
-73 650 0
183 -120 0
-497 354 0
-583 -312 0
70 450 0
141 326 0
730 -49 0
83 -625 0
-120 -151 0
-142 -615 0
179 558 0
-550 8 0
-504 590 0
391 -700 0
17 -248 0
479 211 0
378 -703 0
704 605 0
17 3 0
-274 114 0
-524 -458 0
-578 -638 0
-604 -661 0
-263 -39 0
-134 558 0
-528 -273 0
123 -536 0
520 258 0
-155 -402 0
242 469 0
-446 404 0
-206 322 0
-704 279 0
188 -729 0
81 451 0
-134 -177 0
170 427 0
635 -190 0
462 124 0
328 -626 0
236 652 0
-665 -59 0
690 88 0
-208 236 0
-324 173 0
-599 -552 0
687 605 0
-413 -12 0
607 -70 0
-116 183 0
-31 -505 0
-460 579 0
-366 92 0
-658 424 0
564 -212 0
16 -726 0
-662 69 0
-470 246 0
-116 138 0
463 -252 0
641 -301 0
29 1 0
-386 -142 0
244 -490 0
697 -249 0
-337 235 0
496 632 0
-492 651 0
188 5 0
388 184 0
-133 -417 0
132 -557 0
637 -401 0
-433 57 0
-482 242 0
-455 52 0
-639 -30 0
167 -352 0
-332 -241 0
364 423 0
-630 236 0
578 -190 0
-33 468 0
101 481 0
-291 -156 0
237 270 0
-91 631 0
171 -261 0
-155 -730 0
-127 175 0
17 -144 0
579 394 0
654 423 0
-43 6 0
256 713 0
-617 -677 0
-656 305 0
529 156 0
-97 -162 0
-370 326 0
-607 -217 0
-450 -686 0
-682 -324 0
-179 161 0
503 -393 0
-729 192 0
66 466 0
477 284 0
-184 658 0
391 141 0
-108 -396 0
133 -533 0
-67 -303 0
-23 699 0
469 421 0
728 218 0
-155 -396 0
323 -398 0
-310 527 0
630 -241 0
175 596 0
-673 553 0
-728 -712 0
-187 -404 0
-339 219 0
-15 -187 0
-91 -532 0
-319 -230 0
328 280 0
-294 -684 0
-334 -120 0
104 581 0
-159 627 0
-449 538 0
420 513 0
577 435 0
-64 -636 0
-722 -267 0
-370 -161 0
21 -353 0
-590 -453 0
-243 297 0
729 -336 0
-697 -596 0
202 90 0
594 -331 0
-728 6 0
710 -424 0
281 -109 0
-456 -590 0
639 199 0
115 -120 0
-361 34 0
-367 55 0
-543 468 0
-48 304 0
347 -555 0
209 -261 0
-653 518 0
-122 -116 0
51 -17 0
-44 -146 0
183 -184 0
325 -535 0
154 -32 0
-393 145 0
195 -52 0
-264 -533 0
84 516 0
235 -469 0
555 418 0
253 208 0
-482 510 0
83 276 0
76 205 0
-233 -550 0
51 306 0
75 -75 0
-64 633 0
510 -217 0
48 -243 0
-455 386 0
-408 -677 0
407 154 0
-197 -530 0
-662 -250 0
-560 664 0
-317 707 0
69 70 0
-416 -88 0
50 -658 0
244 -87 0
547 -474 0
256 288 0
-79 -55 0
541 89 0
-472 -296 0
-419 709 0
507 709 0
-292 328 0
-289 664 0
455 -634 0
26 451 0
-623 -180 0
299 220 0
292 225 0
709 426 0
-255 -578 0
5 -582 0
-332 -339 0
185 592 0
-322 -535 0
544 448 0
-185 443 0
90 -303 0
709 667 0
-339 -13 0
84 -706 0
448 -407 0
-57 174 0
394 45 0
360 -449 0
689 -327 0
-677 83 0
538 -529 0
-249 -351 0
-11 568 0
378 443 0
335 -681 0
81 480 0
79 54 0
-207 -335 0
465 712 0
-463 553 0
378 -521 0
-224 642 0
601 148 0
-56 -544 0
657 -292 0
367 -650 0
-352 36 0
614 529 0
-387 -571 0
420 475 0
395 -353 0
-218 -644 0
-434 -294 0
701 661 0
-462 508 0
643 -120 0
-560 -719 0
77 423 0
-580 605 0
730 -568 0
257 504 0
598 -484 0
-299 465 0
637 -503 0
-461 590 0
-11 -614 0
212 307 0
-246 -269 0
-673 529 0
-291 -655 0
-190 230 0
-64 -556 0
-58 608 0
76 234 0
166 -308 0
-651 68 0
-24 -96 0
148 -149 0
344 -91 0
330 516 0
215 126 0
225 161 0
519 344 0
-383 354 0
-385 -13 0
-243 680 0
264 -68 0
188 -345 0
-690 153 0
-217 -639 0
409 325 0
-109 429 0
-459 -691 0
-260 727 0
507 -268 0
383 -186 0
724 -51 0
54 -639 0
688 -313 0
-35 451 0
-109 264 0
-146 173 0
591 -583 0
434 -395 0
475 -312 0
195 -333 0
-607 328 0
-688 -98 0
-263 -220 0
103 432 0
295 -662 0
-21 509 0
351 -682 0
-217 -120 0
452 -357 0
109 -484 0
19 -208 0
583 -526 0
-441 423 0
-445 608 0
316 -447 0
435 694 0
296 -531 0
-450 -606 0
-284 439 0
-556 -645 0
369 -323 0
-95 -355 0
318 -326 0
364 -576 0
-331 -6 0
-90 195 0
-571 -560 0
-453 139 0
714 353 0
-521 -32 0
28 385 0
-687 535 0
-297 -303 0
433 -73 0
41 145 0
567 -390 0
212 188 0
649 -314 0
364 -7 0
-335 -688 0
189 381 0
365 200 0
96 -437 0
595 261 0
-633 196 0
-359 281 0
272 -712 0
-180 -600 0
304 -689 0
-437 691 0
-172 288 0
524 691 0
605 -314 0
-126 -362 0
153 -616 0
-269 -271 0
427 113 0
-102 -498 0
298 -320 0
624 -501 0
-406 -48 0
513 605 0
-354 -687 0
558 -236 0
-365 401 0
115 679 0
1 -180 0
322 -136 0
594 411 0
-390 7 0
-548 -279 0
-712 706 0
146 714 0
-191 -475 0
-54 -672 0
-376 253 0
211 517 0
-166 448 0
318 696 0
-334 65 0
194 181 0
-155 403 0
-539 178 0
646 70 0
-20 689 0
-721 -317 0
-133 578 0
-314 60 0
208 -110 0
-97 -558 0
-221 -587 0
-715 592 0
-268 -368 0
235 -409 0
167 545 0
377 104 0
-717 -190 0
352 572 0
321 329 0
-604 580 0
-308 -581 0
-288 265 0
651 -160 0
-228 307 0
51 -395 0
-597 131 0
-162 -456 0
-295 605 0
-454 399 0
-108 -172 0
-106 -574 0
487 535 0
272 -390 0
323 -410 0
-721 345 0
265 -404 0
-265 -114 0
-495 -414 0
465 -624 0
375 -406 0
-524 675 0
-589 -245 0
468 -528 0
401 139 0
-660 61 0
-259 170 0
-221 -469 0
229 -236 0
375 -467 0
-492 554 0
-544 -644 0
60 553 0
485 -315 0
348 -402 0
657 -540 0
-258 -590 0
-194 489 0
162 474 0
310 327 0
125 328 0
197 541 0
165 -159 0
5 223 0
-707 -678 0
-464 485 0
-548 -430 0
95 -192 0
448 281 0
307 -107 0
-116 -471 0
-474 315 0
51 -312 0
76 179 0
223 208 0
-187 608 0
100 595 0
-727 718 0
156 518 0
-317 591 0
229 -142 0
-450 -708 0
-456 -431 0
121 345 0
405 399 0
391 -693 0
-319 -443 0
-583 -609 0
-114 154 0
-406 -152 0
-522 67 0
-405 -669 0
-196 536 0
-97 -273 0
-528 538 0
473 692 0
220 330 0
464 -629 0
-551 -233 0
-232 290 0
-419 421 0
-255 -473 0
406 664 0
108 -190 0
-698 -401 0
107 -160 0
446 464 0
-333 -93 0
-142 -571 0
678 -582 0
102 716 0
-435 195 0
266 -290 0
92 -587 0
270 -275 0
-42 -711 0
585 559 0
-402 334 0
584 -239 0
19 660 0
184 8 0
-506 -504 0
231 -526 0
-447 -490 0
26 -649 0
534 -270 0
718 -293 0
250 555 0
-400 238 0
-65 297 0
-288 -693 0
699 641 0
-125 92 0
-166 50 0
82 390 0
-729 -586 0
383 -669 0
84 -72 0
551 -77 0
-337 -91 0
-660 275 0
82 -348 0
492 281 0
411 -12 0
-674 -591 0
-216 719 0
-547 -652 0
260 188 0
-289 -375 0
-554 -185 0
311 -353 0
-283 310 0
-730 -203 0
-111 555 0
74 -42 0
-134 340 0
-115 -583 0
57 146 0
-63 549 0
-549 -43 0
559 56 0
-20 -528 0
431 237 0
-617 -681 0
-159 676 0
532 178 0
-307 543 0
186 127 0
123 -359 0
-287 -530 0
-243 -658 0
-351 128 0
612 268 0
533 -387 0
425 591 0
-697 372 0
659 -607 0
97 -206 0
729 -727 0
-379 -374 0
664 227 0
-673 726 0
556 -454 0
10 620 0
-316 -408 0
-132 -521 0
-660 387 0
-654 423 0
81 -3 0
-353 399 0
-495 -118 0
-616 496 0
-132 -645 0
-396 77 0
-294 -269 0
36 642 0
-581 705 0
-460 246 0
54 -118 0
-177 452 0
161 -172 0
-680 180 0
-677 -79 0
525 -603 0
565 84 0
-548 686 0
380 -259 0
34 541 0
448 321 0
-292 -443 0
156 724 0
-348 -575 0
-355 -551 0
-185 411 0
-288 -440 0
-424 588 0
598 511 0
390 466 0
676 -191 0
204 41 0
43 -185 0
68 484 0
649 -506 0
104 83 0
-140 411 0
-501 -105 0
-317 404 0
-194 -404 0
205 175 0
-570 220 0
-656 -226 0
42 385 0
301 -49 0
-646 511 0
458 -49 0
-28 -526 0
-575 -85 0
491 539 0
506 -319 0
-3 -540 0
-266 -446 0
-567 400 0
-89 -113 0
-101 664 0
253 -579 0
-249 -562 0
-148 -406 0
92 -620 0
307 34 0
258 590 0
-499 -408 0
-280 26 0
519 483 0
664 450 0
-431 -506 0
-413 13 0
43 516 0
-166 -711 0
651 104 0
466 571 0
-601 574 0
-431 -166 0
-193 -374 0
-611 236 0
462 244 0
439 -519 0
-490 -292 0
510 -269 0
370 -504 0
-191 -474 0
596 -718 0
-277 318 0
-665 -135 0
600 -663 0
443 -39 0
726 270 0
710 508 0
378 -316 0
-638 -170 0
-143 -19 0
-230 -585 0
-65 -300 0
-290 552 0
-20 -56 0
158 57 0
-373 639 0
423 27 0
-544 604 0
-97 -450 0
473 -187 0
278 -353 0
510 607 0
-192 -16 0
-222 389 0
-506 80 0
-331 229 0
193 209 0
449 -120 0
-423 -374 0
371 311 0
517 -497 0
-597 708 0
-379 -706 0
