c bounds 104 119
p cnf 595 1130
112 -515 0
-351 206 0
206 -145 0
-575 -449 0
-215 -528 0
534 -388 0
-234 510 0
430 -272 0
49 327 0
-111 164 0
-503 -253 0
268 203 0
-483 386 0
-178 22 0
-594 -248 0
95 198 0
-379 36 0
-515 -481 0
-240 309 0
-368 -388 0
366 312 0
142 303 0
140 142 0
-515 -62 0
454 -25 0
-584 100 0
-543 -476 0
-69 -270 0
-49 220 0
230 263 0
-36 -54 0
-80 -313 0
-149 588 0
-189 -52 0
452 559 0
46 24 0
241 589 0
-200 -94 0
353 -368 0
-53 -59 0
-558 524 0
-313 -533 0
380 -519 0
385 36 0
381 86 0
-256 -510 0
387 143 0
-423 -60 0
-122 559 0
-363 -491 0
591 -97 0
355 187 0
-471 190 0
194 -449 0
-38 -196 0
-204 430 0
-17 66 0
416 366 0
-542 374 0
-256 -581 0
-325 268 0
38 391 0
-234 178 0
153 -563 0
135 102 0
-213 47 0
320 270 0
-469 490 0
272 -282 0
26 -561 0
553 29 0
456 28 0
565 -364 0
-402 -170 0
-300 -376 0
365 110 0
11 9 0
136 447 0
453 -124 0
-20 513 0
-49 246 0
-128 208 0
51 397 0
-157 60 0
119 312 0
-541 -94 0
377 -336 0
-119 488 0
3 58 0
239 455 0
-586 -573 0
-224 303 0
171 -412 0
99 490 0
-565 -432 0
373 36 0
11 520 0
409 376 0
35 427 0
456 308 0
-224 427 0
-178 371 0
-22 77 0
-434 307 0
-432 558 0
-481 421 0
211 -237 0
251 434 0
-449 -62 0
317 -538 0
343 -279 0
-311 -452 0
182 55 0
548 555 0
-590 -237 0
363 350 0
196 -322 0
-129 416 0
56 397 0
-437 -450 0
566 119 0
-238 139 0
-154 -45 0
-121 200 0
593 451 0
-511 -167 0
-401 -363 0
-249 -239 0
249 -563 0
-141 -70 0
137 265 0
-429 211 0
-197 127 0
-240 -108 0
171 246 0
293 -157 0
-227 150 0
-228 -94 0
-272 576 0
-247 263 0
523 527 0
254 -402 0
-579 188 0
-210 -289 0
-106 -538 0
-478 -175 0
295 -444 0
211 431 0
283 -264 0
-494 -522 0
515 466 0
528 169 0
-280 584 0
429 51 0
282 14 0
-76 -236 0
568 541 0
-375 68 0
478 314 0
479 463 0
377 -330 0
4 391 0
343 172 0
312 500 0
-421 592 0
-168 63 0
129 340 0
-379 11 0
459 542 0
-29 39 0
352 -437 0
-525 180 0
-552 -141 0
400 93 0
336 -332 0
-539 186 0
315 113 0
-585 139 0
-94 546 0
555 -574 0
-595 -470 0
13 -529 0
380 -536 0
474 518 0
-465 -161 0
158 320 0
-290 -566 0
546 113 0
-226 233 0
-501 502 0
188 300 0
539 -238 0
55 -519 0
73 235 0
-595 317 0
-344 261 0
177 -46 0
540 592 0
363 -235 0
391 259 0
-125 425 0
-530 113 0
65 -62 0
-271 51 0
-230 -303 0
-161 -494 0
-221 -12 0
-574 500 0
-281 111 0
77 -414 0
-306 -176 0
318 47 0
158 272 0
410 -392 0
277 238 0
-459 -384 0
386 -82 0
93 344 0
-275 51 0
401 518 0
209 -292 0
383 -498 0
-341 268 0
515 -280 0
-436 -313 0
582 -119 0
-129 -543 0
447 14 0
-234 419 0
-276 -384 0
-16 -374 0
-427 277 0
-280 30 0
-479 -153 0
-575 -68 0
465 384 0
-520 283 0
349 -482 0
-32 397 0
-503 254 0
-171 -70 0
192 296 0
-337 583 0
81 -515 0
-322 104 0
378 272 0
583 130 0
504 39 0
-233 -33 0
-297 432 0
-20 -505 0
531 -322 0
-85 489 0
205 -532 0
207 63 0
75 218 0
375 -478 0
214 -160 0
-268 454 0
383 -199 0
380 253 0
26 80 0
-124 -442 0
193 -233 0
-467 89 0
531 416 0
-485 -487 0
430 273 0
196 504 0
340 75 0
-87 -534 0
-51 -264 0
107 -506 0
-183 -320 0
340 442 0
-486 358 0
235 331 0
-503 12 0
-298 520 0
196 284 0
-542 75 0
309 -172 0
411 -375 0
460 -336 0
547 268 0
-467 -355 0
259 186 0
366 -191 0
440 224 0
259 -117 0
244 -557 0
285 7 0
465 -395 0
7 -17 0
35 -533 0
-347 165 0
-242 183 0
586 474 0
-344 -469 0
14 -184 0
-105 493 0
110 371 0
81 -19 0
3 410 0
264 -258 0
-449 553 0
245 -207 0
-2 -519 0
415 293 0
-445 -258 0
-494 275 0
-252 -402 0
44 482 0
312 303 0
576 -490 0
223 -118 0
-95 400 0
3 575 0
-164 111 0
549 -44 0
-247 192 0
65 -394 0
317 194 0
74 -247 0
37 -235 0
220 -538 0
-204 8 0
-387 -222 0
156 -42 0
509 -461 0
271 93 0
-191 368 0
592 -284 0
373 556 0
-75 122 0
198 -210 0
91 -570 0
435 -39 0
-6 232 0
-233 -374 0
496 -37 0
-194 272 0
-62 6 0
-148 -204 0
177 -306 0
387 -539 0
-178 -375 0
450 221 0
462 -260 0
588 -186 0
108 119 0
-54 151 0
354 -64 0
-403 -305 0
307 459 0
314 117 0
-304 -544 0
-525 -70 0
413 -338 0
-221 -305 0
-60 310 0
-288 194 0
206 -237 0
-500 -587 0
-37 -357 0
-585 180 0
-27 -586 0
-428 441 0
72 252 0
68 -590 0
-234 -56 0
251 586 0
360 -595 0
281 -447 0
13 540 0
29 355 0
465 -128 0
-212 457 0
-585 -547 0
150 331 0
3 353 0
-451 -256 0
221 -35 0
-395 243 0
209 -69 0
-309 -154 0
461 -289 0
451 66 0
-338 -528 0
164 -489 0
355 50 0
-367 -286 0
-228 -299 0
-437 428 0
-181 -420 0
-182 -431 0
57 -430 0
-50 -417 0
-483 -38 0
-405 424 0
302 411 0
-85 -312 0
514 576 0
-286 -300 0
-197 382 0
45 -322 0
520 323 0
-161 -509 0
303 107 0
119 -287 0
459 -174 0
507 -181 0
-501 -7 0
-364 153 0
-295 356 0
436 506 0
-190 -357 0
565 -364 0
410 88 0
-180 425 0
-19 58 0
74 -242 0
-52 379 0
70 -450 0
-152 22 0
-39 409 0
444 -157 0
-426 40 0
-348 392 0
-377 -543 0
326 -388 0
251 -480 0
410 -120 0
-558 392 0
61 -398 0
-372 -136 0
-312 308 0
-49 73 0
117 154 0
119 326 0
-230 -2 0
-547 592 0
-294 -210 0
133 363 0
-60 349 0
-501 -323 0
-322 -294 0
-145 207 0
339 194 0
-84 -490 0
270 523 0
310 327 0
572 593 0
506 357 0
488 -549 0
46 549 0
365 286 0
68 298 0
-504 -533 0
261 -427 0
91 -493 0
-222 534 0
-484 -389 0
-297 541 0
94 544 0
217 -38 0
463 533 0
-428 456 0
534 -264 0
-479 -477 0
109 11 0
-152 -120 0
558 -143 0
-17 -360 0
320 -224 0
564 49 0
514 489 0
-19 -34 0
-159 586 0
304 -378 0
-289 -76 0
243 -140 0
-385 274 0
-499 73 0
-176 123 0
-249 335 0
350 -375 0
-281 350 0
517 -382 0
-579 108 0
341 -269 0
108 541 0
-74 574 0
-292 518 0
183 467 0
-90 -272 0
298 -542 0
-332 45 0
145 -106 0
148 582 0
54 -497 0
-473 361 0
-253 -253 0
188 56 0
277 259 0
211 510 0
577 -16 0
180 397 0
1 117 0
22 138 0
416 -310 0
162 550 0
431 504 0
136 -432 0
374 -502 0
-513 330 0
-194 547 0
521 -476 0
-591 -182 0
223 158 0
-443 228 0
-224 -214 0
-203 -324 0
-387 -150 0
112 556 0
303 28 0
-294 -500 0
-563 81 0
-64 -367 0
192 -60 0
220 -119 0
487 112 0
575 472 0
-146 90 0
-321 545 0
68 -387 0
-579 9 0
356 246 0
71 -112 0
-370 -85 0
319 409 0
340 440 0
-288 -54 0
435 376 0
-305 411 0
420 428 0
-170 274 0
-325 503 0
-25 550 0
486 -367 0
566 464 0
28 -485 0
101 -28 0
-358 163 0
-189 -524 0
564 271 0
229 -452 0
373 341 0
30 243 0
140 -354 0
-43 -471 0
-326 -565 0
455 60 0
-321 9 0
514 139 0
-448 -97 0
-54 567 0
-103 -242 0
127 -101 0
211 -281 0
-325 221 0
-307 -361 0
-238 13 0
-119 535 0
286 451 0
545 -560 0
350 -362 0
-509 -297 0
481 72 0
428 -422 0
301 438 0
-347 177 0
-311 443 0
-310 349 0
34 386 0
-427 509 0
-235 -473 0
-77 346 0
-94 -64 0
377 50 0
331 431 0
332 31 0
-232 126 0
336 178 0
349 -229 0
463 266 0
-83 -574 0
-404 583 0
-316 -197 0
-382 -53 0
591 -70 0
-118 368 0
-511 298 0
349 571 0
-357 359 0
-474 379 0
-129 -50 0
517 131 0
-143 459 0
-276 -85 0
-43 -259 0
-228 -463 0
174 215 0
123 -391 0
18 -195 0
193 -427 0
223 223 0
566 313 0
397 -136 0
-128 -458 0
283 -341 0
-316 448 0
-87 -431 0
45 380 0
45 353 0
-267 -49 0
22 162 0
342 512 0
-237 -391 0
424 -143 0
102 65 0
238 -476 0
-53 -160 0
591 328 0
-432 216 0
217 149 0
297 191 0
111 503 0
580 -90 0
192 182 0
-340 508 0
332 28 0
-538 -139 0
-586 -76 0
535 236 0
192 277 0
167 531 0
-236 134 0
-457 -369 0
-270 447 0
-228 265 0
107 265 0
295 -120 0
582 -252 0
411 -544 0
569 448 0
306 193 0
538 163 0
376 376 0
277 -311 0
-241 216 0
-371 268 0
-530 457 0
549 -499 0
-90 -137 0
-577 -310 0
207 -269 0
-48 469 0
-115 468 0
296 -178 0
262 -101 0
-273 232 0
-539 311 0
-305 466 0
-184 101 0
218 451 0
-250 -325 0
-528 564 0
505 102 0
-482 221 0
556 85 0
-554 127 0
-256 -431 0
-366 71 0
-575 -85 0
546 -184 0
148 126 0
-12 391 0
595 -228 0
111 -589 0
524 -165 0
-290 311 0
584 493 0
-6 189 0
440 -258 0
-579 -242 0
-125 -502 0
-211 298 0
-408 339 0
547 -372 0
582 592 0
-328 -489 0
-567 -330 0
134 -219 0
540 -329 0
96 -170 0
551 -168 0
-509 183 0
217 -366 0
-306 -328 0
213 -50 0
2 -124 0
-497 527 0
243 -304 0
316 309 0
116 -174 0
-471 -510 0
102 446 0
31 531 0
568 -217 0
505 40 0
-56 514 0
351 -42 0
576 311 0
456 -205 0
56 374 0
37 -519 0
89 453 0
45 -288 0
35 135 0
-413 405 0
-438 337 0
131 78 0
116 -480 0
-378 -322 0
34 -267 0
504 189 0
483 435 0
-115 324 0
-197 -372 0
155 441 0
-80 353 0
-6 516 0
-236 336 0
393 -71 0
-161 -236 0
550 572 0
-289 358 0
-257 -448 0
-443 -226 0
-454 386 0
318 361 0
188 550 0
-112 -453 0
16 343 0
-289 -106 0
-45 -414 0
-532 -487 0
-238 -534 0
-259 -85 0
436 526 0
-356 164 0
-132 -385 0
417 -450 0
261 -473 0
119 -299 0
-114 -197 0
-395 -421 0
-310 456 0
-15 -550 0
-377 -491 0
-412 -395 0
209 -517 0
-499 -311 0
338 -231 0
225 -145 0
19 553 0
-348 -432 0
346 464 0
-161 -74 0
-237 4 0
157 -280 0
572 537 0
-32 140 0
114 -423 0
-221 553 0
-14 -583 0
569 165 0
-489 -573 0
-223 444 0
-305 347 0
-218 58 0
545 251 0
522 211 0
-269 482 0
-163 232 0
252 542 0
-426 -324 0
-230 -140 0
-303 415 0
-76 -320 0
-196 109 0
138 444 0
211 326 0
126 6 0
-14 -43 0
147 -325 0
346 -579 0
-536 -512 0
59 -123 0
-159 -41 0
-267 581 0
147 345 0
116 129 0
-285 -38 0
-179 -513 0
-208 -563 0
-448 581 0
-289 -588 0
118 316 0
490 -35 0
-165 563 0
22 107 0
254 283 0
-311 -194 0
397 -289 0
-557 -455 0
-208 78 0
-515 302 0
-316 312 0
86 -289 0
-333 -538 0
581 -147 0
232 241 0
-542 -349 0
97 483 0
-579 181 0
492 366 0
366 -460 0
-332 -106 0
-445 -497 0
-578 337 0
562 -242 0
-587 220 0
352 366 0
409 -64 0
-186 -306 0
514 -296 0
-236 120 0
319 -289 0
-206 -395 0
268 -147 0
293 -521 0
313 -144 0
438 -320 0
-520 -29 0
359 42 0
-260 -453 0
-269 -150 0
-403 -260 0
-234 -203 0
-231 93 0
164 -491 0
465 156 0
308 318 0
-595 474 0
382 524 0
292 -489 0
89 -160 0
-241 -310 0
-392 -215 0
506 -525 0
201 -161 0
-502 -364 0
-149 200 0
240 524 0
5 -264 0
586 582 0
451 462 0
-575 155 0
-33 -406 0
211 324 0
9 -29 0
539 -189 0
45 11 0
-565 -297 0
-126 496 0
-249 331 0
-288 125 0
300 -229 0
-238 284 0
-9 135 0
-235 -361 0
-89 -66 0
148 -138 0
45 -431 0
371 186 0
80 -62 0
-141 -261 0
-257 22 0
-378 -584 0
-300 259 0
-146 349 0
559 -67 0
-97 93 0
-190 -264 0
-427 -429 0
-255 576 0
-306 538 0
-479 564 0
-388 304 0
559 -345 0
112 -329 0
438 -466 0
447 -14 0
295 -170 0
-291 239 0
-561 -536 0
-308 487 0
37 -440 0
337 547 0
-306 508 0
483 -395 0
3 -516 0
326 -105 0
479 458 0
-304 -152 0
35 313 0
-253 46 0
302 -537 0
303 250 0
55 260 0
206 569 0
-479 115 0
408 509 0
554 365 0
-390 250 0
96 -360 0
122 -398 0
251 -390 0
347 -565 0
561 -500 0
-574 509 0
-411 187 0
96 -52 0
-289 -153 0
-7 194 0
148 229 0
388 -347 0
376 -42 0
134 -367 0
-49 -10 0
-219 314 0
31 479 0
-427 229 0
-574 -578 0
-484 24 0
-398 162 0
-418 358 0
31 -106 0
-533 -169 0
275 -480 0
-384 471 0
204 327 0
123 -64 0
-369 -460 0
-78 107 0
-510 313 0
425 -153 0
-238 -12 0
-66 -194 0
447 514 0
520 545 0
-174 214 0
301 129 0
115 451 0
486 381 0
78 335 0
379 -54 0
-402 238 0
176 -433 0
-98 -309 0
16 21 0
-248 -138 0
495 78 0
31 135 0
-170 165 0
191 217 0
410 280 0
-181 -499 0
359 300 0
-341 -168 0
355 -269 0
-257 387 0
-183 -60 0
351 386 0
-523 194 0
435 -204 0
-57 153 0
-142 455 0
376 567 0
-123 21 0
438 497 0
122 -369 0
592 18 0
349 -26 0
-165 -116 0
-197 -159 0
51 553 0
-322 193 0
593 68 0
226 -575 0
-574 -278 0
534 -258 0
434 410 0
171 107 0
-160 117 0
-160 -467 0
-557 369 0
78 -420 0
-264 -585 0
-552 -290 0
54 -52 0
-394 355 0
-12 -173 0
13 -10 0
-126 490 0
48 -489 0
397 75 0
255 245 0
332 -516 0
-433 -289 0
-139 148 0
133 -34 0
591 -399 0
10 -330 0
275 -290 0
-10 189 0
140 -172 0
465 508 0
508 -557 0
375 -161 0
-274 588 0
309 -485 0
100 35 0
1 -273 0
-330 -475 0
290 219 0
569 -304 0
-90 -172 0
551 86 0
462 -98 0
461 -264 0
-565 586 0
370 489 0
455 -105 0
466 414 0
558 319 0
-423 575 0
-94 572 0
-543 -273 0
92 95 0
-159 -346 0
-157 -146 0
114 585 0
-115 -202 0
-7 -355 0
149 -294 0
-231 219 0
-25 -432 0
326 -416 0
-371 -253 0
-550 391 0
-29 508 0
206 -435 0
-50 -178 0
-386 117 0
-444 481 0
-403 -145 0
-446 406 0
-141 281 0
196 44 0
-484 -467 0
-316 -497 0
307 188 0
-164 -79 0
355 -202 0
-146 88 0
400 -73 0
-500 549 0
522 188 0
148 -206 0
312 -278 0
78 -258 0
83 -292 0
-228 415 0
-93 591 0
-225 -474 0
-156 -360 0
504 271 0
-194 113 0
419 -313 0
6 -222 0
434 588 0
-354 252 0
-324 265 0
113 407 0
359 -203 0
359 -420 0
311 95 0
538 -168 0
526 -343 0
464 337 0
483 523 0
-582 221 0
85 540 0
-282 337 0
483 -255 0
217 363 0
-517 -64 0
-67 -534 0
20 -150 0
-126 295 0
130 -168 0
-58 132 0
-369 -527 0
328 564 0
-322 301 0
-300 -342 0
578 293 0
