c NF
p cnf 1325 1722
-962 -763 0
808 -1098 0
1065 713 0
-946 306 0
-1179 736 0
1206 -1098 0
762 547 0
162 -535 0
-821 -823 0
1038 -648 0
1186 1032 0
-859 -112 0
991 -784 0
1313 948 0
642 766 0
-1279 230 0
127 890 0
-946 128 0
132 1239 0
-617 -254 0
-940 -312 0
-265 -1289 0
-1302 -657 0
563 1320 0
1130 -1174 0
-1093 8 0
1157 855 0
-602 623 0
-1116 -710 0
572 249 0
170 -397 0
-444 -1303 0
440 83 0
-1273 -839 0
-206 -588 0
905 -952 0
1025 -1187 0
-687 -621 0
444 1227 0
-1200 44 0
-1028 -366 0
1270 -857 0
581 1161 0
1197 201 0
524 -827 0
166 -169 0
-897 780 0
804 886 0
-1111 -578 0
-857 1072 0
-290 1232 0
-207 -1318 0
-174 68 0
1034 -747 0
1036 -783 0
818 1288 0
-881 -857 0
-651 -915 0
559 -54 0
-1186 974 0
700 583 0
-24 -434 0
369 453 0
695 -396 0
-1264 -748 0
-777 17 0
32 65 0
1123 265 0
-1206 -866 0
723 1194 0
-288 605 0
-380 814 0
-957 -1095 0
-932 -12 0
1228 339 0
-772 310 0
719 351 0
948 71 0
-791 -392 0
203 453 0
-805 1270 0
-645 -1285 0
803 431 0
-319 832 0
1008 -990 0
-927 517 0
1065 -1242 0
-465 437 0
647 474 0
-314 -635 0
881 1029 0
925 -1093 0
380 -131 0
-566 422 0
-410 -577 0
119 164 0
48 -69 0
-702 -1302 0
851 33 0
-262 -90 0
537 -780 0
662 246 0
535 759 0
-850 -195 0
-474 -874 0
-1089 453 0
-21 690 0
431 -1057 0
355 59 0
1002 1008 0
-871 -1141 0
-1312 960 0
656 532 0
-1241 1286 0
1096 -233 0
450 484 0
575 -1040 0
443 904 0
630 8 0
462 533 0
-43 -722 0
908 551 0
-777 998 0
1310 509 0
-241 -429 0
-169 -133 0
480 1207 0
492 -1170 0
236 -796 0
30 -1184 0
-1161 332 0
381 -919 0
818 -1063 0
-310 -518 0
696 -230 0
881 -1004 0
1305 774 0
995 1081 0
-1124 -1269 0
1284 175 0
-275 1311 0
-352 778 0
-47 1115 0
-182 842 0
796 -405 0
-1070 -1011 0
-373 1303 0
110 402 0
543 1029 0
-769 941 0
-1234 -243 0
-656 -323 0
29 911 0
1037 -1207 0
-362 -267 0
-1271 -336 0
-342 -1187 0
50 1305 0
-674 -451 0
764 -121 0
-319 -328 0
695 155 0
-1012 347 0
817 -324 0
-567 -1118 0
219 -368 0
931 -1246 0
792 986 0
598 -727 0
-1135 -693 0
-239 -1007 0
1077 307 0
1315 -122 0
-263 -1167 0
1176 -212 0
-1127 1142 0
980 -352 0
-883 -1317 0
-308 362 0
1052 -70 0
-705 -112 0
-905 132 0
-1133 125 0
1281 921 0
-838 138 0
-266 1176 0
-50 -820 0
225 60 0
-1135 -1253 0
1213 -261 0
383 -534 0
-443 1288 0
1267 -199 0
478 43 0
-1018 311 0
-1091 521 0
1113 104 0
-1092 -376 0
638 733 0
-1047 -1242 0
-902 -1225 0
1024 743 0
-30 -294 0
411 -502 0
-727 304 0
1121 -268 0
711 -444 0
-1248 129 0
-84 221 0
-1111 624 0
278 996 0
1123 -727 0
1002 -1246 0
120 386 0
-173 862 0
1182 948 0
-826 118 0
-1128 1134 0
-760 98 0
913 -1136 0
1280 -375 0
1161 38 0
-195 -1079 0
-1237 1231 0
624 -2 0
51 1142 0
423 -91 0
-576 -520 0
364 -1241 0
1152 -1067 0
-378 725 0
1279 -251 0
27 990 0
-1074 -755 0
927 -618 0
-1033 -517 0
-269 -491 0
1097 -54 0
1004 -192 0
-770 -1315 0
-806 219 0
-1007 -365 0
-652 -87 0
-536 297 0
946 244 0
-959 -780 0
398 1191 0
-552 1309 0
-1315 1096 0
-349 1179 0
1265 -855 0
1073 -1019 0
460 798 0
882 -1188 0
-699 1266 0
1268 367 0
-1268 -557 0
497 198 0
213 -738 0
537 -19 0
138 375 0
-163 1100 0
466 1264 0
962 -1012 0
1045 -241 0
577 -824 0
1258 387 0
986 -518 0
946 959 0
1175 -1040 0
561 333 0
-631 -83 0
1062 -247 0
1106 1173 0
1205 -426 0
503 -187 0
715 560 0
1117 -373 0
-500 399 0
1026 -330 0
234 607 0
265 17 0
-88 -585 0
-1196 178 0
345 1109 0
-357 -542 0
-955 -87 0
611 187 0
-1160 -371 0
629 -759 0
905 -483 0
52 67 0
-1114 -813 0
-1191 -418 0
-534 448 0
875 -1055 0
-1171 1311 0
135 1305 0
-1038 -861 0
1321 -188 0
446 391 0
1002 -928 0
-521 720 0
803 654 0
244 199 0
326 804 0
-1057 1169 0
545 832 0
-711 -333 0
556 30 0
1103 -165 0
936 1296 0
-755 664 0
424 348 0
427 -628 0
-844 -165 0
512 980 0
826 705 0
-1295 -285 0
-816 344 0
-337 -240 0
558 881 0
-807 1084 0
-700 1025 0
1017 337 0
284 102 0
-1158 -902 0
995 417 0
808 229 0
232 -873 0
-832 943 0
-1149 -238 0
1325 -563 0
-1209 1009 0
847 -430 0
-708 -1057 0
880 -226 0
1166 1077 0
104 -400 0
278 -681 0
-1218 -358 0
-61 144 0
-1178 554 0
-1079 409 0
758 -850 0
-741 244 0
-1068 -675 0
1282 -142 0
145 829 0
75 -94 0
1072 279 0
-1200 296 0
-775 -262 0
939 658 0
1325 672 0
-1323 -199 0
-976 -143 0
170 -941 0
673 -461 0
-1234 128 0
1133 -923 0
175 -33 0
614 -165 0
-39 -50 0
-966 44 0
-1081 -446 0
311 -253 0
600 19 0
715 -816 0
1017 402 0
32 672 0
1034 460 0
-1167 631 0
527 100 0
-1178 1285 0
1034 911 0
1203 -226 0
736 -1316 0
737 -1003 0
136 860 0
1270 -1261 0
310 -188 0
1241 355 0
711 814 0
-268 1112 0
-175 971 0
1298 -1166 0
-62 48 0
392 53 0
147 -882 0
776 -12 0
1295 -1178 0
728 574 0
-795 170 0
-938 -526 0
-702 476 0
1144 1042 0
912 -798 0
461 715 0
172 -507 0
588 -735 0
1278 1017 0
917 962 0
-1213 40 0
-251 1304 0
396 1150 0
615 -155 0
550 175 0
550 -740 0
-966 1211 0
-906 141 0
1139 -512 0
-864 1076 0
-697 -399 0
-168 -359 0
127 295 0
939 -870 0
-1256 -197 0
-590 -640 0
-389 779 0
-178 718 0
-47 -649 0
879 448 0
-184 -194 0
271 -168 0
-566 -1057 0
-70 615 0
922 202 0
773 -1120 0
-370 1146 0
-813 908 0
-761 -970 0
69 -652 0
973 1064 0
189 -820 0
56 1137 0
-405 -1145 0
-775 -139 0
656 593 0
-424 720 0
-651 316 0
1258 224 0
-693 541 0
-244 1136 0
-235 -448 0
374 -248 0
-447 -438 0
1271 1296 0
-964 -118 0
1036 1101 0
-368 709 0
479 -1081 0
360 1196 0
111 -1076 0
309 -1229 0
435 -165 0
-771 -142 0
-1324 1277 0
415 502 0
-441 1199 0
-594 530 0
78 -15 0
-207 -934 0
-898 -449 0
367 48 0
722 -426 0
-1128 430 0
589 -249 0
-1235 1021 0
1280 -347 0
1211 833 0
238 232 0
-413 -1032 0
100 119 0
-897 1137 0
1050 1171 0
366 -91 0
768 966 0
-320 -780 0
-28 1120 0
799 -986 0
228 1130 0
-89 -671 0
-340 1321 0
387 -687 0
49 -435 0
-993 -1316 0
-27 863 0
1175 -204 0
-1025 1 0
1029 -359 0
1026 258 0
824 1221 0
948 1230 0
-1062 1297 0
1233 993 0
-32 -512 0
-1112 49 0
214 560 0
-108 888 0
-497 -538 0
866 -1251 0
1175 -190 0
40 -1081 0
-453 -583 0
-130 -317 0
900 -506 0
-253 -536 0
-988 -1084 0
19 1107 0
-87 -951 0
-826 789 0
974 599 0
-1067 -139 0
-728 -307 0
-1207 572 0
-730 240 0
1064 69 0
-65 909 0
1090 -465 0
-477 160 0
-502 -18 0
-848 335 0
-1323 -140 0
-994 -1016 0
-401 -843 0
-121 -90 0
620 -649 0
-874 1023 0
-1058 -90 0
-517 904 0
115 -1298 0
585 14 0
978 135 0
-89 -687 0
-562 -300 0
1295 381 0
456 -472 0
851 -67 0
6 -1259 0
1298 -841 0
-807 -237 0
-757 -410 0
-677 610 0
1290 203 0
286 -958 0
273 -514 0
-71 -1227 0
143 909 0
-272 -661 0
637 -964 0
1239 882 0
-1322 77 0
333 -474 0
18 762 0
120 -678 0
446 -84 0
-437 -393 0
-706 -37 0
261 1035 0
44 1280 0
278 -36 0
-623 36 0
-376 -936 0
-1133 -22 0
1125 856 0
-620 1225 0
1032 939 0
-257 -260 0
-1098 733 0
-341 -762 0
-653 943 0
840 -12 0
-244 1245 0
1213 -282 0
1062 501 0
-443 -405 0
-482 -740 0
377 717 0
-680 -85 0
1099 77 0
-802 452 0
547 -1276 0
1093 163 0
876 299 0
1009 1262 0
-807 -376 0
566 -815 0
-740 402 0
-760 560 0
1322 889 0
1267 914 0
214 -322 0
-376 525 0
-1168 -1015 0
250 726 0
-963 221 0
429 -561 0
-1117 77 0
-658 -358 0
672 1087 0
-445 -1116 0
480 924 0
724 -303 0
-1062 -1147 0
908 -693 0
363 -1012 0
442 483 0
-82 134 0
-780 -397 0
1059 -1074 0
-18 -331 0
513 -606 0
779 367 0
-640 325 0
-613 325 0
838 -1119 0
202 280 0
-1132 -670 0
1075 1063 0
341 -584 0
50 437 0
281 -488 0
870 1018 0
-116 1226 0
1036 -1151 0
609 128 0
-334 -797 0
181 -670 0
640 1264 0
-21 444 0
210 -1275 0
769 725 0
1223 -263 0
395 231 0
495 1307 0
-1309 -85 0
398 905 0
-378 278 0
361 -1143 0
317 -1015 0
-174 399 0
-697 -250 0
539 -968 0
-777 424 0
469 729 0
-993 -505 0
-508 384 0
480 -1167 0
-270 -647 0
385 -748 0
488 412 0
-322 1180 0
478 -21 0
79 417 0
749 465 0
-307 1292 0
-1301 -670 0
-257 456 0
895 1083 0
-39 229 0
-255 301 0
99 -558 0
1036 -1269 0
-811 -671 0
-446 546 0
-126 661 0
842 349 0
-1158 979 0
654 -816 0
-1175 -373 0
-837 -319 0
249 170 0
-245 270 0
-12 -623 0
-691 -512 0
32 -44 0
-1141 125 0
925 -238 0
527 -263 0
-1322 482 0
865 116 0
800 904 0
-328 145 0
-1081 635 0
-54 345 0
1213 381 0
398 1016 0
-1068 1061 0
-438 302 0
700 757 0
-771 -777 0
-1189 -730 0
-536 257 0
-584 -731 0
812 38 0
696 -422 0
-1014 -239 0
-225 -378 0
-22 467 0
-1001 1034 0
-1007 1304 0
891 -839 0
188 231 0
-867 -371 0
1202 756 0
-158 -9 0
-737 1298 0
1095 1117 0
-88 -360 0
1208 -704 0
107 881 0
-1081 -632 0
-112 -131 0
1195 -706 0
353 266 0
-973 1225 0
-230 -25 0
80 224 0
115 -545 0
-902 399 0
779 1095 0
1049 -1285 0
1031 738 0
-976 463 0
196 -606 0
460 634 0
733 -293 0
594 16 0
310 125 0
205 -367 0
-1253 626 0
346 1190 0
-595 89 0
1287 1228 0
-772 -492 0
941 530 0
-1105 573 0
-108 1082 0
-236 832 0
988 -243 0
518 -379 0
836 330 0
-874 1084 0
-171 -300 0
450 482 0
-87 1059 0
-850 -1149 0
299 422 0
1323 -106 0
399 -393 0
939 -196 0
482 -1068 0
878 848 0
630 525 0
189 1180 0
-1277 -740 0
-702 236 0
832 -122 0
1238 213 0
1266 1181 0
-123 -1046 0
-651 -100 0
575 -628 0
-657 265 0
-1179 624 0
-482 -1285 0
257 791 0
-527 102 0
947 438 0
737 -517 0
-319 1034 0
754 -14 0
249 1228 0
-705 660 0
-869 -754 0
-149 -178 0
715 -164 0
-994 369 0
868 -309 0
-272 -351 0
242 1117 0
746 1079 0
150 797 0
1046 -700 0
406 1026 0
-427 127 0
1187 -951 0
1288 205 0
-16 619 0
574 437 0
64 -680 0
564 375 0
995 1069 0
1106 475 0
-1167 416 0
111 767 0
-653 78 0
-606 -1095 0
-230 -1226 0
365 -1040 0
-199 -403 0
-494 1039 0
498 537 0
33 -1000 0
499 250 0
-645 -1126 0
33 904 0
-1221 -93 0
593 418 0
-506 167 0
792 520 0
820 246 0
-165 -1046 0
-630 673 0
-185 131 0
-410 207 0
-396 -1181 0
1317 -158 0
1023 -569 0
224 -271 0
-98 -906 0
-410 883 0
-1088 1228 0
1273 942 0
-906 -217 0
-797 -507 0
-671 -1206 0
-699 25 0
830 -1244 0
-90 1092 0
839 891 0
615 100 0
-705 -1118 0
500 281 0
1077 -1182 0
970 307 0
536 166 0
627 -501 0
-800 -822 0
-269 -740 0
27 -584 0
11 492 0
803 -1091 0
913 -131 0
625 -1295 0
1078 -677 0
967 998 0
-580 491 0
226 -364 0
622 -596 0
-4 95 0
560 201 0
585 181 0
-140 979 0
509 -1272 0
471 -1094 0
-1113 1219 0
1024 -815 0
1321 425 0
-1272 692 0
711 437 0
-1266 -258 0
410 310 0
172 147 0
56 -793 0
1243 -286 0
573 109 0
1156 -458 0
16 925 0
494 459 0
762 -1090 0
-459 896 0
-499 -987 0
-704 -167 0
1239 -1139 0
-225 -1269 0
1213 -197 0
-1145 1050 0
1036 735 0
-25 1065 0
-1097 -1164 0
753 1059 0
543 890 0
1319 564 0
67 977 0
547 504 0
-91 -937 0
-30 1300 0
-1173 1296 0
-506 1123 0
-894 -687 0
1068 -1118 0
-833 977 0
-1178 565 0
935 158 0
-214 783 0
-906 -1192 0
104 -120 0
382 -426 0
836 725 0
-9 71 0
898 225 0
1232 -97 0
837 -400 0
989 -321 0
-1147 -5 0
-697 600 0
752 606 0
707 -1171 0
-10 -705 0
421 338 0
-274 -341 0
160 -755 0
278 782 0
1293 -1006 0
337 -857 0
34 479 0
-1249 -916 0
-732 -938 0
-1231 -1216 0
-1229 -1305 0
216 -199 0
463 -476 0
-643 189 0
-995 889 0
1322 674 0
-260 -691 0
-590 105 0
-819 -751 0
1294 901 0
-710 674 0
-815 478 0
-180 164 0
313 -287 0
-140 306 0
232 103 0
1204 -165 0
-313 1005 0
150 686 0
6 500 0
-81 961 0
-910 -474 0
1257 558 0
889 -370 0
-316 9 0
-1018 822 0
475 -775 0
1022 377 0
1087 29 0
-906 -1242 0
469 412 0
30 713 0
-553 -867 0
32 47 0
254 -618 0
841 -112 0
124 -87 0
1097 773 0
892 -727 0
701 778 0
246 -693 0
-320 571 0
648 1313 0
1307 484 0
752 -504 0
-1257 -1191 0
-1040 -651 0
-376 128 0
-398 718 0
-59 722 0
-216 310 0
744 -449 0
470 338 0
-168 560 0
-1201 -1108 0
1298 922 0
-358 962 0
508 190 0
1287 40 0
1037 934 0
944 241 0
-90 -587 0
402 -746 0
877 -863 0
-813 890 0
-448 -12 0
845 503 0
-1078 -112 0
-1134 362 0
635 1117 0
-1119 1162 0
-1040 -1242 0
1022 737 0
743 -448 0
537 -735 0
-744 -1315 0
617 -68 0
-535 1002 0
431 229 0
-873 1315 0
-119 -1155 0
-903 -654 0
-50 677 0
-974 369 0
975 -567 0
1194 827 0
-81 1211 0
876 702 0
556 539 0
909 -303 0
608 1239 0
588 478 0
103 -552 0
226 759 0
184 -414 0
-719 124 0
11 -207 0
204 104 0
-82 1306 0
-432 1033 0
-665 -464 0
1121 1263 0
173 -1052 0
-184 623 0
-580 696 0
45 566 0
210 -1276 0
1205 1042 0
1010 1004 0
935 751 0
-920 -518 0
-590 -1086 0
573 -563 0
149 857 0
-258 17 0
-1181 532 0
-823 361 0
-850 1278 0
536 -1035 0
200 562 0
132 922 0
-81 652 0
561 -321 0
-859 -922 0
886 1205 0
1028 111 0
187 -912 0
1101 -895 0
-195 410 0
214 -468 0
-396 -596 0
884 -874 0
-494 -517 0
967 736 0
1265 1104 0
-1010 -1188 0
754 185 0
463 -844 0
-365 446 0
1277 788 0
65 888 0
-130 -94 0
1183 53 0
128 -138 0
762 20 0
-930 1190 0
962 -316 0
-1102 128 0
1082 262 0
-616 -340 0
-179 -1260 0
94 -326 0
829 -866 0
-751 1199 0
-474 -584 0
17 460 0
1264 -471 0
1024 443 0
713 408 0
-176 -29 0
-1168 -689 0
173 418 0
-569 -547 0
-1293 -388 0
1307 -294 0
-717 -98 0
1026 -449 0
305 518 0
-793 245 0
-1128 524 0
-127 -123 0
248 -606 0
-699 513 0
-506 -4 0
706 1276 0
-121 -1243 0
-1166 938 0
-539 34 0
-724 149 0
-1105 216 0
738 -1303 0
33 528 0
361 -552 0
1202 870 0
-1110 745 0
-1203 -867 0
-646 -638 0
119 806 0
1249 934 0
152 635 0
995 518 0
435 589 0
1017 -700 0
-183 980 0
-1126 -649 0
-955 948 0
723 245 0
669 -786 0
851 -288 0
667 -940 0
-631 -1052 0
63 1288 0
-582 -1256 0
833 1288 0
-1118 -946 0
1181 -1256 0
660 1031 0
560 1045 0
553 533 0
238 -1103 0
-689 676 0
274 -15 0
-131 -1098 0
241 -1209 0
438 718 0
530 457 0
1258 -317 0
997 -1105 0
277 1196 0
-631 220 0
504 -902 0
1277 -424 0
-850 150 0
865 -1148 0
-493 1078 0
-1318 536 0
-1128 198 0
-260 -998 0
439 -1302 0
-1232 -928 0
1059 1291 0
-1197 1293 0
-36 625 0
200 -708 0
1298 661 0
-634 1207 0
783 -207 0
1316 519 0
-666 -454 0
-252 -1197 0
787 45 0
410 468 0
-10 1020 0
-688 1042 0
407 35 0
-956 1082 0
-168 660 0
519 -209 0
-247 -1170 0
-204 252 0
1193 1206 0
-520 -98 0
-473 1162 0
-90 -364 0
1224 756 0
-658 -518 0
-19 1194 0
565 769 0
954 -18 0
214 -765 0
-12 1185 0
-159 -376 0
-793 -557 0
573 -1167 0
1150 554 0
-1174 -290 0
1038 -946 0
102 -568 0
-562 994 0
817 389 0
884 -1166 0
476 494 0
258 -1105 0
890 736 0
52 -155 0
865 -551 0
1305 1029 0
637 982 0
-325 -526 0
1283 -212 0
-368 72 0
-780 -143 0
266 -416 0
959 -561 0
-1318 -1102 0
-452 472 0
-122 -308 0
-1242 500 0
814 -1198 0
819 -1225 0
-1102 -370 0
214 -635 0
1063 -854 0
-425 -9 0
505 109 0
-784 819 0
-483 -719 0
-625 293 0
-747 347 0
-379 -136 0
-91 1204 0
-477 484 0
2 34 0
285 -204 0
-488 -408 0
-556 69 0
-903 -884 0
664 -316 0
-846 -1251 0
143 1161 0
-602 -1171 0
847 -335 0
-901 -30 0
426 -323 0
-583 1129 0
1139 403 0
-173 -518 0
-10 -372 0
-528 -87 0
1273 727 0
764 -352 0
-785 555 0
116 -268 0
339 959 0
439 -684 0
749 506 0
-346 -800 0
1232 -74 0
1290 -254 0
426 574 0
-423 -1067 0
-201 1307 0
641 661 0
527 307 0
381 -1031 0
-599 -457 0
215 -542 0
851 -1046 0
189 -1031 0
81 345 0
103 -335 0
-1269 161 0
-693 -1322 0
-243 1297 0
-1170 965 0
53 525 0
705 -520 0
-180 297 0
-349 -375 0
-1211 -242 0
1087 972 0
111 -895 0
955 676 0
492 729 0
-279 213 0
1270 884 0
-12 -732 0
-805 -669 0
-538 1020 0
-880 -199 0
-182 -702 0
-1099 1240 0
-645 -1235 0
268 -473 0
-1217 -337 0
-237 -813 0
-151 960 0
-1118 -863 0
-1016 728 0
-840 -713 0
226 -504 0
730 1033 0
-117 -348 0
-184 -702 0
-86 -378 0
-917 -506 0
18 -342 0
135 -349 0
-183 103 0
1265 -186 0
830 1144 0
-186 -716 0
1092 595 0
1136 701 0
-1165 -1051 0
-334 -1174 0
370 -596 0
912 1158 0
345 1183 0
-213 -58 0
-523 163 0
-1285 513 0
-499 722 0
-663 1077 0
-208 -358 0
1119 -973 0
-1008 -885 0
-823 586 0
-719 -1279 0
-1149 -359 0
-1188 -535 0
-653 173 0
-679 -1041 0
332 916 0
71 -1069 0
-1177 481 0
1160 46 0
1228 305 0
460 880 0
28 -668 0
42 759 0
-1316 333 0
325 -9 0
-263 1109 0
939 905 0
39 -1323 0
560 53 0
-1234 -712 0
-76 489 0
1120 -93 0
1238 1117 0
-672 546 0
-395 1156 0
-1058 1207 0
555 -628 0
639 -741 0
479 -714 0
-424 -730 0
-1081 -699 0
965 1119 0
20 716 0
502 1047 0
1048 -1139 0
359 203 0
-70 -518 0
1040 221 0
-1060 734 0
-744 1223 0
734 971 0
429 -729 0
-682 -156 0
-440 -1187 0
1222 -540 0
-662 293 0
466 -536 0
-976 388 0
178 1062 0
-1094 -1091 0
962 1163 0
948 935 0
1122 661 0
1226 1322 0
44 -1004 0
-775 -45 0
908 -682 0
-1191 -726 0
-895 -696 0
506 -1086 0
753 -567 0
105 -518 0
914 1072 0
1283 -439 0
223 -912 0
-454 48 0
-753 27 0
-1019 -49 0
467 -1016 0
884 -784 0
-341 664 0
1133 152 0
-336 -522 0
1172 1274 0
-1233 356 0
25 175 0
-790 -1069 0
515 212 0
-824 769 0
-604 441 0
696 -713 0
637 632 0
-396 -296 0
-609 -1213 0
-889 -955 0
165 1311 0
331 -679 0
243 -1138 0
-1171 483 0
104 -1264 0
-61 388 0
-48 -576 0
1062 649 0
-78 349 0
-529 73 0
1270 677 0
225 -165 0
-376 880 0
1053 888 0
752 -167 0
22 -1040 0
601 -1186 0
-1133 898 0
-364 1183 0
1168 -373 0
-627 -586 0
-221 -2 0
-736 -1018 0
-944 355 0
12 -769 0
437 -587 0
976 1124 0
837 -840 0
-336 -945 0
1155 -74 0
-1119 -1012 0
72 496 0
275 481 0
-117 913 0
723 -953 0
564 1180 0
-243 428 0
-932 -1290 0
-927 -504 0
181 -284 0
332 1207 0
-37 -64 0
-1143 298 0
-614 -1021 0
-731 -392 0
-57 -98 0
-1237 784 0
-99 -909 0
-750 360 0
-1067 523 0
-699 -1315 0
1100 398 0
742 -452 0
-984 75 0
-596 418 0
8 -994 0
865 928 0
-467 -1145 0
20 -254 0
1233 1246 0
-93 -167 0
696 -446 0
-771 -1067 0
1113 1255 0
42 675 0
836 1199 0
104 -329 0
-507 70 0
-982 676 0
-368 -427 0
674 241 0
1042 25 0
-79 -185 0
602 554 0
-544 962 0
293 177 0
-1099 -451 0
539 383 0
344 1208 0
1070 327 0
1273 835 0
-106 1224 0
1009 -163 0
-1043 1095 0
292 961 0
-59 34 0
1157 972 0
472 -457 0
804 799 0
456 1065 0
-286 390 0
381 1006 0
758 1017 0
458 -1019 0
-830 585 0
1172 624 0
777 86 0
103 648 0
-846 -259 0
-269 -1189 0
624 -680 0
141 -448 0
1002 667 0
1222 1321 0
-1108 -439 0
626 -1281 0
554 678 0
-78 -771 0
1086 1129 0
766 532 0
345 -627 0
-801 619 0
-1145 -720 0
275 -1082 0
-574 111 0
715 -300 0
-97 -1119 0
623 -877 0
99 922 0
-773 118 0
424 1008 0
-182 1067 0
-776 -387 0
16 -541 0
1062 -50 0
-333 -253 0
723 -66 0
422 -205 0
673 -1272 0
712 1106 0
403 513 0
152 -815 0
-322 -782 0
876 -1247 0
-1274 256 0
-1215 1182 0
-545 -399 0
-993 -1132 0
1306 -1069 0
-270 905 0
110 673 0
123 -1105 0
468 864 0
1066 746 0
-464 1109 0
-290 -1259 0
-1250 -644 0
7 -1185 0
-234 -1001 0
-59 544 0
-358 752 0
1231 -609 0
-990 -599 0
138 1083 0
-26 -346 0
524 411 0
176 221 0
-295 -91 0
-957 -8 0
741 854 0
-895 191 0
-174 739 0
14 -824 0
-517 325 0
-237 -925 0
-782 -152 0
-824 -538 0
-151 -570 0
1125 -872 0
-932 414 0
414 10 0
1313 494 0
737 304 0
199 -1011 0
253 -70 0
-1250 14 0
710 309 0
-2 -1023 0
-398 -23 0
-1007 -1054 0
-448 -220 0
1112 -1116 0
-12 -1212 0
828 317 0
1208 654 0
174 -250 0
803 470 0
878 -1080 0
1157 654 0
-60 -883 0
-778 501 0
-533 332 0
1198 -1099 0
865 -582 0
-628 498 0
1034 -1078 0
1082 -1117 0
24 684 0
595 328 0
-873 701 0
1039 888 0
-367 -950 0
-983 -843 0
1100 65 0
-1224 -316 0
852 -662 0
317 389 0
1002 667 0
-269 -1001 0
1213 75 0
1058 116 0
-325 429 0
834 -822 0
-426 -1135 0
-521 1084 0
-680 -1278 0
49 302 0
139 -2 0
-1135 -1282 0
-189 -445 0
1267 830 0
-1021 877 0
-268 203 0
-189 589 0
408 -780 0
-324 970 0
904 747 0
-352 -1137 0
733 637 0
-83 95 0
-253 80 0
975 257 0
958 -125 0
-1041 -327 0
715 -5 0
-1051 484 0
-529 995 0
-1241 -60 0
-244 1212 0
672 1087 0
77 550 0
-436 -906 0
676 664 0
619 267 0
1064 718 0
-120 156 0
964 1123 0
612 140 0
622 389 0
-977 1236 0
1218 1240 0
-1149 -1312 0
810 555 0
-392 291 0
-370 991 0
691 992 0
1232 911 0
1152 -616 0
-797 1046 0
591 -1256 0
1131 -70 0
-122 -607 0
556 -274 0
-264 1245 0
-1197 -1011 0
428 1099 0
-906 -1135 0
810 -1114 0
-401 320 0
278 412 0
-1229 -393 0
-827 945 0
1310 566 0
-123 423 0
-761 138 0
675 -449 0
-677 -1111 0
917 49 0
-372 -1 0
-1196 186 0
-769 -223 0
779 -634 0
-299 67 0
20 -1285 0
573 -806 0
188 1070 0
-816 711 0
1073 -424 0
535 -1242 0
753 -1085 0
-786 1082 0
-359 466 0
764 654 0
-114 611 0
-837 -1055 0
370 -248 0
9 1065 0
-927 -61 0
1156 -352 0
-71 642 0
-1264 469 0
-183 37 0
-11 255 0
-541 -85 0
-292 443 0
-1175 893 0
-559 -408 0
71 811 0
416 -697 0
509 229 0
-503 1268 0
268 -296 0
-800 -755 0
-9 -471 0
429 -745 0
-179 -261 0
266 -1253 0
1280 -434 0
