c NF
p cnf 3040 2432
1130 -2138 0
-2251 1635 0
1345 2364 0
924 2810 0
-2718 -2769 0
-1817 1552 0
-2013 -2861 0
2382 -2413 0
-1878 -2063 0
-2576 1920 0
-38 -1905 0
-2255 1286 0
-1577 702 0
-1438 -50 0
2888 1411 0
-1836 2724 0
-1838 -1392 0
-340 -704 0
-2300 692 0
-2734 -1730 0
288 1938 0
-2051 547 0
2558 1897 0
-2238 1853 0
-2539 -49 0
2256 -51 0
1724 1522 0
1137 -870 0
-1223 -151 0
-1091 1144 0
-3006 -1514 0
1703 2256 0
-621 -848 0
-2643 930 0
-2594 -2169 0
-1778 -2247 0
1583 -2233 0
1344 -1632 0
-2918 1332 0
-1745 1759 0
-767 -1743 0
103 1495 0
-397 2843 0
-533 717 0
249 -554 0
290 -1481 0
-2368 1103 0
588 976 0
2987 2122 0
603 686 0
1952 2469 0
-1817 442 0
-1391 -1047 0
-475 837 0
2588 2837 0
562 2018 0
-1345 -1840 0
-261 -1671 0
1275 1476 0
584 -50 0
-2113 -758 0
1795 -770 0
-2809 384 0
2075 -70 0
1402 2874 0
-1153 58 0
-2207 -302 0
161 -1598 0
-1568 2915 0
-184 2867 0
-426 537 0
2327 1124 0
2240 2459 0
2069 48 0
360 -466 0
-322 2057 0
-83 1496 0
-2997 15 0
2873 -591 0
-1001 1835 0
-2232 2256 0
2836 -885 0
-1866 320 0
-1308 -1189 0
1219 -2256 0
-819 -1215 0
-37 -2019 0
-1459 -2986 0
2142 907 0
-2848 2646 0
1183 -1638 0
-2570 -2106 0
-2037 713 0
1104 2808 0
-1732 793 0
-1381 928 0
2794 891 0
1965 1285 0
-1777 2320 0
2616 -1764 0
-2773 -1984 0
-1179 1016 0
-2234 -1799 0
2477 439 0
-1217 -2710 0
-2229 1589 0
1941 60 0
-113 -1610 0
658 -1663 0
351 2755 0
-681 -2497 0
-1866 -1251 0
-1761 -1437 0
2245 2542 0
38 79 0
1702 -2466 0
-689 -2647 0
-2076 1920 0
2977 2228 0
429 2475 0
-1785 -1788 0
2228 -617 0
1454 -1395 0
-2948 -134 0
-1402 -1040 0
-680 1307 0
2068 -2038 0
-2549 -631 0
-44 -2009 0
612 1588 0
196 -525 0
738 2783 0
-2082 -1980 0
-3025 2385 0
425 -251 0
-1568 2301 0
2346 -2054 0
1886 -1804 0
2271 480 0
1145 2618 0
2102 2647 0
-1622 2929 0
-331 2057 0
-408 -356 0
-1507 76 0
-2112 -913 0
1961 -597 0
1984 378 0
-503 2284 0
-1143 -2902 0
-799 1116 0
-2350 1233 0
1457 -1849 0
780 -1145 0
936 21 0
-2890 -184 0
-184 561 0
2553 -1578 0
1520 -2118 0
-972 -1744 0
407 98 0
2234 -1677 0
-1895 2200 0
-2830 784 0
617 -265 0
538 -1774 0
1302 -181 0
1053 -3027 0
-2408 -1669 0
2475 -761 0
-2156 770 0
-3020 2663 0
2781 -885 0
-2410 -1788 0
2039 675 0
-2272 2844 0
-2585 -1388 0
1209 274 0
-2698 661 0
733 1258 0
-1409 397 0
2147 2026 0
-1824 -2490 0
-2784 11 0
-1330 320 0
1524 -1762 0
-2820 -1717 0
-2821 1602 0
-2779 634 0
1447 400 0
-2285 2119 0
3008 -2781 0
2105 88 0
-1902 -185 0
2278 -1131 0
2383 -2834 0
742 1938 0
-2403 875 0
2312 -312 0
-2942 -267 0
1232 331 0
171 -511 0
1306 -2496 0
-3012 -478 0
2904 -1810 0
-1576 1870 0
-2069 934 0
-1266 -682 0
2186 -1891 0
926 -1102 0
976 2911 0
2271 -368 0
-2496 -842 0
-572 -2315 0
117 226 0
-650 -1397 0
1711 2270 0
-1897 -2262 0
-117 2960 0
-1437 -2309 0
1402 2035 0
-1252 2152 0
-1298 -2605 0
44 390 0
1009 -1524 0
1434 -2547 0
2473 -2319 0
-245 -1031 0
-2410 -1111 0
-1431 850 0
230 403 0
591 -1379 0
-2884 -2882 0
-393 2832 0
-2688 -1471 0
2213 1548 0
199 -1610 0
-2869 2976 0
625 -1345 0
-998 -2698 0
-655 2335 0
-843 -3016 0
2256 1872 0
173 891 0
1038 -127 0
-1131 -1734 0
1138 -1594 0
2906 -155 0
600 683 0
798 -1153 0
1634 -698 0
1353 1833 0
-2792 2774 0
1639 1926 0
203 1454 0
1254 511 0
2826 687 0
1253 1009 0
-2775 -2113 0
1079 989 0
-252 -2517 0
1443 1208 0
-1122 -370 0
-1870 -1752 0
652 -1864 0
-259 1737 0
2642 274 0
653 -2115 0
-1968 2662 0
-1470 -709 0
531 -181 0
-1800 1783 0
591 -1857 0
-1363 586 0
-2422 -515 0
2791 1617 0
2069 -152 0
1462 1807 0
-810 1533 0
-199 1768 0
1856 172 0
-1675 2209 0
1517 -2185 0
-2568 -443 0
-1460 2159 0
-1429 1220 0
2676 2060 0
15 1023 0
-2424 1531 0
-41 -2377 0
2444 1209 0
2919 351 0
-527 -2708 0
917 1690 0
1439 1171 0
732 -2791 0
2532 250 0
-2654 -1615 0
-1413 1411 0
2672 -356 0
-1578 1471 0
-816 2541 0
878 -2121 0
-2403 554 0
2616 2542 0
-282 1966 0
-141 2623 0
-2128 404 0
464 1543 0
-1007 -1227 0
-1320 2707 0
1167 1989 0
-1560 -689 0
-2080 1563 0
-2989 620 0
-1741 1752 0
-256 -951 0
2452 1702 0
2232 -1268 0
-1740 644 0
-576 -1039 0
1260 -723 0
-1023 2728 0
946 -1180 0
-1849 1173 0
934 -45 0
-1115 1261 0
-1828 722 0
708 -2954 0
173 -188 0
-2881 -2224 0
-86 -2546 0
1245 -2163 0
-1861 -2523 0
1973 1867 0
-491 -653 0
1627 -1840 0
1201 519 0
2548 2010 0
-2065 -2627 0
-1071 719 0
-1621 -1478 0
-1870 -2081 0
1682 -2954 0
2614 -2131 0
1212 1628 0
1351 -2723 0
-2593 -2880 0
-954 -2233 0
-608 1280 0
316 96 0
-228 -2482 0
-760 345 0
-2020 -2790 0
919 2151 0
1688 1213 0
1951 -2300 0
1141 -2575 0
2017 -1471 0
-2423 -2830 0
1593 -649 0
238 2854 0
-653 1052 0
-2360 -1402 0
2500 2832 0
1593 2899 0
-948 2841 0
-799 280 0
2964 -436 0
-1416 -102 0
437 776 0
1903 -231 0
-890 2891 0
-1407 149 0
-973 2618 0
2550 1518 0
928 1441 0
363 -2197 0
129 -2303 0
-355 1990 0
-2249 -41 0
-1795 -1883 0
2795 -639 0
1092 -1455 0
-2647 -2315 0
2392 1408 0
1299 -1534 0
-1694 -827 0
1920 -1030 0
2791 2595 0
525 -1389 0
197 1629 0
-507 2240 0
-405 1220 0
-457 276 0
843 -790 0
-1341 1501 0
-566 2425 0
1018 584 0
-2170 -790 0
35 2175 0
1865 907 0
2149 1466 0
11 -2477 0
694 -1211 0
2366 1657 0
2785 -904 0
-134 2294 0
889 2229 0
-391 616 0
-132 -1575 0
-2030 -297 0
504 -892 0
-191 -1433 0
2145 430 0
642 1989 0
1842 1533 0
2850 2421 0
-2635 -1650 0
1575 -20 0
2085 -1608 0
2120 280 0
2835 -2279 0
666 1759 0
325 -712 0
-2455 2684 0
404 64 0
171 -2105 0
1832 -2375 0
1307 -405 0
684 -1780 0
-1449 1531 0
-2880 -1705 0
-206 2382 0
-1724 115 0
2459 529 0
-2478 -1757 0
2874 2707 0
2329 -3013 0
-1128 1618 0
1294 -582 0
-748 140 0
-2807 -1477 0
-1743 -1718 0
2996 47 0
1941 -1953 0
-2997 -847 0
-1491 -2551 0
-457 1096 0
-1836 -892 0
2202 -1935 0
-938 -2306 0
-121 1613 0
-393 94 0
468 -577 0
2980 -1993 0
511 -2811 0
1107 2403 0
2759 1506 0
2911 -2991 0
367 -1401 0
2762 1311 0
388 1680 0
599 -170 0
-1299 -2075 0
1592 -3006 0
2386 1025 0
-965 -658 0
1655 -2079 0
-2439 -2944 0
-714 -381 0
-682 912 0
2746 -1345 0
1151 -677 0
1833 -1263 0
-2603 2964 0
-354 -2966 0
558 -507 0
1887 550 0
-1483 1801 0
1232 1922 0
2737 -1550 0
-1242 2473 0
-1724 617 0
737 1476 0
-1625 2552 0
1132 2588 0
1302 1454 0
784 661 0
1689 -1735 0
-934 2956 0
-567 -1453 0
-754 1048 0
1593 -2853 0
-432 1440 0
1260 -1121 0
-716 -487 0
2527 2564 0
-1514 -2518 0
-256 -2942 0
-101 -1450 0
133 -846 0
1590 2351 0
-2102 323 0
-2080 -1102 0
-264 -2607 0
111 1135 0
-3009 -2957 0
-2201 1910 0
-1024 -1467 0
-200 -2343 0
1096 1144 0
300 -505 0
-2635 2778 0
-618 119 0
-808 -2655 0
-2231 1327 0
2158 87 0
54 647 0
2191 1356 0
1295 -274 0
2039 -113 0
-1588 873 0
-226 563 0
810 2170 0
-2301 459 0
609 926 0
-2181 -2779 0
-2001 -1541 0
940 2643 0
-2911 -225 0
1149 -1705 0
-2621 595 0
1600 -1794 0
203 1237 0
-2770 -445 0
2785 2992 0
-756 763 0
-1244 215 0
941 -1374 0
-541 -1679 0
2536 1436 0
746 -323 0
2069 632 0
2892 692 0
806 752 0
-1968 -2916 0
2891 1067 0
-2817 2774 0
1856 1308 0
310 -1158 0
432 3004 0
789 280 0
2360 -1480 0
-450 -700 0
-491 1617 0
-2758 108 0
-2283 2734 0
1204 -249 0
-2845 1977 0
1175 2875 0
-478 -610 0
572 1287 0
146 -2646 0
-2542 -2673 0
-2930 2736 0
291 2452 0
-2923 2066 0
-1487 1013 0
-2846 2867 0
900 -2096 0
2799 -871 0
2383 2131 0
194 2707 0
-742 1544 0
3007 2717 0
2333 804 0
-577 -629 0
773 1209 0
1962 2344 0
-1397 1164 0
-2437 1348 0
-337 -816 0
-1831 654 0
-2587 -2957 0
-1208 -890 0
-671 2753 0
528 -644 0
-1550 789 0
-1460 1980 0
-1791 2774 0
-2978 -906 0
-2909 1661 0
1137 2985 0
-2216 -2356 0
1847 322 0
2019 2189 0
2974 -1162 0
1870 -1620 0
2426 -1523 0
85 -23 0
570 352 0
-2700 2482 0
-2655 287 0
2908 -1609 0
-679 -1417 0
2095 -2561 0
2973 -1370 0
244 1525 0
1951 2890 0
-852 2614 0
-1119 -2325 0
-1681 -2549 0
1614 1645 0
-1695 442 0
-539 -1231 0
147 -141 0
-437 -2094 0
2667 2468 0
-2955 -599 0
1496 -1727 0
-2127 2544 0
316 18 0
48 -458 0
-1744 -2696 0
-2237 -1574 0
17 -1338 0
-1401 684 0
-3035 -1415 0
-1070 2288 0
-1826 -2938 0
-775 -1549 0
2342 -83 0
18 452 0
-2581 -2838 0
-2014 732 0
1036 -1126 0
2717 -1344 0
1972 452 0
1248 -262 0
641 2212 0
1382 2236 0
-2569 1668 0
-2989 2574 0
927 -882 0
-1127 -1514 0
669 -2420 0
1074 1941 0
149 -1872 0
-62 2179 0
1036 2180 0
2210 -999 0
2282 -475 0
-930 -1673 0
1258 -3024 0
-272 238 0
2858 1378 0
1146 -174 0
-689 79 0
2789 502 0
1730 -521 0
2304 -1423 0
488 478 0
-812 666 0
2778 1560 0
-1498 965 0
-1610 -2640 0
1462 -2344 0
-1210 2920 0
618 -2795 0
1425 1135 0
348 -598 0
-760 -1636 0
1811 -2594 0
522 -506 0
2969 2509 0
1143 492 0
-918 2614 0
-2296 -1625 0
-553 -2566 0
-651 1369 0
-333 -817 0
-1673 1321 0
-608 1327 0
-821 -1759 0
-1434 -2004 0
235 133 0
2805 2019 0
2648 -1055 0
-1682 2510 0
2579 -781 0
-784 -772 0
-1098 2169 0
-41 -2023 0
-342 -1239 0
1462 -2547 0
859 -3017 0
1622 2606 0
-2841 2619 0
-1465 189 0
1195 -173 0
955 1183 0
1502 764 0
-933 -2313 0
-2449 -1068 0
1659 -1263 0
524 1828 0
2112 2811 0
2548 2904 0
2426 -996 0
-2917 -182 0
1631 -1633 0
715 2262 0
-2331 2030 0
1000 -1830 0
921 -723 0
446 -2989 0
1697 1260 0
-2231 1024 0
-2928 -2058 0
734 2783 0
1727 -2737 0
2859 2196 0
-438 3003 0
254 73 0
-71 515 0
2563 -815 0
-1401 1922 0
-307 -1989 0
2934 -1692 0
-2697 1754 0
-962 473 0
-1654 2212 0
-2682 -1567 0
-425 2110 0
2895 892 0
2257 71 0
-2503 -2457 0
-1004 161 0
-2199 2115 0
-1381 -1791 0
466 -521 0
437 1035 0
-2944 694 0
-577 -806 0
2306 -2291 0
2296 -2969 0
-2257 -725 0
-506 -2952 0
-62 -826 0
-2178 1474 0
2003 2217 0
-717 -3024 0
-703 324 0
-826 1552 0
313 139 0
-228 -861 0
3030 750 0
-533 -2745 0
-1273 2230 0
-863 1763 0
2741 -1733 0
-1681 2125 0
485 -2671 0
-2677 2648 0
-546 -976 0
-2107 -1758 0
1237 -635 0
-2834 2184 0
-2048 2196 0
2891 472 0
2127 -1644 0
-497 1471 0
603 -2507 0
-398 -2757 0
1110 -234 0
2011 1197 0
-3034 1276 0
2592 1079 0
544 -2852 0
2450 -957 0
-962 1090 0
1245 -672 0
35 -1040 0
2762 -264 0
-2944 948 0
-1441 2441 0
-2368 1445 0
1830 1533 0
-844 806 0
-1975 -1051 0
-1951 866 0
-1082 -2072 0
1380 1583 0
-748 341 0
-594 1716 0
-1667 -3026 0
-2861 1930 0
-2492 -1785 0
1084 516 0
2914 57 0
-1976 1331 0
1396 -1096 0
-595 -2940 0
-1109 2873 0
2214 -1243 0
562 -1902 0
2296 1442 0
-14 -2336 0
193 -2413 0
-2787 -2305 0
-2803 -2069 0
1767 -2493 0
1323 -37 0
-2702 -31 0
-1049 35 0
2707 2263 0
1694 737 0
-2199 -1742 0
2548 1223 0
412 1496 0
864 -2250 0
407 -601 0
-1362 2318 0
261 2185 0
-876 -1282 0
1966 1427 0
-1352 -1299 0
-2396 -641 0
1955 -1584 0
-1363 -1702 0
-1758 1186 0
2822 -1145 0
-188 2535 0
-47 -2247 0
2068 1476 0
2577 -1700 0
806 344 0
-701 1529 0
-1955 2667 0
-2470 2393 0
1743 1576 0
1217 488 0
2832 -1732 0
1837 56 0
-1627 -1708 0
2510 1947 0
-2695 -2923 0
2592 136 0
12 150 0
2812 -1139 0
-596 -1749 0
861 -1993 0
1837 -1611 0
1881 -2716 0
1679 -43 0
2450 2762 0
2889 699 0
1350 2441 0
-2830 -1481 0
-2603 -2160 0
2416 -3034 0
-241 2987 0
-1257 -1106 0
-2140 131 0
-20 2278 0
2100 -1421 0
351 -2098 0
786 -2880 0
526 -2471 0
-2647 292 0
156 2805 0
-2035 -198 0
-2651 2158 0
-124 -1024 0
1369 -1387 0
1064 -2343 0
-2253 3035 0
1427 -2317 0
-1536 -972 0
1307 2410 0
-512 -625 0
2374 2756 0
-1902 1275 0
1622 -2916 0
-1718 -2620 0
174 222 0
-1431 -349 0
1063 -1706 0
2366 -2557 0
1023 1091 0
-2262 1038 0
717 -2602 0
-2526 1766 0
1495 1104 0
517 -892 0
1326 -204 0
1156 -257 0
-2200 -640 0
281 -1498 0
858 -2025 0
2202 -1718 0
-957 -902 0
-1717 -458 0
1493 2210 0
-2340 826 0
70 801 0
-1858 860 0
-2673 -1106 0
1678 2318 0
2414 -967 0
-2470 -2432 0
-2288 -1811 0
1019 153 0
-2876 -202 0
-2812 735 0
-179 2329 0
-621 1297 0
-2628 -397 0
-2601 -2721 0
2743 -450 0
3040 -1391 0
1356 1053 0
1767 700 0
2534 -1429 0
1979 974 0
-3016 -2727 0
-532 3038 0
-1734 969 0
884 202 0
592 2514 0
-1545 2899 0
1981 1435 0
-1065 2730 0
-972 1699 0
-937 1112 0
-2008 -498 0
-1060 -974 0
2901 206 0
-1721 2119 0
-2800 1989 0
1178 644 0
-1971 -2562 0
-254 -2657 0
871 -1799 0
1435 -1409 0
363 -386 0
-3028 1572 0
2779 2228 0
232 2398 0
1284 -155 0
18 1117 0
2863 328 0
816 -2347 0
2492 -379 0
2685 -672 0
1572 -274 0
-1777 2385 0
-1993 117 0
-1323 2720 0
2694 555 0
1778 1829 0
-1706 462 0
-1247 -1792 0
-2751 -1122 0
64 -1913 0
530 -630 0
2224 1763 0
1862 -1379 0
-272 696 0
-426 -1228 0
-566 -2601 0
-1313 2205 0
1333 1928 0
-1610 -2235 0
780 1430 0
1151 2382 0
-1192 -1494 0
-1043 2779 0
1815 2518 0
797 -2740 0
2437 -2107 0
-1511 194 0
53 2706 0
1617 97 0
-592 -696 0
2883 2952 0
2460 1098 0
-951 941 0
-63 -1922 0
-2056 -2515 0
2601 2131 0
435 -1483 0
-1671 -2556 0
1100 1737 0
1044 328 0
-932 -1423 0
-2016 -1089 0
1258 -187 0
1542 -2082 0
-957 -2249 0
2447 446 0
-2828 1925 0
2024 -118 0
-2512 -356 0
2459 -1732 0
-799 1172 0
222 1578 0
-23 314 0
1585 1600 0
-1032 -2024 0
201 -2904 0
-996 2632 0
1218 -489 0
2912 -2032 0
-751 2774 0
-273 -2309 0
-1519 1643 0
729 2388 0
1061 2386 0
2346 3032 0
2336 -1398 0
127 -880 0
-1742 -1896 0
2935 -28 0
-2130 750 0
-1364 2340 0
-818 -276 0
-2599 2083 0
2901 1916 0
-121 1065 0
1889 2173 0
1431 1495 0
-2376 -814 0
2839 -2623 0
-1576 -2439 0
-2513 -1090 0
-2018 -1091 0
-487 1418 0
561 -951 0
2066 2967 0
-2655 -1403 0
-2435 -555 0
-437 -318 0
-1433 -185 0
305 -2080 0
-761 -443 0
1228 2750 0
-2260 -1558 0
401 907 0
-1109 2167 0
1175 -796 0
2678 73 0
2707 2039 0
-2758 2383 0
1570 -1264 0
462 1224 0
841 1658 0
1608 472 0
388 -728 0
-523 2972 0
-939 -1859 0
-2593 -338 0
-1615 1699 0
1697 612 0
2573 -237 0
-1937 1476 0
-1667 -183 0
1931 2463 0
1089 2846 0
-1142 1729 0
964 -1401 0
-92 -78 0
-2838 455 0
-1765 -919 0
-2968 -1589 0
454 -724 0
-1247 -1383 0
2293 2915 0
1742 142 0
1736 -2317 0
-1560 -2052 0
-2754 161 0
-2463 1502 0
-627 -879 0
2863 -1742 0
357 -613 0
-1669 -2958 0
1958 2637 0
824 590 0
-1238 1832 0
-68 313 0
-2952 1736 0
-727 -1095 0
-100 -2453 0
2740 2683 0
944 -705 0
630 162 0
2130 -1438 0
1649 1869 0
2375 -1094 0
-920 751 0
-2216 -2791 0
3010 -2910 0
-2705 2895 0
-2215 2658 0
-713 -50 0
21 -1814 0
1445 1579 0
-2913 2300 0
-2761 2594 0
2222 -145 0
1174 1702 0
2214 307 0
2501 3029 0
1559 -2812 0
146 968 0
1007 883 0
-2978 1480 0
1342 2526 0
2987 -2948 0
774 -1174 0
-1764 -2773 0
3035 -578 0
1218 1062 0
130 -1600 0
2367 -142 0
323 2049 0
-596 2684 0
289 2257 0
-855 2962 0
-2352 732 0
-2829 -2213 0
167 1204 0
-774 -1177 0
485 -148 0
667 1184 0
-1042 -1593 0
1881 -783 0
2607 2169 0
-2262 2570 0
2016 2552 0
-2836 1021 0
-1276 -2859 0
-2575 -2952 0
1792 -2902 0
-38 -1436 0
1176 -493 0
-1939 254 0
1500 2129 0
-952 -1777 0
2797 1265 0
-1568 2262 0
-1676 292 0
2697 2381 0
-1045 -263 0
-1737 247 0
-2096 -2470 0
-2630 -2049 0
-1261 2193 0
-140 1945 0
-2695 -1159 0
1914 786 0
-1332 -810 0
722 1242 0
-2727 2910 0
1978 -628 0
1428 1018 0
34 1783 0
2588 -1563 0
2680 -1521 0
127 -1054 0
1479 907 0
211 -959 0
2951 2656 0
-806 1927 0
1983 -1113 0
1493 2737 0
-2871 2738 0
-2076 850 0
341 2998 0
-2191 2330 0
960 684 0
1605 1603 0
482 -719 0
2306 2158 0
676 -1297 0
1716 1983 0
966 -2088 0
-555 1854 0
924 2720 0
-2033 -65 0
348 786 0
2624 -1273 0
-2262 2224 0
2498 2614 0
2191 2880 0
2106 -988 0
-539 -815 0
-3026 1351 0
2034 -20 0
-487 1304 0
2341 -781 0
-2992 -2587 0
-2440 -265 0
1356 -1942 0
1540 -498 0
1050 -2755 0
2258 -213 0
-217 -2916 0
215 -334 0
-1269 -2095 0
-1926 -1209 0
-2811 2312 0
873 850 0
-2808 -2978 0
-1501 76 0
465 -628 0
2756 -2920 0
-72 -186 0
-2606 2330 0
-129 -2773 0
2649 140 0
1965 2102 0
-1442 -505 0
474 812 0
-69 270 0
2366 -503 0
-2704 2633 0
-610 2178 0
-1041 750 0
925 2364 0
2005 864 0
-1101 777 0
1012 1659 0
352 -2704 0
146 -2114 0
2417 1085 0
1251 -991 0
2259 -2947 0
-1215 -943 0
30 858 0
1513 1617 0
437 1225 0
974 -2958 0
-1584 1099 0
-2140 -2949 0
-2757 -436 0
283 -2814 0
-2176 2163 0
-2209 744 0
2720 902 0
-79 -883 0
200 146 0
-2325 -372 0
-600 2350 0
-1367 746 0
-1982 1658 0
-2186 2050 0
1342 1941 0
2649 -262 0
1575 -1934 0
2483 -91 0
163 1705 0
1608 -1789 0
-1432 1278 0
2190 1887 0
-342 -2040 0
-1919 -1313 0
-1438 -1702 0
1520 2576 0
1280 -2198 0
-477 -2784 0
-1568 2418 0
-864 -3009 0
-2650 -2061 0
-1642 -1487 0
-1311 2662 0
-492 538 0
-23 -1494 0
2489 2518 0
2186 -75 0
2110 2807 0
2284 -1904 0
-1531 2307 0
-641 -1179 0
614 109 0
289 1405 0
2645 -2243 0
1179 -742 0
-275 -1017 0
-1310 783 0
-920 1515 0
2249 676 0
2189 -1158 0
1973 2482 0
1665 203 0
-749 1130 0
-1310 169 0
-2195 -1665 0
2039 998 0
2084 -1579 0
2450 1117 0
-2060 1656 0
1202 2100 0
1293 2013 0
555 983 0
123 1371 0
-1429 -1550 0
-2636 946 0
-370 -481 0
1052 -1064 0
230 2771 0
-428 -2106 0
-1397 -2493 0
995 2542 0
1755 2349 0
-467 2122 0
-1464 -1910 0
469 -2870 0
-307 -494 0
-958 -1431 0
476 -2813 0
-1634 1065 0
-1096 -2893 0
-435 -2866 0
345 -2237 0
-736 -1554 0
-2004 -1874 0
333 -2942 0
2948 -2915 0
-693 -1241 0
129 1432 0
2277 733 0
-2984 2782 0
2254 323 0
85 2991 0
125 -2222 0
2914 -1612 0
-2574 2904 0
1791 -2623 0
2129 207 0
2442 -2777 0
-1469 -335 0
1833 -2998 0
2786 -898 0
1988 -2839 0
1197 -39 0
-1874 2260 0
2941 -2191 0
1439 -2014 0
-2471 -975 0
1736 -2471 0
-385 -547 0
-812 661 0
-1474 -906 0
2517 -1344 0
-856 711 0
1961 -2928 0
2402 313 0
2188 2660 0
-1869 613 0
-2569 -1072 0
-332 409 0
-2026 2399 0
-2768 -1531 0
-2264 777 0
-755 -1403 0
-269 -2247 0
2057 -1152 0
-61 -1902 0
1183 -2255 0
-535 -621 0
-1523 -660 0
1000 -2439 0
2163 -1330 0
-1150 1558 0
1522 -2469 0
1435 -1573 0
-333 -2208 0
-2074 1899 0
1373 -2806 0
-2297 1311 0
-2055 632 0
1066 -1401 0
-723 -1812 0
-2758 -1854 0
452 2948 0
332 -553 0
1887 -236 0
1695 2211 0
2659 -174 0
989 2147 0
-1126 1381 0
2469 -361 0
1040 -51 0
2645 -1761 0
2696 -1676 0
1186 -451 0
1540 620 0
838 1297 0
-2401 717 0
-1397 1133 0
-933 514 0
1921 1280 0
1541 2764 0
-1741 2144 0
-1826 -2721 0
-2097 -1255 0
-1979 661 0
-1579 1300 0
-2399 -1766 0
-2790 1825 0
549 1776 0
-538 -162 0
-302 -61 0
-637 -2791 0
-2105 452 0
1934 -1008 0
3008 -1604 0
-112 -870 0
-667 1867 0
-2281 2359 0
-1493 -610 0
1620 3037 0
2834 -1695 0
2112 -1763 0
3001 1312 0
-1028 -2703 0
2134 -872 0
1277 192 0
-2020 1822 0
1047 1947 0
2963 -2028 0
64 -1681 0
-1893 298 0
-1826 1210 0
-2773 1552 0
1306 20 0
2162 -2132 0
386 -2131 0
-659 -1269 0
40 -53 0
2418 -2165 0
-1466 1775 0
-2446 -1070 0
148 298 0
1725 -2698 0
2106 -1157 0
1197 -2024 0
2584 2371 0
242 2243 0
2888 1204 0
-781 2086 0
-2821 -1481 0
-1538 -1062 0
-3013 2845 0
2612 -2379 0
2212 1167 0
1963 2295 0
-1413 1106 0
-566 -251 0
678 253 0
1898 -2672 0
1587 -90 0
2875 806 0
-2701 -688 0
-1823 -1640 0
-1677 1751 0
129 -2586 0
-134 -136 0
1859 2694 0
-358 -1676 0
-254 1789 0
485 2411 0
-2711 -1056 0
-2637 1056 0
-440 -1163 0
1587 934 0
1204 -403 0
966 -785 0
3034 158 0
2938 -2923 0
-307 1394 0
-775 990 0
-2795 -431 0
1546 -1618 0
1880 471 0
-1777 2624 0
718 2186 0
1729 2968 0
1354 1604 0
894 1792 0
-1415 1327 0
832 -1194 0
-1651 -379 0
1503 2494 0
-736 -2822 0
-1550 2863 0
-812 -1771 0
2481 -138 0
2786 1519 0
2760 1982 0
-187 75 0
-2116 -1508 0
2674 -734 0
1480 313 0
-2348 -1780 0
1229 1829 0
1603 2781 0
2059 1913 0
-1464 1200 0
-2445 706 0
-1216 399 0
-1906 -2654 0
-245 2843 0
1112 -2873 0
936 1267 0
2351 -2462 0
440 -6 0
-2978 1196 0
-2354 1521 0
242 533 0
-1577 -2596 0
-2073 156 0
2798 -236 0
43 -1879 0
-868 -1653 0
-2175 402 0
-1312 -1034 0
-2935 1198 0
47 2346 0
-2788 -469 0
-2601 1325 0
-1076 1285 0
793 -2200 0
183 -614 0
-228 -2396 0
677 -2621 0
1021 -663 0
1656 -773 0
-2390 1896 0
-1125 2661 0
-456 -606 0
-1809 -1037 0
1755 -2477 0
1175 534 0
486 -269 0
1327 -790 0
-1805 1591 0
-165 1922 0
-761 2674 0
-2306 2756 0
79 1542 0
642 106 0
-1912 -565 0
1534 -1287 0
518 2964 0
-265 2169 0
779 -2900 0
676 411 0
1519 -1741 0
-2120 -1618 0
470 -405 0
2870 -2870 0
-2882 -1119 0
-1554 -273 0
-892 2953 0
-590 1914 0
-792 2678 0
2948 8 0
2868 -944 0
2729 1925 0
2995 864 0
-374 2647 0
-2703 -1913 0
-970 -1465 0
2945 -2594 0
-2685 -2219 0
1317 -1671 0
104 890 0
1662 -885 0
17 -2026 0
2464 -1826 0
-36 -160 0
462 -796 0
-2030 -1514 0
-1033 1652 0
-588 -1477 0
-736 45 0
-542 -663 0
860 -1422 0
1387 2720 0
2662 -2769 0
473 1103 0
2375 -2780 0
-1641 -417 0
325 1806 0
1052 1228 0
-2242 2636 0
-356 2508 0
1255 -1953 0
868 -2839 0
-154 -977 0
2919 -2470 0
-2837 -2257 0
30 1026 0
2138 2417 0
-641 2011 0
-587 -557 0
-595 -2868 0
1156 1338 0
859 -869 0
960 -2881 0
-1791 2813 0
1647 1408 0
-679 400 0
1998 2890 0
866 1143 0
-2036 1823 0
1763 2028 0
-1768 -783 0
2904 2880 0
-3003 -2342 0
1635 -1952 0
-2932 -2676 0
1581 1479 0
-2691 -2195 0
774 -365 0
-1217 1569 0
-1180 -511 0
-148 -10 0
2118 -1938 0
-39 -476 0
-1651 2305 0
676 -1573 0
2028 -1904 0
-1008 -1529 0
584 -1988 0
-2733 -85 0
-2602 -736 0
-781 -214 0
2464 -1111 0
-3024 -308 0
-594 -1580 0
1692 2909 0
-1747 130 0
966 -2517 0
1672 1959 0
1543 2879 0
2722 2984 0
-681 -2412 0
770 902 0
-2401 -2037 0
-1845 2574 0
1803 -2151 0
1697 880 0
1149 -993 0
1584 1591 0
2155 -318 0
77 800 0
-1388 1331 0
-1838 688 0
1657 -2571 0
1536 2382 0
-2972 1138 0
1070 -193 0
-2078 -1185 0
2011 1036 0
-399 2256 0
503 1222 0
2620 -1295 0
-400 -863 0
-2145 657 0
-2622 -1586 0
-177 2454 0
-2424 1659 0
698 -568 0
-2979 1925 0
1505 2131 0
-1734 -1677 0
1444 1863 0
296 630 0
-1456 -2023 0
2960 142 0
-716 -1684 0
-1663 -917 0
330 213 0
-2785 1639 0
-2819 -213 0
-535 -2809 0
995 1691 0
873 2555 0
2559 -1693 0
1859 -98 0
1926 875 0
2927 -2884 0
2073 -1464 0
1522 229 0
-1060 1107 0
759 2079 0
-198 2179 0
-1423 1981 0
428 -184 0
-1276 2539 0
-2678 -2585 0
-691 -2982 0
-1221 178 0
-971 1648 0
1987 -1774 0
2782 1209 0
777 -1935 0
-1529 -2247 0
2118 -272 0
-1838 1901 0
730 -743 0
2809 2912 0
489 -486 0
-1419 2867 0
2547 3017 0
83 -1668 0
-318 -1124 0
2371 2874 0
-148 1018 0
-1611 1941 0
-2962 465 0
-2857 797 0
-2988 433 0
1304 -1378 0
2035 -1981 0
-1050 -1391 0
-1668 2676 0
1743 2030 0
-2930 1355 0
-352 -3000 0
131 1865 0
2631 -904 0
-1887 -883 0
1865 -472 0
-37 -1640 0
1753 1467 0
1815 280 0
-2954 -1330 0
-436 -532 0
-448 -2592 0
-1705 -781 0
-3007 -2303 0
1606 -1529 0
-713 2203 0
328 507 0
-1387 -262 0
-1148 -85 0
2320 2034 0
-1519 1997 0
1141 -2361 0
-2623 905 0
1399 806 0
2624 2796 0
295 -1231 0
1135 -703 0
-2700 -593 0
-756 -992 0
-1843 -512 0
-1809 501 0
1360 -1511 0
-640 1939 0
1345 2823 0
-1563 -31 0
1830 -2858 0
386 -2549 0
2758 -3020 0
729 2253 0
-2395 685 0
-1251 3005 0
2992 -1178 0
2577 2887 0
-1527 -1541 0
2574 1965 0
-1001 154 0
2232 -1460 0
-1532 -1069 0
-1949 -2063 0
290 620 0
143 -1163 0
-2482 875 0
2420 -1484 0
1942 3040 0
-1739 -491 0
418 951 0
1705 853 0
897 177 0
-526 683 0
-3032 -1295 0
321 -613 0
308 2300 0
-1784 2029 0
-525 -2272 0
982 -1670 0
2805 2995 0
-1067 2041 0
3036 -690 0
-1894 2979 0
-1454 2805 0
2871 -262 0
1012 1181 0
-573 -1953 0
-1336 540 0
-2929 2921 0
-1729 -544 0
2154 -1042 0
-2725 -2261 0
-1904 953 0
-1148 404 0
143 59 0
-653 -264 0
-2303 -899 0
-2140 1157 0
-1577 -2693 0
-1411 2142 0
1280 -2743 0
1705 1683 0
1839 2036 0
2250 34 0
-718 -1343 0
1285 -82 0
-403 -124 0
2553 -467 0
-1632 1759 0
-672 -2080 0
-2986 920 0
-2537 934 0
378 453 0
229 1842 0
1612 2066 0
-190 -3020 0
-270 -513 0
-419 2504 0
1881 -2981 0
-2526 -1717 0
2102 364 0
2805 -3012 0
1255 829 0
2906 -2564 0
1183 -479 0
721 -1986 0
-2444 -2006 0
2728 2872 0
-1437 1171 0
147 2676 0
-1762 -789 0
-2423 261 0
1382 -1106 0
-650 651 0
1338 2493 0
1467 -2723 0
2744 -1031 0
1208 -643 0
972 -2491 0
-1384 -2754 0
1486 -482 0
-1431 -829 0
2542 1368 0
200 -1763 0
-1295 629 0
2597 2180 0
-2455 -1123 0
-31 2498 0
-537 -392 0
-1252 -1499 0
1103 -1684 0
-182 -2862 0
272 -1986 0
-444 -2833 0
2352 451 0
1541 1934 0
-736 -1605 0
-1095 -2853 0
2901 2093 0
125 -1399 0
-2695 330 0
2124 1224 0
2921 2945 0
1027 2113 0
-719 -2209 0
1436 2803 0
-301 2350 0
-2791 -2452 0
-271 -1481 0
-352 1675 0
1546 -743 0
-2824 2834 0
-1358 -1191 0
-2323 2129 0
174 -1845 0
-1379 -2954 0
919 -2033 0
-2547 -1157 0
810 2877 0
-957 -2455 0
1994 -1088 0
-1949 1829 0
-3025 2533 0
-1855 2666 0
1998 823 0
-1188 -2149 0
-3036 -1420 0
1212 -1522 0
1107 -1581 0
-2662 1743 0
352 -61 0
-1582 -2237 0
369 -55 0
-1442 2505 0
1481 -352 0
1430 -2587 0
-2315 1060 0
2968 -768 0
-833 2503 0
2062 1601 0
1593 -599 0
-2752 1534 0
-944 -570 0
-1027 200 0
-3036 76 0
-201 1466 0
-3034 889 0
-83 611 0
-696 433 0
-124 -840 0
921 -1726 0
-1557 1639 0
540 2339 0
-1236 -1583 0
-273 -1907 0
-393 2616 0
1419 -2223 0
-2913 555 0
-1313 1245 0
-920 -769 0
-818 -2955 0
1938 -1200 0
-2491 -3012 0
786 -1544 0
2914 2372 0
2267 -1251 0
-596 -835 0
-2244 -1015 0
2449 -349 0
-954 -1759 0
2405 1883 0
2241 2212 0
2660 2544 0
-333 1521 0
654 -2532 0
-2316 -1830 0
-2982 585 0
934 1659 0
-3038 2754 0
2440 1467 0
-701 -1766 0
2664 2892 0
-72 -1493 0
-2610 -3038 0
955 1985 0
2586 2215 0
-2765 2066 0
1171 -1548 0
80 -1465 0
-3030 -1191 0
1324 -2008 0
-536 -1698 0
782 1616 0
1736 -2888 0
-771 -1473 0
2179 2236 0
2194 1748 0
-2871 -2222 0
178 -2857 0
328 -1176 0
2227 -1734 0
-2638 -2470 0
-2353 1981 0
228 2459 0
-1714 -803 0
299 1019 0
2427 -689 0
1184 -1530 0
691 -957 0
850 692 0
1232 -767 0
470 -1655 0
2730 -74 0
-1136 -2385 0
1355 -740 0
55 2480 0
2842 1414 0
2763 1763 0
1231 -2875 0
1561 1262 0
-668 2883 0
-1238 1887 0
2880 321 0
-1017 -1976 0
-2760 -1274 0
2550 2335 0
1504 -1704 0
1209 903 0
-429 1285 0
-1279 2823 0
-2234 1787 0
-2560 2967 0
1856 -2923 0
-1626 -583 0
-1516 2772 0
-882 -2792 0
2263 -2358 0
2645 2421 0
1040 -2819 0
-913 776 0
-754 2179 0
758 1156 0
-400 -660 0
-2601 2503 0
326 2372 0
477 2360 0
1685 -451 0
-2530 220 0
1133 1427 0
-1456 -513 0
-1320 178 0
-2229 -2846 0
-2463 -1610 0
583 -1651 0
-1233 654 0
-1546 -503 0
-557 -396 0
2401 -2258 0
-972 827 0
2675 -1312 0
-136 -2562 0
1220 -1738 0
-2564 -616 0
-2595 -2564 0
-1926 1809 0
-68 432 0
-263 -2091 0
1224 -1080 0
-508 -757 0
-2933 2529 0
2778 -2804 0
2275 2540 0
618 -560 0
1299 -2848 0
665 -2368 0
437 1811 0
-2546 309 0
-740 -2628 0
-2877 2870 0
-2084 1591 0
2298 2734 0
-1309 -1912 0
-1965 291 0
1334 1146 0
-2654 751 0
2720 3000 0
-2360 -1375 0
-1339 -631 0
-2401 -216 0
-368 -2679 0
-227 2534 0
1587 -2809 0
1340 594 0
1398 -932 0
-2174 148 0
2524 -1512 0
-2478 -1549 0
-2827 -1326 0
1126 167 0
-2957 -2568 0
-2316 2657 0
748 2872 0
-118 -2808 0
2287 206 0
-188 -95 0
-1362 -2358 0
1069 -1524 0
-1219 -1851 0
2961 2486 0
-764 -2704 0
-308 -1869 0
-2439 1441 0
-2310 2113 0
2067 2005 0
-1110 -26 0
-2842 -1464 0
-2171 2673 0
2653 841 0
2456 -445 0
-2308 -427 0
873 -2457 0
-626 -408 0
974 963 0
-2637 667 0
2362 1603 0
442 -2489 0
-799 895 0
1404 -1578 0
-419 1140 0
897 -860 0
388 1009 0
-600 1844 0
1523 -1616 0
-2385 -2643 0
-1638 1979 0
-640 -2879 0
2113 -1980 0
-2386 1091 0
977 2239 0
415 1760 0
-1674 -2775 0
-1042 -2881 0
1522 -1123 0
-267 -1014 0
-1188 966 0
-2459 1629 0
2401 -2764 0
-1408 -1376 0
-1674 1826 0
-574 -371 0
-917 230 0
-778 -2669 0
-2035 1339 0
1475 1556 0
-2899 924 0
-2805 2716 0
700 -1426 0
1911 -1818 0
2142 1382 0
-1619 526 0
2400 2987 0
112 -349 0
-2164 -543 0
873 717 0
-2048 -2410 0
-821 -301 0
2623 1139 0
2741 -951 0
1903 515 0
-3002 298 0
2330 -2484 0
1915 615 0
2005 1397 0
-2804 161 0
-593 2802 0
-273 1146 0
734 -1245 0
-33 -593 0
1766 162 0
-1709 1572 0
-2207 -2097 0
899 107 0
-1093 1568 0
2069 -2357 0
560 867 0
2520 1687 0
652 700 0
1603 -1920 0
808 2939 0
-2968 -2390 0
-317 439 0
-1098 27 0
-2254 -205 0
-2879 998 0
-1022 -648 0
2406 2015 0
2458 2765 0
-1502 1248 0
-2524 1803 0
-338 1267 0
2559 -1592 0
1439 -2729 0
-736 -705 0
2447 -30 0
-2986 -314 0
-1774 -566 0
1100 122 0
1136 295 0
1149 45 0
2424 1461 0
1476 -57 0
-1610 -2246 0
-1104 -118 0
-959 1306 0
-1962 1886 0
657 43 0
-544 -2954 0
1658 -1604 0
227 -2821 0
-254 612 0
524 414 0
-1676 959 0
1457 -1001 0
-2141 1186 0
134 -319 0
1408 -1486 0
-748 1614 0
1321 1761 0
-101 1682 0
-974 -635 0
90 2392 0
1911 -2691 0
-426 -1111 0
-1674 -335 0
2340 1105 0
-1898 -183 0
1739 -1623 0
1213 -1102 0
2154 1306 0
2494 -329 0
90 -1615 0
3024 -546 0
1990 1073 0
718 -1744 0
-2598 3026 0
1183 868 0
1660 -2427 0
-1524 -1703 0
-2018 2255 0
-603 2858 0
1832 -221 0
914 2294 0
-2894 -121 0
2446 1674 0
-1781 -479 0
810 485 0
2975 477 0
874 1099 0
-699 -2711 0
627 2819 0
1546 -1915 0
2304 1832 0
201 459 0
-1193 -1277 0
878 -1797 0
1419 202 0
-597 -1767 0
-205 -3007 0
-1584 -2052 0
-1438 759 0
1921 -2587 0
-2502 1702 0
168 721 0
-1078 2255 0
2867 2108 0
1081 -294 0
-666 1005 0
-1238 1517 0
227 2404 0
-1375 681 0
2240 -3004 0
1195 -2988 0
2266 1951 0
2475 -1733 0
-1529 -1223 0
2602 2854 0
-421 2717 0
-1081 1776 0
-363 2782 0
-2208 -2529 0
2987 1690 0
207 3033 0
2079 2664 0
-2231 2416 0
-1816 -1507 0
-1922 120 0
1526 -2024 0
-2339 -186 0
-66 -1535 0
-649 549 0
-1292 1909 0
2526 1736 0
-2707 2632 0
-259 -1673 0
-573 2759 0
-2935 -2321 0
-1603 415 0
-1631 -57 0
-2381 -2754 0
-1813 -2949 0
945 2011 0
-1696 1587 0
-31 -1817 0
2470 -1731 0
2062 -804 0
2684 -1727 0
948 -1669 0
306 42 0
-1258 -400 0
-159 -607 0
-1635 -2859 0
955 2500 0
3031 -2385 0
-2673 2343 0
1955 -2950 0
1586 1843 0
-657 -2466 0
-1874 -2817 0
-3014 -1577 0
233 -1165 0
-3012 2269 0
2134 -436 0
-1601 2619 0
-1862 -368 0
2825 -2751 0
1830 288 0
2223 2296 0
349 55 0
2706 -2213 0
1636 1657 0
-1797 -2618 0
1751 140 0
-1461 -799 0
-1896 -2469 0
1950 1124 0
-831 -1776 0
2694 592 0
-655 -1131 0
2473 1408 0
2679 -2834 0
2357 1880 0
-154 -1396 0
-2876 2844 0
45 -297 0
-2050 -2804 0
2021 2340 0
-1468 1121 0
-2966 -892 0
-142 -2252 0
3001 2301 0
-900 -256 0
-779 1674 0
-2392 138 0
-1238 -1161 0
-121 -2947 0
2183 -2301 0
2180 875 0
2934 -379 0
-2731 42 0
-377 -1642 0
1614 -865 0
934 -429 0
-432 -2188 0
-409 927 0
-655 -1483 0
-165 -254 0
-2804 1689 0
-274 1687 0
-1345 -2445 0
-2043 -2063 0
-580 -718 0
-758 2059 0
1794 2445 0
-2752 -1002 0
-768 -2357 0
-1699 -2857 0
1586 1146 0
1503 1559 0
-1730 -4 0
-1252 219 0
-1879 -1828 0
1799 56 0
-498 -1772 0
2991 -2573 0
-2725 -2022 0
-2128 -888 0
-1681 963 0
2567 423 0
1542 -1694 0
1841 1833 0
1807 1276 0
583 1323 0
-2680 1218 0
2815 1192 0
2097 1171 0
1442 2855 0
3008 -1416 0
1425 363 0
1654 -1555 0
-1084 1875 0
-2357 1679 0
1083 -1179 0
-667 2533 0
407 306 0
-1083 -468 0
-1019 -1347 0
-1704 1224 0
2892 1676 0
2418 2905 0
-2381 -3022 0
2431 -625 0
1151 1461 0
1552 1490 0
1077 -1777 0
1274 1766 0
344 -286 0
-133 2590 0
1719 2636 0
-1049 222 0
1099 280 0
8 -82 0
2617 -1475 0
384 -2693 0
995 -2932 0
241 2749 0
-162 -707 0
165 -2627 0
-2957 -126 0
-1740 2214 0
1327 2866 0
795 -2040 0
-2678 -2957 0
792 -1543 0
-780 783 0
2840 -1313 0
726 416 0
1957 1214 0
-2868 -270 0
1467 2381 0
2643 -877 0
-1133 -621 0
-2554 -197 0
-190 1839 0
