c NF
p cnf 1937 8135
60 1184 0
-348 -377 0
-1260 -1337 0
1397 1143 0
1795 1362 0
354 1463 0
39 559 0
379 1182 0
-1013 -723 0
-449 -892 0
-628 -1849 0
1591 1365 0
476 -1830 0
-1629 226 0
-489 -380 0
1159 -217 0
-964 1886 0
47 -1822 0
-1705 -1286 0
-9 356 0
-795 -130 0
-1826 1177 0
-819 -586 0
913 981 0
1228 -328 0
-1012 -732 0
-1646 -739 0
-980 649 0
-821 -679 0
1334 -574 0
-1322 1163 0
-65 -888 0
1240 1325 0
-1331 -1135 0
-773 874 0
1528 -58 0
1925 682 0
62 -777 0
-1579 -813 0
-1497 -1644 0
645 -655 0
-1727 503 0
-38 1886 0
1589 1822 0
1760 1425 0
-1561 312 0
-1678 -1379 0
-1833 -1634 0
1451 -1533 0
-55 -221 0
-417 1400 0
588 404 0
-1580 42 0
1756 1704 0
-1233 -912 0
-1417 -363 0
-1171 -1707 0
1229 -1629 0
-789 -1021 0
-1696 1542 0
-1780 40 0
-1689 1654 0
-1378 509 0
-452 1422 0
652 1566 0
1606 -562 0
-865 -1676 0
1794 1148 0
-7 -1153 0
921 1298 0
-76 483 0
-915 127 0
-1654 -924 0
-1395 1318 0
1855 1302 0
-63 959 0
-1485 1428 0
-559 717 0
-357 162 0
765 652 0
-38 -871 0
-290 514 0
189 1437 0
219 -1041 0
-18 1849 0
-926 -1179 0
1230 -1179 0
-1548 -1546 0
-1156 666 0
-865 -1406 0
1386 -1753 0
-1711 1855 0
1457 -342 0
-1687 548 0
-1023 -304 0
1610 1604 0
-1505 837 0
1676 -1586 0
1079 1455 0
-310 -353 0
1404 -998 0
-1608 317 0
370 -1921 0
-1514 159 0
-1080 1672 0
1372 1525 0
-50 298 0
890 940 0
-531 725 0
-1184 1405 0
-879 906 0
105 -428 0
-641 1467 0
1659 181 0
774 500 0
157 -1036 0
17 1138 0
-1311 1885 0
-1259 -1212 0
920 -749 0
-1154 -279 0
-1616 1325 0
-997 -271 0
484 -249 0
6 69 0
1377 1417 0
741 -1912 0
337 670 0
-898 703 0
1611 -1730 0
1185 1080 0
-213 1341 0
-686 252 0
-1443 1832 0
-535 -1686 0
1783 823 0
-365 1606 0
-1892 1463 0
-42 254 0
-1354 125 0
123 1220 0
-755 100 0
-1586 1465 0
-735 -264 0
1139 216 0
-1061 674 0
1440 -1629 0
347 1378 0
-1512 -917 0
-1101 -203 0
-1893 -415 0
-1002 -1294 0
-874 180 0
662 -1614 0
-708 -103 0
-835 348 0
644 -579 0
888 492 0
474 -603 0
-1334 -362 0
-122 -860 0
1863 1178 0
-954 1346 0
-65 1439 0
98 -792 0
-1372 1099 0
637 -876 0
1331 -271 0
-1377 62 0
363 -608 0
1681 1377 0
922 1241 0
978 1045 0
-1906 -743 0
-445 1199 0
252 907 0
1454 846 0
562 -1245 0
-681 -465 0
-459 795 0
-1465 -1395 0
919 474 0
1218 -1909 0
-1866 -1327 0
-1277 1382 0
932 499 0
-1553 -1445 0
-1318 -1587 0
-583 487 0
-1818 1928 0
-1107 -511 0
-1367 319 0
-1468 -89 0
-868 -963 0
-1897 -1650 0
-1616 -819 0
-1937 1431 0
372 328 0
-1281 1166 0
1924 1856 0
-26 -1489 0
-1737 1336 0
-1857 504 0
465 557 0
-314 1036 0
-1535 -1697 0
-7 1552 0
1538 1357 0
1527 -1642 0
-1454 475 0
-1640 -922 0
1079 -1105 0
1449 -949 0
-817 -1579 0
-1722 1347 0
-851 -257 0
993 1043 0
386 1654 0
154 583 0
1271 -1204 0
1347 282 0
536 -341 0
910 -852 0
-1242 262 0
-1316 872 0
-1805 -901 0
-704 -67 0
1311 1758 0
538 -1240 0
1351 -78 0
-1433 199 0
650 1674 0
-593 -1099 0
1922 1434 0
1172 1174 0
742 1815 0
1182 -1583 0
-131 -838 0
872 1392 0
-301 -1856 0
137 -1700 0
-1147 1257 0
1099 -167 0
152 -828 0
-335 1326 0
-831 -621 0
-1268 1096 0
-1639 -1471 0
-1929 -1859 0
813 -1561 0
-16 385 0
1266 939 0
99 -1430 0
-595 23 0
1342 248 0
1277 552 0
392 208 0
1726 1665 0
1924 -1250 0
-1849 1934 0
-837 1072 0
-1011 1018 0
-1078 -650 0
-950 1509 0
910 741 0
1017 886 0
-1618 -271 0
1172 -1899 0
-1030 -1031 0
372 -1459 0
-316 42 0
1692 263 0
122 -1625 0
971 -1647 0
477 415 0
-100 1353 0
-806 -1180 0
1678 636 0
-1335 -778 0
-1048 -1749 0
-1691 1615 0
-546 10 0
1496 -1260 0
258 -815 0
1363 -1486 0
-302 97 0
1714 326 0
723 -1803 0
35 159 0
-206 -1245 0
-1422 828 0
156 1858 0
665 -307 0
-1488 631 0
-1115 -72 0
-785 -1564 0
-1835 64 0
907 -1377 0
1083 -449 0
-1503 -1496 0
-1061 1374 0
1023 -1568 0
544 -463 0
-1084 -1841 0
1922 1886 0
665 -1588 0
-1798 -1772 0
-1820 -1688 0
-853 -393 0
-1212 -468 0
-1503 1179 0
-154 -1553 0
-429 -1358 0
-358 1431 0
-244 -1561 0
556 152 0
-1701 646 0
-157 -738 0
-1916 -1717 0
-1034 -1900 0
-649 42 0
951 -1006 0
358 -1927 0
1075 -996 0
362 662 0
-938 -840 0
1000 -1521 0
-771 -1488 0
-390 477 0
-1083 820 0
367 -1860 0
-1511 -109 0
609 1918 0
1533 224 0
-1380 -843 0
795 -665 0
568 -731 0
-1470 246 0
548 122 0
-198 1500 0
-701 1475 0
351 501 0
1242 -1491 0
1001 1451 0
-1047 -1854 0
591 994 0
-1698 -103 0
1293 -1446 0
-1872 1610 0
1673 -1785 0
-1640 -1789 0
1277 -198 0
1789 -1244 0
1880 -434 0
1736 -1085 0
432 -1600 0
821 -1884 0
864 -1834 0
904 151 0
-1531 504 0
664 960 0
-1625 260 0
-332 -1083 0
1812 633 0
-1008 431 0
-1932 -1038 0
-716 1744 0
1729 790 0
1530 -1398 0
61 1543 0
-291 -1601 0
906 -306 0
-1917 -395 0
1550 -1240 0
227 -922 0
-1510 1753 0
1786 761 0
-1597 -872 0
-476 888 0
-1622 1810 0
-1309 -1693 0
-30 -154 0
331 -820 0
-829 -1183 0
-888 -1355 0
1361 809 0
993 1369 0
277 1758 0
-1069 1404 0
1469 -545 0
-1136 544 0
-1097 428 0
1568 1424 0
-176 1458 0
289 -1110 0
1792 -272 0
914 1414 0
-38 736 0
97 -1338 0
-1482 -43 0
41 -1797 0
-1096 -1201 0
1234 -1560 0
980 954 0
1009 -1157 0
-897 -393 0
847 -610 0
873 -1635 0
-1342 1028 0
-38 -69 0
-473 -645 0
871 251 0
-1599 158 0
282 270 0
-1215 299 0
646 1142 0
1264 751 0
799 -1747 0
319 1655 0
1928 240 0
-550 400 0
323 1810 0
1509 127 0
-175 -220 0
-1593 -1730 0
-689 450 0
455 279 0
-412 -1511 0
-1217 442 0
-1238 1111 0
950 -186 0
-732 1107 0
1440 1382 0
-1273 -612 0
-1047 -1725 0
1073 1764 0
1654 580 0
-328 -461 0
-1711 -633 0
-123 -207 0
1808 220 0
1586 558 0
1879 -1356 0
717 1242 0
1864 -153 0
-5 -1115 0
511 -1151 0
-1827 1751 0
-1070 -696 0
1421 541 0
1340 -1724 0
1211 -452 0
-221 8 0
-188 616 0
1732 -947 0
588 -271 0
888 339 0
-1646 -1159 0
1471 -951 0
-355 -1479 0
-388 1477 0
1923 -1468 0
-126 565 0
-1389 1837 0
1444 1134 0
-492 147 0
238 412 0
-1426 -1513 0
-1673 -1470 0
47 -754 0
-881 -227 0
1690 -93 0
-1103 -729 0
411 -857 0
-1307 242 0
4 1520 0
-1351 318 0
1094 -1462 0
1169 594 0
1059 1057 0
1504 47 0
571 -927 0
900 -1368 0
-1729 1549 0
-954 621 0
-1914 -580 0
-1233 -1386 0
-129 1236 0
1890 -1661 0
-1242 -1270 0
866 263 0
-1655 378 0
875 1705 0
1003 -248 0
886 1339 0
105 -1443 0
-1452 -423 0
1612 -1194 0
761 160 0
-884 1911 0
-1050 1336 0
716 -574 0
192 1551 0
1094 -1440 0
1589 1003 0
-936 -820 0
1258 -778 0
1408 -642 0
-1588 1162 0
688 -1273 0
-5 -1728 0
-595 662 0
1061 660 0
162 -1032 0
-1464 -29 0
-1599 1608 0
-758 407 0
-495 -1538 0
-836 737 0
-539 1397 0
-321 -333 0
-1276 5 0
449 -736 0
1272 -1011 0
573 -487 0
1586 -1105 0
-206 -453 0
-64 -1372 0
-561 -514 0
-642 -860 0
1793 1910 0
-1749 -1399 0
-196 -975 0
-1158 -727 0
1109 -1051 0
-1536 -1535 0
182 -1819 0
909 -1785 0
-578 1857 0
-1770 1306 0
-428 -1341 0
-257 -148 0
717 1186 0
-280 258 0
219 -1276 0
-1174 -1044 0
-47 -1593 0
1837 -844 0
-844 -549 0
220 -1458 0
214 1476 0
-1791 -878 0
258 -179 0
1337 1929 0
467 -1509 0
-66 1553 0
1112 -335 0
70 338 0
-1444 -1779 0
-460 -58 0
-411 333 0
-1725 837 0
-1468 1785 0
442 700 0
1219 -88 0
692 -25 0
-750 337 0
-1061 1535 0
-804 1461 0
562 948 0
-626 560 0
-398 -1773 0
-1652 24 0
-1860 658 0
1907 -1790 0
1007 -114 0
1309 -236 0
1844 200 0
439 1439 0
-853 1062 0
-565 -1627 0
-867 31 0
-118 1238 0
52 -1289 0
220 1323 0
-1917 1050 0
441 -868 0
-231 -642 0
-1107 1832 0
208 -788 0
-567 -1086 0
600 -1839 0
-1327 -1871 0
-23 -155 0
-621 1279 0
69 700 0
812 499 0
181 -18 0
82 -124 0
-1544 52 0
-1007 993 0
1656 993 0
234 -965 0
-1065 475 0
-1022 -562 0
1169 471 0
-1697 1740 0
1179 -192 0
1024 1855 0
323 -1062 0
675 -1450 0
-539 1522 0
-1599 -1698 0
-892 188 0
1877 29 0
1609 -1755 0
1536 -1502 0
-1687 320 0
788 1764 0
-876 828 0
-1907 -36 0
451 -452 0
-1442 -1380 0
1756 1269 0
1911 -1144 0
-1546 477 0
-1326 -12 0
1375 246 0
-1373 149 0
548 -977 0
-89 1836 0
414 -1712 0
-153 1049 0
-884 -736 0
-944 -1501 0
-1051 -224 0
918 -666 0
-1428 -34 0
-269 -952 0
810 1087 0
-374 1847 0
958 -518 0
-547 -1842 0
-508 -420 0
-778 -33 0
-1288 88 0
1221 -1201 0
-847 -519 0
1475 -1046 0
-568 1876 0
-1779 1311 0
1512 1235 0
1862 -1760 0
413 1801 0
818 -1371 0
-917 -601 0
1463 79 0
-814 -859 0
864 -130 0
-1136 1703 0
-841 -221 0
471 1098 0
-1471 1708 0
1169 -80 0
1631 486 0
371 60 0
1181 1426 0
-831 69 0
-1809 -1799 0
1665 -1823 0
-885 -556 0
-668 536 0
-655 -1105 0
587 -1031 0
1775 -1403 0
-1448 -744 0
501 670 0
570 -99 0
-1797 -798 0
-207 1011 0
-15 1499 0
817 -1380 0
-909 -337 0
1482 -1121 0
-296 -1433 0
-752 -1502 0
-1372 -1605 0
1851 -1638 0
1662 410 0
-1053 507 0
1812 1149 0
700 1273 0
1033 -482 0
1674 8 0
-1839 -1785 0
1819 -1196 0
1419 -967 0
226 143 0
-245 1216 0
-1766 -857 0
-377 1078 0
654 -1603 0
-295 738 0
854 211 0
-1830 -64 0
-1118 -1929 0
1410 -1114 0
-1058 39 0
254 98 0
-1041 -1200 0
-1313 -1577 0
1825 985 0
414 835 0
-626 644 0
1007 91 0
276 1048 0
190 1303 0
-362 -623 0
-1917 1920 0
-1866 -1645 0
-883 -1184 0
-479 743 0
-1707 -1904 0
-1291 -187 0
-478 -525 0
-1772 703 0
-1444 -578 0
1497 -1513 0
-1356 -606 0
1207 1730 0
-1897 1788 0
-1326 -3 0
1183 -1794 0
755 -418 0
1415 594 0
48 -701 0
1937 -1456 0
235 1188 0
-935 28 0
-191 1077 0
-821 375 0
494 584 0
-867 1327 0
-1413 -613 0
372 -1587 0
-1025 -841 0
-704 1726 0
1265 351 0
1547 638 0
520 1258 0
-483 512 0
1008 24 0
-726 -1780 0
-1497 127 0
728 -1259 0
1302 -1775 0
392 -1219 0
-1356 -1856 0
1809 -1854 0
-1061 -1914 0
1719 481 0
1149 1675 0
-727 -1255 0
1502 1134 0
1072 1688 0
474 1738 0
-452 -746 0
-985 -1563 0
215 1223 0
1757 484 0
-131 166 0
805 -1524 0
1742 -1515 0
-528 -468 0
-1649 1400 0
-129 1546 0
1624 606 0
-922 1583 0
-165 -350 0
810 -1672 0
1739 -514 0
-853 -1702 0
-1691 -1044 0
-1785 938 0
131 -1417 0
1416 1113 0
-1582 -1382 0
-1066 -1451 0
492 139 0
-1160 -1467 0
1336 -788 0
828 -5 0
-1072 1680 0
1719 498 0
-1043 -1663 0
-1598 549 0
-495 915 0
88 -1108 0
-1064 880 0
-260 -874 0
532 810 0
-1663 -1472 0
-1212 176 0
-1080 -1281 0
110 -1282 0
-379 -578 0
-905 1330 0
1729 345 0
985 1078 0
-393 -1285 0
-975 -1104 0
1473 1075 0
1305 1001 0
1603 -1212 0
-1406 -732 0
-278 -350 0
327 -1759 0
894 -719 0
-1750 1463 0
-1381 -1697 0
-898 1768 0
-1116 1393 0
-145 -1129 0
-773 -530 0
-1213 29 0
-672 -916 0
1417 1460 0
-1685 -1280 0
-1533 1096 0
948 1201 0
1543 -856 0
-954 -57 0
133 799 0
-1931 -824 0
1177 1891 0
-163 580 0
-1280 1123 0
-1387 13 0
843 929 0
-331 913 0
-860 -1096 0
-777 -1143 0
38 1742 0
-1642 -1819 0
-1583 -341 0
1236 -412 0
47 1815 0
-706 -508 0
-951 736 0
-1254 1750 0
-1641 -55 0
436 600 0
-1205 378 0
-1827 -195 0
-297 -1866 0
1280 1072 0
215 806 0
-1230 -1224 0
-762 320 0
-872 -466 0
-573 -43 0
222 1075 0
-1843 -1495 0
-837 580 0
488 -1934 0
1262 1298 0
-292 -144 0
-753 -1224 0
-1066 -1836 0
1112 270 0
-545 -713 0
-967 -1054 0
-1666 -1184 0
-1485 1777 0
-69 219 0
-1309 858 0
548 -340 0
691 1257 0
-1855 -635 0
-258 980 0
689 648 0
-1837 -424 0
71 -1534 0
-1398 873 0
-1205 -1715 0
919 -632 0
443 1341 0
-1862 1492 0
-1780 1329 0
931 -753 0
1857 -887 0
914 -533 0
-1866 -712 0
1832 -159 0
-926 -1529 0
1566 924 0
-895 -434 0
904 -43 0
-1022 -1372 0
1379 3 0
-775 -745 0
-1116 1858 0
1050 219 0
-1273 347 0
1859 667 0
-1633 467 0
-1865 -1011 0
-1468 -371 0
557 -861 0
-20 1017 0
1192 1720 0
629 1169 0
889 -952 0
1092 -1021 0
690 -357 0
1783 645 0
-1543 -58 0
-1125 -2 0
-611 -337 0
-484 -1456 0
-416 -685 0
-1756 1023 0
872 1880 0
177 -1282 0
-1245 207 0
1377 -373 0
-107 399 0
-1879 211 0
1333 -1663 0
-1293 844 0
-1202 409 0
1348 -148 0
435 -1765 0
442 150 0
-585 -1513 0
81 -1042 0
-1914 -1481 0
-257 -22 0
-1140 729 0
1790 1669 0
1031 -1537 0
1382 -543 0
935 59 0
1571 -1762 0
-1346 -517 0
-109 -1545 0
-1089 557 0
289 -1213 0
-834 -1716 0
-1301 929 0
-1036 -229 0
-1890 1146 0
1492 -205 0
590 1352 0
1631 -1252 0
310 878 0
1844 1770 0
-683 473 0
1419 694 0
73 1174 0
1234 589 0
-954 171 0
1325 609 0
448 -1766 0
-834 1568 0
555 517 0
836 1040 0
1720 -725 0
1789 399 0
-1720 -303 0
557 -159 0
624 1148 0
594 -664 0
-243 -570 0
-1115 -542 0
1337 153 0
-328 240 0
-832 1898 0
560 -717 0
-1502 -696 0
-848 -644 0
1750 -735 0
348 -334 0
-381 1887 0
11 234 0
855 1590 0
-1617 -1719 0
-274 -76 0
774 -745 0
-813 -1140 0
-218 1696 0
1371 -720 0
-111 -488 0
1828 -1474 0
64 -1587 0
-559 -1827 0
-702 -1161 0
210 29 0
-1370 -1798 0
1081 944 0
-89 81 0
204 -556 0
-1491 1504 0
-1819 1552 0
178 -1319 0
-175 -1649 0
-873 1343 0
-522 870 0
900 879 0
1455 1204 0
-924 -1893 0
514 201 0
-808 -1849 0
70 -1819 0
-1118 1832 0
-14 1611 0
1262 -1353 0
861 647 0
-284 -23 0
-1321 1193 0
180 277 0
-709 -1178 0
-1672 -1194 0
-1206 -1360 0
890 1689 0
-227 -1148 0
693 1655 0
-1780 -476 0
-1580 29 0
-223 -1292 0
-394 -1867 0
-596 -746 0
-369 -1702 0
289 1268 0
-10 -1140 0
-793 1720 0
-1348 1843 0
548 1708 0
1891 1142 0
265 -147 0
-1707 191 0
-1846 -763 0
-704 -855 0
72 -665 0
-1103 -1840 0
1810 -406 0
1668 443 0
-1930 -713 0
-1433 431 0
-526 -1440 0
-58 654 0
1790 1714 0
397 -226 0
-1793 -701 0
1460 1414 0
1588 -520 0
1533 -1440 0
-465 -323 0
-1823 666 0
824 -938 0
486 -1066 0
-1766 1228 0
-390 -259 0
70 1185 0
1166 -1385 0
811 1554 0
-1917 -1034 0
1228 -75 0
1362 1132 0
1820 -1698 0
359 -1462 0
1110 24 0
-1145 1369 0
-1639 -437 0
-846 -972 0
-871 -1629 0
238 -1629 0
-785 1491 0
833 -661 0
-1140 -1675 0
-1652 1574 0
-638 233 0
-365 102 0
-976 -1226 0
312 1203 0
28 -1711 0
774 -1728 0
-1667 1143 0
1262 759 0
-2 1324 0
-1456 -1379 0
-1435 4 0
1040 -980 0
1722 1469 0
1297 -1536 0
1256 -1686 0
-380 1231 0
515 1050 0
-1713 -1435 0
-558 -336 0
652 -876 0
-1456 1134 0
1844 624 0
-849 1313 0
-820 -390 0
523 -237 0
-926 1706 0
1374 1028 0
-1284 -1502 0
1188 1641 0
216 -1524 0
-750 831 0
955 -1511 0
851 956 0
-1684 1563 0
1882 79 0
-337 -808 0
-1012 426 0
-879 137 0
149 -232 0
-1750 799 0
535 1392 0
261 -453 0
-464 931 0
-1607 -141 0
281 1832 0
-343 1300 0
-848 -1188 0
313 -1538 0
-1538 1004 0
-408 761 0
-865 904 0
718 102 0
564 1913 0
-602 -192 0
718 1266 0
1886 -1255 0
-1928 161 0
985 94 0
-1593 1601 0
-1841 -1753 0
115 -1525 0
-328 -1698 0
-191 1802 0
-89 -332 0
1106 1838 0
1015 -300 0
1267 931 0
737 -155 0
1337 -588 0
1168 -582 0
956 220 0
-1193 848 0
323 -1814 0
882 -1047 0
-777 515 0
900 1666 0
-1359 -741 0
-1925 -30 0
-1456 269 0
-679 199 0
-969 592 0
60 -620 0
-1620 -923 0
-862 227 0
-1536 -259 0
-117 -704 0
-942 -1747 0
257 329 0
535 -1485 0
1780 1256 0
1371 -1711 0
-878 -675 0
-40 245 0
1476 -906 0
-698 -1060 0
-1091 440 0
1168 84 0
-279 -126 0
-1212 273 0
-45 -657 0
-1144 1409 0
-469 -650 0
408 -373 0
-1364 50 0
1903 1265 0
207 -1773 0
1820 781 0
-207 1470 0
42 478 0
-128 -868 0
1647 1766 0
1626 -390 0
-1688 -1811 0
-1126 1262 0
764 889 0
-1049 99 0
-1139 903 0
1385 -179 0
970 -1006 0
1007 903 0
-201 -83 0
448 824 0
1235 606 0
-1208 -1351 0
-196 601 0
1147 -1229 0
1197 1230 0
-418 443 0
-537 1835 0
-1755 -312 0
1596 -1669 0
-1679 -331 0
-423 -1592 0
-852 -967 0
-1025 -661 0
317 -106 0
-1515 -1818 0
217 -734 0
-30 -1452 0
-823 1895 0
-1350 -623 0
-61 545 0
1680 -257 0
-1390 -678 0
-24 -488 0
-1463 152 0
245 557 0
852 209 0
-684 -1071 0
-1083 -941 0
386 -891 0
-577 197 0
-363 -1159 0
764 688 0
-198 1903 0
1840 -696 0
-742 -1856 0
-1599 198 0
1520 988 0
20 -1250 0
1188 -1368 0
1167 -1454 0
1083 -1537 0
-1115 352 0
620 541 0
1363 -1449 0
-1737 386 0
-800 1114 0
-1066 1277 0
-1793 -259 0
1877 100 0
-1755 -1345 0
-205 -1016 0
-243 1119 0
-576 568 0
-1096 -1908 0
1409 -428 0
1151 775 0
1614 1112 0
-267 1842 0
1234 1657 0
-339 1552 0
1743 1277 0
85 1342 0
-1231 568 0
-1832 -1660 0
-776 -1089 0
-1591 -1105 0
-1458 1777 0
654 335 0
1114 717 0
-621 681 0
1745 1761 0
-270 -1637 0
-1488 -394 0
-1913 568 0
731 -753 0
500 1802 0
1830 1890 0
-395 -239 0
1713 794 0
-633 1857 0
1781 -851 0
1775 1066 0
1272 -1157 0
-350 -1561 0
913 1052 0
-68 -326 0
204 875 0
-1235 -36 0
-730 362 0
1215 693 0
1897 -587 0
237 -1792 0
572 981 0
809 -359 0
-1495 322 0
-494 -853 0
-250 724 0
-1378 -647 0
1209 -1028 0
1009 -778 0
1521 1747 0
-722 -1092 0
1566 -1097 0
1470 -399 0
-334 1209 0
1540 -1190 0
-273 1841 0
1171 -357 0
1105 266 0
1676 -244 0
-1420 1740 0
756 -1142 0
277 -1762 0
1556 -1164 0
93 329 0
1817 -1592 0
924 1831 0
-1567 -57 0
-336 1256 0
211 -1308 0
1128 -667 0
-943 -203 0
-1348 838 0
-1925 1363 0
-1677 -3 0
-1304 -1599 0
-1291 970 0
-1481 515 0
1574 -1829 0
-1855 854 0
1166 1534 0
1140 1480 0
-260 1550 0
-1855 1821 0
658 -129 0
43 -1691 0
1475 -1731 0
1015 795 0
-1241 1682 0
39 -1884 0
825 -959 0
1059 32 0
-1541 -1678 0
-1841 -1847 0
-589 -1442 0
113 1120 0
-114 1043 0
1197 323 0
-1486 1262 0
1524 1328 0
-1665 1915 0
872 -1926 0
-1935 -562 0
1429 1167 0
1928 -226 0
706 -1743 0
-701 -7 0
1648 -309 0
102 1793 0
427 -962 0
-1142 544 0
-1395 907 0
-198 1450 0
-430 747 0
404 -885 0
1188 757 0
-61 1085 0
-284 1698 0
-1713 496 0
1541 864 0
1148 -1443 0
1404 -974 0
-1165 216 0
344 -187 0
-1681 1219 0
695 291 0
927 1520 0
674 -596 0
1030 1164 0
-317 -1468 0
-580 1108 0
200 25 0
1232 -1308 0
-1709 453 0
-1273 -697 0
69 1256 0
1034 1828 0
-420 1038 0
1538 1473 0
-103 -1581 0
500 1016 0
313 -484 0
-147 -813 0
-155 -667 0
-1435 -1008 0
-1095 1014 0
74 -48 0
-777 -328 0
68 799 0
-1066 1377 0
-1539 1751 0
1229 1834 0
56 -215 0
489 -1819 0
329 -420 0
766 1550 0
-1309 -1926 0
-1494 1098 0
-1872 -1495 0
-539 -355 0
616 1843 0
-1189 1256 0
-186 509 0
-1778 1905 0
-1607 943 0
529 798 0
951 -1576 0
1017 1658 0
-1716 -463 0
-1038 836 0
-358 298 0
-882 -537 0
-1606 -90 0
-870 -1332 0
-984 -1795 0
-169 -1189 0
-1064 1867 0
1157 -1211 0
-1339 935 0
1566 1073 0
-286 -947 0
-286 1644 0
-1568 -708 0
149 -427 0
-301 -986 0
1821 41 0
416 -85 0
1168 1370 0
580 532 0
1814 779 0
960 -1350 0
-1502 793 0
-582 111 0
662 -1836 0
-1931 1038 0
-577 -543 0
-1686 -1769 0
-1553 -689 0
1154 -1088 0
-289 960 0
-1813 -1156 0
-1438 -450 0
-328 333 0
1863 468 0
1581 1727 0
45 -1556 0
-1784 -1228 0
1139 -1649 0
1414 -317 0
-754 -1484 0
635 115 0
1700 102 0
379 1365 0
-1881 624 0
-1264 1325 0
-1549 -74 0
-14 654 0
-855 104 0
1070 -563 0
-1296 -298 0
-43 456 0
-853 555 0
-1070 1895 0
139 -197 0
670 920 0
-1542 -43 0
-1200 -128 0
-844 -1753 0
-1639 -576 0
-1587 -683 0
918 -229 0
-296 1792 0
-244 1881 0
541 -241 0
1774 703 0
-1780 -1191 0
-1395 1139 0
347 445 0
-414 1857 0
292 -1811 0
-1442 338 0
-1900 -1222 0
-1013 132 0
-1807 -689 0
-1618 -1608 0
412 -340 0
220 1203 0
-1714 768 0
-928 229 0
-1598 -1049 0
-652 896 0
180 987 0
1572 1822 0
1228 398 0
1209 -411 0
1776 93 0
374 1620 0
802 -89 0
-1372 528 0
189 -1865 0
-1244 212 0
-1272 -804 0
806 -835 0
293 -337 0
1190 -1603 0
1150 397 0
1473 1448 0
211 -6 0
-1524 1073 0
1511 540 0
1710 1763 0
1663 1236 0
-73 903 0
1024 -856 0
624 1093 0
-1598 406 0
1812 1928 0
1425 846 0
1928 1318 0
323 -1697 0
1348 -709 0
-257 1877 0
931 -1526 0
-159 -1750 0
573 52 0
1236 -1853 0
-1512 873 0
375 -348 0
403 -1151 0
1873 116 0
570 363 0
-1391 1605 0
-664 -1171 0
-469 -1573 0
-147 72 0
1623 -1346 0
131 -844 0
-1438 1781 0
1504 -1411 0
660 1768 0
-193 1820 0
977 -1898 0
1857 1591 0
-434 726 0
1304 514 0
-1245 1644 0
1662 -1358 0
452 -1805 0
894 -210 0
-1136 -120 0
-1168 -1918 0
699 -1034 0
-612 -1618 0
1460 -417 0
1924 1863 0
671 1268 0
1177 688 0
1634 140 0
1365 1202 0
-1770 -1011 0
-471 -1443 0
-973 1553 0
780 1364 0
900 424 0
365 1265 0
1331 -1641 0
1422 -1855 0
265 -1895 0
-780 1850 0
-1073 -1721 0
-1339 1907 0
-913 1123 0
1676 806 0
1162 -692 0
1288 -1784 0
1710 1722 0
-994 -1824 0
91 -626 0
1320 674 0
-576 990 0
113 -1566 0
-1144 -105 0
1878 1362 0
-127 51 0
-1117 1147 0
-1395 -26 0
1393 392 0
-232 1315 0
-962 1831 0
-917 -1115 0
1888 -1741 0
-727 1851 0
-892 -878 0
1076 1178 0
-1769 1330 0
-1646 -1761 0
-1044 253 0
-999 -923 0
-860 -714 0
1667 1562 0
229 -1459 0
1737 664 0
1606 965 0
1243 -1570 0
-1778 -1668 0
-1273 -1373 0
-65 -1713 0
451 -918 0
-1067 -1180 0
1003 60 0
1636 -33 0
-1916 -507 0
1024 976 0
1371 -593 0
-1765 -1913 0
-341 235 0
541 259 0
-771 -885 0
-1820 41 0
-1918 741 0
-1604 1378 0
-842 -261 0
479 -1644 0
1131 -1548 0
1731 -145 0
591 -773 0
-1221 98 0
639 -194 0
-1056 1001 0
-362 -1320 0
-649 -290 0
-198 -805 0
-1797 -1340 0
-1647 -462 0
-1620 -1926 0
-466 238 0
-284 1143 0
-285 -675 0
1108 42 0
1494 -879 0
-1490 250 0
1066 1460 0
-529 -1874 0
640 780 0
1276 -1536 0
121 1719 0
1524 1680 0
-1085 655 0
775 -1325 0
442 1809 0
-1274 236 0
-909 1661 0
98 1648 0
-447 1806 0
1568 -1233 0
775 -969 0
1108 1896 0
957 1529 0
-168 -918 0
-1250 -669 0
314 1520 0
-273 -638 0
691 -1343 0
-1355 774 0
610 -1413 0
1165 1607 0
-877 -922 0
-1771 660 0
1151 -1644 0
-1623 1721 0
127 -1432 0
1486 -952 0
-28 345 0
986 384 0
-1115 -1878 0
-1825 137 0
780 126 0
-1860 697 0
938 -1288 0
407 -30 0
-1135 -191 0
-120 -1732 0
-10 -453 0
-836 -1319 0
1276 -217 0
-881 -672 0
-832 1493 0
846 -790 0
-522 -1377 0
-833 -1156 0
-1417 -966 0
-287 -954 0
-1096 -1325 0
129 1505 0
891 -594 0
1298 1415 0
1447 -1512 0
-1798 -1442 0
823 -1359 0
-23 -291 0
82 1407 0
-1797 -1227 0
277 39 0
1899 -349 0
280 1396 0
-1026 -196 0
-594 -1000 0
774 912 0
-328 -1881 0
-1131 -960 0
-1013 472 0
1311 697 0
1062 -1553 0
1893 85 0
-1837 975 0
-1742 698 0
1781 1627 0
623 234 0
-1756 1720 0
-1503 979 0
1466 -991 0
1073 -537 0
-1283 -110 0
1694 904 0
-48 1219 0
1048 1143 0
-1107 380 0
1798 478 0
1263 -1795 0
-33 -442 0
554 -1595 0
-842 -195 0
-1582 923 0
-1170 -648 0
1863 517 0
305 422 0
-713 -1854 0
1476 533 0
1135 1493 0
-1209 -1491 0
-1887 -777 0
-967 -877 0
850 1754 0
-579 -1902 0
-456 -1031 0
-332 -1383 0
838 1711 0
1365 -639 0
-1553 154 0
1128 -58 0
-1532 1220 0
-566 1305 0
1262 -708 0
-260 688 0
1931 -229 0
-350 562 0
1324 -452 0
1045 -302 0
1219 -340 0
376 1298 0
1927 941 0
1793 1715 0
100 -869 0
1622 703 0
-497 1730 0
1919 -1715 0
211 1025 0
-1854 -115 0
-72 -1361 0
-574 1070 0
-1874 -1486 0
-923 -1492 0
-1406 89 0
-1061 1341 0
584 1515 0
1826 -1559 0
-1255 874 0
1422 38 0
499 461 0
196 662 0
772 1228 0
1013 -665 0
-419 -1565 0
-161 -1841 0
1393 1428 0
1362 -1444 0
-878 270 0
-1884 1899 0
1277 -1018 0
-1293 -1246 0
1252 1706 0
1353 -949 0
-547 -1511 0
-414 122 0
-603 1100 0
-684 1049 0
608 1344 0
744 -1481 0
757 -771 0
-1881 1936 0
198 -1233 0
1443 -1196 0
-1687 209 0
-838 416 0
400 -1 0
490 -749 0
-1675 -1228 0
333 1313 0
970 -1375 0
-1639 1671 0
1181 -1731 0
-1475 -179 0
1873 1239 0
-280 -1397 0
-1047 503 0
-1055 1326 0
-161 -285 0
-427 -452 0
-243 -597 0
-815 1137 0
1072 478 0
-230 -1350 0
1484 -635 0
-1755 -854 0
1488 1253 0
-360 232 0
-296 875 0
-1482 -1523 0
-1061 1297 0
-575 612 0
-1315 1711 0
50 1298 0
1037 1480 0
1306 -927 0
-1760 -322 0
-1687 -772 0
-41 -803 0
1392 -143 0
889 133 0
1550 1732 0
-1251 1151 0
1887 1587 0
1261 -1725 0
779 230 0
-1352 -1825 0
1821 -1507 0
489 -1517 0
-1002 -1784 0
-245 -192 0
-517 1016 0
1384 -242 0
1207 -830 0
404 -933 0
-1599 -1364 0
-357 -1841 0
806 296 0
311 1590 0
-1041 -91 0
-833 6 0
-92 1777 0
739 -1749 0
-207 55 0
-1559 1636 0
-1562 1057 0
1784 -808 0
-681 -535 0
-1165 599 0
1412 1490 0
-1403 -943 0
486 1487 0
-1010 793 0
-1532 -393 0
-1193 576 0
1835 -509 0
-1486 -77 0
-1010 345 0
-1421 1227 0
-1701 -1169 0
-1898 1344 0
1677 -1791 0
-1664 -1785 0
1933 860 0
-206 -850 0
-1724 -1865 0
386 806 0
-566 1224 0
896 -1374 0
743 -214 0
1880 -657 0
1337 878 0
786 1541 0
-965 -969 0
1878 -575 0
-1931 -1280 0
1359 1662 0
1743 -680 0
354 -167 0
519 1756 0
700 -308 0
-332 -837 0
-834 936 0
-1443 -1735 0
-1782 -1852 0
1840 -803 0
-234 979 0
-689 -292 0
-1363 -286 0
-1696 -676 0
-1489 1446 0
9 -48 0
81 786 0
-1020 -705 0
-1361 740 0
-744 -428 0
1295 1706 0
-1823 12 0
1529 -1449 0
1376 -1759 0
150 952 0
-1006 717 0
-643 -1688 0
-1082 968 0
1604 -1836 0
-1775 -1155 0
-1750 1862 0
-1110 204 0
793 652 0
1763 447 0
1861 -78 0
-893 -1825 0
-1324 -950 0
-1529 1549 0
-478 -966 0
-1557 -482 0
1666 -174 0
201 -1667 0
-1010 1376 0
75 1025 0
-82 88 0
1100 -510 0
1850 -1051 0
-570 449 0
403 -1233 0
-1661 -874 0
494 -1541 0
-355 1475 0
-1285 422 0
974 -1085 0
-1348 843 0
1251 717 0
-1774 -14 0
-101 -4 0
588 -381 0
890 -1441 0
1181 401 0
-579 491 0
1685 -349 0
-1918 928 0
1419 1491 0
-684 1613 0
1087 789 0
-1456 -1838 0
-425 -369 0
-468 383 0
-1914 1239 0
-1360 1721 0
-295 1384 0
4 1785 0
689 54 0
1708 1374 0
-1042 253 0
-528 115 0
-1548 -815 0
1104 805 0
-956 -1413 0
-373 1066 0
-1639 -197 0
1270 -1501 0
-1839 1792 0
1093 -395 0
765 -1011 0
599 1191 0
-785 1052 0
1596 -1863 0
-794 -600 0
1643 -1001 0
1277 1894 0
-1679 -42 0
-397 1619 0
980 1079 0
1363 1382 0
652 -1150 0
-340 -1104 0
-414 -1603 0
961 1404 0
-1406 1846 0
849 947 0
1138 -1378 0
-1637 -33 0
-1535 -1760 0
-1278 -344 0
42 922 0
1236 -1537 0
-721 1010 0
1249 1549 0
-530 -504 0
42 -820 0
403 -138 0
745 -1226 0
1780 86 0
-37 -1490 0
-952 391 0
-1140 672 0
1586 1826 0
1893 480 0
-1297 743 0
-1284 -1209 0
-1334 1657 0
-1059 -1516 0
-1418 -837 0
1893 1460 0
751 -1130 0
-307 105 0
-1534 -424 0
-1380 -1916 0
733 1016 0
1403 -1259 0
-884 913 0
781 -156 0
-721 1130 0
-1625 569 0
46 -428 0
1095 -398 0
-1432 880 0
-1161 -1548 0
-1557 1434 0
733 -270 0
1599 -326 0
-1085 462 0
-221 1100 0
1652 -615 0
1584 -1508 0
-1078 36 0
979 904 0
-1055 1087 0
-47 1123 0
-1570 -458 0
1291 -494 0
-1720 1230 0
-66 586 0
1875 -441 0
1285 -497 0
861 1176 0
904 755 0
1745 -1683 0
-181 -279 0
-1735 -425 0
246 265 0
1742 -1399 0
1525 -876 0
-1011 178 0
-1022 694 0
1864 777 0
857 1080 0
1893 -1051 0
1656 95 0
-1505 55 0
-743 1146 0
116 1259 0
-62 426 0
1750 1274 0
-291 1547 0
-998 -1709 0
1783 -1520 0
-1526 968 0
1463 544 0
-33 -1773 0
-1233 520 0
-756 -885 0
986 -254 0
-1196 -1793 0
751 -144 0
-1546 -1365 0
1262 -121 0
289 -279 0
1560 458 0
520 -262 0
1236 1363 0
104 -1509 0
-1202 56 0
-72 -1512 0
-239 379 0
102 -1877 0
1348 875 0
-863 379 0
-388 -114 0
-1860 358 0
-859 601 0
-5 -163 0
-597 16 0
-92 -721 0
-1178 1550 0
1218 -670 0
-708 1331 0
204 -1436 0
324 -781 0
-762 -975 0
-1346 1451 0
-1715 -247 0
1450 1602 0
-307 524 0
540 1701 0
1861 -860 0
1540 -1833 0
-1304 -1218 0
-1598 -182 0
1117 -1580 0
-10 421 0
1233 1421 0
-101 939 0
-1677 1766 0
1590 -923 0
-1055 1180 0
1894 1237 0
-21 660 0
-420 -26 0
-692 -820 0
-1403 -1251 0
-1176 -1481 0
1492 253 0
1127 801 0
1806 64 0
182 551 0
-1520 1469 0
1324 -1375 0
416 -866 0
873 -1152 0
269 -717 0
1070 -1615 0
-480 1219 0
-1097 -1767 0
-1048 -1698 0
-148 386 0
-1458 -1195 0
455 481 0
-1240 614 0
224 1194 0
788 -852 0
-1759 -1340 0
-1214 1262 0
-182 -1291 0
1840 -1762 0
1800 1465 0
-723 30 0
1098 -1237 0
-632 -1923 0
433 616 0
-775 548 0
-128 -1223 0
235 -661 0
-107 952 0
1899 1737 0
-943 1793 0
1687 -440 0
-1200 -1644 0
-1458 565 0
-1514 37 0
-1673 1338 0
-1160 1170 0
948 1043 0
-175 1865 0
1454 -1749 0
1878 -227 0
-1157 1181 0
1329 1158 0
-442 553 0
-1119 1776 0
1605 -1733 0
-141 -1865 0
-1029 -1084 0
116 674 0
1547 1877 0
980 -1931 0
1801 -1291 0
-646 1621 0
621 786 0
360 -1743 0
-1501 315 0
1881 -1245 0
-1644 1666 0
-1684 964 0
1331 1698 0
1908 -952 0
-1780 929 0
-1675 1480 0
1455 -1552 0
1326 -1423 0
-722 1918 0
686 1739 0
-1110 177 0
325 592 0
-198 1409 0
-1283 -505 0
1604 1158 0
-1029 -865 0
144 -133 0
1628 -26 0
-1633 1767 0
532 889 0
-1796 -508 0
1104 805 0
1197 1223 0
1001 1473 0
-316 -1006 0
666 -1713 0
-434 -999 0
301 -820 0
-997 -1919 0
917 -1646 0
-544 1401 0
1408 1672 0
-879 1009 0
-1317 -101 0
-894 105 0
-61 -1142 0
1762 -1818 0
-470 207 0
764 -1149 0
-656 -1201 0
127 1022 0
-539 -1862 0
-394 -891 0
-1185 -758 0
1305 1359 0
-1428 -108 0
-198 1748 0
-598 -30 0
-1723 -1020 0
-1180 907 0
-430 1073 0
-1065 205 0
1843 1823 0
-891 -1906 0
1552 -1805 0
819 -169 0
-1638 271 0
-434 302 0
1215 -196 0
-777 -1218 0
-1372 653 0
-916 388 0
-645 1188 0
-234 -1278 0
1352 -231 0
-913 -1321 0
1145 -77 0
1905 1794 0
1352 -402 0
-1564 571 0
-337 1485 0
-1935 -565 0
534 338 0
-1794 -1331 0
1492 948 0
1845 1146 0
976 -23 0
-701 -627 0
-796 -1137 0
1876 1561 0
984 1602 0
-238 1100 0
-1144 -1213 0
-27 -876 0
-1760 -361 0
1885 -1700 0
1431 977 0
860 799 0
1876 1834 0
-1456 216 0
1581 1260 0
1640 1181 0
233 -582 0
-179 84 0
-1514 -337 0
846 -1661 0
1035 670 0
1662 -762 0
602 -1181 0
-667 368 0
489 -113 0
1385 559 0
223 1330 0
-1482 -1698 0
1098 -730 0
-838 -141 0
-1421 1517 0
-1724 783 0
-1680 1610 0
1872 1928 0
-1677 -1059 0
-1796 -821 0
-672 -1904 0
-385 -1452 0
1825 1594 0
584 1621 0
143 1629 0
484 911 0
-1697 1335 0
-1580 -1799 0
-1066 -487 0
-1271 -1370 0
-778 -1572 0
-829 -559 0
-856 1819 0
-955 158 0
-1706 -148 0
257 1574 0
177 -524 0
400 -1627 0
-1301 1457 0
-294 -1200 0
1705 -1710 0
-1640 1243 0
-1552 -521 0
-1116 1419 0
-1670 -145 0
1686 -1042 0
-1213 505 0
-518 -595 0
211 -834 0
-1261 -1381 0
-1204 -163 0
354 -1186 0
-887 459 0
-206 1645 0
-34 -509 0
-1065 512 0
-129 -637 0
-1152 -361 0
1270 281 0
861 -1725 0
-1693 -769 0
276 211 0
93 -1604 0
-639 1607 0
896 947 0
-295 1444 0
-479 1018 0
-1435 -836 0
-921 -1641 0
-646 -1874 0
-1183 764 0
740 -759 0
265 -104 0
1390 1476 0
1356 1119 0
-1296 -46 0
119 -1914 0
-588 -1261 0
1682 1425 0
-1202 -1895 0
-360 1207 0
-925 -549 0
34 -857 0
-316 44 0
-1403 372 0
-1198 59 0
-1600 -54 0
-1352 -935 0
1774 -229 0
-1136 358 0
-290 -1818 0
406 904 0
-5 345 0
8 -1819 0
-227 1882 0
-936 -876 0
1099 1479 0
873 211 0
1077 817 0
-1459 803 0
-212 -1318 0
913 1739 0
668 -791 0
138 -1670 0
1790 -1597 0
-1025 -341 0
1844 83 0
1191 1057 0
-953 -1671 0
345 -1055 0
698 810 0
-1454 2 0
1602 -1854 0
831 -72 0
1450 -811 0
-848 1104 0
-324 -830 0
1372 253 0
1039 -1428 0
-196 1467 0
225 -787 0
1928 -1185 0
-1710 -1853 0
1368 -994 0
-1521 1459 0
-1835 -940 0
-1563 -843 0
-1735 -103 0
707 144 0
60 -801 0
1092 1176 0
-1409 -366 0
187 674 0
-712 1333 0
-1751 -1563 0
-283 -1095 0
-21 -1254 0
-505 -1373 0
-1925 962 0
113 327 0
1909 427 0
337 -1919 0
73 907 0
-1672 888 0
1101 502 0
-1388 -1620 0
1405 799 0
1847 -567 0
1276 558 0
-482 -546 0
-701 -418 0
-85 -314 0
-218 -349 0
-736 510 0
-997 -1444 0
158 -901 0
1087 1013 0
980 1714 0
-83 -49 0
-972 -664 0
615 -969 0
1058 1353 0
-1567 -1267 0
-396 1873 0
981 1602 0
1243 354 0
-1932 1511 0
-1763 -107 0
982 881 0
189 -1612 0
1031 606 0
-879 1894 0
-1687 548 0
29 -396 0
-1335 -1701 0
-1900 781 0
836 1355 0
518 -967 0
1455 -496 0
954 146 0
-1378 975 0
-1671 -832 0
-1309 -522 0
1188 -907 0
901 -650 0
1167 -1899 0
1800 1651 0
-1784 -1050 0
299 -593 0
1790 1139 0
-598 549 0
-1324 -328 0
-1606 -1350 0
567 1267 0
-575 -1403 0
400 1242 0
-1432 515 0
-120 911 0
230 -933 0
-1734 -1508 0
368 -974 0
1126 -637 0
558 751 0
-1230 697 0
-210 282 0
660 -589 0
502 -924 0
-982 -459 0
-1840 -1874 0
-394 1816 0
-151 -1503 0
1710 -630 0
-201 -878 0
-1830 -1350 0
-599 -842 0
533 -296 0
1804 1520 0
-563 -1759 0
-936 231 0
1383 565 0
79 387 0
2 -1005 0
796 -714 0
315 47 0
1912 -1249 0
407 228 0
-125 -361 0
1869 3 0
-535 -50 0
-908 -1829 0
386 -47 0
-787 -1133 0
-1701 -765 0
-598 520 0
1746 691 0
-1660 -1555 0
-1841 1540 0
846 1658 0
-1330 -411 0
-124 -1637 0
843 -894 0
-621 -697 0
-1709 -860 0
-984 -280 0
624 748 0
-1220 4 0
249 -711 0
1511 -962 0
-1505 -1482 0
-891 220 0
-482 -862 0
-1275 1258 0
-1764 -282 0
258 215 0
1396 78 0
-1367 -169 0
1895 -1257 0
1555 -1193 0
-1277 979 0
1927 -213 0
-714 774 0
-155 -1338 0
1288 710 0
1298 -1579 0
-306 -1909 0
1909 -1459 0
32 -708 0
896 -575 0
-320 -1675 0
736 1037 0
-1155 1168 0
138 -581 0
-989 421 0
-1053 342 0
-102 -881 0
6 -435 0
553 -795 0
-756 -571 0
152 -613 0
1624 717 0
-1923 -151 0
-332 -1637 0
1308 1073 0
1194 -1175 0
-476 1855 0
-656 -46 0
236 1917 0
-605 -676 0
756 -1912 0
1917 -1512 0
19 -491 0
-1693 -54 0
55 1511 0
571 -1217 0
-1167 1168 0
1756 1368 0
-640 -1569 0
-672 -730 0
-151 -1260 0
1659 1422 0
1922 -1909 0
1895 -1275 0
-365 1726 0
-231 -1688 0
1094 -871 0
-695 -885 0
1330 -637 0
-477 1937 0
-770 -188 0
-723 934 0
1143 838 0
-803 1927 0
520 -1696 0
746 1188 0
-49 766 0
-1507 759 0
850 853 0
-1121 483 0
1475 -1611 0
-1785 -680 0
-866 740 0
-1348 1418 0
-1761 333 0
-175 -1247 0
-1803 22 0
-901 -1681 0
690 -973 0
183 -449 0
-1556 376 0
-1905 649 0
-1244 -772 0
606 1538 0
-1041 770 0
1891 -1676 0
-1020 -1845 0
-508 525 0
1636 516 0
653 602 0
-408 1766 0
1045 -1638 0
746 825 0
-702 -1190 0
-1378 -639 0
133 201 0
-1776 -1237 0
-1603 -155 0
-1025 1267 0
253 -286 0
1132 -108 0
1550 1768 0
204 687 0
293 599 0
332 -1481 0
809 -1185 0
-1169 1330 0
1438 1060 0
-1911 1199 0
1226 1117 0
-465 1581 0
17 505 0
-729 1474 0
447 592 0
977 -1485 0
1189 -482 0
-1047 -912 0
1385 -885 0
1859 -538 0
733 -822 0
593 -758 0
457 103 0
794 1588 0
1500 843 0
-112 -415 0
-1464 -953 0
1176 -201 0
471 1238 0
706 1088 0
1014 1137 0
-1393 985 0
-600 -1001 0
1440 -1799 0
1383 939 0
-1436 -757 0
-1609 -160 0
-756 -1202 0
64 1028 0
1302 943 0
344 -822 0
1562 560 0
-924 669 0
-1286 -713 0
-563 1329 0
818 -250 0
407 -1331 0
744 1815 0
-1140 821 0
-120 -611 0
1057 -784 0
-673 1602 0
283 904 0
40 -1171 0
1546 -618 0
1188 65 0
-1327 69 0
1636 -1702 0
-1449 -1828 0
1246 -930 0
850 1303 0
-330 -525 0
-1601 1874 0
979 1465 0
277 110 0
1044 558 0
1581 -474 0
914 -609 0
-1471 -942 0
694 -680 0
-673 -1469 0
1539 -847 0
1594 -1717 0
-987 -1501 0
367 35 0
1607 1846 0
-878 -535 0
-1530 -1248 0
1694 -234 0
622 382 0
-475 1111 0
-533 -582 0
1484 -530 0
-59 -696 0
-44 660 0
1313 -1069 0
-1629 749 0
-412 1654 0
-705 -156 0
-1218 1651 0
1209 1636 0
555 -790 0
-1911 614 0
578 -316 0
-1750 1849 0
-591 -1097 0
-1099 1816 0
-1053 -1018 0
-59 -1616 0
-186 -1272 0
-1792 628 0
1822 -961 0
769 1009 0
-692 1809 0
1861 -547 0
1732 -1583 0
1820 -804 0
-1370 1334 0
-1321 -15 0
39 -104 0
1881 -592 0
1540 -1865 0
1305 351 0
514 871 0
-148 -1457 0
16 -1137 0
1166 694 0
-1072 -1049 0
915 1746 0
1622 -724 0
874 -680 0
-421 -626 0
1094 1878 0
-301 -262 0
-628 -778 0
655 1298 0
564 -24 0
-1685 -279 0
-1041 630 0
1081 667 0
614 1328 0
164 807 0
-481 1740 0
1212 197 0
-1333 822 0
972 484 0
1869 -848 0
1838 107 0
-134 1312 0
-1399 -918 0
628 760 0
-1000 -1051 0
-1780 1462 0
-1093 695 0
1427 1911 0
-241 -223 0
-342 -1712 0
1354 780 0
-947 1127 0
1621 1123 0
-791 1927 0
-596 1864 0
-1064 -872 0
1857 1483 0
-1627 156 0
1634 1146 0
-1409 1098 0
1546 -1646 0
-781 -1853 0
-404 -201 0
1812 -1000 0
718 -704 0
-560 -1853 0
-1159 1414 0
358 1718 0
-386 270 0
1158 -1335 0
-946 587 0
-1890 1477 0
54 116 0
-138 1851 0
-1627 320 0
-598 -1074 0
270 -968 0
823 287 0
581 -360 0
-951 447 0
-1504 -303 0
1263 587 0
981 1227 0
1842 1181 0
-1640 -1894 0
-578 1041 0
-1877 1021 0
-1825 1160 0
-685 -1194 0
-154 1504 0
-685 1578 0
242 1652 0
-631 1416 0
571 668 0
1366 1552 0
745 1165 0
-951 -992 0
-450 -1498 0
708 797 0
1703 -1296 0
-1347 -1435 0
-586 1185 0
827 1130 0
-35 -923 0
-723 1505 0
547 439 0
1639 -1206 0
431 251 0
1146 202 0
387 1617 0
-87 -389 0
-1548 1365 0
256 1189 0
-301 -610 0
-473 -22 0
-1737 -396 0
940 -1288 0
-1847 -1899 0
404 -1854 0
-777 -476 0
-950 1446 0
-301 886 0
160 -1561 0
976 285 0
824 -576 0
-9 677 0
-130 -785 0
1359 -1399 0
1091 60 0
1917 -570 0
1166 -104 0
513 1462 0
1004 -408 0
1547 517 0
1256 -822 0
-1836 -1302 0
-994 -1059 0
546 -1430 0
-1474 152 0
-468 -1639 0
-322 -1805 0
318 -292 0
1374 -957 0
1330 -117 0
-660 -522 0
-1172 -1910 0
-335 -63 0
1895 -1242 0
545 1716 0
-1770 -1472 0
96 -59 0
474 -1258 0
-66 -1121 0
-618 -1645 0
1084 140 0
841 529 0
-201 1462 0
-1675 586 0
-1751 -1582 0
-345 224 0
-841 557 0
-257 156 0
499 -947 0
-1589 -58 0
30 -1647 0
1649 507 0
-272 1170 0
1776 -1044 0
-1059 768 0
-639 864 0
787 96 0
-644 -593 0
866 96 0
-621 -1027 0
-1160 -388 0
1367 -1911 0
-1289 988 0
-1013 -1897 0
-1660 -1364 0
1340 -1667 0
-1787 -562 0
-1798 997 0
149 931 0
-757 -357 0
185 1651 0
373 1424 0
-176 184 0
929 -637 0
1096 -217 0
-942 -1580 0
1847 -1600 0
20 1365 0
1493 -1029 0
1466 609 0
1629 1581 0
-618 997 0
-909 938 0
235 -152 0
-904 555 0
-327 -1757 0
-1059 -633 0
1846 -1049 0
1363 -1668 0
-391 504 0
731 1712 0
-336 981 0
-609 679 0
-741 56 0
-1838 1703 0
-757 -428 0
596 310 0
-1701 298 0
-1929 273 0
1349 -200 0
901 -1919 0
-526 1049 0
-1609 132 0
513 -1266 0
-1296 -1368 0
-306 677 0
834 -613 0
1889 -210 0
1575 1368 0
1466 -1395 0
-719 1287 0
-272 570 0
-50 -747 0
-734 549 0
927 -1034 0
1780 -1484 0
1754 351 0
-1892 -1444 0
1045 1655 0
920 1773 0
1146 614 0
678 -790 0
-1788 1252 0
-1683 -531 0
1337 52 0
1851 -638 0
-1348 -849 0
1149 -878 0
-398 249 0
-1140 -107 0
1826 1519 0
148 -650 0
-11 731 0
-112 1722 0
1453 -1533 0
165 -521 0
1457 1226 0
1122 504 0
-1856 628 0
997 -153 0
-1314 1093 0
1855 -239 0
517 -168 0
-1897 249 0
-1276 -1249 0
-593 -705 0
-1502 -1404 0
207 -1051 0
550 -1403 0
1261 1323 0
1884 -1059 0
-308 1414 0
-1786 -1794 0
-1401 -732 0
1850 -483 0
-155 565 0
1148 -1763 0
-817 -284 0
105 -1932 0
692 833 0
-637 -435 0
-1386 1722 0
-1444 -1056 0
1547 -1165 0
1001 1682 0
410 -1026 0
-900 -689 0
-1677 1771 0
606 -1318 0
-1091 -671 0
130 -576 0
-469 -1048 0
-402 -1161 0
-358 1227 0
460 -891 0
-750 -269 0
-906 -763 0
1054 1711 0
1428 -425 0
1072 -643 0
-868 -489 0
1810 -141 0
367 -1579 0
-1833 -1299 0
668 251 0
-226 -1240 0
1388 -1638 0
700 -1135 0
-364 1347 0
636 -720 0
569 592 0
1305 -959 0
-613 -342 0
189 -1337 0
1025 783 0
-1225 1052 0
-933 -757 0
-1920 -748 0
1098 -1785 0
820 -301 0
870 -626 0
796 1325 0
-140 1844 0
169 733 0
-1134 -758 0
-877 1926 0
985 -546 0
-1548 -419 0
1154 364 0
1219 -1857 0
-15 705 0
-667 1331 0
-738 -1009 0
-85 1331 0
710 737 0
1031 -1029 0
1658 571 0
-985 -934 0
-1071 -186 0
-1629 763 0
1153 -1397 0
-1260 1457 0
1797 -398 0
-1235 427 0
502 688 0
1765 -1673 0
-1482 -1175 0
-1184 -575 0
-1752 651 0
1108 -574 0
-573 -643 0
827 1289 0
-1773 -936 0
-17 1199 0
-399 -1400 0
-1471 270 0
-1935 -153 0
73 718 0
-1281 -1649 0
1891 -1774 0
1143 -1783 0
552 858 0
-1545 -1612 0
1391 1343 0
185 1853 0
-1327 -22 0
678 -1822 0
-1297 -1934 0
-1786 -1753 0
-1307 -1358 0
-1067 -1762 0
1826 -1734 0
-1900 -6 0
-140 555 0
-1633 -1628 0
1407 -581 0
-125 -1240 0
-1831 1840 0
-1388 1295 0
750 1722 0
-575 -45 0
-1721 82 0
-1400 1437 0
1174 752 0
-1617 1124 0
1525 -673 0
503 569 0
-968 -952 0
-815 510 0
112 245 0
385 -292 0
-399 -1267 0
-829 -1226 0
106 703 0
-132 809 0
816 -206 0
1236 768 0
1718 -1788 0
-1030 1169 0
-507 -156 0
315 747 0
1898 -93 0
-487 -1343 0
-1154 -120 0
-1278 661 0
-12 -675 0
347 -32 0
351 1441 0
1714 -1495 0
1765 -1752 0
-665 407 0
-147 -1281 0
-952 -1386 0
1187 -506 0
-1595 -159 0
-1488 1659 0
-321 -1520 0
-561 429 0
-784 -1074 0
-1544 250 0
-450 -810 0
-168 947 0
-456 -1318 0
-466 -756 0
1551 1243 0
1905 -1344 0
948 1918 0
-651 -1612 0
-171 1590 0
1591 1897 0
945 1271 0
-734 997 0
-1751 -1398 0
1349 -369 0
-1034 -82 0
245 -834 0
1768 1879 0
424 -1861 0
1029 1139 0
-135 -1146 0
1302 -244 0
-932 -124 0
-961 1810 0
-1251 470 0
-825 -1642 0
1073 -969 0
1612 1884 0
1181 64 0
-1054 -1216 0
-1131 -691 0
-1502 -610 0
-851 -579 0
-1696 -138 0
-609 948 0
-637 -1795 0
-663 1554 0
-1237 2 0
149 -498 0
862 1333 0
-1251 861 0
590 96 0
-1122 352 0
-471 975 0
303 -9 0
-206 313 0
1033 541 0
-1446 1547 0
-1452 1366 0
-640 1393 0
764 -647 0
-993 -193 0
-501 1257 0
765 1823 0
-343 -1265 0
1892 248 0
335 -535 0
454 270 0
-1224 -44 0
1552 321 0
853 1815 0
-600 1471 0
427 -1799 0
-1849 -940 0
-72 896 0
-1042 741 0
399 197 0
-226 -1802 0
968 -1121 0
-860 -1123 0
1306 -30 0
634 52 0
-570 -1866 0
828 1334 0
-74 -185 0
964 826 0
236 -309 0
-1299 1273 0
-1788 -1803 0
-1497 -1063 0
-369 -855 0
-1200 1421 0
-1347 1219 0
-398 1105 0
-275 -941 0
986 229 0
-1931 -107 0
536 -865 0
1588 -595 0
-170 1441 0
651 -1570 0
-232 -1114 0
1850 -1059 0
-942 624 0
-1296 -764 0
445 -195 0
-1472 -907 0
-1485 -1903 0
1460 764 0
-1320 1119 0
-693 413 0
633 -1724 0
780 1477 0
837 1749 0
-1770 473 0
625 -411 0
707 624 0
-1036 -953 0
1393 -1498 0
-1342 1937 0
969 552 0
1310 -741 0
-1256 -1426 0
1923 -1555 0
-206 157 0
-5 1633 0
225 -190 0
-447 37 0
292 142 0
456 1176 0
1584 -513 0
-1007 1290 0
1680 -172 0
-125 -530 0
573 -1537 0
759 1729 0
-1916 1572 0
-812 -1133 0
404 -515 0
-102 -1410 0
-1641 -30 0
148 47 0
-301 -1709 0
1703 -429 0
-832 -1318 0
-119 1081 0
-893 -187 0
1341 -1707 0
1855 1584 0
-591 -53 0
861 827 0
-1292 -420 0
799 -1815 0
883 897 0
-765 -656 0
760 -1931 0
1767 1396 0
1897 -744 0
-699 -1068 0
956 316 0
168 1562 0
-1177 -1286 0
1325 1850 0
457 -321 0
-1545 1076 0
-1370 1932 0
1261 1252 0
-663 979 0
1927 -293 0
536 227 0
1846 810 0
718 1363 0
-43 -129 0
400 1256 0
1297 -856 0
-1536 -1772 0
1511 -226 0
-1797 912 0
-346 1424 0
-1089 1837 0
1025 1907 0
171 -221 0
-1115 -311 0
1648 1217 0
674 464 0
968 1475 0
1433 -213 0
1257 801 0
1520 836 0
100 -829 0
-663 1501 0
-166 794 0
-1178 -673 0
235 -540 0
1875 894 0
-463 -321 0
-597 -22 0
-1261 -1772 0
-1807 -1535 0
1831 -1879 0
-572 -992 0
-1011 1344 0
1571 -623 0
1680 -1633 0
-1655 1256 0
1409 -488 0
-1695 802 0
172 -649 0
953 1637 0
1684 228 0
-1716 1619 0
1052 1423 0
-665 -916 0
-724 975 0
1714 -103 0
-957 -61 0
1842 471 0
189 1415 0
-1577 -321 0
-109 1435 0
774 -657 0
-1007 -719 0
-1927 -1055 0
-741 -811 0
110 478 0
691 -1779 0
-612 -1162 0
1698 654 0
-645 -1405 0
-343 1363 0
1932 445 0
820 -77 0
736 -399 0
266 1044 0
211 253 0
1788 1614 0
-330 -1389 0
-1011 -1501 0
-461 956 0
-1862 947 0
1743 -316 0
1905 841 0
-1337 486 0
485 629 0
-167 1927 0
-956 261 0
-1112 -522 0
1379 599 0
700 864 0
1412 474 0
-1840 -336 0
-1632 -1508 0
-21 1693 0
-547 714 0
-375 -1144 0
568 -1539 0
-346 1486 0
1400 381 0
41 1123 0
786 -20 0
1695 -1796 0
1834 601 0
-973 -1592 0
1552 -739 0
-10 -1710 0
1528 -173 0
1145 1136 0
1365 1064 0
-1334 828 0
1362 1393 0
458 856 0
-699 -754 0
-408 -600 0
1188 -1783 0
1215 996 0
-1864 -300 0
601 -1278 0
1054 1454 0
721 1654 0
426 -123 0
-1232 1453 0
1059 1451 0
294 889 0
714 1423 0
461 -1051 0
723 691 0
564 -462 0
288 236 0
-114 -579 0
1540 -442 0
-1512 778 0
-817 1269 0
1882 -1408 0
477 -1486 0
-730 1344 0
-1067 -1646 0
1241 -22 0
1333 -93 0
-356 -1699 0
-1481 1560 0
1871 -1348 0
-423 -899 0
-528 -1811 0
352 -242 0
1888 -539 0
-428 529 0
-1041 1441 0
-1506 -1535 0
246 1671 0
1245 1205 0
-1413 -1742 0
-1715 -579 0
900 655 0
73 -573 0
1365 1920 0
880 -1479 0
-610 -395 0
-1931 840 0
-305 979 0
150 -605 0
-979 1341 0
830 -655 0
1508 1102 0
-222 742 0
-634 -223 0
-865 -292 0
-1352 88 0
-1803 155 0
-337 84 0
-623 24 0
-123 -921 0
-1097 -1820 0
-1235 1790 0
-12 -1793 0
1654 174 0
-1489 -1506 0
872 1846 0
-1677 -1017 0
216 749 0
1206 1098 0
185 1891 0
-958 -1196 0
69 -1467 0
1873 480 0
-1104 -210 0
-918 1685 0
1291 507 0
-1657 1148 0
-1110 184 0
-821 332 0
609 773 0
536 -1891 0
-239 269 0
-222 960 0
658 -826 0
-441 -369 0
1873 -848 0
715 98 0
-1308 -566 0
-1206 364 0
1066 39 0
802 96 0
-1373 -1280 0
-197 -1359 0
-435 83 0
-1818 -325 0
-1293 -1585 0
-1321 -1413 0
1370 -893 0
16 613 0
-33 550 0
-800 -1236 0
-483 -1163 0
-1825 -1335 0
1251 1236 0
69 -1575 0
-852 1158 0
955 1799 0
-1676 1084 0
-1248 1414 0
-236 -396 0
1027 -1749 0
-562 766 0
522 -198 0
-1530 981 0
990 529 0
237 -1472 0
-1138 -1066 0
-1635 -1234 0
-1315 403 0
-728 -725 0
-830 -873 0
-1251 1105 0
723 799 0
1165 575 0
1469 658 0
1880 1903 0
-1821 -453 0
1495 1447 0
-1 1305 0
1329 -9 0
-969 850 0
-306 -1693 0
1558 1252 0
1202 -1109 0
-65 -1338 0
979 -744 0
454 -1808 0
-1921 555 0
1305 -1195 0
-207 -234 0
-1152 1375 0
645 -735 0
41 1504 0
489 409 0
128 54 0
1243 1385 0
344 81 0
1654 -1756 0
-1882 376 0
-1275 913 0
157 -278 0
552 -825 0
672 -1653 0
1792 1783 0
1113 768 0
-1270 338 0
-384 -222 0
-22 1198 0
-1378 980 0
-304 -1373 0
-986 1234 0
693 166 0
-1224 -1696 0
243 515 0
-691 -962 0
144 2 0
-1111 -1471 0
553 728 0
-357 -45 0
-1567 -1756 0
182 -651 0
-525 -726 0
542 946 0
-1301 -1923 0
1140 265 0
569 -1380 0
-535 -578 0
1744 -561 0
1414 -514 0
1379 -1186 0
505 -1612 0
-1390 -994 0
-899 -1555 0
2 1333 0
-497 361 0
-1387 -374 0
513 1699 0
-278 -1925 0
124 -36 0
-1879 1300 0
-526 -1447 0
1656 414 0
-632 1287 0
1069 -925 0
1334 6 0
1374 716 0
-1089 -1193 0
631 743 0
349 132 0
-15 -935 0
161 -488 0
-1340 446 0
-30 -382 0
1549 646 0
1279 -323 0
-1113 -1641 0
-438 -828 0
-1395 267 0
-406 -506 0
115 1589 0
934 1368 0
-1632 -191 0
-637 -1601 0
-887 -1370 0
1458 1838 0
425 1499 0
-994 1292 0
-799 592 0
-5 -1507 0
1003 -309 0
166 -178 0
333 427 0
1416 655 0
-1733 1875 0
1 1540 0
-661 -664 0
1149 -1866 0
1239 1740 0
1560 1163 0
-1638 -866 0
-1735 -527 0
-849 -408 0
-692 -1935 0
-916 1176 0
1312 1766 0
1362 813 0
-1508 -127 0
-291 -255 0
-1136 142 0
-626 -1596 0
-90 1529 0
1423 289 0
169 -1183 0
-1736 1084 0
714 -192 0
700 1581 0
-1546 265 0
-1009 733 0
1500 723 0
1219 -1133 0
196 1134 0
-297 -1107 0
-1174 894 0
-1813 1043 0
-1354 633 0
1427 -1288 0
-1235 -453 0
939 798 0
-1627 -511 0
1550 -182 0
-495 -1007 0
220 1519 0
-1588 1185 0
-621 1330 0
-1784 -1150 0
988 -1535 0
1550 512 0
234 1507 0
-1314 1628 0
889 1500 0
-1868 -1116 0
-663 -350 0
-630 -619 0
1743 -1836 0
1347 -1259 0
1038 657 0
-1167 -295 0
-242 1320 0
-1630 -1026 0
-303 -1880 0
-191 685 0
1386 -728 0
-1916 -1432 0
1302 -314 0
-975 208 0
1729 1387 0
-1069 -18 0
383 1404 0
1005 -1765 0
-609 957 0
378 -1417 0
-1315 -1814 0
-198 886 0
-5 830 0
-1048 985 0
1415 741 0
1480 1200 0
263 -583 0
524 574 0
672 -699 0
268 -863 0
1872 84 0
985 856 0
1497 -135 0
-1367 -64 0
-1114 1568 0
166 -1547 0
1232 -1388 0
-243 -594 0
-1537 -525 0
-186 1875 0
1720 1349 0
-306 -665 0
379 -1493 0
-832 1253 0
591 -634 0
1875 -1836 0
-1364 -1181 0
-632 1504 0
1241 229 0
915 -1294 0
-1276 -1256 0
1311 -261 0
-497 1645 0
-249 -360 0
918 59 0
744 -1091 0
1432 -804 0
-1139 1270 0
1694 -95 0
1415 -1428 0
1605 1224 0
-644 -1362 0
-754 -576 0
-131 -185 0
1602 -1418 0
682 -1366 0
-279 -1409 0
1134 -1193 0
-970 -1715 0
1682 896 0
-989 1138 0
-1661 1438 0
-1921 -1677 0
8 1578 0
821 -954 0
-358 774 0
-1688 1163 0
59 -1438 0
-136 1742 0
-1049 -873 0
1816 -309 0
808 -141 0
-1570 -1905 0
133 442 0
1424 413 0
-1502 -1462 0
-723 337 0
-1194 -318 0
-1604 1489 0
-1572 258 0
117 -205 0
1557 1081 0
1279 1362 0
-1529 261 0
-703 344 0
-1862 1167 0
-163 1124 0
-261 -1110 0
333 1690 0
1610 -863 0
-781 -544 0
1098 1642 0
573 -1883 0
1076 -174 0
1793 -673 0
-1392 256 0
-341 1274 0
548 -1031 0
682 556 0
-201 1141 0
931 1850 0
-993 -1713 0
-1564 -350 0
767 -1097 0
667 -1567 0
-130 -1508 0
-1899 1229 0
-1830 -1719 0
1311 -239 0
-475 1130 0
-76 -1014 0
1880 -1703 0
-490 1181 0
-1482 -732 0
1342 -374 0
688 -812 0
-296 -347 0
-878 581 0
-1200 69 0
-1872 666 0
190 1665 0
1217 405 0
-962 1076 0
-119 -192 0
-1521 1894 0
1881 -1053 0
-1110 -1206 0
1199 495 0
1116 -1398 0
-1264 -58 0
-1588 -17 0
1710 -31 0
1887 1415 0
-223 -1618 0
1544 1002 0
984 1028 0
-292 1234 0
793 -1796 0
1724 1891 0
-430 -1430 0
1023 91 0
-993 1804 0
-1307 -758 0
-1413 646 0
-340 1417 0
1515 -605 0
-1122 -967 0
728 -819 0
1467 -69 0
121 70 0
-942 137 0
983 888 0
511 1563 0
-1613 -255 0
1905 28 0
1410 -1771 0
-863 -128 0
-1930 -836 0
54 747 0
-1466 1018 0
831 -1028 0
-1507 1575 0
-1224 1065 0
-1205 315 0
-1114 550 0
588 1819 0
144 1306 0
16 -833 0
-1319 -1370 0
1264 -908 0
1371 269 0
-489 1457 0
1287 206 0
533 116 0
1898 -879 0
-1767 -1411 0
875 -1145 0
73 222 0
-504 -1930 0
1838 -689 0
1881 -1095 0
1341 -1484 0
674 -1662 0
1766 813 0
496 -1739 0
-1722 -1752 0
-1436 1717 0
553 601 0
668 456 0
1113 862 0
-1634 1606 0
-1373 -1923 0
335 -38 0
802 -1677 0
-396 1076 0
284 -570 0
1341 -627 0
-452 1451 0
477 -1540 0
122 242 0
-1503 846 0
-586 -1041 0
583 -1678 0
578 270 0
890 16 0
-1593 -1500 0
471 397 0
329 -317 0
76 1076 0
1433 1278 0
-480 1451 0
1813 -1410 0
-216 -1387 0
1402 -78 0
-1664 1365 0
1305 1184 0
-1240 962 0
-179 912 0
-725 1141 0
882 -1820 0
-1749 1708 0
606 -1634 0
980 911 0
-1041 -1253 0
112 -1388 0
-1708 -1486 0
824 -184 0
1767 -1555 0
-1916 -1846 0
-958 -217 0
1177 194 0
783 1683 0
-1083 1738 0
-936 975 0
1493 1130 0
-1609 1866 0
1842 1258 0
1254 -19 0
1210 335 0
-45 -1609 0
-789 -288 0
1106 -804 0
-934 -1563 0
1576 -1647 0
-1854 -1624 0
1015 824 0
424 -1160 0
-331 -1180 0
-192 -1045 0
1893 -754 0
-1065 -1660 0
-1490 35 0
-618 1189 0
-1116 986 0
-792 -1932 0
-657 -753 0
281 1303 0
-1678 1403 0
-608 1840 0
-370 1409 0
-729 130 0
698 -420 0
-561 264 0
409 -1726 0
1243 -1574 0
181 -162 0
-196 -402 0
-1761 1158 0
504 -1866 0
1396 277 0
-1301 1581 0
522 1024 0
-665 -582 0
-452 -863 0
81 -812 0
1409 -1330 0
-1224 -747 0
-1757 557 0
709 385 0
-1388 -238 0
-773 417 0
-1090 765 0
-205 -1240 0
461 -130 0
-1034 -1099 0
91 1897 0
823 129 0
-655 -117 0
-1184 -559 0
240 511 0
691 290 0
261 756 0
-108 -1194 0
104 -451 0
1730 1718 0
-860 -20 0
-192 510 0
706 982 0
1763 1185 0
824 963 0
-729 1591 0
-1029 852 0
-593 208 0
1253 921 0
1612 371 0
1306 -909 0
-1600 -1078 0
-593 -735 0
-1928 -926 0
418 -613 0
-789 130 0
-1862 589 0
-452 375 0
1602 -1351 0
1441 1106 0
-1823 -805 0
-520 -1497 0
403 -666 0
1874 1385 0
1209 -963 0
-1523 -1450 0
801 165 0
-1603 -738 0
-1054 223 0
1870 409 0
-498 538 0
796 -1007 0
1309 -1840 0
-1150 1704 0
-1609 1337 0
502 -526 0
-1308 -212 0
-709 -572 0
110 114 0
-1919 1690 0
-883 495 0
1302 206 0
1621 681 0
-1820 -1332 0
-1017 1158 0
143 1770 0
-1107 137 0
-201 1053 0
-1599 -45 0
-1388 -1686 0
403 994 0
-1724 -1873 0
1842 1365 0
-1867 -1016 0
-618 748 0
1747 441 0
222 1112 0
-453 -1871 0
1924 1781 0
-1533 -978 0
-1756 703 0
-1670 -600 0
1826 -1481 0
869 1622 0
-1598 1411 0
-1642 688 0
-640 -566 0
1927 -876 0
5 869 0
-1887 -196 0
469 517 0
-516 1036 0
1094 759 0
643 -1862 0
307 -738 0
1119 -1214 0
-1022 778 0
-855 1813 0
1040 -653 0
-1342 1828 0
1331 1340 0
508 -1762 0
-1010 -339 0
302 -235 0
-1066 -53 0
1463 1519 0
1775 -114 0
298 1621 0
1113 -1733 0
1151 1143 0
718 154 0
-1068 690 0
1342 1896 0
432 -80 0
266 -1531 0
1816 -994 0
1288 -619 0
-239 1822 0
-551 -506 0
460 -1089 0
-90 -49 0
1335 -328 0
319 1436 0
709 1216 0
-335 1301 0
1231 -1585 0
733 -1660 0
1496 1128 0
-922 1185 0
1634 1641 0
1729 -1822 0
1454 1608 0
-115 -255 0
-116 -167 0
1222 -1586 0
-1130 1739 0
-1068 1632 0
1043 -1161 0
385 -1102 0
-1204 -327 0
1881 -275 0
-1206 -1011 0
-534 1415 0
1899 748 0
-77 321 0
-777 396 0
-514 523 0
1393 671 0
-1390 1527 0
654 41 0
1127 820 0
-1223 850 0
-906 975 0
-444 -1025 0
497 1870 0
1004 1007 0
-1356 -857 0
-144 -1794 0
1728 -465 0
1479 -701 0
-1198 -1248 0
795 978 0
1135 -672 0
1922 -1325 0
-908 14 0
1270 403 0
789 -242 0
-199 775 0
-1537 -392 0
-245 -1439 0
-723 -120 0
694 -321 0
300 -470 0
-941 -655 0
1349 -755 0
446 -1019 0
920 1423 0
1303 1725 0
1666 -1464 0
446 -1242 0
781 1117 0
1363 178 0
-657 1841 0
-1074 -448 0
-787 871 0
-1526 -121 0
-1373 1182 0
1499 -800 0
322 724 0
-76 -19 0
1487 1165 0
290 1722 0
-470 -12 0
1606 1870 0
1374 854 0
846 -1468 0
1549 -19 0
1723 837 0
-1301 -862 0
-1306 -815 0
1842 -89 0
1304 -1307 0
-1430 979 0
445 132 0
340 836 0
823 -1683 0
336 1907 0
433 -821 0
-1867 1619 0
-1609 1717 0
-1614 743 0
-972 -935 0
418 -1226 0
-1831 1292 0
568 -1421 0
-608 -1672 0
-1639 1717 0
-1405 2 0
-1446 887 0
752 -282 0
1384 1059 0
-458 -547 0
-1863 1602 0
-112 1434 0
781 -1461 0
-845 -1366 0
-881 -1273 0
-265 1801 0
-1215 385 0
-1282 333 0
541 -1693 0
-389 -1491 0
1054 -1935 0
156 -663 0
-410 1124 0
1741 911 0
264 1910 0
424 1776 0
-1222 35 0
1551 1596 0
56 -1456 0
-709 880 0
1096 1162 0
1254 -1538 0
-1467 1542 0
-1689 1015 0
718 -1770 0
-1386 1584 0
1705 1470 0
-167 1261 0
-179 -1280 0
-811 958 0
-543 -1760 0
-1178 -693 0
1887 24 0
1038 -1701 0
-256 -1152 0
-112 -221 0
-996 351 0
-1898 1649 0
-1318 582 0
435 1933 0
52 -925 0
-1179 720 0
168 -1244 0
-153 -797 0
1243 1146 0
-625 72 0
-1017 -1294 0
-1799 -714 0
-1529 -604 0
-196 550 0
-80 1850 0
-318 1038 0
-1701 612 0
471 -1878 0
-963 -1350 0
-1146 -840 0
1292 -1770 0
1384 -271 0
315 443 0
1569 1274 0
1359 -633 0
1429 277 0
546 -174 0
46 -815 0
-454 -1140 0
784 -1177 0
-1461 -395 0
-607 473 0
154 1791 0
-179 976 0
-1281 -1700 0
-989 14 0
-321 2 0
1463 -725 0
807 -1356 0
-330 519 0
-888 1826 0
-777 -1506 0
-449 -1718 0
-1912 -1134 0
-747 623 0
1177 -1857 0
1842 837 0
-1713 -1121 0
425 801 0
-979 -949 0
752 -1230 0
555 658 0
-33 445 0
-1324 -1645 0
1787 -1090 0
-1719 -734 0
1545 629 0
408 -632 0
992 1745 0
-1180 266 0
-528 1830 0
-490 532 0
1177 -1509 0
-428 773 0
-1772 1457 0
-70 471 0
-619 1173 0
805 -1303 0
384 -899 0
1915 1692 0
-1345 -815 0
1747 -261 0
1060 -702 0
1441 -1193 0
1936 -255 0
1666 137 0
-1385 1768 0
565 -1345 0
-600 -1604 0
703 -632 0
-533 -1503 0
581 -1061 0
-1635 -1856 0
-1874 1317 0
1777 1087 0
1277 804 0
-992 116 0
1173 1187 0
-1795 1044 0
894 -579 0
388 -1135 0
-902 75 0
-753 499 0
840 -148 0
-1398 -977 0
1094 963 0
274 -1493 0
1542 1246 0
-731 -1071 0
1195 1368 0
-816 1524 0
-760 220 0
-1462 1256 0
848 -832 0
288 -15 0
1282 1858 0
1893 -1567 0
-223 172 0
632 -567 0
-433 -938 0
-331 927 0
944 -357 0
-866 -78 0
-482 -1247 0
1808 1924 0
-917 25 0
-45 -952 0
-37 -125 0
436 1774 0
-1862 -959 0
1333 -1065 0
-1552 -640 0
-652 -222 0
1685 -205 0
-1432 848 0
-1485 -676 0
351 -1846 0
-1673 -1307 0
-396 -1026 0
-1695 -1856 0
514 -1250 0
-1805 -1427 0
-1756 800 0
1927 1349 0
1058 -1733 0
-157 -91 0
-50 981 0
745 -1592 0
751 957 0
-810 -340 0
-686 1288 0
-551 -954 0
-862 -190 0
384 933 0
-570 -1486 0
573 -673 0
-1717 555 0
338 774 0
-1766 177 0
28 1239 0
-1649 -1714 0
-987 1894 0
-780 -9 0
-1197 -613 0
108 1050 0
-222 -912 0
398 1218 0
-1301 1023 0
1287 -353 0
945 539 0
-1335 -655 0
-463 432 0
-1842 -410 0
-744 -61 0
-173 1221 0
-661 750 0
1781 -992 0
1816 -1519 0
1218 -662 0
180 896 0
-1597 341 0
88 431 0
769 -637 0
1182 -548 0
1165 -347 0
-844 -499 0
-1375 -789 0
-1105 1918 0
937 -501 0
398 -847 0
706 1292 0
-235 649 0
1669 -435 0
-1794 551 0
-528 271 0
523 1667 0
-303 -754 0
-287 1108 0
-1664 946 0
1740 1456 0
-247 -1394 0
-712 -186 0
796 -299 0
822 -1524 0
-1704 -1281 0
-176 312 0
1776 422 0
-1405 912 0
-1462 1182 0
1636 -337 0
1080 -1435 0
-995 -1834 0
-1686 1169 0
715 798 0
-1044 1581 0
-967 1540 0
-1178 856 0
724 1300 0
-921 -158 0
1332 -12 0
-1491 1141 0
-1313 -377 0
-579 792 0
542 -1132 0
-1091 1688 0
-27 -1489 0
-1248 1314 0
-90 125 0
-1058 931 0
-933 -350 0
-593 -1571 0
557 -285 0
-42 2 0
41 -452 0
-66 -1136 0
-1471 481 0
1585 1926 0
551 1710 0
1258 587 0
507 -847 0
-1915 457 0
-1688 507 0
-134 -246 0
1669 977 0
-1749 -941 0
394 240 0
-107 -1268 0
409 1440 0
-278 -775 0
-1287 1620 0
688 44 0
-848 -1485 0
-575 -1651 0
-279 -1860 0
-1103 -1803 0
-1749 1331 0
897 697 0
226 -874 0
1377 -1020 0
-97 -964 0
1618 404 0
29 -641 0
1070 -461 0
133 1550 0
1483 975 0
1624 -160 0
-1146 -192 0
204 1511 0
-675 -948 0
-1086 -926 0
833 424 0
-840 -382 0
1822 728 0
-522 421 0
500 -1263 0
-1064 -1244 0
-993 1401 0
687 -1538 0
1613 700 0
-1068 1155 0
-205 265 0
136 -173 0
679 1292 0
1631 -584 0
254 587 0
-498 1158 0
-34 -1035 0
616 -1119 0
1218 -693 0
-1668 -1485 0
-1727 1326 0
-171 -1278 0
-13 -686 0
-1305 -1913 0
-962 -898 0
-410 1642 0
996 1737 0
235 -1333 0
1660 404 0
-85 -173 0
-860 -880 0
1005 -136 0
-1580 1770 0
-1705 -1254 0
839 -537 0
1397 1124 0
-92 550 0
-637 1344 0
-934 852 0
520 -130 0
889 -169 0
1393 1177 0
-1791 -634 0
-771 -1586 0
-156 -561 0
-1214 535 0
-322 1349 0
-1265 -259 0
1699 352 0
1195 1246 0
-968 409 0
-860 252 0
-1650 215 0
-251 1310 0
-549 1554 0
-19 -656 0
1448 -148 0
252 1887 0
1289 948 0
-1564 727 0
-747 321 0
-10 1142 0
1710 -518 0
1086 -1242 0
-242 -1929 0
-494 1193 0
1849 1232 0
-1811 1557 0
1802 833 0
323 -1714 0
-777 -891 0
-1778 1804 0
-494 813 0
149 694 0
-838 836 0
1277 -257 0
-156 -1378 0
-408 104 0
-1514 -209 0
1897 1795 0
-1573 -377 0
-633 -185 0
-430 955 0
-535 320 0
-1410 1560 0
600 -983 0
905 1451 0
-1103 -173 0
1737 -666 0
-243 -917 0
1656 -1915 0
-647 898 0
1809 -954 0
-526 1399 0
1079 -1715 0
-107 207 0
-314 -666 0
-125 180 0
-1218 -787 0
445 1436 0
772 1042 0
302 366 0
113 1463 0
1532 436 0
-812 687 0
-1339 -1087 0
-753 -1261 0
-1564 -943 0
1280 1745 0
1490 -1273 0
-595 460 0
-1855 -1613 0
897 407 0
-1735 -213 0
1130 -1170 0
1521 1330 0
1701 -66 0
-151 1013 0
-1716 -1873 0
-1670 -281 0
1774 -764 0
964 -335 0
370 -1221 0
-1272 346 0
813 999 0
1318 822 0
779 431 0
803 351 0
946 1624 0
-1470 -1316 0
-373 -302 0
698 -718 0
1384 -343 0
678 432 0
1810 -1905 0
-845 -1067 0
-398 1487 0
-1818 1878 0
-1645 -451 0
-1523 256 0
1498 -621 0
1554 1782 0
882 -1378 0
-1620 1037 0
-1189 601 0
1468 -1867 0
347 654 0
520 -1156 0
-582 -1593 0
439 388 0
422 -996 0
-908 -386 0
-962 -1402 0
-1629 -567 0
-271 974 0
1141 -591 0
-1735 1584 0
-1155 285 0
-823 -1498 0
-885 -1089 0
-255 1040 0
405 -501 0
479 -1514 0
-384 -1814 0
-760 -1516 0
-128 -1933 0
-1387 -393 0
-667 1292 0
73 1664 0
-583 42 0
651 444 0
1125 -582 0
-185 -1797 0
-1031 -1068 0
-182 979 0
384 836 0
-1526 -535 0
1220 -1714 0
768 -637 0
408 662 0
-1212 -1563 0
-1072 953 0
-934 -1804 0
-672 1876 0
-423 -411 0
-841 -1903 0
-1846 133 0
-1299 1302 0
-1578 -1906 0
-1266 -594 0
-1735 -709 0
-781 -1327 0
-1079 -336 0
911 811 0
274 -594 0
-1045 557 0
96 -1898 0
-1865 388 0
-454 1822 0
-870 694 0
-1035 1252 0
-405 -1692 0
144 1133 0
-611 -1617 0
766 1592 0
-1570 96 0
-168 1337 0
-1922 542 0
1793 -551 0
-1157 -5 0
429 -231 0
-1635 -741 0
-1485 -7 0
-853 58 0
-1904 -530 0
-559 -307 0
348 -797 0
-1258 741 0
1120 -1461 0
284 -1314 0
-501 -1255 0
1786 -653 0
294 1035 0
-1413 -994 0
-1355 753 0
622 -36 0
906 1864 0
1320 42 0
-1001 -300 0
1850 75 0
-1397 -706 0
805 287 0
-1251 -1167 0
-1405 1662 0
-1083 -1549 0
1259 -1902 0
-423 197 0
41 -15 0
1526 -1375 0
1806 413 0
-1857 -581 0
-609 -685 0
1933 -942 0
-754 899 0
464 358 0
211 910 0
1376 1581 0
-966 -97 0
-273 1589 0
298 -222 0
1826 -977 0
307 1857 0
1737 -1226 0
-797 -291 0
-395 -164 0
-1650 475 0
-10 1655 0
1816 1503 0
183 977 0
-341 -1177 0
1413 -1567 0
1282 -1350 0
1493 1767 0
500 1601 0
1617 -745 0
-999 -665 0
1561 1010 0
328 1287 0
-570 -1726 0
1230 1235 0
979 1869 0
1467 -926 0
-282 -501 0
-747 -1454 0
1662 -26 0
-270 -1338 0
-77 -606 0
-869 939 0
-388 -1534 0
-865 -462 0
-934 -795 0
-1321 -399 0
-1097 1618 0
510 -837 0
-1483 829 0
946 -1103 0
1224 -1321 0
1897 1873 0
-466 -1681 0
-1706 -1733 0
1696 -221 0
-985 443 0
1295 -972 0
-1607 1887 0
714 -1332 0
935 1901 0
-1785 629 0
1509 1789 0
-1709 -308 0
-1641 281 0
-1799 768 0
-637 -789 0
-1553 -1267 0
1215 -470 0
-145 -750 0
-1766 -1202 0
1704 -119 0
601 -28 0
1834 333 0
1349 -881 0
-1218 624 0
1145 -1342 0
-1772 -1030 0
-526 14 0
1271 -1877 0
-112 141 0
-1405 -1827 0
1192 1883 0
336 -1753 0
-1819 -703 0
-316 -647 0
1310 -243 0
254 673 0
310 1365 0
710 1924 0
-373 -1044 0
-819 -1056 0
1309 274 0
1374 -272 0
-1755 -66 0
-954 -1779 0
674 -638 0
160 1399 0
1265 -1607 0
-855 823 0
-1631 -1558 0
515 836 0
-171 1641 0
-1373 -635 0
-1853 1928 0
-714 -1320 0
1223 -746 0
1820 -1268 0
1840 -634 0
1043 1438 0
363 -572 0
592 -435 0
-1489 -1899 0
770 -403 0
1711 -114 0
-1484 -732 0
1553 505 0
-185 1309 0
1232 837 0
478 -602 0
1199 1512 0
-271 846 0
342 -1210 0
1160 -866 0
289 -1527 0
420 740 0
-1545 572 0
1718 1026 0
-1360 -821 0
-125 -983 0
-1296 1473 0
-630 554 0
648 -1929 0
-1608 -1374 0
173 1143 0
-1837 -1063 0
182 -34 0
1242 -876 0
-104 -1361 0
-581 412 0
-1743 -1268 0
1357 1579 0
918 770 0
-423 1624 0
-684 1495 0
-838 -63 0
1002 -1326 0
-1289 -936 0
1373 1686 0
-723 1656 0
589 -1482 0
1676 1748 0
1000 -309 0
1749 -1399 0
1738 557 0
1598 584 0
837 214 0
-1444 -958 0
1619 -127 0
1455 -440 0
-439 1910 0
983 -1555 0
-1186 1209 0
486 927 0
-1702 1103 0
1072 452 0
352 390 0
-518 -835 0
1757 -681 0
-1656 965 0
-892 893 0
-987 1562 0
-251 -1545 0
557 1353 0
-1063 -1387 0
303 150 0
-1570 -1248 0
13 447 0
-793 1768 0
1416 1918 0
326 -1688 0
1487 -539 0
1370 -188 0
-232 -1234 0
245 -1906 0
-1046 -1434 0
-1500 372 0
1092 1208 0
1742 997 0
98 -331 0
-1678 -1616 0
1111 -317 0
-664 -1094 0
-877 1210 0
-788 -1020 0
32 -1513 0
-1265 1706 0
1411 1128 0
-193 -1864 0
-1147 -1637 0
1657 628 0
407 -591 0
-778 1799 0
533 1374 0
460 -881 0
-936 8 0
828 -1554 0
-1937 797 0
-641 323 0
-415 767 0
-1486 -1428 0
-1847 -435 0
-1920 1050 0
1823 -1546 0
-850 828 0
-705 152 0
-1202 -1710 0
1870 -618 0
-999 -919 0
-1036 1200 0
1236 -803 0
-825 -1207 0
369 -1064 0
779 -1366 0
766 81 0
121 -308 0
-1910 -262 0
1496 419 0
-986 -61 0
429 -340 0
-1640 -681 0
940 458 0
1216 -1676 0
679 914 0
1319 -1348 0
-830 -233 0
1910 1236 0
-1207 1648 0
-1827 -434 0
554 -935 0
-366 -1155 0
911 -413 0
583 1123 0
-360 421 0
1917 94 0
-610 -968 0
-1799 1815 0
-1316 -545 0
457 487 0
-282 -1187 0
-1356 -19 0
-996 1486 0
69 649 0
1188 711 0
-918 -1935 0
-131 278 0
1894 -1914 0
596 -1462 0
940 1119 0
-641 162 0
-260 -1150 0
-1006 -1306 0
-1575 75 0
662 826 0
-973 -880 0
-381 1838 0
-818 -1773 0
1560 840 0
477 86 0
-1288 1027 0
1767 954 0
523 1641 0
97 -134 0
1407 -1193 0
-1319 1253 0
302 -579 0
-191 1150 0
-1406 1219 0
1869 281 0
-356 -1275 0
1311 -1141 0
80 378 0
-1294 -1252 0
-955 -1743 0
-934 -1576 0
781 -296 0
723 310 0
1005 -1919 0
33 -1464 0
1693 624 0
-706 868 0
907 -1762 0
629 -19 0
-1558 -758 0
-206 -206 0
1120 875 0
-1827 1441 0
-29 -1054 0
1594 236 0
-1063 1467 0
-526 511 0
-468 1393 0
1567 -1450 0
1511 -1544 0
1276 -1760 0
-1778 -1709 0
1655 -1851 0
60 -224 0
1739 -300 0
-317 -1930 0
-1229 1505 0
-1806 1522 0
-551 -129 0
-123 774 0
-1266 -450 0
1131 -53 0
-279 179 0
1173 351 0
1355 -1156 0
689 -851 0
93 1922 0
-1755 -1876 0
-1225 838 0
1191 946 0
381 -1925 0
178 -1110 0
900 803 0
-671 1177 0
-1867 756 0
858 73 0
-632 -1413 0
800 1279 0
-1439 -1534 0
-1629 1861 0
-1367 1635 0
1050 -420 0
-1518 -1103 0
-572 968 0
267 508 0
514 -655 0
125 -1613 0
1005 1266 0
-185 786 0
1000 1745 0
75 1552 0
1327 1843 0
-1258 801 0
427 -1343 0
-1014 -1201 0
717 -7 0
-1805 -1399 0
-1665 -1105 0
538 -239 0
-1042 901 0
517 -1289 0
-1697 -266 0
1292 837 0
69 -1110 0
178 1718 0
-239 1478 0
211 -1299 0
386 -231 0
796 890 0
-562 162 0
1018 -736 0
-1761 722 0
-676 -921 0
1653 -643 0
-1321 -1817 0
1048 1473 0
-993 1818 0
-18 -1613 0
-959 1477 0
662 -1790 0
1610 648 0
-1637 -1285 0
-905 -1700 0
-580 1766 0
-1615 481 0
-1284 1737 0
-1725 -7 0
-1481 -1161 0
-1207 1806 0
-466 240 0
-879 1642 0
-1099 -390 0
-1381 1287 0
1095 1529 0
-1474 1423 0
-626 -1116 0
1500 -374 0
-334 -1438 0
-265 -574 0
1392 -1375 0
-1734 102 0
-1693 -804 0
613 545 0
-25 1496 0
-872 -1164 0
988 1883 0
1820 1162 0
370 -1189 0
-1111 -296 0
107 -589 0
-1244 -1397 0
-700 769 0
-849 -1270 0
-283 -1812 0
-736 1831 0
1606 385 0
-1558 1555 0
140 -1099 0
56 163 0
1295 -1199 0
-1920 -1056 0
-1901 1080 0
-1620 73 0
-1327 1863 0
1311 425 0
1286 -1225 0
1861 -987 0
-686 -1627 0
505 1008 0
-1388 -1002 0
-1267 -15 0
313 -1070 0
361 -108 0
1792 133 0
-301 -1745 0
-645 105 0
350 1857 0
-159 1520 0
139 1457 0
-863 -1322 0
180 -174 0
-94 172 0
-1653 -647 0
110 -1059 0
-501 1287 0
1673 -643 0
-1382 -1006 0
-1113 1043 0
-661 -1510 0
-1050 1427 0
-1919 -184 0
-1034 -1429 0
-712 1827 0
-1079 219 0
-1194 -1638 0
1813 484 0
1305 -23 0
1285 -109 0
519 -1513 0
-459 1421 0
1816 1076 0
-508 130 0
-12 63 0
-1254 927 0
193 515 0
-869 -693 0
-1848 -1591 0
-462 -333 0
-1435 -1257 0
-195 465 0
-186 -1688 0
-1253 -218 0
-1758 -1059 0
-268 -720 0
-757 -157 0
1530 1084 0
-5 106 0
-634 680 0
-2 1445 0
864 864 0
881 -853 0
-707 1587 0
-1094 671 0
584 -1467 0
-909 866 0
132 1397 0
-1695 262 0
1398 -595 0
-245 -1709 0
1735 -528 0
-279 156 0
407 689 0
-1353 1905 0
-1105 1419 0
-745 -1394 0
-965 1393 0
118 1787 0
-1280 1522 0
-411 42 0
-987 743 0
-731 1383 0
1838 352 0
976 -664 0
818 -1704 0
648 1253 0
660 67 0
234 -643 0
-539 1332 0
-1762 -1484 0
-764 -926 0
400 -1693 0
-1594 -1426 0
444 627 0
-1577 -20 0
920 -1386 0
1549 1141 0
883 1928 0
-336 438 0
-366 -1675 0
-1138 906 0
251 54 0
592 907 0
-1773 309 0
1586 1896 0
1045 -218 0
-1546 -768 0
945 -1067 0
1519 1222 0
1529 -556 0
-1753 393 0
-1293 -1733 0
1718 1031 0
-546 -1577 0
649 81 0
717 -152 0
254 366 0
-1838 -1555 0
710 -749 0
1167 -37 0
-50 -182 0
-1270 1379 0
-198 -1147 0
-197 502 0
-847 -693 0
892 294 0
1336 -634 0
1739 755 0
-719 361 0
-1492 409 0
-559 -1601 0
-923 -326 0
-1255 -356 0
-1196 -796 0
1330 904 0
376 -1773 0
257 748 0
690 -1507 0
1875 269 0
1729 -1317 0
-1497 -1461 0
990 -1086 0
1084 759 0
-1649 -787 0
957 1223 0
799 27 0
-1208 -147 0
-574 1479 0
-460 -170 0
799 362 0
219 -1103 0
1528 351 0
-194 -462 0
1003 51 0
-382 -193 0
-1779 339 0
-50 1535 0
17 -53 0
1149 -382 0
-385 -859 0
-290 -517 0
-223 901 0
618 1236 0
-729 -1803 0
-1464 1688 0
319 788 0
1340 -1084 0
1731 -603 0
979 -1604 0
-1293 -282 0
-1135 -459 0
522 -1773 0
-1642 -1661 0
537 1336 0
1493 -307 0
-1304 -185 0
-126 -761 0
-11 613 0
-1262 94 0
-1458 -22 0
1708 -1658 0
-1297 -1587 0
-1201 1423 0
817 1705 0
-1250 94 0
-935 -1296 0
1655 1310 0
-432 -1135 0
-963 -25 0
-656 -1582 0
-1710 267 0
1028 -762 0
274 -396 0
329 886 0
-179 -854 0
-577 -501 0
60 -1355 0
478 -283 0
-1471 133 0
-1570 1655 0
-745 -1933 0
664 -335 0
553 775 0
415 -868 0
-177 378 0
-169 533 0
-650 495 0
1182 -727 0
-1526 -1752 0
-1837 560 0
-1906 741 0
-1283 -1566 0
-87 404 0
-1677 -240 0
-1902 1068 0
-771 -971 0
-702 -1054 0
1159 1427 0
1861 -1064 0
-909 -1556 0
-1313 1928 0
-1206 543 0
-1313 -18 0
-874 -942 0
-427 -898 0
590 -540 0
-1360 -308 0
1424 1620 0
1589 -1759 0
159 -1338 0
-28 1262 0
-302 1094 0
-1036 -1353 0
567 596 0
-745 -793 0
606 -1497 0
1534 1889 0
1641 329 0
-126 -1925 0
563 -1916 0
1221 1382 0
190 763 0
-310 946 0
182 524 0
1089 882 0
41 1151 0
-1031 -1018 0
843 -20 0
322 -135 0
-1402 -210 0
177 -870 0
-1027 -525 0
-1093 1880 0
407 1374 0
106 138 0
-516 -1426 0
379 -347 0
-728 1108 0
-79 -1254 0
-1025 -1169 0
-947 -268 0
-268 575 0
113 455 0
1363 56 0
937 624 0
-826 238 0
1473 451 0
669 1102 0
416 -95 0
-506 1464 0
-1532 -1268 0
-1587 -1401 0
-1681 1346 0
-416 -349 0
481 -1627 0
-715 -290 0
51 -466 0
-1867 -583 0
-1107 -633 0
694 -1009 0
861 -811 0
-1903 -1569 0
-525 1601 0
-1530 -1507 0
-66 397 0
-1517 -280 0
1888 -1647 0
867 -125 0
-309 1612 0
-1590 1473 0
-167 -241 0
-878 1730 0
-1535 664 0
289 -1129 0
-1322 -1452 0
1009 549 0
1166 880 0
1343 -1835 0
-1885 -1125 0
600 202 0
-1691 913 0
154 909 0
602 1064 0
-93 309 0
-1049 956 0
-269 1192 0
-642 683 0
-22 -1833 0
-195 810 0
1668 -921 0
-376 -1508 0
-566 -632 0
-1639 578 0
-87 1230 0
1003 372 0
71 -1077 0
1504 1905 0
-93 346 0
-218 -666 0
1241 15 0
407 -726 0
-540 -1461 0
1477 1801 0
-482 -1383 0
-123 227 0
1433 458 0
823 1708 0
1177 1721 0
611 158 0
1744 -305 0
-1679 -894 0
-975 -1361 0
1039 -761 0
1696 540 0
-391 -1559 0
-1936 -1716 0
-1343 -44 0
-441 -1327 0
-1537 -901 0
1130 -1403 0
-605 -1126 0
-1418 -1883 0
-284 -1661 0
1691 -1898 0
-1416 765 0
-758 639 0
92 1659 0
1463 1711 0
-359 -1785 0
-428 -1488 0
953 666 0
-1615 -667 0
1413 -621 0
98 471 0
-790 -507 0
-732 515 0
1559 -1582 0
1667 -1827 0
1011 -1856 0
-1769 1304 0
449 -1012 0
-483 1267 0
442 588 0
1101 -1504 0
-61 664 0
91 276 0
833 -316 0
-1632 919 0
889 -522 0
-763 1212 0
1460 1312 0
596 1040 0
-410 825 0
-1375 -271 0
715 1210 0
775 1301 0
1355 403 0
1484 240 0
-1310 -48 0
-459 -1529 0
-1919 -651 0
-1576 198 0
-996 1404 0
763 -1275 0
367 -870 0
-1496 -1156 0
-760 -537 0
1487 -1211 0
-725 1413 0
-1784 -1817 0
1749 512 0
-442 79 0
-1554 -879 0
-653 -1638 0
1908 -1856 0
-1029 1028 0
876 -179 0
-638 -1354 0
-1805 1391 0
-373 -569 0
1240 -394 0
-1187 1466 0
439 547 0
288 1474 0
-1803 1173 0
1263 1369 0
1837 139 0
432 839 0
-657 -1027 0
-597 -1609 0
384 -841 0
-1771 -501 0
-1458 740 0
-1045 -350 0
979 -536 0
-1660 -1633 0
829 -1729 0
-1863 1077 0
1408 -1151 0
-1180 1092 0
378 -631 0
1622 1215 0
1438 533 0
825 -49 0
1116 1038 0
1119 360 0
-615 -741 0
367 624 0
-1179 -1086 0
347 928 0
1645 1236 0
1748 556 0
-881 -1296 0
1585 -689 0
-468 150 0
-812 -933 0
1524 1004 0
-1588 1754 0
-361 -987 0
1692 1422 0
-1404 1421 0
762 -1757 0
1850 -299 0
-410 633 0
880 554 0
-757 523 0
143 -1582 0
1738 206 0
1236 -1829 0
-1652 -469 0
-1433 439 0
592 -1683 0
110 -1054 0
-1906 -663 0
-689 -635 0
1555 -1902 0
1455 1574 0
-479 1328 0
50 1786 0
1551 -1157 0
-423 -827 0
1821 -851 0
641 56 0
-21 -1137 0
1834 -1834 0
813 -1212 0
791 496 0
-1834 -1017 0
-1721 1172 0
-19 1583 0
-1212 1445 0
-1090 517 0
-719 -1731 0
-1820 55 0
592 -89 0
525 988 0
1150 1340 0
731 409 0
523 1211 0
779 -1430 0
-613 105 0
1016 900 0
-1932 -1376 0
-1485 182 0
367 687 0
393 -1402 0
-1038 422 0
106 -21 0
-1706 -287 0
-727 43 0
-626 -605 0
-859 1864 0
-561 -1646 0
-1370 611 0
-1925 -657 0
-886 -1599 0
-1709 1054 0
1453 810 0
1134 415 0
-1343 83 0
202 809 0
-1356 -331 0
599 -1319 0
-390 -1881 0
1174 -67 0
736 60 0
364 225 0
1504 1396 0
-665 -1697 0
1246 1937 0
-927 -428 0
-518 -1635 0
772 570 0
-1578 -1133 0
-1222 -1608 0
-1059 -410 0
167 -1293 0
1434 1209 0
-57 -1398 0
-1414 1277 0
1766 810 0
-459 -659 0
385 1481 0
-881 1228 0
-604 962 0
13 796 0
211 -1107 0
-637 -201 0
-1450 -168 0
843 -1106 0
1015 700 0
1123 -1293 0
-636 386 0
1672 -1283 0
214 -1873 0
281 675 0
491 1851 0
-886 953 0
359 1596 0
-38 1401 0
-634 -1695 0
952 1578 0
400 349 0
240 -280 0
1371 1597 0
761 1368 0
-349 1138 0
897 505 0
-816 -723 0
1892 -461 0
-960 -1548 0
-1426 526 0
-107 -1911 0
765 1672 0
-742 339 0
-260 678 0
-583 -22 0
452 -1514 0
-1170 -12 0
-1905 1652 0
1368 -398 0
-1309 -1678 0
-1351 -1056 0
-878 -1858 0
-206 -476 0
-325 1879 0
-197 -1026 0
557 1246 0
1460 1810 0
-603 1174 0
-1157 765 0
634 1146 0
-962 1720 0
1504 -528 0
140 -307 0
-1603 1664 0
-1330 -1051 0
-574 -61 0
-1425 162 0
746 -855 0
1324 1023 0
-931 -1449 0
1237 1400 0
-1387 733 0
1901 -1739 0
-1882 1445 0
-984 1309 0
1619 -978 0
-851 -1363 0
-645 1699 0
805 -1240 0
316 139 0
-623 411 0
1303 -719 0
-572 -769 0
-905 -247 0
1722 584 0
624 -1829 0
610 149 0
-1701 610 0
-1113 -1403 0
-280 1028 0
1322 235 0
1229 1904 0
1427 -634 0
-1070 995 0
-1760 29 0
1651 -699 0
-122 -99 0
1580 1683 0
305 1504 0
716 -424 0
443 -1417 0
1221 828 0
1229 -1660 0
-15 1581 0
-29 84 0
849 -1862 0
1260 -855 0
-537 -966 0
528 403 0
1751 -10 0
-1103 -1299 0
-75 1758 0
-735 1786 0
-1035 15 0
-1498 873 0
-782 1875 0
253 1431 0
1382 -1239 0
-1171 -857 0
-887 -1240 0
-1489 246 0
216 -1371 0
1690 644 0
-1225 1490 0
943 1101 0
-399 -1403 0
1693 599 0
-1899 674 0
270 -66 0
44 726 0
1786 1389 0
-1640 1306 0
510 978 0
524 927 0
-1254 1468 0
-68 -1402 0
-498 -475 0
1177 -107 0
-1880 1282 0
-384 -1644 0
-1304 1023 0
-881 328 0
806 1141 0
-1593 370 0
-747 -1222 0
1714 1835 0
1624 894 0
-1116 414 0
1674 1831 0
-171 -1222 0
948 508 0
-474 913 0
739 -1089 0
392 1078 0
694 -1263 0
1182 -878 0
392 -716 0
-88 347 0
-360 1363 0
1128 168 0
-1181 1478 0
1208 1572 0
196 1221 0
-1644 -1741 0
-756 -146 0
-563 -1545 0
61 -1083 0
-1902 606 0
-1382 -1202 0
-784 -280 0
1422 289 0
-666 1450 0
1742 1112 0
1631 -1389 0
-1033 -1394 0
-277 -969 0
1561 1265 0
-1563 -627 0
-1041 1915 0
-622 1834 0
-1692 676 0
-1350 1252 0
1870 610 0
412 -891 0
919 -771 0
975 -1593 0
-1372 -636 0
1522 1416 0
-515 414 0
-639 -673 0
1711 -593 0
1428 273 0
300 557 0
44 919 0
904 1763 0
-1795 29 0
1166 -67 0
-738 -1691 0
-638 -1260 0
1071 827 0
1050 -1239 0
-312 1431 0
-892 -1116 0
-1617 -1679 0
1831 -1867 0
1337 1554 0
-159 504 0
1906 1869 0
-1046 494 0
128 -1513 0
527 1153 0
-800 801 0
1168 -315 0
841 1738 0
-412 -1683 0
-117 767 0
-1170 -153 0
-361 -1312 0
518 42 0
669 -1508 0
864 -1399 0
1905 111 0
-871 880 0
1096 258 0
302 -1741 0
-1612 91 0
-878 -357 0
288 -1217 0
-1564 1610 0
821 -1105 0
580 -1693 0
-1452 -535 0
1101 -540 0
612 -1645 0
955 -276 0
-730 1881 0
189 1851 0
-1335 -1069 0
-1481 238 0
912 1778 0
276 744 0
-1146 -627 0
914 1562 0
-1315 -1011 0
-521 -297 0
-1558 838 0
1352 -806 0
1786 1889 0
-1574 -306 0
743 1005 0
-787 106 0
882 675 0
-1795 1495 0
-1117 1021 0
796 -1314 0
-1931 405 0
314 149 0
-784 1851 0
-561 1937 0
773 -937 0
-1734 -1725 0
1602 774 0
134 1232 0
-546 -551 0
1009 1703 0
1155 -1835 0
-1570 -1352 0
1864 -1389 0
-478 -1000 0
41 -21 0
1485 511 0
-1318 1117 0
-65 314 0
-1914 -525 0
-1268 598 0
-25 1383 0
-1198 174 0
-167 511 0
-625 -555 0
1424 -1153 0
-291 1219 0
-1751 162 0
8 -1535 0
896 -1599 0
1757 -1798 0
-610 1519 0
-551 452 0
-460 -672 0
1766 -85 0
-1287 1532 0
1895 -1616 0
230 1292 0
-1826 897 0
-1641 677 0
-465 1738 0
1846 1422 0
-793 -1860 0
59 1562 0
-415 -1399 0
-124 144 0
1406 1080 0
-188 -334 0
-588 1331 0
-69 1396 0
-151 -744 0
1543 -1469 0
-1689 -196 0
502 -62 0
1329 -1466 0
69 -842 0
-257 1279 0
990 -477 0
-1348 1448 0
-1471 -712 0
1453 -1888 0
839 -1760 0
1478 236 0
-470 1534 0
400 1387 0
1682 1396 0
-895 1753 0
1427 -670 0
786 1731 0
-1254 -337 0
-1096 -299 0
688 939 0
-30 -352 0
-326 1277 0
-781 -1853 0
1490 -1180 0
1922 -335 0
-222 555 0
-1358 1891 0
1296 -193 0
1936 -765 0
-1629 -1615 0
-828 -207 0
861 529 0
-566 -147 0
-284 100 0
-1435 -481 0
232 -661 0
1763 -1147 0
184 1821 0
-1796 1801 0
1624 -626 0
293 1061 0
1038 -658 0
-58 410 0
1893 -1225 0
-1900 -1332 0
1647 1817 0
-472 1469 0
-1543 -1085 0
-1835 -1276 0
-447 -434 0
-1378 236 0
-1798 1937 0
-802 1776 0
-967 1500 0
-1301 -1356 0
-1721 -841 0
605 -1006 0
-1825 383 0
-1911 1146 0
1067 1412 0
480 82 0
-613 458 0
-522 163 0
-517 -1443 0
-84 1620 0
-200 -1284 0
-624 -20 0
-1545 -842 0
75 1074 0
1841 1659 0
1216 1107 0
-70 -1133 0
949 -1078 0
448 657 0
-1244 -1297 0
-1112 -280 0
961 -228 0
-331 -1926 0
658 -273 0
1708 1628 0
-1751 -1089 0
906 -187 0
266 1296 0
193 542 0
615 -655 0
516 -1204 0
-656 83 0
-1855 -1616 0
1239 -1115 0
1505 -622 0
-1684 606 0
-494 -966 0
-885 -618 0
-1102 1227 0
1447 -278 0
1330 1133 0
-1583 1460 0
-992 -1518 0
56 1350 0
252 1815 0
1441 -1555 0
-1919 -1049 0
-1162 -722 0
1668 -1564 0
1459 -776 0
715 -1794 0
1721 122 0
-119 1393 0
-1452 -596 0
-1678 -528 0
1089 1396 0
-472 -992 0
984 -311 0
43 -1856 0
-191 -1685 0
576 1668 0
636 64 0
301 740 0
809 -871 0
104 -148 0
1508 1624 0
1572 -653 0
1886 -884 0
-1589 -1837 0
93 692 0
825 200 0
-1322 685 0
858 1621 0
-645 -638 0
1605 877 0
-610 739 0
-1773 -506 0
-1923 666 0
-1542 -1482 0
-732 1166 0
-1307 245 0
-1032 -1489 0
-1144 -233 0
-28 -332 0
294 1064 0
-765 1124 0
1758 1927 0
580 269 0
1126 -879 0
-871 -1597 0
1225 -776 0
477 -1531 0
-1841 -124 0
671 -1311 0
-332 209 0
-87 1069 0
-1518 -1116 0
-1161 163 0
912 1493 0
860 1425 0
843 818 0
1451 1461 0
1529 837 0
-1314 -1481 0
-635 -1279 0
247 1892 0
1418 344 0
-1237 1251 0
-1204 1019 0
1704 -720 0
-1301 -1776 0
414 -697 0
-50 1182 0
-1049 -656 0
808 946 0
38 1344 0
-1348 1760 0
-470 -1308 0
-865 122 0
-462 968 0
843 1161 0
1581 960 0
-1715 -120 0
-1423 -447 0
502 1467 0
-304 -670 0
-954 1472 0
1042 -618 0
-530 2 0
1004 1759 0
448 -1871 0
1340 -823 0
-369 -821 0
-366 227 0
-1042 -114 0
-171 -172 0
122 328 0
1245 1167 0
572 1624 0
-1693 1080 0
-40 1094 0
-1733 1846 0
-952 -1046 0
929 -1331 0
1423 -208 0
-729 4 0
296 -1514 0
-1079 27 0
795 1721 0
-800 552 0
-1609 225 0
611 52 0
1408 630 0
-1131 1078 0
-141 197 0
101 -1360 0
251 141 0
-1518 -418 0
354 -1848 0
-134 -1136 0
-853 1539 0
-943 -611 0
1331 -1620 0
613 1151 0
850 -1754 0
1258 42 0
1831 -936 0
650 329 0
-704 909 0
1677 1680 0
840 -623 0
-1068 -623 0
701 -1749 0
-487 -466 0
606 594 0
88 1064 0
-732 -331 0
206 1330 0
-1458 1828 0
-125 1208 0
677 -638 0
797 -186 0
-1435 -1247 0
269 -491 0
-1599 -1785 0
1382 1542 0
-891 969 0
1906 929 0
-1121 162 0
-85 60 0
-1171 339 0
-302 -174 0
-88 -67 0
741 1685 0
-653 216 0
-1303 55 0
1233 -1180 0
-1121 467 0
1017 -125 0
-450 -103 0
-1558 -1707 0
-1534 525 0
1736 515 0
1132 -251 0
-1878 1901 0
-989 -760 0
-259 598 0
-77 -1492 0
1619 -534 0
-35 1005 0
-1008 445 0
-942 -566 0
1818 -1291 0
1713 1922 0
1028 -196 0
574 138 0
-840 -987 0
-1932 -416 0
-1474 403 0
-922 181 0
-1874 -1647 0
-709 -291 0
458 649 0
-1617 -185 0
-469 -1214 0
40 -1252 0
1360 -848 0
-1034 1789 0
1374 1256 0
1892 139 0
52 -1476 0
1438 1132 0
-334 185 0
-508 1130 0
-750 864 0
-714 1434 0
-895 1261 0
345 -1835 0
1901 132 0
566 -1171 0
1544 -1610 0
715 852 0
-296 -1240 0
1362 -1600 0
59 -1273 0
1445 1260 0
-153 884 0
-562 -377 0
29 1666 0
1176 98 0
-1249 61 0
405 1763 0
4 -1598 0
269 -326 0
-1887 -1035 0
-623 -1431 0
1900 -156 0
-77 -493 0
-1581 1838 0
-411 -1249 0
-1446 133 0
-658 1256 0
-1140 1522 0
105 91 0
-1846 -773 0
737 -956 0
-308 -696 0
-879 423 0
1265 1177 0
796 1472 0
-1825 1276 0
-396 160 0
990 -1637 0
-478 -702 0
224 888 0
375 -300 0
512 42 0
1431 -419 0
679 483 0
820 -1593 0
1684 182 0
948 163 0
-1032 -1130 0
-1678 1327 0
-528 1558 0
-841 -1473 0
837 703 0
486 1377 0
1601 1738 0
1187 1783 0
381 164 0
-1364 -1194 0
-748 137 0
889 -1337 0
-1688 28 0
-1418 -1844 0
1358 -1697 0
631 912 0
-173 -1159 0
-776 1024 0
-395 744 0
1668 -1559 0
-697 -952 0
1845 -964 0
465 -949 0
-531 -728 0
-199 -356 0
-1819 73 0
145 2 0
-1538 -1124 0
-1059 1674 0
956 1603 0
-763 -9 0
-993 -1876 0
64 -1440 0
305 -1001 0
1288 -1212 0
1002 -399 0
1855 1148 0
1894 506 0
922 -1508 0
1242 1516 0
-1689 -435 0
-1928 -434 0
-1853 1255 0
-987 -47 0
1397 445 0
1484 -1661 0
-1097 -1378 0
-638 -435 0
-112 -958 0
1374 -1565 0
703 -1269 0
1145 1087 0
1384 -1024 0
1022 -1769 0
895 352 0
516 -793 0
513 -1015 0
-1094 -1249 0
319 -1055 0
-105 -95 0
-647 -903 0
-206 1310 0
740 -1288 0
-377 -1346 0
-1635 -1440 0
974 73 0
485 -1219 0
-1010 -758 0
-466 1928 0
148 348 0
1369 -1674 0
-851 -1213 0
-316 1621 0
-1204 1882 0
1379 637 0
-701 -1644 0
1132 -1167 0
1620 1079 0
-135 -447 0
1706 -1860 0
-528 -1563 0
1873 -242 0
795 -1122 0
-188 -891 0
-954 -193 0
-227 -1442 0
-1689 709 0
-742 899 0
-1439 701 0
445 1528 0
878 -713 0
-353 1471 0
178 18 0
-15 -1929 0
-282 624 0
1428 1891 0
1783 1348 0
1716 397 0
723 -1502 0
-1849 -1624 0
849 -879 0
276 -1688 0
130 500 0
1581 1093 0
-1116 -1920 0
-380 589 0
729 1349 0
214 1744 0
363 -1782 0
-968 -1261 0
-947 1572 0
-1387 -487 0
-1801 977 0
1455 1419 0
898 -1530 0
-1899 824 0
-316 944 0
-1252 -642 0
-1447 975 0
894 -375 0
352 -1881 0
1178 -335 0
-417 -1667 0
240 -1475 0
779 73 0
1205 -926 0
1812 -1848 0
-663 1222 0
684 -1200 0
-1380 -1587 0
-273 -1535 0
-1402 1385 0
959 -1375 0
228 -1482 0
571 -369 0
-1263 -42 0
1080 1433 0
770 -149 0
-1317 1465 0
296 614 0
-1608 1685 0
-493 -358 0
526 569 0
523 446 0
1731 -1268 0
476 -607 0
499 -710 0
557 -1262 0
-291 159 0
548 -1201 0
556 694 0
444 1168 0
-981 980 0
1788 -967 0
1887 1348 0
-1826 -1078 0
-1459 -244 0
1769 -304 0
933 -291 0
-1623 -736 0
1204 -1920 0
-1196 981 0
-1390 -1471 0
1129 1924 0
1668 -117 0
-271 797 0
-610 -1923 0
-82 161 0
891 1369 0
-1862 -462 0
868 246 0
75 1873 0
-1046 -909 0
-693 -1835 0
-1118 -1069 0
587 361 0
199 -49 0
-1558 1297 0
511 -1856 0
-1131 1769 0
1602 -1240 0
-148 1744 0
-909 489 0
-29 -1569 0
1116 -449 0
24 -1285 0
-174 1289 0
1195 -1264 0
-1484 1654 0
-1666 -1122 0
1370 -1526 0
1427 -1808 0
802 -179 0
69 27 0
-1444 -1144 0
-30 1467 0
569 1135 0
86 -637 0
-407 -1179 0
-1398 1253 0
-865 748 0
1665 1326 0
1926 91 0
-521 1754 0
764 -158 0
-18 907 0
-926 730 0
-746 1329 0
-1639 -103 0
1231 454 0
-524 1134 0
-18 -1577 0
-1066 -757 0
1853 -891 0
1823 1487 0
-683 -414 0
-811 -814 0
718 -873 0
-449 1762 0
-194 -150 0
44 -898 0
-1616 897 0
1568 1891 0
-1443 -239 0
1169 408 0
-111 -1570 0
-1577 448 0
-1132 -428 0
-33 929 0
478 1376 0
1360 838 0
1107 1863 0
198 687 0
-1209 -1929 0
-1011 677 0
1347 -1319 0
511 -1765 0
439 1894 0
-196 1670 0
-1213 -1459 0
-234 425 0
1872 798 0
-1803 -1261 0
-314 -243 0
1057 703 0
-148 1022 0
-1407 870 0
-235 -1629 0
-1800 -1913 0
-1283 865 0
-1280 -478 0
-1597 1143 0
-1533 1300 0
1409 -1733 0
1095 1328 0
-364 1353 0
-1618 766 0
-1688 424 0
-1331 1324 0
180 420 0
-863 -343 0
135 -257 0
-1863 -623 0
-741 -1769 0
-1791 821 0
503 -736 0
-1589 -729 0
-887 236 0
-1778 1297 0
-657 652 0
-1444 -382 0
-833 1777 0
545 -1078 0
-670 920 0
-241 253 0
1657 1931 0
645 -1178 0
481 -1096 0
476 -100 0
1662 -301 0
-63 -1482 0
-498 658 0
-415 973 0
744 -1900 0
-1010 1021 0
-328 1014 0
1178 -165 0
-1091 668 0
1634 674 0
-1055 1018 0
519 -1642 0
385 724 0
-143 -168 0
-656 -915 0
-200 1731 0
-279 149 0
1817 1470 0
-895 1003 0
835 1614 0
-1873 1352 0
-1399 1192 0
-1806 -1137 0
48 1253 0
-466 552 0
782 -1498 0
-503 -441 0
1397 100 0
579 843 0
-955 1274 0
959 1694 0
1779 -1125 0
1330 1452 0
-958 1188 0
-1446 -187 0
-307 -785 0
278 514 0
-1042 -1013 0
-840 1298 0
1128 -1435 0
539 -778 0
557 -1870 0
-1367 -1475 0
-1785 -535 0
1222 -758 0
1779 1783 0
-1507 1353 0
-1778 1018 0
-718 1231 0
-1075 -65 0
-1265 1882 0
-1079 -1404 0
53 1150 0
-1918 1835 0
-1884 1146 0
1607 697 0
-1056 -1293 0
-972 -1091 0
58 1088 0
-1429 928 0
1730 -1868 0
-170 1227 0
-1518 1890 0
617 1796 0
692 1081 0
1547 69 0
-593 -1047 0
-488 -1922 0
-1645 275 0
-1695 -1235 0
-603 -1061 0
700 -946 0
1347 819 0
-1830 -1850 0
-704 451 0
-895 -856 0
-816 -1610 0
-1171 944 0
-1380 -238 0
-1004 -1592 0
-1773 -1251 0
1293 -346 0
-611 1368 0
349 961 0
-387 1267 0
-1168 -1671 0
-1384 -1354 0
-1395 1219 0
453 1337 0
-551 1003 0
-1609 1828 0
-449 981 0
1005 -1025 0
293 703 0
1411 -1456 0
-443 1113 0
-1056 -1536 0
-346 -173 0
-479 -859 0
1547 -936 0
1540 -1823 0
-1667 448 0
866 1371 0
245 -188 0
1257 585 0
600 318 0
-863 1933 0
-36 -11 0
1431 -25 0
1352 1231 0
-1481 -1011 0
1622 759 0
-1294 805 0
1009 1307 0
787 1504 0
1270 1619 0
-986 -257 0
616 579 0
-160 -676 0
554 784 0
-291 -107 0
1158 1206 0
1478 1724 0
199 -1121 0
-612 1271 0
1446 914 0
1160 -365 0
-1546 -1335 0
765 -798 0
-534 267 0
1413 1149 0
51 -748 0
-463 733 0
178 -974 0
982 974 0
678 -1795 0
1045 -348 0
-576 1269 0
378 -383 0
-1403 -1389 0
-1089 529 0
-170 -1307 0
-1615 -371 0
1632 1307 0
-603 -480 0
978 -708 0
-1520 267 0
-175 677 0
476 1191 0
1199 -284 0
180 1228 0
-173 353 0
-987 1641 0
-661 1796 0
1141 1143 0
1279 1274 0
-1567 1005 0
1241 -1137 0
427 -1170 0
-1635 -1105 0
-1389 1244 0
-1607 1486 0
-1769 -1082 0
-19 1891 0
1365 -1625 0
878 -708 0
-1017 -1247 0
-1904 1095 0
-1521 -762 0
-1927 872 0
780 198 0
538 -1756 0
-1462 -92 0
133 541 0
-118 -1083 0
1018 -1677 0
-1715 695 0
1348 -1647 0
1578 1727 0
-1033 -1251 0
-417 -90 0
1494 -645 0
1187 -78 0
318 -125 0
-881 52 0
-1914 1407 0
-1855 -1555 0
-1486 -718 0
-141 -380 0
-450 -1637 0
-1006 -286 0
358 -1146 0
-1212 1869 0
-369 1090 0
221 -1795 0
-1778 -972 0
-1407 -259 0
-547 -1462 0
-1458 -521 0
81 1538 0
536 1098 0
81 59 0
1445 764 0
-1884 -556 0
765 -393 0
1158 -1153 0
-1791 -109 0
-1759 -261 0
-773 -202 0
-569 -428 0
-1446 293 0
-831 35 0
-1802 -14 0
-589 883 0
1691 850 0
1910 974 0
-313 -1841 0
-1725 -1695 0
1122 -1604 0
-996 1710 0
204 -351 0
-1107 1916 0
-969 -549 0
-285 793 0
1651 -1784 0
-1233 -1741 0
1010 1048 0
425 193 0
-574 -1716 0
-722 -1623 0
-627 1028 0
-1194 -1753 0
-870 1037 0
137 1936 0
162 1392 0
-681 -1635 0
614 417 0
313 216 0
2 -1926 0
795 -152 0
47 -1065 0
-1633 -227 0
-1585 -434 0
692 32 0
-1743 202 0
-1018 -1607 0
1730 -57 0
-1406 -762 0
1657 746 0
788 1516 0
-1841 725 0
1543 428 0
1024 194 0
-1687 -770 0
-742 -943 0
1466 1210 0
102 310 0
-1163 -1057 0
-1903 -497 0
1287 1383 0
-622 -65 0
-943 -1036 0
-1484 250 0
-1731 -1410 0
954 -1429 0
1746 236 0
-1025 223 0
1668 -689 0
-1464 -41 0
-346 -412 0
1643 519 0
580 -1336 0
-1461 1106 0
1125 1610 0
1800 -286 0
-141 -377 0
376 -435 0
872 -1554 0
1566 -1518 0
-535 -239 0
-295 1446 0
765 -527 0
-1388 -1013 0
-286 -1630 0
-1931 1511 0
-1398 1845 0
-1567 -445 0
127 -1589 0
-1207 602 0
-1395 -1083 0
1218 -960 0
-1868 -1322 0
-1029 1782 0
-868 -1036 0
1221 1342 0
-1090 1191 0
1127 974 0
1188 -1686 0
-93 -1012 0
-206 -902 0
-1631 -1641 0
-57 -1185 0
751 1028 0
1165 509 0
-398 799 0
-949 1379 0
-1671 806 0
888 1381 0
1042 1755 0
1571 -831 0
609 -379 0
-1296 -1819 0
1229 -827 0
1846 -1493 0
-533 960 0
1120 377 0
-1356 -1742 0
-244 1424 0
1910 -635 0
-11 -154 0
-1712 -1189 0
-708 33 0
-1612 -992 0
-56 1004 0
-576 -849 0
1475 -1255 0
-188 630 0
-543 375 0
-687 -371 0
-463 -1377 0
-275 -948 0
906 1857 0
-1692 1921 0
1280 -207 0
1504 -447 0
-814 404 0
478 -1606 0
383 300 0
-1531 1545 0
1092 -1439 0
-877 71 0
1794 1106 0
-954 225 0
-1647 1523 0
-125 1924 0
1880 -859 0
-1085 1478 0
1341 780 0
849 -1707 0
-287 -1437 0
858 55 0
318 1030 0
1536 448 0
-1012 1094 0
1334 277 0
1122 -1186 0
1937 -1079 0
-1204 -1267 0
1269 -472 0
133 1842 0
1664 -213 0
-762 -703 0
-700 -191 0
1236 -1042 0
-255 668 0
-632 1457 0
529 -1047 0
1835 652 0
-121 -1799 0
698 -280 0
-366 -465 0
-1918 -902 0
-205 -1440 0
-167 555 0
1094 592 0
12 -1679 0
1683 199 0
-1348 -689 0
1329 1102 0
-205 -1803 0
-1681 -326 0
-1303 -417 0
-877 1729 0
370 1405 0
1783 1321 0
203 1632 0
-1374 -120 0
-1531 -1545 0
-1070 1363 0
662 -1411 0
-944 -951 0
251 -482 0
1904 1786 0
-1509 1203 0
-467 1279 0
957 355 0
-906 -1244 0
-257 249 0
1714 -257 0
-968 -1508 0
-229 -435 0
-1536 -842 0
-789 -1293 0
-1506 839 0
739 1297 0
170 -942 0
542 1024 0
-936 64 0
-1799 -462 0
81 -727 0
811 1527 0
1232 1525 0
298 1910 0
161 -1186 0
-128 274 0
-1825 830 0
764 -218 0
-1778 -20 0
-1215 1838 0
889 -28 0
-371 593 0
1354 -1285 0
427 1424 0
1162 -1375 0
580 959 0
109 1666 0
-1450 252 0
-689 84 0
510 772 0
698 706 0
281 272 0
-485 -625 0
-1788 -937 0
-1014 -1317 0
-1083 1821 0
1463 -374 0
28 -1300 0
670 -1449 0
1584 1016 0
-1861 323 0
989 1028 0
-567 -191 0
1451 -412 0
-951 1410 0
-534 -1700 0
1022 -620 0
152 -1676 0
-811 -1609 0
992 -1689 0
-452 1496 0
1263 -1240 0
783 -539 0
848 -757 0
569 -1797 0
-757 -811 0
-171 -215 0
67 -1734 0
322 -79 0
-745 -409 0
-509 341 0
1540 -1429 0
65 71 0
-1343 -1761 0
-156 -1314 0
1474 -43 0
-205 677 0
-399 -1440 0
-1443 -1394 0
253 306 0
-557 56 0
-1289 -93 0
-566 -1432 0
-1538 1034 0
-135 134 0
1896 588 0
-1272 -1041 0
-1678 -1033 0
-402 22 0
-1475 -1474 0
1053 740 0
1759 -1616 0
1292 1148 0
171 -853 0
829 1574 0
-365 -480 0
-765 886 0
61 -488 0
-989 -1224 0
688 -634 0
1063 -308 0
902 -1894 0
1256 1744 0
-1122 -1587 0
-1743 -340 0
325 -495 0
1451 1655 0
144 -1056 0
-595 -598 0
-1866 -45 0
-1143 -1796 0
-1529 -1805 0
-781 1831 0
1876 -1702 0
135 1269 0
472 1905 0
833 1472 0
1030 1739 0
-1568 584 0
352 -1518 0
1515 1415 0
962 -264 0
901 -1199 0
1376 500 0
-881 -1864 0
-496 -1442 0
1366 -1202 0
724 -1316 0
797 82 0
1585 1192 0
833 -1057 0
-1535 -611 0
49 1431 0
1507 1790 0
-738 -1068 0
-1738 -494 0
-171 662 0
-1095 354 0
1386 1384 0
1005 1340 0
311 798 0
-577 1194 0
-793 1107 0
629 -1070 0
220 1581 0
-651 -1619 0
-556 -1808 0
1401 1876 0
-187 -141 0
452 -117 0
-25 -325 0
66 -331 0
1289 982 0
1880 -1089 0
-508 1659 0
-1494 1817 0
1329 1728 0
-1469 -1247 0
445 -1355 0
-147 591 0
558 1219 0
-1608 -122 0
-1572 -1011 0
569 -108 0
-1675 -1110 0
-1459 439 0
1048 435 0
944 1467 0
-853 1815 0
-461 -1071 0
983 -112 0
-58 192 0
-999 -1651 0
-1757 1184 0
930 1852 0
-50 1018 0
370 1607 0
-1036 -616 0
1738 -1929 0
1113 -131 0
-296 -1116 0
-1417 -650 0
769 -168 0
-820 -1864 0
1028 -817 0
774 -1700 0
1584 608 0
-559 1654 0
-1350 -960 0
-1021 200 0
1424 -1795 0
1641 -336 0
612 -15 0
-1278 -1595 0
-632 1643 0
-1486 684 0
710 1167 0
-1429 -823 0
1542 889 0
1092 -905 0
302 1583 0
-570 1342 0
352 272 0
449 -1588 0
1330 903 0
-101 400 0
-1222 1923 0
478 -614 0
1665 1581 0
1813 536 0
-1617 -1514 0
-1528 -808 0
630 867 0
-1767 1596 0
-1000 1062 0
-1008 302 0
1490 -1359 0
1187 707 0
425 -61 0
860 1775 0
-243 288 0
1042 -497 0
187 -1693 0
1809 1874 0
1931 1767 0
823 -1538 0
-1670 -1880 0
1477 476 0
1896 -1223 0
358 -195 0
-45 -1833 0
-1639 -332 0
-1407 -93 0
145 -1588 0
64 -1481 0
-1896 902 0
-326 538 0
1744 -994 0
-117 1043 0
1680 -4 0
-399 1500 0
322 848 0
-871 166 0
177 1740 0
362 1130 0
1933 1490 0
-1798 -1079 0
-928 533 0
1192 -1253 0
-844 -1319 0
-93 1333 0
532 623 0
-1342 759 0
1208 1095 0
-993 -1356 0
-1363 517 0
-410 1778 0
-1430 -821 0
-20 -1488 0
50 -1083 0
1037 -1154 0
498 1216 0
1037 102 0
-1006 -175 0
579 -899 0
-622 -377 0
818 -283 0
507 859 0
1578 846 0
-1609 1716 0
-1468 -1517 0
624 35 0
571 1426 0
939 149 0
184 1552 0
495 -369 0
1445 1172 0
-735 1626 0
1393 -1937 0
957 -1026 0
1346 -1179 0
-1661 -268 0
1524 788 0
-1456 -1607 0
1257 -210 0
1768 -706 0
228 1693 0
-1728 1187 0
-1501 1460 0
-221 1670 0
-818 436 0
-536 -1288 0
1298 -545 0
463 -701 0
-543 1162 0
527 897 0
1732 1030 0
1452 305 0
767 1662 0
1205 295 0
476 -644 0
216 1739 0
-1 1738 0
-523 1628 0
1840 607 0
1238 -366 0
-816 1622 0
-1338 -991 0
95 -1444 0
-723 388 0
132 739 0
1558 -1582 0
1061 -1458 0
-547 1836 0
595 872 0
-1613 951 0
-123 1726 0
-771 -826 0
-1472 -1656 0
-1879 -1506 0
798 498 0
-1183 -597 0
-1502 743 0
-421 -1601 0
-156 301 0
-377 -1108 0
1778 1783 0
-170 -1810 0
-336 1644 0
1594 -1583 0
-1622 -1865 0
-1632 1253 0
-1275 1768 0
678 235 0
1609 1257 0
-1690 1003 0
-1409 -721 0
-196 -144 0
1187 1457 0
1296 -1104 0
-810 -1860 0
1755 -1346 0
23 1777 0
-279 1125 0
-1278 -625 0
-754 -1533 0
1155 824 0
-679 -1557 0
1671 1659 0
1407 -676 0
1775 -1412 0
1347 455 0
483 158 0
1518 -999 0
-1575 -1190 0
1795 -401 0
-671 -1917 0
487 -1761 0
-551 28 0
-1534 -678 0
1891 -159 0
612 281 0
-243 752 0
646 1748 0
-1491 -187 0
-263 -586 0
-1534 1077 0
-1827 -135 0
-634 -1823 0
-1446 -1875 0
285 -67 0
-1281 1050 0
-789 -1560 0
-655 1057 0
-995 347 0
958 -1054 0
-1783 -1728 0
1407 -155 0
-239 580 0
1771 -1268 0
-1635 1120 0
-874 -1692 0
-1178 1266 0
960 -644 0
347 1023 0
-484 1167 0
-778 1397 0
1908 -865 0
-956 -124 0
-781 -121 0
-664 -1735 0
1742 -188 0
1575 -38 0
-172 1844 0
1535 -1261 0
1763 418 0
-1032 1286 0
930 -1417 0
-1294 73 0
-35 -308 0
-408 1581 0
516 827 0
-1168 -771 0
903 1454 0
1922 409 0
-618 1726 0
-820 -1918 0
-614 234 0
254 790 0
-537 -129 0
1036 -714 0
1478 -1414 0
-1175 -892 0
-1823 -1288 0
-547 1168 0
446 647 0
-1303 -1641 0
-1375 1820 0
-678 1045 0
256 438 0
525 805 0
-1620 1118 0
-37 419 0
-1195 1231 0
105 -721 0
1857 1134 0
1805 -1576 0
643 -991 0
-1164 -1884 0
929 1369 0
-623 -521 0
624 702 0
1690 -628 0
-1806 -1598 0
1705 -1314 0
252 685 0
-268 -1909 0
-597 -1494 0
-1445 -1171 0
-895 -1345 0
1802 660 0
717 -1767 0
-1476 -131 0
459 -1735 0
-877 -292 0
-385 1511 0
1777 28 0
-1660 651 0
1499 1851 0
838 988 0
-1360 -1228 0
603 -1593 0
-561 -146 0
1805 -940 0
1306 442 0
1262 383 0
-526 -1752 0
-103 1009 0
254 901 0
1254 -1625 0
218 -640 0
-834 -891 0
392 88 0
-1929 -661 0
-1749 -252 0
1039 538 0
-861 799 0
275 1422 0
1715 -1249 0
-1185 1744 0
-1408 -340 0
-763 -362 0
1898 -22 0
1719 1748 0
133 -1444 0
1772 1578 0
715 1457 0
-37 -1650 0
427 -148 0
-21 912 0
-1184 -1818 0
-613 397 0
544 824 0
-1450 -811 0
-63 1493 0
378 406 0
-1192 177 0
772 -1227 0
856 -726 0
-493 -362 0
267 1074 0
587 1466 0
-580 -742 0
54 1076 0
-316 -380 0
-336 -528 0
1497 824 0
-782 1481 0
324 851 0
884 -1837 0
-1049 -551 0
-1603 499 0
-1394 -1381 0
882 -1678 0
1776 -210 0
-1327 -29 0
-577 335 0
30 338 0
424 375 0
-764 752 0
1732 1279 0
384 1626 0
768 997 0
104 -114 0
1292 83 0
1911 172 0
182 -747 0
-801 -1436 0
-1495 -1823 0
-371 276 0
1432 1381 0
978 731 0
250 -143 0
206 -789 0
593 -848 0
1878 -1297 0
-1847 1464 0
-1335 935 0
-570 -596 0
413 1382 0
591 70 0
-983 -798 0
1390 -659 0
-222 276 0
-294 431 0
1838 -1226 0
864 -415 0
-605 -155 0
648 -313 0
-1360 1769 0
374 13 0
1846 -65 0
-280 -1930 0
164 -121 0
-1807 999 0
1072 -401 0
934 -1312 0
-1848 1892 0
682 1532 0
1668 1208 0
-1318 -1568 0
1522 -885 0
-1223 1124 0
-1787 -664 0
-1813 -1402 0
1515 698 0
1314 220 0
-644 -1074 0
1142 -962 0
-1155 -879 0
1883 1910 0
1343 1124 0
-771 -301 0
1937 -657 0
1365 1419 0
1147 1897 0
-428 1748 0
403 -474 0
1657 689 0
-707 951 0
1428 -1531 0
280 -1902 0
-462 -635 0
262 -866 0
-1061 -366 0
-1755 -643 0
868 -1152 0
-1724 1396 0
-672 -206 0
-1304 -1857 0
-1385 13 0
-317 -1695 0
592 1297 0
-1755 261 0
-1387 -268 0
-1476 -11 0
-1854 -390 0
-1805 -1100 0
-1249 357 0
-862 128 0
806 1858 0
-1105 -1089 0
-1227 731 0
882 -1059 0
-1666 1891 0
1107 1562 0
-1009 -412 0
-610 -1598 0
1620 1550 0
-784 -331 0
-1240 829 0
312 448 0
204 935 0
-1084 -332 0
-1604 528 0
1324 1045 0
-1309 -607 0
-1110 -1103 0
-1282 -859 0
-1689 -1123 0
1112 -1642 0
974 -1487 0
543 -254 0
-1577 569 0
-1882 -1653 0
1235 504 0
-854 -1538 0
-762 -595 0
716 -1718 0
261 -581 0
1263 -877 0
-705 256 0
115 -689 0
-277 -1074 0
507 -319 0
94 -1229 0
-1606 -1626 0
-1526 -710 0
167 728 0
828 1540 0
1249 -1140 0
-693 1758 0
-1033 1784 0
131 1371 0
755 1191 0
-1079 846 0
-1276 300 0
348 -1796 0
-1811 1649 0
1793 846 0
-69 -1054 0
-411 567 0
1837 1719 0
1206 32 0
1924 -609 0
1516 -110 0
-459 -33 0
-43 -737 0
1357 976 0
312 -14 0
710 445 0
-681 73 0
865 -1359 0
1227 1153 0
-832 248 0
-1506 -1642 0
1503 200 0
-927 543 0
435 1843 0
-1512 -141 0
1355 901 0
-1421 -1693 0
-612 -217 0
-1429 -250 0
979 1579 0
42 -942 0
1109 51 0
1077 -595 0
-472 -1058 0
-1481 1868 0
811 896 0
1619 1014 0
-992 1125 0
-1189 -726 0
1852 -874 0
1235 -208 0
-1273 -289 0
-155 -1058 0
-243 645 0
1463 -411 0
-1764 1454 0
1151 -1803 0
2 -1193 0
1379 -1572 0
-1488 -1557 0
602 -620 0
1845 -1197 0
-1233 -55 0
-960 -119 0
191 -283 0
-1498 -1339 0
914 -393 0
-595 -1734 0
-425 515 0
1209 1567 0
761 515 0
173 -1808 0
1801 -1371 0
1619 -871 0
-1853 -1407 0
7 -1288 0
637 -862 0
-1422 -1849 0
628 -1546 0
405 -33 0
-726 -643 0
1552 77 0
-1595 1167 0
1912 -145 0
-449 -1791 0
-469 -1028 0
186 1522 0
-1305 474 0
-1434 -1212 0
853 150 0
-160 42 0
805 1705 0
523 -1741 0
-1462 -177 0
1438 1387 0
1177 -860 0
-1224 -535 0
-363 -1904 0
288 1239 0
-1378 -117 0
-1097 149 0
1128 1225 0
828 -778 0
1206 -746 0
-1849 -519 0
-197 629 0
-1459 -1366 0
1357 891 0
-1755 1359 0
-1523 -1260 0
-45 555 0
-827 1543 0
-633 1672 0
759 1191 0
-1471 794 0
762 -1370 0
-767 1907 0
-1420 -1909 0
296 -1627 0
1768 1189 0
1319 -1099 0
-1663 -711 0
1335 1431 0
-704 346 0
1070 -1032 0
-1129 1480 0
1052 1279 0
1438 -1030 0
1544 565 0
-25 1552 0
-1209 1433 0
798 -350 0
-805 813 0
587 -1495 0
-1435 1827 0
1763 1476 0
-1671 -1724 0
-968 -1779 0
127 1325 0
-15 541 0
-265 1404 0
-1237 1646 0
1078 1266 0
1770 679 0
1803 -22 0
132 774 0
1759 -120 0
-362 -1477 0
-1249 675 0
795 -655 0
-581 -265 0
-1269 265 0
788 552 0
-5 1660 0
-1645 481 0
1656 1488 0
-855 -594 0
-726 -82 0
1530 -21 0
-754 1356 0
804 766 0
952 -1802 0
-1538 91 0
184 455 0
-898 -1559 0
-824 -93 0
1243 1419 0
1419 1084 0
667 864 0
-608 719 0
-1181 715 0
-619 -20 0
-1819 482 0
-1860 -1422 0
1480 1827 0
-1343 443 0
-287 642 0
1130 -1579 0
-709 -1361 0
-447 289 0
1101 443 0
-632 -1530 0
442 1293 0
-1693 -836 0
277 1100 0
-765 -834 0
-1849 477 0
-1249 1907 0
775 -1618 0
-749 -1006 0
1311 247 0
-1725 -564 0
1277 265 0
-1890 -26 0
-369 1313 0
-25 1148 0
588 -1750 0
-746 -1351 0
-34 1549 0
1916 1080 0
-1693 1709 0
1401 1744 0
319 468 0
1185 838 0
403 317 0
1388 1657 0
-884 558 0
442 819 0
19 1325 0
-522 1419 0
396 -38 0
-874 -175 0
-140 -1818 0
-1410 -967 0
-416 261 0
798 1714 0
-536 1766 0
16 -702 0
1283 442 0
-316 1578 0
1886 118 0
-337 -1237 0
-1762 1220 0
-452 -394 0
445 1608 0
-1609 810 0
-1536 -1377 0
-884 -1553 0
-15 1739 0
-1716 -1436 0
-1120 1882 0
1483 -326 0
1515 -1799 0
-925 1401 0
1886 1133 0
1260 44 0
-1726 -1796 0
1720 663 0
-1661 241 0
-1789 143 0
-1576 1602 0
-1535 -59 0
1685 1874 0
-1202 1571 0
-1687 304 0
912 429 0
-14 549 0
-372 1188 0
1383 204 0
1880 -871 0
-1462 -577 0
1415 1659 0
-289 1130 0
1377 -76 0
-157 1133 0
-1611 1422 0
1803 -647 0
-861 677 0
1028 1004 0
-1307 814 0
859 -1557 0
1851 308 0
984 1591 0
777 -1125 0
-1399 1431 0
1016 -674 0
288 269 0
1458 -921 0
1782 1737 0
181 -1860 0
1655 -1751 0
533 1525 0
-1895 957 0
1889 -30 0
667 964 0
1419 -1794 0
276 -1917 0
1881 -946 0
-893 -787 0
-1756 64 0
571 -414 0
628 383 0
1441 667 0
-1367 719 0
587 -453 0
-572 10 0
1517 -134 0
826 414 0
-1476 -834 0
-109 580 0
1640 -1131 0
590 -1094 0
-1372 -226 0
-945 1722 0
-1049 -1065 0
466 388 0
-1115 1195 0
1403 -131 0
-1489 1493 0
-1752 233 0
-1273 -704 0
1738 -1466 0
-460 496 0
-664 -1104 0
606 695 0
-1569 552 0
-1871 -1738 0
-198 309 0
514 767 0
558 1750 0
687 -687 0
-1854 202 0
-1423 1127 0
1896 1409 0
1918 1401 0
-390 1175 0
1504 1378 0
-1436 17 0
-709 -1387 0
941 -615 0
543 989 0
1645 503 0
1816 968 0
-881 -159 0
1323 313 0
-1623 -1814 0
-1159 1325 0
-839 237 0
1621 -1072 0
993 1770 0
900 -1391 0
1016 1630 0
556 298 0
1323 722 0
574 1236 0
-1372 -161 0
212 246 0
-1032 -46 0
-57 1643 0
-1137 1361 0
1490 1421 0
1179 -1795 0
-1489 1117 0
-1442 -1623 0
-1211 1382 0
-1495 1700 0
1081 -118 0
-973 818 0
-745 1742 0
-1836 972 0
433 483 0
924 -526 0
-1514 -1297 0
-891 858 0
1844 -48 0
730 1543 0
-604 1303 0
-546 -478 0
979 -968 0
1386 199 0
-1225 -1327 0
1561 886 0
1783 1739 0
-1827 -399 0
-969 1923 0
-607 197 0
698 269 0
1130 -211 0
-1054 -1473 0
-1723 -1629 0
-1224 -186 0
-1246 -1760 0
-171 1722 0
342 -1603 0
1642 -1254 0
-1827 1146 0
694 1423 0
1188 -1126 0
-450 -262 0
-987 -318 0
1876 1120 0
-65 887 0
1809 1656 0
1686 -1678 0
1505 -25 0
1064 1786 0
97 -1003 0
75 348 0
961 306 0
872 1359 0
-393 -1346 0
258 -74 0
121 -186 0
-1535 -50 0
1424 686 0
1840 -560 0
1191 1076 0
1106 1677 0
-1579 -905 0
671 -1114 0
591 -1145 0
-131 1417 0
1087 1806 0
-1078 807 0
-991 1747 0
1143 704 0
-1912 -1431 0
1072 347 0
-999 625 0
897 1379 0
1731 274 0
717 -1920 0
-1637 -626 0
-68 -345 0
1881 1672 0
-407 -1819 0
1387 -1724 0
308 -1726 0
1140 -488 0
1649 1123 0
-939 797 0
570 1777 0
-1647 1496 0
1362 -762 0
738 1376 0
1607 1547 0
1118 -696 0
1550 1276 0
1142 -494 0
1666 -1247 0
585 -1536 0
-1563 687 0
-53 404 0
1455 -1675 0
1737 25 0
-1106 646 0
697 150 0
-672 1451 0
1016 1101 0
-379 1720 0
864 -788 0
220 -249 0
213 289 0
-1064 444 0
-1279 1896 0
-1724 -925 0
-1435 443 0
668 1118 0
-970 1023 0
-594 -70 0
1535 -635 0
-1526 1142 0
-916 -83 0
8 318 0
-693 -209 0
866 565 0
1754 676 0
1673 872 0
-639 743 0
-965 -321 0
846 -1715 0
1488 -1204 0
591 -1435 0
514 1614 0
-244 -332 0
1710 1615 0
-180 1221 0
-1151 1666 0
1197 1482 0
267 -396 0
1565 464 0
-1186 976 0
-1784 538 0
-1761 -444 0
571 -901 0
-147 1128 0
-1411 179 0
-847 903 0
-816 -1192 0
-1475 -884 0
1402 -1268 0
1893 1555 0
-1523 581 0
831 -1584 0
-1003 986 0
-904 60 0
-396 1585 0
-101 -1135 0
-1853 -1022 0
1915 518 0
216 -1335 0
-442 -479 0
-543 -1308 0
-1561 -720 0
-528 843 0
144 419 0
-525 -659 0
-1372 -1663 0
139 1032 0
716 -1658 0
-708 1719 0
-18 -571 0
1336 1347 0
1344 1028 0
149 975 0
-712 731 0
285 1690 0
1711 920 0
-1509 1222 0
1591 -573 0
-773 1379 0
-1638 771 0
1146 1011 0
-605 -377 0
-1009 1594 0
1741 1821 0
1311 1892 0
-1398 1891 0
-173 358 0
407 1189 0
-1034 782 0
1226 568 0
710 -719 0
-1856 -1222 0
1266 801 0
1806 -852 0
-1224 -1624 0
1649 560 0
100 1565 0
219 236 0
541 241 0
1080 1382 0
1441 -678 0
1686 -1626 0
-1824 -1692 0
1385 -446 0
515 -1724 0
-53 1333 0
1720 -832 0
1124 1047 0
-722 -692 0
-1261 951 0
-336 1910 0
-579 -179 0
-1049 -1272 0
-1820 1861 0
929 -1767 0
1050 1386 0
-1675 613 0
-34 -525 0
-702 -1856 0
902 -475 0
-1829 -1403 0
