c NF
p cnf 1447 2605
-630 1142 0
860 33 0
-1016 -558 0
-781 918 0
824 -1267 0
1310 35 0
226 413 0
-829 1305 0
-619 453 0
1146 -1305 0
961 1257 0
-1276 -1163 0
1191 -715 0
620 1428 0
972 1136 0
1 591 0
1064 -156 0
1192 -1131 0
-955 -298 0
-236 -443 0
-777 962 0
113 694 0
1330 -153 0
-939 -1301 0
-535 -573 0
1215 203 0
171 1125 0
-667 -522 0
725 -484 0
649 852 0
-939 279 0
90 -801 0
848 1336 0
777 -395 0
-1362 -776 0
76 916 0
-1213 -1021 0
1437 -1425 0
1340 1265 0
-231 366 0
-528 -983 0
316 889 0
-1327 -653 0
-305 224 0
1019 48 0
-1356 81 0
223 -1064 0
110 428 0
826 392 0
-971 742 0
1082 -842 0
-948 988 0
-1126 289 0
1307 439 0
-1090 122 0
429 1303 0
-1127 1087 0
-1143 405 0
45 -1140 0
-1126 -722 0
-313 -1163 0
-335 -1039 0
-430 -1364 0
160 -656 0
-735 982 0
762 -1192 0
-533 506 0
1322 -100 0
-557 223 0
-1032 -595 0
-737 -273 0
1141 944 0
585 102 0
1229 -25 0
-411 -512 0
1301 1366 0
51 -948 0
-874 -1068 0
-1301 776 0
91 274 0
-391 -546 0
-89 -1179 0
646 -343 0
-359 -350 0
1263 -564 0
-725 -960 0
-799 996 0
990 -25 0
700 -567 0
-1175 271 0
1129 -1038 0
-1366 872 0
-1383 -948 0
1307 876 0
-932 9 0
966 -1136 0
492 -658 0
-1319 1415 0
-334 525 0
939 473 0
1021 877 0
759 4 0
1269 -1147 0
-837 1322 0
1187 -613 0
-1241 528 0
487 587 0
10 -500 0
624 -361 0
-155 -501 0
-1373 473 0
-977 -1187 0
1108 -865 0
65 -234 0
1284 42 0
1036 -955 0
1398 843 0
903 255 0
-708 292 0
236 1224 0
456 -1241 0
49 206 0
-960 1330 0
-818 -994 0
940 -333 0
1374 1358 0
-210 -929 0
361 1189 0
33 771 0
-268 71 0
-134 -333 0
842 353 0
818 -238 0
-233 1247 0
399 1083 0
479 -842 0
451 752 0
-391 378 0
1364 670 0
28 -760 0
591 1369 0
-854 -587 0
3 926 0
-933 1222 0
-1219 -841 0
299 1222 0
-32 -748 0
-988 -1267 0
443 -257 0
-848 1416 0
303 -342 0
1399 -98 0
-49 -704 0
-851 1227 0
-714 678 0
239 310 0
-1213 -127 0
583 -1231 0
1200 -1273 0
1002 -879 0
-120 -1038 0
41 -1072 0
1065 -661 0
-716 -1175 0
-1296 -1391 0
1016 -1361 0
1315 -391 0
-502 365 0
-91 2 0
-886 492 0
-986 -233 0
20 884 0
-206 -509 0
326 1204 0
974 -492 0
-1190 -1343 0
-361 936 0
-344 -123 0
-257 -424 0
307 -191 0
-466 -1099 0
-455 -848 0
239 129 0
41 -468 0
922 -1331 0
-541 11 0
-895 -779 0
-1032 438 0
-86 55 0
-133 -944 0
-1018 -70 0
-851 1332 0
-1383 798 0
-712 -204 0
1382 325 0
521 455 0
-1030 -494 0
310 -1312 0
997 1422 0
1227 1226 0
1036 -644 0
1297 -640 0
1035 878 0
1433 1170 0
-1386 1251 0
484 377 0
1085 561 0
723 745 0
1277 914 0
367 -632 0
-1404 -511 0
-571 -337 0
662 133 0
156 -1278 0
1286 1223 0
-525 549 0
-1392 -859 0
1372 -612 0
150 -807 0
-809 430 0
1391 -682 0
1052 652 0
205 -189 0
-1417 -130 0
-1395 1405 0
-1107 445 0
-862 -1422 0
-51 -161 0
-149 1257 0
-1024 -385 0
112 -246 0
872 868 0
-509 1118 0
234 689 0
-1317 -1106 0
-1202 -1431 0
74 206 0
-153 -544 0
763 -148 0
-414 1044 0
408 -617 0
-226 -31 0
1357 923 0
-682 -742 0
-303 4 0
957 876 0
-477 -846 0
701 -1438 0
-165 458 0
-1185 868 0
818 -169 0
-1004 -83 0
-1196 1283 0
-264 1414 0
992 -945 0
-1021 680 0
336 -273 0
-162 -1060 0
290 74 0
391 1390 0
-202 171 0
-586 -49 0
319 1281 0
-1123 -406 0
1218 -1109 0
-686 9 0
1437 -607 0
-255 -1369 0
176 1247 0
-270 650 0
1324 1001 0
-73 -602 0
383 87 0
1307 821 0
613 -242 0
623 1128 0
1073 -338 0
1345 -1153 0
556 1226 0
159 -462 0
-1281 -1214 0
708 -97 0
1052 -262 0
-1217 481 0
1062 -591 0
503 336 0
859 1181 0
-461 -1286 0
1109 1125 0
206 108 0
264 -492 0
-1079 -782 0
-238 -237 0
-942 305 0
123 713 0
-265 -621 0
995 446 0
-807 -400 0
-909 290 0
289 -874 0
335 -1255 0
624 -649 0
-417 -146 0
1299 983 0
125 504 0
1116 -478 0
1173 -1413 0
-692 -1377 0
-116 376 0
953 195 0
-635 19 0
659 -615 0
-290 1180 0
-298 572 0
491 243 0
-985 -22 0
230 -635 0
-642 890 0
-498 -548 0
-713 1308 0
395 944 0
-1393 1036 0
915 633 0
79 -665 0
1202 -1220 0
-995 57 0
-1090 758 0
1215 890 0
166 -1295 0
-1348 -597 0
-523 -702 0
-1133 959 0
-974 1119 0
464 801 0
1234 659 0
283 274 0
-958 -462 0
222 -945 0
182 1160 0
-569 -978 0
-477 619 0
-1321 -1288 0
-371 -786 0
-1373 -1437 0
855 346 0
1433 1282 0
-197 -997 0
305 -108 0
826 -165 0
806 860 0
-1369 -758 0
-765 1093 0
-408 -28 0
297 719 0
-1069 1127 0
457 -1225 0
-567 806 0
-84 -255 0
1299 538 0
-466 1036 0
633 -754 0
-1418 1177 0
1035 -145 0
161 1244 0
-1410 875 0
-1403 750 0
-935 889 0
-1205 -394 0
998 702 0
527 965 0
-866 -191 0
-1004 -1352 0
487 540 0
-173 -1342 0
1081 -576 0
-499 568 0
566 1079 0
938 1372 0
-1257 -60 0
1194 1124 0
1404 -1213 0
377 -773 0
844 -1064 0
90 376 0
53 1375 0
-568 51 0
1386 -462 0
977 -1011 0
891 -1358 0
451 -1012 0
-371 112 0
1142 401 0
743 1374 0
-1361 -845 0
973 306 0
-27 220 0
-812 926 0
-969 -105 0
-1306 221 0
-237 1257 0
-675 751 0
-478 998 0
-1371 563 0
-800 -507 0
-511 1421 0
295 -1210 0
-951 289 0
-978 -935 0
-942 978 0
-48 903 0
678 -1298 0
123 -1181 0
1044 1328 0
-1092 -503 0
-408 -1005 0
-805 -729 0
-52 185 0
-931 871 0
-271 638 0
-403 177 0
620 1088 0
-1038 27 0
871 -103 0
-860 1363 0
1188 -1379 0
-1137 1240 0
-851 417 0
-115 332 0
376 3 0
-152 203 0
1326 -195 0
1364 -811 0
1222 503 0
971 1272 0
1187 1287 0
-865 412 0
-861 1218 0
-233 -665 0
-1124 -205 0
-1376 -979 0
19 -1412 0
207 996 0
633 -745 0
-1260 142 0
1218 311 0
894 -270 0
-31 -604 0
-449 -1438 0
1353 110 0
1343 647 0
1236 1063 0
1374 332 0
-842 -1015 0
-326 -592 0
-412 -443 0
1149 1111 0
1402 1064 0
-1183 -923 0
-51 -1252 0
633 -1395 0
-311 -94 0
-957 -34 0
-615 685 0
-1357 370 0
854 1064 0
-143 625 0
769 111 0
-1376 -709 0
-284 -191 0
-1214 727 0
-421 -1316 0
-1175 272 0
126 -1162 0
1064 337 0
-361 -758 0
953 484 0
784 -1265 0
241 -1312 0
666 1434 0
1035 -1287 0
750 727 0
851 735 0
350 -362 0
-1306 -141 0
1188 -513 0
-660 28 0
121 1265 0
563 -776 0
-1003 -382 0
348 -1208 0
-1241 -408 0
-602 -423 0
1095 953 0
955 -200 0
1035 1119 0
-568 -197 0
-1093 -810 0
-612 903 0
-42 -1078 0
-654 -205 0
884 1213 0
-152 -1123 0
778 -797 0
-1408 -17 0
-1138 982 0
-6 258 0
-781 -711 0
1114 271 0
-416 -1213 0
-403 713 0
-47 -768 0
603 199 0
-1295 -312 0
-472 789 0
771 -757 0
-566 1178 0
-208 -88 0
440 256 0
-1140 -609 0
-1054 -64 0
1359 571 0
97 185 0
-62 -381 0
-767 -378 0
-261 -457 0
200 -775 0
1324 -296 0
-1297 -251 0
-610 1363 0
-641 -506 0
-342 -119 0
-1240 804 0
242 -643 0
1299 -54 0
616 156 0
118 1303 0
-1031 129 0
-1208 -800 0
-469 -1413 0
-206 -94 0
1358 -81 0
-132 -955 0
-201 -382 0
842 -757 0
-302 552 0
3 1060 0
597 1184 0
521 22 0
853 -133 0
1282 -404 0
-787 -792 0
-413 -836 0
-1169 915 0
538 -741 0
-740 -630 0
-781 960 0
-1215 -288 0
722 -1359 0
-1214 -912 0
1443 1141 0
454 90 0
-569 -613 0
-906 731 0
218 67 0
-1182 -1304 0
65 -627 0
-1420 473 0
928 255 0
-1091 641 0
947 -533 0
-151 -696 0
-18 -214 0
1135 -1046 0
900 261 0
-86 376 0
-815 -1317 0
-746 1194 0
-1281 -559 0
-795 -613 0
455 -1039 0
-1271 -74 0
-78 -570 0
133 92 0
668 -1123 0
571 -531 0
548 784 0
-1290 -134 0
1194 527 0
888 -640 0
-320 473 0
-543 -1051 0
38 1256 0
1191 1120 0
-191 1252 0
-251 -1175 0
485 -1071 0
728 139 0
-1216 -1320 0
421 -1286 0
-91 75 0
-1314 935 0
141 1437 0
-1274 -652 0
263 -427 0
-1055 1158 0
-378 18 0
1388 668 0
1297 1283 0
1087 73 0
-56 -1306 0
-281 -422 0
-1275 872 0
257 1030 0
1064 8 0
1325 -248 0
-911 -639 0
-694 -331 0
-1318 971 0
-21 -247 0
-723 -322 0
350 -313 0
388 1382 0
-271 -269 0
771 -1096 0
1343 -201 0
601 -148 0
1266 -793 0
-1024 -1166 0
-419 763 0
35 701 0
-355 402 0
375 870 0
-1280 -795 0
-1196 1025 0
276 -193 0
-43 728 0
550 -419 0
56 1313 0
448 1431 0
551 1236 0
1265 700 0
-1444 676 0
-616 -1161 0
980 -1144 0
-1252 179 0
-939 -748 0
646 -1239 0
1275 1115 0
1108 -1338 0
460 761 0
1314 557 0
854 -292 0
48 69 0
-793 1012 0
1423 356 0
265 754 0
-1172 -121 0
1304 -1438 0
655 51 0
-1055 1258 0
-512 -163 0
-1202 -1171 0
909 675 0
1348 -230 0
844 -520 0
-950 -209 0
-156 676 0
1088 1300 0
225 -1210 0
-1190 -981 0
764 726 0
-606 895 0
389 523 0
1445 -690 0
-324 122 0
717 81 0
949 620 0
-937 389 0
1113 -1397 0
223 651 0
516 -320 0
-947 1050 0
-293 1413 0
145 1042 0
-430 367 0
977 167 0
1181 983 0
-8 -811 0
-85 486 0
1000 719 0
-1275 1346 0
484 -468 0
-602 -728 0
-1283 -416 0
1133 -1377 0
-1092 1325 0
701 -691 0
-1301 -533 0
882 225 0
911 291 0
797 1079 0
1414 -424 0
-393 1098 0
1118 -940 0
1388 1156 0
1199 -1381 0
-724 827 0
-798 -995 0
-1210 -1171 0
-351 263 0
112 482 0
-36 -1111 0
-270 -1087 0
-581 -315 0
-1149 -716 0
959 -143 0
-1284 -221 0
-205 -259 0
79 -770 0
1374 166 0
58 1144 0
816 -682 0
-962 638 0
1022 656 0
-1045 -1314 0
916 1411 0
15 725 0
-682 1124 0
118 -567 0
-873 692 0
-948 279 0
-1072 611 0
-263 -197 0
-816 1441 0
123 1018 0
-1082 -470 0
-256 633 0
394 75 0
815 289 0
1058 1329 0
-542 534 0
-968 -134 0
263 55 0
967 -675 0
-949 -1225 0
663 1100 0
935 -884 0
-416 179 0
861 242 0
-1068 -1061 0
321 -366 0
1366 -377 0
116 1088 0
-313 940 0
1289 881 0
59 -708 0
1068 1029 0
-1258 -546 0
1250 -826 0
1243 -853 0
-1168 974 0
-1049 -103 0
1155 -509 0
-1236 -1144 0
800 57 0
358 756 0
876 103 0
-242 53 0
-94 -1335 0
550 925 0
-983 404 0
685 -858 0
-785 249 0
-158 -1353 0
-11 -8 0
-776 -1417 0
1411 -988 0
214 418 0
-1024 -1199 0
-839 252 0
-612 -200 0
-1216 121 0
-321 1076 0
-887 -1161 0
-881 -1177 0
303 591 0
-807 -765 0
-1251 1227 0
-480 672 0
704 870 0
440 1253 0
-1373 363 0
706 -639 0
111 963 0
-261 -799 0
-1435 475 0
-843 1080 0
-45 -1342 0
-599 136 0
-1438 730 0
587 -865 0
1274 -194 0
188 -883 0
-186 -968 0
-477 -801 0
366 -1086 0
670 320 0
1244 -546 0
-959 -265 0
-723 -235 0
622 409 0
598 -1417 0
1329 -1342 0
-283 -1033 0
-960 266 0
1170 -383 0
1314 -1375 0
244 595 0
-581 1287 0
80 -1262 0
-33 390 0
207 394 0
-1361 473 0
535 857 0
-416 176 0
-1369 -119 0
-959 -1430 0
-1063 246 0
1426 240 0
-643 233 0
485 -855 0
1189 1378 0
21 725 0
-906 -1338 0
298 975 0
1305 -59 0
76 1364 0
-367 -20 0
940 -158 0
-138 470 0
-344 -765 0
-56 1081 0
191 -13 0
1279 1205 0
-835 106 0
-292 129 0
-439 747 0
1098 258 0
-17 649 0
112 939 0
262 382 0
-1245 -137 0
210 726 0
609 431 0
875 -139 0
569 711 0
-378 -629 0
-1221 1303 0
1431 1057 0
126 -86 0
264 240 0
-454 740 0
-221 306 0
-758 61 0
302 558 0
-185 1164 0
335 -1109 0
864 -1376 0
274 -340 0
1007 634 0
-436 -159 0
-809 -586 0
-986 437 0
-1032 -655 0
-389 -423 0
-13 -674 0
1438 -121 0
-173 -493 0
727 493 0
73 535 0
878 388 0
-1123 -954 0
1320 827 0
-1278 -635 0
-739 957 0
92 550 0
-158 -854 0
-255 -69 0
414 852 0
514 -745 0
737 -396 0
-575 -95 0
-20 -989 0
-797 -182 0
-1315 -1006 0
-629 -743 0
705 -1233 0
-969 -549 0
10 1346 0
-163 869 0
-471 -124 0
-786 -1107 0
-1088 -496 0
-214 -940 0
-665 566 0
-278 655 0
589 112 0
42 401 0
1048 -1265 0
638 212 0
-1144 150 0
968 -1237 0
-133 793 0
-788 -641 0
-523 698 0
281 -794 0
-1078 464 0
-1195 875 0
890 603 0
-228 210 0
1286 -470 0
-392 547 0
1422 -18 0
555 870 0
-421 482 0
1272 1056 0
-1182 860 0
245 1227 0
-1030 37 0
113 -416 0
61 -570 0
-1306 -1098 0
-57 -114 0
319 -1202 0
-90 822 0
541 1007 0
413 29 0
-1229 -1384 0
-402 168 0
734 -509 0
788 -696 0
-991 -1155 0
-322 -969 0
-684 777 0
711 -213 0
788 1129 0
15 -1205 0
165 318 0
-567 215 0
1138 619 0
550 67 0
710 -304 0
937 57 0
-769 -1241 0
-703 -1183 0
761 -1024 0
735 567 0
-1035 -421 0
-470 1332 0
296 -699 0
-128 1124 0
-1098 -916 0
1121 591 0
844 -928 0
-204 832 0
-1431 27 0
875 949 0
962 -1378 0
-1196 274 0
-1416 -411 0
291 -1388 0
-827 -500 0
-282 -167 0
-341 98 0
-228 1398 0
458 1051 0
-21 1250 0
-696 -1120 0
-270 1186 0
-265 -1009 0
-854 1446 0
452 876 0
476 561 0
422 761 0
-912 868 0
926 -66 0
-392 -567 0
868 829 0
484 87 0
1206 267 0
917 -1338 0
279 -97 0
-1376 -883 0
-384 -1353 0
1400 433 0
149 802 0
751 621 0
136 268 0
-936 -1000 0
-1295 -718 0
-1123 -1288 0
657 157 0
-1405 -580 0
1370 187 0
576 -997 0
1239 -211 0
108 852 0
1178 1084 0
-1383 136 0
-76 -451 0
-988 621 0
-1027 188 0
-807 839 0
1142 -593 0
828 1050 0
1385 -1053 0
591 -1036 0
901 783 0
-493 -836 0
565 -227 0
-1215 326 0
-1417 -1426 0
-421 -1262 0
876 131 0
-839 -606 0
37 190 0
-1102 1261 0
66 -1421 0
1433 -1349 0
-692 -604 0
-194 -412 0
-777 -1125 0
676 -1233 0
1335 -1219 0
826 650 0
-926 730 0
1427 -774 0
-223 163 0
901 -1360 0
746 -239 0
53 734 0
-1080 -194 0
-437 -351 0
-738 -658 0
840 -1095 0
1423 881 0
-932 29 0
-195 -1291 0
1050 1381 0
-382 -1430 0
-66 1301 0
-190 -744 0
588 -110 0
1142 865 0
565 1139 0
1078 -115 0
467 145 0
747 460 0
-1038 180 0
-835 -18 0
-384 564 0
-192 -809 0
1203 -50 0
-1292 -98 0
-357 7 0
1115 -1083 0
627 117 0
183 -1209 0
-1296 201 0
-527 961 0
1107 -380 0
1135 -286 0
-1043 -803 0
4 -124 0
-53 -708 0
417 -593 0
-1135 -560 0
320 -1339 0
1089 336 0
638 -952 0
-1237 449 0
237 -1107 0
1442 -101 0
-991 600 0
23 1027 0
793 -1432 0
246 470 0
1305 -221 0
1331 1268 0
729 -581 0
922 889 0
-1078 240 0
593 754 0
-128 65 0
-1283 1419 0
1023 883 0
1156 246 0
554 469 0
-1237 337 0
731 875 0
129 -282 0
-160 -64 0
-1184 139 0
-1353 605 0
1399 -24 0
-430 -882 0
440 -822 0
-947 918 0
376 -121 0
-430 54 0
-1256 -522 0
-253 -652 0
653 1193 0
-678 339 0
-1438 922 0
-145 -114 0
-387 -1169 0
-1445 -1339 0
1279 -733 0
1447 261 0
-152 1017 0
-1257 590 0
-512 -736 0
868 739 0
557 -1408 0
-782 -677 0
-841 1001 0
899 1412 0
-1383 -1103 0
-1444 1064 0
-1201 530 0
813 -887 0
1222 1035 0
26 -1021 0
-351 -834 0
-1093 -120 0
-264 1343 0
516 412 0
-314 1314 0
521 -1083 0
1159 -657 0
-753 1027 0
1117 -36 0
-698 -143 0
-1296 -520 0
1390 1326 0
-942 309 0
-305 1178 0
-1432 -502 0
1443 -1084 0
751 92 0
-1445 1030 0
-63 -811 0
-477 557 0
-1102 -1203 0
-695 -549 0
307 451 0
-867 -1069 0
739 998 0
-907 596 0
849 941 0
-1090 -928 0
218 -1420 0
1355 -494 0
-324 -969 0
-225 -893 0
-684 488 0
941 293 0
-921 -744 0
203 199 0
590 -6 0
-856 1160 0
808 764 0
-1211 -1196 0
-505 -795 0
-690 -1353 0
426 199 0
559 683 0
1132 -830 0
541 517 0
69 1227 0
1307 -1368 0
723 374 0
260 108 0
285 -1093 0
713 -1433 0
996 -34 0
1199 -1093 0
-1388 1299 0
1309 273 0
435 466 0
269 199 0
37 -640 0
-1440 -654 0
-203 -402 0
-526 -764 0
-1210 26 0
-811 375 0
990 -255 0
687 991 0
-1112 1358 0
-983 -74 0
982 1287 0
-1211 -1103 0
215 -894 0
764 439 0
-440 1357 0
-1151 -946 0
728 141 0
1428 -776 0
-431 1040 0
-1021 196 0
-1092 -919 0
-650 -1190 0
149 -154 0
129 -387 0
-862 1117 0
-1319 774 0
-190 -256 0
390 -934 0
-1347 1069 0
-654 -928 0
-874 -196 0
-779 1002 0
-1412 -1144 0
336 683 0
-660 -49 0
-1328 -395 0
-469 513 0
-954 -22 0
958 919 0
1376 1367 0
-1017 428 0
1222 336 0
-925 -1115 0
1314 -466 0
-101 -312 0
332 955 0
1242 -946 0
280 1376 0
-445 -1208 0
1392 -1316 0
717 -853 0
442 -1137 0
1101 -25 0
270 941 0
-717 -82 0
-1317 -1368 0
432 -533 0
-1225 -671 0
-451 111 0
-448 1361 0
1298 -1136 0
-984 -322 0
-1092 961 0
435 -6 0
-851 -269 0
884 89 0
574 -731 0
-272 -1351 0
1406 719 0
-44 -470 0
-331 784 0
-1367 -1292 0
-600 -60 0
-1050 -597 0
810 -894 0
-576 -847 0
-756 -545 0
875 -978 0
-969 -406 0
925 1447 0
-1321 -575 0
1350 1224 0
333 -709 0
1057 -1320 0
1175 -613 0
-915 580 0
216 631 0
1326 -906 0
-84 -79 0
257 455 0
-193 76 0
-501 -95 0
148 1049 0
-906 120 0
1013 961 0
-985 703 0
-68 -1221 0
1044 622 0
1294 1054 0
71 -498 0
1084 1165 0
941 -1376 0
-865 332 0
122 -1054 0
1076 591 0
-441 -200 0
-1134 -1423 0
22 -921 0
-267 -1280 0
1026 965 0
33 73 0
140 -226 0
-135 -386 0
-148 -992 0
-1320 610 0
710 -1408 0
-1293 1296 0
298 -644 0
-345 -1222 0
457 -684 0
-214 249 0
1331 287 0
-788 473 0
140 -1241 0
-402 966 0
-867 821 0
-704 986 0
-500 -525 0
-326 1185 0
-331 410 0
1218 1077 0
-804 -812 0
404 -848 0
-1051 -1442 0
-972 -1277 0
486 -572 0
-1205 -733 0
-102 976 0
-651 -71 0
-277 -865 0
1336 700 0
1343 -146 0
78 -851 0
-1012 1189 0
-414 -69 0
628 966 0
-148 -1374 0
991 289 0
591 -815 0
-59 1079 0
-1262 -241 0
377 1276 0
-355 -527 0
1029 -1108 0
1303 -917 0
-1146 1411 0
821 1442 0
1098 -365 0
-697 338 0
793 -281 0
996 -402 0
1270 1287 0
139 623 0
842 128 0
764 493 0
1365 1399 0
-324 -838 0
1143 -405 0
-500 1348 0
1332 521 0
710 -49 0
-470 -606 0
-1287 764 0
-1410 -1113 0
-567 -1192 0
439 -932 0
-1249 761 0
1302 1192 0
-1132 550 0
1101 -289 0
-807 -396 0
-522 -806 0
-808 -605 0
808 285 0
889 1210 0
1346 -162 0
-60 19 0
-1293 317 0
974 67 0
89 -258 0
92 927 0
1443 1041 0
-258 703 0
796 -537 0
-101 -55 0
-642 -753 0
-608 -744 0
1097 -1127 0
640 731 0
-1332 569 0
551 -511 0
-950 -1169 0
551 -632 0
-1255 557 0
492 -1081 0
-1080 -107 0
620 1096 0
-1134 -45 0
488 -649 0
160 -94 0
565 -375 0
-1009 -347 0
-251 137 0
1185 713 0
350 480 0
-480 51 0
742 -245 0
-997 -536 0
-894 -1210 0
815 -842 0
914 -66 0
-1124 255 0
127 726 0
383 201 0
-608 -1327 0
-859 -382 0
25 -443 0
-1404 -1272 0
1064 -147 0
-1225 -1376 0
-887 -322 0
-541 1030 0
519 -333 0
-1371 -618 0
410 -845 0
-502 404 0
-313 -1181 0
1224 1265 0
1387 1409 0
396 -1202 0
85 -474 0
418 135 0
-1302 -1435 0
684 -1377 0
624 -1153 0
89 -739 0
418 973 0
725 336 0
-1144 -225 0
262 881 0
-837 -169 0
126 -45 0
809 -230 0
-805 591 0
-903 824 0
-564 789 0
-97 -1225 0
-1441 375 0
1410 -611 0
-972 -667 0
89 726 0
875 -34 0
1297 -1006 0
943 460 0
-1183 -1296 0
1235 -696 0
1111 -320 0
128 -1091 0
135 631 0
-906 250 0
-541 -5 0
-897 838 0
157 1269 0
-828 -577 0
1034 540 0
-302 -99 0
207 -1356 0
-6 -1062 0
-1355 -1204 0
-938 376 0
-465 375 0
-396 -712 0
1131 1058 0
-1421 -733 0
-659 636 0
566 -1132 0
-1078 -263 0
-806 858 0
-1438 -1365 0
655 1158 0
1444 -806 0
1017 530 0
-724 849 0
747 1011 0
990 -664 0
1121 42 0
-792 759 0
966 107 0
63 -191 0
-1320 909 0
-474 471 0
-1348 -478 0
1038 -853 0
-416 -867 0
-1377 685 0
-830 367 0
1030 -696 0
-1417 -677 0
-744 641 0
1056 -1099 0
1236 -1226 0
1077 363 0
1111 -1228 0
591 -605 0
-1041 -1401 0
-362 76 0
-234 -384 0
828 1418 0
562 -357 0
1289 552 0
229 1116 0
-1301 1278 0
-531 -134 0
-820 785 0
-345 318 0
1433 1302 0
62 -1301 0
-268 622 0
1229 -847 0
-498 -780 0
624 -597 0
-1230 470 0
396 348 0
-511 820 0
-55 330 0
385 -830 0
-781 -1401 0
141 1409 0
52 1308 0
1408 1372 0
-916 979 0
297 832 0
536 426 0
871 167 0
-845 -1021 0
-730 -144 0
829 609 0
1121 -345 0
-1006 -529 0
1431 -913 0
1276 882 0
1057 -527 0
1167 -16 0
1080 290 0
1307 1345 0
804 1076 0
-443 1332 0
-630 360 0
882 493 0
-634 1001 0
-750 -947 0
1068 1272 0
-959 554 0
178 -247 0
1352 -193 0
-379 774 0
370 -47 0
-436 52 0
1101 856 0
990 1274 0
-498 -207 0
-1229 -1153 0
-791 -781 0
1091 1057 0
1298 -1410 0
-1071 431 0
93 1276 0
-985 -444 0
1321 350 0
-1009 459 0
1174 -1172 0
782 968 0
298 -854 0
982 484 0
38 1105 0
760 -950 0
-361 1431 0
-385 147 0
214 -256 0
1081 -474 0
-1041 800 0
-646 32 0
-855 -62 0
434 -939 0
-466 56 0
640 399 0
526 1118 0
57 -370 0
1224 -909 0
-872 489 0
-614 -242 0
220 177 0
-362 1369 0
-417 -1033 0
-1330 -857 0
-543 214 0
1256 -1332 0
14 91 0
-457 428 0
-207 236 0
-284 -1162 0
-933 -958 0
14 1313 0
-1405 713 0
495 -12 0
-67 1004 0
-211 26 0
-206 11 0
180 948 0
429 757 0
-867 -254 0
1390 447 0
-841 441 0
822 -600 0
-403 -565 0
-4 248 0
595 1227 0
20 -456 0
-429 328 0
-879 -612 0
626 -1295 0
1304 1384 0
1239 908 0
1079 -706 0
-745 -609 0
111 -443 0
817 550 0
984 -1143 0
-221 427 0
-1078 1040 0
1050 660 0
-397 1398 0
-1186 -324 0
904 418 0
-233 -1126 0
-1144 -63 0
-640 -55 0
204 -1202 0
-182 -1412 0
998 325 0
-535 1129 0
-886 1088 0
-213 222 0
-462 -314 0
477 -438 0
751 -821 0
1310 -940 0
990 -558 0
911 -795 0
71 -544 0
-961 -193 0
-425 -1356 0
747 -939 0
1345 354 0
976 -1253 0
-919 339 0
-143 -74 0
-1126 1063 0
-1131 1206 0
506 -1399 0
180 969 0
-1347 90 0
-478 1048 0
-443 519 0
-149 92 0
568 621 0
1378 -835 0
-419 -894 0
1247 1317 0
-325 -1361 0
832 1076 0
-586 -849 0
-362 722 0
-1066 -361 0
694 380 0
477 1311 0
-242 -1133 0
591 -1186 0
-1041 -1336 0
1290 -105 0
-1303 1400 0
-1337 477 0
735 -513 0
447 -162 0
-830 -1416 0
889 886 0
7 1286 0
-116 -983 0
896 354 0
725 -1400 0
397 -298 0
4 -162 0
732 1173 0
1335 1385 0
1230 188 0
373 -431 0
1142 1028 0
1125 216 0
1069 120 0
802 565 0
-1167 -947 0
1318 248 0
530 1002 0
723 765 0
-1275 246 0
1049 -542 0
-959 904 0
-772 -1228 0
723 1318 0
-830 -248 0
170 -448 0
358 -452 0
1052 869 0
-709 -1268 0
354 348 0
-1220 -10 0
-558 -1211 0
-1061 1255 0
-1208 -869 0
40 459 0
-543 838 0
-1047 1244 0
1094 67 0
263 477 0
-1098 580 0
1244 1298 0
-869 -1196 0
-611 -522 0
-631 458 0
162 -257 0
-1304 719 0
1118 545 0
-1371 979 0
-1339 -372 0
376 1291 0
1304 -511 0
870 -37 0
505 -80 0
-1400 681 0
763 1156 0
221 892 0
908 210 0
-1154 361 0
-358 778 0
-786 -504 0
-254 711 0
1007 -1348 0
113 -1389 0
1303 1120 0
850 -363 0
-1002 321 0
-1255 -504 0
1264 -595 0
1431 927 0
1339 -1201 0
-161 1418 0
-1194 -682 0
-228 -744 0
8 -193 0
-446 922 0
-787 416 0
-605 1388 0
583 400 0
-1020 -983 0
-255 126 0
-931 -405 0
253 -288 0
828 20 0
704 524 0
-604 -354 0
889 7 0
-64 -939 0
-1099 -74 0
299 -628 0
-66 -643 0
-724 1007 0
1064 1147 0
-239 326 0
317 -966 0
-839 960 0
291 646 0
-821 -195 0
-942 -30 0
-1074 1298 0
-432 -1255 0
-429 -470 0
-450 1298 0
-652 504 0
239 1100 0
1345 272 0
-419 1380 0
-1216 289 0
-1432 -931 0
1362 1042 0
1088 741 0
204 922 0
1262 1097 0
372 1238 0
550 535 0
-674 -1277 0
-677 -555 0
807 911 0
1063 719 0
-795 -312 0
-213 309 0
13 -1280 0
339 432 0
-337 -904 0
-1277 245 0
-983 -883 0
-107 1086 0
-1300 -1008 0
1308 1307 0
-1229 -1132 0
243 1441 0
350 413 0
959 905 0
-1 -1113 0
1092 -567 0
508 -152 0
-983 -732 0
-261 -84 0
-1104 1186 0
-965 -1069 0
-546 1061 0
1261 684 0
856 958 0
-511 -1021 0
-1269 -1071 0
-167 -512 0
-242 -1377 0
1346 1241 0
1121 -894 0
613 -33 0
975 784 0
-1042 439 0
303 -1425 0
1108 280 0
-1401 693 0
256 507 0
-472 1104 0
1422 -404 0
-363 205 0
-605 -629 0
919 962 0
-1349 262 0
-174 -1426 0
127 253 0
-545 -256 0
274 1094 0
217 1403 0
-1410 -1070 0
1258 -451 0
522 -288 0
-522 -66 0
-450 1189 0
-240 -330 0
-614 -822 0
750 -654 0
970 736 0
1374 1233 0
-323 -254 0
-464 -809 0
-36 868 0
-1185 -1413 0
404 -404 0
-255 1001 0
-1163 -1182 0
53 -149 0
-610 181 0
-846 175 0
-623 335 0
1291 861 0
-739 -703 0
-913 -618 0
-1179 -149 0
1372 -40 0
1053 -734 0
-399 547 0
-989 -468 0
1136 468 0
-1330 -125 0
816 -1321 0
884 -2 0
955 -444 0
-983 942 0
-628 -1348 0
746 -1208 0
292 824 0
-806 1198 0
-104 -874 0
-661 1174 0
-270 316 0
-119 -361 0
-208 -1321 0
71 1307 0
1115 1384 0
1028 -374 0
975 -86 0
-1218 -1047 0
260 1262 0
689 1440 0
394 -698 0
-856 -833 0
-657 124 0
-147 233 0
-99 -639 0
826 -16 0
902 1015 0
1163 -590 0
622 516 0
-456 303 0
851 -193 0
-1353 -763 0
-1401 -841 0
-544 -654 0
-711 601 0
970 -652 0
-313 703 0
126 1211 0
-1284 898 0
263 47 0
-507 508 0
-1329 -894 0
439 1391 0
-252 1417 0
67 209 0
625 158 0
1442 547 0
678 -779 0
492 302 0
-849 -1123 0
-1228 -1220 0
-1162 513 0
-632 -1425 0
-571 -342 0
534 -466 0
1227 566 0
269 -787 0
-324 -248 0
1291 681 0
459 -641 0
-1271 -359 0
612 868 0
-1205 754 0
-1386 -581 0
-1401 -229 0
310 132 0
-436 -1074 0
999 174 0
-1168 -189 0
1065 1007 0
-295 551 0
-397 687 0
796 167 0
276 211 0
-1357 29 0
39 -1162 0
-602 -1197 0
-1250 -54 0
-1305 1364 0
-1000 426 0
980 1216 0
-1417 960 0
-376 804 0
-672 -1140 0
461 959 0
990 898 0
-1165 -311 0
-1011 -65 0
1312 -1005 0
-467 862 0
-620 -1278 0
61 -852 0
1392 -629 0
-6 442 0
547 -465 0
1029 -662 0
620 -775 0
-1045 -956 0
-500 1025 0
1123 -919 0
873 1431 0
-939 -743 0
620 303 0
316 201 0
-774 -419 0
1030 -702 0
264 -868 0
1220 -881 0
-1319 -730 0
1272 1313 0
824 157 0
942 620 0
-146 727 0
1063 -795 0
18 -284 0
823 -1320 0
471 654 0
-973 -732 0
-699 -919 0
885 -63 0
1073 949 0
1150 -680 0
304 -833 0
990 -176 0
-350 -138 0
623 -136 0
-568 -1137 0
-78 1410 0
-897 243 0
1272 280 0
1079 601 0
802 -1285 0
-449 -839 0
711 -462 0
-377 -1410 0
139 -308 0
1134 335 0
1213 762 0
-705 953 0
-539 442 0
896 -560 0
-835 -147 0
1242 -248 0
410 -194 0
244 -114 0
-269 -77 0
-355 1335 0
623 879 0
-89 223 0
-308 -379 0
-843 1379 0
-155 1150 0
-1069 106 0
809 667 0
-1139 332 0
-374 941 0
-1313 445 0
1085 -1220 0
-248 1340 0
-644 574 0
750 1306 0
1380 1363 0
-1003 -1251 0
-717 150 0
228 1116 0
1249 300 0
-239 647 0
-994 -622 0
-970 -349 0
835 -295 0
-32 -663 0
1176 -282 0
-717 -1329 0
-815 338 0
914 -283 0
-1123 -642 0
728 -997 0
-799 57 0
125 444 0
-133 -1415 0
-820 1392 0
-55 -160 0
-684 327 0
311 -1163 0
1386 -1169 0
-1269 -1275 0
27 -1406 0
1036 928 0
-1220 161 0
579 1384 0
502 -312 0
-313 1400 0
751 -208 0
979 1118 0
-1377 -624 0
-150 591 0
-419 1067 0
-359 -605 0
1028 -1107 0
-286 -767 0
-704 61 0
-852 -137 0
-280 890 0
264 182 0
-1230 736 0
-301 1187 0
-611 -1354 0
-1239 -1002 0
-1112 -68 0
741 250 0
-205 1122 0
1071 -184 0
891 435 0
-452 -641 0
-339 895 0
-1082 112 0
743 -991 0
-1435 1409 0
-570 -744 0
426 735 0
1231 482 0
-146 -914 0
944 694 0
-1154 -62 0
-387 -935 0
880 -1088 0
-732 -1401 0
246 -343 0
-947 -671 0
-409 -578 0
-932 -1043 0
-1282 -1410 0
773 -1164 0
-781 -1115 0
-351 1037 0
-204 -416 0
1282 -671 0
-1405 760 0
307 1021 0
21 280 0
-7 -792 0
1354 -756 0
-1194 -292 0
860 1188 0
-813 -1328 0
-562 191 0
1186 -1014 0
-1271 552 0
1309 33 0
-1427 -1009 0
1073 -893 0
1060 -542 0
667 1065 0
656 214 0
958 1218 0
-393 122 0
113 905 0
-281 -1160 0
315 -64 0
-1080 -492 0
-25 -769 0
-371 764 0
-958 368 0
1359 175 0
-1422 1095 0
458 1044 0
719 920 0
-1268 -1291 0
390 -1262 0
89 1256 0
-93 1376 0
-442 -559 0
-757 -380 0
1300 -874 0
-954 433 0
199 -105 0
1097 -153 0
-196 -77 0
-1321 -12 0
-155 -985 0
-900 885 0
129 -807 0
-1371 -273 0
-1169 -111 0
793 1049 0
1308 61 0
1276 -1187 0
-887 -287 0
-1251 631 0
1180 1382 0
-408 1264 0
1034 328 0
332 1426 0
1189 -599 0
411 -208 0
263 -215 0
-564 714 0
580 -693 0
1100 -127 0
1311 -676 0
624 -484 0
-1441 485 0
37 921 0
-1144 -841 0
486 -154 0
-44 786 0
304 1050 0
257 -480 0
-1284 970 0
1254 199 0
-1009 608 0
574 1190 0
-799 447 0
-707 -131 0
-1249 426 0
-699 658 0
644 -584 0
900 -537 0
-986 -987 0
-1301 15 0
860 1222 0
-1332 -341 0
71 522 0
1166 -333 0
-905 669 0
-1251 124 0
1398 -88 0
125 1406 0
-172 -829 0
307 785 0
27 1241 0
-387 897 0
-1198 62 0
198 -526 0
298 305 0
508 1084 0
-1037 -518 0
-240 937 0
-757 1240 0
-586 127 0
815 567 0
1019 11 0
-1024 1388 0
-864 -99 0
-302 -115 0
-1123 15 0
-518 1439 0
574 -448 0
40 1063 0
388 -1069 0
1180 1347 0
-1251 -384 0
-1359 151 0
70 28 0
73 1380 0
-1427 -1264 0
259 -437 0
-1235 -100 0
-1115 -522 0
-343 -519 0
1438 1378 0
-171 -1205 0
1007 288 0
-982 1287 0
1106 442 0
-560 202 0
1069 762 0
1423 -731 0
-761 -1381 0
-1399 -281 0
1017 556 0
1250 381 0
-684 756 0
117 963 0
-973 -853 0
1302 157 0
523 968 0
1130 -561 0
-1140 -582 0
986 -1242 0
-1007 1081 0
1418 -84 0
-1275 -171 0
-706 -326 0
1241 -663 0
-1380 383 0
-50 -1145 0
1036 -1239 0
702 -536 0
574 -991 0
553 -1290 0
825 671 0
750 -1133 0
-441 -640 0
-170 849 0
-978 -873 0
428 629 0
-31 -348 0
-47 1115 0
-462 1114 0
-101 571 0
-79 -23 0
41 -573 0
114 -724 0
-1168 23 0
-810 -850 0
-551 243 0
-564 -505 0
102 219 0
-1333 -761 0
-1389 -827 0
431 -459 0
53 1416 0
-155 -345 0
-886 1135 0
1222 241 0
90 -118 0
-149 1142 0
1169 102 0
-44 -1393 0
558 -602 0
-894 -729 0
963 412 0
-1013 550 0
218 -444 0
-644 -420 0
743 -1284 0
-589 -614 0
-1317 523 0
-929 61 0
329 447 0
-286 703 0
-602 -50 0
152 -1339 0
-325 -408 0
1204 -236 0
551 1207 0
-341 487 0
59 296 0
442 1047 0
-1336 -1163 0
-1103 -408 0
-614 -3 0
-988 1222 0
1437 1105 0
-81 298 0
-150 557 0
837 1399 0
-566 21 0
-831 -320 0
-12 -516 0
-921 1322 0
1143 -682 0
-265 -1258 0
578 -1395 0
403 -533 0
-657 -500 0
1414 1043 0
1298 -805 0
551 -841 0
-385 156 0
968 -923 0
-734 -158 0
-211 -1258 0
-1032 -1257 0
-854 -1290 0
-478 -1366 0
-316 -91 0
-1024 41 0
621 755 0
1160 681 0
-1326 -795 0
-794 -328 0
1367 -1264 0
1116 -1191 0
-95 -147 0
446 622 0
-693 390 0
537 747 0
1412 400 0
-1169 -1256 0
479 870 0
-734 -124 0
701 1023 0
-509 541 0
300 404 0
471 -509 0
934 -278 0
454 -964 0
42 724 0
-34 1300 0
681 927 0
-630 843 0
427 -40 0
-1390 1035 0
297 -373 0
-672 -1205 0
-430 -139 0
-583 -883 0
-755 -1011 0
441 -902 0
246 8 0
-501 424 0
-1266 -549 0
-471 226 0
63 160 0
1374 -936 0
-1168 61 0
444 -1407 0
521 976 0
1406 1201 0
1285 -596 0
-301 199 0
609 -381 0
-72 750 0
338 -1227 0
264 -865 0
1289 446 0
-493 1136 0
649 -1327 0
-343 1014 0
-1312 -64 0
-804 1218 0
1066 332 0
-484 -635 0
-803 -722 0
26 -1042 0
-233 -1214 0
-1109 1411 0
-972 -239 0
84 -1015 0
-481 -991 0
-992 535 0
-545 -1031 0
-1388 439 0
1211 935 0
-201 180 0
198 102 0
130 -1046 0
-1153 -1082 0
-1034 557 0
163 170 0
1094 832 0
868 -1278 0
1400 -63 0
1345 -456 0
-341 213 0
-1229 1194 0
1142 -113 0
1333 299 0
600 269 0
928 155 0
447 533 0
1251 418 0
-1069 1298 0
-35 -1102 0
144 -632 0
-1316 10 0
-770 -716 0
621 495 0
-1231 1111 0
610 645 0
89 -597 0
-542 180 0
904 693 0
414 -462 0
-978 -1243 0
-1248 1289 0
-1416 -22 0
881 -932 0
1101 447 0
-466 -660 0
723 710 0
-1210 1305 0
1322 1318 0
1388 129 0
1274 -763 0
1377 -859 0
1002 -1230 0
283 -1240 0
-770 1388 0
132 -661 0
-435 -674 0
-249 -12 0
844 -1099 0
-443 -8 0
-867 1289 0
-987 -1258 0
444 -93 0
-1164 -1417 0
-793 885 0
736 -490 0
765 471 0
-1400 -612 0
747 654 0
-268 746 0
-712 -363 0
887 53 0
474 -946 0
-1221 715 0
1293 171 0
-357 145 0
546 1443 0
1385 1440 0
-1297 330 0
-519 1413 0
1075 858 0
669 -1220 0
100 486 0
394 59 0
-1341 1177 0
397 99 0
441 -512 0
-951 1161 0
204 -104 0
-1025 -916 0
319 157 0
720 1230 0
-839 -1427 0
566 868 0
-1241 -398 0
279 1185 0
-1078 -925 0
-772 -755 0
134 -407 0
-518 437 0
431 -247 0
-891 -190 0
-221 -367 0
723 -786 0
-1252 1121 0
-366 -154 0
1284 773 0
622 -657 0
-1126 -1024 0
-378 1153 0
943 -567 0
-651 1353 0
-613 -72 0
139 259 0
772 1392 0
1091 -138 0
880 353 0
1177 -9 0
-996 900 0
-444 -1355 0
-632 -380 0
-1015 -744 0
-369 1249 0
909 -42 0
980 571 0
982 -1048 0
-581 734 0
556 123 0
-1183 -706 0
-474 548 0
23 1349 0
-173 574 0
398 169 0
475 -498 0
-115 913 0
226 -1216 0
867 -379 0
1317 572 0
603 -1053 0
-347 1024 0
-585 451 0
759 1042 0
-831 -88 0
716 -1149 0
-945 -583 0
1279 -537 0
-1242 -235 0
1119 1276 0
-836 -1 0
1307 966 0
769 -1445 0
-168 1316 0
1414 178 0
754 -114 0
-1406 784 0
-684 -1369 0
-559 437 0
-26 -1069 0
-461 -364 0
-1038 904 0
410 936 0
-597 1111 0
399 -561 0
922 -1380 0
1335 1386 0
-621 -1332 0
-1103 -636 0
-1403 449 0
376 -886 0
645 -1426 0
566 -1248 0
102 942 0
-579 115 0
-831 -8 0
1171 -848 0
-1440 -939 0
-1121 -496 0
-187 446 0
-1433 -1078 0
136 471 0
1422 1274 0
589 678 0
-613 422 0
601 -1160 0
1080 -436 0
1001 -33 0
-667 1364 0
-1391 433 0
-663 -214 0
-586 -427 0
-560 -1435 0
48 -608 0
1100 -1432 0
-431 -743 0
449 -1190 0
