c bounds 557 557
p cnf 955 478
562 -67 0
-162 126 0
127 -40 0
-55 -86 0
-246 -601 0
615 278 0
-871 -670 0
227 -346 0
92 97 0
153 574 0
-526 -770 0
215 -409 0
145 -594 0
816 -32 0
156 379 0
-738 -773 0
-40 -839 0
-463 -505 0
-705 218 0
935 260 0
-749 394 0
396 -134 0
769 548 0
316 835 0
-638 -6 0
-591 -500 0
413 -172 0
826 -757 0
870 -757 0
-1 394 0
296 107 0
-170 -360 0
581 226 0
383 663 0
252 -1 0
935 -407 0
-696 -813 0
348 -783 0
-197 3 0
-882 727 0
782 684 0
363 732 0
-310 -101 0
-385 -902 0
-443 -651 0
364 370 0
397 802 0
-777 -775 0
612 914 0
-540 25 0
-733 -660 0
516 851 0
-461 -333 0
517 -743 0
579 -414 0
-23 -669 0
622 153 0
189 337 0
42 -625 0
451 -217 0
459 -407 0
-49 -526 0
-818 243 0
648 772 0
690 126 0
351 114 0
663 43 0
283 517 0
-779 -709 0
417 387 0
228 352 0
-121 -907 0
538 805 0
-267 590 0
41 345 0
908 280 0
-598 771 0
-802 -649 0
815 -428 0
299 568 0
-62 -155 0
516 502 0
585 348 0
491 -259 0
809 -485 0
-841 -902 0
721 127 0
-190 -886 0
141 749 0
441 -39 0
-289 22 0
-622 25 0
-86 670 0
776 509 0
-483 886 0
-135 784 0
354 -587 0
-142 938 0
-717 793 0
-551 36 0
755 199 0
914 -234 0
719 -847 0
-665 319 0
72 -211 0
-202 438 0
272 654 0
-730 -751 0
749 -257 0
-705 -261 0
772 749 0
-836 -598 0
-672 -253 0
385 865 0
42 -268 0
803 -116 0
-440 -656 0
-158 -28 0
630 -55 0
-233 562 0
-759 854 0
944 908 0
-592 540 0
406 -645 0
746 902 0
593 188 0
-629 -1 0
348 217 0
140 -404 0
-954 -673 0
-738 -14 0
-431 209 0
392 60 0
168 -906 0
89 -258 0
667 -266 0
434 847 0
-938 596 0
-490 810 0
745 -261 0
540 -299 0
226 -265 0
743 -799 0
559 -152 0
-407 -532 0
-325 421 0
-62 -155 0
-171 -221 0
285 4 0
182 -578 0
-345 -474 0
-425 -130 0
814 -374 0
897 741 0
-844 34 0
-716 -505 0
-828 240 0
-627 -587 0
112 119 0
-236 -451 0
556 602 0
-482 -181 0
686 -488 0
515 180 0
240 732 0
-651 -823 0
-213 114 0
114 699 0
20 -606 0
377 821 0
742 731 0
-304 -301 0
331 -563 0
309 881 0
-839 -814 0
-319 60 0
916 -610 0
650 -643 0
934 497 0
-927 513 0
-299 11 0
-472 -764 0
69 354 0
-107 -492 0
650 54 0
-286 230 0
489 257 0
-521 350 0
-9 650 0
80 436 0
779 176 0
-421 821 0
-521 784 0
-259 273 0
733 119 0
-205 644 0
120 -715 0
133 -668 0
38 -535 0
-122 303 0
-545 -534 0
-247 540 0
-317 -806 0
-285 238 0
823 160 0
254 279 0
-646 846 0
-321 376 0
-534 837 0
181 -759 0
112 794 0
-320 183 0
165 -589 0
469 -115 0
326 8 0
718 39 0
-174 510 0
590 338 0
-807 528 0
-917 239 0
514 -755 0
-713 709 0
-253 408 0
-567 -496 0
-649 409 0
836 587 0
-807 -570 0
866 -323 0
263 -163 0
763 719 0
608 455 0
336 398 0
438 -685 0
-778 -532 0
-420 663 0
-908 -523 0
141 942 0
-527 -709 0
242 939 0
-858 -887 0
-544 294 0
918 -426 0
559 -791 0
-367 -626 0
-371 389 0
-679 380 0
256 -417 0
833 -757 0
-533 729 0
571 -81 0
-954 512 0
-77 -482 0
34 642 0
-352 -341 0
-49 -241 0
560 779 0
309 -23 0
-656 508 0
252 -546 0
295 -37 0
323 76 0
-479 -787 0
290 -868 0
-339 178 0
-18 60 0
110 789 0
782 315 0
190 511 0
424 -664 0
-298 -92 0
771 -478 0
304 -385 0
538 -3 0
-708 313 0
-341 -563 0
-407 65 0
-667 475 0
-280 106 0
-432 -906 0
791 75 0
134 365 0
78 -72 0
475 -292 0
-313 688 0
-17 -575 0
-340 295 0
705 624 0
-750 54 0
-16 -849 0
801 -939 0
191 542 0
-829 -506 0
-208 220 0
149 -860 0
731 -63 0
-264 -700 0
940 550 0
564 181 0
-534 -887 0
720 -320 0
184 -516 0
-852 -828 0
-277 58 0
388 377 0
-389 307 0
850 -402 0
-333 92 0
-140 572 0
-62 -110 0
-614 833 0
-508 -841 0
-715 -796 0
-302 -247 0
328 550 0
253 718 0
100 -861 0
-170 -221 0
-606 642 0
108 -45 0
-102 -548 0
-408 228 0
-213 174 0
-566 580 0
763 501 0
519 -654 0
67 789 0
529 -396 0
-898 441 0
-563 159 0
-454 221 0
488 -901 0
-518 458 0
901 945 0
936 569 0
-639 -635 0
-922 -779 0
762 -691 0
234 786 0
94 670 0
-127 916 0
501 416 0
207 -540 0
-371 278 0
549 706 0
819 68 0
589 -915 0
-359 -824 0
5 -821 0
-945 -605 0
-807 941 0
-252 447 0
-210 -726 0
-859 163 0
659 252 0
666 585 0
-589 -247 0
952 -544 0
-838 -356 0
-395 919 0
-48 -481 0
-110 159 0
298 231 0
409 484 0
-298 -404 0
-781 43 0
-703 423 0
264 932 0
540 508 0
-723 140 0
-20 -766 0
151 649 0
545 691 0
-41 315 0
769 -946 0
335 -523 0
-519 -882 0
902 -246 0
780 463 0
250 481 0
568 -520 0
-425 -750 0
-511 -110 0
-813 -76 0
130 260 0
93 -341 0
-219 -626 0
501 404 0
-442 -846 0
-578 -392 0
256 416 0
-137 139 0
880 -496 0
-655 245 0
908 856 0
218 -679 0
186 254 0
-774 332 0
-79 -852 0
399 272 0
250 -707 0
-611 -77 0
226 -343 0
-181 -216 0
-606 -794 0
555 549 0
890 -239 0
-198 535 0
-674 -451 0
-369 -282 0
-102 821 0
750 472 0
-138 -443 0
279 -901 0
531 -398 0
-303 -23 0
-805 952 0
417 -28 0
-566 -425 0
254 -266 0
-300 -142 0
344 588 0
-565 -639 0
-523 587 0
159 222 0
935 371 0
-391 913 0
-446 513 0
-798 628 0
-443 170 0
497 779 0
412 -387 0
-40 844 0
400 583 0
-1 -268 0
-738 -220 0
433 -238 0
-309 -650 0
-425 -386 0
295 869 0
-673 -159 0
69 583 0
-303 249 0
536 33 0
-776 569 0
-906 -212 0
589 239 0
412 237 0
-697 -223 0
-53 -170 0
-892 -535 0
-556 -658 0
803 -152 0
-734 819 0
-614 -505 0
347 812 0
245 288 0
232 -309 0
67 -317 0
632 -933 0
952 -152 0
-55 513 0
-428 -271 0
130 -216 0
-876 -5 0
-173 -603 0
880 161 0
-793 -515 0
-860 -371 0
106 335 0
-917 -246 0
691 147 0
-706 735 0
322 -100 0
324 844 0
-488 63 0
67 -101 0
230 -243 0
287 278 0
