c bounds 48 48
p cnf 415 1204
-407 258 0
263 -256 0
87 -96 0
3 261 0
-143 117 0
-147 372 0
215 -193 0
364 389 0
159 23 0
-367 -209 0
287 -31 0
-368 213 0
-72 376 0
191 93 0
-176 72 0
74 212 0
110 -325 0
-152 225 0
133 331 0
25 -415 0
328 84 0
-403 -385 0
-311 -126 0
-131 -168 0
-368 18 0
222 -285 0
-173 378 0
-256 343 0
-383 -87 0
-306 373 0
314 -186 0
252 -248 0
155 -178 0
310 -98 0
-30 -198 0
102 18 0
-389 -302 0
-265 -283 0
155 67 0
-144 15 0
230 -48 0
402 -55 0
175 150 0
-221 -244 0
45 374 0
230 -262 0
-285 61 0
-117 274 0
-298 77 0
267 -210 0
-182 312 0
254 280 0
-66 -348 0
-296 -81 0
-118 369 0
369 -403 0
-347 -169 0
-137 -45 0
51 -330 0
-64 335 0
194 -263 0
84 109 0
-234 -348 0
355 240 0
-285 -19 0
-60 -139 0
-79 -176 0
198 -187 0
54 -262 0
-254 -129 0
-119 87 0
203 162 0
-402 240 0
-275 21 0
-22 257 0
-387 -234 0
-272 321 0
-119 338 0
-27 -260 0
-191 -315 0
-340 -276 0
44 133 0
-7 -16 0
-97 161 0
305 -154 0
103 -297 0
30 -317 0
92 235 0
284 -95 0
322 -11 0
2 138 0
56 -109 0
-390 -351 0
384 -143 0
-122 -384 0
24 379 0
-383 -343 0
-243 -43 0
8 -248 0
-260 165 0
-47 -63 0
-69 -330 0
361 -294 0
-314 99 0
-62 -135 0
357 39 0
203 -11 0
334 -406 0
283 399 0
121 156 0
-208 -414 0
-271 240 0
197 -378 0
-391 155 0
134 24 0
103 -137 0
24 -213 0
164 76 0
-135 12 0
-30 372 0
-398 163 0
27 174 0
141 -177 0
-204 -202 0
-184 218 0
76 166 0
-219 -364 0
404 145 0
63 -109 0
9 102 0
-232 -68 0
-35 337 0
-275 -22 0
202 -52 0
-327 370 0
6 278 0
-63 140 0
-66 -181 0
-122 -179 0
-347 -399 0
353 301 0
-104 -62 0
-38 -168 0
372 149 0
-162 167 0
-304 -325 0
-403 194 0
-378 -380 0
403 -209 0
147 -173 0
398 -187 0
-184 -59 0
-301 -179 0
-19 211 0
-243 -42 0
83 -114 0
-270 2 0
-304 369 0
-315 -203 0
-46 157 0
-317 -222 0
327 4 0
340 -374 0
296 -201 0
17 -243 0
401 51 0
119 -272 0
133 122 0
-53 -410 0
177 -75 0
-150 172 0
128 -18 0
179 -16 0
-68 -132 0
-122 -256 0
-410 90 0
29 111 0
-387 364 0
-199 279 0
211 -59 0
274 102 0
-98 35 0
406 49 0
106 161 0
325 -202 0
-374 40 0
-264 217 0
279 114 0
113 102 0
-233 390 0
-383 -89 0
363 -295 0
-391 111 0
-237 -71 0
-342 36 0
167 108 0
-79 286 0
-393 -374 0
-248 349 0
-385 362 0
342 7 0
160 334 0
304 -382 0
-302 -210 0
9 -110 0
34 -78 0
239 137 0
270 153 0
-241 -200 0
91 -173 0
232 110 0
-402 -172 0
-135 -149 0
-22 288 0
-199 226 0
110 267 0
-197 -317 0
-239 56 0
-409 98 0
-391 101 0
-283 -75 0
217 50 0
386 27 0
-308 -201 0
-212 -232 0
-394 -184 0
-392 -110 0
-175 -184 0
-235 147 0
-95 163 0
-233 -391 0
237 21 0
-201 -317 0
202 110 0
-101 -202 0
-214 112 0
-358 108 0
-198 308 0
-385 -85 0
355 276 0
-301 -71 0
379 -152 0
224 160 0
384 -260 0
94 -334 0
250 -306 0
70 -371 0
61 -216 0
50 380 0
353 -30 0
-308 27 0
-164 138 0
-150 -392 0
93 -209 0
107 -344 0
63 115 0
150 -129 0
382 170 0
171 35 0
109 -168 0
73 158 0
-316 -126 0
45 162 0
352 168 0
-161 -179 0
-393 -343 0
222 287 0
-240 96 0
264 -69 0
212 116 0
43 -223 0
-145 -136 0
-265 -346 0
-236 63 0
39 -8 0
-317 415 0
215 -67 0
-183 357 0
124 196 0
-58 -351 0
253 -66 0
28 -160 0
36 -82 0
390 63 0
149 140 0
21 -108 0
-180 168 0
-26 -361 0
141 -60 0
-224 375 0
-288 225 0
132 -390 0
-119 -142 0
293 -328 0
-387 304 0
361 321 0
-300 -4 0
162 -334 0
-119 56 0
-362 298 0
118 235 0
73 -106 0
228 384 0
-118 -155 0
114 -338 0
-55 231 0
-345 -361 0
100 414 0
-236 16 0
-11 -208 0
-182 364 0
259 -329 0
-388 -311 0
-374 51 0
-141 -395 0
-260 297 0
-62 193 0
4 133 0
79 -69 0
-409 -227 0
333 223 0
199 379 0
-180 304 0
360 -320 0
-294 365 0
-19 67 0
408 -351 0
-76 -346 0
-117 43 0
-36 -262 0
237 253 0
-276 389 0
-183 -383 0
-159 205 0
15 103 0
9 -117 0
84 -348 0
-400 -309 0
51 167 0
215 361 0
-301 124 0
232 343 0
172 -387 0
310 -218 0
-208 -204 0
-373 -178 0
251 176 0
233 332 0
92 -214 0
203 -114 0
74 97 0
247 -233 0
-98 313 0
-98 87 0
307 -89 0
145 303 0
411 -18 0
70 264 0
-258 296 0
-209 -152 0
111 -91 0
363 55 0
-158 -402 0
84 -358 0
-48 -119 0
61 235 0
334 369 0
190 398 0
55 -176 0
-300 37 0
-295 -152 0
66 375 0
145 369 0
-38 -396 0
-365 311 0
-255 74 0
-69 113 0
216 -339 0
-260 -53 0
-318 369 0
133 -391 0
113 -68 0
362 156 0
47 21 0
157 -197 0
-300 184 0
230 -301 0
-209 43 0
-229 286 0
196 405 0
240 -258 0
-341 280 0
44 377 0
-158 284 0
-365 -276 0
355 49 0
-267 279 0
162 218 0
44 120 0
-43 -27 0
130 133 0
-42 247 0
343 -118 0
-370 -351 0
35 396 0
160 219 0
-397 -372 0
-368 -206 0
335 384 0
147 264 0
253 -250 0
254 -397 0
-238 117 0
106 253 0
259 -118 0
-181 174 0
-385 279 0
-303 116 0
-126 333 0
358 222 0
214 110 0
61 110 0
-200 -293 0
413 133 0
241 -154 0
-36 30 0
204 -223 0
-282 99 0
-257 -249 0
-354 128 0
-276 44 0
410 356 0
26 -177 0
-245 40 0
181 274 0
113 -11 0
-38 145 0
170 -129 0
239 332 0
-218 290 0
403 -245 0
380 -32 0
-349 -119 0
-181 -366 0
-351 -245 0
-229 -228 0
125 -387 0
192 101 0
-242 -69 0
-260 -202 0
-33 370 0
-348 -317 0
273 -36 0
-262 -89 0
-165 92 0
415 171 0
42 171 0
-124 -318 0
101 70 0
-227 327 0
-218 2 0
-164 41 0
-408 96 0
263 -138 0
293 -30 0
-169 -390 0
-208 154 0
123 153 0
-378 -43 0
-408 -43 0
-401 7 0
-322 114 0
-12 258 0
56 -267 0
-409 -388 0
-409 128 0
-277 368 0
-60 -138 0
-30 -141 0
353 230 0
-407 -299 0
-32 -79 0
345 240 0
-17 -198 0
68 -98 0
-169 245 0
-26 225 0
68 -395 0
77 -172 0
-30 -296 0
22 -132 0
-345 373 0
24 86 0
-177 -320 0
-59 -85 0
361 -214 0
188 326 0
352 -38 0
388 -259 0
-397 -213 0
322 321 0
183 319 0
-44 41 0
52 50 0
-179 -391 0
201 56 0
-186 263 0
-221 321 0
-397 94 0
-393 -48 0
-211 53 0
-82 -187 0
176 -1 0
370 70 0
-113 -387 0
125 47 0
291 281 0
321 -211 0
6 -409 0
-193 130 0
-406 -186 0
-165 -115 0
162 100 0
305 134 0
-28 -55 0
-127 -362 0
-129 -14 0
273 124 0
73 -325 0
108 24 0
91 348 0
384 274 0
327 78 0
-18 225 0
-367 126 0
221 33 0
-218 -328 0
58 -104 0
-355 -258 0
401 16 0
-202 -117 0
112 -250 0
-339 -389 0
369 -415 0
153 -87 0
-126 -303 0
199 -154 0
-85 -402 0
327 -299 0
357 -218 0
-241 -271 0
324 246 0
-92 230 0
106 -371 0
148 332 0
-413 181 0
-249 280 0
-126 -411 0
-163 -329 0
89 -69 0
355 -196 0
52 -402 0
-70 205 0
-173 46 0
-393 29 0
178 399 0
-328 21 0
-12 -124 0
-282 172 0
-366 -100 0
-216 196 0
-248 19 0
355 85 0
404 157 0
402 -256 0
335 -147 0
-299 -48 0
17 -77 0
289 139 0
343 27 0
-300 199 0
324 -413 0
-158 -164 0
-234 -162 0
-288 -48 0
-349 -1 0
85 -301 0
-377 412 0
324 226 0
-117 70 0
126 -129 0
376 -282 0
23 234 0
-391 344 0
372 -62 0
-195 -212 0
398 -37 0
-247 -351 0
11 13 0
25 64 0
-169 192 0
-333 -329 0
230 363 0
-398 379 0
161 -175 0
-406 -47 0
84 214 0
-166 -233 0
105 334 0
163 366 0
258 -410 0
9 112 0
112 402 0
71 42 0
94 158 0
242 -392 0
-157 279 0
156 -81 0
-257 -249 0
-209 -306 0
-405 266 0
-113 40 0
389 292 0
222 414 0
-11 -248 0
-52 -154 0
-166 274 0
-136 328 0
133 -178 0
-315 150 0
52 34 0
-388 384 0
-151 -394 0
-147 270 0
376 -20 0
-5 369 0
380 -81 0
-406 40 0
401 357 0
-302 -41 0
324 412 0
-409 -323 0
-122 -123 0
-10 415 0
-12 380 0
-308 -238 0
-409 234 0
112 -410 0
408 344 0
-231 -319 0
-410 187 0
284 -214 0
235 108 0
63 -132 0
-397 -22 0
-8 -31 0
-329 49 0
-272 295 0
77 -75 0
-54 269 0
63 116 0
-166 -160 0
-302 -219 0
-153 25 0
226 235 0
324 -50 0
263 -2 0
-104 -87 0
-397 185 0
-387 -84 0
-349 -174 0
59 254 0
-155 226 0
367 -361 0
-173 241 0
-203 -231 0
-391 -223 0
278 -164 0
-114 35 0
-284 -78 0
-43 -165 0
194 321 0
-158 109 0
-119 292 0
-283 -314 0
-396 -230 0
356 -194 0
-51 -80 0
316 -85 0
302 -395 0
-237 -378 0
57 246 0
217 298 0
-314 -369 0
313 -405 0
60 -300 0
-406 117 0
49 -196 0
226 -174 0
216 398 0
243 -338 0
-47 -233 0
-200 -72 0
366 -206 0
266 370 0
-39 291 0
24 171 0
372 -105 0
370 -140 0
227 294 0
-195 274 0
-317 -5 0
58 97 0
-259 -36 0
289 78 0
-166 357 0
-106 -46 0
28 240 0
246 307 0
-67 312 0
-396 231 0
221 380 0
-16 -189 0
-203 -311 0
164 130 0
-73 -299 0
229 -282 0
359 375 0
-365 -383 0
261 -316 0
41 -103 0
-104 -53 0
253 288 0
-71 115 0
97 -231 0
34 304 0
336 -349 0
-292 53 0
-411 337 0
59 -347 0
-286 -335 0
-131 202 0
-339 -5 0
25 270 0
-252 356 0
310 330 0
197 138 0
45 -23 0
-269 -168 0
68 -374 0
363 353 0
215 -362 0
87 -135 0
341 -294 0
5 25 0
247 147 0
62 264 0
-299 -151 0
163 198 0
-122 296 0
-254 399 0
399 112 0
14 372 0
-396 255 0
-245 195 0
105 -198 0
-181 177 0
2 97 0
-409 323 0
-355 215 0
348 -223 0
-279 84 0
249 -213 0
246 150 0
-317 -233 0
17 321 0
-305 -392 0
-304 237 0
159 296 0
-318 215 0
-316 332 0
170 -150 0
155 -70 0
326 -152 0
-255 -149 0
368 194 0
334 -350 0
-129 -340 0
325 29 0
279 -77 0
-210 -125 0
100 -351 0
-32 313 0
332 -400 0
-5 -83 0
-19 -163 0
108 323 0
-244 -234 0
234 305 0
-14 -212 0
-152 -348 0
-98 355 0
362 332 0
-398 105 0
-283 242 0
-199 229 0
380 31 0
90 33 0
-182 -223 0
-26 -118 0
40 80 0
-328 -196 0
34 23 0
-60 -71 0
153 96 0
-36 -339 0
-34 148 0
-308 -219 0
-359 403 0
323 -158 0
207 -329 0
23 -118 0
-101 -177 0
-144 -248 0
-170 250 0
296 125 0
86 -298 0
2 315 0
-265 263 0
-10 -267 0
168 251 0
-177 310 0
-238 122 0
35 307 0
-408 415 0
309 317 0
-98 60 0
-30 154 0
370 -320 0
93 3 0
110 118 0
-271 129 0
314 94 0
-300 9 0
42 -28 0
278 -306 0
41 -284 0
188 -382 0
404 -245 0
-97 -66 0
384 29 0
-46 -334 0
2 -184 0
3 102 0
-406 284 0
-97 -197 0
-16 41 0
-412 -16 0
242 309 0
403 82 0
-167 -132 0
-137 147 0
111 -69 0
-403 280 0
2 -344 0
403 61 0
-286 141 0
-213 83 0
98 156 0
34 -123 0
101 42 0
-63 67 0
110 -104 0
280 -133 0
153 -21 0
63 -218 0
191 171 0
380 289 0
270 -169 0
-226 -173 0
-100 -202 0
324 -119 0
70 61 0
-344 -200 0
114 403 0
42 175 0
-272 -328 0
401 -94 0
-82 -121 0
2 -297 0
-22 -158 0
151 90 0
141 -300 0
2 201 0
-195 21 0
-151 -278 0
-206 391 0
-132 313 0
360 -320 0
272 -361 0
222 26 0
210 134 0
-83 147 0
-152 378 0
-377 -320 0
233 -81 0
313 -35 0
36 -267 0
-79 -123 0
251 -200 0
367 128 0
398 -258 0
-85 147 0
57 160 0
-132 -256 0
76 -350 0
46 -348 0
-107 -209 0
-219 -1 0
48 118 0
-54 92 0
289 -202 0
-36 7 0
-285 -222 0
313 414 0
-177 118 0
103 364 0
-262 116 0
88 120 0
118 -366 0
-143 -373 0
-131 -98 0
-38 115 0
-97 175 0
96 184 0
196 -45 0
7 11 0
-300 -382 0
161 -409 0
-323 93 0
317 -152 0
-229 332 0
-391 -114 0
-109 -40 0
193 -201 0
83 -172 0
-401 93 0
-232 -288 0
82 102 0
364 -214 0
-212 191 0
163 -152 0
-371 -177 0
-396 -273 0
113 -43 0
-308 302 0
192 334 0
133 37 0
-201 177 0
274 -288 0
-248 -139 0
315 174 0
-338 -237 0
-356 -199 0
13 49 0
-143 -22 0
78 -123 0
-252 -249 0
404 -400 0
45 409 0
-58 -213 0
-360 263 0
-317 201 0
195 -4 0
360 397 0
-196 227 0
81 215 0
-357 115 0
239 -188 0
-264 -303 0
-64 -365 0
364 263 0
-51 -151 0
16 -391 0
-276 181 0
-265 -328 0
-339 109 0
299 58 0
34 -303 0
321 -377 0
-98 -202 0
-304 116 0
61 -179 0
294 336 0
-261 -302 0
25 133 0
250 -302 0
391 246 0
24 345 0
389 -6 0
-145 251 0
-221 240 0
159 -103 0
-396 -95 0
-238 151 0
225 -180 0
-414 386 0
90 244 0
76 -277 0
-75 -308 0
-378 -198 0
-244 378 0
-397 -197 0
-233 34 0
257 254 0
51 -127 0
341 256 0
-329 -142 0
141 25 0
-179 265 0
336 -354 0
360 -121 0
207 -351 0
-195 298 0
278 -330 0
-166 -2 0
76 98 0
124 237 0
-122 345 0
341 335 0
-82 -313 0
359 -143 0
-192 -329 0
-168 155 0
33 337 0
-12 -300 0
175 -89 0
254 -331 0
270 -205 0
-66 48 0
3 412 0
261 -50 0
-381 28 0
-259 53 0
23 150 0
-153 -75 0
-243 -306 0
-15 356 0
188 -331 0
28 -274 0
-134 -381 0
-324 -338 0
378 108 0
-124 384 0
-36 -178 0
-156 360 0
6 -144 0
-139 409 0
255 -5 0
167 69 0
129 -8 0
-322 6 0
-174 -169 0
74 -131 0
-152 392 0
359 -248 0
-393 -392 0
-151 -24 0
364 -365 0
-52 401 0
-267 208 0
9 -385 0
24 -145 0
-241 -118 0
125 -138 0
-146 -354 0
-231 -145 0
39 71 0
-12 -130 0
332 -201 0
257 -383 0
94 89 0
314 274 0
26 361 0
-336 222 0
-95 223 0
269 215 0
333 -331 0
198 -218 0
403 -9 0
-99 -26 0
143 -243 0
389 -121 0
-393 -340 0
-18 263 0
-214 6 0
-141 -63 0
331 153 0
414 -241 0
321 310 0
-186 -71 0
-400 311 0
386 -7 0
66 230 0
21 -60 0
-329 -254 0
152 -339 0
-36 -369 0
-276 -6 0
54 -396 0
162 364 0
414 -216 0
21 294 0
342 84 0
319 50 0
228 315 0
-391 191 0
-211 215 0
-198 -11 0
-2 -272 0
39 121 0
-163 394 0
-328 27 0
327 375 0
-338 78 0
177 360 0
-71 380 0
-43 316 0
305 -65 0
253 -259 0
204 388 0
283 153 0
110 145 0
-198 75 0
15 223 0
373 -201 0
-356 -30 0
315 147 0
297 -52 0
34 332 0
273 165 0
-78 -306 0
114 24 0
-166 -117 0
225 -223 0
-302 366 0
191 -126 0
182 -152 0
-36 222 0
142 77 0
-295 -351 0
-375 295 0
27 -151 0
-252 -166 0
379 -2 0
-251 -346 0
-258 280 0
-22 -243 0
-188 -11 0
228 -3 0
154 77 0
404 402 0
-8 -188 0
127 153 0
364 284 0
115 75 0
-368 -238 0
-189 295 0
322 -233 0
270 151 0
380 250 0
269 -382 0
-4 394 0
-238 390 0
61 270 0
-201 235 0
373 -144 0
51 382 0
246 -336 0
103 190 0
203 201 0
-199 155 0
-318 391 0
-286 -36 0
415 -105 0
246 -204 0
221 21 0
-244 -62 0
-53 -59 0
128 17 0
-20 -260 0
305 51 0
238 188 0
144 33 0
-144 261 0
100 70 0
35 108 0
-189 -272 0
-132 375 0
-293 -331 0
295 -234 0
-201 25 0
-331 227 0
93 311 0
