c NF
p cnf 467 1915
-293 181 0
404 -124 0
-466 212 0
285 -206 0
-407 338 0
64 -32 0
-220 23 0
-273 204 0
202 -132 0
-158 52 0
-247 -54 0
429 -359 0
-332 -120 0
-300 235 0
-108 395 0
-381 178 0
-58 -267 0
83 147 0
169 -129 0
305 187 0
-275 440 0
-333 38 0
112 312 0
-28 -321 0
-399 -155 0
219 -315 0
402 8 0
-207 -42 0
239 156 0
257 256 0
-384 111 0
462 204 0
-183 318 0
49 -308 0
-444 201 0
80 139 0
448 -465 0
326 402 0
-283 -165 0
155 -457 0
20 249 0
348 344 0
-97 187 0
-8 434 0
197 379 0
-106 444 0
192 -198 0
234 -107 0
-219 67 0
36 -356 0
-32 -73 0
-41 -388 0
-337 209 0
-149 210 0
-15 322 0
-57 -1 0
39 256 0
68 -183 0
345 455 0
77 -64 0
-287 -446 0
-58 343 0
218 -11 0
226 -404 0
-431 -438 0
427 -357 0
-87 -328 0
362 -237 0
148 2 0
303 43 0
60 -442 0
121 344 0
-108 7 0
204 -371 0
315 -13 0
393 -220 0
427 -87 0
-453 128 0
-108 -300 0
137 -187 0
286 -211 0
-353 -62 0
-391 -126 0
-242 385 0
-160 46 0
28 -219 0
329 -42 0
211 80 0
-57 -285 0
343 -460 0
-161 -336 0
-386 -453 0
-153 461 0
-416 -5 0
-231 67 0
-318 102 0
372 -171 0
-168 45 0
-306 -342 0
-216 -359 0
-338 -306 0
8 -258 0
40 -172 0
-9 -138 0
-439 169 0
113 196 0
-445 -105 0
322 235 0
225 393 0
-110 396 0
387 284 0
-100 186 0
28 333 0
-255 -307 0
-106 -236 0
404 -428 0
11 330 0
190 -200 0
-36 299 0
-51 19 0
454 -32 0
-351 37 0
84 -435 0
10 87 0
-171 88 0
-194 67 0
47 463 0
156 403 0
336 421 0
-130 -387 0
458 -366 0
-43 -192 0
-136 80 0
19 -193 0
39 216 0
438 -21 0
-177 -441 0
457 -249 0
-438 -148 0
-163 227 0
349 -371 0
380 -450 0
-217 -348 0
-441 414 0
-238 102 0
-56 -287 0
256 -130 0
-171 85 0
-136 -33 0
-184 402 0
-101 39 0
418 233 0
-381 90 0
-190 322 0
-328 -79 0
428 272 0
-264 -250 0
300 10 0
-306 227 0
-254 385 0
-221 -238 0
-409 -326 0
345 303 0
-389 455 0
-405 -215 0
-144 114 0
-18 365 0
312 143 0
355 -349 0
401 -359 0
28 30 0
-172 103 0
324 -294 0
246 -86 0
-221 353 0
397 365 0
142 -277 0
-373 -29 0
414 406 0
-226 201 0
-125 -291 0
464 -346 0
69 -339 0
-161 -310 0
-319 397 0
447 -241 0
283 167 0
-440 81 0
-232 338 0
427 158 0
-300 85 0
284 -264 0
-376 -417 0
-117 -431 0
-318 -20 0
302 -450 0
42 249 0
461 22 0
-206 -76 0
348 -79 0
-443 343 0
295 -64 0
407 -109 0
-42 -77 0
-176 151 0
-234 87 0
27 -304 0
18 295 0
-107 -405 0
-353 79 0
-132 -188 0
-431 380 0
131 126 0
-340 309 0
-165 -145 0
341 -257 0
-82 393 0
-299 -271 0
-255 -382 0
133 127 0
-459 335 0
293 151 0
253 -232 0
265 -105 0
-241 114 0
-8 166 0
188 -54 0
84 -69 0
243 -374 0
246 387 0
134 -358 0
171 212 0
399 -332 0
-169 445 0
50 10 0
90 -85 0
-181 -176 0
-88 228 0
-451 268 0
202 -329 0
259 23 0
194 -360 0
379 -124 0
441 98 0
-307 -193 0
-93 -376 0
-391 448 0
415 10 0
-255 355 0
-192 105 0
-420 -462 0
261 -446 0
438 266 0
-364 -118 0
454 -334 0
-1 -438 0
-299 98 0
-183 397 0
93 135 0
-304 339 0
327 -291 0
-316 -143 0
-346 -307 0
196 -333 0
-452 149 0
-180 -156 0
443 -467 0
429 -145 0
228 160 0
-37 -213 0
-260 -351 0
-111 249 0
-158 235 0
289 20 0
341 341 0
-417 -381 0
-269 -47 0
-79 -452 0
-281 125 0
404 142 0
466 -198 0
-453 44 0
155 123 0
-12 345 0
139 -277 0
-107 76 0
-105 -108 0
103 -58 0
-195 -83 0
121 1 0
357 -138 0
325 -48 0
28 166 0
-389 75 0
-415 -417 0
279 -277 0
357 391 0
179 248 0
-373 -291 0
-381 6 0
-297 -316 0
100 -125 0
-79 -112 0
226 -266 0
80 4 0
216 -287 0
-286 416 0
-319 1 0
-160 464 0
136 -65 0
250 349 0
-426 286 0
-410 264 0
-271 -244 0
182 85 0
115 225 0
-353 -233 0
-34 -154 0
403 212 0
-392 -358 0
-298 -374 0
-288 101 0
257 -35 0
39 -297 0
80 -165 0
387 -120 0
115 -362 0
-231 -214 0
-113 402 0
2 -362 0
-258 -205 0
-420 88 0
-74 428 0
253 210 0
19 455 0
-241 57 0
-291 -300 0
458 36 0
-89 -14 0
377 -29 0
214 37 0
-205 -286 0
336 -228 0
-466 186 0
136 244 0
-275 -135 0
-111 -126 0
216 -8 0
-228 354 0
-156 -109 0
-77 111 0
389 343 0
-376 275 0
179 -295 0
-443 416 0
423 -353 0
115 -30 0
-350 228 0
461 -182 0
-415 -371 0
372 38 0
340 10 0
365 -81 0
307 190 0
-195 -15 0
-68 -440 0
-309 412 0
147 171 0
175 -305 0
380 294 0
460 -147 0
-181 -26 0
299 -327 0
112 -153 0
224 234 0
365 203 0
-171 329 0
355 198 0
447 156 0
151 -266 0
-457 462 0
-113 -318 0
-5 -130 0
-252 402 0
287 -168 0
216 226 0
-373 -276 0
-76 321 0
-118 -26 0
-168 138 0
-399 442 0
-171 -126 0
-70 -434 0
430 155 0
-195 65 0
55 458 0
110 -12 0
-10 -231 0
-30 -314 0
145 -273 0
-9 418 0
-213 -299 0
-35 390 0
252 280 0
462 320 0
-463 -291 0
253 301 0
285 -376 0
-120 261 0
-13 -117 0
-195 188 0
-361 450 0
460 410 0
14 362 0
420 462 0
-77 323 0
429 95 0
328 322 0
-384 286 0
233 134 0
-297 -144 0
18 448 0
187 90 0
-386 342 0
111 262 0
-199 138 0
226 259 0
383 -69 0
329 -443 0
-232 -11 0
-299 246 0
237 -166 0
196 87 0
-154 -236 0
128 37 0
448 337 0
430 295 0
464 -167 0
-279 -351 0
-346 -351 0
-318 23 0
355 380 0
-25 246 0
165 422 0
-304 350 0
-307 -7 0
155 354 0
5 -48 0
-132 359 0
27 261 0
258 427 0
-94 -224 0
-238 408 0
-161 -279 0
-453 458 0
-61 262 0
-434 -354 0
-86 374 0
324 181 0
206 123 0
-454 181 0
416 -322 0
119 203 0
44 40 0
-125 -431 0
-332 -454 0
280 375 0
393 -280 0
66 -15 0
139 -133 0
-382 -26 0
-332 -183 0
-240 161 0
-166 -64 0
-71 428 0
242 1 0
-195 -243 0
-417 -22 0
194 140 0
9 235 0
164 -390 0
-106 -433 0
434 -195 0
386 -308 0
-321 -249 0
63 -32 0
8 -12 0
222 -72 0
-115 230 0
-191 -268 0
456 -63 0
23 251 0
226 46 0
371 -255 0
-116 -104 0
-383 297 0
-324 -214 0
-51 -165 0
7 32 0
170 -61 0
50 -161 0
-294 -378 0
-301 -143 0
-57 -162 0
-39 186 0
90 347 0
-289 342 0
-314 184 0
-88 -251 0
-171 80 0
-297 174 0
-166 -336 0
324 -420 0
-350 354 0
228 -164 0
-132 -421 0
-5 -211 0
239 65 0
-386 145 0
-172 6 0
-193 139 0
92 -215 0
-143 -449 0
67 -160 0
268 129 0
60 390 0
-438 -64 0
-430 467 0
39 -48 0
-291 235 0
379 -174 0
-77 -327 0
212 78 0
7 284 0
-229 344 0
-41 119 0
237 -337 0
126 374 0
421 266 0
67 64 0
-148 335 0
-361 -79 0
211 -173 0
89 396 0
205 -65 0
-276 75 0
227 417 0
-452 372 0
-430 -391 0
-444 -364 0
-17 -187 0
-417 -132 0
256 245 0
431 -427 0
65 -258 0
-61 -292 0
372 354 0
-119 239 0
3 -232 0
418 -394 0
-33 -35 0
-174 162 0
218 347 0
-175 -277 0
187 356 0
-419 -58 0
436 168 0
-373 -199 0
-143 -294 0
-319 456 0
110 74 0
-260 7 0
-430 393 0
-445 -12 0
299 346 0
27 -346 0
85 134 0
-187 -73 0
-449 467 0
392 -166 0
204 -11 0
-355 -197 0
353 180 0
-50 428 0
340 457 0
86 -321 0
85 333 0
208 218 0
-214 142 0
3 170 0
-138 -327 0
112 458 0
295 -32 0
210 334 0
-439 253 0
-306 -328 0
408 270 0
248 -241 0
355 380 0
233 187 0
369 243 0
-32 34 0
223 -68 0
433 68 0
-357 226 0
-12 -64 0
-83 261 0
461 431 0
-258 159 0
119 85 0
244 -416 0
322 447 0
-174 453 0
-395 234 0
-352 -42 0
-25 208 0
259 -65 0
389 -351 0
249 197 0
310 272 0
-296 -367 0
43 -84 0
-434 176 0
278 -325 0
422 -305 0
119 -464 0
-316 157 0
131 -168 0
-19 -24 0
-206 -82 0
-384 -432 0
-320 -396 0
-439 -403 0
-129 -214 0
-82 -52 0
400 -68 0
-285 -69 0
-105 362 0
382 -132 0
404 -196 0
-54 75 0
282 -373 0
37 204 0
-99 -171 0
235 -98 0
415 -444 0
-143 108 0
207 -14 0
393 458 0
261 -77 0
140 451 0
15 119 0
-347 122 0
46 -314 0
-165 -182 0
-144 -263 0
18 -89 0
-111 418 0
-30 -410 0
-69 179 0
70 110 0
340 -95 0
-232 -91 0
-399 344 0
-467 -120 0
-137 -369 0
210 19 0
-287 -224 0
414 -117 0
-273 -148 0
-443 -302 0
-314 -224 0
329 -409 0
-95 140 0
243 181 0
-112 31 0
-453 -449 0
226 -90 0
-84 -224 0
-291 137 0
250 289 0
253 -335 0
256 -158 0
249 259 0
-80 -435 0
372 -237 0
134 380 0
210 -137 0
-361 245 0
-178 23 0
-56 111 0
393 405 0
-35 -356 0
71 -283 0
-153 -273 0
19 87 0
-234 421 0
-138 -315 0
-296 -39 0
59 282 0
395 -229 0
-308 -184 0
421 216 0
-61 -388 0
-361 -113 0
423 -98 0
-60 53 0
185 -126 0
-89 272 0
212 26 0
328 -29 0
-454 123 0
-438 -310 0
-126 -40 0
-116 -411 0
-287 -410 0
-159 71 0
259 -449 0
304 342 0
324 442 0
398 330 0
71 -195 0
-154 372 0
103 402 0
111 -2 0
-238 161 0
-378 -444 0
250 -178 0
-99 -138 0
293 -315 0
-294 -219 0
-298 -96 0
-436 -183 0
416 -46 0
149 -25 0
-68 299 0
-409 290 0
436 -461 0
428 104 0
-156 162 0
282 379 0
-405 460 0
415 256 0
-404 -207 0
164 395 0
-211 335 0
-329 313 0
-307 -144 0
379 -327 0
67 78 0
-459 -54 0
-351 -144 0
-209 328 0
85 111 0
372 -297 0
-79 73 0
330 87 0
-10 274 0
-95 456 0
-183 -158 0
393 -205 0
-299 90 0
451 357 0
-259 330 0
111 201 0
-233 313 0
432 -92 0
-105 50 0
-14 -315 0
-367 -40 0
24 -293 0
-283 465 0
-376 -416 0
-352 -443 0
60 127 0
-318 -156 0
208 143 0
403 -227 0
-184 343 0
-414 456 0
422 -353 0
-431 -224 0
211 -270 0
-413 258 0
313 398 0
352 -126 0
238 -264 0
37 317 0
109 -24 0
49 -79 0
182 447 0
-386 167 0
453 -304 0
107 -420 0
458 -386 0
-353 -452 0
376 170 0
364 -310 0
387 299 0
179 -396 0
-380 140 0
401 -82 0
289 239 0
-436 372 0
125 -317 0
164 -192 0
-166 426 0
-218 -72 0
-329 414 0
150 387 0
-114 -304 0
-257 248 0
304 119 0
391 -368 0
372 205 0
24 400 0
-213 336 0
132 208 0
-106 192 0
-248 -361 0
-43 354 0
-434 -242 0
393 -35 0
-205 -367 0
325 -205 0
-11 259 0
-398 196 0
313 428 0
31 -204 0
-154 -338 0
280 195 0
85 156 0
287 -435 0
458 -320 0
225 300 0
-228 -176 0
164 -24 0
-11 164 0
280 132 0
-208 200 0
-231 -373 0
-79 -386 0
416 -361 0
313 -57 0
46 -364 0
158 -175 0
-424 -286 0
-163 349 0
-261 -275 0
55 33 0
119 -178 0
-165 -453 0
262 -405 0
-151 -33 0
-284 -152 0
-12 9 0
7 373 0
409 204 0
-42 -416 0
-354 -106 0
-63 329 0
341 421 0
386 230 0
-291 408 0
-295 10 0
-410 -279 0
-200 -452 0
62 -415 0
45 176 0
3 -342 0
-247 128 0
-130 -449 0
-135 201 0
381 -243 0
71 286 0
-369 122 0
-335 4 0
191 -277 0
344 -229 0
394 381 0
156 379 0
225 -382 0
41 -358 0
103 -264 0
-82 95 0
-309 -213 0
-338 274 0
-73 200 0
6 -71 0
314 -306 0
-152 3 0
-64 -51 0
445 -397 0
1 -364 0
58 -263 0
337 -369 0
-168 123 0
464 256 0
355 287 0
-30 6 0
393 98 0
203 -219 0
-103 -360 0
6 353 0
381 413 0
463 -70 0
-99 -273 0
-355 408 0
-168 -175 0
-256 -358 0
-154 -68 0
204 302 0
-130 134 0
-76 122 0
285 84 0
-373 -58 0
-292 -418 0
-460 423 0
-247 -169 0
-251 -370 0
141 463 0
-308 -207 0
369 256 0
424 200 0
143 -437 0
225 162 0
-16 351 0
-136 -394 0
-337 189 0
-429 -306 0
-326 -277 0
370 306 0
-298 -312 0
-37 92 0
-397 -76 0
-153 -238 0
-385 -376 0
157 270 0
-86 -405 0
-195 164 0
-195 -234 0
-154 -325 0
-317 -212 0
354 262 0
-310 -88 0
-213 -67 0
-240 -264 0
88 246 0
377 -293 0
31 -386 0
228 -219 0
-337 445 0
-144 -316 0
93 150 0
117 392 0
-260 -215 0
262 -39 0
-109 283 0
-167 114 0
-177 181 0
58 -21 0
-459 -83 0
48 270 0
89 55 0
-340 137 0
-453 -42 0
416 92 0
-141 403 0
392 381 0
414 387 0
325 -143 0
-350 272 0
167 -361 0
98 208 0
-337 374 0
309 318 0
-418 -12 0
129 -26 0
228 262 0
-162 -15 0
256 -260 0
399 -49 0
52 36 0
80 -446 0
1 -116 0
233 -177 0
163 -133 0
227 7 0
165 -207 0
-91 431 0
183 115 0
-385 372 0
-347 -63 0
269 -420 0
245 -428 0
189 212 0
267 -86 0
-266 265 0
-264 -86 0
315 -317 0
-152 169 0
-229 -324 0
270 -216 0
427 328 0
463 -132 0
-97 330 0
391 365 0
-27 -214 0
330 249 0
322 17 0
-266 -437 0
286 -165 0
194 333 0
357 -459 0
275 -166 0
-255 342 0
243 257 0
322 -318 0
128 280 0
-13 366 0
-307 330 0
-273 4 0
216 75 0
415 169 0
236 325 0
95 -72 0
-116 166 0
40 389 0
-12 -221 0
411 -361 0
279 93 0
418 303 0
205 -332 0
340 290 0
-171 312 0
-186 -318 0
267 446 0
-89 244 0
196 -173 0
-106 3 0
43 -34 0
-298 -33 0
61 38 0
-442 -144 0
-311 345 0
-316 37 0
-311 41 0
-172 -354 0
378 -410 0
329 -64 0
-183 -419 0
177 416 0
-324 243 0
261 94 0
-358 290 0
-457 226 0
-30 -54 0
246 28 0
-232 -371 0
464 -117 0
203 -56 0
-48 -333 0
-120 -269 0
-112 -154 0
281 -54 0
88 313 0
269 134 0
-415 444 0
68 244 0
-334 63 0
-376 -410 0
194 90 0
357 -40 0
-68 -182 0
261 211 0
-237 98 0
-328 430 0
-359 -461 0
-327 -128 0
203 -182 0
385 187 0
-267 -152 0
355 -28 0
309 354 0
325 129 0
389 -426 0
-166 178 0
238 203 0
170 -292 0
11 -49 0
176 379 0
363 -309 0
282 88 0
-450 -174 0
-98 -434 0
150 -454 0
-222 381 0
-360 42 0
455 -171 0
-41 -89 0
-13 -426 0
-295 -410 0
-276 250 0
-345 235 0
36 23 0
-158 141 0
131 -257 0
301 235 0
-173 -125 0
-146 188 0
-222 -73 0
243 69 0
-73 -443 0
-425 -21 0
-127 -165 0
425 365 0
-317 391 0
-277 -126 0
-192 442 0
406 -467 0
320 -17 0
426 240 0
27 -361 0
-271 -172 0
-136 -86 0
-99 187 0
74 -351 0
-444 47 0
-11 -379 0
-175 56 0
-195 454 0
-34 234 0
-168 91 0
-323 387 0
261 -203 0
-26 -54 0
259 342 0
454 70 0
359 127 0
-241 -177 0
-30 -31 0
370 300 0
-121 355 0
454 -355 0
-251 -157 0
-403 -435 0
127 136 0
-248 404 0
-410 -293 0
406 289 0
-295 301 0
-153 -20 0
-133 182 0
216 -243 0
-216 -112 0
388 -166 0
366 239 0
230 278 0
-156 -413 0
-29 -207 0
211 50 0
-234 208 0
456 159 0
-158 349 0
290 -202 0
-453 -149 0
414 70 0
-464 425 0
170 406 0
279 -409 0
243 -176 0
74 370 0
-32 -449 0
90 157 0
240 -22 0
244 364 0
-235 -351 0
-232 45 0
-467 -37 0
-110 -13 0
8 -104 0
285 -190 0
-318 148 0
401 217 0
-405 -182 0
-260 -291 0
-33 463 0
31 321 0
75 -416 0
414 203 0
92 346 0
-252 53 0
429 344 0
309 -461 0
423 -231 0
211 309 0
-5 29 0
140 -148 0
129 433 0
-176 75 0
60 -236 0
31 -165 0
461 -274 0
31 282 0
146 201 0
167 -425 0
439 227 0
-419 85 0
78 -43 0
-42 337 0
438 446 0
-273 128 0
-120 -121 0
241 -438 0
-327 112 0
-145 -117 0
-373 -112 0
-72 -168 0
-467 28 0
-454 -141 0
-103 93 0
135 -94 0
-233 -150 0
-268 208 0
31 -408 0
-384 164 0
228 329 0
278 -285 0
2 -285 0
-297 464 0
456 101 0
-300 -337 0
-160 -417 0
-391 250 0
-412 137 0
-108 365 0
67 281 0
-148 -175 0
353 343 0
-366 229 0
-409 -337 0
-133 287 0
290 -427 0
380 77 0
-126 167 0
30 349 0
336 454 0
412 -295 0
-361 -146 0
-236 -437 0
270 -79 0
178 97 0
-231 118 0
93 -194 0
-345 89 0
-315 334 0
191 52 0
-437 159 0
-41 120 0
-449 387 0
272 35 0
-291 154 0
343 71 0
-57 266 0
-405 -17 0
243 -384 0
-68 370 0
336 -352 0
-212 343 0
-319 278 0
-152 -377 0
-367 166 0
446 -255 0
324 -258 0
384 118 0
-440 420 0
341 256 0
-206 322 0
464 -100 0
-409 187 0
146 -304 0
-49 299 0
-80 1 0
111 -11 0
215 -409 0
127 -435 0
-224 -373 0
-369 -41 0
-247 289 0
-381 -5 0
-131 -143 0
341 -265 0
-161 -309 0
92 -296 0
-401 7 0
190 -65 0
-432 53 0
202 -42 0
-444 44 0
333 462 0
323 -297 0
-104 -92 0
151 345 0
243 127 0
202 -366 0
246 -200 0
102 -415 0
-348 215 0
-443 -347 0
-48 397 0
301 38 0
-106 -332 0
-232 186 0
-134 -437 0
433 -166 0
-79 -269 0
452 91 0
181 145 0
-25 40 0
-120 461 0
335 -232 0
-415 124 0
164 93 0
-79 -302 0
203 -217 0
-275 230 0
119 -345 0
-334 -433 0
204 -253 0
-115 -184 0
223 87 0
273 249 0
296 -32 0
92 39 0
407 -76 0
158 250 0
60 85 0
-351 -311 0
329 239 0
-331 188 0
105 400 0
208 -240 0
76 -396 0
-440 -254 0
-14 324 0
46 270 0
356 394 0
372 -20 0
361 -161 0
-126 -451 0
270 235 0
-274 -22 0
-380 -378 0
-32 -460 0
159 -302 0
111 39 0
418 -403 0
-231 199 0
78 75 0
386 335 0
-258 -233 0
-453 198 0
-293 83 0
439 -415 0
300 119 0
-56 -315 0
-193 377 0
155 104 0
-77 347 0
-54 305 0
66 -306 0
-300 -183 0
123 212 0
-427 188 0
203 -450 0
130 91 0
201 -287 0
115 4 0
-314 453 0
-239 211 0
436 92 0
445 393 0
-149 -276 0
257 317 0
138 -14 0
411 458 0
167 -385 0
-108 17 0
-448 40 0
15 426 0
123 437 0
23 -313 0
455 124 0
-353 -64 0
151 330 0
445 -295 0
-296 98 0
144 431 0
-163 6 0
343 -391 0
-296 115 0
270 295 0
-233 374 0
288 -148 0
-214 25 0
-317 166 0
-22 -341 0
-281 2 0
381 17 0
399 -252 0
192 -64 0
19 428 0
395 118 0
318 28 0
212 -313 0
-397 -404 0
-298 74 0
-447 -217 0
117 -199 0
-193 118 0
-142 4 0
-98 186 0
-467 -401 0
-401 -59 0
-269 391 0
-398 -449 0
300 131 0
-360 -247 0
41 457 0
78 115 0
-232 324 0
371 -126 0
-136 226 0
-456 -69 0
221 324 0
389 -58 0
-136 272 0
342 -254 0
458 -386 0
-20 -102 0
-207 -32 0
210 17 0
-258 50 0
263 95 0
187 111 0
-219 104 0
282 384 0
8 18 0
-260 -129 0
88 37 0
178 -85 0
-387 -214 0
-16 -91 0
-383 -386 0
-267 283 0
195 -332 0
363 137 0
-20 -349 0
50 -397 0
89 362 0
465 -428 0
-369 209 0
-104 -136 0
-11 -160 0
385 384 0
-357 -191 0
75 -9 0
-193 -342 0
84 -69 0
322 -37 0
-178 -156 0
-380 188 0
236 412 0
260 43 0
-291 -91 0
-353 219 0
-221 -156 0
429 -332 0
-193 -437 0
-102 -384 0
-236 278 0
-438 -287 0
-148 -247 0
208 -307 0
284 93 0
-11 -356 0
279 -228 0
457 26 0
-290 63 0
380 -187 0
114 75 0
-291 220 0
285 -427 0
-29 -31 0
-94 286 0
108 432 0
1 -55 0
-379 -407 0
329 16 0
256 403 0
-213 -336 0
4 -212 0
150 74 0
10 -183 0
-158 -342 0
392 -410 0
346 256 0
-59 205 0
33 167 0
294 66 0
406 -376 0
-152 372 0
-143 388 0
189 -5 0
-360 19 0
-64 370 0
-266 -82 0
-290 155 0
256 228 0
55 203 0
-69 -347 0
405 10 0
162 384 0
-96 -13 0
187 -351 0
-373 1 0
257 -435 0
392 -192 0
-109 388 0
334 98 0
-179 180 0
458 -21 0
-90 157 0
254 -242 0
-215 411 0
388 -232 0
-51 270 0
325 394 0
-221 222 0
-177 13 0
-389 325 0
-428 -209 0
-328 -222 0
-327 111 0
233 -34 0
-206 204 0
-152 48 0
298 179 0
1 -139 0
147 -56 0
56 -83 0
-135 -81 0
-292 196 0
-366 -377 0
395 246 0
-46 399 0
-229 -452 0
-467 161 0
-135 340 0
-232 298 0
-168 -160 0
-229 -273 0
101 -297 0
-106 -399 0
232 -258 0
214 286 0
270 431 0
135 -86 0
-332 33 0
453 -5 0
-177 74 0
-467 174 0
245 -296 0
-69 210 0
311 -328 0
381 47 0
433 -229 0
-160 272 0
-247 396 0
50 -378 0
-449 319 0
77 463 0
-162 377 0
-15 361 0
-355 227 0
-115 100 0
-300 -194 0
-306 429 0
-390 42 0
96 362 0
-159 -34 0
362 199 0
239 -399 0
-56 -133 0
-221 -230 0
-417 -84 0
401 -3 0
268 62 0
-264 127 0
270 21 0
451 -16 0
-153 463 0
98 -14 0
72 -242 0
203 -185 0
-440 212 0
-104 380 0
143 -144 0
429 280 0
354 -81 0
137 -49 0
142 208 0
295 -318 0
-17 -352 0
-9 -26 0
-219 106 0
86 -415 0
325 40 0
-10 18 0
-340 74 0
-367 153 0
226 161 0
305 -415 0
-458 402 0
221 -72 0
370 -221 0
283 139 0
-302 391 0
105 -213 0
-353 -420 0
-133 -24 0
456 74 0
-28 -41 0
-275 -252 0
-216 -149 0
-125 131 0
-108 289 0
236 157 0
89 240 0
179 -258 0
384 -145 0
264 -34 0
198 -58 0
-383 188 0
-182 336 0
-397 418 0
55 -353 0
147 -287 0
70 -1 0
-134 393 0
370 447 0
93 276 0
-277 -350 0
-173 -336 0
-318 10 0
-8 394 0
196 -467 0
266 231 0
71 -72 0
-361 -302 0
-32 -300 0
-277 288 0
212 141 0
-7 411 0
-366 438 0
56 -8 0
342 -62 0
330 -20 0
446 -258 0
97 375 0
69 -106 0
45 -84 0
-145 -400 0
-174 423 0
-5 -224 0
-358 87 0
370 195 0
164 -145 0
47 393 0
-251 -1 0
-134 349 0
-419 -152 0
241 -163 0
-112 396 0
138 -94 0
228 455 0
150 3 0
-214 284 0
411 228 0
-113 301 0
-260 71 0
325 -250 0
309 125 0
-327 -143 0
181 7 0
408 119 0
336 -358 0
211 56 0
-286 -209 0
1 33 0
-96 -38 0
223 162 0
12 -276 0
442 -14 0
167 -116 0
-361 278 0
-241 88 0
-345 -332 0
60 126 0
377 -314 0
-242 -205 0
-353 -360 0
-419 314 0
-139 -172 0
-326 -304 0
177 39 0
-440 37 0
-337 165 0
27 233 0
-9 -193 0
-72 326 0
-57 14 0
-443 -175 0
-199 114 0
-409 312 0
422 -453 0
-275 442 0
195 274 0
-446 -291 0
309 -79 0
130 -86 0
-106 146 0
-249 329 0
-346 -33 0
222 -30 0
-227 -205 0
46 261 0
414 -25 0
464 -347 0
-64 -178 0
118 383 0
342 -269 0
451 -425 0
-263 -171 0
-463 312 0
225 -389 0
-17 158 0
-436 140 0
336 117 0
-195 -450 0
389 -81 0
-295 -109 0
-14 -322 0
294 -34 0
-281 -197 0
-8 -238 0
-373 140 0
235 156 0
-173 151 0
384 -424 0
-376 81 0
-120 -362 0
140 389 0
213 -307 0
353 -113 0
431 -418 0
-409 267 0
-173 -308 0
211 402 0
-61 -25 0
-171 100 0
209 159 0
142 -283 0
-86 -209 0
182 -314 0
151 -223 0
-375 461 0
-67 377 0
-386 -86 0
-438 -74 0
411 55 0
-192 44 0
-258 139 0
429 -34 0
-83 458 0
-184 -438 0
-334 234 0
19 -22 0
245 237 0
-130 -328 0
24 186 0
341 323 0
286 -112 0
-114 340 0
45 -182 0
-322 -231 0
-361 -105 0
157 326 0
6 -434 0
-149 -99 0
-16 -58 0
30 -241 0
-438 95 0
-166 -213 0
-39 -409 0
136 -453 0
346 -333 0
216 55 0
-12 260 0
-360 -51 0
-439 259 0
-21 189 0
152 -287 0
59 -281 0
-358 -119 0
230 127 0
421 113 0
243 -365 0
387 -442 0
1 -270 0
-30 -69 0
-376 -279 0
398 -184 0
347 218 0
-219 74 0
-277 216 0
272 382 0
-26 -242 0
368 -293 0
-258 19 0
102 259 0
-114 253 0
284 -254 0
-367 -301 0
389 -379 0
355 -319 0
-72 85 0
175 324 0
-403 75 0
-242 404 0
79 187 0
63 72 0
433 131 0
119 448 0
-406 336 0
-126 127 0
-146 -163 0
71 -314 0
-138 338 0
107 -233 0
166 -21 0
-353 261 0
-257 -287 0
111 330 0
3 -128 0
-108 -323 0
-321 234 0
250 -107 0
32 239 0
-289 -64 0
-214 65 0
177 27 0
163 -205 0
28 237 0
-15 -334 0
27 -307 0
-18 55 0
-255 -308 0
448 -343 0
-258 177 0
52 349 0
-266 326 0
-209 -451 0
-6 -384 0
301 9 0
-99 -11 0
-311 234 0
162 295 0
-290 309 0
164 -282 0
-343 -158 0
31 89 0
-45 52 0
-46 -108 0
-361 87 0
145 -35 0
-327 -90 0
464 -467 0
-228 330 0
433 38 0
-387 -117 0
-233 40 0
436 335 0
365 -112 0
342 448 0
264 363 0
428 -464 0
203 -388 0
411 -175 0
-467 243 0
303 252 0
180 386 0
351 -263 0
446 -305 0
128 -245 0
-219 375 0
-144 -367 0
-46 -304 0
105 71 0
189 283 0
-143 330 0
29 226 0
-121 101 0
421 -6 0
106 261 0
