c NF
p cnf 4387 10968
4242 1300 0
326 3753 0
-2744 4349 0
-487 837 0
1594 -2671 0
175 -3624 0
3838 289 0
3669 4191 0
-2471 -3870 0
-1929 2008 0
2331 966 0
-3021 -4273 0
3812 -2530 0
-837 4260 0
-2566 -134 0
1585 1583 0
3498 3815 0
2866 3186 0
1997 3446 0
3917 3784 0
-2515 -625 0
-828 838 0
2667 -889 0
-1400 -3100 0
758 -2844 0
2821 1197 0
1774 1396 0
3797 -1740 0
-1387 66 0
2988 512 0
-3873 -1312 0
-2897 2076 0
3602 -4172 0
374 3642 0
-1870 2376 0
1502 -4340 0
3512 -2272 0
4191 -2068 0
-2108 -1395 0
302 -2646 0
3196 3254 0
1999 641 0
-4349 -460 0
-3054 2997 0
-4338 -1199 0
-3308 -881 0
437 1084 0
2772 1550 0
-2107 1953 0
-456 49 0
3908 -3321 0
-1791 3668 0
3692 -3572 0
2845 -2491 0
3673 -4273 0
2437 3265 0
1577 184 0
-4332 -4131 0
-473 -2669 0
-3610 -300 0
-2522 2944 0
-4075 -3083 0
-106 3765 0
3 447 0
3642 -2166 0
3424 -965 0
2293 710 0
-2367 -1778 0
-125 2327 0
3731 -14 0
834 -4348 0
532 -872 0
975 -1580 0
2309 3899 0
3419 3666 0
-1449 -737 0
-79 3616 0
3673 3950 0
3958 1558 0
1402 88 0
209 1337 0
1832 1424 0
2347 -1095 0
3450 2937 0
-2007 -626 0
1382 377 0
2666 -589 0
-2136 773 0
-381 834 0
2725 1547 0
1415 2477 0
1645 -1444 0
-123 3858 0
2471 1897 0
-2569 3599 0
631 -535 0
-580 2122 0
-1310 -2145 0
-466 -2661 0
-519 -3768 0
2315 -435 0
-4065 3459 0
48 -2007 0
-3240 2229 0
3838 -3600 0
4167 -3418 0
730 4125 0
-43 -3396 0
1268 2386 0
3743 -3376 0
-2567 791 0
4217 3549 0
3972 4117 0
3267 -1923 0
-1942 133 0
-4015 -3681 0
3205 -2705 0
-4348 3229 0
-3366 -2841 0
4105 3577 0
-3687 -2987 0
-456 2407 0
-387 440 0
-83 -499 0
-3367 -118 0
389 -898 0
1157 2448 0
599 -101 0
-1434 -3875 0
-1444 -3448 0
2133 2752 0
-1545 939 0
-2246 -4119 0
-2623 -3632 0
-3468 -3927 0
-1108 1929 0
2263 3183 0
595 1555 0
-3184 -1064 0
-3058 3191 0
199 -3222 0
4117 3640 0
-3030 -3538 0
4106 -1679 0
4268 -123 0
-1927 3658 0
2135 -3006 0
2011 2174 0
-2544 1656 0
-499 -3959 0
-4373 733 0
-1976 -1857 0
4289 -867 0
2478 4360 0
3086 -3414 0
3110 1972 0
1213 4298 0
3819 -3499 0
145 -1350 0
654 -3749 0
3055 -2847 0
1913 1743 0
-1132 -1471 0
-3009 -3142 0
-192 -445 0
-28 180 0
-4243 792 0
-2053 2324 0
-1868 1959 0
2711 -604 0
3964 -3393 0
-1810 -2687 0
1331 3091 0
1486 -566 0
3203 -1894 0
3054 -3351 0
375 1793 0
-3829 4166 0
1409 1837 0
-4240 -2672 0
3910 -63 0
4220 -3397 0
3084 -1229 0
-1470 1790 0
501 866 0
4235 -634 0
-1855 -164 0
-293 -3686 0
3816 -1183 0
-84 253 0
-3802 -1852 0
-3413 137 0
-1752 511 0
-686 3160 0
677 -4184 0
-1350 -428 0
-3686 1600 0
-2082 2800 0
1196 -3328 0
3275 4006 0
-1212 -2731 0
899 -534 0
3064 3759 0
239 3402 0
-1809 216 0
-2627 -2416 0
-3892 3890 0
-324 -2562 0
-2720 -1364 0
4326 813 0
-562 3573 0
3674 -2178 0
-2779 -770 0
-3202 1202 0
-3699 97 0
3081 2389 0
-1121 -4279 0
-1651 -4140 0
-4321 990 0
2871 -3506 0
4177 3823 0
-903 -3342 0
3034 -1729 0
-2165 -3307 0
3368 -4047 0
-757 1318 0
-2674 3878 0
2335 -3843 0
4082 214 0
-1928 -892 0
623 3565 0
-1026 -3930 0
3185 -1298 0
-2433 2581 0
2107 -4059 0
-3925 3548 0
-2031 -3031 0
-1071 3367 0
3594 -729 0
-715 -1923 0
-2898 603 0
148 -3416 0
2991 917 0
3533 -1828 0
-1012 -3071 0
-407 2515 0
2031 -1518 0
-4356 -2493 0
2212 752 0
-3954 2421 0
-3032 -4076 0
2625 -2684 0
-1126 -3151 0
3668 -1032 0
3400 -2777 0
1810 -2860 0
-1815 2468 0
1161 2852 0
-2812 3249 0
-53 -3032 0
-3925 -1231 0
129 932 0
2333 -428 0
-766 1989 0
338 481 0
1488 -1844 0
2464 1493 0
-1472 -1448 0
4177 1765 0
1493 2867 0
1064 -611 0
-710 2288 0
-2305 548 0
4296 -1935 0
23 -4175 0
-3025 -2976 0
1087 1245 0
4202 -4317 0
-1485 1102 0
-2152 -1546 0
-1368 2821 0
-3635 2287 0
2492 -1557 0
-2124 -3267 0
377 2371 0
745 -3679 0
-477 -1043 0
1490 -2233 0
3235 -608 0
3765 3629 0
-688 3942 0
4251 1341 0
1448 -2305 0
-1703 718 0
-297 1572 0
-3340 2044 0
-2584 -410 0
4301 -718 0
-3857 3160 0
111 922 0
53 3973 0
-1759 630 0
-4305 -3702 0
2481 2974 0
1665 -708 0
1866 -3700 0
3322 -539 0
-2607 -2030 0
1390 -3328 0
-2740 -4044 0
480 1651 0
-978 4190 0
1160 -864 0
494 -2555 0
-2181 -1943 0
2061 -1775 0
1525 -48 0
-2028 -4199 0
-1147 3597 0
1537 -2170 0
-2790 432 0
2359 -1168 0
4216 -2823 0
-58 -2960 0
1660 -1628 0
740 770 0
-586 4355 0
1058 243 0
-3936 394 0
2655 3836 0
-238 931 0
903 -549 0
-2697 2268 0
-472 -3181 0
-59 4277 0
-3346 2930 0
-241 4122 0
701 2027 0
1266 2405 0
-429 -3770 0
2830 1996 0
-2334 -354 0
3838 1675 0
2261 1487 0
802 -2484 0
1934 -1219 0
4298 -3871 0
-383 -410 0
-806 -2901 0
427 1009 0
-3032 -723 0
-2042 298 0
-2077 -3544 0
-842 -2940 0
3231 -3953 0
3966 -4258 0
-3513 -3038 0
3877 2830 0
-2374 -2513 0
2125 1517 0
532 -3556 0
-2697 833 0
-1408 2875 0
3042 1287 0
3135 -3976 0
-432 2578 0
810 -150 0
3504 -1659 0
2762 -1372 0
780 -2943 0
-3395 654 0
-2005 -2619 0
4283 3187 0
3071 168 0
-4022 440 0
-2359 129 0
143 1102 0
129 746 0
968 3853 0
901 4204 0
3818 -2745 0
3478 -377 0
-2450 -2088 0
-1628 -1819 0
4025 -1754 0
-292 258 0
2071 -786 0
15 2012 0
-647 -1884 0
3534 1700 0
-1915 3493 0
4354 3534 0
2015 -1270 0
-862 -424 0
-3509 -4005 0
-1659 -4091 0
-1376 -2949 0
-3769 -1409 0
1205 3404 0
2419 2014 0
-3442 -4139 0
-843 -2773 0
-1445 1621 0
2242 -1312 0
-715 2189 0
-4307 4069 0
778 397 0
-3134 442 0
-2307 4175 0
455 -3689 0
1776 3757 0
498 -1923 0
-1440 -3355 0
-3721 46 0
1057 3434 0
2961 3930 0
-478 -684 0
3381 933 0
99 -2824 0
-616 734 0
-3005 2188 0
121 1409 0
-3802 1025 0
-264 -483 0
595 -1652 0
2262 617 0
834 -3134 0
1558 1561 0
-1441 -910 0
1812 -1441 0
2160 2526 0
1710 -2109 0
3381 4245 0
3601 -1421 0
2466 -1818 0
2369 -1904 0
-1063 -1228 0
-2439 -2399 0
-587 1561 0
-2318 4165 0
-3749 -896 0
-1027 1632 0
3632 -4227 0
-2679 -208 0
-3957 2016 0
-1920 1711 0
-2060 -4152 0
-2704 3835 0
-3256 1399 0
-3726 4290 0
-2360 4020 0
-1717 -182 0
-2291 -1638 0
-1666 1542 0
-1570 -1219 0
-115 1590 0
506 -3088 0
3134 -1714 0
1246 594 0
-2743 4024 0
-2749 -3564 0
1687 3600 0
-775 2791 0
1730 -651 0
-3230 -4254 0
4307 -3700 0
-3339 -2091 0
-3754 3215 0
2103 -260 0
-1305 1216 0
4100 -3337 0
4202 1087 0
952 2563 0
-3367 2425 0
-2161 612 0
3908 2509 0
-1456 2634 0
931 2961 0
166 -2325 0
4214 -1377 0
1755 -3270 0
2561 -471 0
-3147 3676 0
1876 -2204 0
-2106 -3783 0
3042 -732 0
-2540 -3159 0
60 -3819 0
-1586 -2026 0
-319 -2325 0
650 2154 0
455 1379 0
-827 -3434 0
-442 -1694 0
4366 -3540 0
-1514 -3672 0
-2640 -3974 0
-656 3455 0
4216 -2080 0
2348 -357 0
-4071 -1503 0
3217 1107 0
-3291 -426 0
4182 4317 0
4096 40 0
1457 -4147 0
-4079 1930 0
-3830 -3910 0
3387 -2511 0
-48 -4249 0
-2880 1058 0
-2619 2333 0
-529 185 0
3280 2175 0
-4369 -1862 0
-1172 3508 0
-2018 1531 0
-1926 1790 0
176 2486 0
2591 1764 0
1782 1734 0
-810 -2562 0
-3870 1466 0
-4077 -1989 0
4347 -1081 0
103 2928 0
372 3280 0
3622 866 0
-893 -3672 0
2422 -945 0
-1375 4323 0
811 -3956 0
-946 967 0
3290 2356 0
-2371 -3437 0
-641 -2571 0
-910 -292 0
-1193 -4330 0
1371 3338 0
2024 1653 0
3894 2037 0
1971 3025 0
-3934 -1793 0
-48 -2535 0
1112 3850 0
3505 -1918 0
-3105 -2809 0
4371 988 0
-376 -828 0
1793 1571 0
1699 2786 0
-2778 924 0
1801 1392 0
-2978 -1263 0
1236 780 0
-3383 -2239 0
-2725 -116 0
-4337 -3948 0
-195 -4110 0
1883 -4275 0
-3275 -3095 0
202 -1566 0
-1975 -185 0
3014 3335 0
2012 -3385 0
-3373 -321 0
-1511 109 0
3707 3257 0
-4270 -3947 0
4014 -3536 0
2358 -1253 0
-2124 1595 0
-939 -5 0
2944 913 0
4010 -1793 0
2911 -4141 0
-3607 2164 0
2236 -350 0
17 235 0
1726 580 0
-1121 4315 0
739 -3030 0
1373 2545 0
-2395 -974 0
787 -526 0
2392 -844 0
-934 -3707 0
-2904 -3620 0
-831 799 0
-4345 -1534 0
1867 -909 0
747 -3113 0
-208 -4024 0
-3332 -1968 0
1287 1652 0
1119 -413 0
3678 -2770 0
-1967 -2994 0
149 2193 0
4063 3229 0
-704 585 0
2344 2572 0
-4063 2932 0
816 -1015 0
3069 3379 0
-537 1829 0
3962 2798 0
-4164 3377 0
-285 300 0
-446 -810 0
-2881 2138 0
3090 -1679 0
2125 614 0
370 -4361 0
-3213 2393 0
-3830 -3510 0
3767 2532 0
-4118 1611 0
4315 3899 0
-3150 1783 0
-1255 1477 0
-3089 -363 0
1364 -1751 0
569 2831 0
-244 2421 0
-3225 -1261 0
1980 -2571 0
812 -581 0
-364 -107 0
-3374 -1056 0
443 -3679 0
-2797 3734 0
-1950 4294 0
316 -2181 0
-123 2668 0
1043 2356 0
-3995 -4076 0
812 1815 0
2625 3149 0
-1668 2191 0
4172 4201 0
-4040 3223 0
-1261 1771 0
-1699 3145 0
-54 -40 0
-1498 -950 0
-4030 3495 0
-3735 1323 0
1363 -1756 0
-2610 1321 0
1886 -1605 0
3567 4356 0
-378 64 0
2828 378 0
1594 2958 0
3182 -104 0
-2307 343 0
-3457 -2308 0
-3921 -3226 0
-2634 -1260 0
-2844 -242 0
1163 -1735 0
-3049 703 0
-3519 -1056 0
2185 2084 0
1980 2763 0
-350 1586 0
3057 -4065 0
-2241 -3579 0
1459 -1464 0
-3763 2860 0
1778 -3717 0
-1720 4386 0
-4252 1709 0
-84 1003 0
-32 3008 0
733 849 0
3371 -1126 0
3636 -4352 0
-2037 -4280 0
739 -2713 0
835 -3748 0
1035 -2637 0
-1372 2479 0
-2197 1751 0
3194 2557 0
-1140 -756 0
3290 -1748 0
1810 -509 0
-3503 -3681 0
2447 -2488 0
-3266 -1350 0
-651 638 0
-1779 895 0
-2344 -2644 0
3069 2837 0
2972 -2325 0
2321 -809 0
3719 1403 0
-2951 -4370 0
827 2418 0
-969 -2773 0
-4354 3380 0
-501 -1455 0
-4 -150 0
-1462 -1927 0
682 -2713 0
3145 -2623 0
3070 -4200 0
-182 2242 0
-3101 -1841 0
-1221 -210 0
-1927 -2243 0
-1975 -411 0
1092 1267 0
-3123 2081 0
2009 -2476 0
887 -2980 0
2419 -493 0
1789 3892 0
-3550 -2796 0
-2745 -2799 0
4366 -663 0
2330 1040 0
-1319 3746 0
-2064 4106 0
-4128 1585 0
3615 -2798 0
-2236 -3153 0
-434 -16 0
4208 24 0
-136 -2566 0
3003 1805 0
-1082 3609 0
4330 236 0
-1412 -2478 0
2833 73 0
-3770 3939 0
-2996 2690 0
979 -4351 0
2770 -3363 0
1492 4071 0
-230 -3119 0
4129 -2821 0
-274 -700 0
240 -3096 0
-4252 -1013 0
2532 -3043 0
-1478 1235 0
699 2875 0
-3584 -1405 0
3509 -2933 0
-1629 -3618 0
-179 -2928 0
-2390 -2479 0
2750 4092 0
2624 -3908 0
1659 607 0
3197 1457 0
1632 -3797 0
-3050 -1498 0
4306 1977 0
3412 -1261 0
568 1357 0
-3048 -1950 0
709 319 0
683 -4304 0
-3909 -1607 0
2523 2525 0
3166 3791 0
3189 3217 0
-2412 3559 0
-2005 -3540 0
-3608 -467 0
244 3023 0
1684 3115 0
828 2750 0
-700 -2051 0
-2661 1392 0
-4091 2737 0
775 2152 0
-3043 -293 0
3632 -27 0
1692 1113 0
-3499 -3433 0
1227 1 0
3238 770 0
3599 -903 0
-4256 -1006 0
-93 -1270 0
2556 -557 0
2183 3375 0
-2590 -2010 0
1076 278 0
1098 2964 0
-1100 4029 0
-858 -756 0
432 2718 0
-4376 -38 0
-92 -3867 0
1592 -1631 0
3353 2133 0
3550 -2868 0
2826 1227 0
3814 -2169 0
-1464 1070 0
-966 157 0
3712 -45 0
-396 2889 0
3254 -1572 0
-1029 199 0
1596 -3216 0
3621 -3876 0
307 3972 0
2202 3518 0
-1177 -2647 0
858 -1780 0
2441 4005 0
-2509 -1208 0
-3043 1343 0
-4303 1964 0
-1247 -4305 0
-3442 369 0
2248 -4053 0
-4123 -3457 0
2641 1709 0
-1896 1431 0
779 -3049 0
-358 565 0
-3746 1157 0
2229 803 0
684 -2956 0
2195 3049 0
-1331 -1109 0
-572 -1200 0
3013 3265 0
3271 2707 0
-4103 853 0
3317 -3887 0
621 741 0
-2360 1662 0
2706 -2852 0
1290 -2031 0
2716 -3250 0
-3273 -1949 0
920 -4264 0
-4243 3491 0
3719 2432 0
-822 -2421 0
-3374 -3608 0
1394 -1143 0
3901 -1048 0
3958 4253 0
-940 695 0
-3362 1544 0
-950 -4073 0
955 -1694 0
717 -3900 0
-826 90 0
-4259 425 0
1962 530 0
-497 3823 0
4022 2396 0
2678 138 0
3449 -1385 0
1948 -4039 0
2359 -1684 0
3212 2454 0
353 2805 0
3780 -3822 0
-3536 4145 0
407 3830 0
-2151 -3281 0
2071 652 0
-4327 1014 0
936 -232 0
3562 -3201 0
2806 3950 0
847 -2116 0
2531 -2444 0
778 1074 0
2147 1914 0
-538 1609 0
-1238 3382 0
1873 -1605 0
3179 1667 0
-1855 -2210 0
2571 485 0
-2472 3699 0
-4304 -3596 0
4171 4107 0
4328 1719 0
805 2546 0
-2784 1648 0
602 3104 0
-2160 -468 0
2183 -1502 0
1962 2815 0
4375 3691 0
2427 1820 0
1620 1470 0
73 -3426 0
-1159 -729 0
856 -804 0
-3848 2108 0
4020 -1214 0
-966 1676 0
2032 4299 0
-2974 -2367 0
2779 101 0
-3491 -3014 0
1392 2933 0
3876 3803 0
1477 3645 0
-2702 -2128 0
2794 -698 0
-1181 1050 0
249 -3140 0
799 -1389 0
-3277 935 0
-2093 -3030 0
2398 -4115 0
-205 -466 0
4181 -2732 0
-3613 1795 0
-1369 2116 0
-2978 3243 0
-1313 549 0
-864 2727 0
4004 -2973 0
3891 -3717 0
827 3422 0
-2569 3114 0
3938 3916 0
4154 -3945 0
-3610 3380 0
-1962 3535 0
-1404 3236 0
283 -4311 0
-2071 3574 0
-3717 -399 0
-223 -3493 0
282 2272 0
-4068 -1780 0
2736 2015 0
-214 -3038 0
-393 1211 0
508 -2019 0
-3891 621 0
3023 2844 0
-3611 3845 0
3759 3187 0
-2998 2542 0
-3644 -3435 0
2059 -1511 0
2969 -1244 0
1966 878 0
-1589 -2897 0
672 -1871 0
-3856 -3664 0
2137 -792 0
3939 -3256 0
1325 1129 0
4268 1215 0
2158 -3601 0
-2235 601 0
433 -895 0
2549 -1135 0
-2516 2828 0
2832 -3369 0
-1557 4247 0
1689 359 0
285 707 0
-3726 1195 0
-1892 4133 0
693 2264 0
1740 -3165 0
-212 -2996 0
2170 -937 0
528 2725 0
1106 -3417 0
2100 -524 0
1695 -1305 0
-3239 -3988 0
76 -3727 0
3908 -2987 0
-1262 140 0
3697 -286 0
-2770 500 0
3191 -284 0
-3669 3401 0
-1824 1782 0
3404 -3368 0
494 3905 0
-2236 2327 0
2025 2612 0
3130 2952 0
3982 -3855 0
3084 -3151 0
83 -2144 0
941 522 0
-3646 2518 0
-976 -1495 0
1045 3812 0
-3889 -4170 0
1251 3698 0
4286 -2146 0
-732 215 0
-1487 -2409 0
2002 2903 0
3814 -3274 0
-3557 -55 0
2737 1547 0
-2460 3973 0
500 -2920 0
1774 2964 0
3265 1408 0
1502 -3976 0
-1880 -1761 0
-1250 -225 0
-2564 -2343 0
3764 -2719 0
-2227 -2144 0
374 -1673 0
1481 3170 0
-4380 1791 0
1212 -2770 0
2918 3963 0
-3976 -3150 0
-50 -4065 0
-4097 -2962 0
-3731 1730 0
-3546 227 0
-2613 511 0
23 3528 0
-503 322 0
-1446 3639 0
-3136 -109 0
-517 2441 0
-3125 1815 0
2620 -137 0
3663 -3548 0
48 -394 0
-2192 -1221 0
1917 1083 0
-2978 -4057 0
-3297 3662 0
-3482 165 0
-1135 566 0
-3227 -4324 0
1230 -1959 0
3298 1286 0
2782 -4300 0
317 -3301 0
-2491 2992 0
-3545 -2786 0
984 1256 0
-1319 3493 0
-39 1854 0
4093 2284 0
1371 -3227 0
3191 2993 0
-4240 -530 0
-141 1474 0
-1649 -27 0
-3981 3923 0
-3278 -3528 0
-3712 -1961 0
-2662 -4091 0
-2828 2725 0
3592 1575 0
-4158 -1830 0
3822 2496 0
-1532 -3298 0
-651 3829 0
1169 -3230 0
2618 2737 0
-3467 -546 0
2422 4253 0
-3575 -97 0
-4327 269 0
-2729 -3138 0
801 -523 0
-2003 -4169 0
1975 -3019 0
1493 2482 0
969 -1319 0
3888 3485 0
-574 -4052 0
-1031 1216 0
723 3969 0
-4051 2911 0
-1335 -508 0
3484 -245 0
-1994 4262 0
3380 2447 0
2502 -3129 0
-782 4023 0
2147 -442 0
3153 2062 0
-4253 1011 0
-1221 -3470 0
3408 3145 0
2634 -1356 0
1362 4246 0
-1937 191 0
499 -1007 0
-300 -2929 0
1257 4181 0
4134 1201 0
-3321 -295 0
3273 -2283 0
-651 -1103 0
-1884 664 0
2616 -1448 0
-734 3908 0
2234 -1563 0
1141 -3857 0
-3682 -1691 0
-4379 1034 0
-3855 -3680 0
2509 750 0
1186 -1953 0
-3180 -1269 0
4004 2655 0
-1164 2988 0
-1522 1257 0
3881 4146 0
2345 -2093 0
-2588 3834 0
3552 4296 0
2937 4316 0
742 3885 0
-2664 -598 0
-3578 -1333 0
121 -2567 0
3716 -33 0
-895 -1337 0
329 -341 0
-1683 3322 0
1549 -850 0
1105 1162 0
1908 2698 0
-66 -1210 0
2784 3298 0
-446 1385 0
4198 -4171 0
-1520 886 0
-1011 -38 0
1115 -3583 0
-2934 3613 0
-1122 4161 0
3645 -2907 0
-3301 -1941 0
-3230 3616 0
1473 189 0
-1865 -3017 0
1483 -1308 0
-3063 -105 0
909 2481 0
2808 -3019 0
-495 -8 0
2680 -1135 0
-118 -1133 0
184 1678 0
3973 3624 0
566 -25 0
1188 3177 0
-16 1316 0
-2078 3401 0
2873 1856 0
2715 -163 0
81 -3262 0
167 201 0
416 -3070 0
-1746 -300 0
-1978 83 0
3549 -4116 0
-2440 -2588 0
2105 -1333 0
56 -3411 0
-3868 -3582 0
-3681 -2187 0
-3605 -648 0
791 -3469 0
-218 -1090 0
-3117 -244 0
3235 437 0
4298 -743 0
-1281 -1995 0
-1616 -1138 0
684 -4387 0
-1321 -2831 0
1927 -554 0
-1146 -1174 0
-3387 3160 0
-1750 3822 0
1213 -1626 0
-3800 -499 0
-1980 1619 0
-110 1414 0
4385 3757 0
1977 3571 0
-2686 1528 0
2503 -644 0
-2312 3041 0
-4352 -3794 0
1207 -4297 0
-3491 330 0
-2194 -2791 0
2013 932 0
-809 3632 0
-60 447 0
-2196 -975 0
-4114 -965 0
-718 -3321 0
3536 -347 0
599 -1472 0
-4334 -3328 0
1666 962 0
-214 3167 0
-3503 1307 0
-329 630 0
-2540 3887 0
4373 3083 0
-2962 2631 0
-2953 -3977 0
3182 3413 0
-851 52 0
-47 2817 0
3930 -1637 0
-288 -809 0
3444 -1191 0
1062 -1933 0
3802 -1310 0
2370 -744 0
1923 2168 0
2153 1386 0
4330 1639 0
3630 -2802 0
1620 374 0
3313 -1891 0
2076 2047 0
-1468 -809 0
-4170 -4116 0
2323 1217 0
2780 -3991 0
-1108 -3848 0
-2169 -3543 0
3805 -3684 0
-1660 2103 0
2626 991 0
-2446 85 0
3962 -3850 0
-2094 -165 0
-2252 2832 0
-3366 -161 0
4265 2270 0
-2174 3427 0
-2593 -2354 0
2221 2911 0
871 -2469 0
-2179 -4321 0
3421 -3919 0
-352 -3850 0
1175 2102 0
-4110 1780 0
-1952 1163 0
-3113 3503 0
267 3341 0
3003 1305 0
46 685 0
733 3542 0
4288 906 0
-4287 1309 0
-440 -4103 0
-3586 -3628 0
1254 932 0
1526 -4144 0
-2057 -1269 0
-65 -710 0
3815 -1954 0
-1958 -2811 0
484 -397 0
-1464 -1642 0
-2186 2532 0
-4061 -765 0
151 3608 0
4243 283 0
-20 -2461 0
-4241 3502 0
2935 2690 0
3176 372 0
-2533 -3862 0
-361 -2842 0
2005 1074 0
2046 -2011 0
4248 -2264 0
1372 575 0
-4215 3847 0
-3486 2028 0
3762 3526 0
4294 -2380 0
4354 -1389 0
-1804 3240 0
-4051 -2608 0
-4337 2694 0
-471 1598 0
1164 -597 0
-1139 1559 0
-275 -3436 0
-1213 -3290 0
1772 4177 0
-385 -1583 0
-2472 -4127 0
-3506 -1685 0
-1541 -2554 0
2852 175 0
-1180 332 0
-2325 -2319 0
-4233 -3841 0
-3735 -2904 0
-3158 1814 0
-3417 239 0
1822 3526 0
164 -1376 0
3802 2165 0
-827 -2252 0
-469 -4009 0
-1583 -1167 0
1658 4251 0
-3477 3091 0
92 3585 0
-1341 -1753 0
3436 1252 0
-1533 2525 0
-2697 1392 0
2819 -1761 0
2147 -3356 0
-2674 3887 0
-2074 1638 0
-985 129 0
-1388 1487 0
2261 -536 0
-4111 -479 0
495 -862 0
-1616 -2406 0
161 -2093 0
3887 809 0
-2018 -554 0
-2305 3274 0
2427 922 0
-3839 -124 0
1461 3906 0
-2001 1194 0
58 -1331 0
83 3908 0
2107 3829 0
-2977 -1329 0
3550 2316 0
-2034 -1224 0
3514 3469 0
-598 -1356 0
2393 -2999 0
-3331 -290 0
-3796 2399 0
821 -34 0
4367 -3835 0
-1772 167 0
-4207 1027 0
-1847 -2253 0
-1314 -3754 0
-2667 4028 0
-4267 3510 0
-2449 2387 0
3767 -3539 0
-4342 3508 0
4137 1190 0
2317 -1974 0
-3951 -2006 0
-224 4263 0
3283 -1754 0
4050 1672 0
-529 1003 0
-2869 -4281 0
733 -2268 0
2717 -2392 0
611 1615 0
4156 2327 0
-961 1408 0
-490 2700 0
3634 -1342 0
4077 162 0
480 -1406 0
1710 -1416 0
1832 2076 0
-1541 1608 0
1574 1120 0
-906 -3234 0
-92 3464 0
-2625 -854 0
-4209 -3345 0
3026 4201 0
-4172 3145 0
-3868 4146 0
-3595 649 0
2711 -665 0
-474 2212 0
-2787 -2931 0
-4343 -1734 0
-2716 -209 0
-4080 -2359 0
1077 4022 0
-396 4271 0
-2185 -133 0
73 -4385 0
-2372 -1161 0
-1399 3891 0
2843 -1301 0
-3896 940 0
4172 -2091 0
3523 873 0
-1931 -1366 0
533 2636 0
-3366 -226 0
664 859 0
3980 -113 0
1991 2455 0
2753 -3678 0
-415 346 0
-3389 -589 0
-1439 480 0
2735 2959 0
-4275 -2656 0
4252 1462 0
-1885 -302 0
1635 -465 0
4258 -556 0
433 -4092 0
2390 -2959 0
-2788 -3539 0
2574 2101 0
2922 3870 0
-4210 -3851 0
-3919 857 0
2850 424 0
-2079 2139 0
1643 4338 0
4283 -2256 0
-3080 -752 0
708 -2478 0
-1902 1256 0
1426 1755 0
1588 3767 0
4286 -559 0
-4048 -655 0
3442 -553 0
1576 3221 0
-3587 538 0
2018 -1639 0
1844 3942 0
3281 -1180 0
3906 -3239 0
3046 -398 0
-447 -409 0
-1950 146 0
586 -247 0
380 2332 0
714 -1396 0
-960 1625 0
3819 1216 0
-2643 -1969 0
-2361 3145 0
-3183 3986 0
-59 -4030 0
-983 -2533 0
4242 -829 0
3909 745 0
-1829 1632 0
903 -3445 0
-3810 -610 0
2915 -3751 0
-2245 -3196 0
-3411 -3279 0
3111 1742 0
1515 -4168 0
-2154 824 0
3311 862 0
256 -3321 0
-4258 -2565 0
4015 3003 0
1979 1406 0
113 -3230 0
2969 -1283 0
669 2861 0
871 550 0
933 2159 0
346 2873 0
-4079 3167 0
2630 2971 0
-353 1041 0
-1902 3398 0
1559 3443 0
1849 1187 0
2306 -282 0
-2822 192 0
2011 4025 0
3705 1969 0
-3483 -2079 0
-3262 1595 0
3532 -350 0
-2400 -2004 0
4355 -3878 0
3819 -965 0
1963 1280 0
271 -2808 0
2249 3656 0
3703 4385 0
3060 102 0
2134 2304 0
2845 959 0
848 -2207 0
-2402 -1070 0
2685 -3297 0
3851 -735 0
4064 2386 0
2056 -2028 0
3852 -4280 0
746 1335 0
347 -3274 0
1285 -2110 0
-1789 3489 0
-3716 -2627 0
2462 -802 0
821 475 0
-789 2377 0
1176 -1463 0
900 1737 0
558 1867 0
-1505 2350 0
-1250 560 0
3580 2027 0
-4173 -3679 0
-4160 -3484 0
-343 -4018 0
-641 -3924 0
859 47 0
3828 -2446 0
-1238 2144 0
3498 -3693 0
-2512 -3500 0
1487 1365 0
649 2402 0
-2067 -3914 0
2581 -3712 0
769 3826 0
3244 -1608 0
2872 1313 0
-4267 -1978 0
2948 4328 0
185 1082 0
-1628 3569 0
2973 2833 0
-702 -1564 0
-1871 -2126 0
-2860 -2439 0
3900 1207 0
-361 -730 0
-2080 2075 0
3491 841 0
2742 -1039 0
2806 676 0
-3830 2808 0
-2896 -3261 0
-2174 -645 0
-2570 -1780 0
-2756 -102 0
4202 951 0
-388 2239 0
-1206 -3649 0
1710 330 0
2609 -1326 0
1883 2291 0
2763 -251 0
863 434 0
3961 2913 0
-1767 -1230 0
3121 -51 0
3823 2593 0
3161 3114 0
-3819 2546 0
-310 904 0
-2453 809 0
155 3607 0
-181 -2877 0
-538 -159 0
-2381 4046 0
-3174 1370 0
-2460 -1714 0
-1726 162 0
-1364 -3147 0
3269 2852 0
-3379 659 0
1862 -4180 0
-3454 -1871 0
-318 -1993 0
3535 1913 0
1851 2814 0
-1509 1531 0
1543 2177 0
-1752 -1663 0
2040 1301 0
2335 -3965 0
-2511 385 0
3317 -1668 0
-3983 4075 0
3472 75 0
-394 2719 0
-3161 68 0
-2440 -2068 0
4149 1201 0
2551 -704 0
-442 289 0
2331 -3666 0
-2169 -2415 0
-2317 -3591 0
-2970 1446 0
-3314 -711 0
3757 -1593 0
3294 -3781 0
3630 2126 0
-2933 2703 0
-624 3647 0
-890 -2562 0
652 819 0
-1182 -1014 0
3401 -3260 0
-356 835 0
-2360 727 0
-2601 -3154 0
2551 4130 0
2762 -3065 0
1714 660 0
-884 -3268 0
-1987 2040 0
1464 4237 0
-2788 1042 0
-1309 2103 0
89 2945 0
-2594 1106 0
3760 -370 0
4373 -531 0
99 326 0
-3704 2757 0
-3686 222 0
-837 -3445 0
808 -1025 0
2205 -206 0
1298 3085 0
-2694 -366 0
1686 538 0
-195 167 0
-3927 830 0
-3394 -1023 0
811 3563 0
1587 -175 0
2980 -3576 0
4325 -89 0
2384 1523 0
68 995 0
3491 1 0
4223 737 0
4134 -953 0
2588 2425 0
-4243 3762 0
3624 81 0
-1357 -1077 0
1403 3054 0
-1738 2013 0
-1208 1777 0
-4249 162 0
3299 3195 0
2170 1011 0
-128 -1065 0
2441 -3161 0
2426 641 0
-2755 -400 0
971 -1683 0
-937 -2891 0
-1026 -2613 0
-3646 2376 0
-3383 3595 0
2192 2920 0
1499 -1185 0
3449 1358 0
-1411 4049 0
-3220 -4092 0
-1316 -2912 0
2522 -947 0
603 -3140 0
-2256 235 0
-381 -130 0
427 522 0
-1979 2663 0
2509 -2213 0
-2699 -45 0
3570 916 0
-2733 -353 0
-3857 2084 0
-987 2582 0
3507 -1232 0
1118 379 0
4146 -4383 0
902 -1466 0
475 -1803 0
734 1597 0
-964 -3532 0
-1359 2955 0
3562 -3297 0
-2214 2972 0
-3812 -154 0
-4335 -2989 0
-1272 -2780 0
3406 -3839 0
2554 205 0
1659 3356 0
-1671 4302 0
-2871 -98 0
4279 114 0
980 -3080 0
1330 2474 0
1394 28 0
-2172 -2963 0
4331 -3829 0
3430 3942 0
2742 -4074 0
-2529 4324 0
3010 -4053 0
3797 -383 0
571 1537 0
-3845 -2091 0
-2667 1389 0
845 2080 0
560 1661 0
2881 524 0
1203 1325 0
916 154 0
2641 2000 0
3530 -2816 0
2264 2723 0
-1994 -807 0
2738 -4109 0
1667 3806 0
-3267 2673 0
3438 -2933 0
1924 3890 0
-3987 2292 0
-132 -2698 0
-3215 1487 0
3413 2926 0
-2940 -4058 0
3288 -1983 0
-3881 3054 0
-1368 -1301 0
2358 3588 0
1547 356 0
3323 3867 0
816 -3950 0
-4062 -1839 0
1921 -4305 0
777 -3320 0
2134 1689 0
377 639 0
-1354 2943 0
4046 4213 0
68 -2701 0
66 -330 0
3200 -2450 0
-7 -2612 0
-3647 2979 0
-276 808 0
-848 2814 0
3443 -1833 0
-2374 579 0
-3271 1157 0
1483 1391 0
624 -3821 0
-2616 -2391 0
2963 -4350 0
1710 978 0
-2633 3322 0
-4110 -882 0
2925 1910 0
-1475 4137 0
615 2270 0
-3031 -3651 0
-3620 2735 0
-4294 -3661 0
3949 2193 0
-2730 -3228 0
3388 1634 0
2331 -3849 0
2046 3463 0
-53 411 0
4030 -1519 0
3162 -2185 0
2580 -2567 0
-1929 4223 0
-205 -589 0
738 4212 0
3380 -646 0
1426 2703 0
-831 2046 0
3270 -2612 0
1610 -2021 0
618 3580 0
-3545 3620 0
-1418 1502 0
1595 1009 0
-3770 3086 0
-3307 4187 0
-3387 2767 0
-3797 -819 0
3660 -2880 0
-1986 72 0
1719 -664 0
-2319 2711 0
-1833 2431 0
-3724 -2288 0
-2277 -711 0
1440 3497 0
-2702 1772 0
1235 -3770 0
3352 -2549 0
-4265 560 0
1913 -2839 0
3638 -2005 0
-4207 3475 0
4359 -3381 0
69 1940 0
-421 3469 0
2083 -1459 0
3581 -4284 0
-482 -1035 0
1619 660 0
-3753 -4210 0
3662 -2485 0
-471 1545 0
3536 -417 0
644 -1198 0
4026 -1184 0
1229 -1282 0
3160 -1580 0
-4080 -798 0
1818 3259 0
3244 -2164 0
-350 -1968 0
-2742 -163 0
684 2510 0
3545 1248 0
221 4219 0
-4083 -3953 0
-2702 -121 0
-1833 4084 0
-1573 2890 0
-614 -2504 0
-364 3069 0
-2489 3257 0
843 -1436 0
925 -3584 0
-2099 -2231 0
-455 -1023 0
-2727 -2640 0
3212 -1479 0
1142 1345 0
3869 3965 0
-3045 1955 0
1299 1667 0
-2309 3787 0
861 3220 0
-3274 -3376 0
-1784 444 0
-581 -648 0
3252 3759 0
-1191 -314 0
-294 3259 0
3291 784 0
-3483 -2438 0
-194 3930 0
3963 4202 0
1916 -2128 0
-3448 -1313 0
390 -2436 0
3982 -3271 0
-2773 3321 0
-84 3924 0
-4072 3015 0
-3118 4075 0
1996 -1593 0
3244 -4101 0
-976 814 0
-2181 2355 0
756 -2242 0
2482 4183 0
-4097 2924 0
3822 635 0
4002 -1836 0
2652 -3196 0
3608 -1644 0
-4318 -1050 0
-271 380 0
-3598 3095 0
-992 -3197 0
1764 1724 0
-762 -841 0
2766 1997 0
3765 -4071 0
3992 -3831 0
2691 785 0
-3337 -2686 0
-3785 -55 0
-1393 291 0
1991 -1600 0
-4221 1969 0
1652 3753 0
-4038 246 0
1582 3238 0
1070 -2274 0
3101 2363 0
-1499 339 0
3235 1083 0
-723 -3783 0
-3445 2527 0
775 -4321 0
43 1795 0
-556 -529 0
-3898 -128 0
2175 1663 0
-2637 -1226 0
-2720 1186 0
-1348 754 0
-2707 2754 0
-3350 -3031 0
-1828 -382 0
-100 3985 0
-1127 3402 0
-1212 2829 0
35 3881 0
-1302 2288 0
-142 -3567 0
4348 -472 0
2920 3796 0
2649 -2892 0
1287 -1488 0
3406 2137 0
-901 2644 0
-3778 2562 0
-1933 -2701 0
-3422 1971 0
3283 3776 0
1077 2895 0
3043 952 0
-3088 -1720 0
-2721 -2528 0
3981 -957 0
2463 -4135 0
4198 4200 0
1287 4263 0
-2441 -2067 0
-141 -305 0
-3910 -2180 0
-1075 1237 0
48 -3949 0
-4341 2387 0
-2774 1245 0
-3132 -2202 0
808 1378 0
738 450 0
-261 1705 0
-1511 2550 0
-3982 -2800 0
-2176 1704 0
2976 -2817 0
-1232 -3539 0
3020 3861 0
-908 -1231 0
4022 -3953 0
-1436 3496 0
3726 -1581 0
4129 2224 0
2126 -11 0
-44 2854 0
1084 1579 0
-2820 3923 0
-472 430 0
-3271 2764 0
-2618 4307 0
2664 -1933 0
-3181 354 0
-4055 532 0
2194 -674 0
1815 2000 0
1144 1124 0
-3770 2663 0
2393 2783 0
-1093 2389 0
1000 -574 0
-2853 -3913 0
506 -966 0
-2291 1588 0
1588 -1732 0
-4182 -3189 0
-1221 -2738 0
1523 4328 0
1102 2502 0
-2122 2806 0
-3717 -3744 0
-1428 -1724 0
-303 -1604 0
3974 3053 0
960 2809 0
-2074 -35 0
1564 -1554 0
458 3217 0
44 -4383 0
2193 2160 0
-833 2257 0
-1278 512 0
-3800 1165 0
-2267 381 0
-2339 -1880 0
2027 -3210 0
-3372 3124 0
-1803 -4093 0
-2757 -1405 0
2931 3276 0
2480 2826 0
-4315 -3926 0
2700 -2956 0
-2576 694 0
1555 545 0
-158 -2845 0
3885 3460 0
-2684 2467 0
2453 2129 0
2772 2855 0
2753 -467 0
-2951 -3936 0
1103 -192 0
-3481 2499 0
3703 -3952 0
1202 3899 0
2856 -826 0
2934 2294 0
404 542 0
-498 -983 0
2915 898 0
-2894 -2538 0
2896 -3258 0
-3002 4137 0
-2681 1740 0
1907 1155 0
4097 -3763 0
-3138 2189 0
197 1294 0
-3192 3219 0
2471 2508 0
272 1214 0
-2697 3876 0
-2849 -3786 0
-1597 -1675 0
866 3406 0
1491 1216 0
-3778 3056 0
-742 -315 0
-3565 -2377 0
-2036 3868 0
-3228 -4249 0
-1651 -4226 0
-4283 -3445 0
-345 -2654 0
-826 788 0
-4061 -3039 0
-1883 -2258 0
4168 1323 0
145 -1884 0
1423 -1521 0
-4087 2794 0
-3775 -2721 0
-2768 -2968 0
2354 -1494 0
447 -1924 0
-2913 3444 0
2877 423 0
3688 1441 0
2637 -4052 0
-2676 3827 0
991 4270 0
-885 296 0
-2247 1410 0
-3540 -3307 0
2469 1494 0
3802 1430 0
2763 -3996 0
-3185 2762 0
2702 -28 0
3762 -2211 0
2902 -2843 0
1274 4223 0
-2861 2783 0
863 -2432 0
-331 -4340 0
-207 323 0
-131 -2362 0
2027 2207 0
1981 3361 0
-2698 -3649 0
-2957 -4110 0
-96 -4345 0
-1916 1487 0
2489 493 0
2998 -2577 0
1881 3697 0
-749 3359 0
-3158 4236 0
4306 1817 0
-2620 -1034 0
3759 83 0
-4340 3472 0
-2049 3395 0
-168 2549 0
-3183 -1324 0
1689 1990 0
-2417 -2871 0
2385 -4107 0
-3073 1970 0
-1427 280 0
1531 34 0
-409 3621 0
1358 -1891 0
-4083 4166 0
-632 801 0
-684 1380 0
79 -1109 0
2283 99 0
-423 3209 0
-510 -2025 0
-2337 -293 0
4214 3199 0
-2929 -1547 0
627 -199 0
-3993 -3175 0
4296 3094 0
-1702 2027 0
2715 1516 0
-2842 2108 0
1546 -3677 0
652 3587 0
-2865 3108 0
-4366 3269 0
-1425 506 0
2160 2421 0
-685 -2204 0
2974 1117 0
-1447 2073 0
1543 -852 0
397 -392 0
-369 3313 0
3762 941 0
1742 -630 0
-597 3806 0
-3226 -2932 0
-3723 4037 0
-126 2295 0
-3883 -2867 0
123 1610 0
-320 -3993 0
-3151 -974 0
967 4239 0
-3702 719 0
-1952 2407 0
3323 -2759 0
-2185 775 0
47 3174 0
-1385 -2166 0
-4076 -233 0
3421 3600 0
-2825 524 0
-1538 1742 0
-381 71 0
-2599 3458 0
-4305 -3958 0
989 2126 0
2105 -2324 0
3791 -2132 0
-2841 -3491 0
-2629 -760 0
-3875 -1531 0
1466 1036 0
1382 4208 0
423 3939 0
-769 1241 0
2682 831 0
-2757 -3096 0
-3463 -643 0
-651 -3014 0
-3063 4187 0
3589 2680 0
-3180 -4259 0
-272 -1745 0
3211 2624 0
-2957 -3518 0
3536 313 0
3776 -982 0
-619 149 0
200 -2730 0
-720 -1314 0
-838 1496 0
304 4264 0
1953 -133 0
3410 4239 0
-1139 941 0
-1062 2068 0
429 727 0
1815 1854 0
-3640 2662 0
-1392 -995 0
-4079 578 0
1384 -1780 0
-897 -4379 0
3980 4386 0
-3423 -3664 0
-197 -3 0
-3655 -771 0
-463 -1443 0
-369 1295 0
1587 4082 0
-2263 -4300 0
-2118 1451 0
-1958 1899 0
-2829 -1680 0
3023 -1821 0
635 2792 0
-3203 -2460 0
-1937 -804 0
3602 -3758 0
848 -3729 0
3079 -1270 0
929 3354 0
1773 -3149 0
1565 2973 0
-16 3269 0
2143 -735 0
2317 -243 0
-4284 684 0
-486 -1827 0
3318 517 0
-1760 3835 0
3360 -3286 0
1539 2872 0
-3161 566 0
1770 -2724 0
372 3826 0
-3368 -3685 0
2847 1185 0
-1049 -4215 0
-2697 1877 0
314 -3658 0
3967 -2640 0
-2786 -1517 0
-4284 -694 0
-3771 50 0
1425 2476 0
-3772 -692 0
2818 4024 0
-1419 -1380 0
-2444 -3715 0
1201 3594 0
1939 2257 0
3852 -1593 0
1587 -318 0
-2953 -69 0
4307 -2568 0
-1519 -1726 0
534 -157 0
1920 3242 0
2983 -838 0
847 3347 0
2821 -4291 0
601 -1220 0
246 4382 0
-2455 2055 0
-796 2586 0
1110 -1144 0
2771 -1851 0
-2813 3703 0
2498 -3644 0
-3161 -2666 0
-1002 680 0
4019 -1521 0
3908 -4171 0
-1801 -1313 0
-2959 1076 0
-2578 3675 0
2873 -50 0
791 -1432 0
-232 2467 0
899 -583 0
-2396 -624 0
-1514 -1876 0
-4312 -3596 0
-1053 -2281 0
481 -3659 0
3194 -946 0
3114 -3789 0
619 -2646 0
-958 -1215 0
2254 3450 0
2643 1961 0
-2236 2237 0
-2994 15 0
-288 3111 0
-1209 -1427 0
-4314 808 0
-4379 -1663 0
-933 -3750 0
2050 2587 0
-920 367 0
1343 -1183 0
2534 1854 0
-2741 -3263 0
-4280 1529 0
-4246 3835 0
-1118 3251 0
443 -609 0
1122 -1642 0
-1531 1157 0
2149 -1419 0
991 2688 0
-288 -2624 0
602 2884 0
147 745 0
-1469 2917 0
3608 958 0
2242 3527 0
1248 322 0
591 -1384 0
4263 1333 0
-2618 3461 0
-2133 -2933 0
-4176 3575 0
599 2477 0
2782 2952 0
2513 -2737 0
2572 -1572 0
488 474 0
-3833 533 0
1383 -75 0
-3339 4374 0
-4032 3556 0
3449 -136 0
3381 3226 0
-1926 3614 0
3962 1784 0
-1281 -3976 0
494 -1466 0
307 4099 0
-2210 3042 0
-520 1374 0
4007 1020 0
-2014 -1938 0
3977 3186 0
-2087 -3092 0
-2284 1057 0
1419 3816 0
934 -4186 0
3760 3386 0
-1296 -1659 0
3085 1814 0
95 -472 0
-228 4220 0
4340 31 0
3689 -3108 0
-1143 173 0
-1354 1976 0
3305 3688 0
-3349 2031 0
719 370 0
2852 2796 0
-981 -629 0
-2907 2829 0
3053 1082 0
1212 2960 0
-782 918 0
4015 -3492 0
-3134 -3367 0
-3307 -3871 0
-3394 -2342 0
2227 -172 0
-3169 832 0
-908 -499 0
-3355 -3555 0
-3174 -668 0
-626 3718 0
-2856 3816 0
-3260 -1354 0
-506 1584 0
-1729 1409 0
-2478 2141 0
4107 2231 0
1586 2140 0
-850 -2868 0
-2115 660 0
3430 -2162 0
-1173 -2912 0
-445 -1100 0
-3347 -460 0
1758 -605 0
602 -1268 0
3073 1072 0
4088 1096 0
3680 3115 0
-2343 -3253 0
-16 3372 0
-2095 -4072 0
-4347 1735 0
-3169 3908 0
3111 -4061 0
-4225 -749 0
3357 1983 0
-3446 -1164 0
-191 -2414 0
3495 -4123 0
-1173 2129 0
240 2597 0
-246 -3712 0
-954 -4047 0
685 -4285 0
-2614 1477 0
-3833 2536 0
307 593 0
-2930 1815 0
-1305 588 0
-4201 1795 0
362 1610 0
2177 -1479 0
-1740 3125 0
-966 -1693 0
-2067 -991 0
1322 -1775 0
-1564 -3991 0
2715 -1963 0
-918 -2876 0
-442 147 0
2098 3563 0
-682 -1110 0
-240 3726 0
-3587 -3047 0
-398 3516 0
-3117 1565 0
3196 -3561 0
-1984 -2390 0
-4085 1977 0
2990 -3652 0
4206 -4017 0
705 706 0
1887 -4063 0
-1383 1474 0
2599 -3562 0
1998 -4357 0
3417 -2659 0
-208 -2732 0
-1109 -878 0
-34 2665 0
-1747 1286 0
694 -1652 0
-1482 -3024 0
2485 1711 0
-1614 4229 0
-4330 223 0
-370 -2021 0
3982 311 0
3436 -914 0
-2995 3315 0
1394 -2733 0
-4336 1826 0
650 -1112 0
834 972 0
1833 -2042 0
330 2046 0
710 -2244 0
-3166 -1135 0
-2456 3536 0
-1542 -1806 0
-3233 2796 0
4380 2561 0
-2853 1526 0
-2823 -2153 0
354 -2934 0
971 -3294 0
-4187 3788 0
-3340 -498 0
-3741 1785 0
3573 -2735 0
2641 -3542 0
705 2426 0
1158 -3534 0
-2041 -2099 0
-812 -2351 0
-3339 -1544 0
422 1351 0
2199 -3870 0
-3907 -3434 0
-1752 -1509 0
-3945 64 0
2634 -3031 0
-4347 -2150 0
929 3292 0
3329 -1881 0
2370 2489 0
3468 3317 0
-1442 1765 0
-1694 -4086 0
916 2479 0
527 -1611 0
3908 -4022 0
2785 -2604 0
4202 -3359 0
56 -3724 0
2651 -4116 0
1621 1797 0
-700 1416 0
365 -3513 0
2986 -2301 0
-3548 -3768 0
-3425 -2501 0
-3974 -1857 0
-4198 2465 0
4355 3998 0
1974 2100 0
-1031 -163 0
-604 364 0
-678 411 0
-584 3571 0
-4306 -1052 0
-3910 -2085 0
-3663 -4128 0
3028 -2045 0
3894 -604 0
4375 -2838 0
-2757 358 0
3869 -4330 0
13 3159 0
3592 4106 0
1018 2827 0
1425 -162 0
2497 1423 0
2736 335 0
-2684 -1512 0
-714 2269 0
3407 1628 0
81 -1963 0
-1411 -290 0
2464 -4292 0
-1649 2605 0
4083 -1086 0
-598 -3287 0
1206 3125 0
-1081 391 0
2895 -1976 0
2497 -2223 0
-4262 3551 0
4302 1855 0
3090 1093 0
-3817 -1050 0
628 579 0
3902 -2204 0
-1927 -2334 0
1199 -2577 0
-4027 66 0
1356 -860 0
2828 2481 0
-4106 -2686 0
3352 -1521 0
1421 -2841 0
688 414 0
356 2258 0
1597 2363 0
-2067 -4170 0
1142 3242 0
3425 3972 0
2407 -2926 0
-1284 -1465 0
-3339 1235 0
1776 764 0
-2024 703 0
2550 -3977 0
124 -3101 0
-4178 -1387 0
-2312 1831 0
-3659 -2526 0
-2746 1755 0
3832 -1602 0
-3265 1952 0
4078 2400 0
-188 1721 0
399 -3782 0
-4317 -3078 0
-3520 -541 0
1537 -4177 0
-1661 631 0
1827 -1111 0
-175 -349 0
-3384 -2058 0
3519 2778 0
-4073 2467 0
-4174 -3090 0
2318 793 0
2068 902 0
-787 -842 0
2947 -201 0
-4228 -479 0
874 3782 0
4213 497 0
3980 -2340 0
-4298 -400 0
3499 -886 0
-1593 2507 0
772 2447 0
1975 -3959 0
4116 1167 0
-1761 1819 0
3223 3103 0
-3457 304 0
-1313 1118 0
3775 2849 0
2231 -465 0
-4261 -1696 0
372 1179 0
-3334 199 0
-4 -1386 0
-598 2992 0
-11 -3709 0
1493 3176 0
-385 917 0
-235 1974 0
1695 -3499 0
-3077 3808 0
1217 -3024 0
-1871 -2949 0
3823 1930 0
2491 -2967 0
-3587 2122 0
-3129 -866 0
-484 664 0
-2615 2806 0
-4027 -1053 0
4161 1335 0
3759 1502 0
-2957 431 0
3878 -823 0
-2934 -2446 0
1274 1981 0
2644 -2821 0
1165 -1857 0
3264 804 0
4253 1500 0
-3222 2936 0
2073 2422 0
-2836 1935 0
4145 -1636 0
853 1363 0
863 3171 0
3535 -2130 0
-2843 -2281 0
-3839 332 0
-2278 -2055 0
3759 -2597 0
-438 3298 0
2460 -2892 0
2537 -3161 0
-1529 -1455 0
-2450 -3640 0
1155 -2271 0
788 -492 0
-2659 -183 0
2526 -558 0
-610 4201 0
-163 -2052 0
-1968 2228 0
-1283 -1582 0
3466 3585 0
4348 2240 0
-2759 -2017 0
1235 -1065 0
-743 4074 0
-1916 -3835 0
884 -2831 0
-3807 -2241 0
3921 -531 0
1239 -2531 0
1351 -674 0
-3987 -3471 0
2864 411 0
3113 930 0
-2798 -2043 0
3664 -4210 0
1467 -1672 0
428 -2013 0
-4188 3935 0
-2623 -1629 0
-2545 4068 0
1159 700 0
-3138 -120 0
-386 863 0
-252 3779 0
2587 -3874 0
-3376 -2833 0
-3152 -2027 0
4253 3501 0
4129 567 0
2565 2479 0
-3533 1823 0
-217 -4303 0
3325 -4061 0
-118 -1521 0
3629 2022 0
3115 -3034 0
-1714 2823 0
991 -3537 0
-1274 3595 0
-1818 -1315 0
-694 3589 0
-3805 -2622 0
-361 -241 0
302 -4381 0
-3262 326 0
-2611 2985 0
-3046 3998 0
-286 3757 0
-1502 2468 0
-2582 3633 0
1814 2107 0
-1034 -4008 0
280 3733 0
-4311 2938 0
3869 -4258 0
-2438 -1967 0
-133 -3118 0
-2975 3444 0
-2507 -3976 0
-2301 2091 0
1950 -295 0
2469 4325 0
-630 -1265 0
2088 -3918 0
-18 -3947 0
908 -4205 0
-2539 3223 0
-1034 1096 0
3046 2231 0
-3226 3621 0
2184 165 0
2183 4387 0
3422 -2511 0
3010 1802 0
3482 3088 0
1215 138 0
-469 2637 0
-525 3827 0
-2446 -523 0
-1810 2300 0
-803 -852 0
3757 -990 0
-743 4049 0
-2932 -611 0
630 4148 0
1108 3921 0
-3383 3901 0
1274 -1249 0
-1514 -2841 0
3238 2156 0
28 2442 0
-815 -1135 0
533 4149 0
-2573 -1039 0
3334 2738 0
-2574 -4118 0
3137 147 0
-787 -3460 0
-327 3885 0
-1827 -776 0
3815 632 0
2072 848 0
-1215 2724 0
2411 1581 0
1058 196 0
2027 -4306 0
-3768 717 0
3281 1842 0
-1654 -1439 0
-1189 3838 0
391 -1422 0
-2180 4098 0
-396 821 0
-3320 -2166 0
447 3823 0
-2227 -2863 0
-1850 2294 0
-2431 -4312 0
-3934 -3541 0
-1121 -1225 0
3206 -634 0
911 -2209 0
-454 -2157 0
-1472 -505 0
821 -1715 0
4159 -1780 0
3304 711 0
3671 -3894 0
-2306 -1565 0
-2600 3323 0
3048 2536 0
1384 -4184 0
-2511 -1027 0
-1419 -1365 0
-319 -381 0
-2549 402 0
-3525 418 0
-4092 -935 0
3341 -1754 0
-2643 2781 0
480 2259 0
-645 -1431 0
1594 -3285 0
3464 -3470 0
1261 -1413 0
-2716 -166 0
-3027 3228 0
-212 1705 0
4235 -1061 0
-3302 1999 0
4042 -4008 0
-2111 -2276 0
2489 -4118 0
-296 4015 0
1751 -4329 0
3547 1001 0
-4300 -1136 0
-1702 2944 0
185 4358 0
2192 -131 0
-3150 2890 0
-321 -3174 0
-1943 4170 0
-1423 3295 0
-352 -1286 0
-1645 -34 0
-3675 -1307 0
-4075 -912 0
4100 -1372 0
-133 -4303 0
-944 -1988 0
3020 2507 0
1332 2137 0
952 -3847 0
-797 3464 0
-137 -1246 0
-3480 -80 0
-4103 -1947 0
-558 -1555 0
-2897 -2638 0
-4387 3319 0
-1863 3599 0
-1974 -3169 0
669 2084 0
-625 -1759 0
4294 -504 0
-201 -3358 0
-228 -2553 0
-794 -1519 0
-2684 2182 0
-3322 180 0
2025 2814 0
2354 -1268 0
3421 987 0
-555 -4076 0
-839 -1535 0
-1570 3054 0
-691 49 0
3792 1758 0
-2207 -4272 0
-2377 -1030 0
1640 2650 0
-515 4153 0
2847 -2788 0
-3723 -1313 0
-980 4125 0
-3332 3471 0
-1178 -1539 0
-45 -3419 0
1427 -893 0
-2886 -2585 0
3309 2450 0
810 1787 0
3140 -2925 0
4236 2663 0
17 -3991 0
2706 -2812 0
-1916 -3773 0
-2959 4307 0
-995 2382 0
1972 -3390 0
-2335 948 0
427 -3763 0
-1447 -1716 0
-247 3572 0
2363 -3660 0
2125 -3971 0
3145 -3717 0
-3517 2603 0
1183 3488 0
-3377 -1182 0
3390 -3786 0
1540 3420 0
761 -2319 0
554 -3841 0
990 338 0
-3482 2000 0
1480 -2884 0
201 764 0
-2233 164 0
2168 2636 0
1382 -2187 0
2867 605 0
-2252 2463 0
-599 -3529 0
-2086 3592 0
-404 2481 0
1953 4178 0
1993 3834 0
2585 -4087 0
-949 -2677 0
2542 594 0
4378 -1025 0
3001 2748 0
-1560 9 0
-3557 1497 0
2587 1778 0
3474 191 0
2272 -3879 0
2362 544 0
-2546 -1512 0
3035 -3668 0
-1747 -2249 0
-1709 3401 0
1766 3614 0
3430 3541 0
2943 -1560 0
-778 -368 0
3886 -406 0
-1654 2947 0
-1597 -1308 0
1131 3758 0
-3620 -3 0
3381 -3096 0
1282 2652 0
1006 -2295 0
2952 3951 0
-4332 -303 0
-2003 4282 0
-4308 1832 0
-149 2243 0
3130 -2890 0
-632 -2886 0
4145 -3012 0
1561 -382 0
2223 659 0
-1768 -1188 0
3526 -526 0
-554 2124 0
4218 -204 0
-597 1449 0
4218 3677 0
-113 506 0
539 2461 0
702 -1103 0
4000 3352 0
-4291 -2321 0
836 2600 0
440 537 0
-750 3536 0
-2445 -1337 0
434 1955 0
1477 2620 0
-4356 -2903 0
2951 -1757 0
4192 2306 0
1972 22 0
216 4239 0
3763 3794 0
-2439 -1125 0
545 4202 0
-3947 1212 0
4075 -1313 0
2673 1081 0
-3129 61 0
-3001 4292 0
-388 2008 0
2611 3202 0
1588 -2754 0
-1377 3691 0
-888 -1939 0
1336 961 0
4152 -1350 0
-1825 -1270 0
960 -2777 0
363 -1337 0
3369 654 0
3073 -2804 0
-1232 2375 0
-2707 2680 0
2353 -617 0
-3606 2203 0
-3858 -2479 0
-3432 -1292 0
3276 -1851 0
1037 -824 0
-2823 -658 0
51 -472 0
-1261 1237 0
4071 -3896 0
-2021 -2711 0
-2478 92 0
-442 -2563 0
-1375 498 0
3510 2635 0
2190 1091 0
235 4200 0
2871 3629 0
2185 2336 0
559 3111 0
1184 -1519 0
2510 -2445 0
-3958 4039 0
3502 -1001 0
-1831 3802 0
-1976 2988 0
-1682 571 0
2805 -1981 0
2137 2628 0
280 -3107 0
2990 -2605 0
3928 -744 0
-865 -2194 0
-928 -1263 0
-3577 -861 0
4048 -1731 0
4273 3744 0
-2581 2205 0
1595 -3559 0
2255 2528 0
1158 -2846 0
24 3727 0
2600 -867 0
1744 -3922 0
-483 3306 0
3180 3836 0
1284 4139 0
-4006 1295 0
1913 2426 0
-2704 -3015 0
2559 -567 0
-2334 -3079 0
2935 103 0
2141 2868 0
-992 3375 0
4050 -820 0
-886 -415 0
400 4161 0
1334 -3910 0
-2675 432 0
-2044 1650 0
-937 -1986 0
-1937 2164 0
1239 3027 0
1706 15 0
-2794 824 0
-1529 3771 0
-1396 1749 0
-1727 -3184 0
-1398 1006 0
912 4152 0
932 -1896 0
2395 -2693 0
1970 -2625 0
2293 -4062 0
1804 -777 0
1483 1096 0
-36 -4252 0
2982 3579 0
-2252 -1816 0
-3258 -3308 0
2469 2316 0
-811 -2836 0
717 3609 0
4282 -3570 0
2583 -4142 0
-3258 -4173 0
-3451 -173 0
-4142 -134 0
-153 -1301 0
907 -1156 0
-4158 -170 0
4152 -2952 0
3477 1186 0
-2569 74 0
4307 -978 0
-2647 1534 0
-674 -2994 0
3588 267 0
3703 -2167 0
2844 -2329 0
-2674 3879 0
219 -1205 0
-3320 3510 0
543 422 0
3965 -415 0
3276 -2032 0
-213 -632 0
3033 -3155 0
3082 3988 0
3964 -1781 0
-919 1166 0
1667 719 0
4186 376 0
2027 1259 0
978 -561 0
-2152 -2354 0
2346 -700 0
3928 -2359 0
-1143 4078 0
890 3757 0
-4102 2790 0
-4123 -469 0
2504 -1698 0
-3508 2625 0
3498 3936 0
3950 -3072 0
3016 250 0
2185 4102 0
-1281 2566 0
-562 -768 0
-3104 4049 0
-168 2365 0
-207 647 0
-1627 2664 0
-4077 -2430 0
3052 -3817 0
-1685 -4347 0
-2944 -1313 0
2626 -2438 0
3924 2993 0
3981 -260 0
767 -4085 0
960 -2735 0
-2942 -2359 0
2434 -842 0
-2702 -681 0
79 4226 0
3924 -2844 0
3281 2515 0
-191 2658 0
-1194 3942 0
2835 3972 0
1996 -1316 0
-369 3440 0
-2106 -3088 0
-1182 184 0
-2779 -1865 0
3917 -4265 0
-2531 2370 0
2496 -4103 0
962 2439 0
-3433 -3037 0
147 145 0
-3486 -504 0
4331 -1023 0
-2450 -3687 0
3153 959 0
-1238 -2480 0
3589 1298 0
1778 994 0
-3194 -3227 0
-2421 -2939 0
240 -2200 0
475 -1448 0
-4131 1066 0
567 839 0
1535 1850 0
-2054 2831 0
1740 -1551 0
-1467 -1950 0
1030 -1002 0
3450 2838 0
2719 -448 0
2476 4159 0
3434 1151 0
3024 2310 0
3748 713 0
4359 153 0
2162 1895 0
4304 -63 0
-1788 -4160 0
869 -4169 0
-1047 2486 0
49 1153 0
4227 -3598 0
-1270 -2669 0
1197 722 0
-2596 -45 0
3758 460 0
3969 2155 0
2904 3764 0
-4218 4096 0
-3837 652 0
3302 -1122 0
1568 291 0
-2433 -2215 0
-3493 -1645 0
-481 -557 0
-3626 2167 0
-1912 3328 0
4334 1706 0
3880 3246 0
-3492 2315 0
-4304 -940 0
3783 -1220 0
-2824 1851 0
2919 2110 0
-4052 1305 0
-4282 -711 0
1262 -188 0
2498 2559 0
3983 -2253 0
-486 -531 0
-1268 -1344 0
-163 3141 0
2109 -4018 0
2838 -499 0
-1535 2113 0
2717 1386 0
-4290 2796 0
3882 806 0
283 1119 0
-4009 215 0
-295 1968 0
-4305 3849 0
3432 3770 0
2013 -4 0
-1089 -326 0
-2698 -1819 0
1835 2079 0
-2746 1740 0
-4304 2383 0
2779 -1797 0
4321 454 0
-3058 -2408 0
-619 -1731 0
3353 3308 0
2316 -3650 0
-925 3350 0
1966 -108 0
-2622 -2344 0
4268 -1012 0
-324 1040 0
4149 -3100 0
3165 -1453 0
-3862 2533 0
-1613 2265 0
-3462 4320 0
-2156 1378 0
518 -2454 0
2220 707 0
2009 -2897 0
3741 442 0
523 3052 0
3698 -1899 0
3536 180 0
733 -3576 0
2422 -3841 0
-615 3861 0
-1502 1648 0
-1001 -3808 0
-1573 -2288 0
-1101 -2323 0
2766 325 0
-4344 2910 0
-2026 -1357 0
1687 -1533 0
2180 4323 0
3329 -1943 0
4030 1602 0
2761 1434 0
-2538 -1422 0
1428 -2041 0
-1457 -1032 0
4064 2414 0
-2725 404 0
2322 747 0
499 -3429 0
3209 -3225 0
931 30 0
-558 634 0
3167 -3886 0
-292 423 0
1940 18 0
-3357 1039 0
981 4032 0
-1633 4234 0
1289 -2074 0
1887 -4309 0
-4106 -2128 0
731 166 0
210 2006 0
163 -1381 0
-1495 -236 0
-2787 2332 0
3213 -80 0
1876 -1211 0
-1913 -3104 0
-1254 4112 0
2415 2375 0
945 4046 0
2332 -1608 0
3145 166 0
687 -2240 0
-3743 -1492 0
2393 -1880 0
1710 -966 0
2500 -386 0
2420 -3531 0
495 -3307 0
3407 -2340 0
-803 310 0
-2359 -1014 0
-1679 3702 0
-381 3877 0
-2413 -2606 0
2950 -1453 0
-1089 3371 0
-3562 -3339 0
2112 1531 0
3581 1776 0
1273 3759 0
772 4283 0
-3732 -1977 0
-1368 2261 0
-2230 439 0
-3168 -3144 0
1046 -1906 0
-4272 2390 0
3876 -2553 0
-502 -3364 0
1770 395 0
544 -3019 0
-2011 -4334 0
-4128 -1762 0
-588 1486 0
-1690 3757 0
643 -25 0
-4185 509 0
-2371 3028 0
2542 1414 0
-2014 2215 0
2575 -502 0
-3811 3218 0
2590 3415 0
3068 151 0
1676 3110 0
3327 -2513 0
-4224 435 0
1808 -2250 0
-1962 3128 0
887 -3929 0
4247 -332 0
-1085 -1833 0
-1583 -1613 0
3027 -2989 0
-4027 -3161 0
-2852 -3926 0
-3780 1259 0
-300 4157 0
470 -3849 0
-1735 -549 0
94 1279 0
3860 -552 0
3608 -554 0
4329 2974 0
-2242 1635 0
-463 3797 0
3189 4248 0
-1945 -1540 0
-2417 1377 0
2998 -493 0
3145 765 0
-851 -356 0
3076 -2880 0
377 4097 0
1870 707 0
2173 3157 0
-2981 4131 0
-4199 2547 0
4212 2827 0
3101 -3723 0
1374 2430 0
-2846 4170 0
1415 -3552 0
-256 -2342 0
-1234 -2180 0
-1496 -1071 0
-1273 -2417 0
-923 282 0
3780 -16 0
4123 -2839 0
-3517 -1799 0
3610 1064 0
-241 1542 0
-2740 3638 0
90 -1976 0
2577 -1002 0
2500 4108 0
3719 -1784 0
-1214 1935 0
-3239 1092 0
2392 956 0
1360 -3685 0
2503 1851 0
-388 -3596 0
-2351 -1029 0
-2923 -1238 0
-2277 -1270 0
-528 2686 0
3962 2329 0
3247 2182 0
-4086 2408 0
519 3738 0
-2480 -2371 0
-4160 3474 0
684 3688 0
-2365 -193 0
-1281 3485 0
312 -2523 0
3510 -3129 0
1055 1393 0
1094 -2581 0
-2130 3072 0
-1836 1530 0
-1708 3016 0
4056 2998 0
6 1302 0
577 2310 0
198 2675 0
1035 -1478 0
1856 1789 0
-61 -2039 0
3303 -2858 0
4187 3391 0
-3613 -424 0
-3574 -1910 0
-1016 -142 0
3307 -1800 0
-2226 652 0
432 -473 0
2429 1069 0
3778 -1436 0
-1696 1589 0
-123 -1807 0
2552 3185 0
-3333 -1656 0
-2596 394 0
-1528 4228 0
-1818 -1312 0
-2990 4339 0
-1797 268 0
4033 -1028 0
-904 1075 0
-3974 2153 0
2123 2835 0
-1200 -2965 0
90 1519 0
3424 -3002 0
-2182 185 0
827 2890 0
-1592 -1398 0
971 4364 0
-187 65 0
772 3559 0
-2864 1934 0
-2659 3136 0
1149 -1545 0
-2534 -1761 0
-2646 -3246 0
-2405 -1129 0
-485 4157 0
1736 -3881 0
869 4156 0
-3814 -3551 0
3201 -1723 0
-1940 652 0
249 1743 0
-985 -396 0
1842 2889 0
1893 1087 0
-2739 3235 0
590 68 0
4360 -1472 0
-3389 2898 0
4251 -2996 0
1305 -511 0
-3888 -2582 0
-363 -3070 0
-3080 432 0
-4316 -2697 0
-4175 2124 0
2773 -4271 0
-919 3195 0
1250 -1398 0
-1404 -442 0
3395 3899 0
1755 -1745 0
-3070 -3176 0
-3257 -3198 0
-2753 916 0
2147 -828 0
-3839 -3452 0
-3748 -1981 0
-923 933 0
-1741 3059 0
161 2665 0
3726 2532 0
-546 4042 0
1487 1795 0
-1520 1658 0
-530 988 0
2186 -2836 0
1341 -3217 0
-3994 1289 0
-955 3821 0
-3487 3985 0
-1738 -3269 0
1 -635 0
-1607 3068 0
4270 1041 0
-1029 494 0
3388 3298 0
617 3909 0
132 1224 0
-3549 3140 0
2369 -1319 0
-221 2016 0
2559 -2357 0
344 2305 0
-942 -1186 0
-983 -738 0
-1824 -539 0
-3513 -2478 0
1158 1777 0
1882 -1383 0
-1396 2809 0
-1071 1964 0
1740 -2030 0
940 3766 0
-212 445 0
-3056 -2975 0
4156 -3143 0
3547 -3384 0
-436 4315 0
-3205 2173 0
3628 3621 0
-2222 3374 0
913 2159 0
3275 -2659 0
-429 -2341 0
-1129 -4211 0
2136 880 0
1792 -234 0
3877 1543 0
3767 1150 0
-3796 4138 0
-1236 3430 0
-107 3089 0
1750 -1875 0
-2747 2748 0
-123 1474 0
124 -495 0
-2439 -4363 0
2929 1619 0
2753 3448 0
2156 -1162 0
-2264 2136 0
-852 -2059 0
2044 778 0
-1578 1186 0
-3404 -4348 0
1021 -2303 0
-3817 -1903 0
952 2575 0
-3192 -1646 0
4236 1457 0
2335 -284 0
-2312 4346 0
1353 -220 0
982 -346 0
-3881 2398 0
-4185 876 0
-2744 -4266 0
3710 1443 0
-3889 -126 0
-2336 3760 0
2017 -1013 0
3084 -3445 0
-2280 -2394 0
-3688 847 0
-1623 2031 0
3268 -948 0
-3795 -1860 0
1280 -1984 0
3342 3751 0
4096 -686 0
3382 -2870 0
-1810 3036 0
-2818 -2687 0
-458 2287 0
1743 548 0
3897 -4281 0
3037 -2609 0
3988 726 0
2735 -2848 0
1220 -2396 0
-825 101 0
2210 -2437 0
2054 -3377 0
2500 -1644 0
-1333 -4270 0
-1664 1093 0
4005 -555 0
-3783 -3841 0
-2319 -1758 0
685 4023 0
2557 1046 0
2661 -1270 0
-1679 2977 0
2112 -479 0
-2156 663 0
-1301 649 0
1499 4053 0
4294 4097 0
1828 3820 0
679 -4065 0
4382 3742 0
372 -18 0
-3926 -3667 0
2068 3172 0
1119 2616 0
-133 3693 0
3246 3118 0
2462 1293 0
-3437 -1146 0
-3328 -3180 0
-2307 3889 0
169 2137 0
-3748 -3596 0
-2071 1487 0
-3912 2411 0
-1448 -4236 0
-2139 3740 0
-3272 4034 0
-3991 -1655 0
-2138 2994 0
-3366 4247 0
921 2499 0
570 -1661 0
3698 -2240 0
1496 -2103 0
-3135 -2041 0
-2606 2493 0
-2087 -286 0
1055 -1843 0
3599 4046 0
3316 -3046 0
2855 -3198 0
-4187 -2986 0
3886 1230 0
-375 1904 0
-2720 4107 0
-2276 -4097 0
-1647 -1532 0
-1679 -3291 0
-297 3155 0
-1100 -525 0
-3531 53 0
-806 4049 0
2284 -2441 0
425 469 0
-4220 -1099 0
-159 -3389 0
-3853 -712 0
3086 -812 0
-1314 1505 0
-892 -1738 0
-1856 3138 0
434 237 0
330 1892 0
3858 -3513 0
-937 2431 0
-3754 3382 0
2463 851 0
2317 -1351 0
-483 -4027 0
4082 3315 0
-673 3556 0
-1633 1608 0
2861 1949 0
52 369 0
-2006 2255 0
-3827 3393 0
2486 3723 0
4252 2653 0
-3155 -1965 0
-420 -3277 0
-2250 -4368 0
-2374 545 0
-1272 -116 0
-1063 389 0
1138 3642 0
-1251 193 0
-4060 -2618 0
3338 -2379 0
-1315 -969 0
1672 -2255 0
-2542 -3030 0
3385 -3684 0
2748 4294 0
-1885 1393 0
3645 4241 0
-986 -93 0
-2305 -4262 0
-1756 1903 0
2626 3724 0
-3135 -2030 0
-3618 590 0
-3441 509 0
-3097 1270 0
1239 -1391 0
-2479 4253 0
-1265 -2566 0
-2360 -3054 0
-1856 -4322 0
3977 3242 0
-1347 -1995 0
2489 2636 0
4088 -128 0
-1626 2492 0
-2072 -439 0
-764 -1604 0
20 151 0
-2417 993 0
-1961 -1421 0
1058 -1027 0
-2260 607 0
-2372 -2373 0
-3693 133 0
680 3544 0
412 -1932 0
21 903 0
1518 -2790 0
3091 -3684 0
-2512 2966 0
-1915 2332 0
2778 -1807 0
3421 -2656 0
1070 -2241 0
574 -2448 0
-2362 -1335 0
3438 -3224 0
3687 1795 0
-3544 872 0
4280 1878 0
1369 -2065 0
3293 4339 0
703 -2390 0
11 -2892 0
-209 -2551 0
-2898 -2521 0
2873 -4205 0
1254 2168 0
2269 3359 0
3121 -2757 0
-1002 2284 0
2463 3594 0
-1760 -365 0
84 -1395 0
4209 -4231 0
2071 -2034 0
661 3454 0
3827 -3402 0
-244 3961 0
-2339 3672 0
-3401 -507 0
3396 -196 0
3448 -1441 0
3539 -364 0
-3711 -2030 0
3629 764 0
-1018 2887 0
-1127 -659 0
1514 -3626 0
-1520 3324 0
-513 -3077 0
-19 3414 0
-2582 3211 0
853 -2727 0
2289 1848 0
3904 2011 0
-1734 -4226 0
784 2931 0
-1191 -1676 0
-457 -177 0
-2720 3316 0
-2181 -1326 0
3753 -683 0
2612 2118 0
-7 -1523 0
4382 -750 0
-1833 455 0
-3644 2949 0
-233 -2311 0
-1346 -1427 0
-421 309 0
-1228 639 0
-2428 1429 0
755 -756 0
577 4058 0
2872 887 0
-1957 564 0
-1439 -1638 0
880 2847 0
-2476 -1103 0
738 -2279 0
-287 -2744 0
-2850 3086 0
-1642 1245 0
509 -2766 0
-3156 -3848 0
-333 -2495 0
2139 2915 0
-1508 -1940 0
-3306 -3705 0
1102 -181 0
-2142 3130 0
543 2510 0
1932 -1654 0
2963 1831 0
356 -3297 0
4263 -692 0
3756 1778 0
989 -278 0
-2981 -2260 0
-2913 -2881 0
3585 -3099 0
-421 -8 0
164 254 0
423 3499 0
-297 -3943 0
3179 -2198 0
-2933 -182 0
-3684 4268 0
3844 788 0
1600 3643 0
-708 2696 0
-2844 1270 0
-1678 3857 0
4060 -107 0
-2268 4032 0
-1400 -1199 0
-3059 3563 0
3443 3804 0
2220 2815 0
1732 1829 0
3190 1213 0
-804 -3584 0
-4347 3550 0
1248 -107 0
4089 -2934 0
2997 -2223 0
2918 1370 0
640 -2593 0
-3181 -137 0
4212 -2618 0
-61 -1609 0
2547 -1433 0
-263 -3347 0
-3123 813 0
-2835 4376 0
1674 3909 0
-9 3264 0
2402 -440 0
2445 -3715 0
-2298 -3509 0
1614 1142 0
4093 -399 0
-4116 4367 0
-966 -4337 0
-561 4098 0
1640 2003 0
-1664 -3626 0
760 471 0
-1464 -1879 0
3360 1587 0
1266 -7 0
-1625 -3110 0
2570 1046 0
-2394 -2186 0
2352 2185 0
3957 2966 0
2820 2572 0
-1082 3725 0
-1803 3766 0
-3311 -3687 0
2131 755 0
-3308 3808 0
2007 -1509 0
304 -890 0
187 667 0
-1569 848 0
2269 3127 0
209 2457 0
-2442 -3201 0
569 -635 0
-358 1131 0
4281 1969 0
3192 -2488 0
2950 3730 0
-1596 83 0
3821 524 0
2923 -213 0
-4081 -2141 0
244 3938 0
-3817 -4039 0
3090 -263 0
-1090 -2095 0
4303 -4053 0
2989 -2592 0
-820 1883 0
296 -1311 0
3654 1355 0
3872 3432 0
-1382 -1085 0
3790 61 0
-379 -4244 0
-3674 3885 0
-304 -2856 0
-4357 3714 0
-4175 -1045 0
-1014 3788 0
-1684 815 0
2661 -1589 0
2867 -2316 0
3209 -796 0
3878 2844 0
377 -3685 0
-3100 105 0
-1979 -2061 0
3600 2164 0
1227 4 0
616 -949 0
2908 -483 0
-163 -1017 0
2609 -32 0
-1862 3207 0
3025 -2798 0
-798 2126 0
3698 -571 0
-403 -2319 0
2805 -4188 0
3828 65 0
2404 3250 0
3426 3370 0
1403 -1554 0
265 3064 0
-2019 3195 0
-3995 -4252 0
2467 3214 0
326 1532 0
393 -2823 0
-3099 2484 0
-2997 542 0
-3817 1218 0
3971 -161 0
428 -2263 0
-326 3191 0
2158 -3357 0
94 576 0
939 3878 0
-3685 3740 0
-568 4202 0
712 647 0
-348 2527 0
-4077 2998 0
2875 248 0
480 -2568 0
643 -3763 0
-2926 -2342 0
147 4152 0
-1460 -245 0
1712 -2689 0
340 -4114 0
2096 -393 0
-4156 -3529 0
-1747 -3951 0
-2773 -1928 0
1561 3611 0
-2536 3013 0
-3326 -120 0
4223 3772 0
881 3861 0
3068 3595 0
208 -4009 0
-2577 -1507 0
-4084 -3551 0
-2274 -1013 0
67 865 0
-1891 2284 0
4234 3259 0
-1602 1728 0
-3925 1515 0
-837 -1335 0
-1359 -1218 0
-3799 3908 0
-3592 2910 0
-2307 -2397 0
3522 1268 0
-4329 -3564 0
2191 3145 0
-1749 -837 0
-610 1142 0
3612 -375 0
-1249 1994 0
66 1711 0
313 2715 0
832 -1133 0
-952 -2379 0
637 1278 0
-2395 250 0
-3612 1206 0
2099 -3181 0
-2076 -1614 0
-2181 2922 0
-1395 -1338 0
3823 4294 0
3565 1817 0
826 2590 0
-1472 -1146 0
-714 3567 0
1447 403 0
3322 2974 0
-726 -1101 0
-3568 -1868 0
-1539 -3195 0
-533 -641 0
1242 -3738 0
-1389 2804 0
-3946 -1548 0
-3273 2917 0
-1313 2316 0
2550 -2973 0
3521 4000 0
-2721 -3789 0
-930 608 0
-195 146 0
-1943 1682 0
3941 1531 0
-1632 4191 0
3472 342 0
-3128 2941 0
-299 -2851 0
-1381 -2371 0
3418 -3391 0
908 2070 0
-18 2093 0
-1538 1961 0
-181 250 0
-2001 -3710 0
-117 -1809 0
-1659 4297 0
-3423 -4347 0
-1559 3363 0
447 -15 0
2925 2155 0
1779 3691 0
3745 2657 0
-2466 -4142 0
-304 1113 0
1252 2998 0
-4246 960 0
-1636 -1589 0
-3388 2500 0
-207 782 0
-3793 3322 0
-4160 1036 0
-3198 3023 0
-1985 3715 0
428 2792 0
4117 575 0
4179 1850 0
-963 3606 0
620 3055 0
-3057 4117 0
3242 -2692 0
1470 -3175 0
1897 -1673 0
3277 4269 0
833 2132 0
-73 1829 0
305 863 0
909 -3359 0
-607 2332 0
-2469 -2445 0
2767 2192 0
-4109 -3584 0
-20 482 0
-2219 -2475 0
-2165 -2010 0
3534 2686 0
-1752 -2996 0
-706 3407 0
2750 -2167 0
-3748 -505 0
820 612 0
-769 -3993 0
-3641 2965 0
-1605 1514 0
2944 -3914 0
-1735 -1884 0
4268 -4347 0
4005 -462 0
-3078 3990 0
-2556 -1050 0
1115 -3117 0
349 -4285 0
246 827 0
2232 -2312 0
-2224 1685 0
-3626 4039 0
-2478 1295 0
-2361 1836 0
3418 2384 0
3751 -2673 0
-482 66 0
481 -2965 0
3129 -2989 0
-2361 -2515 0
932 2865 0
-2841 2081 0
595 3647 0
-351 1452 0
-4139 -448 0
2874 -1335 0
2106 3170 0
2751 -1494 0
-2988 2938 0
-1890 1389 0
604 3608 0
-2591 -2866 0
2500 -967 0
3125 -405 0
1401 -1410 0
1065 4050 0
-1158 1793 0
-1948 2165 0
-4170 -3896 0
-807 929 0
-829 -508 0
4374 -159 0
1957 3178 0
2231 -2946 0
-2593 -4277 0
3419 2771 0
-2573 1076 0
648 3844 0
1709 1153 0
4192 -4021 0
-2924 3268 0
-3220 1119 0
-2824 -1313 0
3963 -748 0
414 3306 0
1699 3749 0
-998 245 0
-2123 174 0
-472 1706 0
-41 790 0
-3798 -2450 0
-3346 -1900 0
-2034 2617 0
3858 3595 0
1587 -2649 0
584 -3821 0
-122 3904 0
-1510 -2325 0
3501 3406 0
-665 829 0
-646 -472 0
335 -890 0
2796 -3196 0
-2932 1021 0
1458 3124 0
-1950 -1672 0
816 -2668 0
-3351 -1122 0
-3941 -700 0
573 -2037 0
-1903 1306 0
-2083 -2932 0
4070 -3087 0
568 -3171 0
-1909 -1495 0
4384 2011 0
4316 -2748 0
4198 -3289 0
-2260 -458 0
3784 -1044 0
-2214 -482 0
-2731 1223 0
-3114 -582 0
3523 3581 0
-1573 110 0
-1151 2293 0
1882 -3937 0
-2434 1138 0
3367 2630 0
3319 1526 0
772 -2542 0
1037 -3976 0
-3619 2070 0
-3184 -2402 0
-4087 -1164 0
3965 -3618 0
763 2086 0
-2987 3897 0
2658 2053 0
330 3808 0
4179 3815 0
3378 1832 0
-2705 4003 0
3563 3084 0
3220 2381 0
-442 -2183 0
-4187 2767 0
-39 -1517 0
-3349 967 0
1386 1911 0
3013 -4023 0
2350 3886 0
4387 -2890 0
-1780 1585 0
-818 3717 0
-3529 1771 0
1741 1783 0
2210 -2407 0
-530 -2839 0
1042 -25 0
-86 1316 0
-1844 1308 0
210 -4114 0
1 -2846 0
3466 -481 0
3254 -178 0
4050 3274 0
3754 1462 0
3915 3332 0
610 2027 0
-4345 1049 0
726 -1164 0
-2733 3966 0
2163 35 0
-690 437 0
2404 -3677 0
1312 1157 0
2019 -779 0
112 1924 0
-3995 -37 0
-1199 -1389 0
-3149 -1101 0
-4092 3585 0
1579 -1448 0
2220 2400 0
-3605 -851 0
343 3673 0
3734 1584 0
-2119 -1288 0
-315 1880 0
1956 1951 0
520 -1294 0
3344 2549 0
-4221 -3948 0
3498 -463 0
3202 -2649 0
3191 -966 0
4093 -388 0
630 1696 0
2914 1227 0
-3156 -2356 0
1489 -974 0
-1185 -1109 0
-132 -5 0
-3130 -689 0
-3286 575 0
4033 3461 0
2438 4376 0
1080 -2994 0
779 1074 0
1890 1961 0
404 57 0
3272 3051 0
-2392 -145 0
1193 1930 0
533 -479 0
-1294 940 0
1297 2803 0
3876 -1734 0
-74 1827 0
1923 3280 0
-233 -3942 0
-3720 -582 0
-449 -1580 0
2362 4017 0
3917 -2222 0
-1200 1351 0
-744 1498 0
3654 -267 0
1949 3752 0
161 2001 0
-852 -3995 0
-3573 -382 0
1286 -1153 0
-2087 1833 0
1171 1076 0
1985 1340 0
1846 -2386 0
2217 -2238 0
2644 -226 0
-3620 3616 0
334 -2684 0
3358 -2606 0
2911 3211 0
-1908 1597 0
-4083 -998 0
1979 -3335 0
-753 655 0
1356 917 0
2369 1124 0
-4126 -2122 0
-2216 175 0
393 -2672 0
125 1611 0
2860 -415 0
872 -278 0
-2878 455 0
-3625 3967 0
-350 -540 0
-3233 -2090 0
2546 -1855 0
976 3859 0
2734 -3535 0
2330 3486 0
-265 3928 0
2181 2383 0
-629 -711 0
-1233 464 0
3590 -923 0
3605 -1550 0
-515 -2235 0
3278 4302 0
1024 -3001 0
2753 3167 0
3865 3324 0
2580 -2795 0
659 -3919 0
-2151 -2349 0
-64 -971 0
2449 -4304 0
1651 1972 0
-3565 1688 0
-3953 480 0
-384 -728 0
316 -670 0
-1452 4050 0
-3528 2972 0
-3774 2943 0
2307 3928 0
3865 -2959 0
3299 1574 0
-2599 1873 0
608 2677 0
2548 3074 0
-4256 -1308 0
-1485 1591 0
3805 -3993 0
-2567 -1193 0
-3625 -2567 0
2872 1405 0
1964 -3807 0
3812 1971 0
3733 -3429 0
-1440 3798 0
3714 3276 0
1480 4002 0
2550 -707 0
405 -3665 0
2974 334 0
-2954 652 0
-2656 -1374 0
-4186 -3001 0
-1008 1480 0
-196 659 0
-3135 -4000 0
-4063 4158 0
-920 2489 0
2172 -3781 0
-18 -487 0
-3382 2777 0
-177 1387 0
2304 -2702 0
296 2217 0
-676 -1875 0
1668 2600 0
2809 -1575 0
-371 -3587 0
-3358 -1181 0
-2268 -4147 0
-370 2920 0
909 1355 0
1829 -208 0
1079 3356 0
-253 -2716 0
2294 4076 0
-1284 2930 0
-1871 -3675 0
-2629 2388 0
2826 3534 0
-3038 -3649 0
970 -4363 0
-3273 -662 0
3373 -1478 0
3372 -2290 0
1761 3252 0
1067 2516 0
-1284 -1117 0
3324 1086 0
1384 4276 0
2854 283 0
-2118 969 0
3191 -1200 0
3901 2993 0
-194 -1839 0
-1185 1321 0
3332 2543 0
-331 -1605 0
-366 -3313 0
-2420 1863 0
4019 -2163 0
2253 -3396 0
-128 -3024 0
-3211 2141 0
2249 1610 0
-3499 -1484 0
-2088 3645 0
-119 54 0
-3287 3419 0
-3463 -3728 0
3429 -4110 0
-4113 545 0
-1017 -2750 0
1730 -3003 0
1556 753 0
4013 -3434 0
-1690 2988 0
2254 2228 0
4068 1739 0
-1779 1092 0
2732 -449 0
3432 -2083 0
-288 1850 0
429 2287 0
-472 -1680 0
3072 -1752 0
1564 3976 0
2723 2782 0
-1780 -3642 0
2423 -215 0
-3914 -1799 0
2177 -1314 0
397 -2434 0
-2967 2734 0
2369 515 0
-1317 -1223 0
-1508 3330 0
1914 2298 0
-1211 1102 0
3013 3662 0
-3104 -1492 0
990 3766 0
-1876 -262 0
-3199 2533 0
3251 -2761 0
3280 -950 0
127 2578 0
-430 -1554 0
-2271 3247 0
-2032 -1427 0
-3945 -330 0
1049 1321 0
-954 -1836 0
-2565 2139 0
2261 -883 0
-918 -2241 0
2129 -3562 0
1729 1402 0
732 115 0
-1866 -3366 0
-1413 4328 0
1236 3153 0
601 3688 0
2955 3810 0
-3485 3523 0
3924 4370 0
1681 -2045 0
-1994 2286 0
3794 -2883 0
2782 -102 0
-820 -2946 0
3980 230 0
1628 -4036 0
3107 -499 0
-3711 -2925 0
-3991 553 0
-190 -3224 0
1370 2346 0
3323 -3788 0
-1063 4267 0
-2680 -3120 0
-2804 -1288 0
537 -1085 0
-1385 1177 0
1620 -1155 0
2948 -266 0
3672 994 0
-4292 -636 0
-295 -4321 0
3797 3482 0
505 2223 0
3771 -2570 0
579 2831 0
-285 -208 0
-2320 1568 0
1216 83 0
3421 -554 0
2522 578 0
2782 143 0
2563 -279 0
-3799 1540 0
2038 -1506 0
-902 825 0
-756 -2722 0
431 -1069 0
-3658 -509 0
833 -1112 0
1614 849 0
-3403 -244 0
-689 -2097 0
3375 1034 0
-3355 -2137 0
-941 2836 0
-3310 2803 0
-903 4032 0
-3439 -3593 0
-1428 -1933 0
-2623 2526 0
-3389 -2069 0
-416 3932 0
-63 -115 0
3412 -4176 0
1446 -886 0
2226 -1820 0
-3752 2138 0
-2929 -3770 0
-514 -604 0
2195 2469 0
-3015 859 0
2772 -795 0
2231 -3933 0
3972 3634 0
-3807 1977 0
1493 1851 0
-616 -4118 0
3711 -1387 0
-3658 3921 0
-3552 -217 0
3318 3912 0
-1738 -2190 0
-1973 3849 0
-4083 -3148 0
-4018 1027 0
1612 1203 0
2048 -2739 0
-3458 2353 0
3913 -3383 0
-2674 -1902 0
2680 2345 0
2647 -1500 0
-504 101 0
-3750 1868 0
3233 -765 0
-2579 -1238 0
-2384 2636 0
3202 932 0
1099 996 0
2422 3344 0
3085 3672 0
1295 -1914 0
-1152 -3960 0
-3544 -766 0
-3525 -2646 0
-4124 -1583 0
43 -2001 0
3880 413 0
-2741 -225 0
1788 1809 0
2270 3536 0
-235 1183 0
-405 2197 0
-2881 1893 0
3820 791 0
-3808 2595 0
-1920 -2544 0
1392 -665 0
2522 1915 0
4194 1174 0
621 2968 0
-158 -993 0
4064 -1959 0
-4268 -3566 0
-133 2135 0
-2274 492 0
-1259 4167 0
3187 1842 0
-3577 3749 0
365 -1143 0
2909 -3768 0
1213 -2538 0
-3586 -3881 0
-745 -2760 0
1211 516 0
3588 3153 0
-992 6 0
8 -3549 0
-3408 -858 0
-60 1462 0
2751 -4018 0
-37 2203 0
1218 2191 0
1345 -2329 0
2677 3440 0
-458 -80 0
-1229 2421 0
548 163 0
1371 4034 0
-2839 -1039 0
-351 -2905 0
-3083 -710 0
20 4242 0
-1348 -2188 0
-1144 -3396 0
1353 91 0
2406 -2048 0
-2067 -1458 0
-515 -2763 0
2154 -490 0
-3774 2795 0
-2958 -4019 0
-41 -4 0
4006 -1150 0
-251 -1350 0
-1330 -2903 0
2831 -750 0
19 -890 0
687 3307 0
1197 -3485 0
597 705 0
2029 3762 0
3597 2334 0
2455 1036 0
-1147 -4072 0
-1208 -1973 0
-3855 -2605 0
-322 -528 0
2346 1620 0
-2620 3221 0
1080 -1936 0
3510 -4377 0
2845 1190 0
-2341 3149 0
1553 3239 0
-3089 -604 0
1590 -1856 0
-1839 -2428 0
-1766 -3488 0
202 -741 0
-1515 -1589 0
-217 1341 0
-555 -921 0
4325 -1349 0
-1531 2762 0
-2843 -3862 0
-1462 1452 0
2885 -1005 0
2750 2127 0
1158 660 0
2330 1931 0
2844 -1464 0
2736 -1319 0
-2530 -2677 0
2738 -668 0
3065 3316 0
-1046 -150 0
705 -2619 0
429 2358 0
135 -632 0
655 -384 0
-3862 -59 0
3096 1796 0
1798 -3099 0
-3631 -2611 0
2170 -1668 0
2707 -1896 0
2476 784 0
-3948 -426 0
2827 212 0
100 4278 0
3691 4384 0
-556 -364 0
4146 3059 0
2770 -3681 0
24 -170 0
1143 617 0
-3015 532 0
2847 2188 0
3262 971 0
-2814 2609 0
-3478 3999 0
1693 -1328 0
-1094 4360 0
52 2103 0
-2843 -4233 0
-116 2559 0
-3635 1353 0
755 -1431 0
2140 -4096 0
596 2316 0
1836 -953 0
-3777 489 0
808 2975 0
-365 3994 0
3490 4050 0
2714 2097 0
2400 2997 0
1459 3483 0
1930 -3284 0
-4200 4289 0
513 2489 0
3482 -1266 0
-56 2691 0
1066 3893 0
-1973 -3369 0
1709 -1842 0
1315 3645 0
-4224 2179 0
1583 4289 0
2191 -450 0
-534 -4102 0
-1295 3697 0
-1485 3038 0
-1550 -1180 0
-1673 -3640 0
2673 575 0
798 -4051 0
-3336 2963 0
-4235 -2780 0
-3286 -164 0
-1393 -4090 0
2879 -3933 0
394 2338 0
4057 -4080 0
-652 -3863 0
-2630 4128 0
2696 -3191 0
-205 -3154 0
-2983 2496 0
1425 -3680 0
-3184 -3858 0
302 3232 0
-1529 -1932 0
-1582 3501 0
-3082 -4026 0
2651 -1661 0
4128 1538 0
-3364 4317 0
2940 3125 0
-4298 1203 0
489 -1347 0
-2349 -4060 0
3440 -2409 0
2431 -1994 0
-3500 -3843 0
-2467 -3285 0
4083 1405 0
-1428 -1608 0
1602 -1209 0
-3966 1 0
-3106 807 0
4047 -2060 0
2451 2309 0
-3346 832 0
1553 -3065 0
-2738 -2596 0
-2775 1848 0
3089 -2661 0
2231 -2436 0
1823 3674 0
2535 -2150 0
-3965 29 0
1126 2364 0
-626 -492 0
-935 2858 0
-4317 -1260 0
2874 -2648 0
-4378 2671 0
1580 -1320 0
4311 2502 0
-999 1445 0
-3329 4006 0
2700 3587 0
-2259 1770 0
2212 4126 0
2851 2284 0
-3900 -877 0
-2011 3522 0
-2030 -3027 0
1663 2664 0
-1388 1983 0
280 1245 0
-1631 766 0
-2584 2009 0
3432 2172 0
3850 499 0
877 -2758 0
-2005 511 0
171 -4091 0
852 1970 0
2621 323 0
-2721 3178 0
-3284 3149 0
-2241 3754 0
-1299 -441 0
724 -712 0
-4153 -2943 0
3773 -941 0
630 -32 0
1141 -4218 0
2020 1517 0
3755 2461 0
3243 1140 0
4025 2788 0
2454 -4160 0
2922 3443 0
10 -3225 0
3054 3052 0
4247 4260 0
3091 1600 0
3708 -499 0
-4004 1394 0
3010 1719 0
1671 2730 0
3128 -908 0
3225 -987 0
3816 -1094 0
2649 608 0
2917 -2674 0
1798 2632 0
2235 -3870 0
3461 -1396 0
-2808 -3602 0
1969 -3899 0
-3870 -1457 0
-2119 1505 0
979 -441 0
2813 1701 0
-1085 2419 0
-3624 -2205 0
-3763 -2248 0
808 3423 0
1033 2579 0
-1988 3628 0
-1096 -2720 0
-1570 3281 0
-3494 -2144 0
2505 -549 0
-2587 -3715 0
99 883 0
741 -3070 0
3206 -483 0
-2411 3876 0
2879 -3839 0
1475 3865 0
4318 -669 0
2526 3859 0
-4345 4049 0
-3884 1990 0
-130 2126 0
-1747 652 0
2437 2357 0
2399 1408 0
1716 -1566 0
301 3130 0
-1935 6 0
595 -4357 0
-2837 -1376 0
1482 -4029 0
-1992 -378 0
-1582 2016 0
2168 3397 0
2916 124 0
2764 -1349 0
372 -3529 0
2467 2321 0
-3943 413 0
-2957 705 0
1190 2281 0
-3749 3493 0
3177 1717 0
-1895 2500 0
4168 2216 0
2311 -373 0
1577 3159 0
-3234 -3247 0
-721 2734 0
-1009 2365 0
861 3190 0
1161 -96 0
85 -2296 0
-4089 -3564 0
-2377 -3343 0
357 -666 0
-880 -1422 0
1176 1132 0
-3204 -4116 0
4129 1008 0
-3040 650 0
-3323 4145 0
3610 -574 0
102 3894 0
-3117 2700 0
-2517 -796 0
413 4266 0
-1208 2304 0
-1987 -2276 0
-2590 -520 0
2015 -1419 0
1226 2510 0
1185 -937 0
1619 -519 0
1442 -3090 0
-3739 1337 0
4285 -3796 0
-3532 -2787 0
1968 2522 0
3111 3683 0
-2908 2214 0
2481 -1455 0
-2198 790 0
-4124 -1803 0
322 -872 0
-351 2403 0
-3968 7 0
-2772 1142 0
813 -4304 0
1715 2528 0
1850 -4380 0
-4377 -3442 0
-3246 3727 0
-1344 -171 0
2921 -2363 0
-80 -1703 0
3842 -979 0
-1253 -3701 0
-3817 -4285 0
-613 -2570 0
-1974 -3222 0
1157 -2406 0
3380 832 0
-2036 -2552 0
-1517 -1086 0
3782 26 0
1727 -1311 0
1490 2425 0
-164 -919 0
-4081 -4245 0
3902 -1152 0
1729 714 0
-1302 1413 0
223 4064 0
4298 374 0
1248 3213 0
167 -361 0
-2088 384 0
2516 119 0
148 -2475 0
-2074 -2288 0
-4228 3385 0
1674 3811 0
1069 3822 0
2249 2502 0
-2337 -928 0
2481 -4078 0
3288 4295 0
2801 210 0
-3493 547 0
-2761 3316 0
3041 712 0
3413 654 0
-711 -3685 0
-3820 2383 0
4374 1832 0
-431 -390 0
-232 -1226 0
432 -813 0
-1772 -4116 0
317 -116 0
2829 1595 0
3592 -4293 0
1047 3202 0
1120 -1406 0
285 -4026 0
-2485 4070 0
2943 2203 0
4338 1072 0
-2614 2530 0
-4031 -1768 0
4205 2931 0
2137 991 0
661 622 0
-2993 -914 0
-3583 -359 0
2068 -878 0
2761 -2858 0
-3166 -1727 0
-2234 -1168 0
-392 -1762 0
423 -2932 0
1403 984 0
3777 485 0
-84 -4331 0
-4289 -2860 0
-3191 2705 0
2263 412 0
3154 -1668 0
3184 -348 0
1921 196 0
-1104 881 0
1615 566 0
-2851 -117 0
-333 -2727 0
-1481 3757 0
-4356 4087 0
4308 2136 0
1353 -401 0
555 2338 0
-854 4041 0
-1189 -3394 0
-919 -741 0
1479 -472 0
-1835 -2039 0
2154 -2406 0
2915 -1716 0
-4324 -3109 0
-4207 -1492 0
-4314 1025 0
-1347 -38 0
230 677 0
-1676 -2568 0
-3110 -2810 0
368 -3366 0
248 2467 0
954 -2906 0
138 -3525 0
-2739 -587 0
-3089 3225 0
-2720 4254 0
-1016 -3923 0
227 -1000 0
-2201 -3224 0
-689 -2283 0
-3606 23 0
-1752 -1790 0
4314 -794 0
4235 455 0
1582 1038 0
613 -1348 0
-1292 501 0
-2846 791 0
-2413 1397 0
-2985 2571 0
-1114 4242 0
2218 2734 0
4145 -1062 0
-3382 695 0
-796 4043 0
1248 1877 0
-75 3860 0
-3569 2386 0
3130 2714 0
3628 1974 0
1567 2461 0
-4227 -2001 0
-3566 2327 0
3492 -33 0
-974 2387 0
-2549 3066 0
-2434 -1223 0
368 257 0
3362 -1489 0
-1089 215 0
1359 -209 0
3860 205 0
1966 -1855 0
-2295 2317 0
-2557 1118 0
-2560 226 0
-822 3073 0
-52 2385 0
896 1923 0
-56 -15 0
-1512 3834 0
1287 -1749 0
1438 2896 0
3343 -2781 0
4200 -93 0
-3687 2772 0
3447 -2653 0
3899 -3392 0
-3305 -782 0
-1391 -2727 0
855 1186 0
1309 -3272 0
-1972 3632 0
3726 3612 0
-3161 -3807 0
-1750 4172 0
-1937 3974 0
-287 485 0
-397 1606 0
1144 3778 0
2677 2262 0
-4212 -1923 0
3515 -4014 0
-19 -4185 0
2244 -4062 0
2501 -688 0
1252 616 0
418 -2991 0
-2684 -3427 0
1606 -626 0
1757 3638 0
-1117 -139 0
3116 -2136 0
-4103 -2216 0
4384 -1581 0
1934 1585 0
-2499 -4158 0
3090 3725 0
-3501 -937 0
-1313 1867 0
2726 2301 0
-2085 -2878 0
-3289 428 0
369 2559 0
-398 2601 0
-2456 2350 0
1610 1328 0
2859 303 0
-2373 -841 0
-3831 3517 0
-1333 2316 0
2792 3494 0
4089 2863 0
-1245 1300 0
-234 -1113 0
2471 451 0
2963 2798 0
618 -400 0
-1747 -3603 0
1546 -1759 0
533 -1930 0
-2944 -4341 0
1311 1952 0
3167 -3003 0
3965 696 0
-3169 -1241 0
1635 -3662 0
1755 -2756 0
-290 998 0
-2198 2228 0
3770 -2036 0
595 -567 0
4248 -2868 0
1203 41 0
1949 3348 0
-2104 4010 0
-3478 3694 0
3685 -980 0
-3856 3512 0
502 2341 0
-1381 -2019 0
-2134 3661 0
2209 -4085 0
197 -2587 0
-855 1822 0
-972 3134 0
-466 404 0
380 272 0
3962 -1097 0
2318 -55 0
3891 4150 0
328 2958 0
1195 1822 0
899 2969 0
3416 -260 0
-2765 3112 0
3167 317 0
-1563 -2574 0
3403 -1557 0
-2604 490 0
3792 2465 0
-2440 540 0
351 3042 0
1041 3729 0
-581 -3907 0
1354 2085 0
-1376 -435 0
3209 2012 0
-1690 1223 0
4160 4206 0
2498 -3847 0
449 4095 0
6 35 0
-972 -3572 0
-1595 -2844 0
1944 -1156 0
-731 -2707 0
595 2842 0
3981 -2996 0
3448 743 0
24 3989 0
3393 -2982 0
-4262 145 0
3128 -564 0
100 4120 0
1924 2812 0
-1392 -2823 0
-3136 -225 0
-1642 -1039 0
1380 2225 0
-3799 -4240 0
958 -4154 0
-1874 1847 0
18 -993 0
445 -10 0
1925 -873 0
-2339 -119 0
3888 -4343 0
-2089 -2992 0
-844 -1216 0
2163 -1100 0
-1018 1294 0
-1609 -2298 0
2001 1930 0
-528 3745 0
1334 -1390 0
-2372 3279 0
-2371 -1809 0
-463 -211 0
-4150 2327 0
-188 3054 0
-1908 -2826 0
-1973 -1895 0
-1684 -3601 0
4278 -2665 0
-2681 -1081 0
-1733 3062 0
-1613 3819 0
3338 -860 0
285 -207 0
1971 4147 0
-4180 985 0
2642 -1412 0
-413 3851 0
76 1468 0
-3551 -3623 0
-4106 178 0
4113 -1068 0
1798 -1596 0
-3732 1637 0
103 -1647 0
-2834 -3949 0
3146 -3997 0
4262 -2722 0
-2695 -2174 0
-3104 27 0
590 1854 0
-4207 -2326 0
-2675 336 0
-1000 2150 0
3227 -1598 0
-4353 2025 0
1812 -3574 0
-4133 -1931 0
-1323 1595 0
2386 3554 0
4070 -3277 0
3440 -2361 0
-3173 3514 0
3329 1777 0
4376 -264 0
3762 961 0
-315 -2990 0
1034 3202 0
3598 -3109 0
938 -4199 0
-253 -3929 0
1866 2096 0
138 3787 0
1394 -1324 0
-2391 -3385 0
3795 -40 0
-1170 -3704 0
-385 1278 0
-2430 -1519 0
3016 -1210 0
-2781 -2001 0
2920 169 0
-721 -24 0
-1152 -3789 0
512 4120 0
2412 2519 0
-987 -4215 0
-3728 -373 0
-165 -4079 0
4139 -3885 0
-4319 -4361 0
1173 3052 0
1898 693 0
2705 -4234 0
3125 -2904 0
-2038 4280 0
3925 -18 0
-999 -4198 0
-4029 3466 0
-2578 -2172 0
-1680 -1965 0
-878 4098 0
4089 -3334 0
-1469 15 0
-3278 -835 0
-3314 1897 0
2341 1003 0
-1270 -2616 0
607 -2440 0
2940 71 0
4056 -1735 0
-3634 2300 0
-259 135 0
-551 1419 0
-654 -40 0
-2703 3760 0
2990 1772 0
3140 2936 0
-1899 -3427 0
3212 3446 0
-1306 -878 0
-3847 3651 0
4295 1624 0
-1153 -4257 0
-2209 -320 0
-2558 4103 0
1120 -1986 0
2717 -1699 0
964 2164 0
-2405 3628 0
-4285 -1204 0
-2231 -3565 0
2135 -3905 0
-1966 799 0
1543 1468 0
2359 235 0
-3545 3648 0
1035 -1422 0
1007 -1480 0
2292 3164 0
3428 2010 0
-3638 2546 0
-3835 4105 0
-4137 42 0
-12 1815 0
2427 2578 0
1512 -557 0
-2120 3845 0
1740 -3308 0
1364 -2446 0
-570 -2023 0
4005 -3933 0
874 -104 0
4019 -2804 0
-3926 -1807 0
-1345 -350 0
4070 -12 0
2723 2704 0
3664 962 0
-4350 -3227 0
1985 219 0
-1338 -2724 0
3400 2906 0
-1957 2627 0
1150 1999 0
-1915 130 0
1644 4014 0
4223 2779 0
-3414 -4387 0
2193 -4206 0
-3947 -1814 0
-421 -2036 0
-271 1777 0
-4303 805 0
-3531 -3700 0
-255 -3814 0
-1626 -1078 0
-255 -3285 0
3710 4250 0
1466 -10 0
2464 -87 0
-2342 -3097 0
-2449 -4361 0
1543 -2190 0
2357 -388 0
-3657 -4173 0
2665 -2933 0
-692 453 0
-4148 3373 0
2362 -1771 0
2363 2575 0
268 2437 0
3430 -2452 0
-4134 1961 0
569 2100 0
-1367 3325 0
2612 2732 0
3551 2718 0
-3620 227 0
-2761 3077 0
-818 103 0
1718 -3464 0
-1308 -106 0
1670 -3506 0
-1990 -3088 0
228 534 0
-2962 2395 0
1306 2131 0
3932 -750 0
772 3431 0
-648 1463 0
1369 2455 0
3870 422 0
1995 -4062 0
-2658 -3990 0
-2785 -2615 0
2223 -3274 0
-3941 -715 0
-438 2174 0
3895 2829 0
-1899 728 0
-1060 206 0
602 3516 0
-2957 -3260 0
95 -3405 0
4175 -1315 0
2861 -2569 0
72 -860 0
-1469 2509 0
-1958 1595 0
2786 -3040 0
-266 1127 0
4082 -1764 0
2304 -463 0
-478 -75 0
-707 -808 0
3864 104 0
4087 2545 0
810 -3412 0
-3862 1704 0
1485 -321 0
-2380 -660 0
330 2738 0
-3238 -1787 0
-134 4318 0
1249 4084 0
-2996 3606 0
2359 -3964 0
2029 -1991 0
-837 2738 0
-995 3480 0
2726 3734 0
-264 -1736 0
-3770 -3073 0
-1416 -2749 0
-2481 2463 0
3171 1500 0
3205 -3585 0
3662 3264 0
1759 -3576 0
-1358 775 0
-3622 -3773 0
2040 -455 0
165 -276 0
3447 -2882 0
-2242 -1852 0
-3307 -1891 0
-4016 -126 0
3239 2158 0
-3591 3110 0
384 -750 0
4373 -2184 0
2600 -3032 0
-1747 202 0
3494 1513 0
4307 -2276 0
1615 3673 0
-2608 3492 0
-4022 -1053 0
1580 -682 0
-1507 -3509 0
-133 3440 0
1058 3259 0
3782 -988 0
-144 60 0
185 -3587 0
3902 4242 0
1077 971 0
2924 345 0
-4101 4221 0
1554 2575 0
-1825 3504 0
3555 1130 0
4304 385 0
-3707 4163 0
-1609 -466 0
-1749 -3657 0
1570 -1282 0
-3286 -2619 0
2029 -3301 0
3350 2463 0
-182 4386 0
4271 -3453 0
1966 -3910 0
-2582 -4343 0
3353 4181 0
-3033 -666 0
-4232 -4312 0
-2439 -705 0
296 874 0
236 -2506 0
1549 -823 0
-3814 -3813 0
-304 -2995 0
-2637 -2108 0
-1841 1294 0
-3863 -1723 0
524 2356 0
4218 -838 0
-1663 -4309 0
112 -2438 0
-672 916 0
-3940 1887 0
-3549 -3368 0
1332 -221 0
2609 -2457 0
-3750 920 0
-2933 -1812 0
894 -1158 0
-3195 898 0
1057 3670 0
4176 -2896 0
3792 -3970 0
3447 -1129 0
3761 2439 0
1981 3380 0
-3143 -2134 0
105 -3854 0
-1380 -1230 0
810 -2865 0
1781 -944 0
1198 3838 0
-1255 -350 0
2661 -995 0
3200 1075 0
3106 -3289 0
-1172 -244 0
-2935 956 0
3676 3600 0
3739 709 0
83 -755 0
-1828 2563 0
-177 -2579 0
2105 3826 0
-2406 -657 0
-3239 641 0
-3564 -2908 0
1465 1277 0
-4265 516 0
-856 -2591 0
1854 1422 0
-2127 2046 0
-1534 3346 0
1712 3116 0
2846 3502 0
-3 3310 0
-2457 -2666 0
3656 -611 0
-3664 1269 0
-2473 -3744 0
-1003 -315 0
-2832 -708 0
3066 593 0
1169 -165 0
-3308 -4031 0
2921 652 0
-4310 3993 0
3430 -4223 0
4127 2302 0
4263 -1703 0
-1470 -663 0
4326 -1307 0
-2965 -3175 0
-2171 922 0
4385 -174 0
988 -651 0
-1679 -2601 0
269 -1135 0
-1313 -4119 0
761 441 0
-588 3252 0
-626 2046 0
2988 -2366 0
602 -773 0
-3342 3688 0
3439 -1844 0
-939 2288 0
-985 289 0
804 -474 0
2376 -2995 0
-32 2243 0
-2633 3388 0
3559 4157 0
-441 -3992 0
-1799 1812 0
-1109 -1936 0
-655 -4188 0
2330 -4335 0
404 -1512 0
2352 2214 0
-392 682 0
305 -221 0
-365 -2825 0
-2115 -4352 0
615 355 0
1033 -4102 0
1285 -1580 0
870 1625 0
-1703 90 0
-2909 -839 0
2200 3281 0
-864 -1751 0
3393 2003 0
-3424 1712 0
-918 -1225 0
4259 -3870 0
-686 -158 0
3599 3130 0
-1860 -1966 0
-538 -308 0
-1380 -2607 0
-777 -2112 0
-1772 -3604 0
-1296 -2823 0
-3754 2682 0
-274 1380 0
-1959 -2069 0
785 687 0
-2739 639 0
1745 -3455 0
1194 3349 0
1554 -1395 0
-2749 3638 0
3724 -458 0
3916 -3230 0
-1313 -1377 0
670 593 0
-1581 -1734 0
-2019 -1275 0
-3272 -1430 0
-3710 -507 0
-1254 2841 0
3019 4107 0
-1501 -1180 0
3960 1825 0
-2106 -2855 0
-976 -1216 0
-3887 594 0
-977 3814 0
-3562 -3113 0
-3450 -358 0
422 -3182 0
1019 3624 0
3353 2315 0
-2952 3813 0
-1947 1071 0
1022 -3273 0
3243 3627 0
984 3259 0
-629 -4313 0
-10 4157 0
2076 -3376 0
2851 2030 0
4023 1883 0
-450 1887 0
2498 -3852 0
2447 -3906 0
789 -1749 0
1980 -2950 0
1672 3519 0
2626 -2181 0
1666 336 0
3557 -3558 0
-778 2110 0
3397 2604 0
1432 2471 0
1115 -394 0
219 -1964 0
3054 -3549 0
-1786 -320 0
1229 296 0
-221 -2793 0
-2780 -903 0
4313 199 0
2527 -51 0
3421 772 0
1974 -610 0
3844 1279 0
4194 -1545 0
-3597 3776 0
2993 -4061 0
3150 2779 0
-2166 -3168 0
2761 1878 0
248 2510 0
-2484 1931 0
2042 -3959 0
1312 -817 0
-2761 2899 0
-458 -2790 0
500 231 0
2364 3822 0
2864 3683 0
-3931 2711 0
-3452 -2340 0
-3176 3667 0
2699 -1424 0
2680 -1536 0
236 502 0
2405 -589 0
-3314 -952 0
-2194 1565 0
1279 3407 0
-1088 -4193 0
4263 -4029 0
-3832 294 0
4005 -171 0
2220 3942 0
-379 1150 0
-555 -2594 0
-1540 2709 0
-4112 -324 0
-215 2987 0
455 3086 0
-3809 -4182 0
-710 267 0
1747 -112 0
3564 -2790 0
2586 -3926 0
-1282 1601 0
-274 767 0
-110 -2130 0
2849 -256 0
-2162 -4031 0
-1344 318 0
-2194 -4345 0
1078 -4075 0
2470 3955 0
-1073 3157 0
2887 3171 0
-4114 3175 0
2926 3211 0
3951 419 0
3746 -378 0
-1016 1517 0
3171 -744 0
-3133 -1121 0
661 3753 0
909 650 0
4093 -1753 0
-3392 578 0
2334 -2045 0
203 2011 0
-4359 799 0
3287 635 0
2559 577 0
1701 960 0
-1315 3804 0
-680 -2890 0
1661 -4097 0
2636 4157 0
3853 -4230 0
-4138 -3855 0
-1424 332 0
1256 93 0
-1539 -3112 0
4017 -403 0
1688 4348 0
-3141 -452 0
3298 -3876 0
-2978 390 0
-2530 3468 0
2262 -3377 0
1513 184 0
-3088 3084 0
1220 82 0
1921 2486 0
3706 -838 0
4069 -4033 0
-1327 -3835 0
1262 2688 0
-1355 2872 0
3254 -2581 0
3880 -2722 0
-1959 3840 0
-3526 -3100 0
4157 -3902 0
216 3052 0
222 2468 0
-1545 -2618 0
914 -1762 0
-3337 1810 0
-3351 -4291 0
-3748 -1091 0
-1613 2360 0
868 2231 0
2425 -1575 0
-159 2671 0
1251 -3038 0
-3739 3471 0
-1604 -2658 0
3459 631 0
560 -3751 0
373 1171 0
-3925 -4177 0
814 -1317 0
-105 3492 0
2446 1038 0
856 2190 0
2411 13 0
-812 -1988 0
-3913 -3793 0
83 -3605 0
-1069 -1820 0
-224 -1978 0
-1602 1108 0
-3483 -3845 0
-625 695 0
-3728 749 0
3982 336 0
-1018 -1932 0
-207 3834 0
-3384 -4132 0
4218 -321 0
3584 3836 0
-4251 2703 0
3033 16 0
-2197 -1258 0
1775 -3392 0
3768 -2698 0
3729 167 0
1661 3805 0
59 2341 0
-248 -2077 0
129 -4341 0
-474 -232 0
-600 -1246 0
-3139 3737 0
-192 -1681 0
3736 2495 0
-4109 -3525 0
-3527 30 0
2340 -1398 0
-3064 -3914 0
2827 1697 0
2688 3347 0
-1690 4278 0
-945 1945 0
498 1421 0
-4379 -2000 0
-2326 -2738 0
-3634 -636 0
-573 4139 0
-1955 -466 0
4214 -1893 0
1033 481 0
-214 1066 0
-3087 -3935 0
3580 -4143 0
-507 751 0
-2505 2229 0
-920 -211 0
-126 -2740 0
-819 1355 0
3471 1554 0
608 1445 0
2729 -1516 0
-898 1726 0
2625 -291 0
-3710 -2271 0
1425 3872 0
306 2607 0
3023 904 0
-3293 292 0
-1528 2421 0
3816 -4318 0
960 -4368 0
-275 969 0
3842 121 0
2555 -168 0
-1004 -764 0
-3464 -1031 0
1042 -3540 0
344 -3435 0
-2466 -2720 0
-1319 -4138 0
-4139 2221 0
4084 -505 0
4069 -838 0
-1548 -3374 0
2601 -2598 0
1793 2389 0
-2852 36 0
1111 -8 0
-3521 2304 0
2040 3073 0
1194 -2507 0
2793 3629 0
-4215 2056 0
1625 2779 0
4075 3720 0
-2529 -2039 0
3122 -1418 0
1434 2536 0
-3923 3766 0
-463 -2169 0
-3010 3270 0
1061 -4363 0
-474 -855 0
-3024 1396 0
-4254 -4094 0
2972 194 0
1432 -359 0
1002 -520 0
4045 -837 0
405 3888 0
-2756 49 0
-764 2225 0
3635 -777 0
-3083 -486 0
341 -1430 0
3289 -2996 0
-1768 -168 0
4307 3372 0
-881 625 0
3763 -243 0
-1104 2154 0
6 716 0
-2260 -1274 0
2125 2998 0
3235 3557 0
-2396 -1896 0
-1677 1324 0
-2470 -202 0
-862 1442 0
2923 -3518 0
188 2400 0
1554 2354 0
-3910 -3435 0
-85 -2167 0
-2962 1955 0
-977 -2236 0
1302 2182 0
-976 3011 0
3178 -2621 0
-1986 982 0
-3821 1937 0
1083 -3253 0
-1085 -274 0
-2776 1979 0
1179 3036 0
2938 3164 0
-768 3035 0
3271 -4293 0
4384 -72 0
-3150 -440 0
-838 418 0
1981 -2959 0
-2833 4220 0
-3259 -883 0
-1533 -553 0
307 -1946 0
-1646 2968 0
3006 2066 0
-2588 -2150 0
1836 -1742 0
647 -409 0
1656 -2613 0
3851 -4124 0
2671 4362 0
3644 1698 0
2924 3118 0
1587 4307 0
3719 1568 0
2281 -3374 0
2458 -1714 0
1235 643 0
3735 -2290 0
1269 -2620 0
4151 2438 0
-2314 -55 0
2262 -3472 0
-3032 1972 0
1836 1908 0
-212 -1801 0
3233 2524 0
-3845 1006 0
1410 -1949 0
435 2029 0
4150 -1063 0
1193 2181 0
1242 3315 0
-2436 2600 0
3453 1401 0
3864 3152 0
-3743 3855 0
-3978 12 0
-3890 630 0
-2878 1934 0
-2706 3057 0
3456 1776 0
-731 817 0
60 -3853 0
-847 -4215 0
3676 2701 0
1926 1196 0
3282 1338 0
4311 1848 0
2200 -3749 0
-765 1043 0
-3595 -1598 0
-1490 2037 0
3895 -1979 0
3893 1881 0
2280 -3408 0
-4068 -1856 0
-2493 185 0
306 2040 0
2946 738 0
176 -2957 0
-23 326 0
-3443 -2632 0
1218 -3175 0
-3045 -3135 0
-2984 1740 0
-937 -2584 0
-118 2086 0
-136 3903 0
-1653 -4114 0
-584 2011 0
-224 3539 0
1384 1309 0
-448 -2397 0
3267 -2118 0
-465 1562 0
-2867 -2485 0
3734 3823 0
1664 -720 0
4029 1096 0
-409 3284 0
1842 -1060 0
-1540 2465 0
3854 -1647 0
-1808 -2074 0
1368 -1348 0
-40 2748 0
-1307 1727 0
-1504 -1015 0
-1428 -270 0
1371 -4051 0
2189 3276 0
1179 4294 0
-3894 71 0
900 -828 0
-4162 2379 0
1040 10 0
590 -4190 0
-3312 1917 0
843 -2643 0
-14 -3821 0
-2350 1062 0
-2472 2771 0
-10 -2529 0
3731 -1559 0
1054 -658 0
385 2050 0
4176 2032 0
3638 -1376 0
-1618 -2831 0
-3008 24 0
3244 1928 0
-2368 -1932 0
4222 2734 0
-4238 2741 0
-523 -362 0
3273 4339 0
1808 -4032 0
-1224 2938 0
3924 2468 0
1848 -109 0
4107 -2033 0
-4233 -190 0
4011 -3120 0
2178 -3959 0
2338 870 0
755 -147 0
1623 -1029 0
-2258 -1406 0
1309 -4165 0
-1758 -970 0
-1103 2102 0
-2361 -1189 0
-379 3872 0
670 -4147 0
1219 -1059 0
-3613 1883 0
1230 -2852 0
-987 -3763 0
-1890 -1014 0
-225 -936 0
-591 2193 0
2688 574 0
1564 602 0
-519 -3896 0
2277 -3357 0
960 -336 0
-252 95 0
3158 2109 0
-4201 1054 0
209 2938 0
-1525 -3724 0
2509 -2368 0
253 -1450 0
2917 423 0
-1299 2359 0
-3914 2641 0
3643 -941 0
-806 -2251 0
3218 2769 0
-4331 -986 0
-2546 3615 0
385 -1482 0
-1690 3523 0
-1263 544 0
155 689 0
-3540 -3839 0
2420 2102 0
3547 -417 0
-2361 -4387 0
3175 4030 0
3938 1854 0
2359 4172 0
-44 2029 0
4229 -1521 0
-2475 3940 0
3673 -767 0
210 -4059 0
-1871 -1117 0
613 4076 0
-3568 -2792 0
318 1815 0
4192 3577 0
-2588 4370 0
-4163 2434 0
-288 -990 0
-3718 2794 0
139 2457 0
2522 -4289 0
-925 -1244 0
3515 -106 0
2556 -3875 0
4238 2540 0
-2773 -255 0
1886 2179 0
-3038 -3677 0
-1131 930 0
3013 -4252 0
-3313 2979 0
-4179 -2335 0
2249 2643 0
-276 1805 0
-353 1117 0
-1883 3164 0
-351 -4386 0
2366 2595 0
-598 2978 0
-2104 1871 0
-2599 3913 0
-21 -712 0
907 3365 0
-190 -467 0
-2604 -4246 0
3424 4148 0
-2311 1345 0
-3814 -3591 0
-3461 -2972 0
2482 1494 0
-1329 2561 0
-4314 4131 0
2424 -1579 0
388 -4309 0
-3259 308 0
3884 754 0
830 642 0
3742 -3985 0
2257 4247 0
-1301 627 0
3860 1628 0
1789 -2466 0
422 3741 0
-2649 -1988 0
-1141 -3080 0
-2495 -1637 0
-1065 -1818 0
-4221 -42 0
1073 -496 0
-1360 3325 0
-1546 927 0
73 -3189 0
-1318 -1097 0
2647 880 0
153 1816 0
-1506 -3641 0
3987 -728 0
3412 1993 0
-4353 3068 0
-4216 169 0
-935 -517 0
49 220 0
-487 -233 0
830 -2561 0
2022 2971 0
-3273 2664 0
-2829 4028 0
1778 3519 0
1186 3478 0
-3114 -783 0
3899 4136 0
2223 660 0
-4116 2503 0
2292 405 0
-3087 -3366 0
-252 -2589 0
-2722 3432 0
-3715 -3504 0
-1633 904 0
1816 -673 0
1256 1274 0
-4213 1259 0
-175 -282 0
3925 2297 0
-1158 -3516 0
-2319 1366 0
4024 1958 0
-4154 -2043 0
-3666 -1621 0
1260 166 0
-1485 -2583 0
212 -1456 0
3272 -4246 0
-2713 -1229 0
-3715 -3018 0
3208 -2208 0
2273 2893 0
1242 -251 0
-715 2476 0
-3879 -2832 0
-2663 1706 0
-3685 4265 0
-3731 -856 0
2503 1969 0
-3747 2864 0
-2263 4153 0
3708 967 0
1123 3474 0
156 -2708 0
-3596 374 0
3447 -629 0
2692 2567 0
2415 647 0
-1690 255 0
127 -1855 0
-72 -3979 0
-2808 -1822 0
-1238 3235 0
3144 -2021 0
919 443 0
-2708 146 0
-4072 -2061 0
2792 1718 0
1780 4000 0
-666 346 0
-3639 3795 0
2830 -2301 0
1799 3157 0
-2361 24 0
2189 -1007 0
1858 -4188 0
3547 888 0
-4123 -2471 0
673 584 0
-620 339 0
-132 -163 0
-1422 1944 0
-1973 -1053 0
-1506 4141 0
1769 3745 0
-1100 -134 0
-2026 -974 0
-3291 -3868 0
4002 2652 0
-2871 -4274 0
-638 -820 0
2864 -4006 0
3575 -3914 0
909 2658 0
-698 -3900 0
2173 -2271 0
853 -528 0
4048 1859 0
-4098 -3775 0
911 2398 0
-712 -1455 0
1098 575 0
2159 3696 0
653 2628 0
3938 210 0
-2538 -2807 0
3962 2962 0
605 525 0
-1366 -2028 0
4331 -3306 0
-18 1911 0
1198 1564 0
-1875 -1681 0
848 -1173 0
-3474 -1243 0
-1305 2323 0
4165 -559 0
2189 2603 0
2621 -3636 0
-221 -1479 0
1542 -1787 0
3167 -2004 0
-549 -2326 0
909 -3260 0
2796 -2379 0
886 -2606 0
-250 4220 0
1069 -27 0
2935 1269 0
-1003 -430 0
-3747 -3971 0
-1250 2463 0
1119 -784 0
789 3182 0
-2917 -1759 0
1641 -3727 0
3528 3569 0
-3583 158 0
-1221 4184 0
1657 541 0
1341 3391 0
2293 82 0
-3626 572 0
-2088 -1607 0
4139 -1436 0
-2534 2054 0
2960 -3641 0
-1734 -3031 0
779 -382 0
-274 2520 0
-3589 4037 0
2728 -2444 0
-3870 2455 0
4003 2521 0
3876 447 0
3582 1352 0
-840 370 0
279 -3672 0
2136 -2134 0
-1562 1044 0
1236 -1645 0
-2034 169 0
3381 -93 0
1623 2502 0
-2134 1842 0
-3113 -263 0
-3365 -1345 0
-1951 -601 0
-2589 -1242 0
-3992 1649 0
-3426 4354 0
3412 1049 0
4182 -2141 0
2700 -3750 0
2331 1292 0
2987 3199 0
-606 -2948 0
3221 -1296 0
1662 -3753 0
-2365 3602 0
2471 3328 0
4323 -4234 0
2815 -134 0
3237 1285 0
2988 -1164 0
299 -2785 0
3154 2067 0
621 -2908 0
1406 3512 0
3421 -803 0
1471 3327 0
-859 3319 0
911 -3728 0
-855 -729 0
-2744 4138 0
31 268 0
3558 -1818 0
-2061 -77 0
-1586 -1696 0
2612 2981 0
2478 4213 0
2533 3872 0
2634 -2719 0
-3009 4252 0
-3665 -2684 0
2041 2 0
-97 3663 0
3138 -4060 0
-3686 1544 0
3002 3511 0
-1872 -3942 0
2504 -315 0
1028 -3308 0
-1988 917 0
-2730 688 0
-2964 1505 0
-2175 -1675 0
-221 3322 0
-3758 -3610 0
-1864 86 0
811 2559 0
557 -2741 0
1509 3744 0
3302 -3466 0
599 -1855 0
-1815 -3332 0
-1923 4211 0
-3255 -2881 0
-3687 1231 0
-4199 -2131 0
34 -1317 0
-3914 2311 0
-3309 -3176 0
3036 3932 0
2498 -1517 0
-4278 -1208 0
-1095 -686 0
-3934 1197 0
-862 -913 0
-3423 -2695 0
1176 -184 0
2387 2447 0
-4144 -2373 0
-1623 -4200 0
2941 -2250 0
1758 -34 0
4328 -1728 0
-488 -4057 0
2915 -3454 0
4283 1056 0
-1270 -2979 0
3011 -741 0
1089 -1500 0
2953 524 0
4350 -1008 0
1380 -3807 0
1816 2644 0
-3697 871 0
2267 -1100 0
-2482 1488 0
-1134 2695 0
-2731 -3098 0
-2152 2285 0
4139 -453 0
3975 -4067 0
-3842 522 0
-701 1826 0
-1220 1878 0
-919 1567 0
2262 -4280 0
1399 4253 0
3761 1999 0
1825 19 0
-3136 2725 0
1862 -2373 0
-1029 3470 0
-2933 -2004 0
-11 -3348 0
-3004 -3541 0
3625 -2793 0
-982 -2004 0
-397 4043 0
1295 -2060 0
7 -3913 0
-1344 -1632 0
-1275 3052 0
-1414 3765 0
-2926 1719 0
-313 -2647 0
991 1765 0
-2647 -1976 0
-958 1750 0
553 3892 0
2186 2009 0
-3480 3484 0
-3047 2303 0
724 4229 0
-2283 3559 0
-69 -4219 0
4078 -1545 0
-3769 2000 0
621 -3050 0
-479 -3861 0
-4285 -2947 0
240 665 0
-3926 3430 0
3815 -1574 0
2561 -394 0
178 4262 0
-1411 3038 0
2087 -3682 0
-3635 -3305 0
1502 -3864 0
-850 2912 0
-2081 -3483 0
46 2771 0
3671 -2745 0
-4260 -2440 0
2002 1837 0
-949 1610 0
-950 -847 0
-1464 -1791 0
-4345 -3686 0
2146 3686 0
3832 1141 0
3601 1150 0
3153 -4094 0
-2232 -2493 0
270 -3936 0
-4011 -4031 0
-2582 3271 0
-213 1231 0
-1735 2670 0
-297 3611 0
-365 -2037 0
-2276 389 0
-1474 1689 0
2387 2402 0
3703 1981 0
1716 3154 0
-3369 -184 0
3412 3896 0
4263 -2705 0
-3752 3241 0
-829 1938 0
-1557 1176 0
377 870 0
948 3553 0
2019 3115 0
-4299 -2552 0
-158 4237 0
-1026 -2960 0
-3990 -1346 0
754 4071 0
-1067 -3879 0
3502 2191 0
124 -3529 0
3744 -1260 0
-598 -1732 0
-1072 3555 0
1921 4236 0
2837 2047 0
2269 3030 0
-708 1770 0
2098 -3635 0
-46 677 0
2624 -3659 0
-1655 1615 0
235 -2283 0
-353 -4236 0
2389 -574 0
-118 490 0
2214 2318 0
1645 1782 0
-622 1783 0
2530 2572 0
2167 1634 0
-2832 -1389 0
-719 1876 0
3904 -3513 0
-3946 1320 0
-2091 3115 0
1467 -981 0
-493 583 0
-4353 -1504 0
-915 -1117 0
647 1483 0
-2475 4137 0
-1008 4202 0
3451 3858 0
3082 2605 0
-2113 1157 0
1548 2579 0
1183 -2873 0
237 -3503 0
-2669 -1231 0
-1242 4000 0
642 -3349 0
3917 1705 0
-4378 -768 0
1334 -3155 0
-3928 1515 0
-2317 -3684 0
3488 1644 0
-327 -3416 0
377 -1548 0
3190 -2676 0
-412 -3141 0
2709 1796 0
-1120 1792 0
-3275 2463 0
-2183 -2729 0
-1235 -3695 0
3076 900 0
-3281 3206 0
1491 443 0
3951 -2079 0
-161 -2023 0
1902 -3147 0
560 -4116 0
2090 4212 0
3981 3353 0
-3294 -4217 0
-806 3594 0
3467 2267 0
1515 -2740 0
2009 -171 0
489 -1499 0
-310 -1168 0
805 -3475 0
2844 961 0
-3770 648 0
-2773 46 0
-1047 -2606 0
3167 -1891 0
-3590 -3593 0
2499 -2006 0
-3978 211 0
-3825 2935 0
1565 -66 0
-2473 3234 0
-3749 -1368 0
-543 1378 0
-2124 193 0
575 -266 0
3393 -2016 0
3966 3884 0
2211 3561 0
2086 1743 0
-2030 1297 0
32 -2417 0
3585 2521 0
-4022 -1943 0
2888 605 0
2451 -2580 0
-1002 1315 0
3131 2226 0
-318 -2107 0
1116 -648 0
1666 4282 0
-453 2476 0
-2501 -2283 0
308 -3912 0
-295 -3208 0
-2519 23 0
-1720 1125 0
24 -1462 0
-102 -4327 0
-4177 -1331 0
-3619 -1862 0
-1245 223 0
-2619 -1430 0
-4252 70 0
-2694 -3388 0
-2840 -4182 0
-3117 -3053 0
2125 -2093 0
-686 -2591 0
2738 3221 0
-2309 1404 0
-465 -4253 0
3223 -3934 0
-21 -3029 0
3629 -1760 0
754 -1187 0
-2670 -3506 0
-378 -1164 0
-505 1055 0
-3001 2245 0
-1902 952 0
-1791 245 0
-700 979 0
2888 1930 0
-1692 -3807 0
4129 760 0
-232 313 0
-2235 -546 0
2813 2383 0
573 2407 0
3915 -2486 0
-3080 841 0
-2488 -1562 0
-2853 612 0
-1243 3539 0
-2343 1062 0
-163 -496 0
2585 -3711 0
573 706 0
-1865 -3414 0
-625 -2569 0
1556 -4099 0
1140 2546 0
-3362 -359 0
3017 -502 0
-3565 3122 0
-4144 618 0
-884 956 0
2309 1305 0
-1873 -305 0
-829 -1820 0
-3275 -608 0
-4018 -2882 0
4093 401 0
4056 -1924 0
-2972 4029 0
3346 -2377 0
2125 -3814 0
-785 4105 0
-4285 -3378 0
1597 -3358 0
1812 2056 0
323 -1805 0
1489 -2761 0
-2567 -313 0
-699 -1875 0
385 3846 0
-375 1044 0
-3328 3031 0
755 -1162 0
2990 -2087 0
-1573 1350 0
1821 2348 0
529 -1708 0
3138 2688 0
-700 -1146 0
3237 -2199 0
-3305 3254 0
-1080 -2215 0
1700 -3919 0
1258 -1552 0
1048 515 0
2657 -2379 0
-968 2500 0
929 -2227 0
-1972 -1797 0
4378 2887 0
-4336 -2237 0
-1860 -181 0
1941 1171 0
3827 3601 0
3055 3965 0
4194 4189 0
-1478 3822 0
-1901 -2812 0
208 -1538 0
-1007 -2695 0
-1139 3463 0
-556 920 0
-3148 1917 0
2278 4156 0
-3339 -3951 0
-3960 -1669 0
1475 1988 0
-257 -2081 0
2444 57 0
3101 -3918 0
-3406 -1607 0
1137 -1431 0
3755 983 0
-2958 -2391 0
-1555 4366 0
1814 -1335 0
4270 1958 0
2321 824 0
-688 -1356 0
-2856 -407 0
-4169 -1649 0
-3478 191 0
3625 -3778 0
-1739 -3117 0
-4239 2423 0
3755 -94 0
3525 -2638 0
-3773 -543 0
-2372 2403 0
2384 -2165 0
-1994 3501 0
-646 -4011 0
3632 2440 0
-592 1416 0
3929 -2957 0
1913 263 0
3588 -2557 0
3791 4023 0
-2404 -181 0
-364 -4345 0
-2208 -4266 0
1741 -4353 0
-1705 693 0
3315 -31 0
102 -2728 0
2572 454 0
-901 2247 0
55 -2420 0
-132 3595 0
-4267 -1694 0
2976 -3391 0
-1992 1836 0
1152 -3349 0
3060 -3113 0
-3312 1490 0
3797 -2326 0
-3672 -360 0
-2699 -2299 0
-3774 2517 0
-832 -2357 0
-2382 3287 0
4198 672 0
1610 -3244 0
72 289 0
-3705 -2940 0
1632 -3660 0
819 3046 0
-17 2769 0
724 267 0
748 1043 0
1203 -2731 0
1602 4206 0
-4150 -3152 0
-2904 2386 0
-2759 -3042 0
-3506 -1598 0
-923 3986 0
4113 4316 0
1691 -2823 0
2055 3615 0
583 3325 0
-3326 -979 0
-2841 2158 0
2235 -3057 0
-158 -3566 0
4346 -1548 0
-467 -1148 0
-2790 4374 0
376 -2371 0
1535 -910 0
740 -131 0
-770 -4169 0
2032 -1885 0
-668 2047 0
257 343 0
-4361 1082 0
-1174 1252 0
-3479 2085 0
-1310 -2865 0
1843 3138 0
1194 2654 0
-3321 1945 0
1658 975 0
2746 -811 0
-3618 4228 0
1850 -3336 0
738 -275 0
-3617 -2844 0
-3993 3661 0
3779 1422 0
-523 1413 0
709 -2440 0
3985 166 0
1173 -1580 0
685 -4167 0
4218 -478 0
-1104 -2198 0
-2870 534 0
-2034 1697 0
-2198 2749 0
3502 3850 0
-1955 4346 0
-663 -1835 0
3691 2813 0
-2565 4312 0
3864 1983 0
510 -3374 0
-2062 3055 0
3254 2509 0
3973 -1476 0
631 2703 0
-4285 -4160 0
-1261 3356 0
219 -2612 0
-2880 3059 0
1207 527 0
-430 -2322 0
-426 -1263 0
1641 -2187 0
-3123 855 0
-2059 2885 0
-1673 -3549 0
3574 -2856 0
-1802 294 0
-3077 3295 0
-116 -3824 0
4268 4120 0
4147 2105 0
1343 466 0
652 1872 0
159 -852 0
-921 -3294 0
-2141 1940 0
-731 -2024 0
-802 1091 0
2704 -3326 0
-3238 -4160 0
2472 -70 0
974 3793 0
-3259 -1741 0
-1368 -2368 0
2784 301 0
-3245 2944 0
-2918 3962 0
111 3182 0
3353 -4032 0
-2133 1280 0
1303 -799 0
628 -121 0
2205 64 0
-2570 1401 0
-3129 -1933 0
2231 1534 0
1197 -1112 0
-527 -3992 0
-2067 1337 0
185 2063 0
2949 2415 0
-1390 4105 0
1490 -3056 0
-913 -1518 0
-3968 -253 0
-688 -4315 0
2307 4098 0
-2788 3014 0
4200 3969 0
-1853 493 0
3981 3504 0
3111 2671 0
2904 -3746 0
873 -737 0
1898 1001 0
1597 461 0
-2681 1062 0
685 -1751 0
1117 3214 0
-3328 -4279 0
1956 4347 0
-350 1139 0
200 -1314 0
813 -1862 0
2033 3215 0
-100 4315 0
-812 -2516 0
-2061 4041 0
4219 -2610 0
-1807 163 0
2590 -2223 0
-4156 -1053 0
-1697 -2980 0
3456 2863 0
115 -275 0
-573 1178 0
-1451 2419 0
-4027 1978 0
-2745 -855 0
-3078 3141 0
-741 4307 0
-933 -3656 0
3946 2736 0
-2427 1783 0
-3992 1327 0
-33 3230 0
4232 -3006 0
792 3885 0
2927 514 0
-2577 4172 0
-2538 3458 0
2239 2333 0
1575 -2397 0
-4152 -116 0
-271 -42 0
4187 -4009 0
-137 -2800 0
-4038 1423 0
-570 -3945 0
4194 711 0
-1027 -50 0
-690 612 0
1666 -2277 0
3573 -4116 0
-2604 -3254 0
-1604 -465 0
1096 -1260 0
2420 -2289 0
-1255 -55 0
3411 3335 0
2335 -546 0
-2908 519 0
-2793 -3014 0
-3690 -3684 0
-3363 3356 0
-3002 2555 0
-633 2234 0
1196 -3004 0
3790 1949 0
2954 -4059 0
-2858 1902 0
4377 4248 0
701 2553 0
-3394 726 0
586 -3337 0
1745 -1447 0
-451 1877 0
281 -2473 0
-2986 3495 0
4302 -1826 0
-97 -769 0
433 -3803 0
-3672 3252 0
-2616 1838 0
1361 30 0
-3655 -825 0
-1519 1145 0
4325 1978 0
-4177 -964 0
-3601 1125 0
3887 -322 0
2154 -514 0
2362 4239 0
2731 -2942 0
1032 -3941 0
-2077 2513 0
-503 1869 0
-2330 1092 0
2260 -3043 0
-4189 2129 0
-583 -1152 0
2822 1420 0
-1638 211 0
-1914 2447 0
4312 -1281 0
824 3628 0
2710 -2512 0
1241 -4076 0
2370 -4346 0
1574 -593 0
-3763 -1412 0
2401 -1539 0
-629 -1338 0
244 672 0
754 1932 0
618 -435 0
-2935 1113 0
-509 2493 0
-753 -2247 0
-3731 4089 0
-4305 683 0
-2597 -1668 0
1716 -2278 0
3165 1983 0
-3278 -3101 0
-193 -862 0
-1423 -3161 0
-2851 1953 0
3572 328 0
-67 875 0
-592 2595 0
562 2383 0
-886 1005 0
-1603 3764 0
3472 943 0
1146 2002 0
443 2323 0
-625 -945 0
-2249 649 0
-233 210 0
906 -2609 0
-1814 -4040 0
346 1114 0
3464 564 0
-2788 -459 0
3169 -11 0
82 2701 0
-3715 -3207 0
233 836 0
-1975 -350 0
-3785 -2375 0
-1268 -3731 0
1794 -59 0
2262 -1479 0
-820 167 0
2040 1969 0
-3738 -2090 0
-2911 -1238 0
171 -1766 0
-885 2278 0
-70 -4073 0
-503 3611 0
2027 -1844 0
719 -2024 0
-3009 2699 0
14 -1302 0
3871 -3560 0
-2841 -929 0
3313 -4146 0
-3302 -1601 0
-4086 -1173 0
2863 2551 0
1521 -1389 0
-4266 -2104 0
1830 -2058 0
-3752 -2789 0
2628 -3033 0
-2026 3102 0
1438 -3918 0
2988 2101 0
1999 -1808 0
-3572 2162 0
2104 -3520 0
3028 2966 0
2537 -2568 0
-978 -2878 0
-1995 3229 0
-1825 3772 0
4377 -2194 0
4046 -1448 0
3667 -4164 0
379 -3294 0
-1328 1487 0
-303 3520 0
2814 1721 0
3020 2937 0
1273 1557 0
-1475 2711 0
-2151 -3298 0
1516 3244 0
3487 734 0
47 -763 0
924 -2942 0
1040 -2841 0
1521 -3935 0
-2801 -1025 0
3231 -4018 0
-811 1429 0
-2162 729 0
-578 -3038 0
-2210 605 0
-886 1806 0
-2151 -3477 0
4153 -3416 0
3534 -527 0
1619 -3259 0
-1660 49 0
3671 4168 0
-711 1658 0
-4330 1566 0
906 2433 0
1378 -1214 0
-4164 1595 0
1490 1270 0
-646 2161 0
2817 2555 0
2253 -955 0
-1468 3612 0
-3278 31 0
-3158 57 0
2871 1997 0
3517 2383 0
-3739 -3394 0
-1859 1802 0
617 3137 0
3266 -63 0
1713 1426 0
-1396 -1287 0
-1993 -3781 0
-2064 -2548 0
-2686 4232 0
3050 3733 0
2944 379 0
-4169 2644 0
-3140 4212 0
-774 -3974 0
-514 -1391 0
489 -346 0
2412 -3396 0
1087 -3811 0
3202 1355 0
-3092 2583 0
1481 -2066 0
-2591 -1108 0
-3622 936 0
1619 948 0
-1060 -549 0
-1669 4344 0
2270 4132 0
-1131 -54 0
2207 -2239 0
-3306 -581 0
-277 2795 0
509 -3260 0
-3035 3157 0
-4029 -3422 0
4362 444 0
-3808 -648 0
1015 3784 0
-1019 -3879 0
-4110 3454 0
2369 -3669 0
3890 -3434 0
-974 2435 0
2591 -4091 0
-173 -2437 0
-3307 2279 0
-3571 -3773 0
2579 924 0
4007 1740 0
-1013 45 0
-1647 1693 0
-2043 3407 0
545 2531 0
-3159 -2790 0
-2339 3876 0
-1795 -992 0
410 1323 0
-4298 -3008 0
259 1030 0
1909 3433 0
-3450 2541 0
-4241 -798 0
3559 1195 0
1380 -598 0
-428 1697 0
-786 2046 0
-958 -2133 0
-136 1250 0
-2048 1030 0
4022 1969 0
-3377 -1851 0
89 -4175 0
1432 -1497 0
1713 -2440 0
-2649 769 0
-228 -2823 0
-2165 -3193 0
3275 2961 0
3816 1656 0
605 -4187 0
-3044 -1151 0
4169 1977 0
2778 3091 0
601 -74 0
-2115 -697 0
-3139 1879 0
-6 -876 0
-50 4032 0
1270 -188 0
-3144 2605 0
-405 3053 0
-2955 4053 0
-520 1720 0
-3241 1827 0
-941 3221 0
74 2335 0
2155 1504 0
-1170 -2811 0
4150 2369 0
-4065 -2566 0
2331 757 0
-3411 -3792 0
-4190 -33 0
1207 3802 0
164 -234 0
4159 -2803 0
-1215 683 0
-2235 574 0
-1669 1344 0
3338 -302 0
2436 344 0
3065 509 0
1040 3787 0
565 176 0
1213 -4195 0
-1379 3815 0
2726 -1487 0
2269 4306 0
1151 -386 0
1977 3246 0
3718 3315 0
-2171 2481 0
-639 3569 0
2286 -1178 0
-3509 -3540 0
-3707 -1257 0
-2342 3018 0
2773 -4227 0
2785 -890 0
336 -4336 0
1255 3776 0
2005 -1047 0
-1550 -3943 0
880 920 0
-2729 -2525 0
-2079 -1192 0
2506 -3625 0
-1362 -2045 0
-3623 3029 0
-1995 2296 0
734 -3918 0
4295 3173 0
1722 -2871 0
1391 4261 0
-1951 -4281 0
-4310 -735 0
1804 4072 0
1439 732 0
-1738 -1919 0
-1143 -2341 0
-3966 -409 0
-1745 1621 0
3776 654 0
277 1177 0
1970 904 0
2454 -1757 0
-2904 -1200 0
-4174 -3919 0
2961 -4335 0
4196 3573 0
2764 3183 0
-3171 4206 0
2577 3977 0
1796 -2290 0
-2097 2988 0
-1955 -174 0
2294 -1775 0
-3622 3083 0
-1249 2105 0
4113 -1377 0
1869 -2130 0
3942 3196 0
1755 1408 0
-136 -3434 0
-2892 -1587 0
357 -530 0
-1937 3617 0
1606 -4259 0
1710 1782 0
-4328 -619 0
-3929 72 0
-4103 1549 0
-1380 1704 0
-3193 -4120 0
-3269 4355 0
-1880 972 0
1330 -2991 0
536 -2638 0
3263 -4125 0
4042 1073 0
2783 -203 0
475 -4369 0
3729 761 0
-665 519 0
-4038 4355 0
4163 -3003 0
2889 -3199 0
2528 -879 0
-2297 -2697 0
3991 -2076 0
1838 3192 0
280 -1580 0
-2674 -1938 0
3209 -1181 0
3510 -4106 0
-1018 1006 0
334 4241 0
-3372 -4203 0
-2010 747 0
-2452 1829 0
-3099 -2069 0
-1929 1114 0
210 2860 0
-2524 -4311 0
-3789 3802 0
4198 1916 0
-4020 1870 0
-3768 -263 0
-3135 -3227 0
-3781 587 0
3721 1377 0
623 -2362 0
4315 929 0
3897 -3055 0
621 -2565 0
604 3283 0
2671 3944 0
3758 -2744 0
-268 2559 0
-3999 -2608 0
2437 -2253 0
-4113 -4173 0
-1455 559 0
3576 3270 0
3113 2310 0
-1170 4310 0
-4337 -4268 0
-587 -2269 0
1808 2709 0
3317 -3345 0
-3134 2710 0
139 4213 0
3191 -1905 0
-2244 -1807 0
3971 -4323 0
-4177 2819 0
-1429 3894 0
2147 -2417 0
2692 -2212 0
2059 1913 0
-2709 -2440 0
-3050 4234 0
664 -2438 0
852 -1806 0
2382 -2594 0
-459 -1213 0
-1381 3249 0
-420 -916 0
2635 3399 0
2830 -65 0
-941 3449 0
-2685 863 0
2044 3954 0
-754 -3775 0
-2893 -3285 0
-116 -3407 0
1752 -953 0
-1188 -3359 0
4068 2331 0
-3684 332 0
-2594 -1735 0
-1932 3106 0
-1815 -2041 0
847 1496 0
-2214 2297 0
2724 672 0
1007 3675 0
-2853 4318 0
859 -3971 0
2443 -2023 0
-875 2813 0
2007 3574 0
2630 -3650 0
-3507 2296 0
1048 978 0
3257 -706 0
-2910 1686 0
892 2272 0
3395 -553 0
3721 4166 0
-433 -3150 0
207 4064 0
859 1647 0
1822 3923 0
-846 -2444 0
3075 -1731 0
1215 545 0
-4184 2628 0
22 -394 0
416 511 0
-463 -4255 0
2498 1564 0
2392 1159 0
646 -2846 0
-419 2766 0
3932 -1065 0
-4097 -734 0
-2449 -466 0
-2562 -3455 0
3214 3823 0
-1021 -969 0
3765 -2453 0
4095 965 0
1091 3901 0
2489 -2661 0
-1897 -371 0
-3205 2644 0
54 -30 0
-2789 -56 0
2925 3615 0
-1803 -2906 0
-4293 -169 0
-2123 -4094 0
1382 -2604 0
314 -2442 0
1022 -1338 0
472 -3562 0
-1366 814 0
-3985 2516 0
1611 1353 0
-2472 3731 0
-2894 -3151 0
-1189 -2182 0
-4273 354 0
-2501 3697 0
-510 565 0
-370 3303 0
-1124 1670 0
2452 3993 0
-72 2083 0
199 808 0
-1446 1643 0
961 3652 0
3650 -3363 0
2953 683 0
-1896 -228 0
-3897 -756 0
-3920 -3312 0
-103 4054 0
-752 -2042 0
-1274 -794 0
-2589 -2783 0
-1708 971 0
1252 -1366 0
3067 -2883 0
-559 3191 0
328 -2075 0
3533 1396 0
-3156 4001 0
1245 -378 0
1681 2725 0
-3723 -545 0
1660 -1349 0
1402 1347 0
-1811 2080 0
-1882 2779 0
1307 -3014 0
-805 2073 0
-3226 -1031 0
-2973 -339 0
-3347 1451 0
3261 293 0
3041 -2225 0
-3587 -1907 0
-797 3925 0
-2500 2285 0
-1061 -2206 0
-2763 2399 0
425 -3933 0
3903 4231 0
-3103 2292 0
4307 3572 0
-218 -3396 0
-4044 4034 0
-524 -1560 0
1055 -1884 0
-2644 4222 0
-2824 3247 0
-1160 67 0
3887 3937 0
1370 3180 0
1094 2633 0
4096 4235 0
-2959 3769 0
-2048 488 0
830 -2627 0
187 3365 0
-3438 -1699 0
-3962 3330 0
-2506 -2957 0
1045 877 0
1215 1088 0
-966 -1053 0
-1249 -3012 0
-2927 3146 0
-2388 2532 0
-1901 2151 0
-3111 1637 0
-2329 4040 0
-4292 -3611 0
1478 3354 0
-2987 -1536 0
3847 3761 0
-2288 3910 0
3547 -3364 0
3387 537 0
385 -3198 0
655 -3019 0
1236 -3303 0
930 124 0
-1447 -1927 0
2458 -1978 0
-954 -1516 0
3204 -2352 0
664 -3494 0
-1002 1484 0
-2299 2576 0
3710 2814 0
2200 -2581 0
2935 -2311 0
-631 2141 0
3220 2403 0
1116 -324 0
-1226 4117 0
-2997 -1366 0
4381 2756 0
-3278 -446 0
-3499 1386 0
-1556 3153 0
-3242 -4199 0
-3176 703 0
1782 3359 0
3928 940 0
-3696 -3241 0
-1247 3050 0
-241 3621 0
-2015 -2722 0
-3204 -1129 0
2223 -2801 0
-230 1440 0
-1308 1004 0
-1405 1275 0
-2789 1713 0
-4280 1361 0
-1052 3870 0
1782 3516 0
-1967 -850 0
-1082 -887 0
-3012 1043 0
385 1675 0
3474 -4272 0
1380 -221 0
-864 1620 0
-3784 2013 0
-2980 -1767 0
-1264 -4340 0
2083 -1828 0
-1228 -3931 0
-3108 3752 0
1479 2652 0
3281 -4192 0
452 3983 0
1582 -765 0
-3072 717 0
-2242 -2173 0
513 -4322 0
2974 454 0
-1975 -3787 0
2332 -1001 0
-3958 3141 0
-2035 -817 0
-1330 -658 0
-1709 -2839 0
-1533 994 0
3691 -2695 0
-3680 3564 0
-2821 1306 0
52 2882 0
-3528 3334 0
-531 -2902 0
-2604 -1542 0
-2511 3725 0
-1613 1449 0
-1288 3342 0
2140 4000 0
1336 -3027 0
4303 147 0
121 -2504 0
2763 2492 0
2135 3838 0
2717 -2176 0
3317 268 0
-106 2103 0
836 -1519 0
-2034 29 0
-381 185 0
-4184 137 0
2911 3727 0
3232 -123 0
3103 -3078 0
-3841 247 0
2717 -3876 0
-343 -1018 0
-2841 -4233 0
2561 4142 0
1533 2981 0
857 3103 0
1773 -3439 0
3114 -916 0
3938 -4254 0
1098 853 0
1699 -1314 0
-2355 2453 0
4081 -3699 0
-815 1307 0
3084 3510 0
-304 1567 0
-1863 1061 0
-3335 -4086 0
-1065 176 0
-4267 3009 0
-1490 4229 0
-1651 3468 0
1923 4088 0
2559 -654 0
-529 4301 0
920 3485 0
3904 -2908 0
2461 2977 0
-2690 3851 0
-2772 2282 0
774 -1517 0
-2741 -413 0
4165 -3316 0
-1902 -884 0
-2081 -435 0
3854 -786 0
-2743 1901 0
-2291 -2233 0
866 -4134 0
1014 -3339 0
1808 1022 0
-464 2827 0
-1458 1706 0
3941 733 0
4091 -3460 0
-447 1289 0
-2981 -3199 0
-3936 1626 0
2485 2828 0
-3786 -1154 0
-3830 1808 0
-2883 -1297 0
2751 2228 0
348 -4147 0
-345 1838 0
1098 -1168 0
1832 -4366 0
793 1833 0
1881 -582 0
3188 1200 0
1711 -984 0
-2687 -2579 0
-1600 -3789 0
3240 -70 0
416 -2101 0
413 4005 0
142 872 0
2332 612 0
-3277 2473 0
3880 3048 0
3557 -1569 0
-1411 3879 0
751 -2037 0
3007 -1922 0
1585 -1809 0
146 1866 0
-3476 -1557 0
-3724 -1883 0
-2087 -4351 0
3540 497 0
3445 3404 0
-3690 -2615 0
-350 3496 0
-3871 2551 0
-1114 1170 0
755 1736 0
-478 3119 0
-4154 -2117 0
-2204 -1609 0
-593 2914 0
3292 3286 0
1271 -2141 0
2442 -2632 0
2737 -478 0
2224 2830 0
1277 3182 0
2524 -2603 0
-998 -1104 0
-659 -1492 0
-995 -1339 0
3223 3224 0
1891 -2326 0
809 -2241 0
-3292 2209 0
16 3873 0
907 -1498 0
-3348 -354 0
2252 1057 0
-889 -320 0
4226 -1985 0
-3702 3142 0
-1083 -4148 0
3329 1540 0
-472 -140 0
-4213 -1276 0
-1552 -18 0
-1214 4097 0
830 -304 0
872 4361 0
767 -3192 0
-1476 -2858 0
196 -2388 0
-3659 739 0
-1151 3281 0
-2937 -3593 0
-4297 -619 0
-1031 1271 0
-1538 3080 0
2222 1124 0
1836 3793 0
-3635 1111 0
3402 2793 0
1979 2334 0
-766 4230 0
-707 -1891 0
-45 -1871 0
-2152 106 0
-3038 -3858 0
3779 396 0
1481 -1511 0
3745 524 0
119 -2538 0
1380 3755 0
-419 -3937 0
-2538 2791 0
1722 55 0
952 4194 0
-1854 -2768 0
-3618 -2684 0
180 -2149 0
-2299 -2060 0
-4332 2502 0
2735 769 0
3726 -4356 0
685 1303 0
3873 533 0
-43 23 0
-556 -3057 0
1810 -416 0
2361 -1800 0
-2445 3410 0
-1598 3658 0
2370 258 0
-657 896 0
-1700 -2138 0
-2554 -255 0
-339 -1967 0
3386 -481 0
-1856 -1880 0
2469 -402 0
-884 1237 0
793 353 0
772 2411 0
2209 -538 0
-1893 1924 0
-1310 1669 0
4302 1252 0
-1174 -2746 0
-3390 4346 0
3513 -252 0
-4119 -1228 0
-3768 2699 0
-1534 4377 0
534 -1809 0
-2376 -3598 0
3121 2121 0
3908 3354 0
-1357 3243 0
-2933 1124 0
35 2533 0
-1131 -2378 0
4273 -2283 0
-2839 3667 0
-1256 269 0
4071 324 0
-4349 515 0
3487 46 0
1333 -2592 0
813 1656 0
2193 2904 0
2107 1567 0
3450 -985 0
162 1952 0
3196 -4246 0
-2613 2383 0
-1704 -3078 0
1617 1963 0
-3709 -131 0
3901 1210 0
2680 -1610 0
2011 2120 0
-3460 -3070 0
857 -3821 0
-873 -1584 0
847 -1479 0
-2953 3779 0
1595 -4158 0
-1891 -1953 0
-4036 -335 0
705 3818 0
-2460 -2643 0
1585 3839 0
-727 -3507 0
2076 1025 0
-3947 -3429 0
-710 1056 0
-1331 2971 0
1468 -549 0
2850 -1959 0
97 -3613 0
47 -2599 0
-1875 1829 0
-2780 3782 0
-168 2267 0
412 -1566 0
249 2143 0
-1135 -3345 0
-2578 -3646 0
824 -1539 0
-928 -2325 0
4302 -840 0
1063 -1070 0
404 -2790 0
-3739 296 0
-479 -1437 0
-487 1740 0
3281 -4144 0
411 21 0
-928 -3881 0
4218 -1610 0
3034 -4369 0
-2549 3397 0
-467 4191 0
-4358 3478 0
865 2825 0
-1190 -1014 0
-3215 3306 0
1343 -3348 0
-3542 3537 0
-665 -1240 0
-4047 2490 0
24 2423 0
-1002 3661 0
4030 -2842 0
3833 544 0
2487 4182 0
849 4242 0
-3666 -2417 0
-1327 191 0
4212 3610 0
-2115 -3007 0
-3267 1739 0
3287 -4310 0
-364 -2668 0
-3876 3989 0
-2380 -4008 0
3530 3322 0
-1838 -1562 0
2521 3266 0
-3113 521 0
3190 2225 0
1059 2817 0
-3152 -2834 0
-110 60 0
3199 -1557 0
4257 354 0
3759 -4104 0
2697 235 0
-1593 1436 0
-3825 2657 0
-4337 1091 0
3085 -45 0
-2385 2732 0
-2390 -2985 0
3737 624 0
-1654 2450 0
-8 -4159 0
3986 -2681 0
3246 -3150 0
-3551 999 0
-2950 -2023 0
2942 649 0
-2613 2528 0
-4077 -2534 0
1837 1652 0
155 -1769 0
2524 -4353 0
1689 -973 0
-3091 2685 0
-2679 537 0
-701 -491 0
-2256 -33 0
-366 984 0
-1479 3481 0
-1818 1110 0
356 -227 0
-4064 2243 0
3834 3162 0
129 -3921 0
-188 1156 0
-1082 -1620 0
454 -1368 0
-1701 3606 0
2944 1196 0
1322 809 0
4315 -1738 0
-541 1195 0
-1780 2863 0
1058 2885 0
3448 -1117 0
465 -910 0
1567 4105 0
-1199 3142 0
3410 4058 0
-4143 2330 0
-3912 1124 0
1474 -681 0
-1552 2220 0
647 -319 0
2287 -2946 0
830 -3411 0
-3250 -311 0
1186 -4172 0
-3339 1619 0
3616 3563 0
406 4041 0
-1199 -1598 0
2455 3136 0
-2697 -3428 0
1171 3616 0
-881 951 0
-387 1525 0
2650 2543 0
-1599 3054 0
-3454 -2921 0
3125 1682 0
1407 1001 0
280 -3771 0
2257 1692 0
-503 455 0
-3743 3657 0
2976 3527 0
-4337 2245 0
-2973 265 0
-69 -2721 0
4022 -3314 0
742 3115 0
3212 -2743 0
1612 -1741 0
3989 -1722 0
-348 2532 0
2013 1797 0
-3200 -4221 0
-1157 -50 0
-3536 687 0
3595 -3988 0
516 3331 0
-448 -2478 0
-1125 -2099 0
-4289 -947 0
-2957 -2683 0
6 740 0
909 -3394 0
664 -3862 0
2421 3712 0
3494 -10 0
-2659 735 0
-1173 1334 0
280 1458 0
3020 -468 0
623 -3341 0
-1116 991 0
576 -338 0
4297 -1516 0
-1105 -721 0
-11 1336 0
-3929 -239 0
-1430 -4345 0
2177 3584 0
-803 -944 0
-4215 -1747 0
2556 -2213 0
2598 -3966 0
1036 4127 0
3268 189 0
-1235 1073 0
-862 3557 0
3282 1674 0
-182 -4016 0
-2593 -3601 0
-1852 -1355 0
-887 -707 0
-4097 -2957 0
-323 406 0
1316 2415 0
-215 -2780 0
494 -626 0
-1800 -4017 0
-1647 -2138 0
1769 -2017 0
-1224 2510 0
1882 1629 0
146 -3019 0
4343 4002 0
-2760 1521 0
4037 -1919 0
-628 -2615 0
-1529 887 0
-2995 193 0
-3327 -4347 0
-297 -1103 0
1538 4024 0
2492 1560 0
3167 2977 0
2503 -3318 0
-2565 3518 0
2335 743 0
874 3967 0
-3773 -2271 0
1373 2343 0
-2964 1776 0
3279 2972 0
-4051 1699 0
1268 747 0
-1862 3726 0
1 -3604 0
-463 -4168 0
2949 -2331 0
-4228 -1637 0
498 1077 0
1880 1641 0
-1366 195 0
-4254 -4154 0
-3459 -3181 0
-3416 -3542 0
-1922 -871 0
-1114 511 0
-3072 1671 0
1235 -357 0
-774 -3106 0
-4039 4272 0
-1959 -2016 0
352 -2138 0
3747 1643 0
-979 -415 0
-2508 491 0
1765 -2049 0
317 -2923 0
795 -1275 0
2992 4294 0
3016 766 0
763 -1675 0
-3096 -4355 0
-1259 -2858 0
-515 -2126 0
4295 3628 0
1850 -291 0
3178 -3530 0
2462 4007 0
-901 -958 0
-993 2473 0
1634 -3242 0
-905 1308 0
2620 -3785 0
1552 -1302 0
426 1407 0
-966 -2820 0
-2879 -3542 0
3929 1537 0
-2644 1176 0
-3754 1386 0
3716 1744 0
-1461 -587 0
1229 -3590 0
2017 -3241 0
-1873 -1294 0
-1110 -479 0
2015 1414 0
-3731 1951 0
385 -2519 0
311 2655 0
4265 2495 0
-3712 -3043 0
2103 4235 0
2915 -1745 0
-86 2397 0
-2317 -2535 0
-3151 2008 0
3149 -955 0
30 -1053 0
-502 4019 0
-2905 -1306 0
-3503 705 0
2913 -644 0
3954 -2453 0
-1759 -1152 0
1155 920 0
2873 -4304 0
3522 -1234 0
1977 717 0
23 -415 0
3763 -3234 0
-3501 -1385 0
-3584 -611 0
1297 -1811 0
-236 -3480 0
-1446 -2659 0
2499 2499 0
2437 -116 0
1985 -3039 0
-158 3337 0
1993 2590 0
-4097 1716 0
-699 1771 0
3630 -172 0
-1433 4182 0
-3520 1488 0
-1560 2875 0
-4085 -1162 0
-2288 1427 0
-946 -3304 0
-2711 501 0
-2516 -3735 0
-136 -579 0
-901 2633 0
2432 -4370 0
-666 -2400 0
784 -208 0
-2487 2724 0
4084 -921 0
531 -1060 0
1586 4103 0
2136 -1357 0
565 2769 0
2575 -2549 0
3035 -4097 0
-767 399 0
-2034 -3760 0
-2057 -1701 0
3392 -1422 0
2100 -428 0
1211 -2672 0
-2429 418 0
-1192 785 0
714 -627 0
3944 -4228 0
1904 2184 0
2755 -2439 0
585 -2704 0
-2120 -928 0
-4333 3450 0
-3561 1778 0
-1480 -640 0
-3659 4045 0
-1320 -1814 0
-2533 1641 0
-1134 -246 0
2855 2893 0
-1225 -786 0
4078 408 0
2229 2102 0
-3546 4159 0
2194 2171 0
119 4328 0
-3524 931 0
1419 3759 0
267 1057 0
-3089 1035 0
-784 3761 0
1671 -359 0
1657 -2719 0
-3462 181 0
3235 -666 0
2182 2628 0
-552 -656 0
2700 -3248 0
1774 -1138 0
534 563 0
655 3171 0
-2438 2592 0
-614 -1409 0
-2034 2235 0
1295 -1104 0
3527 -3777 0
-2756 3086 0
4120 3006 0
-1805 -2288 0
-3720 -4154 0
674 -4077 0
2266 -1613 0
836 3393 0
2458 -2288 0
2387 -3290 0
4202 2989 0
-1784 1626 0
-4061 549 0
-196 3794 0
608 -297 0
-1984 1274 0
401 -3021 0
1718 744 0
-2774 -4166 0
1332 2353 0
3609 2827 0
-1024 -3619 0
1224 -765 0
2965 -2836 0
1030 90 0
-158 -796 0
188 -935 0
-2840 30 0
-1495 2234 0
-3376 -3039 0
2361 -4228 0
927 1625 0
-304 187 0
-572 3595 0
138 449 0
-794 2703 0
2344 -2538 0
3057 1040 0
-1910 3522 0
-420 350 0
-1643 445 0
-1737 45 0
-574 2978 0
2984 2546 0
2109 2455 0
-4160 227 0
1183 2809 0
3327 3580 0
-266 -2497 0
3794 -3038 0
4134 -991 0
-1997 2387 0
2305 1960 0
-3152 2070 0
-110 -2486 0
-36 -3947 0
1906 -4065 0
-3646 2219 0
-433 1043 0
739 1354 0
4038 2711 0
2044 -78 0
3733 4383 0
1365 4360 0
1823 2979 0
-3105 313 0
1544 3603 0
-3399 -3988 0
13 2997 0
2485 4050 0
-4302 1141 0
-907 2218 0
-693 -1013 0
1351 -2001 0
-1152 2049 0
1432 3131 0
961 3766 0
4006 773 0
-1968 -251 0
1918 -2434 0
-679 3477 0
-3814 -704 0
3751 -1895 0
2062 -4345 0
-1232 772 0
2725 -3370 0
-2277 3489 0
4001 -913 0
-2615 2423 0
-1097 -2952 0
4168 -1215 0
-1503 1812 0
-3739 1796 0
-1428 -1694 0
-2471 3906 0
-1422 2903 0
1215 1224 0
-1368 -3770 0
1806 -1803 0
-3411 -3735 0
-2604 4360 0
-1225 -1494 0
-1154 1344 0
2493 -2946 0
1287 -1608 0
2128 313 0
-1447 359 0
-3768 -3163 0
-2391 2917 0
4226 -3167 0
325 -2838 0
-4312 4087 0
-3790 -2901 0
-2669 538 0
2191 811 0
3632 4128 0
615 3150 0
-2849 229 0
-64 -2775 0
1545 1641 0
2330 -3417 0
1360 1430 0
-379 1532 0
-1521 -3685 0
-3631 1297 0
-1607 -1784 0
-3423 -87 0
-1185 639 0
-1746 2141 0
-625 2348 0
2078 3270 0
-1673 1355 0
3814 3806 0
374 -15 0
926 588 0
-3731 -1825 0
-3520 -201 0
-20 -4119 0
2829 3243 0
-3840 2425 0
2896 782 0
1266 1557 0
-531 3952 0
1883 -2480 0
-4327 4255 0
3910 -829 0
-1065 -3073 0
-3620 -1501 0
-4293 3351 0
3085 3015 0
-473 3739 0
2358 -2677 0
683 4084 0
755 2345 0
-70 3714 0
-4002 -3613 0
-4329 -4208 0
1542 -4111 0
2530 -2996 0
-1994 -614 0
-3109 -14 0
1688 -304 0
-2661 1597 0
-4283 -2307 0
-3670 3013 0
4216 2899 0
-2976 -2095 0
-454 -873 0
3228 -2569 0
4343 -3224 0
-12 2802 0
-4092 3798 0
-2606 1901 0
2827 1615 0
4104 -3890 0
-3635 -2645 0
2628 -1733 0
2673 711 0
3282 -3149 0
4003 -2504 0
3362 -762 0
3024 -1294 0
-375 -2643 0
-523 3908 0
-458 1268 0
-1383 4208 0
2806 -3067 0
2065 -1552 0
4161 3152 0
-4263 3270 0
-3390 -297 0
-4360 -1184 0
544 -783 0
366 1917 0
-2622 105 0
4325 1318 0
-1613 -3468 0
1365 3283 0
1348 -1433 0
1641 1259 0
-2118 227 0
-2795 2682 0
-2379 -1139 0
4138 401 0
2050 -1928 0
-3528 3317 0
-1302 145 0
212 -63 0
-1973 1864 0
2205 874 0
3880 3517 0
78 -4282 0
-3550 -3023 0
-3925 -3596 0
485 3338 0
-3241 -2998 0
2524 -2424 0
-2797 -862 0
-292 1734 0
-1968 -2572 0
-1172 -4207 0
1527 -4371 0
4167 362 0
-96 2469 0
4140 243 0
-2061 683 0
4098 -3700 0
760 3480 0
-3581 1674 0
1858 -3626 0
4159 2941 0
-1342 4 0
1977 -1417 0
-2672 -978 0
3893 -2240 0
-2113 4376 0
-2322 575 0
457 -1539 0
1269 3145 0
2642 -2954 0
3859 -1725 0
2326 1726 0
2561 1079 0
-327 2608 0
262 -1581 0
317 -3750 0
-1251 -727 0
-2256 -3659 0
-3503 2312 0
227 -1566 0
-1492 -1114 0
3614 3997 0
2845 -2321 0
3853 1168 0
-242 175 0
-3807 1865 0
-4211 -3801 0
-1503 -1934 0
-265 -3330 0
1066 -1221 0
-236 220 0
3265 725 0
-965 2061 0
-4052 1312 0
3932 3125 0
3690 -1753 0
2999 -2133 0
-1242 440 0
1167 2179 0
1782 -900 0
2032 2199 0
2975 3918 0
3793 -3198 0
2973 1575 0
-3429 3783 0
1546 4323 0
2596 -3107 0
-3953 2603 0
-4272 2141 0
274 -2562 0
-1587 856 0
-67 1883 0
3164 -796 0
162 3196 0
-664 180 0
1050 1584 0
906 378 0
1464 -3769 0
2215 -4203 0
-3828 4361 0
-481 -2810 0
1097 -898 0
-3013 -954 0
2201 201 0
3403 -2258 0
-641 -3535 0
-1138 -1922 0
3717 -3117 0
-1691 3031 0
-921 -3721 0
-1214 1974 0
-493 -391 0
2809 -1964 0
237 1106 0
-3989 1574 0
301 3322 0
-3422 -1967 0
-3516 -1963 0
2941 -2588 0
-3635 -1511 0
-788 -17 0
-1071 -1625 0
-3825 2348 0
-2311 -710 0
436 1241 0
2328 -3470 0
4366 882 0
-3640 -2011 0
115 1072 0
333 -2239 0
-3635 1924 0
1591 2497 0
-2842 -939 0
-844 -741 0
-720 1481 0
1649 65 0
-2305 290 0
-2587 -885 0
2333 2243 0
2300 -3260 0
3790 -1453 0
2078 3342 0
-4199 3026 0
-3583 -3363 0
-3446 4251 0
-3278 -3367 0
-3264 2999 0
-3009 1931 0
3433 2376 0
-1691 3145 0
3768 -669 0
3964 2234 0
3860 878 0
836 -3204 0
1908 3973 0
1829 -619 0
-2433 -1432 0
-3577 3636 0
4220 -2804 0
1858 21 0
-589 -567 0
3279 -3959 0
-4341 -2299 0
-1749 484 0
3432 -193 0
2027 -2268 0
534 -480 0
-3129 -1189 0
-163 3266 0
-3589 1105 0
3049 -2091 0
3883 -168 0
-2851 1190 0
622 765 0
-1085 616 0
-2154 3137 0
2803 2520 0
3479 1873 0
-1990 -2943 0
-3198 1014 0
3221 834 0
-2329 -638 0
226 -2201 0
-674 -1611 0
4264 -821 0
-400 330 0
887 -4327 0
2302 -998 0
-3155 412 0
-3894 -247 0
-4119 4141 0
-3522 -704 0
2782 3433 0
-207 2166 0
1984 3341 0
-507 2369 0
1680 1374 0
1402 4114 0
3994 -2410 0
-1147 2248 0
-1520 -3084 0
1399 267 0
3379 3824 0
2056 -2327 0
2074 3969 0
3580 -3593 0
2742 3007 0
-4049 1 0
-4256 -3121 0
-4108 3281 0
-1184 3888 0
2692 159 0
2452 4384 0
3638 3579 0
-3035 3485 0
721 1960 0
-2542 1048 0
-1636 -406 0
2030 -1982 0
2983 4248 0
3596 -299 0
-282 3116 0
2031 1574 0
3343 880 0
2752 2483 0
-3338 -2406 0
1753 -3301 0
-249 3251 0
1334 2688 0
2346 -451 0
-2309 -3530 0
3353 2083 0
-4072 3458 0
-3176 -1411 0
4030 3522 0
-3222 -2298 0
3591 -3435 0
-1761 -4260 0
3456 1275 0
-933 -418 0
-1447 3614 0
-3678 -2470 0
-1947 -2294 0
3618 2764 0
-710 -3038 0
4301 3983 0
2777 1923 0
-4111 -834 0
-3562 3869 0
4378 -2958 0
-284 -342 0
2895 -1006 0
3052 4149 0
206 -351 0
-1243 -1092 0
3923 -645 0
-2834 -2351 0
1142 1217 0
-42 -1143 0
-558 -2133 0
2218 -2560 0
-3023 4191 0
2072 3235 0
-1613 3303 0
-2959 -148 0
-808 -3578 0
-3193 -3854 0
813 1997 0
2471 -944 0
931 -538 0
2463 -97 0
1461 -2048 0
1788 2583 0
944 -1134 0
3955 -1485 0
390 -520 0
-1616 -1240 0
-1972 -2683 0
2613 2379 0
522 -4009 0
-1112 -2230 0
-2003 2375 0
-561 1098 0
-801 3730 0
2425 1648 0
-2176 115 0
1961 -4207 0
-619 -4315 0
-3106 -3220 0
-4291 3589 0
2617 -3978 0
-3688 -4215 0
-3980 -3919 0
-2139 2549 0
2725 -858 0
-973 3373 0
-2690 4331 0
3425 -645 0
-3937 -707 0
-3150 4087 0
-4352 -1603 0
1686 -173 0
-870 3505 0
-3340 -4059 0
1062 406 0
-1998 -365 0
-2421 -3646 0
3115 310 0
-1752 1076 0
2930 -2785 0
804 -3643 0
-3903 -2606 0
4242 -1978 0
1916 -4279 0
1054 608 0
-2953 1901 0
2432 1720 0
1624 -939 0
1245 2259 0
2163 -1719 0
-325 3381 0
1157 3186 0
3393 2407 0
1102 3981 0
-2988 3671 0
4374 88 0
-2170 -1957 0
80 -1638 0
1717 -594 0
-4238 1459 0
-1003 -465 0
-3664 2513 0
-3664 -759 0
528 167 0
-491 -4318 0
-3948 -4059 0
-3660 2281 0
555 1108 0
-609 1006 0
2521 1726 0
3356 -1393 0
1075 -4024 0
-1273 1543 0
2955 2051 0
1175 3076 0
4382 -1041 0
-1577 3069 0
-473 -3731 0
-3809 77 0
-4256 3928 0
2618 -3881 0
2691 1109 0
4365 1966 0
2403 1179 0
2025 -4368 0
1716 -3649 0
-4366 215 0
1774 4075 0
1313 -1427 0
2628 -3586 0
-460 2894 0
4107 -93 0
2932 2401 0
-4016 -3694 0
4204 -1991 0
-57 -2381 0
126 -69 0
3508 3060 0
194 -1521 0
3352 2960 0
-1923 2547 0
-1853 -1734 0
2867 -1007 0
2526 -4018 0
283 -2546 0
-1000 1713 0
2599 1577 0
3909 1879 0
1913 4286 0
4209 13 0
1650 2922 0
-519 532 0
-1557 1184 0
-1237 -860 0
3254 -3108 0
4210 3766 0
1744 1765 0
1442 880 0
3394 1280 0
-188 -1031 0
3170 1892 0
-3034 1842 0
-2025 -554 0
2427 -3396 0
376 -475 0
-2925 836 0
4074 3794 0
2572 3730 0
866 3602 0
-2839 3969 0
3399 -2301 0
-2338 -1655 0
1265 -779 0
-420 -448 0
-3301 -2306 0
-1350 2914 0
-4284 -1245 0
-276 2502 0
230 -89 0
-4279 1977 0
-2116 199 0
2599 -333 0
-2151 -2351 0
1401 1295 0
2892 772 0
2711 -1916 0
-1939 -3812 0
-2860 -458 0
-1038 4151 0
-844 -4342 0
-1800 3320 0
-1218 1789 0
-1084 -939 0
2920 737 0
4250 2025 0
-442 -3250 0
-3233 -3618 0
-3833 -3165 0
578 -4234 0
-2015 1483 0
2367 2356 0
-3483 -3825 0
-1701 4265 0
-2756 -1521 0
-2606 2682 0
3317 -611 0
-3245 1764 0
726 -2692 0
-3585 -562 0
-298 -2414 0
-1089 3485 0
354 -1880 0
-2130 -1569 0
2806 2692 0
-2701 -3943 0
1979 4232 0
-3466 1726 0
-4076 -4164 0
-3657 -2851 0
2622 -3001 0
-3657 -2729 0
-1738 4250 0
-1631 3471 0
2958 -3070 0
-4106 2948 0
2142 -2016 0
-718 2166 0
-2479 -473 0
-1180 -980 0
-4190 -1051 0
-509 1623 0
1362 -1396 0
-180 2815 0
2067 759 0
-292 3989 0
1632 1701 0
241 36 0
1437 3559 0
4117 1832 0
1236 -1501 0
-3277 3788 0
1773 -3424 0
-1299 2346 0
-1994 227 0
3118 4142 0
4183 1815 0
-1968 2430 0
-3745 3041 0
-1456 2460 0
2879 1930 0
-1605 4003 0
1359 -520 0
-281 -4006 0
-3917 431 0
-1109 -3106 0
902 -22 0
-3912 -2564 0
-171 -1358 0
-3147 519 0
-4216 -2391 0
-869 -2905 0
-3434 -2690 0
431 -715 0
1035 -3529 0
-193 1911 0
-2572 732 0
3679 -2342 0
-3021 -483 0
-715 216 0
-732 1358 0
3850 -3583 0
2441 -3522 0
307 2510 0
-1141 4022 0
590 -4245 0
-3099 3746 0
-2870 1128 0
-1819 3777 0
-3067 -3728 0
-3435 547 0
2496 2499 0
-557 -4176 0
-3677 -737 0
-1094 -1346 0
3691 4372 0
2784 197 0
222 -3479 0
8 -310 0
-1389 3626 0
-234 1749 0
-1304 1225 0
-1801 -63 0
-4279 3642 0
-195 3662 0
-3455 2389 0
4297 -3686 0
-3271 3071 0
488 1057 0
863 619 0
2506 -1205 0
-3814 -1031 0
-1803 -4359 0
-86 -1787 0
2855 2887 0
-3224 425 0
1163 4282 0
1525 2806 0
-92 440 0
1627 -4100 0
4277 -3960 0
-790 -1522 0
3759 2372 0
-3368 -666 0
-1222 352 0
4245 644 0
654 3950 0
1370 -1608 0
3505 4130 0
134 2624 0
-2214 2092 0
2850 -1857 0
-3258 -3154 0
-217 -1502 0
-2720 -507 0
-973 2790 0
1641 -985 0
-212 2053 0
-52 799 0
-4080 3444 0
-1225 -2009 0
-1389 -3871 0
-295 3331 0
-753 -730 0
1710 3899 0
1632 738 0
1728 -2379 0
-3842 -111 0
4286 -2642 0
-3207 -1815 0
1827 3969 0
3269 -937 0
-1359 1690 0
-3216 1777 0
-4193 -2104 0
1255 959 0
675 -1670 0
-2834 -1484 0
1046 -1524 0
-379 1612 0
-2416 1092 0
1070 2412 0
-2970 -2534 0
3511 3054 0
4229 -4073 0
-1850 3053 0
3041 522 0
2386 -657 0
2126 -4045 0
-768 -3442 0
-1532 -2547 0
1134 -3747 0
2811 -1247 0
-3172 4074 0
2462 1392 0
722 3425 0
-180 -4097 0
-3274 -1140 0
3111 1162 0
-1070 3070 0
2321 4365 0
-3911 -327 0
2987 1861 0
-102 -3371 0
2126 -1027 0
-3390 -2824 0
1744 -1851 0
4172 2785 0
2024 2464 0
-2155 2944 0
-1390 2685 0
4139 1137 0
3915 791 0
3478 2803 0
-1200 978 0
-4258 710 0
843 2269 0
1886 3053 0
-700 827 0
427 2480 0
544 -1179 0
-2192 -712 0
1334 4175 0
-92 -1951 0
4373 -4126 0
555 -3101 0
-4164 405 0
-897 -2072 0
2612 -193 0
3960 3252 0
-491 -2472 0
-1276 2293 0
-554 3369 0
4084 3291 0
-3480 3233 0
3899 -1100 0
-1422 2521 0
-2314 492 0
411 2849 0
-4265 -1984 0
-1016 660 0
-2368 2271 0
3330 -1907 0
-3623 3076 0
3311 2386 0
-2394 -2271 0
-389 -1690 0
3194 1810 0
-2307 1814 0
3627 -710 0
2923 -1957 0
-2970 1046 0
-3092 2493 0
1628 1516 0
-3260 2333 0
-310 1618 0
3211 -2081 0
3899 -472 0
-3175 740 0
108 -3775 0
315 2499 0
-4326 -2774 0
24 -4248 0
387 -791 0
-3597 -1506 0
1227 3043 0
-459 2011 0
-3820 1628 0
-3078 -3907 0
2560 2113 0
2131 -858 0
3042 -3824 0
-435 -4330 0
-898 -705 0
1404 175 0
3615 -3526 0
3252 2887 0
-1118 4165 0
3643 -895 0
-3869 -1701 0
2263 -1302 0
481 1689 0
1386 3649 0
-3650 4042 0
-835 3317 0
-4337 -1029 0
-3168 -4158 0
-2093 3400 0
1628 1121 0
2786 -3811 0
2203 4107 0
-673 346 0
4257 -2843 0
2711 4159 0
2201 3636 0
-1175 -1766 0
-2577 3146 0
3153 2960 0
1454 3126 0
-93 -2907 0
822 -783 0
-154 3662 0
2480 3823 0
-4344 4003 0
-3770 -3968 0
3419 -2643 0
-541 253 0
2328 -3113 0
-3699 1577 0
-2689 4211 0
340 1426 0
-3052 748 0
-2967 3028 0
235 3231 0
-1889 935 0
-1032 3005 0
-2603 565 0
645 793 0
1029 4075 0
-682 3474 0
4105 2279 0
646 -883 0
4241 -2676 0
-3936 1146 0
918 511 0
-3070 -687 0
273 -2381 0
-3258 -4116 0
-3141 1751 0
-340 -3739 0
2711 -3950 0
3401 2310 0
2090 357 0
1814 -2954 0
-2728 -1635 0
2214 1585 0
-3292 -597 0
1415 322 0
-1264 983 0
-2951 591 0
599 2857 0
3215 -762 0
-526 2661 0
1309 245 0
-1504 1943 0
-2264 965 0
2727 2583 0
516 -839 0
1152 -941 0
-1140 -1421 0
-1013 -4097 0
-2749 703 0
-3586 -111 0
2199 -2866 0
-3296 3437 0
-1548 -4326 0
2002 2184 0
3740 4037 0
-3629 -4076 0
-3644 -1532 0
-80 -3258 0
3050 1674 0
586 2961 0
-1562 5 0
4346 1875 0
2020 -2063 0
4220 447 0
1213 2438 0
-4025 -2661 0
3638 3178 0
-1472 -1893 0
3322 4042 0
-3394 -1186 0
-2810 2051 0
3116 -3382 0
-862 410 0
1592 -896 0
-1806 4088 0
-2444 -3383 0
1614 -2634 0
-3517 1049 0
1024 3240 0
1049 3209 0
4019 4338 0
-487 -4031 0
-3929 -2549 0
889 2214 0
-2198 -3345 0
285 -842 0
2224 186 0
-974 -3029 0
3243 431 0
2895 1848 0
-3497 68 0
-1560 3459 0
4004 -148 0
-2004 1570 0
1575 2837 0
2487 -2511 0
4151 549 0
-1734 -130 0
-2683 2899 0
-4341 -3996 0
3585 -2939 0
3316 -1310 0
874 -4158 0
-4368 -556 0
3313 -4279 0
-641 2379 0
2626 -3427 0
1474 -106 0
-875 -3675 0
-667 3178 0
-1164 1842 0
-1339 -1574 0
2821 -1244 0
372 1137 0
1673 -1456 0
2200 3425 0
-2388 -1008 0
2404 -3937 0
-32 -2323 0
-3611 -4002 0
-1176 1716 0
-1421 -2657 0
-670 -1756 0
2542 4300 0
2175 -3417 0
2192 -2574 0
-2535 -2195 0
-1757 3349 0
-305 2900 0
-2940 3892 0
4033 2782 0
-2090 996 0
-2610 2277 0
950 3006 0
-1985 -1977 0
-890 3862 0
-208 1416 0
1409 -890 0
3310 -1509 0
2491 -4133 0
2259 3820 0
3236 2811 0
-3192 -1581 0
3014 2732 0
-3201 -3751 0
887 445 0
3849 -392 0
-2287 62 0
2189 -3809 0
-424 -601 0
3454 2481 0
-3991 1831 0
244 -735 0
827 -2915 0
-2811 -1954 0
1909 1510 0
2156 584 0
4017 145 0
-820 510 0
2170 -898 0
-4071 -1480 0
-2655 925 0
3601 1311 0
-8 2046 0
270 3889 0
1621 1882 0
2367 -2230 0
779 888 0
546 395 0
2394 -2167 0
759 -3733 0
-4295 -978 0
1763 531 0
-3332 -2181 0
3950 1046 0
1815 -4170 0
3149 -4018 0
-1099 3288 0
-1960 1620 0
2323 -3826 0
4196 3826 0
793 -1691 0
280 -2565 0
-3627 1921 0
3999 1644 0
3512 -375 0
-1116 3782 0
-3798 3864 0
-2839 2 0
401 -541 0
-680 166 0
-2560 2102 0
2553 1435 0
-2970 3887 0
3349 2199 0
-1475 -553 0
2076 -3578 0
-2781 2397 0
-3504 -3050 0
-1873 3114 0
-4116 2851 0
1277 -2697 0
-2989 -397 0
-583 2363 0
4245 -776 0
-3945 -3811 0
-4196 3897 0
4311 1415 0
1938 -2017 0
1966 -3634 0
-2747 4337 0
-3858 1115 0
546 309 0
2044 -2542 0
1452 3789 0
-2629 -1805 0
20 -641 0
-2830 1043 0
227 2488 0
2822 -953 0
-2463 1751 0
-3860 -419 0
3213 1945 0
-4180 -1871 0
-2996 -965 0
1949 -890 0
3987 -4332 0
-995 1107 0
1336 1911 0
-649 2915 0
-344 -279 0
-1109 693 0
901 -1499 0
-1085 -3993 0
566 -899 0
762 -1304 0
2912 -2569 0
-4014 3472 0
984 -3926 0
716 1053 0
1394 1827 0
143 1325 0
-3134 -152 0
1720 -1888 0
1195 -3752 0
761 -243 0
3844 3854 0
2847 3418 0
-3278 -2113 0
1584 3982 0
-3124 2537 0
-4062 1686 0
2331 3116 0
-3516 -4059 0
-2160 1080 0
-867 3400 0
-4082 1556 0
2518 -4060 0
169 -2197 0
-931 -3339 0
-1001 2997 0
-1412 557 0
-2416 -597 0
-1317 2490 0
-2907 -2717 0
3436 82 0
-2409 2254 0
997 -2534 0
-769 227 0
2895 -4177 0
-1578 3281 0
-2011 3989 0
-209 2480 0
4093 2975 0
675 1601 0
-937 -2682 0
2477 -1163 0
-2892 -2819 0
2347 3039 0
1407 4282 0
773 -1573 0
-1173 3251 0
-3018 1599 0
3315 3725 0
-2588 948 0
-1299 -2568 0
-2519 1144 0
-2294 -3314 0
3532 2147 0
1869 343 0
3559 1799 0
-4303 -3025 0
-2065 3737 0
-3918 4371 0
-1017 -869 0
-826 -1254 0
-2699 3505 0
4161 -3743 0
-3121 1966 0
1650 -4262 0
-304 -523 0
-1513 -980 0
3567 1683 0
-2932 929 0
-1800 -132 0
-1632 3240 0
-3684 2058 0
-1732 2770 0
1531 1652 0
-3635 1416 0
3241 -3129 0
-2662 640 0
51 -2245 0
-448 1080 0
-3650 1615 0
1200 -882 0
-1268 -450 0
338 544 0
-3568 1995 0
1010 1363 0
-3824 -2630 0
-2952 974 0
-2449 -2659 0
-1679 -692 0
35 2449 0
2417 4182 0
3693 -2094 0
-2332 1681 0
2263 -1212 0
-2629 -1578 0
-2642 -1741 0
-1794 -3699 0
-3365 952 0
-350 -1009 0
2048 1092 0
-891 -1082 0
-770 -293 0
-3816 -141 0
-2498 -2639 0
3134 -819 0
-3299 -1521 0
-1536 1799 0
3884 1329 0
-205 -1920 0
-3511 -634 0
-3874 4356 0
-4383 -2133 0
3073 2235 0
3173 223 0
-749 -1307 0
361 2037 0
744 245 0
359 65 0
-665 3196 0
-2648 -429 0
3021 -3089 0
-421 1477 0
1757 -992 0
1008 1092 0
4043 -182 0
-736 4214 0
-3056 974 0
2277 2456 0
988 -2835 0
715 1688 0
2940 2900 0
3710 3249 0
-1397 -1249 0
4026 705 0
3897 -2858 0
-139 -1018 0
3097 3782 0
3906 -545 0
4282 -1453 0
-3363 -514 0
-37 -1423 0
-3439 152 0
3836 -2803 0
-2234 2322 0
-4055 1264 0
241 -2759 0
-2060 4384 0
-310 1194 0
3424 -1109 0
334 -2801 0
-4318 21 0
1654 -1233 0
3592 290 0
2403 -507 0
-2612 3482 0
-2844 25 0
1983 4002 0
3304 -3423 0
3339 -2903 0
162 2422 0
-236 -2133 0
-2343 2062 0
2447 -935 0
1840 2265 0
-1505 3832 0
-1500 2112 0
-1607 2010 0
-197 160 0
1242 -2743 0
-3198 -1766 0
1314 -496 0
821 3829 0
1697 3797 0
-2054 3532 0
-1108 -2409 0
-1012 3212 0
2827 -777 0
3576 -2945 0
-395 -3136 0
-597 2701 0
-3284 -1117 0
3471 488 0
-553 2203 0
2949 -3633 0
-53 1553 0
-2144 -914 0
4346 -4133 0
4098 -1902 0
-918 -2247 0
-348 3504 0
3702 1770 0
-33 -3939 0
2009 -3379 0
3459 -686 0
3489 2126 0
-2878 2502 0
3209 -645 0
2500 -1697 0
-224 3936 0
-221 1057 0
-4347 -4255 0
1672 2815 0
1218 34 0
2507 -4156 0
-362 3362 0
169 -3203 0
-977 3762 0
1236 341 0
1193 -4203 0
1302 387 0
-2131 -3374 0
-1532 4165 0
-3252 2554 0
-2281 2765 0
2626 3433 0
2509 -770 0
-557 1016 0
3846 -2062 0
-4195 -3919 0
-1052 -406 0
783 -1529 0
-697 637 0
2846 -1563 0
-3824 -960 0
1712 -3393 0
127 356 0
2559 2087 0
-3281 -1501 0
1274 2921 0
-3604 2934 0
1178 -3819 0
3296 2811 0
-4305 -549 0
1116 3923 0
-3486 1393 0
3758 907 0
-1103 -168 0
2200 1271 0
-4197 2921 0
-2165 -1629 0
2965 -366 0
759 -3575 0
1380 3053 0
3458 739 0
-4308 880 0
2864 26 0
-850 -2254 0
4320 -2644 0
-2445 -2122 0
-3529 642 0
-3091 3767 0
624 1832 0
3154 -2377 0
3014 3971 0
-3991 338 0
-1663 692 0
-625 1627 0
1152 -3970 0
-1550 1794 0
-419 2907 0
1292 1216 0
4071 -739 0
4014 -4197 0
4023 3441 0
4079 -826 0
1008 -2216 0
-3652 1722 0
2519 2164 0
1412 -1514 0
-67 3756 0
506 22 0
-486 3691 0
-1985 -995 0
-692 -4133 0
-1366 -1559 0
-1807 2179 0
1716 -790 0
-359 3604 0
1348 -4372 0
3238 -3339 0
-3242 3206 0
1784 1840 0
-378 -2068 0
3932 1211 0
3333 -94 0
-676 -3500 0
755 1508 0
-4285 -3551 0
3229 3208 0
1670 1043 0
-550 308 0
4294 -3577 0
-1473 -1221 0
-290 1647 0
1299 -2758 0
3036 -1622 0
2310 -3191 0
-2634 -2574 0
2116 2762 0
3079 3475 0
2835 2771 0
-3190 2580 0
3516 4384 0
-3380 1925 0
-1445 1094 0
2183 2947 0
-394 2680 0
2364 -3433 0
-4309 -2475 0
1061 -277 0
-1658 4171 0
-3641 -411 0
-160 -1028 0
-1101 -699 0
-3100 4014 0
-1757 1649 0
1754 -3394 0
-3799 1002 0
2655 -3102 0
-1681 1059 0
-49 1179 0
4311 -4224 0
3114 -290 0
-262 2613 0
-4078 -2593 0
356 3709 0
1867 -4103 0
2634 2803 0
-379 -2215 0
4309 3797 0
4282 1905 0
-2010 -729 0
2132 4156 0
-1816 2016 0
3436 2042 0
-3318 -2556 0
3982 1082 0
-1232 4209 0
2624 -4254 0
4140 101 0
805 3157 0
122 -2242 0
4270 3751 0
2763 -1230 0
-4060 -1853 0
1425 2217 0
-3954 1394 0
-1424 -2384 0
716 2722 0
3921 1885 0
2202 1864 0
-3550 -3824 0
-1483 -2962 0
-2314 -3364 0
-130 3806 0
187 -3340 0
-1436 2187 0
1099 -3777 0
2269 2909 0
-3870 3872 0
4265 2855 0
-2951 1134 0
2944 2750 0
-1892 727 0
-2288 1681 0
2621 -3540 0
1426 -3924 0
-37 1084 0
-4321 3803 0
-2924 -3408 0
3128 2531 0
3240 2466 0
-38 -2420 0
-1903 -3278 0
1171 -822 0
-1941 2238 0
1074 -4323 0
-3384 -3661 0
3676 1204 0
-549 2486 0
-1675 3642 0
3501 -2494 0
-3033 -3272 0
3182 85 0
967 836 0
-3551 -951 0
-1142 -862 0
1235 -2 0
2145 2798 0
-3159 1495 0
2272 1209 0
2626 1710 0
-1395 -3500 0
3924 3795 0
-1031 -18 0
-3824 -1171 0
2516 -2022 0
2532 3304 0
3989 -351 0
3467 2056 0
705 1646 0
52 -2943 0
-3568 -2217 0
1459 -2202 0
1364 -3276 0
1274 -10 0
3311 -199 0
-2311 3399 0
3254 1544 0
-1014 1686 0
-505 3129 0
1169 -1696 0
4090 440 0
-4221 -3562 0
4254 4273 0
3967 505 0
3248 119 0
-521 1526 0
337 -217 0
2844 1625 0
-1496 2208 0
-1110 2496 0
-1672 2616 0
-3096 1862 0
1517 3710 0
-2461 2634 0
1402 -1861 0
-1133 -581 0
-3645 -3913 0
4167 1278 0
775 -3591 0
-1495 2007 0
1970 -3396 0
-2069 -1788 0
-2690 -1060 0
-1791 -3199 0
-4024 -2650 0
3219 1550 0
-786 3538 0
4206 3725 0
-3477 -4016 0
2331 2216 0
1415 1960 0
-1636 2724 0
-3107 -787 0
3921 3815 0
-2052 1146 0
-4073 1072 0
-604 2330 0
3896 2527 0
3355 -3193 0
-2421 -1316 0
-2319 -1832 0
-4076 1925 0
-1494 -161 0
-1610 -3945 0
3375 740 0
1145 -1982 0
-2327 3608 0
-1975 497 0
-1642 -3258 0
-3374 1211 0
575 -3398 0
1032 1442 0
-194 2027 0
-2569 -4273 0
-950 1041 0
4014 4250 0
3212 3616 0
-589 -3406 0
2696 3181 0
2310 -2952 0
-1347 516 0
-763 2042 0
3761 -1405 0
-288 -3928 0
-1076 3026 0
66 2 0
3797 2108 0
3708 -196 0
-108 2743 0
967 -612 0
-4137 3736 0
3593 -2765 0
1858 1297 0
2707 1721 0
-2277 1532 0
1093 3879 0
2086 -1823 0
507 3165 0
334 -2730 0
-3740 98 0
3698 -3120 0
-4124 881 0
-3823 1936 0
-1222 3939 0
2552 2461 0
1688 2987 0
-701 3733 0
-1609 202 0
335 894 0
621 757 0
-3131 3239 0
-1405 3621 0
3764 -2334 0
-1448 -896 0
4128 -8 0
-3543 4334 0
-4228 3398 0
-3664 -2400 0
-3435 4248 0
-102 1651 0
156 -3077 0
-1221 4370 0
-3912 1279 0
-3595 -828 0
1390 -3785 0
-2409 3114 0
-4072 78 0
-3523 1466 0
4056 851 0
-3022 428 0
1062 -3017 0
-2291 4232 0
-1130 -2413 0
2974 -1459 0
-1563 3869 0
-181 -1692 0
-4082 -4348 0
-3350 -1935 0
1880 -3824 0
-3545 1077 0
3833 537 0
2931 -477 0
-139 1526 0
-414 4270 0
-37 -3908 0
1497 3696 0
2564 3172 0
4081 2791 0
-646 -531 0
1590 1507 0
-3837 3190 0
3004 -3518 0
-1844 887 0
-3502 4058 0
2387 2673 0
3039 -2352 0
-4384 -3634 0
2316 -890 0
1969 3068 0
1267 -703 0
2093 -3828 0
-3964 3033 0
2283 -4313 0
-2614 -771 0
-3202 -1326 0
2849 -2715 0
-333 -1654 0
-2208 -2416 0
-3832 -4258 0
-1462 1657 0
2757 3149 0
-2674 1704 0
-2293 4082 0
-677 -4176 0
3439 3410 0
-4223 -168 0
3661 -1762 0
-1047 202 0
737 289 0
-1608 2904 0
3086 50 0
915 4258 0
-3422 2894 0
-1699 3656 0
2257 402 0
-624 -1427 0
2589 328 0
-2622 3274 0
3708 294 0
-1342 2093 0
1487 927 0
-3682 3111 0
2837 -791 0
2974 -1397 0
-349 -4022 0
4001 -1495 0
-1767 -3155 0
-333 -4209 0
-1814 -3038 0
-424 2655 0
-2865 -1384 0
-267 780 0
-3773 1358 0
-3457 -2813 0
1549 1074 0
3177 3757 0
920 1286 0
-867 1337 0
2145 -4139 0
81 818 0
1098 2155 0
-1508 2902 0
3872 -736 0
3592 2607 0
-1978 -1677 0
668 1340 0
217 3523 0
-2349 4003 0
805 800 0
-2821 4262 0
-2048 -4108 0
1277 -1320 0
3607 2625 0
3343 -3633 0
-3346 1779 0
-1497 -495 0
774 3751 0
-3452 3660 0
1674 -2582 0
-3103 2141 0
-2297 3208 0
1717 1203 0
781 -3554 0
326 -3218 0
2315 -2827 0
2590 -1539 0
3901 125 0
4001 3560 0
-896 2302 0
-2654 -1636 0
-1142 2331 0
1267 1548 0
2402 3719 0
-764 -2689 0
-1812 5 0
-1483 2105 0
-1965 -301 0
-1791 2287 0
3387 -3759 0
24 -563 0
2772 -946 0
-1142 -818 0
466 1440 0
-2549 -4324 0
1442 -3270 0
-2270 532 0
1303 -702 0
-1909 -3032 0
-658 4024 0
-2319 -746 0
4307 -1534 0
-525 -469 0
-1625 1641 0
793 -1870 0
-1447 -3715 0
4244 2263 0
-1967 160 0
-2396 -3613 0
-3544 -3456 0
-3265 1622 0
-3635 -3268 0
1496 454 0
-2334 -1905 0
-4031 -2842 0
-1857 -3504 0
-170 -2553 0
-1145 706 0
-3796 1122 0
1542 377 0
-1040 1829 0
3349 4287 0
-802 1045 0
2755 -400 0
3430 -3384 0
-3426 -2126 0
2691 3219 0
-1090 1724 0
-3193 1353 0
-2169 2957 0
2311 -2289 0
-3081 2141 0
3319 -743 0
3323 4382 0
3410 863 0
-2476 -4040 0
3007 -456 0
2600 -3191 0
3838 -2104 0
-1480 -2604 0
-2611 -3223 0
2655 -296 0
-2632 3579 0
3494 -92 0
4302 3218 0
3004 98 0
-3305 1923 0
3270 4247 0
-1519 3764 0
4083 -779 0
-1713 -3142 0
-2133 -67 0
-2179 3208 0
-2907 -1679 0
-1422 -1406 0
-2293 -1328 0
3154 -3799 0
-1002 -1265 0
2850 -2957 0
-3349 -3863 0
-2322 3365 0
3205 -482 0
-4333 2217 0
-220 -1090 0
399 -909 0
3280 -3772 0
1468 -3000 0
2224 2603 0
2818 307 0
3655 2497 0
-1880 -812 0
-1290 2056 0
3151 -1748 0
-722 203 0
3707 1983 0
-1200 1432 0
-3239 2616 0
-2892 -4130 0
-2784 3491 0
519 -1908 0
3933 -2017 0
-1739 -460 0
2481 -846 0
4320 -2876 0
3644 2734 0
-1116 -1200 0
-1848 -1356 0
2458 3788 0
3974 3280 0
-4142 -3409 0
-587 -1586 0
1747 2348 0
1838 4042 0
2963 -177 0
-548 -3881 0
-531 2931 0
-478 3270 0
275 -477 0
2503 845 0
-938 387 0
1886 -2626 0
-2062 -244 0
1556 -2048 0
-3423 3610 0
-798 -1130 0
1836 -1352 0
1940 -296 0
-2643 -1280 0
-1840 -2574 0
-377 3485 0
1699 -270 0
-2429 -2414 0
1625 -1331 0
3647 1732 0
2756 2396 0
1322 1155 0
2966 -2749 0
4197 2662 0
4032 -3483 0
-1429 3703 0
-4047 1107 0
3323 4267 0
3279 2689 0
-3709 3606 0
-321 -495 0
2317 -1467 0
2364 -818 0
1475 -2275 0
-2548 -4386 0
2375 1416 0
-3028 377 0
-1114 3212 0
-724 3850 0
104 4208 0
73 3345 0
-3331 2438 0
-1859 -442 0
1843 -2245 0
-1589 -4342 0
-2740 -3524 0
594 -2339 0
3093 -1055 0
1306 843 0
-2037 1564 0
2411 -985 0
857 -2553 0
-1314 -80 0
432 1403 0
-3017 -516 0
1118 3859 0
2965 -3228 0
-1631 1148 0
4024 -1930 0
-2775 -143 0
-405 2701 0
-3004 4344 0
-1696 -4200 0
3159 -2512 0
-3839 -319 0
-2144 -2028 0
-2867 -3426 0
3165 238 0
1040 -294 0
2248 3495 0
920 -553 0
1705 1642 0
1908 2850 0
185 -92 0
-1308 -3425 0
3086 -2023 0
-1204 -1242 0
-1099 3353 0
1648 1954 0
-2420 916 0
-480 2282 0
1802 -3732 0
-2995 -4346 0
3316 4029 0
2486 1681 0
-4175 2715 0
-2184 3317 0
-3833 -4124 0
-1516 3199 0
-1738 2224 0
-2227 147 0
-3578 -1008 0
3539 2075 0
7 722 0
512 2220 0
2896 2709 0
-3377 -2596 0
-538 425 0
-108 -658 0
4354 -3636 0
-358 -1184 0
-2181 -2522 0
441 2333 0
1851 -4359 0
-1208 -510 0
3696 -3278 0
-932 4251 0
-4185 -1507 0
-2285 -1258 0
3501 4168 0
-3070 1704 0
-3748 -2015 0
1279 760 0
1838 17 0
-3935 3068 0
2887 3219 0
3295 -4043 0
-3136 -143 0
-259 -1966 0
-1047 -395 0
-310 -3877 0
2431 3308 0
-3674 4050 0
-850 -3120 0
3474 4387 0
-882 2701 0
328 2403 0
-849 -2981 0
-3601 3385 0
-1122 -3717 0
-3363 -3768 0
1057 2923 0
3372 -2036 0
-1509 -2838 0
-255 1355 0
-3545 -3476 0
-4186 -3277 0
3223 -2622 0
-3035 3432 0
4277 -4095 0
-2677 -2747 0
-3345 2397 0
3940 49 0
4337 -1023 0
-3542 2932 0
432 -2545 0
-1755 -3677 0
-4349 2559 0
-3818 509 0
-2138 313 0
-102 866 0
-2654 -2804 0
2551 -766 0
-2920 -753 0
1286 2413 0
-1429 -2222 0
2149 -563 0
629 662 0
554 -3837 0
2203 621 0
2146 1508 0
553 -1731 0
-1631 1882 0
4375 1708 0
1123 -424 0
1623 3041 0
-1294 -1008 0
-2418 216 0
1389 3539 0
3037 -513 0
-616 -4256 0
879 -1668 0
3876 243 0
-2495 3407 0
1158 -1728 0
-2156 1049 0
-2776 4024 0
-1050 2353 0
3110 -1233 0
3345 -1222 0
3914 3865 0
2642 1938 0
-4379 659 0
-2236 -3092 0
-2570 -3199 0
1680 -4108 0
-2390 1120 0
2362 -1500 0
2977 -2022 0
-3371 -331 0
-3029 3601 0
1903 -2017 0
-4179 3929 0
3220 542 0
745 -4096 0
-3021 338 0
2485 -2865 0
3046 -3003 0
78 -2166 0
-1018 3375 0
3044 1980 0
-1298 -2305 0
-3918 -4348 0
-3040 3976 0
-898 900 0
-4345 4185 0
-1260 -259 0
3504 -2607 0
2669 376 0
-2844 -3441 0
2051 -2078 0
90 -1811 0
-686 937 0
3759 -1374 0
2955 3418 0
384 -3640 0
2177 -1973 0
791 -566 0
-3039 3528 0
3371 -2987 0
-1777 3939 0
3291 1142 0
3026 3474 0
3059 3398 0
373 -4337 0
-2028 -2565 0
-2229 343 0
-39 -2182 0
-3992 -1553 0
3899 -1072 0
-14 -394 0
-1478 -3786 0
-2727 -556 0
2612 -2099 0
-3958 -3996 0
2711 1781 0
2515 4358 0
73 3776 0
-2390 62 0
2813 3833 0
655 -2577 0
-84 -4314 0
-3559 -4340 0
3124 803 0
-889 -995 0
-3783 -844 0
-448 -232 0
4328 -3022 0
-2239 2155 0
-3104 -3687 0
690 -1326 0
-4015 273 0
3398 4042 0
-3402 2752 0
3812 -103 0
3113 -1356 0
335 -4092 0
-2439 3836 0
-493 3793 0
-331 -2507 0
-3746 2541 0
-883 740 0
-3602 4082 0
-1330 2761 0
740 1576 0
-2326 -1211 0
2556 -2958 0
60 -2832 0
4109 2910 0
-4305 3028 0
1078 2728 0
547 1236 0
-2660 2068 0
3971 -1501 0
-3743 1624 0
851 719 0
-2620 -2682 0
46 1886 0
-2800 -2075 0
1523 -3277 0
2272 643 0
1009 995 0
1821 -3085 0
2665 -1314 0
-43 -27 0
-1180 -2836 0
-1648 -843 0
-1269 -2667 0
1888 1695 0
1184 -324 0
678 3757 0
3073 -84 0
3934 -4262 0
644 3796 0
360 1206 0
-1101 170 0
-4223 2463 0
-3207 4223 0
-857 1907 0
-4317 -2328 0
2266 399 0
1322 1648 0
1546 -3537 0
-1346 2503 0
-2573 2349 0
-3429 -3744 0
-2679 925 0
-1559 2500 0
4289 722 0
-2568 2078 0
-2684 -4170 0
3686 -2620 0
-4306 207 0
-1830 -325 0
3461 -4133 0
-1891 2920 0
363 166 0
630 314 0
4328 116 0
-3032 -1674 0
1896 -3368 0
-4313 1196 0
1452 -601 0
-241 -3858 0
918 -1904 0
-1967 -366 0
-526 1953 0
-3923 -4321 0
1151 1778 0
-2565 -2081 0
-948 744 0
-4299 1077 0
1670 -2260 0
-3 -2020 0
-333 3940 0
-3707 -2245 0
4186 3023 0
3401 3710 0
2788 -461 0
556 -4279 0
-2144 2611 0
-1417 -602 0
3477 3818 0
-58 -4119 0
-1632 2777 0
-2371 1464 0
-4241 2427 0
503 1916 0
-1168 1929 0
-3852 -111 0
-1959 -4112 0
-3302 -505 0
-3244 865 0
-957 1107 0
-2310 740 0
-3874 -3014 0
4227 1883 0
-1461 -2083 0
-3327 1216 0
-3225 -3848 0
2205 3889 0
-2568 -2643 0
-2577 2347 0
2146 -3896 0
2527 2974 0
810 3173 0
381 -1273 0
1062 4160 0
-1815 2590 0
-194 -3604 0
3553 -3017 0
-3442 3817 0
-3968 2510 0
-3098 -1973 0
1984 1704 0
3686 -690 0
793 -1107 0
-2552 -4154 0
-2633 3871 0
-2607 -3959 0
-2770 -3684 0
1642 920 0
-598 -2301 0
2111 2858 0
2922 -1070 0
-823 954 0
3479 2766 0
-4200 3182 0
3744 -886 0
1615 -2980 0
-1860 -3749 0
3172 -4090 0
1346 791 0
-91 2334 0
-4303 1689 0
-3574 740 0
2462 -748 0
2605 -4143 0
166 1724 0
-2690 198 0
-665 -724 0
-4267 1406 0
-803 3699 0
-1180 3220 0
4037 3343 0
1710 -2992 0
-749 3523 0
4298 -76 0
-1505 3362 0
-2858 -3049 0
2521 1956 0
-637 4172 0
895 -1004 0
-1082 -2495 0
1881 3197 0
3989 1577 0
1383 1782 0
966 -2372 0
-1521 -747 0
49 -4176 0
-667 -1583 0
-4 -1008 0
-4225 -3855 0
3114 1770 0
570 716 0
4089 -131 0
-361 2233 0
2591 161 0
-409 3898 0
2772 1409 0
-3550 -4387 0
2828 77 0
2999 1824 0
4056 2245 0
3055 -2068 0
3703 927 0
3241 859 0
3582 -255 0
-4185 1422 0
1763 3110 0
3288 1725 0
-3997 -3682 0
-4381 -299 0
-1017 -3607 0
3581 2525 0
2194 42 0
651 -4306 0
-1528 2861 0
2083 3664 0
-246 560 0
-1770 -1221 0
-3918 -1813 0
1651 -290 0
2923 -2975 0
1978 3257 0
-166 3412 0
-2529 -3272 0
-1981 3994 0
-14 2543 0
-3142 -126 0
-2823 -2367 0
3670 130 0
2003 3555 0
1008 1564 0
3441 -2064 0
3091 188 0
1183 1678 0
-3315 -1388 0
187 -2648 0
2715 4155 0
-2484 3812 0
-1296 -2860 0
3787 3556 0
2302 -308 0
1807 -2852 0
-1716 2755 0
-4325 -2862 0
3782 2806 0
2246 2895 0
-3452 3249 0
-2450 -2118 0
3574 -3626 0
-3312 -2197 0
2919 1609 0
-1520 2108 0
-2209 4218 0
-1609 659 0
590 3061 0
1106 -1678 0
-2642 -3833 0
2595 -3317 0
4168 4047 0
305 -4342 0
1554 2276 0
-3083 -813 0
918 -1785 0
-2788 186 0
3621 2022 0
-486 -3798 0
-4108 -2017 0
2379 3940 0
-3410 -1860 0
-3423 -3185 0
-571 -3506 0
4146 -3728 0
-2955 588 0
4171 -187 0
957 1736 0
594 -3774 0
-1529 -1137 0
-1078 -3659 0
490 2966 0
1386 -900 0
4080 594 0
4030 1624 0
913 -3569 0
-1447 953 0
-2001 -2494 0
-2073 -997 0
1341 -3449 0
-2586 297 0
-2139 3652 0
2062 2542 0
-2901 -300 0
-2374 1048 0
1621 -1428 0
1207 -1999 0
-1234 2163 0
3537 -1114 0
4010 -3678 0
2589 2143 0
2173 2976 0
-3653 784 0
2514 104 0
1006 -953 0
-2586 2383 0
3630 -674 0
699 -1476 0
1482 -3882 0
2537 -252 0
-3107 3254 0
-3255 2455 0
313 -2217 0
-3455 2484 0
-1312 1236 0
-2377 -2390 0
3426 -3201 0
-3491 -819 0
2008 -1223 0
-1982 2619 0
-2774 1014 0
-1403 -1121 0
2536 -897 0
486 423 0
-3151 3735 0
-3216 -2769 0
-126 1588 0
-3649 2461 0
-1463 -96 0
-2703 2851 0
3871 -3858 0
2811 1850 0
-2558 -1272 0
-4072 -2420 0
1670 -3855 0
1830 2528 0
-969 1021 0
1649 -3112 0
-3477 -1225 0
223 3202 0
3244 4295 0
1255 -3177 0
-1204 3982 0
489 -645 0
2944 -941 0
3421 677 0
-1405 3305 0
-3939 3280 0
-2374 4015 0
4273 -3162 0
-645 -895 0
-3504 77 0
2718 -3716 0
4010 826 0
-611 1556 0
-240 2200 0
747 3588 0
-2329 4122 0
-2266 -3986 0
3530 4278 0
-375 3186 0
3909 -3920 0
2679 -3024 0
-1661 -1819 0
-3645 590 0
-2751 -765 0
-3720 1952 0
-2289 -4336 0
2763 1478 0
-3634 -3099 0
-1095 -3397 0
-2635 122 0
1196 -1776 0
2400 3908 0
-2978 -2932 0
1980 -491 0
-2082 -1471 0
3524 -582 0
4206 -1398 0
-3669 3998 0
1192 -2391 0
1908 -443 0
2018 1037 0
2985 -2080 0
-419 1432 0
4317 -1494 0
2718 1969 0
428 2682 0
-1206 -1390 0
3485 2870 0
3090 -738 0
3762 2916 0
-3310 4189 0
-1473 -1117 0
-438 2636 0
-3306 4350 0
2713 4196 0
-938 2063 0
-2529 -1493 0
-1536 1186 0
3472 -2543 0
-3222 889 0
-3 -1321 0
3506 1434 0
-2841 -2483 0
612 2067 0
629 -3652 0
-319 -2800 0
1443 401 0
-1720 -3181 0
3167 -2482 0
4220 -2087 0
4288 -424 0
-459 4143 0
4277 -3033 0
1971 2338 0
-1838 3240 0
-885 -3426 0
4022 712 0
61 -953 0
-4386 -3333 0
-687 1567 0
-2660 -3047 0
3062 -3449 0
2358 -1392 0
664 -4305 0
-3481 -1417 0
-3995 1482 0
4231 -3208 0
718 -4383 0
-3161 -1157 0
-60 48 0
-3839 -3413 0
2524 -606 0
-1143 3848 0
600 -3882 0
3330 2293 0
2439 -3155 0
2715 21 0
3123 -4292 0
-4094 -1195 0
-3828 2195 0
2699 -2906 0
-2899 -463 0
2177 -2146 0
3566 -1010 0
3037 -3701 0
1482 -816 0
-548 2457 0
174 -222 0
227 3469 0
-1982 -986 0
-1973 3239 0
-213 1881 0
-3972 -4102 0
3772 -767 0
1029 2161 0
-1024 -533 0
599 -4158 0
-3768 432 0
4302 1767 0
931 -2329 0
3636 -1027 0
3283 2854 0
228 2059 0
1153 1742 0
-2715 -3990 0
1614 4064 0
-2512 2350 0
522 -2787 0
4224 3755 0
-3900 1876 0
1002 -1593 0
-1798 -435 0
-1539 2369 0
-220 4371 0
