c bounds 61 61
p cnf 505 1414
-454 -384 0
-94 -395 0
504 -246 0
-344 -71 0
-458 242 0
-322 -175 0
495 -115 0
3 -14 0
502 -5 0
504 268 0
-183 -28 0
-286 259 0
-472 162 0
382 352 0
196 262 0
-398 213 0
-50 -144 0
-144 79 0
266 441 0
385 -386 0
48 253 0
3 129 0
-359 -332 0
-165 49 0
308 -390 0
-371 485 0
53 137 0
-470 284 0
-492 -392 0
505 484 0
-364 276 0
-370 -104 0
-370 -235 0
302 329 0
332 -477 0
-342 -121 0
-457 328 0
-198 -262 0
-176 -156 0
-173 377 0
73 409 0
-292 -176 0
504 -428 0
415 154 0
-128 -47 0
132 -343 0
-248 -157 0
302 -287 0
452 -181 0
-503 1 0
-378 387 0
-228 255 0
16 407 0
-109 -453 0
345 -52 0
452 1 0
418 -418 0
372 482 0
-38 421 0
-70 -359 0
256 -305 0
124 -164 0
328 354 0
167 -217 0
65 -401 0
324 -8 0
-108 -7 0
-306 504 0
-350 -200 0
-194 -112 0
344 175 0
-419 -309 0
461 16 0
289 404 0
-114 -345 0
-411 -29 0
78 -498 0
-221 -27 0
-319 -224 0
275 -112 0
156 24 0
-364 124 0
-396 -318 0
-114 -420 0
-131 -202 0
-477 -428 0
57 137 0
149 -345 0
-281 247 0
16 -320 0
16 242 0
301 411 0
215 -348 0
141 -158 0
-277 81 0
18 -155 0
-126 321 0
116 81 0
179 -57 0
-463 148 0
-503 -31 0
85 343 0
145 -468 0
-247 460 0
-277 -264 0
470 240 0
-158 -278 0
485 40 0
-337 -45 0
28 357 0
-163 412 0
469 120 0
-428 -283 0
248 -260 0
455 211 0
-497 434 0
-408 -40 0
-123 -505 0
-19 -209 0
-274 -188 0
-277 -253 0
68 268 0
-373 -247 0
372 122 0
135 145 0
106 -393 0
166 -200 0
-163 -42 0
442 -151 0
18 -470 0
4 -30 0
55 232 0
-286 153 0
-210 -172 0
-9 -192 0
-158 -13 0
-349 -152 0
424 3 0
185 -220 0
144 418 0
166 -393 0
28 493 0
-39 72 0
-414 -203 0
146 156 0
450 172 0
-92 382 0
244 -70 0
49 -42 0
-72 -478 0
490 -69 0
-12 138 0
-463 -283 0
-22 -195 0
-260 182 0
-195 268 0
-277 448 0
171 -473 0
-174 24 0
186 343 0
483 206 0
452 328 0
-296 33 0
-263 -401 0
107 139 0
242 301 0
-412 -369 0
375 185 0
-424 -104 0
-296 -450 0
3 -339 0
-208 -41 0
-169 -284 0
-81 -131 0
490 -174 0
273 -495 0
-305 -175 0
452 -91 0
77 405 0
272 439 0
205 -218 0
-450 -261 0
-127 -136 0
325 276 0
505 181 0
247 218 0
-142 -321 0
-208 275 0
-38 -296 0
250 -373 0
-361 92 0
134 147 0
310 -152 0
-93 -175 0
2 -354 0
-267 -245 0
386 -247 0
252 -31 0
447 98 0
-93 -26 0
472 -86 0
342 261 0
-35 259 0
-501 -432 0
481 -198 0
-50 25 0
63 469 0
-244 109 0
-408 -290 0
-148 158 0
-6 427 0
-272 -468 0
34 193 0
-327 58 0
113 109 0
135 -460 0
-151 -72 0
390 307 0
216 348 0
486 -204 0
170 65 0
118 -375 0
135 176 0
472 288 0
-374 -435 0
-212 -221 0
-231 -64 0
75 -43 0
453 205 0
-235 190 0
-46 21 0
265 146 0
376 155 0
258 -48 0
458 -5 0
-330 53 0
448 -108 0
178 392 0
65 -277 0
-328 -495 0
-33 223 0
-250 -317 0
-389 -41 0
123 171 0
-145 58 0
-371 -401 0
64 -358 0
-264 187 0
-462 109 0
417 -505 0
1 259 0
350 -122 0
-191 487 0
-71 31 0
105 -80 0
-235 274 0
-66 295 0
85 -112 0
-488 -256 0
-67 -84 0
307 -51 0
-416 303 0
318 193 0
-440 179 0
-98 309 0
29 -287 0
-126 -442 0
-380 -30 0
-255 124 0
-46 -363 0
-50 410 0
-248 -298 0
-440 -387 0
-252 478 0
-424 -342 0
247 238 0
-145 -449 0
109 400 0
-255 226 0
223 131 0
-283 119 0
-374 269 0
469 102 0
-245 -45 0
32 -54 0
-228 218 0
-432 -450 0
-461 484 0
452 -76 0
-9 16 0
234 -127 0
-408 439 0
259 64 0
-416 -314 0
178 119 0
226 365 0
63 -61 0
17 -227 0
-366 407 0
258 345 0
-321 -324 0
-176 288 0
-200 226 0
-284 87 0
-55 -157 0
-153 125 0
-222 -380 0
-223 372 0
-250 -170 0
-223 205 0
153 -6 0
-390 220 0
-175 -212 0
447 -477 0
245 201 0
-370 67 0
-406 -223 0
119 -48 0
120 -87 0
-110 387 0
-276 -64 0
-89 -411 0
-31 -265 0
-480 -412 0
299 423 0
422 -56 0
220 -410 0
-416 392 0
452 288 0
249 89 0
-115 -146 0
-268 -264 0
-255 -451 0
201 475 0
-289 303 0
18 -349 0
348 -169 0
205 -443 0
242 -287 0
-410 -247 0
-214 250 0
-235 -358 0
218 -353 0
-143 407 0
-485 190 0
433 -411 0
-84 321 0
92 276 0
194 -369 0
-496 -420 0
-298 215 0
180 -100 0
365 9 0
236 -366 0
261 -381 0
-46 416 0
164 24 0
185 -115 0
-40 203 0
-72 -12 0
-375 -483 0
67 346 0
90 403 0
302 21 0
230 -501 0
70 -320 0
-110 369 0
79 -340 0
-371 369 0
295 155 0
-495 -241 0
207 -436 0
-454 -416 0
-416 409 0
-237 -193 0
155 -194 0
-207 -157 0
503 -203 0
88 -471 0
-15 -207 0
269 341 0
467 -502 0
403 -39 0
492 236 0
-183 446 0
280 318 0
405 389 0
120 -242 0
135 -41 0
174 177 0
-191 233 0
105 -51 0
224 154 0
237 -436 0
-89 -29 0
108 -282 0
149 -386 0
-374 -37 0
-163 -126 0
134 81 0
157 351 0
-495 471 0
362 282 0
-37 -480 0
433 -438 0
-364 -256 0
-32 -150 0
-446 -323 0
308 388 0
248 -112 0
37 139 0
55 -135 0
472 154 0
-501 -494 0
-250 186 0
-396 264 0
-479 379 0
-32 296 0
-383 253 0
18 187 0
-495 -200 0
429 167 0
-243 -69 0
338 391 0
205 442 0
143 -335 0
-280 314 0
-122 -200 0
-433 -183 0
-187 -257 0
-286 -156 0
250 -357 0
142 56 0
-184 -143 0
-39 474 0
256 483 0
259 328 0
-90 143 0
176 -180 0
288 -392 0
407 -32 0
-287 -485 0
239 -364 0
217 -400 0
-274 5 0
-431 -320 0
482 -473 0
269 467 0
59 -3 0
-396 456 0
234 -411 0
502 32 0
349 -414 0
-31 -457 0
376 -159 0
-247 91 0
161 486 0
435 -257 0
133 -267 0
-291 -138 0
3 385 0
-74 -34 0
35 485 0
-426 444 0
-286 254 0
-493 358 0
367 -410 0
-89 1 0
3 351 0
-155 -219 0
-266 346 0
-48 206 0
462 -40 0
223 -97 0
126 -374 0
267 -364 0
47 -5 0
105 442 0
102 105 0
-255 -436 0
362 -292 0
16 272 0
360 315 0
-461 193 0
213 442 0
-338 -121 0
-494 -232 0
197 185 0
21 -338 0
-256 -410 0
155 38 0
17 354 0
-289 346 0
-476 -350 0
245 -152 0
257 -496 0
302 360 0
361 438 0
-200 82 0
-451 449 0
373 82 0
40 65 0
-121 502 0
328 -177 0
-203 152 0
-438 172 0
446 117 0
-342 -87 0
-75 262 0
-469 240 0
-476 322 0
-39 -130 0
-345 85 0
-314 -219 0
259 -418 0
268 53 0
107 -38 0
-501 315 0
4 21 0
-187 253 0
-446 450 0
-189 125 0
101 -230 0
435 -113 0
36 -420 0
345 489 0
3 -449 0
-116 -449 0
426 116 0
171 -12 0
-69 -253 0
-9 -276 0
478 -98 0
-299 -305 0
474 -76 0
-156 -185 0
-197 251 0
-424 -450 0
-285 -150 0
233 295 0
-204 368 0
-158 105 0
-424 186 0
203 417 0
55 -310 0
-106 -406 0
351 -50 0
-424 -462 0
343 314 0
20 400 0
-419 139 0
13 -169 0
-423 423 0
461 -477 0
206 -442 0
276 59 0
-81 455 0
-115 -68 0
-61 302 0
-184 -242 0
-378 130 0
149 115 0
-291 328 0
-391 -408 0
-60 -429 0
393 92 0
83 76 0
142 -243 0
-281 255 0
-495 57 0
163 -310 0
311 390 0
80 485 0
366 -86 0
311 13 0
126 -371 0
251 303 0
-369 229 0
-95 -14 0
488 301 0
5 -404 0
146 12 0
11 92 0
391 97 0
181 -189 0
-49 362 0
318 -284 0
223 -78 0
-46 -164 0
-359 354 0
-45 -320 0
-95 -384 0
133 203 0
-392 141 0
29 443 0
482 111 0
103 -7 0
171 234 0
-281 -7 0
-175 222 0
-12 -347 0
-12 -457 0
129 -321 0
-375 -48 0
227 -183 0
-485 225 0
-505 -34 0
-56 332 0
57 -430 0
158 223 0
166 -319 0
489 -414 0
389 -126 0
-267 172 0
246 166 0
-199 486 0
213 -12 0
462 254 0
426 376 0
-118 130 0
365 134 0
-363 -378 0
-323 276 0
240 -358 0
77 -227 0
-99 186 0
-496 -501 0
-89 -314 0
-223 83 0
-355 -299 0
-469 370 0
441 248 0
-135 3 0
472 349 0
490 -347 0
-286 -322 0
-375 148 0
186 153 0
102 -145 0
26 304 0
-150 -5 0
485 -154 0
166 328 0
323 213 0
-183 433 0
-159 245 0
37 192 0
442 -490 0
-371 -237 0
161 -10 0
116 448 0
25 -113 0
-74 -392 0
-402 -245 0
272 390 0
-214 484 0
77 -299 0
-158 17 0
-474 -138 0
-503 14 0
119 -449 0
-397 -41 0
-314 319 0
-204 -300 0
452 -370 0
199 -395 0
-441 486 0
103 490 0
126 53 0
466 203 0
-173 -187 0
-359 381 0
215 313 0
-54 -391 0
492 410 0
315 -453 0
-88 153 0
-98 -14 0
204 272 0
-382 458 0
483 -179 0
-100 249 0
-225 -373 0
415 223 0
302 479 0
491 489 0
-81 416 0
213 -474 0
-490 -152 0
-10 -258 0
-438 480 0
-288 13 0
-298 331 0
-387 106 0
126 162 0
28 -134 0
-115 85 0
-68 25 0
403 295 0
-440 105 0
-76 152 0
-189 -232 0
253 -451 0
239 78 0
-441 254 0
112 479 0
124 370 0
155 -375 0
-184 461 0
-298 -404 0
-504 -27 0
-8 24 0
117 418 0
-470 -68 0
-445 -312 0
-77 249 0
-136 211 0
-371 -82 0
27 349 0
304 142 0
392 -374 0
-384 403 0
-199 102 0
-430 -44 0
-476 -317 0
-241 -299 0
-356 -265 0
246 -252 0
421 502 0
-473 -338 0
12 -203 0
348 -412 0
-20 -48 0
-251 -47 0
-219 -181 0
326 351 0
-156 485 0
-127 -230 0
-27 -25 0
-227 362 0
-100 17 0
64 340 0
-276 -122 0
84 -390 0
-7 -451 0
-135 -442 0
268 -502 0
267 279 0
-432 502 0
-137 -69 0
125 -419 0
147 -329 0
407 -387 0
-110 139 0
180 -191 0
-236 -286 0
163 -126 0
492 -163 0
250 -140 0
-8 -457 0
139 -503 0
-361 -86 0
-432 340 0
-3 213 0
-50 -451 0
-290 -272 0
225 -402 0
-374 -326 0
224 422 0
-156 -334 0
-374 233 0
-404 182 0
22 56 0
162 -378 0
233 328 0
244 -344 0
202 -378 0
8 238 0
214 -10 0
-35 -292 0
-495 -334 0
359 186 0
440 491 0
-330 -464 0
-148 472 0
-353 485 0
-364 -21 0
-37 -142 0
147 -226 0
75 -399 0
-446 83 0
-113 -33 0
154 -193 0
-37 -411 0
-199 95 0
-29 163 0
13 306 0
182 -226 0
-53 -183 0
197 -41 0
-317 -330 0
472 387 0
20 289 0
179 207 0
274 -6 0
-131 139 0
-424 -500 0
-122 105 0
-212 230 0
-284 89 0
502 -244 0
163 -41 0
-45 2 0
390 289 0
88 429 0
391 77 0
-354 -75 0
42 -235 0
499 148 0
-157 326 0
-178 3 0
426 -380 0
382 246 0
272 172 0
-119 269 0
221 313 0
-284 134 0
-69 459 0
-93 -160 0
-355 -42 0
155 260 0
-460 190 0
-369 48 0
-376 254 0
9 223 0
-505 -501 0
-32 -170 0
-483 182 0
492 -72 0
6 123 0
-441 -41 0
318 264 0
-399 -150 0
471 246 0
-7 318 0
-347 421 0
22 -25 0
398 -411 0
365 392 0
-286 -344 0
-200 -17 0
-404 -412 0
-141 -45 0
445 78 0
-363 -246 0
181 262 0
169 434 0
383 201 0
-191 -327 0
252 -237 0
-350 311 0
-95 -270 0
-305 356 0
-81 10 0
312 -436 0
-373 -498 0
-188 -445 0
48 -270 0
355 260 0
-337 -109 0
-31 -194 0
193 475 0
426 315 0
176 429 0
459 308 0
6 225 0
457 -431 0
266 343 0
125 -74 0
-6 -290 0
173 371 0
-5 146 0
293 -108 0
123 -493 0
-160 392 0
217 -59 0
244 -425 0
107 18 0
-184 -258 0
448 -247 0
-12 71 0
-459 -350 0
-165 -133 0
-399 -97 0
417 -458 0
24 -158 0
-44 447 0
-473 375 0
223 118 0
11 -445 0
421 -93 0
33 351 0
439 -328 0
-347 288 0
188 49 0
-472 176 0
-37 -6 0
323 -160 0
-499 -356 0
246 447 0
-191 -138 0
418 405 0
146 -192 0
-284 -139 0
-177 -110 0
-71 186 0
-31 92 0
118 308 0
11 171 0
181 -330 0
201 80 0
-232 374 0
-265 -27 0
-316 398 0
-15 461 0
-291 380 0
-191 130 0
-191 292 0
-179 295 0
-175 174 0
314 25 0
-170 -466 0
272 190 0
205 -347 0
-241 273 0
406 376 0
464 -437 0
92 467 0
-288 -374 0
192 387 0
399 -257 0
266 -438 0
56 -68 0
87 -108 0
-391 94 0
-317 -454 0
-239 351 0
466 -233 0
-151 98 0
-113 439 0
-286 325 0
-474 215 0
232 -156 0
398 -281 0
-108 -463 0
79 483 0
-126 342 0
-115 -83 0
432 23 0
105 407 0
273 -209 0
-324 192 0
295 -41 0
418 -209 0
461 -501 0
-359 -453 0
306 344 0
354 -93 0
405 -473 0
220 -175 0
-86 413 0
-446 304 0
190 -469 0
148 -191 0
308 -416 0
118 -486 0
-302 206 0
-473 323 0
99 254 0
259 -118 0
-74 -89 0
272 173 0
-135 -460 0
-133 -160 0
-120 -338 0
243 -277 0
-312 -422 0
216 -432 0
-342 301 0
-27 254 0
-285 -458 0
12 141 0
-183 -330 0
-198 -221 0
-126 -175 0
318 219 0
-68 -370 0
-404 -368 0
-446 429 0
55 -65 0
182 -505 0
-207 222 0
-74 293 0
15 -108 0
261 249 0
-152 -72 0
109 -286 0
-474 -244 0
-91 56 0
173 -310 0
421 116 0
-71 -493 0
-239 -29 0
458 -128 0
117 -3 0
-54 278 0
-309 203 0
-323 -98 0
-477 385 0
286 -140 0
-180 166 0
-245 119 0
-204 488 0
-422 -321 0
386 488 0
153 -497 0
-420 -14 0
-89 -250 0
-157 -179 0
-181 -107 0
-469 -197 0
124 -195 0
-241 165 0
-475 410 0
109 -345 0
177 -323 0
-368 -388 0
347 -342 0
-357 -292 0
-69 96 0
85 -419 0
334 25 0
-66 -364 0
339 354 0
-463 -194 0
-152 66 0
-470 -249 0
-269 484 0
391 -163 0
-70 -300 0
-500 271 0
205 468 0
-138 -406 0
-324 -154 0
-280 81 0
116 -475 0
-6 -223 0
79 109 0
352 -462 0
-204 -42 0
87 -503 0
-181 166 0
269 -105 0
-280 -304 0
-339 414 0
352 452 0
344 -410 0
-187 -329 0
22 345 0
400 -186 0
-453 414 0
-328 253 0
-214 -169 0
15 282 0
-7 -108 0
-136 -117 0
116 -283 0
367 181 0
377 -180 0
-501 -432 0
179 -139 0
-323 52 0
-424 387 0
472 -140 0
249 434 0
88 -349 0
464 -59 0
-282 -11 0
-69 285 0
106 -98 0
311 -100 0
304 -314 0
-277 -226 0
101 -113 0
-115 -46 0
276 106 0
125 156 0
238 -57 0
-71 73 0
-304 339 0
479 -268 0
-248 -135 0
4 -107 0
5 409 0
108 149 0
-359 -472 0
-505 -1 0
15 291 0
93 58 0
-68 -395 0
378 415 0
332 -366 0
4 429 0
-187 279 0
346 -177 0
236 -215 0
430 193 0
-451 -250 0
-402 461 0
335 -127 0
-69 276 0
-141 -281 0
289 169 0
385 499 0
-383 -159 0
378 145 0
-446 -370 0
66 265 0
-350 -356 0
-342 114 0
108 -38 0
318 196 0
135 252 0
172 294 0
-39 -42 0
292 103 0
307 236 0
417 -129 0
262 291 0
364 -21 0
-364 266 0
-14 -81 0
179 -492 0
-11 443 0
146 -69 0
401 174 0
4 -451 0
475 146 0
-56 166 0
408 -148 0
-46 234 0
-306 -13 0
48 414 0
-70 -72 0
178 461 0
-501 5 0
-81 333 0
-455 -324 0
-387 -37 0
-311 -395 0
433 221 0
76 -10 0
-44 333 0
-404 -36 0
-100 -284 0
120 394 0
388 91 0
-296 -219 0
411 134 0
-214 -388 0
-225 -36 0
-52 -439 0
-476 -106 0
-332 -475 0
-380 -22 0
-374 238 0
318 246 0
-278 -55 0
426 -401 0
321 339 0
-389 240 0
264 -208 0
-220 -43 0
17 -437 0
500 244 0
491 -241 0
-212 -177 0
248 -74 0
85 -412 0
406 234 0
21 391 0
369 -197 0
313 -479 0
421 -20 0
-374 389 0
438 -480 0
208 430 0
-158 -292 0
179 24 0
229 -46 0
-321 68 0
-50 -63 0
-83 -392 0
-29 -208 0
-277 117 0
185 291 0
-392 130 0
167 19 0
-175 -352 0
-206 -198 0
119 309 0
227 -191 0
491 100 0
-397 -165 0
-358 -254 0
422 429 0
-312 62 0
45 362 0
-322 137 0
-38 403 0
-504 246 0
185 364 0
-164 59 0
-122 -267 0
-419 162 0
313 240 0
-126 -376 0
43 442 0
239 -406 0
234 43 0
205 -439 0
116 248 0
-270 322 0
68 -284 0
-155 -99 0
-259 -239 0
-419 -335 0
43 336 0
348 47 0
-267 57 0
-381 440 0
-18 275 0
389 308 0
86 391 0
-274 -319 0
-291 -355 0
-293 180 0
-122 -159 0
367 -428 0
-351 341 0
-357 215 0
-473 222 0
143 33 0
360 -312 0
402 -165 0
-199 344 0
-333 413 0
324 218 0
-486 -316 0
385 -124 0
307 113 0
120 230 0
-163 -357 0
-40 28 0
-296 -73 0
114 275 0
-161 -40 0
-450 -233 0
381 -148 0
-110 -493 0
-494 172 0
-410 -51 0
-207 301 0
-416 437 0
-84 -52 0
-404 454 0
296 231 0
403 -388 0
387 -119 0
-375 -11 0
480 -35 0
245 -450 0
23 -136 0
213 366 0
-366 153 0
249 -135 0
298 -451 0
-478 -247 0
167 -156 0
173 272 0
-159 -232 0
83 -159 0
-264 -500 0
-441 458 0
143 186 0
-75 -356 0
49 -247 0
112 -237 0
335 -158 0
-214 464 0
183 -314 0
-363 -429 0
334 -159 0
-51 -267 0
-370 -487 0
-20 89 0
137 459 0
459 1 0
-211 141 0
-100 133 0
-465 -434 0
322 94 0
401 27 0
441 -256 0
-320 360 0
-245 -363 0
-298 330 0
-169 59 0
-386 -124 0
91 128 0
132 -238 0
-71 -48 0
218 435 0
-459 -344 0
332 -440 0
-17 -219 0
-233 215 0
-160 -382 0
230 502 0
-288 244 0
-135 -208 0
59 -440 0
-421 409 0
-453 -410 0
415 89 0
418 -306 0
4 94 0
343 -458 0
459 -48 0
-127 6 0
164 -64 0
-254 -290 0
-499 491 0
-470 136 0
210 491 0
-475 242 0
38 294 0
196 -38 0
-347 486 0
150 401 0
317 -138 0
-84 -173 0
-86 -424 0
-441 -454 0
-199 55 0
-2 190 0
-342 488 0
201 -463 0
433 100 0
-442 443 0
94 -305 0
440 -416 0
354 489 0
18 304 0
-338 -452 0
30 -31 0
454 -267 0
-121 268 0
426 -420 0
-76 117 0
-380 -267 0
-393 222 0
277 -157 0
169 -347 0
51 435 0
1 -492 0
200 -412 0
-329 -213 0
447 216 0
-187 62 0
-267 -170 0
-142 17 0
-150 306 0
-363 231 0
-331 418 0
-212 -350 0
315 155 0
-256 456 0
-263 -265 0
-338 -56 0
-402 505 0
-357 -53 0
-399 -26 0
451 -408 0
229 -192 0
261 -239 0
-126 -314 0
225 -198 0
-135 317 0
-72 -450 0
-462 -472 0
262 -473 0
-207 187 0
-62 492 0
489 430 0
304 -491 0
-84 -182 0
-62 -395 0
-280 446 0
193 409 0
67 -266 0
502 434 0
56 -397 0
-45 -319 0
