c bounds 80 80
p cnf 775 2558
-701 663 0
-377 21 0
-10 -87 0
564 -728 0
40 639 0
-339 -452 0
757 -178 0
-31 163 0
-602 -129 0
-190 497 0
-244 -619 0
-635 -79 0
-58 -224 0
-509 494 0
141 86 0
-193 695 0
737 93 0
-100 411 0
-527 -345 0
-638 274 0
-36 670 0
-740 -570 0
546 207 0
477 -612 0
727 -424 0
368 -158 0
-130 595 0
-586 13 0
-378 301 0
743 -168 0
-476 353 0
-199 -489 0
-432 622 0
684 -491 0
-237 -109 0
573 279 0
-7 -178 0
531 673 0
-452 -484 0
-313 454 0
256 121 0
-62 357 0
486 67 0
599 -570 0
-467 -743 0
700 187 0
637 -447 0
-395 597 0
-66 -443 0
204 676 0
556 -230 0
-200 -583 0
-80 -327 0
619 609 0
-38 -222 0
251 -530 0
50 -291 0
-316 -183 0
-761 -439 0
-538 -471 0
-664 -769 0
-114 357 0
-474 -262 0
419 -162 0
-743 -425 0
367 -329 0
-332 -394 0
-178 469 0
592 -442 0
769 -577 0
-591 641 0
487 -508 0
319 -441 0
287 199 0
-730 745 0
763 -523 0
-221 91 0
-461 -18 0
-60 110 0
266 -754 0
4 -590 0
377 191 0
602 423 0
-265 164 0
725 454 0
558 184 0
160 -666 0
-754 -41 0
-752 -163 0
-713 313 0
-510 99 0
-83 -137 0
-417 531 0
44 686 0
-292 128 0
299 251 0
-719 119 0
-493 398 0
-572 -428 0
-598 552 0
490 -163 0
418 683 0
649 -439 0
-491 -551 0
-200 214 0
-742 -696 0
-321 544 0
-518 -16 0
-319 640 0
-356 -184 0
56 -24 0
45 -382 0
-180 -12 0
-127 499 0
-318 297 0
88 310 0
-489 96 0
-705 430 0
-339 273 0
-244 -17 0
283 -154 0
408 -41 0
333 271 0
-182 525 0
81 -155 0
461 -334 0
-379 326 0
307 540 0
323 353 0
477 477 0
-229 -507 0
-80 657 0
-502 -714 0
-163 127 0
-218 97 0
539 -629 0
-485 -153 0
-108 -41 0
434 112 0
-606 -504 0
550 -417 0
-711 418 0
10 604 0
165 631 0
563 511 0
-228 515 0
-538 485 0
-73 -208 0
450 641 0
-334 -564 0
-425 -454 0
-399 430 0
490 -698 0
-221 451 0
-264 -704 0
-433 -679 0
652 -610 0
652 643 0
506 146 0
51 -187 0
-435 464 0
-259 564 0
-403 290 0
-336 610 0
-11 -450 0
518 155 0
-739 -721 0
-408 590 0
-466 468 0
631 640 0
609 -509 0
-113 -413 0
-707 581 0
731 -699 0
152 -564 0
-347 -143 0
680 480 0
-652 657 0
341 311 0
24 -594 0
576 632 0
551 569 0
-83 20 0
497 -152 0
719 -690 0
282 609 0
292 1 0
-175 369 0
-699 -674 0
-630 601 0
-638 254 0
-80 -361 0
-632 -404 0
-239 -600 0
393 594 0
-439 765 0
-168 523 0
631 -141 0
-19 -678 0
42 -317 0
-718 -653 0
208 -759 0
650 352 0
-471 -212 0
-41 445 0
660 307 0
325 75 0
736 -636 0
-716 -152 0
-459 11 0
70 365 0
539 554 0
58 -217 0
-281 -358 0
301 701 0
13 764 0
-53 147 0
-304 -289 0
468 596 0
-536 365 0
-242 -478 0
-546 670 0
-254 147 0
436 604 0
306 -148 0
-647 150 0
-427 568 0
-687 129 0
531 -137 0
-20 689 0
35 519 0
450 -512 0
619 596 0
-300 -230 0
415 -399 0
363 191 0
34 310 0
-262 463 0
309 350 0
634 -139 0
-232 591 0
533 399 0
365 332 0
517 582 0
617 528 0
680 -54 0
-111 355 0
-661 -19 0
576 -69 0
-270 374 0
-233 564 0
396 -721 0
-597 26 0
-650 -18 0
-489 516 0
381 732 0
568 -317 0
704 393 0
-206 -178 0
641 149 0
179 353 0
-18 -680 0
279 234 0
721 -282 0
-70 -319 0
-109 292 0
-73 -579 0
-583 -617 0
658 584 0
331 214 0
431 -343 0
-405 536 0
-68 430 0
3 590 0
613 -206 0
-582 114 0
681 -2 0
-730 353 0
91 -612 0
605 -334 0
592 304 0
-230 -93 0
-647 -73 0
164 -730 0
442 -713 0
155 -80 0
637 358 0
-492 731 0
507 -667 0
622 765 0
-105 76 0
584 -328 0
492 42 0
-1 199 0
332 514 0
-689 50 0
771 -632 0
209 -516 0
-293 -340 0
601 606 0
-620 686 0
283 242 0
243 -474 0
-722 -291 0
271 -739 0
434 -20 0
553 299 0
-70 446 0
-230 -140 0
-532 -135 0
-686 -718 0
-748 445 0
-357 199 0
-150 207 0
151 -444 0
-165 622 0
-38 439 0
12 -751 0
-286 144 0
-684 -551 0
-663 -408 0
-543 -165 0
-166 356 0
-311 -50 0
642 122 0
452 559 0
541 -697 0
717 369 0
-386 -502 0
275 -681 0
-487 -93 0
323 -729 0
13 -129 0
-243 -69 0
55 116 0
519 -578 0
-681 -668 0
-258 -603 0
211 -291 0
-270 -229 0
-434 -66 0
122 -615 0
612 -178 0
-316 556 0
609 -211 0
-548 431 0
356 -577 0
362 -540 0
371 686 0
209 -754 0
666 669 0
486 585 0
211 -107 0
252 251 0
-546 118 0
-601 -104 0
596 409 0
290 730 0
424 618 0
-693 731 0
471 635 0
-442 -770 0
-229 756 0
-403 -703 0
-40 -37 0
433 604 0
45 586 0
286 3 0
-228 122 0
-490 671 0
258 599 0
48 -521 0
249 192 0
425 -442 0
-126 -658 0
461 -677 0
-102 711 0
705 -412 0
-101 -314 0
-655 173 0
630 241 0
-97 355 0
-403 57 0
-414 -15 0
-507 436 0
-377 183 0
318 133 0
683 549 0
44 669 0
654 419 0
-262 185 0
665 -654 0
413 631 0
321 35 0
213 398 0
-678 -286 0
220 722 0
283 -403 0
-448 422 0
-66 682 0
-327 564 0
13 -744 0
-64 -74 0
335 -565 0
257 -386 0
-708 458 0
406 520 0
-24 21 0
-512 -158 0
307 554 0
267 -287 0
723 -318 0
530 648 0
384 -582 0
-322 -510 0
17 743 0
-9 -465 0
270 -105 0
180 268 0
-550 -128 0
735 -566 0
-749 157 0
297 650 0
616 -371 0
251 115 0
-617 369 0
-178 775 0
3 745 0
596 373 0
-239 -178 0
624 119 0
-71 374 0
-146 -644 0
-520 -417 0
-68 -80 0
635 142 0
676 680 0
775 439 0
541 -487 0
44 313 0
134 338 0
-302 104 0
-717 293 0
-424 -485 0
-402 305 0
-662 731 0
-552 -706 0
614 -33 0
-617 -133 0
-145 521 0
450 -168 0
-181 43 0
-441 589 0
-399 438 0
-371 -698 0
-577 -394 0
-20 669 0
-184 745 0
116 -111 0
-696 -126 0
-450 347 0
-175 23 0
-98 -594 0
470 -436 0
342 -767 0
344 469 0
362 363 0
-587 -31 0
526 -368 0
-299 -663 0
461 582 0
140 446 0
-11 -217 0
-460 589 0
138 24 0
-681 -476 0
-259 -478 0
-96 -711 0
-286 -447 0
-45 385 0
-193 -575 0
-56 -665 0
369 26 0
115 401 0
-43 -529 0
-161 -697 0
583 -437 0
497 690 0
-129 111 0
-158 -341 0
-564 -494 0
-565 384 0
-548 473 0
-461 -368 0
-30 -195 0
146 297 0
-704 726 0
-540 726 0
51 203 0
-201 529 0
764 -659 0
-437 452 0
470 -731 0
756 554 0
261 -386 0
222 -1 0
-530 -587 0
-379 -38 0
-507 -689 0
-638 -441 0
772 268 0
301 -336 0
618 -46 0
-14 -473 0
531 671 0
-730 355 0
579 218 0
164 622 0
-367 -228 0
530 -429 0
-479 -475 0
205 -388 0
133 197 0
-373 -709 0
-582 290 0
-20 -291 0
-139 15 0
-226 -363 0
578 -44 0
-91 307 0
308 356 0
322 -96 0
108 514 0
638 -124 0
293 723 0
389 622 0
748 -92 0
-96 722 0
103 -701 0
413 774 0
-201 -449 0
391 -668 0
-580 609 0
-714 -648 0
-332 117 0
721 6 0
312 671 0
-311 373 0
-586 -543 0
-113 623 0
-615 373 0
693 274 0
-603 -219 0
105 -304 0
-272 280 0
350 -490 0
-247 543 0
443 -731 0
50 115 0
-455 567 0
130 381 0
-245 -742 0
215 710 0
-429 -747 0
737 -184 0
-166 70 0
-281 385 0
-750 495 0
-493 -701 0
102 -728 0
-160 -113 0
727 618 0
741 -441 0
-612 -511 0
402 -753 0
475 394 0
-71 -443 0
144 -177 0
299 525 0
118 -638 0
-20 -204 0
-501 -379 0
290 -61 0
374 548 0
-96 119 0
-172 -476 0
-626 -571 0
-664 174 0
-541 375 0
-486 -79 0
-162 -704 0
635 -754 0
-492 644 0
468 635 0
-617 -566 0
-709 308 0
721 -220 0
-58 593 0
-521 23 0
60 67 0
-28 473 0
5 225 0
-500 174 0
-69 -460 0
-370 222 0
-728 522 0
-71 -2 0
50 -324 0
375 194 0
-753 393 0
690 569 0
-234 -752 0
-440 533 0
-275 467 0
-265 250 0
143 32 0
-265 -740 0
-363 -192 0
-216 -672 0
-520 -5 0
33 -104 0
-170 -320 0
770 293 0
-154 445 0
-265 -420 0
-155 -493 0
456 251 0
-655 -410 0
-545 153 0
-580 -348 0
122 -41 0
200 -368 0
-513 708 0
-249 -88 0
-246 383 0
585 -305 0
-517 367 0
516 13 0
-525 -171 0
741 -493 0
291 -410 0
-629 402 0
6 64 0
143 127 0
365 -648 0
-415 -604 0
-61 467 0
-39 420 0
-674 -227 0
335 -679 0
-371 -38 0
333 268 0
603 -399 0
470 611 0
-351 658 0
424 -320 0
413 658 0
627 -128 0
-446 26 0
-704 149 0
176 -51 0
-613 -748 0
-403 424 0
-25 490 0
-54 52 0
373 625 0
584 635 0
346 -339 0
535 -698 0
495 -114 0
-615 -212 0
-773 -486 0
-692 277 0
-545 -5 0
-428 -114 0
-603 -384 0
-33 477 0
604 -196 0
-453 186 0
-66 592 0
216 472 0
-701 417 0
-652 326 0
488 156 0
-408 -679 0
431 -242 0
196 45 0
-460 528 0
-761 -334 0
-128 -53 0
218 602 0
193 -457 0
-665 -472 0
380 -111 0
-706 404 0
599 -163 0
-439 -688 0
-78 322 0
481 656 0
746 -55 0
-464 -80 0
-327 736 0
-761 -137 0
-368 570 0
-185 -425 0
-8 -72 0
-57 -724 0
-582 199 0
737 321 0
232 503 0
595 16 0
-433 -126 0
-229 -169 0
284 535 0
405 -177 0
-223 -462 0
-58 213 0
160 452 0
237 -80 0
431 629 0
266 -703 0
655 -227 0
-516 -11 0
-138 65 0
-230 -713 0
-358 88 0
21 472 0
-655 -218 0
-158 328 0
396 -370 0
-156 573 0
430 733 0
-613 -450 0
-6 -410 0
151 54 0
592 518 0
-445 541 0
283 -72 0
-24 -655 0
500 325 0
254 -135 0
397 156 0
-636 -665 0
-276 -194 0
646 -414 0
368 -696 0
657 526 0
-361 -216 0
-513 297 0
-225 140 0
-759 -517 0
-641 -423 0
-600 -471 0
365 -25 0
-484 40 0
-18 54 0
-193 -551 0
-305 338 0
-711 662 0
350 -305 0
-636 568 0
495 55 0
497 -651 0
-596 56 0
-755 -145 0
-705 -66 0
-250 -190 0
-636 -766 0
-340 -62 0
123 136 0
133 -327 0
190 -753 0
52 -461 0
95 645 0
-322 -72 0
-77 -87 0
350 -678 0
-517 4 0
-218 250 0
118 -607 0
704 -265 0
-453 -595 0
38 219 0
42 48 0
-450 115 0
772 -170 0
-570 37 0
-189 -713 0
-376 -551 0
-376 187 0
622 586 0
476 590 0
367 528 0
771 473 0
-334 635 0
250 -743 0
-448 -324 0
-167 44 0
-322 97 0
86 -193 0
15 56 0
-743 -19 0
-638 511 0
-533 -450 0
-730 -743 0
-198 -43 0
-60 626 0
-180 418 0
-69 -507 0
-83 -45 0
-244 301 0
-276 -554 0
697 651 0
81 -698 0
110 -69 0
275 -679 0
396 -722 0
52 -33 0
-264 455 0
-262 -392 0
-382 -19 0
-704 -279 0
330 -339 0
280 98 0
-363 -638 0
498 396 0
-27 576 0
-242 624 0
-590 -371 0
-137 -747 0
653 624 0
581 120 0
-559 -208 0
670 691 0
714 384 0
-250 -228 0
535 696 0
306 10 0
21 -303 0
53 -557 0
-566 600 0
-405 -688 0
-263 -299 0
450 144 0
774 257 0
-148 533 0
464 520 0
-240 -577 0
144 -667 0
-701 -249 0
377 -180 0
396 42 0
357 -209 0
161 727 0
-10 -170 0
574 -218 0
-123 -477 0
346 317 0
-513 452 0
367 239 0
-468 -221 0
-422 -337 0
539 -154 0
364 290 0
-503 741 0
-706 184 0
-547 28 0
328 670 0
-571 369 0
143 -171 0
354 261 0
-73 556 0
32 -9 0
-247 366 0
-233 113 0
-673 -202 0
300 100 0
-438 386 0
-89 469 0
234 112 0
36 578 0
-70 311 0
-80 301 0
187 -309 0
-529 -46 0
544 -157 0
-548 -239 0
-440 769 0
-208 -351 0
657 -693 0
651 -186 0
8 -405 0
157 406 0
726 -739 0
643 -40 0
318 628 0
-444 -18 0
-424 226 0
404 -99 0
332 -424 0
-717 644 0
-126 -334 0
-59 254 0
-543 -216 0
-554 -295 0
205 618 0
758 -297 0
275 -520 0
671 -756 0
153 654 0
503 -220 0
-759 -510 0
-312 -356 0
-155 -453 0
672 30 0
-82 710 0
169 519 0
-175 -345 0
380 441 0
710 -93 0
-304 -109 0
-529 -217 0
75 -12 0
383 -243 0
670 97 0
-545 -432 0
488 633 0
-505 -735 0
-324 515 0
590 229 0
752 614 0
-529 -449 0
463 -98 0
602 -15 0
-87 -567 0
621 336 0
353 -679 0
631 -46 0
-678 190 0
-753 -393 0
771 -543 0
536 738 0
-485 -720 0
739 267 0
-765 561 0
-50 -655 0
116 383 0
-156 -661 0
-547 496 0
583 -665 0
643 -496 0
201 -509 0
-38 323 0
26 550 0
10 -529 0
644 -687 0
277 297 0
-281 -111 0
523 -208 0
431 -183 0
238 -567 0
-269 709 0
-688 -428 0
-634 -714 0
581 567 0
-437 525 0
-400 -752 0
370 -566 0
-471 -328 0
-20 -279 0
-734 352 0
-260 -360 0
419 -137 0
35 284 0
-157 -757 0
196 -684 0
-329 595 0
19 532 0
-437 573 0
-242 540 0
-338 -202 0
610 552 0
239 -249 0
207 114 0
285 533 0
680 -163 0
-324 531 0
-373 -291 0
-763 481 0
677 -284 0
-321 -484 0
-60 468 0
-14 135 0
271 477 0
-28 -492 0
-646 270 0
144 -379 0
752 -570 0
206 -736 0
-725 421 0
770 -682 0
-516 -294 0
330 -345 0
700 -769 0
374 15 0
-273 -494 0
-296 274 0
-528 -551 0
-242 -662 0
-376 335 0
574 -349 0
526 160 0
-627 -399 0
-462 -356 0
-457 6 0
744 710 0
-83 -151 0
764 183 0
-307 394 0
-338 -653 0
35 318 0
32 399 0
-303 75 0
303 657 0
-327 273 0
-412 -513 0
569 -706 0
-161 -11 0
16 -272 0
-715 455 0
21 -447 0
-8 270 0
726 48 0
-175 599 0
316 -494 0
-4 498 0
469 -500 0
-661 -631 0
-512 -277 0
387 -509 0
-264 -85 0
-653 644 0
-276 -334 0
-696 350 0
19 -403 0
568 678 0
-763 252 0
632 -578 0
391 -220 0
302 -20 0
-311 439 0
-565 -468 0
-487 -231 0
-24 550 0
531 393 0
-718 -229 0
-445 -39 0
-664 39 0
614 100 0
121 -744 0
-703 -5 0
660 -640 0
26 -352 0
290 159 0
-180 431 0
-531 -154 0
-212 57 0
431 -80 0
-249 209 0
-33 281 0
247 191 0
562 -200 0
42 -128 0
458 -313 0
-74 476 0
561 277 0
-209 306 0
-416 -399 0
-371 338 0
737 -201 0
-312 152 0
345 213 0
-234 -610 0
-575 -539 0
502 -379 0
734 -71 0
-248 371 0
250 765 0
-484 -71 0
-223 -294 0
66 -766 0
-757 87 0
559 417 0
-64 -185 0
54 -547 0
42 325 0
322 398 0
137 -707 0
-242 -123 0
-148 625 0
668 357 0
374 215 0
-482 -90 0
193 537 0
245 -183 0
-288 -374 0
507 -89 0
370 -413 0
-315 267 0
-157 58 0
-9 569 0
762 -371 0
-248 609 0
650 16 0
620 -662 0
643 653 0
-478 -215 0
117 -263 0
349 444 0
182 132 0
-479 458 0
-659 -565 0
-743 315 0
614 404 0
275 232 0
630 601 0
436 -240 0
-489 80 0
135 -668 0
538 -99 0
-48 255 0
-186 331 0
-471 -458 0
297 -408 0
-137 580 0
37 419 0
-163 76 0
-703 -178 0
-417 209 0
-354 -89 0
556 -23 0
-390 526 0
-147 675 0
-47 -667 0
489 -715 0
-47 -217 0
462 380 0
209 -650 0
-686 330 0
638 335 0
-663 521 0
119 -501 0
-719 -345 0
116 355 0
321 -720 0
-221 211 0
-505 251 0
-766 -613 0
563 -656 0
737 522 0
295 656 0
601 525 0
434 381 0
150 -729 0
710 -56 0
-700 -14 0
770 637 0
-282 -528 0
-227 328 0
207 -569 0
-663 -707 0
-660 100 0
444 -58 0
-342 589 0
205 590 0
-513 -118 0
-674 356 0
-80 -407 0
138 -374 0
318 -414 0
-108 353 0
-410 226 0
498 -82 0
621 658 0
280 308 0
-72 220 0
-364 211 0
80 641 0
621 738 0
271 -697 0
385 -696 0
-128 -156 0
-717 456 0
-659 -431 0
-494 -201 0
-759 -22 0
-247 333 0
554 -460 0
-184 -137 0
14 548 0
-115 -750 0
246 -356 0
694 -475 0
-320 -107 0
-336 -390 0
-722 267 0
-684 -203 0
-202 -742 0
-250 -748 0
463 -439 0
34 -85 0
-570 -494 0
-429 -21 0
117 2 0
-769 541 0
-344 36 0
-570 91 0
-94 -437 0
749 620 0
-673 585 0
-345 180 0
675 -540 0
97 -51 0
-598 -51 0
-598 -760 0
210 -114 0
31 449 0
-749 -730 0
53 -295 0
498 707 0
-353 389 0
337 -354 0
571 669 0
-439 39 0
652 -454 0
338 166 0
280 772 0
-11 326 0
-646 -246 0
-42 275 0
712 -441 0
-736 -540 0
-322 -545 0
-143 -324 0
-373 220 0
-625 308 0
323 42 0
-122 338 0
52 472 0
-53 585 0
-429 -732 0
452 -681 0
13 -368 0
-510 1 0
85 -234 0
-621 569 0
-471 -639 0
28 -423 0
-80 486 0
771 733 0
80 352 0
671 -396 0
307 -302 0
-481 770 0
698 671 0
-725 -751 0
268 -208 0
559 -13 0
-170 -361 0
713 -332 0
-718 49 0
-324 -532 0
252 91 0
115 335 0
498 12 0
-408 747 0
3 250 0
-72 557 0
-273 -557 0
-571 -571 0
205 81 0
-336 461 0
120 -27 0
37 264 0
-715 -553 0
-193 -555 0
-604 3 0
608 275 0
-327 230 0
-478 243 0
476 -108 0
688 1 0
-98 -293 0
-753 -1 0
-339 161 0
-386 -661 0
-373 -757 0
-139 119 0
652 569 0
-35 -292 0
-759 197 0
-543 591 0
712 500 0
-565 -506 0
154 253 0
722 -433 0
-208 101 0
-585 -414 0
92 -135 0
-585 531 0
-230 64 0
274 -382 0
-407 -51 0
774 363 0
-229 -753 0
-751 -296 0
-750 608 0
294 -77 0
-315 -715 0
-519 -441 0
-518 -84 0
540 36 0
48 727 0
-325 190 0
-143 193 0
229 -115 0
118 -645 0
35 382 0
-729 -484 0
648 650 0
381 -626 0
-670 430 0
-133 -312 0
-101 -399 0
-607 587 0
-730 553 0
-452 -520 0
-503 310 0
-773 692 0
-7 -9 0
388 562 0
-759 209 0
-9 -237 0
52 -674 0
441 -663 0
761 -722 0
718 -64 0
635 592 0
-382 522 0
-662 -457 0
-755 214 0
413 -425 0
331 -642 0
-181 -674 0
581 678 0
-8 -382 0
-123 119 0
61 -129 0
-128 339 0
116 -295 0
492 633 0
-667 -466 0
106 731 0
-129 152 0
758 -154 0
-39 526 0
-327 -646 0
349 -265 0
122 -533 0
-451 -716 0
-273 434 0
635 710 0
270 770 0
-172 -715 0
-400 600 0
-58 -179 0
-284 -30 0
-178 289 0
-125 42 0
320 309 0
-59 -191 0
-374 -689 0
649 -267 0
-69 -163 0
-40 222 0
-455 -753 0
-90 -403 0
12 -768 0
-520 473 0
-236 50 0
560 261 0
-685 -584 0
523 629 0
-82 -466 0
-157 19 0
-65 727 0
-600 121 0
298 -124 0
95 304 0
-354 -393 0
352 258 0
430 44 0
514 136 0
-638 163 0
187 -428 0
161 -576 0
-587 -222 0
264 272 0
-703 398 0
330 383 0
-20 -58 0
397 306 0
-223 -733 0
608 -408 0
-508 -492 0
-554 630 0
207 34 0
523 181 0
725 -441 0
-745 514 0
-240 -666 0
97 451 0
191 -578 0
-732 -403 0
517 317 0
633 651 0
-754 -94 0
-453 -228 0
-507 -329 0
668 -735 0
-266 -286 0
-101 -304 0
-422 558 0
298 631 0
262 488 0
-55 -276 0
464 70 0
-315 327 0
-197 -356 0
-617 -10 0
495 443 0
696 49 0
502 264 0
517 -245 0
-236 764 0
-422 -462 0
17 -146 0
89 56 0
-198 -416 0
335 558 0
-131 -18 0
-41 -554 0
275 46 0
-89 138 0
-92 77 0
-695 627 0
-539 -534 0
-268 -508 0
397 -699 0
319 700 0
33 601 0
58 686 0
324 222 0
54 539 0
-80 -161 0
-23 -354 0
744 -392 0
698 270 0
-450 587 0
723 -47 0
631 -697 0
249 252 0
567 556 0
738 -417 0
690 -636 0
559 637 0
581 -574 0
546 -617 0
360 765 0
-492 -706 0
37 752 0
358 -456 0
614 -585 0
-124 608 0
399 -33 0
72 -487 0
-132 -302 0
540 -2 0
136 -237 0
-145 486 0
224 147 0
-324 -550 0
608 -341 0
99 -139 0
-548 463 0
-289 -706 0
574 -422 0
398 -374 0
524 279 0
631 -260 0
582 669 0
-102 -395 0
-665 746 0
-597 -480 0
-56 6 0
669 263 0
660 183 0
-479 -644 0
72 351 0
626 35 0
-498 -304 0
-487 360 0
-507 738 0
238 351 0
-758 -19 0
-500 269 0
-348 -365 0
92 -249 0
-478 -748 0
-233 -516 0
380 -734 0
160 671 0
-147 -102 0
-303 -287 0
-62 428 0
-71 -747 0
-332 -759 0
-69 -289 0
-363 501 0
-206 393 0
-505 -480 0
-423 -524 0
-272 -366 0
254 -180 0
649 -433 0
-734 238 0
-675 -501 0
63 384 0
300 -605 0
-378 -10 0
752 -195 0
-486 726 0
34 -273 0
601 -705 0
280 108 0
305 -9 0
727 -382 0
-248 -210 0
5 325 0
-442 452 0
254 430 0
-460 -244 0
391 598 0
-735 27 0
-232 -693 0
364 561 0
-132 388 0
556 140 0
190 -315 0
30 579 0
123 -148 0
576 573 0
-510 394 0
-423 573 0
327 -348 0
-682 627 0
-571 -143 0
-758 -734 0
-507 132 0
-692 49 0
742 632 0
-734 -173 0
-9 703 0
734 -516 0
22 103 0
198 -167 0
-493 -26 0
-434 -740 0
-505 -32 0
454 651 0
-665 616 0
-429 -632 0
-770 -257 0
-391 -709 0
-615 -548 0
259 -665 0
-432 467 0
443 15 0
770 59 0
-203 67 0
305 -575 0
50 10 0
-260 292 0
-580 763 0
-715 -22 0
-476 -736 0
-457 -280 0
726 204 0
618 -552 0
256 138 0
-2 741 0
261 743 0
397 -80 0
333 -753 0
-293 -264 0
675 -180 0
549 705 0
718 669 0
-288 -382 0
-676 610 0
-661 -113 0
329 -717 0
401 404 0
147 726 0
326 -636 0
-327 -218 0
174 -3 0
-591 463 0
-224 -478 0
66 -60 0
-401 388 0
253 -728 0
376 -46 0
464 702 0
-74 185 0
-254 -730 0
-400 -16 0
-184 -683 0
170 103 0
-447 -289 0
50 -33 0
32 5 0
-550 280 0
190 254 0
125 26 0
-685 607 0
452 552 0
196 136 0
624 666 0
-10 517 0
579 115 0
-461 -392 0
-764 643 0
-142 549 0
-594 26 0
532 368 0
383 44 0
-679 338 0
36 -49 0
401 -471 0
-87 617 0
-300 -492 0
569 616 0
581 -425 0
768 375 0
772 307 0
-773 192 0
-368 84 0
601 -124 0
181 -157 0
209 490 0
-505 -379 0
-131 122 0
-604 -373 0
-750 -264 0
488 220 0
-136 -750 0
651 -263 0
-525 -87 0
132 -647 0
357 374 0
-591 713 0
-703 522 0
-667 -157 0
-368 614 0
514 708 0
266 744 0
729 -732 0
-52 -356 0
414 737 0
-236 118 0
676 197 0
-584 755 0
596 -624 0
-401 219 0
-131 345 0
-158 677 0
708 370 0
150 -193 0
-14 -616 0
-504 -540 0
428 -447 0
520 621 0
-428 -434 0
-92 -716 0
-518 578 0
370 604 0
452 -54 0
-641 200 0
159 -662 0
-361 -268 0
616 -267 0
-637 -148 0
-117 323 0
410 116 0
374 485 0
385 -439 0
-129 179 0
-601 213 0
-736 -108 0
-753 55 0
-544 6 0
265 770 0
-284 -334 0
231 496 0
-80 -363 0
-181 -685 0
-240 -658 0
364 40 0
-616 383 0
385 703 0
17 277 0
454 -294 0
278 743 0
-137 -583 0
443 774 0
-629 -493 0
637 63 0
-517 307 0
470 -316 0
-269 -96 0
-386 354 0
420 310 0
705 -463 0
-130 -457 0
479 -376 0
485 -108 0
-612 573 0
-273 -558 0
436 -366 0
-195 115 0
155 -634 0
386 63 0
146 16 0
-665 -90 0
238 77 0
699 454 0
-597 -249 0
460 -66 0
49 683 0
-102 38 0
-205 13 0
659 -704 0
-20 440 0
43 -426 0
-490 765 0
-508 -305 0
-468 -262 0
-546 -227 0
-106 -130 0
-518 -71 0
-336 -221 0
650 -273 0
747 -66 0
-16 523 0
196 -763 0
209 -87 0
726 -518 0
-404 391 0
-313 -762 0
-152 -20 0
149 159 0
73 44 0
328 194 0
-378 182 0
-458 -27 0
195 342 0
-334 -128 0
626 -172 0
-62 487 0
691 -751 0
-531 101 0
412 108 0
-643 116 0
-509 -247 0
125 471 0
-11 554 0
-554 723 0
421 -53 0
-674 -544 0
-109 -653 0
-127 -110 0
112 -772 0
-410 -538 0
-141 -422 0
-172 439 0
145 -272 0
-392 -659 0
-683 470 0
523 189 0
271 534 0
15 481 0
-772 321 0
710 474 0
-294 -444 0
142 -434 0
-610 648 0
478 528 0
-304 336 0
645 108 0
27 -304 0
341 551 0
-664 -667 0
347 -102 0
639 -14 0
558 -426 0
-142 -386 0
101 596 0
660 374 0
-423 -439 0
164 155 0
355 -603 0
315 -557 0
-662 -600 0
26 546 0
342 688 0
62 631 0
48 -704 0
-266 290 0
-445 -20 0
-296 67 0
-426 -403 0
-760 572 0
-740 -69 0
-379 692 0
493 -663 0
264 -545 0
-586 -654 0
15 535 0
-487 -631 0
-536 12 0
-130 -73 0
-228 291 0
-377 307 0
-425 -720 0
610 146 0
380 64 0
-607 10 0
-542 -551 0
-316 367 0
428 188 0
106 188 0
724 677 0
627 -678 0
542 254 0
5 -303 0
300 -374 0
498 -179 0
-749 567 0
-416 -703 0
690 133 0
-483 -69 0
54 -162 0
35 -691 0
157 -208 0
46 -29 0
-596 -534 0
548 352 0
-168 372 0
524 -183 0
-703 690 0
-264 -210 0
143 -169 0
-722 113 0
-362 -368 0
-383 88 0
584 752 0
-205 397 0
-458 -722 0
337 -208 0
-377 -551 0
-164 -177 0
479 560 0
-673 -732 0
-613 -666 0
668 -248 0
246 717 0
-554 -60 0
614 434 0
-703 494 0
507 473 0
389 650 0
200 -529 0
-441 -310 0
367 -722 0
-696 553 0
189 603 0
-623 321 0
506 -23 0
-178 515 0
578 63 0
51 -179 0
-678 -278 0
-42 470 0
669 597 0
-471 655 0
-265 353 0
-90 237 0
703 455 0
352 -78 0
626 156 0
-468 637 0
-116 -681 0
-137 -748 0
737 -167 0
-591 -135 0
11 651 0
-143 -415 0
388 -381 0
-398 -58 0
65 -45 0
-523 -379 0
485 -363 0
-399 37 0
706 76 0
338 569 0
443 389 0
152 -164 0
-29 31 0
-419 -423 0
-407 268 0
-600 -373 0
-428 751 0
492 -312 0
126 388 0
407 -399 0
-124 -607 0
468 -87 0
254 133 0
-242 -285 0
-662 -696 0
-41 -265 0
-679 410 0
-617 -14 0
-291 -593 0
628 -137 0
628 -647 0
10 -591 0
-609 -126 0
-717 -338 0
122 -387 0
56 100 0
-477 632 0
666 -221 0
-148 -576 0
-292 339 0
175 17 0
-83 -738 0
-73 -712 0
-667 -507 0
-469 -663 0
-392 452 0
-766 564 0
-288 -584 0
-334 25 0
-774 528 0
376 -404 0
-257 -461 0
-720 -664 0
-407 568 0
-108 -417 0
93 -580 0
-753 239 0
695 -265 0
203 -363 0
-412 -27 0
-614 -440 0
-436 308 0
-626 533 0
-702 -714 0
346 714 0
100 -108 0
-218 420 0
61 -386 0
-85 -424 0
-175 626 0
-377 -551 0
-24 -649 0
604 164 0
631 708 0
336 -356 0
54 88 0
-437 536 0
-102 630 0
-237 567 0
264 560 0
338 -142 0
161 752 0
-178 -669 0
-292 367 0
42 -31 0
-378 433 0
-302 497 0
-163 -256 0
-524 -634 0
445 331 0
-728 563 0
585 -656 0
-765 383 0
-470 657 0
-687 -223 0
-716 108 0
-732 -65 0
544 -314 0
-428 596 0
349 -483 0
-442 755 0
-665 735 0
32 -334 0
-656 -623 0
-224 470 0
-225 -570 0
237 -685 0
-629 741 0
515 -490 0
-734 640 0
-54 523 0
-647 -678 0
-272 118 0
442 -546 0
374 693 0
468 -294 0
-110 568 0
252 -50 0
396 -401 0
-761 -487 0
6 62 0
424 199 0
-314 768 0
605 -572 0
608 -649 0
747 611 0
-469 -695 0
232 626 0
-151 -668 0
-242 -630 0
-360 -724 0
375 -491 0
159 550 0
455 235 0
700 355 0
-279 771 0
-57 258 0
-403 -516 0
-225 381 0
196 132 0
-406 -266 0
563 569 0
-327 433 0
27 -216 0
-641 -74 0
544 729 0
537 270 0
39 -229 0
-531 -272 0
-16 -718 0
48 227 0
765 183 0
134 727 0
318 550 0
-588 -32 0
197 -584 0
-193 -109 0
-612 -46 0
-713 537 0
-162 225 0
-1 -682 0
-55 601 0
-724 -618 0
-697 -369 0
-337 717 0
-411 -611 0
37 -443 0
-22 -528 0
-580 -298 0
261 415 0
735 255 0
-223 -62 0
468 -55 0
533 -332 0
307 246 0
-690 747 0
37 385 0
-399 -215 0
-130 539 0
-172 -725 0
228 -409 0
-612 178 0
276 103 0
-761 670 0
-15 745 0
564 63 0
593 -518 0
-391 446 0
185 231 0
-450 -759 0
-753 44 0
164 423 0
347 -480 0
-710 669 0
548 -315 0
-484 279 0
-433 -422 0
752 -151 0
-28 -131 0
639 75 0
-687 -533 0
-591 -703 0
357 -307 0
-722 -697 0
-153 144 0
-240 411 0
-33 24 0
680 -297 0
-681 602 0
6 -595 0
747 416 0
641 -371 0
-735 615 0
-130 526 0
-114 147 0
464 -566 0
640 209 0
-157 595 0
-269 -576 0
-604 -448 0
289 -463 0
-230 480 0
240 495 0
381 -203 0
-399 -611 0
558 -360 0
-36 -598 0
569 674 0
-348 50 0
-249 468 0
372 550 0
479 -330 0
54 -544 0
673 683 0
238 -198 0
161 -535 0
10 -570 0
-135 770 0
62 219 0
-740 649 0
147 519 0
513 544 0
487 -139 0
-167 -459 0
-302 -90 0
472 -749 0
199 600 0
-414 255 0
-624 97 0
-474 -493 0
-10 220 0
413 -193 0
-484 -96 0
-11 553 0
281 514 0
-303 -20 0
-198 580 0
198 -172 0
115 721 0
-105 -419 0
-717 539 0
-249 558 0
-226 -510 0
533 -735 0
-271 362 0
-703 -475 0
-606 323 0
373 112 0
358 -607 0
179 -709 0
532 -626 0
730 533 0
-740 758 0
683 -518 0
671 -272 0
-534 55 0
481 -465 0
-518 -607 0
-414 659 0
418 756 0
-41 -491 0
-270 -423 0
-693 -241 0
-366 547 0
-750 164 0
-239 117 0
-538 147 0
238 676 0
-169 -426 0
-612 63 0
525 -762 0
-107 568 0
-303 -68 0
-191 -504 0
-448 201 0
-503 6 0
-422 -465 0
120 549 0
-135 453 0
581 348 0
-653 -70 0
388 187 0
-164 -242 0
-424 251 0
-547 476 0
-404 -408 0
352 310 0
477 468 0
-186 -277 0
515 -81 0
631 731 0
88 -201 0
128 -80 0
173 699 0
-1 -483 0
-510 -259 0
185 -459 0
-326 -368 0
-539 702 0
-324 -91 0
-631 142 0
-416 -713 0
-666 383 0
727 -410 0
335 692 0
660 589 0
90 67 0
112 86 0
-195 -738 0
-41 -161 0
644 544 0
616 -365 0
-432 734 0
-371 -377 0
-453 623 0
602 775 0
-460 82 0
-735 231 0
-540 -19 0
391 -728 0
-671 -373 0
-73 434 0
670 518 0
534 246 0
-495 133 0
-441 -336 0
731 501 0
593 449 0
183 680 0
490 -690 0
-276 68 0
-454 246 0
218 549 0
-299 141 0
-272 660 0
-403 -403 0
36 -90 0
-665 -396 0
-46 277 0
536 16 0
-366 -361 0
559 231 0
526 -291 0
470 -441 0
-72 -735 0
432 164 0
-256 -608 0
-703 -242 0
643 477 0
261 -228 0
51 -252 0
336 -551 0
-392 686 0
207 290 0
421 -695 0
-572 -218 0
343 578 0
13 -328 0
-667 287 0
708 -731 0
375 -660 0
607 626 0
699 675 0
215 -641 0
207 506 0
-458 691 0
-60 -237 0
638 -426 0
-377 176 0
733 182 0
-713 -6 0
482 -635 0
-266 -726 0
-159 -459 0
-172 605 0
257 -260 0
132 451 0
-312 443 0
-437 485 0
-80 -206 0
201 51 0
-288 302 0
-487 -684 0
338 749 0
-571 741 0
690 304 0
495 501 0
641 467 0
-701 99 0
614 632 0
176 539 0
75 319 0
355 614 0
279 -582 0
-750 -419 0
278 -473 0
68 333 0
417 338 0
196 -571 0
376 -69 0
-128 119 0
-22 -47 0
390 -31 0
-480 -281 0
448 499 0
-770 -210 0
446 -289 0
-474 596 0
-534 -417 0
483 76 0
399 -427 0
-73 -158 0
115 238 0
-316 3 0
-227 346 0
63 -453 0
769 15 0
651 -233 0
690 -102 0
-603 -131 0
-208 -509 0
635 720 0
500 -471 0
290 -386 0
-258 341 0
-107 -282 0
623 246 0
-750 -754 0
-424 -353 0
-634 601 0
43 407 0
-340 -281 0
-99 -557 0
621 -475 0
192 -403 0
-566 619 0
511 -547 0
-295 745 0
683 -585 0
-531 -512 0
514 477 0
497 -332 0
567 -586 0
413 -664 0
684 430 0
-773 159 0
-265 54 0
-154 -403 0
-330 431 0
511 -650 0
-491 222 0
-135 -603 0
-404 -669 0
-534 482 0
-707 -103 0
732 -448 0
-558 -534 0
-611 -240 0
468 -203 0
532 -250 0
-767 -151 0
277 643 0
104 274 0
-639 -748 0
747 -232 0
-502 645 0
197 659 0
322 -201 0
-317 -242 0
260 138 0
-640 -266 0
-692 -667 0
354 688 0
411 375 0
711 -303 0
320 112 0
660 252 0
581 -449 0
739 -327 0
59 88 0
119 506 0
624 -746 0
117 436 0
-340 297 0
-513 -457 0
344 209 0
-504 361 0
774 -679 0
-319 283 0
-653 -328 0
-542 738 0
554 -718 0
762 103 0
729 -744 0
-665 410 0
-41 600 0
121 365 0
-157 -484 0
-491 -108 0
-345 396 0
197 -663 0
411 179 0
-392 -740 0
-381 398 0
628 -574 0
332 -638 0
-341 49 0
108 -33 0
192 -546 0
225 530 0
462 159 0
-580 159 0
-426 435 0
-92 610 0
-340 261 0
473 -767 0
-85 700 0
675 713 0
675 -424 0
-518 49 0
481 127 0
-530 -8 0
-99 63 0
-177 13 0
-482 -653 0
-12 375 0
338 -325 0
-227 517 0
-665 -458 0
-757 -698 0
236 398 0
607 -582 0
669 625 0
490 -622 0
-647 -433 0
338 -211 0
164 145 0
-42 449 0
-520 468 0
458 464 0
-546 427 0
214 134 0
128 576 0
-171 -518 0
197 340 0
97 362 0
426 -247 0
-175 487 0
-110 578 0
-172 692 0
640 91 0
334 394 0
552 666 0
-762 323 0
605 420 0
178 -156 0
528 632 0
-350 91 0
-128 730 0
334 -228 0
-498 -123 0
-557 692 0
-760 -715 0
550 702 0
-690 -256 0
18 298 0
-644 605 0
343 -513 0
266 431 0
240 733 0
-547 533 0
741 121 0
283 -240 0
-528 -111 0
392 -583 0
34 2 0
467 -62 0
138 -591 0
-505 -72 0
310 -344 0
26 -507 0
234 23 0
-62 72 0
-741 -87 0
-745 76 0
-696 683 0
665 261 0
333 -388 0
182 -194 0
-580 245 0
170 388 0
-439 45 0
489 469 0
595 -546 0
-763 637 0
308 -546 0
-19 501 0
624 467 0
443 -18 0
339 -299 0
387 -342 0
192 402 0
222 -532 0
745 67 0
-66 188 0
556 47 0
-154 -740 0
-337 -100 0
-148 702 0
686 127 0
-245 245 0
-408 297 0
-520 595 0
683 -132 0
473 -422 0
319 -386 0
116 -329 0
-127 -40 0
675 622 0
-519 -487 0
751 -399 0
526 539 0
