c bounds 95 95
p cnf 595 1368
107 -15 0
389 124 0
-537 403 0
-463 -289 0
-381 -35 0
-253 249 0
425 -417 0
329 -177 0
80 -440 0
144 215 0
-274 135 0
100 -55 0
-360 119 0
-284 14 0
-218 -355 0
431 -165 0
-362 -218 0
229 5 0
-392 164 0
338 263 0
468 -40 0
306 -475 0
86 -141 0
62 -2 0
297 543 0
536 129 0
-279 -546 0
-147 248 0
-51 523 0
247 267 0
1 162 0
-354 -527 0
-71 216 0
580 56 0
571 -354 0
-85 -196 0
561 -152 0
-232 473 0
403 -76 0
-263 -527 0
6 571 0
-117 144 0
-401 -339 0
-5 226 0
202 9 0
14 83 0
-467 -521 0
-495 -58 0
-195 199 0
-177 -79 0
208 483 0
-478 329 0
-557 -168 0
-400 481 0
225 -423 0
563 -260 0
510 -520 0
88 286 0
12 164 0
-176 -299 0
-297 -393 0
-14 -522 0
80 -190 0
229 550 0
-386 -94 0
-570 -315 0
-507 -552 0
-67 -245 0
562 -271 0
75 -51 0
383 -524 0
-357 -152 0
-202 136 0
-239 -356 0
61 219 0
-524 143 0
195 77 0
452 455 0
-240 -484 0
479 -435 0
-55 271 0
455 576 0
-563 211 0
341 115 0
-422 367 0
-185 553 0
-241 -558 0
558 138 0
168 135 0
407 92 0
37 254 0
-352 426 0
271 428 0
-548 -309 0
234 -236 0
427 -14 0
416 96 0
383 -152 0
31 -533 0
-46 532 0
555 322 0
97 -255 0
184 -531 0
178 -386 0
392 -273 0
411 -566 0
-298 198 0
191 564 0
52 -584 0
65 98 0
84 -417 0
-349 343 0
-192 -422 0
171 307 0
-69 -215 0
451 -456 0
364 -519 0
-145 191 0
323 379 0
-388 399 0
-301 -432 0
-266 338 0
196 501 0
101 -111 0
242 490 0
403 -471 0
-9 10 0
-237 -101 0
-184 -502 0
-586 -55 0
-421 -147 0
357 129 0
9 -130 0
-521 504 0
178 -44 0
-446 332 0
90 258 0
437 235 0
-226 -225 0
-354 -238 0
456 -139 0
83 204 0
403 351 0
-1 146 0
589 307 0
98 275 0
329 -320 0
-121 442 0
451 556 0
-389 590 0
518 508 0
250 242 0
-51 150 0
490 468 0
-279 -265 0
-261 -480 0
80 -546 0
-350 116 0
-302 126 0
221 306 0
-2 -301 0
91 -98 0
-133 -499 0
196 465 0
374 -211 0
330 -545 0
-502 577 0
-454 387 0
541 -364 0
-302 -319 0
-236 -272 0
593 -146 0
-409 -294 0
154 452 0
-174 227 0
138 -147 0
-111 -259 0
-198 -7 0
475 -88 0
364 22 0
-526 593 0
-22 -389 0
-112 355 0
-264 576 0
-445 -352 0
-391 343 0
-326 305 0
94 196 0
496 -218 0
-265 -477 0
-540 -292 0
510 -464 0
-436 257 0
-419 -86 0
92 364 0
348 360 0
143 419 0
258 -232 0
-13 595 0
-511 380 0
284 -511 0
557 -349 0
105 -304 0
54 -287 0
544 -67 0
27 529 0
153 513 0
465 -460 0
-537 97 0
28 337 0
-467 142 0
-415 580 0
30 95 0
204 -370 0
-232 -493 0
-389 -164 0
449 171 0
-138 -394 0
-450 345 0
383 -175 0
-128 355 0
2 242 0
186 -29 0
199 -96 0
479 -90 0
337 500 0
-195 -223 0
-139 259 0
553 -114 0
479 -362 0
-121 -305 0
-131 -471 0
263 488 0
235 -4 0
-292 -304 0
455 507 0
-380 -456 0
98 496 0
290 404 0
-373 -414 0
562 285 0
-22 -51 0
419 135 0
-38 43 0
-280 -564 0
379 91 0
-589 408 0
-373 300 0
24 115 0
-280 -48 0
92 -236 0
-243 222 0
23 6 0
-323 -61 0
462 79 0
438 109 0
-302 -540 0
16 361 0
-497 325 0
-436 275 0
299 196 0
226 -527 0
576 -528 0
519 332 0
431 -480 0
-243 456 0
-201 -17 0
-547 -129 0
-552 349 0
-151 299 0
1 437 0
469 587 0
157 344 0
332 -554 0
-255 -47 0
379 -101 0
402 25 0
240 3 0
563 -276 0
113 -343 0
551 -252 0
-511 -280 0
-357 440 0
332 77 0
-44 576 0
-455 -166 0
-537 333 0
-249 -250 0
-505 347 0
-329 42 0
553 80 0
255 319 0
-525 -557 0
144 -373 0
-507 186 0
-74 528 0
-132 -351 0
3 -362 0
106 558 0
-370 -153 0
240 564 0
556 437 0
-120 -138 0
-462 -269 0
-129 -87 0
-399 272 0
-156 -20 0
518 212 0
-542 561 0
550 282 0
-411 324 0
-68 544 0
-366 82 0
-215 522 0
-12 -231 0
344 -282 0
14 407 0
5 -167 0
-33 -18 0
-13 -132 0
459 -347 0
463 -289 0
-313 330 0
120 -301 0
-123 227 0
-4 363 0
194 314 0
418 476 0
-526 -276 0
2 -504 0
-324 591 0
-414 -469 0
211 -459 0
145 -530 0
228 -340 0
-229 -493 0
-294 588 0
-310 42 0
-473 267 0
309 -73 0
256 236 0
277 -550 0
-388 300 0
594 84 0
569 77 0
290 -17 0
-38 563 0
-207 195 0
300 535 0
-377 487 0
26 234 0
-260 -552 0
364 383 0
435 53 0
76 408 0
-200 -139 0
379 235 0
-521 99 0
532 482 0
403 473 0
300 -382 0
80 277 0
-146 376 0
61 -305 0
-259 -546 0
60 -206 0
-530 -413 0
122 -81 0
-240 538 0
62 13 0
-390 -281 0
-60 434 0
412 -409 0
342 -448 0
389 571 0
-440 237 0
-409 450 0
468 579 0
376 -356 0
-441 379 0
-511 -548 0
549 -174 0
-161 402 0
-104 -236 0
358 -557 0
-218 -239 0
-102 -163 0
108 -392 0
256 97 0
70 -214 0
-538 -20 0
271 92 0
583 407 0
-591 -46 0
-247 508 0
198 77 0
-290 -348 0
182 -509 0
579 400 0
417 -523 0
-248 -506 0
-450 -302 0
330 -380 0
-331 -499 0
406 -239 0
351 371 0
-439 162 0
96 -303 0
85 427 0
-297 139 0
-295 348 0
-531 -225 0
-442 580 0
-28 310 0
149 563 0
563 431 0
235 130 0
-307 301 0
-509 -30 0
-70 211 0
518 139 0
249 -283 0
-239 -115 0
-372 -330 0
7 60 0
18 455 0
-314 525 0
571 310 0
-295 -17 0
534 255 0
-43 -155 0
-129 578 0
142 -453 0
571 53 0
229 116 0
455 -442 0
-8 -569 0
-340 -422 0
-211 -336 0
174 323 0
-149 116 0
587 136 0
-449 -524 0
488 -538 0
498 -35 0
-354 486 0
-172 -309 0
-512 -332 0
106 -563 0
-100 237 0
497 476 0
-227 361 0
243 288 0
269 115 0
501 -504 0
80 491 0
553 156 0
472 -47 0
-490 383 0
232 193 0
438 258 0
-500 -21 0
549 -152 0
337 191 0
-548 -477 0
-581 -259 0
560 485 0
-313 452 0
41 -565 0
390 303 0
-363 431 0
-95 -347 0
19 107 0
-227 252 0
-120 -363 0
25 434 0
-261 235 0
-81 110 0
-377 72 0
-293 469 0
-314 -448 0
144 403 0
483 534 0
-307 292 0
-82 -590 0
272 335 0
-250 -580 0
488 134 0
-443 -50 0
-80 60 0
140 554 0
-207 -312 0
158 77 0
-299 -519 0
19 -115 0
421 135 0
404 -459 0
400 -210 0
-56 -193 0
377 -493 0
-317 454 0
105 121 0
-396 -285 0
-461 133 0
348 -546 0
-384 336 0
87 -7 0
-377 -212 0
-5 505 0
331 -50 0
467 -20 0
-3 -573 0
-540 -495 0
468 350 0
-545 -307 0
-527 -272 0
-239 -88 0
251 223 0
-90 439 0
143 -503 0
-233 52 0
459 -522 0
-32 587 0
-479 60 0
-332 186 0
95 235 0
375 -324 0
-181 -387 0
432 408 0
292 -250 0
272 106 0
-117 -401 0
-384 306 0
-9 -250 0
401 -471 0
513 -437 0
250 324 0
498 -417 0
-233 196 0
136 141 0
25 -106 0
-1 -292 0
-353 366 0
498 385 0
-179 -566 0
411 109 0
-302 -205 0
113 -89 0
-189 -363 0
-86 487 0
-265 446 0
-295 479 0
55 -565 0
461 -92 0
-587 -471 0
196 504 0
-195 469 0
587 479 0
160 209 0
-316 327 0
52 353 0
337 391 0
297 379 0
398 574 0
335 144 0
237 529 0
-406 -337 0
-406 385 0
-154 432 0
-193 353 0
403 -143 0
472 -111 0
-110 222 0
-440 384 0
216 -250 0
92 416 0
-161 573 0
142 -117 0
-110 468 0
-382 578 0
99 21 0
-102 -324 0
211 -291 0
10 -101 0
-378 405 0
-525 242 0
-473 -167 0
-164 235 0
219 192 0
-514 -86 0
-282 536 0
-339 344 0
-288 -548 0
451 588 0
-309 -427 0
442 -205 0
-314 -517 0
-336 381 0
-495 258 0
455 229 0
-182 404 0
-138 502 0
194 456 0
144 -386 0
319 447 0
-480 302 0
-533 80 0
-488 14 0
-64 -221 0
-362 140 0
113 -373 0
478 344 0
-284 296 0
377 -566 0
-20 470 0
142 165 0
-550 -336 0
-567 535 0
300 78 0
320 -341 0
-85 -6 0
-538 -66 0
-130 -212 0
528 -18 0
535 525 0
472 518 0
136 -302 0
-118 321 0
-393 62 0
-123 -595 0
368 306 0
534 538 0
235 -54 0
-105 -459 0
-373 -161 0
558 -172 0
-503 508 0
374 312 0
-315 -102 0
-290 88 0
498 -202 0
-225 -349 0
-132 -72 0
-65 -8 0
-184 461 0
186 279 0
-212 221 0
-311 313 0
223 527 0
-113 577 0
-106 178 0
417 -3 0
518 -123 0
-388 -291 0
146 -315 0
-520 -260 0
587 37 0
-8 -15 0
158 -207 0
446 -521 0
-378 538 0
255 -448 0
-370 110 0
92 136 0
-44 75 0
-395 110 0
228 207 0
265 -459 0
-524 -377 0
-112 -328 0
476 263 0
417 -180 0
-512 -101 0
-93 155 0
62 -349 0
-28 -132 0
255 126 0
-99 572 0
405 319 0
-205 -368 0
-382 -461 0
-336 110 0
-545 -237 0
-99 -384 0
-288 -302 0
50 447 0
-100 528 0
214 42 0
257 -562 0
6 -26 0
267 -108 0
-562 -511 0
360 119 0
-552 -279 0
-17 36 0
436 -462 0
-384 115 0
-248 -163 0
479 -448 0
508 394 0
-211 228 0
216 -47 0
189 -193 0
-21 126 0
426 -573 0
394 -458 0
62 -81 0
113 98 0
-182 569 0
95 227 0
-594 237 0
513 -31 0
-342 482 0
148 -552 0
-409 231 0
-57 -130 0
-51 478 0
572 337 0
-328 -401 0
-584 -150 0
-148 142 0
-352 556 0
350 -480 0
-528 375 0
-561 201 0
258 480 0
561 275 0
478 -211 0
-81 543 0
-293 -166 0
-173 52 0
284 -64 0
61 254 0
219 457 0
-499 186 0
481 -49 0
-582 -357 0
595 153 0
-418 -246 0
-546 -516 0
-104 -512 0
-108 -393 0
-122 288 0
361 -511 0
-352 465 0
351 -511 0
-371 199 0
211 -40 0
-364 -525 0
350 583 0
-103 -351 0
-184 -578 0
-413 -429 0
-238 -556 0
446 200 0
-471 -496 0
-169 386 0
510 -26 0
-547 208 0
533 25 0
-184 229 0
-4 -357 0
313 -231 0
-515 -438 0
-283 -318 0
-193 90 0
-167 481 0
-265 -68 0
459 -341 0
62 358 0
571 569 0
219 127 0
250 -184 0
19 -516 0
435 312 0
-2 -302 0
104 569 0
-7 -451 0
407 -85 0
-528 -103 0
-362 487 0
-322 -163 0
-414 8 0
223 464 0
144 286 0
-180 12 0
-64 91 0
27 -145 0
346 381 0
231 145 0
23 330 0
288 -64 0
220 447 0
-200 331 0
514 -429 0
-150 488 0
-300 -40 0
119 -351 0
-463 216 0
-229 538 0
-343 178 0
-130 171 0
-150 -540 0
191 -534 0
-2 235 0
-382 524 0
-215 208 0
489 -393 0
437 -495 0
-253 292 0
-66 286 0
-265 232 0
541 292 0
-103 -195 0
-86 330 0
-579 -505 0
-132 72 0
-354 -565 0
82 -530 0
-328 306 0
-564 488 0
-8 361 0
-340 287 0
62 106 0
-351 -268 0
-592 -542 0
-154 -526 0
-479 578 0
-558 -268 0
403 -253 0
113 360 0
-225 -30 0
439 372 0
-198 -64 0
-243 446 0
-195 -499 0
-141 -120 0
96 -63 0
114 -318 0
-568 -88 0
384 405 0
481 -111 0
512 -287 0
-362 191 0
212 -544 0
560 -267 0
21 -118 0
-169 82 0
176 7 0
-154 -181 0
-266 -56 0
-246 213 0
199 115 0
260 192 0
239 -36 0
213 589 0
-586 263 0
-240 -430 0
-137 -226 0
-167 140 0
-351 -307 0
-38 -58 0
277 438 0
481 586 0
201 -178 0
-401 583 0
576 517 0
81 379 0
-205 560 0
324 321 0
-579 500 0
577 229 0
359 -244 0
100 -403 0
107 -357 0
595 -462 0
206 -384 0
-142 76 0
-272 -373 0
-318 191 0
542 -512 0
580 445 0
-168 513 0
-505 372 0
-193 -547 0
-279 408 0
106 -181 0
142 -3 0
-66 -40 0
252 -207 0
-182 248 0
-173 -105 0
-189 383 0
98 -128 0
140 358 0
92 356 0
494 270 0
12 -440 0
-349 556 0
558 -81 0
276 -402 0
535 -426 0
6 90 0
-466 385 0
308 332 0
-127 509 0
-83 431 0
-66 515 0
-487 589 0
-408 202 0
-512 254 0
580 -54 0
-492 555 0
-61 575 0
-546 389 0
331 -1 0
294 -289 0
339 145 0
-422 329 0
211 -333 0
482 -379 0
-20 -515 0
534 558 0
-440 251 0
324 -490 0
489 -444 0
532 -381 0
-68 -459 0
451 -195 0
578 -387 0
572 183 0
100 51 0
-224 -307 0
330 470 0
336 323 0
-397 199 0
306 534 0
-476 464 0
-311 -272 0
288 466 0
-206 454 0
-432 -115 0
572 -169 0
555 269 0
-10 528 0
457 -586 0
-348 -589 0
-282 394 0
581 -299 0
-159 505 0
-556 69 0
-453 68 0
-239 -326 0
-387 -395 0
-167 -283 0
-480 -196 0
-307 417 0
-540 -310 0
154 93 0
-294 -492 0
-521 330 0
-82 -463 0
458 156 0
407 -222 0
472 586 0
35 -240 0
434 328 0
-513 -85 0
-377 151 0
397 386 0
-320 -18 0
-73 67 0
-80 482 0
-112 -25 0
-414 -424 0
-173 16 0
-551 105 0
473 577 0
-200 104 0
118 69 0
-405 278 0
501 379 0
452 260 0
-190 226 0
329 200 0
72 -373 0
-37 -47 0
-136 -118 0
-479 -309 0
-293 -6 0
-523 -431 0
84 355 0
116 579 0
126 184 0
-497 560 0
-264 331 0
556 -308 0
-539 -112 0
433 560 0
-195 -203 0
69 245 0
-46 -253 0
-265 -556 0
225 -463 0
-190 563 0
394 -588 0
122 -40 0
256 556 0
-321 -304 0
328 217 0
-239 -138 0
-13 -174 0
-345 -545 0
-439 72 0
258 428 0
-361 -386 0
191 594 0
425 -17 0
-409 -495 0
-415 -183 0
549 420 0
-173 -526 0
-372 212 0
-477 296 0
-475 93 0
532 -2 0
247 134 0
-224 348 0
93 435 0
582 513 0
129 133 0
-399 95 0
488 -83 0
226 -577 0
348 -448 0
-570 531 0
-575 416 0
-169 449 0
510 -270 0
-17 60 0
256 -200 0
519 -102 0
-218 -454 0
483 -480 0
-537 8 0
-141 -449 0
-367 -551 0
54 232 0
34 485 0
-418 289 0
134 -303 0
-315 307 0
-180 450 0
-230 -299 0
286 325 0
-33 -100 0
-5 -453 0
81 10 0
577 561 0
85 530 0
-587 150 0
-299 -152 0
461 356 0
-539 372 0
231 376 0
26 534 0
-462 -372 0
-427 489 0
-261 370 0
-341 -62 0
204 -592 0
20 -57 0
145 464 0
126 -487 0
-173 -255 0
-277 400 0
487 592 0
-389 250 0
239 451 0
-496 594 0
209 530 0
372 442 0
330 -2 0
22 -59 0
-477 8 0
-44 382 0
-80 -384 0
233 -195 0
328 -106 0
-203 -31 0
-120 -33 0
286 222 0
-50 -92 0
82 359 0
418 -252 0
15 66 0
-197 82 0
572 337 0
-301 -558 0
481 -457 0
-356 546 0
558 194 0
-502 -515 0
593 72 0
-367 -217 0
-200 417 0
379 -527 0
-401 291 0
-499 224 0
401 134 0
-291 -89 0
-61 -295 0
-302 482 0
228 -66 0
485 338 0
297 -288 0
160 225 0
-467 409 0
-545 210 0
256 -538 0
218 518 0
522 571 0
404 -592 0
-305 561 0
-357 313 0
494 -46 0
-592 -466 0
-387 -69 0
93 379 0
-278 -509 0
435 519 0
520 -559 0
-120 397 0
102 124 0
-459 -583 0
-217 -80 0
-323 -20 0
451 442 0
-403 -565 0
219 284 0
-568 549 0
223 -120 0
97 -189 0
3 -53 0
461 -378 0
330 -44 0
427 -225 0
-535 -33 0
378 -562 0
-557 -453 0
-492 -302 0
209 343 0
135 261 0
503 -554 0
468 -525 0
91 -197 0
571 459 0
158 -594 0
353 220 0
269 329 0
-317 -583 0
288 84 0
-511 -389 0
-64 -226 0
-171 -339 0
595 -539 0
-511 -130 0
247 -66 0
97 532 0
134 334 0
-239 -64 0
90 314 0
-579 -92 0
-112 -214 0
-521 -6 0
-183 -171 0
270 -316 0
504 -542 0
531 -122 0
-463 -4 0
-565 -88 0
160 524 0
-128 -281 0
-40 -147 0
-316 -184 0
-80 -297 0
-392 258 0
374 139 0
-183 591 0
-303 -346 0
-129 -154 0
-315 271 0
-108 237 0
-495 -78 0
-509 -179 0
-92 484 0
-440 -74 0
74 -41 0
312 488 0
277 -240 0
-260 424 0
-295 -17 0
449 -227 0
187 345 0
177 -305 0
-241 -44 0
39 486 0
-552 165 0
-408 -110 0
298 -524 0
366 -265 0
121 249 0
267 270 0
508 424 0
-579 544 0
-222 449 0
-219 -49 0
509 192 0
27 -514 0
-200 10 0
-72 506 0
-490 515 0
96 -173 0
126 -67 0
-193 266 0
561 -574 0
472 161 0
488 -336 0
-214 -498 0
286 -357 0
-387 162 0
288 -554 0
-385 222 0
15 -589 0
-240 295 0
270 -487 0
234 -525 0
-265 172 0
30 -108 0
-426 -78 0
-132 562 0
299 486 0
-342 547 0
-367 147 0
-259 482 0
185 -68 0
444 -430 0
-33 -456 0
319 90 0
-307 114 0
-460 116 0
96 -235 0
212 -546 0
444 -367 0
-514 -554 0
-396 -294 0
340 -422 0
-546 -51 0
90 199 0
-147 -404 0
-112 -507 0
366 306 0
-574 404 0
365 -302 0
-558 360 0
444 187 0
-465 571 0
306 85 0
-321 585 0
-164 261 0
-46 138 0
91 138 0
-301 42 0
109 -545 0
235 10 0
563 277 0
-161 257 0
-268 133 0
-474 259 0
-141 -14 0
-268 -291 0
25 -103 0
211 -120 0
-282 390 0
569 295 0
360 349 0
-540 21 0
329 386 0
-161 96 0
-20 -356 0
517 -245 0
378 -101 0
-117 -554 0
95 221 0
6 -220 0
538 -62 0
-177 514 0
-504 -214 0
-170 -339 0
269 219 0
320 -7 0
260 -174 0
583 -404 0
-260 263 0
409 310 0
560 -512 0
-156 421 0
-285 487 0
-137 -341 0
-302 35 0
375 -137 0
84 -1 0
45 213 0
458 162 0
-395 475 0
69 587 0
568 333 0
520 -163 0
296 -414 0
322 -389 0
-271 -85 0
197 -34 0
269 455 0
-305 -28 0
-548 461 0
-574 -66 0
-408 -547 0
-423 -525 0
-149 587 0
-43 -154 0
364 -255 0
29 90 0
537 -552 0
474 378 0
225 -294 0
-434 -307 0
-91 14 0
52 -381 0
128 538 0
-352 -198 0
-273 148 0
487 -460 0
-188 517 0
-315 -488 0
213 32 0
577 -188 0
582 -580 0
467 -193 0
242 515 0
396 226 0
-65 539 0
13 -184 0
143 171 0
331 224 0
-89 -419 0
-33 381 0
-579 -423 0
-348 498 0
-209 222 0
236 -163 0
-55 -314 0
428 -273 0
-44 -112 0
582 -164 0
-444 328 0
82 198 0
236 -94 0
360 -521 0
