c NF
p cnf 835 2505
212 -766 0
283 17 0
-372 -81 0
-704 480 0
-596 -536 0
-78 495 0
-477 -16 0
-226 463 0
280 -262 0
670 203 0
-676 -405 0
700 -792 0
754 -173 0
-791 821 0
-691 683 0
742 157 0
340 -169 0
616 167 0
-262 304 0
160 373 0
415 -59 0
-835 725 0
-214 64 0
-588 146 0
-115 544 0
-664 -607 0
825 -559 0
-554 -681 0
534 452 0
-527 656 0
246 -438 0
-481 -81 0
-802 -166 0
538 687 0
370 662 0
62 -421 0
31 -447 0
48 70 0
96 -122 0
209 -635 0
178 484 0
-55 611 0
208 -437 0
616 -198 0
64 526 0
-728 -167 0
236 -438 0
-724 -329 0
347 115 0
30 270 0
-90 125 0
354 401 0
-254 172 0
-372 434 0
-444 815 0
-15 -65 0
-704 420 0
788 170 0
627 66 0
455 833 0
220 269 0
-419 -230 0
-723 767 0
-322 -792 0
116 -173 0
721 282 0
-364 -185 0
482 683 0
-4 307 0
330 187 0
643 -64 0
556 565 0
2 -298 0
-288 -300 0
749 -89 0
549 812 0
-631 116 0
814 -761 0
-29 -313 0
428 145 0
-66 45 0
-810 812 0
-750 373 0
-69 827 0
-582 1 0
-766 638 0
-549 223 0
325 163 0
670 -98 0
-613 167 0
-742 596 0
-828 200 0
130 -80 0
-178 -330 0
-733 173 0
801 788 0
177 148 0
361 169 0
332 782 0
834 -345 0
555 -447 0
-785 -620 0
481 -421 0
16 -138 0
-589 -516 0
-834 58 0
419 -423 0
186 -778 0
-438 -219 0
-660 -771 0
-505 112 0
-140 420 0
-254 -34 0
-336 266 0
-814 332 0
22 665 0
480 522 0
335 217 0
362 -541 0
-809 119 0
-548 49 0
-393 496 0
474 -321 0
-483 -288 0
174 317 0
-781 -681 0
-510 278 0
269 2 0
215 -425 0
-202 -353 0
646 -596 0
-190 -1 0
757 -192 0
685 -38 0
-679 -70 0
124 20 0
-360 -603 0
-775 95 0
-181 222 0
-786 141 0
777 282 0
-491 427 0
-650 819 0
721 606 0
290 -768 0
-716 -548 0
-67 803 0
-819 -811 0
-376 124 0
806 -259 0
-361 -205 0
-665 -376 0
-828 680 0
-765 -51 0
-791 502 0
-30 416 0
805 -377 0
706 678 0
-328 -755 0
-188 -107 0
-603 514 0
-793 796 0
110 -206 0
-175 220 0
745 353 0
-707 805 0
6 719 0
51 -171 0
-437 239 0
83 -607 0
180 605 0
828 479 0
632 -617 0
201 -144 0
506 -177 0
385 -55 0
244 -617 0
163 -534 0
772 316 0
-154 -341 0
-721 -99 0
11 -211 0
629 -408 0
650 -762 0
-491 -623 0
145 462 0
66 -57 0
-639 -7 0
534 14 0
609 -574 0
266 -43 0
486 558 0
-638 -393 0
-834 215 0
166 -162 0
-652 -210 0
73 -111 0
-515 350 0
299 52 0
-355 -716 0
-817 -762 0
71 -126 0
241 -156 0
-776 694 0
-238 649 0
-802 -97 0
28 411 0
-171 -259 0
429 561 0
-782 -536 0
347 -372 0
436 -661 0
-577 682 0
649 -619 0
-32 257 0
-710 -557 0
-305 -319 0
258 -570 0
-337 584 0
-629 -760 0
757 -107 0
-761 400 0
-129 57 0
585 251 0
-168 -778 0
648 -494 0
-570 735 0
557 183 0
767 576 0
-42 -74 0
-524 -821 0
601 663 0
46 -133 0
737 304 0
-704 -351 0
-650 -642 0
584 389 0
-291 676 0
-743 -91 0
409 -223 0
321 356 0
-421 -764 0
-642 -127 0
-494 306 0
157 -330 0
-298 724 0
532 66 0
-779 6 0
-762 -314 0
646 133 0
150 335 0
-299 738 0
-557 247 0
-190 458 0
-356 -70 0
395 -793 0
605 -348 0
-150 823 0
527 289 0
-577 528 0
-415 -396 0
312 583 0
-386 -274 0
473 739 0
-815 170 0
-713 -7 0
221 -720 0
94 266 0
414 709 0
-582 183 0
782 527 0
-564 -447 0
518 -669 0
-575 401 0
396 -396 0
-831 63 0
781 749 0
-419 -255 0
265 598 0
592 405 0
229 -288 0
-59 776 0
-725 569 0
58 17 0
583 -59 0
-645 -202 0
330 656 0
627 -577 0
600 -51 0
107 -732 0
-157 133 0
-157 -541 0
-609 580 0
-168 335 0
104 428 0
99 388 0
628 516 0
-120 393 0
-652 676 0
671 -657 0
21 484 0
-5 247 0
-524 -153 0
-59 725 0
387 -379 0
-404 721 0
34 339 0
-93 -533 0
793 91 0
66 832 0
-318 -444 0
809 349 0
239 108 0
-357 399 0
-677 422 0
626 -754 0
483 480 0
-814 95 0
394 44 0
167 436 0
643 305 0
341 -144 0
117 -737 0
684 -171 0
-704 479 0
-320 417 0
-164 415 0
-669 -218 0
19 548 0
-179 -294 0
829 -494 0
-274 -506 0
735 -341 0
614 74 0
165 -385 0
293 435 0
281 -791 0
-387 -723 0
675 -605 0
-586 403 0
-126 -96 0
-663 497 0
445 -404 0
-250 740 0
94 -824 0
462 56 0
20 -682 0
133 102 0
-800 -529 0
333 660 0
-73 130 0
780 -41 0
266 -338 0
-407 -272 0
491 634 0
57 180 0
299 547 0
733 -760 0
-345 -171 0
-574 -466 0
-290 -345 0
597 777 0
-318 516 0
709 230 0
155 772 0
-249 -689 0
-209 174 0
350 581 0
-755 -74 0
46 -336 0
513 296 0
-535 -792 0
577 -691 0
57 830 0
656 13 0
-730 -228 0
-812 -363 0
393 -16 0
549 415 0
198 -187 0
750 427 0
-313 528 0
-103 647 0
617 167 0
-25 188 0
-90 808 0
495 776 0
506 196 0
-21 -381 0
-259 -574 0
-4 365 0
-218 -835 0
-338 83 0
-423 -652 0
374 -814 0
422 -725 0
372 337 0
770 -376 0
203 669 0
-809 680 0
-13 -702 0
527 196 0
-344 682 0
749 325 0
-162 279 0
820 731 0
-207 653 0
-554 167 0
511 -587 0
-110 239 0
441 135 0
283 602 0
-778 -669 0
554 543 0
-388 457 0
-405 -51 0
389 -682 0
3 -209 0
-636 79 0
24 -31 0
-705 710 0
-42 310 0
270 18 0
-459 622 0
54 333 0
-548 -596 0
-261 88 0
-607 -171 0
-22 -637 0
563 -654 0
-696 361 0
784 766 0
317 596 0
80 -355 0
-48 -787 0
-515 7 0
139 -565 0
-138 645 0
-524 -775 0
18 -813 0
670 62 0
647 -417 0
-802 -235 0
-257 -351 0
-405 143 0
752 -817 0
601 144 0
-544 -134 0
-470 -113 0
-546 -620 0
125 -12 0
476 -653 0
316 -727 0
263 110 0
537 -595 0
14 -122 0
-234 -28 0
-86 -174 0
-178 -511 0
215 -51 0
-379 58 0
169 162 0
-274 709 0
264 -232 0
-410 -163 0
-226 -385 0
616 -766 0
-388 550 0
709 33 0
-55 -278 0
-417 -7 0
-331 -635 0
105 -189 0
695 469 0
-438 -65 0
-620 563 0
-483 693 0
718 569 0
764 779 0
415 705 0
674 729 0
285 703 0
534 538 0
-797 789 0
-96 3 0
248 -294 0
141 -61 0
118 309 0
-824 -433 0
521 236 0
662 245 0
336 -265 0
125 -633 0
422 328 0
454 -111 0
-669 223 0
27 695 0
683 354 0
-591 755 0
446 560 0
-407 146 0
440 287 0
-792 -712 0
-525 748 0
-686 150 0
-611 -671 0
-42 818 0
93 -288 0
307 482 0
63 -425 0
-190 -461 0
131 769 0
258 -256 0
555 70 0
452 -660 0
-233 -152 0
-32 224 0
-78 223 0
803 484 0
-660 -343 0
-444 695 0
-775 132 0
412 141 0
-617 775 0
818 -769 0
728 137 0
-824 107 0
-477 552 0
606 -42 0
-1 35 0
130 -633 0
287 -308 0
-387 336 0
-721 -20 0
530 806 0
-348 -774 0
243 -624 0
784 207 0
630 553 0
-59 -342 0
-97 -186 0
18 -295 0
-664 -95 0
-681 -697 0
131 437 0
-301 443 0
340 425 0
-188 350 0
312 -393 0
-228 -396 0
590 414 0
137 212 0
58 -634 0
258 -575 0
-642 770 0
329 307 0
-308 -642 0
626 -261 0
-537 -405 0
-27 -371 0
-44 -829 0
-106 749 0
804 612 0
-31 -711 0
-373 -461 0
-821 527 0
186 -701 0
-533 464 0
-97 772 0
270 -654 0
754 -294 0
55 159 0
-625 556 0
-423 -380 0
830 -760 0
446 242 0
-136 63 0
-35 124 0
141 -346 0
-181 -177 0
502 313 0
-259 374 0
14 -518 0
-679 -762 0
571 -708 0
-525 -451 0
724 -345 0
537 684 0
-459 193 0
703 -234 0
835 210 0
-143 430 0
132 555 0
818 -614 0
70 -677 0
756 -730 0
55 -751 0
501 385 0
-748 -259 0
501 -635 0
98 422 0
-679 -145 0
-54 609 0
80 77 0
835 181 0
668 346 0
25 -746 0
415 264 0
672 -538 0
-794 -751 0
-312 -168 0
-378 -480 0
131 273 0
85 -227 0
833 835 0
-692 -813 0
296 -789 0
177 571 0
39 -316 0
-150 512 0
-28 261 0
-652 213 0
694 94 0
577 -696 0
-382 -108 0
-363 270 0
421 349 0
-361 200 0
746 66 0
725 655 0
626 -595 0
322 -142 0
515 104 0
-514 -524 0
350 -369 0
222 195 0
-376 -138 0
258 -277 0
671 -124 0
211 -178 0
-758 -675 0
690 598 0
-195 -379 0
-702 -246 0
-335 -194 0
553 453 0
-470 -78 0
827 -753 0
-539 -538 0
222 -621 0
-833 -73 0
-546 590 0
617 734 0
-308 -494 0
-279 -769 0
-586 260 0
346 -264 0
286 244 0
324 -562 0
-582 -523 0
-385 -1 0
768 191 0
-808 457 0
516 235 0
487 -376 0
529 545 0
216 746 0
747 -387 0
368 734 0
535 527 0
216 -34 0
313 569 0
329 -424 0
-695 -669 0
107 -673 0
121 31 0
-318 -252 0
586 -567 0
560 -35 0
566 -231 0
826 -581 0
-364 326 0
-318 141 0
747 -57 0
-663 96 0
-558 -577 0
-659 349 0
286 680 0
271 -72 0
-372 -27 0
-650 117 0
-249 199 0
752 332 0
-564 312 0
489 782 0
-26 -482 0
-727 -466 0
-421 -180 0
-32 135 0
-583 626 0
194 253 0
354 423 0
495 -30 0
-640 830 0
-51 -297 0
-351 -403 0
-286 380 0
-134 -199 0
362 407 0
-677 -466 0
-292 -549 0
703 -356 0
-787 722 0
-695 521 0
350 580 0
-359 -525 0
-724 -120 0
-140 300 0
327 -604 0
307 671 0
-120 14 0
-290 110 0
-605 -217 0
432 -654 0
676 204 0
796 472 0
-635 -324 0
734 800 0
-664 -353 0
772 817 0
289 354 0
421 425 0
-810 -780 0
-491 776 0
-593 -435 0
19 779 0
796 -443 0
286 -661 0
-134 -570 0
645 695 0
534 -166 0
-533 -376 0
709 -751 0
-196 812 0
80 -275 0
-502 332 0
145 -694 0
-784 -336 0
-617 -486 0
-83 553 0
-328 -26 0
441 526 0
-802 154 0
-732 -536 0
-88 -780 0
382 175 0
-32 323 0
18 292 0
-266 -408 0
-217 -557 0
-288 -3 0
135 -461 0
-629 304 0
758 647 0
277 -431 0
-387 300 0
-713 -329 0
430 -829 0
-669 266 0
823 -666 0
-633 -334 0
41 454 0
456 69 0
315 -153 0
321 -433 0
-494 221 0
-680 -751 0
-26 95 0
531 -577 0
-209 640 0
-697 -781 0
-371 501 0
113 706 0
-83 -267 0
-386 -453 0
738 740 0
289 729 0
-804 530 0
39 -295 0
-492 -540 0
-298 -515 0
-165 741 0
-181 806 0
-466 757 0
611 -182 0
160 -141 0
76 426 0
-149 210 0
-808 -410 0
445 -630 0
-439 376 0
-187 124 0
107 -21 0
483 -604 0
320 665 0
-163 220 0
211 -783 0
-346 406 0
116 -507 0
-400 -758 0
-335 220 0
-336 -379 0
94 -122 0
196 -390 0
814 -437 0
482 321 0
-95 -702 0
527 -732 0
-806 -787 0
27 169 0
349 -236 0
469 472 0
-366 645 0
763 -435 0
505 -829 0
-540 -626 0
416 -515 0
205 4 0
-295 326 0
110 -291 0
-669 790 0
760 -631 0
320 105 0
-750 -802 0
330 -789 0
-151 659 0
331 464 0
543 -372 0
282 382 0
374 174 0
272 313 0
-291 -122 0
-813 -494 0
237 644 0
-71 508 0
-775 754 0
-323 385 0
148 -178 0
617 17 0
411 -371 0
-33 645 0
-288 -510 0
-586 570 0
-800 -427 0
-55 467 0
287 79 0
-565 -366 0
-257 -514 0
645 -574 0
452 -132 0
765 238 0
136 -296 0
160 819 0
-50 -1 0
678 -824 0
204 -762 0
-233 -360 0
-42 -724 0
448 -777 0
-835 117 0
-292 529 0
-742 560 0
803 -34 0
-111 759 0
-66 377 0
427 -683 0
-635 446 0
-15 -523 0
620 -373 0
61 -61 0
680 -804 0
-661 63 0
-565 -294 0
-401 -363 0
57 -368 0
441 -604 0
384 257 0
-18 151 0
777 -73 0
773 128 0
-465 615 0
-453 -337 0
131 495 0
-241 -763 0
-560 -724 0
770 -13 0
56 -807 0
-67 323 0
251 754 0
645 439 0
26 -789 0
221 222 0
526 385 0
-234 528 0
-348 670 0
81 -401 0
-324 -714 0
653 684 0
315 -809 0
405 205 0
651 -126 0
-705 360 0
-738 -642 0
-217 -565 0
-1 569 0
-824 -811 0
-789 -372 0
-703 689 0
286 -454 0
-614 762 0
-661 828 0
668 290 0
-123 -86 0
520 -153 0
-134 13 0
-351 133 0
516 -690 0
-507 422 0
44 -227 0
-507 328 0
117 -572 0
12 49 0
444 -714 0
-144 66 0
239 -125 0
-570 48 0
-777 324 0
-107 472 0
-587 598 0
-209 -743 0
-785 675 0
388 537 0
-730 -459 0
239 -492 0
136 -384 0
310 -284 0
-475 -718 0
-180 827 0
-184 -486 0
-344 33 0
-280 -69 0
-234 468 0
26 -785 0
-789 226 0
319 430 0
-238 277 0
-345 -224 0
264 1 0
293 204 0
124 593 0
699 260 0
-652 -14 0
315 -264 0
-20 680 0
48 772 0
277 399 0
-104 -809 0
-302 679 0
-132 -759 0
363 -613 0
-692 -658 0
309 -817 0
117 606 0
827 -423 0
-373 823 0
-16 828 0
449 671 0
-32 686 0
-219 357 0
525 -690 0
749 -822 0
-521 -614 0
-102 -590 0
146 816 0
593 71 0
324 604 0
476 -370 0
80 -766 0
501 -362 0
-126 828 0
-317 -653 0
-348 619 0
-666 -512 0
-407 374 0
-623 473 0
-338 682 0
-611 -674 0
-785 -581 0
-278 307 0
-379 -785 0
-817 407 0
769 462 0
-723 -504 0
-311 221 0
681 -429 0
803 -514 0
-790 671 0
-420 175 0
-129 819 0
-632 -249 0
-155 -305 0
-7 -360 0
-412 -178 0
-68 -617 0
-295 -741 0
-178 363 0
555 -755 0
-631 -336 0
818 266 0
340 193 0
44 -619 0
-86 100 0
202 18 0
177 806 0
566 588 0
-32 655 0
-471 -279 0
117 695 0
446 -195 0
-335 -778 0
-699 125 0
-792 -500 0
-47 749 0
56 532 0
-148 733 0
427 -344 0
-94 -53 0
-26 712 0
-32 580 0
297 -683 0
-586 -81 0
-696 -293 0
244 -439 0
-169 498 0
-421 649 0
578 521 0
58 -573 0
591 571 0
617 -493 0
131 -666 0
80 650 0
-239 796 0
-137 -218 0
247 749 0
676 -742 0
-617 -368 0
753 -618 0
-280 -652 0
49 50 0
639 113 0
-176 376 0
368 574 0
-97 -257 0
-756 149 0
-694 590 0
-538 -762 0
795 436 0
-312 100 0
-97 104 0
375 545 0
629 -705 0
-765 556 0
-222 -536 0
-564 528 0
812 563 0
-686 -632 0
478 471 0
-776 651 0
560 218 0
-717 -366 0
616 35 0
616 -274 0
238 697 0
-156 -1 0
-401 812 0
167 -239 0
-355 191 0
-334 -17 0
-635 -770 0
-823 715 0
-807 796 0
156 -373 0
-297 670 0
-376 26 0
412 492 0
58 456 0
-108 671 0
-728 282 0
606 59 0
178 -233 0
651 227 0
517 558 0
645 -420 0
776 -65 0
-617 -486 0
-446 556 0
-122 -834 0
-325 24 0
490 -551 0
-789 776 0
-439 -345 0
-61 248 0
-171 146 0
-64 706 0
699 177 0
136 -171 0
497 330 0
759 -272 0
-530 6 0
-202 660 0
578 -825 0
-410 138 0
-483 -727 0
356 -345 0
-775 -421 0
-109 479 0
-720 266 0
-587 -360 0
695 -451 0
268 -200 0
-444 142 0
829 -246 0
-294 310 0
590 48 0
-536 -44 0
656 -814 0
706 218 0
823 -681 0
206 -654 0
-301 -386 0
479 -87 0
-428 634 0
528 -637 0
169 -353 0
560 -593 0
-550 561 0
-409 -525 0
-11 -199 0
40 606 0
636 -744 0
-789 820 0
131 80 0
-378 -309 0
-150 495 0
800 -123 0
244 -52 0
221 491 0
388 484 0
-690 -756 0
-433 -766 0
94 -495 0
-142 -750 0
-230 -743 0
529 -460 0
-72 375 0
13 820 0
-772 -520 0
-207 195 0
-8 459 0
-284 -234 0
252 388 0
533 796 0
-361 301 0
-791 120 0
774 466 0
-611 44 0
348 -610 0
416 -473 0
-111 -419 0
773 674 0
-834 -691 0
-437 -139 0
212 -441 0
448 -375 0
155 -711 0
-48 -115 0
741 485 0
-393 737 0
-593 -327 0
322 362 0
146 332 0
-726 -762 0
-544 -492 0
86 306 0
30 628 0
-135 526 0
430 570 0
484 -255 0
-763 570 0
791 -111 0
182 -171 0
416 19 0
-242 -656 0
107 -211 0
-771 676 0
-71 561 0
18 640 0
-498 -434 0
-697 -50 0
468 362 0
815 508 0
-38 467 0
689 -729 0
-507 130 0
482 -222 0
793 -299 0
-26 593 0
663 638 0
-100 -483 0
436 -43 0
-99 -392 0
-575 637 0
-172 -15 0
534 41 0
-751 609 0
563 10 0
-79 709 0
270 -828 0
-675 -673 0
728 -364 0
141 -536 0
307 -743 0
-229 726 0
-567 25 0
-176 94 0
292 -28 0
309 433 0
-758 -702 0
149 453 0
44 495 0
-152 -84 0
147 -757 0
25 573 0
-64 -298 0
321 407 0
-202 -8 0
-651 672 0
567 145 0
739 -589 0
451 71 0
678 -749 0
770 561 0
-403 442 0
-142 -267 0
667 -295 0
156 -824 0
50 812 0
456 734 0
-750 569 0
-92 -253 0
264 366 0
-15 -404 0
389 103 0
-294 -50 0
229 134 0
-477 830 0
-662 -557 0
219 130 0
-170 439 0
-412 -568 0
-216 -514 0
259 -463 0
-198 135 0
-451 -553 0
96 283 0
-326 509 0
458 41 0
-59 -387 0
835 94 0
-55 293 0
553 368 0
284 738 0
-791 -607 0
251 670 0
781 168 0
249 -470 0
234 325 0
-714 -387 0
251 482 0
9 427 0
-760 -829 0
-295 -639 0
749 601 0
493 -786 0
812 -37 0
532 -320 0
-630 -342 0
-525 495 0
-153 -199 0
-587 -121 0
124 622 0
105 -10 0
370 -246 0
-199 79 0
680 -789 0
-440 -387 0
414 282 0
294 -86 0
146 594 0
62 403 0
-351 -387 0
-698 444 0
-78 88 0
-226 619 0
-468 131 0
268 -596 0
-178 -428 0
-201 -716 0
-564 788 0
479 -372 0
-88 353 0
-611 781 0
679 -15 0
637 213 0
-155 -26 0
-790 -256 0
434 339 0
-497 -646 0
-591 -535 0
76 -451 0
733 -282 0
-587 233 0
643 -109 0
-225 -817 0
398 736 0
-235 -532 0
149 245 0
553 382 0
-525 -296 0
739 -129 0
139 558 0
314 562 0
671 -777 0
205 -466 0
-708 -63 0
282 -153 0
-128 772 0
530 247 0
793 667 0
-696 -581 0
-650 -670 0
-75 277 0
52 -252 0
-733 768 0
-294 250 0
753 197 0
269 -490 0
771 353 0
-608 709 0
-436 317 0
-108 384 0
155 -201 0
-68 -363 0
-714 601 0
747 230 0
415 619 0
-744 200 0
805 732 0
-28 -750 0
-597 -584 0
712 -109 0
-417 770 0
-151 56 0
471 185 0
-586 -798 0
172 719 0
168 497 0
211 -256 0
607 -707 0
-824 107 0
-87 -787 0
659 -313 0
-427 -152 0
-487 -547 0
759 92 0
627 -365 0
-38 314 0
563 764 0
-120 451 0
336 -248 0
412 676 0
-417 772 0
-89 229 0
-711 482 0
-645 638 0
9 165 0
-692 23 0
-102 -194 0
497 419 0
407 -420 0
55 719 0
567 615 0
-310 -326 0
-574 482 0
455 143 0
-326 -343 0
-329 160 0
649 667 0
-174 -351 0
-201 216 0
746 782 0
754 11 0
-137 757 0
747 -288 0
494 -552 0
-559 -213 0
-759 -814 0
124 -730 0
-792 428 0
469 365 0
-678 60 0
-55 -168 0
-588 316 0
-608 -826 0
315 -765 0
-26 699 0
372 818 0
98 -443 0
600 328 0
313 569 0
116 -116 0
163 -817 0
-67 198 0
-236 96 0
-301 -620 0
324 105 0
-69 -652 0
-618 -225 0
-199 754 0
164 -143 0
-342 -52 0
-727 331 0
-483 161 0
649 461 0
-514 552 0
33 -41 0
196 -345 0
830 179 0
-98 -604 0
123 -599 0
23 253 0
667 -614 0
405 389 0
479 -51 0
39 -515 0
-677 -739 0
-280 -692 0
-235 694 0
76 816 0
-621 75 0
349 -823 0
-251 -114 0
424 479 0
594 386 0
512 482 0
286 -755 0
-221 -610 0
-358 448 0
468 558 0
552 -336 0
-437 -706 0
-455 323 0
-634 754 0
71 -268 0
-654 755 0
-149 362 0
780 311 0
-364 -692 0
-800 -658 0
151 -418 0
84 -331 0
255 -552 0
-801 508 0
-546 384 0
-596 -723 0
-2 193 0
662 -596 0
239 706 0
454 389 0
765 816 0
737 80 0
-477 -111 0
-581 -354 0
-363 605 0
157 48 0
735 635 0
-613 699 0
346 -548 0
658 69 0
454 -719 0
-440 -217 0
-408 -380 0
-675 541 0
287 666 0
-43 -509 0
-128 -345 0
637 -366 0
-701 812 0
135 58 0
-443 100 0
-614 770 0
96 179 0
223 30 0
-743 136 0
212 812 0
105 -244 0
240 -427 0
237 -809 0
-559 358 0
-336 -740 0
244 -11 0
448 502 0
693 130 0
-224 553 0
755 590 0
185 -730 0
366 -123 0
757 -492 0
730 -263 0
219 563 0
32 399 0
704 339 0
347 -363 0
-832 -603 0
112 382 0
309 -395 0
-72 -746 0
267 9 0
-420 582 0
-649 -391 0
-292 156 0
773 -533 0
-682 473 0
269 54 0
470 -613 0
-720 94 0
-326 315 0
353 -578 0
-318 627 0
-515 714 0
-84 -515 0
212 -833 0
262 145 0
676 -553 0
141 -632 0
-630 27 0
299 200 0
20 447 0
563 -195 0
-654 572 0
230 -623 0
-13 692 0
811 733 0
289 388 0
-225 -171 0
-37 -262 0
311 -666 0
-607 321 0
-445 -475 0
-732 -653 0
-607 800 0
173 508 0
24 -15 0
-635 -514 0
444 -102 0
282 288 0
-751 220 0
481 -641 0
-471 -449 0
-333 -687 0
-496 -190 0
794 -143 0
722 -558 0
250 -178 0
357 439 0
39 412 0
-300 -825 0
-156 -597 0
774 458 0
644 628 0
-199 -190 0
-54 771 0
350 -65 0
162 -599 0
796 -68 0
424 835 0
-499 161 0
87 -538 0
-83 331 0
-470 -230 0
-265 -532 0
254 -518 0
602 475 0
-569 -677 0
-37 -792 0
-242 -431 0
174 -729 0
216 550 0
98 -543 0
324 118 0
-742 -191 0
-716 -438 0
722 553 0
628 538 0
674 -378 0
808 -47 0
632 409 0
-77 175 0
-82 -718 0
-128 -824 0
250 774 0
-397 -597 0
9 -221 0
-676 -702 0
-204 297 0
567 -750 0
-349 -129 0
281 231 0
270 140 0
576 -172 0
415 104 0
415 672 0
22 688 0
-730 -407 0
-32 -98 0
-492 -482 0
362 390 0
-477 1 0
488 306 0
-578 -446 0
213 -29 0
-814 -763 0
-587 -496 0
48 562 0
-461 -202 0
633 -417 0
-814 807 0
-808 -745 0
363 -181 0
560 -132 0
645 54 0
76 476 0
96 -607 0
113 -735 0
339 -789 0
-617 771 0
-466 43 0
623 60 0
-536 249 0
701 -608 0
-84 -500 0
738 651 0
-653 484 0
-386 -171 0
655 174 0
-535 -131 0
-579 714 0
522 332 0
-144 231 0
340 -523 0
-654 -716 0
-781 3 0
440 165 0
194 -755 0
17 -708 0
-629 -7 0
644 -54 0
-562 -34 0
-504 481 0
-521 -444 0
463 253 0
71 -601 0
-175 768 0
-653 -227 0
264 -26 0
754 -14 0
-160 -250 0
144 3 0
532 746 0
-212 -822 0
410 -279 0
-583 113 0
32 580 0
442 247 0
644 540 0
655 314 0
-696 -530 0
-92 42 0
-112 17 0
-481 793 0
11 10 0
-751 -500 0
179 -802 0
434 754 0
409 -579 0
63 -526 0
-766 403 0
-822 -99 0
312 780 0
-525 519 0
159 483 0
118 -269 0
288 558 0
833 -594 0
-352 48 0
-4 -494 0
528 -692 0
-581 -237 0
-411 -523 0
241 -64 0
373 -348 0
618 164 0
439 5 0
215 599 0
349 313 0
-742 600 0
394 -111 0
606 -729 0
-437 249 0
167 -237 0
290 -828 0
-83 -370 0
267 -762 0
455 80 0
-763 541 0
-13 -325 0
245 736 0
-721 444 0
553 -55 0
41 680 0
-642 -485 0
95 742 0
-670 -625 0
-567 493 0
810 290 0
-246 -261 0
-170 107 0
655 456 0
-38 407 0
-301 73 0
-459 717 0
-468 104 0
443 647 0
362 -151 0
-23 -119 0
-429 356 0
-190 -756 0
-515 415 0
-420 703 0
830 333 0
-70 -142 0
-645 661 0
588 415 0
350 790 0
29 425 0
-280 -755 0
-182 -50 0
-104 -184 0
537 476 0
84 -771 0
665 407 0
-465 -398 0
18 -462 0
-564 -552 0
-59 402 0
-246 197 0
-610 -281 0
365 23 0
130 332 0
73 -551 0
-472 710 0
638 -373 0
-186 275 0
-259 -673 0
-453 495 0
648 100 0
-121 -802 0
-653 -366 0
-341 -677 0
-138 808 0
812 -236 0
506 -442 0
647 601 0
64 583 0
-63 -191 0
616 674 0
-620 558 0
-114 -162 0
-713 -276 0
-792 625 0
476 -599 0
250 805 0
374 -774 0
-138 815 0
648 135 0
-262 772 0
303 -656 0
-819 382 0
-274 -802 0
-284 781 0
-674 -50 0
319 -7 0
62 -93 0
611 313 0
-492 799 0
585 716 0
-418 -381 0
-219 -485 0
-479 -515 0
833 818 0
354 616 0
-129 -746 0
-762 441 0
-577 334 0
468 479 0
200 -725 0
-732 560 0
358 -15 0
-18 738 0
433 -25 0
532 828 0
-480 6 0
-682 586 0
624 433 0
-159 -345 0
-611 777 0
378 -263 0
-265 33 0
-692 283 0
-109 -337 0
-145 -525 0
383 46 0
-511 -43 0
-691 92 0
313 205 0
-578 -53 0
-170 309 0
210 648 0
683 -650 0
-38 2 0
-219 -611 0
-750 -501 0
-393 -56 0
198 421 0
-525 185 0
566 -224 0
476 -103 0
-30 -318 0
492 -435 0
-623 397 0
-226 -605 0
642 -191 0
10 -365 0
384 183 0
298 127 0
-36 -73 0
624 -248 0
-541 64 0
293 253 0
512 572 0
373 46 0
681 -814 0
120 -376 0
-70 -279 0
733 430 0
174 656 0
793 830 0
448 741 0
40 314 0
700 248 0
6 -706 0
-456 -477 0
-126 -39 0
-140 -477 0
820 -67 0
-88 98 0
-109 340 0
757 645 0
-325 -450 0
21 322 0
212 -96 0
467 -608 0
-479 727 0
-728 278 0
588 98 0
808 60 0
765 -284 0
263 695 0
-587 -362 0
206 449 0
-237 412 0
589 699 0
825 -504 0
-623 -144 0
751 709 0
-652 -747 0
571 -752 0
608 538 0
-259 432 0
-162 382 0
369 179 0
250 -829 0
-580 774 0
20 619 0
422 169 0
173 -397 0
717 -21 0
-97 -96 0
-91 684 0
-301 -11 0
819 -466 0
-791 277 0
-746 221 0
-677 131 0
-798 725 0
606 -168 0
-419 414 0
-808 -284 0
-81 571 0
498 513 0
589 560 0
736 -629 0
-470 -301 0
660 660 0
-450 505 0
-721 711 0
-111 396 0
240 48 0
596 87 0
354 -29 0
-460 255 0
-88 -35 0
464 -617 0
-541 591 0
758 -658 0
-159 -338 0
-248 -331 0
651 820 0
107 -28 0
-52 -412 0
-165 287 0
-67 -744 0
436 651 0
-83 -196 0
511 -698 0
-729 -712 0
-36 520 0
319 -761 0
-326 -229 0
-618 359 0
180 813 0
-729 194 0
-489 472 0
253 225 0
558 -779 0
-188 -130 0
782 -320 0
-509 601 0
-329 -733 0
471 -246 0
448 762 0
333 -91 0
-165 671 0
713 290 0
-73 -578 0
492 -629 0
267 -192 0
764 44 0
-483 741 0
313 -579 0
-715 -702 0
5 107 0
769 169 0
95 -358 0
-271 -141 0
-54 183 0
-622 -750 0
689 281 0
173 -544 0
-422 -391 0
-461 -614 0
-52 648 0
-25 -83 0
-343 -528 0
666 -4 0
132 -552 0
-614 -677 0
-108 -810 0
757 -828 0
569 487 0
-437 -790 0
823 619 0
-468 725 0
-372 -552 0
346 -424 0
-546 -763 0
-511 -760 0
148 -510 0
-281 452 0
602 179 0
680 185 0
-483 179 0
-695 665 0
320 370 0
105 -815 0
370 -133 0
79 -786 0
-232 -355 0
-413 569 0
5 -522 0
825 -819 0
-814 -124 0
3 -326 0
-597 343 0
148 604 0
441 306 0
-435 -299 0
616 -246 0
130 -799 0
529 -99 0
-3 668 0
-815 726 0
-581 550 0
137 458 0
-786 -59 0
-348 -57 0
-107 -625 0
287 527 0
-537 347 0
-475 -690 0
815 508 0
-47 -500 0
566 455 0
401 -83 0
786 -225 0
98 619 0
40 824 0
647 330 0
-122 244 0
495 73 0
466 12 0
-507 573 0
746 62 0
823 222 0
644 55 0
-559 -817 0
645 474 0
91 154 0
-581 -46 0
717 -731 0
174 -121 0
86 316 0
-701 -618 0
566 -709 0
-134 339 0
367 -463 0
87 399 0
-219 701 0
309 18 0
-547 667 0
226 149 0
454 228 0
-119 -826 0
676 -438 0
486 -802 0
-60 -459 0
177 -709 0
184 -261 0
773 -334 0
-8 -654 0
592 287 0
290 -821 0
812 -55 0
-607 803 0
163 384 0
-510 -49 0
19 -505 0
304 522 0
-117 -392 0
806 489 0
-379 104 0
165 -620 0
18 700 0
436 416 0
565 -226 0
791 -433 0
-237 -191 0
-105 -502 0
-505 284 0
802 299 0
-318 347 0
803 -324 0
-176 141 0
-690 151 0
-97 -218 0
741 -510 0
-126 833 0
-195 63 0
-522 -503 0
545 389 0
-429 -401 0
-828 362 0
-514 516 0
149 147 0
584 141 0
-475 -723 0
-53 -469 0
-711 -36 0
-436 -278 0
-195 -718 0
-579 -797 0
186 -437 0
-235 238 0
-272 659 0
382 306 0
-586 374 0
-746 796 0
-753 582 0
-753 574 0
541 -15 0
-291 82 0
389 -424 0
-509 -686 0
709 112 0
-153 693 0
104 357 0
571 327 0
-173 479 0
-149 828 0
-252 -279 0
300 776 0
269 -122 0
-690 -153 0
-36 -52 0
356 619 0
-459 278 0
541 377 0
688 -53 0
-155 655 0
281 679 0
628 258 0
803 818 0
-437 -11 0
282 694 0
-285 2 0
-716 -237 0
244 823 0
823 689 0
242 313 0
37 -743 0
232 -358 0
339 474 0
-796 -336 0
9 663 0
376 175 0
-682 -135 0
-95 -424 0
369 42 0
-627 -278 0
-431 367 0
150 -127 0
-81 200 0
-123 442 0
-595 585 0
695 825 0
-216 19 0
621 489 0
-284 726 0
-831 422 0
-334 211 0
495 430 0
-11 -677 0
315 -750 0
-613 6 0
-632 -221 0
-604 699 0
-610 -256 0
-485 -154 0
-72 27 0
532 -452 0
12 -582 0
560 -331 0
491 -264 0
-314 130 0
-361 642 0
-461 -485 0
409 -681 0
719 -274 0
-357 -437 0
11 205 0
-199 538 0
125 -418 0
-102 -303 0
-707 -535 0
-228 453 0
377 384 0
-583 270 0
-574 501 0
-832 440 0
-45 350 0
-548 -614 0
512 -802 0
244 -417 0
56 568 0
-533 -379 0
411 -46 0
-266 399 0
403 778 0
-466 -86 0
568 670 0
-671 325 0
220 386 0
-198 -225 0
30 -654 0
91 -61 0
-720 -745 0
475 31 0
-343 689 0
-29 -451 0
432 -80 0
-753 456 0
69 455 0
218 277 0
-67 -254 0
630 754 0
80 -260 0
-387 -426 0
-242 -384 0
424 -728 0
-632 575 0
389 -227 0
-707 170 0
58 224 0
-40 -99 0
6 -42 0
299 -62 0
694 -409 0
-496 289 0
-732 289 0
98 -721 0
-9 571 0
607 -242 0
545 6 0
419 286 0
-582 -825 0
205 -123 0
612 -791 0
-546 393 0
208 436 0
-581 -587 0
-337 18 0
-279 791 0
520 -565 0
-610 -656 0
-801 663 0
-729 -264 0
279 788 0
-743 693 0
781 445 0
-720 519 0
-477 559 0
823 -147 0
248 -308 0
807 159 0
330 -456 0
-734 719 0
-531 516 0
270 -223 0
282 -524 0
239 -389 0
-789 -320 0
383 283 0
566 -743 0
-638 645 0
-620 452 0
-599 -116 0
-102 -574 0
-813 547 0
715 -274 0
10 753 0
795 51 0
-569 -123 0
784 -501 0
-819 -202 0
770 -815 0
441 87 0
-339 528 0
768 -122 0
365 -500 0
-687 561 0
541 624 0
709 -626 0
-366 -640 0
-92 132 0
317 741 0
346 275 0
-652 -66 0
50 -762 0
577 -162 0
-286 -114 0
-51 -386 0
487 -393 0
-583 -94 0
-289 296 0
-533 -813 0
-752 335 0
-336 -471 0
-299 -687 0
3 -272 0
457 -571 0
-351 -102 0
-800 -139 0
-356 -737 0
-795 693 0
-216 315 0
-482 74 0
-736 -115 0
-175 -613 0
-669 -278 0
113 145 0
-529 399 0
257 172 0
-191 -637 0
-468 48 0
778 715 0
140 322 0
-258 20 0
-780 346 0
370 -609 0
-43 -68 0
127 732 0
-642 92 0
-524 170 0
647 -696 0
533 735 0
-30 671 0
-618 -552 0
-345 266 0
-766 -124 0
31 -371 0
-487 627 0
286 -635 0
-192 63 0
243 781 0
-356 -729 0
661 -783 0
-563 300 0
146 73 0
661 -578 0
-800 -766 0
-593 780 0
-272 722 0
-189 17 0
-708 -191 0
-635 -515 0
159 362 0
281 -628 0
-547 711 0
422 704 0
223 -139 0
127 403 0
389 432 0
-782 637 0
384 -363 0
736 -616 0
215 -595 0
-75 324 0
-778 -517 0
123 -707 0
63 727 0
-704 329 0
48 -436 0
696 -523 0
229 -274 0
-383 268 0
71 228 0
-400 350 0
-569 -195 0
-142 131 0
322 -68 0
-390 -108 0
-225 378 0
69 -124 0
-582 93 0
624 197 0
-721 -621 0
-73 506 0
-835 -531 0
88 -687 0
-435 290 0
-750 -800 0
628 483 0
601 318 0
-391 426 0
-339 117 0
-140 -830 0
-453 307 0
71 429 0
-35 471 0
-263 -832 0
609 -520 0
-155 -67 0
449 -650 0
180 829 0
26 -507 0
-819 47 0
430 -658 0
-279 -594 0
-177 -418 0
777 -450 0
-778 -797 0
-360 340 0
293 121 0
-102 84 0
-477 322 0
90 -798 0
-263 -185 0
-544 -111 0
566 328 0
-372 804 0
-743 293 0
-66 -822 0
107 -679 0
-706 -398 0
-187 589 0
161 -808 0
-235 -144 0
-646 797 0
572 689 0
691 -348 0
412 -236 0
346 -31 0
-797 349 0
-410 -550 0
-744 363 0
580 354 0
146 -630 0
820 809 0
-467 -720 0
-1 22 0
570 617 0
315 659 0
-539 -739 0
136 -97 0
-410 629 0
136 -144 0
300 437 0
135 154 0
-103 -616 0
-122 407 0
426 -271 0
-785 97 0
6 451 0
-318 -163 0
531 699 0
-329 -692 0
-815 -137 0
392 -88 0
526 -353 0
-777 309 0
-212 745 0
676 150 0
682 327 0
306 -254 0
-766 627 0
569 -732 0
-41 120 0
-86 277 0
-76 694 0
543 285 0
-184 455 0
-43 15 0
-298 -136 0
-706 -701 0
-261 426 0
-433 -675 0
141 -178 0
-456 411 0
214 723 0
-233 -144 0
44 497 0
-652 -392 0
271 662 0
-219 -332 0
371 221 0
270 350 0
389 -229 0
656 643 0
-548 747 0
777 -740 0
-250 -666 0
657 -75 0
161 451 0
537 -261 0
-387 -824 0
