c NF
p cnf 1692 2538
-439 -1355 0
-2 816 0
140 -191 0
87 -1621 0
1661 1357 0
273 -862 0
-285 580 0
641 1188 0
851 30 0
1513 134 0
-1487 -1205 0
-504 -444 0
-236 -1274 0
337 -689 0
-245 -458 0
-1210 1043 0
-70 -1409 0
-782 -370 0
-1317 382 0
1509 280 0
-137 -1577 0
-1452 -1183 0
669 -1086 0
-630 -1310 0
1581 -1131 0
-1622 -1311 0
772 903 0
495 271 0
662 -973 0
1575 -629 0
503 1309 0
1565 94 0
1681 -954 0
419 -1506 0
1153 -622 0
325 -449 0
239 390 0
477 344 0
649 -851 0
146 -1120 0
1128 143 0
1296 1354 0
-1508 1393 0
-1558 1420 0
403 634 0
1065 1341 0
-1134 161 0
4 -480 0
-460 512 0
-183 960 0
663 1646 0
451 -515 0
-1227 -1173 0
400 -1082 0
-594 -1344 0
-1564 -253 0
115 -518 0
-1381 -1591 0
-321 226 0
-1592 -48 0
1183 -26 0
-354 1042 0
1230 1416 0
-33 -714 0
-214 -1382 0
963 -1290 0
1200 1122 0
-970 -751 0
1648 -56 0
-1041 -246 0
1610 1685 0
473 -146 0
111 828 0
-1627 -326 0
-337 1423 0
-1632 1358 0
-1549 -625 0
-1679 -466 0
-182 -857 0
-1308 764 0
-1418 -623 0
-309 -164 0
-49 1018 0
1232 -231 0
-1613 -87 0
1136 -460 0
-424 -153 0
-737 809 0
1114 -1530 0
580 -105 0
1017 -406 0
-31 -128 0
57 38 0
252 -945 0
1575 1463 0
-1633 -69 0
568 531 0
302 -1611 0
1353 -1188 0
34 -281 0
-1025 -1021 0
-1074 -814 0
-545 492 0
-326 229 0
-799 511 0
723 1405 0
-1021 655 0
400 479 0
-533 57 0
-539 -1611 0
-993 -426 0
478 107 0
-182 -322 0
1505 -1357 0
-1601 -1560 0
-1036 797 0
417 880 0
1561 -940 0
1517 106 0
-199 -464 0
-1367 -1214 0
442 -371 0
-487 125 0
-1269 856 0
-10 314 0
1058 1078 0
575 -768 0
1488 -406 0
-859 -1679 0
267 743 0
-1231 -895 0
1431 871 0
-1269 -951 0
658 493 0
-805 -655 0
1191 1029 0
-1360 1136 0
961 369 0
766 1213 0
-488 -983 0
-444 -852 0
-626 -1191 0
-937 127 0
1284 374 0
372 16 0
927 250 0
1522 -525 0
1041 -557 0
972 827 0
-1635 -164 0
-233 -621 0
568 381 0
169 927 0
-796 1354 0
-1064 188 0
-86 986 0
-390 -1444 0
316 -2 0
-907 1517 0
-146 -325 0
615 1349 0
1354 1144 0
-174 1122 0
1503 383 0
589 708 0
99 1319 0
1233 -267 0
-608 -682 0
1151 1240 0
1549 -955 0
698 -1355 0
-356 51 0
1369 -1399 0
-1484 -42 0
1418 259 0
-1623 141 0
1567 88 0
-1459 272 0
-90 1524 0
887 -783 0
609 1007 0
-945 1287 0
1380 -819 0
-1097 111 0
-951 -941 0
-96 -1249 0
1357 1063 0
-1623 -677 0
-1018 279 0
825 -1641 0
-1245 1001 0
918 -403 0
-221 -1543 0
1331 -90 0
-1089 -1487 0
-555 -531 0
-366 665 0
-967 1524 0
-121 -604 0
-1441 528 0
74 -679 0
807 1435 0
-1340 -767 0
-843 264 0
-1485 381 0
436 3 0
-354 -843 0
-1312 410 0
-195 -1417 0
-295 -1662 0
-858 -48 0
-1121 -1463 0
992 -227 0
999 -1393 0
-664 375 0
1602 -249 0
1169 501 0
-653 -569 0
185 -917 0
-151 929 0
-1236 -1521 0
-695 -50 0
1577 476 0
761 -506 0
979 199 0
1295 -856 0
-622 1689 0
-1288 -1090 0
873 492 0
-1658 -468 0
-303 -274 0
962 -1398 0
1563 748 0
883 -425 0
-149 -12 0
1512 114 0
-1319 170 0
1437 1578 0
1496 436 0
888 -475 0
1301 348 0
-151 1296 0
-1399 906 0
-1347 258 0
-1495 863 0
579 -622 0
-1297 -1067 0
-406 1005 0
202 1551 0
-780 -1288 0
1165 -1690 0
818 1161 0
1582 -217 0
-993 -1603 0
-1060 396 0
1454 -728 0
-28 1143 0
-1214 801 0
-445 -767 0
-912 -1680 0
267 -105 0
850 -782 0
-1599 -553 0
-449 421 0
1069 72 0
1458 -1478 0
-227 313 0
-1254 -422 0
-1438 597 0
-1487 1588 0
-1665 779 0
-1492 -1232 0
402 1516 0
1173 -1585 0
-156 -1564 0
774 188 0
762 279 0
-460 -438 0
-518 -188 0
624 44 0
617 -1383 0
-455 901 0
-1638 -571 0
-655 -37 0
829 1366 0
1159 1225 0
-1381 -1106 0
1251 719 0
1301 -78 0
184 -457 0
-271 925 0
1233 -1315 0
907 -1148 0
1613 1581 0
556 824 0
492 588 0
354 1129 0
-218 -346 0
-1558 1462 0
1205 602 0
687 847 0
-992 686 0
111 901 0
1261 -1318 0
-1332 -1166 0
141 -540 0
-1452 -913 0
782 -56 0
636 -1196 0
-1191 949 0
1150 -938 0
310 -1185 0
-519 360 0
-238 -976 0
-577 1203 0
-210 955 0
936 -467 0
169 -418 0
99 688 0
1548 -409 0
713 -1240 0
659 -152 0
1149 106 0
866 -1118 0
962 770 0
809 -958 0
-1182 1203 0
-351 -1592 0
-436 726 0
1346 -1569 0
-523 -1466 0
-111 -1197 0
-764 224 0
345 1299 0
117 363 0
-939 810 0
-733 1174 0
755 -456 0
-993 -467 0
270 -1409 0
968 1505 0
-115 -1402 0
959 1306 0
961 1219 0
5 -389 0
-194 -328 0
-398 -297 0
1413 426 0
1287 600 0
39 -496 0
1659 45 0
1221 -145 0
801 796 0
204 -1535 0
-1478 -1023 0
872 593 0
1356 -28 0
-1274 -1117 0
341 1532 0
-45 1686 0
-1173 -208 0
818 791 0
888 1192 0
612 -564 0
1305 -470 0
32 -878 0
1337 87 0
410 -204 0
-1349 229 0
1653 571 0
-1135 -1599 0
-224 -895 0
524 -211 0
-535 -349 0
419 -425 0
-727 -494 0
-1314 -962 0
-1460 -995 0
859 809 0
1671 -759 0
-1158 387 0
-1403 74 0
202 -1028 0
-1675 -1627 0
490 -1223 0
92 -569 0
-17 -108 0
-1028 1069 0
1002 1043 0
948 1550 0
828 -326 0
-516 -223 0
-1614 1153 0
-850 -1323 0
1175 955 0
411 1307 0
691 -894 0
-1354 -654 0
-1449 -1567 0
-447 832 0
-224 -1327 0
-22 1425 0
1277 -667 0
-611 1392 0
684 215 0
-592 -228 0
-1193 -835 0
958 -1238 0
-540 -108 0
1519 1566 0
1331 -224 0
576 -1507 0
-2 -869 0
1660 1242 0
1375 48 0
38 -278 0
51 68 0
-362 1330 0
477 -1677 0
-1592 -1589 0
285 -351 0
-410 -1677 0
-1603 -1081 0
703 -663 0
-1568 592 0
1324 1476 0
399 -109 0
1118 849 0
580 297 0
1188 -486 0
-86 674 0
-31 -1386 0
923 -792 0
-742 -1501 0
-1085 1425 0
1279 -1076 0
489 1305 0
391 -728 0
-362 -476 0
1328 -957 0
1189 261 0
1498 1619 0
120 732 0
-604 1037 0
-166 -1428 0
934 961 0
1029 356 0
-1503 633 0
519 1594 0
-410 -1631 0
95 1541 0
1655 -785 0
1366 -932 0
1479 -358 0
938 -77 0
410 -1162 0
1053 -1210 0
262 960 0
-464 281 0
203 1084 0
-1068 93 0
-1092 617 0
1670 -305 0
62 494 0
386 -95 0
-1666 -1146 0
154 1616 0
-314 -992 0
-1679 -287 0
96 375 0
281 1245 0
-1316 -1027 0
-531 382 0
-122 -1251 0
-583 -1404 0
350 117 0
1659 -483 0
1490 -1437 0
-6 433 0
-42 1235 0
-1394 -137 0
1284 1327 0
-682 -20 0
-889 -1469 0
1549 -1282 0
1441 -820 0
-1427 -631 0
-1249 -31 0
-395 129 0
1387 1015 0
-8 -905 0
-1185 -824 0
-1077 -63 0
-576 -446 0
-1400 -259 0
-1281 -208 0
1165 -384 0
-249 -153 0
601 1690 0
-776 -1403 0
1454 -516 0
-234 -519 0
515 -133 0
906 1458 0
-314 1135 0
1287 1002 0
842 -1444 0
-186 502 0
801 -466 0
1646 289 0
-311 -1652 0
-653 -311 0
-635 1431 0
-95 -586 0
1675 -676 0
-528 117 0
1004 -1274 0
-1213 1579 0
473 1037 0
-1682 947 0
-712 -1219 0
279 902 0
52 -683 0
158 1074 0
617 290 0
825 -839 0
58 1010 0
1200 -563 0
405 827 0
-70 -90 0
890 -399 0
1553 -763 0
967 -834 0
-537 29 0
145 999 0
1270 404 0
-1053 -1142 0
624 -1329 0
-45 1683 0
1033 -520 0
-1656 -858 0
-400 1339 0
-76 1613 0
-430 -1281 0
-23 -1394 0
1339 -653 0
914 348 0
-1087 883 0
-305 -872 0
1198 -1471 0
528 47 0
-1469 -81 0
-519 686 0
292 -1103 0
184 1627 0
-1328 -626 0
-1434 1082 0
481 -321 0
150 1439 0
-1382 865 0
-736 -878 0
1010 913 0
1364 640 0
-1501 -885 0
-45 -985 0
-500 -299 0
1380 561 0
-1518 -555 0
581 1276 0
-787 111 0
-1395 -110 0
1437 -186 0
1182 -727 0
371 311 0
-1426 -919 0
1147 708 0
-444 1155 0
-1424 -1651 0
-395 -1560 0
1316 1200 0
-1593 -317 0
353 1070 0
-1219 996 0
1094 -1141 0
-202 -143 0
293 -1517 0
-1402 -826 0
-187 761 0
1598 -441 0
-509 -804 0
1153 -622 0
79 -1545 0
-947 1372 0
-474 -873 0
1270 10 0
95 237 0
1387 1504 0
1109 -1665 0
272 -1281 0
-110 -223 0
-819 864 0
-1605 -936 0
355 -654 0
998 386 0
-718 -1078 0
161 -465 0
-339 -1617 0
1272 419 0
1660 -575 0
-1096 1504 0
-1610 1098 0
-265 1270 0
505 -955 0
1573 604 0
571 -1213 0
1343 566 0
-489 534 0
-465 288 0
1093 -317 0
-294 -1186 0
-1064 167 0
-867 501 0
511 -458 0
-36 -176 0
476 -813 0
-879 1497 0
-1188 1161 0
1365 858 0
-486 1152 0
-647 -710 0
1387 673 0
1445 -1304 0
-1558 -1006 0
-1586 -1347 0
513 -1007 0
-1495 675 0
969 1155 0
113 1497 0
1673 951 0
156 -108 0
659 1340 0
-1443 -1484 0
-1513 -484 0
3 308 0
80 -522 0
-68 682 0
894 -544 0
793 -108 0
1100 608 0
184 707 0
-882 752 0
-467 566 0
781 1167 0
1509 1576 0
847 1512 0
241 769 0
690 -97 0
879 -436 0
-429 -254 0
801 -1201 0
-863 1236 0
1488 966 0
1277 1069 0
1658 1220 0
-1554 -884 0
524 799 0
-351 1216 0
1543 355 0
996 -1094 0
-1520 -856 0
819 39 0
-775 -875 0
1026 -265 0
-541 -955 0
112 1623 0
712 -715 0
1233 1401 0
662 -14 0
868 -308 0
-1240 757 0
1083 1661 0
-1016 1180 0
91 1548 0
410 625 0
1324 1677 0
1492 -92 0
-931 -1021 0
-139 -1320 0
845 -914 0
-1270 1036 0
209 1255 0
958 -262 0
37 -956 0
322 -1658 0
-609 -1591 0
-209 -817 0
348 313 0
-17 1604 0
-626 -169 0
-233 1136 0
193 11 0
-1363 1599 0
-125 -1222 0
1163 1016 0
-22 307 0
-829 -115 0
-756 -520 0
-644 1078 0
900 -82 0
388 554 0
138 1229 0
-737 -1568 0
-1542 716 0
-186 193 0
-1085 946 0
-742 731 0
-587 -964 0
83 -1622 0
-1373 -261 0
1670 -1501 0
1228 -153 0
-1381 1064 0
409 -652 0
-547 630 0
-1508 716 0
-1032 927 0
909 1435 0
1573 230 0
138 579 0
1016 736 0
1286 -1452 0
1316 -1468 0
-813 -1210 0
-228 -83 0
-1170 544 0
-1211 1592 0
-676 1491 0
-185 -287 0
-622 999 0
-133 -867 0
-357 1013 0
-1092 -1580 0
-190 223 0
1571 1088 0
-1214 -718 0
-1521 378 0
-431 1493 0
1512 -1068 0
1097 -1519 0
880 960 0
1369 -1143 0
164 94 0
-227 365 0
-588 -1217 0
-1015 -1536 0
-973 613 0
1205 -264 0
963 -1056 0
-1118 -1084 0
-594 1545 0
-1159 560 0
1004 -198 0
1322 -756 0
898 498 0
-1373 1351 0
1162 841 0
-1397 763 0
-1341 1202 0
-1001 596 0
-647 1014 0
-1482 -374 0
-604 877 0
1255 983 0
-1318 1534 0
1367 -387 0
-594 -102 0
429 909 0
701 -213 0
257 563 0
-539 -402 0
523 1481 0
886 904 0
361 -677 0
154 1550 0
1553 1511 0
138 235 0
-493 581 0
-1507 -942 0
1089 665 0
1690 51 0
-714 916 0
999 -333 0
-1104 542 0
896 -144 0
-122 -1638 0
-241 -756 0
575 -848 0
-386 1397 0
-873 -839 0
201 1017 0
158 -834 0
-1035 662 0
-1609 -1196 0
-569 -1071 0
267 1052 0
906 1377 0
193 1604 0
1529 -277 0
1573 -1614 0
1491 -1174 0
-552 -476 0
1420 -322 0
963 1378 0
-657 1453 0
-287 1164 0
-450 1519 0
598 1013 0
-1264 -1609 0
138 -419 0
355 346 0
220 -976 0
-618 741 0
570 1087 0
-188 1226 0
764 1096 0
49 -144 0
992 -1196 0
-27 -352 0
1365 -725 0
72 -499 0
1656 -325 0
-700 -679 0
-1068 -766 0
773 765 0
1008 587 0
383 1464 0
-466 -1059 0
180 -930 0
-9 -368 0
1345 -430 0
721 1317 0
-229 -1663 0
-1354 364 0
981 -803 0
479 1307 0
-238 -1310 0
445 -1105 0
-1489 1461 0
845 1568 0
827 102 0
-1117 300 0
-890 942 0
681 -852 0
1100 -1458 0
505 708 0
-252 357 0
-934 478 0
-816 366 0
1257 -745 0
-1154 -67 0
1146 1024 0
759 913 0
-499 -147 0
-1081 1637 0
-302 -574 0
397 901 0
-15 -535 0
-1103 -675 0
293 -148 0
1218 -332 0
1660 1224 0
-1244 -300 0
-281 -552 0
400 81 0
-438 1230 0
-1070 823 0
479 1108 0
935 944 0
205 1683 0
-1387 967 0
414 -706 0
577 132 0
-506 -1308 0
-1032 1358 0
806 658 0
1320 1205 0
1187 428 0
-936 1409 0
-971 873 0
842 -41 0
318 618 0
-352 -654 0
-776 -466 0
1022 -574 0
-384 -1229 0
-392 1005 0
-1286 -918 0
-764 -654 0
-483 1012 0
-653 -1534 0
1537 5 0
-1309 1065 0
-1337 -1011 0
775 -359 0
997 -1678 0
-104 1692 0
309 1238 0
-1166 -1178 0
-1644 -1666 0
256 847 0
621 940 0
990 -1409 0
-342 604 0
-445 -174 0
-977 690 0
1220 -182 0
837 -1150 0
-253 -1261 0
1451 1390 0
-591 -1190 0
-1396 -1282 0
1532 1671 0
-284 -619 0
-1564 51 0
-1160 -1031 0
875 -11 0
-1022 913 0
-1529 477 0
-305 376 0
845 1555 0
-535 1550 0
195 -326 0
-1451 633 0
99 -1386 0
1032 -422 0
-1653 -41 0
602 1404 0
-1152 1 0
1650 1538 0
-1444 -266 0
-618 -1543 0
651 -47 0
602 213 0
1345 542 0
-321 1307 0
802 -114 0
1563 229 0
331 -228 0
1573 -76 0
-1389 160 0
-154 1602 0
1217 -432 0
-565 -741 0
1484 1496 0
1617 -724 0
-736 581 0
1650 1665 0
203 1175 0
196 124 0
-1076 1564 0
431 105 0
-1631 852 0
-1285 517 0
1098 -1568 0
-155 1348 0
726 1070 0
-1052 -1246 0
502 1607 0
-474 358 0
-796 1653 0
-214 1144 0
1241 -434 0
-211 -1319 0
1370 -1335 0
1410 -1199 0
-230 -1532 0
-1444 1150 0
1425 -298 0
-391 1090 0
-1039 -1136 0
160 844 0
846 -231 0
-370 -343 0
1022 -245 0
1657 718 0
-244 763 0
-955 350 0
444 -381 0
-881 -488 0
-1239 -1152 0
-785 -1269 0
11 -990 0
1372 1481 0
-791 -919 0
-679 -108 0
1155 -45 0
958 1291 0
-1165 -1638 0
-535 1633 0
-1001 1193 0
-1644 440 0
-1635 -1655 0
1447 -249 0
-1045 558 0
1184 1335 0
-265 -1185 0
427 767 0
-543 -368 0
1066 -1232 0
-1546 1134 0
1305 -601 0
629 1605 0
963 1618 0
1367 -1531 0
737 82 0
-318 70 0
552 -754 0
-165 -1227 0
-866 649 0
29 -1052 0
234 -976 0
184 288 0
764 -714 0
1675 1295 0
-733 -258 0
-446 1460 0
-1471 1147 0
550 13 0
-829 -586 0
-616 4 0
-1071 361 0
596 62 0
-714 1431 0
1094 870 0
696 -1357 0
-1102 1093 0
482 -766 0
1502 -446 0
27 -1116 0
-683 -115 0
-1125 -1415 0
1424 665 0
-914 -1655 0
442 480 0
-991 -1656 0
-1643 881 0
560 1439 0
-1418 864 0
883 1347 0
149 -557 0
350 1619 0
298 1436 0
-1627 468 0
-957 -1563 0
-1584 452 0
-523 1541 0
101 -247 0
-64 -439 0
-567 -437 0
-135 -999 0
-1546 215 0
982 1025 0
411 1586 0
-1098 968 0
-792 140 0
1473 822 0
-1360 -716 0
-461 -77 0
-1321 433 0
-775 -422 0
-1568 -1046 0
-995 -539 0
593 -1635 0
-122 775 0
293 771 0
1445 -668 0
-1176 383 0
634 1260 0
646 581 0
618 -620 0
-771 -1579 0
-1231 1399 0
-603 1550 0
471 847 0
906 1636 0
-784 -247 0
423 -1542 0
823 1520 0
-830 -1271 0
-198 -60 0
790 1267 0
-1126 -1117 0
1545 -359 0
1493 -353 0
-68 -233 0
525 -1011 0
-759 1474 0
1606 1118 0
1591 1294 0
1003 1369 0
-676 -92 0
-401 1546 0
-1021 1365 0
1376 1250 0
-4 -1364 0
-947 649 0
195 5 0
-1181 -944 0
-1421 1043 0
1528 1038 0
-1125 765 0
1334 -413 0
-280 133 0
1229 960 0
1100 925 0
860 846 0
1018 -253 0
-574 946 0
-1051 1460 0
-1460 -457 0
841 1288 0
711 -870 0
92 -1691 0
-954 -1237 0
-53 1372 0
1652 -1054 0
213 -315 0
-1371 -1653 0
-417 -1459 0
272 -1157 0
-1011 -54 0
896 -205 0
1557 1371 0
-217 -1683 0
-873 625 0
-593 1083 0
225 -1164 0
-307 -654 0
885 -740 0
-1687 610 0
1497 -950 0
1640 843 0
-315 92 0
-1270 -1513 0
432 203 0
200 781 0
1220 1168 0
-290 1145 0
-194 1495 0
159 259 0
315 793 0
1041 669 0
-1380 1601 0
1088 454 0
1678 -938 0
-19 -897 0
597 1167 0
231 860 0
873 304 0
120 -1531 0
-523 -71 0
-1475 865 0
-407 -1300 0
-179 111 0
-417 -1386 0
444 -1444 0
662 -186 0
-1283 -462 0
-1168 -647 0
906 -1024 0
1380 896 0
118 1689 0
-1156 -218 0
-650 497 0
-1616 -1528 0
-1141 12 0
1627 -1556 0
-85 845 0
1533 -217 0
-396 -54 0
760 1202 0
1319 -296 0
-146 -1547 0
-362 -840 0
-123 1372 0
-356 961 0
-727 -1512 0
-249 -142 0
653 125 0
-208 -66 0
-1574 -1001 0
1492 -403 0
-769 -1080 0
1222 935 0
-64 537 0
-919 779 0
-954 1565 0
1234 1020 0
1683 -1369 0
-1112 -1293 0
-1073 -1116 0
-887 -661 0
1528 506 0
-870 -1149 0
-1227 1543 0
1584 160 0
-1070 826 0
66 -521 0
-42 84 0
-418 -1349 0
-337 928 0
662 -678 0
1624 -907 0
1238 -1049 0
-1321 1613 0
-1649 481 0
-1053 -541 0
-96 -213 0
-1069 257 0
556 -1376 0
118 148 0
-877 -1521 0
647 642 0
-707 410 0
-752 -98 0
682 -973 0
141 -135 0
-39 -100 0
-471 -967 0
1159 150 0
1585 -195 0
-1081 237 0
-787 1419 0
99 1295 0
300 -829 0
-304 -1356 0
1451 1689 0
13 950 0
-843 -339 0
724 -1264 0
-25 153 0
-777 551 0
-915 -993 0
1107 -487 0
1224 325 0
785 501 0
682 1664 0
-653 -758 0
73 -537 0
-1611 1301 0
451 1180 0
503 1350 0
748 817 0
-901 -1359 0
696 -535 0
175 -1271 0
-1690 -1214 0
-508 -515 0
-537 -1329 0
1465 1290 0
691 -1663 0
473 -644 0
1065 -1475 0
-1478 42 0
1231 151 0
225 -1466 0
-622 1620 0
-1036 -592 0
665 486 0
779 1545 0
-1645 1471 0
1203 -1086 0
814 31 0
578 -528 0
1261 -1649 0
640 -1368 0
-29 -1421 0
-1212 513 0
-11 1065 0
936 206 0
958 -271 0
929 -429 0
-1256 -1559 0
293 -406 0
-1155 1088 0
602 799 0
-1228 249 0
558 323 0
-1234 -707 0
-596 -164 0
1660 -1585 0
-1339 -1312 0
-309 1473 0
-1163 1285 0
582 -641 0
1639 1052 0
-1503 -1442 0
-56 -563 0
1551 1600 0
-1282 28 0
491 205 0
-592 208 0
580 -1040 0
442 -359 0
1118 -1521 0
-412 -1296 0
-785 -1053 0
-1500 -1484 0
-1068 464 0
1361 -126 0
-57 -427 0
-833 1216 0
370 502 0
-56 -446 0
1464 741 0
872 998 0
-700 1008 0
-816 760 0
-705 1280 0
1684 16 0
-1366 6 0
837 -830 0
-1005 909 0
-734 -1199 0
38 1221 0
1644 567 0
-637 -91 0
704 -869 0
-1232 -1180 0
-332 1017 0
1687 -255 0
-1106 408 0
1525 473 0
772 1392 0
-1245 321 0
-1263 485 0
-1424 740 0
358 1600 0
-641 490 0
-250 -1480 0
-516 -862 0
1026 -943 0
-1494 581 0
1207 -564 0
-1297 1474 0
-1675 1079 0
632 1335 0
627 210 0
-461 303 0
1540 -1147 0
-935 -671 0
1339 -529 0
1452 797 0
-136 180 0
87 178 0
1491 -1428 0
1463 -166 0
-1286 610 0
-830 1468 0
-537 -209 0
617 -1146 0
105 1668 0
-250 -343 0
-570 -392 0
946 769 0
-1605 -1625 0
-763 791 0
785 -418 0
1342 -522 0
1631 -1091 0
174 1397 0
1562 -110 0
1526 -840 0
593 -574 0
-500 -646 0
429 -1224 0
1261 588 0
1285 6 0
-1174 1128 0
-1472 -334 0
-1411 -295 0
-409 1182 0
70 143 0
-1501 19 0
485 -1390 0
790 -104 0
-1467 869 0
-38 1092 0
-226 -1591 0
-1154 75 0
375 1354 0
43 -677 0
-882 1327 0
-27 -1522 0
-77 -771 0
-333 -1302 0
-1215 348 0
-583 -570 0
1648 -889 0
-171 997 0
1362 -729 0
1241 475 0
-201 1525 0
-363 36 0
1193 272 0
-544 1243 0
1453 1591 0
-768 929 0
-1398 -757 0
942 1360 0
1610 1015 0
-1357 -60 0
-1255 1579 0
1458 1316 0
151 376 0
446 869 0
-865 275 0
753 -714 0
426 -1229 0
-13 -1457 0
-1629 -603 0
-916 -1277 0
-1193 900 0
791 1270 0
-642 1387 0
1169 -649 0
-103 -1271 0
-1208 621 0
-751 1228 0
-746 -205 0
-552 -921 0
-1483 44 0
1632 1633 0
791 -789 0
1546 -700 0
111 -540 0
-1112 1143 0
1392 -373 0
-617 -626 0
-612 1509 0
1094 133 0
903 901 0
-1544 737 0
-1579 -204 0
-915 134 0
-561 1369 0
780 1602 0
186 1065 0
195 256 0
602 -881 0
-1583 736 0
1563 -944 0
1326 225 0
1441 162 0
-1047 -1373 0
97 -870 0
765 -1294 0
-73 -1049 0
-1400 212 0
1298 -694 0
773 -224 0
711 -752 0
-1587 -576 0
-93 -1007 0
-425 -878 0
528 1619 0
-879 -1478 0
-1298 -1571 0
1308 -1373 0
1113 1399 0
-1625 1534 0
1366 -219 0
-1120 -1562 0
-706 -228 0
774 -1459 0
1447 784 0
-411 806 0
-1601 713 0
-1111 -1298 0
-1075 -176 0
-531 -564 0
-1332 -1160 0
150 -398 0
-1126 -143 0
-1675 1483 0
-268 -468 0
1165 -1069 0
608 -857 0
68 -1149 0
-1357 925 0
577 29 0
-1633 -1669 0
1319 1235 0
58 -470 0
-794 1027 0
779 1262 0
920 -677 0
-1438 706 0
1124 1039 0
-456 1065 0
-1237 32 0
-1444 -541 0
-497 1261 0
-26 919 0
851 -953 0
-273 -1538 0
-680 -467 0
950 -771 0
1658 -859 0
-951 -1108 0
-98 1083 0
-1473 -331 0
300 101 0
-146 -1096 0
-1074 -840 0
-570 -663 0
1592 615 0
-139 346 0
1487 -1313 0
593 931 0
219 -1450 0
1375 1639 0
125 909 0
-1606 -534 0
513 -1313 0
-457 -267 0
1387 1318 0
1215 -796 0
58 1216 0
70 -33 0
1462 502 0
-1354 -1356 0
-80 -794 0
-222 623 0
1336 -1323 0
-1679 -245 0
-1385 -1003 0
-919 1379 0
940 -1280 0
-445 1496 0
-1568 1097 0
945 861 0
-9 -696 0
607 -783 0
-1326 -187 0
1581 -1459 0
-600 -228 0
-514 341 0
1295 -321 0
1375 1018 0
429 175 0
-681 -1053 0
-1533 -1686 0
801 -1430 0
-816 -1118 0
-1007 578 0
321 -752 0
1591 -422 0
823 -280 0
1167 -751 0
-976 1526 0
-1655 1297 0
-1438 1492 0
-1678 -319 0
-1544 2 0
-461 -1371 0
-1105 361 0
-546 164 0
-100 945 0
-901 385 0
773 684 0
231 1017 0
-1587 -445 0
1578 -152 0
92 -1450 0
-264 -1529 0
-1638 -1651 0
-1481 1423 0
-911 -322 0
-1074 910 0
-1213 -1664 0
1410 897 0
-320 320 0
-268 -1473 0
455 188 0
-1078 -503 0
676 -1638 0
-570 1123 0
1648 1351 0
-94 -1187 0
-43 1453 0
872 13 0
856 778 0
-474 -707 0
-354 -980 0
-811 -1478 0
127 1130 0
810 341 0
733 -526 0
493 -1359 0
1639 494 0
21 -331 0
-229 721 0
776 1629 0
-142 707 0
-414 753 0
239 678 0
-767 271 0
380 1379 0
-917 1558 0
905 -689 0
-22 247 0
-37 1429 0
-1202 -1691 0
376 1338 0
739 -1038 0
1685 1368 0
-1384 1600 0
823 -1124 0
65 -785 0
-991 1175 0
-1144 1683 0
1291 -775 0
-1506 -214 0
-816 -1423 0
858 -1672 0
-863 488 0
-567 -407 0
1357 -1101 0
1008 463 0
-337 -1075 0
-299 -1128 0
-1506 -519 0
-1602 1331 0
-852 107 0
1501 -1320 0
-1375 241 0
-1163 900 0
1413 1550 0
-536 -19 0
284 353 0
127 1058 0
-796 1501 0
323 -1549 0
-1619 -547 0
-245 423 0
18 926 0
44 1342 0
775 1239 0
-307 -224 0
1235 -1364 0
370 1348 0
1613 276 0
1229 837 0
799 -1160 0
-211 57 0
360 -763 0
762 173 0
781 -777 0
-1427 -470 0
-1098 1525 0
-1216 -457 0
-1138 1540 0
703 1643 0
-623 832 0
-152 426 0
-217 -325 0
1461 28 0
536 -1325 0
705 1609 0
741 -327 0
-249 -906 0
1133 -1089 0
934 927 0
-147 -425 0
1230 -1647 0
444 1060 0
842 -1078 0
697 -805 0
225 23 0
1525 826 0
1335 -346 0
883 1501 0
-323 -195 0
-1566 1251 0
142 874 0
723 1174 0
1592 1286 0
-1148 833 0
-1385 -1306 0
315 -1259 0
-808 -278 0
1140 -351 0
-573 314 0
397 -748 0
91 865 0
1562 -570 0
62 467 0
388 906 0
-182 -1190 0
540 657 0
1431 -878 0
-357 -1231 0
1599 758 0
-1645 882 0
32 -1224 0
-1652 -1600 0
628 -1292 0
14 -1187 0
-341 1671 0
1129 -1552 0
390 187 0
414 -913 0
1589 -1080 0
926 -1352 0
1450 -289 0
-438 328 0
-1363 694 0
-901 -629 0
1630 994 0
183 1590 0
1435 -583 0
698 -209 0
701 -41 0
1358 -1587 0
1622 1432 0
-1564 346 0
-1653 -422 0
1522 1615 0
1290 391 0
-1122 -596 0
-1106 -174 0
920 1486 0
-571 947 0
-1206 -521 0
-228 883 0
978 820 0
-438 528 0
-1513 338 0
551 1568 0
161 -864 0
302 -1588 0
-1086 -196 0
861 -1064 0
383 -860 0
678 -541 0
6 1048 0
1386 1639 0
-25 -1446 0
-1323 -981 0
597 -499 0
1265 -1498 0
1605 -836 0
-940 324 0
-346 1072 0
1684 -445 0
595 558 0
1285 1519 0
-60 120 0
1357 1573 0
-515 541 0
457 -147 0
-1219 1445 0
-666 -477 0
-671 -64 0
403 -1378 0
-1052 16 0
1115 1400 0
832 -1593 0
1284 1364 0
1372 -274 0
504 691 0
1175 308 0
1137 107 0
-480 704 0
997 1571 0
317 -583 0
61 328 0
-805 801 0
1083 1570 0
1367 1573 0
500 692 0
-693 772 0
-1558 -1448 0
-1644 517 0
-261 -1061 0
-1602 820 0
-1598 -753 0
-1040 1526 0
-909 621 0
-454 -199 0
-80 391 0
-1019 980 0
740 -1274 0
-448 672 0
-955 -1296 0
1431 -209 0
-1292 915 0
656 -1059 0
-1500 -322 0
-1383 -1027 0
959 355 0
-1652 -768 0
-109 -642 0
-234 -976 0
1159 1640 0
97 464 0
966 -233 0
-17 1228 0
359 203 0
997 -1048 0
-42 476 0
1639 -1316 0
91 1251 0
-1444 955 0
-109 -461 0
180 -236 0
-801 -1667 0
-605 1596 0
-803 551 0
1594 1548 0
-1214 171 0
1380 -565 0
-619 -76 0
172 737 0
-492 1458 0
860 -710 0
-676 691 0
1038 -1080 0
297 509 0
1354 709 0
-605 525 0
-478 -914 0
-214 -471 0
-654 -1249 0
-307 -1087 0
1322 390 0
-893 -518 0
1287 -675 0
258 414 0
194 1654 0
-216 -1335 0
279 -1466 0
-1517 -77 0
622 355 0
1399 1681 0
327 -93 0
-1349 184 0
165 1396 0
130 -352 0
935 941 0
-1176 1632 0
-1285 -630 0
1594 51 0
-1559 -64 0
1159 -1139 0
721 -991 0
-1611 -620 0
6 -659 0
1413 551 0
501 1521 0
1307 -1691 0
-509 1350 0
-471 -233 0
1106 -1316 0
-1579 34 0
-531 -1011 0
1424 1012 0
1458 14 0
98 -697 0
-489 478 0
-46 -1463 0
-202 1651 0
-462 240 0
175 -1459 0
-1565 -746 0
685 -822 0
540 -1202 0
1421 -517 0
-549 -260 0
-626 -266 0
-881 259 0
-616 -594 0
1479 1200 0
-1680 875 0
-1093 486 0
948 377 0
123 336 0
309 913 0
-585 -1009 0
-200 1600 0
-1176 -1178 0
-494 351 0
-1028 -995 0
-21 -953 0
193 -1154 0
-834 1450 0
-731 -108 0
490 -434 0
1463 -1474 0
506 1680 0
1161 -250 0
29 -338 0
-538 -249 0
-1532 -1141 0
1606 -993 0
-465 1512 0
70 652 0
1367 -141 0
-709 -893 0
-1150 181 0
1011 1027 0
1267 -507 0
-747 1673 0
-230 451 0
-1226 892 0
-83 913 0
-517 609 0
662 61 0
-666 -1060 0
-1413 -1103 0
-1549 -906 0
329 -182 0
1654 -1044 0
-1329 1069 0
-710 321 0
1301 104 0
1615 1095 0
-1431 -366 0
1589 891 0
-1523 536 0
-978 275 0
-1588 1563 0
-543 883 0
-305 1032 0
1004 631 0
-1622 -369 0
964 935 0
-1283 -326 0
1189 905 0
524 1112 0
-1687 -1672 0
920 774 0
1308 -199 0
-1599 -744 0
-780 722 0
1433 1221 0
1560 -200 0
799 1303 0
-244 766 0
-77 -147 0
-504 1296 0
-147 1462 0
-471 -501 0
40 -795 0
-271 -956 0
719 -122 0
-307 1322 0
1529 -608 0
-1347 162 0
1050 719 0
-1312 160 0
90 1180 0
-1585 911 0
1090 1504 0
-1422 -630 0
-1591 325 0
959 -520 0
-113 -1602 0
-1538 1124 0
-1472 1322 0
-1091 1109 0
251 1524 0
-1433 -705 0
587 -145 0
673 1665 0
490 -1291 0
-817 -794 0
-555 -106 0
-1673 -687 0
-819 1029 0
640 -488 0
-1012 1221 0
-1224 -1003 0
-1194 -470 0
-1206 -327 0
-1034 -1245 0
675 -152 0
1130 359 0
-1102 43 0
-1267 -1328 0
-147 1301 0
1293 -729 0
1042 623 0
400 -1212 0
-204 542 0
940 2 0
483 -255 0
-672 -465 0
1287 297 0
1221 625 0
663 183 0
-1409 1144 0
178 -1310 0
-1421 151 0
-1623 442 0
469 -1099 0
-767 1411 0
-1061 -42 0
258 -895 0
-1390 -982 0
-1485 75 0
-74 302 0
1147 1055 0
985 -497 0
-774 -75 0
-680 -1278 0
-536 -714 0
-19 -137 0
1041 428 0
1420 -1058 0
10 -547 0
793 836 0
-720 -353 0
-413 1184 0
315 -1448 0
-393 888 0
305 1481 0
-524 -1110 0
860 -1038 0
1509 1316 0
-358 -4 0
502 1650 0
1534 444 0
-1344 906 0
1128 -864 0
-1246 -1528 0
441 -796 0
-181 934 0
-1443 300 0
-307 -1066 0
219 -1031 0
116 -844 0
-1345 549 0
1491 405 0
568 -959 0
-1229 1026 0
-1258 -291 0
-654 -1390 0
874 1431 0
-1103 581 0
-1212 490 0
-534 1098 0
-460 -623 0
439 -744 0
-2 -1384 0
-1564 -177 0
860 1410 0
118 -100 0
203 -223 0
172 1279 0
-1337 -1598 0
1370 -491 0
1162 654 0
-786 -924 0
1009 -1302 0
-319 331 0
130 1497 0
-859 -1512 0
-1363 958 0
-1078 -938 0
1241 -872 0
258 800 0
-712 -351 0
-43 -1665 0
1440 -514 0
599 -1224 0
-999 99 0
-1000 -1539 0
-128 417 0
-694 1583 0
1043 623 0
1333 207 0
208 300 0
127 24 0
-759 1408 0
1687 503 0
-149 -1572 0
1322 1430 0
1454 -370 0
258 -1336 0
-1006 36 0
-1208 453 0
-516 1655 0
261 -271 0
-955 -250 0
967 -1390 0
-382 -172 0
91 579 0
93 -487 0
-582 161 0
1548 1617 0
1332 442 0
501 -1304 0
589 1184 0
1378 -939 0
-272 549 0
-5 1431 0
-445 -646 0
-1349 -1052 0
-1438 767 0
-300 169 0
-941 1374 0
324 -1423 0
1280 383 0
225 26 0
-1035 158 0
-509 -1136 0
-1274 553 0
-863 -685 0
-1517 -497 0
1202 696 0
1620 334 0
-1337 -529 0
-795 -1685 0
801 990 0
-977 -758 0
-1077 1590 0
-1283 -240 0
1431 1606 0
-437 -78 0
1301 429 0
839 275 0
-941 -55 0
486 -1667 0
770 -4 0
-1552 -638 0
854 -875 0
-1520 1629 0
-138 372 0
826 1518 0
636 -270 0
-1674 925 0
-74 -487 0
-47 1524 0
-717 -309 0
290 -1186 0
-1590 820 0
-441 -268 0
-352 307 0
420 -145 0
-1035 1286 0
129 1205 0
-123 995 0
-1247 -78 0
-399 985 0
-149 -1606 0
-535 1526 0
254 827 0
353 -846 0
-1104 1016 0
1002 -813 0
1373 851 0
-422 -1686 0
-525 1655 0
1322 -1061 0
62 -344 0
-876 -1515 0
1415 -1495 0
-707 1610 0
1657 645 0
1505 1129 0
56 -41 0
1458 -1634 0
1635 -871 0
391 1088 0
1644 -1237 0
817 193 0
1541 -562 0
1442 -1091 0
-751 -1537 0
838 -844 0
-965 175 0
-1084 1333 0
13 -312 0
-1460 -1544 0
-1500 -37 0
944 1236 0
701 -1556 0
253 -1521 0
-1455 -1281 0
-1162 -430 0
-7 -1652 0
983 1115 0
-1679 -520 0
-1084 1457 0
-519 -466 0
-175 1385 0
869 400 0
1179 -76 0
220 -177 0
224 -750 0
57 1004 0
874 160 0
-148 -803 0
639 -764 0
1287 277 0
-1579 -1019 0
1520 -1645 0
-446 -851 0
374 879 0
427 1294 0
851 435 0
-1185 -221 0
-346 10 0
-1691 392 0
550 -277 0
1487 1486 0
59 -1689 0
1111 -1244 0
-220 947 0
72 -996 0
-113 1032 0
-303 -1066 0
58 1251 0
502 904 0
1637 1267 0
-173 1002 0
-1139 1229 0
1070 1220 0
-1097 609 0
-460 -715 0
1446 -585 0
-717 -1328 0
-765 -463 0
1259 881 0
-1530 1322 0
909 1129 0
638 -192 0
140 -357 0
1571 -1611 0
-1184 1670 0
-248 -1664 0
1539 -239 0
784 -1074 0
262 -1240 0
704 301 0
985 -664 0
1658 -983 0
887 815 0
794 -1234 0
639 1481 0
797 140 0
-153 -270 0
-114 -1614 0
1457 1276 0
1562 37 0
-944 -1228 0
-906 -600 0
397 -971 0
1041 -175 0
-47 -1081 0
-8 -829 0
1536 1235 0
1058 82 0
77 -1597 0
-1345 674 0
1375 459 0
804 837 0
-135 1237 0
993 639 0
-68 -1507 0
1182 1671 0
430 1525 0
-555 636 0
1420 -1673 0
-971 -1191 0
256 111 0
-242 593 0
360 -1529 0
927 1690 0
-205 -1111 0
1640 -988 0
728 1602 0
-224 -754 0
-1302 960 0
-1197 249 0
-139 -1284 0
1112 350 0
-1609 -446 0
220 -564 0
-1212 811 0
-991 -1669 0
1590 -822 0
-474 1509 0
-381 -1167 0
-1356 1634 0
1128 -1505 0
549 -217 0
-1117 1644 0
-36 -362 0
-1504 1536 0
773 -1490 0
503 -1405 0
216 810 0
-194 -898 0
-642 837 0
-451 645 0
903 -1154 0
1152 -28 0
1676 1369 0
-937 -233 0
50 1239 0
-1250 842 0
-460 -341 0
1079 -182 0
1050 -1520 0
1330 -603 0
1339 1317 0
1499 1114 0
-64 -1233 0
1328 258 0
998 -930 0
-1028 573 0
-875 969 0
899 -208 0
941 -100 0
-1050 753 0
-127 -1356 0
948 -1095 0
-548 -1102 0
597 531 0
-1356 496 0
129 -513 0
-143 772 0
-302 491 0
-533 -342 0
-313 559 0
1220 55 0
-358 1057 0
-1141 111 0
960 -1271 0
-918 -1574 0
-26 -848 0
-1419 -1099 0
-48 1195 0
-1534 1339 0
1627 -980 0
-1034 -305 0
191 -1626 0
-636 1423 0
567 857 0
1092 -1292 0
-544 300 0
-508 -819 0
-1140 472 0
1020 1689 0
1465 576 0
-1080 935 0
-1513 376 0
-796 387 0
-871 -1535 0
1016 261 0
860 250 0
-71 752 0
-1161 196 0
-399 868 0
446 -55 0
-907 106 0
-1293 1136 0
-241 -622 0
415 -1649 0
-315 782 0
-438 -727 0
556 1279 0
-148 -280 0
-214 -859 0
1439 -407 0
1518 -420 0
1434 -1418 0
858 968 0
1456 696 0
-1685 -1119 0
-858 -1305 0
400 -1467 0
-716 -1570 0
1519 -438 0
-750 -869 0
-230 -98 0
-350 845 0
-789 -43 0
-943 -1167 0
-148 1509 0
14 -1005 0
370 645 0
-866 1049 0
656 -115 0
406 -1657 0
1159 22 0
1130 -103 0
773 -904 0
606 1381 0
-129 1451 0
-546 1412 0
755 -45 0
1042 355 0
1353 -1077 0
-301 -25 0
617 -1371 0
-863 357 0
1331 1431 0
1001 1044 0
766 371 0
-218 1029 0
-804 -1144 0
763 1357 0
1557 1503 0
331 -146 0
-630 430 0
-960 -778 0
765 -757 0
-642 -147 0
736 1296 0
506 -165 0
1575 -209 0
440 1563 0
-221 165 0
-422 -1220 0
1146 863 0
-25 -17 0
1471 1443 0
1688 273 0
483 -917 0
-1062 -1434 0
-1099 648 0
-12 -1415 0
-558 1327 0
-1378 -1121 0
492 -354 0
-895 -1120 0
1372 419 0
-139 -925 0
-1008 1014 0
1462 -21 0
65 -1595 0
-1651 -1529 0
-1132 141 0
-1349 446 0
-1118 1307 0
528 -369 0
1324 -1302 0
1464 611 0
901 1617 0
-287 -87 0
467 1689 0
-307 -729 0
-1086 -693 0
1337 5 0
664 -1381 0
551 -189 0
1101 205 0
1551 -368 0
-843 -230 0
-1420 -148 0
159 -1623 0
-1500 36 0
1627 -1669 0
-622 -898 0
206 -596 0
-45 -1377 0
987 -331 0
577 1163 0
992 769 0
1462 -1676 0
-1415 -474 0
-95 1660 0
-1080 -788 0
848 1536 0
-727 177 0
-525 -1401 0
-501 -137 0
1102 -976 0
1556 661 0
167 -1476 0
-795 1151 0
-1052 -982 0
-1585 -296 0
1111 1088 0
-282 -829 0
-318 -1301 0
-250 430 0
-349 889 0
-133 486 0
-764 -1194 0
1463 1184 0
-189 -939 0
-1279 832 0
-1023 -813 0
1586 1680 0
990 1416 0
-844 -731 0
-859 -118 0
658 691 0
-409 -421 0
571 559 0
-1166 161 0
61 1517 0
-464 1134 0
453 1020 0
-1090 -294 0
-169 -448 0
-1418 1193 0
531 -1053 0
-1019 -1353 0
-449 -655 0
-1491 -1299 0
412 141 0
212 733 0
538 -750 0
56 -1205 0
-1142 169 0
-397 532 0
-1110 -1321 0
-707 -1347 0
1075 -1064 0
1134 1405 0
1413 -1443 0
688 1578 0
1601 1457 0
-424 -786 0
-688 -1616 0
559 435 0
1083 -928 0
-668 -1156 0
-1297 -287 0
-870 1077 0
-1373 1213 0
-733 -1465 0
