c NF
p cnf 222 111
85 -100 0
89 36 0
133 -218 0
32 109 0
-30 -180 0
49 72 0
-182 168 0
-37 -52 0
-60 -180 0
-47 201 0
185 39 0
-9 -48 0
124 67 0
-131 -167 0
-182 159 0
-13 88 0
-217 170 0
165 207 0
-92 -177 0
-156 205 0
76 172 0
-54 -118 0
-39 57 0
201 175 0
39 150 0
27 -83 0
168 -62 0
-28 -8 0
96 49 0
-67 -104 0
188 -183 0
36 55 0
220 59 0
-143 124 0
-221 181 0
-194 -197 0
213 150 0
123 -4 0
-53 133 0
32 58 0
190 209 0
167 97 0
159 208 0
96 18 0
20 -115 0
154 -183 0
51 -114 0
206 -190 0
25 58 0
-16 -172 0
-102 -44 0
81 79 0
125 220 0
-83 -60 0
130 -167 0
142 -68 0
131 -200 0
145 167 0
15 207 0
126 124 0
-125 132 0
119 -18 0
198 76 0
207 218 0
-9 191 0
-98 -106 0
-166 -16 0
60 196 0
147 202 0
-179 24 0
191 -87 0
-63 153 0
-186 30 0
-176 15 0
-127 160 0
-3 199 0
162 147 0
25 -107 0
-74 -4 0
123 -12 0
-101 -47 0
178 77 0
111 -144 0
63 -38 0
-16 -197 0
-214 35 0
184 -57 0
163 160 0
-209 7 0
-192 187 0
141 123 0
-179 81 0
-138 -26 0
-72 -83 0
181 115 0
76 -68 0
81 67 0
22 -95 0
-205 124 0
202 145 0
30 -187 0
81 -205 0
7 19 0
222 161 0
-9 90 0
123 -162 0
216 -66 0
-80 -92 0
13 4 0
10 -6 0
-66 -218 0
