c NF
p cnf 2427 1942
880 2353 0
-1346 -23 0
-1985 1412 0
833 -887 0
-218 338 0
2168 21 0
-2161 -22 0
-1519 1018 0
-2051 -834 0
908 -829 0
-727 -560 0
-574 141 0
1641 -1280 0
2121 -2174 0
425 2268 0
-1495 -688 0
-218 657 0
-1946 733 0
2240 770 0
1347 1285 0
-631 1364 0
70 -1980 0
2304 1777 0
2332 14 0
374 -2305 0
-207 710 0
-679 -1755 0
1691 -1345 0
1961 -1833 0
-1551 -1080 0
233 184 0
1764 2016 0
-2069 1887 0
1027 -1793 0
1264 1382 0
-1119 -1462 0
186 913 0
120 -502 0
-2114 -493 0
-2065 -772 0
-16 2323 0
-2132 166 0
579 -1672 0
2315 -2250 0
-2095 -1028 0
-1016 -1981 0
1136 -1175 0
874 267 0
-1514 345 0
806 -1808 0
2236 1003 0
-31 139 0
-1611 -1200 0
-430 1256 0
617 -457 0
1075 1572 0
-2375 1833 0
290 1105 0
-1738 -1231 0
2316 185 0
57 -600 0
890 -971 0
2417 -1380 0
2383 1320 0
-2354 -1667 0
1007 403 0
-1090 2132 0
1148 -314 0
-1491 1360 0
-861 -860 0
1199 -146 0
816 326 0
1591 1961 0
829 -1221 0
1525 -340 0
-2423 -1234 0
2326 -951 0
-677 2372 0
853 -974 0
2401 1407 0
-464 -1963 0
-594 -118 0
-2402 -226 0
-2233 -765 0
2411 1523 0
330 632 0
468 -1481 0
97 62 0
-2060 358 0
1283 663 0
184 2395 0
-2033 843 0
-1690 -1032 0
-1576 -3 0
-150 1395 0
1243 -2232 0
-1212 979 0
187 -736 0
-473 -1029 0
1757 -549 0
-944 1154 0
-1626 1089 0
-2405 1225 0
-1768 1274 0
1297 -672 0
236 -292 0
357 -1667 0
276 -1343 0
855 5 0
53 614 0
416 670 0
2149 -2117 0
-159 -2357 0
-31 -2138 0
-1385 -655 0
-2392 1969 0
-520 -1844 0
85 -751 0
-453 1438 0
-1178 -795 0
-1545 -758 0
610 -1414 0
-1685 1531 0
1351 361 0
1476 688 0
804 1467 0
492 539 0
1054 966 0
1975 19 0
-2343 -795 0
673 -736 0
1527 -601 0
-1218 255 0
-1948 -1599 0
-341 2117 0
-2373 -537 0
-905 321 0
-2366 -1675 0
2175 -135 0
-1242 223 0
1443 -761 0
-1130 1488 0
-753 -2189 0
-589 257 0
360 -2109 0
-1539 -1414 0
-435 -1288 0
1230 1096 0
-1415 -1796 0
-2388 -80 0
-1868 -457 0
-902 -1538 0
180 2097 0
1422 -2157 0
-1117 2159 0
1881 2392 0
1823 -1347 0
1888 603 0
-96 -2236 0
786 -2007 0
-1139 551 0
-176 2245 0
-1730 -58 0
-136 -682 0
463 -407 0
-1797 -288 0
-1381 -1057 0
-1695 -1791 0
1029 942 0
1756 -2001 0
1890 147 0
275 1800 0
2309 2179 0
2407 -377 0
2365 833 0
-1447 2268 0
-1246 -2109 0
2255 -789 0
956 -218 0
-1258 -1978 0
-2021 -2226 0
1068 -18 0
-1132 484 0
832 2424 0
-1401 -1610 0
1897 -28 0
1779 294 0
2206 -1706 0
-2058 -2163 0
1408 -1772 0
-1247 108 0
-1026 -1338 0
-2092 2088 0
1346 -1856 0
675 -1076 0
605 -1071 0
975 -1567 0
-2145 2179 0
1427 2306 0
-1112 -372 0
893 31 0
925 -274 0
2125 -134 0
-133 2064 0
-1046 1172 0
-1674 1941 0
-576 2345 0
-1373 407 0
-182 1016 0
1871 2169 0
1923 1497 0
-1448 738 0
2382 -427 0
261 2226 0
-692 -77 0
-1151 808 0
2421 17 0
-1181 2346 0
-902 357 0
-1655 -577 0
-1265 996 0
977 1080 0
622 1532 0
2414 628 0
-1645 824 0
302 81 0
362 -278 0
1076 -81 0
97 -924 0
-212 -2177 0
-565 2217 0
-2070 -1445 0
-1421 -2167 0
1807 1235 0
1860 -429 0
-783 16 0
62 595 0
1773 -1996 0
-1777 -912 0
-1322 -2370 0
-1674 930 0
162 -944 0
2346 -463 0
-1882 55 0
-845 -48 0
-2252 -1772 0
-1291 -2289 0
2269 1351 0
780 1041 0
159 2062 0
147 1128 0
-1297 2140 0
-1695 -1344 0
736 823 0
-467 -127 0
-1278 1867 0
-2348 1431 0
828 -1248 0
-753 2309 0
1332 2310 0
-1636 -1959 0
-1442 -1661 0
2350 1386 0
-1713 -1059 0
2342 258 0
-1007 244 0
1762 1960 0
2381 1325 0
524 588 0
2190 124 0
125 -2098 0
-1930 2117 0
449 -1445 0
-1308 1130 0
-1416 2412 0
2110 -977 0
-530 19 0
858 2298 0
1149 -1941 0
1971 -455 0
1160 -343 0
2021 -797 0
937 1497 0
863 200 0
137 -1430 0
-102 1996 0
180 1191 0
-172 2202 0
-993 1818 0
-1750 1146 0
2044 2342 0
-2224 872 0
1986 -2114 0
1218 2030 0
-932 2095 0
-1000 -338 0
-165 -1660 0
-1637 1213 0
-766 1766 0
-885 564 0
-830 2426 0
-1410 -880 0
-583 1122 0
1421 -577 0
-1833 -178 0
368 -2095 0
-2189 -1501 0
-523 1618 0
2291 1608 0
2151 -2175 0
1044 -1115 0
82 1685 0
390 2019 0
-1698 -929 0
-112 -2375 0
-2182 -2330 0
-504 574 0
-2163 -1124 0
1571 1540 0
-1521 2402 0
-490 -1799 0
-1939 2366 0
1387 -1910 0
-1081 -872 0
1669 1640 0
-337 -2191 0
-1684 -2017 0
1572 -1518 0
-818 -89 0
-1952 -589 0
-2121 -2340 0
1716 -917 0
-863 296 0
-562 -2204 0
-884 1360 0
2425 1736 0
823 -2391 0
1555 748 0
1330 2257 0
-951 -1669 0
-2318 618 0
-2069 -1887 0
758 1947 0
2294 1694 0
-1185 1830 0
2190 359 0
-464 315 0
1601 2050 0
200 -1044 0
-2340 2367 0
-1289 -306 0
401 -1977 0
703 1914 0
-1871 -1025 0
1215 2219 0
-1808 1662 0
86 69 0
558 221 0
-150 -403 0
-2263 2401 0
-2069 2400 0
385 746 0
78 1523 0
-744 2384 0
43 471 0
1236 -162 0
474 -780 0
-2170 1855 0
-976 759 0
355 -1442 0
-1960 1855 0
-476 376 0
568 -1185 0
325 -707 0
367 -2039 0
1193 611 0
-533 304 0
-1077 -645 0
342 -4 0
155 1180 0
1895 -904 0
1670 -1787 0
2351 961 0
-127 581 0
925 61 0
153 -1408 0
-327 1683 0
-2166 1932 0
1427 -1424 0
1885 1089 0
-1626 -1471 0
-1735 -403 0
-2269 1753 0
-1329 -1492 0
-1123 -2063 0
1626 1084 0
764 -1968 0
-18 2017 0
-645 1534 0
-218 -1936 0
581 -369 0
-1029 -1900 0
-670 1520 0
-1102 1934 0
1918 576 0
1359 -13 0
1233 336 0
2391 -400 0
732 -1426 0
16 -914 0
-2423 563 0
-2177 137 0
-1366 -1473 0
-2049 1696 0
649 -292 0
1967 -484 0
-2406 40 0
1141 -1518 0
1845 -1112 0
2027 462 0
-2226 -1522 0
-797 1852 0
-2406 1881 0
-2109 -640 0
84 2323 0
972 -669 0
-2024 2090 0
-2260 1736 0
1076 2093 0
102 -2033 0
2301 -3 0
-215 -1197 0
217 746 0
-2064 -325 0
2117 -2317 0
-914 -435 0
-1247 330 0
524 -378 0
-1651 354 0
279 -463 0
-1627 -2222 0
-1810 467 0
-1095 -199 0
-1769 2385 0
-2197 1268 0
384 1966 0
-1363 -398 0
656 1606 0
289 -655 0
342 1186 0
803 -1854 0
245 335 0
1665 2157 0
-1935 892 0
-1165 1496 0
-1581 -457 0
-1466 173 0
1782 -46 0
1435 1437 0
380 -828 0
71 1214 0
918 1821 0
321 -2286 0
2281 -1527 0
2325 1245 0
-1809 -978 0
1961 -1639 0
1096 147 0
-1299 594 0
-2254 1181 0
-136 -2334 0
-248 566 0
310 -2289 0
-559 1730 0
1826 1367 0
2132 1681 0
-466 -2122 0
-1555 -438 0
1052 1067 0
74 -103 0
3 -475 0
1896 -127 0
-2061 -1601 0
1807 573 0
-1784 -888 0
1488 -109 0
1237 1432 0
-2152 1277 0
572 1664 0
-627 -1830 0
324 -1647 0
20 2156 0
1617 114 0
2342 -397 0
2205 -1201 0
-1979 -634 0
-2175 -1841 0
2278 -1250 0
42 -493 0
864 874 0
-1480 1055 0
284 -1657 0
-1262 -1061 0
1584 -944 0
-1982 -322 0
140 1677 0
-868 -1528 0
-1354 -1629 0
546 1071 0
-1107 -169 0
1775 342 0
-681 267 0
-2172 -403 0
-1115 -2358 0
1405 -1093 0
853 -646 0
-1156 2067 0
-810 2397 0
-1796 641 0
2103 -1322 0
-1429 -2293 0
-2002 1446 0
1335 418 0
-1099 1815 0
2344 -1533 0
749 1680 0
615 -1112 0
780 49 0
-114 -319 0
835 -1345 0
-177 915 0
-877 -957 0
-600 -2058 0
1249 -1998 0
-1210 904 0
380 1158 0
570 2114 0
2390 1998 0
-647 -2391 0
80 605 0
-1385 319 0
1449 -1509 0
2391 -1008 0
649 777 0
2228 1146 0
641 -224 0
728 -1639 0
-188 -1986 0
1609 -2256 0
2349 -1198 0
1767 -1322 0
-138 966 0
-2307 -1751 0
1719 1651 0
-1106 -1000 0
-2237 -1750 0
553 1320 0
1079 -1006 0
-468 -2293 0
-1207 1746 0
-1435 479 0
-1035 2081 0
1481 -938 0
-215 -81 0
2322 -1091 0
-645 1802 0
658 -601 0
-716 -1058 0
2046 -182 0
294 2152 0
-971 -2078 0
-393 180 0
650 -212 0
-1830 2189 0
1054 -997 0
830 -1644 0
-1828 468 0
-2094 2176 0
1626 -1372 0
-1015 832 0
1087 -1136 0
-1118 1940 0
-936 -2261 0
2398 -2288 0
1647 -194 0
-506 -1065 0
-127 1697 0
142 -1629 0
379 769 0
-384 104 0
461 -1445 0
874 -461 0
-816 -916 0
2282 1679 0
-2047 1185 0
1244 -15 0
-517 -538 0
581 1272 0
-613 1556 0
-736 -97 0
-2414 918 0
-560 -1151 0
-1209 -36 0
-2290 1208 0
-1565 740 0
-2276 1851 0
-2329 -1276 0
-928 2317 0
-5 852 0
-1483 2414 0
-2276 1427 0
207 1003 0
455 -650 0
-2382 -1153 0
2146 -104 0
944 272 0
-468 1403 0
-83 -350 0
-2143 -356 0
-732 1943 0
-161 -1948 0
869 -528 0
-2099 863 0
931 -1469 0
-341 594 0
-929 1212 0
139 1270 0
-92 1319 0
-6 -459 0
1424 -10 0
1837 -1552 0
-2073 -2112 0
855 1316 0
-1389 63 0
581 1450 0
636 1068 0
-653 -1523 0
924 955 0
1722 -1718 0
-532 1232 0
-289 1986 0
1870 -957 0
-2183 481 0
-1027 638 0
-408 -1414 0
-2099 -152 0
688 -1542 0
343 1700 0
1876 2212 0
-1057 2394 0
-1726 123 0
-1358 -2369 0
-359 349 0
-1770 695 0
-283 1249 0
-1083 -718 0
-1892 -1113 0
-2425 -721 0
-583 155 0
-1763 -2040 0
1415 287 0
1410 395 0
2140 1462 0
798 -2269 0
-2203 1025 0
261 -1511 0
259 2400 0
1740 -668 0
-1220 -289 0
-2068 -1297 0
-1792 2353 0
1976 -963 0
344 -1065 0
-850 1378 0
-2207 -1464 0
-2101 -2206 0
-1781 86 0
1255 -1699 0
-1764 -162 0
-1081 -1083 0
1564 -1393 0
1769 -1083 0
-740 -1703 0
-1379 864 0
155 1074 0
2386 -1501 0
-2409 -1756 0
560 1793 0
2160 -463 0
-2190 -2278 0
1003 548 0
-1688 939 0
-896 -1415 0
-153 -1275 0
1437 2082 0
-2236 -222 0
-1549 484 0
-60 1572 0
1311 -1549 0
-1884 2246 0
477 -997 0
329 -309 0
1750 -834 0
2106 -250 0
-1346 -1769 0
588 1953 0
490 1462 0
225 257 0
1091 1625 0
1825 1034 0
1087 -59 0
555 857 0
863 2069 0
230 -2264 0
-1325 2082 0
1725 -1044 0
416 1122 0
1080 -2309 0
1743 -1355 0
-1270 -1796 0
2264 -1345 0
-738 -279 0
-300 1495 0
-776 2029 0
1007 -334 0
-231 1645 0
497 -1866 0
2185 1136 0
1890 -136 0
1176 682 0
1940 1653 0
1285 985 0
79 -1247 0
-733 1263 0
1168 1378 0
-1159 696 0
-802 -94 0
-766 1239 0
-2055 -1051 0
589 -2187 0
-1290 -292 0
-1848 -1924 0
790 1073 0
-718 116 0
1939 1455 0
-2035 -133 0
421 -494 0
-1741 -2187 0
1951 19 0
1320 303 0
-339 1842 0
1986 -1050 0
-2085 -1919 0
1235 2276 0
2145 -1796 0
-226 711 0
2334 -99 0
1877 -1881 0
-13 -1353 0
-756 -1664 0
902 925 0
-513 -1700 0
-1142 -1636 0
2261 -2035 0
-2054 1219 0
-973 -1976 0
-1352 42 0
-654 -425 0
2055 -1432 0
-1545 -5 0
1818 228 0
-6 -173 0
1696 -264 0
-1923 -1345 0
930 175 0
2365 649 0
-110 -1056 0
1588 -650 0
1255 972 0
-1482 -368 0
-1712 -1769 0
-832 -1977 0
1219 -1728 0
-571 -1240 0
1020 471 0
-103 2344 0
-89 1562 0
651 2151 0
1899 -873 0
-1244 2000 0
-315 1705 0
-547 1756 0
-1104 1111 0
1729 88 0
-1086 2337 0
2053 -819 0
1867 -1376 0
1289 -2195 0
-2027 -682 0
-2007 1997 0
579 152 0
1643 -2070 0
926 -662 0
-1692 207 0
-785 -900 0
-1684 483 0
-893 -1627 0
-1788 -1601 0
-5 -862 0
-487 1012 0
-2044 592 0
1669 1727 0
584 1943 0
-147 -2286 0
89 -2024 0
1253 -1252 0
141 2383 0
1842 -967 0
1595 1307 0
1145 -1498 0
-1118 88 0
-839 -1661 0
138 2413 0
-1434 2366 0
347 -2080 0
-441 504 0
1854 1583 0
-1638 -1209 0
-493 -393 0
1842 1276 0
-274 1583 0
962 -2049 0
2423 -1053 0
432 468 0
-1480 1669 0
-1990 -2031 0
-1535 769 0
-106 -1772 0
-3 -1045 0
663 1445 0
-1781 -1983 0
1741 -607 0
-1235 426 0
1025 529 0
-1296 -2371 0
1490 490 0
-461 -984 0
-422 2306 0
-79 -473 0
-1773 -2407 0
-212 940 0
-1580 -603 0
-1184 360 0
-1738 -2296 0
909 -1721 0
2347 -2423 0
1573 -211 0
-1846 980 0
1998 -1900 0
-308 1343 0
1632 1619 0
844 44 0
-963 -2114 0
2004 -1363 0
-195 -2183 0
1154 -1012 0
-1664 -1170 0
-2252 -1961 0
969 -358 0
-829 2052 0
-1212 1881 0
1859 2110 0
-1376 1461 0
-1770 -917 0
162 -18 0
-1891 1071 0
1396 608 0
995 -1331 0
2000 23 0
-1455 1446 0
-361 -1624 0
-1444 -404 0
606 250 0
-540 496 0
-969 1361 0
-1002 -99 0
-1758 -967 0
-136 1168 0
-1459 -1187 0
362 1366 0
-2091 350 0
-1238 1472 0
-1871 1927 0
584 -2099 0
779 -737 0
-1223 -1474 0
-1076 -1433 0
-1718 2123 0
-707 -473 0
-61 -1495 0
-1817 -329 0
1861 1086 0
41 2397 0
373 1638 0
1561 -2343 0
1713 1453 0
-1292 -1868 0
-1115 252 0
-2371 1650 0
192 -1224 0
-1402 -842 0
1726 -1453 0
-2287 14 0
-2049 1010 0
1242 442 0
1328 1380 0
-2060 -2065 0
499 104 0
-483 720 0
-2394 -12 0
-1468 -438 0
-1098 -2047 0
1018 2277 0
-2347 922 0
-308 -1886 0
1446 310 0
924 -805 0
-2055 1350 0
408 -1395 0
1434 -435 0
-463 2396 0
-2421 -1482 0
1892 1958 0
103 -891 0
2257 -361 0
1104 -1846 0
-969 1677 0
1507 1840 0
-60 -346 0
-2129 1162 0
-1522 -2370 0
-1530 975 0
1878 -2181 0
1570 -710 0
-1373 1877 0
2291 1876 0
2114 885 0
-1655 250 0
1532 551 0
-2272 -2118 0
1461 1765 0
-498 2177 0
-1345 -1122 0
1417 1333 0
494 -2207 0
1836 575 0
-1801 -2235 0
2243 -1149 0
143 2343 0
82 2182 0
1869 -2398 0
-1102 -1333 0
276 -2373 0
-1096 -283 0
-86 1348 0
868 -2303 0
-492 1975 0
-2283 2345 0
654 122 0
716 1494 0
2410 1756 0
1745 -1566 0
1264 646 0
32 409 0
1914 804 0
-2377 -2343 0
-1349 1303 0
-757 -1414 0
2268 -1937 0
436 678 0
-552 -780 0
1430 -533 0
277 2058 0
-615 -1415 0
-1489 587 0
2143 -1324 0
-98 -914 0
802 -850 0
596 422 0
-2377 2053 0
-2413 2018 0
-2234 2034 0
127 214 0
-519 -2209 0
-156 267 0
1828 -1081 0
1826 1577 0
-1078 -650 0
1848 2008 0
-1367 733 0
-1963 322 0
-481 -1885 0
207 -1966 0
-317 -1533 0
-1457 302 0
-1448 -361 0
489 1879 0
2026 128 0
-2094 25 0
-1674 -1999 0
-1217 449 0
-1421 1384 0
-314 -40 0
1070 791 0
-388 -2273 0
1565 762 0
1202 1688 0
-405 8 0
-523 -1545 0
1277 1175 0
-1501 -1900 0
-1751 -808 0
1007 -150 0
-459 1176 0
-1393 2282 0
1002 -706 0
-1744 -651 0
22 -1538 0
-2325 -637 0
1842 -870 0
2325 -1660 0
113 1359 0
-1652 -229 0
1088 -1269 0
1186 2323 0
-464 553 0
666 -645 0
-140 1057 0
179 -1823 0
2216 -830 0
2275 -729 0
1700 -2237 0
1884 -1400 0
-1205 1702 0
1694 -2403 0
-1861 -2203 0
586 1537 0
134 -290 0
-1083 328 0
-94 -1950 0
-1406 -1702 0
2149 -659 0
1456 -1237 0
266 1281 0
2075 -2021 0
-1020 1964 0
2133 1261 0
426 -464 0
2307 266 0
-182 1176 0
428 2192 0
-801 -2396 0
-848 -1210 0
1104 -1433 0
-618 -655 0
-1762 688 0
541 771 0
-1783 2208 0
-643 -865 0
2101 892 0
-2138 -1804 0
-748 -1086 0
-917 1630 0
-843 824 0
1211 716 0
-263 1304 0
-1447 688 0
-2348 2241 0
2159 -1413 0
-1858 119 0
-1624 -294 0
-602 -984 0
742 -145 0
-1850 -794 0
135 874 0
339 701 0
278 1766 0
-624 -1724 0
1237 -1141 0
139 2387 0
823 2213 0
-790 442 0
1837 1348 0
-2300 466 0
1596 -292 0
1497 -1911 0
-590 1392 0
-35 38 0
-1906 1938 0
-265 -174 0
-1668 2111 0
-1846 -453 0
25 -148 0
1395 2319 0
1596 2314 0
-1670 -75 0
-911 -2252 0
2378 1281 0
1713 -1406 0
509 -2020 0
2104 975 0
385 -2331 0
1178 203 0
-2375 1582 0
659 -1389 0
-1005 1964 0
605 -1127 0
1985 -73 0
-2031 -733 0
385 2250 0
1038 -1438 0
843 1547 0
-1736 1878 0
-134 1961 0
1656 -893 0
-534 -992 0
-685 1324 0
1661 -1539 0
-246 695 0
147 1168 0
208 1791 0
2259 -378 0
-910 -1503 0
-425 209 0
-2057 -899 0
-467 720 0
-1529 1434 0
-953 -369 0
-503 -1894 0
-1886 -2166 0
-1759 297 0
1323 1072 0
130 1281 0
-2023 -518 0
-2006 2241 0
-742 1920 0
704 -652 0
1094 899 0
1245 1156 0
-501 412 0
1753 2136 0
-2369 1976 0
1875 -803 0
1152 -440 0
2363 -737 0
-1639 274 0
-1012 1766 0
616 1647 0
731 861 0
-1338 -236 0
2216 1914 0
1830 2052 0
-43 2125 0
-985 836 0
1837 863 0
-1536 -990 0
1559 -1611 0
-1583 1049 0
2015 822 0
-208 227 0
1820 878 0
-1964 -521 0
1816 2156 0
1728 -1338 0
-1066 -2096 0
-2048 2321 0
2240 1320 0
1270 2225 0
1446 -2339 0
-2406 -307 0
1041 -505 0
1608 -1044 0
-703 1584 0
1828 1172 0
2157 -583 0
1880 -834 0
249 -465 0
657 -1652 0
1832 -2209 0
-1960 532 0
-2034 890 0
-1180 -573 0
1729 1889 0
-676 608 0
1245 -650 0
2419 -1930 0
-2306 1677 0
2273 708 0
1126 -2117 0
1522 -1685 0
-2065 473 0
1709 -52 0
-724 -894 0
-1885 -2350 0
-877 682 0
-1397 1308 0
1465 743 0
-298 542 0
2167 213 0
49 -306 0
-947 2392 0
2351 2 0
285 -150 0
2382 1895 0
1295 -493 0
-274 -1452 0
198 1217 0
2103 -845 0
889 -1271 0
1546 1145 0
2299 254 0
168 -1659 0
-2379 -1156 0
-1259 -178 0
-2077 2290 0
-1009 -1692 0
-2416 2144 0
163 1080 0
-1768 1435 0
-1502 -1984 0
-343 -196 0
-61 2073 0
-5 -577 0
-1905 -993 0
-1470 685 0
826 -957 0
-2255 410 0
-652 -401 0
446 888 0
-932 1990 0
1965 -2229 0
-2210 -1847 0
-1902 -586 0
-2308 -1429 0
699 -1932 0
-2285 -149 0
1283 -1439 0
-265 1587 0
-153 24 0
-2112 -153 0
-92 -2113 0
-845 -2210 0
-1024 -932 0
-2181 1691 0
-1327 532 0
-1352 -1434 0
-2143 -1127 0
-590 1944 0
-1803 692 0
-104 -1247 0
1138 1979 0
-1019 -68 0
1859 -895 0
1827 -534 0
689 -70 0
-1810 1138 0
1856 569 0
-1098 2102 0
-869 711 0
2104 -1498 0
-703 281 0
1299 -300 0
-56 2034 0
-1728 562 0
-1695 1403 0
-1185 -622 0
1232 1298 0
-600 -2183 0
1498 949 0
872 1017 0
-796 -2024 0
602 1889 0
-1633 1682 0
-2063 22 0
-2180 -1606 0
-104 -873 0
94 347 0
1499 1154 0
-537 -23 0
-1041 -2007 0
-1357 244 0
1863 1647 0
-4 -872 0
1160 -501 0
602 134 0
1760 -1039 0
-473 1230 0
2280 -1979 0
2242 327 0
-300 -1309 0
666 2046 0
125 -2074 0
-1033 1903 0
-789 -1101 0
230 -618 0
831 -1758 0
-1103 -9 0
-1795 1254 0
-1543 -1887 0
322 909 0
-2123 -828 0
-1843 1497 0
214 1241 0
1578 -2114 0
-2423 2012 0
1326 1841 0
-1466 -1085 0
-528 889 0
656 492 0
-153 -1371 0
-1948 1300 0
-321 -1095 0
1392 430 0
1602 -1547 0
73 236 0
1680 221 0
-639 2184 0
-916 2386 0
-1517 -1238 0
-651 358 0
-1308 265 0
2415 -829 0
1031 -407 0
739 2289 0
-1780 1274 0
-565 2162 0
1533 1255 0
-440 -788 0
1861 -1860 0
2319 -176 0
-2334 -1019 0
-1795 1281 0
564 2311 0
2342 467 0
1361 287 0
1903 -366 0
-1271 1207 0
-1891 -2004 0
2045 296 0
41 -1516 0
-749 531 0
1097 475 0
-1991 -1781 0
-1257 2058 0
457 -527 0
-1433 -2108 0
1039 -724 0
2024 2106 0
-2245 1176 0
-780 -1327 0
-1567 -1788 0
-1959 -2406 0
703 -231 0
-2095 -1248 0
-1169 -182 0
1215 -2116 0
-1026 -1167 0
315 -1995 0
1135 -906 0
332 471 0
889 -383 0
-1735 1092 0
168 -1917 0
15 -2332 0
-1086 -626 0
-1826 -221 0
-1532 315 0
-2041 -335 0
-953 774 0
2183 1228 0
419 -27 0
417 -1484 0
-564 214 0
2087 -522 0
1823 -1519 0
-1044 2235 0
-1795 -283 0
2233 -394 0
970 2134 0
688 -2174 0
222 -1162 0
-897 -945 0
-2233 2220 0
332 -1236 0
569 1658 0
853 106 0
-494 -1515 0
-1807 -982 0
-1152 2044 0
-135 -556 0
696 1646 0
1586 -838 0
1197 -1246 0
380 1225 0
-2413 -651 0
675 -833 0
809 -113 0
-1278 2188 0
1041 -264 0
-1131 2197 0
-448 747 0
545 800 0
-469 -480 0
-2187 -955 0
-45 487 0
1342 1070 0
1006 -429 0
481 564 0
775 -1983 0
-124 2114 0
2425 -2246 0
702 213 0
-62 1468 0
1429 1994 0
-1388 2082 0
-1727 730 0
-1339 -383 0
1666 1522 0
-1056 -928 0
-912 -1826 0
-615 -1508 0
-2324 505 0
1332 1139 0
-1310 173 0
2043 -1102 0
913 558 0
-663 -2161 0
867 85 0
1918 -1082 0
-1999 -2087 0
2141 -1019 0
-1524 -1655 0
1167 1820 0
-1278 1690 0
-1198 -2117 0
-1304 -1384 0
1976 1181 0
1739 -91 0
-2040 480 0
423 1785 0
-422 535 0
-1406 1619 0
1931 1032 0
1437 958 0
-1152 110 0
-343 181 0
-366 -482 0
411 -674 0
1170 -2419 0
-2369 -669 0
-1191 1431 0
-151 -1433 0
-206 1785 0
-1549 1181 0
1920 -2252 0
-673 402 0
-194 100 0
-598 1936 0
-2351 -21 0
-1207 657 0
1972 124 0
613 -108 0
515 339 0
-2411 -2205 0
-1734 -51 0
2098 2290 0
-1784 -1317 0
-2022 -216 0
-2318 2416 0
-1752 445 0
-1095 -537 0
777 -1095 0
278 -560 0
1619 -1166 0
-1620 41 0
1352 689 0
-338 739 0
306 228 0
-1654 -1672 0
-128 -1482 0
-601 -240 0
-1873 -1740 0
1367 -2143 0
1602 -2300 0
962 -2172 0
-897 1370 0
-510 835 0
825 1238 0
1060 618 0
-2427 -1077 0
1922 1912 0
-1392 -2140 0
970 -2126 0
763 408 0
-440 -813 0
2044 1765 0
-845 -2298 0
1180 1985 0
-1493 2098 0
1411 1768 0
896 1228 0
-1239 -1216 0
1343 -1519 0
128 -1153 0
-1730 2319 0
-2194 -467 0
-510 122 0
-2411 -1580 0
-914 -2191 0
-292 1469 0
1753 -868 0
-1980 -645 0
1350 -368 0
975 -2042 0
-273 1717 0
326 1137 0
-2294 -527 0
-1306 1588 0
604 2413 0
886 -1963 0
-2183 1854 0
1615 373 0
-2094 1349 0
931 -963 0
25 -313 0
-2349 -448 0
-1138 2280 0
-1886 2081 0
-1487 -843 0
1892 -1383 0
666 2379 0
1838 -75 0
-751 2159 0
-1669 -976 0
-2233 -1691 0
-1309 -530 0
1424 -812 0
-1272 -648 0
-424 520 0
1364 633 0
-104 544 0
932 880 0
969 -2337 0
-460 2419 0
-1144 -369 0
-1940 -1991 0
631 358 0
-335 1413 0
-719 2402 0
2108 628 0
-2375 1858 0
1613 -1032 0
1068 1229 0
267 -2359 0
796 22 0
2154 633 0
-1907 2270 0
250 -692 0
1417 2087 0
-1205 -883 0
830 954 0
2037 -2348 0
628 -938 0
-1664 -635 0
179 -1014 0
-1790 373 0
1869 -2285 0
1282 -900 0
47 -871 0
-290 -984 0
2134 -1977 0
157 322 0
903 -1719 0
-2095 2069 0
-2040 -2268 0
-1353 1396 0
2100 1505 0
1619 600 0
87 -1354 0
1704 -1222 0
1287 1823 0
2015 1846 0
2143 -261 0
1257 -1132 0
1720 2367 0
2225 -2296 0
-432 -784 0
268 -1764 0
287 -998 0
-707 1967 0
429 180 0
-798 1216 0
-1349 126 0
-1528 -1387 0
699 -371 0
203 2273 0
-726 -107 0
229 1063 0
-651 379 0
1918 -1435 0
-1169 -99 0
-2122 553 0
-384 296 0
403 -2033 0
1680 200 0
-2179 -1421 0
1228 828 0
958 -996 0
-223 -1457 0
-1157 -983 0
-826 -866 0
1111 1713 0
1330 -1001 0
852 -738 0
-1099 -362 0
1816 2125 0
-812 -135 0
195 -793 0
-419 -207 0
1143 463 0
60 428 0
1914 -372 0
-2184 644 0
1427 -919 0
779 -792 0
1230 729 0
-1077 433 0
-708 205 0
644 -537 0
1617 -2099 0
1954 -398 0
-133 1767 0
-2421 -87 0
-338 -515 0
-2116 -1866 0
-1906 -240 0
1526 -618 0
-222 -600 0
1544 16 0
-2301 -1510 0
-1883 -867 0
355 -293 0
-1203 731 0
-1721 2158 0
1729 -2381 0
933 -837 0
975 -801 0
721 -633 0
467 -2077 0
-454 1646 0
-1917 -1689 0
-689 1711 0
793 -1184 0
-1074 1788 0
98 278 0
-328 404 0
924 -1175 0
2251 178 0
1020 1513 0
-1247 -1826 0
135 2159 0
1602 1854 0
1599 -1585 0
-751 -1507 0
-1860 -1389 0
563 -2330 0
-1260 -517 0
-1392 -1784 0
1212 -1423 0
1375 -448 0
1582 1036 0
1041 663 0
1021 -660 0
-1412 -866 0
-1610 76 0
997 661 0
318 -2037 0
1680 -1773 0
1777 1041 0
993 -1505 0
529 -85 0
-802 -668 0
1867 -1776 0
-2385 1891 0
-958 -1247 0
-1568 1778 0
-1077 -1735 0
2367 -469 0
2390 -2091 0
-138 2064 0
1021 -247 0
1845 2392 0
-531 -29 0
-865 -1061 0
-1696 -1664 0
-1167 -766 0
2074 1015 0
-177 -999 0
-2395 -708 0
-469 1869 0
-662 -552 0
-1517 -604 0
1134 2412 0
1270 -1077 0
-1864 -1582 0
-118 -1956 0
545 1517 0
1671 -2116 0
-2236 -79 0
1899 139 0
-2267 -1419 0
1425 2190 0
-1455 2081 0
-1555 872 0
-694 -1759 0
872 202 0
832 1511 0
-1983 -494 0
2193 2098 0
1623 1603 0
-77 630 0
-1304 630 0
-202 312 0
1710 2230 0
-1231 -1450 0
1507 2249 0
-1553 -1910 0
188 -660 0
819 454 0
-2065 -269 0
-2308 2346 0
370 1657 0
-308 -184 0
-1519 2051 0
-1790 -221 0
-522 2044 0
-1127 -1470 0
-1955 1052 0
-2017 1793 0
-150 -2334 0
-1740 -1666 0
2157 -709 0
540 -2047 0
340 420 0
-1160 2349 0
-464 1975 0
683 852 0
21 1143 0
-1192 -309 0
1020 -1482 0
979 -501 0
-2373 989 0
-973 77 0
-2348 -29 0
-2041 -2346 0
1351 -423 0
2085 -1745 0
2143 198 0
-1965 1418 0
1042 -133 0
-1306 -2422 0
-454 958 0
-2137 2228 0
550 1990 0
150 -935 0
-1740 -1184 0
68 -660 0
2401 1281 0
844 -2069 0
1474 -1894 0
-1652 -1291 0
-2369 -1942 0
1915 1115 0
919 -87 0
2307 -750 0
713 -1927 0
688 879 0
-1931 82 0
770 -1492 0
-192 516 0
-2373 -1727 0
-893 1700 0
-1569 293 0
-1555 -1168 0
1927 -1504 0
-1371 -92 0
-343 -781 0
-853 890 0
-2027 1380 0
557 -1659 0
-376 -387 0
1218 1096 0
420 -1718 0
-2330 -667 0
537 -50 0
-2204 402 0
-1893 860 0
1496 157 0
734 -541 0
193 420 0
-1313 -1977 0
-552 2153 0
-672 -2088 0
1049 1453 0
-1517 -1707 0
2374 -303 0
153 2306 0
-1824 -1077 0
-300 1662 0
-2387 -1555 0
-642 -2283 0
-236 1087 0
-1429 -1448 0
763 44 0
853 -1796 0
34 -887 0
-10 -1196 0
1815 408 0
-2204 214 0
-812 898 0
-892 2102 0
173 -1451 0
-785 665 0
-1939 1912 0
-688 742 0
-1235 1003 0
-691 406 0
1711 -640 0
-1028 667 0
1293 -1482 0
2284 954 0
1070 -649 0
128 2191 0
953 -1798 0
2322 -205 0
252 -1262 0
1291 -1690 0
-1586 391 0
433 -198 0
-2386 589 0
1054 -1266 0
2375 243 0
-1180 -1931 0
95 -1822 0
-1193 -1993 0
-115 260 0
2285 2246 0
-334 -1592 0
67 -2250 0
-2106 1403 0
999 -1129 0
918 -1058 0
-1354 -898 0
-1819 -1825 0
-1569 -1510 0
2372 495 0
1507 -172 0
1215 -790 0
1534 472 0
123 2381 0
-891 -873 0
-1099 2029 0
-2200 542 0
-384 -2398 0
2385 721 0
771 -112 0
-62 -616 0
1399 1235 0
-46 -1353 0
-1496 -1144 0
1403 -464 0
735 -968 0
1596 1915 0
496 213 0
-266 -541 0
-1037 -2235 0
-338 -2166 0
-897 5 0
1913 -1225 0
2234 251 0
-1937 2148 0
-2214 2093 0
1853 -1366 0
206 -1106 0
-1591 1375 0
-1266 278 0
126 740 0
-1300 865 0
-1384 1868 0
1828 1425 0
-506 -101 0
-2224 -148 0
2366 -2007 0
1139 211 0
-1912 1857 0
486 1828 0
-1667 189 0
1960 234 0
-298 2310 0
-1955 -936 0
457 1654 0
1951 1189 0
-1061 2140 0
-1278 -1105 0
2190 -773 0
-1149 2353 0
802 -1063 0
-2137 925 0
-206 -653 0
-559 505 0
-1292 625 0
-206 -483 0
-1159 1038 0
1857 2097 0
1760 -1505 0
890 619 0
-729 -319 0
1819 1559 0
-2281 242 0
-1151 428 0
2181 1859 0
1745 -286 0
1568 1354 0
-1129 155 0
-308 -1149 0
-851 -1366 0
-2002 -751 0
-877 6 0
888 1927 0
-417 -1576 0
277 -1005 0
938 -1397 0
