c NF
p cnf 590 2596
-90 -56 0
-387 584 0
300 -458 0
-395 545 0
-409 307 0
559 -21 0
445 -21 0
-421 -511 0
313 223 0
-16 -203 0
-118 354 0
-68 45 0
407 -237 0
271 371 0
-481 490 0
163 281 0
-577 -106 0
-246 62 0
-128 373 0
129 64 0
480 -134 0
457 434 0
-229 -509 0
-146 39 0
-373 106 0
-27 -57 0
-167 -426 0
-244 -438 0
23 190 0
-56 -257 0
526 -325 0
309 -525 0
-336 460 0
410 -162 0
-1 100 0
-66 230 0
-414 112 0
148 420 0
537 -238 0
-172 -169 0
-291 449 0
-64 -169 0
-543 325 0
553 251 0
93 -522 0
-318 435 0
-422 30 0
-16 -471 0
-428 584 0
-330 485 0
62 350 0
-392 407 0
434 274 0
-243 180 0
-383 -272 0
49 26 0
119 -414 0
63 -293 0
-200 -22 0
-19 515 0
4 -266 0
-362 475 0
137 546 0
210 496 0
143 -411 0
-259 -28 0
-384 -5 0
352 -187 0
305 109 0
-569 308 0
-131 518 0
-539 -339 0
-260 -146 0
-155 -388 0
-122 293 0
-313 173 0
-188 134 0
-451 304 0
511 -471 0
347 528 0
-304 538 0
-549 519 0
-113 -397 0
315 157 0
-272 277 0
258 348 0
578 -169 0
-450 -470 0
219 -212 0
-522 226 0
-544 -543 0
-504 -453 0
-292 311 0
-504 -344 0
495 -230 0
-529 -99 0
235 -243 0
153 169 0
-252 490 0
316 112 0
71 40 0
-126 -488 0
180 -579 0
459 -78 0
199 -174 0
28 298 0
-409 -261 0
-107 -348 0
447 260 0
-451 -492 0
-322 197 0
225 443 0
-424 487 0
-520 570 0
145 -309 0
436 -261 0
-291 -229 0
192 -231 0
-152 -488 0
447 253 0
-116 562 0
-14 311 0
-424 -508 0
-308 -146 0
-511 -3 0
-271 -202 0
-508 266 0
440 312 0
-395 526 0
-276 442 0
337 445 0
167 18 0
384 17 0
-230 506 0
-557 69 0
-398 -422 0
-487 -524 0
264 185 0
-163 -232 0
418 -127 0
199 300 0
282 -249 0
-273 504 0
470 -66 0
-588 82 0
133 -355 0
-521 292 0
-231 402 0
-265 421 0
48 -264 0
-104 -560 0
-84 274 0
-569 375 0
223 362 0
206 306 0
445 -28 0
-346 -275 0
177 -122 0
-586 -560 0
-156 -11 0
590 158 0
-146 -233 0
331 -15 0
-140 -79 0
575 -146 0
198 122 0
472 -474 0
36 -268 0
270 538 0
458 -13 0
-385 396 0
-212 110 0
-537 -85 0
561 -435 0
-484 357 0
472 315 0
583 117 0
-317 205 0
-361 441 0
190 -343 0
279 57 0
37 -185 0
-589 -584 0
-426 -274 0
9 -152 0
-76 -487 0
219 216 0
487 23 0
-165 -414 0
-529 168 0
420 19 0
-230 79 0
-316 -242 0
-198 95 0
-433 359 0
99 -268 0
575 -326 0
301 -107 0
-339 229 0
344 287 0
496 -367 0
-8 545 0
-319 -196 0
103 25 0
70 310 0
-232 312 0
-572 -448 0
-395 536 0
-321 418 0
575 500 0
-213 51 0
291 -228 0
-484 -267 0
410 -72 0
-72 446 0
524 -278 0
445 -77 0
-331 226 0
104 -278 0
288 -369 0
307 -61 0
113 364 0
188 333 0
-81 92 0
436 160 0
-387 159 0
576 -388 0
-143 463 0
325 -515 0
-280 90 0
523 296 0
375 240 0
-232 -38 0
-452 44 0
37 -397 0
447 82 0
-86 91 0
-122 -433 0
8 177 0
-189 -580 0
88 -527 0
369 -573 0
194 -288 0
-474 -337 0
-520 357 0
-306 381 0
285 -276 0
-308 -107 0
-113 -291 0
-481 546 0
-291 -334 0
-258 -301 0
-356 -432 0
141 264 0
-439 -283 0
-68 370 0
-508 -391 0
398 479 0
71 524 0
122 13 0
-169 316 0
342 585 0
-574 -123 0
-3 590 0
119 -246 0
-203 203 0
-22 252 0
-169 -474 0
-142 325 0
560 242 0
304 -346 0
-530 137 0
180 314 0
579 387 0
-506 -343 0
86 308 0
-165 -274 0
310 5 0
-586 -252 0
215 -200 0
-88 -79 0
-245 377 0
121 -222 0
433 485 0
48 -183 0
-93 -11 0
129 212 0
365 51 0
448 -522 0
210 -527 0
292 22 0
-548 -412 0
-127 -129 0
-220 109 0
-154 166 0
-314 434 0
-28 35 0
449 279 0
-477 483 0
-510 406 0
-461 582 0
-338 -284 0
224 -21 0
84 -567 0
332 96 0
179 -127 0
-19 -92 0
476 497 0
-111 -531 0
-318 373 0
-563 225 0
-253 -319 0
-535 -151 0
221 -248 0
-8 -2 0
110 -44 0
-228 205 0
191 -427 0
31 -21 0
-225 -237 0
541 -133 0
-474 -315 0
-169 199 0
-422 347 0
-381 -557 0
370 5 0
534 71 0
576 36 0
583 348 0
-77 165 0
-226 206 0
281 -102 0
-73 253 0
-176 339 0
192 404 0
48 -310 0
409 -352 0
143 -552 0
-231 309 0
-167 -236 0
-118 -476 0
330 28 0
-435 179 0
536 -19 0
-17 583 0
-513 -161 0
-59 -16 0
30 359 0
-202 486 0
-295 552 0
32 -360 0
-498 -27 0
8 553 0
-108 193 0
25 402 0
57 -130 0
28 254 0
-58 239 0
-188 -515 0
290 -567 0
-97 -256 0
292 516 0
457 229 0
-205 -501 0
-162 -132 0
-351 -463 0
571 553 0
149 387 0
-561 158 0
284 266 0
340 -2 0
-114 288 0
481 -314 0
434 -283 0
-409 143 0
158 -85 0
201 -160 0
-66 188 0
165 -477 0
-278 540 0
138 389 0
-333 -88 0
-302 -171 0
222 -212 0
15 -134 0
-381 575 0
578 439 0
-306 -308 0
283 -474 0
80 458 0
-504 -176 0
-361 359 0
-253 307 0
486 -373 0
78 445 0
453 503 0
109 -351 0
463 377 0
-160 207 0
-492 249 0
206 137 0
392 456 0
492 -421 0
303 -216 0
443 323 0
-272 -121 0
-195 -484 0
200 -340 0
13 -250 0
-384 -302 0
172 460 0
475 -146 0
428 -417 0
-98 516 0
-140 -123 0
-316 358 0
27 57 0
246 -339 0
-224 263 0
130 -232 0
119 223 0
-81 -340 0
338 -283 0
-470 -372 0
-278 -178 0
568 -566 0
-269 217 0
121 573 0
9 -56 0
-561 73 0
516 -529 0
-509 -204 0
192 1 0
-424 -349 0
-571 430 0
110 296 0
-250 -54 0
123 -116 0
-376 -11 0
-297 502 0
-291 -562 0
-517 -37 0
-147 -340 0
-426 -467 0
80 -387 0
62 31 0
-296 -487 0
-499 -367 0
-33 -580 0
-74 135 0
89 -550 0
-104 403 0
-365 159 0
-516 -314 0
289 -104 0
-4 354 0
361 -30 0
18 -440 0
268 -556 0
-238 -387 0
-538 -20 0
439 46 0
518 -478 0
172 194 0
-480 -99 0
391 -4 0
76 -567 0
-582 -289 0
307 -257 0
168 324 0
561 -250 0
153 -233 0
331 325 0
-248 -318 0
526 318 0
330 503 0
-136 -77 0
-417 159 0
292 -3 0
182 78 0
453 -81 0
-439 347 0
576 404 0
-175 -99 0
-452 262 0
125 323 0
-546 -546 0
-353 121 0
89 -130 0
274 -140 0
-363 -408 0
-585 185 0
-201 -522 0
199 -155 0
-13 -250 0
470 331 0
-127 -136 0
-433 534 0
371 -186 0
481 549 0
-249 -515 0
-272 -136 0
3 82 0
-450 284 0
8 434 0
-428 -60 0
-32 -226 0
-383 103 0
-267 225 0
-244 59 0
236 -174 0
-19 250 0
538 326 0
60 434 0
191 289 0
69 372 0
-229 284 0
445 94 0
-45 483 0
-299 561 0
284 -582 0
221 -201 0
576 289 0
59 -13 0
-81 -312 0
572 -308 0
-163 240 0
-218 -242 0
362 417 0
413 293 0
-568 586 0
-441 217 0
-316 -348 0
-171 369 0
-25 436 0
462 30 0
67 -395 0
-383 469 0
-96 -423 0
51 -365 0
323 145 0
-29 -209 0
-555 581 0
93 496 0
237 284 0
-197 101 0
253 -430 0
-283 -451 0
-213 10 0
195 243 0
-484 -279 0
-39 -263 0
348 -526 0
371 -237 0
-46 285 0
-83 464 0
-70 -411 0
-343 -161 0
-13 212 0
347 425 0
-467 205 0
377 -360 0
454 368 0
507 112 0
-184 -204 0
457 35 0
-246 72 0
110 316 0
357 -198 0
-138 442 0
-108 286 0
284 28 0
-275 221 0
271 517 0
40 -22 0
441 -281 0
80 272 0
170 407 0
224 465 0
-481 140 0
434 -238 0
241 96 0
-378 70 0
159 509 0
372 -509 0
-279 -520 0
-204 59 0
-272 518 0
-41 42 0
-220 -502 0
-288 -147 0
26 -302 0
-115 -484 0
-438 -378 0
31 -267 0
-43 -154 0
-55 274 0
234 -86 0
396 346 0
-343 235 0
-15 -363 0
-194 35 0
71 10 0
-428 -590 0
333 -196 0
-588 495 0
161 93 0
471 123 0
-215 -397 0
-118 430 0
518 434 0
447 -99 0
505 432 0
359 -511 0
9 -377 0
118 572 0
-533 -282 0
260 295 0
-379 -569 0
-195 -316 0
-34 368 0
14 -134 0
348 523 0
-89 345 0
-476 473 0
490 -291 0
-293 240 0
-493 235 0
-39 575 0
-240 444 0
-454 -399 0
-117 572 0
75 90 0
58 -55 0
448 141 0
369 536 0
79 54 0
-140 77 0
-320 -302 0
576 161 0
-12 -39 0
578 -203 0
-294 -30 0
364 490 0
-511 -540 0
-294 -269 0
95 528 0
-138 -369 0
164 437 0
416 519 0
-44 -426 0
115 -193 0
-265 -104 0
-52 -2 0
410 -416 0
-439 -189 0
-423 -383 0
-422 207 0
564 -397 0
190 210 0
503 -243 0
110 -322 0
-416 110 0
-98 -228 0
495 436 0
515 -8 0
-80 -556 0
28 572 0
-409 -508 0
-59 371 0
310 -165 0
152 -498 0
243 293 0
-2 522 0
-13 421 0
235 -78 0
-196 72 0
-67 -381 0
301 413 0
-468 306 0
276 -544 0
219 271 0
-512 -90 0
-186 69 0
262 552 0
-303 432 0
-84 -83 0
199 -59 0
144 455 0
332 215 0
-84 535 0
315 584 0
480 588 0
120 164 0
382 -414 0
-540 -449 0
-96 -150 0
46 336 0
-35 -53 0
-363 -376 0
-205 -272 0
164 -523 0
255 -203 0
-176 263 0
-243 -268 0
-141 293 0
574 -579 0
-501 -260 0
492 -430 0
-351 -479 0
-328 -120 0
-202 -314 0
538 348 0
229 248 0
-149 -367 0
-320 570 0
-153 286 0
243 383 0
-244 170 0
-193 -114 0
211 -209 0
86 458 0
-497 179 0
-437 441 0
502 307 0
148 -353 0
-223 226 0
281 -121 0
57 289 0
-564 -431 0
177 -561 0
464 -247 0
23 -503 0
556 -160 0
-334 258 0
-129 377 0
-530 -289 0
75 399 0
-487 -359 0
-508 249 0
-84 380 0
-362 -352 0
289 -21 0
56 441 0
6 399 0
561 -347 0
215 -283 0
323 539 0
-156 380 0
-2 -248 0
-449 185 0
294 6 0
-493 541 0
-214 -529 0
-13 -473 0
137 381 0
166 490 0
-381 115 0
-586 166 0
48 76 0
-274 -144 0
495 252 0
-162 -40 0
-174 465 0
413 547 0
-39 -378 0
-251 -22 0
219 287 0
362 187 0
-11 -404 0
-528 -469 0
74 388 0
-363 -147 0
-218 541 0
-214 -351 0
-32 572 0
-548 167 0
-293 -149 0
460 -237 0
-484 -296 0
-525 -275 0
408 5 0
-574 -538 0
-87 470 0
366 -571 0
103 391 0
179 -413 0
-87 -113 0
316 300 0
-147 -361 0
-12 119 0
206 -301 0
10 -141 0
-377 -291 0
-113 -338 0
-222 -204 0
-200 -218 0
-4 306 0
342 -225 0
387 543 0
71 14 0
234 14 0
-336 -271 0
545 -490 0
-232 175 0
-247 502 0
-550 -398 0
-89 566 0
-77 588 0
-471 365 0
-527 -509 0
-280 -323 0
-303 -252 0
-235 125 0
240 93 0
-97 -506 0
-77 87 0
-75 573 0
523 464 0
-252 -348 0
-587 -213 0
534 61 0
-92 -127 0
-248 335 0
285 524 0
-516 91 0
429 370 0
-16 -544 0
64 -431 0
-554 292 0
292 564 0
-296 -431 0
-439 53 0
-343 50 0
279 565 0
51 -192 0
516 -488 0
-34 -36 0
168 -85 0
-221 -341 0
-59 -226 0
206 243 0
535 327 0
214 -375 0
10 562 0
-267 122 0
292 -169 0
252 -450 0
-327 -12 0
93 -420 0
35 -272 0
389 297 0
362 -172 0
387 -578 0
-461 446 0
-469 -425 0
-125 186 0
500 508 0
240 -492 0
54 115 0
-583 225 0
579 245 0
465 161 0
532 56 0
-318 75 0
70 405 0
-179 -149 0
-558 -423 0
497 -533 0
-380 -451 0
-574 -495 0
21 345 0
-470 -244 0
-430 -96 0
-419 427 0
26 -178 0
-441 48 0
49 -499 0
460 555 0
222 -139 0
92 -283 0
49 -466 0
-499 396 0
-567 -583 0
-363 -157 0
-428 -247 0
13 -375 0
519 -166 0
191 297 0
446 462 0
57 389 0
405 -480 0
39 -154 0
-570 -291 0
-49 210 0
71 -57 0
179 61 0
481 -283 0
288 335 0
-454 372 0
315 82 0
40 -550 0
-432 -163 0
81 293 0
184 -308 0
60 -531 0
-460 323 0
-424 428 0
-492 337 0
235 -97 0
-27 -353 0
-249 566 0
-488 -105 0
-380 69 0
195 466 0
-492 221 0
538 429 0
34 224 0
483 -77 0
-114 380 0
-478 -373 0
376 74 0
-579 70 0
485 43 0
-57 144 0
-276 -334 0
192 378 0
364 -424 0
482 -171 0
-249 225 0
-213 507 0
466 534 0
555 -51 0
-343 406 0
-151 333 0
-201 86 0
-320 -109 0
-221 -172 0
178 590 0
-291 296 0
-13 387 0
74 -85 0
6 467 0
329 -397 0
-212 -473 0
379 31 0
-48 -184 0
-3 464 0
-442 -583 0
-240 445 0
258 452 0
301 -580 0
-258 -77 0
-488 160 0
-379 -293 0
42 -323 0
-120 -537 0
90 -147 0
40 -426 0
-483 65 0
479 50 0
141 408 0
320 -419 0
466 -457 0
441 -241 0
-322 428 0
30 -238 0
73 -174 0
-113 -502 0
195 -189 0
515 -404 0
-435 217 0
464 -303 0
561 -157 0
69 -4 0
548 23 0
287 -494 0
-282 234 0
-3 -462 0
168 -136 0
293 145 0
-260 362 0
-550 335 0
-433 -420 0
384 -39 0
-496 385 0
170 -321 0
-200 -73 0
93 141 0
64 108 0
-113 -375 0
40 -118 0
352 -27 0
-387 -449 0
309 123 0
168 -131 0
-104 578 0
-484 332 0
-355 554 0
511 307 0
-202 -332 0
-175 547 0
-277 -296 0
-472 167 0
-220 248 0
424 392 0
-516 -8 0
-540 445 0
-539 -409 0
-341 -202 0
309 407 0
460 -272 0
-25 -519 0
229 -171 0
-375 -390 0
-503 -52 0
161 177 0
254 517 0
165 90 0
571 -528 0
40 289 0
-358 473 0
-499 261 0
-564 177 0
357 61 0
538 -201 0
-415 -566 0
-242 -373 0
555 -41 0
63 -172 0
462 -422 0
-252 -569 0
555 -105 0
-99 178 0
-203 378 0
-196 366 0
-582 231 0
-268 123 0
-236 -563 0
401 -325 0
-376 406 0
576 71 0
-201 -355 0
-363 466 0
-92 198 0
460 -454 0
-200 -386 0
-20 327 0
525 329 0
-375 -53 0
-242 -8 0
-89 401 0
-512 -278 0
221 -201 0
175 455 0
271 -329 0
332 -376 0
-138 -97 0
-108 -162 0
-212 -306 0
480 309 0
467 193 0
305 -343 0
-437 -314 0
-210 64 0
-506 -390 0
-450 -522 0
380 -138 0
-24 -266 0
-157 -501 0
452 188 0
-209 215 0
110 23 0
92 555 0
440 378 0
-270 556 0
379 -14 0
54 -512 0
-339 -21 0
137 -377 0
-88 -309 0
-470 -270 0
-111 -56 0
368 16 0
474 -8 0
101 551 0
458 -211 0
-15 391 0
21 399 0
-278 377 0
382 -373 0
-577 -139 0
384 198 0
-581 -366 0
-191 -77 0
145 578 0
499 115 0
393 393 0
173 121 0
-448 483 0
-17 313 0
-307 -305 0
-100 -33 0
56 -247 0
564 -200 0
-22 221 0
-450 -138 0
286 -502 0
-352 -76 0
440 526 0
507 -355 0
-558 444 0
-165 -476 0
-345 -170 0
224 112 0
-249 258 0
304 511 0
-68 534 0
-419 37 0
376 279 0
165 -134 0
380 493 0
250 -189 0
445 270 0
494 -484 0
-509 -220 0
-144 -439 0
284 -163 0
-451 -36 0
326 -574 0
21 126 0
206 -407 0
-94 429 0
96 166 0
-583 -241 0
121 565 0
-108 -253 0
-321 393 0
-107 -156 0
222 -203 0
-312 -249 0
349 376 0
-298 293 0
-114 -439 0
369 125 0
378 -326 0
-327 -184 0
95 443 0
311 -17 0
-543 -397 0
458 -49 0
436 -265 0
-35 -506 0
513 -303 0
-446 137 0
-75 71 0
-145 466 0
256 124 0
-249 -459 0
63 229 0
514 -97 0
260 384 0
192 -573 0
295 -588 0
-114 567 0
-577 -461 0
-58 -228 0
-411 -551 0
205 536 0
288 -20 0
-461 -428 0
-224 470 0
6 414 0
420 281 0
-589 -395 0
465 -160 0
75 43 0
547 -243 0
54 -573 0
-232 498 0
-25 -55 0
29 185 0
-381 -435 0
-433 -433 0
-41 -472 0
-520 388 0
-375 -272 0
-62 6 0
-543 513 0
-514 254 0
473 -45 0
-117 300 0
-419 347 0
351 384 0
452 414 0
-530 -52 0
-303 -291 0
-181 73 0
542 112 0
-335 -375 0
-24 -566 0
260 -53 0
-263 100 0
-306 -237 0
315 -259 0
-583 -400 0
-104 -485 0
-550 499 0
137 495 0
-149 450 0
251 406 0
-9 512 0
-338 -163 0
-506 -472 0
308 -98 0
260 151 0
-193 587 0
-449 -484 0
135 398 0
573 -215 0
437 40 0
-567 -463 0
545 307 0
-344 -589 0
255 123 0
504 186 0
-308 588 0
-557 -484 0
73 -171 0
71 54 0
-562 344 0
-433 510 0
287 -446 0
-4 -446 0
-583 281 0
393 394 0
396 589 0
-411 -41 0
315 180 0
-566 450 0
362 -471 0
-52 -41 0
-304 -476 0
-148 -18 0
405 263 0
118 392 0
-567 159 0
-134 31 0
-496 -88 0
572 254 0
-189 -247 0
-247 211 0
372 413 0
-289 -20 0
-552 57 0
-110 391 0
-222 -400 0
440 -304 0
-74 512 0
350 -274 0
398 42 0
418 -292 0
-455 374 0
-225 -529 0
-432 -346 0
-176 289 0
437 31 0
-145 389 0
138 -336 0
177 369 0
16 -433 0
286 -113 0
-5 -77 0
392 121 0
177 -90 0
-429 -540 0
471 251 0
-291 391 0
-420 -449 0
-350 -267 0
282 -238 0
316 -105 0
-343 254 0
49 -13 0
-421 444 0
444 -255 0
124 385 0
-68 -266 0
-461 -116 0
-146 463 0
453 542 0
-240 217 0
418 289 0
503 -516 0
-374 437 0
-108 525 0
541 -379 0
479 -412 0
112 -261 0
304 -331 0
479 528 0
316 -36 0
-342 30 0
576 -189 0
-124 -517 0
-184 -501 0
302 -520 0
271 180 0
-63 180 0
359 -41 0
-336 393 0
453 -435 0
-507 -212 0
108 153 0
542 495 0
-338 206 0
216 -432 0
-154 -377 0
-234 -259 0
-408 323 0
-78 -266 0
195 440 0
87 137 0
489 397 0
332 -355 0
541 159 0
-432 165 0
-183 -68 0
231 -240 0
-548 -34 0
-276 554 0
333 -294 0
392 368 0
225 -226 0
262 -52 0
436 229 0
-548 474 0
-318 -263 0
-471 107 0
359 211 0
369 -376 0
565 -25 0
-152 -518 0
-268 62 0
359 354 0
69 -477 0
-98 -473 0
-91 467 0
368 -223 0
-280 121 0
-74 -449 0
-529 415 0
-430 467 0
-319 -386 0
-340 313 0
298 -176 0
28 -391 0
444 -343 0
-119 30 0
400 -68 0
199 477 0
143 -502 0
-397 -498 0
-19 -105 0
-389 -524 0
358 162 0
219 -154 0
560 497 0
-239 441 0
-444 -305 0
-83 473 0
-228 74 0
137 -216 0
325 -183 0
-311 -302 0
-290 -589 0
210 8 0
376 -554 0
436 208 0
-232 -434 0
483 -500 0
273 445 0
17 -388 0
-128 -83 0
584 -109 0
335 350 0
364 -50 0
137 194 0
551 410 0
-450 386 0
-146 -442 0
108 -19 0
125 69 0
-446 -521 0
-430 531 0
535 555 0
-519 -45 0
470 425 0
-197 -120 0
-422 566 0
347 -497 0
-549 -47 0
-339 466 0
145 125 0
-2 49 0
401 -337 0
310 -56 0
282 -120 0
-97 103 0
472 445 0
207 76 0
-154 -163 0
-589 -121 0
-218 41 0
-11 -374 0
-382 -476 0
483 -353 0
545 -263 0
386 453 0
-78 166 0
-213 511 0
-352 -32 0
54 -203 0
565 -318 0
-282 -488 0
407 -52 0
158 -25 0
-77 -148 0
-325 -277 0
100 -83 0
437 61 0
-134 -407 0
-583 -335 0
-400 263 0
-51 42 0
-113 -248 0
-238 -511 0
-320 -5 0
545 -314 0
-277 295 0
497 -209 0
24 485 0
398 -522 0
282 462 0
-232 -67 0
180 -371 0
-551 139 0
-519 -468 0
145 392 0
-424 214 0
462 36 0
-249 370 0
-216 -468 0
-548 -219 0
-417 166 0
125 364 0
396 402 0
-510 -344 0
-38 44 0
-181 -47 0
583 -563 0
443 352 0
235 43 0
78 158 0
-388 -438 0
-420 -41 0
-567 -200 0
-404 -442 0
465 -512 0
-554 -521 0
-381 -515 0
-484 -204 0
-196 -532 0
-581 420 0
-154 -134 0
235 65 0
-115 -478 0
-348 -339 0
-118 359 0
-541 -104 0
355 92 0
456 580 0
-509 -464 0
-265 50 0
-450 137 0
-148 323 0
-556 -424 0
-28 -569 0
-562 -432 0
423 31 0
-554 581 0
121 -449 0
440 -578 0
-499 -496 0
-270 -504 0
-273 178 0
340 541 0
-511 -66 0
-411 -257 0
-550 -521 0
205 543 0
61 127 0
208 65 0
551 -306 0
199 310 0
153 69 0
-453 295 0
125 458 0
-106 161 0
321 135 0
-58 -108 0
-426 487 0
464 -394 0
24 -559 0
-492 438 0
439 79 0
-196 -446 0
-551 -427 0
103 233 0
-50 206 0
-171 117 0
394 159 0
-321 -310 0
43 -379 0
154 186 0
195 197 0
-451 -472 0
-319 -291 0
2 332 0
368 571 0
325 -106 0
-336 264 0
-487 -59 0
295 -118 0
-355 -516 0
516 -47 0
208 64 0
-314 251 0
224 263 0
406 -184 0
388 -579 0
-323 523 0
-212 273 0
377 440 0
-301 -41 0
208 476 0
-150 -220 0
342 -352 0
-404 -363 0
-508 469 0
-319 24 0
-166 44 0
199 -484 0
-461 -278 0
252 -94 0
-563 415 0
-171 91 0
-352 -321 0
-290 496 0
-170 -434 0
-171 572 0
-241 -266 0
-120 407 0
153 93 0
236 -486 0
587 -517 0
-24 -174 0
-571 -108 0
-488 -11 0
219 14 0
46 -370 0
119 -303 0
-15 399 0
240 -185 0
-81 564 0
-587 -87 0
-578 -430 0
120 -484 0
-71 -508 0
-555 282 0
217 348 0
-81 -174 0
9 571 0
243 403 0
530 -589 0
-238 -105 0
-548 294 0
17 445 0
-269 -193 0
17 457 0
-178 -178 0
-553 -506 0
415 -265 0
70 571 0
-142 236 0
-388 -540 0
-509 265 0
256 -565 0
452 226 0
60 -218 0
440 -159 0
-522 -577 0
235 -39 0
331 -430 0
568 -551 0
466 -462 0
219 576 0
348 -154 0
-498 -143 0
408 37 0
127 502 0
158 -497 0
-525 455 0
-297 473 0
-8 -111 0
62 -90 0
-531 -484 0
-350 -514 0
-566 234 0
-488 -529 0
313 455 0
-558 213 0
45 -554 0
511 -109 0
-117 80 0
212 -118 0
-340 299 0
413 210 0
28 -309 0
-66 -517 0
-548 459 0
384 -586 0
37 85 0
-193 479 0
-566 561 0
-347 -554 0
-423 -40 0
-159 354 0
380 485 0
197 405 0
410 -351 0
-325 -43 0
-174 290 0
585 -365 0
589 -319 0
101 374 0
183 -346 0
11 495 0
-312 -480 0
-188 197 0
-116 -232 0
-443 292 0
525 235 0
-151 -471 0
-438 186 0
-319 -113 0
-530 103 0
338 -294 0
-361 535 0
387 429 0
157 441 0
231 58 0
-187 94 0
331 -138 0
289 484 0
-3 -99 0
331 576 0
-498 -101 0
-98 -565 0
337 346 0
167 -550 0
-386 143 0
536 262 0
-319 -513 0
128 -422 0
420 -219 0
-97 573 0
-128 197 0
-550 200 0
293 -557 0
-19 -315 0
349 258 0
326 -195 0
106 374 0
-132 -290 0
-235 -556 0
508 -19 0
-13 521 0
-71 467 0
221 -116 0
-172 -187 0
-344 -264 0
125 -219 0
-7 143 0
299 -497 0
590 20 0
335 563 0
-401 -471 0
435 -563 0
-88 222 0
225 -256 0
-439 339 0
35 314 0
299 -419 0
-213 -508 0
-511 -586 0
-183 -39 0
95 47 0
322 -13 0
-281 7 0
-512 570 0
341 -306 0
420 -264 0
-568 -384 0
-448 566 0
233 545 0
-139 355 0
21 354 0
434 -534 0
87 406 0
258 447 0
-10 263 0
-19 519 0
-149 -116 0
-143 560 0
-396 -113 0
444 -299 0
-256 416 0
-543 -194 0
552 416 0
-287 153 0
391 402 0
-150 6 0
-410 512 0
195 179 0
-461 -548 0
350 -183 0
-258 253 0
-417 369 0
83 -589 0
-216 289 0
142 347 0
-319 271 0
-75 538 0
-302 -317 0
-294 342 0
525 96 0
25 -175 0
-154 310 0
-424 -151 0
368 140 0
491 -266 0
-207 -106 0
534 125 0
202 191 0
285 -203 0
123 380 0
402 68 0
-204 481 0
437 -314 0
332 186 0
-528 -304 0
398 -543 0
68 -66 0
-5 -38 0
198 395 0
265 -559 0
-237 153 0
-588 98 0
554 141 0
522 289 0
-470 -11 0
-252 -381 0
-429 384 0
-226 -308 0
-242 -34 0
2 -33 0
512 -107 0
171 -438 0
-111 -309 0
43 -204 0
-529 -118 0
374 60 0
-232 439 0
427 -543 0
-275 505 0
182 361 0
-31 -540 0
335 -562 0
-487 568 0
455 -484 0
-250 -243 0
229 248 0
-468 -545 0
352 -228 0
503 -531 0
-184 -151 0
-448 -517 0
464 -510 0
-183 126 0
-513 -414 0
284 68 0
74 -320 0
506 -522 0
585 443 0
553 -526 0
-471 -522 0
419 -297 0
-379 210 0
-218 49 0
91 179 0
119 437 0
58 173 0
564 552 0
-163 -376 0
534 -106 0
-200 310 0
-521 50 0
418 -445 0
-148 -94 0
437 -268 0
79 -433 0
161 495 0
198 10 0
-123 -298 0
74 147 0
77 129 0
-22 -59 0
-559 -180 0
575 415 0
-492 443 0
-541 194 0
-120 336 0
374 335 0
353 199 0
187 362 0
-385 255 0
168 -340 0
-167 121 0
549 -71 0
477 -150 0
-127 514 0
391 -157 0
10 -524 0
-423 -188 0
-487 279 0
249 482 0
525 -176 0
-261 28 0
-424 -31 0
-404 -182 0
-421 491 0
-525 -341 0
-566 443 0
528 -488 0
261 284 0
-320 389 0
296 190 0
-105 375 0
-295 -517 0
-423 -5 0
195 332 0
552 -222 0
-250 584 0
535 -270 0
207 252 0
-416 407 0
311 590 0
-512 434 0
275 485 0
453 158 0
-203 -240 0
42 191 0
-136 172 0
-269 179 0
-90 -431 0
530 -431 0
481 -212 0
399 -277 0
-104 210 0
-267 -20 0
369 244 0
336 119 0
-80 185 0
293 -51 0
119 -367 0
-522 -396 0
-438 -12 0
-35 284 0
197 226 0
535 -69 0
575 -218 0
-3 -5 0
315 -440 0
331 -345 0
-428 -440 0
-528 -229 0
-155 130 0
-174 92 0
-327 261 0
-272 -524 0
-150 -372 0
179 538 0
-460 125 0
405 463 0
-325 76 0
-431 532 0
45 -68 0
93 82 0
51 472 0
179 234 0
347 103 0
-20 -287 0
435 491 0
577 445 0
364 389 0
289 273 0
136 -426 0
166 -16 0
-186 418 0
-563 146 0
24 350 0
424 473 0
224 -313 0
-15 -340 0
507 73 0
-168 198 0
-426 352 0
407 448 0
227 523 0
-47 61 0
-512 392 0
-544 -381 0
198 537 0
483 278 0
101 28 0
-489 50 0
-97 30 0
260 -522 0
-120 124 0
-165 -3 0
-379 155 0
496 -481 0
35 -25 0
418 256 0
-244 70 0
155 453 0
415 -182 0
-128 53 0
370 175 0
122 -298 0
479 555 0
-556 -189 0
-274 470 0
117 -275 0
-136 407 0
300 260 0
-297 -381 0
263 -413 0
-489 -316 0
146 -379 0
-200 -341 0
24 -155 0
-388 491 0
-188 38 0
-577 -308 0
584 -472 0
335 -322 0
-457 -131 0
205 -461 0
-137 -537 0
459 -490 0
-579 137 0
-516 -414 0
444 460 0
210 -543 0
304 107 0
-585 566 0
333 576 0
35 -167 0
283 145 0
-264 -218 0
332 311 0
453 535 0
-89 370 0
-543 -353 0
-314 -188 0
76 478 0
-355 -20 0
-95 165 0
-582 409 0
75 -109 0
-217 253 0
-250 -90 0
364 333 0
-198 158 0
-208 347 0
482 96 0
-309 -147 0
222 326 0
-48 40 0
410 -236 0
-355 579 0
-448 311 0
-13 70 0
-566 251 0
-375 420 0
-492 374 0
229 160 0
-88 -350 0
-156 -478 0
125 -18 0
-233 -511 0
-377 534 0
354 386 0
-480 260 0
-480 -33 0
-360 -146 0
80 161 0
320 -147 0
-320 -517 0
-16 297 0
143 239 0
405 420 0
361 -385 0
272 -352 0
222 -162 0
-227 -397 0
22 -188 0
-269 -352 0
287 -63 0
103 -321 0
-192 -388 0
125 94 0
29 -379 0
79 -84 0
447 -534 0
-2 125 0
-269 355 0
202 110 0
-142 -583 0
-175 495 0
377 -221 0
480 521 0
-138 475 0
-357 -203 0
-259 -217 0
-352 -88 0
466 299 0
489 164 0
133 -453 0
141 -366 0
354 -101 0
-127 481 0
-59 -561 0
243 -8 0
-203 230 0
-415 -149 0
434 -405 0
-500 413 0
120 -504 0
387 -272 0
-430 -476 0
-496 -478 0
405 57 0
472 516 0
-207 -106 0
-432 -533 0
314 -344 0
100 -249 0
-166 -33 0
81 -580 0
454 503 0
-451 -77 0
69 97 0
296 -152 0
518 223 0
297 211 0
440 56 0
-339 398 0
129 473 0
-524 463 0
255 555 0
-519 -88 0
-577 304 0
-421 48 0
-34 -240 0
467 -274 0
123 -334 0
401 -169 0
436 -398 0
-150 -392 0
584 284 0
536 521 0
475 563 0
-527 104 0
-303 464 0
495 405 0
161 154 0
307 -259 0
182 -423 0
-276 -356 0
428 -424 0
27 -320 0
435 -568 0
-113 412 0
180 -410 0
-181 488 0
-288 -150 0
-479 -275 0
281 -355 0
-360 -367 0
247 -543 0
-196 474 0
145 326 0
83 186 0
-450 472 0
-249 -18 0
73 482 0
-245 393 0
-117 467 0
562 296 0
103 577 0
-293 57 0
-201 398 0
311 502 0
110 -358 0
437 -571 0
130 412 0
-371 -246 0
442 315 0
182 448 0
-212 -296 0
-532 -472 0
552 -556 0
382 -290 0
414 -99 0
82 14 0
114 263 0
-543 129 0
199 30 0
-342 -540 0
200 337 0
-335 296 0
-131 336 0
-554 -263 0
374 264 0
-20 49 0
-577 -560 0
154 -481 0
-256 590 0
-178 243 0
16 545 0
-45 23 0
175 -87 0
527 -409 0
-172 457 0
-75 -105 0
-340 179 0
-467 572 0
-428 -131 0
-371 76 0
396 -163 0
482 -74 0
56 -441 0
359 59 0
444 28 0
-88 -273 0
103 -172 0
-456 -571 0
76 564 0
30 -359 0
557 -559 0
500 -30 0
-580 563 0
-556 511 0
-66 -401 0
-400 -453 0
-58 30 0
-562 552 0
-397 -230 0
-476 141 0
-342 -546 0
-127 346 0
84 429 0
130 288 0
-289 -529 0
133 -96 0
161 433 0
-198 459 0
567 332 0
161 -87 0
438 -237 0
-149 -415 0
415 -137 0
-389 -140 0
483 40 0
284 -87 0
-476 120 0
589 -589 0
-558 -559 0
458 466 0
516 178 0
498 557 0
166 -538 0
141 9 0
365 502 0
525 -365 0
158 313 0
166 -152 0
-83 -301 0
-316 214 0
-43 477 0
536 -3 0
-138 357 0
-18 -424 0
299 463 0
256 177 0
-424 77 0
-520 66 0
-94 68 0
-89 -422 0
-88 -17 0
-527 -201 0
-320 331 0
-192 466 0
-478 418 0
412 164 0
474 287 0
-35 180 0
54 114 0
221 -286 0
276 -230 0
-33 -476 0
455 -348 0
583 553 0
490 496 0
-468 -540 0
391 -375 0
372 -355 0
505 -345 0
406 225 0
218 -574 0
455 -196 0
179 -360 0
487 526 0
282 -338 0
-12 126 0
575 489 0
-155 399 0
23 -77 0
-130 -321 0
-486 -559 0
-537 -372 0
49 313 0
-220 580 0
-168 -239 0
-426 185 0
-562 461 0
490 -53 0
-257 -438 0
-141 405 0
326 -177 0
258 511 0
79 420 0
-250 28 0
507 -493 0
285 35 0
165 -415 0
-277 358 0
299 326 0
-308 418 0
342 418 0
271 585 0
143 317 0
-356 -14 0
-349 -127 0
150 -316 0
495 332 0
-20 -47 0
31 -373 0
-423 474 0
-242 -174 0
565 -311 0
489 -105 0
101 -294 0
213 526 0
348 436 0
256 447 0
-305 -522 0
528 479 0
-170 299 0
-334 137 0
-514 487 0
545 -426 0
-393 231 0
-461 381 0
229 472 0
-178 -12 0
191 -107 0
-22 -160 0
192 568 0
-190 429 0
-89 443 0
-320 558 0
-91 416 0
-52 358 0
231 248 0
-478 165 0
-491 -308 0
115 49 0
199 192 0
231 -568 0
-2 137 0
557 475 0
565 -297 0
148 248 0
-305 41 0
124 256 0
-259 -382 0
578 -150 0
474 -244 0
190 -411 0
307 164 0
125 299 0
62 337 0
-59 -108 0
-566 341 0
274 -379 0
313 -475 0
282 -465 0
284 382 0
-85 355 0
-3 -226 0
-585 -565 0
-553 192 0
380 -155 0
450 357 0
-266 -139 0
-474 -424 0
580 479 0
-252 129 0
-128 -193 0
-446 -391 0
-14 575 0
502 -532 0
-89 455 0
-188 -439 0
263 557 0
458 496 0
89 -130 0
-479 -360 0
522 523 0
-372 -417 0
-78 464 0
119 285 0
555 120 0
-142 -196 0
-272 -151 0
-142 -355 0
555 269 0
204 57 0
407 -375 0
240 395 0
-416 -504 0
-474 537 0
-193 -67 0
347 -252 0
166 386 0
209 42 0
429 -530 0
-496 28 0
522 -218 0
-448 119 0
-500 210 0
-84 412 0
247 -60 0
489 546 0
-35 -58 0
281 -185 0
-346 -513 0
-192 -59 0
-460 -484 0
-55 -38 0
167 -567 0
-52 84 0
-72 -143 0
359 -345 0
-129 -94 0
-8 80 0
-442 -392 0
-517 446 0
-257 -242 0
564 410 0
415 -60 0
444 -401 0
-322 -448 0
24 454 0
30 403 0
97 384 0
172 292 0
-574 133 0
-244 37 0
-203 260 0
125 438 0
67 -555 0
-243 -230 0
-419 -204 0
-477 -581 0
185 -469 0
100 -406 0
-59 224 0
39 -174 0
-541 -5 0
-583 -227 0
-244 -420 0
-568 350 0
313 463 0
375 507 0
-352 182 0
-277 206 0
-390 434 0
-253 -492 0
71 326 0
516 -364 0
173 -54 0
71 269 0
-548 449 0
-469 436 0
296 133 0
173 390 0
-574 -521 0
324 -455 0
-64 -548 0
-548 464 0
460 24 0
-218 -68 0
-474 372 0
-178 -445 0
149 -548 0
-45 -186 0
-19 -111 0
-237 97 0
-185 76 0
-571 547 0
-33 269 0
225 -3 0
441 398 0
-438 -241 0
159 -382 0
-261 37 0
86 143 0
351 465 0
-183 -333 0
-363 -32 0
-216 374 0
402 281 0
502 -228 0
-188 256 0
208 -188 0
-371 103 0
423 331 0
-544 -204 0
-41 -533 0
-283 489 0
-510 288 0
39 -316 0
385 -541 0
100 359 0
500 296 0
540 -19 0
-427 -5 0
-106 -329 0
-344 520 0
-317 -526 0
-134 -556 0
29 -464 0
99 -66 0
-275 -536 0
-193 -460 0
480 242 0
-248 453 0
325 -283 0
-181 210 0
-68 -322 0
-382 -543 0
21 429 0
179 153 0
297 -411 0
-320 -409 0
-273 395 0
-152 -446 0
-154 9 0
545 -547 0
-469 -285 0
206 403 0
-499 584 0
129 507 0
109 351 0
159 380 0
-131 -163 0
-277 394 0
-520 369 0
576 -115 0
210 515 0
267 354 0
-300 485 0
-213 -400 0
-251 64 0
114 93 0
-567 398 0
406 468 0
124 470 0
391 -332 0
408 46 0
440 -486 0
-517 136 0
-476 144 0
-524 -223 0
358 226 0
-95 -81 0
-146 -288 0
167 366 0
-563 -300 0
-210 -306 0
437 326 0
-151 -266 0
-437 384 0
572 -355 0
28 -417 0
-23 493 0
-247 -378 0
-548 -239 0
198 -531 0
389 177 0
-449 -529 0
247 93 0
-274 -382 0
-259 263 0
-107 256 0
-149 -575 0
557 572 0
-347 399 0
-188 566 0
-517 143 0
445 147 0
450 100 0
-23 207 0
-521 -192 0
-22 -307 0
-228 570 0
-52 290 0
-259 -384 0
-15 -563 0
-537 415 0
-333 194 0
-520 74 0
-501 282 0
465 518 0
-259 -329 0
-183 -189 0
57 567 0
9 -95 0
137 374 0
576 -578 0
185 -424 0
-305 224 0
437 392 0
425 -274 0
35 -532 0
374 -381 0
-15 -376 0
339 92 0
123 72 0
-133 -68 0
-580 -588 0
576 10 0
-472 192 0
54 -403 0
-352 541 0
330 69 0
-281 444 0
309 540 0
393 275 0
213 452 0
-439 -28 0
294 -220 0
-304 497 0
-390 262 0
420 48 0
412 -532 0
-176 436 0
-130 283 0
-251 279 0
-396 -382 0
-554 552 0
