c NF
p cnf 3285 2300
407 22 0
2195 2916 0
-121 -1892 0
-1515 2782 0
1593 -1861 0
-740 -1334 0
-165 2952 0
2859 -2232 0
2674 -951 0
2485 -2168 0
-1187 1328 0
-252 -3104 0
-61 1498 0
-3271 -1840 0
802 2656 0
2868 -2724 0
-636 -364 0
-538 -2007 0
-2142 -1741 0
-1812 1243 0
-3012 948 0
183 -1720 0
661 -168 0
-2406 618 0
-1751 -1502 0
-688 415 0
2721 -1111 0
-2836 -1084 0
2579 3053 0
1593 -506 0
239 -2471 0
-773 253 0
1863 -776 0
-2942 -2831 0
-2675 715 0
-3132 2513 0
-1630 1489 0
2190 496 0
3088 -2698 0
1565 -809 0
-793 -2125 0
-2940 -2657 0
2290 -1209 0
-2489 -1606 0
1062 3277 0
-3169 -1480 0
-1514 -1697 0
-1990 923 0
2761 -2866 0
551 2255 0
2724 2603 0
-904 1460 0
-2957 -1851 0
2841 1711 0
-3257 1601 0
3052 -2507 0
-2474 -379 0
-1776 473 0
565 2839 0
-1785 2213 0
-286 2233 0
634 -1995 0
520 1131 0
239 2888 0
-3257 2650 0
-42 1393 0
-693 -2407 0
843 -1716 0
1628 1412 0
2339 -1165 0
3187 656 0
2172 -1877 0
2499 1056 0
2590 2891 0
958 -910 0
1590 -2949 0
3278 2468 0
2642 -1169 0
-1804 1985 0
484 -2853 0
2897 2910 0
-2392 -689 0
1893 59 0
111 621 0
-1123 3133 0
2484 -2466 0
-3042 -2696 0
2057 -2912 0
102 2078 0
2097 3062 0
1781 2932 0
-2635 2047 0
-961 621 0
-2032 -1681 0
579 -614 0
1906 3102 0
-1336 1220 0
-2991 -2371 0
145 2478 0
416 1051 0
52 532 0
-871 -2228 0
-273 785 0
127 631 0
522 -362 0
-2365 2788 0
-1963 3218 0
3166 719 0
2599 799 0
-2189 2918 0
-859 1464 0
1616 2837 0
-928 2652 0
1814 -1480 0
-2668 -2772 0
2750 37 0
-1214 -76 0
-1044 1524 0
-932 -1480 0
-1537 3122 0
-1734 -1708 0
2405 -1132 0
-1157 83 0
1363 -2083 0
-900 780 0
-2804 1957 0
-1654 -2602 0
1730 -485 0
1905 2787 0
-3268 -1352 0
-776 -2828 0
-2454 -931 0
-2480 1540 0
2446 1215 0
1279 1430 0
-2942 2876 0
1763 556 0
3248 -2355 0
2531 1265 0
665 -26 0
1212 3098 0
927 1248 0
3100 2881 0
-2189 1219 0
285 901 0
-77 -3235 0
608 -2539 0
55 300 0
-367 -984 0
-415 2707 0
-899 -790 0
-1827 694 0
-627 -2930 0
-2773 2769 0
-26 -1877 0
-2921 -698 0
-2050 2438 0
-2263 3056 0
-1951 -2676 0
-1127 2732 0
2446 45 0
931 2152 0
-2633 2527 0
2615 -599 0
-261 1610 0
-1331 1007 0
2042 -1737 0
-766 -531 0
1829 1745 0
1376 -201 0
-422 -233 0
279 -1892 0
-1453 2214 0
158 -161 0
1292 1382 0
-2592 -2754 0
2215 2256 0
1583 -305 0
3087 -1371 0
-822 -11 0
-1631 3184 0
707 -3170 0
-276 1444 0
1937 -1848 0
-3201 887 0
1270 -605 0
-1244 -1486 0
2493 360 0
-693 1672 0
2785 -3206 0
1157 -3219 0
142 -1040 0
2467 2655 0
2139 2297 0
-1477 -2738 0
-2744 242 0
-3088 -1347 0
371 2640 0
1383 184 0
-971 -1366 0
1374 -3238 0
2421 1043 0
2699 1627 0
2918 2108 0
-2813 2835 0
1749 -292 0
3250 2157 0
1151 -3211 0
-1969 3214 0
-1322 3054 0
505 -203 0
-2639 -1428 0
-943 -1850 0
1926 851 0
-497 -330 0
1645 441 0
1338 -2657 0
-1307 -588 0
2177 3220 0
1890 2061 0
-775 -4 0
3017 775 0
1763 749 0
-1341 -1824 0
-688 67 0
-73 -1665 0
-2392 42 0
-2517 3232 0
-1150 -558 0
-1891 -1004 0
-1651 -765 0
-1838 -1170 0
2848 -3226 0
375 1934 0
-117 2816 0
2735 -2132 0
-3119 2855 0
2209 1536 0
368 152 0
1745 129 0
-1794 -717 0
2880 -3034 0
-2633 3116 0
-1153 2706 0
623 2074 0
-424 2753 0
-227 3250 0
-1706 2376 0
1720 1564 0
-2635 -3119 0
-2014 -2872 0
-2636 -2085 0
244 -2508 0
-2028 -305 0
-369 177 0
2904 798 0
944 -1741 0
-2712 -1454 0
325 -481 0
703 3244 0
-2037 -2755 0
-1996 2878 0
-1491 2313 0
-1666 -3190 0
-2686 -514 0
1657 863 0
1077 2493 0
119 -710 0
-2718 -2647 0
-787 -980 0
-2543 2437 0
-2675 1228 0
-2364 2208 0
-2058 2784 0
-2595 734 0
-2144 114 0
2627 3025 0
-2907 -661 0
-686 -3024 0
-1751 -3053 0
-2091 -198 0
403 830 0
-454 -883 0
1330 2649 0
2459 -1592 0
1430 1534 0
-2406 -447 0
407 1265 0
2822 -3214 0
-1891 2722 0
-230 -1978 0
889 -3253 0
2356 -2912 0
-2671 -1828 0
-2512 -1681 0
3067 -19 0
-1475 -2248 0
1136 391 0
-795 -1106 0
948 -2032 0
-2532 -1744 0
-1150 -1924 0
2901 -1638 0
-2193 -601 0
-542 804 0
233 562 0
2766 -2519 0
-477 2179 0
-141 300 0
-1612 -3219 0
-1649 810 0
1491 666 0
-807 1398 0
-1397 1015 0
1184 -1957 0
-1915 -911 0
424 -2164 0
1544 165 0
-2629 -735 0
-3038 -3046 0
-3121 -2512 0
-1474 -3201 0
-1979 -3189 0
2850 -1851 0
1015 165 0
70 -559 0
639 -720 0
748 -2674 0
95 1097 0
1819 2482 0
1547 -2940 0
1378 -2829 0
-1977 -326 0
765 1892 0
-2586 -731 0
1424 -2816 0
-1359 300 0
2225 -635 0
2303 -132 0
473 1092 0
1452 -2901 0
2340 -856 0
1248 -2872 0
-3092 -2979 0
-1489 -1342 0
607 -2840 0
1038 -2095 0
3000 -1936 0
2961 1720 0
-481 2388 0
914 -1046 0
-719 210 0
193 -1711 0
1950 -677 0
1921 933 0
3109 1558 0
2609 -2587 0
-1496 -257 0
-1320 1230 0
46 -152 0
420 -1163 0
162 -280 0
1037 3047 0
1604 -1226 0
1120 1460 0
-1093 2415 0
-357 -2161 0
-1500 -2609 0
1540 -2530 0
-2462 -3215 0
-3212 402 0
233 -71 0
2508 -1252 0
1549 -2065 0
3211 826 0
-2681 1881 0
2505 2579 0
-2370 -1262 0
3004 -45 0
-258 -1901 0
-485 -332 0
-1210 -1491 0
2320 557 0
-190 2756 0
1136 2644 0
-2882 1808 0
-619 -28 0
1116 -552 0
-166 1705 0
-1006 2788 0
-740 -1472 0
679 -2610 0
690 130 0
-2539 -1278 0
-3002 1813 0
-2895 1788 0
1230 309 0
-803 -2913 0
-1919 -168 0
3011 949 0
-1787 2196 0
636 -1389 0
-3149 2084 0
-2231 -2151 0
-517 -1748 0
-2082 2870 0
3215 1089 0
1882 -731 0
-297 -2349 0
563 2881 0
2992 30 0
-3207 -2675 0
1892 -1200 0
1162 608 0
-2472 -1739 0
-113 918 0
-2847 -1734 0
21 549 0
18 -527 0
-24 -1335 0
-1098 -713 0
153 2966 0
166 -1382 0
-3229 1974 0
1424 1103 0
196 -2128 0
1389 48 0
1360 -298 0
-1537 2004 0
2476 2756 0
-619 799 0
1459 -2685 0
1666 2962 0
1788 -560 0
1109 -1436 0
2809 -469 0
293 -2852 0
595 1140 0
958 2001 0
2350 -2352 0
-517 683 0
-302 -2613 0
1982 -1548 0
1745 1860 0
-763 2307 0
869 44 0
-685 1535 0
985 -2290 0
566 -442 0
1809 2959 0
-1385 -915 0
2024 -1940 0
-2559 -2817 0
-200 -2813 0
-1255 1018 0
930 1974 0
-1663 1125 0
1733 712 0
1128 -234 0
1197 2824 0
-610 -338 0
2880 -3055 0
-1348 711 0
-2753 -195 0
-3074 -1841 0
46 -1555 0
2626 1774 0
1724 -747 0
-217 2766 0
1629 -2156 0
1616 201 0
-2050 -1239 0
393 231 0
65 -1166 0
2090 -2279 0
145 1612 0
-244 -891 0
2076 1113 0
196 1787 0
-1178 882 0
262 2136 0
431 3196 0
-422 -1734 0
2426 -1481 0
571 2023 0
-2177 -2496 0
-601 -307 0
-471 3 0
-3086 -263 0
1263 -2959 0
2081 -1779 0
-2494 2923 0
831 3074 0
992 -248 0
-1538 -733 0
-1493 2527 0
2745 -12 0
-888 979 0
2812 1249 0
-85 1820 0
-1366 2990 0
1295 1364 0
-3054 -2510 0
-1632 1894 0
1235 45 0
1098 1249 0
2940 -3245 0
-2137 -1680 0
1800 2742 0
-1524 -654 0
1450 563 0
-1446 1577 0
1076 -2123 0
2269 1695 0
-57 2328 0
2007 -2571 0
-1692 2160 0
-1407 -466 0
79 716 0
1608 670 0
1692 -1734 0
1287 -2068 0
-709 -67 0
199 26 0
1619 -1718 0
129 -2917 0
178 -1244 0
1326 2881 0
2773 -74 0
1715 2655 0
2887 2968 0
2079 -2203 0
-1688 -376 0
-2022 2047 0
681 -2131 0
16 2251 0
-1356 1131 0
260 617 0
3136 -897 0
-1537 -1712 0
1196 2518 0
-2280 -2740 0
-2290 -2804 0
-9 -346 0
-1751 1115 0
-2677 -2801 0
2904 -2832 0
-2065 -1397 0
-103 -2650 0
2888 -2899 0
-2869 -1305 0
2868 -2429 0
-783 -2737 0
1000 2049 0
-589 1815 0
853 2819 0
1472 2247 0
-2016 -1727 0
2434 -2772 0
1170 -2342 0
-1041 -1866 0
2394 2012 0
-1662 541 0
2106 2130 0
1384 2946 0
-3272 -885 0
2906 -1209 0
-835 226 0
-2259 -1956 0
93 3203 0
2769 1005 0
2708 799 0
1013 404 0
2212 340 0
-2418 -1352 0
79 -2501 0
-325 -1510 0
-254 -1774 0
-1361 -1387 0
-1653 -1521 0
-459 -2061 0
1271 -702 0
1666 2257 0
-2471 2198 0
-1184 -2202 0
235 -378 0
-2481 -1548 0
2103 -73 0
-1143 -397 0
2708 407 0
-3059 -360 0
648 -902 0
1855 -704 0
-1477 2377 0
-1862 2338 0
-1725 156 0
-2379 -791 0
653 1824 0
1232 -1617 0
1995 1749 0
2176 -3197 0
-1660 2883 0
-599 -2902 0
1412 1200 0
777 1388 0
1375 1897 0
1679 -1085 0
-973 2374 0
-2798 -1089 0
2303 -1943 0
153 52 0
2474 -1342 0
-1552 -416 0
-736 -3245 0
-2876 -917 0
183 -2443 0
344 2297 0
-1896 1091 0
-482 506 0
-782 -271 0
-2391 -2344 0
1086 2589 0
-816 -2441 0
1269 -1728 0
1362 1509 0
-2832 -455 0
967 -2849 0
-1730 -1022 0
-106 -641 0
-2401 325 0
1059 -2190 0
-376 -523 0
23 3275 0
1725 -2138 0
1212 -396 0
3013 2382 0
316 3278 0
924 1100 0
-3251 421 0
741 1042 0
2823 -146 0
-394 70 0
-1069 1461 0
22 1212 0
-852 -384 0
-2684 1445 0
2466 -966 0
62 2173 0
2727 -1282 0
2242 1527 0
2879 2174 0
1619 -561 0
-1025 2587 0
2347 644 0
163 -2848 0
499 -2188 0
-2287 1324 0
1290 -343 0
2666 -1316 0
-1434 624 0
3181 3210 0
865 1350 0
-1518 2734 0
-1166 -2982 0
-724 -17 0
-2585 -1007 0
269 2214 0
-3107 -2759 0
-371 -1351 0
2137 99 0
-2580 361 0
2239 496 0
2440 260 0
1786 3175 0
560 -3282 0
860 1566 0
454 -3260 0
3009 526 0
2064 2634 0
606 -1026 0
3009 -613 0
-290 143 0
2074 2651 0
2416 -1560 0
2689 119 0
1107 1713 0
2525 -213 0
-475 -2916 0
2183 -424 0
2529 -874 0
-247 2100 0
-2635 -112 0
-2330 -2039 0
910 -1404 0
1171 1134 0
2800 -1777 0
-160 -2058 0
-429 2985 0
853 1143 0
-667 104 0
273 -1280 0
-1009 -1513 0
-1147 -856 0
-1278 -2935 0
-3213 2822 0
2278 -1945 0
529 458 0
2787 3228 0
1820 -292 0
-2435 67 0
899 -2934 0
-2357 1459 0
-1554 2049 0
2769 586 0
965 2602 0
-1892 -1023 0
2241 1706 0
2679 -2424 0
3224 -2685 0
-1863 -1890 0
-922 -2795 0
2294 -3167 0
-1134 2099 0
1648 2265 0
2320 1350 0
660 -2241 0
1474 -1618 0
-1022 1659 0
-1167 -1626 0
-1562 -440 0
949 -2786 0
-1254 2005 0
-1202 -2664 0
-1719 -2648 0
953 -1214 0
244 1088 0
-1385 538 0
-3242 1126 0
2494 -469 0
-2366 -446 0
-3027 2048 0
-1723 -2660 0
1008 1521 0
592 -224 0
-3184 -2890 0
-2416 1071 0
-1538 258 0
2250 2538 0
-2206 -3119 0
-898 -2370 0
-1922 836 0
-565 -62 0
-591 1915 0
701 27 0
2117 463 0
-2768 3184 0
711 1372 0
3167 -2396 0
-602 -2040 0
2192 1815 0
752 -2503 0
3220 -1691 0
2453 3085 0
-1675 1901 0
3080 3025 0
2625 -1248 0
3197 -2218 0
3275 172 0
2417 -2481 0
1416 2838 0
2379 1102 0
3196 2568 0
666 2906 0
-2997 480 0
-1478 48 0
1547 -1294 0
2437 1292 0
659 1382 0
-1060 -621 0
2373 -272 0
1916 -1288 0
437 2049 0
2810 -1841 0
-2305 -2010 0
1109 2223 0
95 2492 0
-2812 -2392 0
-465 -1446 0
1783 2054 0
2694 2529 0
-2829 824 0
-842 -62 0
2958 -53 0
1798 1992 0
-1227 942 0
7 -821 0
-1577 1893 0
775 1727 0
490 -1808 0
1159 -491 0
1234 -1803 0
3206 -2686 0
2700 385 0
1683 -326 0
-628 -3036 0
-1480 327 0
2607 349 0
2359 -2351 0
1161 3021 0
-2223 -1128 0
-2989 -1197 0
-1992 2872 0
-451 1323 0
1372 2592 0
-2796 468 0
-2209 -3089 0
90 -813 0
795 -476 0
1192 -1338 0
-535 1539 0
-2506 1895 0
156 -2718 0
2742 -2486 0
2181 -1448 0
-107 1181 0
2181 -2390 0
2287 2687 0
-2470 1410 0
1744 2211 0
2833 -2323 0
405 3000 0
-1132 940 0
-237 -1606 0
1946 -2515 0
256 1746 0
-564 -3276 0
219 133 0
-3007 -895 0
-1423 220 0
-2390 -490 0
-508 1864 0
217 -1703 0
-900 -379 0
3249 -1423 0
-3264 1657 0
-1302 2389 0
-909 604 0
2743 -2363 0
-234 -2150 0
-1277 712 0
-1987 -1775 0
-2660 -1962 0
1255 -1954 0
3186 194 0
-1574 1453 0
-146 1425 0
-2948 -1970 0
-3137 -1285 0
-331 -3091 0
1713 -247 0
-1490 -1741 0
-2277 1495 0
-1164 -2443 0
-793 -1966 0
3018 145 0
-383 -2140 0
1389 -2684 0
82 -3240 0
240 -3268 0
3000 321 0
-324 2754 0
-2939 -1357 0
705 -381 0
278 3100 0
-1434 2645 0
-2763 -132 0
-2056 -2984 0
-628 -1848 0
-345 -2098 0
127 1248 0
-1772 -2193 0
-3135 2507 0
-2992 3278 0
-321 1426 0
-399 722 0
-3269 -1356 0
-930 2241 0
689 20 0
697 -161 0
675 -1346 0
550 1894 0
1761 1149 0
224 -871 0
-2962 196 0
1480 -213 0
1222 -1299 0
3220 -3105 0
-1270 -1503 0
-216 -1777 0
-1165 -2056 0
1769 322 0
2219 -1704 0
-6 -342 0
-1931 532 0
-2015 2184 0
105 2634 0
309 -1583 0
-1545 -2188 0
2245 -2347 0
325 3272 0
-1951 2510 0
1263 2863 0
-2925 1832 0
2552 -607 0
568 -2847 0
2212 1350 0
3246 -1759 0
1375 575 0
-2887 -719 0
-840 2674 0
-1860 -1417 0
1807 -3039 0
-196 -1986 0
-723 942 0
535 -1637 0
1931 -1675 0
2918 -1845 0
-142 -1215 0
-1453 1021 0
3266 2653 0
3238 -3059 0
64 2856 0
1140 3124 0
1122 3049 0
1625 -1718 0
-533 -2015 0
2677 -1877 0
822 1829 0
-131 1540 0
-2465 3225 0
-2446 -2591 0
37 1317 0
-2496 -888 0
1644 -3094 0
-2120 -1940 0
-990 1867 0
2432 923 0
3172 -2559 0
-2988 1503 0
1475 -1861 0
1218 172 0
-1498 -1466 0
-2715 -842 0
-2779 1338 0
-1639 1787 0
-2430 -3124 0
-3050 -2736 0
-874 -498 0
2530 -2629 0
1169 1765 0
-125 661 0
-3080 2931 0
-1434 982 0
-2950 -1452 0
-2550 -596 0
-2456 617 0
3152 -3194 0
942 561 0
345 -1191 0
-1883 -2243 0
-3249 -616 0
1118 -1037 0
-1775 313 0
-1898 -365 0
3028 -124 0
-2880 -1523 0
-1041 2319 0
1548 3184 0
354 -476 0
13 2697 0
-1335 2121 0
3044 -1374 0
2798 824 0
-776 2117 0
1710 -33 0
1217 -533 0
-3018 -3072 0
688 -466 0
3 1198 0
2741 1122 0
-856 -3101 0
2662 -2844 0
603 -1583 0
2357 -1835 0
2846 -1332 0
582 -131 0
309 -1946 0
1962 -800 0
-966 2389 0
2068 -3005 0
-952 -3251 0
-1818 -1845 0
787 457 0
2148 -534 0
728 757 0
-3279 3041 0
-466 2634 0
-3012 -854 0
-2735 -1458 0
2594 -1930 0
1054 2334 0
2671 1820 0
-2711 -3061 0
879 -160 0
-3105 2323 0
3067 -1259 0
-1046 2846 0
2157 696 0
-2703 -1568 0
1603 -347 0
-1655 2013 0
1804 -448 0
-1609 -109 0
2588 200 0
-3167 413 0
3172 2566 0
120 3039 0
843 2071 0
-2683 -1044 0
3115 -2883 0
1562 2604 0
-2465 2214 0
-1971 1292 0
-1135 -143 0
1472 2340 0
2557 -3041 0
2180 2244 0
-798 691 0
-3067 -2413 0
2467 -674 0
-66 -906 0
-936 -943 0
2868 -1316 0
-3002 -1751 0
2020 30 0
-427 -2854 0
2019 -1295 0
-2684 2241 0
-713 175 0
-3079 541 0
-2877 -351 0
1432 3236 0
3164 1015 0
3056 -523 0
-2961 -1149 0
-2648 -913 0
-2857 -2486 0
-1816 -77 0
-2399 1805 0
1898 2792 0
3156 2569 0
1031 -1203 0
-2265 -456 0
-2643 1334 0
-517 -2045 0
-2784 2360 0
-2191 2226 0
-3120 1374 0
1431 3148 0
-1828 -2678 0
-2675 645 0
1732 -2756 0
1367 2885 0
-1743 -1368 0
-2636 -2840 0
-362 512 0
-128 1741 0
-580 2091 0
-1850 -352 0
-2822 -3105 0
-79 -1983 0
2198 2309 0
1737 1093 0
439 -631 0
-594 -1234 0
-2605 -1538 0
-855 3070 0
-2148 1789 0
-1282 -1840 0
387 -1691 0
2672 2368 0
1600 -1958 0
443 -3146 0
1905 989 0
1040 2606 0
2591 1973 0
268 -500 0
-3219 465 0
1441 1375 0
2203 -123 0
3046 -846 0
-1660 2416 0
1520 1768 0
1890 1753 0
-267 -2773 0
-1737 -2535 0
-122 679 0
-2404 532 0
2883 75 0
1214 2962 0
2785 1572 0
-1365 2104 0
-848 2413 0
-2965 2229 0
-2023 2654 0
-2536 1300 0
2712 3177 0
-957 -1971 0
954 2567 0
-1630 140 0
1032 2220 0
-706 1494 0
-1156 -1978 0
1266 3079 0
-3030 -1167 0
1689 -229 0
265 2036 0
2934 827 0
-1149 -943 0
755 -356 0
3248 1213 0
-864 2558 0
2457 -2661 0
-1039 -2288 0
308 849 0
831 -720 0
1866 2049 0
-498 -618 0
-2836 1095 0
-1115 -2490 0
2617 976 0
2316 3154 0
-1252 2711 0
1190 -2824 0
37 1383 0
-1656 1525 0
-2553 1027 0
318 2348 0
393 -1519 0
-2985 2740 0
333 2338 0
766 1132 0
-3016 2147 0
1751 -68 0
1061 2538 0
1731 -3061 0
-1244 -2245 0
1775 3070 0
-6 -2731 0
-928 -2015 0
2691 1087 0
3069 -2609 0
-1555 2074 0
2787 -627 0
2572 -2452 0
880 1754 0
-2669 -971 0
193 -2447 0
-2609 2546 0
192 -1930 0
-271 1480 0
2989 -2000 0
1826 -1689 0
2037 -962 0
-701 2773 0
746 -2574 0
-306 1888 0
2627 -924 0
-307 1519 0
2396 -2142 0
1698 1798 0
39 1449 0
-2373 -353 0
-2862 1901 0
56 2400 0
1434 -965 0
495 -1458 0
2810 890 0
2828 519 0
-1664 -2547 0
-2778 2967 0
-922 1439 0
830 -2779 0
1790 915 0
-319 2258 0
2990 1187 0
-2563 866 0
334 1239 0
3002 -1919 0
2515 2859 0
-2557 -2522 0
-2745 -1454 0
-886 669 0
1271 1434 0
-1067 1048 0
-2092 2307 0
-1751 -326 0
-2890 2962 0
1971 2929 0
1141 431 0
-1693 -1140 0
1501 113 0
-1586 -1405 0
1565 -2763 0
-2873 -1215 0
127 274 0
-1575 -2928 0
2309 830 0
2044 -2086 0
510 1444 0
445 -445 0
-2688 1410 0
-176 -1842 0
-610 953 0
-521 2064 0
-2292 1104 0
-473 -1919 0
-1151 1672 0
-2650 -892 0
-55 2178 0
1013 2530 0
2445 -1022 0
-3060 1311 0
-1948 -2486 0
2769 810 0
774 -362 0
-999 -2850 0
-2949 1016 0
-925 -2464 0
2706 -812 0
-2121 3155 0
1297 1431 0
-2705 2970 0
-2149 1504 0
1974 575 0
-2911 2665 0
2550 -1710 0
-837 1531 0
1632 -2011 0
-2113 -3027 0
1636 -187 0
-2014 630 0
2229 484 0
-1608 512 0
817 2356 0
2058 1722 0
-1170 -3124 0
-3106 -1327 0
2583 -1233 0
2439 1165 0
2784 -1569 0
-1966 1406 0
-1219 604 0
-589 1529 0
172 771 0
579 -594 0
2849 1217 0
-2234 -2025 0
-3254 -1760 0
1576 -1792 0
2099 -1096 0
-600 -598 0
-2511 -2924 0
145 -620 0
-1139 1175 0
3087 -1390 0
1559 208 0
-471 573 0
1818 -653 0
-906 1936 0
-2746 2658 0
600 1854 0
3088 -2920 0
1231 -627 0
-462 -2797 0
3221 -1954 0
255 -1367 0
-3012 940 0
-2125 -584 0
-3210 2289 0
-2229 -2331 0
198 2042 0
-1732 1183 0
1476 2083 0
-1615 -2428 0
891 -3018 0
-2799 -1652 0
-437 -2623 0
566 -2688 0
-2125 -2679 0
-311 437 0
2070 -2085 0
1018 -2554 0
-1867 -2721 0
-2885 -966 0
2122 2192 0
1232 1898 0
344 -3212 0
2682 9 0
355 3047 0
-418 -2869 0
-234 -2027 0
-2191 -742 0
-443 -314 0
-1354 2600 0
-2098 638 0
3021 2127 0
-1528 -1865 0
2327 3210 0
1221 2011 0
-2159 1655 0
-2734 1359 0
-1455 -2988 0
444 2904 0
630 1287 0
1687 1602 0
129 2585 0
574 -2175 0
-717 584 0
-2724 2922 0
2393 810 0
183 -1813 0
1345 -3092 0
1639 -1609 0
562 2279 0
2669 -2729 0
-685 1918 0
-657 -298 0
-1094 -2220 0
-1326 -1978 0
-1557 -736 0
-3257 3101 0
-3259 18 0
-3171 -267 0
-2870 1329 0
-1968 2118 0
-2954 1445 0
444 872 0
2862 2177 0
985 1806 0
-947 -3233 0
-1972 -3189 0
387 -275 0
1888 -1580 0
-744 -1185 0
-62 81 0
1606 1879 0
-2692 -1561 0
-1946 -1853 0
1903 -2614 0
947 -1629 0
2353 -2262 0
1471 -2800 0
3172 -2436 0
-2250 183 0
513 2807 0
1141 -1943 0
-1641 1384 0
1575 77 0
1251 -2981 0
1859 958 0
327 307 0
-369 601 0
2585 1549 0
3036 2826 0
1272 -361 0
-1470 -1776 0
-1482 -718 0
-2255 -1986 0
1525 -1523 0
-659 -1010 0
-2335 1237 0
-3226 -749 0
2743 324 0
370 1868 0
2438 -1524 0
1693 321 0
-2213 2017 0
-2143 -1269 0
-1681 -2649 0
1872 1850 0
1503 -3178 0
870 558 0
-2364 -1252 0
120 -2635 0
-27 2353 0
-2925 194 0
1613 -1874 0
-781 2035 0
-160 1070 0
604 1162 0
1169 2677 0
1780 1753 0
302 -2861 0
-3185 1593 0
-2110 -555 0
3261 2741 0
-3112 2146 0
-572 -232 0
-280 -2843 0
-2368 1217 0
-1508 2828 0
-567 85 0
2380 -2010 0
-2236 1535 0
-1922 -1029 0
-3169 2054 0
1974 -3149 0
-2614 -132 0
1161 613 0
1292 -384 0
-294 2621 0
-902 802 0
-171 3271 0
-1356 -20 0
-633 3076 0
682 -2158 0
-1667 -1524 0
3212 2142 0
918 -1371 0
1198 -1900 0
336 -3043 0
-3157 3143 0
-3222 -497 0
340 -1379 0
-2015 258 0
832 1668 0
241 -453 0
-3012 1154 0
-1617 2270 0
-2481 7 0
910 2547 0
2460 -1143 0
2941 -3018 0
792 455 0
3055 343 0
849 -2998 0
827 1927 0
-820 -577 0
2418 -1382 0
1767 3131 0
-641 2275 0
-2649 799 0
634 1328 0
-509 147 0
-2242 -2031 0
385 706 0
1720 1006 0
985 -705 0
-1102 -796 0
869 1181 0
1640 -2749 0
-3262 -1515 0
1237 1217 0
-2727 -250 0
2704 2557 0
-845 -3222 0
2551 349 0
-1592 -1928 0
1231 -422 0
-850 -756 0
-2311 -285 0
729 1822 0
1263 1072 0
-1840 2419 0
169 -110 0
2900 2964 0
87 3102 0
2524 -2080 0
-1508 -1340 0
-125 525 0
-131 -2188 0
1814 1539 0
-1686 2443 0
1232 2943 0
-234 1110 0
-2026 1029 0
-2653 2053 0
-1150 429 0
-2811 2875 0
421 -814 0
202 2163 0
619 -780 0
126 525 0
-3054 -762 0
960 1302 0
-236 -2477 0
-1636 -569 0
-2126 -1463 0
1438 579 0
-676 385 0
153 2568 0
2117 2833 0
411 425 0
1571 -1203 0
-2457 2713 0
-1779 3116 0
-2848 -822 0
-2599 -2603 0
2713 1805 0
753 1866 0
-3036 -1421 0
2785 -3008 0
-2737 1205 0
454 1512 0
1805 -2885 0
2328 -699 0
-1254 -2870 0
2851 -313 0
2273 285 0
2648 -996 0
-2812 1632 0
-3054 -2377 0
2772 -1361 0
-2169 3095 0
3050 -2104 0
-457 167 0
2798 1613 0
-2360 1014 0
1965 2466 0
-1130 -1548 0
-747 -2077 0
1102 1829 0
-207 1701 0
217 -1185 0
-1498 -3272 0
172 -117 0
3024 -1341 0
-2541 1583 0
1527 -1400 0
1334 -1295 0
-2657 -1423 0
3275 -2295 0
1752 -2804 0
-1573 706 0
2533 -881 0
-110 3234 0
-1077 -204 0
2133 -2762 0
-2526 -3114 0
1089 -2481 0
-1601 1829 0
955 -236 0
1871 -159 0
-2022 -139 0
-2146 1351 0
-421 -480 0
202 -296 0
-1645 616 0
213 -1940 0
1006 -3209 0
1765 -1637 0
1346 3277 0
892 -2234 0
2213 -713 0
-1898 679 0
-747 2330 0
2063 2665 0
-3093 -1883 0
-1728 -2435 0
-2731 92 0
613 -240 0
-1692 -2532 0
-1109 727 0
2175 843 0
-2571 1039 0
1644 1995 0
-664 -1687 0
-2157 74 0
-969 -1930 0
-428 -906 0
615 2379 0
-68 2184 0
-2881 463 0
388 -190 0
87 188 0
447 -3096 0
-709 -465 0
-3201 -1865 0
2886 -970 0
-2487 2844 0
1690 -1349 0
-2056 2251 0
-137 2328 0
2390 1054 0
1419 3253 0
-36 -1684 0
290 1535 0
1729 1436 0
1872 707 0
-2362 -3074 0
2626 2844 0
2346 -2064 0
-745 -2304 0
1876 -1982 0
2928 2509 0
-652 -503 0
1883 -2562 0
-246 -987 0
-2862 -1970 0
1836 3014 0
-711 2442 0
3281 -1957 0
-398 1198 0
2308 -2990 0
-69 -2781 0
2563 2076 0
-2846 2682 0
1195 829 0
1017 -1822 0
-624 1029 0
-526 1428 0
-2237 2887 0
820 -2331 0
2846 -3078 0
2310 -3086 0
2497 -1357 0
-2813 458 0
2109 -456 0
-1738 1581 0
-239 1191 0
-2778 1580 0
-1357 -1755 0
-1999 -2044 0
734 -1099 0
-2795 1100 0
112 -586 0
426 -2309 0
-384 -555 0
2738 -3055 0
139 2989 0
-1281 -2403 0
2456 679 0
1433 1776 0
1944 -1011 0
-338 1619 0
2663 -1001 0
-2218 -2591 0
2514 1116 0
3144 -1225 0
-89 1117 0
-2164 1607 0
-941 3179 0
-2899 -2344 0
2470 2454 0
-1959 3190 0
136 3129 0
3278 2287 0
-2759 -2321 0
3085 1849 0
-574 -2144 0
2723 -1528 0
-2668 -3051 0
-2213 -1358 0
615 40 0
-1816 403 0
-715 -2463 0
-2797 1869 0
24 -1346 0
3262 -433 0
-791 3025 0
-1490 1079 0
-1838 1012 0
-2311 904 0
-2567 1790 0
-1568 1250 0
-35 -1080 0
2187 -901 0
-2233 -976 0
-1840 1815 0
-383 486 0
-1568 40 0
-1807 982 0
-2173 -791 0
1502 -1575 0
1837 -2094 0
-1266 -3262 0
-3067 2024 0
441 2860 0
684 3179 0
-1537 -240 0
-1025 2677 0
2764 1724 0
3278 297 0
1355 -542 0
-115 -302 0
2080 -2354 0
-3102 3223 0
985 1433 0
1994 -689 0
1764 -2533 0
1634 2881 0
3068 765 0
1505 -46 0
-2641 1057 0
-2240 3258 0
1512 3232 0
2991 -98 0
-3221 1477 0
2329 -2475 0
-2749 -2625 0
-1803 -529 0
2123 -776 0
-559 1050 0
3027 -898 0
-3135 -3118 0
-2093 -1826 0
-2778 -1247 0
2781 -599 0
-28 -832 0
-2344 -301 0
-1798 -3089 0
-817 2424 0
1205 -2338 0
-1649 -971 0
2851 1756 0
-1098 -2760 0
-2199 2599 0
-702 892 0
-3001 584 0
-586 1172 0
-2264 2701 0
-2857 -2314 0
2127 951 0
-2014 1783 0
-222 -787 0
2605 -1483 0
-2539 -1681 0
-1553 1953 0
300 -2917 0
-187 729 0
-2511 1774 0
-1547 2367 0
2089 986 0
-2650 -1568 0
-1393 -1064 0
1330 1740 0
2685 -3035 0
-1997 -2485 0
-2041 -2459 0
2870 651 0
434 -1193 0
-1026 1569 0
-256 -2659 0
3152 449 0
3252 -1252 0
-31 -1079 0
1613 -1578 0
1646 -1698 0
1447 3200 0
2773 -1709 0
3027 2166 0
2212 -124 0
1164 -556 0
1148 1999 0
-2151 -179 0
-1172 -454 0
618 -1863 0
2561 -500 0
-142 -1669 0
-2033 3147 0
1188 1782 0
-151 2208 0
-290 2035 0
-3027 2891 0
-1532 2429 0
-339 -1523 0
-848 -1390 0
3208 -209 0
1324 2772 0
389 2028 0
-2342 1808 0
-1493 2110 0
-1748 -2069 0
-1653 -2414 0
-576 2295 0
-2536 -2791 0
-2535 -1457 0
-155 1392 0
-1630 2881 0
-2898 -2939 0
937 3186 0
-417 1963 0
-1234 2472 0
-1536 1441 0
679 -1081 0
308 -2647 0
150 -3098 0
-990 95 0
-1548 950 0
-364 -2885 0
-2006 -1491 0
1185 2613 0
-1092 460 0
1960 -324 0
1459 -2172 0
1799 1388 0
-2745 -2806 0
2796 62 0
2604 -3192 0
-479 -2280 0
-270 48 0
1050 -3149 0
1680 3283 0
-2574 -2093 0
-1403 -913 0
-442 -90 0
708 347 0
1555 -1178 0
-886 569 0
1872 -2491 0
2163 -2039 0
1103 -1549 0
376 908 0
2514 -2477 0
-2347 2458 0
1280 -2046 0
1826 1051 0
2404 -1623 0
2634 861 0
-1734 -2015 0
3178 1144 0
2724 -2639 0
3197 -2575 0
2552 -3146 0
-1381 575 0
-2225 1182 0
3009 711 0
-263 1163 0
2326 -321 0
3096 2057 0
2439 1900 0
258 -1399 0
2889 -2149 0
2251 -518 0
1812 -1939 0
1454 1878 0
3190 153 0
1956 2904 0
-3120 -2114 0
-1971 2029 0
1414 -895 0
2184 -72 0
-782 -2641 0
-1168 -116 0
-693 -2240 0
-2070 132 0
1491 -1599 0
2952 642 0
3021 1773 0
-2050 2072 0
-1266 -993 0
2662 606 0
-2305 464 0
1616 -2929 0
-2717 1231 0
-1397 -1209 0
2147 -1472 0
-2791 -2335 0
-2841 -5 0
1772 -2258 0
-3046 -1294 0
-2236 2352 0
-2692 -267 0
154 630 0
851 -2497 0
-4 2548 0
1392 3095 0
551 -1795 0
3260 3011 0
-2571 2388 0
-1621 2300 0
-911 -2644 0
-1266 -2193 0
-3067 -2617 0
-1361 -1628 0
2984 2157 0
481 -3257 0
-2793 -10 0
46 2358 0
2922 173 0
-1850 -2240 0
882 1198 0
2080 29 0
-793 245 0
-2514 1323 0
2596 -3018 0
-3107 1315 0
-1786 -2148 0
-159 551 0
-1547 63 0
-2454 -3018 0
423 -2604 0
780 1543 0
266 1498 0
-1838 1033 0
-2026 2052 0
-1371 -1001 0
-2209 -2051 0
-2197 -309 0
-2665 2057 0
212 304 0
1905 1960 0
3116 592 0
212 3196 0
-787 827 0
-376 2701 0
1149 -3227 0
-701 -28 0
2572 -2170 0
-2556 -3111 0
770 -2973 0
-2090 -2343 0
1937 -1120 0
-2143 -2218 0
-1857 -900 0
472 2858 0
64 -3038 0
326 -2501 0
2803 2249 0
-1467 3073 0
-3109 -883 0
-2930 -2890 0
2691 -978 0
-2610 -1126 0
-1971 -2363 0
-399 273 0
2731 -1661 0
-2947 3241 0
-251 116 0
-2125 -118 0
1994 -1815 0
-452 3232 0
2916 75 0
2958 -1347 0
-2722 299 0
-1241 -1106 0
1181 -2993 0
-1884 1639 0
2405 1620 0
-2552 -978 0
-1337 918 0
-1815 -1595 0
-909 1780 0
1732 738 0
811 -1592 0
-1255 -2690 0
-196 1388 0
-3113 1175 0
123 1181 0
458 -741 0
-936 1742 0
2186 832 0
924 -1130 0
-240 -3173 0
-3106 -1681 0
1090 2019 0
2554 281 0
-2698 2800 0
2721 -1901 0
2843 -3084 0
770 2237 0
-2481 3174 0
2133 -1598 0
-221 -2504 0
2999 -2708 0
-3257 -859 0
-884 3216 0
2608 -2910 0
236 -3193 0
-531 -583 0
2956 -2183 0
-2138 -417 0
-3008 1952 0
1189 636 0
-1157 -1417 0
-28 3170 0
176 2426 0
-508 2672 0
-1537 -285 0
-1884 309 0
741 -2145 0
1242 1171 0
2803 2899 0
-825 173 0
-3159 735 0
1507 -825 0
2646 3011 0
1188 -2575 0
-920 2733 0
-1680 -2158 0
-2282 707 0
957 -1173 0
-2411 -1413 0
-261 -2590 0
-3171 1854 0
18 2472 0
-442 2646 0
-2814 -563 0
2358 -2260 0
2581 2802 0
-3119 -523 0
393 -2507 0
1560 -3150 0
1119 1952 0
-1218 2995 0
-2914 -3254 0
1406 -1587 0
-2523 1989 0
1688 1870 0
1851 -2078 0
2942 2226 0
1146 -2992 0
134 -2520 0
2421 2874 0
-1711 -1922 0
301 1005 0
-2720 -608 0
-2086 -802 0
2903 650 0
2467 1123 0
2750 -351 0
2940 1242 0
-2128 1841 0
-66 -2149 0
2419 -999 0
-912 -2611 0
1652 806 0
-637 486 0
1654 1613 0
1099 -2980 0
-2254 1834 0
-2820 -594 0
2111 -868 0
2493 -1344 0
-1278 1496 0
-1775 -679 0
-2883 -836 0
1860 -2165 0
3205 -2582 0
1198 2445 0
-576 3170 0
42 1130 0
3214 -979 0
1066 -2494 0
-1962 -421 0
1387 -1296 0
2560 -1996 0
1331 959 0
887 -1035 0
-2511 -1877 0
1356 310 0
1349 -2105 0
-1087 -67 0
101 2361 0
179 1161 0
-692 1130 0
-554 712 0
194 2669 0
686 298 0
1192 -2362 0
-3120 1509 0
-1310 1536 0
-1204 2780 0
1769 -733 0
2144 -2366 0
289 2363 0
-488 -62 0
-347 -427 0
-2095 274 0
-1199 4 0
1020 -377 0
-1133 3273 0
2542 -436 0
2001 -1483 0
-2649 -449 0
187 3021 0
1617 2732 0
-1712 209 0
-77 -2699 0
-416 3050 0
513 2810 0
-76 -1273 0
-134 -1329 0
513 2525 0
11 543 0
-1663 -244 0
-594 -790 0
1601 -1908 0
2572 689 0
-1650 2482 0
2472 -2579 0
1330 1844 0
2339 -3050 0
-247 208 0
137 2453 0
-3096 -1852 0
431 -106 0
-1738 -1096 0
-138 -1270 0
2991 2985 0
-2022 -2524 0
-918 -2358 0
-1931 443 0
832 1807 0
2577 -1771 0
2634 -170 0
-3245 202 0
1808 3165 0
2883 2529 0
-47 1878 0
1041 -695 0
1426 1160 0
2045 -3183 0
-823 -3272 0
689 2908 0
-1229 -2018 0
-2185 -2951 0
677 -18 0
642 -1093 0
3079 -987 0
-3145 264 0
2980 -965 0
-1702 -2008 0
2752 -2295 0
3124 -59 0
-2199 849 0
1687 2690 0
-727 3225 0
767 2668 0
-2792 2827 0
-1523 -2210 0
-2931 102 0
3222 -31 0
-2839 -564 0
-2120 2645 0
-1580 1367 0
3167 832 0
3090 -454 0
-550 -1293 0
-3027 -759 0
-2685 3040 0
-1607 -326 0
-2882 403 0
-1160 -2457 0
2784 -1064 0
-337 3152 0
1582 1935 0
-1223 1030 0
1782 707 0
-2200 3253 0
724 527 0
2688 2567 0
-2624 1034 0
374 -1660 0
3196 -451 0
-701 -1691 0
1903 1009 0
-1339 2565 0
1077 -37 0
1410 2134 0
2739 1450 0
-2474 -2311 0
-2650 1404 0
-2690 2262 0
-2933 -1066 0
1440 2995 0
2326 -473 0
-2629 -2029 0
-3068 -2174 0
-2885 -277 0
302 -933 0
-1262 1487 0
2955 -128 0
1732 -2016 0
2604 1471 0
1719 1138 0
-1857 -3280 0
2577 -3232 0
1961 -3065 0
-422 2361 0
-1294 -1598 0
-1282 329 0
81 -675 0
1122 94 0
662 1671 0
2689 -2961 0
-1948 -1888 0
-2850 2283 0
-1278 2310 0
434 2750 0
-1267 -476 0
1316 2444 0
-1703 -2983 0
1484 -1751 0
-2279 -2177 0
-221 -1839 0
1384 -1133 0
-72 3266 0
430 120 0
2598 -261 0
1112 2385 0
-1149 2904 0
1059 2826 0
1074 2876 0
2726 1364 0
969 -2779 0
-1999 -1538 0
1096 -2696 0
-1049 240 0
-599 -2648 0
-459 2405 0
-969 -554 0
2044 2915 0
1106 -713 0
-328 1183 0
-968 -3241 0
3070 868 0
-1239 1081 0
2936 292 0
2005 2819 0
2582 -433 0
-1069 2974 0
636 1502 0
-2650 1918 0
1559 -621 0
-1936 3134 0
3259 -2268 0
-1808 -138 0
2912 1581 0
1002 2548 0
-480 1522 0
2298 659 0
2940 505 0
2814 1148 0
2862 440 0
1423 703 0
2855 -2962 0
-3115 1588 0
811 -2527 0
-868 2530 0
2790 2822 0
2670 1415 0
2618 2418 0
21 1601 0
-1978 429 0
2074 930 0
-134 -2980 0
2747 300 0
1539 -4 0
172 2179 0
-3279 -429 0
-1188 566 0
-485 2413 0
-2336 -3173 0
202 89 0
1989 -1858 0
-2695 741 0
1361 -753 0
-1566 -2007 0
257 1051 0
196 2492 0
-2528 145 0
407 135 0
-461 -1764 0
-1591 1761 0
1435 325 0
555 2772 0
-2425 3045 0
2527 2860 0
-3203 881 0
2182 -83 0
1117 1942 0
2513 -1248 0
-1107 -1546 0
-2175 -1842 0
1624 1622 0
-838 -491 0
-953 -1791 0
1420 -92 0
-1930 2910 0
2101 2763 0
-1763 -2877 0
2265 -2742 0
-1337 -2450 0
1296 578 0
-3212 1876 0
-3173 -2054 0
321 -1877 0
-2522 1265 0
