c bounds 69 69
p cnf 505 1313
321 -95 0
-319 -189 0
-39 -350 0
-292 383 0
-122 -65 0
-496 -475 0
11 451 0
61 505 0
-94 -123 0
-1 -242 0
-94 -339 0
-423 -26 0
-110 -340 0
61 -32 0
421 -431 0
391 -210 0
446 -303 0
116 -158 0
391 -109 0
-257 24 0
-339 -74 0
366 -4 0
64 -83 0
211 -461 0
-100 174 0
-28 32 0
-385 373 0
99 -422 0
134 -253 0
437 -366 0
183 52 0
-151 -249 0
29 -332 0
-330 309 0
137 457 0
-134 -13 0
-184 444 0
-271 -386 0
-390 -442 0
-164 459 0
-157 -119 0
286 -310 0
-377 493 0
-13 92 0
327 -56 0
-92 -397 0
-478 281 0
215 -287 0
274 -301 0
-381 -195 0
-408 40 0
255 -376 0
418 178 0
273 -163 0
-175 347 0
-148 -477 0
-250 -72 0
-368 472 0
-474 -191 0
-234 266 0
-392 -30 0
-6 299 0
-436 -17 0
-181 -455 0
444 380 0
-8 -430 0
179 502 0
-178 -252 0
-430 130 0
-209 124 0
-271 456 0
213 323 0
-147 -23 0
-108 172 0
40 -143 0
297 427 0
87 443 0
92 -142 0
96 -207 0
-145 133 0
-492 410 0
2 443 0
249 245 0
289 -429 0
-123 -489 0
370 96 0
-104 232 0
-94 -340 0
279 -58 0
345 -447 0
124 305 0
-410 65 0
162 73 0
185 460 0
-257 -167 0
280 265 0
272 54 0
219 -114 0
470 -493 0
458 -195 0
422 39 0
384 -380 0
456 -435 0
-128 -281 0
-329 -187 0
-321 -47 0
-267 98 0
136 196 0
-283 443 0
479 467 0
137 -214 0
298 309 0
474 384 0
323 239 0
149 -435 0
-118 -284 0
-496 374 0
-2 477 0
-101 -495 0
393 456 0
-373 -82 0
22 -478 0
366 -79 0
-47 393 0
147 -475 0
286 -349 0
-257 -166 0
435 -116 0
-152 127 0
-222 -13 0
-460 -109 0
-201 -355 0
-159 237 0
-414 401 0
-97 405 0
-450 189 0
497 484 0
-158 7 0
-243 -303 0
-362 78 0
-210 274 0
422 -283 0
215 399 0
-427 -42 0
-147 156 0
-482 315 0
429 -296 0
-217 -335 0
-406 391 0
279 -391 0
459 -363 0
317 463 0
-221 256 0
-57 104 0
5 -316 0
399 500 0
-287 -54 0
-414 -157 0
-26 -169 0
-181 -429 0
-482 -343 0
38 -491 0
-447 460 0
115 119 0
244 -282 0
-211 152 0
208 38 0
-64 -182 0
-383 459 0
380 496 0
-314 -26 0
141 497 0
-206 383 0
-249 406 0
139 -53 0
232 -394 0
-411 -205 0
-369 251 0
-4 179 0
491 -279 0
-448 -489 0
425 -370 0
61 354 0
91 364 0
-230 -43 0
88 -121 0
-108 256 0
-211 10 0
-394 174 0
449 -495 0
57 44 0
99 -404 0
-38 164 0
501 -253 0
163 -480 0
465 204 0
-128 -155 0
-14 30 0
-11 434 0
-326 -426 0
-144 -423 0
464 167 0
345 -32 0
-381 -264 0
406 -106 0
-39 23 0
228 297 0
453 212 0
190 355 0
407 -486 0
83 207 0
-199 8 0
-484 -441 0
-236 164 0
36 27 0
265 379 0
-195 -63 0
1 129 0
-206 -185 0
190 -141 0
296 -41 0
-120 172 0
-173 320 0
112 160 0
127 -246 0
-423 -307 0
482 -375 0
-298 115 0
391 271 0
-328 -176 0
-55 175 0
143 -246 0
-458 136 0
343 1 0
469 278 0
-442 203 0
391 181 0
379 95 0
-316 233 0
363 261 0
208 26 0
-120 -77 0
-429 -462 0
-362 216 0
202 -116 0
261 -6 0
379 293 0
200 -148 0
-498 -242 0
415 12 0
-58 -92 0
-234 -131 0
397 266 0
-262 388 0
264 -70 0
-36 504 0
-48 -316 0
-4 -453 0
306 345 0
-438 464 0
461 178 0
-470 387 0
311 455 0
-180 121 0
-382 -250 0
453 -47 0
18 -67 0
-402 -408 0
-385 -58 0
86 -209 0
-2 -432 0
143 -94 0
-179 241 0
-123 -273 0
290 383 0
-321 477 0
400 -112 0
-42 -258 0
-404 462 0
-123 -187 0
440 -191 0
-2 -480 0
-460 -403 0
422 -407 0
-450 435 0
476 504 0
-503 -105 0
-243 -465 0
373 -163 0
193 -194 0
388 -75 0
143 -471 0
-19 -433 0
-267 359 0
463 -203 0
-100 -80 0
-74 99 0
-39 -483 0
317 353 0
91 -373 0
370 -103 0
314 -41 0
418 193 0
443 -159 0
136 1 0
266 337 0
-134 88 0
-267 -45 0
423 -21 0
445 -482 0
-373 -407 0
-115 476 0
-496 404 0
183 121 0
311 501 0
-299 -494 0
-248 244 0
-164 -220 0
-408 -159 0
-333 23 0
318 -205 0
322 389 0
-2 473 0
-288 -407 0
48 -148 0
-436 -120 0
462 9 0
293 359 0
462 360 0
319 367 0
389 23 0
-216 -114 0
447 174 0
-106 -420 0
-404 -343 0
377 -155 0
214 -170 0
226 204 0
-389 -76 0
-350 264 0
-328 -477 0
-486 -159 0
-78 337 0
-372 -257 0
-327 -250 0
40 328 0
57 309 0
344 -67 0
18 349 0
-418 166 0
240 354 0
-35 -458 0
-351 -492 0
319 -499 0
91 -154 0
-141 235 0
-23 222 0
337 -217 0
482 27 0
483 -253 0
212 480 0
-53 -380 0
472 -6 0
360 -346 0
-31 -58 0
-213 -23 0
-148 225 0
-118 -283 0
-347 -81 0
-301 -347 0
133 -113 0
-140 330 0
107 -168 0
88 477 0
185 293 0
-122 -385 0
469 101 0
-170 -444 0
-384 -423 0
237 -148 0
142 -207 0
-203 274 0
-361 -228 0
-299 414 0
445 201 0
270 -305 0
316 135 0
-284 172 0
-170 346 0
441 -103 0
198 -342 0
54 -122 0
356 -125 0
267 -330 0
114 -332 0
152 135 0
-398 109 0
245 273 0
-268 -347 0
-378 375 0
-501 -178 0
-114 -73 0
51 -441 0
95 66 0
422 135 0
229 170 0
337 -149 0
-492 4 0
-475 -451 0
49 401 0
-44 -301 0
393 -102 0
228 -168 0
291 416 0
-117 -465 0
-377 -303 0
-11 463 0
-480 -141 0
443 505 0
-141 -442 0
-431 136 0
-268 -4 0
-418 -312 0
266 77 0
441 403 0
440 77 0
-282 179 0
432 -1 0
-16 306 0
-208 432 0
-436 1 0
489 214 0
-32 387 0
396 -3 0
-385 -14 0
283 -290 0
359 164 0
490 113 0
147 255 0
-43 25 0
-368 -138 0
-44 188 0
484 -103 0
-326 30 0
-310 -434 0
459 -347 0
489 427 0
212 491 0
-206 113 0
153 185 0
-275 40 0
269 -280 0
-393 -103 0
-397 -177 0
-364 -238 0
-450 191 0
442 -97 0
445 8 0
-198 -353 0
-486 359 0
-505 -326 0
497 403 0
-105 451 0
-339 152 0
-448 -495 0
8 -94 0
220 -305 0
-380 -271 0
109 -171 0
461 -220 0
-442 -304 0
-31 218 0
-56 246 0
30 94 0
-330 173 0
272 338 0
224 -184 0
353 -332 0
-491 -369 0
387 -112 0
-84 -476 0
-131 355 0
284 -390 0
-58 36 0
-452 -326 0
126 -122 0
391 193 0
-420 -287 0
-346 453 0
86 268 0
413 384 0
-183 -139 0
-114 -406 0
223 -94 0
398 324 0
432 406 0
-132 410 0
-182 59 0
-388 -454 0
-290 36 0
-77 -457 0
-281 -327 0
160 -35 0
292 247 0
-246 -14 0
104 41 0
-423 -109 0
-416 231 0
-150 442 0
196 -262 0
-184 456 0
196 196 0
183 245 0
407 -462 0
-239 -368 0
146 -154 0
-154 192 0
-138 74 0
35 -462 0
-211 -368 0
459 89 0
-194 399 0
-19 -486 0
-13 -300 0
-82 -417 0
-92 -38 0
-59 456 0
375 45 0
-24 -215 0
88 31 0
-490 -467 0
36 -60 0
337 -110 0
137 317 0
132 144 0
1 474 0
-150 330 0
405 -476 0
-168 247 0
-192 -486 0
-145 340 0
288 218 0
258 -441 0
427 303 0
-133 204 0
-488 270 0
124 -62 0
248 -220 0
-99 429 0
476 166 0
-471 386 0
-263 399 0
-209 -131 0
295 -224 0
360 -175 0
-488 -407 0
-117 -448 0
250 -82 0
-38 183 0
-194 -56 0
-2 -34 0
-343 103 0
-28 457 0
412 -126 0
-117 -150 0
426 478 0
222 -452 0
205 146 0
-423 456 0
-122 -417 0
262 157 0
-217 -304 0
252 323 0
-246 232 0
-34 30 0
294 -135 0
-4 -255 0
-205 -392 0
-470 364 0
160 175 0
449 101 0
119 244 0
254 -232 0
-125 -67 0
-172 -328 0
-122 325 0
-72 -343 0
-42 -225 0
237 -220 0
361 505 0
218 222 0
-404 -27 0
-117 205 0
487 -494 0
18 83 0
431 409 0
-151 -42 0
109 -477 0
419 195 0
-290 196 0
27 436 0
425 396 0
-447 -461 0
370 224 0
-18 -4 0
380 268 0
470 -134 0
-224 313 0
238 498 0
408 -331 0
12 505 0
-428 -489 0
1 -351 0
-454 310 0
472 -383 0
25 135 0
238 -39 0
477 -422 0
-337 171 0
171 -191 0
22 480 0
-230 57 0
-209 -210 0
364 5 0
288 260 0
-186 -52 0
421 312 0
-103 214 0
-480 -455 0
228 90 0
391 116 0
-28 -349 0
257 -138 0
-373 -376 0
453 -473 0
-241 -442 0
-411 449 0
-357 383 0
-13 -315 0
402 -13 0
-123 106 0
-434 492 0
-452 -380 0
134 90 0
-59 486 0
11 -420 0
-81 475 0
-252 284 0
164 208 0
-320 -31 0
-386 -31 0
-301 -445 0
-342 -302 0
439 412 0
-289 437 0
-141 69 0
476 -382 0
-159 -203 0
177 -220 0
-326 -203 0
169 -220 0
172 -281 0
179 -160 0
-116 -81 0
-115 -455 0
-255 -258 0
-94 447 0
435 -263 0
-296 389 0
-23 233 0
476 463 0
-335 294 0
-153 400 0
-367 -24 0
-362 -321 0
263 -103 0
51 446 0
-469 -460 0
426 323 0
-23 -155 0
371 -283 0
401 493 0
-265 227 0
-442 454 0
-3 -270 0
166 49 0
-150 -501 0
-167 277 0
-150 23 0
-259 -131 0
247 -217 0
79 135 0
-351 195 0
-161 383 0
-52 294 0
64 114 0
130 -255 0
-332 -151 0
-353 -386 0
-210 -361 0
-126 -57 0
-176 241 0
-304 225 0
-219 261 0
-408 229 0
172 58 0
500 324 0
-284 160 0
-256 -454 0
-348 -269 0
464 -226 0
-434 405 0
-301 449 0
86 448 0
324 -505 0
367 -63 0
-66 45 0
491 291 0
-28 43 0
311 129 0
175 485 0
262 -167 0
266 320 0
-189 362 0
91 -192 0
-438 262 0
40 426 0
172 269 0
-417 -82 0
57 -180 0
14 466 0
-489 16 0
-119 82 0
428 4 0
-441 477 0
-319 -81 0
-418 -420 0
335 -336 0
-420 -122 0
338 83 0
-446 -232 0
429 -289 0
-434 396 0
354 -487 0
492 -131 0
-316 -324 0
-449 -118 0
155 -81 0
-381 -130 0
99 498 0
-91 453 0
-211 83 0
-188 -432 0
-201 -464 0
-184 172 0
-78 -202 0
283 272 0
-348 -187 0
352 247 0
357 -75 0
-251 -182 0
245 -287 0
46 -128 0
-342 20 0
-481 -392 0
459 -70 0
-283 -3 0
-19 289 0
360 268 0
399 16 0
421 200 0
44 319 0
111 363 0
467 -183 0
-20 226 0
385 456 0
-377 199 0
-161 388 0
135 -305 0
115 245 0
417 -503 0
265 425 0
112 491 0
-234 -181 0
-457 118 0
-331 -452 0
136 -445 0
-261 -19 0
-375 299 0
262 403 0
-192 -294 0
-143 97 0
225 90 0
-442 -353 0
400 -209 0
-400 -326 0
-416 -393 0
-319 445 0
-345 -157 0
15 227 0
-379 237 0
-158 285 0
189 -72 0
-296 -237 0
-84 279 0
268 -334 0
-105 233 0
30 129 0
144 -465 0
-155 -347 0
89 -286 0
-223 5 0
-7 -327 0
451 39 0
472 422 0
-151 -474 0
218 -258 0
189 -305 0
256 -261 0
467 -352 0
-62 335 0
137 19 0
64 -165 0
-441 86 0
444 360 0
439 -328 0
415 -157 0
50 426 0
374 488 0
91 156 0
-252 -187 0
445 -206 0
168 132 0
349 422 0
-72 -490 0
-48 -9 0
-475 238 0
64 323 0
10 -246 0
447 317 0
-118 444 0
252 491 0
-361 -163 0
-78 465 0
276 142 0
261 229 0
-362 262 0
-41 -390 0
-461 40 0
-332 -155 0
-436 -63 0
229 -205 0
265 384 0
481 251 0
193 -160 0
355 366 0
468 -455 0
-199 -186 0
474 308 0
69 371 0
426 483 0
309 -140 0
212 -251 0
-501 -479 0
-13 -445 0
-435 121 0
42 164 0
277 -101 0
292 1 0
-344 -318 0
-368 371 0
124 149 0
140 29 0
183 211 0
-470 248 0
481 -147 0
226 295 0
273 -53 0
-422 -474 0
-216 25 0
-198 -267 0
-74 94 0
-460 451 0
24 297 0
207 -344 0
-51 111 0
-126 -275 0
-221 34 0
-255 293 0
-340 78 0
-158 -477 0
-278 410 0
1 -349 0
-159 -187 0
-357 379 0
259 -423 0
-327 -210 0
-164 -381 0
-275 -259 0
110 121 0
469 -419 0
279 -396 0
127 -28 0
498 -108 0
-429 -110 0
194 294 0
50 -423 0
283 291 0
-33 86 0
-74 -207 0
-161 -140 0
-140 -473 0
240 216 0
280 114 0
459 56 0
355 149 0
248 -467 0
-219 35 0
384 401 0
175 241 0
-185 262 0
198 244 0
403 -58 0
421 -496 0
183 212 0
161 88 0
-196 288 0
337 61 0
280 -231 0
-320 -302 0
-416 73 0
126 132 0
-302 246 0
-442 299 0
74 45 0
6 -342 0
-255 371 0
115 505 0
-359 113 0
248 84 0
292 418 0
-21 418 0
-424 6 0
-493 -358 0
286 -452 0
323 -234 0
-446 -388 0
295 -260 0
416 -67 0
500 265 0
109 465 0
51 -280 0
-462 168 0
473 30 0
481 -195 0
469 -467 0
346 -296 0
-300 -197 0
222 -134 0
5 125 0
225 -503 0
-463 -140 0
481 -365 0
264 -216 0
483 108 0
-375 -39 0
-228 -37 0
-156 286 0
264 -234 0
295 294 0
481 -192 0
15 315 0
21 -411 0
63 149 0
244 -444 0
-81 -23 0
201 -470 0
-492 -133 0
-504 78 0
-116 221 0
-29 363 0
-138 -218 0
-157 -161 0
410 -407 0
-47 -235 0
-252 -360 0
371 -149 0
425 -310 0
-365 -504 0
399 291 0
410 244 0
-394 392 0
-298 -242 0
-234 255 0
-174 -195 0
337 256 0
-248 -468 0
-418 311 0
-297 -41 0
-23 223 0
-473 115 0
323 -105 0
-179 264 0
348 -221 0
-235 -163 0
498 76 0
256 -52 0
-148 171 0
-335 -194 0
29 273 0
406 346 0
152 -475 0
-491 -411 0
-493 -96 0
355 211 0
284 -26 0
152 -1 0
169 344 0
279 -184 0
-117 -203 0
-344 449 0
240 -334 0
-215 -382 0
497 365 0
-297 -382 0
338 -443 0
280 -193 0
282 299 0
419 -319 0
61 363 0
-46 332 0
372 259 0
-169 193 0
-76 -400 0
183 380 0
190 -41 0
-489 265 0
240 -183 0
-221 178 0
491 -492 0
235 -378 0
-125 -126 0
-357 151 0
485 -262 0
-25 -209 0
83 -465 0
-249 102 0
-256 412 0
-356 -100 0
255 -176 0
-81 -77 0
-47 9 0
-464 8 0
-224 502 0
425 -407 0
17 443 0
-183 109 0
352 222 0
-203 -77 0
433 -434 0
456 -442 0
309 -105 0
-442 239 0
127 -379 0
-3 121 0
245 259 0
-216 148 0
14 -122 0
200 -473 0
-3 193 0
-435 433 0
487 290 0
80 239 0
432 -292 0
310 85 0
230 239 0
425 399 0
-46 229 0
-334 -359 0
255 -61 0
104 -73 0
-429 -474 0
-305 -302 0
-258 200 0
403 318 0
-407 371 0
-80 -33 0
-27 -92 0
66 -406 0
-474 368 0
-155 88 0
235 255 0
311 -252 0
391 -12 0
189 360 0
302 260 0
130 464 0
32 -55 0
107 464 0
-336 466 0
-238 154 0
444 38 0
127 16 0
-132 -188 0
-138 350 0
195 -60 0
487 -219 0
308 -98 0
-286 51 0
320 -118 0
-442 -296 0
52 293 0
127 412 0
359 250 0
357 232 0
-441 -420 0
261 -106 0
-151 34 0
-388 -72 0
-6 430 0
345 350 0
370 -230 0
225 50 0
427 -169 0
59 49 0
-82 206 0
504 493 0
420 179 0
467 63 0
-300 -322 0
-361 -9 0
397 -286 0
422 374 0
15 99 0
210 146 0
-84 110 0
19 -267 0
-75 -176 0
399 -90 0
345 -186 0
10 -48 0
30 -420 0
-450 477 0
350 130 0
-392 8 0
307 -404 0
311 -171 0
-339 78 0
191 270 0
163 415 0
-76 463 0
268 48 0
-196 124 0
-336 441 0
346 466 0
185 261 0
-130 57 0
-147 484 0
-387 -114 0
204 -342 0
-44 23 0
232 71 0
366 -55 0
-408 -495 0
-165 230 0
-81 -176 0
403 -482 0
-457 444 0
453 89 0
117 -101 0
129 66 0
-272 -182 0
315 -225 0
113 -148 0
-202 15 0
231 -344 0
504 -357 0
64 -170 0
265 320 0
-97 -303 0
-207 131 0
-402 102 0
-19 194 0
-122 123 0
-119 63 0
-39 -303 0
-238 306 0
162 485 0
-369 73 0
118 -290 0
-492 -284 0
232 -77 0
247 -316 0
48 -58 0
212 -395 0
285 90 0
485 -72 0
152 -98 0
-13 329 0
268 126 0
36 -333 0
-353 -375 0
-455 270 0
64 -101 0
488 -281 0
-383 384 0
-365 480 0
274 315 0
25 86 0
-398 -143 0
396 -208 0
-502 129 0
111 -354 0
69 -330 0
38 -477 0
-280 232 0
367 -389 0
-484 -313 0
-2 -46 0
437 -246 0
366 386 0
214 -165 0
112 346 0
487 422 0
104 150 0
160 -296 0
-159 252 0
429 -423 0
180 260 0
372 274 0
407 223 0
419 -230 0
37 -242 0
447 169 0
57 47 0
61 384 0
-62 66 0
5 446 0
-24 -175 0
397 -343 0
-333 -89 0
162 -55 0
366 126 0
-284 -400 0
356 242 0
329 -112 0
-140 -410 0
346 -457 0
245 -66 0
297 -215 0
485 117 0
-483 -386 0
-495 318 0
-339 -400 0
-52 -59 0
274 336 0
359 -304 0
203 -246 0
-336 -221 0
-481 -479 0
-230 -182 0
-434 153 0
51 -90 0
-52 -155 0
391 -456 0
-216 461 0
-166 481 0
-318 90 0
295 219 0
-355 403 0
-48 -93 0
10 -27 0
-394 36 0
-257 -342 0
218 256 0
82 73 0
90 127 0
-270 324 0
-243 429 0
391 414 0
356 -470 0
464 -379 0
492 -106 0
366 -118 0
9 329 0
-373 156 0
-249 115 0
-207 308 0
432 -378 0
-143 307 0
205 285 0
-396 111 0
304 370 0
370 -76 0
-222 225 0
-463 -316 0
363 57 0
168 -407 0
411 -167 0
-332 -375 0
127 -4 0
273 -173 0
131 204 0
12 294 0
505 241 0
49 -115 0
-110 241 0
466 -342 0
30 416 0
280 4 0
485 -252 0
-437 -120 0
-305 -411 0
