c NF
p cnf 2795 5590
1174 874 0
-1777 -209 0
199 -1856 0
-2286 2432 0
1559 -2533 0
-1534 165 0
80 386 0
2266 565 0
-1002 -2378 0
1822 -1005 0
414 -2023 0
-2181 1617 0
-2646 -2338 0
1678 1718 0
1928 1680 0
-2642 1715 0
-2221 -1273 0
-616 -563 0
461 20 0
-1932 -2013 0
1774 2299 0
-785 -1880 0
1012 2224 0
-2004 1885 0
1379 -2715 0
2126 -2225 0
-1289 -63 0
2206 395 0
-2476 -237 0
407 -2777 0
1224 592 0
-2095 -145 0
241 1893 0
1062 1994 0
-83 -2629 0
2025 -2136 0
1846 1412 0
1998 1031 0
896 106 0
-1773 -555 0
1333 174 0
1837 -973 0
71 1958 0
894 137 0
-919 -2675 0
740 -2392 0
-2561 1270 0
-2629 1746 0
-1085 -1945 0
1044 -685 0
-1612 -936 0
352 -142 0
2281 -2636 0
483 -1177 0
-2333 -36 0
-166 1260 0
-474 2365 0
-335 -2235 0
2168 -14 0
-347 -1341 0
-316 -1153 0
1071 1892 0
698 -2075 0
567 1680 0
1047 -427 0
2287 -1844 0
1440 -1421 0
749 -869 0
-8 283 0
438 -1124 0
-2186 1904 0
2746 -1035 0
-832 -2095 0
-653 -1638 0
-1158 -2378 0
1071 143 0
-1634 -2302 0
-373 2381 0
1130 -1237 0
-1066 -1108 0
1037 -2287 0
1649 2522 0
-344 -2198 0
1302 2696 0
2017 -1820 0
-578 -1063 0
529 -32 0
-1308 1453 0
811 1269 0
2731 2408 0
1521 -2351 0
-936 379 0
1953 2330 0
1656 -307 0
2328 523 0
-1347 509 0
426 1929 0
-406 -1317 0
285 -46 0
-2385 1384 0
-1481 -722 0
-1426 -2650 0
-886 -876 0
-317 -311 0
1184 -2568 0
-724 -297 0
-1838 2175 0
-810 -2410 0
-2423 -217 0
-2221 1177 0
383 940 0
1781 1494 0
-1622 -1179 0
-2563 680 0
983 2494 0
-2753 -37 0
2014 2413 0
410 2490 0
-2272 1855 0
-1249 -804 0
-1296 497 0
-1649 847 0
-1684 1706 0
332 -749 0
-2681 -1879 0
1059 -1578 0
2064 -1421 0
307 -1781 0
1685 -2468 0
-1215 -532 0
115 976 0
941 811 0
667 -1521 0
853 -779 0
-869 -2259 0
-722 -343 0
987 -384 0
1976 -769 0
1908 -2057 0
-721 -40 0
-2069 576 0
1524 2157 0
1520 1648 0
1146 1407 0
1994 -2268 0
-2372 -1088 0
2489 -495 0
-112 209 0
2707 -1548 0
266 -1688 0
2672 -181 0
-285 -362 0
2067 755 0
1576 -822 0
898 -2504 0
1279 2149 0
1802 1443 0
-928 648 0
1960 386 0
-182 1981 0
976 802 0
-2549 -701 0
-1877 -1495 0
172 -2038 0
389 1307 0
-918 531 0
-1525 2043 0
1130 631 0
-2517 1759 0
-55 2309 0
-1252 -1776 0
801 2012 0
131 238 0
885 -532 0
-948 2325 0
-1029 283 0
1906 -2494 0
205 -2565 0
743 -2291 0
2253 -604 0
-152 1896 0
-235 1508 0
1772 -108 0
1467 -1180 0
506 697 0
1735 -2184 0
2382 2116 0
-185 -1765 0
2128 656 0
-1463 1253 0
-1252 443 0
-1468 -2621 0
845 -1587 0
-2504 1299 0
-1353 2132 0
-1933 -2034 0
1164 -2756 0
-1672 -1864 0
423 -1733 0
-2430 -1374 0
-2604 1076 0
-1944 1087 0
2180 -2023 0
-23 -1016 0
-1028 2616 0
284 1441 0
-2606 722 0
93 1878 0
1627 -1401 0
158 1708 0
2027 1682 0
-425 -2372 0
-1241 766 0
525 1147 0
1969 -1946 0
-2020 835 0
1842 -1785 0
1691 1300 0
1643 1538 0
1905 -857 0
2527 809 0
-2192 231 0
1549 1736 0
-1127 -2447 0
-2527 -2568 0
2065 1264 0
-1792 -741 0
-312 -172 0
-271 716 0
2358 1276 0
-1444 1936 0
2672 1606 0
1102 -1788 0
174 365 0
828 1931 0
-911 1640 0
527 -1437 0
2653 204 0
-2467 -2479 0
-412 -1426 0
-2752 -889 0
1195 270 0
896 1187 0
534 -1350 0
222 -917 0
231 1802 0
2460 2067 0
-574 24 0
-2450 -1830 0
-1139 2632 0
-159 -2689 0
-1265 -2454 0
-2778 189 0
1209 -413 0
-161 1743 0
869 -2438 0
296 2142 0
-171 -2645 0
2696 -733 0
-1728 -1355 0
-2409 -2044 0
-688 -1768 0
2230 -1812 0
-822 2613 0
1619 -921 0
645 -2374 0
443 -1615 0
-1069 -644 0
-294 -1186 0
-1695 732 0
2137 1672 0
-496 -2060 0
1540 -709 0
2464 -2693 0
-1818 581 0
2635 554 0
1636 -2668 0
-2768 -2557 0
981 1736 0
-919 248 0
-1527 2369 0
-2192 313 0
2460 1455 0
-545 661 0
-994 -16 0
-2565 -531 0
1840 -1766 0
-1923 -2253 0
-2032 1628 0
-195 1775 0
-2181 -947 0
1316 -2078 0
-180 311 0
190 -2093 0
-277 -796 0
-2199 -1213 0
-1744 244 0
-1500 1755 0
1531 -2282 0
2783 -678 0
484 2507 0
-2084 806 0
-721 555 0
2011 -2571 0
215 -273 0
2242 696 0
2393 -306 0
1266 -1939 0
-116 -2668 0
2706 -1199 0
2765 2715 0
-494 1904 0
2077 -1554 0
-819 -754 0
2488 -1481 0
530 -1447 0
-462 -2133 0
-150 -1342 0
1264 1149 0
-1455 -395 0
2467 472 0
1572 1266 0
1567 -574 0
-312 2707 0
-1249 -34 0
-448 1821 0
-1953 -733 0
582 1405 0
-395 -2582 0
-2186 2035 0
2573 2053 0
-206 1753 0
-1165 2435 0
-1995 894 0
1601 1965 0
922 -573 0
-1227 1800 0
2457 975 0
2002 -1537 0
-2436 439 0
-1996 2198 0
-1811 -2288 0
-269 -2735 0
-46 481 0
242 -399 0
2768 -1634 0
1849 -722 0
1888 -1861 0
-2482 464 0
-1415 2164 0
994 -1485 0
-1778 -1784 0
-816 752 0
2648 -738 0
1396 -316 0
-1766 -384 0
-2521 -2019 0
1032 -1285 0
2627 -1019 0
2154 845 0
1494 -823 0
1730 -909 0
-996 -700 0
1560 2244 0
-2636 405 0
2330 -1697 0
-510 1156 0
-1215 -2204 0
-2197 1403 0
-1758 1503 0
-1648 2342 0
-546 23 0
1605 -2157 0
-1142 -2015 0
2713 -1140 0
-1628 -1371 0
-924 -1194 0
563 -1767 0
1416 67 0
2331 2721 0
-800 2145 0
-1602 2407 0
2229 1421 0
774 2171 0
2660 1875 0
-1248 1006 0
654 2054 0
654 -2660 0
283 -2552 0
-958 242 0
-451 776 0
962 -2296 0
1964 2099 0
-582 18 0
525 -1518 0
1865 2090 0
-937 -2453 0
1090 1417 0
699 -1259 0
162 -861 0
-2367 2620 0
-1154 -2747 0
-1646 -1592 0
2662 2128 0
-716 185 0
2709 -1626 0
-2406 -939 0
1053 -170 0
1966 563 0
-482 290 0
148 -695 0
1943 648 0
-1709 378 0
-2146 721 0
-2535 2723 0
777 -2007 0
2760 534 0
-1112 1991 0
2780 2103 0
-195 862 0
1627 42 0
-1239 1645 0
2781 2396 0
814 -2761 0
-1393 2227 0
2082 -596 0
2501 9 0
441 -295 0
-2652 -1142 0
-1042 -205 0
-1058 -665 0
-876 -858 0
-1245 1816 0
-95 371 0
-1878 -1684 0
2013 2696 0
-1544 2471 0
140 -1537 0
2749 2068 0
-1478 136 0
-68 -678 0
2587 372 0
-1326 355 0
-2395 2316 0
517 -47 0
-2523 1792 0
2394 1905 0
2352 1009 0
-164 1606 0
645 1555 0
-2246 -430 0
-1748 -2252 0
224 547 0
-1979 420 0
2399 -567 0
-1749 -614 0
-2665 -282 0
-889 -1894 0
893 2666 0
2093 926 0
-1641 43 0
-2194 12 0
-2113 -2630 0
-2400 -1108 0
734 -1781 0
-2733 -2501 0
104 219 0
1171 -1075 0
-367 2767 0
2460 -160 0
1540 2645 0
1783 -1432 0
2461 1129 0
-930 -919 0
-2218 -2591 0
-731 2520 0
-2659 -2468 0
212 -122 0
2432 507 0
-632 -1963 0
1026 -1920 0
1161 -1260 0
-40 -2469 0
-2182 380 0
2374 -2305 0
190 -2595 0
-2727 -1573 0
-1241 1609 0
-1386 1837 0
507 -14 0
-1972 2134 0
-1281 -131 0
-2212 1139 0
-1627 -1567 0
-657 -1667 0
656 210 0
1405 2083 0
-2563 738 0
-1218 -1840 0
2541 -2666 0
283 -1141 0
1368 474 0
2489 134 0
-688 -2563 0
-2740 1277 0
-152 2611 0
-142 2366 0
-1209 832 0
-515 2134 0
2072 2606 0
2215 542 0
-109 -465 0
1546 -205 0
-2499 1715 0
-1302 359 0
658 1273 0
1851 1972 0
2384 -833 0
-1754 -2377 0
1569 -1259 0
2257 2243 0
-598 1475 0
1182 561 0
626 11 0
-1824 -2339 0
242 1596 0
1725 1172 0
2184 2287 0
-994 2614 0
-450 1549 0
1422 1819 0
-489 1701 0
-2574 -1838 0
2696 860 0
-1599 -244 0
589 -66 0
-1604 -2236 0
-1133 2432 0
1520 -1914 0
877 -924 0
-2220 -458 0
-640 2026 0
1126 2770 0
-539 -2343 0
-2300 2040 0
-899 -477 0
-68 511 0
-264 -1487 0
-687 1113 0
1034 -407 0
964 -2721 0
-1324 -2285 0
-394 809 0
-1641 1300 0
-1610 -218 0
-396 2694 0
-2225 1273 0
2150 2528 0
-484 1357 0
-2744 -2327 0
421 2160 0
-1180 2005 0
1730 1082 0
1097 -2447 0
373 1232 0
-2564 -2422 0
1436 1402 0
-777 -2028 0
-1970 2361 0
-702 -341 0
1517 -2268 0
2736 -2437 0
2672 1082 0
139 -1641 0
-2000 2245 0
-2169 -2100 0
810 880 0
944 -2506 0
-182 911 0
-2615 -1599 0
-2187 -2609 0
2560 -1537 0
-1449 -1626 0
-2752 -40 0
-1341 -2201 0
-2213 -1104 0
2008 2377 0
-538 1771 0
-390 -1556 0
-2123 -2254 0
-2645 -355 0
-463 1024 0
1817 -2595 0
-647 1942 0
2105 1849 0
-815 2365 0
-490 781 0
1718 -2312 0
1194 805 0
-1344 1710 0
511 -2572 0
1769 1338 0
-2147 366 0
315 1467 0
2021 1806 0
1389 -1122 0
2252 2696 0
1370 -1677 0
260 -2267 0
-2717 1277 0
1472 -566 0
1843 -1423 0
-2761 -2608 0
1906 69 0
747 230 0
-1810 1236 0
-1118 1123 0
-834 1037 0
-829 2151 0
1713 801 0
158 380 0
1700 -2658 0
76 2534 0
143 -1796 0
922 2104 0
443 -2213 0
-2403 1395 0
-310 498 0
-1369 2204 0
-1641 -2701 0
-1356 -2791 0
334 -1313 0
-583 2520 0
2255 -527 0
-201 2625 0
-801 2279 0
-2327 -985 0
-895 542 0
1344 2627 0
-2104 1459 0
-1047 2398 0
-1967 -1721 0
2127 -682 0
-1356 -535 0
-155 1032 0
-450 -2550 0
-132 -926 0
-1426 2731 0
-1197 -1548 0
2111 -263 0
2280 2245 0
-935 592 0
-431 898 0
-1602 -2612 0
2136 -1367 0
-1545 -1112 0
-1779 -948 0
-180 -1255 0
2074 533 0
22 -2291 0
-355 610 0
1081 -2664 0
805 175 0
2043 -14 0
-524 1102 0
2780 1801 0
2157 -1864 0
328 -357 0
736 2064 0
-1192 -1497 0
716 -2484 0
-287 2398 0
-633 903 0
-2588 -669 0
-202 944 0
1640 2573 0
1873 -2517 0
1054 64 0
1410 -1354 0
826 790 0
-2174 -2148 0
2651 802 0
-341 -821 0
133 2102 0
-686 -1742 0
-1588 2024 0
-389 528 0
1804 914 0
2035 816 0
-2079 -1261 0
-1191 2770 0
198 -2447 0
1357 -2237 0
945 417 0
-1235 -2130 0
736 -387 0
2295 1700 0
1376 -1649 0
-172 2018 0
-1455 1368 0
-560 -1693 0
1079 771 0
-1677 1183 0
1482 734 0
-682 -178 0
558 2587 0
2105 -1241 0
-2437 159 0
-2578 1969 0
-2646 -151 0
-1325 -2238 0
864 -1197 0
-1549 717 0
1168 -223 0
1639 -273 0
499 -524 0
-1856 -1807 0
-2246 -118 0
897 1639 0
1895 1297 0
-958 2622 0
561 1339 0
-1352 2547 0
-509 -2196 0
137 -196 0
1630 495 0
-2560 -166 0
-1554 516 0
334 2514 0
354 8 0
-2018 1055 0
-115 1547 0
-2596 1243 0
2530 2286 0
-1203 2047 0
-1369 1224 0
-1394 -2123 0
786 84 0
1064 26 0
-1211 -718 0
-1280 -2014 0
929 2006 0
-2096 2682 0
1286 1434 0
655 1513 0
1037 -1326 0
2101 1796 0
-2616 -2270 0
-1553 -1570 0
-2438 -2291 0
-2262 827 0
-385 -1968 0
-1786 -1060 0
1628 -1087 0
-310 1515 0
-101 2529 0
-1621 2460 0
-616 541 0
-223 2314 0
-483 -339 0
749 -2568 0
1679 878 0
-1915 441 0
529 1385 0
-1741 1825 0
-2287 1612 0
485 -2112 0
662 944 0
403 -1604 0
-1414 2047 0
2526 2425 0
-748 -1550 0
-1401 -119 0
-163 2534 0
-2488 1147 0
-264 -800 0
-221 -1058 0
-337 2043 0
-2146 -17 0
-2454 1221 0
990 9 0
1864 -1748 0
-601 -2622 0
-259 1540 0
-2097 -1556 0
-438 296 0
-571 -1819 0
-1845 -1736 0
-478 899 0
153 -1207 0
-1971 2440 0
256 1079 0
-2378 -748 0
-135 -622 0
24 2639 0
-373 2503 0
1625 -2210 0
-1371 1385 0
-1633 -1794 0
-1217 89 0
1440 -1159 0
-1492 -1895 0
943 -2525 0
723 -1341 0
1060 1012 0
-2007 -2575 0
2569 -1552 0
-497 2157 0
-1838 -1890 0
1565 -834 0
1783 -1721 0
-1042 -393 0
1544 2652 0
-260 906 0
513 952 0
1310 2724 0
-1340 2014 0
84 -2047 0
2587 2766 0
-1936 561 0
1864 -762 0
317 -310 0
1167 2784 0
-1625 -921 0
1467 -2549 0
1820 -2640 0
-1071 -2375 0
-898 -2255 0
228 898 0
-997 -302 0
2426 307 0
711 2655 0
-1901 -2430 0
1631 -848 0
807 -2592 0
-137 2223 0
-555 -528 0
1931 -833 0
1013 -2186 0
-1983 2140 0
1917 2122 0
766 -1168 0
412 -1975 0
-2631 -611 0
1463 977 0
-155 -1043 0
-154 -2485 0
-1689 1526 0
191 2087 0
337 1479 0
-303 -1918 0
-1273 51 0
-2725 658 0
-876 334 0
-238 -996 0
2300 -1364 0
1887 -525 0
397 -2253 0
1224 -2066 0
763 889 0
-2761 1578 0
1624 -50 0
-2354 245 0
-166 1383 0
2052 1858 0
-2064 -1602 0
652 -741 0
746 -2050 0
832 959 0
938 387 0
500 1469 0
1017 786 0
426 1161 0
1067 2415 0
-1477 1237 0
568 39 0
373 -1078 0
-2145 903 0
1129 79 0
-2047 -2530 0
-522 415 0
-2225 -1450 0
-2096 -2018 0
620 1692 0
1167 2414 0
1307 2219 0
1193 -1330 0
-1616 -2645 0
-414 832 0
290 1918 0
-652 -2391 0
-1697 -1102 0
-1586 2504 0
1270 -1107 0
-2396 -2521 0
339 -1619 0
-1547 -378 0
527 2417 0
-2750 1170 0
1349 -1157 0
1333 -124 0
-437 -1580 0
878 1795 0
-1537 -1478 0
174 -590 0
-2255 -678 0
-1120 -1823 0
-640 -868 0
-532 -1134 0
2553 911 0
2180 873 0
-2479 -1698 0
558 441 0
2336 1769 0
210 2258 0
303 -560 0
309 -273 0
742 -1225 0
2573 -2359 0
-653 1940 0
321 -594 0
-2549 2566 0
2107 1682 0
2200 1912 0
1411 48 0
-422 -551 0
-673 1522 0
290 -1621 0
-42 1326 0
2610 1572 0
361 -2475 0
335 -2531 0
2303 149 0
2377 -2131 0
-1187 -1464 0
-2252 -946 0
1138 2142 0
-1419 2064 0
-2439 1273 0
2294 -2316 0
195 53 0
1964 573 0
-272 330 0
-1697 1824 0
975 817 0
-1173 1984 0
2340 71 0
-1634 -2029 0
-545 302 0
1816 1404 0
193 1264 0
-1898 -1920 0
-1006 -2535 0
-995 2762 0
618 -102 0
29 -652 0
502 -2239 0
2030 -42 0
-2554 -2057 0
-743 -43 0
2410 998 0
-1576 -2793 0
2331 518 0
-1567 -1322 0
287 728 0
-2313 -1260 0
2397 202 0
1062 603 0
-2170 -346 0
-2370 390 0
-2389 2353 0
1841 1654 0
2696 -2012 0
-1818 -2478 0
-1296 236 0
-254 773 0
-2704 56 0
-1593 -1949 0
862 1856 0
-931 -1968 0
-1276 1806 0
-2021 -1408 0
-2642 -848 0
1849 -2185 0
1363 -2496 0
-1719 -227 0
-1620 844 0
1720 -2708 0
414 -599 0
1196 -170 0
693 -622 0
-414 -424 0
-2620 -2776 0
-2395 -1346 0
-456 -270 0
1396 500 0
-1770 2361 0
-62 2074 0
1254 -2738 0
-2486 -2633 0
-2584 -1985 0
-753 -2277 0
2734 2255 0
1324 1735 0
2 -2337 0
-437 -1197 0
429 -240 0
-1168 -1978 0
-1658 -524 0
9 -2461 0
-1659 2601 0
-790 -1279 0
-1032 -2597 0
31 -1646 0
-2248 -1787 0
-1988 649 0
148 -2227 0
-46 -58 0
-2733 603 0
-2756 -2612 0
-49 -2241 0
-1082 2090 0
-694 2253 0
2250 2229 0
670 -1901 0
-1231 2527 0
954 -322 0
1511 -450 0
-1959 -126 0
1366 -2261 0
2628 -1510 0
2621 2342 0
2698 -1263 0
1794 2451 0
2041 993 0
-2401 -1574 0
849 -2389 0
179 1439 0
922 -1084 0
1877 2691 0
795 1001 0
-551 2352 0
2433 -1638 0
810 584 0
1645 1960 0
-2161 -1538 0
1955 -684 0
1289 1728 0
299 -1619 0
2479 -2470 0
2678 -1313 0
-2400 -2675 0
2221 -1870 0
-1345 -474 0
-2775 -2688 0
1428 2351 0
1385 -78 0
-194 2443 0
1382 1401 0
656 -434 0
-2135 1671 0
-476 553 0
2009 -245 0
1046 -890 0
-35 -2013 0
5 184 0
-920 1824 0
1579 -2258 0
1807 -2581 0
1880 -842 0
-1859 889 0
-965 -1133 0
2342 -1577 0
2593 -1763 0
2532 1121 0
-1612 -2002 0
2413 478 0
-820 -1727 0
-2650 -1243 0
2756 -1306 0
-2756 -106 0
-899 2476 0
672 -1269 0
2040 -1854 0
-1364 2490 0
1144 694 0
-948 1811 0
817 1977 0
1992 199 0
-1021 -1542 0
-1416 -1058 0
1833 2289 0
-754 818 0
-1737 -2615 0
883 -1564 0
-2716 -2790 0
-1807 1926 0
-274 58 0
-847 2655 0
2306 1193 0
-2354 1776 0
2615 360 0
-1815 470 0
2401 -895 0
344 576 0
-1345 18 0
-1907 1943 0
1343 -5 0
-1644 -1206 0
1968 805 0
-1114 -137 0
-658 -245 0
524 -2597 0
-475 -449 0
2780 -1203 0
-1609 -2037 0
787 1528 0
420 518 0
468 2643 0
-635 2217 0
1996 1566 0
2277 -2236 0
-269 -380 0
1194 1146 0
-86 -2020 0
45 2149 0
-712 -1586 0
-1185 480 0
581 1177 0
-1228 1510 0
-809 875 0
286 605 0
-1767 1372 0
173 -2795 0
-1588 -1588 0
490 397 0
-1058 2312 0
-999 -38 0
1183 -1163 0
2178 2223 0
-2410 1785 0
878 -217 0
2053 -1590 0
1404 -1222 0
-1004 -1742 0
-1582 -1021 0
1851 -2484 0
475 2325 0
-287 -1922 0
196 -344 0
-1689 403 0
-1854 2260 0
-2596 -78 0
-920 -1070 0
-180 145 0
2299 1001 0
-2481 259 0
-398 -1632 0
-2063 197 0
818 -303 0
-1430 -691 0
997 -343 0
-1434 -1290 0
-1370 -2178 0
-933 1045 0
1547 1638 0
2411 1004 0
-156 -819 0
2273 1969 0
2341 -2539 0
-2114 486 0
110 -1971 0
-1704 -918 0
1206 -1199 0
1807 2199 0
-996 -1871 0
180 544 0
938 837 0
-972 2178 0
-883 272 0
1315 -1303 0
-720 2740 0
-702 1207 0
2386 -1231 0
2058 1761 0
-1340 1792 0
2364 -652 0
-2636 1361 0
-2658 -799 0
870 -1309 0
-2196 363 0
-1774 2358 0
-1027 -2609 0
-2024 116 0
-1434 1781 0
-2363 938 0
1486 -914 0
387 566 0
1778 2425 0
693 -1802 0
2437 1030 0
-1963 -1799 0
-434 -298 0
-2279 -375 0
-1490 -1163 0
411 -2121 0
-2429 -27 0
-1037 -778 0
39 -1310 0
2421 1716 0
1467 -86 0
-682 -707 0
56 480 0
1561 281 0
-2454 -1514 0
-2403 817 0
-207 -70 0
-2001 1299 0
-2450 -2063 0
332 -859 0
-2291 703 0
2142 -611 0
2326 -1527 0
2159 -1079 0
-2340 -1622 0
-2708 2232 0
-1231 -634 0
-1951 -615 0
1398 -2378 0
1750 1613 0
-1324 -111 0
-2133 399 0
531 -2531 0
-2282 -2578 0
-1897 1149 0
-1390 -1556 0
-926 1979 0
-543 837 0
786 1945 0
-1002 2451 0
-2764 -1296 0
862 -1949 0
141 -1904 0
144 1961 0
2529 -883 0
1817 2397 0
2237 -2022 0
2298 159 0
5 281 0
-1834 1987 0
365 159 0
2672 2223 0
624 1881 0
2507 2676 0
40 2656 0
-2288 -2432 0
420 2467 0
-2699 -1615 0
2373 -527 0
2124 2417 0
-482 1552 0
-1150 -1744 0
762 -2608 0
126 853 0
1283 2287 0
2223 -237 0
-1668 -2078 0
-754 -2318 0
-59 -2486 0
-949 -2485 0
-424 -697 0
-135 -117 0
-582 -804 0
-1704 -1200 0
338 -16 0
-404 1296 0
310 1036 0
228 926 0
1551 -1690 0
-1132 1275 0
-404 -1380 0
-456 -1990 0
-1610 1676 0
-1996 1129 0
2345 -2725 0
-940 2645 0
-1944 -1690 0
-2640 2513 0
363 462 0
188 -1655 0
907 -420 0
-2129 -953 0
1652 -100 0
1594 -183 0
915 -1281 0
1074 -2626 0
149 -2039 0
-2368 1680 0
-393 -2291 0
-123 1842 0
466 -2700 0
-624 1549 0
1800 836 0
-2505 1644 0
-652 1757 0
21 699 0
953 2310 0
878 -653 0
749 1786 0
46 1113 0
1729 469 0
2707 1961 0
310 1587 0
143 680 0
-515 1438 0
-1854 761 0
539 2097 0
-1828 402 0
1459 -1196 0
-408 -2057 0
-1465 -2677 0
1368 -693 0
1826 1384 0
-1305 334 0
358 1206 0
-374 1817 0
-1796 -1648 0
-1085 2670 0
-1801 1643 0
1675 1757 0
-444 2189 0
2233 399 0
266 2029 0
1701 1482 0
-2422 139 0
1382 -2079 0
-557 -1702 0
-2107 -2485 0
2244 -2121 0
-1476 1701 0
1791 1333 0
2415 -2633 0
630 -71 0
2276 -706 0
1011 1250 0
2377 188 0
631 -1660 0
-1360 1151 0
1823 1646 0
1676 806 0
-2037 -939 0
-362 -390 0
1572 -2122 0
2760 1284 0
2294 -2395 0
2417 -1556 0
1167 -340 0
317 -591 0
823 958 0
1346 -1005 0
2344 -2788 0
464 736 0
-1830 476 0
-447 2526 0
-800 832 0
1651 1916 0
-1478 2261 0
-843 -782 0
-733 17 0
2334 1175 0
2714 1928 0
2068 -2599 0
2512 -2621 0
-2151 -355 0
2649 1366 0
648 -2048 0
1945 1547 0
253 -117 0
-1265 1017 0
-2444 -961 0
-195 148 0
856 2009 0
1222 -1682 0
-2665 -401 0
192 -1786 0
510 -1660 0
2681 -604 0
2197 2774 0
-2523 2124 0
2108 -682 0
-697 1962 0
1800 -697 0
-713 -510 0
-452 -1470 0
-1399 1582 0
-1873 -1245 0
419 -2527 0
-750 -1480 0
-1558 2773 0
-1809 2251 0
1415 -1599 0
280 -2321 0
1618 -201 0
-721 -2160 0
1960 2002 0
2694 -1786 0
563 -1282 0
1596 -921 0
-2537 707 0
-710 -1591 0
523 2401 0
174 546 0
907 2222 0
1909 -890 0
2233 -273 0
-727 535 0
-1473 -2497 0
-428 2445 0
-1448 -2515 0
-2746 -74 0
-641 -824 0
-2686 1247 0
-650 325 0
-1258 1996 0
-1009 1680 0
-2364 -2559 0
-1325 256 0
1929 33 0
-1665 482 0
1649 -1989 0
2198 2323 0
-2194 -1237 0
-1142 -139 0
442 1764 0
2411 -871 0
-1988 1879 0
-662 1569 0
1707 -1820 0
-690 1714 0
-182 -152 0
-1042 -1006 0
1277 668 0
-455 1763 0
1099 100 0
1271 -733 0
481 -1047 0
-1485 24 0
2172 1467 0
-1134 -508 0
509 -34 0
1423 1783 0
-2109 -1811 0
1014 -2290 0
165 853 0
1076 2304 0
-219 -602 0
349 -498 0
-1772 -1834 0
-1502 2596 0
2572 -303 0
-297 -1329 0
1816 2792 0
-270 2424 0
-2494 2489 0
-217 960 0
-760 -1591 0
-2221 2717 0
1898 1893 0
-604 2498 0
1874 2063 0
-412 -2714 0
1627 2618 0
461 390 0
-1557 -2612 0
-495 -2779 0
-1207 -1570 0
1352 -385 0
269 -1274 0
1754 960 0
696 1126 0
-2213 162 0
-1638 -311 0
821 408 0
1335 373 0
1110 1177 0
-1973 37 0
-1583 1851 0
2508 -584 0
-2288 -673 0
1569 -1956 0
-2008 -2542 0
-2225 886 0
1413 872 0
-1537 210 0
2236 -2147 0
-1229 -1433 0
922 -2208 0
-2391 1731 0
1324 -948 0
1825 1919 0
-2399 347 0
-1657 2311 0
-1122 2024 0
1419 531 0
-1638 -1150 0
1786 320 0
398 -2738 0
-1030 725 0
1708 1194 0
1735 2484 0
1621 1099 0
2296 -460 0
-2355 -2499 0
1357 -855 0
-1808 -1981 0
-1764 -2187 0
-546 1361 0
-1221 258 0
1740 -1406 0
2204 1267 0
-1202 -2412 0
-2236 -2696 0
143 -278 0
-1330 1765 0
-1553 746 0
646 1689 0
-1527 -1621 0
-1177 2518 0
-1758 1285 0
-2051 -1935 0
-1137 1070 0
2532 1402 0
231 393 0
165 487 0
870 -180 0
225 -1067 0
-631 2527 0
2660 -2619 0
-2772 -1564 0
-936 -482 0
1447 -2658 0
1328 281 0
-1742 -1117 0
2094 1521 0
2694 888 0
-2229 2585 0
-2109 -767 0
-2325 -2339 0
-668 2281 0
-808 1291 0
2041 -2170 0
-2182 1469 0
2072 -2396 0
-999 9 0
-634 1410 0
892 75 0
-1820 -1320 0
1009 1745 0
481 -470 0
940 -2517 0
-912 9 0
-2770 -2395 0
2098 -656 0
19 246 0
1235 -1990 0
881 1470 0
-1340 981 0
1639 -1330 0
1374 -1811 0
-677 940 0
1684 -1959 0
775 1368 0
886 -1118 0
-1506 -548 0
-1798 -741 0
1764 -506 0
-467 -1319 0
-2461 -200 0
2404 -1123 0
-1191 1470 0
2620 2539 0
-261 -2680 0
-995 364 0
-1396 -1152 0
-42 -1781 0
-1993 2364 0
1748 -381 0
1210 923 0
-537 1457 0
244 2569 0
877 2746 0
2568 -1135 0
1370 230 0
-1975 828 0
-1189 -21 0
-224 2774 0
1510 -430 0
-43 -1676 0
-1746 1208 0
-2022 -1913 0
-1342 -2077 0
546 810 0
-357 1478 0
-222 -932 0
-150 191 0
-2120 -1740 0
1930 2541 0
808 -848 0
-553 1243 0
2348 -2180 0
-371 -1038 0
-805 -1198 0
-1548 35 0
1229 -2021 0
2388 945 0
-1065 2649 0
1102 474 0
-289 1936 0
640 -634 0
-681 -822 0
-1350 -1306 0
1439 -904 0
969 2472 0
631 -2405 0
-218 -2647 0
-336 -1552 0
1484 833 0
-1142 2785 0
-787 -620 0
-239 -2229 0
-665 2465 0
750 -1454 0
1176 -1711 0
-1577 2096 0
-1455 -674 0
-2124 -136 0
1667 1848 0
-2341 -1854 0
506 2631 0
582 2189 0
-949 1529 0
-169 2782 0
-2028 -1446 0
-2742 2644 0
-645 -2690 0
-2180 817 0
1229 -2194 0
1693 -706 0
-1704 2538 0
-389 888 0
1307 368 0
-1856 -38 0
1381 2281 0
-381 2219 0
-689 1052 0
1868 -1154 0
883 765 0
-917 1002 0
1607 106 0
-1265 699 0
359 661 0
725 -2423 0
795 635 0
-1753 -1127 0
1476 -735 0
-1246 1463 0
-890 250 0
2506 -2297 0
-1565 -2330 0
1311 1362 0
-2450 844 0
789 2416 0
-440 809 0
1165 981 0
2253 2610 0
2700 79 0
1065 873 0
-1656 2623 0
-1093 -686 0
1739 581 0
-791 71 0
434 -54 0
-2121 2089 0
-2702 -2165 0
509 -734 0
-329 2526 0
-825 1964 0
-729 -401 0
766 -1365 0
2467 -611 0
954 -2559 0
-1858 -1911 0
-1401 -44 0
2184 -425 0
104 -433 0
443 -2322 0
-254 1880 0
-2255 -512 0
2664 982 0
-438 -2465 0
408 1106 0
-1542 -145 0
280 -2190 0
-828 -837 0
-1261 1298 0
740 -1215 0
1377 -2447 0
1643 627 0
-792 542 0
-2312 -2574 0
2500 1105 0
1436 2525 0
1218 -2690 0
-128 2344 0
-2308 2049 0
1905 21 0
2251 -2414 0
1050 1800 0
361 -1928 0
-2431 514 0
-1268 -1477 0
-2768 1436 0
2610 -1491 0
-764 -127 0
-1329 1488 0
-133 916 0
1346 2054 0
-2652 2175 0
591 -1633 0
-2661 -1190 0
2126 -2493 0
2259 1548 0
1679 -1151 0
-1164 -70 0
-1217 1259 0
-2100 -1330 0
-1536 -1451 0
-919 -2570 0
2107 -1536 0
-614 -598 0
309 861 0
2153 905 0
2172 -1142 0
-2728 -883 0
1510 2407 0
109 1625 0
-303 -2722 0
-1205 -1039 0
-622 519 0
-1416 -1629 0
2620 2257 0
1546 -1258 0
435 2412 0
-1192 579 0
1412 -2513 0
1099 -221 0
-1160 -1197 0
-1459 1050 0
1497 -595 0
-46 -1522 0
-2504 1745 0
-2148 747 0
-802 2461 0
2165 317 0
2562 1509 0
1298 -2615 0
559 -380 0
-487 344 0
2719 2545 0
-2009 -1932 0
990 378 0
-1374 1157 0
-2703 -641 0
-1920 -1686 0
-2686 2143 0
-1083 -946 0
246 -2750 0
2124 -1911 0
920 1069 0
-128 -1760 0
2181 -1226 0
-1078 -1301 0
639 2567 0
-769 -99 0
-1550 2507 0
-846 1894 0
292 76 0
-692 2709 0
-308 1724 0
222 -1260 0
1839 823 0
2683 2710 0
-978 -2566 0
-1842 -690 0
-899 -2242 0
777 2748 0
-1406 1183 0
435 -2512 0
248 309 0
-2054 -618 0
-27 1363 0
-1150 1745 0
1723 2648 0
-662 706 0
-1336 -2537 0
591 2778 0
2744 -255 0
280 528 0
-76 2151 0
1343 -718 0
-1908 -1922 0
1268 -1437 0
382 -2079 0
-1381 -2293 0
347 -1868 0
-1473 2232 0
-1601 2360 0
2411 2660 0
1825 56 0
-828 862 0
-465 -2589 0
1778 1854 0
-1142 -798 0
-634 -587 0
968 1410 0
1175 2637 0
1155 -2286 0
2376 -354 0
-2537 67 0
2090 564 0
1693 1255 0
-2089 347 0
2530 1636 0
683 5 0
-1069 572 0
2633 -1880 0
1418 -1813 0
1056 1931 0
-2405 -484 0
-792 559 0
-2164 698 0
1917 -70 0
-1501 1939 0
-1698 -994 0
776 277 0
2681 1827 0
-2037 -2151 0
-1780 493 0
-807 1562 0
2482 -2140 0
-655 1626 0
-2501 2046 0
-179 176 0
-2685 2559 0
-950 -447 0
-1354 -372 0
1598 2309 0
1686 883 0
-157 -1127 0
-472 -612 0
-2378 685 0
-2070 -2350 0
385 -1995 0
240 -1779 0
216 -2379 0
2586 473 0
2556 -2000 0
1087 -542 0
1332 -1665 0
2005 -1461 0
1986 -1038 0
2364 -135 0
1422 -2545 0
2110 2507 0
-254 -1828 0
2590 2691 0
1437 658 0
2000 -254 0
203 -571 0
779 -1458 0
-2556 1701 0
-1552 -560 0
-431 -2470 0
-389 520 0
-1042 1750 0
-557 706 0
2687 905 0
-1952 2735 0
1835 2349 0
1875 -418 0
-1518 -1744 0
-796 2495 0
-597 -1190 0
-621 1568 0
1103 40 0
-1481 -2356 0
-2066 -2504 0
-1124 1892 0
-525 -2533 0
1460 -1603 0
2716 1230 0
1032 483 0
-1059 -1188 0
25 856 0
-414 -1764 0
-1907 1048 0
1618 2489 0
-1175 -1641 0
902 -882 0
-1573 -297 0
474 496 0
2385 1896 0
-786 -52 0
-601 1958 0
979 1108 0
-468 -489 0
1561 -105 0
2053 -129 0
-1101 -134 0
-1990 -2075 0
1121 81 0
1513 -212 0
2307 2622 0
806 982 0
-13 491 0
-1759 -733 0
903 -1593 0
728 -1920 0
2243 569 0
1263 -2615 0
670 2218 0
533 1836 0
2462 -2444 0
-882 103 0
977 -2204 0
-1150 469 0
-2078 -473 0
1348 900 0
2725 2013 0
-1925 113 0
-523 2528 0
636 1923 0
-2635 1004 0
131 -2756 0
-2391 2088 0
-2302 658 0
-1928 1264 0
-2125 97 0
717 -564 0
-433 456 0
219 806 0
266 -2391 0
2622 -1977 0
2098 -379 0
2094 -1896 0
392 1582 0
-913 1638 0
2712 2000 0
-1798 62 0
1977 -2668 0
-346 -209 0
-1902 926 0
1186 2587 0
-2190 -218 0
2025 -2736 0
-322 1616 0
-705 1121 0
269 -866 0
2059 1757 0
2382 2659 0
-287 -1967 0
-928 306 0
-436 -941 0
1562 -257 0
789 1363 0
307 733 0
1640 2751 0
2631 1664 0
-35 -27 0
-719 -1005 0
-2334 1218 0
-1424 1506 0
-1325 -473 0
-1550 559 0
-2503 2157 0
-662 482 0
2457 -1368 0
-1354 1724 0
-1823 764 0
-1634 709 0
2505 -2539 0
-2776 -2544 0
-290 860 0
-1125 433 0
-1066 -1432 0
-2646 -2300 0
1891 20 0
1831 -2475 0
2183 613 0
-1454 -2086 0
-1492 -426 0
-2371 2716 0
2159 -1653 0
2156 2784 0
-2726 881 0
-313 1113 0
-1279 544 0
2056 1064 0
-2357 -1515 0
1292 1230 0
2272 1640 0
2411 2563 0
-2246 2342 0
-1114 2246 0
-635 1761 0
-2501 1292 0
-2048 -804 0
866 -2343 0
-552 -118 0
-2133 119 0
-489 1531 0
1064 623 0
396 -2406 0
-1357 -508 0
2659 -2442 0
-1372 478 0
1076 -1996 0
-1871 1441 0
8 1390 0
2748 1339 0
-2599 850 0
-2400 -1221 0
1460 1117 0
-381 2012 0
410 -2354 0
1219 2409 0
-1679 -342 0
729 2687 0
-1196 2433 0
1835 -469 0
-2270 1303 0
-668 -1223 0
-2210 -12 0
829 694 0
-644 -2611 0
216 516 0
-2333 2382 0
-542 1400 0
-1060 2367 0
1263 -1034 0
-1094 -1290 0
1102 -922 0
-1427 1368 0
-2223 544 0
1863 -2085 0
-2243 112 0
-1624 -1416 0
1094 -2260 0
-1052 1277 0
761 2250 0
452 89 0
-1259 -2341 0
-948 -2400 0
1948 -1789 0
-2380 2261 0
-2370 2150 0
1914 2460 0
-167 1797 0
-364 -2255 0
-1186 -1763 0
-2228 -824 0
1749 -1908 0
-170 1515 0
-2397 -2015 0
-2050 -589 0
-353 1525 0
-733 2493 0
2707 -1738 0
-2033 -1667 0
-406 1026 0
-598 2240 0
2263 2261 0
1976 -298 0
-2766 770 0
173 -2224 0
-2736 317 0
1404 1377 0
-2647 1889 0
-1202 -2141 0
149 1240 0
-17 891 0
1058 1649 0
2363 1221 0
-616 279 0
2619 2753 0
-1093 1302 0
-1950 64 0
-879 -2694 0
358 747 0
-1781 -1888 0
-2475 885 0
291 -2386 0
-65 -1028 0
1494 1559 0
-1366 1476 0
1391 851 0
1262 -2116 0
-449 2094 0
1904 -1130 0
169 -1813 0
-677 -2273 0
586 755 0
1374 -1214 0
-2605 -2713 0
-1079 482 0
-55 1262 0
-2491 -1821 0
-306 -29 0
2686 -637 0
-2380 342 0
2162 -1351 0
-1381 -2558 0
-2078 1208 0
-2723 409 0
-1243 2489 0
-2634 -294 0
1350 579 0
1639 695 0
2662 -1187 0
-842 1700 0
1579 2415 0
-1291 -2721 0
-1393 -1634 0
1253 2291 0
2462 743 0
49 1654 0
1648 -99 0
-2620 1848 0
2666 1242 0
-421 -1759 0
-653 926 0
-124 -1363 0
-431 2435 0
-2004 -551 0
-1593 2114 0
-809 1509 0
149 1391 0
-1636 780 0
2175 -2533 0
2586 -1117 0
2162 2123 0
-688 -1920 0
1253 949 0
1153 -1012 0
-431 2462 0
-1815 -2177 0
-1869 -2057 0
-578 1330 0
1396 278 0
2624 121 0
2347 85 0
2624 -1632 0
515 -1378 0
-1606 1761 0
2611 2341 0
-978 -782 0
1771 321 0
-2430 -1792 0
-1423 2449 0
-2508 2737 0
-1944 2774 0
1247 -1997 0
2280 -1343 0
2552 1395 0
-1187 -1504 0
2682 2464 0
2715 -2788 0
586 142 0
645 -1888 0
1311 -2535 0
-1811 365 0
256 129 0
-1758 1059 0
-1210 -1530 0
-2404 1015 0
2215 -13 0
669 1626 0
-28 2049 0
-2707 -34 0
991 771 0
-876 -716 0
1358 -2243 0
1755 1292 0
822 1228 0
1138 -2031 0
-2086 -802 0
2401 648 0
-2668 -535 0
579 731 0
808 1960 0
-1042 199 0
-2297 1938 0
109 -303 0
-503 32 0
786 198 0
1883 -2264 0
807 -1991 0
1065 -601 0
-1340 -187 0
-1185 -68 0
-1595 -527 0
1486 948 0
-1029 -352 0
2010 -2452 0
2544 -1614 0
143 -163 0
-716 -442 0
2622 -1024 0
150 1367 0
2461 -450 0
61 -35 0
-99 -537 0
1819 -762 0
-2661 -663 0
-338 -1231 0
-2051 -471 0
946 -2291 0
-2018 1491 0
-871 518 0
847 871 0
-366 1225 0
-54 -252 0
181 -1944 0
748 -1721 0
-989 1988 0
-667 1842 0
2746 629 0
-705 1775 0
-1009 -804 0
1852 428 0
1778 502 0
-872 1519 0
-1361 1342 0
-455 -2054 0
-948 122 0
-1304 1832 0
2576 2758 0
1230 2250 0
655 -239 0
-1255 1939 0
1759 -705 0
-2264 -1004 0
-1705 191 0
-2615 2502 0
291 -125 0
-1760 132 0
2500 -2536 0
-2465 -1527 0
-479 -153 0
-2499 2443 0
-2071 598 0
-2326 -156 0
343 -68 0
1686 162 0
-1872 -771 0
511 -1860 0
2369 -947 0
2334 -2281 0
-2211 1519 0
2532 -1833 0
-1400 1459 0
-2208 -2735 0
-2227 2194 0
1014 -2069 0
-643 -1189 0
-2029 984 0
-1260 -1951 0
-1446 -1167 0
1178 477 0
-1587 1726 0
-1847 1072 0
-131 660 0
2571 -1480 0
-2661 -734 0
2740 64 0
1720 -2361 0
2728 -2549 0
-2104 -2746 0
-734 1831 0
-2161 1037 0
-188 1702 0
-2637 1474 0
945 528 0
-1073 1727 0
-2402 1478 0
1839 1510 0
-2644 -1006 0
838 -1320 0
-182 -2422 0
585 -2038 0
-1512 -2179 0
1164 509 0
-1796 2301 0
-1609 -1536 0
1155 -2207 0
2525 -1644 0
-459 -1212 0
235 2573 0
104 -2511 0
-1056 -829 0
-718 1138 0
-771 -1393 0
-434 -331 0
-1033 -2211 0
-223 2386 0
-1260 943 0
-1411 539 0
1799 60 0
-2779 1617 0
938 910 0
2209 -448 0
-2771 -346 0
-274 2526 0
-144 -1659 0
-1352 -1198 0
1606 2683 0
-53 -2684 0
-2455 -411 0
-1226 2466 0
2524 1755 0
977 -1589 0
-2505 -947 0
189 -2690 0
2144 395 0
2065 -1065 0
-2441 -675 0
719 1376 0
580 1639 0
1914 -2110 0
1777 -1622 0
-453 -1490 0
-2336 1165 0
-1982 -1480 0
1720 240 0
-1056 -191 0
488 1285 0
-1159 1362 0
-472 -1543 0
1891 -161 0
-2454 -229 0
1857 -2404 0
-1932 1658 0
-2723 2388 0
2161 2603 0
326 1026 0
1285 -1985 0
141 1458 0
1962 631 0
-1542 2069 0
621 -380 0
1148 -2111 0
-1942 -1083 0
1859 -101 0
-2655 645 0
-2621 941 0
2120 2709 0
2455 -2517 0
-2452 -1070 0
199 -1469 0
589 -2182 0
1708 2063 0
2013 2228 0
-385 2561 0
2423 -1157 0
-1426 -398 0
-2417 -710 0
-1498 1431 0
-26 -2569 0
597 669 0
321 -622 0
-2558 -2652 0
2499 98 0
1412 -2432 0
-74 -1133 0
-2351 492 0
-982 1674 0
2378 -1901 0
-108 -954 0
241 1360 0
1531 2752 0
1476 -1730 0
247 216 0
-1761 -1258 0
-1613 -2636 0
-2259 -2279 0
2614 -918 0
199 1753 0
-2514 -720 0
1922 -1239 0
1470 -2486 0
1791 1297 0
131 1535 0
807 -1582 0
-2757 -1372 0
-2638 1349 0
1964 770 0
-613 1171 0
1569 -1167 0
-1562 1910 0
2253 -2650 0
-484 -2172 0
2648 354 0
1404 -2254 0
1992 478 0
174 1000 0
1786 1047 0
-2039 213 0
1264 -10 0
-2726 1920 0
-781 -768 0
1949 2077 0
123 2703 0
-1937 -1788 0
-653 -2056 0
-683 186 0
1413 -996 0
359 -1092 0
449 -671 0
2489 2053 0
-2568 694 0
-1748 2417 0
1699 809 0
-99 109 0
636 -736 0
1440 2781 0
-1975 -1093 0
-2360 1157 0
980 2105 0
2388 280 0
-632 -2359 0
-2128 -1354 0
-2485 1729 0
304 2542 0
1668 1233 0
1655 -385 0
1526 -311 0
-537 2468 0
-1079 -1044 0
-661 -2792 0
-2086 1386 0
-1738 -1698 0
543 -126 0
-2447 -2248 0
-1694 2627 0
2280 -2208 0
-239 -389 0
409 1699 0
636 2141 0
956 -2153 0
2696 -1505 0
-1921 -418 0
1938 870 0
763 -350 0
-1737 773 0
1088 -569 0
2712 335 0
-1578 2641 0
1074 1804 0
-1719 -543 0
2784 187 0
2270 260 0
-1852 -2262 0
2465 880 0
2468 2304 0
-2710 2129 0
-508 1658 0
-478 2094 0
1506 -1399 0
-2551 2219 0
2290 -1181 0
1742 -2593 0
-396 -133 0
940 2671 0
1388 -2616 0
2425 1387 0
-118 2624 0
1656 392 0
-2579 -1842 0
-757 321 0
-678 858 0
-2211 -1487 0
-1336 2103 0
1275 2234 0
-44 -322 0
2160 -331 0
2544 -13 0
2417 -1754 0
2012 338 0
-1663 -1999 0
1309 502 0
1620 379 0
125 2253 0
-837 -1245 0
-666 -1021 0
920 -2210 0
2706 2471 0
2758 -1858 0
76 -2747 0
2477 -964 0
1732 216 0
2060 1579 0
1749 -2546 0
-868 -235 0
2109 741 0
-2122 -1598 0
-745 -240 0
-376 -139 0
-1025 1618 0
107 2734 0
-472 304 0
-1187 1038 0
-1278 684 0
-1690 -1425 0
1926 -616 0
728 2529 0
176 -2224 0
1261 255 0
1293 2739 0
298 1529 0
-291 -1079 0
-1599 -110 0
-535 -1506 0
-1812 -1099 0
-1147 -164 0
-2370 67 0
2783 -743 0
2267 2424 0
641 1912 0
-1938 2101 0
2036 -1108 0
-122 -1169 0
1488 491 0
-2561 -302 0
-364 -749 0
-1144 -2194 0
-540 -428 0
-2379 -2686 0
-1294 185 0
-258 -1645 0
-406 -406 0
1230 1769 0
1151 2 0
149 -1088 0
-566 1487 0
372 -774 0
2309 997 0
-677 2109 0
2583 466 0
-2258 -2704 0
-2594 -2534 0
2466 -94 0
2464 1138 0
-1484 1992 0
1611 -1064 0
-1636 372 0
-2392 145 0
1893 -608 0
232 766 0
560 1929 0
-1115 -928 0
-370 279 0
1665 -126 0
769 715 0
137 -2028 0
-2368 -49 0
-745 -1391 0
1761 -1165 0
-1983 -596 0
762 2358 0
6 -2539 0
-1713 -1215 0
1979 -1265 0
-2352 2493 0
-990 197 0
-802 649 0
443 860 0
-1170 655 0
-117 964 0
1525 -2356 0
-332 1708 0
-834 765 0
1722 -407 0
2083 -1302 0
2067 2057 0
-1644 2433 0
-2603 1875 0
-1969 -1382 0
180 1977 0
-61 -1741 0
2541 -718 0
2121 -2788 0
-2012 -1027 0
-486 498 0
550 1613 0
1221 143 0
1725 -1564 0
-1688 -1867 0
1115 -2559 0
2521 2308 0
2714 -100 0
-1572 2649 0
162 -2604 0
1459 706 0
-2190 -412 0
120 342 0
-1939 513 0
1431 865 0
1415 784 0
1866 -575 0
-166 -1888 0
395 -831 0
-1012 565 0
2412 525 0
-795 2434 0
-2174 -1331 0
1952 -1703 0
-530 1228 0
1919 -383 0
-986 1664 0
-1917 327 0
1467 -2533 0
-2536 1522 0
323 -2612 0
1809 1157 0
2528 1599 0
-2642 -2610 0
-2096 -195 0
773 -2029 0
-1207 -1664 0
1576 -1088 0
576 201 0
-1481 -2598 0
-565 1503 0
673 2324 0
-1181 -2539 0
-2164 1682 0
-2311 -348 0
2556 952 0
-353 1651 0
1612 -2161 0
-282 974 0
511 -381 0
-1775 -78 0
83 1357 0
2152 1823 0
-1473 -54 0
1941 672 0
170 -2743 0
2761 669 0
1907 -2029 0
327 1139 0
2148 1681 0
395 2243 0
2553 -413 0
2738 2365 0
-567 173 0
1488 1235 0
-501 2765 0
-10 -1118 0
2487 1165 0
1127 1503 0
-2479 -1504 0
-2348 1440 0
-1528 967 0
2053 1479 0
1390 1802 0
-2441 2567 0
-2401 -222 0
1532 -1498 0
-541 560 0
-267 1122 0
1016 -2646 0
1240 859 0
2573 -2302 0
232 -1501 0
1882 2241 0
2 -1034 0
-1368 2126 0
1160 1126 0
-2517 -1999 0
-2318 1533 0
-203 -1703 0
1167 -180 0
920 1978 0
1869 -2790 0
-238 2529 0
1205 1155 0
-784 -2597 0
660 -1205 0
2459 2252 0
1161 -1109 0
598 39 0
1986 702 0
-986 1276 0
2744 4 0
-370 1672 0
1347 -1825 0
1529 2085 0
2446 -1441 0
-1895 -2268 0
-1603 1080 0
284 -517 0
-319 978 0
942 766 0
1848 717 0
-1946 -2400 0
706 19 0
-1674 -690 0
-2644 -2676 0
2575 -2696 0
-542 123 0
-1203 -1830 0
-127 -2028 0
-404 2205 0
320 -2454 0
821 -1461 0
-1784 1386 0
1549 553 0
2589 -2579 0
1257 -588 0
-2517 -2616 0
2479 1600 0
-2393 -2116 0
2013 -548 0
1019 -134 0
1403 2748 0
1249 -406 0
2349 897 0
2081 -454 0
1364 1734 0
1977 -2404 0
-2666 -552 0
1059 -90 0
417 26 0
-73 1531 0
2653 1894 0
-1223 2643 0
649 -575 0
-2752 -1663 0
-2018 -2349 0
2163 -684 0
-2629 42 0
1998 1151 0
-1346 -2220 0
849 -1076 0
-2274 819 0
-1401 -452 0
1704 392 0
570 -496 0
-889 -2422 0
1927 2415 0
-382 -2410 0
226 -2479 0
1989 726 0
2652 508 0
2471 1977 0
2758 -2549 0
809 -868 0
-2092 -1026 0
-1342 -2647 0
-72 2074 0
1223 -1645 0
-1437 -1635 0
-211 -2311 0
-1140 1118 0
347 295 0
1675 -1305 0
-2339 2722 0
-1009 1479 0
-395 -2766 0
752 2668 0
-962 -1229 0
-2487 985 0
-665 2473 0
2201 2451 0
945 2767 0
2363 -496 0
-571 1083 0
-1364 196 0
1256 1290 0
1896 -2121 0
-1370 1026 0
2035 52 0
2729 -347 0
-667 1961 0
751 -2374 0
-1149 -1940 0
-1214 -1927 0
2275 -1115 0
-1301 1912 0
583 2300 0
-1768 83 0
-925 -234 0
1307 -824 0
1553 -1220 0
-1809 -2182 0
-2647 1602 0
2177 -929 0
2390 2103 0
1713 2128 0
108 2212 0
-370 -1808 0
2272 520 0
-1260 -2152 0
1479 -54 0
1966 1513 0
-2480 1453 0
302 -1652 0
2140 2634 0
1456 -606 0
-1696 598 0
1155 920 0
145 -1445 0
2316 2431 0
1479 -1098 0
286 -2259 0
-2406 -1701 0
137 -2507 0
1431 -184 0
664 -1274 0
-2763 -957 0
-2665 -1550 0
1670 1470 0
1987 2377 0
1601 1966 0
-59 2327 0
2400 1826 0
-1181 2677 0
-716 -300 0
-437 -1229 0
2154 741 0
1466 -1747 0
1980 1137 0
-43 -1447 0
-2122 1587 0
1195 158 0
290 -2339 0
-680 -679 0
921 -1445 0
64 -2616 0
-2431 2549 0
2137 -1798 0
831 -1421 0
1666 -1808 0
-746 -1418 0
-1544 2463 0
-364 -595 0
-2677 953 0
-20 -2448 0
-936 1405 0
220 -1357 0
963 -650 0
851 423 0
-1858 -973 0
2456 1362 0
-1170 2107 0
350 -820 0
-2731 -39 0
-78 547 0
1941 2653 0
2159 -2375 0
2464 -1364 0
867 369 0
65 -2003 0
2156 520 0
-2328 -955 0
539 2614 0
1603 -2022 0
-2153 2712 0
-32 1779 0
116 -336 0
-446 -2633 0
-2210 -698 0
-2599 -659 0
896 -2145 0
-767 372 0
-13 923 0
-1616 785 0
907 -2568 0
1690 -595 0
1835 -341 0
1089 -2210 0
-618 -1245 0
-1701 -367 0
1092 -1137 0
759 773 0
-2604 -2014 0
-2165 -2246 0
-2591 -856 0
-2691 -52 0
2751 -680 0
824 1705 0
-2137 -2170 0
2330 1206 0
-803 470 0
1588 -185 0
-1771 -1367 0
2605 -1220 0
2011 690 0
1453 -1975 0
1329 -1861 0
1216 -1843 0
-1975 950 0
1654 -2484 0
-206 2589 0
-1892 -954 0
2229 2736 0
-1153 -1653 0
1952 2611 0
2774 695 0
-1891 561 0
-384 -2496 0
574 -2761 0
300 2695 0
-414 2055 0
-2652 -2523 0
-718 1052 0
-1178 2217 0
1102 -2312 0
-1804 1131 0
1705 -1376 0
2173 2328 0
165 -856 0
749 2749 0
2267 -2757 0
208 -644 0
472 -1382 0
1300 -709 0
2056 1028 0
1379 396 0
-570 2433 0
1849 -59 0
2775 -1466 0
-2702 -1833 0
2562 -1110 0
1450 -1813 0
-2715 -2447 0
-1156 -748 0
1508 -425 0
88 2347 0
-340 1260 0
-1130 1683 0
1331 1370 0
-139 1509 0
-1287 875 0
-1183 1304 0
2248 485 0
-31 -801 0
1606 -2772 0
858 -1464 0
247 1948 0
-145 -1798 0
-2761 -2368 0
1383 2244 0
532 -679 0
2589 -1162 0
1384 -2484 0
1579 -1774 0
-1034 351 0
2019 -1027 0
-1696 -2071 0
2184 233 0
-151 -1950 0
1969 436 0
-2006 892 0
-867 2144 0
1725 -2074 0
2528 556 0
2718 -1543 0
-2392 1139 0
910 2223 0
2183 -2720 0
610 871 0
887 -378 0
-1504 1448 0
-2590 1007 0
1578 584 0
-2537 -1925 0
-446 -1435 0
786 2766 0
-2764 -2041 0
-1615 -63 0
1943 1471 0
2414 -2300 0
2154 -2195 0
900 -2050 0
-954 215 0
651 -494 0
1442 2151 0
453 1749 0
-401 2529 0
1955 -634 0
-1548 1525 0
-545 2374 0
2693 -1426 0
-1337 -1173 0
-263 1226 0
-1646 -32 0
-2651 133 0
-1928 1076 0
-309 1106 0
-1389 2365 0
978 -1326 0
-2539 1965 0
-687 743 0
-93 -267 0
2725 1686 0
-2292 -2307 0
273 -1137 0
1773 -1780 0
-585 652 0
-1223 -1981 0
-566 2205 0
-2612 2740 0
2620 -2675 0
-954 -1005 0
-257 -1310 0
-384 -530 0
2092 326 0
-1693 2423 0
523 344 0
-716 1104 0
930 -380 0
-1737 -1182 0
823 -2654 0
1716 1974 0
-2152 -1463 0
860 2706 0
-2085 1396 0
2649 1050 0
-2231 1804 0
-1370 568 0
-541 177 0
-2690 2188 0
-2760 878 0
1596 -1402 0
1044 1910 0
1178 701 0
-782 -2775 0
884 -2767 0
-2436 1002 0
1102 -578 0
1621 -599 0
-242 2313 0
-1419 -1565 0
2706 -1541 0
627 1562 0
1941 139 0
1120 2287 0
2471 -2028 0
-1301 2173 0
-400 -732 0
894 2534 0
-1060 775 0
-2442 -2085 0
1699 646 0
2295 -2520 0
-301 2185 0
-991 420 0
-1297 -1664 0
1782 -837 0
248 1740 0
-2635 728 0
-678 1350 0
442 -2211 0
-2435 -2535 0
-1925 97 0
1987 2582 0
-2484 -536 0
-235 2619 0
-150 -1447 0
-1873 -2579 0
-778 2241 0
2555 -2249 0
1185 -2412 0
-2404 -2748 0
-1973 -50 0
-419 -377 0
2117 -1202 0
2529 -2350 0
-1870 2291 0
-2623 -582 0
1216 441 0
807 1680 0
-1785 -1884 0
-1320 1822 0
1519 -1810 0
-1544 -1770 0
926 603 0
1912 -444 0
-1694 -2472 0
-2550 -2681 0
-1669 -2354 0
-679 2746 0
-2174 2683 0
-188 2183 0
-2517 2316 0
-1640 2571 0
714 910 0
2425 -1393 0
1601 1701 0
-52 2060 0
1474 1929 0
-1785 -1428 0
-1777 -1387 0
99 1255 0
-2032 1129 0
-1652 -762 0
-1910 -2630 0
442 -1162 0
2589 -2726 0
898 236 0
1777 856 0
861 1304 0
-1927 410 0
-691 -2410 0
1906 -932 0
1099 -2453 0
-900 1535 0
-1457 172 0
-1934 -1868 0
-385 165 0
2135 -1865 0
-563 1596 0
-1615 2637 0
2458 569 0
379 -2427 0
-1479 202 0
-705 1718 0
-256 1715 0
-2136 -217 0
-985 -697 0
-303 -1348 0
-1203 -724 0
2789 -294 0
-2279 215 0
1292 -990 0
-2207 1144 0
-494 1693 0
1765 -1130 0
2077 -1273 0
197 -1532 0
-799 -2677 0
2166 183 0
2300 2268 0
-2427 2421 0
-1803 -1007 0
1855 2418 0
944 941 0
2739 -629 0
471 -682 0
-135 -1414 0
-1946 2261 0
-2662 1941 0
-2482 -257 0
-174 2252 0
1858 123 0
-1770 344 0
1367 2284 0
-398 1904 0
1034 1566 0
544 2012 0
-2523 2782 0
1216 -1311 0
544 2278 0
325 2682 0
-2288 -1877 0
397 -1865 0
204 -760 0
-267 -804 0
234 -1441 0
1446 1722 0
2304 1602 0
-1007 -1866 0
-2141 742 0
-2169 -1802 0
75 743 0
-1699 -1620 0
1642 1027 0
941 -2290 0
814 1035 0
703 -2438 0
-1009 1852 0
-188 -1426 0
-758 311 0
-8 -1543 0
-677 1073 0
1802 -1794 0
-99 -1437 0
-2387 -2016 0
-2719 2758 0
-158 961 0
-1928 1216 0
-306 -96 0
692 1945 0
-2442 -269 0
-2288 -1439 0
2476 -2007 0
846 -1018 0
2528 -194 0
-1485 2083 0
-693 -2244 0
1162 980 0
1198 1942 0
2037 -650 0
291 2447 0
-600 151 0
2231 2205 0
-337 598 0
-2779 -914 0
297 2259 0
-2176 -2274 0
1791 263 0
2366 480 0
1668 1156 0
-2627 1899 0
-1677 -2196 0
844 -1749 0
2006 1428 0
251 1329 0
2060 -1892 0
1413 -2338 0
-28 2407 0
-2181 -220 0
-463 -910 0
-1028 314 0
1404 602 0
409 -2073 0
-1280 -508 0
291 -2239 0
-2145 -1255 0
1761 410 0
-2693 40 0
-1664 -1363 0
2713 -139 0
-2379 -1310 0
-822 1992 0
-697 931 0
-2577 -2187 0
1453 2556 0
-319 942 0
-743 2619 0
483 -1164 0
2296 -1542 0
-1194 -1450 0
-2305 -2011 0
-1386 1460 0
2553 -1564 0
1744 -144 0
2097 -114 0
-419 -538 0
2310 -144 0
-2254 1286 0
1075 920 0
647 2367 0
730 1546 0
-422 -2146 0
-1303 -1874 0
-181 313 0
1539 2503 0
1109 2696 0
1439 2737 0
414 -436 0
216 -2541 0
-2361 991 0
2320 -1340 0
773 876 0
2353 1261 0
-724 -1299 0
1320 -2119 0
2749 2645 0
-2502 -838 0
1256 605 0
685 2554 0
-2087 -1665 0
2345 -2765 0
1232 -2002 0
1118 1062 0
-528 675 0
-1408 1887 0
-1811 1668 0
1799 -2281 0
-1612 2074 0
-467 -1389 0
2061 -205 0
2398 1052 0
2194 -2196 0
-1245 -21 0
1412 -799 0
-239 -1519 0
-2496 -1061 0
-503 2008 0
2676 2603 0
2698 -2001 0
-1981 1485 0
531 1440 0
1418 562 0
-1095 1855 0
459 -2747 0
1758 -1237 0
2268 2480 0
2791 -1260 0
1978 -1997 0
148 2759 0
-2139 1059 0
-366 -1378 0
1012 -2301 0
-511 97 0
323 1842 0
2656 -2576 0
-2546 911 0
-791 -1470 0
719 -1669 0
-2622 -1317 0
-2428 -436 0
1431 -1075 0
-274 1596 0
-884 -1483 0
2544 2754 0
1305 -1310 0
-318 -2087 0
165 1941 0
-1039 -244 0
-1761 2003 0
-47 1674 0
1965 1696 0
2425 1449 0
2621 1511 0
-1935 2259 0
1776 1827 0
-334 -351 0
2193 902 0
-1830 1471 0
-1338 -217 0
-1244 2750 0
-323 2173 0
2255 424 0
-2336 -2350 0
-1842 -355 0
-262 2443 0
-1581 -689 0
530 -973 0
2066 -1567 0
2574 -135 0
176 -1424 0
-1745 1951 0
-2754 -2372 0
815 2135 0
1650 2310 0
908 -866 0
2341 -1477 0
-2635 -1208 0
2035 -2543 0
-581 2241 0
-746 -864 0
-2084 -1280 0
-940 -2658 0
2073 -2170 0
-1141 -2749 0
-1439 681 0
-1677 1534 0
2 2064 0
143 -1375 0
173 1019 0
-40 -1038 0
-1465 1293 0
-362 2702 0
525 -880 0
-2297 321 0
2176 2451 0
1444 -7 0
-460 2541 0
-2635 2587 0
-57 -884 0
-1830 -2231 0
978 -1312 0
1562 -1772 0
-1849 2786 0
-883 -1252 0
-1530 -951 0
1825 2767 0
2373 -2120 0
905 752 0
-1467 2538 0
1035 360 0
2533 1370 0
-1252 418 0
725 -1947 0
2572 -2071 0
-757 -2155 0
976 1920 0
2238 1899 0
2408 -105 0
513 -1430 0
-971 2058 0
661 -2381 0
1729 -1830 0
-2007 -1931 0
983 -1202 0
-708 -2235 0
2428 -61 0
-1804 963 0
1651 -2650 0
-2483 -1 0
-1429 2006 0
-1710 -662 0
1773 -1550 0
-571 -1304 0
2667 -1070 0
619 -2616 0
-1440 -2479 0
443 1318 0
1115 2518 0
2714 -1332 0
1195 -2147 0
-2791 -1454 0
-2555 1627 0
53 -2752 0
-929 815 0
-1696 -1516 0
2540 -677 0
2716 -2424 0
2477 -1428 0
-129 -936 0
1102 -1854 0
-1367 667 0
332 -710 0
1600 1836 0
-567 1090 0
-1805 -580 0
553 -2001 0
434 2434 0
1412 1475 0
109 1943 0
1928 1409 0
-1478 1245 0
2134 -887 0
-103 764 0
-1609 1801 0
-1527 2629 0
-2631 1851 0
-2419 -2749 0
1457 935 0
-1918 -254 0
1946 534 0
2757 -2713 0
-1512 -1759 0
1456 1797 0
2768 -1236 0
-2118 -1464 0
203 500 0
1398 -1078 0
-115 544 0
-2671 -135 0
-1581 639 0
1848 -2365 0
-2393 -331 0
-599 669 0
-2287 -689 0
39 -1454 0
691 2273 0
-972 1279 0
-158 -1352 0
2484 -37 0
1143 -101 0
-864 -982 0
-1845 2204 0
1820 2525 0
-1776 -1455 0
1468 419 0
-2262 -450 0
-1571 2300 0
2094 -2404 0
-776 -1667 0
-27 1112 0
-1955 -2051 0
1373 -2113 0
-2303 -2145 0
-331 -1682 0
579 -873 0
1513 2269 0
-899 2253 0
-1297 -2430 0
-54 2681 0
1221 114 0
874 -1009 0
2162 566 0
-1784 2387 0
1910 -1801 0
1529 531 0
-1116 -1127 0
864 1797 0
-2211 -102 0
-2221 -2633 0
1699 -1565 0
-2421 -463 0
1549 -1268 0
-2657 -1102 0
1426 -299 0
-2284 2219 0
2036 -508 0
-957 2444 0
116 1430 0
1976 546 0
-1257 -44 0
1943 1513 0
1598 -1095 0
206 230 0
349 -30 0
-1310 2707 0
-722 -1203 0
-512 2786 0
-2495 -767 0
-871 1099 0
-2311 1534 0
806 2043 0
1876 1394 0
148 1418 0
747 2663 0
1043 335 0
-455 -362 0
580 842 0
-2379 -1578 0
698 -311 0
-88 -872 0
-1079 467 0
-1840 854 0
-1840 1643 0
-1763 -322 0
1109 -2015 0
1395 -2112 0
-1258 728 0
736 2278 0
-357 1990 0
-2357 -292 0
-2376 1407 0
-1779 -668 0
1587 -2049 0
860 -1399 0
-324 -313 0
-1808 -1124 0
2106 -1920 0
-740 255 0
-1190 2607 0
-1751 2531 0
-954 -897 0
1357 -1523 0
-2505 -1047 0
1064 -2069 0
-1448 1920 0
-1432 2765 0
-2343 -1755 0
-2322 -980 0
943 1098 0
2369 -1592 0
-552 320 0
-1320 -2779 0
951 2010 0
1978 1026 0
-566 2446 0
579 1585 0
-2103 -1427 0
2794 408 0
2716 20 0
1878 -460 0
1136 -353 0
-1557 -323 0
-2669 -276 0
-841 2546 0
339 1233 0
1891 2074 0
2471 -1658 0
1847 -390 0
-2615 975 0
-2260 -2179 0
758 646 0
-2200 611 0
-1929 -2508 0
-947 140 0
2247 1320 0
638 -2139 0
2777 2059 0
-1979 -1523 0
2370 1316 0
394 -1010 0
-1532 -125 0
2172 -1000 0
-68 -1742 0
1383 1170 0
-1378 -988 0
639 -258 0
2748 -2624 0
595 -1043 0
2361 593 0
-2286 -583 0
-1065 285 0
-2368 1840 0
-1580 -1501 0
-22 -2165 0
2066 2486 0
2223 1700 0
-427 -666 0
1404 2755 0
335 2763 0
-1185 -2640 0
1888 1525 0
561 821 0
-1151 -2557 0
1609 -2311 0
1183 -2584 0
-188 1785 0
2429 -2194 0
-178 488 0
-749 -1807 0
-1238 1359 0
-1908 -75 0
2258 923 0
-1331 -1326 0
402 -61 0
-2377 944 0
1417 1445 0
1658 1965 0
417 -612 0
915 69 0
-2138 509 0
1745 672 0
-1458 -1788 0
-2670 -622 0
-2562 203 0
357 761 0
-1975 -384 0
-644 -1085 0
1409 -913 0
-1457 596 0
-1512 2135 0
1069 -2548 0
531 1422 0
-415 -2611 0
-92 -455 0
-1345 1962 0
1948 1012 0
186 579 0
1512 1986 0
-680 -2083 0
2082 353 0
-1828 2535 0
2135 199 0
1954 300 0
140 1126 0
1683 -995 0
363 1401 0
2421 -2790 0
288 43 0
-678 2555 0
-1874 -166 0
1584 -1904 0
1917 2082 0
796 738 0
-404 -2391 0
1373 -98 0
1133 -2755 0
1479 1257 0
-1620 -1249 0
-760 -1685 0
452 -2298 0
-230 1161 0
1901 20 0
-2357 1270 0
-1115 2691 0
551 -1451 0
30 -1279 0
-569 1184 0
2344 -1933 0
-1402 1517 0
1422 -23 0
-1414 -1451 0
-2015 2209 0
-2525 1194 0
-1558 2222 0
-975 -1924 0
1356 -1325 0
1479 -419 0
444 2620 0
2160 -2148 0
161 -495 0
1076 493 0
81 -2110 0
-2171 1548 0
1235 -44 0
-2685 392 0
-175 -71 0
-626 -2145 0
-2780 1178 0
-366 -836 0
-501 -1451 0
258 -1457 0
-1083 -1212 0
2414 -619 0
-1513 -1911 0
-838 -2658 0
-1626 -156 0
350 728 0
-1355 -1408 0
1941 -2449 0
368 -2777 0
-1427 -2661 0
-181 2233 0
-2178 -316 0
1421 1964 0
2383 -239 0
1825 2154 0
2139 559 0
2379 1671 0
2020 -630 0
347 651 0
-1150 1095 0
-722 -2336 0
1260 -2604 0
2737 -162 0
-2752 -262 0
-1788 -2653 0
562 -1667 0
414 857 0
-1579 -306 0
-1034 -1175 0
-643 -114 0
75 1267 0
1152 -1175 0
-683 1693 0
2157 2048 0
143 -716 0
-1499 2484 0
-1512 2518 0
-2644 -1350 0
1730 -1190 0
-1464 1836 0
-1363 969 0
-1691 -1847 0
-1970 -340 0
-1732 1069 0
236 1104 0
-1064 -2663 0
-625 -1772 0
-731 609 0
-554 -869 0
527 1171 0
-2015 2358 0
244 2395 0
591 2274 0
-1556 128 0
89 -97 0
-2630 921 0
-2213 2317 0
2653 2601 0
-270 -2436 0
-1186 -1600 0
2696 619 0
1484 -322 0
-1573 1832 0
-1998 -319 0
-1266 -1465 0
-1128 -1328 0
-1798 409 0
2367 451 0
1609 1170 0
370 -1657 0
-2359 -2371 0
-2582 763 0
1266 1709 0
-1246 -1253 0
605 311 0
-1200 -2258 0
2134 83 0
173 2566 0
523 -1923 0
1097 -2420 0
-1350 825 0
1642 1636 0
-518 719 0
-2551 -75 0
-146 -665 0
2128 2610 0
2361 -1417 0
-2074 1899 0
950 -1317 0
1520 1871 0
-1057 -2104 0
2425 313 0
-1100 -2428 0
94 -1914 0
-627 2493 0
39 131 0
1155 859 0
-2305 -712 0
-397 -2499 0
408 178 0
2759 -2254 0
2377 2208 0
431 -1512 0
-26 233 0
-823 184 0
1091 2611 0
-1408 -598 0
1450 2794 0
2607 1265 0
-487 -1834 0
625 -2153 0
-1974 -615 0
-745 -1597 0
729 1228 0
1955 750 0
2575 -2321 0
-852 -772 0
-770 -983 0
-1175 302 0
-2684 1761 0
-2180 -932 0
1116 -768 0
2304 2550 0
-1657 1883 0
-2233 -1374 0
-1357 1716 0
1654 1750 0
1826 -1911 0
2185 -682 0
2504 -1502 0
2365 -931 0
409 -212 0
1955 739 0
930 1765 0
1687 -1922 0
-2332 -727 0
-565 1681 0
2440 -1757 0
-2061 -2533 0
458 -2490 0
281 1981 0
2408 1587 0
-1845 1906 0
1489 -2183 0
-48 -1656 0
-814 813 0
1401 640 0
1365 655 0
-238 1401 0
-54 288 0
-1282 -2436 0
728 -2635 0
-2533 -6 0
2520 -1342 0
53 927 0
1514 1269 0
1591 1596 0
2775 1579 0
165 1071 0
953 192 0
178 1121 0
1712 1594 0
-2780 2128 0
-2025 2732 0
1921 -1894 0
2337 -357 0
1121 2353 0
-991 -1167 0
994 246 0
-1752 198 0
-2563 1800 0
2382 -1308 0
2223 -1867 0
-1482 1366 0
-1162 430 0
2648 47 0
2638 -2485 0
2128 -703 0
2607 -1018 0
680 788 0
2385 694 0
2364 -1764 0
-2498 -871 0
2466 421 0
2606 706 0
-231 -2220 0
1928 711 0
-1328 556 0
1060 -2341 0
1919 1955 0
847 390 0
2674 450 0
1892 -1082 0
-409 -2444 0
-2061 886 0
-2038 -1937 0
2074 321 0
1142 2253 0
-143 -59 0
-1935 2437 0
1465 268 0
-599 -318 0
1514 98 0
317 -804 0
-2222 -1061 0
-665 2624 0
-418 -2780 0
-2298 -100 0
-340 523 0
-2501 -1005 0
-1175 1376 0
2638 -1952 0
-1848 -1124 0
-1551 2641 0
2182 1026 0
2151 1791 0
927 1288 0
1078 -404 0
-642 -1311 0
1996 2066 0
-2168 1386 0
1472 147 0
1800 -2018 0
-1158 788 0
-982 2655 0
-1259 2190 0
474 -1355 0
772 -2188 0
1147 214 0
-865 -2037 0
739 1108 0
2280 -722 0
-1669 -2483 0
-62 -2095 0
-1593 1315 0
1774 598 0
-2391 -2226 0
2253 2010 0
2760 1355 0
-316 2622 0
-2609 1054 0
-1650 2366 0
2128 -1808 0
-1556 13 0
-2607 845 0
880 -2172 0
2135 -1835 0
2309 -2561 0
-1000 2032 0
-2726 1656 0
497 1995 0
-1445 621 0
-1977 -265 0
1172 -2121 0
-1093 1176 0
-989 -786 0
1300 -909 0
-2636 1120 0
-1017 -1938 0
-17 -1149 0
-2213 1831 0
-652 -201 0
2368 1104 0
1722 -1920 0
-1649 -596 0
-2021 955 0
1555 1471 0
1731 -956 0
1433 2275 0
762 -630 0
202 412 0
2421 1012 0
-1608 2707 0
908 2124 0
-1637 2184 0
-84 196 0
-2737 -626 0
-66 -1330 0
-255 529 0
-2226 1398 0
897 809 0
241 -2216 0
-2154 -835 0
-2046 -2570 0
-1609 558 0
-1831 -49 0
1105 -1272 0
2732 1285 0
-2575 2492 0
1261 1818 0
2202 1264 0
-602 16 0
246 88 0
1381 -1548 0
829 -1788 0
-721 1909 0
91 2206 0
-1558 2499 0
187 1734 0
-1785 1579 0
-2242 -611 0
-2606 364 0
-1125 604 0
-2105 -2079 0
159 61 0
-1657 1311 0
897 -1534 0
-661 -25 0
784 1373 0
-1284 -1381 0
1269 -1958 0
2283 -2211 0
636 524 0
-630 505 0
-249 -41 0
1137 -2753 0
2229 -2592 0
2160 -1482 0
-2635 146 0
-671 -2694 0
-591 -1981 0
315 -2776 0
216 584 0
1007 -2400 0
173 -1408 0
1743 434 0
-718 1680 0
-1268 1724 0
2528 -254 0
-2746 53 0
-1278 -2467 0
-403 1440 0
2273 2310 0
2662 -412 0
1106 2543 0
1508 1167 0
-573 -336 0
-537 1172 0
-983 -1757 0
1124 -1124 0
-106 2070 0
2492 -1629 0
1022 -2790 0
1476 -1264 0
1141 387 0
2218 1359 0
-1144 309 0
1986 -230 0
2598 2142 0
1472 2105 0
1868 -594 0
-1717 1240 0
-1811 -1681 0
-2782 2131 0
-2099 -2568 0
493 1045 0
-27 1143 0
419 29 0
2136 -1173 0
2417 996 0
1479 742 0
-1227 1108 0
-650 207 0
229 -545 0
1386 100 0
-1527 2333 0
2027 2480 0
421 461 0
-1073 1359 0
1197 -841 0
1335 646 0
2645 917 0
1392 1329 0
2263 1346 0
-1904 -172 0
-28 85 0
-914 -1455 0
-887 1821 0
1797 -1780 0
510 530 0
-2099 -1113 0
-2242 -1717 0
-1126 -1308 0
1562 1136 0
-1620 -1268 0
-499 -2177 0
2753 -1402 0
-459 1411 0
7 1418 0
-2295 2518 0
-2160 -2255 0
-360 -1006 0
-863 1218 0
-1159 -2293 0
2449 -1942 0
975 -2334 0
-2328 -2065 0
1765 -116 0
-440 -1852 0
1363 -1344 0
-29 1290 0
2135 529 0
1636 -179 0
2140 -1821 0
2003 -597 0
-2592 -477 0
-2389 -122 0
-2701 -1278 0
-1079 815 0
-230 -2139 0
1360 1355 0
237 -555 0
-979 -234 0
-541 -1235 0
2426 941 0
789 331 0
214 1189 0
724 2739 0
-2293 -377 0
-2100 1778 0
2460 -170 0
-1820 2554 0
2407 -791 0
1233 645 0
-2393 2232 0
2388 284 0
-2317 2125 0
-1083 -503 0
2459 -2565 0
668 1576 0
-1997 780 0
-1169 1510 0
-871 -2550 0
94 -1583 0
-1530 1852 0
-2007 2766 0
611 -416 0
1873 1243 0
1226 2660 0
252 739 0
1923 -2517 0
1992 2020 0
532 1678 0
619 -1135 0
-1401 2106 0
748 1286 0
-2281 -1005 0
-2629 -1703 0
2271 -1282 0
114 974 0
-511 783 0
-2539 185 0
-1285 506 0
1725 232 0
475 184 0
-2235 -2145 0
601 -2028 0
-1409 619 0
981 2023 0
-496 -1677 0
-1128 -2244 0
-1067 -719 0
1126 -2057 0
-459 -1754 0
457 402 0
-1049 2107 0
-2655 2310 0
1882 1180 0
780 392 0
2081 -1548 0
-1419 -2387 0
-1592 -187 0
-1407 -2763 0
862 -1227 0
-405 -1309 0
2187 -74 0
-1016 2664 0
-494 1471 0
-2039 2231 0
-713 876 0
-251 -2262 0
2780 -2638 0
-614 1047 0
1687 1138 0
-2720 381 0
-694 1225 0
2149 -616 0
-1760 -997 0
2221 -2628 0
1683 -828 0
-1025 -1211 0
1370 -997 0
-2414 806 0
-2439 -1166 0
2123 -1854 0
-403 1013 0
-2274 952 0
2183 730 0
885 -391 0
1652 781 0
116 -1029 0
2365 2435 0
1089 -1674 0
1226 2265 0
-2771 2484 0
2203 1691 0
-323 -1845 0
1916 2068 0
1642 2751 0
608 456 0
1213 2017 0
-1558 -1420 0
-2479 1863 0
-776 1686 0
1955 -1598 0
505 1996 0
323 1819 0
-2438 -234 0
-737 -2509 0
-140 1099 0
-235 -378 0
-883 -1820 0
2440 1011 0
2308 -2241 0
-2464 -1592 0
-1991 -733 0
-1057 2138 0
1930 1430 0
2693 -939 0
1597 -218 0
-690 -1710 0
2359 1676 0
-2200 2271 0
2284 -451 0
1362 -475 0
1193 903 0
923 -78 0
-425 -582 0
-2603 -241 0
-398 -1196 0
2393 347 0
-439 -1719 0
-70 -750 0
-311 -1499 0
-261 -822 0
944 -2767 0
2165 -164 0
2278 -270 0
-2145 -310 0
-2381 1724 0
1679 -2102 0
2700 -286 0
815 2153 0
130 -2558 0
369 -2564 0
-85 1528 0
-2271 -1789 0
2507 1524 0
-1433 -1485 0
2683 141 0
2174 -704 0
-1502 -1161 0
-2772 -1570 0
103 805 0
-1603 -793 0
-2259 -1770 0
-1367 1915 0
2786 1771 0
1893 -2795 0
-2632 1398 0
1636 -2670 0
-1705 1386 0
2640 1221 0
2411 379 0
2349 -2734 0
469 -862 0
2420 2037 0
98 -1702 0
-1841 2234 0
-1733 -495 0
-1226 1019 0
466 -790 0
728 -2750 0
1227 1243 0
-2542 2567 0
-1464 1086 0
-2350 -463 0
357 2623 0
1900 2769 0
-362 -1068 0
2449 1347 0
-2418 195 0
1942 1485 0
-1938 2585 0
-1152 -1424 0
1467 108 0
-852 238 0
-2635 675 0
-1566 -2563 0
1471 -2091 0
2275 2617 0
-1215 2367 0
763 -1009 0
-1939 -201 0
165 -1449 0
-758 -2749 0
-1065 1953 0
2659 952 0
-1647 459 0
-949 779 0
2472 -1927 0
-1137 -2350 0
-1246 -1301 0
2072 -2448 0
900 -2693 0
-127 -1710 0
810 968 0
1675 2722 0
2369 -1611 0
-2225 1609 0
2310 2570 0
-2670 2655 0
1165 -1049 0
-1667 -2693 0
-2256 1786 0
-293 -557 0
2739 -1102 0
317 2150 0
1649 -38 0
-1670 2144 0
-44 989 0
1396 151 0
714 -720 0
1846 1995 0
2365 1171 0
1314 1356 0
-1575 2187 0
1904 -93 0
-1167 -2738 0
-642 1646 0
-1950 -2239 0
-2727 273 0
-1498 1327 0
128 -1573 0
977 -641 0
1685 -637 0
-2688 2357 0
-2061 -2763 0
2781 -2513 0
-467 305 0
961 852 0
236 897 0
-2439 2594 0
-590 -86 0
-110 -426 0
-366 -2455 0
890 -2211 0
-1273 -743 0
-682 -2050 0
-562 -755 0
-1485 2355 0
-2237 -144 0
-703 -1049 0
1940 -1125 0
-1541 -83 0
696 -764 0
2337 2240 0
-1770 -2772 0
-1823 1249 0
1052 1678 0
216 -1377 0
429 2488 0
1669 -1296 0
1508 2459 0
2624 2184 0
-2731 -444 0
311 1304 0
-1351 212 0
-864 861 0
1303 387 0
-1495 366 0
108 -205 0
-1979 -1619 0
511 -2701 0
-2712 2528 0
1201 1746 0
-2295 4 0
253 -478 0
1275 -876 0
7 1510 0
174 -2636 0
198 -494 0
669 1076 0
505 204 0
-1993 2484 0
-179 -1268 0
-562 91 0
2320 -385 0
2367 2307 0
826 -2787 0
-909 -569 0
-223 -1236 0
-1935 -2061 0
-1973 -1524 0
982 2199 0
1173 56 0
46 -1934 0
-2661 -889 0
2043 -2688 0
1940 630 0
475 -2533 0
856 -1625 0
243 385 0
719 2360 0
-1695 2614 0
-1884 868 0
-37 -2495 0
-1814 -1978 0
1255 -1714 0
940 -582 0
2386 -1113 0
1072 -1721 0
-1927 -2332 0
331 2376 0
-1772 -484 0
-284 -2769 0
-385 -418 0
-110 1972 0
1071 826 0
1975 -2747 0
847 408 0
236 -1456 0
960 799 0
469 -1285 0
918 -1272 0
-2170 1771 0
2498 -1282 0
-578 -442 0
1120 503 0
1224 -2411 0
1249 1631 0
136 821 0
-313 1570 0
-2092 -1123 0
-1327 193 0
1817 -2478 0
2205 -751 0
-686 2596 0
-2626 2061 0
-543 1214 0
1769 -1210 0
-2598 2342 0
-1188 1799 0
2691 1871 0
1091 -637 0
-1283 -1209 0
1491 -2236 0
885 297 0
1898 213 0
-674 428 0
1576 -2474 0
-1752 2531 0
-1490 1298 0
975 -513 0
170 -597 0
1917 1423 0
-383 2725 0
2621 -265 0
-2689 325 0
-2256 999 0
302 808 0
-2289 435 0
-2342 -582 0
2089 1038 0
-22 1521 0
2205 -29 0
1686 1685 0
-2668 1896 0
1921 190 0
-2333 1863 0
-2109 -414 0
-2505 -2791 0
2784 535 0
987 2197 0
2443 1735 0
-1161 -2431 0
903 -2703 0
-778 2638 0
-1306 1786 0
2385 2271 0
-1123 554 0
-1665 -106 0
1875 -2483 0
-389 -1495 0
-2074 -2690 0
-2220 637 0
2432 1308 0
-2070 -525 0
-2319 -1983 0
1520 -428 0
844 -2526 0
-1197 1293 0
286 -1644 0
-1461 213 0
2267 702 0
-2190 2194 0
-2595 -2280 0
-613 -2075 0
565 2465 0
-2667 2060 0
1472 -456 0
-2258 651 0
182 -1163 0
1197 -1448 0
-1491 458 0
1105 -2148 0
1736 -813 0
2077 2024 0
2560 -1565 0
386 2744 0
-1374 -218 0
1305 2784 0
38 802 0
-2009 1242 0
1780 788 0
2401 2076 0
401 565 0
966 903 0
-557 -932 0
-950 -769 0
-2029 -921 0
-1621 711 0
-2182 -2365 0
1455 2620 0
-1758 909 0
-1662 -2635 0
1694 -1181 0
-1006 775 0
-1813 -2297 0
1564 -1406 0
-2366 -1843 0
-2161 -463 0
845 -147 0
-1765 -446 0
2181 -622 0
-45 -2745 0
823 -485 0
2648 -177 0
128 -104 0
131 -1361 0
1251 -688 0
-845 1225 0
1573 2528 0
607 1377 0
2693 -1399 0
-794 1263 0
1993 -454 0
-2598 -668 0
-773 706 0
-972 309 0
1305 1969 0
-2153 -1928 0
-1667 2778 0
-249 -2212 0
-2207 -2411 0
-875 -560 0
856 2381 0
-2759 2342 0
1587 -105 0
-1583 -1557 0
-2085 -646 0
-1130 -2328 0
938 1940 0
2510 -1117 0
-1097 -1449 0
-2500 -1038 0
-1215 -1634 0
1686 -673 0
344 417 0
-2175 -306 0
1383 -1703 0
-1439 -1989 0
-1544 1831 0
1264 2766 0
-1685 847 0
-2319 927 0
-678 822 0
1395 2207 0
-208 -2339 0
409 1800 0
1051 2239 0
2363 833 0
725 1427 0
-235 -918 0
-1802 2124 0
-569 -1677 0
-2220 -499 0
-201 2398 0
1184 -409 0
-485 -2508 0
-278 -2629 0
1223 -2080 0
-1280 2577 0
-1480 69 0
196 353 0
-2188 -2292 0
469 -1235 0
1571 -2285 0
-2126 2017 0
1062 -437 0
-2523 2029 0
1204 1912 0
-2426 5 0
383 -2419 0
-1527 -1059 0
2209 -1364 0
-2633 574 0
809 2580 0
808 1692 0
361 -444 0
1909 -160 0
1880 419 0
-1227 -1104 0
-1290 -2100 0
-142 -976 0
2374 1209 0
-740 2391 0
-1985 -1486 0
-2638 -1908 0
1105 -2499 0
1747 -1583 0
2109 -1144 0
-2483 -764 0
409 866 0
1753 -1983 0
-2604 1301 0
-1638 487 0
-771 -460 0
-183 765 0
135 887 0
-140 -1197 0
1987 2437 0
-2536 1368 0
-562 864 0
1750 307 0
-827 43 0
110 -2077 0
1994 124 0
-723 320 0
-2483 836 0
2327 568 0
-462 1739 0
-2699 2779 0
-367 -804 0
1277 -2719 0
-793 -1345 0
-1070 -148 0
-367 1968 0
-1239 291 0
159 -1959 0
296 2649 0
-73 -1168 0
-1683 2762 0
2760 826 0
-561 -2677 0
213 -1190 0
878 -1093 0
-1289 78 0
-1619 2480 0
2366 80 0
-1135 -1731 0
1573 -2339 0
2617 1373 0
1428 2542 0
-1927 -992 0
349 173 0
-323 -1184 0
-1348 825 0
-1076 -1141 0
1180 1110 0
-929 -1406 0
1825 2610 0
2118 -1545 0
-1482 1368 0
-2009 879 0
579 -2156 0
-470 -2127 0
-917 -2015 0
-1504 -1880 0
880 84 0
1731 -927 0
2667 1368 0
-720 -2534 0
-2087 2231 0
2634 -2301 0
-1721 -1572 0
775 -1722 0
-577 -110 0
-1308 -2480 0
231 -583 0
-1533 174 0
1074 -2347 0
-2721 956 0
-2779 -1320 0
1198 -2288 0
1316 -127 0
2263 829 0
-2333 -535 0
1976 877 0
-2200 1398 0
-982 -2006 0
-1625 -1424 0
-1442 856 0
-1085 -1795 0
1781 -2685 0
1686 1102 0
2391 -144 0
-2750 -2327 0
-477 -1820 0
-648 2692 0
1422 -2321 0
990 661 0
1521 2346 0
2763 -1661 0
806 1471 0
1284 428 0
2191 -1332 0
-2165 -2293 0
501 -1667 0
-1738 2126 0
-699 -1214 0
-1677 -2101 0
2734 1902 0
1425 -2579 0
-882 -1653 0
-287 -2430 0
-1866 1076 0
-1977 1329 0
795 -6 0
223 252 0
-179 -153 0
-254 -2398 0
847 507 0
-2148 1473 0
-117 95 0
2140 2662 0
2560 480 0
-2201 517 0
-448 1994 0
-986 1371 0
699 2103 0
-418 1467 0
2748 -2090 0
1523 -106 0
982 2052 0
-2063 -61 0
967 1397 0
392 169 0
-587 720 0
2308 -739 0
-1796 -1208 0
2012 -1464 0
1376 -2005 0
-90 -87 0
-1068 -360 0
-2759 2384 0
1797 -835 0
1049 1892 0
1436 -642 0
647 -2693 0
-390 -841 0
985 -1480 0
655 -1022 0
-1349 284 0
672 -2791 0
-1491 1296 0
845 1574 0
681 -14 0
-511 1349 0
-1274 -1648 0
43 2446 0
-620 -1184 0
525 -2403 0
2628 -2546 0
-1482 1471 0
-705 -2346 0
535 795 0
-84 1479 0
-2112 1727 0
-2344 1611 0
1986 2496 0
966 -2658 0
1165 -1704 0
47 2107 0
448 1676 0
1613 1578 0
-2091 -2421 0
-941 137 0
-1929 1686 0
-175 -446 0
-489 -2103 0
1181 -1897 0
2080 817 0
861 -1502 0
563 74 0
-276 -1773 0
-707 619 0
1198 1676 0
-1697 957 0
-1190 -922 0
-2208 -1260 0
1687 -2079 0
-450 839 0
-381 657 0
-902 -164 0
-2752 2141 0
2002 -724 0
-1408 -2546 0
1410 1803 0
1581 1396 0
-203 -996 0
1570 53 0
-2143 -672 0
-2772 192 0
-642 -1991 0
314 -265 0
-1963 -1526 0
675 -540 0
-2757 1146 0
-1561 -251 0
-1701 -2084 0
1651 -2069 0
764 223 0
-28 -994 0
573 2579 0
-977 -1193 0
-1248 -1497 0
2710 1106 0
-106 -1198 0
1126 -1209 0
1996 885 0
-1003 2665 0
-2409 1153 0
979 399 0
-978 1818 0
600 -2170 0
1335 1234 0
-1922 -143 0
-704 -889 0
-867 -2239 0
1683 1891 0
979 -2080 0
-1493 -1204 0
-2517 2672 0
-82 -2205 0
-1017 2679 0
1822 -1141 0
-1604 2792 0
-1063 1255 0
-1701 468 0
1494 1308 0
2303 -391 0
-2220 2496 0
2526 2621 0
-504 -2448 0
-785 1624 0
-309 1643 0
-310 -177 0
1343 -93 0
-1425 872 0
1579 1230 0
-566 -411 0
-167 1408 0
-103 -439 0
1358 373 0
1670 763 0
1035 891 0
2488 -130 0
120 -1570 0
1917 200 0
2632 -1889 0
2209 -1459 0
-1112 -2753 0
-1181 -687 0
1234 -2233 0
1047 1520 0
-786 -1142 0
285 -1490 0
-928 191 0
567 2754 0
-380 791 0
-2279 1554 0
-2736 1849 0
-1067 -2612 0
1474 -1197 0
5 -941 0
-1949 926 0
-2170 2336 0
-450 2737 0
1903 -2405 0
2138 -2454 0
2335 434 0
-410 -2586 0
345 -1276 0
-2165 944 0
-500 1613 0
-175 -514 0
-1812 -2588 0
669 1697 0
1994 1845 0
-1181 1836 0
-1944 -1426 0
1519 122 0
-2378 264 0
2672 -433 0
2340 -704 0
2124 276 0
-1924 292 0
-2496 -1748 0
2714 671 0
-1492 1086 0
1653 1868 0
862 -10 0
2722 1476 0
-720 165 0
-1213 -1070 0
-338 -834 0
360 -1228 0
-2396 -1066 0
-495 -2484 0
1545 1179 0
1314 215 0
475 2718 0
1746 242 0
-41 73 0
-1979 -1056 0
1678 2357 0
2411 1366 0
1356 2451 0
-2093 1654 0
2754 -112 0
1057 1657 0
-384 162 0
2563 -548 0
-2639 -1518 0
31 1814 0
-2434 -2237 0
476 -1070 0
-1458 -1148 0
-1380 1177 0
1168 -227 0
2230 -848 0
-2499 1708 0
-2233 191 0
-416 1284 0
-1167 1919 0
1825 1383 0
2492 -2190 0
1324 -1945 0
-49 2444 0
-1816 -946 0
-394 -2200 0
-350 -1181 0
-652 -151 0
1089 -48 0
97 518 0
-2658 1647 0
-1416 2370 0
1422 699 0
527 2408 0
-1647 411 0
1476 230 0
1962 -2380 0
282 500 0
202 2377 0
2310 1969 0
2547 1725 0
2586 1808 0
288 -2196 0
-2591 -2791 0
2408 -1044 0
309 -1659 0
-2597 564 0
2090 69 0
-170 335 0
-597 -2733 0
2382 989 0
1660 655 0
714 -1114 0
-909 -1100 0
1609 -2179 0
1690 1148 0
-2202 610 0
-2709 -2561 0
1747 2061 0
-1579 1019 0
-2086 -1889 0
-1424 1868 0
-180 -2360 0
2078 -879 0
1992 78 0
-1930 931 0
1305 -2480 0
-1196 2656 0
-1451 -582 0
1364 530 0
120 438 0
2777 1966 0
-2276 2349 0
185 -1007 0
805 216 0
-502 -2523 0
2337 2482 0
2737 564 0
2462 -2285 0
-2286 -1492 0
-1714 -2120 0
-600 -2153 0
-1922 2773 0
-2008 -2194 0
2276 -956 0
-2747 -1721 0
-2180 2097 0
1797 -1502 0
2307 -2695 0
2558 -1950 0
1996 -463 0
728 -1953 0
2067 2278 0
-2038 712 0
1607 -2399 0
1733 2219 0
540 -2168 0
-1540 2645 0
-2296 1031 0
-34 431 0
-1593 -2384 0
485 -1732 0
-2750 1084 0
-2718 2757 0
2485 -1402 0
1082 -2427 0
836 -228 0
1787 2099 0
1247 1306 0
1469 178 0
2633 -702 0
-273 2138 0
-2346 -927 0
-2608 2046 0
1337 900 0
-735 217 0
545 2074 0
2123 922 0
1699 -1603 0
-283 -179 0
1282 -1918 0
-1351 -555 0
-2085 155 0
-151 1760 0
1428 1555 0
-2693 -440 0
-537 -1920 0
-1468 248 0
717 -1236 0
562 1089 0
809 1704 0
-626 -2113 0
-1707 -1533 0
-537 -1966 0
696 -1499 0
307 2295 0
-1111 -249 0
-2262 2425 0
941 2059 0
2434 332 0
-43 -1779 0
-2680 2773 0
2766 -2558 0
1337 -2315 0
-919 -2073 0
-2208 1107 0
839 2034 0
-2615 1785 0
2550 931 0
1589 -2416 0
-638 -1605 0
1846 -1764 0
-2616 653 0
-2277 1897 0
2005 201 0
-1135 1568 0
-2624 636 0
1329 -2540 0
777 -1670 0
-1273 -822 0
-337 -892 0
69 -1295 0
231 -1060 0
305 -2766 0
630 327 0
-1891 -1688 0
-1015 -1102 0
-1011 2520 0
354 1736 0
1778 -1053 0
1821 -2223 0
1831 1243 0
-2047 1684 0
1270 1694 0
-758 1298 0
104 -490 0
-2666 941 0
-1889 974 0
-1000 752 0
-1227 -1146 0
2365 -1672 0
-2721 291 0
-1978 1185 0
-1434 1190 0
-1730 1687 0
-1044 -2476 0
1335 -2283 0
-1350 -653 0
-1275 -2242 0
743 2042 0
-2194 -1927 0
2019 -2766 0
2411 -1603 0
-1527 -1953 0
-1580 -1902 0
424 996 0
1484 -1688 0
840 -885 0
775 1875 0
2652 1413 0
-970 -2297 0
-1082 -946 0
-1506 1442 0
1625 -954 0
932 2538 0
-1744 -1654 0
-2670 409 0
-1152 1819 0
-402 1568 0
1172 -636 0
-1482 -1834 0
228 1545 0
2199 204 0
1751 -591 0
-1754 -718 0
-1372 -296 0
2174 -1971 0
2073 -1244 0
1345 -2285 0
-530 -2298 0
2552 39 0
336 420 0
2653 -2070 0
-1829 1011 0
33 1617 0
1455 161 0
-1924 -1257 0
1721 -1808 0
526 20 0
2683 -278 0
-2153 452 0
238 -2474 0
-2513 -2371 0
804 -2178 0
-112 -2748 0
-1280 1571 0
-1199 1236 0
195 -1306 0
250 429 0
-375 -2394 0
2073 2772 0
-1901 2135 0
-2339 -2525 0
1985 888 0
-2568 553 0
868 -1152 0
-2563 2438 0
-1507 24 0
-1438 -2093 0
-2146 -1984 0
-1002 1218 0
-2096 -330 0
-82 -1530 0
-923 1126 0
-1701 123 0
1400 1055 0
1090 1486 0
97 2335 0
-216 -1968 0
1020 1624 0
-1917 -218 0
2010 1900 0
-303 1520 0
-2153 778 0
1472 -1146 0
-1435 -2067 0
-1574 -195 0
2306 -2427 0
2745 2409 0
-2086 -117 0
-1717 -2510 0
-26 -2417 0
-44 1851 0
-2658 -1969 0
199 1216 0
-330 2358 0
-132 -1434 0
-1823 -1988 0
-884 -1658 0
2412 -321 0
-815 -484 0
-734 2510 0
-1021 -1176 0
974 -1583 0
1206 1388 0
418 2017 0
-1164 901 0
22 -757 0
-218 2415 0
-1793 -261 0
2427 -597 0
994 1054 0
916 2285 0
328 987 0
-1122 1498 0
2295 1608 0
1415 -284 0
1489 -537 0
2610 2460 0
2150 663 0
-1023 -302 0
-1068 -249 0
1281 854 0
-1291 958 0
2613 1082 0
-1249 -2105 0
-1017 -838 0
1394 -2742 0
2660 -2522 0
1121 -1588 0
-1449 421 0
-606 -526 0
2106 -323 0
2449 -876 0
-1725 698 0
-2592 -1171 0
-320 1373 0
-2438 1654 0
1618 -923 0
-1982 1801 0
1864 -1521 0
-2442 -712 0
145 -503 0
693 -119 0
2746 -974 0
2398 -2 0
-1507 1520 0
126 2548 0
-1620 -2780 0
1891 -2255 0
-92 995 0
-1377 612 0
-1328 2323 0
1360 1028 0
-1203 -543 0
1262 -1861 0
-1895 1505 0
110 2101 0
-1125 -2334 0
1143 2300 0
-2192 973 0
2053 1375 0
-624 -2180 0
1651 -1056 0
2077 228 0
-1123 560 0
-2430 1728 0
-1391 817 0
2495 2623 0
158 603 0
-1007 -276 0
2610 514 0
2619 884 0
1282 -99 0
-355 -2144 0
-301 1634 0
-306 -2698 0
-1735 199 0
2241 -112 0
1668 -1536 0
-251 -585 0
-719 -541 0
2664 1877 0
2272 -1336 0
86 350 0
777 -2529 0
1761 -1474 0
471 1957 0
-1554 -81 0
-1125 -2226 0
-2670 197 0
1305 -240 0
718 -549 0
84 -2286 0
-2184 -2346 0
-609 2510 0
1541 1509 0
-2173 -172 0
2579 2106 0
2697 -2720 0
-2676 2407 0
1475 -1284 0
567 991 0
203 654 0
-2479 -1406 0
-172 2424 0
1559 -248 0
1548 -13 0
-272 2123 0
-574 -2599 0
2740 376 0
509 -1340 0
-1563 824 0
-2036 2530 0
-2491 -2107 0
-1632 -2588 0
-2519 -2728 0
-1114 -2686 0
861 -623 0
672 2029 0
1475 -2200 0
1502 2219 0
-1176 1726 0
2661 1538 0
143 44 0
-1101 471 0
569 1755 0
1942 -1282 0
2299 1231 0
2552 -1928 0
1218 1534 0
2307 1453 0
2284 -2111 0
-1664 -1351 0
1295 -2057 0
-2110 -2182 0
-2289 2305 0
-1214 -1985 0
-2458 -895 0
-2701 1840 0
-1027 2105 0
581 2443 0
817 -1104 0
2656 -1598 0
500 426 0
-1467 -1212 0
1750 1981 0
2064 -497 0
-527 2335 0
-1186 799 0
-779 2573 0
1338 2592 0
-2495 -1791 0
-2127 -821 0
2193 1525 0
-1473 -2754 0
291 1376 0
677 -496 0
2659 -1212 0
-267 -2082 0
-2016 -480 0
-1055 2417 0
2184 -1427 0
-1021 -2768 0
-208 -204 0
-59 1015 0
1958 2663 0
-1950 -1169 0
440 681 0
-1473 2747 0
-1277 -2559 0
-1174 -454 0
-310 1393 0
2403 675 0
656 -217 0
112 2502 0
-745 1350 0
-2731 1592 0
-1854 -1498 0
-1018 -1071 0
-664 -1889 0
1224 1164 0
-817 -119 0
765 -1557 0
-2305 622 0
69 130 0
1296 -1187 0
777 -1071 0
-1435 -1375 0
-1690 -2291 0
2218 1061 0
-350 823 0
-603 1899 0
143 1691 0
-2505 1305 0
-395 -1241 0
-2423 1036 0
1679 1839 0
2456 -1795 0
1941 -2229 0
967 -2600 0
-1589 904 0
818 1376 0
1469 -2087 0
-366 631 0
-582 2310 0
-1492 -1877 0
-87 864 0
-718 2124 0
-2318 -2031 0
-2791 -2626 0
-2140 -2322 0
-1874 -2227 0
-1840 2448 0
-1430 521 0
-152 -1100 0
-1093 -347 0
375 -1197 0
-1041 2306 0
2215 -2730 0
-1387 -2416 0
-2404 -365 0
-1524 1304 0
-1245 152 0
2257 1686 0
1958 161 0
-2790 1678 0
-878 -1150 0
-1333 -1259 0
354 -1286 0
1412 -1536 0
-1973 -1208 0
-683 -2368 0
-606 -496 0
1596 -2655 0
1400 312 0
2387 -1075 0
-2741 -628 0
-1312 -2172 0
-2747 -697 0
2549 -665 0
-1491 -504 0
-15 1221 0
-1022 -674 0
323 -1863 0
-1757 1503 0
1949 -2741 0
-989 -607 0
-1030 940 0
-1971 2541 0
885 -2468 0
214 1822 0
674 2157 0
1671 1398 0
-865 -537 0
-82 -2636 0
-825 -741 0
-2537 2232 0
-2459 -1501 0
2569 -2264 0
1708 2693 0
-923 421 0
1822 -704 0
2129 -735 0
-1372 -1022 0
1408 -1320 0
-19 -1291 0
-2321 -177 0
-2513 -434 0
923 -2332 0
-1789 1730 0
266 1648 0
-1577 -163 0
-1548 -1383 0
656 -2373 0
1195 2421 0
-871 -1606 0
977 -2009 0
1140 -850 0
-438 -1769 0
-2400 -749 0
30 -560 0
-951 -2131 0
2575 -192 0
-345 1947 0
178 -1641 0
1067 -1100 0
-2742 2600 0
-966 321 0
1173 952 0
79 1854 0
-767 -1695 0
-1981 505 0
2136 -2683 0
-423 -760 0
361 1190 0
-2188 2488 0
-1870 -1135 0
2088 -2436 0
2203 2011 0
1256 -2155 0
-2050 2223 0
-2305 -1213 0
-1258 1055 0
-73 783 0
2736 981 0
-1533 -1884 0
1077 -378 0
-2523 -1953 0
-961 593 0
293 -713 0
2392 1690 0
458 -43 0
-957 -385 0
1035 -467 0
-2745 2722 0
2074 1549 0
-78 -49 0
-455 2429 0
-552 2202 0
-426 2306 0
-2246 -1987 0
-507 128 0
1714 1102 0
1678 -863 0
-2224 1567 0
-906 -1173 0
1902 -2795 0
2179 105 0
1652 1063 0
521 -719 0
-1862 -2458 0
-384 -1779 0
1822 600 0
343 260 0
-1346 2164 0
1396 -594 0
-378 455 0
1419 -2684 0
2199 457 0
1972 2790 0
-1359 -630 0
847 -1438 0
-135 -2700 0
-596 852 0
-1025 507 0
-1814 354 0
654 1424 0
-613 -1731 0
-1354 -982 0
753 1654 0
469 1331 0
1981 1288 0
2597 -61 0
-2110 2083 0
1558 2310 0
1681 -879 0
-874 -459 0
-1240 1691 0
-2747 1774 0
-806 -1 0
-1765 1011 0
1603 242 0
2558 -1789 0
2149 -567 0
842 -2230 0
2259 -2360 0
-734 2584 0
