c NF
p cnf 4387 8774
-3099 -3399 0
-2062 2878 0
2289 603 0
1955 733 0
-453 4381 0
-4301 1772 0
-2599 3881 0
-2401 -1734 0
4165 -4229 0
2276 2850 0
3346 3541 0
-3560 -9 0
-2588 2163 0
4294 -115 0
-4188 3465 0
-659 2891 0
555 -3186 0
3783 -441 0
-97 26 0
2627 1363 0
-713 -2129 0
-4233 -1298 0
3322 -2946 0
997 2963 0
-3633 3330 0
-3232 -1851 0
-1242 -4293 0
-1192 2531 0
-36 4180 0
-488 -117 0
-1586 -3872 0
-2827 -971 0
-3527 -3151 0
3107 3445 0
-3284 -686 0
616 -1920 0
555 -1742 0
-2500 -1369 0
537 -2908 0
1588 -3045 0
-559 2545 0
-1360 1805 0
-2438 -2418 0
2315 563 0
409 1011 0
2045 -2597 0
2370 1733 0
4160 -1385 0
625 2292 0
-3006 3071 0
-3730 -3806 0
1654 -215 0
-406 3570 0
502 -3119 0
-127 -2792 0
2351 -4242 0
-790 1339 0
-2980 -1980 0
912 -2061 0
-4057 -556 0
4172 -1918 0
2304 2697 0
-153 -3738 0
3660 -4152 0
3997 -392 0
718 -1736 0
-1247 2952 0
397 3129 0
2591 3404 0
4098 -100 0
4082 -1800 0
2168 -3890 0
-2712 -4154 0
3562 1087 0
-1238 -1126 0
4049 2635 0
-1758 652 0
2227 -3684 0
-4198 -3695 0
-1284 -4356 0
-2462 -2509 0
-1234 3678 0
1043 -727 0
-2029 -4178 0
3550 2650 0
-512 -46 0
-2376 -861 0
-1994 3319 0
-2367 1840 0
246 -3039 0
-2809 569 0
613 -1320 0
-3337 -1451 0
-708 3314 0
2075 -2514 0
1829 -1211 0
1015 -4154 0
3049 1217 0
-3682 69 0
-2722 -560 0
-714 -826 0
-1257 -1580 0
2610 1716 0
3034 -2573 0
1561 -2163 0
1226 -2657 0
3045 3085 0
2774 1983 0
1156 4371 0
-2800 -2318 0
2419 -2168 0
3844 737 0
2342 -1984 0
2468 -1136 0
654 -3419 0
-1345 3958 0
4254 3979 0
-2509 -1058 0
138 1218 0
-1512 -3318 0
-2639 -1724 0
1007 2933 0
-4381 -2444 0
-2947 -2899 0
-1752 1679 0
-1480 1297 0
2890 -1442 0
3014 334 0
440 2925 0
-3619 -3605 0
-1924 2537 0
2092 -2111 0
-2414 3567 0
436 -320 0
-1680 915 0
2088 2850 0
1211 -1373 0
2833 -2432 0
1371 4170 0
1393 -533 0
-420 1341 0
582 -4294 0
2434 3420 0
-2073 -2600 0
-2965 -1863 0
2692 -1777 0
-3790 -1628 0
3920 371 0
1439 3781 0
-3448 -3619 0
2468 -2248 0
-1779 -2339 0
-1885 41 0
-2772 -4126 0
1381 -3421 0
3210 2926 0
1171 -727 0
2726 541 0
2816 -700 0
3156 1729 0
-3861 -2245 0
-4015 3526 0
640 -1782 0
-658 1866 0
3229 -1020 0
-503 -2916 0
-3370 -1290 0
-1059 -2254 0
-4264 -4128 0
-2972 -4086 0
4150 3126 0
-534 2741 0
1836 -4287 0
4337 -2338 0
2763 1087 0
366 -1063 0
-1566 -2945 0
-2989 -3384 0
-2708 -1648 0
2950 2663 0
-2488 -1584 0
2603 1307 0
2237 -3369 0
546 -1853 0
3706 255 0
880 1697 0
3301 -452 0
-2976 1780 0
4004 -3341 0
3040 2530 0
-2428 359 0
-1964 2199 0
-3457 216 0
203 4239 0
-634 -3054 0
-2015 1853 0
-3231 3203 0
-1945 1966 0
-159 -2639 0
-677 2337 0
2503 -3315 0
1670 2512 0
-2910 -1103 0
2411 4093 0
864 3066 0
-3532 -1825 0
-3472 -3026 0
3574 -3725 0
-1952 1098 0
-1731 -3686 0
-692 -3280 0
3550 1177 0
-1941 -3977 0
202 917 0
707 -2077 0
88 -1650 0
3618 2746 0
2776 -1579 0
1410 3204 0
1027 2920 0
2493 -228 0
319 2 0
-1968 -3350 0
-1721 -37 0
-288 2284 0
185 -2409 0
749 -254 0
219 4354 0
321 3814 0
-3726 -3277 0
470 3419 0
-346 -342 0
-4282 2526 0
3911 -3713 0
-4232 -2495 0
-2618 263 0
-2346 612 0
2945 2110 0
2523 193 0
-1976 -2769 0
-1913 -2795 0
1425 -1777 0
-2393 3755 0
-831 2367 0
2383 1361 0
-4292 -3406 0
-3026 3306 0
3468 -3106 0
-1972 2879 0
767 -1304 0
-3159 304 0
-122 3848 0
-3879 -4360 0
3997 3296 0
-1736 2025 0
2182 3517 0
-3411 3149 0
-4245 1638 0
3188 -484 0
-2444 -51 0
-3412 1594 0
-3405 4006 0
-1238 3362 0
1851 -2431 0
3979 3991 0
1475 3078 0
1480 -2367 0
-1238 4198 0
-1586 1683 0
3284 -393 0
2561 -1442 0
3074 1151 0
1608 1900 0
-1600 -4193 0
3802 -3538 0
19 -1928 0
2899 922 0
1054 1126 0
-2503 -1656 0
-906 -4231 0
-1928 2492 0
-3457 1225 0
-1654 1071 0
3965 -3242 0
-3748 -876 0
3347 -1772 0
-1009 -2452 0
-3461 -152 0
1437 831 0
-2309 -483 0
-4318 -1676 0
-3889 1591 0
3037 -829 0
979 -1816 0
-2503 1188 0
3720 -3917 0
-2633 2463 0
1596 -2773 0
-3719 -3139 0
-1898 -963 0
1052 -1432 0
4040 2747 0
-2316 3562 0
3785 -65 0
3785 3337 0
1597 3222 0
-218 -2289 0
3772 1827 0
2310 -1282 0
1440 -486 0
2010 -2216 0
2611 -2478 0
-2168 1784 0
3120 -3712 0
3204 4233 0
-4039 4225 0
-232 -170 0
2005 -350 0
1255 -464 0
-3117 1580 0
2179 -4065 0
1812 -339 0
1405 965 0
-2956 3400 0
-796 -2754 0
170 -3687 0
324 -1566 0
1454 -767 0
-2998 -4224 0
-2395 -1754 0
-3506 2963 0
-2722 -2934 0
582 -3460 0
898 1822 0
-859 -406 0
-2699 1302 0
3419 -1988 0
1215 2955 0
3046 -1832 0
1604 -599 0
-1897 -2522 0
-696 -2978 0
-1411 3761 0
95 -4140 0
2785 -778 0
-2901 2295 0
3651 -3421 0
315 -3641 0
-2169 1505 0
-4344 -16 0
1074 -2964 0
-4367 870 0
-2196 -2761 0
-1028 -796 0
2197 661 0
303 -4103 0
194 1592 0
464 -1608 0
2463 2971 0
1662 3020 0
4377 -1119 0
-34 -3785 0
-700 3866 0
1379 4135 0
-2860 -2277 0
-3873 4059 0
-3095 -2423 0
1235 -2228 0
2715 -2597 0
-267 -3614 0
-3184 -2529 0
3552 2354 0
-3050 -3428 0
-1113 -1855 0
-2289 1094 0
2679 -3027 0
-2012 3734 0
-2775 3245 0
-1332 -3216 0
2955 2730 0
2007 -602 0
3743 2459 0
-4325 -1709 0
-1790 2918 0
-1915 -4229 0
-1666 -1967 0
-2204 2741 0
3943 -4362 0
-1635 -1344 0
2435 -1747 0
990 4116 0
-516 1500 0
4030 -2546 0
-1968 1909 0
2653 -2588 0
-3708 3816 0
389 -398 0
1806 -3804 0
954 -3115 0
290 -3081 0
4037 -3488 0
132 1525 0
2419 2124 0
259 3113 0
-1421 3286 0
65 -1160 0
-51 753 0
968 -648 0
-3777 -2212 0
-3930 -1914 0
-2917 3805 0
-1106 -375 0
1360 3311 0
2629 4065 0
-3522 -2246 0
-3102 3890 0
2440 1304 0
1175 448 0
1096 -993 0
1968 -390 0
1431 1631 0
-4266 1463 0
3012 2819 0
2330 879 0
789 -1020 0
3542 3775 0
-23 2804 0
2771 -3905 0
-2286 311 0
1673 2591 0
-1325 -1763 0
-3914 4209 0
2517 1014 0
1096 652 0
-3628 -3399 0
2336 1162 0
-1020 -705 0
-2588 3870 0
-1769 -274 0
58 3831 0
-940 -2437 0
-1796 -1970 0
2639 -4102 0
-2248 4096 0
-2914 4360 0
-1775 3509 0
3738 1326 0
1138 -2170 0
2156 800 0
471 -3221 0
2971 -2031 0
-3748 4238 0
493 -1999 0
562 -994 0
-4226 2543 0
-1073 3675 0
-218 3737 0
-399 981 0
3186 4144 0
88 1408 0
-1872 -2765 0
2792 -4320 0
4093 -1562 0
2183 -660 0
43 3203 0
-2678 2933 0
2440 944 0
-4194 3556 0
1697 1168 0
836 371 0
-3477 -1941 0
1130 -4183 0
-2477 -3829 0
-313 4143 0
-2397 -906 0
-1274 532 0
-1655 1017 0
2831 2040 0
-2025 -1182 0
1144 620 0
-2662 4018 0
2615 -2570 0
-669 3996 0
403 -750 0
2241 2730 0
-1796 3280 0
-1681 -1001 0
-780 -1944 0
-241 -484 0
-546 3947 0
2683 3558 0
1479 759 0
4190 -3511 0
4315 128 0
-420 -2272 0
-697 1790 0
1676 -413 0
3403 -3849 0
-2372 1422 0
-3052 -2589 0
-2453 -1292 0
3738 -2231 0
-1979 2601 0
353 3824 0
-1432 -853 0
-1678 -2955 0
-4 -737 0
1080 3630 0
-24 3481 0
2692 3629 0
-615 108 0
-303 -2419 0
-4302 -627 0
3837 -3932 0
3163 -3528 0
-702 2835 0
-3260 -2202 0
2949 -1236 0
-1998 2921 0
-1100 3152 0
1118 -945 0
1597 1555 0
2634 -1145 0
-2760 -3427 0
-2769 -2638 0
-4112 -247 0
1429 -1088 0
2692 2857 0
-3250 1581 0
-816 1036 0
1202 -2190 0
-3988 -496 0
-1345 1702 0
-757 2617 0
954 -2991 0
3455 1571 0
-1204 2091 0
-1642 -3977 0
-2346 132 0
2199 -3228 0
2729 -135 0
-3889 -2991 0
117 2612 0
-2400 2960 0
1730 4150 0
1837 1448 0
-2569 -2954 0
-2429 -2932 0
96 -2276 0
3452 3693 0
-1646 -1763 0
-2241 1553 0
-4329 -3966 0
-2885 -3682 0
945 2153 0
3004 -844 0
-3405 3652 0
-1196 -2979 0
-2180 4080 0
-748 -1636 0
-3645 3610 0
-3217 -1807 0
-235 586 0
-362 -3186 0
-1243 -2672 0
1109 1992 0
-4263 -1188 0
-1228 581 0
3676 -3616 0
2421 497 0
-3941 -1442 0
2625 -1793 0
-830 -1567 0
3529 2965 0
2440 -3072 0
-3541 1984 0
-2476 -3928 0
-2458 -1229 0
-1375 -2632 0
-2055 109 0
-4060 1877 0
-3350 -487 0
2969 -2413 0
-3606 58 0
4190 -497 0
3557 -1066 0
-2887 1418 0
-1070 3163 0
1672 -232 0
-432 -983 0
829 -3798 0
3347 -2537 0
3943 -746 0
-1005 630 0
-335 -797 0
-3050 756 0
-3597 -3033 0
133 290 0
3770 63 0
-2812 -2110 0
-2938 -931 0
-3879 -3754 0
3166 1464 0
-2534 -860 0
-4356 -1242 0
1321 -3753 0
-3234 762 0
2016 -1234 0
-281 -390 0
3801 3429 0
3558 -4210 0
-3494 743 0
1592 2280 0
-3473 -810 0
324 2955 0
-1091 2362 0
-143 3541 0
-2606 -1334 0
-22 1054 0
-3012 -2760 0
-3141 714 0
-3991 3577 0
-3496 1588 0
-563 1704 0
-2813 1628 0
-2832 -2919 0
-4120 -4089 0
-2196 -1087 0
-1238 2326 0
-3304 -3614 0
-3512 2013 0
-2832 -2508 0
-862 -2332 0
-1877 4030 0
507 -1167 0
3244 -1081 0
3457 -3264 0
1702 2192 0
1891 3 0
-1373 -2389 0
2838 3718 0
-2033 -1999 0
-2228 2222 0
3340 2283 0
3486 -4189 0
-1006 895 0
3731 2538 0
-2851 3131 0
3783 3659 0
1724 -469 0
4274 4150 0
-2955 3621 0
-4121 -417 0
1138 1471 0
-3556 -3758 0
-3655 -2057 0
2447 -1678 0
1711 -4110 0
238 -3020 0
1393 744 0
-2419 -2648 0
-3194 -2231 0
447 -3402 0
-992 673 0
-3962 586 0
-2498 4040 0
322 378 0
-2566 4040 0
1029 -3082 0
3471 3411 0
-69 -1416 0
3391 -2892 0
-4234 1745 0
-702 -2527 0
-150 -1521 0
2969 -823 0
-2639 -1573 0
-4272 -2629 0
-3667 1446 0
-946 3577 0
2468 976 0
-243 -2267 0
-1521 454 0
1479 1695 0
1172 -430 0
3382 2075 0
1443 -203 0
-381 4025 0
-2698 4120 0
-778 -1893 0
2960 -3515 0
-3798 308 0
-3316 340 0
704 -2184 0
-3578 -1681 0
-1135 2685 0
-2676 -4362 0
2980 -1740 0
3237 384 0
742 3741 0
-3215 -1293 0
-1126 678 0
-968 4145 0
-2384 -2068 0
-2012 -85 0
4076 4070 0
-2929 2358 0
-1413 3445 0
-3130 -3694 0
-3099 -1128 0
-3879 -192 0
-1840 -930 0
-2021 317 0
1718 -1725 0
-2318 -942 0
747 -607 0
-3794 1487 0
2999 1761 0
2175 -776 0
3618 -338 0
-13 756 0
-3825 3547 0
3720 -2862 0
3140 -154 0
-1353 -2382 0
4144 -1404 0
-3112 1621 0
-2602 -2775 0
-2723 4113 0
-3755 -1910 0
-542 3064 0
-2056 -3084 0
647 1538 0
-2103 -4249 0
4237 3548 0
2648 -3283 0
-2481 1152 0
-2801 1519 0
-1568 2869 0
3200 2762 0
258 3850 0
-2273 -4180 0
2641 1342 0
-198 -3880 0
-584 3305 0
2712 -344 0
2920 2517 0
-1119 2415 0
1577 2135 0
3958 -4080 0
1694 -3219 0
162 -671 0
1409 -2515 0
243 -1744 0
2430 614 0
2745 -536 0
348 -784 0
644 1100 0
-660 -940 0
-2735 -3442 0
-511 -396 0
-2885 2701 0
2836 -2157 0
2283 -925 0
-633 509 0
3480 -1762 0
3669 -3324 0
-4053 2129 0
-1630 -4346 0
-1147 -874 0
3559 -1158 0
1728 -2386 0
3030 -1063 0
2343 -1445 0
2167 1034 0
3671 862 0
-3396 428 0
1846 3565 0
3589 743 0
932 -2576 0
2067 -2593 0
1036 -343 0
2850 -762 0
-2201 2887 0
-1648 -2740 0
-3798 2802 0
-3158 3774 0
-3797 -2876 0
1170 2350 0
1595 -587 0
2286 -99 0
-671 3295 0
-3738 -512 0
4005 -1186 0
-3753 -879 0
-2608 4096 0
-1071 2690 0
4350 2881 0
3947 -3475 0
1199 -2883 0
1902 -2296 0
-1003 -1533 0
2267 1851 0
-739 -1380 0
381 -2993 0
-713 -3966 0
168 1879 0
1865 2598 0
3276 -2335 0
-2025 3563 0
2117 2849 0
-2315 -4232 0
511 3799 0
-1748 -1775 0
4380 2536 0
1008 -1099 0
3611 3971 0
-3609 -3315 0
-619 -1127 0
-2399 2874 0
-3939 3166 0
-397 -1053 0
-727 3490 0
-166 -358 0
2351 -3765 0
-1815 2334 0
-850 -3819 0
2890 -291 0
4366 3229 0
-2500 1102 0
3223 4354 0
-3002 4027 0
-1914 2282 0
1868 -2084 0
-1423 -267 0
3964 -3267 0
-3143 1676 0
-1728 -175 0
-1753 1308 0
684 -3315 0
-2375 -3983 0
1182 2523 0
733 -2308 0
-2768 -1599 0
869 -700 0
2205 2734 0
-1405 2300 0
-1624 -2798 0
-3893 1867 0
-98 1833 0
565 -2467 0
-1544 -1591 0
4005 2512 0
1047 4089 0
-3075 -2252 0
-1163 4244 0
-2445 2298 0
1768 -1898 0
-2633 4380 0
4116 1253 0
-1596 981 0
3659 -2052 0
1506 -2648 0
-583 -326 0
-1416 -3071 0
-953 -2508 0
-3119 133 0
4290 -1724 0
-4023 -1396 0
-2410 1212 0
2881 -2261 0
3483 -2597 0
3047 1675 0
-3966 3630 0
-2714 -3432 0
-1693 -724 0
-3782 3119 0
2323 -2947 0
-1781 -3655 0
-2737 4369 0
4114 -2864 0
1857 -1609 0
2169 3985 0
3869 3993 0
-1826 2390 0
-2776 -4131 0
3765 -2070 0
-2165 532 0
2611 -2171 0
4021 -289 0
-1174 -1911 0
-2682 260 0
2779 -2048 0
-92 2397 0
-2247 -2789 0
3736 -1180 0
-2577 -3848 0
-492 -3805 0
-3678 2997 0
1076 -3109 0
-2402 -4297 0
-2304 -3755 0
1378 231 0
-1980 446 0
-1793 -2772 0
-3206 2982 0
2023 1159 0
-1749 -2504 0
2956 3881 0
88 594 0
497 -1881 0
-1853 -2318 0
-3455 -1969 0
-25 -4056 0
-715 -1651 0
-2184 -3659 0
275 3612 0
-421 1682 0
-1899 -107 0
1886 -3013 0
2656 -2524 0
-2243 1691 0
-2944 470 0
2920 96 0
2617 -83 0
-2961 -3386 0
-267 -1049 0
218 3638 0
3060 -1645 0
-564 -3266 0
565 -495 0
-3211 679 0
-3270 -2925 0
-1941 -1581 0
4332 -3544 0
2858 -2041 0
3067 1373 0
2945 -2048 0
2106 948 0
652 609 0
-89 -2826 0
2207 1614 0
3999 -2709 0
329 3140 0
927 -3111 0
-2463 884 0
35 -2857 0
-1857 -1678 0
2963 -2183 0
-1034 -333 0
-408 -4330 0
-882 723 0
-984 2590 0
1538 -1452 0
1443 -38 0
2935 -439 0
3777 3312 0
3536 -370 0
3 329 0
-3902 2406 0
1987 799 0
367 -4085 0
-847 -3181 0
-3153 621 0
-3274 4306 0
1869 -377 0
-346 1478 0
2378 -3968 0
3511 1205 0
2881 1628 0
-2115 -2230 0
-1792 267 0
956 -3110 0
1515 -3164 0
493 3160 0
-3721 2549 0
-711 -2840 0
4385 -2500 0
877 1277 0
3166 -2860 0
-2880 3766 0
-809 1652 0
47 -1631 0
3492 3899 0
-1985 -1562 0
-1028 -2586 0
-3500 2804 0
-3551 4373 0
-2723 1722 0
-916 -1946 0
-3644 -1977 0
2077 3082 0
-4269 2817 0
-2266 -864 0
472 -2096 0
-2115 -2382 0
515 -354 0
-4182 -2534 0
2995 -3197 0
-71 570 0
-3143 1527 0
1027 -760 0
2899 868 0
-606 2634 0
3529 3618 0
-1139 -750 0
-2900 2220 0
-237 1981 0
2613 2415 0
2362 -3906 0
2426 1856 0
1313 2125 0
1789 124 0
-2012 -54 0
3569 -1107 0
-3371 385 0
3229 -2931 0
-1815 1809 0
1135 -1941 0
-926 -2103 0
3389 -301 0
2037 -3307 0
1689 -3876 0
1120 2629 0
2566 -3576 0
-2583 3085 0
1003 -4323 0
-3568 -2112 0
2240 -1966 0
1676 -3176 0
3419 307 0
-1697 -796 0
2373 -1875 0
3400 3093 0
-1365 4312 0
-4092 3637 0
1513 2870 0
-2716 -842 0
-3763 -942 0
3069 2911 0
-2567 4075 0
-560 2364 0
3086 1625 0
-627 -3448 0
2582 3767 0
-963 -2644 0
-3079 1783 0
-4307 -1091 0
2519 1568 0
-2753 4179 0
-2581 -1059 0
-3642 1177 0
1879 -1162 0
2841 -850 0
-3910 -119 0
-1250 1081 0
2778 -1646 0
-2276 -1499 0
3883 -1425 0
-2620 -767 0
-1535 2619 0
-73 -2797 0
2762 1215 0
-280 -2132 0
-3251 -2636 0
-1245 3492 0
867 -1197 0
4075 3078 0
2746 3299 0
-659 2285 0
-1338 2250 0
1193 -26 0
-886 2950 0
-1500 1138 0
4083 1355 0
1039 19 0
3780 -111 0
-824 3540 0
-496 4018 0
-1729 367 0
325 3058 0
508 -1576 0
-222 4254 0
-2864 -3588 0
-1290 -1140 0
-2557 -718 0
565 3130 0
-2880 2530 0
-4380 3983 0
1489 3272 0
-3857 -1204 0
1077 3533 0
1485 4056 0
348 -3307 0
-2710 -1128 0
-260 359 0
440 -972 0
736 -3914 0
-635 4190 0
2775 933 0
-998 2434 0
-30 25 0
3261 -3099 0
476 2982 0
173 209 0
3805 -1421 0
-2818 -3874 0
4225 -3932 0
-1592 3049 0
2285 857 0
-4283 286 0
-381 -2523 0
2013 -1583 0
1689 1805 0
4208 2191 0
1687 -3571 0
-991 1559 0
-1473 801 0
-3725 -2072 0
1258 1891 0
1684 2138 0
3360 1199 0
3879 3531 0
-3924 -4170 0
-207 -822 0
-2133 181 0
1880 -1592 0
33 2244 0
-3686 -2146 0
-1132 -772 0
1722 706 0
3564 -888 0
-3598 4129 0
-745 -3759 0
-4274 -1136 0
-814 452 0
-3819 -3452 0
3434 -3014 0
3220 2882 0
2824 -4075 0
-2682 -3734 0
4159 624 0
-3581 3032 0
4355 2982 0
-4176 2611 0
67 1229 0
-2132 792 0
-4301 -2992 0
1288 -1539 0
-1162 -1535 0
2287 -2782 0
3254 -1856 0
-3716 3652 0
-3449 707 0
2245 -16 0
-932 3572 0
1022 -408 0
1817 2482 0
1095 4364 0
700 1606 0
-2680 -2458 0
-2849 3994 0
2420 -2756 0
65 -1851 0
-1168 -2060 0
2 3699 0
2717 -596 0
-1721 -815 0
-118 -3661 0
-3310 3168 0
-1796 -4210 0
1096 573 0
-3411 -1665 0
-4037 -2672 0
-1178 -1932 0
2448 1654 0
3015 1047 0
-837 871 0
-4377 -2709 0
2056 3077 0
3798 -525 0
-425 617 0
1258 1768 0
-3820 352 0
164 3438 0
110 -159 0
-2886 1680 0
896 4364 0
-4377 -317 0
-2213 1178 0
3589 708 0
2011 1722 0
718 1946 0
-654 -4311 0
3540 442 0
2840 2721 0
2181 3612 0
873 -776 0
-146 -1634 0
-1542 -499 0
4048 -2529 0
698 -3115 0
439 1504 0
-3429 2745 0
-16 4342 0
1247 -3567 0
1285 1665 0
-3708 -1650 0
49 957 0
4122 -3285 0
2518 2360 0
-2927 -3292 0
-3237 -1357 0
-368 -1970 0
-3169 -2998 0
3678 -1590 0
2532 -16 0
1505 -1735 0
1911 3672 0
-2753 -2299 0
1654 138 0
1732 -2168 0
-3752 1487 0
-2381 1843 0
-527 1524 0
-2708 1016 0
-1395 -2856 0
-2118 -2801 0
4121 349 0
3429 -2590 0
4142 228 0
295 -4034 0
4200 4136 0
654 2239 0
-1876 -218 0
-180 1837 0
2985 1790 0
558 3138 0
-3683 3733 0
-776 538 0
-93 4196 0
2203 -147 0
-1219 -2303 0
3491 -1505 0
-3645 -36 0
523 4087 0
640 3781 0
-2922 -1964 0
-544 2240 0
-2114 229 0
349 -4351 0
1043 -148 0
-313 566 0
-116 3009 0
1300 -3572 0
221 1028 0
4074 -3011 0
-1770 -223 0
-3569 1630 0
3300 -2875 0
219 154 0
4078 -1269 0
-4356 2406 0
-404 329 0
-3776 350 0
-1635 2632 0
-2808 2717 0
4248 3932 0
-59 3843 0
-4156 -2085 0
3721 1817 0
2825 3712 0
-2750 -3282 0
-2148 -976 0
4033 840 0
-1650 -3519 0
-2407 -3146 0
536 -141 0
-2210 -677 0
290 -4277 0
-327 4342 0
-645 -3070 0
3311 -3092 0
2032 1615 0
-536 733 0
-4010 -1320 0
982 -366 0
94 1321 0
-1290 -3811 0
4018 -2396 0
-3039 2127 0
-689 867 0
-2066 -284 0
-702 2902 0
-3517 -2884 0
-3307 -2758 0
4012 723 0
-2408 3391 0
1825 524 0
-3905 -401 0
-4198 -4188 0
825 -3130 0
-914 -497 0
3620 4160 0
-3394 -4196 0
-875 2025 0
3418 2782 0
-3381 2590 0
3552 -2848 0
-1236 -1231 0
3047 -3496 0
795 3509 0
761 2063 0
-2126 -315 0
-680 1464 0
-4088 -4101 0
-3922 -1252 0
2387 3606 0
358 4004 0
-735 446 0
2819 1133 0
1481 -701 0
-2059 -2102 0
-1651 3546 0
240 2235 0
3286 3177 0
-264 2858 0
1017 -2875 0
-1628 -154 0
-3170 908 0
3112 2551 0
4211 1482 0
-231 2408 0
3405 -3492 0
2543 359 0
3549 -1171 0
-2818 -1456 0
2421 1619 0
3032 2441 0
2719 -313 0
2903 -2329 0
-2375 1859 0
3176 2163 0
2176 2513 0
-2188 -305 0
332 -3218 0
1190 2287 0
-1170 -467 0
-1373 169 0
-4089 3573 0
-2864 746 0
2997 2499 0
-2954 -3045 0
-1166 -3160 0
-3155 1779 0
726 -1313 0
2431 94 0
3630 -628 0
1019 -3142 0
-1441 4015 0
2971 2173 0
-1139 629 0
3640 2698 0
3928 3704 0
-1903 -2380 0
3578 -3663 0
-4254 3298 0
2623 3377 0
2710 263 0
722 34 0
2911 2094 0
-356 1453 0
-3180 3206 0
2053 -680 0
-1511 -1917 0
-3065 -1120 0
2215 221 0
2904 -4337 0
600 -4042 0
-3503 -910 0
-1633 1998 0
-283 2149 0
2513 -1791 0
169 -1151 0
1971 -366 0
-3110 3909 0
-738 -1272 0
1326 3390 0
-185 1064 0
2050 -3511 0
3798 -211 0
3814 2223 0
-2795 2287 0
-3942 -3433 0
-1238 3265 0
1162 -3494 0
3002 -1646 0
-1001 1135 0
1300 2741 0
2533 -2917 0
1992 2859 0
3137 2982 0
2401 288 0
3236 805 0
1494 3941 0
-1407 3625 0
2946 -3350 0
-3458 -1271 0
1285 -1179 0
-562 -3161 0
1179 -3184 0
3506 -790 0
1448 -3746 0
614 4130 0
-510 2692 0
-2258 -92 0
2973 -1071 0
-313 911 0
-2865 -326 0
1922 1243 0
974 -3658 0
-3079 89 0
-4031 -727 0
-982 361 0
1852 -1540 0
3536 474 0
-3571 -3628 0
-1897 4234 0
-2581 -46 0
-1791 -885 0
1823 -2923 0
908 -2553 0
2139 -4177 0
846 -3083 0
3169 3198 0
3281 -137 0
-2329 -2824 0
183 -1422 0
-1992 1524 0
-868 -2143 0
2847 -596 0
1104 -1749 0
-3242 4017 0
2780 2925 0
3676 3337 0
2548 4225 0
887 -1483 0
-2700 -4086 0
-677 1919 0
892 -2143 0
-3741 -1139 0
-4158 -3160 0
-3680 3840 0
-1333 -815 0
1892 -766 0
2074 1868 0
596 -4324 0
3098 -516 0
1372 3688 0
1536 -924 0
3799 -2336 0
1715 3319 0
-4079 -3706 0
-2267 -375 0
1078 -525 0
2162 3107 0
-2407 -2282 0
1017 1938 0
-1769 -896 0
2259 -1978 0
1680 4085 0
3700 2825 0
-1787 4284 0
3731 3649 0
-1603 360 0
-1527 -830 0
-117 2094 0
-2310 654 0
1404 -3499 0
1443 -326 0
1544 1008 0
2018 1369 0
1525 -2132 0
-1759 -1956 0
1815 -2574 0
-823 -3893 0
-2664 2428 0
-1315 3651 0
1542 1755 0
-3488 -327 0
1675 -3132 0
-577 2837 0
2084 -725 0
-915 -1032 0
-101 3361 0
2997 -1725 0
-861 -1380 0
-4066 1672 0
2743 2952 0
-77 4202 0
-3102 -235 0
-462 4216 0
-1328 3926 0
-2122 526 0
-4072 -4166 0
-2112 2943 0
1470 -1932 0
-517 2282 0
2510 -1648 0
-3687 -410 0
-1513 801 0
-2698 4087 0
-539 3349 0
-2335 -4223 0
-730 1312 0
-1480 -3633 0
-4371 -4384 0
461 923 0
-1620 -2714 0
191 -64 0
-1821 -1918 0
3493 -1269 0
1702 -3989 0
1315 1786 0
4242 2283 0
2150 -1665 0
685 -863 0
4033 -4182 0
359 -4335 0
-631 1178 0
1372 -53 0
-334 -4287 0
3619 -1832 0
-3343 -453 0
322 2521 0
-561 -1452 0
1842 3391 0
-837 -1705 0
7 -2723 0
-2067 3081 0
-765 442 0
-369 -3076 0
-381 39 0
-251 2482 0
-3640 2634 0
-2707 -3600 0
-2564 1214 0
1917 -3031 0
3822 -2100 0
1803 -3333 0
2441 -4137 0
2247 -3371 0
1717 1527 0
-2422 -2726 0
-1631 -2697 0
-3892 -4228 0
-3250 2492 0
-2483 3971 0
3085 -3487 0
-2966 -1615 0
-2738 -3805 0
-437 3523 0
2049 885 0
3366 -2714 0
1895 -3690 0
-2961 -991 0
4085 -2707 0
3700 1578 0
-2718 -898 0
3374 -4334 0
2787 2950 0
1315 -1774 0
-876 2798 0
318 138 0
3658 908 0
3823 4127 0
-4301 706 0
63 -1502 0
2551 -2308 0
-1854 1619 0
-401 -3728 0
-342 -445 0
943 1804 0
-4381 3114 0
-2764 -3560 0
2492 4249 0
2569 2730 0
-2231 801 0
-3249 2985 0
1165 -2316 0
3257 2000 0
-680 -2122 0
938 -2209 0
-3520 -2063 0
1817 -2137 0
-2855 4057 0
-2620 899 0
864 -234 0
-1471 2785 0
2213 4331 0
3902 733 0
-3384 2782 0
-1965 -134 0
2078 1317 0
1981 2693 0
2139 -3193 0
-2331 -2331 0
-1651 -1626 0
2951 -4138 0
-1162 2660 0
897 1072 0
-1916 1963 0
-1360 -894 0
2667 1268 0
-3975 -645 0
1 4332 0
2915 2725 0
876 -533 0
-2264 -1032 0
2918 -1263 0
-983 -2593 0
795 -4154 0
-879 3788 0
-2313 1615 0
1685 -149 0
-4085 222 0
1267 1939 0
-4060 3371 0
-2781 -242 0
-3236 1379 0
-1636 -3791 0
-548 3951 0
1362 864 0
-1 1664 0
2907 -2558 0
-1635 -1041 0
-527 12 0
74 1400 0
4185 -596 0
-1597 3273 0
-1240 3384 0
304 -1186 0
3032 3887 0
901 161 0
2676 1370 0
835 3281 0
-458 1841 0
-2752 2378 0
45 772 0
-3824 2148 0
-3496 -3297 0
681 -1061 0
-2366 3763 0
3131 3333 0
-2756 3322 0
-3530 2019 0
621 3022 0
-673 -239 0
-3026 485 0
-440 1371 0
-680 2405 0
4370 2350 0
1031 1581 0
-632 2706 0
-2161 1072 0
1395 -542 0
-3330 -1320 0
-4185 -142 0
-3428 -3356 0
1011 -2317 0
-365 -3951 0
-734 921 0
-1140 2111 0
-2276 2233 0
-687 -1977 0
4362 -941 0
-2179 -4102 0
-1353 627 0
-990 -2851 0
-772 4041 0
4351 -3568 0
494 3872 0
2620 -1743 0
1628 -4386 0
-1188 -240 0
-1293 4359 0
4061 4287 0
3641 -1797 0
1754 2881 0
-341 84 0
-2909 3640 0
-2376 2003 0
2771 141 0
1589 2755 0
-624 3121 0
-1060 260 0
979 -2933 0
-3164 3875 0
-3624 -3266 0
206 4155 0
455 -1 0
-1762 4121 0
3013 3806 0
879 743 0
-3603 3259 0
-3622 1222 0
-4065 -1042 0
-522 -3481 0
4014 2677 0
233 -1632 0
1497 695 0
3592 -3770 0
-1274 1203 0
1482 -1844 0
-925 -1320 0
-2740 -3391 0
307 -2864 0
-2386 -889 0
-3893 -1012 0
-1194 3210 0
1445 -3415 0
-2236 -1121 0
1577 3346 0
617 2690 0
-1668 2164 0
3455 -817 0
2555 -561 0
-2942 1981 0
-3089 -3054 0
-3327 2617 0
-1088 -1141 0
-4270 3280 0
-749 -1916 0
4373 -1107 0
2953 2431 0
2736 550 0
2918 4378 0
2151 3883 0
-2380 -1914 0
-1573 -299 0
2063 -2915 0
-874 4253 0
752 -3404 0
3739 2645 0
-2723 3810 0
-263 -631 0
-834 -2414 0
-3825 2036 0
-2195 1696 0
-1793 2013 0
582 566 0
3790 -1015 0
-4121 3144 0
-2819 -100 0
1040 492 0
3584 -3009 0
-3065 2403 0
2271 1926 0
-3183 1670 0
-1507 -2909 0
-753 788 0
-1481 -2193 0
1384 -3576 0
-3001 -1208 0
290 -1344 0
4009 -25 0
1004 3249 0
3223 -3830 0
-3031 -1965 0
1584 -3447 0
457 -945 0
3879 -1779 0
4300 2758 0
-3334 3308 0
-149 3054 0
4148 -3425 0
-402 -901 0
4050 2526 0
-3367 4232 0
-1154 -3441 0
2852 2182 0
382 -1777 0
430 -20 0
-1659 -2863 0
3400 -2474 0
-3527 725 0
2355 3293 0
-1774 1175 0
879 1635 0
-382 2035 0
597 -3786 0
-2627 -2296 0
-4347 3594 0
-717 195 0
3452 -2195 0
-2086 567 0
-3279 4096 0
-1314 4075 0
-3337 1415 0
161 -1346 0
779 2126 0
198 2413 0
-2329 -2646 0
-3864 3178 0
1071 -2030 0
-1597 2763 0
961 -4197 0
-1619 -4269 0
-1486 -299 0
3529 4159 0
1263 1496 0
-3264 3077 0
-1925 -883 0
-4020 3868 0
-2067 -2413 0
2410 -3230 0
2109 -1687 0
3845 466 0
3303 -3216 0
-652 -1571 0
1673 860 0
3918 -3538 0
-3167 4277 0
1098 -2894 0
2834 -1117 0
1589 2540 0
-3479 4273 0
1283 586 0
4226 256 0
-3076 -515 0
-3991 3900 0
-2392 249 0
2803 3891 0
2825 -1640 0
1899 -3941 0
-1700 -2691 0
1043 -436 0
173 -3177 0
-3918 -897 0
-1181 -2054 0
3241 -430 0
-2509 3342 0
-817 2959 0
-450 -1706 0
-3936 455 0
4115 -388 0
-1483 1115 0
-1836 1623 0
-1551 4281 0
-3639 349 0
3005 2363 0
250 -2085 0
778 -2866 0
58 427 0
-3839 -1773 0
-4041 -1 0
-3504 4281 0
-2678 77 0
4147 2371 0
2143 482 0
54 1745 0
2516 2647 0
2717 3572 0
4137 1577 0
1286 -2217 0
3743 -934 0
104 -1726 0
-3399 3361 0
2373 -177 0
3577 -4087 0
-3175 -2231 0
2026 -106 0
-1165 -231 0
-1820 257 0
3130 -3765 0
3014 2463 0
-1274 -1987 0
-130 -238 0
-1236 228 0
3090 -3543 0
-756 -3326 0
-80 2468 0
-4014 -2610 0
-197 2888 0
3285 -866 0
-3061 2445 0
2127 1227 0
1264 907 0
1663 -3082 0
4359 -3930 0
-112 -3345 0
-3617 1899 0
627 -3728 0
1187 -2171 0
2569 2930 0
1218 -1551 0
-2731 1590 0
-407 -4052 0
2338 -1018 0
-2688 -1859 0
-3973 660 0
3962 -4139 0
4211 -4163 0
-1776 -369 0
-2834 -4350 0
-4088 -4086 0
-3845 -3597 0
-3117 1723 0
-2916 -3998 0
1239 -553 0
-3762 2371 0
-638 -107 0
-4167 -1128 0
2434 -2409 0
-3502 -16 0
-2714 299 0
-2827 2336 0
-3786 -297 0
3850 3480 0
-3323 2492 0
-1136 -2478 0
-3895 -1190 0
771 2558 0
4351 377 0
-2170 3963 0
3911 1997 0
-731 -3835 0
261 -3832 0
-4288 -3941 0
1775 -4051 0
-601 -3312 0
-3539 2679 0
1426 2894 0
-3237 -449 0
2605 371 0
-1344 -2991 0
2390 1880 0
3253 -4357 0
-774 -3157 0
2762 -1449 0
3623 1715 0
3585 3492 0
-3979 -1420 0
1680 3120 0
845 2319 0
-3827 2071 0
-2403 246 0
2249 3960 0
1124 -1102 0
-2401 -2484 0
-2170 -4365 0
-3488 -2465 0
-942 149 0
-2028 2675 0
-1340 -1720 0
-3410 -1342 0
-373 4003 0
-1752 2447 0
-2272 4211 0
1768 4026 0
1955 -3680 0
1304 1048 0
2893 -4173 0
2810 2172 0
-679 2388 0
3547 1586 0
-3185 -3551 0
2950 -1310 0
3888 -2399 0
-2959 -281 0
3109 1221 0
-3599 3055 0
2603 -1476 0
-1894 1557 0
3225 -3662 0
-1781 2605 0
3282 -1571 0
4260 -3013 0
304 -3376 0
3960 3772 0
-1278 -2984 0
1723 -3808 0
3210 -2531 0
-63 -1813 0
-461 -2838 0
-519 3683 0
-2254 -4336 0
1897 -2777 0
-467 3800 0
-4068 3296 0
-2984 2961 0
3003 -343 0
-688 347 0
-2341 1001 0
-3858 1127 0
-3679 1093 0
2523 -3905 0
917 -995 0
-2163 3018 0
-242 -516 0
3362 2604 0
3985 1716 0
-81 2498 0
2822 4136 0
-2326 1059 0
-2917 3612 0
-2522 1004 0
3600 3489 0
3210 -3647 0
4219 -1260 0
150 1620 0
2325 -3508 0
-3026 -29 0
2995 -3901 0
-2729 2113 0
1287 -2966 0
-25 1306 0
-2266 988 0
982 -72 0
-1064 1476 0
4201 -121 0
-812 46 0
-4052 -3617 0
-226 -1745 0
-2088 -2397 0
799 3245 0
-1326 -245 0
4013 -3725 0
-2193 -4098 0
2948 2497 0
4365 -3226 0
-671 676 0
-1583 -1474 0
3857 2307 0
-2886 3113 0
-930 3208 0
2415 3618 0
317 -1095 0
1676 -3461 0
-1547 -438 0
-2470 4001 0
2124 -4328 0
1116 -2248 0
-1552 -3890 0
-2935 2431 0
-1142 1808 0
-3731 690 0
2367 -4014 0
-301 -1781 0
1892 3868 0
-3273 334 0
-4226 2736 0
2345 3575 0
-316 971 0
-2475 521 0
-2627 -3160 0
-2202 -2399 0
-3117 3219 0
916 -978 0
-894 2107 0
2749 -3143 0
-1580 -3427 0
-811 -741 0
-4334 -153 0
589 -1010 0
1654 3739 0
-4081 -4104 0
-881 -2260 0
929 1900 0
-500 -2083 0
582 -1004 0
470 -9 0
3464 -4303 0
-2168 1006 0
312 -1762 0
144 4351 0
2702 -866 0
3505 -1084 0
2811 -2393 0
-591 323 0
3705 -2658 0
-3550 2830 0
-3298 4032 0
-1361 455 0
-3384 1205 0
2189 -148 0
-4124 4248 0
3002 -1998 0
-438 3709 0
-2639 2138 0
-325 2632 0
-191 -4245 0
3563 -713 0
-204 -2339 0
2286 347 0
-2879 1354 0
310 3820 0
-2294 -2620 0
-4354 -3650 0
2861 2631 0
-2204 1846 0
494 2317 0
1982 3898 0
1276 -3829 0
1785 -238 0
2407 -3661 0
-2140 3985 0
-3273 3658 0
4348 1058 0
-1473 3226 0
2119 -420 0
-843 1495 0
2621 4072 0
1309 -2170 0
2277 -120 0
3789 -1159 0
4052 -2313 0
1332 3287 0
-3032 2881 0
-2252 -3981 0
1014 1274 0
981 -894 0
2019 -532 0
-2925 4386 0
4207 120 0
3071 1898 0
-2323 -2167 0
561 3615 0
92 -2929 0
2703 -1562 0
-2067 -1562 0
-2190 3728 0
1745 1847 0
2095 -3720 0
2067 -998 0
-1933 3393 0
2491 1497 0
-1788 -3680 0
4137 -2442 0
3933 -3880 0
-2387 1178 0
3507 4280 0
-20 1816 0
-2827 2227 0
-3323 -68 0
1864 -4183 0
3210 -3117 0
4200 -1597 0
4040 -2309 0
3623 824 0
-2770 -3478 0
-654 1465 0
-3758 -1994 0
-2908 -1013 0
339 1919 0
1988 -3751 0
-3011 -4268 0
-2580 198 0
950 -222 0
195 -619 0
-1121 -3969 0
3850 -2475 0
-3883 495 0
-773 4190 0
-2473 -2392 0
-3495 296 0
632 -1660 0
1207 -3051 0
-1927 -2924 0
-3561 3434 0
-3888 3816 0
-1550 3613 0
3376 -3841 0
-4180 3839 0
-492 103 0
-4208 2687 0
-3473 -2856 0
-4177 232 0
-3920 542 0
-1439 -1903 0
491 1698 0
-3221 -2502 0
1108 -3801 0
-1447 2005 0
378 290 0
271 2896 0
3292 -1053 0
-2667 -3050 0
-2200 -4045 0
-217 3442 0
-1236 1931 0
2889 3360 0
3366 -4183 0
679 -3797 0
201 -3886 0
-1241 -4194 0
1855 2923 0
-1152 -1657 0
-3719 936 0
227 1288 0
-1003 1217 0
3838 -1385 0
844 261 0
-2544 2143 0
1726 3693 0
3258 -847 0
-2497 -1227 0
-1183 108 0
-1706 2119 0
3691 -2577 0
420 2026 0
-3171 4351 0
621 -1922 0
-215 1244 0
3628 -4186 0
-730 2192 0
3565 2186 0
-18 -2231 0
2058 3136 0
-4336 -715 0
-3320 4029 0
1258 -3878 0
-971 -2470 0
1868 -1842 0
4305 -3909 0
-2884 -326 0
1068 -1803 0
-2438 495 0
-147 3576 0
1896 2536 0
-3286 272 0
-1420 -2383 0
2704 1231 0
-2280 4252 0
3688 4148 0
3607 2494 0
4180 3455 0
-1006 -1688 0
-2891 210 0
-2410 -1167 0
1419 -3955 0
-4053 927 0
-2479 -578 0
2512 -3073 0
3087 1738 0
-2869 232 0
87 -853 0
4244 360 0
-830 -1965 0
-3138 4132 0
1052 -3557 0
4289 -2522 0
-1322 -328 0
-288 317 0
-2487 -2486 0
3448 3064 0
3944 -803 0
1683 2236 0
2748 3942 0
4257 1486 0
-222 2461 0
2815 2332 0
3196 -2050 0
-2891 -1061 0
-4154 -860 0
413 -3597 0
1545 3048 0
-446 -2848 0
3714 2284 0
-600 -2125 0
-1152 2416 0
-3581 877 0
-4347 -2129 0
-2416 -1183 0
-2488 3755 0
936 244 0
1164 -844 0
-4245 -4018 0
-4025 -100 0
-2563 3423 0
-101 1699 0
1983 912 0
-2928 3785 0
-3866 -714 0
-566 -1142 0
115 -534 0
-2759 -951 0
-2708 4050 0
181 175 0
-879 -694 0
3708 -2535 0
-3834 4336 0
-2388 -3381 0
-3999 -2161 0
-1734 361 0
4306 1009 0
-3142 -3031 0
-2298 3828 0
3295 2351 0
617 1738 0
2954 1487 0
-1664 -3197 0
-2386 -3368 0
1915 3694 0
-2469 611 0
2146 -3071 0
-3473 3063 0
-540 -3539 0
2703 3135 0
-2251 -3403 0
-2560 1964 0
765 2468 0
3115 310 0
-1245 -3137 0
-2540 -193 0
4009 -676 0
-1273 2295 0
-2842 -3218 0
2673 3979 0
-2967 -2564 0
-801 -2980 0
-337 -3808 0
-216 -865 0
-2733 -3305 0
46 2647 0
3565 -2073 0
4086 2342 0
2831 -3599 0
3984 -1554 0
468 -934 0
3739 -3888 0
-1661 -3480 0
-154 1005 0
4315 1597 0
-3710 -3892 0
1391 -3052 0
855 -1750 0
3806 -739 0
2209 1592 0
2763 -651 0
-98 -1102 0
-598 4071 0
-2139 2382 0
-3627 3100 0
-3406 -71 0
2000 -777 0
-407 -1113 0
1823 -4122 0
-1420 -1058 0
-1042 -2137 0
-3066 -2321 0
-3139 -4173 0
-1584 -4228 0
2182 -4255 0
1108 2208 0
-107 -2194 0
2415 -1550 0
2251 -274 0
-3433 3500 0
-3603 -60 0
-2423 -2708 0
1111 56 0
-3710 -4347 0
385 -3452 0
-928 3270 0
-5 1802 0
-3737 3855 0
4036 -1366 0
641 -2695 0
-981 3471 0
3393 2589 0
977 1036 0
3731 -4035 0
1699 2284 0
2385 -3179 0
3404 721 0
-4026 -3011 0
-2861 -225 0
3293 -3626 0
94 -2328 0
2182 -2167 0
-1729 -4289 0
1838 -1498 0
-2997 764 0
3156 -1600 0
-2476 -2588 0
-2045 3893 0
-2252 -1032 0
1851 1791 0
1491 2908 0
-1296 2927 0
570 4104 0
-369 -4341 0
566 -1854 0
49 -575 0
917 1136 0
-1082 -1197 0
3658 -3831 0
919 47 0
403 819 0
-597 -3159 0
-2633 -3742 0
2207 645 0
-460 3970 0
149 -3239 0
748 -2454 0
-2925 1573 0
-136 -2997 0
57 -3394 0
-3627 2569 0
-986 2668 0
-3027 -2566 0
2635 1656 0
1846 -226 0
-2327 3263 0
-1759 -2995 0
1645 515 0
1996 -856 0
1436 -4361 0
3308 4015 0
-3935 -1921 0
-4384 -350 0
3586 2582 0
987 -2057 0
2019 4036 0
2271 -2916 0
-1935 841 0
180 -4140 0
-4108 3638 0
-3145 -242 0
-2133 -723 0
1124 -2735 0
-857 4028 0
-3958 1300 0
1842 -1893 0
-4378 3442 0
-1606 -4378 0
-3140 -818 0
-3847 316 0
3378 3479 0
-390 1533 0
904 1379 0
-3444 -2000 0
490 -1671 0
-2329 3706 0
-728 -3719 0
1454 1322 0
-3769 574 0
-4124 1638 0
1346 70 0
478 -3098 0
1309 140 0
681 -2216 0
3182 2772 0
3937 2799 0
193 639 0
1531 2378 0
-1574 623 0
1895 1735 0
-1481 -2418 0
1963 1588 0
-1747 858 0
6 -289 0
-2769 997 0
4156 -986 0
561 2385 0
1953 -1682 0
434 -2511 0
-601 -3845 0
-3213 -3638 0
-2763 -4196 0
2693 218 0
-4107 3053 0
-337 -1 0
-4027 -2258 0
2830 -2564 0
4221 3702 0
-3466 2997 0
500 -39 0
1774 2411 0
-797 -4117 0
-779 -1442 0
-4353 1798 0
-686 -2872 0
-3271 462 0
2042 -1743 0
328 -2902 0
-4330 -1499 0
-3271 -3202 0
697 -24 0
558 -2854 0
-2850 -154 0
-2994 3132 0
-4259 -250 0
-2433 -1918 0
-3426 596 0
967 -879 0
330 -451 0
1239 680 0
-617 2141 0
-3999 -737 0
718 -1657 0
1300 -619 0
-2718 -1705 0
2901 3295 0
2613 -2688 0
-3831 -1555 0
908 -317 0
2004 -1095 0
2375 -2946 0
1618 360 0
2833 -490 0
-1493 -4290 0
532 3553 0
-2210 327 0
1307 3509 0
-3863 -1406 0
3528 891 0
-1395 -3404 0
4212 -4266 0
1118 -1437 0
3591 -1146 0
2512 2748 0
-4375 -3975 0
940 3796 0
-3189 -1596 0
3486 -3509 0
-2864 -851 0
2350 767 0
785 155 0
260 -2323 0
1085 -2614 0
1823 2403 0
1338 1462 0
-2714 -2733 0
-2361 -1972 0
-3966 321 0
3112 566 0
1649 288 0
-1612 3208 0
1319 -1116 0
-2883 2069 0
3875 646 0
-998 1341 0
2479 -3784 0
1517 -469 0
-1960 -1928 0
-1721 94 0
-3359 3667 0
-2096 -86 0
1493 -3181 0
-3758 -2160 0
-1371 -4092 0
3938 -1607 0
-3797 897 0
-1483 643 0
2817 2383 0
3662 849 0
307 842 0
3389 -3181 0
-3966 -2740 0
-9 -1585 0
-1543 3486 0
1912 -2151 0
433 2817 0
3968 -3945 0
-3219 3612 0
-18 -1992 0
-3269 -1740 0
23 -1646 0
2850 -67 0
694 1537 0
3103 -1059 0
-914 1437 0
-60 1240 0
-1441 972 0
1528 2706 0
-2979 -1775 0
-3209 -3401 0
-3734 -3725 0
2935 3662 0
-4235 3335 0
-3598 4314 0
-1723 -1329 0
-2447 1054 0
-3231 4022 0
950 -862 0
-3685 -4270 0
-2916 1729 0
-3213 418 0
-2475 1057 0
2378 1752 0
4110 -4068 0
2837 -667 0
4004 -774 0
-2724 -2732 0
954 3441 0
967 954 0
-1574 -4080 0
-3230 1852 0
-134 1190 0
3172 2376 0
1957 3417 0
-2552 4297 0
1156 3513 0
4353 -2558 0
-340 655 0
-1542 -1597 0
4103 -2684 0
-975 -2503 0
-3370 3506 0
1620 1855 0
3293 -2757 0
1659 2632 0
2004 -72 0
2319 4284 0
-2807 -1124 0
-464 -152 0
4155 -1962 0
-2711 3757 0
2941 2906 0
3233 -3835 0
3005 -978 0
-4201 583 0
1215 3210 0
807 -1491 0
2077 2159 0
-2062 1506 0
3070 -1409 0
-223 -708 0
-2761 -3075 0
792 -3671 0
-910 -2904 0
1093 -3433 0
409 1959 0
-3111 -695 0
4224 1915 0
1817 1635 0
1111 280 0
2066 4314 0
-2691 -1526 0
-703 -3212 0
2387 -4280 0
1508 -1470 0
-1479 -3200 0
-1577 -3896 0
187 -3556 0
95 3005 0
-4380 -968 0
762 -3283 0
3875 3590 0
2231 3306 0
-827 -2343 0
3926 4286 0
1769 -283 0
3159 1019 0
3109 10 0
2248 -3271 0
-2537 1054 0
-2693 2894 0
-3656 3101 0
442 1048 0
-1922 -2115 0
-2510 4220 0
2933 -2613 0
332 -913 0
568 -1654 0
-3102 2117 0
-2443 -583 0
-2788 1546 0
-924 3065 0
-3228 -2707 0
-1181 58 0
-991 -3781 0
-2368 3254 0
-3243 -3517 0
-2345 4248 0
2278 -1033 0
1906 -453 0
-2922 -3392 0
781 4114 0
-1150 785 0
-2991 -1049 0
-1782 699 0
1728 -957 0
2441 -1442 0
-4262 427 0
-4304 3114 0
3948 -99 0
-3845 4034 0
2831 4163 0
-4278 -1636 0
2168 -1325 0
3555 2162 0
4052 -2386 0
1178 -930 0
2717 -831 0
-1917 1883 0
96 -621 0
476 -2967 0
3370 999 0
-3661 2877 0
-1778 200 0
-836 1101 0
-660 2775 0
-2241 260 0
1670 1343 0
-2535 -4008 0
2605 2943 0
2853 3325 0
1950 2471 0
3178 48 0
684 -2353 0
-1432 1372 0
-766 3430 0
1855 513 0
229 2794 0
4203 4291 0
2919 214 0
-134 -941 0
-2311 -1843 0
2762 -1198 0
-1796 -1152 0
-92 -2757 0
-2972 -3337 0
-628 3583 0
-819 1302 0
-1924 -1238 0
-3254 2547 0
785 515 0
-2073 783 0
3876 974 0
-398 -1692 0
-16 -835 0
-2769 570 0
43 -2799 0
-4335 -915 0
1472 -2636 0
3058 4348 0
1048 2535 0
-807 -3439 0
-981 3587 0
-2138 3284 0
1828 2542 0
-1777 -2091 0
-3348 -2947 0
-4163 1071 0
-3841 -724 0
-4081 -858 0
-2407 -492 0
1386 -3568 0
-752 -2192 0
1987 -2759 0
3078 4371 0
317 660 0
-510 4241 0
3640 3926 0
2231 2886 0
3086 -2565 0
974 -3438 0
3484 -1126 0
2325 3366 0
-1159 1716 0
1080 -3867 0
2205 -686 0
822 -3317 0
-2724 -4260 0
1438 -4139 0
-1924 -3974 0
-4364 2661 0
-3925 3080 0
1795 1895 0
-934 -1657 0
-72 -4065 0
3032 -406 0
3856 -3948 0
-4184 1538 0
-242 -4066 0
1622 1015 0
-4133 -3611 0
563 3334 0
-3991 -652 0
41 -1103 0
2007 320 0
-2518 2092 0
-4326 -651 0
2547 4079 0
3271 937 0
3889 -3860 0
-370 -2043 0
-1607 2670 0
-4349 2992 0
-929 -3461 0
822 -2518 0
-3294 2233 0
-3329 1879 0
-233 -507 0
502 -2923 0
2124 360 0
-3513 -959 0
-4002 243 0
-2994 2687 0
-2577 1584 0
2794 3235 0
-727 2969 0
-3457 3555 0
-2175 -3355 0
-3444 -2928 0
989 2377 0
-730 -1414 0
-1983 -1223 0
2270 2821 0
3291 549 0
1061 1751 0
1898 3536 0
-3896 -3131 0
-3072 -807 0
-578 1372 0
485 436 0
3112 -552 0
-3710 4040 0
4204 1299 0
-3694 3881 0
4000 -1309 0
-4004 -2782 0
-865 1626 0
-381 -374 0
2385 -3226 0
3668 -2076 0
243 -2053 0
-3189 -2702 0
-126 2034 0
3732 587 0
-906 -4268 0
-510 870 0
-1034 3244 0
514 4037 0
-1019 3101 0
631 -1285 0
-2542 -4240 0
661 879 0
1226 3354 0
-3847 -3333 0
-672 4330 0
408 3461 0
-3148 -111 0
-1141 -1009 0
-4275 -2702 0
3022 3336 0
-4060 422 0
-4320 482 0
1958 -3530 0
-393 -4164 0
-1505 -567 0
1218 -2671 0
-2909 -2134 0
4204 1022 0
-3219 -774 0
-1775 -1615 0
45 -3256 0
1207 -2335 0
-1889 -2939 0
3877 3001 0
749 -798 0
2289 -577 0
1224 3944 0
2632 3519 0
-3079 1265 0
-365 3795 0
-500 -1949 0
2000 1414 0
-1940 -1482 0
-1299 -408 0
2072 -3067 0
-268 -3746 0
-143 3906 0
865 -4303 0
-1453 568 0
2850 3412 0
-805 -4092 0
-2623 3932 0
2705 3680 0
1557 -1466 0
-2351 -3684 0
3914 -4056 0
-2533 3929 0
2611 -4249 0
-2268 2890 0
-4186 -2521 0
967 2921 0
-3506 2745 0
-2253 -474 0
-1558 -1468 0
-4199 438 0
-4320 1615 0
996 -1586 0
-3852 -3510 0
3491 2572 0
2360 -2657 0
-2855 3350 0
-527 -3038 0
-81 13 0
3823 -1231 0
3572 -3322 0
2571 500 0
-590 -1548 0
3675 -2890 0
-4151 -3194 0
1403 1146 0
-551 -2537 0
2589 2940 0
2559 1536 0
-2169 -2347 0
414 -2348 0
-3946 2491 0
-1172 4344 0
-2841 1093 0
3771 -1754 0
-85 -1174 0
2516 502 0
3397 -2133 0
3215 2193 0
855 -3649 0
-1697 3377 0
-1306 -1548 0
785 362 0
1496 2488 0
4273 -3631 0
-15 -3922 0
3423 -3882 0
721 -142 0
-2273 1958 0
-1500 1887 0
-4227 -3194 0
2206 3954 0
-3145 -1266 0
4028 -3509 0
1928 -175 0
-615 2844 0
2672 -1705 0
-2633 -3712 0
-3673 200 0
-3935 -31 0
-2015 3960 0
245 1769 0
3395 3259 0
44 2776 0
2907 3140 0
-1465 3821 0
-217 -803 0
2530 -4177 0
-4385 1138 0
4190 1672 0
-2745 -3283 0
-499 -2903 0
2416 -2987 0
-925 -3355 0
-2759 -2399 0
-2944 983 0
-3976 1929 0
-2605 3476 0
367 3283 0
2617 2861 0
-3224 -1633 0
3208 3406 0
2785 921 0
-444 -3811 0
2303 2417 0
-3132 2143 0
241 3427 0
2388 891 0
82 1858 0
4259 2933 0
1998 315 0
4293 -184 0
-2403 935 0
2711 -1210 0
566 -881 0
4279 160 0
-491 -2792 0
-575 304 0
3296 3196 0
2934 -1881 0
211 -598 0
3321 474 0
-1782 773 0
-1803 4002 0
3120 -3606 0
-3294 835 0
42 3618 0
94 -2390 0
3787 953 0
2435 -2320 0
-1905 -165 0
2447 1898 0
-979 3450 0
3405 -2524 0
-284 3744 0
-2664 -3844 0
649 -1174 0
1616 -3678 0
-2632 2325 0
4195 2999 0
212 -975 0
-525 2828 0
-631 -786 0
-2144 2024 0
-1084 354 0
-2650 -1070 0
3783 1555 0
2351 -2797 0
1115 -3290 0
160 552 0
726 1003 0
-2082 -284 0
271 -2228 0
951 -1516 0
-875 693 0
-2709 -3730 0
2406 -2026 0
989 2942 0
-700 3948 0
-495 3531 0
-23 -24 0
-1012 1957 0
-1034 -2844 0
4087 605 0
2484 1034 0
-4371 2330 0
-768 -2625 0
3795 4205 0
1268 2902 0
-3843 1969 0
-1288 -4189 0
-4174 -2732 0
426 -3981 0
463 70 0
-3960 -2326 0
1206 1500 0
2835 -3854 0
-301 -3946 0
-4124 2911 0
3592 3757 0
-2371 2288 0
563 -507 0
3922 -3439 0
-2374 2853 0
-2054 3234 0
2359 -90 0
683 3091 0
1552 2014 0
-3091 -3511 0
1274 -1425 0
3332 -4124 0
-1671 2513 0
2018 823 0
3975 -1550 0
-1880 3754 0
4294 626 0
-1056 718 0
3830 666 0
1295 -2253 0
395 -452 0
-2121 -1701 0
2053 -1271 0
-2102 3240 0
-1614 -1588 0
3174 993 0
1080 -2999 0
531 3676 0
-827 581 0
-798 -1882 0
-2486 2428 0
-3952 -3033 0
2130 747 0
233 1321 0
764 -3727 0
-3866 4233 0
3121 -3249 0
-3931 -92 0
3123 1797 0
2383 3749 0
-4283 4001 0
3311 -666 0
-2318 284 0
-669 286 0
1184 3600 0
-492 156 0
-3106 3865 0
-1237 -4124 0
4164 -344 0
-3279 1955 0
882 200 0
-2137 -3770 0
4315 -3693 0
-4381 -1153 0
-2936 4244 0
-43 -3980 0
345 2522 0
-3061 -1052 0
-3296 2638 0
655 -2107 0
2004 -600 0
-3355 2839 0
3949 -3031 0
1786 -2472 0
-636 -4370 0
-914 -2167 0
-2829 -184 0
-1256 -859 0
1037 -2136 0
4184 -4045 0
4277 -813 0
2222 1110 0
-2305 -3370 0
-284 3241 0
2192 3204 0
2102 -1776 0
-2293 579 0
2117 -619 0
-3310 2224 0
-88 2209 0
-795 -179 0
1230 2522 0
3486 -3955 0
3817 -2472 0
-1897 -100 0
-2995 3763 0
1330 -3017 0
2350 2652 0
-769 763 0
3980 -218 0
1411 -404 0
-2458 -1113 0
-3928 507 0
-1232 -1233 0
2698 -3654 0
4179 -4310 0
1052 4239 0
-4378 -122 0
-421 -3368 0
1888 2026 0
2689 2771 0
2412 -2885 0
-247 -1294 0
940 3971 0
-1196 -312 0
3652 4082 0
3754 -587 0
3360 -3768 0
-1999 -2708 0
494 3021 0
-1885 -2229 0
1641 -4058 0
-3099 1237 0
563 1541 0
3519 2546 0
-1362 -2267 0
-2282 1983 0
2680 -339 0
226 -2714 0
3064 -1387 0
464 4300 0
-4351 3207 0
-4231 3154 0
982 -3459 0
-23 -1680 0
332 -2316 0
523 4250 0
4062 -2700 0
2430 -1311 0
1843 -3343 0
1746 237 0
2803 -2469 0
-105 260 0
3586 -1121 0
1156 3227 0
4070 -94 0
1954 -1762 0
-1282 1681 0
-3850 -633 0
-3090 -3242 0
-256 3536 0
1665 3450 0
-3425 -395 0
3262 3589 0
2572 -2400 0
3761 -2024 0
-1196 -2120 0
-2140 -1084 0
3412 996 0
3837 -2254 0
277 -2678 0
3929 -1888 0
2567 1036 0
-359 1079 0
1673 -2165 0
-3823 -1890 0
-444 210 0
3545 -2392 0
806 -50 0
-2471 1906 0
1310 2084 0
-2650 -1030 0
3834 -3013 0
4288 -1444 0
-2249 -1893 0
-2079 -1053 0
-2907 -3466 0
-3928 1238 0
-402 -926 0
1375 -2398 0
-558 1367 0
870 -1226 0
1489 -3582 0
-402 -1800 0
4255 1135 0
2262 1298 0
4225 -1680 0
-808 -1484 0
332 1725 0
2103 1148 0
-819 4157 0
1486 -4270 0
-1436 -1533 0
1663 1620 0
3416 -4386 0
-3794 403 0
4215 1664 0
1267 830 0
104 1212 0
-156 1179 0
1131 -2171 0
-194 3612 0
4062 -2600 0
-1096 -1039 0
-1710 2205 0
505 -3865 0
-3545 -1149 0
-2713 2066 0
624 -1076 0
-923 1463 0
2940 135 0
-4250 -2029 0
-3438 -1916 0
-1358 2495 0
1219 4184 0
2219 -1018 0
-2989 3646 0
-85 4230 0
-1939 -3642 0
2078 -2933 0
-3992 -2919 0
-833 -3942 0
-3965 4185 0
333 -1210 0
805 802 0
260 2418 0
-1301 -4002 0
-3266 2259 0
-1955 2125 0
-3425 1894 0
-4019 -1437 0
-2444 2365 0
-946 -3015 0
2213 -1380 0
-1032 -1707 0
-3680 -4092 0
2387 -3117 0
580 -2607 0
-3842 2275 0
-3694 3838 0
-3160 -1242 0
-3834 2498 0
1403 1081 0
4293 -3593 0
-646 -2209 0
2025 -833 0
-171 -2689 0
-508 -4055 0
-1733 3769 0
2461 -549 0
1842 3241 0
-4065 -3635 0
1978 2841 0
-2924 2413 0
2568 3429 0
-30 3357 0
2221 -3647 0
-3361 846 0
775 1845 0
2955 2693 0
2579 -2232 0
-632 -1624 0
-3284 1479 0
258 -696 0
2825 -852 0
-540 2001 0
3550 -3104 0
-1459 702 0
2179 -293 0
524 -3707 0
-3966 3969 0
-3917 -101 0
-2891 3841 0
3452 3621 0
1337 -194 0
3944 -986 0
1710 3482 0
1851 1195 0
-969 -829 0
107 -591 0
3741 2753 0
4327 3951 0
1302 3704 0
982 2429 0
-3830 -3524 0
-2457 -201 0
-267 -2236 0
4195 -3061 0
2047 4035 0
-354 -2955 0
2854 -847 0
-3072 -2136 0
-3039 3514 0
-2754 -2543 0
-194 3708 0
3666 -228 0
1804 1968 0
2049 2240 0
285 2270 0
2226 -1202 0
4086 104 0
1007 2935 0
-501 3911 0
-776 4382 0
-1827 682 0
892 -17 0
3164 -3759 0
-3076 3900 0
-1196 3948 0
-4155 -3790 0
-4320 529 0
-1746 4111 0
-1545 -3437 0
4175 1846 0
-315 -4386 0
55 1975 0
-2167 1517 0
3156 -2074 0
-2699 3243 0
1229 -3419 0
-3466 1515 0
1398 296 0
-1311 374 0
3804 -2243 0
3557 3451 0
597 126 0
304 -3891 0
-3630 -2958 0
-537 2828 0
-1882 2473 0
1605 -4154 0
3904 -4302 0
-862 -2016 0
-1180 2053 0
-3886 551 0
-2140 -2891 0
3689 3043 0
2038 1759 0
-1531 390 0
-2413 3018 0
780 461 0
871 2644 0
-2869 3108 0
-604 3770 0
-3150 -3006 0
-2871 2213 0
891 1991 0
2268 -314 0
3 4197 0
-4204 3542 0
3 -828 0
2443 -1631 0
1643 1872 0
-73 -3531 0
788 -2910 0
-3339 -716 0
-2241 1027 0
1577 -1951 0
2709 -2003 0
-1411 3379 0
-1902 4173 0
1641 -91 0
4080 -2908 0
1169 2163 0
-514 -1583 0
2001 -73 0
-3049 3405 0
4046 1053 0
-3611 487 0
-4141 -384 0
-2252 -2529 0
2456 729 0
4169 3811 0
-2809 419 0
-3759 2649 0
2218 4093 0
-537 -2799 0
790 3009 0
3583 3436 0
861 -3916 0
2821 -742 0
-3230 -3179 0
1170 681 0
-3360 -53 0
1665 -2702 0
-4169 -394 0
-3787 -3595 0
-3047 1244 0
-3443 2012 0
-1792 2909 0
1060 -2398 0
-4101 -1574 0
-4270 1386 0
-4118 3741 0
-91 -1519 0
1423 757 0
-32 621 0
1076 -1285 0
1055 -2454 0
2360 2681 0
-1373 -3991 0
1415 2120 0
-401 -682 0
2358 -1532 0
24 907 0
-1846 -306 0
-4207 3643 0
2894 -2235 0
-1001 3660 0
-4310 3430 0
-4325 2445 0
-3942 -3991 0
902 -576 0
2118 -27 0
3143 -4323 0
1342 2088 0
2700 1138 0
-2979 -3970 0
-1923 -3265 0
2621 -1667 0
-787 114 0
-2934 3698 0
4124 -793 0
-2461 -1963 0
-421 3036 0
745 553 0
1768 -2992 0
1371 -3537 0
131 227 0
-3098 -1097 0
3090 -2598 0
-3854 -2997 0
-3424 -3836 0
-2860 1983 0
-4223 -3085 0
-3417 4290 0
4134 1015 0
2281 -3382 0
4259 -3622 0
-3107 855 0
-1535 -3731 0
220 2893 0
2803 -2857 0
-841 390 0
3132 2962 0
-1142 1754 0
839 -3650 0
1125 -2701 0
1557 -1911 0
3923 2859 0
-4351 1859 0
-2849 416 0
392 2840 0
-2482 1823 0
-785 -4229 0
2617 -3415 0
-3974 1649 0
3740 -594 0
-2033 -3485 0
324 -3031 0
382 1110 0
-2462 -1534 0
1545 -2777 0
2011 3976 0
4288 524 0
-2433 -1334 0
-102 2158 0
279 4280 0
-4311 229 0
4179 519 0
3788 -2292 0
-3059 -3730 0
-4245 3795 0
855 -1231 0
1697 -3442 0
76 173 0
1188 1823 0
4067 1110 0
-581 2721 0
-3147 1723 0
1176 3303 0
-4202 1008 0
3346 4115 0
4220 -3833 0
1711 -2810 0
-3964 1593 0
1175 1847 0
-2332 1682 0
3368 4234 0
-2408 -2443 0
2023 881 0
-743 -1211 0
-3989 532 0
252 -677 0
-4151 2274 0
-1645 -648 0
-3154 -2306 0
-3603 469 0
1437 -4329 0
-254 -4026 0
-513 -953 0
-3568 -4215 0
-3067 -3028 0
1960 4190 0
2541 2499 0
-1550 -4365 0
4122 3412 0
-555 3950 0
241 2495 0
-2792 -2336 0
-32 -1924 0
2963 -2090 0
4387 3400 0
-3872 -280 0
-746 1239 0
4126 2806 0
2841 319 0
-2991 1925 0
3664 3622 0
-606 2203 0
-1324 -1345 0
-1273 915 0
-2238 -2069 0
3317 -3331 0
-1439 -2340 0
-830 -2626 0
-1705 -3478 0
1728 4248 0
2209 -1442 0
2953 1266 0
-3969 1232 0
-100 -3653 0
3465 -2437 0
-1248 -2695 0
2990 -329 0
3148 2082 0
-4271 -3451 0
576 1557 0
-4173 -380 0
2612 -623 0
1392 1979 0
1765 3325 0
968 -2528 0
-2210 3844 0
1714 140 0
3216 1180 0
-336 149 0
1763 -3506 0
1866 -4105 0
-3611 3536 0
-4263 1530 0
-2030 464 0
-3877 1047 0
1372 1089 0
2923 -1013 0
164 -2132 0
2567 -1951 0
-659 -2163 0
-4222 2763 0
-1067 -3278 0
356 299 0
-2704 -1709 0
-3442 1619 0
-2884 2024 0
-441 -3666 0
2127 -3939 0
2249 468 0
929 -1499 0
-3602 2919 0
-3860 -1660 0
835 -1735 0
-1758 -252 0
551 3658 0
-3370 -987 0
277 -3422 0
-2699 -674 0
-959 -3909 0
3672 -4295 0
1842 382 0
4142 -2873 0
2705 -1117 0
3907 3093 0
4160 -607 0
316 -843 0
99 3289 0
-1775 3372 0
-3411 -91 0
-796 1972 0
-89 -1748 0
2673 -1012 0
-3986 -114 0
1525 -1705 0
-1451 4305 0
241 -638 0
4108 -4172 0
972 3740 0
3757 -1995 0
-297 -454 0
-53 -2745 0
4125 1433 0
-1493 -4281 0
3626 -560 0
2466 3779 0
-2848 3120 0
-2374 825 0
-2107 -3068 0
1451 -2012 0
-4326 -1221 0
-358 -3508 0
-329 174 0
4022 2219 0
-2070 321 0
3045 -2399 0
-3358 -1406 0
-1001 1835 0
-1866 957 0
-1651 -4059 0
-4138 2637 0
174 1311 0
2091 3123 0
2300 -991 0
3300 -4179 0
1666 -3955 0
556 -4272 0
2438 -1499 0
-7 -1079 0
-3070 -3556 0
-4161 -4218 0
3998 2225 0
-2706 -405 0
-1060 2490 0
1762 -3358 0
3898 655 0
-3191 -197 0
-2111 -1779 0
-4053 298 0
-3683 1719 0
945 464 0
3309 2791 0
-3202 3227 0
-4186 -548 0
1732 3244 0
649 -953 0
4183 -963 0
1617 2629 0
-4032 2167 0
-4198 -1121 0
-3614 348 0
4280 3521 0
-763 2693 0
-279 -1191 0
3067 -2486 0
2652 1200 0
-2600 -3089 0
-4301 -1409 0
-1489 -628 0
2661 -2913 0
2829 -4036 0
3478 -863 0
-3084 -352 0
2481 3459 0
1784 -1209 0
-298 2129 0
-37 1260 0
3136 -2569 0
-267 2077 0
2494 1075 0
-38 -444 0
1377 958 0
-3143 4383 0
-1110 4352 0
3988 -1962 0
2663 2002 0
-2376 958 0
2627 3695 0
3572 709 0
1363 2019 0
1866 2512 0
-4158 -137 0
1860 1846 0
-4300 -190 0
-2740 -1089 0
2785 -2080 0
-150 -1758 0
-931 -1380 0
-470 -2017 0
-1649 1031 0
-2319 3429 0
413 1561 0
-4189 -4358 0
642 2101 0
2822 -1709 0
4150 2974 0
-3488 -291 0
-4236 -534 0
-1473 3619 0
-2462 2315 0
1684 -399 0
2421 -615 0
-837 -1417 0
-1373 -689 0
4346 -194 0
276 4136 0
563 3522 0
1402 -2590 0
1950 857 0
1726 749 0
-3133 -2523 0
-2509 2181 0
-843 -1561 0
-3913 -3582 0
-4074 1086 0
-798 3989 0
-1467 -625 0
3270 4165 0
144 3303 0
2305 -101 0
985 3833 0
2138 -753 0
3726 -1660 0
-1366 -4132 0
2023 -3983 0
2495 464 0
1763 2353 0
1350 1315 0
-2771 -560 0
-1309 -38 0
-2998 -2097 0
3629 2648 0
1525 -752 0
-47 681 0
2340 -302 0
-4216 -2366 0
3760 -2321 0
2642 1226 0
-2766 2794 0
1523 3651 0
4127 -3439 0
65 -3025 0
4280 367 0
-1026 1394 0
1089 3583 0
-1470 2730 0
653 -2514 0
-306 2308 0
-3294 2073 0
490 -1077 0
1275 -2865 0
3126 78 0
-560 -4170 0
-2019 1983 0
-169 -2853 0
-2165 2056 0
3576 -1603 0
-1835 3443 0
-1264 3743 0
-3249 -66 0
3557 -1120 0
-942 -3912 0
782 371 0
2066 4372 0
-2807 1623 0
-3663 3221 0
3621 -423 0
-925 4231 0
-4357 1026 0
1109 -364 0
997 4009 0
2658 -407 0
-945 -2893 0
3910 -3087 0
-2164 2109 0
-4062 1939 0
-1840 -3648 0
-2263 287 0
1078 -2043 0
1978 1569 0
4020 2385 0
-2276 869 0
-1861 2487 0
-27 -2065 0
-2174 2144 0
2449 -2203 0
3208 515 0
2407 -2805 0
3114 -3394 0
3983 -450 0
3171 164 0
2212 1600 0
-1105 103 0
3780 -357 0
-1380 599 0
-680 -3193 0
2034 927 0
936 -1043 0
522 3601 0
-2493 -632 0
1297 -240 0
-2433 -539 0
-3759 -2386 0
3385 -969 0
-2603 1135 0
58 2389 0
507 -1383 0
3385 -3027 0
1678 -1074 0
-2369 1532 0
-3176 -4134 0
1708 -767 0
-2852 -2978 0
3032 -1130 0
225 14 0
2163 707 0
-4100 1507 0
-1483 -3900 0
-1734 2 0
-811 -3961 0
-2366 -3942 0
-1463 3124 0
2914 -1289 0
-4343 2446 0
-3366 -2752 0
-2064 1489 0
-3007 3210 0
1353 250 0
-827 3025 0
-3779 -1246 0
-3669 -832 0
-325 -3240 0
-2560 1232 0
1440 -2505 0
-577 -45 0
-2508 -2602 0
-827 3325 0
919 -2684 0
4325 1224 0
-1416 -3151 0
-4182 3992 0
4322 3469 0
2099 -497 0
-4262 4020 0
311 2792 0
3054 -1202 0
-2703 1862 0
-1192 -2203 0
-658 4317 0
-2704 -740 0
-1202 2484 0
1966 -4217 0
3482 1740 0
-511 429 0
-1274 237 0
1673 -2298 0
2749 1814 0
-3952 -1363 0
413 2525 0
1029 -2247 0
-2937 -1815 0
1451 -189 0
587 699 0
-4310 2599 0
-4386 1618 0
-774 -1755 0
-3218 -2916 0
-3852 -628 0
1639 2038 0
853 -3681 0
2129 3857 0
260 -3174 0
-2355 -1947 0
3483 -2963 0
-2407 -2423 0
2798 -3167 0
-4137 -2407 0
2450 -2732 0
922 -3073 0
2871 3059 0
827 1302 0
-2397 578 0
-1629 -2559 0
-619 3704 0
3812 -2901 0
-3110 3398 0
-646 463 0
2292 881 0
-397 2063 0
3296 2113 0
-3938 935 0
2684 1395 0
-257 1501 0
-2128 -866 0
-755 -3962 0
2299 -2401 0
-3993 -2702 0
3891 1367 0
-1304 -3967 0
3925 840 0
2989 -3869 0
-3854 -1097 0
-3238 -2644 0
-1977 -2399 0
974 -3543 0
4108 -3006 0
-3036 -860 0
-1200 4349 0
-89 -2054 0
-3094 3284 0
-2873 2227 0
3336 219 0
-794 4200 0
3295 -71 0
101 2205 0
-1173 378 0
4078 -374 0
3976 3522 0
-687 -511 0
4197 723 0
-3373 1401 0
-1918 473 0
3550 1294 0
-3765 -3859 0
-3870 3418 0
2364 -2179 0
3044 -3073 0
1566 -591 0
1219 -1361 0
-1992 -3284 0
2734 867 0
-168 2566 0
696 1617 0
-2432 -1939 0
-3268 2780 0
-380 1635 0
-2539 552 0
14 -222 0
-553 -2545 0
3401 4017 0
3795 -2393 0
494 -3394 0
412 -2029 0
2651 1724 0
2674 -1822 0
-4230 4193 0
687 -3019 0
3470 -2633 0
-4218 -1092 0
-3363 -482 0
1048 1637 0
1559 4036 0
-4214 1349 0
-3176 390 0
-2500 477 0
-3401 2101 0
-734 2703 0
-492 -3437 0
1472 4225 0
-471 2247 0
-995 216 0
-2648 3737 0
-4232 1583 0
3098 2490 0
-1399 1303 0
835 3806 0
-964 -2704 0
2896 -2740 0
4149 3936 0
-2396 -4310 0
2810 -3033 0
2234 825 0
-580 298 0
3242 679 0
1456 1806 0
4046 2656 0
4050 3153 0
-1300 -2789 0
-2983 3875 0
3482 -3744 0
4264 372 0
2677 2427 0
684 -995 0
266 -3929 0
-1929 -717 0
-2518 2145 0
3813 2501 0
2973 2462 0
-1607 -2212 0
3919 -1860 0
-2505 597 0
-2265 2148 0
884 -39 0
-4011 -1023 0
1128 -4247 0
-975 2221 0
841 -1778 0
-2003 3790 0
-4230 -21 0
2099 -1604 0
1639 -2493 0
-2429 -2998 0
-4289 3303 0
387 2079 0
3085 -3114 0
221 -2775 0
3840 1963 0
-1723 -763 0
-742 104 0
2299 -632 0
-1533 -1627 0
3540 1408 0
305 -3922 0
-2540 -151 0
3621 1857 0
2609 -3231 0
-486 -785 0
3731 -2538 0
3307 -2184 0
1226 220 0
1736 1668 0
-1444 2238 0
-4168 -962 0
-3158 327 0
4367 -1116 0
-557 2960 0
2890 -2267 0
-1535 -826 0
2077 1948 0
4361 4175 0
735 -2433 0
1938 3722 0
-225 -3227 0
-1797 1409 0
-4025 -2699 0
-1237 895 0
-983 -3990 0
2350 -4259 0
-4003 1719 0
2885 722 0
-1093 1216 0
-1582 2095 0
1961 4043 0
1033 1465 0
597 3323 0
-632 -2243 0
-4298 -4304 0
330 4259 0
-1833 -1388 0
708 -1885 0
-4199 1897 0
-1607 637 0
2654 -3383 0
1099 -1336 0
-1772 -4267 0
-4052 999 0
-4232 2396 0
2885 849 0
-3206 3444 0
3018 2508 0
-533 -3135 0
3007 -2060 0
3796 3092 0
-968 958 0
-2574 3764 0
1017 1755 0
4339 1388 0
-1667 -2304 0
-2787 1428 0
466 -2155 0
-3382 709 0
3979 -1564 0
-2351 3334 0
-582 -1921 0
1958 -365 0
-1753 -67 0
-3400 -2987 0
-2269 3766 0
-1335 3135 0
-755 -2565 0
2721 1447 0
-3445 -2399 0
-92 -155 0
-2201 3021 0
1668 -3517 0
-2190 2220 0
-1788 3493 0
4296 3044 0
2741 -2210 0
324 4027 0
1579 2669 0
-56 -3384 0
-2893 -323 0
358 902 0
-557 3006 0
2794 862 0
-312 4013 0
-2016 -4193 0
3488 764 0
-365 -1582 0
1201 1377 0
-3292 1393 0
-1512 2868 0
-2880 -2881 0
-598 -66 0
4104 -4275 0
2857 -4158 0
3475 4387 0
-2478 -225 0
2951 3547 0
-3141 -670 0
1856 2047 0
3823 -692 0
3671 -3237 0
3340 4147 0
-383 -2698 0
522 2941 0
3391 -331 0
4286 -1637 0
-1543 2676 0
3818 -79 0
-1274 -754 0
-354 -1411 0
2530 3253 0
-93 -196 0
-2971 749 0
-694 3044 0
-499 2837 0
-2998 -204 0
1288 -224 0
-460 -547 0
-3885 3587 0
2520 -3316 0
2902 -3217 0
120 1708 0
-3670 4308 0
1166 -3111 0
-575 -2646 0
-2213 -402 0
136 3701 0
1004 -4335 0
-3367 4179 0
-4272 -2702 0
-2754 -1293 0
124 2442 0
950 -2820 0
556 1377 0
3563 -1463 0
4280 -3492 0
-2860 680 0
3191 1471 0
3157 -7 0
-1510 -2052 0
-2470 -2566 0
4098 4317 0
-89 -1555 0
894 370 0
-4310 1248 0
3911 2492 0
813 -670 0
3716 -564 0
-2277 -1739 0
-2481 -3290 0
2771 -2829 0
895 -2062 0
526 2004 0
-3892 -1623 0
-1949 -4229 0
3190 -1652 0
-2871 2644 0
-192 -3528 0
-3147 -977 0
1155 1884 0
-1338 -1195 0
40 -3831 0
459 -1932 0
-3263 -2390 0
1291 1726 0
3005 -602 0
2447 4373 0
-943 3096 0
-2562 -1121 0
880 -3124 0
-4123 2707 0
2066 -2337 0
-1988 -1277 0
2464 -918 0
-3809 1395 0
-4365 4255 0
-3582 -3383 0
-143 -2320 0
718 1165 0
1003 -1217 0
4108 -147 0
-3942 -762 0
1935 2985 0
1942 -1344 0
-1717 4387 0
-1293 1267 0
-2765 -751 0
3009 -1477 0
-3632 -1215 0
-3261 1154 0
-2474 -856 0
-1476 665 0
-2823 3700 0
-3354 409 0
1034 -75 0
-4376 -751 0
-421 -2590 0
1272 2416 0
-3818 -3877 0
-1461 1641 0
1635 2559 0
191 3994 0
-1932 2868 0
-3084 -687 0
1354 2798 0
605 -2914 0
-2338 3154 0
2535 -480 0
-3864 -1925 0
2710 -2863 0
-3406 -2812 0
54 2131 0
-2272 3044 0
3354 1673 0
-2752 -1869 0
-2565 -4188 0
1640 -86 0
-1925 183 0
2464 -551 0
2093 4157 0
-1982 -3317 0
1391 -3444 0
4387 -98 0
-4313 -2483 0
-57 -2217 0
-2164 1492 0
-970 4386 0
-710 1558 0
-80 1781 0
-1211 348 0
-1734 -2157 0
2269 -2778 0
4284 4351 0
-155 1720 0
-1766 -20 0
-740 2292 0
3245 2244 0
-3502 3646 0
-1734 3706 0
1575 -3832 0
-698 -60 0
971 -389 0
-2146 -1084 0
3999 -1305 0
-3527 887 0
2183 -3578 0
-225 3486 0
1472 -863 0
-3709 -569 0
-829 1210 0
-1974 287 0
2359 376 0
-2852 1930 0
-400 -2422 0
3732 3799 0
2018 3527 0
-3440 588 0
-2947 2937 0
1614 2850 0
-2010 1752 0
2756 -1306 0
-3404 -1968 0
-2166 3257 0
-2089 2794 0
-1140 3182 0
-309 1602 0
640 -2646 0
3173 -2071 0
1357 -3957 0
2144 -3654 0
933 -2961 0
-3133 1278 0
1986 3278 0
-808 -1481 0
-237 -2698 0
3700 3868 0
1453 -2267 0
-1583 -3088 0
-2626 359 0
-2472 -327 0
4184 770 0
-4085 -2376 0
-3218 4012 0
-2095 -3534 0
-1132 1105 0
-3189 -1144 0
-4192 -1934 0
-4286 654 0
676 -2022 0
1673 3995 0
4161 -2988 0
1919 -4303 0
-2507 -3778 0
491 2834 0
-513 -3476 0
3346 -1403 0
-1687 -4155 0
-1233 -2260 0
-1210 3060 0
3679 -990 0
1660 -2132 0
3851 -129 0
-808 -1421 0
-3371 -4122 0
-3065 -4160 0
-2655 3451 0
2083 1697 0
3235 3979 0
-2563 3855 0
-2600 -1759 0
3984 2287 0
3040 -3998 0
-1097 1216 0
-2213 -1439 0
705 -1045 0
3459 2948 0
1453 -4096 0
1224 -417 0
-1294 3026 0
3491 3377 0
-4089 3238 0
655 -3488 0
-3499 4296 0
4234 1478 0
-1655 -3147 0
2378 -293 0
-131 -2111 0
637 3302 0
3482 2687 0
-1634 -2991 0
940 -2429 0
319 2241 0
3514 -1068 0
2135 272 0
3352 -3768 0
-2016 -2093 0
4179 4376 0
-3748 -134 0
203 -1760 0
1043 2743 0
426 -3802 0
-3397 1303 0
2220 -509 0
-1382 2721 0
-852 -4014 0
3472 -4186 0
2804 -2625 0
902 3098 0
-3569 -59 0
1987 -3023 0
-751 3381 0
-852 3130 0
3865 -3915 0
1814 -103 0
-481 3018 0
4023 1867 0
-3053 -3395 0
2519 -2832 0
1258 -338 0
-3479 -563 0
636 -1750 0
-1289 761 0
-1793 2017 0
-4214 3610 0
2429 1504 0
-1650 3397 0
-1935 725 0
-211 -2514 0
-752 4001 0
1805 -3034 0
3593 2717 0
3829 -425 0
-1529 -2619 0
-3275 -1526 0
3418 2269 0
1274 846 0
1180 4005 0
1338 2358 0
-2956 -2795 0
2311 -2500 0
994 -2414 0
1565 2330 0
-3318 2589 0
2853 -3331 0
-2279 3781 0
330 515 0
1879 -724 0
3182 750 0
-397 -1318 0
-2689 -1372 0
-146 2119 0
3670 -2676 0
-476 2604 0
-3545 -878 0
3214 2400 0
2342 2361 0
3864 -3645 0
-117 -3783 0
-2597 1597 0
-2800 2626 0
-1252 1683 0
2683 2229 0
3652 -3415 0
-1370 -1554 0
-2718 2134 0
2104 2037 0
2899 1559 0
3572 -2619 0
3593 2776 0
-2557 387 0
-3260 314 0
-3248 -116 0
-1968 2773 0
-3560 -4166 0
-1669 -416 0
2154 -540 0
-1556 2284 0
594 2938 0
-3156 3541 0
1477 -3098 0
3534 1040 0
2721 1480 0
36 2802 0
3430 -2695 0
2175 4183 0
1169 -955 0
2276 -824 0
1258 1255 0
3210 -1576 0
4261 -3135 0
4071 2363 0
-4338 -1113 0
1339 -2912 0
1330 3997 0
3743 602 0
2206 2671 0
-2639 -1556 0
-4268 2004 0
247 673 0
-1511 -2909 0
252 331 0
-4247 2974 0
-3974 -1573 0
-2102 -3262 0
-2625 -2217 0
3182 -3097 0
1775 2250 0
-2323 -2637 0
1608 3243 0
-3922 -218 0
3588 -1153 0
-134 4302 0
-2605 -1030 0
2546 2378 0
-397 2147 0
-1372 4371 0
-1792 -2336 0
-1005 4108 0
1939 -3361 0
-3968 -3722 0
-1718 597 0
41 877 0
3800 871 0
-2474 2254 0
-2393 -2011 0
2894 -1268 0
1528 948 0
-339 -3258 0
-73 -2550 0
306 -2085 0
-1906 47 0
-2279 -2561 0
3360 1555 0
-3641 1715 0
-302 1239 0
1234 2703 0
-361 -4334 0
-3989 548 0
1620 -1045 0
1232 4348 0
-4230 3070 0
-2573 -3466 0
-3335 1138 0
3562 -2015 0
2164 547 0
3743 2129 0
2250 -2028 0
4364 -1829 0
3124 -315 0
3225 -1283 0
-3241 961 0
-785 -1172 0
13 3599 0
-1009 -2664 0
1922 -1002 0
2794 1677 0
-3309 2686 0
-4231 -923 0
-1024 -3160 0
-2892 -1408 0
2285 -484 0
4006 4297 0
294 4258 0
-2814 376 0
-2765 -2394 0
3045 -2399 0
2661 2794 0
40 2168 0
3117 -635 0
3226 -929 0
1681 3549 0
2581 1096 0
1268 -1283 0
-2565 2744 0
-37 1790 0
-3830 2795 0
-2222 4070 0
-2346 -3955 0
-2866 -1922 0
3300 757 0
2424 672 0
-3782 -4202 0
4047 -3751 0
3434 3709 0
2977 1986 0
-1797 1250 0
1988 4225 0
3654 -306 0
-3200 121 0
-2740 367 0
3624 -2083 0
-274 -4151 0
745 -3734 0
-3755 -873 0
-76 -179 0
2971 -3942 0
-710 -1911 0
4212 910 0
974 241 0
-2003 811 0
1451 14 0
-2384 -1205 0
1447 1985 0
3652 -4216 0
305 -2128 0
2434 785 0
3199 -3006 0
-2046 -1630 0
-3926 -2442 0
-3172 -2698 0
2928 -2699 0
2071 285 0
-1343 2160 0
-3379 4134 0
2079 -1650 0
3351 3639 0
3658 2052 0
-1533 -4312 0
2587 3246 0
3613 4279 0
-3027 3628 0
-501 3434 0
252 4241 0
-1335 3555 0
424 3374 0
-920 -3301 0
-1317 471 0
-2355 2530 0
-2016 3103 0
-2565 -1069 0
895 278 0
1975 -2597 0
4181 -2155 0
1642 -268 0
731 -1095 0
1843 1448 0
-523 1039 0
4270 -1982 0
-1533 -928 0
331 -2048 0
1867 2235 0
-1920 -1037 0
222 -555 0
-3501 1630 0
3422 -4058 0
-2505 -1223 0
-4165 3607 0
1975 3208 0
-2517 4361 0
4216 3378 0
12 -1345 0
-2497 2642 0
-4038 415 0
-122 -1256 0
-932 -3686 0
-2504 382 0
473 2614 0
-3323 849 0
-44 -3649 0
4066 1146 0
-3362 -3678 0
3583 3124 0
-353 -3470 0
-692 -3736 0
1943 468 0
1435 -2410 0
-2490 -177 0
-1467 3925 0
-3072 -1396 0
3625 1342 0
3794 -3858 0
-1574 3793 0
1255 -2107 0
3162 3287 0
-418 2136 0
-270 838 0
-4219 -1963 0
657 3088 0
2920 2950 0
2104 -4106 0
1588 -3939 0
-3357 -3277 0
-785 -3298 0
-1621 -1139 0
-3094 -3146 0
-1062 1272 0
259 2869 0
-2719 -4192 0
-2616 1937 0
-2280 2053 0
-1960 2606 0
-4271 3971 0
639 2201 0
3391 3483 0
1827 2024 0
1343 2643 0
-2086 2771 0
1262 1252 0
2529 2007 0
-2346 2640 0
-830 -2715 0
3952 -2005 0
295 2697 0
175 -293 0
-2206 1405 0
408 2601 0
-1477 3111 0
2949 3911 0
4126 -3359 0
-2228 508 0
1489 -2536 0
-3905 -3846 0
658 -2848 0
-1612 1581 0
1790 -1304 0
1378 1542 0
418 -1596 0
933 3762 0
1141 -3024 0
-1690 -19 0
2160 -2301 0
-4013 -486 0
1173 -3384 0
-3879 -4166 0
3306 1867 0
2760 -1142 0
1027 3637 0
4320 -1865 0
1276 4287 0
1072 -2069 0
-3596 1855 0
782 1298 0
-4162 2363 0
-3983 -3629 0
-3769 -4245 0
-4333 3996 0
-653 2606 0
-2110 4202 0
3297 -615 0
635 419 0
-2879 -72 0
462 1659 0
-189 1394 0
2087 1635 0
-3476 4288 0
2840 2093 0
872 4162 0
-3201 2661 0
2599 -3096 0
2990 -350 0
-3531 1503 0
2974 3113 0
1815 491 0
-3476 46 0
1349 -748 0
3707 2105 0
-30 -4260 0
-1074 87 0
-1074 3652 0
529 -4085 0
1220 -2979 0
-1530 -1136 0
3559 3915 0
3523 -1211 0
-289 -3052 0
3572 3121 0
-2 -4380 0
1862 4163 0
487 662 0
-1737 182 0
3402 3664 0
2965 -1690 0
3086 -784 0
-2896 4241 0
3800 -2813 0
1111 386 0
867 24 0
-920 -1051 0
436 -3439 0
-2618 3354 0
3603 -3923 0
1602 3460 0
-3490 2468 0
-3389 -2729 0
4117 3959 0
1727 1998 0
-364 1690 0
1642 3065 0
-2739 147 0
-1337 -3985 0
2609 -267 0
-1629 179 0
-4239 -2524 0
-2490 1193 0
-1475 -3266 0
2164 -1979 0
-3094 3093 0
2948 360 0
-4254 2568 0
-1099 1410 0
-2506 2162 0
3526 -696 0
-1971 -352 0
89 1171 0
-1460 3494 0
4142 -3525 0
-101 -323 0
1225 -2778 0
-1155 -2103 0
-2781 602 0
2302 2491 0
-3234 1749 0
3072 -1893 0
4173 2694 0
-2410 -1242 0
-2203 951 0
586 -3935 0
-3357 3514 0
1093 3177 0
1367 -3511 0
-4174 -4266 0
-2712 1953 0
-535 -189 0
2233 -1473 0
-3418 -4194 0
966 -4292 0
1160 -1088 0
371 -342 0
2340 1973 0
-3684 -4044 0
-1341 682 0
2357 -3636 0
1574 3048 0
774 -2844 0
1537 2878 0
-153 -4143 0
2403 -2326 0
989 -2163 0
2465 -2345 0
3174 -3906 0
-2242 -1330 0
1575 3674 0
2334 2951 0
-1820 306 0
1169 -1925 0
-1289 -3079 0
-2316 416 0
-3255 4356 0
-2625 -836 0
-825 -1797 0
-1314 2099 0
4097 4069 0
-784 -3368 0
-1948 2118 0
4164 1878 0
1990 1227 0
1884 1764 0
656 3599 0
-336 3044 0
-2414 2 0
1103 4157 0
-3240 -1595 0
-3200 -1808 0
1125 2596 0
-3700 -2154 0
219 -2017 0
2582 3955 0
771 -2649 0
1862 2868 0
-530 -3214 0
-3019 -604 0
-2729 -1380 0
-1980 -2756 0
4323 2529 0
695 -1074 0
-3605 3181 0
3445 2012 0
-2310 -2484 0
-1058 -1312 0
-4245 960 0
1203 3464 0
2289 -3410 0
-3207 -36 0
-87 -25 0
295 -3614 0
-969 -4021 0
639 -855 0
-1240 -2813 0
3991 -2448 0
2423 -2195 0
-2442 -2597 0
-551 3137 0
-2936 4327 0
-2856 2173 0
4035 3210 0
-1795 -3062 0
-3590 -3769 0
-26 -54 0
-853 2507 0
1915 -27 0
-192 1784 0
-2696 2142 0
-1513 -2150 0
964 -1570 0
4129 668 0
-2564 -3262 0
-3892 3180 0
1201 202 0
-2509 859 0
-3829 2407 0
-4229 -1308 0
513 -2353 0
-3446 -137 0
-1387 -1608 0
-1874 3521 0
-1640 899 0
2489 -2855 0
2691 891 0
2886 1796 0
1343 678 0
-942 4188 0
-4308 988 0
-3939 655 0
3798 -3713 0
-1352 3363 0
1090 3116 0
209 -596 0
-1863 3493 0
4000 -2497 0
-875 -1353 0
-2677 3773 0
-1333 -2966 0
2060 1298 0
1602 2071 0
-300 -1177 0
-4163 927 0
-842 -3283 0
-3463 2686 0
-669 -920 0
-2883 2846 0
-2263 3113 0
4174 350 0
-3528 -4272 0
-327 -46 0
3698 2632 0
-1126 -1839 0
-3278 -183 0
-1462 -3729 0
-3260 -3358 0
-4296 -554 0
1034 -3140 0
908 -3310 0
-1972 2938 0
-4249 4274 0
2094 784 0
97 3921 0
1818 3200 0
-4326 3628 0
3093 191 0
-1588 3588 0
-3565 2675 0
-1658 1288 0
3486 -143 0
-587 -2754 0
-3858 2351 0
3377 814 0
-1017 4016 0
2514 -3158 0
3021 -636 0
541 -385 0
2734 -97 0
-3618 -4344 0
3286 2982 0
-952 -2880 0
-178 4028 0
-1291 -4168 0
144 2744 0
-2855 -3327 0
746 845 0
1628 -2887 0
-930 -1192 0
-2788 1093 0
1540 -1905 0
3337 -153 0
-2131 1515 0
3138 1785 0
-1387 4333 0
-2237 -3767 0
-5 -2067 0
-3632 3369 0
2613 -3355 0
1697 1369 0
-267 2586 0
2151 966 0
-3975 1035 0
-3580 1836 0
3421 882 0
-1064 -1565 0
4374 1606 0
1555 482 0
-2069 80 0
2520 2864 0
-3805 2353 0
3157 -3130 0
51 3628 0
3063 962 0
-977 -492 0
-3623 -1334 0
-2076 1906 0
3718 -263 0
-484 -1834 0
-3278 -2090 0
-4048 936 0
3738 3422 0
-2114 2280 0
-1436 2836 0
-2380 -3388 0
-2320 3390 0
3446 2006 0
2125 -1958 0
968 -1936 0
506 -2563 0
-941 -2222 0
-3842 -3677 0
-1250 -165 0
-4261 -2735 0
-1137 -3107 0
2162 -3878 0
4070 1549 0
3794 -61 0
1930 3311 0
-699 -3528 0
3977 2656 0
1808 -750 0
-1331 -196 0
-3518 -4349 0
-3445 -2495 0
3937 -1123 0
-3267 -928 0
184 2412 0
-1182 149 0
-420 764 0
-2378 -3152 0
-3848 -826 0
3752 -128 0
-976 -1797 0
-3071 -431 0
-3036 3699 0
-989 2490 0
-987 -397 0
2582 -299 0
3587 -3503 0
-1306 3782 0
3328 740 0
1088 4288 0
-2206 1578 0
-46 3129 0
2001 -2281 0
2632 -2122 0
3141 2747 0
2265 -1189 0
4371 415 0
2036 -104 0
-1181 -4149 0
-248 911 0
-1532 -2857 0
-2608 1947 0
-2584 -1234 0
3604 1299 0
-2064 -2597 0
1177 -2410 0
1875 -3273 0
3178 2526 0
2202 1008 0
-2197 3338 0
-1430 1347 0
-1767 -710 0
-3457 -536 0
4299 1842 0
558 3303 0
2828 1070 0
1019 2841 0
-2366 -1932 0
3950 2897 0
1231 781 0
-1192 -4210 0
2851 -1494 0
-2126 1349 0
-4177 -506 0
3144 3490 0
1255 2672 0
-228 -3819 0
-2758 954 0
944 4143 0
446 3883 0
127 -2852 0
2249 2839 0
-1785 2915 0
-637 858 0
140 -796 0
4113 -2254 0
800 2745 0
3124 -1323 0
-3603 987 0
-3903 -809 0
-874 183 0
209 2821 0
-1154 -1523 0
3372 -684 0
-3015 805 0
-3590 497 0
742 -3358 0
392 -1026 0
-616 2359 0
-2375 -2932 0
-402 2740 0
-507 1683 0
-689 -2739 0
178 -190 0
-2277 -3676 0
-1669 -3453 0
2492 -2782 0
3902 3146 0
-442 -3102 0
2397 -2559 0
-1887 -4302 0
-1926 -3469 0
-179 238 0
-501 3541 0
-3612 3054 0
1993 1239 0
-4282 -2576 0
-628 -3245 0
637 -3463 0
-1149 4271 0
-2742 -3255 0
1746 -2855 0
-2390 -417 0
1782 654 0
993 -1537 0
2271 3518 0
-3578 1568 0
4088 1990 0
2890 -2765 0
-1713 -4229 0
-3391 -4270 0
-80 -2417 0
-1760 2504 0
3303 467 0
217 2385 0
-873 -3088 0
2531 -1504 0
-2521 -1016 0
2030 2181 0
2324 2888 0
114 1617 0
-1053 -2474 0
-1456 -2153 0
1648 2548 0
-4308 -1225 0
493 -3906 0
4013 1517 0
-1382 3051 0
-2966 -993 0
3837 -1053 0
-4198 399 0
2362 -909 0
-3603 679 0
-2073 -2162 0
-249 -1828 0
2587 -3258 0
-1550 1321 0
-4245 1564 0
1127 941 0
1637 3585 0
-2602 -1190 0
-3929 -1210 0
1031 -1351 0
3388 -2147 0
-543 4083 0
2325 1668 0
-1446 -2073 0
59 -201 0
1866 -3070 0
-2107 1982 0
2990 -1920 0
2285 -3872 0
-1513 -2783 0
-116 671 0
-1387 -3477 0
2949 1878 0
-3894 485 0
349 -167 0
-2577 612 0
-4162 -1289 0
2459 -2641 0
282 -512 0
661 -2333 0
-1464 2250 0
-2391 1511 0
1369 577 0
-1675 -3511 0
-3606 2896 0
-3267 2132 0
-8 -680 0
3790 2686 0
-1036 3048 0
-3292 -1540 0
-1733 -2332 0
376 1173 0
723 -4309 0
-2092 -2339 0
3204 -4137 0
-1566 -1623 0
-79 -2422 0
-1798 -2625 0
-2357 -2457 0
-3966 -497 0
-1986 3334 0
4174 200 0
-252 2088 0
-3295 -970 0
104 1126 0
-4112 -4214 0
-4254 -3440 0
1896 3405 0
3227 1326 0
-87 -3662 0
3267 -2195 0
2902 4032 0
1371 -3519 0
-175 1165 0
-2972 -1507 0
4121 3659 0
2953 -3983 0
-758 -2132 0
687 1260 0
4236 -4158 0
865 -3499 0
-1982 -3252 0
-1270 427 0
2129 4134 0
-1727 1379 0
-1534 4167 0
3736 28 0
2113 -2869 0
-23 -2740 0
-2639 770 0
-390 2930 0
4106 3652 0
318 -406 0
356 3738 0
656 1819 0
3167 -247 0
-3528 -3022 0
3829 -410 0
-2046 3610 0
-4303 -1771 0
3987 1058 0
-1644 4205 0
196 2930 0
-59 -1442 0
-1139 3482 0
-2458 -1428 0
-2121 -2740 0
-2033 1643 0
1857 -4088 0
4029 -3554 0
-156 2862 0
1404 2207 0
-893 1997 0
-1747 -805 0
-3234 -2969 0
3771 -4027 0
-1024 3476 0
3172 958 0
-1679 3361 0
-3670 -1861 0
-69 -445 0
-1560 1614 0
-207 2681 0
3727 -1456 0
390 -4367 0
-704 1563 0
-2345 -3613 0
-4220 3755 0
1812 -3444 0
-176 56 0
-3076 2880 0
2096 -2615 0
3799 -3195 0
-664 -2444 0
4185 1497 0
-4260 1342 0
2692 -3694 0
3571 -3158 0
-1604 -3699 0
1054 -2168 0
-1666 -2522 0
-2801 3023 0
2838 -3939 0
3484 2888 0
-987 2879 0
-1688 -3712 0
1160 -462 0
-2817 -1284 0
1461 513 0
1418 -2101 0
1170 -2950 0
621 -841 0
-3921 3671 0
-930 2215 0
-1587 1933 0
-1243 -941 0
1037 3349 0
2228 4206 0
3183 4341 0
3591 -1039 0
-4281 685 0
4249 3134 0
-3877 4332 0
980 3429 0
-425 -2336 0
-2076 -1967 0
761 -1065 0
-4337 -3923 0
-3692 -3744 0
3744 -816 0
2291 -2685 0
1733 -2187 0
-11 3790 0
735 530 0
65 1300 0
3152 -3350 0
-3895 -2205 0
-569 -945 0
-3294 -2921 0
247 -134 0
-1926 -1061 0
2154 -3893 0
-1903 2552 0
513 2478 0
-1954 3104 0
-1984 2950 0
-2024 1765 0
2474 -3903 0
-3155 -2071 0
-3569 -1322 0
3952 745 0
-1148 -1350 0
641 -628 0
-3889 -3663 0
1981 -848 0
4277 -1327 0
-1637 3012 0
-2575 -3029 0
-610 -2177 0
-4362 -2240 0
3623 -1377 0
-711 -195 0
-2050 1161 0
2657 -1316 0
-960 3646 0
-256 3430 0
3509 139 0
2999 -2495 0
1793 -1142 0
1679 2741 0
-4139 3936 0
1171 2425 0
-46 -2470 0
-4316 4317 0
-2677 2430 0
-599 3084 0
2374 -2781 0
2319 223 0
2755 2712 0
-340 3327 0
55 1151 0
-514 -4036 0
2814 -2583 0
-3176 -664 0
411 -1799 0
742 -1792 0
3601 -1480 0
-4070 -2749 0
1602 2642 0
733 3878 0
537 -1324 0
4102 3535 0
1012 1984 0
2435 2251 0
-1949 2100 0
-390 2176 0
-358 -1513 0
-888 1541 0
2883 840 0
-4262 1004 0
1708 1026 0
-3195 2216 0
-2132 1362 0
-692 -1206 0
-3175 -2640 0
-3078 2820 0
3029 409 0
-3127 -1011 0
-2339 398 0
2387 -2019 0
675 3689 0
-3098 436 0
3396 4021 0
4273 -3622 0
-696 1422 0
1802 2500 0
3481 3362 0
4317 2703 0
-753 4156 0
-3667 376 0
2248 -632 0
-2998 -1348 0
4356 3122 0
-2054 -1636 0
2780 2182 0
-2170 217 0
367 -1085 0
-1382 3796 0
-4139 -1652 0
-2575 3881 0
-866 -2267 0
3055 -1277 0
2810 -4094 0
-2888 -2909 0
-4310 -610 0
-3382 496 0
989 909 0
-2091 2918 0
-4133 3126 0
-633 271 0
-2320 1663 0
-3974 -2465 0
-763 -1687 0
4313 -1181 0
2680 3134 0
-4026 482 0
4237 3067 0
-1934 1220 0
1517 -1353 0
-155 -1032 0
2111 -2552 0
870 4002 0
1050 -3557 0
-684 2164 0
4340 1213 0
733 -4184 0
55 -3138 0
2950 1900 0
2106 493 0
960 3040 0
-1262 -2020 0
4253 2551 0
256 3025 0
1110 60 0
-2912 -4043 0
-2542 -766 0
3354 2741 0
-2005 -1173 0
-305 -1795 0
414 -1297 0
-3774 -4239 0
-740 -4135 0
-1190 -686 0
-2279 -1835 0
2001 3821 0
3493 4208 0
3208 761 0
2295 -811 0
-2971 3900 0
-655 -1631 0
2419 2543 0
-2602 4300 0
-3029 -3403 0
-1079 -3184 0
-107 1886 0
-4138 1487 0
3954 1436 0
287 -3292 0
-4367 3828 0
668 -1049 0
137 -4152 0
2420 -3099 0
-492 3300 0
2603 2141 0
-2137 2266 0
958 -4272 0
-2912 -2834 0
1887 -3199 0
3122 -2535 0
-3500 -3923 0
-1405 940 0
3899 1494 0
4366 2000 0
-4278 1194 0
-2298 1605 0
-3632 3434 0
-482 -2792 0
1795 3985 0
1347 -1528 0
3971 -2750 0
-2834 -656 0
3450 1404 0
2995 -1563 0
2255 195 0
-1057 1359 0
3547 -5 0
2399 114 0
-1344 -2766 0
-926 3867 0
-115 944 0
2820 4175 0
-2696 805 0
-314 -3698 0
3343 3113 0
40 -4278 0
-2465 2551 0
183 4026 0
-2116 2078 0
-3399 -1281 0
-1916 -2648 0
-1353 2057 0
1715 -3837 0
-2585 -3814 0
321 -1191 0
-1636 -2085 0
1971 -3266 0
-1742 4122 0
-817 -2550 0
379 -389 0
640 -658 0
149 -3719 0
545 1512 0
-1651 1457 0
-1424 -2719 0
-452 628 0
-53 -1086 0
-1 -2623 0
-2656 3897 0
4215 -4271 0
-3960 -4218 0
2397 1643 0
-192 -2932 0
3801 2468 0
758 -671 0
1383 4176 0
-2346 -3887 0
637 2614 0
545 2582 0
895 731 0
3121 -3972 0
1471 3283 0
-3502 2101 0
-1624 2159 0
-1648 1448 0
605 3843 0
3117 -862 0
95 -1568 0
-597 -3782 0
-3443 1115 0
1262 2169 0
1307 -3448 0
-1316 -2002 0
-3760 -1225 0
1055 -1683 0
2367 1818 0
-709 332 0
2486 2156 0
-2021 1357 0
3173 3902 0
-1419 1116 0
-1210 3758 0
-2090 -2531 0
-1263 -563 0
2899 2354 0
1488 1303 0
33 4254 0
223 -1292 0
3270 1540 0
-4370 -3751 0
4025 -2593 0
359 -1736 0
149 -2304 0
3209 -4318 0
2649 3531 0
-668 1344 0
-4287 -4303 0
-1134 1302 0
3271 -1580 0
732 457 0
-2967 1784 0
1262 -420 0
1650 -394 0
-2797 4010 0
-571 2193 0
-4031 -552 0
-1920 1088 0
3909 2585 0
-3849 3306 0
2250 621 0
2058 421 0
933 892 0
2745 1162 0
2628 -3443 0
-4251 3035 0
539 -93 0
2192 -28 0
-4362 -4031 0
-2996 -3488 0
2838 -820 0
-962 2204 0
-1476 -2302 0
2894 -2379 0
501 4236 0
-4026 1842 0
-1886 1899 0
-475 -2313 0
3839 613 0
3340 -1867 0
-4013 -2296 0
-2797 2334 0
1454 -1985 0
3907 -1276 0
56 -813 0
3677 -1611 0
2876 -600 0
1004 -4048 0
-1787 -3770 0
-2676 -1587 0
1210 -780 0
-759 -1292 0
-3255 -724 0
-3694 1752 0
-3712 4028 0
960 -1488 0
-3416 -3769 0
-898 -3960 0
-420 768 0
-423 1556 0
370 -2512 0
1912 -746 0
3035 -4233 0
3886 -1601 0
1019 2650 0
1098 -145 0
-1024 -3974 0
-160 -3280 0
-3793 3471 0
-1238 -1562 0
2364 -515 0
-190 1023 0
-2606 1929 0
907 1328 0
2438 -288 0
955 2710 0
529 -556 0
-4362 2764 0
2105 -2073 0
-3815 -2993 0
-691 -879 0
-837 2093 0
2266 1595 0
156 2884 0
4122 -3989 0
-3643 -3605 0
-3194 1581 0
-2335 -4314 0
613 -3255 0
-4123 3645 0
760 607 0
2693 3821 0
2738 304 0
-3200 -3035 0
3912 4005 0
-84 -2399 0
2352 -385 0
91 -879 0
900 -2380 0
-1090 1697 0
-3980 -507 0
-525 -320 0
-1673 2370 0
2489 1075 0
-1076 2839 0
1007 461 0
-2242 968 0
-3099 2962 0
3588 -3578 0
-2837 589 0
1739 2261 0
1808 3049 0
2459 2158 0
2525 -1129 0
4207 -2144 0
635 4098 0
-3278 110 0
3979 3501 0
-1200 1177 0
-3827 3704 0
1801 -2734 0
-4197 -2476 0
884 -1348 0
2416 -202 0
-3147 3929 0
-1158 -2336 0
-2639 3118 0
2070 2971 0
-159 2209 0
-237 3313 0
4116 -4179 0
-2678 -591 0
880 1503 0
-3576 999 0
607 3802 0
961 -874 0
-1508 2143 0
-2080 1454 0
-1572 -2879 0
586 1218 0
-895 -242 0
3063 376 0
-2225 4382 0
-90 801 0
2070 -2631 0
-724 -2563 0
2319 -1429 0
1871 744 0
1026 4364 0
3552 -1519 0
1908 2030 0
-669 1097 0
-2399 2576 0
1957 1743 0
1223 1348 0
-476 3276 0
-3833 3110 0
-200 -297 0
-2444 2220 0
-588 1115 0
-891 3481 0
-4197 -1091 0
292 -1117 0
359 150 0
2636 3443 0
-382 3557 0
1668 1952 0
-259 2913 0
-1374 3130 0
-302 -1454 0
2538 3108 0
838 3237 0
1255 2520 0
-1222 -422 0
2934 -754 0
-2813 3169 0
1821 4121 0
-2744 459 0
-3863 2377 0
-123 -814 0
-38 3734 0
-930 -1142 0
-2856 3632 0
-3496 -1895 0
-2891 2575 0
-36 -3426 0
1531 2084 0
1668 3656 0
-1571 -1216 0
-3604 1206 0
-1445 3722 0
-4059 4078 0
-3039 -984 0
-1927 -98 0
1489 -916 0
-4064 2167 0
3711 -75 0
1810 532 0
-1944 378 0
-695 -3262 0
-1796 -4213 0
-746 -468 0
-4061 4353 0
-4360 1452 0
-924 3291 0
2622 -2328 0
-1072 -3974 0
-2400 3306 0
-3447 -3122 0
-1835 2464 0
4181 1635 0
-2734 964 0
-3453 4089 0
-2524 781 0
-2919 -2115 0
-3201 2206 0
2496 -492 0
-2772 663 0
1783 -1184 0
883 3838 0
2065 4322 0
1619 181 0
-2425 2378 0
4097 -3570 0
3178 -2532 0
-1590 3716 0
-2655 -551 0
2220 2292 0
3397 -3432 0
2880 988 0
-4165 -4331 0
-3131 2075 0
-3143 4179 0
1223 -2114 0
145 -302 0
4188 -2695 0
-687 4118 0
-215 3902 0
-3847 -1103 0
2322 1722 0
-2161 -1477 0
-2857 3431 0
-1774 -486 0
-1625 287 0
2116 3796 0
1737 1846 0
-2222 -1630 0
-3782 -3942 0
4341 828 0
1631 -1655 0
-3532 981 0
3958 -581 0
-627 -3973 0
-803 4374 0
-3216 -177 0
-824 4211 0
-3569 -2365 0
-525 -2765 0
1804 -2966 0
-2136 371 0
-3324 3948 0
2411 1254 0
-766 -157 0
-1778 2692 0
-3791 -2564 0
4376 489 0
-3079 3266 0
-456 -2401 0
-32 1971 0
2001 -1452 0
2407 3600 0
1098 792 0
-3186 9 0
299 160 0
890 1523 0
-2348 2553 0
3021 -1329 0
243 -1001 0
3757 -1026 0
-2847 1242 0
777 -603 0
-1281 -697 0
1841 445 0
-888 -3128 0
-85 -4342 0
-1758 -1422 0
-449 -521 0
753 1162 0
4074 -767 0
-1688 465 0
1495 -4044 0
-1295 -1927 0
-1085 -410 0
2225 -2648 0
1444 -3950 0
2954 4118 0
4125 -513 0
-3517 -2274 0
-2704 1834 0
4144 -1551 0
-727 -3910 0
-277 -14 0
727 1202 0
1187 2933 0
-925 4032 0
-3498 -4207 0
-1835 -2015 0
1349 2550 0
-222 2287 0
1879 -1857 0
-3792 -3571 0
3377 1951 0
-2873 1811 0
-682 4175 0
2406 -2177 0
-2012 -3868 0
-1657 -602 0
2859 677 0
1182 2743 0
62 1812 0
-633 1550 0
-2280 4210 0
3946 3471 0
1199 2419 0
1605 4116 0
-3521 -4324 0
-4226 -4117 0
-3726 -1519 0
-4096 1201 0
-4165 1670 0
-1680 3053 0
-1787 443 0
3934 -3328 0
4028 438 0
-253 2525 0
3900 -3340 0
-2602 3870 0
674 2014 0
-1803 543 0
-860 -4384 0
-1046 4346 0
-3070 1869 0
-3682 -2145 0
2288 -3094 0
810 -1820 0
-2179 -1498 0
3372 -459 0
870 4217 0
-1048 2950 0
3638 3630 0
3035 -2784 0
-3123 -4198 0
499 -4142 0
-2805 3600 0
-2398 3148 0
2018 -2356 0
-1900 -3072 0
1492 3039 0
-47 2971 0
-2677 1122 0
-3428 -2856 0
-3298 -307 0
-2206 -1645 0
-517 -4278 0
-3257 2298 0
-1596 4050 0
-628 -3242 0
3741 -1710 0
4234 1783 0
-1002 -1874 0
-3877 2408 0
3867 -3075 0
-2191 -4263 0
-1631 -701 0
2153 -3848 0
-2166 3473 0
1956 -1747 0
-23 -1117 0
749 2438 0
2647 -5 0
3515 -4149 0
2419 622 0
1606 -2968 0
4215 -1157 0
1085 -1158 0
2539 -772 0
-969 -1183 0
2940 -1196 0
3346 -3467 0
-1855 3623 0
-600 -734 0
-821 830 0
3105 -2480 0
139 1865 0
-1582 1726 0
841 -4012 0
1499 624 0
-1832 3694 0
673 -189 0
3148 2700 0
-3217 -2945 0
-3211 -2714 0
-2272 -4341 0
2403 473 0
-2358 -1776 0
3012 188 0
470 4067 0
4196 -2258 0
1812 -2637 0
3884 1355 0
-4163 -1411 0
-445 440 0
-517 -2760 0
-523 -769 0
851 1341 0
-3725 2834 0
531 -2307 0
-521 2747 0
-2416 1553 0
1694 -4380 0
4114 186 0
-664 -1985 0
3995 -4277 0
2310 1450 0
-3184 3762 0
-3601 -3318 0
-2853 -2060 0
411 424 0
2641 -2704 0
-2885 3018 0
1340 -1165 0
-1154 1766 0
-3397 -2171 0
1833 -3782 0
-798 -2057 0
-3062 -7 0
2430 -3818 0
-1221 1402 0
2522 688 0
2104 -2599 0
-4098 3445 0
963 2245 0
-3539 -2027 0
-328 566 0
52 1668 0
3925 -1631 0
1354 -3240 0
441 -963 0
-2081 2075 0
1815 -2916 0
1685 3050 0
-3394 4180 0
1987 108 0
-1234 -3684 0
-3916 -3127 0
-1429 172 0
1864 -1249 0
1641 -3908 0
-4122 3561 0
-432 -1571 0
3741 -868 0
143 260 0
-838 -30 0
-1733 3016 0
-2518 3172 0
-900 1227 0
604 -975 0
3508 3245 0
-3746 -3388 0
-1549 3799 0
-1134 2896 0
-73 -2276 0
2728 4201 0
175 -4257 0
-199 3587 0
-2578 1563 0
-3268 -2590 0
971 -387 0
426 2765 0
4365 -1198 0
-718 3390 0
-1993 3964 0
1545 -1545 0
-2102 463 0
-740 4010 0
-2931 2172 0
-729 2240 0
-2068 3377 0
-635 -3171 0
39 3418 0
2715 -3842 0
-1687 -23 0
1846 -3917 0
2419 1359 0
-1532 -560 0
2556 -1682 0
3675 -2333 0
4079 -4182 0
-3041 1021 0
-194 -4179 0
-3425 -1880 0
3877 -1416 0
-2887 -633 0
-1036 -1045 0
2968 -1151 0
-3717 -3267 0
2258 2831 0
-3475 2600 0
-2344 1458 0
1327 -3307 0
3331 2828 0
806 3881 0
-2382 2291 0
1439 2611 0
-1325 -21 0
-27 1786 0
-1168 -1804 0
3235 2411 0
952 1489 0
3024 -2596 0
-3452 -686 0
1648 971 0
3243 2202 0
-2393 1404 0
2412 3895 0
3578 768 0
2030 -1256 0
-1351 -36 0
-1237 -1208 0
-1637 277 0
1 -3145 0
2474 -606 0
-4068 3485 0
2737 -3447 0
-1916 -2228 0
-646 -3498 0
-4259 -2129 0
4001 -1662 0
-3959 -198 0
4032 -1684 0
2203 -2786 0
1861 2644 0
2939 -1456 0
-4304 2428 0
877 3474 0
998 -2409 0
4006 -4216 0
-2801 -4116 0
3813 1189 0
4245 3377 0
4222 1676 0
2133 -3504 0
-1281 1631 0
-2029 1444 0
-983 -3971 0
-2114 -3242 0
-3802 -1655 0
-3548 2748 0
4281 2921 0
-1167 2178 0
1501 1094 0
647 -2108 0
-3879 953 0
-2805 4145 0
-2161 1372 0
-1073 1145 0
4070 -928 0
1125 160 0
-913 3337 0
-4188 1127 0
-3673 2525 0
2542 3265 0
-2726 4178 0
1549 1354 0
-1825 3838 0
-3463 4179 0
2824 -1464 0
4368 -467 0
1324 2697 0
3806 1869 0
-919 -3505 0
3752 -352 0
-3922 2146 0
-4232 -456 0
1766 -4151 0
-1919 902 0
583 -2400 0
-1659 3177 0
-1210 -3398 0
2858 3430 0
-1717 2777 0
-661 2656 0
-83 -13 0
2153 2427 0
1209 1627 0
-832 4079 0
-2655 -4304 0
2974 -3155 0
2170 -998 0
343 -456 0
387 164 0
2882 -4037 0
2088 2882 0
-3635 817 0
-2596 -2434 0
2223 1967 0
-1697 2985 0
1005 -2273 0
1812 -3833 0
-180 -3822 0
3169 -505 0
3954 -3982 0
-412 3594 0
-3101 -2977 0
1991 -3191 0
-3800 -1414 0
221 -1843 0
1738 -1985 0
-1436 -3441 0
2834 3558 0
231 -2729 0
-1726 -3443 0
905 -3042 0
4254 -953 0
-3636 2368 0
-4372 1518 0
1526 3565 0
-459 -3367 0
536 -3280 0
1736 1817 0
-1640 -3842 0
-3614 -4333 0
-200 2202 0
271 2493 0
-3270 -3765 0
-3627 -3272 0
1990 362 0
3808 2997 0
1884 -729 0
1736 -1576 0
140 1745 0
-3736 -1322 0
336 -553 0
-3670 -4176 0
4136 -301 0
-34 -173 0
-942 -2027 0
681 371 0
3101 -4082 0
-4165 -1576 0
2363 1004 0
3635 1301 0
1279 2432 0
-229 779 0
1058 -3564 0
-4047 3157 0
676 -1091 0
-4214 1891 0
-874 -3892 0
-2169 -2986 0
2419 -1737 0
1155 -1898 0
1428 3154 0
-3160 1964 0
43 2582 0
-1783 -343 0
-1757 3708 0
-1657 -3768 0
-2781 -314 0
3468 2499 0
-3499 1811 0
2805 4202 0
140 649 0
4085 3287 0
4300 1589 0
-3229 -3706 0
-3730 3811 0
-2302 2995 0
4120 4227 0
-3091 -30 0
-591 1772 0
2593 -3138 0
-3176 -3151 0
2901 3214 0
3105 828 0
1147 -1419 0
3222 2834 0
589 -3576 0
-1030 3762 0
-207 3183 0
-2083 -3480 0
-1496 -1933 0
-3149 -1969 0
-825 1485 0
842 1834 0
3540 2913 0
-2873 2532 0
-478 3610 0
490 -230 0
-1867 -1701 0
-1480 2630 0
4049 3586 0
-1910 -262 0
-934 -775 0
-2345 4295 0
3987 2642 0
-3815 777 0
3221 -1904 0
-4223 3826 0
588 2876 0
3934 2906 0
-1339 -964 0
-3444 -4019 0
4358 -3047 0
-4300 3199 0
1348 -200 0
2882 954 0
2840 -4174 0
1877 -4192 0
611 2525 0
-1754 -2700 0
383 -3427 0
2056 2949 0
2935 399 0
-3669 -4330 0
2552 -3235 0
-1837 -1820 0
960 1489 0
848 2897 0
-3534 1234 0
1143 -4033 0
1433 252 0
-2533 -636 0
3255 -85 0
2458 1360 0
-3523 -338 0
-1807 -316 0
2993 -2723 0
1138 -2892 0
-1881 -508 0
468 -3848 0
2382 478 0
1678 4077 0
-4192 2039 0
4339 -3528 0
-2495 -796 0
-1153 -388 0
25 4005 0
1989 -2136 0
2127 2655 0
-2689 1364 0
-3512 3148 0
3205 -4213 0
1423 663 0
-151 2261 0
871 -1857 0
3360 657 0
3639 1837 0
-4327 -692 0
1808 307 0
3367 4029 0
-4021 -800 0
288 628 0
823 2682 0
177 1575 0
-2521 -82 0
-2795 2460 0
699 1983 0
-1329 -4069 0
-3509 -410 0
3045 456 0
-3371 1989 0
-2158 -3189 0
3182 -2526 0
-3635 3775 0
2155 -680 0
-2614 -1902 0
1398 -4385 0
1668 -213 0
-3517 -885 0
-3510 526 0
-1918 1108 0
-1174 -183 0
-431 -2910 0
3611 3832 0
4195 -1435 0
289 3173 0
-2341 -3433 0
-390 2991 0
-967 -3466 0
-2524 -3747 0
-3834 -76 0
3396 1899 0
786 -1977 0
-2700 496 0
4110 -2993 0
-1816 -3904 0
-401 -3179 0
2820 3418 0
3841 -475 0
260 -1533 0
-1805 2710 0
-2964 -1748 0
3338 1267 0
-375 424 0
-3980 4089 0
-119 -343 0
1633 3460 0
-1168 70 0
-190 -1238 0
-3542 -3602 0
3242 -4165 0
3149 -3231 0
2365 4033 0
-1159 -747 0
4232 -3775 0
1891 -1334 0
-2080 3427 0
1093 2915 0
-3861 -2889 0
3985 1089 0
-1247 4115 0
-3727 2390 0
3494 2777 0
891 424 0
231 3627 0
-679 -1439 0
-4155 -165 0
2725 -3159 0
138 -819 0
-1893 -1915 0
4371 -3265 0
-787 1811 0
79 -2393 0
-2514 4126 0
-3806 541 0
2599 -3082 0
1464 4123 0
2855 1544 0
-1897 -2155 0
3173 1008 0
598 -1074 0
726 -2086 0
-203 -3079 0
-710 -3375 0
965 -1877 0
2125 -3817 0
-791 -1883 0
140 451 0
2792 1367 0
-2765 -2123 0
2035 -3115 0
-945 1694 0
2346 1199 0
-4298 -3834 0
-3747 -1564 0
-1840 -54 0
-27 -4217 0
1595 1834 0
-3266 -1770 0
3144 -4232 0
2523 4265 0
-3011 -4344 0
3629 391 0
435 4086 0
-3962 2811 0
1349 1735 0
-3705 2416 0
-2575 -4183 0
3212 -1112 0
-1998 933 0
-3316 1651 0
-2323 2449 0
1926 -2332 0
-3219 899 0
-976 3866 0
-2797 1332 0
-3422 -1382 0
3658 1218 0
3166 532 0
-259 1671 0
1590 -3433 0
-190 -2221 0
-2495 744 0
-224 3819 0
689 2108 0
604 -1511 0
-1550 295 0
2420 2625 0
-577 -3068 0
4386 1930 0
3002 -794 0
1047 1700 0
2284 1561 0
1224 1924 0
3783 2012 0
-3408 3115 0
4344 -1400 0
-4105 -950 0
3241 2266 0
-107 1754 0
-3221 -2394 0
3207 -3395 0
-2831 3702 0
-438 1809 0
-1972 -2044 0
661 1508 0
3280 -793 0
2084 -2438 0
4112 -367 0
-2635 3766 0
-3403 -4283 0
-3143 -144 0
3586 437 0
3806 1232 0
-1899 -1339 0
-3441 -3242 0
3782 2632 0
969 436 0
334 1129 0
-6 -3580 0
-1542 2169 0
3048 543 0
-25 2624 0
-2503 -3262 0
520 -3577 0
-992 3828 0
-2474 -1531 0
-1671 3429 0
2563 -3569 0
-3607 -1885 0
-2487 -3094 0
-98 2457 0
4264 4094 0
2816 -2338 0
3954 240 0
-3890 890 0
-1274 -3776 0
86 -300 0
3119 -1359 0
-1713 -462 0
-2036 -4043 0
-1603 -955 0
-2792 -1127 0
-1632 -3988 0
649 -750 0
-2826 1675 0
3573 -2024 0
3463 2438 0
220 -1313 0
3436 3386 0
-1488 -3650 0
4172 1142 0
-1129 -2726 0
-3538 -3718 0
-651 3126 0
-2414 3331 0
-2106 -2496 0
3312 4103 0
561 -2594 0
-2972 -2521 0
2893 1620 0
-3679 1781 0
3659 3193 0
3009 4214 0
2540 -1499 0
-1797 3386 0
3868 3435 0
-2507 -131 0
2413 -4272 0
-3411 354 0
1046 3315 0
3178 2045 0
-2613 3484 0
-314 -1173 0
-3094 -884 0
2059 -3408 0
2244 143 0
-1908 988 0
-2603 -2975 0
-3646 2494 0
-2040 -2260 0
4291 2101 0
-597 -3439 0
3293 -874 0
-776 2000 0
-2263 3765 0
-2954 -1818 0
3149 3337 0
3110 -2380 0
2176 -3506 0
-1060 -165 0
-2769 -4075 0
-1824 1847 0
-252 -87 0
-889 -3883 0
365 4072 0
2235 1593 0
488 -1083 0
1383 1758 0
2403 3442 0
4096 87 0
-525 -4262 0
1429 2403 0
1751 3589 0
2601 -144 0
-952 -53 0
1393 -2186 0
2897 2292 0
42 2340 0
1615 4269 0
-819 -1116 0
-2511 -2593 0
-1211 270 0
2628 -803 0
1805 4387 0
-1721 -3347 0
-177 -3907 0
82 2639 0
4162 991 0
-2290 412 0
-1910 -794 0
-2171 -3977 0
931 -1539 0
2249 750 0
3188 2968 0
-2338 -69 0
-2386 2185 0
-2563 -3972 0
-3385 1304 0
483 944 0
-2073 1885 0
-2830 707 0
-2991 -3291 0
4225 -2235 0
-1947 -1882 0
4038 -2317 0
2141 1800 0
1470 3144 0
722 -2250 0
-3489 -821 0
-2726 -972 0
-1474 -363 0
-1498 1217 0
-3639 -2603 0
3405 -1880 0
-2305 -3759 0
-1865 -163 0
1768 -166 0
-3620 3925 0
-3096 -3962 0
-2792 -603 0
-2861 3515 0
-422 649 0
-2701 1622 0
-2060 1036 0
-585 -3181 0
-3982 2650 0
2479 -4196 0
-3455 -3278 0
2991 -4258 0
256 2000 0
545 -3346 0
-1229 -2497 0
569 -2646 0
-3818 -2939 0
-3580 -1352 0
-1646 1557 0
2085 3378 0
-1361 3339 0
-325 -1941 0
-1644 744 0
-2184 -3989 0
-3544 -3676 0
321 4145 0
-1753 1126 0
-1411 4309 0
3397 4061 0
2764 2082 0
-1376 1342 0
-3069 2676 0
-1204 -2067 0
-240 -4249 0
-4020 -2673 0
4078 -3234 0
1434 -3318 0
-3462 -3075 0
-2852 183 0
-185 -3510 0
-1861 -3039 0
3003 876 0
795 3431 0
-4002 1585 0
2615 1036 0
-4283 -1911 0
653 1263 0
-2494 2659 0
-2153 269 0
922 3697 0
3165 2621 0
-3316 -2313 0
-2623 -1310 0
-794 351 0
895 210 0
3819 -2734 0
2693 -741 0
-2629 42 0
-3635 -2409 0
1877 1115 0
909 -3905 0
-715 -1650 0
4287 -1513 0
-179 -2264 0
4322 -2084 0
-3798 -2103 0
-2062 -3120 0
4352 -856 0
-1943 -3578 0
4294 2907 0
319 761 0
3227 -875 0
161 -504 0
232 2667 0
-1740 3398 0
-3021 -2064 0
-4130 -2039 0
-3975 419 0
2853 -3609 0
-2003 -2000 0
-4060 908 0
526 -1173 0
-1427 -1768 0
3021 1676 0
-1844 2031 0
-4140 -365 0
4205 1666 0
-2809 -2678 0
4334 -4377 0
2420 -60 0
-1330 347 0
-613 -929 0
2214 -3166 0
434 -4351 0
127 2930 0
-3846 2923 0
-4066 -1117 0
3165 1280 0
-233 3471 0
92 -2554 0
-326 -34 0
2378 -1251 0
583 3717 0
3611 -3569 0
-2587 -3304 0
490 -427 0
2915 1872 0
3837 3643 0
-3713 -510 0
1728 1666 0
-3622 249 0
-1843 -816 0
1130 -3878 0
-1259 3332 0
-3579 298 0
1458 -1998 0
-1914 103 0
-758 2435 0
666 1253 0
980 1660 0
2419 1806 0
-3053 -726 0
3775 2663 0
2933 -307 0
3587 -264 0
2043 -3998 0
2673 -1127 0
-3379 2440 0
-1368 2132 0
-3649 -1404 0
-3899 -1603 0
-3028 2447 0
-458 4073 0
-2439 930 0
-3271 1173 0
345 -438 0
581 -2928 0
-2198 3022 0
-4313 431 0
4206 -1905 0
3265 3585 0
-2630 3387 0
784 3785 0
3678 -2500 0
-2978 3777 0
-1820 3385 0
-1447 1354 0
-2289 3696 0
1129 -917 0
1910 -23 0
3037 279 0
4025 3034 0
240 3984 0
-2209 735 0
-4360 768 0
23 296 0
-3804 2186 0
-3762 -536 0
-4322 3665 0
-2134 -1720 0
-1242 -3905 0
2990 -1367 0
3897 2123 0
-276 -192 0
2153 13 0
1866 -2737 0
-2545 3340 0
-3062 -2517 0
-1311 -4361 0
1555 -2610 0
-3162 -994 0
-3439 1625 0
4261 -928 0
3864 125 0
4044 49 0
1697 -2903 0
609 -233 0
-1579 675 0
3026 -2919 0
-2758 3175 0
-1970 -2436 0
2164 2047 0
2568 -3078 0
909 2350 0
2025 1156 0
-2183 -420 0
825 2560 0
639 -4293 0
2563 -2929 0
-1264 2781 0
1183 -309 0
-16 -51 0
1686 -680 0
-3518 4250 0
-4256 2251 0
1448 -3175 0
527 -1590 0
1532 3951 0
-2773 -3908 0
-3658 4371 0
-712 -3527 0
2894 671 0
-3181 -3231 0
-2150 -1934 0
2626 -831 0
-2012 -3668 0
-898 511 0
-1112 2158 0
-3024 -1970 0
-1335 511 0
1707 -3650 0
-2122 1207 0
-2378 712 0
718 329 0
1793 -2733 0
1643 828 0
-739 3487 0
2237 563 0
-3207 399 0
3212 -1781 0
-1849 -2575 0
-3515 -2718 0
84 -2976 0
2091 3067 0
2265 -1840 0
-2961 2087 0
430 3964 0
-2426 1538 0
3002 2356 0
1674 -1591 0
-3443 -3274 0
-2439 3272 0
-3859 1823 0
2555 980 0
-3349 -1318 0
-2040 404 0
2888 1080 0
3118 -1778 0
2840 3239 0
2426 -201 0
-4336 -2597 0
1926 2151 0
-834 -4272 0
1047 819 0
3118 -272 0
-1123 -944 0
1309 -3447 0
2667 832 0
1763 3969 0
-2736 -469 0
-962 -4369 0
-4051 355 0
2413 -939 0
1674 -2113 0
2225 -4278 0
-2887 1995 0
-4229 -3026 0
-2204 -163 0
2801 114 0
1667 -955 0
4325 2621 0
-314 -3846 0
2004 -1848 0
1105 -1445 0
-3820 -3825 0
-2832 693 0
-1572 1438 0
489 -277 0
475 -2046 0
3374 1811 0
-3155 3439 0
342 3128 0
2294 -4224 0
-1357 1697 0
2983 493 0
2868 3259 0
-169 4307 0
-2704 12 0
-3974 -3921 0
-3386 -4276 0
-2414 -1713 0
2700 2969 0
3685 -3221 0
-4209 -2211 0
-3461 1818 0
-1969 -931 0
-4100 -2133 0
-3181 -185 0
339 590 0
-610 -3727 0
194 -2062 0
-1346 -866 0
3087 2580 0
-2327 -2305 0
-836 -2034 0
1726 785 0
-812 -2563 0
1458 4226 0
909 4004 0
-1784 1169 0
-2903 432 0
472 1046 0
-3990 -80 0
3857 -1384 0
-2032 1899 0
3413 4016 0
-4107 641 0
-3764 4152 0
1290 -559 0
212 -2318 0
3483 1050 0
1264 2113 0
1652 -2584 0
420 4183 0
-2678 1212 0
1155 -4217 0
1469 4344 0
-853 -118 0
-786 3075 0
-379 -2676 0
-687 -939 0
-3153 -3154 0
-3332 4307 0
4208 2551 0
-1543 -3111 0
1734 -602 0
1950 -2835 0
3390 -2754 0
4299 820 0
-413 -402 0
1712 -3568 0
-3331 -2616 0
-3862 -3128 0
65 -2196 0
4056 -4229 0
-3738 -774 0
3185 3702 0
435 -1485 0
3108 3417 0
-400 -952 0
3999 -2708 0
1956 -1164 0
322 -2515 0
-2188 -1540 0
-1319 3572 0
-2147 -3894 0
691 870 0
-2174 -3002 0
3548 -2455 0
622 -3847 0
-2471 -3778 0
-1484 -719 0
948 4307 0
1382 -2848 0
-1419 3059 0
-4341 -3879 0
-835 -886 0
-2724 -1060 0
2001 2991 0
1189 -1863 0
836 2831 0
3500 502 0
1372 -3707 0
3511 -2161 0
1706 250 0
255 799 0
4080 4380 0
-1548 -3183 0
3101 -1886 0
-3309 -4008 0
-1831 -2527 0
1716 4088 0
-3084 2741 0
-270 -1679 0
2659 -3466 0
-636 -2725 0
888 3515 0
3286 -3567 0
720 2997 0
272 -973 0
-2940 -2502 0
-337 -4110 0
1584 423 0
3459 -910 0
-265 -2891 0
349 3538 0
-819 2999 0
-64 -1614 0
3012 1479 0
3022 -1062 0
183 -3169 0
-2914 181 0
-4325 -693 0
-42 1860 0
3366 2079 0
-3279 1704 0
-3782 -3734 0
3085 1160 0
-3864 -622 0
1077 612 0
-3502 -3896 0
-3940 -3505 0
-2374 3249 0
3287 -3032 0
-3020 -2834 0
256 3990 0
764 2182 0
4047 -3710 0
959 2024 0
3689 -429 0
-2804 -1445 0
2763 1347 0
-3779 3766 0
157 3344 0
1591 840 0
-3050 2745 0
-4194 2351 0
1407 -3553 0
-1535 -3413 0
-3463 1597 0
570 2775 0
4373 -2942 0
-2303 -312 0
-3509 2067 0
1718 2163 0
-458 3483 0
-2521 -1208 0
-2668 -2827 0
-1396 3054 0
1369 1616 0
2489 -3560 0
1896 -2185 0
-2418 4150 0
-150 -33 0
2411 3586 0
-579 -2280 0
764 -3768 0
-3593 4084 0
-674 1011 0
-839 -4295 0
2656 -1586 0
-2149 -1067 0
2787 -2361 0
-3422 -1165 0
2608 913 0
2521 488 0
-342 361 0
-3985 747 0
3696 1037 0
1490 -1941 0
-582 -1521 0
279 3582 0
-1177 -725 0
-2146 -863 0
-2860 -2478 0
-2190 563 0
-2576 3182 0
966 2681 0
-1488 372 0
-2257 -1399 0
-3843 -2056 0
-1797 -881 0
1367 -4256 0
-2050 3497 0
3059 -2497 0
-3814 -3683 0
361 -1759 0
-1227 -984 0
2191 -1373 0
-2855 -2603 0
-380 -4298 0
3491 -3162 0
-3735 1215 0
-38 1034 0
-1112 3459 0
-2009 -225 0
-912 -4316 0
1570 2072 0
-3503 -1879 0
-3403 -389 0
-2716 -3345 0
-4323 2421 0
2691 -1068 0
1708 1146 0
3936 789 0
-1709 -623 0
-694 4129 0
-2910 2379 0
-1826 -886 0
2582 2660 0
3035 -4067 0
-3742 -122 0
-1318 -2945 0
3937 4385 0
-4053 3389 0
-1901 -1974 0
-3845 -2121 0
2568 -3861 0
-3965 -1933 0
1718 1774 0
1493 -3466 0
-2038 -1925 0
-3653 448 0
-2711 -2581 0
1006 2414 0
1359 -1316 0
67 -267 0
3260 1532 0
-2731 -1933 0
4364 3021 0
-2551 -2679 0
2975 -1759 0
2958 -2737 0
2474 -1476 0
-4254 494 0
-3846 526 0
3794 2705 0
-3493 1433 0
-1397 1830 0
3212 -863 0
-3912 -3893 0
4225 2820 0
3623 -2545 0
-1651 1291 0
-664 1866 0
2851 1178 0
3507 -1569 0
3554 917 0
3607 -3206 0
2916 114 0
-4038 -1767 0
1430 -1538 0
-3487 -3294 0
-457 -4292 0
-338 -1881 0
-3160 2167 0
-478 -3101 0
-1554 1337 0
-3962 1000 0
1911 -4123 0
-1480 3402 0
-1330 4312 0
1369 -1682 0
2202 -1576 0
2697 3635 0
-2147 -283 0
-3315 -2131 0
1620 3943 0
4019 733 0
-268 -1853 0
1455 -4035 0
-449 1715 0
-525 1224 0
3058 -626 0
-2865 2586 0
-1297 3274 0
-3077 -1044 0
3600 3559 0
-2516 2743 0
1726 -2537 0
95 -1187 0
3168 2407 0
-3988 -2910 0
-3764 1946 0
4150 -4319 0
-2948 -3467 0
1866 4300 0
1469 4255 0
-1414 2078 0
2163 -1071 0
3971 186 0
3069 3544 0
2549 246 0
1022 -1657 0
-2724 986 0
1488 2162 0
4067 3407 0
113 2999 0
2137 -2166 0
2104 548 0
348 1082 0
-3345 -1738 0
-3134 -131 0
-1797 -4383 0
982 882 0
4215 -547 0
-3935 236 0
538 -418 0
-1237 3594 0
-438 -3139 0
922 18 0
-2842 -619 0
732 -277 0
2743 -559 0
-3252 2611 0
3025 -2773 0
224 250 0
-404 249 0
395 -1092 0
-2565 2143 0
-919 -2508 0
675 -1608 0
3111 -1416 0
1466 -1741 0
-2258 -2649 0
2870 879 0
-1550 -807 0
2530 304 0
-2062 3953 0
614 899 0
-2691 4371 0
-923 -3576 0
371 -50 0
3214 2901 0
-168 2506 0
-3391 -945 0
-190 -2410 0
-29 -1260 0
246 -863 0
-113 -3287 0
-2484 1157 0
-1872 3611 0
-3510 2287 0
-3825 -1473 0
-4035 -3615 0
1821 -2952 0
-2756 3679 0
-2398 4345 0
3327 -353 0
3638 1122 0
-2305 3206 0
-4003 -3495 0
-1054 2629 0
-812 -218 0
-4173 -2046 0
-2142 4047 0
-1072 35 0
1722 3465 0
-367 -3073 0
-602 -4272 0
2553 -1059 0
-3160 -3350 0
-4036 3842 0
-2114 2624 0
2744 -585 0
816 -2704 0
764 531 0
1072 3173 0
-1189 784 0
-574 981 0
2144 1513 0
2447 -4263 0
2656 728 0
3121 -1886 0
1258 -3649 0
-2196 -3076 0
1179 2372 0
-3409 -354 0
1030 4013 0
-696 -1521 0
1599 2111 0
286 1518 0
39 -99 0
-2738 -3866 0
2846 -3355 0
1118 -2914 0
1851 1459 0
-1416 -3473 0
3698 -1250 0
-2954 -1391 0
3944 -978 0
974 3215 0
-3348 3750 0
-537 1928 0
-480 2516 0
-840 -727 0
-3389 3344 0
-257 -3244 0
-4082 1926 0
-1242 1880 0
-1316 84 0
900 -2808 0
-1580 -833 0
-3859 -1094 0
782 3607 0
-2790 -4216 0
-660 655 0
3252 2595 0
-2115 4126 0
-2873 -3690 0
-1165 -2342 0
-344 2355 0
-1644 2094 0
3205 -3880 0
-1348 1976 0
-794 985 0
-200 -3651 0
-418 -4198 0
-1500 2660 0
-3965 -978 0
1806 -3199 0
-2060 2325 0
-991 3153 0
3318 -4154 0
-2805 1239 0
3182 -4129 0
-2295 3936 0
-1903 -2500 0
3665 -2045 0
3470 -3621 0
1230 -2565 0
-1386 1494 0
-4226 -424 0
-2038 498 0
-500 3360 0
-3687 -1719 0
-1057 -3320 0
775 2642 0
-3905 -1248 0
1233 -2074 0
-3117 -4054 0
-3079 -3560 0
-654 583 0
3796 3556 0
-4354 3522 0
-1718 2628 0
-3094 630 0
-811 1503 0
-2307 1723 0
4225 -2176 0
-610 -306 0
-3024 -2251 0
3878 -1159 0
2479 2001 0
1004 -4346 0
3991 749 0
-2980 4339 0
-1646 320 0
2026 -1550 0
3340 -2177 0
-1292 3330 0
2555 -505 0
-4283 1170 0
-4034 -983 0
-2018 2365 0
-2109 4069 0
688 3159 0
1599 -2256 0
-2719 -1028 0
1179 -44 0
-4357 896 0
3849 -1331 0
1525 -472 0
-2216 -3255 0
-3423 2740 0
3968 3506 0
-551 3183 0
-1735 -4357 0
2883 -432 0
-3923 -170 0
4001 -1107 0
-832 3244 0
138 178 0
-337 3952 0
-3571 -2116 0
-2807 -1768 0
2346 -4295 0
-3580 -3763 0
1567 2549 0
-428 1298 0
-2944 -533 0
917 2780 0
556 -2183 0
3156 -618 0
-2862 -1944 0
-91 1971 0
3553 3919 0
-3864 -3477 0
2746 -3072 0
1914 -3706 0
-1734 2514 0
-4038 1784 0
-3107 976 0
4315 -557 0
1433 -1666 0
-2502 1617 0
-873 4217 0
2101 -2756 0
910 1175 0
2355 3837 0
-3010 -365 0
439 -3624 0
-3173 1175 0
-2128 684 0
-724 2283 0
-3981 -1661 0
-66 -1472 0
-3732 -3657 0
-3098 2463 0
1362 2145 0
3172 -2324 0
2110 -2475 0
-3039 2429 0
3000 2379 0
3058 758 0
-2802 -821 0
650 -684 0
968 -1603 0
-2956 -2280 0
-1128 2141 0
-1673 2403 0
859 -2823 0
-332 -3677 0
-3645 -1020 0
3701 -590 0
-2297 -2675 0
1345 845 0
-1465 3246 0
-2462 -1679 0
-1008 570 0
-4053 4251 0
-4271 23 0
475 -1366 0
-1478 -1969 0
-2939 -3785 0
-1311 626 0
-3593 2231 0
-1639 1017 0
4383 409 0
3306 -3908 0
-2923 2487 0
-362 -2318 0
1229 -2735 0
-2436 -1438 0
-3318 -3935 0
-3489 2451 0
1964 -4179 0
3665 -2437 0
-2514 -248 0
3741 -2827 0
-3696 1729 0
1329 494 0
-1114 -1200 0
-3051 1581 0
-1345 -1331 0
-286 -3862 0
1738 1371 0
-446 2494 0
-501 1024 0
-3740 2416 0
-1944 3198 0
4174 1794 0
461 673 0
2241 -3532 0
-2770 4381 0
15 2405 0
-1352 3990 0
1652 1833 0
2354 -3384 0
-1667 4199 0
273 2002 0
-1655 -1724 0
-1783 -281 0
496 -3142 0
1770 2222 0
4223 4208 0
-718 1577 0
960 -471 0
-3220 3157 0
-3527 -2183 0
286 -2147 0
-3260 3265 0
-963 331 0
-1886 292 0
2714 -862 0
-3786 -2876 0
3136 2599 0
1104 -3736 0
-3401 465 0
-4163 301 0
-711 -224 0
-1189 3557 0
2423 -1043 0
276 3480 0
272 -88 0
-3981 922 0
-550 -3162 0
-1068 -3232 0
3282 2937 0
-3444 2940 0
-2151 -4269 0
4215 -3707 0
1308 -4231 0
3328 -3078 0
2376 1575 0
-2495 1065 0
-2935 4322 0
1895 2141 0
-2168 -3831 0
-3655 3672 0
3873 -1493 0
3727 1492 0
-2276 1843 0
-27 2434 0
2130 4373 0
3705 1613 0
75 -388 0
-954 -4228 0
535 -1475 0
2120 -211 0
3508 1402 0
-3928 -4256 0
3169 -3881 0
2738 -1569 0
4376 -3902 0
4339 2355 0
3142 -1304 0
-1630 3218 0
1176 -1858 0
3594 -1575 0
3179 -729 0
-280 3120 0
-1552 4249 0
479 3764 0
-4308 2680 0
1275 -1398 0
-3555 3591 0
151 771 0
-469 3539 0
2667 -2073 0
3236 1865 0
-4214 4309 0
-2500 -1778 0
4235 -1481 0
463 2785 0
17 2436 0
-1491 -4187 0
-4192 -2628 0
-2155 -2148 0
1006 -1723 0
-2339 3293 0
4038 708 0
-281 1251 0
2631 -2898 0
4328 -1906 0
2053 -548 0
661 2852 0
12 -404 0
1696 3748 0
-113 1191 0
1714 1467 0
-951 1841 0
-3757 4167 0
543 3997 0
-702 -113 0
-4317 3615 0
-1151 -350 0
3628 -208 0
2186 -2572 0
2532 459 0
-3800 -3458 0
571 3101 0
-189 -1630 0
4320 -691 0
1156 -2255 0
4027 3642 0
-3039 1647 0
3756 3655 0
3722 -983 0
3417 1472 0
1430 -1099 0
-2286 403 0
-4255 4077 0
318 -4180 0
-2024 348 0
2599 -335 0
2125 185 0
-1223 2255 0
-1862 3163 0
1022 1858 0
-3220 1352 0
2428 -3853 0
237 -1388 0
-284 -628 0
-1359 -2085 0
-2366 -1674 0
-1657 -3932 0
3429 2499 0
3623 -4034 0
-2942 -2803 0
-1956 -2886 0
-2346 1429 0
-854 -3297 0
-3224 3332 0
-2267 -686 0
-491 1022 0
3881 39 0
-1292 2964 0
-1605 -4101 0
4305 2492 0
3550 -4015 0
2654 -1888 0
1298 3409 0
-924 -1247 0
-1003 3319 0
4152 -301 0
-1356 1880 0
-1897 4190 0
-564 2051 0
-1374 -1361 0
-4033 1486 0
3594 -575 0
-4165 433 0
4023 -59 0
-4289 -2965 0
-3504 3016 0
-4220 807 0
2870 1404 0
918 -1493 0
3301 2553 0
224 -2272 0
2746 1329 0
144 3468 0
795 1267 0
2134 366 0
-628 1696 0
2598 -2251 0
-4198 -1359 0
-1146 -4044 0
-4250 -3966 0
1670 -172 0
-1805 -926 0
-3592 -1061 0
-3686 -1865 0
-717 -1510 0
-207 -724 0
-3937 -3315 0
2836 -1684 0
670 -467 0
3192 -289 0
2536 -4332 0
4355 2128 0
3832 -2185 0
-3422 142 0
-4210 -2582 0
-3027 -3863 0
-2210 -1559 0
-108 2028 0
3008 3546 0
-704 -1328 0
-1639 1101 0
1813 -302 0
-1608 -3409 0
780 4079 0
-2912 2227 0
2693 2 0
-1193 -3345 0
-1332 -1333 0
1807 2710 0
3300 -1108 0
1950 -878 0
-3772 3587 0
2466 4361 0
-2833 2226 0
-4068 -106 0
-1861 -3120 0
-2048 -376 0
1397 -2040 0
-1537 -1277 0
-951 3431 0
-2505 -3026 0
-3357 3709 0
-2502 1135 0
-1666 -3476 0
2601 3623 0
1097 97 0
582 -3098 0
2772 65 0
-965 3059 0
1552 -1350 0
-2023 515 0
2379 -2742 0
-1050 -1763 0
733 -2578 0
1737 2403 0
-1191 2335 0
775 3573 0
-2735 4223 0
-2267 2569 0
-2149 451 0
-92 2445 0
-2311 -2308 0
3361 -150 0
712 2844 0
3800 4121 0
-559 -856 0
-2311 3249 0
-2177 -1158 0
-4198 -1256 0
3850 3344 0
-2467 1985 0
1948 2874 0
-4096 2093 0
2076 -1074 0
2831 1643 0
-3441 237 0
2676 -2322 0
4087 -2724 0
-539 -130 0
-528 -1548 0
-247 3024 0
-223 387 0
-2583 -1214 0
-4053 -3744 0
-3255 3623 0
3040 2843 0
-3759 3237 0
940 2521 0
2208 -2117 0
3767 2354 0
-3191 3314 0
3489 2883 0
-1217 -3684 0
-3071 2356 0
-2852 -2106 0
2667 720 0
-1757 2268 0
2743 2334 0
1746 3199 0
1680 209 0
-810 511 0
168 -752 0
2890 4166 0
3811 -2277 0
-395 -1960 0
-3734 1216 0
-4177 149 0
-725 2997 0
1578 404 0
-2015 -4360 0
1307 -668 0
-3189 3146 0
-634 1949 0
2385 1643 0
-1957 -93 0
-532 -1651 0
3456 3337 0
1225 1379 0
-818 2905 0
-4223 2444 0
-617 3866 0
-2001 -4245 0
459 -2875 0
4037 3366 0
1226 -3500 0
3996 542 0
2364 -4256 0
2171 -3642 0
-3110 -154 0
-3332 -1332 0
199 -1339 0
1677 -901 0
-291 -3233 0
-1130 2059 0
-2970 -837 0
-1954 347 0
262 2249 0
2273 3301 0
-4235 403 0
-2113 3478 0
-2288 -2399 0
-72 -444 0
-2048 -1002 0
-2765 2585 0
-2871 872 0
-1289 3464 0
506 -3830 0
-4146 -425 0
3771 3656 0
-2139 -3877 0
3436 647 0
-1181 2330 0
1662 -3071 0
2306 2547 0
423 -333 0
-418 -3373 0
-1332 -1066 0
-4048 -3326 0
3677 -3466 0
-321 1663 0
109 1222 0
-3195 -969 0
-1736 491 0
-2649 -1121 0
2547 1107 0
2429 2310 0
2878 3787 0
-1884 -4068 0
-1475 -2482 0
-701 -2176 0
-1257 -3203 0
682 -915 0
399 1688 0
3167 -886 0
-3725 -3838 0
98 -3620 0
3187 2819 0
-1431 -1388 0
3485 1400 0
-657 2736 0
3705 -1140 0
1674 1987 0
-205 1822 0
-2753 -1980 0
-2769 2656 0
-2282 -3133 0
2275 -720 0
1985 1524 0
-162 -2248 0
74 -2163 0
3861 -143 0
502 469 0
-1917 2770 0
-2972 -437 0
-4105 -3541 0
3136 -2443 0
2301 976 0
-3109 -1759 0
-2805 -3846 0
1630 2059 0
-1720 1780 0
1448 -2295 0
-1001 33 0
2589 3239 0
4244 4285 0
-2357 -1776 0
-170 -3051 0
3127 773 0
-1920 -395 0
-3466 -2374 0
-220 1812 0
4294 -1481 0
4204 -4116 0
-576 -3404 0
538 -2899 0
-3132 -1053 0
-601 2935 0
-1205 -273 0
-3266 -1791 0
-1342 2283 0
-2128 -1968 0
583 -2319 0
421 -1032 0
-1410 -1195 0
3787 -374 0
-483 -1640 0
-428 3826 0
3660 -3962 0
1218 3175 0
-3393 2681 0
-3830 -191 0
-1570 -2931 0
-2981 1879 0
-1853 -2398 0
757 -2457 0
-2840 -3142 0
2482 -922 0
1340 1422 0
-3015 -4040 0
-969 3254 0
3892 3157 0
-3069 2133 0
3754 2007 0
3586 -690 0
-3892 -866 0
548 3114 0
-2277 -1951 0
3092 2952 0
-189 -4124 0
-661 -3252 0
-3264 -2001 0
391 -592 0
-530 -2082 0
3066 2878 0
-3464 2568 0
-1299 4160 0
-1443 -1739 0
1033 -716 0
2846 386 0
4222 4125 0
482 -207 0
1746 1697 0
3797 654 0
-4119 1919 0
-3198 -1270 0
-4270 -2752 0
-630 -44 0
2549 78 0
2183 -499 0
1539 -116 0
746 -4054 0
2553 -3797 0
-3656 -365 0
-3511 161 0
1462 -1115 0
2618 -1583 0
2181 -333 0
1807 -3892 0
-2329 2869 0
1785 3030 0
3154 3855 0
-1976 19 0
3773 4188 0
-2624 1797 0
1214 -2034 0
-2889 3904 0
2368 2372 0
-3868 2532 0
1899 4006 0
-1215 -3567 0
-3983 -3666 0
-3602 4356 0
1005 1457 0
-425 -3091 0
-1270 -1246 0
3181 -973 0
3499 -3410 0
3296 -3011 0
1130 -2122 0
-2322 -640 0
413 -3150 0
-1103 2267 0
-4021 2569 0
1525 -692 0
2447 2802 0
-72 -762 0
3779 587 0
1389 -4103 0
-972 4167 0
-3193 -1675 0
3068 -2562 0
2997 3198 0
2705 3600 0
-1969 2651 0
-3519 2569 0
-3852 348 0
695 -4106 0
-31 -441 0
1346 1841 0
1955 -3857 0
-759 -3006 0
-2590 -2178 0
-2386 -2391 0
-512 -4199 0
-3828 -1023 0
-32 -2169 0
-2085 -801 0
2941 2212 0
-2044 1320 0
-4246 4009 0
3948 3226 0
-4269 -2173 0
2172 3608 0
2677 -3498 0
-1883 -2986 0
3265 1402 0
237 3940 0
70 1293 0
-4318 -1304 0
-1013 -1103 0
3108 -706 0
2937 -943 0
840 -1414 0
990 -2057 0
4202 1402 0
-389 -3389 0
-1514 -3788 0
2803 -3141 0
-1570 -3624 0
4134 -916 0
-1596 -1816 0
-2335 -2571 0
982 -3216 0
1321 2109 0
-3843 -3007 0
-4028 689 0
804 2750 0
-1737 2899 0
1084 -4238 0
-2795 3696 0
-4004 2164 0
1337 695 0
-4161 -2573 0
-3384 3054 0
-1061 4013 0
3360 757 0
-1586 -1491 0
3129 2922 0
-2615 2571 0
-3834 1987 0
-3116 -700 0
-4324 3779 0
-3879 -522 0
-4266 -2729 0
-2700 3606 0
46 -3986 0
4311 3732 0
-3799 770 0
1040 205 0
-3004 -1481 0
-4149 -2966 0
3168 -3047 0
1000 -2992 0
-1065 1170 0
-3316 -137 0
2263 1768 0
-3649 1073 0
1437 -2067 0
-1488 -3808 0
-899 -1344 0
1169 1462 0
728 -1625 0
3509 -1778 0
-999 -3413 0
-204 -4362 0
-2102 -1722 0
1183 3167 0
-4014 1982 0
2064 -1186 0
-3955 -3180 0
-496 -4275 0
4167 4004 0
-4085 -762 0
-2131 3589 0
2832 4284 0
2184 -4295 0
2333 -1529 0
-2194 -4165 0
-1308 4321 0
-1792 2424 0
-2928 4213 0
-1377 -3854 0
632 -3466 0
-2333 1659 0
1854 -1449 0
856 -3187 0
4340 -194 0
3619 1541 0
-80 3556 0
-2935 -1432 0
2995 -1871 0
2960 -1782 0
-2427 824 0
638 -1646 0
1703 -1317 0
667 -4366 0
1834 -433 0
2536 -1849 0
-1776 -4269 0
2878 -4288 0
-2225 -1447 0
673 2722 0
-167 -2857 0
-3409 3537 0
-1006 -3949 0
-4197 1617 0
-1522 -2289 0
-1252 -953 0
300 -1484 0
-1057 -2391 0
2013 720 0
-1310 -3898 0
67 -2387 0
3532 -1502 0
3187 -299 0
-833 -1519 0
-3725 -2432 0
-2887 4370 0
4163 -3264 0
1724 -3954 0
1673 -2257 0
2285 -1191 0
-1329 -3844 0
-2899 -180 0
-2978 -3798 0
1036 -1231 0
1242 622 0
294 -1073 0
1424 -692 0
-2316 -2873 0
1380 3336 0
2140 -2217 0
2962 -227 0
3276 -3722 0
-3503 697 0
2010 3720 0
630 -4300 0
-1183 -1363 0
-4057 -4092 0
2747 3164 0
1664 374 0
-927 -316 0
2671 3927 0
1555 -1358 0
4018 -87 0
-1064 -530 0
-1147 -3416 0
-4218 406 0
-1872 -1403 0
-2698 -2054 0
562 -2467 0
895 -4272 0
4233 -1634 0
-2341 -1485 0
-2061 3934 0
-3461 -2133 0
2708 -2450 0
2312 -3290 0
2032 2447 0
3105 2762 0
14 -3574 0
465 4085 0
3454 1350 0
-714 -2108 0
1397 -4260 0
-1227 1040 0
2089 3526 0
-559 -1513 0
2471 3536 0
2951 1978 0
1308 2249 0
-3782 981 0
1350 -665 0
1437 -119 0
-2897 3914 0
739 2957 0
1254 827 0
-3176 -2952 0
-1183 3349 0
876 -4085 0
2459 622 0
913 1258 0
-800 -2871 0
-1759 -2814 0
3979 2855 0
-766 -1207 0
-4153 -3026 0
2292 671 0
3936 1856 0
1439 2499 0
-1947 -2987 0
-4369 -3722 0
2203 1685 0
-3201 -1863 0
-670 1423 0
-3669 -1245 0
-1688 -1484 0
-4165 4237 0
3720 -3760 0
-3139 4126 0
-284 3574 0
3562 2262 0
488 -3692 0
-1601 -3625 0
279 -4270 0
-660 -3356 0
-1564 -2013 0
-2908 -796 0
-759 1987 0
-4349 3331 0
2673 3081 0
-1165 -645 0
614 -4290 0
2413 1949 0
3700 756 0
-485 -812 0
614 3026 0
2987 -240 0
-3128 -4349 0
-3935 -9 0
-1761 4358 0
757 -1640 0
3493 -2741 0
-4196 1953 0
-2002 -1166 0
-2956 3646 0
4273 2301 0
151 -2003 0
-3765 1635 0
-224 2463 0
3564 -1839 0
-2606 935 0
-669 464 0
3566 -4054 0
-2147 -4349 0
-2398 2872 0
-2732 -2320 0
-1881 -1883 0
-572 -358 0
3518 2551 0
2935 -2198 0
2240 -4166 0
-2171 2473 0
-3414 -2154 0
-1482 -1311 0
1967 3431 0
3951 -1879 0
4275 1461 0
-1039 -4060 0
-2593 2979 0
-2551 1033 0
2333 4050 0
354 -1960 0
1075 -1983 0
-3351 3122 0
-425 1058 0
-1596 3212 0
2010 2088 0
-2932 527 0
-1204 -2193 0
3396 -1128 0
-2169 3761 0
2666 -1789 0
4027 3334 0
2644 3131 0
3501 2417 0
-1994 -4133 0
-4305 -2761 0
2994 -1408 0
-2378 2821 0
-4254 1893 0
-2875 -3842 0
-1614 -1175 0
-2257 2061 0
2950 -1945 0
-566 95 0
-2749 -3703 0
1581 3700 0
-976 -678 0
311 -547 0
-741 904 0
-1993 -3255 0
-2298 -1182 0
-3242 4302 0
-633 1071 0
4028 3823 0
1221 3063 0
-3469 621 0
-335 286 0
-1059 -2043 0
-3859 899 0
1721 -422 0
-2446 -1074 0
3002 996 0
2822 4199 0
-417 2885 0
3492 -1706 0
1883 -3308 0
3788 2796 0
1666 3009 0
67 3511 0
1367 -3042 0
-4357 2178 0
-925 -755 0
-337 -4271 0
-73 -4090 0
-3019 686 0
3777 2291 0
1337 -37 0
216 1053 0
-2500 -987 0
-3287 -2605 0
-2033 2447 0
-1619 4006 0
-4066 -3379 0
2951 -1196 0
3064 1737 0
-4101 -3274 0
4175 -3511 0
-2260 2851 0
800 1970 0
-3184 2359 0
-2829 1316 0
-1936 -1432 0
2668 -1333 0
652 -1463 0
-2069 2951 0
2111 2692 0
-4130 3741 0
-2555 -3932 0
595 2275 0
-774 2138 0
483 974 0
570 1991 0
-1063 -3861 0
-2496 4299 0
-3175 3514 0
890 -1308 0
-2733 3468 0
-20 -2209 0
-3862 -3725 0
3765 3880 0
3677 42 0
3325 2611 0
-3038 2358 0
1903 -606 0
2798 -620 0
-3657 3275 0
3090 1482 0
-3626 1361 0
613 -2222 0
-1146 3584 0
-3381 -867 0
1651 1955 0
3521 -755 0
-1322 -3469 0
3325 3579 0
3399 -1779 0
-1299 -4083 0
2942 928 0
-119 619 0
-186 928 0
-2998 4386 0
-1818 -1905 0
-1521 771 0
3662 -1165 0
-2031 -3294 0
2245 289 0
-175 1771 0
-1932 -1016 0
3641 1496 0
-3873 -3753 0
3077 -3443 0
3483 -3026 0
-433 -2773 0
2034 -2410 0
-1542 -2097 0
2165 2920 0
-2935 1802 0
-122 979 0
1971 -4309 0
-3566 2288 0
4013 -1840 0
-1190 -3452 0
-2610 -3424 0
-4131 -2256 0
-1600 -4232 0
-3534 2176 0
-1709 1020 0
-3551 554 0
4062 -1331 0
3374 1528 0
-1383 1950 0
-1211 -774 0
1497 -3247 0
-1608 -826 0
4135 1219 0
3101 -3645 0
562 -2989 0
612 -2251 0
133 751 0
541 -2924 0
2591 406 0
4008 -2770 0
-3978 -1743 0
182 -564 0
-3578 -370 0
757 -1580 0
-165 -898 0
-800 -99 0
3522 1015 0
-2604 2877 0
-1537 2456 0
3790 4033 0
1090 -3263 0
2766 3909 0
801 1724 0
-1567 -1332 0
-1516 3874 0
-2555 678 0
-969 738 0
2959 1841 0
2099 2960 0
2555 -2748 0
3425 -3983 0
-4285 -631 0
-2482 3405 0
1286 -3170 0
-1967 -3754 0
-3378 -573 0
3863 -3357 0
2598 -2795 0
-3194 -1427 0
-3374 -2281 0
-1405 3791 0
-480 -3360 0
-3460 3579 0
-161 2677 0
-1111 -1934 0
-152 -2650 0
-474 -1068 0
1395 -2623 0
4005 2129 0
689 3634 0
2118 -1928 0
-3672 2869 0
792 -2890 0
-1931 -1266 0
3306 1659 0
4242 -3375 0
412 653 0
3585 2014 0
1613 2228 0
-3835 -4385 0
3828 1866 0
-833 1635 0
2316 2945 0
-1921 -4010 0
-3901 -4227 0
-943 -2194 0
-300 -4186 0
3199 1557 0
2921 1971 0
1990 532 0
1670 900 0
1104 2099 0
4291 723 0
-3193 -3343 0
-1893 -4193 0
2779 3129 0
-1622 -2061 0
-3348 1901 0
1951 -4137 0
-77 -3829 0
-1648 3470 0
-364 -4340 0
-3198 2063 0
1328 -2509 0
-2121 -1954 0
-4098 -3596 0
-2709 -3274 0
2002 -4031 0
-4128 3789 0
4093 2843 0
-533 -3649 0
-664 55 0
1607 334 0
-1145 -2620 0
-2719 4171 0
-1492 -3061 0
-1960 -593 0
637 985 0
4204 -418 0
-606 675 0
230 4250 0
-2142 -3862 0
1409 -3315 0
4004 4339 0
-1159 543 0
-1968 4194 0
-4132 -1106 0
1838 2325 0
-702 -2355 0
4005 -2134 0
-3505 551 0
1908 178 0
1798 -3803 0
3745 -1218 0
-725 934 0
-2163 -385 0
1817 -2205 0
148 -1793 0
4294 -327 0
-2583 3040 0
1641 227 0
3319 3818 0
611 -2671 0
1818 -2028 0
-2248 -651 0
4144 -3385 0
3832 -26 0
-1760 -4307 0
79 749 0
-3752 -3733 0
3407 -1340 0
-3759 2082 0
-350 -2185 0
-1865 1917 0
-1644 2534 0
-1243 -3073 0
210 3055 0
-4018 -1195 0
4183 2141 0
-867 1673 0
-1790 -236 0
-2691 2795 0
-4298 -3920 0
1934 290 0
1764 -866 0
-616 -725 0
3282 -4222 0
963 -180 0
-1438 -868 0
3116 -3846 0
4331 2056 0
-1068 2567 0
2782 -4309 0
-3520 -2422 0
3679 296 0
1230 -1536 0
-2312 2208 0
-1261 4256 0
2490 507 0
-2997 -1916 0
-1671 -2686 0
701 -1413 0
3044 -1299 0
1923 -1083 0
2619 63 0
-4286 -3137 0
2744 2026 0
-192 874 0
4284 -2890 0
4109 4065 0
1950 -1713 0
-1139 -4060 0
1572 2072 0
-4301 -1001 0
-474 3397 0
-1322 2564 0
-3125 2570 0
1665 3414 0
1553 -3962 0
5 3063 0
1645 -2916 0
-2928 -3447 0
-1988 -1430 0
264 -2723 0
-3572 1193 0
1622 -2070 0
1254 -114 0
-2384 3869 0
642 2551 0
2973 2616 0
1486 499 0
1892 2964 0
-1757 -1853 0
1588 -2386 0
-1808 -3181 0
1577 581 0
216 1236 0
-1452 3301 0
197 1722 0
-1709 1016 0
-2789 -2303 0
3709 -2632 0
-1842 -2805 0
3381 -453 0
-375 -1278 0
-365 -1701 0
-154 1683 0
-4357 4276 0
758 -98 0
256 1621 0
3687 -380 0
-774 1723 0
-182 -3335 0
-3571 -3959 0
1152 2268 0
3929 1108 0
-1668 -2154 0
-3914 2900 0
5 1868 0
3472 1505 0
-2563 346 0
-152 -3869 0
3284 689 0
-3869 -2783 0
1793 2598 0
1823 -2470 0
-1658 -2977 0
-1326 3043 0
-3751 -3280 0
-531 2408 0
-959 3638 0
-248 -301 0
-1127 -1888 0
511 1096 0
1146 4246 0
-1971 3757 0
-567 -2796 0
2014 3270 0
-397 2557 0
-2345 -3939 0
3724 -2913 0
4091 788 0
408 2007 0
315 1244 0
4161 -31 0
-4154 1668 0
156 263 0
4371 2513 0
391 1221 0
-926 1460 0
-431 3628 0
-1336 -3941 0
1567 4215 0
-208 -2114 0
-788 148 0
-658 2999 0
-2486 563 0
-3111 -2693 0
-3355 -1675 0
-2737 3968 0
-2983 965 0
1157 -727 0
-3804 -2580 0
3948 18 0
-1911 -1128 0
-625 2459 0
-101 3101 0
3796 -1542 0
3995 3826 0
3837 229 0
-2310 4026 0
-3075 -4072 0
4077 4175 0
2543 -1725 0
3044 -737 0
-1402 1841 0
4148 -4254 0
488 3398 0
3525 1598 0
1175 -2967 0
654 -1 0
-3753 3029 0
3419 -3266 0
-3152 3909 0
-3415 81 0
532 -3345 0
-1057 -2286 0
895 -3452 0
2949 -2303 0
28 -4101 0
-430 4383 0
-1049 4170 0
49 -514 0
-4329 3954 0
685 -62 0
-1414 -2723 0
3103 -228 0
910 -551 0
-1848 3162 0
-3365 -2248 0
-906 466 0
-3677 2635 0
-2805 -4108 0
1372 -2155 0
-2076 -1739 0
-468 -4304 0
-2818 -728 0
1000 -203 0
-646 -2249 0
1681 -1001 0
-3808 -1614 0
-716 -1555 0
-3290 250 0
3392 -3890 0
3366 -1574 0
-711 -4374 0
3927 4182 0
2720 2460 0
2651 4196 0
2945 -1104 0
-2358 4211 0
2841 -2151 0
-2647 -889 0
-2993 -1328 0
-816 -2550 0
-373 -2302 0
4248 2669 0
3046 1201 0
49 -1268 0
-4378 3810 0
-2841 -3280 0
-3276 3430 0
1217 -1839 0
2712 -4072 0
-3567 1278 0
-4042 2259 0
3096 2995 0
-460 -509 0
-4097 -1439 0
4144 2181 0
1419 -2462 0
-3204 2419 0
948 1564 0
-467 -3377 0
-1759 2156 0
442 -2439 0
-3271 -4065 0
3921 1398 0
2859 912 0
-1531 1474 0
4327 -3444 0
2268 190 0
-3179 -3154 0
2841 697 0
3735 3497 0
1578 2257 0
-1469 -2185 0
-3807 4027 0
-105 -396 0
-2040 -3308 0
4016 -2385 0
-867 -3556 0
-2912 4253 0
-671 -1859 0
2886 -2908 0
-1872 -3459 0
1667 -3677 0
-4057 2105 0
124 -3517 0
2142 -1696 0
1219 -742 0
3760 685 0
-3596 3315 0
-4211 -3949 0
-3645 -1771 0
-754 -3687 0
-517 509 0
-344 -3466 0
2849 2482 0
714 -846 0
-575 4116 0
-3107 779 0
-65 -2384 0
-386 -3295 0
3203 -1352 0
-1826 3058 0
1638 -2345 0
1724 1472 0
1404 1447 0
1597 -953 0
-1753 548 0
303 1922 0
-922 -645 0
4286 -836 0
-2856 -821 0
3584 -489 0
-1546 -2990 0
-3513 2167 0
-303 1778 0
584 2746 0
1028 -4309 0
2660 -4236 0
3950 4227 0
