c NF
p cnf 835 3256
397 -600 0
-195 203 0
698 -202 0
-283 188 0
737 186 0
711 811 0
755 -796 0
-415 374 0
-386 302 0
185 -405 0
-536 353 0
257 -770 0
265 -73 0
348 344 0
371 466 0
572 -417 0
-451 -226 0
-379 -214 0
-328 205 0
393 -496 0
-248 -54 0
-217 319 0
256 -820 0
233 511 0
419 -439 0
528 -452 0
308 181 0
99 826 0
424 -482 0
625 821 0
-412 -71 0
-275 174 0
198 588 0
237 724 0
-307 507 0
437 -803 0
-202 -535 0
-580 554 0
-35 -717 0
-206 -372 0
746 -745 0
239 493 0
-628 258 0
482 -279 0
-829 312 0
-498 295 0
832 322 0
-700 -551 0
-684 299 0
-694 423 0
-563 66 0
-360 564 0
-294 -499 0
-458 -340 0
-496 -229 0
387 554 0
294 -91 0
235 60 0
219 293 0
451 638 0
341 258 0
527 223 0
523 -374 0
184 554 0
-819 289 0
-68 -269 0
-584 456 0
21 -498 0
804 -66 0
-516 676 0
-288 -770 0
244 377 0
-425 558 0
828 2 0
603 -200 0
39 82 0
-636 -589 0
640 -382 0
38 810 0
-601 -21 0
-413 -111 0
608 -39 0
-420 525 0
116 494 0
-211 299 0
-600 -814 0
-815 308 0
-329 -785 0
-338 557 0
479 11 0
306 -531 0
519 428 0
-663 -593 0
577 73 0
106 -249 0
14 -370 0
617 633 0
289 -605 0
740 94 0
-416 293 0
562 775 0
255 -197 0
664 215 0
403 134 0
-196 -71 0
-386 59 0
-237 808 0
764 418 0
-22 -257 0
419 177 0
-380 197 0
-304 118 0
620 -567 0
-449 -471 0
601 -292 0
4 -261 0
-352 -350 0
-578 -756 0
-736 -2 0
261 624 0
451 541 0
-292 -728 0
177 -524 0
505 -495 0
-432 776 0
-117 360 0
-41 -12 0
-769 564 0
-533 737 0
223 -405 0
212 613 0
-70 -60 0
1 -593 0
-652 799 0
-73 301 0
656 826 0
430 -102 0
-732 153 0
-237 -813 0
-534 326 0
-681 -618 0
583 -68 0
613 -539 0
-638 804 0
74 -508 0
-159 128 0
-179 -732 0
72 748 0
-665 -510 0
186 324 0
-710 521 0
635 -670 0
529 -513 0
687 -401 0
-752 754 0
-266 -798 0
80 490 0
672 611 0
-14 459 0
-833 780 0
3 -48 0
-828 -796 0
-494 -794 0
424 -790 0
389 -770 0
-647 632 0
-763 -333 0
-64 -90 0
-552 274 0
-189 -593 0
672 769 0
245 431 0
821 -365 0
-421 766 0
-652 353 0
299 -711 0
-801 309 0
-451 622 0
255 -144 0
412 -816 0
541 -334 0
318 -64 0
-104 558 0
78 710 0
559 -276 0
11 666 0
-765 759 0
-435 202 0
453 468 0
-214 -614 0
804 -646 0
-247 -556 0
357 126 0
582 730 0
-590 433 0
465 -820 0
99 512 0
33 726 0
-724 399 0
-530 407 0
373 772 0
-531 -770 0
-461 285 0
293 513 0
416 357 0
7 355 0
657 472 0
-375 -711 0
-167 77 0
280 -125 0
220 752 0
-81 522 0
-750 -84 0
668 -328 0
-694 -98 0
175 -22 0
-595 129 0
550 402 0
-470 -645 0
-337 -139 0
-185 -672 0
-667 -373 0
-825 -82 0
-201 -217 0
-603 -67 0
253 -646 0
440 -253 0
-455 776 0
-421 410 0
-110 161 0
339 747 0
718 438 0
613 548 0
318 497 0
-97 -392 0
-740 319 0
-450 219 0
810 566 0
271 -260 0
268 -637 0
-699 -509 0
516 569 0
588 -800 0
165 -519 0
349 -213 0
-212 -51 0
467 134 0
673 -536 0
483 739 0
751 -126 0
-328 -334 0
790 718 0
240 756 0
-551 640 0
-728 -188 0
-833 31 0
491 -744 0
265 97 0
-337 -310 0
-714 -73 0
820 778 0
505 -433 0
611 -267 0
-730 387 0
-347 475 0
-98 7 0
-364 -380 0
134 -497 0
-289 56 0
-537 -653 0
513 438 0
-255 -158 0
608 -227 0
-656 491 0
710 56 0
200 -589 0
-303 -498 0
-484 553 0
527 182 0
-768 739 0
-190 737 0
-308 446 0
-290 -782 0
-454 -231 0
355 44 0
220 -376 0
-179 462 0
-690 9 0
-507 66 0
-350 205 0
641 493 0
521 -315 0
257 -272 0
390 110 0
806 463 0
-549 649 0
-624 -575 0
-251 110 0
764 -165 0
168 524 0
-124 403 0
-25 666 0
-115 827 0
-823 -171 0
-768 521 0
-707 326 0
488 61 0
339 282 0
-193 112 0
-420 -329 0
-715 -804 0
68 745 0
274 79 0
534 412 0
-537 251 0
548 133 0
-337 140 0
-367 -631 0
669 -158 0
653 134 0
721 609 0
59 96 0
387 -676 0
-411 619 0
656 -32 0
333 757 0
697 -636 0
-163 -147 0
-347 145 0
58 -112 0
173 -708 0
-282 -394 0
472 -28 0
-647 -163 0
-494 307 0
771 -744 0
200 -164 0
-555 270 0
-483 790 0
200 659 0
-210 271 0
-683 517 0
321 -308 0
746 -60 0
401 -148 0
-240 -54 0
-279 -658 0
-704 381 0
700 302 0
-765 504 0
421 -28 0
-642 -700 0
268 -770 0
-247 747 0
748 24 0
677 297 0
243 -114 0
624 136 0
216 -149 0
-355 -833 0
716 527 0
135 743 0
514 -67 0
-597 -451 0
357 -643 0
218 -204 0
613 96 0
-1 638 0
-107 -73 0
-507 578 0
308 -392 0
-48 604 0
112 602 0
55 -489 0
631 -532 0
799 -358 0
45 694 0
101 488 0
163 -350 0
-547 449 0
659 -22 0
330 746 0
-772 80 0
-324 -535 0
-213 -23 0
-501 -336 0
475 -692 0
-724 -404 0
-31 379 0
282 -240 0
113 -470 0
175 -666 0
-46 438 0
599 -288 0
-715 408 0
-301 -275 0
410 531 0
-567 -43 0
564 216 0
-361 212 0
651 476 0
572 725 0
735 727 0
-803 -750 0
-9 352 0
465 767 0
587 -582 0
834 826 0
181 -45 0
-791 -713 0
93 -159 0
-198 -484 0
783 -149 0
613 -394 0
808 563 0
-60 274 0
387 829 0
-581 169 0
-669 -741 0
287 204 0
227 319 0
365 -55 0
-372 624 0
360 289 0
-280 584 0
76 155 0
822 709 0
-646 782 0
-712 329 0
-549 -644 0
800 304 0
-467 -401 0
593 -415 0
533 -328 0
-92 757 0
-234 -211 0
-483 478 0
658 769 0
-388 304 0
632 619 0
-209 -771 0
-273 721 0
210 778 0
806 668 0
96 -231 0
687 727 0
-740 524 0
593 132 0
512 612 0
-233 745 0
-827 355 0
530 -225 0
42 524 0
679 646 0
18 -556 0
-346 -818 0
170 -599 0
458 -652 0
-623 -279 0
326 -788 0
410 612 0
-260 586 0
489 -413 0
577 755 0
181 -195 0
146 -188 0
97 278 0
-420 -196 0
256 -24 0
211 -584 0
18 234 0
680 -747 0
-144 286 0
-272 306 0
629 72 0
389 -483 0
-643 -132 0
309 387 0
275 -88 0
-546 832 0
414 -774 0
-126 -723 0
566 446 0
515 566 0
152 77 0
558 -567 0
485 797 0
653 -235 0
-292 584 0
-402 299 0
821 -30 0
-544 -628 0
538 -204 0
-717 514 0
-771 -288 0
-408 411 0
-372 -514 0
-238 502 0
-650 -626 0
759 132 0
524 486 0
10 259 0
548 -396 0
-707 -690 0
-427 -479 0
-729 -520 0
-487 13 0
-498 -630 0
177 27 0
-589 -385 0
-1 411 0
-334 431 0
-490 -793 0
-171 292 0
60 804 0
-114 -510 0
202 150 0
199 -287 0
-674 209 0
-563 -12 0
-435 -248 0
-238 -51 0
-377 45 0
2 712 0
15 -603 0
-92 667 0
-597 -436 0
189 397 0
-543 -539 0
821 47 0
704 -609 0
-646 -806 0
17 -6 0
13 312 0
18 41 0
-418 701 0
-422 -417 0
146 343 0
-748 597 0
-575 -206 0
-126 20 0
357 314 0
53 -247 0
-298 438 0
759 613 0
-776 -733 0
-604 -635 0
-643 788 0
481 -367 0
-75 -530 0
-543 554 0
175 490 0
295 -114 0
-543 -630 0
830 -759 0
-401 502 0
-626 -216 0
391 222 0
702 -422 0
144 757 0
-808 -126 0
-528 398 0
361 -406 0
-729 39 0
-733 -738 0
786 334 0
205 540 0
-143 -393 0
-23 76 0
608 -757 0
-24 -647 0
-785 -151 0
59 55 0
131 225 0
-234 -506 0
50 -729 0
778 -708 0
528 212 0
-195 -458 0
-430 -460 0
-757 -300 0
-394 465 0
-372 686 0
535 501 0
-747 648 0
239 444 0
80 -468 0
-711 117 0
-110 -822 0
-287 -599 0
-407 349 0
-523 -445 0
655 -632 0
173 -287 0
-429 -9 0
-232 61 0
518 -407 0
-196 -753 0
-335 -818 0
156 -193 0
672 112 0
-795 -75 0
-785 595 0
135 281 0
-567 -375 0
648 -24 0
-327 -74 0
161 -414 0
570 685 0
-388 -480 0
-47 -237 0
-48 279 0
279 -684 0
-402 -379 0
-727 -737 0
-572 -471 0
-276 285 0
466 -728 0
-64 730 0
818 565 0
134 -462 0
786 278 0
-740 -559 0
533 -92 0
575 -31 0
-268 -81 0
213 558 0
-212 -550 0
326 -719 0
579 -649 0
-785 -236 0
492 503 0
-222 673 0
97 645 0
716 -643 0
515 -787 0
613 -224 0
133 -408 0
-317 -262 0
-37 -741 0
-381 -425 0
-251 -336 0
377 -766 0
69 356 0
827 -3 0
-12 -302 0
60 -159 0
-495 59 0
-260 -737 0
-511 413 0
742 -193 0
-321 518 0
-203 -249 0
754 377 0
87 596 0
-75 8 0
-531 395 0
780 599 0
-49 501 0
498 -481 0
682 -27 0
-550 220 0
-14 562 0
608 586 0
-570 437 0
-308 -32 0
-201 -98 0
109 505 0
-507 778 0
-461 -639 0
725 -661 0
-342 221 0
393 353 0
205 392 0
513 767 0
-801 -744 0
508 828 0
600 -774 0
524 458 0
780 506 0
446 -401 0
775 708 0
627 -505 0
659 466 0
755 -653 0
-358 722 0
749 486 0
-545 717 0
-480 -765 0
811 56 0
749 682 0
411 641 0
211 9 0
357 -48 0
139 -122 0
493 -38 0
537 -67 0
-806 -297 0
213 727 0
804 34 0
45 -112 0
124 -414 0
669 256 0
64 32 0
339 -606 0
-261 -327 0
-217 -435 0
-661 226 0
-254 442 0
77 754 0
105 142 0
472 -24 0
460 131 0
431 -388 0
706 745 0
-110 -516 0
-142 113 0
-47 -461 0
639 -125 0
788 -616 0
-90 632 0
466 -640 0
-692 -237 0
121 -301 0
554 -321 0
398 320 0
-695 47 0
-195 -604 0
-343 -532 0
518 242 0
-310 -767 0
-31 125 0
-519 420 0
241 377 0
377 -112 0
289 95 0
761 -824 0
135 -109 0
149 -700 0
177 700 0
504 -809 0
-147 123 0
391 -108 0
-40 -203 0
52 2 0
-623 -448 0
113 390 0
-612 -580 0
-147 129 0
133 -22 0
624 -642 0
-718 -744 0
670 -777 0
-371 515 0
-832 -667 0
-649 134 0
-243 493 0
69 153 0
-84 -249 0
281 503 0
63 343 0
-155 -156 0
806 -796 0
-781 -163 0
583 384 0
-8 -231 0
-123 176 0
-688 -351 0
293 181 0
379 -198 0
-69 -585 0
-71 -306 0
68 -33 0
129 192 0
624 305 0
559 705 0
47 -456 0
440 -522 0
-750 86 0
273 278 0
431 167 0
-181 709 0
-306 -296 0
92 -618 0
780 -707 0
185 -630 0
-711 11 0
-136 722 0
-621 -199 0
564 799 0
-267 406 0
-768 -167 0
786 167 0
485 -697 0
-540 465 0
339 378 0
177 -760 0
-769 -362 0
-637 229 0
800 426 0
-232 -435 0
162 -825 0
210 -59 0
659 438 0
-536 -773 0
508 573 0
-775 40 0
-256 786 0
-602 -55 0
-151 -713 0
-712 521 0
746 -408 0
337 -733 0
504 -327 0
298 -336 0
-170 -429 0
403 257 0
-141 -327 0
758 85 0
-640 -202 0
-111 -179 0
-593 103 0
94 219 0
-73 -403 0
624 -626 0
-412 767 0
-360 -145 0
563 -486 0
-587 467 0
-700 730 0
-163 -637 0
620 -693 0
-770 -656 0
58 -708 0
68 -495 0
-507 209 0
-640 541 0
320 40 0
672 -263 0
723 665 0
463 -712 0
-51 204 0
-168 279 0
-171 32 0
196 57 0
2 -704 0
-717 573 0
216 -763 0
-451 -370 0
461 -713 0
105 326 0
304 -116 0
18 1 0
-794 76 0
201 371 0
-593 -608 0
-108 -58 0
-58 -598 0
-109 -102 0
-681 374 0
174 -207 0
530 -441 0
689 615 0
211 124 0
97 828 0
-768 583 0
619 327 0
152 -5 0
-69 15 0
-175 603 0
-478 515 0
-417 -167 0
-835 400 0
-561 -641 0
806 -695 0
705 -699 0
-560 -520 0
160 261 0
532 -195 0
672 375 0
53 649 0
402 -236 0
306 301 0
-230 428 0
456 6 0
-533 -62 0
22 410 0
58 352 0
-412 -159 0
-540 -531 0
279 657 0
-376 -13 0
517 -409 0
409 66 0
654 293 0
-289 -704 0
-665 676 0
-84 -480 0
-588 -662 0
-335 -358 0
-496 -795 0
-51 -803 0
-796 526 0
120 468 0
64 701 0
-157 572 0
594 459 0
-48 671 0
555 -216 0
-122 529 0
366 621 0
-174 41 0
589 -162 0
28 -16 0
104 -321 0
-358 -826 0
32 659 0
-543 43 0
87 -606 0
-581 -394 0
-261 -520 0
529 -448 0
-295 341 0
-543 -731 0
-167 -614 0
-664 -269 0
-300 -735 0
-194 688 0
534 772 0
466 576 0
-118 759 0
579 673 0
-358 619 0
256 463 0
-490 788 0
-561 712 0
349 -687 0
-427 707 0
-648 -218 0
629 746 0
-718 -207 0
221 -266 0
-21 352 0
772 503 0
387 -107 0
-156 -251 0
706 -704 0
-679 -335 0
600 406 0
788 594 0
81 -546 0
46 792 0
801 775 0
-732 -797 0
20 502 0
-176 538 0
472 -331 0
-693 343 0
243 -351 0
161 827 0
462 127 0
256 768 0
-711 402 0
-65 -630 0
-178 678 0
-367 -489 0
-743 348 0
-180 -495 0
49 457 0
-380 457 0
101 485 0
766 469 0
-729 75 0
783 -824 0
647 23 0
216 209 0
-452 368 0
-296 -386 0
118 -754 0
-102 -12 0
-493 241 0
-148 207 0
-659 320 0
339 393 0
142 -824 0
-789 658 0
236 175 0
-809 -619 0
40 221 0
735 -372 0
250 803 0
635 -586 0
586 -369 0
-376 649 0
116 -394 0
-479 -442 0
4 104 0
789 511 0
561 221 0
388 603 0
-168 -120 0
161 426 0
712 673 0
97 -673 0
-372 -642 0
-291 -494 0
635 -721 0
433 -91 0
296 423 0
-380 -553 0
550 -441 0
-601 -402 0
713 -652 0
347 23 0
742 89 0
-315 -46 0
-604 -495 0
208 -753 0
426 -811 0
124 -378 0
233 241 0
396 -9 0
603 121 0
271 -310 0
391 -124 0
149 124 0
-807 -789 0
388 395 0
672 -487 0
714 522 0
23 -570 0
-589 78 0
-467 780 0
833 745 0
726 314 0
120 650 0
-809 713 0
-785 -443 0
566 144 0
28 786 0
-156 -361 0
-408 384 0
371 427 0
-273 -474 0
540 207 0
326 -89 0
536 780 0
434 491 0
-262 -82 0
442 685 0
-392 -422 0
-638 -420 0
-820 -108 0
-135 89 0
521 712 0
-488 -277 0
39 -598 0
413 231 0
407 597 0
-237 -140 0
-782 186 0
-695 748 0
726 321 0
51 810 0
834 461 0
-699 -107 0
-690 -260 0
387 446 0
-110 -607 0
-438 45 0
-747 118 0
94 -223 0
827 398 0
629 505 0
-291 -109 0
520 592 0
666 726 0
-756 215 0
36 -36 0
-798 301 0
-645 122 0
-291 -37 0
-568 288 0
-642 -481 0
270 520 0
-748 78 0
-358 -698 0
587 -727 0
802 535 0
-170 -430 0
-731 377 0
-205 578 0
-740 -756 0
-379 -497 0
113 2 0
503 -779 0
584 -202 0
-50 210 0
-733 500 0
-562 -695 0
-48 -277 0
685 -429 0
145 -151 0
-54 -644 0
794 -275 0
-293 804 0
551 320 0
-735 -633 0
416 -101 0
-303 82 0
212 280 0
-135 -441 0
-361 229 0
-108 -189 0
-586 -14 0
-287 -203 0
-313 230 0
36 -445 0
60 -630 0
-806 82 0
-151 378 0
-490 -668 0
-747 179 0
-271 80 0
37 -251 0
491 -677 0
640 -713 0
-756 -738 0
810 -785 0
-707 -565 0
-669 428 0
-82 371 0
-107 237 0
-168 350 0
552 631 0
-625 255 0
517 -478 0
-103 -672 0
-347 746 0
410 530 0
-318 488 0
471 -197 0
17 -365 0
-618 177 0
730 558 0
-763 -533 0
-182 -328 0
183 642 0
-607 -490 0
818 215 0
681 368 0
-443 286 0
544 81 0
-408 566 0
-305 177 0
360 764 0
627 608 0
-9 365 0
-96 -708 0
515 -659 0
427 -73 0
-40 -473 0
520 -152 0
-252 268 0
-459 769 0
19 -580 0
649 -162 0
199 278 0
-39 -413 0
-5 196 0
-307 -781 0
-40 -550 0
-803 286 0
492 789 0
616 -5 0
-6 453 0
17 -72 0
684 752 0
113 -65 0
-9 297 0
452 691 0
-335 -651 0
-51 257 0
-535 -250 0
335 686 0
563 -305 0
706 26 0
-224 488 0
-736 -596 0
-41 -787 0
775 225 0
21 205 0
-104 -556 0
297 230 0
713 -695 0
-409 597 0
777 61 0
-353 -322 0
-378 265 0
-738 419 0
664 235 0
-203 -189 0
722 -603 0
-575 -210 0
718 -830 0
468 249 0
-796 650 0
-232 423 0
124 685 0
372 788 0
749 689 0
-315 -417 0
783 716 0
137 551 0
-126 -381 0
-654 -543 0
-156 -741 0
-178 -663 0
521 -680 0
638 -21 0
-462 -205 0
362 548 0
-335 180 0
-168 -137 0
-690 467 0
783 173 0
-462 793 0
277 -336 0
-490 196 0
687 -372 0
466 -426 0
-157 -582 0
-193 781 0
-735 341 0
181 815 0
202 423 0
-83 -661 0
-342 603 0
638 -228 0
679 -483 0
-616 12 0
-379 361 0
-180 287 0
582 691 0
-161 400 0
149 491 0
272 609 0
-356 688 0
-73 759 0
449 793 0
669 663 0
149 -618 0
-442 222 0
-131 -511 0
746 47 0
558 29 0
-768 -729 0
414 -585 0
-648 283 0
-633 -661 0
184 577 0
547 -597 0
-201 764 0
614 -565 0
515 -499 0
458 -623 0
245 40 0
-727 493 0
-479 -391 0
590 -172 0
-809 -739 0
518 -693 0
-681 -162 0
-554 38 0
516 125 0
660 463 0
395 -597 0
294 37 0
-178 446 0
-148 -535 0
659 656 0
-830 701 0
241 -661 0
-181 -201 0
127 585 0
-425 111 0
-816 -392 0
-333 653 0
-268 -427 0
-338 -806 0
287 -732 0
-84 513 0
465 -79 0
-404 295 0
555 95 0
832 409 0
828 -541 0
30 -499 0
-744 593 0
91 -499 0
-455 -570 0
370 474 0
-141 507 0
-580 -662 0
398 541 0
-549 -576 0
757 -215 0
706 63 0
527 185 0
673 4 0
278 245 0
804 512 0
72 -811 0
295 730 0
-205 721 0
-722 657 0
516 -674 0
160 697 0
-382 219 0
677 -438 0
-235 -450 0
-532 564 0
-734 722 0
-224 -646 0
-8 584 0
-477 240 0
-273 -785 0
770 101 0
-695 -117 0
342 523 0
-292 623 0
-109 -422 0
668 -798 0
605 641 0
113 -575 0
185 -765 0
-690 522 0
632 728 0
282 208 0
680 332 0
-614 602 0
204 -318 0
-182 -499 0
218 520 0
-588 353 0
759 -220 0
808 220 0
227 184 0
669 509 0
372 -277 0
455 -637 0
660 -722 0
438 20 0
304 796 0
782 -592 0
-435 -283 0
-461 -833 0
10 -527 0
626 -648 0
-420 -565 0
38 -415 0
141 222 0
-714 -454 0
289 -598 0
683 669 0
167 635 0
685 -644 0
-121 779 0
212 640 0
-448 -382 0
-197 57 0
192 173 0
-480 -746 0
72 659 0
69 -690 0
746 149 0
-15 -311 0
130 -163 0
216 -476 0
-138 216 0
368 642 0
247 90 0
309 -296 0
491 86 0
-753 -748 0
-723 488 0
293 515 0
97 683 0
-435 595 0
-741 -689 0
-413 830 0
-61 -784 0
443 -725 0
344 -189 0
87 778 0
485 227 0
552 -71 0
792 704 0
-480 -205 0
-282 -185 0
397 332 0
304 789 0
-556 205 0
627 655 0
-181 649 0
733 -155 0
-159 392 0
-815 -170 0
115 739 0
-738 -582 0
-69 -782 0
605 680 0
492 -485 0
599 -637 0
-235 371 0
119 -818 0
144 810 0
319 433 0
817 -335 0
789 -581 0
-591 -762 0
-506 383 0
130 -694 0
389 -5 0
592 341 0
-825 -114 0
169 -203 0
-17 344 0
514 -552 0
-416 -798 0
-674 220 0
-710 -818 0
-542 647 0
665 292 0
569 293 0
29 -808 0
830 382 0
783 662 0
-455 -236 0
482 -809 0
-112 -445 0
-427 638 0
-600 625 0
597 -261 0
780 828 0
-123 -675 0
516 -418 0
-379 -381 0
-237 -226 0
-497 -367 0
659 408 0
-179 204 0
159 -401 0
615 112 0
-206 -444 0
749 36 0
185 223 0
-493 -232 0
605 147 0
-300 717 0
315 -427 0
-528 -317 0
-454 121 0
-28 683 0
297 -473 0
527 501 0
212 162 0
-427 -699 0
387 558 0
819 -658 0
158 424 0
-261 779 0
-81 -235 0
240 743 0
799 65 0
-459 -469 0
679 -425 0
-148 -813 0
-347 665 0
45 -479 0
538 -670 0
-744 -375 0
-102 763 0
382 -313 0
505 -62 0
268 -199 0
834 294 0
804 45 0
546 -385 0
87 -484 0
352 -634 0
-100 -386 0
-167 521 0
23 -260 0
-670 -224 0
351 705 0
201 -203 0
389 223 0
181 -279 0
678 -655 0
-567 -33 0
-168 -507 0
-408 741 0
10 -464 0
365 -732 0
139 -805 0
185 -494 0
624 775 0
-154 -782 0
527 257 0
612 -157 0
87 -83 0
-824 560 0
111 304 0
-543 -807 0
814 577 0
-487 -747 0
512 -794 0
-450 152 0
770 -623 0
378 -340 0
120 -602 0
-707 782 0
215 -388 0
15 492 0
-167 -112 0
-734 137 0
-721 -818 0
-211 146 0
406 491 0
-307 667 0
683 -544 0
-525 344 0
210 192 0
-771 656 0
-626 -199 0
-364 46 0
-794 -804 0
753 -62 0
-185 -473 0
349 494 0
-816 -166 0
307 -418 0
-828 -334 0
-291 534 0
390 517 0
-735 268 0
-404 -372 0
772 -365 0
-495 678 0
-425 694 0
676 820 0
620 831 0
835 100 0
100 792 0
-230 353 0
-166 462 0
829 -366 0
137 -627 0
-652 -624 0
297 -31 0
832 425 0
-824 724 0
-472 -636 0
306 -538 0
620 100 0
35 69 0
727 234 0
16 -591 0
826 9 0
-535 -301 0
-68 587 0
-195 -682 0
-369 540 0
785 41 0
-729 -284 0
-300 29 0
-321 -319 0
215 -90 0
541 573 0
306 -201 0
-611 -629 0
748 -622 0
18 -409 0
-418 624 0
96 792 0
635 588 0
60 723 0
76 -482 0
-483 -320 0
290 467 0
-335 -252 0
572 -332 0
38 682 0
-658 47 0
-805 -583 0
336 346 0
-297 146 0
748 -532 0
-161 -740 0
488 523 0
242 303 0
324 333 0
777 449 0
-53 -80 0
449 817 0
748 503 0
824 77 0
-490 -746 0
286 787 0
615 -446 0
788 -546 0
257 116 0
-247 -290 0
244 -822 0
725 466 0
-193 254 0
-747 680 0
-580 20 0
639 -442 0
418 135 0
605 -607 0
-347 -580 0
-522 595 0
-258 613 0
739 457 0
-756 -31 0
524 -363 0
-437 -684 0
-575 -452 0
10 -252 0
377 -289 0
284 305 0
4 808 0
-688 554 0
-347 -531 0
-90 101 0
-798 398 0
-311 502 0
381 -414 0
-767 -536 0
479 779 0
-523 -185 0
500 -8 0
-734 -13 0
520 538 0
352 828 0
-35 218 0
-571 537 0
566 241 0
571 80 0
-139 267 0
703 -170 0
-668 -33 0
-152 -568 0
633 -589 0
69 521 0
-260 -180 0
-46 830 0
239 254 0
-782 118 0
-158 426 0
-552 354 0
-581 306 0
799 269 0
716 -92 0
41 -224 0
-80 231 0
-148 66 0
-729 35 0
40 343 0
666 113 0
569 550 0
104 -699 0
-738 -166 0
-46 544 0
-642 -771 0
-707 271 0
485 835 0
399 712 0
-362 -19 0
-440 282 0
477 -731 0
-87 540 0
716 626 0
659 -447 0
-287 416 0
-691 66 0
293 46 0
-107 -831 0
179 -684 0
465 -230 0
-313 693 0
-559 276 0
57 830 0
-833 -692 0
-735 482 0
354 704 0
-214 717 0
-10 127 0
320 -481 0
524 -163 0
89 -566 0
303 -180 0
11 -511 0
51 -311 0
-408 412 0
545 536 0
-509 -558 0
-775 -24 0
293 724 0
-421 -632 0
-84 824 0
-125 787 0
620 19 0
146 453 0
-751 399 0
-539 -616 0
-71 77 0
136 134 0
174 -645 0
-39 356 0
562 -763 0
677 284 0
240 -761 0
68 69 0
500 -678 0
534 -305 0
415 -316 0
472 706 0
-505 -171 0
544 -194 0
-349 -707 0
101 604 0
-149 -639 0
-310 -345 0
620 557 0
47 631 0
276 826 0
-20 632 0
-520 522 0
43 438 0
-531 -692 0
-560 -604 0
482 -632 0
-698 512 0
-582 682 0
250 -241 0
-287 -198 0
-569 164 0
208 4 0
570 682 0
326 752 0
736 -462 0
-367 -705 0
-518 783 0
-230 708 0
752 -477 0
-818 340 0
-273 -480 0
-567 318 0
395 -206 0
-791 534 0
89 -804 0
330 746 0
284 -405 0
488 -469 0
357 754 0
390 609 0
-442 -380 0
748 167 0
453 -352 0
-238 196 0
544 -304 0
594 777 0
-794 678 0
-258 -831 0
-291 129 0
573 119 0
-535 -818 0
46 -587 0
378 326 0
-554 -805 0
592 160 0
-322 594 0
-195 776 0
690 -331 0
-784 -596 0
198 829 0
-198 683 0
-785 -477 0
-35 -572 0
724 -614 0
-70 745 0
87 -685 0
529 -582 0
-604 372 0
22 -88 0
450 223 0
147 -831 0
226 -169 0
76 441 0
381 223 0
-481 -806 0
635 -785 0
-375 -756 0
665 -558 0
11 649 0
-652 204 0
-587 -831 0
142 723 0
745 360 0
373 130 0
137 -507 0
-528 620 0
523 -268 0
443 315 0
-416 -618 0
160 -48 0
-822 -484 0
795 140 0
47 -400 0
727 463 0
819 293 0
-7 -431 0
18 180 0
631 129 0
116 -375 0
-315 321 0
564 382 0
90 240 0
52 76 0
413 -495 0
33 -469 0
-291 -724 0
463 158 0
790 134 0
-116 136 0
183 -7 0
302 409 0
48 501 0
203 -585 0
121 -362 0
-219 -316 0
-405 776 0
5 482 0
-738 -719 0
359 353 0
654 -833 0
-750 150 0
-252 795 0
-511 210 0
-317 -71 0
-690 -266 0
576 128 0
539 38 0
624 204 0
-370 -48 0
-816 115 0
363 -490 0
257 727 0
-349 -266 0
-322 715 0
739 -547 0
548 499 0
515 -540 0
-731 44 0
559 291 0
-141 672 0
-120 -593 0
-27 120 0
-21 -489 0
716 403 0
-828 -461 0
-173 -511 0
-648 -626 0
226 574 0
116 406 0
185 758 0
-44 -382 0
-310 -348 0
-156 173 0
-640 -24 0
-39 828 0
331 -506 0
280 -389 0
-768 258 0
615 -95 0
82 -802 0
-638 332 0
-451 -376 0
-261 379 0
-551 37 0
410 -548 0
-351 -736 0
246 669 0
-248 259 0
243 -807 0
82 -513 0
-692 -478 0
80 388 0
263 75 0
640 -718 0
792 -800 0
-771 657 0
-662 -33 0
127 815 0
682 12 0
-678 685 0
-101 304 0
-162 -5 0
-610 212 0
-599 178 0
-560 -208 0
-275 506 0
294 -500 0
-275 -526 0
770 726 0
-529 755 0
810 529 0
482 327 0
-475 -139 0
689 801 0
-758 -362 0
-163 -233 0
415 588 0
-561 -214 0
-674 767 0
319 487 0
400 808 0
204 -386 0
-347 653 0
808 -757 0
-179 -193 0
-394 -270 0
768 635 0
-800 85 0
466 -726 0
251 89 0
-736 -255 0
183 -12 0
387 -746 0
-157 -291 0
-341 -125 0
-85 795 0
-180 796 0
-117 577 0
614 560 0
555 -537 0
-750 -746 0
279 -763 0
622 620 0
-51 -701 0
-357 -421 0
-345 -430 0
240 274 0
724 47 0
-85 -117 0
282 -769 0
-412 -759 0
-469 -16 0
359 -831 0
-166 -638 0
218 -107 0
13 -568 0
-444 -151 0
720 185 0
598 778 0
534 -401 0
587 20 0
440 -222 0
-563 -298 0
53 -818 0
680 669 0
374 -571 0
-111 303 0
-610 -441 0
-78 819 0
-556 820 0
648 -188 0
212 683 0
-800 284 0
486 752 0
679 -37 0
-172 551 0
710 591 0
-259 -88 0
332 208 0
-104 324 0
15 -520 0
-146 -741 0
125 716 0
-283 251 0
387 -298 0
271 300 0
785 -815 0
274 258 0
-785 -468 0
56 264 0
676 796 0
-327 460 0
578 -585 0
-406 812 0
245 -189 0
776 793 0
655 -309 0
387 -267 0
-516 282 0
438 576 0
403 -7 0
-712 -443 0
554 233 0
99 314 0
473 396 0
204 -98 0
-287 486 0
602 -539 0
-40 -408 0
-91 790 0
324 -780 0
246 -125 0
689 -151 0
-820 -156 0
428 -759 0
-794 -479 0
-296 -794 0
-254 577 0
-491 697 0
-14 330 0
-125 585 0
-777 762 0
339 -217 0
-374 255 0
467 260 0
-744 -718 0
-455 554 0
762 -28 0
253 -786 0
-813 673 0
244 -328 0
-1 -640 0
345 -328 0
518 293 0
-716 352 0
-692 166 0
799 482 0
835 111 0
542 134 0
-601 -288 0
-787 -709 0
588 -62 0
-375 -171 0
119 -333 0
508 -33 0
219 215 0
461 739 0
171 574 0
125 -176 0
-629 -30 0
276 -803 0
-673 544 0
-342 138 0
17 706 0
68 -321 0
61 19 0
-463 -382 0
746 795 0
32 316 0
78 -421 0
779 -455 0
-185 -528 0
164 -340 0
225 -706 0
-487 231 0
456 -327 0
737 719 0
551 -163 0
-126 277 0
613 -522 0
-219 150 0
755 615 0
773 293 0
-112 -693 0
519 653 0
-176 -825 0
-652 406 0
662 23 0
-365 -571 0
730 41 0
-488 184 0
-90 -298 0
-249 -728 0
95 175 0
41 -527 0
-541 -334 0
200 -157 0
395 -749 0
95 137 0
-14 24 0
745 -753 0
181 -746 0
-114 218 0
504 419 0
748 -815 0
-408 84 0
40 -563 0
671 -803 0
-479 -149 0
326 -820 0
-13 578 0
443 -834 0
238 -172 0
226 -256 0
411 -701 0
-266 377 0
-233 186 0
-539 -684 0
460 -798 0
133 492 0
302 -148 0
258 -731 0
-831 488 0
637 241 0
709 683 0
222 -652 0
49 -472 0
626 -310 0
-372 565 0
454 -71 0
-481 835 0
-3 694 0
-418 -79 0
333 -85 0
42 804 0
474 -531 0
-247 336 0
439 -288 0
-697 572 0
-404 -382 0
123 45 0
-560 -129 0
557 -61 0
-463 -568 0
-511 -124 0
767 -248 0
760 388 0
12 779 0
708 259 0
-109 -89 0
685 -4 0
-386 -327 0
-196 -525 0
-706 -769 0
-450 -647 0
801 -630 0
-583 -313 0
-814 398 0
281 538 0
229 -343 0
-172 -577 0
673 684 0
679 790 0
-743 -674 0
-166 -401 0
621 -652 0
-660 474 0
-266 -809 0
138 211 0
365 -746 0
833 34 0
-296 -257 0
632 416 0
326 -699 0
-367 -387 0
-249 -729 0
280 -714 0
-474 -5 0
119 -459 0
192 -303 0
619 -441 0
668 -462 0
-733 794 0
-650 474 0
-14 216 0
-251 827 0
400 613 0
438 830 0
-153 -111 0
-238 377 0
662 128 0
492 638 0
-92 -28 0
-768 216 0
-8 -155 0
501 190 0
-351 682 0
-510 276 0
-303 -570 0
252 -179 0
-451 34 0
-380 112 0
-827 -145 0
247 673 0
760 63 0
-798 -514 0
-635 482 0
-105 -640 0
-399 -334 0
285 -46 0
792 528 0
78 647 0
705 -807 0
758 -637 0
-368 -747 0
-478 -265 0
-222 -9 0
-504 26 0
-367 237 0
792 174 0
220 809 0
163 467 0
211 107 0
-822 -712 0
-693 -347 0
-571 61 0
-581 829 0
783 -118 0
-267 680 0
-161 -291 0
589 349 0
765 579 0
-240 -107 0
-736 -237 0
-484 636 0
-30 211 0
-599 114 0
214 -481 0
-825 -644 0
579 -21 0
-107 406 0
821 -247 0
-54 94 0
141 43 0
-546 142 0
-506 -779 0
-132 443 0
-694 -777 0
615 344 0
-251 128 0
672 -265 0
-813 -315 0
762 804 0
-315 423 0
-744 255 0
-742 614 0
-356 -714 0
201 30 0
-818 823 0
-266 -560 0
105 115 0
-618 478 0
-481 -825 0
804 101 0
-495 662 0
-708 259 0
-583 -88 0
-217 779 0
-22 502 0
-484 -737 0
-660 655 0
-445 778 0
222 -455 0
-765 516 0
191 -511 0
724 580 0
-535 94 0
689 -473 0
605 526 0
468 -770 0
456 777 0
542 759 0
29 215 0
778 362 0
240 -299 0
-331 -388 0
-618 428 0
170 -684 0
-646 554 0
508 -393 0
-401 -225 0
-338 564 0
-825 -539 0
-188 -154 0
730 144 0
-798 -172 0
-629 -104 0
-707 85 0
411 392 0
-273 34 0
-720 384 0
45 -626 0
413 -498 0
789 235 0
120 486 0
-21 239 0
-334 -13 0
-180 394 0
-553 -143 0
534 229 0
-833 671 0
-5 540 0
283 276 0
-606 65 0
365 97 0
-274 685 0
-246 -107 0
-728 667 0
-340 -55 0
-689 -515 0
-525 701 0
330 -683 0
757 -541 0
-533 424 0
793 724 0
-388 -592 0
602 -57 0
256 300 0
506 86 0
218 -480 0
-582 -143 0
-475 -539 0
-586 -509 0
830 -566 0
657 -331 0
813 -198 0
573 818 0
305 788 0
-416 635 0
-103 530 0
-525 -765 0
83 258 0
-331 219 0
502 363 0
-782 219 0
-783 26 0
-102 56 0
-290 440 0
411 -578 0
804 697 0
-377 702 0
-699 -367 0
460 309 0
76 343 0
-109 -111 0
-728 -631 0
584 -424 0
-561 -710 0
-54 -107 0
-593 -181 0
-155 89 0
-79 565 0
-157 244 0
-64 572 0
-100 -207 0
-271 349 0
-162 573 0
-789 548 0
702 518 0
-104 -224 0
504 269 0
789 -259 0
-104 -715 0
638 191 0
679 741 0
443 -290 0
36 -816 0
615 318 0
-383 -767 0
407 -184 0
-685 -648 0
-480 109 0
320 -802 0
239 -419 0
-496 -172 0
-312 402 0
-815 764 0
-482 396 0
-9 827 0
-775 -421 0
386 -364 0
-667 582 0
587 63 0
776 -688 0
577 396 0
486 -223 0
196 611 0
-298 -439 0
200 255 0
187 -782 0
-756 813 0
-120 526 0
191 776 0
-385 -447 0
-734 -693 0
149 95 0
593 795 0
-737 549 0
-223 132 0
-756 108 0
121 -208 0
90 649 0
-330 278 0
-336 564 0
-429 334 0
-249 -85 0
334 161 0
183 -444 0
524 599 0
443 -740 0
649 -663 0
-454 -378 0
821 302 0
349 658 0
641 664 0
671 534 0
-39 527 0
-669 -732 0
254 -374 0
-661 336 0
503 -351 0
-815 106 0
565 -248 0
611 819 0
-469 -726 0
256 -239 0
250 -488 0
468 201 0
370 212 0
-206 276 0
-779 476 0
586 -614 0
395 37 0
-703 -784 0
-509 726 0
-453 286 0
90 285 0
-826 131 0
611 446 0
263 721 0
-733 -593 0
23 -436 0
169 8 0
832 243 0
413 -590 0
749 -640 0
258 543 0
520 488 0
-318 766 0
-53 -257 0
-712 205 0
821 224 0
828 248 0
-172 -631 0
521 -70 0
-753 -119 0
-639 -786 0
-761 396 0
769 514 0
411 747 0
719 -119 0
-388 491 0
-784 232 0
503 -645 0
821 136 0
23 627 0
140 672 0
269 -236 0
-552 -764 0
78 -396 0
-779 527 0
169 -315 0
788 -489 0
257 330 0
-112 465 0
15 -591 0
99 647 0
821 359 0
-516 -196 0
797 -107 0
598 289 0
-692 629 0
697 -753 0
324 -160 0
-84 122 0
-771 265 0
672 230 0
175 -740 0
773 -347 0
622 451 0
535 -313 0
-656 76 0
608 4 0
-302 -708 0
-109 614 0
579 152 0
-510 608 0
390 786 0
810 -205 0
274 740 0
532 -418 0
749 726 0
590 -328 0
396 348 0
-37 -625 0
173 -835 0
-367 -655 0
-495 352 0
-609 245 0
345 -674 0
-430 -741 0
-441 -269 0
-330 705 0
-100 347 0
-643 727 0
-644 730 0
365 467 0
329 -18 0
650 -704 0
200 28 0
3 -625 0
25 91 0
550 127 0
-135 434 0
-710 285 0
-356 -83 0
192 -266 0
26 -321 0
-824 92 0
231 796 0
467 58 0
827 -708 0
102 2 0
60 26 0
100 746 0
-589 -49 0
-39 722 0
467 555 0
-675 791 0
-124 -103 0
-279 717 0
-217 829 0
-136 2 0
46 311 0
491 314 0
-528 -238 0
425 -537 0
-805 -320 0
-780 391 0
142 212 0
-458 175 0
-54 143 0
355 -156 0
-571 817 0
-44 652 0
-298 -6 0
-18 131 0
102 416 0
705 301 0
-630 648 0
-634 464 0
-490 610 0
557 319 0
329 659 0
820 -106 0
835 630 0
660 -672 0
-229 730 0
-700 -693 0
-363 -72 0
-495 379 0
-64 494 0
388 -307 0
-3 660 0
-302 555 0
10 -558 0
-510 251 0
146 -641 0
-543 -741 0
-633 624 0
-492 665 0
-127 -202 0
-408 -656 0
657 356 0
-168 -195 0
517 -533 0
-532 -114 0
701 705 0
125 160 0
-675 -304 0
-54 -105 0
650 -117 0
120 505 0
-315 46 0
493 115 0
-54 -158 0
665 -145 0
-461 184 0
118 131 0
194 502 0
-354 -736 0
724 -822 0
235 -155 0
-452 131 0
-464 -782 0
-490 406 0
-551 325 0
23 165 0
-3 -260 0
719 736 0
-629 515 0
683 197 0
-626 -181 0
34 -691 0
818 755 0
660 -568 0
-471 788 0
749 -388 0
-107 207 0
240 -827 0
-690 53 0
-690 -315 0
823 -327 0
806 119 0
-583 -565 0
512 181 0
-654 44 0
756 -809 0
75 635 0
20 -655 0
-708 19 0
517 -582 0
-147 485 0
196 -490 0
200 -564 0
-31 -675 0
428 -816 0
605 -367 0
402 -833 0
677 666 0
-291 642 0
101 396 0
-340 468 0
285 658 0
497 -275 0
-590 -6 0
-712 -506 0
578 719 0
821 387 0
250 820 0
782 -600 0
660 -427 0
617 -398 0
-70 738 0
-36 -340 0
565 361 0
37 569 0
-291 710 0
579 136 0
-92 -14 0
-654 -704 0
-477 -286 0
743 -269 0
53 -188 0
-681 705 0
342 378 0
-188 -713 0
-429 758 0
501 -290 0
474 -445 0
-704 -484 0
706 344 0
-200 121 0
237 -815 0
-31 -345 0
460 -494 0
-252 -106 0
720 -601 0
306 -352 0
608 540 0
810 786 0
-332 354 0
-241 -125 0
-373 -385 0
697 -785 0
-123 -373 0
524 -765 0
-728 391 0
372 -308 0
-241 -254 0
271 674 0
584 -537 0
-787 74 0
439 -382 0
434 776 0
-422 306 0
247 757 0
-195 129 0
531 -448 0
498 -689 0
-485 -519 0
389 -434 0
639 289 0
802 -592 0
-701 -728 0
184 -89 0
-531 -353 0
-8 -405 0
326 382 0
416 462 0
59 -760 0
89 263 0
575 -436 0
-607 -546 0
333 -39 0
-196 35 0
-245 749 0
-690 -172 0
-482 605 0
348 710 0
139 -405 0
-143 369 0
361 265 0
389 -151 0
-702 -769 0
-245 476 0
460 -308 0
-798 792 0
72 -420 0
-800 35 0
730 113 0
614 -747 0
23 235 0
823 127 0
-825 481 0
392 -791 0
259 218 0
-55 -659 0
-609 -601 0
456 42 0
15 -342 0
-335 -476 0
118 -212 0
-329 -469 0
-224 831 0
428 310 0
510 -214 0
-184 132 0
503 -263 0
154 130 0
788 381 0
579 727 0
200 529 0
530 -475 0
204 455 0
-733 614 0
-653 463 0
399 -583 0
775 120 0
202 136 0
-346 -499 0
-763 519 0
-422 113 0
-161 -13 0
596 93 0
465 -333 0
675 -593 0
-729 -492 0
-506 272 0
-461 210 0
-832 -114 0
-404 814 0
678 801 0
33 -413 0
-805 163 0
48 491 0
-23 309 0
431 622 0
330 -800 0
819 702 0
38 -608 0
182 518 0
129 498 0
-479 -705 0
393 664 0
378 730 0
514 -590 0
-742 -662 0
-281 -167 0
812 199 0
-821 428 0
321 -328 0
-444 332 0
-15 101 0
-618 -833 0
324 220 0
548 -747 0
-469 -536 0
332 -731 0
537 760 0
-386 288 0
-12 425 0
-327 -648 0
-167 -695 0
391 -17 0
-372 -196 0
748 -804 0
-230 138 0
-308 485 0
412 -550 0
-775 -737 0
486 -51 0
-831 -693 0
832 -481 0
-101 -362 0
339 516 0
-179 -634 0
-321 -410 0
121 145 0
318 1 0
-107 -324 0
-429 -464 0
-415 -6 0
490 653 0
467 614 0
482 -149 0
231 -275 0
55 50 0
540 -773 0
-800 608 0
-787 -701 0
-607 -438 0
-54 620 0
796 259 0
-37 -648 0
248 368 0
124 -434 0
324 16 0
-236 -646 0
388 -442 0
-266 -229 0
-733 -697 0
453 -699 0
-668 265 0
-188 -763 0
-154 -722 0
480 -68 0
717 668 0
545 160 0
289 151 0
211 336 0
-100 -167 0
80 820 0
192 57 0
-522 -441 0
686 -364 0
361 444 0
499 -388 0
-776 46 0
239 464 0
793 -537 0
-238 561 0
835 -416 0
-335 -704 0
-493 762 0
-450 268 0
625 -421 0
95 225 0
-342 464 0
284 115 0
757 -262 0
377 -104 0
817 -118 0
650 -413 0
612 518 0
-20 56 0
586 516 0
-383 -518 0
674 -360 0
328 -454 0
311 -455 0
490 -570 0
164 -620 0
-620 -171 0
-684 -675 0
-827 -455 0
259 677 0
586 -697 0
-158 -179 0
441 -154 0
-401 -131 0
-755 400 0
479 -386 0
-247 -88 0
-228 702 0
581 -785 0
23 642 0
-827 678 0
461 -9 0
121 189 0
158 -454 0
-340 96 0
-592 136 0
-104 652 0
-143 -274 0
753 -601 0
702 -78 0
-795 -519 0
-267 584 0
-185 220 0
599 709 0
650 17 0
-409 579 0
-236 -311 0
-64 -430 0
398 356 0
-765 -497 0
-697 456 0
399 -215 0
441 330 0
522 -29 0
57 -490 0
-827 -236 0
571 271 0
-771 -691 0
621 -519 0
561 -532 0
503 -553 0
523 -253 0
683 -813 0
544 -296 0
-734 233 0
587 -613 0
-637 -1 0
-694 290 0
239 -707 0
-8 132 0
-646 -185 0
-455 -770 0
372 -583 0
-110 276 0
-680 -167 0
-180 -503 0
-708 219 0
-328 808 0
596 -768 0
572 -776 0
-461 -617 0
-267 790 0
775 -682 0
231 -299 0
661 205 0
-784 -774 0
-545 398 0
701 -662 0
525 -342 0
683 785 0
564 693 0
-413 54 0
-767 97 0
36 179 0
391 -248 0
-106 -511 0
-585 82 0
674 492 0
526 61 0
99 77 0
-9 -489 0
284 -246 0
-412 -781 0
339 -642 0
-23 485 0
560 827 0
220 216 0
711 -363 0
-662 -490 0
622 693 0
-131 -283 0
267 320 0
-593 366 0
140 69 0
-122 415 0
709 647 0
757 -591 0
809 89 0
52 278 0
456 376 0
401 632 0
-571 537 0
-367 394 0
717 -121 0
640 -152 0
-299 -230 0
-105 -511 0
746 -154 0
-3 480 0
341 655 0
-171 784 0
630 -600 0
-62 -671 0
-544 -774 0
-784 770 0
-79 73 0
-255 538 0
-678 -452 0
488 -250 0
-832 -54 0
-530 -580 0
-127 416 0
759 -570 0
-114 -300 0
127 -202 0
-830 608 0
721 746 0
-576 540 0
131 -70 0
-381 -805 0
58 -825 0
-14 389 0
701 -11 0
-551 59 0
-551 -409 0
274 -35 0
-410 -14 0
493 347 0
-79 -158 0
309 10 0
78 -520 0
562 -511 0
474 80 0
46 -741 0
283 -12 0
-83 -454 0
-642 700 0
-536 -230 0
-297 -767 0
341 431 0
547 665 0
-23 705 0
808 777 0
632 -360 0
-409 -744 0
521 -731 0
555 743 0
-435 307 0
-55 324 0
235 466 0
-264 614 0
93 245 0
768 440 0
396 775 0
789 -15 0
722 -302 0
-419 -598 0
-336 -422 0
-49 -237 0
808 367 0
-218 186 0
-657 -180 0
-510 829 0
702 302 0
-410 -734 0
-98 565 0
-366 -784 0
-543 -658 0
-571 85 0
-615 -429 0
835 -281 0
-478 -815 0
-718 -695 0
246 -638 0
-168 -643 0
-99 529 0
-340 -499 0
-243 -774 0
608 -488 0
-191 597 0
276 723 0
649 -178 0
-277 -524 0
827 325 0
-297 -386 0
-385 -201 0
-79 634 0
508 -703 0
-708 -575 0
-672 -110 0
11 256 0
-465 -408 0
541 348 0
-412 339 0
-484 670 0
292 -445 0
-417 -676 0
-439 135 0
799 137 0
302 401 0
-155 323 0
348 307 0
-649 -179 0
-103 -806 0
-387 500 0
-310 -793 0
116 -1 0
177 -643 0
-798 427 0
-351 12 0
-634 -461 0
-254 -448 0
659 431 0
466 -429 0
745 751 0
-696 541 0
515 209 0
726 -650 0
727 770 0
-363 -743 0
289 159 0
-562 330 0
-79 -830 0
500 -104 0
-812 -54 0
-196 -115 0
776 660 0
132 -314 0
36 -814 0
747 -363 0
515 -382 0
-84 -156 0
504 335 0
2 405 0
387 82 0
460 -691 0
700 622 0
-436 -38 0
-336 -450 0
-589 -238 0
-155 -698 0
827 12 0
-315 242 0
-379 -567 0
-178 -616 0
-572 691 0
-447 -440 0
-782 695 0
558 -457 0
-237 830 0
-228 235 0
395 22 0
285 -625 0
-483 47 0
318 643 0
80 -835 0
194 -695 0
372 -114 0
-95 219 0
513 669 0
828 325 0
399 -755 0
280 760 0
72 -82 0
-195 -629 0
92 161 0
141 65 0
-490 -808 0
-91 -257 0
-69 -404 0
793 -621 0
-580 -608 0
-260 -470 0
-207 -713 0
-152 578 0
-321 669 0
74 -351 0
-363 -71 0
-439 -173 0
133 -459 0
-663 -678 0
245 270 0
-715 381 0
250 -28 0
608 -629 0
-325 97 0
-470 -329 0
410 358 0
493 64 0
-820 -273 0
492 -746 0
37 -740 0
-562 -674 0
-111 -535 0
-326 -252 0
-760 235 0
-785 -145 0
-646 -281 0
525 -623 0
-71 -196 0
544 -659 0
193 -182 0
493 756 0
-741 453 0
-424 -814 0
65 -282 0
782 177 0
323 -819 0
-451 -471 0
-96 -663 0
-404 -38 0
-822 -258 0
512 -266 0
-50 -62 0
-661 291 0
-293 -552 0
-717 285 0
355 211 0
-466 191 0
504 728 0
57 310 0
-221 -13 0
512 551 0
-813 -703 0
-641 -111 0
-789 -106 0
-182 -645 0
-261 -828 0
584 -340 0
219 -321 0
664 232 0
-775 -784 0
-823 -360 0
-246 -179 0
-279 90 0
-369 605 0
-661 -618 0
78 -444 0
-708 -544 0
188 726 0
433 178 0
530 -178 0
-570 -629 0
624 -594 0
-356 36 0
-661 -471 0
315 282 0
801 -33 0
724 787 0
-4 -296 0
