c bounds 74 83
p cnf 370 666
203 192 0
49 80 0
-146 -326 0
-26 92 0
263 339 0
-278 -174 0
-142 -131 0
170 14 0
-235 -294 0
185 284 0
40 73 0
347 -91 0
-197 351 0
8 333 0
323 340 0
284 -226 0
-226 53 0
71 137 0
-54 276 0
-188 -362 0
-70 192 0
207 -15 0
173 165 0
2 -324 0
145 245 0
-327 3 0
82 -249 0
-224 -211 0
255 -72 0
247 -81 0
-110 -71 0
323 80 0
26 -49 0
241 319 0
227 -270 0
-346 227 0
-361 -364 0
147 152 0
-269 -224 0
-96 176 0
-286 317 0
-239 -52 0
-363 -335 0
-363 -362 0
179 -205 0
192 -83 0
-230 -105 0
-100 229 0
81 -305 0
62 174 0
233 3 0
36 -209 0
185 -259 0
-239 166 0
344 -195 0
75 315 0
240 -272 0
249 257 0
-349 17 0
221 -37 0
-79 287 0
370 107 0
-81 38 0
94 165 0
71 344 0
-224 -99 0
76 188 0
235 -17 0
-155 -76 0
-324 332 0
-366 -348 0
-207 -287 0
-369 213 0
-118 183 0
-138 -52 0
170 -4 0
126 -34 0
-158 319 0
75 158 0
334 244 0
25 -7 0
74 50 0
61 -328 0
-195 -368 0
175 -56 0
60 -76 0
57 -261 0
-207 89 0
-292 -270 0
-242 251 0
341 245 0
306 359 0
298 -350 0
337 14 0
113 255 0
-57 -240 0
28 9 0
320 2 0
220 101 0
-343 261 0
-234 -195 0
-261 -39 0
-105 -248 0
-107 -299 0
-335 310 0
-292 -290 0
142 301 0
-168 -113 0
236 95 0
337 -266 0
110 316 0
-354 120 0
27 117 0
245 59 0
-294 93 0
153 -47 0
-321 337 0
144 308 0
-271 -72 0
110 -315 0
-109 285 0
202 -148 0
95 45 0
271 -360 0
152 -8 0
25 -212 0
-226 302 0
-332 322 0
256 -243 0
335 -121 0
-218 329 0
302 -49 0
-256 -160 0
-193 -30 0
87 337 0
-301 37 0
-306 -207 0
-123 237 0
239 -333 0
296 289 0
-1 202 0
-293 291 0
25 -249 0
-330 122 0
-125 366 0
26 -300 0
-126 -343 0
194 37 0
-320 221 0
-207 -83 0
284 -321 0
-200 108 0
328 212 0
-354 -224 0
101 -41 0
-34 16 0
188 -195 0
-300 -237 0
111 205 0
-285 235 0
82 202 0
75 319 0
-203 -265 0
-195 -94 0
62 -359 0
152 -192 0
155 -49 0
78 -96 0
-271 111 0
306 -368 0
141 244 0
-210 366 0
238 160 0
-343 -265 0
3 267 0
17 -81 0
223 233 0
191 -98 0
-65 102 0
109 220 0
162 227 0
273 -56 0
-51 -341 0
-125 327 0
-99 -177 0
260 -231 0
152 204 0
70 -70 0
213 -359 0
-164 -279 0
-4 53 0
357 -147 0
-98 107 0
-254 -168 0
-77 157 0
303 -252 0
175 -305 0
193 -146 0
18 187 0
-335 -60 0
-114 109 0
116 -7 0
-217 -56 0
91 364 0
-32 183 0
44 13 0
-20 -367 0
-190 -167 0
230 353 0
-106 101 0
-309 -318 0
121 -348 0
-264 206 0
203 30 0
13 -58 0
-330 36 0
-240 -271 0
188 -221 0
196 -15 0
-72 -189 0
-211 36 0
-200 316 0
171 -123 0
23 -205 0
67 327 0
177 232 0
-295 9 0
-264 -200 0
-131 253 0
189 -114 0
273 362 0
129 291 0
2 -368 0
29 212 0
44 -213 0
-70 -211 0
-79 -95 0
200 -198 0
-123 365 0
228 230 0
286 -349 0
-107 -71 0
221 -33 0
49 257 0
358 22 0
146 255 0
-110 -313 0
-15 19 0
-78 -210 0
273 206 0
73 -312 0
-300 108 0
-34 336 0
-318 95 0
-121 339 0
-131 -216 0
225 -83 0
-78 -364 0
-290 -38 0
-270 -313 0
230 -12 0
-224 -105 0
-168 -75 0
247 83 0
189 -229 0
-365 -163 0
-32 106 0
225 255 0
-116 -193 0
55 -130 0
277 -118 0
-201 8 0
-334 2 0
255 -308 0
232 -175 0
-167 -347 0
63 -337 0
366 206 0
154 -101 0
-59 51 0
-256 -294 0
-2 199 0
175 211 0
-256 -276 0
-153 237 0
-209 -351 0
237 -259 0
-72 360 0
-192 -52 0
295 -85 0
-43 117 0
240 149 0
-16 230 0
212 76 0
-282 186 0
-369 -9 0
-349 -197 0
-24 63 0
-86 344 0
74 255 0
212 -130 0
-128 -47 0
51 111 0
199 1 0
-362 -199 0
63 -66 0
-99 45 0
-59 -100 0
150 110 0
238 140 0
206 -141 0
-42 241 0
-138 -162 0
-173 -98 0
-157 -274 0
149 -366 0
242 -16 0
-177 -250 0
262 129 0
-236 37 0
-82 285 0
-84 245 0
-55 -224 0
326 206 0
-61 223 0
-340 -217 0
8 -84 0
182 53 0
303 -300 0
313 361 0
-216 -150 0
133 -184 0
264 -168 0
158 -256 0
287 -271 0
238 -359 0
203 -46 0
144 -9 0
-197 41 0
-243 -23 0
28 -339 0
-368 82 0
-229 369 0
-248 -94 0
347 87 0
97 18 0
-61 -130 0
308 31 0
293 -330 0
132 158 0
-20 165 0
-205 -68 0
131 -291 0
-40 161 0
-21 267 0
116 273 0
178 -351 0
-73 -79 0
29 -306 0
-28 -11 0
322 144 0
-362 72 0
-168 -179 0
-209 291 0
-136 244 0
41 170 0
-272 154 0
-193 250 0
42 -128 0
65 -331 0
158 75 0
-290 14 0
121 89 0
-85 89 0
-124 215 0
79 -201 0
-124 61 0
-368 341 0
-329 -46 0
-122 -43 0
-299 91 0
-200 -51 0
-15 189 0
353 -105 0
-163 75 0
-275 -180 0
-47 -205 0
-4 -15 0
328 112 0
-118 -14 0
48 137 0
189 192 0
228 45 0
84 -46 0
126 79 0
-252 175 0
-286 122 0
81 -177 0
-274 -73 0
27 270 0
253 -316 0
-294 -23 0
110 240 0
144 319 0
-201 15 0
273 224 0
276 -168 0
-57 93 0
-362 184 0
6 -237 0
-222 353 0
-177 32 0
122 -30 0
-49 -26 0
-63 48 0
-131 -25 0
-149 186 0
-171 318 0
-270 -292 0
194 137 0
87 314 0
80 226 0
318 -153 0
186 245 0
-207 259 0
255 -69 0
-19 -99 0
-81 -199 0
10 74 0
-104 93 0
-129 -99 0
-21 -291 0
-236 133 0
-332 -234 0
163 204 0
-76 291 0
336 -305 0
-141 -135 0
329 158 0
36 196 0
339 78 0
-243 280 0
-186 203 0
-182 -72 0
170 226 0
280 140 0
129 357 0
93 -28 0
-180 172 0
110 -222 0
356 -164 0
220 -354 0
-273 162 0
-320 90 0
28 260 0
-142 237 0
279 88 0
-355 -246 0
287 149 0
-236 234 0
207 119 0
159 267 0
-320 -116 0
339 65 0
-310 280 0
143 -290 0
189 358 0
149 -164 0
-330 131 0
-365 340 0
363 89 0
257 -177 0
170 -99 0
9 284 0
-175 -295 0
165 -128 0
-268 331 0
-171 15 0
-332 -308 0
-73 352 0
361 -279 0
-299 284 0
-94 152 0
-66 98 0
-98 295 0
264 -285 0
88 326 0
199 132 0
314 230 0
-6 -264 0
-24 -63 0
-278 89 0
162 309 0
-173 23 0
172 -223 0
83 -19 0
-46 210 0
250 75 0
-85 -330 0
-42 153 0
306 166 0
87 287 0
-9 166 0
12 353 0
232 -304 0
-269 299 0
-187 -24 0
232 -261 0
-269 238 0
140 13 0
166 196 0
370 -135 0
-201 8 0
316 111 0
-288 117 0
-313 -136 0
-68 -310 0
-54 361 0
-323 234 0
-82 7 0
196 -130 0
-332 -314 0
37 122 0
-54 -283 0
-117 -211 0
-122 48 0
269 189 0
266 -100 0
-114 242 0
356 7 0
-138 113 0
213 218 0
344 -109 0
-187 178 0
-275 -173 0
-351 263 0
6 48 0
211 -34 0
-35 -320 0
190 235 0
109 -69 0
113 144 0
-14 175 0
307 -10 0
183 -207 0
23 97 0
116 193 0
322 73 0
-55 48 0
-136 203 0
139 280 0
-201 -52 0
169 119 0
347 356 0
247 -126 0
-53 -35 0
-17 -207 0
-157 217 0
245 -237 0
-166 -309 0
-43 120 0
-6 -123 0
218 82 0
-97 169 0
-60 156 0
28 -207 0
-106 130 0
174 -94 0
7 102 0
89 -91 0
-275 62 0
-110 -6 0
356 66 0
269 -77 0
317 -94 0
-218 -105 0
-153 -351 0
-315 -253 0
-15 -77 0
-250 110 0
-121 88 0
-244 -114 0
-291 61 0
280 -177 0
-9 240 0
-167 296 0
74 232 0
-30 -72 0
264 5 0
-185 -313 0
-190 269 0
-271 -347 0
-180 299 0
-5 -46 0
175 -73 0
-152 319 0
-91 -24 0
25 361 0
-278 -348 0
-42 -203 0
346 273 0
-96 -105 0
-188 331 0
51 270 0
68 -336 0
224 -4 0
262 95 0
-106 -325 0
111 -171 0
287 337 0
-300 -38 0
310 -29 0
248 133 0
88 260 0
-230 23 0
245 -180 0
-293 45 0
65 198 0
356 -6 0
357 177 0
-24 -30 0
59 -288 0
252 -136 0
279 -174 0
-94 -128 0
253 217 0
-311 -207 0
-194 -104 0
363 357 0
-320 366 0
-149 -54 0
116 193 0
275 296 0
329 -196 0
-300 -142 0
182 -110 0
-309 259 0
-182 252 0
-354 -364 0
-15 -351 0
-295 345 0
137 -239 0
-32 -141 0
178 239 0
192 25 0
337 -305 0
-317 -274 0
-317 -1 0
241 -325 0
-217 -124 0
-310 23 0
-354 213 0
253 -133 0
195 112 0
137 -204 0
36 332 0
-199 183 0
-272 -162 0
-33 263 0
-96 -274 0
-193 20 0
-190 -271 0
-243 102 0
255 -69 0
91 167 0
-365 -46 0
