c bounds 130 177
p cnf 910 1729
-501 -676 0
210 596 0
-845 -24 0
422 -310 0
237 547 0
369 48 0
4 -475 0
-306 208 0
-739 -140 0
277 389 0
601 -455 0
-360 408 0
439 -533 0
880 875 0
293 177 0
414 238 0
-169 54 0
-249 124 0
-421 805 0
-109 343 0
-733 -622 0
-32 -270 0
129 323 0
-52 125 0
545 775 0
119 349 0
-479 169 0
-148 617 0
-754 -150 0
-587 -232 0
-776 727 0
-625 -113 0
-68 -754 0
803 -180 0
-623 395 0
598 240 0
87 -882 0
-814 -696 0
24 113 0
-294 -643 0
-808 148 0
-485 217 0
349 825 0
-309 515 0
240 162 0
-444 658 0
840 313 0
463 -420 0
732 55 0
-836 -260 0
97 396 0
26 -496 0
-363 -484 0
-843 688 0
-278 -477 0
850 -403 0
672 -286 0
324 277 0
601 -119 0
-68 -507 0
761 -630 0
880 478 0
212 746 0
727 306 0
426 -283 0
808 -42 0
-105 -492 0
355 -221 0
-411 540 0
255 -574 0
381 27 0
-613 533 0
-738 85 0
-822 325 0
302 132 0
-656 902 0
-863 560 0
616 -339 0
400 687 0
-785 657 0
307 -841 0
272 448 0
-526 -208 0
-13 -709 0
-635 -728 0
689 -440 0
700 49 0
582 167 0
582 -607 0
-584 -340 0
335 205 0
538 279 0
-582 768 0
808 -250 0
-669 265 0
-22 834 0
-569 630 0
503 118 0
60 -395 0
80 732 0
321 -22 0
-694 816 0
-456 -550 0
-313 -430 0
128 623 0
604 399 0
-733 591 0
87 30 0
409 4 0
-241 -901 0
-611 40 0
209 -651 0
781 -456 0
-394 -62 0
906 -457 0
-22 -226 0
-766 -601 0
756 -590 0
-513 223 0
840 580 0
-14 -77 0
48 -829 0
-440 -662 0
-283 -42 0
447 352 0
257 -611 0
759 -273 0
-656 108 0
-890 -625 0
-172 81 0
418 -176 0
149 -666 0
568 -55 0
820 62 0
387 89 0
-136 676 0
-470 94 0
-856 36 0
17 -485 0
-666 -414 0
412 634 0
54 -812 0
242 -621 0
575 431 0
-21 840 0
-810 -313 0
501 820 0
-499 74 0
-573 442 0
-887 836 0
892 123 0
-44 727 0
-135 453 0
492 -360 0
35 -436 0
248 546 0
814 432 0
358 820 0
-254 -118 0
238 -336 0
87 319 0
732 -731 0
272 801 0
195 -733 0
-346 579 0
-216 -1 0
405 272 0
-68 -1 0
606 -690 0
-633 -681 0
-59 -856 0
-790 262 0
459 -395 0
-562 -821 0
30 802 0
-22 560 0
-869 -699 0
148 -519 0
64 -496 0
24 707 0
-654 552 0
-466 -851 0
435 883 0
-843 115 0
434 -290 0
-632 -364 0
491 857 0
-119 -626 0
640 -508 0
-523 -822 0
645 -797 0
-733 -286 0
12 150 0
-403 584 0
537 -306 0
-613 319 0
-741 543 0
669 -220 0
409 790 0
315 128 0
-617 358 0
-593 -380 0
-711 -40 0
-232 30 0
-786 -199 0
-101 -445 0
-665 -67 0
-438 -818 0
701 -192 0
-634 -333 0
-363 -375 0
847 472 0
454 -333 0
-230 -373 0
820 181 0
-851 369 0
-607 -508 0
168 -551 0
700 -776 0
-101 -567 0
-269 -452 0
-795 -284 0
678 378 0
-485 -21 0
-70 68 0
382 -718 0
-711 -770 0
-862 -509 0
432 703 0
243 785 0
-554 -888 0
-119 -325 0
579 -390 0
875 -214 0
-214 668 0
399 108 0
-632 71 0
-636 829 0
-558 731 0
-626 322 0
-456 -22 0
190 -592 0
-331 115 0
-541 -675 0
781 -893 0
-62 416 0
-499 423 0
665 292 0
-23 -821 0
-299 -178 0
-754 -631 0
364 -410 0
-308 33 0
15 319 0
-454 785 0
475 819 0
-247 -840 0
102 -605 0
-449 -357 0
-812 3 0
416 -56 0
108 360 0
490 -684 0
-684 54 0
-168 690 0
-496 839 0
443 686 0
-726 256 0
-686 19 0
161 226 0
-834 398 0
259 182 0
-579 -491 0
342 -302 0
-490 425 0
776 370 0
-757 -608 0
-288 -623 0
-381 -333 0
-875 2 0
234 -795 0
565 704 0
145 -647 0
400 -27 0
-608 584 0
686 276 0
876 -460 0
279 805 0
-846 467 0
-53 554 0
534 332 0
332 594 0
-383 -151 0
128 665 0
905 -69 0
-558 -798 0
-671 -337 0
136 618 0
-675 827 0
-44 -358 0
-171 -777 0
-265 -20 0
71 -344 0
855 -754 0
624 364 0
502 -834 0
547 619 0
-174 -436 0
878 181 0
77 226 0
571 108 0
336 -6 0
98 498 0
130 -325 0
389 -397 0
-886 417 0
579 -360 0
778 739 0
881 -346 0
351 568 0
-73 907 0
-685 -211 0
340 -579 0
224 65 0
-825 850 0
-477 157 0
-344 835 0
-846 475 0
-599 -374 0
-672 370 0
-379 -815 0
-354 -532 0
267 -773 0
-739 575 0
-517 -523 0
682 -129 0
-333 146 0
285 485 0
212 -129 0
-819 -161 0
378 40 0
-564 -832 0
202 530 0
-670 -254 0
900 -825 0
-734 -99 0
208 435 0
-784 -487 0
235 683 0
-292 -740 0
-880 -329 0
-394 117 0
864 -631 0
-413 903 0
136 370 0
322 -878 0
686 90 0
726 -508 0
-439 -568 0
823 -247 0
865 902 0
-174 751 0
667 -697 0
662 -528 0
448 -377 0
34 511 0
-574 433 0
-239 -103 0
-96 -665 0
769 -91 0
96 -615 0
-845 484 0
774 -2 0
-149 248 0
465 340 0
-653 404 0
347 -263 0
-381 777 0
290 90 0
-726 -365 0
-780 43 0
-17 448 0
122 674 0
-193 -511 0
-222 568 0
172 -199 0
-556 886 0
710 382 0
-759 7 0
-677 519 0
541 565 0
701 -103 0
-437 23 0
-126 -111 0
-799 679 0
84 698 0
-812 549 0
215 427 0
869 432 0
847 -170 0
63 355 0
-790 627 0
435 -30 0
-273 719 0
55 -81 0
-726 234 0
93 -169 0
-120 590 0
742 412 0
-265 -499 0
-113 -64 0
110 846 0
898 266 0
-228 -129 0
-723 -69 0
632 -131 0
-698 458 0
-598 32 0
839 -393 0
-614 -247 0
87 -157 0
-533 723 0
-831 -162 0
281 -138 0
187 388 0
778 378 0
-669 -692 0
893 -548 0
-735 -239 0
-562 -909 0
805 2 0
-485 641 0
62 704 0
-602 392 0
602 -381 0
-883 -176 0
751 -68 0
527 598 0
-735 -246 0
-908 370 0
435 -726 0
662 -892 0
259 -732 0
350 -304 0
497 849 0
-726 -486 0
-198 264 0
-560 -565 0
594 -400 0
809 467 0
-713 -71 0
65 -253 0
-766 2 0
-120 826 0
60 432 0
-903 -175 0
592 389 0
-467 -548 0
-112 314 0
-728 538 0
-724 302 0
-5 -179 0
830 281 0
-822 678 0
20 -771 0
-577 370 0
301 -715 0
-518 514 0
710 -638 0
100 118 0
-231 -854 0
-198 249 0
-156 -786 0
106 504 0
296 -460 0
635 896 0
753 634 0
40 297 0
83 61 0
-198 225 0
862 60 0
-490 9 0
824 -88 0
820 -201 0
190 -777 0
-828 -627 0
-215 -188 0
-636 -767 0
818 -647 0
177 -608 0
-263 578 0
100 774 0
669 -906 0
258 -508 0
-755 -501 0
-678 -713 0
278 404 0
135 -88 0
-523 378 0
319 374 0
-777 -161 0
281 -345 0
225 905 0
435 213 0
429 -425 0
-579 502 0
-733 368 0
137 398 0
-496 13 0
77 -720 0
-489 95 0
-684 286 0
94 563 0
-311 142 0
-900 596 0
-196 -897 0
-339 -656 0
-443 681 0
-813 644 0
-327 50 0
234 100 0
39 65 0
716 -150 0
-591 676 0
-355 182 0
-325 -274 0
-836 93 0
-177 -577 0
435 712 0
85 -175 0
650 622 0
104 -627 0
-37 -109 0
-675 -734 0
-83 -849 0
446 740 0
488 42 0
465 832 0
417 -756 0
-211 305 0
336 810 0
-894 19 0
217 -607 0
564 -858 0
-673 -775 0
-42 235 0
-573 -641 0
367 160 0
545 -546 0
-241 767 0
627 74 0
-607 -89 0
-300 -58 0
639 494 0
-29 382 0
-882 -259 0
626 779 0
-176 -785 0
-369 388 0
631 416 0
-303 773 0
-690 545 0
-345 735 0
122 73 0
-472 -740 0
803 21 0
-194 -630 0
-161 177 0
-759 751 0
-624 -631 0
475 507 0
470 80 0
906 -899 0
113 -818 0
-338 813 0
117 439 0
326 -640 0
-436 -112 0
-403 772 0
610 -813 0
-188 316 0
518 824 0
575 332 0
-466 790 0
-324 -314 0
34 539 0
26 260 0
-351 476 0
846 859 0
-349 -371 0
878 -898 0
-614 -875 0
24 605 0
240 59 0
-741 -187 0
-57 -795 0
597 315 0
-438 -866 0
-6 664 0
-728 -842 0
896 902 0
89 -205 0
-321 816 0
-193 -653 0
-68 -521 0
-663 -365 0
336 -303 0
-782 208 0
-98 110 0
39 -132 0
137 -739 0
-66 102 0
622 60 0
-594 -653 0
-282 -603 0
328 -732 0
-897 -287 0
292 -618 0
295 769 0
-197 820 0
411 837 0
368 -439 0
-551 -467 0
-505 -737 0
-899 468 0
594 576 0
-273 -57 0
423 -794 0
744 -225 0
281 -656 0
865 -548 0
-474 649 0
364 486 0
-644 -711 0
447 671 0
-608 321 0
412 -125 0
807 -621 0
119 375 0
-593 539 0
-176 -466 0
425 -111 0
139 488 0
772 -223 0
555 172 0
657 17 0
-831 -160 0
-302 583 0
319 778 0
133 -101 0
-573 -414 0
171 143 0
-317 -67 0
845 -697 0
-858 294 0
-357 779 0
-155 -170 0
-338 46 0
-205 -360 0
60 38 0
422 -171 0
669 129 0
-82 837 0
-209 883 0
-698 -415 0
694 632 0
256 564 0
319 494 0
-35 -164 0
-484 -613 0
-520 -611 0
765 -548 0
-875 703 0
494 703 0
-760 -847 0
452 -660 0
-704 375 0
6 217 0
725 842 0
824 80 0
805 -408 0
-92 -641 0
158 -907 0
227 471 0
716 801 0
-774 212 0
576 -882 0
-741 850 0
-501 330 0
417 500 0
-879 -202 0
400 -637 0
249 -810 0
703 194 0
264 707 0
364 276 0
-795 733 0
641 772 0
807 120 0
155 318 0
311 -760 0
277 -698 0
-272 743 0
-88 336 0
277 -783 0
615 -99 0
710 -213 0
-319 89 0
-402 -740 0
619 -331 0
849 -371 0
-195 152 0
674 777 0
-147 -334 0
-506 30 0
515 220 0
592 904 0
-166 681 0
-118 10 0
158 -697 0
187 -274 0
-715 -834 0
585 -159 0
-52 838 0
202 -641 0
-684 662 0
-68 -20 0
268 716 0
-887 385 0
-416 -523 0
-381 42 0
-24 -171 0
705 -582 0
161 -702 0
-808 761 0
-879 226 0
-632 -798 0
-273 560 0
258 -275 0
28 -485 0
158 473 0
104 787 0
-511 350 0
801 -374 0
537 -116 0
-908 -494 0
-775 -112 0
-149 -705 0
496 -121 0
560 163 0
406 759 0
-529 716 0
238 -295 0
592 -335 0
-697 690 0
-616 889 0
-373 -557 0
-559 815 0
-786 -865 0
-873 578 0
510 778 0
453 820 0
679 411 0
434 -595 0
-378 -436 0
-457 629 0
-851 531 0
880 -611 0
-20 560 0
-5 -818 0
836 213 0
768 212 0
110 -263 0
-603 687 0
681 -666 0
-825 55 0
677 271 0
287 788 0
-737 277 0
341 869 0
87 -702 0
-484 742 0
743 377 0
74 42 0
-582 533 0
624 785 0
-709 -381 0
622 683 0
710 598 0
-472 612 0
-897 -562 0
631 -445 0
419 658 0
-206 298 0
-561 -477 0
-405 385 0
337 519 0
-241 297 0
376 18 0
43 744 0
-69 -608 0
-587 -247 0
-789 36 0
279 -565 0
748 901 0
626 178 0
-287 -48 0
33 -463 0
-794 135 0
-526 234 0
483 571 0
282 254 0
-485 -879 0
140 -177 0
-158 640 0
642 -881 0
-263 -652 0
-509 783 0
130 -670 0
426 -477 0
-119 -533 0
-793 -734 0
-174 -630 0
-823 522 0
304 -233 0
5 224 0
797 896 0
66 -572 0
662 900 0
-641 530 0
-369 649 0
-644 -286 0
-501 388 0
-127 -366 0
19 -625 0
624 -771 0
-601 -146 0
95 -427 0
-534 738 0
317 224 0
346 328 0
-817 34 0
295 -392 0
-152 69 0
832 -653 0
-119 -351 0
540 158 0
909 904 0
64 -819 0
322 144 0
-653 101 0
-514 -747 0
347 -790 0
-289 -873 0
63 -246 0
-404 676 0
846 -280 0
467 -657 0
-477 364 0
-608 557 0
416 443 0
224 -26 0
-756 23 0
-314 -445 0
787 550 0
272 -708 0
823 -704 0
836 742 0
-507 599 0
-720 -900 0
388 -80 0
-234 -14 0
691 -413 0
-781 -856 0
-738 -658 0
459 476 0
-870 -6 0
827 -905 0
-325 -104 0
859 -784 0
343 565 0
111 60 0
-6 709 0
81 -559 0
-733 -429 0
-726 385 0
331 -574 0
529 478 0
32 528 0
-811 -283 0
583 700 0
-688 -770 0
-6 -656 0
612 -648 0
-670 272 0
331 844 0
620 -875 0
-856 -357 0
172 -800 0
-664 -186 0
531 -513 0
97 -516 0
807 571 0
350 475 0
256 -415 0
89 -725 0
127 -197 0
9 -134 0
171 352 0
772 416 0
255 -215 0
-391 628 0
-747 535 0
-593 719 0
469 -526 0
650 -876 0
47 -836 0
893 196 0
862 704 0
-728 -500 0
-443 500 0
621 -615 0
-52 -351 0
-207 295 0
-710 339 0
-452 802 0
657 -97 0
-214 462 0
-233 -584 0
524 -25 0
-884 -146 0
539 315 0
-397 -127 0
467 452 0
204 -214 0
437 -602 0
-315 839 0
272 -577 0
-424 -533 0
-340 -158 0
596 686 0
-872 -792 0
-871 -719 0
-10 648 0
628 158 0
314 293 0
667 259 0
-35 -239 0
-440 -619 0
-396 710 0
-593 -116 0
321 -848 0
-190 356 0
327 -131 0
-145 814 0
-409 -245 0
907 768 0
-245 -33 0
-52 -95 0
-226 7 0
467 -242 0
-551 -188 0
-344 110 0
-467 77 0
-766 459 0
150 -241 0
-169 137 0
-765 -871 0
-94 -603 0
788 -479 0
-820 -750 0
649 -697 0
-542 591 0
-482 -868 0
461 228 0
859 -205 0
-798 -190 0
225 -496 0
-58 80 0
446 370 0
-312 386 0
622 541 0
471 687 0
830 449 0
-35 465 0
-37 -794 0
873 -804 0
-206 764 0
461 609 0
298 698 0
-860 -345 0
402 754 0
518 792 0
-720 415 0
283 -183 0
273 -10 0
823 -456 0
-701 -492 0
-373 -272 0
707 -246 0
213 -685 0
71 523 0
-507 67 0
383 -523 0
553 -853 0
-831 -221 0
739 -733 0
-845 -652 0
608 -813 0
-111 637 0
-32 -647 0
223 -573 0
850 -423 0
-25 -107 0
-247 -312 0
-754 691 0
-845 -313 0
182 -439 0
-270 -555 0
469 337 0
-589 -632 0
725 597 0
279 -70 0
-870 -136 0
-67 496 0
694 -794 0
560 265 0
524 422 0
876 -559 0
137 49 0
37 11 0
476 645 0
207 101 0
123 48 0
-355 906 0
-855 -775 0
31 107 0
-229 -803 0
628 584 0
-661 -543 0
-10 908 0
-146 -103 0
-14 332 0
-111 413 0
225 -761 0
-222 591 0
-73 -746 0
-771 -472 0
-654 -413 0
576 -35 0
646 -852 0
137 -318 0
89 -691 0
-533 -262 0
-536 583 0
-353 27 0
777 -161 0
-583 504 0
350 -197 0
378 -141 0
398 484 0
497 831 0
598 -705 0
39 -490 0
660 809 0
529 -457 0
-305 361 0
550 -147 0
-888 484 0
854 -532 0
-462 8 0
508 217 0
198 -41 0
-204 343 0
-607 -773 0
413 -161 0
787 774 0
291 -894 0
591 369 0
844 221 0
-276 279 0
27 -870 0
-747 156 0
-347 648 0
545 537 0
-195 -368 0
-775 -698 0
79 -484 0
340 648 0
194 823 0
-641 669 0
-569 496 0
-867 -562 0
36 798 0
803 -219 0
-705 11 0
861 791 0
634 -228 0
54 767 0
581 -672 0
893 70 0
-53 -743 0
-270 571 0
-905 -782 0
889 134 0
224 4 0
-252 411 0
-734 -484 0
-685 164 0
435 -75 0
13 -400 0
885 3 0
-795 -192 0
317 -865 0
894 295 0
677 125 0
-736 358 0
764 130 0
134 249 0
-862 273 0
719 691 0
386 289 0
178 328 0
-121 -517 0
149 746 0
-527 -509 0
541 634 0
882 -289 0
-165 838 0
-191 892 0
-24 -233 0
-44 741 0
816 13 0
910 683 0
704 -44 0
-849 -663 0
780 224 0
392 660 0
868 -586 0
-223 -135 0
-147 632 0
-25 -573 0
-35 -366 0
-748 -92 0
874 367 0
481 -755 0
-410 -760 0
-851 288 0
581 -809 0
-471 -44 0
157 179 0
522 -61 0
-221 -118 0
-713 -295 0
710 -584 0
383 -45 0
-352 -610 0
27 -439 0
403 -820 0
-371 -224 0
-152 -78 0
-829 227 0
-110 60 0
367 -656 0
-181 242 0
-226 -98 0
-721 23 0
-58 443 0
677 -722 0
583 -548 0
-610 -310 0
-558 787 0
-684 101 0
-583 846 0
198 -363 0
363 208 0
883 -214 0
-908 -554 0
232 620 0
608 453 0
-274 237 0
85 404 0
239 857 0
240 -698 0
-116 -697 0
-663 884 0
169 47 0
108 722 0
-22 -512 0
753 -170 0
258 -418 0
80 154 0
-472 -263 0
184 802 0
-864 -69 0
328 743 0
105 -407 0
484 398 0
326 321 0
404 490 0
-402 23 0
196 -438 0
635 -692 0
-871 739 0
794 335 0
217 336 0
-760 888 0
385 -623 0
-734 -819 0
517 283 0
-329 108 0
-615 -239 0
-72 -397 0
-41 -219 0
-613 -299 0
-171 808 0
842 525 0
-569 676 0
180 492 0
858 375 0
776 -249 0
-433 -815 0
-357 -196 0
706 -721 0
132 609 0
781 -16 0
449 -387 0
-863 143 0
103 243 0
-344 773 0
350 139 0
473 -860 0
257 123 0
379 687 0
532 306 0
-566 -287 0
858 313 0
-501 -518 0
79 763 0
523 -171 0
-407 -621 0
-507 -677 0
809 78 0
-44 531 0
-631 416 0
292 783 0
-345 463 0
-513 -456 0
305 382 0
-156 -277 0
840 -735 0
792 525 0
617 -493 0
657 -234 0
-491 730 0
609 81 0
-171 -109 0
816 -59 0
628 -443 0
-657 657 0
468 548 0
128 767 0
-571 -651 0
156 519 0
-85 626 0
248 -547 0
-98 208 0
23 -395 0
584 -439 0
-162 671 0
-257 -520 0
-738 -130 0
32 -15 0
338 -1 0
604 -669 0
-557 715 0
-318 89 0
-395 55 0
-713 -733 0
158 -66 0
124 368 0
40 444 0
-69 27 0
-714 -171 0
766 -551 0
347 -570 0
23 241 0
-17 207 0
-707 -459 0
-574 860 0
-63 -569 0
777 838 0
-837 640 0
568 485 0
-757 623 0
-357 598 0
882 497 0
204 -242 0
690 -199 0
24 789 0
-752 857 0
905 869 0
449 -393 0
563 -713 0
880 -731 0
77 -396 0
-10 -366 0
-206 861 0
-410 657 0
677 -810 0
-367 -138 0
-241 -599 0
482 -206 0
278 -403 0
-420 184 0
-39 327 0
267 207 0
-349 -365 0
371 -548 0
550 -384 0
117 -858 0
-444 -594 0
-653 -571 0
904 686 0
-645 -247 0
-728 -586 0
143 316 0
549 409 0
-480 639 0
-195 810 0
-365 377 0
861 -873 0
-12 154 0
285 245 0
79 -313 0
398 -192 0
-527 792 0
2 -381 0
124 704 0
340 -760 0
100 271 0
-114 -196 0
-824 -794 0
-134 -336 0
-18 601 0
632 -631 0
604 174 0
-623 -427 0
734 339 0
896 446 0
400 527 0
854 73 0
-499 473 0
64 131 0
348 -128 0
163 231 0
-709 -733 0
349 43 0
-122 307 0
428 -56 0
524 368 0
-4 461 0
-722 40 0
906 -506 0
649 103 0
-382 -188 0
-819 595 0
-903 347 0
181 -548 0
-82 -324 0
548 -651 0
-734 -140 0
-386 -671 0
-477 -651 0
-769 -794 0
195 -147 0
154 -703 0
-240 -82 0
-720 -516 0
19 840 0
63 -118 0
890 578 0
-82 793 0
-697 219 0
-453 -168 0
890 -725 0
297 -1 0
622 -823 0
-219 882 0
-350 840 0
622 884 0
-280 -478 0
694 164 0
235 640 0
-417 -853 0
-75 208 0
487 213 0
-219 452 0
5 64 0
201 -658 0
721 19 0
-823 -334 0
503 -548 0
138 -318 0
608 469 0
792 679 0
-395 -509 0
-742 272 0
47 -674 0
124 -423 0
190 -299 0
275 -533 0
-834 693 0
-258 50 0
-766 -869 0
49 -680 0
287 317 0
-73 -46 0
-420 -411 0
897 352 0
392 409 0
-622 617 0
391 -532 0
322 785 0
107 130 0
-148 624 0
-179 -772 0
216 -701 0
317 -466 0
225 146 0
550 -111 0
-15 883 0
753 224 0
-751 -670 0
257 -782 0
-184 -135 0
2 622 0
-593 745 0
-551 -411 0
907 864 0
100 772 0
611 -771 0
706 365 0
-432 788 0
-662 522 0
202 419 0
473 646 0
276 -544 0
-608 102 0
-556 -787 0
293 478 0
-192 296 0
704 -138 0
-57 659 0
625 530 0
-388 -178 0
-891 481 0
809 398 0
367 -161 0
-452 -578 0
-614 -853 0
18 -349 0
-342 81 0
-591 -902 0
218 679 0
-586 120 0
-179 322 0
107 406 0
339 -379 0
-300 605 0
864 554 0
331 -654 0
532 -440 0
-27 -898 0
-702 667 0
839 517 0
-81 838 0
237 568 0
895 -336 0
216 143 0
-382 -126 0
391 634 0
-678 -151 0
-657 -431 0
-9 -747 0
154 14 0
469 -376 0
31 872 0
36 184 0
822 -241 0
559 5 0
-631 580 0
-856 -871 0
459 598 0
-623 -382 0
-474 601 0
14 -445 0
180 -846 0
-144 -97 0
-210 392 0
-563 -185 0
122 555 0
-658 1 0
373 77 0
514 878 0
-372 -474 0
-892 -625 0
718 -247 0
839 688 0
555 -395 0
793 809 0
400 -765 0
-423 -73 0
-839 -737 0
-488 -85 0
-39 665 0
691 -159 0
833 282 0
-366 100 0
60 -754 0
-41 348 0
-152 -418 0
750 158 0
882 -554 0
-766 -165 0
-656 465 0
-740 827 0
-220 515 0
792 -612 0
207 -755 0
620 -413 0
31 -359 0
-168 833 0
-192 -857 0
816 -757 0
255 11 0
-484 1 0
-359 -628 0
-574 -421 0
-271 -623 0
758 -552 0
873 -709 0
74 -836 0
830 -378 0
383 190 0
468 -551 0
-273 209 0
63 15 0
447 446 0
439 225 0
492 51 0
883 218 0
-556 -381 0
634 785 0
-782 -621 0
279 92 0
-769 836 0
723 262 0
-289 -534 0
-292 -160 0
776 496 0
-483 -626 0
29 -810 0
-799 27 0
589 -386 0
-779 -782 0
678 816 0
893 435 0
783 476 0
886 -443 0
-100 -549 0
-462 -280 0
-615 -732 0
772 101 0
841 -387 0
-762 10 0
-53 -244 0
-722 278 0
432 824 0
-440 474 0
-899 859 0
705 -309 0
482 757 0
571 -689 0
764 -293 0
557 320 0
-93 182 0
81 -1 0
-183 230 0
-340 -160 0
2 -733 0
-795 -499 0
797 662 0
-395 374 0
95 -189 0
355 -394 0
-651 -153 0
697 -689 0
593 635 0
-899 -802 0
594 -610 0
291 214 0
-493 244 0
880 150 0
389 -678 0
191 276 0
-308 -875 0
-483 -907 0
-253 -770 0
144 686 0
-177 356 0
640 836 0
-818 382 0
-307 -196 0
691 686 0
770 242 0
478 -696 0
231 -1 0
-623 -206 0
647 -471 0
293 -229 0
564 -903 0
878 69 0
5 -862 0
-850 -843 0
236 71 0
-269 -670 0
7 571 0
-868 692 0
892 -284 0
383 -480 0
-201 350 0
200 -485 0
-438 -5 0
274 886 0
-419 -173 0
-229 -645 0
-382 667 0
-186 634 0
612 908 0
63 667 0
182 -534 0
502 -253 0
265 709 0
-607 -40 0
825 -782 0
-832 157 0
-235 -860 0
-320 -45 0
497 362 0
504 -769 0
-561 207 0
-772 -871 0
77 -611 0
96 -615 0
-754 -660 0
691 847 0
-746 -672 0
522 883 0
594 -288 0
-443 194 0
280 700 0
-406 743 0
-88 287 0
676 198 0
883 327 0
-267 220 0
-798 277 0
784 -558 0
873 120 0
-750 -585 0
-76 498 0
18 -43 0
-819 514 0
-373 -205 0
-492 859 0
-484 -552 0
-88 -593 0
-679 292 0
-898 201 0
-35 358 0
-318 767 0
-773 830 0
-773 -653 0
102 -42 0
-166 -832 0
321 884 0
661 232 0
421 407 0
-561 609 0
-875 -269 0
491 -671 0
494 -477 0
271 -219 0
-684 -518 0
-523 -280 0
-533 561 0
-579 634 0
-440 833 0
607 839 0
500 175 0
-585 69 0
477 503 0
634 267 0
181 -644 0
257 -26 0
-907 276 0
-288 403 0
-684 181 0
475 -288 0
-580 -339 0
-897 -130 0
-592 -673 0
-729 -218 0
-587 -503 0
-878 -37 0
820 -604 0
-569 588 0
-490 576 0
-108 -479 0
-431 834 0
-460 -95 0
715 -197 0
-185 -684 0
24 157 0
-577 342 0
-45 634 0
142 140 0
-544 -802 0
