c NF
p cnf 2182 1309
59 1210 0
578 -1258 0
-1753 -1975 0
-1637 -1582 0
917 1269 0
1804 1309 0
-404 -2133 0
1486 -267 0
-790 544 0
-1796 -2068 0
494 1849 0
533 -2083 0
-440 1611 0
-1981 1599 0
-1339 1445 0
-1748 729 0
-267 -472 0
598 -1466 0
-1865 1077 0
-126 -2104 0
-1291 -1814 0
-1450 1496 0
780 -5 0
-1137 519 0
-1982 1844 0
-219 -2145 0
-339 -1293 0
2046 -964 0
-201 -340 0
37 -129 0
-1555 -883 0
-1371 -1838 0
-844 1648 0
585 -956 0
1555 615 0
1634 33 0
-2101 1832 0
-1566 1672 0
-159 -1254 0
-1271 -721 0
-1400 1300 0
2062 1560 0
-129 -397 0
768 -684 0
-840 628 0
-1909 2098 0
-80 62 0
287 428 0
-1651 1336 0
433 1312 0
-790 383 0
-860 1529 0
-493 696 0
1571 -1499 0
1931 -124 0
750 1832 0
-817 -645 0
863 1040 0
-2050 -276 0
-1500 744 0
-2154 -1099 0
-26 -1569 0
-1317 -1283 0
-640 -2181 0
292 1862 0
-581 -368 0
537 -1876 0
-918 888 0
458 1668 0
-488 -30 0
1352 2076 0
297 -1828 0
-119 -84 0
-612 1462 0
1989 -1683 0
65 -1504 0
-1809 -1353 0
-946 1529 0
762 -1375 0
-68 670 0
-2049 1566 0
2024 1564 0
-1788 82 0
-1934 1830 0
-1147 -1526 0
-1915 249 0
-1351 -1698 0
-1799 1950 0
292 564 0
1533 2139 0
656 1203 0
573 -520 0
-480 -954 0
-1969 -2075 0
-1674 -1060 0
1123 -1092 0
-1803 -1958 0
207 -112 0
843 -551 0
46 42 0
602 2110 0
-1713 -927 0
369 1676 0
59 342 0
-1886 -286 0
-895 -1508 0
-2070 -1499 0
-1531 2115 0
1085 -1711 0
-2118 117 0
-145 519 0
-800 -1782 0
825 1222 0
1733 1058 0
-1013 1019 0
924 1786 0
2114 821 0
-596 -1106 0
1000 -1998 0
1479 684 0
-366 -4 0
483 -1523 0
606 -1421 0
-697 -2020 0
-1812 1052 0
-1196 755 0
2054 -1246 0
-1552 1536 0
-692 -1140 0
1585 -307 0
992 618 0
1911 1063 0
675 253 0
-909 498 0
557 1154 0
-28 1668 0
-978 -2050 0
-914 -1393 0
-1571 -1564 0
436 1988 0
6 293 0
573 -167 0
1211 2040 0
449 -448 0
-1986 -453 0
-218 18 0
-1433 1522 0
-938 965 0
136 1200 0
-944 1029 0
91 511 0
-2036 -1214 0
1553 1673 0
1847 -620 0
1583 -497 0
-194 -2129 0
651 1349 0
-28 -1826 0
-325 -198 0
1981 -1007 0
-1063 1939 0
493 -1695 0
700 324 0
476 -1001 0
-1581 -1430 0
353 1021 0
-1183 1357 0
-506 -1583 0
302 -1584 0
129 136 0
1626 1778 0
-1130 567 0
-1012 -274 0
1809 -883 0
-1712 -359 0
2058 -1376 0
-1000 202 0
1046 1135 0
1875 1065 0
857 -424 0
-348 2096 0
13 -2038 0
222 -808 0
295 395 0
-2181 1000 0
-647 761 0
418 1414 0
-1521 2064 0
-1980 -571 0
-1747 -1827 0
-900 2113 0
-921 1803 0
2141 1470 0
231 -1762 0
1811 692 0
311 1306 0
-1100 1175 0
1449 -1933 0
1861 -814 0
-1080 1556 0
-759 912 0
-1063 -1347 0
-2072 2132 0
174 1541 0
1136 2182 0
-958 -239 0
114 -1040 0
-1778 -1641 0
1065 -1138 0
1353 -324 0
475 -1569 0
-1767 -862 0
1185 -1828 0
831 1632 0
182 -1573 0
74 -344 0
1669 -439 0
599 -1099 0
632 -240 0
836 -274 0
914 -753 0
-1762 -1743 0
2095 1240 0
751 2081 0
-1955 876 0
-612 -2020 0
261 -2131 0
1604 1770 0
1719 -389 0
2043 -1163 0
83 1128 0
664 -1612 0
1598 -2144 0
-38 -397 0
-1405 651 0
-15 -76 0
-1504 -1812 0
-1564 -1037 0
1636 -559 0
-1432 -1140 0
-144 -350 0
-1780 -1125 0
1052 -2068 0
-1213 -490 0
-1539 1630 0
215 793 0
-129 -748 0
-2024 680 0
1134 897 0
767 -1169 0
-1104 -1488 0
1631 775 0
39 156 0
1458 1459 0
-1722 -439 0
1394 -191 0
61 1505 0
343 -905 0
-371 -1705 0
-482 -693 0
-301 -2171 0
-322 -1212 0
-1655 1669 0
-1501 -370 0
-528 -539 0
-778 -1270 0
1115 1298 0
-1368 -800 0
486 -793 0
-523 1570 0
1191 -693 0
43 -324 0
-341 -2000 0
1737 250 0
1993 1474 0
808 -1059 0
616 226 0
-1789 1151 0
922 -1424 0
-1029 1373 0
186 -1269 0
-1838 -840 0
-1753 -2069 0
623 -1115 0
814 1409 0
-1855 -1099 0
1833 -537 0
1373 324 0
2173 1816 0
1134 622 0
1949 1972 0
-22 -412 0
832 -351 0
453 1194 0
1931 -86 0
216 -397 0
-1866 -220 0
-689 -1208 0
2147 1025 0
491 1596 0
1582 -2004 0
50 1275 0
715 1577 0
-1909 -857 0
720 1701 0
-1256 1235 0
-1488 -838 0
-1499 -527 0
-1518 1882 0
-236 1347 0
-1269 1731 0
712 2053 0
1205 -238 0
-721 641 0
-1455 -2125 0
-1560 1572 0
852 -408 0
1611 1515 0
547 1997 0
-432 172 0
-42 664 0
823 -1860 0
-786 -1082 0
208 1568 0
1750 -1187 0
-335 -10 0
170 2110 0
-1470 -2003 0
-1535 -2003 0
-2137 -184 0
-506 1602 0
-347 676 0
1907 -2089 0
373 1826 0
485 -1725 0
-1688 -557 0
-448 -1831 0
-1039 -1499 0
1416 -695 0
79 1147 0
1665 -1865 0
-926 -928 0
2074 -474 0
378 -1531 0
1918 -1905 0
1321 1579 0
1744 590 0
-952 511 0
-1481 -684 0
151 92 0
-872 -1549 0
-2119 -1846 0
-251 -1683 0
-1259 675 0
-2117 -1083 0
1770 295 0
-1894 2129 0
1733 -43 0
1967 -678 0
-332 1535 0
629 623 0
374 -1425 0
1272 37 0
2088 -1999 0
2014 -1120 0
-1 2030 0
4 2011 0
496 1301 0
-135 -870 0
-452 43 0
388 -748 0
-231 -1899 0
2000 -616 0
-1054 299 0
1703 431 0
1301 259 0
-444 -118 0
621 -877 0
-308 -1633 0
-828 1241 0
-1664 -219 0
1565 -131 0
1294 -1077 0
343 1052 0
-543 -429 0
977 92 0
1194 -1683 0
1119 1770 0
-1174 716 0
-1850 -85 0
2053 -1369 0
611 -392 0
84 -1081 0
-1229 -1334 0
-1750 9 0
-2142 1519 0
-1072 -1965 0
1283 -1007 0
618 1166 0
828 -212 0
94 -1386 0
1265 1399 0
-201 729 0
-1546 -118 0
1956 -1079 0
1431 -1946 0
-1707 1117 0
-1802 -40 0
1778 -877 0
35 -1031 0
1894 1942 0
269 956 0
740 1279 0
1374 1184 0
-1009 -716 0
1474 -1334 0
80 -778 0
1066 -1750 0
1465 -850 0
-435 -1523 0
-240 -920 0
645 -1458 0
854 -1606 0
981 -286 0
1494 1592 0
1234 815 0
1939 1778 0
-560 696 0
578 -1708 0
518 1506 0
-1104 2044 0
-1187 2005 0
947 193 0
951 395 0
717 -1950 0
-307 -377 0
-484 1792 0
1119 -308 0
454 1039 0
279 -76 0
-385 959 0
1715 1777 0
-2030 -2172 0
-1651 -1579 0
299 -1339 0
-1889 -848 0
-627 -141 0
1216 85 0
2075 357 0
-825 -754 0
1407 -2052 0
-19 1751 0
1378 -325 0
1879 1722 0
-880 -826 0
857 1693 0
-1812 -1549 0
-1050 1217 0
1269 750 0
-771 -378 0
630 739 0
-165 -498 0
-1699 1695 0
1192 781 0
245 -1956 0
-622 -781 0
-1974 625 0
1416 1041 0
-902 -342 0
-372 -160 0
-1229 -1992 0
-459 -425 0
-470 1452 0
-1927 -262 0
734 -2078 0
598 1616 0
2099 -971 0
-1655 283 0
1931 -1196 0
-1625 -1050 0
1255 1826 0
1752 -2125 0
-55 1560 0
-1853 590 0
1173 1420 0
1174 1417 0
1717 -2093 0
1080 -1969 0
-1247 124 0
-2133 1187 0
1189 1221 0
1011 -647 0
-1292 701 0
1905 671 0
-482 -1047 0
-1432 589 0
1747 -416 0
-647 -209 0
1062 1822 0
-756 1815 0
408 -1387 0
-892 -393 0
-155 -637 0
2020 870 0
-1524 -1251 0
-486 1763 0
840 -1811 0
-2052 890 0
1934 -1333 0
-1658 -21 0
-2055 -727 0
-1311 1424 0
1165 -622 0
830 -1552 0
1597 1750 0
713 268 0
-517 -1351 0
341 1390 0
-876 -323 0
-557 -2170 0
-1589 1871 0
-438 -2028 0
245 -2152 0
1194 -2090 0
1115 -1234 0
-926 -677 0
-1406 -1310 0
-655 -804 0
253 -1526 0
705 364 0
800 -552 0
-562 1674 0
-979 -742 0
-1084 -260 0
1457 -489 0
1852 691 0
-301 -2099 0
73 -387 0
1459 1017 0
1320 2121 0
451 205 0
-1283 1076 0
-558 -1183 0
2039 -2112 0
847 735 0
130 846 0
273 1016 0
-1213 -1542 0
791 -1271 0
-242 1580 0
-473 1081 0
1539 -1531 0
-501 537 0
1495 -2125 0
-1544 1239 0
-663 -677 0
225 163 0
651 -931 0
-95 -294 0
-1158 415 0
-1623 -1085 0
-5 639 0
1792 -1083 0
540 1585 0
39 297 0
-1468 -1809 0
533 1518 0
-428 -1689 0
-454 714 0
-804 -1490 0
-2101 -836 0
1449 -411 0
1328 -902 0
-560 -1396 0
1993 -1764 0
1804 -921 0
2107 1761 0
1147 792 0
1537 -41 0
1185 483 0
1015 -583 0
-2136 1438 0
-986 -87 0
1169 -345 0
-1136 331 0
1218 891 0
1368 -1101 0
-2136 -158 0
1446 -1648 0
1678 2047 0
8 -2070 0
-1647 1736 0
-1591 -276 0
-460 -1590 0
2057 1094 0
-2 -2102 0
-281 -2076 0
-433 -1358 0
-1895 1533 0
212 785 0
-912 -312 0
-1639 190 0
-1055 1389 0
733 -2139 0
526 622 0
1356 79 0
-1118 -1838 0
2142 -308 0
-2051 606 0
1075 1787 0
1431 -1063 0
-671 728 0
-927 847 0
1251 1724 0
7 1725 0
-179 354 0
-887 -471 0
-396 1700 0
631 -233 0
1215 988 0
-867 143 0
-1908 2129 0
2027 1738 0
1542 257 0
1940 652 0
1787 -1221 0
-1247 1111 0
-1709 1152 0
-1976 421 0
2150 547 0
568 -117 0
944 -966 0
-1243 1117 0
551 -688 0
1738 1180 0
-1431 -492 0
1121 993 0
1953 428 0
1580 -1705 0
567 599 0
154 618 0
-397 -1805 0
-461 -1355 0
906 -494 0
1521 2128 0
-271 28 0
-572 -1334 0
145 -1595 0
-243 2033 0
1926 67 0
1458 -1659 0
-1005 919 0
1962 -2028 0
-170 1190 0
394 -1672 0
1117 545 0
-2172 -831 0
1817 1282 0
-970 1364 0
1305 797 0
1109 802 0
455 -1318 0
-2066 1127 0
1751 576 0
-159 -148 0
-1498 1066 0
-956 -157 0
172 1630 0
1880 -128 0
1331 1599 0
-105 -435 0
103 -1148 0
184 -1952 0
1794 70 0
776 -1969 0
-1766 1772 0
-1716 -1812 0
-1436 733 0
1942 -748 0
1141 -1647 0
-515 -1851 0
2066 1697 0
-371 -1336 0
405 2018 0
1141 -785 0
955 363 0
739 -824 0
1126 -652 0
1483 205 0
-1810 1429 0
-648 -12 0
358 -770 0
346 -1108 0
1884 -1842 0
-280 1843 0
1720 -1321 0
-1132 663 0
17 -1696 0
566 -413 0
143 1042 0
-424 1920 0
265 -1809 0
-605 -1009 0
680 1737 0
992 1345 0
-819 766 0
-681 -1384 0
1385 -518 0
-311 1988 0
2160 1561 0
25 -1162 0
-1149 -1920 0
-890 703 0
1880 663 0
958 -1683 0
-1033 1445 0
653 55 0
-17 -564 0
-1075 -212 0
-2145 550 0
-1883 1737 0
-1519 1985 0
17 1379 0
1631 -143 0
-1781 568 0
-1286 772 0
-1038 -494 0
335 1126 0
1379 -2038 0
138 -2166 0
-966 1474 0
-287 2082 0
-1090 394 0
-1086 -1351 0
-451 -361 0
110 983 0
845 -1619 0
496 -424 0
-440 -198 0
-1730 -241 0
-306 500 0
-858 -143 0
1400 -1478 0
1125 2033 0
1643 818 0
1145 1099 0
1323 1239 0
-95 1327 0
-1232 875 0
-1908 -471 0
-229 -1297 0
623 -368 0
-1701 1736 0
-378 328 0
-1750 -219 0
41 -851 0
1536 1632 0
-681 557 0
-258 182 0
-1444 -2119 0
-1466 2135 0
1330 246 0
-1824 -1458 0
292 -415 0
1193 373 0
409 255 0
920 -144 0
168 -2151 0
516 1863 0
1513 2000 0
1674 -80 0
-63 -1845 0
43 220 0
1473 -1996 0
1836 1217 0
1821 1363 0
-1914 -1862 0
1967 -1924 0
1584 1786 0
-919 -2010 0
106 96 0
1239 2031 0
1052 -1573 0
1222 -476 0
-1838 1875 0
-672 -732 0
396 -930 0
1522 -758 0
86 -1148 0
1716 1424 0
-979 -794 0
-1338 -963 0
-2033 -679 0
1709 -266 0
822 -532 0
164 -308 0
-2042 -239 0
-298 899 0
-721 1295 0
693 -1798 0
191 192 0
799 -1929 0
-143 -1776 0
-1397 -153 0
1309 148 0
-1357 2022 0
1552 771 0
845 -1589 0
1314 -2049 0
451 2180 0
1950 -191 0
-6 1156 0
57 -661 0
1728 1885 0
1230 -682 0
-737 -238 0
-115 -770 0
-882 776 0
135 1585 0
-76 334 0
1688 749 0
-56 -2108 0
-487 -1352 0
-144 -1445 0
24 366 0
-1083 2127 0
2105 -1758 0
1665 1221 0
905 188 0
2121 409 0
-2060 1011 0
1315 1455 0
-353 -1857 0
-2086 1472 0
1178 -2009 0
1122 436 0
-1269 887 0
-301 1180 0
1994 -1486 0
-1781 -1027 0
1332 1423 0
-572 1741 0
-959 -533 0
-492 618 0
273 1661 0
226 1558 0
-403 -1917 0
-669 667 0
-997 635 0
-1682 1117 0
-422 -648 0
-868 -2051 0
-1200 2068 0
216 1545 0
-1179 -572 0
1896 -684 0
-1556 -1675 0
1417 1052 0
979 -2072 0
522 995 0
-71 868 0
1085 -1844 0
-1195 595 0
-1671 -340 0
2018 40 0
-318 134 0
-1269 -47 0
-1842 1846 0
-1823 351 0
230 -1819 0
956 65 0
-1382 232 0
-1719 -1220 0
2022 -564 0
-1665 1545 0
333 -1057 0
-1583 -2097 0
1580 1795 0
-1556 498 0
-105 -1975 0
-1180 650 0
-476 668 0
-1553 -645 0
-358 -1780 0
1841 -274 0
-1479 -530 0
1071 1448 0
1582 334 0
30 -1320 0
-2161 1324 0
-1082 1985 0
-1453 2120 0
96 1082 0
-2082 -1148 0
-1066 1300 0
1923 -308 0
2123 926 0
1057 -387 0
-1209 1817 0
465 -2062 0
-1931 -1462 0
1644 -1331 0
-530 -71 0
-931 -1102 0
2048 -1759 0
949 -153 0
1720 2081 0
-2038 -155 0
447 -1979 0
-1148 -1478 0
-1960 -307 0
-255 922 0
2103 -2054 0
-2071 -991 0
960 -1857 0
1654 1265 0
1754 1998 0
947 1830 0
-1703 2 0
-1867 238 0
-582 1984 0
811 -1634 0
1680 1564 0
169 -1243 0
1811 -1316 0
-816 -1231 0
-1026 -1584 0
-1874 -382 0
590 69 0
2144 -1202 0
-489 -401 0
-122 826 0
-1340 -1243 0
-1446 356 0
1512 1473 0
-1745 -410 0
1436 -1432 0
389 -1670 0
-1454 2171 0
621 -2021 0
53 421 0
126 -991 0
977 -1154 0
1771 -1365 0
-2165 110 0
1086 1871 0
-731 1771 0
-1785 -1610 0
-1397 -626 0
1125 -1798 0
-1391 175 0
2099 2115 0
595 -1367 0
1849 1529 0
-1757 -1269 0
-2131 1506 0
792 -70 0
195 2015 0
-604 880 0
-97 1444 0
-742 981 0
494 -1365 0
-580 1230 0
779 -729 0
-815 618 0
1989 -613 0
1630 -381 0
46 -1806 0
-1489 1821 0
-1097 -2138 0
-94 1959 0
-754 802 0
224 1249 0
2040 -142 0
850 -1564 0
1770 907 0
-604 -1110 0
1669 -1032 0
569 -919 0
1611 -1229 0
1577 -1186 0
813 -1063 0
-824 252 0
-2104 1437 0
-1277 315 0
139 1460 0
779 2057 0
-391 -377 0
-904 -1916 0
-1279 663 0
1514 -100 0
-202 -1833 0
-53 1308 0
-2004 -823 0
-385 78 0
-1063 -1488 0
1894 -34 0
1688 -1915 0
772 1368 0
-1364 606 0
788 1951 0
202 -1758 0
1892 -1063 0
-1622 69 0
-1413 73 0
-1305 55 0
-787 1482 0
1832 -1065 0
2028 2028 0
1257 826 0
-891 681 0
1911 661 0
-734 -1468 0
375 2033 0
-165 2153 0
1679 -2022 0
-1655 1448 0
-592 -1848 0
-509 -1034 0
1993 -2003 0
-1857 590 0
-21 726 0
-987 -716 0
869 127 0
-251 -1750 0
121 -1869 0
-1402 564 0
-699 -306 0
815 -1415 0
-489 1109 0
2111 -935 0
486 -222 0
342 -1809 0
272 1830 0
661 -1301 0
-1866 946 0
-714 -1802 0
1698 2029 0
-503 1426 0
-1427 1771 0
664 -159 0
1655 -870 0
-1687 -2049 0
-1676 -2154 0
-2132 1558 0
405 4 0
852 -748 0
-1716 -1710 0
599 1515 0
-142 658 0
-1763 -417 0
-1055 -950 0
9 -416 0
-914 44 0
-2174 -1149 0
-604 2113 0
-1225 -860 0
-418 1684 0
947 -71 0
1959 -422 0
1959 -1078 0
-1661 676 0
642 -716 0
2053 1949 0
-458 310 0
1182 1907 0
-1747 2154 0
-741 -582 0
-2007 -1195 0
-696 1047 0
-960 -1775 0
250 -1384 0
1522 -1215 0
535 -327 0
-1644 -109 0
2159 -2081 0
2100 293 0
-230 2159 0
1911 2001 0
388 1883 0
-2143 1723 0
2156 -1156 0
-1060 -7 0
-555 -448 0
158 -1828 0
951 1624 0
550 -168 0
574 -1099 0
1388 1089 0
-2155 369 0
1267 -1909 0
1256 -146 0
2005 -1273 0
2022 -962 0
-1439 -844 0
-1410 -1749 0
-41 -1229 0
2159 -251 0
926 -404 0
846 1098 0
218 723 0
1165 1237 0
2053 -341 0
1222 -1480 0
-1938 -1486 0
838 181 0
-784 -1083 0
1130 1693 0
2047 2145 0
1484 1898 0
-1522 1142 0
-696 322 0
283 1862 0
-1358 303 0
2051 452 0
-673 -38 0
-178 -1555 0
-1274 1424 0
1918 180 0
1795 1718 0
1030 -1221 0
80 1164 0
1204 -1675 0
2014 -18 0
298 -316 0
504 1512 0
-1175 -1830 0
1837 419 0
2083 1016 0
640 1139 0
1754 -2180 0
-450 -1326 0
-1393 -1402 0
-85 -424 0
1699 -726 0
1327 -1078 0
-1371 -47 0
365 -323 0
-1370 -653 0
57 -650 0
-538 1422 0
-1568 -1376 0
649 2132 0
-634 1773 0
829 1725 0
2141 801 0
-136 -1436 0
540 -526 0
-695 575 0
539 170 0
-289 1715 0
935 -1955 0
1522 957 0
-95 1389 0
-385 -2073 0
1383 214 0
718 1374 0
-75 -1422 0
-1992 77 0
-570 -2160 0
1301 -1786 0
2113 -1605 0
-2024 1255 0
1004 -1227 0
538 -227 0
-1522 852 0
732 -497 0
1661 -48 0
615 1807 0
1223 1872 0
-2137 -1253 0
-984 -1080 0
1164 1449 0
-678 1721 0
-1066 -1716 0
-1920 507 0
-1257 2063 0
1496 226 0
-811 523 0
115 795 0
-1138 785 0
1468 -536 0
-1798 2030 0
863 734 0
497 -523 0
-345 -955 0
1112 -1143 0
1968 -984 0
1557 -1793 0
-1634 -1381 0
585 1608 0
560 1907 0
315 -1055 0
-488 11 0
-1549 -570 0
-1727 1479 0
1404 787 0
-1965 -693 0
801 883 0
998 -798 0
1493 326 0
-1972 -1627 0
-1443 157 0
1460 -1280 0
1110 -1413 0
-1706 -599 0
-2169 -979 0
-2030 2113 0
-1385 -138 0
1722 1821 0
1391 774 0
-301 -1853 0
1222 -1433 0
876 1793 0
545 -161 0
-1113 -1351 0
-1455 -448 0
-1881 136 0
-1595 -1369 0
1269 -472 0
1481 -1824 0
547 -1899 0
1289 -483 0
-1638 2143 0
-444 333 0
1795 460 0
1238 1687 0
-1012 -1574 0
-383 1391 0
-1025 12 0
-2137 -1436 0
-1743 -1116 0
-1588 1719 0
-634 301 0
2146 -14 0
-228 2090 0
1875 1622 0
2053 930 0
-914 -558 0
-480 1949 0
169 1216 0
1290 238 0
1104 -724 0
-98 -873 0
565 -1368 0
-588 1582 0
2148 -604 0
1466 -678 0
224 975 0
299 -1046 0
784 -1786 0
842 1303 0
35 -1485 0
-536 1201 0
-1155 1460 0
-608 -1454 0
59 706 0
-1534 988 0
203 203 0
2123 -59 0
-1866 -247 0
-811 -1913 0
1089 754 0
-911 -1651 0
-518 815 0
1049 -731 0
-525 -16 0
-199 -950 0
-2156 320 0
51 2114 0
197 1255 0
422 -559 0
-1498 1859 0
-1946 1981 0
-2133 -901 0
1659 602 0
-299 1076 0
1905 -897 0
-678 -265 0
2046 360 0
266 -2136 0
-1535 -171 0
-2012 -1425 0
-1329 -689 0
1164 1832 0
-277 1859 0
-1725 -1101 0
1228 -854 0
-2136 -88 0
186 -1099 0
-1720 -572 0
-1535 -1684 0
711 1162 0
13 -2092 0
-1644 -769 0
-1411 -1061 0
322 -108 0
-811 -807 0
113 -877 0
1823 2161 0
-1354 1366 0
-487 -12 0
-1886 1111 0
161 1572 0
1791 -1958 0
2138 -807 0
-562 -100 0
483 -1442 0
-978 1699 0
