c NF
p cnf 3530 14120
-118 3381 0
-2298 -196 0
906 -1292 0
-622 1150 0
-2726 2757 0
2903 2816 0
712 536 0
2237 -1863 0
-820 -2003 0
1914 -3311 0
2335 3430 0
2201 -92 0
2496 -965 0
-1915 1974 0
-3107 -883 0
-1986 -3315 0
1758 -2614 0
96 951 0
2700 -2723 0
2439 2502 0
-2113 1075 0
-3292 -53 0
-2377 1897 0
-2286 -787 0
-3168 100 0
8 -801 0
505 -3121 0
-2505 -642 0
557 -3292 0
-834 1525 0
-3198 -14 0
-1794 -2015 0
2343 -771 0
-3292 3467 0
2885 1242 0
-2559 2662 0
-2980 351 0
-3118 1291 0
2062 3047 0
-2089 3 0
-3474 -1473 0
-2453 2522 0
-1797 645 0
-1250 486 0
2844 2535 0
-2910 -537 0
-3027 3529 0
-1350 2472 0
2716 704 0
-1118 85 0
-2861 2399 0
2912 -1823 0
2891 -994 0
1343 -1472 0
-1426 3217 0
-2895 -877 0
-2299 -587 0
3398 2824 0
98 -1573 0
-1377 -1364 0
-3064 392 0
2234 -1918 0
1654 -1181 0
177 -1682 0
3351 1176 0
796 1256 0
159 514 0
2282 3459 0
302 -3278 0
1172 189 0
2995 475 0
3079 530 0
-2312 -1294 0
-852 2828 0
3040 -1363 0
-2489 -3302 0
-2866 -3297 0
1146 3181 0
1813 1261 0
1606 1622 0
-1163 2591 0
-2414 -1406 0
1021 232 0
2616 -2262 0
1784 1854 0
-2530 -1757 0
571 1688 0
-2071 -3028 0
1323 -1818 0
1628 -2294 0
1208 -1178 0
-2428 1889 0
271 -3480 0
1113 -3433 0
-35 -2976 0
-446 -3429 0
-687 3078 0
-1341 1050 0
3150 139 0
1981 1117 0
-1103 -1529 0
852 1648 0
767 1496 0
571 -912 0
-2310 2032 0
-83 -3183 0
148 -3448 0
1435 1835 0
-3351 3088 0
-296 960 0
2272 -316 0
3358 756 0
936 -1855 0
518 -2184 0
1295 -70 0
-1481 -1915 0
-2969 2497 0
1470 1450 0
-1212 2635 0
-1105 -175 0
-1794 3403 0
528 -2540 0
1409 939 0
-3115 2082 0
305 2571 0
2451 -1234 0
1553 2646 0
-514 -2101 0
1269 342 0
1885 -1038 0
172 3037 0
1583 -598 0
-2378 -896 0
-3246 -1443 0
-156 1951 0
-3011 -434 0
-2688 -1029 0
-2311 -1743 0
1056 968 0
670 -2373 0
533 -1482 0
-1041 -616 0
-531 325 0
-3488 -1684 0
-2976 -1845 0
-314 -1571 0
280 -3224 0
1782 -1415 0
1433 -2140 0
2867 -1784 0
1106 -3255 0
-2945 2131 0
-2572 494 0
-2209 2465 0
1777 -2681 0
419 -884 0
-3220 2547 0
-3352 -3168 0
1637 539 0
-1489 -2786 0
1785 -1667 0
-2992 -1483 0
-1081 -1074 0
3453 2894 0
3220 1741 0
2005 -557 0
3311 1373 0
-579 906 0
1981 -1918 0
-3316 -2021 0
3271 1325 0
-1919 668 0
-959 -1496 0
-3071 3036 0
-3216 1153 0
1826 3210 0
-3376 424 0
1265 1889 0
-1078 -14 0
-2035 1307 0
-887 -1467 0
-1720 2636 0
1281 258 0
-1056 -1808 0
-2280 1638 0
-3408 2419 0
1552 2535 0
-1182 -3062 0
-2718 -2491 0
893 3115 0
-1342 -606 0
-3330 41 0
240 -2057 0
707 -779 0
564 -3373 0
-479 -1079 0
-2499 2869 0
1236 -1724 0
1166 -1279 0
-3131 1263 0
3299 518 0
-1017 -532 0
-170 -2884 0
1612 285 0
1237 -1007 0
-3263 2837 0
143 677 0
-2693 10 0
549 -2094 0
-920 978 0
3439 1591 0
1071 -927 0
-482 -587 0
-2370 -1469 0
-1982 1165 0
-2414 1980 0
-2948 -1800 0
2867 -2376 0
2646 418 0
790 -339 0
2908 -2925 0
902 530 0
-3300 2529 0
-1968 2490 0
-2297 -2994 0
-38 -2203 0
-2628 -2607 0
-732 1023 0
-1475 222 0
-3082 -1786 0
2966 -2615 0
-3438 -1306 0
1643 1828 0
-2212 -1967 0
-1069 -1119 0
-2496 1937 0
-2737 -1328 0
361 -2095 0
398 -3191 0
1847 -1868 0
-3509 1409 0
-907 2311 0
-291 2275 0
-804 -1862 0
3440 765 0
-962 -3436 0
-2291 1525 0
-3369 1655 0
-3291 1359 0
2766 -1291 0
-3497 -2609 0
-1127 -1774 0
-2296 1125 0
1494 3505 0
-1260 -1445 0
2027 743 0
2385 2027 0
2661 -2720 0
-1868 2161 0
-32 2570 0
-2193 1756 0
3355 2940 0
3185 715 0
42 -3315 0
-970 -452 0
-3199 -574 0
-1785 -1698 0
-1325 1609 0
-33 -2270 0
-1795 821 0
1293 2763 0
2769 -3180 0
-2432 244 0
627 3003 0
1725 97 0
-2673 1194 0
-3184 3064 0
1574 -689 0
577 -2944 0
2022 -1830 0
2049 2048 0
740 -2821 0
-2684 3520 0
-2545 -1764 0
-981 3373 0
-144 -3232 0
2557 899 0
-1338 435 0
2147 1153 0
-367 -2042 0
659 -2563 0
2178 3197 0
-2944 530 0
1848 -2412 0
3053 -363 0
-1307 -2490 0
-2380 -1950 0
2802 -1750 0
-2986 2189 0
-3157 2789 0
582 -2921 0
3072 1860 0
408 2190 0
2143 2208 0
387 -867 0
1460 2627 0
2132 -2722 0
2070 2823 0
1628 1424 0
-1836 417 0
-1124 1395 0
1295 -1263 0
-77 -2715 0
-739 -3387 0
3439 -697 0
-3040 1161 0
2650 2104 0
-1894 3032 0
2933 796 0
929 -2053 0
-2387 1673 0
-209 1079 0
-1718 710 0
1071 1504 0
1745 1554 0
-2718 2562 0
2272 1846 0
-1247 1948 0
20 350 0
163 1454 0
3507 -3180 0
1212 -523 0
2203 1031 0
760 176 0
-465 3018 0
597 -1175 0
3275 2513 0
3326 -1529 0
-578 -1925 0
-2604 -1917 0
-1815 -756 0
1165 1364 0
-50 -2974 0
933 -1542 0
1287 150 0
2628 -1010 0
-2303 3206 0
1570 971 0
3489 875 0
-1449 1150 0
-2045 2231 0
3505 -975 0
-1908 -893 0
2574 1329 0
-836 2765 0
-1306 3471 0
1041 2492 0
-1883 769 0
-1553 -3035 0
-1557 -3096 0
-1030 3300 0
727 -5 0
-952 -168 0
-3112 589 0
520 -2018 0
-634 -3506 0
997 -2880 0
-2359 233 0
-1181 2009 0
-2033 -2506 0
-1380 2089 0
-1644 3252 0
-2745 1575 0
-2169 -2444 0
2934 3113 0
611 2401 0
830 1150 0
-1581 -2370 0
2799 935 0
-1329 -1325 0
3166 573 0
-3196 -1827 0
6 1463 0
-1693 -321 0
-1665 -2596 0
272 -1532 0
-2474 291 0
815 -1991 0
3472 -3495 0
-1597 -180 0
21 2028 0
1386 -332 0
509 -3508 0
-3110 2220 0
-2572 -1918 0
2590 -3050 0
2602 -1024 0
3120 -1019 0
-178 2328 0
-2174 -2004 0
3081 -11 0
850 -2574 0
2632 -1110 0
1089 -2094 0
214 3412 0
84 -2936 0
2289 -2182 0
1011 1840 0
-1666 1447 0
-2256 -2426 0
-3083 -2996 0
1099 -1512 0
-1866 -2017 0
-1120 -1812 0
-2782 -1153 0
-1293 -3495 0
449 -3442 0
-2201 1057 0
-2439 -1168 0
-2772 -820 0
-269 -734 0
-1469 2633 0
-3528 1892 0
380 1360 0
-2251 -3198 0
3453 1577 0
1012 -3084 0
-2365 2924 0
2232 1177 0
-2657 3529 0
1566 -95 0
-1402 915 0
-2514 2870 0
780 -2416 0
303 1799 0
-1407 -1427 0
-2587 1459 0
-2437 595 0
-2613 267 0
-1649 442 0
167 -40 0
-77 56 0
-735 1043 0
-2054 1929 0
1578 -1649 0
2342 -1619 0
2089 -3231 0
2160 -1357 0
-40 -523 0
2360 1451 0
2134 -2454 0
-3270 -1618 0
1475 1037 0
-2422 1809 0
-590 -2794 0
-1112 1652 0
1117 -3416 0
-402 1914 0
-657 571 0
-702 -1805 0
2992 -14 0
-2738 101 0
-2559 -2020 0
107 -497 0
700 3265 0
743 -1887 0
-2647 -683 0
1035 2053 0
753 1482 0
-2002 1550 0
-3337 -654 0
-1916 249 0
-2427 1113 0
562 -1072 0
924 1953 0
-2736 -1874 0
-3256 2149 0
90 3355 0
3364 542 0
-1309 -3184 0
-1962 -823 0
-1744 2379 0
-2883 2516 0
812 2925 0
-1683 1104 0
-873 -2061 0
-1700 2885 0
3235 227 0
1898 -1346 0
-3280 2185 0
3240 -3101 0
586 -124 0
-416 3067 0
1015 -740 0
3248 -2935 0
-661 -533 0
-2256 290 0
3004 1401 0
-1908 2570 0
-2681 371 0
-3373 -3429 0
2508 -264 0
1204 -1197 0
1879 1868 0
1678 -738 0
1059 1116 0
335 1866 0
653 3362 0
261 3163 0
2997 876 0
181 -855 0
1966 698 0
-1136 -2538 0
1739 1871 0
-3327 -2788 0
1717 -1891 0
2591 2212 0
-73 -2482 0
2985 -1194 0
371 3174 0
3025 480 0
-2407 -2684 0
-147 387 0
25 2347 0
-622 -1230 0
-1952 -2854 0
2964 2439 0
2129 16 0
1083 2591 0
-2178 1869 0
-486 -3006 0
-2673 -926 0
1898 737 0
-690 -2743 0
225 1853 0
1318 2475 0
2962 3442 0
-2875 -3090 0
2254 -2006 0
-2182 3228 0
-283 3409 0
-3440 -1230 0
1910 2716 0
1116 -1849 0
924 2615 0
-1078 270 0
-416 -3108 0
-3488 1324 0
2756 1484 0
-642 -3084 0
1935 250 0
-569 -633 0
2317 33 0
2978 -969 0
-348 2473 0
216 2314 0
-149 498 0
-1870 -715 0
-1934 -1899 0
3156 750 0
2439 -2362 0
-2131 2485 0
2698 1032 0
-3456 2952 0
1971 1782 0
1518 3459 0
2918 -1122 0
3384 1328 0
3063 2964 0
-999 473 0
2062 856 0
1224 2395 0
-969 2533 0
1697 -1589 0
-3025 -798 0
-548 1610 0
1854 1579 0
3453 -2892 0
715 1576 0
990 -555 0
1878 -856 0
-177 -3021 0
2019 109 0
1255 -612 0
2798 -1801 0
-2735 1589 0
-2800 -657 0
2729 -1411 0
685 -1325 0
-2109 -299 0
3148 -208 0
-1029 1702 0
2714 -1307 0
1244 3257 0
-693 1725 0
2147 -931 0
1052 3231 0
81 2721 0
1478 46 0
-3123 -735 0
-251 -1755 0
-1464 -283 0
-789 -324 0
2285 -631 0
-588 1549 0
-782 -2381 0
-419 2594 0
1749 -93 0
1708 1347 0
-270 -218 0
2280 -2101 0
-1908 -24 0
718 -1579 0
-498 695 0
-157 -1876 0
1910 2914 0
-111 3443 0
-339 -72 0
-2912 -133 0
-2776 -423 0
2488 -1330 0
-2782 419 0
-3322 -3029 0
449 -3056 0
-3399 -1651 0
-2165 -1720 0
241 2287 0
-3511 2771 0
34 68 0
616 2362 0
-967 -3208 0
-1052 -2010 0
132 -2937 0
-3331 -2349 0
-475 874 0
-2487 3233 0
372 2183 0
-1952 2086 0
-3468 3210 0
-3279 1632 0
-193 -3324 0
1732 880 0
1262 -1325 0
1132 -1254 0
-605 287 0
-1476 1744 0
2072 -3460 0
1586 -2295 0
1208 -2701 0
-1427 1979 0
2839 3269 0
2041 -1252 0
-2046 -2509 0
-1852 -1054 0
-1915 3505 0
1581 -2196 0
-667 1148 0
1737 -2848 0
2100 1948 0
2942 -271 0
-1284 1874 0
2733 10 0
-1024 -2224 0
-2405 -2850 0
-619 2112 0
2766 373 0
-1949 -2350 0
-2239 -787 0
-3180 -725 0
66 715 0
-1434 1075 0
37 -150 0
-708 -3125 0
-1231 3228 0
1896 2313 0
3049 748 0
-2471 1840 0
-2950 -2796 0
1321 -1544 0
4 1506 0
478 2562 0
2067 2134 0
-2506 206 0
2617 290 0
1295 -422 0
-1302 3256 0
-2592 421 0
1855 2647 0
-2565 431 0
2701 -2680 0
2225 -2084 0
2074 2674 0
-1729 684 0
2972 954 0
-957 -1856 0
-1277 743 0
1247 -2095 0
-625 3217 0
2248 -1036 0
280 -2226 0
-1933 -123 0
2634 -2930 0
2939 -2173 0
-3174 -1843 0
-2641 925 0
2754 97 0
2497 -3049 0
-2546 -2142 0
-149 -1421 0
438 -1089 0
592 126 0
-1496 -3382 0
-2889 1018 0
2605 2768 0
-17 -1341 0
-639 695 0
798 1463 0
262 -928 0
240 -3096 0
2058 592 0
-2549 -1242 0
1503 -3445 0
-1102 115 0
-1186 -195 0
1535 2519 0
2408 -2941 0
-1385 2480 0
-2412 -1785 0
-3407 -3205 0
-2483 -3092 0
-2142 -503 0
-2500 -2395 0
-2766 -801 0
1717 -1376 0
3170 798 0
3273 3389 0
-2246 -3012 0
1722 -1398 0
-1614 -2754 0
556 -1212 0
1373 -2902 0
567 -1679 0
-1706 123 0
1970 -1357 0
-193 -1070 0
1131 3103 0
2562 -1245 0
3420 -1841 0
-1643 -94 0
2979 -3256 0
2079 -3422 0
-328 -1002 0
1326 3234 0
1597 2616 0
-2673 -267 0
-2584 -874 0
-3399 259 0
1097 -916 0
1818 1684 0
-3491 875 0
-2735 2543 0
-3395 2789 0
-464 2771 0
-1801 -92 0
2888 724 0
1971 2331 0
2918 1451 0
294 -2747 0
1224 -2111 0
-2221 -3463 0
2802 -2136 0
-1118 2947 0
557 675 0
2534 839 0
3039 -3463 0
2949 733 0
3009 -2587 0
-3129 2344 0
1886 -1692 0
-3236 2340 0
-2404 2071 0
56 80 0
-1862 472 0
1602 -1977 0
-1443 -2544 0
-1539 -2003 0
1601 -1685 0
3170 1083 0
2649 565 0
-2301 -424 0
760 1035 0
-2353 2368 0
1395 1947 0
3286 419 0
-1679 -629 0
267 230 0
-739 1936 0
-3368 926 0
-2040 -2523 0
-3218 358 0
-2182 3148 0
2697 -392 0
2665 -2202 0
518 -1479 0
-1696 -3466 0
1083 78 0
242 -1001 0
1617 -3297 0
950 2533 0
-3242 2248 0
1743 -3393 0
-276 -3408 0
2754 1410 0
2957 485 0
2858 437 0
1388 1261 0
-2709 846 0
2627 1846 0
1577 -3514 0
-123 -425 0
-2862 2842 0
-648 -1651 0
-1431 1868 0
-1618 -2804 0
-1168 -2236 0
-719 617 0
-424 337 0
1644 701 0
-3158 -2121 0
269 924 0
-1254 -2876 0
-847 1101 0
-1472 -3500 0
-1112 -673 0
926 1796 0
-3514 2862 0
2069 -2776 0
-1276 2855 0
3041 -2968 0
2926 1751 0
-749 564 0
-175 -2241 0
1630 -313 0
-629 1810 0
-1317 2512 0
1823 -2796 0
-1598 -2763 0
3394 620 0
751 -3054 0
574 -1850 0
1152 -442 0
-1305 -48 0
-3250 -2332 0
2997 3448 0
1977 -282 0
230 8 0
-975 3240 0
-3004 2031 0
-6 1150 0
-851 3322 0
-3087 3432 0
3390 2020 0
-683 2223 0
959 1596 0
2085 -1730 0
-583 1237 0
653 436 0
-3328 2741 0
78 -1431 0
-255 3164 0
-1683 2237 0
3222 2154 0
2060 1171 0
2528 -109 0
-708 2608 0
628 -1660 0
-1664 -1979 0
61 248 0
1208 2587 0
-3063 902 0
-1344 -193 0
1507 -1542 0
1883 2195 0
2311 -1887 0
3109 1267 0
-3444 -2201 0
1087 193 0
2966 -3339 0
2316 -409 0
3220 27 0
1701 -966 0
-1093 -1980 0
-2935 242 0
3245 -2045 0
-605 2190 0
286 -50 0
-913 -1787 0
2605 -752 0
-3425 -2556 0
-2446 827 0
643 372 0
1054 -666 0
-2978 -2926 0
392 -288 0
1247 393 0
-1353 3288 0
-880 -574 0
-2955 -691 0
1292 -706 0
-3131 1211 0
2624 1539 0
3048 -1108 0
-1307 1022 0
1530 2668 0
1633 559 0
-390 1027 0
429 -3302 0
-630 -145 0
41 -1988 0
766 -1506 0
3172 1821 0
985 -2450 0
2677 791 0
2844 -1879 0
2264 -1054 0
964 84 0
-2815 917 0
3429 2793 0
740 -1302 0
-1750 579 0
1566 -62 0
897 -3459 0
2565 -2604 0
1765 355 0
1103 330 0
709 -2629 0
-3055 3006 0
3037 2529 0
1634 -2469 0
3390 -1545 0
-5 -540 0
3313 3264 0
936 753 0
-2349 727 0
1970 -1421 0
-279 -3528 0
-2705 -529 0
2716 240 0
-756 2306 0
-3511 327 0
-1607 2989 0
19 1024 0
-118 -756 0
-2792 1268 0
-2469 -787 0
-2389 1247 0
-1291 -2076 0
2459 -1557 0
-3319 -881 0
-2905 2485 0
-807 115 0
567 928 0
587 -731 0
-773 -2341 0
-727 -1065 0
-681 2885 0
-3225 -616 0
2900 -1779 0
-2694 -1185 0
963 1484 0
-360 -2389 0
-1157 -1416 0
-1209 -60 0
3389 2934 0
-2405 -3276 0
1416 3213 0
-1557 -360 0
-1324 -3475 0
1223 -3232 0
1794 -2507 0
-983 -2869 0
1809 -3218 0
-2858 -859 0
-3051 -3154 0
2088 3125 0
1585 2156 0
1097 -3295 0
-1250 3041 0
373 -215 0
-48 -1591 0
114 -488 0
-723 -390 0
-441 1044 0
979 2696 0
-3494 609 0
400 -703 0
917 -3529 0
-2368 2185 0
-2974 2482 0
-525 414 0
2663 3457 0
375 3075 0
3345 1053 0
803 -454 0
802 2673 0
-729 -2379 0
3235 414 0
3249 -3305 0
-1600 -3066 0
1869 -2772 0
1056 -3325 0
-1750 782 0
3025 -1198 0
-944 2327 0
303 -1469 0
988 3395 0
739 -1212 0
-368 -2907 0
3168 -1222 0
2849 -1170 0
-3248 -2468 0
259 3169 0
2881 1059 0
-2312 2840 0
1518 -1899 0
-1949 3074 0
1898 2317 0
508 3246 0
-1401 -1484 0
3345 -2691 0
1378 -3384 0
-1756 -2567 0
-2556 -1347 0
740 -2173 0
595 2268 0
1787 3423 0
-2471 2877 0
1713 206 0
2063 -2370 0
-420 -946 0
1530 -648 0
1854 -214 0
-1716 2981 0
803 1903 0
-346 1603 0
-735 -622 0
-548 -376 0
1946 412 0
-7 -1212 0
-269 -1301 0
-1165 -90 0
1203 -1799 0
-1002 1538 0
267 -3126 0
414 -2306 0
2294 2938 0
-2893 -355 0
2642 -2059 0
3148 -3201 0
-2148 -3268 0
3009 -1821 0
-742 -1400 0
-559 2547 0
-178 769 0
2976 1283 0
-3452 -2669 0
-587 1916 0
-1115 1633 0
-2025 -1197 0
712 -3430 0
-441 -1198 0
-3029 3111 0
-2895 -1685 0
1886 -2454 0
-1852 323 0
374 2442 0
1092 474 0
2645 2803 0
181 3472 0
-311 -2881 0
-48 1304 0
-1028 2377 0
-93 -1737 0
-600 -1117 0
2543 -700 0
840 -1130 0
-2669 2199 0
-1317 336 0
33 -1964 0
3097 2705 0
1133 1472 0
2246 -1277 0
104 837 0
-199 -3073 0
2913 1248 0
3288 -3246 0
-2169 -2302 0
524 -111 0
-3149 -1949 0
3252 2555 0
387 3069 0
3227 -681 0
-1204 -468 0
-3050 -1764 0
-1833 -339 0
199 -2741 0
89 1743 0
796 1124 0
3103 2786 0
2820 584 0
395 975 0
2534 1272 0
3143 2818 0
-274 -2916 0
2357 -3318 0
-323 -1911 0
-865 -1997 0
1922 912 0
-614 760 0
744 -1688 0
-1899 -2680 0
3106 -3280 0
-312 3318 0
1817 -167 0
1564 -2024 0
2168 634 0
347 -516 0
2396 2664 0
-2877 -3281 0
-3053 -2928 0
193 -2788 0
-587 3243 0
1658 2062 0
-3106 -34 0
1283 -1517 0
-3254 -409 0
2409 1765 0
1959 2826 0
2443 3228 0
889 -289 0
-2989 -1348 0
2982 -2714 0
3455 -1009 0
3084 2489 0
-2499 2764 0
-539 577 0
-56 -2151 0
1694 3315 0
2336 -2299 0
-2431 2952 0
-2252 -1030 0
-3275 1322 0
1964 583 0
-441 -2173 0
556 -3115 0
12 -1764 0
-276 1987 0
-1710 -757 0
-1275 3276 0
397 -2615 0
1406 -1598 0
-2846 2634 0
1914 -1510 0
-2877 -568 0
244 -1418 0
-2045 -584 0
-435 -1259 0
-1900 1831 0
3444 -2809 0
-954 2238 0
-2869 2982 0
-1997 -2636 0
-2003 86 0
386 -1043 0
889 404 0
463 3158 0
1556 -1603 0
-124 841 0
-531 2394 0
3367 -986 0
-3274 -3203 0
836 -1420 0
1163 2143 0
-787 3349 0
-1173 -1754 0
-2301 1636 0
-3490 1465 0
2209 1512 0
2334 -2140 0
-433 -2417 0
1525 -3205 0
285 242 0
-1 -1175 0
-2165 -1399 0
-3452 3240 0
-2781 2211 0
2159 200 0
642 3452 0
2924 -326 0
-907 -2411 0
3402 796 0
-3072 2638 0
-796 997 0
-405 -1887 0
1668 1438 0
-2526 1911 0
283 -270 0
-102 3000 0
1365 1925 0
3116 -3428 0
2681 2044 0
3505 -290 0
595 721 0
3277 -1603 0
2342 -633 0
-1736 2472 0
2995 -3118 0
2005 -3394 0
1715 2857 0
1835 -1186 0
2989 -2159 0
-649 2147 0
2959 -1784 0
-2074 -399 0
-1666 1581 0
617 -39 0
1914 2157 0
398 3467 0
349 1132 0
-1118 -165 0
2393 625 0
369 1916 0
3354 975 0
-2246 993 0
-3119 1520 0
389 -822 0
-3194 58 0
3290 1632 0
1562 1976 0
2087 -1954 0
-3496 2832 0
-1272 -1626 0
-517 1709 0
1776 -2203 0
3217 -463 0
54 -2213 0
3466 -2707 0
-2478 -2886 0
-402 -1087 0
3138 -2 0
3252 1989 0
-1342 -1893 0
-2811 -2327 0
-873 520 0
232 -498 0
-845 -111 0
-572 2496 0
-1285 3248 0
-1214 2186 0
2085 1287 0
698 -677 0
-1346 -976 0
-1047 1872 0
850 645 0
-2553 -3467 0
2482 -2498 0
3162 -1117 0
2424 341 0
1718 -2373 0
-2353 2440 0
-2258 363 0
-808 -2145 0
786 890 0
-3331 2130 0
810 2975 0
1980 212 0
1799 -2291 0
3109 -3122 0
-1932 1081 0
2264 1523 0
-2297 -3337 0
1810 -3108 0
2903 -189 0
-598 -3411 0
-2332 797 0
-3003 -261 0
1203 266 0
-807 1202 0
2908 -1651 0
1850 -360 0
737 -354 0
-3250 1412 0
1340 1434 0
-1258 1977 0
-3041 -2782 0
-3067 1707 0
1883 -2443 0
-883 2083 0
2175 -2543 0
2400 -1657 0
3325 -985 0
-2936 -640 0
3172 1395 0
-446 -2933 0
2869 -3188 0
2515 -2794 0
-353 -2156 0
-1530 3467 0
797 -1417 0
764 -1209 0
783 -2008 0
-300 521 0
1232 -2353 0
-1786 2561 0
1274 -73 0
849 -2580 0
1172 23 0
141 -339 0
1825 1367 0
3349 -1071 0
-3270 3085 0
-2212 -2973 0
-1153 -2779 0
1019 -1659 0
-1076 1080 0
-1200 -2397 0
-1314 1090 0
-1155 410 0
-481 3159 0
2332 -547 0
20 -3440 0
-1691 -131 0
3506 2312 0
-1192 -2101 0
-1279 -348 0
259 1393 0
3091 -2913 0
885 2660 0
3103 792 0
1268 2413 0
-1797 -651 0
-2115 -1008 0
-472 2095 0
221 1842 0
1309 864 0
-1072 -2130 0
2965 -674 0
-1654 1428 0
2998 -2951 0
-1134 -2133 0
2072 -900 0
3127 3044 0
1275 3194 0
2623 -1884 0
1 -1684 0
536 -2546 0
3097 -502 0
-3505 2032 0
-953 2645 0
-3405 1468 0
-358 -3164 0
118 -3023 0
-2937 859 0
-2915 464 0
-887 1243 0
3194 -1991 0
505 -2246 0
1076 2020 0
-1466 -1206 0
1063 847 0
-808 1951 0
1580 -2155 0
2751 3402 0
-3463 -2538 0
-3512 3300 0
-3235 -831 0
3077 308 0
1439 -2258 0
1235 2770 0
2678 463 0
-10 -1674 0
1630 -3011 0
-726 1140 0
-1620 -1671 0
155 -1005 0
888 2714 0
-1270 -1189 0
-706 -2593 0
-2088 -3292 0
710 3358 0
-805 1982 0
2566 -606 0
1892 2367 0
33 1496 0
386 1188 0
647 -692 0
-1342 -2482 0
-823 -1695 0
-1917 3228 0
1916 1397 0
-1874 -3495 0
-1815 1550 0
2617 2306 0
-3053 1351 0
919 -205 0
686 3424 0
-3348 1967 0
2209 1846 0
-1461 2978 0
3101 2863 0
1122 -3367 0
1756 1525 0
-1130 -646 0
521 2069 0
-531 -392 0
-215 1925 0
-1598 1902 0
-154 769 0
1648 2056 0
-2563 -1967 0
1073 -263 0
-776 3340 0
-647 2211 0
1236 -1447 0
-438 16 0
1200 816 0
1507 -3387 0
-2462 -2734 0
-2704 -20 0
1839 1959 0
-1018 -2617 0
-1373 3494 0
1165 2292 0
-647 -3363 0
-1755 2009 0
-2974 2118 0
1032 -966 0
-1877 -220 0
3178 -3128 0
-3237 264 0
1183 2156 0
-1789 2228 0
-158 3471 0
1926 1103 0
1436 -1391 0
-2203 1791 0
-2055 -575 0
-1659 1726 0
827 700 0
183 1094 0
-1237 -3089 0
-833 -1155 0
410 -3082 0
1564 2445 0
1604 -1294 0
-1507 2192 0
-2523 2446 0
-1582 2124 0
2849 -3419 0
41 2362 0
-193 -1481 0
2832 1718 0
526 3507 0
76 897 0
1738 3041 0
1293 -2865 0
82 559 0
1676 3341 0
118 -454 0
1693 -775 0
2767 564 0
3204 1877 0
2005 -3161 0
-2582 65 0
-393 -1264 0
3351 -889 0
-3466 2414 0
2624 1975 0
-2225 -2946 0
1595 3063 0
-2002 -2306 0
-857 -638 0
-3075 1959 0
-854 -2267 0
-3103 1375 0
-2148 2436 0
-2792 1136 0
543 -1018 0
-1617 -2197 0
-575 -3055 0
-2670 -3119 0
1611 -888 0
131 -1467 0
-1556 -3146 0
1970 2352 0
-2047 -426 0
909 914 0
1959 -279 0
1540 3159 0
2124 -241 0
1516 -1503 0
1470 815 0
-804 -1384 0
1653 -68 0
-602 -3466 0
-701 1239 0
3228 3503 0
1007 1312 0
-3394 1397 0
741 -790 0
16 2223 0
-1209 2024 0
-2380 3038 0
-238 -3433 0
3248 107 0
33 -1560 0
-2888 -1031 0
767 -1197 0
1731 -301 0
-1449 501 0
1962 -2041 0
-1803 -526 0
1001 1940 0
-3411 -1978 0
-510 1634 0
691 1488 0
2732 507 0
201 241 0
-139 -1401 0
1980 -116 0
-1160 2912 0
-784 2175 0
-1410 574 0
-3525 2059 0
-5 -503 0
-567 -2635 0
-1589 -1092 0
-390 -726 0
1318 -1238 0
521 -474 0
-1366 -3157 0
-3195 1114 0
315 228 0
2480 3463 0
-627 965 0
1500 87 0
1960 1520 0
-3406 -1378 0
2282 -226 0
-3495 -3293 0
1828 -1812 0
-3172 1980 0
-1468 -123 0
-520 -2474 0
-1944 -725 0
321 3095 0
-668 2621 0
-823 1024 0
-332 -2701 0
-417 -353 0
-2929 -2171 0
2469 -185 0
3169 -2640 0
-106 -85 0
-2351 1176 0
-3315 478 0
2073 198 0
-2218 -735 0
1795 1255 0
3169 448 0
-1389 -45 0
2632 -419 0
-3253 788 0
2819 3507 0
-1638 -344 0
-2660 2674 0
-1521 1373 0
749 -2004 0
3046 829 0
-3222 2082 0
-2074 -3002 0
457 2502 0
-1016 3240 0
2028 -2724 0
-1422 3084 0
559 3115 0
2032 266 0
3166 51 0
-731 -2720 0
-1019 181 0
-2936 2222 0
-791 -292 0
-1727 -1415 0
-1151 798 0
3172 -369 0
1152 466 0
913 -962 0
1665 1578 0
2949 -2995 0
-3291 -1616 0
-3385 1499 0
-195 2792 0
1932 -2456 0
3365 218 0
1777 -1166 0
2661 -2678 0
434 -1468 0
-3009 3486 0
2446 -3357 0
-425 -2857 0
-1863 2120 0
2493 -2166 0
-2519 -2739 0
2268 3459 0
379 1216 0
1051 -3207 0
1960 1 0
29 436 0
1946 1144 0
3466 902 0
-3407 -1254 0
-883 179 0
2951 -1657 0
-2239 722 0
-685 1212 0
3159 -1001 0
3115 3071 0
1886 -1788 0
-2250 -3456 0
52 758 0
-1195 -847 0
-1648 -403 0
1707 -2629 0
2319 -1569 0
1959 -1217 0
-1076 -60 0
2685 3290 0
1654 -2140 0
-1720 -2895 0
-1621 -1934 0
744 3365 0
-270 -1734 0
3426 -2080 0
3453 -1399 0
-1681 -2293 0
1077 -3128 0
-972 -883 0
-2927 272 0
-2917 794 0
2268 637 0
-1702 -922 0
-1305 417 0
2081 -2023 0
3425 -1649 0
-1890 -3045 0
1782 -2223 0
2835 2485 0
-873 -1443 0
2972 2880 0
-3223 1142 0
738 -546 0
562 1755 0
-1909 -861 0
3352 3049 0
883 -433 0
3371 658 0
1493 1447 0
1685 1520 0
732 1619 0
3501 -2471 0
-3191 715 0
-517 -1051 0
-1598 1966 0
-2394 3333 0
-2987 -3044 0
-2741 3000 0
-1547 149 0
2448 -2732 0
-2946 39 0
-1548 -2961 0
1876 1817 0
1765 -322 0
-446 -2315 0
-907 1628 0
-1437 3052 0
278 2392 0
-548 2628 0
1566 2794 0
1054 -2681 0
-1208 -2426 0
-475 -2152 0
1835 1553 0
-746 -308 0
1886 -2583 0
-2949 314 0
-2743 2886 0
-1214 -1634 0
-156 2269 0
1359 2593 0
-3164 -2807 0
-1338 -1161 0
-3388 310 0
-1785 2580 0
-2500 2508 0
-255 -359 0
-1376 1247 0
-2496 1516 0
3140 2365 0
891 2091 0
-1363 398 0
-2882 978 0
67 1247 0
-302 2138 0
511 2814 0
3093 510 0
909 -2640 0
2938 1060 0
-2483 -757 0
3254 432 0
-745 -2935 0
192 2057 0
-288 2078 0
-1394 1572 0
2881 -3321 0
513 1694 0
-2694 3501 0
-2636 -1440 0
-427 1271 0
802 -2550 0
1787 -1144 0
744 23 0
-789 -1567 0
3344 2832 0
-3103 -2407 0
2978 -1896 0
-1884 638 0
2924 -1209 0
-149 -3474 0
-1982 -1948 0
-2800 -1341 0
-773 -3310 0
-93 1992 0
-511 1198 0
954 1328 0
-3140 2844 0
-22 -274 0
-2633 1608 0
-2757 1233 0
-2890 1815 0
463 -3012 0
-807 1103 0
2920 2666 0
3093 2795 0
1379 892 0
-298 877 0
-1952 2787 0
-79 -112 0
2828 2333 0
3205 -907 0
-1909 19 0
1726 1872 0
-300 1413 0
2189 1355 0
-1174 988 0
2633 539 0
-3212 727 0
198 -2584 0
-1243 -2596 0
2061 -342 0
380 3193 0
1875 403 0
1343 3329 0
-477 2992 0
-1215 2638 0
-2967 46 0
-1386 -1301 0
814 -1569 0
-867 1371 0
2155 436 0
-1378 925 0
1196 -173 0
-1522 -2408 0
385 1062 0
184 -1682 0
3105 -1008 0
-1258 -2443 0
624 -3048 0
3283 -70 0
2364 -3239 0
702 -3425 0
846 -3304 0
114 -2143 0
2790 1248 0
-618 2107 0
1970 -618 0
248 2731 0
-3224 -1342 0
-646 772 0
-1185 -2455 0
-3485 -1884 0
-2541 -449 0
-2538 2904 0
3309 -1327 0
-1011 -2307 0
1596 -2411 0
387 1622 0
314 -1026 0
2357 -1613 0
3413 -1963 0
3001 -529 0
2867 -1659 0
2087 2717 0
-1148 1973 0
1483 -532 0
-2460 936 0
3047 -1872 0
-525 37 0
2614 297 0
586 -1170 0
-257 2866 0
2866 2360 0
2611 2479 0
2329 131 0
-1784 127 0
1122 546 0
456 3286 0
2918 2485 0
905 2131 0
1053 -3307 0
-324 3334 0
562 -3080 0
2464 -623 0
-2315 618 0
2547 -1365 0
3143 -1002 0
604 294 0
952 79 0
-2420 -808 0
2225 967 0
-3398 210 0
3478 -2364 0
479 179 0
790 526 0
-1721 2150 0
-1619 3117 0
736 3167 0
2377 211 0
-91 -2955 0
-1222 2169 0
-2901 -602 0
-1504 3186 0
2360 -2469 0
1506 2992 0
411 -1938 0
914 1122 0
-3035 -2073 0
-2224 2255 0
3522 2031 0
2828 -451 0
727 2537 0
-824 3111 0
-1828 689 0
1473 3165 0
1896 2441 0
-729 -1915 0
3170 -1330 0
3058 297 0
3075 -1476 0
3458 1903 0
-3192 3322 0
-3304 414 0
2497 -2289 0
1391 2812 0
-811 3303 0
3184 -948 0
-2880 -1650 0
2621 -1803 0
2048 -2817 0
3301 -2460 0
-839 256 0
2384 -1893 0
3138 6 0
-1161 -23 0
2769 1013 0
-1942 -397 0
-3224 1267 0
1499 1606 0
707 -208 0
-1201 2282 0
-1650 753 0
-1277 2699 0
1375 -2130 0
-1287 -2054 0
687 -2144 0
-1219 -634 0
-1476 871 0
3275 3316 0
-895 740 0
1543 -2783 0
-3331 -1653 0
896 -3415 0
-531 -3274 0
-1619 -3435 0
2441 2581 0
225 1602 0
2666 1061 0
-3307 3371 0
-687 -3098 0
-370 -220 0
-3391 -1447 0
310 -666 0
-51 -1892 0
-3524 -2987 0
1599 -3012 0
1294 -985 0
1057 1483 0
-1426 1114 0
3454 1142 0
-3479 -1996 0
-1268 1473 0
3246 2686 0
3413 1343 0
1388 -3412 0
2579 212 0
-452 2629 0
-1638 1875 0
-2281 -3209 0
-248 -3201 0
862 2708 0
1132 -2378 0
2994 -1861 0
-1129 -2620 0
1382 608 0
3489 1073 0
-2494 3213 0
-1551 -1284 0
-69 -3084 0
-1440 -50 0
-56 1362 0
2009 2758 0
-3199 -3226 0
710 1473 0
-2125 -2227 0
-382 -1811 0
-1402 1660 0
-928 231 0
2010 566 0
-3523 -939 0
2984 1075 0
143 -1437 0
1592 -3437 0
1148 -472 0
3019 2467 0
-844 -2424 0
-2701 -831 0
719 1506 0
859 -472 0
-403 52 0
-958 2148 0
2639 224 0
-342 3015 0
149 -1170 0
2375 -2515 0
1231 -318 0
2149 2979 0
246 -991 0
254 -1033 0
3413 -255 0
2359 192 0
-1181 -1497 0
219 2632 0
2147 -1486 0
2722 -3001 0
687 -2821 0
2268 546 0
1648 2893 0
1709 2565 0
3390 1103 0
-301 403 0
-3228 1520 0
-2320 1086 0
-1789 -1737 0
-294 242 0
-1159 -121 0
-1311 2470 0
-2117 1767 0
-3181 2364 0
-1723 -2435 0
1036 -1940 0
620 1971 0
-731 -3418 0
-2779 -1605 0
-3340 3477 0
-1996 2899 0
1392 -2659 0
1171 -2178 0
297 -2945 0
803 935 0
1097 -1646 0
-2315 3426 0
2947 2314 0
968 758 0
1496 3070 0
2156 -1597 0
-2722 1366 0
-2211 -1730 0
1515 3450 0
1868 -2048 0
-1957 -263 0
3061 -2463 0
826 -540 0
707 -124 0
-589 1677 0
-2706 3467 0
-3410 2369 0
-853 1776 0
-177 -1421 0
-2344 3438 0
-2662 586 0
-1158 3139 0
-607 204 0
906 -3152 0
307 -720 0
-3180 2876 0
-1158 -450 0
1848 2168 0
1590 -164 0
-1296 -2737 0
2978 -983 0
-1594 180 0
1526 -2023 0
1329 2074 0
2035 2918 0
818 2922 0
571 316 0
-2357 535 0
-292 2969 0
-2868 -1399 0
1328 1295 0
-1193 2131 0
-1348 -158 0
-2944 1805 0
-3110 2850 0
-2028 2577 0
581 -1670 0
3091 2465 0
-1808 -616 0
-1253 2164 0
-3090 1959 0
-2615 -1803 0
-774 2742 0
-687 2685 0
228 261 0
72 380 0
-2064 1656 0
-2449 2659 0
116 -1455 0
2392 1773 0
2343 2739 0
-1139 1283 0
1488 127 0
2781 -2506 0
-1802 3489 0
-2250 -1434 0
-1107 -2039 0
-339 2260 0
-936 249 0
3444 -765 0
-2344 1937 0
1578 -2798 0
4 386 0
-2626 -828 0
-499 -2947 0
3481 3184 0
3367 363 0
2188 -2883 0
811 1475 0
2188 -2988 0
2849 1656 0
2392 335 0
-356 134 0
-476 229 0
1793 1309 0
-1895 -2279 0
-2033 2537 0
-416 -834 0
-1833 313 0
2768 709 0
-260 848 0
-3157 -972 0
119 2452 0
144 1627 0
-532 2005 0
-3379 -400 0
-578 1947 0
1144 1161 0
-2371 336 0
3346 1986 0
514 3386 0
1316 -665 0
2955 2805 0
-1278 1171 0
2569 -3045 0
-353 -2850 0
3299 -1556 0
1553 2588 0
-1964 1535 0
-3305 2206 0
-3183 -2807 0
-1803 -3477 0
3272 -3255 0
-1967 3402 0
-1573 -1850 0
3357 -425 0
-1655 -3011 0
1297 -444 0
-1065 -3323 0
-30 -42 0
-1144 3109 0
-923 -1052 0
2969 1538 0
-3230 2048 0
1074 2079 0
27 -825 0
1047 642 0
802 1363 0
-479 2571 0
-1168 -1237 0
3507 2161 0
1895 -787 0
1632 1062 0
1090 1660 0
-2171 -1457 0
-273 2570 0
-994 2983 0
-1432 -1249 0
568 -3176 0
3525 3492 0
3389 1621 0
-1296 2148 0
2004 -1657 0
-533 -1731 0
635 -1736 0
1218 -504 0
-590 -1661 0
3346 237 0
2767 2257 0
-1428 -412 0
2270 1125 0
3530 -1175 0
-2179 544 0
-1589 -2349 0
-145 -1985 0
883 2520 0
47 1644 0
-2635 -847 0
816 -3223 0
3389 1563 0
-2173 2653 0
2548 2050 0
-2945 1116 0
-2060 -2474 0
-2813 473 0
8 -1940 0
-145 100 0
-2566 -138 0
3026 1125 0
3354 2 0
-2075 1448 0
-3261 -193 0
105 -3519 0
3420 3384 0
1055 529 0
-1048 897 0
2170 -3285 0
3384 -279 0
1582 -3295 0
2517 3329 0
3170 -3344 0
-3255 417 0
-646 2234 0
-3047 -1954 0
1933 -3089 0
-3473 1464 0
-2240 -2455 0
1486 761 0
-447 -573 0
-1296 -399 0
636 -1461 0
1349 2737 0
-322 2522 0
-307 -736 0
-3235 -731 0
1807 3447 0
1872 28 0
-408 -433 0
764 1678 0
2943 -1726 0
-1832 1329 0
1051 897 0
597 917 0
-2928 -100 0
2320 -1781 0
1303 3339 0
-2874 -3426 0
-2955 52 0
3245 -443 0
2364 1972 0
2060 -3470 0
1479 -1597 0
-1115 2671 0
2940 1825 0
-1711 -1513 0
-822 -1216 0
-664 2020 0
-3125 105 0
-2222 512 0
-3196 3449 0
686 -1121 0
407 -868 0
-524 2943 0
678 -1156 0
-2711 2253 0
962 -555 0
-2478 3231 0
1507 1804 0
755 713 0
1973 1359 0
1283 -77 0
-385 1707 0
-2386 1485 0
1713 11 0
-876 2148 0
-418 -1273 0
484 -366 0
1008 -2360 0
3020 -986 0
-1568 -1330 0
-502 -973 0
2314 1450 0
-308 -3112 0
255 2136 0
2332 -1651 0
-67 2496 0
-1690 -3373 0
2914 1204 0
417 -547 0
3472 3383 0
-1796 5 0
-1197 -2380 0
39 -3368 0
1520 -378 0
13 -3012 0
-1857 850 0
-2575 -3064 0
1056 -1720 0
3002 1977 0
1969 -838 0
1378 2652 0
1326 -441 0
1057 2469 0
-540 -636 0
2315 -987 0
2287 1392 0
-594 3156 0
247 -2065 0
2324 1397 0
1944 897 0
-2051 -580 0
-1351 421 0
-587 -2759 0
-1430 906 0
-2732 -3440 0
60 1739 0
-1899 3426 0
-547 2022 0
-399 327 0
2079 -47 0
2492 -933 0
-1414 -2042 0
361 1515 0
1059 3050 0
3198 2128 0
-3436 841 0
1318 -2500 0
3338 2022 0
3109 1562 0
760 -6 0
2063 -1793 0
1059 2114 0
-2151 2837 0
1349 287 0
2666 2 0
-3277 562 0
-3459 726 0
-912 -786 0
-2753 993 0
2523 964 0
-3224 3174 0
-1209 2533 0
-439 1081 0
3051 -2345 0
3159 2517 0
-668 -2106 0
-3092 792 0
779 -986 0
-2267 -396 0
-1479 3478 0
309 -1993 0
421 -1161 0
2739 1054 0
-1600 -316 0
-1899 -273 0
-423 2191 0
454 1673 0
2404 -933 0
-1647 50 0
3470 -1291 0
2274 1230 0
3428 -2239 0
-697 -1645 0
3303 1210 0
-3335 -3463 0
-3188 1431 0
359 1050 0
395 3213 0
-1544 2457 0
2253 -2611 0
-3480 1914 0
1791 -962 0
-2006 -2482 0
-1273 -2480 0
-2846 2364 0
-523 -657 0
-154 1647 0
3243 2682 0
-2746 -2990 0
-3291 -3065 0
-2414 -3314 0
2671 -3027 0
-587 -2204 0
2221 485 0
-2177 -578 0
-1616 -1264 0
-2683 2172 0
-1813 -2395 0
-2683 1915 0
-704 1075 0
297 2555 0
2204 2085 0
-2019 183 0
-1858 2912 0
-235 1217 0
3290 -2841 0
-103 1867 0
-913 329 0
814 -2983 0
-3406 1905 0
-2578 -2560 0
-3472 405 0
-399 2739 0
-2897 -179 0
1188 -2151 0
-3357 3095 0
-1221 2348 0
-218 -171 0
-723 30 0
-2263 1636 0
1844 -2611 0
-755 -125 0
-3153 2243 0
481 2110 0
199 1740 0
1824 -517 0
-2407 -2245 0
-2044 -1336 0
-3475 -161 0
3408 152 0
2036 -2483 0
1913 -1080 0
1156 2030 0
3055 17 0
-1654 2778 0
-2197 -231 0
-994 -3302 0
-2680 3157 0
-829 1772 0
-163 940 0
-1121 -3132 0
2027 -491 0
-1548 -236 0
1256 -561 0
-1638 -748 0
718 2655 0
-1459 3193 0
-2330 -2145 0
2017 750 0
1162 3072 0
995 -678 0
1888 3319 0
2892 1014 0
2198 810 0
152 -1891 0
504 795 0
100 1243 0
2100 2253 0
3049 1423 0
-3387 -1554 0
2100 -886 0
-1582 -181 0
-1652 1127 0
-2552 1290 0
-294 -853 0
1482 -342 0
-2505 -970 0
3512 118 0
3213 1286 0
1478 -2177 0
-678 -3001 0
1464 -3292 0
-975 1057 0
2736 1360 0
2116 -2886 0
-3268 2539 0
-2725 -2240 0
3378 1368 0
-1565 -2822 0
2233 -1726 0
-1941 2617 0
-2938 1970 0
-2507 568 0
-2432 -888 0
903 -2372 0
-1532 652 0
762 -1990 0
1633 -799 0
3425 2308 0
-678 3065 0
1515 -2841 0
-1355 978 0
2903 923 0
3423 -3009 0
1601 1132 0
-890 2852 0
-2275 2992 0
-346 -1493 0
-3259 2784 0
2465 2364 0
-3432 -1175 0
-2804 -2216 0
-998 1673 0
-287 1960 0
1177 -1832 0
-2575 -55 0
532 2120 0
1929 108 0
-368 -1839 0
856 -1206 0
2295 2913 0
-2998 1992 0
2136 -1302 0
-2643 425 0
1514 -2550 0
1257 1267 0
-263 2849 0
3036 -2666 0
541 543 0
-1921 1951 0
-3098 1386 0
358 2147 0
-158 -907 0
1885 -651 0
-2279 -3259 0
-735 -1019 0
-2953 -2035 0
-798 1191 0
3372 2594 0
3414 -773 0
1494 -1026 0
-2550 -3263 0
-348 3404 0
-2277 1739 0
-177 -1396 0
3364 89 0
708 2119 0
-3176 -1438 0
1550 -3198 0
-1650 -2663 0
2524 -3213 0
-3402 146 0
2586 -322 0
3372 -2017 0
-2543 -3101 0
-2691 802 0
-123 1291 0
584 -3303 0
-2490 -1444 0
2461 1601 0
-513 1799 0
-2868 3045 0
-2137 1633 0
2918 -1000 0
-271 2031 0
2767 -3348 0
-814 3436 0
1101 2806 0
3071 1219 0
-3281 -1615 0
3363 2446 0
1469 -379 0
-2494 -2597 0
-362 1644 0
15 378 0
-1135 -1249 0
2535 -3264 0
100 -1472 0
156 2661 0
-3137 1908 0
-438 72 0
-2542 3064 0
783 566 0
2583 -2534 0
2377 2856 0
-286 1397 0
-2732 -311 0
-3353 3472 0
-2874 -2251 0
-1354 335 0
-2226 542 0
1817 3231 0
-3146 -3428 0
-1773 -2105 0
-3121 -2556 0
-1674 -270 0
1360 2474 0
698 2130 0
-2427 -588 0
-3112 642 0
-898 -2064 0
-2013 2095 0
-158 490 0
-2498 1378 0
673 3486 0
2215 -2526 0
-523 -496 0
-383 -66 0
2224 655 0
1405 -674 0
-2411 -1030 0
1977 342 0
2343 2991 0
2920 2030 0
-360 -1475 0
-3030 379 0
3271 -1028 0
-2288 1455 0
2238 -92 0
1799 -3232 0
-2518 -1232 0
2513 -3115 0
1487 451 0
404 3023 0
-3476 2191 0
2027 -2916 0
1932 2978 0
-1862 2624 0
-2173 -2927 0
3254 1320 0
-434 -3295 0
-3410 157 0
1838 3495 0
1261 -1618 0
-3241 926 0
-2538 -960 0
-2958 -1409 0
1809 3479 0
806 3212 0
2659 -379 0
220 -957 0
2594 902 0
-408 -2684 0
-2725 2252 0
386 -1396 0
-667 132 0
-651 1146 0
1612 -1316 0
-965 -3115 0
-318 3524 0
-34 -2065 0
-3228 -1155 0
3189 2678 0
-1562 -2142 0
2825 -1699 0
-1748 2070 0
1337 -1711 0
-1806 -595 0
3489 -1363 0
2481 2985 0
-3400 1245 0
1842 199 0
-952 3023 0
1631 1860 0
694 3037 0
3498 -359 0
-620 1251 0
979 3140 0
2487 3244 0
-2922 -3373 0
1511 -1965 0
2110 -3440 0
1227 -90 0
-2377 -468 0
579 -1572 0
-559 -295 0
-135 420 0
-1162 -3210 0
765 -3146 0
-907 -3088 0
3037 2677 0
-1843 331 0
-1226 1989 0
242 -2376 0
2436 2393 0
126 -2156 0
-1401 2951 0
-2560 -972 0
2359 -1019 0
-3504 643 0
3329 2192 0
2238 -1468 0
-1429 2795 0
-957 1170 0
903 2749 0
3358 1879 0
1579 -358 0
-1100 573 0
1396 -2219 0
183 1689 0
2148 1054 0
3047 -1719 0
1047 -396 0
626 -1928 0
2024 1595 0
485 2965 0
954 -791 0
2641 -3430 0
166 -3011 0
2431 2652 0
-3313 2736 0
3452 640 0
2108 3102 0
1150 -2633 0
-1187 2216 0
2561 -1919 0
-2554 1292 0
1589 1602 0
-3317 750 0
-1458 -1739 0
-109 1212 0
1031 1512 0
-1401 -725 0
2624 -2850 0
742 -238 0
-1832 -1862 0
2933 3310 0
-413 794 0
2211 966 0
1515 -3294 0
2274 -1982 0
2403 1933 0
2214 -1292 0
-704 -3262 0
-2556 -1423 0
-2748 -420 0
-2748 -3521 0
-950 -2636 0
1128 1738 0
-625 2319 0
-219 3272 0
2458 1475 0
2128 -375 0
-2169 2767 0
-2454 818 0
-1174 -2678 0
-844 -3267 0
140 1239 0
610 -1992 0
-172 1677 0
-1070 986 0
-2345 -2553 0
2440 3106 0
3264 -3030 0
-472 2187 0
-2743 2507 0
-2718 2897 0
-2737 664 0
-667 639 0
-751 -548 0
2116 2009 0
1870 -1784 0
3394 -2523 0
-3341 2828 0
-2323 28 0
-989 429 0
-3325 3398 0
917 -3127 0
2832 1150 0
1570 563 0
-3306 -3496 0
2222 -105 0
262 1352 0
2404 -2996 0
-2073 1287 0
-1096 -2450 0
-1864 -578 0
1466 -2684 0
-1640 2740 0
-1600 2379 0
2031 -1354 0
1618 2536 0
-472 2390 0
-907 -2050 0
1617 -1028 0
-2619 -2209 0
1547 -1734 0
-1858 -1984 0
-887 -3376 0
-228 -298 0
-220 -2181 0
-1972 -740 0
2669 -1985 0
634 -636 0
-1760 1977 0
3400 2853 0
3399 -2281 0
-2227 -1396 0
-948 2905 0
-3080 -1436 0
-3340 2062 0
-2437 559 0
172 -2015 0
1404 448 0
-674 -1243 0
1499 -1828 0
577 -101 0
1289 182 0
2148 2282 0
3307 -1993 0
1323 1235 0
-1139 2445 0
-404 -1973 0
2178 -3073 0
1724 351 0
1191 477 0
-1341 -1364 0
284 -435 0
1955 -2364 0
-1336 -1597 0
-23 -1114 0
2892 1328 0
1824 -1650 0
3064 433 0
-1053 2774 0
-1098 -3135 0
3179 -985 0
352 2978 0
1884 1859 0
-1338 -757 0
41 -3050 0
-2442 -1938 0
-2009 897 0
-1959 2038 0
2696 -2112 0
310 3385 0
-2835 30 0
139 2545 0
-534 -3201 0
-358 -409 0
-350 576 0
-2623 -3475 0
99 -1637 0
287 -1257 0
2268 -2154 0
-299 1223 0
-1885 2159 0
-1944 2256 0
2878 1293 0
2799 -1580 0
-154 -2370 0
2294 -877 0
348 1986 0
-350 2022 0
-1396 2582 0
-860 1032 0
1231 3108 0
570 -156 0
-3316 -1395 0
1492 317 0
2461 3340 0
1159 2750 0
1793 -270 0
2032 -1823 0
-3526 -1398 0
-3115 933 0
32 -2747 0
241 -273 0
-286 3288 0
2689 -2009 0
-886 687 0
-310 -1498 0
618 800 0
-9 2160 0
1267 1424 0
-2826 3131 0
620 241 0
1761 -1317 0
-1557 -1870 0
3185 479 0
-850 3229 0
2593 2298 0
662 21 0
465 -128 0
-2765 -2710 0
-73 1268 0
724 1882 0
-2258 1328 0
-12 -1480 0
2174 -1558 0
-2321 -3110 0
1642 2072 0
2194 1015 0
-3373 1102 0
-803 2520 0
-2270 -2365 0
-3459 -492 0
2160 1611 0
126 2412 0
1262 1663 0
-2852 2336 0
207 -2782 0
1872 -305 0
1082 1091 0
-1682 -2717 0
-1331 -1942 0
1766 239 0
-1460 566 0
-2500 2773 0
1729 -2878 0
116 593 0
-1887 -1572 0
743 -681 0
-1743 1403 0
-343 2578 0
2646 -2784 0
1538 -3225 0
-3028 2898 0
-1557 2677 0
589 115 0
2083 -2618 0
1538 1500 0
1804 -1134 0
1652 -1562 0
402 2394 0
-548 -1005 0
1289 -2166 0
3092 867 0
-2693 1409 0
143 3429 0
-2115 1247 0
2237 -2098 0
-2241 1336 0
-3297 -342 0
-1698 712 0
-1969 542 0
1225 2755 0
-2561 2750 0
-1095 -430 0
2126 -2651 0
590 -2637 0
3054 -3145 0
304 72 0
1244 963 0
2522 1680 0
733 -1175 0
-336 397 0
-1110 2012 0
-140 -1368 0
-2765 170 0
192 -206 0
-2890 -3504 0
-389 -1700 0
91 -567 0
3037 675 0
-292 -2308 0
-3125 73 0
1591 -1772 0
-3303 2585 0
-134 1665 0
201 -809 0
-1797 2968 0
-3150 2713 0
173 2650 0
-685 -539 0
2233 2124 0
2798 -1001 0
872 -2520 0
876 -324 0
1011 -353 0
-2936 2736 0
-1220 1545 0
487 -2250 0
-1447 2760 0
1011 -3025 0
-1991 1694 0
-2152 771 0
-3414 481 0
-1689 276 0
2828 758 0
1623 576 0
-932 -1563 0
-1930 655 0
-3121 -3304 0
-324 1465 0
371 862 0
1767 803 0
945 -1157 0
1681 -3480 0
-1403 -2134 0
-7 -459 0
-400 1477 0
-881 -1534 0
-3206 -350 0
-2993 1537 0
768 -2108 0
918 -478 0
300 -1352 0
914 -3020 0
-2785 1585 0
-620 814 0
1622 2774 0
-2226 1713 0
-344 -2712 0
1296 2488 0
1448 -2359 0
-1249 679 0
1077 -1733 0
-278 2582 0
-302 509 0
-2058 5 0
-1149 -569 0
1793 3097 0
-240 573 0
-2487 2947 0
867 -1085 0
-1084 659 0
792 898 0
2445 -2811 0
-2386 -1162 0
-3432 2738 0
-3157 -2402 0
-688 -2045 0
1386 -1834 0
763 -2023 0
-2007 -1070 0
-2166 2444 0
3480 3219 0
1207 -3340 0
791 -2784 0
-607 -1667 0
-3509 2719 0
-31 930 0
3436 -3146 0
2288 2392 0
-2894 2537 0
-240 2924 0
3170 2419 0
-1357 3319 0
2338 -3151 0
1489 596 0
-213 867 0
-476 1012 0
15 826 0
-343 1829 0
-57 -2047 0
729 -67 0
3438 204 0
-2815 449 0
1511 2843 0
-1412 1208 0
-3310 -3484 0
1405 186 0
-2455 546 0
1943 387 0
1643 -955 0
1827 1422 0
501 3288 0
58 2138 0
-702 -1513 0
-247 3115 0
-3053 376 0
3262 -2152 0
-1625 2297 0
705 -2822 0
-2557 3178 0
-1797 71 0
1428 -607 0
2813 -2747 0
-2156 2591 0
583 502 0
-2140 -1422 0
325 1297 0
-2857 -2033 0
-185 1732 0
-1540 2082 0
-1522 1450 0
-1663 -2153 0
-1155 634 0
3114 3120 0
353 919 0
-2728 -628 0
1462 -3105 0
686 -1431 0
-2879 -111 0
1054 -3253 0
1405 37 0
-2573 -1431 0
3400 -2386 0
-1507 -159 0
3449 -3301 0
-3315 1135 0
2030 1154 0
2962 841 0
-2212 2245 0
1045 254 0
849 -1464 0
-2976 -2185 0
3402 987 0
1585 -804 0
-680 2083 0
-799 -1608 0
-1686 1621 0
2812 -3171 0
1588 -81 0
2417 2978 0
3356 -323 0
-801 -1856 0
-1934 1292 0
-1379 2650 0
-128 -3447 0
-1217 1111 0
-951 3309 0
-3304 3075 0
2163 -1685 0
-3269 2992 0
-598 2985 0
1601 -3124 0
2771 -862 0
-1113 -2094 0
149 -876 0
-789 -735 0
-3450 -2434 0
1703 -2279 0
2628 -1455 0
2737 1172 0
-3287 2653 0
268 -452 0
2545 2992 0
183 1821 0
882 2598 0
2917 -75 0
-998 543 0
-758 -404 0
-1854 3054 0
1774 1708 0
414 -831 0
-169 -226 0
-192 -1711 0
2104 142 0
3038 -2658 0
2025 -3110 0
-56 1464 0
-104 -2743 0
2151 581 0
2881 2944 0
332 457 0
-3026 -755 0
-263 -2940 0
1655 2503 0
-2619 -3377 0
-499 2125 0
3252 964 0
3477 3091 0
-1302 -1636 0
-1558 2681 0
-3011 -2247 0
-2260 877 0
-1400 1907 0
1284 -1194 0
-1498 1405 0
-755 3126 0
-2445 -444 0
-357 -2280 0
-249 -1498 0
1654 2000 0
-1381 931 0
611 2464 0
3048 2091 0
-2180 -3312 0
-977 1369 0
3165 686 0
-1125 -785 0
-106 -601 0
-2926 -2917 0
-3366 -2937 0
634 1877 0
1854 694 0
-1553 911 0
-2813 2599 0
624 961 0
-2008 -2933 0
2966 2914 0
-1860 1717 0
-1633 925 0
2762 -2548 0
-2202 -1078 0
-781 2253 0
-2197 -3071 0
-3039 -2512 0
2277 -3466 0
1708 2381 0
2831 3209 0
2472 -1091 0
-1724 -2168 0
-3239 -1604 0
3367 -2515 0
2543 -1441 0
-2449 1059 0
3014 1890 0
-1284 2367 0
-463 -1444 0
778 -1450 0
2005 -1659 0
-3027 1918 0
-2508 1704 0
732 -3344 0
-196 -2880 0
1826 2099 0
1233 -664 0
922 1909 0
-1632 -1026 0
-2921 1166 0
-3480 314 0
-3449 -376 0
3317 -2487 0
2228 711 0
2121 995 0
418 -1442 0
967 3370 0
-404 -2281 0
1641 3179 0
520 1956 0
1770 833 0
-1325 -3348 0
769 3483 0
2009 -2783 0
1116 3009 0
1147 3452 0
-3203 490 0
3449 -1823 0
3341 2998 0
-1964 -1346 0
-353 618 0
2286 -1321 0
3099 2553 0
-2751 -742 0
3038 -1950 0
1960 2089 0
2640 2540 0
2268 2392 0
-1381 -2291 0
-937 1806 0
-181 -1530 0
1997 1287 0
-3017 457 0
3013 2569 0
1546 -345 0
-341 2152 0
-2946 -1257 0
3371 78 0
-1313 2366 0
-2404 2263 0
327 -175 0
618 2378 0
2843 -1825 0
-3186 2230 0
2768 -346 0
1759 -1005 0
2805 -2763 0
1867 3409 0
-980 1625 0
2136 926 0
457 1206 0
-3078 318 0
2331 568 0
-1436 3322 0
-828 715 0
3371 -1046 0
-2860 763 0
-2227 3230 0
1777 2412 0
-3059 1099 0
2061 3186 0
-1808 -1147 0
2337 -273 0
3242 -1902 0
-60 -2172 0
-1470 1648 0
-1022 2797 0
2277 1837 0
325 1680 0
2215 -1473 0
1959 2733 0
1816 3227 0
-464 2007 0
3330 -3437 0
282 -644 0
-2727 615 0
-3416 2009 0
2860 2026 0
1998 444 0
331 -2143 0
1931 642 0
-3020 2142 0
-172 -703 0
1959 548 0
2646 -989 0
-2869 -274 0
2622 370 0
1221 1767 0
-1123 131 0
-154 -2208 0
2156 2145 0
2194 -2344 0
-774 -2712 0
3132 -866 0
-1168 1155 0
-2017 -3401 0
3458 1713 0
-2779 -2116 0
-1167 -1450 0
2919 1855 0
-358 1077 0
1766 -2752 0
-2844 929 0
3456 -559 0
2090 -3265 0
1607 -955 0
244 -1943 0
3343 3489 0
817 -1761 0
956 2317 0
3061 -503 0
2838 -2383 0
392 1085 0
-2123 2175 0
-3203 -3046 0
97 -1076 0
-2019 -2796 0
140 526 0
1083 -2797 0
1704 -2403 0
1237 -2377 0
2481 -3256 0
2725 -529 0
1586 -3043 0
1501 -265 0
3185 -1204 0
2392 -2892 0
3437 799 0
1196 3410 0
2150 3074 0
-2383 453 0
-587 -2523 0
-794 3141 0
-503 761 0
-2438 2892 0
1459 3114 0
212 2656 0
2641 1758 0
-1074 -2694 0
2176 3178 0
1959 813 0
515 2643 0
-291 -2355 0
-606 1083 0
-3101 2709 0
914 -1598 0
832 392 0
3269 -1995 0
-537 1144 0
-3348 -2370 0
-1740 2680 0
1636 -995 0
587 906 0
3114 -3295 0
-2380 2758 0
-1528 -447 0
1854 2318 0
2277 2888 0
442 -1320 0
-3392 -3089 0
-2607 1684 0
80 2922 0
-26 -883 0
-2712 -994 0
28 3438 0
-1578 -213 0
-2193 -1463 0
2799 3088 0
272 -882 0
1045 2760 0
-1108 -672 0
759 -1233 0
989 3243 0
-688 2631 0
-1994 733 0
-2625 -2557 0
1744 2231 0
3355 -2631 0
1562 -706 0
-1419 -3111 0
1150 3371 0
-822 -652 0
-749 -2665 0
1131 3453 0
-2324 -987 0
1360 -3399 0
2238 -1183 0
-2137 42 0
-3067 3467 0
-3030 -982 0
-2431 1439 0
-94 712 0
422 3507 0
-2177 1553 0
-2115 690 0
1981 -1291 0
-3414 -941 0
206 267 0
-2056 2797 0
607 2818 0
-2545 -1458 0
-846 783 0
-1834 1163 0
-2329 -853 0
2523 915 0
-2901 -2794 0
2133 -896 0
-1374 -2192 0
-218 -756 0
553 -318 0
683 3529 0
1584 -2189 0
-1309 -288 0
-2456 3375 0
2381 38 0
3317 3352 0
3241 2654 0
-1755 1636 0
-2974 -230 0
-1566 2842 0
-2181 -1639 0
2390 -105 0
-1660 -1049 0
-1811 -663 0
684 -1072 0
-1649 -2046 0
2989 3115 0
-2257 -1598 0
2925 -3212 0
-1212 -312 0
2011 1124 0
96 352 0
968 -731 0
-49 3323 0
1239 -1268 0
-2393 -364 0
-2542 -1193 0
-227 1319 0
1899 -770 0
-1821 -1430 0
-1030 -2549 0
-1445 -141 0
-2781 2984 0
-2008 2121 0
-3127 1977 0
1723 -170 0
3385 230 0
2192 1520 0
-1659 -1970 0
988 -363 0
138 2090 0
1423 -1430 0
-1997 -210 0
192 -748 0
134 -1466 0
-1112 -1681 0
-998 -2421 0
1388 598 0
-1223 -404 0
-3326 1410 0
-3137 -1126 0
-2679 3385 0
1044 3278 0
1969 119 0
63 294 0
-578 3314 0
-289 383 0
848 -1275 0
-2412 -863 0
1569 217 0
-2856 -3139 0
2768 2680 0
1516 2328 0
-2901 -2658 0
-2829 -2350 0
1957 -82 0
-2889 3043 0
1819 2608 0
-298 624 0
-652 1128 0
-705 1751 0
-1474 1778 0
3234 1692 0
2888 2402 0
-2661 2862 0
-1598 1872 0
-478 943 0
-1950 -2368 0
1449 1816 0
2982 -559 0
3382 453 0
1435 -1973 0
1843 2700 0
1550 -2889 0
-2997 2119 0
3426 791 0
-393 -3426 0
3486 -3299 0
-3368 -2271 0
2821 3066 0
1673 1310 0
2143 542 0
1662 3437 0
3175 -1525 0
611 -53 0
-615 2690 0
2593 294 0
-1185 2085 0
1754 -2227 0
2581 1882 0
-3067 1827 0
1021 2438 0
1061 -1344 0
1787 162 0
2780 -1052 0
2327 2493 0
3210 1868 0
2189 -737 0
-3448 3215 0
2969 -3166 0
1437 3281 0
-1380 3516 0
182 943 0
2555 -2104 0
2641 -1067 0
-1276 -2850 0
1972 -3078 0
-466 -273 0
1435 -822 0
-960 -1072 0
-232 -1615 0
3213 1932 0
2666 3288 0
-646 675 0
2540 -2125 0
2309 398 0
742 -3266 0
2418 1419 0
-3205 -3509 0
-479 372 0
-1527 42 0
-212 1745 0
-112 3509 0
-3450 -1228 0
-2514 328 0
97 2474 0
1180 2306 0
-1212 2222 0
305 -1762 0
-2098 -709 0
2124 1312 0
1733 2614 0
-2863 -2417 0
-2495 -156 0
3176 1211 0
-829 2953 0
-2506 -1641 0
2853 -749 0
-1814 -998 0
2043 1457 0
-2029 -2724 0
3235 341 0
815 -1237 0
1994 -1412 0
1847 -2109 0
-1079 -725 0
-3404 692 0
-2315 1935 0
-1504 1981 0
2335 -200 0
3512 -1600 0
-3441 -1701 0
-2483 176 0
-484 2401 0
-2892 1327 0
3307 3349 0
3341 -307 0
-780 -11 0
1296 -2657 0
2159 362 0
-2425 -1509 0
973 1966 0
1879 -14 0
-2063 2947 0
3138 -3405 0
-2928 -2191 0
-1929 1369 0
3354 -1291 0
-3088 -1070 0
-43 -2846 0
1074 3283 0
1699 -2397 0
-1020 607 0
-3445 1604 0
2514 1826 0
-2348 1265 0
1310 435 0
-3036 2616 0
-696 1297 0
-2144 169 0
-458 2631 0
-920 2486 0
-798 112 0
2313 1084 0
1929 1482 0
2808 1395 0
393 1424 0
-1794 -1259 0
54 -1380 0
-1371 3492 0
-1822 1057 0
1725 3218 0
-1832 -2892 0
-1951 1622 0
-2804 1142 0
2822 -2359 0
-3320 3345 0
7 -1937 0
2248 1051 0
-1392 -1794 0
-2312 244 0
-970 2600 0
2246 -780 0
1782 -2348 0
-2928 2918 0
1780 1619 0
-2299 2084 0
3375 -2507 0
1892 835 0
-1594 3187 0
1832 -2449 0
1163 -1816 0
-444 152 0
2899 2834 0
3085 -792 0
-3364 3351 0
-31 537 0
-387 -2516 0
-3479 -3068 0
-1342 -648 0
1231 1676 0
-1552 426 0
-2100 -404 0
-2975 1096 0
564 2574 0
680 -2505 0
3431 -1352 0
-1217 -953 0
-138 -2567 0
3243 -60 0
-137 373 0
-1246 -2963 0
-2751 73 0
-2554 2932 0
-2850 -337 0
-1032 -264 0
1205 -2431 0
-922 -2193 0
1637 1056 0
991 -916 0
-3031 -2115 0
-366 -239 0
507 447 0
2586 -2819 0
1605 -2945 0
-402 1126 0
1069 2740 0
-618 -2961 0
-578 -2128 0
281 687 0
-519 506 0
395 -717 0
1308 -2302 0
-1290 1335 0
783 1085 0
371 219 0
1793 -2218 0
-2530 741 0
1637 1743 0
-403 3371 0
2674 3038 0
-2308 535 0
996 334 0
-311 510 0
-2954 3005 0
2125 3197 0
-2539 -331 0
-3061 1579 0
-1481 -92 0
800 140 0
2285 2351 0
-1560 -1022 0
702 -2721 0
2549 -3444 0
-2561 -846 0
800 1628 0
-105 -957 0
-384 952 0
1324 -146 0
-1108 -451 0
-2533 2952 0
1342 -3033 0
1769 -1105 0
1259 1855 0
3004 2019 0
-3326 -807 0
2256 3315 0
-3295 -2945 0
2963 -726 0
-2035 375 0
2369 -2215 0
2188 2081 0
-2432 2873 0
2207 -3470 0
1077 1718 0
-1167 -1752 0
-1308 -2672 0
1094 1662 0
-3166 -2922 0
527 1758 0
669 670 0
2963 2012 0
-1769 3173 0
-661 -2409 0
343 1283 0
3015 2678 0
-2780 -2611 0
2488 -79 0
-1470 -1967 0
3069 417 0
302 -2925 0
-1570 -3029 0
-69 3277 0
-2923 -1192 0
-299 964 0
31 2598 0
-150 2649 0
1623 -1266 0
2716 2339 0
-627 -2147 0
-2729 -839 0
-3062 -901 0
2714 -1348 0
-2759 3018 0
-2449 -571 0
2160 -3045 0
584 -1399 0
309 -937 0
3245 -3144 0
3272 1673 0
-2447 1409 0
-345 -969 0
-1916 -205 0
-2306 2225 0
2062 2332 0
-72 -2597 0
1774 2632 0
1351 -1149 0
3085 3242 0
-2427 2972 0
3518 368 0
-240 965 0
1182 2413 0
-1064 -622 0
1318 -1200 0
-2957 -3025 0
-46 -1857 0
197 -2154 0
-2432 2254 0
-1652 -239 0
936 330 0
-324 -209 0
-603 -1532 0
-1134 -1287 0
2285 -2915 0
2165 -641 0
-2833 -1764 0
-2743 1707 0
-384 -880 0
1903 -1374 0
1629 165 0
1281 1172 0
2131 2085 0
398 -1267 0
-3297 -1974 0
549 2139 0
-3232 -1357 0
499 2818 0
2972 -3206 0
-3391 184 0
2803 1051 0
1961 -529 0
2280 -3089 0
929 -697 0
-1869 512 0
456 -2996 0
-2094 -3108 0
-190 1146 0
497 -2573 0
-465 2860 0
-3241 -3284 0
1465 832 0
2966 209 0
-953 -2106 0
-2054 2953 0
-3340 42 0
1427 1150 0
-1354 2306 0
-861 577 0
3489 -1193 0
-2910 -473 0
-525 940 0
2995 -1627 0
-248 903 0
-3383 3035 0
594 3367 0
-2800 -1080 0
-2928 1362 0
2587 -1249 0
327 1007 0
2125 784 0
-181 1604 0
2179 3290 0
707 1681 0
1484 3377 0
2358 1457 0
2300 2799 0
2867 2406 0
-3148 2473 0
3014 -3339 0
-164 405 0
-2349 -136 0
-2344 1398 0
1272 -2201 0
2716 -2447 0
505 -3104 0
1280 1428 0
-3434 2377 0
-1367 1971 0
859 -892 0
1434 -3443 0
-3470 -2788 0
-2046 657 0
-1143 -3428 0
3172 1738 0
1617 -2901 0
-2491 -1974 0
1936 -834 0
-1936 -3435 0
-144 1631 0
-2516 753 0
1324 1229 0
3166 -1383 0
142 -2227 0
-3239 -1659 0
-2613 -2937 0
-919 -1028 0
2564 2929 0
-1046 3414 0
2505 -1839 0
-464 -42 0
-155 -3290 0
140 2306 0
-1338 -1314 0
-2595 2762 0
709 1872 0
979 -2144 0
3461 820 0
953 461 0
-3435 -92 0
-3235 3178 0
-1468 823 0
1756 -499 0
-2825 3426 0
-2383 2504 0
-2055 1842 0
2696 1890 0
3356 571 0
120 696 0
3072 716 0
1742 -298 0
-1408 -2219 0
-1440 2916 0
252 2654 0
1455 -587 0
-2166 1372 0
-1232 1886 0
2231 1277 0
-2541 1569 0
-1553 1397 0
-2054 2343 0
-2312 -2043 0
2575 1572 0
2990 -2545 0
-3339 -1991 0
2142 1165 0
-2047 118 0
1386 -2251 0
2377 -922 0
240 -3173 0
-678 3477 0
870 3116 0
-356 -2636 0
615 -643 0
19 39 0
-2340 3434 0
-668 570 0
318 1566 0
2963 179 0
1363 -2626 0
658 3502 0
1227 -2311 0
2368 781 0
-1145 -1006 0
-3374 -795 0
755 -2296 0
-2456 2517 0
73 577 0
-3113 -1829 0
3380 -1873 0
562 -3189 0
1345 1955 0
-2557 -3150 0
-2751 -2111 0
-2363 3373 0
437 1023 0
-1467 -1467 0
-944 -919 0
-2993 -1605 0
826 -1224 0
1462 763 0
1235 386 0
-1372 -2950 0
-312 2025 0
2818 2191 0
-2314 2332 0
-276 -1277 0
2784 -1482 0
-2387 -2941 0
3222 3334 0
-2090 -2896 0
-404 -1506 0
-213 -71 0
1810 2971 0
1586 -3516 0
-2025 -3083 0
2503 1159 0
1023 640 0
424 -2307 0
1301 3189 0
448 -2194 0
-35 -3290 0
-1990 1915 0
-2420 986 0
3380 1653 0
-322 -1142 0
-3439 -2179 0
918 3415 0
181 1855 0
-2918 988 0
-1136 -232 0
-3039 -221 0
-890 1973 0
2031 527 0
-1292 2972 0
2021 -2264 0
-273 1067 0
2090 1277 0
194 2050 0
-3239 -420 0
-3169 -1893 0
3447 1027 0
1831 2163 0
2287 1150 0
118 -290 0
465 1807 0
2308 -1664 0
-2261 2075 0
-1774 99 0
-1673 1298 0
-2020 -2675 0
1389 3277 0
1395 -10 0
2540 -3192 0
2332 -1141 0
-1019 1385 0
-1035 2661 0
2192 1969 0
503 826 0
1043 -713 0
310 633 0
-1808 3378 0
2214 38 0
771 75 0
-1922 2814 0
2197 1449 0
-1322 -308 0
-442 1782 0
968 -2664 0
969 828 0
-1967 -2918 0
-489 428 0
-1777 927 0
-1406 1036 0
2033 -590 0
-1544 -1715 0
1287 -1908 0
1577 2879 0
-110 1223 0
2121 -3033 0
-237 -1316 0
625 -700 0
-481 1998 0
2823 -2668 0
275 487 0
1487 2568 0
1555 800 0
992 2666 0
-541 5 0
144 -1895 0
3300 3230 0
-2550 -2994 0
1248 2627 0
154 305 0
-2039 2012 0
1340 -2122 0
-1049 -523 0
67 3386 0
1111 -1055 0
1405 -3326 0
-1483 -1600 0
-1530 -1774 0
2566 -504 0
2378 1692 0
-156 2012 0
1892 2548 0
-2853 1922 0
1015 2551 0
-1969 -2313 0
-2599 3249 0
-1777 -1436 0
1159 2445 0
1463 3381 0
-2509 2570 0
1535 -2505 0
-839 -2360 0
-1950 -56 0
-2129 -2887 0
1007 2304 0
-2772 2305 0
-2955 2322 0
-726 -1059 0
-133 503 0
2160 1487 0
2574 477 0
-3276 -920 0
-2638 -2884 0
-360 1013 0
1619 -3489 0
1990 245 0
30 -1371 0
-2775 2838 0
1538 -692 0
-2191 -720 0
-66 -1942 0
828 -846 0
3477 -1442 0
2708 3197 0
-1375 2853 0
197 144 0
-856 -44 0
-3519 367 0
-2411 1302 0
1857 -2252 0
3355 3413 0
2381 2058 0
2654 3039 0
-376 -2253 0
-944 2911 0
-639 1578 0
3265 -2312 0
-1993 2733 0
646 -2100 0
2103 -594 0
2814 -3336 0
1316 -749 0
-296 3223 0
191 2758 0
-1900 3104 0
3493 1933 0
1824 3204 0
-2444 -416 0
-2067 903 0
-774 -946 0
2698 -2029 0
-2913 2139 0
2600 1064 0
-2139 -2174 0
-785 -410 0
199 -1618 0
-202 1794 0
-3273 -3040 0
1859 1462 0
-2166 -2316 0
-1220 282 0
3292 -2731 0
-2184 2206 0
-1664 -628 0
-384 -2733 0
3238 -1488 0
798 3412 0
2593 694 0
2519 1091 0
1343 2426 0
1203 -382 0
2129 -85 0
-910 2414 0
2768 -106 0
1288 3317 0
3114 450 0
1022 2140 0
-2637 3081 0
3372 945 0
-384 1959 0
2292 -725 0
1486 -1255 0
-343 -2721 0
212 -766 0
1373 1745 0
-2454 2317 0
3295 -3353 0
355 -217 0
-407 -1545 0
-484 -1193 0
3416 3217 0
2740 2613 0
961 -603 0
-592 1485 0
2552 -2690 0
186 -3320 0
-3089 657 0
-1710 260 0
2959 1507 0
801 -1551 0
1225 -934 0
-1821 -2733 0
-176 1718 0
2964 3220 0
3424 2999 0
-1140 2033 0
543 1429 0
343 2576 0
-2376 -1322 0
-1659 1226 0
-3103 -1706 0
1738 1602 0
1141 1517 0
-1909 1644 0
3386 3437 0
-3251 2722 0
-865 -2039 0
-2285 1047 0
2528 3349 0
-1383 -2081 0
-2408 618 0
-531 1630 0
-298 -2342 0
-2528 395 0
2157 1097 0
2586 -904 0
2628 -1798 0
1871 -1722 0
-2850 1226 0
-1471 -2371 0
457 2283 0
1716 -3057 0
-2534 -368 0
-1119 -1980 0
2078 -1006 0
-555 1583 0
821 -651 0
-2675 -1065 0
2914 381 0
2873 -2596 0
3391 -2371 0
371 -1829 0
-311 3273 0
1282 -353 0
2146 -1602 0
1734 -3063 0
-3519 1182 0
3455 2837 0
-2056 -1442 0
-348 -1242 0
-2709 -2557 0
-3526 -2326 0
-2014 -1254 0
272 -1037 0
2231 3267 0
540 -1893 0
584 -1508 0
637 -1974 0
-3059 -948 0
-1743 560 0
3483 125 0
-2462 184 0
2943 1730 0
-2243 -822 0
-1127 -1168 0
-320 -2382 0
1552 2059 0
-299 -691 0
2190 522 0
1300 204 0
-2826 1006 0
1015 1290 0
577 2758 0
-1773 154 0
2614 -1005 0
249 -1230 0
-1906 1549 0
-3163 -1849 0
-86 3301 0
-1158 -344 0
1764 3438 0
2286 109 0
-1377 1387 0
-3435 618 0
-2515 -503 0
-708 -2580 0
-3519 -2699 0
-2607 2611 0
-2529 1576 0
1544 -657 0
-138 2586 0
890 -3326 0
-516 2306 0
538 922 0
1412 -1312 0
2745 1367 0
-1112 -2346 0
-2034 -2554 0
1210 -509 0
2160 2156 0
1722 2591 0
42 2668 0
3319 -1719 0
2038 -2284 0
-1286 666 0
1412 -815 0
373 3407 0
2012 -3332 0
-3154 1358 0
-2533 -2734 0
-3525 -1383 0
1260 -3084 0
1347 -2847 0
-734 -1766 0
-2718 199 0
-1175 2120 0
1896 -1411 0
-1121 1442 0
-2946 2461 0
-2748 760 0
-861 -1204 0
1966 2248 0
-452 -3072 0
1656 267 0
1760 -3044 0
1353 2481 0
3190 2034 0
-641 3338 0
-3525 -770 0
-2171 2240 0
58 3185 0
-970 2281 0
1725 -3173 0
-401 -2066 0
2115 827 0
-2387 -768 0
133 -2322 0
-1435 -3226 0
-1342 3406 0
707 -2883 0
661 -2673 0
1996 3243 0
-1617 2049 0
2194 1133 0
376 -2329 0
227 2247 0
-1594 -532 0
655 2031 0
-1400 -496 0
358 -366 0
-683 -862 0
1962 3114 0
1149 -2205 0
-3255 3338 0
533 -2850 0
-2360 1957 0
-2976 2368 0
676 3396 0
1989 -2270 0
1975 2736 0
-2656 -2722 0
-2468 -606 0
-2266 -3342 0
142 1530 0
2582 1454 0
-3212 2691 0
2337 -2800 0
245 131 0
-2525 -2783 0
-88 -145 0
2379 2354 0
-321 283 0
-3199 -2167 0
1154 1555 0
-3178 -3167 0
2211 1329 0
702 385 0
1006 -1557 0
3281 3488 0
2446 1485 0
-200 -1138 0
2616 2625 0
-3162 -160 0
-2206 -3205 0
-60 -2700 0
-459 3164 0
-3062 -2196 0
-62 -3149 0
742 1363 0
-3494 -1788 0
-801 -1239 0
-785 2002 0
-361 -1681 0
2721 -3139 0
-2592 -210 0
-592 -1490 0
3403 -2066 0
-2421 -2838 0
3102 1536 0
-3285 -1384 0
3265 421 0
1948 -1365 0
1073 406 0
522 2721 0
398 1393 0
-204 2467 0
498 162 0
2655 943 0
1787 1575 0
-1396 1924 0
-2154 2801 0
-339 1956 0
-1201 -619 0
669 -1723 0
-644 1656 0
2828 -1992 0
2087 1154 0
-2727 3442 0
903 -2627 0
-581 -2679 0
-525 -151 0
1152 -1803 0
-402 -137 0
-2242 751 0
-2653 -1321 0
-1508 -1696 0
-3051 169 0
1364 1322 0
-706 738 0
280 -796 0
2287 3428 0
1369 1697 0
311 -2437 0
2790 -822 0
-2142 -580 0
1885 1238 0
-1085 537 0
3314 -2885 0
2634 -3320 0
-1275 2910 0
1679 -2846 0
345 -3251 0
-1836 288 0
-2432 -133 0
3058 -533 0
2343 2908 0
521 3323 0
-1957 -1723 0
-1148 1816 0
2502 -3118 0
2735 1008 0
-2075 2377 0
-3297 28 0
23 -1345 0
2096 2823 0
2786 -1161 0
-2265 -1173 0
-2576 2452 0
254 2420 0
-452 141 0
-2196 -2629 0
3031 1092 0
-1081 -2514 0
-2270 3091 0
-3116 607 0
364 -3068 0
-517 -252 0
1201 769 0
-477 -2388 0
-2639 -2950 0
2784 1936 0
-488 -3289 0
3502 3264 0
2119 -2008 0
-1801 -2043 0
1948 -1980 0
-2948 3234 0
-1491 2213 0
967 -1550 0
3444 2582 0
-1247 241 0
2120 3413 0
1769 2133 0
4 2275 0
2443 -675 0
1098 3440 0
2780 3367 0
1422 -1076 0
-1750 -1056 0
1073 1907 0
1478 -3339 0
-1330 -2575 0
1016 182 0
33 2543 0
2602 1987 0
3197 -1879 0
-274 -3482 0
-1483 -1963 0
-2355 -2728 0
-3193 821 0
1586 -1801 0
1367 -108 0
-3012 3016 0
-3522 -2808 0
686 800 0
-580 -2455 0
-526 1423 0
-3109 -2097 0
-1067 -274 0
-2786 1798 0
-2643 2556 0
-170 421 0
-293 -2911 0
947 -1814 0
-2674 -3039 0
-2539 2869 0
2183 1677 0
-375 1356 0
-2356 3165 0
-3361 -2559 0
-187 1077 0
-3110 2824 0
-2615 2972 0
3276 -3411 0
245 -2141 0
-2330 3446 0
1349 1913 0
2341 -3200 0
-3211 2941 0
2052 1811 0
-950 -48 0
273 -3073 0
240 1455 0
-2488 3331 0
-3435 -1121 0
597 1166 0
1211 2734 0
367 -639 0
-2310 -2835 0
-1418 2075 0
2431 2091 0
-1266 -3284 0
-2500 -245 0
-664 -812 0
-2395 2010 0
800 -668 0
658 2342 0
-543 -2154 0
2320 -709 0
-2422 3232 0
1225 3267 0
169 1911 0
-2187 -3331 0
-134 -1158 0
-2412 3438 0
2411 3007 0
184 -795 0
-2899 3075 0
-2936 2195 0
-3361 -966 0
3163 569 0
1939 1311 0
454 -2255 0
1784 -2298 0
564 416 0
2485 -865 0
2319 127 0
-1794 3354 0
-878 3476 0
3277 -1888 0
-2432 -1942 0
2533 410 0
2038 -2215 0
-2616 -2988 0
-3301 1344 0
781 -700 0
-1172 -2888 0
-986 -2337 0
786 2479 0
2579 3242 0
-1867 2778 0
-145 -534 0
1396 2331 0
-349 2962 0
-3496 1719 0
-2859 -87 0
764 2983 0
917 -2404 0
-3428 -482 0
-2500 -1078 0
3197 -852 0
-123 -2680 0
1224 -644 0
2362 -451 0
1405 -2683 0
714 -3031 0
1842 1140 0
-1161 3238 0
-521 3336 0
2622 781 0
474 -309 0
2569 2006 0
-2454 -3192 0
3484 179 0
2965 801 0
2534 2551 0
3247 -1740 0
-2697 906 0
2304 -439 0
-364 -784 0
479 -2501 0
3462 -760 0
-613 201 0
-1244 -2303 0
767 -1533 0
2954 -260 0
2244 -280 0
1994 -1378 0
261 3307 0
-2498 2759 0
1956 2009 0
2296 -2014 0
-2570 2998 0
3300 1233 0
-3285 925 0
-1912 -1303 0
-1156 348 0
2287 2660 0
1918 -1389 0
-846 1667 0
3486 428 0
2920 -3142 0
-346 686 0
-1849 2785 0
1491 -3255 0
1610 3013 0
1210 654 0
2713 -1480 0
-143 2049 0
1092 -574 0
-2305 -1317 0
-711 3400 0
-1052 -1122 0
-116 -1382 0
-236 -578 0
2591 1506 0
1222 971 0
-2344 2466 0
238 267 0
-550 -272 0
-2197 242 0
-64 2231 0
545 -3012 0
2410 -1760 0
-800 527 0
-121 -2444 0
306 1810 0
-2579 2273 0
-2701 -2431 0
1106 2659 0
91 -2745 0
-780 1948 0
2784 2822 0
145 -2728 0
1612 1022 0
-1173 3117 0
-3176 -3245 0
1574 2185 0
1639 -2703 0
-1717 677 0
2404 -317 0
856 -628 0
-462 -2596 0
841 -375 0
1415 1904 0
3451 2401 0
-2196 -776 0
72 -3522 0
2818 -2450 0
1056 2622 0
-2038 2907 0
-3485 245 0
-3030 2211 0
-858 -3184 0
-606 -123 0
2536 648 0
60 -1702 0
-478 1741 0
-832 968 0
3312 463 0
3352 194 0
2134 -1705 0
2049 1217 0
2627 -1826 0
-960 -2580 0
250 -107 0
1684 2198 0
858 392 0
1371 -1727 0
-1225 -175 0
3126 -3028 0
-714 -2028 0
-2498 -2071 0
-1177 1875 0
956 2931 0
1975 881 0
1801 223 0
-2967 -2954 0
-962 -1855 0
-3484 3352 0
171 -1540 0
2391 3087 0
1164 -2987 0
-2906 -3290 0
3201 906 0
2195 1564 0
410 640 0
-74 -2233 0
-474 -2043 0
-2454 -1087 0
-3289 1796 0
-1425 1138 0
924 1232 0
-2727 456 0
393 -3024 0
163 -2869 0
-2602 1537 0
-2643 1878 0
2965 -2957 0
1319 -2045 0
3172 -805 0
-1483 2547 0
3288 -2224 0
1566 -2988 0
1637 -251 0
1807 -1011 0
1509 -1246 0
171 -3496 0
3019 1520 0
300 853 0
1532 -368 0
1083 383 0
-3473 927 0
2060 2675 0
-1168 -475 0
-1490 -1096 0
-3035 -653 0
-1123 1434 0
-1869 -1037 0
3332 498 0
-3196 -2744 0
-825 943 0
-822 3162 0
-1573 -1192 0
-1268 -1345 0
-668 1709 0
1516 2331 0
-1057 1414 0
2999 526 0
-2068 809 0
1975 -235 0
-984 2988 0
1822 429 0
-539 -2456 0
-3033 3453 0
1359 -93 0
1117 796 0
2853 -1934 0
-481 1804 0
-86 853 0
1645 -1291 0
2521 -1181 0
2163 -3345 0
976 -263 0
-2421 -2920 0
2223 3505 0
3256 -2595 0
-3172 868 0
-2043 1978 0
-3001 -3469 0
-2388 2963 0
-3302 699 0
2658 -942 0
-886 -2841 0
-1422 -156 0
-2996 -2460 0
-3161 -2579 0
1013 16 0
2400 -3483 0
2052 297 0
609 -1041 0
1114 1783 0
1980 138 0
-1854 -3410 0
-3209 577 0
-1324 -1214 0
-3313 -106 0
753 3460 0
2294 2812 0
-1864 736 0
-1965 1374 0
285 -355 0
378 2207 0
947 -3089 0
-632 -1783 0
-2850 -2941 0
-2829 319 0
-1638 -3398 0
2777 -301 0
303 134 0
997 -3297 0
-1905 1623 0
1504 183 0
97 -866 0
-2810 -1862 0
1739 1762 0
-1367 -591 0
-393 -3061 0
1869 -232 0
2699 -2350 0
-1897 497 0
-2656 486 0
-203 51 0
2976 398 0
1662 -1096 0
-340 1412 0
2677 -1343 0
3457 -1768 0
-2325 3317 0
-2732 2001 0
305 694 0
-2926 -1200 0
-2004 372 0
-158 2189 0
-1549 -2880 0
-2722 -3528 0
2962 -1420 0
3097 -3379 0
-553 2843 0
1837 -195 0
2496 -2906 0
-3033 -2046 0
-1814 960 0
2713 -2398 0
759 2736 0
1081 96 0
-2454 -1488 0
-475 -1296 0
-974 -2773 0
134 2722 0
-1741 2919 0
-2969 -1999 0
2900 673 0
2332 428 0
-3394 -2752 0
-2460 -3084 0
-610 -3076 0
118 -3218 0
2891 2296 0
1911 3042 0
2571 -1512 0
122 2486 0
-561 535 0
-941 2548 0
-3301 2081 0
-3022 361 0
855 -2810 0
-863 -1619 0
2929 493 0
2654 -737 0
624 1153 0
-2312 1756 0
2234 806 0
-1741 -2063 0
2758 1126 0
-3040 137 0
-805 2269 0
2531 3482 0
-1748 -1491 0
961 2245 0
1389 -3011 0
1579 1114 0
98 334 0
1269 583 0
-925 -1919 0
-2994 997 0
-128 -3369 0
-1714 1697 0
-3297 2186 0
-550 1740 0
-70 -2539 0
-3279 -2174 0
3226 -270 0
-2454 1293 0
-1630 653 0
372 204 0
-1797 -3268 0
2503 955 0
-1477 -486 0
-1002 -1482 0
1097 2736 0
2323 2198 0
-1007 -3079 0
-2289 84 0
3394 -2150 0
-480 1624 0
211 -116 0
-1088 1413 0
815 758 0
-2408 -44 0
2195 2995 0
2309 -3383 0
-1504 2484 0
-1111 -2494 0
-1096 -1659 0
699 -1490 0
3179 -3108 0
-120 1602 0
2344 -1277 0
1867 -1336 0
868 238 0
3023 -507 0
2661 -1909 0
-2612 -801 0
-1423 2110 0
-1109 -1007 0
2887 -2908 0
-2852 -2677 0
3180 -3511 0
-265 1929 0
-1206 -409 0
3476 3460 0
-2706 3460 0
1417 586 0
-1663 1709 0
-2859 2134 0
-884 2926 0
1937 736 0
-14 -3479 0
1634 1484 0
3323 -725 0
2786 -2531 0
1631 3510 0
-3283 427 0
2782 3457 0
-3354 -2905 0
-504 2631 0
2166 1591 0
610 -3410 0
-1120 -855 0
147 3092 0
444 3085 0
-2856 2583 0
2170 -23 0
-67 -916 0
-364 -1228 0
-26 2006 0
-3130 2725 0
970 -2406 0
-2779 347 0
-2213 -3241 0
1090 3130 0
12 -1928 0
2692 -1305 0
3280 3242 0
-2682 -1171 0
-2888 -213 0
2842 -786 0
-1096 1236 0
2505 806 0
1183 -3422 0
585 1916 0
-393 -1689 0
3444 1541 0
2997 -1117 0
-14 -1831 0
1340 1882 0
628 -1983 0
-3344 -2908 0
-3271 -276 0
2921 -1723 0
-1344 -1418 0
1269 -1952 0
1931 2514 0
-104 -1059 0
984 2283 0
1694 -3161 0
-1521 3275 0
-1507 2475 0
-582 80 0
-2975 -782 0
-2539 2755 0
2669 238 0
1271 315 0
2632 1053 0
728 -2171 0
2004 625 0
-1700 3116 0
-1976 -3136 0
446 1879 0
1459 -3278 0
-340 -1964 0
-67 -1041 0
2195 2399 0
2465 423 0
-740 1295 0
2708 -2779 0
1199 -2761 0
-2434 -1627 0
-140 -1483 0
-668 -3382 0
-3108 3045 0
-1593 -1366 0
-2665 -2039 0
1854 -1190 0
-712 544 0
449 3360 0
-2121 -959 0
65 -2281 0
3364 -3041 0
-1019 -1258 0
-2869 2559 0
-2008 -854 0
3286 721 0
137 3396 0
-3001 1288 0
-1502 497 0
-1542 2450 0
-1415 -3091 0
1751 2841 0
-2422 2597 0
-2683 783 0
-770 -628 0
-1041 -809 0
1311 1200 0
-3419 -2701 0
-3284 772 0
-2447 2541 0
-347 766 0
-1688 -1741 0
-2299 1125 0
-645 -1613 0
64 1656 0
-1562 3482 0
2729 -425 0
3174 -1660 0
3317 645 0
1117 570 0
-3127 2461 0
-1466 1632 0
1494 -3256 0
-3039 -1581 0
1735 1906 0
-1164 965 0
2024 1618 0
3231 2984 0
501 -1554 0
1441 -590 0
-425 -348 0
-1849 3515 0
2032 3440 0
246 -1003 0
-46 2216 0
809 -1865 0
-558 -3085 0
473 -1955 0
-689 826 0
1754 1734 0
1125 -1148 0
3190 -1005 0
-2367 1878 0
3167 2316 0
-233 2367 0
-1617 -1570 0
3264 -1105 0
-3124 -3294 0
642 -2952 0
1598 584 0
3139 -625 0
3229 222 0
1189 3261 0
-2836 -2159 0
1413 3444 0
-2925 -1399 0
227 3114 0
2389 -1357 0
-839 -2478 0
-1605 3261 0
-1014 -3495 0
-3100 1106 0
2851 3066 0
542 1896 0
-451 2946 0
-524 -679 0
223 3134 0
-1004 1700 0
2554 -2552 0
2290 676 0
2429 273 0
2368 2295 0
-1556 -2031 0
-2866 -1307 0
-1055 2904 0
522 -2086 0
2628 -3491 0
-2927 3523 0
-2361 -3088 0
3248 -1849 0
577 3308 0
-817 -1529 0
-1983 3058 0
894 1043 0
1109 -1797 0
-1 -1387 0
1310 1595 0
-3340 879 0
1888 2644 0
-3395 1414 0
-342 -2512 0
770 9 0
-484 115 0
-43 1354 0
-3118 -2815 0
2404 -2710 0
2440 1392 0
-2279 -539 0
-2909 1970 0
1497 -2382 0
-2938 2537 0
-1727 -1309 0
1515 -419 0
-3527 -3263 0
-1794 605 0
1316 2244 0
2189 -590 0
1539 -637 0
-1985 -1448 0
-1573 -1795 0
-1296 670 0
-2168 -984 0
3013 -2489 0
2713 -2720 0
1111 248 0
1379 2562 0
-1829 2492 0
-980 1101 0
2451 -2074 0
291 856 0
2108 -3215 0
515 -1026 0
-1149 -1712 0
-2604 -2344 0
-3266 -3192 0
997 989 0
-3347 2090 0
-102 723 0
-697 -748 0
-3043 -1745 0
915 -1001 0
3385 -3200 0
649 -2980 0
-907 -2488 0
623 1087 0
-112 -3103 0
3192 -2423 0
2912 1942 0
-912 -1600 0
1347 3183 0
3338 2238 0
2769 3318 0
2717 -1408 0
-2379 1728 0
1885 1564 0
-1703 -1773 0
3227 -2376 0
2914 -2001 0
1788 -464 0
86 245 0
2403 -1281 0
1085 -3177 0
2112 -1156 0
-164 -234 0
-1243 -2307 0
-736 -1257 0
-1909 2906 0
3166 -3428 0
519 2424 0
3020 -1741 0
-165 454 0
183 2632 0
-1385 -3276 0
-64 3124 0
-1455 -3225 0
2612 -1217 0
1159 -2462 0
2849 653 0
-2382 885 0
758 -1813 0
1298 -2094 0
2073 -1252 0
-3405 2931 0
-2568 -817 0
2176 -835 0
164 130 0
899 -3196 0
2873 567 0
-3203 -2562 0
1619 -497 0
-1567 -2842 0
-3067 -3485 0
2555 -6 0
-3411 -3443 0
-2087 971 0
749 -2397 0
-464 -2597 0
-1649 1103 0
-1119 1708 0
805 1644 0
2233 -3304 0
3124 -2109 0
1668 -3106 0
1851 -790 0
-2457 -2400 0
-2574 2301 0
3038 959 0
-1398 3528 0
-535 -261 0
2831 -1587 0
1122 -3326 0
-619 -1215 0
1216 -2025 0
-611 1138 0
-2567 3406 0
-601 -3373 0
171 -3417 0
-1479 897 0
961 -1302 0
-2558 2360 0
1660 -1706 0
-1773 -400 0
-1230 -3427 0
1512 2335 0
1241 3065 0
1486 1985 0
-1391 949 0
-1574 -2447 0
2666 1434 0
1648 2423 0
2867 36 0
1690 -3280 0
2966 -2220 0
2567 -2449 0
-1544 536 0
-2857 -558 0
-3122 2999 0
-2954 -2934 0
2818 3285 0
-2626 -515 0
-3038 1044 0
568 2535 0
-2290 2872 0
-422 2430 0
-550 2159 0
-1841 -2335 0
57 -1317 0
-3192 -830 0
-3125 -2649 0
2716 2491 0
-2406 -2766 0
-52 617 0
-3310 1254 0
1389 -672 0
3477 1940 0
-1727 -1543 0
549 2382 0
1224 2979 0
2555 150 0
3304 3128 0
549 -856 0
-2455 -2832 0
1578 90 0
1021 -1957 0
583 -229 0
1550 -1130 0
-1495 2367 0
-257 -1465 0
2351 -2353 0
3425 3165 0
-3363 3368 0
-1186 316 0
-2178 783 0
2399 -3524 0
-402 -3440 0
224 -142 0
-1011 7 0
-2829 -2002 0
-84 589 0
-1187 355 0
1203 -3374 0
-3273 1922 0
-1461 -3428 0
-725 3058 0
764 2686 0
971 -700 0
2459 1508 0
486 -3010 0
466 367 0
-2094 -3100 0
-409 -3094 0
-264 -2067 0
-129 -1249 0
963 -145 0
-1864 -726 0
3038 -1253 0
1367 1478 0
544 -2014 0
2067 -3432 0
-2788 -1702 0
-2824 1826 0
-3125 3218 0
-709 -1194 0
2535 -172 0
-110 -549 0
1257 -2861 0
-1554 -2497 0
-3403 -848 0
2404 -53 0
698 -939 0
-2103 354 0
1884 -2935 0
-71 2512 0
-1498 2023 0
1560 2784 0
-3026 -1519 0
1891 2583 0
3105 12 0
608 3200 0
-680 -2303 0
-805 -2494 0
-2183 885 0
2022 -330 0
-1232 -2549 0
-3164 2367 0
216 -2753 0
-2305 -2572 0
1296 -460 0
513 -1275 0
2263 215 0
331 1191 0
3145 2590 0
-2111 1517 0
2336 2697 0
1738 3175 0
1330 -1102 0
-2627 1062 0
3105 -2934 0
-3485 1813 0
-1887 2271 0
1093 3444 0
-1160 408 0
2277 -1692 0
-1686 1819 0
1375 -1219 0
-1357 -2759 0
1889 828 0
1565 347 0
-625 2265 0
2566 1375 0
3014 -2105 0
-3150 -1446 0
-2318 -1277 0
2842 -1971 0
3367 2840 0
80 -1528 0
-2108 1180 0
3522 13 0
-3210 429 0
-2735 -742 0
3500 -1592 0
3320 2780 0
3189 3226 0
-43 -3024 0
965 -360 0
-492 -1531 0
2821 2285 0
2395 1675 0
1293 -646 0
3275 -3400 0
3407 -1746 0
-112 -3406 0
-1785 -1736 0
21 -1192 0
-3057 3418 0
2376 -148 0
744 1735 0
-2056 1315 0
-1252 -292 0
-3525 -395 0
2931 -2226 0
-366 1984 0
-1763 2204 0
2809 -464 0
-1362 -717 0
-2953 982 0
-3474 -666 0
244 1176 0
-473 2594 0
-1307 -1741 0
-3366 -1119 0
-634 -1415 0
-399 -1677 0
3213 723 0
-2018 1566 0
3291 -2826 0
-663 -108 0
-2663 -2300 0
-2484 2612 0
818 2455 0
950 -2718 0
2170 -1631 0
-2849 1465 0
2948 2126 0
1283 -1017 0
-510 856 0
1519 1405 0
2896 -1501 0
2598 -3233 0
-2896 1753 0
1631 2515 0
-2377 926 0
-3036 -129 0
2757 2685 0
-874 1058 0
-1618 325 0
1368 2989 0
737 295 0
-2592 198 0
-1351 1318 0
779 -993 0
-966 -2244 0
11 -2470 0
775 -2550 0
3317 -203 0
2588 1929 0
-1279 -2621 0
3456 -2166 0
727 893 0
2164 -2113 0
2436 -717 0
-2505 -1738 0
-951 1011 0
-2428 2210 0
-1472 3009 0
-1644 3424 0
3148 870 0
1675 285 0
-2775 272 0
-1046 -482 0
-73 -880 0
-353 1256 0
2454 -857 0
3233 146 0
565 -508 0
-1240 2141 0
-1204 1448 0
-2281 -49 0
-1971 3114 0
3498 -1018 0
-527 2304 0
-2897 2608 0
2508 -700 0
-2405 -598 0
-1807 2112 0
-2669 -973 0
2200 2132 0
-628 -3176 0
972 -3077 0
589 -2812 0
-1055 -2817 0
-593 -3145 0
3162 -1208 0
-3225 -886 0
-116 -2507 0
390 -341 0
1772 2736 0
-3011 -848 0
-3433 2362 0
-1305 559 0
2847 99 0
1236 845 0
-295 -1482 0
-2759 -1812 0
3478 -2395 0
-805 1560 0
-3466 3214 0
796 -1037 0
-496 -3187 0
3038 -3289 0
2408 2161 0
17 3327 0
3441 835 0
-2773 3271 0
-2500 242 0
-275 2194 0
-1325 -3071 0
3216 972 0
-983 -765 0
2249 -2002 0
-674 -1072 0
-2922 1714 0
1729 -2545 0
2211 -2787 0
1441 2373 0
-3526 -1593 0
-3250 1752 0
-2083 -2836 0
2418 -3218 0
-1382 -16 0
-1004 1364 0
293 -2140 0
-3250 3313 0
1621 -855 0
-292 -3278 0
-211 -1173 0
1432 -1238 0
3009 3447 0
-1135 -3118 0
840 -2447 0
-3122 2630 0
-2086 3030 0
-1056 3244 0
-1988 1016 0
354 -987 0
-1929 2199 0
-1985 -2026 0
-128 1727 0
-2526 2956 0
-2363 909 0
-2241 -1430 0
-2558 -2260 0
2670 2659 0
-2501 -1839 0
-1895 3258 0
762 3265 0
534 977 0
-323 2445 0
1156 -350 0
-2796 2569 0
1585 -498 0
-2821 743 0
960 2715 0
-3145 889 0
850 1857 0
1062 3023 0
-959 -3196 0
-1831 1330 0
2264 876 0
39 -957 0
-3074 1408 0
63 2043 0
2612 1546 0
-1457 -1274 0
-2345 2778 0
-3070 1970 0
-3311 2384 0
3038 -1864 0
2770 2020 0
-1198 -3499 0
3304 -69 0
-313 3453 0
-1445 -2121 0
-3470 -2293 0
-135 -3378 0
-1497 -955 0
3097 2943 0
-951 -1469 0
-3103 -136 0
422 2837 0
2362 -2368 0
-1695 3417 0
-3202 -2959 0
-2435 1116 0
115 1740 0
-2250 -1870 0
-3268 819 0
-1607 -2994 0
-2595 3362 0
-3150 -1616 0
888 3164 0
1861 -1112 0
1537 -2565 0
1992 -1746 0
-363 -1404 0
-1112 -1121 0
-777 -2413 0
2940 342 0
-1175 -140 0
2012 -2369 0
-2084 144 0
-644 3076 0
1208 -2208 0
-2292 970 0
-2807 1120 0
2476 1137 0
-296 -3437 0
-54 2971 0
-439 -93 0
-1901 -493 0
3267 2097 0
2760 728 0
980 754 0
-292 -3452 0
-2078 2084 0
-2937 -1996 0
2756 264 0
702 2935 0
-777 1356 0
507 -1118 0
-3316 -1689 0
1902 2003 0
882 -3101 0
2517 -775 0
3075 -2589 0
-1112 2354 0
1738 2258 0
2021 -3310 0
515 3013 0
1343 478 0
-3414 -2271 0
2979 2525 0
3444 -2018 0
-1811 -2235 0
-2664 3102 0
2139 -3528 0
-665 8 0
2331 -2251 0
-2409 -3042 0
2 -1458 0
-196 -960 0
367 1063 0
-1676 6 0
-604 -553 0
-800 -273 0
-253 -3443 0
897 2815 0
-1338 -284 0
-279 -2298 0
382 -1696 0
1385 -2909 0
-2422 -1261 0
-1843 -1330 0
-541 -443 0
-2988 -3001 0
2581 815 0
1470 -148 0
-3177 -2322 0
573 -1891 0
-731 -1181 0
2781 1537 0
-792 2466 0
2146 3502 0
-2858 2723 0
-1504 -3401 0
1928 184 0
371 1396 0
3143 -3315 0
-600 2039 0
-119 -1952 0
-2801 -2158 0
2206 -2487 0
-2930 2418 0
2107 -1302 0
1176 -605 0
473 -117 0
-2848 2744 0
1482 242 0
-3433 -1186 0
-541 -2603 0
2789 -2256 0
-2778 2216 0
2341 -699 0
-664 -1957 0
787 -2474 0
1250 -2901 0
-3473 710 0
-2322 -3329 0
-3146 1075 0
3054 -669 0
-1074 894 0
808 1621 0
-431 -2300 0
-344 -463 0
2913 -2360 0
1180 3055 0
1864 -817 0
-581 2608 0
-1768 2390 0
492 -1273 0
1084 -2081 0
-3058 1875 0
-612 -2458 0
597 -621 0
3041 2063 0
-452 -970 0
-1197 3217 0
-1588 -308 0
-1921 2374 0
-3474 2951 0
-1003 2799 0
2125 -2796 0
-3468 -1853 0
-1759 -1258 0
1649 3128 0
-2426 458 0
442 -2472 0
1271 2737 0
-1202 -1781 0
-2590 854 0
-2876 1050 0
-2459 63 0
-196 1961 0
556 189 0
-3444 1868 0
2457 405 0
3003 544 0
3164 -3044 0
917 184 0
-2153 -33 0
-805 -1438 0
-3516 -1266 0
3219 813 0
2962 3227 0
-3450 2543 0
232 -3185 0
-3414 2083 0
-1812 1245 0
-431 -3076 0
-3366 777 0
2357 536 0
-2423 1632 0
78 1711 0
-1856 1387 0
-1482 1352 0
1948 195 0
617 -838 0
1748 -1504 0
-476 -404 0
926 -2025 0
2084 -2043 0
-2831 -2018 0
1619 -2413 0
-305 1537 0
2642 1036 0
-2530 3450 0
-2046 3065 0
1366 -594 0
-3051 969 0
-1854 -220 0
14 1846 0
1887 -676 0
1835 -257 0
432 -257 0
1745 2535 0
-3285 -831 0
-2675 659 0
-2895 41 0
2933 -684 0
-2049 284 0
288 -1495 0
2256 2843 0
-2168 -2710 0
-3158 3332 0
-2654 848 0
-1650 -239 0
-2438 761 0
2474 -2177 0
432 3218 0
1392 2723 0
480 3274 0
-2498 779 0
-2647 2266 0
1955 -334 0
101 -2935 0
3113 808 0
1861 1304 0
-409 -1174 0
-2687 3102 0
611 -2096 0
2481 3430 0
-1925 229 0
494 2564 0
-2995 -1985 0
2629 3329 0
-2478 3323 0
-1705 1246 0
-2801 -169 0
1514 939 0
3269 -3446 0
3273 -100 0
2921 -989 0
-551 3076 0
2121 -881 0
-3195 -3334 0
442 1849 0
72 -1733 0
1307 2396 0
2638 -1475 0
2277 -3175 0
3105 -1894 0
2000 -1563 0
2115 3439 0
1596 1268 0
198 1732 0
-1190 724 0
1934 397 0
-2100 -1425 0
463 -1765 0
2585 3004 0
-1673 2981 0
-715 428 0
2324 1968 0
-3287 -1291 0
-2968 281 0
2470 -1336 0
3 310 0
2373 2681 0
-1361 3230 0
-1666 -2053 0
714 -2429 0
-2587 2562 0
-2696 -1427 0
-3095 -3475 0
-993 -2393 0
1323 2642 0
2804 2873 0
1174 -1908 0
908 -914 0
-2596 -663 0
2163 81 0
180 -2728 0
2190 -1548 0
-683 -1978 0
504 -2637 0
142 -772 0
-104 -3410 0
2506 -1266 0
-1731 -850 0
-378 1235 0
-1139 -1615 0
1298 -806 0
3501 -2987 0
1449 75 0
2208 -1828 0
3063 1152 0
2185 99 0
3280 -684 0
-1939 -613 0
-1199 -2745 0
-1010 689 0
801 2446 0
1441 2860 0
3107 204 0
1759 -1317 0
-1098 -307 0
-1321 -1127 0
-2701 2174 0
1630 1631 0
2391 -1647 0
1499 -2443 0
1169 -2018 0
1535 -689 0
-3212 1649 0
-1613 -2883 0
2434 3281 0
1387 -1669 0
-985 -873 0
-324 -517 0
3037 -1452 0
473 -1551 0
-1313 1297 0
-822 -3474 0
1620 3441 0
-180 384 0
-2143 2448 0
1951 -543 0
-88 2233 0
612 316 0
3066 3138 0
2050 750 0
1745 -3459 0
-1403 -220 0
-1517 1032 0
-2177 -1912 0
3249 -1880 0
2030 -243 0
3308 -600 0
-3179 -2670 0
-1257 2450 0
-2651 1182 0
1945 2328 0
2885 -2242 0
2365 1319 0
-1540 1675 0
927 -1442 0
1617 -732 0
-941 3505 0
1335 -703 0
-2834 229 0
-3103 -641 0
-3320 -1887 0
-1195 -2298 0
-3211 401 0
1678 -2757 0
-1326 -2365 0
1566 3206 0
-2534 -985 0
2385 -1151 0
-1136 -587 0
-841 -2389 0
3311 1159 0
-1944 1111 0
2641 -1940 0
1106 3415 0
-2763 2737 0
-18 3471 0
-720 -3118 0
-358 -2514 0
931 2824 0
-2345 2673 0
-952 1665 0
-2074 1407 0
950 788 0
1128 -1257 0
-1068 -121 0
150 1027 0
1253 3018 0
-2045 -1044 0
-2237 3163 0
-1129 -2211 0
2532 -1640 0
3023 -151 0
-2747 1515 0
3377 2302 0
2778 -1155 0
972 -2936 0
2725 -1108 0
-2612 355 0
3510 376 0
2681 -1491 0
-3062 -2722 0
2524 -734 0
2087 -3457 0
2247 1267 0
-2313 1981 0
-3490 355 0
-3339 -2064 0
3137 -1812 0
-2759 2346 0
486 -70 0
2472 -1960 0
1884 -2040 0
2798 63 0
2156 -895 0
-1506 3169 0
1944 349 0
-619 -2689 0
5 -266 0
-1686 391 0
-2997 -3414 0
-1829 219 0
2646 -1759 0
-2008 2943 0
3189 -1257 0
3388 -435 0
-56 1627 0
732 -866 0
-3214 -879 0
3456 2737 0
508 -684 0
2591 141 0
3077 1568 0
-1664 -1178 0
532 565 0
-3086 2390 0
1399 -3491 0
-858 -2735 0
-3152 -119 0
2148 -2803 0
-1082 3147 0
2884 -2073 0
-2733 -1338 0
-1650 -1221 0
669 1961 0
1959 -2608 0
-2739 273 0
2453 -601 0
3268 -731 0
3081 -2604 0
-1121 -2405 0
-1400 -2897 0
1718 1820 0
1393 -2524 0
714 -490 0
1868 1968 0
-1583 -2553 0
-2789 -434 0
-3087 4 0
2440 -833 0
-3256 617 0
-1197 2265 0
-441 -1639 0
-1870 979 0
-1472 -3300 0
2365 -2432 0
1732 412 0
1217 696 0
-3343 2186 0
1525 -264 0
-3284 1799 0
-2444 -1547 0
971 201 0
-2900 2582 0
3356 2149 0
856 -2604 0
-1790 -928 0
1962 -1107 0
2908 -128 0
351 -3043 0
1817 -1927 0
2565 -2705 0
-154 2341 0
-1194 3246 0
647 -1700 0
1356 -482 0
238 754 0
597 1213 0
2203 -1506 0
521 70 0
-1723 -1382 0
412 -2317 0
-2784 1946 0
2253 -1985 0
210 772 0
2709 -2115 0
-231 1644 0
-2641 16 0
-3061 1268 0
-2565 1164 0
-2417 -2119 0
-3205 2420 0
-3139 -2224 0
-130 3221 0
1678 -1103 0
3031 99 0
-3408 -1381 0
676 1633 0
-156 3458 0
323 -934 0
-3188 2283 0
-2153 586 0
2840 1023 0
-1260 419 0
-663 -312 0
2483 2142 0
1272 -2951 0
983 1412 0
1055 2348 0
107 -257 0
-2381 2206 0
-2530 -2370 0
-2874 -1371 0
1245 2564 0
-1467 2617 0
2050 -3359 0
1148 -2672 0
3476 -167 0
564 1488 0
-1698 -533 0
-1042 -1497 0
1704 1632 0
-622 -2336 0
520 -430 0
-2012 -973 0
2654 1957 0
-2048 2733 0
1438 -3079 0
-1140 1658 0
-3455 1961 0
-788 -293 0
1369 -2554 0
2000 -625 0
659 2356 0
-2594 854 0
-2942 2215 0
-2174 -1959 0
-1112 1795 0
-306 1539 0
-2353 2612 0
3350 -2440 0
1223 1514 0
-1067 579 0
-2249 -1706 0
-3096 -644 0
2668 3207 0
139 722 0
1780 1665 0
-2262 -1423 0
-439 -2948 0
1767 -3103 0
-438 -1709 0
262 3227 0
-2823 -2047 0
2027 -701 0
3423 1025 0
1297 -334 0
1054 -2328 0
2798 -2629 0
3483 50 0
-85 -608 0
1113 -423 0
-951 3173 0
-493 2486 0
-1665 -2406 0
2523 928 0
-1453 3179 0
-265 152 0
2366 792 0
355 633 0
-696 1447 0
3176 1234 0
-113 -1208 0
588 2443 0
-2428 -1178 0
-2787 2667 0
-3411 -621 0
3020 1280 0
-2422 1856 0
797 -2208 0
2061 1455 0
1126 -1691 0
-838 3242 0
408 2985 0
-1006 1117 0
-165 376 0
2284 -916 0
-1554 3077 0
-260 574 0
-1658 -971 0
-466 2814 0
284 1570 0
-2701 -3061 0
-3393 2362 0
314 1261 0
1036 -2876 0
2541 -2423 0
-1771 2681 0
-2307 135 0
-1900 -2988 0
-457 2331 0
-2671 -3427 0
2965 2009 0
-1192 3313 0
-960 -901 0
-3232 -2552 0
1404 -703 0
290 2971 0
2446 735 0
-3417 -1346 0
-934 205 0
-1873 -501 0
-3500 326 0
-1909 1674 0
-2377 -516 0
2631 306 0
2627 -585 0
2473 603 0
194 2808 0
-452 1032 0
-85 -2598 0
-1399 1487 0
3519 -3297 0
-1927 609 0
-599 -375 0
-1191 -3297 0
374 2596 0
-185 -2115 0
3468 2032 0
1086 -3399 0
983 926 0
-2237 -2045 0
2170 -2906 0
-3365 -2688 0
2220 2723 0
-2819 -3418 0
1152 -3001 0
-1944 -2997 0
-317 -1425 0
778 -3404 0
-765 2708 0
83 1553 0
1364 2418 0
-1450 3290 0
-1238 1512 0
-2664 1865 0
1693 -2725 0
-2748 27 0
3249 137 0
-1643 1989 0
2778 2417 0
3168 903 0
2113 1709 0
-3374 -1753 0
-1254 3014 0
-1633 -74 0
1207 -3330 0
-1302 2028 0
-516 -735 0
-3183 2411 0
3490 -1655 0
-1242 245 0
-288 -2330 0
-3504 1849 0
1847 242 0
-2350 -1869 0
49 -2772 0
3404 1141 0
-3318 1347 0
-298 484 0
818 -2882 0
-3133 2390 0
3182 3518 0
862 -1953 0
3323 -1644 0
660 -930 0
-1927 437 0
1036 1713 0
1367 2482 0
-3168 1531 0
-1294 -405 0
2744 851 0
1429 -3213 0
1563 -2883 0
1462 929 0
-690 825 0
3037 2012 0
3112 2754 0
-2735 -617 0
952 -467 0
-1267 1142 0
2564 792 0
903 -1880 0
-2509 2849 0
471 -3136 0
467 2579 0
-1598 -2195 0
2536 -3141 0
-801 -1121 0
820 -890 0
49 -1376 0
1615 2429 0
-2001 -409 0
-3405 -2765 0
-340 232 0
2264 336 0
-643 1003 0
-34 213 0
2176 -3000 0
3194 1322 0
2806 -1440 0
-2878 -2022 0
259 -2029 0
-2345 2540 0
-1692 -1523 0
2489 2671 0
-975 3395 0
-1993 595 0
-1918 3352 0
-3074 1224 0
-683 -1789 0
1233 -1087 0
-3002 3431 0
-323 -533 0
729 1245 0
-1406 -2261 0
1934 2436 0
2990 417 0
1656 2713 0
-662 404 0
-2804 3269 0
1637 -486 0
388 -2642 0
1809 -2644 0
1262 -693 0
-2674 -1079 0
-2454 2001 0
1796 -212 0
-2658 -2978 0
1166 1271 0
-1389 -3477 0
-2922 3153 0
-3333 3358 0
-2779 -100 0
914 -1046 0
-961 -2902 0
2835 -370 0
3159 125 0
-2279 292 0
-1651 -2245 0
-332 2263 0
-158 -1411 0
-3108 -1532 0
-801 -2909 0
2415 -2856 0
-329 -3259 0
-734 -325 0
3075 -483 0
390 -2035 0
2823 -564 0
2398 -919 0
-320 -2278 0
304 -423 0
-1510 -1310 0
680 3472 0
-106 -819 0
-1766 -3463 0
1262 -545 0
-2094 -828 0
832 -1798 0
2404 1028 0
-2568 2603 0
-717 3130 0
-2172 -2726 0
1103 1398 0
1239 2718 0
-910 1715 0
754 -2049 0
-1160 2713 0
-2487 -3136 0
-555 -3480 0
2126 -53 0
1050 -1341 0
-2127 -2781 0
3094 -3259 0
764 266 0
3221 3261 0
-2796 -2369 0
1348 1011 0
2943 -75 0
-3266 637 0
-69 782 0
3247 -2001 0
-974 1271 0
3190 -276 0
-77 -1781 0
-2266 -1238 0
-3020 2515 0
-756 -1330 0
3424 -492 0
-663 -1476 0
90 1653 0
-440 1998 0
1578 463 0
608 3126 0
454 -3334 0
-2572 -2284 0
376 -1291 0
-1954 -204 0
-141 -3057 0
115 188 0
-273 982 0
1058 -3326 0
-2932 2945 0
-2521 -218 0
3171 3431 0
-2182 -3445 0
-1616 1536 0
2445 1103 0
-3499 -1108 0
-2221 1785 0
-129 -1628 0
3503 50 0
-867 -279 0
-2337 -1285 0
-67 1572 0
3252 -1215 0
2885 2655 0
-1339 2194 0
-2874 -1028 0
1910 254 0
-1212 1786 0
1451 -1821 0
-1474 -999 0
1636 -583 0
1340 747 0
-685 -1304 0
-3070 189 0
851 3117 0
-393 -713 0
3431 477 0
2899 1972 0
895 -2602 0
-654 2427 0
-647 2594 0
-3076 -1729 0
1562 -2293 0
-1706 1454 0
-2521 2138 0
-142 741 0
148 2448 0
-939 1098 0
-2781 -2293 0
-324 -1595 0
-3181 3493 0
-1682 -3371 0
-1954 1992 0
-3203 2030 0
-1416 522 0
967 1759 0
-3100 888 0
2502 3243 0
-734 -1509 0
3355 -1632 0
-820 2867 0
-2478 -643 0
1277 -3433 0
7 -656 0
2296 2222 0
3075 -1065 0
-805 -1079 0
1387 1623 0
-180 -682 0
-389 -3145 0
1772 1105 0
2813 -3174 0
2207 -2176 0
-2846 585 0
-3439 240 0
193 1759 0
-1277 476 0
1526 2067 0
-2057 2850 0
1660 2233 0
1129 -2709 0
1667 3220 0
744 3148 0
2085 -197 0
-652 1239 0
577 -3216 0
-1815 -2431 0
570 -3523 0
1816 -970 0
2211 -613 0
1962 -366 0
2665 487 0
-1212 -2287 0
-34 1571 0
81 694 0
390 -2262 0
3138 -2683 0
2337 -1615 0
779 355 0
1007 1154 0
-2204 2650 0
-1532 -1477 0
2893 -690 0
3288 -1732 0
-3291 2509 0
2862 -922 0
669 -1682 0
-2246 549 0
-990 2506 0
-2833 2692 0
2689 -1264 0
-2135 1806 0
2137 -2250 0
2050 405 0
-808 2501 0
1268 -2597 0
91 -2450 0
-412 -2606 0
-2835 1055 0
2578 -1625 0
2990 196 0
3128 1390 0
407 3214 0
3454 2581 0
-1747 3367 0
3290 631 0
1028 3282 0
-2898 -1639 0
-2675 2540 0
352 -3043 0
2628 1349 0
1304 -1470 0
210 3477 0
1066 -524 0
-1737 -825 0
1141 1910 0
1673 -1663 0
-205 1315 0
-408 -631 0
-1403 2107 0
-3144 1918 0
-947 3351 0
-1380 2617 0
-2728 3086 0
-3082 -1014 0
-2887 1917 0
2925 -1100 0
-558 608 0
256 -2444 0
-3504 -829 0
1639 3455 0
1013 3217 0
-23 2140 0
-2927 -2732 0
2891 2146 0
879 1775 0
-1819 -697 0
-3010 -1994 0
418 -2794 0
-2780 -42 0
-1812 1296 0
-3475 46 0
297 -604 0
737 1124 0
1555 -657 0
-2636 -2460 0
3214 696 0
-2928 3086 0
1772 -3053 0
-1904 -2468 0
-3368 1269 0
3006 923 0
-2530 -522 0
1800 385 0
2272 2294 0
110 -2782 0
-165 3172 0
727 -2354 0
-2416 -2879 0
-1540 -1638 0
1088 1378 0
-1372 -1249 0
-2210 -13 0
1426 -825 0
-1687 -310 0
1023 -120 0
-1719 1219 0
3273 2536 0
-2712 -1985 0
316 -3398 0
3264 -2995 0
-2280 -3439 0
-834 1728 0
-375 -1521 0
-2304 -2383 0
-2642 -2807 0
-1765 -213 0
1933 2353 0
452 -377 0
-168 -3095 0
3323 1128 0
952 3252 0
2375 2459 0
-588 386 0
816 36 0
3035 3355 0
149 1947 0
-3103 1993 0
2740 -2413 0
-1548 -478 0
-551 -2525 0
2750 334 0
-3323 826 0
-2487 -1248 0
491 1429 0
761 -1822 0
-1483 2320 0
-1737 -2568 0
-2276 -916 0
-289 2284 0
-3101 2820 0
1435 -1197 0
-1999 -2827 0
2010 2159 0
304 -3271 0
3037 -2829 0
-3276 2806 0
3155 -109 0
715 -1616 0
-3151 1734 0
530 -1158 0
-2753 2017 0
2616 -1607 0
2853 -2168 0
2324 -1682 0
2984 2792 0
212 2869 0
-2705 -932 0
3283 2908 0
2807 1961 0
-991 -3409 0
1742 1609 0
1968 209 0
1293 -3225 0
-788 2797 0
449 -1444 0
3403 -357 0
-207 231 0
-3031 3048 0
-2609 -690 0
-2392 -731 0
-2560 1149 0
-1811 2036 0
2354 -1228 0
2257 -1157 0
547 -66 0
2043 -1805 0
-1965 -160 0
-825 3316 0
2979 -1307 0
-1212 -1995 0
-2545 2123 0
846 1533 0
-3126 2253 0
734 -288 0
-1026 -3445 0
-14 718 0
1122 2906 0
1824 2508 0
2436 -1567 0
-1684 63 0
3275 2108 0
-904 -1832 0
478 -90 0
2744 -1964 0
1281 181 0
-1706 1011 0
-1437 3035 0
2813 -517 0
-1028 -1396 0
-413 -1592 0
2999 -274 0
-2850 2376 0
3127 397 0
-1733 2001 0
-2344 -218 0
-842 -2642 0
-1528 3025 0
-2401 3333 0
2473 -1444 0
-1564 -2737 0
-2104 1548 0
-1779 -2595 0
2212 1601 0
-1809 152 0
100 -2872 0
-552 3266 0
2816 -2359 0
3423 61 0
746 1449 0
-24 2806 0
-1107 -2046 0
233 -3185 0
1739 -768 0
-2592 2678 0
-3360 1128 0
3072 -177 0
-1371 -1587 0
-2056 -1279 0
-867 316 0
-902 -1689 0
-906 2375 0
969 -2102 0
1528 -1105 0
924 2473 0
-1705 1505 0
2113 3507 0
3187 -402 0
-558 527 0
-879 2830 0
-1778 -1306 0
-2792 -3339 0
-500 2485 0
-819 -117 0
902 2379 0
-28 1299 0
660 -2893 0
1390 -3414 0
385 -223 0
-1759 -1561 0
-2208 2360 0
-2516 -2307 0
1701 1748 0
-3050 1990 0
3297 1174 0
2189 2575 0
652 -3074 0
553 -1286 0
-338 -916 0
-1946 -1431 0
-1677 2742 0
2415 1627 0
2650 1812 0
2661 -3230 0
-2477 -1339 0
2770 1537 0
-51 -2796 0
-1148 -2794 0
-3182 -2915 0
1464 -60 0
-1357 3153 0
2075 -1839 0
1065 3248 0
1981 2815 0
2459 123 0
-1688 1075 0
-3125 -2382 0
-1663 2715 0
2873 246 0
1201 -1317 0
2248 -1603 0
2524 -487 0
2220 -295 0
3083 -1399 0
1983 -251 0
-1273 -901 0
709 1585 0
2312 2736 0
956 -526 0
-3430 -434 0
3384 -1912 0
1016 -92 0
42 -1556 0
266 1323 0
1574 -1367 0
-298 -1539 0
-1837 -343 0
1050 761 0
2320 2671 0
-2109 -2950 0
1343 -1282 0
2243 -998 0
3360 2808 0
-556 -403 0
-389 371 0
-2939 1533 0
418 1896 0
-202 -2408 0
-1420 -2212 0
-1408 -156 0
1237 -975 0
949 -2073 0
-3292 1481 0
1412 -43 0
-1350 -3424 0
2427 1896 0
-1690 -1848 0
1380 97 0
-486 326 0
1961 3261 0
-2936 2277 0
-1005 -763 0
-1635 -1362 0
-2209 1868 0
1184 -3251 0
1775 982 0
-3192 439 0
-2084 1299 0
2591 -309 0
-703 -769 0
-607 -3033 0
-291 2107 0
1568 1495 0
-140 2308 0
2049 3008 0
2440 -1805 0
-843 1340 0
1816 766 0
2670 1464 0
-3384 -2888 0
-2644 -1887 0
-525 71 0
799 1976 0
-1425 2700 0
1900 -2345 0
-2976 694 0
2513 951 0
-1335 -3123 0
3090 108 0
2187 1854 0
1152 1301 0
-2304 -990 0
101 -394 0
242 -1455 0
-149 3164 0
-1882 812 0
249 2069 0
-616 -1943 0
-2661 -2669 0
637 -805 0
-1710 -1434 0
-459 -2629 0
2717 -1298 0
-1232 3469 0
903 254 0
2366 2907 0
3047 3156 0
982 3066 0
1955 2640 0
-815 -525 0
-2057 1412 0
1721 -297 0
-1447 2989 0
-1528 2742 0
-311 -3350 0
2762 -3391 0
-35 2103 0
-460 -1796 0
-2498 -1912 0
-170 132 0
1980 2908 0
2176 -3006 0
-335 11 0
1043 1464 0
3371 810 0
2932 1807 0
860 2320 0
1013 -1779 0
-1599 -1052 0
-2912 -2484 0
1810 2348 0
-2408 3065 0
-810 -2793 0
-1467 -3155 0
2172 2949 0
-605 2326 0
1335 1686 0
2576 -1773 0
521 1927 0
1331 1755 0
-2381 2714 0
2228 1718 0
30 -789 0
2460 2189 0
1173 465 0
-328 -918 0
-1729 2091 0
-3165 3498 0
-2613 -48 0
-3154 -1019 0
367 -3354 0
-1548 -548 0
2072 -451 0
1832 2394 0
1343 -2311 0
1739 241 0
-3040 1786 0
3522 1650 0
-1907 -1741 0
2942 1748 0
-15 -2587 0
-2086 2809 0
750 477 0
1681 -2701 0
-604 -2000 0
-2293 961 0
3413 184 0
-2354 -1421 0
1464 237 0
1320 2446 0
314 1407 0
2037 28 0
2803 832 0
-1236 1596 0
-3311 2863 0
107 -2378 0
1133 3016 0
1341 -1635 0
-2538 56 0
-3499 2425 0
-1272 1404 0
-3120 1141 0
2091 -1715 0
2738 2894 0
-688 2168 0
2167 2997 0
-2991 2872 0
1799 2276 0
3340 -529 0
2528 -3116 0
-3189 1017 0
-154 -1882 0
-2389 -3099 0
-2317 2659 0
522 2005 0
-2753 -2808 0
2 -2509 0
-1192 -126 0
3048 3023 0
-75 1157 0
-2755 1351 0
3169 -2519 0
2099 1387 0
-27 501 0
-1900 2341 0
566 -258 0
2935 732 0
-165 -690 0
-1707 -556 0
-755 -1964 0
-539 -607 0
-1371 -3245 0
841 1505 0
-1118 1765 0
-1267 1889 0
-3323 892 0
3302 -2513 0
-2450 -16 0
-1882 3175 0
737 2806 0
-2122 2916 0
3179 2491 0
-2985 480 0
626 395 0
2333 1285 0
2036 3406 0
-1184 -1334 0
1642 -2944 0
195 -1493 0
2604 -3391 0
1847 906 0
-38 3371 0
854 950 0
3357 1994 0
3092 -2890 0
-1984 -3202 0
-1412 2433 0
3334 -1401 0
159 -2100 0
318 277 0
-405 1610 0
-2053 -1095 0
2763 721 0
-434 2588 0
-514 -1949 0
1966 -3395 0
-622 -390 0
-1568 -1843 0
3434 2961 0
-350 3421 0
-484 -55 0
453 2415 0
-3449 2676 0
2404 465 0
1591 517 0
-1835 -533 0
2716 2206 0
3177 3191 0
186 -551 0
431 -1647 0
-1303 826 0
2574 -1408 0
2793 2175 0
-1575 1227 0
-3096 -2920 0
-2109 197 0
-266 -3310 0
167 -2183 0
-360 414 0
315 -2920 0
-1788 -1109 0
-2877 1975 0
267 -417 0
794 1772 0
-2619 2626 0
-1686 -1198 0
1424 2341 0
1280 -3407 0
-959 -281 0
-1964 -2700 0
915 -3140 0
-1351 2418 0
-3211 -1271 0
-1662 -536 0
289 2916 0
-2325 1088 0
2510 788 0
-1168 2213 0
2402 -962 0
285 2573 0
3483 -1748 0
2733 -1478 0
-2450 3357 0
-861 -1454 0
-1893 2778 0
2031 3166 0
1665 2917 0
-2469 2652 0
-502 -3374 0
2204 2020 0
-2988 -1243 0
-2165 3271 0
-3298 -2432 0
-1381 -103 0
2776 3425 0
89 -2060 0
-3358 -1098 0
-2894 -3170 0
-2174 -110 0
-829 -3504 0
-3383 2710 0
3037 138 0
2470 -3414 0
-1844 1971 0
2891 -2981 0
-3373 -2725 0
-1531 2695 0
1673 -368 0
-20 -2676 0
-653 -1874 0
-2657 -2466 0
-2901 -2866 0
-384 1369 0
1858 3343 0
3518 -389 0
275 1385 0
677 3303 0
-3131 -2205 0
-2202 -262 0
386 -839 0
2186 -2747 0
653 1333 0
-690 -1731 0
2639 -2509 0
-678 -2521 0
-2685 1619 0
-3342 2942 0
-2950 1512 0
2697 1714 0
1447 3386 0
49 2488 0
-839 2125 0
-1909 -389 0
1738 1311 0
-2239 640 0
-428 -288 0
-3266 2389 0
2263 1224 0
723 3175 0
2768 -3341 0
-2154 3039 0
-3508 -449 0
1164 -425 0
2853 -3260 0
1056 -589 0
-1994 2369 0
-860 3204 0
-1615 3404 0
-1344 516 0
-3261 -1009 0
-290 2216 0
-3392 939 0
-2003 -2575 0
-469 2496 0
-928 2308 0
-2539 1640 0
764 919 0
3138 -1440 0
-2906 3294 0
-1850 628 0
1323 1879 0
-1480 2219 0
-1841 2413 0
-3465 -705 0
-3315 -651 0
3162 3178 0
-3267 -2637 0
-1614 1257 0
-383 -700 0
1368 2927 0
-2704 -384 0
-2699 3258 0
630 1023 0
-483 3311 0
2359 713 0
-376 332 0
2859 -21 0
2776 2864 0
2742 -2597 0
2062 1655 0
1765 -86 0
3325 -2927 0
-2788 -2951 0
-3431 2900 0
507 1962 0
-5 3460 0
595 2665 0
-3077 -370 0
-1620 99 0
42 849 0
-2600 3105 0
-2928 2364 0
-2029 -1700 0
1295 -2643 0
-2642 173 0
-3465 2512 0
-382 804 0
617 2441 0
-3351 3234 0
-724 -1402 0
-789 2691 0
-3208 -3052 0
-3150 384 0
-664 -675 0
1568 168 0
2921 -369 0
-3475 -1376 0
-1789 2376 0
719 -3527 0
-3094 -3176 0
1210 899 0
-3387 -950 0
1845 571 0
-2427 -504 0
1235 -176 0
-883 1929 0
3429 -724 0
-2743 -3331 0
-2721 2665 0
2394 1265 0
3429 1866 0
950 -166 0
-1260 771 0
3430 1869 0
-1753 -2601 0
2290 -2712 0
-2068 739 0
-1225 -2902 0
2048 -1553 0
1717 2626 0
2621 -1004 0
1772 2945 0
-2196 -3033 0
2138 991 0
-1246 1304 0
1401 1397 0
786 -912 0
1745 -633 0
-2982 2691 0
745 2117 0
-3040 2625 0
2050 873 0
3258 -61 0
1728 -1353 0
-1687 -3437 0
-1667 2138 0
1359 -1170 0
3071 -1275 0
1957 -2598 0
-135 -2215 0
485 1094 0
1081 2029 0
3381 -2698 0
3463 -1941 0
711 -1608 0
477 2438 0
3379 -2592 0
2993 -2587 0
-3239 -104 0
-1305 512 0
2649 -1620 0
2861 -2673 0
715 3458 0
-3180 3190 0
2113 3421 0
1218 -3258 0
-2609 -2065 0
-203 1131 0
-3344 1791 0
-3031 -3480 0
3286 -1836 0
2475 -2270 0
2832 -1810 0
2236 -2876 0
-3253 2964 0
-1513 890 0
-1072 -2829 0
-468 -2606 0
-3148 -2509 0
1320 -299 0
-3011 3078 0
1618 -1685 0
151 2334 0
538 -299 0
1013 6 0
-3346 1176 0
1838 -3090 0
-1743 21 0
-93 -1762 0
1018 1914 0
1620 819 0
-3138 -1991 0
1955 1896 0
1209 993 0
891 275 0
-1917 2699 0
-684 2650 0
2789 -509 0
-1356 1245 0
-2205 -2484 0
1084 3485 0
1208 -3393 0
-3278 2112 0
-2973 2881 0
-2643 1018 0
-3504 -68 0
2214 3335 0
2992 1570 0
-2132 -2936 0
-3430 1748 0
-2929 2612 0
786 1416 0
-1698 -3480 0
1585 -2559 0
1319 1034 0
-2455 3099 0
-1832 -1883 0
-1720 -3500 0
-2905 -2821 0
-855 3322 0
-2737 1865 0
-2240 -2966 0
642 2501 0
-39 -400 0
159 -2909 0
2688 -2921 0
-3485 1024 0
-425 -2727 0
-1316 -2333 0
2397 -1483 0
402 -1317 0
-2788 2599 0
-529 -2406 0
-2572 1147 0
-1680 871 0
-2102 2155 0
108 492 0
259 2591 0
-839 1752 0
-1682 1937 0
3170 971 0
252 -1003 0
-1725 -1118 0
-3380 -1294 0
2811 -3205 0
-2288 3159 0
1303 -475 0
-1609 -765 0
-2345 -814 0
-523 -1151 0
2966 3522 0
-1700 864 0
740 -2146 0
1073 3049 0
-1291 1305 0
3313 2346 0
-901 8 0
-3017 -1288 0
-2829 1940 0
1318 1756 0
33 -2697 0
-2202 2081 0
-962 -1246 0
2375 3370 0
-2266 572 0
653 -2719 0
-1361 -3522 0
-3474 2323 0
-2748 -74 0
2662 2088 0
2836 1269 0
-54 -466 0
17 -2929 0
2546 -2888 0
-409 1008 0
-2447 186 0
-399 1270 0
1013 447 0
-3069 -2179 0
1935 3293 0
3207 1635 0
2838 210 0
2885 -2488 0
-2371 -3380 0
-824 3400 0
-534 -425 0
310 567 0
3369 380 0
786 -879 0
3214 304 0
77 1397 0
-3166 1748 0
1086 1373 0
-1440 -2822 0
-125 -2809 0
-1680 -423 0
2990 -2901 0
2960 1606 0
-2056 -1530 0
-3427 2853 0
-3369 3237 0
1370 3196 0
-1635 -2788 0
699 3123 0
-2046 1912 0
64 -2921 0
3406 -1797 0
3117 -3028 0
521 -877 0
326 2228 0
1518 -2365 0
37 2071 0
-240 1036 0
2926 3437 0
1227 2797 0
202 1883 0
2136 1004 0
3489 3405 0
-2087 2860 0
1800 -364 0
334 1496 0
-2513 143 0
2805 2929 0
712 -516 0
-1941 776 0
-2560 -1153 0
-2568 1261 0
458 2505 0
-2323 -2420 0
-640 2914 0
-3414 -2248 0
3070 1970 0
-1869 2708 0
512 -3167 0
-1037 -3035 0
493 -369 0
-881 -1306 0
-496 2139 0
-1050 -2137 0
-1997 1927 0
42 -1407 0
-801 186 0
-597 1859 0
-1735 -619 0
3313 -1011 0
-879 -775 0
-1357 -1157 0
76 -1905 0
181 1182 0
-623 2430 0
-2453 -530 0
-1917 -2111 0
-2184 1344 0
2398 -1879 0
1369 -2324 0
812 -2808 0
1061 -1714 0
577 2672 0
2371 3530 0
-638 771 0
-1902 -3378 0
747 3179 0
3185 1503 0
1856 -1346 0
593 -1314 0
949 -1469 0
940 2990 0
696 2080 0
1749 -2227 0
1168 2971 0
16 -225 0
-452 2308 0
1677 -798 0
2385 1511 0
-2817 405 0
2024 1596 0
-1906 -1997 0
3496 -368 0
2590 2272 0
378 -2541 0
-400 995 0
2058 -1228 0
-2417 895 0
-955 -2177 0
-2783 -3205 0
-1506 -1292 0
2862 -141 0
2995 -3427 0
1360 -2463 0
-3466 -2830 0
-2846 666 0
2773 -2274 0
-1915 3157 0
-168 -889 0
2518 749 0
915 2030 0
-2908 1782 0
3179 1304 0
1435 704 0
-1989 -2619 0
542 -526 0
-2809 159 0
-2198 -1647 0
-1049 2346 0
-2884 -2120 0
-3115 -3402 0
-2118 -700 0
2859 2093 0
-1397 754 0
-1607 1892 0
-1906 -1352 0
-3254 -3208 0
1060 2733 0
2238 -2886 0
-2252 1224 0
1299 2042 0
-621 -2275 0
-2008 -1109 0
-1417 -646 0
2419 1734 0
-2297 -847 0
-636 164 0
-1420 3276 0
3128 -99 0
-3394 3362 0
-259 -912 0
2728 -2291 0
-334 471 0
-2538 -2334 0
487 3394 0
-884 2819 0
-1371 2196 0
-2646 903 0
-1029 1759 0
1592 -1647 0
-264 -1414 0
1773 27 0
-2185 -3485 0
-108 3282 0
2819 -2457 0
-2743 159 0
-3387 2891 0
-981 -2516 0
3309 -628 0
3493 -2478 0
51 378 0
-1115 3383 0
483 778 0
-1470 2221 0
988 -124 0
-2988 653 0
2005 2230 0
3099 -3334 0
2807 671 0
1491 -3199 0
-3509 820 0
167 -2370 0
2176 -3525 0
60 969 0
-2382 -1763 0
1980 2077 0
3078 1553 0
-488 -2973 0
1886 -433 0
-331 -2910 0
-3390 -2074 0
891 -2519 0
2249 -2269 0
1960 -1555 0
-3058 -2276 0
1483 -1492 0
2394 682 0
2301 2485 0
-2280 3096 0
-2394 -3523 0
-2748 2603 0
-2261 -2758 0
1224 1903 0
1015 1257 0
1351 -778 0
2821 766 0
-2428 3352 0
3457 -22 0
-2448 -3383 0
51 -185 0
-2157 1853 0
1490 -2236 0
2297 -2152 0
1511 -912 0
203 -1192 0
3102 -2401 0
-1418 -446 0
421 -2576 0
-1169 2251 0
-2531 1021 0
2765 2320 0
-325 -2303 0
-3428 779 0
-1187 -2020 0
-1313 -2889 0
3093 258 0
2600 2847 0
971 391 0
-3301 3282 0
1373 1388 0
-2387 1385 0
1543 -3164 0
227 -877 0
-1006 -2876 0
-704 -1915 0
278 1743 0
-1534 1694 0
3380 -2648 0
1453 -1652 0
23 2849 0
-3003 3240 0
715 -85 0
-2658 -197 0
-3076 -888 0
2933 -2793 0
1974 -3353 0
-2808 -1392 0
-77 12 0
2791 1680 0
2415 1986 0
3362 2677 0
-2511 -1773 0
1363 411 0
390 -774 0
-1203 -393 0
2902 -3074 0
1698 -1677 0
3181 3466 0
1014 1280 0
2527 -2478 0
2565 2403 0
693 187 0
1733 -2383 0
-1186 -2874 0
-61 1603 0
-1886 -2266 0
-3376 1697 0
-3131 1234 0
-3218 -1374 0
2851 -511 0
2515 -1804 0
-120 -261 0
-1837 2686 0
-1852 -1474 0
1739 -2165 0
-2720 2275 0
-810 -1662 0
2593 2650 0
479 -2766 0
278 -1489 0
2253 -1654 0
502 -2669 0
1365 -1353 0
-3226 -836 0
-479 -1162 0
-3194 -1064 0
1615 -3485 0
-777 -3223 0
829 2734 0
-422 -898 0
-3168 655 0
-2374 -2321 0
-3528 1142 0
-2150 2632 0
923 -2541 0
-935 745 0
-2352 -3261 0
963 272 0
2661 3209 0
-1836 407 0
-209 -393 0
837 -1747 0
2489 132 0
2853 -1243 0
1229 -1653 0
-44 -3368 0
627 -2003 0
2502 -2887 0
-3052 -1025 0
2232 1810 0
-1735 -2850 0
2210 570 0
-2193 3501 0
-136 -3060 0
1053 -1466 0
918 -229 0
-2200 719 0
3308 1336 0
-809 -2859 0
-817 982 0
2282 -753 0
-3183 -328 0
2633 3290 0
-162 915 0
3142 -2946 0
918 -2919 0
385 -2573 0
-1167 -2421 0
-3119 947 0
2541 1270 0
1763 -2315 0
-1798 -291 0
-1720 -2476 0
-2062 -2724 0
2766 -946 0
-3008 -810 0
799 -2736 0
188 -507 0
-1376 832 0
1914 2789 0
227 1484 0
-1907 1270 0
-840 2562 0
-116 -315 0
-2769 -599 0
-676 2958 0
-1506 2969 0
-2041 2576 0
3127 1709 0
2900 -754 0
-2683 -3292 0
1021 -2133 0
-1142 2585 0
-882 561 0
-2313 1760 0
3386 -2607 0
3447 1592 0
-1620 -3318 0
2696 -2016 0
826 -437 0
-3325 2284 0
-170 2429 0
649 -3204 0
-1921 -2211 0
2093 -1569 0
2160 1063 0
-1120 -2664 0
945 2506 0
-3168 -415 0
3413 -2528 0
-188 -960 0
-370 2643 0
-3195 1847 0
2911 1350 0
2187 3343 0
-1411 2931 0
-2208 2292 0
-2943 -2500 0
-83 -2293 0
835 -2653 0
196 411 0
-2890 -2765 0
2763 -2242 0
-3407 -1435 0
-3128 -1803 0
605 -765 0
-1999 250 0
-343 -2168 0
-2954 -3192 0
1949 -1243 0
3054 -2139 0
1643 28 0
39 150 0
-912 1188 0
1879 3410 0
-83 -3078 0
-2308 -1720 0
-601 -2154 0
-2466 -1774 0
297 1580 0
2638 -3192 0
3456 1395 0
-2395 -1382 0
-2118 -1558 0
559 1044 0
-647 1256 0
-2062 449 0
2334 -3182 0
-3389 1817 0
1754 -412 0
-1671 3153 0
-2158 848 0
1191 2221 0
-1419 1974 0
-420 -2302 0
1108 1471 0
-1757 1807 0
2486 2713 0
-2110 -2915 0
3360 -2615 0
2118 -2833 0
2996 -678 0
-2439 -613 0
2721 626 0
-379 2305 0
3222 -121 0
827 -1678 0
-2840 1378 0
-1145 -2008 0
617 63 0
272 2242 0
-1710 2191 0
-1321 1770 0
288 -683 0
-1951 738 0
2206 2497 0
-2244 -3226 0
2111 -341 0
-2656 -2418 0
3117 3243 0
-1400 -3074 0
-1305 2888 0
2645 2142 0
260 2024 0
2786 -3465 0
986 -1145 0
-553 -1894 0
3502 2650 0
2417 2475 0
405 1031 0
1271 -1756 0
-2260 -737 0
1477 1405 0
1345 1563 0
-358 967 0
1073 -121 0
-365 -2371 0
1412 1840 0
1725 -1 0
-1086 2754 0
3375 -782 0
-162 5 0
2217 -1622 0
-2372 -2461 0
-353 760 0
-2595 -2411 0
-296 -2678 0
1511 -1312 0
236 -2641 0
-3131 -3180 0
1656 -3165 0
3070 -1699 0
-1160 1446 0
1923 -1222 0
1855 -2798 0
-322 2165 0
2253 233 0
650 1804 0
-1881 993 0
1511 -3523 0
-2980 2163 0
-3348 1117 0
2001 -1794 0
2323 -2093 0
-3069 -809 0
-531 441 0
-2104 -2694 0
-1495 -1523 0
188 -3058 0
498 1111 0
-2109 -3320 0
-163 -1587 0
-873 2594 0
-2884 1072 0
-3125 -3019 0
-2011 2736 0
2067 2199 0
2410 1709 0
1676 3302 0
976 -402 0
101 -1609 0
-906 625 0
2825 -471 0
-1729 3384 0
-2620 -1076 0
-1442 522 0
2618 50 0
915 -1487 0
-1403 -2096 0
-2879 -2829 0
-3 3277 0
-1715 549 0
-2866 2200 0
506 -615 0
-3363 2611 0
2234 3409 0
483 1270 0
-2057 -691 0
-904 -382 0
-3475 1421 0
-2202 -3250 0
-873 1602 0
1960 -3406 0
2311 -1199 0
2979 -1445 0
-805 -1026 0
-2683 741 0
-576 -271 0
157 -3465 0
3288 35 0
3490 -3170 0
740 -857 0
-2339 3446 0
3018 -2834 0
2357 -2240 0
585 923 0
701 3016 0
-920 -397 0
331 906 0
-2155 -2749 0
1637 -1881 0
305 -479 0
978 2899 0
-1472 -2729 0
-2538 -2619 0
1108 -801 0
2622 1044 0
-2211 2791 0
2907 -725 0
3126 -895 0
-580 2908 0
2290 -3290 0
649 2355 0
712 2507 0
2033 2191 0
2165 -2848 0
2251 -756 0
1906 3194 0
-3060 1448 0
-782 -1411 0
2891 -862 0
-2931 -2676 0
1499 -434 0
-2897 -2833 0
-53 633 0
1100 272 0
1551 -547 0
-516 126 0
-3472 618 0
-2886 -1289 0
1269 -777 0
-1400 -1136 0
-87 -1747 0
325 -1686 0
-3231 816 0
-2099 -137 0
2838 813 0
-276 3515 0
2276 -1685 0
3182 -2935 0
-1750 1234 0
-2638 -1010 0
3250 871 0
-2687 -2637 0
326 -1286 0
-3167 -3256 0
-3130 -2025 0
2567 2654 0
-646 2986 0
-1026 872 0
-1398 -2123 0
-1436 -73 0
-3117 2797 0
-1764 -2647 0
-850 880 0
222 2660 0
2842 -1139 0
-1456 941 0
398 -1102 0
-2028 1454 0
-562 2579 0
-506 -855 0
3038 832 0
-2453 -1548 0
1497 -489 0
2796 -782 0
-3096 -1730 0
-2552 -3442 0
-187 -3133 0
2456 2091 0
-1924 1976 0
11 -2597 0
-1815 -2887 0
-1890 2661 0
526 2366 0
-135 -1441 0
-2009 -2980 0
1148 3330 0
-3135 -2717 0
-1921 -602 0
-371 2650 0
3290 702 0
2441 1725 0
-3119 -2420 0
1241 2118 0
-3131 -2259 0
-2343 1487 0
2917 2326 0
-2047 1674 0
2756 -1410 0
989 -706 0
-2558 1110 0
-2139 -2484 0
2497 -721 0
1168 -1249 0
-207 -2860 0
2505 2757 0
-1045 2590 0
-2154 2612 0
1585 -2864 0
328 918 0
244 -3252 0
-3041 -632 0
-73 -63 0
2404 -2401 0
-1070 1007 0
-483 -1033 0
1627 168 0
1844 -1178 0
897 2616 0
-1625 3407 0
1265 -2014 0
408 2079 0
-1019 -2122 0
610 1751 0
-881 -948 0
859 -1856 0
2475 3267 0
-1146 945 0
-1673 2119 0
419 860 0
-418 -619 0
500 -3096 0
3214 3364 0
226 3430 0
-2297 635 0
-2033 -2793 0
-747 -3374 0
1531 -2344 0
-1053 -1666 0
2621 -1615 0
-1575 -1225 0
-2936 -673 0
-2973 -2001 0
3409 -178 0
-2203 -1504 0
-1135 1906 0
-2104 387 0
449 -1977 0
-379 -3344 0
-2679 -564 0
2178 -1145 0
2900 159 0
-1339 -1343 0
1844 1674 0
-138 1571 0
-1275 -302 0
-3030 1176 0
-1480 -2927 0
2808 -1548 0
190 -2680 0
-360 373 0
-1494 843 0
-2546 -1725 0
-1006 2985 0
-381 -1284 0
554 -3435 0
401 -2411 0
-2893 3311 0
-2039 3262 0
-2463 806 0
-1639 1115 0
-409 428 0
-1257 -890 0
1430 1930 0
866 1263 0
2037 -2747 0
3485 -2509 0
-1639 -3128 0
227 1938 0
378 3004 0
-3021 2766 0
1114 -3433 0
2376 -3022 0
1970 -2639 0
-411 -604 0
-2713 -2094 0
-3118 -2552 0
-3142 -1897 0
2171 -1661 0
442 2670 0
1628 -2302 0
-1506 -1845 0
-363 -1774 0
2593 -545 0
3529 -2092 0
897 2598 0
-1360 -3344 0
-1889 1703 0
-2779 1774 0
-1052 2589 0
-209 -1391 0
3452 397 0
-393 -1218 0
2135 2379 0
-1491 -2557 0
1261 -2521 0
1379 -2260 0
-380 -2437 0
-3401 -912 0
-1952 -1964 0
2931 502 0
12 -1152 0
-1480 -937 0
-636 -446 0
2872 -2212 0
1592 835 0
-3315 -2915 0
118 912 0
-3239 762 0
-619 1517 0
2290 240 0
2207 -198 0
-2026 -3313 0
2648 2274 0
-1524 2576 0
395 -2816 0
3114 -1868 0
-3129 -1683 0
-1746 1630 0
-995 892 0
1516 -355 0
-2854 149 0
3054 -715 0
-2383 -521 0
-1284 3530 0
1176 -3081 0
3161 -844 0
-1615 -1727 0
-3151 -879 0
1500 -2334 0
2973 -3405 0
2959 -2477 0
-433 2417 0
1605 -3123 0
-628 -594 0
2079 203 0
365 2564 0
2327 -2876 0
-1544 2616 0
-2936 421 0
2973 2773 0
642 -3441 0
2825 2654 0
-2113 -1085 0
-3433 2513 0
-1350 -1801 0
-663 -2584 0
1859 -2759 0
-515 3502 0
2837 -3106 0
-854 911 0
1648 2271 0
-778 1641 0
812 3191 0
-3408 384 0
-315 2132 0
-2605 -1475 0
-2476 -1605 0
-1448 -1009 0
1563 3451 0
-1361 -643 0
-3321 1788 0
-2949 -2280 0
-523 -971 0
-3258 2108 0
470 30 0
-443 2855 0
-3353 -3031 0
2806 269 0
2147 -2872 0
-2239 -1869 0
-2780 -26 0
-2278 1449 0
1286 2766 0
-495 -3414 0
-1074 -2727 0
954 1558 0
-180 -3334 0
-687 2642 0
2636 2061 0
2436 -175 0
-3059 1719 0
1538 304 0
-2223 -891 0
-2946 -1954 0
1226 266 0
-1904 1572 0
-1445 1579 0
-2802 -2348 0
-1764 1323 0
-357 2984 0
1017 -329 0
-539 -3284 0
1322 2659 0
2786 -3025 0
1611 517 0
3095 3020 0
-2370 -626 0
3262 -368 0
-2645 2316 0
2917 1256 0
190 3056 0
-2589 1433 0
-284 2215 0
2191 -3192 0
3381 -3192 0
2364 -550 0
-2971 -3078 0
682 -530 0
1236 -2865 0
-994 -3096 0
82 3421 0
-322 -2722 0
-2241 2886 0
2618 2138 0
1667 -1279 0
1677 -3048 0
-663 2759 0
-3306 -425 0
-173 -640 0
-2372 -1127 0
-2554 1873 0
883 -1251 0
3433 818 0
-1873 -2779 0
1535 -1135 0
142 85 0
-1599 373 0
3055 -1129 0
3243 -3346 0
-1873 -1088 0
-2130 -2055 0
2927 2873 0
-1491 1294 0
3504 -163 0
2604 -1167 0
1940 -1384 0
3189 658 0
3510 -1484 0
476 1617 0
-3074 -1072 0
1904 -2566 0
1915 1499 0
996 580 0
1980 -10 0
2824 -664 0
-1615 -1551 0
2075 180 0
330 1245 0
-2123 1164 0
-1682 -425 0
329 1488 0
-1902 1857 0
-3042 303 0
2691 -1508 0
277 -2062 0
-3439 -2476 0
-1561 -755 0
-1254 -1475 0
1209 917 0
3290 -497 0
-2990 2594 0
1205 -2162 0
-748 1152 0
-490 -1951 0
-2979 -3418 0
-1897 -999 0
-1480 -2636 0
2183 2600 0
527 3212 0
-382 -601 0
966 49 0
-2087 1847 0
2380 3075 0
-331 -1294 0
2103 95 0
-2879 2198 0
398 94 0
2723 -62 0
-2817 1748 0
1926 -1015 0
-1743 2848 0
-447 548 0
2274 335 0
478 -2617 0
121 931 0
2175 594 0
-405 -312 0
-2987 3097 0
-591 -940 0
-3518 2570 0
-997 -1302 0
939 -178 0
965 -1028 0
-921 821 0
-2484 891 0
-3237 1467 0
917 2848 0
2623 -760 0
355 642 0
2981 -2063 0
-3298 531 0
2163 -984 0
-375 -2267 0
-726 1642 0
3460 -3078 0
1493 -863 0
-113 888 0
3336 -1932 0
-3397 -580 0
-3115 240 0
935 1499 0
-3478 -2500 0
1313 1559 0
3090 2375 0
2021 -2871 0
1429 3173 0
-3049 3312 0
-1100 -2628 0
-3215 -2258 0
-645 -2935 0
1113 -633 0
2 1149 0
1761 -1461 0
1677 -1025 0
-948 -721 0
-1295 417 0
-269 -2701 0
-1577 -1221 0
-308 1902 0
2171 1170 0
-3292 -1535 0
2802 1114 0
2740 -1787 0
477 -2889 0
2687 895 0
816 -3294 0
1549 -1431 0
539 -2373 0
3290 -2241 0
1907 -155 0
351 -2614 0
-2069 -2201 0
1099 -2653 0
-2705 -327 0
-15 1189 0
-3476 8 0
2007 3138 0
3097 80 0
-3452 3088 0
-474 1041 0
179 1210 0
2185 -370 0
2306 2207 0
3354 -353 0
-2558 -2952 0
3015 1143 0
2767 3041 0
398 698 0
-2165 -2936 0
-2827 1665 0
-1543 -2819 0
2301 492 0
-2468 883 0
1013 2350 0
-876 3515 0
-3245 -776 0
-2451 -765 0
-2980 2157 0
-1325 1903 0
597 1142 0
1272 -2722 0
-3171 -604 0
-1465 -1258 0
-1185 3505 0
-2270 1948 0
-3089 -1768 0
21 -3214 0
975 2805 0
-1305 -1187 0
-3073 -869 0
-3134 -1984 0
1308 1835 0
2645 2422 0
1527 -3106 0
658 -494 0
-3408 -587 0
-3512 -834 0
3300 1672 0
-690 -789 0
1395 -1356 0
1295 1685 0
-2004 -3089 0
3362 1537 0
1055 -2220 0
-168 526 0
-1455 -1605 0
-1923 -621 0
2601 277 0
-1001 -2582 0
-235 1481 0
-1856 3380 0
-361 372 0
-2983 -1004 0
-3423 954 0
-339 1195 0
1216 98 0
-2004 -2427 0
468 2979 0
-3523 -2540 0
-700 2347 0
2197 -2801 0
-2549 -1542 0
-1565 -3211 0
-64 -2583 0
-1078 382 0
277 1367 0
19 1051 0
-3449 -2750 0
813 470 0
-2372 -785 0
-3401 1889 0
2220 922 0
-168 -2619 0
-3520 1748 0
-1899 -3389 0
-985 -485 0
-1621 -2236 0
2177 1088 0
3164 -311 0
3135 2234 0
-3153 -1679 0
-983 -2855 0
-2302 -1002 0
2583 -2592 0
-873 1163 0
2899 -2182 0
2972 -1482 0
1043 1288 0
-599 -2844 0
2448 -1511 0
1090 -948 0
-3230 143 0
-265 2357 0
-2935 -3122 0
1206 -661 0
-2728 -1417 0
535 1127 0
3453 -2455 0
3513 -3212 0
-2592 1074 0
3094 859 0
-1369 -1558 0
2613 -472 0
2582 154 0
2304 -2257 0
-2509 3008 0
-3315 3069 0
1793 1675 0
-3163 535 0
3013 -1479 0
-1685 861 0
-515 1629 0
2561 -1158 0
-3347 1996 0
2832 -1064 0
-922 1013 0
1146 75 0
-2531 -2923 0
-1416 -2646 0
-321 -2746 0
1287 -1046 0
-493 -1139 0
-2801 1918 0
-1193 1518 0
-1567 2491 0
1485 1615 0
3281 2358 0
3413 987 0
-251 -52 0
472 -69 0
820 -2391 0
-2345 608 0
1762 2124 0
1118 -2478 0
-1470 1006 0
-109 -44 0
-3155 -2267 0
949 891 0
-711 1302 0
2970 1770 0
2944 3005 0
300 857 0
1244 2003 0
-1052 -2847 0
-394 -629 0
-3406 2091 0
407 344 0
285 -726 0
1115 230 0
1367 557 0
826 -197 0
186 -523 0
-39 1322 0
2403 -1592 0
5 1372 0
1139 -3215 0
464 2413 0
-2391 3104 0
-441 2818 0
-2929 947 0
830 -1028 0
750 3208 0
1297 1114 0
3526 -787 0
-2109 -1265 0
945 -246 0
-2569 -3124 0
-2216 2784 0
-2473 -3053 0
-2398 514 0
-3239 1211 0
-2111 1085 0
-220 -2154 0
3186 1261 0
2744 2133 0
775 -775 0
586 1497 0
-180 -2339 0
-860 -2012 0
3446 -1570 0
-1994 2881 0
-3209 -2033 0
-938 -700 0
-1547 2385 0
1319 3244 0
16 2973 0
1500 -2476 0
1433 2031 0
-2970 -1762 0
761 -1710 0
870 761 0
187 -2712 0
-3339 19 0
1620 1181 0
-2548 -321 0
-2822 2722 0
1892 80 0
-527 -2601 0
42 -888 0
-2475 -2822 0
-2640 -3134 0
1858 -1938 0
2242 -2262 0
2702 2691 0
3395 -1889 0
-1400 -1240 0
353 2593 0
-1396 -2836 0
-503 1997 0
-424 378 0
-1361 2961 0
-1217 -2871 0
-673 -3164 0
-886 -980 0
53 -1985 0
3275 -1399 0
202 -1821 0
382 2649 0
-3504 3157 0
1086 1131 0
-3495 -2059 0
1235 2470 0
-86 -824 0
895 3129 0
-1493 -1843 0
2750 3518 0
1036 3010 0
-3327 -2964 0
-647 -2094 0
-2429 3446 0
1035 -2679 0
-324 -3291 0
-548 -3225 0
-1095 -1620 0
-3413 2285 0
-2352 500 0
1051 -2914 0
1432 -274 0
-2855 1487 0
-472 918 0
-2739 -858 0
-394 -2279 0
1999 1648 0
-3237 2687 0
-2288 -2702 0
1785 3072 0
2583 2026 0
816 1383 0
3267 -3436 0
-1440 2612 0
1236 -1760 0
-2672 -1423 0
-2980 1585 0
2139 1174 0
-2630 -1060 0
-2250 1744 0
-1489 544 0
-679 -1164 0
2982 2133 0
-1466 -3524 0
1752 -1581 0
2462 -2354 0
659 448 0
671 -2027 0
2503 1159 0
862 2578 0
2762 1196 0
-1072 3518 0
1726 1119 0
-937 -619 0
3071 1569 0
1854 -2347 0
-124 1557 0
2616 2873 0
2960 -1313 0
-1557 1476 0
2994 -2302 0
-621 -2900 0
2741 3526 0
-1341 -651 0
1807 766 0
-350 3243 0
-112 -3504 0
3282 702 0
-2669 1236 0
-1921 -665 0
919 275 0
-1000 -2554 0
1331 -2763 0
-298 -3382 0
-311 2413 0
1132 -1974 0
-839 -48 0
2050 -3194 0
1063 -1934 0
1011 -3384 0
2570 -2658 0
3020 305 0
-358 -2303 0
3329 793 0
958 1867 0
-1501 1472 0
-1189 -1769 0
-3479 -851 0
-1686 2811 0
2263 2049 0
2639 -2284 0
-1384 186 0
1904 -1491 0
-120 -3020 0
-2730 477 0
-2359 -1431 0
3453 2533 0
-524 -1344 0
553 336 0
2840 -754 0
897 -3418 0
-2691 -1811 0
-2162 -2763 0
1665 -2174 0
2163 54 0
1566 1697 0
-3380 -2635 0
2253 -459 0
-3215 3050 0
459 827 0
3000 -1189 0
-1218 3068 0
-2471 388 0
1142 1484 0
-1815 -2399 0
2114 -3188 0
1844 741 0
3510 -831 0
3111 1236 0
-1248 1897 0
123 -541 0
-1225 -1161 0
283 -2657 0
-2841 -987 0
1596 2299 0
1090 2716 0
-2102 851 0
3489 355 0
634 -1066 0
2770 -1804 0
-1003 1512 0
1926 528 0
-1826 1013 0
-2284 1280 0
21 241 0
2098 1617 0
-276 63 0
152 2091 0
-434 -1029 0
-2257 822 0
2010 2383 0
2079 2570 0
3323 -2999 0
-195 -1409 0
-734 -3455 0
-1667 2928 0
483 2867 0
-2051 -70 0
2812 2592 0
-2729 2922 0
1776 -1444 0
-692 -623 0
-495 2661 0
3437 -2796 0
2042 2986 0
-2804 720 0
698 956 0
-292 1810 0
-2264 659 0
958 -10 0
-1618 2783 0
2593 3063 0
2489 3089 0
1745 -2334 0
1433 -500 0
537 -105 0
2832 501 0
-2178 1409 0
-2173 167 0
456 946 0
-225 671 0
1818 3520 0
-3342 2866 0
2634 -1025 0
-1283 -3152 0
3140 2303 0
-1894 2316 0
-648 -1173 0
-1860 1324 0
-941 3307 0
1388 212 0
2384 -257 0
-734 1939 0
-349 2640 0
-1832 -3208 0
3402 2959 0
-3115 -1865 0
-1651 1272 0
-2580 -984 0
950 108 0
-1608 1147 0
750 -3096 0
-342 -742 0
-3079 -2649 0
-122 -213 0
-1420 1372 0
-2778 -638 0
-2293 -2522 0
902 -1620 0
-1431 -1219 0
3287 715 0
-3034 -2500 0
-1599 -728 0
977 -1105 0
1362 2717 0
84 -1943 0
2532 -3422 0
3113 1092 0
-2422 -2003 0
-3098 854 0
1269 -337 0
2823 -537 0
-451 1746 0
-1569 -3084 0
-2472 3319 0
-650 -2605 0
-2819 -220 0
-910 -1046 0
107 2453 0
1887 -774 0
2434 1224 0
2076 -3403 0
3486 -2562 0
3370 -874 0
1104 55 0
-1131 -3053 0
-1205 -220 0
274 380 0
-1954 -2153 0
1058 680 0
-2040 -433 0
1796 -2080 0
-1043 1087 0
-1237 2581 0
-2506 -959 0
-1732 3341 0
3530 2133 0
-163 2252 0
2419 3402 0
3076 -2572 0
-202 -2646 0
-833 800 0
-1020 810 0
-689 1954 0
-234 2474 0
-3404 1423 0
-1947 -1072 0
-2026 -1120 0
627 778 0
1759 -398 0
2698 2040 0
-3326 -3062 0
1248 1511 0
1589 2578 0
2563 -3510 0
1463 1857 0
1470 3402 0
927 -3054 0
1643 36 0
304 2859 0
2409 -3408 0
2963 -2825 0
-957 3319 0
-928 -2495 0
-3057 3339 0
3034 1754 0
3076 -177 0
3397 1393 0
948 -1066 0
-2923 -340 0
2438 1902 0
3020 1947 0
1135 -1699 0
-1422 1988 0
1232 -1377 0
-1760 -2913 0
2498 -213 0
-2041 -2854 0
1668 2208 0
-1164 -2284 0
2259 -366 0
2275 373 0
716 2395 0
126 2297 0
-1090 1816 0
-698 1913 0
2320 -1983 0
1196 2119 0
-73 -3443 0
-3465 -3095 0
2436 585 0
2911 -1397 0
3410 870 0
722 1035 0
3117 652 0
2031 2838 0
964 18 0
1731 397 0
-1686 232 0
2878 2757 0
-1849 2378 0
-68 2231 0
-877 3080 0
-1654 694 0
1581 3357 0
-496 -3297 0
-476 -2847 0
3434 -508 0
1156 -3339 0
-2428 988 0
746 -1952 0
-3100 1890 0
2527 -2374 0
-1001 2164 0
1133 -785 0
50 -3172 0
-1377 158 0
496 -2584 0
2168 421 0
39 -3110 0
-2906 -380 0
-1705 -620 0
2425 1693 0
-2400 2631 0
-1695 3116 0
3082 -1606 0
1639 3248 0
1651 -1209 0
-2355 -2069 0
-3351 2403 0
-349 923 0
-2986 -3100 0
-2642 3228 0
-3024 -948 0
1824 719 0
-2853 1207 0
3252 -1850 0
2719 -3123 0
-3055 1143 0
3481 -243 0
-1514 1896 0
-1198 2622 0
-2753 3194 0
-842 -1881 0
-275 1465 0
541 -203 0
-3225 -2154 0
-3020 2109 0
2549 -2747 0
1874 -150 0
1216 -479 0
3071 1410 0
2422 2837 0
2316 -2783 0
-598 -1472 0
-3080 -412 0
1957 -45 0
2117 2874 0
1926 -1006 0
-1139 -2151 0
-375 -620 0
-3168 2538 0
-275 -1371 0
263 -807 0
2462 -2419 0
-1220 2168 0
-1959 -2115 0
-651 176 0
232 -2112 0
-2679 96 0
-2338 2695 0
-2945 -986 0
-1452 -598 0
2803 2954 0
-1797 -2615 0
-3161 -2779 0
-3086 -454 0
997 2753 0
1943 1527 0
2512 -1176 0
-230 -638 0
593 1184 0
1966 -1437 0
583 1754 0
-1541 440 0
-341 952 0
1775 -3517 0
3507 1574 0
2536 121 0
122 634 0
-689 -86 0
-1822 2689 0
-1893 3238 0
-2773 198 0
2814 -92 0
319 -945 0
-838 -3376 0
-919 2108 0
3140 1177 0
-2420 -2406 0
-1706 -1711 0
-1672 2519 0
3300 2931 0
808 -933 0
1577 -1740 0
472 -3110 0
-2597 2466 0
526 3322 0
-3028 -1805 0
2725 961 0
-2852 -1952 0
-1570 40 0
-959 -2368 0
1055 -2167 0
2949 -3073 0
-1825 -1418 0
-607 -1508 0
2771 -692 0
2866 -562 0
-614 589 0
1807 2693 0
2274 1031 0
332 -1987 0
-1575 1932 0
864 935 0
1651 2862 0
2769 1150 0
3380 1940 0
2038 1829 0
-1046 240 0
-3491 -769 0
2526 -75 0
2186 3074 0
-2484 -821 0
-3094 2052 0
3152 -3378 0
-2690 -1361 0
1748 1632 0
3492 -2389 0
2310 -1127 0
-2532 2224 0
-612 262 0
-1958 1344 0
3482 1793 0
2143 -248 0
144 -2734 0
183 787 0
-143 -3039 0
-689 -1551 0
-1807 818 0
-285 -2604 0
2211 905 0
2342 3518 0
189 68 0
-2746 1463 0
-974 -1040 0
-3042 -59 0
406 2766 0
-3373 -2991 0
259 -2081 0
-958 -1040 0
2984 -1507 0
-1096 -1220 0
245 -205 0
-3017 -717 0
2833 -1261 0
-712 -2064 0
1857 497 0
-2710 1698 0
549 -270 0
908 -242 0
-119 -1793 0
-2391 2700 0
2890 -973 0
1367 2572 0
2931 -3159 0
96 931 0
-491 -2768 0
1804 -3121 0
-1847 577 0
2415 3224 0
2383 2929 0
17 747 0
1231 -3268 0
-2387 953 0
-518 1117 0
1567 -3130 0
-422 -223 0
425 -2077 0
2729 -2653 0
-1190 3077 0
-651 1637 0
2566 -1096 0
2951 -467 0
494 -1545 0
-211 -725 0
277 -2149 0
3380 -656 0
-14 -2219 0
1362 -3526 0
-3353 3235 0
-857 -309 0
-811 -629 0
441 3121 0
3163 -23 0
-1522 3303 0
2940 -859 0
-1354 -2047 0
-958 -882 0
368 949 0
856 -2206 0
-3208 1864 0
-2583 -404 0
2541 -1354 0
-726 -3280 0
-307 -1486 0
-2447 -802 0
974 -3027 0
-1600 3266 0
-1531 2877 0
-2973 3258 0
2403 -2790 0
2386 1590 0
277 1835 0
-3070 3191 0
-630 2106 0
-740 -1984 0
-2589 -3334 0
2249 -2963 0
3361 -2104 0
39 2228 0
-542 -1305 0
-1777 -734 0
-557 -1492 0
2960 2758 0
-2568 -2597 0
-822 -804 0
-3250 1572 0
-1509 -2793 0
-1219 1543 0
-1376 1497 0
-3296 1486 0
3310 -491 0
696 1234 0
-2633 1749 0
-2970 1322 0
2115 1546 0
1599 -193 0
1771 1953 0
3070 -3324 0
-917 -289 0
-467 2903 0
-781 -694 0
-435 1535 0
-2193 1568 0
1346 -1002 0
-2250 1170 0
2981 1061 0
2586 -2737 0
2034 3198 0
-3239 -853 0
1492 -2498 0
3262 920 0
2318 -1589 0
-2587 3307 0
-2302 1146 0
-45 3175 0
72 -1380 0
1488 -312 0
1511 -648 0
2427 -2219 0
-2029 -1586 0
-1695 -3130 0
-2643 1928 0
710 147 0
2534 332 0
-384 -1156 0
-2730 -3067 0
8 -3403 0
1744 -3219 0
-2688 -558 0
-1416 1555 0
-2190 -3002 0
-1545 574 0
2510 1559 0
779 2374 0
-2309 1722 0
224 -2547 0
3301 -3525 0
1922 821 0
-3122 1435 0
-704 -439 0
427 -1010 0
-2596 -2713 0
-3386 -2140 0
3335 700 0
-3323 2441 0
-615 2539 0
-1491 3431 0
-2393 2228 0
2429 -2296 0
-3463 1955 0
-1730 -1323 0
433 2081 0
1335 1976 0
-10 -645 0
3254 1038 0
-2916 -1690 0
768 -271 0
-2162 -3449 0
1595 -2959 0
-69 -2238 0
632 -3150 0
3512 -3138 0
2459 -2958 0
1211 569 0
3232 1091 0
2271 3276 0
-2918 -1705 0
-1715 -302 0
3238 -1136 0
12 619 0
1881 -2286 0
-1405 -2321 0
-734 1854 0
-3497 2685 0
-2723 -875 0
-2737 713 0
-1257 1822 0
8 -2239 0
-3517 -2338 0
82 -1219 0
-665 897 0
-3121 2634 0
-594 1680 0
-51 -3207 0
2246 1285 0
2953 2570 0
-3115 2789 0
656 -2499 0
1867 27 0
-430 -168 0
3441 -2327 0
-898 3126 0
2439 395 0
-1934 -3361 0
1303 2984 0
-1997 3530 0
753 1818 0
1304 1413 0
2023 335 0
-597 1517 0
1149 -3136 0
-569 -173 0
-207 728 0
-1328 -3526 0
-1529 1037 0
1710 294 0
2191 -1522 0
2974 1813 0
-2541 3132 0
3107 -1212 0
-3076 -459 0
-2841 327 0
685 2832 0
2825 594 0
-2131 -2205 0
-3471 2548 0
-3373 3205 0
-1753 -730 0
3003 2323 0
2512 764 0
1012 -2940 0
1807 -2841 0
-3470 1511 0
-675 943 0
-413 -1768 0
280 -2337 0
-1260 -1328 0
1601 -2981 0
799 3523 0
421 321 0
1397 2341 0
-807 -594 0
1693 1035 0
-2675 2211 0
3375 3405 0
-1302 -1267 0
-2755 -365 0
-1067 620 0
-3496 -124 0
1888 363 0
-2728 3006 0
-776 1902 0
2164 2326 0
601 2963 0
-3122 -2679 0
-1757 2123 0
-1532 2995 0
504 -1130 0
-1600 102 0
-882 -235 0
-1134 -2148 0
3445 -825 0
-153 -1358 0
2839 -1737 0
3252 3299 0
1731 -2926 0
3313 1800 0
-2723 -1829 0
-1021 -2267 0
97 2038 0
-1531 -1288 0
-1693 771 0
-3128 1125 0
-2936 526 0
3522 -2675 0
2985 -1045 0
1433 883 0
-2945 2681 0
1423 1622 0
-3450 1260 0
531 -3218 0
1604 -914 0
-1831 3184 0
-766 3132 0
-2961 -1921 0
-3103 -2476 0
2164 4 0
-1137 2989 0
2838 2171 0
-2335 3159 0
-1608 449 0
-2152 -3112 0
-3332 1968 0
2083 1817 0
-2863 1688 0
1463 1669 0
1946 3375 0
-151 -447 0
2951 -1985 0
1762 -482 0
-2762 1669 0
-119 -1259 0
-614 -1569 0
2290 -688 0
2440 -1209 0
-1198 -446 0
2477 -1408 0
-1647 -2387 0
2960 -1732 0
2566 1019 0
-3288 -2405 0
-2710 -1377 0
-627 1295 0
-1962 2536 0
1726 -186 0
2304 -305 0
-2963 539 0
2391 -916 0
2577 2190 0
-3356 -2938 0
2762 2949 0
3464 -513 0
1327 682 0
2062 -2712 0
1036 3312 0
1968 3292 0
-1186 1982 0
-1596 945 0
2106 -2804 0
2480 -2712 0
-2068 -468 0
-928 3301 0
-1506 -400 0
-3404 502 0
3225 -3296 0
2859 -2749 0
2668 -991 0
1393 2362 0
-2074 2348 0
3240 -3495 0
-1916 2686 0
-1472 3110 0
3282 432 0
131 -1195 0
672 -693 0
-2367 3354 0
3154 -717 0
868 -500 0
159 -2330 0
-166 1276 0
-87 1007 0
1694 -746 0
562 3320 0
2549 -2633 0
-74 2143 0
542 -547 0
-1352 3136 0
-3030 3291 0
-730 -882 0
2145 -1187 0
1836 227 0
-3328 -2456 0
2110 799 0
458 2784 0
3233 627 0
-2427 -686 0
1882 -2539 0
29 -1562 0
-522 1475 0
610 -622 0
-1140 3120 0
325 -1289 0
3114 1358 0
1655 3173 0
3372 -2021 0
-704 -822 0
1405 3272 0
-397 -269 0
1515 -883 0
-2974 -2268 0
-154 56 0
1661 280 0
-551 -314 0
3338 -1344 0
-1806 1598 0
3457 1332 0
-8 -720 0
-873 114 0
-2573 129 0
-692 1983 0
1734 -2288 0
-1496 -150 0
2355 -2288 0
770 1866 0
2402 -1165 0
-2895 3462 0
1458 -706 0
-249 -1398 0
2654 2523 0
1578 -3168 0
2867 -3033 0
-1979 -3416 0
1080 -2251 0
3252 1152 0
3160 -616 0
-917 1413 0
3510 3261 0
-3299 1574 0
-1339 812 0
3454 2287 0
2255 -3172 0
-1458 -441 0
17 -756 0
-3430 713 0
779 1932 0
1271 -2517 0
-1965 -3027 0
-2719 -117 0
-1676 795 0
2356 -1118 0
1 -1352 0
-3500 812 0
-1322 2324 0
-1347 992 0
-1302 -885 0
-1797 2965 0
-119 1160 0
-2691 -1134 0
-830 -3449 0
-1193 -2715 0
-2687 -3119 0
136 -632 0
-3268 -1255 0
-1828 1329 0
1647 -2226 0
3375 747 0
-1857 335 0
1962 2350 0
-1923 1464 0
2968 -2401 0
2860 2248 0
1891 -3289 0
843 -2416 0
2454 -1666 0
970 -3459 0
1123 -2890 0
-2710 -2106 0
-1383 -1532 0
3308 369 0
1744 -3356 0
3529 2294 0
-852 -424 0
-1772 797 0
2563 -3085 0
-3023 3460 0
1086 3231 0
-3108 -1824 0
3269 246 0
2107 2371 0
-2311 -811 0
1807 1654 0
-634 -2270 0
2503 2995 0
2805 1160 0
2508 2142 0
1594 125 0
-2656 1208 0
1451 2491 0
1087 -53 0
-712 469 0
2326 -366 0
2458 -309 0
22 -105 0
3522 1742 0
224 -220 0
2962 -632 0
-163 3186 0
286 290 0
3102 2403 0
3063 2046 0
-3146 385 0
1472 1125 0
1917 -687 0
-1456 -1130 0
-1045 1673 0
-1258 1866 0
-2854 -496 0
2289 2947 0
-2505 2470 0
-3225 -1760 0
222 -1474 0
-519 -1119 0
-3391 -295 0
-1365 -1941 0
1838 -1977 0
792 1926 0
-1261 -1374 0
-940 -619 0
-264 1188 0
-181 -2008 0
897 -3523 0
760 3202 0
-3315 -1503 0
1896 -267 0
-642 -2477 0
2999 -1743 0
-824 278 0
-956 963 0
-2585 -1193 0
957 -1266 0
-1922 -1984 0
-1746 3278 0
-2360 -1488 0
1034 679 0
-3326 -2449 0
337 1521 0
-3079 880 0
-883 3452 0
-739 2390 0
3262 3388 0
-113 -2016 0
-888 -2754 0
-1085 -2992 0
-1165 -2722 0
183 -720 0
583 -2457 0
1612 2919 0
1745 1510 0
78 -442 0
3451 475 0
-982 -957 0
568 -3397 0
-2636 2247 0
1523 -674 0
-1926 -1158 0
2036 1099 0
-783 1875 0
1527 -483 0
579 -3093 0
2084 880 0
934 -3459 0
1148 1396 0
3027 -1374 0
-1466 1808 0
-940 -2201 0
-3028 -2372 0
-3465 -3359 0
-54 3314 0
-884 521 0
224 126 0
1224 688 0
744 -1136 0
-774 -2790 0
3319 2561 0
-1054 -1129 0
432 -1030 0
3068 -1232 0
-3296 -1917 0
-2974 53 0
-3348 1710 0
1299 50 0
-1663 199 0
-2501 -13 0
3262 3469 0
-2176 -1251 0
1632 840 0
-2576 -676 0
396 1514 0
489 2668 0
-1784 -3239 0
-976 1611 0
-3528 -1383 0
1981 2465 0
-2986 1680 0
1634 301 0
-295 699 0
-2739 1607 0
-2946 2379 0
-723 -1754 0
2825 -3344 0
587 -2573 0
57 2916 0
1496 1772 0
900 1592 0
-967 -3074 0
-1954 -3096 0
2243 -2246 0
2785 1992 0
-2394 741 0
2648 2235 0
3504 -2488 0
567 1608 0
114 1946 0
1572 -1021 0
-1543 1854 0
-1506 2269 0
-1995 3172 0
2962 2233 0
-389 -440 0
2616 449 0
-881 3426 0
-2564 -2720 0
2119 -1854 0
-2456 -2888 0
-3115 919 0
-1273 -2550 0
-629 -1837 0
-1737 -2593 0
-1117 -1920 0
1033 764 0
-419 -1521 0
1104 456 0
95 1487 0
-1118 2323 0
-357 3350 0
3324 -1821 0
1501 -705 0
3376 2543 0
-2487 -1562 0
1713 2481 0
3492 2799 0
2907 -1872 0
2277 -3524 0
2547 -1394 0
-2025 -1387 0
-2221 2005 0
-2048 848 0
-546 -2447 0
254 -2946 0
-182 -30 0
367 -2367 0
634 1266 0
1454 -2275 0
3314 3227 0
1692 2911 0
-289 768 0
1310 1976 0
-3002 1486 0
565 -1291 0
-2223 -3526 0
2504 3019 0
-2046 -3425 0
-518 -1028 0
3196 -789 0
3382 -1839 0
2304 -2759 0
-1480 -2604 0
468 -3101 0
1005 3164 0
-552 -2032 0
2323 -1238 0
-1687 3448 0
-2279 2016 0
2986 1620 0
-14 13 0
2374 -357 0
-775 -2941 0
-1876 -2700 0
1123 2020 0
944 -1494 0
-3421 -263 0
2332 -1531 0
3160 1927 0
3162 1733 0
-662 -843 0
2345 2977 0
-3180 -1317 0
-2014 660 0
-2423 3461 0
2249 772 0
550 -2014 0
-446 905 0
1268 3520 0
1752 1931 0
2840 -1113 0
-3107 -434 0
46 783 0
-1946 1590 0
509 -910 0
1947 2346 0
-2422 1800 0
-2495 1593 0
2524 733 0
1577 563 0
2667 742 0
-1358 2634 0
737 2567 0
-3012 -3138 0
1925 398 0
-35 -2987 0
1386 3006 0
41 2547 0
-1941 1216 0
-2925 -3204 0
2033 710 0
-1796 -621 0
-662 283 0
-3042 946 0
-1943 2283 0
-2028 -729 0
2556 -1456 0
-2821 -1372 0
-3391 888 0
1940 2913 0
1545 -3079 0
2527 166 0
-3019 2548 0
-1972 645 0
917 -3253 0
852 1477 0
-2062 -269 0
2019 -558 0
-3139 1810 0
-2102 1665 0
-3117 2535 0
-215 -1535 0
915 955 0
196 -1737 0
2767 -3195 0
-44 1490 0
1881 3164 0
-160 1969 0
2194 804 0
-1093 -2999 0
1530 1624 0
2115 -2383 0
-2094 3160 0
1465 988 0
-3087 -2466 0
-3439 -2077 0
-1133 3385 0
3218 -3067 0
436 776 0
2985 -2873 0
-2192 2949 0
-3316 1537 0
2967 152 0
-479 -957 0
534 -2539 0
-2106 -2565 0
1336 -836 0
1742 -450 0
-2620 -306 0
2471 -3035 0
-3081 1281 0
597 2424 0
-470 -1341 0
3458 -2658 0
201 3439 0
-1544 3091 0
-443 -2582 0
2051 903 0
-737 1015 0
1195 -503 0
-315 1087 0
1135 1388 0
2764 306 0
682 2839 0
1590 -1784 0
1844 1883 0
2614 3353 0
-2309 -1873 0
1035 -364 0
864 -1030 0
-2135 1728 0
-2226 2195 0
-2883 1889 0
2637 -973 0
-2532 3473 0
-2973 890 0
-3234 1463 0
1854 -2094 0
-2572 -1831 0
-2625 1110 0
-780 2085 0
-1064 1926 0
3299 -3226 0
1961 548 0
3242 -981 0
-2884 2688 0
2472 1918 0
-1186 -3035 0
-1608 387 0
183 1917 0
-1869 -3232 0
2271 2211 0
3329 1493 0
2641 -1369 0
-3061 3248 0
-1704 -1264 0
-2719 -605 0
-220 -3008 0
-2431 -897 0
-842 131 0
-1934 -1707 0
921 -2877 0
2503 1182 0
-2895 2767 0
2360 72 0
-3480 -954 0
-1548 -2363 0
887 -2455 0
-3443 196 0
978 21 0
699 1710 0
-3479 3029 0
-526 -127 0
-2774 -1391 0
1011 1405 0
-784 29 0
1531 -321 0
-1093 2458 0
-3008 -2998 0
-846 -875 0
1517 1351 0
3294 3453 0
3042 3323 0
2795 2486 0
-2035 1638 0
966 395 0
-1719 1023 0
-527 2108 0
-513 870 0
-254 -2221 0
2358 2311 0
1620 246 0
1872 1660 0
1163 2475 0
-2433 2200 0
-851 2510 0
3507 3472 0
-2809 1484 0
-1690 -2922 0
-2476 3027 0
-2091 1449 0
-1350 -3237 0
-845 1744 0
1894 -3100 0
-2952 -866 0
-2568 2375 0
1367 -1448 0
-2209 -674 0
-1161 3008 0
-15 -1776 0
-1193 972 0
-3115 2646 0
-2756 -656 0
-2167 -3166 0
715 1326 0
-2763 -728 0
-1823 -776 0
-1701 -1419 0
-2280 -340 0
2087 -2149 0
-52 -2916 0
-1029 2522 0
-3353 -1657 0
-2226 190 0
2730 -1700 0
34 3179 0
-2980 1213 0
1713 2913 0
2138 2717 0
1913 -433 0
1298 597 0
-2168 383 0
-2979 -2607 0
3243 -3302 0
-2874 -2819 0
906 2400 0
-2720 -1508 0
-2871 -2769 0
-2267 374 0
-1439 504 0
-3039 -2007 0
3186 -2109 0
-667 2838 0
1434 -849 0
851 759 0
2523 -1810 0
1975 -369 0
1834 -3215 0
-2482 -1849 0
366 -3302 0
1158 1170 0
2735 2510 0
2480 -2258 0
2571 549 0
-2739 2154 0
1177 -548 0
661 1519 0
-1095 495 0
-900 -3417 0
1397 2856 0
-311 2851 0
1087 2429 0
-2697 -509 0
281 1212 0
-1167 -1327 0
-822 -807 0
-2445 -2898 0
352 -2819 0
-1728 1297 0
-1046 1 0
829 1826 0
-1305 437 0
-1049 1257 0
694 -110 0
281 -1963 0
-1147 -3321 0
-1665 -994 0
1327 96 0
-2724 845 0
1961 3519 0
-2651 2358 0
-102 2881 0
3246 -2345 0
1084 388 0
2317 -346 0
2623 560 0
1082 -1642 0
431 -1815 0
-1492 3309 0
-2713 -3368 0
-3289 3299 0
-3376 113 0
-1800 -1416 0
-862 -773 0
1519 -325 0
-1617 -3383 0
1849 -2987 0
1505 -3223 0
1202 -1654 0
-126 -2064 0
1849 -313 0
210 -720 0
490 -2910 0
2529 -2541 0
-1804 -2703 0
698 -504 0
-887 -1467 0
1866 2750 0
402 -1685 0
-1197 1222 0
1648 -2266 0
-2857 -1281 0
469 2594 0
1018 635 0
1541 -177 0
-1904 -3134 0
2357 -1267 0
-1381 3508 0
-2101 1090 0
2537 332 0
-466 3209 0
33 1735 0
2959 3432 0
2020 1879 0
651 -2958 0
-1614 -1139 0
3007 -2940 0
3153 3208 0
3391 -2950 0
-1285 -690 0
3305 2599 0
2661 1951 0
2312 2230 0
-307 1887 0
3221 -597 0
-2464 3421 0
-3467 -3130 0
-411 -2720 0
3093 -978 0
-588 -2560 0
564 858 0
-2262 -1093 0
3265 -907 0
-1164 1310 0
557 -481 0
1889 -2380 0
-1950 3029 0
3269 -2575 0
-3170 1772 0
-662 -1670 0
-1242 2174 0
2022 -781 0
-51 -1924 0
-2157 -468 0
-1692 -1350 0
-2041 2663 0
3025 -717 0
-726 -987 0
313 -1033 0
-1357 -3271 0
-27 2143 0
-2013 3168 0
-571 1406 0
806 2041 0
758 -2558 0
374 596 0
-342 2220 0
-117 131 0
1881 2194 0
-2882 390 0
2927 3354 0
-1266 -1432 0
2662 794 0
803 -2086 0
-2996 -1909 0
-2722 -2730 0
372 3151 0
3392 -1436 0
3201 -2478 0
494 -3212 0
1280 136 0
2778 2021 0
1014 -901 0
3152 -215 0
-1051 -2780 0
-2064 -3145 0
2942 134 0
-681 -2420 0
2303 2770 0
-116 940 0
521 -10 0
1062 -1943 0
163 585 0
2979 -1486 0
-1662 177 0
3214 1669 0
2426 317 0
2853 -2954 0
-3479 -3388 0
-2154 811 0
1879 28 0
3085 2088 0
-732 3426 0
3410 -3078 0
-2921 1509 0
-2882 1756 0
2488 2084 0
2100 -3450 0
1902 936 0
-381 -368 0
2978 -3480 0
-2643 -983 0
464 -1225 0
-3486 1234 0
-162 263 0
1457 -934 0
507 849 0
1937 -1063 0
670 -2365 0
1800 3406 0
603 -1177 0
-656 1484 0
-2968 3460 0
-1353 110 0
-3184 362 0
-2099 -222 0
100 -986 0
3518 3245 0
-3452 579 0
-2504 -3411 0
2369 -789 0
555 427 0
-895 1177 0
-1840 -537 0
867 -155 0
-81 852 0
698 -2371 0
783 2465 0
-1757 3186 0
-3450 2668 0
-2318 -1942 0
-2419 1199 0
2338 132 0
-2405 -2456 0
-3012 3437 0
-644 661 0
314 -2127 0
2504 -3119 0
-2412 -176 0
-715 603 0
666 1369 0
-3325 1152 0
-303 -991 0
1429 -175 0
-1472 361 0
1956 -1767 0
-2922 2888 0
1142 2087 0
-678 570 0
-1195 -181 0
-3405 2356 0
-93 575 0
-2035 -3455 0
-2851 2778 0
3226 -3167 0
-2725 -1915 0
-2139 2624 0
2840 -2909 0
-1689 1777 0
-2779 -984 0
-3059 -1983 0
3041 -1250 0
-3029 259 0
3296 710 0
-3118 -1884 0
748 -1411 0
1683 790 0
2566 -1840 0
-1139 514 0
-379 -1569 0
907 713 0
-101 -777 0
2338 3249 0
2721 -1885 0
427 -3514 0
-3435 -133 0
-400 3165 0
-1400 -1488 0
-2819 3198 0
-881 2114 0
-3232 936 0
-3509 -312 0
266 -1876 0
-2262 2385 0
-1912 147 0
-2468 -1968 0
189 892 0
2812 1238 0
1198 3102 0
2956 -1269 0
-200 1517 0
661 -3061 0
-409 2659 0
3060 1646 0
-1562 1431 0
1410 526 0
-478 37 0
2654 2885 0
424 2716 0
996 1394 0
660 1590 0
1828 -1076 0
3441 1644 0
-204 1235 0
-3110 2248 0
-1750 -1294 0
2733 1650 0
498 -1205 0
-3142 1708 0
-361 -1615 0
3490 -717 0
58 2282 0
2564 358 0
-346 2841 0
2695 953 0
953 -845 0
-507 -3450 0
2273 2459 0
3087 1451 0
-265 -1639 0
-1950 1116 0
2328 -3475 0
1962 1930 0
952 3269 0
1060 -74 0
-2103 3444 0
-798 2993 0
-3125 -615 0
2276 2075 0
-864 238 0
-70 698 0
-3316 1834 0
-3393 35 0
3306 -2730 0
732 3490 0
1667 1734 0
3484 -558 0
-1737 1851 0
937 -172 0
-3074 -1009 0
2768 -2516 0
1390 1191 0
2786 1489 0
-2904 -3327 0
900 3133 0
2978 -111 0
-2297 -427 0
2392 -1829 0
2790 -2380 0
1586 1279 0
-307 733 0
701 1462 0
-1286 -1384 0
-145 3390 0
-3043 1023 0
2914 -1659 0
-2469 -1350 0
-1856 579 0
-1143 1525 0
655 3124 0
190 -2672 0
1832 2805 0
-367 2343 0
2 3305 0
561 -1915 0
-612 1006 0
3493 -2621 0
3406 -1893 0
18 -1921 0
3412 -236 0
1482 -2846 0
-81 -2053 0
2990 -2770 0
-1173 -1059 0
-840 -1947 0
-3278 -1682 0
-2444 1385 0
596 -175 0
-2902 -195 0
-2386 -575 0
1868 159 0
-1474 2944 0
1095 -2919 0
2409 1392 0
-2270 2100 0
1822 2549 0
515 2750 0
-2658 -2650 0
1055 1697 0
1530 2319 0
2287 -1971 0
-2007 -901 0
-1639 -998 0
3261 -2208 0
-2678 103 0
2117 3494 0
-1242 1943 0
814 -271 0
-3301 -2019 0
694 -1315 0
1992 1362 0
-1243 3493 0
2733 -939 0
1756 914 0
322 -269 0
-1225 3369 0
967 2674 0
369 2320 0
-2066 -3107 0
-1089 -694 0
-1332 3153 0
-2815 -534 0
3393 761 0
2491 2799 0
-2459 -1625 0
-543 695 0
498 303 0
1303 -279 0
224 -336 0
1423 1956 0
-350 443 0
2556 2627 0
-1003 2197 0
-1457 1007 0
930 -112 0
2588 2688 0
-2147 -2653 0
1081 1488 0
2508 -95 0
-2674 -2875 0
-2743 -3334 0
-616 -1823 0
-1347 -2670 0
-1764 2945 0
2631 3156 0
-2453 -3511 0
-3498 -782 0
-2197 -2629 0
500 682 0
-3420 -3086 0
1802 -3386 0
-1483 2392 0
1373 1321 0
-2501 827 0
3181 992 0
767 2425 0
1810 -1724 0
1973 2 0
565 955 0
3286 -2138 0
-2414 -1089 0
-1070 1393 0
-3062 -3280 0
3350 -2794 0
1117 -148 0
-1686 -871 0
-2880 -439 0
-1686 1073 0
1324 1680 0
2589 1267 0
1765 3418 0
1297 -1425 0
2555 -2666 0
30 232 0
1835 -270 0
-178 -1822 0
3062 1519 0
-2575 1149 0
3113 -2223 0
-3499 -2859 0
1406 105 0
76 1688 0
-3277 -3125 0
893 3109 0
-1958 1083 0
3277 3192 0
1236 -2935 0
2585 880 0
3409 -3161 0
205 1432 0
-2886 1007 0
1671 -1436 0
1782 1957 0
-1036 -1901 0
2667 -1941 0
2867 -3368 0
-2288 -2321 0
245 -3447 0
254 2381 0
2076 -70 0
1913 -3056 0
-3115 752 0
-2278 -1893 0
1867 287 0
1031 329 0
-2122 -889 0
3291 -1160 0
222 3248 0
1092 -3311 0
2870 437 0
-2453 -1225 0
-1241 -2270 0
-2371 722 0
2571 -3512 0
349 2778 0
293 -582 0
-150 3513 0
2142 565 0
-883 403 0
1272 805 0
-537 -1648 0
114 -1292 0
2063 1432 0
1917 -2354 0
-2303 -2171 0
-2605 309 0
1038 -343 0
-572 -875 0
2468 830 0
3071 2754 0
-451 471 0
2837 -2749 0
20 -2861 0
-267 -1306 0
1525 593 0
36 -692 0
361 1012 0
3371 634 0
-257 2898 0
-3131 1480 0
-606 -103 0
-3101 -2327 0
732 -1695 0
-1812 -3141 0
-1542 -2251 0
-1106 -169 0
1794 1238 0
199 3409 0
-2533 57 0
-1059 -2350 0
-3465 -3130 0
1379 -202 0
-2135 -2406 0
3311 -540 0
-2955 1975 0
-1864 76 0
-3411 -3392 0
-1169 1712 0
201 602 0
1011 -2766 0
-1353 966 0
1443 -1692 0
-1861 -1345 0
620 2229 0
199 -1942 0
-3134 -3513 0
-207 -3137 0
-1715 -3168 0
-2194 1842 0
3389 -3095 0
-3188 230 0
2214 -294 0
1331 1299 0
-2525 2770 0
1892 -255 0
2825 2933 0
-1710 732 0
768 373 0
-2693 -2661 0
2264 -3011 0
395 2258 0
3301 1745 0
3123 -1006 0
-1292 -2291 0
-2727 -450 0
1755 -958 0
-2135 -390 0
2749 -2856 0
-934 -593 0
-1621 -1630 0
-379 -785 0
-1295 3127 0
481 -3475 0
-887 6 0
-1437 2579 0
-881 2857 0
-1009 2849 0
3204 1931 0
2825 2867 0
-1600 294 0
-2909 -1110 0
81 -1686 0
2024 2441 0
1962 258 0
3070 -412 0
3238 -817 0
1904 -88 0
-2250 1614 0
3072 1948 0
-908 -2208 0
-2383 1568 0
-3382 -1795 0
2896 2110 0
1090 -207 0
1075 1111 0
-377 51 0
2965 1271 0
-3266 905 0
2827 -2617 0
280 2774 0
-3257 1811 0
-2354 2496 0
-156 355 0
-3214 1549 0
-1668 696 0
1868 -2667 0
-3415 -3142 0
-2141 -1692 0
-151 -127 0
258 -2543 0
-1345 1771 0
3322 1002 0
3502 -789 0
2529 -654 0
101 2987 0
1696 2918 0
-3251 -1849 0
-2447 -213 0
-2875 -2859 0
1816 3322 0
-3401 2935 0
1235 -1785 0
1698 -2682 0
316 286 0
1857 -2701 0
610 1338 0
383 -279 0
1770 726 0
794 -2559 0
-548 -126 0
2830 3140 0
-2944 -1242 0
445 818 0
2216 3262 0
1665 2968 0
-2001 3476 0
1682 1359 0
-308 -157 0
-2441 1203 0
2741 1777 0
-333 -2854 0
-2090 -3137 0
2315 -2457 0
993 -2856 0
1844 -547 0
3065 -654 0
-2370 463 0
-2469 645 0
2425 -2727 0
-1482 2233 0
3286 1495 0
3371 1975 0
2740 1380 0
2972 -380 0
2224 714 0
397 -1257 0
1622 901 0
-2338 -320 0
2374 3463 0
1283 2452 0
1116 -3101 0
-706 1044 0
407 -888 0
3322 -729 0
-164 -1912 0
753 -1822 0
961 -1586 0
2277 -3133 0
-1292 -2636 0
1998 -723 0
2887 3190 0
-467 2959 0
1844 -3339 0
1131 -3076 0
2307 979 0
-1869 -1781 0
1751 -2885 0
3143 -1400 0
570 3244 0
875 3041 0
3222 2958 0
-1003 -2023 0
2366 877 0
-2377 3193 0
1956 1817 0
-3296 1586 0
-2298 -1212 0
1828 -3223 0
-922 -2245 0
-32 1765 0
-138 3470 0
1832 2243 0
-873 1882 0
-3087 -3339 0
-1723 -1419 0
-2628 1500 0
-3511 1621 0
1838 1258 0
-2240 -2095 0
2285 2405 0
351 -1294 0
1214 -322 0
-850 544 0
2914 2226 0
770 1299 0
-306 2415 0
680 940 0
1497 3384 0
-2636 -2050 0
-2722 -26 0
63 3037 0
2312 -587 0
-2544 -1965 0
2040 3055 0
-2304 -1065 0
469 1184 0
2019 3242 0
-1166 357 0
2496 -998 0
1213 829 0
3453 3380 0
1802 1989 0
-3250 62 0
1729 -302 0
-956 -2247 0
-2749 3003 0
-3230 243 0
2998 -2770 0
-847 1782 0
3227 2110 0
3249 3443 0
-989 -1961 0
367 2634 0
-3516 -114 0
2611 -2504 0
-1329 1174 0
-302 65 0
-1842 -1689 0
1931 3229 0
-762 635 0
-2275 -524 0
2929 -2957 0
701 2391 0
-426 -2292 0
-983 -2883 0
-2990 -1943 0
2317 -478 0
1484 1288 0
-2502 -3318 0
934 -3184 0
-805 1259 0
-3203 1282 0
-1842 -1377 0
-479 -3514 0
-2364 275 0
1131 2302 0
-328 -678 0
1956 -3106 0
2787 480 0
2918 -1209 0
-1582 -2351 0
-1161 925 0
2366 2511 0
-2868 -1412 0
-1445 -2142 0
909 -1682 0
126 2493 0
2117 3048 0
-1383 -451 0
3528 -1521 0
-1530 2399 0
-3499 -1493 0
718 1685 0
2784 3075 0
520 -2122 0
2019 -2427 0
2308 2690 0
-1047 -2856 0
2213 2584 0
3093 537 0
2238 3102 0
2336 -2770 0
249 2695 0
-1477 -888 0
-1504 -2513 0
-2716 -3369 0
-1678 -1010 0
1550 -13 0
485 233 0
-2951 -2962 0
-1593 -147 0
-1629 -934 0
206 2648 0
2077 -1199 0
2611 -2050 0
-2725 -1079 0
2052 136 0
-2505 2216 0
-2942 1201 0
532 -3195 0
992 3360 0
-890 2075 0
-2055 -2129 0
2899 2717 0
-2898 659 0
-2280 -1554 0
3417 2309 0
2669 -2149 0
-1588 25 0
-1372 -2034 0
554 -2908 0
-2009 -1801 0
2609 1913 0
3472 -2921 0
1960 3387 0
3038 -1098 0
2838 2056 0
330 956 0
680 2423 0
-3096 2798 0
-90 518 0
-1736 -2144 0
2126 3318 0
-3143 3510 0
-365 449 0
453 1300 0
2075 1612 0
-2219 -2998 0
2574 -3005 0
-1613 1181 0
1152 -2202 0
891 -1120 0
-2889 -629 0
1971 -2179 0
-2743 3126 0
1410 1910 0
-1160 -1002 0
-2484 -2791 0
1244 1000 0
-3251 -432 0
779 136 0
3393 2125 0
2234 1740 0
-2097 -939 0
-676 2900 0
3045 2371 0
192 -73 0
-726 -2329 0
-1617 3386 0
-1246 -2261 0
-203 -3383 0
2997 1847 0
2838 -2498 0
-2245 -3042 0
-2821 -535 0
3409 321 0
2635 2062 0
-2272 2238 0
1968 857 0
-2833 3361 0
-452 1871 0
-3343 1725 0
-2821 3207 0
-1974 -3524 0
689 -1006 0
-323 1757 0
-3500 1623 0
-571 1259 0
339 2608 0
2659 -1076 0
-1248 1373 0
377 2333 0
2084 1709 0
2763 1047 0
3151 -3450 0
2802 540 0
-401 1012 0
-1909 2355 0
2590 -1715 0
-2909 2285 0
-2318 2757 0
-2173 106 0
-517 1410 0
218 1939 0
1525 -1459 0
-1340 557 0
-1831 2870 0
1892 -2474 0
-2274 769 0
2314 -1206 0
-2307 2728 0
-2644 244 0
-1316 2107 0
307 -2262 0
2207 -1712 0
907 2305 0
3139 1763 0
2899 -2777 0
569 -1909 0
-2719 -811 0
3221 -270 0
2132 2422 0
336 -2563 0
-1624 2401 0
1390 917 0
-451 1885 0
2911 876 0
-2456 791 0
-2718 2536 0
1106 -2707 0
-2539 1487 0
-2303 -829 0
3102 2458 0
2797 2571 0
-1525 2265 0
-2382 1586 0
527 3388 0
182 -96 0
-2003 1556 0
-1016 -2026 0
1195 -604 0
-2109 -976 0
2996 -2905 0
-3280 2417 0
1619 1240 0
-664 1008 0
930 -3367 0
-2991 708 0
-1444 914 0
419 -3080 0
-123 -2255 0
716 -1347 0
-1383 -151 0
3514 830 0
-2482 -3456 0
-3192 2977 0
-3438 -2693 0
532 -2749 0
1955 -590 0
-3407 3229 0
2751 -2544 0
2181 947 0
689 337 0
-1784 -2737 0
2215 -1609 0
-2987 3290 0
-368 137 0
1080 958 0
-2765 282 0
2039 -1072 0
2548 -843 0
-2780 -214 0
2061 729 0
-205 -2032 0
-2571 2190 0
-3422 581 0
2782 -1829 0
-282 3130 0
2079 1366 0
437 -3269 0
3475 -1341 0
-704 -2114 0
-2696 -2575 0
2323 1522 0
2608 1778 0
-1108 -2344 0
617 -170 0
618 98 0
410 -3129 0
-2275 3457 0
-162 -519 0
-93 -1024 0
-873 -3380 0
771 3117 0
1404 -28 0
3372 575 0
-3334 3191 0
-1716 -3320 0
218 -691 0
-3401 -3053 0
-66 -177 0
2149 3434 0
581 -534 0
-743 28 0
-3474 -3397 0
1585 2320 0
-2182 721 0
-1307 1897 0
797 906 0
-304 2107 0
1441 -2552 0
-2611 3389 0
846 1475 0
-3530 2305 0
1310 2690 0
1697 3436 0
-1521 -664 0
-859 -1589 0
-2329 1446 0
-332 -673 0
-2842 -1795 0
1385 2903 0
3424 618 0
1313 -627 0
2749 38 0
-2412 2524 0
717 335 0
3191 -2701 0
-1554 -2692 0
-1611 139 0
-1638 1979 0
1844 1076 0
2142 3399 0
2179 2585 0
-1058 -140 0
1691 2436 0
740 2188 0
621 -1257 0
-478 -1831 0
746 -2018 0
-320 1146 0
-2353 2508 0
-2513 -2550 0
453 -962 0
968 -1620 0
356 815 0
1857 1390 0
2566 3290 0
-1133 1859 0
-2353 3053 0
-1788 481 0
63 -616 0
1998 2324 0
-1555 3005 0
291 -2258 0
-2679 -2827 0
-2242 -1348 0
-2044 -1740 0
-2963 -3255 0
48 -3062 0
-1386 326 0
-1340 530 0
-3183 2952 0
3221 2985 0
-819 78 0
3288 -616 0
-3024 2679 0
-1869 -3471 0
-1264 3451 0
-2239 -2962 0
2385 2813 0
-1768 2304 0
-798 -2040 0
-1241 -2727 0
-3327 -463 0
-2894 -1001 0
-1274 -1645 0
-592 1993 0
3220 -1785 0
-2945 823 0
-833 3483 0
-1076 2099 0
-770 -1892 0
2590 2083 0
-23 2875 0
-2468 2690 0
812 -2643 0
-3150 2187 0
-762 841 0
-2225 -1687 0
-490 -2359 0
2037 -555 0
2963 1898 0
587 1124 0
-486 671 0
-3274 37 0
-1350 712 0
-172 1465 0
-1484 -476 0
-1660 -498 0
2551 2037 0
-34 -2729 0
1254 1987 0
-140 -3473 0
216 -1880 0
1201 714 0
849 -563 0
-621 327 0
1113 -2900 0
1061 815 0
-2908 3190 0
2985 923 0
-2764 -2902 0
775 -1258 0
3492 1357 0
2498 38 0
2337 285 0
348 -785 0
-1068 -652 0
-921 -1493 0
3500 -3377 0
1579 419 0
1940 3397 0
-2154 -2854 0
-2486 -3340 0
-1603 1546 0
431 1461 0
3107 -2707 0
3422 2207 0
-3433 897 0
2381 -813 0
2443 2052 0
-444 -523 0
2594 1993 0
566 -1504 0
2031 -2093 0
-3385 -3074 0
2234 2787 0
-1253 1555 0
2146 -3326 0
2590 -1748 0
-3407 2155 0
-2108 -3376 0
136 -984 0
-3489 -1479 0
-2716 -3339 0
-2633 -1811 0
-74 3093 0
-1558 -2152 0
-3475 2369 0
-2760 1248 0
-984 2749 0
-1801 -782 0
-43 -2497 0
353 56 0
-2945 2953 0
733 -3287 0
-2845 -60 0
-1934 1934 0
-2880 -2628 0
1735 1510 0
1129 254 0
-2896 -191 0
-1416 3438 0
-319 -1140 0
-3435 505 0
-2551 -2964 0
-2172 -1407 0
-1149 -3096 0
-3352 1674 0
2013 49 0
2062 -2387 0
2677 157 0
432 -2499 0
-720 2776 0
-1974 -2289 0
-2950 942 0
2335 -1825 0
118 1229 0
-2270 -1148 0
965 1811 0
2911 936 0
-445 37 0
1154 2383 0
405 -1682 0
2276 526 0
-860 -1692 0
562 -2648 0
401 -291 0
536 -658 0
-2074 -1616 0
-2722 232 0
2210 2206 0
-2619 2849 0
-3383 2150 0
-784 1724 0
-2901 3504 0
3491 1918 0
1056 93 0
-3366 2385 0
1296 611 0
-490 1624 0
-2845 2059 0
300 713 0
3372 -1067 0
-2705 -1251 0
1089 2357 0
-2254 -416 0
3092 1962 0
1349 -2393 0
-1325 -3168 0
917 -651 0
1486 -1972 0
2361 1989 0
1429 -1061 0
2305 -2197 0
1129 388 0
-583 -1712 0
-1569 2150 0
-667 2559 0
2176 -1455 0
-116 139 0
-2047 -3454 0
3031 2832 0
249 -295 0
-2651 15 0
1303 494 0
-2974 -2868 0
3411 1364 0
-376 -1262 0
-841 2199 0
-366 1986 0
2862 115 0
1237 -2315 0
1329 -459 0
1155 -2055 0
1994 3488 0
-2863 2814 0
-3253 -2747 0
-165 -2253 0
-829 -2575 0
-2407 -1640 0
411 1267 0
2435 -2490 0
278 -408 0
2114 1678 0
-2390 -2074 0
2113 3331 0
279 1299 0
2029 2204 0
1050 280 0
2067 2540 0
-1468 130 0
3024 3162 0
-645 1471 0
2247 1091 0
-1068 -482 0
-2227 1745 0
-1317 1999 0
257 286 0
639 -1645 0
-213 3107 0
-563 2953 0
1936 -3318 0
1707 -2061 0
-2044 1 0
-619 -1067 0
-259 1672 0
-1638 763 0
-2468 -271 0
1008 694 0
361 2498 0
-695 -3506 0
2370 -777 0
3385 -2823 0
-407 -2941 0
1484 2050 0
710 -2279 0
-1864 -474 0
3368 -2116 0
-2425 744 0
3000 3 0
-1518 761 0
-263 -2746 0
-1191 650 0
1742 354 0
-1865 -2604 0
-3377 2094 0
238 -2465 0
2853 -800 0
-582 -3449 0
-2278 3013 0
-1899 3310 0
-160 2765 0
563 2761 0
-3043 158 0
3043 -2596 0
2899 -2360 0
1125 -1835 0
-1078 -1019 0
2485 3269 0
559 -1839 0
1065 542 0
2913 3211 0
-603 743 0
3269 -2927 0
-2185 -1747 0
303 2248 0
-377 1478 0
-3415 1303 0
-2704 3009 0
816 -1251 0
2000 2338 0
2113 3314 0
-2552 -1498 0
1343 -366 0
1717 -973 0
-2287 -1470 0
2093 1051 0
1689 -890 0
-1443 -1046 0
-2204 -2245 0
-1666 1007 0
818 -1900 0
895 3488 0
2671 46 0
3228 2465 0
1945 -3415 0
1559 -2232 0
-2014 1993 0
1203 1907 0
2121 897 0
3104 -2807 0
-1137 -691 0
-1703 618 0
3405 -888 0
1239 1694 0
717 1299 0
-1325 -2643 0
-2528 -1785 0
-19 950 0
1435 -1242 0
-1156 -219 0
2903 225 0
-2829 479 0
-554 -2826 0
-2904 1255 0
-493 -3390 0
1213 2835 0
-777 -2908 0
3185 -2449 0
-3399 3425 0
-1327 -309 0
3425 -2505 0
3329 -2421 0
869 -181 0
-2787 2906 0
2580 1646 0
3117 926 0
-2856 2968 0
2910 267 0
-2788 -425 0
1877 2819 0
-747 -102 0
2583 2774 0
1567 653 0
-3491 -663 0
3452 -2752 0
-3340 1484 0
1060 237 0
-3040 -1940 0
751 2121 0
-3305 3309 0
1907 -1248 0
2294 -2094 0
3488 956 0
-1654 -3020 0
-3504 -2026 0
385 3321 0
1914 -281 0
1487 2245 0
152 -1016 0
3452 1558 0
-2344 -2905 0
2016 -2251 0
2192 717 0
-2818 -590 0
-2460 769 0
-1885 -59 0
2132 2621 0
-1582 3301 0
515 -2006 0
2961 -1145 0
2931 1942 0
-3126 2030 0
3396 1613 0
-1757 1068 0
-1650 80 0
-3477 -1481 0
-71 2786 0
3183 2446 0
1447 -1457 0
2142 -1352 0
1114 -2268 0
-2808 1903 0
-867 -1027 0
3453 281 0
3229 3221 0
-1012 2502 0
3425 899 0
-1847 -1173 0
-2919 2529 0
3350 2895 0
-2024 -3404 0
1462 -3382 0
-2658 -1862 0
-2482 1092 0
-1878 -2355 0
1931 2555 0
2574 3186 0
-308 -30 0
-163 3313 0
-2056 3191 0
-2629 742 0
-541 -2611 0
-852 -1492 0
1154 -1129 0
-1542 1514 0
-2418 -88 0
-433 2385 0
-626 1968 0
-3157 1324 0
722 3122 0
1316 1311 0
192 2061 0
-218 -51 0
1708 3323 0
1505 843 0
229 1208 0
-3348 2470 0
-550 2764 0
2146 645 0
1438 -833 0
-1759 -399 0
2430 -1088 0
-861 -2352 0
1885 -807 0
279 868 0
3286 -3318 0
3315 -730 0
-1103 1484 0
2228 -2909 0
1117 1077 0
1600 1858 0
889 -441 0
2229 918 0
2977 1440 0
-3171 3170 0
2907 2747 0
-3272 463 0
-1262 -1654 0
-3136 3418 0
1195 2102 0
-2565 337 0
1030 2123 0
-2490 2112 0
-632 3341 0
-2009 2492 0
2891 -2154 0
1639 1050 0
2765 -1681 0
87 -606 0
-2815 -2557 0
-3024 1677 0
-981 -109 0
-64 -636 0
3248 -2630 0
3007 -976 0
-451 -1872 0
3282 -1181 0
-2601 -1292 0
-3322 2962 0
349 -2604 0
2224 -356 0
-934 -1054 0
688 225 0
3088 -403 0
733 -2962 0
-1670 3422 0
-2398 1674 0
-2837 -1625 0
560 248 0
-2406 758 0
-2506 3262 0
-171 1126 0
3518 2318 0
1086 190 0
777 -2722 0
1904 1159 0
1897 661 0
153 -119 0
1604 1475 0
2965 -3328 0
-1542 -2558 0
979 -1433 0
-1712 1198 0
-1108 -2015 0
1434 -1049 0
1471 -2729 0
3026 -2567 0
-308 3330 0
-681 -1345 0
33 -1205 0
-2134 -2779 0
-66 -3104 0
-1749 2612 0
3015 399 0
-291 2259 0
-519 -1830 0
3335 414 0
-215 -1037 0
-3127 -62 0
716 -837 0
1333 1461 0
-1490 -1611 0
-2034 -1124 0
1422 -2373 0
-601 38 0
2024 1151 0
-2841 2098 0
-3407 398 0
-1862 -1509 0
3464 338 0
433 3505 0
1177 436 0
-3144 -2918 0
-2426 -1688 0
-441 -3237 0
-1164 947 0
-548 -1053 0
2213 52 0
3351 1927 0
2283 1362 0
1773 -1750 0
410 -2866 0
3375 2778 0
777 42 0
-247 3030 0
-314 -1594 0
-3515 -613 0
76 1441 0
3420 189 0
2966 -28 0
-2417 -2411 0
3415 2918 0
-1603 -1551 0
2697 -708 0
2294 1014 0
433 -1949 0
-3006 -2409 0
41 791 0
-1691 -2591 0
-1543 1176 0
206 1488 0
-833 -991 0
279 -2910 0
-2033 3198 0
2351 1910 0
56 -369 0
1560 -1832 0
2404 -3301 0
2334 -288 0
-2861 -1360 0
736 1091 0
-2933 -2759 0
-1797 -1178 0
1869 3294 0
-1932 -1999 0
1283 905 0
-1010 -2023 0
1201 2632 0
-2961 3387 0
1074 2010 0
333 -3278 0
2220 -2438 0
2772 -1481 0
-3226 179 0
-2952 2566 0
-481 -1567 0
2271 -282 0
699 317 0
-2500 1816 0
-1444 -503 0
1775 2966 0
813 -1608 0
1465 -1368 0
820 -3157 0
958 -188 0
-3218 -93 0
-2315 -2566 0
1235 1065 0
2448 -877 0
1699 2005 0
-2204 -2411 0
-2455 -467 0
1164 2933 0
-541 2043 0
2207 1222 0
-535 -2807 0
125 3325 0
-346 -2261 0
-910 -1369 0
-847 -793 0
1050 2215 0
-2623 2824 0
-1476 -3500 0
1069 -220 0
-3480 -1250 0
-663 -2806 0
2213 1321 0
1817 -2632 0
-3288 1164 0
-1689 -2372 0
1585 -2082 0
-2409 1696 0
-3008 1572 0
-2991 2246 0
-2105 -1406 0
2304 -3216 0
-2058 -675 0
2802 1455 0
1004 3065 0
-1837 155 0
-365 -163 0
1852 1370 0
-881 -1089 0
-815 -3378 0
-825 -2486 0
2268 -1481 0
-1050 -185 0
-3416 -1607 0
2092 2532 0
1242 188 0
1056 3062 0
2103 -3487 0
2723 2959 0
2649 1497 0
1551 -620 0
91 2115 0
-817 2459 0
3169 -3472 0
-1230 2038 0
1137 1373 0
-470 -1690 0
-2915 2960 0
3422 2121 0
72 -1733 0
688 1973 0
-139 1886 0
78 -124 0
2213 781 0
-798 -784 0
3180 696 0
-3218 -1760 0
677 -1614 0
-2421 365 0
3088 463 0
-3298 -2868 0
-1837 -463 0
2517 556 0
338 511 0
-1139 -344 0
-560 3121 0
-1686 -249 0
-111 -3052 0
64 2767 0
-127 -3 0
544 1172 0
-3518 763 0
-864 3372 0
2959 2399 0
796 -2477 0
-2837 2754 0
-1003 -3027 0
-2976 691 0
-197 515 0
2515 2067 0
1807 266 0
-3500 897 0
2523 532 0
741 -2784 0
-1416 650 0
-3119 -867 0
565 3011 0
2515 1493 0
685 -1830 0
1413 91 0
-1257 -3418 0
-1832 1938 0
-612 -168 0
-817 2367 0
-3327 1785 0
-538 3313 0
537 228 0
1758 -261 0
-1551 1191 0
-2592 3329 0
2370 -3090 0
2646 -3218 0
-379 368 0
-3164 1621 0
-1155 1163 0
-2734 1633 0
-1693 762 0
-3002 196 0
2870 799 0
1750 -1275 0
2336 -1618 0
-1972 -2365 0
3240 3381 0
2899 1674 0
3488 -959 0
3390 -105 0
-3199 -2053 0
-1000 -269 0
1935 -1640 0
465 -3104 0
564 -2337 0
2274 -1412 0
1845 -117 0
727 -2345 0
920 -1502 0
-1540 2870 0
-1901 1082 0
1675 2842 0
698 1368 0
-1590 1628 0
67 2520 0
3051 1810 0
450 -1478 0
1759 -1593 0
-2835 -3377 0
1484 1739 0
-3412 -451 0
2120 -2915 0
618 3143 0
-3397 452 0
-757 -1064 0
-3390 -1421 0
-1087 -2182 0
-1769 1642 0
3314 410 0
1480 502 0
-1943 -315 0
-2341 -3316 0
-1558 3209 0
-2230 1143 0
-1258 40 0
-3253 -3150 0
-3147 2058 0
-3170 -1217 0
-360 -2777 0
2803 1364 0
1415 192 0
36 984 0
2697 -2252 0
3055 737 0
-654 -312 0
2862 -2137 0
2498 -3257 0
-2896 -1701 0
-1768 3522 0
-2675 1388 0
3530 1625 0
-2078 -897 0
525 -592 0
-2495 -1480 0
-2041 -2452 0
-2897 -2754 0
-1232 565 0
1337 309 0
-70 -1391 0
950 -2808 0
2528 3290 0
-3405 -2632 0
1477 -3524 0
1694 -1985 0
-998 286 0
650 450 0
-155 -1048 0
1676 -483 0
2341 -801 0
2467 -3491 0
-3237 2770 0
-30 2387 0
-1064 -2077 0
624 -2780 0
-2064 -1949 0
-959 -952 0
-810 -3260 0
1459 1983 0
542 -2483 0
-1026 -470 0
2441 777 0
-112 973 0
3420 2496 0
-1876 -3086 0
-3297 982 0
1724 -3523 0
554 3215 0
1333 2222 0
2362 2021 0
1378 774 0
3269 1172 0
1923 -1958 0
560 197 0
-475 -823 0
2210 3410 0
-1009 -807 0
1690 1861 0
-1033 3345 0
1083 2913 0
-639 661 0
1801 2385 0
3309 -587 0
-730 -200 0
-1301 -623 0
-2997 3294 0
-814 2473 0
-531 -1137 0
149 3092 0
1959 526 0
-2865 -1500 0
-948 -2854 0
1685 1331 0
-3157 1492 0
1606 3148 0
327 1915 0
3502 2496 0
-1984 -3024 0
1854 895 0
1617 -2823 0
-2045 -1521 0
669 -1582 0
-2252 3111 0
-441 1404 0
1976 -2668 0
-905 -1544 0
-2558 -227 0
-2396 1981 0
-657 802 0
-942 -2919 0
-3409 157 0
12 -2436 0
-1847 562 0
-580 -84 0
2842 984 0
-466 -3292 0
2022 739 0
-824 -59 0
-645 3306 0
-2883 -627 0
1633 380 0
2331 310 0
608 -10 0
-978 1922 0
-47 2206 0
2680 -451 0
1726 -871 0
2794 -1193 0
835 816 0
-2361 -2285 0
3068 -488 0
-123 1446 0
-1470 -2289 0
2465 1912 0
-1990 3132 0
1883 153 0
-226 2989 0
2021 725 0
1861 2109 0
-2503 1525 0
-1600 1726 0
2549 2147 0
-137 280 0
-2339 -2330 0
-3063 1802 0
465 2764 0
-1645 2642 0
520 2153 0
-2746 3486 0
1061 2773 0
1674 1378 0
2216 89 0
2112 -1976 0
1526 -2196 0
-1400 -1662 0
114 1813 0
-2776 -3059 0
-3321 1818 0
-1548 1101 0
-3524 -167 0
-2097 -708 0
-2684 -2291 0
2160 2370 0
-483 797 0
1485 2451 0
-2417 -133 0
3530 2479 0
-1445 -539 0
3501 2685 0
-5 2067 0
471 386 0
1892 -2601 0
1172 -3321 0
1987 -939 0
2136 2980 0
-2734 -1939 0
-2204 -2457 0
-56 -430 0
-1629 249 0
-1715 -3098 0
1368 880 0
304 -1706 0
1393 2889 0
2532 3193 0
-1593 -1430 0
1411 965 0
3050 2268 0
25 -672 0
-1437 2115 0
-2609 470 0
154 -474 0
-444 -2525 0
-3117 -3305 0
747 2253 0
2737 -2101 0
3205 -296 0
-2132 -876 0
3422 -3495 0
-1417 1957 0
2451 -3524 0
-1584 -678 0
954 -1509 0
2729 -2712 0
-296 2142 0
-734 -1468 0
-3414 3161 0
-2044 -1415 0
3177 -615 0
2936 -3218 0
63 2506 0
3398 29 0
-1750 438 0
1761 3038 0
-2397 1720 0
583 -2900 0
-2706 1103 0
1081 2380 0
2264 -1456 0
-1878 126 0
-821 -867 0
2924 -3506 0
3092 -548 0
3219 674 0
3080 2403 0
-3202 -375 0
-154 785 0
-3296 -118 0
1690 -1834 0
203 -3115 0
-2938 -3293 0
155 1717 0
1071 332 0
1827 942 0
-2779 -2310 0
319 -2955 0
-3004 -2735 0
-2559 1957 0
-2016 1300 0
-52 -3165 0
347 168 0
-2596 -954 0
-121 -810 0
-676 1555 0
146 -1318 0
3079 -932 0
232 1791 0
936 -560 0
-1832 -956 0
-193 -650 0
-711 2175 0
2590 240 0
-932 -91 0
1263 -401 0
-1757 1124 0
-1243 -2300 0
-394 3195 0
-2292 2622 0
1047 -2034 0
-2329 -1558 0
1906 333 0
-1728 -1603 0
3386 -954 0
2146 2304 0
2185 -3519 0
3119 2549 0
-2815 1272 0
1012 1314 0
-633 1601 0
1846 -2705 0
-2948 349 0
-215 -2867 0
2060 -521 0
2683 -627 0
-2395 -2606 0
-656 -1623 0
-467 -2506 0
-3523 1917 0
2534 2579 0
465 -371 0
-2691 1653 0
2762 -661 0
-1027 -730 0
-3260 3173 0
724 977 0
-1880 1038 0
3017 -991 0
-1197 -1840 0
-2137 -321 0
2863 1843 0
2762 3425 0
-928 -2320 0
-3354 191 0
1748 1197 0
-1500 -558 0
2063 -1680 0
-2759 3453 0
409 -474 0
-3339 -1974 0
-641 93 0
-1597 902 0
1325 -481 0
-825 -106 0
-2357 799 0
3249 -1851 0
2621 -3089 0
-750 1517 0
2632 86 0
-2509 -2946 0
-1073 -1615 0
-346 332 0
-2979 1343 0
-1436 -3135 0
-1714 -2346 0
-3284 -2241 0
-541 -3275 0
3175 -747 0
-1921 1299 0
-1119 865 0
2226 3357 0
-2388 2657 0
-673 433 0
2443 933 0
468 3000 0
-2910 1023 0
-2964 1918 0
1060 2034 0
3455 -240 0
-1132 1375 0
-1374 2 0
-204 31 0
-3519 2208 0
-1835 2306 0
1860 2612 0
-3318 2459 0
1132 -1796 0
2812 2536 0
3459 -1647 0
-2261 306 0
3132 1973 0
783 -812 0
-1946 -2735 0
949 -1961 0
194 -813 0
-2498 -3337 0
2722 2327 0
-3417 -1747 0
-223 2309 0
152 3332 0
1631 -1095 0
3123 -2919 0
-621 2815 0
2603 -2718 0
1443 2256 0
-3266 411 0
-2483 -1045 0
1784 -1803 0
1124 -986 0
-2006 -1072 0
-1771 2343 0
246 -2593 0
20 1847 0
-1422 1376 0
3120 -857 0
-1380 2234 0
-2074 -420 0
754 488 0
953 -324 0
1807 -1616 0
3478 1582 0
781 3014 0
-3239 1392 0
1467 201 0
1704 -2577 0
-3089 245 0
-634 -2468 0
2634 3294 0
-133 2618 0
-1572 -2620 0
-1953 1914 0
2721 -1893 0
-308 2764 0
-3060 1306 0
1031 -3428 0
2583 -2892 0
3165 -1848 0
99 771 0
-774 2839 0
-467 2050 0
-2757 -2656 0
-3174 3446 0
-2871 -500 0
-289 -2862 0
1553 -3266 0
1450 -2232 0
-2307 2087 0
-65 -1832 0
3357 3398 0
381 1035 0
-3118 -1843 0
3071 1021 0
1296 2369 0
-85 792 0
-255 2055 0
-2535 -787 0
-1712 -2505 0
640 1172 0
1115 -1136 0
-2854 -182 0
-1235 2815 0
-2055 910 0
3150 284 0
-1354 374 0
-1375 463 0
-3229 2076 0
2662 -1077 0
825 3381 0
-3464 1633 0
-3281 -1199 0
-1952 2723 0
-3284 1770 0
3423 -2402 0
1362 -2846 0
524 -534 0
2833 -3213 0
232 3098 0
2972 -938 0
1518 1002 0
1808 1742 0
2632 -893 0
182 2866 0
-2703 -2437 0
807 391 0
2360 1454 0
2943 -2782 0
-729 -986 0
1084 -3221 0
-1569 -262 0
2346 3444 0
-2625 -1555 0
1053 332 0
1546 65 0
442 -3011 0
2769 212 0
-2927 2446 0
-2877 3514 0
2445 -3236 0
2442 -817 0
3267 1438 0
-1157 732 0
-2486 -3369 0
-1567 2513 0
1370 -3087 0
-3339 365 0
-2223 1856 0
3048 2652 0
838 655 0
2047 2805 0
-1895 -955 0
-801 361 0
917 2309 0
1218 564 0
-86 1557 0
1141 1657 0
2926 1375 0
-1258 1592 0
3244 -1051 0
-639 -2643 0
-1737 1575 0
-796 395 0
-3207 3341 0
20 1827 0
-3435 -3103 0
-2792 -903 0
667 -3321 0
813 -2116 0
36 -3286 0
-2913 2524 0
3168 2971 0
76 362 0
-529 470 0
562 1288 0
383 -970 0
-3135 -72 0
2583 -2911 0
1348 -834 0
2981 -1190 0
-1786 -808 0
2314 49 0
-1161 862 0
2457 -1495 0
2108 -2972 0
-3225 -2275 0
-3158 1819 0
-2713 428 0
1867 -2118 0
1409 3199 0
-1120 2791 0
1790 -2467 0
589 2091 0
-3223 1112 0
2620 1538 0
-2463 3501 0
-1017 -517 0
-1003 -3291 0
-1574 766 0
1451 -629 0
-292 1725 0
2278 -654 0
518 -2106 0
2202 -2280 0
3396 -1173 0
2540 -3442 0
-1031 -2483 0
3068 3058 0
1991 -752 0
97 -2035 0
-2888 -239 0
1970 -3360 0
-3042 456 0
50 1486 0
1288 671 0
-443 -2676 0
348 -1259 0
2163 -2657 0
-3265 -575 0
2737 1367 0
-3346 1488 0
-3152 1004 0
1067 1922 0
-794 891 0
1362 2917 0
2594 2570 0
-3058 958 0
-517 2191 0
3286 1488 0
-2822 -2720 0
-220 816 0
1077 2900 0
1586 814 0
-2044 2158 0
2943 -1418 0
746 -2305 0
-2479 -604 0
-1491 3055 0
-2924 -3321 0
-703 1957 0
-1841 2733 0
-1978 3165 0
-790 -3073 0
-1660 380 0
682 392 0
-873 674 0
-1186 -426 0
-377 -446 0
2131 -1825 0
-1041 -3207 0
-497 1035 0
709 3193 0
-1962 -2688 0
-529 487 0
2491 -2717 0
2570 258 0
-307 3005 0
338 57 0
2728 -1302 0
2780 -2604 0
1577 2520 0
-2558 1526 0
2215 2312 0
-1291 -2108 0
-2454 -1352 0
-62 -1951 0
422 2591 0
-75 2233 0
-1664 -3141 0
-3082 694 0
3337 2268 0
992 -1558 0
-2434 -3516 0
1869 1465 0
2685 -1226 0
-320 -1006 0
201 2110 0
3112 -2710 0
1845 -3223 0
167 1007 0
-1346 449 0
3419 -1345 0
-2655 -1852 0
2301 -2418 0
951 -1944 0
-2454 2589 0
2340 -1080 0
2816 -3489 0
-1058 1633 0
-624 1414 0
-510 -2068 0
-3142 3282 0
1860 1820 0
2048 -1091 0
-2941 -1274 0
2981 -90 0
-3025 -3192 0
3267 -598 0
2324 -1611 0
2891 850 0
313 -664 0
1612 -602 0
-2886 -89 0
2841 2766 0
1061 -1083 0
-2484 2954 0
-2052 -1377 0
-903 -322 0
237 1893 0
3161 -1647 0
-873 3003 0
-2926 2790 0
977 -445 0
1924 2873 0
129 -3435 0
-2796 1987 0
-1659 -459 0
-916 3220 0
997 3003 0
3108 -959 0
-106 -2376 0
2754 -2291 0
595 -2986 0
3476 524 0
1976 -2040 0
3425 1424 0
3178 -2676 0
-1551 1511 0
2137 -3060 0
-628 -2503 0
3365 -1829 0
1568 -3234 0
779 -3185 0
930 3020 0
-823 -2015 0
1345 2832 0
-2428 1451 0
3389 1312 0
3275 -1532 0
968 2908 0
-1554 -3473 0
-2356 3076 0
3341 -3408 0
1862 -2495 0
-1690 -1173 0
1675 1953 0
2271 -2978 0
3003 -2074 0
-3326 -3290 0
1405 -385 0
-930 1634 0
1323 2620 0
2484 3515 0
-2409 2895 0
3323 -1705 0
-2155 -3417 0
224 3107 0
754 -504 0
-532 479 0
-921 2929 0
-403 -376 0
-698 -1841 0
3015 -3491 0
-2601 -2626 0
2121 3271 0
2400 2401 0
2708 -855 0
1460 -1596 0
-70 2000 0
2265 2790 0
-1984 -2970 0
1334 -1230 0
1629 2447 0
2646 -2151 0
-2974 -2610 0
-1589 -2110 0
-616 -645 0
-292 432 0
-3201 -1427 0
2639 -1394 0
2320 2424 0
2198 -3423 0
237 -2745 0
1584 -2973 0
-2004 -1718 0
-185 2105 0
1238 -1788 0
732 -2681 0
1203 -1118 0
1744 2287 0
2903 963 0
-628 2549 0
-2975 137 0
-260 -605 0
-2420 1589 0
-2493 3088 0
3071 -405 0
3097 -578 0
2459 -2787 0
3361 -2151 0
2581 -874 0
1517 -2577 0
-974 -3366 0
-214 -3419 0
3068 -2386 0
816 -485 0
-2224 -3468 0
-1695 -1065 0
-1788 -3294 0
504 2404 0
-2288 -170 0
-1109 -1014 0
2481 -3480 0
-2206 -1711 0
3235 -2720 0
-899 -2055 0
2343 2068 0
-1041 3402 0
1154 3521 0
-1019 -329 0
3469 2922 0
-3173 -3449 0
20 1981 0
487 2703 0
2798 1897 0
3070 1853 0
1881 2468 0
-3266 -328 0
-169 1327 0
-2829 1152 0
2042 1459 0
2874 1946 0
-1429 305 0
2823 -2692 0
-3472 1550 0
-1997 -3495 0
-1479 414 0
2107 2942 0
3271 -2422 0
-2149 -2315 0
-746 2398 0
1596 -41 0
459 2032 0
1045 1030 0
-1841 2959 0
208 2699 0
-2033 1161 0
-3074 2283 0
2835 -2800 0
3050 -2035 0
3099 -99 0
2418 -2616 0
3081 -3409 0
246 -584 0
2887 -1921 0
-499 -1967 0
-6 2342 0
3186 3120 0
-1783 -1666 0
-2988 -2500 0
-2044 3113 0
2987 258 0
639 316 0
-2171 501 0
-2637 1779 0
-679 2481 0
-727 -1129 0
-3206 2306 0
-1179 1335 0
2949 2453 0
-127 2374 0
-125 500 0
-1560 2839 0
3364 -3245 0
900 3510 0
2963 -377 0
-627 1815 0
-2455 1270 0
1628 6 0
-3136 1604 0
-1951 -67 0
306 -1249 0
2510 2467 0
1898 2896 0
2162 1285 0
-3311 2816 0
2392 259 0
2436 -2623 0
3238 1451 0
-1048 -1271 0
2660 1477 0
-1361 -1481 0
2390 -2445 0
3147 -667 0
1579 3246 0
-1603 -1351 0
-1737 -3247 0
3227 -585 0
3231 2270 0
943 761 0
-695 -1155 0
1147 -2184 0
1028 -496 0
-3410 3267 0
-1416 3413 0
-2195 -878 0
3139 3318 0
-1372 710 0
-664 -3422 0
-1226 2256 0
-1080 -1982 0
2458 -1849 0
-930 -1426 0
-2829 -462 0
3419 -2219 0
-1899 -1142 0
1313 3457 0
-1315 1574 0
-3278 1778 0
2176 1007 0
3281 1270 0
-3461 -241 0
2864 -3197 0
3416 -2810 0
207 -3485 0
-2227 -1455 0
-759 2853 0
-952 766 0
1236 -2595 0
-1436 -561 0
1484 950 0
-2078 -592 0
1152 2701 0
-243 1887 0
-3256 -941 0
-782 3173 0
2415 2059 0
-2345 -2273 0
3088 2108 0
-1644 -2587 0
-1380 1976 0
-443 1024 0
671 -3422 0
-2834 -1283 0
1759 2039 0
-288 -3418 0
-3315 917 0
699 -982 0
-2203 1827 0
-2879 -547 0
2290 -1052 0
2617 -181 0
-2928 -1672 0
-624 1916 0
396 -289 0
-128 2304 0
1928 -2572 0
-809 1264 0
-1699 306 0
-1141 1036 0
-1295 2777 0
1446 -922 0
-1184 3434 0
2507 -2673 0
2844 2368 0
2767 -429 0
586 946 0
2409 1227 0
698 554 0
2378 1864 0
992 1861 0
-1179 -3485 0
-1083 -991 0
2862 199 0
-2904 -3155 0
-1705 3107 0
-2860 -1823 0
-856 2671 0
-1436 3159 0
-2703 -2530 0
1539 -2936 0
-3179 -1954 0
671 -1967 0
-1157 90 0
1686 1935 0
2063 2523 0
1807 3357 0
-3337 2256 0
-2085 3252 0
-877 -494 0
-2460 -1489 0
1063 -3216 0
3246 3085 0
1250 905 0
-1225 2756 0
-3295 152 0
1446 2818 0
2925 1800 0
2697 734 0
1938 936 0
-605 1007 0
-3062 -1999 0
1366 3217 0
-565 1674 0
-2961 681 0
-612 135 0
-1830 1167 0
2636 -3414 0
-1585 -1685 0
2309 1327 0
3002 -399 0
1366 1264 0
-2463 -88 0
-1830 2180 0
585 1980 0
-1439 -3151 0
2125 -2922 0
-683 -630 0
2056 1866 0
3126 -3126 0
-1634 1617 0
-399 -1812 0
-3334 3454 0
-2325 1469 0
307 2326 0
1929 2768 0
-2366 1703 0
-2551 -2874 0
387 -2960 0
686 1513 0
-2957 1944 0
1390 1697 0
1757 3095 0
-2672 -2551 0
-2575 -789 0
-3166 -3050 0
702 438 0
1914 -785 0
-2169 -3366 0
114 2256 0
968 2543 0
-3050 3364 0
1753 2132 0
-1618 2241 0
2815 -3284 0
-14 -472 0
-1993 2999 0
-1850 -2369 0
-1010 -536 0
1017 -2761 0
519 3449 0
2893 191 0
-1831 -814 0
1218 -785 0
-228 305 0
1430 -2748 0
-1510 153 0
-1654 322 0
27 3212 0
3503 924 0
3118 -1702 0
2524 1776 0
-2468 264 0
-3303 232 0
-34 1734 0
-2890 -1268 0
-1765 1698 0
-2607 -3161 0
1095 1566 0
-2226 23 0
2600 -135 0
744 2838 0
3190 1000 0
-734 2657 0
-3504 -2361 0
1207 -1851 0
2717 538 0
1980 -2166 0
-1657 -1700 0
570 -59 0
766 -3249 0
-2055 1745 0
-3406 -3177 0
-2720 1128 0
-1613 494 0
-3489 -2793 0
2665 -2164 0
1979 -2685 0
-1978 435 0
-260 1708 0
-3302 1640 0
759 2580 0
2564 3240 0
-1942 1066 0
-731 3175 0
1867 -2781 0
-2406 -3411 0
971 -321 0
3049 3047 0
-1333 -545 0
-1835 -2371 0
-167 -2173 0
1372 2833 0
1968 3241 0
1632 1405 0
-2781 757 0
-581 1335 0
1294 -2025 0
535 2228 0
-2130 -2380 0
548 956 0
2332 -2754 0
-251 2502 0
2036 3071 0
2611 -1571 0
2410 -2370 0
-2057 -2879 0
2177 -257 0
1922 2063 0
2391 -2671 0
-689 3311 0
1680 328 0
-937 -2836 0
48 471 0
-1781 -1748 0
694 2187 0
3494 -3243 0
2754 -557 0
-1467 2445 0
225 39 0
1792 -2426 0
-501 -1761 0
2990 2197 0
3244 -1441 0
1465 -2040 0
568 2820 0
-2448 -3506 0
1071 1075 0
-525 2656 0
2089 -2102 0
746 1087 0
-963 2985 0
-147 2363 0
1186 -2759 0
-1934 3349 0
-890 1031 0
-412 2217 0
-168 -3313 0
-1259 63 0
2695 -161 0
1980 1592 0
-205 -2381 0
2385 3139 0
-3348 1304 0
-176 2834 0
-2247 -1215 0
1709 3338 0
-2288 -2915 0
-938 -3306 0
-239 652 0
2493 552 0
-2707 644 0
3350 -1471 0
-1221 -2531 0
-2159 2214 0
1201 -1840 0
-391 -1389 0
2213 2405 0
-2542 2011 0
-3041 -2605 0
-2224 -2910 0
815 2940 0
-683 1799 0
1146 -624 0
1592 -3463 0
1611 -675 0
-1763 -1074 0
712 149 0
-518 -93 0
978 352 0
-3318 -1403 0
-3154 2970 0
-570 -630 0
3323 -845 0
-3466 1566 0
-3016 191 0
2086 1182 0
2433 2912 0
-3108 816 0
2917 -1620 0
2268 1331 0
-2504 2195 0
-1644 2161 0
-677 1148 0
-673 -2891 0
-1866 1777 0
3521 2082 0
-3450 536 0
2367 2704 0
1806 671 0
2977 -323 0
-1228 2875 0
3388 206 0
319 -2323 0
2982 -561 0
1500 -646 0
-2779 -2744 0
1281 3139 0
-1151 1694 0
-327 -2349 0
-665 304 0
-1618 -3036 0
-1404 -1548 0
-2669 2699 0
504 1213 0
-1941 16 0
2739 763 0
-2996 -2626 0
-1690 -2737 0
1937 248 0
-2847 -462 0
1018 -1195 0
989 2112 0
-3266 -1512 0
3235 3528 0
93 -2753 0
-2810 -3084 0
-781 -1832 0
-808 -3180 0
554 1177 0
2160 -2560 0
-1785 -1800 0
2210 -1767 0
-2205 -1002 0
-1711 685 0
3330 -1376 0
172 1409 0
2085 -1274 0
1380 -2169 0
637 2492 0
-3098 3085 0
-443 -2367 0
-2844 -130 0
-1912 -366 0
-1005 -3487 0
-2406 -1948 0
3272 -835 0
-1345 -3458 0
3300 -1094 0
1775 -415 0
-3161 2761 0
951 3255 0
278 1583 0
336 -3033 0
1642 2318 0
3138 1333 0
-1481 -1740 0
-2480 2853 0
-2447 1872 0
906 1660 0
3207 -272 0
-165 -2463 0
-2099 -1407 0
802 928 0
891 1793 0
228 -2518 0
3244 -2279 0
-1814 -2524 0
1914 -2759 0
-1738 -3327 0
3069 2508 0
250 150 0
-2961 2277 0
3338 2794 0
-2526 3016 0
-1868 -1521 0
2823 2298 0
-2684 1635 0
850 1045 0
514 -648 0
3103 1656 0
-2541 1498 0
-645 1188 0
1308 -1948 0
3342 3019 0
1245 -2821 0
-271 -1437 0
567 1892 0
659 963 0
-1894 1081 0
978 3349 0
-3218 -3496 0
2326 2817 0
-2935 1817 0
2000 433 0
2218 2803 0
2639 733 0
374 1287 0
-64 -452 0
2198 -2339 0
1128 3154 0
2588 -1467 0
-974 3044 0
-3352 -2831 0
-1781 2360 0
2321 -1316 0
1274 -2444 0
769 2202 0
-981 3490 0
2190 -1661 0
-878 -2368 0
278 -103 0
-3446 1883 0
-1681 -3464 0
-3373 -3441 0
3370 -2266 0
-2607 -959 0
-2422 -2751 0
2694 2528 0
-1724 1285 0
-2516 -1804 0
1824 -1240 0
-1344 -3021 0
-987 909 0
-3499 934 0
-1051 -571 0
-902 -3416 0
-1215 -1160 0
-1473 -3059 0
-700 -2852 0
-3302 -346 0
1592 3308 0
-894 1620 0
-1882 -1552 0
1478 -2796 0
-1052 407 0
1227 2447 0
-1788 -490 0
-2039 -2290 0
1989 210 0
-196 1329 0
1962 -1518 0
791 -2644 0
2305 954 0
-1030 675 0
-1334 1899 0
2704 -1219 0
1827 -663 0
-2210 -404 0
-2563 -663 0
1088 -896 0
3400 -1082 0
1329 2489 0
1457 -517 0
2859 -1892 0
470 976 0
-2785 -559 0
2031 2156 0
2443 -2500 0
-2438 -322 0
-279 3242 0
-597 -3343 0
-1041 3122 0
899 3190 0
-1062 -1431 0
-243 -3205 0
1568 3126 0
1256 -2687 0
3452 -23 0
-1731 3075 0
2694 732 0
67 514 0
3430 -2809 0
-369 858 0
1393 -545 0
-508 -2622 0
-729 1975 0
-620 -1974 0
-2315 1628 0
2989 -239 0
1939 -2658 0
-2888 1417 0
703 1906 0
-1332 -3247 0
182 1087 0
3311 85 0
-1920 -912 0
3456 -1041 0
2825 -3204 0
1010 2990 0
-43 -1563 0
520 -3190 0
1216 3127 0
-1162 -1113 0
585 3193 0
402 374 0
-1127 -1419 0
407 2492 0
2914 -2217 0
-3209 2256 0
-2906 1482 0
1360 2898 0
329 -2153 0
1257 677 0
-2106 1386 0
-3204 -1743 0
227 -2226 0
-363 -1151 0
-2348 689 0
849 2489 0
2790 2005 0
86 2369 0
-817 -2455 0
2696 -433 0
-3028 1835 0
595 1100 0
1056 -1981 0
3311 428 0
724 -896 0
1211 1453 0
-1956 1310 0
-1808 7 0
-2208 2418 0
-513 1346 0
-998 -165 0
2992 132 0
-1273 1902 0
-93 -2681 0
1919 2497 0
-1944 -3479 0
3048 -472 0
-1502 -1161 0
-798 -1921 0
266 1170 0
2680 760 0
3367 2677 0
-1509 -283 0
-2372 -3038 0
-3224 -1600 0
29 -1560 0
-614 -1544 0
2266 -2525 0
2481 -200 0
-1528 -784 0
2285 1449 0
1475 1347 0
-2993 -1096 0
2087 2591 0
206 1988 0
-124 2946 0
-2491 -215 0
3452 -2261 0
431 -1567 0
-878 -1392 0
-2098 -2539 0
1429 1627 0
-424 890 0
674 1360 0
-2872 -558 0
-459 1559 0
3057 1907 0
1105 -2822 0
-2687 -2227 0
1193 1282 0
-578 -2259 0
-3268 2193 0
1271 1320 0
-466 -1404 0
-2796 -1739 0
2220 -2482 0
-990 758 0
-3069 1393 0
1116 -2442 0
1959 -920 0
2537 -140 0
1886 -2363 0
2441 2782 0
-3508 -2584 0
-1557 -2685 0
3111 -3315 0
-344 -2782 0
-2471 -679 0
2272 586 0
606 -3479 0
-1747 2973 0
-2614 2867 0
-3060 -1087 0
-2159 306 0
900 1964 0
-838 -838 0
1948 2575 0
-1839 30 0
3014 2265 0
-2348 2791 0
-3100 -231 0
1343 -1092 0
-1832 -3441 0
3307 -805 0
-1964 1637 0
3029 -2783 0
-878 3385 0
-518 -1273 0
-938 519 0
-2055 2066 0
1133 -1789 0
-620 -1597 0
1321 -620 0
-2720 2032 0
3201 695 0
-196 1364 0
395 245 0
-2858 -2980 0
-2015 -2174 0
1980 2515 0
1809 105 0
-2209 -2912 0
2549 -325 0
-3325 2803 0
1748 -1043 0
2444 -104 0
-363 259 0
3197 2906 0
316 1960 0
978 -2559 0
-620 2600 0
550 -2724 0
-2018 -3270 0
-2582 1968 0
1699 509 0
2153 2375 0
1126 449 0
1324 2275 0
2244 2312 0
-1506 2404 0
1757 -2991 0
3424 -1192 0
786 -23 0
-2021 -2360 0
-3153 1239 0
-2799 3163 0
336 3480 0
-1436 -1751 0
1027 721 0
3516 -1317 0
-2212 -93 0
2686 -822 0
-664 1466 0
-2825 -2457 0
-1377 1129 0
2293 -1806 0
-177 266 0
144 2253 0
3414 -490 0
1725 -1294 0
3187 -468 0
353 -1212 0
2650 2821 0
-1645 3488 0
1648 611 0
2096 -1203 0
-3041 993 0
-389 3264 0
3221 -3384 0
-1690 1473 0
-645 2157 0
266 -489 0
-2657 1820 0
-3164 -1455 0
386 2812 0
-578 3423 0
719 2836 0
1956 2846 0
1911 407 0
1267 2264 0
2452 1625 0
422 -328 0
-1908 2653 0
2860 2464 0
-2242 2835 0
-2372 2172 0
955 1863 0
1802 1762 0
-2827 -711 0
2570 104 0
2855 -1385 0
-3508 -235 0
-127 449 0
3289 -2922 0
-1109 -2442 0
529 935 0
2444 -1161 0
248 -2144 0
-1141 227 0
140 3267 0
2052 -860 0
902 -1943 0
2265 -2580 0
-3288 1886 0
-1887 54 0
-2875 -1482 0
3422 -524 0
219 1503 0
337 -1701 0
1124 1796 0
-3078 -1567 0
695 -2812 0
5 -2287 0
2799 -2336 0
-3162 -3167 0
-1503 3400 0
-2898 1761 0
1906 -1514 0
-996 2773 0
2739 -2218 0
-1834 2702 0
-1544 2037 0
598 -3347 0
-178 1620 0
-2880 -455 0
-3480 -111 0
2479 1852 0
-2846 995 0
-1098 2479 0
3387 -1996 0
-582 -860 0
-1848 280 0
1114 -836 0
-2442 2931 0
-2478 -2203 0
1024 -2973 0
1782 -895 0
-2066 -654 0
462 -94 0
-1513 -172 0
1818 -2678 0
-2289 -2178 0
3249 107 0
-1746 952 0
-1714 1214 0
1562 80 0
-464 -3032 0
-1262 2443 0
2368 -2372 0
-1594 -213 0
-2258 343 0
-1865 566 0
3198 -3397 0
2097 2618 0
300 -3087 0
2050 2708 0
3357 -186 0
864 430 0
3026 -83 0
-2365 1134 0
3221 -1419 0
2175 -662 0
1229 -927 0
-2922 3349 0
-1788 -2721 0
-3325 -2294 0
1861 -1823 0
-1973 3032 0
1568 -198 0
-2209 1883 0
2246 329 0
-1441 3262 0
-2154 380 0
792 -240 0
-655 750 0
152 -3485 0
3179 -666 0
-996 -2734 0
72 1487 0
-2002 -3296 0
2744 1233 0
-3022 -1006 0
-481 -1067 0
3162 -646 0
1810 -2478 0
463 -503 0
102 -3359 0
-92 1885 0
2770 297 0
-1315 -2950 0
-972 -180 0
740 -602 0
909 -79 0
-323 1455 0
-2441 1595 0
1447 2333 0
-3020 -3006 0
3007 191 0
499 -1965 0
1424 -3108 0
1334 -1701 0
79 2079 0
2985 2960 0
-2657 -2044 0
-1010 -1651 0
-1212 -738 0
-3525 1907 0
3093 492 0
3212 1180 0
3076 2129 0
3036 -1455 0
-3465 -879 0
-1397 761 0
-3285 1405 0
-1118 -1864 0
-580 1698 0
1620 939 0
-1407 -2193 0
-1904 -984 0
67 -1317 0
-3169 -344 0
-2604 889 0
1899 -1221 0
-1042 96 0
1564 935 0
196 38 0
3172 -3161 0
1525 -1301 0
-2879 2992 0
-2773 190 0
-2363 -1558 0
3055 -162 0
-403 -94 0
-523 997 0
2350 -2898 0
-998 -943 0
-1781 1708 0
-3151 342 0
3221 844 0
-2037 3512 0
2150 -860 0
-1342 533 0
2782 1373 0
1188 2386 0
1681 570 0
-3508 -880 0
-2606 1450 0
-110 660 0
-834 -2602 0
1233 -968 0
546 -498 0
698 -2356 0
-2897 393 0
190 1901 0
887 -1169 0
-56 954 0
-3001 -3485 0
-2098 526 0
559 96 0
149 2121 0
-2758 1883 0
1641 -3304 0
1300 2440 0
-1562 -140 0
-2795 -402 0
2843 1172 0
2994 347 0
3257 -3201 0
1265 -1668 0
1788 2586 0
-374 -3090 0
1740 -1607 0
-3316 -866 0
-2177 1975 0
-2241 108 0
2424 1720 0
-2974 546 0
-1636 2914 0
-2632 3430 0
-1140 3089 0
-490 -1858 0
-1779 233 0
2875 -160 0
1168 -482 0
9 2452 0
-2483 -3146 0
-2180 -1730 0
1282 -3410 0
-2438 -1556 0
2255 1405 0
952 -1762 0
-220 366 0
-2706 3481 0
-3166 2968 0
1175 -496 0
-894 712 0
2510 -789 0
-1943 1226 0
1534 795 0
-2783 -2624 0
3052 1800 0
-2033 -1436 0
-4 -735 0
1473 1003 0
2842 2676 0
3120 -23 0
-3318 -2811 0
3162 719 0
-2847 -550 0
1083 -3410 0
-628 -1689 0
2981 2112 0
-1379 -2584 0
-1130 -3298 0
-983 942 0
2334 -748 0
-3211 1358 0
78 1927 0
2744 969 0
3141 -2883 0
2140 449 0
55 -2039 0
1222 -478 0
2767 -2815 0
-974 -234 0
1532 -2218 0
746 -1801 0
-932 2464 0
-1228 2354 0
-3134 -17 0
-1988 -2869 0
-726 1234 0
2199 -106 0
-1327 -368 0
3289 535 0
-2514 -2663 0
-2910 3076 0
-263 -2180 0
3187 -440 0
-862 398 0
-2373 2971 0
1183 -2149 0
3206 -227 0
-2865 383 0
2603 2864 0
304 -1825 0
-2431 -2143 0
-1275 2254 0
2331 758 0
-638 -2099 0
397 3530 0
-3237 -3509 0
1610 -3456 0
2610 -1399 0
-2345 -3208 0
300 2891 0
1798 1413 0
-2785 -2541 0
72 840 0
-1915 3384 0
2594 3457 0
1060 3418 0
923 -626 0
-1912 -511 0
-3084 215 0
1487 -3504 0
3480 -2734 0
205 1962 0
401 -3015 0
480 3507 0
-1070 -2424 0
-1098 -611 0
2823 3209 0
2624 -1811 0
-1429 1769 0
-1633 -730 0
-3060 2709 0
-15 2378 0
1524 1925 0
832 -3417 0
-1029 -2538 0
-673 2337 0
-2761 2982 0
-2484 -1591 0
-782 1604 0
506 -846 0
1506 -1228 0
-1350 -442 0
1220 -231 0
-662 316 0
2881 -1315 0
-1315 118 0
178 72 0
-1691 988 0
2903 2055 0
1248 1539 0
-425 1017 0
2467 -2990 0
-3381 -2625 0
3335 -1054 0
-2158 -183 0
-3374 3110 0
-3487 1818 0
2403 -191 0
3442 3028 0
2268 -1274 0
1340 3049 0
1617 -3094 0
-2056 -1492 0
-416 3029 0
3278 -2675 0
317 2333 0
237 -3008 0
-343 -862 0
957 -2354 0
-2889 1038 0
1989 -2745 0
-2973 1517 0
-2261 -185 0
452 1755 0
-2002 1220 0
-179 -2751 0
-2137 -2911 0
229 3269 0
1533 854 0
2908 -844 0
-2097 -1067 0
-2967 347 0
354 2517 0
-3295 -2355 0
1095 -2560 0
2186 -157 0
-1603 -3424 0
275 -2749 0
-2143 3143 0
1993 -1950 0
-1177 1268 0
-3253 1482 0
-1503 1623 0
-278 -2941 0
-1781 1594 0
3097 2684 0
2835 3494 0
-666 -2278 0
34 -1033 0
-1361 1264 0
-3239 2269 0
-151 586 0
230 185 0
-527 -67 0
-1 3356 0
-1423 1311 0
-1645 1908 0
-158 3198 0
2535 -3123 0
-2498 1842 0
-1575 -1839 0
-315 3140 0
2742 -2598 0
-3241 3091 0
-135 -2729 0
-2689 1549 0
1782 2038 0
1367 2697 0
-1155 -2805 0
3330 3371 0
-3256 -1691 0
1912 728 0
1242 2490 0
779 -1080 0
-407 -3133 0
351 2072 0
-765 1786 0
-2975 -224 0
1786 506 0
-553 -1152 0
-1476 -206 0
50 2871 0
1281 -2651 0
2623 371 0
2437 854 0
567 -2031 0
1000 -2021 0
-407 -3310 0
3228 -1850 0
1125 2515 0
2727 -508 0
2107 2776 0
2416 -3157 0
3147 -1659 0
-2452 -1985 0
2483 -765 0
-2136 -2247 0
-104 1612 0
3524 3488 0
3362 1203 0
-1391 100 0
1218 -1654 0
889 80 0
2246 -2875 0
812 327 0
-1190 -1533 0
1070 2755 0
812 759 0
-2573 -2991 0
903 -2568 0
-1400 -1161 0
-459 1226 0
1560 2989 0
-540 3300 0
2744 -2311 0
1223 -1447 0
234 367 0
1780 -1947 0
-3359 -595 0
713 -3397 0
1877 -1021 0
2103 3373 0
-62 -1196 0
-2226 663 0
626 282 0
-2168 849 0
547 65 0
-3259 -1200 0
-362 3281 0
-3339 2592 0
-2027 3314 0
1960 -2488 0
-1506 -1757 0
-178 -2245 0
-2567 -211 0
-537 2840 0
2088 -1848 0
-1411 3311 0
-1806 2595 0
1147 -1394 0
1150 -2624 0
1023 -950 0
618 2431 0
439 761 0
-1250 1513 0
-2239 -2714 0
2978 2375 0
-1334 1591 0
3458 3070 0
655 1860 0
1675 -2177 0
1457 -2827 0
-2376 -70 0
-1437 365 0
-2431 -1072 0
-3163 -1348 0
-1189 1596 0
-108 1213 0
-2860 -1923 0
-2155 -29 0
1869 -2478 0
-1560 -1752 0
-2155 -3283 0
-2218 68 0
1778 1270 0
-560 -3427 0
-2678 -45 0
816 -2249 0
-670 -1774 0
237 -3491 0
-621 1109 0
2341 -528 0
1586 -1230 0
-656 3176 0
-185 -2496 0
-322 -690 0
1586 2204 0
-62 -2080 0
-1400 2585 0
-1840 -2901 0
2564 -3418 0
-19 536 0
-3033 1373 0
3482 -1894 0
-2404 2462 0
259 2849 0
-1603 -1252 0
-1805 1311 0
-618 -1410 0
1937 2259 0
39 422 0
1478 241 0
-1004 -1302 0
-3226 1392 0
3175 346 0
-578 1508 0
-2041 727 0
96 -1096 0
-3139 1977 0
-929 -357 0
-1507 1857 0
1031 -720 0
-2383 -1581 0
-950 -2474 0
1239 -678 0
-1587 812 0
-766 1447 0
425 526 0
-865 -948 0
1051 -2780 0
608 1083 0
-1251 2545 0
2156 2084 0
3015 -2934 0
2346 -1541 0
-2784 -508 0
-291 -238 0
61 2774 0
-2348 -1024 0
1730 2963 0
3417 -1683 0
-2896 -431 0
3382 559 0
-576 1644 0
2947 -2689 0
-789 214 0
-1430 2372 0
3295 -839 0
-2042 -263 0
-2887 -1449 0
707 458 0
1162 1693 0
-1070 2689 0
513 -2450 0
-2360 -124 0
-3241 467 0
3196 -3284 0
1485 -1305 0
-786 2654 0
2216 -1938 0
1193 1838 0
-1452 338 0
-193 1872 0
-2149 495 0
45 -3183 0
1174 -40 0
1928 -2112 0
-3393 2522 0
-2562 -3404 0
-1963 -3070 0
-861 2936 0
-1660 2794 0
-3342 1160 0
-2794 142 0
-172 -61 0
-1182 -1066 0
2117 -1870 0
3523 -1664 0
319 -3434 0
-618 386 0
1675 -2890 0
579 5 0
1533 1888 0
2762 -2954 0
576 480 0
-1353 -2417 0
-2217 1152 0
3219 3291 0
2398 1463 0
1827 1283 0
228 -3298 0
2496 2799 0
2072 -542 0
-730 1067 0
762 -1954 0
1720 -2613 0
-1679 1692 0
-161 -681 0
2327 2699 0
812 2566 0
-1759 978 0
-18 919 0
-2587 1382 0
992 2791 0
-2719 2661 0
-2572 -90 0
300 659 0
-1344 -2387 0
348 -155 0
-2701 3505 0
1446 667 0
2263 -1339 0
-2719 119 0
1583 2430 0
1131 1470 0
-2534 1332 0
-1909 1094 0
-3038 1713 0
-1215 2174 0
1432 2342 0
-814 2723 0
-1004 482 0
750 -587 0
2208 3066 0
2914 -1174 0
478 -582 0
1109 1962 0
2256 -3082 0
1187 2940 0
1331 1090 0
-2546 -861 0
-839 -2460 0
2959 2806 0
-2190 1205 0
-1417 2049 0
-1336 1531 0
3095 234 0
-948 306 0
-2929 -592 0
1511 1889 0
-482 -224 0
928 -1737 0
958 3308 0
1897 2492 0
-1214 853 0
300 -357 0
-541 -2037 0
-3264 1351 0
2822 -1696 0
-1348 -1662 0
-730 1860 0
-3463 1956 0
-1359 1514 0
-2399 940 0
-894 -3383 0
2741 -1822 0
2561 -342 0
-891 -2241 0
2517 -307 0
1539 -6 0
-1078 -3082 0
2691 685 0
-1844 -67 0
-2438 2566 0
1462 1003 0
840 2378 0
2843 2100 0
-1627 1438 0
-1384 1464 0
-2280 292 0
-1550 2912 0
2777 -131 0
-1731 758 0
-2846 -2172 0
-2385 -1727 0
1239 -1658 0
-277 -1220 0
-2481 -2054 0
2475 3132 0
750 -2604 0
-196 -154 0
2992 1584 0
-448 -3379 0
-937 902 0
297 -2976 0
-2383 -1714 0
470 3121 0
-2560 791 0
1083 -128 0
-2307 1875 0
65 -1719 0
2527 -2028 0
2508 -3118 0
-214 1393 0
1192 -140 0
3231 -100 0
-3263 -2852 0
-2859 1047 0
3193 2564 0
1492 3440 0
-2071 2713 0
-86 -2890 0
-2421 -3322 0
-376 2873 0
1404 -3494 0
1333 1787 0
658 -960 0
3425 3085 0
225 -2739 0
-3520 -666 0
951 -1046 0
1131 -2634 0
-1430 -1039 0
989 470 0
-149 1406 0
-2819 -2747 0
-2236 -823 0
2426 100 0
-849 3138 0
-2640 1282 0
3128 -2732 0
1669 565 0
-459 31 0
-3384 -3224 0
-1613 -955 0
-3305 2183 0
8 2767 0
-1831 -3504 0
-248 316 0
-2139 3055 0
-3100 1880 0
-609 -1988 0
-2869 2857 0
-1314 303 0
-2322 583 0
2770 -1712 0
3069 2161 0
-3141 2771 0
1035 3529 0
-1684 -1686 0
1141 -2662 0
-1763 542 0
919 3298 0
-1493 2550 0
-1209 2486 0
473 -1927 0
2997 -651 0
284 1855 0
2037 2357 0
3121 -999 0
-92 -1821 0
3226 -1242 0
-587 1054 0
-288 -638 0
-1445 164 0
-668 -892 0
-3201 3097 0
-3080 1074 0
-2151 -1316 0
-3303 192 0
-328 2243 0
1407 -1483 0
-2250 472 0
-59 1438 0
-2471 -1214 0
453 2770 0
3357 -2730 0
2769 3079 0
548 45 0
-298 -2300 0
1595 1238 0
-532 1780 0
1651 -2505 0
-1483 2192 0
377 1375 0
-3161 -51 0
1655 -1608 0
-496 3317 0
132 3313 0
2840 -2711 0
3048 -2259 0
2977 -1166 0
3170 2622 0
1663 -2203 0
-464 2081 0
-1502 -2240 0
1891 95 0
1881 1261 0
-661 3405 0
-1040 -2326 0
-1042 -1924 0
-2650 2849 0
-1238 585 0
-3449 2841 0
-673 -2002 0
-2325 -2514 0
-243 -232 0
-896 1945 0
-2058 3164 0
-459 -2772 0
-1551 -1691 0
1636 -474 0
2188 1762 0
-1840 2466 0
3317 -2007 0
2517 2515 0
2130 1236 0
1462 -2011 0
-2964 2527 0
716 -2596 0
287 -2728 0
-1151 1741 0
-363 3303 0
287 3506 0
-2788 -1163 0
968 -842 0
-1398 -3222 0
-2669 -627 0
2295 1896 0
-2624 1448 0
-828 498 0
-3445 -494 0
786 2716 0
1390 1447 0
-2920 -3365 0
777 1304 0
-594 -2987 0
-2380 -2880 0
330 2603 0
2489 637 0
-2571 -1003 0
-511 1213 0
837 -556 0
-1178 2773 0
-1004 513 0
738 -867 0
-1179 531 0
-1398 2237 0
-263 2522 0
130 2207 0
-1276 189 0
-1384 883 0
-3376 389 0
-2322 -2907 0
2465 -999 0
229 -689 0
-1672 624 0
-2274 -1169 0
3429 -1268 0
1451 1318 0
2297 8 0
2757 2778 0
-488 -2559 0
3075 -656 0
-1908 -2811 0
-165 136 0
871 -738 0
-2741 -2937 0
-839 -1075 0
-529 2219 0
696 -1867 0
1655 -1132 0
1213 960 0
-3109 -2672 0
-3529 1536 0
-1346 -2803 0
3430 1803 0
1799 -2724 0
-1817 1771 0
2908 2744 0
625 -2539 0
1967 -798 0
-2782 -2423 0
-2931 -489 0
3217 -1325 0
-877 -2316 0
-852 -1260 0
-3435 -3399 0
-2442 -75 0
2805 3516 0
-141 -3510 0
-2780 1018 0
-1997 2912 0
-2672 -1639 0
-2603 1583 0
-2715 -1001 0
330 1875 0
2540 3199 0
-1623 2132 0
-409 -3344 0
-3026 -2722 0
2389 448 0
1377 2805 0
-811 243 0
-828 2149 0
2476 -1294 0
1869 -1118 0
-219 315 0
-634 -1774 0
-3061 -1280 0
841 795 0
-3200 -393 0
-873 -515 0
2210 -495 0
820 707 0
943 695 0
-1935 709 0
1881 2252 0
2122 1424 0
758 3436 0
3189 2621 0
-2600 1446 0
-1785 -2355 0
-1608 992 0
-1319 381 0
2020 -635 0
-2018 -2646 0
1874 -580 0
1373 464 0
1245 1960 0
-784 3025 0
669 -1618 0
-1305 3068 0
-2003 3199 0
3383 -2350 0
-3479 -296 0
-140 -2968 0
-243 645 0
-2567 -2817 0
739 1627 0
2040 -3417 0
190 -2787 0
167 2168 0
-1752 2931 0
1378 -3310 0
-1508 -1970 0
-3083 2201 0
453 -456 0
-1075 1564 0
-577 2803 0
-1049 -3257 0
-2263 -3461 0
528 -2268 0
719 -3340 0
-307 2065 0
-2466 -621 0
1709 -447 0
876 -447 0
951 721 0
2225 1534 0
2879 2520 0
-1557 -685 0
2299 -2348 0
2728 2668 0
962 2119 0
-2701 -3029 0
-3399 -2996 0
1216 255 0
771 -2787 0
286 -2751 0
-1568 -1606 0
212 1134 0
-2041 2595 0
2187 41 0
-1924 2671 0
1515 3259 0
785 3264 0
-1732 -2004 0
224 -2737 0
63 -1561 0
528 -3521 0
-2074 -1359 0
1486 -2599 0
968 1462 0
1201 2664 0
-989 597 0
230 -934 0
-413 -22 0
-2354 3271 0
529 473 0
862 -1277 0
1061 166 0
-1351 3036 0
-3097 3009 0
-2727 888 0
-56 -987 0
-1650 -3323 0
706 915 0
525 -1504 0
2329 395 0
595 1120 0
-195 -2370 0
-1720 -66 0
-2233 -2896 0
-1407 -1717 0
-1618 -2780 0
2148 -876 0
-3001 723 0
935 -529 0
-3484 -1316 0
2904 -3343 0
1979 -2729 0
2614 3134 0
-1469 1015 0
1014 2226 0
-1125 1802 0
1911 -1539 0
-3382 2354 0
-2449 2261 0
216 3416 0
239 -1907 0
1111 2845 0
952 3175 0
-313 981 0
-2624 -2821 0
1643 1288 0
-3502 -711 0
2108 -1898 0
225 -1307 0
2784 61 0
1428 2183 0
-3078 1761 0
3290 -2787 0
3143 -1156 0
3173 -1616 0
-86 2798 0
1541 1674 0
-2718 3467 0
-2328 1056 0
-2085 2806 0
-2931 -1307 0
1261 -2568 0
-2967 -1006 0
3197 2161 0
-1268 -3427 0
3364 -2801 0
-566 -2511 0
-1670 3284 0
454 -851 0
334 1021 0
2194 -1592 0
529 -109 0
795 -537 0
-3158 -109 0
2771 -2208 0
2552 -2099 0
1929 -979 0
-1577 -2852 0
-1161 2677 0
-37 2833 0
-2858 2932 0
1849 2594 0
1414 -32 0
1634 579 0
2843 1196 0
-2005 3065 0
-3459 -2258 0
2942 -145 0
186 568 0
1749 -3504 0
-666 576 0
99 -67 0
-1249 778 0
-2946 -1089 0
-321 3017 0
2975 99 0
-2686 -121 0
473 2298 0
-691 3519 0
2049 -2319 0
-665 -2517 0
1453 -478 0
-2874 -1662 0
1022 -200 0
2228 -2053 0
1860 -2863 0
2087 2190 0
-1506 -2435 0
2327 -410 0
-1284 1423 0
-1433 -156 0
-2320 -2288 0
104 -770 0
-1696 239 0
280 1236 0
52 -1230 0
-2938 -692 0
-1788 -226 0
-1186 3089 0
-2008 -1583 0
2906 -939 0
-2114 3477 0
130 -103 0
1454 1728 0
-904 1944 0
-1919 -2658 0
-1185 -30 0
-679 282 0
778 -3235 0
-1219 522 0
415 -860 0
-1589 873 0
-1039 3299 0
-2689 -200 0
-555 212 0
-3293 1070 0
-2724 -1270 0
-3161 -1444 0
-3256 -2167 0
3338 -2157 0
-2178 2080 0
-3091 744 0
3128 3127 0
-1189 556 0
3197 1711 0
-3508 -3090 0
-2321 -3135 0
-840 -3525 0
1958 -2152 0
-1408 97 0
-311 -1983 0
3453 -2119 0
-2560 -492 0
796 -1692 0
2384 -3398 0
3362 -2006 0
2309 2862 0
1607 -643 0
-1750 -858 0
402 -1984 0
359 3444 0
671 -1267 0
-103 -832 0
1496 -2291 0
-2389 920 0
2092 -2766 0
499 2120 0
-1658 -158 0
608 -30 0
818 -2728 0
-3521 -926 0
3384 -2058 0
-629 -2617 0
-1645 -113 0
1043 3437 0
1462 -570 0
1680 -3315 0
-221 -466 0
-324 3097 0
237 -3495 0
-828 -58 0
-1734 -253 0
-3154 3273 0
3446 810 0
2501 2699 0
-2319 -3161 0
270 37 0
-3376 1141 0
2625 492 0
-1020 731 0
-1847 652 0
2885 3447 0
-88 -704 0
1280 -1042 0
-3403 1936 0
-257 1188 0
-3214 3221 0
-652 3440 0
-1542 -1512 0
3505 256 0
-1814 2199 0
-3399 -2349 0
-651 3333 0
2279 1008 0
-777 988 0
-2474 493 0
223 3272 0
-855 2135 0
2806 -1763 0
3470 797 0
2850 -2354 0
2648 -464 0
5 2922 0
1305 3189 0
1936 897 0
-236 4 0
662 256 0
-1984 -1044 0
2176 -1076 0
-1305 139 0
1247 1404 0
2569 1288 0
-1118 -2325 0
-1315 1474 0
-2347 -1474 0
847 -2792 0
1092 -1156 0
996 2268 0
-2663 -2560 0
-2605 -2000 0
800 2881 0
1328 -2425 0
632 -1273 0
-859 637 0
695 -1513 0
1320 1913 0
-961 2 0
-2009 1184 0
1196 2463 0
2210 2516 0
101 -589 0
3358 611 0
1463 -1030 0
-1725 3452 0
3140 -3185 0
2222 -1567 0
3120 1900 0
-632 -2712 0
-1068 -2586 0
2489 421 0
3275 284 0
1288 -354 0
2754 -384 0
3169 3237 0
1092 -2134 0
-1794 -665 0
-2751 1022 0
-2782 -729 0
2732 -394 0
1902 -3530 0
-423 418 0
-2835 -426 0
-1003 -2244 0
2161 1154 0
316 -1106 0
-1286 1202 0
