c NF
p cnf 2917 1458
-2467 2251 0
1449 -1404 0
-2447 311 0
1357 -2107 0
-579 -2225 0
-2093 -1526 0
-797 937 0
345 -2782 0
944 -1400 0
2603 1897 0
-2138 -791 0
2882 -2436 0
-2421 -1593 0
-1291 1742 0
2734 -224 0
-665 342 0
1061 -966 0
-2333 -1842 0
2028 -124 0
1272 1724 0
-1896 -1640 0
-2424 -666 0
-829 705 0
-1794 -414 0
-798 1427 0
154 -1746 0
-379 204 0
149 -1002 0
1490 1803 0
-2899 -253 0
2343 -2101 0
2696 -2548 0
1627 -1220 0
417 2654 0
1649 -151 0
2547 2861 0
-1270 2877 0
-2883 2867 0
2724 -2877 0
-480 -2529 0
-1441 -2651 0
1456 -2200 0
-893 1080 0
842 2551 0
-2072 -915 0
799 -680 0
628 -1904 0
-2021 -800 0
74 1191 0
2417 53 0
-2747 430 0
-2617 -55 0
-489 381 0
2202 -35 0
2291 2338 0
-770 485 0
-540 -2150 0
1055 96 0
2609 1026 0
677 -984 0
-2359 -1778 0
-1438 37 0
-1120 1695 0
-2612 -2271 0
1329 1159 0
1173 -899 0
-299 2698 0
1148 112 0
-1195 1918 0
-2093 -2032 0
-2243 -240 0
-2178 -281 0
-2164 2519 0
-123 -1712 0
-786 1375 0
-1770 1762 0
766 -1337 0
-1246 -1591 0
-692 2845 0
1972 639 0
-2827 -1677 0
1681 -2889 0
2793 2068 0
395 1102 0
712 -2039 0
-178 -2750 0
-1879 -2827 0
-2141 -61 0
1199 2289 0
-2277 -1634 0
2166 -2642 0
-1400 -454 0
-1416 -1959 0
-2908 -815 0
2340 2050 0
-2149 1752 0
1970 -306 0
242 805 0
-1203 2152 0
-2100 -2136 0
81 1754 0
-662 -291 0
1863 2607 0
2327 -2276 0
2628 -1443 0
196 -2550 0
-1154 1464 0
-299 -1181 0
610 -1167 0
-1769 -1868 0
-2713 -518 0
-2044 1134 0
953 64 0
-2477 -1252 0
-2492 -2527 0
-1910 2848 0
836 82 0
1357 -783 0
2509 -2543 0
137 -1351 0
5 -731 0
-107 -2148 0
2432 1848 0
1666 494 0
-919 105 0
38 -622 0
-2872 87 0
-2456 571 0
1797 -1295 0
-1740 1803 0
-223 782 0
2598 1871 0
2674 1619 0
2404 -713 0
-2468 -2044 0
2052 411 0
2434 -2001 0
377 -2129 0
-1387 -2862 0
-1543 -2455 0
-1730 819 0
-1276 -1956 0
71 371 0
1830 -1665 0
-1349 167 0
-2460 -334 0
108 954 0
-424 -1181 0
1846 2566 0
986 -603 0
-1571 -60 0
-1812 -2914 0
-35 1037 0
-2301 995 0
558 2095 0
849 2911 0
-2731 2411 0
2815 -46 0
-1773 -657 0
-342 -574 0
2292 2011 0
793 1167 0
-2349 1699 0
788 2235 0
1994 73 0
-2246 2389 0
-1989 642 0
-1322 -414 0
-2250 1055 0
316 -2630 0
-2026 -1799 0
558 222 0
1212 1106 0
2249 -279 0
789 -1238 0
-1868 841 0
-2182 2483 0
-507 -2233 0
2453 -860 0
-887 2136 0
-1192 -559 0
-2651 -1308 0
-1475 -1991 0
2490 1743 0
-2830 -1071 0
2555 1980 0
1225 2911 0
-199 1350 0
190 1428 0
1549 1459 0
-1923 2876 0
-2203 4 0
-1132 639 0
1796 -2909 0
-2553 -562 0
-2582 -391 0
849 2850 0
-2508 -232 0
-1989 -2794 0
678 2035 0
2174 -2142 0
150 1003 0
-736 2595 0
1755 562 0
-2133 -1775 0
1212 -920 0
-1518 1990 0
1734 1862 0
1929 2265 0
-1584 1930 0
-441 -594 0
-351 699 0
-2893 -2431 0
-1705 -1039 0
-2008 1237 0
1293 361 0
-233 -520 0
2058 -2440 0
-2195 -1287 0
1290 -2891 0
-2071 -1744 0
-485 1612 0
1555 -2209 0
-343 -347 0
-1187 -1583 0
1435 -1499 0
2749 -2744 0
-1861 18 0
2166 -1731 0
587 -2318 0
-2032 69 0
-921 -1585 0
-733 2784 0
-914 441 0
-1699 -1067 0
1113 -518 0
-2900 1445 0
2047 -158 0
-1945 640 0
1940 2513 0
-951 2090 0
-1664 -1222 0
298 2563 0
-1657 -1686 0
1515 -1251 0
-562 1066 0
2650 -2671 0
1280 598 0
-2763 2358 0
1936 -1996 0
-2364 -936 0
2762 1755 0
-1382 1937 0
557 22 0
-1553 692 0
-1678 -2225 0
-366 -1124 0
265 2638 0
2521 1943 0
-2335 1799 0
321 -2584 0
-224 2296 0
-1413 922 0
2101 -966 0
-797 2407 0
2146 -63 0
1615 1627 0
-2481 -1458 0
600 2216 0
-136 1499 0
2241 1139 0
2855 -1395 0
-2038 -1437 0
-1632 528 0
-21 973 0
2301 -1991 0
629 -2675 0
-1226 2688 0
141 -1294 0
520 -1051 0
2787 355 0
-43 -1354 0
-2214 841 0
-1221 -1433 0
153 255 0
-1228 377 0
-256 -223 0
-132 2209 0
-2889 2777 0
1767 -2873 0
231 -855 0
1042 -550 0
-1212 -1463 0
2191 -306 0
-426 2476 0
306 -1989 0
2367 1394 0
-2756 690 0
-974 -2477 0
347 2408 0
386 803 0
-825 2157 0
2266 985 0
1949 -75 0
2682 -1303 0
-2564 2213 0
-601 2099 0
1921 1680 0
696 -533 0
786 -2863 0
-2474 -2677 0
-2397 -1454 0
1677 2120 0
-2896 -2235 0
-933 1776 0
-2538 2826 0
1781 -2284 0
-826 -1506 0
-987 -555 0
727 -1267 0
2108 -1605 0
-914 -621 0
-544 -2414 0
-86 2363 0
-1081 1741 0
542 133 0
117 317 0
557 -1114 0
426 -1662 0
196 2832 0
-2548 -757 0
986 865 0
1111 2382 0
-981 627 0
2018 -1830 0
2310 -2690 0
-1670 -1290 0
-1629 2637 0
2217 77 0
900 1534 0
529 -2637 0
-1141 -1640 0
-1036 -1721 0
2417 -87 0
2343 814 0
2098 2602 0
2657 -171 0
1958 -1989 0
2411 679 0
1008 -1006 0
-2529 -2588 0
-2410 1901 0
979 447 0
-2195 -2883 0
851 -1963 0
477 -518 0
-502 1469 0
-908 152 0
333 2114 0
-1634 2528 0
-1271 -1317 0
1551 1013 0
1334 -795 0
-403 2561 0
2509 2052 0
2146 2713 0
-91 253 0
-2421 1556 0
2896 379 0
1449 -2855 0
1861 -1430 0
200 -2625 0
1023 -1436 0
-1422 -41 0
-2378 -140 0
2107 475 0
455 728 0
1583 -2406 0
2523 -513 0
2818 2285 0
1227 -1713 0
49 -1008 0
1782 2375 0
2220 -1603 0
1947 -36 0
-2183 311 0
2465 1078 0
963 2523 0
1981 1572 0
1149 1023 0
-2509 1190 0
-1964 -1721 0
-1686 901 0
2538 2321 0
-2525 -403 0
1753 1009 0
2810 -1968 0
2586 -1770 0
664 -381 0
2321 1812 0
2074 1422 0
780 -2120 0
571 -2088 0
1492 1474 0
2803 -2294 0
-2458 983 0
-584 -1327 0
-469 1153 0
455 -2481 0
-848 494 0
761 1390 0
-220 83 0
433 -1768 0
1750 -405 0
-1031 -2001 0
964 -1688 0
-1351 -191 0
-1326 -1469 0
1842 -2092 0
1667 2324 0
-1083 -159 0
1718 -1514 0
1548 946 0
2158 6 0
2656 758 0
-665 1747 0
1655 147 0
897 -1133 0
1085 -620 0
-828 1042 0
940 -2634 0
-259 -2734 0
-1826 2770 0
-363 2237 0
113 1300 0
96 -472 0
-2324 -881 0
-795 2193 0
-2479 457 0
859 -1893 0
2524 -2022 0
965 -1260 0
2849 1983 0
-2876 -2878 0
2738 1568 0
1059 2810 0
-1324 -382 0
-722 1099 0
-2652 245 0
2655 -1824 0
1987 -1664 0
-726 1223 0
1366 -1710 0
-535 1367 0
2507 -580 0
-1762 -236 0
-1496 1576 0
973 -1997 0
298 -2831 0
-722 297 0
2188 -538 0
518 -2190 0
751 -1550 0
-1387 -861 0
527 -1097 0
631 2334 0
-25 -2435 0
1290 1403 0
168 -2842 0
-1012 -1280 0
2851 -1728 0
71 12 0
-899 -2309 0
1769 1720 0
1226 -869 0
2150 2316 0
-2906 -2000 0
-2058 2152 0
1476 -2340 0
-1706 358 0
1723 1802 0
1872 -2496 0
-666 -994 0
-1007 2048 0
-1187 428 0
-599 -1920 0
-846 -2082 0
-449 -305 0
437 2401 0
840 2801 0
-2852 -1716 0
378 -2086 0
-2386 -1944 0
-2595 1649 0
1557 209 0
-786 -1562 0
1712 -1163 0
920 -1903 0
1900 -280 0
-832 519 0
-1498 492 0
566 386 0
609 -1866 0
198 -576 0
1495 -1791 0
-923 1922 0
1205 -187 0
-1596 -1400 0
-1284 -2162 0
-1435 1614 0
-983 -2328 0
1751 853 0
-217 -777 0
-734 711 0
-43 665 0
2133 2345 0
2499 -1178 0
-1863 -832 0
-2568 -1513 0
121 -1987 0
-1277 429 0
-1171 -2089 0
-669 620 0
-281 801 0
-808 136 0
1459 -2314 0
2142 -2212 0
-656 -688 0
-2371 608 0
-814 2483 0
1388 -2458 0
2504 -585 0
2339 -1066 0
-2444 -2359 0
2574 1712 0
-1213 2481 0
385 -408 0
-1504 1902 0
-1434 781 0
-41 -1686 0
54 939 0
-1006 750 0
1876 704 0
271 489 0
1105 -513 0
1507 2245 0
-740 -2256 0
-1514 -2553 0
-487 1484 0
1239 -981 0
-2909 -119 0
728 283 0
-982 -971 0
-2163 -2646 0
-163 -1264 0
-142 -595 0
-2628 -82 0
-30 410 0
-463 739 0
-78 1877 0
1123 2049 0
1933 -1268 0
1885 -366 0
-369 837 0
-2382 -3 0
1902 -1960 0
-252 -2911 0
229 2788 0
-765 526 0
-667 832 0
2151 -2186 0
2396 283 0
2705 -1180 0
2145 -2046 0
692 1967 0
142 -2607 0
-761 -474 0
-2355 204 0
-665 -2862 0
-1497 397 0
-2309 -1443 0
1677 -1661 0
2088 -1931 0
-861 991 0
-2533 1504 0
39 -2442 0
2765 -847 0
2340 36 0
-875 -1460 0
-2036 2611 0
279 1981 0
6 -1832 0
-2810 -2527 0
1256 331 0
-500 -171 0
881 -2696 0
-1313 1321 0
-537 -725 0
1370 -1255 0
2618 -34 0
624 -42 0
1037 -2843 0
-2344 -50 0
-1692 -345 0
2527 -2827 0
-1819 243 0
542 972 0
-918 2814 0
355 -790 0
-1005 -474 0
-545 2914 0
973 2807 0
-357 1911 0
-2312 -189 0
2573 294 0
2501 -2568 0
1591 -2527 0
2525 -2760 0
-1572 -2590 0
-2434 1535 0
-2397 -761 0
2847 2074 0
-925 -530 0
1028 2859 0
2748 -608 0
479 2733 0
2507 1383 0
206 951 0
-1910 -186 0
633 2219 0
1476 2898 0
50 4 0
-2597 -920 0
2737 1353 0
-580 180 0
-411 2343 0
-736 -2546 0
-2064 -1970 0
1889 2657 0
-1385 1090 0
-2826 -1020 0
-2894 1683 0
-891 -468 0
1234 2720 0
987 -1600 0
-157 -1583 0
471 -1752 0
-959 1052 0
114 1026 0
517 -1118 0
300 -2014 0
1078 -557 0
-2685 727 0
-1011 -1396 0
-1400 -175 0
-2586 876 0
-677 -1504 0
2880 1992 0
2535 1891 0
-1536 -2011 0
426 -2542 0
-1079 2854 0
2394 204 0
323 -1274 0
2535 -2319 0
51 2719 0
-1893 1391 0
-708 -2753 0
-1806 766 0
-481 920 0
1048 843 0
-410 505 0
-2712 913 0
125 -1901 0
35 400 0
-2128 2917 0
1944 2292 0
-2203 467 0
940 1161 0
-777 1662 0
-2069 2914 0
1561 2729 0
-1890 589 0
-835 846 0
293 -214 0
510 879 0
-900 -450 0
568 2780 0
1080 893 0
-490 1543 0
-1663 377 0
2283 -1458 0
-1899 587 0
-353 316 0
-2154 -1269 0
1885 1323 0
1916 -1131 0
-2378 -2702 0
1598 -1885 0
-1661 1239 0
-561 -946 0
1191 1284 0
-2720 -1180 0
1818 2802 0
-2189 -2701 0
-811 -2636 0
1872 -811 0
2207 -134 0
-19 2193 0
2503 2167 0
1370 1268 0
2137 1871 0
1271 1150 0
-607 871 0
1725 -2167 0
-2828 -628 0
2225 -975 0
1354 -1061 0
1558 -368 0
331 2586 0
-2231 -2235 0
-1804 -702 0
2529 389 0
-2831 -2318 0
576 1834 0
-2510 1804 0
-2541 337 0
253 -2055 0
-1196 2670 0
-1744 -855 0
2495 -2867 0
-155 374 0
675 -954 0
-1054 1484 0
1261 202 0
-232 563 0
-2312 -2543 0
-104 1155 0
-2026 -2473 0
917 2488 0
2196 609 0
865 -367 0
-1570 -2211 0
664 306 0
-2260 -2649 0
1801 -348 0
2720 -507 0
-155 -1032 0
820 1558 0
1191 2812 0
98 2717 0
-272 2878 0
-2369 -762 0
913 1836 0
-2874 2899 0
-1708 70 0
-503 -867 0
-1705 1115 0
1810 -1794 0
-21 805 0
1176 2758 0
1474 919 0
1427 2663 0
-224 -2163 0
-205 -2641 0
941 2524 0
-2374 -577 0
1460 -820 0
-1430 -1281 0
1102 -1365 0
1789 -1125 0
245 -2297 0
768 1928 0
-1166 -90 0
-1826 99 0
689 -134 0
1720 2450 0
-1661 1405 0
-1158 2765 0
2857 1450 0
511 526 0
-2817 -544 0
1051 -518 0
1447 1388 0
358 -2547 0
18 152 0
2049 2400 0
-1910 1897 0
2636 -595 0
-744 1787 0
-903 -1746 0
-1519 126 0
-2619 2697 0
715 -346 0
2171 212 0
-1984 1921 0
2226 1853 0
-1710 -1605 0
63 341 0
710 -375 0
-166 1964 0
937 -884 0
-395 -1778 0
-1158 -326 0
-698 2319 0
1645 -849 0
86 179 0
-1960 2473 0
2238 123 0
-2475 -2614 0
-754 762 0
-1731 -2761 0
-2107 -1524 0
1883 377 0
2052 860 0
116 1727 0
-908 -1567 0
205 412 0
-1489 2831 0
1547 -2284 0
168 -11 0
-874 1329 0
-1296 2857 0
-1987 -599 0
-2527 -1514 0
-853 46 0
-1317 2011 0
1100 -2023 0
1469 1548 0
31 1162 0
-2674 -543 0
1668 -861 0
-2756 -1555 0
-988 -984 0
-2632 2727 0
-1315 1603 0
2637 -734 0
2453 -1575 0
-107 698 0
-2376 -1795 0
1695 2342 0
-1256 2017 0
-2068 -213 0
2202 2402 0
1186 -2567 0
782 -347 0
-2269 -2552 0
-734 -289 0
856 33 0
-2567 158 0
2870 1967 0
-810 2169 0
-2249 504 0
-903 340 0
-353 -980 0
-2632 -774 0
1367 1221 0
1309 2838 0
-1218 1383 0
1330 905 0
-1307 974 0
1333 -1011 0
2782 -263 0
-1790 934 0
-726 598 0
1653 -2560 0
2220 434 0
2423 922 0
891 2611 0
-2204 2662 0
-1599 -663 0
480 2757 0
-2354 1137 0
-559 302 0
627 1048 0
-1954 1777 0
-1803 2194 0
-1596 -276 0
2498 2338 0
-2430 -1194 0
-2780 2399 0
1599 -512 0
-898 1245 0
762 -167 0
681 -2888 0
-1126 -2850 0
-1417 -849 0
-2252 1981 0
2491 -1478 0
630 2445 0
-1535 2559 0
1273 -137 0
1229 1290 0
-382 -1630 0
-1682 -2689 0
-1906 -632 0
-465 -931 0
885 885 0
-2449 -2312 0
-565 1602 0
2437 -868 0
-541 558 0
1048 1228 0
-822 -351 0
-1397 2845 0
-115 -45 0
447 1399 0
-1775 1491 0
-2251 2616 0
-1864 1751 0
-2155 -1473 0
-2896 75 0
2754 -1574 0
2184 1839 0
-2302 45 0
-2133 2764 0
-79 -980 0
845 834 0
697 -2436 0
-1000 409 0
-951 449 0
2890 1774 0
711 2786 0
-1111 2346 0
487 1464 0
-2176 -948 0
139 -2318 0
-1146 1138 0
611 -1218 0
2215 745 0
2340 -1326 0
-1614 -2434 0
541 -493 0
1557 -1323 0
1666 -2421 0
-266 1871 0
-1989 428 0
-1536 2090 0
214 -1714 0
-2116 -2513 0
1561 1325 0
-2518 -1811 0
2602 -1651 0
2371 -1172 0
-2344 -1459 0
1223 1380 0
-869 -2538 0
-716 1520 0
299 2571 0
-322 388 0
1130 293 0
1901 -2372 0
-657 1109 0
889 -788 0
2213 729 0
1829 -2414 0
-398 2229 0
-1029 -152 0
248 175 0
202 -1892 0
-1912 -1564 0
639 588 0
-424 -826 0
39 1121 0
-2744 1472 0
-753 -599 0
381 -1578 0
-960 4 0
357 2656 0
-722 1241 0
-2792 -1497 0
-697 2589 0
484 836 0
-2792 -39 0
-1619 1190 0
-2371 -2488 0
-186 -2171 0
-1629 -1545 0
903 1128 0
2444 -100 0
-2540 2631 0
-568 2291 0
-242 2853 0
2165 -1690 0
-2275 1260 0
656 -21 0
-2199 -512 0
-2687 -1822 0
-2085 -1233 0
-2043 1924 0
-606 -1577 0
1228 -83 0
-2198 575 0
118 2381 0
2051 2789 0
-2868 -1307 0
2305 -755 0
878 -135 0
1940 1944 0
-71 2137 0
-2528 -766 0
-1510 -18 0
2602 211 0
881 -2625 0
-2140 1727 0
-2467 2120 0
89 -1867 0
1567 2874 0
1661 -2493 0
2729 806 0
-1810 2662 0
-1760 -1172 0
-1879 -1535 0
-2631 1013 0
-1904 -1407 0
2817 2275 0
2508 2702 0
-1570 -2472 0
-1613 -2083 0
297 1130 0
-237 -2522 0
2014 -718 0
-1111 540 0
-2190 -2216 0
-760 -581 0
1173 2104 0
2807 -421 0
-408 -674 0
656 1298 0
2017 -160 0
561 995 0
-1509 -2619 0
857 1330 0
1221 -880 0
-2846 1690 0
1052 -594 0
1722 -2055 0
452 1327 0
-662 -1984 0
-2278 2172 0
1055 -2369 0
-646 1140 0
-654 -1100 0
464 2767 0
-2247 -2190 0
-59 -2712 0
-248 2362 0
-2227 207 0
-2761 -1980 0
1642 -1711 0
-1454 -1612 0
745 583 0
-2109 -715 0
935 -1119 0
-1112 2330 0
-864 -850 0
2711 58 0
-2120 -1964 0
1398 1604 0
264 -847 0
1247 714 0
383 -548 0
589 2070 0
-514 -1625 0
-1628 1517 0
-884 -1279 0
974 2534 0
-2579 2250 0
952 2464 0
-1472 -2180 0
-1471 -2032 0
-311 -1408 0
-1122 -2041 0
-1856 709 0
2390 1626 0
-2096 491 0
-812 -1960 0
-2486 -96 0
-1504 2882 0
-2897 302 0
1069 2778 0
-859 -1729 0
-230 2104 0
612 -408 0
-577 1838 0
1230 1504 0
2290 -2763 0
-835 -847 0
-1196 -1092 0
-462 -188 0
-1485 2356 0
-453 1381 0
2894 848 0
2844 -1999 0
676 114 0
-973 -2091 0
1353 2241 0
-1390 -537 0
-2304 -2065 0
1887 75 0
1056 -1930 0
1525 -980 0
-253 -515 0
2580 2801 0
1099 -1692 0
2835 1839 0
-849 558 0
-2077 287 0
-1054 1796 0
561 -498 0
109 2300 0
-2560 2593 0
340 1422 0
-2730 250 0
600 -2726 0
277 -589 0
284 -1775 0
-1513 2658 0
-1892 128 0
1976 1159 0
-595 -2038 0
1752 -2303 0
-1588 -2608 0
-1793 718 0
-1317 -798 0
-2160 -491 0
362 1980 0
2123 -2160 0
-438 -1613 0
1449 1981 0
-1616 2558 0
-1104 963 0
1094 2572 0
2534 -961 0
1518 809 0
409 -78 0
-1850 -1430 0
-2889 1763 0
-1180 -495 0
596 2759 0
1201 625 0
2864 -1015 0
-2395 1898 0
1459 -602 0
-1768 -56 0
2350 2564 0
1446 -1468 0
1928 -2346 0
1916 375 0
-1991 268 0
1885 2835 0
2503 942 0
-818 35 0
-791 -968 0
277 2709 0
948 -2555 0
2427 -1340 0
1541 84 0
1365 2844 0
-534 1902 0
-1868 -754 0
1189 474 0
-1517 2137 0
535 -2636 0
1917 -625 0
-354 -639 0
2177 2292 0
-2018 -2021 0
-1297 -1521 0
845 1370 0
57 2896 0
1836 216 0
104 1767 0
-1945 -1682 0
2821 -734 0
1468 1838 0
2863 -2016 0
1022 1196 0
-492 2326 0
-2841 -2896 0
416 1393 0
1117 -2399 0
2571 -1600 0
2902 -1171 0
-1096 1507 0
-793 1273 0
2563 -2606 0
2721 -2465 0
-1606 118 0
-1478 -2270 0
-412 -694 0
-1888 2861 0
-2495 1402 0
-936 -1553 0
-201 -1335 0
925 -648 0
-2193 -2780 0
-548 -785 0
-525 1530 0
648 2890 0
1728 1859 0
1323 -47 0
1259 -1421 0
-269 -1038 0
663 776 0
-192 2519 0
1258 -374 0
1933 198 0
-705 776 0
-1461 -2670 0
-1047 1924 0
-462 460 0
104 64 0
83 1459 0
1178 1768 0
-908 1419 0
-73 -1385 0
-617 273 0
-2162 1648 0
826 711 0
-854 2658 0
1477 -1214 0
634 -811 0
-2314 388 0
-2033 -1834 0
690 948 0
-1046 2194 0
-2160 1772 0
-1538 928 0
-2155 2813 0
-434 -1219 0
1532 353 0
1359 -1973 0
1567 -2335 0
174 -2560 0
1053 -149 0
-37 2688 0
388 -2519 0
2544 -2773 0
1710 -514 0
-135 2718 0
2126 292 0
571 62 0
597 1045 0
-2008 -133 0
659 -1256 0
411 2102 0
2877 -65 0
1055 878 0
2811 1476 0
2637 -2469 0
-2642 -959 0
-2511 2020 0
-1146 -2161 0
613 -126 0
-1603 1293 0
1671 2096 0
-1867 -1276 0
568 2564 0
543 2485 0
-1422 1221 0
2856 -866 0
-692 1947 0
-797 -2250 0
-2772 2392 0
-1502 2869 0
2154 -971 0
-2810 2102 0
-1928 1299 0
1405 1403 0
-2810 1842 0
-376 -327 0
-1977 2512 0
-779 -874 0
-721 -257 0
-1326 -1555 0
-1157 2831 0
-2728 844 0
2056 2167 0
-12 2455 0
-2190 -2640 0
-494 2470 0
-341 1883 0
-1033 -2176 0
1228 -2805 0
-638 1933 0
290 2284 0
-424 597 0
1007 -926 0
2287 -1357 0
1476 495 0
2406 -715 0
-1751 2108 0
-2004 -737 0
-2734 -2178 0
2812 -1142 0
1226 1821 0
-41 1471 0
-1033 -2871 0
2172 1149 0
-401 262 0
-1677 1137 0
-917 2081 0
1402 836 0
-2400 -2195 0
701 447 0
-737 -51 0
541 464 0
1162 -512 0
1500 -932 0
1390 444 0
-874 -1360 0
1064 2339 0
-151 -2731 0
-1634 -257 0
1132 -1773 0
276 -136 0
-1784 2771 0
1042 2708 0
-878 1886 0
2175 -1186 0
2483 -352 0
-1125 -1629 0
-282 -251 0
706 -716 0
2465 2241 0
1218 -1422 0
-555 -576 0
2795 695 0
-971 -2463 0
-89 1252 0
2755 1559 0
39 -220 0
578 1531 0
-1943 2031 0
-301 2424 0
-2336 -2745 0
384 -2147 0
-1670 -155 0
2697 -440 0
-2468 -2388 0
-1788 -2667 0
-2347 630 0
981 -969 0
-2374 -1136 0
1018 2574 0
2698 -748 0
-1607 1614 0
2297 -172 0
2238 -73 0
-1297 -2414 0
-1196 958 0
65 1330 0
-2644 -1697 0
1059 -518 0
-168 -726 0
-1866 -2579 0
2797 -749 0
-2819 -622 0
-1219 2292 0
-326 -544 0
2875 -1832 0
1622 1122 0
953 1642 0
2707 -1611 0
1343 381 0
-2682 1163 0
16 2766 0
1467 109 0
1874 -1214 0
613 1849 0
-1625 -2459 0
-2362 1137 0
-2889 -1074 0
-1858 201 0
350 185 0
2810 -1071 0
2051 2837 0
2450 -961 0
-1086 -1689 0
94 1413 0
2165 873 0
982 -2724 0
740 801 0
-2804 111 0
568 1410 0
-2375 -315 0
-1581 2623 0
-1714 2791 0
-767 1137 0
371 2289 0
-2560 2787 0
1919 -117 0
-654 -114 0
-1396 -2149 0
-2366 -2384 0
-311 409 0
-2780 -268 0
-2248 629 0
-423 -880 0
358 938 0
87 -2118 0
915 56 0
-1169 293 0
378 -1650 0
1623 -2074 0
1843 1479 0
-1532 -1620 0
1891 -819 0
1422 1980 0
-2208 183 0
-1400 2081 0
-1471 -1487 0
-936 1217 0
2869 -847 0
-2899 -2247 0
2254 2225 0
-2086 62 0
1550 2273 0
-1180 1265 0
-1662 139 0
-2216 939 0
-2602 -12 0
96 -1977 0
2315 112 0
-2643 -1127 0
956 1840 0
-1131 2815 0
-853 -949 0
503 1023 0
-2698 2729 0
1607 1769 0
-1645 76 0
1808 2724 0
1955 2853 0
964 1343 0
-2218 1423 0
-1183 -2406 0
-2274 -41 0
-2673 -2076 0
242 2139 0
-578 661 0
2417 -212 0
757 -2121 0
1232 -1255 0
-389 1569 0
-646 -2217 0
1987 1821 0
449 -104 0
-2258 1718 0
-2751 219 0
2138 2060 0
-1987 -452 0
-2749 2100 0
2369 -1723 0
-2007 -50 0
-2691 -598 0
-2652 -143 0
