c NF
p cnf 4755 10461
-4547 3483 0
2607 -240 0
-3365 -4015 0
630 -4722 0
3511 -1753 0
-4014 -3285 0
-2015 -4058 0
3408 1318 0
-4214 -839 0
1341 -2653 0
-97 698 0
2187 -177 0
-4153 3041 0
4374 -3923 0
83 104 0
-730 1648 0
2767 -1036 0
-3788 1846 0
2171 -966 0
-2215 3152 0
1367 -2232 0
153 -2236 0
1117 -4375 0
1787 -1919 0
-3767 -555 0
3700 -3028 0
3206 -2533 0
3473 -2905 0
2718 3661 0
3586 2492 0
1741 3763 0
4330 29 0
-1536 1765 0
-4506 -3194 0
3417 2271 0
-4326 811 0
-915 3311 0
1736 -3964 0
-4616 4362 0
-3329 -4323 0
2351 485 0
-3 950 0
-3195 1378 0
-4431 -861 0
3360 -2489 0
1724 465 0
4390 1405 0
4501 3432 0
1342 -2920 0
-1668 3179 0
-2337 3868 0
935 2851 0
-4009 290 0
3216 704 0
-2568 -1395 0
2104 -4178 0
3159 3546 0
4321 4690 0
3656 -2533 0
-882 -1356 0
1157 2282 0
2131 -4650 0
1057 1429 0
-3023 -2089 0
3736 -279 0
3223 2468 0
3853 626 0
1456 176 0
188 -4658 0
3174 -1397 0
4529 990 0
-3684 3238 0
-2681 4692 0
4052 -4481 0
-2765 -3505 0
-4141 2071 0
2958 -4636 0
4523 555 0
-2614 1909 0
4416 -3181 0
-1547 -4287 0
2385 -3537 0
550 340 0
-2573 135 0
-3893 -2965 0
-2563 2541 0
2975 -1010 0
-4652 -3347 0
3434 981 0
-761 -1460 0
1436 -1952 0
-762 -4530 0
-2076 -3505 0
3552 -403 0
4536 3521 0
-1527 4553 0
984 2889 0
7 739 0
2341 -4448 0
1558 -1699 0
889 -1686 0
-1804 1597 0
-615 1878 0
-2063 -3040 0
4173 1787 0
1043 1195 0
-1071 3690 0
365 -925 0
-136 961 0
1686 498 0
4662 -1538 0
4273 -2301 0
1268 4631 0
1103 458 0
3026 2827 0
-1095 2440 0
1808 3511 0
-2237 -1058 0
1085 4536 0
3413 3020 0
766 1977 0
-1621 3116 0
-2913 -187 0
-3305 -1228 0
-1799 -310 0
3238 -3909 0
-4007 -1719 0
3290 1347 0
-1418 641 0
4280 -3920 0
392 4618 0
-4131 2678 0
4394 3135 0
2887 768 0
918 -240 0
-3019 2340 0
2231 -4609 0
-1704 3293 0
1457 -2154 0
2802 2945 0
3822 -3975 0
-3034 -913 0
-2386 4500 0
-566 1935 0
397 3291 0
768 -3539 0
-999 -2415 0
-3605 1220 0
495 1799 0
7 3726 0
731 -3969 0
-1378 -2427 0
598 1112 0
2431 -1672 0
-2086 -3057 0
-1471 -3606 0
2046 -606 0
3632 256 0
-1049 -3254 0
1685 1733 0
-696 3043 0
1547 -4432 0
4401 124 0
810 -3565 0
3081 -2868 0
286 -4459 0
2355 -4035 0
-1119 -688 0
2608 -4390 0
2384 -736 0
3209 -1911 0
-1270 3447 0
2797 -186 0
3655 1185 0
-4636 -417 0
2946 -2855 0
-4689 917 0
1382 3215 0
4325 -79 0
4561 761 0
-2069 458 0
1332 659 0
-897 -3075 0
-3242 2962 0
-3954 -1137 0
4006 4158 0
4525 -1354 0
-4322 755 0
776 -2950 0
4205 -3773 0
-1006 2573 0
-4332 -541 0
-3195 -3068 0
970 4338 0
3045 435 0
4344 4407 0
-4030 285 0
-2616 -2217 0
4538 -3477 0
196 2236 0
1042 4284 0
-2659 3027 0
-1693 -4755 0
-709 653 0
-3508 4579 0
-4250 1526 0
3549 -3293 0
-3459 258 0
-878 2382 0
1232 3661 0
-3422 -4480 0
-3909 -4653 0
327 -4426 0
2395 -143 0
1218 -616 0
-2100 1593 0
-2773 -1362 0
-2388 -431 0
-1899 3351 0
-4126 3824 0
3084 -3842 0
2133 220 0
-2301 -2320 0
-2998 -275 0
-3208 4724 0
3410 4463 0
-3251 4333 0
-1388 525 0
4660 707 0
1096 -2785 0
-2432 -3085 0
-2670 3628 0
-4721 4719 0
-4214 2626 0
-3098 -1219 0
-1164 2370 0
-4624 -1994 0
3921 -802 0
803 4050 0
-3344 1248 0
4143 973 0
-4565 712 0
-3847 3686 0
100 -677 0
4268 -1883 0
2739 3955 0
4371 2780 0
1374 -4555 0
-2596 1452 0
4565 -2688 0
-3271 -890 0
-4262 1234 0
-788 4625 0
-288 1911 0
1836 -4593 0
-4018 891 0
-1841 -4394 0
2845 -4156 0
1400 -3812 0
2546 -3125 0
-4347 3794 0
2970 -1640 0
-616 410 0
-1272 4730 0
3471 3081 0
-3057 4175 0
2590 -1024 0
962 2858 0
-332 2473 0
162 -1324 0
-3596 -2504 0
1745 2121 0
-3994 -3706 0
86 244 0
2413 -4546 0
4164 4203 0
3364 -4494 0
1705 2004 0
-117 -2964 0
4442 -1234 0
2659 -2320 0
-1642 -2454 0
637 86 0
4023 -1331 0
-2893 -3170 0
4724 -4561 0
3476 1652 0
4112 2850 0
-429 4251 0
4040 -669 0
4737 1551 0
3479 -696 0
4267 -3380 0
-268 1404 0
2408 -1050 0
-4658 -1554 0
-1778 2272 0
1907 1545 0
-4292 -3385 0
4599 -4724 0
-2516 -1652 0
666 3792 0
-3243 17 0
-4037 1371 0
1331 -3906 0
2045 1250 0
-4458 -3809 0
2155 -3924 0
4663 -4633 0
3554 3017 0
622 1733 0
-2754 3524 0
-2494 -3796 0
4440 304 0
-2785 3044 0
4101 -1926 0
3361 3960 0
-3292 -2815 0
3960 2198 0
2819 86 0
-2906 2093 0
1039 3113 0
434 4 0
2088 1466 0
-4407 565 0
-4614 -3736 0
1335 -1899 0
4252 3035 0
2358 -1469 0
224 -2347 0
1733 -2235 0
-4488 -4675 0
3562 2082 0
3220 -2815 0
830 -2412 0
2162 2343 0
587 3128 0
-1976 -2023 0
4605 1225 0
-3353 -4127 0
884 -2098 0
4207 -3851 0
1799 3093 0
-307 -2741 0
-2207 3037 0
3167 -635 0
2684 2901 0
1075 -4083 0
-3062 1667 0
-2067 -827 0
-4616 -1767 0
4717 -2844 0
4341 -3334 0
-1830 -227 0
-3130 -3396 0
2900 -2616 0
2598 3706 0
-3001 -1730 0
1624 -1585 0
3408 3409 0
4217 1294 0
-4158 1185 0
-3180 2978 0
1581 3307 0
655 -577 0
821 2084 0
-1469 2 0
-3659 -2100 0
1765 -3075 0
-2917 3977 0
-2181 -1463 0
2101 656 0
-1150 1135 0
2910 -1242 0
-3338 2833 0
1306 4438 0
-3709 -1677 0
-3763 102 0
2804 4172 0
1475 -3500 0
3701 213 0
2814 1265 0
2827 464 0
1336 4598 0
-1462 -2666 0
1883 2430 0
1189 -4482 0
-3129 -316 0
-2103 2358 0
2631 -1958 0
-2112 2780 0
-3604 -993 0
-2901 -2318 0
-3705 -2806 0
2795 -397 0
-1778 4419 0
-201 -3391 0
-1451 3232 0
257 -1612 0
2421 -3464 0
4267 -1803 0
-3650 2145 0
2556 2460 0
3375 -2968 0
1577 -678 0
542 2356 0
-3725 -4130 0
2834 -3200 0
4209 1067 0
-2355 792 0
4601 -2198 0
-1438 -1785 0
3919 -2087 0
-2806 1262 0
1279 1883 0
-2529 -3907 0
4711 428 0
196 -1737 0
-3501 2154 0
2985 -658 0
-3931 2646 0
1924 -4211 0
-152 1608 0
-2406 2356 0
2606 3313 0
-154 -2133 0
-4386 -2289 0
3934 4169 0
-3136 4639 0
3260 -4009 0
4368 -4009 0
-3218 -1893 0
1057 3268 0
-430 3155 0
-4149 -2737 0
-788 -2087 0
-2588 395 0
4556 2427 0
-1622 -738 0
2769 -1628 0
-71 394 0
-901 -1897 0
-3670 -4089 0
-4496 -249 0
-947 -2395 0
257 353 0
-3558 -592 0
3142 4413 0
2502 -2400 0
-2116 -4731 0
-1449 -1519 0
-162 -3373 0
-3516 -1934 0
1605 -2494 0
2388 -3406 0
-2314 -1943 0
3980 -336 0
1915 1571 0
4043 1127 0
1580 -2050 0
1679 4582 0
3302 4251 0
-506 4069 0
-612 -421 0
1277 -2047 0
-3440 4160 0
-4477 1667 0
-4626 3416 0
-451 3657 0
1517 812 0
-1412 2910 0
1755 3508 0
-3739 72 0
-1385 1570 0
1082 -1060 0
1974 4695 0
3689 -1258 0
4024 -3800 0
1770 -937 0
656 -1026 0
2170 1073 0
-3467 -3913 0
-975 -993 0
-358 212 0
-4316 1002 0
1810 760 0
822 -363 0
-1886 516 0
2341 -298 0
3975 935 0
-513 3024 0
841 -2233 0
-887 2511 0
2247 2972 0
-680 563 0
-4551 -4396 0
-152 4043 0
4351 4592 0
3969 2392 0
-3391 -441 0
-2445 -4628 0
-1842 -2480 0
-1295 -4546 0
-3798 -2182 0
-3788 -361 0
4504 4238 0
-704 -3252 0
3720 1409 0
-3968 1108 0
-4473 -4396 0
1654 3683 0
-1689 -557 0
630 3862 0
-2120 458 0
-4408 -4222 0
2395 3830 0
2044 -4071 0
-4668 3760 0
3022 -501 0
4249 3677 0
-3556 -2925 0
-722 -4405 0
-1416 4327 0
2575 3904 0
265 2118 0
1352 4103 0
-615 3494 0
2556 -2201 0
81 4025 0
1473 -2649 0
-1243 -474 0
2627 -1577 0
2831 -4749 0
-1433 -1611 0
3983 3955 0
152 -503 0
-3380 3789 0
1416 -4731 0
-4285 -2235 0
-1113 769 0
-4222 -1477 0
836 2128 0
2876 -2760 0
2637 2094 0
-913 -4569 0
4060 3657 0
-2816 1033 0
-328 -4655 0
-1124 -4722 0
-501 1594 0
-2126 -3542 0
-2667 1155 0
3278 3250 0
-4473 -1951 0
-3208 3706 0
-1844 146 0
3691 1102 0
-3400 1112 0
114 -4724 0
-4273 4125 0
-3237 1874 0
3386 2956 0
4497 -4481 0
3449 -1966 0
4352 410 0
-3176 -729 0
-2748 -3554 0
-18 -3647 0
3578 151 0
-1477 4468 0
-1212 -3463 0
-1038 2743 0
-2624 1600 0
-2764 -2505 0
2295 -3254 0
425 1294 0
-88 2395 0
-1246 253 0
861 613 0
-2597 4239 0
4489 -3661 0
1200 2268 0
1241 -207 0
1637 3764 0
3004 -726 0
-3873 -835 0
-116 -3823 0
-2705 3460 0
1104 700 0
-2328 3213 0
2434 -101 0
-1748 -1795 0
-1326 -3824 0
352 -3297 0
-779 -120 0
568 -4562 0
-489 -1365 0
3307 2519 0
-3924 2469 0
1195 -4215 0
556 -728 0
3875 -297 0
899 -3114 0
-4481 -3344 0
-368 -2632 0
-2453 -4319 0
3382 142 0
713 4490 0
2555 -1791 0
-287 -202 0
-931 3055 0
2021 1284 0
-27 -3413 0
3121 -2506 0
1968 -2865 0
-1941 3111 0
3009 -1269 0
-1108 -1442 0
-2824 -4467 0
-4263 -1448 0
1732 449 0
-608 1019 0
-94 -3240 0
3021 4736 0
1862 264 0
-2427 -1873 0
433 3494 0
-3708 4272 0
2876 2939 0
3084 813 0
-3773 63 0
-3603 -1103 0
-1323 -637 0
-2400 -2642 0
2076 -1471 0
-166 -1048 0
-3372 -3391 0
2391 -1856 0
-1818 -3 0
-3024 2513 0
1252 1752 0
-560 -3872 0
-751 2246 0
-11 -2731 0
-2937 1981 0
2268 -1562 0
-1907 -1015 0
1268 -1761 0
4274 -299 0
552 1925 0
4242 3313 0
4638 -1694 0
4013 2101 0
-2005 -1611 0
1612 497 0
2900 -1229 0
-4336 4545 0
-4254 1878 0
1883 2734 0
-2588 3263 0
639 2004 0
4121 1871 0
-223 3447 0
-881 3061 0
-2547 -2388 0
4085 -1231 0
-2044 -4689 0
1217 4100 0
4378 2943 0
-1808 4753 0
-2365 -2349 0
-905 602 0
2401 -1508 0
4099 3403 0
3341 -3999 0
-2876 4417 0
-2495 -4071 0
-4431 4236 0
-528 -4339 0
1982 -3187 0
-3494 2175 0
73 2409 0
1855 4270 0
1732 43 0
2717 3037 0
533 104 0
1927 2404 0
4736 2042 0
510 -4346 0
1193 1783 0
-2551 2066 0
3697 -219 0
-1534 -2584 0
-643 1294 0
2339 -3872 0
153 3766 0
2386 -1400 0
278 -353 0
-2644 -979 0
1991 -4355 0
-1136 1476 0
4045 -511 0
1161 -1864 0
-3892 -1527 0
-526 -255 0
-1717 833 0
3702 3074 0
3643 -3384 0
2532 4583 0
850 4638 0
-1228 -3545 0
2400 -66 0
-3018 -934 0
-1565 -631 0
4220 2873 0
1860 -3155 0
2116 -3748 0
844 3257 0
-1346 -4244 0
-2672 151 0
-1258 4010 0
1354 -60 0
-1486 2110 0
-4609 -3367 0
2592 4424 0
-1932 3331 0
-2914 1929 0
3709 573 0
2197 -1154 0
3476 -1407 0
1694 -1923 0
1349 -584 0
4057 490 0
244 -3148 0
1199 71 0
-4752 -3040 0
-2694 2800 0
4619 2804 0
-2812 -4263 0
-2340 -3516 0
3064 -1687 0
2155 -1564 0
-592 2206 0
-1182 2671 0
-1701 3414 0
-2664 2812 0
-4156 -2424 0
-4686 3405 0
-1187 484 0
-4614 -2836 0
-4450 3571 0
-471 415 0
-2097 854 0
-3484 -1789 0
357 2496 0
-4144 -2396 0
3208 -2998 0
4308 -2399 0
2255 1172 0
-578 -594 0
854 93 0
-2391 -3000 0
-1278 -3923 0
-877 2539 0
-1462 1672 0
3313 -1870 0
-3860 515 0
3248 -4036 0
4710 -3219 0
-4289 -2740 0
218 -246 0
-4443 -1804 0
4622 -1096 0
-4492 -4303 0
1875 282 0
2751 -4123 0
-3530 -692 0
2331 -120 0
-1895 3055 0
2891 1740 0
-4145 -2050 0
-618 -206 0
1203 -1785 0
4468 -2444 0
-760 -4381 0
-1638 4600 0
-565 -1502 0
-2298 -889 0
1498 1889 0
536 -3524 0
-3340 -494 0
-452 3850 0
1382 1378 0
-3168 3882 0
-2386 -4276 0
-268 2009 0
-866 3666 0
2972 -615 0
-3031 -1452 0
-1931 1832 0
3174 -3559 0
-3343 3293 0
-164 1273 0
2058 1513 0
-3660 4160 0
3918 2757 0
-317 35 0
-1227 -4636 0
1695 703 0
-4299 996 0
2748 3902 0
-3038 100 0
3081 1827 0
3700 4318 0
-4685 184 0
-5 -3602 0
2185 -4348 0
483 2740 0
1425 901 0
772 -1971 0
2030 -4420 0
-4501 -3896 0
-819 3638 0
-1420 -1412 0
-918 1631 0
-2712 -1245 0
1794 2009 0
-3564 1165 0
-4181 -1622 0
601 1352 0
-579 3589 0
-3737 -1276 0
1146 45 0
1936 3823 0
-2613 -2473 0
-1849 3303 0
-3119 -2081 0
-3764 2330 0
3179 -1401 0
-1084 664 0
-1950 -216 0
1931 -3168 0
-95 2014 0
566 -2144 0
2871 3110 0
-4682 3021 0
-1576 2518 0
-4177 -1049 0
1074 955 0
746 -4614 0
-676 1267 0
1576 -635 0
3517 -620 0
-4153 -643 0
3920 -1289 0
2293 -2550 0
355 3191 0
-1147 1467 0
-1717 1136 0
3578 -3849 0
-1918 2796 0
-1023 -2667 0
-1405 4028 0
1242 1684 0
-591 -4455 0
-3062 -1551 0
-238 2695 0
-1575 260 0
3280 3460 0
-2207 -3306 0
3773 -2083 0
-3436 -2018 0
3921 2203 0
1746 1524 0
-4303 -1803 0
4234 -2371 0
3342 1106 0
-338 4184 0
-4514 1257 0
-894 2646 0
3581 -2604 0
2981 -2948 0
-758 -4631 0
-2123 1558 0
-648 -785 0
-3002 1193 0
792 4482 0
-3970 1953 0
-2294 -1287 0
-4386 -2733 0
4578 335 0
85 1473 0
692 2986 0
-3485 4454 0
3876 -1502 0
-4408 -637 0
656 1175 0
335 -2173 0
4137 4048 0
-4052 1867 0
-901 741 0
2039 -448 0
-3967 715 0
794 1409 0
-1245 -4000 0
4567 1472 0
657 -4373 0
1229 -3567 0
2291 3084 0
-2294 1357 0
2258 -1540 0
2841 3505 0
-1716 4115 0
3149 -150 0
2573 -3601 0
2808 -2629 0
-3189 -2069 0
4045 -4356 0
3503 -1717 0
-3739 -2753 0
-641 -2950 0
3786 1382 0
4442 -2206 0
3387 -3645 0
-3218 1352 0
1145 3234 0
4267 -1033 0
-3920 3455 0
399 -3797 0
-912 564 0
-1453 -1071 0
-4340 3997 0
-4093 -3516 0
32 -4307 0
-787 -1663 0
-2757 4193 0
-914 3938 0
3626 -3835 0
919 -1912 0
-1460 4210 0
224 -3140 0
-3003 -4443 0
713 4203 0
-4184 -1228 0
63 -831 0
-4581 4577 0
2203 -1554 0
-3237 -779 0
-905 1270 0
3071 -3610 0
4212 -3579 0
4238 -2868 0
-4567 2328 0
-3903 3886 0
-2626 441 0
-1912 4251 0
356 -1198 0
-2973 -878 0
574 -1907 0
3615 -760 0
1105 -2259 0
3967 -3317 0
-499 1232 0
1569 4555 0
3719 -2134 0
3161 4363 0
-1971 3899 0
4657 -1465 0
465 3561 0
2743 4273 0
2908 3455 0
4109 1494 0
-4191 1584 0
1846 1508 0
3725 3490 0
-521 -664 0
4244 1985 0
3716 4578 0
1475 -4432 0
2438 -4257 0
-3473 -3782 0
-3714 3248 0
-106 1269 0
3473 3617 0
1062 -3412 0
-4305 4346 0
1164 735 0
-295 2539 0
-1778 2259 0
2223 -3468 0
2185 -570 0
-2279 -3477 0
-1332 2082 0
3720 1561 0
3270 2535 0
-4518 -2369 0
-523 156 0
-4349 607 0
-2526 4252 0
3261 -4334 0
3521 -228 0
-3259 2877 0
-3493 -602 0
-680 -4455 0
4528 -3498 0
-1039 -1959 0
2469 2490 0
2556 2803 0
-504 419 0
-2864 4348 0
2018 -614 0
-2698 3773 0
-3264 4189 0
2277 -154 0
-3159 -3400 0
-2529 -3543 0
-650 -2154 0
3713 -4057 0
2177 1455 0
-3702 108 0
4644 -2578 0
-1206 733 0
-3395 4677 0
1427 2348 0
-2609 -3023 0
-3811 4166 0
2047 -4658 0
1077 4257 0
-1218 -4493 0
-4491 -1250 0
-1078 -783 0
-3889 -4541 0
1917 951 0
-4252 1903 0
-95 -789 0
2419 3840 0
3092 1637 0
583 -3941 0
-2708 -2386 0
-2812 93 0
2966 -3556 0
4597 -3717 0
-4229 -2457 0
1299 1929 0
3062 3286 0
-1711 3988 0
445 -4119 0
540 -3879 0
615 1281 0
4076 4143 0
-1959 2979 0
-2305 1144 0
-2328 -1221 0
-2327 -2779 0
-1978 2046 0
3766 212 0
-3924 -2052 0
207 -4755 0
1447 252 0
-46 -2722 0
3173 -1137 0
512 -695 0
-559 3999 0
2552 -3767 0
2685 2007 0
-1951 4520 0
3185 -2834 0
1648 -4131 0
1192 -2344 0
180 1422 0
-2263 687 0
-2321 -2279 0
-4286 -2403 0
691 613 0
2682 -3438 0
-4415 2506 0
-3366 -3596 0
-3897 -422 0
1513 3070 0
50 -53 0
-614 4479 0
1606 -1002 0
-3991 2611 0
-3512 -312 0
-3655 -3205 0
2101 3582 0
517 -325 0
3282 -2822 0
79 -140 0
-2463 -1923 0
96 338 0
-977 -4487 0
-4306 3083 0
4422 -148 0
-2760 888 0
-1984 3183 0
601 -4 0
3624 3368 0
-4537 2517 0
2821 3396 0
-2624 491 0
-709 1228 0
2467 -2442 0
2248 -24 0
-2515 1499 0
3260 -2071 0
-2606 -2938 0
2498 -4276 0
2187 3943 0
-512 -1336 0
1179 -3222 0
-2899 -4219 0
-1280 -4668 0
2892 -1211 0
-2604 3020 0
-4439 1260 0
1365 -2905 0
-1968 -383 0
-2927 -4664 0
-1153 2931 0
-3240 2209 0
-4092 1126 0
-476 -2834 0
-3279 3139 0
-2418 1738 0
-1556 3217 0
-1583 -4266 0
2362 -3571 0
-317 4606 0
-471 -1896 0
1646 2658 0
-2260 3015 0
4381 -4664 0
-123 -3422 0
-2068 4168 0
-2385 -3335 0
-4494 -4149 0
-373 -822 0
1458 3363 0
682 1393 0
-3077 107 0
2418 -4723 0
3619 1621 0
-2374 -307 0
-2998 -3902 0
2584 3770 0
-2433 2952 0
-1880 -1679 0
1869 588 0
1692 4677 0
-248 -3660 0
-1202 -2910 0
-1692 -2965 0
-2970 4385 0
1472 -1534 0
4682 1698 0
4022 4726 0
-37 -4744 0
-4241 -2527 0
-79 988 0
-164 -4354 0
-2319 1811 0
394 4293 0
937 91 0
-1839 -3437 0
3923 -1112 0
-1249 3975 0
-622 -392 0
1032 -33 0
-3287 4712 0
3109 -754 0
3046 799 0
1963 1142 0
1189 3919 0
554 3031 0
-192 -2583 0
-2901 -1793 0
2136 -764 0
-2702 -80 0
-4254 3561 0
-4321 -70 0
-2908 3445 0
2337 65 0
-4158 -4356 0
2134 3983 0
1135 -2037 0
2539 2001 0
756 -372 0
2476 -4449 0
-3492 1838 0
-1614 65 0
1500 210 0
-433 256 0
4209 -3810 0
1133 1312 0
-4035 -388 0
-2739 -804 0
-2642 -1044 0
-3780 910 0
-1715 3805 0
3076 -8 0
-3607 -4519 0
-2215 2490 0
-4167 750 0
771 3726 0
7 2408 0
137 4437 0
4060 -4007 0
-2452 -2098 0
2983 -4429 0
-4083 3045 0
797 -1572 0
265 2869 0
-2515 -962 0
4309 1392 0
1627 2265 0
-1236 -1075 0
2800 -3982 0
4157 -3045 0
-4387 -298 0
-4703 -4190 0
1999 -1066 0
3462 -3645 0
3772 2195 0
3690 -676 0
-514 -3165 0
4116 4471 0
1929 -4199 0
2883 1772 0
-4541 -962 0
-2209 -2329 0
-3543 -3968 0
4737 3333 0
3239 3451 0
2520 93 0
-4423 3371 0
-2029 2976 0
-1961 1561 0
2062 1953 0
-1731 1863 0
4738 -1295 0
2878 -4639 0
-2206 -2624 0
4194 918 0
-4595 1917 0
3871 -979 0
-2656 -1066 0
-3014 -4393 0
-1678 -3836 0
-1948 -24 0
2960 2996 0
3667 2792 0
2859 -1894 0
-767 -4741 0
1917 -3346 0
-1040 -1793 0
-1906 -167 0
-2468 2227 0
3781 1881 0
-316 -4347 0
-1746 -3611 0
4720 198 0
-2897 -894 0
-787 -4535 0
-3596 -851 0
4266 -4592 0
-3209 1770 0
483 -1439 0
1115 4350 0
815 2192 0
-2035 -3889 0
1787 4264 0
1654 2443 0
923 -1770 0
1905 -757 0
4440 -3449 0
-3243 -4053 0
-3399 -3347 0
1311 -942 0
3563 -2982 0
-1327 2986 0
832 -2063 0
-2083 -2343 0
965 -1111 0
2326 601 0
-955 952 0
742 3831 0
1132 -4027 0
-593 -1994 0
-1934 -1308 0
2682 -3609 0
-1828 -4326 0
-914 1858 0
-4712 -167 0
-927 3503 0
2408 -210 0
-4576 3733 0
-2798 1267 0
-2762 3290 0
4415 3451 0
-3593 -1394 0
-2755 -1151 0
3578 230 0
176 3176 0
1855 -642 0
652 4086 0
1711 -4460 0
-486 -2083 0
4079 -2916 0
-1856 -360 0
3735 -2424 0
-1160 4481 0
-3275 2456 0
37 -1821 0
3389 2732 0
2244 -1640 0
-2149 65 0
4285 -4052 0
3767 1878 0
2091 1740 0
1351 4489 0
1235 -4113 0
-1832 4717 0
3070 2389 0
-239 4270 0
841 3223 0
365 2389 0
738 -1041 0
1921 1610 0
1754 560 0
-1914 2152 0
-1420 -2870 0
-2940 -457 0
2206 -3187 0
-3095 -1409 0
-3297 2721 0
3142 -3362 0
2658 -725 0
-4746 -4115 0
1132 4340 0
-4697 -952 0
1678 -2079 0
-4462 -1858 0
2738 -4222 0
4610 -3256 0
-3061 -3986 0
736 -2763 0
-4237 4087 0
4420 -1633 0
-4372 996 0
3630 2378 0
3655 -2098 0
2125 3915 0
-132 -1692 0
-4134 537 0
3165 2086 0
3367 -1028 0
1347 -1280 0
4391 -3031 0
3365 1126 0
-4643 -1604 0
759 3980 0
3431 -3095 0
3629 1837 0
-1877 3352 0
681 3737 0
-518 -4610 0
2800 4552 0
-1295 -2841 0
-3197 1172 0
4513 2430 0
1581 1403 0
-922 3888 0
2561 -1031 0
22 -2531 0
2042 1542 0
-848 -858 0
-3244 -2391 0
-709 2080 0
-1321 4146 0
81 -3229 0
-144 -4611 0
687 -1949 0
-354 1672 0
-2650 2571 0
2358 -2039 0
4525 3974 0
-113 -4337 0
-2428 4301 0
1241 1003 0
-4296 -2823 0
-3422 -1742 0
4470 -4629 0
3527 1198 0
1203 -3335 0
1133 1694 0
-3709 1361 0
1927 2518 0
4193 -1453 0
2030 753 0
175 2815 0
2680 -4428 0
-2316 -3002 0
1705 2226 0
-2292 2488 0
-3573 852 0
2176 4377 0
-4395 2804 0
-4739 -4152 0
3085 -986 0
-3097 -2318 0
2307 3954 0
780 -2711 0
-2630 -1311 0
4053 -2397 0
-2216 -2755 0
-4094 4688 0
-1457 4688 0
2513 -4222 0
4044 3609 0
-461 2847 0
-1573 704 0
-2737 2440 0
-968 316 0
4011 4009 0
-229 959 0
-393 -4189 0
1077 3752 0
-2274 -3819 0
4164 -1422 0
-4203 1397 0
2238 -3256 0
4051 1093 0
394 1626 0
-4712 806 0
253 3582 0
-1408 2791 0
2667 -1236 0
449 -2433 0
-3501 3865 0
-4458 4480 0
1089 -120 0
-4528 -1090 0
-1932 -1375 0
1957 -2470 0
-1952 -1967 0
4328 -2693 0
3027 4720 0
-1131 -2064 0
418 3228 0
-3194 -729 0
-992 -4755 0
4372 498 0
1681 -2097 0
2077 -6 0
2266 -4590 0
1765 -3111 0
267 -3926 0
-1502 -1041 0
-1900 1074 0
-1527 -3495 0
-2207 4021 0
-1059 2169 0
2844 -4727 0
-3171 4200 0
3432 -1726 0
-2259 3641 0
-1295 -2308 0
-2134 -2916 0
-3005 -2292 0
3777 865 0
3309 2661 0
-2514 -3634 0
482 1981 0
1652 -946 0
282 2782 0
3089 660 0
1879 3636 0
454 4251 0
-4713 -1349 0
-1721 54 0
-2558 4244 0
1055 -1083 0
-2718 -1462 0
-624 -169 0
-1460 -2099 0
2807 -4682 0
-3028 -3764 0
4648 4477 0
-3001 -4613 0
814 3068 0
110 -1299 0
-2940 2246 0
-306 -3208 0
207 1902 0
-498 352 0
-605 -2803 0
3738 4048 0
-3966 2210 0
-3495 4590 0
564 3405 0
-2720 -3488 0
-2857 -2248 0
-4261 3380 0
1586 -4278 0
-165 -3714 0
-4665 -4007 0
2026 1654 0
-2174 4420 0
2201 -2670 0
4280 4595 0
891 -286 0
1974 1415 0
-3280 3649 0
-2073 3082 0
-3555 1767 0
2310 -3061 0
1226 -4453 0
-3372 -243 0
1728 -4465 0
3652 -4153 0
4700 -4197 0
1011 -891 0
2080 -2876 0
2472 -3358 0
-949 4007 0
3510 2959 0
-1350 2682 0
-2807 -2768 0
461 -3483 0
-3645 -4276 0
-1716 -276 0
2483 -1700 0
1796 -1160 0
3148 988 0
-3789 -377 0
4384 2699 0
4751 -1572 0
4604 -808 0
531 -1619 0
2976 1065 0
-3972 2814 0
-2795 -208 0
4075 1038 0
785 -2969 0
2617 1050 0
-347 -3555 0
-2018 2137 0
-4633 -1215 0
-2389 1891 0
545 1707 0
-3009 -3240 0
-2610 -3861 0
252 -1324 0
-3560 990 0
-4091 -2653 0
1198 1017 0
-1210 473 0
-3572 2483 0
-394 -2705 0
3547 -1223 0
-203 10 0
-2874 2699 0
-4715 2923 0
930 -4516 0
-2051 3417 0
3616 -663 0
-2907 -3383 0
1232 294 0
-3851 4266 0
-3155 -2261 0
2119 4673 0
4494 -2141 0
-2872 -1908 0
3626 -2325 0
-2197 -367 0
2436 3631 0
-977 -2400 0
2170 1356 0
3877 -3228 0
-1808 -1316 0
-1908 2793 0
4523 -269 0
-456 2688 0
2797 -2917 0
-4595 -1029 0
3732 4634 0
-378 4024 0
-4211 440 0
-1186 -1103 0
-4526 -2076 0
-116 886 0
-991 2135 0
-1865 -429 0
-3678 2814 0
450 1431 0
-2566 -4689 0
-617 -4453 0
-3551 2316 0
-424 3054 0
-2180 -1748 0
-4340 -2849 0
-1318 619 0
-817 3141 0
498 -1258 0
283 43 0
1978 1172 0
-2634 -417 0
1361 1787 0
-406 2984 0
513 -2894 0
3257 -4445 0
913 -2014 0
-489 -542 0
-3779 -2913 0
2473 136 0
-4279 -3409 0
2345 -1525 0
-153 1047 0
3194 -1675 0
-134 3000 0
2883 -4512 0
1929 -3467 0
3525 -4460 0
-2247 873 0
1337 -117 0
2251 -2917 0
3331 -2997 0
-260 2875 0
1622 2420 0
2186 -1295 0
1627 199 0
1249 263 0
2331 3814 0
226 -2777 0
-2884 59 0
-2306 2887 0
4237 3603 0
-2435 -2933 0
-3991 4556 0
1509 1327 0
4111 -752 0
-2186 -3089 0
-4449 -3922 0
2413 3013 0
2093 3234 0
3128 -3059 0
3835 1526 0
1605 1630 0
-2231 -2320 0
-2758 4510 0
4090 3533 0
1285 2640 0
1823 -4197 0
4164 525 0
-530 -3157 0
2115 -2690 0
4048 -4512 0
2879 -548 0
2368 2109 0
-2933 -3828 0
1098 2034 0
4601 -1001 0
2963 4487 0
-4524 -218 0
-3497 3616 0
-2238 820 0
307 -1593 0
534 2746 0
3624 -2582 0
4555 2840 0
4583 -559 0
50 101 0
-3949 -1395 0
2525 2847 0
4551 4019 0
842 3795 0
2868 -459 0
-4233 -4744 0
-751 -2598 0
-1125 765 0
877 670 0
3255 -2412 0
-3834 1247 0
-3762 1943 0
3083 1222 0
342 -3261 0
-3712 -3023 0
-885 -3322 0
-1316 4185 0
3265 -1978 0
427 -2486 0
-4225 4389 0
2691 -936 0
2355 -1845 0
1660 1877 0
-529 -1479 0
4358 -1420 0
-3049 -1656 0
2498 39 0
3852 1636 0
-1643 632 0
1503 -3092 0
3224 2603 0
4511 2190 0
128 -409 0
-2952 2829 0
3526 2158 0
3708 2280 0
2076 -1818 0
-348 1497 0
-4657 -2353 0
-3347 515 0
1769 -3604 0
2370 -564 0
2180 -2406 0
-967 2488 0
870 -2187 0
2597 -2741 0
502 1503 0
-3500 1972 0
-1250 -1218 0
4080 -351 0
-2567 4351 0
-1522 3542 0
-1465 -4722 0
-1982 413 0
-139 1189 0
2497 -2338 0
-535 -3182 0
3127 -1255 0
3705 -3134 0
4362 -3436 0
588 2537 0
1780 -1600 0
290 1437 0
-3968 -337 0
-3589 -1225 0
3388 -4021 0
-3279 -4275 0
-542 1363 0
-2997 951 0
3895 -2349 0
3915 -3807 0
3990 4251 0
-329 755 0
-1026 -47 0
1055 -4196 0
2612 -557 0
-1261 3551 0
3271 3721 0
2123 4309 0
4024 -2435 0
1074 2014 0
-4251 2941 0
4302 2034 0
4302 2929 0
-3168 556 0
-4616 412 0
2422 -633 0
1608 4720 0
-3295 4075 0
2424 -2606 0
-2340 804 0
-2951 3383 0
-2208 -2241 0
3266 3745 0
1725 -3674 0
-3925 4717 0
-514 -1454 0
1636 -372 0
-3208 1634 0
-27 2810 0
-3267 -4447 0
2019 -464 0
-2416 -3949 0
2473 -3243 0
-4087 630 0
-306 446 0
-3094 -3724 0
-4430 -4139 0
1812 -2185 0
1748 1714 0
4142 33 0
-940 1049 0
-4517 74 0
-3789 539 0
3404 3364 0
3856 888 0
718 4099 0
4183 2479 0
1323 719 0
-2993 1977 0
-1526 2608 0
-647 3548 0
1526 7 0
1841 3435 0
-2915 2007 0
-1001 4242 0
3557 -1063 0
-402 122 0
-3358 -2162 0
-1550 -3712 0
-841 2049 0
-177 -3953 0
3307 -4621 0
2464 -3017 0
-4072 -3216 0
-3884 2555 0
41 -2885 0
-1013 74 0
1382 -1764 0
4062 2006 0
-1843 -4116 0
-3773 -3369 0
-1499 -2207 0
4559 -4176 0
4367 2968 0
-464 403 0
-734 2230 0
-664 -1207 0
-804 -1911 0
1687 -2583 0
-2798 3002 0
2048 2101 0
-1676 -1880 0
-2767 -2663 0
-1092 -2806 0
-804 -4279 0
-272 -121 0
1524 2267 0
-4406 107 0
3734 -2435 0
3168 -3256 0
-3424 -4155 0
-2623 -414 0
-2328 -3543 0
-4643 -1167 0
4628 91 0
-799 1679 0
3848 3891 0
-756 -4467 0
4061 -898 0
-265 3271 0
-3764 -2001 0
2334 -167 0
1666 -3774 0
-325 -2850 0
2365 3980 0
-386 4005 0
4435 -1893 0
3419 -4116 0
883 -388 0
-4655 4411 0
3524 -1450 0
-1481 2541 0
2438 -4114 0
-1189 -1099 0
-1641 -4458 0
-3082 -4478 0
-2098 4234 0
3630 2581 0
-1888 544 0
623 4634 0
2816 2223 0
-3748 -4683 0
3415 -4316 0
-1058 -1739 0
-155 -363 0
2020 -789 0
-3793 4754 0
1047 -2162 0
1580 -4121 0
-326 -2738 0
4728 534 0
-2932 4369 0
-3872 -2510 0
3912 2266 0
4738 -4494 0
-3216 443 0
2784 -43 0
-499 97 0
908 3911 0
998 2629 0
3217 463 0
1549 -3000 0
1167 3296 0
1582 1200 0
3720 -293 0
4061 -1519 0
1657 -1093 0
-1682 515 0
4137 -1244 0
-104 -448 0
-3807 -249 0
3463 2732 0
-1819 -191 0
-1763 3873 0
4515 1133 0
3647 3938 0
-2252 -1801 0
3756 1697 0
2330 3149 0
3411 -376 0
-2281 1697 0
3241 1648 0
1082 59 0
4354 -1486 0
988 4350 0
-2607 2244 0
-354 859 0
673 -2357 0
-1427 2753 0
-2127 -2229 0
-1476 -4707 0
-751 -2124 0
3020 -1805 0
-1925 -202 0
-2396 707 0
-3261 691 0
-165 -3176 0
-307 -3358 0
-4239 -3344 0
-127 2170 0
-2076 410 0
4121 4302 0
-99 -1781 0
-390 3911 0
-3199 4716 0
-1889 2599 0
437 2094 0
-3501 265 0
573 -2096 0
1398 865 0
488 4747 0
2422 -1417 0
1977 1179 0
2534 1593 0
3971 4050 0
3148 4664 0
-4535 -1886 0
2646 1762 0
2976 1573 0
2030 1561 0
-3172 -2372 0
-1078 -827 0
3313 -2053 0
-455 -2672 0
3666 3566 0
-949 -2435 0
149 -2247 0
542 1440 0
-1967 4582 0
3583 -1691 0
-2461 1684 0
-1338 2247 0
-4255 4276 0
-570 1997 0
2006 -215 0
153 -3446 0
3082 -4126 0
3109 -2583 0
-2903 -4077 0
-1941 -2216 0
63 -4243 0
-978 1308 0
1881 -3604 0
690 -4592 0
2827 -4245 0
-312 -3001 0
736 -246 0
4230 -1947 0
-482 3104 0
2049 -1671 0
-2079 -4008 0
2610 97 0
-3943 -1904 0
-2043 4021 0
100 1454 0
-2938 2743 0
-666 -4343 0
2720 738 0
1534 1077 0
-1315 1339 0
-1870 1434 0
-2024 -4582 0
2734 -1842 0
-278 4619 0
2481 3628 0
594 3755 0
-1131 4332 0
-2993 -3596 0
1185 -796 0
-4387 3570 0
3612 -4317 0
-2161 -3903 0
-581 28 0
3082 -2112 0
1057 2910 0
-2278 -2139 0
4323 1757 0
3184 -4146 0
-297 -4199 0
-2024 -1987 0
1111 -2586 0
4091 -3946 0
-2822 -1233 0
4231 -278 0
-3660 -1338 0
3147 -3140 0
4005 4078 0
2418 -3711 0
-2693 -2396 0
3473 1318 0
-2772 -553 0
-4461 4169 0
20 2477 0
-487 -4675 0
449 3815 0
2380 3527 0
-1576 -696 0
3532 22 0
2224 -3782 0
4051 3736 0
4277 2603 0
2164 3313 0
3237 1976 0
-4053 -1814 0
1415 -476 0
-4675 4144 0
699 -1788 0
4109 793 0
-2291 1441 0
-297 2160 0
4548 1094 0
3332 -2925 0
-3789 -4641 0
3674 884 0
2955 1241 0
290 -224 0
1957 2789 0
2272 -1905 0
-1263 -1289 0
-2527 3496 0
-4472 2884 0
-1644 -2214 0
849 163 0
3553 -4581 0
4191 -3984 0
-4213 -579 0
1900 -4682 0
-1296 704 0
3813 1856 0
-1556 768 0
2263 -2650 0
1714 1682 0
-4046 -4457 0
15 1333 0
-4135 4077 0
269 -788 0
-3654 -3941 0
692 200 0
-1312 2721 0
2269 2577 0
-1611 2269 0
-3718 1588 0
-1029 994 0
-3675 1984 0
-349 -184 0
2513 2049 0
-2055 2670 0
-946 -3136 0
300 -952 0
4297 -3789 0
3730 -23 0
74 -3870 0
2004 -2192 0
2305 -3750 0
3330 1968 0
861 3038 0
-1647 -1509 0
3330 -44 0
-1196 1849 0
2054 -1214 0
-3386 2725 0
4270 -1090 0
-3864 -892 0
227 -2284 0
1866 -1978 0
4125 814 0
406 3470 0
-1720 -4394 0
-1151 3523 0
2909 162 0
3603 -2235 0
4214 1590 0
-3866 -3286 0
-2133 -99 0
963 2184 0
1596 -3715 0
774 3441 0
-2613 -4143 0
-2922 -1104 0
3370 1752 0
2101 -1167 0
-4241 -3621 0
-3279 4599 0
3435 3752 0
-4233 -3638 0
596 3402 0
-4731 -767 0
-985 3680 0
1571 -214 0
-2998 -1261 0
-1242 -467 0
3710 -552 0
2344 192 0
-1572 -3623 0
-2644 3292 0
3097 -1771 0
956 -2902 0
-3513 -2459 0
-276 1167 0
1341 -1080 0
260 1571 0
703 4456 0
1115 4551 0
412 1135 0
3511 3940 0
-4049 3124 0
3926 1156 0
-667 -3618 0
2276 646 0
-3870 -2698 0
3172 -1465 0
2414 -1768 0
3558 3461 0
879 3224 0
-1490 1908 0
345 -4305 0
1003 -4750 0
75 4018 0
-4028 3070 0
-4338 4461 0
-335 -3188 0
-729 -1502 0
-827 406 0
1336 -1939 0
-972 -4556 0
3146 3543 0
2342 -4680 0
-2165 -3660 0
-2875 1482 0
4358 4045 0
-4328 -1388 0
199 2349 0
-2389 -3563 0
-70 4182 0
2142 -1724 0
4701 -3630 0
-3224 -3585 0
3069 -4185 0
-497 2393 0
1182 1521 0
-3064 2007 0
347 -1182 0
-2605 -4580 0
-1010 2729 0
-3211 -3166 0
-2898 -1664 0
3523 1930 0
-1054 -2930 0
1587 932 0
2388 1517 0
-1686 -1529 0
-2731 761 0
-4348 124 0
2571 1326 0
3546 3805 0
3987 3518 0
-380 -176 0
3064 564 0
4311 2214 0
-719 -602 0
4201 542 0
-2383 -1993 0
1522 4601 0
4570 4249 0
-1020 -686 0
-1972 2417 0
171 2017 0
3872 4647 0
-835 3566 0
-3147 -3175 0
-506 402 0
-1292 337 0
-3334 699 0
2926 -3384 0
2160 1830 0
600 498 0
351 -552 0
-1932 2098 0
-2115 3628 0
3227 3686 0
-3920 47 0
-2429 -499 0
-3099 -4503 0
2805 31 0
2533 3388 0
1304 -1036 0
-986 996 0
2873 714 0
-1406 2105 0
-2233 -1409 0
3048 -3087 0
-11 759 0
-247 -1664 0
2795 515 0
-1284 37 0
-1542 2251 0
-2644 -3782 0
4640 -3053 0
-1185 1810 0
3562 -1587 0
-2969 2292 0
543 3674 0
-821 1496 0
-1283 -511 0
4734 -40 0
772 -2200 0
1519 -3799 0
494 -1686 0
4690 3272 0
-4522 -883 0
1429 -3813 0
-3960 1735 0
1447 -1395 0
-4572 -2225 0
2870 -1320 0
-793 3748 0
-4094 102 0
1049 560 0
1926 -3736 0
2283 1413 0
3800 4358 0
1183 1145 0
-3295 -1436 0
3628 4545 0
-4609 2408 0
1192 3251 0
4300 -2650 0
2184 3371 0
-4224 428 0
-3498 3763 0
4634 -3907 0
-152 -3931 0
1531 -4295 0
-795 379 0
2086 -1392 0
1670 -1959 0
-4645 2109 0
-2811 258 0
-3910 -3564 0
-3331 -3765 0
-1930 -620 0
3529 -3974 0
4640 -1306 0
-3346 -1785 0
1414 -251 0
914 -3913 0
3200 4304 0
3908 -213 0
2263 -992 0
-1165 -2873 0
2144 -3835 0
-3085 -1355 0
2177 401 0
-1623 -347 0
-4378 1542 0
4471 -853 0
-3533 3071 0
2791 -1443 0
3390 -988 0
-4502 3534 0
3715 -1543 0
4647 4648 0
4672 -2602 0
3826 -4058 0
4344 -1325 0
1391 -233 0
1758 1651 0
-2915 1047 0
-3613 -1125 0
-3365 454 0
-4107 -154 0
2598 4417 0
2181 -4604 0
482 2040 0
3695 973 0
1552 1573 0
945 -3987 0
750 -167 0
-384 -3130 0
-1442 1996 0
4060 -811 0
1698 -4476 0
2112 3688 0
106 3061 0
7 1008 0
2206 -3698 0
411 788 0
2826 665 0
1407 1271 0
535 -3136 0
-1330 -2480 0
-2795 89 0
-4395 -592 0
-4649 -667 0
-1258 -2118 0
781 -2865 0
-286 32 0
627 1142 0
2084 4331 0
-121 2031 0
-924 -4452 0
4274 306 0
1753 742 0
-3961 -3224 0
-34 969 0
3677 271 0
3712 -4554 0
4186 2603 0
-293 -877 0
2773 -423 0
-832 -3183 0
2648 982 0
-4202 3649 0
-1583 -2473 0
-4729 -2949 0
372 -3468 0
-2558 456 0
-1785 225 0
1942 2832 0
-4118 -4673 0
1360 3521 0
-2344 3332 0
4059 4559 0
2175 -1230 0
-3451 -1655 0
930 4080 0
4155 4024 0
-1135 -4641 0
-4029 -4350 0
-1918 734 0
1642 -444 0
-47 3394 0
-2357 606 0
-3917 -2765 0
3020 -3205 0
-3652 2717 0
-1729 400 0
146 -360 0
3503 4016 0
341 2802 0
3807 2772 0
-2725 1009 0
-3776 761 0
3768 4587 0
-997 -4687 0
2449 1725 0
3648 -3917 0
-3904 4511 0
-3113 3686 0
-2411 1742 0
3548 -392 0
-3256 2765 0
886 3649 0
-1664 -1562 0
-1564 894 0
4401 658 0
-1235 -2193 0
141 1421 0
1939 -1476 0
4079 -2415 0
2992 4154 0
-934 -2076 0
4517 821 0
-2427 -2207 0
-1972 3954 0
-3228 3598 0
-3205 -373 0
-3869 -2329 0
1178 43 0
-2000 2164 0
687 -3320 0
1485 -297 0
2114 4706 0
-3494 -635 0
-3667 1946 0
4654 -1658 0
-4394 -2845 0
-4205 -4632 0
2411 1472 0
4209 -3551 0
3013 3753 0
1109 -507 0
-4201 -3023 0
-860 137 0
2581 3513 0
4442 -300 0
-2107 -2169 0
-4419 2155 0
-2869 4289 0
4150 561 0
1072 -3984 0
-3145 -266 0
1286 -1959 0
2761 1687 0
428 848 0
2744 -4281 0
1867 -371 0
-609 -184 0
3720 4413 0
3159 -2442 0
-3711 651 0
4028 1285 0
-452 499 0
4688 3265 0
2842 4625 0
4235 654 0
-1222 -4259 0
-2576 2609 0
-1975 -3792 0
2477 -857 0
2289 -2264 0
1237 4495 0
1890 -4215 0
4680 637 0
1399 -899 0
542 3754 0
1739 -425 0
-3816 -1465 0
246 -3711 0
4368 -3610 0
1157 -2804 0
2781 -268 0
1536 4149 0
3604 -2360 0
-1955 -1066 0
796 -1999 0
-2295 3689 0
3548 -1185 0
2688 -1604 0
-1874 -1865 0
-650 -3437 0
-129 4456 0
-2171 3963 0
3360 4698 0
3623 1825 0
2884 -2399 0
2964 1759 0
-3132 -3232 0
4093 -4003 0
-4397 -4213 0
4520 2186 0
4740 -2150 0
-2315 3302 0
1191 210 0
4699 4544 0
-1146 -2092 0
3467 -2320 0
54 1213 0
1984 -1401 0
2886 -4522 0
-742 -816 0
3112 -1540 0
4107 2932 0
4242 2981 0
2373 -4273 0
-94 -4173 0
-2794 2758 0
-4595 -2698 0
3716 -3906 0
-2573 -2482 0
-3367 2012 0
603 3384 0
3642 -4097 0
-4030 755 0
-4368 1439 0
-2678 -3002 0
4155 -3744 0
4469 200 0
-2480 -3048 0
-3844 53 0
861 -2609 0
4534 1976 0
1791 2677 0
2807 1769 0
3510 -3447 0
-3321 -2376 0
3867 1758 0
3877 676 0
-2890 -423 0
205 812 0
4294 3236 0
-4746 1209 0
2700 784 0
-2780 -3267 0
903 3633 0
-1320 3938 0
2655 -3819 0
-264 -619 0
4631 3713 0
-816 -2912 0
4376 2025 0
-1102 3272 0
1490 3808 0
4351 -1497 0
-3193 -748 0
-4492 -160 0
-2684 335 0
-1779 1753 0
-111 -1234 0
4674 -2261 0
3504 -3835 0
-3626 4009 0
-232 1557 0
879 -4201 0
2434 -553 0
69 1521 0
-39 1050 0
-528 4330 0
3223 -1342 0
3963 3196 0
-4214 -1004 0
566 4144 0
1545 4697 0
4319 -1576 0
-2598 -2829 0
-4281 763 0
-1630 -4465 0
-4320 -3329 0
443 -1719 0
-1677 -2582 0
-4149 3754 0
-2786 4653 0
-1502 -1087 0
899 2081 0
1029 -4091 0
2506 -3643 0
3805 3073 0
1585 4415 0
-4151 -2893 0
-876 -1436 0
-3144 -3123 0
-3220 1001 0
-3637 -3767 0
2635 3022 0
-3247 -1098 0
4021 2258 0
-4266 3561 0
-3755 -4661 0
-3023 2232 0
4106 1707 0
2483 3353 0
4331 -1928 0
-3803 -4 0
-3233 126 0
2212 1311 0
2314 -1652 0
-302 2571 0
3017 3690 0
-1923 -2546 0
3657 2179 0
237 3232 0
2190 -1170 0
1450 2886 0
-4448 4070 0
-3779 -2856 0
145 -826 0
-2070 1123 0
4437 -4393 0
1357 -1317 0
-1356 1729 0
-832 -448 0
-2352 1912 0
-4612 -3804 0
398 -3975 0
-4218 -1980 0
3295 1995 0
3803 2009 0
-2215 4659 0
-1841 -1651 0
1532 -1778 0
4250 780 0
-1121 -632 0
-4707 -1124 0
2438 -3775 0
-1720 -3286 0
-3997 1351 0
1371 -868 0
-238 -1173 0
-2288 -3495 0
-2104 2734 0
-2223 766 0
-121 1737 0
-1651 -3673 0
574 3213 0
1866 -1761 0
-668 1678 0
-2539 -2757 0
3179 1944 0
2585 4385 0
705 1122 0
3168 2818 0
145 -4216 0
-3675 3639 0
1803 -2460 0
-1280 -303 0
272 -2742 0
-1120 -2876 0
3479 710 0
-1435 -4494 0
-4298 -3410 0
1798 -3045 0
-1085 4194 0
1512 -3188 0
1285 2351 0
-3870 -2166 0
-4132 -3023 0
-3514 564 0
-2758 3908 0
2432 -138 0
-2504 -1318 0
-4712 4089 0
2483 2682 0
92 -3163 0
-2642 -3160 0
1752 -483 0
-2200 -1462 0
-3499 699 0
-1242 -3171 0
1373 2114 0
-1048 -3819 0
-3634 -1384 0
899 4107 0
987 -2951 0
4512 1515 0
3893 -3626 0
-4675 -868 0
-3936 2025 0
2707 4661 0
-991 4464 0
1421 -2779 0
-3604 -1202 0
912 1454 0
2101 -3719 0
-3421 25 0
-2576 4534 0
3499 -681 0
3817 4264 0
-4259 -2903 0
-3800 -4283 0
-3991 -38 0
-729 2682 0
2954 4753 0
-4493 -4416 0
1456 -543 0
4315 2871 0
-1120 -971 0
2272 -3981 0
2472 -3253 0
2831 -1900 0
-4748 492 0
1991 -3203 0
-1814 413 0
1355 -4384 0
-676 303 0
-952 2591 0
-4192 -1737 0
-4633 1649 0
-3144 1135 0
-3181 2129 0
1337 -2925 0
-793 551 0
3017 -464 0
-3364 717 0
1077 1974 0
-1515 950 0
2931 -746 0
2145 -3599 0
642 -3634 0
4447 2490 0
-1353 2422 0
-2026 4368 0
982 1743 0
-1831 -2005 0
4621 -3488 0
-3388 -646 0
-565 -4345 0
946 -3709 0
-4205 2832 0
487 89 0
-374 3519 0
1249 -1017 0
-4337 4090 0
-4039 -1090 0
-295 2414 0
1325 -1389 0
-3835 377 0
-2821 1218 0
587 -2232 0
2060 2957 0
-2230 -1711 0
-1359 -169 0
538 2082 0
65 332 0
-4584 2540 0
-3977 1364 0
-3915 3309 0
-4205 -3076 0
4735 4607 0
2258 -409 0
-4305 -2000 0
-3329 3846 0
-2029 2708 0
-4405 2003 0
2706 3510 0
2966 2176 0
2405 -1408 0
1391 -2313 0
3128 -3687 0
4124 -2970 0
-3523 1749 0
2624 3277 0
1032 -274 0
4081 2952 0
2373 -1483 0
2933 2302 0
-469 -3666 0
-639 -2031 0
4040 2289 0
2023 654 0
3640 -3302 0
4169 3518 0
-1544 3414 0
3748 -4298 0
2622 -1586 0
1518 -2192 0
652 -3040 0
-4703 1445 0
-1056 4688 0
3857 -4476 0
2313 4270 0
-2141 2448 0
-1147 1445 0
4694 -2993 0
2339 -4365 0
910 3725 0
2303 387 0
4425 1435 0
-2454 1511 0
-2066 1914 0
2884 -2804 0
553 1431 0
-469 156 0
-802 -3106 0
2378 -2096 0
-2508 2986 0
53 4375 0
693 45 0
-2754 -3783 0
-298 -3431 0
352 -417 0
-3126 3260 0
-2602 2278 0
-1833 741 0
-1893 -3140 0
-4612 2973 0
179 -2799 0
3052 -3116 0
1299 3096 0
3185 -2615 0
1435 582 0
-1462 3066 0
-894 3442 0
-2054 -503 0
-581 -3178 0
-1497 4174 0
4022 -456 0
-3998 -2942 0
2242 4420 0
-2692 -4219 0
3221 3355 0
395 3366 0
-917 1765 0
1748 438 0
-4302 -2455 0
-3178 -3819 0
4297 -3820 0
4271 3904 0
-4362 2223 0
-720 -3466 0
4371 -3529 0
4200 3915 0
-249 1311 0
3625 -430 0
-380 -166 0
-318 3458 0
3244 2164 0
-1186 -4108 0
-1691 4436 0
4223 -557 0
895 -4291 0
-2101 -1243 0
-4685 -3658 0
-1407 3827 0
3063 -3439 0
-553 2474 0
3917 -1978 0
514 940 0
2517 3649 0
-3947 2037 0
3419 1634 0
-1573 -1610 0
3167 -4178 0
-951 -1529 0
4299 -2672 0
1285 2254 0
-4564 -4315 0
4052 3151 0
1948 -991 0
-3791 -3800 0
-482 1879 0
1902 2627 0
2738 -2740 0
1666 -4729 0
-1354 4659 0
-71 2323 0
1393 -1902 0
4209 1746 0
453 -881 0
469 3402 0
953 935 0
4698 2222 0
4690 2243 0
2771 2578 0
1078 -4472 0
-3540 4427 0
1457 -1493 0
1631 520 0
1148 1874 0
-1158 -3106 0
-2824 3821 0
53 -535 0
-3607 -870 0
351 -3044 0
1259 -4218 0
-3181 -3338 0
-1556 3092 0
-4494 1440 0
-3309 -4162 0
-242 3456 0
-3466 3713 0
1962 1034 0
4335 -1990 0
-2668 -634 0
3109 2769 0
-2174 3448 0
-3046 3069 0
-3645 684 0
1003 -3102 0
-475 -1497 0
2183 -4579 0
-760 -2757 0
-2760 -3545 0
3363 -1169 0
1679 -3604 0
-881 3367 0
2535 -194 0
3360 1753 0
874 -70 0
-1022 -1899 0
-4412 -2474 0
-4390 4662 0
-1912 322 0
3480 2114 0
4210 4536 0
4526 297 0
4415 -4221 0
-4714 -3198 0
-3349 3431 0
-4407 3603 0
-1341 2874 0
4229 -2529 0
-764 2343 0
-2698 1817 0
-1291 -2662 0
3944 -3399 0
-2255 -1578 0
1242 -1187 0
-3033 741 0
2287 3402 0
-4347 -476 0
2214 350 0
-3136 2863 0
3326 2656 0
815 -4613 0
1901 1435 0
740 -4139 0
780 -114 0
661 -2672 0
2246 4028 0
1705 3023 0
4224 1188 0
-2148 -3851 0
124 2975 0
3301 1293 0
-3772 -266 0
4417 -2098 0
-299 -377 0
2504 1085 0
1684 -1153 0
-3909 -2303 0
4680 -324 0
-3457 3454 0
-2600 -1468 0
-3661 -3985 0
-3767 -2709 0
1521 4079 0
-3384 4196 0
3487 1545 0
-2337 -1108 0
2528 2440 0
3621 4679 0
-2161 4389 0
3563 4023 0
798 3656 0
2483 -2284 0
-4239 -3085 0
-1356 -189 0
-311 -2108 0
-2562 -2840 0
-3296 3105 0
-494 1200 0
-2601 2419 0
797 -3136 0
4550 2250 0
2265 -650 0
1269 3337 0
-3692 2688 0
2808 374 0
-3600 -1967 0
4290 -2803 0
-1404 -2569 0
4052 -4581 0
-4403 -4517 0
-3811 -4661 0
-1017 3597 0
2729 2907 0
4024 -1990 0
-3440 -568 0
-1647 -516 0
-855 -3005 0
3062 4335 0
1399 -426 0
-2874 -2570 0
2901 -2427 0
-2915 1712 0
3246 4530 0
-4225 132 0
2225 2251 0
-1165 -805 0
3982 -4422 0
-381 2366 0
-1612 -964 0
2544 -429 0
243 2204 0
4025 -4492 0
1294 1857 0
-4099 4662 0
-1659 -3684 0
-4494 379 0
-3157 3088 0
-2099 -4668 0
3081 1455 0
-4126 3731 0
2944 -4203 0
-2799 1601 0
-3059 1466 0
-2929 -3487 0
-3720 -1809 0
-3423 -42 0
-3789 -313 0
-1381 -4345 0
2034 4052 0
-322 1086 0
4335 2824 0
2463 4124 0
-2853 3163 0
-200 -1668 0
2375 2429 0
4495 475 0
-915 621 0
-1136 -2440 0
52 1067 0
265 -336 0
-373 -74 0
-4681 2326 0
458 1807 0
1082 -282 0
568 3908 0
2138 -2885 0
-3193 2807 0
-623 -3354 0
-4712 1975 0
2966 -4346 0
-2667 -803 0
-1192 1590 0
988 -353 0
-1066 -4748 0
2113 3378 0
-1978 -4182 0
-3023 1238 0
4623 1267 0
939 1035 0
3869 -4552 0
-462 -3029 0
-1694 -4 0
1943 3133 0
2233 -1194 0
-666 -3625 0
1351 3398 0
1863 -1376 0
-313 3836 0
-3512 1101 0
3637 2483 0
-60 -332 0
-966 4748 0
2163 -3917 0
-4462 -1743 0
-2380 815 0
1474 -2358 0
1235 -77 0
-4174 -206 0
4268 4461 0
-2932 -182 0
-2349 -4639 0
3894 3568 0
2860 912 0
3915 772 0
-873 2511 0
4309 -4581 0
2485 -4512 0
-3643 -2854 0
4483 -402 0
4171 3514 0
1677 -2755 0
439 -4088 0
1759 2846 0
1033 -2953 0
-559 2389 0
-1849 3027 0
2713 3850 0
-2416 -2821 0
-891 -4340 0
1124 -294 0
-2923 4249 0
-2566 1502 0
-4585 1443 0
2293 4487 0
2183 -1672 0
-3658 -2198 0
-2442 3483 0
-2158 -2013 0
880 -1160 0
4312 442 0
-2811 811 0
-52 -4451 0
503 -1339 0
79 539 0
-1770 -3539 0
4724 -3533 0
4403 3544 0
4011 1829 0
3775 2059 0
-3757 1344 0
4471 -816 0
3849 2726 0
-2065 3154 0
-812 -376 0
-1370 1977 0
-1826 1313 0
1581 3197 0
-1273 -3895 0
-2602 -1672 0
-2557 -3893 0
-1711 -736 0
554 995 0
4700 4203 0
-4687 -721 0
-546 4018 0
2935 -2497 0
-1804 2614 0
1357 -699 0
1092 -3003 0
2157 1055 0
2088 3930 0
455 1900 0
1888 2463 0
1841 -2270 0
2181 3734 0
-3183 -4512 0
-3475 1974 0
-3332 -4009 0
1033 2655 0
-4627 -134 0
-1390 3390 0
3766 -2664 0
-2898 -3318 0
4173 4043 0
-2825 1368 0
849 4617 0
1186 -39 0
-4471 544 0
3887 2417 0
-310 -4376 0
4306 1679 0
4385 1141 0
4418 3653 0
-1748 68 0
756 1321 0
-1382 4613 0
-2491 -1935 0
2026 4732 0
2872 372 0
-78 -161 0
3667 1021 0
1475 345 0
-4501 -1253 0
1498 3549 0
4505 -194 0
-4344 3314 0
-3922 875 0
1484 -2673 0
4070 1326 0
-1757 1056 0
3433 -3820 0
3219 -4103 0
-3895 -971 0
3777 125 0
2824 -2423 0
3943 -2979 0
-633 -3325 0
-3469 -451 0
-51 -4431 0
4034 2749 0
184 374 0
-2328 280 0
-978 -1625 0
-3184 2523 0
-4535 2407 0
-194 -2122 0
-4337 1628 0
-3457 4010 0
1827 -4614 0
16 -1229 0
-4595 1081 0
3483 3157 0
-3901 -2748 0
1874 -1148 0
2280 -414 0
-1852 669 0
-346 4210 0
3058 173 0
-4132 1272 0
1609 -423 0
3446 1654 0
3265 -2313 0
2694 -382 0
-3256 -4392 0
-2561 -3558 0
3288 -1614 0
2453 -1881 0
212 -4435 0
-1841 -4630 0
-178 -384 0
-2886 -2760 0
2308 4228 0
-617 357 0
2183 4334 0
-3872 1411 0
1419 -2785 0
3771 1904 0
-3600 892 0
3762 318 0
-239 -1207 0
380 4506 0
-4547 -4382 0
3923 -1076 0
-2001 4547 0
2336 390 0
3088 1695 0
68 2423 0
-1139 4478 0
1688 3432 0
1302 -1584 0
2408 829 0
3433 -2186 0
-2067 -731 0
611 1571 0
-4456 -649 0
-706 3449 0
410 -3872 0
1277 -1210 0
2338 1178 0
3876 2201 0
3849 -3516 0
-472 3330 0
81 -217 0
-1274 1780 0
3144 1898 0
2702 2886 0
-504 2181 0
-1614 32 0
3731 -4572 0
687 73 0
-3121 -381 0
-2040 -2586 0
2042 -3568 0
1763 -2709 0
791 -88 0
2874 3306 0
2184 -4034 0
-1552 -3626 0
3250 2512 0
69 2056 0
1678 666 0
318 4311 0
547 -694 0
-76 3993 0
888 -2803 0
3101 -2083 0
3736 1504 0
2254 2887 0
22 4238 0
3424 3833 0
-2038 -845 0
-379 3638 0
153 1086 0
2061 4235 0
814 -2591 0
-2019 428 0
-3466 2486 0
-2313 -2812 0
-2459 -2166 0
-4273 -1246 0
-4047 -3864 0
3224 -1345 0
3775 4152 0
-3334 -3665 0
-4098 -2997 0
4423 -3300 0
-1359 1199 0
987 -355 0
-1176 938 0
3749 2689 0
-1040 1536 0
3153 682 0
3713 227 0
426 1639 0
4706 2272 0
-3929 659 0
71 1088 0
841 2532 0
1927 -1284 0
3697 4216 0
2821 -3678 0
-2775 1569 0
497 -2850 0
-3429 1430 0
4424 246 0
-4505 4626 0
2726 1107 0
3182 103 0
-476 2369 0
738 77 0
-3823 -2121 0
-2823 -1097 0
2994 -1967 0
-2194 -4629 0
-2991 3597 0
-623 -998 0
241 4313 0
-1242 -524 0
-4095 -2403 0
780 -3577 0
1362 -3522 0
-4143 2627 0
-264 -713 0
-1070 -1897 0
-3940 -1442 0
-397 2354 0
-992 -1651 0
969 -3632 0
-507 -671 0
14 1029 0
3556 -4037 0
-2036 -1788 0
-2912 -3243 0
4192 -2214 0
-2515 -1494 0
-1448 -3429 0
-548 796 0
1876 4417 0
-504 -3552 0
-1354 3568 0
1718 -4322 0
1360 -445 0
967 -979 0
1294 -267 0
-4573 -1841 0
-303 4512 0
1043 -1153 0
4529 -3665 0
-1950 -2794 0
-947 -4599 0
-688 -4419 0
695 3112 0
2694 -3203 0
-1331 341 0
-3043 550 0
-1772 -3130 0
4551 2079 0
745 2059 0
1635 1411 0
3926 -3398 0
-4161 2379 0
-2612 1520 0
2093 -3664 0
4718 -1244 0
-4173 -1282 0
4180 2997 0
2344 1703 0
1326 -314 0
383 -1309 0
-4561 3473 0
-570 -185 0
-2604 4456 0
-3200 4512 0
1827 1956 0
149 -2577 0
-3773 -2255 0
3777 -3159 0
2799 1885 0
3640 2452 0
-887 3642 0
-4685 -2559 0
-2073 -1055 0
-2749 2168 0
-3242 4638 0
-1080 900 0
515 -1149 0
1595 -3493 0
3548 4141 0
-3264 2913 0
-1744 436 0
3139 -1211 0
4257 -1145 0
-3879 3144 0
-1242 1543 0
-2859 86 0
-1255 2563 0
-1492 -3495 0
-181 -4740 0
-2561 1718 0
655 -3655 0
-3203 2023 0
4266 -957 0
3193 -1967 0
3574 -1386 0
4255 1393 0
2756 4560 0
-3909 1355 0
1561 467 0
-62 -2885 0
-3343 1987 0
3389 -3885 0
-3016 4292 0
1626 -3420 0
4638 -2682 0
-1463 -2360 0
1409 2472 0
912 -1308 0
4746 -3787 0
-3693 -1436 0
1256 2696 0
-4286 2413 0
3962 2833 0
-3259 2671 0
2090 -4295 0
-409 1904 0
4574 -2459 0
675 -4641 0
-4453 -3612 0
-2899 3548 0
-1917 -1657 0
-3127 -715 0
-1521 -1702 0
356 3575 0
4335 3177 0
4129 -1298 0
3021 -3922 0
-2717 2995 0
861 -3552 0
2827 -2522 0
1271 256 0
-134 674 0
4531 -3424 0
-2397 -3476 0
2756 102 0
-4755 2297 0
-4538 -1858 0
222 -1840 0
-1378 4442 0
3852 -4351 0
-2669 -2703 0
-3972 -20 0
-1776 2420 0
-3329 2985 0
4531 -953 0
2657 508 0
-2078 3872 0
-3950 -2224 0
-716 2333 0
3442 2446 0
1634 4060 0
4369 1817 0
-3045 -2322 0
2557 -374 0
-3143 3383 0
-712 3527 0
1169 -2448 0
-3182 -2350 0
-2827 1074 0
4375 123 0
3111 3986 0
-3836 -4320 0
542 2093 0
-3885 -3343 0
987 1221 0
-1542 2013 0
2976 254 0
-453 -5 0
4640 101 0
-2297 -4241 0
-2573 1738 0
2301 4044 0
2050 -633 0
-4722 -2009 0
3337 551 0
-1249 3912 0
3401 768 0
4677 2158 0
-4346 575 0
-3466 -2749 0
-947 2671 0
2331 -1315 0
-1095 2436 0
-885 -4255 0
-3822 -1230 0
-4384 -2063 0
-3452 -1675 0
3356 -3810 0
2192 2734 0
-2565 3161 0
4692 -4419 0
1472 -3034 0
1569 3892 0
1153 -4444 0
-3908 3108 0
-743 4407 0
-2291 -3344 0
-4715 3928 0
2742 -1050 0
-379 -211 0
-2250 2407 0
1425 1061 0
-1064 -1131 0
-4334 -2928 0
-3204 -2308 0
3133 3887 0
4287 -3285 0
-230 3996 0
4046 -2932 0
-39 -4258 0
-3864 318 0
-4144 3521 0
-3407 -4065 0
-391 -642 0
-2865 -3615 0
1325 -3233 0
132 1040 0
4253 -2915 0
-1186 -2586 0
-2217 -53 0
-4181 -2524 0
4099 -712 0
2392 -2564 0
-1150 -414 0
-3957 -801 0
3575 549 0
1368 -4211 0
4740 -268 0
-3576 4530 0
3582 234 0
-647 1742 0
-1686 -803 0
-4475 4399 0
1729 3270 0
-706 77 0
-1408 -3482 0
1579 -1102 0
-554 -523 0
3061 -1289 0
-3566 -272 0
-2263 -3841 0
-1314 -2949 0
-2651 4180 0
1325 -2301 0
3356 -710 0
4166 1595 0
3848 3451 0
4432 -3269 0
1437 -2602 0
-817 -3994 0
-3847 3862 0
452 -2206 0
346 1252 0
-3097 -146 0
-292 -4125 0
-2952 -4487 0
1212 -4178 0
1712 3238 0
484 -2032 0
2455 3433 0
-2526 4536 0
-2170 4389 0
3388 -167 0
-2609 -4643 0
-4056 -2172 0
718 -1819 0
-2532 -1592 0
-3798 -2242 0
-1301 2382 0
4370 -4022 0
3591 1848 0
455 2637 0
1798 -732 0
-2540 -2098 0
-3807 -1668 0
-3241 2773 0
3498 3880 0
-2000 1030 0
4383 -3641 0
-634 496 0
4126 -4097 0
3830 4564 0
-1052 -1503 0
941 -2179 0
3175 2510 0
2074 2528 0
2046 -1983 0
-640 -1987 0
-1599 -1451 0
1205 2801 0
-1832 4659 0
-4138 -1152 0
-976 4666 0
-3273 4384 0
-3269 2014 0
-3435 -4482 0
-471 185 0
-3134 -2600 0
-4490 -3425 0
-268 -3091 0
3390 4493 0
-4695 2394 0
856 -4345 0
2142 2091 0
3560 -3063 0
-4633 2434 0
110 663 0
-1080 2469 0
2247 -1392 0
3290 2020 0
-2899 2012 0
1200 3344 0
848 4329 0
-1656 1528 0
4239 -4640 0
-2932 -763 0
1431 938 0
2698 2773 0
-2041 3758 0
-2628 4724 0
-593 1812 0
930 4657 0
-2711 1070 0
-1045 -3710 0
-3406 -4175 0
454 3305 0
-2807 696 0
1514 3571 0
-2099 1857 0
3440 1143 0
3653 -4142 0
589 -3550 0
3431 -2796 0
3150 1399 0
-3352 3455 0
702 -1522 0
-2834 -981 0
3665 -353 0
187 1541 0
961 1040 0
1089 1052 0
-4127 -850 0
-4155 3735 0
3368 -4581 0
-2862 -1080 0
4529 -3948 0
2637 -4279 0
156 2846 0
-3487 4577 0
-3553 -1784 0
-1135 -1424 0
2345 2163 0
-3868 -2067 0
-3554 -3580 0
4741 1173 0
3196 -1494 0
-2261 867 0
-4635 -2239 0
3165 2819 0
-3093 4564 0
-425 3009 0
-2103 -466 0
4010 -1336 0
582 -179 0
1038 3666 0
4566 -1066 0
3054 1387 0
-1465 909 0
-585 3916 0
-1599 2136 0
937 493 0
-294 4726 0
-775 4219 0
-2213 -3917 0
-4717 -779 0
3823 1367 0
1928 -3625 0
-4347 3978 0
-968 1658 0
931 2531 0
-4085 4290 0
-3739 69 0
3738 3683 0
4619 -2711 0
3197 -3013 0
991 3018 0
3459 -1919 0
-293 3223 0
3323 -4102 0
3637 2405 0
-3422 1268 0
3418 2569 0
1981 2557 0
2443 4574 0
-4173 3093 0
3376 -2874 0
-1304 1034 0
3685 2591 0
-4355 -1835 0
-55 3038 0
-2924 4411 0
258 -1557 0
-1526 3695 0
-2502 -1820 0
-1349 3245 0
-694 1736 0
2523 2981 0
-3489 -854 0
-1647 3067 0
4389 4662 0
3255 -1973 0
-4172 3654 0
2777 -4414 0
-2357 686 0
2209 -3856 0
410 -1604 0
4290 347 0
-3748 -2939 0
-850 -3576 0
946 -1182 0
68 4159 0
3627 -1946 0
-3790 -4412 0
-272 -2354 0
2756 3524 0
2086 -583 0
4519 -1632 0
365 -2403 0
-3590 -4385 0
-4627 -3262 0
4109 -1840 0
1141 4289 0
-2762 -2495 0
1042 2196 0
2024 -1493 0
-135 970 0
2541 -3032 0
2368 334 0
-4107 -936 0
-2893 -4156 0
1375 3051 0
4690 -4056 0
-2197 -2916 0
-2680 -1643 0
3927 -4628 0
-1423 3786 0
-956 1643 0
1967 -182 0
-3157 -2578 0
-128 601 0
1827 538 0
-2836 -3176 0
-3075 -4745 0
4738 647 0
-1805 -1243 0
-980 -1664 0
-2162 1018 0
-2492 3213 0
-4057 4525 0
3714 -4134 0
2467 2177 0
1107 4594 0
2581 1371 0
748 1147 0
703 3628 0
-2797 1757 0
-1918 1039 0
1447 3083 0
2476 -2951 0
2839 2016 0
-429 3637 0
-4275 -4004 0
1065 2294 0
-2798 -1550 0
4504 -2708 0
-2738 -850 0
3638 642 0
2601 784 0
2473 -2294 0
2168 -3949 0
-3261 3510 0
-3047 4503 0
780 -4616 0
3337 -867 0
-2750 324 0
2810 -3452 0
3374 -4355 0
-791 -4225 0
-2192 -3489 0
2086 -1613 0
-999 3556 0
-494 505 0
3716 1581 0
-608 -3206 0
-1635 2048 0
1885 4146 0
3996 -476 0
-2530 -4171 0
-4514 1096 0
-1808 -1254 0
89 3906 0
804 4574 0
-3566 874 0
119 1347 0
4303 3006 0
1610 -2760 0
1121 1882 0
-3433 -1984 0
115 549 0
-2069 -2813 0
1754 3528 0
-2933 -4632 0
3335 241 0
-1790 -3229 0
-4519 678 0
-1046 4210 0
3854 3516 0
-1475 -1414 0
-1181 1378 0
2041 -3840 0
-4562 3118 0
-177 -1115 0
-2361 3228 0
3735 -3496 0
1676 -2757 0
64 -3446 0
-2482 3887 0
1267 -4152 0
-2919 -1901 0
-868 4469 0
210 474 0
-2894 4615 0
-264 4491 0
-4021 -3658 0
-1670 -1167 0
-1453 -3962 0
110 1657 0
1631 2035 0
-628 -3168 0
3808 4025 0
-1715 -477 0
3389 -4630 0
-1349 2241 0
-1670 -3765 0
-474 1862 0
-2806 -826 0
-3585 -3813 0
4344 4724 0
-1095 -3626 0
4389 3998 0
1765 2542 0
-2917 -3496 0
4242 -3351 0
-3602 -4560 0
2035 1214 0
-76 -236 0
-2921 2252 0
-4299 -4673 0
3415 -1376 0
-4128 -4315 0
3214 3748 0
-3281 4689 0
-4133 -2237 0
1956 -1247 0
1269 2777 0
1955 4669 0
-1255 -3841 0
-3264 -4265 0
2821 1388 0
-1024 -506 0
2292 262 0
1561 4003 0
-4084 185 0
-649 -691 0
-1148 1256 0
3992 -886 0
4595 3090 0
-2315 -1941 0
-2899 -2678 0
4251 -4294 0
4570 -1066 0
2850 -2675 0
3781 2052 0
-476 -3192 0
-1685 1090 0
-4461 742 0
2555 -3893 0
996 948 0
2848 782 0
-848 -156 0
2045 4023 0
-4482 807 0
1349 4135 0
-4104 4529 0
-3580 -3311 0
-2839 105 0
1729 -4064 0
-3616 2280 0
3597 -2725 0
2815 3886 0
-2095 4254 0
-2711 -3796 0
-1184 1929 0
2726 1710 0
-4248 4154 0
-1952 2962 0
4345 2142 0
1415 -352 0
-648 2927 0
502 4438 0
-786 -4543 0
-3428 -3471 0
2942 2147 0
733 -669 0
2422 897 0
-1417 4082 0
2274 -851 0
-893 -3243 0
3396 -4472 0
-3929 -3238 0
-4447 3805 0
-1529 3360 0
-3009 -4624 0
4019 3661 0
2889 4029 0
3355 3223 0
2417 122 0
-4755 -260 0
-1113 -3389 0
199 1921 0
-56 2865 0
-1538 2870 0
-3779 2153 0
2770 2787 0
554 -1703 0
-1772 -1889 0
-905 -3996 0
3006 -2928 0
1263 2228 0
-4392 3678 0
-3723 -2955 0
-2399 3081 0
-2150 2518 0
-1606 3184 0
-3179 -1613 0
-2361 -2913 0
3558 2527 0
-1036 4464 0
2102 2858 0
2743 3661 0
2994 -3097 0
-1269 1126 0
2872 4183 0
1863 -1796 0
-1171 3597 0
-1824 -2966 0
-4222 4378 0
4332 -851 0
-2786 3169 0
-2771 100 0
2219 2625 0
-1635 -523 0
-476 -2929 0
2026 4208 0
-1164 -2930 0
-3706 1649 0
566 -2225 0
-1113 1262 0
2110 -1943 0
-2747 1995 0
2205 2420 0
-2066 2809 0
-1838 724 0
2423 352 0
-2778 -4086 0
-466 724 0
-3318 -892 0
-377 -1128 0
1458 258 0
-1966 1237 0
-3973 -403 0
2423 2488 0
-3940 -1612 0
3042 -241 0
3617 1797 0
1052 -1154 0
-1346 1278 0
3916 3578 0
3775 4107 0
-4097 1597 0
-311 -66 0
-2450 -1507 0
1244 3551 0
-4250 782 0
492 -1151 0
-3557 489 0
-2424 -1083 0
-1289 -3604 0
455 1459 0
3909 -2564 0
52 -3645 0
2649 -1583 0
-4505 363 0
-4651 3548 0
1992 -4392 0
724 -1314 0
2153 -1724 0
-3502 4034 0
-2851 -2834 0
-3010 126 0
-2572 2335 0
3891 -249 0
-1671 3137 0
-3469 1175 0
-909 4191 0
-2194 -2372 0
1040 -1386 0
3744 -1083 0
-2890 1872 0
-827 -2357 0
1858 -1990 0
-2058 96 0
874 -2720 0
-2023 3279 0
-4197 3656 0
1811 -49 0
-4219 3791 0
-3459 1625 0
3309 -1467 0
-3823 3212 0
-2684 -4746 0
1155 1916 0
291 -2290 0
-3207 4054 0
-4328 1954 0
3213 3223 0
-4259 994 0
-139 1996 0
-3704 3894 0
-2435 -1277 0
1281 3891 0
2918 4287 0
1806 4734 0
-1695 -476 0
4147 -2059 0
-2933 -3761 0
-2516 899 0
-827 -2620 0
161 -693 0
544 4069 0
-2880 -2698 0
-2451 4273 0
4696 -4266 0
-4283 640 0
-850 666 0
-773 -1301 0
-4156 3068 0
-491 -142 0
-2727 970 0
-2157 1441 0
4161 -785 0
988 3897 0
4251 -1666 0
-2046 -1261 0
-1519 3635 0
1615 -1855 0
4607 -4524 0
3923 -1019 0
3308 -2037 0
3690 -3256 0
3529 3538 0
-615 4017 0
3562 1235 0
749 2912 0
-314 -2923 0
-1819 -1526 0
-2593 1927 0
-2014 1992 0
-2755 1104 0
-198 4726 0
2256 -2818 0
-772 396 0
861 -1143 0
-523 156 0
2273 1452 0
2697 617 0
-2251 4511 0
-1615 -2487 0
2951 710 0
-2430 1459 0
-3687 -2564 0
3704 -3075 0
4478 4652 0
3226 2133 0
-3783 655 0
-211 2329 0
961 2876 0
3166 2083 0
1157 1078 0
33 3955 0
3970 3165 0
1430 -3097 0
-3037 -1077 0
-44 2308 0
3145 -1351 0
4611 -2695 0
2161 4079 0
-2355 -1131 0
-4709 2907 0
-54 3887 0
51 2830 0
-881 3088 0
-2291 3309 0
-168 1116 0
-3377 -3748 0
2078 -730 0
-4628 3168 0
-1130 -2775 0
-3647 517 0
-1774 2390 0
4239 -2672 0
2921 2546 0
1829 4137 0
-799 -4127 0
-2487 1255 0
-429 3092 0
-789 3835 0
-2471 -2409 0
4062 2034 0
-2459 1986 0
1243 -1187 0
3417 -1219 0
-4282 -3010 0
-1368 2935 0
881 328 0
156 4546 0
-954 -921 0
-47 -240 0
3886 -2705 0
3548 363 0
4280 -4682 0
-777 -3660 0
-461 -220 0
-1074 3894 0
36 1914 0
-4417 -3572 0
-805 4047 0
-3375 -2212 0
4456 -4566 0
-936 2473 0
-3429 402 0
2429 145 0
-2648 -837 0
2474 -4108 0
-2465 4452 0
3546 1651 0
951 -315 0
2493 797 0
1215 2418 0
-464 1588 0
-4547 507 0
603 -721 0
-2537 -38 0
-18 -409 0
1947 -288 0
-1104 4375 0
-452 508 0
-2957 -4661 0
-455 -393 0
4312 -987 0
894 1530 0
-933 1062 0
1739 352 0
-2932 3027 0
-3495 4218 0
3670 4390 0
-3310 -2915 0
-2083 4043 0
172 3795 0
4301 -748 0
2377 -3707 0
4438 97 0
-2965 3319 0
-3256 -2283 0
-4313 -2923 0
1666 -1339 0
1877 267 0
3534 2724 0
4193 1628 0
2511 2255 0
886 -3961 0
-2714 -1859 0
1043 -4349 0
840 2356 0
4369 4207 0
-1631 -250 0
3699 -601 0
2095 -608 0
-934 -3317 0
-2339 -2075 0
-4059 2429 0
3190 2001 0
-4656 -2239 0
894 4548 0
1288 -206 0
4431 1382 0
-563 411 0
-2620 1621 0
4701 923 0
122 -785 0
-581 4118 0
-4632 3219 0
1046 4618 0
102 -4002 0
-2385 -2340 0
566 -1251 0
4233 -531 0
3784 4064 0
-2598 2298 0
-3676 -2076 0
2347 -2549 0
-2933 -2685 0
3213 -1026 0
-3962 -491 0
-459 1759 0
-3486 -2928 0
-1230 1572 0
-159 -2410 0
2115 -2345 0
-76 2407 0
-2553 -2199 0
4134 1759 0
1697 -2452 0
271 2477 0
-4535 1421 0
-3344 -134 0
2103 -1828 0
4495 -1840 0
1827 -4172 0
1101 -2342 0
3916 4452 0
400 3707 0
-4433 -3931 0
4022 802 0
1156 1100 0
-1463 1756 0
2295 1573 0
1414 395 0
-3971 3268 0
-3371 -4595 0
4531 432 0
2201 -1420 0
-1226 1733 0
362 201 0
4311 1301 0
-1772 1579 0
-1400 -1031 0
-684 -2007 0
2546 450 0
-3417 -2527 0
-575 1922 0
2988 -3387 0
-3578 3042 0
-1919 -2481 0
-4609 -4295 0
1204 -1457 0
-3125 1957 0
-1696 2971 0
-787 4071 0
2984 -1220 0
-2587 4742 0
-911 2160 0
-3965 -2305 0
2022 -1669 0
2821 239 0
-4630 4304 0
-2908 2246 0
3154 -3335 0
3632 -3485 0
4002 -592 0
1440 2864 0
4340 -4668 0
4400 -4386 0
-3626 1210 0
590 -1350 0
26 -3377 0
341 2603 0
-561 -2891 0
-4101 3232 0
2550 -2856 0
1446 3241 0
2379 -4536 0
-1388 -1905 0
-3740 -3687 0
3218 2512 0
-1840 865 0
1208 2922 0
-2082 3943 0
2568 4280 0
3556 2101 0
3453 3483 0
-4032 3062 0
1030 -2654 0
2032 -3799 0
-3809 4093 0
2475 1348 0
741 2678 0
-1692 1619 0
1964 1016 0
-2714 -4696 0
-850 -3101 0
2564 454 0
2320 -2061 0
3679 4394 0
-1994 648 0
-1883 742 0
-72 -3906 0
-2032 -3977 0
-4450 1441 0
-46 2406 0
-193 -500 0
3255 -3522 0
622 701 0
1971 -523 0
-3026 1738 0
-1972 4294 0
-2919 -206 0
-2212 4010 0
723 3851 0
-1786 -217 0
-3434 1156 0
-216 4289 0
-2397 3393 0
-3543 -1120 0
1993 -1641 0
-1861 3539 0
-1973 -2237 0
717 2728 0
179 -3171 0
-2726 4351 0
3366 -1048 0
2797 4536 0
-841 -2329 0
289 4260 0
-2367 4598 0
2787 4719 0
4012 -2760 0
-3954 1179 0
-3922 -783 0
1734 -2125 0
2743 4136 0
-2865 1692 0
201 -4088 0
-1743 -3296 0
2075 -177 0
316 1337 0
-867 2309 0
-1276 -298 0
-1550 4360 0
965 3813 0
4257 641 0
-2522 2085 0
-4280 4044 0
-2131 3721 0
4082 2635 0
-985 -2136 0
1630 -3682 0
4637 -1395 0
-4652 1732 0
772 -2914 0
-1307 -75 0
-1019 -2035 0
3703 -3310 0
-3244 -419 0
-4396 1169 0
1503 1815 0
1021 -3574 0
-4208 -3714 0
-2915 -1317 0
1455 -4231 0
-2475 690 0
-1804 -131 0
-3368 -1485 0
-1170 -1309 0
-531 -3589 0
-2508 -2267 0
-3602 -1872 0
2221 3713 0
3666 -1781 0
-2198 2160 0
3108 1028 0
-4182 322 0
1122 -1250 0
-2061 -570 0
3087 -921 0
3086 -908 0
2637 3117 0
105 -4577 0
-2320 205 0
-4317 -3065 0
-3978 2199 0
-848 3104 0
3005 -4131 0
4028 2260 0
-3924 1883 0
337 3147 0
2123 2952 0
-2790 -4151 0
2748 -3516 0
-788 4495 0
3622 3666 0
-1599 1842 0
4519 4064 0
-1516 2743 0
3813 -3126 0
2905 -119 0
2497 -1583 0
-3756 3952 0
-841 -1526 0
-1937 2282 0
3871 -249 0
-629 3416 0
-1306 622 0
-2103 3115 0
227 -1658 0
-2975 -914 0
188 3453 0
1508 -2551 0
-3984 -456 0
-2850 -2942 0
4525 1619 0
-3702 -1721 0
-868 368 0
-3899 -1468 0
770 1610 0
4570 -4379 0
-4083 -2790 0
-2108 4231 0
1284 2911 0
4437 -2855 0
-3616 -669 0
-598 2302 0
-2191 -1942 0
2014 3516 0
1358 698 0
-4633 1836 0
-1633 6 0
-3654 2518 0
-1418 -1622 0
-4721 -974 0
4606 -2245 0
-1699 1567 0
-3477 -2703 0
-85 -3903 0
-135 -1110 0
2274 -3230 0
3880 -1990 0
-4095 -2549 0
2639 106 0
-2459 2601 0
520 411 0
-1765 1662 0
155 -371 0
-3650 1794 0
-3340 3103 0
-2742 1097 0
3076 2209 0
-1104 505 0
-2487 -4074 0
-4260 -4376 0
-202 -2750 0
2957 -1498 0
2350 -4308 0
3931 -4158 0
-834 -2877 0
3084 3603 0
-2537 -1164 0
902 -3467 0
4321 1751 0
2502 2995 0
1256 -3072 0
4122 2407 0
516 -4008 0
-130 -2120 0
-409 4060 0
2414 -4030 0
-3740 2767 0
-4143 -3926 0
538 -959 0
3262 -4192 0
2323 -3346 0
-4528 1258 0
-4002 4592 0
-2925 3986 0
-1633 1357 0
4031 -1286 0
1418 74 0
2731 -4584 0
-2052 838 0
-2182 455 0
-4084 -2205 0
-1219 -2205 0
4269 -1573 0
1569 514 0
4740 2262 0
-1755 92 0
-2096 4383 0
3253 -1540 0
3519 3296 0
3871 3703 0
2249 3376 0
3685 -2604 0
2726 -1977 0
1195 -4373 0
-4121 -2471 0
2477 -2033 0
-2576 4522 0
264 4038 0
-4705 2472 0
4140 -650 0
4218 2335 0
-516 -3113 0
-38 1297 0
-3502 -2693 0
-3289 -331 0
2787 2806 0
-1076 1200 0
-2135 1667 0
3051 -3798 0
3190 -1476 0
2994 -4065 0
2836 -3240 0
-3778 -1601 0
2938 -1859 0
-4117 -3378 0
4710 -3893 0
3887 -2484 0
-3954 -4707 0
2041 -2032 0
-1786 4657 0
-4633 4520 0
-3213 -3050 0
-3787 3839 0
-4569 4160 0
-2663 988 0
2868 2500 0
3734 -3467 0
-2786 -4175 0
180 -3589 0
146 2515 0
-2022 2619 0
1648 3344 0
4245 2285 0
1072 -3491 0
4680 3432 0
2617 -1274 0
-2786 -3633 0
-4204 -2352 0
1815 1701 0
-3956 1387 0
-2827 4120 0
-722 4712 0
4183 -1687 0
3839 1060 0
3228 -3791 0
4226 3647 0
-158 2388 0
-2436 1530 0
-4114 -832 0
1027 4452 0
-4644 -3294 0
3221 1282 0
1714 3377 0
-2641 -4589 0
4185 -2092 0
861 -1881 0
3 231 0
872 3822 0
1192 3842 0
762 -1833 0
206 1627 0
-4509 2325 0
-4158 1066 0
4017 958 0
1022 -825 0
-4062 4698 0
-1680 3289 0
-1185 -1564 0
2899 -1463 0
48 525 0
-2180 -620 0
-3581 1026 0
4526 1184 0
3219 3119 0
2275 -444 0
-471 -3233 0
-629 270 0
-3762 -62 0
-3159 3174 0
-4093 3546 0
4536 1471 0
1241 -827 0
-143 2614 0
-213 -1600 0
1981 3137 0
-4727 -4677 0
-2090 -2971 0
2421 -61 0
-3378 -719 0
-1622 3901 0
-4056 3068 0
-1977 -2480 0
-1950 3502 0
-1782 -1114 0
-3420 -1893 0
-3694 -3401 0
-2432 782 0
-4292 38 0
3657 -2426 0
2260 172 0
-1236 2212 0
2873 -3347 0
2682 460 0
4460 -303 0
2878 2146 0
1194 810 0
686 3174 0
-2283 962 0
-4409 2874 0
2902 998 0
-1075 318 0
3307 4168 0
-1480 -2830 0
2318 -4386 0
-821 228 0
-2740 -4585 0
-3431 -2396 0
-286 4589 0
378 -220 0
-121 -321 0
4590 -3352 0
3294 748 0
-3748 1795 0
3322 3144 0
-3656 3211 0
-1121 -892 0
-3498 1533 0
3197 -2529 0
927 1337 0
-4397 3797 0
-4014 4538 0
2326 1535 0
4075 4613 0
-4209 4736 0
-233 3286 0
-2294 2657 0
-3495 4565 0
-4630 2823 0
-4578 -993 0
-2051 -2216 0
1505 1684 0
3056 -1699 0
3549 3801 0
-678 2000 0
791 -2054 0
2939 -147 0
-338 1794 0
-499 -1384 0
-1642 -132 0
-4314 -3957 0
-310 -1258 0
2236 4054 0
-4675 4353 0
-177 -1207 0
1857 -4141 0
3755 -4593 0
-3069 1867 0
-793 -3901 0
-4708 3004 0
1047 4477 0
-1026 3950 0
2682 -3029 0
2548 4023 0
2692 -1680 0
4613 2884 0
-2305 -380 0
666 -1005 0
1211 -535 0
-1529 4632 0
2011 -3192 0
3774 3741 0
-3571 2209 0
1742 -1094 0
4697 3888 0
-2488 4468 0
3852 2297 0
-597 -3814 0
3021 -1857 0
-1344 -4722 0
1293 4492 0
981 3525 0
-233 2849 0
2811 3264 0
2873 2406 0
-3249 2730 0
-398 2210 0
-1855 1976 0
3623 -2477 0
-1543 433 0
1423 2800 0
-2856 -2248 0
-691 -1368 0
341 -1785 0
4120 3069 0
2050 3264 0
4108 1635 0
1912 2440 0
-1207 3069 0
1130 2223 0
1636 -771 0
-2302 4193 0
54 1669 0
4342 284 0
2339 -3707 0
1531 -3180 0
2044 -3329 0
-1833 399 0
-4062 339 0
-3751 -1327 0
244 -2014 0
2859 -3484 0
-3057 -4336 0
-3070 -4430 0
-379 -1118 0
3163 72 0
-706 -4117 0
3732 -674 0
3541 -115 0
-4357 3503 0
-58 -4191 0
-2397 3425 0
2223 1839 0
1979 -809 0
-1643 -3237 0
-1824 2063 0
-2113 4515 0
-4561 2901 0
4694 -1274 0
2674 3444 0
-2432 4226 0
-4253 2273 0
2408 -4246 0
2048 657 0
973 -3573 0
3001 3569 0
2617 3142 0
-4709 -359 0
-688 -3238 0
4237 -1001 0
4688 570 0
-624 -3670 0
717 -221 0
-2930 -2339 0
750 2277 0
4274 -732 0
-414 -244 0
-1401 -761 0
-276 -2896 0
-4537 3027 0
692 4687 0
2536 -262 0
-1939 3309 0
3440 2862 0
-4196 -1024 0
-3114 -3190 0
-4279 -3717 0
-3639 -1451 0
3071 -3177 0
-1022 -3952 0
1322 -3737 0
-3438 -4424 0
-2739 2478 0
-909 1264 0
4717 1134 0
1904 -2548 0
3125 334 0
-3211 4105 0
597 -2916 0
-4234 3515 0
4018 -799 0
963 -2918 0
-1379 2800 0
-340 -467 0
4642 3158 0
4539 -105 0
1929 3244 0
487 2877 0
3623 2882 0
-985 -2709 0
3076 3483 0
-1625 2740 0
4036 -1051 0
142 -3668 0
1713 3107 0
2986 -2521 0
4205 4220 0
2212 -592 0
3285 -3475 0
-2466 862 0
-4660 -2165 0
-2295 -2290 0
-2538 1747 0
4751 2956 0
-1709 -1638 0
323 -1906 0
-1997 -2425 0
-2648 961 0
-4284 -1317 0
-2852 -3298 0
-376 -4558 0
2203 4436 0
1516 -4053 0
4193 -1165 0
2447 -4752 0
2692 3025 0
3921 -3904 0
-3311 -2759 0
2209 3873 0
3418 -3628 0
3504 1855 0
1812 -4526 0
-131 2510 0
148 -2668 0
-2641 1405 0
-1519 -2262 0
-3038 -3745 0
-2334 -3248 0
-4697 4534 0
1306 765 0
-4069 -2253 0
3814 1496 0
-2916 1501 0
3891 2648 0
-595 -3596 0
-2381 3874 0
-571 920 0
1215 1626 0
581 -3922 0
3198 -1310 0
-831 -154 0
-4714 4091 0
157 -3379 0
1583 -4087 0
-4624 3496 0
1248 -1296 0
1832 -64 0
4294 2837 0
-3709 -4316 0
3220 -4448 0
-2690 5 0
716 -3554 0
1855 3281 0
-2587 -3595 0
-1177 -85 0
-4418 -1955 0
-4652 749 0
2775 1740 0
306 3530 0
-4113 -4067 0
-2262 -452 0
1623 -2065 0
222 -697 0
-4055 -4352 0
-3292 2713 0
3817 -3258 0
1161 2435 0
-2129 3848 0
-2578 1787 0
-184 -624 0
3955 -2798 0
-1080 3224 0
-1844 -504 0
1915 2537 0
-3997 2056 0
878 2446 0
1816 926 0
3473 256 0
-3480 -2208 0
-3809 -108 0
-4171 -4499 0
59 3405 0
-1859 -2801 0
4726 3090 0
1963 1426 0
-4118 123 0
-1114 3850 0
2705 -3185 0
-1550 3051 0
-659 1345 0
3699 -2239 0
1890 -3889 0
3191 568 0
-3031 3077 0
4067 4437 0
1314 212 0
-3152 3295 0
-2665 -3440 0
-717 -3551 0
1215 -1231 0
2021 4429 0
-512 3314 0
-2126 4426 0
3742 3648 0
338 -1849 0
-2300 2359 0
-1179 257 0
2989 681 0
3664 119 0
-272 177 0
-2907 -1126 0
-1769 2891 0
395 3331 0
4316 -4127 0
3308 3763 0
-4002 -742 0
3220 369 0
-1363 564 0
-2647 -4189 0
1130 1420 0
-48 -3337 0
2472 2905 0
1602 1921 0
4269 2880 0
3595 -2951 0
3259 4022 0
-4660 3548 0
-4129 -3523 0
1800 -2647 0
-474 1479 0
1813 4152 0
-3801 -2052 0
-1781 897 0
3027 1454 0
-440 2765 0
3560 -1000 0
-3691 -907 0
-2055 -914 0
-4068 3820 0
-2896 -457 0
4701 -694 0
-3259 3867 0
-570 1392 0
-482 3372 0
-4356 -2654 0
-4667 4487 0
-4029 3002 0
4254 -2471 0
-905 -3789 0
3879 -1476 0
3239 -3181 0
1037 4534 0
-4602 2153 0
2795 -1116 0
3763 -2166 0
-168 1172 0
-2742 -3684 0
-3412 -3678 0
-348 2710 0
2381 -894 0
170 2050 0
-1612 1818 0
283 3481 0
-4211 4618 0
1875 4511 0
-1615 852 0
3203 -1682 0
1474 4287 0
1447 4345 0
837 -2288 0
4052 -4225 0
-3417 -2026 0
1053 2831 0
-2163 2374 0
-101 -4081 0
-4433 -2020 0
-1515 4556 0
3840 2228 0
3905 3165 0
-4601 1513 0
1832 -3366 0
1115 -1624 0
4754 1648 0
-4422 -765 0
-3298 -3619 0
-3079 3633 0
-3163 -889 0
-1504 1995 0
-424 -3551 0
1198 1996 0
1395 -3995 0
-4474 -3740 0
3699 -1952 0
372 -3245 0
-1160 -1029 0
1319 -4570 0
167 -2857 0
3232 -1304 0
3166 996 0
-4409 1078 0
-1641 2317 0
4164 -200 0
1870 3275 0
640 4330 0
3229 -3354 0
3069 -933 0
4578 2445 0
-1368 3633 0
1833 1432 0
-4693 -2951 0
4062 -2760 0
2637 -2382 0
-1603 1244 0
4439 2959 0
-2903 3977 0
1166 -4174 0
-1823 -567 0
-3033 -3950 0
888 -1600 0
349 4249 0
4619 4739 0
3673 -4444 0
-952 935 0
1374 -4649 0
1438 -2559 0
-2139 -1336 0
4610 1184 0
408 -38 0
4576 4583 0
1462 2692 0
3612 -2091 0
-1575 188 0
1754 -2609 0
-2588 -4047 0
-504 -2323 0
4634 105 0
-2326 -955 0
-4554 1210 0
3137 -146 0
3079 -952 0
-4704 -903 0
-3946 3753 0
-5 -1593 0
-2047 674 0
4584 1092 0
4379 209 0
-2803 -4638 0
253 3040 0
284 -1414 0
1322 -1499 0
3120 4133 0
2838 3565 0
2160 769 0
-1904 3198 0
-1038 309 0
-3256 -501 0
-1395 -3124 0
3994 1266 0
860 -4467 0
-3798 -1999 0
4028 3212 0
1885 -1041 0
1929 2944 0
276 -330 0
4353 3942 0
-2781 11 0
401 -3132 0
-2677 -4410 0
-4430 3766 0
-826 56 0
3257 -817 0
1756 -3364 0
-819 -2711 0
-1842 4035 0
-897 -2917 0
-4178 -237 0
740 -681 0
-1563 -260 0
1200 -3754 0
253 4063 0
-920 -2177 0
3517 -384 0
3104 3903 0
4640 -1881 0
-742 2432 0
-1127 26 0
4654 -4611 0
-1233 595 0
-221 564 0
-232 3833 0
3800 -3841 0
-4673 -1114 0
3133 1627 0
-3995 -3905 0
1734 -3768 0
-1843 -4440 0
-2132 -1643 0
-1792 3131 0
-2198 1563 0
-4644 1700 0
-4349 -3167 0
-77 3307 0
-2569 3169 0
-1441 -3790 0
739 2584 0
837 3408 0
-329 -1509 0
3000 3055 0
1053 700 0
-282 -541 0
2971 -69 0
1196 2934 0
1119 -476 0
-39 3385 0
1476 97 0
-1320 -1802 0
-517 -297 0
-691 -734 0
1922 -471 0
799 197 0
-2524 -1332 0
37 -1677 0
1452 40 0
-855 -1535 0
4351 -3893 0
-3977 3815 0
-301 2310 0
-646 2972 0
3020 447 0
-4258 1075 0
4332 -183 0
4677 -2221 0
-518 -22 0
-87 4001 0
-2618 4456 0
3134 3280 0
4257 3998 0
-916 -1355 0
-1581 -3994 0
-827 -3120 0
3195 2831 0
3367 3636 0
-3811 3313 0
-2225 258 0
2771 462 0
3456 -3244 0
1034 2100 0
20 -1129 0
-329 3776 0
2280 4367 0
243 -2224 0
-971 -1352 0
376 876 0
-2441 2898 0
2926 -3714 0
4059 3952 0
2012 1949 0
1049 3172 0
2341 1926 0
-500 1149 0
3960 4575 0
1785 3730 0
-790 -2665 0
781 -1204 0
-4560 497 0
-2953 4342 0
3621 4107 0
-3203 -491 0
3479 -4473 0
2499 -249 0
2536 -1465 0
1929 -909 0
-1183 2610 0
-637 4044 0
-506 -1873 0
-3657 3395 0
-223 4038 0
-488 4141 0
-2137 3379 0
3856 1684 0
-2105 -439 0
-4048 -1869 0
-4496 2487 0
2705 970 0
2296 -3493 0
-1151 1423 0
-1906 1302 0
4260 3362 0
2225 3056 0
3382 961 0
4076 -2349 0
4467 -2943 0
-1052 3512 0
-3936 -3940 0
-825 2738 0
2761 -1240 0
-1024 -215 0
3436 -1655 0
-644 4490 0
-1124 3852 0
-1894 -4642 0
-1202 -1113 0
-4276 3710 0
-4002 -4682 0
-2123 3881 0
-4085 -3489 0
4096 -1896 0
-1800 -3047 0
-1443 2812 0
2404 -2779 0
-4572 -687 0
-2404 1775 0
-1000 1856 0
1839 -4682 0
1701 4301 0
-4739 -2666 0
3294 -3314 0
-3355 -2890 0
1705 -1277 0
2842 -3319 0
1211 -1442 0
-230 -1226 0
-2942 2034 0
-1918 -4580 0
-4337 3179 0
385 4521 0
-738 3680 0
3593 -3668 0
-4140 -872 0
-1708 3622 0
3191 -296 0
4728 2796 0
-4488 2926 0
3045 -626 0
-2713 -2673 0
3494 3731 0
-1864 191 0
701 -377 0
-2385 -4618 0
-2002 3133 0
1117 466 0
-2372 -1950 0
3333 -4372 0
-3424 -1661 0
1955 -3482 0
3876 118 0
-3660 -2854 0
1129 2972 0
-2097 -1749 0
-2313 1552 0
-1881 -3698 0
-541 -893 0
3050 4518 0
2508 -921 0
-4060 -4219 0
1009 -1200 0
1927 4197 0
121 -2471 0
-3936 2608 0
-402 2196 0
-3513 1933 0
-2261 1123 0
3777 -692 0
142 2784 0
4275 -1804 0
-4108 463 0
-365 4325 0
-2538 -2257 0
-552 -3681 0
967 -2901 0
-1729 -4222 0
185 2498 0
-13 2080 0
352 1325 0
-4567 3794 0
4504 -3269 0
1184 4000 0
4638 2554 0
-3471 3786 0
661 -3220 0
-1614 685 0
4067 -1633 0
-4062 -722 0
-4436 2784 0
-1492 536 0
-3344 2309 0
2312 -2149 0
-838 -143 0
-3619 3071 0
-4053 -532 0
2503 -4053 0
-4541 4025 0
4281 4532 0
2728 879 0
4024 3092 0
-726 -4647 0
4277 2002 0
285 -2764 0
-1714 3151 0
-1838 -3065 0
-2416 -2700 0
1953 -524 0
-3988 2485 0
-3501 4203 0
4010 -3796 0
1036 1129 0
191 -160 0
2735 -3939 0
3041 -3659 0
2143 4304 0
820 2821 0
2585 2839 0
3210 1314 0
-878 -1833 0
693 -2439 0
3331 4047 0
1389 -358 0
-2770 -3211 0
-4636 1284 0
590 -4690 0
-3589 -4176 0
3161 1049 0
3195 -4444 0
3733 1481 0
-4015 -2063 0
1609 3990 0
-3992 -4484 0
2490 3328 0
-669 1384 0
-1283 -2751 0
-4187 1697 0
734 647 0
-1716 -1375 0
2696 -3243 0
-2633 -2092 0
-2454 -1846 0
310 -1901 0
1035 -3543 0
23 -3539 0
629 -2865 0
355 -4733 0
-1827 -2965 0
3431 -3808 0
4575 3986 0
4518 3753 0
550 -2066 0
-2235 1436 0
3881 3071 0
-2980 -1309 0
1256 2019 0
4058 2729 0
11 4057 0
1650 97 0
-3427 2033 0
2143 3975 0
988 2179 0
-2115 651 0
2503 -67 0
4118 -250 0
-2379 1851 0
-1771 -2956 0
-4514 2841 0
3444 3873 0
3133 2795 0
4751 -256 0
-1236 1244 0
1583 -4178 0
-514 100 0
-4175 48 0
-3687 -2435 0
-3127 -1484 0
-1678 -1006 0
-2579 1976 0
3947 -3459 0
-4022 1313 0
-4295 3770 0
1612 1667 0
-2234 741 0
-3498 734 0
440 -1884 0
-688 4119 0
-3358 -3748 0
-2868 -265 0
-1226 -4127 0
184 -3244 0
-181 -4660 0
480 338 0
-996 -3002 0
-508 3333 0
-2642 1570 0
3752 1531 0
-3545 -1177 0
-632 -130 0
-359 -564 0
4688 4558 0
-2380 3774 0
-1845 213 0
-3183 3829 0
3447 4135 0
-4055 1488 0
216 -3178 0
-4302 582 0
1523 3189 0
2017 -474 0
-1306 -3063 0
-4098 1422 0
-2937 2271 0
516 -2687 0
4608 4466 0
-3606 -384 0
-1045 2269 0
-1796 -4663 0
-4026 3121 0
1155 3290 0
2415 -3119 0
599 3731 0
4510 2215 0
-720 3982 0
653 -1486 0
-3655 773 0
1455 4303 0
1049 -2089 0
1582 -2995 0
-71 791 0
-2903 -2125 0
3313 3266 0
-3533 -3366 0
-3315 2365 0
-3557 -1370 0
-2419 2371 0
2601 1976 0
-2361 1673 0
-3496 -1197 0
4306 -1900 0
4112 -1956 0
12 3628 0
-4658 -1522 0
4587 480 0
1342 2962 0
-1717 4127 0
-929 -3998 0
4243 -2982 0
-1270 4310 0
-1361 -2367 0
-656 -2690 0
2961 -1080 0
-2810 1159 0
-3930 1542 0
2266 4438 0
-3645 2469 0
2902 3262 0
-18 1883 0
-1957 -3115 0
-2428 -3363 0
-482 1338 0
-2624 -3239 0
-4206 -1169 0
-4117 -4661 0
2851 -2169 0
1798 -2924 0
4492 -680 0
-4055 2745 0
-639 -1321 0
-835 3710 0
2407 2802 0
3810 -892 0
4025 2587 0
4730 1259 0
415 792 0
-602 2345 0
4174 1767 0
-2698 74 0
-308 -4243 0
-429 673 0
-4084 3215 0
257 -2066 0
3943 -2050 0
239 2374 0
1024 -408 0
1877 2033 0
4648 -2424 0
3017 -762 0
550 2485 0
-3222 2898 0
-3974 -250 0
-3643 4456 0
-1980 799 0
3212 -269 0
773 2864 0
455 -3997 0
-2877 -1076 0
-488 2637 0
-2673 1132 0
-693 3012 0
120 -4004 0
-3544 3231 0
925 -1162 0
106 4499 0
-3486 -3387 0
3162 3599 0
-607 -3013 0
1495 -4693 0
2678 2473 0
-646 -3682 0
1578 -1659 0
1009 1313 0
-1247 1220 0
3092 -3901 0
248 2037 0
-2161 -3937 0
3442 -4349 0
4431 902 0
1700 -3136 0
-666 1626 0
3219 406 0
1431 1757 0
-2299 -2240 0
-2805 210 0
4608 -583 0
-1137 -4713 0
3201 3786 0
-2591 -525 0
-3063 2873 0
2142 -3076 0
-4630 -16 0
-1241 3766 0
-3494 -3044 0
735 -388 0
198 415 0
1938 1291 0
-1900 2721 0
-3080 2160 0
-1614 -4265 0
257 187 0
465 -83 0
3538 3650 0
-1036 -4752 0
1606 -723 0
1618 1090 0
2412 1117 0
-3920 -3560 0
914 -4345 0
-3459 1427 0
1077 -3963 0
1705 4267 0
1141 350 0
195 3342 0
-2481 3974 0
-3935 -3207 0
-3493 1247 0
3509 1412 0
-866 446 0
1377 -3074 0
1244 2088 0
-101 3519 0
278 1474 0
1185 -2436 0
-3857 -1681 0
3351 -4573 0
1929 -1133 0
3819 2836 0
-4100 -843 0
-1261 3484 0
-3297 3993 0
1558 -1451 0
1982 364 0
4231 1092 0
3984 784 0
3661 2002 0
-1244 -853 0
738 2506 0
-4177 829 0
899 -3586 0
4369 -2502 0
-248 -500 0
-490 1312 0
243 -2362 0
4520 -1438 0
-2513 3607 0
-2503 -4154 0
-3813 -693 0
-3650 -3606 0
-1668 -77 0
109 -739 0
3939 3070 0
2066 4373 0
4708 4203 0
-474 55 0
-2014 -3802 0
-717 -667 0
-3337 -908 0
-3428 4627 0
2483 2126 0
2299 1086 0
-1774 -3425 0
4129 2295 0
1992 -952 0
3578 549 0
2413 -1683 0
-4206 2787 0
-3892 3646 0
2695 -2148 0
3607 987 0
3342 -3086 0
192 3394 0
-2321 3008 0
-1956 3522 0
-2195 4045 0
1021 68 0
-4678 1018 0
-1677 -4134 0
-401 -47 0
594 401 0
1531 -1309 0
796 -818 0
-1236 975 0
-35 -1405 0
3726 64 0
2033 2655 0
3900 728 0
-1104 -289 0
703 -1123 0
-3149 355 0
-477 -1555 0
-1743 4677 0
-2970 -1228 0
1191 1528 0
1737 -4141 0
4031 1039 0
3548 386 0
-4222 1302 0
-1789 -1622 0
585 1156 0
-2849 4099 0
1823 3099 0
-3310 -1370 0
1381 2129 0
766 -2548 0
2041 -895 0
-430 -451 0
-4506 1921 0
-841 175 0
4637 3802 0
3575 1114 0
-2895 2843 0
-1364 3323 0
-448 1101 0
-1449 -1456 0
-2711 -2672 0
2952 -3901 0
822 -2512 0
-3773 1695 0
-1617 4059 0
4561 -4214 0
-3907 -500 0
4260 -1462 0
-2697 857 0
4751 -4548 0
-3573 -4123 0
1688 -1731 0
-3368 -2136 0
94 4044 0
388 2509 0
4629 1496 0
-2236 -2479 0
-2442 -2920 0
2148 -3882 0
-3321 -4408 0
2265 -4481 0
4436 -829 0
4435 -4646 0
3049 1924 0
2382 -2301 0
-1644 2719 0
4012 2934 0
-440 1698 0
2359 -1474 0
1745 -1245 0
1558 4743 0
1756 -759 0
-1746 2538 0
1332 -744 0
-2535 216 0
-2827 -3048 0
356 4476 0
1056 -1938 0
-3600 1631 0
3936 -2245 0
3024 -1684 0
1746 4105 0
-2512 -2777 0
-532 2116 0
2608 1162 0
2 -3493 0
3713 -4322 0
-2257 -3232 0
-2974 2558 0
-274 -17 0
-2951 -1751 0
-1847 -487 0
-3251 -2431 0
-3542 -2832 0
-507 -1006 0
-4535 3162 0
-2267 472 0
4249 1806 0
541 -56 0
-4651 -3512 0
-3571 4449 0
-1080 -1608 0
1041 3982 0
462 -3717 0
-3884 4558 0
3711 3951 0
-3243 -451 0
4 3006 0
502 -2168 0
-3230 -1668 0
284 -3931 0
4074 -974 0
4235 -43 0
1660 -3205 0
4650 3174 0
3866 4374 0
2845 -2906 0
1288 -2813 0
-4119 -1108 0
2792 3661 0
1933 3121 0
-1392 -1969 0
-2496 2153 0
4748 2847 0
-3494 -3338 0
-3001 88 0
-2115 3045 0
-396 1085 0
595 -1138 0
-1652 4090 0
512 -3937 0
419 -1242 0
1880 3710 0
-1415 -691 0
-358 -2989 0
3983 569 0
-1254 -3048 0
-1262 -2141 0
1315 -3871 0
-3341 3797 0
-1751 453 0
3192 -3659 0
-1890 -336 0
-247 -1617 0
646 4080 0
2887 2269 0
-3465 1250 0
3268 -917 0
-3937 -191 0
-3844 1649 0
-3093 574 0
1483 -4746 0
-1643 -1626 0
-2728 -2221 0
3158 -965 0
782 3151 0
2017 4529 0
-3618 1981 0
721 -535 0
903 -3230 0
-4082 -2052 0
1012 -3147 0
-3052 -99 0
-360 854 0
975 -2965 0
321 4044 0
-3841 -3897 0
1434 3970 0
-1959 1802 0
-2232 -3150 0
-4181 2210 0
2921 1507 0
1404 224 0
1322 -2386 0
579 3524 0
1707 -3998 0
-3906 -2018 0
-4030 -108 0
-221 879 0
-3464 -367 0
-3978 -1785 0
-294 4109 0
-949 -1451 0
1279 4289 0
1798 -3844 0
-2361 -4586 0
-3469 3028 0
1341 -3845 0
2387 -158 0
-4363 -3437 0
-1228 -3214 0
3226 2631 0
-3542 -4115 0
3026 455 0
2125 -4131 0
-3366 -2294 0
316 2804 0
-3789 4087 0
-13 2793 0
-2662 -4056 0
3012 2467 0
1705 507 0
3221 -1974 0
-166 1609 0
-4195 4318 0
-2053 -336 0
-4675 4613 0
-4283 -4066 0
735 -1387 0
-113 -3871 0
-2639 1824 0
4085 -3989 0
685 -3188 0
3877 4072 0
924 -503 0
4269 3930 0
20 996 0
-242 4516 0
-3743 2906 0
-137 2311 0
-2182 4087 0
4234 3641 0
3290 3249 0
-609 1464 0
-1283 -4062 0
-4243 1061 0
4706 -775 0
1650 -1844 0
2086 30 0
-3378 1833 0
-1314 3081 0
3215 3347 0
2654 -836 0
1455 2202 0
1661 -2029 0
-3814 687 0
-1717 -4698 0
-2843 3775 0
-3504 3819 0
3295 1294 0
-2035 -2716 0
3422 3729 0
1511 2464 0
4737 3219 0
3215 -2715 0
-2032 -4549 0
1192 -1219 0
412 4020 0
-696 -2063 0
912 4178 0
756 1707 0
-217 2688 0
-4461 518 0
411 -4547 0
-883 -1463 0
-519 -2340 0
4243 -2162 0
3511 1328 0
-1146 -2394 0
2323 -1340 0
-2397 1105 0
2205 2726 0
-905 3084 0
4653 -322 0
-2278 -2505 0
-3368 830 0
-3150 -3065 0
-2691 -2002 0
1398 -999 0
-1348 -4391 0
4359 -1080 0
-1066 954 0
-2868 3594 0
401 -1023 0
-467 4074 0
3737 -4150 0
-290 -627 0
-1952 -1902 0
342 4515 0
3543 -812 0
-2855 -4092 0
2175 648 0
3850 3471 0
-1647 -4321 0
-1473 -1830 0
-1572 -4533 0
2276 -2091 0
4228 -2890 0
88 -650 0
2944 -2656 0
-1853 3774 0
-2177 -3373 0
749 3640 0
-1067 3027 0
-4299 4558 0
4372 -398 0
11 4350 0
-1227 1725 0
-3953 -3717 0
-4673 3035 0
1682 2652 0
4697 -962 0
-548 -285 0
661 -312 0
2793 593 0
174 -3384 0
4228 3009 0
-4412 2381 0
4429 2418 0
1914 963 0
-2849 3008 0
3917 -2062 0
2525 -1296 0
-1484 -8 0
3759 3226 0
-3591 -2392 0
277 -3267 0
-3871 -4472 0
2776 -4542 0
1582 -1904 0
1615 -2411 0
-3497 -213 0
-1467 18 0
3902 -535 0
-1354 236 0
709 -1704 0
-3153 -2688 0
-2154 -1536 0
3276 -3717 0
-3869 4335 0
-3397 3938 0
-3601 -3170 0
3054 -2937 0
-2075 -2711 0
1305 1977 0
3629 195 0
3535 585 0
-1577 -1321 0
-598 -841 0
-397 1266 0
-2641 -118 0
723 -3286 0
1101 1891 0
4427 -3039 0
1155 3975 0
-95 -4726 0
2266 3215 0
-1837 -3130 0
-2126 3532 0
-1592 4295 0
-3477 3442 0
-3123 -2255 0
1171 1679 0
-1843 -1435 0
1439 2576 0
2921 -3446 0
-3021 1546 0
1632 -380 0
-3084 4020 0
-4671 -4237 0
4452 4730 0
-2948 -1513 0
-2919 988 0
4709 4676 0
-1494 556 0
481 2497 0
-3483 -2313 0
707 3920 0
-1181 -1903 0
1462 4201 0
-913 153 0
1217 3108 0
1508 3112 0
-1327 -1453 0
2652 -230 0
3952 1690 0
2909 4186 0
1629 4751 0
2406 -4088 0
-997 -2958 0
-3400 2211 0
-803 4649 0
-946 -2255 0
-979 1895 0
-514 3785 0
1424 -3991 0
193 -3010 0
-3904 2269 0
193 1795 0
-1647 993 0
626 -2465 0
3090 2528 0
818 1993 0
-3338 1402 0
1501 -1534 0
2622 1621 0
-3965 969 0
-3074 -3173 0
2856 2417 0
-3889 -3406 0
4102 873 0
2805 96 0
3454 1185 0
1600 -3824 0
-4667 3021 0
-305 942 0
-4622 2749 0
-890 -3079 0
2506 3646 0
2451 -3422 0
-733 -199 0
-2827 -612 0
-1171 411 0
1626 -3109 0
1940 -3076 0
-886 2886 0
-2853 1509 0
-2407 3142 0
1594 810 0
-3710 -4241 0
-3574 2354 0
-986 3558 0
526 -269 0
3083 -1864 0
-624 -2837 0
-1073 -4699 0
3098 4682 0
2616 -3936 0
-376 381 0
-3925 -2811 0
2235 4523 0
-348 2247 0
-1318 629 0
-776 2120 0
-3861 1597 0
-3165 -4357 0
2627 -2565 0
-1693 145 0
-2673 -1991 0
2016 2009 0
-1253 -412 0
-3515 -1433 0
-3868 504 0
2075 4212 0
-974 -2090 0
-3013 -4105 0
-2551 3885 0
-1506 3671 0
2297 -4617 0
1213 -1493 0
2869 1514 0
573 -1461 0
-2385 -2716 0
-3398 3825 0
2087 -529 0
-4385 844 0
2241 -413 0
2536 1566 0
2632 4483 0
-4475 -3796 0
1667 70 0
-4314 1217 0
-407 -1292 0
-4196 3131 0
-1707 3356 0
1503 655 0
-2771 -2664 0
2881 -146 0
3505 -1874 0
-2453 -1744 0
-1410 4323 0
-2129 550 0
42 -223 0
-942 -835 0
-4500 -1657 0
-4163 1202 0
-331 212 0
-2599 2499 0
3908 3441 0
-1573 4165 0
2247 -1540 0
1459 4163 0
-3271 -2398 0
2156 3007 0
-42 -627 0
4699 991 0
249 -2286 0
-2562 -4091 0
-1499 1927 0
-751 -1367 0
4231 -3619 0
4710 -1803 0
-2499 -3924 0
-803 -2208 0
4664 -4580 0
3404 -4086 0
-4409 2665 0
1488 2157 0
-1658 1740 0
-2405 -778 0
3160 3191 0
3987 3169 0
2362 3465 0
784 -2582 0
4416 3821 0
-2731 -4397 0
3980 -4433 0
-1647 3861 0
2088 4719 0
1758 -2712 0
4702 1431 0
-1251 3712 0
-2822 -459 0
2912 -1487 0
2231 -1297 0
2756 -2051 0
3511 -4291 0
-2874 -4303 0
3766 -1085 0
3167 -4238 0
-4664 3085 0
-3532 4497 0
4615 3007 0
2924 -1769 0
2373 -2702 0
-3677 824 0
2493 2056 0
-3085 -1600 0
-2306 4100 0
2734 -280 0
2170 -807 0
238 1546 0
1796 -3879 0
-974 -1970 0
222 -2171 0
588 2362 0
-680 -205 0
-119 -4714 0
645 1319 0
2658 -1036 0
-3947 -4445 0
4457 1185 0
3279 2821 0
-2708 -3205 0
-3077 4120 0
1029 -4548 0
-4211 3829 0
-3356 -119 0
-3837 2767 0
2217 -2686 0
-2958 -4451 0
-4528 -4508 0
2038 859 0
-1493 -3896 0
4500 -1401 0
-3780 -3086 0
-4203 -4607 0
2361 2431 0
1876 -630 0
-2003 192 0
-4013 -194 0
-3832 -1204 0
2439 -1489 0
4060 -1501 0
-3445 4545 0
2770 -2462 0
1262 753 0
-420 -3412 0
-4188 4302 0
-3347 -2559 0
4409 3103 0
-4206 2944 0
1559 -3913 0
406 309 0
-4000 2880 0
-3907 927 0
3825 -1978 0
2335 359 0
-942 -4225 0
-217 -4682 0
2548 -2075 0
3219 1461 0
-813 1582 0
-3230 2058 0
2559 -3296 0
-3113 2689 0
3687 -793 0
4124 -4517 0
1219 -667 0
844 -4172 0
-1982 -2327 0
-855 -2237 0
-2516 1913 0
3391 -2301 0
3011 2115 0
-2999 1862 0
-133 -4143 0
2861 -1802 0
-2851 2211 0
3002 -3513 0
4597 -1322 0
4515 624 0
-1665 -2675 0
4257 -2546 0
-127 -1379 0
-147 3785 0
-3343 2114 0
4345 1110 0
207 1072 0
928 -3385 0
2561 2858 0
4044 -3955 0
2586 -3974 0
4183 3789 0
957 1850 0
-4226 -4007 0
573 -2518 0
3377 3602 0
-2537 -1428 0
3502 -372 0
4718 1372 0
3744 3270 0
-2116 -748 0
3011 -4314 0
-4159 1409 0
2995 2603 0
2200 -6 0
688 3059 0
-4593 -919 0
3059 -4443 0
-303 4400 0
-2491 -804 0
1118 -1853 0
-3048 4429 0
2183 -95 0
-445 4610 0
2496 -697 0
-602 1726 0
-3242 -3828 0
1587 -643 0
-1696 -3792 0
405 3836 0
-382 3998 0
4128 4339 0
-2918 -3605 0
3214 2825 0
386 588 0
-2703 -4542 0
747 2114 0
1495 -1990 0
1539 2935 0
4454 -2039 0
-3714 4733 0
368 2354 0
-4197 4670 0
-4585 183 0
-3461 -1379 0
4329 1555 0
1968 -329 0
-4703 -3068 0
-2386 -1094 0
1491 1855 0
2031 -2263 0
-811 -172 0
-2036 705 0
3894 -2097 0
2059 4178 0
-1480 115 0
4506 2005 0
4552 -3118 0
-1402 258 0
2697 -1301 0
-1254 4180 0
4687 -3390 0
1609 -4630 0
-2138 -2644 0
4023 -3985 0
3878 -645 0
2864 670 0
4109 4596 0
-4705 -2495 0
1229 1602 0
-3119 -3568 0
-2368 -1362 0
-3292 3381 0
2611 -4418 0
4271 -2916 0
-3888 2105 0
-1516 3969 0
-3630 -3228 0
3928 2437 0
1399 2297 0
-2257 -1080 0
-2792 -1659 0
-2591 -3871 0
-985 -2148 0
2307 -1512 0
-768 -3261 0
3781 -3723 0
-4321 63 0
-778 657 0
-3057 -2709 0
370 -1385 0
1711 -2798 0
-4320 -1591 0
-4110 -2320 0
631 2921 0
2132 2084 0
3237 613 0
-2638 2023 0
561 -1680 0
-2724 2884 0
3802 1606 0
1627 1123 0
-514 -2415 0
3374 121 0
4248 4002 0
653 130 0
2607 -4032 0
-3132 157 0
-3093 286 0
2518 -4327 0
-4522 4127 0
857 -4491 0
-698 4470 0
-3297 -2731 0
4682 -826 0
-1872 4456 0
1916 4578 0
-1964 -4092 0
877 1762 0
1561 3973 0
-2598 -2346 0
-866 -789 0
-4382 3528 0
-1628 -1230 0
4653 -293 0
-2189 4251 0
3413 2575 0
1244 -806 0
-2876 1167 0
-1539 2407 0
-446 3367 0
932 2655 0
3386 -134 0
-3405 617 0
3191 -4219 0
-4166 115 0
-3043 -3816 0
-2658 3695 0
1453 2345 0
-4250 35 0
-903 3088 0
1510 2964 0
-1317 3242 0
-3311 2453 0
3546 3239 0
-4427 -992 0
3384 -3263 0
-1757 -1677 0
-24 2419 0
-168 -2887 0
945 -1085 0
1727 1894 0
4393 -4130 0
-532 2113 0
1251 1770 0
4190 -1530 0
-276 2568 0
4424 3460 0
-4313 -4493 0
2893 1290 0
-4433 -4015 0
4567 1509 0
4007 -3778 0
-1908 2283 0
-1962 -3047 0
961 -4163 0
3257 -331 0
2412 -723 0
744 -4392 0
-4447 4370 0
-2890 1279 0
-2248 1192 0
4229 1023 0
4428 1290 0
2706 -3551 0
-677 3119 0
-2180 -3010 0
-1785 4617 0
2536 1362 0
65 2045 0
1927 -4600 0
996 3416 0
-3472 -541 0
-2165 -19 0
2556 3235 0
-2397 -4186 0
1067 2339 0
3107 -2803 0
3570 1649 0
-555 2994 0
389 -4128 0
-3334 -4 0
179 2282 0
-3935 -1804 0
-3420 1399 0
1759 -1623 0
-2626 -3205 0
1984 -2529 0
3293 3418 0
3830 2637 0
-2999 -2537 0
4219 -2803 0
1191 3419 0
-1178 -2298 0
1272 -1199 0
727 2594 0
-3682 2359 0
306 1893 0
327 2536 0
-1609 -279 0
-2198 3998 0
3272 -2296 0
3329 1429 0
4124 4231 0
-3924 1609 0
2044 2861 0
-1564 -4036 0
-2451 4490 0
-446 156 0
1318 -3834 0
2634 4575 0
4548 -4077 0
1661 -2383 0
-3494 1846 0
1997 2688 0
1337 -4517 0
-4716 2088 0
-3735 1011 0
-3013 4477 0
988 -2305 0
1721 -3715 0
3141 4617 0
-2850 -4145 0
-120 2810 0
1456 -3507 0
905 -3537 0
-1411 -2796 0
1855 4463 0
2687 -2010 0
4013 3214 0
-3845 13 0
-2263 4292 0
4577 1405 0
4257 -1840 0
4023 -907 0
4075 -1743 0
1482 -2050 0
3190 -1450 0
-1529 -2962 0
2035 3072 0
-4460 2273 0
-154 -3652 0
2471 -2705 0
-3870 2381 0
-1246 4198 0
1029 -4110 0
3328 -4140 0
-3292 707 0
2821 156 0
1076 -3782 0
-2662 -2885 0
114 3137 0
-30 -3135 0
-4233 -4098 0
3071 4493 0
-4704 3052 0
-2565 -1101 0
418 -2056 0
1729 -4089 0
-4397 3687 0
-4001 -3938 0
1916 -3951 0
-314 -518 0
933 1974 0
-2805 -4138 0
2056 1397 0
-1047 692 0
-363 923 0
1782 -506 0
-218 -2433 0
-2179 4116 0
-1969 1686 0
-3169 -855 0
3853 3263 0
4463 3518 0
-2875 2645 0
-517 -2284 0
1184 80 0
2541 -4123 0
-197 2369 0
173 712 0
-4447 -2215 0
3808 2631 0
350 -1571 0
-4563 -3279 0
-4264 -637 0
-2613 -1370 0
-3773 -3949 0
-692 1457 0
-4437 -2188 0
2449 3286 0
-3689 -2650 0
-1000 1611 0
4080 4625 0
-4709 -3072 0
381 -1877 0
-706 1662 0
2942 -3838 0
-2043 -4495 0
-315 -2519 0
-3064 -2112 0
2689 2118 0
-4279 -3118 0
1513 -4534 0
-3864 3458 0
-580 1867 0
4040 1833 0
-3698 1887 0
-4066 -4247 0
3922 -4665 0
496 -1795 0
2682 -3376 0
241 3881 0
-1083 4717 0
-1467 -2739 0
-2807 -3494 0
283 -560 0
2208 976 0
-3013 -2182 0
-1017 -3158 0
-4527 737 0
-1225 -839 0
-699 4239 0
1042 2271 0
-2290 2222 0
4111 3050 0
-2891 -3177 0
2223 -764 0
-985 -585 0
3622 -363 0
-3268 -2669 0
1445 -251 0
-3191 -4448 0
-4041 -459 0
-1478 -3773 0
-3229 2222 0
1617 -3604 0
4547 -4420 0
-3841 2606 0
-1897 -1400 0
2969 -2605 0
3160 -3061 0
-2883 1189 0
1135 -3994 0
-3400 2434 0
-2284 2381 0
3827 -3733 0
2880 1071 0
-4626 -118 0
-4414 2319 0
1200 1346 0
3004 1545 0
1140 697 0
401 -4716 0
-746 -870 0
874 -1596 0
103 -836 0
-966 259 0
-1830 -3843 0
-4272 -3187 0
2880 -1851 0
-2790 4165 0
-2510 -47 0
-3930 4374 0
-1190 -579 0
2316 4439 0
-3111 3785 0
-391 4028 0
-3335 -1672 0
-2754 3467 0
1186 -3907 0
829 4422 0
-237 -1230 0
2926 2434 0
957 778 0
293 3137 0
-376 -1716 0
-1424 -1590 0
1359 -4337 0
-2543 -2118 0
-2577 3873 0
3732 -3762 0
-2716 -1364 0
-4124 -2643 0
-628 -4163 0
-2303 -2853 0
4527 1588 0
-2533 -1283 0
2509 1101 0
-3401 -1689 0
2264 2305 0
-88 -185 0
-2185 -943 0
-1510 -4036 0
-4326 -1728 0
2421 -4520 0
-4643 1564 0
-1015 -1004 0
-3344 2589 0
1272 -4128 0
717 -3003 0
-814 92 0
4677 4297 0
-4206 -4336 0
-1621 -1054 0
768 711 0
-3718 -625 0
-1079 -2613 0
2292 1548 0
2328 -1801 0
2885 -553 0
2429 -2646 0
-3601 -2860 0
-1858 -3 0
2027 -660 0
-1651 2838 0
-746 3887 0
-3183 3418 0
-425 -108 0
-4698 -1115 0
3397 170 0
1456 -2569 0
1777 -3682 0
-1289 3004 0
-884 3458 0
1352 -117 0
-2489 3609 0
-386 -2385 0
-4686 -3411 0
443 -1017 0
-3259 4437 0
4442 -2823 0
-2516 -885 0
1141 4297 0
2385 -1617 0
176 -3326 0
1864 -609 0
2582 3433 0
-2341 3278 0
-3733 -581 0
3880 -4372 0
-971 -1420 0
-4028 -111 0
-337 -4413 0
-2659 -16 0
-140 412 0
4588 -1152 0
2381 -853 0
2430 -628 0
-1892 2556 0
-1173 4180 0
4544 -297 0
-132 -1375 0
-1480 101 0
-3273 -2810 0
951 -3608 0
2930 -2695 0
3264 3745 0
1126 -4749 0
-1147 -87 0
3505 632 0
-2909 -694 0
2756 -725 0
3685 -1821 0
4038 -3792 0
1823 -2459 0
-2794 2470 0
-389 -3072 0
10 -1691 0
3902 -3998 0
4634 3682 0
1535 -1811 0
3245 -3239 0
2321 -2023 0
-1443 -2257 0
-66 1901 0
1964 -1641 0
-3730 2354 0
-1416 -1924 0
-459 513 0
-2675 -1362 0
-4418 253 0
3813 -1852 0
-2274 -1400 0
3801 1752 0
-2943 -298 0
-3005 -3199 0
2577 -3816 0
4564 1179 0
1811 -4010 0
-3326 -500 0
2059 -1227 0
-2691 -4479 0
-4716 246 0
1815 -1774 0
4717 -1831 0
4544 -3543 0
-459 -1929 0
-818 4060 0
2333 -4106 0
-1044 2290 0
-2207 -3583 0
-614 3789 0
-2279 3128 0
4246 -2489 0
3841 -3779 0
-4484 -4220 0
1397 1697 0
199 -442 0
-4587 356 0
219 3831 0
1365 3045 0
1868 1243 0
1475 1811 0
4342 1053 0
-4181 -101 0
-1514 133 0
-4434 2927 0
-1854 -3545 0
1715 3367 0
145 -3047 0
661 2782 0
-2885 -1851 0
2678 -1585 0
-2825 -876 0
-1013 73 0
-3439 -4549 0
1 -2099 0
1916 -1692 0
-2260 -247 0
-1364 1528 0
-4293 592 0
-2013 1238 0
-4036 3624 0
-1750 -3298 0
1487 3395 0
-615 -3783 0
1756 -2038 0
2873 468 0
-3450 -1044 0
-1321 2836 0
-342 -1261 0
-2815 -3745 0
-232 -4674 0
3753 633 0
-503 -2655 0
3581 -3029 0
2196 -2611 0
-360 -2548 0
1383 -843 0
400 4369 0
-2107 3953 0
-2694 -2568 0
98 72 0
-4232 3923 0
2687 -3176 0
2823 -4387 0
-4667 2119 0
-4098 -3952 0
1951 3172 0
2111 -1724 0
3231 -295 0
3454 -4467 0
-4319 1101 0
-1907 -1493 0
879 3547 0
2753 1188 0
-4223 -3421 0
-4009 2971 0
-1610 -154 0
-2598 406 0
3491 3289 0
-122 3833 0
-3038 1688 0
3887 -4477 0
-261 -1334 0
2048 1986 0
-1907 -4481 0
3657 4130 0
-3793 -2812 0
1888 -813 0
-1527 3616 0
-1991 -1526 0
-519 229 0
-548 -1986 0
1708 2295 0
-2898 358 0
4249 2752 0
3969 -473 0
-4494 -4047 0
1304 -1818 0
3728 -24 0
-1769 1540 0
-634 4035 0
-3841 4391 0
1814 -906 0
4318 1202 0
-2719 4628 0
-162 2602 0
2211 2331 0
2772 4058 0
-1172 81 0
-1026 2652 0
-3345 115 0
-181 3150 0
-509 4701 0
1466 4367 0
4506 675 0
-4069 179 0
-1019 -3717 0
-4564 1890 0
4638 4277 0
1534 4511 0
2313 1454 0
454 985 0
4654 4663 0
-3872 -1428 0
1421 -4748 0
177 -1403 0
-2845 -604 0
-4412 -118 0
2550 -578 0
-1332 876 0
-1821 -3180 0
3333 -3200 0
-2602 4074 0
2601 -1471 0
599 4114 0
3696 2281 0
-2224 -992 0
-2140 -3264 0
-1718 -2873 0
3028 -469 0
-1817 -4459 0
-1041 124 0
-2576 -1613 0
-326 1338 0
372 4059 0
-30 3642 0
1927 -3531 0
-2907 -1096 0
3698 1721 0
1358 3942 0
-1717 -4658 0
4295 3823 0
4106 -4450 0
-3813 1244 0
-2197 -4410 0
1605 -2320 0
3268 3189 0
2520 4385 0
-3683 617 0
-3131 -4544 0
-1508 724 0
-2648 -3211 0
2981 -3031 0
-3780 -2242 0
-2370 -2008 0
4145 2120 0
-2112 -2077 0
-4532 -3997 0
-2273 -1115 0
-50 -2794 0
1039 640 0
11 -4141 0
991 -3181 0
-4592 -2996 0
-1412 758 0
-772 -2367 0
-2739 1271 0
1409 -1710 0
-3793 908 0
2280 -777 0
3865 -1071 0
2556 -4653 0
-4545 -177 0
228 -2180 0
-4523 4590 0
-3599 4610 0
37 1677 0
4360 1946 0
1317 -4187 0
730 -3723 0
4691 -3926 0
-3962 -4357 0
120 4180 0
-4514 -566 0
3219 -3436 0
3341 -2397 0
-4264 -474 0
-1934 3877 0
-898 1487 0
626 -2267 0
-3440 276 0
1709 -560 0
25 1984 0
3276 2580 0
-3064 427 0
909 2552 0
-1681 3775 0
4129 2406 0
416 -1436 0
1815 3725 0
4360 3979 0
-204 2783 0
3090 2781 0
-305 387 0
-3230 -3979 0
1144 -4110 0
2870 -402 0
-3183 1637 0
1997 1873 0
-1385 128 0
316 1129 0
-3551 -1104 0
-4066 -3352 0
426 1822 0
1974 1803 0
386 -1206 0
4229 -3024 0
-958 -2215 0
4027 -1242 0
2714 -274 0
-3080 637 0
4527 2106 0
4368 -901 0
2505 3448 0
-4359 1935 0
-472 -1582 0
1135 -2602 0
3637 187 0
830 -2781 0
342 -894 0
-2297 4041 0
2622 -1303 0
-4172 -2856 0
2652 4160 0
4620 2820 0
3812 652 0
3098 -4311 0
-1138 -2764 0
258 1119 0
4076 -3489 0
-1024 -4177 0
-4689 49 0
2479 -3711 0
5 -993 0
1534 -3111 0
-2786 -47 0
1066 -4709 0
-1157 685 0
-1358 565 0
-4216 2609 0
-1208 4262 0
3360 1271 0
498 1955 0
-1910 4057 0
4079 1151 0
-3908 1806 0
-3580 1205 0
-934 874 0
-1934 1382 0
-1744 -3709 0
-3936 -1544 0
3116 2494 0
248 -1749 0
3451 -1002 0
-3836 2841 0
-1848 -865 0
-4137 771 0
-1955 -4671 0
-2299 2125 0
4637 3070 0
-3010 3624 0
-3828 -3545 0
-1419 -3176 0
-4174 -1565 0
4254 -2082 0
1523 3384 0
3878 -432 0
-4475 3388 0
-299 123 0
3876 -3822 0
-4172 -584 0
818 -3078 0
2594 -4337 0
-1672 -1847 0
-1175 3320 0
-122 168 0
-1211 -3552 0
-2171 1874 0
-1539 4318 0
1476 2431 0
-1853 334 0
36 1889 0
1813 2279 0
-2774 2044 0
-806 1581 0
-350 -4715 0
156 -1368 0
-1784 -2397 0
2866 974 0
-2096 4151 0
-1677 3055 0
-404 -2348 0
2153 -4465 0
-1236 4234 0
-2608 -2548 0
2094 -1550 0
3720 -2668 0
-711 -4549 0
-2445 -3170 0
-3879 4578 0
-1490 1231 0
2854 -2083 0
-1468 2997 0
-4141 4596 0
-2247 -2582 0
-4359 -3494 0
-3875 463 0
-630 -1009 0
1305 2946 0
-4336 -1508 0
1504 339 0
-1640 -1153 0
-4293 2719 0
4074 1667 0
723 3719 0
-992 4516 0
4500 3775 0
4679 41 0
-1711 61 0
2721 834 0
3148 1566 0
4120 4090 0
-4493 -2119 0
536 1827 0
-956 1989 0
3537 -4387 0
1167 1933 0
-4104 2408 0
92 -3382 0
1726 2824 0
-3256 1958 0
4483 -3655 0
-4450 -4027 0
-990 -1084 0
-3940 -283 0
4720 -683 0
-3717 2046 0
-298 322 0
-143 364 0
-1072 4188 0
-1320 4159 0
-3270 2137 0
-2896 -4552 0
2177 598 0
4055 -3647 0
2195 -3941 0
2791 1308 0
-3075 -1040 0
-2765 3168 0
4487 -3822 0
-1825 -1400 0
1546 -4392 0
3206 3955 0
3498 3689 0
4631 -1669 0
-1879 -3725 0
-2377 4274 0
356 313 0
1518 -3930 0
3738 -1749 0
2064 -2306 0
-745 3149 0
-1131 3196 0
-451 3471 0
1199 -2572 0
-602 -407 0
3219 -2206 0
1153 -4563 0
4134 2381 0
-2201 -2825 0
1265 -3218 0
-4291 -903 0
4558 -4460 0
-853 -1103 0
3856 -2062 0
-3623 1290 0
-3005 4684 0
-4428 1731 0
-4081 4680 0
1299 -1529 0
2868 -4182 0
1726 1655 0
4111 2413 0
-3113 -1243 0
-1212 1302 0
4159 521 0
979 -2022 0
4434 -1138 0
-843 1357 0
2994 -2543 0
3662 3060 0
-4634 -1128 0
369 -376 0
-1366 -848 0
-1845 1655 0
2394 -1675 0
-4682 3219 0
126 4078 0
431 889 0
-3120 3915 0
-4224 1836 0
-842 -4148 0
-3089 4030 0
-1995 -4187 0
-178 618 0
3836 1082 0
-1842 -336 0
3265 965 0
-1401 -1122 0
2924 1661 0
4540 -616 0
-1715 -4705 0
1053 789 0
3856 -3092 0
-3044 391 0
-1583 3747 0
3221 1874 0
-2606 1105 0
1213 -1090 0
-3487 -1872 0
3600 -4655 0
2875 -154 0
-2465 -4696 0
153 811 0
-2752 363 0
-934 -2948 0
-3082 4700 0
-2845 4164 0
4148 2822 0
-242 1986 0
1942 3955 0
2676 463 0
-3462 -762 0
4207 170 0
664 -812 0
4159 4664 0
-4628 -3460 0
-1131 -3962 0
-3087 2596 0
4007 36 0
-1170 1525 0
248 -211 0
-512 385 0
2277 1137 0
1813 -4090 0
74 -2446 0
36 -3397 0
-2314 3672 0
3053 3638 0
-2332 3825 0
2021 -2471 0
1007 2292 0
2772 -4392 0
3688 4379 0
-979 2272 0
-4547 3272 0
-3661 3165 0
1327 1367 0
-3141 -4177 0
3725 -4749 0
28 -4215 0
4113 3011 0
-2684 91 0
-1072 1594 0
-2844 -2805 0
-2564 2817 0
-4443 -1177 0
-3686 798 0
-2275 1287 0
-913 1039 0
3314 -534 0
-2925 3982 0
1294 649 0
186 4206 0
-1999 -2865 0
402 2153 0
-812 -252 0
2078 4116 0
1334 736 0
-208 -4554 0
495 2941 0
-4627 3695 0
3689 2827 0
3405 1849 0
-3579 1047 0
3421 -913 0
-635 -3132 0
2193 -221 0
-4540 -3023 0
-2474 3651 0
97 2371 0
-1286 -4468 0
-1327 2660 0
4325 -4398 0
-2206 -756 0
-1564 -3516 0
331 2802 0
3802 4534 0
1002 -3105 0
-4440 1041 0
-1902 1791 0
2269 126 0
1727 3699 0
2467 4153 0
-1524 1423 0
1009 -4297 0
-217 4062 0
-4558 2295 0
-1163 -3296 0
-3204 -32 0
-4256 -1980 0
-3995 -3640 0
179 -3375 0
-4490 -1689 0
-120 -2865 0
-3625 2382 0
1691 3663 0
657 -1660 0
-3666 3880 0
4561 1516 0
324 1856 0
2896 4277 0
2641 -75 0
-1122 -4346 0
397 -3552 0
2756 -2860 0
994 -4487 0
3721 2004 0
-25 -2126 0
1415 -3812 0
1235 -4674 0
-2010 698 0
4419 3662 0
-2786 -2068 0
3225 1202 0
555 -441 0
-542 -1825 0
-64 -1985 0
2990 -1218 0
-1719 -4311 0
2507 4533 0
3776 -194 0
-108 -4386 0
653 4683 0
927 -876 0
-1035 2748 0
979 -1680 0
-1346 -1729 0
-2891 -2206 0
820 -2553 0
1346 3049 0
889 3346 0
290 3863 0
2109 -575 0
1200 -3355 0
4367 -1558 0
-2074 2532 0
766 1546 0
-118 -2627 0
3738 937 0
-307 549 0
-607 -4401 0
-1384 2361 0
-3276 1043 0
2852 -2548 0
611 -2496 0
-1024 946 0
-1719 -4492 0
-2057 3325 0
1768 -1893 0
-1720 -4652 0
-2789 3577 0
-3958 -1280 0
3719 4456 0
-2427 2176 0
-1088 -1554 0
-51 -39 0
-656 -1708 0
-40 -80 0
1037 3921 0
-631 -786 0
-533 -4238 0
1143 3574 0
-1461 2118 0
-498 -4543 0
2904 1200 0
3672 -4382 0
3775 -3922 0
-3432 -3698 0
-2062 -3828 0
2334 -3048 0
-982 2456 0
3960 1374 0
4437 1457 0
2456 -1734 0
2595 569 0
2066 -2794 0
-1633 -1962 0
4512 4659 0
284 -286 0
-1495 -2494 0
-722 -1554 0
-4207 564 0
4160 2544 0
-2269 -2779 0
793 704 0
-3609 -918 0
-4603 902 0
-1980 2780 0
-3675 3756 0
-2270 2726 0
2231 2595 0
369 -3893 0
1740 3173 0
330 -279 0
3892 -4324 0
3900 -789 0
-3789 -1767 0
145 802 0
849 1905 0
-3177 -4603 0
-557 -250 0
-581 -2617 0
-4001 1909 0
1590 1569 0
750 1944 0
3020 -416 0
2718 -4628 0
2354 418 0
-1876 -3423 0
-3712 -75 0
4510 2543 0
-216 3973 0
3798 -643 0
-1266 -1624 0
-1007 -2305 0
-2501 -3061 0
4260 -679 0
-2627 -2100 0
207 -2747 0
4533 -3956 0
96 2052 0
3515 1331 0
3967 -2794 0
4575 2654 0
-1749 4638 0
-1845 3689 0
587 4228 0
-4681 -1210 0
-3994 1775 0
598 -494 0
-1013 3656 0
-4646 3631 0
-3611 -1647 0
-2602 2610 0
-4238 -1712 0
446 -531 0
1145 -2882 0
2469 -3465 0
1174 -2093 0
1370 3210 0
-1860 401 0
-2716 767 0
-2215 2178 0
-1850 -3566 0
86 3189 0
336 -3026 0
-2207 -2813 0
2077 -4409 0
1109 3290 0
4144 -4176 0
-4671 -2397 0
3726 -2382 0
-2383 717 0
2838 337 0
-3914 3335 0
2557 437 0
-4038 -4519 0
-966 1603 0
-2152 -1781 0
1328 -2950 0
-2943 1430 0
4207 -2514 0
-731 4234 0
-2038 -3463 0
-2685 -2350 0
3111 -1063 0
2811 -3215 0
3242 -3034 0
1705 -3765 0
-2159 -4660 0
-2038 -3533 0
-3361 -1233 0
-1054 -2374 0
-4624 4251 0
1162 -3469 0
-2600 4611 0
1509 1433 0
-408 11 0
-3909 -4297 0
4267 272 0
-1695 -56 0
-1191 1329 0
-3895 20 0
-155 -1965 0
-3847 2621 0
-3906 -2720 0
-4695 -911 0
1441 -4069 0
4724 1464 0
3639 -1781 0
3416 -2096 0
1523 4572 0
135 4726 0
2051 -3188 0
-2068 -4095 0
-4498 1876 0
3694 2536 0
-4231 -2961 0
-2169 2371 0
-4617 -514 0
-3404 1262 0
-2544 -3273 0
1132 937 0
4062 -571 0
1744 -3218 0
-1292 629 0
2274 -2325 0
-4745 3720 0
4179 4577 0
1975 1447 0
1815 -2271 0
1474 -353 0
1344 1802 0
-3305 -864 0
-2626 573 0
1923 1288 0
-3576 3483 0
-1079 3133 0
1339 -1617 0
-2427 -51 0
-2459 -2767 0
-1208 -432 0
-1380 -1605 0
281 -4193 0
1827 -1348 0
-237 4018 0
2297 -3984 0
-2867 3432 0
-2317 -3552 0
-588 4697 0
4239 3667 0
1730 -4464 0
731 1557 0
-3490 -3463 0
2817 3730 0
-887 3928 0
-1395 369 0
2802 -4108 0
-4568 2243 0
3627 -2898 0
-2122 3049 0
2529 3720 0
-4656 -40 0
-3871 -3711 0
2271 -1899 0
-258 3716 0
727 1735 0
1835 1329 0
-2057 -2162 0
-2590 2922 0
-3957 -2072 0
-3569 -1551 0
-3555 -4701 0
885 4550 0
-3093 399 0
3631 -4280 0
2056 2666 0
47 2370 0
-3029 3791 0
-118 4422 0
3397 839 0
-2569 -724 0
-3623 2699 0
834 -1743 0
-1985 805 0
-381 1791 0
-3057 -1193 0
-989 864 0
-939 -4749 0
-3444 -4176 0
-3183 -4239 0
151 -1605 0
1893 2972 0
4631 1492 0
1668 724 0
-3998 -883 0
-182 4012 0
372 -3267 0
-1515 238 0
-728 930 0
759 -3288 0
3108 1851 0
-4398 1201 0
718 880 0
3571 -523 0
-3494 -4131 0
2055 -674 0
1917 1087 0
2275 -2755 0
-816 -3047 0
-714 821 0
2510 920 0
-4399 4010 0
3121 484 0
-4105 -118 0
1416 4531 0
2312 -2342 0
1837 1891 0
-2673 -4580 0
748 4334 0
-3659 -1579 0
-2217 -3208 0
2002 3638 0
760 -2891 0
726 1308 0
1985 2980 0
-2940 -304 0
4231 980 0
2303 -2670 0
942 3857 0
-1783 4658 0
4554 -4346 0
-2229 -53 0
981 1763 0
-3162 -890 0
-1856 -3807 0
-433 -3987 0
620 3190 0
-667 3631 0
3509 2304 0
454 -3002 0
-4530 3943 0
-4258 3669 0
-4379 -1682 0
-1470 -2516 0
3441 3360 0
3689 4370 0
341 1188 0
3988 1086 0
2869 -2326 0
-594 -2427 0
-2541 -307 0
3350 -4667 0
1816 1665 0
-1918 4485 0
-3338 -4476 0
-808 4290 0
-3168 2027 0
-3319 4025 0
1127 963 0
-1317 -444 0
3980 1579 0
2756 801 0
3235 2604 0
-3196 -4482 0
-2025 1143 0
-547 -832 0
3912 -2395 0
1501 -2410 0
-843 -3169 0
-1993 3813 0
-2949 -3057 0
304 3737 0
654 412 0
-360 3786 0
-3461 2307 0
-3357 3401 0
-4673 -967 0
4682 -1494 0
3184 4727 0
-855 -1945 0
-1854 -1744 0
2256 -2140 0
-2190 -4150 0
3103 -2000 0
-2245 2770 0
-974 553 0
-1152 -2395 0
-1782 4742 0
2201 629 0
2143 -3508 0
798 -295 0
35 330 0
3922 -980 0
2021 2920 0
-4559 -4289 0
-2186 -3425 0
-3542 -3382 0
447 -1879 0
-2144 -990 0
-2938 3968 0
4018 -2229 0
-3182 -2363 0
796 2820 0
3728 -1772 0
3616 3641 0
1239 1310 0
3784 3911 0
-4306 989 0
-1942 -2690 0
-1814 -4388 0
3384 -4679 0
514 3688 0
-3764 954 0
-914 -3486 0
2541 1593 0
4702 -4200 0
673 2111 0
4469 -2262 0
3528 -1554 0
2844 -2982 0
-3450 -1372 0
-3716 -847 0
-3604 -316 0
-3696 -2310 0
4264 -1790 0
3770 -3169 0
3290 -1502 0
1722 -892 0
3570 4733 0
-444 4610 0
-2704 -1432 0
895 -1153 0
188 1986 0
-3811 -458 0
1935 -2164 0
-1191 -1530 0
-1539 1402 0
-2780 106 0
-2078 -2052 0
1161 772 0
-1031 -2936 0
-4123 4207 0
-3663 3727 0
-3122 4086 0
2294 -3875 0
-1348 -1786 0
-1140 -1562 0
-4044 4301 0
-3422 -4467 0
-4163 -577 0
4211 1740 0
3306 -3738 0
-3009 -3560 0
3887 2493 0
2265 -4120 0
-2759 -3936 0
4747 -4182 0
-4039 1426 0
-4664 4121 0
1451 1081 0
-250 2031 0
1460 1203 0
1488 -1624 0
3360 -425 0
1919 2839 0
-3576 -1672 0
3310 1623 0
-78 -3994 0
802 -3745 0
4417 875 0
-4078 -3443 0
-1550 568 0
3349 3602 0
-1438 -1040 0
1211 -3965 0
-1657 -2439 0
3260 2888 0
1974 1986 0
584 1183 0
3837 2499 0
327 4333 0
672 -4714 0
1185 -4072 0
-4144 3760 0
1310 2225 0
218 -2039 0
3032 770 0
-1479 2098 0
3517 606 0
-3087 1502 0
3198 -4719 0
-312 -4587 0
-2695 -1795 0
-2076 2636 0
-1289 2084 0
-4475 -2861 0
-1295 1374 0
-3334 -3670 0
1738 -1392 0
-4751 -3596 0
-2458 -1681 0
-2200 -3106 0
-3218 3569 0
3934 -3407 0
2814 -4296 0
3011 3845 0
-2362 2449 0
2431 1715 0
2918 -2604 0
4507 -3402 0
1875 4178 0
4673 4044 0
1523 -480 0
2437 3711 0
-3717 -1877 0
-3224 1661 0
-4241 585 0
3313 -121 0
-2640 2094 0
28 2106 0
-623 -3763 0
-3106 -1332 0
195 2985 0
1433 4676 0
2188 4537 0
3035 134 0
-4434 -1216 0
3576 -3348 0
-21 3847 0
-1568 3133 0
-2229 2427 0
805 -2503 0
2950 -4215 0
-176 3045 0
-1984 -87 0
-135 2589 0
4578 1878 0
1105 -720 0
1074 3515 0
2829 2796 0
2721 2519 0
-1293 1383 0
3268 4450 0
-3525 1483 0
1407 928 0
-3395 1285 0
-3844 -4049 0
-4700 -4161 0
-1831 -3825 0
-1422 -4595 0
-339 4228 0
-209 3046 0
4115 4743 0
3605 -1685 0
3468 4170 0
-516 3294 0
-3592 4738 0
-4102 -4715 0
1532 4679 0
-3197 4400 0
216 -809 0
1775 -4298 0
-4701 3379 0
-2937 -1177 0
4196 2044 0
-3446 3947 0
-1672 -2089 0
-4535 4005 0
72 3017 0
44 -3173 0
-4602 3657 0
3337 -2102 0
-3708 -2621 0
-1710 652 0
2863 3390 0
1716 3918 0
-391 1728 0
2035 1278 0
-3207 1323 0
-4114 -1469 0
904 -2386 0
1897 -2112 0
-4068 -4329 0
-3418 2631 0
3928 -474 0
-2431 -1388 0
-2569 -579 0
-3929 1871 0
2448 2006 0
4331 -4689 0
1011 3437 0
723 -1176 0
-2959 -3845 0
-2014 -3252 0
-4588 1072 0
-4475 3113 0
1047 -642 0
-1227 910 0
-722 4435 0
2326 -224 0
-1452 -3177 0
4364 -1240 0
-3924 474 0
1796 2384 0
-2504 4311 0
-501 2192 0
3435 -337 0
2690 3167 0
1760 -1799 0
617 1390 0
839 4149 0
223 3227 0
-494 4676 0
1935 -1570 0
-2712 2621 0
4104 -4002 0
-989 -804 0
2130 1958 0
1536 -591 0
-3791 -1669 0
2739 -4151 0
1322 3100 0
-3425 -4386 0
-1845 -2805 0
1927 -1563 0
724 -4099 0
-3884 -3645 0
4526 2956 0
-1487 -3567 0
4176 1284 0
-4297 4333 0
1813 2504 0
159 4398 0
3661 -731 0
-623 1780 0
2983 -2945 0
3970 -4397 0
4341 -4646 0
-1196 -4451 0
-4270 -1168 0
-4723 1371 0
-1628 4540 0
4456 -3606 0
-2189 3735 0
2666 395 0
-1761 -2469 0
3430 -3656 0
-4397 -2191 0
-1351 -1168 0
3190 -1451 0
3261 1868 0
3621 1065 0
-697 3 0
1414 846 0
-1749 -3917 0
4074 2497 0
1178 -3387 0
-1428 -557 0
-3401 2010 0
-1978 2842 0
-1324 -471 0
-2604 256 0
-2267 2076 0
2143 -1988 0
-366 3463 0
3071 2220 0
-1282 -3786 0
3630 -2471 0
-3657 2059 0
-4426 -3756 0
-4443 3360 0
138 -4276 0
1356 -1087 0
1775 3444 0
-408 3413 0
2179 2152 0
674 4504 0
-3580 3665 0
2773 4742 0
187 2300 0
1819 -3325 0
-3658 -164 0
-4632 1189 0
3377 -4472 0
-913 -143 0
-1709 1637 0
-3345 2727 0
-315 -1112 0
4137 2300 0
3799 -3216 0
-3555 3842 0
3032 427 0
2324 -2779 0
-3042 1807 0
-4290 33 0
2135 -4582 0
2356 516 0
3191 3148 0
-1641 -1623 0
4121 4055 0
-4335 107 0
3894 1754 0
234 4732 0
4013 3213 0
1231 334 0
-2605 3731 0
1003 3270 0
-446 2512 0
-3796 454 0
-1652 387 0
539 1003 0
-2752 -2925 0
-3412 324 0
-1303 -3301 0
-4528 4078 0
-1859 3008 0
819 3854 0
4269 -3181 0
-3050 1569 0
-4225 -729 0
1566 -2258 0
4296 2769 0
-872 -3216 0
4740 -2528 0
542 2021 0
3384 -1005 0
-4477 2680 0
-223 -421 0
1328 -78 0
3692 2682 0
-1617 2045 0
-2282 -3168 0
1027 3825 0
3753 1846 0
2839 -3287 0
-2270 -4046 0
-4429 -3964 0
2612 -1762 0
3731 1144 0
-3709 -3913 0
401 -2935 0
679 -4134 0
-1165 2301 0
-2411 -344 0
3797 -805 0
2109 -2275 0
4692 -4414 0
3813 621 0
-2672 -2102 0
-3304 -3273 0
711 -1845 0
2954 -1146 0
1235 -4277 0
-1665 4324 0
4228 -4704 0
1558 4227 0
762 -3678 0
-4082 -18 0
-1804 -628 0
-2441 -3883 0
2175 2509 0
2821 2887 0
-3269 4023 0
4677 -330 0
3848 3148 0
1723 -300 0
4199 -1556 0
-1149 411 0
-1996 -526 0
1531 -1574 0
4077 -3815 0
-2338 275 0
-4297 -226 0
2838 1567 0
1871 2509 0
-3562 -3300 0
3511 -748 0
4710 -657 0
-3958 3610 0
-3741 940 0
495 -3773 0
-804 3894 0
-3406 -689 0
3682 3680 0
-3715 2176 0
-1428 -1121 0
4246 -264 0
595 -3559 0
-1652 1610 0
3007 -2814 0
-1830 -3143 0
-4305 -2047 0
3703 -3634 0
-809 77 0
-1483 3887 0
1362 659 0
-2491 -3031 0
-2909 3627 0
1264 1266 0
852 3271 0
1302 443 0
3472 1690 0
4037 3337 0
1922 -2086 0
1669 -4365 0
-2346 2153 0
-3492 1393 0
323 2571 0
100 -4535 0
-3105 2417 0
-625 -1201 0
73 -4313 0
-3292 692 0
595 -2062 0
-1861 3878 0
-2504 3311 0
1127 -629 0
3529 -1993 0
-2028 -1412 0
3797 -1412 0
1360 1144 0
-1238 -3468 0
3616 -302 0
4080 -1846 0
2358 1981 0
-672 3671 0
3458 -2538 0
2510 -3907 0
-3157 -2459 0
-3918 -862 0
-4312 1666 0
-816 4604 0
1910 -4519 0
-849 -3298 0
-457 557 0
-4475 -1672 0
-502 939 0
-1967 -848 0
2142 3410 0
175 3351 0
-1538 -2694 0
4167 4570 0
-400 -4016 0
-389 2406 0
-4098 -3614 0
-269 3857 0
1363 -3096 0
-3872 4275 0
2246 2861 0
-3870 3764 0
4197 -911 0
2125 4132 0
-4346 -229 0
-3539 2415 0
4364 -2339 0
-1327 611 0
-2637 1553 0
-4104 -162 0
1505 4332 0
-3778 632 0
-2847 2478 0
-4423 2268 0
4469 -3536 0
-1321 1938 0
962 -2672 0
-4216 -1261 0
1120 1759 0
498 2475 0
664 -2969 0
-947 2930 0
-2303 -4679 0
-2919 -2718 0
3556 3419 0
-981 -1491 0
2859 -2078 0
-3164 -314 0
-3608 1562 0
996 1501 0
-1852 -544 0
4026 -4343 0
425 -1939 0
4511 2621 0
2872 2276 0
4497 -2595 0
-2890 -4205 0
-3720 -165 0
188 1921 0
-336 4129 0
2342 -184 0
2631 -2001 0
-2023 4021 0
-3175 -3904 0
92 2347 0
-3085 -3995 0
-943 635 0
4631 356 0
3720 1608 0
-479 -1693 0
-3756 370 0
-3289 2753 0
292 11 0
-2708 -1180 0
-3384 -1353 0
3153 -946 0
-1219 -843 0
1170 -130 0
-214 4225 0
-681 4730 0
-2074 3326 0
186 3781 0
4740 4412 0
4451 2468 0
2628 4242 0
-5 -4422 0
1343 4017 0
1742 -979 0
4313 -60 0
-1972 1893 0
208 1021 0
3925 3519 0
484 -4281 0
-4590 -919 0
3637 3199 0
791 -2586 0
-305 -2386 0
-3372 839 0
-650 -1893 0
-4147 520 0
-2234 2479 0
-3845 -706 0
57 2481 0
-2682 -3469 0
-3156 3804 0
-4329 2659 0
-4104 -1327 0
-949 3989 0
4701 -2987 0
-3812 -2577 0
-2604 3714 0
2620 1456 0
-1133 2485 0
3821 -3825 0
-3357 -2517 0
-1668 3612 0
3681 -229 0
2342 1322 0
-2684 -4646 0
604 4064 0
-2900 -3205 0
924 -3126 0
1546 -2739 0
3614 363 0
487 -3625 0
-2750 -1782 0
-288 -2139 0
-8 674 0
-1554 -1526 0
2835 -1064 0
3030 -3449 0
-642 2006 0
2477 3097 0
2128 -662 0
2628 -1597 0
4078 419 0
-388 4350 0
-3776 -3526 0
-183 4551 0
2485 3969 0
3890 -4105 0
-1493 -3600 0
2016 -518 0
3741 2025 0
267 -1731 0
4040 -3156 0
1615 -456 0
2659 -1159 0
-3723 -1693 0
712 -4688 0
-2150 -3995 0
-4561 -2014 0
-4195 2603 0
-2346 -1988 0
-1279 1500 0
-2474 -1514 0
-3415 -1639 0
-2329 1002 0
3069 -2764 0
-1492 3438 0
-2067 594 0
-3880 -2709 0
3529 76 0
-3957 756 0
-1600 -4305 0
4337 -985 0
2016 2269 0
2903 1588 0
-1505 565 0
-1428 -1024 0
-2281 2983 0
-3505 498 0
4159 -3329 0
3617 -305 0
-2849 2713 0
-2910 -3797 0
956 -1783 0
4111 -4535 0
-2763 -120 0
3419 3006 0
-1538 -3820 0
2041 4501 0
-775 4652 0
1378 496 0
2078 -1923 0
-2481 -2972 0
3598 -3875 0
-1480 240 0
-4367 -3189 0
4333 3432 0
70 -2843 0
-4377 -2719 0
-294 -4492 0
4109 -1990 0
4127 -552 0
2137 946 0
-4336 -2167 0
648 568 0
4131 2469 0
4308 -682 0
183 2011 0
1411 -2697 0
-3605 -3099 0
3456 2668 0
4462 105 0
-1099 -1164 0
849 833 0
-580 471 0
-56 -2711 0
-511 554 0
1089 1957 0
2464 3140 0
-2016 -2530 0
4532 251 0
-1207 3701 0
1156 4494 0
-1169 -1451 0
-3472 -2594 0
222 -1847 0
-2396 -550 0
-4663 962 0
-4586 -2624 0
3104 4024 0
-4123 780 0
1544 -4605 0
4652 -592 0
-1689 1559 0
-1322 2028 0
-1228 4469 0
-1214 -3127 0
-4440 3797 0
820 -1303 0
73 893 0
1606 -3097 0
-4224 -3517 0
3502 -3756 0
1378 1280 0
-3701 2273 0
3667 664 0
574 2362 0
-896 2617 0
-1210 -76 0
2160 -1979 0
-2711 4683 0
3137 800 0
4149 -40 0
2228 -2442 0
-1165 -2207 0
4341 -1181 0
1500 750 0
1871 945 0
3055 4078 0
1739 113 0
-192 -3812 0
-1971 -4425 0
1549 -2986 0
-4672 2512 0
-1653 -1258 0
-348 -1055 0
3027 1966 0
908 3483 0
-445 2300 0
-1821 3328 0
-1234 -3390 0
-1124 -1788 0
-3096 3068 0
3917 -4225 0
386 -3494 0
3869 -1611 0
-3958 -3863 0
3907 2846 0
4542 2093 0
1483 -3751 0
4269 -1233 0
-593 3313 0
3451 -3894 0
359 3505 0
564 2910 0
1028 -1149 0
-1093 1593 0
3132 142 0
4249 4330 0
-2838 -2492 0
-1576 -3119 0
4630 4054 0
-4221 241 0
-1541 -3279 0
-4615 3461 0
1999 4681 0
2666 -2789 0
753 3893 0
-1243 4084 0
-369 3083 0
1810 -870 0
4266 -2742 0
3458 -2732 0
-1670 72 0
2928 2380 0
2070 -3792 0
-3869 -2092 0
-615 2770 0
-1738 -3036 0
-137 4662 0
2550 -4161 0
-918 -577 0
3015 1931 0
-4739 1388 0
-4227 2507 0
-405 4141 0
-1002 -1912 0
-3325 393 0
-1716 -876 0
-1450 -2606 0
4694 -4140 0
-4234 3271 0
-4279 1635 0
4090 1525 0
-2313 -546 0
-147 472 0
3873 3459 0
2682 -1548 0
2858 -3110 0
-1147 -3830 0
-1390 -4138 0
-3861 937 0
3054 4086 0
-4472 -160 0
2528 3010 0
-3600 1222 0
2163 3097 0
-3820 4363 0
-4233 2839 0
4434 -3204 0
2757 -2952 0
3676 -4029 0
4242 -4047 0
-2019 -3377 0
-694 3161 0
982 3911 0
-4128 3153 0
4300 -3478 0
3594 -362 0
2722 -2119 0
4293 3304 0
4520 3501 0
4458 -1972 0
1262 -825 0
1440 4318 0
-1445 3202 0
2130 4373 0
-1303 -2928 0
3587 1808 0
-1136 -3237 0
3396 -2482 0
2702 456 0
-1031 1489 0
-4046 3956 0
3219 -2287 0
3960 4728 0
-2344 -1318 0
-3063 -1873 0
4233 -319 0
-1051 -3466 0
-3418 -2207 0
-2804 3142 0
1292 -2474 0
1580 2043 0
323 -1598 0
-1992 218 0
-2353 -1465 0
-4002 -4236 0
-3909 -4557 0
705 -3968 0
2711 1016 0
418 535 0
-32 -2731 0
1688 -3357 0
-3644 4534 0
-2902 -2607 0
-2032 2352 0
-313 1956 0
3215 2808 0
3070 1679 0
95 1269 0
4654 2744 0
-2798 -3824 0
-151 3826 0
-3296 -447 0
3198 -3436 0
2977 -1242 0
2211 -1701 0
-1348 -2679 0
2741 -344 0
1519 -3844 0
465 4104 0
3165 -1674 0
-4125 3117 0
-4452 -1287 0
-1954 779 0
-368 3302 0
2364 3008 0
259 -4402 0
1638 969 0
3424 4483 0
2326 -4281 0
-1224 4399 0
-4546 1414 0
-4222 2359 0
-3510 -3068 0
-2057 3688 0
-2392 -1982 0
-4667 -4278 0
76 3970 0
133 3052 0
-1181 -2839 0
-2991 1012 0
-2362 1816 0
2057 -3585 0
-534 -3472 0
-3099 -1779 0
-1720 -1995 0
3294 4442 0
2268 -2984 0
4208 1452 0
-2179 -4130 0
4371 -2709 0
-2668 -4553 0
-273 4241 0
4277 -2559 0
-136 1426 0
-3682 1865 0
1947 -1318 0
-2725 -3975 0
-2103 -122 0
3448 1351 0
-3135 -2280 0
3631 4137 0
2494 228 0
-1433 -668 0
-2562 3124 0
1132 -810 0
-2592 3348 0
1760 2176 0
-4215 3443 0
4239 2826 0
-308 2264 0
4323 -350 0
4385 3612 0
-2192 3663 0
-1764 3836 0
-3130 3576 0
-383 -2340 0
-288 1021 0
-559 4549 0
-4621 -1845 0
2136 4737 0
-3242 -184 0
-2079 79 0
2446 699 0
1153 -2159 0
-3292 -1237 0
743 -2996 0
1168 -6 0
-3995 3319 0
-587 -4384 0
246 1963 0
1039 633 0
2044 -1373 0
-4263 224 0
-2521 -1104 0
1427 1696 0
-4211 1211 0
-3130 2663 0
2555 3609 0
1186 -2613 0
-2992 -4324 0
-544 -457 0
-1131 2377 0
550 -261 0
3249 3434 0
4187 4185 0
1536 3510 0
-2632 2308 0
4329 -2510 0
-3173 2088 0
779 -4407 0
-1604 2545 0
-78 3194 0
4507 -4149 0
-2701 3506 0
-3739 -3568 0
2319 842 0
1834 4464 0
1353 -4004 0
-2450 4568 0
-4213 -1776 0
-78 -632 0
-3955 2954 0
1104 -1908 0
-2761 -1383 0
3434 1299 0
-2960 901 0
-290 3612 0
1705 -112 0
-2358 -1953 0
671 1538 0
-2396 -3625 0
-414 2223 0
-4141 3581 0
-1017 1861 0
498 1685 0
3190 -1820 0
4025 -1962 0
-2024 -2626 0
-4128 4532 0
3600 3414 0
2759 -2121 0
-3660 -4027 0
-1821 914 0
-3985 -3125 0
-2461 -1905 0
-2465 3179 0
-2940 -1978 0
-2877 3292 0
802 -3990 0
1916 -4008 0
-2759 3525 0
-2665 -4010 0
1190 97 0
-3842 -2064 0
1978 1807 0
237 2733 0
2749 -3673 0
1304 2640 0
498 4446 0
4738 3046 0
-3614 -4567 0
-1912 -1229 0
4700 4096 0
-486 -1331 0
-3608 2408 0
2577 3324 0
-4355 539 0
-661 -3263 0
-1790 -767 0
-1291 1025 0
4131 -2353 0
-1321 35 0
-3207 -2993 0
-135 1056 0
1337 3339 0
-3346 -1193 0
-3095 -1207 0
-3311 1285 0
-61 -3103 0
-3600 -4445 0
1530 -3486 0
3341 75 0
3093 -4716 0
-635 1171 0
3784 3101 0
-3484 4715 0
-1324 -3511 0
3628 614 0
875 -4376 0
-1324 1087 0
-1229 -776 0
-4144 3009 0
1637 -4161 0
-4247 -809 0
2285 -2225 0
2512 -145 0
1652 2366 0
-2030 -665 0
4311 -2770 0
2922 3705 0
2580 2157 0
1307 -1566 0
-720 -486 0
4218 4260 0
-421 -2745 0
608 4273 0
-2901 347 0
-1377 3526 0
-1472 -2951 0
4666 -4457 0
-4384 -2390 0
-177 -452 0
4200 -546 0
910 1944 0
-1028 19 0
-2643 -836 0
54 -2991 0
-2052 -354 0
2393 -4711 0
-3276 -2250 0
-1722 3771 0
-439 -3522 0
4090 -58 0
2370 -3083 0
-327 -1983 0
1733 -2785 0
2553 -4418 0
53 -2765 0
-4748 -2008 0
41 -908 0
-2232 -1983 0
-114 -3284 0
-641 3042 0
2147 591 0
2133 -3332 0
431 2539 0
-1059 1982 0
1095 -3065 0
527 1734 0
990 2630 0
2947 2830 0
2950 4354 0
-1820 2240 0
815 -4150 0
-2741 -3401 0
3495 4013 0
2023 -1689 0
-4364 1922 0
1863 -87 0
-381 -1442 0
-733 -3936 0
-2959 4333 0
-512 -1320 0
-2889 -1243 0
2072 -1575 0
-3431 2689 0
2961 3734 0
-4133 1088 0
815 -146 0
662 1741 0
1742 3217 0
3128 126 0
-4141 3304 0
-1277 -2355 0
-3512 -1073 0
-3155 -3743 0
-3968 -3429 0
716 282 0
-4430 1302 0
4256 -2647 0
-4143 -4425 0
-4567 3847 0
3953 3379 0
-883 497 0
-2392 3594 0
253 4397 0
2210 -4276 0
1485 4435 0
-4348 1167 0
621 1154 0
654 2506 0
2251 -3809 0
465 -1084 0
-4462 -1207 0
-577 3381 0
-867 -3966 0
-3040 -2326 0
1180 4724 0
4459 1035 0
3928 2611 0
-2738 -4450 0
3666 837 0
-3478 -3045 0
4120 -1631 0
-3482 852 0
2512 -1987 0
617 -3121 0
2311 3172 0
4599 -4166 0
-1095 -674 0
1674 -1688 0
2201 62 0
-1830 -161 0
-514 253 0
-570 -3467 0
-2981 1205 0
1650 -4418 0
-1420 4634 0
1676 1132 0
2228 2045 0
2362 4673 0
-344 870 0
-1350 1456 0
-2263 201 0
-656 3404 0
-4092 -1265 0
3074 3359 0
-3510 2575 0
-673 4735 0
2450 4466 0
2056 -121 0
-2216 2514 0
-56 -4284 0
-1278 -2419 0
-2668 -2158 0
564 1017 0
1098 -3844 0
3128 -3790 0
-3332 -3749 0
-4644 -3845 0
-1182 -3678 0
2414 1582 0
-3116 -66 0
-1834 -2317 0
-1995 -905 0
-4208 -1885 0
170 -3215 0
2285 242 0
-1305 4057 0
-4705 -3924 0
-2344 -168 0
-1655 2613 0
3470 -210 0
-2220 -4032 0
4323 -2737 0
983 -2005 0
803 -300 0
-801 2456 0
-1400 3115 0
-2399 4106 0
693 -3258 0
22 3447 0
227 -2391 0
-1767 -3722 0
1243 3479 0
4627 3902 0
665 -1417 0
-1718 2332 0
-1139 2037 0
-2196 2485 0
2964 1570 0
508 4588 0
-346 2795 0
-3734 -4472 0
-1139 -2154 0
1757 1281 0
-4072 -3300 0
-2913 -3343 0
-1912 -4752 0
-243 -2458 0
2635 -3617 0
3190 -1383 0
3610 -46 0
1127 -1863 0
-1331 4562 0
2086 -4543 0
-2765 -2583 0
187 2178 0
-4063 772 0
154 -2907 0
3569 1464 0
4654 3100 0
1886 1169 0
3226 4449 0
792 -1090 0
3611 137 0
443 -3952 0
138 -3550 0
-2208 -907 0
-3122 2368 0
1220 3092 0
-555 3758 0
-3156 -4514 0
3887 -4296 0
-2072 -548 0
-3553 -4456 0
-2609 -3707 0
-2641 -3592 0
4390 -1493 0
-3540 26 0
-3514 -1150 0
-2568 1595 0
-2821 1767 0
4715 83 0
-2360 2768 0
-398 -3448 0
-3651 271 0
-4398 2976 0
928 4672 0
2935 -1671 0
-2711 -1196 0
4244 -4567 0
1444 4395 0
402 -1856 0
1615 2607 0
-3186 -500 0
497 -1587 0
2036 -2905 0
-3749 1310 0
-1734 -3922 0
-4068 -2262 0
1325 168 0
3866 4353 0
3315 3111 0
2406 1171 0
1305 2345 0
888 2227 0
3663 852 0
-1224 1375 0
1927 -1148 0
4672 -2288 0
-3858 -4099 0
-4384 2025 0
-4405 1834 0
3842 -4002 0
3002 4333 0
-1261 1479 0
-1250 -3029 0
2552 482 0
2936 -845 0
3690 -1289 0
-1292 2388 0
-4448 4625 0
3479 -2746 0
-2610 2414 0
696 -892 0
3701 -1969 0
1740 4299 0
-695 662 0
-3977 3294 0
2677 -3188 0
-1276 -2365 0
3831 -4119 0
1984 -1904 0
-575 4043 0
4556 1455 0
-4530 -1339 0
-2091 -191 0
66 2437 0
322 3641 0
2860 -3439 0
-4411 3247 0
-52 2548 0
1049 3281 0
3462 3238 0
4616 -4222 0
2164 2228 0
-2186 2639 0
-4 -2984 0
4598 3622 0
1523 -2237 0
-190 2493 0
-4614 -3852 0
3820 468 0
-332 54 0
-1119 4677 0
-2940 613 0
2310 1034 0
-826 -2162 0
-3219 -672 0
-1830 -633 0
2050 374 0
-4122 2177 0
2466 -3115 0
-3157 4221 0
-4627 3432 0
-2853 3235 0
4155 474 0
2632 -2701 0
-4611 2674 0
14 -4425 0
-1895 3447 0
-4683 1976 0
-2882 109 0
2954 -1956 0
3403 -4447 0
799 -1813 0
-1440 -4668 0
-2903 -4266 0
4085 -3499 0
2928 1526 0
4384 -2275 0
-1018 2414 0
-3947 -3242 0
-1855 145 0
4434 179 0
662 655 0
2711 2178 0
4670 784 0
387 50 0
-44 3678 0
-2879 4074 0
-871 -330 0
4355 -255 0
-3544 62 0
-206 4048 0
-3387 35 0
-2896 -746 0
1770 2066 0
3330 -959 0
-2350 -900 0
4699 -1288 0
2335 -1707 0
3688 -1665 0
-4420 4650 0
-3401 1488 0
-608 -4121 0
-3307 -919 0
405 1602 0
735 1415 0
3960 -2227 0
-1023 -4343 0
-298 3348 0
-3310 -3031 0
-298 3216 0
-4267 1244 0
-3621 -3328 0
1634 -2752 0
-2636 4048 0
-250 2557 0
-3455 -4388 0
-3004 -521 0
1080 -358 0
-3339 616 0
-3983 -1157 0
-127 -4459 0
-2213 -4214 0
1736 -3906 0
3664 540 0
3441 -88 0
-2500 -955 0
-1107 1171 0
3825 -3955 0
-697 -3170 0
4720 -3847 0
-667 3912 0
-1514 -32 0
814 2388 0
2575 424 0
-3237 -511 0
4689 -4437 0
2359 -1095 0
-1677 -310 0
2610 2772 0
3873 1620 0
-992 -3321 0
-2510 2696 0
133 3615 0
-2905 2700 0
-642 1310 0
-1925 3898 0
3598 -2331 0
-3047 -597 0
-1283 -1983 0
223 -2159 0
3840 217 0
-229 1260 0
4720 4174 0
3535 1802 0
-3146 -993 0
3663 2557 0
-3248 2900 0
3146 -4590 0
2528 3032 0
-1902 126 0
-1246 -1710 0
3990 4696 0
4054 1079 0
-1719 136 0
237 1432 0
-3792 2889 0
-3739 4101 0
-3917 -3116 0
1898 865 0
-497 3410 0
-1784 -4059 0
4081 4101 0
-2820 3918 0
-4524 1662 0
2964 426 0
-2520 2990 0
2046 -3180 0
-2689 -722 0
2420 4119 0
1683 -2605 0
-851 1336 0
4474 -2575 0
5 4173 0
1915 -4417 0
-1861 -4651 0
4533 1806 0
-297 -95 0
-3630 765 0
2847 -1955 0
-1225 -2265 0
1299 -1928 0
-991 4638 0
1926 3069 0
3619 590 0
-1156 1645 0
-1849 -3147 0
1834 690 0
-1840 -1090 0
-1251 1755 0
2721 692 0
2957 1849 0
4736 -3031 0
1047 -1778 0
-1290 -132 0
-1252 -247 0
4378 -1378 0
-799 -2487 0
-4494 -3576 0
-111 -543 0
1442 4229 0
-4384 -747 0
-1980 -628 0
2175 988 0
-3207 108 0
3407 3535 0
-2899 773 0
-2455 -2865 0
981 83 0
4718 -1254 0
-1531 3404 0
-4029 3840 0
-3943 2609 0
-1050 4446 0
2755 838 0
-2187 4073 0
-570 -3099 0
328 4549 0
2330 -2651 0
4330 -4058 0
-4288 -402 0
-1919 -1424 0
-1052 2177 0
-2537 -2250 0
-1192 1910 0
-2388 -3678 0
2730 -4742 0
-2304 1993 0
-2590 2519 0
-631 3390 0
-3957 -4012 0
-4630 -4445 0
-2652 -2815 0
4369 3373 0
-1641 -1062 0
-4572 4515 0
3253 -1135 0
2965 3461 0
-3826 -2229 0
-1981 -2064 0
-2359 -1537 0
-3693 -436 0
-1138 -1452 0
-1344 4736 0
1433 3201 0
-1380 825 0
3680 2557 0
-2627 -2672 0
-3764 -331 0
2905 2585 0
3784 240 0
-397 3748 0
-3884 4298 0
-1119 730 0
2883 1136 0
22 3282 0
4606 3637 0
2365 4654 0
1406 2480 0
1755 1597 0
719 2314 0
-423 3390 0
3407 2928 0
-3987 -507 0
-1853 2985 0
-4162 -67 0
2888 2414 0
712 -3657 0
1736 1916 0
2701 -1118 0
-1917 -4261 0
-2227 -4259 0
3535 3120 0
-1840 1281 0
4038 -4084 0
2002 2501 0
4440 -4418 0
1885 2690 0
-459 2770 0
2939 3781 0
-4034 454 0
3018 3564 0
-1612 -4427 0
1060 2335 0
-1163 -2207 0
-2569 2466 0
1126 -89 0
3050 -209 0
3202 -5 0
4747 3541 0
-1013 1161 0
-2139 -4590 0
2833 2852 0
3947 4734 0
4243 3563 0
3416 -4336 0
4689 -1296 0
-4493 2960 0
1141 -3793 0
534 -3601 0
2020 -2110 0
-3889 2069 0
315 -2441 0
-1640 1536 0
3671 -3201 0
-1030 -149 0
561 2923 0
-3675 -3987 0
-4524 -952 0
2149 -4678 0
-2670 -4337 0
2358 -3497 0
1663 244 0
-183 3271 0
-1950 -2786 0
2512 2319 0
1488 410 0
-623 2350 0
-8 -1131 0
2829 -4046 0
91 -4258 0
-379 2550 0
-694 3250 0
-3302 -1554 0
-1920 -1317 0
-4463 -3463 0
1496 -2511 0
-3769 2384 0
4294 -3306 0
-274 3881 0
-3573 -479 0
-3176 -232 0
-2677 -4165 0
522 3395 0
-3195 -3820 0
-629 1697 0
-1366 -2314 0
-902 -2428 0
-209 3453 0
1881 943 0
-120 955 0
-1692 3231 0
4062 -752 0
-3135 1088 0
-4346 -3407 0
-3793 -668 0
2031 1778 0
-1309 -2574 0
-4672 -494 0
2261 2086 0
-1062 1811 0
-2165 1971 0
1271 -602 0
407 713 0
-663 -463 0
-1886 2605 0
-786 658 0
-3715 -878 0
2506 -762 0
-4281 2839 0
-854 -1460 0
-1276 -1613 0
-931 950 0
-2694 -3164 0
4499 1487 0
1827 4160 0
-2353 -2085 0
-3812 -3113 0
1254 -404 0
-2990 4270 0
-1451 -3917 0
-3351 -3816 0
-1254 2500 0
4099 794 0
-3299 -1243 0
4699 -584 0
-236 1448 0
435 611 0
4358 2868 0
-1175 -519 0
1672 4267 0
-650 -4127 0
-4365 3388 0
4406 -4678 0
-3977 394 0
-3275 1142 0
-2605 2935 0
-1386 -1897 0
-3314 3209 0
-3958 -3167 0
2152 -3766 0
-3392 4540 0
3028 -4279 0
-4550 -727 0
801 -2554 0
3247 1670 0
4403 -3670 0
3055 2364 0
-2760 3089 0
3238 4365 0
3652 2539 0
-2790 767 0
-2632 -201 0
-4459 3520 0
352 -2937 0
-2261 458 0
2753 -2526 0
-408 2981 0
3123 342 0
3520 3968 0
-2669 4073 0
914 3558 0
652 4258 0
-3875 -12 0
296 1545 0
-3108 4116 0
2983 3538 0
227 -4722 0
-2513 -2226 0
674 4192 0
2630 -3613 0
4556 -146 0
-4127 4031 0
4106 1849 0
2426 -1671 0
-2411 95 0
-906 -1761 0
-4591 1322 0
2175 -2003 0
-2096 3286 0
4152 -219 0
-4574 2879 0
3640 3627 0
2057 2848 0
3143 3060 0
-991 -1762 0
-1581 3062 0
-167 -1517 0
-3875 176 0
3105 -1064 0
56 2656 0
-1074 4548 0
-536 3043 0
-1076 -1432 0
-1889 4666 0
-511 4668 0
-2448 2744 0
-1031 118 0
-2029 4552 0
3627 -4158 0
-2624 -412 0
-670 4229 0
-266 -1076 0
-2569 -3228 0
-1567 -3637 0
-4513 -494 0
4159 -1002 0
-2813 -3241 0
-1905 1947 0
-1551 -1254 0
-1788 -3252 0
2152 4457 0
1451 -55 0
-4742 717 0
3639 -2531 0
-789 -2113 0
546 4251 0
-676 -2186 0
-2317 -2347 0
1431 2055 0
-777 2149 0
3729 3121 0
-2 -3757 0
2580 -3285 0
-4274 84 0
2657 421 0
-4499 1558 0
1427 -612 0
3052 2586 0
1683 -1986 0
4300 4261 0
1076 -3305 0
3653 -2245 0
2334 3037 0
-3003 -4466 0
735 766 0
2211 4219 0
656 -3868 0
1040 -1631 0
-2311 -684 0
-4082 -116 0
-1494 1718 0
-107 -3160 0
-2794 468 0
2506 4479 0
3198 2563 0
-4083 -4231 0
2981 1211 0
-4497 -166 0
2412 -4352 0
-934 505 0
-4355 -3127 0
-925 -3922 0
1888 -3965 0
-1601 -1696 0
2205 -923 0
955 1097 0
-1381 -3160 0
1522 3996 0
-1107 1357 0
-3086 1271 0
4165 -1389 0
1777 4426 0
-437 -3565 0
4659 -3344 0
4152 -2281 0
1725 395 0
-305 -1950 0
97 610 0
1863 -4588 0
-1358 -1880 0
-1382 -1657 0
-2653 1287 0
-3847 322 0
-138 -1431 0
3261 3646 0
-2095 -3832 0
-3660 679 0
-2415 3427 0
-4646 -3856 0
-4515 259 0
2351 -3194 0
-282 2195 0
-4517 -874 0
-4713 -2000 0
2380 -1490 0
-634 3351 0
2717 581 0
4444 -3361 0
-1282 1159 0
-3915 3926 0
4235 -3125 0
-1002 -2591 0
279 4358 0
-3503 4400 0
3304 -1817 0
4011 1057 0
3632 731 0
3720 -3426 0
-2977 -4694 0
1092 -4414 0
-1401 149 0
-4675 418 0
4402 1209 0
1108 3305 0
-1878 -3875 0
4543 -1970 0
-1107 1282 0
-3111 -1547 0
-4481 3912 0
-2258 3547 0
1063 873 0
-3423 1957 0
-2257 -1573 0
-383 -1320 0
-323 -1550 0
1089 3191 0
558 973 0
-99 -2392 0
4557 982 0
-2653 -634 0
1119 1526 0
-344 -3366 0
-2653 -4036 0
4684 -1779 0
815 3059 0
-4583 4380 0
443 3595 0
4596 2442 0
-308 2281 0
4071 -462 0
-1886 -3647 0
-2839 4506 0
-1866 -3267 0
-3641 -1245 0
1503 4577 0
-2866 3690 0
3323 -2079 0
1263 3964 0
1948 2801 0
1150 4717 0
-1790 4011 0
-375 -1907 0
-919 2160 0
-3534 3255 0
-551 -3564 0
-920 -3253 0
1956 -1918 0
-2303 -2689 0
756 953 0
3924 1757 0
-1010 -625 0
25 -855 0
-2458 -4360 0
-4345 365 0
-1348 -2764 0
2436 -1702 0
1601 -1201 0
-4050 3055 0
-2018 1951 0
-1685 4549 0
-1216 -2418 0
-1104 4175 0
-1422 -2493 0
-2442 2202 0
400 -779 0
884 -510 0
319 1464 0
2466 2109 0
2246 -4454 0
-4413 2534 0
-2379 1333 0
-730 2488 0
-4172 362 0
2437 241 0
2809 -4433 0
4133 2857 0
3647 -2759 0
387 -3722 0
3325 -1973 0
3689 440 0
-1926 4229 0
-1089 2066 0
399 1392 0
-3099 -4522 0
3071 -691 0
-2270 -697 0
-1738 -1380 0
-1864 2523 0
-1736 -1090 0
-2790 2808 0
1003 -1978 0
1012 528 0
4714 2816 0
-1976 427 0
-4069 -4001 0
2160 -4697 0
-293 2834 0
1804 4427 0
-3496 -2773 0
2955 2539 0
4201 449 0
-1556 -2153 0
-3946 3458 0
1552 3999 0
875 -307 0
4200 678 0
2307 -2416 0
4360 2423 0
-857 -1044 0
4067 -2134 0
2178 -4343 0
-4336 -55 0
-4098 294 0
948 2654 0
412 -3264 0
2278 2800 0
328 3586 0
-2756 86 0
-3699 4209 0
2795 -3300 0
-955 -1962 0
-2479 2552 0
-3087 -514 0
-3055 4370 0
-2206 2271 0
2264 -1352 0
-1899 2984 0
4656 4705 0
513 -1157 0
-903 3505 0
720 -913 0
-271 3158 0
1622 -1844 0
3056 -4425 0
4731 1915 0
-755 2536 0
-450 3721 0
-14 -4123 0
3987 -1971 0
-4476 3846 0
1307 -402 0
3369 1100 0
-2604 3607 0
-2109 4297 0
-4433 -3096 0
-2874 204 0
-3887 -3568 0
-3967 883 0
-2363 -2361 0
1521 1167 0
3433 -1920 0
1323 -4723 0
2371 4671 0
3548 -3868 0
-4019 2612 0
3916 -1620 0
-2055 -4730 0
558 1506 0
3549 2970 0
-1364 3969 0
2479 -3326 0
-4722 -1613 0
-2630 -1446 0
1596 -3172 0
2065 -321 0
202 2621 0
2340 351 0
772 3266 0
-4580 3457 0
-934 3575 0
-2578 -2250 0
-2140 1871 0
2625 2196 0
-2010 2992 0
4541 -1912 0
-2073 400 0
-3762 -1240 0
-1805 1530 0
-2315 -4626 0
-807 -310 0
-835 4081 0
-4293 -3687 0
1252 -3740 0
-3602 3527 0
4335 2538 0
-3005 2433 0
3529 -4744 0
2871 -1218 0
-4127 2793 0
-3551 -1917 0
-630 3333 0
-2733 -3434 0
-1375 2355 0
-1988 -1382 0
-482 -346 0
-1 2904 0
-2594 -2899 0
767 -226 0
-51 771 0
-3924 4483 0
1840 3846 0
-1537 3348 0
241 -4250 0
-3717 -2221 0
-4306 -3140 0
-1017 -621 0
-841 -1888 0
-144 3897 0
2196 658 0
2511 -2985 0
3053 3022 0
2758 962 0
2033 -2105 0
-484 -1817 0
3190 1639 0
-3189 -16 0
-4542 -1118 0
-3168 1810 0
1850 2844 0
-601 4598 0
3856 -1437 0
468 3025 0
-3602 -2418 0
4341 2234 0
3908 -184 0
89 3770 0
1596 -3359 0
-4211 -2896 0
1403 -1492 0
-4035 -148 0
-4558 -403 0
1648 1039 0
-2588 -946 0
3627 -4217 0
2432 -377 0
4718 1679 0
2178 -1978 0
2523 -393 0
4131 -3229 0
-392 -3221 0
-4448 -3585 0
-3334 2738 0
2198 -504 0
-681 -1899 0
2395 564 0
3364 -2672 0
2026 1979 0
-2139 2783 0
-539 -4134 0
-2926 -221 0
-4206 -3732 0
765 -2775 0
1597 -1068 0
-175 3133 0
-2611 2546 0
-3137 4406 0
868 3365 0
3319 1753 0
-372 4085 0
-4224 4555 0
1545 -483 0
279 1792 0
-2161 -3553 0
2440 -2615 0
-1116 4309 0
-426 4331 0
1528 -3676 0
-1622 1143 0
-2553 -2760 0
-431 3276 0
-2489 3839 0
-3883 1149 0
-729 2258 0
-2711 -192 0
935 1521 0
2188 366 0
-658 -2297 0
533 -1139 0
-1563 34 0
-2725 -1920 0
4310 -3888 0
-332 -1706 0
-3222 -1968 0
2251 1635 0
-3887 3148 0
1023 -4300 0
1570 64 0
-3929 -935 0
-3864 -2602 0
4595 -2255 0
-1001 3745 0
4331 1039 0
-638 -4216 0
655 -4566 0
2826 -1236 0
2753 92 0
-4376 523 0
1074 4433 0
-3823 525 0
2567 4549 0
2543 -214 0
-2708 2605 0
-4328 366 0
2623 3201 0
1510 1200 0
-1655 -899 0
-2460 -4426 0
1598 -532 0
2804 2014 0
-2092 4625 0
859 -3803 0
4020 1071 0
4480 -2533 0
683 574 0
3826 -4743 0
-2681 4321 0
-4528 -4644 0
322 -30 0
-2085 -1243 0
3546 3729 0
-315 990 0
-362 -2353 0
698 -1413 0
4288 4095 0
-3903 -621 0
237 -2979 0
-2388 -663 0
3519 -3469 0
-3733 447 0
2750 -860 0
426 2072 0
-42 3072 0
-2438 -3776 0
-240 -1303 0
-4470 1193 0
2244 1665 0
2871 180 0
-1969 -2960 0
-1340 -1837 0
-3378 1352 0
2632 -747 0
-3856 -2336 0
1101 4243 0
-3508 1832 0
3314 -1343 0
3509 -2191 0
-1869 713 0
3850 -334 0
-2421 -3493 0
1360 -1916 0
3375 -4261 0
1703 2065 0
-1043 661 0
3911 3882 0
866 4529 0
4101 2926 0
-1867 -604 0
4000 2912 0
-2451 400 0
-1320 1888 0
4186 -3475 0
3623 -1868 0
-488 1517 0
1623 693 0
3575 727 0
1757 1723 0
-2024 -692 0
4481 -4032 0
-4346 2395 0
-4415 3771 0
-2353 704 0
4085 -3177 0
2142 -1726 0
4367 3390 0
-2658 -4643 0
-1324 -3564 0
3832 2729 0
1455 -431 0
594 -3443 0
-2106 -3983 0
-2568 -2266 0
3478 2196 0
285 4092 0
3699 3141 0
-2654 -1668 0
2271 -1203 0
339 -1149 0
3898 449 0
3315 -4 0
4657 -3579 0
3451 -2318 0
3850 -140 0
-2427 -2309 0
-3620 -1776 0
-1068 -1972 0
3224 344 0
738 4062 0
3470 -4061 0
2815 -541 0
2417 -2026 0
2431 -501 0
3920 -2450 0
-2656 912 0
237 -1256 0
-4281 2981 0
4515 1660 0
-831 4211 0
1062 -2840 0
68 4533 0
1757 -2849 0
-1696 -3234 0
4454 4549 0
4288 786 0
4187 566 0
4246 2393 0
-2163 -2388 0
4434 -2771 0
4210 203 0
1840 -2136 0
-1433 2086 0
-3077 1222 0
-4262 428 0
2050 2273 0
-1197 2680 0
3087 -1059 0
-796 3202 0
-972 352 0
-3988 -3553 0
4551 -2188 0
3392 -1912 0
-2806 -3792 0
-1019 3154 0
803 1256 0
2227 3394 0
2438 -1144 0
-302 -2430 0
418 1362 0
1745 2 0
3375 842 0
-3585 4663 0
2819 3294 0
4048 -1989 0
4175 -3782 0
-3929 948 0
1398 4020 0
1095 4261 0
1411 -4066 0
-796 -1804 0
-4447 2990 0
1813 2882 0
3888 1696 0
-2218 4362 0
-3357 -1952 0
3282 -1355 0
-135 1135 0
-2850 1268 0
-131 2056 0
2422 -3977 0
2546 -3711 0
-3814 1787 0
-1757 284 0
2373 772 0
2395 -6 0
1058 3384 0
4038 4083 0
451 -2764 0
2496 -1914 0
1172 271 0
-2930 1310 0
4438 -4154 0
-448 4733 0
-4529 3695 0
-746 3212 0
3265 4317 0
2786 -4585 0
-3259 -1525 0
3025 2783 0
-2578 -2516 0
-4337 1626 0
617 2744 0
-12 -3738 0
4468 -2624 0
-4193 888 0
4341 -2366 0
1040 1899 0
-2540 3359 0
656 -2373 0
4480 292 0
2319 2135 0
-2364 1421 0
-885 -145 0
4069 2343 0
-616 2381 0
-1326 3527 0
-4111 1982 0
4512 315 0
63 -4017 0
-3706 1870 0
-3541 1033 0
-919 4303 0
-2503 -1340 0
-3958 -2454 0
691 -1547 0
1866 2643 0
-971 -2051 0
-3555 -1887 0
3262 447 0
-2589 245 0
-1354 940 0
-3554 1044 0
-1919 3210 0
-1354 2276 0
3248 -3565 0
-1394 1618 0
679 3806 0
4105 -3013 0
3771 -1224 0
-359 -4590 0
-3096 2368 0
106 2957 0
-4425 -1861 0
-2485 3736 0
2326 4004 0
-2670 -4073 0
2002 -1933 0
-4542 3126 0
4188 2732 0
-1912 -377 0
-21 -1820 0
-634 -1472 0
2286 3661 0
3527 -1494 0
-3469 -1615 0
-1207 1622 0
4466 -2364 0
-3339 -3097 0
2356 713 0
-4505 59 0
1457 -1071 0
1410 2457 0
653 -3785 0
-2214 3106 0
-3338 -2463 0
1463 -111 0
3315 -1152 0
3809 -4723 0
1698 1763 0
4665 3622 0
2230 4445 0
3265 1691 0
4061 3910 0
2792 -3218 0
1347 -1754 0
2221 -1783 0
2276 -4584 0
3760 2408 0
1776 -4215 0
3045 -4613 0
-3889 -3699 0
-3450 -4451 0
-1022 -1625 0
714 4335 0
1946 3602 0
-3743 -1401 0
-1315 3370 0
1077 -499 0
717 -4214 0
2354 -149 0
4624 698 0
-4492 -4421 0
1793 -3320 0
4200 -2589 0
-14 -47 0
3903 -1778 0
-2614 187 0
-3820 -9 0
1009 3944 0
-2984 4019 0
893 3480 0
-4238 3502 0
-3574 -2325 0
-4233 -1200 0
-2320 -3756 0
2244 -3835 0
-3220 3971 0
-2568 -1129 0
1097 1139 0
-1790 -2349 0
2924 4388 0
4280 1559 0
805 -999 0
-2786 1127 0
844 2184 0
7 -1820 0
-4547 -3602 0
923 -3316 0
1054 -4402 0
-1114 -3890 0
-2095 1016 0
1473 38 0
733 -4703 0
-2973 -3438 0
1763 -2372 0
4086 -4166 0
2124 449 0
-3871 20 0
-1075 896 0
-3625 -249 0
-2441 -1754 0
3746 2428 0
-386 1667 0
-847 1895 0
-464 -214 0
4188 404 0
-1682 130 0
1148 2027 0
-892 -2049 0
1867 1261 0
-1476 317 0
-4084 -1640 0
-650 -1387 0
4331 -2033 0
-3975 901 0
-1945 -1605 0
-3286 754 0
4185 1476 0
-1071 2828 0
-4218 -1876 0
4057 461 0
3012 -1998 0
3009 -4319 0
1383 2504 0
-2326 -915 0
-4205 -2063 0
-169 3355 0
696 654 0
4284 -662 0
778 1154 0
2800 4580 0
3945 -1212 0
2022 820 0
1065 -2852 0
-2748 3894 0
-1519 584 0
-3989 -401 0
4718 -4075 0
-3229 3921 0
2464 -3572 0
-696 -2788 0
4210 -1463 0
1570 4592 0
-373 -2243 0
743 -3421 0
-3377 -521 0
-1956 -4068 0
-3205 -1573 0
-2291 -787 0
-2085 -2121 0
-1876 -3880 0
229 3381 0
1608 -4705 0
-491 1781 0
3000 -4513 0
-136 -3512 0
-2712 1720 0
146 -1811 0
1334 4598 0
4458 2610 0
-4502 -3568 0
-488 -3284 0
-172 -3145 0
-625 -2209 0
-870 -2190 0
-627 -1295 0
415 1142 0
-161 -322 0
-448 -3642 0
1506 -1393 0
4263 -1711 0
2808 926 0
1382 1293 0
2891 1186 0
-954 2028 0
3530 -2409 0
-1864 1224 0
-4635 -3750 0
-448 -2801 0
792 -3531 0
-2275 2010 0
2268 283 0
-4630 -628 0
-2559 -1066 0
-1945 -2747 0
-985 2861 0
1090 -1460 0
3385 -2583 0
-992 611 0
2570 2827 0
-3955 4026 0
-2638 1283 0
3217 -1968 0
4540 3527 0
2027 -331 0
606 4371 0
4244 369 0
-194 -4466 0
-2153 4114 0
1458 525 0
2873 -2060 0
3869 2513 0
1072 -1475 0
3138 2214 0
3522 2220 0
-2409 3097 0
3255 -3466 0
1026 -2742 0
2242 18 0
-2999 542 0
1102 4076 0
-1332 -3337 0
1870 -4312 0
3740 43 0
-4014 810 0
3041 -2832 0
1179 -3217 0
3143 -3034 0
-2218 2692 0
3411 -4352 0
1637 -3065 0
4634 3736 0
1466 2835 0
-2286 -629 0
1645 -2081 0
-4491 -1743 0
-2040 3169 0
1561 1221 0
-4138 1532 0
779 -1460 0
1457 1126 0
-2974 -2768 0
2872 -2063 0
4406 4684 0
-319 -1080 0
3658 4725 0
-4337 -2905 0
3607 2734 0
-225 -2353 0
-747 641 0
1608 3942 0
-2481 2889 0
-4619 2436 0
-1119 -989 0
-1960 -3649 0
895 -559 0
-890 -3625 0
3827 392 0
159 -1935 0
-3885 -1000 0
2276 -2269 0
-4653 4470 0
1216 -4528 0
176 -3229 0
-2776 -1227 0
-3657 -866 0
4663 121 0
586 -1226 0
3826 -3097 0
167 -4478 0
551 -1394 0
2154 4691 0
-1841 997 0
-3252 -1889 0
1125 1598 0
-1670 2435 0
-51 -812 0
-2445 -4486 0
-2748 1235 0
1447 991 0
-1349 4406 0
-1674 -430 0
26 846 0
-442 -3533 0
1458 4463 0
-695 -4670 0
3354 3786 0
-732 -1684 0
1404 -2805 0
3362 415 0
-3632 -11 0
-2824 1863 0
-3001 2662 0
606 -4085 0
460 1132 0
2093 2628 0
508 1662 0
714 -1213 0
1982 -2945 0
-2246 -2537 0
-4263 19 0
3804 4280 0
-974 3984 0
-162 -252 0
-3392 -1324 0
-2457 29 0
1307 -275 0
-3003 3192 0
-2910 -2708 0
-1972 -1697 0
-595 -3347 0
-2211 537 0
3604 1186 0
4311 472 0
1683 2555 0
-3099 -3029 0
4468 3855 0
-596 -1017 0
1003 -4472 0
-51 -3074 0
3650 -4376 0
742 3664 0
-672 -2578 0
-4723 2519 0
-3238 -238 0
4102 2502 0
1538 -3936 0
-4418 -1349 0
3837 4120 0
239 4003 0
57 -363 0
2735 141 0
1482 2645 0
4508 3004 0
280 4146 0
-26 858 0
-1926 2331 0
3158 133 0
-2923 4350 0
-1154 -3274 0
-4430 -4404 0
1159 2802 0
-1904 -1416 0
-3452 -347 0
791 3108 0
248 -477 0
3118 -1140 0
-1771 1880 0
-4279 -4294 0
3734 -4518 0
685 -440 0
-51 1084 0
2510 2450 0
2115 -210 0
-3566 4494 0
4754 -4669 0
2560 -3495 0
3743 3671 0
-1940 -2719 0
3624 -3401 0
597 -4391 0
-64 157 0
1727 -2558 0
2287 -4209 0
1937 1791 0
-744 -1678 0
4376 -2757 0
18 4246 0
550 -185 0
1874 -492 0
1037 -843 0
3732 -1967 0
-500 1705 0
-2737 1583 0
1738 -1350 0
-404 956 0
-4137 2990 0
-1865 498 0
-3718 -277 0
-2615 1331 0
-3702 -2967 0
1710 -2173 0
1558 3494 0
4708 -260 0
198 3215 0
-3420 -1107 0
2337 -4298 0
-1043 1552 0
3411 627 0
-2448 -4460 0
2371 1588 0
-3385 -361 0
-2211 2871 0
-3087 485 0
1574 81 0
2082 3669 0
2944 -3786 0
2126 2981 0
-4638 235 0
-2791 -3973 0
-4726 -3798 0
-1963 -3085 0
-4211 -2928 0
-3160 584 0
4186 -1943 0
-4514 1503 0
3648 -160 0
-4340 128 0
3935 4579 0
3730 4654 0
4328 2192 0
-1472 -1463 0
1065 -2830 0
1721 -1781 0
4031 -839 0
1257 3691 0
687 3636 0
1886 3636 0
-3519 595 0
-2869 1411 0
50 2049 0
4596 -2161 0
-3789 -3916 0
-4153 -1783 0
1986 4325 0
-3149 -1795 0
-1874 -804 0
1986 -1453 0
4126 -1502 0
925 -1761 0
-1084 -3935 0
-4076 -3348 0
1597 4661 0
1831 -2593 0
4186 -2893 0
-1814 -3685 0
-4416 -3904 0
1825 -4498 0
-3386 4061 0
-3178 1434 0
2724 -3323 0
2147 3699 0
-484 -1147 0
-2823 -42 0
-1576 -2647 0
4152 -3366 0
-3934 -4445 0
-2030 -1693 0
-2134 3672 0
-1154 1362 0
-2623 486 0
-3773 3578 0
905 1178 0
-2236 -3058 0
-3097 4646 0
2312 1848 0
-3782 2432 0
3025 -1702 0
335 -4479 0
2541 4186 0
778 1995 0
-2841 753 0
-3285 -715 0
-3003 -1902 0
938 2063 0
3296 92 0
-4128 -2426 0
3639 4041 0
2343 4019 0
1977 -2508 0
2735 4045 0
-4603 -612 0
-1289 -164 0
-254 -1492 0
-1920 562 0
-3563 3209 0
863 3138 0
-75 2036 0
-3601 2634 0
-2431 1649 0
4680 -3558 0
-764 227 0
-2825 -459 0
-3584 -3630 0
1814 2446 0
1668 -3904 0
2276 2681 0
-2842 -2078 0
1910 -1195 0
3875 2115 0
820 686 0
-1322 2625 0
4416 1562 0
2264 455 0
-2520 -4232 0
3520 -167 0
-1364 -2353 0
1558 -185 0
-1936 -3712 0
-3338 -258 0
3154 1206 0
378 1625 0
1905 -1989 0
-3399 3092 0
1164 -1414 0
1993 3172 0
2210 2624 0
945 4185 0
-557 4529 0
-3971 -3855 0
2190 2608 0
1652 -2406 0
-2589 4720 0
1721 3045 0
3636 3464 0
-796 -1699 0
-1752 2110 0
-3320 -1669 0
-3076 -305 0
3694 3711 0
-1864 -1216 0
2195 -2184 0
3563 -1612 0
-1857 2272 0
2520 4378 0
-3954 -2803 0
-813 -255 0
-261 -3552 0
1822 -1278 0
-3385 2260 0
-4125 4174 0
3842 264 0
2015 3575 0
-2075 -758 0
