c NF
p cnf 4142 6213
-1727 -3296 0
-761 84 0
-3960 -1172 0
3928 2475 0
-2558 907 0
-94 -2368 0
2316 1605 0
663 363 0
-1289 1165 0
-3589 3545 0
-1524 3899 0
3601 -1755 0
-246 -2790 0
484 -2980 0
1696 -207 0
1422 3627 0
2494 449 0
2805 961 0
-3728 -2595 0
837 212 0
636 -950 0
-3226 -665 0
1834 2447 0
456 3566 0
-862 766 0
-399 4026 0
-3430 746 0
2995 1556 0
2969 -2722 0
1457 217 0
765 3087 0
370 1204 0
-803 -3053 0
720 3877 0
2455 2898 0
1364 2498 0
-1982 1384 0
1700 1764 0
-121 -2861 0
-3401 3125 0
3711 -2536 0
-3246 1670 0
2191 2035 0
2624 2350 0
3350 -2199 0
-42 -1979 0
-3462 2659 0
-3210 2975 0
1856 816 0
-1174 3132 0
611 2219 0
-2214 -3063 0
-3337 -552 0
172 2361 0
-1858 -1810 0
-3549 -3371 0
-3892 -835 0
-1146 -2267 0
1924 -3676 0
-456 1468 0
-2187 3535 0
-3265 -3598 0
-1461 638 0
-361 2651 0
2197 -3889 0
1500 1773 0
185 -3237 0
-2787 1200 0
3961 -3518 0
-269 -231 0
585 422 0
762 -1605 0
686 3480 0
2571 -2696 0
2926 -1482 0
1078 2448 0
-2878 1525 0
1996 753 0
3751 -3019 0
-2821 -1396 0
4121 481 0
1682 -4071 0
-1971 1009 0
-627 3930 0
-2189 3471 0
-257 1205 0
2518 -789 0
383 2699 0
2689 520 0
2188 629 0
-4080 1365 0
405 1482 0
-694 -3662 0
3626 2119 0
3402 548 0
2686 2426 0
-1429 657 0
-2367 1445 0
-2098 2261 0
-1000 -2601 0
1670 -3874 0
1343 -2431 0
-1957 -1725 0
-2394 -1173 0
-133 646 0
-1168 -3379 0
-3765 -1261 0
-2892 3892 0
414 93 0
2153 -1942 0
-3210 -881 0
2350 1892 0
-871 1074 0
1405 1841 0
3291 -392 0
2158 -1257 0
502 -1934 0
-1790 -433 0
-3521 -3853 0
3626 2115 0
3178 -22 0
-3157 3839 0
353 -2451 0
-1416 874 0
1640 2272 0
-468 771 0
-1411 1672 0
964 -1620 0
3175 -2016 0
1742 -3817 0
-1579 2264 0
-1018 2629 0
1914 -835 0
-4061 3021 0
-2502 3461 0
-4123 -1376 0
-1915 -2474 0
1506 2491 0
-3705 -3048 0
585 -2912 0
-3096 -739 0
-1636 3027 0
2819 3733 0
-2854 -1638 0
4106 -3028 0
3947 2084 0
2885 -3691 0
-3992 2142 0
-2774 2153 0
2129 -270 0
2379 -3781 0
-1983 -4135 0
4140 -1842 0
-2437 3410 0
2777 1958 0
-2990 -370 0
781 1992 0
-932 -1842 0
-4053 2146 0
3839 -2619 0
670 -3482 0
1715 -673 0
1541 -73 0
-693 -1887 0
-2586 -3225 0
-3375 2181 0
1586 1028 0
-1420 -2529 0
-2044 -3054 0
1375 2697 0
-2734 3098 0
-1090 27 0
1911 2520 0
-2950 2905 0
3518 -2021 0
-99 -1390 0
-2842 3245 0
1994 -283 0
3348 -1177 0
1236 -5 0
-2008 1564 0
3473 1403 0
-3520 -2334 0
-63 3708 0
-3620 3059 0
-2706 -3194 0
734 2732 0
-2700 3579 0
-77 -3486 0
-163 -49 0
-3795 3714 0
1167 3912 0
-83 845 0
-490 2036 0
2420 -1929 0
-422 2923 0
581 -745 0
399 2430 0
-3730 1602 0
2376 -1580 0
-3641 -3781 0
-3577 1815 0
-3548 3042 0
347 -438 0
1053 -1037 0
185 -46 0
456 -3485 0
-1590 3905 0
-2882 -1097 0
-134 -1370 0
1948 -1515 0
-3752 -3252 0
-1601 274 0
1761 1138 0
31 3281 0
-2918 -3818 0
3036 220 0
-2934 -3879 0
3008 -1835 0
686 2192 0
-1659 -490 0
1901 -3820 0
-1163 2941 0
733 -2937 0
-1711 3031 0
4110 -2120 0
-1034 -1277 0
-1532 -2937 0
1783 -492 0
-2980 -3008 0
3810 -2688 0
-1321 -2651 0
3441 990 0
3399 -135 0
-767 -2671 0
-180 -1425 0
3447 3034 0
-2729 -2229 0
-1400 -3192 0
-2706 -2894 0
793 3250 0
-3864 2072 0
-604 -382 0
-1693 2854 0
90 -737 0
-826 -2682 0
-1028 -3903 0
-1254 2947 0
1056 -2614 0
1000 3966 0
-1828 897 0
3785 -518 0
657 -171 0
1430 -2118 0
-188 -1337 0
-45 -3451 0
1555 534 0
3503 -3557 0
1863 -2613 0
-3734 838 0
-1376 -3532 0
-45 3923 0
-1122 -484 0
669 456 0
1356 -3703 0
-1158 -3780 0
-3077 -3112 0
-3758 1761 0
2319 544 0
-3301 -3599 0
-184 418 0
-1389 744 0
3444 139 0
-490 -2916 0
3518 3105 0
3198 3970 0
-1542 2552 0
2555 1879 0
-3635 -3258 0
-549 3445 0
3636 3713 0
-401 2730 0
-3106 -1039 0
-2656 -3434 0
1853 -1733 0
1765 -833 0
784 108 0
-495 -2989 0
2397 -551 0
4005 -720 0
-68 -2314 0
-3147 2807 0
-1752 1392 0
2012 1854 0
2213 -3564 0
-2821 532 0
-3602 1787 0
-43 4036 0
3966 1486 0
-1830 2626 0
3933 -1279 0
3272 -2059 0
-1733 -855 0
1300 -3247 0
-614 -2722 0
-2698 -3524 0
-1403 -3689 0
-2437 -2316 0
827 1671 0
1644 581 0
87 312 0
2379 730 0
-4127 -1264 0
-3056 -2922 0
-3866 3553 0
499 176 0
3889 2023 0
258 2988 0
-2644 -3253 0
1192 3584 0
2362 -2575 0
-2814 1822 0
-2764 2009 0
2268 102 0
2412 3808 0
2278 -2591 0
-3588 2615 0
816 -2194 0
2824 -1451 0
-235 -2694 0
-289 -2563 0
3739 2011 0
4110 318 0
-2216 3415 0
410 -2018 0
1889 -1593 0
-1849 -2648 0
-124 2582 0
1562 -3998 0
-1005 4068 0
2651 -3964 0
-2499 1091 0
-3793 323 0
1272 1893 0
-1635 -3066 0
240 -3420 0
3537 2620 0
-637 -396 0
-3122 -458 0
-1244 2705 0
3573 -1551 0
-3615 -2099 0
-3093 -1304 0
-3935 3617 0
1982 1024 0
1736 2692 0
-3753 2915 0
1636 -4071 0
3855 1691 0
1380 1515 0
3412 3219 0
963 -3944 0
-2374 3021 0
569 -3670 0
2579 990 0
2128 1642 0
-1607 707 0
3505 2330 0
1184 -3050 0
3945 -3204 0
-376 4043 0
-3422 -542 0
3593 -2179 0
1888 -849 0
-158 2239 0
-3930 -1492 0
-3835 571 0
-1675 3185 0
6 1509 0
964 -3913 0
108 -2416 0
-2332 3085 0
1159 -418 0
1209 -3340 0
-715 -336 0
-470 2328 0
361 3437 0
2290 1459 0
1095 -1819 0
-667 3243 0
1548 474 0
4024 2442 0
-2789 2626 0
350 3047 0
-1461 -336 0
723 2963 0
916 -2933 0
-2693 -2216 0
-2609 3112 0
2424 -1384 0
-1448 -1088 0
2072 558 0
-1466 1535 0
2061 3024 0
-1950 -2236 0
3780 -3664 0
1053 1713 0
3272 -2301 0
570 1744 0
-3170 -2082 0
661 -3518 0
1983 1351 0
2498 -1554 0
1560 -3437 0
-2235 823 0
-187 -3711 0
2692 -1471 0
2158 -972 0
889 -4125 0
-1352 -2823 0
1253 -2869 0
-3753 -2477 0
-4040 -3357 0
-3501 2682 0
2648 -376 0
2031 1850 0
1530 2074 0
1605 -1980 0
-2648 583 0
660 3657 0
2821 2441 0
390 -1298 0
-3154 1245 0
-2067 -97 0
2639 -1164 0
1936 1486 0
2527 1557 0
-2933 -2878 0
1209 -2274 0
-3994 3993 0
-4137 2232 0
-1184 258 0
-3257 -1512 0
2 2197 0
1237 1864 0
1827 1792 0
152 -3943 0
2397 -331 0
-4001 -167 0
-1390 -652 0
-439 -1456 0
2149 2910 0
-2581 -722 0
4112 1147 0
1883 1263 0
-2355 196 0
1902 2130 0
594 2915 0
2494 2805 0
2575 -1734 0
-3135 513 0
-968 2866 0
-951 -1626 0
439 -1860 0
2066 3089 0
-811 -3111 0
-3457 -137 0
3065 3458 0
2528 915 0
1891 1530 0
3050 -1136 0
1095 647 0
4035 2210 0
-3806 -314 0
-3669 261 0
-578 470 0
1386 3612 0
-166 677 0
3096 681 0
-3424 2858 0
1115 -693 0
-1064 663 0
-3892 2386 0
4010 1378 0
-3855 2984 0
-2864 -2660 0
-2748 2557 0
-3947 -2937 0
-2127 2755 0
307 -2313 0
-2636 3598 0
-3056 -3827 0
2593 2870 0
1145 71 0
1087 -4079 0
2980 -1204 0
-2406 -1615 0
-991 -3285 0
-3821 -1008 0
-2889 -2791 0
-1132 4084 0
-586 -3722 0
-272 1241 0
1532 -114 0
4065 -610 0
2304 822 0
3418 352 0
-3649 1755 0
-1581 554 0
1256 1554 0
-2290 -3799 0
2945 -4056 0
2184 -4071 0
-2982 -4095 0
-1644 -91 0
-3022 528 0
2377 -3780 0
2625 -3832 0
3441 1722 0
629 -3011 0
-1661 -1890 0
1591 3908 0
-1292 448 0
-3591 -1895 0
2402 1427 0
250 3073 0
-1778 -1389 0
-2868 -3741 0
-3841 -481 0
-1647 -1395 0
606 779 0
-699 -3532 0
1017 584 0
-2653 1318 0
3490 1083 0
-3462 1946 0
-280 -4086 0
-3584 2704 0
2192 3236 0
2618 -1158 0
1928 2952 0
-2459 609 0
627 2149 0
2538 2224 0
4140 -330 0
-2552 -3016 0
3338 -233 0
1384 -2325 0
3353 -2928 0
1626 -927 0
-1405 445 0
-2132 898 0
319 562 0
-406 -1149 0
-2728 2157 0
-3761 4050 0
2908 -3555 0
-365 -2482 0
-2959 -1780 0
-531 -3107 0
-1512 -2120 0
-1056 -979 0
-2772 176 0
-4075 1258 0
3421 3150 0
429 -1844 0
998 3070 0
-2270 -494 0
969 -3588 0
2361 463 0
698 217 0
1755 -1872 0
-156 -2566 0
-89 -3230 0
-3288 -2991 0
3878 -1161 0
-41 4069 0
-3404 3849 0
-3843 2006 0
-3550 -946 0
-2808 -1407 0
-1974 385 0
-2854 76 0
60 1448 0
3041 -2635 0
-354 2613 0
1131 -3609 0
677 -2863 0
57 1730 0
3058 3559 0
-2967 -4038 0
-590 -1653 0
-44 -2614 0
1554 -68 0
-3605 1955 0
-3185 3961 0
-1539 -3209 0
789 2078 0
455 318 0
71 -2919 0
2948 4046 0
3402 1845 0
2133 2857 0
-507 -2383 0
2031 1897 0
-1737 902 0
1284 -4096 0
1070 1007 0
3314 1075 0
-3393 2109 0
-1327 3970 0
2297 968 0
-1124 -776 0
-2943 1881 0
-3760 -1996 0
1369 -2065 0
2078 -1273 0
318 -3031 0
2593 23 0
-3247 1460 0
-3388 -1072 0
910 1500 0
2070 64 0
3416 -3419 0
289 -3765 0
343 1654 0
-2212 1218 0
1131 2667 0
3731 1441 0
-2998 -179 0
1926 -3785 0
908 -3252 0
-2062 -3175 0
-3708 3517 0
2903 3622 0
-2516 3567 0
-1454 943 0
-3466 3829 0
3988 -535 0
-369 3099 0
2497 708 0
-2299 724 0
-1975 1067 0
2910 -1824 0
3816 613 0
1086 -1798 0
2467 -3929 0
1984 -1360 0
-551 1917 0
-3164 -3094 0
-2954 3338 0
2864 3769 0
3704 1306 0
-187 -434 0
2123 -1867 0
-2352 3925 0
1039 3185 0
3191 -1514 0
-1712 -3690 0
-1381 -709 0
3399 3372 0
4118 428 0
2986 1987 0
-885 3912 0
-1784 1365 0
2613 -524 0
-624 -1228 0
-2038 -3902 0
2893 -824 0
-2357 338 0
3186 -156 0
-1648 1705 0
4059 2376 0
-3944 -65 0
3337 2089 0
-3198 -3050 0
409 -3460 0
3353 -2245 0
3830 3637 0
-3963 42 0
-3139 2233 0
4020 -3942 0
-3208 686 0
3023 -1058 0
1715 -912 0
827 -3992 0
-736 -833 0
423 1787 0
-1208 -937 0
-1973 -968 0
2295 -792 0
-360 -1244 0
-991 828 0
1715 -480 0
-2218 3792 0
3692 867 0
2072 -3897 0
-398 1316 0
2566 -1214 0
-2492 1812 0
-2395 195 0
3864 3668 0
3829 -1390 0
2189 -1132 0
2977 -418 0
4011 2843 0
2294 -3341 0
2113 3884 0
-2331 1503 0
-3092 -22 0
-3218 266 0
-2696 -3909 0
-1924 2632 0
-1785 1276 0
2290 1943 0
3002 -2253 0
-924 3207 0
636 -3132 0
4003 -1812 0
-3339 -417 0
-3758 1599 0
-3062 3578 0
-2922 -4110 0
3539 954 0
2258 -3567 0
3384 3129 0
112 -3005 0
2956 -2093 0
682 1608 0
269 1143 0
674 2092 0
626 2654 0
-695 798 0
1735 3921 0
28 3343 0
3255 4009 0
385 -2681 0
4027 -2986 0
-2617 -1275 0
780 628 0
1369 -4114 0
1870 3612 0
546 -3458 0
-3015 -1072 0
-1380 28 0
-2238 -998 0
1187 -1646 0
3514 1809 0
3507 -2605 0
-1390 1561 0
-751 1374 0
-912 -2789 0
3998 147 0
1997 3793 0
798 2468 0
-1581 -345 0
2749 3527 0
-2907 1241 0
3087 -3535 0
2834 1678 0
-1854 -2292 0
-1545 856 0
1190 -734 0
-3020 -3290 0
1425 2147 0
1745 66 0
671 -1569 0
2524 3133 0
-3393 -1618 0
1873 -965 0
-1062 1499 0
-1285 -2063 0
-3565 25 0
1937 -1014 0
610 2859 0
-465 -3515 0
3488 1380 0
-3733 2244 0
-761 -2886 0
-3815 -452 0
-52 2903 0
1087 -467 0
3581 -3356 0
1146 -3187 0
-2605 -2308 0
-2720 16 0
-2813 -470 0
1141 -1653 0
679 3348 0
-53 -639 0
-1434 -2491 0
472 2393 0
-2849 2804 0
2936 1330 0
-2648 -1556 0
2861 -3877 0
-2998 3298 0
55 1310 0
3971 4109 0
3288 -2710 0
540 2608 0
-4139 1416 0
2721 71 0
-2298 1592 0
3295 8 0
-1378 -1362 0
1056 3012 0
349 -2917 0
2149 -79 0
730 -1869 0
2741 -1261 0
1479 -836 0
-2884 1556 0
-1647 -1146 0
-494 1591 0
3995 -1725 0
2432 3129 0
-3678 2759 0
-479 -3940 0
-712 4114 0
-3593 -2364 0
1353 -3364 0
4135 3901 0
-2650 -538 0
-757 863 0
-832 2895 0
-1673 591 0
-17 -2960 0
31 69 0
-3478 -3512 0
-842 -466 0
4016 790 0
2080 3250 0
-3443 1600 0
-4081 3717 0
990 -2600 0
2123 26 0
881 2615 0
1863 3906 0
-1755 -742 0
2257 738 0
-1605 -1183 0
449 1285 0
-2354 -3282 0
1083 -2400 0
1802 -3464 0
2163 3540 0
1990 -1289 0
786 -384 0
1111 1266 0
3979 2378 0
2250 -1926 0
557 4083 0
-468 53 0
-4067 1685 0
-1151 -3965 0
1937 147 0
-763 -2707 0
3323 2203 0
-3722 -2374 0
-2594 2035 0
2341 -1687 0
-994 64 0
-1958 -38 0
-3391 335 0
2678 -3103 0
431 3338 0
-1441 -2180 0
-159 -76 0
-3736 3260 0
1318 2370 0
2734 2153 0
2179 -3225 0
3245 2175 0
891 -1079 0
3668 2782 0
1444 1669 0
1949 -3359 0
1649 -3296 0
1012 -1487 0
2263 4085 0
-461 1241 0
3052 -1223 0
-3380 3182 0
-3028 -1416 0
3264 2264 0
-122 -417 0
-3943 3668 0
2976 -1461 0
-3456 -4064 0
-2868 851 0
1830 2584 0
753 174 0
3814 275 0
-3609 -3341 0
-1541 -4087 0
1399 -1809 0
-3693 -1425 0
842 -1703 0
2177 1369 0
3188 4091 0
-2887 -149 0
-1737 -4048 0
-3578 -3679 0
-1346 13 0
-370 3695 0
3692 1632 0
-3563 1864 0
-1919 1363 0
2323 -4034 0
-2738 2196 0
2194 668 0
1909 90 0
-1399 2064 0
-1493 -4047 0
385 -1483 0
-3674 -89 0
394 -3553 0
-2217 -929 0
-683 -1089 0
-3194 -905 0
3637 723 0
3714 3657 0
-1451 -714 0
-1170 -4134 0
1728 -2670 0
2066 -3990 0
930 -3575 0
1266 -2492 0
169 -3296 0
-1674 480 0
-1493 2206 0
3828 -1463 0
849 879 0
1393 -2504 0
4026 2299 0
2475 3995 0
-2624 867 0
765 -43 0
3252 -1809 0
1530 39 0
-3937 -2150 0
-3480 3885 0
-3379 -2581 0
-2595 2987 0
895 -1933 0
1307 2599 0
-596 3501 0
-2349 467 0
2962 -2238 0
-3530 -91 0
3492 -2551 0
66 1386 0
-2160 -727 0
842 2557 0
3244 2573 0
-309 876 0
-1793 1372 0
-3599 -238 0
2740 -2653 0
188 -2164 0
3838 214 0
-4122 445 0
3302 2195 0
985 961 0
-3005 -2771 0
-1477 393 0
1745 -1289 0
-4029 280 0
3809 2184 0
-3074 2650 0
3270 1855 0
-1315 2718 0
3667 319 0
2078 2736 0
3324 -1557 0
956 -597 0
-2082 2065 0
877 425 0
3098 -2603 0
3561 -172 0
-2342 -2998 0
-3060 -3309 0
3886 2760 0
-458 -3727 0
3212 -3292 0
-3276 -1256 0
-1803 -89 0
-2754 -505 0
-1746 3151 0
2642 3671 0
3950 1334 0
-1603 3161 0
294 -2153 0
957 -1683 0
3942 -3104 0
-2573 -2769 0
2965 -1816 0
3009 2379 0
-3761 875 0
-3180 -1904 0
361 -567 0
3043 -4025 0
-206 3714 0
2199 1921 0
-1020 359 0
-3111 -2974 0
-702 2187 0
-646 3796 0
-3735 -555 0
-2534 2439 0
1897 2230 0
2466 -1512 0
4063 3105 0
-1189 677 0
-2887 -1797 0
1302 3301 0
-1402 1206 0
1222 -3775 0
1649 3099 0
-1935 -393 0
787 -1801 0
761 879 0
-2578 -1942 0
-1226 -563 0
2264 2092 0
2157 3677 0
1369 3391 0
-2591 -947 0
3978 -4097 0
-1079 3913 0
186 -2695 0
514 123 0
-1528 3896 0
-3511 -1052 0
1485 849 0
-2819 -2492 0
62 1702 0
3861 -1119 0
-3648 2199 0
3316 -1258 0
1763 3014 0
-2581 3763 0
-3121 1811 0
1930 2208 0
-19 -3812 0
963 -1804 0
1826 -231 0
3050 2906 0
1870 1954 0
3196 98 0
3171 1527 0
-321 -2802 0
1065 -72 0
820 1604 0
-3834 654 0
236 -253 0
-1223 2275 0
-945 1090 0
-1096 2215 0
-478 -1621 0
-2292 -2833 0
4008 3779 0
2865 2290 0
2607 -1425 0
-765 2353 0
-1536 667 0
1444 3381 0
543 978 0
-350 2119 0
-3521 2846 0
1478 3796 0
3862 395 0
3107 1464 0
-1468 -1680 0
-3833 715 0
-4111 1235 0
3999 1500 0
-2849 2914 0
-688 2605 0
2759 1417 0
-2590 -676 0
396 3718 0
1167 -2186 0
2741 -2279 0
3331 3480 0
1967 585 0
-1252 -1905 0
-3455 1023 0
-1271 963 0
1951 3370 0
2314 3538 0
600 -853 0
1173 3964 0
2607 2897 0
782 620 0
1937 -541 0
-2284 1894 0
-271 1574 0
-1999 -287 0
3118 1002 0
-1314 1787 0
1281 -1520 0
3959 1480 0
3848 -3319 0
-120 66 0
2497 1668 0
1886 -849 0
794 -575 0
-1279 -1389 0
-2609 3959 0
666 4133 0
-4125 644 0
-1706 1619 0
-487 1604 0
2086 -448 0
3120 2553 0
-2737 2027 0
-2062 939 0
-2856 -3452 0
-2370 2724 0
1084 744 0
3636 -3545 0
-2097 297 0
2768 -1114 0
2631 -493 0
2617 -1262 0
3632 1079 0
-2171 2923 0
-1658 2543 0
1642 1469 0
-3898 3783 0
275 898 0
2770 976 0
1159 -2996 0
-1266 451 0
4076 -247 0
-364 434 0
1027 2230 0
3000 951 0
3333 1539 0
3510 306 0
-385 -1786 0
3127 -1503 0
1628 3726 0
-1116 2618 0
2560 483 0
-3436 3071 0
-2623 -1460 0
-724 -2671 0
1669 2265 0
-2332 1469 0
-1878 1839 0
-2980 1489 0
-2954 3963 0
1033 -4032 0
-1102 -3532 0
-3483 -1316 0
1325 -245 0
-1983 1088 0
3046 -1308 0
-4063 -3246 0
1148 -3943 0
3774 2636 0
3384 -2284 0
-2393 3625 0
1838 -1622 0
1968 -3174 0
-2405 -3043 0
-245 -3862 0
2773 103 0
-3352 -2367 0
-2691 3769 0
-2587 -1377 0
1992 2917 0
-513 723 0
208 -3471 0
-3037 -3835 0
-3315 -775 0
2271 2168 0
3044 2335 0
230 2613 0
-935 -2512 0
1347 176 0
1374 3285 0
-3257 422 0
-2423 -904 0
2819 -3023 0
1772 -1322 0
-905 -3996 0
1216 -1457 0
-410 3784 0
-3341 460 0
3718 -3676 0
3018 -3278 0
1331 1012 0
-2762 -746 0
-1039 -2703 0
-2565 -2117 0
-2164 -408 0
-1249 -1433 0
-2893 -4017 0
-1390 -2227 0
-2345 -3607 0
3207 -2644 0
-1513 3519 0
3499 3114 0
3601 138 0
3042 2248 0
673 3324 0
-2375 2788 0
2814 2142 0
-255 -207 0
3396 -2766 0
-749 -642 0
3962 -2191 0
1835 -2811 0
-3034 1087 0
-41 1737 0
-3513 572 0
1380 1866 0
-3927 -3474 0
3695 -3743 0
-1868 -1344 0
-3157 1955 0
1380 -932 0
732 3320 0
584 601 0
-3913 -416 0
-3485 -967 0
1293 -3287 0
3011 1216 0
2149 -1511 0
-2561 1396 0
1338 -1181 0
1193 1502 0
-3142 3259 0
-389 -1662 0
225 -907 0
2169 3394 0
3991 3473 0
-218 -1482 0
-1139 4083 0
-1190 -2951 0
492 -3711 0
3332 406 0
-43 -2584 0
176 1444 0
-1464 -3737 0
2086 4030 0
-1014 -2323 0
1318 -1208 0
-510 3887 0
2378 661 0
-1852 -1294 0
3642 -596 0
-2066 -3010 0
-3910 1613 0
175 1269 0
-1079 1479 0
1393 2039 0
-3287 -66 0
1038 1554 0
-3770 -1842 0
2729 -440 0
949 -97 0
-3689 -675 0
-3602 -3764 0
-384 -543 0
-2629 -3929 0
-4087 3212 0
473 -406 0
-176 -2919 0
-2015 -1812 0
96 -2720 0
-2772 -4095 0
2516 -454 0
-1000 -4007 0
-600 -1564 0
1343 2859 0
-742 -1613 0
460 3612 0
-3523 1777 0
3313 303 0
319 1643 0
1702 361 0
-2512 3244 0
-502 -3471 0
2575 2554 0
-623 -728 0
-2845 -1977 0
1365 185 0
-3737 2388 0
1503 -1341 0
2827 3773 0
-2213 256 0
3359 -1100 0
-802 -2934 0
950 161 0
-487 -2661 0
3179 1994 0
105 -3289 0
-1331 2133 0
2287 728 0
4090 3397 0
233 -1154 0
-3162 3219 0
-2169 -4108 0
210 -964 0
4131 976 0
913 -155 0
904 1295 0
-2871 2960 0
-3619 3866 0
-905 1021 0
-353 1237 0
2638 639 0
4016 1882 0
-317 -2082 0
-1945 828 0
-854 403 0
217 2344 0
1289 -1682 0
2173 3018 0
2927 -607 0
1766 1742 0
-466 -1834 0
591 585 0
1168 -3106 0
-1531 -2411 0
656 -3449 0
3606 -2102 0
307 2864 0
-3745 3373 0
-3938 -3060 0
2665 -3547 0
3337 4089 0
-2807 -2056 0
-3752 -1774 0
-1786 3033 0
3228 2679 0
1390 -2506 0
-2706 2720 0
3536 -2402 0
-2356 3061 0
3392 -2483 0
348 1132 0
-3410 2525 0
-3104 161 0
2621 1053 0
-665 -679 0
1685 2447 0
-933 1891 0
-2330 -679 0
3686 -1950 0
-3836 2413 0
-25 1435 0
-2308 -1938 0
2902 -3190 0
-2498 -2656 0
1724 222 0
-4080 2279 0
-2913 -3298 0
-928 2290 0
-2770 -2355 0
42 2283 0
33 3204 0
-2270 1275 0
-3992 1550 0
361 -2975 0
-877 -3887 0
1079 234 0
3766 3371 0
-4066 -769 0
2003 -317 0
1339 639 0
3507 -1108 0
1453 -980 0
1203 2469 0
-2477 -464 0
2094 2323 0
2031 1144 0
-4140 282 0
-3868 -2536 0
-1409 -3810 0
-2166 1829 0
3558 -2842 0
755 1240 0
-1148 2962 0
1813 -2995 0
-778 -1474 0
-637 2677 0
2482 533 0
-1317 3699 0
3483 -1147 0
-3554 3385 0
3223 2876 0
-3920 2814 0
1065 -1456 0
882 2453 0
1408 -1740 0
-334 -2649 0
-3779 1010 0
474 3815 0
-1336 -3944 0
1413 2457 0
-728 3504 0
2357 -4138 0
-2281 1258 0
-3022 1 0
-228 -4041 0
-908 -3704 0
-133 -3279 0
2997 3048 0
-3469 412 0
-4096 3461 0
-159 4141 0
2311 2639 0
-436 -1664 0
2818 -3011 0
-3548 -2649 0
-1873 3657 0
-4061 3144 0
-1190 2311 0
2838 1992 0
-2564 -854 0
3741 -1366 0
2079 1180 0
-3869 -2073 0
-3723 637 0
-933 3183 0
-3025 -3344 0
-2282 -1463 0
2725 1906 0
2429 3605 0
-2255 -2260 0
-499 -2779 0
3970 2972 0
-3939 -3301 0
-1540 644 0
139 739 0
2174 270 0
-3564 -3810 0
-1449 2621 0
1653 -2292 0
4088 -665 0
801 -2765 0
1634 -1645 0
2467 -3014 0
569 207 0
1637 2912 0
3557 -743 0
3800 3204 0
3920 1968 0
-1389 1745 0
-4130 2360 0
-4138 123 0
3711 2197 0
-3158 3403 0
1263 3647 0
457 -3688 0
2006 1162 0
2878 -826 0
2209 -2983 0
2449 -3325 0
-1173 -2140 0
3681 -1699 0
2254 -737 0
1443 2165 0
-1047 -1645 0
-263 1383 0
-761 882 0
726 -1298 0
-856 -2478 0
-3694 -3724 0
-963 2113 0
2941 -2025 0
-3927 -1337 0
-1130 -2563 0
1318 1934 0
-3575 -442 0
-1446 2891 0
3990 2023 0
-2236 -1595 0
4120 -4 0
3363 3714 0
-1148 -1238 0
1152 716 0
3205 361 0
1382 3249 0
629 1090 0
-1362 -2263 0
-1306 708 0
2205 537 0
3247 3061 0
54 -502 0
4089 -480 0
-2373 -1601 0
-1254 -3246 0
1243 -3713 0
-3763 3120 0
-1299 3289 0
1800 -3470 0
3557 196 0
-2729 586 0
-1706 2587 0
-879 3026 0
1088 311 0
-1277 3843 0
-1648 1882 0
2103 2679 0
1273 -2919 0
-4123 -535 0
995 3782 0
56 -407 0
2561 3654 0
3493 2084 0
-2545 555 0
413 869 0
-2645 -2383 0
594 191 0
1446 2539 0
1932 -2359 0
1955 -264 0
-1183 -662 0
-977 -2614 0
415 3540 0
-1677 3269 0
-208 -4060 0
1474 2639 0
-890 1320 0
852 -2534 0
512 -2615 0
2426 -1932 0
2331 2441 0
-438 -1763 0
524 -270 0
-3245 3734 0
-1609 73 0
116 -2333 0
3465 -3606 0
-2993 -398 0
2576 176 0
558 -3594 0
-2160 1377 0
-2841 -153 0
-942 -565 0
-3487 -3890 0
-2810 189 0
2631 -3859 0
1246 736 0
-2218 1333 0
-1330 -3151 0
1241 1126 0
2888 -1405 0
3662 488 0
-4023 2106 0
191 3363 0
3237 3998 0
-1171 1516 0
-1515 -2351 0
1439 969 0
3738 2717 0
3682 3305 0
2993 1719 0
2654 -2182 0
2003 9 0
-4104 -918 0
2001 -490 0
402 961 0
-2158 3670 0
3023 -3163 0
-2799 3174 0
-1740 -1294 0
3600 4009 0
-2923 2085 0
2465 3391 0
-722 1237 0
3451 1174 0
-2203 -1298 0
2967 1307 0
1742 579 0
2171 -668 0
-2916 3995 0
1269 -3302 0
-3471 -3428 0
-3641 2157 0
-2648 -1356 0
-2785 681 0
1007 -987 0
133 -785 0
628 3362 0
-1300 2872 0
35 3311 0
-1271 -839 0
1629 -3620 0
-3845 -3806 0
2367 4063 0
587 4138 0
572 -3023 0
527 -537 0
-3382 -145 0
-2453 2647 0
-2788 2786 0
3364 1590 0
1293 2596 0
-2359 4030 0
-4054 2759 0
-730 1269 0
-3319 -912 0
3745 -1062 0
2650 2629 0
-954 3267 0
3894 456 0
717 1606 0
1782 1768 0
704 -475 0
1366 1494 0
-1550 -401 0
-4071 1298 0
-2884 3483 0
833 425 0
422 -241 0
2013 3342 0
-1344 1161 0
-3409 -1636 0
2012 -3301 0
1187 -3784 0
-2370 3410 0
-2939 1353 0
71 -1245 0
-2730 -2213 0
-2761 -3039 0
2025 -2771 0
4091 1790 0
142 2707 0
-1283 -3391 0
-444 -2427 0
-920 71 0
-2812 3302 0
-2796 3568 0
3291 1514 0
-2160 186 0
1809 -914 0
856 -3584 0
3354 -958 0
-2229 -3504 0
2466 -2344 0
-1189 -1785 0
-2540 1095 0
1669 -17 0
258 -1280 0
-1984 -602 0
-1702 -2779 0
-2405 2570 0
-3293 -2801 0
-2107 -2457 0
1323 3441 0
2012 -1219 0
1690 -2841 0
-2729 2876 0
1670 2819 0
649 1835 0
1363 -1610 0
-196 -3125 0
-184 -3312 0
-1695 4031 0
-1847 -2183 0
4135 -630 0
-3167 -3087 0
268 -2798 0
2342 -1908 0
2930 -2482 0
-233 2678 0
-3247 -1508 0
-1132 2049 0
-2370 1532 0
-3899 3634 0
2054 2898 0
-279 3037 0
-575 1708 0
1349 -3927 0
4135 3354 0
3209 -3542 0
-1471 -4102 0
-2196 1408 0
-4037 2800 0
3617 -703 0
3682 -61 0
1700 -3748 0
-239 1354 0
1450 -3338 0
867 3207 0
2439 -2508 0
2217 865 0
2334 2369 0
103 -2883 0
-2127 3858 0
475 -2658 0
4060 3396 0
4069 1074 0
-3645 1374 0
1126 1531 0
939 -1153 0
-618 3815 0
2258 348 0
1475 1690 0
-2754 3210 0
3698 -3948 0
83 2305 0
1556 3391 0
1740 3291 0
1788 2692 0
2450 -2942 0
-433 -3694 0
468 -2141 0
-1659 -1404 0
-285 -3596 0
921 2641 0
-3387 -972 0
3171 -3082 0
-4102 2252 0
2143 2698 0
-2205 -2781 0
3128 -245 0
2625 -4091 0
1764 -1449 0
1831 -265 0
-430 -3138 0
-3672 -544 0
723 -3808 0
3327 889 0
14 2685 0
474 2705 0
2678 3654 0
-3128 3156 0
-3431 1170 0
2124 2312 0
1912 3781 0
2642 -2439 0
2785 201 0
-4025 3226 0
2679 1645 0
747 -2895 0
305 -1083 0
-206 -2775 0
-3648 -2324 0
3577 -2331 0
846 1294 0
-3820 -3244 0
1016 772 0
-2564 -2432 0
2262 -683 0
4034 -3716 0
240 -4122 0
939 -187 0
2247 -3327 0
-1491 -2765 0
1231 -271 0
-3788 232 0
375 -2907 0
3449 -1673 0
-157 -499 0
-2688 -3611 0
1153 2906 0
-1791 3779 0
-3190 -994 0
-78 1251 0
2076 3002 0
-3356 1109 0
-832 1678 0
-551 1589 0
3943 -3702 0
-2237 -3173 0
3142 448 0
-818 -5 0
-2977 -841 0
-1050 -3616 0
661 3895 0
-115 82 0
-3833 -2075 0
-1406 3035 0
-1286 -4039 0
2416 -1600 0
-3077 -332 0
-880 4115 0
-1417 704 0
2314 -3025 0
2792 -2110 0
-488 2461 0
-4064 939 0
-3192 -3842 0
1202 881 0
64 -1852 0
696 -2258 0
-731 3716 0
-365 -2877 0
2920 234 0
-1751 1485 0
3536 2817 0
1241 828 0
1066 2949 0
-3895 1163 0
375 741 0
-544 -1848 0
1564 2600 0
3571 -2483 0
3617 3248 0
2721 -1542 0
-2264 2629 0
2520 606 0
-510 1662 0
-1309 1480 0
-442 -840 0
884 -1965 0
-3762 2357 0
-3751 -2199 0
2539 1916 0
676 3468 0
-1878 -1706 0
852 -2925 0
2395 -1755 0
3273 -386 0
2646 3880 0
-956 -1559 0
-2691 2119 0
4079 -1799 0
2019 -2087 0
349 2490 0
-764 2018 0
1807 -2805 0
-1978 -2371 0
1582 2571 0
-3515 -1756 0
2557 2976 0
-1523 -631 0
-2927 -2465 0
818 -3054 0
-1933 -3384 0
-3702 3320 0
3595 2980 0
1855 3332 0
970 -452 0
-1656 -2049 0
2430 -730 0
-2535 -2197 0
-1350 1959 0
2976 2781 0
3979 3097 0
-3302 -950 0
-2219 2520 0
3965 138 0
1238 -292 0
372 -1776 0
3546 -2269 0
-1027 -35 0
3783 -2485 0
-3292 1211 0
1544 -1784 0
2772 1221 0
825 2065 0
1549 -2053 0
901 -583 0
-4121 2142 0
-604 4093 0
1592 1219 0
2418 2245 0
-2772 3739 0
-2075 -44 0
1044 -2370 0
-3100 2588 0
-3242 -4111 0
-470 -633 0
2907 1080 0
2170 21 0
1002 -2633 0
1318 546 0
3848 741 0
-2865 2857 0
197 2480 0
745 -176 0
3235 -2284 0
4011 -1909 0
3999 -3953 0
-927 396 0
-2393 -2347 0
2977 -2990 0
4000 -1575 0
-1741 3377 0
3391 3665 0
95 3120 0
1199 -1967 0
-3463 1280 0
-1399 -3278 0
3378 3805 0
-1183 -780 0
-3101 2163 0
1579 3263 0
-1800 -184 0
1090 -237 0
-3385 -3116 0
-2127 573 0
-2075 671 0
-2135 3566 0
1878 1016 0
813 -1683 0
3637 -2908 0
-612 4038 0
-249 -2821 0
2307 -1575 0
-3049 -658 0
-792 -1081 0
-3632 -3474 0
-2716 -2600 0
54 -1255 0
-2078 1232 0
643 4018 0
-3402 3913 0
3240 3229 0
1310 -872 0
-2996 3987 0
2963 -1849 0
-166 749 0
1292 452 0
3715 3485 0
-1228 843 0
-1697 -998 0
674 -3200 0
-2037 -795 0
-340 -1498 0
-654 2312 0
-1174 3235 0
1328 2435 0
-46 1241 0
318 3042 0
1665 3284 0
2169 -789 0
-2612 -3887 0
-3152 -2701 0
139 3805 0
412 -3395 0
-3709 -2636 0
2369 -484 0
-1801 1010 0
-3461 3239 0
2400 1530 0
2162 445 0
399 3243 0
-725 2688 0
-1786 -3603 0
1982 -3967 0
-3797 2370 0
-2789 -1235 0
2001 -3141 0
-3954 2510 0
-1360 4137 0
4068 -309 0
-1791 3514 0
-4133 -764 0
3483 -3561 0
2362 1994 0
-1570 1892 0
1524 -3806 0
3762 -4064 0
-382 -1291 0
1041 -226 0
-2604 1004 0
1852 3329 0
1844 992 0
-1753 3823 0
-113 -917 0
-2367 -2142 0
-958 -144 0
-600 3179 0
3251 -1201 0
2040 179 0
532 -3687 0
-3806 3353 0
3062 -2535 0
-1747 -3817 0
1869 -936 0
2664 -802 0
3272 1638 0
-566 -2582 0
-2451 -3252 0
-2579 -1221 0
22 3809 0
-2586 -1308 0
-799 -127 0
3574 -410 0
-1758 2515 0
-2222 2721 0
199 3260 0
-3619 -643 0
-3518 -4024 0
-3876 2432 0
-1259 -2785 0
-4123 183 0
-1587 758 0
-2536 -1923 0
-3697 2531 0
-3181 -908 0
1532 -3987 0
-2250 -1437 0
3720 2414 0
2726 195 0
-3837 329 0
-3370 -1986 0
3593 4136 0
3369 -2106 0
-1873 -2918 0
-3649 -2032 0
3783 -872 0
3575 -1710 0
-3106 876 0
287 -3532 0
3584 -933 0
-260 -4105 0
2543 3751 0
-644 -2810 0
3373 -940 0
3112 2910 0
-329 -2148 0
1473 2966 0
782 -1510 0
1957 3633 0
-1073 2023 0
-1012 -2737 0
1584 -3541 0
1366 569 0
4089 -3884 0
3736 2497 0
4032 -1308 0
-1926 634 0
4077 3590 0
2419 1632 0
-890 -3257 0
2617 -2595 0
-148 -2633 0
-1747 12 0
-1515 3051 0
-362 3334 0
-3005 3480 0
-3711 4037 0
1702 -460 0
2310 -2709 0
1773 -2121 0
3635 3002 0
-2347 -266 0
-2843 3522 0
-2304 -2861 0
1963 1431 0
-2636 334 0
3044 1165 0
-2592 3729 0
-45 460 0
-973 260 0
3811 3941 0
-3364 -3674 0
-3343 1186 0
1104 -1615 0
-596 -2731 0
366 3647 0
739 4136 0
4080 2457 0
1891 3627 0
2868 3338 0
1434 -2742 0
401 -232 0
2223 599 0
-2322 4083 0
-584 -3385 0
2699 -1399 0
-110 -1774 0
-83 -2947 0
-3196 -1165 0
-2112 -3123 0
2887 -864 0
-1717 -4004 0
-1770 3496 0
-3996 2448 0
3092 3166 0
539 3745 0
-3445 -731 0
-3556 1525 0
-1153 1192 0
-246 2819 0
9 -1887 0
1547 -4069 0
-2940 -244 0
-3044 -4038 0
-3144 -1193 0
2133 -1734 0
-1516 767 0
-73 1103 0
1116 3441 0
-3357 2774 0
-1897 -908 0
-3128 -2182 0
-1697 -2864 0
3515 -3023 0
1422 -3065 0
-4129 3422 0
-1752 3722 0
-4086 -1354 0
-3210 -973 0
2819 2603 0
970 -1180 0
2690 -295 0
3671 3115 0
3536 920 0
-2488 3186 0
883 -2588 0
-3661 682 0
3771 -298 0
-805 2261 0
-1145 -187 0
2611 1612 0
-1637 -20 0
2167 -3583 0
-4131 -129 0
-3226 4083 0
3337 151 0
3479 3472 0
-570 2289 0
-859 1055 0
546 -265 0
3123 4011 0
-3251 3475 0
3500 -1377 0
-1361 -862 0
1696 1528 0
1424 3160 0
823 356 0
-3139 -1592 0
1287 1779 0
-3281 -235 0
-1542 677 0
2577 1457 0
3730 -3069 0
-1980 -1313 0
-1941 -3531 0
2238 -3616 0
-3367 2219 0
4012 -2559 0
-3877 -3184 0
2533 2394 0
842 1636 0
2142 -3253 0
-1561 -2292 0
-74 -2348 0
-992 3441 0
-1061 1665 0
-3607 -2128 0
-2644 943 0
-1893 609 0
-417 -275 0
-1471 -1327 0
2833 -2275 0
-3327 -1222 0
332 -908 0
3320 -2961 0
-3159 -112 0
3233 2844 0
881 3376 0
3951 -3985 0
2378 752 0
-656 -2979 0
2873 -2603 0
-2176 3768 0
-1478 -266 0
-2637 2656 0
-212 -1325 0
-3669 -1622 0
3172 1600 0
-2783 573 0
591 344 0
-2007 3992 0
2272 2822 0
3800 -3332 0
3012 1533 0
1599 2460 0
-3845 -1233 0
-2354 -2983 0
-2497 -3290 0
-120 -2993 0
985 1434 0
-283 -838 0
2853 1010 0
1327 2633 0
-3939 -3237 0
-1808 -905 0
-1622 2716 0
-2637 -1170 0
71 -2699 0
-2298 -538 0
-2508 -3624 0
2712 2116 0
3514 -3696 0
-4021 3240 0
3402 1494 0
3923 1092 0
-1657 -4087 0
-2799 -3983 0
269 1825 0
-953 -513 0
967 3962 0
-3358 -1311 0
-1958 2416 0
-2232 -1078 0
278 2575 0
-327 499 0
198 -35 0
-2352 1121 0
-751 2476 0
1053 4000 0
2512 160 0
-2804 2844 0
3481 2167 0
-2104 352 0
-3962 -557 0
1432 1737 0
2223 -3763 0
-434 -2677 0
1761 -1198 0
2403 3910 0
-3723 -3440 0
1909 3686 0
457 -3474 0
1309 -3501 0
-774 -255 0
-1868 3217 0
-1858 -2779 0
-3170 3661 0
4132 3736 0
-3467 1329 0
3451 371 0
-1960 -1988 0
3876 3141 0
-3252 -1080 0
-441 -298 0
-2815 597 0
1409 464 0
-2602 -1390 0
-2971 3105 0
-1373 1258 0
-1351 324 0
-1837 1095 0
-1481 -508 0
3192 1312 0
3227 -3046 0
1574 -1612 0
2333 -1103 0
582 831 0
-1774 1910 0
-716 -1234 0
488 -296 0
2986 -1871 0
171 3781 0
1044 -3360 0
-2307 674 0
-734 -265 0
-2478 2414 0
1834 -2251 0
-559 -164 0
3388 -1721 0
3800 1011 0
2864 -4050 0
-1807 4069 0
1482 900 0
647 -3174 0
1328 -1002 0
-3268 -3400 0
-439 1086 0
2037 -1108 0
3058 -3566 0
-2279 -860 0
-3694 -2143 0
2163 -364 0
-3790 1963 0
2330 2985 0
3162 -2120 0
-2824 1007 0
-388 -1924 0
-1918 -1268 0
3178 -2095 0
-854 205 0
2108 1707 0
3662 3807 0
-2699 1072 0
-2299 3139 0
2006 2908 0
3307 1729 0
-3157 -162 0
534 -1245 0
1428 964 0
-4134 766 0
-233 2616 0
-1288 -543 0
-3603 -167 0
-1641 597 0
-3313 -3500 0
-563 -212 0
1009 1244 0
3378 2363 0
-1257 3134 0
1776 -1920 0
-1577 -428 0
1170 -2723 0
-2857 2631 0
3420 3295 0
-641 3511 0
-92 2961 0
-1592 -1922 0
225 -482 0
1129 720 0
-2120 3141 0
2106 2198 0
-3346 676 0
-1868 -1659 0
1660 31 0
3335 2524 0
2457 -3657 0
676 2008 0
3048 -2094 0
-2771 2541 0
1130 -380 0
1642 2294 0
-2088 3431 0
248 187 0
-327 -2040 0
-583 424 0
1128 4030 0
-3539 -1564 0
-2725 63 0
438 -3425 0
605 -3086 0
3100 -714 0
374 -2488 0
2170 1822 0
3504 2466 0
564 -1730 0
1290 2937 0
1016 -3559 0
3509 -2810 0
978 1002 0
3945 -1057 0
4003 2998 0
3695 -2290 0
1959 -3398 0
2679 -634 0
3029 -997 0
2475 -2598 0
3759 -3877 0
1741 3535 0
11 4116 0
2205 1267 0
2569 2724 0
3378 -793 0
3448 -3645 0
-1492 3428 0
227 -1727 0
589 2814 0
4127 3396 0
2718 -3395 0
374 -4004 0
3028 132 0
-1936 -3920 0
-3930 -747 0
-1320 961 0
-1472 3113 0
-594 -2561 0
-3050 3222 0
-3986 584 0
482 -1118 0
748 3888 0
-1426 -1174 0
-3668 -3913 0
1238 -3435 0
-3544 -1039 0
2334 555 0
-3512 -2127 0
3461 -2071 0
2689 -3486 0
-2865 2761 0
-3526 -2847 0
634 -1134 0
-2393 -1965 0
485 562 0
-2496 -3620 0
1556 1672 0
-397 129 0
2214 1579 0
3239 1473 0
3463 1954 0
3421 200 0
1748 1764 0
-746 1209 0
3811 535 0
-1874 -1895 0
1952 2555 0
1461 -1609 0
57 -1667 0
-2613 3971 0
-717 3586 0
142 1275 0
1174 -3400 0
1004 -430 0
-3781 468 0
-2219 1460 0
-2092 -694 0
957 2140 0
-2728 2341 0
-734 3914 0
851 2827 0
2964 4118 0
-3822 2036 0
-579 -2097 0
-1318 -2912 0
-2014 -4137 0
2005 299 0
-2128 -2063 0
-288 -2070 0
-1296 1949 0
2162 4080 0
849 818 0
-2081 3661 0
2715 -2823 0
2530 2089 0
905 2463 0
1420 1681 0
-1733 1649 0
2915 -2095 0
954 3017 0
2674 2873 0
3745 776 0
-387 -401 0
555 2 0
-865 -1704 0
-1566 2577 0
784 -568 0
1729 -3382 0
2045 273 0
-1608 596 0
-2044 -684 0
-482 -3357 0
-334 526 0
2239 3771 0
-1422 -3556 0
3520 -2870 0
-2313 -548 0
1094 514 0
3079 2078 0
-3623 -4084 0
-3299 -807 0
1910 -1655 0
1227 1985 0
1959 -1831 0
-1416 1707 0
-3048 2949 0
2759 -1553 0
1290 3997 0
1040 3294 0
-1653 1941 0
1938 -2435 0
3852 3961 0
693 -1644 0
2962 -803 0
306 2285 0
-1049 3337 0
828 -1344 0
-3956 -1797 0
3738 -3047 0
1215 -1595 0
-3830 -4053 0
384 -1647 0
118 3861 0
-2997 -3534 0
88 3269 0
-967 -650 0
3600 -1721 0
-235 3719 0
-3092 -695 0
-3247 1276 0
-3128 3208 0
3649 -778 0
3099 -1397 0
2489 875 0
-2078 449 0
-3938 -1555 0
-3476 -934 0
-2053 3741 0
3624 -1447 0
2347 3668 0
159 3189 0
1024 -2826 0
2575 -155 0
2316 3152 0
-2574 -3845 0
-1660 3904 0
196 335 0
-1165 381 0
-2182 3196 0
4057 3337 0
1080 1557 0
1528 2420 0
-3618 -562 0
4082 -3548 0
-1583 -2529 0
3609 3586 0
2547 -2115 0
-496 -2374 0
2073 320 0
1316 -2590 0
62 1472 0
958 -1842 0
3872 -3947 0
-607 -3799 0
951 2573 0
-3691 -2834 0
-2644 461 0
-3611 -747 0
-3287 3067 0
-111 -574 0
2350 1130 0
-4017 548 0
-1308 -522 0
744 -3599 0
953 1538 0
3240 1584 0
4107 -2156 0
2443 3634 0
-2904 -1808 0
429 2095 0
2111 2807 0
844 -40 0
3297 -1458 0
-3018 3526 0
-1045 3867 0
-2883 3295 0
3546 519 0
-1957 -1564 0
3083 -1792 0
-208 2540 0
1243 1281 0
-1752 1407 0
2320 2174 0
-271 151 0
281 1880 0
-1165 -2163 0
758 342 0
-1881 -293 0
3560 2578 0
-1446 333 0
274 -2073 0
992 1660 0
229 3852 0
-56 989 0
233 -3789 0
-484 1290 0
-4033 -3231 0
84 -800 0
-3754 2487 0
3753 -2047 0
-1387 -2841 0
1776 -1609 0
-3031 3127 0
-2098 584 0
4003 -2316 0
-1119 -1936 0
268 3353 0
2470 -3800 0
-3708 -2637 0
-2285 -3656 0
-1374 2085 0
-341 -2773 0
-1301 -2182 0
-2832 1639 0
-2446 69 0
-1412 -2898 0
3870 -3669 0
-2274 -1843 0
1912 2303 0
1317 3945 0
-3088 -2151 0
-530 -1648 0
4131 -2191 0
-2610 -4 0
-2732 -1239 0
1430 -1982 0
-3400 -1032 0
-890 3359 0
1900 -1283 0
-2569 -495 0
-1189 -302 0
-2346 -384 0
-3323 -467 0
-2185 3720 0
-4115 -3370 0
3525 2372 0
1560 3366 0
568 -1307 0
-2504 1272 0
1151 128 0
1742 1024 0
1460 3096 0
3707 -1849 0
2169 -3705 0
-1794 -3238 0
949 1251 0
-3949 -2204 0
3459 1624 0
-1970 -435 0
3118 459 0
-4024 -1710 0
-860 2981 0
-4096 -322 0
-3818 2535 0
2704 573 0
4030 -1383 0
-1331 465 0
-3092 318 0
3377 -623 0
1067 2215 0
715 -4093 0
3842 850 0
2348 -2843 0
1351 -263 0
-564 -3335 0
1406 -3789 0
1978 4098 0
-1991 2424 0
3631 -2878 0
-1497 437 0
3067 2539 0
-439 2613 0
-652 -948 0
-1553 1430 0
374 1409 0
-3456 1034 0
-3834 -63 0
-549 1845 0
3401 -304 0
-1877 -91 0
3272 -2842 0
-3077 203 0
4059 2574 0
2498 2370 0
-3050 3244 0
3962 2722 0
-1850 -3850 0
-3402 965 0
1810 -3760 0
4031 905 0
-1600 2864 0
-3296 1700 0
-1924 -1673 0
-852 -41 0
2204 -829 0
-718 306 0
-2921 3108 0
1372 -3760 0
3273 -3474 0
-1140 -1889 0
1538 1017 0
-3761 2460 0
2778 1393 0
1199 -330 0
3961 1990 0
2757 2164 0
-580 2804 0
-3769 -932 0
799 -3963 0
-2799 -2189 0
3620 -3951 0
4007 3944 0
-3904 715 0
639 -1001 0
2371 -3474 0
-3265 -3236 0
-2765 2979 0
-2415 1006 0
-1780 1762 0
2594 2420 0
-3453 -3893 0
3144 2338 0
-1854 952 0
-2182 2567 0
3699 159 0
-3409 614 0
1404 3751 0
1457 -3402 0
-3695 -1291 0
2900 -3992 0
-1259 2313 0
-2864 1803 0
3355 1530 0
3998 1010 0
-4048 -2234 0
3166 3377 0
3557 3307 0
-4045 -79 0
-3058 3627 0
-9 2122 0
-101 3013 0
3412 4036 0
924 3415 0
2936 -853 0
1462 2029 0
3112 -1695 0
-570 -428 0
-3833 2661 0
-2543 2069 0
1401 -1849 0
1709 3019 0
-356 441 0
1159 -1651 0
-3314 1913 0
-351 -896 0
3327 823 0
14 -1253 0
-2607 2673 0
2977 -3598 0
-3845 -1262 0
3875 -630 0
2102 -3101 0
3121 2886 0
1628 -3665 0
3062 1833 0
-3500 -3523 0
3198 -3346 0
-1310 2575 0
-3709 -417 0
3039 1907 0
-3599 -408 0
2397 2137 0
-3797 610 0
-2 2665 0
-1984 2122 0
3784 -466 0
-651 -2100 0
2463 3921 0
2402 -1135 0
-2527 -1641 0
2146 4059 0
-942 -1331 0
3096 4118 0
-4086 474 0
-3645 3134 0
-3077 1806 0
2362 -3210 0
-355 -2008 0
1759 -1223 0
-419 -3598 0
-2272 -3413 0
2340 -4077 0
262 -3556 0
3836 -2930 0
-349 2203 0
-3523 473 0
-3041 -327 0
-909 2390 0
3791 -3720 0
-2951 -1571 0
-1645 -3551 0
611 1030 0
-1667 497 0
-3328 2156 0
4034 -973 0
-1243 -1048 0
-2127 1061 0
819 3485 0
-621 2210 0
-3898 39 0
988 972 0
941 -1414 0
488 2482 0
-326 -1447 0
-3866 3355 0
-2058 -1022 0
-1867 2067 0
882 -3105 0
-1899 2394 0
-2064 2482 0
-3856 1514 0
2761 -3344 0
1706 -2421 0
-2276 -3064 0
-2614 296 0
-3424 3150 0
-3578 2724 0
-1540 711 0
-939 -4057 0
-1460 2324 0
-1511 2076 0
-2748 2130 0
-796 -1580 0
-2599 215 0
2006 607 0
-3083 -1015 0
-2644 2393 0
-3954 -3429 0
-2949 -1725 0
-3132 -1703 0
1846 -940 0
874 -274 0
-1771 -3835 0
1555 -1856 0
3625 2552 0
-1449 -3813 0
-1795 1690 0
-2775 -2172 0
4131 -2709 0
1568 390 0
-2241 -3287 0
3749 -549 0
2997 -1702 0
2593 4095 0
-4051 2981 0
4131 -141 0
-1466 1522 0
2085 -3100 0
-36 933 0
-1498 1382 0
-1732 143 0
787 2969 0
2340 1559 0
1275 -2878 0
2129 -2070 0
-2034 3644 0
-599 606 0
-3440 -2180 0
-3258 -1593 0
-2786 1848 0
-519 2019 0
-2922 -1780 0
-2914 -1875 0
313 -2734 0
2053 -928 0
1821 -3069 0
-2336 -3980 0
-862 3710 0
-2764 -4042 0
4133 241 0
3884 -2574 0
3090 -2997 0
-3419 -2408 0
39 1771 0
-3658 380 0
1883 2891 0
-1775 709 0
-2850 -703 0
3082 28 0
-591 -2351 0
3436 1943 0
-1840 -190 0
619 -3518 0
1156 2875 0
-3957 3496 0
3573 1934 0
3740 2392 0
1849 3586 0
-1387 1200 0
-2982 -656 0
1907 599 0
883 2435 0
-1714 -1819 0
-3258 3709 0
-1664 -2638 0
2981 -1382 0
-701 -2919 0
1852 -444 0
997 -322 0
3932 1377 0
46 759 0
-1170 -431 0
274 681 0
2885 -2679 0
1651 4013 0
2103 3045 0
71 -2317 0
-3066 -411 0
3925 3354 0
-1847 -232 0
2713 -3455 0
3806 -3554 0
2748 -3808 0
982 -288 0
-3190 1122 0
1075 2503 0
2710 -1578 0
1156 3772 0
1482 1664 0
-1163 2894 0
1598 3483 0
3863 2449 0
3772 -2109 0
-3095 -82 0
-3610 -3724 0
-1354 425 0
2247 -2896 0
-3520 4030 0
139 3654 0
-2746 -236 0
-2876 3103 0
-1187 -545 0
473 3964 0
3355 -5 0
-1220 4103 0
3061 -34 0
-376 -184 0
1275 4000 0
588 -800 0
-1247 2907 0
2064 -1648 0
3034 -2180 0
753 -3022 0
2027 -2672 0
1424 -2672 0
2255 -3011 0
-532 -850 0
-1095 547 0
-2676 -2839 0
-2810 3895 0
3263 3934 0
1072 -1175 0
794 -3830 0
-3314 3421 0
34 2948 0
-456 3626 0
-520 -3388 0
-3847 -2438 0
-3609 -196 0
1473 2621 0
-1321 -3708 0
3426 -2359 0
-2370 -2644 0
-1185 -2250 0
-1801 34 0
3932 2955 0
-2252 2243 0
-3963 295 0
3019 2079 0
1528 785 0
-2918 -934 0
785 1003 0
3590 -2259 0
-3350 273 0
-105 -896 0
-1607 4062 0
-3837 4013 0
5 -2606 0
2596 -3457 0
1345 -3747 0
3099 -1378 0
-2513 -3039 0
-2808 -1775 0
3699 1404 0
3002 891 0
-1984 2771 0
-190 375 0
841 1903 0
64 3849 0
-1571 4120 0
-2096 2991 0
1471 2670 0
-4 -467 0
-3437 3267 0
-3015 910 0
-1314 1308 0
420 555 0
1445 -829 0
-1154 -1483 0
-2300 130 0
722 -1438 0
684 1852 0
2176 953 0
-617 13 0
-2584 1336 0
-1702 3408 0
-3727 179 0
-4039 -2758 0
-3788 2567 0
1553 2941 0
-3799 -3445 0
-1352 -77 0
1966 2569 0
-384 910 0
1802 3006 0
3231 1453 0
-3713 1120 0
-3517 2565 0
-3641 1427 0
-1813 -1679 0
-2796 -1316 0
-1914 660 0
3223 2484 0
2949 -1096 0
465 1036 0
2269 -173 0
-3898 -349 0
-2609 -1864 0
3905 -1265 0
1104 1302 0
-2286 -853 0
-3766 -2651 0
2899 -324 0
226 3346 0
-758 3658 0
2848 -3380 0
-304 330 0
1312 2187 0
-1515 2113 0
-3581 -612 0
1966 2684 0
646 2001 0
548 1674 0
2936 1655 0
301 -9 0
-1134 -3612 0
-1110 1867 0
-724 -1564 0
-3763 1220 0
-1932 -1040 0
2226 3977 0
-1989 4044 0
2777 -2666 0
-981 -508 0
2716 -1275 0
-409 1354 0
783 3259 0
-417 -2711 0
-3890 -1115 0
-3257 3622 0
1297 1256 0
1151 3558 0
1997 3452 0
1058 -1385 0
-2943 -3821 0
3033 -3110 0
1401 -1237 0
1419 4042 0
64 1823 0
3662 3623 0
2458 -1009 0
205 3348 0
19 -3913 0
2983 3714 0
-426 1911 0
-2995 811 0
-2382 -3392 0
-980 -1410 0
-3166 2522 0
-816 955 0
-702 -3938 0
1356 -2948 0
2060 302 0
1461 -3766 0
-1620 1552 0
-520 3839 0
-309 574 0
1645 -3016 0
-3997 -1352 0
-495 -1441 0
-3073 2126 0
1062 -3111 0
-3213 2482 0
2320 771 0
-3903 -3930 0
2882 -3314 0
-630 -12 0
3438 -2080 0
2083 -3105 0
2131 -3455 0
-115 195 0
2594 3551 0
-3261 -1185 0
-166 -1529 0
-1797 2418 0
3306 918 0
1688 3743 0
-193 4075 0
3975 -2773 0
613 1407 0
-3470 2224 0
-3797 -2864 0
1978 329 0
-3669 -120 0
-2314 -3194 0
-3869 556 0
-3442 -1795 0
1938 2504 0
826 -91 0
-131 -3260 0
-3201 2890 0
3898 1452 0
4010 2010 0
1282 2388 0
-3119 405 0
-2539 -2266 0
2396 1865 0
-1316 1684 0
-551 3164 0
1574 985 0
-2622 -1055 0
-2834 1303 0
-4033 -1635 0
-2660 3244 0
-3638 968 0
-1511 -3297 0
1403 3150 0
1400 -3903 0
-1320 812 0
-2147 -999 0
3044 -292 0
335 -1425 0
542 -3817 0
3709 2670 0
2614 -1559 0
-3576 -1341 0
1803 1822 0
-1688 -1866 0
1863 -255 0
3483 -3471 0
-384 2417 0
-1622 -186 0
3820 -1890 0
13 -296 0
-1252 771 0
-252 -3281 0
4042 -1576 0
-2714 -85 0
3678 -2641 0
-3892 4118 0
2154 -982 0
-2699 -1088 0
-2807 983 0
1458 2489 0
1261 2390 0
3108 404 0
4060 -1796 0
-4024 -3718 0
503 435 0
-194 -3022 0
2397 -1686 0
-862 1502 0
724 3489 0
-1338 -813 0
3753 275 0
-877 -1612 0
1102 -604 0
-337 2549 0
1857 -1578 0
-1208 -3378 0
573 1761 0
331 185 0
1191 2176 0
3264 822 0
-4108 -1623 0
849 -1685 0
1498 -2750 0
2310 1636 0
3036 -2053 0
2386 4009 0
-3470 4114 0
-99 1417 0
-2725 2525 0
3558 3877 0
1539 1495 0
-2281 -3207 0
188 -1212 0
3108 -642 0
1060 3960 0
1565 179 0
-1195 3056 0
-3002 -331 0
-1161 3588 0
3881 778 0
-3629 2538 0
2704 -2993 0
-74 -2865 0
1679 2000 0
1936 1157 0
-2629 1302 0
3299 -287 0
1371 -3713 0
-807 -309 0
-212 -2862 0
962 493 0
-697 1375 0
2731 1219 0
-2728 -1390 0
-2306 1800 0
-2884 3764 0
581 2667 0
1439 -2140 0
3952 2539 0
-2874 756 0
-832 1733 0
534 609 0
136 -1489 0
626 2565 0
-1453 1664 0
2679 4130 0
2170 -3957 0
3391 -3350 0
2729 1760 0
2196 1608 0
712 -3501 0
-3886 4025 0
1987 -1813 0
-4132 108 0
1479 -3820 0
-2573 -1466 0
2486 3581 0
-3966 -3765 0
-3153 1717 0
-3440 -1804 0
-3678 2746 0
2328 -3025 0
-2193 -1920 0
-2637 -320 0
1934 -2716 0
197 -1035 0
2543 1004 0
2243 -3090 0
579 1547 0
-1600 -1197 0
-1846 -889 0
-1721 -3287 0
339 3192 0
-1201 -23 0
-365 1651 0
-2705 2450 0
2126 -2203 0
-3452 892 0
4020 -1808 0
-1422 -2854 0
-1944 3371 0
3667 -3730 0
-3451 4007 0
3347 -111 0
-51 -286 0
3267 -3136 0
22 2627 0
-944 -1423 0
-207 -2034 0
274 3059 0
-3069 -2349 0
972 2269 0
-1229 532 0
782 -493 0
-3960 41 0
1095 -3314 0
-2313 1609 0
-4090 -844 0
-1614 2034 0
-3357 -3840 0
3162 3053 0
-3022 4083 0
-1123 -3186 0
-3434 463 0
-610 2064 0
-679 2423 0
2475 634 0
-2592 -539 0
-3347 -3184 0
-175 3695 0
-3400 -2075 0
2910 3182 0
2191 1374 0
-27 2069 0
1209 -1532 0
3154 -1674 0
-2254 -1110 0
-301 -3397 0
-3986 45 0
-3283 -3818 0
4072 357 0
-3555 -3830 0
-2797 -3709 0
2343 3779 0
-3054 -1320 0
46 2800 0
-2285 1401 0
-3575 -2806 0
3856 -4047 0
-3190 -1264 0
142 -3978 0
-1404 -979 0
-3641 2277 0
-600 2905 0
-3100 2779 0
-3644 -2927 0
-2281 4008 0
-4095 -3530 0
-187 -1609 0
3863 -2989 0
-3196 -3851 0
-3238 -705 0
1349 560 0
-1683 3347 0
697 -925 0
-3439 3096 0
1490 1745 0
2387 24 0
572 -2284 0
2195 -2148 0
1705 1673 0
3337 -1592 0
-1056 1605 0
3595 3436 0
-2928 4030 0
-3401 1788 0
132 -2491 0
-1218 1406 0
558 3787 0
-870 -4045 0
3802 -2126 0
2217 2257 0
-2393 -3423 0
-1878 -3859 0
3001 -173 0
-2751 2468 0
519 -1867 0
415 -2511 0
727 3061 0
-3735 -3267 0
2619 -3185 0
-3405 -3022 0
-1352 -1286 0
-454 -2483 0
2962 2230 0
-2975 -3661 0
-1932 -3737 0
2389 -1135 0
1493 2013 0
3138 -2873 0
3327 -2924 0
-2874 -9 0
-1234 -1937 0
623 3018 0
3158 3640 0
-807 -1383 0
-2584 -74 0
228 2876 0
2373 -2219 0
-1283 -2591 0
1445 -1680 0
-2300 4063 0
-1430 -2825 0
-2163 2479 0
3957 -1291 0
-1718 -1516 0
1007 -3493 0
1965 -286 0
3012 -2089 0
-270 -1203 0
2525 595 0
303 -481 0
1697 -537 0
3858 -1399 0
3499 2679 0
-1610 -3958 0
617 -824 0
1874 786 0
-710 3668 0
-2101 -2123 0
3338 4030 0
-3443 530 0
3550 1925 0
-4077 4132 0
2778 1606 0
2877 -2057 0
2305 -2610 0
-2316 1751 0
3166 1778 0
-1824 643 0
3941 1825 0
3557 1549 0
-2132 -2351 0
-2256 503 0
-3155 -529 0
1709 -1116 0
2159 -2011 0
-2543 -3844 0
4031 -2712 0
3226 62 0
3481 -393 0
3740 2082 0
1183 400 0
3089 -3347 0
-1217 -3717 0
-1920 3743 0
2157 3323 0
-3703 2350 0
1474 -2566 0
3831 -1559 0
-3314 -2200 0
-1803 -3987 0
3595 -3622 0
3207 -2676 0
-1798 -433 0
-3906 1130 0
3879 -1676 0
2434 617 0
171 1906 0
-2332 2045 0
1682 3778 0
-3486 1599 0
-2688 -2532 0
1752 -78 0
2617 3044 0
-1366 -1329 0
-3654 2441 0
562 147 0
-2680 -3148 0
1105 578 0
2174 12 0
2557 -2280 0
-281 2379 0
1577 969 0
-3131 349 0
1235 -3102 0
-3611 1903 0
-3093 -2146 0
418 2388 0
-3492 -3063 0
-364 3996 0
-3837 -4 0
-3636 -3092 0
2021 -3477 0
-1684 -328 0
-3343 -2233 0
-3638 976 0
-1869 600 0
-2440 -2145 0
768 2703 0
-2037 2258 0
-3056 1283 0
2814 3250 0
2882 -3114 0
1332 4063 0
-1763 -1608 0
-1189 1697 0
-3192 1916 0
-1017 -4006 0
-1564 -4075 0
-2649 1077 0
1392 -1462 0
-4124 -3841 0
2886 -2029 0
3001 2598 0
-1755 -924 0
118 1138 0
-1457 -1854 0
-2182 2382 0
-2547 -3084 0
-1060 931 0
555 -2767 0
-1795 -1022 0
135 505 0
2897 -206 0
568 119 0
-368 -3904 0
1778 3868 0
-2718 -237 0
-589 4015 0
1526 188 0
-3020 2656 0
1901 -2821 0
2705 3363 0
2513 -1975 0
-893 -347 0
-3226 -3671 0
2022 3419 0
-1606 -2272 0
-296 1982 0
3497 1985 0
-2092 -2234 0
-19 -1639 0
4084 3131 0
2118 621 0
1258 1041 0
2651 -455 0
1490 -2288 0
206 207 0
1863 1572 0
1835 -2314 0
3788 -245 0
1903 2759 0
2262 -343 0
-2700 -3649 0
-173 -2786 0
-679 2987 0
308 -789 0
1097 -3845 0
-1097 -3813 0
752 3284 0
719 -2959 0
-3173 2452 0
1926 -3832 0
-2919 3770 0
397 2058 0
-1995 2481 0
-233 -386 0
-1768 215 0
-653 -3159 0
-3608 485 0
-918 2820 0
-2225 1104 0
3681 2790 0
3210 -3892 0
62 -1496 0
-575 -3494 0
498 -2841 0
2191 -2404 0
-1709 -2840 0
2184 1546 0
-1859 1796 0
577 -1898 0
3249 631 0
2886 3045 0
1049 295 0
-2218 -557 0
3982 -1874 0
2019 -3496 0
1350 1552 0
2769 -2959 0
3765 -1524 0
-293 -3523 0
1722 3336 0
-3054 623 0
3514 3326 0
3561 -3498 0
151 3733 0
2076 972 0
-1475 2137 0
2981 -1823 0
-3532 1424 0
-2575 976 0
3978 -2268 0
838 3734 0
-1876 474 0
-1809 2049 0
-337 1371 0
2893 -14 0
-283 -3674 0
-440 -3078 0
1380 2322 0
242 -718 0
-1025 1584 0
1912 3082 0
-1174 1708 0
-804 1650 0
2557 2888 0
-3458 -3637 0
1910 -1459 0
375 -1637 0
1749 -843 0
3014 -3799 0
1782 1852 0
3612 -2113 0
1974 3769 0
-829 3643 0
-1217 1188 0
-3524 445 0
3331 -522 0
-152 -2578 0
1155 -3474 0
-2341 -4125 0
-1275 3591 0
943 17 0
3263 -263 0
-3652 -3928 0
2621 2282 0
2550 -468 0
1951 656 0
-2511 3362 0
-3116 -954 0
-2053 2857 0
-2897 1200 0
-2550 -261 0
-479 10 0
556 387 0
-2294 306 0
715 -2996 0
3212 402 0
889 1199 0
-1918 1086 0
3600 1718 0
2518 2874 0
956 -1068 0
-3621 -1222 0
2972 -3170 0
-2722 888 0
3087 -3285 0
1707 2254 0
3177 269 0
3865 -1804 0
741 -2253 0
2788 3973 0
875 43 0
2533 1882 0
3538 1427 0
-1411 -2260 0
-4122 -3459 0
-3911 -1195 0
-1505 1760 0
-3512 2202 0
2764 -4080 0
-1913 1918 0
2029 -41 0
1780 211 0
-236 -1802 0
3149 2662 0
-178 3194 0
-802 -110 0
551 -1250 0
3008 -2259 0
2287 -1973 0
-1513 -994 0
2676 2542 0
-1754 -1792 0
175 -2101 0
-3100 -2993 0
3127 1641 0
329 -3721 0
-2702 125 0
-2797 3242 0
-121 -1667 0
-2141 -2262 0
-1301 -1017 0
1547 493 0
-72 2203 0
939 -3389 0
4060 -794 0
-3074 2500 0
-2544 -1411 0
-1697 729 0
-318 3438 0
-2311 3441 0
914 1692 0
-2019 -1550 0
-1388 2625 0
-2907 -657 0
3451 926 0
-2179 3260 0
4089 4008 0
2266 -3093 0
-2733 2697 0
-3390 -2311 0
-2192 -1395 0
1710 -3697 0
1230 -3154 0
3097 62 0
-3578 -3276 0
524 2030 0
-4050 -1491 0
1539 -1605 0
3964 3970 0
4009 -578 0
2417 2744 0
-2633 3316 0
1350 -2995 0
-743 -1473 0
-2635 -1629 0
3945 -1505 0
-3271 2755 0
-3850 2607 0
1756 -1805 0
-518 -4080 0
3647 2973 0
3326 3002 0
-49 -1724 0
-3366 2324 0
2567 -2395 0
-4122 3205 0
2760 -1339 0
-532 1143 0
-3630 12 0
-2867 -2357 0
-1069 3073 0
3205 -3056 0
209 -1547 0
2190 -851 0
880 343 0
3363 1952 0
3991 -2599 0
982 998 0
-3951 -3821 0
1156 2936 0
-1366 -1638 0
-2266 2675 0
-4102 1227 0
-2984 1903 0
1793 -1931 0
-1561 222 0
-1664 3091 0
1442 1960 0
-2760 707 0
2846 1546 0
306 1757 0
647 3190 0
-3895 1106 0
-2411 3307 0
-2124 -1308 0
1065 2380 0
-318 3160 0
2418 -3248 0
-578 844 0
2926 1911 0
242 -3817 0
-1331 -116 0
-1956 3379 0
1468 -3226 0
1841 -3397 0
217 -3679 0
4078 2403 0
-585 1356 0
1072 -2028 0
-3118 -769 0
161 -1948 0
-3488 -1747 0
-2057 1042 0
3768 -1551 0
2348 4067 0
-1073 2280 0
-2488 -2611 0
-112 -3928 0
-489 -1260 0
-1622 -831 0
-2747 -818 0
1101 2607 0
-3722 -3767 0
3150 -1215 0
918 -1920 0
3463 -2998 0
-3792 3076 0
891 -2851 0
3805 -2393 0
-2701 -2623 0
2670 -3818 0
-2698 -3484 0
-4123 -330 0
3500 -2977 0
-779 -3786 0
-1148 104 0
-1222 -3671 0
3879 -2892 0
-2634 3362 0
-4007 4097 0
-935 -885 0
-1576 -3568 0
-1728 3686 0
-688 794 0
1324 2195 0
-2073 1509 0
4138 1200 0
-2288 2269 0
-3690 2056 0
3112 -2723 0
-79 303 0
2955 2347 0
3740 -2567 0
-429 -1071 0
2769 1432 0
-317 -2564 0
3337 -166 0
2334 966 0
786 650 0
2844 3469 0
692 -3841 0
3086 2036 0
-2912 -3312 0
-1426 -3195 0
3346 -1331 0
-1709 2382 0
-2697 2284 0
-2991 3943 0
2024 -610 0
797 781 0
2470 1111 0
3745 -2693 0
-3434 -3090 0
-2884 2278 0
692 -1362 0
4093 -3409 0
1811 -3698 0
3759 159 0
2874 3637 0
2306 3614 0
-1658 -2016 0
4054 1938 0
4117 3503 0
1446 -3584 0
-252 400 0
-1192 -746 0
-1254 136 0
-3909 -951 0
510 -331 0
2494 -800 0
3049 -2188 0
1072 3310 0
3951 -3900 0
638 -2416 0
-2581 3918 0
2629 -3911 0
-709 -1027 0
-3928 -734 0
-1676 2003 0
3338 1496 0
2624 -3895 0
514 -2862 0
-399 -3466 0
1408 2716 0
781 587 0
-2405 -81 0
-1667 3038 0
-1357 368 0
-2820 -2525 0
-279 599 0
-2188 2269 0
-1261 2780 0
-1801 -2547 0
3177 -3629 0
1113 2182 0
110 2122 0
912 350 0
1041 -2558 0
3372 -3430 0
-1529 -1619 0
-3321 2719 0
2031 -162 0
-2674 -3846 0
-485 -2967 0
-2604 2403 0
-393 -1562 0
-3510 -1847 0
3194 -3697 0
-3149 3896 0
-3240 -407 0
3165 346 0
-3910 1418 0
-325 2400 0
2713 -2163 0
540 -1367 0
571 -1899 0
-3079 -4108 0
1657 -1349 0
-3277 2268 0
-2974 505 0
-2189 -1208 0
2327 -1378 0
-2734 -2136 0
-2892 4122 0
-4043 -2351 0
2415 2167 0
-1994 1439 0
2819 353 0
-426 3029 0
-4029 2620 0
-2982 -3419 0
-1014 -1107 0
-3704 2655 0
1393 -2122 0
-2499 -1359 0
1499 -1857 0
1784 2185 0
-3486 -4141 0
-890 448 0
-225 3794 0
-482 346 0
-1308 -1073 0
3569 -3619 0
-3541 -2660 0
-3041 -234 0
-2739 -1887 0
913 2146 0
-2437 -1362 0
3956 -887 0
1213 -3258 0
-2979 3717 0
-2807 3805 0
-2259 249 0
-1904 -643 0
-341 -4046 0
2613 1622 0
-2543 644 0
-1578 -1492 0
-603 1573 0
3631 -3501 0
-1941 2902 0
1761 -2476 0
-3680 1630 0
2368 3757 0
-803 -1020 0
4010 -2839 0
-3090 -1440 0
1180 -2038 0
1397 -426 0
-3847 3926 0
-1019 1562 0
-1483 3354 0
3683 -2280 0
3244 -740 0
-945 2173 0
2639 -717 0
1355 3754 0
3690 1452 0
3311 -2352 0
3355 123 0
747 1851 0
-3538 1598 0
2588 3299 0
2631 -3015 0
640 -1217 0
1367 -49 0
1624 -1635 0
4104 1145 0
3218 727 0
-454 -3253 0
1182 2022 0
2 1348 0
-1743 -4077 0
-2191 -1847 0
-2843 -2417 0
2807 -355 0
2582 -716 0
669 3891 0
2269 -1232 0
-3553 -3788 0
666 857 0
1402 3024 0
-2979 451 0
-909 3404 0
-1780 -1420 0
2585 -2951 0
-268 -4112 0
3217 3963 0
-3489 -764 0
1312 -3056 0
1532 2102 0
1370 2805 0
698 -2960 0
1764 1708 0
249 -778 0
499 -1531 0
-1158 1582 0
-1430 -3766 0
-3210 3743 0
2129 44 0
-3473 626 0
727 40 0
-2189 2570 0
-1971 -323 0
-3439 -3497 0
-1833 -2875 0
2582 -2952 0
2857 258 0
2829 492 0
3344 367 0
-3476 -4022 0
-1832 -1558 0
939 -452 0
2035 -2692 0
1320 3107 0
-94 2478 0
-1182 419 0
-3479 3075 0
-29 -1614 0
3682 1534 0
818 3692 0
142 -2708 0
-3938 -2136 0
818 2777 0
-2334 3925 0
2805 -1579 0
-2675 1611 0
-3786 1371 0
-1523 -832 0
-2549 265 0
-1025 2575 0
-269 483 0
-2875 -3974 0
3346 151 0
-2876 4091 0
1330 170 0
1911 -1967 0
1945 3036 0
698 -419 0
1388 -3478 0
787 899 0
-300 -324 0
-2644 901 0
-1643 3013 0
2069 1827 0
-3900 -3205 0
2195 1672 0
1036 2051 0
1634 1930 0
-320 -2801 0
-1706 2327 0
-1902 -1567 0
1371 3305 0
2685 3812 0
1618 -3450 0
-1721 -714 0
1023 2704 0
2984 2356 0
3510 611 0
781 1175 0
-2179 259 0
-1342 -3880 0
661 -1903 0
-2545 1188 0
233 -2093 0
46 3154 0
-3687 3828 0
-2176 10 0
3215 -2062 0
209 495 0
842 2475 0
-3959 -2456 0
173 -872 0
1281 -829 0
-1025 -1228 0
2348 3925 0
-953 -3397 0
-2691 -2212 0
3321 352 0
-452 833 0
-1576 3377 0
-3619 842 0
2272 -1430 0
-2988 -429 0
-3763 1515 0
-3472 -2555 0
3061 1892 0
1621 3666 0
-2094 -53 0
-1956 263 0
1645 -476 0
-1772 1186 0
840 -2622 0
-3120 -3613 0
3175 -3054 0
-3081 -2009 0
84 3302 0
1837 3559 0
1077 -801 0
-868 2250 0
588 3322 0
-1651 2898 0
3447 1529 0
-1982 2698 0
601 -3607 0
146 -3520 0
-3251 4108 0
2553 1216 0
1479 420 0
1939 1783 0
-128 -332 0
-1283 -632 0
605 665 0
-484 214 0
-664 2674 0
798 -1977 0
-2580 2509 0
-206 2924 0
-369 2622 0
2684 -2499 0
-1688 -2929 0
-2445 -2698 0
2528 -1901 0
3243 -2779 0
1168 -1661 0
2016 -2338 0
-2132 -1248 0
3974 -1347 0
-3645 325 0
974 64 0
169 2641 0
-720 3483 0
-4033 -915 0
-3409 -1941 0
-1564 -1996 0
-2286 3660 0
319 1926 0
1241 -1067 0
-194 312 0
2692 1119 0
-1960 -2877 0
-3674 3447 0
-849 -1815 0
-2027 -2492 0
719 837 0
4079 -1868 0
1016 -750 0
-3995 -1613 0
-2076 2655 0
-1150 -1416 0
2041 2589 0
3670 -2218 0
3923 3742 0
-1255 -914 0
-1239 -279 0
3108 -545 0
-1759 391 0
411 3670 0
-1515 -446 0
1084 1339 0
836 -4087 0
-20 -3862 0
-1124 -1305 0
817 3047 0
3496 -802 0
-3755 -4043 0
2305 -3825 0
3579 761 0
-1977 -2262 0
-757 3895 0
375 -3243 0
2311 -328 0
-3307 2997 0
-3876 4115 0
3654 -2564 0
-3456 3345 0
777 -1984 0
-3123 -1942 0
2596 -1811 0
3742 3934 0
-1114 1752 0
-2516 -2371 0
2482 -2886 0
2836 -757 0
350 -2000 0
-572 4094 0
-3594 -2056 0
-3251 -3278 0
42 -2505 0
-3578 -1299 0
-487 1704 0
-3366 -330 0
2647 2378 0
3854 -67 0
-4112 2191 0
1807 -3222 0
1019 1152 0
1807 4031 0
-2657 2977 0
-1248 -1121 0
-3429 3463 0
3165 2647 0
4067 3452 0
-2492 -2825 0
-1344 1789 0
2429 970 0
2027 -1226 0
1541 3055 0
-1540 630 0
-1744 -2093 0
2448 1517 0
931 264 0
372 -3360 0
-45 339 0
-599 3783 0
-893 2148 0
-764 2322 0
2572 -1753 0
2276 1958 0
-1187 1232 0
-3677 -3926 0
-4012 3416 0
-3630 668 0
3234 1864 0
-1805 3372 0
-3187 1013 0
1379 3692 0
-3860 -3422 0
-832 -1595 0
-2341 2926 0
403 2304 0
432 1909 0
3116 339 0
4110 -1052 0
-1711 163 0
-2051 2369 0
2254 -2920 0
704 210 0
3283 2243 0
1885 -1905 0
-1102 -2042 0
220 -3422 0
-2883 -4070 0
-2028 -172 0
-255 -639 0
-3273 2497 0
-1513 2389 0
-1612 1372 0
-632 -2871 0
-2333 -3164 0
2305 -1438 0
-2094 -1852 0
-1379 -404 0
2593 687 0
3967 572 0
-3452 3069 0
-1673 -2664 0
3759 -739 0
2565 2023 0
-3776 1994 0
3519 1079 0
-3327 3855 0
3318 2555 0
-2340 762 0
1969 -2144 0
1886 -4086 0
-1804 -826 0
-3937 -569 0
2444 1927 0
-820 324 0
582 -3895 0
-58 -109 0
1911 -3284 0
1379 1174 0
-2455 312 0
-1244 -3209 0
2910 -3128 0
229 3524 0
-1834 -2399 0
319 2438 0
-2987 -3974 0
1615 2195 0
-1378 -2887 0
-742 -3960 0
2488 2844 0
-1752 3248 0
-1288 -1195 0
2528 -1559 0
-870 3807 0
900 1044 0
-2032 698 0
2552 3624 0
-2343 -2075 0
-3585 -1260 0
1927 -1109 0
-446 592 0
1100 2360 0
53 3444 0
2260 -2150 0
1620 -4038 0
1666 -1922 0
-2602 3308 0
2520 787 0
553 -1313 0
-2789 -3611 0
965 -3537 0
-229 3291 0
-2837 2665 0
2345 -998 0
-422 202 0
-4040 3182 0
976 3243 0
79 1041 0
-3978 1153 0
-2088 661 0
2379 767 0
-3822 1719 0
3083 324 0
985 -2457 0
2392 1789 0
-2633 1781 0
-163 -871 0
306 3988 0
3682 -1209 0
-1108 511 0
-3589 2134 0
1168 2707 0
3321 -2464 0
56 -2479 0
-3561 28 0
-1877 -3061 0
262 -1123 0
-441 -4076 0
2186 2837 0
-3653 2893 0
-3565 295 0
3263 -1995 0
-608 -612 0
-1950 626 0
-2694 -703 0
-1291 4040 0
906 1765 0
-2737 -2816 0
-1671 471 0
2184 -3660 0
-4022 1900 0
711 337 0
-3713 -1298 0
-3618 -583 0
3526 3107 0
-3367 -3180 0
37 -862 0
-3556 2719 0
-178 3083 0
2995 2089 0
2687 -1058 0
3849 2410 0
-3698 2108 0
1968 3915 0
3187 -2808 0
3830 2520 0
1199 280 0
540 3682 0
3260 3627 0
2140 1453 0
-3832 1240 0
3550 1785 0
-2145 -2762 0
2346 949 0
-983 3008 0
678 -2758 0
-2047 2284 0
2159 3902 0
471 -4139 0
-2660 -4131 0
-2561 1328 0
-2871 1127 0
1464 -1185 0
-1227 2030 0
3632 1411 0
3765 -496 0
3768 -3146 0
1121 1523 0
-2176 2670 0
-3357 1765 0
1096 -2212 0
-3797 -3011 0
-2564 -2315 0
956 -791 0
-3549 2805 0
3527 -44 0
2994 401 0
-1859 2155 0
512 -4102 0
934 1473 0
2348 2692 0
1769 4059 0
2490 2260 0
-2578 -1080 0
-732 1174 0
-219 548 0
3638 876 0
445 -2551 0
1228 1996 0
3964 -3478 0
1779 1347 0
2219 464 0
-1145 2900 0
3019 -2978 0
-1256 691 0
3027 1718 0
-3439 4031 0
-3032 3199 0
883 -990 0
-1877 -3677 0
2346 -4025 0
4031 1665 0
-3306 -3289 0
2887 2759 0
-3440 -549 0
-1956 -3459 0
1569 -999 0
-3986 2307 0
2215 1435 0
-902 -650 0
1427 -3331 0
-2303 -2982 0
-3917 -3836 0
-2019 -2090 0
3249 -2637 0
-1384 -2351 0
1070 2647 0
-2557 1864 0
-2042 3513 0
-3967 -1172 0
2812 1306 0
1546 2541 0
1724 2028 0
2533 128 0
-3542 1428 0
1233 -1868 0
-2332 574 0
-382 965 0
717 -413 0
2000 4072 0
3396 1242 0
281 -19 0
-615 -2052 0
-634 -3983 0
2631 572 0
1075 652 0
-2687 2655 0
-354 -3480 0
-3156 2844 0
-1661 -1192 0
3916 2403 0
-1208 686 0
3395 -3094 0
2679 -643 0
-3007 -2564 0
3674 -2823 0
-1167 1788 0
-2693 -2722 0
-1628 1708 0
3047 -3728 0
-3857 3974 0
-944 1223 0
1007 -1794 0
2844 -2051 0
1105 -3607 0
-1946 -3780 0
2555 2878 0
3561 81 0
-1644 -2285 0
3325 -3429 0
-1237 -1542 0
-3260 1912 0
2846 -1613 0
3978 3848 0
-3449 1363 0
-35 -36 0
-4024 -1146 0
-1624 2794 0
1782 7 0
-1691 3818 0
-3083 -3679 0
1326 2602 0
1588 -3566 0
2345 2451 0
266 -2034 0
-2290 1890 0
279 2353 0
609 1013 0
3332 2246 0
976 -2872 0
364 3778 0
2703 437 0
-518 746 0
44 2703 0
976 -1451 0
753 -2351 0
2693 2873 0
1654 -635 0
-3290 1686 0
-4035 -2815 0
12 -2738 0
2704 220 0
3583 2500 0
-946 115 0
217 4115 0
-1996 -3236 0
3249 3309 0
-1889 1787 0
2766 3449 0
-2743 3563 0
-3569 1238 0
1937 782 0
2732 3357 0
-1255 -237 0
-3303 -481 0
363 -2722 0
1620 -2578 0
-1421 1584 0
-2308 -3799 0
-809 -1196 0
3815 33 0
-2780 3956 0
1261 -435 0
2787 4031 0
-2883 2291 0
1500 -1889 0
-2543 -735 0
-529 -1697 0
-1812 680 0
-2258 -2637 0
2120 443 0
3815 -156 0
2669 1578 0
-3486 -141 0
2726 -2824 0
3979 -1573 0
2814 -1462 0
-3285 -2657 0
-3356 1122 0
-431 -3241 0
3129 2173 0
-1971 -2199 0
3178 -149 0
-3084 -1971 0
4062 2347 0
-3847 3230 0
-2010 -3361 0
-1058 -3063 0
-1766 921 0
1918 -3304 0
-793 655 0
1742 -1449 0
-2615 124 0
-1485 3108 0
-722 3682 0
-1524 -2681 0
-2875 -2542 0
-1228 1251 0
-3690 2084 0
-718 -2598 0
-1427 3034 0
2043 -1786 0
1392 2949 0
1800 1004 0
170 2120 0
-2027 3786 0
4072 -1376 0
-1659 2920 0
-2788 -1689 0
-3398 2418 0
-1176 -4109 0
412 -944 0
-3237 -3481 0
212 3978 0
-3785 -2671 0
-2896 -3268 0
-3685 -3813 0
2496 -3056 0
-1208 -3829 0
-1633 3041 0
-2749 -776 0
-639 3970 0
3191 -1491 0
-2347 3403 0
-2512 -1157 0
-2245 697 0
-4139 4065 0
-1647 2906 0
-193 3242 0
521 550 0
-1424 -3088 0
-736 -1158 0
-2677 2361 0
1019 -614 0
4029 -1999 0
-1342 -3962 0
3585 -1361 0
2582 2564 0
-1601 -1549 0
2185 3933 0
1476 -3990 0
4044 -1294 0
379 -383 0
333 678 0
-3221 2286 0
-2258 -3107 0
-3185 -656 0
-903 255 0
3035 -2790 0
3905 -2884 0
-321 1467 0
3815 -1838 0
-3050 -2311 0
-4041 -2758 0
822 1178 0
4127 411 0
1341 -261 0
1625 -841 0
-1610 -21 0
-3312 2221 0
1682 402 0
-2828 2140 0
-3744 4051 0
783 -888 0
-2663 4082 0
4000 -1526 0
2365 -1321 0
-4009 -685 0
98 2087 0
873 -1674 0
3873 -1606 0
2522 -492 0
-994 405 0
375 2612 0
-1846 989 0
303 -3505 0
-1204 -2649 0
-216 3525 0
-261 2444 0
-47 2731 0
-1486 -2547 0
1038 -1505 0
3219 -1768 0
-2521 1713 0
-3637 -3543 0
1003 3613 0
3767 1202 0
2095 -3831 0
-1949 3715 0
-1085 -200 0
409 3692 0
-3768 -3556 0
669 1241 0
409 -1438 0
-28 3558 0
-2290 16 0
699 3855 0
-810 1422 0
2270 -1128 0
-527 824 0
-3349 1237 0
-742 2215 0
-3758 1981 0
-2280 -3186 0
2582 -458 0
-2937 2396 0
-2688 -1644 0
-1733 139 0
550 1808 0
4044 3284 0
1654 1992 0
3034 -1198 0
-4015 -3268 0
-4034 -2395 0
-1015 -114 0
-1775 -3111 0
-2008 -2841 0
396 2441 0
3024 2361 0
-4047 -642 0
-3370 3991 0
2406 2277 0
-360 -504 0
-1534 -2687 0
-3497 1626 0
-2082 1553 0
1925 -73 0
971 -3944 0
1403 1194 0
571 -1783 0
-1092 183 0
-227 1120 0
2970 -3919 0
-2415 -1519 0
2413 -3591 0
795 -1680 0
1458 573 0
719 -2933 0
1045 -3184 0
2069 -4040 0
-3543 -3195 0
-2539 -410 0
-2180 188 0
-1075 2773 0
-476 30 0
-1390 536 0
3143 832 0
2435 -791 0
-653 3538 0
-1587 -1546 0
2878 -1015 0
-3274 734 0
-2657 -475 0
2975 3755 0
-2564 151 0
97 -2821 0
2232 -2747 0
-1213 2075 0
2875 -1513 0
-149 1001 0
-2375 -3201 0
-24 818 0
2988 1740 0
4010 2472 0
-2861 425 0
1636 -659 0
-2896 -1436 0
-1737 -4040 0
2132 2039 0
961 -1863 0
-3324 2091 0
-3666 -1755 0
-2233 2509 0
-2055 2591 0
-2853 3717 0
1486 -3473 0
3882 1860 0
-3688 -3148 0
3201 -4024 0
-2594 -3944 0
-88 3672 0
-3995 3323 0
4084 -3344 0
-3930 -1922 0
-1299 -2167 0
-3439 -3741 0
2254 -2079 0
602 -2488 0
3619 1532 0
-3945 -2834 0
3166 2056 0
-2427 -2095 0
-3275 -127 0
2515 -373 0
-2766 2981 0
-3531 329 0
-2430 3768 0
2174 2149 0
2515 464 0
-3943 586 0
-3665 2702 0
1167 839 0
1070 4018 0
-539 -3917 0
1159 2033 0
-1482 -3313 0
1075 344 0
-4022 -3703 0
-763 3065 0
-2943 -3050 0
23 1882 0
-1173 -1524 0
1133 2619 0
-3510 -2138 0
1992 -1596 0
2062 2844 0
638 1783 0
4114 -3990 0
4097 1412 0
-1887 -2960 0
3658 957 0
-1780 3293 0
3614 2315 0
-1108 -4020 0
857 -4070 0
-1113 2715 0
-3104 -1165 0
-3057 -1333 0
-1943 989 0
-1609 1670 0
-1918 -1754 0
636 899 0
463 -534 0
165 -653 0
-808 1330 0
1893 -4042 0
-1581 -3988 0
889 -2019 0
-633 1841 0
-3182 -1662 0
-648 -3228 0
-594 -3288 0
1657 -2715 0
3334 -2390 0
2721 -612 0
-651 3538 0
2094 -253 0
-2369 -1540 0
1560 -3373 0
303 738 0
1660 1284 0
455 -3064 0
3957 422 0
532 741 0
-795 2262 0
4031 -2603 0
2338 -3268 0
-3434 -1767 0
2126 1932 0
-1117 -2180 0
937 -310 0
2897 -3722 0
-2965 -1753 0
-773 2244 0
443 148 0
-1655 -3526 0
3926 1649 0
-1138 -3749 0
1473 2397 0
2038 -428 0
2130 3960 0
3896 -2922 0
-763 -2245 0
3746 -1614 0
-2722 1354 0
3166 232 0
-314 609 0
2976 -2813 0
-3460 2393 0
1200 -274 0
2766 1012 0
-3643 132 0
-205 3175 0
1280 -937 0
-123 1649 0
3710 -1198 0
71 -1778 0
-949 -1514 0
-3339 -674 0
2102 -187 0
-68 1529 0
3564 -3913 0
310 -4099 0
3433 2299 0
-1083 -450 0
-2852 142 0
22 2948 0
3378 -466 0
1318 -875 0
320 -2112 0
-3390 -1344 0
-1294 1403 0
-1071 -3071 0
-986 3337 0
-1866 1960 0
-624 -1814 0
-4040 -2329 0
506 -3554 0
884 -1690 0
-3370 1408 0
-1536 -2263 0
-952 -453 0
-3365 -1783 0
-1781 -582 0
2344 1986 0
-2231 2434 0
-384 2751 0
143 -2236 0
1612 -3218 0
-281 85 0
1369 159 0
-3111 -3440 0
2431 475 0
2777 1982 0
2732 3273 0
-1007 1818 0
3884 2135 0
222 -2038 0
1760 3371 0
-651 -2419 0
-3520 -2826 0
-3887 820 0
1156 28 0
-2577 -2407 0
-2972 1278 0
3024 -587 0
3219 1302 0
-3052 4085 0
-652 -3102 0
-2261 2890 0
2340 2165 0
329 -2263 0
2557 1171 0
3086 -1552 0
3636 -2909 0
-1586 3131 0
444 3634 0
-1887 3359 0
2808 -1711 0
-2152 -2845 0
-1105 2467 0
-3586 -2781 0
-3285 -450 0
4018 -1117 0
-420 2064 0
3561 -1573 0
709 3823 0
3282 379 0
375 1468 0
1442 -2096 0
1874 -839 0
-2257 1147 0
4016 2231 0
-208 3516 0
2365 2985 0
1237 -3623 0
3976 -2408 0
-2012 -1310 0
3432 -3829 0
3946 -455 0
2389 556 0
3511 -227 0
2989 -3718 0
-1319 -2170 0
-2939 173 0
1502 -4061 0
-3649 -3567 0
-3750 -1437 0
66 1582 0
-3878 2090 0
305 2117 0
-620 -3494 0
3780 -94 0
-880 -1672 0
-2765 -1335 0
1737 644 0
1023 -3020 0
-35 1779 0
894 -1978 0
-610 2084 0
2896 572 0
3125 -853 0
2817 -3074 0
3485 3427 0
-1597 2751 0
1010 1595 0
902 -602 0
819 2125 0
-3126 1627 0
-1001 2680 0
-1298 -3090 0
-2612 -3965 0
4089 98 0
-3963 -2166 0
-180 1284 0
2689 -2025 0
964 -3407 0
3999 -1645 0
3384 -3924 0
-2568 -3031 0
-999 -1102 0
2863 2180 0
3558 2012 0
2485 -1849 0
-501 -1567 0
-3462 2479 0
-2214 -2427 0
-289 3964 0
-3556 -2486 0
-2915 1729 0
2155 2475 0
-976 -3285 0
1178 -2610 0
772 3377 0
-824 -2593 0
102 553 0
-1590 -2285 0
2045 3394 0
-1361 2186 0
3946 1502 0
-1608 -2954 0
-8 2010 0
-2144 -3833 0
-1447 -3850 0
-3362 4003 0
-650 2723 0
31 2239 0
422 -2523 0
1746 -281 0
1632 -510 0
-1932 -2445 0
2874 -1447 0
558 2442 0
2738 2385 0
-2938 -3659 0
-3674 393 0
1274 3268 0
1314 799 0
-1448 -638 0
-2331 -1730 0
1637 3555 0
2628 -630 0
4082 -854 0
539 3769 0
-3995 2757 0
-3502 1460 0
1392 -427 0
-2104 2273 0
-2349 2274 0
-4053 -726 0
3506 989 0
-809 -1824 0
-3669 -1365 0
-165 2346 0
-172 -3028 0
2159 -3209 0
531 -3527 0
3421 2746 0
-1819 26 0
174 528 0
542 2870 0
2022 -1066 0
3894 -2139 0
-2779 -1418 0
-3413 2498 0
-998 2295 0
2023 -725 0
948 -3610 0
-3775 2474 0
2943 16 0
2657 491 0
-1416 307 0
-120 2672 0
-1619 -1457 0
3964 -3433 0
2702 782 0
-1164 3755 0
-246 -706 0
-3480 1266 0
2839 -872 0
-1641 3228 0
-3585 -3807 0
2608 -1378 0
2197 1654 0
-2696 3463 0
1684 -2725 0
2223 2405 0
-1668 -3539 0
-2094 -2512 0
-275 48 0
1431 -330 0
-3764 3350 0
690 -1545 0
-596 580 0
-2887 2508 0
-377 1908 0
-1816 -3206 0
-1089 2511 0
467 -245 0
3673 2582 0
-410 -115 0
1414 1236 0
-1330 695 0
-732 1151 0
-2815 -1967 0
-1433 986 0
-4040 -1660 0
3378 2291 0
-3301 1810 0
3321 3858 0
2736 3378 0
-1789 -1998 0
2675 -1144 0
511 -1867 0
314 -287 0
3919 -3239 0
-2534 -2605 0
-149 2161 0
-974 -1662 0
-1282 2085 0
1468 215 0
-1357 -3390 0
2271 3657 0
-2359 -3552 0
2550 840 0
-2453 -2599 0
-3703 3737 0
-3830 344 0
-3084 -2887 0
-2739 -428 0
3026 -866 0
1535 1865 0
-732 318 0
-1967 -3678 0
3759 2671 0
-2256 -2491 0
3396 1855 0
579 -1804 0
2228 2675 0
-1371 -2559 0
-3977 -3182 0
-3747 -630 0
699 473 0
3852 3475 0
2952 -2179 0
355 1398 0
3517 -1112 0
1002 3732 0
-150 3374 0
217 2994 0
4090 2585 0
-1699 205 0
954 3514 0
-775 1560 0
3724 801 0
451 3625 0
3021 3126 0
1969 -1907 0
-3690 901 0
-2254 -3814 0
-2526 -2165 0
-4095 2933 0
-2118 -2295 0
-110 -1648 0
-130 1041 0
-3292 818 0
-365 2344 0
-3656 -3006 0
4094 2995 0
-1101 -3738 0
2051 -3600 0
3540 629 0
-790 -3281 0
1368 1769 0
2257 -2205 0
2553 -984 0
-2646 3873 0
2247 1217 0
-471 -3900 0
-2423 891 0
-2855 -3110 0
-920 -821 0
2261 -1844 0
-154 2676 0
3568 -3565 0
3250 -2743 0
3791 -2623 0
801 2945 0
-1656 -116 0
3546 -3977 0
-1640 -1376 0
3124 -2836 0
2969 475 0
-3221 2505 0
3087 -3225 0
-3194 1556 0
3063 -916 0
3075 3338 0
2640 -2047 0
1392 -977 0
3744 -2104 0
-3816 -3453 0
-2065 -399 0
1274 3571 0
3018 -334 0
-1940 -2591 0
-300 1356 0
-2983 -35 0
547 323 0
3845 -3953 0
1083 1391 0
1060 3480 0
2753 -243 0
1309 -281 0
1147 -3528 0
1194 -3023 0
1460 -2138 0
4127 -1051 0
-575 1321 0
2617 -562 0
3969 3872 0
-366 -3677 0
-2523 -842 0
1003 -2891 0
3204 1426 0
-3746 346 0
2185 -3845 0
-2821 685 0
1129 -35 0
-3085 -1600 0
-1533 -933 0
-3117 3770 0
3636 -3188 0
2424 2068 0
-3752 -2127 0
1386 3026 0
-4008 -1195 0
-2400 2828 0
2042 3288 0
-2266 240 0
-2932 -3723 0
-2574 -1353 0
48 -4056 0
-3765 2220 0
1373 3484 0
4126 -3569 0
-2475 3014 0
1297 3333 0
-2364 -2035 0
-2770 -1741 0
3386 -1553 0
-673 2963 0
-3398 -1110 0
2137 3914 0
-596 2844 0
-1962 721 0
-869 4119 0
-2468 -194 0
-2843 1473 0
2670 -3867 0
-330 -459 0
-1938 -2601 0
-1955 -778 0
-2423 -2884 0
1973 1627 0
812 -175 0
756 289 0
-2418 1735 0
783 1450 0
1643 -1998 0
-1176 -3242 0
268 -2208 0
955 -2255 0
-1390 1303 0
3624 -3982 0
-1238 1832 0
-586 2167 0
3272 -3219 0
1807 143 0
-3620 1013 0
1522 -294 0
-265 -1392 0
-2980 -2846 0
-979 3641 0
4055 1911 0
3899 790 0
153 818 0
-2676 -3874 0
-1076 -510 0
-1408 1937 0
1628 -2515 0
1669 -3870 0
966 -1135 0
994 3052 0
234 -1812 0
-991 205 0
-3333 -3991 0
1442 -2664 0
1162 -669 0
-3325 -504 0
-455 -3064 0
-1844 -2853 0
727 -1014 0
-1795 -1476 0
1486 -1081 0
-541 1646 0
-1688 -3526 0
1054 -3411 0
2690 -3447 0
2736 -2998 0
2833 3116 0
-1252 -2630 0
-2499 -1089 0
-2086 2310 0
-2383 342 0
-3413 -1730 0
-796 -1860 0
-1269 972 0
3545 -2779 0
1056 -3688 0
2428 -4049 0
-38 -231 0
2925 -1239 0
2685 3452 0
3447 1822 0
-3895 -3648 0
963 -3770 0
70 1645 0
-2630 -2138 0
2802 -658 0
2507 1721 0
1757 860 0
2058 3359 0
-587 -3187 0
1589 -462 0
2505 2072 0
-296 1499 0
-523 2499 0
-2350 3026 0
-2107 -3120 0
-2931 -3678 0
3410 -3673 0
3958 698 0
-2569 -886 0
-1112 -2103 0
3647 1509 0
-1947 710 0
2446 -959 0
-1667 -2263 0
-3654 443 0
702 3921 0
-4023 -481 0
-3252 -2532 0
-2188 2879 0
1355 -3640 0
3908 -2591 0
-3682 1151 0
1550 3683 0
-1465 1246 0
2305 -460 0
-1642 -27 0
-4094 -3922 0
66 -1825 0
2838 3817 0
-4012 -1798 0
-2085 -3080 0
-1274 -454 0
1696 -2782 0
-288 -2459 0
1236 1487 0
2113 -1934 0
2584 1120 0
-4001 -4031 0
4020 -3418 0
-2421 -1513 0
604 2838 0
2309 -3287 0
4102 -4052 0
-2336 -3346 0
-1774 2152 0
2424 3670 0
-3247 2157 0
-4074 -1550 0
4065 256 0
2601 3861 0
3070 -2789 0
-2871 -954 0
-326 225 0
4026 -3578 0
-2789 1962 0
-2260 14 0
-3846 -2821 0
1605 3861 0
-3642 -3001 0
2621 108 0
-3150 455 0
2356 -3298 0
1521 -751 0
-3440 -2618 0
-1381 -2931 0
2465 -386 0
990 1784 0
1313 785 0
-3817 2447 0
3986 -1135 0
3352 1529 0
540 60 0
1567 -2762 0
3376 388 0
-148 3455 0
3485 3956 0
-2574 -1360 0
2031 1324 0
3923 696 0
634 3260 0
3211 2267 0
3352 2906 0
-1835 -3599 0
1707 816 0
1709 3219 0
1555 1054 0
396 -902 0
-66 -4111 0
3834 3483 0
1448 2344 0
3802 -3759 0
-3472 -2467 0
3886 -450 0
-4071 3962 0
613 2429 0
1231 -538 0
-3631 -3730 0
-1338 -3389 0
3549 3682 0
643 -269 0
536 -3607 0
4014 -1383 0
2465 2514 0
-665 61 0
2529 -3582 0
3540 -2115 0
-3679 2886 0
-2128 714 0
3855 -2234 0
613 -1964 0
-2107 175 0
3406 2135 0
315 -3636 0
2433 -2731 0
-551 -287 0
-2780 -3892 0
-2225 -3669 0
883 -1002 0
3626 2533 0
-1593 927 0
4073 -2814 0
-1315 2983 0
-3945 1055 0
-552 -3048 0
1543 3207 0
1153 2740 0
795 -2532 0
3734 -3239 0
-2649 -1259 0
883 324 0
-2551 1033 0
-1333 2 0
-3464 1327 0
-3664 -4112 0
2776 -1860 0
-2855 -2677 0
865 511 0
-3702 -149 0
-4141 1906 0
4093 -3279 0
2502 2024 0
1462 3143 0
-687 -2820 0
-2427 3091 0
1232 1042 0
-63 -3117 0
-4074 -467 0
-4083 2040 0
-1878 -3016 0
571 -1086 0
1629 -3014 0
-3180 -3726 0
117 -1943 0
-3468 2467 0
-1767 -1885 0
-419 -3960 0
471 138 0
-1438 -2222 0
3998 183 0
-1712 -2308 0
2855 2353 0
2761 1528 0
3663 -3207 0
-2 -2166 0
-1655 1434 0
3029 -679 0
2719 3636 0
1002 -1260 0
3673 -1543 0
-3345 -754 0
-2477 1627 0
-2232 3692 0
3657 3077 0
654 4023 0
-1139 -2661 0
3904 -980 0
1567 3511 0
1066 -4002 0
-13 609 0
220 -3303 0
4029 -1905 0
3858 -3331 0
1312 2295 0
-1261 2967 0
-2377 -803 0
-3399 1861 0
318 2976 0
437 -1043 0
-3816 2260 0
-594 2008 0
1478 704 0
3357 -2993 0
-2727 -3012 0
-811 1886 0
147 -1679 0
3893 -3771 0
-3544 721 0
-3707 -2252 0
-2425 1401 0
3182 -7 0
2466 -800 0
3767 -1686 0
-2288 2264 0
-3903 -3772 0
-3019 3525 0
1494 -1589 0
3662 -101 0
-3902 2489 0
-1804 -2821 0
-1915 2819 0
-805 3749 0
78 798 0
-2993 -3512 0
2208 -2842 0
3461 259 0
-93 857 0
-1316 1010 0
1054 1773 0
-410 -1745 0
-1275 4049 0
4001 44 0
1503 1556 0
-4056 2158 0
-113 3087 0
-2246 -3605 0
2639 2269 0
-3420 -1979 0
1593 -2144 0
1566 -2622 0
358 -1061 0
-481 -1564 0
3647 2642 0
1502 2001 0
-1574 2095 0
3411 1842 0
3971 4059 0
125 971 0
-1449 3152 0
2269 2654 0
154 1434 0
-367 4011 0
-3687 -1437 0
-1459 2895 0
3759 2312 0
-3663 -3253 0
-1774 3344 0
-3459 -912 0
-3764 1193 0
2971 2366 0
-2349 -1438 0
-91 -1114 0
-51 -1656 0
332 3633 0
-3944 -1875 0
-629 704 0
3538 -357 0
302 2452 0
-3637 2102 0
3935 2880 0
-3168 -4058 0
3968 -668 0
1566 -794 0
-1751 1359 0
3431 -1868 0
3729 294 0
1127 1049 0
1534 -3298 0
1348 -3655 0
-1799 2907 0
-2801 871 0
-3705 1263 0
-1350 -709 0
-1982 1825 0
-2635 -3754 0
-2939 -3968 0
3190 -1534 0
2766 -2098 0
1109 -3407 0
-1684 -1586 0
798 -1342 0
-142 -3653 0
-3509 3546 0
-79 -3960 0
-1094 -3218 0
2111 1916 0
-505 2008 0
-1603 -3140 0
-2008 -1683 0
-1967 4021 0
-2213 -1109 0
3891 -3621 0
-1412 -1894 0
1810 -1300 0
-4015 992 0
2228 -2750 0
-2207 -1531 0
1974 1893 0
-2376 -246 0
3802 3527 0
-1743 2523 0
-1471 -1798 0
-173 -146 0
-1005 -3364 0
132 2553 0
3683 -3102 0
-1294 -775 0
-1750 3602 0
3115 -1606 0
-1915 1719 0
428 682 0
157 -1607 0
2936 3742 0
2817 -2761 0
4086 874 0
673 4065 0
-2370 3792 0
3242 -2781 0
3228 1807 0
-137 -3879 0
2826 -2717 0
2663 1163 0
1516 3442 0
3136 -2427 0
2024 -3811 0
-3687 3953 0
3409 3463 0
-2255 -4080 0
3127 837 0
895 -144 0
-2812 2925 0
-4081 4112 0
-2964 -1235 0
3464 1724 0
-411 2135 0
-1583 382 0
2963 -2300 0
3544 3563 0
907 315 0
1051 -2207 0
1988 -1229 0
1717 3008 0
3772 -3195 0
-1301 -701 0
-2384 -3278 0
3907 1551 0
-1620 3159 0
-392 -3197 0
-543 -1716 0
-63 -3117 0
-3133 308 0
-2955 1506 0
1668 -1991 0
159 -1506 0
-1999 -379 0
4049 -1923 0
-860 2215 0
1253 -2731 0
2474 -2182 0
3337 -1662 0
-716 1056 0
-64 199 0
-3329 2831 0
915 -903 0
2322 2244 0
867 -3627 0
-2746 -2037 0
806 2430 0
3500 2874 0
-3832 213 0
-2278 -59 0
1864 -3395 0
-2855 -2380 0
-2254 2382 0
-1899 1767 0
-1204 -2776 0
-2558 -2673 0
1138 3160 0
-3033 -830 0
2070 3852 0
-1491 735 0
-1640 2202 0
-147 -1135 0
-631 224 0
-4017 -909 0
-1069 -1698 0
3300 1603 0
379 2973 0
1707 -2526 0
-3260 -1090 0
3636 1969 0
-2258 -3432 0
-519 -482 0
2269 -3218 0
-1660 -100 0
189 -67 0
-2680 -2873 0
1094 738 0
4041 3090 0
-1654 -1058 0
-4080 3086 0
-3040 3421 0
-551 -1365 0
3777 385 0
-2283 572 0
617 -3856 0
-322 189 0
3637 -2437 0
3870 756 0
349 -3658 0
-2601 1739 0
-36 -75 0
-2824 3600 0
-1 -2362 0
843 3801 0
-3104 -3696 0
98 807 0
27 3968 0
3707 -2436 0
1494 1174 0
2432 721 0
-1973 -410 0
-3234 3528 0
-723 1281 0
599 -1195 0
338 -1799 0
-2800 -1771 0
74 -510 0
-2374 -4064 0
42 -2935 0
-3621 -2141 0
-1207 1919 0
-2800 -2042 0
1007 2617 0
972 -2073 0
-735 1719 0
2394 3306 0
-436 -3632 0
3686 -3204 0
-3948 3950 0
3388 3096 0
1140 -1426 0
-165 2679 0
1475 266 0
-3837 3371 0
2163 -182 0
-1686 -1335 0
-2031 686 0
1454 3055 0
111 -3049 0
-850 1518 0
3176 542 0
-2635 62 0
1879 -4098 0
-1993 -1696 0
-748 -61 0
-107 2125 0
857 3787 0
3556 -1119 0
1874 -3843 0
390 -381 0
-75 1874 0
2539 -1032 0
4127 -1179 0
2616 1902 0
-3697 -1073 0
1847 -3122 0
2388 -2612 0
-494 -1064 0
-2939 -3613 0
-603 2150 0
-3335 1180 0
3051 1963 0
4018 -571 0
1230 702 0
-4134 2514 0
1930 -4128 0
-2160 -2227 0
-45 262 0
625 -1849 0
-2867 -2036 0
-3523 3345 0
4104 3484 0
-392 -567 0
374 2875 0
-2499 -1005 0
1769 -3054 0
-2115 2401 0
256 -624 0
3802 -1683 0
-1934 3938 0
3870 279 0
3956 -3186 0
-2845 1110 0
2743 -2121 0
1936 3614 0
-3125 -2408 0
1458 -677 0
-317 1736 0
32 2732 0
3923 -2379 0
-693 -828 0
2481 397 0
412 1298 0
519 -3383 0
1900 -3543 0
-2502 -4025 0
1265 -604 0
2856 1782 0
-1052 2770 0
4000 3774 0
-3088 1823 0
708 -3133 0
4126 735 0
-3541 3197 0
-987 2102 0
1666 2650 0
-522 -2295 0
-1582 2 0
-417 -92 0
2423 -3194 0
1907 88 0
-4025 -3365 0
-608 -1857 0
1609 -3060 0
-2084 -222 0
-309 1968 0
-192 2390 0
4016 1202 0
4023 2326 0
2442 -659 0
-2919 2978 0
-441 2984 0
-845 -3888 0
978 -84 0
997 -959 0
-3022 -692 0
-328 924 0
3707 3142 0
120 -3903 0
-293 -2801 0
3377 2084 0
3140 -1482 0
-831 -3580 0
216 -635 0
-830 380 0
-3079 3437 0
2248 2175 0
81 2950 0
-1642 1496 0
-3168 -589 0
-3309 -182 0
1817 2433 0
-3046 -411 0
-3418 -1022 0
-551 1855 0
-4040 -3752 0
2923 1095 0
3772 2040 0
-2661 235 0
-87 -3785 0
-1798 3619 0
-758 143 0
2246 2202 0
3633 1962 0
3563 3968 0
-2569 492 0
3668 -2352 0
190 4061 0
-3943 -4027 0
-788 1281 0
-659 -3863 0
-1372 -776 0
-3588 3428 0
32 -3522 0
1906 1527 0
-867 -3513 0
-4095 -245 0
1613 2330 0
721 -1211 0
1047 2771 0
3412 -2277 0
-922 -2574 0
-2599 3883 0
3907 -1564 0
2074 3412 0
-247 -1720 0
-1561 3582 0
3420 -3154 0
2205 -2124 0
-2144 3321 0
-3117 -3387 0
-1682 -2083 0
-1543 -2698 0
1530 -3832 0
-2249 1023 0
-705 -2737 0
-3826 -3808 0
2830 -1206 0
-993 -3806 0
199 -291 0
-2521 -26 0
1460 501 0
-1656 -4137 0
-1203 -793 0
1851 -563 0
2175 -1510 0
-567 1457 0
-3860 -3939 0
1374 1675 0
-3511 42 0
-2160 -1049 0
1713 -2528 0
1473 2706 0
473 2954 0
723 -1464 0
-4081 -2259 0
-1508 -3146 0
804 738 0
-1089 1287 0
-566 -3241 0
-2266 2336 0
163 -525 0
-228 -3807 0
3073 644 0
-645 474 0
-709 1916 0
-3789 3581 0
-3023 -2333 0
-1811 -2395 0
-510 1486 0
295 3873 0
-3674 -2395 0
1883 -204 0
1394 -94 0
2157 -628 0
-4058 742 0
1887 -1257 0
1312 734 0
4037 -3050 0
-179 2264 0
-358 -1122 0
-3739 2817 0
2541 2846 0
2252 2071 0
65 3526 0
3825 979 0
3934 -3040 0
1677 -865 0
2980 1776 0
1452 3371 0
3988 -3767 0
1816 836 0
-4127 -3196 0
876 765 0
-1786 3120 0
-3810 1773 0
-3234 -854 0
685 290 0
-832 -683 0
3610 1454 0
-1051 4038 0
2858 387 0
-167 827 0
-1083 2865 0
-467 3665 0
-2303 3210 0
-660 207 0
-1192 3256 0
-2102 -310 0
1276 -2643 0
3811 -1866 0
69 -2282 0
-478 -3194 0
3151 -1601 0
2831 1096 0
1788 -243 0
1825 2397 0
-509 1509 0
-1974 3739 0
-2192 -1858 0
4044 -1875 0
2472 -1944 0
2475 -3655 0
-3607 -1725 0
1909 3303 0
2091 -1277 0
-3861 -2784 0
3966 4083 0
224 1414 0
1690 -3422 0
307 2200 0
568 3211 0
-492 1317 0
932 449 0
3099 2358 0
-539 -3972 0
1836 -2554 0
-2992 -3117 0
-1117 3926 0
3314 -4081 0
683 -3401 0
-348 969 0
3815 -1655 0
337 2879 0
262 3621 0
2238 -1321 0
3424 3728 0
2575 2405 0
1913 -3489 0
-2039 -2471 0
-2565 213 0
-2635 -746 0
-2315 -1613 0
1614 -2659 0
207 -48 0
3990 -604 0
3178 2157 0
-256 -1667 0
3299 -2009 0
2056 -2144 0
-162 -3521 0
938 -880 0
3734 3973 0
-2996 1580 0
-2806 2805 0
2210 2389 0
-1296 -642 0
3681 -2213 0
2070 -1504 0
-1595 4073 0
-3286 1343 0
-217 -398 0
-597 3324 0
-1738 759 0
-2284 3177 0
305 -2069 0
-2995 2171 0
-3094 -3990 0
3933 -1078 0
-2473 -891 0
3244 657 0
3412 -2399 0
-1593 3291 0
-3138 3872 0
2592 -1155 0
3695 2149 0
852 -3455 0
-2372 1476 0
-4004 2979 0
3588 1735 0
272 225 0
3017 -131 0
-3690 1982 0
-2922 -3892 0
-1679 2621 0
185 -522 0
784 1008 0
-2328 -1795 0
2033 -2680 0
-2358 -231 0
-2452 -2237 0
-2783 -3611 0
-2764 -1147 0
1800 1802 0
-945 -3765 0
1528 2944 0
-1562 -1448 0
2329 3981 0
-29 1715 0
3227 400 0
-2209 2598 0
581 650 0
-2996 -3178 0
-2817 2205 0
-1140 3156 0
-36 -485 0
-452 1980 0
1075 949 0
-3557 -1051 0
3475 -925 0
2890 -354 0
-3192 3540 0
2715 3323 0
1695 3491 0
3670 160 0
-2336 -1441 0
776 -66 0
3054 -182 0
-1606 963 0
-3504 -835 0
-1350 -4052 0
-2435 -467 0
1833 -96 0
-1330 534 0
1592 -186 0
-1527 -2862 0
667 -2623 0
-2493 -441 0
585 2760 0
-1914 -62 0
-2260 -1641 0
-3226 -1461 0
-2081 -1458 0
3999 2630 0
202 -959 0
2998 827 0
-1133 1975 0
2307 -1300 0
-1002 -1811 0
-984 -639 0
-3232 -1291 0
-1860 3695 0
-3843 3985 0
62 1590 0
517 1004 0
-1118 -1588 0
3871 -3212 0
1012 -3471 0
1101 1086 0
2886 1127 0
785 3412 0
-1603 -446 0
-4024 -3737 0
2203 483 0
-156 -3023 0
3803 -1150 0
-338 -1547 0
2381 3527 0
3315 -523 0
-2765 2035 0
-2455 3702 0
175 -3877 0
572 -935 0
2816 -1582 0
2027 2051 0
311 2213 0
3113 -1213 0
-527 2818 0
2649 2345 0
-2270 952 0
-1608 -1039 0
2159 3311 0
-411 -4089 0
-1061 -2014 0
664 2724 0
3240 3548 0
4035 -3907 0
1992 -1647 0
661 -2475 0
3259 -1245 0
-2648 -1253 0
1394 -712 0
-4116 3545 0
2605 -455 0
3263 2865 0
884 -4077 0
-1979 -1776 0
583 -2916 0
3836 1958 0
-4129 1680 0
2032 -2364 0
-1766 -1213 0
-882 3151 0
808 -1540 0
3413 1855 0
2109 943 0
-928 2153 0
1493 3034 0
3662 1374 0
-3716 744 0
-1187 -152 0
-4135 -2115 0
-3390 -3435 0
-2011 2856 0
4000 -2257 0
-3344 3646 0
-2002 78 0
261 1833 0
771 463 0
3019 -1971 0
-1531 -4123 0
3488 3984 0
-2443 4018 0
-1476 456 0
1121 3760 0
-2061 -2701 0
676 2624 0
663 4028 0
2805 3354 0
426 -2511 0
955 -4082 0
64 519 0
2272 2528 0
-4017 -47 0
-1797 779 0
-1582 4094 0
364 3141 0
623 2286 0
1081 2592 0
3699 3456 0
2354 4011 0
-1795 -3874 0
2390 -3549 0
-441 2249 0
-1788 -3400 0
-2616 -2384 0
1253 -3586 0
-983 -2503 0
-1683 -1160 0
-1107 2056 0
2414 -40 0
1992 -1217 0
-3960 321 0
-1385 -3056 0
-1555 2773 0
-1078 3881 0
-1655 2437 0
1566 -3901 0
1382 3904 0
3118 -1465 0
2796 -1005 0
-1007 -664 0
2500 931 0
3953 2250 0
2800 1305 0
-2918 -3680 0
1893 3211 0
-2282 3120 0
-2236 -2750 0
1913 4062 0
-291 3608 0
-1086 -2115 0
3568 -3453 0
1505 3396 0
-2169 -3760 0
-821 1171 0
-2299 -1079 0
-1069 -261 0
1170 -2253 0
-2787 -2701 0
4113 -3858 0
-3754 1459 0
-2756 -224 0
1500 -337 0
1088 -2096 0
-2572 -4033 0
-1267 -2008 0
3263 -3315 0
2817 -2784 0
1862 -1566 0
-2472 2096 0
