c bounds 58 58
p cnf 460 1334
104 -405 0
-78 30 0
222 -80 0
83 224 0
359 283 0
143 -130 0
-373 125 0
24 -194 0
-50 152 0
-190 -281 0
-69 -396 0
-111 -136 0
-422 -165 0
-236 -330 0
446 -327 0
418 278 0
-77 -8 0
53 -453 0
276 -431 0
-428 222 0
-373 -59 0
296 240 0
-275 -336 0
-130 367 0
-216 101 0
55 -331 0
391 437 0
-139 -320 0
-346 -316 0
292 323 0
-269 -137 0
-259 -163 0
-429 -228 0
-330 -7 0
-339 -389 0
185 239 0
258 302 0
264 338 0
184 -193 0
5 -298 0
162 86 0
-1 -17 0
-248 456 0
-247 139 0
353 70 0
459 -40 0
143 62 0
174 -198 0
-64 282 0
66 201 0
116 390 0
407 55 0
-66 -239 0
241 -254 0
230 -14 0
-314 197 0
397 -205 0
204 152 0
250 272 0
440 276 0
-221 170 0
124 383 0
394 170 0
-125 108 0
-271 158 0
-422 -287 0
-363 163 0
345 406 0
24 416 0
-36 -24 0
293 250 0
373 74 0
16 -43 0
-148 432 0
283 -429 0
-222 273 0
93 67 0
-80 -104 0
124 -368 0
276 -142 0
-178 72 0
-148 -230 0
-324 64 0
-26 -321 0
-251 182 0
-276 82 0
-290 262 0
89 -409 0
-455 -381 0
-273 -443 0
370 -200 0
110 -225 0
56 11 0
294 59 0
-457 -337 0
-133 -175 0
-386 -254 0
-332 -411 0
371 77 0
23 183 0
-172 -106 0
-153 320 0
58 362 0
-281 -221 0
264 70 0
-189 -431 0
-30 25 0
-29 -331 0
280 -130 0
296 -348 0
-381 139 0
182 -96 0
-248 373 0
333 167 0
181 -173 0
72 27 0
-48 183 0
271 213 0
55 -123 0
181 245 0
-399 166 0
-40 -256 0
-268 366 0
172 -311 0
456 -440 0
22 -349 0
249 187 0
290 -230 0
-386 -33 0
-227 -398 0
268 -357 0
-148 -228 0
-181 150 0
172 192 0
109 -47 0
344 -32 0
-287 44 0
-460 426 0
-297 316 0
318 58 0
452 283 0
-409 -110 0
-446 278 0
-219 93 0
58 -126 0
-240 -201 0
-240 -75 0
-6 -45 0
338 -216 0
-243 197 0
-359 -177 0
-100 288 0
-173 -177 0
-262 -170 0
-198 -109 0
163 -173 0
387 -272 0
291 -46 0
-431 -59 0
-239 -219 0
-338 -242 0
49 -210 0
332 12 0
-88 -114 0
397 183 0
-294 -415 0
406 -21 0
394 -222 0
139 -185 0
-351 -424 0
230 250 0
-64 -68 0
-358 -260 0
304 -248 0
-328 218 0
278 -458 0
-147 346 0
-229 81 0
-87 45 0
-264 426 0
-404 -14 0
214 69 0
53 417 0
280 213 0
429 364 0
406 -37 0
-365 150 0
-142 344 0
-59 -456 0
-44 -307 0
394 -120 0
-331 -124 0
153 -98 0
-334 432 0
269 403 0
260 450 0
-248 236 0
-305 231 0
-327 -135 0
-22 -359 0
-38 183 0
371 -371 0
-10 -137 0
208 -407 0
372 182 0
-150 383 0
-47 -139 0
361 -395 0
238 -203 0
-135 2 0
436 -352 0
-26 -427 0
62 13 0
-118 -259 0
285 -217 0
252 -391 0
-444 289 0
-61 390 0
213 -148 0
407 -146 0
-120 111 0
-27 -31 0
-329 158 0
-1 11 0
83 156 0
-388 139 0
-134 -68 0
-112 173 0
406 173 0
111 -297 0
100 451 0
-362 11 0
434 -19 0
425 212 0
-273 79 0
70 -227 0
-248 -319 0
193 -430 0
117 303 0
-2 220 0
374 -327 0
-407 -113 0
-53 -247 0
-225 -396 0
-169 370 0
-14 224 0
-301 -172 0
389 401 0
-69 -49 0
220 -121 0
196 443 0
257 428 0
81 391 0
373 -6 0
-452 299 0
100 390 0
456 403 0
-280 -1 0
-409 309 0
32 -170 0
324 -122 0
-418 -391 0
-385 -268 0
-446 150 0
70 108 0
58 -78 0
339 23 0
77 196 0
182 379 0
-376 -229 0
54 364 0
-379 -290 0
-94 -258 0
93 -240 0
441 440 0
386 -289 0
203 398 0
257 322 0
333 450 0
50 -360 0
-243 45 0
364 279 0
271 -41 0
104 -403 0
158 -224 0
-91 181 0
-452 195 0
-257 -36 0
-220 450 0
-402 431 0
-231 66 0
-126 328 0
116 -451 0
-255 164 0
-34 -238 0
288 -370 0
20 100 0
67 448 0
218 122 0
-219 -298 0
-292 -368 0
416 -283 0
-125 353 0
-243 315 0
-248 167 0
-149 -95 0
-381 279 0
213 330 0
-1 -395 0
-207 378 0
404 -312 0
58 67 0
-209 -225 0
323 -331 0
-46 -351 0
-1 396 0
298 -94 0
-429 -360 0
-447 -58 0
-33 227 0
278 -382 0
192 -355 0
353 372 0
197 -307 0
-332 197 0
-22 -8 0
79 186 0
70 -208 0
-95 -363 0
158 455 0
247 9 0
-287 -438 0
-337 201 0
32 240 0
-236 -84 0
414 294 0
178 -368 0
206 -423 0
-67 264 0
376 -140 0
-240 -307 0
-265 -284 0
-253 -385 0
269 223 0
170 53 0
375 -402 0
-191 -430 0
-132 -424 0
179 -200 0
-262 -66 0
2 454 0
-82 172 0
369 -201 0
460 -425 0
296 50 0
-51 -399 0
-226 -358 0
-334 160 0
305 -289 0
421 135 0
-287 -307 0
11 29 0
-51 -329 0
-297 -16 0
-405 -115 0
-285 -419 0
59 -106 0
206 -356 0
420 134 0
18 103 0
-277 -358 0
-349 80 0
406 -24 0
74 -249 0
-125 -325 0
-455 313 0
-244 179 0
-102 367 0
241 271 0
-397 345 0
-458 136 0
377 -8 0
306 206 0
-213 -10 0
337 -315 0
201 298 0
-228 -425 0
-301 96 0
-232 -256 0
389 -56 0
-19 168 0
117 -172 0
296 -443 0
-244 367 0
-164 -265 0
54 392 0
-350 425 0
-275 -238 0
81 -247 0
-432 432 0
-140 89 0
437 -411 0
-52 429 0
11 235 0
409 -48 0
103 -402 0
269 -142 0
-287 11 0
-327 118 0
448 -128 0
-239 -97 0
-172 371 0
5 343 0
308 -239 0
-63 337 0
354 433 0
-46 271 0
-2 -411 0
-288 141 0
-412 -30 0
-315 348 0
294 223 0
-188 -2 0
-115 -317 0
-301 -349 0
-60 379 0
391 -114 0
432 375 0
224 266 0
-253 -78 0
-220 243 0
334 208 0
-56 -285 0
-421 -356 0
-262 -67 0
-415 -190 0
-323 129 0
211 -210 0
224 -288 0
335 -451 0
69 -253 0
-255 208 0
-110 121 0
-199 -428 0
373 4 0
-343 143 0
84 -90 0
101 -180 0
-223 -404 0
-453 209 0
-293 -148 0
282 -56 0
-355 304 0
325 152 0
396 -352 0
-323 -128 0
-422 -330 0
421 -88 0
167 62 0
-110 -389 0
293 -130 0
182 39 0
113 195 0
249 -252 0
7 -339 0
434 64 0
324 -59 0
-142 -188 0
-217 -51 0
96 401 0
-248 287 0
-409 93 0
221 79 0
105 134 0
-53 -268 0
140 -123 0
-156 -161 0
-34 -388 0
110 436 0
-287 301 0
-254 -451 0
-300 -347 0
-243 -270 0
-127 -263 0
-189 -450 0
-81 -168 0
151 32 0
-330 -188 0
267 -87 0
52 -366 0
181 224 0
167 -90 0
192 -35 0
194 141 0
265 193 0
-216 -129 0
62 275 0
-61 108 0
177 159 0
394 126 0
311 -273 0
-57 429 0
362 24 0
299 -10 0
-212 113 0
-258 313 0
182 -460 0
-70 -124 0
-453 -261 0
-27 274 0
208 373 0
163 387 0
361 380 0
-101 -60 0
-300 -242 0
-287 141 0
185 266 0
-248 -96 0
167 350 0
105 -191 0
-233 -141 0
-91 338 0
-346 387 0
-263 143 0
338 -234 0
-389 166 0
174 433 0
53 257 0
-69 -396 0
94 -451 0
383 434 0
25 14 0
320 185 0
400 89 0
299 208 0
-103 -446 0
97 155 0
-419 -2 0
-115 -132 0
-338 -333 0
102 40 0
-47 149 0
5 -198 0
451 -115 0
248 122 0
-75 244 0
-420 58 0
-163 218 0
-95 62 0
-16 -385 0
29 -86 0
-395 170 0
-56 -84 0
-360 -89 0
283 -87 0
159 150 0
-458 -7 0
-307 -296 0
-273 425 0
-227 -353 0
261 326 0
-94 293 0
364 157 0
308 -326 0
7 -34 0
209 310 0
-328 -281 0
-8 -102 0
-353 459 0
-144 -136 0
268 197 0
-60 -293 0
-207 114 0
246 -48 0
-420 300 0
-422 1 0
443 150 0
458 221 0
113 215 0
293 -37 0
338 74 0
-391 -438 0
51 -399 0
-277 -214 0
55 -234 0
441 285 0
-340 72 0
213 -259 0
-248 -146 0
109 187 0
370 457 0
-433 -178 0
18 40 0
-209 -274 0
176 -454 0
20 -427 0
365 -111 0
352 -315 0
-406 -135 0
-301 -396 0
266 321 0
459 224 0
-423 383 0
459 187 0
288 23 0
246 -379 0
-419 -281 0
-252 -118 0
439 -328 0
400 169 0
-138 384 0
-413 -242 0
-177 241 0
156 -444 0
18 -148 0
384 144 0
397 -207 0
-389 221 0
-140 267 0
379 61 0
-255 429 0
329 441 0
-206 -234 0
-13 -75 0
62 134 0
383 -137 0
49 188 0
300 50 0
162 -413 0
285 264 0
35 -226 0
70 241 0
19 193 0
40 -94 0
61 95 0
-191 186 0
357 257 0
-455 437 0
-52 375 0
-119 81 0
-207 432 0
-19 -444 0
326 127 0
-10 70 0
429 271 0
40 -425 0
-72 -203 0
266 378 0
53 -230 0
337 64 0
-95 -297 0
-367 370 0
436 -262 0
-22 -104 0
121 -216 0
382 49 0
-284 105 0
53 106 0
-444 35 0
460 -327 0
-298 406 0
-451 -284 0
166 62 0
-123 310 0
460 -224 0
150 222 0
188 -75 0
302 276 0
-130 330 0
-41 -446 0
-228 293 0
300 403 0
212 -409 0
4 206 0
67 69 0
185 367 0
460 240 0
-103 -347 0
-239 -460 0
79 157 0
280 43 0
316 -138 0
66 171 0
-214 63 0
-392 -135 0
-60 240 0
-319 -155 0
42 200 0
102 416 0
-421 -327 0
-395 288 0
-78 166 0
179 435 0
-299 -381 0
-123 -355 0
-307 231 0
453 -243 0
26 -366 0
401 327 0
235 -261 0
416 -162 0
146 -147 0
-357 -393 0
-454 85 0
-62 83 0
-247 369 0
-43 -226 0
-39 -315 0
301 -351 0
-193 -348 0
-422 138 0
-17 -202 0
321 -255 0
134 77 0
79 91 0
-274 448 0
-451 153 0
176 225 0
-348 74 0
-10 71 0
426 -320 0
-348 114 0
225 -372 0
101 -126 0
-136 -271 0
-201 163 0
-348 39 0
-102 218 0
220 -34 0
-389 -332 0
-341 306 0
-19 67 0
-2 -75 0
-274 232 0
-325 -68 0
299 74 0
-225 323 0
-211 -178 0
369 -409 0
211 -57 0
-336 177 0
400 -209 0
-460 245 0
251 -207 0
-203 -96 0
195 -292 0
-452 -298 0
-241 371 0
42 152 0
-307 129 0
344 -379 0
-79 -301 0
71 96 0
-52 -123 0
-94 -326 0
-95 -404 0
-277 -377 0
-334 152 0
-130 111 0
-419 261 0
15 -298 0
97 399 0
-78 55 0
-135 197 0
-297 450 0
135 -248 0
-307 -68 0
435 -403 0
-412 -246 0
206 192 0
-18 -372 0
-264 162 0
-332 -319 0
-116 -391 0
-449 -342 0
-247 -412 0
-221 337 0
403 -385 0
104 -376 0
-56 -56 0
23 -145 0
272 99 0
-37 -350 0
197 294 0
-271 79 0
4 -330 0
414 -451 0
-456 85 0
-271 -88 0
109 292 0
-407 395 0
-383 -75 0
-459 -230 0
-281 176 0
370 110 0
-8 -234 0
46 -297 0
-379 31 0
-253 -129 0
181 152 0
360 454 0
58 9 0
65 -133 0
-262 -364 0
-267 288 0
-365 425 0
411 182 0
188 -118 0
45 217 0
-420 -6 0
21 -273 0
340 -297 0
454 -146 0
-328 -236 0
-382 -333 0
-88 -417 0
-179 331 0
378 -259 0
429 260 0
97 401 0
-151 -456 0
31 -140 0
-121 195 0
208 342 0
406 -459 0
-145 -338 0
170 376 0
97 187 0
435 -10 0
-317 284 0
460 294 0
-421 -286 0
213 -27 0
249 -19 0
188 -262 0
-409 -405 0
111 -28 0
-256 49 0
245 196 0
-161 -343 0
-133 290 0
-30 152 0
292 59 0
13 246 0
204 326 0
-307 264 0
360 52 0
-180 105 0
139 -356 0
79 224 0
-151 178 0
-258 -291 0
326 -173 0
-93 375 0
459 -453 0
443 303 0
284 389 0
369 189 0
251 387 0
379 70 0
-24 -91 0
108 -59 0
-160 45 0
436 410 0
-43 -10 0
-36 -38 0
-165 24 0
141 429 0
48 -26 0
231 178 0
-425 -164 0
454 116 0
116 190 0
-142 235 0
-115 -441 0
4 -207 0
383 283 0
125 427 0
-156 45 0
128 -234 0
150 437 0
-34 -323 0
-76 43 0
-127 436 0
-164 -293 0
-156 130 0
-333 253 0
11 -412 0
-325 369 0
383 -181 0
-217 416 0
-238 154 0
235 -153 0
-434 -273 0
-369 -41 0
-86 -341 0
-348 100 0
375 154 0
131 -98 0
-22 -174 0
93 -63 0
125 17 0
313 -447 0
-64 -111 0
-280 414 0
-425 -314 0
-419 -256 0
-331 183 0
-136 -15 0
414 -456 0
347 -111 0
195 208 0
139 -139 0
-417 -223 0
326 43 0
-167 85 0
-106 -414 0
-449 -321 0
283 -177 0
434 -5 0
-376 431 0
-99 -346 0
-301 276 0
162 -67 0
185 -409 0
65 247 0
-297 -243 0
58 -169 0
-20 -313 0
-311 94 0
114 -360 0
344 -356 0
158 -381 0
-286 240 0
-453 329 0
303 -10 0
-135 380 0
-228 23 0
-41 406 0
-330 -171 0
15 -211 0
-446 -408 0
-133 218 0
-168 -230 0
121 -189 0
247 292 0
-452 271 0
-149 343 0
81 -211 0
217 -350 0
-256 -112 0
63 -436 0
253 122 0
170 -450 0
45 424 0
-297 -231 0
438 -397 0
-53 -44 0
-325 -234 0
122 -189 0
-126 -256 0
-286 -70 0
-173 -300 0
-363 -377 0
45 -263 0
-226 267 0
-110 -452 0
-251 -319 0
294 -350 0
45 50 0
326 -101 0
70 231 0
61 -268 0
-299 117 0
-207 -154 0
-372 292 0
-242 309 0
-125 235 0
-446 99 0
306 364 0
406 -109 0
166 -194 0
201 -172 0
308 -148 0
-140 285 0
117 66 0
278 -205 0
-1 -281 0
-328 124 0
-176 -121 0
433 -175 0
289 -203 0
397 433 0
263 -242 0
82 -352 0
-360 -134 0
192 17 0
335 -228 0
353 310 0
266 224 0
-180 -439 0
154 220 0
455 -102 0
201 407 0
5 317 0
-44 -142 0
-130 -29 0
-301 275 0
-273 -150 0
-210 -351 0
-210 85 0
163 -60 0
20 29 0
218 58 0
-411 -149 0
455 -142 0
-311 222 0
57 -136 0
262 163 0
54 272 0
276 282 0
297 -348 0
-218 -457 0
-148 248 0
-151 53 0
228 -86 0
-399 -261 0
-233 -371 0
400 -15 0
129 -81 0
456 -95 0
-380 20 0
-200 -383 0
401 122 0
108 -174 0
104 -255 0
-120 -252 0
-372 -413 0
272 296 0
-123 -243 0
-121 -374 0
-123 -364 0
-73 -236 0
-243 -73 0
199 108 0
-301 -87 0
414 364 0
190 -195 0
-305 35 0
-78 -157 0
-394 -92 0
198 53 0
-240 243 0
272 224 0
415 -330 0
-14 -125 0
85 446 0
-104 104 0
4 114 0
-210 29 0
-275 -48 0
-222 -451 0
-243 455 0
381 -96 0
-115 264 0
183 -217 0
-348 -372 0
-305 -1 0
-2 297 0
275 27 0
-122 -446 0
439 -330 0
-40 -226 0
357 25 0
-22 -345 0
-94 -189 0
355 274 0
136 -319 0
340 416 0
49 -72 0
58 436 0
-140 -106 0
-366 -57 0
-288 -255 0
308 -367 0
4 -21 0
279 438 0
23 401 0
-392 421 0
42 288 0
32 -71 0
-345 456 0
-376 -454 0
-200 -268 0
190 153 0
321 -259 0
262 20 0
-86 -244 0
-341 214 0
-407 -108 0
-294 -46 0
11 375 0
-273 -382 0
-335 67 0
-28 126 0
385 -171 0
-203 273 0
440 -261 0
-91 367 0
275 -416 0
58 -30 0
204 82 0
434 239 0
284 85 0
342 -458 0
-273 -328 0
330 -44 0
-132 333 0
342 396 0
-358 -124 0
448 -256 0
438 208 0
-371 66 0
406 11 0
337 -10 0
163 -21 0
14 122 0
81 -320 0
-329 -447 0
204 -240 0
257 -317 0
82 359 0
336 -339 0
402 -34 0
300 -47 0
219 -277 0
47 -106 0
104 33 0
457 -148 0
-149 -21 0
213 458 0
251 274 0
67 -240 0
-112 -408 0
-373 353 0
213 100 0
348 294 0
378 56 0
-434 129 0
162 372 0
-2 227 0
-89 252 0
416 318 0
451 -140 0
201 -165 0
410 46 0
-436 -281 0
-155 340 0
-210 -191 0
-283 454 0
-28 268 0
-179 -429 0
-416 172 0
-247 -210 0
-118 228 0
53 -166 0
-268 -331 0
-19 32 0
392 66 0
-42 -130 0
21 224 0
387 -172 0
-415 365 0
186 321 0
-234 64 0
385 255 0
369 -14 0
371 -333 0
-397 63 0
349 -358 0
9 -57 0
-353 -259 0
-141 294 0
166 -330 0
127 29 0
-11 -325 0
-358 -240 0
150 276 0
-323 -334 0
-436 -297 0
236 -274 0
-327 -73 0
90 -36 0
61 -58 0
408 45 0
-215 289 0
264 132 0
284 -267 0
89 440 0
285 264 0
298 -96 0
228 64 0
277 371 0
-254 -383 0
-140 -428 0
-48 -58 0
-248 -239 0
251 165 0
-27 70 0
321 337 0
-447 -136 0
-146 -445 0
-396 -328 0
45 296 0
-352 -68 0
-266 224 0
-234 256 0
-306 150 0
383 406 0
123 160 0
-39 -440 0
206 -325 0
-409 -432 0
-312 129 0
-217 382 0
79 202 0
383 -210 0
-348 -417 0
439 144 0
-226 64 0
-50 221 0
45 413 0
287 353 0
222 -230 0
257 -357 0
-252 217 0
-27 -392 0
-459 188 0
96 414 0
-248 71 0
-46 -297 0
-413 -4 0
-428 -229 0
-91 -230 0
231 392 0
442 -257 0
3 412 0
-256 27 0
-174 106 0
-388 -347 0
-448 431 0
282 385 0
-185 -173 0
-201 -37 0
221 134 0
-423 217 0
-422 -80 0
52 -389 0
-5 -56 0
-323 -226 0
-409 341 0
-370 -226 0
260 32 0
290 -287 0
191 58 0
-329 -88 0
269 382 0
12 -131 0
250 -290 0
-324 -220 0
416 258 0
434 -419 0
-213 24 0
-289 391 0
-46 -62 0
-328 415 0
-131 245 0
-104 -168 0
-277 224 0
-452 -452 0
169 315 0
309 290 0
104 251 0
293 355 0
370 74 0
-396 -56 0
159 322 0
-402 100 0
-112 -120 0
257 17 0
-413 -313 0
128 -254 0
280 275 0
-366 -62 0
150 -160 0
-19 285 0
-126 -220 0
102 442 0
-206 -260 0
83 134 0
-51 201 0
350 -115 0
-182 -101 0
-351 361 0
226 454 0
-47 4 0
129 419 0
-402 306 0
-114 -320 0
-253 416 0
-274 -319 0
-168 -310 0
-217 -226 0
304 94 0
143 -222 0
-106 -455 0
-444 -51 0
63 438 0
-216 -203 0
-365 195 0
-363 273 0
209 259 0
383 223 0
-2 421 0
-384 3 0
294 200 0
373 390 0
426 -455 0
349 -22 0
-363 -380 0
350 125 0
-4 338 0
-432 42 0
188 -162 0
