c bounds 212 212
p cnf 505 404
182 59 0
25 463 0
-308 356 0
383 421 0
-14 283 0
370 -121 0
-287 272 0
-401 -28 0
347 305 0
-96 -502 0
32 -491 0
-178 498 0
-211 -231 0
337 -203 0
132 -436 0
65 29 0
379 134 0
27 -111 0
317 -329 0
-26 -322 0
158 501 0
459 454 0
-60 455 0
-285 373 0
352 73 0
-288 -372 0
-194 76 0
52 162 0
-370 461 0
-290 -225 0
246 -110 0
252 421 0
-217 -319 0
-206 475 0
-93 -371 0
426 -102 0
-160 -341 0
255 437 0
83 126 0
-54 56 0
-96 -137 0
85 -165 0
98 -299 0
178 85 0
104 -66 0
81 395 0
-105 -223 0
-429 309 0
436 149 0
-307 401 0
393 -248 0
315 164 0
-448 -247 0
-112 179 0
471 325 0
-129 473 0
38 -309 0
-184 -444 0
292 104 0
-279 334 0
-394 206 0
291 455 0
108 -113 0
49 348 0
-379 -239 0
346 43 0
-297 391 0
-374 -65 0
-88 -92 0
153 -300 0
-137 -483 0
-125 -157 0
-91 347 0
-321 -116 0
-23 3 0
83 183 0
187 -359 0
271 -118 0
-456 398 0
-96 -380 0
177 -312 0
-63 -237 0
29 -336 0
-198 289 0
241 -98 0
495 152 0
324 -219 0
-458 -333 0
179 -264 0
-264 -487 0
-131 -446 0
-237 -202 0
272 -160 0
-415 -351 0
421 339 0
296 293 0
498 164 0
-125 -195 0
-393 142 0
-28 315 0
433 -238 0
259 3 0
-451 110 0
-54 -2 0
-151 -254 0
-159 -196 0
-121 398 0
-35 -381 0
330 192 0
-369 104 0
357 186 0
-322 24 0
119 3 0
382 71 0
461 -267 0
-264 -319 0
96 317 0
-381 -488 0
341 8 0
-457 187 0
202 -178 0
260 56 0
326 313 0
116 -504 0
-2 -215 0
-128 -488 0
-401 -325 0
330 -131 0
-463 207 0
356 249 0
-453 -453 0
341 88 0
-234 95 0
4 248 0
440 139 0
-368 -278 0
92 -23 0
122 432 0
499 -288 0
-203 389 0
-98 -12 0
-28 64 0
200 -368 0
129 -372 0
220 184 0
-302 14 0
327 216 0
287 -425 0
-208 208 0
-374 -90 0
-277 -18 0
162 -410 0
191 147 0
437 263 0
209 182 0
-217 294 0
453 347 0
7 95 0
79 221 0
-193 98 0
226 134 0
-469 -439 0
65 -314 0
261 76 0
-381 276 0
-194 -252 0
154 204 0
-304 -198 0
-413 -397 0
58 -480 0
-265 260 0
-209 -414 0
-323 -46 0
154 171 0
260 130 0
-116 -476 0
-397 -170 0
-252 341 0
-45 10 0
-338 -132 0
-364 -197 0
-329 258 0
-231 -306 0
-395 124 0
494 -468 0
467 504 0
-111 -211 0
-452 -16 0
-165 -28 0
-61 461 0
-408 387 0
300 280 0
-230 -88 0
-84 110 0
-477 106 0
-267 -201 0
303 -284 0
184 -292 0
203 33 0
-365 -456 0
150 227 0
421 345 0
94 -349 0
262 -359 0
-51 279 0
-86 -487 0
218 75 0
-355 469 0
293 -375 0
305 -295 0
46 52 0
349 424 0
85 -417 0
4 377 0
104 188 0
193 236 0
-143 -172 0
227 478 0
451 497 0
-30 382 0
-117 425 0
432 351 0
49 217 0
95 229 0
-394 -497 0
-181 -133 0
64 383 0
352 -374 0
-318 -177 0
100 -316 0
-43 62 0
75 -251 0
-176 346 0
271 -190 0
-500 -90 0
128 177 0
-288 56 0
-248 490 0
-365 -375 0
50 102 0
63 265 0
-14 -96 0
-390 -441 0
128 -169 0
-390 -106 0
-256 -323 0
-357 382 0
-378 -201 0
-36 149 0
282 -59 0
60 -84 0
405 136 0
-287 -176 0
324 -257 0
-97 -462 0
-500 451 0
-425 -250 0
403 182 0
-481 414 0
-340 -133 0
-175 -185 0
282 352 0
-372 -8 0
281 328 0
-104 158 0
94 -329 0
-413 481 0
-151 343 0
-14 -359 0
-25 -319 0
246 -118 0
-233 -417 0
23 197 0
-36 421 0
474 -315 0
318 -411 0
72 -19 0
-233 158 0
130 265 0
66 -103 0
33 -400 0
372 -247 0
338 73 0
83 -96 0
-205 -503 0
-46 -346 0
-137 -157 0
-391 100 0
95 384 0
73 320 0
-433 301 0
276 74 0
-300 -233 0
-501 -493 0
-386 254 0
31 -284 0
393 -284 0
-473 196 0
-207 -344 0
-459 89 0
-426 -442 0
496 -48 0
364 71 0
-284 161 0
-413 -60 0
134 123 0
471 -225 0
104 419 0
-267 -402 0
-80 73 0
56 260 0
-11 -255 0
339 111 0
421 373 0
-481 -365 0
278 25 0
99 -353 0
-129 230 0
-397 411 0
-176 -46 0
-153 -72 0
-137 -460 0
-308 72 0
80 314 0
92 387 0
177 377 0
-466 -415 0
104 240 0
75 213 0
-402 -180 0
395 -203 0
271 368 0
53 -166 0
-442 -54 0
164 -217 0
183 -349 0
194 14 0
-464 -138 0
-43 73 0
143 335 0
-34 -271 0
-495 321 0
-229 400 0
-434 -129 0
433 393 0
-402 327 0
-311 328 0
-273 -344 0
-200 374 0
346 143 0
403 256 0
-1 -11 0
-101 -299 0
232 -152 0
-259 308 0
-417 -134 0
94 81 0
-224 347 0
303 70 0
281 -107 0
-318 -377 0
-87 -262 0
-329 251 0
-425 -146 0
-57 -231 0
244 -388 0
-422 -166 0
-327 -80 0
-212 -432 0
177 -502 0
-7 325 0
174 -250 0
123 -483 0
411 71 0
140 505 0
83 -321 0
179 -158 0
89 491 0
360 155 0
6 -94 0
-419 -156 0
213 467 0
-356 52 0
12 -209 0
-102 -371 0
31 86 0
130 77 0
-373 -419 0
-464 180 0
256 500 0
-30 -168 0
363 -381 0
472 420 0
361 166 0
284 342 0
301 99 0
251 -284 0
-274 415 0
159 -129 0
420 53 0
301 -129 0
152 182 0
-456 27 0
21 442 0
