c bounds 118 142
p cnf 865 2076
-244 474 0
488 -347 0
278 -101 0
621 -627 0
626 96 0
-679 -209 0
168 -854 0
-21 -606 0
91 -802 0
-463 -245 0
452 -796 0
106 271 0
370 -677 0
559 -474 0
-727 48 0
676 758 0
-396 -374 0
-719 -157 0
-689 -547 0
744 523 0
171 460 0
766 -237 0
-705 -754 0
37 -120 0
112 -216 0
-90 756 0
-760 250 0
114 -190 0
-86 570 0
-141 565 0
-216 447 0
-446 395 0
-381 -584 0
-406 629 0
96 693 0
-151 839 0
-189 806 0
518 -388 0
663 4 0
689 830 0
-499 276 0
-289 -112 0
-360 360 0
-568 -221 0
404 412 0
-23 -195 0
-235 56 0
-137 -527 0
518 -85 0
-436 -37 0
139 334 0
425 -478 0
-216 -764 0
96 -288 0
-481 -488 0
-170 -56 0
753 760 0
-775 29 0
-623 19 0
-734 407 0
-620 271 0
-176 -683 0
431 -241 0
844 265 0
777 -538 0
293 668 0
-712 -712 0
-232 449 0
-346 213 0
606 417 0
-368 14 0
681 -378 0
26 -536 0
-29 675 0
-132 644 0
844 200 0
101 -705 0
-518 728 0
851 518 0
-254 -243 0
-596 280 0
-12 794 0
-322 -481 0
-42 7 0
-849 -73 0
-57 738 0
130 806 0
459 578 0
-508 416 0
-102 -542 0
-37 395 0
-513 -627 0
-714 -622 0
-846 -653 0
-147 -395 0
239 -795 0
-602 -60 0
631 750 0
452 545 0
459 30 0
-670 732 0
-37 -809 0
-639 245 0
-180 -129 0
-863 -93 0
-312 838 0
644 554 0
-470 -370 0
685 -38 0
-75 -330 0
-232 798 0
-342 242 0
-74 828 0
-233 -540 0
-674 -755 0
111 587 0
182 279 0
639 103 0
265 237 0
-86 -300 0
393 438 0
-191 574 0
852 -277 0
564 381 0
-837 355 0
535 -289 0
-665 -530 0
-828 250 0
-345 -645 0
595 746 0
260 69 0
786 760 0
-308 809 0
-546 369 0
-855 -631 0
-255 564 0
-462 557 0
62 -15 0
482 -623 0
-481 -658 0
-865 -160 0
-670 -446 0
-586 -470 0
-820 213 0
-816 485 0
-719 494 0
-475 391 0
-100 -305 0
-212 -200 0
61 -238 0
-577 -773 0
-25 -640 0
501 229 0
-565 -237 0
-571 -221 0
366 -136 0
-82 366 0
623 -186 0
-153 -515 0
739 -368 0
39 -590 0
-254 -79 0
-285 793 0
-207 -360 0
126 4 0
762 -556 0
-567 599 0
49 -475 0
534 -144 0
641 -797 0
-865 583 0
-661 448 0
459 -486 0
169 408 0
-576 10 0
171 70 0
-123 -101 0
399 -446 0
-817 5 0
-281 35 0
17 75 0
-477 -627 0
781 680 0
371 604 0
-418 -325 0
33 -290 0
-312 404 0
56 212 0
112 618 0
-698 820 0
116 -185 0
-632 173 0
715 444 0
199 -484 0
-13 -837 0
692 -116 0
-799 -725 0
692 422 0
-47 382 0
805 -426 0
395 479 0
46 37 0
3 -702 0
-670 -272 0
-382 174 0
-7 -488 0
-538 469 0
305 -725 0
-742 858 0
838 495 0
774 776 0
-365 731 0
-795 167 0
-460 -700 0
-565 -703 0
417 -257 0
-101 760 0
-586 -739 0
-141 -786 0
-535 362 0
-550 670 0
-524 770 0
79 -340 0
-121 -764 0
-590 810 0
-412 546 0
-347 -107 0
505 -293 0
677 -484 0
142 -581 0
774 -361 0
-610 781 0
778 -180 0
72 -627 0
162 -9 0
-384 733 0
409 437 0
314 751 0
-193 -51 0
-272 212 0
-378 87 0
481 -510 0
-151 -226 0
318 132 0
573 855 0
230 601 0
838 259 0
213 356 0
-88 -357 0
159 -412 0
-640 782 0
558 -134 0
134 -459 0
750 -172 0
822 -792 0
96 612 0
-720 -667 0
-454 341 0
548 -363 0
-726 -764 0
-372 -73 0
-212 441 0
288 -379 0
-442 548 0
-623 -839 0
-429 693 0
555 280 0
552 102 0
701 46 0
-65 -50 0
-25 -296 0
-624 -567 0
-723 -737 0
-172 -7 0
87 -282 0
-865 110 0
-55 -252 0
642 225 0
-573 -276 0
466 652 0
-744 127 0
217 -784 0
438 214 0
-696 -311 0
134 -583 0
652 386 0
672 435 0
-29 -432 0
254 -793 0
695 762 0
620 837 0
-60 533 0
-113 407 0
392 -318 0
636 -106 0
-219 399 0
-610 -268 0
-731 640 0
-258 657 0
702 215 0
-799 691 0
118 188 0
825 -85 0
-231 -590 0
323 545 0
-767 45 0
192 -691 0
439 81 0
781 611 0
283 89 0
372 807 0
-263 -146 0
-324 -254 0
379 -140 0
814 -126 0
-170 -586 0
-739 838 0
328 -676 0
213 -473 0
-390 -372 0
49 -84 0
-836 -267 0
-495 -37 0
369 392 0
-349 808 0
-691 -723 0
211 -819 0
-78 120 0
811 -371 0
32 -207 0
-500 225 0
855 -421 0
-701 745 0
-530 -325 0
-285 660 0
-283 494 0
-20 578 0
-744 72 0
476 665 0
-180 427 0
-218 -679 0
-551 403 0
229 428 0
96 445 0
-749 -769 0
-429 -312 0
-550 -324 0
-388 759 0
33 -6 0
217 -726 0
-300 -101 0
-232 -434 0
429 372 0
433 92 0
-193 334 0
-513 32 0
-11 327 0
171 -479 0
-662 485 0
-226 327 0
-631 -350 0
445 -705 0
-580 320 0
-6 -433 0
-252 -388 0
-617 427 0
-757 631 0
-103 -799 0
533 263 0
612 474 0
-332 158 0
-769 -788 0
775 -166 0
-189 -544 0
280 -603 0
559 -843 0
424 -706 0
-295 269 0
-37 -206 0
667 -248 0
-542 687 0
-41 -675 0
447 466 0
745 -594 0
435 -142 0
-170 7 0
577 -83 0
261 -475 0
306 750 0
-705 -718 0
104 -264 0
-528 239 0
745 -420 0
111 711 0
-281 265 0
-340 -325 0
-590 96 0
-285 257 0
-496 -159 0
339 -264 0
449 307 0
255 -117 0
-685 164 0
81 348 0
-504 -670 0
-733 -733 0
52 -192 0
-804 -770 0
-693 -484 0
12 574 0
454 358 0
388 -577 0
-308 522 0
-647 -806 0
240 301 0
-847 27 0
-63 -799 0
2 -599 0
-655 533 0
-508 269 0
-173 -180 0
-455 -712 0
280 -198 0
604 284 0
-206 779 0
818 245 0
772 -135 0
-276 -290 0
-785 -376 0
204 199 0
261 -571 0
-141 294 0
302 -412 0
109 552 0
791 451 0
49 806 0
774 -751 0
-345 317 0
665 -682 0
352 -125 0
-143 506 0
-412 -185 0
-45 -484 0
582 4 0
399 -270 0
286 62 0
-503 -135 0
-482 497 0
463 -775 0
-715 -78 0
413 -5 0
104 863 0
784 -421 0
466 136 0
622 127 0
787 855 0
-264 737 0
321 172 0
229 -795 0
-642 -280 0
634 537 0
-805 117 0
-355 -499 0
-662 -536 0
-598 400 0
251 779 0
-129 367 0
498 -786 0
534 363 0
284 454 0
789 545 0
-479 -790 0
-492 -548 0
652 -670 0
-58 408 0
334 -829 0
121 -498 0
602 -152 0
328 -100 0
-203 589 0
-786 -747 0
-237 553 0
-436 -223 0
-380 534 0
-282 379 0
-753 -308 0
831 -120 0
-144 634 0
318 -484 0
-761 558 0
-209 46 0
-324 -757 0
-39 70 0
79 -536 0
82 390 0
-155 110 0
-238 -288 0
257 327 0
67 -551 0
-707 -382 0
-553 67 0
492 386 0
791 633 0
864 265 0
630 -649 0
-587 -420 0
-544 -711 0
307 -577 0
-24 -420 0
-406 814 0
762 -723 0
333 -195 0
592 226 0
734 -65 0
215 -457 0
459 -278 0
-205 -346 0
784 -696 0
-74 -214 0
-622 -287 0
555 167 0
587 746 0
638 717 0
541 807 0
789 -566 0
-175 211 0
-802 -843 0
-98 389 0
-362 -550 0
6 -227 0
659 -726 0
603 658 0
-335 572 0
-585 387 0
-70 -460 0
-131 678 0
-494 286 0
668 679 0
305 492 0
34 633 0
674 222 0
-506 -586 0
445 -405 0
596 279 0
790 -278 0
375 161 0
-123 682 0
-642 407 0
87 309 0
471 -346 0
506 76 0
-769 -576 0
-7 -370 0
-760 -209 0
-678 476 0
-837 -372 0
-260 386 0
-805 -855 0
419 611 0
-408 -290 0
-473 -77 0
33 823 0
855 -679 0
-636 651 0
652 179 0
-403 -31 0
441 -567 0
848 -550 0
258 657 0
378 529 0
-719 -493 0
794 232 0
722 -481 0
-178 221 0
-778 269 0
500 -388 0
111 -681 0
640 36 0
791 348 0
493 225 0
328 249 0
864 -840 0
300 286 0
611 -704 0
780 389 0
-339 -200 0
227 667 0
-681 -448 0
384 796 0
-143 -755 0
603 215 0
-676 -670 0
247 449 0
157 -686 0
-778 343 0
286 -320 0
783 59 0
-824 -41 0
-337 75 0
381 469 0
687 4 0
411 -635 0
664 482 0
-156 -664 0
344 -23 0
-85 130 0
842 801 0
-755 395 0
729 -305 0
-295 589 0
603 493 0
-592 -609 0
-41 -13 0
-566 33 0
-569 -128 0
284 449 0
-618 -763 0
-380 534 0
841 284 0
863 -58 0
864 -638 0
-417 578 0
-603 -274 0
297 -473 0
-292 545 0
-672 -550 0
422 849 0
-271 -446 0
-714 -170 0
776 609 0
331 -173 0
294 -11 0
658 59 0
691 344 0
202 132 0
-863 546 0
-351 589 0
-433 750 0
-289 -147 0
737 -357 0
304 319 0
807 541 0
-541 438 0
-22 339 0
773 -155 0
456 827 0
-835 558 0
492 -547 0
-845 403 0
-473 -622 0
515 298 0
-513 342 0
-221 721 0
836 -865 0
86 33 0
354 435 0
205 -671 0
-679 -101 0
-765 -402 0
712 -547 0
71 76 0
-266 758 0
-335 -319 0
-403 28 0
-1 830 0
-137 480 0
778 -527 0
-214 784 0
-704 293 0
-513 505 0
686 726 0
-429 -530 0
-92 821 0
-609 120 0
-585 554 0
659 641 0
99 530 0
-740 537 0
-73 -102 0
154 -594 0
-420 -237 0
-623 -304 0
95 574 0
-24 623 0
331 -166 0
-74 636 0
-819 -785 0
-832 -646 0
485 -385 0
764 -315 0
-166 353 0
-761 -266 0
645 265 0
-142 -777 0
796 564 0
-373 -689 0
595 364 0
-733 409 0
-196 -770 0
-299 -109 0
35 -733 0
-649 -453 0
202 -370 0
-670 -156 0
358 -713 0
-707 293 0
-385 -856 0
484 341 0
529 857 0
302 37 0
845 786 0
796 611 0
-304 -29 0
-844 -232 0
-464 -125 0
306 -80 0
484 128 0
332 -349 0
259 199 0
690 -92 0
-773 418 0
-212 328 0
830 852 0
-856 -141 0
-11 674 0
-805 -265 0
-703 -155 0
-135 -510 0
833 442 0
-258 114 0
-252 528 0
-455 395 0
171 -681 0
148 -476 0
-256 251 0
423 -192 0
297 667 0
-670 -402 0
-600 -561 0
-484 -571 0
-513 -865 0
566 -865 0
204 -194 0
793 -428 0
-222 399 0
198 487 0
539 -122 0
-739 -492 0
483 813 0
-410 -289 0
334 -623 0
448 -747 0
765 793 0
-615 -479 0
-285 -214 0
424 -68 0
651 159 0
64 -437 0
-65 240 0
-374 -635 0
-553 718 0
629 -185 0
-725 95 0
581 706 0
-781 -853 0
-391 48 0
772 -838 0
-749 325 0
239 -180 0
-764 501 0
-216 124 0
-183 811 0
76 -119 0
788 795 0
-181 313 0
-737 686 0
-357 -47 0
-500 741 0
-711 -39 0
-861 -118 0
171 -598 0
265 10 0
466 239 0
-840 22 0
-292 -267 0
681 -155 0
-126 709 0
691 820 0
596 88 0
-486 444 0
67 149 0
-197 814 0
541 -422 0
817 54 0
-347 -496 0
438 -198 0
-483 139 0
821 -568 0
-176 552 0
658 141 0
-455 -383 0
-756 -273 0
-761 -156 0
-88 -687 0
844 650 0
-390 384 0
652 112 0
-355 -292 0
-763 649 0
-281 478 0
381 572 0
-254 -322 0
-345 -266 0
748 452 0
-244 760 0
-166 723 0
259 -533 0
132 443 0
-190 428 0
150 662 0
-638 -178 0
575 -658 0
480 -729 0
-411 722 0
-709 -590 0
-545 -816 0
33 -776 0
737 743 0
-490 522 0
-832 66 0
-203 582 0
-141 405 0
-131 -682 0
-137 480 0
-572 23 0
570 517 0
435 799 0
-662 -101 0
350 405 0
-269 476 0
718 413 0
-454 564 0
657 -418 0
350 -12 0
-592 368 0
483 -689 0
331 147 0
410 628 0
16 -296 0
-600 -139 0
528 527 0
-580 3 0
-309 618 0
295 -74 0
177 -144 0
-88 708 0
662 -431 0
211 -347 0
-613 718 0
352 826 0
505 518 0
-502 -305 0
-401 -54 0
778 -6 0
-670 -694 0
-739 109 0
320 493 0
-580 843 0
407 -86 0
-738 14 0
421 447 0
95 392 0
497 226 0
677 787 0
312 -468 0
-410 310 0
-535 188 0
40 -247 0
684 -464 0
-68 145 0
-737 -108 0
-311 -151 0
-591 514 0
608 282 0
554 -330 0
-184 -309 0
790 -267 0
-841 817 0
29 -47 0
-674 -219 0
-752 826 0
128 -490 0
-11 -764 0
4 737 0
-484 208 0
-624 -448 0
-123 780 0
-172 -421 0
-859 -811 0
-799 6 0
-390 806 0
634 153 0
591 -120 0
521 173 0
-589 472 0
-488 599 0
-799 -253 0
-325 -581 0
-674 -312 0
531 220 0
223 533 0
59 -833 0
128 94 0
804 -63 0
469 688 0
789 330 0
-15 -57 0
735 13 0
171 46 0
-159 590 0
-251 261 0
398 353 0
204 -16 0
-696 -218 0
-225 487 0
-303 -195 0
-737 -499 0
-562 -853 0
-179 -207 0
505 651 0
615 -828 0
718 -26 0
297 410 0
101 -86 0
-653 -644 0
673 831 0
12 -361 0
-39 -278 0
-147 -302 0
203 103 0
497 -679 0
62 -63 0
-463 115 0
654 -295 0
-391 -273 0
-122 -125 0
157 -260 0
653 271 0
601 -276 0
802 -701 0
-859 -598 0
-561 -498 0
14 554 0
-296 682 0
521 177 0
304 -363 0
-593 -696 0
-41 -565 0
279 -490 0
666 302 0
438 -311 0
-263 844 0
525 846 0
537 -366 0
-217 -645 0
-123 162 0
722 -242 0
721 -151 0
487 111 0
-478 -197 0
-733 855 0
859 -713 0
-742 571 0
357 -249 0
427 -683 0
-391 484 0
386 -364 0
503 -388 0
830 424 0
796 -95 0
-479 423 0
-258 -778 0
-533 815 0
152 433 0
284 -778 0
-824 -525 0
-25 26 0
-843 -288 0
-181 -354 0
-232 370 0
711 361 0
-208 -54 0
353 363 0
-30 -303 0
-789 758 0
-498 774 0
485 -205 0
570 416 0
-478 837 0
-841 -485 0
111 791 0
830 -262 0
-37 -363 0
489 -683 0
-180 707 0
46 541 0
287 -329 0
793 -190 0
590 411 0
-81 -39 0
755 -453 0
-853 205 0
-571 395 0
480 -663 0
-49 -207 0
-10 -18 0
428 -348 0
-76 -542 0
76 794 0
-637 -87 0
13 -216 0
120 -179 0
184 -752 0
-23 -173 0
413 509 0
77 494 0
-542 474 0
-148 -179 0
136 127 0
-232 -93 0
494 -747 0
-681 297 0
-609 673 0
715 -718 0
-789 -777 0
855 -580 0
788 -188 0
-23 293 0
-572 -442 0
-130 697 0
740 -333 0
292 -137 0
16 306 0
812 -769 0
-86 203 0
82 -168 0
-221 206 0
188 526 0
-558 -322 0
447 -850 0
-741 -290 0
738 177 0
-548 168 0
815 -213 0
294 190 0
-772 831 0
427 -776 0
561 -700 0
-588 595 0
-11 -705 0
-23 -559 0
-160 313 0
99 467 0
-550 654 0
419 -777 0
-340 -432 0
-116 -704 0
-570 259 0
-262 802 0
-174 634 0
-181 -785 0
-419 715 0
540 790 0
-473 -839 0
-32 -347 0
53 228 0
-650 -782 0
-705 547 0
516 -241 0
849 -338 0
766 630 0
-580 814 0
-61 801 0
-545 582 0
-186 -438 0
-548 472 0
-684 350 0
230 -557 0
811 -498 0
620 -776 0
127 -350 0
-591 -564 0
794 100 0
468 -850 0
44 574 0
-311 519 0
-570 97 0
46 -285 0
851 247 0
-755 675 0
-159 770 0
-655 -207 0
-723 -677 0
339 -637 0
-473 -520 0
169 589 0
318 313 0
856 -526 0
-594 95 0
-154 -632 0
64 504 0
383 589 0
533 224 0
-299 789 0
-22 -90 0
-731 450 0
-624 -138 0
483 -67 0
-367 855 0
725 -359 0
419 -260 0
299 376 0
680 613 0
-19 -160 0
-850 -762 0
552 90 0
-702 -13 0
791 552 0
540 386 0
-488 469 0
-761 -829 0
-293 -223 0
-133 209 0
817 191 0
511 -669 0
707 12 0
830 552 0
369 -577 0
737 -130 0
114 443 0
-637 15 0
26 -238 0
61 -336 0
539 -807 0
115 319 0
641 365 0
-358 -777 0
-570 -328 0
372 -598 0
392 -792 0
-149 -324 0
112 175 0
-484 260 0
417 650 0
793 -531 0
858 860 0
-553 -575 0
184 791 0
-219 -159 0
-57 592 0
818 -359 0
-758 -773 0
114 353 0
661 -240 0
851 -199 0
494 -826 0
421 -462 0
625 671 0
-406 -714 0
53 -241 0
-476 113 0
344 -837 0
-99 -21 0
603 -157 0
-702 564 0
339 -149 0
134 629 0
-242 387 0
-374 -362 0
-531 516 0
260 -374 0
205 -566 0
-507 387 0
626 809 0
760 -865 0
-337 -820 0
545 -183 0
-280 428 0
-81 -847 0
-47 -429 0
-356 -38 0
821 -33 0
396 361 0
-856 -145 0
422 62 0
519 392 0
105 -108 0
-757 86 0
764 497 0
858 -700 0
-521 -23 0
91 853 0
-370 -126 0
288 -427 0
171 -109 0
794 579 0
277 339 0
353 -79 0
61 127 0
487 174 0
101 651 0
437 -349 0
-290 856 0
-347 636 0
122 405 0
-563 511 0
413 415 0
365 96 0
-663 211 0
185 81 0
-717 111 0
251 -165 0
-99 646 0
36 -738 0
157 540 0
14 604 0
-828 606 0
-526 260 0
524 -400 0
64 -273 0
-190 95 0
289 -38 0
-653 489 0
158 516 0
-658 -513 0
363 -377 0
713 -453 0
-97 -519 0
501 813 0
-688 -556 0
695 61 0
-308 -372 0
-48 -209 0
-698 -80 0
-853 -701 0
568 204 0
6 629 0
-774 -792 0
-822 834 0
-694 347 0
-266 -216 0
443 597 0
-847 318 0
272 230 0
639 -685 0
-842 710 0
765 806 0
391 748 0
82 377 0
-297 690 0
526 -338 0
630 293 0
-126 -526 0
836 520 0
392 443 0
-759 -502 0
444 228 0
-187 360 0
-189 -144 0
518 -92 0
81 -853 0
267 81 0
456 701 0
-797 -85 0
422 480 0
650 19 0
-346 418 0
767 646 0
443 -498 0
-789 466 0
726 210 0
-604 -60 0
372 -54 0
-541 753 0
213 417 0
-408 -627 0
251 791 0
428 -337 0
222 -23 0
-566 49 0
-22 -80 0
-111 -367 0
771 -212 0
99 -855 0
91 207 0
-607 -711 0
619 -367 0
-406 -638 0
-603 40 0
-418 -210 0
-713 379 0
386 730 0
640 -257 0
-778 27 0
-589 -398 0
852 -90 0
-602 366 0
-411 808 0
409 159 0
-664 -785 0
-384 -685 0
-237 297 0
-185 -424 0
-365 -538 0
25 -795 0
815 -728 0
425 -354 0
728 400 0
-561 -648 0
-563 -131 0
628 -790 0
-777 -512 0
377 -551 0
-390 -199 0
-230 -194 0
298 -757 0
508 -431 0
456 -777 0
-310 -789 0
62 400 0
-599 675 0
35 30 0
-161 161 0
-516 517 0
-318 743 0
497 -189 0
-160 -742 0
-315 -760 0
-485 -509 0
56 -1 0
358 -736 0
-129 320 0
-41 -759 0
634 269 0
364 767 0
836 444 0
787 164 0
542 740 0
601 -397 0
652 800 0
-528 -674 0
-404 -267 0
175 431 0
846 -238 0
515 561 0
-832 520 0
20 404 0
836 -728 0
-37 635 0
811 765 0
-690 81 0
99 -85 0
23 -569 0
-64 744 0
-189 -274 0
516 -209 0
103 -137 0
-511 134 0
389 -516 0
492 745 0
-83 -184 0
-116 556 0
751 -258 0
212 -520 0
-278 771 0
-589 320 0
772 -213 0
-303 -221 0
282 -112 0
-545 -828 0
-167 -316 0
646 656 0
280 52 0
285 -401 0
226 240 0
221 -340 0
-274 -156 0
-631 -252 0
263 552 0
561 -249 0
282 571 0
-681 -364 0
-714 -247 0
-24 -356 0
282 -520 0
304 619 0
35 -6 0
-188 -790 0
215 373 0
72 -530 0
28 -209 0
-732 409 0
831 581 0
606 -22 0
64 -44 0
-235 332 0
-354 164 0
-383 -548 0
423 -106 0
-667 535 0
-382 167 0
-261 834 0
-522 366 0
512 761 0
634 -849 0
722 -348 0
774 -508 0
-85 67 0
-123 -282 0
-689 -70 0
281 387 0
-525 565 0
-554 -719 0
474 122 0
-676 -156 0
-91 634 0
661 -83 0
113 -194 0
-769 -406 0
342 -23 0
-723 689 0
-15 -310 0
625 -520 0
794 -421 0
-372 114 0
-3 480 0
-792 783 0
756 223 0
863 -721 0
-508 837 0
-348 -213 0
71 -556 0
-287 -54 0
-590 351 0
545 61 0
-691 -156 0
-97 -438 0
-163 -23 0
243 132 0
-457 522 0
-335 405 0
-770 799 0
-864 162 0
9 -49 0
-451 -58 0
138 -756 0
13 -671 0
-835 111 0
728 482 0
-749 48 0
844 -345 0
-631 -759 0
860 460 0
796 331 0
477 827 0
313 -274 0
-843 -88 0
494 -273 0
-607 229 0
99 428 0
228 405 0
-834 618 0
-453 270 0
220 2 0
-852 796 0
-848 103 0
834 695 0
288 46 0
-859 -11 0
400 626 0
715 -321 0
-363 -189 0
456 616 0
-495 182 0
283 364 0
-151 213 0
-739 -322 0
-509 255 0
-331 127 0
441 -587 0
-96 167 0
474 746 0
65 606 0
-141 -775 0
-458 638 0
-513 811 0
411 -462 0
-329 -865 0
-121 716 0
-400 -821 0
-390 396 0
-176 -665 0
-267 476 0
506 558 0
-19 260 0
771 668 0
75 594 0
519 704 0
-323 -297 0
115 -655 0
-590 -44 0
294 774 0
675 -604 0
800 -471 0
-492 567 0
-786 -503 0
-163 645 0
341 -673 0
-587 -495 0
561 825 0
171 77 0
-162 328 0
331 -544 0
-746 -777 0
-707 -785 0
-286 -253 0
76 -183 0
-238 -238 0
-262 381 0
443 -463 0
-720 -614 0
-519 833 0
86 515 0
-716 -668 0
408 404 0
67 433 0
12 181 0
791 -95 0
230 -199 0
-249 297 0
-108 -833 0
-272 -164 0
652 263 0
-420 382 0
-767 -103 0
-175 756 0
-787 488 0
-829 641 0
779 522 0
155 589 0
-222 -637 0
-461 393 0
-57 559 0
813 -839 0
-235 562 0
481 -38 0
608 837 0
615 -778 0
228 -803 0
176 493 0
459 -134 0
-356 544 0
537 -730 0
480 714 0
515 732 0
251 325 0
-376 659 0
-580 291 0
575 -53 0
-375 99 0
376 -468 0
335 366 0
392 810 0
-554 787 0
-55 190 0
758 -143 0
757 -656 0
395 62 0
-828 -445 0
-57 -157 0
-533 -627 0
3 253 0
-20 -782 0
439 666 0
64 489 0
250 458 0
758 -447 0
-525 120 0
-556 648 0
172 -337 0
647 405 0
-271 -688 0
535 -401 0
670 304 0
129 -670 0
652 36 0
-377 804 0
63 116 0
-362 695 0
-742 324 0
373 -312 0
-557 684 0
652 352 0
239 -792 0
98 518 0
-591 -828 0
844 259 0
439 -373 0
734 -694 0
-468 839 0
576 -514 0
-230 48 0
-461 -499 0
822 -214 0
862 270 0
-743 600 0
244 -727 0
1 -200 0
-352 -147 0
-332 -300 0
-785 78 0
-831 858 0
711 185 0
122 -181 0
-385 -379 0
-431 675 0
812 -590 0
-256 -736 0
-519 722 0
710 -732 0
-516 -689 0
-437 433 0
277 409 0
201 -564 0
320 -89 0
381 66 0
-220 680 0
15 -581 0
-834 328 0
829 -656 0
443 -206 0
-163 244 0
517 388 0
-566 -800 0
540 482 0
76 -24 0
729 -5 0
53 145 0
259 -259 0
-378 8 0
327 817 0
-254 -23 0
-235 -156 0
339 29 0
393 582 0
-685 833 0
652 608 0
446 -400 0
10 349 0
207 -840 0
742 822 0
413 -407 0
478 608 0
-600 -725 0
436 -121 0
714 372 0
-782 382 0
-788 331 0
-704 400 0
130 314 0
789 -572 0
-432 -751 0
-443 -7 0
75 628 0
-300 540 0
-329 193 0
-96 -556 0
-50 718 0
-719 -351 0
-841 819 0
726 -640 0
-316 -203 0
-544 -556 0
543 254 0
-702 -82 0
815 280 0
766 174 0
633 -638 0
248 827 0
52 -126 0
266 -810 0
-593 -398 0
652 666 0
-156 260 0
-18 775 0
639 478 0
-31 814 0
331 -602 0
-17 -824 0
279 -145 0
-502 -481 0
-506 413 0
660 -742 0
-49 -84 0
46 -143 0
-516 -291 0
665 131 0
-642 -154 0
428 305 0
3 327 0
827 391 0
-438 255 0
194 772 0
521 711 0
-825 -25 0
-158 -191 0
4 228 0
-106 -169 0
-394 -507 0
-796 167 0
584 667 0
-668 651 0
440 776 0
-243 335 0
-454 -147 0
-570 667 0
-529 466 0
-655 -590 0
-853 667 0
-292 208 0
466 718 0
423 -139 0
449 706 0
821 489 0
597 -850 0
87 -692 0
112 -404 0
222 -489 0
-724 -509 0
-377 -147 0
658 313 0
746 237 0
-206 -7 0
-778 529 0
-226 124 0
52 -51 0
744 -624 0
-330 313 0
-267 -451 0
157 33 0
-317 226 0
77 -770 0
-657 512 0
144 762 0
592 -642 0
-22 -29 0
-286 -672 0
123 -385 0
86 -664 0
-428 -247 0
-201 118 0
376 -716 0
230 -692 0
-622 864 0
-671 -64 0
-42 -478 0
-663 -487 0
-642 238 0
715 142 0
688 317 0
181 456 0
-29 234 0
818 701 0
419 -798 0
-809 -816 0
585 251 0
488 -140 0
-649 538 0
103 805 0
661 827 0
-600 589 0
-292 595 0
-670 -26 0
486 -193 0
469 -406 0
135 -400 0
-34 -453 0
651 -262 0
786 476 0
-57 -237 0
-627 653 0
791 834 0
559 -198 0
-309 687 0
-631 -688 0
817 167 0
676 544 0
300 -609 0
-203 -287 0
-263 -421 0
-496 317 0
-849 333 0
-203 -401 0
691 309 0
313 115 0
-410 -443 0
638 -625 0
456 -363 0
124 508 0
-736 861 0
284 471 0
366 -815 0
-762 -374 0
230 112 0
502 288 0
96 -568 0
-291 817 0
12 355 0
-205 372 0
-770 322 0
-689 -331 0
-220 -166 0
-757 382 0
64 -54 0
-509 12 0
-857 -570 0
-59 -231 0
352 748 0
-556 264 0
-135 -8 0
673 597 0
-733 -710 0
350 801 0
139 -240 0
-119 -180 0
788 -139 0
-163 85 0
-390 -212 0
-481 834 0
439 762 0
-86 511 0
-693 438 0
-212 -570 0
-18 -653 0
-854 540 0
-525 -821 0
-313 -203 0
-669 136 0
355 427 0
203 -384 0
-824 -500 0
756 -48 0
-767 -453 0
-500 -76 0
-633 -42 0
746 -464 0
-622 195 0
380 -536 0
333 -637 0
648 -422 0
-624 773 0
-845 489 0
817 -245 0
-681 -790 0
441 -707 0
195 -86 0
188 -850 0
-640 -85 0
20 -737 0
362 624 0
31 -86 0
-656 -508 0
-601 -363 0
-245 425 0
-365 -328 0
36 -848 0
-189 517 0
-166 16 0
588 -384 0
-626 246 0
-151 33 0
-859 53 0
260 -531 0
443 -547 0
-374 -780 0
-449 422 0
747 409 0
363 229 0
255 100 0
401 198 0
448 24 0
-305 626 0
-591 -24 0
-1 -149 0
497 370 0
53 384 0
-810 829 0
-465 298 0
295 -311 0
616 -368 0
355 -60 0
789 -419 0
526 -385 0
109 -843 0
795 -156 0
714 756 0
107 621 0
87 -781 0
522 165 0
416 796 0
717 851 0
260 -850 0
-163 -237 0
-390 367 0
611 99 0
416 -78 0
-516 10 0
-21 -241 0
-25 646 0
240 259 0
693 231 0
-373 762 0
-673 -419 0
-6 -21 0
-397 488 0
-563 -154 0
-548 603 0
-346 -448 0
-461 -271 0
711 777 0
-749 157 0
-478 150 0
-407 -98 0
518 513 0
-430 -610 0
285 -264 0
796 109 0
114 -617 0
-221 -689 0
-819 553 0
-689 -382 0
340 852 0
-287 -198 0
150 37 0
468 -767 0
-600 268 0
-58 -586 0
-216 -475 0
711 680 0
-816 -225 0
138 855 0
332 255 0
771 -294 0
740 -750 0
809 208 0
-352 -828 0
-131 16 0
618 -501 0
423 -383 0
-750 213 0
750 -523 0
684 -617 0
332 161 0
45 431 0
-674 522 0
-657 424 0
-847 -467 0
490 14 0
-182 556 0
550 -388 0
-683 -442 0
419 152 0
270 239 0
-367 -316 0
-579 -263 0
-618 528 0
164 501 0
277 236 0
711 615 0
-785 130 0
678 680 0
-281 -467 0
139 452 0
-606 -308 0
-547 -194 0
-80 350 0
265 447 0
411 294 0
575 -302 0
36 648 0
-862 255 0
-534 -370 0
615 362 0
339 362 0
-382 -85 0
814 -231 0
-739 460 0
-135 -419 0
830 -716 0
313 -283 0
-24 743 0
627 351 0
-391 830 0
-833 -591 0
630 266 0
-610 34 0
-442 -259 0
-267 688 0
-795 321 0
58 -749 0
-674 -237 0
-828 132 0
-237 -165 0
-764 474 0
-291 -446 0
68 -440 0
211 120 0
-394 -175 0
266 80 0
-609 -479 0
344 396 0
270 -322 0
-427 721 0
10 268 0
-140 -856 0
-341 36 0
364 414 0
-838 -345 0
138 621 0
639 -827 0
307 822 0
-434 499 0
-177 545 0
794 69 0
626 675 0
408 -452 0
-795 759 0
-42 -178 0
-761 -338 0
646 -153 0
646 471 0
-500 -590 0
197 -333 0
-349 -253 0
-203 618 0
217 -144 0
617 753 0
-434 388 0
407 411 0
827 48 0
-409 740 0
452 -706 0
711 574 0
-472 815 0
293 -442 0
-610 -133 0
360 -813 0
75 553 0
-143 332 0
699 -689 0
-770 157 0
-355 -93 0
620 -698 0
-390 -856 0
-562 317 0
766 -370 0
678 803 0
488 -475 0
224 605 0
794 612 0
-845 638 0
396 420 0
-61 -123 0
622 -357 0
-800 -828 0
-55 -339 0
