c NF
p cnf 1080 3456
-1019 852 0
-145 -737 0
84 -128 0
-185 -255 0
87 720 0
-389 934 0
-740 -319 0
-116 334 0
-108 -724 0
911 506 0
880 169 0
-168 33 0
446 -639 0
585 1059 0
810 -550 0
-173 -121 0
-59 859 0
-1042 957 0
-215 -137 0
91 949 0
-920 -185 0
541 -496 0
-148 821 0
-92 -478 0
113 501 0
678 292 0
872 767 0
492 1074 0
-621 -99 0
132 1 0
-586 -899 0
-962 535 0
672 -422 0
-602 -496 0
856 841 0
594 -121 0
-551 776 0
-393 -531 0
395 -1044 0
-15 -302 0
-682 -904 0
578 -428 0
-858 -860 0
-492 -892 0
-856 144 0
169 -53 0
750 -865 0
1079 948 0
-217 805 0
915 267 0
459 329 0
793 1068 0
27 -375 0
751 -559 0
142 982 0
228 685 0
781 -451 0
-812 -250 0
-11 -348 0
533 434 0
-402 -465 0
-324 -383 0
1 676 0
-132 -353 0
-938 -812 0
-265 -777 0
-242 -808 0
158 1048 0
-454 -365 0
268 744 0
-176 -396 0
-969 -456 0
-695 -966 0
473 158 0
-613 776 0
-565 194 0
-482 -868 0
-571 -265 0
508 -330 0
-598 -798 0
803 334 0
-946 -398 0
718 -371 0
664 -268 0
-945 -172 0
705 -625 0
-808 -895 0
217 85 0
-296 -871 0
71 10 0
-652 -317 0
-950 947 0
495 931 0
-861 604 0
592 138 0
-386 -284 0
853 -337 0
-908 828 0
-701 138 0
-1017 89 0
-807 434 0
-1063 613 0
612 -350 0
-510 -35 0
23 835 0
838 -11 0
-189 -280 0
-73 -913 0
142 -161 0
384 934 0
413 54 0
-80 896 0
1075 547 0
365 492 0
-362 488 0
390 -355 0
-234 414 0
893 831 0
712 -836 0
646 351 0
661 738 0
-848 -889 0
-981 1002 0
411 107 0
-661 -548 0
981 205 0
270 28 0
720 240 0
-1044 -1006 0
-628 -478 0
848 111 0
-575 -1049 0
-941 -822 0
513 -1040 0
513 -722 0
-792 771 0
-1025 -806 0
251 -628 0
786 -801 0
-557 182 0
-613 303 0
778 900 0
923 995 0
-54 -498 0
988 -688 0
-846 803 0
890 -499 0
-260 -502 0
192 76 0
273 249 0
304 -589 0
-699 -800 0
1041 -1072 0
162 -525 0
212 -772 0
-317 426 0
136 606 0
-465 19 0
-830 -979 0
1066 -983 0
-170 397 0
-989 772 0
17 695 0
-855 -789 0
1070 312 0
-641 597 0
817 -857 0
-8 122 0
798 47 0
365 1015 0
958 -999 0
205 340 0
-731 -366 0
-703 394 0
263 -576 0
196 -660 0
43 764 0
-842 -853 0
711 -259 0
585 -931 0
276 -699 0
-67 -301 0
937 20 0
-345 299 0
-652 1053 0
636 -20 0
676 -430 0
-99 60 0
404 -222 0
-526 151 0
-796 619 0
952 -379 0
-996 288 0
1002 981 0
-402 100 0
-904 -393 0
-980 -1060 0
1037 472 0
-781 -860 0
625 620 0
-228 -54 0
255 978 0
-242 -162 0
-682 -416 0
-622 -678 0
-910 -313 0
-552 -148 0
458 -706 0
-587 800 0
-188 1016 0
-939 -1014 0
-65 924 0
29 848 0
87 -180 0
939 713 0
-91 606 0
672 -859 0
-557 262 0
706 -171 0
560 -923 0
-127 320 0
51 -52 0
-641 337 0
-400 -592 0
-633 477 0
867 -199 0
532 -1079 0
701 -476 0
8 1079 0
-942 -136 0
-769 -325 0
723 -625 0
57 -889 0
-468 -977 0
-731 1031 0
-386 1073 0
-215 283 0
-419 758 0
497 367 0
-15 458 0
-698 1046 0
-610 172 0
-611 268 0
993 -699 0
109 -844 0
-344 -653 0
911 533 0
57 -400 0
712 -875 0
-587 -430 0
930 -984 0
997 312 0
-687 -564 0
-727 -1055 0
-358 -389 0
169 622 0
571 -964 0
-299 -643 0
-664 -2 0
-1068 -613 0
-521 -464 0
-65 -488 0
-311 510 0
711 773 0
-16 1038 0
-781 -214 0
866 21 0
-539 300 0
-989 -4 0
-875 -934 0
835 797 0
408 -351 0
-1037 -924 0
-861 -259 0
-213 619 0
-438 -775 0
28 -985 0
-746 -660 0
-983 532 0
295 -765 0
-213 180 0
627 883 0
-302 623 0
1011 -719 0
-907 -174 0
782 -1055 0
-652 -125 0
983 -275 0
999 143 0
714 -819 0
-410 734 0
587 807 0
-286 310 0
122 530 0
-2 -1052 0
-124 634 0
-27 -1073 0
458 42 0
39 1040 0
230 308 0
970 -123 0
1068 1053 0
-670 342 0
391 -774 0
403 -1027 0
-226 -618 0
378 -247 0
709 46 0
-470 180 0
142 -153 0
-16 -328 0
184 1012 0
842 -439 0
-833 812 0
182 -621 0
-347 -626 0
723 354 0
-99 -266 0
387 146 0
-360 -46 0
-522 919 0
-464 -138 0
1072 -460 0
418 -371 0
-163 -35 0
158 -311 0
547 -444 0
587 574 0
322 -52 0
-74 947 0
-126 -410 0
-322 541 0
-226 286 0
747 -953 0
-196 653 0
-433 -598 0
-614 -1040 0
869 -765 0
36 58 0
-596 949 0
200 -388 0
-353 -101 0
650 -32 0
677 840 0
152 87 0
1035 867 0
-675 247 0
814 -854 0
795 798 0
890 326 0
-7 977 0
-117 685 0
-920 13 0
144 506 0
529 -233 0
-145 -306 0
-1018 97 0
488 -496 0
-494 953 0
-137 715 0
132 81 0
-753 146 0
-64 143 0
493 893 0
869 536 0
161 258 0
535 -839 0
677 -140 0
-276 -57 0
486 903 0
-51 732 0
656 -990 0
432 -366 0
374 619 0
327 -665 0
-610 808 0
569 -156 0
517 -170 0
1036 -52 0
-503 -605 0
82 -940 0
-682 -1022 0
-356 -565 0
1053 -1076 0
-670 -38 0
-931 -559 0
205 -61 0
-319 -856 0
790 900 0
1063 -123 0
568 820 0
58 -103 0
545 -62 0
43 -1056 0
-715 253 0
-429 -390 0
792 719 0
482 -353 0
-1012 -332 0
-920 -173 0
-578 -491 0
-834 -247 0
770 987 0
-231 -660 0
419 1046 0
796 -26 0
96 -564 0
958 -357 0
-260 -817 0
-220 -283 0
-263 -966 0
1056 231 0
-406 427 0
-92 -94 0
-652 995 0
382 516 0
205 -502 0
630 878 0
-1047 -692 0
-159 310 0
546 289 0
815 505 0
-1080 217 0
-309 -1019 0
-550 826 0
-438 193 0
625 339 0
348 -340 0
528 -148 0
750 708 0
284 -341 0
994 528 0
-783 951 0
468 -783 0
132 1059 0
-728 394 0
481 866 0
-527 959 0
-425 -836 0
-401 -90 0
968 776 0
-799 -645 0
878 -571 0
267 832 0
75 -752 0
-632 -179 0
-1039 585 0
216 133 0
-21 795 0
1036 -754 0
57 -150 0
-628 -660 0
-752 635 0
-967 -933 0
-434 335 0
516 -100 0
-438 -177 0
-81 -611 0
-368 -1030 0
37 -1055 0
-185 -899 0
-778 -804 0
347 408 0
-211 40 0
910 365 0
-647 -263 0
43 -936 0
-215 175 0
-430 617 0
-1009 -488 0
-1074 -552 0
-836 64 0
-185 39 0
-573 -19 0
983 -753 0
-108 714 0
-266 -615 0
-977 756 0
177 -499 0
-838 -753 0
62 671 0
-1044 -654 0
1047 -1062 0
568 -1063 0
110 -908 0
810 1008 0
-448 148 0
697 990 0
58 141 0
414 453 0
-147 -560 0
-170 -482 0
-572 -440 0
843 512 0
-75 174 0
-730 -174 0
-1066 -928 0
-629 -430 0
-716 -13 0
-1044 -578 0
771 774 0
88 1048 0
-764 -836 0
32 -318 0
34 -668 0
-589 -482 0
249 1034 0
637 138 0
887 -261 0
-24 335 0
-489 -494 0
-209 1007 0
901 -125 0
-474 180 0
1079 -971 0
-449 -196 0
-1014 611 0
-779 213 0
-377 -1077 0
-20 -1055 0
-1012 -823 0
-726 55 0
738 58 0
961 -369 0
-814 -1056 0
-142 379 0
955 -688 0
-516 516 0
686 -806 0
-323 315 0
235 707 0
-977 -120 0
-88 1010 0
-708 -480 0
-264 1038 0
458 -585 0
-162 -691 0
-147 280 0
774 -741 0
-965 985 0
527 90 0
-300 -892 0
-234 716 0
-288 -388 0
-642 639 0
-553 1002 0
1007 -1015 0
-476 -106 0
-45 -543 0
-239 -775 0
-543 -777 0
-223 135 0
-116 878 0
202 -914 0
-1077 -128 0
619 -850 0
-81 -777 0
-824 -256 0
-583 370 0
925 209 0
859 537 0
420 94 0
918 -196 0
-25 -351 0
-63 440 0
423 -659 0
-241 887 0
-264 -1033 0
486 614 0
-439 615 0
-258 1075 0
161 -410 0
989 -264 0
569 1046 0
-400 -218 0
316 684 0
809 -392 0
-403 -966 0
167 771 0
964 238 0
-38 -94 0
-804 551 0
973 -162 0
-393 1058 0
826 -323 0
-884 299 0
1029 401 0
-209 -416 0
-753 480 0
329 814 0
-801 -30 0
805 -210 0
-388 811 0
305 329 0
-550 629 0
412 -799 0
-928 -566 0
369 1001 0
855 -384 0
748 -379 0
-65 367 0
-328 686 0
-728 -418 0
-726 -380 0
-135 30 0
-575 -108 0
95 864 0
582 648 0
-470 -896 0
-102 89 0
-350 947 0
-674 885 0
632 180 0
-415 -5 0
-580 1035 0
-1055 695 0
-660 -628 0
346 427 0
-269 -710 0
640 -323 0
279 -432 0
-572 -976 0
994 -316 0
-204 -50 0
-829 553 0
510 33 0
-436 -559 0
930 878 0
-889 266 0
471 419 0
675 765 0
163 -823 0
-62 -663 0
203 337 0
641 1067 0
742 -643 0
824 -462 0
-608 -913 0
-745 229 0
743 495 0
409 -1056 0
-192 -336 0
-620 -1070 0
-108 -1017 0
907 704 0
-1077 -1014 0
-141 -521 0
-224 536 0
390 918 0
-1042 516 0
119 -448 0
-382 -670 0
87 257 0
194 -612 0
-147 744 0
880 877 0
474 558 0
-571 -904 0
475 -695 0
-403 -565 0
124 285 0
973 -336 0
-610 -875 0
771 -505 0
-919 -571 0
-344 -657 0
193 -453 0
676 -1070 0
-164 939 0
-987 -747 0
-595 714 0
-59 -429 0
523 -621 0
-753 -184 0
-845 189 0
176 -896 0
412 -62 0
568 352 0
-1005 371 0
-882 -276 0
335 791 0
451 395 0
177 -265 0
-973 -624 0
-598 1046 0
640 100 0
134 -129 0
313 656 0
-261 934 0
-452 -682 0
900 -371 0
-327 855 0
825 -942 0
982 -377 0
765 -649 0
746 512 0
-71 165 0
452 -545 0
-816 812 0
-998 -1021 0
-718 -783 0
-728 -495 0
191 697 0
-174 -576 0
-341 160 0
-432 474 0
521 -741 0
47 110 0
-892 -718 0
-229 974 0
330 940 0
-349 -1066 0
901 -531 0
-987 1069 0
-509 -946 0
500 794 0
854 933 0
-814 1054 0
-1018 -783 0
-399 987 0
-1017 284 0
-710 964 0
-582 43 0
-1020 -411 0
581 -18 0
-727 28 0
-654 -174 0
-961 -624 0
251 710 0
-291 -974 0
-293 491 0
-613 -77 0
866 -340 0
348 279 0
-1039 -470 0
-584 901 0
-905 969 0
-190 -803 0
-659 1065 0
-421 613 0
-877 -13 0
-628 586 0
651 -464 0
371 -464 0
-1029 -470 0
-480 880 0
-913 -180 0
4 149 0
478 220 0
1041 -530 0
685 180 0
565 -552 0
-573 427 0
-947 -187 0
-362 -135 0
814 -542 0
339 646 0
-785 882 0
-1021 617 0
-853 -894 0
284 814 0
978 -583 0
457 -810 0
963 539 0
672 -182 0
-70 189 0
766 -372 0
814 394 0
149 -920 0
-201 -388 0
855 918 0
477 -386 0
334 -825 0
809 -113 0
-638 1072 0
373 178 0
-104 -103 0
539 -664 0
815 1034 0
-550 852 0
702 -670 0
635 -779 0
53 1047 0
305 436 0
-994 -643 0
-426 937 0
-465 -185 0
-842 -967 0
-1079 747 0
363 527 0
-857 431 0
-839 992 0
251 334 0
-706 -865 0
-424 769 0
714 -807 0
940 -340 0
768 650 0
-737 -400 0
40 554 0
700 376 0
776 1015 0
878 70 0
988 237 0
951 755 0
815 -16 0
337 -754 0
-610 167 0
336 -268 0
-75 893 0
1067 855 0
1033 -745 0
-623 -548 0
167 -596 0
-859 -130 0
923 533 0
-194 -694 0
-58 -197 0
-1049 185 0
798 682 0
-286 482 0
385 907 0
-819 -975 0
-583 -718 0
149 810 0
-641 -28 0
714 -932 0
696 724 0
-331 -921 0
-493 208 0
-741 346 0
760 827 0
176 450 0
-286 380 0
-1038 404 0
-224 845 0
501 -703 0
-725 -1011 0
-836 -1071 0
-889 452 0
237 -985 0
300 -637 0
217 413 0
91 52 0
362 612 0
252 409 0
187 -983 0
-21 -150 0
-746 85 0
-1025 -132 0
1053 -90 0
405 -632 0
-327 -450 0
828 447 0
-986 1069 0
-1078 47 0
289 385 0
717 -942 0
102 -792 0
540 643 0
706 61 0
-512 50 0
300 166 0
671 -917 0
77 905 0
506 -733 0
-239 470 0
-156 587 0
506 656 0
513 838 0
974 132 0
291 -700 0
-599 110 0
-466 649 0
-74 -965 0
657 -578 0
865 -38 0
604 827 0
-724 -164 0
-322 -1058 0
-545 -525 0
549 254 0
864 -823 0
-67 -263 0
-340 -640 0
-889 243 0
206 -1047 0
732 -15 0
-979 -915 0
-967 676 0
-489 131 0
-932 1047 0
152 -621 0
101 87 0
838 986 0
991 -725 0
-1049 -958 0
-819 869 0
142 339 0
-75 707 0
-739 197 0
-541 338 0
-273 186 0
740 -322 0
-507 -112 0
-225 1074 0
-640 719 0
47 -380 0
-962 137 0
-623 -899 0
-726 -92 0
-797 -666 0
-1009 -711 0
-817 -833 0
-390 113 0
-1016 -454 0
-631 -631 0
-928 338 0
919 972 0
986 394 0
454 235 0
824 -1052 0
-337 569 0
447 810 0
570 381 0
-479 -652 0
-623 -261 0
779 405 0
-700 504 0
717 176 0
-600 -519 0
946 553 0
538 -830 0
309 600 0
-1071 -252 0
849 -677 0
879 -75 0
104 -108 0
677 93 0
-548 426 0
42 652 0
644 17 0
663 1054 0
-754 1055 0
129 773 0
788 732 0
-42 -281 0
1026 -239 0
862 -744 0
373 671 0
407 -69 0
451 -627 0
-349 -328 0
1004 -317 0
-264 574 0
743 -1040 0
511 906 0
-290 529 0
-992 -24 0
-461 -905 0
974 -548 0
662 -774 0
-604 -836 0
917 784 0
475 98 0
556 740 0
862 1069 0
-214 332 0
772 -353 0
755 -607 0
-641 348 0
-18 -204 0
549 -246 0
547 -239 0
117 -82 0
611 189 0
632 434 0
-801 -678 0
178 320 0
-698 822 0
107 -338 0
25 -822 0
-1005 151 0
-241 -168 0
-605 738 0
661 -592 0
88 -363 0
-552 616 0
-1021 -40 0
324 87 0
772 -609 0
604 158 0
720 -50 0
-977 905 0
-393 -442 0
-219 584 0
-465 427 0
972 -817 0
820 -1044 0
31 1075 0
413 -489 0
637 733 0
-309 -1015 0
241 -440 0
1004 -853 0
122 419 0
-484 658 0
922 600 0
-8 -143 0
901 204 0
450 -201 0
815 -861 0
-516 671 0
-509 -906 0
-1023 277 0
995 839 0
-1006 -558 0
641 -996 0
1017 -524 0
517 327 0
-450 -711 0
710 675 0
-633 -358 0
-631 -328 0
181 582 0
91 832 0
-34 -660 0
-524 -83 0
-96 942 0
-151 -543 0
-9 -755 0
210 -1063 0
-993 803 0
-618 161 0
-249 -808 0
-375 709 0
103 -853 0
191 329 0
31 302 0
131 623 0
231 -161 0
-614 -1061 0
-647 216 0
883 -336 0
847 426 0
401 -331 0
-1062 -412 0
-1060 478 0
192 -552 0
-954 772 0
-662 747 0
-1048 645 0
463 292 0
-757 332 0
-791 925 0
-454 804 0
-638 -721 0
1053 -226 0
414 -992 0
781 -273 0
-116 212 0
-548 -302 0
213 403 0
885 -399 0
-3 84 0
-718 436 0
814 227 0
938 679 0
790 -54 0
-219 477 0
535 795 0
406 -673 0
424 743 0
-773 488 0
-244 769 0
830 -125 0
-433 911 0
-749 -141 0
759 -864 0
297 84 0
1075 -895 0
-676 193 0
656 848 0
729 -501 0
-584 108 0
-1036 -585 0
-817 110 0
-438 812 0
758 -761 0
-584 -1071 0
-453 435 0
246 -829 0
478 -705 0
-747 -462 0
-128 -330 0
-760 820 0
554 -626 0
-256 464 0
-566 -523 0
-47 533 0
-991 -278 0
769 -215 0
191 -179 0
656 -518 0
1051 -824 0
570 -35 0
-794 760 0
1023 729 0
-823 -302 0
39 -438 0
397 800 0
-327 359 0
-739 440 0
-1000 954 0
1001 -993 0
859 -996 0
891 893 0
-907 -1018 0
-105 580 0
-117 570 0
458 -911 0
-98 186 0
-494 -961 0
483 327 0
544 -774 0
-213 -200 0
-793 -461 0
-147 -88 0
354 -358 0
43 -444 0
-168 -331 0
913 292 0
299 708 0
-573 -523 0
1019 136 0
87 -503 0
646 48 0
277 373 0
608 -763 0
488 471 0
940 -669 0
717 681 0
867 -524 0
142 787 0
-112 773 0
-132 247 0
852 59 0
306 297 0
-44 -19 0
-87 887 0
-524 -488 0
-208 -564 0
-159 671 0
220 -936 0
-663 704 0
-829 -731 0
-865 380 0
861 -175 0
-260 663 0
-160 513 0
-1071 -571 0
374 957 0
242 192 0
-842 514 0
-112 -932 0
-30 161 0
-205 -623 0
717 772 0
638 502 0
826 -402 0
12 -429 0
308 688 0
1011 186 0
1030 -531 0
-59 -1043 0
788 -256 0
-871 -1026 0
516 524 0
102 -912 0
-984 -990 0
814 -1019 0
-458 512 0
867 -524 0
-312 637 0
110 1067 0
973 -583 0
-489 -482 0
-301 118 0
732 -495 0
233 -47 0
-827 985 0
254 396 0
666 -19 0
-349 30 0
1065 -385 0
-588 -276 0
394 -291 0
-640 -743 0
-614 475 0
-786 -170 0
-895 723 0
624 616 0
930 -1028 0
204 433 0
-371 -499 0
-1054 855 0
-649 809 0
-881 450 0
230 3 0
-621 -728 0
-311 -314 0
795 902 0
-659 -1022 0
-545 253 0
535 848 0
-358 42 0
285 -417 0
15 585 0
-296 86 0
487 837 0
21 885 0
-697 -528 0
331 544 0
-332 533 0
-667 -463 0
-321 -49 0
-334 985 0
57 -279 0
-1022 -185 0
-358 -332 0
852 -157 0
-659 -135 0
-129 -965 0
502 956 0
593 -643 0
-1049 712 0
435 508 0
207 -746 0
-312 446 0
36 835 0
231 912 0
-33 252 0
-921 -239 0
-695 915 0
-326 -481 0
-204 81 0
161 -765 0
606 232 0
-836 -57 0
-1020 -716 0
688 84 0
-862 -777 0
-731 243 0
303 631 0
463 26 0
-310 5 0
873 -797 0
-1073 662 0
742 381 0
737 835 0
709 -1042 0
959 -46 0
400 -660 0
-289 744 0
-409 249 0
-10 262 0
618 -321 0
-75 854 0
-624 -729 0
-476 -559 0
377 -281 0
232 -395 0
965 -509 0
321 303 0
-989 838 0
896 -551 0
838 -916 0
729 320 0
-170 -332 0
83 -652 0
-369 -526 0
297 -1026 0
-172 530 0
-143 380 0
4 -204 0
-268 -688 0
-715 277 0
547 931 0
-976 -395 0
271 -913 0
839 85 0
531 -584 0
-1051 207 0
-391 192 0
928 -691 0
-163 -695 0
-146 616 0
-824 -543 0
-989 -774 0
449 -668 0
640 591 0
-534 446 0
785 -225 0
-912 -625 0
-806 884 0
888 443 0
915 -748 0
-201 733 0
582 114 0
217 -928 0
51 -113 0
-162 -270 0
-227 804 0
547 184 0
-528 401 0
845 38 0
-568 766 0
809 -648 0
-69 -919 0
716 -724 0
-626 -115 0
-400 -818 0
561 630 0
254 -376 0
-179 -461 0
418 581 0
838 585 0
602 -942 0
-841 671 0
158 -386 0
250 -1037 0
-1073 1048 0
170 518 0
-289 -3 0
1075 465 0
-556 374 0
-67 -938 0
-377 554 0
-943 -31 0
625 -932 0
-775 -1016 0
42 261 0
-928 311 0
-909 -213 0
-640 -711 0
-663 110 0
-459 -1036 0
-105 -567 0
270 -767 0
-642 -235 0
266 -806 0
-862 -562 0
1067 847 0
-348 374 0
1018 253 0
-454 -269 0
-680 -726 0
-290 618 0
-791 -978 0
-705 -383 0
-1079 830 0
-499 -220 0
12 1075 0
-438 -1036 0
903 -848 0
-929 -964 0
237 -794 0
907 -548 0
-72 575 0
-211 -319 0
456 -189 0
199 -819 0
307 -853 0
858 -259 0
-267 911 0
-159 -231 0
751 440 0
-967 430 0
798 234 0
814 324 0
47 426 0
918 -290 0
496 1068 0
-655 -244 0
-1008 619 0
-1061 -916 0
-695 -918 0
-225 -486 0
682 -853 0
-536 1046 0
-917 732 0
16 242 0
983 139 0
-444 107 0
-14 821 0
-632 221 0
471 713 0
-442 994 0
809 -659 0
-368 -419 0
-370 -236 0
-292 -225 0
-138 119 0
-989 -634 0
506 597 0
-1030 205 0
-202 -618 0
676 220 0
382 -76 0
249 -435 0
109 -794 0
701 -289 0
-270 546 0
-638 -389 0
-1051 219 0
-471 394 0
-722 246 0
778 919 0
-369 -909 0
-459 697 0
113 477 0
-1073 810 0
-350 345 0
204 -71 0
173 -526 0
-1072 -739 0
233 -47 0
-1008 -834 0
-1078 906 0
-170 1071 0
716 736 0
-144 597 0
978 203 0
693 390 0
703 3 0
334 -98 0
70 -225 0
887 -597 0
-244 -359 0
96 -35 0
-675 -634 0
845 334 0
365 -936 0
403 -965 0
77 -690 0
-1061 246 0
-358 594 0
138 -1080 0
970 383 0
-211 -155 0
852 -358 0
-178 -306 0
-1004 -872 0
925 -485 0
-813 864 0
235 -107 0
114 93 0
1018 176 0
247 -60 0
750 31 0
-96 -286 0
-46 -524 0
-215 -66 0
-634 -995 0
373 733 0
-467 414 0
107 1037 0
530 180 0
-21 -115 0
757 -863 0
-95 -757 0
702 585 0
-356 26 0
-332 217 0
-227 798 0
-829 408 0
-1052 -845 0
-31 -162 0
-797 -39 0
-812 -827 0
930 -618 0
-221 -1026 0
1048 146 0
-566 -326 0
-20 -255 0
36 -597 0
-377 -431 0
547 664 0
1053 -361 0
-918 -987 0
-394 -415 0
-999 -355 0
483 1067 0
14 1013 0
722 -432 0
310 -80 0
657 43 0
937 401 0
-1079 458 0
-502 348 0
904 -762 0
-98 515 0
18 -775 0
-877 905 0
167 131 0
-649 -699 0
878 -812 0
-522 -452 0
-593 -442 0
237 -999 0
-242 -70 0
310 395 0
442 -739 0
988 216 0
234 -932 0
864 -754 0
57 999 0
617 -549 0
648 811 0
364 410 0
445 -433 0
412 -274 0
-817 103 0
-159 181 0
-1058 -94 0
219 314 0
-46 -601 0
-476 851 0
-8 -551 0
830 883 0
-204 -650 0
788 -831 0
-1070 -425 0
-190 482 0
1003 230 0
134 930 0
-384 217 0
-197 -328 0
831 -453 0
412 426 0
-737 -630 0
-503 959 0
738 -113 0
379 732 0
-838 -222 0
238 807 0
-148 269 0
-714 -357 0
338 569 0
768 482 0
197 -275 0
389 872 0
906 554 0
-959 553 0
126 391 0
1029 -309 0
-929 -288 0
66 -777 0
-712 -470 0
-437 -669 0
-343 -524 0
316 811 0
-983 -1064 0
-524 -219 0
374 -423 0
1057 -301 0
-881 -615 0
96 262 0
-681 -241 0
1 260 0
-139 206 0
780 -680 0
754 -278 0
315 -353 0
-17 -528 0
823 885 0
-307 -963 0
978 739 0
1036 -588 0
395 300 0
-263 -422 0
419 210 0
650 -594 0
-430 259 0
-87 809 0
-281 -891 0
155 -596 0
-751 -215 0
-694 -425 0
-890 138 0
675 -54 0
204 906 0
-608 504 0
-779 574 0
661 176 0
-1071 -540 0
-196 495 0
-150 -1004 0
12 541 0
-877 930 0
-599 -105 0
1003 44 0
-559 -263 0
-288 -494 0
-932 -282 0
-283 537 0
849 919 0
758 -881 0
-769 -649 0
153 -7 0
-542 750 0
452 -941 0
1003 304 0
600 494 0
-158 365 0
527 -21 0
-7 579 0
-942 -593 0
256 407 0
-184 1057 0
-323 1011 0
-278 -824 0
166 -961 0
-108 -939 0
199 221 0
839 -185 0
98 679 0
-417 -134 0
-64 -650 0
667 -840 0
-120 -3 0
-920 -727 0
962 -628 0
-827 58 0
-694 663 0
649 -360 0
622 580 0
-168 -70 0
656 -64 0
-1014 -92 0
-531 -268 0
-371 -244 0
-65 26 0
97 -992 0
-859 -474 0
-79 81 0
-25 216 0
237 -222 0
229 -598 0
888 -257 0
-927 -165 0
-382 -186 0
1079 135 0
-478 -623 0
-909 456 0
-354 -305 0
1039 -326 0
-1041 -980 0
457 58 0
-338 827 0
-96 -997 0
-688 -814 0
-690 109 0
314 -621 0
-988 -996 0
860 106 0
673 772 0
-433 606 0
893 138 0
941 536 0
123 373 0
-479 -328 0
-783 -136 0
43 -980 0
-971 -999 0
-126 767 0
459 189 0
194 -487 0
-416 556 0
728 -860 0
-710 -613 0
724 106 0
1049 -148 0
787 -405 0
307 -67 0
-686 738 0
615 -797 0
-311 -275 0
-714 -171 0
-362 -97 0
-187 -42 0
842 -344 0
117 -265 0
501 -763 0
-983 48 0
181 520 0
-351 149 0
832 -368 0
1041 -175 0
-145 -454 0
-844 385 0
-653 373 0
787 -128 0
717 716 0
237 1056 0
-121 -747 0
-865 -225 0
845 -732 0
847 -989 0
865 510 0
867 487 0
-926 653 0
747 -752 0
-689 611 0
-472 203 0
-733 161 0
-534 258 0
986 -188 0
528 994 0
-813 365 0
-344 946 0
-863 231 0
923 -857 0
-746 -669 0
-950 -163 0
465 380 0
279 485 0
157 -396 0
403 103 0
-643 -990 0
-165 824 0
553 78 0
-39 -990 0
-189 693 0
-465 -444 0
248 184 0
209 -593 0
-619 555 0
94 231 0
374 998 0
-206 -204 0
776 -1045 0
-430 983 0
561 -909 0
-220 1030 0
-678 -894 0
401 875 0
102 679 0
211 938 0
-829 -578 0
-892 1074 0
-631 -813 0
73 107 0
622 937 0
350 -294 0
624 -71 0
-626 -647 0
-1073 -239 0
-799 -871 0
-802 -423 0
469 -63 0
-892 -182 0
-557 -979 0
394 150 0
322 319 0
-1051 -760 0
361 790 0
-444 -133 0
-437 975 0
754 601 0
531 -494 0
599 501 0
-1024 -465 0
-981 553 0
-997 -76 0
262 -942 0
-305 -841 0
312 -27 0
-222 -190 0
-1078 700 0
934 -37 0
-349 561 0
-53 -870 0
981 -442 0
177 -618 0
662 483 0
162 -280 0
102 707 0
-641 1047 0
6 -563 0
-120 -448 0
-850 581 0
1067 965 0
-72 -437 0
982 -567 0
886 -865 0
890 782 0
-1014 -51 0
-925 -892 0
-1012 -823 0
-482 441 0
-691 601 0
-526 536 0
-521 -556 0
-336 -229 0
-664 -608 0
962 -410 0
171 -761 0
-396 957 0
-735 925 0
972 952 0
586 -513 0
21 -386 0
335 -641 0
-753 137 0
-986 719 0
958 -964 0
-1036 702 0
-960 -116 0
-397 342 0
-147 368 0
-165 -501 0
-592 464 0
-228 716 0
728 -829 0
-667 -177 0
-597 193 0
-164 407 0
217 -97 0
-147 -576 0
713 -490 0
724 1079 0
-317 -114 0
467 102 0
-727 -58 0
585 -200 0
-13 -778 0
-456 -336 0
346 563 0
201 938 0
-138 924 0
1046 -1073 0
-316 518 0
-1022 -995 0
-640 -389 0
-487 -990 0
431 -349 0
-43 374 0
-54 313 0
-226 508 0
-319 69 0
-833 752 0
-797 -245 0
735 -997 0
-1078 190 0
539 952 0
-202 5 0
756 959 0
439 -108 0
57 -38 0
-689 -156 0
109 52 0
-946 -442 0
241 -164 0
-35 98 0
-816 889 0
364 773 0
-522 -1077 0
-812 -69 0
-497 942 0
104 904 0
803 49 0
-353 758 0
530 758 0
-817 -990 0
-470 -213 0
776 385 0
-552 -674 0
455 -102 0
-1070 435 0
-1060 579 0
-729 1035 0
-333 582 0
1034 -318 0
-247 538 0
-395 434 0
-799 138 0
365 -127 0
854 163 0
599 1029 0
-423 -631 0
1030 -754 0
716 925 0
1027 863 0
-16 177 0
987 169 0
-337 370 0
199 -104 0
78 -924 0
-228 94 0
-749 -630 0
270 -1043 0
954 -362 0
136 -286 0
-7 -336 0
107 -971 0
772 -735 0
606 1061 0
-68 873 0
531 70 0
891 -792 0
495 -38 0
-491 -873 0
918 468 0
-147 791 0
-765 641 0
803 -438 0
-641 335 0
715 -162 0
-165 -1073 0
-1019 -33 0
650 -641 0
-916 -26 0
-578 -596 0
-382 846 0
818 443 0
-484 584 0
925 -364 0
991 427 0
106 -121 0
-598 852 0
706 345 0
1046 -35 0
508 -917 0
-447 203 0
-354 186 0
1043 -876 0
-206 -187 0
-956 533 0
-69 267 0
639 -1018 0
-497 658 0
-370 -933 0
911 -899 0
-142 1003 0
-246 -1018 0
994 937 0
-559 1034 0
-607 -415 0
-162 852 0
527 -566 0
616 374 0
-603 -1024 0
561 192 0
577 -672 0
-460 -834 0
-1031 265 0
-636 885 0
-603 -528 0
-268 -929 0
-178 517 0
-708 297 0
745 -99 0
554 559 0
97 904 0
394 593 0
375 -730 0
-692 -687 0
-65 1039 0
-204 -753 0
780 -946 0
-920 636 0
-873 -479 0
-953 -760 0
701 -67 0
-291 -545 0
-726 -756 0
876 480 0
385 -886 0
-448 196 0
777 759 0
363 -841 0
-269 208 0
-1018 684 0
-861 -421 0
-644 475 0
840 1010 0
-286 -955 0
-77 558 0
-720 -721 0
179 -1046 0
53 295 0
-71 479 0
572 -859 0
-638 652 0
811 -499 0
-281 -32 0
998 893 0
426 -12 0
-812 169 0
-499 -60 0
206 479 0
50 464 0
-835 352 0
612 14 0
-760 441 0
117 -982 0
991 818 0
-469 -829 0
-418 403 0
25 -632 0
428 832 0
679 -877 0
267 50 0
-217 -492 0
-222 -49 0
648 -431 0
-736 258 0
47 1053 0
-432 -941 0
931 -829 0
-766 997 0
-7 -278 0
-577 457 0
249 -688 0
-321 -98 0
95 203 0
776 533 0
-255 -505 0
1054 -1013 0
948 1069 0
267 -182 0
-944 -210 0
380 -97 0
520 -164 0
263 -659 0
535 1003 0
-1042 87 0
392 -291 0
744 -481 0
-130 -233 0
-448 -544 0
-458 101 0
31 1059 0
-916 -643 0
89 394 0
541 -577 0
-614 -846 0
405 -354 0
403 -673 0
-891 -135 0
-778 4 0
-680 592 0
-371 -420 0
370 873 0
-371 -942 0
73 -967 0
1038 680 0
-341 610 0
301 330 0
715 -606 0
944 274 0
970 -672 0
-481 -259 0
-407 -291 0
-730 -343 0
179 1034 0
809 378 0
509 -584 0
-979 636 0
-854 210 0
-682 901 0
279 -818 0
-914 933 0
-584 615 0
-807 748 0
1045 -325 0
487 685 0
367 -171 0
143 536 0
231 -924 0
141 772 0
389 -441 0
-1000 -191 0
-908 359 0
-479 -483 0
-536 773 0
925 -90 0
-125 331 0
-829 1046 0
-25 -115 0
-133 -652 0
-599 -326 0
-468 -844 0
-968 468 0
-887 -481 0
810 -377 0
-812 -19 0
-489 503 0
1010 502 0
-218 247 0
-721 -438 0
679 664 0
-422 126 0
-316 862 0
-293 675 0
369 878 0
-538 -340 0
671 828 0
-741 -354 0
-769 406 0
394 -714 0
70 522 0
140 234 0
-733 -125 0
221 -1069 0
292 -851 0
-620 178 0
539 -350 0
15 -857 0
-718 402 0
-225 769 0
199 229 0
269 -652 0
-849 636 0
-727 -850 0
978 -692 0
485 152 0
89 -953 0
-932 -199 0
833 -739 0
712 -305 0
1015 -615 0
782 435 0
879 -415 0
-485 -1023 0
-625 -414 0
-259 1038 0
472 -400 0
-1002 -35 0
-653 208 0
-69 -353 0
-201 -998 0
604 -848 0
834 -742 0
249 -292 0
237 -613 0
-761 693 0
498 895 0
-239 483 0
-494 -485 0
-355 -834 0
1032 450 0
-873 -680 0
-694 -834 0
712 944 0
163 -390 0
716 952 0
560 9 0
-508 435 0
-391 -523 0
341 1042 0
221 133 0
-525 579 0
1001 785 0
163 -225 0
-66 220 0
-794 -233 0
106 -1039 0
-499 338 0
-9 501 0
-1031 -307 0
114 901 0
1055 1010 0
767 -543 0
-489 -1006 0
-871 551 0
821 -1005 0
-1036 610 0
990 -1026 0
952 332 0
-165 741 0
736 -440 0
-926 -841 0
26 610 0
950 135 0
780 -910 0
412 -641 0
-426 -75 0
874 955 0
537 -493 0
707 331 0
-207 -440 0
-53 798 0
-803 468 0
-288 -255 0
-963 -304 0
420 -999 0
-34 -426 0
-325 789 0
911 -864 0
759 -472 0
-265 -259 0
-456 30 0
537 819 0
-187 230 0
795 411 0
-13 -644 0
1015 -158 0
-317 1035 0
-649 -600 0
919 -371 0
-150 -462 0
702 135 0
-282 -321 0
-658 -105 0
710 -623 0
1001 294 0
-795 -156 0
1042 -832 0
931 -439 0
-306 -560 0
203 342 0
-725 1002 0
563 -791 0
-549 -498 0
248 -910 0
855 990 0
283 193 0
468 179 0
535 -595 0
106 374 0
-1053 304 0
631 1003 0
444 -327 0
-332 -928 0
655 -667 0
-11 906 0
272 734 0
798 1002 0
630 -291 0
31 848 0
1074 -973 0
551 914 0
-845 206 0
-13 -598 0
354 -368 0
-405 -598 0
-503 483 0
212 -945 0
737 -595 0
-870 101 0
-202 184 0
500 1022 0
-113 -94 0
-524 -383 0
-647 675 0
-607 415 0
262 483 0
681 815 0
-637 -223 0
-726 754 0
-1077 -709 0
441 486 0
314 -546 0
909 37 0
-155 798 0
-421 1 0
-1019 834 0
-941 -777 0
-69 -256 0
-33 -351 0
118 464 0
-224 -454 0
-273 553 0
-859 938 0
-672 382 0
-273 -45 0
-282 -839 0
843 -727 0
109 -189 0
-435 -528 0
-228 -3 0
904 865 0
-726 -84 0
1042 622 0
532 -19 0
568 -182 0
360 637 0
677 673 0
277 -31 0
-1012 -599 0
-670 -285 0
-151 905 0
-599 997 0
-546 -1017 0
915 353 0
-76 1023 0
-617 -634 0
43 575 0
98 -466 0
551 -1015 0
1046 164 0
299 237 0
956 -691 0
866 353 0
-354 -992 0
-409 408 0
-306 827 0
-634 480 0
892 -213 0
-1049 -777 0
-92 -779 0
540 274 0
-556 -674 0
-577 834 0
-560 -753 0
-121 -537 0
240 -361 0
-246 900 0
-524 -148 0
280 620 0
935 516 0
-350 683 0
-163 -914 0
709 -821 0
-695 381 0
-420 -69 0
428 -573 0
343 689 0
553 490 0
-172 536 0
-430 304 0
-859 -141 0
883 254 0
252 -147 0
-525 -774 0
-988 384 0
1054 -105 0
-649 -504 0
-323 790 0
-302 -1022 0
-699 -930 0
865 -185 0
-487 -482 0
-141 -581 0
-439 1013 0
-977 305 0
-132 676 0
-268 675 0
-948 -178 0
-20 -750 0
901 251 0
1018 -347 0
319 -32 0
237 -130 0
-850 421 0
-980 766 0
-390 1006 0
-741 112 0
-470 -752 0
-665 -809 0
-1040 -857 0
-638 943 0
869 42 0
716 513 0
28 763 0
-858 310 0
135 935 0
-211 -269 0
426 -744 0
837 916 0
898 697 0
904 1031 0
684 597 0
-388 -389 0
586 -918 0
199 676 0
258 -305 0
118 792 0
122 1033 0
-737 542 0
-113 547 0
346 -108 0
-56 28 0
805 -55 0
752 -652 0
1051 766 0
-820 1021 0
978 -909 0
403 -884 0
-1005 -716 0
-102 137 0
-670 283 0
-983 181 0
84 -357 0
-799 841 0
640 -958 0
-962 878 0
70 1008 0
-660 541 0
716 1024 0
262 800 0
-1001 -264 0
910 -141 0
-980 -111 0
55 -136 0
89 694 0
-364 -1004 0
-182 530 0
-756 -482 0
-127 810 0
954 530 0
-509 -976 0
-613 366 0
-946 -737 0
-211 608 0
1011 -634 0
-815 743 0
890 -400 0
-879 968 0
179 -1011 0
-779 -465 0
109 -476 0
-372 -778 0
1022 -1012 0
-25 771 0
313 -472 0
-432 -449 0
39 -177 0
-434 714 0
-398 958 0
-447 991 0
-964 -451 0
60 847 0
-629 6 0
-674 37 0
-291 887 0
-211 618 0
322 968 0
-1037 -546 0
-967 -319 0
830 -925 0
455 32 0
-461 -998 0
584 -943 0
-96 536 0
412 -1036 0
106 280 0
480 -336 0
558 -614 0
240 -38 0
-753 361 0
-449 -97 0
-722 -41 0
-614 -244 0
950 401 0
-586 31 0
856 -705 0
962 -652 0
-971 19 0
369 661 0
-1039 -573 0
931 -531 0
55 -145 0
-214 1011 0
269 -124 0
-489 528 0
105 95 0
-725 -698 0
28 422 0
-66 -377 0
-176 -52 0
-1044 1067 0
-674 608 0
-121 412 0
-58 -462 0
764 715 0
231 719 0
782 -338 0
-150 -450 0
-596 -162 0
-965 -329 0
-654 171 0
-780 -365 0
139 -951 0
960 -580 0
620 -650 0
189 369 0
616 1039 0
852 -1059 0
506 -374 0
28 -862 0
705 1013 0
385 939 0
-834 297 0
-1062 763 0
535 -537 0
769 703 0
-408 768 0
949 -691 0
-548 422 0
-333 1041 0
-770 -943 0
-58 1068 0
845 -164 0
221 -742 0
604 -908 0
-536 -779 0
115 -557 0
-289 166 0
-245 521 0
740 66 0
-245 -159 0
380 -301 0
506 28 0
-405 179 0
246 -332 0
109 832 0
-48 -689 0
-503 -971 0
981 165 0
-536 893 0
-437 302 0
-149 1079 0
-592 -565 0
773 312 0
767 -643 0
147 418 0
507 -522 0
-882 -668 0
-182 -1067 0
-746 -905 0
-367 690 0
-737 -2 0
194 683 0
749 456 0
29 -643 0
-1026 -742 0
-421 468 0
-690 838 0
-504 488 0
-112 -856 0
-966 701 0
-169 -511 0
-595 -637 0
19 -877 0
1050 -618 0
456 791 0
162 267 0
879 957 0
1008 -882 0
-416 -375 0
-689 -929 0
-658 584 0
996 -351 0
315 -478 0
-42 539 0
-321 618 0
-306 -818 0
988 821 0
691 -244 0
31 1071 0
-265 273 0
991 -275 0
906 343 0
-328 -289 0
1048 -323 0
-943 -122 0
-550 -116 0
-577 -424 0
1064 961 0
6 -147 0
907 176 0
-637 110 0
403 -907 0
270 3 0
-294 758 0
405 358 0
-245 -541 0
48 854 0
514 189 0
-489 -881 0
-989 -160 0
600 -326 0
-414 -415 0
157 -797 0
-573 691 0
-528 559 0
-322 -865 0
623 -96 0
-557 -343 0
493 -1021 0
-700 937 0
-932 56 0
-745 950 0
325 -618 0
50 217 0
-746 404 0
-534 610 0
-678 461 0
-128 118 0
991 59 0
-673 -360 0
-117 249 0
-238 -281 0
405 788 0
-865 209 0
-879 -198 0
-987 1074 0
-980 1067 0
-865 -353 0
793 -360 0
618 247 0
-861 141 0
813 -21 0
766 785 0
476 579 0
-417 551 0
1030 -674 0
-198 -141 0
-388 -316 0
-18 -484 0
918 626 0
-1069 385 0
955 199 0
540 -218 0
-746 1015 0
736 139 0
170 748 0
541 505 0
883 690 0
-976 -715 0
582 359 0
-679 -150 0
-799 -908 0
856 -1026 0
-498 179 0
-262 -894 0
-674 -289 0
140 348 0
956 563 0
-753 997 0
831 380 0
677 -867 0
865 -846 0
-615 -456 0
541 229 0
-273 -1061 0
679 959 0
-1009 791 0
-5 -360 0
-306 -565 0
713 -1077 0
-760 -880 0
-283 -83 0
404 679 0
635 594 0
-479 478 0
743 -522 0
-788 930 0
-1021 831 0
279 627 0
-909 280 0
287 -430 0
922 619 0
402 -15 0
861 -14 0
149 -707 0
-801 -772 0
-1037 483 0
-545 759 0
-310 -823 0
155 177 0
405 -492 0
-496 -302 0
371 530 0
-204 760 0
323 -761 0
-111 508 0
628 950 0
-1068 -876 0
-15 -539 0
137 -634 0
-711 -34 0
143 -23 0
-1063 -584 0
773 982 0
48 -291 0
887 1002 0
373 -859 0
-641 994 0
-665 -189 0
651 -1032 0
443 420 0
165 677 0
32 970 0
267 -696 0
206 -449 0
-757 -411 0
-228 -108 0
-641 -86 0
1035 -675 0
903 -1019 0
39 603 0
-361 469 0
939 -841 0
873 -665 0
114 -936 0
337 412 0
386 -607 0
-881 -932 0
299 -631 0
148 502 0
1065 -645 0
-311 945 0
-358 -795 0
538 1076 0
880 -562 0
843 -360 0
-584 -867 0
6 490 0
-952 -170 0
506 554 0
84 -127 0
214 315 0
-715 -574 0
1030 423 0
-876 -660 0
918 -389 0
-170 653 0
-1021 -2 0
801 -654 0
720 -98 0
-930 194 0
-794 -654 0
764 464 0
443 -503 0
-1012 -184 0
292 -209 0
-721 1016 0
-652 -379 0
1068 519 0
555 860 0
750 -624 0
934 -547 0
-940 295 0
1015 119 0
781 -485 0
496 972 0
637 568 0
-972 517 0
460 -104 0
1046 -957 0
-674 -562 0
-282 -519 0
-734 -272 0
-595 531 0
135 77 0
467 -163 0
551 -44 0
929 469 0
297 -32 0
-225 -345 0
380 1 0
365 1009 0
271 622 0
134 -675 0
-141 -383 0
1026 412 0
-908 -621 0
193 -255 0
-119 -1005 0
851 -162 0
138 202 0
-53 401 0
487 -104 0
-8 1064 0
-497 -543 0
-1055 707 0
-399 -432 0
-412 -992 0
888 -871 0
-319 214 0
-417 652 0
-300 781 0
315 -263 0
-689 617 0
-224 785 0
-613 -949 0
-647 -1071 0
-917 -438 0
-286 63 0
-839 436 0
518 955 0
963 -123 0
931 556 0
-98 -277 0
496 -840 0
639 843 0
921 512 0
161 -64 0
-999 950 0
-996 41 0
-465 -534 0
-643 87 0
-763 167 0
-369 -540 0
-365 343 0
561 -349 0
-465 696 0
-792 -954 0
134 -263 0
769 899 0
179 303 0
-698 694 0
-629 546 0
-475 -725 0
-171 -431 0
-608 1061 0
561 -814 0
622 1029 0
-871 576 0
235 47 0
538 574 0
208 -229 0
1065 -196 0
651 -125 0
-375 -63 0
9 -711 0
751 -479 0
-182 -915 0
-640 1079 0
-817 90 0
637 -293 0
-115 456 0
414 748 0
253 418 0
-503 -1011 0
-263 177 0
861 -46 0
-63 -125 0
-7 -395 0
-451 193 0
207 585 0
435 -919 0
962 -727 0
403 140 0
-786 -275 0
-27 317 0
-779 51 0
934 -781 0
-535 1059 0
185 322 0
-775 708 0
-66 -588 0
-225 -541 0
-317 79 0
-364 612 0
-897 -522 0
579 -782 0
-357 963 0
51 651 0
-503 320 0
-1000 784 0
-421 -549 0
617 -428 0
792 51 0
125 -588 0
-357 -235 0
-206 -666 0
431 441 0
-456 -559 0
893 803 0
-640 882 0
131 -929 0
767 -546 0
-1073 -597 0
-572 -1070 0
-562 601 0
468 -630 0
-384 311 0
-504 662 0
-614 -649 0
-11 -113 0
639 54 0
513 918 0
1061 -751 0
339 497 0
-1013 -112 0
-151 -5 0
1054 609 0
-705 607 0
-609 -654 0
-870 -335 0
-580 230 0
-553 637 0
-1063 -291 0
807 -531 0
39 -456 0
-230 192 0
-494 -444 0
-747 558 0
464 -963 0
-329 -556 0
1019 530 0
-694 -45 0
-698 751 0
-969 238 0
-889 -506 0
113 -345 0
-787 587 0
154 298 0
200 537 0
-850 -786 0
164 -876 0
-892 385 0
-1057 -402 0
508 868 0
-1019 126 0
270 509 0
-739 561 0
-643 -1024 0
878 298 0
143 -99 0
457 -201 0
-75 318 0
995 -112 0
111 -236 0
-631 -788 0
827 -976 0
-272 656 0
922 -29 0
-661 764 0
-188 248 0
-566 298 0
-1016 -1023 0
327 -289 0
981 1047 0
915 -372 0
788 770 0
68 696 0
-260 -220 0
978 -724 0
342 461 0
-276 -886 0
-23 -871 0
-404 -923 0
-899 -819 0
-565 -663 0
-619 -559 0
-184 -988 0
809 554 0
-332 1025 0
93 -227 0
-82 89 0
-867 513 0
-863 -682 0
606 -701 0
883 -481 0
558 570 0
706 790 0
613 -660 0
54 -628 0
568 36 0
887 292 0
381 -1035 0
-336 365 0
-798 -425 0
16 161 0
-448 6 0
-614 300 0
-914 772 0
-692 433 0
-228 1010 0
477 651 0
533 1041 0
-627 -883 0
-592 595 0
768 -402 0
251 351 0
466 -823 0
958 262 0
55 -317 0
-522 -413 0
431 460 0
-177 -799 0
-41 258 0
986 314 0
-53 207 0
-66 -45 0
-69 -774 0
956 -174 0
636 987 0
1034 -726 0
-1051 -724 0
-835 -863 0
-190 346 0
-956 343 0
612 -175 0
-340 -541 0
-353 -907 0
242 246 0
-789 826 0
434 398 0
-289 135 0
111 -52 0
311 300 0
-127 -437 0
235 439 0
-415 70 0
849 335 0
-379 -940 0
1024 -425 0
713 -212 0
445 864 0
1075 -999 0
764 -474 0
538 446 0
759 -104 0
237 -958 0
-511 -1043 0
-417 -621 0
-175 714 0
560 -187 0
697 130 0
878 -720 0
-24 -491 0
-509 -1071 0
6 42 0
644 -565 0
442 480 0
-1052 409 0
898 -945 0
332 237 0
645 -414 0
1027 -442 0
-840 -571 0
769 -894 0
-484 1047 0
-733 882 0
-808 -519 0
733 -669 0
137 232 0
663 -484 0
152 189 0
984 1002 0
992 -647 0
-175 -789 0
388 -943 0
956 -1052 0
-796 370 0
1047 770 0
-966 -572 0
704 893 0
-995 1065 0
-792 -606 0
50 1048 0
1015 -506 0
724 282 0
618 206 0
270 472 0
-440 -27 0
-960 -237 0
-165 -207 0
120 595 0
1075 527 0
949 1039 0
-414 257 0
-268 1078 0
525 -470 0
-790 284 0
-819 893 0
-757 409 0
103 -366 0
-1032 111 0
28 -255 0
4 -37 0
506 -61 0
-215 333 0
749 -960 0
-66 29 0
-294 803 0
-290 -344 0
994 778 0
660 619 0
-294 868 0
-587 781 0
589 206 0
17 -129 0
-599 897 0
83 -762 0
-442 -150 0
-640 -657 0
-617 -783 0
397 -1021 0
-829 77 0
942 -424 0
944 180 0
639 1062 0
378 -96 0
-255 551 0
-860 -452 0
208 322 0
-966 707 0
-45 -1034 0
-81 -501 0
1034 -775 0
-780 617 0
904 -694 0
362 793 0
539 -677 0
-960 -244 0
-466 -1023 0
205 73 0
1005 -892 0
851 -271 0
-125 210 0
-159 -733 0
-217 719 0
-953 377 0
46 -489 0
177 -64 0
197 -581 0
-340 -693 0
-927 -531 0
-745 -382 0
809 -64 0
-653 -46 0
36 -991 0
-795 401 0
-567 -1031 0
-1021 602 0
394 -525 0
-644 458 0
-827 -440 0
-295 202 0
-196 597 0
376 738 0
-283 -466 0
-567 -566 0
805 -434 0
-136 770 0
597 -334 0
-923 1020 0
229 503 0
714 -665 0
77 -440 0
-699 750 0
-255 -911 0
-316 849 0
604 590 0
94 -498 0
-570 -165 0
-577 157 0
404 119 0
-647 729 0
286 31 0
-824 -1068 0
240 1047 0
-603 541 0
728 -710 0
-202 653 0
744 694 0
-242 -421 0
849 -396 0
-45 -711 0
-382 -1052 0
-115 -68 0
108 405 0
719 -655 0
81 -168 0
-280 -920 0
357 -255 0
10 883 0
664 -246 0
-584 169 0
-815 194 0
-454 -675 0
-1004 772 0
1074 -851 0
415 978 0
-707 361 0
-228 -97 0
-482 163 0
-791 1059 0
-950 764 0
-35 -449 0
-916 160 0
762 -227 0
-158 -296 0
338 -772 0
157 -341 0
-1006 914 0
425 -977 0
627 -1060 0
-678 -190 0
684 759 0
41 206 0
342 62 0
279 -416 0
414 1059 0
-779 -523 0
330 -413 0
-364 -765 0
-566 143 0
1050 171 0
468 358 0
-542 713 0
73 515 0
-823 -206 0
-213 479 0
-655 -439 0
205 1005 0
589 160 0
1052 681 0
-992 253 0
703 503 0
-482 641 0
-206 -509 0
-818 -1054 0
539 457 0
947 467 0
-462 846 0
975 206 0
-321 -609 0
-1006 -44 0
73 -763 0
-705 949 0
-832 -349 0
-881 -983 0
1055 407 0
172 971 0
457 627 0
-599 919 0
759 211 0
880 609 0
441 -392 0
-941 800 0
764 -764 0
144 -215 0
434 -120 0
200 231 0
-669 -189 0
205 -687 0
-1045 -640 0
527 88 0
-655 507 0
-159 851 0
713 -899 0
-273 314 0
862 -987 0
-767 -280 0
106 515 0
126 1056 0
588 -630 0
-112 -1024 0
-440 479 0
-652 84 0
-492 -36 0
-599 -240 0
-839 -937 0
-777 267 0
282 -12 0
279 916 0
-806 -525 0
-420 835 0
370 -688 0
-58 495 0
43 -464 0
475 -731 0
-838 938 0
956 -187 0
639 651 0
-1078 401 0
-637 -34 0
-1076 -640 0
-722 861 0
540 -684 0
42 445 0
900 -1066 0
594 450 0
609 -470 0
-691 252 0
654 -941 0
793 648 0
-863 877 0
407 -509 0
329 711 0
813 -953 0
675 -632 0
326 -263 0
-625 857 0
975 1002 0
40 114 0
87 -255 0
1059 -24 0
-263 907 0
374 -32 0
-205 -430 0
338 827 0
1079 637 0
-599 -630 0
-274 212 0
677 -555 0
-219 -123 0
427 1038 0
950 -286 0
1059 515 0
-540 961 0
-910 374 0
-118 686 0
-60 1077 0
865 61 0
-438 -354 0
-480 -808 0
895 -129 0
-680 -123 0
-1051 -102 0
-1076 -382 0
-190 941 0
450 -966 0
-377 -1008 0
-1051 1026 0
-154 982 0
764 346 0
-7 -1048 0
216 851 0
343 -632 0
-785 -850 0
-15 -901 0
674 -12 0
484 -794 0
1011 130 0
152 883 0
-718 -866 0
-580 261 0
247 394 0
-486 -245 0
470 251 0
637 -775 0
993 746 0
-15 -920 0
-1020 -954 0
214 719 0
-29 161 0
-223 -272 0
-764 339 0
-481 -716 0
-865 114 0
260 405 0
195 -917 0
-886 487 0
-427 809 0
-794 733 0
-871 -407 0
-90 1080 0
1024 642 0
-588 466 0
367 -739 0
418 494 0
-424 232 0
342 962 0
-422 -984 0
-278 203 0
-82 699 0
482 -496 0
47 803 0
134 735 0
-12 107 0
1022 -1031 0
253 257 0
959 761 0
-573 37 0
951 -556 0
951 -38 0
218 -115 0
637 -610 0
-651 232 0
-530 845 0
1027 76 0
-559 944 0
232 913 0
-731 -1010 0
389 609 0
-449 77 0
-357 -703 0
-756 -417 0
826 530 0
769 445 0
-134 133 0
-462 -673 0
-987 -556 0
-1055 258 0
759 403 0
-939 -701 0
832 -432 0
873 199 0
-271 453 0
-683 604 0
-121 983 0
-31 320 0
89 332 0
-339 -774 0
-333 372 0
200 529 0
-722 649 0
164 -228 0
-272 554 0
-269 -673 0
-523 -829 0
-273 -96 0
221 926 0
-166 1 0
443 349 0
-181 715 0
117 266 0
-363 249 0
-36 582 0
-113 -823 0
300 -306 0
781 185 0
629 999 0
552 -1026 0
-637 1002 0
-439 -252 0
857 152 0
-465 202 0
-660 -635 0
1076 -1031 0
-427 463 0
300 862 0
-593 -98 0
766 612 0
622 -642 0
629 -840 0
-306 397 0
467 -778 0
-302 951 0
137 -140 0
460 -1040 0
184 750 0
-258 -756 0
35 -817 0
-1060 -125 0
1035 788 0
-233 950 0
866 993 0
-424 -660 0
-666 -518 0
743 554 0
-132 -147 0
76 -188 0
691 915 0
327 572 0
533 897 0
