c bounds 35 35
p cnf 235 634
-161 -167 0
88 -47 0
-20 16 0
80 -20 0
74 -161 0
-184 135 0
-15 211 0
-185 -69 0
104 -123 0
-192 185 0
-211 38 0
25 38 0
-219 -196 0
-38 -80 0
-167 158 0
71 -50 0
104 -4 0
-195 -132 0
108 230 0
174 -29 0
-127 -97 0
104 -83 0
76 213 0
11 205 0
213 102 0
-165 -179 0
74 -231 0
137 35 0
-183 195 0
-20 -49 0
-112 -156 0
-107 197 0
49 153 0
-189 -89 0
-68 -168 0
189 50 0
-79 225 0
73 -15 0
-15 83 0
38 149 0
197 234 0
143 -86 0
-200 -20 0
15 -119 0
134 -21 0
142 -200 0
77 19 0
-126 -80 0
-77 189 0
31 10 0
29 149 0
-176 -4 0
1 214 0
-58 205 0
-141 -187 0
-25 -58 0
-83 150 0
159 143 0
-231 -109 0
-1 98 0
90 -17 0
-157 -105 0
143 -62 0
10 73 0
213 -72 0
-165 -15 0
-121 104 0
-124 202 0
-89 73 0
-58 21 0
188 -3 0
123 -210 0
-32 -177 0
183 158 0
215 148 0
230 104 0
-48 -132 0
74 194 0
-98 -186 0
-128 -205 0
-192 158 0
-113 -215 0
78 60 0
43 -217 0
24 -4 0
151 -127 0
-79 146 0
-182 -9 0
55 204 0
-136 213 0
-29 -110 0
-69 154 0
-168 168 0
-26 -76 0
-39 -219 0
196 101 0
-171 124 0
-211 199 0
34 -30 0
82 143 0
218 91 0
-45 91 0
226 91 0
155 -180 0
18 -136 0
32 228 0
5 -23 0
90 180 0
-235 79 0
85 -172 0
-24 -41 0
198 -135 0
-89 -200 0
-186 21 0
225 82 0
-117 -89 0
-107 47 0
-82 -157 0
110 -127 0
-15 -142 0
222 -133 0
-5 -187 0
-100 204 0
-226 169 0
-117 134 0
-4 138 0
-131 11 0
-79 235 0
150 199 0
-183 -43 0
-8 -216 0
-46 -118 0
-22 37 0
142 153 0
-222 -168 0
137 -230 0
171 99 0
38 27 0
74 -166 0
-176 143 0
64 228 0
44 37 0
194 68 0
-105 -1 0
58 -22 0
169 84 0
-208 97 0
234 106 0
-48 -1 0
-230 40 0
-178 122 0
-97 64 0
173 -194 0
-138 -35 0
187 -183 0
-119 222 0
20 135 0
95 149 0
155 218 0
-111 31 0
-177 18 0
-164 -159 0
-70 99 0
-158 -170 0
199 -131 0
-229 -155 0
38 -1 0
-62 98 0
217 -168 0
-11 -117 0
-163 -111 0
123 234 0
-75 -185 0
-154 -58 0
110 -186 0
-212 179 0
-165 199 0
-8 -53 0
127 209 0
-60 169 0
229 -102 0
104 -15 0
172 -132 0
228 73 0
-15 156 0
122 -196 0
22 -69 0
140 41 0
28 94 0
-127 140 0
23 68 0
-84 229 0
54 205 0
44 -185 0
209 -133 0
-119 -216 0
-208 -159 0
-5 -22 0
-92 -46 0
2 -160 0
-170 -118 0
-21 -119 0
4 -114 0
234 -217 0
101 -178 0
-65 33 0
108 -70 0
-47 -39 0
27 -8 0
80 38 0
44 -123 0
-189 158 0
175 124 0
196 -78 0
-51 220 0
52 232 0
202 -187 0
-60 -137 0
16 203 0
-146 153 0
-205 120 0
-230 143 0
121 135 0
-100 175 0
-152 -23 0
158 199 0
-178 167 0
-16 -126 0
-114 -73 0
115 -21 0
91 -35 0
200 168 0
159 -1 0
-5 -151 0
208 -128 0
-185 31 0
-73 196 0
100 -102 0
-193 185 0
-132 -47 0
71 -230 0
2 107 0
176 203 0
-4 -159 0
132 116 0
158 -111 0
-70 209 0
129 218 0
81 -93 0
231 -35 0
230 148 0
151 70 0
173 -56 0
217 42 0
111 171 0
158 -161 0
199 137 0
16 -212 0
-1 -50 0
49 187 0
170 81 0
197 26 0
-25 -23 0
64 -233 0
-208 -143 0
67 54 0
-166 55 0
155 -191 0
-114 201 0
-142 -23 0
-58 122 0
156 228 0
-48 -179 0
-202 -3 0
-184 54 0
-113 54 0
209 -36 0
225 -179 0
155 174 0
-171 -65 0
-110 201 0
-186 -184 0
-103 -165 0
48 -37 0
101 195 0
-194 -105 0
-8 -128 0
227 54 0
140 -62 0
161 179 0
1 36 0
116 -131 0
178 -168 0
-207 137 0
223 210 0
-222 -64 0
89 190 0
-75 -51 0
-97 -110 0
142 -66 0
-174 -211 0
-16 36 0
-193 -7 0
115 178 0
-112 -23 0
-4 74 0
-115 90 0
91 -123 0
-144 -167 0
31 -28 0
-14 209 0
-30 162 0
-59 195 0
-165 47 0
-224 -41 0
163 -192 0
143 118 0
103 -101 0
123 -64 0
-196 -193 0
215 202 0
148 19 0
55 60 0
-117 -149 0
-127 163 0
-102 141 0
188 -199 0
-133 -73 0
233 -30 0
-48 -17 0
-80 137 0
-37 133 0
34 140 0
118 -132 0
-72 -51 0
-215 -189 0
-23 -130 0
-61 -105 0
42 -15 0
-212 -24 0
146 -226 0
168 -161 0
21 -10 0
95 42 0
-220 -175 0
-28 -113 0
-79 90 0
-174 16 0
-92 49 0
-119 -20 0
197 -98 0
143 -223 0
-69 -1 0
78 -100 0
77 -28 0
-183 -84 0
41 167 0
-210 -69 0
100 -65 0
103 -113 0
218 -193 0
221 214 0
39 202 0
-46 -219 0
78 -102 0
84 124 0
-8 223 0
19 185 0
-69 217 0
63 -203 0
-117 -15 0
-111 -224 0
27 -21 0
-212 10 0
110 -1 0
-159 -25 0
-214 -118 0
86 -5 0
-177 232 0
-80 -158 0
-195 31 0
41 144 0
-148 94 0
-87 -224 0
-180 -221 0
16 -170 0
91 -1 0
185 -233 0
218 -39 0
-64 -77 0
135 94 0
21 95 0
213 142 0
-13 218 0
-135 129 0
210 129 0
-192 104 0
195 106 0
205 -180 0
3 -96 0
165 -182 0
-73 96 0
-86 -69 0
205 38 0
103 128 0
-177 -40 0
199 83 0
-109 125 0
-181 -107 0
-154 185 0
142 99 0
182 -105 0
202 -231 0
220 -67 0
30 85 0
104 166 0
79 -145 0
42 -136 0
199 -117 0
-64 68 0
59 205 0
107 -203 0
-43 129 0
-67 -87 0
41 -39 0
-41 -128 0
-75 139 0
125 -207 0
-187 205 0
-163 -160 0
-181 -158 0
-75 27 0
68 -132 0
160 -116 0
-181 134 0
-53 235 0
-156 -141 0
-85 -177 0
-43 148 0
232 150 0
-128 -133 0
-26 -186 0
101 6 0
190 199 0
150 -77 0
31 -48 0
199 -111 0
150 -128 0
105 -64 0
-230 -58 0
-92 -204 0
68 194 0
-186 72 0
-150 -4 0
213 13 0
92 -162 0
43 -26 0
212 140 0
107 -156 0
-224 -183 0
81 235 0
142 -59 0
-145 165 0
-36 7 0
-108 21 0
-227 155 0
186 -230 0
38 -141 0
-105 36 0
173 230 0
-18 -212 0
-21 -230 0
169 27 0
-207 -190 0
181 124 0
125 -109 0
-190 -13 0
169 -202 0
52 133 0
-217 150 0
228 48 0
10 -210 0
-138 -211 0
-66 -101 0
81 74 0
-23 -210 0
94 -187 0
50 130 0
-100 74 0
-73 -224 0
49 -197 0
169 200 0
216 -141 0
128 -24 0
-193 137 0
-3 -184 0
142 104 0
-136 79 0
-14 16 0
-164 88 0
95 188 0
68 -184 0
227 -231 0
224 158 0
83 -145 0
226 -211 0
162 -105 0
11 165 0
122 195 0
147 31 0
206 110 0
-81 10 0
-64 42 0
-155 -3 0
218 176 0
-182 -154 0
-196 -145 0
68 106 0
-96 123 0
-5 79 0
-18 155 0
-230 -128 0
171 -207 0
-222 -3 0
-165 -98 0
-86 -203 0
-65 -102 0
-132 33 0
-16 -207 0
-235 68 0
6 -166 0
-84 78 0
-84 -18 0
-42 11 0
71 202 0
25 127 0
113 -112 0
-220 -19 0
-232 -15 0
225 -81 0
50 154 0
-185 70 0
147 -163 0
-71 -83 0
129 -172 0
169 -131 0
-62 204 0
-219 225 0
-221 49 0
-83 225 0
116 -47 0
-84 -196 0
-85 -110 0
-210 196 0
-59 -28 0
-114 -194 0
120 166 0
36 -107 0
188 -211 0
-5 -66 0
48 -217 0
-69 -217 0
116 -48 0
19 45 0
-91 -22 0
-15 -192 0
83 204 0
-22 -185 0
60 188 0
54 204 0
-64 -208 0
-78 213 0
213 124 0
169 -17 0
190 218 0
19 -136 0
54 -40 0
212 205 0
-107 -186 0
-54 -157 0
94 136 0
-87 12 0
-189 25 0
-3 53 0
36 -224 0
-87 167 0
-70 196 0
-61 -109 0
28 -57 0
-110 -83 0
55 -113 0
35 -208 0
-13 95 0
-141 -108 0
111 -162 0
158 -28 0
-107 82 0
223 -214 0
167 129 0
-174 198 0
-105 153 0
3 -13 0
-83 -110 0
-195 155 0
-191 -94 0
-230 -168 0
77 -109 0
-172 -197 0
81 61 0
-48 213 0
-162 -171 0
-232 -133 0
221 -67 0
-105 160 0
-48 -70 0
132 -24 0
76 -48 0
225 -111 0
2 -155 0
-77 -14 0
-54 120 0
123 119 0
85 123 0
-5 53 0
-203 16 0
122 -168 0
224 16 0
-114 -189 0
91 -100 0
174 -69 0
80 197 0
18 206 0
-69 -24 0
-132 208 0
