c bounds 128 186
p cnf 1000 2000
-991 -86 0
-869 280 0
479 692 0
270 102 0
-220 -890 0
336 107 0
382 877 0
784 -888 0
11 689 0
292 -560 0
-376 -122 0
231 -664 0
-894 935 0
810 -402 0
-105 -507 0
-85 741 0
944 233 0
307 166 0
129 775 0
729 355 0
229 782 0
-27 -546 0
219 17 0
114 652 0
-57 -689 0
-571 -245 0
-826 -158 0
750 -635 0
961 -897 0
609 608 0
648 546 0
989 -193 0
-702 645 0
768 -654 0
470 -604 0
171 -921 0
-780 -367 0
303 -148 0
-84 709 0
-171 -510 0
814 -471 0
833 625 0
-41 -339 0
470 338 0
731 207 0
854 -315 0
66 93 0
-402 677 0
-632 -441 0
-908 -982 0
686 778 0
962 344 0
686 483 0
180 -601 0
-401 639 0
458 -357 0
-440 116 0
990 686 0
-361 -889 0
-41 15 0
-472 -82 0
-784 133 0
506 -178 0
-337 445 0
-171 357 0
648 528 0
-412 -991 0
802 -504 0
-886 967 0
799 229 0
6 -369 0
-327 -183 0
-662 953 0
-158 572 0
-53 -708 0
781 -462 0
-903 564 0
-69 -925 0
527 -474 0
-570 -48 0
-229 -660 0
-49 -424 0
-737 372 0
166 479 0
535 210 0
317 668 0
123 446 0
463 -673 0
-754 218 0
-65 -396 0
-724 -860 0
917 958 0
-278 503 0
968 -154 0
-378 971 0
-559 -561 0
147 -439 0
-61 850 0
378 -383 0
-409 -193 0
-610 -876 0
-577 -766 0
-127 247 0
-950 -266 0
-176 -524 0
411 -407 0
-210 -976 0
-458 -256 0
-462 119 0
375 854 0
-786 -579 0
-358 -500 0
111 577 0
967 199 0
-671 101 0
799 441 0
-758 -229 0
670 -885 0
-327 996 0
727 962 0
-266 -748 0
-460 937 0
-562 92 0
550 418 0
-723 983 0
452 -459 0
-608 -333 0
312 586 0
747 -376 0
507 -959 0
149 -275 0
198 861 0
113 107 0
550 13 0
717 -419 0
-187 -819 0
410 -878 0
-758 139 0
975 -829 0
-262 531 0
611 792 0
123 213 0
488 101 0
-81 503 0
234 -167 0
-658 -710 0
923 808 0
-260 -276 0
866 502 0
-481 856 0
336 55 0
-693 -497 0
-88 -423 0
348 921 0
121 -938 0
657 -804 0
-952 939 0
30 450 0
-44 288 0
709 481 0
-134 540 0
-773 -402 0
123 128 0
771 93 0
-745 871 0
-563 238 0
-15 184 0
-694 -572 0
-351 -595 0
-304 -378 0
756 897 0
201 -945 0
6 -166 0
228 -114 0
-826 -478 0
-960 121 0
668 -6 0
-499 -473 0
-356 960 0
-234 -167 0
30 -39 0
-816 989 0
-138 -754 0
-839 -881 0
-194 152 0
-291 -939 0
162 -955 0
351 120 0
532 999 0
381 -463 0
817 -976 0
-825 -74 0
-784 532 0
746 423 0
55 720 0
654 638 0
-190 -359 0
714 187 0
217 -278 0
-81 -750 0
-821 694 0
-991 951 0
117 -907 0
683 -752 0
-176 734 0
476 420 0
984 495 0
616 -88 0
-983 -150 0
512 -983 0
900 -468 0
-697 -49 0
507 78 0
106 247 0
618 -202 0
-627 618 0
-127 648 0
263 -572 0
-918 169 0
161 146 0
330 924 0
587 241 0
-72 -851 0
-690 -881 0
-319 767 0
631 -251 0
362 -409 0
-4 798 0
776 -546 0
-169 551 0
-730 637 0
171 -124 0
-36 -647 0
-40 -817 0
-116 364 0
-322 -669 0
874 451 0
457 468 0
779 873 0
-964 124 0
859 679 0
836 410 0
-349 492 0
162 -948 0
46 -519 0
-639 -551 0
-227 796 0
187 391 0
-582 129 0
-295 877 0
483 -595 0
678 -751 0
450 -236 0
633 -394 0
-886 602 0
-839 -200 0
414 -316 0
-991 780 0
-825 -996 0
-167 -784 0
-688 602 0
-535 458 0
79 187 0
870 -710 0
-788 351 0
120 708 0
-76 534 0
-904 -692 0
581 -555 0
-143 -500 0
455 -999 0
96 -209 0
-261 383 0
-138 -368 0
-570 174 0
-381 627 0
-384 183 0
-915 -101 0
-872 331 0
679 364 0
-322 392 0
369 480 0
-471 567 0
-209 362 0
-743 640 0
-614 -567 0
749 -417 0
-398 -973 0
783 318 0
-118 497 0
625 282 0
948 -636 0
-779 473 0
-464 -73 0
-60 189 0
590 -304 0
955 165 0
708 -826 0
-841 -741 0
418 241 0
151 -299 0
875 25 0
-670 233 0
759 -163 0
87 323 0
542 -174 0
578 -26 0
698 124 0
394 -829 0
-839 -94 0
532 492 0
-471 -97 0
-573 -849 0
-833 -878 0
745 -663 0
-59 -622 0
84 -776 0
-176 -38 0
889 874 0
-74 359 0
330 3 0
640 321 0
-676 -942 0
685 -535 0
-265 796 0
434 830 0
-915 -12 0
172 601 0
916 -399 0
453 411 0
-640 -246 0
130 -585 0
-869 -501 0
-833 -380 0
-376 -234 0
701 457 0
286 576 0
450 -59 0
-385 943 0
787 -432 0
290 -16 0
-122 29 0
-382 -405 0
755 257 0
-149 -214 0
-911 -587 0
-800 603 0
-226 -176 0
-209 -250 0
51 714 0
-216 699 0
161 160 0
-394 149 0
532 151 0
-440 -122 0
872 100 0
46 357 0
-188 296 0
853 5 0
232 -926 0
-291 -333 0
-761 483 0
310 -152 0
341 -710 0
-198 -107 0
-651 -505 0
-227 245 0
263 -596 0
-999 -192 0
896 102 0
-690 324 0
-477 344 0
-610 425 0
948 -762 0
-722 -173 0
-784 871 0
205 -412 0
980 -733 0
-970 706 0
-911 442 0
199 100 0
757 -97 0
207 -15 0
-635 -452 0
-420 -604 0
-699 721 0
-891 508 0
140 116 0
370 -143 0
-519 -60 0
739 2 0
564 329 0
-672 548 0
629 -632 0
-773 281 0
128 590 0
-124 -70 0
-744 -204 0
-359 -786 0
150 538 0
624 -30 0
267 423 0
-507 243 0
532 -853 0
351 853 0
528 -316 0
-424 -909 0
-105 -703 0
-807 -211 0
653 -86 0
-198 -222 0
-963 -595 0
-472 318 0
206 -673 0
-801 -977 0
-994 -734 0
-237 467 0
-219 688 0
603 -886 0
-54 333 0
218 -500 0
834 -173 0
263 -333 0
-363 817 0
-294 636 0
-479 350 0
126 944 0
-320 645 0
819 -320 0
-56 951 0
-526 716 0
-82 -754 0
423 218 0
-744 454 0
943 -313 0
727 986 0
-595 67 0
-527 502 0
-16 -325 0
-903 66 0
-559 188 0
990 99 0
870 709 0
-156 926 0
761 -790 0
-854 459 0
-263 205 0
152 -468 0
-838 525 0
-712 -732 0
-297 521 0
-293 -528 0
-98 978 0
879 592 0
410 -301 0
-193 -527 0
-167 -509 0
444 654 0
711 -547 0
195 -264 0
105 -51 0
874 -69 0
-338 -911 0
-624 445 0
184 978 0
-146 -819 0
-248 -230 0
513 349 0
395 774 0
13 984 0
-278 823 0
586 -413 0
-69 -885 0
-654 -829 0
-326 902 0
572 718 0
-834 -901 0
-397 -543 0
816 -522 0
866 -537 0
240 -878 0
645 -903 0
705 -631 0
-483 137 0
-239 582 0
-246 257 0
-167 58 0
-131 93 0
532 -226 0
-990 -917 0
-669 -844 0
58 -372 0
-954 -40 0
-963 263 0
-477 56 0
618 -211 0
-532 140 0
-809 538 0
821 283 0
-772 380 0
497 -870 0
100 447 0
-253 325 0
488 -765 0
-689 -43 0
-235 -719 0
-842 503 0
-499 276 0
225 736 0
543 984 0
-192 456 0
-425 718 0
179 -302 0
265 83 0
-829 20 0
87 -761 0
-587 -762 0
376 -472 0
858 -679 0
-466 623 0
-915 729 0
259 579 0
187 -781 0
-692 156 0
328 -862 0
884 18 0
975 897 0
490 -148 0
837 349 0
-69 58 0
-54 -346 0
-624 960 0
-789 63 0
312 303 0
-689 -616 0
-33 -901 0
486 -708 0
995 -30 0
17 170 0
-995 -182 0
-481 345 0
128 -347 0
-266 -802 0
229 31 0
356 767 0
-284 993 0
-495 -619 0
-696 739 0
-900 -277 0
-417 -401 0
-829 414 0
-876 -356 0
-862 -248 0
913 -334 0
-620 -961 0
936 206 0
-15 425 0
441 -121 0
-576 -588 0
95 -993 0
-800 -783 0
735 -148 0
844 668 0
890 -175 0
644 483 0
-693 -816 0
255 441 0
580 205 0
-310 297 0
619 -805 0
750 480 0
865 -88 0
447 -970 0
-910 759 0
-841 820 0
-19 -367 0
-389 421 0
-588 204 0
-228 850 0
858 -623 0
-781 -562 0
289 -106 0
-904 866 0
466 655 0
-386 -553 0
-284 -780 0
-60 923 0
-518 429 0
-728 -131 0
-460 558 0
-494 -722 0
-959 -367 0
-851 -413 0
50 864 0
-332 -918 0
-554 -475 0
680 423 0
227 -182 0
92 -488 0
-328 137 0
79 -127 0
782 -658 0
-285 -248 0
-673 -526 0
899 -117 0
881 -671 0
-112 227 0
7 994 0
131 832 0
623 569 0
-115 783 0
704 48 0
488 976 0
836 -328 0
-28 -945 0
789 702 0
-329 36 0
502 -417 0
-264 682 0
529 930 0
-90 918 0
-299 -658 0
-112 675 0
859 -480 0
-510 -222 0
-188 813 0
926 777 0
-843 -59 0
529 -277 0
877 -98 0
-943 -159 0
679 993 0
882 703 0
58 -353 0
-760 -327 0
-500 -409 0
-956 -785 0
729 -473 0
-849 295 0
703 483 0
-96 -602 0
5 -383 0
715 -682 0
-46 767 0
-56 -60 0
263 -621 0
613 -614 0
11 694 0
-842 -662 0
1000 -478 0
388 -713 0
34 107 0
638 25 0
342 -869 0
164 -951 0
463 -329 0
-628 157 0
667 -401 0
-356 960 0
-821 -644 0
-281 723 0
645 -674 0
156 12 0
260 640 0
479 180 0
-686 -706 0
-141 205 0
128 -906 0
345 -898 0
795 -842 0
-299 -175 0
-510 182 0
-663 648 0
-31 915 0
520 -129 0
649 252 0
-903 217 0
-670 -162 0
906 -537 0
-233 274 0
-371 673 0
618 -148 0
290 475 0
570 1000 0
819 647 0
-149 855 0
-571 500 0
-591 585 0
-883 631 0
129 465 0
410 641 0
614 578 0
-956 -613 0
23 746 0
-768 458 0
-448 380 0
935 873 0
-569 -509 0
-728 -208 0
-426 -221 0
-189 698 0
-446 -996 0
-112 -892 0
-275 -286 0
623 930 0
976 971 0
268 357 0
-994 109 0
273 -598 0
-531 -84 0
-474 110 0
290 -577 0
623 -72 0
111 187 0
919 366 0
-716 -499 0
441 812 0
180 798 0
-450 -152 0
-186 252 0
-369 -534 0
-637 -412 0
-144 -650 0
382 762 0
793 -980 0
-763 701 0
886 -669 0
-848 133 0
-324 967 0
160 -274 0
197 592 0
-395 118 0
253 884 0
556 -772 0
-468 -864 0
-701 -98 0
883 -922 0
-234 592 0
444 82 0
-433 63 0
-135 -688 0
186 -8 0
-789 -622 0
-764 -588 0
345 162 0
307 435 0
-985 427 0
80 -920 0
-462 -725 0
-803 -631 0
-744 -251 0
-339 -854 0
552 352 0
991 814 0
-642 -776 0
-680 -722 0
-398 638 0
493 755 0
505 871 0
-327 -148 0
-707 207 0
-639 -415 0
-157 -700 0
-674 741 0
-169 -867 0
6 491 0
752 287 0
645 -210 0
677 140 0
785 -235 0
686 890 0
994 176 0
880 -27 0
-205 673 0
-185 550 0
-904 -127 0
-764 -139 0
458 -729 0
219 355 0
222 592 0
-34 272 0
998 -881 0
-732 678 0
-765 -394 0
982 997 0
529 -90 0
928 -395 0
727 -874 0
341 -127 0
941 835 0
35 255 0
-820 284 0
779 -11 0
-803 911 0
-920 599 0
-143 -234 0
894 -920 0
683 -904 0
711 276 0
-233 -890 0
-563 720 0
515 -377 0
-527 -291 0
-865 -858 0
766 191 0
-724 8 0
-879 -551 0
-784 148 0
92 114 0
-258 414 0
-83 82 0
-841 -338 0
64 -370 0
703 -271 0
103 670 0
831 -287 0
-196 750 0
278 22 0
916 -917 0
-198 364 0
-603 -587 0
-843 912 0
-762 738 0
270 -807 0
297 970 0
736 262 0
-148 517 0
203 125 0
771 -769 0
-9 -998 0
-88 -581 0
103 225 0
353 994 0
757 -916 0
-903 108 0
-105 564 0
-737 315 0
-87 -842 0
-973 -493 0
-243 899 0
-271 544 0
721 -830 0
257 -16 0
497 -468 0
551 -493 0
820 948 0
-490 636 0
-235 705 0
512 -617 0
-543 -865 0
-315 -965 0
937 338 0
434 -617 0
943 367 0
-110 561 0
-60 -603 0
840 -76 0
434 -407 0
-202 19 0
785 53 0
-570 820 0
709 31 0
-61 779 0
741 906 0
596 489 0
-822 -371 0
129 -413 0
240 130 0
602 -700 0
-94 966 0
-8 111 0
-29 -314 0
679 -886 0
-807 -795 0
458 -294 0
721 -295 0
-60 -18 0
289 368 0
-63 -618 0
718 -897 0
504 363 0
955 37 0
-32 -171 0
-868 -273 0
-53 -106 0
218 363 0
-595 448 0
-716 -631 0
648 228 0
247 -195 0
-985 531 0
84 808 0
203 428 0
-136 57 0
573 310 0
-61 515 0
687 467 0
644 -734 0
593 352 0
80 -943 0
599 296 0
89 18 0
-209 282 0
549 470 0
-448 -7 0
-460 404 0
-509 -534 0
112 -125 0
227 -164 0
253 -126 0
288 454 0
-554 205 0
-42 -643 0
-251 -830 0
-945 165 0
218 -469 0
-786 -88 0
229 837 0
91 -931 0
18 -202 0
970 172 0
435 -78 0
335 -724 0
-717 133 0
-632 117 0
-643 470 0
-669 594 0
-658 -986 0
271 -142 0
365 -794 0
-51 452 0
61 -740 0
713 111 0
-426 93 0
-829 778 0
591 937 0
-168 663 0
-821 -822 0
163 -38 0
-271 504 0
-673 -164 0
-697 -586 0
-591 803 0
366 965 0
903 -10 0
817 -179 0
779 966 0
-440 -654 0
-169 -379 0
628 -743 0
-146 532 0
-167 -510 0
411 -340 0
703 357 0
-972 886 0
443 104 0
-547 -709 0
608 -311 0
525 181 0
-553 334 0
80 -975 0
-77 -169 0
-570 -493 0
41 517 0
686 -833 0
-459 16 0
253 989 0
20 -807 0
-789 -992 0
603 449 0
-40 609 0
727 -922 0
-20 -969 0
-87 525 0
-430 241 0
-275 450 0
-554 -616 0
269 -987 0
168 -202 0
872 771 0
-45 -252 0
96 213 0
-683 -518 0
936 422 0
77 293 0
-659 -941 0
-346 731 0
872 -621 0
-417 -483 0
249 137 0
975 958 0
-415 -286 0
-760 391 0
-613 -146 0
-465 752 0
573 -330 0
602 279 0
313 -174 0
-417 280 0
692 -143 0
967 -238 0
912 777 0
-737 43 0
-797 -468 0
-154 975 0
-342 253 0
152 -219 0
-394 206 0
-557 -708 0
-424 -604 0
961 496 0
949 56 0
830 -256 0
618 -604 0
-516 914 0
-907 552 0
726 654 0
-812 111 0
307 377 0
614 859 0
263 181 0
-708 268 0
541 208 0
303 227 0
847 232 0
404 -412 0
-563 -377 0
-462 -616 0
135 -912 0
352 325 0
312 -903 0
162 670 0
772 -689 0
390 -166 0
-350 -471 0
-772 -918 0
-812 -417 0
141 -867 0
183 -55 0
510 -225 0
843 -551 0
932 -251 0
-493 934 0
677 -389 0
-128 263 0
117 -858 0
-937 43 0
208 -794 0
413 454 0
335 -112 0
947 -328 0
-400 -326 0
-266 467 0
564 863 0
713 -979 0
934 734 0
989 -426 0
242 -204 0
180 734 0
-318 -64 0
184 -685 0
-570 -205 0
917 -106 0
-315 -820 0
-707 -825 0
-467 -650 0
-377 39 0
165 799 0
416 120 0
47 266 0
-220 755 0
-977 283 0
768 -374 0
6 108 0
798 -566 0
654 652 0
445 580 0
644 932 0
-799 -685 0
531 942 0
-769 -155 0
-656 -977 0
-195 984 0
-662 -142 0
-176 -966 0
597 456 0
338 254 0
602 57 0
717 842 0
-182 747 0
256 -693 0
-732 -512 0
-742 -402 0
531 -286 0
806 -326 0
-119 476 0
-641 -861 0
841 -572 0
-803 181 0
828 683 0
428 504 0
20 915 0
944 -770 0
-846 98 0
-827 -288 0
381 -197 0
-328 488 0
498 -806 0
-595 753 0
-814 338 0
162 250 0
168 796 0
-359 -292 0
320 -16 0
701 677 0
620 133 0
116 -392 0
29 379 0
-223 -619 0
-462 -567 0
792 354 0
-69 669 0
520 859 0
873 -597 0
218 -851 0
818 -970 0
104 774 0
-821 792 0
-713 870 0
-950 -952 0
-254 127 0
-746 -846 0
-526 253 0
444 -406 0
-123 555 0
937 -117 0
804 -987 0
-293 590 0
802 -996 0
-215 410 0
107 -619 0
375 -687 0
168 -143 0
818 945 0
270 222 0
135 573 0
542 601 0
19 935 0
-142 673 0
205 256 0
955 177 0
-421 990 0
492 -834 0
672 680 0
-468 -635 0
25 -370 0
-821 183 0
-226 186 0
229 -83 0
-282 -305 0
994 59 0
303 -914 0
774 -274 0
605 162 0
319 -589 0
187 -58 0
-361 854 0
-686 -51 0
920 593 0
-32 -751 0
813 -648 0
351 -21 0
347 564 0
-902 -526 0
-58 -21 0
-54 -770 0
-910 -609 0
545 -843 0
-54 336 0
-415 -237 0
168 -144 0
820 953 0
-331 630 0
-674 -618 0
946 603 0
845 540 0
-447 -372 0
-655 528 0
-98 645 0
958 -3 0
-292 529 0
-708 -637 0
948 874 0
-968 711 0
836 -804 0
582 863 0
441 -154 0
-975 579 0
483 362 0
-896 -257 0
77 776 0
338 291 0
-420 -58 0
339 -440 0
648 -722 0
-698 -131 0
-741 -437 0
-432 388 0
-843 256 0
612 -563 0
-628 -51 0
768 -234 0
799 -921 0
344 -593 0
-448 682 0
549 -464 0
381 -585 0
-885 -269 0
-7 428 0
671 296 0
14 -751 0
-123 98 0
162 394 0
761 889 0
427 731 0
-271 787 0
-282 767 0
29 -755 0
472 -373 0
-287 -338 0
-58 162 0
-555 653 0
73 -191 0
2 618 0
-551 584 0
-942 -209 0
517 846 0
-347 612 0
-266 -474 0
-619 -294 0
639 586 0
-977 346 0
-93 -988 0
-656 513 0
156 10 0
-548 154 0
-937 611 0
828 351 0
-616 -328 0
-79 -415 0
676 492 0
-496 -700 0
715 -209 0
713 -342 0
-786 364 0
199 -382 0
-905 -200 0
-261 -92 0
673 799 0
-725 538 0
-190 373 0
-341 -169 0
471 35 0
243 -337 0
341 890 0
-42 -276 0
-139 40 0
-597 -91 0
-920 -76 0
645 -588 0
82 -97 0
737 778 0
960 238 0
-512 295 0
189 -744 0
-478 452 0
599 -614 0
773 -723 0
-275 -371 0
-398 -730 0
-709 -925 0
-302 684 0
43 -415 0
-912 138 0
-222 -65 0
-477 -766 0
-865 -863 0
-895 -197 0
-152 507 0
-929 -610 0
-690 78 0
-369 -706 0
-606 -156 0
617 804 0
140 -51 0
-684 -646 0
-199 -545 0
661 -151 0
-558 723 0
129 -6 0
-354 -276 0
479 806 0
476 480 0
-442 -361 0
585 628 0
58 943 0
681 -98 0
-695 -398 0
-801 -567 0
177 -862 0
-664 -10 0
783 -125 0
893 -396 0
-447 -912 0
875 -315 0
814 -430 0
-10 185 0
46 826 0
-193 879 0
864 555 0
815 -222 0
-701 -895 0
-148 347 0
556 -166 0
150 -154 0
520 237 0
-874 -486 0
-52 -924 0
-627 -914 0
86 -519 0
-501 413 0
-302 -999 0
955 663 0
795 921 0
118 677 0
941 445 0
138 -825 0
787 -151 0
377 -421 0
-333 -7 0
196 475 0
123 6 0
-66 747 0
-623 379 0
-710 -309 0
458 646 0
-60 -798 0
-991 -27 0
-212 315 0
-937 -60 0
-361 -68 0
-732 715 0
771 605 0
557 683 0
634 711 0
-193 724 0
565 667 0
-582 341 0
793 -515 0
349 382 0
503 -397 0
904 -244 0
216 -437 0
-484 73 0
-442 104 0
-355 653 0
-837 321 0
240 -451 0
615 920 0
-697 -386 0
-653 352 0
-135 814 0
-189 -94 0
-582 951 0
-591 11 0
-993 -561 0
-922 475 0
857 -276 0
651 -484 0
229 -971 0
308 -873 0
371 -565 0
611 -74 0
478 230 0
-370 -459 0
251 948 0
729 -849 0
213 -337 0
502 972 0
-357 -302 0
920 203 0
-122 -891 0
11 3 0
-260 273 0
-375 -940 0
853 -133 0
-313 50 0
-274 724 0
937 807 0
-275 586 0
-726 -112 0
954 -646 0
-396 -261 0
92 -992 0
-309 246 0
-635 555 0
-885 -481 0
-113 -96 0
-108 542 0
465 -164 0
317 926 0
92 6 0
-296 -114 0
-609 -983 0
506 -228 0
-113 177 0
35 697 0
-233 -79 0
834 -706 0
-34 -183 0
128 -378 0
217 967 0
832 259 0
812 -957 0
994 -374 0
6 469 0
930 272 0
-64 -773 0
332 -138 0
-489 -632 0
-64 -386 0
-734 539 0
-643 814 0
-185 -838 0
-315 801 0
-553 827 0
349 965 0
-833 891 0
452 602 0
364 102 0
-697 619 0
604 -277 0
-972 -625 0
347 579 0
380 -994 0
665 99 0
921 -194 0
177 537 0
-622 445 0
-961 576 0
340 -88 0
207 27 0
-132 757 0
-514 500 0
-316 -684 0
428 41 0
201 317 0
103 -151 0
-825 -311 0
116 996 0
53 -959 0
-465 970 0
-32 181 0
811 -154 0
-530 464 0
-737 -849 0
316 -277 0
-723 -672 0
689 466 0
104 839 0
-931 -275 0
60 804 0
783 -859 0
-527 857 0
790 -456 0
-158 -714 0
-511 -12 0
882 -42 0
-376 -259 0
-981 86 0
95 262 0
-829 578 0
-74 829 0
428 576 0
854 -472 0
-523 -584 0
-407 249 0
714 -453 0
-739 -560 0
-266 766 0
430 -168 0
-413 209 0
761 694 0
147 -568 0
-894 307 0
-88 -210 0
178 698 0
731 -937 0
-174 498 0
-764 955 0
-142 517 0
199 -199 0
-575 -53 0
550 -794 0
-973 584 0
606 -822 0
527 -598 0
687 -302 0
95 897 0
-941 -66 0
99 213 0
-774 -822 0
427 -860 0
-941 -698 0
623 497 0
-931 -204 0
556 -268 0
-217 893 0
-787 292 0
-84 106 0
-925 95 0
84 -96 0
-708 221 0
-513 335 0
711 -517 0
-953 721 0
-271 835 0
279 -90 0
106 -239 0
-887 -194 0
-524 755 0
709 2 0
309 -562 0
442 756 0
478 987 0
-366 -157 0
-198 -141 0
-113 -203 0
830 -769 0
925 -911 0
397 638 0
162 -495 0
310 -716 0
697 -851 0
707 -645 0
-96 -910 0
-886 -294 0
521 537 0
343 -806 0
-124 -183 0
-394 -931 0
862 -459 0
131 43 0
-568 -25 0
-468 -414 0
-153 -509 0
266 -643 0
461 -243 0
429 -183 0
-169 -568 0
594 -143 0
-770 216 0
-426 845 0
-175 978 0
-407 -762 0
-293 -601 0
845 -486 0
-867 -687 0
-313 -396 0
-221 -971 0
794 -907 0
-34 167 0
-55 377 0
-94 872 0
-782 -491 0
354 -424 0
-139 868 0
508 492 0
-612 365 0
-179 644 0
670 -725 0
292 -884 0
778 -1 0
14 -472 0
-106 -383 0
-231 -869 0
774 -599 0
172 311 0
-897 -317 0
971 615 0
-110 366 0
596 -749 0
-123 53 0
743 515 0
358 317 0
-401 -941 0
-568 162 0
936 556 0
-182 -730 0
878 953 0
-150 -65 0
738 -248 0
388 -182 0
505 -740 0
931 -681 0
-329 219 0
-999 -302 0
99 -494 0
-604 -686 0
960 -686 0
-805 337 0
612 -382 0
-751 739 0
128 27 0
-69 -591 0
579 -537 0
-249 -904 0
-929 -714 0
556 280 0
-190 637 0
229 -603 0
890 -769 0
-405 431 0
254 845 0
117 -945 0
-356 787 0
-732 292 0
349 872 0
46 -2 0
900 -887 0
967 -495 0
711 -263 0
273 -27 0
544 -843 0
107 81 0
-349 -722 0
-868 -723 0
-909 -235 0
593 791 0
-801 -887 0
-977 -936 0
-904 -215 0
-56 -976 0
203 939 0
-380 160 0
-762 -577 0
278 -988 0
-560 -710 0
787 -419 0
-991 -651 0
-192 -980 0
-51 -488 0
-584 303 0
-932 107 0
297 -32 0
171 850 0
-291 276 0
-196 386 0
-851 -894 0
383 872 0
485 -15 0
-317 444 0
746 494 0
-88 730 0
-332 224 0
204 -168 0
574 -504 0
-388 364 0
-580 -622 0
-907 -307 0
-328 -353 0
240 -314 0
-560 858 0
785 -876 0
596 -240 0
370 -772 0
-12 -588 0
932 156 0
-518 513 0
891 -983 0
108 -63 0
199 428 0
-457 602 0
-936 -693 0
810 639 0
-963 402 0
178 -155 0
-77 -942 0
104 -602 0
-985 -446 0
119 -569 0
58 -999 0
-403 -12 0
-413 -339 0
-89 -847 0
-405 83 0
-70 -692 0
-843 742 0
404 810 0
871 -239 0
308 -219 0
308 931 0
924 303 0
452 653 0
236 905 0
-652 -597 0
-524 -549 0
-74 -737 0
293 14 0
747 671 0
-390 -602 0
238 -699 0
870 875 0
996 576 0
-925 -922 0
408 -466 0
-878 801 0
187 953 0
331 -197 0
879 283 0
997 -29 0
130 335 0
423 82 0
-53 -833 0
-814 -681 0
46 -624 0
444 644 0
-423 -367 0
-895 -544 0
-838 -415 0
93 -478 0
-37 1 0
957 -743 0
438 77 0
-931 924 0
-344 119 0
-919 -246 0
-760 29 0
-142 -971 0
434 160 0
-369 -826 0
-390 212 0
-365 102 0
83 -8 0
-545 -952 0
-260 -287 0
-510 594 0
-987 -250 0
-496 864 0
-99 -407 0
-164 995 0
-60 -176 0
638 -770 0
542 -295 0
-565 711 0
152 -979 0
-271 -224 0
-931 291 0
353 -178 0
-614 25 0
67 -469 0
954 946 0
53 -547 0
442 943 0
799 346 0
82 -682 0
-182 911 0
-413 -142 0
83 -888 0
619 968 0
654 6 0
-951 -913 0
-663 279 0
626 939 0
-41 -320 0
609 58 0
-233 156 0
-622 860 0
875 -198 0
-64 -69 0
871 505 0
802 217 0
785 -49 0
977 206 0
-464 58 0
-234 -105 0
-649 -642 0
-597 -74 0
72 317 0
258 870 0
576 -928 0
-604 184 0
845 -244 0
105 222 0
-983 564 0
630 509 0
202 -390 0
994 339 0
57 846 0
344 476 0
815 711 0
29 -472 0
-58 -763 0
744 66 0
-954 -808 0
-898 -737 0
-146 995 0
114 746 0
637 -166 0
-236 -764 0
263 533 0
-42 624 0
759 653 0
512 890 0
-932 -4 0
341 661 0
-78 736 0
432 -220 0
-54 594 0
-493 -412 0
-559 -90 0
530 -200 0
-48 -494 0
289 719 0
-419 -154 0
797 823 0
324 -133 0
-987 -645 0
-671 539 0
-609 -676 0
-159 -987 0
-1 -895 0
-84 344 0
85 -743 0
188 796 0
258 -261 0
680 209 0
293 -850 0
227 128 0
-327 336 0
-419 -758 0
953 375 0
-176 837 0
586 -952 0
508 272 0
-16 958 0
471 -76 0
-54 -559 0
541 434 0
-333 890 0
947 -798 0
-564 836 0
-173 -888 0
-662 -27 0
-389 -106 0
-772 256 0
-191 -920 0
121 -835 0
384 -764 0
-232 -320 0
-14 930 0
-816 857 0
-864 120 0
90 -554 0
-858 -196 0
-105 -377 0
-871 542 0
-888 213 0
-816 -981 0
-812 -134 0
-378 327 0
245 -652 0
-1 -4 0
312 580 0
-275 -379 0
-565 -637 0
449 -743 0
768 890 0
198 581 0
-671 -62 0
201 793 0
-74 210 0
83 -79 0
620 -690 0
-910 -805 0
-4 -921 0
391 -849 0
177 80 0
552 284 0
364 391 0
148 -123 0
205 539 0
251 -941 0
735 -494 0
-420 425 0
212 -834 0
-460 -67 0
624 -217 0
385 -266 0
-359 -569 0
-499 -128 0
411 357 0
682 -149 0
208 670 0
321 511 0
466 -981 0
218 360 0
-353 636 0
538 466 0
-724 -302 0
-604 -690 0
-310 39 0
88 -378 0
913 241 0
446 172 0
-843 -145 0
805 241 0
-378 240 0
438 -712 0
690 -722 0
-46 -841 0
503 -895 0
521 -337 0
-721 423 0
814 242 0
-842 -721 0
237 -554 0
-945 42 0
-966 87 0
-519 -313 0
966 760 0
998 -172 0
47 846 0
506 492 0
750 -318 0
-416 784 0
-649 -684 0
-334 -689 0
-54 925 0
-131 -365 0
363 -417 0
-382 410 0
401 203 0
-399 425 0
-799 -464 0
-632 -649 0
-883 74 0
373 172 0
208 868 0
-867 -120 0
-436 115 0
413 703 0
-364 20 0
173 836 0
-169 -825 0
-415 890 0
366 -209 0
521 -52 0
-915 19 0
-190 -783 0
-209 440 0
-394 473 0
271 615 0
-791 761 0
-421 532 0
702 -652 0
538 755 0
-688 666 0
-212 -958 0
-869 -388 0
-433 -643 0
-865 -997 0
-147 -898 0
-17 -876 0
300 -992 0
441 -985 0
-70 -883 0
636 -447 0
164 336 0
441 874 0
-70 132 0
-615 -314 0
704 -89 0
918 -42 0
-559 -828 0
121 911 0
349 96 0
102 -876 0
-297 639 0
-471 716 0
824 380 0
-294 326 0
140 -345 0
40 -908 0
-132 690 0
906 632 0
648 911 0
265 686 0
-737 929 0
523 -201 0
