c NF
p cnf 222 466
-9 50 0
-129 118 0
-86 32 0
-30 -212 0
-138 -188 0
-99 139 0
98 -31 0
-132 -122 0
187 -184 0
209 -108 0
25 -191 0
105 -156 0
199 -201 0
-10 -27 0
21 102 0
98 -208 0
-184 -142 0
194 27 0
30 -19 0
138 -162 0
-70 44 0
161 -47 0
159 -103 0
75 91 0
-67 83 0
100 147 0
-62 -149 0
160 -164 0
-1 217 0
-202 38 0
-147 -163 0
89 -13 0
135 -145 0
1 -204 0
50 -128 0
59 -85 0
57 149 0
100 -205 0
16 89 0
-35 149 0
79 139 0
-179 -215 0
202 58 0
57 64 0
-194 -134 0
78 195 0
-125 45 0
25 -36 0
23 -191 0
167 -70 0
-4 -38 0
19 179 0
213 100 0
127 27 0
-174 125 0
-159 -4 0
-78 -181 0
-49 115 0
79 15 0
-46 163 0
78 -73 0
-41 -20 0
109 182 0
52 103 0
94 87 0
-41 154 0
-62 22 0
-138 -109 0
113 -89 0
-103 157 0
53 -62 0
-146 73 0
-215 -130 0
-22 150 0
209 9 0
-29 98 0
-201 161 0
211 179 0
69 -205 0
200 -138 0
79 -177 0
86 -41 0
-37 -61 0
160 -106 0
-184 -172 0
55 39 0
66 -41 0
23 167 0
-36 79 0
-19 -133 0
104 -6 0
-151 209 0
65 95 0
185 -180 0
171 135 0
-220 -22 0
71 52 0
-196 -40 0
-82 -48 0
-22 -154 0
-122 112 0
-188 77 0
38 69 0
38 -178 0
-40 -97 0
102 -15 0
64 77 0
113 -42 0
-101 100 0
184 199 0
-56 216 0
-119 -73 0
98 204 0
-187 121 0
79 198 0
-124 -44 0
-46 -217 0
201 198 0
194 189 0
-28 -41 0
-156 115 0
150 80 0
142 -181 0
217 -118 0
24 186 0
10 -144 0
-214 49 0
203 -134 0
-134 19 0
-218 -41 0
-20 -100 0
-158 -50 0
18 47 0
-29 68 0
-129 -7 0
-193 -77 0
2 -30 0
5 -36 0
50 98 0
-103 -8 0
144 -173 0
208 -121 0
177 36 0
-76 221 0
18 167 0
-93 -80 0
-182 -142 0
-36 75 0
-218 11 0
81 -212 0
-188 -103 0
-4 96 0
-41 -146 0
149 164 0
161 -135 0
-96 -40 0
-44 29 0
139 -192 0
210 171 0
138 210 0
-66 -158 0
-112 221 0
-142 -29 0
-173 193 0
206 23 0
143 -62 0
-97 -100 0
152 -51 0
73 -180 0
60 76 0
120 -141 0
-102 206 0
-28 -197 0
-103 144 0
1 -153 0
-172 -15 0
131 -127 0
-8 196 0
-41 140 0
-222 -220 0
59 -5 0
185 139 0
-154 -117 0
52 -128 0
211 -151 0
-216 102 0
-28 -122 0
-168 -101 0
51 -206 0
78 -212 0
-101 171 0
-212 -78 0
-148 -91 0
51 142 0
163 -109 0
165 34 0
22 109 0
203 33 0
-124 -201 0
-153 -24 0
-155 200 0
198 -211 0
-134 -119 0
150 -105 0
-28 137 0
-59 -92 0
149 111 0
-162 198 0
23 -206 0
108 -56 0
106 15 0
-31 9 0
209 202 0
-158 -107 0
-198 42 0
55 45 0
126 54 0
-145 106 0
108 50 0
-12 -12 0
-177 -143 0
109 118 0
109 150 0
-183 -186 0
-19 41 0
-92 -176 0
-201 -98 0
7 125 0
-11 -1 0
-43 89 0
-13 -9 0
-96 -121 0
47 159 0
33 221 0
-197 -99 0
-116 -166 0
70 77 0
130 -22 0
-74 37 0
-141 -188 0
18 128 0
-214 -186 0
121 -135 0
-126 205 0
-32 -21 0
38 -28 0
-100 68 0
-207 102 0
-192 191 0
-107 -172 0
213 -58 0
42 -180 0
221 215 0
17 -222 0
-26 61 0
-147 7 0
-155 -147 0
-50 141 0
-69 178 0
194 173 0
-114 179 0
-120 -190 0
-80 -80 0
-172 -120 0
-218 110 0
-154 213 0
57 23 0
-47 150 0
30 -173 0
11 -22 0
206 -27 0
-218 207 0
-97 -39 0
85 178 0
58 159 0
-155 -5 0
161 131 0
121 171 0
154 63 0
200 -34 0
-144 94 0
123 -41 0
21 -196 0
-106 90 0
71 -48 0
-100 131 0
-64 -180 0
-25 14 0
-47 -41 0
177 -70 0
-8 -184 0
-219 -22 0
33 178 0
152 -126 0
-139 210 0
-142 49 0
206 87 0
46 57 0
-182 124 0
90 97 0
132 -20 0
-135 164 0
-207 30 0
127 -135 0
88 -58 0
221 51 0
-40 -16 0
16 192 0
-146 -94 0
-81 123 0
-48 187 0
154 -1 0
148 -191 0
113 187 0
-59 167 0
-180 -47 0
-99 126 0
177 122 0
14 39 0
21 10 0
25 42 0
141 -4 0
5 196 0
58 -182 0
-207 -138 0
85 -201 0
18 174 0
124 14 0
-151 59 0
-139 -146 0
-116 136 0
54 192 0
-37 219 0
103 -172 0
-4 -190 0
-110 -158 0
-118 -184 0
-119 -156 0
63 -96 0
-83 -135 0
-58 -32 0
-138 65 0
204 -150 0
44 72 0
66 67 0
-96 -184 0
3 17 0
-114 25 0
-138 71 0
21 -87 0
-211 -173 0
-191 -144 0
-212 -210 0
-128 -222 0
-85 61 0
204 112 0
49 -34 0
21 -135 0
217 170 0
-39 -30 0
-73 200 0
24 108 0
174 173 0
158 -74 0
127 -13 0
88 -30 0
148 213 0
-192 -7 0
218 17 0
123 -168 0
42 82 0
-105 -220 0
154 56 0
183 -167 0
51 177 0
-50 -91 0
-186 42 0
-171 -85 0
49 -61 0
-184 -105 0
35 51 0
71 107 0
-92 -32 0
-142 133 0
208 -211 0
204 41 0
-145 59 0
-132 -129 0
120 217 0
-186 -160 0
-107 -73 0
-188 56 0
5 -53 0
111 -154 0
-190 -95 0
1 -107 0
88 -39 0
-49 132 0
161 2 0
-166 -26 0
167 30 0
5 187 0
178 -8 0
161 -166 0
-212 43 0
-32 171 0
-140 -20 0
149 28 0
174 70 0
152 86 0
-20 -191 0
-76 -165 0
91 -62 0
207 -31 0
213 76 0
-58 47 0
105 -91 0
105 109 0
86 -58 0
162 -128 0
219 -31 0
-8 64 0
-40 6 0
-5 157 0
-118 68 0
-86 -182 0
-63 56 0
-118 -148 0
132 -135 0
51 -67 0
-84 130 0
67 104 0
64 54 0
-11 58 0
-117 -26 0
208 39 0
-46 167 0
166 -191 0
33 163 0
193 -4 0
-35 23 0
14 125 0
-169 -188 0
78 -99 0
-212 107 0
-12 127 0
-197 177 0
50 -196 0
21 66 0
-62 -221 0
-68 -190 0
33 -40 0
-104 196 0
15 -157 0
199 -201 0
-40 -166 0
-58 -156 0
-26 95 0
140 -202 0
15 -15 0
-86 112 0
-99 -145 0
-172 -70 0
-191 -180 0
-95 93 0
-63 42 0
