c NF
p cnf 3775 6418
-3619 -1294 0
279 -595 0
2355 -2078 0
2501 -1302 0
-1158 -1025 0
2521 -2249 0
-3103 546 0
-997 2748 0
-143 -279 0
1686 432 0
-197 333 0
-1385 1288 0
-1155 3564 0
1396 -834 0
-118 -2164 0
-301 -1178 0
876 438 0
3484 3679 0
-1593 -280 0
-983 689 0
1415 3401 0
-2163 -1694 0
1419 3196 0
526 -3506 0
-600 851 0
-414 -1226 0
3208 950 0
2268 -3728 0
424 -51 0
2165 -10 0
1210 -3415 0
-1044 -1851 0
-135 -1417 0
-2986 1969 0
-983 -2920 0
-1214 1554 0
1930 -1607 0
-3735 -3595 0
1137 1793 0
1878 -3715 0
1855 935 0
-83 -171 0
-3685 -1469 0
-564 -1575 0
1128 3548 0
2203 2977 0
3293 -3660 0
-1943 -1271 0
-653 2130 0
-2777 3543 0
2152 2569 0
1989 2029 0
-1032 1971 0
1763 -2467 0
1675 -3542 0
-207 308 0
3020 2723 0
-3264 3084 0
-3623 -117 0
515 2936 0
3533 2905 0
-179 -1991 0
1363 2273 0
885 1524 0
3506 -3241 0
749 -183 0
-1890 -2463 0
416 -1369 0
-402 2147 0
-1350 2753 0
1114 2473 0
-624 816 0
1413 2978 0
-1387 -2262 0
-3396 -2345 0
2653 -1588 0
3606 3151 0
54 3742 0
1670 -2088 0
-1661 -1967 0
-2855 -1355 0
-3647 2323 0
-512 -23 0
2124 1328 0
1048 2414 0
-276 2479 0
513 -2990 0
2951 1528 0
690 -1933 0
932 2773 0
1171 3746 0
-2839 -2903 0
333 878 0
3714 -3241 0
-2102 1371 0
-232 -2907 0
2031 -3585 0
621 2521 0
1372 -1507 0
-64 -1973 0
-2290 2203 0
2851 2943 0
3318 2764 0
-3534 -1218 0
2162 -1724 0
-2529 683 0
1375 -319 0
-1443 1283 0
-1627 3716 0
-2147 -1872 0
-997 1191 0
2175 425 0
3426 293 0
-2946 2388 0
3524 2102 0
3641 1646 0
-203 -2747 0
-1741 -3560 0
-2752 -991 0
3486 2493 0
3322 -835 0
-761 2610 0
-272 -226 0
2438 3677 0
3257 -1374 0
-2632 321 0
542 -412 0
-1205 -2893 0
1705 2348 0
-1371 402 0
-3360 1284 0
-2569 -123 0
1598 -2080 0
-1714 -1851 0
-419 1826 0
-1153 -3079 0
-3678 -961 0
-1727 -2537 0
2445 -722 0
1403 2236 0
501 2050 0
-881 -2364 0
1821 -617 0
1865 -2129 0
693 -220 0
-3596 -3415 0
3329 1257 0
-2522 2625 0
3223 1874 0
-2360 -3409 0
-3171 -1928 0
1686 753 0
-1631 3343 0
2613 -1050 0
-1825 -3026 0
3560 -763 0
2149 1755 0
1602 3061 0
-2192 -408 0
1057 -1868 0
-682 1415 0
1017 1280 0
1152 -738 0
3506 -2785 0
-2295 -3714 0
-125 -1913 0
-634 -2219 0
807 1417 0
-1967 2859 0
-1031 2326 0
-2783 -614 0
-1170 -3386 0
1546 1867 0
-1957 2579 0
-42 -3155 0
-1826 2304 0
1570 -2936 0
2138 -1448 0
2274 -1544 0
1551 -2546 0
2233 3272 0
-563 -2743 0
-295 3698 0
-435 501 0
-1600 -1306 0
310 -439 0
-3677 1054 0
-1945 -3303 0
-3694 1764 0
-121 -3577 0
-176 1054 0
-1885 -1993 0
-42 2573 0
-1158 -3037 0
-2040 -3388 0
1083 1215 0
955 3060 0
-3308 1597 0
912 -2230 0
661 -1572 0
375 -14 0
770 -1214 0
-2787 44 0
-1760 3260 0
2116 3331 0
3236 1112 0
-481 -1612 0
-531 3070 0
894 1668 0
-639 -3016 0
2731 -2090 0
-403 2227 0
3506 574 0
160 -2 0
2290 1429 0
-2091 3444 0
-1087 -1349 0
-1906 1189 0
1174 -40 0
-1722 2185 0
-970 2014 0
-2711 931 0
-1748 3277 0
-381 1173 0
-1433 -2858 0
-1640 -2034 0
1077 932 0
492 -2073 0
-1268 -2288 0
3189 -2091 0
-3424 1689 0
-3055 -2072 0
3383 -2607 0
2689 163 0
2145 1166 0
915 2312 0
-1259 -401 0
-3085 1275 0
-2629 667 0
11 -3127 0
-2725 363 0
-2437 -1929 0
3757 1189 0
-1343 1784 0
-1373 280 0
-1028 -1479 0
-2736 3034 0
396 1439 0
2390 -2404 0
2611 1520 0
1904 2985 0
-2782 1947 0
-843 2239 0
639 -1238 0
-545 -3641 0
2628 -24 0
3469 -405 0
3173 -3168 0
-1021 2854 0
-2639 681 0
-2367 -3015 0
-285 -1344 0
3292 -2283 0
2173 -1126 0
-2825 -1786 0
-912 -1321 0
796 1039 0
1287 -695 0
-1304 -1813 0
1174 934 0
3543 -3568 0
-3516 -3672 0
1859 -3082 0
3153 -61 0
-1739 2968 0
388 1071 0
433 2716 0
-1578 -287 0
3503 -2009 0
-650 -2100 0
-2158 -14 0
-433 2858 0
36 -783 0
1226 -3547 0
2414 -3005 0
1900 -3306 0
-1876 3597 0
-774 3460 0
-454 1842 0
-3683 -604 0
-3296 122 0
-204 2809 0
-3266 288 0
-1596 -3148 0
928 2837 0
-441 -2350 0
-433 2145 0
-1449 581 0
-3008 3084 0
-669 -2260 0
-294 -1018 0
-499 -3004 0
1914 -2311 0
1111 -1009 0
-1553 -1842 0
2010 -2788 0
-2529 3169 0
-1699 -3144 0
919 1146 0
2131 -223 0
3152 -2371 0
1059 386 0
-823 1542 0
-1579 -388 0
-569 -3184 0
-1870 2515 0
-2002 730 0
3513 -1761 0
657 -1448 0
65 -938 0
-1085 341 0
2131 2353 0
-2441 2292 0
-2031 658 0
-1468 -755 0
2652 -2941 0
-1007 344 0
-83 -3759 0
208 -2207 0
1770 1126 0
798 3152 0
-1175 -1798 0
175 1089 0
1793 -2516 0
3292 3158 0
-718 2051 0
1705 3175 0
2500 2852 0
-1755 1925 0
-2428 95 0
575 -1869 0
1743 -3313 0
-1718 3168 0
1464 -2557 0
2538 -3386 0
-2254 1300 0
-221 -1259 0
2527 3701 0
-3508 594 0
-3519 -854 0
1322 882 0
-2995 -1533 0
1410 -1741 0
1842 358 0
-841 -1334 0
2400 49 0
2330 2919 0
-2719 1283 0
-557 2905 0
-493 3586 0
1413 2220 0
2957 -1120 0
1825 3468 0
-3658 2251 0
383 1253 0
-2143 -3413 0
-2219 -2866 0
2799 1329 0
-600 -3306 0
3636 -2303 0
-1262 299 0
-419 2157 0
-2828 -42 0
1253 1541 0
3454 -3305 0
538 492 0
-900 786 0
-916 2760 0
3232 2492 0
3564 -3615 0
-1369 1540 0
-3554 1613 0
-285 3719 0
-1423 1974 0
-33 -1994 0
-1232 2964 0
661 -1452 0
1096 1947 0
3276 -3520 0
2926 -174 0
3293 -2170 0
-1603 3105 0
3306 -706 0
1440 1130 0
3231 789 0
-1079 -3575 0
-1320 3092 0
1005 -2107 0
-3253 -1732 0
2180 3279 0
1661 3451 0
876 2206 0
-697 3140 0
2298 -390 0
-3439 1804 0
2178 -1898 0
3394 1684 0
-2730 2623 0
-2272 832 0
2747 3502 0
-1349 -1324 0
-3071 82 0
3461 2235 0
-2681 -305 0
-952 -2052 0
536 -3309 0
-3398 2939 0
-679 -1230 0
359 218 0
1249 287 0
-2361 -1111 0
3077 571 0
-2534 -2415 0
-1419 2487 0
2891 1775 0
1687 -380 0
3441 1066 0
-1131 -433 0
-1575 -1638 0
2352 -2792 0
-2715 -1795 0
1168 106 0
-1872 3467 0
3528 -1965 0
110 -748 0
3444 -3716 0
-3405 237 0
185 -2823 0
-3193 262 0
-1627 2285 0
2363 -1419 0
1469 365 0
-1919 -2000 0
2389 1268 0
3545 3097 0
146 -1175 0
3276 1993 0
3690 -3075 0
-3421 2401 0
3365 -1595 0
311 365 0
-1404 508 0
-1746 1261 0
-726 2494 0
283 -3652 0
-1142 173 0
-314 -3292 0
-1600 -2112 0
-2202 944 0
1580 -2340 0
1895 -2445 0
-3605 3021 0
275 2339 0
3477 -1333 0
1098 -809 0
1315 -3571 0
2719 1825 0
171 -342 0
1671 3475 0
2868 -1924 0
-931 1410 0
1557 1437 0
1616 2541 0
219 -531 0
-1109 1128 0
-2737 677 0
-3647 2440 0
-1268 3325 0
-2722 -1489 0
520 1549 0
1610 -3381 0
-1683 -1843 0
-91 -3268 0
457 938 0
3726 -279 0
3429 3512 0
-579 403 0
-3705 -270 0
3526 1496 0
-433 1153 0
-1330 -2010 0
30 3669 0
2443 -3182 0
-1857 -1722 0
-3627 1410 0
-2830 -848 0
-920 735 0
2940 2142 0
2033 3591 0
-1740 -3701 0
-1471 -588 0
-2967 -1011 0
1340 1681 0
-1359 -1239 0
-2150 -1551 0
136 3596 0
1963 -2571 0
-1014 -1558 0
-3637 -391 0
-436 -1364 0
861 2931 0
-3283 -2827 0
905 2646 0
2254 2415 0
446 566 0
-3483 2760 0
-3590 -3467 0
163 3155 0
-2792 -300 0
-1370 -2815 0
-3317 2269 0
2216 -3737 0
1117 -1374 0
-44 3111 0
-247 -513 0
-2927 -2303 0
1908 1443 0
-3120 988 0
-698 155 0
-133 3291 0
3536 -2218 0
2559 -726 0
-3421 2337 0
-263 3299 0
-1278 -2575 0
-268 88 0
-2966 -3619 0
-2378 3189 0
-219 1469 0
-2481 -1291 0
1204 153 0
-732 -270 0
-1150 -296 0
-2370 2391 0
-231 -2583 0
2011 -740 0
913 583 0
1783 -1650 0
548 2164 0
301 196 0
-61 3162 0
-1489 1825 0
3307 -679 0
1902 2843 0
844 2614 0
3406 3528 0
-3407 258 0
2020 2490 0
1354 -2350 0
51 -1553 0
2977 1462 0
3695 -798 0
2888 2614 0
2513 -136 0
2762 2771 0
1354 -131 0
2886 2637 0
1227 -811 0
727 -2150 0
2184 1945 0
1637 -3772 0
906 3661 0
819 -1299 0
-244 -2523 0
1736 -3557 0
466 330 0
-31 -1326 0
78 -1572 0
-2608 2215 0
-1370 1192 0
-3105 1097 0
-2829 -2922 0
-158 828 0
1246 2024 0
-1574 2224 0
-2652 2462 0
-1323 -3389 0
-2884 -1632 0
3340 2287 0
-3608 3347 0
-70 562 0
789 2390 0
-872 887 0
-3569 -1985 0
2144 228 0
-3591 -685 0
-2226 -641 0
-1761 753 0
686 -523 0
-1738 903 0
3199 -3156 0
1868 -782 0
2209 -78 0
2455 -464 0
-3316 2699 0
-2037 -1271 0
-1020 501 0
328 -2374 0
2429 -1276 0
-669 -3417 0
-332 3772 0
-2976 2604 0
1456 -232 0
1539 -1117 0
-3290 1744 0
-719 -91 0
-1468 373 0
-2715 2064 0
1675 2618 0
-3181 -575 0
-3710 -1645 0
2918 -1041 0
179 2839 0
-3330 1109 0
-1973 -2245 0
1981 1039 0
-2995 697 0
-536 2268 0
189 -2855 0
-1270 -3252 0
2966 760 0
778 -2396 0
86 -1698 0
-347 -547 0
-624 3225 0
-2382 2834 0
3635 753 0
2950 -2296 0
-1997 999 0
1315 -400 0
-1664 -3686 0
-2747 1159 0
-3208 689 0
-1490 3296 0
2741 -3183 0
316 -1861 0
-2316 -1883 0
-1728 -514 0
1254 -257 0
-2492 -1796 0
-1036 185 0
2192 -893 0
-2669 3619 0
3399 -961 0
-422 -2130 0
1154 1275 0
-3068 -3614 0
1506 1000 0
2400 2435 0
1603 -1049 0
3352 -2516 0
3722 -2982 0
3441 -2502 0
328 3664 0
967 -1614 0
972 -24 0
1633 -2159 0
-863 -1942 0
3208 -3017 0
-2080 3254 0
-2866 -3551 0
-839 -416 0
-3624 1098 0
-2347 1180 0
-2792 2462 0
-597 2551 0
65 3121 0
1804 3667 0
2772 -716 0
3724 2895 0
1944 2173 0
-3257 1912 0
-3203 135 0
633 -2665 0
-2101 -1079 0
-2629 1725 0
2215 168 0
528 -2708 0
225 2886 0
837 -1825 0
2359 951 0
-1722 1469 0
2273 -2210 0
259 -2189 0
-3735 1075 0
-3712 -1641 0
-1617 -3706 0
-2167 -1244 0
520 -3378 0
2668 -1926 0
2185 2814 0
-149 -3317 0
-2963 -1848 0
-2643 -1629 0
-1714 -2192 0
1908 -1438 0
-3466 1736 0
1769 1952 0
2605 1375 0
-3510 159 0
582 1814 0
-2013 -2100 0
-273 3489 0
-1894 200 0
2449 1773 0
-117 -2662 0
-662 -323 0
850 2545 0
-649 -3229 0
3523 1354 0
1884 -105 0
555 -844 0
631 -2857 0
-2471 2457 0
-3025 1497 0
2582 -1894 0
-1440 1038 0
-230 3343 0
479 237 0
1017 2181 0
-657 -3427 0
-1394 -1475 0
-2378 -1561 0
3188 2043 0
3606 -1286 0
-3724 -7 0
-1153 2964 0
2526 3616 0
-3458 435 0
334 -3266 0
-1315 -98 0
2667 -2401 0
-598 2108 0
3368 572 0
3362 -2908 0
-424 223 0
-711 32 0
1408 -241 0
-2077 -1851 0
-897 2213 0
627 -3067 0
-3527 -2719 0
-2261 1040 0
-2795 -3476 0
-2204 -262 0
3358 -2602 0
-1722 2858 0
1876 -3417 0
925 -3135 0
1188 238 0
3377 2254 0
-1084 2399 0
-2515 -755 0
2982 1135 0
1688 3607 0
-687 1514 0
3359 -2229 0
-900 829 0
-1956 3588 0
1826 682 0
-1655 851 0
-1946 -1157 0
-465 -3268 0
2750 1189 0
3765 -439 0
460 524 0
2266 1401 0
1357 288 0
381 1522 0
-1977 -1751 0
791 -3203 0
2863 2622 0
1509 276 0
-3417 2206 0
632 1072 0
-3139 -1199 0
-974 -3308 0
1375 216 0
-2879 1101 0
-3692 187 0
-729 -2662 0
-924 -1197 0
-2217 -1448 0
2214 -436 0
1397 -2698 0
-3698 3656 0
-1651 1782 0
-1309 219 0
1654 1618 0
627 3089 0
3558 -999 0
326 -3333 0
2640 -1459 0
-860 2187 0
-9 -2145 0
-396 -2804 0
-2697 -1312 0
-3655 632 0
3242 1541 0
-1244 2699 0
-3510 -3760 0
-380 -872 0
261 -3594 0
2956 752 0
-1870 -2989 0
-2143 -1437 0
-2179 266 0
-265 -2719 0
-1832 -3501 0
-2227 -1900 0
-1194 -3197 0
-3253 -2158 0
-3727 -2396 0
3598 -1687 0
1162 -1439 0
-3081 -725 0
380 307 0
-1693 -1398 0
127 1602 0
2487 -185 0
2012 -1334 0
-432 579 0
334 -2164 0
1412 759 0
-399 -1243 0
673 -2646 0
2574 1118 0
703 1766 0
3548 -2884 0
487 540 0
478 -1166 0
-3482 -2516 0
775 1663 0
1220 -238 0
2716 847 0
804 -991 0
1078 444 0
2408 3697 0
2330 -409 0
3191 2613 0
615 -2402 0
2861 2525 0
-2634 -2022 0
-2967 694 0
3186 3389 0
-2232 2245 0
1135 965 0
1281 -941 0
683 2460 0
1319 -3210 0
-829 1522 0
-1575 2262 0
117 -2005 0
-2841 -3610 0
2288 3661 0
1605 3294 0
-1241 -1841 0
2173 -2659 0
161 2729 0
-1175 1601 0
-446 3352 0
-3437 2615 0
2497 2551 0
2735 1151 0
-3339 -2901 0
-945 2617 0
-2338 -2988 0
-654 -2423 0
1610 840 0
1865 -2341 0
635 -930 0
-309 -2695 0
1515 -2557 0
1192 -1291 0
1887 -400 0
-299 -857 0
-999 -454 0
-95 3324 0
354 -1430 0
-843 3471 0
3245 -857 0
-510 3012 0
-2027 2064 0
2356 2330 0
3021 -321 0
-2198 -2882 0
547 1003 0
258 -2927 0
1760 -2334 0
2338 3765 0
3256 975 0
-3686 2116 0
-324 3262 0
3459 2583 0
-3014 -2308 0
77 -273 0
-459 -2353 0
1551 360 0
-873 -2729 0
1760 175 0
1274 -476 0
216 -1572 0
2361 2839 0
-630 2286 0
-1323 2989 0
3513 44 0
-338 1372 0
-1026 -1604 0
-3453 -3045 0
3679 -2267 0
-2159 2909 0
1312 3601 0
-1026 1810 0
3627 -3574 0
-2034 3498 0
-1885 3099 0
-3406 -2446 0
2961 1989 0
1398 3575 0
926 2915 0
-1038 -50 0
-2337 -3035 0
2439 -332 0
-367 1613 0
3338 3063 0
731 -3273 0
3260 -2657 0
-1876 -3366 0
-3675 1096 0
2523 -583 0
-2763 2005 0
-2681 578 0
3061 166 0
747 1508 0
3235 2705 0
886 2902 0
-1803 -2489 0
-1448 -237 0
-282 280 0
-1260 2146 0
144 1721 0
-3466 1820 0
-1211 -2091 0
-3314 -1565 0
2389 -845 0
-1028 411 0
-934 2333 0
-3042 -3066 0
345 -291 0
1939 -2865 0
-2511 3184 0
2509 -3042 0
-555 -205 0
-1233 -3487 0
-2491 2207 0
-1727 3141 0
1896 1825 0
1704 2536 0
-3018 -3377 0
943 2513 0
3215 3222 0
-2264 -3576 0
768 2101 0
-3514 -2237 0
-915 -3654 0
-3347 3378 0
1192 -1883 0
-3508 -3736 0
-3150 -3398 0
3121 1527 0
1072 -3025 0
-3689 -170 0
542 2613 0
3115 -2407 0
-1417 1636 0
-1011 3508 0
-2703 3679 0
1953 -392 0
-1605 610 0
965 -1752 0
-1567 -3352 0
652 1946 0
-3343 807 0
1175 1887 0
-3160 -3082 0
25 339 0
2430 3517 0
365 2230 0
-1653 -3151 0
-3005 -42 0
753 1379 0
1431 2354 0
1915 806 0
3431 971 0
-1837 1233 0
350 -3155 0
-2381 -2145 0
2825 -916 0
2108 -3053 0
641 -1311 0
2203 -1334 0
-671 -3747 0
869 1593 0
983 134 0
-1684 2438 0
820 -1294 0
-3265 1269 0
-3155 -9 0
3412 -3511 0
3525 1134 0
-2930 -3158 0
3720 1675 0
2718 -522 0
-3325 -433 0
-665 -2337 0
762 2492 0
-2972 -3718 0
-3633 -2313 0
-1336 -3360 0
-3519 -3370 0
-1297 -766 0
-3519 -1272 0
-1337 3642 0
3689 -2641 0
1084 -1047 0
-246 -3728 0
1327 -3268 0
2772 2415 0
-2926 2233 0
-3227 3595 0
-3428 -367 0
2998 -1696 0
1720 -1122 0
-3297 2151 0
1491 -1238 0
1213 2947 0
-402 2978 0
-27 -2395 0
238 -1970 0
2287 2700 0
-2778 3309 0
3424 -3468 0
1868 1180 0
-3488 -1432 0
2732 -546 0
1847 -2011 0
1146 979 0
681 1344 0
3701 -2954 0
2403 1773 0
-1276 1065 0
2298 -2065 0
2955 -2059 0
-387 2759 0
3530 2569 0
2897 -352 0
861 171 0
-972 -641 0
-1061 -1223 0
-3678 -2740 0
3379 2569 0
-3763 -1319 0
2290 133 0
-66 -1471 0
3593 3273 0
-3296 861 0
3737 1227 0
-3559 1214 0
-3402 2889 0
2320 1940 0
-129 -1204 0
-1468 -549 0
-3456 1215 0
-1800 3207 0
-3190 -2330 0
2950 -2738 0
3495 2178 0
1622 940 0
2263 -2983 0
-832 1929 0
1387 -1780 0
-1236 712 0
2746 2496 0
2939 -3650 0
-612 1292 0
-811 1372 0
1006 2537 0
1319 -1865 0
2636 1923 0
1734 -343 0
-2384 -2225 0
2024 -1233 0
-1370 -450 0
1705 -501 0
1495 -2600 0
-1880 -3336 0
3270 2416 0
-3737 1503 0
-57 1474 0
759 -1003 0
-651 1567 0
3447 -2501 0
3722 -2378 0
3534 -1037 0
-1985 1857 0
-1143 594 0
-2855 -2514 0
394 1075 0
373 1679 0
-1021 -1046 0
2475 -2572 0
-1817 3441 0
-2816 -1463 0
1301 3679 0
1500 3119 0
-3131 3201 0
1779 548 0
-752 -2470 0
-1273 -3407 0
3339 -2088 0
-878 -2145 0
-1330 3565 0
-1795 -2921 0
526 2515 0
2449 -2305 0
-1308 -222 0
921 2265 0
1675 100 0
3245 3534 0
-3338 -2308 0
-250 1121 0
3573 -3668 0
-1005 2410 0
2513 -799 0
2056 -347 0
555 -1192 0
-2984 -2833 0
-1235 3006 0
-2078 -1861 0
975 2201 0
2991 2670 0
-3079 -169 0
2257 2294 0
701 2020 0
-1047 -1577 0
-2563 -2483 0
-2712 2527 0
-414 -1620 0
-2533 3325 0
474 -2606 0
-3712 -599 0
2414 650 0
283 334 0
1348 1423 0
-2091 -636 0
-90 -2284 0
-1874 2414 0
-3754 3293 0
-2196 3201 0
2776 154 0
-675 887 0
2185 2379 0
-3558 385 0
1207 -1988 0
-53 -2293 0
1455 3374 0
465 -1526 0
-2071 1600 0
1655 2010 0
15 643 0
1342 -1402 0
-1389 3070 0
2922 112 0
2123 213 0
-2695 3235 0
237 -2524 0
1067 3055 0
952 3340 0
-2662 -2763 0
436 -1427 0
3093 2538 0
1176 1581 0
-836 254 0
2381 -2703 0
-348 3235 0
1327 -1948 0
-1961 3066 0
-3665 2925 0
-3318 539 0
-2199 2111 0
1583 1930 0
-2350 3299 0
-3282 -578 0
2463 -97 0
3131 1328 0
2895 1466 0
529 96 0
1807 3469 0
1965 -989 0
-3179 -3221 0
-98 -665 0
-3016 -2041 0
-2658 -2412 0
2601 -477 0
-490 3731 0
-1255 3163 0
3346 1192 0
772 870 0
1711 3465 0
-3532 2806 0
2115 -1568 0
5 2096 0
416 78 0
-305 1834 0
-1544 -3680 0
2426 -2813 0
536 3433 0
-1426 2458 0
746 2291 0
440 178 0
2260 -1302 0
2422 682 0
174 -2819 0
-2014 -2659 0
-2436 2233 0
-2272 -2361 0
-800 1291 0
3357 246 0
-3456 38 0
-534 24 0
-175 -1985 0
-2626 1442 0
3176 -1956 0
-1988 -2353 0
-102 -1982 0
-574 1939 0
-3227 1663 0
-810 962 0
525 1806 0
-2888 -2039 0
-1867 1979 0
165 2644 0
-2985 -2246 0
1988 -3056 0
-3202 -127 0
-37 -2621 0
-3531 1587 0
2137 3553 0
1901 138 0
-3367 -3222 0
-3079 2800 0
-1313 371 0
-597 -3720 0
322 831 0
-1061 -2522 0
1251 -2333 0
-1729 2040 0
-719 -1683 0
-364 3096 0
3033 -3554 0
-2014 1005 0
1610 633 0
-1724 -1952 0
628 3764 0
687 1034 0
-1751 -115 0
127 52 0
849 3054 0
-1084 1048 0
-1586 -1042 0
849 -1919 0
1801 -995 0
-1807 -1627 0
-2089 2499 0
-2835 1622 0
-3333 2926 0
1419 -477 0
-2212 267 0
2330 1209 0
-1456 -1004 0
-3216 122 0
3052 -2808 0
-1404 2027 0
-1061 -2964 0
-506 2781 0
-1113 2672 0
702 -244 0
-1031 2300 0
-2893 -1384 0
-541 3459 0
2022 -2283 0
1093 466 0
3412 -2466 0
2356 -1119 0
-1830 1096 0
215 -1386 0
2020 3358 0
-1588 -1328 0
1305 2707 0
3271 3180 0
1289 2675 0
2600 -1955 0
-2720 -598 0
2811 989 0
-1792 109 0
-3663 -949 0
-1161 -1923 0
-1771 1732 0
316 -492 0
2315 1070 0
-109 2867 0
-1956 727 0
1522 -3694 0
-2884 2074 0
3331 -2857 0
1898 -859 0
1112 1647 0
-2498 332 0
-3604 2851 0
3088 2962 0
2376 -243 0
2456 -256 0
955 -1502 0
1582 3713 0
-1748 -1051 0
-3700 -871 0
-2508 1217 0
1837 1043 0
-333 167 0
-80 -1926 0
-2054 1747 0
1198 -1026 0
3436 -1480 0
733 -1515 0
-1022 -152 0
-3666 427 0
254 1250 0
-2229 3017 0
621 1301 0
3567 -128 0
3479 -2953 0
2631 -3253 0
-3385 -1599 0
-324 -623 0
-2770 1750 0
1709 -43 0
2338 2999 0
1221 3724 0
-291 -696 0
2395 -997 0
2275 3292 0
590 -209 0
931 3631 0
639 123 0
2756 816 0
-3660 964 0
2789 -823 0
2676 899 0
2285 2937 0
124 -1430 0
-2870 441 0
1953 -2161 0
-1459 3083 0
-2950 -2528 0
-1623 -1241 0
2043 -2084 0
-3629 -2205 0
280 -1931 0
384 -1814 0
-3481 -1878 0
1891 -2200 0
-2505 3618 0
27 -33 0
-33 -1522 0
-813 -2355 0
393 -894 0
-2726 1939 0
122 3675 0
984 -1627 0
-944 -364 0
-2924 880 0
-2547 2533 0
-1716 -647 0
132 -152 0
-3056 -621 0
-803 3258 0
201 -1921 0
-3363 -3436 0
2803 -1800 0
-846 1998 0
3052 -874 0
3262 2923 0
-2815 -3763 0
92 -2074 0
2798 3418 0
195 969 0
-3012 -2881 0
-324 -241 0
2867 2401 0
-1710 -1557 0
-2045 1737 0
-3508 640 0
-1080 647 0
271 -3104 0
-3485 341 0
-3308 424 0
-3689 2259 0
746 450 0
2337 -1224 0
-2701 -463 0
521 -1197 0
1200 3207 0
2465 -3019 0
2410 1787 0
3070 -1779 0
-3254 -2361 0
-1190 -1252 0
-714 -2684 0
2540 683 0
237 968 0
-1761 2576 0
2838 2112 0
2809 2521 0
21 1164 0
-160 3463 0
-2838 -544 0
558 3551 0
-1164 -2384 0
2732 1138 0
2908 -1600 0
1269 2740 0
-152 1500 0
-2386 664 0
716 -3222 0
963 2860 0
703 3110 0
1537 -3292 0
3015 -448 0
3301 2215 0
-805 -476 0
-33 954 0
2991 990 0
3382 -1480 0
-1122 -3399 0
-1648 201 0
3216 1284 0
-1544 -783 0
80 -1494 0
1727 -736 0
2475 -1950 0
-917 1716 0
-2431 -2103 0
2761 178 0
1143 -179 0
-3032 1127 0
-1399 2277 0
-981 -1398 0
-1411 1646 0
-2934 3391 0
-2909 3081 0
1020 -1377 0
2146 -3196 0
-736 -2878 0
-1263 440 0
2301 1191 0
2076 3613 0
-3571 -3295 0
1223 -987 0
-3423 1419 0
1742 2764 0
-2348 -2553 0
-1911 3231 0
2653 3517 0
2357 -2436 0
2016 -2895 0
-1577 303 0
-2547 -2459 0
-274 520 0
-2519 -3605 0
1821 -3661 0
145 -2452 0
874 3186 0
3603 1738 0
-1732 -2905 0
80 1237 0
-1600 11 0
183 3562 0
-3536 1372 0
-2329 -3293 0
-920 750 0
2689 489 0
-2765 -1247 0
-3674 -2855 0
-2567 -2652 0
-2695 1002 0
198 758 0
1566 735 0
914 -1868 0
3353 -2112 0
-3336 -2822 0
-3109 -2595 0
-1712 1500 0
2178 -709 0
-2079 2655 0
464 -1894 0
3052 -777 0
1658 -1513 0
372 -813 0
2704 1646 0
-693 -848 0
-679 3707 0
948 -2227 0
-992 2144 0
846 -1666 0
1511 2258 0
2586 -2149 0
-3408 -1751 0
-3500 -179 0
-662 -87 0
-1756 -2737 0
709 -97 0
-35 988 0
738 3230 0
231 1074 0
2817 -5 0
2950 -489 0
-3001 -2431 0
1733 -2410 0
-2607 1035 0
-2352 201 0
-1543 1223 0
1068 2759 0
2581 3302 0
-2562 44 0
-489 3017 0
-554 3214 0
-2899 -2055 0
-2583 3513 0
-585 611 0
-186 1129 0
-441 1601 0
-1155 -2302 0
1064 -511 0
-745 -22 0
-529 1836 0
1659 -1996 0
-560 197 0
1700 -483 0
-3605 3300 0
-2248 -2274 0
-2626 2522 0
3348 -2089 0
3064 -2005 0
-1449 972 0
-1849 -3705 0
2039 -3261 0
-2155 1624 0
1837 -2532 0
-369 3696 0
3484 -195 0
947 -1773 0
249 -2548 0
2276 -2606 0
67 305 0
1110 -3297 0
-3137 -3241 0
-125 -1433 0
1373 2796 0
172 1087 0
-472 84 0
714 -1088 0
-2106 -3296 0
2144 448 0
-2930 3720 0
-61 2015 0
2951 905 0
914 2840 0
-3392 464 0
1429 824 0
-160 2855 0
-1011 297 0
1228 -2384 0
-3667 -1033 0
-974 -2985 0
-3251 -1958 0
-449 3213 0
264 2827 0
-3341 -1543 0
-3045 -3034 0
976 -991 0
-1677 -3760 0
1690 3774 0
-846 153 0
-68 1662 0
3391 2993 0
-1704 -1932 0
-3604 1955 0
2621 -2677 0
781 -3634 0
-129 1945 0
-704 -3007 0
756 3496 0
2841 2650 0
-2719 -1303 0
2188 3308 0
3634 -1462 0
-190 792 0
1668 940 0
1429 -1967 0
-1487 3281 0
2785 -3751 0
1503 -2804 0
3564 3412 0
-3468 -2967 0
-298 -1220 0
-3243 2441 0
-1028 1456 0
1177 333 0
-2088 2808 0
-486 2630 0
-1531 -548 0
2942 -1685 0
2116 -1656 0
-3445 -1124 0
837 -1496 0
-79 1693 0
-2855 3291 0
1331 2468 0
-2672 -3310 0
1695 -745 0
-1870 1483 0
-1698 -1799 0
-103 3683 0
2641 -1457 0
-2713 -994 0
-3360 -890 0
803 425 0
3611 -1132 0
-1620 3350 0
-2274 2065 0
-296 428 0
-2046 1694 0
360 2760 0
-3271 3534 0
1232 3298 0
-2892 1103 0
474 -179 0
-407 -1261 0
686 -1489 0
2182 -355 0
-1786 -861 0
-693 -1640 0
2105 -2373 0
-764 -2555 0
-2053 2948 0
-3035 1807 0
-777 1905 0
864 -645 0
-714 -3733 0
-1356 -1232 0
-1202 3631 0
-2361 -1436 0
1498 310 0
-2088 -1011 0
-381 -2581 0
95 2414 0
2616 -346 0
-2480 2411 0
-2395 -330 0
-2754 275 0
-3490 3302 0
3545 -1561 0
-2159 -3251 0
1246 -1513 0
1004 -2698 0
-2439 -3080 0
2860 2521 0
676 2560 0
827 -1698 0
851 -3427 0
406 -3568 0
1671 2589 0
2627 -2159 0
-3203 -3596 0
2509 -1225 0
2405 1257 0
-3283 -1729 0
398 -3659 0
803 1728 0
-2686 791 0
-728 425 0
-3375 -89 0
3074 -3142 0
1378 3769 0
3766 580 0
49 831 0
2627 -1315 0
-675 -2170 0
1044 -2804 0
-2593 1879 0
-3479 -1394 0
1017 -3502 0
-3042 3108 0
-71 -1206 0
-1442 -3251 0
-3219 -2731 0
-99 -3163 0
3163 3578 0
-2019 -1416 0
3061 425 0
1382 2683 0
1592 -2020 0
-2709 2682 0
-1223 -2439 0
1885 957 0
2545 3092 0
-3375 -2204 0
3616 -17 0
1101 -2681 0
3011 856 0
3217 -1038 0
-1026 -2467 0
1165 1406 0
1542 -2813 0
2754 -3150 0
-1143 3598 0
-3285 -1433 0
1228 -40 0
2610 -336 0
649 1012 0
-2038 -3133 0
-2382 2405 0
1888 1578 0
2468 1222 0
-3183 -2065 0
-1738 -1515 0
1659 -3435 0
-1634 -1522 0
-3371 509 0
540 -2611 0
1090 -2781 0
2764 43 0
2764 3438 0
927 1734 0
3121 -325 0
-1267 -827 0
-3123 -1961 0
536 -1966 0
-3697 -3261 0
908 303 0
-2175 2022 0
-1403 -3652 0
2514 752 0
3528 965 0
3498 3595 0
1930 -3027 0
1530 1743 0
428 3268 0
479 -2642 0
81 -817 0
-840 3654 0
524 3764 0
-1872 -933 0
1633 -2092 0
538 88 0
-124 262 0
2913 -698 0
-3246 -517 0
1861 2731 0
-2949 1284 0
-1333 3613 0
227 -913 0
3689 146 0
-2440 3590 0
-2931 -491 0
-2440 2099 0
430 -1352 0
-1072 3570 0
313 -3617 0
-1198 -2081 0
1661 -2856 0
-1500 3053 0
1672 2326 0
857 1936 0
2494 -61 0
-2052 -1790 0
-391 1993 0
-665 348 0
973 2394 0
3448 3005 0
3674 -456 0
603 -2708 0
156 2622 0
-3484 -150 0
2319 3094 0
-3369 -2253 0
317 -2835 0
786 -194 0
-1770 -2587 0
-1961 2150 0
-51 -1004 0
2761 -2838 0
-2635 1821 0
3161 837 0
2537 3619 0
-3751 -1914 0
-2370 1501 0
-1273 1361 0
-127 -3324 0
2697 -3401 0
1556 -2924 0
-2826 -2395 0
-345 201 0
2422 -272 0
-3296 -2787 0
276 81 0
-1919 -154 0
1718 279 0
-2584 1793 0
-3355 89 0
-2080 1467 0
-2146 -2511 0
525 353 0
-2933 -298 0
2953 -1779 0
-2884 -3328 0
1020 -3105 0
-2042 -1498 0
1709 -205 0
2363 521 0
-945 3459 0
-3249 2381 0
806 -3473 0
997 -1973 0
105 857 0
657 1134 0
2434 -2885 0
-1104 -2377 0
-445 -2082 0
-3295 617 0
2426 598 0
2368 -631 0
3131 3324 0
-939 -1868 0
1135 685 0
54 -446 0
3065 -2362 0
3212 -835 0
1170 -2200 0
1509 -2290 0
1408 -507 0
1772 -1991 0
3595 3775 0
-3123 -98 0
-1525 -2370 0
-338 -2101 0
-401 2759 0
-2909 1081 0
-2835 484 0
3097 -3284 0
3400 -929 0
-2102 3260 0
2687 1391 0
-630 2506 0
-2185 -1718 0
820 -1883 0
-335 -499 0
-799 -158 0
-3356 3018 0
1594 1442 0
1783 -3589 0
-329 -55 0
3192 -651 0
827 1720 0
526 -1534 0
3061 3588 0
-2562 -2285 0
-1379 -3457 0
-3009 699 0
3445 3695 0
427 1323 0
-2953 2538 0
-1274 1129 0
-2178 -3368 0
-2764 3471 0
397 3099 0
992 -1732 0
-3160 -3455 0
2838 -2949 0
-1919 1027 0
3659 -3715 0
1577 3471 0
2590 -303 0
3143 2547 0
566 2465 0
2183 -2365 0
-1966 344 0
3392 2541 0
2271 -2734 0
994 3611 0
-1374 3579 0
-2040 2595 0
-410 2403 0
-1516 3092 0
440 -1900 0
-2554 -1230 0
-458 109 0
-1669 2824 0
2131 339 0
-60 3320 0
2217 -655 0
-2088 -851 0
3389 238 0
2604 2854 0
3050 -746 0
-2453 2837 0
-392 -777 0
-3738 -3179 0
1082 1329 0
-1663 -1370 0
-1069 1250 0
-3737 -2403 0
2621 3630 0
-1853 730 0
964 607 0
-576 -1102 0
-3308 672 0
891 -383 0
-3167 -3398 0
-1119 1898 0
-1360 2765 0
-803 2753 0
3492 -3530 0
-2682 2022 0
1971 1965 0
-1196 3548 0
765 -2596 0
3015 3205 0
152 -60 0
-2140 1581 0
3539 1753 0
3424 -1649 0
-453 2304 0
1346 -1823 0
1439 -1966 0
1514 981 0
-3135 1743 0
2270 -990 0
2628 -279 0
1730 2287 0
-2467 -143 0
523 -3065 0
1999 -1858 0
845 2815 0
-340 -943 0
2315 358 0
-325 3279 0
3621 -2215 0
620 1721 0
-1142 -2544 0
-1223 2058 0
3761 -2612 0
-2755 3514 0
-2885 -621 0
-429 1420 0
-105 3655 0
1855 -1027 0
2304 -812 0
-1882 -940 0
2203 1621 0
-1449 2078 0
854 675 0
3229 -298 0
2536 2375 0
1628 -1400 0
-1291 -3562 0
-447 3444 0
1068 -1093 0
2781 2221 0
1651 -2252 0
964 -1993 0
-659 -3000 0
1330 -378 0
-587 857 0
1105 -1446 0
303 1269 0
2895 -1632 0
-1422 1959 0
-2610 -3083 0
3358 3746 0
-92 1009 0
-2307 2825 0
-1331 -1473 0
-1008 691 0
1940 -3501 0
-2361 -3512 0
1000 -2274 0
2533 3 0
-2982 2657 0
3623 345 0
802 1682 0
-3258 2357 0
3020 1091 0
2496 -3671 0
1056 2999 0
1660 -3495 0
-2889 2241 0
-1696 -3692 0
-2322 2994 0
2467 -2934 0
-3711 -2409 0
-3202 -131 0
2996 863 0
3286 673 0
-2446 -1323 0
2137 -1973 0
-2472 80 0
-3519 -240 0
-3158 1550 0
3197 -3381 0
960 955 0
2776 -3586 0
2964 -2286 0
2607 -3284 0
-183 2184 0
1513 2699 0
-2224 -1025 0
706 -3220 0
3019 -2353 0
-3547 -1650 0
1201 3146 0
3292 -2994 0
2814 3352 0
-2377 149 0
-3160 -1803 0
-1240 1178 0
3696 1524 0
-2847 -695 0
107 -1255 0
3745 -1560 0
1773 -1633 0
967 -135 0
-927 -1756 0
1349 3536 0
3125 -1748 0
3755 -991 0
-3535 -1647 0
-3725 3186 0
-3426 969 0
352 -3401 0
-1500 993 0
-1990 1950 0
-250 320 0
629 -1834 0
3590 -3477 0
772 815 0
-152 -711 0
-362 2307 0
1785 1206 0
-3713 2520 0
1658 240 0
894 -70 0
-1916 1000 0
-374 5 0
627 -2298 0
1682 1189 0
822 2110 0
-3135 515 0
1982 -1506 0
213 2142 0
-131 618 0
1702 -1876 0
-3667 3727 0
-713 2200 0
-815 2297 0
-2086 -952 0
-963 -2599 0
525 -2251 0
-41 604 0
-1122 1908 0
1290 3444 0
-3153 2491 0
2359 3452 0
-461 3211 0
-3064 2299 0
2074 1852 0
2119 -1408 0
-1315 3534 0
-1853 -113 0
-2562 -830 0
2171 -154 0
2475 1578 0
3728 1219 0
126 3742 0
3115 435 0
-3361 -3035 0
-387 -1971 0
3525 3287 0
194 3236 0
87 2482 0
-1089 -2378 0
1294 2282 0
-1162 -3551 0
3235 987 0
-2728 -1401 0
1662 3106 0
3199 -950 0
-1706 -1480 0
-3080 1137 0
149 -3581 0
-332 1956 0
-2066 -512 0
2508 1556 0
2523 -646 0
2053 -3232 0
3411 -3122 0
-407 811 0
2096 -1807 0
3752 2845 0
-139 -1927 0
-3043 2827 0
-952 -1168 0
1206 741 0
-840 3558 0
-1175 -3143 0
687 -2858 0
-482 -1934 0
373 1101 0
2301 281 0
-269 2376 0
-3689 -3314 0
-560 -1011 0
1000 311 0
-243 -2208 0
1578 2794 0
1432 -3310 0
-420 3327 0
635 1841 0
-2371 3718 0
423 -3317 0
-228 -2750 0
2795 -3723 0
-468 -2896 0
2465 3681 0
-1535 -765 0
-2004 1794 0
-2605 134 0
2541 -870 0
331 503 0
2475 986 0
2446 778 0
-3473 -401 0
-493 -67 0
-2652 -724 0
75 -1702 0
632 307 0
2553 -3510 0
219 863 0
-949 2090 0
1728 -2409 0
1366 -2158 0
-2745 -2802 0
396 1215 0
-3710 -2575 0
744 -406 0
-2175 -15 0
3403 248 0
-172 2911 0
-157 2398 0
2115 2471 0
582 246 0
-1746 1920 0
-3547 -1323 0
-2934 -727 0
-3031 -1354 0
-3735 -2296 0
979 -2287 0
-1348 -3442 0
393 -958 0
-3 -2755 0
2943 -303 0
-305 -3003 0
-846 -3090 0
1436 -472 0
-1552 2654 0
2835 1782 0
2521 19 0
-3734 -3235 0
3523 3492 0
-1471 -2281 0
-2161 -3370 0
1501 -267 0
-2289 1705 0
-553 -253 0
-1314 1292 0
-3486 213 0
550 -2639 0
1319 -15 0
-2577 1524 0
571 1548 0
-1672 -1322 0
635 1770 0
443 1192 0
1164 -1424 0
1040 3313 0
-2652 3525 0
-2253 270 0
-408 -943 0
-122 -2280 0
1285 -3501 0
2750 3644 0
315 -175 0
-2990 2871 0
342 -764 0
-2340 -829 0
626 2615 0
-2727 110 0
-2552 246 0
135 -678 0
-2425 -1825 0
305 2008 0
-439 2217 0
-1832 1044 0
1067 829 0
2233 -2661 0
1532 139 0
-3255 -1833 0
428 1335 0
-1378 3312 0
2245 2556 0
2645 3144 0
3333 -152 0
1597 -3761 0
-3392 -1790 0
-3278 3635 0
-2137 1530 0
-88 -87 0
-578 -1414 0
-2064 -3537 0
785 2323 0
1922 -3229 0
354 577 0
2530 -3612 0
-825 -40 0
-1001 -1772 0
-3169 2636 0
741 2202 0
-1786 3011 0
-990 -2028 0
3069 1784 0
-1305 -697 0
2173 3211 0
1807 3559 0
-3228 2996 0
-2921 3201 0
104 949 0
-875 -3245 0
2481 -3388 0
-3551 3051 0
2256 -791 0
-1863 -2018 0
-2679 -437 0
1931 1040 0
3544 -338 0
-1621 -478 0
2833 3312 0
-3572 820 0
1563 1882 0
-3004 -1549 0
-1321 3553 0
-2704 -3606 0
-2078 2917 0
937 2450 0
-2911 3504 0
2368 2188 0
-1673 -1088 0
2196 3363 0
-3734 -2854 0
367 -3376 0
3486 2076 0
629 453 0
777 -3156 0
2848 1529 0
-1457 -3612 0
-2460 1300 0
-439 -3344 0
-142 -1259 0
-3116 -2644 0
923 2902 0
2867 -1273 0
-1186 2822 0
2559 3528 0
-414 -2265 0
2313 -3468 0
257 -1485 0
-774 3307 0
-2403 -3181 0
-2360 -2987 0
2381 -839 0
-2910 -2579 0
-1211 -738 0
663 -817 0
-779 -987 0
3125 -3754 0
1278 -2799 0
2543 -682 0
795 -1650 0
3006 -741 0
-1174 -3045 0
3348 -2906 0
2012 1974 0
565 -2697 0
846 2526 0
3156 2445 0
-3282 -2295 0
-3639 -2451 0
-2020 -710 0
-2065 1670 0
-735 2520 0
-1197 -1438 0
-3142 -1312 0
-2033 -921 0
-3033 2973 0
-3280 -1668 0
-3697 -1068 0
-2110 3562 0
-1763 2862 0
-1278 134 0
3534 -210 0
641 1057 0
1583 -3160 0
-3366 -242 0
-3028 3656 0
2518 941 0
-347 -2844 0
2709 1899 0
-2039 -36 0
-1009 -654 0
-3255 2541 0
-3014 -2653 0
-616 -2226 0
1644 238 0
-1057 3606 0
2962 3202 0
951 -1859 0
1772 2458 0
3201 3420 0
1174 631 0
2421 2074 0
-1657 -1451 0
-2878 2083 0
602 29 0
1304 3422 0
-3700 -679 0
-1845 -1448 0
134 -914 0
2590 3503 0
-1903 -1643 0
-3509 1297 0
3715 -3003 0
-2411 -2558 0
-2658 -892 0
-2529 -2709 0
1346 -1861 0
2991 3389 0
3112 1719 0
-331 -732 0
-657 2542 0
550 -3046 0
-2662 -1476 0
1767 -2025 0
-1740 1704 0
3721 662 0
-1634 2167 0
2762 3519 0
-1821 -1693 0
1784 521 0
-596 -1472 0
950 -1393 0
1782 -2308 0
2954 595 0
-2851 -639 0
358 -920 0
-1143 1305 0
3357 -2311 0
-250 -2090 0
3452 3413 0
2021 690 0
-1265 -2210 0
184 -1260 0
2831 -3247 0
453 1838 0
-1777 -2305 0
-3072 -3479 0
2948 3128 0
-2824 -799 0
-2258 -2090 0
-2957 -2388 0
-2916 -3407 0
1859 -3614 0
1375 -3703 0
-2723 -3634 0
-3341 -2108 0
3159 1733 0
1437 -3333 0
3013 -320 0
1639 769 0
-2819 -1415 0
-2469 -1369 0
1929 3545 0
-1495 1827 0
-3105 3545 0
-106 2898 0
1994 -1674 0
3471 192 0
-1256 -3033 0
-2752 -3470 0
1220 -1169 0
229 -3133 0
1524 2113 0
-2816 1861 0
-3294 -2882 0
2323 2637 0
964 -3329 0
-2796 -498 0
-3397 1617 0
1351 -161 0
-2194 -3243 0
3761 -199 0
-823 2682 0
-3088 442 0
1613 2398 0
2948 603 0
-2736 2274 0
1489 354 0
1489 -86 0
1237 2104 0
-1334 1575 0
-2086 2027 0
3339 811 0
-2575 2077 0
2613 -3562 0
-942 -1231 0
-2223 -3450 0
2185 -2005 0
-2249 3241 0
-1349 -2517 0
2265 -3266 0
3481 -468 0
-3685 208 0
-1230 1874 0
-993 3385 0
-2503 -3071 0
1210 -2726 0
-3200 -3205 0
3736 822 0
1901 3656 0
-2690 -3637 0
-464 948 0
3429 -1420 0
112 -3285 0
520 -6 0
3405 163 0
-179 -3317 0
3147 2409 0
2838 2815 0
-2659 3172 0
3537 -3289 0
-2235 -1712 0
-1567 1401 0
-3195 -3462 0
1524 107 0
-2367 730 0
2828 2718 0
-1602 2740 0
-510 1547 0
1358 -1085 0
3483 -872 0
-2242 -1786 0
-2337 425 0
2902 -736 0
257 2819 0
-2507 -362 0
3771 400 0
-2557 -33 0
3361 413 0
3441 770 0
-3315 2082 0
-3464 -1365 0
-626 -654 0
-143 1637 0
-2159 3506 0
-533 1518 0
140 1340 0
1472 514 0
-2479 1423 0
788 -2411 0
-1577 1046 0
702 -1813 0
-501 -1955 0
-746 2410 0
-2017 2505 0
-1378 2577 0
-3193 -1260 0
-736 -1629 0
3495 2975 0
-2342 2623 0
-236 1194 0
3199 2226 0
-1678 -1777 0
2133 -1968 0
-2644 -3277 0
3052 1628 0
951 -897 0
2509 1595 0
189 3402 0
-3330 -1452 0
1805 110 0
-2152 1540 0
-943 -704 0
-3241 2881 0
-1665 -3319 0
3186 -1849 0
2596 1570 0
-1548 3096 0
385 -2971 0
-375 3055 0
606 -3200 0
1507 -3470 0
951 -1294 0
1618 -940 0
-693 -2988 0
-1170 2624 0
540 1915 0
593 3011 0
2758 515 0
1095 2132 0
-2634 2378 0
3473 1706 0
2160 -2150 0
933 -42 0
-1363 367 0
1302 -299 0
-234 -3381 0
2845 -939 0
281 2594 0
2013 -3439 0
226 522 0
760 -3675 0
-627 -2737 0
3120 1335 0
106 1801 0
-1487 3373 0
-2311 2626 0
3139 321 0
-2829 1597 0
1792 2645 0
1219 -163 0
-180 -944 0
-3357 485 0
-1367 3452 0
-3039 -3500 0
1974 3276 0
542 1581 0
2612 -3056 0
-2733 1647 0
-2351 644 0
-1333 54 0
987 -285 0
-3559 -2606 0
1584 -2057 0
851 -569 0
1338 -634 0
-911 175 0
-2970 3606 0
1624 1070 0
13 2426 0
-1793 -1 0
508 3627 0
-1359 -1905 0
-1107 282 0
1665 -1295 0
-2469 3410 0
-3152 -3241 0
-3530 1823 0
-2327 776 0
-2556 1953 0
1596 -298 0
-3335 -3756 0
900 36 0
3383 1135 0
-2893 -2232 0
2654 2568 0
-1584 -3153 0
3499 137 0
-1550 -3086 0
964 667 0
-3181 974 0
-2420 -3750 0
-1047 -1067 0
-2954 -3235 0
-2399 1380 0
1968 -1455 0
3768 3719 0
2109 -1663 0
-1427 861 0
-1925 314 0
2009 -79 0
-2328 1369 0
-601 -1504 0
788 3050 0
107 203 0
-2226 -89 0
3168 3722 0
2343 3398 0
159 2040 0
1642 -3647 0
-2631 2620 0
-1445 574 0
-71 2922 0
-110 2512 0
1979 172 0
2385 -1668 0
545 1234 0
3302 -2656 0
-1982 -2571 0
2077 1998 0
2113 -514 0
-1625 -2070 0
-3607 899 0
2918 -3433 0
2266 -2982 0
-3459 -633 0
-2995 -1515 0
-886 2247 0
2021 -709 0
-2977 -3561 0
3643 -2135 0
-1507 -3596 0
-607 -1563 0
-21 -1060 0
3671 -3531 0
-3348 -2542 0
-620 3542 0
-135 -3638 0
2724 -2350 0
3346 1395 0
3247 2823 0
-3627 -3386 0
-1968 -2827 0
-3226 1901 0
1962 2799 0
-497 -391 0
-1222 2723 0
-42 -1655 0
-1169 -1781 0
1150 -1590 0
-3164 -3624 0
864 1002 0
3101 2639 0
3012 834 0
-461 -341 0
3245 3254 0
1451 2760 0
-2212 269 0
-2989 -1739 0
-109 1410 0
2936 3523 0
1680 3332 0
-3760 1598 0
-760 -3322 0
2204 1940 0
-963 -487 0
860 -3339 0
-2483 -3486 0
-2957 -2529 0
-836 -109 0
-3411 -118 0
-1190 -2875 0
1304 -625 0
3442 2083 0
-606 -2709 0
-1352 -3518 0
-2143 2995 0
2605 540 0
-447 2245 0
-2752 -814 0
1892 2210 0
-3591 1026 0
1694 -2159 0
-2248 1354 0
2084 3627 0
2577 -2533 0
1767 -509 0
1764 663 0
2259 -3133 0
-63 -1330 0
-2787 632 0
-1222 -3290 0
-1932 -3455 0
-906 1317 0
-1427 -926 0
-2440 2005 0
-1057 -3738 0
-3741 2413 0
1075 2662 0
2736 1833 0
-1196 -2972 0
-952 -1872 0
-2905 627 0
1000 2350 0
1311 1006 0
-2892 -1371 0
3389 -3412 0
-87 -937 0
-3489 537 0
2603 1857 0
-1109 -1202 0
-3729 2107 0
1045 747 0
1447 -961 0
3087 1372 0
3498 -3647 0
743 -2287 0
-682 3576 0
1388 984 0
1099 -2316 0
-66 2325 0
2755 610 0
55 661 0
1747 3520 0
3510 3612 0
-2911 -927 0
-1403 3305 0
-2662 -3202 0
-3334 1790 0
3216 3205 0
821 -3219 0
-842 -645 0
-1597 -1032 0
2980 2422 0
-758 -3330 0
-2110 889 0
-963 1930 0
-2301 1298 0
393 -1294 0
1855 -146 0
-3150 -3718 0
1701 2591 0
1417 2183 0
724 2365 0
-2471 1784 0
-1881 -2909 0
-502 -1244 0
-2561 -1937 0
2406 75 0
789 -1124 0
1097 2822 0
-1984 2188 0
-3680 -2562 0
-1081 -2819 0
2503 2814 0
-2289 -2611 0
724 -1104 0
-1230 -3549 0
-2042 1176 0
-3400 3513 0
-3284 -3132 0
3389 1451 0
-3182 -2884 0
-1271 9 0
217 1427 0
1738 2926 0
-2377 1822 0
2514 -309 0
3642 -688 0
-609 -2906 0
1609 828 0
2364 -2207 0
-152 108 0
679 -1756 0
-836 -1124 0
-1452 2574 0
626 -2774 0
-1842 1793 0
-166 966 0
-2157 -600 0
-2549 1540 0
3323 2568 0
-2096 -2698 0
-1925 2621 0
-2390 -3594 0
-531 -2516 0
-3564 3145 0
-1690 -3330 0
-1744 72 0
1615 -677 0
-2819 1628 0
2064 -1278 0
2743 -2065 0
-1787 -2314 0
-3589 -2056 0
1037 798 0
3560 919 0
-569 -2073 0
2092 -2571 0
2027 -2562 0
1538 -1729 0
1458 -1510 0
295 -1997 0
3411 -3762 0
878 110 0
2702 2784 0
-2328 -2141 0
-1657 -870 0
661 -66 0
-1251 3590 0
3642 -1573 0
-2388 -3106 0
1748 1406 0
-20 -1882 0
-2478 -1071 0
-3455 167 0
-501 -3699 0
1048 2627 0
-1029 137 0
-2794 1178 0
-831 -3707 0
-763 1713 0
3407 3684 0
954 1158 0
3299 -1586 0
-210 2064 0
3655 768 0
-2087 3526 0
81 1519 0
1062 1474 0
3498 3207 0
1290 595 0
2515 1147 0
3061 -2534 0
495 909 0
1023 -433 0
-296 -234 0
-417 -294 0
-3346 3612 0
3191 -3622 0
-1120 -285 0
1485 331 0
-1393 3291 0
-3663 667 0
1485 681 0
-2766 -2343 0
1166 1772 0
3158 -2471 0
-1951 -181 0
-2694 2688 0
1826 3479 0
2119 -2923 0
-239 2328 0
-1924 -986 0
-1132 -1763 0
-2194 3611 0
-1794 938 0
-3583 -3215 0
-3629 2723 0
-2544 -1608 0
3707 2018 0
-3328 2540 0
3258 2684 0
3472 3233 0
-3228 -722 0
1469 263 0
3052 -2234 0
-2438 1594 0
-1321 -1638 0
702 -1698 0
-648 -1400 0
-142 -1678 0
1305 -1978 0
-1117 -498 0
-3360 -1313 0
-1779 1753 0
-613 -3375 0
2187 1461 0
2013 -3187 0
2685 -1272 0
-2987 -952 0
-2312 -3314 0
-3487 -1997 0
1369 -1488 0
2397 -1888 0
-2837 -660 0
1866 2720 0
2488 -3673 0
2902 -1013 0
-1006 -2954 0
-720 -1151 0
-968 594 0
-2870 2125 0
-481 209 0
2972 -2360 0
-834 2115 0
3131 -2087 0
-3501 3426 0
3625 -2301 0
-1576 3074 0
2542 455 0
1205 1044 0
462 -2200 0
761 -1666 0
1801 -2853 0
3543 -199 0
-1781 -2056 0
-3131 -2942 0
-2430 565 0
-1389 3626 0
3580 -2646 0
103 -2685 0
1501 -1019 0
1680 2375 0
-464 -336 0
3074 1703 0
-3671 -2143 0
-1486 2731 0
-1948 365 0
-2932 -30 0
-2719 3149 0
2682 -1060 0
1304 1013 0
-3387 1568 0
-2308 -1537 0
216 -65 0
1766 -3286 0
-3300 -3007 0
2898 3270 0
-1915 -1822 0
-1927 2821 0
1660 3581 0
72 841 0
776 -3303 0
-2475 -307 0
2867 3197 0
-1291 -2466 0
2334 -2015 0
375 -1967 0
1917 1358 0
956 -211 0
2785 1115 0
-1027 1130 0
2278 499 0
-688 2319 0
923 -2802 0
-781 1059 0
-3555 -630 0
-496 -312 0
1167 3182 0
2521 -3453 0
4 542 0
-1425 592 0
-2176 2325 0
2527 1215 0
-2386 -728 0
-940 -2411 0
-367 -3727 0
-2659 2075 0
-3594 56 0
-3377 -1374 0
-1158 -2790 0
-3261 -42 0
-1202 2764 0
-1825 3161 0
-2975 -3277 0
2722 1849 0
255 219 0
-2085 -2030 0
3374 2869 0
-2581 784 0
-2999 781 0
-427 -33 0
-3754 2544 0
1217 3318 0
2325 419 0
-1500 -3182 0
-2000 -2419 0
-3768 1610 0
-403 -3003 0
-3222 -2611 0
1213 -1943 0
1809 -1716 0
-3427 3149 0
-950 3462 0
3423 3710 0
3423 982 0
3161 -3620 0
178 526 0
3346 -599 0
-483 2901 0
1369 167 0
1151 575 0
-2673 -1144 0
2046 913 0
-1383 -1536 0
-3457 -3488 0
1811 -2197 0
-1683 2595 0
-2935 2782 0
-3255 2905 0
895 664 0
1664 3635 0
-830 -2405 0
-390 -2007 0
1833 184 0
2196 -3137 0
-3649 -1176 0
879 2661 0
-1106 1478 0
-2928 1732 0
2693 649 0
-2085 2664 0
-1042 256 0
-2448 -1600 0
20 -1349 0
2759 -3105 0
1656 3548 0
1725 -2190 0
-3479 878 0
3015 3347 0
2176 -1386 0
-312 -1382 0
3100 1976 0
-2483 -1515 0
1867 972 0
3331 -1444 0
-1447 807 0
-1693 -111 0
1760 -1076 0
-29 1456 0
-2065 -3022 0
737 1677 0
-638 3459 0
67 1239 0
-161 1701 0
1740 727 0
-2228 -2195 0
-1945 525 0
-907 -1747 0
1219 2184 0
-1944 -3367 0
-2829 2408 0
-3654 1824 0
-751 -870 0
-728 2253 0
864 1291 0
126 -2347 0
1373 -3650 0
-555 2683 0
1736 3231 0
982 -1014 0
2084 943 0
2746 -651 0
-504 941 0
-441 -1724 0
1987 -2130 0
1215 2027 0
-1626 2564 0
-241 -2662 0
-724 -484 0
2720 837 0
2279 -1588 0
3084 -2999 0
-2760 984 0
3199 -2907 0
-3149 2771 0
1162 2184 0
-3624 3532 0
-2097 82 0
3004 -3532 0
-77 848 0
-2823 2681 0
-325 -2551 0
-3150 -3357 0
-1032 -198 0
631 172 0
1825 3206 0
2369 -2972 0
2377 3254 0
-1051 -3023 0
3526 2687 0
2813 -650 0
-3133 1302 0
524 1813 0
-2820 -2094 0
2464 1595 0
-3244 -3333 0
2880 -2346 0
-1065 -25 0
-2377 -3657 0
-2725 -2040 0
-1328 2731 0
-2290 -3354 0
-1459 948 0
-2531 -2026 0
-1286 1013 0
2767 -1256 0
-3461 2304 0
-452 -3446 0
-60 -2473 0
2538 -1843 0
1561 -2615 0
3382 1613 0
-1855 -3592 0
-204 -2741 0
2107 -1843 0
107 -3308 0
-3299 -2597 0
1693 -203 0
-1104 -3037 0
-687 -1755 0
362 -1459 0
-292 1705 0
3191 875 0
-1818 -1073 0
1369 1236 0
-154 -3623 0
1673 -985 0
-1464 -2274 0
-3763 -845 0
-3296 2312 0
2569 -1400 0
2164 2398 0
-1882 -1576 0
1962 -1399 0
-1184 1284 0
-2272 807 0
-3585 3576 0
3262 -2404 0
-3623 -1643 0
-170 764 0
351 -2075 0
-127 1809 0
460 -226 0
1393 1177 0
-2583 2810 0
-2220 -654 0
1573 2539 0
3027 -2049 0
3447 684 0
67 2426 0
437 -3362 0
-1430 -1030 0
2126 -2291 0
-3647 2100 0
2300 55 0
1236 -2275 0
183 1036 0
-1508 -2532 0
1217 234 0
3325 -1016 0
-296 -1548 0
-1435 3184 0
3728 -1656 0
-2285 -2587 0
-3014 -838 0
1951 -1638 0
2240 -2000 0
-2611 2898 0
1720 -2921 0
-527 -3514 0
-1159 -3079 0
3522 -696 0
3 -2464 0
397 -1632 0
-3443 -281 0
-3072 -2928 0
2485 -1313 0
63 -2972 0
-90 -349 0
539 143 0
2123 2239 0
3168 -1029 0
-1710 -3203 0
1213 -2278 0
332 3357 0
-2837 -2691 0
-2315 1402 0
-1705 252 0
1180 -2689 0
-3469 518 0
1164 1970 0
101 -308 0
185 -1004 0
-3035 -745 0
-2014 2326 0
2800 2280 0
2793 -2880 0
-2277 -3081 0
-3666 -2571 0
1469 2091 0
3063 -819 0
-2067 5 0
-31 1908 0
-1746 -1590 0
1530 -356 0
-2171 2182 0
-130 -2535 0
-1505 3092 0
3561 1133 0
536 -1052 0
-652 -1033 0
2916 -2723 0
-3241 54 0
650 -1470 0
-3511 3328 0
3258 3356 0
2873 -1014 0
-1677 704 0
-1256 -1533 0
-1379 -1175 0
725 -618 0
-2883 1107 0
632 -892 0
-3200 826 0
-2912 1750 0
-1973 -3471 0
-2756 380 0
-2787 2718 0
2251 -2905 0
-3689 -62 0
2661 1509 0
-601 336 0
3101 -1043 0
2096 -3336 0
-1969 -1015 0
984 855 0
2600 -3622 0
3063 -1789 0
3139 3350 0
-2678 -2082 0
-1943 -757 0
1768 -697 0
-3458 -1299 0
2807 -442 0
-2288 2227 0
-298 -3188 0
2338 581 0
-2151 2601 0
-1770 -3122 0
306 -2500 0
-3244 2910 0
-869 3601 0
2410 -3279 0
-3198 3179 0
-1491 -2171 0
-202 928 0
2055 3461 0
-1154 3077 0
-3065 2853 0
-1217 -860 0
1061 480 0
1441 1316 0
64 1169 0
536 -2100 0
2410 1941 0
-1465 1540 0
-1686 2937 0
-1076 3116 0
-3131 -154 0
2731 1821 0
1317 2135 0
3212 3211 0
3460 -1957 0
-3341 936 0
-117 -555 0
-643 2124 0
-2501 -3079 0
200 -3561 0
-840 -1216 0
-2801 3297 0
3373 66 0
3224 2514 0
-1779 -3400 0
905 1439 0
-3170 2380 0
-1902 2368 0
2404 1905 0
-2218 -2475 0
-910 -2533 0
-1376 2950 0
1398 -3375 0
206 1702 0
-3437 -781 0
-2956 2720 0
1700 -2274 0
2107 2553 0
-3120 -2258 0
3004 2731 0
1510 1984 0
-169 -3000 0
-3059 -902 0
-28 -3148 0
-3193 2815 0
1568 -712 0
-3650 944 0
218 1279 0
2615 -1949 0
-2763 2124 0
1253 -2510 0
443 3479 0
847 489 0
725 2854 0
220 3299 0
-3050 -560 0
3279 -343 0
-3368 465 0
3216 54 0
-3434 323 0
1512 -3649 0
1193 -3289 0
-832 -1868 0
1710 2879 0
-2076 2022 0
-346 3525 0
-2478 430 0
-1361 1806 0
-3603 -2612 0
2268 1185 0
-3538 181 0
-1952 2127 0
-2781 -1942 0
352 -1920 0
-488 3560 0
1616 1245 0
-2171 1564 0
-1703 -2946 0
-607 2131 0
-2313 949 0
145 -578 0
3325 -3119 0
-827 2569 0
-2369 1456 0
1993 -945 0
-608 2304 0
-1669 45 0
-2168 -1755 0
214 -2780 0
-110 -2019 0
-956 -3412 0
-1912 -2889 0
-3318 -378 0
3016 -2221 0
-2562 -3252 0
-3368 1963 0
-2225 -1220 0
-543 -1042 0
-407 2296 0
3572 -776 0
-1616 3176 0
333 1168 0
3722 2473 0
3523 -3502 0
2978 -575 0
1704 -974 0
-2230 -3341 0
1354 2526 0
-3693 2468 0
-23 2023 0
2442 -366 0
2414 -32 0
-1790 2593 0
1036 -3450 0
-2085 -75 0
3047 977 0
-3541 -269 0
-1093 -452 0
1151 46 0
-1154 -1835 0
-2528 3300 0
2672 2385 0
-202 2155 0
-3497 -2049 0
258 3131 0
1579 1095 0
-2714 -3029 0
-1421 3409 0
898 -1360 0
-477 -129 0
-2026 398 0
-374 3038 0
-2044 3046 0
-1243 297 0
-2512 -1088 0
-2999 -2808 0
-3605 -417 0
743 278 0
2032 1930 0
1278 2495 0
-2435 3584 0
554 -3255 0
-1208 -2452 0
-2502 -2927 0
-3673 241 0
-66 -1259 0
2084 -671 0
885 -657 0
-996 -3124 0
-1074 -254 0
2178 1000 0
2445 2974 0
59 575 0
1710 -3678 0
2704 503 0
496 197 0
64 3384 0
964 -168 0
2183 96 0
356 -2934 0
2736 3379 0
-3550 -1216 0
3378 -3234 0
-2315 1935 0
277 -1037 0
-2710 -2423 0
2430 1347 0
-3360 -932 0
3354 -2999 0
-1313 -2666 0
-771 3298 0
-439 -1367 0
850 21 0
-121 -2010 0
-3183 -780 0
3262 -2822 0
-3050 2618 0
2079 2740 0
-1786 3165 0
1368 435 0
-83 -676 0
64 3041 0
-320 -222 0
-202 -2876 0
2521 3492 0
-2675 3601 0
2493 -1085 0
3506 -3545 0
-3166 -983 0
1440 2199 0
-2088 2615 0
1503 2519 0
1614 1469 0
-612 -2583 0
-1608 3610 0
-3289 2494 0
-2215 -160 0
3503 -105 0
3466 1766 0
1951 2751 0
3343 -1418 0
-1386 1474 0
-2308 -679 0
-3627 857 0
-1552 2699 0
3714 728 0
2913 -1242 0
-1756 446 0
2693 -2654 0
-1599 2676 0
-1460 2541 0
-251 -2058 0
16 -195 0
-1593 -1652 0
3262 -2254 0
1959 2292 0
984 3382 0
-2571 686 0
1918 -2307 0
-3628 -1582 0
3379 2857 0
-1276 -798 0
-3553 -3688 0
167 738 0
3667 888 0
-199 3555 0
2525 2122 0
1670 -575 0
3269 3552 0
-813 -24 0
3644 -2886 0
-2564 3024 0
-2308 3639 0
-2973 2445 0
1180 -1991 0
-994 -2796 0
-94 2689 0
1322 1714 0
2338 2254 0
-1422 850 0
-2984 1808 0
-38 -2609 0
1972 -851 0
-1517 2526 0
2254 -1693 0
650 -3382 0
1995 277 0
376 -689 0
2108 1081 0
2742 -1033 0
984 2684 0
1935 -2679 0
-2704 -1863 0
1169 -2834 0
3684 3610 0
-2834 -2548 0
2964 703 0
-2917 -2297 0
-3223 -1313 0
-432 1947 0
1124 3640 0
-573 -953 0
689 2310 0
-193 2607 0
497 1984 0
-2333 809 0
-42 3624 0
-1702 -2881 0
3215 -205 0
-3507 1670 0
-1263 -937 0
2834 2833 0
-2932 986 0
-560 -3749 0
-1308 -720 0
3197 331 0
1608 -513 0
2096 -1615 0
-428 -1531 0
2389 -3117 0
-2320 1152 0
-810 -860 0
-1827 3077 0
537 -2432 0
-1577 -1727 0
1747 1156 0
-993 262 0
-2182 -1912 0
-891 369 0
2636 -3089 0
3258 386 0
2616 -2360 0
1255 1630 0
-3429 -1322 0
-726 -2533 0
2751 -818 0
-1241 757 0
-1218 -3030 0
-9 -3607 0
1650 1137 0
3264 2178 0
-3744 1736 0
3489 -39 0
2217 2318 0
-3615 -2529 0
-2110 -2909 0
3211 1354 0
627 2703 0
1841 -2893 0
1826 -3101 0
647 359 0
-2156 -1448 0
993 -377 0
861 1788 0
1071 1887 0
-2923 -145 0
2902 2013 0
2496 2340 0
1610 -123 0
-3593 1139 0
-1732 2022 0
-633 -72 0
2644 1005 0
282 -984 0
-255 2950 0
257 -3111 0
3550 -469 0
2527 2027 0
3123 3719 0
-521 -1604 0
2232 1616 0
-3004 1935 0
-259 75 0
-265 -193 0
-3267 606 0
-2204 2921 0
-3134 -1596 0
3147 490 0
-1069 -2377 0
1295 803 0
-1989 1556 0
-1011 -150 0
-1577 1858 0
-1952 1210 0
-1409 110 0
3024 -3341 0
847 2551 0
-497 -1553 0
-3662 3197 0
-1104 2833 0
736 910 0
2132 -2737 0
-3366 -3647 0
84 -3468 0
3248 3773 0
-2949 -802 0
-1190 523 0
3377 -241 0
-551 547 0
2153 -1020 0
-1120 -1660 0
-3020 3017 0
2649 1795 0
-976 -685 0
1321 -3251 0
-1242 -3195 0
752 -3195 0
1413 -3068 0
-375 -3 0
1998 1429 0
3512 -3679 0
-2916 -154 0
1747 92 0
-1965 -2783 0
-2030 -2200 0
-84 -3219 0
484 3402 0
1293 -957 0
3233 -3010 0
-224 3222 0
-254 2955 0
935 526 0
3507 -1273 0
-34 543 0
454 -2364 0
1565 2279 0
3530 234 0
-2308 2500 0
-795 2072 0
326 1061 0
-2930 -3111 0
3420 -196 0
2984 1397 0
648 -1376 0
1277 3059 0
3074 -927 0
-804 -3764 0
-3649 761 0
-1218 1337 0
-2205 112 0
-2470 -2396 0
3262 10 0
-3253 -1211 0
3008 110 0
-162 -348 0
-686 1070 0
2291 2984 0
-3218 2444 0
-1923 -233 0
-1491 2943 0
-2328 -2385 0
480 -1014 0
-1300 3084 0
1114 -3039 0
88 3607 0
-2387 -1415 0
-1110 3047 0
-1043 430 0
1998 3587 0
-407 -203 0
3206 -1926 0
2160 878 0
2280 -2261 0
-2564 3400 0
2978 -601 0
2923 -1880 0
2533 2268 0
1984 1983 0
1296 691 0
393 2553 0
1836 3440 0
-1795 3169 0
1081 1199 0
-415 -2121 0
-3715 1956 0
794 -2821 0
956 3226 0
3058 3648 0
621 -2889 0
955 3607 0
230 1483 0
-128 -1360 0
2793 1570 0
-1113 13 0
1371 188 0
234 2304 0
-3528 3305 0
2274 -2634 0
-2437 20 0
3316 1285 0
1024 -3530 0
49 2289 0
2093 -782 0
-432 3553 0
-1663 -220 0
2256 716 0
1010 -1422 0
2661 324 0
18 417 0
-204 781 0
1041 -3345 0
867 2891 0
-1560 -588 0
-2711 -2142 0
2676 -2694 0
-1143 -3331 0
2390 -3553 0
682 -1450 0
-1274 -1236 0
-2695 -39 0
2424 -326 0
3266 2911 0
2368 3302 0
-20 -3495 0
-3732 -1514 0
889 3706 0
-3610 -539 0
-1350 1150 0
2573 -2012 0
-100 3279 0
518 -272 0
-2426 2474 0
-1754 -2941 0
3040 -813 0
1844 -588 0
1042 -715 0
385 -3036 0
-3207 -230 0
175 1971 0
-332 1114 0
3015 -3453 0
1495 -3225 0
-2572 3534 0
3474 -2327 0
462 2127 0
2970 -3732 0
-2501 2130 0
1410 -687 0
2111 3649 0
-281 -3421 0
2064 734 0
2268 3087 0
-1769 -3361 0
1115 1682 0
-2684 -348 0
689 -1836 0
-813 3211 0
2955 -1850 0
-1856 3394 0
-2960 3339 0
-945 -2790 0
3719 1854 0
-3139 -2083 0
-2446 -1837 0
2162 -1247 0
1287 2302 0
3766 -809 0
-3185 -3646 0
-174 637 0
-209 2868 0
1456 -2582 0
-896 -2246 0
-3118 -614 0
-3554 -2545 0
-1330 978 0
-20 -751 0
-120 2403 0
-3405 -2958 0
3061 2865 0
3108 -970 0
-812 -1108 0
2181 -1746 0
3682 -3435 0
2191 3264 0
639 -3103 0
2296 2556 0
535 -3334 0
-1727 -3240 0
-2532 1511 0
-1203 -110 0
757 -3386 0
-3272 -2129 0
867 -3425 0
-328 -899 0
929 2188 0
3579 951 0
3635 734 0
-660 2173 0
-2434 3117 0
-1120 -784 0
3385 -961 0
3725 2081 0
1866 1541 0
852 647 0
-882 135 0
2587 425 0
2421 -2817 0
772 404 0
-285 -669 0
2276 683 0
2419 -1225 0
-3079 644 0
-1298 -2277 0
2118 -1906 0
-3589 -1219 0
-978 -30 0
-2339 1623 0
2366 -296 0
2817 -1868 0
-1061 -2312 0
1660 3143 0
-1352 -3336 0
-1413 2699 0
-987 1090 0
2102 3047 0
-1803 520 0
-3204 -2453 0
2690 2726 0
3070 -926 0
185 -3755 0
3008 -1684 0
-3159 -1046 0
2670 -175 0
1829 775 0
1249 457 0
-367 2199 0
1238 -1032 0
-3375 3161 0
2260 -3757 0
917 3717 0
-3082 -1885 0
-2912 -707 0
1167 3335 0
2538 2883 0
-2856 -211 0
-3263 2841 0
-2471 -2293 0
331 2366 0
1579 -501 0
2057 1163 0
-2705 2082 0
-714 632 0
1335 2667 0
1855 2270 0
700 3416 0
-3663 1084 0
-2909 1121 0
-850 3496 0
-885 -708 0
-45 2164 0
-142 3177 0
2099 1578 0
1333 3627 0
-114 1007 0
-2576 3226 0
78 -1190 0
2599 -1914 0
-1692 -2157 0
176 -1735 0
1818 1508 0
-2440 2512 0
1865 -3218 0
-2315 -401 0
-932 -3067 0
531 -2827 0
1903 -2521 0
2690 1071 0
-1327 2515 0
3625 -2672 0
2732 -2298 0
-1796 1879 0
2352 3588 0
-514 -2379 0
-706 2856 0
-3690 -464 0
-665 734 0
2796 -1534 0
-1950 -2291 0
-175 -534 0
2600 -57 0
-517 919 0
1249 -203 0
-1286 -3204 0
2215 -3174 0
-3272 729 0
-3284 -2665 0
833 -3473 0
3452 -1430 0
-791 3405 0
-1704 793 0
-2523 -2004 0
584 2135 0
-582 2846 0
1979 -2821 0
2905 -2597 0
4 -473 0
1340 2465 0
-1780 -1498 0
-924 1253 0
1319 -2282 0
-2672 -460 0
80 2184 0
1002 -3123 0
1181 -2552 0
2053 -599 0
3639 -328 0
2759 -569 0
3698 1669 0
-42 1419 0
2395 752 0
1581 -1703 0
982 -2072 0
3326 -503 0
792 -2373 0
-298 1757 0
-599 -852 0
3600 618 0
216 1944 0
-1944 -1567 0
1856 2899 0
-3554 141 0
-777 -2106 0
3049 -3242 0
-1919 1726 0
-3330 3474 0
-2172 -1614 0
-1415 -1218 0
-894 1410 0
427 -2027 0
-1364 -125 0
686 -3562 0
-2529 -3547 0
1098 2018 0
-1842 -2940 0
123 -2045 0
3665 2822 0
-2191 1921 0
1910 2598 0
-3336 -970 0
-3178 966 0
-1333 -278 0
-1328 1752 0
2430 415 0
2427 -2516 0
2132 -129 0
-477 2406 0
3333 -1165 0
1766 -1408 0
3455 -240 0
-2433 2436 0
-3641 318 0
-3 56 0
-1697 3358 0
-3456 754 0
230 -2548 0
-509 592 0
259 876 0
-3421 -2129 0
684 -2378 0
2638 -1550 0
-2330 -3135 0
979 3152 0
-1853 2455 0
-766 -19 0
1127 -64 0
614 2750 0
-2629 -1332 0
-2001 -2317 0
1211 853 0
-2727 -2824 0
-3359 -1100 0
665 3254 0
453 3405 0
3676 -2054 0
-3387 -131 0
-2170 -372 0
-1381 -574 0
-98 1340 0
-3340 -1716 0
1260 2058 0
782 2144 0
-1443 2326 0
2864 -872 0
-2463 -3751 0
-87 -2537 0
-1271 2170 0
-1225 2233 0
1789 -2361 0
2102 1782 0
1777 1676 0
1458 -3220 0
3128 -1653 0
2506 2233 0
-3014 -1891 0
2439 -1626 0
-3683 -1295 0
1681 442 0
-1643 -1428 0
2966 -3637 0
1210 1215 0
-627 -209 0
75 -3762 0
810 -1646 0
3362 1703 0
577 2154 0
-653 1602 0
2187 -1035 0
-3241 -2752 0
2438 -3731 0
-3018 1899 0
-195 423 0
-1219 1423 0
-2980 3416 0
-980 -1262 0
-41 503 0
-1165 -1925 0
2194 -1 0
-3293 424 0
67 2470 0
-222 3556 0
-189 1960 0
-1177 2963 0
-1439 -2980 0
3207 3747 0
-2252 580 0
-223 -1642 0
-2032 -309 0
-3473 -2288 0
758 3216 0
-1216 -913 0
3474 -2686 0
-1011 263 0
2650 907 0
-412 3237 0
-2360 -1781 0
611 581 0
1467 2084 0
-3306 -920 0
3055 -1029 0
-1813 -2451 0
2534 -2328 0
-1879 -777 0
3112 -1707 0
-325 -2398 0
-3589 1699 0
1998 -1749 0
-2903 866 0
1605 -3637 0
3228 1403 0
-2955 1847 0
-3127 814 0
-2321 2373 0
2544 -2452 0
-3363 3057 0
-3317 -3265 0
780 -3261 0
-2502 697 0
-1990 1406 0
2155 2314 0
-1045 2188 0
129 -1113 0
1910 -456 0
-2541 1998 0
1774 2455 0
-28 -245 0
-2775 -1727 0
260 -977 0
3023 198 0
-858 3502 0
186 -1291 0
3260 1537 0
-2936 -374 0
1264 1876 0
23 -3641 0
-1431 3350 0
1475 -3710 0
-2088 145 0
-2782 -1269 0
911 3599 0
1096 3503 0
-59 1976 0
1182 1135 0
2889 2383 0
-2319 -1787 0
-907 -2194 0
-3059 2291 0
-2592 2050 0
-2511 2965 0
-309 -3018 0
-239 -551 0
-1032 3374 0
-907 -959 0
-2172 -2573 0
-2616 -1033 0
2226 -1364 0
1876 -2007 0
-2936 605 0
1308 -3127 0
907 2099 0
-3335 1703 0
-1967 -853 0
552 2929 0
-828 3107 0
1859 -2291 0
388 1012 0
2438 242 0
-445 556 0
606 382 0
-559 -17 0
2414 682 0
-2449 1135 0
-2167 -920 0
-2354 7 0
2784 -2958 0
-714 2692 0
321 3757 0
-2993 -546 0
-1489 765 0
-2467 1507 0
-981 -898 0
-683 2468 0
-477 807 0
2842 536 0
-2004 2800 0
2264 -3229 0
3256 -2114 0
-1554 2945 0
-2301 -3349 0
-1408 -957 0
250 -337 0
2817 2520 0
2457 3203 0
-3104 -118 0
3438 3569 0
-189 -1761 0
-3111 1660 0
2027 1336 0
-2597 3020 0
159 263 0
-1408 3729 0
2145 1192 0
843 1191 0
-3369 -1585 0
927 -457 0
1584 -1278 0
-2980 -951 0
1263 -1482 0
-1061 -1883 0
-1086 441 0
3691 1749 0
-653 3096 0
190 489 0
3606 1819 0
3053 1895 0
-1634 -104 0
-1790 884 0
2777 -584 0
-53 -981 0
-3289 1037 0
383 2830 0
3492 -164 0
1263 1289 0
966 3739 0
-3308 -548 0
3472 2013 0
611 -1734 0
-2746 2881 0
-1929 -2328 0
-1064 -1798 0
-1470 284 0
-3051 277 0
758 -3325 0
-2814 271 0
3177 -1975 0
-312 1282 0
1641 2150 0
3063 2404 0
3765 1444 0
2029 -2387 0
-1849 2692 0
3356 -612 0
1311 2943 0
3330 392 0
-936 -318 0
-2019 -1407 0
919 124 0
3215 -2595 0
185 -2395 0
1469 2296 0
-2542 -691 0
-2851 448 0
1043 149 0
3333 1775 0
-2349 2182 0
-3085 864 0
2981 2519 0
-1977 -3184 0
-1986 -2348 0
-123 1006 0
1649 -1368 0
-613 2796 0
-1496 -1445 0
-807 -623 0
-1920 54 0
-2777 -2121 0
2155 -3381 0
2188 -3401 0
-1340 1089 0
3474 2813 0
1469 2671 0
42 -1838 0
-3362 -3189 0
2738 -276 0
-1952 -3312 0
-3317 3044 0
-834 2951 0
3522 -2690 0
-1011 -1383 0
-1485 2909 0
2301 442 0
1832 520 0
3174 1498 0
3471 822 0
3243 3262 0
3428 -2238 0
1700 769 0
3587 -2042 0
3322 365 0
-3434 -3583 0
-102 -2061 0
409 526 0
2676 2300 0
529 852 0
2919 1622 0
3309 -2230 0
-585 -2012 0
755 1670 0
2128 -569 0
-1298 2495 0
-1801 1633 0
-777 -736 0
3682 3144 0
-1218 2032 0
-3715 280 0
1167 2566 0
2112 -3671 0
359 3059 0
3658 -1549 0
-1132 2474 0
-571 -2432 0
-3538 883 0
1628 318 0
2979 -2855 0
-3616 -3610 0
-452 2731 0
2473 1851 0
-3530 -1586 0
-912 905 0
2458 2034 0
-2405 -3046 0
-1714 3402 0
1765 -1970 0
2020 2313 0
-385 -2485 0
-451 -3754 0
1694 -1802 0
354 1615 0
2471 -1334 0
2328 1783 0
1671 -3372 0
428 -1682 0
2828 2424 0
201 2735 0
82 -1940 0
-207 -25 0
1108 -1993 0
434 -3501 0
903 -818 0
-3565 -1250 0
-769 490 0
3175 3348 0
-1218 -1094 0
-1634 -3122 0
3124 3061 0
3707 -1587 0
1450 3631 0
-161 156 0
2569 -1996 0
1935 -2650 0
1415 -561 0
165 494 0
-3319 -1182 0
-2322 -918 0
-589 -215 0
3417 186 0
-349 1214 0
11 -2598 0
-449 1117 0
1544 -1163 0
3741 -2612 0
-2739 -3268 0
-2383 1193 0
1595 -2585 0
-1394 -2308 0
-2746 -1411 0
-2164 1887 0
-2595 -817 0
3755 -1932 0
647 2652 0
986 2485 0
-1572 494 0
-2674 1172 0
-1244 -2030 0
-3010 -385 0
1836 -3221 0
1030 -1047 0
566 3748 0
-1452 3400 0
-30 -13 0
73 120 0
1343 -2678 0
-1490 -1420 0
-3490 616 0
2372 -1359 0
-3524 -2660 0
-3535 -3561 0
2063 -138 0
-1369 1428 0
1380 109 0
-1232 -3198 0
1403 2986 0
306 -223 0
-1703 -28 0
-1758 914 0
-921 248 0
-1639 -2321 0
1559 3512 0
-2979 376 0
2919 -2202 0
-2907 585 0
2237 -832 0
2455 -1382 0
-1931 54 0
-3460 -560 0
-3629 462 0
2058 -583 0
-1451 2886 0
2243 -2252 0
178 2867 0
1719 3400 0
990 2554 0
-958 3151 0
-3754 1250 0
-3083 661 0
3106 -3759 0
3245 -1636 0
1892 2603 0
-2819 -345 0
1675 3020 0
-1145 1613 0
2751 2924 0
454 1322 0
-3633 -2024 0
1775 -3546 0
-1521 253 0
1193 1138 0
-497 959 0
1173 278 0
3189 -757 0
3007 634 0
2213 2558 0
100 -936 0
-278 2503 0
-1887 2010 0
-2093 828 0
10 2771 0
335 -1216 0
1458 1241 0
388 -1397 0
3124 -1789 0
2381 -1645 0
-206 -2682 0
3175 3758 0
2355 -3012 0
1715 2514 0
-14 -1746 0
-765 3486 0
708 -2061 0
2545 -969 0
-3047 1327 0
793 -633 0
2948 -2711 0
2356 2386 0
-239 -2255 0
655 -1778 0
-43 -1022 0
-3290 25 0
-624 455 0
-1398 826 0
-391 -2322 0
-966 -3275 0
-747 -2336 0
3518 2096 0
2797 -1943 0
1845 -3705 0
-523 966 0
-239 -1003 0
-820 -1848 0
3309 2479 0
2406 1094 0
-1078 1705 0
-1334 -2571 0
2806 1390 0
496 -1221 0
474 1693 0
2926 -1298 0
-2353 161 0
-3320 3476 0
-2033 -422 0
1393 3600 0
641 317 0
-498 93 0
-815 2700 0
-3513 688 0
1152 451 0
-671 -1970 0
2886 1730 0
-1763 -3465 0
-1907 1690 0
-1812 -1851 0
-2627 -1587 0
-2568 681 0
2679 -3724 0
3218 -2804 0
-680 1463 0
2817 -1923 0
-1839 -2451 0
3471 161 0
-204 1813 0
-1007 -1553 0
1822 1856 0
2334 -3436 0
-754 -1535 0
1263 -3338 0
1235 795 0
-2107 -764 0
1620 -3457 0
894 229 0
-894 2452 0
1765 3332 0
1133 632 0
-3675 -2281 0
3136 1292 0
411 198 0
3402 -848 0
1864 -3206 0
1986 -818 0
3188 1422 0
-336 -2457 0
1289 2866 0
582 2099 0
1459 -510 0
1567 -3747 0
-3145 3722 0
-3659 -2446 0
2220 969 0
-3352 743 0
2479 -976 0
-2172 1628 0
3340 2031 0
-2778 -345 0
-1395 1935 0
-3711 2500 0
2735 3447 0
2420 -159 0
1028 905 0
1538 291 0
-1484 -705 0
349 1055 0
3600 64 0
1024 -2912 0
-1242 -3325 0
3526 1989 0
-1780 1713 0
-395 -556 0
-2433 -513 0
-2944 413 0
1708 1879 0
3385 3438 0
-666 2102 0
-2678 3451 0
2933 1606 0
2992 1416 0
3379 -514 0
450 72 0
817 100 0
3665 -148 0
-3429 -1459 0
-3321 -194 0
-795 34 0
104 356 0
649 404 0
-1993 3325 0
3438 3102 0
85 -1747 0
833 -1626 0
2735 -1435 0
1690 -1177 0
2939 1253 0
-3612 -1016 0
1776 -831 0
3017 271 0
-3712 -3401 0
522 -2358 0
3438 3182 0
3690 -233 0
-2221 -93 0
3044 -433 0
3404 1305 0
-1094 -1026 0
2298 38 0
-404 -482 0
46 -968 0
-2163 2466 0
1292 1760 0
-1921 -2176 0
-2368 -3010 0
-103 2000 0
842 -392 0
-972 -360 0
-3295 190 0
3759 -2542 0
3062 43 0
-2198 -942 0
1236 743 0
3191 2511 0
-2209 2156 0
185 -2996 0
2479 1172 0
3057 -1420 0
-2379 -3087 0
1885 -228 0
3347 -806 0
2538 3398 0
-576 1672 0
-1643 1189 0
3313 1558 0
3349 -55 0
1551 -2730 0
-898 836 0
-749 -1389 0
-900 -3220 0
-1393 1251 0
2947 1005 0
2037 2978 0
3326 3062 0
-2861 854 0
-3121 1146 0
2075 -394 0
3676 -2467 0
1471 3036 0
3167 -1450 0
-648 -2673 0
3365 2668 0
-1346 3445 0
-2272 -1819 0
-633 3381 0
-3446 -3641 0
-2747 -3706 0
2853 -1183 0
2424 3359 0
724 -3148 0
1413 3627 0
2869 -3700 0
1221 3035 0
3187 2242 0
3003 -2789 0
-2057 2781 0
1076 -457 0
-537 791 0
1646 3213 0
2243 -2212 0
-255 -313 0
-1952 1146 0
-1085 -61 0
-576 -2976 0
-1949 3189 0
3610 1777 0
258 -2053 0
-760 2849 0
-2586 -2929 0
-1962 1981 0
3166 -974 0
-3326 2459 0
2028 571 0
-3594 2525 0
-3480 1245 0
-2666 -3637 0
2573 703 0
2239 -2090 0
2020 -3764 0
1386 2645 0
2747 1601 0
-1982 -2234 0
-2694 210 0
3212 3052 0
-3620 -785 0
3512 -1172 0
2926 166 0
-1810 -3697 0
1997 -437 0
-3657 -3021 0
-2604 3463 0
-2752 1641 0
-3277 1157 0
847 3440 0
-2752 -1647 0
2842 648 0
-490 442 0
3586 -907 0
-546 3557 0
-1587 1915 0
-3158 700 0
-1841 -2253 0
-2747 -3494 0
-3634 2620 0
-3547 -1805 0
625 -44 0
1096 2024 0
-630 -3178 0
3491 3551 0
-2315 1131 0
3348 -2691 0
-2968 1187 0
-473 -2827 0
2705 32 0
-1502 2993 0
-2596 968 0
-1838 2637 0
1877 -2142 0
422 -212 0
-1615 -3637 0
2328 1989 0
-3027 2820 0
1348 1910 0
-2671 34 0
-558 -715 0
-2967 820 0
-2686 -3763 0
3714 2869 0
-1798 2890 0
2236 -2922 0
-827 -332 0
2138 1525 0
2157 -1814 0
-3605 1939 0
-3649 -2622 0
-327 3027 0
3131 -3093 0
2909 -893 0
3418 1534 0
1432 583 0
2784 -1922 0
3773 -503 0
-1446 -2841 0
-3376 -2790 0
2235 297 0
-1931 -292 0
-3246 1204 0
-2726 2061 0
-2090 421 0
1845 -3554 0
-3220 2300 0
-3412 -1590 0
-3735 -1282 0
-119 -254 0
-942 541 0
3058 2364 0
-476 -105 0
-2213 -3488 0
-636 -3764 0
1203 -612 0
1694 -2997 0
759 -1341 0
-2520 -239 0
3609 -1836 0
3271 2241 0
-364 58 0
2209 -291 0
-569 -556 0
1793 1993 0
-1324 2761 0
-1118 -1200 0
1821 3647 0
-340 -1778 0
-3546 779 0
1888 -2570 0
2880 -9 0
2541 1567 0
2043 -2208 0
1766 991 0
-2292 -3647 0
1655 -225 0
-1454 -2609 0
3746 1619 0
1265 -131 0
-1698 -1604 0
344 -2177 0
-3762 776 0
2654 -2947 0
-498 -726 0
-1859 -563 0
3459 -2454 0
-3111 -405 0
3271 3152 0
550 -3463 0
-3010 -1831 0
1453 1401 0
-3208 -2662 0
2210 1887 0
3119 2001 0
3314 1007 0
1038 -2356 0
-347 1291 0
-451 -1914 0
3187 -2491 0
3492 2243 0
-3695 2871 0
-800 -820 0
-1849 -1821 0
2891 -3319 0
2842 -1486 0
1587 864 0
-2770 779 0
2661 1384 0
-3251 2383 0
2071 -1604 0
1496 3470 0
328 3761 0
1301 1537 0
2354 -1265 0
-623 -2218 0
-940 699 0
-1684 2366 0
673 -2036 0
2495 -2748 0
3096 1451 0
2414 2151 0
1651 333 0
1874 2748 0
-2567 350 0
-1356 -2909 0
-1961 -2348 0
928 -2005 0
1537 2474 0
-1673 3622 0
-3153 3475 0
-3514 -1145 0
1607 1145 0
1166 -3624 0
1169 1884 0
375 393 0
-1757 -2238 0
-316 2426 0
-1028 -1226 0
1091 2227 0
2458 2831 0
539 3305 0
-1339 -493 0
-3039 1503 0
3687 -6 0
1121 -1481 0
1578 -3746 0
-2148 1479 0
-2665 2759 0
3301 1506 0
-2778 -3332 0
540 -3153 0
571 2124 0
-1166 3108 0
3218 -1829 0
-2278 1933 0
491 2461 0
1098 1046 0
-3680 1547 0
1639 -668 0
986 -1723 0
-2563 -1414 0
1575 2637 0
1041 1138 0
-833 -2251 0
2905 -1414 0
2222 3512 0
2905 2434 0
-313 -33 0
-2570 2849 0
2761 3292 0
387 1164 0
-3746 2630 0
-841 -819 0
1837 3544 0
-42 -99 0
1071 688 0
-2042 1981 0
-3697 3238 0
-2365 981 0
10 -3751 0
-2313 3196 0
390 2147 0
2373 88 0
3052 -3119 0
-2592 -11 0
2896 1439 0
-2423 96 0
1413 2689 0
822 -120 0
-2007 2051 0
-3626 3421 0
-1070 -3735 0
452 -2908 0
-3368 -2976 0
-356 -3479 0
2313 -407 0
2857 3625 0
-337 -1337 0
3210 -420 0
3138 3380 0
3652 3347 0
-3040 -343 0
1467 2764 0
-3273 1785 0
-943 -2327 0
-2047 -374 0
1091 2467 0
-995 2158 0
3603 2319 0
-1003 64 0
-3538 -965 0
-2883 -1535 0
867 -3521 0
-1446 543 0
-2969 -1841 0
1278 884 0
2753 1192 0
-3279 2444 0
2559 -704 0
-1387 -3353 0
2117 -2638 0
-3043 -1269 0
988 427 0
-1796 -2016 0
-706 -3379 0
-1377 2600 0
-3381 1531 0
1708 331 0
593 -918 0
2064 3380 0
-415 -2342 0
-1515 -2514 0
2626 2793 0
-3567 -1160 0
-490 1162 0
3243 -1142 0
1289 -156 0
-2316 -3508 0
2490 -388 0
771 -3351 0
-432 -206 0
-1209 -1510 0
-3386 3341 0
3486 2178 0
-1854 1545 0
-1868 2834 0
436 3374 0
3063 2496 0
-1254 -623 0
3588 -158 0
-3043 -364 0
-1950 -2990 0
-245 1962 0
3620 1357 0
2214 -1909 0
-2634 -2785 0
1505 1567 0
376 1644 0
-3761 1074 0
-1761 -756 0
-844 162 0
2914 -1190 0
444 -2097 0
-1517 1283 0
1507 -2562 0
-3724 2774 0
-3641 -1574 0
2807 -3043 0
-2467 -1475 0
-2583 2526 0
3636 47 0
-3257 -301 0
-2362 1759 0
247 3573 0
-2561 -2315 0
2924 2842 0
1555 2514 0
-1168 2239 0
-1606 1857 0
3019 -1216 0
2334 584 0
-1336 1784 0
1910 -1206 0
2964 -993 0
1167 1283 0
2136 3721 0
-976 -3313 0
3212 994 0
-691 1847 0
-1352 -589 0
3166 -1384 0
878 -340 0
-715 -3583 0
-3087 -203 0
1572 115 0
-432 -1527 0
-3164 -747 0
-760 3605 0
-3131 85 0
-2702 -3275 0
429 -3342 0
866 1012 0
-488 2113 0
587 625 0
2559 -84 0
-3127 -1505 0
-2311 1564 0
-2667 -2065 0
2399 2963 0
-2350 -1444 0
1115 -3268 0
2117 2432 0
1322 850 0
-2202 -2728 0
964 2254 0
-3095 2144 0
-735 3328 0
-3680 -2844 0
-1934 -1778 0
1733 2067 0
-3655 781 0
-2969 -1735 0
3128 2035 0
478 1782 0
2043 -3598 0
651 1856 0
2933 3216 0
-1786 -38 0
-3362 -1680 0
-2388 -3749 0
-475 -3150 0
954 3722 0
-3333 -2715 0
484 1664 0
-3084 -1214 0
2475 1858 0
1222 -3395 0
-2466 2170 0
-3621 -1560 0
-3249 1179 0
-1016 -1967 0
-2093 406 0
459 2509 0
2184 -146 0
-1503 -2703 0
268 -2345 0
-1724 2209 0
3505 2420 0
-509 489 0
-298 -3514 0
861 -1606 0
-2253 -162 0
-1247 -1132 0
409 -2325 0
2419 -3111 0
-3596 3634 0
-735 1937 0
3299 1155 0
-3542 -3087 0
3595 -1404 0
2324 -182 0
3753 3587 0
3453 2066 0
-2232 2361 0
3050 -3296 0
-2359 1056 0
-2030 -1050 0
3060 -1159 0
-283 -2077 0
-1180 -1352 0
-3734 2157 0
-2038 2106 0
-3500 2287 0
3751 1809 0
-2934 122 0
1928 -1242 0
-1029 -1517 0
2800 -355 0
3766 -1243 0
-152 -1823 0
-2803 753 0
1407 -684 0
455 -2189 0
-2783 -484 0
1707 -994 0
1632 910 0
-3428 -783 0
3711 -3392 0
-3512 1930 0
-1320 850 0
190 -3644 0
-3650 650 0
-3222 -1410 0
2625 363 0
-373 -470 0
-3572 -2449 0
-3309 747 0
3730 3761 0
-261 -773 0
1649 2682 0
543 1867 0
-1411 -2953 0
1332 1512 0
1477 1171 0
816 -381 0
495 1127 0
-938 -3596 0
-2607 -1073 0
-662 298 0
-3105 2254 0
3727 2620 0
-630 74 0
-3402 2363 0
3124 3003 0
-3591 -3675 0
-2112 692 0
842 -2876 0
-2822 -1080 0
867 1748 0
486 -3540 0
-9 -236 0
3181 -2419 0
1607 -380 0
-1444 -1333 0
-3455 742 0
1714 -1996 0
2649 -1477 0
-2272 131 0
-3456 -1883 0
1335 3068 0
3524 305 0
-2087 2389 0
-1756 -2803 0
88 -3502 0
1173 -2620 0
2950 -2929 0
-3559 -2414 0
-1323 -1893 0
614 -2969 0
449 1393 0
-28 1817 0
1742 -2987 0
-915 -665 0
-1844 -713 0
3704 -959 0
311 -636 0
-3386 3208 0
-662 -1957 0
2208 -200 0
3013 -2887 0
-1416 2248 0
-475 411 0
-3383 2642 0
-487 -2210 0
2140 3187 0
3655 646 0
-2384 -3758 0
-1347 627 0
2048 -1325 0
-3044 1164 0
3237 1480 0
3512 -840 0
3609 -2881 0
-1081 2668 0
35 3752 0
-1632 -3033 0
-1553 -2586 0
2943 37 0
931 4 0
-1736 2640 0
3688 -546 0
3503 3396 0
1601 -421 0
3063 2856 0
3078 -1421 0
-1190 938 0
-1909 -1814 0
-3127 -748 0
-2694 3251 0
324 1012 0
390 889 0
1287 487 0
-121 -2372 0
2830 2186 0
928 -1817 0
-257 -1693 0
831 3207 0
3524 821 0
545 2574 0
1027 2398 0
550 1130 0
1127 -1394 0
-1344 -1788 0
-594 2901 0
2986 -241 0
-2242 -344 0
827 2266 0
-3144 -3740 0
227 626 0
-3366 192 0
-2026 1405 0
-2985 -2291 0
-614 -349 0
2378 3302 0
-2337 988 0
94 797 0
-1315 923 0
163 3062 0
1407 476 0
384 2900 0
-597 2503 0
1249 -1729 0
706 1954 0
2573 -3190 0
-2089 -3161 0
-3739 3130 0
-1052 3570 0
-693 3484 0
-3728 1438 0
1145 1539 0
-142 2479 0
2840 -585 0
-1081 3189 0
3750 1855 0
-1298 -2900 0
-2472 -3134 0
2522 2599 0
-1052 3092 0
2359 -1104 0
3240 910 0
1742 1052 0
-1190 2144 0
-3214 -2354 0
-3395 -3127 0
-2082 797 0
-1457 -659 0
-2481 -3760 0
-2709 2486 0
1437 -3117 0
2120 -1325 0
2514 2732 0
616 -1337 0
1917 2475 0
-336 2955 0
-1685 1208 0
869 3268 0
1849 3344 0
-3153 2722 0
2364 3391 0
612 -1203 0
-3765 2203 0
3262 -377 0
-3251 -3632 0
-1130 -3170 0
158 -3626 0
3447 -367 0
1150 -3461 0
2402 2494 0
3364 -1484 0
2139 -2859 0
-2542 3213 0
131 -3369 0
-2396 -309 0
3359 398 0
-325 -2269 0
-3724 1113 0
776 2607 0
-3082 1124 0
-2842 -2063 0
-2749 1497 0
-2821 -2037 0
-342 2296 0
-2987 1743 0
3023 -3274 0
-2225 730 0
-1763 3699 0
3576 2206 0
-1944 -970 0
-2469 2705 0
-1848 460 0
-2100 3038 0
-3628 -5 0
2734 292 0
-3623 396 0
-3703 495 0
-1599 1647 0
-2316 3138 0
-525 -2196 0
1123 -2018 0
-3143 -1574 0
-2730 -1839 0
2209 3262 0
-2042 -197 0
3236 -3426 0
3170 2682 0
694 -808 0
757 -1577 0
-28 2086 0
3562 -281 0
-373 1437 0
-2907 2035 0
-3231 2048 0
-2291 -2265 0
2021 704 0
2941 331 0
3237 2313 0
3703 747 0
1610 -3102 0
1836 1875 0
-3189 -125 0
-1731 -647 0
-2660 3153 0
1443 -2663 0
-1867 -3376 0
-939 -2677 0
1320 -3667 0
237 2228 0
901 -652 0
1782 -606 0
3247 -3314 0
-477 718 0
-1513 2970 0
1351 915 0
-2089 -856 0
3314 49 0
1953 -1363 0
-1247 -250 0
1565 -2469 0
-3365 -1029 0
-1029 376 0
-119 1297 0
-961 1372 0
2298 2410 0
-1661 -938 0
1870 3288 0
38 1891 0
-634 -42 0
-2244 -3446 0
-3308 -946 0
-2466 -1425 0
937 -2779 0
1404 -3268 0
-1381 -2658 0
503 2111 0
-3667 3063 0
3140 -1436 0
605 2142 0
-2015 1842 0
1480 -2469 0
-2858 32 0
3495 -2193 0
124 -1582 0
-1731 2296 0
-1241 -1408 0
-3040 -2040 0
2273 832 0
-596 -3088 0
2008 -1572 0
-1907 -400 0
1380 -710 0
-1105 584 0
-482 -1447 0
462 2423 0
3595 -3308 0
3242 1068 0
855 1814 0
3 443 0
-1155 -1452 0
1154 -3042 0
-2088 -171 0
-2283 2357 0
-1186 -2789 0
746 807 0
3276 -156 0
143 837 0
-3541 1114 0
1647 -1872 0
3307 -2885 0
2385 3625 0
-3227 -3572 0
2624 -682 0
2417 11 0
174 964 0
-2943 -3750 0
1726 -2525 0
-1916 -3260 0
1060 191 0
-1104 2956 0
-2302 -1218 0
-1154 -3276 0
2525 43 0
-2936 248 0
742 -2783 0
906 1429 0
1207 -265 0
1776 808 0
-617 90 0
-327 -893 0
1702 2217 0
3297 2718 0
-2807 1866 0
1998 1115 0
196 1369 0
619 -3452 0
-498 -668 0
1805 -3349 0
1675 413 0
2183 1665 0
-3715 -226 0
3315 2102 0
2253 -123 0
-419 -1232 0
-507 1758 0
2380 1171 0
1725 3136 0
3439 -636 0
-2474 -2726 0
-1521 2405 0
1103 -3267 0
3058 151 0
-2742 -3232 0
-2015 2252 0
-1792 2268 0
-752 -1991 0
-1934 -223 0
3020 3032 0
803 1429 0
892 -3198 0
-1447 2128 0
3177 -3412 0
1845 -283 0
629 -3442 0
386 -3346 0
529 423 0
-2373 -3542 0
856 978 0
924 714 0
-2039 853 0
3630 78 0
1679 3483 0
1898 -3128 0
941 1904 0
-987 1607 0
-919 2499 0
-696 -1515 0
-1452 1515 0
-411 3283 0
2037 -1698 0
3452 -1575 0
-2498 1315 0
-2936 2214 0
1038 -1789 0
2029 3613 0
2455 627 0
-691 1009 0
-3127 2144 0
3767 2117 0
953 966 0
2251 -577 0
-1940 -1224 0
-1127 -1488 0
-3679 2943 0
2543 -1927 0
1765 -2658 0
-1049 -2964 0
-2644 -1107 0
-2957 2153 0
263 900 0
2649 -221 0
2615 -1418 0
-3270 742 0
3502 -2392 0
-3608 186 0
-3042 -967 0
3756 -1909 0
2493 -1943 0
-1856 -1365 0
-636 2981 0
768 -1035 0
3430 1217 0
450 -252 0
2924 1327 0
2919 1993 0
-2360 1499 0
-2002 -2049 0
2058 1167 0
384 1819 0
2722 -197 0
2434 1931 0
1507 -272 0
-2723 -1242 0
-2068 3384 0
504 3775 0
1901 382 0
-1863 2977 0
-2763 973 0
-3736 304 0
-452 1998 0
1060 1605 0
3187 -3016 0
-2429 3746 0
-2604 -1900 0
-253 -274 0
-2163 -1212 0
1129 -1549 0
2647 -223 0
-3072 -2922 0
-2605 -2103 0
-2554 1674 0
-2937 -668 0
1465 -2379 0
3044 2557 0
3620 2670 0
-1868 1214 0
1301 1660 0
2187 -2537 0
3680 -3741 0
-1176 369 0
2929 -983 0
-500 2270 0
447 -3223 0
793 1985 0
180 3298 0
3759 -407 0
-570 322 0
3505 -555 0
-2005 791 0
-2349 2457 0
169 -2549 0
-2249 -890 0
-1754 -1408 0
3536 -650 0
3578 -813 0
-1949 27 0
-3083 3348 0
-193 -2061 0
2440 -1957 0
-3280 2399 0
-242 2265 0
-3407 -2870 0
3345 733 0
-1927 1314 0
1879 986 0
-3083 710 0
2979 778 0
2257 1944 0
-3629 -296 0
-3597 -2249 0
3205 880 0
2230 -1781 0
79 1918 0
-3326 -1120 0
764 1857 0
-1060 1796 0
-483 -501 0
2373 2913 0
1372 -1883 0
1073 3325 0
-794 848 0
-909 1046 0
619 -3003 0
3485 -1373 0
1930 2053 0
-3405 -1707 0
867 -1134 0
2589 2127 0
2777 569 0
-3654 -3457 0
-1316 -96 0
1953 -2802 0
2740 1175 0
-2602 204 0
631 -2908 0
2823 948 0
1009 -2673 0
-405 3527 0
1664 391 0
-1861 694 0
3505 2929 0
-309 3167 0
-61 -2341 0
-652 784 0
-1426 1469 0
3690 1255 0
18 -860 0
302 -2683 0
1474 -2286 0
-637 3283 0
-1227 1556 0
-900 425 0
2754 -1076 0
1244 2742 0
-2313 158 0
1757 -3473 0
3106 898 0
356 -312 0
2754 -2819 0
-2191 1889 0
124 2705 0
-2284 -938 0
2193 -2358 0
-3605 3278 0
1713 -1993 0
1172 -2876 0
3078 93 0
-2039 -2546 0
448 -1385 0
3205 -3185 0
2519 396 0
3646 1050 0
-1194 -300 0
-2987 -2922 0
-2648 838 0
1901 -1349 0
1680 519 0
3283 -3115 0
1985 -2953 0
-93 -828 0
389 -437 0
-556 -30 0
-2278 1690 0
-298 -3686 0
-3065 -2101 0
-2246 -2393 0
-2897 2116 0
1910 -3493 0
-3356 137 0
838 3665 0
2369 627 0
-2520 1323 0
3688 -349 0
3292 1311 0
-148 -1312 0
2187 -37 0
-651 2518 0
2202 3124 0
-3291 -2346 0
887 -3177 0
1866 -680 0
-827 -461 0
-2221 2711 0
-1343 3488 0
2061 268 0
1830 -820 0
-2076 1867 0
859 -1922 0
-3161 -19 0
-338 -921 0
1287 -971 0
-1976 -3760 0
2107 -2678 0
1706 -1606 0
2072 3419 0
1765 2954 0
-1798 2276 0
285 -2730 0
1245 -1050 0
2572 -213 0
-1665 1332 0
-2286 -3567 0
491 -2907 0
-1597 -660 0
-3733 -2245 0
284 2211 0
2404 3631 0
-2440 1187 0
-3140 189 0
2589 3310 0
2355 3096 0
2338 78 0
-1387 3681 0
2795 2992 0
3147 -1546 0
1 -2602 0
-2086 3113 0
1550 -1203 0
3385 -3202 0
1263 865 0
-3200 -3532 0
2023 -3269 0
1846 2382 0
3612 1601 0
3553 2759 0
1884 2634 0
2610 -2401 0
637 -608 0
-2038 1712 0
1976 1510 0
2208 3020 0
-2747 3384 0
-1678 2083 0
3162 -1378 0
458 -2903 0
-3561 2790 0
-1751 -3209 0
-845 -1671 0
725 -844 0
3274 -1620 0
-436 3714 0
-921 2280 0
2248 -1201 0
1593 -129 0
2889 -304 0
-930 2685 0
2508 -3029 0
-806 3385 0
-308 -2645 0
717 2787 0
-906 -668 0
-2428 2873 0
3131 -323 0
1232 -1444 0
-2562 252 0
2457 -3185 0
-3406 1846 0
-1122 650 0
583 -890 0
-509 -1661 0
965 88 0
3199 2300 0
-3446 -2826 0
3215 -3664 0
2877 -2219 0
-3140 3279 0
1686 201 0
-1118 -251 0
2960 -706 0
-2539 1304 0
-1836 -2047 0
1123 1425 0
-2523 2884 0
3018 -1370 0
-3158 2829 0
-2148 -2633 0
-3404 3385 0
1978 -827 0
341 2326 0
837 1732 0
1734 -224 0
3301 3661 0
-2986 -1881 0
721 -1799 0
-1819 1573 0
1992 438 0
2786 -1569 0
-3040 -1282 0
-2694 -1655 0
1540 -897 0
3030 -1535 0
3074 1965 0
112 2750 0
-733 2066 0
3058 -3069 0
2263 3564 0
-851 -1437 0
3123 3192 0
-537 3236 0
-1468 -2691 0
-3726 3584 0
-2660 3278 0
-414 -846 0
1796 -3003 0
191 -2423 0
-2571 -1287 0
1941 -2792 0
168 -714 0
1266 2261 0
-562 -2298 0
-1475 1252 0
1655 -3561 0
2910 3527 0
-2638 2965 0
727 -2625 0
1171 -1026 0
-3365 -2869 0
-1349 3264 0
-2607 2160 0
2137 -131 0
133 -897 0
-2040 -2237 0
-166 32 0
3515 2588 0
-2432 -488 0
1200 -3372 0
3517 -460 0
-3118 3237 0
-2633 -125 0
2780 -179 0
2058 2766 0
-3198 -2451 0
1676 875 0
-2526 2475 0
-869 -366 0
1329 3049 0
-1488 3650 0
2471 -925 0
-1058 -1196 0
574 -2763 0
3647 769 0
-1665 88 0
-3327 2530 0
-2302 3480 0
717 -1499 0
-1635 -1175 0
-3240 172 0
-1889 333 0
743 -635 0
650 -3196 0
702 -1692 0
-2094 -1709 0
-2931 -1500 0
-1543 -2587 0
-3542 -2225 0
3048 -1054 0
3703 -571 0
675 -841 0
-2034 1739 0
1103 -3558 0
-1365 1914 0
-1237 -546 0
-976 2933 0
-2665 3609 0
-3662 216 0
-3150 -1408 0
-1599 3145 0
-3248 3204 0
-2957 -1860 0
-1374 -3114 0
2849 1169 0
559 -1137 0
-3222 -2708 0
2847 -2948 0
-363 -2396 0
-545 -3228 0
-1659 3609 0
1573 -2639 0
-2479 -3198 0
-253 -3229 0
3568 -3381 0
816 2782 0
2647 -2865 0
2182 1198 0
2762 2434 0
2825 807 0
3177 3393 0
518 -3070 0
2684 380 0
1538 -1733 0
3139 -432 0
1375 3452 0
2041 1045 0
2844 -2246 0
539 -228 0
684 2493 0
-490 -3412 0
-922 -754 0
3449 1937 0
-1312 741 0
-1953 32 0
2513 -1136 0
-3028 -1036 0
340 2530 0
1964 -1240 0
861 -1952 0
2297 -2706 0
3063 -2235 0
-3203 -3664 0
-1678 2616 0
-2510 -3051 0
-2694 -679 0
188 2720 0
-3102 -2870 0
1558 348 0
3015 -1017 0
2849 -956 0
-3442 3733 0
-1032 -3672 0
1432 2494 0
1770 -264 0
-3713 2155 0
1257 -801 0
-1190 -1616 0
3117 485 0
-1313 3721 0
-3243 -1340 0
3522 -740 0
159 -2653 0
-3304 -2307 0
-1593 769 0
991 -1528 0
3047 -3604 0
-1118 1904 0
3394 2473 0
2458 -1815 0
2809 2536 0
3052 -84 0
981 2268 0
-1832 3242 0
2492 3450 0
-2651 1118 0
1905 3012 0
1369 -424 0
1870 734 0
1793 -3029 0
-3428 -3741 0
2842 -147 0
2215 3727 0
3698 824 0
3041 -1953 0
-3445 317 0
3352 3096 0
2772 -1341 0
2512 1410 0
150 -1031 0
-3180 2456 0
1466 443 0
1604 2136 0
-40 -2500 0
918 3187 0
3771 -290 0
2825 47 0
1472 -1076 0
2815 -1272 0
-2888 -2241 0
-1563 1794 0
-870 778 0
-646 -3758 0
887 -2903 0
533 141 0
2288 -2339 0
-2055 59 0
1090 436 0
-1678 -465 0
-832 1121 0
2842 1047 0
1923 2057 0
-335 -3358 0
75 -1531 0
-1407 -1543 0
-1441 -3419 0
-1087 -1000 0
3535 -432 0
3271 -1210 0
150 -2371 0
-2766 -1107 0
539 -1731 0
-1328 1194 0
-2978 2640 0
2048 -1118 0
1115 814 0
1511 -346 0
-1181 -1868 0
132 662 0
-3005 -192 0
3677 -2333 0
1101 -5 0
-1466 -223 0
371 -1583 0
1524 2741 0
-531 -3604 0
1960 722 0
-2437 -441 0
-1385 1564 0
2754 530 0
-1362 -2571 0
2631 -2210 0
398 -1583 0
1734 -3664 0
3605 2401 0
-840 -71 0
2518 -3646 0
-2719 -2493 0
968 -3189 0
-1653 -3361 0
3295 -3014 0
-223 2194 0
3328 -660 0
148 1057 0
-2053 1774 0
2057 628 0
-2336 1160 0
-1 -21 0
-2857 2462 0
2099 -2239 0
3181 -2383 0
1023 1247 0
619 520 0
-3116 644 0
-1202 2529 0
-498 164 0
-1181 2846 0
-707 2152 0
-3697 -2378 0
-682 422 0
-2336 -3290 0
-3103 2556 0
1564 3576 0
-3229 436 0
694 799 0
3058 3706 0
2206 522 0
-2836 -761 0
-1211 2688 0
380 923 0
1318 2363 0
3481 2477 0
3196 -79 0
3539 3327 0
3086 -341 0
1960 74 0
-3045 1801 0
966 -2253 0
1280 -131 0
3486 3262 0
2051 663 0
-701 3216 0
1151 -463 0
-3003 -1625 0
3428 72 0
-2056 2595 0
451 -2123 0
-3273 3265 0
-1947 2379 0
-1913 840 0
-1233 -882 0
2293 -2424 0
3564 -1813 0
-2068 -774 0
-1328 -1196 0
996 -680 0
3214 -2212 0
3549 -202 0
2769 1012 0
1598 -3431 0
729 -948 0
1017 -1276 0
295 -3674 0
-1913 -1487 0
-3535 1991 0
1087 2970 0
-502 734 0
-2457 -3306 0
-2619 471 0
323 -2437 0
-2446 2877 0
3173 884 0
3125 3427 0
2464 -3171 0
2868 1215 0
1545 -3558 0
493 -934 0
2050 -493 0
-296 2100 0
2847 2451 0
3465 -1463 0
-3338 2950 0
-395 -2571 0
-3542 -157 0
3504 444 0
-2463 -3652 0
1327 1743 0
757 891 0
2627 -2825 0
-3700 1570 0
-1817 590 0
-872 -2103 0
1765 -2193 0
-3554 -1651 0
-1055 -2141 0
1257 -2378 0
-1207 3393 0
-2681 2541 0
-3065 -2200 0
-2499 -1140 0
-2384 -2814 0
615 -1922 0
2530 -1932 0
-255 -2908 0
1352 27 0
-635 -233 0
2834 -2987 0
-137 -3025 0
-971 2904 0
-2343 1235 0
-2749 -756 0
2614 10 0
-1636 3422 0
983 3425 0
338 1045 0
326 1441 0
-1849 3128 0
3347 -226 0
3432 739 0
2924 -3710 0
474 578 0
572 1092 0
-1512 1773 0
2598 -3084 0
2205 -1521 0
561 -1838 0
-1155 1955 0
952 2494 0
1192 1477 0
1115 -2415 0
-2869 998 0
-2189 2430 0
-1052 -1471 0
-3107 11 0
1174 -3440 0
2385 251 0
2894 3664 0
-1330 -2458 0
1097 2217 0
-2166 -3593 0
-2311 1556 0
1472 668 0
1736 -2889 0
2340 1745 0
-426 1405 0
-2759 -2140 0
1898 2430 0
601 -2681 0
1220 -2071 0
1636 -1261 0
1697 -2483 0
1910 -2567 0
2826 -3639 0
1075 -1038 0
2718 2252 0
-1016 -2193 0
2113 1579 0
2601 1332 0
2296 2496 0
876 -265 0
343 -105 0
-123 379 0
257 -98 0
3385 3004 0
3354 1024 0
-3577 -2814 0
-3039 786 0
-1118 1785 0
2266 3144 0
1686 862 0
2210 -3614 0
-3495 938 0
-1242 -2348 0
1978 2947 0
-713 -976 0
-1175 1361 0
2298 -818 0
796 -262 0
1630 1054 0
3435 702 0
1406 -1133 0
-3534 3690 0
3380 3492 0
-3515 -3364 0
1653 -61 0
-2079 -715 0
2885 -1900 0
1226 -589 0
365 2389 0
-2723 -1311 0
-3284 -1357 0
1677 2784 0
3561 -3592 0
-1150 3416 0
-763 3347 0
-3368 1156 0
-3364 2270 0
3548 2141 0
-3667 3553 0
-2949 2640 0
2340 2426 0
-2813 2438 0
1855 -3677 0
1602 -276 0
-1851 1680 0
2669 -2393 0
1696 1226 0
393 -1453 0
1920 2250 0
2457 -679 0
2486 2902 0
1292 429 0
1382 284 0
-882 2574 0
-2474 -604 0
1638 2111 0
-2396 2152 0
619 865 0
-3737 81 0
3526 -1340 0
743 -347 0
2754 1111 0
-2878 -3110 0
3397 -420 0
-3758 -1395 0
334 -143 0
-1796 -2596 0
405 -43 0
986 3676 0
-3155 -3203 0
3 -2992 0
2231 -3051 0
-3292 -2317 0
356 2153 0
-972 2422 0
1705 1509 0
2198 3032 0
-3503 3038 0
931 -905 0
619 3092 0
-1532 -728 0
3318 -2081 0
-528 1497 0
2351 -911 0
-3252 -2042 0
-731 3520 0
3536 2036 0
2000 3125 0
-1093 2013 0
-1110 -3035 0
-1896 -1567 0
-235 2020 0
-2470 -3367 0
-347 423 0
2573 3570 0
-3647 3092 0
-2799 -341 0
712 -930 0
-2448 79 0
2572 -3392 0
-3244 2828 0
820 -2883 0
-658 -2024 0
-3296 3746 0
57 1144 0
-605 -682 0
578 -3413 0
572 268 0
3704 -3239 0
1640 3257 0
-332 -920 0
-2535 3186 0
2294 1574 0
-1311 2975 0
1449 -1921 0
3420 -3517 0
-1588 1300 0
277 2402 0
-2449 1146 0
2880 1255 0
-2143 -1220 0
-1309 -2357 0
2392 2199 0
782 -1233 0
3358 -67 0
2315 1222 0
-1731 3344 0
3462 -949 0
1457 -2755 0
-602 619 0
-2311 1695 0
2183 -818 0
1776 -128 0
-3334 1530 0
-237 -1003 0
-1102 2368 0
-774 -3160 0
-385 2075 0
114 68 0
-2614 -1231 0
-1687 -3605 0
1548 -556 0
-2543 1892 0
-707 -473 0
1217 -2174 0
-20 -3709 0
-2881 1786 0
1952 306 0
2505 -806 0
-3712 1167 0
790 2863 0
-1486 2732 0
-1853 -2522 0
612 -1394 0
-1856 321 0
326 -2860 0
1039 -3102 0
3242 2216 0
-2428 -3542 0
1366 -3357 0
966 103 0
-3619 797 0
3768 -3705 0
-2817 3432 0
2389 1475 0
2372 -2067 0
-2960 1319 0
2255 -589 0
-2683 3358 0
1406 -2988 0
-2545 -1764 0
807 194 0
3157 1999 0
-31 -2369 0
-2028 1683 0
1257 3197 0
-3772 -3049 0
541 -1655 0
-424 2020 0
-2359 2889 0
-785 2740 0
-2916 -1339 0
-3692 -3507 0
-2528 3676 0
-541 -3230 0
-3449 2840 0
621 -546 0
-3666 2096 0
-2706 2500 0
2201 809 0
709 -368 0
-1490 -2531 0
573 -2130 0
3642 2942 0
-2777 2955 0
2750 3037 0
1164 1674 0
2027 -1813 0
908 -445 0
1431 748 0
3607 -3130 0
1892 -1237 0
-1792 -3751 0
1153 2917 0
2915 -1489 0
3015 855 0
353 -1787 0
-1250 -671 0
972 -1405 0
-1167 345 0
2939 -3542 0
-2699 -1894 0
-2317 -1453 0
-1511 -1921 0
-2505 2979 0
3125 156 0
937 -2412 0
-798 -3484 0
-2748 3718 0
-3740 3063 0
-2299 -2055 0
-1095 -777 0
-131 -623 0
3178 3721 0
2650 -812 0
3635 3147 0
-585 -685 0
-2703 3623 0
329 805 0
-2110 1950 0
-2177 3122 0
-2009 2798 0
-1278 -171 0
2359 218 0
-1109 -2254 0
979 1428 0
-328 1511 0
2369 1090 0
2087 -2888 0
-844 -1137 0
899 -3770 0
-3127 3397 0
1980 -511 0
-1141 2298 0
-2709 2265 0
1841 3061 0
791 -1161 0
-382 -3065 0
-1376 1864 0
-500 -514 0
1051 2879 0
66 -3353 0
2370 3073 0
3650 2808 0
-3601 -2030 0
1640 -2663 0
3078 304 0
-1428 3136 0
3772 -2641 0
722 3683 0
602 1812 0
-3429 2838 0
-1780 2919 0
-3555 -2633 0
3600 -1334 0
935 -1171 0
-3253 1068 0
-24 -3425 0
-3540 -357 0
-534 -50 0
3118 1769 0
-902 678 0
3510 1171 0
2405 1486 0
3173 1103 0
478 -3382 0
3584 1491 0
-3535 -2775 0
175 -1585 0
376 -486 0
192 -2941 0
-2002 -950 0
-2869 -3010 0
1619 3461 0
3414 3404 0
-1769 -1803 0
968 516 0
3292 1673 0
2460 -1576 0
-2748 317 0
-3318 -1688 0
-2747 2791 0
2487 2410 0
1346 156 0
501 -1740 0
-1090 1020 0
889 -2775 0
-2931 -2807 0
1111 -3740 0
-1122 1149 0
-2078 2747 0
3687 2599 0
-1031 -1668 0
-672 -1561 0
605 1480 0
-1539 3420 0
-979 1877 0
-3436 -831 0
1303 3058 0
-1235 -43 0
57 2855 0
-314 2768 0
3111 3356 0
798 1329 0
2851 -1606 0
1578 -558 0
-1307 -2091 0
-1367 3005 0
3583 3579 0
3393 2854 0
-1771 3066 0
-2720 -3558 0
1939 3663 0
3687 1193 0
-2407 3762 0
2462 3279 0
-537 -3757 0
3648 2432 0
3557 -752 0
108 228 0
