c NF
p cnf 3897 6235
985 922 0
-390 124 0
883 -1083 0
2527 234 0
-1732 -2286 0
-1404 -1273 0
-3805 1251 0
2355 -2618 0
-2945 509 0
-1824 680 0
-2848 -391 0
-3421 2936 0
-2534 -3880 0
3465 3668 0
-326 106 0
223 -2459 0
3608 -3431 0
-2994 -2593 0
1043 -3360 0
3369 -2538 0
-2848 -734 0
2104 -2150 0
1272 388 0
2255 -1537 0
1859 -2200 0
-250 -2700 0
-191 -2390 0
2476 616 0
-1601 575 0
1213 980 0
3660 863 0
-1465 -1116 0
1317 3638 0
-3191 2261 0
-3738 -3138 0
-1814 -3592 0
-1202 2121 0
1698 -2086 0
2720 2140 0
-166 -331 0
1108 -3124 0
2166 1575 0
1393 -2594 0
1539 370 0
-3620 -2627 0
-1716 -1178 0
-607 -572 0
-1390 -445 0
3006 3853 0
-2401 -400 0
-3437 251 0
-3650 1394 0
-3883 -3441 0
2421 -1853 0
2601 589 0
-1378 -489 0
-3749 949 0
2605 2425 0
-641 1325 0
-38 1663 0
-2988 -2069 0
556 2999 0
-171 3841 0
2952 911 0
1206 1581 0
1052 2200 0
-2658 -3875 0
2104 1272 0
-1562 -1122 0
925 3783 0
219 452 0
-574 1056 0
1889 324 0
3281 1455 0
-3337 2303 0
2868 -3364 0
3567 812 0
767 -2399 0
1779 -2536 0
630 -1777 0
1138 2493 0
1852 2161 0
-453 3535 0
-3277 -362 0
-3015 1103 0
3512 2285 0
-1756 3880 0
-3761 -1186 0
3020 -2828 0
3464 -736 0
-1804 1499 0
3334 -237 0
-1629 84 0
-3537 -2467 0
180 -3332 0
-435 1866 0
1830 3499 0
1414 -1918 0
2446 1366 0
2044 -67 0
554 -3836 0
-375 -128 0
583 782 0
-3332 -1229 0
2199 -3139 0
-1529 -2242 0
2424 -3862 0
-3074 -2010 0
-399 -2215 0
-2211 1858 0
-3841 316 0
419 -1100 0
3813 -2244 0
2596 -3039 0
722 -3853 0
2374 -985 0
2868 -435 0
-1007 -3468 0
-1496 3778 0
-1520 -3058 0
3675 1919 0
367 2900 0
2425 -3510 0
2748 3580 0
2660 255 0
3180 191 0
3224 3343 0
-5 -1684 0
2372 -61 0
2401 -635 0
-2674 -1140 0
-3236 3410 0
190 -3513 0
-3301 3062 0
-3445 2065 0
886 1561 0
921 1271 0
2035 660 0
-508 -1743 0
1904 2981 0
-1245 2191 0
3619 -390 0
-3208 1553 0
3446 -2954 0
-522 -3790 0
624 -2915 0
-2395 -2687 0
3518 -1793 0
1017 -1922 0
-1511 -128 0
3311 -3083 0
-1243 786 0
-3565 -910 0
-61 3488 0
-3431 -3074 0
3100 3119 0
-3635 -1994 0
459 -181 0
-3591 -3677 0
881 -2295 0
1927 -3327 0
-2753 -3863 0
-378 -721 0
3525 -2374 0
3416 130 0
-1677 -751 0
-2536 -3037 0
927 1363 0
1034 -2966 0
118 1944 0
1157 -270 0
728 -1842 0
3303 -599 0
796 3533 0
3370 -1661 0
674 -740 0
1907 -1727 0
1451 -2796 0
-2101 1582 0
743 -3854 0
765 -22 0
-298 -3326 0
836 -2304 0
455 2714 0
1712 -3834 0
2411 -1437 0
-3515 1052 0
-114 1432 0
2542 3604 0
2923 -2145 0
-640 1581 0
-1629 1143 0
-3635 -3124 0
-2923 1522 0
3504 946 0
-948 -2403 0
-176 1532 0
3104 240 0
-397 -3431 0
-1856 2282 0
2519 3818 0
3040 3758 0
-3689 971 0
-3511 1592 0
-1193 -2331 0
1297 2172 0
2277 2547 0
3874 581 0
2559 -1842 0
-1560 -2001 0
2899 530 0
-2479 495 0
3593 2640 0
925 793 0
-2968 -2446 0
-96 3776 0
-3303 -865 0
-3364 2507 0
-3261 559 0
-2013 3161 0
-123 -2177 0
-1830 2376 0
79 -1974 0
2934 3012 0
520 3856 0
1105 -3773 0
-1309 292 0
-1250 2725 0
-1775 3255 0
-2601 -2212 0
3588 2969 0
3082 1388 0
2960 -418 0
-448 1561 0
-54 -978 0
76 1783 0
-3023 1288 0
3841 388 0
3479 3493 0
-3645 171 0
-1165 -3888 0
-3155 1613 0
-2819 -3486 0
-868 3483 0
-2207 -2371 0
-2960 569 0
-3242 -2288 0
3402 -3341 0
2033 2788 0
1147 2262 0
-2859 -2537 0
420 2972 0
-2114 -839 0
920 3459 0
-3151 1510 0
-2828 -27 0
-2893 -2124 0
-3017 -1976 0
-3521 722 0
3507 -844 0
-3254 668 0
-602 598 0
-3681 -539 0
2156 -1317 0
-2377 -2974 0
-1325 -2274 0
1755 1207 0
-2435 3271 0
-869 2361 0
396 -1220 0
3691 823 0
3814 -310 0
-3726 1133 0
2705 3460 0
2023 2456 0
3004 -3420 0
-309 2626 0
3235 2875 0
151 978 0
-2180 -966 0
1146 2979 0
-2435 -3260 0
-3740 -2524 0
-2753 3055 0
340 1702 0
-1711 -2524 0
2449 1505 0
1340 -2590 0
-2754 653 0
253 -1210 0
-3530 3540 0
674 2030 0
637 -2111 0
-2509 2498 0
802 -568 0
1513 -800 0
1398 -3694 0
-3729 2497 0
2704 -1800 0
660 56 0
-2722 712 0
2206 -93 0
3035 -210 0
2093 -2625 0
3538 -2218 0
2783 908 0
3352 -2205 0
-1489 3578 0
156 -3826 0
2650 455 0
3317 175 0
3435 -729 0
1324 697 0
-2751 2903 0
1346 -2069 0
-2981 -3573 0
-2911 -2788 0
181 -3647 0
2958 826 0
-1211 -2392 0
-3480 1284 0
2494 -2915 0
-2570 2351 0
-19 -2210 0
-409 -3430 0
599 -905 0
1060 153 0
-2630 -1074 0
-627 2017 0
1738 3282 0
-2654 2911 0
157 1237 0
1354 80 0
-1374 2998 0
-2196 -1266 0
505 180 0
-2471 -2931 0
-1169 2461 0
1847 -2291 0
3735 -3778 0
1035 1050 0
3190 3339 0
-2654 -1877 0
-2235 2872 0
-1701 2635 0
-754 -1101 0
-3098 1053 0
1902 -2278 0
609 -385 0
-1082 -3785 0
2528 -2727 0
-2315 2767 0
-2110 -3478 0
2519 2197 0
151 2469 0
-2765 -69 0
-1364 -3073 0
1013 2124 0
1446 2052 0
3188 -1205 0
-2570 -1560 0
-2911 3759 0
-2424 2445 0
-698 1477 0
2130 -3864 0
178 -2519 0
-3261 698 0
-837 -2461 0
-3457 -267 0
-374 1292 0
-2654 -485 0
-3396 535 0
-2719 -2111 0
1263 -1368 0
3788 -2675 0
3848 98 0
1861 2675 0
2926 -3573 0
-1013 -2535 0
3709 1791 0
-2709 777 0
-3070 -2497 0
-2983 2045 0
-3354 3113 0
670 2925 0
1611 -3283 0
-736 -1916 0
-2551 2413 0
-3232 -3172 0
-2562 -3636 0
3831 765 0
-585 -2243 0
-2967 -2056 0
-2934 -3226 0
-3063 -2629 0
-3332 -849 0
2785 -22 0
2667 -213 0
603 -3670 0
3717 3175 0
2195 -2985 0
1246 -2738 0
2610 260 0
-1458 -1078 0
-3545 3464 0
3015 -817 0
2232 1228 0
-3211 631 0
-2660 1452 0
-571 2571 0
-3228 3750 0
-641 -3 0
-3413 -3815 0
-2386 448 0
-3436 -121 0
3400 -1796 0
-3783 90 0
-736 -2975 0
2333 -1912 0
-3073 3379 0
2881 -19 0
-2825 2656 0
-3284 460 0
-3879 -1195 0
-2128 1327 0
3812 3619 0
2767 -1336 0
-2492 -273 0
3180 3715 0
-467 1257 0
1933 3460 0
299 1914 0
-490 3604 0
-3517 -583 0
-1376 2374 0
2073 2018 0
-1059 2487 0
-3231 -2294 0
2406 3706 0
3166 2148 0
-2102 -2854 0
-671 -1176 0
3195 2674 0
-203 -2999 0
1594 1561 0
1688 -2352 0
457 -2702 0
-1813 1981 0
2163 45 0
-1684 1006 0
2012 -3652 0
-129 -2818 0
1022 2034 0
2191 -3121 0
-1957 2801 0
3451 746 0
-92 -1424 0
-8 1772 0
-2725 1320 0
3153 2805 0
-2312 3525 0
-2001 -2630 0
-158 -3449 0
3590 -570 0
1024 2767 0
-1338 948 0
2305 1970 0
1344 -1629 0
-1175 1815 0
2874 2943 0
-865 125 0
2508 280 0
-2848 2184 0
3512 2309 0
1345 1578 0
-1369 -1909 0
2152 -3209 0
3082 -3487 0
-2734 2942 0
-2536 -880 0
-3447 -86 0
-2872 1760 0
514 -3175 0
2733 -3493 0
3426 -3705 0
-313 -1229 0
1645 -489 0
2537 -1282 0
155 302 0
222 1883 0
-1197 -278 0
-857 998 0
1579 2694 0
2619 -3174 0
919 -804 0
1100 -3024 0
961 241 0
3012 1460 0
2768 -1405 0
-944 -3219 0
3026 246 0
-297 2791 0
-1524 1474 0
-2371 159 0
-2169 800 0
497 2715 0
3118 1737 0
-79 -1884 0
-2522 648 0
-1053 2032 0
-1991 2261 0
-1721 55 0
-3489 2245 0
2039 -3814 0
-2656 -2181 0
-2886 2451 0
-2192 3207 0
3523 -661 0
3180 -2663 0
3202 -3423 0
-3846 2322 0
1783 -2308 0
-3536 2255 0
2468 1071 0
-2905 2377 0
3880 2087 0
-310 -400 0
3663 1086 0
-3401 1554 0
2110 1394 0
-206 -3503 0
-457 -1308 0
-1853 -3183 0
513 -1971 0
3171 605 0
-1566 -2095 0
182 -2979 0
691 -3023 0
2696 237 0
-3020 1746 0
-3688 1613 0
393 -2536 0
1130 -160 0
-1253 -2930 0
-75 -2882 0
11 733 0
-2749 -3313 0
2634 -2038 0
303 -2785 0
2899 731 0
-767 3484 0
3120 3100 0
1730 744 0
3692 -2934 0
-473 508 0
-3475 -2224 0
3185 47 0
3533 -44 0
2584 -3029 0
-842 1707 0
-2944 1973 0
-1154 748 0
495 742 0
-322 -3531 0
-2964 -3269 0
3294 3127 0
671 -1001 0
-3734 3349 0
964 -401 0
17 1955 0
2648 -1139 0
-2623 -2064 0
587 1693 0
-3683 -538 0
-3765 -3229 0
1974 467 0
237 1556 0
1656 -643 0
-1659 -2169 0
-3669 3612 0
3380 1751 0
2362 2064 0
-1550 859 0
1299 -2494 0
748 -1273 0
3251 -2777 0
-3804 2486 0
2336 1088 0
1656 -729 0
-1191 501 0
-404 2438 0
-1688 -3316 0
1906 433 0
872 -1895 0
2718 1485 0
2730 1901 0
3224 -2324 0
1821 -588 0
2553 556 0
1237 -328 0
-3849 -801 0
1893 342 0
-1489 -3106 0
3324 -1881 0
-2621 -3514 0
573 -1929 0
-3448 3010 0
-2091 3297 0
2750 -2371 0
-1529 2890 0
-697 700 0
-2864 -2175 0
-2911 -527 0
3227 -3610 0
-3030 -3060 0
-328 -2049 0
101 885 0
1606 -1186 0
-2512 471 0
3004 2304 0
-3827 2443 0
-2084 -3532 0
2766 2033 0
1739 -3214 0
-3610 1681 0
-1356 3808 0
-2233 -2774 0
667 -259 0
-2739 -2732 0
-3688 3500 0
-3705 1227 0
-671 -1587 0
-1530 -1997 0
-2613 3292 0
-2836 -1067 0
1238 205 0
-680 -1287 0
-1495 410 0
-3200 3083 0
-1177 -2225 0
289 -1093 0
-787 -792 0
-228 -641 0
-2558 -1335 0
-3736 681 0
-857 -24 0
-2046 1674 0
-3730 380 0
1594 -929 0
1019 2678 0
-1335 -1603 0
-2500 -666 0
-1661 2352 0
255 -3282 0
2669 -3715 0
924 955 0
-1837 3630 0
-1084 2448 0
1989 49 0
-1276 -206 0
3777 -1035 0
-948 -3186 0
901 296 0
1116 2668 0
-1322 637 0
1158 2274 0
-1548 -2386 0
3105 2041 0
-1407 -3447 0
-1980 2596 0
-1426 -2830 0
3136 3472 0
-3504 -3311 0
-1656 -504 0
-752 2401 0
-1909 -2943 0
3505 3545 0
-1816 1477 0
-1275 1900 0
-667 2257 0
3762 -3825 0
-865 -3585 0
3141 -355 0
1946 -2821 0
-1127 1263 0
-3186 270 0
201 -247 0
370 3190 0
1707 -1457 0
1705 -634 0
1701 3240 0
-1755 321 0
-1553 3876 0
3136 555 0
-3300 2138 0
2946 785 0
-1584 3655 0
1446 2694 0
257 3509 0
-1967 3237 0
617 -1303 0
-973 -1741 0
3062 1764 0
2634 1575 0
3053 774 0
-2666 -2877 0
-693 3808 0
3194 2929 0
-1456 3867 0
347 1554 0
-129 3057 0
221 -100 0
14 2024 0
229 155 0
-1649 -2195 0
433 -73 0
251 -3830 0
-383 -2919 0
2259 -1661 0
373 -2959 0
2590 -454 0
-2494 -1015 0
1602 -1697 0
-1365 -3105 0
-2640 264 0
3578 500 0
-964 -3755 0
2648 -1778 0
-447 1288 0
-1798 -1438 0
2557 -34 0
-3341 224 0
3399 180 0
1297 2362 0
1108 155 0
-3078 52 0
2360 -3262 0
-1949 3328 0
1609 1421 0
-395 2601 0
-2087 2137 0
1950 -235 0
2873 -2832 0
-3094 3464 0
829 1499 0
707 3009 0
2693 -585 0
-1095 -2935 0
-2326 -3006 0
-1657 -1761 0
891 958 0
2669 1731 0
-1983 -2810 0
-1919 3739 0
-470 845 0
1586 3228 0
-2862 3070 0
1474 1103 0
-2104 1751 0
1060 -158 0
2873 -301 0
-2363 -2156 0
1840 -2146 0
-3379 -2129 0
1952 -1392 0
1606 -3555 0
3619 1778 0
673 -2010 0
1440 -2145 0
-1302 2227 0
-368 -3589 0
-3848 1145 0
-3861 849 0
-2472 -378 0
-2498 1444 0
-1272 -692 0
349 -629 0
3786 -536 0
3889 3284 0
1326 -1188 0
359 970 0
1228 -24 0
-2412 -3388 0
-938 2471 0
-3207 -3765 0
-2319 -3093 0
-789 -547 0
-3343 2268 0
-658 1329 0
-3386 957 0
3442 1174 0
1698 3386 0
-495 -35 0
1071 -3136 0
1428 -1121 0
3811 -3665 0
-2054 1821 0
-325 -2830 0
616 -1813 0
3484 633 0
1476 682 0
-3549 194 0
1508 1588 0
-1300 -940 0
3615 3469 0
-449 712 0
-313 -3158 0
-3684 3715 0
755 -3063 0
1504 -2209 0
1671 -3283 0
883 -530 0
853 -2441 0
-2831 -1016 0
-2519 -1448 0
-400 3269 0
3169 -3486 0
-594 -318 0
1299 -1259 0
-127 2175 0
-2609 -2135 0
527 3663 0
-2727 2266 0
3845 2140 0
-2834 -3184 0
1237 -571 0
-1257 -3684 0
124 2559 0
2865 2421 0
1360 158 0
-1516 3025 0
1298 -2474 0
342 -2949 0
-3440 -2758 0
-2075 53 0
3575 -114 0
1689 3881 0
1019 -1848 0
-880 -2886 0
-3670 935 0
2016 229 0
-1214 1617 0
3619 3143 0
-2740 2096 0
2636 3012 0
1119 524 0
1513 -1072 0
-2604 465 0
-325 -3739 0
-3420 182 0
1726 -3657 0
-463 -1233 0
3138 39 0
556 540 0
1922 -1631 0
2351 1817 0
-2411 -3244 0
2598 2680 0
-3030 -2403 0
2843 -1100 0
3870 -3321 0
-1280 2805 0
-1458 3247 0
-1544 214 0
2240 3163 0
1356 59 0
-1841 -3150 0
908 275 0
-923 -1002 0
-473 -462 0
2670 2181 0
2033 -3447 0
-3371 1505 0
1948 1667 0
-490 -3425 0
-2417 1180 0
-2494 1573 0
-1613 -2942 0
1225 -654 0
1564 -2978 0
-1380 -3639 0
2516 2940 0
2556 -3311 0
373 -1730 0
1259 659 0
-1516 2732 0
1713 -2196 0
-2386 -1737 0
2430 -1560 0
-3727 -1983 0
-81 -1065 0
-3032 315 0
3245 1297 0
661 -2100 0
101 -3869 0
-2700 -1 0
-1016 3577 0
2890 948 0
29 -2637 0
-2337 -1944 0
-2169 1113 0
2181 1750 0
-427 -1709 0
2499 637 0
-2291 1556 0
-3279 2420 0
-639 1444 0
923 -1877 0
-634 203 0
679 -3485 0
-1622 2525 0
3013 42 0
2508 1346 0
-271 -2996 0
-2836 -1849 0
2429 -307 0
1553 -2735 0
-693 3514 0
-781 -2587 0
1579 -2891 0
77 -2838 0
1755 3848 0
-3476 -3375 0
453 1383 0
-961 -18 0
493 713 0
-1363 1349 0
3035 -1629 0
104 -113 0
189 782 0
1766 -2543 0
660 1472 0
3756 994 0
-3785 -382 0
-389 1080 0
1539 850 0
2437 2651 0
3082 2149 0
3675 3010 0
-343 -2979 0
-395 -1040 0
1262 -2289 0
-3715 1966 0
451 84 0
3608 -3089 0
-3466 2445 0
-575 -3447 0
-3868 831 0
-161 -1274 0
-1781 750 0
-3551 468 0
-3011 -2086 0
208 264 0
-481 1502 0
-533 2249 0
-2935 252 0
-1489 -149 0
2062 234 0
273 -3627 0
-180 -739 0
-3816 109 0
2197 1436 0
872 266 0
1682 -2815 0
3315 1590 0
366 1469 0
-963 -1431 0
-2112 -2924 0
2290 -1927 0
-2578 -2322 0
2478 -616 0
3303 1936 0
-751 -3547 0
-2207 -3424 0
-3549 2914 0
3789 916 0
-1039 414 0
-1069 -1367 0
204 -619 0
-2581 3327 0
-3713 511 0
120 727 0
-2976 -289 0
-3842 1849 0
-512 -2233 0
-3813 -481 0
-1175 195 0
-3531 554 0
-3563 3001 0
1684 3263 0
-285 2038 0
2338 -561 0
684 -706 0
-2278 -1562 0
1388 -991 0
-965 -2909 0
2153 -1538 0
3759 -3478 0
2955 3269 0
3514 -361 0
3451 3735 0
-2681 -734 0
-426 -259 0
2915 2750 0
2697 2662 0
-2237 -2223 0
3694 770 0
1739 3468 0
-3760 1657 0
-349 -3262 0
2768 931 0
2422 1028 0
1267 433 0
2124 -2409 0
251 -128 0
-1141 -2412 0
-355 -1259 0
992 1242 0
-3153 -2711 0
-1898 -3630 0
-3889 -2643 0
-2233 855 0
-2588 -1445 0
-3672 -2993 0
2105 -1434 0
-2874 -2344 0
3270 -66 0
-1199 1964 0
2677 -1320 0
-2546 699 0
2677 -3536 0
-2844 256 0
-3771 3005 0
-2061 -2519 0
-1542 -2378 0
-2099 3619 0
-1793 -472 0
-93 -800 0
857 -1519 0
-1239 2791 0
-2636 -1980 0
-1449 3231 0
-1120 2660 0
-1195 3723 0
1088 -3092 0
-330 -1755 0
-157 -2687 0
3334 3510 0
-3521 -2064 0
-484 1968 0
507 2303 0
2011 28 0
-3297 -2557 0
1125 3877 0
-2125 -128 0
3128 -1043 0
104 -3676 0
-1435 -937 0
285 -2774 0
2916 -267 0
3779 1598 0
-2588 3657 0
-767 1924 0
3579 3798 0
1467 -626 0
3127 -1846 0
-3277 -334 0
297 662 0
475 1888 0
1331 1302 0
-2970 3035 0
-829 1196 0
-37 1485 0
-141 -3506 0
3025 -3112 0
571 230 0
-3705 -3885 0
2539 -2801 0
3706 -1974 0
1518 241 0
3457 -3310 0
-3306 1915 0
-2120 3013 0
805 393 0
-2346 -358 0
118 1172 0
-3752 -12 0
-2925 2802 0
892 1309 0
-2492 2241 0
2759 -3763 0
1296 3853 0
-3341 2456 0
-1846 -2291 0
-466 -1808 0
2526 -176 0
-2661 -1179 0
-304 485 0
-2491 2041 0
3273 -1044 0
2628 -3095 0
3115 -1303 0
3011 -862 0
1918 -3724 0
-2788 3327 0
-1531 2615 0
769 -1063 0
249 -1179 0
2712 -134 0
2157 2434 0
-1274 2156 0
-490 771 0
-3390 2261 0
3827 -1463 0
1246 1091 0
1009 -2424 0
-168 -702 0
-3825 1551 0
-1373 -2215 0
-3894 -2434 0
-2144 -2629 0
3005 1073 0
3141 3879 0
-362 2913 0
-758 2026 0
1472 1481 0
-2242 -1551 0
-1333 -159 0
-71 2175 0
2448 -3807 0
-2088 -3821 0
85 685 0
718 -3623 0
497 -933 0
334 2736 0
3600 887 0
2395 31 0
-932 3547 0
-733 -965 0
-1308 -762 0
-2561 2536 0
286 -2200 0
528 -3274 0
2036 -1082 0
2760 3345 0
3648 -3529 0
3628 2475 0
380 -2074 0
806 2755 0
2017 -1233 0
-1007 419 0
2151 -1473 0
-1532 -3475 0
1035 3825 0
-99 -2132 0
-2723 1946 0
-2323 -2738 0
2265 1138 0
-2885 -1077 0
-3174 -1018 0
1167 -576 0
-1815 1140 0
-3173 -2015 0
452 -407 0
-1318 995 0
-1181 -2368 0
-3471 2624 0
1674 3688 0
522 -1483 0
396 901 0
3845 -3038 0
2550 2225 0
-2966 -29 0
-3005 718 0
-479 3757 0
2409 -2019 0
-1519 -1758 0
1264 75 0
-3121 2094 0
-2993 2064 0
3483 -2066 0
-375 3799 0
705 3456 0
2569 1407 0
285 732 0
-3236 -3734 0
-1229 -1718 0
-383 -3429 0
1092 -160 0
2628 1451 0
-2773 373 0
-2396 2164 0
-3463 -3097 0
-544 718 0
2270 3668 0
-2825 -1010 0
-213 -2841 0
2736 -3477 0
-113 -2956 0
2401 -1669 0
3452 -3609 0
135 -1762 0
2270 -1958 0
-1447 -2253 0
2282 -1413 0
-3718 -2686 0
-1680 -722 0
-3447 1920 0
-2149 -2035 0
-3032 3506 0
-3751 -1792 0
-3513 -1019 0
-2141 59 0
1520 3586 0
28 -3269 0
-3589 -3283 0
-1490 3858 0
-1134 -3707 0
-607 -3287 0
1652 1754 0
1952 103 0
-2079 -3607 0
-3632 -2100 0
1140 710 0
3404 1936 0
90 -3139 0
-671 -1182 0
3286 696 0
-1211 -115 0
-329 1028 0
-1902 2593 0
-2297 -1186 0
2145 -2214 0
2855 2002 0
-3708 722 0
-2848 -3783 0
2856 -3208 0
1308 1520 0
-1471 -2339 0
-1206 2250 0
925 -806 0
3629 -2241 0
1001 1522 0
2820 -2928 0
-1672 -1229 0
-1880 -3177 0
-2155 -1259 0
-2973 836 0
-415 614 0
-2327 -2517 0
2849 -2408 0
1233 -2028 0
-756 247 0
1364 666 0
-3125 -1734 0
341 -3265 0
2905 2023 0
3268 -227 0
-2484 -495 0
2914 764 0
874 -2890 0
2549 863 0
-3800 1985 0
-218 -2532 0
76 501 0
221 -2663 0
2048 -7 0
1553 1730 0
3112 253 0
907 -3028 0
2420 3163 0
2751 2 0
89 -3095 0
559 425 0
-586 -1571 0
-435 551 0
-2333 -2463 0
2349 -20 0
-445 3674 0
2702 -1997 0
-762 -132 0
10 3470 0
346 2583 0
-1008 668 0
2126 -3028 0
3717 907 0
-12 268 0
2141 -1752 0
-2777 1349 0
-822 -318 0
2634 3661 0
-248 3498 0
-1434 3665 0
506 -1520 0
3820 320 0
1658 -3131 0
-1355 -1046 0
1979 -3158 0
-1420 -393 0
319 -3046 0
-2661 -2600 0
1485 76 0
-1494 -254 0
3800 2408 0
840 -1588 0
-505 -1684 0
3127 862 0
-1726 1314 0
-1211 77 0
1867 -3220 0
-880 -3443 0
-330 -1207 0
-1916 -255 0
-1930 -2348 0
968 -3211 0
-1500 -2565 0
-639 3802 0
-1498 -1906 0
360 -2145 0
396 3133 0
3169 615 0
377 2702 0
3859 -191 0
-474 -3653 0
-671 3225 0
1836 -2624 0
-3128 -65 0
1095 -2098 0
3677 2389 0
-294 -2609 0
1062 -3332 0
1363 -581 0
2786 -1128 0
2667 3469 0
1848 377 0
1818 363 0
-3738 116 0
-3621 -3672 0
-1649 3149 0
-3808 -3611 0
1066 1023 0
-3114 1617 0
1575 2607 0
-2593 2739 0
3685 -985 0
2990 2866 0
-1010 335 0
-2685 -1358 0
-393 -991 0
-865 -61 0
1470 -1525 0
-2316 2153 0
2323 -3222 0
-3391 1263 0
1802 2599 0
-1119 -3737 0
-1752 1432 0
-2970 -1069 0
-3240 3877 0
-88 -1109 0
-2060 -888 0
-2112 -2674 0
3816 -927 0
-175 -2938 0
-1530 2991 0
1489 300 0
-808 247 0
-1268 2340 0
1419 -776 0
3328 -1150 0
-294 2283 0
595 2645 0
-1615 -1283 0
-2795 -920 0
3712 -1055 0
-181 2430 0
483 -199 0
-2237 3523 0
-1441 -894 0
231 -180 0
-120 -3159 0
-1396 2099 0
-2793 670 0
2305 -193 0
-2395 3708 0
3781 -3215 0
886 2955 0
-1244 463 0
-1987 -607 0
2798 -2100 0
-3033 -778 0
-3147 2060 0
519 -3041 0
3294 1067 0
886 -3749 0
2845 1029 0
2265 -2710 0
-3690 -3288 0
2669 -3488 0
2898 -961 0
-1492 -1399 0
-1070 -658 0
3719 3181 0
-2378 1551 0
1713 -1430 0
-1015 -983 0
-3313 2899 0
-482 -1892 0
271 1324 0
-2952 -161 0
3500 1559 0
237 -2855 0
1241 -3824 0
2880 967 0
-2541 -1495 0
1809 -3147 0
-1506 3808 0
1644 -1878 0
-878 1108 0
-2591 -3255 0
216 724 0
2258 3178 0
-318 -2041 0
1125 1196 0
3142 3500 0
-1814 -2270 0
1268 454 0
-1124 172 0
1799 -2583 0
3693 1634 0
3135 -3261 0
960 2266 0
696 3848 0
-3363 425 0
-3229 -3285 0
-2004 -302 0
2810 -2009 0
3242 -1205 0
678 3100 0
-3094 -3448 0
-225 -110 0
-421 -2858 0
725 147 0
3031 3468 0
-3689 1512 0
-1176 -516 0
-1387 2155 0
-3679 -1244 0
974 648 0
-1302 2067 0
-982 -3887 0
-3236 1698 0
-445 1296 0
580 1301 0
-2178 -2974 0
-3784 3840 0
-3443 -3675 0
-923 -3150 0
2566 -3794 0
-1015 -2457 0
-3266 -1642 0
-944 -2063 0
1251 429 0
-951 104 0
-601 2339 0
2597 -2878 0
-3835 -2018 0
-2760 -2059 0
3682 3219 0
-3189 2133 0
-2030 1141 0
-841 -1333 0
845 2782 0
1685 3438 0
-930 2525 0
3452 -2030 0
1935 697 0
-3190 3446 0
-1172 -1495 0
1810 2809 0
3163 3554 0
172 2706 0
2321 444 0
-2607 -3513 0
-3843 -1640 0
251 -2411 0
-2063 -759 0
-2339 1589 0
3762 193 0
2352 2306 0
-2636 -2186 0
3676 917 0
2823 924 0
858 3646 0
-2946 980 0
-2433 -1723 0
2583 3359 0
1337 2297 0
1913 -3186 0
2139 -887 0
3418 -3386 0
-5 296 0
150 3508 0
3780 1417 0
-1580 -1104 0
3409 -2968 0
1728 -3620 0
707 -428 0
2902 2801 0
-1397 3884 0
3268 1009 0
3284 -1462 0
806 -3470 0
2341 -194 0
-3009 -3344 0
-1740 3110 0
-1484 -2504 0
657 773 0
1789 2366 0
55 -2831 0
-548 1173 0
2642 -466 0
-2990 1907 0
-2838 -3228 0
2827 3359 0
3317 2591 0
-704 3671 0
1433 3797 0
1072 -220 0
59 -354 0
1288 872 0
3211 -1261 0
674 1394 0
-890 -3283 0
-2429 3238 0
106 -3688 0
1651 2066 0
-3260 -3530 0
2929 1581 0
3723 850 0
3501 -664 0
-3599 3407 0
-2552 -2357 0
-981 -1316 0
-2547 -3670 0
1 1184 0
3435 -932 0
1508 580 0
-821 1712 0
-3356 -2779 0
-702 -1722 0
1803 3004 0
2480 1978 0
3161 1555 0
2113 3061 0
1037 525 0
-3737 2644 0
2996 -3392 0
-3559 961 0
1635 1830 0
-821 1655 0
-1294 -2214 0
-762 1847 0
1506 1770 0
-716 -3411 0
2807 1698 0
-274 372 0
-2118 1174 0
1692 -3081 0
-1921 2802 0
2316 -3146 0
-2383 -2628 0
-547 -1416 0
-2348 -1568 0
417 2033 0
-443 289 0
2042 -3651 0
2951 1272 0
3231 -1287 0
-1101 168 0
-1492 -3894 0
936 3122 0
2780 -969 0
-2363 3391 0
-2210 451 0
-607 -1780 0
3512 -3502 0
564 765 0
-3092 1962 0
-2101 2950 0
1085 228 0
1384 -2068 0
2510 659 0
-3264 2718 0
-563 -2646 0
3070 3415 0
2034 -2063 0
579 -887 0
721 -1962 0
2914 154 0
290 2662 0
3636 2820 0
-929 -758 0
1757 149 0
-783 3450 0
594 -759 0
-2184 -2143 0
-1877 1620 0
1580 -2590 0
-2151 -2337 0
438 442 0
2424 -2088 0
-774 1366 0
266 2114 0
-3497 2138 0
-892 1113 0
60 3797 0
375 2659 0
-2279 2807 0
-237 2401 0
3172 -809 0
-2292 3092 0
-3768 -2588 0
-439 1101 0
2527 -3644 0
-2883 735 0
-1015 626 0
627 3434 0
-1808 1486 0
-3709 240 0
1196 599 0
-2492 2822 0
799 2826 0
770 2561 0
-1229 -1300 0
2113 3772 0
2375 3650 0
889 -3543 0
-3285 1400 0
3061 1816 0
-1921 1904 0
1379 1524 0
2977 2553 0
1605 3175 0
3629 -3803 0
553 -454 0
1360 1056 0
251 1073 0
-765 3800 0
-3572 -2404 0
3245 2377 0
674 -3532 0
-2871 2014 0
-2076 -417 0
2717 -3600 0
-461 -3718 0
978 734 0
-1737 1567 0
1592 3632 0
674 3390 0
2375 1625 0
517 -3726 0
-982 -2498 0
767 -3609 0
2844 1555 0
-1717 1267 0
807 -2670 0
-867 2976 0
3225 137 0
2229 1418 0
-854 -3859 0
764 3721 0
350 435 0
3780 -1674 0
-149 1774 0
814 -1997 0
-168 -3689 0
1531 -2496 0
-2898 -2050 0
802 -3447 0
-2484 -340 0
-3821 1565 0
-1926 -1351 0
-3779 2851 0
1984 -2489 0
-3413 -1885 0
-1108 1308 0
1605 2040 0
1664 -326 0
-2836 2356 0
-2611 823 0
-2060 -1433 0
3636 959 0
-1738 463 0
3448 2668 0
2565 -3193 0
2379 -1115 0
-2880 50 0
2083 -1030 0
-246 1592 0
3495 1269 0
-2500 -1183 0
-1784 -1718 0
-2858 -1260 0
-2600 -908 0
885 1317 0
1774 -3448 0
657 1667 0
1690 -268 0
1613 3309 0
3260 -3321 0
3813 -2337 0
-2111 -2449 0
1561 -2084 0
-1931 -3339 0
-2423 -3467 0
-1275 -2057 0
-3102 1403 0
-2561 1035 0
-3846 -2452 0
-3552 996 0
2723 3675 0
-105 2441 0
-336 449 0
1760 -3864 0
-3221 -3338 0
-1942 -877 0
-3462 -2361 0
-548 3452 0
-1115 -493 0
3505 -789 0
3840 -860 0
-1431 617 0
-1302 -1251 0
-2833 -3326 0
1696 1847 0
-186 1903 0
3799 1762 0
-1901 2899 0
-36 -296 0
-1971 2053 0
3380 -3642 0
2912 -3174 0
2572 3014 0
-946 1476 0
-3601 -1441 0
-3244 3868 0
-2413 2580 0
-3757 735 0
-2610 -572 0
-1667 -1 0
-2383 -3611 0
-3158 -2811 0
3392 -1219 0
-1144 -322 0
2566 -3457 0
1655 101 0
-1867 -1563 0
-3081 3277 0
1110 -3084 0
3398 -855 0
771 3865 0
1362 2032 0
2228 -3868 0
-3764 -3176 0
1393 1686 0
-1141 2789 0
-1151 -1941 0
-3855 1003 0
3436 -457 0
2955 835 0
3344 -1842 0
2736 554 0
1553 557 0
-1979 1467 0
2760 -1910 0
2861 -1441 0
-3803 1525 0
2390 -1199 0
2818 -899 0
3580 722 0
-3493 740 0
1204 2996 0
-571 958 0
723 1727 0
-2825 -733 0
1530 -1015 0
1811 -2930 0
-3487 -3844 0
1779 1843 0
155 -3367 0
3133 330 0
-1137 -776 0
-2490 1927 0
2802 3434 0
1278 2452 0
1291 137 0
-3841 1289 0
2433 535 0
2171 2298 0
1876 470 0
1242 38 0
1383 1858 0
3600 -1100 0
-2922 -3489 0
2497 -192 0
3721 -1663 0
535 -784 0
-1078 -1271 0
-270 -1950 0
-2636 3401 0
2728 -3154 0
1626 -3601 0
-3310 1136 0
-2470 115 0
1301 410 0
1861 -317 0
675 -2207 0
-1867 2191 0
2086 901 0
-265 2738 0
310 -846 0
-233 -2970 0
3092 80 0
-3873 -3212 0
598 -1086 0
-434 1497 0
-2486 -2463 0
2321 -3740 0
-3124 -3150 0
-284 227 0
1910 786 0
-2949 -462 0
3495 -180 0
-854 -2138 0
2517 2316 0
1438 542 0
-970 3380 0
3027 3100 0
2933 -3388 0
1907 -3024 0
1320 1845 0
560 3753 0
882 882 0
3123 2133 0
-3327 713 0
-1365 2240 0
1880 2263 0
2350 2284 0
1323 -698 0
-2888 -211 0
3755 -3355 0
-3846 3070 0
1117 471 0
1795 -2948 0
256 3703 0
2335 -944 0
2485 -3102 0
-2594 2124 0
-2673 -1001 0
-589 -550 0
-783 582 0
749 -3252 0
476 -2524 0
-1858 -862 0
-3740 -1361 0
1300 1832 0
42 -2550 0
-2656 -806 0
-3176 -202 0
-1995 1376 0
1507 489 0
3109 3586 0
2809 2268 0
-2625 1693 0
765 -466 0
-1079 1566 0
-291 1790 0
-1290 316 0
-138 1025 0
2047 -3401 0
2713 -1100 0
-2411 1805 0
-2623 -2860 0
2547 -1896 0
1075 -160 0
144 -2502 0
-491 -3319 0
2631 747 0
-2096 439 0
1618 3100 0
-3545 347 0
57 688 0
2929 1031 0
-838 2213 0
-877 3659 0
2863 -1767 0
-2754 -477 0
3197 -1149 0
-1420 -2949 0
-814 -2674 0
-2321 3012 0
3799 -2929 0
2861 -3398 0
-1640 2943 0
-3460 1508 0
282 -2334 0
2201 3059 0
-2831 3503 0
3461 199 0
3014 3326 0
3818 -1796 0
-2544 -815 0
873 3373 0
1074 -3226 0
3872 2017 0
236 2366 0
-2166 2776 0
1259 1673 0
1630 2901 0
-3329 -1714 0
-1124 1264 0
673 519 0
-3170 3308 0
1404 2085 0
1234 590 0
3822 1059 0
74 996 0
-3481 3243 0
472 -504 0
-3178 497 0
2323 -3440 0
-2534 1575 0
-2775 -94 0
-2295 -1646 0
1750 -2669 0
890 -1402 0
1054 249 0
-2894 -160 0
2784 2499 0
429 1423 0
3145 -2540 0
-860 2717 0
-1474 -72 0
-3328 3514 0
-344 -2593 0
-750 1849 0
1130 -2818 0
773 -1320 0
-2398 -900 0
3700 2859 0
-1902 -1707 0
-1356 -2709 0
-3148 1306 0
-563 -286 0
-3555 2339 0
-2326 -3679 0
-481 618 0
150 637 0
3776 -1573 0
644 915 0
2580 624 0
511 -1639 0
-1404 769 0
1369 -2001 0
-1538 -2941 0
178 -1301 0
262 -477 0
806 -2841 0
-753 2648 0
119 3422 0
-2174 -173 0
1732 2040 0
-2505 -789 0
-250 1993 0
464 1489 0
588 -2003 0
3597 3036 0
-606 -2783 0
-1716 -2499 0
-3795 3288 0
-1201 -1203 0
2045 -2154 0
790 3792 0
2724 -747 0
-62 -900 0
2060 -711 0
129 1379 0
743 -2199 0
3358 805 0
2971 1278 0
2027 125 0
-2168 1502 0
1457 -641 0
-1372 963 0
392 -3515 0
-3831 1898 0
-1803 3274 0
-3814 28 0
2991 2848 0
1332 -3654 0
3840 -515 0
-760 -1229 0
-1343 -1431 0
-972 -2266 0
-1322 -2886 0
53 -481 0
-1922 3739 0
752 -2681 0
3708 2708 0
178 140 0
-3865 -537 0
-2758 1586 0
-2889 3326 0
-2506 2512 0
-1653 1344 0
3577 2515 0
-72 -3830 0
705 2192 0
3333 2777 0
241 -128 0
583 -3182 0
2167 -692 0
553 1019 0
-849 1083 0
2063 2266 0
-2054 268 0
-530 89 0
2043 1985 0
3816 767 0
428 -3733 0
-3461 3102 0
-2159 -2503 0
-2107 2455 0
2381 -1870 0
2120 -3084 0
-3065 -785 0
348 2244 0
-1215 -3467 0
-803 -2123 0
3808 3762 0
777 -139 0
-2365 2719 0
-3179 3095 0
3269 -17 0
1508 -1705 0
-747 -382 0
-303 3695 0
-2954 -3810 0
-2914 -649 0
2199 -1748 0
617 -2434 0
-1579 906 0
-525 -1392 0
-103 -1495 0
-153 2296 0
-1649 3564 0
-688 -774 0
-945 -1067 0
1911 -3661 0
2901 -2391 0
3815 -1886 0
-1351 -1094 0
49 -3766 0
-40 1024 0
1553 -842 0
705 3041 0
-1014 3636 0
-902 -1078 0
1926 2437 0
-108 1501 0
-26 3649 0
3366 2094 0
1220 1411 0
2404 -2551 0
678 1269 0
-3545 1381 0
3447 -973 0
160 -2732 0
-1621 1816 0
1028 -1334 0
1004 2099 0
3707 1147 0
3108 -3374 0
3180 -2405 0
-2502 2615 0
727 1717 0
-3030 -1266 0
3263 -3813 0
1074 2586 0
3149 1485 0
-3115 -544 0
-3432 -950 0
-3702 1126 0
1156 1445 0
1731 1907 0
-3264 3414 0
1921 -260 0
3713 1230 0
1234 -469 0
-3635 2193 0
1565 -1827 0
136 333 0
2846 -2174 0
-1223 2971 0
-3477 -578 0
-842 1179 0
570 -2487 0
-3626 -95 0
-3764 -428 0
-865 -2914 0
-1808 -3132 0
2097 1296 0
-2841 2401 0
-1057 1999 0
3034 -1091 0
-1219 -754 0
3045 1257 0
-779 -1426 0
31 -1489 0
-3569 2979 0
-513 -3162 0
3587 -287 0
3734 667 0
-1584 -2962 0
-304 1042 0
823 -3162 0
-1058 -1814 0
1947 -2404 0
-2765 -1684 0
503 -1397 0
-2852 -1788 0
2719 1821 0
-1673 2935 0
-2553 -3562 0
-1975 1139 0
-2884 1392 0
783 -2825 0
-2216 -888 0
940 1341 0
-1724 1814 0
-2253 -3817 0
452 -3273 0
-1632 490 0
2626 194 0
-763 2354 0
2499 1672 0
-1073 2667 0
1466 -3046 0
1512 -2593 0
2865 -2391 0
-2135 2580 0
-1636 -826 0
-1897 369 0
-3724 2048 0
-933 -1670 0
-349 10 0
3332 -168 0
3738 -1629 0
3009 -3572 0
2170 -3029 0
-1303 -3660 0
1973 2451 0
-1854 3873 0
-3563 -2481 0
-1804 1096 0
-4 1142 0
-1195 -3303 0
-1426 3269 0
-1559 2066 0
-1954 3843 0
-1629 -696 0
-3826 718 0
2775 -2702 0
3648 1295 0
3691 -1025 0
2584 1908 0
2470 2033 0
-563 -2472 0
2355 1664 0
-2010 -824 0
1674 -3407 0
2906 745 0
-9 -1584 0
-469 -1948 0
-3128 -1639 0
-3757 -2582 0
511 3568 0
-213 1447 0
2538 -3066 0
-522 2136 0
3811 906 0
-2556 3281 0
-1031 3847 0
3056 -2517 0
1014 399 0
1771 410 0
130 3196 0
-870 -2907 0
-3529 2461 0
-3074 -3667 0
-1531 1912 0
-1370 -1127 0
-2993 -2259 0
2604 -3186 0
-3739 520 0
2323 3523 0
-2114 1049 0
-2163 -3488 0
-3577 805 0
1996 1881 0
1892 1637 0
-2097 -814 0
-1566 396 0
1703 766 0
-702 1303 0
-2604 1185 0
-2295 723 0
-2159 1608 0
-1304 -1469 0
-2870 834 0
1940 -2920 0
-453 3407 0
-1511 -1216 0
-3250 -3655 0
464 -892 0
362 -3732 0
110 -2382 0
2232 -2012 0
1088 3255 0
-3512 2642 0
3259 -719 0
-1397 998 0
922 2045 0
-563 -3348 0
2262 -3481 0
3364 221 0
-1653 3447 0
-2318 -320 0
-2082 -1151 0
-1203 830 0
1315 2504 0
-2825 -3103 0
-337 -3247 0
-646 1209 0
-3582 -1943 0
-3411 -368 0
-267 880 0
-1104 -537 0
3306 -3316 0
-1086 686 0
3690 2435 0
-1292 -841 0
2052 3185 0
-2004 -1449 0
2091 -792 0
-1504 -15 0
-2389 -2446 0
1467 -323 0
-2994 -1999 0
-2557 -957 0
-2556 3698 0
3224 -1632 0
-3287 840 0
2121 -2253 0
247 -3074 0
3250 3784 0
-1002 2201 0
-1199 -44 0
-2446 681 0
-3481 -1115 0
-611 -317 0
939 -3201 0
-946 -1077 0
3828 2207 0
2898 -1335 0
1440 1774 0
872 -1931 0
-1089 -1456 0
2058 -356 0
-166 -1096 0
1399 -267 0
1104 3483 0
3373 -33 0
-2677 -1732 0
2716 -2440 0
-1780 -3360 0
1647 -1555 0
-588 1073 0
1232 -1915 0
-2051 3410 0
498 2846 0
1025 -1267 0
1021 -1615 0
922 2716 0
580 -2850 0
-513 3141 0
1688 101 0
-3575 963 0
1133 -3417 0
-574 -2799 0
2469 -837 0
3426 -3667 0
298 2421 0
-1595 -3523 0
1339 3863 0
2402 -2957 0
1814 52 0
1541 -1253 0
1789 -2756 0
2331 3782 0
-3057 -1793 0
774 112 0
2353 2912 0
-2253 -2623 0
1959 -1384 0
3860 -2275 0
3118 737 0
-3306 3514 0
394 3073 0
-1967 2819 0
340 -34 0
-3563 -491 0
-3773 -2433 0
2764 2977 0
-3329 341 0
-3655 -3316 0
2795 2836 0
280 -3244 0
1847 235 0
-1703 1260 0
-3535 -899 0
2770 -1148 0
-629 515 0
-2204 418 0
-1764 -2759 0
-2106 567 0
362 1667 0
-1144 3387 0
2561 -2091 0
2227 1032 0
829 1299 0
-891 -1995 0
-1422 -3896 0
2381 2694 0
-2496 -1979 0
-869 1515 0
1141 2914 0
-1380 588 0
3206 3268 0
-1716 -881 0
-1559 2556 0
-1556 -3829 0
-2261 -2489 0
2724 -3416 0
2270 -3465 0
-2834 -3311 0
-521 3408 0
-614 -2632 0
-3362 -1979 0
3279 -701 0
3833 1003 0
-1361 -487 0
77 -1575 0
2775 -246 0
1068 997 0
-837 -1835 0
-3760 -2693 0
-3113 209 0
1843 2199 0
3580 -2118 0
3456 7 0
-3076 2222 0
909 2176 0
3011 -2597 0
-3467 -779 0
-718 62 0
-2491 -473 0
-2441 2604 0
-1140 -3101 0
1666 -21 0
286 3570 0
-374 -3350 0
-1678 1157 0
470 2771 0
3282 1341 0
-3667 3614 0
2683 -428 0
-3178 -601 0
1365 190 0
1255 2121 0
2466 3290 0
-2700 3061 0
320 2251 0
3746 3470 0
-2496 704 0
-1656 -2204 0
407 -1697 0
415 1260 0
-3481 -1668 0
-3423 -5 0
773 309 0
2657 -610 0
3110 -209 0
552 -1301 0
3618 -2655 0
-1613 -161 0
1861 -1228 0
-933 2750 0
-239 2392 0
-3669 2294 0
-2695 3570 0
-326 -611 0
-3726 -774 0
-2579 2869 0
1863 3365 0
1899 -2369 0
-2714 3816 0
1389 -639 0
221 3807 0
-1086 2745 0
2017 -2183 0
-1294 101 0
-1588 3025 0
-3388 2397 0
-3358 -177 0
-732 297 0
-211 -662 0
-2041 -3674 0
2645 -3113 0
-2170 -2857 0
-56 2258 0
-3843 3448 0
687 -3271 0
-3095 -3128 0
-181 -2503 0
-1491 -1150 0
-69 -3623 0
909 -2202 0
2055 113 0
257 2833 0
3067 -2881 0
-3522 -1364 0
3157 -294 0
3505 -907 0
3408 -2027 0
-1361 -2892 0
1269 -3337 0
-3529 -2232 0
2016 -3613 0
-2294 3083 0
721 -357 0
-482 3482 0
3717 3889 0
-1974 1882 0
1913 -3733 0
-2852 1402 0
-2302 941 0
-198 2793 0
1591 -1685 0
804 3872 0
-135 -2570 0
-2673 3325 0
2790 303 0
1673 -2446 0
-1447 2734 0
-218 -3273 0
2821 -3867 0
1663 -961 0
2342 -2479 0
3173 -1330 0
1641 -1587 0
1799 3601 0
1251 3746 0
2515 -2225 0
-371 505 0
-890 -1661 0
1819 -1781 0
-2154 -512 0
797 2741 0
1108 229 0
-2479 -2654 0
2366 -1920 0
-3388 353 0
-1284 -1542 0
1837 -1995 0
320 1943 0
1014 -1273 0
2268 2468 0
-2098 3072 0
3802 3087 0
1346 916 0
-3673 2885 0
3269 -1474 0
3379 -817 0
142 1462 0
-199 -274 0
-2534 3674 0
-211 -1392 0
-1040 -825 0
-2430 -2702 0
-1054 -2212 0
853 1795 0
3053 -1623 0
1664 -956 0
-287 -1286 0
2361 1021 0
-2617 312 0
2695 -631 0
-1544 3530 0
1739 -1011 0
1983 1003 0
1665 3861 0
453 -2566 0
3506 -2388 0
3612 -2068 0
-328 1839 0
2215 3349 0
-2831 -1553 0
1420 -3523 0
-735 -2100 0
-2411 2964 0
-2388 3450 0
3717 -80 0
1357 -3724 0
2755 1731 0
-2213 -2365 0
-3895 3271 0
-1595 -333 0
-1328 2065 0
2354 -3463 0
-377 3782 0
-1518 -1057 0
-2440 -172 0
-85 -2465 0
-2371 3531 0
-891 2602 0
-3213 2497 0
954 115 0
-3167 -3448 0
-1491 1045 0
-2683 -1451 0
2711 -2392 0
3182 1423 0
-3166 3894 0
2812 -987 0
3319 -3212 0
3216 467 0
-2390 -3589 0
1070 -3273 0
2749 411 0
-443 137 0
-2672 3040 0
1163 1658 0
2251 -3442 0
-1307 1112 0
-2932 -522 0
-3364 2891 0
-3083 -3417 0
-2964 2937 0
710 1647 0
56 -57 0
3405 -1282 0
-3698 -2474 0
636 3293 0
863 -529 0
3483 -3384 0
2366 -2665 0
2813 2499 0
560 -673 0
132 -126 0
-1854 3251 0
2494 -424 0
-3851 -884 0
-1966 822 0
-2294 3251 0
3342 -3022 0
911 1734 0
2397 -1574 0
3560 -944 0
-1931 3451 0
-2975 1347 0
3334 -733 0
-3380 2415 0
1983 547 0
-2315 -2091 0
-26 3060 0
-3463 830 0
-2658 -699 0
558 -621 0
-1954 2374 0
-1175 3539 0
-3023 -3855 0
-2202 -2996 0
129 3245 0
1467 3858 0
892 830 0
-1779 356 0
2579 2405 0
-274 -448 0
194 -3782 0
515 -2759 0
195 -3692 0
-3619 1876 0
408 -620 0
-2987 -552 0
-2661 -1749 0
-1091 3259 0
-41 268 0
1774 -3605 0
855 1851 0
-1132 2669 0
356 -1267 0
-2806 3337 0
1502 -166 0
3571 113 0
922 -2353 0
1444 -1798 0
3816 115 0
-1632 3149 0
-2689 1797 0
199 -3372 0
-1778 704 0
-174 713 0
625 -549 0
1536 3289 0
-3481 3796 0
-1174 3469 0
3616 -2998 0
408 -1929 0
-2399 -2939 0
2345 -1137 0
-912 -3371 0
-3256 2776 0
-440 393 0
-1283 -946 0
2152 39 0
2476 1875 0
-1138 2183 0
-2534 -1451 0
1396 3040 0
-2834 -2452 0
1298 3395 0
-3624 1655 0
-927 -152 0
3522 2171 0
283 -2008 0
-2623 2197 0
1219 1658 0
-2176 822 0
-209 1161 0
-3346 3105 0
-578 1031 0
-3097 -2322 0
-1616 2300 0
-298 -1 0
102 -2591 0
-305 3604 0
643 2504 0
-166 -3773 0
556 1162 0
3066 845 0
3683 883 0
-734 -3259 0
-1855 -2985 0
-2319 -504 0
-1691 1216 0
995 2587 0
2764 898 0
-2107 1934 0
143 1106 0
-383 3184 0
1670 2766 0
2420 2185 0
-2532 -2682 0
3095 -2414 0
1631 1108 0
-98 1404 0
350 -591 0
-1916 1791 0
-1684 -3205 0
2397 2192 0
1674 -3225 0
-3745 -2801 0
-3663 1513 0
-3179 3197 0
-386 -1985 0
-1153 3664 0
3105 -1004 0
1631 2234 0
2054 2200 0
-1777 2279 0
2360 2809 0
1754 1987 0
-845 2361 0
-2481 1126 0
619 -3288 0
-2908 2839 0
-1269 -3314 0
134 -3634 0
1283 -1870 0
-1699 -2417 0
-2537 2182 0
819 -9 0
-451 -2087 0
3845 246 0
-2151 -2396 0
1098 -3352 0
3292 3427 0
408 1594 0
-3402 -2053 0
1864 1255 0
3560 -3091 0
3077 2952 0
2058 -751 0
760 98 0
-961 -198 0
-3051 2733 0
1686 -209 0
-1646 1963 0
1464 -3048 0
3585 702 0
219 -1824 0
-3380 -2774 0
-34 -826 0
3010 3615 0
-1053 -627 0
3309 1279 0
1964 2460 0
567 -336 0
701 -1375 0
-3479 1107 0
863 -3739 0
2893 -2016 0
2469 2975 0
2043 -1138 0
-481 759 0
-3727 -2318 0
-1588 2370 0
-2889 -982 0
-1596 992 0
-859 -1969 0
-2049 3446 0
-2579 -2665 0
559 294 0
-1947 -421 0
-2760 1950 0
3367 -978 0
-1616 2116 0
2221 670 0
1379 813 0
439 2193 0
2296 -461 0
2494 633 0
-2964 -3317 0
3505 1289 0
300 1593 0
2742 2533 0
-1044 -3508 0
3243 1892 0
-983 1500 0
3768 -982 0
429 1953 0
-3130 -1533 0
1575 719 0
1851 -2822 0
-370 3527 0
2530 -1519 0
3459 -3113 0
-1351 -2159 0
-276 2261 0
-1065 3777 0
2367 -1348 0
3416 -3804 0
3258 3543 0
1332 1230 0
-3537 -94 0
-3047 3454 0
-2498 2657 0
1692 1694 0
2032 -3504 0
-3013 3239 0
-2098 -3692 0
-116 1249 0
724 -1017 0
-1032 -2175 0
347 3597 0
-613 -3655 0
2015 3560 0
-1163 -2548 0
-346 -3668 0
-868 3751 0
1387 3434 0
-2661 642 0
-3100 -457 0
3292 -2086 0
-1200 2831 0
-1451 1456 0
3385 -1855 0
936 -1700 0
1686 -305 0
-46 -933 0
1831 2564 0
829 -1856 0
-1718 3238 0
2031 -145 0
-206 1667 0
392 3132 0
2520 139 0
637 -3020 0
2948 -2178 0
3692 -496 0
-1249 3779 0
3034 -2047 0
2739 -2357 0
-3596 -2086 0
-2567 -838 0
-2282 1677 0
-3503 -1059 0
-1599 -3477 0
543 1157 0
888 3043 0
-3618 1539 0
-586 -3064 0
-3048 -2963 0
765 -3871 0
-3561 2665 0
-3862 2143 0
1423 -2800 0
-357 -296 0
-3846 -1789 0
-3193 3565 0
-3232 1497 0
-1573 2421 0
17 -1791 0
372 3767 0
1441 -2989 0
1387 -846 0
-3844 -2268 0
-2690 -2864 0
3182 2211 0
-2439 148 0
616 2189 0
-2857 -3063 0
-1437 -2858 0
2550 2138 0
-2679 3324 0
-2679 2330 0
-1005 3132 0
-985 761 0
-2022 3404 0
-3178 -2446 0
-325 2829 0
2526 1472 0
-3424 -223 0
2903 1639 0
126 -3557 0
-3384 2814 0
3106 -654 0
-2395 1042 0
3868 3456 0
2945 1707 0
606 -2195 0
1265 -3894 0
-3436 -1731 0
-1994 -3628 0
3052 -2552 0
-2015 -341 0
571 -3275 0
-2313 -522 0
-1245 -3206 0
-1410 -3056 0
710 -1862 0
1735 925 0
2730 2989 0
959 2195 0
2250 -3364 0
-3215 2704 0
-925 -1731 0
2484 -1307 0
-257 1836 0
-962 -2994 0
-1632 2539 0
3394 -2321 0
2854 -481 0
257 -2403 0
2823 -1281 0
3571 1316 0
2615 -581 0
820 -1684 0
2647 -638 0
-1105 1598 0
2121 3061 0
-131 2052 0
3456 2256 0
100 -2591 0
-2716 -3892 0
-2177 -3196 0
2701 -3218 0
677 -3554 0
1280 841 0
1085 -2614 0
1611 345 0
-1923 2017 0
3725 -3459 0
-1943 -1374 0
-2955 2689 0
3671 -1851 0
3807 3006 0
-554 -1823 0
417 -3469 0
-1631 -185 0
292 668 0
1027 -2474 0
-2938 3322 0
-2211 2966 0
912 2903 0
2725 3631 0
3021 2668 0
-3724 -2477 0
282 3367 0
3018 -93 0
449 -1160 0
-899 1545 0
566 -293 0
-2894 217 0
2173 -3785 0
1818 2104 0
-3176 -3259 0
44 -888 0
-932 2195 0
3481 456 0
42 3666 0
-2771 2281 0
2382 -2930 0
-758 -1622 0
-3715 -1016 0
2712 -1792 0
-3570 1582 0
-127 -3698 0
2067 2719 0
712 -1096 0
2707 2818 0
-2070 -3264 0
-3000 3689 0
-2337 -1295 0
-2881 -2430 0
-550 -1458 0
-3510 -635 0
-2288 -2936 0
-2302 -118 0
-1815 -2382 0
1237 -955 0
-2792 -3037 0
-3106 -1980 0
1235 1567 0
2916 948 0
-1517 -560 0
-2945 -2991 0
-3769 -71 0
1475 -3052 0
1249 1908 0
-3244 -2698 0
283 -2376 0
477 -3670 0
-2128 683 0
674 -3688 0
-1735 3876 0
3398 -1832 0
3067 713 0
2684 1269 0
-2807 847 0
-3204 554 0
589 -1830 0
1263 -612 0
560 -2826 0
-1983 -2934 0
-940 -1958 0
-1748 -597 0
-3530 -1891 0
1841 2775 0
1209 -3232 0
-2283 2092 0
-2363 916 0
1637 2841 0
280 -1874 0
-3798 -3508 0
2798 3717 0
-3568 2747 0
2451 2615 0
670 -714 0
-336 -3637 0
-3527 721 0
2422 3513 0
-1506 -3296 0
-672 2749 0
-354 2783 0
-4 -2157 0
-1724 178 0
-2269 -3170 0
-3510 -535 0
2458 591 0
2415 618 0
-3047 2743 0
-1380 -1415 0
-2659 1098 0
-2544 -1271 0
-593 -646 0
-2160 2693 0
522 3691 0
-2938 -1473 0
-3251 -2934 0
-2718 -1159 0
-1685 875 0
-1200 -2553 0
-1101 1827 0
-2713 3302 0
3229 -3709 0
-732 -490 0
1087 125 0
697 -3610 0
228 1418 0
-158 -2347 0
-2970 3400 0
3351 -3029 0
-3644 134 0
380 2485 0
1067 3082 0
-3754 -2462 0
521 -494 0
-2441 -3076 0
-462 3169 0
2902 1925 0
-1632 156 0
-1680 -2247 0
690 2022 0
-1378 3368 0
-3089 3616 0
2060 -2548 0
-2357 388 0
2812 1950 0
1551 -3774 0
-1264 217 0
-289 -1053 0
956 -742 0
3302 -1277 0
96 -3354 0
3504 3719 0
328 -1620 0
2687 -2035 0
1769 904 0
1334 -1993 0
1878 -1715 0
-179 2997 0
3748 -3678 0
2587 -1123 0
-937 -1420 0
-3028 -1368 0
-322 202 0
3614 -709 0
-777 -2928 0
2154 3402 0
-1277 2383 0
-1396 1847 0
-2536 -3000 0
3172 2490 0
-1218 2080 0
-3853 1882 0
2571 -3364 0
252 -698 0
1097 3884 0
-740 -1777 0
-2250 -67 0
-1994 2374 0
-2190 808 0
-1223 -2162 0
2425 -917 0
3770 1347 0
-1689 1927 0
-1004 2965 0
120 -2983 0
28 -1046 0
2581 -2893 0
-1010 -2606 0
1506 -1881 0
-2924 905 0
3363 -3338 0
-1015 1217 0
3412 3130 0
-2988 1066 0
2703 -457 0
-3628 -1850 0
1419 -2715 0
1113 2469 0
-1608 3499 0
-635 -1072 0
-2253 247 0
2906 3443 0
-802 2092 0
-3869 -3432 0
-2735 -965 0
3533 -337 0
1020 -22 0
1693 366 0
1412 -1372 0
-1934 -616 0
-82 465 0
-2924 2275 0
775 -3002 0
3336 -1124 0
-2979 -839 0
2851 3890 0
3147 554 0
-2192 -1272 0
-1661 49 0
1206 1924 0
-3801 -1735 0
-274 -146 0
-2304 520 0
3253 3677 0
-1604 -97 0
3657 -3433 0
-2118 -2805 0
530 1987 0
-1523 -647 0
102 3548 0
82 -205 0
2624 -2891 0
1361 -2299 0
2803 -2606 0
1145 -411 0
981 2571 0
-1697 953 0
587 138 0
-2078 -610 0
-740 -3477 0
642 -913 0
777 483 0
-2565 -2162 0
982 -3095 0
3853 -3751 0
-80 -1967 0
-2883 -54 0
3258 -2420 0
1130 1904 0
1320 567 0
347 -3771 0
2006 -1634 0
3138 1863 0
3574 990 0
1791 -2153 0
-1024 3099 0
-3160 -358 0
-3608 -2180 0
3576 -3421 0
1029 811 0
3800 -2283 0
-1211 -386 0
-1231 -1632 0
2629 592 0
2795 -946 0
3703 -208 0
3827 -1480 0
3626 2875 0
-991 3818 0
-1077 3890 0
-746 1436 0
821 -2502 0
3794 896 0
-1951 960 0
-1175 2456 0
2259 -3347 0
3319 423 0
1545 3201 0
242 989 0
2708 -2617 0
225 2345 0
1620 2948 0
-2269 1575 0
1150 134 0
3430 -1328 0
-3508 -3751 0
2526 -3039 0
2887 -3011 0
2271 -2954 0
2698 1913 0
-1608 -3798 0
-2917 3893 0
-772 2913 0
2043 -739 0
-2022 3695 0
-2279 -3092 0
1532 -2339 0
-3332 865 0
-3025 -2233 0
-2589 -1984 0
3705 -2014 0
-3123 -2547 0
-1729 -3742 0
-1384 -3002 0
-1727 177 0
377 -1571 0
904 1120 0
254 218 0
-480 470 0
1567 787 0
2890 -2713 0
-1683 -1044 0
2603 -2036 0
-3441 -405 0
-2003 -1819 0
-1020 -783 0
941 458 0
1366 644 0
-2150 886 0
697 91 0
1794 -3248 0
1928 688 0
2417 439 0
-2840 2682 0
2757 -1857 0
942 -3598 0
3094 -2036 0
-3521 2824 0
276 3847 0
3325 -2906 0
-2441 -296 0
-529 2198 0
1336 -3241 0
-2289 -396 0
-865 3389 0
-982 -355 0
1904 302 0
-3221 3872 0
-71 1047 0
3837 -3511 0
-2361 -3075 0
-1452 3053 0
101 2827 0
1193 1324 0
-271 568 0
2837 -3637 0
483 -3308 0
-887 175 0
2880 -1135 0
-163 -1313 0
-1596 3568 0
-3593 -2981 0
2999 2381 0
-3853 2459 0
2117 -1007 0
595 1661 0
312 1197 0
-2416 3686 0
-384 -1238 0
1273 -307 0
-3700 -2242 0
3146 1479 0
-2391 -2593 0
-2961 1981 0
-730 -48 0
2924 1868 0
-249 -1101 0
-3678 -533 0
2872 -254 0
-1129 -3104 0
-695 328 0
-2832 2359 0
3551 -736 0
-1632 -1256 0
-3752 -2125 0
623 3034 0
979 -3433 0
1255 -3185 0
-358 1113 0
2156 -490 0
2340 -2101 0
1270 -2120 0
704 3184 0
-824 -97 0
-426 -242 0
1471 2025 0
1237 -1633 0
-3554 -2673 0
-389 1239 0
1675 2153 0
-561 117 0
-1652 -2224 0
-2874 1462 0
-1963 -3065 0
-716 -256 0
618 2116 0
3046 3699 0
2990 -1101 0
-325 -3671 0
-2069 -2199 0
-1452 3394 0
102 3380 0
2020 3386 0
-363 -3490 0
660 -986 0
-3304 -438 0
739 -3555 0
-3830 -2642 0
3756 2313 0
2104 -992 0
-1536 -1265 0
-431 -1149 0
1197 1526 0
2771 -69 0
2262 2547 0
1538 2048 0
-1451 -3005 0
1406 943 0
-3409 1155 0
2356 1170 0
-3494 3567 0
3271 -1795 0
3210 1298 0
-244 1346 0
-827 -3264 0
1170 -298 0
-3173 2545 0
3743 1366 0
-3406 -3240 0
533 1731 0
2517 1466 0
-3366 -553 0
-1749 1572 0
2206 3235 0
1983 -3442 0
-200 -1271 0
-3455 1851 0
307 1012 0
-3759 3636 0
-987 662 0
-1505 -2014 0
-3695 707 0
816 -3102 0
2764 3753 0
-2202 -2895 0
3532 -3388 0
1865 -696 0
-2434 -2812 0
-477 -1343 0
2072 1701 0
-2318 605 0
1071 1949 0
2197 1845 0
113 3156 0
3845 1247 0
2041 3399 0
-297 -1420 0
813 -1837 0
-551 2140 0
-2488 3787 0
2771 2876 0
-37 -2565 0
-2292 -2877 0
2936 -405 0
-94 1641 0
-2855 -2008 0
-3745 -3563 0
2873 -3453 0
-3084 998 0
353 3108 0
-3425 -3623 0
2812 1032 0
-547 3743 0
-632 3578 0
3349 -2935 0
1932 -2273 0
-2879 2786 0
2044 3085 0
449 40 0
-3826 2096 0
2378 -1218 0
-278 1262 0
-513 3186 0
-3181 -2153 0
51 1236 0
167 1344 0
1362 -1273 0
579 2968 0
380 -1906 0
2032 2821 0
-1490 1545 0
-748 2228 0
-3521 1880 0
51 -2273 0
-2206 -132 0
2708 2240 0
2654 136 0
3032 -3891 0
-2596 85 0
2597 3050 0
-1971 -3318 0
638 -1514 0
-13 2764 0
129 -643 0
1692 2420 0
-537 3326 0
2547 -1504 0
3792 -40 0
-2522 3351 0
1457 -1649 0
3534 -3785 0
-3003 1658 0
2266 -1568 0
-1886 -540 0
3554 453 0
856 2183 0
1572 -1056 0
1373 -2673 0
-1562 -754 0
580 -132 0
1829 2610 0
-132 251 0
-633 -3856 0
-2230 2564 0
-573 -100 0
-2680 -3081 0
-1636 -2417 0
1910 342 0
-42 873 0
1110 -2588 0
3189 1127 0
489 -2225 0
2210 3336 0
1367 568 0
1631 2054 0
275 367 0
47 2826 0
3329 2841 0
-1188 -3715 0
962 777 0
-3429 -2502 0
2404 -453 0
1898 1050 0
128 -2373 0
-2179 -1220 0
3366 2627 0
-1149 -999 0
-3222 672 0
53 1675 0
329 2554 0
-3796 1966 0
-2548 3847 0
485 2353 0
-3244 -1864 0
-942 723 0
-3623 797 0
-2786 -3595 0
2093 -784 0
544 -374 0
1607 1546 0
3417 3155 0
-2960 1034 0
-3824 2907 0
3155 -1338 0
-2617 3389 0
-3707 -982 0
2843 1069 0
1670 2515 0
955 -925 0
2612 -1364 0
-1267 954 0
3337 2706 0
-698 757 0
-491 -2225 0
3876 -1797 0
2866 -2327 0
-1940 3444 0
3177 -2581 0
2856 -3343 0
-3550 2406 0
1180 944 0
-739 -3194 0
-2908 -254 0
-559 2660 0
-2380 -2111 0
-535 -905 0
521 -232 0
1742 -3331 0
-1945 3031 0
3150 -1200 0
-273 -397 0
2293 -1377 0
-960 -1972 0
1235 -2844 0
-874 863 0
-2332 2059 0
3038 -568 0
-1770 -3187 0
-161 2711 0
2033 3887 0
1950 -3179 0
3006 2528 0
2523 -2495 0
2385 -885 0
1228 1142 0
2073 -3688 0
432 656 0
1452 -2654 0
-1925 851 0
-413 745 0
-3407 -1967 0
-979 3331 0
-2815 -29 0
844 2988 0
3748 -2424 0
1841 598 0
-872 1839 0
-1266 188 0
3026 -3111 0
-1854 2269 0
-2796 -1632 0
23 -38 0
273 -3159 0
3225 2925 0
1707 -2521 0
-2608 -1703 0
-2784 2829 0
-2860 2600 0
-2383 2761 0
-2315 -1944 0
249 -1549 0
-1816 2282 0
3497 1396 0
2752 3396 0
1846 2610 0
2118 -1435 0
-3103 1074 0
478 -3519 0
-1915 -2236 0
3514 -3433 0
1308 1728 0
-938 1723 0
-1857 1162 0
1409 534 0
-2594 1935 0
-354 -3896 0
3728 -547 0
1346 -1381 0
-3760 2645 0
-2392 2311 0
2240 2171 0
-3716 2805 0
-16 1354 0
2463 -1746 0
3560 351 0
2946 2565 0
567 2493 0
-2294 -1192 0
-1443 1656 0
-3829 2485 0
2580 -746 0
1671 2321 0
-2134 -1599 0
1122 399 0
-3146 3502 0
1828 671 0
-446 -2852 0
2432 2246 0
797 -921 0
485 1685 0
3276 2680 0
2743 1071 0
-3876 -928 0
-1952 2475 0
1347 1196 0
-2994 -452 0
-3024 -329 0
448 -3649 0
1433 1772 0
-941 889 0
-272 -1563 0
3281 211 0
-3769 -2036 0
697 -2334 0
-3028 -2380 0
2912 -3896 0
-1628 264 0
137 -1149 0
-1573 456 0
1898 -3251 0
552 2654 0
-2324 -1430 0
871 -2586 0
2944 3085 0
-2426 3197 0
1924 1419 0
-2137 -877 0
2690 557 0
2263 -1812 0
-2829 3594 0
1020 -2379 0
-3861 -2438 0
-1860 -3469 0
-3494 90 0
1034 -578 0
-3383 2559 0
-1041 3376 0
-2374 3791 0
-736 -492 0
-1907 -2087 0
-1223 3351 0
1486 -1516 0
-1252 -985 0
-3173 -821 0
-3436 3093 0
-2703 -540 0
2362 -544 0
-3774 718 0
690 -654 0
3460 393 0
-413 1340 0
-1496 457 0
-953 3152 0
1970 -3827 0
-1714 886 0
2417 -2264 0
-3194 -953 0
-3871 -1724 0
2234 655 0
-1198 3651 0
-2975 3458 0
1548 -3106 0
349 137 0
2963 29 0
-127 294 0
-1634 896 0
3437 2186 0
3659 231 0
1692 884 0
-3178 3848 0
-2763 -2552 0
-2554 3228 0
-742 1765 0
-951 -979 0
-3431 -2078 0
246 704 0
-2616 -344 0
2508 1173 0
-2752 1791 0
264 1539 0
-645 -2556 0
-2546 80 0
-1569 1584 0
-1930 1961 0
-2749 2156 0
-3630 3098 0
-1682 -578 0
-837 -1395 0
1987 -3669 0
987 1477 0
-343 -929 0
-3618 -2569 0
-2586 1078 0
-521 -2727 0
15 -66 0
3331 -2346 0
2649 -3120 0
-2403 134 0
2138 3102 0
-1256 3324 0
-576 -3006 0
-1124 1129 0
-987 -2434 0
22 -3523 0
3641 1825 0
-3044 3596 0
-1217 617 0
300 1237 0
201 -1256 0
1520 571 0
899 3605 0
3291 -1909 0
-3184 -2920 0
-1128 2980 0
1996 54 0
-2641 -4 0
-2474 -2651 0
2883 -2343 0
1704 517 0
2680 -564 0
-262 1626 0
1279 -3310 0
3620 1184 0
3115 -3418 0
764 -3179 0
1909 -2879 0
3025 2179 0
-2131 -137 0
1799 -331 0
-2943 687 0
408 -2990 0
-1537 742 0
-1053 -1534 0
2435 2155 0
768 -2087 0
-308 1991 0
1771 142 0
-2585 1045 0
-480 -1612 0
1719 -626 0
-2847 3493 0
-3336 -1897 0
-1734 3562 0
2367 -353 0
-225 -2844 0
-1868 787 0
1457 3087 0
-2803 -432 0
3113 -1914 0
1302 3157 0
1826 1541 0
3575 -1116 0
-1215 -2611 0
2179 -3117 0
777 -1859 0
-1868 3777 0
-1428 -3850 0
-742 -2177 0
411 497 0
-203 2101 0
-3183 188 0
1297 1106 0
1986 2445 0
-3318 1090 0
2272 -1724 0
-662 100 0
2228 -2042 0
-2836 -1815 0
3397 -2852 0
1125 -732 0
-3111 3040 0
3702 -3117 0
-1231 154 0
2537 1130 0
-3733 -2330 0
683 3617 0
-1577 3419 0
-531 -2072 0
1206 2192 0
1088 -900 0
2927 543 0
2119 1366 0
1308 -3076 0
-2919 1256 0
2341 1998 0
3445 -3696 0
-3613 246 0
2592 1812 0
-801 3555 0
-2209 216 0
3276 50 0
-87 180 0
-510 1063 0
-458 -1823 0
-2478 -3696 0
-1999 -3230 0
1771 -2012 0
3333 -3370 0
-1869 2523 0
-3546 2469 0
3020 187 0
-3477 -1385 0
-2569 -3488 0
2498 -2517 0
-298 -3819 0
3742 2007 0
2266 275 0
-531 3793 0
3850 -2851 0
2743 -1524 0
-3890 -2885 0
2146 2360 0
-2327 2897 0
-2214 -3606 0
1237 1312 0
659 -3220 0
114 1601 0
446 1674 0
-433 3640 0
584 -232 0
-2940 -3078 0
-3605 721 0
109 -3388 0
947 -2026 0
2098 -3804 0
-633 2640 0
3889 3149 0
1103 -3106 0
1565 718 0
392 2255 0
592 -361 0
-1363 -3026 0
2160 721 0
-3205 2952 0
-3185 -1613 0
-1679 -772 0
31 -2857 0
-3607 -452 0
3716 1748 0
-2241 3336 0
-1902 2672 0
1473 -1483 0
-1496 -314 0
3334 1833 0
884 1770 0
761 2615 0
1251 -2505 0
-500 726 0
1437 3357 0
934 53 0
3317 -3756 0
2328 2410 0
-2741 1861 0
3858 681 0
-2012 3285 0
751 -2426 0
-3481 -1631 0
-858 3369 0
-2307 -2159 0
-3873 2265 0
1133 -1221 0
2231 3734 0
1946 -3221 0
-2365 -888 0
-2405 1332 0
-2382 -130 0
2007 3426 0
-2920 626 0
-1887 556 0
-3738 1719 0
3404 1833 0
-448 -1182 0
1068 2391 0
3645 283 0
-146 -2137 0
-2209 1001 0
1153 3682 0
-2109 2545 0
-2411 2234 0
-3151 -1544 0
2021 2575 0
3630 -477 0
-1822 -2274 0
1925 -511 0
292 1601 0
2802 -655 0
1387 800 0
3550 3544 0
-2288 1040 0
-1343 -2025 0
2403 -2945 0
-2383 3383 0
2322 -3517 0
1791 -185 0
-1463 -2593 0
-676 -576 0
-617 -1931 0
-2386 -2643 0
1364 -3350 0
-2205 -1838 0
3011 3542 0
-3607 45 0
-1430 351 0
183 1833 0
-2568 -758 0
3117 958 0
3252 -1949 0
-1245 2668 0
1730 -1831 0
3231 -470 0
1366 999 0
351 2236 0
2271 597 0
1249 -183 0
-3451 3010 0
-2184 -3839 0
8 -2871 0
-3872 -928 0
2458 1277 0
2782 -1036 0
2794 -2964 0
-2219 2017 0
3866 -1860 0
3756 2442 0
1992 -2255 0
3656 331 0
3488 2198 0
-750 -1650 0
-2679 -1158 0
207 450 0
2045 3416 0
2913 1873 0
2528 3547 0
-1867 -3352 0
-1700 3290 0
-1757 1047 0
182 -2088 0
-211 876 0
2054 -2660 0
-2679 -2101 0
540 3183 0
-2531 -3047 0
1362 -3782 0
-1076 3004 0
-191 -3295 0
-3208 -281 0
-577 3607 0
809 504 0
-2069 -1819 0
-2047 1480 0
377 3228 0
-1916 268 0
-1478 -2334 0
-2001 659 0
-3448 -3733 0
3797 1085 0
-3018 2333 0
-1049 -1641 0
-1588 -508 0
-2148 2592 0
-3889 -601 0
2168 1736 0
690 -3638 0
668 -205 0
-84 3491 0
2398 2893 0
-1468 -1139 0
-1470 2369 0
1161 -2287 0
-1529 1292 0
-586 -2620 0
-961 -3882 0
-3469 -1128 0
-3096 -1528 0
3116 2595 0
-2330 2565 0
854 -3654 0
3827 -3801 0
-623 -2562 0
381 -1875 0
3427 -792 0
-112 -2996 0
529 2380 0
515 -1696 0
-2636 3713 0
-1618 3294 0
-2392 1357 0
-2012 988 0
79 -2687 0
1052 2595 0
-2004 -1971 0
2863 3677 0
3077 -3559 0
1366 -2768 0
-3657 -3648 0
1035 -755 0
787 -2730 0
3373 3491 0
1921 241 0
455 -635 0
-1874 967 0
882 -792 0
-152 -1473 0
-38 -1494 0
2979 2193 0
-1769 -220 0
53 -3091 0
172 1517 0
3828 -3279 0
1727 3363 0
-3345 -924 0
-833 1289 0
2750 -3104 0
512 -852 0
1898 144 0
2782 1395 0
-1705 -509 0
3717 2855 0
-2151 441 0
1114 -615 0
1111 -3591 0
-1486 1075 0
1367 -2463 0
-990 -1929 0
1397 1096 0
-2852 -2957 0
-1706 2890 0
-703 2470 0
-1461 -3282 0
2075 2901 0
-1326 -2288 0
517 -1423 0
-1245 -2090 0
-68 -148 0
2205 -435 0
-2112 796 0
-1402 432 0
-2216 -3559 0
2093 1457 0
2750 -47 0
375 -6 0
3395 -289 0
1064 3566 0
1773 -833 0
-2669 704 0
-2804 3741 0
3270 1882 0
-423 651 0
1289 -747 0
-2256 890 0
3002 -2062 0
3182 1106 0
3327 584 0
1709 135 0
3575 1014 0
-3732 -2155 0
-2518 -2620 0
-2836 1899 0
1033 -1137 0
-1773 -3638 0
-2125 2425 0
2950 -3856 0
-192 134 0
1346 558 0
3118 840 0
-1968 -833 0
-1664 137 0
2630 570 0
2538 2602 0
-2509 -2192 0
3186 851 0
3637 149 0
3347 616 0
-2964 1359 0
-2938 3067 0
-3375 -3616 0
1908 2873 0
2841 -631 0
167 1459 0
-2297 2572 0
1147 1741 0
2830 2534 0
3713 -3202 0
3079 -2792 0
-2088 2991 0
268 -2050 0
1695 -409 0
-3563 1635 0
2334 -1016 0
-1162 1485 0
3859 -3392 0
2046 2304 0
-3603 2462 0
2592 3129 0
-2938 3434 0
3472 138 0
-14 810 0
1611 3016 0
1221 486 0
1161 1459 0
2664 -1232 0
-783 2342 0
2489 3417 0
-2366 -1957 0
-3621 -1941 0
-725 768 0
-1105 3109 0
-2738 -2920 0
-2196 -1871 0
415 1796 0
3414 679 0
1624 -3513 0
-971 580 0
848 -275 0
3480 -2079 0
-1187 3011 0
-3025 2785 0
-2832 -2358 0
3189 2006 0
3235 1837 0
-2022 -2113 0
-2189 3225 0
-1678 -2451 0
1268 -450 0
-3699 3142 0
1308 -711 0
1307 3755 0
-3260 3074 0
-2780 629 0
-2958 -3322 0
-561 -2581 0
-3371 -1980 0
-2540 -2074 0
2374 130 0
-2826 3185 0
-229 -3888 0
-19 -283 0
-2509 -2892 0
-2450 -917 0
-3621 -1082 0
2563 2554 0
-2120 -1900 0
29 515 0
1648 555 0
1115 1962 0
-2962 -559 0
-1867 3140 0
-2786 469 0
-2502 -2278 0
-1749 3566 0
595 -26 0
-1962 -2004 0
-2183 -1287 0
-825 2 0
39 -3068 0
-966 3512 0
872 1617 0
-2568 968 0
-3348 -3530 0
360 -1704 0
-2167 -3060 0
-1872 1883 0
-2538 873 0
2433 -140 0
-3798 -1268 0
346 1742 0
-910 -1559 0
-3198 -3730 0
2965 -1846 0
-1131 -3494 0
-1636 858 0
1556 -2767 0
1609 617 0
488 -3146 0
-3152 1079 0
2982 1667 0
-3088 -3005 0
195 1534 0
3040 -2693 0
-2051 -3809 0
-3094 481 0
1951 3885 0
2798 1602 0
2950 1543 0
571 2591 0
-2182 2420 0
-752 -2672 0
-1808 2288 0
-3424 -1964 0
2690 3197 0
-2434 -3232 0
153 44 0
-252 -77 0
-3176 2282 0
3828 3690 0
-3766 -3200 0
-84 52 0
1710 2230 0
413 2709 0
-988 2285 0
1208 3125 0
482 2358 0
-2191 -795 0
-2727 -427 0
3885 -1902 0
2819 -1482 0
-958 -2758 0
-3790 -2302 0
-79 1035 0
2977 1469 0
625 -432 0
-419 -236 0
3022 -1593 0
-742 -406 0
1177 -2653 0
242 -3321 0
-186 732 0
602 -3316 0
2458 -2758 0
-823 -326 0
2755 2674 0
-2599 -1070 0
320 346 0
-2968 2863 0
1472 -2369 0
-3221 -3802 0
1868 2342 0
-1768 1711 0
941 -404 0
-3831 3832 0
-1512 -2643 0
-2780 3385 0
-976 607 0
503 3867 0
2170 -3145 0
263 -2010 0
-1315 1370 0
-3222 -3108 0
3532 -201 0
-2343 1707 0
-2343 -1141 0
1466 -2697 0
1476 -728 0
-3190 2122 0
3874 -505 0
-203 352 0
3036 3708 0
2519 -3660 0
-731 1600 0
-2457 -1995 0
1683 2735 0
2417 1214 0
1474 -230 0
-204 3719 0
-1957 -935 0
-2822 -1025 0
135 -2728 0
-3219 460 0
-3147 1973 0
2599 3037 0
1846 1996 0
-2670 -1798 0
3574 2492 0
3102 -2177 0
2505 2622 0
1772 -2127 0
-1070 2505 0
522 -2640 0
2216 316 0
-733 1241 0
-3783 1877 0
3281 -867 0
-2727 1219 0
3889 -3632 0
3359 3102 0
-276 -2901 0
2827 920 0
713 -3217 0
-3451 -593 0
-1614 2194 0
3160 -2112 0
-3 1398 0
-1941 3218 0
-2796 -2915 0
-2157 3772 0
-2890 2364 0
3825 28 0
-1868 -1921 0
743 -3038 0
502 -2968 0
2869 -3310 0
-302 -3196 0
218 -2705 0
2137 240 0
-267 -616 0
3483 2209 0
2672 -578 0
-3764 -3084 0
1647 -1610 0
-2350 3336 0
-2540 -1670 0
3204 -731 0
3429 2902 0
3055 -435 0
-384 -2026 0
3780 -1767 0
1545 -3241 0
-428 -993 0
1965 2362 0
-378 3793 0
-3638 -1476 0
-667 1605 0
-2043 -405 0
1006 746 0
-2124 -8 0
2884 -973 0
699 -123 0
-2154 -1624 0
2263 -1706 0
2864 3016 0
1222 117 0
-1934 2262 0
2889 -2825 0
-2630 2583 0
-2219 -2796 0
2264 -1803 0
-546 -160 0
3014 3536 0
-1074 -2654 0
369 -788 0
2381 -2034 0
-279 -1530 0
-2617 1228 0
1513 2879 0
3792 111 0
-1733 -37 0
2809 1058 0
-2997 -1735 0
3087 -3843 0
2521 -3849 0
186 -1931 0
1645 916 0
2678 2530 0
85 -3603 0
2821 2905 0
873 7 0
-51 -1670 0
-3655 245 0
-1138 -498 0
-2771 240 0
3614 1413 0
2895 3876 0
2525 2091 0
1318 2615 0
-3462 -577 0
3691 1296 0
872 -1524 0
-991 -151 0
296 2789 0
-259 -2856 0
-2670 -2447 0
-2681 -2113 0
-1807 -2074 0
-2167 -1884 0
1664 -2582 0
2642 -741 0
2481 -1292 0
-2641 -1196 0
3822 2892 0
3218 -2045 0
-103 1092 0
3021 -3722 0
1762 704 0
-2199 -1648 0
1372 -692 0
6 -3150 0
-1958 1056 0
2724 2832 0
-1906 3093 0
-1440 3085 0
-1920 -3573 0
-3843 -2026 0
-1053 3002 0
-3058 3784 0
-2994 -1505 0
-3760 3641 0
112 515 0
645 3334 0
-3494 1667 0
-3518 3165 0
-509 -21 0
3548 2366 0
-1823 666 0
-993 805 0
-1473 -1128 0
353 -3322 0
83 1969 0
3240 3155 0
3881 -2369 0
-645 525 0
2711 2627 0
-2548 1966 0
2191 -3300 0
-152 2123 0
2462 2871 0
-1449 644 0
19 -702 0
-2542 1693 0
-3409 885 0
-2921 -1440 0
1395 -3003 0
-74 3456 0
714 -2420 0
-451 -1193 0
3536 -3666 0
-3162 -2294 0
375 -1571 0
-3777 363 0
-1585 -953 0
222 3506 0
-2706 -3071 0
-3387 -2945 0
2510 -3774 0
-2744 -466 0
-3396 -507 0
2697 1882 0
-412 3874 0
2423 -1906 0
-248 3885 0
2733 -2966 0
2114 242 0
1790 -654 0
-2087 3548 0
-721 925 0
1759 -1002 0
-2015 -1275 0
-3433 -1364 0
882 -3744 0
1675 29 0
-740 3671 0
2456 -3125 0
2737 -1723 0
-3550 1545 0
-2500 -1760 0
1168 755 0
-2423 2734 0
-2034 -1274 0
86 -1199 0
-184 2712 0
-1078 -3521 0
3299 -205 0
-493 1795 0
-2641 -2738 0
-1316 -43 0
3603 -2994 0
2362 -2502 0
-728 2943 0
-3709 3157 0
2333 726 0
-379 3882 0
-2893 2154 0
3782 -3136 0
3214 -1887 0
29 704 0
-1139 -3551 0
-3550 144 0
-89 3897 0
-1842 1150 0
3025 906 0
26 -1587 0
2997 292 0
-3576 218 0
-870 -778 0
-3885 3078 0
3719 -3655 0
2835 -2867 0
-2659 -2966 0
-728 -2112 0
3264 794 0
844 -1399 0
1105 -2225 0
-3468 -3023 0
648 1685 0
3021 -1794 0
3066 2527 0
-73 -670 0
-2489 996 0
117 -3688 0
-2102 394 0
848 -470 0
-1380 -3403 0
-784 1200 0
3596 1113 0
3543 974 0
1610 1357 0
1516 -2625 0
3646 3213 0
72 1379 0
1828 1035 0
-1446 -1418 0
3767 1998 0
-1659 -3548 0
235 -3613 0
2849 -3529 0
-92 -90 0
-3754 1006 0
2841 921 0
3145 -978 0
-1826 -731 0
-2905 -1348 0
1209 -623 0
-1900 3631 0
-529 -3187 0
2471 287 0
3653 3818 0
-2849 -1741 0
-210 2367 0
-1256 221 0
-1552 442 0
2201 3129 0
-1715 1965 0
314 171 0
2045 -102 0
3313 3857 0
2193 3006 0
291 -2586 0
2173 2376 0
2229 1878 0
-2841 1783 0
-707 -2621 0
-2852 -1129 0
-1767 -1745 0
-2614 352 0
-3099 1204 0
718 88 0
3673 -631 0
-2640 2810 0
1117 -1487 0
2945 299 0
-2499 -2777 0
-2877 3150 0
-1721 1247 0
-3896 3539 0
-2629 2977 0
1073 1340 0
-2877 -3821 0
-1850 1245 0
2731 -229 0
-2683 1905 0
-3261 -531 0
2981 2457 0
948 -3739 0
-1723 654 0
-716 3674 0
3721 -3406 0
-105 -565 0
-3721 432 0
3553 1962 0
2551 3258 0
-992 2555 0
-1787 -3264 0
2157 380 0
1396 2073 0
-1293 -309 0
-2105 -2011 0
1189 2628 0
3539 -3175 0
3506 -1415 0
1919 -671 0
1833 -1715 0
-1837 535 0
1263 -2677 0
-1568 -346 0
1664 624 0
2538 2798 0
-2252 486 0
3091 1597 0
-519 -1721 0
2459 -3865 0
-3733 -3632 0
-3893 -932 0
-261 2764 0
810 1885 0
1076 -3354 0
-3036 1845 0
-1200 30 0
2838 -1650 0
1056 -1235 0
1698 3160 0
2698 -681 0
-597 -2997 0
2250 -2918 0
-3649 -994 0
1699 -1886 0
144 85 0
-3597 1452 0
3109 -2383 0
3078 3603 0
-1673 -3764 0
730 -3851 0
-2649 -3478 0
-3883 -2063 0
-1858 798 0
1851 895 0
3430 1334 0
-547 -609 0
-488 1462 0
-1919 -2674 0
885 -665 0
177 -779 0
-2495 -3309 0
-1189 -3627 0
-1948 -1439 0
463 -3174 0
-1804 3592 0
-632 3237 0
3241 -865 0
-2192 -2504 0
-1871 506 0
252 678 0
-1944 2555 0
-1715 3881 0
2733 -2128 0
639 2066 0
-3714 -726 0
-756 2995 0
-1529 -2253 0
-1542 1117 0
3183 2725 0
-962 668 0
1251 3282 0
1256 3882 0
-2013 -2787 0
-2599 190 0
2764 3356 0
-3751 1134 0
-1376 -2262 0
-1961 -795 0
205 -1188 0
-1264 3192 0
-32 2558 0
-2177 3617 0
1670 2903 0
862 -1245 0
-477 1287 0
1932 -1871 0
-3323 -3836 0
-2112 -65 0
459 -31 0
-2132 244 0
-2495 3653 0
-1803 -1697 0
3615 2837 0
-2747 -848 0
606 -3424 0
1679 398 0
-2582 -2726 0
1970 3319 0
-2450 -436 0
591 -615 0
-832 2743 0
2140 3273 0
1556 2569 0
3574 972 0
-680 -1823 0
3890 3169 0
607 -2788 0
3078 2504 0
-762 -1649 0
-1675 3640 0
-3764 -2540 0
-1603 -2803 0
800 -1451 0
-1909 3693 0
925 2485 0
-3744 -2081 0
-2450 2186 0
3733 -1503 0
216 -2629 0
-2112 -1688 0
2313 98 0
-801 -1210 0
-2122 -2529 0
567 3179 0
-3634 3165 0
2798 -2824 0
2669 1713 0
3477 -293 0
-526 -3747 0
-1662 -3600 0
-503 -2236 0
2519 68 0
-257 -789 0
-1908 3755 0
1899 219 0
1003 594 0
1695 2998 0
-3589 1547 0
-1839 936 0
-1013 3104 0
2668 974 0
1131 588 0
-613 -1709 0
-2893 2804 0
2627 624 0
-3897 257 0
-767 -3042 0
-3752 -482 0
-450 -3383 0
3374 -1207 0
-3173 -1466 0
1819 1195 0
911 -3569 0
1106 -3594 0
-1115 2203 0
-1810 -2655 0
-3791 2257 0
-1943 -1658 0
737 -2696 0
17 214 0
238 -2384 0
-3892 3208 0
-3557 2656 0
1628 1140 0
-1285 -3603 0
1069 3590 0
-2095 2677 0
-3210 1820 0
628 1383 0
2706 -2866 0
-3029 -3169 0
2256 3003 0
-3893 -1416 0
3729 -3309 0
-3509 2401 0
-652 964 0
653 -1467 0
-2753 -1697 0
-3488 -2862 0
-3519 -3571 0
-1541 3832 0
-3676 3093 0
-2825 -2575 0
1506 2424 0
-2886 -2441 0
2802 1038 0
495 918 0
1583 2713 0
72 -3153 0
-572 3041 0
2930 -2621 0
890 139 0
-1187 -408 0
3304 -2200 0
2054 2904 0
2676 515 0
1690 -1306 0
-2557 1835 0
3250 -3118 0
-2877 1991 0
2336 -1563 0
2031 1577 0
-3513 -949 0
3127 1586 0
3192 3773 0
3168 -3130 0
1507 2387 0
-2776 917 0
-1769 -3862 0
185 1308 0
1601 1611 0
1890 -1069 0
19 -1734 0
-1207 3795 0
-454 -141 0
-2824 3180 0
-2676 881 0
-408 -3158 0
-2257 -1472 0
3494 -491 0
712 -2862 0
-1214 433 0
167 -366 0
1338 3579 0
-1923 3698 0
3826 2612 0
-1147 2870 0
-3532 -615 0
-2099 -3441 0
-2279 -732 0
2548 -2758 0
-3212 -1779 0
-1216 3731 0
3599 800 0
2095 -772 0
3696 -3583 0
-161 -1193 0
-659 3252 0
-493 -420 0
2943 571 0
-3052 -792 0
-3108 -1848 0
-43 690 0
3257 2347 0
464 2768 0
1944 -3137 0
-1959 56 0
-2409 1424 0
2170 -1873 0
3573 -158 0
-1668 355 0
-3829 883 0
3018 -2011 0
-2390 -2104 0
860 -2682 0
1126 -209 0
-605 2612 0
5 2138 0
3239 -2625 0
-1374 2026 0
1394 -645 0
-2413 3102 0
2958 2661 0
1339 3145 0
1120 -560 0
3188 2726 0
2485 -2323 0
-393 -961 0
-1962 3243 0
-1651 2162 0
917 -1564 0
-2916 -224 0
-1176 2963 0
-3758 831 0
-36 -3312 0
-3851 1545 0
-1694 3304 0
-1159 138 0
-360 -643 0
-3186 -3090 0
-1856 2391 0
1217 -3103 0
3620 -3669 0
2770 1178 0
540 -3749 0
655 1955 0
-2620 1972 0
-3580 1626 0
3822 -1612 0
1626 -579 0
957 -1984 0
1292 -3064 0
-2633 -2273 0
1425 430 0
-490 -1134 0
-2848 -1032 0
2734 1848 0
-3826 -1727 0
-702 3409 0
85 -1512 0
-2433 2480 0
1298 2859 0
-3582 -3362 0
783 2925 0
2361 96 0
-2706 -920 0
-2688 -3807 0
-3785 -500 0
1840 -2373 0
76 3075 0
-2635 509 0
3324 2693 0
115 -2606 0
-169 1797 0
1257 -200 0
3547 1813 0
-3091 -183 0
1889 2283 0
2309 3858 0
27 -2816 0
2278 -1961 0
3263 -911 0
1034 3419 0
-2455 -3783 0
3614 -3387 0
-603 -1010 0
-1294 1035 0
-2158 3219 0
-1084 -267 0
-558 738 0
2090 3235 0
1937 -3853 0
-1694 3663 0
-2344 -719 0
-3891 -2382 0
452 -791 0
-1258 1545 0
506 -1975 0
1783 3078 0
-2930 2998 0
1836 -1961 0
1521 2398 0
1351 1873 0
3408 -3791 0
-2620 -1277 0
1778 -1815 0
1867 829 0
2659 -161 0
-3557 1796 0
2456 -3513 0
605 1046 0
-1729 1301 0
-3392 -1461 0
-3471 3105 0
-198 3336 0
2872 3461 0
-748 2364 0
1694 1240 0
-2188 -2559 0
1532 -496 0
3715 -2337 0
3711 2856 0
-3330 1241 0
1379 175 0
2201 1388 0
-774 -3653 0
967 -2403 0
-2022 -2766 0
2708 -2726 0
-2007 -3 0
1488 125 0
1685 2070 0
-746 3339 0
234 3499 0
-2215 2404 0
3001 -1218 0
3042 -385 0
3319 -1014 0
2843 -3651 0
3677 -830 0
-2719 3258 0
-3740 -3241 0
-2327 251 0
1407 1234 0
1852 -321 0
1152 -773 0
-1028 1052 0
-1410 52 0
2528 3031 0
1897 -3377 0
494 2624 0
-1854 922 0
3234 -3594 0
-453 2468 0
2680 -2197 0
3151 2242 0
769 -234 0
-3537 1705 0
-2743 -3893 0
-3559 3087 0
-2203 -507 0
-423 -947 0
1128 -1175 0
-1926 306 0
-393 3817 0
1973 2014 0
-3321 3278 0
2082 -2732 0
-2618 -3852 0
-395 -1779 0
2321 175 0
-3264 3142 0
-2331 42 0
1640 3855 0
3373 3109 0
-848 2152 0
-1416 1939 0
-274 -3280 0
838 -3562 0
-3849 2607 0
3153 -2127 0
3785 -3592 0
-2128 -846 0
2706 -2208 0
-3288 988 0
96 3276 0
1170 -3343 0
2756 1133 0
3883 -2973 0
-655 -832 0
3836 -1593 0
-3765 2951 0
-285 -3813 0
-3340 2809 0
1680 -1225 0
-631 3143 0
-2416 -3427 0
3893 2241 0
-2869 846 0
-203 502 0
2206 2839 0
1478 -171 0
2595 -3012 0
-2348 -3475 0
-1994 1347 0
635 3399 0
2240 2950 0
-1720 -2337 0
2143 -524 0
-549 -2546 0
97 -2676 0
21 3734 0
2183 -942 0
-2504 1843 0
1991 -785 0
1315 -1348 0
1908 -3799 0
286 358 0
-2932 1189 0
2270 -3778 0
691 -2357 0
3352 2963 0
2309 -1343 0
1898 -41 0
-2162 -2867 0
3684 2597 0
56 2222 0
1204 417 0
-3740 3804 0
-163 1037 0
3411 -1290 0
1511 -2939 0
-3308 2136 0
2217 3500 0
2635 -19 0
-1830 128 0
1422 2265 0
3189 -3024 0
644 1060 0
820 -558 0
-591 674 0
3127 3240 0
349 -857 0
328 -2848 0
234 -3705 0
560 1395 0
-3515 -311 0
2591 -2391 0
1846 -1086 0
-2894 -992 0
-3328 2464 0
-2384 1184 0
-2474 860 0
3788 1357 0
-3652 -278 0
3852 2733 0
-1484 -3699 0
291 1727 0
1632 -378 0
2309 -2288 0
-658 -1017 0
668 530 0
2980 -2752 0
1331 343 0
-1365 -1763 0
-230 3121 0
1729 -1492 0
-745 775 0
990 -1768 0
1246 1095 0
892 3896 0
1377 -1612 0
1524 2531 0
-1795 2634 0
-481 186 0
2525 -2005 0
3310 3286 0
737 -2773 0
-1121 -3578 0
1120 -2590 0
2035 -1855 0
-404 785 0
60 3040 0
-2957 -329 0
-294 1014 0
1450 123 0
-2243 1914 0
-1361 -2401 0
-692 -783 0
-1137 -2846 0
1154 182 0
-3639 -649 0
-986 2349 0
887 -416 0
3872 -3329 0
150 1813 0
3572 -736 0
-2492 -2195 0
-472 -1493 0
-205 2855 0
-596 -46 0
-2078 -19 0
-1136 -2059 0
2998 -203 0
554 3875 0
-2401 697 0
-498 2539 0
3169 2333 0
-607 -587 0
-2857 -288 0
-3644 -2827 0
2158 -3325 0
-1166 -2670 0
3872 -3743 0
-3131 377 0
3249 -900 0
-1485 1161 0
-2882 3484 0
930 -2945 0
3339 2260 0
1509 3782 0
-1771 -129 0
-3306 -3519 0
-1396 -1518 0
-1876 -3311 0
2268 -2632 0
3878 373 0
101 3847 0
-2110 -580 0
1745 2228 0
1748 3061 0
3687 1263 0
-2721 2367 0
-2655 -2774 0
-2211 2135 0
3447 -1961 0
450 2992 0
3610 2422 0
-2225 3055 0
-2448 2664 0
-265 1692 0
2212 -2493 0
2820 2525 0
-2209 987 0
3157 -773 0
-2814 2795 0
-2467 2183 0
-1528 -3655 0
447 2650 0
-2111 -960 0
2190 -2018 0
3701 -2355 0
827 -1739 0
-2526 2572 0
3841 -33 0
-2211 2296 0
-2125 2710 0
753 2859 0
3588 -1734 0
-3351 2760 0
-748 3572 0
431 2127 0
-129 -1343 0
382 2306 0
-731 -3121 0
-2962 -860 0
3175 -252 0
-468 3847 0
3230 1888 0
2738 135 0
3604 -731 0
-1798 -1853 0
1260 2779 0
-3106 -1533 0
-2014 -725 0
2580 2806 0
-3232 777 0
-3111 2142 0
-846 3075 0
-2728 -2118 0
3052 2366 0
-3267 3677 0
2041 -991 0
3787 3009 0
-915 -445 0
248 -2670 0
996 1743 0
186 590 0
-1732 -3120 0
374 1301 0
1736 52 0
1756 2872 0
-3339 603 0
1677 -90 0
2875 -905 0
3640 -97 0
147 -3619 0
153 3268 0
-544 -2535 0
-2526 -2511 0
930 -97 0
1602 -2451 0
1851 -2932 0
-1201 -2297 0
-2502 -416 0
-915 3115 0
52 -358 0
-166 1347 0
-2953 3082 0
1449 2155 0
1401 2020 0
-3859 -2462 0
-1661 2780 0
-61 2750 0
-893 -2337 0
-3124 -480 0
-2676 -301 0
348 -3545 0
-507 1887 0
-2753 2615 0
-2423 -441 0
1341 2946 0
-3887 -179 0
943 3826 0
-570 2032 0
890 1472 0
-1624 3091 0
3422 -3700 0
850 -771 0
1551 -3676 0
-3312 2071 0
-352 3234 0
-3583 -248 0
2794 1477 0
-2774 -3789 0
-3295 -624 0
3766 3808 0
-3521 1543 0
1255 1657 0
-2908 106 0
3107 104 0
2991 -1916 0
2880 -1215 0
-2426 -3106 0
2624 1172 0
-1844 -3214 0
-2860 1961 0
-3794 -271 0
3142 -3179 0
-3259 -3736 0
-2262 1260 0
-770 464 0
-3730 583 0
-2024 -2656 0
2155 2405 0
-504 -2514 0
-1032 -1781 0
3670 -1535 0
1408 954 0
2771 560 0
-747 -531 0
-1429 -368 0
1455 797 0
3883 1742 0
3016 -2228 0
2989 -1518 0
-1648 -1304 0
-2382 1112 0
1873 -1065 0
1366 3563 0
-1281 804 0
2678 1580 0
-1860 2923 0
3129 58 0
-2385 2912 0
-374 3637 0
2364 3729 0
-3795 -3277 0
2239 -3817 0
2896 2249 0
-3383 -2849 0
-3839 -3544 0
-2233 -2773 0
2395 -2009 0
2229 -1562 0
2234 -2014 0
-1423 1023 0
-3264 -2359 0
1616 655 0
1119 -1943 0
766 812 0
-3661 3729 0
-3221 -735 0
1437 -1041 0
-2887 2515 0
-2692 -1287 0
741 -270 0
3359 3396 0
3869 -840 0
-2568 -1566 0
1686 -829 0
683 129 0
-2338 223 0
3221 -2215 0
-2145 873 0
-986 -177 0
-2142 -2584 0
1317 -2762 0
-3598 -22 0
-1724 -204 0
1314 -2999 0
-1943 -2127 0
-36 -391 0
844 1596 0
-2281 1196 0
-124 2497 0
3286 -3181 0
-607 -123 0
1803 -86 0
-1552 2868 0
-969 53 0
2890 907 0
1785 -3712 0
1190 2573 0
-663 3786 0
-709 -1071 0
2721 2245 0
-3844 2703 0
-2788 -3769 0
-1183 3290 0
2829 -1752 0
275 2062 0
72 -3546 0
3262 1228 0
-437 1066 0
3362 2046 0
-3196 -1289 0
2023 -2833 0
281 -1284 0
2425 -2206 0
-901 -2600 0
886 1184 0
-1972 2902 0
-2591 657 0
-740 -14 0
683 -3852 0
-1798 -2451 0
-3826 177 0
-3254 2078 0
-134 -1139 0
-1348 -1577 0
39 -3592 0
-74 -3182 0
2865 1293 0
3282 700 0
-1359 -2109 0
2712 -3891 0
141 1173 0
1473 -1578 0
-261 55 0
-3421 2208 0
3282 -1047 0
-740 51 0
3395 -1359 0
-1244 -1210 0
-2716 2627 0
3285 -587 0
60 -41 0
319 201 0
-2239 -2888 0
-1420 943 0
882 2083 0
1935 2274 0
-2840 -995 0
-1517 849 0
-2031 1280 0
320 3166 0
3708 -3270 0
3264 -1693 0
55 -169 0
-464 695 0
-196 541 0
-752 2046 0
1924 -2349 0
-2230 -621 0
3285 -2672 0
-1879 3085 0
1419 1330 0
742 -536 0
140 -1877 0
367 2836 0
661 -2878 0
2478 740 0
-3287 2521 0
436 3746 0
2385 2798 0
-1093 -3887 0
3671 405 0
2539 -124 0
-232 3854 0
1563 -1596 0
1148 2681 0
-349 -2104 0
3579 2724 0
-3549 -3456 0
-2565 1685 0
2027 -3606 0
-2028 1400 0
2645 -1943 0
-1065 -632 0
3543 697 0
2389 -500 0
367 -1684 0
-2383 -1530 0
-3696 -1621 0
3647 -1517 0
3759 1681 0
-3462 3792 0
-2295 108 0
3554 -3819 0
-2120 1300 0
-3350 845 0
1363 -3481 0
-2295 3731 0
-2633 -1569 0
-1638 -3484 0
-2112 -3718 0
56 1736 0
42 3116 0
15 -3768 0
18 2185 0
-1455 -894 0
380 -1878 0
-459 2217 0
3363 -2513 0
1795 -3371 0
1711 -2889 0
1983 3143 0
567 3761 0
1224 1960 0
-2418 1645 0
215 140 0
2122 -2424 0
-1118 3822 0
-3167 -3089 0
-2310 -2219 0
2722 3747 0
538 1349 0
590 -3317 0
-404 217 0
1852 -631 0
-1304 -207 0
-2560 -1861 0
-2268 1594 0
2236 -2676 0
2054 2734 0
3029 -3301 0
-2881 -244 0
1864 2484 0
894 -814 0
2991 1234 0
-895 -1645 0
212 -3577 0
2364 3251 0
-983 575 0
1169 766 0
595 851 0
1557 -2060 0
-3643 617 0
-2118 2642 0
-2013 2805 0
-3771 -382 0
1822 3814 0
-2455 1373 0
3144 -226 0
-3162 -207 0
2643 3416 0
3814 -3052 0
-3800 2958 0
510 3579 0
3468 -1621 0
2812 217 0
3504 1551 0
-1971 -636 0
1217 2576 0
22 3461 0
2282 -920 0
1147 -3254 0
-3594 570 0
-1070 2659 0
96 -751 0
-1912 -2168 0
-3203 -2276 0
-1937 32 0
2936 -821 0
1407 1466 0
3290 -3760 0
3617 3879 0
-2148 2885 0
-398 2228 0
-213 52 0
1103 2699 0
1095 1860 0
1035 -689 0
3565 -2729 0
-3443 -1357 0
231 2819 0
1682 -267 0
-833 812 0
-3512 -1127 0
-2149 1105 0
2807 -215 0
-305 2236 0
-405 -2895 0
2327 -2 0
-2291 2451 0
-3870 3431 0
-304 -2999 0
698 957 0
-3 -1322 0
-2604 -428 0
-14 2259 0
3090 3736 0
655 2353 0
3114 -362 0
-2379 -2975 0
-2990 813 0
-600 -749 0
2539 -3179 0
3128 -2802 0
-2762 -1892 0
-2492 3504 0
-2834 -2183 0
-2502 -5 0
-2618 831 0
-1638 -3597 0
730 -3896 0
-1244 3386 0
2176 -448 0
3612 -2529 0
254 1291 0
3286 -2557 0
927 -933 0
2785 3064 0
-662 -3334 0
-365 3156 0
2648 -578 0
2488 2623 0
-1434 -3123 0
2704 2136 0
445 1140 0
148 257 0
2217 -2455 0
2100 -1368 0
1177 -1159 0
-733 338 0
-2679 -3485 0
-225 -308 0
-2392 1004 0
-3334 -1512 0
-709 -2096 0
3745 -1655 0
-1685 -1145 0
3476 1333 0
3290 -566 0
-1065 2320 0
2665 -1576 0
3249 3016 0
-3312 1180 0
2176 3675 0
-1408 3473 0
-1793 -1734 0
2766 -1403 0
207 -1212 0
-3566 -672 0
-1258 -3825 0
-2874 746 0
1549 2305 0
-309 -2824 0
-2077 -3058 0
2868 -3623 0
1828 -408 0
3348 1226 0
941 3821 0
-326 -1095 0
-3645 3869 0
-63 -965 0
-3572 1933 0
2339 745 0
-2447 3112 0
3473 -1145 0
-787 -656 0
-2102 -819 0
3049 -1588 0
361 -239 0
116 -2246 0
-3203 -663 0
-1365 1361 0
-1379 2085 0
459 3263 0
931 2580 0
-1251 -1201 0
-1846 822 0
-2486 -2553 0
-2262 2865 0
3418 -197 0
-2254 2045 0
3415 -3669 0
423 1688 0
-180 -1325 0
-343 3780 0
-521 -728 0
-663 -2724 0
-3442 1382 0
2885 -811 0
2710 3349 0
1394 -3582 0
-3121 1582 0
1366 2646 0
-1422 -1602 0
389 3839 0
2193 3549 0
2193 3776 0
-2834 -3896 0
2802 3874 0
-1431 687 0
2535 3699 0
-2448 -1005 0
293 3355 0
2846 2883 0
1658 2117 0
-736 786 0
2177 -1372 0
-2927 -2032 0
1770 -1857 0
800 -3637 0
-1673 3115 0
1598 -601 0
-3032 2188 0
1955 -1831 0
-2762 1903 0
2020 -1785 0
3616 1794 0
2175 3855 0
2519 280 0
3884 -566 0
-558 -1130 0
2757 -2657 0
-2196 -2893 0
-1410 2807 0
3604 2906 0
-507 2491 0
2783 -1070 0
-3147 -300 0
-3075 3365 0
-3576 807 0
-1039 -3477 0
-801 749 0
-3809 -2463 0
-2158 -2414 0
3256 1942 0
2477 -1849 0
2974 -1359 0
-558 452 0
-2307 -1129 0
467 -3893 0
-2774 53 0
-1276 2426 0
-2092 -1250 0
-2061 -3494 0
-1478 2709 0
-2673 -520 0
2935 -196 0
3664 -213 0
-2142 1869 0
-5 -1858 0
3637 1608 0
-280 49 0
-1782 -642 0
-1474 2926 0
-3045 -1973 0
2165 3238 0
1260 2234 0
-2626 3129 0
-2318 3853 0
2554 -3420 0
1914 2218 0
-1254 2454 0
-747 -181 0
1969 3189 0
-3159 2913 0
-2168 -432 0
1347 861 0
-3407 -3112 0
-50 -1988 0
3118 -2481 0
2306 1951 0
750 -2908 0
-1207 -558 0
-95 -458 0
-1712 -206 0
3341 948 0
149 3864 0
730 -2203 0
-1128 -3828 0
-13 3169 0
474 704 0
-1576 2341 0
2776 -3612 0
3061 -1390 0
1687 3163 0
-2817 702 0
3343 -2913 0
-2710 178 0
-793 2903 0
-700 708 0
2122 976 0
993 321 0
655 -3181 0
-3641 224 0
-160 -2908 0
1668 1264 0
-3768 978 0
-2142 1289 0
1408 1459 0
59 -1089 0
3845 -2762 0
674 -2588 0
-2288 1592 0
-3209 -3770 0
3737 1184 0
-1245 3417 0
-2094 -3432 0
1320 2689 0
-2202 -2492 0
-641 -56 0
2007 3632 0
-2463 -2919 0
-1863 1240 0
3712 1541 0
2800 1595 0
831 -866 0
2426 -581 0
2578 -3823 0
-1581 -1823 0
3102 2027 0
-1229 1862 0
1862 1346 0
-2610 955 0
2750 -1931 0
1226 -3015 0
269 1034 0
2929 1548 0
-1423 -423 0
-2705 -1668 0
-2372 -1887 0
-3501 -159 0
-1350 -2213 0
-3043 3363 0
1427 1995 0
3207 -2066 0
150 379 0
1006 -444 0
-2116 741 0
1973 2709 0
-191 2674 0
2348 282 0
1297 -551 0
-899 2296 0
701 3741 0
-2386 1548 0
3093 2605 0
1317 2069 0
-2725 -1445 0
78 2805 0
2083 -1637 0
-435 -533 0
-2233 -406 0
-2596 2364 0
45 3814 0
1153 -3706 0
-1934 -160 0
-2211 353 0
2822 -3023 0
-3092 -3792 0
2248 -1734 0
2122 3138 0
-1979 2264 0
-3471 -445 0
858 554 0
843 -1428 0
-902 -840 0
-1917 -3170 0
1055 -1374 0
795 -423 0
28 702 0
633 -926 0
478 2209 0
300 3307 0
-2051 -2112 0
-2154 -2064 0
-2492 796 0
-627 -1272 0
-2783 -3796 0
3334 -2581 0
-3150 268 0
3608 -3003 0
3449 2285 0
1120 -1830 0
1352 -933 0
-346 2883 0
-3377 -3683 0
2584 833 0
2912 -89 0
2155 -558 0
2597 1232 0
-1459 1883 0
3330 3141 0
2837 -3781 0
979 1861 0
798 -1855 0
1368 628 0
-588 -3443 0
-1760 -2589 0
-1009 3169 0
-1691 -3761 0
2539 1456 0
-1128 -2522 0
-689 -2228 0
-1834 405 0
-3039 -1519 0
-537 -3511 0
773 652 0
882 2766 0
-3130 -752 0
-1365 -161 0
138 -458 0
-2374 -1931 0
-716 -801 0
-861 -311 0
-826 3677 0
2782 -629 0
-1621 -2930 0
1105 -3511 0
-3879 -790 0
559 2047 0
2596 2321 0
-3870 -1154 0
1436 2629 0
2397 -3253 0
3292 1818 0
460 3037 0
-3761 1839 0
-1253 2436 0
-3083 -3762 0
-2595 -416 0
-975 -3120 0
2234 -3574 0
2315 -1316 0
1990 1372 0
753 -888 0
-1916 -108 0
1555 3757 0
-3896 3297 0
1927 -3296 0
2538 3625 0
2317 -3398 0
3555 3756 0
-1763 637 0
3494 -2188 0
3357 416 0
-421 -1693 0
2868 665 0
-859 -2640 0
-1698 3256 0
2085 -3491 0
-2820 1968 0
-3075 3860 0
312 -2995 0
2660 -3283 0
-1767 2268 0
-3037 -455 0
1623 340 0
1299 -565 0
-2125 -2695 0
201 883 0
3788 1444 0
-1616 -401 0
1486 -3520 0
1233 -2411 0
1730 2761 0
-4 1256 0
2068 -2994 0
-3608 2712 0
1859 -141 0
-914 2532 0
3861 2846 0
-2957 -1732 0
845 -226 0
3503 1280 0
2961 1551 0
2286 -2761 0
3575 3240 0
-2358 -3836 0
2433 -3778 0
-2763 2760 0
3615 -5 0
3151 2542 0
2262 376 0
-2484 851 0
2774 2518 0
-107 -2294 0
2837 -362 0
826 -3876 0
1073 2043 0
-1881 1034 0
-2735 -2130 0
2580 3135 0
-384 -757 0
-2288 3214 0
1907 -3893 0
2017 -3750 0
-2972 -1165 0
-2403 1465 0
-1303 91 0
3412 3880 0
-1374 -3783 0
3369 -3714 0
-3362 -1257 0
-2957 3335 0
-3563 -3126 0
3192 2471 0
-361 2998 0
-3103 -2553 0
-1376 -3831 0
-1717 -3753 0
1962 -2670 0
-596 2491 0
889 -1466 0
943 3738 0
1863 -893 0
3414 -2965 0
-2880 -1774 0
-3864 802 0
-2394 81 0
-824 -1918 0
-2645 2208 0
-1878 50 0
719 -2988 0
-1663 2104 0
-882 3409 0
3023 -635 0
3033 -2979 0
3845 -2982 0
1512 1933 0
-1601 3180 0
2517 2214 0
3535 3326 0
-675 -2729 0
-2369 -2839 0
-946 -3149 0
-3096 -1564 0
-3092 -3644 0
-2629 -2106 0
-929 926 0
1191 127 0
-3519 -1141 0
-413 -3530 0
-1462 1114 0
-973 3342 0
1281 -2740 0
2874 -40 0
-2496 551 0
984 2431 0
-1380 -1277 0
-2934 -800 0
240 2750 0
-3169 3816 0
2204 3104 0
751 1952 0
-1483 332 0
1105 -3098 0
1894 -2163 0
-645 -3355 0
27 2693 0
-3846 2055 0
-3662 -1701 0
2145 1003 0
425 -1287 0
-1763 -2754 0
1547 -860 0
2418 1205 0
19 897 0
-3282 2827 0
763 1049 0
2018 2238 0
-2440 -3366 0
1583 1718 0
2248 -328 0
2349 756 0
-742 -3740 0
3698 1358 0
-2524 -3229 0
-2801 -3047 0
1169 -2247 0
2195 600 0
30 -1149 0
-3582 210 0
3712 -87 0
-1336 -12 0
459 -905 0
724 -862 0
-3771 -3156 0
-3037 71 0
-3710 2535 0
1218 1590 0
-3092 2911 0
-3348 1096 0
1950 3137 0
2854 -3199 0
1499 1769 0
-2465 2966 0
637 -2255 0
1532 2748 0
-441 2759 0
-2928 1444 0
1291 1323 0
-1657 3841 0
799 508 0
-1004 1901 0
-3736 396 0
-1891 -1700 0
-2288 3026 0
-2686 -1284 0
1145 -2647 0
315 3574 0
2419 -1915 0
-1104 -1912 0
-1650 -3073 0
2888 -2700 0
-2853 2240 0
2507 -3801 0
-1725 -2283 0
-3732 -1059 0
1989 -1139 0
1789 139 0
-2753 2358 0
1297 -3350 0
1665 1590 0
486 -2560 0
-3159 -657 0
-1672 3246 0
3331 2332 0
-25 2380 0
3680 1349 0
-2685 -1989 0
-761 2607 0
-2513 537 0
2990 -1870 0
-2509 -1087 0
-966 -3502 0
2346 -3295 0
-3063 -1192 0
3772 -2990 0
2634 525 0
743 -686 0
-2990 -3650 0
1267 -2098 0
-3448 -119 0
2065 -1348 0
-805 -3406 0
939 327 0
-589 -3567 0
-2155 -2206 0
-2178 3251 0
3787 1778 0
-16 1908 0
2357 -1867 0
-1405 -2440 0
1438 215 0
-3856 -447 0
-1306 1973 0
3869 -3406 0
-3884 760 0
2499 546 0
3603 3815 0
-70 1377 0
-865 -1375 0
3863 -2096 0
-92 949 0
-844 1762 0
-3485 1206 0
3695 404 0
2598 -2045 0
-3397 3271 0
-2927 2701 0
-1051 -9 0
-508 583 0
-735 -858 0
2339 -594 0
-3720 -825 0
-1777 -469 0
-1189 2371 0
447 -3840 0
-2594 2525 0
2764 3349 0
431 3267 0
-914 -2213 0
-2816 -1126 0
2662 1970 0
-1854 2981 0
3580 -2729 0
-1537 2676 0
-3687 -2913 0
1074 -589 0
-1580 29 0
617 -2359 0
-3196 2280 0
697 -605 0
2776 2657 0
3026 2634 0
-3130 2615 0
-914 3757 0
2131 -435 0
3558 -2518 0
1597 2296 0
2723 -2973 0
231 3788 0
-262 2708 0
-635 1268 0
3697 -143 0
-1152 -324 0
1711 -3648 0
2352 -3267 0
-2776 3014 0
-3669 3303 0
-1267 2024 0
-3016 831 0
-3298 -976 0
2186 -655 0
2156 -2837 0
833 381 0
-503 -1529 0
1180 167 0
2587 1140 0
-2371 -3389 0
-2744 705 0
-2960 -3 0
-2148 844 0
3608 2626 0
2512 -537 0
2939 -105 0
-2993 2116 0
-2632 1935 0
-1566 1514 0
-3307 2875 0
3572 -54 0
-1829 2915 0
3182 -3489 0
-1145 1810 0
1701 -1431 0
2038 2026 0
260 3218 0
-1562 -338 0
3434 -3661 0
892 -3522 0
-450 1301 0
1400 -1990 0
78 -916 0
-3581 1096 0
-103 -1126 0
-235 189 0
-638 -1400 0
15 3419 0
-1777 3830 0
-1705 -3411 0
-2325 -599 0
-382 -512 0
3202 3418 0
3512 -176 0
-2864 3876 0
1946 1421 0
959 -2513 0
171 2469 0
1438 -2974 0
-2555 218 0
2812 -1550 0
188 2190 0
-1516 -3157 0
3596 3799 0
3252 252 0
-3335 -1650 0
3459 1158 0
3593 -3214 0
1310 2032 0
-3722 2032 0
-2120 -1753 0
371 3385 0
2793 1849 0
-500 -1574 0
3415 -329 0
431 721 0
-3266 -2471 0
-2732 -984 0
1701 543 0
2585 -58 0
-401 3191 0
2105 1402 0
-2738 2751 0
-2034 1191 0
-424 849 0
3006 -988 0
-1974 -1229 0
-3048 -912 0
-1330 675 0
2321 -1610 0
30 3656 0
-787 1794 0
2986 -1934 0
-958 -2636 0
2454 -1400 0
2339 -1607 0
1194 3882 0
-2091 2554 0
-3091 2253 0
-2078 -1512 0
3307 -2733 0
3009 51 0
1733 -3230 0
394 -2956 0
3644 1703 0
-1139 2863 0
654 1773 0
-2 -3216 0
-1574 -915 0
502 2313 0
1309 -1166 0
-1456 -936 0
-733 1223 0
-2512 -1016 0
3388 688 0
3788 2886 0
308 2885 0
2564 -1795 0
-3344 3349 0
-2922 291 0
668 -1292 0
2992 3677 0
3182 3106 0
1037 -392 0
-58 1144 0
607 726 0
-601 -1905 0
-1262 2805 0
-2129 -891 0
1534 504 0
-3377 1488 0
999 -1321 0
3840 -3526 0
1349 1762 0
-1781 3062 0
-2462 -2247 0
-1431 -3534 0
-2877 -1234 0
-1375 1522 0
-900 56 0
2410 1325 0
-1724 -2409 0
-2046 1017 0
