c bounds 43 43
p cnf 370 1147
177 -75 0
-336 -90 0
-183 131 0
206 292 0
216 197 0
14 340 0
314 347 0
197 -25 0
87 -25 0
288 -254 0
-45 -130 0
-330 221 0
170 -225 0
103 -300 0
-176 204 0
-95 -130 0
-37 -95 0
-222 -99 0
138 -84 0
-162 353 0
202 249 0
250 -226 0
44 -267 0
-294 -246 0
224 -303 0
-57 -346 0
49 -368 0
370 -365 0
-38 171 0
-345 -349 0
31 -19 0
158 107 0
18 -340 0
-88 -212 0
242 136 0
209 -250 0
215 365 0
86 -169 0
-146 -213 0
86 -345 0
-303 19 0
178 349 0
16 285 0
195 315 0
-288 210 0
72 -186 0
-359 58 0
-308 219 0
245 191 0
-149 28 0
-324 89 0
28 -265 0
6 -37 0
-174 -6 0
-171 316 0
201 279 0
274 -60 0
-43 240 0
230 161 0
-29 206 0
210 306 0
-309 -137 0
-29 -21 0
-298 47 0
265 213 0
19 329 0
-100 55 0
179 -40 0
-370 244 0
59 -146 0
294 251 0
-307 -84 0
283 -127 0
-224 -135 0
-3 56 0
327 -316 0
353 148 0
249 76 0
82 -192 0
-237 -78 0
-74 167 0
68 284 0
-344 358 0
-337 -168 0
-31 -12 0
89 273 0
-11 -176 0
-78 -232 0
226 213 0
59 -139 0
149 -100 0
48 243 0
-310 -154 0
284 -138 0
48 55 0
-106 188 0
-184 -367 0
242 -119 0
-177 -111 0
-344 363 0
273 18 0
-237 321 0
254 244 0
-270 -277 0
-46 -77 0
-270 40 0
-312 -28 0
290 318 0
184 105 0
-245 335 0
167 370 0
-132 364 0
243 -152 0
-19 -34 0
-2 -113 0
170 273 0
-148 44 0
-340 122 0
-118 51 0
323 -171 0
306 -362 0
328 21 0
-121 125 0
-57 -178 0
229 288 0
-356 18 0
39 -180 0
104 205 0
-193 81 0
183 321 0
370 238 0
-228 75 0
152 160 0
-92 121 0
-78 322 0
-334 -298 0
195 45 0
18 323 0
-343 192 0
34 -226 0
-262 219 0
-337 190 0
-192 335 0
332 235 0
-55 -78 0
-135 -69 0
247 160 0
-20 -271 0
-307 -344 0
-30 205 0
-33 -163 0
-273 140 0
3 -181 0
-330 -235 0
-254 -326 0
-181 355 0
-78 264 0
65 -352 0
-40 -357 0
-334 -126 0
321 -143 0
175 72 0
-212 -311 0
94 230 0
55 -113 0
-54 348 0
151 -47 0
33 290 0
-300 363 0
66 337 0
-304 -334 0
234 163 0
273 -80 0
229 162 0
274 30 0
-231 -144 0
-344 -319 0
-354 275 0
69 246 0
-197 -171 0
-220 256 0
-202 288 0
-71 321 0
7 -76 0
248 -181 0
85 -338 0
235 18 0
-2 219 0
-356 93 0
-2 -110 0
197 146 0
49 -176 0
-214 83 0
170 282 0
244 -303 0
259 -207 0
250 72 0
-147 -365 0
-58 -194 0
-262 230 0
-203 276 0
216 263 0
91 -113 0
140 -24 0
328 3 0
332 218 0
80 85 0
-280 179 0
55 -346 0
316 304 0
-117 240 0
213 15 0
116 -9 0
168 -258 0
197 -73 0
-10 -52 0
120 248 0
1 -209 0
363 -140 0
-211 214 0
-130 -292 0
-307 197 0
142 -235 0
153 217 0
346 -212 0
28 -92 0
105 79 0
37 314 0
92 -111 0
238 60 0
-151 97 0
159 -351 0
67 -214 0
-33 94 0
-238 -173 0
-108 -300 0
30 -197 0
-64 -276 0
296 -228 0
201 -238 0
-78 -45 0
-165 -199 0
-98 217 0
-309 4 0
-345 -83 0
71 -73 0
161 249 0
-359 -94 0
245 238 0
-24 195 0
154 106 0
-253 183 0
-311 181 0
-326 68 0
215 35 0
367 -16 0
-31 -328 0
-29 41 0
-181 -27 0
370 -160 0
216 -24 0
-305 -356 0
-64 329 0
154 348 0
-150 106 0
91 -254 0
-350 -214 0
363 296 0
-356 -15 0
-134 -156 0
80 -219 0
16 -160 0
49 283 0
21 -52 0
-59 -309 0
183 -145 0
335 -279 0
-349 85 0
-109 -362 0
-139 -150 0
-95 266 0
-290 191 0
-271 -112 0
-259 -171 0
-361 249 0
49 -203 0
4 181 0
-187 -350 0
-99 -15 0
350 26 0
281 -285 0
55 256 0
-39 68 0
117 341 0
225 -46 0
-107 220 0
16 -2 0
-194 90 0
-19 -70 0
76 32 0
188 -323 0
251 217 0
-102 120 0
-363 -280 0
205 -362 0
41 133 0
206 -80 0
-20 18 0
-302 257 0
-269 6 0
-37 114 0
165 -19 0
369 -300 0
274 -37 0
91 217 0
-269 182 0
79 240 0
144 160 0
-189 336 0
-75 -320 0
-210 163 0
-174 -319 0
-53 -89 0
-31 233 0
4 230 0
-297 353 0
-313 61 0
160 -191 0
-173 111 0
224 -146 0
-124 1 0
-22 -321 0
249 16 0
166 -52 0
-112 119 0
-334 -1 0
179 -103 0
-90 -91 0
-184 96 0
-265 96 0
-184 -169 0
257 343 0
-312 -325 0
91 -196 0
-177 255 0
-88 -144 0
-270 100 0
-173 359 0
190 -313 0
162 -59 0
-155 1 0
-36 -170 0
-231 -277 0
30 -86 0
243 82 0
-214 -129 0
-214 66 0
-322 235 0
-289 -356 0
34 126 0
79 -144 0
179 316 0
151 229 0
24 16 0
-64 248 0
-263 176 0
279 -298 0
-182 -301 0
50 230 0
230 -32 0
81 -313 0
-357 88 0
-311 -244 0
97 193 0
-77 55 0
69 158 0
-242 -136 0
60 281 0
-38 289 0
-188 -87 0
297 7 0
-231 -192 0
-242 -156 0
301 91 0
247 -252 0
-56 -307 0
-126 -67 0
292 -250 0
250 243 0
-342 15 0
-315 96 0
-286 -336 0
293 18 0
170 -208 0
200 -228 0
-136 207 0
350 -202 0
-112 320 0
-276 -99 0
-327 262 0
-277 -180 0
193 287 0
131 -317 0
-40 -96 0
282 164 0
79 268 0
60 42 0
234 -354 0
318 101 0
262 -187 0
-138 50 0
85 -174 0
266 360 0
-67 -178 0
255 299 0
318 357 0
-351 -175 0
-112 -290 0
44 228 0
-106 352 0
7 -24 0
297 -253 0
287 -25 0
-31 110 0
154 -15 0
160 -322 0
-64 202 0
258 238 0
-218 353 0
-25 308 0
-223 292 0
51 -70 0
-29 -134 0
-169 -346 0
-237 -160 0
-47 337 0
273 41 0
-135 229 0
-220 -15 0
222 -33 0
-354 -322 0
-104 -143 0
162 163 0
270 283 0
363 -350 0
174 -70 0
239 208 0
-32 207 0
280 273 0
15 278 0
265 -174 0
-127 -108 0
-165 -38 0
-25 -141 0
-192 -285 0
276 4 0
-121 180 0
229 283 0
-45 -368 0
244 229 0
-77 173 0
-131 18 0
314 -150 0
-6 -311 0
352 -145 0
-126 -349 0
179 -27 0
150 -11 0
327 167 0
-173 -299 0
190 308 0
-214 -89 0
225 331 0
-37 204 0
276 -259 0
-227 -27 0
-85 69 0
343 -95 0
-349 -189 0
94 -82 0
61 -300 0
51 332 0
-21 66 0
-126 347 0
-141 -80 0
-250 358 0
-280 -180 0
-175 -308 0
228 -184 0
86 208 0
-119 -218 0
361 9 0
-231 -8 0
158 -189 0
63 128 0
-70 66 0
-245 364 0
284 247 0
-225 -35 0
5 69 0
85 249 0
188 289 0
282 -300 0
-196 71 0
-23 188 0
-312 -155 0
201 -52 0
-108 -1 0
272 318 0
188 -17 0
317 -127 0
30 200 0
109 -41 0
-313 -105 0
-194 -77 0
288 -145 0
-362 -80 0
-2 -127 0
209 218 0
169 -78 0
316 -329 0
64 -157 0
334 -48 0
332 10 0
-208 -286 0
222 153 0
-187 153 0
2 367 0
-170 347 0
-175 -181 0
-291 249 0
358 -345 0
-111 107 0
-65 -285 0
155 -232 0
-296 276 0
104 -182 0
-107 -87 0
-299 -368 0
-31 -339 0
39 2 0
217 -120 0
230 -220 0
-311 -107 0
-185 171 0
138 352 0
-310 -269 0
-20 329 0
284 81 0
-130 75 0
-62 -289 0
-29 245 0
-152 -178 0
-298 -206 0
233 42 0
-311 191 0
61 127 0
335 320 0
296 213 0
-70 295 0
318 -2 0
18 275 0
-45 133 0
118 -336 0
3 306 0
-229 -113 0
160 198 0
-265 68 0
219 238 0
-235 -354 0
251 -278 0
205 -269 0
-295 244 0
87 -62 0
8 258 0
-295 157 0
203 -90 0
56 -300 0
-1 332 0
260 233 0
213 165 0
-6 -344 0
258 -295 0
261 153 0
-309 146 0
-32 -180 0
146 -82 0
-267 -160 0
-46 -161 0
-233 -84 0
210 -139 0
16 349 0
-208 369 0
90 -127 0
-223 -96 0
-222 -368 0
-83 238 0
-56 363 0
-323 -362 0
-185 258 0
201 -61 0
2 170 0
-214 -32 0
70 266 0
64 124 0
-71 -62 0
-46 -203 0
20 177 0
-186 334 0
109 -351 0
267 -291 0
120 -359 0
104 120 0
268 259 0
144 206 0
323 308 0
54 -64 0
85 176 0
288 111 0
-167 54 0
65 -15 0
-74 -117 0
105 324 0
-20 -324 0
331 152 0
-263 -144 0
57 -176 0
335 -132 0
-33 163 0
6 -96 0
216 -301 0
-277 -337 0
41 208 0
-310 -359 0
-113 -162 0
-255 -181 0
-110 238 0
197 -214 0
-266 -186 0
238 237 0
-45 62 0
-165 366 0
-275 -73 0
-335 251 0
-37 -187 0
80 -114 0
261 210 0
-173 314 0
283 -245 0
133 221 0
-171 -296 0
-88 210 0
362 -312 0
-229 39 0
123 297 0
208 26 0
-333 -82 0
-70 -141 0
190 38 0
-187 -279 0
-78 223 0
-112 139 0
-362 68 0
-12 306 0
315 -118 0
-185 -159 0
35 268 0
-342 287 0
-73 -335 0
3 75 0
250 -354 0
-339 180 0
-136 42 0
148 250 0
-158 -308 0
-78 -115 0
-148 -353 0
-210 -13 0
-149 -110 0
-12 127 0
201 176 0
142 -15 0
162 69 0
320 64 0
-96 3 0
352 -231 0
-269 63 0
-169 -47 0
5 -176 0
264 114 0
160 -88 0
328 173 0
170 -165 0
154 -136 0
-263 -196 0
-193 56 0
-364 -334 0
54 160 0
-144 364 0
234 231 0
188 116 0
-336 -47 0
170 98 0
-112 -145 0
-270 145 0
255 -45 0
-338 -368 0
-8 72 0
135 -313 0
26 82 0
36 335 0
69 -174 0
-50 -169 0
250 -49 0
-338 -237 0
-73 -277 0
76 346 0
-64 -122 0
-78 180 0
230 -330 0
-227 -211 0
199 50 0
326 -156 0
85 280 0
-188 49 0
-307 -295 0
-242 -260 0
-362 -8 0
-301 149 0
-144 38 0
-188 -336 0
-110 251 0
183 140 0
-84 108 0
-184 257 0
-305 30 0
-350 363 0
-92 -105 0
-157 113 0
39 -97 0
-246 233 0
210 -91 0
-203 217 0
218 -30 0
-269 -216 0
-277 -46 0
226 288 0
-54 -174 0
191 -95 0
-169 97 0
-221 39 0
179 -91 0
120 127 0
-52 -344 0
-344 9 0
-91 306 0
-264 -298 0
22 -83 0
-237 -175 0
-315 -318 0
248 298 0
198 273 0
-108 217 0
369 -77 0
-3 -25 0
-53 61 0
239 25 0
-70 324 0
223 -31 0
-291 -330 0
121 205 0
-152 323 0
-361 -84 0
175 -294 0
-40 239 0
318 132 0
68 -139 0
255 347 0
-102 -82 0
319 56 0
-281 -24 0
-97 287 0
-8 239 0
-125 306 0
318 188 0
14 -211 0
-44 59 0
-357 -323 0
-65 274 0
-231 357 0
-184 -239 0
-84 278 0
229 181 0
156 287 0
-364 333 0
135 -155 0
30 97 0
117 317 0
-187 103 0
-231 -51 0
85 354 0
86 -31 0
-293 212 0
42 -52 0
89 -22 0
-272 -282 0
-315 -230 0
329 321 0
-232 246 0
-361 -186 0
258 -92 0
-201 -173 0
-250 -221 0
-354 257 0
41 304 0
-108 317 0
111 -130 0
-361 353 0
170 -351 0
-260 190 0
161 225 0
-230 -362 0
158 358 0
259 -139 0
-214 328 0
272 86 0
-344 -202 0
-237 -144 0
-58 210 0
292 268 0
-340 304 0
-178 -38 0
-13 271 0
-284 -172 0
-254 2 0
66 343 0
247 124 0
284 -68 0
115 133 0
344 -333 0
-172 -227 0
284 128 0
-223 -144 0
-19 -17 0
305 134 0
-365 -183 0
-202 313 0
-76 235 0
-326 176 0
259 286 0
254 115 0
-201 -180 0
-184 43 0
-90 -12 0
-25 -222 0
68 -157 0
-189 -202 0
292 44 0
194 -135 0
-128 -286 0
-75 154 0
129 -341 0
-347 306 0
54 -3 0
347 10 0
-166 328 0
103 4 0
-282 -77 0
-364 -309 0
154 -225 0
151 -327 0
226 -51 0
-280 -238 0
369 -219 0
72 353 0
-70 -222 0
-145 -239 0
-33 79 0
-240 80 0
153 261 0
-35 228 0
-304 -138 0
126 -15 0
-237 -208 0
-231 253 0
-345 -366 0
-98 -107 0
8 276 0
-69 216 0
201 124 0
-112 287 0
35 346 0
33 -339 0
277 -23 0
195 236 0
221 358 0
-64 91 0
-45 359 0
186 209 0
-70 -246 0
287 -137 0
258 -364 0
251 -361 0
79 215 0
-231 249 0
-138 92 0
259 -1 0
-354 100 0
-2 134 0
197 -181 0
240 -326 0
114 133 0
-280 367 0
37 -185 0
366 -231 0
207 250 0
-29 162 0
-330 -208 0
58 -293 0
228 42 0
339 251 0
-136 320 0
275 188 0
-99 282 0
143 4 0
-50 -256 0
316 261 0
367 149 0
-194 -156 0
-165 332 0
61 281 0
-130 18 0
-19 -148 0
-47 251 0
-64 255 0
265 178 0
-88 345 0
353 -9 0
-194 -51 0
-47 -352 0
-55 255 0
-327 26 0
-253 56 0
148 -62 0
-239 167 0
238 -267 0
275 -47 0
-59 -245 0
226 95 0
-287 158 0
-121 -289 0
283 -77 0
-315 142 0
369 244 0
316 31 0
34 87 0
140 3 0
-11 -152 0
324 -240 0
-280 -221 0
28 44 0
278 39 0
-134 219 0
-48 -318 0
129 -272 0
150 201 0
102 -176 0
-202 -162 0
-74 -296 0
-46 -222 0
276 34 0
296 -181 0
310 287 0
66 308 0
234 54 0
-286 -126 0
-112 7 0
-333 -319 0
282 142 0
-74 -308 0
-12 -272 0
-286 -223 0
246 65 0
-265 200 0
93 180 0
-222 281 0
-176 299 0
277 278 0
283 212 0
316 109 0
-311 295 0
-115 -354 0
320 -169 0
-163 -119 0
-128 110 0
236 151 0
-334 -320 0
32 240 0
-70 -224 0
-316 -73 0
306 201 0
60 -139 0
-77 203 0
-289 28 0
-319 -100 0
85 184 0
328 -313 0
347 -152 0
-166 -291 0
-311 -60 0
-223 -312 0
-92 -136 0
74 -350 0
-289 -309 0
328 -280 0
258 79 0
-129 -357 0
236 108 0
2 316 0
-147 250 0
-48 310 0
317 91 0
248 -330 0
-253 30 0
214 225 0
-119 -144 0
-299 254 0
-165 -23 0
198 360 0
-1 -350 0
1 -260 0
-188 -172 0
338 202 0
212 -361 0
133 132 0
-193 282 0
-24 369 0
-254 -144 0
-43 115 0
-322 281 0
321 -139 0
-181 332 0
-138 191 0
235 11 0
-286 -185 0
296 -30 0
109 -293 0
-322 -267 0
-300 153 0
-156 70 0
-70 -194 0
16 -291 0
39 -350 0
-2 169 0
-18 282 0
93 -64 0
-71 275 0
104 -158 0
318 129 0
-370 -159 0
236 261 0
103 -12 0
-102 -328 0
-280 -95 0
-157 229 0
292 -77 0
-33 6 0
331 -317 0
-31 10 0
350 367 0
-279 -345 0
156 296 0
-325 -20 0
-309 221 0
213 200 0
-251 -192 0
331 184 0
255 108 0
50 61 0
288 116 0
131 235 0
14 336 0
-211 -291 0
235 -344 0
-194 -120 0
135 331 0
26 94 0
133 -96 0
-152 20 0
-102 134 0
-127 111 0
255 215 0
27 297 0
194 -291 0
207 -215 0
37 -84 0
103 93 0
298 115 0
247 -84 0
-182 276 0
-354 -318 0
276 102 0
-76 49 0
204 -307 0
-57 321 0
167 332 0
-153 27 0
304 115 0
-110 117 0
-343 324 0
-228 41 0
327 -311 0
-328 -146 0
274 -182 0
-113 -41 0
-153 -322 0
258 -328 0
247 94 0
-52 -327 0
151 -117 0
360 44 0
185 -223 0
-277 -218 0
-173 -101 0
111 -2 0
-330 320 0
223 360 0
-202 130 0
-289 -312 0
-83 112 0
109 33 0
-299 -92 0
28 -202 0
-25 55 0
-104 -265 0
-163 -74 0
-362 -298 0
242 249 0
-13 -292 0
338 -211 0
-27 -345 0
-154 281 0
217 330 0
-223 -155 0
239 344 0
30 -74 0
219 350 0
