c NF
p cnf 1325 3710
348 121 0
782 960 0
-1065 868 0
457 -580 0
1110 -583 0
-336 -743 0
-1074 1161 0
-591 -689 0
-394 397 0
371 -1051 0
483 143 0
-1157 -277 0
268 936 0
-857 -1082 0
-674 -547 0
409 -1133 0
1121 871 0
-204 -611 0
-978 -1155 0
-735 575 0
-1140 -842 0
-432 -654 0
503 970 0
1215 -1215 0
-1176 71 0
-995 -603 0
953 712 0
1195 682 0
-409 657 0
-665 -132 0
-312 55 0
471 -912 0
-521 57 0
191 -901 0
-674 1161 0
-896 627 0
427 -916 0
742 880 0
322 791 0
-673 478 0
661 -134 0
-755 -1298 0
-811 350 0
257 -592 0
264 958 0
-101 -688 0
346 -185 0
-899 -565 0
997 907 0
1150 380 0
-364 -490 0
-1200 1041 0
-940 -497 0
368 1091 0
-1008 -556 0
-1048 -203 0
560 -303 0
-597 -179 0
-775 54 0
310 -1279 0
-173 -669 0
1042 963 0
-620 -1074 0
555 -914 0
1033 -620 0
173 -625 0
-1230 599 0
85 -649 0
-263 -1167 0
956 -307 0
523 -545 0
-943 -948 0
-603 829 0
376 -1311 0
719 -1016 0
220 1045 0
88 -1207 0
-1076 -384 0
1223 -966 0
945 816 0
702 -828 0
558 -60 0
-1270 970 0
-916 -111 0
-920 1303 0
809 424 0
1119 863 0
369 -377 0
-1249 42 0
-787 378 0
649 163 0
-220 622 0
788 -1226 0
-1173 -377 0
1161 1248 0
-439 -1297 0
-1304 77 0
-588 -656 0
-620 514 0
122 -1001 0
251 772 0
-379 808 0
-1178 804 0
290 1255 0
1115 -76 0
264 -244 0
748 -829 0
-178 -1006 0
463 -1178 0
-1019 -1086 0
-529 791 0
-666 -579 0
288 -303 0
-676 836 0
-1104 -941 0
-1041 -915 0
733 -532 0
-201 -612 0
1175 -1185 0
1019 -524 0
-1026 856 0
1288 644 0
-711 121 0
682 -833 0
274 489 0
-234 -38 0
1046 220 0
267 743 0
1233 -1241 0
-1155 -31 0
-435 485 0
-1026 -1003 0
-1222 -421 0
617 113 0
-882 648 0
424 -572 0
-76 -1130 0
-533 -1023 0
1218 944 0
-617 -1143 0
-428 464 0
-686 406 0
388 1277 0
920 -498 0
1050 1305 0
-416 762 0
236 -723 0
1325 -430 0
-263 -303 0
-1209 -656 0
-2 -644 0
-758 1294 0
583 1188 0
-1192 1165 0
1110 613 0
-757 748 0
-802 -991 0
-906 999 0
-392 759 0
-362 -1207 0
1154 331 0
-363 480 0
-833 -1165 0
-462 -989 0
790 99 0
-1243 584 0
67 -854 0
-359 7 0
-428 -550 0
968 1239 0
943 1296 0
1093 -694 0
986 251 0
644 134 0
-1266 -77 0
-1179 113 0
-810 -114 0
-534 -422 0
-1000 455 0
102 -84 0
469 97 0
-756 1028 0
-1086 -980 0
-183 -785 0
-916 -642 0
-993 -1077 0
1239 148 0
-913 862 0
-584 -1084 0
-833 729 0
956 378 0
668 -12 0
302 845 0
818 777 0
-333 -145 0
-959 1299 0
-642 -474 0
320 1180 0
615 -1187 0
15 -409 0
-600 -1150 0
-855 -898 0
1323 827 0
-142 -614 0
-6 4 0
-936 704 0
-765 603 0
721 -599 0
397 -1118 0
310 1159 0
116 510 0
-630 868 0
866 -106 0
81 -1063 0
46 -538 0
-403 -294 0
-288 622 0
-1241 -493 0
321 -514 0
417 781 0
128 968 0
-314 265 0
619 219 0
369 1277 0
-1009 231 0
933 394 0
1302 1171 0
-598 804 0
275 273 0
231 -217 0
-1065 -238 0
1064 47 0
760 -815 0
-568 5 0
575 -714 0
-505 -579 0
-285 -14 0
144 -89 0
329 120 0
1147 217 0
761 -734 0
-524 499 0
-868 -993 0
49 -860 0
-152 978 0
-612 -49 0
-754 460 0
-1293 -192 0
-242 871 0
-413 -910 0
-1037 -752 0
-536 823 0
551 -632 0
-1209 -1270 0
-632 1177 0
-1152 -163 0
1035 1239 0
760 343 0
585 -585 0
-327 -138 0
560 587 0
885 305 0
90 1123 0
-691 -260 0
1176 893 0
1101 397 0
-590 190 0
-186 648 0
1197 -604 0
-1275 -514 0
1108 1284 0
-921 -1007 0
1316 -650 0
-137 582 0
582 892 0
148 414 0
-735 255 0
-1094 -117 0
1185 -181 0
739 -944 0
72 -191 0
-176 -705 0
629 -1243 0
764 954 0
1216 -283 0
1310 -388 0
793 -804 0
-1158 -1289 0
167 -556 0
257 918 0
938 -431 0
-386 -609 0
-1274 1245 0
-191 977 0
-1311 -691 0
-224 739 0
782 796 0
-68 153 0
1181 -695 0
-920 -844 0
-436 -1094 0
313 -285 0
-1151 380 0
866 -143 0
-1211 -194 0
88 -1199 0
290 337 0
-149 -719 0
66 -229 0
370 -805 0
609 67 0
125 -309 0
140 1246 0
1289 -45 0
1083 194 0
-183 -155 0
517 -659 0
-1300 -1199 0
85 531 0
-435 299 0
-152 -657 0
-212 -331 0
-1091 -418 0
498 123 0
725 1256 0
162 480 0
153 -265 0
-223 -417 0
354 -65 0
342 466 0
-881 -662 0
71 -858 0
-260 -768 0
1268 163 0
-1182 421 0
799 -983 0
1267 193 0
1071 -659 0
-903 640 0
810 -1059 0
-663 851 0
1154 522 0
-1223 -713 0
1125 -1007 0
-285 -174 0
71 -291 0
596 -1011 0
-537 -1188 0
92 62 0
-935 1234 0
793 -142 0
-1162 -771 0
800 -656 0
390 356 0
-567 -1247 0
-1223 132 0
-1073 -1058 0
-659 1299 0
999 -681 0
-876 -1019 0
484 802 0
-916 -1134 0
-209 810 0
607 574 0
131 -1282 0
-1216 -1249 0
1142 979 0
273 571 0
35 -913 0
1020 511 0
-1289 -244 0
594 -837 0
1287 906 0
1196 457 0
637 -572 0
265 325 0
-702 611 0
1081 -1314 0
-1095 -1249 0
906 584 0
626 950 0
-884 1093 0
-37 1027 0
-889 -1112 0
-477 -182 0
162 653 0
-48 829 0
-228 483 0
528 -209 0
-530 -409 0
115 148 0
1007 -402 0
-825 -1176 0
-740 1230 0
457 262 0
-393 301 0
-1079 -117 0
245 231 0
542 778 0
46 -1183 0
-91 295 0
-157 1095 0
5 -884 0
565 335 0
226 -240 0
-1282 -825 0
669 1049 0
-603 856 0
-907 -1250 0
866 642 0
892 678 0
-634 593 0
407 316 0
-795 -508 0
712 -1037 0
-331 1207 0
1153 -913 0
275 -544 0
944 340 0
591 717 0
89 404 0
-1312 -1324 0
-855 -434 0
72 -983 0
292 -592 0
-393 156 0
454 734 0
-1277 212 0
578 -249 0
436 154 0
-382 -694 0
-1279 -1207 0
41 501 0
969 132 0
-440 -1199 0
318 745 0
953 -964 0
-560 1258 0
-894 -130 0
500 -1322 0
-716 -729 0
1306 -48 0
238 988 0
-802 -29 0
1231 508 0
551 -820 0
-1125 210 0
778 -583 0
-1223 410 0
-229 912 0
-1118 510 0
-14 -243 0
-134 1068 0
723 75 0
129 -877 0
150 1049 0
611 1162 0
-563 526 0
318 250 0
-890 827 0
-1022 -662 0
-511 201 0
399 1251 0
734 -109 0
-830 -1054 0
937 1033 0
1029 -168 0
-33 -49 0
-156 -1215 0
1285 29 0
219 1230 0
1132 -1300 0
231 1275 0
704 927 0
-337 720 0
789 -106 0
-481 -1196 0
-305 -1097 0
-529 457 0
-694 1171 0
715 920 0
736 -903 0
231 1097 0
11 241 0
1299 -1226 0
-1118 319 0
-255 -1010 0
-130 -453 0
-75 -746 0
700 1310 0
-1315 589 0
-324 227 0
1066 -76 0
28 1032 0
642 373 0
-633 77 0
-204 -525 0
633 -84 0
85 21 0
-694 -1027 0
-960 -936 0
-117 762 0
946 902 0
1218 -881 0
-386 -1281 0
125 -1000 0
-40 -1208 0
1314 826 0
-825 -1293 0
1313 -452 0
-757 281 0
-1008 713 0
810 -1250 0
1007 1012 0
919 -282 0
-670 -1140 0
190 -103 0
-1000 -1194 0
-66 422 0
-80 -179 0
761 275 0
956 -432 0
-1041 -1187 0
835 -1286 0
623 -753 0
-711 1219 0
-411 -485 0
-1225 413 0
744 1055 0
-300 -910 0
-983 819 0
-82 819 0
508 671 0
-584 836 0
-1312 405 0
122 149 0
-281 -433 0
1020 -1274 0
-1178 611 0
-565 653 0
-1284 -973 0
640 -322 0
190 -1175 0
-71 -549 0
857 -260 0
-644 -1301 0
273 886 0
949 -659 0
660 -955 0
-1208 1024 0
-998 -233 0
-779 1228 0
143 275 0
183 1174 0
-334 -1205 0
-1256 -251 0
1056 694 0
-1069 1072 0
-184 972 0
-1087 196 0
-652 -29 0
1211 325 0
661 -155 0
-983 -1038 0
401 -859 0
438 -789 0
871 573 0
-183 416 0
-168 524 0
-1128 -1189 0
-299 -1186 0
1006 53 0
733 46 0
-359 605 0
202 -162 0
664 -884 0
1292 1037 0
-699 121 0
-921 -842 0
-898 -545 0
621 -756 0
1198 693 0
-837 -608 0
632 526 0
724 -170 0
404 660 0
-740 967 0
34 -468 0
-238 -88 0
-1053 309 0
91 586 0
193 54 0
-335 -994 0
-556 1138 0
1293 -1021 0
960 -929 0
53 -913 0
555 -312 0
262 64 0
153 -1208 0
-442 -175 0
460 641 0
611 866 0
-325 -84 0
98 -221 0
-368 -1006 0
-522 148 0
41 560 0
478 -712 0
-494 -563 0
-42 -241 0
501 -527 0
-1291 -149 0
959 638 0
444 793 0
313 415 0
-299 345 0
172 783 0
-253 -922 0
-967 -133 0
-737 499 0
741 -520 0
-1209 845 0
748 -336 0
-1178 -744 0
-1182 1032 0
525 -1305 0
1212 -331 0
-201 493 0
-499 1136 0
-201 -1159 0
497 -1107 0
1163 -592 0
-280 1090 0
-182 -163 0
-66 299 0
26 -836 0
254 -595 0
-1295 818 0
217 98 0
-622 457 0
-842 693 0
713 621 0
-601 1054 0
308 737 0
-936 -1216 0
687 1210 0
-1186 114 0
-1157 -471 0
-131 -329 0
967 416 0
-1076 -520 0
418 354 0
-1319 -596 0
520 -837 0
1026 -1146 0
1159 -1117 0
428 1142 0
1144 982 0
-118 817 0
-290 -298 0
745 -195 0
870 715 0
-1162 966 0
339 -1214 0
-1071 -327 0
1105 259 0
812 721 0
827 -488 0
114 1265 0
55 1210 0
-104 -138 0
476 731 0
-1090 -429 0
-458 -811 0
1075 -658 0
-981 -1249 0
546 -863 0
124 -533 0
-558 -919 0
-805 612 0
-21 193 0
-557 231 0
187 661 0
1041 18 0
-1215 84 0
-378 761 0
-463 865 0
678 1293 0
-917 785 0
-1324 -1208 0
933 408 0
-1002 1240 0
551 978 0
1172 771 0
987 -102 0
-221 899 0
-822 -32 0
46 -527 0
1015 616 0
917 -40 0
1060 419 0
866 -1059 0
-1186 -519 0
-229 707 0
395 723 0
564 799 0
354 5 0
439 -1287 0
-697 -286 0
-1041 -104 0
562 -426 0
678 -936 0
-668 288 0
449 -413 0
-961 628 0
-665 226 0
-69 -1202 0
-269 -29 0
275 -790 0
-137 -598 0
-893 368 0
1195 34 0
356 -1092 0
-887 -130 0
875 -776 0
276 38 0
-363 443 0
-307 797 0
-1057 299 0
814 -536 0
-134 263 0
-1194 195 0
-134 -985 0
-959 -642 0
1115 648 0
394 101 0
1261 127 0
-209 1261 0
116 142 0
-889 -796 0
-70 352 0
-74 774 0
-1074 643 0
158 1084 0
-903 566 0
-45 -1256 0
1096 -183 0
-8 -978 0
724 -359 0
-459 193 0
289 1061 0
933 1064 0
-51 -178 0
1205 702 0
-712 -1004 0
277 -133 0
124 473 0
784 1146 0
970 677 0
-1229 -38 0
396 782 0
89 -614 0
582 54 0
246 1313 0
91 700 0
878 -1115 0
823 60 0
468 1251 0
-37 97 0
622 632 0
173 444 0
-505 -1147 0
-458 373 0
358 -658 0
638 18 0
564 977 0
181 -1119 0
789 637 0
917 809 0
275 -1222 0
1044 -1131 0
-351 340 0
1311 621 0
-190 -379 0
-630 -919 0
-1203 345 0
306 -911 0
-122 1227 0
446 -174 0
1126 89 0
1218 -381 0
597 888 0
-493 -662 0
542 399 0
-630 259 0
811 1211 0
-1034 -948 0
-493 729 0
-627 1243 0
1195 1107 0
719 315 0
262 12 0
-636 -449 0
-340 -695 0
-720 -630 0
-550 -1153 0
-166 420 0
-204 1164 0
836 -298 0
-429 254 0
-12 -1194 0
-1124 -888 0
1319 1303 0
47 434 0
1227 -689 0
150 683 0
-385 322 0
-20 126 0
-1243 -1297 0
571 -330 0
210 77 0
871 1165 0
-705 -785 0
-179 -424 0
-54 -876 0
-21 513 0
-630 -1105 0
229 807 0
-1124 -1064 0
1140 -377 0
-1241 -63 0
-215 -1188 0
100 719 0
-462 660 0
-1214 86 0
-698 905 0
-38 7 0
-328 309 0
-936 1149 0
-271 -284 0
-1048 586 0
526 -68 0
318 -1154 0
668 412 0
-134 205 0
665 494 0
-1171 -1019 0
-1309 -104 0
-82 98 0
66 1257 0
720 -1201 0
-883 387 0
-780 -604 0
441 305 0
-597 -1311 0
-957 1257 0
110 -503 0
-461 1125 0
398 951 0
719 -367 0
507 455 0
-669 488 0
-1237 -1284 0
-195 -1240 0
-219 116 0
1124 -607 0
-784 -165 0
-1236 -171 0
443 -834 0
12 1129 0
55 -906 0
398 809 0
566 979 0
-514 713 0
1268 -372 0
-490 951 0
480 -1057 0
232 -402 0
-458 -1249 0
587 152 0
1279 972 0
-772 99 0
-850 902 0
-794 1026 0
887 1171 0
-754 179 0
681 -1039 0
89 -76 0
508 497 0
-1156 123 0
-1160 -539 0
127 274 0
-1242 739 0
-8 1261 0
-730 -548 0
-663 525 0
-901 548 0
-518 718 0
762 -681 0
700 980 0
670 -1112 0
905 895 0
-898 65 0
1136 -594 0
595 817 0
438 -1191 0
39 -378 0
1309 544 0
-463 794 0
320 -534 0
1148 1182 0
-33 -499 0
-351 -207 0
806 1167 0
-1238 1197 0
-915 533 0
1210 -973 0
159 -1116 0
170 1316 0
1249 866 0
1236 -194 0
-474 -920 0
745 -1039 0
-1244 -9 0
1026 -1170 0
-155 902 0
55 -737 0
-1170 1299 0
404 -1074 0
455 -587 0
-940 -1264 0
1017 -1191 0
-848 -270 0
-758 3 0
772 -104 0
1169 -65 0
-846 -1048 0
-771 -858 0
-1082 -778 0
-703 -845 0
-1146 -1245 0
-394 -1102 0
888 1149 0
271 -941 0
387 380 0
-104 437 0
480 159 0
-813 -431 0
-580 436 0
-276 -639 0
-1217 1165 0
-1135 149 0
-904 -768 0
1259 -578 0
-329 752 0
150 -735 0
591 -1017 0
-936 804 0
892 77 0
936 -544 0
412 487 0
1085 -35 0
-619 -855 0
523 899 0
-1063 -963 0
922 -982 0
905 977 0
1313 1183 0
-264 968 0
-106 -914 0
172 -850 0
-1237 -40 0
315 1313 0
-953 -145 0
769 -1270 0
233 -589 0
856 -538 0
536 1098 0
824 500 0
-666 -483 0
-980 -705 0
1000 453 0
561 -822 0
743 43 0
725 1039 0
889 565 0
-41 561 0
1299 600 0
306 -1297 0
272 -850 0
-534 -1287 0
1126 -680 0
559 906 0
1303 651 0
532 1099 0
46 -534 0
-1098 -384 0
-477 -236 0
-974 -1200 0
518 -148 0
390 -1200 0
-1171 569 0
396 -642 0
-846 -680 0
-634 -364 0
-463 590 0
-1133 -165 0
541 -842 0
725 -917 0
853 -756 0
788 -388 0
-896 727 0
50 703 0
1093 737 0
-1062 562 0
-491 607 0
1308 649 0
-1254 12 0
-135 12 0
-298 -1115 0
689 98 0
-1108 -713 0
-64 -896 0
782 538 0
1204 1230 0
133 -100 0
-481 -78 0
-430 -92 0
-285 -138 0
-847 181 0
1288 -55 0
741 660 0
64 -148 0
-665 -1117 0
1304 789 0
611 -1003 0
-255 -322 0
667 906 0
1120 343 0
-1258 -1063 0
-463 345 0
408 972 0
-509 -1076 0
-722 896 0
507 -34 0
-1310 -1041 0
-1116 622 0
632 -5 0
976 1303 0
-805 13 0
725 -410 0
-926 214 0
-1176 679 0
1228 -717 0
-816 41 0
-914 361 0
-1040 -108 0
-334 -948 0
-1228 -9 0
761 -482 0
-258 -1250 0
-1034 881 0
712 1039 0
492 655 0
-335 667 0
-229 -1059 0
960 -827 0
316 -479 0
-551 63 0
-696 5 0
210 1012 0
563 -36 0
-321 561 0
-652 -743 0
1194 -482 0
-974 -356 0
1244 893 0
-1294 -515 0
498 -985 0
360 -146 0
-495 759 0
971 1012 0
1172 -472 0
-1075 1309 0
-655 281 0
138 762 0
1146 -757 0
-794 -913 0
-392 -182 0
-360 1255 0
928 -416 0
653 -1229 0
632 1277 0
235 -270 0
-786 -588 0
-1285 512 0
821 268 0
109 1290 0
-942 897 0
-601 -286 0
-435 377 0
863 26 0
-562 907 0
-60 852 0
535 1129 0
558 -739 0
1088 1025 0
-1091 993 0
343 425 0
450 976 0
-408 -1218 0
-1032 810 0
-1116 -852 0
-45 119 0
-895 -53 0
20 -988 0
-1254 -433 0
1169 -1139 0
268 -724 0
369 657 0
182 -411 0
-162 -194 0
357 1066 0
-27 245 0
-250 766 0
320 109 0
859 835 0
368 818 0
401 -628 0
736 471 0
-480 1202 0
1104 -659 0
-451 609 0
219 86 0
-789 -363 0
-869 510 0
-93 -333 0
-997 528 0
-735 623 0
809 600 0
-224 -337 0
-813 263 0
-794 687 0
1276 -559 0
454 -838 0
276 -562 0
677 -162 0
-496 1064 0
292 -966 0
-669 701 0
805 1265 0
-1094 1259 0
1284 -1226 0
616 345 0
1252 -208 0
-785 -191 0
-1103 -618 0
417 118 0
-194 -884 0
943 -409 0
-932 -141 0
-104 -368 0
1081 -507 0
-708 583 0
-952 467 0
-117 -739 0
23 -439 0
267 -627 0
-45 -307 0
-307 -296 0
1038 -408 0
767 34 0
1064 -901 0
497 -678 0
-1191 -251 0
-385 -249 0
245 711 0
-920 -898 0
-556 1172 0
928 197 0
62 736 0
-1133 -782 0
-758 511 0
-1124 -1251 0
526 -653 0
46 -645 0
-485 1205 0
591 -823 0
525 -392 0
-365 -1084 0
-455 4 0
498 292 0
-1216 -78 0
41 111 0
-1067 -608 0
-1003 87 0
-666 -342 0
-985 -380 0
-634 236 0
-104 941 0
246 874 0
-69 1229 0
-141 767 0
651 301 0
-795 -830 0
-1208 -796 0
-651 -1235 0
-366 -337 0
907 -781 0
-1289 1213 0
-422 1049 0
730 -801 0
1129 -450 0
-155 -272 0
-29 -1066 0
-1212 -1097 0
-1139 738 0
1029 -769 0
321 1144 0
-75 516 0
628 60 0
611 -1287 0
-709 -1077 0
-1241 1142 0
-918 -1214 0
1198 173 0
-379 65 0
340 -876 0
-1205 -335 0
-36 -911 0
895 -147 0
937 388 0
1125 986 0
133 845 0
119 1161 0
-1237 1187 0
114 -1004 0
1078 336 0
-1176 926 0
986 682 0
76 -1236 0
-769 704 0
838 -409 0
-777 -1146 0
-152 671 0
-908 -690 0
-194 299 0
97 -688 0
-357 959 0
555 902 0
-927 -52 0
-798 120 0
810 -1314 0
1298 -1049 0
348 141 0
-1013 110 0
-899 825 0
-787 -34 0
523 -1253 0
1155 -757 0
-687 928 0
-1176 638 0
205 -840 0
163 209 0
-107 -236 0
-1325 1054 0
-1222 45 0
-752 -568 0
1002 -608 0
-132 -1320 0
1198 646 0
-589 -1115 0
-503 -548 0
763 1011 0
-384 -20 0
154 1211 0
553 968 0
-482 11 0
786 -747 0
-727 -241 0
1252 421 0
-139 -472 0
-867 655 0
684 275 0
-488 846 0
15 -391 0
1030 -200 0
587 -851 0
1294 -612 0
-996 -918 0
595 288 0
1041 -917 0
110 -1061 0
-916 1095 0
729 1001 0
-544 -589 0
-270 -610 0
497 295 0
-596 -550 0
438 1038 0
1046 18 0
410 258 0
-349 -74 0
946 -620 0
-1080 -694 0
614 392 0
254 1030 0
939 -231 0
-854 -606 0
-982 417 0
-507 813 0
-498 -844 0
-1041 -574 0
1122 530 0
259 595 0
1059 930 0
-1258 1172 0
1288 -333 0
-754 637 0
419 74 0
-118 -635 0
-168 -851 0
153 -70 0
218 -919 0
721 696 0
1122 1279 0
-1182 698 0
-1033 396 0
458 828 0
976 -618 0
-1312 335 0
-1271 682 0
-486 -1282 0
233 -959 0
-1208 1231 0
89 542 0
866 222 0
783 -817 0
-849 1144 0
111 1054 0
-1325 786 0
-284 -1263 0
-1143 -855 0
-1324 874 0
-914 -422 0
1219 1103 0
1221 1093 0
-393 -1270 0
561 -841 0
-1048 -1291 0
-868 355 0
-589 434 0
838 -903 0
205 -557 0
1267 490 0
505 -1061 0
732 -923 0
656 -659 0
-987 1281 0
-337 -1157 0
406 -777 0
127 930 0
-441 -355 0
396 -256 0
122 767 0
1219 -799 0
786 -141 0
26 1143 0
-1227 -1032 0
1184 49 0
-935 661 0
1258 -169 0
933 531 0
936 1 0
-17 167 0
-540 -502 0
541 1286 0
-227 301 0
523 715 0
1296 254 0
818 231 0
-1206 393 0
172 447 0
446 448 0
786 337 0
-935 1091 0
-48 -945 0
-1139 -832 0
91 692 0
-896 434 0
1114 299 0
1089 -1175 0
1048 1153 0
79 -859 0
-910 -392 0
753 311 0
-309 -17 0
-303 161 0
1043 -1187 0
945 660 0
-751 -360 0
1100 714 0
479 44 0
321 -182 0
1164 444 0
-304 -1127 0
-192 -166 0
438 -673 0
-722 -1208 0
-324 1322 0
1102 -458 0
-1209 1261 0
-1071 -957 0
-588 827 0
222 856 0
-1271 -525 0
1229 -1077 0
-1318 -1006 0
1030 -1045 0
575 226 0
-365 -628 0
-1093 -1115 0
398 -346 0
718 -1119 0
-1188 -222 0
-555 553 0
-1209 -273 0
1167 -196 0
-1181 -1157 0
904 -1181 0
860 1196 0
1150 -858 0
530 -1137 0
-960 -160 0
725 -1088 0
-916 555 0
7 599 0
-1207 -24 0
1010 203 0
338 14 0
1169 -470 0
-811 611 0
906 416 0
-330 -257 0
-1085 -502 0
77 -816 0
-1238 -801 0
633 10 0
-1274 290 0
274 420 0
701 1114 0
-1115 394 0
712 699 0
975 -619 0
50 206 0
340 97 0
320 7 0
-923 1324 0
-813 389 0
348 574 0
-1086 200 0
-78 69 0
-246 -108 0
-641 906 0
1153 -1202 0
69 1202 0
-54 121 0
-878 -820 0
242 -625 0
-65 404 0
-1067 -957 0
-1171 866 0
-1132 -50 0
944 -609 0
-192 210 0
-496 79 0
885 -130 0
587 -982 0
-327 426 0
898 -146 0
-793 1182 0
-997 769 0
-168 -1109 0
-817 292 0
-673 -751 0
357 -787 0
-76 -550 0
-895 -756 0
-537 -689 0
-424 885 0
946 -743 0
-1256 -579 0
673 257 0
1023 113 0
-366 -179 0
-547 420 0
539 -694 0
-550 443 0
1316 -153 0
629 569 0
-903 1147 0
-665 110 0
762 1183 0
-793 1255 0
-162 -841 0
-309 -655 0
55 -894 0
-191 4 0
769 -18 0
637 1221 0
1210 -440 0
-1026 -170 0
-1176 664 0
-570 1293 0
-515 -330 0
434 -831 0
-706 -997 0
-133 342 0
728 628 0
1000 1169 0
-314 -723 0
-99 -1113 0
-964 -1134 0
1159 1303 0
55 1106 0
-785 -990 0
1054 -950 0
-1307 -997 0
-780 -1276 0
-1073 762 0
-812 -1187 0
429 -901 0
226 -1039 0
406 986 0
993 -56 0
-1323 -864 0
-170 110 0
-1014 452 0
-1171 -711 0
-858 -363 0
-1092 839 0
125 578 0
-1302 -1041 0
1080 1222 0
-217 860 0
1284 -107 0
1192 577 0
-65 592 0
-1135 82 0
-805 -605 0
1030 -838 0
111 -1321 0
-909 -1166 0
1300 791 0
846 -878 0
-1053 -284 0
-532 -80 0
-2 749 0
-61 773 0
-717 -490 0
1262 -98 0
-1142 1285 0
-116 -130 0
-1235 1027 0
-79 1098 0
866 154 0
-1301 446 0
-1246 864 0
988 -580 0
570 -1225 0
-811 687 0
-903 -326 0
161 -27 0
-416 -780 0
-25 1015 0
119 -1295 0
915 999 0
89 906 0
-1144 886 0
-147 -526 0
-1218 206 0
737 -492 0
-703 227 0
1257 280 0
-367 1005 0
-58 217 0
-768 550 0
-843 -872 0
476 105 0
-1192 526 0
1070 796 0
-45 1036 0
742 1227 0
496 -304 0
-364 -881 0
-1199 314 0
532 252 0
1110 -372 0
348 361 0
59 -60 0
230 904 0
216 -794 0
-402 -502 0
-246 512 0
476 1072 0
-1190 -905 0
-409 -324 0
-1311 -1118 0
601 561 0
-965 -118 0
996 -807 0
1106 483 0
-34 356 0
-191 833 0
-966 555 0
-918 -692 0
409 -652 0
711 1295 0
-597 -241 0
728 752 0
643 951 0
-507 17 0
-1049 501 0
881 615 0
-697 -521 0
-64 -852 0
-921 600 0
1123 -559 0
357 270 0
-1124 -239 0
-1294 438 0
340 -220 0
-619 94 0
804 -790 0
483 1172 0
425 1106 0
551 826 0
-593 891 0
626 -1164 0
1274 -1023 0
-898 614 0
-1259 -421 0
991 -660 0
-585 -120 0
560 -590 0
555 -320 0
944 -112 0
-1092 1169 0
1114 564 0
-584 -293 0
275 -411 0
-1270 -360 0
-171 705 0
-631 527 0
-1177 395 0
29 -334 0
694 1050 0
-1021 -304 0
-10 -330 0
-1020 -1096 0
611 136 0
316 230 0
1146 -257 0
1042 -596 0
-1044 733 0
1254 692 0
388 1079 0
423 1286 0
-1236 30 0
725 -465 0
-437 1251 0
541 -410 0
-1324 934 0
-1152 1129 0
773 -1133 0
233 -652 0
-1274 91 0
1262 -840 0
524 629 0
523 1165 0
-341 200 0
1114 -482 0
-1032 -496 0
599 1254 0
1195 518 0
806 -520 0
-197 -1158 0
390 -1264 0
203 80 0
1167 -43 0
123 -874 0
819 -691 0
180 -299 0
423 -1171 0
-757 -1156 0
-233 -803 0
-909 -6 0
975 346 0
-515 -949 0
-1220 1036 0
-371 991 0
-1045 -185 0
-114 -847 0
-920 -665 0
836 1204 0
-659 -581 0
-1237 1172 0
499 1133 0
-698 -456 0
-191 273 0
91 -279 0
-1094 -710 0
-1197 306 0
-462 81 0
-567 54 0
-1207 1 0
-896 1054 0
489 -1253 0
-1237 1122 0
-1110 -950 0
-544 254 0
725 321 0
-592 53 0
785 -108 0
-118 -589 0
72 877 0
308 -998 0
-411 -1251 0
-840 -1105 0
1271 475 0
-185 -813 0
-973 206 0
828 -787 0
1015 -673 0
-910 570 0
-131 -669 0
-570 331 0
-1094 -519 0
-690 339 0
-436 53 0
-785 -76 0
-1172 -152 0
-994 1136 0
372 -895 0
807 875 0
-1276 591 0
-523 727 0
-850 113 0
-28 -335 0
1146 -74 0
-192 399 0
1030 -1300 0
-910 854 0
-760 -114 0
-813 -688 0
761 728 0
-1270 -1168 0
528 -17 0
952 874 0
293 39 0
1105 870 0
-913 -953 0
144 888 0
738 -257 0
313 522 0
1012 28 0
-612 75 0
751 -435 0
-439 202 0
-476 -1312 0
-240 851 0
246 3 0
-734 1142 0
252 -1001 0
426 -974 0
-1059 -25 0
41 231 0
838 -319 0
520 -152 0
1306 222 0
-1034 170 0
-759 293 0
-195 480 0
-988 -269 0
-1224 110 0
-173 1306 0
1064 -1277 0
20 586 0
-100 720 0
-823 100 0
-74 145 0
768 -680 0
41 1222 0
-751 -846 0
-1077 115 0
-1296 -431 0
-654 -803 0
647 -1096 0
1273 1019 0
1036 -1291 0
-798 406 0
139 100 0
-846 109 0
378 224 0
639 -17 0
-29 -121 0
1008 434 0
1059 753 0
516 1147 0
560 326 0
1062 -1145 0
184 -29 0
-367 1282 0
-1063 933 0
-113 558 0
-957 -152 0
-1108 1184 0
-29 301 0
-292 651 0
-1312 -179 0
-1312 978 0
-985 516 0
-1169 208 0
457 -821 0
526 -211 0
818 -1266 0
-170 186 0
-1208 669 0
-1084 1198 0
186 481 0
1270 -1191 0
-84 -743 0
-467 -336 0
818 218 0
1122 381 0
790 -152 0
1259 -1147 0
857 -935 0
-408 52 0
743 844 0
-508 1159 0
-830 -439 0
-1249 -1220 0
1216 697 0
-793 1222 0
-1008 361 0
575 943 0
-686 1143 0
-765 598 0
1092 -1039 0
1228 1018 0
-175 970 0
-1065 -1321 0
762 -319 0
-640 368 0
487 1073 0
710 -610 0
97 -1046 0
-1051 -73 0
764 -200 0
-832 -220 0
-640 187 0
-336 646 0
-215 184 0
497 832 0
46 -198 0
782 256 0
-675 -1260 0
-506 218 0
-640 1035 0
-713 -627 0
877 -822 0
247 -1200 0
610 -1152 0
372 131 0
-980 472 0
144 -63 0
-624 720 0
-468 189 0
724 276 0
1045 -666 0
-324 -1141 0
-643 -48 0
1295 -229 0
478 -184 0
-332 -842 0
-875 856 0
-898 -16 0
-204 -83 0
-31 -896 0
-19 1263 0
354 258 0
-848 -502 0
-295 -837 0
88 992 0
200 664 0
-868 378 0
1047 -778 0
-812 -825 0
-73 -605 0
1301 -825 0
424 1317 0
-614 1240 0
180 297 0
1159 -1301 0
586 678 0
-780 -756 0
-1087 -1130 0
-635 124 0
951 918 0
638 -323 0
-325 -1092 0
629 1078 0
-647 -1096 0
484 879 0
-6 -923 0
137 212 0
-936 -817 0
-1010 1171 0
-1165 455 0
187 505 0
-1220 -935 0
800 -1170 0
-808 887 0
-858 -435 0
372 -285 0
514 -223 0
468 1290 0
255 -756 0
-914 285 0
826 673 0
599 -108 0
234 -400 0
-986 228 0
1248 -172 0
-79 1126 0
-1228 1165 0
-652 -502 0
-151 205 0
-1103 -1050 0
-1209 1073 0
-42 -1163 0
218 1159 0
-236 -998 0
-1060 -1120 0
-34 272 0
460 -266 0
-335 -82 0
-1097 -1013 0
-1041 583 0
-1198 -137 0
-722 -725 0
1079 -1273 0
939 199 0
-619 713 0
-652 1136 0
906 456 0
66 -771 0
-1043 475 0
-1162 -532 0
339 437 0
-48 -384 0
86 -10 0
-386 -1083 0
-537 875 0
350 659 0
-961 -1066 0
-351 -237 0
848 -298 0
-215 1148 0
789 298 0
1280 -994 0
-563 -531 0
980 -1283 0
-1113 -441 0
53 1286 0
-598 -216 0
-268 -842 0
1294 -686 0
-160 -884 0
975 -170 0
-216 -437 0
-1235 904 0
-1297 365 0
-694 68 0
-1290 113 0
-172 -884 0
143 -1209 0
1105 616 0
547 -998 0
1057 406 0
176 1311 0
247 -33 0
-134 409 0
315 -515 0
561 557 0
-1177 427 0
-1295 -1270 0
-456 -270 0
-1322 -102 0
-850 580 0
1157 519 0
-48 1033 0
466 -983 0
-1114 535 0
-631 -601 0
-570 1233 0
-605 -634 0
154 -177 0
1222 -38 0
1323 170 0
1085 425 0
482 -964 0
-668 374 0
994 -735 0
1313 -171 0
-1214 -414 0
494 -876 0
-1206 398 0
-1012 339 0
-1314 -898 0
-93 1118 0
-316 -822 0
34 97 0
-1244 394 0
-670 -507 0
1141 325 0
1001 -204 0
1147 132 0
94 -465 0
-562 835 0
1100 -6 0
-241 -195 0
492 -495 0
-120 -652 0
234 1282 0
314 -1311 0
-261 1064 0
-609 -514 0
738 -796 0
-1302 -567 0
663 -967 0
1285 805 0
-207 361 0
512 1159 0
635 -492 0
1098 848 0
-953 -923 0
862 1236 0
1258 -502 0
766 1002 0
-695 -832 0
1258 788 0
555 781 0
277 1075 0
-1026 -813 0
-1145 -1276 0
372 547 0
115 1230 0
-680 1165 0
836 -50 0
1033 1082 0
-704 -854 0
-1146 -461 0
98 1045 0
-165 690 0
1247 -114 0
1036 97 0
-936 -171 0
420 1146 0
-921 -1188 0
-759 54 0
-503 -185 0
415 122 0
447 800 0
512 -315 0
871 -813 0
519 -687 0
254 770 0
778 -1077 0
-261 -479 0
-813 477 0
230 1261 0
1143 350 0
1204 -1101 0
415 741 0
-255 713 0
431 -995 0
386 -458 0
814 440 0
-32 -969 0
-491 -253 0
-923 -26 0
618 -367 0
-1206 -884 0
622 -1171 0
-652 1271 0
88 338 0
-1262 751 0
377 743 0
552 668 0
-160 -29 0
74 226 0
-1279 1151 0
314 376 0
177 261 0
497 15 0
-1215 353 0
-9 -878 0
-527 -477 0
-966 -1084 0
1325 -843 0
1121 739 0
751 -452 0
644 -779 0
1081 -1210 0
-796 422 0
1033 -152 0
865 184 0
-1242 553 0
-1191 -1152 0
539 -1284 0
1218 1183 0
396 448 0
1020 -501 0
213 410 0
725 -602 0
458 866 0
-475 684 0
524 -18 0
-1214 -259 0
-1101 -456 0
162 1285 0
728 336 0
-182 -197 0
743 566 0
213 969 0
183 -1133 0
-1074 -1003 0
902 1060 0
-797 406 0
-412 -175 0
-465 -108 0
1224 17 0
-561 -199 0
708 -929 0
1081 859 0
-666 -149 0
704 -888 0
-1001 -787 0
-277 -1082 0
-780 -181 0
-463 348 0
236 -82 0
1098 368 0
426 318 0
-1090 -253 0
-1224 -861 0
-330 1033 0
-1185 -931 0
-309 937 0
-322 760 0
-758 720 0
445 518 0
623 495 0
-782 251 0
-949 211 0
72 -409 0
-327 -585 0
1289 1295 0
-1048 545 0
-223 -58 0
632 308 0
635 381 0
310 21 0
-78 -68 0
-1004 1293 0
758 -1108 0
-209 200 0
-937 788 0
-1236 -559 0
-1218 14 0
-591 -915 0
-730 464 0
-859 -1110 0
344 -911 0
1120 1239 0
32 -625 0
565 217 0
724 -1149 0
77 -229 0
-411 -343 0
151 511 0
-5 972 0
900 934 0
-73 388 0
-83 739 0
-1209 -500 0
251 -2 0
-695 431 0
566 1161 0
1072 1060 0
258 1288 0
-905 -803 0
30 -455 0
747 1242 0
863 -790 0
-450 892 0
-361 733 0
1028 -656 0
-825 -196 0
-515 711 0
276 354 0
414 -663 0
-1014 -481 0
1086 202 0
300 -474 0
227 392 0
-407 -311 0
209 374 0
187 -1199 0
968 -545 0
183 1318 0
-1244 109 0
574 28 0
-37 1041 0
483 866 0
-1311 1313 0
-436 412 0
343 1112 0
-1013 -731 0
1156 -303 0
-1073 -1153 0
649 -45 0
767 -400 0
-1011 -1178 0
-458 354 0
-570 -986 0
-191 -441 0
375 555 0
-104 571 0
796 629 0
-66 -70 0
797 931 0
395 911 0
49 -483 0
103 991 0
237 1266 0
-941 1138 0
39 -1227 0
-1267 25 0
-307 418 0
13 -831 0
-922 752 0
962 905 0
-256 -668 0
720 815 0
-567 114 0
984 513 0
-1325 -955 0
677 -16 0
401 -692 0
347 -1124 0
188 -1241 0
770 1069 0
-277 -1291 0
580 800 0
-448 857 0
578 -1186 0
-6 574 0
799 790 0
-168 -1052 0
250 -241 0
999 -777 0
-1143 -104 0
-1310 -634 0
-552 517 0
13 678 0
773 -310 0
122 13 0
-1300 233 0
499 464 0
719 -333 0
-569 140 0
323 144 0
-16 378 0
633 -1002 0
-285 -1103 0
795 -491 0
613 1175 0
-10 1325 0
-491 -17 0
380 -567 0
-299 -922 0
866 1307 0
1182 -507 0
-1061 -816 0
748 1080 0
-452 -58 0
1143 407 0
786 361 0
865 507 0
-552 1130 0
-451 1314 0
770 -880 0
416 -702 0
-1114 -710 0
1100 -844 0
-664 -199 0
-1185 858 0
-1101 1244 0
827 -609 0
333 969 0
-837 928 0
993 -181 0
-303 -491 0
-1073 1122 0
1271 211 0
-550 -1159 0
-327 567 0
-463 246 0
-541 -266 0
649 1100 0
-662 -723 0
882 574 0
-10 -498 0
-756 -388 0
15 1062 0
159 631 0
-1039 -444 0
1174 1233 0
795 7 0
-957 515 0
-246 -280 0
874 -382 0
357 -213 0
-76 -664 0
-1087 -829 0
941 85 0
574 752 0
1302 271 0
296 -731 0
218 -1057 0
-366 183 0
54 516 0
-790 619 0
976 -964 0
448 -909 0
-210 112 0
1220 782 0
-1132 -365 0
349 887 0
1072 1132 0
-1265 354 0
-157 415 0
56 635 0
3 -321 0
-488 -319 0
54 -311 0
571 -521 0
-1218 399 0
600 432 0
-950 614 0
-1157 368 0
21 -2 0
-1038 1231 0
-651 -1246 0
1286 -468 0
251 614 0
786 766 0
-346 611 0
-531 -1287 0
-255 -1123 0
219 969 0
407 742 0
1286 272 0
906 578 0
842 1258 0
-776 818 0
-697 -989 0
-550 1084 0
-901 -1229 0
-589 19 0
1007 1070 0
1304 53 0
-1010 14 0
-147 233 0
-9 -511 0
1053 -554 0
-1286 22 0
-321 -1143 0
1121 -1087 0
-1200 1037 0
1138 -908 0
88 1292 0
-1236 -195 0
-288 -450 0
-912 711 0
-811 1052 0
1019 1306 0
-809 -958 0
211 -412 0
-1241 -548 0
-898 -623 0
578 -217 0
-283 -961 0
-1273 633 0
200 -1244 0
-907 -1276 0
-505 -909 0
-1133 -1225 0
803 -658 0
907 985 0
484 1149 0
931 966 0
-175 -1084 0
1222 278 0
-1115 959 0
-703 681 0
-847 715 0
-1168 839 0
-754 -982 0
-65 1126 0
-1052 -1017 0
-1137 623 0
476 1225 0
-146 -408 0
724 -692 0
395 528 0
1045 -1286 0
1325 176 0
-1137 -461 0
-422 606 0
-1324 189 0
-942 -775 0
739 828 0
-1011 -751 0
30 -194 0
1216 -525 0
768 -604 0
-361 962 0
727 -1019 0
-773 -1193 0
-1184 786 0
-375 -584 0
56 970 0
489 -4 0
353 180 0
776 809 0
-104 151 0
1180 1089 0
1280 -713 0
975 931 0
294 -656 0
-830 -1165 0
701 390 0
-72 650 0
1196 720 0
-1313 -527 0
-863 -1021 0
39 52 0
606 -1020 0
-131 -321 0
-430 1275 0
-1314 1099 0
-751 159 0
585 1248 0
-840 444 0
1259 560 0
193 83 0
-567 797 0
-365 353 0
-921 77 0
-73 -944 0
676 208 0
295 -538 0
-911 646 0
-1166 806 0
250 147 0
-132 -33 0
132 739 0
455 -879 0
-1044 -16 0
817 996 0
566 -457 0
643 1197 0
-534 -1308 0
-131 -631 0
621 60 0
-801 103 0
1094 1104 0
-1135 -345 0
-2 141 0
-1011 1001 0
-926 1203 0
-607 416 0
-252 295 0
972 -650 0
193 -267 0
-716 -1021 0
1193 -695 0
473 683 0
690 -821 0
469 1198 0
404 -1139 0
-420 254 0
-1301 -457 0
1045 -1048 0
-946 -103 0
-901 -540 0
1103 702 0
-200 420 0
797 -587 0
-963 -929 0
41 -927 0
-131 -897 0
386 -9 0
133 308 0
-612 -524 0
1302 -10 0
35 373 0
-1269 -884 0
-1207 -295 0
-26 -174 0
121 -1244 0
-1250 711 0
-1208 969 0
765 -1141 0
116 -372 0
-803 -505 0
-832 873 0
89 1113 0
-114 140 0
703 -392 0
-795 512 0
1164 -108 0
-430 -215 0
180 200 0
18 -229 0
-456 497 0
1153 288 0
-548 -537 0
-1250 -165 0
906 -821 0
-359 -437 0
-525 626 0
305 -1092 0
1036 -314 0
-1319 -1236 0
732 962 0
-920 1167 0
201 -364 0
1025 90 0
-917 -363 0
792 -1114 0
326 173 0
-596 89 0
89 704 0
-1061 -367 0
528 -6 0
-567 1132 0
558 73 0
373 -64 0
25 1009 0
-1063 -917 0
-851 -78 0
-474 1062 0
-1124 232 0
355 -714 0
1037 343 0
-1094 -1193 0
-1114 981 0
736 -1113 0
-876 -323 0
810 924 0
-949 -40 0
1033 772 0
-605 91 0
-266 -1054 0
1054 -356 0
1035 380 0
526 611 0
-1254 228 0
231 1068 0
-1277 -324 0
243 1257 0
228 -405 0
-103 546 0
-923 -922 0
-1113 -1175 0
-843 967 0
203 -1246 0
-556 -171 0
378 -1285 0
104 -147 0
1194 1261 0
-206 -64 0
-714 -276 0
-433 -39 0
4 561 0
-689 689 0
-1229 -909 0
-787 -1140 0
875 841 0
-296 464 0
877 1005 0
-551 -537 0
-584 113 0
-502 -1128 0
-777 -1143 0
-633 399 0
162 -630 0
592 558 0
-437 951 0
1009 114 0
814 -306 0
-269 891 0
552 930 0
-777 483 0
-754 948 0
-334 -883 0
597 -70 0
114 -496 0
-509 935 0
1159 710 0
-494 1105 0
750 -754 0
-1178 394 0
-488 279 0
424 1159 0
391 -746 0
-1065 -1216 0
-1059 -1260 0
-433 487 0
-65 -591 0
762 -21 0
-889 12 0
346 1175 0
588 -534 0
-864 476 0
-910 -545 0
521 -397 0
938 1093 0
-437 -601 0
-643 378 0
-292 960 0
976 782 0
254 -1246 0
159 -417 0
112 436 0
-935 1064 0
473 -559 0
978 -379 0
-174 -195 0
-408 1259 0
595 694 0
373 -863 0
-1114 1067 0
1316 895 0
957 778 0
-493 684 0
360 -598 0
-182 712 0
-915 -92 0
600 211 0
-85 -1041 0
-198 -1058 0
1093 -625 0
1099 268 0
1163 477 0
1204 814 0
51 -132 0
-1191 -1268 0
-1034 366 0
250 320 0
-516 -1094 0
-660 -16 0
-262 376 0
-920 949 0
782 1216 0
-488 -221 0
-592 1035 0
551 -1049 0
-796 516 0
707 1254 0
-1102 -1039 0
-359 -650 0
702 -191 0
-900 -829 0
155 1325 0
454 720 0
579 1281 0
-311 4 0
-1186 99 0
-913 -570 0
-952 -430 0
127 -40 0
1148 472 0
-1311 219 0
-870 748 0
207 23 0
-538 190 0
-525 426 0
799 586 0
225 864 0
-1045 355 0
1280 -370 0
-673 1097 0
-923 -1227 0
1153 1250 0
361 667 0
-884 -853 0
-1064 -222 0
134 591 0
875 1202 0
85 1182 0
-790 203 0
399 466 0
-370 -436 0
-50 -436 0
404 524 0
-899 1264 0
894 1285 0
-745 782 0
-619 905 0
-1269 -926 0
-867 -698 0
-1074 -1072 0
-1325 734 0
-24 285 0
-240 562 0
339 638 0
-815 718 0
105 -818 0
1254 -358 0
59 775 0
640 961 0
494 1002 0
-217 -64 0
-647 -917 0
-547 -1157 0
-191 -156 0
-871 1055 0
-742 -1158 0
1262 -1011 0
-82 -246 0
342 1114 0
526 116 0
-637 885 0
1202 1102 0
-994 -1288 0
-582 -592 0
1068 574 0
-748 -1247 0
349 875 0
90 -720 0
-109 28 0
-860 265 0
621 955 0
-279 -490 0
-549 -1284 0
-179 -297 0
-93 -555 0
-691 -378 0
-1179 154 0
-321 794 0
-496 244 0
-335 1012 0
707 -267 0
-243 14 0
-1060 835 0
-360 89 0
-8 -1235 0
-340 -323 0
1167 1052 0
13 -805 0
-214 950 0
681 -608 0
-858 39 0
485 163 0
-706 -586 0
549 -563 0
851 -1289 0
-851 -1226 0
497 -792 0
-640 94 0
-19 181 0
459 947 0
1218 955 0
184 292 0
-308 378 0
468 1259 0
-820 1060 0
-541 -845 0
906 388 0
645 -3 0
641 518 0
1184 650 0
1319 798 0
1019 698 0
-957 1195 0
-1005 -178 0
273 -206 0
628 972 0
422 -1023 0
-411 -328 0
677 350 0
578 788 0
819 -888 0
-34 1016 0
1309 -1084 0
-92 -608 0
373 -378 0
799 -912 0
-334 -737 0
-780 -255 0
633 1099 0
623 -393 0
1284 -585 0
-439 -312 0
1070 777 0
-771 1036 0
290 -1191 0
457 1083 0
-161 -42 0
283 882 0
633 -1313 0
527 -132 0
-1140 394 0
-277 1299 0
295 1233 0
-132 744 0
633 681 0
167 591 0
-257 -1014 0
1043 492 0
644 -1202 0
-515 -403 0
998 -490 0
-221 -1175 0
-1018 71 0
-303 158 0
63 -997 0
-391 1102 0
-328 331 0
646 720 0
-263 -615 0
-169 295 0
77 -507 0
1088 562 0
-1156 -573 0
-502 -559 0
486 -9 0
174 484 0
159 236 0
-531 234 0
-593 871 0
1265 653 0
574 -1086 0
-1050 1231 0
1216 -96 0
1144 -293 0
805 -502 0
-335 673 0
1089 -41 0
122 -192 0
224 353 0
1246 1163 0
-1189 474 0
-1191 -692 0
657 372 0
999 967 0
-1217 -1050 0
-329 145 0
-106 526 0
-554 504 0
1026 -230 0
626 -1111 0
1042 615 0
-744 150 0
869 1239 0
-1311 1278 0
30 -325 0
-198 1302 0
663 -156 0
863 26 0
117 -1170 0
1212 -40 0
463 200 0
-1041 696 0
416 -321 0
-1270 27 0
635 419 0
299 -638 0
289 227 0
904 -1039 0
380 -488 0
-83 331 0
1323 -1294 0
-911 237 0
207 -914 0
-854 977 0
1309 410 0
1138 26 0
581 1205 0
-739 1175 0
653 816 0
-662 -52 0
-1182 -526 0
1185 1169 0
206 244 0
127 -289 0
196 831 0
-108 -488 0
-564 184 0
-1091 -423 0
-33 40 0
-873 929 0
414 756 0
1159 -900 0
14 -751 0
460 780 0
-1179 -207 0
-807 687 0
3 133 0
-1134 576 0
938 831 0
-108 1049 0
933 -681 0
512 550 0
760 884 0
-1021 -100 0
-920 464 0
1056 -1114 0
1073 -781 0
198 115 0
1237 12 0
-965 -1238 0
1212 540 0
-588 -1131 0
-763 -33 0
-393 -585 0
-821 252 0
1237 -410 0
1183 1196 0
305 154 0
-291 754 0
-799 800 0
-1208 -1308 0
-1256 509 0
286 -556 0
982 -855 0
5 158 0
-624 1275 0
-994 -52 0
795 5 0
235 1248 0
335 1292 0
901 434 0
-911 -994 0
-1236 955 0
509 866 0
552 -813 0
-215 -765 0
-509 623 0
46 668 0
671 -1096 0
-695 -653 0
-1138 -847 0
-147 -1178 0
-811 1161 0
939 231 0
-308 460 0
1030 677 0
-609 1198 0
631 -160 0
-815 -1120 0
-916 723 0
43 285 0
678 968 0
970 711 0
-192 469 0
-954 296 0
214 -522 0
-1041 -965 0
1180 490 0
959 -607 0
1035 -111 0
-422 566 0
258 1303 0
-368 -244 0
-980 460 0
575 -1243 0
356 817 0
16 1089 0
219 -1141 0
526 444 0
257 962 0
339 714 0
-155 1074 0
-947 45 0
-1184 1147 0
-148 1278 0
743 259 0
-679 683 0
-497 119 0
1232 -379 0
964 133 0
116 -714 0
86 860 0
1123 -825 0
868 -204 0
203 1216 0
-772 -1004 0
124 -1322 0
-130 953 0
61 -708 0
-1128 365 0
970 343 0
823 -1032 0
116 1099 0
1156 -311 0
-692 1198 0
1281 32 0
-620 692 0
-1291 -1093 0
647 187 0
693 1237 0
21 85 0
-1051 -317 0
-491 -1059 0
-592 1196 0
-80 1004 0
722 521 0
-771 948 0
797 -871 0
-1023 -1006 0
125 290 0
450 457 0
80 -594 0
-822 -311 0
-65 437 0
-435 -1022 0
645 910 0
476 -568 0
-377 839 0
532 443 0
425 -717 0
363 -655 0
153 658 0
824 -674 0
-604 314 0
238 -680 0
224 1054 0
996 -851 0
530 225 0
-395 849 0
-487 254 0
343 -1054 0
-883 -403 0
982 319 0
465 -881 0
-337 -1022 0
14 786 0
-272 -665 0
627 -538 0
-407 865 0
-1235 811 0
-1040 -1245 0
100 -1155 0
99 888 0
-1260 -549 0
-450 664 0
-891 606 0
643 -1067 0
-588 -1176 0
641 -103 0
-137 -1307 0
-482 -622 0
-1313 -263 0
1184 -1014 0
316 -966 0
378 -584 0
523 945 0
-363 -1306 0
-328 361 0
326 -1145 0
946 949 0
220 -617 0
1298 1078 0
945 1260 0
711 475 0
1274 1153 0
-188 566 0
-69 1225 0
-737 -165 0
1324 -659 0
521 -971 0
-482 126 0
367 -1079 0
-549 -686 0
-735 241 0
-281 62 0
-44 -65 0
752 -940 0
-435 338 0
-808 945 0
893 -51 0
1271 -1061 0
397 -1237 0
-1030 -881 0
-164 290 0
9 -146 0
1295 -229 0
705 -559 0
824 1116 0
-1134 -232 0
-104 247 0
196 126 0
-239 -729 0
-1225 913 0
679 -40 0
957 292 0
-577 -307 0
1281 1227 0
445 648 0
-378 -731 0
-371 166 0
-1033 13 0
703 749 0
-875 532 0
-311 -375 0
99 -468 0
408 -468 0
952 764 0
-99 405 0
319 1319 0
-56 -118 0
-936 -543 0
987 524 0
301 780 0
-170 396 0
-171 147 0
-58 1267 0
-52 938 0
448 645 0
-1090 119 0
-1314 996 0
-64 1219 0
-1221 -168 0
-900 -904 0
-114 -1309 0
760 780 0
-75 -1109 0
-1266 -551 0
-817 300 0
-498 -766 0
-1155 -1275 0
624 119 0
342 761 0
955 -1134 0
-508 -204 0
653 -755 0
521 -528 0
-522 -730 0
-380 345 0
-1114 -108 0
31 -793 0
98 -323 0
-605 605 0
-686 865 0
-1066 1128 0
-729 -538 0
-56 -109 0
-1131 429 0
230 -989 0
-1129 -1273 0
-72 566 0
745 -1090 0
-791 12 0
794 996 0
-1198 -758 0
-1223 -1135 0
-1002 633 0
-507 -309 0
-1321 703 0
-801 807 0
1060 -929 0
-345 428 0
211 -326 0
-714 -904 0
-2 -1242 0
-233 930 0
-923 1258 0
-1322 -1127 0
-853 -980 0
-1277 -255 0
-647 709 0
1248 254 0
-781 -1299 0
-556 -2 0
-942 -169 0
1151 -602 0
1100 988 0
-355 711 0
-23 318 0
-45 -475 0
401 -726 0
-1314 1302 0
645 656 0
1150 551 0
-323 -98 0
-755 1290 0
374 759 0
-418 -1237 0
924 -391 0
406 -61 0
598 1228 0
-287 1271 0
186 -337 0
-804 542 0
611 -933 0
90 277 0
966 -108 0
158 -565 0
-465 1232 0
-946 347 0
931 960 0
-156 -780 0
-449 -507 0
-582 -1134 0
1228 -915 0
727 817 0
1165 -1194 0
-900 -710 0
-1206 868 0
-1199 1317 0
701 -450 0
773 887 0
358 224 0
-65 1239 0
1027 -690 0
-359 -921 0
1321 660 0
13 -63 0
-861 -461 0
342 457 0
128 206 0
-4 664 0
930 -491 0
-1150 -655 0
-161 875 0
948 -1051 0
555 -1145 0
-674 834 0
-800 791 0
-957 -886 0
-1229 -918 0
-118 920 0
347 740 0
553 -10 0
-1147 -908 0
-639 49 0
22 13 0
-1076 -434 0
-336 383 0
435 228 0
1231 -749 0
-949 975 0
1195 -454 0
579 868 0
-16 193 0
259 770 0
712 -58 0
849 877 0
725 -707 0
646 -513 0
-2 -34 0
-1164 -1017 0
1128 -612 0
738 -575 0
939 -205 0
897 315 0
1316 135 0
-304 520 0
479 497 0
1010 -505 0
969 1078 0
-1321 1013 0
64 -137 0
231 -161 0
1046 103 0
273 930 0
-270 231 0
-471 -1114 0
869 -1295 0
-1003 759 0
590 395 0
1032 1099 0
-329 642 0
891 390 0
-676 -103 0
-436 -463 0
408 98 0
-333 1029 0
-607 641 0
-1156 -242 0
-33 342 0
71 425 0
679 -579 0
-246 -418 0
339 138 0
-168 791 0
200 1236 0
-1079 -1129 0
664 67 0
-734 -1130 0
1009 -86 0
849 -858 0
-1162 774 0
-723 -936 0
872 973 0
-630 -673 0
-375 872 0
-169 274 0
-82 -1273 0
914 753 0
700 -965 0
857 -1160 0
563 1050 0
-569 243 0
-690 -149 0
1063 293 0
-1032 635 0
456 337 0
85 614 0
373 -630 0
196 462 0
882 -961 0
-1300 -1143 0
707 853 0
838 836 0
381 420 0
74 1167 0
732 261 0
-600 -8 0
20 28 0
-482 257 0
-941 -1276 0
196 937 0
778 -99 0
-130 980 0
-118 21 0
156 869 0
133 -114 0
-232 302 0
288 -77 0
930 -146 0
1050 1108 0
-750 -279 0
-574 1195 0
-830 87 0
109 -125 0
-1086 -946 0
736 1192 0
1109 1207 0
530 -151 0
-1044 -1120 0
-1201 -530 0
809 814 0
-905 -183 0
-654 -1250 0
-239 1263 0
-980 -496 0
-1198 -543 0
-189 281 0
-292 1049 0
-1293 1129 0
1154 936 0
586 970 0
-480 326 0
937 302 0
-482 -452 0
-806 1123 0
-287 249 0
828 1100 0
-642 715 0
814 -1053 0
1175 1310 0
627 1195 0
-560 -726 0
-451 -879 0
718 -529 0
883 -162 0
-185 -442 0
-256 -471 0
-38 696 0
-1174 -1079 0
987 -146 0
-1043 45 0
-423 72 0
-84 -992 0
-827 -204 0
-569 -1233 0
-37 -53 0
224 734 0
935 -716 0
-25 741 0
380 -1113 0
512 -208 0
-253 -764 0
-411 -619 0
-1032 -662 0
-940 635 0
875 726 0
153 -1040 0
1184 -764 0
931 356 0
1206 151 0
478 -381 0
67 125 0
-240 99 0
-206 -883 0
992 987 0
682 -61 0
-716 261 0
-1078 1044 0
-1263 -240 0
-1053 32 0
944 -560 0
-128 -873 0
-401 -605 0
-86 489 0
-283 664 0
976 224 0
90 458 0
-1091 741 0
343 210 0
-69 653 0
-692 -127 0
-842 -1250 0
-1237 708 0
-1069 987 0
-284 278 0
-883 254 0
427 -778 0
1305 -1041 0
-777 -588 0
445 58 0
438 1188 0
112 -381 0
217 -793 0
-1128 -1028 0
-922 972 0
-1191 -148 0
161 -1027 0
556 448 0
833 -603 0
998 447 0
225 1265 0
721 1232 0
-281 -238 0
4 -346 0
836 425 0
-843 -252 0
-955 1237 0
542 186 0
453 -1188 0
732 -1100 0
-401 -1166 0
-426 -674 0
-854 88 0
1046 868 0
578 -372 0
-26 719 0
-160 -588 0
-269 142 0
-682 71 0
-496 71 0
604 -805 0
519 -706 0
379 -825 0
-308 561 0
163 -1198 0
-398 -776 0
-428 943 0
-496 685 0
-1324 697 0
-142 -895 0
-376 -366 0
-1190 -1190 0
-1066 -932 0
652 -780 0
737 -892 0
-619 1026 0
976 249 0
-1218 412 0
1183 1138 0
338 -73 0
423 1095 0
-509 -1093 0
-864 -1053 0
809 203 0
970 -817 0
241 894 0
-66 -179 0
-334 -1132 0
957 -1223 0
-1174 933 0
933 660 0
-1024 -391 0
870 -42 0
-780 -416 0
1050 536 0
-605 424 0
-805 -674 0
1216 1271 0
-750 205 0
-431 1161 0
-1173 646 0
1227 124 0
-553 -421 0
1258 930 0
703 110 0
849 -1270 0
649 398 0
-1094 551 0
154 938 0
540 1097 0
315 933 0
-1135 1103 0
-160 1168 0
401 -180 0
-392 -347 0
-132 278 0
-639 -356 0
635 -199 0
968 86 0
-36 -781 0
513 387 0
-758 374 0
-932 597 0
-749 -318 0
-322 1259 0
254 -394 0
-1236 -291 0
-508 420 0
141 12 0
626 1259 0
-1116 135 0
164 494 0
-656 -510 0
186 1184 0
-1090 -182 0
-571 886 0
-1304 369 0
1230 1070 0
-1158 -325 0
664 -878 0
-327 -698 0
1260 347 0
626 -88 0
613 -9 0
-796 223 0
1288 1147 0
972 -743 0
155 355 0
-956 880 0
-478 931 0
6 632 0
-362 1115 0
-626 -584 0
872 987 0
-1310 897 0
888 571 0
737 -1132 0
-743 703 0
-324 991 0
1062 884 0
-874 -463 0
-557 870 0
1252 -605 0
150 491 0
1242 -134 0
-493 914 0
714 720 0
-155 992 0
-195 -910 0
-400 -653 0
-1202 737 0
428 -398 0
-819 670 0
-1250 583 0
890 890 0
306 -72 0
551 -1119 0
-1143 1313 0
-48 1147 0
-1025 378 0
227 1056 0
-165 -963 0
-868 -536 0
1056 308 0
6 835 0
-725 828 0
232 -1213 0
23 -1206 0
1215 401 0
5 459 0
91 -1043 0
294 493 0
-1075 -330 0
-330 -903 0
-768 609 0
-740 277 0
651 815 0
-197 1146 0
-790 214 0
-979 -770 0
1303 857 0
-286 -1068 0
993 1123 0
663 455 0
954 186 0
235 142 0
1139 478 0
565 -695 0
703 -1135 0
-971 -995 0
-1130 347 0
1266 996 0
1325 -59 0
587 817 0
-869 902 0
198 959 0
416 -1054 0
94 574 0
334 766 0
-162 170 0
61 -1297 0
65 -1076 0
1169 1011 0
-1078 -1200 0
-1274 -864 0
-200 -1145 0
1285 62 0
-208 453 0
969 338 0
489 -95 0
-843 -986 0
494 -1277 0
-695 -754 0
1291 -1201 0
-879 378 0
589 -796 0
165 -731 0
-974 1227 0
305 -652 0
218 -107 0
-272 -1210 0
-768 -1162 0
-362 1314 0
713 -1017 0
129 -1317 0
621 242 0
-1245 -757 0
428 -584 0
-142 -236 0
-1017 1227 0
1141 127 0
-604 483 0
210 -2 0
575 -774 0
-1159 124 0
-668 245 0
315 1206 0
-567 1251 0
974 702 0
-401 -329 0
1038 -909 0
1220 751 0
1132 1184 0
158 -65 0
-630 -142 0
744 -779 0
1132 1236 0
372 -849 0
1020 578 0
412 71 0
-585 488 0
1234 -130 0
1005 -96 0
826 770 0
1264 1295 0
633 -244 0
492 1295 0
499 -1292 0
894 -754 0
1240 -215 0
198 1288 0
-860 -756 0
1239 985 0
-673 769 0
-157 557 0
-573 -256 0
-84 -1051 0
-636 814 0
-1131 535 0
-1014 372 0
