c bounds 32 32
p cnf 190 475
-43 15 0
53 -40 0
143 84 0
161 90 0
90 173 0
85 108 0
75 39 0
122 -7 0
12 -142 0
164 48 0
-133 154 0
-165 106 0
162 107 0
161 184 0
-88 -75 0
106 -65 0
171 22 0
160 49 0
109 161 0
-128 -133 0
102 -66 0
81 36 0
-4 -160 0
-11 -62 0
-159 148 0
-183 187 0
30 -116 0
92 -158 0
-70 -81 0
-81 58 0
189 -134 0
95 84 0
-107 -169 0
-7 144 0
-83 90 0
101 -175 0
71 51 0
116 -50 0
-11 -39 0
-50 -165 0
-141 25 0
115 -118 0
-136 82 0
-108 -22 0
-124 -62 0
46 -75 0
-149 155 0
-26 -51 0
-147 -173 0
28 -124 0
11 164 0
-73 156 0
-157 -11 0
59 141 0
107 131 0
158 -144 0
66 140 0
119 132 0
164 171 0
174 56 0
151 27 0
14 164 0
89 151 0
58 -55 0
77 55 0
-96 5 0
157 19 0
12 59 0
116 39 0
-65 66 0
-15 -79 0
131 181 0
-92 91 0
86 -162 0
143 -97 0
-81 -37 0
101 94 0
181 -43 0
-64 -172 0
-26 157 0
-144 -132 0
138 -57 0
-87 57 0
2 -142 0
103 41 0
59 164 0
105 -159 0
3 6 0
115 157 0
-76 115 0
136 -183 0
-189 140 0
79 -68 0
-11 -120 0
-185 62 0
-104 104 0
-159 132 0
131 133 0
-164 131 0
71 163 0
88 -111 0
5 -111 0
-155 56 0
-173 31 0
155 17 0
-150 -132 0
-105 82 0
163 136 0
91 35 0
-15 55 0
-99 57 0
-188 173 0
152 -99 0
-51 95 0
-185 171 0
-73 -76 0
-19 -134 0
42 30 0
148 -132 0
18 106 0
127 4 0
65 94 0
-163 -173 0
157 175 0
55 -25 0
-166 186 0
56 3 0
18 -165 0
-159 12 0
171 -85 0
-155 -141 0
-67 176 0
-159 100 0
-14 187 0
-166 26 0
-184 54 0
-170 16 0
64 103 0
154 59 0
-50 -122 0
127 -148 0
164 137 0
-139 -126 0
88 135 0
36 69 0
-188 96 0
-144 -75 0
-111 -73 0
-30 14 0
-64 52 0
146 -163 0
102 -43 0
100 61 0
-119 -120 0
-119 91 0
84 90 0
66 -98 0
-26 -99 0
36 -145 0
-42 -166 0
-168 -75 0
21 80 0
26 -147 0
-97 -158 0
-172 38 0
-102 146 0
-106 -62 0
-54 -16 0
187 -158 0
167 -160 0
-166 -25 0
-99 -12 0
2 -169 0
174 45 0
77 -37 0
22 143 0
157 130 0
179 56 0
57 -103 0
4 115 0
105 -165 0
-99 -85 0
-179 119 0
72 -182 0
116 -69 0
42 133 0
140 13 0
161 -185 0
11 -133 0
-120 -50 0
138 -117 0
-159 38 0
-87 106 0
-106 -78 0
-182 -149 0
93 81 0
-129 47 0
62 146 0
-79 1 0
12 122 0
-21 119 0
19 100 0
70 -99 0
47 132 0
49 -51 0
-73 -13 0
-156 78 0
29 40 0
42 96 0
59 -171 0
82 -115 0
-95 139 0
167 -166 0
44 -58 0
-8 47 0
146 -56 0
-54 5 0
27 -148 0
-122 138 0
-158 -62 0
63 -174 0
55 -51 0
133 91 0
44 -1 0
166 -117 0
109 -44 0
-142 -88 0
-54 -77 0
91 -144 0
-168 131 0
-81 -10 0
-168 107 0
-129 -175 0
-182 -21 0
77 -83 0
-6 190 0
-1 -110 0
-166 -133 0
134 63 0
-86 -99 0
28 -54 0
-189 31 0
63 3 0
-22 -109 0
-54 -37 0
18 -146 0
-117 -87 0
108 -75 0
69 -48 0
-76 -52 0
-62 -4 0
-71 18 0
91 -147 0
27 39 0
157 51 0
174 82 0
-16 167 0
-117 -106 0
71 28 0
-117 82 0
-152 57 0
-92 -165 0
-110 -5 0
7 -129 0
-48 -66 0
-51 190 0
-185 40 0
86 38 0
44 115 0
-67 -143 0
94 -94 0
31 49 0
86 99 0
101 -182 0
-40 137 0
-35 -130 0
171 -124 0
121 -111 0
-162 -95 0
-120 -26 0
-98 -158 0
154 188 0
-183 -102 0
37 96 0
-85 9 0
135 105 0
-122 -135 0
-107 151 0
-61 32 0
124 -169 0
98 -166 0
40 154 0
-73 82 0
-98 -47 0
-70 68 0
-174 151 0
164 -118 0
74 63 0
-157 21 0
-5 44 0
133 69 0
-79 58 0
-23 -68 0
-26 -54 0
164 80 0
30 -65 0
-3 -159 0
63 -144 0
101 -134 0
-142 97 0
-72 41 0
131 -142 0
178 -11 0
-145 140 0
29 -133 0
164 -131 0
57 -152 0
-7 -7 0
-168 125 0
149 -147 0
-42 -54 0
-46 27 0
171 -120 0
-153 136 0
171 -122 0
-5 -148 0
-84 -134 0
11 71 0
-45 -130 0
-95 23 0
23 -34 0
14 -104 0
14 -47 0
94 -186 0
-150 136 0
-133 -30 0
-13 138 0
-184 13 0
-129 -111 0
82 36 0
-66 32 0
115 58 0
131 136 0
-92 -115 0
-81 -165 0
-11 135 0
-168 -68 0
11 -132 0
-7 -75 0
-106 47 0
110 -169 0
137 -129 0
135 -30 0
-4 -159 0
-118 162 0
-142 178 0
-75 -147 0
19 -31 0
-145 -106 0
-140 -168 0
154 -107 0
-67 -83 0
15 6 0
95 63 0
-85 168 0
73 136 0
-144 -79 0
7 151 0
-30 119 0
154 -33 0
187 187 0
58 63 0
4 -134 0
-28 146 0
119 126 0
-179 109 0
-160 -76 0
141 -105 0
-1 187 0
-139 138 0
-51 -140 0
-54 -174 0
-97 40 0
-79 -100 0
57 139 0
-128 153 0
-122 74 0
115 150 0
-99 2 0
179 -95 0
-11 -33 0
75 17 0
-33 87 0
171 -131 0
30 190 0
93 -94 0
-35 -180 0
20 -136 0
-175 119 0
45 186 0
-43 55 0
-165 91 0
-66 -65 0
131 -14 0
67 -73 0
-153 -76 0
-79 -173 0
-182 -186 0
-73 79 0
14 -179 0
83 -134 0
112 99 0
-143 45 0
-110 -155 0
-66 -43 0
-147 107 0
125 -133 0
17 27 0
23 -81 0
155 -35 0
-53 -7 0
-7 -156 0
41 89 0
94 -128 0
-67 -146 0
-35 17 0
-170 -110 0
-120 110 0
-102 -9 0
-111 5 0
178 -16 0
190 -47 0
-33 161 0
32 -97 0
-148 -142 0
66 163 0
143 -16 0
30 -134 0
18 178 0
84 100 0
-190 154 0
103 49 0
167 -109 0
-115 -67 0
19 57 0
-184 25 0
-38 12 0
-145 185 0
-90 -188 0
-40 -176 0
17 -121 0
-48 15 0
151 154 0
-10 103 0
156 -87 0
-117 -188 0
186 47 0
90 -97 0
-188 21 0
-145 -37 0
72 178 0
108 -125 0
-133 136 0
-38 -98 0
29 -75 0
103 29 0
-129 30 0
-91 -150 0
-13 93 0
-77 76 0
-172 33 0
-24 127 0
131 -12 0
-151 -117 0
60 -77 0
