c bounds 48 48
p cnf 505 1717
-133 204 0
-133 103 0
-190 377 0
305 -268 0
191 -355 0
-133 -293 0
-14 -220 0
-197 209 0
-354 -352 0
-261 -453 0
262 -495 0
306 477 0
-138 304 0
-23 177 0
-244 -98 0
-10 -54 0
-416 335 0
-431 -9 0
-111 -274 0
454 -242 0
182 326 0
322 -127 0
252 -17 0
-104 -309 0
-452 382 0
-281 -327 0
154 -126 0
-238 -278 0
399 -61 0
-478 -264 0
-12 302 0
50 -46 0
-119 -272 0
-315 -278 0
398 -329 0
201 -197 0
125 -445 0
392 470 0
303 191 0
441 -137 0
-171 -346 0
489 -95 0
205 -471 0
367 -153 0
328 200 0
24 -264 0
47 -58 0
35 383 0
482 -202 0
-9 -460 0
-49 -264 0
152 -458 0
294 -374 0
-442 -450 0
-29 381 0
302 192 0
89 -6 0
322 314 0
253 27 0
485 29 0
158 196 0
-125 106 0
-212 413 0
60 133 0
491 -164 0
-202 -58 0
136 66 0
-375 -438 0
497 -180 0
-226 300 0
-87 415 0
-362 62 0
413 256 0
-453 -452 0
-265 -168 0
-223 18 0
-191 120 0
-69 -78 0
-395 -20 0
-229 136 0
473 -263 0
356 400 0
304 -441 0
-495 346 0
-315 -196 0
339 168 0
-132 133 0
-355 52 0
-118 248 0
-361 173 0
274 -275 0
193 306 0
398 470 0
335 448 0
230 495 0
487 -189 0
219 -77 0
-175 -82 0
-69 268 0
-42 454 0
249 -361 0
-358 60 0
-241 194 0
455 -353 0
408 -157 0
-147 -115 0
-246 297 0
-226 286 0
-147 -199 0
-355 461 0
-231 -233 0
120 -301 0
467 -252 0
69 -6 0
425 108 0
503 43 0
-338 -246 0
-400 235 0
107 -349 0
232 35 0
-327 -70 0
15 374 0
121 372 0
289 127 0
379 -393 0
287 290 0
-132 299 0
-164 -200 0
208 -237 0
-89 110 0
-105 276 0
-186 -111 0
288 203 0
-489 -224 0
-228 -105 0
269 52 0
-112 -71 0
-66 284 0
-162 -146 0
-270 -363 0
-447 438 0
286 366 0
463 -96 0
380 231 0
194 427 0
3 -88 0
-100 254 0
-502 -456 0
-26 -6 0
163 -443 0
-138 -403 0
395 -178 0
-380 -104 0
-117 43 0
170 -211 0
-94 -148 0
-33 -482 0
337 336 0
-149 -497 0
-490 -459 0
342 403 0
-492 -32 0
66 -367 0
98 201 0
-255 157 0
-43 177 0
155 -232 0
-252 303 0
-223 -357 0
-145 15 0
300 -38 0
314 -268 0
-347 461 0
-446 320 0
-101 479 0
181 124 0
-265 -364 0
-20 -171 0
99 -381 0
-432 -26 0
192 -461 0
-436 325 0
-144 459 0
36 -487 0
-459 158 0
254 452 0
99 -84 0
-326 286 0
-226 -197 0
-366 -430 0
66 -396 0
69 -491 0
302 287 0
241 304 0
-329 -137 0
-218 153 0
155 -475 0
407 -398 0
-214 380 0
-451 -284 0
-83 -73 0
247 -227 0
-455 -57 0
-428 -395 0
-458 -110 0
-417 -280 0
210 -206 0
-112 109 0
-173 -81 0
127 -434 0
469 230 0
124 294 0
-11 231 0
-179 11 0
-318 13 0
241 20 0
384 -352 0
84 -251 0
344 361 0
435 47 0
301 -78 0
60 176 0
153 -26 0
313 -276 0
105 408 0
271 131 0
140 200 0
120 119 0
324 -206 0
-100 47 0
-358 -182 0
273 47 0
411 305 0
448 114 0
-112 -237 0
338 337 0
447 449 0
85 106 0
-273 11 0
-262 -184 0
-274 -446 0
-464 -269 0
-206 447 0
-156 -361 0
144 294 0
16 -163 0
-220 -424 0
-497 -293 0
453 -27 0
382 340 0
-274 -171 0
-139 -378 0
-398 482 0
-99 423 0
-178 79 0
154 15 0
-159 38 0
166 -489 0
-297 52 0
-140 338 0
115 -180 0
-11 297 0
-214 210 0
-63 241 0
-278 178 0
-33 337 0
100 314 0
68 284 0
296 -90 0
138 382 0
-318 -231 0
40 16 0
-233 175 0
-148 -197 0
233 241 0
-138 -71 0
-254 410 0
176 -480 0
462 -84 0
343 -57 0
503 -11 0
210 305 0
-497 -235 0
189 -142 0
-348 485 0
174 -267 0
467 151 0
294 -82 0
-181 -140 0
-471 203 0
250 -274 0
-127 -244 0
-320 386 0
-434 298 0
-439 -53 0
-440 -472 0
453 431 0
-431 301 0
-195 -324 0
-406 404 0
6 354 0
318 -417 0
-443 -155 0
-72 -310 0
450 -67 0
182 221 0
-93 118 0
-26 150 0
306 -89 0
-115 -101 0
287 398 0
-43 455 0
344 260 0
-129 -313 0
174 -179 0
-312 332 0
110 -59 0
-497 22 0
233 -199 0
286 -337 0
-11 209 0
-119 47 0
-139 485 0
-147 346 0
250 150 0
-427 -479 0
-425 80 0
-14 440 0
-468 361 0
-434 162 0
-431 13 0
-330 -54 0
-443 -196 0
-261 41 0
-486 -36 0
-429 400 0
383 220 0
-186 -222 0
316 -223 0
-13 -181 0
-196 451 0
428 267 0
52 -479 0
-310 -63 0
30 -264 0
-336 -395 0
305 337 0
198 146 0
482 497 0
-33 -416 0
-113 162 0
173 260 0
289 -323 0
304 167 0
121 -385 0
-375 -381 0
-72 -87 0
-238 -246 0
-456 358 0
91 465 0
371 80 0
-90 38 0
-373 50 0
-401 497 0
151 -135 0
-220 -398 0
-332 97 0
-338 303 0
-495 377 0
-389 131 0
388 379 0
463 413 0
491 -183 0
-310 -490 0
-500 -319 0
131 -54 0
-54 -138 0
-80 439 0
-99 -54 0
-504 -363 0
468 274 0
-487 72 0
-145 -209 0
304 -384 0
143 -58 0
119 327 0
243 -298 0
-470 -90 0
383 85 0
172 121 0
46 -244 0
107 -215 0
-291 -332 0
-494 321 0
64 -477 0
13 -484 0
177 491 0
207 220 0
319 -420 0
167 -192 0
-226 3 0
372 329 0
-113 -188 0
-429 151 0
-343 -461 0
-373 69 0
275 -401 0
-421 480 0
-355 249 0
374 -181 0
-223 -386 0
-412 -307 0
-181 330 0
-482 -456 0
-231 -253 0
-68 205 0
-480 -119 0
-487 -281 0
413 505 0
318 345 0
-139 -49 0
-447 -146 0
50 -91 0
335 -374 0
-9 454 0
370 -199 0
-255 -496 0
345 343 0
114 -88 0
380 -329 0
-148 235 0
351 -372 0
286 340 0
-2 -259 0
-456 412 0
135 -146 0
131 136 0
94 -134 0
201 -385 0
-160 318 0
-95 -78 0
-432 -425 0
487 -46 0
-278 358 0
477 -149 0
-469 -81 0
-396 -367 0
-173 -278 0
243 145 0
-355 313 0
-261 411 0
18 143 0
69 155 0
500 500 0
-237 -253 0
-232 205 0
-279 -374 0
175 -435 0
321 -142 0
-279 313 0
-477 -469 0
94 -306 0
50 -217 0
-124 -215 0
-336 -146 0
342 477 0
308 102 0
-153 35 0
496 79 0
-476 260 0
-478 367 0
-22 260 0
-496 217 0
-52 -156 0
141 232 0
-188 388 0
151 365 0
-381 -389 0
257 421 0
-405 -288 0
-78 21 0
-212 111 0
305 -388 0
-231 -452 0
-331 115 0
-389 -281 0
358 399 0
313 394 0
-406 -433 0
382 424 0
258 -117 0
382 265 0
-416 -110 0
372 128 0
-41 200 0
-207 -142 0
242 254 0
-383 404 0
435 -451 0
-438 -52 0
437 -121 0
-307 105 0
25 -369 0
485 -324 0
-186 -474 0
-418 -155 0
-54 -403 0
-440 -418 0
-452 390 0
136 198 0
-495 127 0
-427 -199 0
87 -181 0
-192 -100 0
-370 -115 0
-244 440 0
433 -367 0
108 -363 0
348 267 0
233 -23 0
-40 249 0
-96 78 0
-243 -41 0
493 -326 0
206 -422 0
-448 -237 0
353 221 0
268 362 0
121 174 0
405 -448 0
436 321 0
102 351 0
403 461 0
-348 257 0
193 -148 0
-75 -497 0
-460 -89 0
333 -79 0
-31 -495 0
-98 257 0
28 -12 0
495 -262 0
-31 324 0
-63 -286 0
47 -334 0
-453 472 0
500 -238 0
-492 300 0
171 305 0
-432 36 0
-160 -418 0
-255 181 0
-416 95 0
-356 -251 0
407 -266 0
287 325 0
-450 -483 0
249 60 0
135 321 0
-160 45 0
165 369 0
-433 396 0
-323 471 0
-288 4 0
162 -475 0
-12 -504 0
152 -62 0
-434 -360 0
-187 -465 0
494 477 0
-451 500 0
-497 -488 0
361 86 0
22 154 0
-204 -227 0
378 -484 0
-498 -11 0
368 424 0
-32 172 0
-120 503 0
-211 -323 0
-15 321 0
-473 205 0
207 -228 0
-43 -429 0
-266 245 0
382 411 0
235 278 0
245 -421 0
-385 301 0
-395 -344 0
298 -244 0
-105 -148 0
-417 -20 0
-33 -358 0
211 -227 0
-191 -4 0
256 -74 0
159 -214 0
-41 427 0
-222 -61 0
279 -385 0
-244 431 0
391 409 0
-231 -213 0
268 -482 0
-129 -422 0
108 394 0
-130 -504 0
430 193 0
498 -487 0
365 19 0
-36 -239 0
131 97 0
39 333 0
64 265 0
89 -171 0
-440 35 0
-88 -261 0
208 -112 0
-411 -391 0
-489 -17 0
105 321 0
-423 -23 0
256 356 0
-308 -362 0
-332 -326 0
-235 135 0
-426 -70 0
287 -223 0
-196 -468 0
275 332 0
398 450 0
-28 397 0
345 -233 0
-153 455 0
152 -390 0
-130 331 0
498 368 0
25 494 0
-36 -400 0
22 -101 0
-164 -448 0
-281 -213 0
-329 -443 0
-360 493 0
-270 -487 0
-440 502 0
79 -291 0
77 182 0
-419 -272 0
396 -11 0
394 -405 0
341 -411 0
485 429 0
-416 442 0
-1 -483 0
-186 -480 0
-487 -496 0
7 -82 0
-315 -347 0
377 -418 0
-440 270 0
43 273 0
434 -187 0
-487 -343 0
170 -358 0
278 221 0
-83 315 0
329 254 0
243 -186 0
268 -326 0
435 -159 0
289 430 0
-187 -195 0
268 342 0
258 -11 0
302 122 0
411 -216 0
-181 137 0
483 114 0
-6 -247 0
367 217 0
290 62 0
349 -142 0
302 -355 0
463 -131 0
421 380 0
416 335 0
-480 503 0
-149 -223 0
438 -97 0
110 -269 0
-229 -266 0
380 54 0
-88 -393 0
35 -470 0
-121 -277 0
22 158 0
-495 -30 0
-8 -18 0
221 -393 0
-335 -279 0
-445 -259 0
-387 -181 0
-498 -216 0
-323 -500 0
453 262 0
74 235 0
-236 -225 0
-298 62 0
-233 -334 0
474 -9 0
-374 168 0
251 428 0
-417 -310 0
-217 -432 0
261 66 0
-489 383 0
-374 -160 0
-429 -440 0
-347 443 0
-288 353 0
-40 -263 0
-258 455 0
-497 -231 0
-134 -150 0
-497 -434 0
253 102 0
-211 318 0
271 -71 0
201 430 0
-442 -310 0
28 -229 0
-469 302 0
324 85 0
-358 -435 0
-484 306 0
-237 -262 0
-244 175 0
-82 445 0
-104 226 0
337 256 0
205 432 0
-165 454 0
-457 -334 0
348 -71 0
158 344 0
-14 -430 0
-373 269 0
275 -59 0
-113 212 0
254 -262 0
-61 -72 0
143 307 0
-34 -431 0
490 15 0
-361 -148 0
-362 40 0
318 -141 0
268 -386 0
485 -486 0
-28 469 0
-172 300 0
-366 -475 0
408 19 0
50 118 0
444 13 0
383 -261 0
443 -495 0
-384 -309 0
412 -271 0
350 173 0
241 438 0
-397 382 0
241 -89 0
-315 -118 0
-82 -468 0
-293 -354 0
487 -275 0
-7 223 0
405 -244 0
-327 -501 0
429 -434 0
-360 -348 0
-227 280 0
-501 -278 0
-1 -60 0
-52 -130 0
87 95 0
251 -319 0
449 -386 0
-336 236 0
408 70 0
94 192 0
-227 -295 0
-265 -55 0
61 -159 0
407 407 0
388 140 0
436 306 0
-166 26 0
207 422 0
168 211 0
-169 -218 0
-424 382 0
-497 136 0
196 -417 0
-255 -92 0
-401 -143 0
-146 21 0
205 -213 0
491 -127 0
256 5 0
-133 346 0
343 258 0
155 322 0
66 -188 0
-89 -112 0
498 146 0
-300 -486 0
439 268 0
349 -83 0
-92 -235 0
343 30 0
266 -181 0
-379 68 0
-61 -331 0
-129 -148 0
-298 -264 0
365 -328 0
-30 -252 0
-93 74 0
498 -293 0
-288 -427 0
-234 505 0
303 337 0
-95 -501 0
-38 -18 0
240 40 0
40 352 0
-471 -210 0
-332 -63 0
-399 498 0
-164 -330 0
86 -90 0
256 115 0
-34 -225 0
459 -433 0
143 1 0
294 438 0
257 4 0
-387 -453 0
386 -161 0
-160 230 0
-32 -50 0
166 -429 0
244 -416 0
-260 -315 0
259 -391 0
-425 304 0
434 -244 0
-160 241 0
257 222 0
8 -279 0
-46 52 0
252 -160 0
-266 -303 0
269 -26 0
-100 304 0
22 -83 0
256 -275 0
160 494 0
-336 342 0
-134 429 0
38 338 0
-295 55 0
39 -440 0
-232 -59 0
203 -384 0
337 -370 0
455 -103 0
87 21 0
-160 -468 0
-295 -291 0
-218 -212 0
-319 74 0
103 268 0
-311 -275 0
-213 -166 0
143 -9 0
388 -442 0
211 -185 0
-387 -20 0
-273 -14 0
-227 -474 0
-333 485 0
-153 -123 0
-206 -476 0
76 284 0
-131 -72 0
193 -441 0
-135 399 0
-263 -5 0
69 -61 0
-65 -47 0
106 -416 0
15 27 0
39 -439 0
-476 -121 0
-253 404 0
308 -27 0
-326 -172 0
320 32 0
162 235 0
-312 43 0
55 150 0
-55 -326 0
-54 377 0
-133 -447 0
490 -186 0
-276 -95 0
-111 -160 0
-278 19 0
252 157 0
357 64 0
280 -134 0
267 -416 0
489 340 0
238 377 0
-255 263 0
-166 131 0
-393 143 0
469 102 0
-145 -251 0
458 -279 0
-495 -189 0
154 -275 0
-138 -156 0
366 466 0
-273 326 0
69 273 0
243 -285 0
-231 73 0
-83 222 0
400 432 0
-313 -16 0
-2 106 0
286 41 0
-75 501 0
-26 -412 0
-183 -461 0
261 392 0
-75 340 0
-244 -315 0
-41 -178 0
-370 381 0
235 44 0
-479 198 0
-347 147 0
435 -323 0
354 444 0
-485 258 0
74 -133 0
-160 234 0
-423 -466 0
-398 320 0
-355 -37 0
-159 140 0
-402 247 0
-231 -286 0
-381 -407 0
-239 301 0
340 -254 0
-434 244 0
-14 466 0
-421 -453 0
-7 446 0
-504 175 0
182 387 0
97 -460 0
175 25 0
115 -23 0
-264 396 0
-348 335 0
-123 -304 0
388 162 0
-423 135 0
178 -234 0
405 -225 0
-239 27 0
174 456 0
86 415 0
-207 40 0
377 -54 0
-125 63 0
370 22 0
175 -127 0
55 -196 0
-96 -331 0
233 388 0
-261 364 0
84 -431 0
-153 -232 0
258 190 0
214 -189 0
354 438 0
492 137 0
-351 -212 0
167 -402 0
487 -29 0
260 151 0
344 59 0
436 -354 0
-23 -494 0
174 135 0
-434 -125 0
-74 336 0
38 -335 0
-453 221 0
-297 -291 0
-327 408 0
-75 -224 0
-202 357 0
-17 372 0
390 -28 0
-190 -364 0
172 -166 0
223 354 0
254 211 0
-439 124 0
-501 -421 0
-100 -451 0
102 -201 0
-211 98 0
388 -21 0
128 347 0
-422 -19 0
-327 235 0
317 196 0
-54 -298 0
148 -426 0
-493 -358 0
441 437 0
-310 238 0
-312 -492 0
311 119 0
144 -27 0
-19 -175 0
115 -150 0
-250 398 0
164 192 0
-445 -286 0
-492 111 0
83 -72 0
207 38 0
-129 -297 0
144 491 0
-111 21 0
115 -264 0
292 -21 0
-148 -33 0
-94 163 0
172 15 0
318 -101 0
-296 329 0
269 322 0
-477 415 0
394 335 0
-418 109 0
175 -190 0
235 -272 0
-333 76 0
306 252 0
-381 392 0
167 -206 0
55 315 0
-433 103 0
-6 -443 0
-108 -456 0
-144 -123 0
31 -359 0
-330 -212 0
-278 154 0
-425 -49 0
-317 13 0
370 -220 0
86 -54 0
-121 -423 0
177 -132 0
257 35 0
425 -364 0
-90 44 0
211 -298 0
-228 -286 0
-208 -34 0
-330 -23 0
-272 136 0
-144 -378 0
-363 -231 0
240 -423 0
-146 452 0
-328 -74 0
-374 141 0
466 -364 0
308 -42 0
253 -413 0
112 468 0
420 446 0
-266 152 0
-256 453 0
-161 245 0
302 449 0
-475 -153 0
158 116 0
304 -315 0
430 8 0
-69 -460 0
-501 -173 0
-26 491 0
-370 -30 0
362 -161 0
-122 -171 0
-27 477 0
-237 -68 0
-156 -447 0
-359 43 0
453 155 0
-469 -243 0
-56 -478 0
97 -469 0
332 168 0
332 -442 0
-32 -165 0
-422 -312 0
482 -140 0
-232 -313 0
-385 -166 0
-343 -215 0
-268 303 0
-161 445 0
80 -375 0
400 -139 0
502 445 0
94 417 0
222 114 0
441 -208 0
164 282 0
-24 -277 0
-115 -381 0
-469 -74 0
293 -406 0
210 -5 0
-57 -62 0
39 -30 0
127 -33 0
-314 379 0
-451 468 0
-178 44 0
-139 409 0
-366 338 0
154 -497 0
-439 4 0
-474 345 0
-11 423 0
414 503 0
175 194 0
55 -403 0
392 -153 0
-28 140 0
234 230 0
217 -111 0
-9 270 0
-252 -26 0
-458 -201 0
-145 -169 0
221 286 0
256 260 0
-179 -497 0
-222 -307 0
-272 346 0
-360 -213 0
-7 -11 0
-322 -272 0
256 108 0
455 -29 0
217 -237 0
-217 126 0
-483 156 0
332 21 0
-328 -377 0
-317 -429 0
-139 320 0
-81 -7 0
-89 198 0
-65 -166 0
504 -75 0
30 119 0
235 -213 0
-481 310 0
-362 478 0
270 -190 0
-93 240 0
-396 35 0
39 349 0
-324 85 0
304 -103 0
-11 -195 0
230 -258 0
-187 260 0
-471 381 0
411 -261 0
-95 -285 0
40 -445 0
-82 74 0
234 -374 0
-5 -336 0
-30 340 0
-164 -363 0
-74 253 0
-415 -401 0
354 -197 0
-22 -215 0
-156 463 0
-288 35 0
-279 -307 0
-423 -44 0
-125 303 0
48 -161 0
-179 -444 0
34 298 0
302 472 0
312 -311 0
-426 -279 0
-105 -312 0
-240 40 0
124 -299 0
-434 -350 0
454 119 0
-502 -452 0
-187 102 0
383 505 0
-339 482 0
-17 419 0
-398 -479 0
-465 -79 0
301 -108 0
270 -73 0
45 -437 0
304 -423 0
-250 208 0
-37 -366 0
254 73 0
461 154 0
-456 247 0
-179 -157 0
-496 289 0
124 -264 0
-142 -246 0
-88 -138 0
-210 163 0
57 249 0
-376 -373 0
-290 -434 0
220 -295 0
310 324 0
-370 -206 0
-417 238 0
-176 156 0
386 481 0
467 270 0
-334 -355 0
-155 499 0
393 314 0
-37 -59 0
-251 377 0
-454 -433 0
207 -326 0
-420 64 0
-113 -227 0
219 276 0
257 -113 0
-132 -140 0
58 -148 0
408 -101 0
78 8 0
-474 467 0
-287 289 0
163 15 0
404 -81 0
-393 31 0
-391 203 0
396 219 0
124 407 0
249 165 0
16 211 0
304 68 0
-138 -462 0
-342 -72 0
-376 -350 0
-395 299 0
352 177 0
-291 306 0
249 196 0
-252 155 0
62 340 0
176 271 0
-148 339 0
90 -176 0
-409 -92 0
-142 -314 0
17 235 0
-312 -443 0
309 369 0
193 -416 0
-61 157 0
-88 237 0
352 -496 0
-65 400 0
-350 -309 0
292 -443 0
137 169 0
-246 -230 0
241 -26 0
432 165 0
290 449 0
44 -229 0
290 -139 0
-429 -332 0
-187 368 0
221 390 0
-347 -315 0
-443 38 0
399 393 0
-204 -375 0
-5 425 0
3 369 0
-71 -275 0
463 -153 0
-200 -164 0
-277 -69 0
-197 221 0
308 -308 0
54 102 0
-239 426 0
339 -122 0
454 121 0
-74 41 0
214 -385 0
292 -502 0
304 -216 0
-334 -89 0
394 371 0
247 106 0
-189 -89 0
-262 97 0
147 270 0
127 -220 0
-208 -371 0
-181 318 0
290 -206 0
213 330 0
472 307 0
-235 368 0
-83 118 0
230 -140 0
-431 356 0
270 437 0
338 461 0
-139 78 0
24 330 0
-364 455 0
-200 388 0
211 -479 0
149 -146 0
270 338 0
-486 -493 0
-128 -1 0
-223 305 0
-37 -259 0
-9 -456 0
-407 -277 0
-35 339 0
-354 300 0
23 168 0
-442 -337 0
142 -204 0
-450 271 0
-261 170 0
76 -272 0
-9 66 0
118 13 0
-372 116 0
-395 -174 0
-281 -245 0
126 -322 0
258 466 0
322 394 0
127 162 0
-253 50 0
-298 -7 0
381 135 0
-199 155 0
-309 194 0
447 -247 0
95 320 0
79 24 0
174 -352 0
-444 49 0
361 -185 0
407 -105 0
170 -106 0
201 128 0
-389 457 0
-154 205 0
-431 -146 0
-180 24 0
-362 -164 0
-26 -309 0
100 106 0
-246 23 0
462 -72 0
247 -72 0
116 473 0
-358 359 0
-11 308 0
-87 -166 0
50 -302 0
4 34 0
50 -265 0
4 -394 0
3 -500 0
48 184 0
122 124 0
-105 -386 0
407 -232 0
282 -273 0
62 -124 0
-198 -232 0
109 -380 0
-214 384 0
-41 -464 0
115 301 0
-461 397 0
-81 -282 0
324 35 0
398 58 0
463 -78 0
299 354 0
-475 -77 0
-17 -478 0
-179 494 0
-501 44 0
-46 -210 0
-475 -191 0
500 -85 0
-387 177 0
-156 493 0
-276 434 0
-67 53 0
-427 -496 0
131 -188 0
-233 174 0
313 -459 0
-149 -140 0
-147 -225 0
314 -267 0
-370 435 0
410 264 0
500 387 0
-78 -125 0
154 -165 0
-91 -74 0
-488 477 0
-191 112 0
-373 -39 0
-11 329 0
366 235 0
-297 -27 0
-283 500 0
-92 -221 0
-469 126 0
-14 304 0
4 378 0
303 -497 0
-378 301 0
138 382 0
-478 430 0
-17 -367 0
-325 -347 0
-89 -319 0
421 -425 0
-214 -74 0
-441 393 0
157 -443 0
-290 499 0
373 -423 0
-334 -359 0
-225 -355 0
-363 -375 0
120 505 0
234 -430 0
482 -292 0
-473 -28 0
-176 -209 0
369 -146 0
-239 134 0
483 242 0
466 257 0
-341 35 0
466 -285 0
-127 494 0
-146 -390 0
458 -101 0
-6 -13 0
-299 -421 0
-378 -208 0
418 -20 0
271 -254 0
302 -336 0
-226 -464 0
-306 321 0
243 303 0
167 388 0
-418 54 0
-37 -92 0
317 284 0
441 -142 0
5 150 0
249 -238 0
135 192 0
268 -173 0
408 78 0
-181 171 0
-199 -158 0
382 -191 0
-280 -382 0
-92 -163 0
-32 -71 0
-189 -152 0
-52 -179 0
475 -42 0
-103 -131 0
282 274 0
-166 -484 0
426 -72 0
-331 323 0
-301 271 0
-319 -48 0
-426 95 0
44 -288 0
282 -94 0
-195 -490 0
290 -132 0
-228 166 0
136 -141 0
-389 -185 0
-490 -386 0
-406 133 0
241 126 0
491 -386 0
-293 48 0
-63 131 0
370 -417 0
-294 -329 0
-362 -196 0
412 -238 0
494 456 0
-326 417 0
-262 -457 0
413 352 0
287 -181 0
-264 237 0
-11 -296 0
209 -273 0
250 115 0
9 -83 0
144 -264 0
-36 428 0
399 215 0
-214 169 0
-347 219 0
-493 301 0
452 128 0
-421 -270 0
-370 -279 0
343 -236 0
366 369 0
-234 -61 0
-160 135 0
198 -472 0
-478 -61 0
-166 -439 0
-88 66 0
486 286 0
335 -387 0
-185 -448 0
338 -37 0
80 -232 0
341 404 0
436 233 0
264 -448 0
-40 39 0
165 159 0
-244 -161 0
182 -328 0
167 -105 0
55 -227 0
-54 344 0
308 -388 0
-202 -116 0
400 446 0
390 -24 0
-190 324 0
-216 -497 0
-433 335 0
308 -282 0
-71 502 0
249 -469 0
-264 23 0
-6 496 0
158 -165 0
-312 -42 0
300 429 0
23 66 0
-234 -186 0
-441 -53 0
-373 -319 0
97 70 0
194 259 0
68 368 0
150 448 0
69 -52 0
25 -161 0
-456 50 0
163 438 0
-440 -124 0
-117 -129 0
345 -220 0
-148 344 0
46 -105 0
-475 -238 0
-1 -331 0
139 -10 0
-8 267 0
-54 -189 0
-87 477 0
-385 131 0
-144 -373 0
117 -96 0
-326 478 0
-11 -401 0
247 -69 0
-238 151 0
-465 64 0
-317 -148 0
45 482 0
-218 -181 0
-426 -4 0
-299 131 0
-149 399 0
-227 -263 0
-14 21 0
251 470 0
-30 -277 0
-68 -213 0
-266 -401 0
168 -49 0
-491 388 0
-385 -11 0
115 99 0
18 404 0
143 164 0
-159 126 0
-105 -406 0
-281 337 0
346 77 0
302 162 0
290 -366 0
498 61 0
268 86 0
-189 398 0
242 427 0
-391 468 0
-375 -466 0
405 176 0
-355 -309 0
-362 -459 0
369 469 0
7 -281 0
172 -226 0
-283 -145 0
-44 248 0
-476 482 0
-237 -190 0
165 -100 0
-372 -228 0
-248 368 0
-418 474 0
428 -111 0
-470 -236 0
118 258 0
-501 -67 0
333 425 0
243 141 0
247 -465 0
377 121 0
451 -376 0
171 -469 0
79 -206 0
365 127 0
-219 136 0
-166 494 0
342 -280 0
398 156 0
-54 -485 0
-259 -89 0
