c NF
p cnf 957 1818
-5 410 0
-330 -132 0
368 822 0
866 -364 0
531 802 0
-954 -258 0
-12 -239 0
-263 98 0
318 71 0
-648 898 0
-757 426 0
-685 295 0
340 539 0
-49 420 0
570 -723 0
-504 -560 0
-712 481 0
-852 -68 0
740 811 0
-389 544 0
-472 266 0
-351 101 0
-465 -587 0
-6 -708 0
21 -337 0
582 -649 0
723 773 0
307 -715 0
532 822 0
-370 -908 0
-764 -649 0
-315 -552 0
93 -385 0
414 -842 0
-856 -597 0
895 -105 0
775 -194 0
-794 938 0
755 556 0
399 -951 0
500 886 0
-16 716 0
500 554 0
-691 -251 0
482 158 0
-194 784 0
202 -409 0
549 458 0
344 -401 0
537 436 0
262 769 0
204 -597 0
-330 382 0
683 -137 0
75 -4 0
259 797 0
-402 -20 0
409 -602 0
-882 -64 0
809 -677 0
-576 829 0
114 377 0
-741 825 0
-559 -393 0
467 901 0
759 -59 0
-337 -27 0
536 -680 0
-448 359 0
-617 259 0
903 -766 0
314 -514 0
647 118 0
684 404 0
704 -134 0
790 289 0
269 101 0
863 -219 0
384 675 0
19 -682 0
-856 562 0
-873 6 0
271 384 0
71 463 0
-865 391 0
-120 572 0
-590 260 0
-792 -423 0
790 715 0
-933 -469 0
489 214 0
-247 895 0
771 -601 0
916 -385 0
-85 384 0
-626 451 0
763 530 0
-672 -850 0
552 904 0
396 909 0
-120 314 0
-79 118 0
-951 67 0
-501 556 0
-829 467 0
346 408 0
-899 337 0
-853 -926 0
-823 -440 0
232 -480 0
272 542 0
821 244 0
510 744 0
921 -67 0
683 -289 0
953 -351 0
-383 -794 0
-673 293 0
442 45 0
499 -902 0
218 -891 0
-543 924 0
-107 -859 0
476 917 0
-125 -336 0
-188 38 0
-834 -120 0
462 126 0
-879 556 0
-250 -262 0
437 -625 0
-793 -342 0
-907 -5 0
376 -944 0
878 -766 0
-203 82 0
350 901 0
704 702 0
-481 -472 0
-173 379 0
-211 263 0
317 -857 0
-786 -304 0
-858 -851 0
-472 667 0
-725 446 0
-370 -716 0
313 -344 0
-93 -146 0
-873 419 0
210 -64 0
-701 -585 0
60 -362 0
-199 423 0
-601 -658 0
328 -850 0
-449 -927 0
372 419 0
520 116 0
-521 -500 0
-57 335 0
-877 -908 0
-51 -190 0
914 -422 0
-381 -94 0
-211 939 0
-915 -521 0
-362 -45 0
730 -409 0
340 -362 0
934 171 0
179 -148 0
430 -926 0
920 225 0
21 360 0
927 -30 0
-637 795 0
374 -143 0
-48 151 0
7 774 0
-134 -309 0
-359 -413 0
9 341 0
-116 -156 0
-494 -506 0
-856 -501 0
-29 298 0
47 429 0
-575 -915 0
608 414 0
64 259 0
-652 -512 0
279 769 0
112 659 0
-626 487 0
924 101 0
748 -184 0
-776 546 0
368 381 0
471 446 0
394 -736 0
-200 -767 0
536 727 0
267 -295 0
953 745 0
818 -422 0
815 802 0
-501 -225 0
843 -455 0
601 358 0
724 214 0
806 -339 0
-369 -549 0
588 -546 0
-861 460 0
807 -154 0
233 -137 0
46 930 0
-657 765 0
35 -81 0
77 -33 0
-804 151 0
223 -531 0
-122 32 0
191 952 0
943 -653 0
-413 790 0
406 297 0
23 220 0
-619 293 0
431 808 0
-360 196 0
-564 -111 0
849 45 0
-729 -313 0
436 -176 0
-57 -154 0
149 138 0
675 110 0
403 414 0
127 -450 0
-196 -706 0
50 -829 0
578 259 0
-383 -91 0
-205 812 0
138 -478 0
-805 166 0
755 -819 0
-729 372 0
-56 -665 0
-674 -159 0
437 171 0
680 -582 0
656 -805 0
763 -407 0
223 -42 0
-614 -779 0
-482 -383 0
275 213 0
117 367 0
698 400 0
-35 -685 0
-216 939 0
830 91 0
773 473 0
818 75 0
436 -468 0
427 809 0
-525 872 0
-190 -649 0
-668 901 0
192 -685 0
537 417 0
614 642 0
-555 -871 0
-638 444 0
-527 -551 0
-666 301 0
-842 636 0
223 -29 0
-758 212 0
-596 -454 0
903 806 0
228 86 0
-348 -455 0
11 -525 0
-221 -402 0
6 569 0
-234 289 0
-230 312 0
-365 -841 0
457 -27 0
-529 -199 0
-232 752 0
-229 340 0
-780 -741 0
-156 -218 0
-662 -658 0
43 -469 0
781 810 0
526 820 0
-364 -914 0
-546 -911 0
363 753 0
-67 -193 0
-494 811 0
243 920 0
719 -907 0
577 -258 0
-651 471 0
555 -464 0
930 366 0
2 -323 0
-853 -533 0
260 528 0
367 399 0
-926 -143 0
868 -821 0
780 557 0
-926 747 0
-887 -97 0
-590 874 0
-39 608 0
945 -29 0
421 425 0
-273 -587 0
-194 -146 0
829 803 0
185 -754 0
364 -663 0
37 -205 0
-457 34 0
952 263 0
420 -354 0
-212 -182 0
793 792 0
182 -692 0
-26 454 0
821 421 0
648 127 0
-882 -908 0
485 394 0
18 633 0
-722 694 0
401 224 0
-741 -493 0
-460 936 0
-337 51 0
419 384 0
-81 783 0
825 624 0
864 -270 0
-409 -793 0
53 -457 0
-176 734 0
-480 -427 0
661 368 0
680 184 0
-184 -312 0
-106 -561 0
732 -56 0
458 -838 0
-834 265 0
266 -867 0
-591 573 0
-543 439 0
601 293 0
287 -598 0
-370 -289 0
-288 448 0
-897 -921 0
118 25 0
90 -723 0
-130 -840 0
-887 -189 0
43 314 0
-695 -460 0
667 31 0
-308 -30 0
-76 -580 0
31 -32 0
235 64 0
-761 -623 0
-729 674 0
-944 -39 0
576 686 0
944 191 0
798 -922 0
-852 -607 0
935 -800 0
57 -637 0
-431 -928 0
271 456 0
788 202 0
803 -600 0
890 303 0
-632 -925 0
846 -950 0
200 648 0
529 35 0
-926 268 0
176 -78 0
-709 -610 0
-645 953 0
452 -245 0
-474 -865 0
-749 -618 0
-843 -177 0
-15 482 0
824 -226 0
450 731 0
446 -60 0
-283 369 0
894 -804 0
-107 671 0
-706 -886 0
846 69 0
-2 -459 0
-409 -639 0
216 295 0
717 408 0
-32 -593 0
-547 519 0
534 -683 0
-187 624 0
-929 -496 0
-646 240 0
-342 911 0
619 -955 0
265 453 0
-222 927 0
-384 459 0
408 858 0
335 782 0
506 -377 0
410 -855 0
57 -856 0
-364 -199 0
220 802 0
-20 167 0
283 -344 0
-197 251 0
804 167 0
644 -79 0
-906 878 0
870 -857 0
-339 -277 0
-696 107 0
13 -35 0
-304 -335 0
612 52 0
-226 -650 0
-673 -553 0
-725 529 0
950 -261 0
209 -336 0
-725 563 0
628 -343 0
-637 -887 0
350 72 0
606 -555 0
-166 270 0
-565 -769 0
149 888 0
-224 41 0
203 592 0
110 -56 0
953 641 0
460 198 0
-579 640 0
-291 359 0
-453 -391 0
582 65 0
-884 -509 0
-723 -475 0
672 651 0
460 -17 0
-42 -393 0
538 324 0
-136 -565 0
17 -310 0
-65 37 0
765 -933 0
-524 -625 0
-256 764 0
589 361 0
52 125 0
-661 -496 0
264 429 0
-593 386 0
438 329 0
-271 -913 0
699 221 0
-610 355 0
-772 -558 0
-81 -183 0
856 65 0
-826 -943 0
-102 56 0
-672 -132 0
-828 -910 0
-875 -153 0
79 306 0
259 -835 0
-468 608 0
-891 -108 0
740 -343 0
-865 -340 0
-76 614 0
-608 -393 0
863 341 0
924 529 0
399 -541 0
750 -378 0
198 -852 0
-901 -14 0
-66 750 0
-259 615 0
-771 -304 0
-361 -148 0
-555 -469 0
-401 -76 0
128 144 0
403 -605 0
633 178 0
66 -672 0
182 271 0
168 334 0
-336 224 0
629 -43 0
-379 820 0
-509 -288 0
-254 -869 0
-604 -781 0
157 -474 0
727 -608 0
-532 -388 0
355 868 0
456 45 0
816 656 0
-45 538 0
-377 -913 0
-493 -275 0
-600 -188 0
448 790 0
-210 -507 0
938 -211 0
71 442 0
-194 346 0
-899 425 0
-497 -420 0
806 -144 0
-148 911 0
-333 -482 0
758 -286 0
-689 934 0
-137 -87 0
-858 39 0
-307 819 0
402 -182 0
227 -357 0
-367 591 0
920 -729 0
809 -121 0
-735 -720 0
-913 -920 0
203 847 0
-143 -786 0
485 224 0
769 -190 0
350 461 0
-677 -95 0
-443 -556 0
349 -15 0
174 -495 0
-163 -186 0
757 412 0
760 956 0
882 -672 0
957 -183 0
350 825 0
-646 -671 0
-610 537 0
-762 90 0
836 -97 0
-253 -44 0
667 -418 0
802 -100 0
22 671 0
520 544 0
-202 -703 0
-189 -888 0
905 755 0
-146 240 0
-870 269 0
-814 454 0
-850 -687 0
-292 656 0
-550 -68 0
-539 343 0
335 622 0
295 899 0
689 -655 0
802 177 0
-780 742 0
-835 285 0
-482 825 0
-22 123 0
-118 251 0
-294 -831 0
-155 -942 0
174 -742 0
64 -227 0
-736 -559 0
58 836 0
283 -418 0
198 -884 0
870 489 0
165 -392 0
-420 291 0
168 -940 0
773 339 0
-515 -710 0
-396 369 0
419 -615 0
-39 63 0
-349 407 0
-159 -539 0
275 -574 0
-579 -693 0
-612 71 0
530 592 0
573 -35 0
107 905 0
-156 701 0
16 -550 0
363 -239 0
-304 -596 0
659 414 0
-730 -110 0
165 94 0
823 671 0
798 -137 0
1 -696 0
-413 -386 0
830 615 0
314 721 0
-894 641 0
-327 -858 0
376 297 0
-701 89 0
735 936 0
-356 878 0
-455 -186 0
-915 -25 0
-874 828 0
882 755 0
-118 177 0
345 -135 0
-278 -953 0
702 31 0
463 -812 0
297 -685 0
678 874 0
358 -196 0
-798 538 0
410 478 0
115 266 0
601 -575 0
163 293 0
374 -443 0
-859 -190 0
549 165 0
60 652 0
118 136 0
-817 491 0
-26 -187 0
585 508 0
-854 -543 0
486 216 0
598 247 0
822 231 0
-219 422 0
-490 373 0
-69 607 0
68 269 0
-805 -216 0
213 14 0
419 -258 0
-752 825 0
493 606 0
-211 321 0
-864 -460 0
698 -843 0
-564 628 0
941 329 0
-719 -574 0
-533 -894 0
352 -455 0
541 -455 0
-185 -632 0
114 880 0
721 -211 0
-792 -622 0
408 -567 0
352 811 0
-473 412 0
647 456 0
215 664 0
-359 890 0
143 -800 0
-129 -910 0
-15 698 0
212 651 0
870 77 0
916 -399 0
-181 309 0
944 -809 0
-947 537 0
-323 -508 0
440 -181 0
-907 -436 0
-909 847 0
352 -342 0
950 747 0
-297 -400 0
887 900 0
843 -687 0
732 -35 0
579 621 0
249 -24 0
-654 -549 0
301 210 0
-520 -700 0
-284 749 0
-913 803 0
-166 807 0
-222 -343 0
-572 -611 0
272 228 0
937 -162 0
-684 -44 0
-31 487 0
-411 25 0
87 523 0
-367 -456 0
-555 -709 0
633 947 0
45 357 0
226 919 0
-871 741 0
-450 -780 0
427 -570 0
707 615 0
-84 -745 0
-174 325 0
537 -906 0
-950 607 0
683 633 0
-21 265 0
-425 -489 0
774 28 0
941 -499 0
-621 265 0
-120 -533 0
248 -846 0
-693 71 0
251 731 0
-583 -929 0
923 340 0
-631 -257 0
-701 397 0
457 -25 0
-343 541 0
435 471 0
-93 -593 0
-244 572 0
42 952 0
-384 -800 0
831 -415 0
240 283 0
734 216 0
562 -426 0
246 592 0
271 -351 0
-175 331 0
-896 657 0
65 774 0
-19 36 0
-481 -204 0
-329 -777 0
801 -179 0
-693 -339 0
-800 -73 0
-301 427 0
-918 -422 0
724 -663 0
-856 -93 0
827 601 0
425 424 0
-802 -852 0
-854 562 0
524 454 0
361 348 0
99 110 0
449 681 0
-159 455 0
180 -194 0
-633 -328 0
40 -816 0
82 -557 0
534 733 0
-158 -184 0
285 679 0
-155 149 0
-859 -881 0
74 -626 0
768 -492 0
-145 17 0
170 624 0
400 -105 0
-583 504 0
-719 -162 0
403 233 0
420 518 0
-637 852 0
511 -512 0
702 -717 0
-67 635 0
822 -793 0
319 -430 0
901 860 0
659 -774 0
-827 -294 0
546 599 0
325 -637 0
-821 -57 0
-548 -473 0
-244 225 0
-302 -545 0
873 174 0
-94 457 0
759 -108 0
416 -928 0
370 621 0
-278 -440 0
313 473 0
-822 -776 0
876 760 0
172 77 0
-163 -175 0
190 -115 0
503 -320 0
-717 942 0
-468 586 0
603 -574 0
253 647 0
329 138 0
461 556 0
-124 -936 0
-134 156 0
512 -946 0
-443 -777 0
599 -395 0
664 139 0
-83 682 0
-626 341 0
300 -629 0
-719 -182 0
-696 25 0
-246 -825 0
-900 -710 0
151 112 0
798 -257 0
-533 668 0
376 703 0
-223 722 0
34 825 0
947 938 0
-587 -199 0
934 623 0
101 -213 0
168 581 0
462 40 0
-564 388 0
810 -336 0
-916 -707 0
-140 280 0
-20 886 0
-536 -5 0
-523 -946 0
905 -14 0
-289 -611 0
-872 856 0
664 526 0
83 251 0
-592 114 0
219 -777 0
477 839 0
612 939 0
140 17 0
-102 -228 0
-53 878 0
-404 104 0
545 -227 0
720 78 0
-581 831 0
689 -514 0
911 -284 0
-255 234 0
283 122 0
363 -376 0
334 -858 0
-931 -942 0
-918 426 0
633 278 0
-850 875 0
511 850 0
-718 -558 0
233 806 0
-275 -622 0
-359 -257 0
-3 792 0
-876 -457 0
700 479 0
52 573 0
203 208 0
-886 -124 0
-762 671 0
794 261 0
-808 -32 0
309 -141 0
-486 -669 0
922 253 0
167 816 0
305 669 0
-949 6 0
621 -257 0
-746 429 0
-851 770 0
802 30 0
301 -114 0
-777 -641 0
-283 -299 0
-596 214 0
870 -380 0
651 -312 0
-114 -422 0
-546 -759 0
537 -818 0
-428 187 0
-84 23 0
-355 285 0
844 -79 0
740 -353 0
521 846 0
807 -2 0
375 -681 0
-255 -370 0
-541 664 0
-2 -362 0
-587 -745 0
-360 255 0
-280 812 0
-725 -644 0
-574 916 0
181 -826 0
915 -284 0
-497 -78 0
-738 13 0
-631 -666 0
582 864 0
659 509 0
9 300 0
763 -409 0
301 -408 0
-315 -747 0
816 -259 0
253 239 0
486 317 0
14 -469 0
-284 168 0
298 390 0
-286 -388 0
516 -814 0
-204 -815 0
340 865 0
191 -884 0
28 -405 0
653 894 0
94 -286 0
220 -770 0
-200 -270 0
-20 563 0
-779 -646 0
678 797 0
369 -580 0
-79 -738 0
-569 -94 0
220 -610 0
414 503 0
663 623 0
-423 588 0
-146 797 0
368 -294 0
-106 174 0
358 -276 0
-188 -859 0
-847 -513 0
883 573 0
-514 875 0
-915 -235 0
828 -729 0
319 -198 0
-9 -779 0
-93 87 0
-411 419 0
-140 358 0
-222 33 0
98 -239 0
-120 -613 0
167 -501 0
265 -368 0
-583 376 0
-228 -777 0
-206 318 0
829 466 0
892 -358 0
-402 -938 0
469 -8 0
881 633 0
-663 454 0
50 -171 0
-156 -194 0
-186 -767 0
-26 644 0
748 -356 0
-247 -78 0
-182 -630 0
-547 628 0
-677 -658 0
185 -560 0
770 497 0
-596 -509 0
-9 -560 0
95 -343 0
-35 -785 0
-745 -909 0
848 -196 0
297 109 0
142 -616 0
-559 259 0
381 571 0
836 -421 0
225 -480 0
469 746 0
-519 -804 0
46 -864 0
249 -321 0
170 -920 0
92 -653 0
115 589 0
243 281 0
692 -440 0
743 -162 0
-283 739 0
306 -718 0
263 278 0
-119 -546 0
-455 -256 0
-899 727 0
45 -55 0
937 -616 0
6 474 0
912 177 0
119 717 0
668 -208 0
530 484 0
-567 667 0
-826 435 0
860 488 0
-528 -807 0
937 940 0
918 177 0
715 874 0
870 -80 0
-60 -638 0
-779 124 0
883 -541 0
-413 -869 0
-843 934 0
862 437 0
713 433 0
107 -329 0
-719 -257 0
-61 -156 0
-404 702 0
534 -437 0
435 809 0
-832 -528 0
86 -595 0
-762 128 0
236 218 0
834 635 0
645 261 0
-386 -484 0
-267 -166 0
-153 69 0
400 -732 0
264 -281 0
478 -165 0
222 51 0
307 -186 0
-277 -886 0
-365 -450 0
-331 803 0
-581 -563 0
264 -16 0
571 -278 0
230 -855 0
101 -730 0
942 214 0
621 -195 0
-367 -117 0
-94 383 0
-791 811 0
-931 324 0
-254 217 0
-685 711 0
497 -129 0
582 331 0
-84 -664 0
-621 -409 0
-127 830 0
-71 109 0
-89 -618 0
-436 803 0
-144 425 0
-639 51 0
713 -877 0
-547 -346 0
923 662 0
-316 493 0
700 -765 0
-765 -444 0
144 848 0
68 482 0
890 -450 0
-822 -83 0
862 -815 0
830 728 0
301 -956 0
-590 -307 0
294 -625 0
205 -346 0
-593 234 0
486 -121 0
358 -276 0
-596 -433 0
419 909 0
709 187 0
890 683 0
-895 298 0
-695 -672 0
67 -246 0
-522 144 0
-155 479 0
128 -929 0
-398 -173 0
-212 -419 0
-500 -844 0
-859 72 0
614 145 0
400 715 0
725 461 0
-433 -596 0
-346 -415 0
-7 -876 0
889 -48 0
400 304 0
-708 -81 0
-914 -347 0
-412 -575 0
811 -238 0
-560 -180 0
-202 107 0
753 -66 0
-94 -827 0
-614 434 0
-201 -328 0
-625 -100 0
-178 -5 0
569 -98 0
-558 -669 0
-712 589 0
-150 -943 0
354 -853 0
643 352 0
790 796 0
87 14 0
305 397 0
-214 260 0
271 895 0
385 540 0
574 -507 0
-335 -336 0
-474 845 0
764 -525 0
-533 648 0
325 2 0
506 141 0
643 896 0
334 -880 0
-560 -155 0
-695 269 0
-665 177 0
-62 -742 0
-214 786 0
323 919 0
-578 -190 0
-84 -687 0
851 503 0
-903 -869 0
-85 310 0
343 679 0
847 -757 0
-622 64 0
-386 -406 0
612 -101 0
721 -5 0
-105 322 0
198 253 0
266 737 0
110 114 0
652 359 0
625 -252 0
495 -5 0
649 -794 0
372 -26 0
195 406 0
479 952 0
-864 -887 0
933 -108 0
726 -256 0
328 -516 0
829 418 0
-338 7 0
271 895 0
844 -575 0
528 -602 0
-452 -179 0
686 314 0
-215 399 0
-915 458 0
5 -723 0
-763 -781 0
-144 -384 0
520 -35 0
538 -13 0
-596 743 0
598 -450 0
940 915 0
-653 -238 0
910 909 0
717 -930 0
24 125 0
720 13 0
410 769 0
448 -771 0
-649 478 0
306 40 0
-321 252 0
-742 23 0
621 -450 0
820 -425 0
-455 248 0
238 335 0
571 -424 0
40 630 0
-255 707 0
160 902 0
491 -926 0
903 -891 0
-108 637 0
708 -256 0
-509 8 0
-735 144 0
-383 -27 0
765 860 0
-685 341 0
-593 -782 0
-71 -353 0
825 37 0
-137 -308 0
-597 694 0
-174 -867 0
409 -789 0
-161 -947 0
-724 -367 0
596 -130 0
-303 -135 0
538 -140 0
-913 -354 0
-621 -336 0
-79 541 0
-850 -73 0
-393 684 0
448 -288 0
498 13 0
889 1 0
-914 -12 0
-405 -763 0
883 853 0
280 -364 0
340 753 0
770 -507 0
656 816 0
507 -517 0
-277 -861 0
-430 142 0
-206 100 0
449 890 0
794 -627 0
941 312 0
570 803 0
836 111 0
847 231 0
334 910 0
-492 -807 0
-483 -734 0
-292 459 0
904 31 0
722 445 0
-730 -681 0
-155 -358 0
731 335 0
755 795 0
301 617 0
-567 -277 0
-302 566 0
-754 341 0
669 107 0
905 -691 0
-27 -508 0
230 579 0
-531 -383 0
647 313 0
905 -539 0
-231 868 0
157 11 0
-787 -622 0
-124 -758 0
-372 104 0
-505 816 0
-781 375 0
-282 9 0
-166 148 0
192 628 0
-342 631 0
325 217 0
313 648 0
-774 366 0
770 296 0
341 275 0
167 636 0
-869 41 0
153 -926 0
309 332 0
-28 790 0
802 -515 0
-533 478 0
-827 673 0
43 -480 0
-918 954 0
476 506 0
-379 184 0
-735 353 0
949 955 0
-702 312 0
-156 -53 0
-36 -57 0
6 106 0
-396 315 0
-885 -153 0
-956 -929 0
141 -330 0
253 -920 0
-764 762 0
952 448 0
-60 536 0
-320 -953 0
-99 -45 0
813 312 0
-457 -233 0
-886 -720 0
-816 6 0
-607 605 0
237 559 0
-632 192 0
563 -730 0
47 647 0
-772 -687 0
748 636 0
406 169 0
-244 -672 0
-926 705 0
-391 -791 0
-942 769 0
731 801 0
908 584 0
-507 -116 0
226 114 0
-83 -887 0
952 47 0
-33 734 0
-736 325 0
146 51 0
693 -130 0
272 -586 0
-911 839 0
-256 -926 0
652 260 0
784 -381 0
-795 -395 0
862 -351 0
-738 611 0
-256 -800 0
-495 289 0
72 -911 0
-587 890 0
727 925 0
374 -858 0
-299 478 0
-154 -764 0
-189 -411 0
-31 88 0
195 -819 0
-730 744 0
206 786 0
209 421 0
605 -918 0
484 248 0
437 -37 0
-228 954 0
52 836 0
394 863 0
-219 760 0
-881 100 0
-631 688 0
-55 468 0
-907 854 0
-215 -787 0
822 470 0
-312 419 0
270 659 0
-360 340 0
319 188 0
-926 61 0
705 -936 0
-573 -701 0
298 863 0
563 -705 0
553 -644 0
-63 -839 0
532 580 0
840 237 0
97 -270 0
435 334 0
-915 348 0
-603 121 0
510 540 0
-159 -410 0
685 72 0
-252 80 0
-27 -20 0
-281 334 0
-457 -494 0
-948 397 0
-134 -73 0
301 -171 0
-645 -383 0
337 543 0
763 -245 0
-594 641 0
31 -826 0
621 473 0
883 456 0
707 612 0
-571 295 0
-146 851 0
244 -706 0
521 335 0
117 -809 0
202 34 0
-749 206 0
-179 -665 0
288 -627 0
854 39 0
950 -618 0
264 537 0
195 -6 0
-148 -753 0
640 733 0
-719 71 0
220 381 0
350 -469 0
-574 269 0
902 -779 0
45 946 0
-229 630 0
404 277 0
-515 -105 0
912 -581 0
620 2 0
-378 -740 0
883 -724 0
-299 -252 0
28 138 0
461 365 0
-103 60 0
-642 -652 0
385 -433 0
210 442 0
-304 395 0
-369 -39 0
-774 -327 0
-255 -282 0
-234 -635 0
681 11 0
107 108 0
-629 655 0
713 214 0
-373 -364 0
-396 12 0
-37 -132 0
-371 448 0
-560 778 0
515 901 0
-172 930 0
438 -546 0
636 -276 0
-17 -190 0
386 426 0
-93 -206 0
418 -882 0
-12 -228 0
205 688 0
903 -593 0
-157 -768 0
-431 -60 0
-812 376 0
-142 557 0
798 130 0
74 -230 0
-536 -881 0
313 -677 0
160 680 0
-698 -238 0
-542 636 0
86 849 0
-7 -527 0
109 -162 0
948 -577 0
-428 156 0
711 168 0
-309 -560 0
-663 -809 0
-630 -788 0
448 406 0
133 324 0
72 -16 0
755 643 0
-116 -912 0
-232 237 0
446 -320 0
491 33 0
855 268 0
-360 901 0
-466 595 0
265 -879 0
-901 -431 0
290 773 0
713 -372 0
-259 759 0
-498 789 0
-721 334 0
-433 -569 0
261 -258 0
-46 854 0
-356 -336 0
-16 181 0
-894 -535 0
-121 -290 0
689 721 0
-550 -805 0
809 417 0
29 82 0
268 445 0
-572 514 0
905 160 0
-696 -58 0
704 506 0
310 -483 0
214 440 0
-285 97 0
-796 -201 0
-439 -238 0
280 88 0
924 -745 0
445 142 0
-16 698 0
-360 -69 0
-388 584 0
-385 -424 0
664 -184 0
394 -257 0
707 -367 0
-934 -560 0
656 510 0
-749 -72 0
-416 91 0
-95 285 0
-706 -825 0
-224 253 0
1 445 0
931 -100 0
-759 -554 0
94 769 0
844 -14 0
-6 169 0
-761 437 0
-265 905 0
300 702 0
863 532 0
-219 321 0
-264 -316 0
862 332 0
5 -791 0
905 458 0
-396 -84 0
279 778 0
789 803 0
-550 -403 0
-650 53 0
615 -117 0
123 889 0
-809 -627 0
-810 937 0
-349 294 0
-186 621 0
615 -706 0
-430 -513 0
607 558 0
24 829 0
-801 -58 0
481 -430 0
-394 -186 0
623 -185 0
647 160 0
-708 -913 0
894 -306 0
-401 -558 0
661 -886 0
4 773 0
-597 208 0
-545 831 0
527 697 0
-67 -495 0
717 641 0
291 -2 0
-130 -803 0
-180 -716 0
331 -845 0
295 -303 0
-516 -448 0
191 -765 0
-674 197 0
811 -366 0
-757 494 0
-571 -398 0
-3 953 0
-433 172 0
260 77 0
324 -229 0
114 -755 0
-872 413 0
553 -777 0
876 -792 0
-450 114 0
309 516 0
-201 -138 0
159 253 0
-193 -501 0
-99 358 0
-604 896 0
318 218 0
-61 -678 0
109 -311 0
685 1 0
-595 953 0
350 -462 0
-845 -638 0
-26 881 0
-39 258 0
232 901 0
456 -456 0
-495 335 0
525 -30 0
702 -443 0
-28 157 0
621 -545 0
-401 476 0
-760 174 0
-379 642 0
259 937 0
-869 -903 0
561 218 0
-794 701 0
76 562 0
349 -234 0
948 -708 0
-611 -48 0
837 620 0
-156 237 0
-548 -510 0
212 510 0
359 -210 0
954 -225 0
-951 -902 0
-692 712 0
734 -552 0
-922 263 0
-127 -852 0
239 925 0
-140 -502 0
-250 -188 0
-899 487 0
-574 -407 0
434 -107 0
862 752 0
-115 -799 0
461 -79 0
-151 -108 0
848 -504 0
-198 38 0
334 -48 0
-159 -453 0
-497 -94 0
237 -872 0
-204 -77 0
130 -539 0
-32 -927 0
-609 -423 0
810 -398 0
903 426 0
-649 930 0
857 136 0
151 -76 0
-131 744 0
-498 -333 0
-202 829 0
-488 -257 0
-203 925 0
-465 -799 0
456 -380 0
876 158 0
-809 389 0
776 -542 0
-231 -74 0
725 -777 0
673 694 0
-927 952 0
737 -387 0
940 325 0
-389 570 0
574 -776 0
-152 192 0
-706 -151 0
-524 -155 0
-190 942 0
751 427 0
-741 -83 0
763 -493 0
-792 377 0
-957 549 0
469 588 0
58 340 0
534 15 0
-590 -662 0
369 -918 0
-618 728 0
75 905 0
-311 403 0
-922 -528 0
-282 628 0
-575 -947 0
938 953 0
687 -181 0
639 764 0
-441 70 0
854 458 0
139 805 0
698 -336 0
-558 375 0
785 -794 0
-783 -389 0
307 -792 0
909 146 0
-38 -723 0
437 815 0
740 890 0
-630 939 0
-490 28 0
-336 -399 0
-496 -257 0
-555 -841 0
-348 802 0
