c NF
p cnf 1937 5424
-280 -991 0
-760 1743 0
276 782 0
-1018 1558 0
-142 784 0
1285 -595 0
628 -1726 0
1197 -1751 0
1495 -738 0
1150 -424 0
552 270 0
735 -1870 0
-120 309 0
122 -442 0
1705 -846 0
230 -1204 0
-1389 763 0
1523 -1734 0
867 -535 0
-866 -318 0
408 1636 0
633 -1813 0
-827 -1556 0
-1056 1227 0
1084 -670 0
339 1572 0
1734 -1347 0
1464 538 0
1188 -840 0
1238 954 0
-676 543 0
-758 -1773 0
1115 938 0
388 82 0
1259 -932 0
1474 -1929 0
-424 1761 0
-765 1469 0
-1382 -257 0
-1561 -1788 0
-1429 -1012 0
-211 1160 0
-1456 1077 0
-172 -1124 0
1600 149 0
401 -1521 0
235 864 0
-1486 -1455 0
-1267 17 0
1834 919 0
821 -794 0
-1249 -26 0
-1165 -1071 0
-349 -1024 0
-1737 1088 0
-1815 -1248 0
-1563 1535 0
1562 -47 0
-31 -116 0
-780 1448 0
-108 -444 0
1523 349 0
-1846 -203 0
515 -1725 0
1757 541 0
1359 560 0
1002 262 0
557 161 0
6 1682 0
1447 1315 0
-514 775 0
1921 1608 0
-365 351 0
527 -1692 0
-936 751 0
-1807 1559 0
-1165 -380 0
-1754 -132 0
1737 -657 0
1754 -867 0
-1332 -963 0
-1526 644 0
-1339 -1433 0
1461 -1372 0
-921 429 0
333 -1052 0
-936 1493 0
-1163 -873 0
-1076 -838 0
706 1223 0
937 -843 0
488 1531 0
1076 777 0
-624 -911 0
-193 -1699 0
-226 195 0
-163 -1701 0
11 -1409 0
1035 1529 0
-767 -109 0
778 1421 0
-1794 -985 0
-1621 -209 0
-1300 1547 0
1263 -291 0
315 -1718 0
-1929 -1822 0
-1711 -404 0
-335 1170 0
-1521 345 0
-817 -808 0
-1129 -349 0
889 1373 0
-438 -1870 0
1066 1821 0
707 1662 0
-1001 1735 0
-1144 -1186 0
-855 -1892 0
-1815 -1886 0
1048 609 0
1300 739 0
879 1658 0
1235 1419 0
-654 -1005 0
-685 -1515 0
-218 -1666 0
-129 803 0
-878 1624 0
1201 1190 0
93 -78 0
1835 -568 0
-280 352 0
-297 1211 0
413 -324 0
-111 -78 0
6 -668 0
834 1285 0
-1728 1075 0
-1619 1430 0
-931 40 0
144 -1762 0
-13 582 0
1189 -145 0
462 261 0
-685 -665 0
-168 1397 0
-1449 1322 0
-1878 1167 0
-689 288 0
1148 1885 0
-180 1224 0
953 -1482 0
1561 1399 0
903 -998 0
-1513 1010 0
-624 -1377 0
11 781 0
-1214 1527 0
-1759 -1633 0
-1188 -1114 0
1674 1527 0
-1491 1542 0
629 -308 0
53 91 0
674 -291 0
-1770 -1751 0
-217 -936 0
1478 -1296 0
1086 79 0
-1197 -678 0
915 -1782 0
329 -1819 0
663 -767 0
1075 1863 0
-343 -1760 0
298 -1599 0
-355 -968 0
1752 -207 0
-1324 -1839 0
948 -845 0
56 -1690 0
746 -1728 0
-1536 1614 0
-1382 1674 0
-523 -205 0
1868 -857 0
-534 1046 0
40 1337 0
1756 422 0
257 -662 0
888 1210 0
-1488 -1768 0
-141 -326 0
206 1305 0
59 1715 0
749 -517 0
-405 -1762 0
1587 -59 0
-1627 1920 0
519 -63 0
-1356 1593 0
1869 890 0
-942 -1143 0
238 754 0
-1505 1633 0
1167 1653 0
-654 1293 0
-1098 278 0
-1526 679 0
-1120 -137 0
1922 -857 0
68 -676 0
927 -962 0
-206 -1806 0
-455 1272 0
-1517 904 0
-763 -382 0
1344 102 0
1494 -726 0
-685 -1520 0
-506 -518 0
-1915 120 0
1190 -324 0
631 -1741 0
-55 -515 0
-1584 1275 0
1759 -492 0
1927 305 0
616 -1202 0
-700 -1219 0
-1865 380 0
548 59 0
361 1535 0
-774 -1823 0
-411 605 0
949 649 0
-1425 1419 0
1408 -149 0
108 -110 0
263 1339 0
1172 1755 0
-218 -1935 0
1088 -628 0
-1604 -133 0
-1740 392 0
739 1663 0
-371 313 0
-952 1889 0
-1325 -1332 0
-967 1213 0
997 -845 0
-826 -1799 0
1481 -370 0
-1830 87 0
916 262 0
932 -997 0
1836 1585 0
983 87 0
611 1448 0
-313 965 0
-882 -169 0
-657 -1405 0
-1293 1435 0
-848 -535 0
-1434 1827 0
1668 -791 0
-956 1531 0
1768 860 0
-91 1377 0
648 1877 0
884 -128 0
-36 971 0
10 -687 0
1883 -1718 0
-816 -296 0
1184 950 0
1103 -632 0
307 1890 0
-1514 507 0
-60 -250 0
-348 -1746 0
-1339 721 0
-576 321 0
1317 -842 0
1335 775 0
1025 -1272 0
-356 -1858 0
-1899 -196 0
1046 1500 0
-1360 1930 0
-1788 1322 0
547 -1810 0
-447 -812 0
-799 -330 0
1466 -396 0
-284 -1240 0
-1285 -894 0
1427 336 0
121 -1335 0
170 -446 0
961 752 0
-1609 -485 0
648 -1725 0
-1336 313 0
897 1294 0
623 -1253 0
1384 81 0
266 494 0
986 -9 0
-1582 -479 0
1337 207 0
490 1299 0
-1426 64 0
1419 903 0
1406 538 0
1647 -169 0
1910 1854 0
216 1789 0
-281 -1375 0
739 -1671 0
1138 1827 0
-21 773 0
1885 179 0
-1508 367 0
-804 -1084 0
520 -1473 0
552 -776 0
844 -1043 0
520 1636 0
1481 -127 0
-391 328 0
-613 -581 0
1829 125 0
-1643 -1924 0
188 -1515 0
1103 1367 0
-468 -60 0
499 -608 0
-521 -626 0
-930 -1909 0
-285 1845 0
3 1872 0
1878 202 0
-128 78 0
-1519 -1298 0
1339 -440 0
-1472 494 0
1562 -1367 0
1572 1476 0
1547 -140 0
-1332 -351 0
-640 548 0
1311 163 0
1688 537 0
1297 1276 0
-1439 1703 0
-684 -1896 0
-723 1903 0
-1842 795 0
1535 975 0
-1211 -60 0
-1859 -1865 0
-301 1270 0
-501 -1051 0
-549 -1848 0
-588 1069 0
1087 445 0
1808 224 0
-514 -1244 0
-310 -1655 0
-574 -1897 0
30 1022 0
-1213 1371 0
1309 -1627 0
-1588 337 0
732 -1639 0
1895 705 0
-1457 816 0
323 942 0
-955 -1539 0
-1832 -1455 0
1771 -1754 0
1013 -692 0
1850 -1083 0
1859 182 0
-370 820 0
913 -245 0
999 -1295 0
1572 634 0
841 -1191 0
408 -357 0
-1436 1063 0
953 463 0
578 1183 0
309 814 0
-194 -1526 0
-622 396 0
-838 -1391 0
1594 -1665 0
-1404 1711 0
1704 44 0
1874 1842 0
-1106 -138 0
1858 859 0
-1857 -1147 0
-813 1514 0
-1634 610 0
1436 -1429 0
-1540 506 0
1901 867 0
-1788 -1513 0
-1852 122 0
-244 -21 0
-1764 -789 0
441 1692 0
-147 -417 0
-1113 68 0
-1370 -901 0
1000 159 0
-54 -73 0
76 1503 0
1557 -459 0
-1312 -124 0
-1486 682 0
-253 -1623 0
912 382 0
1069 -1482 0
-847 -1500 0
-1826 1893 0
902 902 0
1474 -666 0
-1935 -740 0
-1544 1803 0
1206 1586 0
-492 -1742 0
1401 -1175 0
1358 555 0
-1900 103 0
-1572 234 0
-532 1231 0
-562 1065 0
-1905 -1141 0
-203 -1350 0
900 -1436 0
-1544 728 0
-1870 1866 0
-228 969 0
603 75 0
-704 -1012 0
1108 -1425 0
-867 -1677 0
430 -534 0
340 -516 0
-412 1531 0
1407 -1377 0
-1813 -1270 0
1634 1760 0
-1535 -836 0
1828 1432 0
-1090 -1862 0
-1602 748 0
560 81 0
-267 801 0
-1457 -650 0
-1236 -481 0
-50 166 0
1393 192 0
1689 -800 0
-1323 826 0
-1283 -663 0
-887 -788 0
1684 -1411 0
395 -480 0
-1037 904 0
811 426 0
126 1322 0
1838 -301 0
928 -979 0
-615 1680 0
1445 -1483 0
818 -1209 0
-1924 -439 0
-1581 -1378 0
472 -609 0
-1541 -722 0
645 1913 0
873 1511 0
-596 -1687 0
1149 1667 0
-675 -1507 0
1269 -504 0
744 -1216 0
-496 -1637 0
1658 519 0
-1093 1721 0
-153 -151 0
-945 1374 0
-1584 638 0
-492 276 0
268 1597 0
-1904 -751 0
1544 -1751 0
-1078 -363 0
-576 -222 0
1726 645 0
-1010 105 0
735 -618 0
1401 540 0
1235 1346 0
1867 -789 0
-708 1709 0
-798 -793 0
99 -1781 0
-1657 -820 0
-1452 114 0
-1387 -1687 0
1096 -1288 0
1888 -193 0
-1214 -1736 0
-584 -1688 0
-1755 861 0
-681 481 0
365 1104 0
1546 847 0
768 -293 0
1374 963 0
-1265 -1723 0
-127 -292 0
-661 -1105 0
356 -1595 0
1685 -527 0
-662 -391 0
1546 -925 0
-815 1333 0
-1614 473 0
-851 420 0
-1397 -1814 0
1456 -1074 0
-132 114 0
1658 37 0
-1116 -1581 0
-1766 1816 0
-565 1097 0
1250 1777 0
-1008 -527 0
1936 814 0
1891 665 0
83 -1798 0
-335 -1559 0
1102 -1897 0
1918 -1143 0
-340 -1413 0
301 651 0
474 -114 0
379 -471 0
-1351 -250 0
221 1375 0
649 1484 0
-330 -1710 0
612 1835 0
-1263 1083 0
1652 -1240 0
-1853 -244 0
1552 206 0
-662 -414 0
1087 -1335 0
870 -1637 0
723 1074 0
1129 -1730 0
1341 -811 0
1007 768 0
-1422 -862 0
1092 1003 0
1708 -1608 0
1548 -1355 0
-773 1614 0
-543 -1036 0
50 1710 0
1512 -1916 0
464 -1852 0
1640 512 0
152 -600 0
-540 102 0
1224 597 0
278 1013 0
-1392 1693 0
966 -1073 0
1498 -1370 0
558 -1379 0
884 -899 0
1432 494 0
-750 -756 0
300 280 0
-697 456 0
808 550 0
-1728 806 0
-1369 -1180 0
309 -981 0
-546 1013 0
1753 1448 0
1755 1710 0
-1458 -689 0
-994 -967 0
787 -281 0
-1848 -694 0
1482 1200 0
101 935 0
1576 -1522 0
-361 -2 0
-186 1054 0
-497 -1384 0
-1472 732 0
-597 -1037 0
-1830 -1924 0
1069 1746 0
1824 449 0
-642 -1831 0
1298 -1591 0
-1783 1782 0
140 -1616 0
-856 -1517 0
-193 405 0
422 1919 0
-917 -1036 0
-1230 -74 0
-1351 -750 0
1559 -846 0
1248 78 0
1600 -1574 0
19 -776 0
-1687 1080 0
-493 1654 0
-730 -195 0
121 -358 0
1710 1808 0
-1521 -1379 0
1092 252 0
-1672 -433 0
-1290 -123 0
1505 -1815 0
-1127 -952 0
1017 -1018 0
1928 1426 0
-589 1758 0
1190 1420 0
-1404 -383 0
1614 -435 0
628 937 0
461 1292 0
-1732 430 0
-785 -993 0
-1021 473 0
810 1065 0
1215 -775 0
-1882 -625 0
-447 648 0
-1127 -1164 0
1294 -1093 0
977 -633 0
-233 926 0
-452 -582 0
1785 1872 0
-692 -94 0
839 1430 0
-177 304 0
482 875 0
-591 -1465 0
-791 -910 0
1403 -369 0
-419 1348 0
453 -326 0
748 -364 0
1022 -297 0
-1700 -1765 0
-800 -776 0
-677 461 0
-1343 -296 0
482 -1837 0
1129 385 0
-1488 -1805 0
-1397 -1735 0
-1790 -280 0
161 -1212 0
681 1913 0
-377 550 0
45 895 0
1655 80 0
1572 659 0
238 1160 0
527 1621 0
-1508 -11 0
1031 563 0
868 983 0
-908 -1020 0
-1348 1152 0
-1249 1542 0
782 1793 0
-446 -996 0
-1335 1666 0
-1008 1561 0
454 -1270 0
-62 -351 0
-1239 299 0
-1082 -1188 0
-1532 -928 0
502 524 0
693 -1406 0
1164 121 0
-1472 283 0
709 19 0
-1519 -1487 0
-692 -1 0
206 -276 0
881 947 0
1734 1514 0
567 -292 0
342 1040 0
270 -1567 0
971 286 0
-1186 -731 0
538 388 0
1301 58 0
-853 -175 0
-1427 520 0
-357 639 0
1259 1911 0
-1836 695 0
1647 1183 0
436 -1642 0
-988 -576 0
681 -929 0
-1157 -1712 0
-95 -177 0
258 -1420 0
1464 -32 0
-1565 1896 0
1617 -571 0
-1869 1758 0
339 221 0
-678 -1272 0
1161 503 0
-283 -1125 0
1637 -1770 0
-1155 1153 0
-1093 -107 0
1470 941 0
-641 1871 0
1114 -480 0
-1191 1320 0
1598 1238 0
1231 -96 0
-1914 308 0
1910 -221 0
1705 -1622 0
-643 1392 0
-1331 -311 0
486 -1769 0
1122 900 0
292 24 0
-335 -1007 0
1063 109 0
-777 -1706 0
1178 -42 0
-159 1557 0
415 -1732 0
-948 1415 0
-395 351 0
1658 781 0
378 1124 0
1629 387 0
1405 -1220 0
1237 -643 0
-1740 705 0
287 1119 0
1312 -1449 0
-1622 -382 0
-1331 -1194 0
-904 -876 0
-22 -594 0
-1154 959 0
-988 -291 0
1809 530 0
1346 1564 0
-942 -1859 0
-1474 607 0
-1683 -632 0
633 -25 0
-412 1015 0
-1111 1149 0
1819 -709 0
-1753 287 0
-1176 -106 0
1461 286 0
-316 -1812 0
554 1264 0
-145 -1650 0
211 -530 0
973 1317 0
-824 -1845 0
-1794 -1858 0
-448 -938 0
1511 1075 0
-1874 573 0
1821 -692 0
-1786 214 0
-783 -686 0
-345 -1921 0
-501 -136 0
-627 900 0
1542 -136 0
-694 1172 0
255 -1765 0
699 803 0
-1102 -533 0
-1131 271 0
271 -885 0
1548 -707 0
1458 770 0
-200 -1886 0
-138 1853 0
-1138 1717 0
804 -1343 0
954 982 0
-1132 -1518 0
-1386 682 0
950 -545 0
-1505 -1323 0
-89 1797 0
1195 584 0
161 236 0
-553 -1131 0
479 93 0
-720 -1658 0
-570 -1764 0
-1834 1531 0
-1198 1691 0
-219 432 0
-1575 911 0
910 825 0
-973 1861 0
1695 919 0
1709 925 0
-1179 254 0
-309 -779 0
-238 1494 0
-1484 -1108 0
-999 -350 0
934 1116 0
439 941 0
-1099 -1396 0
253 1172 0
-786 271 0
-1823 1325 0
-540 -501 0
1141 497 0
1901 -1857 0
327 -719 0
-1620 -1887 0
-656 961 0
1586 -1444 0
20 -749 0
1876 110 0
24 -447 0
-66 75 0
325 -857 0
1033 -866 0
-97 166 0
-1479 -177 0
-599 39 0
1368 634 0
-1141 1937 0
-1867 1148 0
-857 894 0
-934 -1301 0
1014 -741 0
-72 1461 0
1193 -1616 0
809 -469 0
-1296 598 0
-490 -510 0
-1715 -1526 0
1182 -850 0
102 -145 0
456 -831 0
-162 -8 0
1435 -246 0
211 -47 0
-1522 -715 0
-912 708 0
1197 1376 0
-576 -704 0
-1710 755 0
-61 -835 0
-324 472 0
28 -124 0
-831 587 0
1767 1476 0
-1835 -1573 0
-1623 466 0
1557 -1046 0
-219 -1860 0
-1232 18 0
6 1288 0
-585 778 0
697 1410 0
-1231 371 0
1206 1885 0
813 1362 0
1088 -371 0
1810 772 0
-991 -1828 0
-493 -1306 0
1066 1147 0
-450 -1283 0
631 103 0
125 1754 0
-1470 1369 0
-704 240 0
-531 1420 0
-1546 -1843 0
1840 584 0
-1476 -1831 0
-1482 -274 0
-27 -762 0
351 1217 0
-467 -1524 0
-1312 197 0
-956 1597 0
-1312 478 0
401 -1222 0
36 -615 0
1503 695 0
-165 707 0
499 1761 0
-694 -389 0
-1029 -983 0
15 957 0
-149 1189 0
1628 1339 0
1907 -815 0
928 -120 0
-1164 1649 0
-1000 1537 0
1733 -358 0
-1052 248 0
499 -27 0
1069 -1741 0
-241 1517 0
488 1532 0
-1351 325 0
1342 1158 0
1809 -1485 0
1685 1779 0
-526 -1590 0
-1383 -1635 0
-768 -738 0
-1867 1193 0
1758 1633 0
1560 1665 0
640 -404 0
-310 -88 0
1333 1176 0
-169 1628 0
1329 -1033 0
542 610 0
721 898 0
1115 -1909 0
1044 -638 0
-1811 1232 0
738 -1840 0
1851 -355 0
-1352 -683 0
981 -288 0
1447 -537 0
-1788 1393 0
286 208 0
1116 1422 0
402 148 0
-1376 1177 0
-450 884 0
-1930 1496 0
1735 825 0
211 1752 0
-1289 1510 0
1400 1780 0
-1638 -514 0
-1163 1883 0
-1697 870 0
1197 -1171 0
-697 -303 0
85 963 0
-1934 42 0
182 -748 0
650 270 0
-364 -567 0
328 913 0
-709 -381 0
1492 1335 0
-1802 -1295 0
485 865 0
1839 1079 0
-853 -1356 0
-737 1394 0
-1038 749 0
793 -640 0
1634 432 0
727 -1665 0
40 458 0
1182 -1619 0
-812 1614 0
-1133 -79 0
365 -871 0
1614 -1554 0
-874 -911 0
843 -1589 0
514 254 0
-1452 -1144 0
1317 -859 0
973 -1318 0
1928 1731 0
-107 -1513 0
-490 -1439 0
1169 -67 0
760 -753 0
390 1685 0
146 202 0
1155 538 0
-1290 1433 0
440 432 0
-1742 -1356 0
570 159 0
940 -767 0
586 1445 0
-1243 -612 0
-264 -571 0
-1141 -1126 0
-264 -626 0
-1232 -1872 0
-1406 1901 0
612 1827 0
-1787 -1083 0
1606 1767 0
1028 235 0
-564 -1131 0
-95 1184 0
1698 1877 0
-84 1907 0
1203 1103 0
-572 757 0
-1290 -150 0
-1100 52 0
-143 -1472 0
-1135 208 0
318 202 0
1337 -302 0
1705 902 0
-1732 1360 0
1228 -1500 0
956 -1409 0
705 -1596 0
-1855 -1454 0
1536 702 0
182 -613 0
1592 -676 0
-408 -1811 0
1174 1750 0
-1815 1382 0
-667 -626 0
-1136 1709 0
879 -575 0
-1471 1879 0
1183 1296 0
-608 -151 0
1215 -151 0
-611 1673 0
-1751 -148 0
-572 -511 0
1926 1362 0
-1218 -1467 0
-1163 283 0
-1762 -1099 0
-1424 927 0
-507 1841 0
-218 1404 0
1495 -303 0
-625 -1406 0
-1162 -1097 0
1600 1890 0
-1823 67 0
1 1040 0
-791 1866 0
-1409 775 0
-985 148 0
335 -195 0
-828 -158 0
-1740 -604 0
508 110 0
-487 916 0
-1899 915 0
1619 141 0
963 1465 0
1624 -625 0
-1910 -1489 0
1374 -590 0
1153 1477 0
1007 -917 0
-1574 -1436 0
-1652 -32 0
-394 -66 0
271 -355 0
-1177 587 0
984 657 0
-1245 612 0
1349 -752 0
-1625 -679 0
523 -23 0
135 -1331 0
352 1442 0
-239 951 0
1411 -1591 0
1898 -1661 0
1049 1821 0
-432 481 0
-1696 1340 0
1033 -869 0
-28 -1344 0
-1570 -1525 0
4 -201 0
-1622 159 0
17 1733 0
1543 1872 0
1836 -869 0
-557 1749 0
-281 -21 0
705 -800 0
-1098 -838 0
1330 1034 0
-1924 1902 0
-1349 121 0
-1925 -335 0
1654 762 0
-1556 996 0
1534 642 0
1702 144 0
1444 -1739 0
-615 -1347 0
1829 -570 0
1650 1104 0
1035 -1441 0
-1795 1806 0
-363 484 0
-884 1902 0
646 113 0
-263 -399 0
-1701 184 0
-907 -957 0
1570 1080 0
-817 681 0
-1060 1291 0
-1785 494 0
988 -1912 0
1063 1059 0
740 -830 0
578 1871 0
1858 -979 0
245 -659 0
640 1564 0
-1898 616 0
325 -817 0
-664 -590 0
897 -1388 0
-1860 -1094 0
1764 856 0
177 19 0
287 -438 0
747 -1436 0
-60 1564 0
-384 -1273 0
744 1013 0
-919 467 0
1068 -1171 0
1394 -1743 0
-585 -1916 0
-818 565 0
684 -1721 0
-1319 -1485 0
953 1401 0
412 -1661 0
1646 176 0
-413 1854 0
1437 -75 0
390 -658 0
-1358 -567 0
-544 -1798 0
-1048 1317 0
-1856 505 0
-1276 -208 0
-1592 -187 0
176 -188 0
467 -1069 0
-612 -717 0
1833 -203 0
83 -789 0
917 1309 0
-1343 -427 0
-1783 -715 0
-964 1397 0
1689 -674 0
-1279 -759 0
-279 1237 0
1580 -599 0
-78 -1242 0
-1725 -381 0
1462 -1919 0
303 -88 0
1752 -849 0
223 -890 0
1511 465 0
1854 1650 0
668 -1544 0
-1741 -783 0
1706 839 0
-875 -1826 0
-1527 5 0
-1083 1800 0
339 1448 0
1889 -1706 0
1496 699 0
196 1042 0
-1425 -845 0
370 -1228 0
1497 -1520 0
1514 -424 0
1309 -645 0
-1772 -906 0
-962 -1458 0
-862 -94 0
-469 71 0
1718 -931 0
-1513 1503 0
-1125 -217 0
1484 -761 0
-510 1911 0
-1033 -1406 0
-1846 342 0
-1180 -1799 0
749 -4 0
568 1247 0
161 -586 0
1910 848 0
-309 73 0
1782 -85 0
-1533 755 0
-1359 -1163 0
-1792 -1813 0
-246 1015 0
-1487 -839 0
-934 965 0
650 1820 0
-1486 207 0
-541 861 0
1396 318 0
-671 -699 0
-667 -627 0
1264 1407 0
297 1718 0
642 398 0
-2 -977 0
494 -362 0
296 -1664 0
967 -725 0
1026 1512 0
-747 -136 0
1285 -1231 0
-1155 -1122 0
-47 -1321 0
1003 1227 0
-921 992 0
-1659 -1029 0
1220 1752 0
1885 496 0
1546 1715 0
-1073 623 0
-996 1241 0
784 -1606 0
-143 1141 0
1337 569 0
565 314 0
298 -1459 0
228 1256 0
556 1268 0
20 451 0
-659 924 0
-1487 -381 0
51 67 0
-1796 -626 0
482 -139 0
-1844 891 0
578 -1552 0
1497 363 0
-153 -1585 0
1705 429 0
-752 -51 0
754 607 0
6 755 0
42 1374 0
-49 -772 0
1193 988 0
-1795 1229 0
-1333 823 0
-261 -1378 0
1345 1871 0
50 1522 0
-480 -224 0
1302 1355 0
1198 -121 0
767 -1887 0
-1525 -1637 0
1284 1221 0
1243 -736 0
1658 1484 0
-395 751 0
1493 36 0
214 19 0
225 986 0
-1349 34 0
-333 1225 0
-518 -1145 0
-1010 -592 0
1265 1380 0
-289 605 0
-997 -42 0
-253 1151 0
-1123 -1328 0
1560 964 0
787 -451 0
-623 -1083 0
1913 -1400 0
1119 947 0
29 -1688 0
-707 578 0
1728 913 0
-703 1705 0
-1759 1930 0
1838 -880 0
-233 968 0
948 -1179 0
-1134 1130 0
1425 1035 0
1457 -683 0
815 -320 0
-293 418 0
-51 -1787 0
552 241 0
130 -596 0
-297 1773 0
-527 -1740 0
-515 806 0
107 1113 0
1535 1242 0
-307 -331 0
653 -316 0
-1136 -1065 0
-588 -1171 0
1911 1640 0
-1082 321 0
-1354 1068 0
1885 -520 0
1615 389 0
-333 -1637 0
-1416 1928 0
1431 -429 0
474 1819 0
1785 1216 0
454 -1641 0
1200 1092 0
-759 202 0
984 -540 0
628 -55 0
-368 1650 0
1569 -1613 0
-1683 601 0
1362 1809 0
1140 141 0
-338 -1018 0
543 1269 0
1624 194 0
967 1203 0
513 -21 0
450 -402 0
830 -1520 0
252 -1700 0
-794 -186 0
-537 -1719 0
-768 -1025 0
283 -662 0
-1173 -832 0
141 1570 0
-798 -1235 0
-489 1066 0
-1809 -684 0
451 951 0
-486 1780 0
-1534 -318 0
21 -545 0
-89 -1692 0
-1678 1789 0
-514 -1366 0
-1377 -379 0
779 -1524 0
744 47 0
-668 166 0
-1450 -575 0
-672 -859 0
-1915 834 0
-1120 -208 0
-455 -1484 0
1716 1471 0
1777 -1728 0
305 -568 0
-417 -946 0
-312 506 0
361 -1601 0
526 -710 0
549 1007 0
919 123 0
133 1603 0
-1818 513 0
44 -1471 0
848 1606 0
-1327 366 0
144 -1205 0
-1305 -1187 0
1432 64 0
1792 -1150 0
383 -1721 0
-703 820 0
-567 1650 0
1664 1326 0
-1706 968 0
-1887 -1004 0
-546 1190 0
-1488 -412 0
527 -14 0
-1584 309 0
1478 690 0
-406 -1081 0
-134 1758 0
727 -1882 0
754 1558 0
-675 754 0
-424 531 0
1625 1491 0
-593 503 0
-208 -1095 0
914 1247 0
-725 -776 0
681 1821 0
414 -1641 0
918 -911 0
-638 -657 0
-1021 1198 0
-278 -1339 0
-831 -558 0
1400 -274 0
665 1151 0
586 -1816 0
-245 692 0
209 -1809 0
224 1846 0
-551 -1717 0
-1884 -1773 0
-1841 -1778 0
1158 -368 0
-1862 780 0
884 959 0
1524 -458 0
-489 929 0
-877 1762 0
-412 -1234 0
-1433 64 0
-1014 -845 0
1510 67 0
-280 -1727 0
-575 793 0
-302 -640 0
1167 -408 0
-1869 1272 0
-1565 -1723 0
-326 852 0
-348 -1544 0
-624 -189 0
413 362 0
-878 -1635 0
950 174 0
-1324 1101 0
-1494 461 0
287 -311 0
723 -667 0
-1595 692 0
-1293 1450 0
311 -356 0
-700 -1882 0
-658 993 0
-1549 701 0
-1790 1069 0
1456 1635 0
1237 -1830 0
1157 53 0
-1645 426 0
846 -1644 0
-1055 -1057 0
-725 -144 0
-368 603 0
240 940 0
499 -1154 0
-21 790 0
1434 1401 0
-320 -1273 0
1378 374 0
1712 1867 0
973 299 0
1708 -608 0
1879 595 0
-774 1457 0
-146 -1457 0
-572 1932 0
-1595 -835 0
-1655 -1764 0
531 778 0
-326 525 0
211 -1026 0
319 -379 0
1840 -853 0
-349 -721 0
1883 354 0
-588 1059 0
-1862 -246 0
1237 19 0
-1601 594 0
1753 -1869 0
-133 -1477 0
-636 234 0
341 -1243 0
-109 1569 0
734 1385 0
-659 -421 0
-1368 -1852 0
-1366 902 0
957 -1569 0
1692 294 0
703 1363 0
-508 1835 0
130 1844 0
1614 426 0
384 -288 0
1628 -1497 0
1863 883 0
-1140 1614 0
298 -517 0
1929 705 0
-1870 -1773 0
-1036 -502 0
804 1089 0
-435 -1224 0
-1767 -1434 0
-592 1353 0
350 225 0
-371 1791 0
1111 -162 0
-895 1867 0
148 -112 0
826 -1450 0
-1446 1789 0
425 -741 0
-1128 -279 0
-707 1139 0
172 -1052 0
1175 153 0
1296 -269 0
155 593 0
1535 1881 0
-1345 -1453 0
245 1707 0
1560 1092 0
160 1618 0
-1192 221 0
104 -618 0
-158 59 0
-940 1009 0
-248 975 0
1879 858 0
376 -735 0
-956 325 0
-1245 -316 0
-1543 -196 0
-1133 64 0
-1890 -586 0
-877 97 0
-149 -1599 0
-1679 1160 0
-730 1438 0
1444 130 0
-1280 -683 0
547 -247 0
-1009 -265 0
693 1909 0
-876 146 0
-464 -399 0
-419 129 0
957 -163 0
-662 458 0
-1761 164 0
-150 -876 0
268 1294 0
604 -735 0
1842 -449 0
-1286 192 0
-239 -799 0
-52 -307 0
762 -542 0
1137 460 0
1206 207 0
-302 -649 0
298 285 0
848 -310 0
-740 -1071 0
831 -306 0
-471 -1807 0
-525 54 0
616 482 0
542 1198 0
1144 -217 0
-1588 1171 0
1316 -395 0
1624 -764 0
-1781 -356 0
1497 -322 0
864 -1515 0
919 -1782 0
-378 -1409 0
960 -1265 0
-1878 -829 0
613 -1387 0
-1239 -417 0
-337 -1441 0
-1202 -1886 0
-576 286 0
1712 839 0
-88 983 0
1443 -853 0
-1781 523 0
1185 -1880 0
1739 928 0
-333 928 0
-1378 95 0
-1775 -348 0
761 1414 0
1443 1359 0
466 -815 0
-995 -1198 0
252 -1436 0
-368 -1164 0
-1063 -908 0
451 777 0
660 -841 0
1359 -934 0
-1202 1356 0
-1869 41 0
-1831 -831 0
306 984 0
-518 -1873 0
374 -495 0
-1876 -1529 0
837 -907 0
1362 -1515 0
-1073 -762 0
-312 -73 0
-1512 -1627 0
1781 -409 0
-715 -1015 0
-1532 1628 0
58 -1473 0
1882 -1741 0
948 588 0
-826 -1676 0
-1246 -1880 0
-1049 985 0
-393 1517 0
-62 -1090 0
-1588 -510 0
-387 -923 0
-1665 -1748 0
1427 -1477 0
1517 -21 0
-1723 -137 0
-1767 -963 0
1881 -990 0
1528 1102 0
1101 1821 0
1433 429 0
-1439 1767 0
194 551 0
-1688 -700 0
-1116 -1019 0
-696 522 0
804 -893 0
-989 -1596 0
770 -975 0
-968 1057 0
-99 1021 0
-1326 -881 0
340 1113 0
-1441 1040 0
-1108 -1489 0
635 1183 0
1330 218 0
-192 -146 0
760 770 0
-110 401 0
1854 -29 0
990 631 0
-1583 1134 0
-1141 519 0
118 -1279 0
-1918 -1029 0
-643 -171 0
1321 -590 0
-706 1802 0
200 1907 0
604 283 0
114 -153 0
748 -1592 0
896 -466 0
-560 341 0
-938 1768 0
575 -669 0
-1390 -144 0
-1892 -911 0
1362 591 0
-1098 -972 0
-1508 1793 0
1031 1718 0
1207 -230 0
-1719 -7 0
238 174 0
-1389 -456 0
-375 -1100 0
-1672 -1062 0
-1826 795 0
848 -1192 0
-1807 885 0
-478 -1055 0
82 -17 0
580 1817 0
1645 1000 0
-1924 -829 0
1837 -824 0
1904 -1473 0
1444 229 0
-1719 -1076 0
1104 -1643 0
1345 363 0
-537 -816 0
-1687 -1514 0
1844 -1828 0
-869 -1326 0
742 395 0
-1769 -1265 0
1618 -588 0
-695 1403 0
358 209 0
1433 1766 0
-1493 -219 0
715 -626 0
245 -364 0
-498 -238 0
811 -1358 0
-1587 -1425 0
957 -1104 0
-258 -1742 0
142 -1270 0
68 1499 0
51 536 0
-884 365 0
-1454 -1374 0
1567 82 0
-1617 -294 0
-468 -1811 0
-207 -1081 0
-57 -1238 0
678 -1898 0
-1304 -280 0
-631 1663 0
-1471 -6 0
994 -1052 0
-632 1190 0
1628 -521 0
-441 -752 0
863 1431 0
-333 1011 0
-612 1057 0
1629 -574 0
968 1352 0
567 1581 0
688 784 0
1817 313 0
-1283 1064 0
-541 564 0
-152 1200 0
-1023 1833 0
616 534 0
-203 456 0
891 -752 0
-1294 -1832 0
938 274 0
-238 -1855 0
1790 -739 0
127 -324 0
1395 -323 0
-1105 436 0
1497 502 0
-674 -1436 0
296 1757 0
1603 -746 0
-32 1828 0
-1875 255 0
803 280 0
-839 1427 0
-571 -338 0
695 -1083 0
513 -972 0
160 851 0
30 1369 0
1510 -737 0
937 -76 0
-434 -1412 0
852 -771 0
992 939 0
-540 339 0
1154 307 0
478 1877 0
1746 369 0
1195 1695 0
-671 -540 0
-272 1777 0
1905 -1813 0
721 1017 0
1768 -1227 0
-1482 -1312 0
5 -158 0
-1410 702 0
1555 1188 0
-294 -1187 0
-1897 804 0
1765 611 0
-1082 1703 0
649 1055 0
-1196 -107 0
582 213 0
1391 1512 0
-330 1910 0
-1642 -13 0
-1403 536 0
655 -295 0
798 -534 0
-1338 -1808 0
1882 -1150 0
62 -1569 0
-1525 1518 0
234 1275 0
1790 582 0
43 1137 0
238 1067 0
1190 594 0
-1911 -831 0
1871 1624 0
-556 1506 0
-1793 -508 0
-46 -710 0
-451 97 0
370 362 0
582 -6 0
-260 -1874 0
-1759 1927 0
1273 -1596 0
413 -590 0
-1931 120 0
-662 -1276 0
-201 -1110 0
-75 386 0
-728 1553 0
-46 549 0
130 -536 0
1708 512 0
-390 130 0
-132 951 0
1550 1828 0
597 483 0
-136 690 0
782 283 0
-1831 -1115 0
31 -444 0
163 1746 0
221 1562 0
842 343 0
-1713 1858 0
-139 732 0
-894 737 0
1654 722 0
984 -1312 0
-94 331 0
-794 1647 0
-492 616 0
-1381 70 0
1677 1170 0
-151 851 0
-112 -208 0
-1797 -1489 0
1176 -1219 0
750 -1489 0
65 1267 0
-171 1146 0
1608 1611 0
-788 -1545 0
1143 661 0
1030 -861 0
1663 1107 0
-1848 -1857 0
-1572 131 0
1756 -1682 0
1667 597 0
-1187 1264 0
-801 -945 0
351 -1416 0
-457 1914 0
-281 -978 0
-378 279 0
-853 -324 0
194 -561 0
-962 1526 0
-1409 1224 0
-532 15 0
-934 580 0
-979 -257 0
-752 1758 0
924 -1246 0
491 363 0
-267 1419 0
1527 -1620 0
132 1884 0
66 -1856 0
918 762 0
-1279 344 0
-616 -866 0
43 -171 0
10 1822 0
-633 1190 0
-1154 -62 0
1484 1467 0
-1115 -1210 0
1086 -811 0
698 -61 0
1410 -1807 0
-1609 -55 0
1193 -1432 0
781 1360 0
-1328 -25 0
362 724 0
263 -1272 0
-138 -1466 0
-908 -1011 0
-529 -768 0
969 -762 0
-1651 1667 0
-191 1008 0
-747 40 0
1026 390 0
-685 341 0
-421 985 0
938 -1371 0
1495 -489 0
-115 121 0
-1068 -1281 0
-1728 -1143 0
-1348 -1615 0
-1825 1375 0
1617 -66 0
-1361 -134 0
1028 895 0
1695 1111 0
-1231 -1424 0
-843 -411 0
-1316 478 0
-291 -799 0
-1397 900 0
-168 691 0
-898 805 0
-576 1217 0
-1411 -522 0
1001 1475 0
-532 1260 0
-1515 1485 0
-496 611 0
1822 -1499 0
-934 -1027 0
-519 -1463 0
-1388 -872 0
292 1535 0
-528 1264 0
-1111 1152 0
-1755 -1357 0
1801 463 0
502 1417 0
-908 197 0
1465 -1802 0
471 -49 0
-195 942 0
-819 -330 0
-66 -190 0
632 81 0
1607 -85 0
-1482 -272 0
1334 1317 0
989 -836 0
161 834 0
416 1165 0
-1890 1576 0
-815 1598 0
710 1118 0
1897 -1929 0
1936 1267 0
1391 1597 0
-304 -1596 0
1057 588 0
-1616 1535 0
661 -1287 0
1803 215 0
-789 -1826 0
712 -1356 0
351 416 0
-517 1487 0
1569 -1251 0
-1021 1449 0
-825 -479 0
-905 -1695 0
438 -276 0
-327 1771 0
-1601 1460 0
495 -1108 0
-1458 -618 0
806 392 0
-1170 1309 0
1647 757 0
-1657 520 0
431 -1010 0
-1706 908 0
176 33 0
62 -1642 0
-882 461 0
-365 -1084 0
1470 1511 0
-440 26 0
701 255 0
1752 -1098 0
-1811 -1671 0
1035 -1247 0
407 1123 0
1359 -862 0
-322 -41 0
-1175 59 0
1492 -1332 0
1817 -1450 0
-782 -658 0
-662 -886 0
171 1926 0
374 256 0
1223 -231 0
-887 1087 0
1594 1426 0
-406 16 0
1514 -589 0
1674 -1629 0
254 1227 0
-117 1647 0
-1809 456 0
483 777 0
-1489 -429 0
-1284 734 0
-1279 1234 0
1267 1605 0
757 1570 0
-1753 712 0
-602 -382 0
-1050 1733 0
449 423 0
-1630 974 0
926 -143 0
-791 341 0
1165 -1552 0
-1179 -881 0
609 1602 0
97 -1054 0
-171 652 0
1889 1220 0
468 1396 0
-1016 1465 0
-810 -151 0
-441 -431 0
-84 -248 0
224 -736 0
1744 -1286 0
1733 -133 0
-666 -284 0
-888 -312 0
1704 -1826 0
301 -1485 0
-800 -1571 0
1025 1556 0
1080 820 0
-1 1564 0
-836 -1055 0
-1789 -1774 0
-1884 -326 0
1922 1486 0
-319 -656 0
807 1673 0
590 -418 0
1769 1785 0
-550 -776 0
-1487 1104 0
194 -993 0
1766 495 0
-133 -969 0
-1239 -1544 0
-350 845 0
176 -516 0
-775 -1908 0
456 -561 0
299 -450 0
829 -1142 0
1499 -1164 0
-857 -1246 0
493 -978 0
1641 649 0
-1660 1705 0
459 1785 0
-1343 -1651 0
-821 294 0
-138 -236 0
-1652 255 0
597 -1311 0
1466 -1517 0
541 -1769 0
-454 -1683 0
-1132 256 0
1606 1702 0
1598 273 0
68 -156 0
-807 558 0
-77 -88 0
-1844 1527 0
293 1254 0
-1574 950 0
886 211 0
-845 -1372 0
-343 885 0
-520 1193 0
-1761 966 0
212 -671 0
258 1464 0
1509 -527 0
384 -1128 0
1568 -997 0
-1847 813 0
694 -1279 0
-395 948 0
-385 1229 0
-1155 -1638 0
1746 -17 0
502 1177 0
-1682 144 0
1633 -123 0
-1706 -1347 0
1120 891 0
-184 -1897 0
-301 298 0
-1798 384 0
-931 -371 0
466 -727 0
976 1082 0
-222 -551 0
-1482 401 0
-1731 -415 0
206 1608 0
-399 -1166 0
-127 -1579 0
-921 420 0
1213 -200 0
-617 1207 0
-1502 280 0
-1332 239 0
-407 75 0
-841 182 0
-391 -1106 0
-549 1771 0
1395 1326 0
1512 -1874 0
1047 -56 0
1132 345 0
-1157 1190 0
17 -190 0
-245 -1115 0
-1192 -532 0
1798 606 0
-778 1401 0
855 -1529 0
-1132 1776 0
-619 -1424 0
-905 42 0
1731 -616 0
1265 555 0
1708 184 0
-865 315 0
609 -1661 0
-1204 -1652 0
-420 1579 0
1439 989 0
906 760 0
-1452 -1937 0
-1623 901 0
-1138 1784 0
-1019 649 0
-1108 -643 0
339 481 0
-411 1836 0
-1914 -1770 0
-619 1145 0
361 -1344 0
-1796 -994 0
1546 -1232 0
-641 925 0
-1716 -336 0
426 773 0
1227 785 0
-934 479 0
-1289 25 0
1895 -978 0
-778 969 0
1297 -1674 0
-600 855 0
-732 400 0
411 -477 0
860 1310 0
879 1432 0
1653 -1128 0
-1261 -1482 0
-1385 -5 0
196 -601 0
-1185 1364 0
359 1864 0
984 -40 0
118 -606 0
744 -1346 0
-260 1831 0
1364 373 0
1315 -1594 0
-223 623 0
-822 -267 0
-892 588 0
-1318 1303 0
1103 215 0
-525 -387 0
1863 20 0
822 989 0
75 -40 0
-1800 1403 0
-393 -797 0
-880 -1936 0
-1372 165 0
-658 1236 0
78 768 0
505 417 0
-975 1243 0
-1338 527 0
-353 579 0
-1706 923 0
-151 377 0
-759 -1164 0
1537 845 0
85 -259 0
1500 848 0
1836 708 0
-1056 -1852 0
1023 -391 0
1936 -1549 0
-1211 924 0
554 423 0
-998 971 0
-1751 -689 0
-612 -1351 0
142 467 0
-265 549 0
-1123 -1269 0
-302 -899 0
-1747 1314 0
388 939 0
-185 1147 0
-1931 -1768 0
13 -1670 0
-109 -1048 0
-17 1184 0
-1459 1301 0
1645 1573 0
1260 -1176 0
-374 -618 0
-1521 -1316 0
-1029 904 0
-843 -1185 0
1835 -534 0
1922 -97 0
695 -1131 0
1145 -1283 0
773 -572 0
-360 -197 0
1669 23 0
645 503 0
-1324 -1917 0
1665 -1904 0
-1311 -525 0
1618 1716 0
-1835 26 0
265 -1782 0
-440 820 0
247 497 0
194 1298 0
-380 377 0
-238 607 0
1854 896 0
-1 -1010 0
-694 -1580 0
1674 785 0
-496 -1419 0
1032 31 0
-1595 133 0
-1072 -475 0
-337 577 0
148 315 0
-1726 331 0
-1173 964 0
-336 1649 0
-1861 616 0
-73 -1231 0
1766 1614 0
-1108 1803 0
1005 -670 0
-213 472 0
723 1629 0
-1233 1194 0
278 1747 0
-1360 -1508 0
959 -1018 0
1607 1911 0
-1533 -1860 0
-1269 16 0
-1567 1104 0
-331 93 0
-1648 1685 0
-1377 -448 0
739 372 0
-1681 -35 0
261 -1381 0
-981 309 0
-869 -1928 0
1861 -367 0
1515 777 0
916 820 0
282 1037 0
-368 -969 0
1807 -366 0
393 1798 0
-1165 -1349 0
-245 1257 0
903 1275 0
110 1075 0
-8 1212 0
609 1356 0
1421 -97 0
1264 -1033 0
997 1267 0
659 -1346 0
1394 -1033 0
1367 -496 0
-723 206 0
-1280 -1914 0
-1844 436 0
252 469 0
1330 -179 0
-854 1872 0
431 826 0
59 295 0
-1812 -1893 0
-452 1260 0
-656 215 0
1470 -1011 0
-146 -1384 0
-318 -77 0
419 130 0
-188 499 0
-405 -779 0
903 -1293 0
1835 -463 0
-1828 -1715 0
331 1190 0
1261 1366 0
-785 -1519 0
-1875 -954 0
67 -1825 0
1327 -169 0
739 937 0
986 1371 0
1113 -529 0
-878 628 0
462 253 0
1693 -1925 0
-1034 760 0
-1084 -407 0
-1599 -1626 0
343 -1596 0
1243 -1180 0
1102 1817 0
-1127 -1786 0
1344 -156 0
370 -415 0
-1665 -306 0
-1316 14 0
1901 -447 0
475 262 0
-244 1047 0
-1207 -350 0
-853 -1644 0
50 -1352 0
-700 -1826 0
-1147 -606 0
-1155 -1753 0
-1044 -1892 0
-1143 -714 0
-1733 -570 0
-88 -1288 0
450 483 0
-1513 258 0
498 1188 0
-564 665 0
1141 -411 0
948 -670 0
1669 1536 0
1335 97 0
1624 -1053 0
-1666 -69 0
-1781 603 0
766 -486 0
1689 -95 0
-1027 -1823 0
-1891 -1729 0
202 1526 0
-1828 -790 0
820 1499 0
-1451 1421 0
-1714 -899 0
471 1822 0
1598 -364 0
1743 1057 0
-596 -275 0
-1592 -1444 0
1674 -722 0
-657 983 0
176 -958 0
-392 644 0
1050 -618 0
1404 -183 0
-1845 -1891 0
1554 1704 0
-1294 903 0
-402 -1704 0
-792 -246 0
1406 -54 0
1509 1064 0
-104 -250 0
211 404 0
-826 -1222 0
-1435 -1747 0
1562 1838 0
357 1673 0
-1177 -292 0
-1086 910 0
-1590 -442 0
1359 -1765 0
-432 1153 0
-1354 -1418 0
-1351 -588 0
-775 1203 0
1247 -648 0
-825 -1806 0
621 804 0
-207 -173 0
1089 -270 0
933 499 0
1614 166 0
-1138 -1272 0
288 -1399 0
1477 -966 0
1524 181 0
-1721 -589 0
-1477 1254 0
-1797 1512 0
-716 334 0
-1284 -1431 0
-598 -189 0
497 -869 0
1561 -68 0
352 258 0
-249 839 0
-697 1381 0
-444 -360 0
-282 1048 0
-554 -55 0
-525 1484 0
-1 483 0
-696 -266 0
-821 702 0
-875 221 0
-821 720 0
-651 -945 0
1334 1463 0
1478 15 0
649 244 0
-1220 823 0
-459 1779 0
788 -1248 0
-1703 226 0
-1354 -1097 0
1342 -1671 0
-1773 386 0
842 -727 0
644 861 0
-1370 -768 0
619 -821 0
-1754 416 0
1456 983 0
886 423 0
1502 817 0
-535 1620 0
-709 -530 0
388 -1405 0
1210 -1874 0
675 -1327 0
1431 1164 0
1049 -725 0
-423 -944 0
622 -171 0
-229 -52 0
767 1020 0
261 142 0
-308 1656 0
-1179 -583 0
1852 -1143 0
-685 1501 0
1495 1674 0
-807 -933 0
-1759 -1646 0
1920 -493 0
507 1623 0
-1278 -421 0
1086 -589 0
-245 280 0
1617 572 0
983 -1399 0
702 125 0
-535 646 0
-501 456 0
329 1704 0
1308 -250 0
886 247 0
1715 -972 0
921 -1389 0
447 -1319 0
-1602 -448 0
956 -888 0
1755 -1590 0
-1931 -764 0
1407 -1711 0
-210 -1220 0
1371 -1604 0
-1602 -1265 0
972 -805 0
-1088 -120 0
899 -717 0
-1670 -1296 0
964 -1703 0
861 -1396 0
-1053 513 0
-157 -1229 0
-585 770 0
-1244 -1270 0
-468 1218 0
1289 1394 0
1339 209 0
1883 -210 0
283 1847 0
1025 1761 0
540 -276 0
102 -1753 0
1451 803 0
-807 -1460 0
-233 -674 0
-1912 1493 0
-1486 647 0
667 1172 0
1459 380 0
30 1621 0
-1542 -1287 0
1006 -178 0
1876 824 0
-1160 1373 0
383 579 0
-237 1412 0
1640 -1510 0
1030 -1612 0
-1283 1173 0
910 954 0
1485 -1140 0
713 -12 0
-1724 1702 0
1619 -1288 0
1211 1344 0
262 -391 0
1450 1606 0
405 190 0
757 -621 0
390 -1302 0
-922 1927 0
1493 243 0
1270 -1265 0
-893 -779 0
6 -124 0
1736 -1791 0
-545 -1336 0
723 1579 0
-43 306 0
72 -765 0
789 1518 0
312 -626 0
1362 820 0
1398 -183 0
-891 -1239 0
-200 -207 0
1045 1160 0
216 1646 0
-501 -1061 0
803 -640 0
1551 -1321 0
-1556 1515 0
1170 -1027 0
-1241 914 0
1362 493 0
463 1494 0
-91 1263 0
-899 1067 0
-471 635 0
498 -1495 0
-1830 744 0
-148 -46 0
1579 1724 0
-1763 -323 0
1711 -1898 0
-1359 256 0
-1053 1216 0
-1301 -27 0
671 784 0
64 1481 0
-544 144 0
879 -50 0
-893 1894 0
-476 1341 0
-124 1238 0
-1287 -1264 0
470 955 0
660 -922 0
1433 286 0
1559 18 0
1491 782 0
684 1325 0
663 -208 0
18 1352 0
1887 339 0
-1561 -1372 0
745 318 0
-375 1190 0
1723 78 0
977 198 0
1861 -1896 0
-742 -821 0
1167 1579 0
1147 -768 0
1261 375 0
-1612 1251 0
1090 -1670 0
-1532 -1144 0
1907 1216 0
-956 -1278 0
-978 410 0
-1313 41 0
1156 -443 0
895 -835 0
-553 -269 0
-1193 -842 0
-1357 1580 0
-567 -1214 0
36 1281 0
212 -1282 0
-1354 1049 0
629 -91 0
928 -720 0
-871 -1569 0
777 726 0
771 -545 0
1172 -1600 0
-450 -478 0
1877 367 0
-836 -406 0
-292 -845 0
-1733 1059 0
-743 -293 0
105 1415 0
-655 -1593 0
1657 104 0
-1272 874 0
-1767 -584 0
-1153 1103 0
1871 474 0
1607 1579 0
239 -319 0
-791 -791 0
-1864 400 0
-1767 -1376 0
-642 -185 0
-272 1620 0
-1232 219 0
392 1118 0
-107 822 0
1881 160 0
1371 751 0
-1319 -1830 0
-1581 164 0
1217 732 0
1456 -887 0
474 947 0
1516 -1721 0
-85 486 0
635 644 0
-289 -222 0
-946 -974 0
-1097 233 0
-1869 131 0
-591 -63 0
-1614 1080 0
-854 1766 0
867 -931 0
627 62 0
-915 1481 0
-1283 -1905 0
698 -1869 0
-1315 -217 0
980 -257 0
1645 1871 0
-257 196 0
-1650 785 0
-957 1546 0
-98 -1770 0
-1929 1818 0
218 804 0
1116 1328 0
299 -1248 0
1838 -1584 0
1910 1867 0
1674 417 0
282 -864 0
1465 -983 0
-2 -877 0
-190 -1028 0
413 -545 0
905 -52 0
-993 630 0
651 1211 0
-1419 615 0
-31 462 0
-1635 347 0
-1579 -1589 0
-1277 -921 0
-815 984 0
-1795 -485 0
-1843 82 0
1070 -1417 0
241 260 0
-61 -471 0
-1769 -866 0
673 -1096 0
633 -1099 0
-1625 -1529 0
-369 -143 0
1092 103 0
-1400 1557 0
-16 1211 0
-400 644 0
-374 1177 0
-1849 1781 0
560 -866 0
474 -1 0
1291 1105 0
1672 -1748 0
-51 1617 0
1512 -1832 0
1041 -1823 0
-855 -285 0
-1567 1512 0
1877 1176 0
1550 -1912 0
558 1568 0
262 1811 0
-696 1707 0
1668 984 0
-1612 -615 0
-1544 1129 0
-894 421 0
-911 65 0
987 -1848 0
-989 -201 0
1540 -481 0
524 -986 0
-1166 -1455 0
1232 1840 0
1166 -994 0
30 -803 0
1090 -210 0
-54 -727 0
1921 502 0
482 837 0
1535 1182 0
-1665 -608 0
1790 159 0
-53 -245 0
-676 -1058 0
-116 694 0
218 -1132 0
-1319 583 0
-229 -257 0
1606 -1725 0
-653 -1728 0
-202 935 0
-1826 -1788 0
1837 -39 0
1556 -686 0
812 -1727 0
-1283 -1575 0
-1482 1499 0
1932 -1128 0
-500 1529 0
-433 -1459 0
-843 -1404 0
-1188 329 0
760 -1462 0
-1729 1758 0
1787 -94 0
1206 -710 0
-1011 1503 0
169 1035 0
773 -960 0
-1214 1124 0
1852 345 0
1195 -707 0
-1781 -765 0
-1748 -1085 0
638 1159 0
1536 -917 0
1020 888 0
-1890 -448 0
979 1161 0
1002 -358 0
-1524 -770 0
-46 800 0
-1821 -669 0
298 532 0
-75 1192 0
-1297 -153 0
-1166 -759 0
1226 -1210 0
-1339 181 0
-689 -881 0
-831 -769 0
482 566 0
901 619 0
734 -1521 0
-626 477 0
355 -1218 0
30 1357 0
-1895 -1291 0
-475 -612 0
983 -1433 0
-662 232 0
-316 308 0
-1378 1116 0
-36 -27 0
-526 261 0
236 -1585 0
913 420 0
1564 -704 0
726 1024 0
-787 -1283 0
-250 176 0
-694 586 0
1270 1529 0
1124 -1 0
1740 -711 0
1550 -1574 0
1667 -1740 0
83 1241 0
-606 -1280 0
1704 196 0
-1519 -1106 0
406 -241 0
-669 663 0
-477 1371 0
1146 -1357 0
-700 454 0
-394 -1378 0
1031 -1766 0
13 1137 0
-756 1310 0
-1667 1564 0
15 -431 0
1498 -745 0
1514 286 0
1875 1883 0
-1695 -1185 0
466 -878 0
-486 -1388 0
428 1937 0
405 -1599 0
-4 826 0
-1468 1841 0
1766 -1669 0
-1315 -1632 0
-269 28 0
774 549 0
1619 -140 0
-638 -510 0
925 -1037 0
337 123 0
741 -545 0
-373 -190 0
-190 313 0
-91 400 0
-598 1692 0
-371 -273 0
1243 1251 0
1435 -643 0
-1926 -1383 0
912 -464 0
-179 -977 0
-599 -489 0
1750 -1483 0
1443 -625 0
-275 242 0
-445 -1231 0
-1426 -606 0
-401 1238 0
-1004 -1164 0
-1314 1274 0
162 -411 0
-1917 1428 0
-400 499 0
547 1270 0
-1781 1427 0
1819 1375 0
-1455 -1462 0
1744 647 0
-267 391 0
743 -220 0
1602 1134 0
1902 -756 0
1035 -750 0
1022 -1052 0
560 -1168 0
-1244 403 0
526 1896 0
582 -1754 0
-1518 -1134 0
-469 1345 0
545 -1147 0
-219 -433 0
-837 -1208 0
498 -1480 0
1292 86 0
-1651 33 0
-835 63 0
-1434 417 0
1063 1247 0
798 495 0
-1173 -1670 0
727 -656 0
-1393 -504 0
-76 981 0
-1023 1339 0
-122 -899 0
-1263 1832 0
-455 -1920 0
-1684 665 0
1846 -563 0
-1753 412 0
-600 12 0
507 330 0
689 -955 0
-840 1863 0
-320 -1378 0
-1361 523 0
-881 1750 0
-987 225 0
67 -305 0
-727 1803 0
-1848 -393 0
337 1069 0
843 1055 0
634 -662 0
-1254 -1222 0
1478 1758 0
-585 1068 0
1723 -205 0
-1054 -419 0
449 1889 0
1053 -1327 0
-1700 -1370 0
-1689 181 0
244 423 0
1098 -303 0
1391 666 0
1613 301 0
1102 605 0
-554 1585 0
-1311 553 0
-643 1 0
-86 814 0
-1655 -1857 0
32 307 0
529 53 0
-1181 -804 0
211 -891 0
478 900 0
-562 1040 0
1419 312 0
820 1608 0
-1142 633 0
-1313 -245 0
-1046 1211 0
59 -571 0
-294 -1748 0
-1870 -193 0
-1283 34 0
627 1388 0
1438 -1684 0
616 -419 0
-251 -1335 0
-1509 -1914 0
-183 796 0
-557 1353 0
39 -1597 0
-1086 -1386 0
-1576 390 0
-1197 10 0
-292 -729 0
-1703 -1500 0
-118 -1105 0
495 -986 0
-366 -923 0
511 747 0
-1832 588 0
630 -260 0
-1552 817 0
1504 -625 0
1628 -1177 0
-791 256 0
1932 -1048 0
1456 -641 0
1625 42 0
-1395 144 0
914 -877 0
-1110 -596 0
1345 -547 0
-654 666 0
310 -1416 0
682 582 0
587 -1649 0
-921 572 0
-1613 -770 0
660 1758 0
1512 -1690 0
-338 -1084 0
-909 1517 0
219 482 0
1688 -772 0
-1015 -1414 0
1118 -600 0
-22 1494 0
-1700 -1637 0
-1103 -1454 0
-275 1031 0
-585 1478 0
896 441 0
1668 380 0
-1365 990 0
1922 -1279 0
-403 334 0
903 -638 0
252 486 0
-1545 1841 0
454 474 0
1910 1455 0
-1206 -66 0
1433 1369 0
-1632 754 0
1353 556 0
393 -887 0
-808 -768 0
-452 -1456 0
1510 869 0
-1908 -111 0
-1340 -1465 0
1653 -510 0
-210 -321 0
-736 1259 0
87 262 0
1355 169 0
-1645 -373 0
-700 1766 0
-1135 1894 0
-1084 1507 0
-1862 1893 0
1025 319 0
1896 -1139 0
859 353 0
-203 -210 0
1030 -403 0
577 1585 0
-1769 -1115 0
-1485 967 0
531 -1699 0
-1649 1707 0
-641 1458 0
-509 284 0
702 -490 0
-929 985 0
982 -1618 0
1431 -28 0
-1778 344 0
479 -294 0
1561 -1134 0
-74 -380 0
638 -690 0
1340 -898 0
1075 928 0
1227 -485 0
-1741 1080 0
1295 -140 0
1408 1324 0
1311 -1644 0
480 1885 0
914 -470 0
657 1307 0
1265 -1853 0
105 -1898 0
-1481 -493 0
-446 734 0
-363 -453 0
-1673 892 0
-1133 984 0
1427 1394 0
-1450 -1060 0
891 1669 0
1394 895 0
-402 -1235 0
24 -769 0
1542 -1557 0
-595 -1575 0
-608 843 0
-1804 -1195 0
1679 164 0
-819 216 0
298 1013 0
1024 -1256 0
1567 -49 0
724 -1131 0
702 172 0
-998 -365 0
-1321 1174 0
787 892 0
-448 1308 0
561 357 0
-734 -415 0
-1567 -1308 0
-751 555 0
758 -1073 0
885 1440 0
-1142 1012 0
-557 -471 0
-631 422 0
1052 -409 0
-168 -377 0
-872 1851 0
1268 -1097 0
1363 -959 0
-504 300 0
1093 651 0
557 -679 0
375 -336 0
526 -1211 0
1128 -1830 0
460 -1099 0
-1168 1046 0
-1566 1019 0
849 1046 0
-1250 -1657 0
110 -1819 0
605 -247 0
-131 -1358 0
-442 770 0
231 1475 0
-500 698 0
-700 -1331 0
-1308 690 0
1780 145 0
859 1382 0
1517 -217 0
1088 756 0
-857 1903 0
-724 11 0
470 972 0
-320 1003 0
1898 -544 0
332 20 0
1572 1682 0
269 467 0
-618 1651 0
-376 1407 0
-165 782 0
-1411 -918 0
199 -1109 0
-175 -621 0
682 -1483 0
-1362 1129 0
-811 1496 0
-851 1089 0
524 -727 0
-1428 -1127 0
-1106 -1715 0
-120 242 0
-1527 117 0
-592 40 0
-697 1922 0
-443 103 0
931 258 0
690 355 0
401 -17 0
987 1443 0
739 -417 0
-786 1620 0
1465 -739 0
-594 -1179 0
543 -647 0
-1268 -355 0
784 1374 0
900 1739 0
-123 -1824 0
-1332 -1899 0
-1806 -841 0
1160 502 0
-101 1012 0
871 -1356 0
1827 546 0
83 -780 0
-923 -1349 0
1608 -143 0
-1568 1063 0
-818 -1663 0
-61 1568 0
1598 516 0
1648 -1047 0
-1578 1023 0
1435 540 0
527 -1294 0
-1356 -1296 0
-310 -1054 0
953 986 0
-1576 1613 0
-620 473 0
863 365 0
-533 1921 0
456 -1134 0
-1152 823 0
1597 802 0
-556 1237 0
381 1057 0
-1569 241 0
1766 -1836 0
939 -1477 0
-1489 -183 0
1017 -926 0
-1117 -252 0
-1710 -1402 0
1820 1238 0
644 1051 0
1022 -1091 0
-153 -1642 0
1297 1692 0
-254 -1622 0
-1754 935 0
-602 -1906 0
-5 -1411 0
-1530 939 0
-1075 -709 0
1038 -179 0
-70 243 0
-619 -1232 0
-86 1057 0
-62 1333 0
-519 -810 0
1366 650 0
-1094 -557 0
-582 1401 0
828 -673 0
-927 -1406 0
546 283 0
-729 -40 0
-705 215 0
-349 -1893 0
-88 -1677 0
425 1451 0
-845 638 0
1633 -856 0
-218 -676 0
1159 1377 0
-759 438 0
-840 -1905 0
-1689 1496 0
-1916 -1384 0
-482 661 0
561 1586 0
1472 -1128 0
-324 -417 0
-7 -1485 0
-932 1341 0
-1098 1423 0
-640 -1749 0
1506 1550 0
1096 -123 0
-1928 161 0
-830 740 0
873 -908 0
-1377 120 0
1872 252 0
-1258 -671 0
1929 -444 0
-821 1873 0
1674 1735 0
1341 -1387 0
1221 293 0
1903 1126 0
1812 1077 0
270 -1570 0
1109 345 0
-1044 1043 0
1494 1680 0
508 1514 0
-873 -1302 0
-187 -1051 0
-1248 -817 0
1727 1448 0
623 -1038 0
-1628 843 0
-910 1063 0
-1101 1855 0
-407 1750 0
1435 1457 0
1932 -185 0
1798 1120 0
-1233 249 0
-37 1223 0
199 -151 0
1568 952 0
1301 742 0
965 -645 0
86 -1131 0
-948 795 0
59 569 0
-397 -1559 0
1605 421 0
1285 -132 0
367 1850 0
904 1196 0
1177 -359 0
-191 1325 0
-300 -1101 0
-903 -1354 0
639 -1000 0
-1561 -528 0
-118 1581 0
-1735 -1150 0
-1318 -1377 0
1048 365 0
756 -1690 0
-429 702 0
1181 -172 0
-335 -25 0
856 -54 0
735 -1164 0
1560 745 0
-1584 145 0
1424 1118 0
1028 -1793 0
1364 1581 0
-1924 1916 0
-1181 -886 0
-896 -800 0
-1204 646 0
267 -1502 0
1710 569 0
-180 234 0
-758 -451 0
723 -201 0
-425 -685 0
255 -1054 0
-292 -1391 0
1307 1257 0
875 1760 0
1012 -896 0
-187 -930 0
1045 -1698 0
1114 -1869 0
-1591 1085 0
-1434 -1295 0
15 -446 0
1845 -667 0
380 832 0
-1124 1041 0
1749 -572 0
-1361 276 0
-269 -747 0
-1082 1563 0
1435 -1592 0
766 -585 0
-257 -404 0
86 -1027 0
233 905 0
-1151 1104 0
392 -1080 0
-1699 -1284 0
1602 77 0
-788 -567 0
-322 477 0
-156 1286 0
1195 1323 0
1369 553 0
766 -712 0
-1601 1341 0
951 -1598 0
-563 582 0
620 974 0
359 802 0
763 279 0
-1383 -1 0
842 -510 0
-1515 -752 0
-84 -639 0
1664 -63 0
-575 -1330 0
1669 -1301 0
1807 -856 0
1739 -1640 0
-836 -1271 0
-823 37 0
-403 -678 0
954 -539 0
-828 705 0
1645 -847 0
362 1192 0
924 1403 0
-545 1888 0
-1365 -1658 0
1430 -157 0
-373 -109 0
-835 -824 0
1827 1673 0
-1084 -308 0
-79 963 0
1244 610 0
832 1230 0
-172 -509 0
1213 731 0
-36 891 0
-197 -1446 0
-1156 -1677 0
961 1501 0
-1409 -190 0
-1534 1193 0
-124 -1034 0
-1305 -562 0
-1058 787 0
-1428 -406 0
-1632 68 0
862 -571 0
977 969 0
-741 1058 0
-1861 -640 0
460 962 0
587 -1694 0
-653 395 0
-571 895 0
-233 608 0
1280 691 0
1579 -1384 0
530 -1869 0
-225 749 0
-257 -699 0
1810 -1409 0
1047 -1393 0
1070 1274 0
965 -433 0
858 -1585 0
-643 -1665 0
-286 586 0
-592 -1100 0
-618 573 0
-80 1262 0
1214 -1849 0
1684 -720 0
423 -329 0
-1142 -333 0
1530 1888 0
-1252 1784 0
1886 1863 0
-1250 -1673 0
-1287 -969 0
-1683 1394 0
1701 -765 0
1922 1092 0
699 -570 0
770 1303 0
-430 616 0
-4 -43 0
574 387 0
278 1668 0
309 569 0
-1439 -813 0
-795 -718 0
-1908 1059 0
-1424 23 0
852 1494 0
1016 42 0
1102 -499 0
1080 -110 0
901 -1736 0
1486 -139 0
883 -779 0
-575 -1487 0
1357 -1637 0
16 1931 0
-1722 163 0
144 670 0
954 243 0
-1023 405 0
255 -1783 0
-936 -1037 0
-1793 1537 0
228 975 0
-1389 -670 0
-1543 1026 0
1561 -415 0
-869 447 0
-666 -1188 0
957 -1791 0
-1815 -1293 0
1911 -719 0
-1769 -1915 0
724 -371 0
-633 637 0
-587 -147 0
1053 1476 0
392 -694 0
597 1407 0
1553 -1389 0
-1292 1609 0
1594 -883 0
1451 -701 0
1093 -1721 0
-1783 81 0
362 -1239 0
1718 -477 0
-1589 756 0
-119 -1921 0
-575 1339 0
-500 -678 0
-1726 -1322 0
1325 482 0
-340 1192 0
1669 252 0
-25 -635 0
1139 749 0
386 -1137 0
-1853 1293 0
-118 -1714 0
-994 -1051 0
-340 161 0
1473 1006 0
1167 -529 0
1422 -747 0
1319 1840 0
-571 795 0
1264 -1782 0
-153 494 0
-112 1297 0
-1232 -944 0
568 1891 0
1022 -1677 0
1603 -1843 0
-1069 1182 0
-444 -277 0
1160 218 0
-97 -1209 0
1122 212 0
81 -1289 0
-1642 174 0
-426 1422 0
-1610 -860 0
-1920 1917 0
-670 -1179 0
-1133 -66 0
1195 939 0
-1366 -887 0
-1096 832 0
-1621 -72 0
-1821 -1009 0
1572 804 0
-408 -727 0
-517 1118 0
685 -1577 0
-1249 437 0
645 494 0
-1156 -452 0
1548 -683 0
881 -1566 0
-1413 1648 0
1174 -1576 0
1684 1568 0
1492 -1357 0
1379 -821 0
483 -1366 0
166 -853 0
318 1203 0
916 -590 0
994 -391 0
-1861 11 0
1571 -1828 0
-697 875 0
1042 -1621 0
1633 -628 0
-1269 -1925 0
1380 1412 0
687 -1621 0
-613 -1642 0
-303 67 0
-1232 -310 0
-827 953 0
-1148 1528 0
1241 -1338 0
486 1459 0
1252 -338 0
178 114 0
-1784 -1455 0
-1305 -1805 0
-1290 1275 0
116 -1643 0
1329 -458 0
644 631 0
-1832 337 0
215 -1639 0
1003 -1245 0
1526 -1405 0
-121 97 0
1443 -1567 0
-963 -1058 0
-360 -1870 0
-162 -1062 0
1868 -166 0
723 1884 0
886 516 0
400 1403 0
30 867 0
-1464 -230 0
-1865 -1154 0
301 891 0
-1353 1421 0
-1149 483 0
-970 -430 0
-840 344 0
704 523 0
1453 -1084 0
-1847 730 0
-884 1850 0
1695 580 0
1932 1511 0
-835 -415 0
-1710 723 0
-1188 -995 0
1177 349 0
-349 37 0
1459 -1250 0
1333 -1688 0
985 1749 0
633 -1726 0
36 1002 0
-1747 -1529 0
-195 685 0
-517 -1118 0
830 -1143 0
87 -1818 0
-1478 -318 0
-1817 -1386 0
-1201 1750 0
293 -1389 0
1634 -307 0
-1849 -1408 0
-281 -1001 0
337 -890 0
-1442 -693 0
-1677 1667 0
-1620 1530 0
-1799 -1141 0
-1395 -272 0
1074 1223 0
-1898 -1449 0
1229 -696 0
888 1602 0
437 1730 0
430 328 0
-1852 -388 0
-440 -1570 0
-409 1640 0
-911 -24 0
-371 1914 0
820 1814 0
-1348 -443 0
-1688 -1566 0
1901 -1287 0
603 1069 0
-830 -1670 0
1448 24 0
-1080 -349 0
810 -683 0
-381 -1510 0
1521 -1358 0
-530 -1026 0
-1288 -1233 0
1173 976 0
1809 1151 0
-112 -767 0
-1874 -757 0
-417 699 0
37 -1429 0
-384 -1411 0
646 -1422 0
-1052 1501 0
1435 -200 0
-127 -737 0
1020 -1463 0
-1828 -967 0
1735 1001 0
48 -653 0
-1480 -1720 0
-229 -1863 0
102 244 0
-533 1652 0
-1485 -1675 0
-981 -1353 0
-894 495 0
1491 582 0
-613 -1479 0
-1622 270 0
-948 -162 0
-156 223 0
-1874 448 0
148 -93 0
1861 881 0
-443 34 0
-330 -958 0
488 -1134 0
1020 184 0
104 429 0
-781 144 0
1627 1151 0
1679 -468 0
726 806 0
-88 1127 0
904 -598 0
-621 102 0
-1034 732 0
566 -112 0
1495 1039 0
-1766 -112 0
695 1203 0
-192 588 0
460 -857 0
282 -1412 0
1426 -173 0
1149 -1838 0
-187 -1274 0
-785 -1929 0
1695 1270 0
-907 -650 0
-925 -1190 0
-11 -696 0
785 1087 0
-1117 279 0
-998 889 0
-857 1274 0
-1418 -1058 0
-291 1651 0
-1197 809 0
91 -1269 0
-237 -1507 0
-1635 717 0
975 -1163 0
-321 -533 0
-1544 -1741 0
-333 -888 0
-360 -950 0
1079 -510 0
-1549 484 0
1382 -1667 0
-1641 932 0
-1639 -800 0
-880 1903 0
586 1134 0
-228 -1453 0
998 -1298 0
-1721 1006 0
-1208 986 0
565 1408 0
820 582 0
-1248 -845 0
1886 1693 0
1780 1931 0
1411 1203 0
649 -247 0
-1671 1587 0
-1398 903 0
-63 1071 0
-1617 -1150 0
-345 -195 0
-332 -1702 0
-1233 102 0
-1386 49 0
480 -535 0
1300 -317 0
1816 -937 0
-272 330 0
-1117 1715 0
-1521 550 0
-1100 429 0
-274 -1631 0
718 -583 0
1427 1248 0
1238 -1710 0
-189 -764 0
1467 1761 0
1126 1865 0
-1348 -1456 0
1112 197 0
604 526 0
-652 -1454 0
1674 1481 0
494 -1931 0
-750 1229 0
-1621 513 0
1595 1431 0
1566 -1830 0
1651 903 0
45 1910 0
-32 -1897 0
1648 -1901 0
280 1876 0
-898 20 0
-1245 81 0
1430 1007 0
1903 -1782 0
392 -1443 0
-996 -1205 0
1892 -1563 0
1030 -743 0
-1314 -1815 0
633 15 0
540 -828 0
714 -1917 0
488 -1857 0
526 638 0
1861 1423 0
-1173 -824 0
-1793 726 0
-1562 -1935 0
-1799 1860 0
1128 1810 0
1605 1059 0
-1679 -670 0
-1687 -1545 0
885 -1614 0
-728 -855 0
-1008 -1642 0
142 926 0
-1444 -1328 0
1363 -1872 0
-290 -1372 0
-4 -1845 0
-709 1403 0
-1921 1821 0
-1381 357 0
-1367 552 0
-1565 -100 0
1254 584 0
1841 -716 0
1405 -431 0
-489 -943 0
98 -1862 0
-929 1473 0
-1279 -1671 0
1919 -1690 0
1468 954 0
900 711 0
-1249 -451 0
-1154 -947 0
1366 680 0
-1549 19 0
1658 401 0
142 -1932 0
1467 1861 0
-960 755 0
-1576 1350 0
1254 -857 0
40 -40 0
751 1842 0
1563 -57 0
-388 199 0
-525 -103 0
1398 -1934 0
860 942 0
1504 806 0
748 566 0
971 -1112 0
-174 -1813 0
1208 -1591 0
321 -1424 0
463 -1059 0
-156 666 0
-290 1103 0
-1729 336 0
-1502 1010 0
234 983 0
130 -769 0
3 -1870 0
-1684 -391 0
173 -433 0
-147 -599 0
-875 -1150 0
1394 -980 0
-310 -1181 0
-1099 11 0
1896 474 0
-208 697 0
1317 -734 0
-1846 1509 0
-1596 -617 0
1560 1342 0
365 794 0
-1313 -1012 0
564 946 0
1017 -584 0
-1328 -710 0
-638 781 0
506 -759 0
-754 416 0
-1143 599 0
1835 1691 0
170 1665 0
-13 1302 0
-260 -447 0
-1726 -1091 0
-1233 -1829 0
-532 -1563 0
935 430 0
-1133 -1597 0
86 -943 0
-203 -1189 0
822 1207 0
-1296 -660 0
-273 103 0
-1490 1468 0
-1830 -372 0
340 501 0
1899 -613 0
1812 -257 0
1905 -1524 0
1808 448 0
-931 -1921 0
655 1110 0
-1082 1350 0
-1293 -1661 0
-169 -760 0
-1621 1312 0
-1322 1917 0
865 -442 0
1761 1752 0
233 329 0
1547 1479 0
192 900 0
1520 1028 0
-1004 439 0
-866 1355 0
462 1521 0
-1171 -1371 0
731 1736 0
-1434 534 0
-686 -1767 0
-397 64 0
-1520 -1560 0
561 781 0
-965 258 0
467 812 0
1477 -606 0
-779 852 0
1846 1443 0
1253 -1700 0
1766 -1321 0
1643 -1914 0
-220 -1470 0
-493 1496 0
636 -1483 0
-1862 -1298 0
-1812 1157 0
-1083 -1689 0
-1882 -1140 0
-1841 202 0
1117 1044 0
-1239 1196 0
472 605 0
1541 -851 0
695 -1301 0
-432 -402 0
-1862 -288 0
1407 1621 0
747 1902 0
-269 1896 0
1369 1437 0
-1491 1662 0
-442 -527 0
-1533 822 0
1614 -479 0
1007 177 0
210 -151 0
1710 -179 0
1410 643 0
1367 -1781 0
266 318 0
710 -1880 0
-1376 -153 0
472 -1927 0
-1173 130 0
-1056 1662 0
1504 -355 0
-821 -613 0
-1141 1669 0
-947 1777 0
1035 1500 0
359 1743 0
41 -921 0
-225 966 0
-440 -705 0
1551 558 0
-715 945 0
1840 1613 0
-842 -849 0
-571 1053 0
-1798 1465 0
-1395 1786 0
-591 -264 0
242 601 0
304 -1092 0
327 -1073 0
646 1301 0
76 739 0
608 -592 0
-1877 460 0
1228 438 0
-673 -1273 0
1046 -217 0
1103 1192 0
721 1250 0
-545 -140 0
1185 -591 0
1592 -1899 0
-845 -1676 0
240 -601 0
-1324 615 0
-56 1816 0
508 -1179 0
1761 217 0
-946 -1157 0
1649 -999 0
-1393 -1109 0
495 425 0
685 1926 0
-962 1309 0
-899 -1843 0
506 -1357 0
844 607 0
-1093 584 0
722 -493 0
-297 -383 0
-1595 1028 0
-870 -1299 0
-1132 -169 0
-1815 -1848 0
350 367 0
-404 -1243 0
-1412 237 0
-1569 1173 0
850 -346 0
1530 1770 0
743 1766 0
-970 122 0
-311 -761 0
-71 -127 0
-1525 -366 0
-1384 1030 0
1204 -833 0
-1867 1871 0
-944 -1018 0
376 1186 0
-1507 -1604 0
-1885 888 0
-1147 481 0
-763 -1861 0
512 165 0
670 -883 0
-1280 498 0
-1128 -100 0
1506 1430 0
1881 891 0
1692 907 0
-368 -493 0
-1173 965 0
249 929 0
-191 1140 0
644 1535 0
334 1603 0
-1853 236 0
-1700 1413 0
1494 -1397 0
803 1767 0
-1095 -1526 0
1016 1740 0
1597 -1636 0
-1520 834 0
-1741 -1453 0
-1281 323 0
959 -1004 0
688 -878 0
584 41 0
861 1158 0
-38 -651 0
-843 491 0
-1133 889 0
459 -1936 0
-1282 -349 0
-1444 339 0
552 -946 0
1688 1268 0
223 -186 0
-1387 207 0
1681 -1717 0
-1567 1410 0
-1383 -146 0
-496 -931 0
326 -1280 0
-308 1744 0
-1327 -1068 0
576 1195 0
-888 852 0
115 -1324 0
-1135 716 0
-1099 1035 0
-1849 1642 0
-121 -72 0
-995 -1448 0
-722 -1354 0
-521 -136 0
18 -157 0
-894 -223 0
293 -1061 0
1633 208 0
-1655 777 0
924 -1878 0
-1393 902 0
1753 -509 0
-558 -1795 0
591 -1176 0
261 -1627 0
828 -1811 0
-320 233 0
155 1728 0
-20 1137 0
920 1644 0
-410 1303 0
1176 299 0
-865 318 0
-1398 1353 0
-1890 402 0
-1379 1587 0
1123 -1226 0
1854 -806 0
1722 771 0
1252 1801 0
-452 -1608 0
1571 1291 0
-575 939 0
-1902 1930 0
-1513 -1703 0
-1155 49 0
1331 329 0
642 385 0
-598 -1217 0
-773 -269 0
1002 1476 0
338 122 0
-77 -1517 0
-598 400 0
737 -819 0
1002 -1737 0
-1068 548 0
-1321 -1837 0
1692 818 0
1048 1446 0
284 1418 0
482 -1529 0
470 -955 0
-1279 324 0
1705 -1195 0
-875 1258 0
1662 -1912 0
-1154 -1540 0
1124 -1231 0
-824 1448 0
263 -1627 0
-1574 -461 0
-289 -343 0
-738 -1326 0
-1802 438 0
1854 -1786 0
-1660 1787 0
202 1936 0
1926 216 0
1341 -1226 0
-1655 -1827 0
1802 -862 0
115 365 0
1712 -139 0
1309 -288 0
-614 383 0
-237 -950 0
-1138 -951 0
-1173 -61 0
232 387 0
-1483 287 0
375 -1759 0
1537 -756 0
-708 82 0
913 1470 0
1511 -1046 0
163 1682 0
-896 1809 0
460 1022 0
1602 -1541 0
1374 -505 0
1710 938 0
-1037 1609 0
-411 -1470 0
1927 -861 0
1821 -1514 0
1419 -599 0
355 555 0
1712 -461 0
445 1013 0
-1470 -1478 0
1146 580 0
1033 -874 0
-1529 561 0
-998 301 0
1117 -1732 0
857 1645 0
928 533 0
-1566 -315 0
1708 114 0
-1453 1660 0
277 -1500 0
-545 -130 0
-280 1434 0
615 -1222 0
-1346 954 0
-1402 573 0
1430 -631 0
-934 1510 0
108 696 0
-379 -1842 0
1518 -168 0
386 321 0
-730 935 0
1614 -180 0
1522 584 0
1745 -1490 0
-958 1531 0
671 -1630 0
-1724 -1873 0
-1800 -1520 0
1132 1481 0
-722 -1603 0
764 1537 0
1789 -1144 0
-997 -1618 0
1291 1448 0
-1760 1343 0
1615 240 0
607 -897 0
-1897 -433 0
-461 -272 0
-1389 -1169 0
697 1511 0
-143 1159 0
-317 -732 0
-1613 163 0
138 -1683 0
-1826 323 0
-1477 -1321 0
-1600 439 0
1320 -1713 0
49 -1539 0
687 -1914 0
1779 -1781 0
-555 -119 0
-838 1749 0
-351 1620 0
-1935 -1800 0
-181 296 0
1401 196 0
536 131 0
1355 -1439 0
488 443 0
441 -683 0
581 -908 0
1190 338 0
428 641 0
1628 47 0
1825 -769 0
-720 795 0
416 -1169 0
1297 1292 0
144 185 0
-739 1789 0
977 442 0
-950 -1521 0
1712 -1083 0
-468 1519 0
615 -24 0
235 301 0
796 1097 0
-1696 1293 0
-1715 1804 0
842 1364 0
-171 573 0
-1925 973 0
-1774 713 0
1512 702 0
-600 91 0
259 -1240 0
-997 -1377 0
1885 1735 0
-99 1297 0
-1627 -1274 0
-913 1787 0
628 1818 0
1195 -1498 0
-880 -1145 0
-1616 -1231 0
985 -1539 0
1227 -606 0
1686 942 0
381 565 0
1653 -1422 0
-1064 -1581 0
465 1116 0
-743 -828 0
325 345 0
627 1331 0
-855 1687 0
73 -1675 0
1173 -433 0
1020 -1306 0
-537 461 0
-503 543 0
402 605 0
633 1164 0
1042 909 0
-1204 -1046 0
-1904 1037 0
634 1150 0
-530 -1439 0
-530 -1320 0
786 -107 0
-730 -934 0
111 916 0
-185 1491 0
-1836 1217 0
-1565 -4 0
933 371 0
-517 -1741 0
108 -970 0
-60 766 0
-1145 1540 0
732 -1277 0
-845 -119 0
550 778 0
-31 -383 0
1297 270 0
-1354 1322 0
-837 -7 0
-169 -611 0
-253 -51 0
-1136 1057 0
-1352 674 0
-969 98 0
81 1022 0
5 826 0
-1711 -222 0
-1110 1272 0
-1570 1479 0
104 -483 0
622 -907 0
-190 83 0
-337 -1751 0
-1168 984 0
-1001 -564 0
-927 -271 0
-1897 18 0
1048 1868 0
1229 590 0
839 1897 0
-875 -1583 0
1531 279 0
-56 -673 0
1381 -303 0
1223 -226 0
-1538 -1082 0
-322 526 0
-84 -547 0
1252 244 0
-1157 292 0
18 1281 0
1477 388 0
-1756 -1441 0
526 1806 0
1614 548 0
-1415 1711 0
939 -1393 0
-1862 829 0
416 -1325 0
-1762 -821 0
-96 803 0
-776 1148 0
1602 -1634 0
1564 1883 0
1148 -1732 0
1549 963 0
-1310 -480 0
-651 416 0
-435 -1775 0
-923 528 0
-1156 -519 0
913 1286 0
-1626 1382 0
-543 -1173 0
1221 1227 0
295 -1390 0
-1646 1342 0
418 -794 0
-704 1721 0
1096 1653 0
-1398 -704 0
362 -1748 0
1476 234 0
75 -432 0
-1088 -333 0
928 1123 0
-1428 -1869 0
-1378 765 0
-2 -1767 0
1142 -1570 0
-56 -1500 0
1461 1177 0
572 -124 0
-540 -1278 0
1736 1423 0
1614 1910 0
-1271 -1838 0
-686 1279 0
-701 1225 0
1327 28 0
467 -1570 0
-493 552 0
1290 -14 0
325 1838 0
766 -1204 0
-1439 -1629 0
213 1417 0
282 1237 0
1134 1633 0
295 1171 0
1191 -246 0
1148 -7 0
1739 479 0
-483 1756 0
-1323 1110 0
-1400 -376 0
-1358 -529 0
1014 -1525 0
-1899 1359 0
-509 1438 0
1090 -195 0
-592 523 0
939 -704 0
1399 -1424 0
643 959 0
-362 -52 0
-658 -930 0
-496 -147 0
-169 -92 0
-1574 -1080 0
1689 -356 0
850 1759 0
213 237 0
-209 754 0
-1365 1590 0
-1729 750 0
1055 -706 0
1848 -908 0
-1109 -545 0
-13 -591 0
1595 690 0
1016 -728 0
1662 200 0
406 200 0
1677 1345 0
192 -14 0
515 1571 0
1233 1491 0
215 -222 0
1195 1688 0
-126 -1436 0
-1009 401 0
1550 691 0
984 511 0
-1306 -439 0
-783 -396 0
-1449 -1767 0
-1550 1369 0
-1900 -947 0
-1799 -943 0
-674 -415 0
-962 -534 0
-432 -1283 0
700 1689 0
-1638 -77 0
-1892 1675 0
412 773 0
607 387 0
-1286 661 0
-1001 199 0
1610 1503 0
426 -1268 0
-15 -72 0
-1577 797 0
386 -925 0
602 698 0
-266 1790 0
-768 1710 0
-1846 623 0
-1715 -860 0
304 254 0
492 959 0
-760 -403 0
-1905 -284 0
-1381 -85 0
527 1657 0
-1015 1028 0
-588 73 0
-1347 -1506 0
770 -1834 0
-1905 1149 0
1711 957 0
857 1764 0
511 -966 0
-1184 -1773 0
154 -1573 0
1382 383 0
-1905 -1883 0
-747 1009 0
1096 -1727 0
-377 -399 0
-364 1217 0
-1529 1611 0
-561 -874 0
296 933 0
-519 178 0
-1204 -1566 0
-126 -1107 0
821 -391 0
-1037 1037 0
-722 367 0
-862 674 0
1202 29 0
275 -435 0
1546 -1549 0
910 -1425 0
-220 -1176 0
353 -1038 0
-917 -1062 0
634 -8 0
637 884 0
-1629 -970 0
524 -789 0
1251 1229 0
-1793 781 0
482 -372 0
620 -215 0
1345 -503 0
1263 1196 0
359 117 0
104 -863 0
90 -1472 0
1509 320 0
163 1062 0
941 1489 0
1192 1320 0
-1921 830 0
-492 -620 0
-1406 784 0
886 -291 0
-312 225 0
1810 -982 0
-1915 597 0
941 -1352 0
1262 498 0
-371 -1461 0
-1556 -45 0
1592 1080 0
742 -1218 0
-269 1685 0
1324 -1533 0
1716 1937 0
1587 567 0
-1263 88 0
1337 528 0
-1596 -1613 0
895 -1299 0
-1241 -831 0
-1782 -714 0
-1384 -1544 0
-1774 926 0
-1769 -1089 0
-1660 -1482 0
848 -257 0
1669 1573 0
638 -1628 0
-484 -765 0
559 235 0
-1853 -569 0
-1423 1649 0
-229 -92 0
-626 -121 0
1291 394 0
-1777 -162 0
900 195 0
1086 798 0
-1463 336 0
-1186 -54 0
-1294 212 0
-1491 -955 0
-1236 -815 0
-821 89 0
-1402 -1353 0
-259 -1246 0
-803 1841 0
628 1670 0
-526 -357 0
1407 -300 0
-1081 884 0
698 443 0
-1702 -235 0
1090 598 0
1850 536 0
340 -824 0
1273 454 0
-1679 934 0
785 114 0
-358 -959 0
971 1030 0
1473 1006 0
-12 1821 0
-1323 -1522 0
-88 688 0
-1459 -872 0
1636 -1368 0
-2 -1699 0
-1824 -1018 0
1542 -1252 0
-1263 -877 0
1766 -29 0
1161 -321 0
87 -531 0
1908 -650 0
190 -257 0
-1719 345 0
992 -1346 0
307 1148 0
494 -895 0
-285 867 0
-724 -1540 0
167 1315 0
-787 -140 0
-1209 73 0
-657 -51 0
-124 -1649 0
-1846 -1501 0
-307 1493 0
-714 -1665 0
1530 -1175 0
174 -673 0
777 -158 0
476 1693 0
-827 -993 0
1757 467 0
-693 1685 0
-1633 990 0
-410 1190 0
-8 795 0
-1934 -1272 0
28 -685 0
-289 1056 0
1494 -582 0
995 -1642 0
637 -1398 0
-595 1165 0
31 1421 0
55 -1440 0
848 -1145 0
-248 98 0
1933 861 0
-528 899 0
-33 860 0
1374 -1847 0
1183 87 0
-185 1017 0
1323 -1242 0
-636 -1110 0
-1144 726 0
572 -522 0
1841 388 0
436 -1226 0
1258 -1788 0
537 1420 0
1287 -684 0
-1158 325 0
-1638 893 0
-1294 1638 0
1534 1854 0
-60 -24 0
149 -893 0
959 256 0
225 -1218 0
-1633 -1834 0
-925 -1774 0
-1159 1476 0
-174 -1722 0
-842 339 0
745 423 0
-598 1892 0
423 528 0
68 426 0
-1773 98 0
1799 1608 0
-453 -1097 0
849 593 0
-449 1039 0
-1583 1861 0
-238 -671 0
1168 1261 0
671 390 0
-1839 1510 0
-1668 -346 0
1088 892 0
79 623 0
-162 -1034 0
-736 1736 0
-1682 -978 0
-1004 1416 0
-841 651 0
756 -84 0
-1302 -1875 0
-849 1408 0
-1545 -8 0
-265 823 0
402 681 0
688 383 0
-718 -71 0
-581 -451 0
-1384 6 0
1853 1861 0
-1753 1046 0
-1135 -235 0
1329 -838 0
-1874 1237 0
1387 -1286 0
1342 -867 0
1104 198 0
1116 -1242 0
-829 -1489 0
-1179 1178 0
-1328 -1874 0
726 -1231 0
-1098 -697 0
-1549 1566 0
-779 1835 0
-1627 -1048 0
642 -1804 0
-1781 633 0
1096 -1878 0
1466 1320 0
793 -1454 0
-574 458 0
-799 1206 0
-1096 1866 0
-1347 376 0
298 -1527 0
513 -597 0
-1920 -72 0
1591 1819 0
-460 -1701 0
-226 859 0
757 874 0
-375 369 0
1307 37 0
533 1026 0
-1106 -1213 0
-17 1871 0
-1886 -769 0
-745 -393 0
1319 -1751 0
232 1160 0
950 -85 0
1816 -617 0
1550 -1924 0
1475 -298 0
1396 469 0
-1508 667 0
-1541 1489 0
-190 281 0
1169 1125 0
850 -1349 0
-934 -641 0
582 -1456 0
854 725 0
973 935 0
-670 -1629 0
-1623 -222 0
-31 1674 0
-787 415 0
-134 -1869 0
832 -1198 0
1184 -702 0
295 -1689 0
-1081 512 0
491 -1886 0
-952 719 0
-662 770 0
1577 456 0
-1731 -336 0
1793 1425 0
-320 1453 0
329 1243 0
-1173 690 0
-193 -1231 0
-1675 -1256 0
-792 1719 0
1320 -468 0
-1563 -778 0
-1361 -775 0
982 882 0
-1722 -310 0
1501 -741 0
397 -592 0
8 -285 0
865 1081 0
1526 892 0
786 -357 0
863 -373 0
1111 -1347 0
1537 -1109 0
-1645 1170 0
-514 1333 0
1005 614 0
-13 67 0
1373 1790 0
1085 1097 0
-1137 83 0
-1349 688 0
629 -1703 0
20 1158 0
-1099 -318 0
561 -1520 0
405 511 0
-502 167 0
1194 -981 0
1484 1300 0
-135 -691 0
1789 -322 0
-1004 -1313 0
-1639 1040 0
-109 9 0
180 -1038 0
-1082 -1796 0
-1931 1746 0
-59 -898 0
-1637 -1093 0
-1423 -185 0
-1343 661 0
567 1119 0
1199 941 0
386 1550 0
-1471 1016 0
-1758 -94 0
-1451 -188 0
16 -1706 0
-995 -476 0
1744 -164 0
913 1110 0
1809 755 0
-745 -1127 0
402 -116 0
-1852 -1156 0
-1058 -1152 0
-63 1169 0
-1385 954 0
1889 830 0
472 -1525 0
1545 380 0
-1298 297 0
-1721 106 0
-775 -306 0
1844 -1880 0
801 -1839 0
497 -1416 0
-1442 -190 0
-54 51 0
-1298 -692 0
-1380 1896 0
-248 -553 0
-239 -415 0
-276 1650 0
1783 629 0
1810 -489 0
1723 1129 0
40 584 0
83 1337 0
-494 1765 0
-1228 494 0
-1127 905 0
-934 -1042 0
-1820 567 0
1574 -1298 0
-912 -563 0
-1429 1608 0
-288 -711 0
1253 1612 0
601 -82 0
975 -1757 0
495 1038 0
908 -1578 0
1281 1901 0
98 1792 0
-1627 -100 0
-1437 1000 0
-1217 1160 0
1907 1743 0
-1200 429 0
-1852 1017 0
815 -1319 0
986 1896 0
-1085 1850 0
1871 690 0
-1105 -836 0
686 -1887 0
550 -118 0
400 1746 0
-1397 -1410 0
1276 983 0
749 -947 0
-115 -1126 0
486 -1480 0
1497 1740 0
-193 -1591 0
542 -1245 0
-683 1902 0
534 -177 0
1719 963 0
-860 1608 0
128 1465 0
1647 1027 0
1192 1936 0
-659 -1377 0
-1641 1845 0
255 1580 0
593 992 0
39 941 0
-1185 -328 0
97 1466 0
641 -402 0
-891 -725 0
875 -671 0
1214 865 0
-1224 -1740 0
1126 1515 0
-1835 950 0
-994 1468 0
-259 374 0
-1610 -484 0
-1252 383 0
1566 -589 0
353 1355 0
1217 -1632 0
-478 -927 0
-257 1115 0
908 -1404 0
-1760 -1814 0
-204 -877 0
-946 -304 0
-1012 737 0
1444 -690 0
-1454 -661 0
-1072 1587 0
386 410 0
-626 -1890 0
1022 615 0
-1155 659 0
-1550 -402 0
-49 876 0
-535 958 0
1691 -1145 0
1122 -970 0
-648 -2 0
-1454 -868 0
-1327 152 0
-1701 -1715 0
372 -1639 0
-1463 -901 0
1647 1415 0
-420 -1917 0
1618 -511 0
-95 388 0
-764 -501 0
-1925 -1647 0
-262 474 0
278 -772 0
1451 -1813 0
-171 837 0
-1876 1465 0
-538 584 0
738 -553 0
-1807 986 0
601 1880 0
-1618 -1612 0
337 -1612 0
826 -1527 0
1469 482 0
388 125 0
-525 473 0
922 -1759 0
1616 -1488 0
9 -524 0
-303 -665 0
-312 -273 0
-309 646 0
93 1287 0
569 -1730 0
-1083 823 0
1654 -478 0
674 1184 0
-338 -1532 0
-1346 1086 0
328 -1008 0
-217 1204 0
-1260 -162 0
-584 -1632 0
163 -1855 0
-1245 1552 0
581 -654 0
884 -447 0
-857 1693 0
-934 1934 0
310 -909 0
-1671 -38 0
-1391 -1099 0
-311 1124 0
-59 1049 0
-1441 -1683 0
-238 -484 0
621 -480 0
876 1074 0
189 -1929 0
1247 1153 0
1304 -171 0
1204 1840 0
-1921 1793 0
-1635 318 0
-560 -657 0
-486 -434 0
-404 1881 0
-32 1777 0
1768 496 0
385 1447 0
116 -590 0
98 1650 0
-1280 -639 0
-1413 517 0
58 -52 0
1803 111 0
1506 679 0
612 -1516 0
1359 -1318 0
1371 521 0
264 -417 0
1238 -202 0
68 -752 0
1513 1620 0
-992 -183 0
-1732 -679 0
-139 1153 0
1547 820 0
-1233 -1611 0
-1338 -1871 0
-433 -1141 0
188 -1855 0
569 567 0
-1173 -759 0
-514 583 0
36 958 0
1716 -741 0
1423 -968 0
430 39 0
-1660 773 0
-1302 -1106 0
1648 -796 0
1705 1768 0
1445 868 0
466 1156 0
-1666 1013 0
-1214 397 0
-1805 -248 0
-811 1065 0
773 -1238 0
-329 347 0
114 -726 0
621 -840 0
512 1499 0
-836 1777 0
-767 164 0
-1728 -692 0
609 1240 0
1255 582 0
-719 1504 0
1316 -219 0
-1284 1780 0
-1473 -32 0
-1319 -503 0
-1080 -47 0
1774 -326 0
601 -551 0
-658 -168 0
-1915 698 0
1658 1845 0
-659 -420 0
-771 1790 0
-1922 206 0
343 333 0
-1588 -1316 0
-1016 1617 0
-907 968 0
848 -496 0
-1914 -1936 0
900 -346 0
484 -1052 0
213 -1774 0
1838 1379 0
335 37 0
1052 1396 0
-1305 1668 0
531 -1063 0
-1847 -1377 0
78 -1343 0
-477 -152 0
-1237 892 0
848 594 0
-1222 58 0
1496 1835 0
231 256 0
884 -1474 0
1393 1167 0
-1276 -1560 0
1415 869 0
1766 1260 0
26 437 0
-1526 1548 0
1264 -1840 0
1307 -510 0
1207 292 0
-354 -1354 0
-816 107 0
309 -1061 0
483 -358 0
1608 -84 0
-84 436 0
-488 891 0
-563 202 0
969 -1155 0
1577 959 0
687 -211 0
966 242 0
-309 -324 0
-402 -506 0
-764 1785 0
-674 -1358 0
-1479 -783 0
506 1145 0
1238 572 0
286 -1277 0
-1179 -1043 0
57 885 0
924 -1380 0
896 -443 0
551 -1347 0
-395 -1552 0
-1651 1366 0
-2 -1646 0
-718 -853 0
-503 87 0
1183 1274 0
1221 271 0
-1792 992 0
819 -204 0
911 1891 0
-816 -853 0
-815 -331 0
-562 370 0
117 1732 0
-933 1850 0
-188 -1767 0
664 -1541 0
-1387 -380 0
-689 -1513 0
-774 -1247 0
1771 -1674 0
-418 -695 0
1597 -2 0
-1293 -127 0
-1575 -374 0
-886 225 0
1640 -1476 0
1844 -1367 0
-540 -205 0
-1232 1502 0
-1583 1650 0
-444 -222 0
-482 -541 0
660 1341 0
466 276 0
437 1206 0
1753 -158 0
-1851 1300 0
1042 -1418 0
-897 1063 0
-681 -692 0
862 -1733 0
1889 -468 0
-522 586 0
1868 1118 0
1329 -1696 0
-1703 -1508 0
1104 1479 0
-165 751 0
-1066 1182 0
-955 1924 0
-824 -1162 0
73 -1672 0
-1857 1325 0
1067 1713 0
362 -311 0
1810 -750 0
-347 -1128 0
-952 -965 0
-1733 -1757 0
616 1741 0
1538 496 0
285 861 0
-188 -670 0
171 296 0
-288 735 0
1458 1685 0
1765 539 0
-1155 395 0
-473 555 0
596 -1905 0
474 -1703 0
468 1064 0
868 -156 0
-1100 619 0
801 1328 0
1797 -84 0
1422 -825 0
1522 -1328 0
-1732 1810 0
273 -1168 0
465 -226 0
-1286 106 0
1164 1873 0
451 437 0
1240 -1829 0
-1370 -751 0
587 8 0
-328 1448 0
-1419 -1108 0
1406 -945 0
915 232 0
-1563 -1897 0
-1774 1232 0
-1148 -292 0
841 -1554 0
-997 -331 0
536 408 0
1016 -1879 0
-527 -1348 0
-504 1894 0
-284 896 0
319 -135 0
1822 848 0
-805 1046 0
-1349 83 0
809 1821 0
-1529 -509 0
-921 507 0
-1753 26 0
-221 579 0
34 1360 0
-1143 254 0
-1152 -717 0
-1925 -493 0
-749 196 0
1680 -371 0
-207 -869 0
1049 -1234 0
414 1371 0
-1539 1002 0
1325 -1823 0
971 699 0
1320 852 0
1752 396 0
1259 -763 0
28 -366 0
-996 1229 0
-441 -1323 0
-1081 -1213 0
-836 680 0
-1732 -201 0
-1758 422 0
642 597 0
-871 -729 0
-155 1790 0
144 -1788 0
1123 858 0
1207 615 0
1647 -373 0
-1559 -1670 0
236 1013 0
-373 1636 0
-1312 -103 0
819 1510 0
-153 1932 0
790 1259 0
-1899 -776 0
-1624 244 0
-944 525 0
1194 -799 0
