c NF
p cnf 590 2124
476 491 0
481 293 0
240 -586 0
589 280 0
262 -190 0
-460 -552 0
466 -149 0
-202 559 0
-541 -533 0
-403 -294 0
178 -470 0
-201 421 0
-2 164 0
522 87 0
465 540 0
-112 358 0
-126 -409 0
-389 294 0
-280 -568 0
-558 -207 0
-264 -319 0
374 396 0
-175 536 0
-528 -335 0
349 383 0
-446 129 0
217 562 0
-194 517 0
295 221 0
-553 -59 0
13 -569 0
-304 -283 0
563 -130 0
-531 -239 0
521 279 0
-422 -363 0
-521 -182 0
189 -427 0
478 -167 0
-582 -371 0
358 290 0
-143 221 0
345 -209 0
-94 -507 0
409 132 0
352 475 0
-142 118 0
-306 373 0
-418 -40 0
-544 -369 0
-556 -159 0
-117 -37 0
-506 452 0
394 7 0
132 194 0
369 -42 0
41 -343 0
-414 -374 0
-211 -168 0
-430 421 0
230 280 0
-9 -557 0
-299 74 0
315 215 0
303 -89 0
162 249 0
470 542 0
-300 243 0
75 470 0
418 -469 0
4 390 0
-5 456 0
442 -67 0
510 -287 0
574 -445 0
-113 72 0
-119 145 0
-525 -178 0
195 -173 0
399 32 0
20 -191 0
-301 279 0
449 309 0
444 196 0
282 -233 0
248 119 0
192 147 0
-567 -286 0
99 -35 0
66 327 0
109 397 0
84 9 0
-255 -129 0
-270 -48 0
183 240 0
176 69 0
303 -347 0
574 380 0
-423 -451 0
-94 245 0
456 -197 0
529 128 0
-507 36 0
10 -234 0
251 -395 0
-93 141 0
-436 -510 0
87 121 0
580 -253 0
272 513 0
106 260 0
75 221 0
570 447 0
-202 -361 0
22 324 0
-510 415 0
-418 38 0
294 45 0
-482 20 0
380 568 0
-163 506 0
280 590 0
198 311 0
-427 315 0
-76 109 0
-58 38 0
139 537 0
67 -255 0
329 160 0
459 569 0
305 442 0
-184 -4 0
87 -336 0
-551 -453 0
-11 284 0
514 -462 0
-574 455 0
-230 -342 0
-510 386 0
538 62 0
-37 -124 0
313 -275 0
578 339 0
-253 304 0
-98 348 0
74 -418 0
524 -83 0
-78 570 0
-533 -364 0
218 -225 0
-50 566 0
384 40 0
-587 -338 0
-78 -479 0
-584 -146 0
545 299 0
179 419 0
294 -375 0
-526 280 0
-580 -564 0
418 -154 0
346 103 0
279 -291 0
-300 -198 0
352 -278 0
-211 -93 0
306 -495 0
249 -229 0
-179 21 0
137 509 0
37 -476 0
323 -226 0
-217 -112 0
236 227 0
301 434 0
542 104 0
-153 76 0
14 339 0
393 -350 0
90 -476 0
278 -382 0
278 -95 0
-149 1 0
-489 -321 0
-346 -231 0
360 541 0
259 -423 0
-99 -347 0
-236 137 0
-37 -445 0
-328 503 0
-367 279 0
-567 102 0
-224 -551 0
-322 262 0
245 -420 0
105 -320 0
180 -558 0
433 325 0
-584 31 0
155 -136 0
119 -528 0
289 437 0
-433 -212 0
398 357 0
561 419 0
145 -310 0
1 103 0
-474 -19 0
208 -177 0
48 31 0
433 198 0
-458 560 0
-518 -428 0
-537 -476 0
-525 -517 0
301 433 0
-561 503 0
-417 205 0
-357 589 0
139 70 0
-252 -560 0
41 -294 0
363 -229 0
-468 450 0
370 -423 0
-569 270 0
459 -491 0
246 -50 0
253 -457 0
-567 -353 0
-214 169 0
-441 -390 0
275 -469 0
326 301 0
17 148 0
562 -79 0
321 -264 0
310 370 0
-390 -244 0
491 204 0
-469 -252 0
-168 -451 0
-500 259 0
164 -61 0
331 -320 0
-510 165 0
-502 114 0
-409 -381 0
-151 -381 0
157 536 0
-30 -48 0
-42 -324 0
-420 -40 0
-447 57 0
564 -464 0
-285 -80 0
-424 20 0
-489 454 0
-429 54 0
65 -38 0
-56 -91 0
334 29 0
577 294 0
-53 329 0
327 -408 0
-307 582 0
544 221 0
-405 -224 0
65 -433 0
-234 -385 0
201 101 0
-258 -427 0
-6 242 0
132 -424 0
16 210 0
108 -236 0
-476 357 0
-401 -370 0
93 130 0
-467 366 0
349 95 0
-343 -146 0
550 47 0
-52 -69 0
-150 -135 0
-159 -199 0
211 174 0
-320 -397 0
-368 -223 0
-468 -450 0
-287 -219 0
66 -365 0
-468 -125 0
-24 -564 0
-412 128 0
76 -68 0
115 196 0
325 -432 0
-326 587 0
107 -195 0
-405 545 0
-99 -88 0
-239 -416 0
458 -515 0
485 286 0
-18 -15 0
-500 181 0
-326 194 0
271 -531 0
91 72 0
-354 200 0
205 -549 0
240 21 0
149 -120 0
-381 372 0
-492 -583 0
-135 -69 0
277 480 0
130 313 0
143 558 0
259 -327 0
191 221 0
-578 -403 0
396 339 0
189 -439 0
463 193 0
-268 233 0
-482 55 0
-39 310 0
435 -476 0
-160 513 0
327 325 0
-131 49 0
272 -120 0
-350 22 0
415 66 0
13 -8 0
289 7 0
538 -383 0
442 -552 0
-13 465 0
-272 -289 0
-511 -39 0
-32 -12 0
421 228 0
-493 -540 0
-473 363 0
554 248 0
104 -150 0
369 435 0
-374 245 0
499 -527 0
-523 -151 0
-365 223 0
339 -547 0
-30 -115 0
481 -159 0
280 -155 0
128 -178 0
126 -397 0
152 431 0
106 -72 0
-467 -531 0
-375 -524 0
349 292 0
-382 292 0
-491 276 0
-519 63 0
228 -80 0
-218 -590 0
-482 59 0
186 339 0
225 -268 0
538 195 0
561 -259 0
-382 -264 0
433 548 0
-63 270 0
-358 342 0
184 -464 0
208 -53 0
-307 456 0
311 -305 0
321 -468 0
-27 -158 0
-446 248 0
-375 -308 0
43 -292 0
-382 566 0
67 -7 0
-235 337 0
357 -525 0
557 -35 0
-134 -276 0
359 -464 0
-412 -396 0
-207 -344 0
21 -104 0
573 470 0
-385 -420 0
293 -590 0
170 35 0
-358 -541 0
44 -401 0
-309 348 0
446 60 0
-50 38 0
586 -25 0
514 -58 0
49 148 0
4 -426 0
-171 176 0
559 228 0
-89 368 0
-212 478 0
330 227 0
-64 396 0
419 527 0
385 -149 0
-252 427 0
-392 -156 0
188 33 0
352 -493 0
-434 329 0
589 -14 0
485 -14 0
483 360 0
-572 -324 0
-403 -380 0
421 357 0
536 563 0
-171 407 0
-560 434 0
-326 -511 0
577 56 0
331 -574 0
589 117 0
-49 294 0
-449 196 0
64 271 0
559 443 0
-2 509 0
12 196 0
-290 -578 0
-115 -416 0
-2 -495 0
-61 -493 0
-569 -576 0
-431 -48 0
566 338 0
2 488 0
285 -422 0
-332 -583 0
-223 -383 0
-581 -61 0
36 304 0
565 9 0
-393 415 0
-376 546 0
241 -559 0
-455 -327 0
-580 -250 0
546 342 0
334 5 0
289 -581 0
-76 536 0
-522 240 0
-212 371 0
178 525 0
257 226 0
-55 315 0
-448 244 0
-407 -343 0
-444 -160 0
260 538 0
433 -161 0
-416 -330 0
273 -61 0
-460 436 0
214 312 0
-460 -439 0
-80 219 0
60 72 0
441 -544 0
576 -587 0
-153 506 0
419 424 0
-159 -516 0
-355 -301 0
492 420 0
-287 -46 0
-374 502 0
281 357 0
-14 -116 0
-158 -138 0
281 -280 0
409 570 0
-493 -276 0
-587 -88 0
-300 392 0
41 -57 0
-515 -118 0
76 -115 0
-471 315 0
-523 -180 0
-480 143 0
-553 -361 0
170 333 0
-267 -91 0
391 -149 0
38 267 0
118 455 0
-87 -233 0
-342 -291 0
-314 -87 0
539 -244 0
-427 370 0
205 415 0
-581 274 0
-28 -98 0
-374 200 0
527 -203 0
-217 573 0
-80 -161 0
-30 490 0
373 145 0
-91 169 0
144 -443 0
-531 -343 0
402 301 0
-115 -388 0
271 443 0
470 240 0
-22 -146 0
566 -86 0
-57 166 0
200 368 0
-386 -272 0
-140 -117 0
92 -79 0
24 -468 0
-514 373 0
34 414 0
-290 488 0
157 116 0
462 -581 0
112 327 0
-130 -102 0
-445 499 0
-231 349 0
-44 -526 0
104 -476 0
-199 -200 0
-408 -580 0
-518 -129 0
234 365 0
207 281 0
-550 21 0
26 585 0
396 -298 0
360 402 0
-570 477 0
-397 582 0
-301 -19 0
358 538 0
-253 95 0
350 207 0
-90 -84 0
82 277 0
246 -164 0
118 227 0
-235 -164 0
-306 -439 0
-178 96 0
192 -60 0
329 -66 0
82 402 0
559 -572 0
287 54 0
495 -382 0
206 572 0
-131 -67 0
-568 -522 0
-488 -35 0
-333 335 0
44 17 0
194 428 0
-15 -272 0
582 -176 0
-533 -268 0
-429 312 0
-214 -460 0
-140 -515 0
161 386 0
-108 333 0
-299 -379 0
-78 418 0
534 -61 0
264 292 0
24 63 0
-104 75 0
-459 -251 0
-6 -541 0
110 356 0
-172 415 0
4 -30 0
-126 -30 0
121 25 0
349 -191 0
-247 -382 0
107 383 0
-138 -364 0
296 499 0
301 -169 0
-375 23 0
-507 -384 0
373 -11 0
-46 -235 0
107 531 0
-288 449 0
439 -374 0
30 -11 0
459 -69 0
-379 309 0
-130 -400 0
-588 98 0
-238 76 0
-160 -458 0
339 336 0
-226 522 0
-355 47 0
-185 425 0
-138 -470 0
456 -4 0
358 -549 0
-389 404 0
-474 44 0
132 390 0
-465 -81 0
-170 -495 0
-576 -469 0
384 -254 0
-479 -354 0
-149 293 0
-405 -329 0
-422 512 0
-213 -275 0
219 -407 0
108 -252 0
371 -489 0
-195 -155 0
-441 -30 0
456 208 0
-411 513 0
-518 -97 0
-90 -165 0
358 -158 0
466 199 0
-367 359 0
-408 -407 0
260 94 0
409 -264 0
-525 -407 0
81 141 0
-590 -159 0
568 277 0
324 192 0
-352 102 0
-514 246 0
522 -406 0
279 -125 0
471 -127 0
-526 312 0
431 205 0
-583 296 0
-231 543 0
-70 384 0
-243 -79 0
532 522 0
-112 130 0
285 -30 0
-173 480 0
-115 3 0
50 380 0
-354 -584 0
100 542 0
370 -153 0
-520 -197 0
27 -412 0
51 369 0
176 -567 0
335 513 0
534 -175 0
208 -214 0
-450 122 0
147 571 0
-134 -455 0
113 -15 0
-95 17 0
527 -261 0
-521 121 0
-334 -473 0
206 70 0
-428 -226 0
3 -59 0
45 585 0
284 577 0
-345 -142 0
-95 544 0
92 -549 0
-199 -137 0
378 -40 0
485 168 0
-116 -211 0
-61 -500 0
-246 419 0
-583 -25 0
-119 360 0
-459 -524 0
374 456 0
-578 261 0
-568 195 0
-109 -504 0
498 -78 0
470 -37 0
319 8 0
124 499 0
92 446 0
399 -81 0
-158 43 0
-255 -557 0
-83 18 0
579 567 0
-36 -429 0
111 -345 0
117 -231 0
294 24 0
505 -33 0
-130 185 0
205 443 0
91 -232 0
-463 119 0
-356 -434 0
-158 339 0
256 310 0
18 219 0
85 -310 0
-19 -298 0
-565 21 0
268 -426 0
-202 -10 0
-351 -107 0
-176 419 0
541 348 0
324 -540 0
-127 -363 0
-412 147 0
-25 3 0
1 -524 0
262 -354 0
313 -232 0
295 341 0
-23 -222 0
-401 -469 0
499 -397 0
337 62 0
-225 247 0
-469 96 0
250 372 0
-172 -141 0
152 266 0
101 -117 0
-61 35 0
-533 478 0
577 556 0
249 -225 0
-64 -267 0
273 -457 0
-231 -320 0
-405 -376 0
188 294 0
53 575 0
42 -203 0
376 22 0
41 -165 0
-351 477 0
-61 469 0
-269 -519 0
103 -173 0
-468 425 0
-551 499 0
296 259 0
446 315 0
-495 -61 0
-378 -185 0
-385 -524 0
-314 -125 0
-399 -89 0
189 -111 0
-23 538 0
-268 -284 0
-320 542 0
411 490 0
410 -309 0
422 470 0
13 105 0
-311 -464 0
187 303 0
-586 -237 0
475 -523 0
-32 410 0
496 228 0
-314 -235 0
-78 109 0
19 -95 0
278 298 0
416 259 0
-451 -487 0
259 412 0
528 313 0
-475 -40 0
-522 -64 0
-94 562 0
342 250 0
-104 -393 0
14 -304 0
-346 465 0
352 -78 0
-75 -171 0
-191 478 0
-561 -52 0
-25 253 0
65 -568 0
-563 -211 0
-474 477 0
562 449 0
-11 296 0
318 -349 0
569 -580 0
-195 82 0
-345 -191 0
190 566 0
-99 -380 0
-509 -173 0
512 570 0
-279 -269 0
554 326 0
-558 -38 0
-285 554 0
-527 -344 0
-505 280 0
-268 -167 0
128 41 0
362 -183 0
-112 103 0
454 257 0
421 -134 0
-143 -412 0
222 -131 0
-486 314 0
-186 -471 0
587 234 0
321 94 0
432 -576 0
-406 352 0
-120 -385 0
243 -586 0
249 244 0
440 102 0
-292 570 0
-523 -487 0
288 -387 0
-160 562 0
38 261 0
522 -448 0
477 325 0
187 444 0
-84 439 0
-181 72 0
-90 207 0
444 1 0
283 47 0
-335 -134 0
-80 -560 0
-173 -46 0
506 483 0
-134 -479 0
118 477 0
-243 -196 0
418 -564 0
-391 49 0
-365 -96 0
43 -458 0
151 -62 0
188 -275 0
-408 72 0
-474 407 0
151 210 0
472 -338 0
-130 -558 0
389 -277 0
4 -203 0
-113 -279 0
336 220 0
-167 31 0
490 94 0
442 276 0
205 12 0
534 241 0
205 -256 0
-14 -541 0
-61 -4 0
-511 -173 0
583 -557 0
274 -332 0
-489 -356 0
-580 -454 0
528 118 0
-95 -513 0
-223 -21 0
54 -243 0
-129 135 0
-233 -551 0
-219 31 0
562 15 0
438 -236 0
415 -353 0
260 270 0
-367 13 0
57 -371 0
451 -190 0
-150 -454 0
559 23 0
-182 -300 0
453 110 0
366 -395 0
-366 -260 0
7 575 0
-569 -298 0
-264 52 0
-91 -44 0
389 242 0
-53 171 0
494 -264 0
514 -540 0
166 -409 0
-451 220 0
77 22 0
-515 -364 0
392 -409 0
-115 -137 0
45 -409 0
280 -12 0
-525 -449 0
-275 413 0
133 -558 0
-375 -326 0
-379 -564 0
496 -516 0
-125 391 0
-69 -341 0
464 276 0
186 109 0
-245 -216 0
392 206 0
483 522 0
-111 -387 0
-570 13 0
-486 -300 0
-86 -102 0
-38 -528 0
418 4 0
-170 472 0
478 -233 0
62 101 0
-75 254 0
530 -14 0
386 566 0
108 135 0
-211 -207 0
-376 305 0
-184 36 0
-190 -346 0
281 -264 0
-165 -541 0
-589 215 0
132 292 0
-422 -256 0
-364 -32 0
-288 -9 0
-209 133 0
-320 384 0
-358 274 0
-450 290 0
-115 480 0
538 -32 0
-266 432 0
69 443 0
510 289 0
-359 -68 0
242 -499 0
74 168 0
-33 -319 0
422 -469 0
341 -393 0
316 -494 0
-375 -358 0
-514 -35 0
534 501 0
-522 503 0
-163 -98 0
279 -390 0
-297 -336 0
-429 -219 0
-326 -399 0
-201 477 0
-261 -525 0
-231 373 0
-257 577 0
-550 449 0
-271 241 0
-499 289 0
-433 145 0
-152 308 0
-2 319 0
38 6 0
-298 -430 0
-550 453 0
439 -47 0
-463 -53 0
-44 410 0
-410 -403 0
-68 169 0
572 -235 0
-457 36 0
466 -125 0
315 538 0
339 313 0
51 -286 0
131 522 0
543 276 0
-272 106 0
-334 -209 0
-390 -366 0
85 -486 0
402 -114 0
-213 204 0
258 -135 0
498 -63 0
-159 -463 0
-172 -86 0
-426 301 0
448 -521 0
-476 349 0
-235 -448 0
-270 -58 0
-332 -445 0
523 -560 0
418 249 0
265 -211 0
16 -288 0
70 -367 0
462 46 0
262 134 0
360 589 0
108 220 0
43 568 0
-284 -486 0
-37 -81 0
292 445 0
-307 -436 0
220 -556 0
439 80 0
-90 190 0
-499 488 0
529 255 0
394 294 0
331 302 0
-385 -557 0
-533 402 0
323 41 0
-474 582 0
-118 66 0
237 -48 0
-541 -81 0
420 -388 0
-272 -486 0
15 27 0
-546 352 0
-183 -515 0
464 -298 0
70 -578 0
493 123 0
65 -330 0
169 75 0
538 580 0
535 17 0
433 -100 0
-528 399 0
-496 -185 0
71 112 0
406 399 0
296 85 0
-95 573 0
-69 206 0
65 484 0
-38 -6 0
312 393 0
463 279 0
-590 84 0
-326 -558 0
-41 -113 0
-283 -486 0
459 -491 0
589 -138 0
554 -5 0
-377 459 0
-75 442 0
-219 257 0
-388 -548 0
562 226 0
135 -375 0
76 188 0
-1 22 0
532 500 0
-508 505 0
-307 -163 0
-207 -224 0
572 556 0
-414 431 0
254 143 0
177 -3 0
-346 342 0
155 324 0
64 -489 0
391 -330 0
-104 -109 0
88 366 0
168 -504 0
557 -32 0
-253 -135 0
123 -490 0
-43 -583 0
-268 -184 0
262 -186 0
372 448 0
-255 -82 0
-77 86 0
576 246 0
-549 -470 0
407 166 0
8 -223 0
-226 453 0
-224 378 0
83 -134 0
516 -19 0
-499 204 0
373 -86 0
-570 -222 0
303 582 0
556 -273 0
415 -42 0
-327 362 0
247 390 0
488 -462 0
-60 -541 0
486 -14 0
-99 -183 0
357 250 0
-112 61 0
-224 565 0
-63 431 0
-26 84 0
-150 -264 0
184 128 0
-446 545 0
-500 -365 0
-584 -531 0
-51 -160 0
-496 533 0
547 -262 0
-471 -79 0
246 166 0
129 -156 0
-131 558 0
78 -131 0
49 274 0
-214 270 0
-425 -243 0
-255 -432 0
-8 -201 0
-532 -426 0
260 -408 0
259 292 0
-569 73 0
-382 -1 0
-445 579 0
-581 67 0
522 75 0
464 -272 0
372 268 0
-277 513 0
565 -138 0
-511 -540 0
-356 93 0
221 -322 0
5 154 0
176 -543 0
165 260 0
-533 386 0
-587 537 0
-549 230 0
399 98 0
-446 352 0
-492 -127 0
-231 -6 0
116 72 0
-430 -385 0
-251 161 0
399 -438 0
435 -54 0
309 297 0
485 -304 0
241 379 0
-478 259 0
24 38 0
378 -115 0
-22 200 0
250 323 0
352 542 0
-583 413 0
-95 -152 0
188 -181 0
-236 -364 0
-533 525 0
313 416 0
72 -544 0
-58 448 0
241 384 0
-114 -153 0
-564 543 0
-72 308 0
576 270 0
-116 232 0
-489 -244 0
-120 367 0
537 524 0
-527 201 0
466 -287 0
12 -223 0
-444 -224 0
306 85 0
-422 531 0
-404 -525 0
88 -203 0
409 -507 0
217 -81 0
-154 -460 0
327 137 0
-147 5 0
-382 -42 0
-12 404 0
-90 -222 0
262 17 0
139 -424 0
-90 168 0
-422 72 0
-363 578 0
-216 -284 0
-173 -67 0
-400 305 0
104 -266 0
-528 410 0
-433 271 0
-574 463 0
-588 43 0
-210 4 0
362 -563 0
-349 101 0
-404 -387 0
542 -552 0
-138 -521 0
-523 154 0
439 291 0
-448 481 0
327 272 0
308 315 0
121 -253 0
-89 412 0
-474 -78 0
-399 -376 0
243 36 0
-388 -324 0
-217 -126 0
26 389 0
-64 -300 0
431 161 0
552 217 0
-316 -94 0
-171 301 0
375 -365 0
36 -8 0
-561 -420 0
-558 -63 0
-553 -450 0
55 57 0
-468 319 0
-54 102 0
505 -269 0
-223 -564 0
-306 51 0
161 415 0
21 498 0
-504 73 0
36 67 0
187 -517 0
-398 164 0
65 -347 0
92 -373 0
-574 208 0
-214 -487 0
-206 446 0
-266 -291 0
144 102 0
38 498 0
-407 322 0
-58 -28 0
-518 425 0
24 -256 0
-143 480 0
364 308 0
-100 129 0
356 180 0
-343 77 0
-192 5 0
-203 455 0
-578 -489 0
250 435 0
381 -37 0
485 277 0
-217 -411 0
324 147 0
-149 269 0
-350 152 0
266 241 0
145 -194 0
-343 282 0
-113 67 0
-181 185 0
-365 -197 0
210 -96 0
-527 -19 0
558 -163 0
65 442 0
-520 -477 0
-90 319 0
-546 192 0
-16 373 0
-558 186 0
-367 -165 0
-328 10 0
318 55 0
103 177 0
260 454 0
397 10 0
-2 515 0
235 72 0
-202 230 0
-354 461 0
-378 329 0
-367 122 0
-102 103 0
561 389 0
-50 541 0
331 329 0
433 521 0
24 -247 0
538 196 0
-569 161 0
119 -410 0
567 316 0
284 299 0
76 82 0
-179 311 0
-433 575 0
-63 -197 0
-569 215 0
242 -283 0
-497 -19 0
-197 160 0
-342 -541 0
426 -64 0
192 4 0
-368 -113 0
126 414 0
-263 390 0
-145 566 0
-7 481 0
57 295 0
-105 -588 0
-513 -81 0
-517 480 0
197 -531 0
-225 -6 0
-209 180 0
-13 210 0
313 -239 0
358 -509 0
145 -176 0
-539 -550 0
177 570 0
552 542 0
-487 -224 0
313 50 0
-464 -414 0
585 -578 0
57 150 0
-306 217 0
26 302 0
44 -412 0
259 -313 0
-401 348 0
-35 505 0
-151 158 0
-167 -27 0
-384 210 0
-112 529 0
271 -164 0
-569 342 0
-571 -116 0
-97 -431 0
-539 358 0
-394 -149 0
-588 374 0
129 31 0
-443 -438 0
4 297 0
288 509 0
261 -429 0
103 76 0
535 -354 0
513 -324 0
45 505 0
579 -403 0
-144 -156 0
-55 373 0
-263 -226 0
-500 -110 0
136 -305 0
-203 -313 0
183 466 0
187 205 0
-95 118 0
-123 453 0
480 -375 0
86 -115 0
-518 -170 0
-202 311 0
-158 18 0
-287 383 0
70 285 0
-371 499 0
-295 -98 0
373 -475 0
-507 -560 0
-185 309 0
-198 -517 0
-110 356 0
34 579 0
-85 -409 0
-418 456 0
155 362 0
447 285 0
492 176 0
-277 -171 0
137 -424 0
176 147 0
532 539 0
-119 -61 0
-214 -284 0
342 36 0
147 260 0
-21 16 0
31 76 0
4 -204 0
532 271 0
85 -204 0
433 -526 0
-158 63 0
-443 370 0
139 -186 0
509 -78 0
-441 -93 0
-331 258 0
-94 17 0
-89 -351 0
409 -190 0
-333 -8 0
550 241 0
-76 447 0
7 -41 0
-400 -269 0
-397 205 0
475 -355 0
217 210 0
437 423 0
181 -486 0
-422 465 0
208 -456 0
183 -53 0
-219 392 0
577 2 0
-525 303 0
576 133 0
554 -410 0
137 285 0
104 -244 0
292 5 0
1 358 0
-400 258 0
-495 -236 0
144 71 0
-364 59 0
-272 -194 0
-268 -247 0
433 68 0
-525 331 0
-587 -191 0
-48 309 0
-288 -92 0
332 -149 0
137 -160 0
-584 33 0
486 -387 0
-558 108 0
573 457 0
304 -412 0
-185 379 0
378 -473 0
-153 -226 0
217 -408 0
256 -46 0
-584 -473 0
162 369 0
437 539 0
-55 57 0
-312 155 0
-46 -565 0
262 511 0
31 47 0
17 310 0
-8 177 0
556 442 0
46 -307 0
-14 -129 0
-60 508 0
477 -187 0
128 -452 0
-14 240 0
-99 116 0
205 129 0
-88 -525 0
259 -578 0
170 303 0
544 128 0
155 394 0
13 419 0
51 111 0
-526 524 0
430 -33 0
-224 361 0
-447 480 0
217 -56 0
210 -525 0
575 -186 0
241 -476 0
357 -69 0
-186 -209 0
-371 79 0
-160 440 0
-445 -9 0
478 332 0
226 152 0
503 -283 0
-230 120 0
-512 532 0
-558 -305 0
-580 -140 0
-571 435 0
503 192 0
444 -90 0
169 -444 0
-184 474 0
-361 -241 0
-407 -578 0
196 79 0
-584 213 0
-541 -548 0
-224 52 0
162 310 0
447 -320 0
-241 461 0
271 -457 0
547 -299 0
265 -116 0
417 299 0
-386 463 0
-86 420 0
-113 75 0
315 437 0
221 201 0
-26 220 0
205 157 0
-117 -409 0
-66 470 0
9 -226 0
-1 437 0
-184 452 0
5 390 0
356 -111 0
432 -256 0
432 163 0
38 -105 0
-207 -426 0
133 -364 0
-338 -429 0
-218 -314 0
-100 -565 0
563 -322 0
-137 -186 0
565 542 0
-171 324 0
-40 108 0
-496 -40 0
-434 577 0
-113 365 0
-345 -320 0
421 542 0
42 -403 0
446 -548 0
-282 478 0
-253 575 0
-167 -39 0
512 -130 0
-457 286 0
393 465 0
34 330 0
193 -297 0
121 -480 0
313 -87 0
564 -365 0
260 -154 0
119 -520 0
-142 461 0
-52 -101 0
457 -230 0
-131 -413 0
-540 417 0
339 529 0
459 -236 0
51 -16 0
-183 -484 0
10 279 0
-490 -146 0
456 -442 0
432 -379 0
576 32 0
-510 -561 0
-486 -274 0
-408 -486 0
-80 187 0
166 368 0
505 176 0
217 -498 0
246 -364 0
14 442 0
582 380 0
559 56 0
-111 -163 0
143 -507 0
241 -383 0
-64 529 0
135 88 0
-62 347 0
180 302 0
447 -235 0
-554 -588 0
-548 -83 0
-268 -93 0
157 468 0
42 -175 0
-24 -25 0
-439 481 0
118 13 0
268 -218 0
206 -86 0
-449 491 0
-199 383 0
-118 392 0
447 107 0
-82 -130 0
-457 93 0
-376 123 0
-303 -354 0
397 536 0
76 -394 0
131 -134 0
-294 -137 0
-298 -92 0
336 -127 0
393 -83 0
-45 -336 0
302 -219 0
-401 -438 0
-274 435 0
63 -574 0
65 -174 0
-531 68 0
207 523 0
67 174 0
-180 31 0
394 459 0
184 281 0
193 539 0
82 -148 0
-116 -232 0
-411 319 0
404 334 0
552 -569 0
466 -139 0
417 297 0
477 457 0
-91 -309 0
-232 200 0
506 -148 0
-256 -365 0
-181 81 0
364 -450 0
-272 -551 0
221 246 0
569 72 0
470 -349 0
-441 145 0
141 -61 0
296 502 0
-211 -122 0
-171 -313 0
-407 -378 0
144 -69 0
531 -251 0
-340 415 0
-381 -15 0
-534 -284 0
-94 -550 0
-495 -522 0
417 -117 0
342 183 0
419 -175 0
-336 -284 0
-25 571 0
-130 37 0
560 -62 0
-482 -474 0
-42 95 0
139 -114 0
234 -551 0
-374 -197 0
570 -253 0
-230 -342 0
-81 -92 0
80 589 0
358 -111 0
-464 -261 0
-560 -515 0
542 -244 0
230 -159 0
-389 -235 0
-305 579 0
-46 -322 0
-413 -300 0
452 439 0
212 329 0
-291 328 0
513 158 0
-320 582 0
339 -145 0
-241 -586 0
-53 -13 0
-518 -79 0
437 -473 0
252 -151 0
-216 -555 0
280 169 0
-88 -330 0
431 115 0
289 -324 0
356 -422 0
415 -555 0
234 113 0
-148 -436 0
56 67 0
190 -159 0
237 419 0
508 -413 0
-121 435 0
259 54 0
270 -266 0
545 27 0
548 447 0
546 -280 0
577 426 0
215 -576 0
-172 -155 0
349 -156 0
-473 12 0
200 -11 0
-152 536 0
74 -290 0
384 -14 0
328 -473 0
198 378 0
49 -411 0
559 -184 0
456 359 0
-221 -46 0
147 121 0
12 279 0
-81 -365 0
-92 -581 0
-1 384 0
582 -162 0
-578 485 0
-408 -399 0
57 374 0
130 -531 0
-274 3 0
-530 402 0
136 -490 0
-504 -50 0
335 213 0
-281 370 0
278 -125 0
492 487 0
539 254 0
537 -158 0
288 499 0
-383 -288 0
-269 244 0
-469 309 0
-17 122 0
-126 450 0
-276 -153 0
-458 522 0
-364 -288 0
465 -210 0
166 33 0
-233 303 0
225 36 0
-165 543 0
178 329 0
-338 407 0
373 457 0
305 127 0
-577 -445 0
214 433 0
-201 -518 0
227 220 0
197 575 0
-215 123 0
-190 209 0
-314 311 0
-429 394 0
273 -355 0
-520 451 0
-571 20 0
210 -25 0
240 -458 0
422 -261 0
-159 585 0
456 170 0
440 292 0
-324 -555 0
-436 30 0
431 393 0
-121 -58 0
-581 -506 0
-172 -278 0
-252 108 0
328 38 0
498 -487 0
303 193 0
124 -535 0
-158 271 0
-185 -542 0
-495 328 0
-237 432 0
12 -395 0
-248 -558 0
555 108 0
220 572 0
-451 -150 0
54 230 0
285 -371 0
-209 389 0
92 262 0
-118 -190 0
-504 -118 0
-346 -46 0
345 462 0
442 409 0
-243 161 0
-15 260 0
-307 -306 0
-212 291 0
-381 -313 0
-190 583 0
-512 -223 0
-79 300 0
-381 -582 0
488 -405 0
-319 207 0
465 245 0
124 -184 0
-120 -293 0
270 -575 0
168 79 0
393 -263 0
-372 -460 0
-46 16 0
-73 74 0
-366 -547 0
92 -504 0
394 389 0
-507 182 0
-415 -282 0
-417 -68 0
29 249 0
-19 232 0
119 -459 0
372 -540 0
-317 -167 0
-584 10 0
-288 -512 0
-16 538 0
-405 41 0
-408 -583 0
335 274 0
-533 514 0
-197 -442 0
-527 -587 0
-435 -502 0
-103 92 0
-580 329 0
-260 187 0
-320 -70 0
-329 -213 0
-153 -279 0
107 24 0
-525 -148 0
315 104 0
208 121 0
-429 145 0
32 215 0
-580 -287 0
117 362 0
-231 -37 0
-466 -99 0
108 -322 0
-163 -45 0
273 234 0
59 -183 0
-426 -63 0
-106 -185 0
143 410 0
96 -90 0
-429 529 0
-63 -423 0
402 -514 0
269 147 0
-565 362 0
118 -58 0
442 -159 0
559 165 0
-455 -268 0
259 524 0
76 263 0
395 -64 0
529 -307 0
-323 260 0
-531 546 0
-251 -556 0
-78 566 0
205 87 0
18 144 0
-458 51 0
-505 -307 0
-553 282 0
-167 -371 0
204 -195 0
257 -444 0
-424 55 0
-53 -119 0
121 363 0
-320 -287 0
-195 524 0
-253 61 0
-241 449 0
-420 551 0
260 294 0
-164 567 0
479 -32 0
-195 134 0
105 384 0
5 276 0
-448 22 0
215 564 0
556 -360 0
240 478 0
-223 -20 0
-194 586 0
563 507 0
-197 55 0
-163 -256 0
261 -306 0
147 326 0
-380 -197 0
-25 -55 0
-20 337 0
378 -214 0
370 180 0
196 -58 0
215 552 0
-500 118 0
-118 -90 0
162 260 0
75 279 0
-562 -97 0
-199 -411 0
260 60 0
-97 461 0
-300 508 0
99 -523 0
-364 -134 0
535 -412 0
456 37 0
-396 -203 0
420 -243 0
54 169 0
575 -473 0
101 -428 0
325 479 0
-233 -499 0
70 -211 0
-568 -405 0
-336 541 0
-170 -223 0
-211 476 0
-58 466 0
-565 189 0
-77 -125 0
303 358 0
-422 447 0
54 -166 0
116 -151 0
-159 -324 0
440 -13 0
570 173 0
-486 -302 0
454 -263 0
13 -568 0
-441 -221 0
-426 -433 0
499 -211 0
26 -175 0
452 -245 0
350 -540 0
545 395 0
-186 366 0
-550 -20 0
114 208 0
490 -336 0
-269 -337 0
-40 -513 0
478 -381 0
242 133 0
560 -326 0
88 166 0
-525 -159 0
312 -146 0
374 -60 0
-448 176 0
-233 -268 0
183 -336 0
51 130 0
-9 -371 0
-347 -525 0
-548 144 0
-498 -165 0
542 -161 0
522 424 0
284 373 0
547 396 0
573 358 0
10 227 0
373 402 0
-336 244 0
137 9 0
-177 -237 0
556 252 0
-406 -171 0
-551 16 0
-155 -63 0
-20 535 0
-233 -489 0
-377 -498 0
246 171 0
-120 100 0
105 -98 0
249 -435 0
-195 569 0
-124 143 0
552 -58 0
-527 -454 0
