c bounds 114 134
p cnf 640 1280
-198 305 0
287 -33 0
469 -578 0
445 102 0
-134 -262 0
232 565 0
-15 551 0
324 393 0
-493 412 0
-554 366 0
-504 121 0
477 475 0
-196 -61 0
391 301 0
-179 498 0
547 507 0
123 25 0
337 -636 0
108 -572 0
-573 307 0
-519 -114 0
-283 87 0
495 -286 0
323 236 0
-391 -29 0
-620 -316 0
-332 -347 0
392 -163 0
-615 425 0
-315 -427 0
-83 81 0
-545 -142 0
-257 -127 0
467 242 0
-100 359 0
626 -286 0
548 -311 0
438 -318 0
638 82 0
580 621 0
-504 -154 0
444 -557 0
-361 243 0
538 -449 0
31 609 0
-495 -383 0
556 366 0
-361 598 0
71 135 0
-483 -534 0
349 492 0
-384 -19 0
51 -573 0
611 -133 0
-150 -130 0
115 23 0
200 448 0
469 -452 0
96 253 0
517 580 0
510 -547 0
-70 372 0
530 -271 0
55 311 0
-72 196 0
-621 419 0
-258 -39 0
72 -41 0
-220 179 0
57 68 0
556 520 0
-381 -617 0
-319 593 0
65 -328 0
-294 234 0
109 -15 0
-94 75 0
-213 -215 0
-41 -560 0
7 492 0
-450 453 0
85 406 0
182 -580 0
530 -435 0
217 496 0
-9 -181 0
33 597 0
276 364 0
146 390 0
516 -590 0
-110 180 0
135 32 0
22 517 0
608 33 0
-183 242 0
-262 536 0
-471 182 0
629 378 0
-381 186 0
320 397 0
-614 434 0
-368 -618 0
-271 621 0
184 -317 0
-107 -393 0
-315 -47 0
-59 -480 0
310 56 0
-194 470 0
360 147 0
277 -44 0
623 74 0
510 -444 0
-183 481 0
38 193 0
589 301 0
445 -370 0
-368 441 0
582 -187 0
53 -396 0
-433 -107 0
-555 -351 0
487 -380 0
219 -312 0
-452 -99 0
629 605 0
197 388 0
278 -115 0
-70 533 0
-69 598 0
-508 -285 0
-63 451 0
154 23 0
328 -563 0
-139 23 0
247 404 0
328 55 0
-469 329 0
437 -323 0
466 28 0
-463 -46 0
182 -442 0
-124 510 0
-126 24 0
-623 178 0
-526 309 0
-633 -171 0
632 514 0
-577 -370 0
100 261 0
364 -545 0
-199 603 0
-566 453 0
-195 -408 0
449 396 0
-431 171 0
542 -154 0
370 -72 0
341 -267 0
-516 337 0
168 -275 0
-539 -45 0
-616 530 0
-570 -19 0
352 569 0
-18 156 0
561 -417 0
502 197 0
-150 309 0
603 13 0
513 417 0
339 320 0
-316 497 0
582 367 0
-266 353 0
138 244 0
226 -600 0
-394 -103 0
155 -160 0
-280 62 0
-86 -581 0
632 -205 0
497 -285 0
340 -26 0
324 320 0
-214 34 0
-150 167 0
-361 419 0
-561 -98 0
42 523 0
471 600 0
-350 461 0
-468 -43 0
-14 290 0
-424 -139 0
-226 5 0
-541 153 0
-180 -37 0
11 38 0
-591 -488 0
-625 250 0
498 -463 0
-138 -504 0
-453 38 0
-221 -106 0
142 -453 0
562 -455 0
359 609 0
-259 -2 0
-96 303 0
17 -285 0
-189 609 0
477 -258 0
345 -176 0
-30 -174 0
-268 410 0
-506 485 0
36 516 0
-403 -280 0
-571 601 0
-284 363 0
-492 -300 0
-481 -205 0
-327 476 0
364 -448 0
-86 234 0
-269 -315 0
-458 356 0
398 -437 0
1 -219 0
-284 370 0
-296 -593 0
464 457 0
-94 152 0
2 181 0
492 185 0
-194 -103 0
376 55 0
200 -45 0
-200 -257 0
-266 304 0
-255 494 0
62 -284 0
-185 -431 0
249 275 0
-533 536 0
113 -99 0
633 225 0
-597 -301 0
21 307 0
467 -21 0
217 437 0
367 -349 0
48 442 0
90 543 0
-550 -141 0
141 408 0
540 404 0
-86 304 0
264 77 0
-50 -15 0
101 59 0
301 -501 0
381 113 0
212 573 0
278 454 0
498 540 0
-373 -20 0
-382 -370 0
449 266 0
-227 350 0
196 586 0
-398 165 0
-36 585 0
-86 547 0
-433 496 0
346 -58 0
-483 -34 0
551 103 0
-327 -57 0
-104 236 0
279 -408 0
433 407 0
-565 261 0
142 408 0
-340 -566 0
2 -335 0
600 -9 0
202 -90 0
92 -315 0
-504 -281 0
394 -397 0
593 -257 0
-431 -107 0
-125 88 0
534 -94 0
56 103 0
-439 545 0
-640 486 0
-611 42 0
-327 448 0
-89 -500 0
152 367 0
447 404 0
585 15 0
-378 -525 0
322 67 0
632 71 0
450 8 0
-31 -593 0
369 -6 0
-614 495 0
-42 -333 0
-592 568 0
-507 332 0
632 -610 0
170 -412 0
-139 82 0
190 -528 0
445 -479 0
477 331 0
487 87 0
432 406 0
-208 544 0
-454 -139 0
-317 -316 0
357 614 0
185 5 0
419 418 0
-624 109 0
-180 378 0
-600 360 0
451 409 0
268 264 0
-167 182 0
414 431 0
-617 -73 0
110 -115 0
-103 576 0
-248 257 0
76 -160 0
247 617 0
494 71 0
-576 502 0
-415 -288 0
119 -393 0
-519 442 0
-198 -169 0
-81 316 0
263 273 0
-67 -593 0
582 -133 0
533 605 0
326 183 0
335 466 0
396 -192 0
81 -230 0
-279 -438 0
-336 -5 0
-397 385 0
350 454 0
626 -592 0
-244 582 0
309 -523 0
-105 542 0
69 -297 0
-556 -319 0
237 -133 0
-637 408 0
-564 -558 0
-463 320 0
548 437 0
-415 -458 0
-171 -541 0
587 -271 0
-175 350 0
-597 -553 0
568 -151 0
33 -98 0
442 -187 0
-37 -180 0
414 -83 0
-66 -107 0
90 72 0
-194 -391 0
-415 -124 0
246 -94 0
249 -94 0
-555 101 0
468 507 0
303 601 0
-390 -321 0
498 492 0
471 -280 0
-327 -526 0
129 -343 0
326 211 0
388 -42 0
9 -17 0
-292 337 0
63 -526 0
522 -294 0
244 446 0
-425 2 0
200 -67 0
-570 -613 0
-6 -519 0
-223 514 0
-553 -224 0
-116 533 0
508 -545 0
384 211 0
-280 -424 0
182 -638 0
247 236 0
550 -119 0
-99 -351 0
-255 -367 0
-422 307 0
349 -218 0
342 -56 0
283 -439 0
211 -231 0
539 -177 0
434 242 0
267 -636 0
490 166 0
-176 173 0
-486 -577 0
50 394 0
-15 292 0
340 638 0
-577 326 0
-337 203 0
-474 -519 0
597 510 0
-572 589 0
-184 279 0
-175 -388 0
-3 -557 0
-584 24 0
441 490 0
-296 -382 0
-500 -273 0
609 432 0
586 -175 0
341 46 0
-509 419 0
462 -137 0
637 599 0
565 406 0
-262 -114 0
562 38 0
587 -378 0
-591 381 0
-568 339 0
390 262 0
-425 556 0
152 -614 0
399 -505 0
-259 -515 0
249 560 0
-260 -231 0
469 53 0
-346 -481 0
322 -125 0
-426 222 0
157 -165 0
-628 211 0
8 -115 0
-252 476 0
560 -47 0
-177 58 0
-1 -106 0
-235 -433 0
-499 290 0
225 -212 0
-228 -40 0
-401 -320 0
187 295 0
-44 49 0
246 -404 0
16 -496 0
590 -28 0
396 -454 0
-575 -180 0
578 -95 0
-163 -168 0
231 -73 0
353 -601 0
-602 -163 0
574 378 0
-459 52 0
-26 87 0
56 632 0
137 -273 0
41 -154 0
260 -93 0
372 452 0
222 -386 0
148 295 0
-83 168 0
-405 -26 0
-265 -327 0
-368 197 0
-562 350 0
640 -604 0
-80 -433 0
-588 338 0
193 548 0
212 -465 0
446 335 0
-215 489 0
-508 518 0
113 106 0
-440 270 0
10 408 0
-189 11 0
630 535 0
-555 -362 0
-146 309 0
-469 -493 0
-247 536 0
-239 -157 0
481 -131 0
164 416 0
-332 -212 0
596 87 0
-528 -544 0
471 162 0
-166 -588 0
303 -244 0
142 -255 0
560 -171 0
-323 -430 0
274 253 0
-442 373 0
334 328 0
-554 452 0
196 354 0
190 -180 0
74 -515 0
578 -233 0
392 -72 0
263 -627 0
527 -177 0
-368 313 0
68 632 0
-229 56 0
-163 211 0
-269 313 0
-603 409 0
-415 -276 0
-576 306 0
-617 -296 0
-236 32 0
-504 408 0
305 296 0
618 394 0
-531 330 0
-501 316 0
-512 121 0
297 -205 0
-626 249 0
-569 222 0
396 -424 0
-27 -373 0
-367 130 0
103 535 0
-602 -73 0
-484 481 0
93 472 0
356 608 0
-570 -411 0
-288 171 0
-402 -332 0
247 43 0
152 437 0
513 142 0
12 268 0
171 490 0
485 -48 0
-432 -72 0
-115 577 0
-283 521 0
192 -492 0
-217 -15 0
31 -566 0
-628 422 0
-117 594 0
-574 -623 0
-72 -49 0
436 -358 0
-272 538 0
-145 305 0
-409 -319 0
111 -203 0
-18 -18 0
-67 -461 0
234 449 0
497 -508 0
573 522 0
-429 251 0
543 -268 0
538 4 0
296 -57 0
244 -200 0
339 -217 0
368 -141 0
447 5 0
168 385 0
303 -506 0
-550 -472 0
-417 -567 0
420 -188 0
-85 563 0
129 -321 0
-302 -319 0
-238 -95 0
-116 -579 0
598 -608 0
-525 490 0
246 -160 0
244 308 0
232 -604 0
-240 -311 0
222 485 0
6 152 0
-440 -636 0
-369 -432 0
-297 602 0
624 537 0
434 472 0
-511 -405 0
352 -86 0
-157 -21 0
128 447 0
-460 502 0
423 -322 0
427 148 0
202 303 0
105 -603 0
574 -246 0
-313 -177 0
-145 -479 0
-589 -200 0
598 299 0
360 432 0
-297 -201 0
119 -343 0
-302 -67 0
-576 -228 0
222 -272 0
-26 -22 0
374 93 0
397 139 0
-550 -238 0
185 -392 0
303 -239 0
-552 540 0
-398 380 0
261 -427 0
406 -210 0
-528 264 0
631 -257 0
-260 -584 0
323 -162 0
280 423 0
-620 236 0
507 -132 0
227 -113 0
277 610 0
-619 283 0
-259 -310 0
-136 165 0
-262 -122 0
-435 148 0
-257 -255 0
383 -210 0
-108 300 0
-17 306 0
274 364 0
394 -230 0
-534 597 0
-386 573 0
-141 619 0
558 -213 0
-81 565 0
-561 616 0
381 -126 0
-94 -272 0
-143 36 0
356 -543 0
-601 359 0
573 102 0
-328 -361 0
495 56 0
-486 -547 0
-11 -341 0
328 -210 0
-281 594 0
-47 -589 0
396 533 0
-77 -463 0
-437 -41 0
134 467 0
462 -484 0
-69 635 0
58 223 0
-519 -398 0
-386 -482 0
211 254 0
389 -576 0
-141 -570 0
-379 624 0
-79 503 0
-528 -382 0
-58 560 0
322 -623 0
324 389 0
279 324 0
198 353 0
-346 -520 0
488 -187 0
-196 -64 0
304 -27 0
-72 -158 0
490 -216 0
563 274 0
-601 525 0
272 -255 0
234 -296 0
244 -369 0
445 509 0
-490 372 0
230 12 0
394 -463 0
-237 49 0
113 -449 0
-425 -297 0
-549 -559 0
-484 428 0
-515 454 0
-442 342 0
-95 -354 0
-122 -438 0
87 455 0
-2 -463 0
-241 154 0
344 234 0
332 615 0
-480 128 0
609 258 0
55 395 0
-592 -104 0
448 -41 0
449 -582 0
-294 68 0
-351 618 0
-122 -590 0
-150 -292 0
-272 28 0
-161 -272 0
-637 -598 0
328 -343 0
-505 -105 0
-579 116 0
17 609 0
-628 -180 0
-161 48 0
64 353 0
338 -528 0
-573 -616 0
-479 -567 0
554 203 0
-297 142 0
-358 71 0
182 353 0
334 396 0
414 -405 0
137 -263 0
12 26 0
-240 101 0
-311 -16 0
211 -185 0
-512 -96 0
351 -15 0
-32 -525 0
104 180 0
-548 -214 0
-262 -129 0
254 -333 0
469 462 0
374 -218 0
-469 626 0
307 533 0
-189 -625 0
222 593 0
-285 213 0
509 352 0
-180 -152 0
-145 508 0
-76 8 0
426 -137 0
390 -619 0
316 509 0
-154 -554 0
-575 -301 0
-555 -207 0
506 554 0
-592 62 0
299 318 0
-602 8 0
-296 -571 0
549 -431 0
-317 -336 0
176 -124 0
564 -584 0
-240 -596 0
57 -242 0
179 -208 0
227 459 0
-268 -59 0
-462 -35 0
-231 232 0
-132 219 0
-329 624 0
-504 247 0
558 -196 0
-627 -442 0
-627 65 0
-584 -174 0
528 -566 0
369 -302 0
-637 -184 0
25 -146 0
138 -83 0
561 -368 0
-567 276 0
-456 -389 0
-375 -623 0
147 -13 0
548 -63 0
-141 -403 0
441 420 0
242 392 0
254 -259 0
606 -41 0
626 -54 0
373 166 0
-442 -360 0
278 216 0
265 533 0
114 7 0
-258 -468 0
488 -633 0
-302 -366 0
-608 348 0
-625 589 0
-306 -47 0
-67 -28 0
264 482 0
-186 167 0
371 303 0
367 364 0
-208 -12 0
-518 268 0
361 251 0
-21 -344 0
609 -237 0
407 124 0
-139 282 0
-589 -359 0
38 -288 0
-515 -44 0
-349 -50 0
-451 512 0
520 330 0
-580 -561 0
406 1 0
-428 344 0
254 -221 0
-176 628 0
249 338 0
-27 342 0
-180 529 0
-351 -308 0
33 -244 0
2 578 0
137 -379 0
587 -51 0
626 -506 0
159 -273 0
-544 -37 0
369 64 0
85 -435 0
280 -480 0
-522 -440 0
-241 5 0
-208 -39 0
-421 -45 0
409 -272 0
-18 -61 0
-505 252 0
-178 366 0
56 416 0
-187 -569 0
245 -249 0
219 -340 0
68 278 0
-257 -37 0
-41 -491 0
-109 -103 0
199 -577 0
602 -18 0
-189 -390 0
-198 322 0
382 -590 0
-119 118 0
247 -275 0
-271 -183 0
542 33 0
329 -14 0
253 -422 0
98 -39 0
-545 -63 0
260 -455 0
372 503 0
349 627 0
476 -86 0
277 537 0
-297 597 0
-509 582 0
-459 -237 0
-115 98 0
-125 -197 0
-25 -215 0
-444 407 0
-405 515 0
-403 -249 0
421 -327 0
534 359 0
169 -415 0
-249 -544 0
404 -549 0
135 -422 0
354 -398 0
-79 -285 0
-320 -510 0
305 -383 0
121 -200 0
38 239 0
-633 57 0
-82 113 0
189 -153 0
390 -453 0
531 -37 0
600 -91 0
-316 165 0
490 -209 0
-196 102 0
120 -174 0
-77 -117 0
157 -168 0
357 253 0
402 116 0
-591 -356 0
-230 343 0
-361 418 0
541 -35 0
219 -112 0
-8 -221 0
473 632 0
595 -463 0
490 392 0
-243 134 0
100 -208 0
41 -479 0
-27 -206 0
-515 -563 0
-408 -393 0
-64 -453 0
-181 -238 0
-10 226 0
-1 52 0
472 -93 0
-312 -175 0
-242 378 0
219 -319 0
-26 -572 0
346 -408 0
-564 291 0
637 -15 0
-153 -450 0
335 430 0
-331 -630 0
-183 384 0
-311 343 0
-545 434 0
-6 -525 0
-546 -181 0
476 517 0
234 -50 0
-412 587 0
-437 450 0
-453 -280 0
183 301 0
-349 284 0
275 -554 0
-138 101 0
-499 -429 0
540 336 0
249 166 0
-591 -294 0
-393 513 0
-6 286 0
194 329 0
71 77 0
-28 252 0
-611 -216 0
169 108 0
301 -637 0
-242 31 0
-393 -66 0
277 111 0
420 -230 0
-375 203 0
593 -451 0
1 629 0
-297 -262 0
529 410 0
-434 350 0
-351 -269 0
597 -106 0
457 -9 0
-241 587 0
-41 223 0
-601 396 0
438 539 0
15 485 0
-187 -600 0
287 371 0
33 200 0
-550 530 0
414 -318 0
441 563 0
-527 -515 0
350 -495 0
169 188 0
-368 -623 0
-69 90 0
529 -241 0
-160 614 0
250 367 0
-286 -444 0
-526 -588 0
135 -58 0
536 476 0
-551 -161 0
-230 143 0
-628 536 0
60 -72 0
126 563 0
619 3 0
116 -418 0
-44 629 0
-505 249 0
542 -522 0
-380 -269 0
498 -348 0
-619 448 0
339 -206 0
556 156 0
-45 -121 0
-125 -58 0
-197 68 0
-43 362 0
234 577 0
-468 380 0
-500 -280 0
-218 -243 0
502 -483 0
-541 453 0
-547 274 0
-362 7 0
-405 -571 0
-284 636 0
-272 97 0
96 390 0
-491 -149 0
-432 -171 0
-460 -33 0
98 475 0
-548 185 0
2 -579 0
-215 58 0
-250 306 0
581 626 0
622 16 0
-384 447 0
487 -183 0
-187 -123 0
33 579 0
-10 9 0
-265 -212 0
28 -557 0
543 516 0
3 496 0
-314 -112 0
436 244 0
452 460 0
-218 -33 0
-193 308 0
-575 428 0
109 142 0
-273 -90 0
-132 384 0
-16 129 0
-393 -147 0
-534 -102 0
314 236 0
-100 -325 0
70 -291 0
-386 609 0
551 400 0
-201 -525 0
-258 -331 0
-203 -634 0
-544 -162 0
-138 7 0
-333 519 0
-366 -572 0
490 -207 0
306 599 0
487 156 0
-207 417 0
-35 618 0
287 -415 0
-459 -136 0
292 -57 0
324 -14 0
10 -620 0
-572 400 0
360 465 0
573 228 0
491 -628 0
-391 208 0
447 532 0
-58 -442 0
-577 -451 0
544 -543 0
-67 413 0
-246 54 0
516 -363 0
-416 -444 0
372 383 0
282 -456 0
-479 -312 0
-355 -299 0
388 523 0
-589 632 0
158 329 0
-507 -429 0
-512 -370 0
11 -177 0
143 -429 0
77 61 0
-100 -140 0
580 562 0
-555 299 0
-96 251 0
-242 502 0
-349 -4 0
488 211 0
-509 -511 0
514 568 0
-153 281 0
399 -267 0
-196 612 0
-612 596 0
602 -299 0
621 -318 0
166 -356 0
265 573 0
457 377 0
129 527 0
222 -572 0
-393 110 0
136 486 0
128 -432 0
-124 464 0
27 -47 0
24 639 0
-45 556 0
446 30 0
-458 -573 0
-315 498 0
-536 -375 0
-195 -85 0
111 -429 0
574 -438 0
-153 530 0
366 -511 0
159 347 0
-122 235 0
-577 148 0
-468 261 0
397 -520 0
-318 -262 0
-528 261 0
-266 -579 0
-41 -592 0
444 -139 0
85 366 0
463 8 0
-76 390 0
497 436 0
-218 -290 0
-213 192 0
-632 -180 0
107 522 0
-534 622 0
-198 -30 0
522 574 0
-266 539 0
-122 159 0
-379 343 0
638 -167 0
-42 -47 0
-205 -115 0
-273 -632 0
-27 360 0
-2 421 0
-289 -317 0
5 -321 0
16 -86 0
586 -230 0
-196 -12 0
-508 184 0
-112 -278 0
-28 184 0
-363 -561 0
427 -611 0
-383 38 0
-150 132 0
-216 316 0
-484 491 0
-555 613 0
-385 261 0
-590 185 0
633 -214 0
-429 -210 0
22 -470 0
247 -363 0
274 -379 0
-21 -44 0
-12 503 0
235 -267 0
-126 -612 0
-255 76 0
618 497 0
-442 340 0
93 -561 0
38 1 0
488 235 0
-180 -474 0
613 539 0
516 -52 0
168 197 0
-493 -156 0
-368 148 0
-573 85 0
-21 398 0
-578 9 0
401 328 0
470 104 0
-153 365 0
-27 268 0
-154 301 0
200 467 0
