c NF
p cnf 590 1416
-554 -171 0
160 39 0
-250 93 0
-586 -396 0
-292 349 0
-432 525 0
352 153 0
-357 -150 0
118 -589 0
494 -139 0
-53 -393 0
-58 287 0
-19 341 0
333 553 0
-346 -356 0
-390 -324 0
301 203 0
-414 -299 0
-445 -509 0
20 351 0
209 -333 0
-256 -13 0
176 394 0
-465 -262 0
208 -279 0
405 462 0
-474 -199 0
9 532 0
-444 57 0
460 488 0
327 -335 0
-584 239 0
-141 -365 0
-534 -410 0
-101 225 0
-368 -395 0
186 -49 0
-459 -87 0
-483 -227 0
-139 276 0
-476 514 0
-12 -458 0
104 -367 0
199 387 0
45 -151 0
438 -398 0
-196 -491 0
-115 -155 0
-303 74 0
570 -432 0
497 256 0
-575 -151 0
303 482 0
-429 445 0
-531 57 0
527 -8 0
299 -164 0
-333 -517 0
546 163 0
-175 -442 0
-335 462 0
-3 460 0
552 162 0
-243 -415 0
199 -181 0
-166 515 0
-433 -389 0
511 366 0
142 -398 0
-588 588 0
-349 471 0
430 431 0
270 -158 0
-41 -574 0
-131 -480 0
-438 470 0
-22 296 0
-307 -32 0
-434 -231 0
524 271 0
-8 -324 0
-159 -133 0
182 165 0
-421 14 0
160 160 0
183 298 0
-485 24 0
116 -64 0
431 176 0
-159 289 0
249 -498 0
-355 -225 0
176 588 0
311 339 0
-298 -167 0
-143 -282 0
-478 448 0
577 -36 0
445 -197 0
-421 44 0
-483 -317 0
136 53 0
-133 99 0
-262 229 0
-156 -128 0
575 -443 0
482 -212 0
266 360 0
477 -52 0
-121 -576 0
-518 531 0
142 261 0
527 192 0
-348 408 0
-229 -476 0
198 552 0
543 87 0
56 -18 0
-262 557 0
-192 -512 0
-493 -141 0
-476 249 0
412 202 0
-581 273 0
413 411 0
287 -362 0
120 570 0
-206 -108 0
-589 181 0
20 157 0
-434 -509 0
304 -555 0
-501 561 0
129 494 0
133 266 0
276 -41 0
-60 -416 0
-490 366 0
238 -514 0
400 343 0
-468 166 0
-401 -531 0
473 261 0
-236 552 0
-305 -39 0
525 -185 0
277 38 0
-156 303 0
289 320 0
420 87 0
-288 -331 0
-531 451 0
573 -27 0
-195 9 0
-84 -268 0
-405 -315 0
574 38 0
-572 -415 0
-243 -351 0
-421 448 0
87 262 0
-478 -458 0
437 431 0
235 34 0
65 135 0
-577 -298 0
109 -125 0
-383 -90 0
-146 539 0
551 -455 0
-338 407 0
-364 -360 0
-379 -177 0
-118 -185 0
278 54 0
-120 -8 0
228 -497 0
9 -252 0
241 -447 0
46 61 0
-272 418 0
523 -382 0
-296 -117 0
220 280 0
-249 89 0
-501 346 0
422 -372 0
-16 530 0
-19 -572 0
392 -82 0
-306 449 0
-480 -334 0
-231 -68 0
-299 -187 0
136 564 0
-150 -284 0
-384 -450 0
-548 -301 0
323 -317 0
506 206 0
540 230 0
-12 -414 0
-144 -562 0
339 -414 0
-311 89 0
88 -487 0
-445 -24 0
-326 -320 0
590 -374 0
31 530 0
-161 -406 0
336 10 0
276 382 0
-414 -58 0
360 -581 0
357 -278 0
-17 -476 0
-487 220 0
-282 -361 0
-13 147 0
-308 -19 0
-232 497 0
146 -121 0
-27 -262 0
-323 -234 0
196 199 0
29 -301 0
416 -342 0
535 -316 0
-127 136 0
312 -286 0
445 223 0
569 -560 0
-303 585 0
126 -376 0
445 -167 0
191 -426 0
-577 -464 0
-455 -157 0
10 536 0
-390 425 0
-80 67 0
352 -431 0
235 297 0
-108 204 0
557 -216 0
68 -436 0
-79 205 0
479 584 0
-104 -516 0
-508 443 0
-114 -172 0
-94 -364 0
213 235 0
-368 61 0
-268 449 0
-420 -103 0
-322 -163 0
-115 -407 0
138 169 0
312 9 0
125 220 0
-335 -498 0
-130 -359 0
212 71 0
189 249 0
539 -59 0
-469 -382 0
-303 -355 0
-237 509 0
95 -548 0
-96 -130 0
-435 525 0
-172 573 0
-491 504 0
-318 -128 0
-114 517 0
371 72 0
134 354 0
-576 -85 0
173 -330 0
92 -312 0
198 -401 0
-435 361 0
378 -122 0
395 -419 0
-4 -366 0
437 -309 0
-25 -394 0
-342 -35 0
247 39 0
230 210 0
139 -560 0
133 570 0
504 -175 0
181 56 0
343 280 0
-96 122 0
-234 -520 0
319 192 0
-300 -574 0
147 126 0
135 547 0
-69 135 0
223 -487 0
-149 209 0
-471 93 0
261 516 0
109 471 0
307 -485 0
-154 -133 0
-451 -456 0
214 162 0
268 112 0
-24 539 0
366 -128 0
261 525 0
-175 -66 0
-52 376 0
-251 -498 0
-440 347 0
-391 552 0
189 -67 0
-104 207 0
-379 249 0
-537 -49 0
-45 -300 0
-325 -571 0
-187 -428 0
190 -583 0
343 -122 0
516 -574 0
-455 -208 0
280 475 0
202 95 0
-14 -204 0
-197 -193 0
-526 285 0
95 -234 0
-269 -544 0
553 136 0
-184 588 0
100 -455 0
-11 512 0
-590 -455 0
-587 257 0
-269 -503 0
505 -445 0
515 183 0
542 -439 0
-390 417 0
-571 -562 0
-219 400 0
378 506 0
174 220 0
-260 -248 0
516 499 0
-64 435 0
-1 -490 0
34 282 0
487 -470 0
-456 -119 0
-147 -390 0
-386 243 0
363 122 0
555 572 0
-484 557 0
-155 15 0
158 238 0
-22 429 0
-457 -328 0
-384 -316 0
264 -516 0
463 193 0
-204 99 0
-388 -282 0
-111 -280 0
191 -441 0
-50 326 0
339 -412 0
-332 497 0
-512 494 0
285 -107 0
-52 385 0
-186 174 0
89 246 0
411 305 0
396 546 0
-374 -125 0
-66 571 0
204 268 0
156 341 0
-42 57 0
-289 -128 0
55 400 0
-130 -362 0
-384 492 0
346 302 0
254 -553 0
-201 -182 0
528 -144 0
-66 -50 0
524 579 0
266 530 0
-184 -44 0
-570 148 0
337 -81 0
-117 -115 0
-158 389 0
79 510 0
10 -363 0
-90 278 0
-22 318 0
-539 198 0
-85 382 0
184 -68 0
136 -61 0
-163 372 0
-229 523 0
16 -586 0
288 -222 0
-445 350 0
-312 415 0
29 -29 0
-485 -352 0
-553 -76 0
567 -134 0
-233 -468 0
359 -493 0
-521 393 0
318 -409 0
589 -308 0
-141 63 0
-3 130 0
584 267 0
-474 -227 0
456 12 0
417 430 0
-185 51 0
453 512 0
-440 -157 0
408 497 0
-525 -317 0
449 -515 0
226 -248 0
-175 -254 0
-335 240 0
-35 -200 0
-353 172 0
208 536 0
479 419 0
-75 533 0
-526 -521 0
224 44 0
497 392 0
-355 276 0
-111 357 0
534 -2 0
-262 -113 0
-508 220 0
-555 485 0
-143 -131 0
-484 -533 0
371 512 0
-197 -357 0
176 -157 0
-80 -47 0
181 -442 0
533 -182 0
-91 -579 0
-308 -344 0
207 -548 0
445 -469 0
572 44 0
-342 292 0
-323 -234 0
71 -338 0
250 -438 0
296 240 0
23 -474 0
142 167 0
-174 -518 0
325 -325 0
-509 431 0
552 -2 0
-54 382 0
-404 -543 0
-90 313 0
-316 301 0
-136 525 0
-542 -105 0
-548 -334 0
-106 -233 0
-512 482 0
114 427 0
340 490 0
349 208 0
87 -511 0
17 47 0
345 -236 0
-314 358 0
235 111 0
356 -488 0
-480 -44 0
-413 -59 0
28 -548 0
524 -168 0
-170 -470 0
-232 107 0
-420 381 0
-73 330 0
-90 -408 0
211 -324 0
469 580 0
266 420 0
74 -483 0
-217 -554 0
283 -119 0
87 349 0
582 489 0
-357 -432 0
-191 -209 0
-65 519 0
419 -150 0
-5 209 0
-418 -323 0
-277 -57 0
188 -34 0
-441 -74 0
165 -580 0
-35 559 0
-73 -435 0
211 -429 0
547 181 0
381 55 0
-294 583 0
-174 -387 0
431 -562 0
561 215 0
20 496 0
38 -114 0
-589 -66 0
67 -292 0
-336 -354 0
273 417 0
293 -27 0
422 -281 0
256 -503 0
-210 384 0
-436 -96 0
-430 -469 0
-14 51 0
-380 -410 0
-477 6 0
-284 104 0
228 -101 0
162 107 0
-574 -450 0
-476 -541 0
-1 -296 0
-204 -472 0
-219 -316 0
70 -470 0
-469 205 0
511 304 0
549 -276 0
-431 51 0
-210 -45 0
-435 -3 0
-476 328 0
343 202 0
390 -275 0
-215 392 0
510 -214 0
437 -406 0
293 -66 0
544 214 0
322 -439 0
-516 72 0
-117 -319 0
71 3 0
-147 -16 0
66 -307 0
486 -216 0
-484 208 0
575 -114 0
-54 21 0
384 10 0
-64 -272 0
-489 578 0
559 151 0
62 316 0
-115 -427 0
-327 389 0
-444 144 0
-444 -393 0
50 190 0
428 247 0
205 -299 0
-354 398 0
-108 -195 0
-569 -580 0
-473 -124 0
-472 -230 0
-132 38 0
-549 315 0
-196 443 0
-388 -303 0
-291 350 0
-107 -279 0
-316 -159 0
-245 -167 0
85 230 0
39 -346 0
-388 -416 0
-436 -363 0
-244 -278 0
132 297 0
148 113 0
463 153 0
-116 -159 0
-252 26 0
-457 -242 0
289 -3 0
462 353 0
-537 -382 0
-318 -498 0
-90 112 0
95 55 0
-311 -513 0
161 587 0
-98 463 0
-90 -361 0
-456 -292 0
568 -400 0
-36 434 0
-253 492 0
-170 -77 0
25 381 0
-78 -534 0
26 209 0
-92 107 0
547 82 0
207 -65 0
-459 -67 0
412 -586 0
-134 347 0
247 427 0
-97 -420 0
262 -560 0
-91 257 0
264 71 0
-413 406 0
-86 387 0
72 426 0
-398 -499 0
236 258 0
-439 -255 0
-393 -118 0
-219 211 0
-371 -114 0
568 -91 0
-516 -300 0
-332 261 0
63 255 0
-59 -30 0
-314 -164 0
-175 274 0
-373 411 0
320 315 0
63 294 0
128 -256 0
136 -431 0
-232 332 0
40 242 0
-588 385 0
-152 39 0
-334 552 0
-137 -42 0
-257 57 0
-45 -454 0
-113 39 0
253 -250 0
-334 199 0
406 51 0
-394 83 0
333 -327 0
-581 -477 0
585 -471 0
-230 183 0
46 196 0
-305 -517 0
-281 -372 0
533 -45 0
-164 -452 0
41 -256 0
244 -534 0
581 -367 0
-32 101 0
49 392 0
-128 20 0
-491 158 0
36 583 0
215 387 0
-295 -233 0
-444 533 0
392 -526 0
-175 367 0
-30 -165 0
337 -204 0
65 282 0
-71 165 0
-289 402 0
-69 74 0
-183 207 0
490 -286 0
336 56 0
543 489 0
-356 -224 0
487 102 0
-572 -446 0
-168 562 0
494 538 0
50 437 0
-540 269 0
-117 417 0
-480 243 0
-444 -565 0
-474 361 0
108 -588 0
-486 457 0
-407 -295 0
-27 6 0
-529 -530 0
-481 -4 0
-32 161 0
576 495 0
276 -120 0
235 223 0
-372 530 0
-188 -115 0
-32 -239 0
290 -64 0
-442 127 0
312 -557 0
-182 -241 0
-568 -227 0
173 135 0
546 557 0
-116 404 0
103 -247 0
266 412 0
552 264 0
580 -405 0
-587 -294 0
-533 188 0
-311 -154 0
19 -517 0
-378 -311 0
-479 -351 0
-331 -326 0
-383 97 0
-103 -16 0
-21 328 0
408 -431 0
381 -309 0
155 -576 0
161 -42 0
480 -534 0
489 -216 0
-364 87 0
-522 96 0
-548 135 0
549 -336 0
-491 400 0
-460 -446 0
336 -367 0
-543 21 0
-431 -148 0
-231 157 0
464 -116 0
417 576 0
-24 477 0
-227 -7 0
-373 -436 0
337 -119 0
372 527 0
337 -162 0
-333 550 0
-237 -375 0
302 -269 0
-21 140 0
12 318 0
194 196 0
-457 -425 0
-419 -433 0
568 417 0
-365 -427 0
484 -558 0
-229 -107 0
-245 -373 0
45 574 0
167 -436 0
-103 584 0
-333 -565 0
251 -544 0
-117 26 0
254 -397 0
-374 -350 0
-75 289 0
-369 -331 0
-521 -515 0
229 -60 0
-534 -104 0
40 -361 0
-588 -390 0
529 -520 0
-537 -280 0
25 -442 0
38 263 0
-355 482 0
564 114 0
-471 109 0
500 -289 0
582 -467 0
-112 403 0
-475 515 0
490 38 0
-226 421 0
127 -151 0
-184 -100 0
-3 -431 0
-534 -410 0
387 266 0
-312 569 0
116 371 0
-306 -473 0
422 -185 0
439 344 0
136 126 0
276 472 0
-250 -200 0
-386 567 0
97 568 0
-156 -386 0
-351 353 0
-364 276 0
287 400 0
-535 -402 0
227 -538 0
-242 102 0
57 -118 0
394 221 0
-540 378 0
-177 -149 0
213 -30 0
198 -323 0
-482 482 0
257 -314 0
-383 -131 0
36 -353 0
-373 -289 0
221 -65 0
-578 261 0
519 -156 0
-241 -438 0
495 -260 0
295 160 0
173 -349 0
-396 429 0
-259 -341 0
-590 -392 0
-321 -20 0
-65 238 0
-75 230 0
-400 320 0
353 -80 0
-524 347 0
288 464 0
494 581 0
-50 -543 0
-428 -227 0
-554 -483 0
476 127 0
-512 484 0
-372 392 0
-353 274 0
-325 58 0
-198 -348 0
-224 -236 0
-298 -174 0
271 -21 0
-590 72 0
-588 543 0
400 201 0
-210 -576 0
-18 51 0
-122 40 0
413 -365 0
-70 -12 0
436 291 0
221 -86 0
-556 203 0
144 301 0
82 27 0
187 -296 0
-352 43 0
-396 203 0
240 579 0
-370 231 0
141 134 0
117 -541 0
-252 301 0
-132 -544 0
-248 -377 0
-434 543 0
291 -394 0
143 -379 0
345 -172 0
469 37 0
444 76 0
-468 514 0
-536 -435 0
536 230 0
70 -128 0
-32 386 0
584 -569 0
23 530 0
181 -296 0
-407 -191 0
262 -512 0
-498 -172 0
-151 366 0
-59 -187 0
-111 -36 0
-563 434 0
426 -7 0
326 -174 0
359 -37 0
399 -273 0
-487 366 0
573 357 0
437 -84 0
-454 -542 0
189 362 0
214 -180 0
-70 432 0
39 20 0
85 -577 0
-256 -1 0
489 -407 0
-266 -105 0
-557 128 0
316 -425 0
519 6 0
127 -421 0
573 -242 0
-521 -241 0
-14 -101 0
-182 -431 0
-1 257 0
-461 -568 0
153 -191 0
-131 -459 0
-134 202 0
-243 -330 0
-444 -245 0
-204 202 0
-42 147 0
-240 -242 0
-370 -412 0
202 -454 0
-143 -85 0
486 312 0
-407 21 0
-300 -187 0
12 390 0
-88 -416 0
81 -513 0
-263 460 0
-386 290 0
-116 423 0
-100 -284 0
-115 -184 0
582 17 0
-435 -335 0
-393 563 0
82 -289 0
-467 -430 0
-237 -115 0
98 -393 0
575 -229 0
-216 -460 0
504 360 0
5 494 0
215 -197 0
-299 441 0
22 -227 0
-392 236 0
-317 -132 0
-226 49 0
-327 505 0
529 239 0
138 -102 0
-21 -287 0
-531 -318 0
-347 -119 0
-390 -580 0
-24 -477 0
-79 -85 0
-237 235 0
243 346 0
-182 318 0
-112 264 0
132 -419 0
-197 319 0
-509 -269 0
-484 -137 0
507 536 0
542 -522 0
453 260 0
-267 -352 0
196 -262 0
-262 -582 0
-120 -295 0
471 -354 0
-292 -577 0
-237 -52 0
-204 513 0
561 -533 0
-70 516 0
-438 25 0
420 -544 0
-271 564 0
-389 89 0
-195 235 0
-81 -576 0
-456 -472 0
-450 464 0
-424 -110 0
159 453 0
180 -177 0
576 -588 0
524 -364 0
235 178 0
286 -415 0
-375 -403 0
162 268 0
-61 270 0
387 -401 0
584 -172 0
-105 -569 0
375 223 0
-472 29 0
-200 579 0
525 465 0
297 476 0
-338 564 0
315 145 0
81 432 0
257 -411 0
-576 452 0
-588 51 0
177 53 0
426 -472 0
572 -412 0
550 -193 0
497 -239 0
400 -19 0
18 -392 0
-290 -164 0
337 261 0
33 -8 0
173 -237 0
-258 515 0
573 368 0
-419 -404 0
380 53 0
339 -238 0
475 77 0
-88 -86 0
9 -22 0
-329 -119 0
215 -28 0
-41 -103 0
532 -108 0
-530 -121 0
-384 33 0
57 261 0
-299 -356 0
563 -296 0
175 -296 0
235 -107 0
-218 282 0
-268 -277 0
-36 -174 0
-590 546 0
58 -133 0
-482 -112 0
163 -311 0
352 408 0
82 -213 0
-335 257 0
-14 -4 0
339 -438 0
505 -42 0
40 373 0
-446 -8 0
360 559 0
-168 -399 0
278 417 0
175 417 0
246 -369 0
-563 200 0
178 411 0
236 -321 0
304 502 0
530 -87 0
-152 -252 0
238 -120 0
-66 -447 0
-145 -50 0
-312 387 0
-446 55 0
-119 -273 0
-57 -398 0
-53 -279 0
-47 -537 0
-327 -558 0
93 -279 0
205 333 0
-227 258 0
20 502 0
-526 -503 0
351 235 0
333 29 0
301 467 0
396 -170 0
-314 -265 0
271 -524 0
-34 371 0
74 -19 0
-472 267 0
-534 -220 0
-86 305 0
-195 573 0
-356 228 0
87 -172 0
264 459 0
-420 310 0
128 -58 0
336 384 0
478 -32 0
202 -426 0
80 -323 0
-238 -275 0
-57 584 0
153 362 0
490 372 0
528 361 0
43 89 0
-329 541 0
-555 262 0
-426 -111 0
392 -96 0
-365 521 0
-256 -36 0
-284 240 0
-215 -299 0
-526 -568 0
265 -394 0
215 -140 0
-379 240 0
-466 -399 0
-523 272 0
487 251 0
376 -494 0
-563 -323 0
-496 15 0
158 -204 0
-391 110 0
456 -498 0
454 -521 0
89 -167 0
-128 160 0
261 337 0
-39 6 0
57 78 0
-589 -299 0
169 -589 0
443 -187 0
-49 -42 0
291 556 0
202 18 0
274 345 0
-542 -365 0
270 358 0
-398 -396 0
-526 293 0
-117 -456 0
142 299 0
-442 511 0
229 -526 0
542 220 0
-516 492 0
215 -416 0
511 458 0
26 139 0
-469 274 0
304 -124 0
405 510 0
367 -352 0
475 -346 0
44 253 0
-80 -326 0
555 389 0
-544 -239 0
62 -171 0
516 347 0
490 398 0
114 -488 0
-69 -73 0
-231 397 0
-577 -589 0
-111 -104 0
-101 497 0
-565 346 0
-415 547 0
327 422 0
339 308 0
192 -232 0
-357 -398 0
449 341 0
-173 381 0
416 578 0
-445 505 0
-232 -8 0
523 582 0
-348 -65 0
-556 239 0
-167 122 0
-283 176 0
-391 277 0
345 495 0
-56 -22 0
165 -284 0
-519 -544 0
-512 87 0
-69 70 0
267 489 0
-345 -66 0
-77 -248 0
365 423 0
-554 -346 0
451 -42 0
438 462 0
-450 -104 0
322 -252 0
-465 239 0
290 -49 0
-415 87 0
-277 -61 0
-31 575 0
247 -407 0
-41 248 0
235 -230 0
490 -449 0
165 145 0
-537 -515 0
87 348 0
-512 -368 0
484 -327 0
-49 15 0
-410 -311 0
-278 285 0
-163 -221 0
186 -512 0
573 142 0
-548 -496 0
567 -262 0
139 171 0
258 -237 0
332 501 0
-415 -401 0
34 -441 0
-484 207 0
509 -172 0
-98 476 0
-61 -397 0
-508 -236 0
-539 -50 0
46 -213 0
-328 81 0
517 527 0
-558 -506 0
188 -393 0
-291 580 0
535 300 0
531 -367 0
-308 -314 0
-387 -116 0
-49 39 0
463 -231 0
-185 -542 0
-516 -562 0
116 215 0
418 -15 0
-152 -157 0
-390 16 0
6 -271 0
505 564 0
-155 400 0
-463 525 0
-3 -38 0
-538 -83 0
272 -258 0
-352 -191 0
530 313 0
-415 -406 0
34 -249 0
-483 -26 0
-421 -288 0
360 -204 0
-509 -24 0
-370 -552 0
-52 -276 0
232 26 0
570 -4 0
-371 -441 0
355 211 0
-555 495 0
-95 -441 0
-464 -362 0
126 504 0
-503 -18 0
-233 -128 0
-75 -256 0
-442 5 0
325 -355 0
136 527 0
524 484 0
247 -396 0
139 -61 0
-42 87 0
-258 -164 0
209 382 0
266 -175 0
265 -79 0
564 266 0
455 -452 0
-337 -141 0
506 20 0
-159 -420 0
-152 -391 0
83 169 0
-35 -80 0
-383 -540 0
-581 529 0
-465 584 0
121 464 0
-361 -461 0
310 516 0
-487 203 0
64 -73 0
-534 570 0
319 559 0
-277 -41 0
-444 500 0
-345 -140 0
-309 223 0
220 237 0
142 -196 0
265 1 0
322 251 0
88 -301 0
-325 90 0
176 518 0
-342 303 0
138 -7 0
88 -537 0
-541 194 0
-392 -446 0
-320 -375 0
-314 586 0
-89 -356 0
539 274 0
-479 -474 0
-588 98 0
-437 230 0
452 -554 0
-538 285 0
221 381 0
-65 -76 0
486 129 0
519 527 0
343 464 0
30 -226 0
155 -356 0
214 358 0
-110 271 0
132 400 0
58 -129 0
303 -404 0
-586 -25 0
262 445 0
-169 -146 0
12 -383 0
427 -555 0
109 -263 0
-541 16 0
-90 -4 0
-480 -99 0
169 172 0
-41 -113 0
573 -458 0
-480 -61 0
