c bounds 31 31
p cnf 235 728
18 -89 0
185 164 0
64 -18 0
79 67 0
-72 -93 0
-82 -31 0
177 -39 0
-94 -104 0
198 -66 0
127 38 0
-83 -213 0
-39 153 0
-12 184 0
68 234 0
105 145 0
205 -49 0
-59 100 0
140 206 0
182 -129 0
15 65 0
73 -111 0
-232 197 0
-121 -9 0
210 -32 0
223 -44 0
-31 -219 0
114 -89 0
-61 42 0
192 -198 0
-169 91 0
33 -119 0
-170 175 0
77 -93 0
-158 11 0
-132 -5 0
-27 -210 0
196 114 0
11 -123 0
117 82 0
58 95 0
-169 -90 0
-32 -191 0
234 160 0
-101 -16 0
159 -3 0
194 11 0
-34 -35 0
-191 -97 0
113 50 0
19 151 0
-132 180 0
168 -96 0
-54 22 0
-92 140 0
79 231 0
-193 51 0
-119 166 0
-34 205 0
178 -89 0
228 210 0
97 -91 0
-224 148 0
174 -157 0
156 -24 0
104 -169 0
85 219 0
-215 -169 0
-57 166 0
117 191 0
148 186 0
88 -86 0
-176 -48 0
-14 -147 0
126 51 0
152 -109 0
53 61 0
65 141 0
-205 -173 0
138 151 0
46 105 0
-187 174 0
-75 133 0
-227 -84 0
-119 -129 0
-20 223 0
-158 -203 0
-112 178 0
-174 14 0
101 -88 0
173 -208 0
-164 75 0
-76 -36 0
167 201 0
-111 147 0
42 -155 0
-87 150 0
225 -94 0
58 123 0
-215 143 0
18 -85 0
10 -214 0
-35 -152 0
-108 108 0
-219 -172 0
-203 15 0
92 -207 0
166 -228 0
90 -42 0
178 157 0
-93 94 0
-128 123 0
-124 -220 0
-168 87 0
30 -41 0
31 126 0
-153 -140 0
-132 189 0
219 53 0
-13 -27 0
11 94 0
-175 -47 0
-54 66 0
-129 145 0
49 167 0
-174 -22 0
230 -229 0
23 223 0
14 21 0
126 -121 0
53 113 0
61 -112 0
-56 232 0
-40 -227 0
168 43 0
151 155 0
-148 30 0
10 50 0
56 -1 0
144 209 0
-102 21 0
-54 122 0
106 -179 0
78 64 0
-70 -195 0
218 -184 0
95 152 0
-157 -54 0
-170 -37 0
53 -48 0
116 -192 0
228 205 0
62 -120 0
221 -16 0
142 -19 0
-154 177 0
143 -130 0
191 17 0
39 156 0
190 206 0
-134 -205 0
-199 171 0
103 164 0
67 -28 0
-159 -223 0
49 191 0
210 -186 0
-8 -39 0
-122 145 0
198 202 0
-2 225 0
208 202 0
40 -105 0
153 77 0
127 184 0
114 33 0
60 50 0
145 -179 0
50 -48 0
67 70 0
-154 192 0
-136 -215 0
167 8 0
-170 -58 0
-9 78 0
90 213 0
23 118 0
51 172 0
-54 176 0
-208 15 0
209 156 0
-180 -209 0
206 56 0
-75 -229 0
204 -188 0
21 -183 0
-97 171 0
7 168 0
-22 38 0
205 117 0
-75 -153 0
-13 -180 0
-6 76 0
50 43 0
190 -105 0
-230 -188 0
-161 18 0
100 -34 0
74 120 0
180 118 0
-213 96 0
96 -82 0
-180 -32 0
-219 209 0
-152 -209 0
65 171 0
-72 -68 0
-12 -162 0
-166 -130 0
232 -84 0
-209 73 0
150 -147 0
223 185 0
-78 -184 0
-204 -209 0
65 98 0
-225 -201 0
-159 -18 0
-160 -139 0
47 -44 0
-65 99 0
53 2 0
142 29 0
-219 179 0
-96 185 0
-173 -75 0
146 -23 0
202 40 0
-88 -221 0
211 19 0
163 -121 0
173 113 0
118 233 0
59 37 0
190 231 0
126 -172 0
135 111 0
-30 -36 0
185 57 0
234 176 0
113 -195 0
84 91 0
-13 178 0
-118 87 0
182 -59 0
-28 -95 0
-210 -126 0
196 38 0
2 167 0
74 -124 0
-24 92 0
222 52 0
118 71 0
75 70 0
-26 -64 0
125 167 0
-56 143 0
91 -157 0
-69 -173 0
-175 157 0
109 166 0
22 -229 0
-40 -215 0
-26 -39 0
-173 182 0
-46 127 0
196 92 0
-214 -11 0
127 -121 0
-108 228 0
-25 149 0
-88 89 0
-220 111 0
33 135 0
12 5 0
-76 -224 0
-137 -25 0
-221 -149 0
-97 -202 0
-163 203 0
-86 47 0
-109 46 0
212 -23 0
55 82 0
-161 228 0
203 112 0
-201 -176 0
151 -222 0
-188 160 0
-36 -10 0
190 -208 0
113 -67 0
-42 -200 0
-64 -186 0
-124 2 0
-83 56 0
-213 81 0
196 128 0
-195 51 0
-57 -108 0
83 -177 0
-130 135 0
46 -165 0
100 65 0
-113 -147 0
-7 213 0
75 -134 0
-232 -161 0
179 -67 0
-129 -58 0
-146 22 0
233 62 0
-55 -16 0
-23 178 0
145 -118 0
-203 42 0
88 143 0
-212 -9 0
-214 110 0
-8 32 0
199 -94 0
179 -45 0
-209 -182 0
143 -130 0
-1 62 0
78 228 0
187 82 0
-44 187 0
-142 -193 0
-176 -70 0
-127 126 0
-184 -180 0
-224 132 0
123 -60 0
-26 235 0
-8 128 0
-154 165 0
105 -210 0
-209 151 0
58 108 0
41 77 0
92 -27 0
-95 42 0
-140 84 0
-13 40 0
176 -1 0
-205 106 0
233 -119 0
-186 -134 0
-194 -145 0
127 -192 0
-139 7 0
-87 199 0
-227 5 0
-84 156 0
-28 19 0
-10 182 0
49 192 0
193 37 0
162 70 0
232 -170 0
-185 71 0
-233 -188 0
56 -178 0
60 -109 0
169 -220 0
-122 146 0
38 122 0
-23 61 0
-22 -129 0
-164 -75 0
-72 -143 0
126 98 0
-147 -12 0
-90 -119 0
10 -222 0
202 200 0
117 -65 0
-160 64 0
38 132 0
85 -158 0
-189 -174 0
43 220 0
-234 62 0
-4 112 0
168 102 0
127 191 0
43 -233 0
-6 110 0
-225 217 0
86 -120 0
118 127 0
-180 50 0
-201 -146 0
-132 -128 0
186 -105 0
-101 144 0
143 90 0
91 -13 0
107 63 0
143 -91 0
102 167 0
-129 140 0
-32 -121 0
80 -147 0
15 182 0
-127 -93 0
80 73 0
-75 -36 0
-181 -126 0
55 -28 0
-124 198 0
166 -92 0
68 203 0
-177 74 0
-123 -229 0
-207 -111 0
66 63 0
-194 218 0
-67 2 0
185 19 0
-38 156 0
-227 171 0
191 -164 0
146 175 0
-102 -128 0
-215 215 0
-8 -170 0
-57 -48 0
-222 117 0
-137 70 0
91 43 0
-207 188 0
-182 -33 0
-109 -114 0
234 111 0
31 74 0
-231 198 0
-161 -100 0
109 -88 0
152 58 0
-67 -108 0
-181 143 0
-222 -148 0
-7 212 0
-204 83 0
228 118 0
60 226 0
2 -12 0
-153 46 0
-57 128 0
-25 -109 0
-158 -6 0
209 198 0
143 203 0
-91 125 0
-27 -3 0
77 46 0
157 148 0
-218 81 0
103 -234 0
-89 40 0
-194 89 0
128 -176 0
-59 97 0
81 -144 0
-18 -213 0
-180 114 0
-170 155 0
-170 -177 0
63 175 0
-134 129 0
-17 22 0
91 22 0
31 205 0
-202 231 0
-86 -116 0
201 100 0
78 186 0
84 165 0
-56 -10 0
56 5 0
131 -10 0
103 131 0
-152 56 0
145 68 0
181 55 0
-132 148 0
42 -82 0
130 15 0
-25 -48 0
-200 -206 0
152 -122 0
-60 -204 0
185 128 0
-89 -157 0
-186 56 0
156 -43 0
-202 -219 0
-26 165 0
218 172 0
-93 8 0
-124 -87 0
113 68 0
152 212 0
-195 -33 0
223 -214 0
165 49 0
-120 -101 0
149 -186 0
-71 197 0
208 225 0
58 218 0
-172 -194 0
-78 43 0
223 -159 0
141 -1 0
198 -191 0
128 142 0
183 145 0
102 126 0
160 -120 0
-220 115 0
25 21 0
166 -210 0
-131 221 0
59 -28 0
-94 -125 0
75 151 0
85 -156 0
-108 137 0
49 -197 0
-126 168 0
-49 -108 0
-193 -25 0
135 109 0
229 114 0
87 135 0
-158 -91 0
-147 -90 0
-24 178 0
-49 -48 0
-6 58 0
-207 -67 0
15 133 0
-89 -162 0
-170 -88 0
-234 43 0
-79 231 0
233 154 0
211 -157 0
134 15 0
-143 -218 0
-158 -28 0
126 -187 0
-31 51 0
106 127 0
-10 -101 0
-118 68 0
216 -235 0
-144 -164 0
103 226 0
82 41 0
-88 -157 0
235 -162 0
19 -100 0
185 -139 0
39 -39 0
95 33 0
-158 174 0
-212 -229 0
-209 -86 0
193 -28 0
42 60 0
-109 -64 0
199 -22 0
-53 190 0
-92 -8 0
37 -62 0
145 -121 0
144 217 0
163 64 0
-201 -119 0
29 -45 0
-181 -74 0
-216 18 0
-153 158 0
152 99 0
75 -77 0
104 -7 0
-232 80 0
199 -69 0
96 -184 0
-86 -149 0
140 179 0
17 229 0
51 65 0
203 -130 0
-59 65 0
74 -235 0
-157 -197 0
117 226 0
60 125 0
-121 108 0
144 161 0
192 -128 0
58 -35 0
199 60 0
-216 4 0
-31 192 0
192 -88 0
-73 113 0
-28 145 0
99 -97 0
-129 -214 0
140 -109 0
159 21 0
199 -211 0
113 -11 0
69 -98 0
-161 -154 0
198 -134 0
-6 -88 0
-109 -49 0
-180 19 0
165 -131 0
68 -161 0
-160 159 0
123 234 0
47 42 0
-147 -121 0
-222 -58 0
-70 235 0
-95 122 0
187 -138 0
104 -39 0
-132 -174 0
-218 -131 0
221 146 0
118 -16 0
-212 168 0
38 214 0
119 -132 0
83 -5 0
-231 100 0
-77 185 0
-135 61 0
-186 110 0
124 -169 0
-170 -174 0
-27 -119 0
190 231 0
198 -35 0
189 21 0
117 78 0
-125 155 0
50 -139 0
-169 91 0
-125 -80 0
144 27 0
-208 -170 0
199 -92 0
-92 84 0
-80 -224 0
-136 61 0
-219 -179 0
-161 -16 0
-219 -199 0
3 -132 0
-6 55 0
180 -108 0
-3 -61 0
-210 110 0
29 75 0
-207 64 0
-217 -219 0
57 77 0
-98 -192 0
-155 43 0
-90 -193 0
168 52 0
-191 -212 0
114 -219 0
-61 -86 0
-78 -120 0
90 57 0
232 75 0
-128 183 0
-149 -127 0
78 15 0
225 -118 0
93 53 0
172 159 0
189 -91 0
-183 -39 0
97 -139 0
-224 75 0
-204 -112 0
172 -34 0
216 -175 0
-226 38 0
-11 -147 0
-224 106 0
-89 -180 0
126 74 0
205 206 0
17 -221 0
62 -195 0
181 63 0
-221 -12 0
-233 234 0
-25 114 0
-88 -193 0
-39 -174 0
-134 -108 0
52 -191 0
121 168 0
-197 140 0
64 214 0
