c bounds 147 194
p cnf 910 1638
-664 -775 0
-415 -693 0
801 -769 0
181 863 0
600 642 0
636 -402 0
895 161 0
66 -73 0
-333 -505 0
736 -858 0
-89 -729 0
-903 830 0
-304 587 0
-887 -653 0
444 -680 0
-686 21 0
782 487 0
181 -236 0
-719 -637 0
804 -688 0
-8 -382 0
892 -860 0
-261 -594 0
527 -342 0
-754 859 0
736 115 0
194 80 0
-20 718 0
743 827 0
-487 -581 0
-191 834 0
-230 179 0
-497 -874 0
602 -625 0
192 575 0
-336 -232 0
610 849 0
-362 467 0
132 -370 0
-801 -237 0
-275 -648 0
-697 40 0
675 631 0
467 852 0
309 -170 0
-186 -45 0
-238 -795 0
-691 -505 0
-677 -656 0
560 273 0
-708 897 0
829 -36 0
-277 504 0
-342 -418 0
282 -194 0
32 395 0
-596 -811 0
-288 -145 0
-210 711 0
346 894 0
107 475 0
-386 -332 0
243 -733 0
491 -658 0
402 -377 0
240 -508 0
-817 831 0
-58 -152 0
-230 -910 0
-516 681 0
-884 -840 0
461 -27 0
-237 422 0
-159 -384 0
-764 -483 0
-648 368 0
-623 -380 0
830 -402 0
164 818 0
224 -542 0
836 -760 0
-815 -701 0
242 -573 0
-656 316 0
790 -865 0
-541 -39 0
-494 555 0
-121 -698 0
497 -752 0
315 -742 0
667 -207 0
-438 -687 0
246 786 0
-615 -2 0
31 910 0
-899 -578 0
148 783 0
-319 879 0
-323 -845 0
831 -311 0
-605 -623 0
204 -828 0
289 -637 0
249 676 0
617 768 0
527 160 0
-661 800 0
-278 -643 0
568 -680 0
836 -803 0
515 508 0
63 850 0
61 428 0
-891 -269 0
682 -291 0
-641 371 0
411 809 0
-551 -523 0
-628 119 0
-238 407 0
458 -342 0
55 -403 0
874 -137 0
864 767 0
-788 -806 0
-816 247 0
-807 611 0
302 -158 0
120 -722 0
-210 -410 0
110 -780 0
216 209 0
-803 739 0
583 -237 0
-541 281 0
-164 -891 0
225 131 0
496 88 0
-186 552 0
-203 -145 0
657 -705 0
431 82 0
-328 514 0
543 -769 0
-728 -367 0
-319 175 0
-484 896 0
667 -31 0
334 467 0
-687 -569 0
203 -656 0
-39 522 0
210 48 0
455 -95 0
-626 346 0
694 -380 0
-488 235 0
517 586 0
-453 315 0
-748 206 0
-685 419 0
209 323 0
-615 470 0
-33 -718 0
547 -654 0
-581 608 0
-341 -902 0
514 290 0
219 867 0
159 -269 0
203 476 0
-332 -774 0
-775 114 0
-691 -399 0
-61 883 0
486 83 0
895 -759 0
228 58 0
167 -372 0
792 105 0
282 -86 0
-671 296 0
-72 645 0
-816 -884 0
677 639 0
-422 435 0
-63 -145 0
133 -722 0
460 -760 0
240 -450 0
-514 -425 0
254 -428 0
-15 -803 0
400 751 0
-540 -203 0
849 890 0
252 340 0
758 -219 0
-577 -515 0
-755 -235 0
-655 441 0
38 -474 0
171 -409 0
-880 -244 0
670 -195 0
-760 215 0
-86 -706 0
534 -491 0
-451 715 0
-375 -336 0
-819 -696 0
-852 -578 0
669 709 0
-152 879 0
-392 -460 0
820 600 0
-449 836 0
-553 -501 0
-171 83 0
-751 -531 0
-99 731 0
-256 -565 0
263 -425 0
-724 151 0
13 -473 0
816 325 0
802 713 0
-422 -229 0
-647 -585 0
894 148 0
467 -104 0
841 -22 0
772 -822 0
-97 783 0
364 -818 0
725 201 0
373 -372 0
631 -744 0
810 524 0
42 -103 0
-326 -632 0
556 -774 0
-163 -591 0
-676 343 0
792 461 0
823 -64 0
168 -20 0
-840 372 0
-718 650 0
681 -439 0
-17 -903 0
-227 -189 0
-372 -525 0
147 -210 0
-191 -888 0
425 -661 0
-887 -339 0
-482 167 0
287 445 0
355 -850 0
-321 -145 0
209 -534 0
-656 -694 0
-867 -869 0
-691 184 0
-269 -849 0
57 738 0
555 208 0
-138 -678 0
-900 -52 0
772 32 0
474 245 0
-841 613 0
115 -252 0
19 -889 0
-705 -111 0
-538 -568 0
110 296 0
-381 -94 0
-272 -501 0
-97 31 0
-415 730 0
-474 -395 0
412 129 0
-629 -75 0
-331 224 0
196 481 0
-340 -556 0
572 315 0
-866 785 0
-358 865 0
177 -430 0
725 -417 0
530 500 0
-39 -326 0
716 -250 0
-303 -777 0
220 192 0
448 -591 0
19 -435 0
143 320 0
130 40 0
-267 7 0
-493 900 0
-761 843 0
-780 -526 0
102 -221 0
533 29 0
892 23 0
508 -420 0
817 825 0
3 129 0
-400 -526 0
363 892 0
-303 11 0
-773 -268 0
834 14 0
26 -349 0
127 536 0
-417 218 0
217 482 0
4 -516 0
423 -53 0
-453 715 0
536 -713 0
-551 -293 0
768 56 0
203 -799 0
577 -837 0
-182 -532 0
855 -180 0
423 -845 0
-491 645 0
-334 505 0
-757 454 0
6 552 0
-889 -612 0
-178 -586 0
93 151 0
-880 639 0
451 675 0
-429 -456 0
335 -390 0
-64 -312 0
295 -197 0
884 836 0
-893 -476 0
-673 262 0
-828 88 0
363 279 0
-370 -716 0
422 -746 0
-110 -375 0
557 60 0
559 -498 0
22 630 0
162 323 0
581 -477 0
716 -904 0
-469 -615 0
31 486 0
-127 482 0
417 -8 0
864 -188 0
597 280 0
770 -22 0
-212 668 0
-633 -719 0
338 -404 0
215 525 0
-231 185 0
91 736 0
-764 -320 0
-860 -804 0
289 -526 0
699 754 0
-447 -255 0
151 -444 0
892 94 0
-208 -471 0
144 -36 0
692 -688 0
545 -773 0
758 153 0
531 427 0
-876 541 0
287 517 0
463 627 0
779 -253 0
131 -375 0
-29 -313 0
592 -699 0
-611 -587 0
-361 -673 0
843 -694 0
318 185 0
400 -37 0
-479 546 0
-707 416 0
760 185 0
-266 -760 0
885 777 0
-656 79 0
765 112 0
635 -632 0
638 673 0
348 679 0
-546 374 0
842 341 0
-459 -891 0
625 320 0
-476 -555 0
-337 910 0
-307 -364 0
-775 655 0
-480 -170 0
316 729 0
-883 31 0
-95 374 0
-384 -434 0
376 -518 0
-80 -721 0
-153 -132 0
552 -688 0
-884 571 0
-678 -186 0
233 159 0
616 -628 0
-637 -185 0
-248 787 0
31 -29 0
745 218 0
617 109 0
429 92 0
-83 229 0
-609 -603 0
200 564 0
-281 669 0
188 421 0
-547 855 0
-375 443 0
-251 772 0
768 220 0
-279 387 0
-257 769 0
-450 889 0
-14 -381 0
-766 -887 0
-50 201 0
525 536 0
219 -3 0
-137 250 0
331 735 0
-860 -380 0
-893 96 0
-835 448 0
490 825 0
284 -529 0
249 63 0
-676 -175 0
282 406 0
-4 -36 0
686 -772 0
26 -468 0
-83 -677 0
-139 24 0
404 -732 0
744 -204 0
379 -786 0
-24 -623 0
-118 -145 0
-756 -136 0
-74 80 0
-827 -654 0
643 -296 0
56 -633 0
163 -593 0
302 576 0
-640 -678 0
108 821 0
623 181 0
-731 864 0
-566 -687 0
540 99 0
680 184 0
730 854 0
909 -813 0
-224 715 0
763 783 0
-735 588 0
655 379 0
737 443 0
-351 786 0
-28 -738 0
-627 -103 0
778 869 0
-354 449 0
203 716 0
-459 -558 0
-606 670 0
-593 -559 0
699 269 0
-671 -603 0
462 252 0
296 761 0
577 -58 0
176 -197 0
826 -695 0
17 -840 0
131 -444 0
-52 -428 0
280 -271 0
-619 700 0
592 848 0
-661 748 0
-177 201 0
667 -131 0
-760 741 0
-216 -135 0
-361 -742 0
160 906 0
-234 716 0
-474 -544 0
-619 209 0
478 577 0
434 -884 0
-627 233 0
-382 239 0
58 694 0
467 461 0
-179 -85 0
602 578 0
-134 56 0
855 -11 0
-790 517 0
-428 -643 0
-304 200 0
805 23 0
4 -848 0
-844 -86 0
-617 -36 0
344 711 0
273 -452 0
-236 376 0
316 -127 0
-840 -642 0
892 613 0
-332 -733 0
579 287 0
-412 -866 0
-197 -551 0
119 482 0
711 37 0
-245 -509 0
224 -169 0
118 229 0
865 -453 0
388 -806 0
781 454 0
-816 -812 0
-397 -437 0
-379 -210 0
-714 -328 0
184 -578 0
107 -213 0
431 788 0
-354 226 0
798 -388 0
613 392 0
475 -15 0
301 -505 0
-708 -723 0
-701 190 0
-767 174 0
-562 -561 0
-377 -39 0
712 540 0
247 -517 0
690 -712 0
375 12 0
40 545 0
-402 -727 0
322 -612 0
-229 -641 0
533 -32 0
819 100 0
-337 111 0
202 -611 0
126 612 0
678 -554 0
-532 122 0
125 -735 0
908 -289 0
-398 -496 0
111 -470 0
-560 -804 0
-561 562 0
-95 84 0
-140 -117 0
167 306 0
71 277 0
573 -635 0
534 -342 0
628 109 0
659 147 0
634 212 0
812 416 0
143 -471 0
-213 -540 0
-471 -634 0
580 294 0
259 -213 0
812 -722 0
-1 -771 0
864 540 0
571 730 0
-634 -69 0
-659 -48 0
-409 -50 0
-807 -825 0
-450 -743 0
764 -106 0
186 193 0
736 -529 0
618 535 0
-153 -541 0
656 -98 0
-854 580 0
-298 -883 0
553 -781 0
696 1 0
-365 662 0
731 344 0
-439 -368 0
563 341 0
455 498 0
884 338 0
748 -216 0
-781 -397 0
66 -650 0
-234 -686 0
-234 23 0
550 -91 0
-230 -39 0
547 150 0
112 -516 0
509 -439 0
-74 -491 0
904 352 0
454 584 0
588 59 0
-321 99 0
397 812 0
726 -758 0
472 30 0
284 681 0
635 657 0
467 -583 0
-63 697 0
-532 -579 0
633 -302 0
-609 -907 0
68 772 0
-342 416 0
-640 -760 0
-227 436 0
90 477 0
851 -783 0
219 -797 0
-150 608 0
527 789 0
-544 -22 0
721 562 0
-123 -609 0
126 -430 0
462 141 0
-36 808 0
-327 787 0
816 -677 0
523 38 0
-605 91 0
302 -130 0
-354 184 0
21 377 0
-292 273 0
96 -268 0
368 -886 0
759 893 0
-285 -710 0
902 -553 0
520 -858 0
18 43 0
135 715 0
-288 408 0
225 175 0
-681 503 0
455 228 0
686 311 0
88 -802 0
-600 576 0
24 -596 0
498 -785 0
-301 896 0
-317 75 0
-75 618 0
262 23 0
-564 413 0
-815 -658 0
-775 -512 0
-590 602 0
-793 -175 0
-269 -640 0
546 -311 0
155 811 0
-123 -883 0
-609 -659 0
-358 -386 0
-470 862 0
-518 -426 0
443 335 0
305 127 0
-826 -598 0
-236 824 0
785 43 0
-355 -548 0
-670 -621 0
-405 171 0
-808 -293 0
210 617 0
-402 832 0
766 -81 0
368 -62 0
-619 219 0
-93 -661 0
-144 78 0
-551 630 0
-869 -594 0
-413 -463 0
-190 35 0
900 683 0
-269 512 0
-705 -404 0
-742 15 0
-734 -658 0
-784 -252 0
786 488 0
-95 -784 0
-130 -655 0
-662 350 0
521 -128 0
-292 -422 0
153 224 0
-547 93 0
713 -26 0
363 -659 0
141 788 0
126 30 0
-755 77 0
320 -48 0
-646 518 0
12 -668 0
772 210 0
-181 575 0
-217 -304 0
-272 570 0
893 782 0
-20 -431 0
735 -420 0
495 582 0
55 734 0
57 -378 0
-768 -386 0
615 -390 0
-278 -467 0
613 312 0
187 -137 0
43 343 0
-385 -68 0
-799 -852 0
572 -447 0
10 -207 0
-370 -472 0
376 526 0
894 193 0
-210 -304 0
-28 -220 0
43 -676 0
826 -869 0
-471 -531 0
-652 -218 0
15 -632 0
648 302 0
-361 905 0
-552 -505 0
-45 -248 0
214 885 0
832 113 0
-226 -883 0
172 -351 0
-734 -131 0
-283 -656 0
394 -585 0
-38 621 0
-367 717 0
27 -891 0
-85 514 0
-726 794 0
41 -620 0
827 -651 0
-647 -159 0
-358 482 0
-733 604 0
287 750 0
-94 -817 0
586 -400 0
-299 185 0
-548 -120 0
-665 172 0
757 -594 0
336 786 0
241 365 0
-589 -755 0
112 -318 0
-846 396 0
67 -287 0
37 -605 0
-89 -795 0
-270 83 0
-614 -83 0
-499 -817 0
-482 299 0
359 587 0
385 185 0
318 -481 0
-381 503 0
-4 -231 0
894 -819 0
467 447 0
-627 -216 0
-465 880 0
909 -290 0
242 842 0
503 584 0
-295 -343 0
-337 238 0
-10 525 0
350 -18 0
487 26 0
586 618 0
405 111 0
-903 789 0
589 717 0
-118 -271 0
703 420 0
-160 379 0
133 58 0
-64 711 0
270 -708 0
735 -759 0
-282 657 0
-593 -104 0
350 -501 0
-719 200 0
-847 395 0
-116 -860 0
596 154 0
-775 -236 0
-175 -70 0
534 -307 0
-688 -432 0
127 -660 0
-787 -373 0
-15 -435 0
-652 31 0
-645 -349 0
441 657 0
-779 461 0
-648 740 0
76 357 0
217 472 0
44 125 0
683 -506 0
-640 -145 0
-671 725 0
40 -212 0
537 548 0
-186 -293 0
588 -427 0
-377 -106 0
-546 783 0
-439 -569 0
902 284 0
-278 800 0
615 -509 0
-397 800 0
-759 88 0
-723 -9 0
-483 563 0
-41 -672 0
847 -410 0
716 -622 0
-295 467 0
171 -111 0
826 519 0
407 -74 0
797 219 0
-519 -33 0
-281 431 0
-329 -132 0
-170 -497 0
141 -543 0
108 144 0
600 -217 0
-332 -620 0
411 -294 0
-493 640 0
-9 355 0
427 514 0
853 -689 0
-322 608 0
533 612 0
192 -835 0
879 -5 0
89 716 0
-170 -738 0
-593 526 0
28 -136 0
782 -274 0
713 -816 0
-574 -646 0
25 380 0
99 826 0
-855 -354 0
338 47 0
-559 837 0
-458 667 0
387 496 0
442 885 0
-284 -380 0
419 371 0
-88 812 0
32 -760 0
-694 809 0
-226 573 0
595 -561 0
229 -758 0
-516 -66 0
254 654 0
214 -769 0
-722 736 0
500 -266 0
465 -379 0
537 451 0
712 177 0
741 884 0
-298 577 0
35 320 0
185 655 0
545 277 0
868 511 0
236 -746 0
-317 117 0
244 24 0
-139 -898 0
-27 -678 0
-777 129 0
258 -529 0
-278 -656 0
627 25 0
-679 -10 0
-887 402 0
857 809 0
329 766 0
-637 258 0
-371 857 0
-644 514 0
-689 909 0
-788 -145 0
-770 662 0
493 584 0
-722 821 0
33 -319 0
357 -126 0
338 807 0
-73 262 0
-612 145 0
829 650 0
-765 -603 0
-459 -908 0
-827 602 0
-310 -824 0
-238 288 0
422 -501 0
-107 93 0
802 -432 0
-28 323 0
-271 121 0
-431 -665 0
743 -691 0
-225 -677 0
-678 -94 0
-771 873 0
-771 145 0
-336 371 0
-375 592 0
215 -237 0
823 -723 0
-418 -899 0
-828 886 0
-92 -542 0
80 57 0
826 606 0
-832 712 0
534 374 0
-789 -337 0
51 -586 0
-826 -707 0
348 -907 0
-510 286 0
-681 338 0
-532 -221 0
338 271 0
709 -298 0
-45 623 0
147 -94 0
-279 -137 0
888 -152 0
726 -785 0
243 26 0
385 -871 0
-876 853 0
-517 340 0
-278 -723 0
88 454 0
-228 -606 0
22 857 0
177 -171 0
261 -827 0
-261 -205 0
588 -544 0
209 -509 0
-252 86 0
703 -547 0
617 233 0
312 -166 0
602 -275 0
465 632 0
344 361 0
-619 544 0
744 -623 0
462 -743 0
7 667 0
189 -833 0
522 -201 0
-235 657 0
-358 -575 0
-98 402 0
113 -570 0
654 2 0
652 -722 0
29 107 0
562 -286 0
-708 143 0
-752 91 0
-705 -908 0
-298 331 0
-818 -202 0
68 398 0
68 736 0
200 141 0
-751 441 0
-801 237 0
-456 863 0
364 297 0
-643 -196 0
47 -194 0
820 -837 0
223 -416 0
39 107 0
-855 395 0
690 838 0
512 -489 0
-106 -702 0
126 -89 0
79 64 0
522 446 0
832 271 0
273 396 0
90 794 0
720 -124 0
898 899 0
-668 -830 0
343 763 0
-632 523 0
-26 131 0
10 460 0
-899 -456 0
75 684 0
-706 -685 0
-217 -659 0
424 -748 0
113 297 0
772 -366 0
-432 -293 0
-568 875 0
528 -823 0
198 -677 0
-28 -492 0
-135 893 0
-631 852 0
-807 -489 0
-700 906 0
-162 -453 0
633 482 0
364 109 0
371 524 0
-686 -861 0
-894 798 0
631 311 0
246 -498 0
597 404 0
539 898 0
-326 -228 0
-370 -679 0
-136 -597 0
-437 905 0
794 -269 0
254 797 0
-354 -655 0
-104 -257 0
-62 -145 0
-649 635 0
40 -886 0
-835 -356 0
-217 -20 0
486 -341 0
77 -514 0
-506 -326 0
792 263 0
168 770 0
545 304 0
-336 673 0
-858 -705 0
517 -513 0
20 21 0
482 -169 0
-390 -38 0
-341 -570 0
-317 791 0
-708 -763 0
-691 -828 0
-499 -719 0
487 741 0
74 592 0
776 759 0
767 319 0
84 -508 0
-367 155 0
109 133 0
-601 -708 0
235 343 0
422 83 0
-361 223 0
-373 712 0
-901 -661 0
-644 322 0
-244 491 0
479 -281 0
-815 116 0
56 742 0
-806 -581 0
897 -606 0
551 486 0
-120 -270 0
-412 541 0
-472 -439 0
421 -354 0
862 -123 0
713 324 0
395 644 0
-295 249 0
562 842 0
-743 -109 0
-648 337 0
85 -382 0
655 741 0
-123 -277 0
627 545 0
-539 -660 0
105 -844 0
-509 868 0
829 90 0
753 -815 0
522 -797 0
-186 -910 0
-449 -888 0
124 564 0
497 301 0
182 387 0
-556 219 0
-216 90 0
-432 579 0
312 820 0
266 346 0
859 -43 0
357 -506 0
-877 135 0
867 -240 0
-142 571 0
-788 827 0
-614 530 0
-531 94 0
-348 873 0
732 73 0
115 55 0
-606 440 0
320 -646 0
825 -230 0
101 -672 0
445 -97 0
484 -590 0
395 62 0
-625 737 0
-459 545 0
205 -746 0
645 -31 0
-479 -849 0
579 355 0
-12 -611 0
-258 -136 0
-715 792 0
-439 411 0
149 -559 0
94 836 0
584 408 0
56 368 0
789 -81 0
-44 -216 0
-719 -228 0
-63 420 0
-548 523 0
523 682 0
-332 -292 0
-327 -680 0
116 301 0
-723 96 0
-221 831 0
49 -102 0
-835 555 0
-248 -767 0
644 -190 0
574 -260 0
-132 549 0
-856 -197 0
724 -691 0
322 -107 0
-150 52 0
381 -402 0
19 -655 0
894 824 0
579 149 0
9 111 0
595 725 0
-840 -708 0
-837 772 0
29 -481 0
181 296 0
564 -771 0
-129 565 0
-16 -753 0
-837 327 0
445 770 0
610 258 0
808 335 0
796 -298 0
566 763 0
144 782 0
75 424 0
43 147 0
289 -854 0
147 -497 0
622 298 0
703 -367 0
-390 -411 0
841 -757 0
-642 -469 0
-333 885 0
-604 382 0
-136 25 0
-505 -279 0
-317 230 0
-81 567 0
-532 26 0
827 -773 0
113 -568 0
368 213 0
-540 -353 0
-548 600 0
544 -102 0
-719 -814 0
-901 804 0
512 206 0
-771 231 0
808 -103 0
649 -658 0
-615 842 0
347 533 0
-578 94 0
-351 95 0
-543 734 0
-569 -898 0
-486 -173 0
733 808 0
-479 -623 0
-421 831 0
32 -785 0
-101 -695 0
340 304 0
645 -319 0
-810 112 0
149 311 0
562 -269 0
-374 -425 0
-485 9 0
77 -209 0
-666 -168 0
582 436 0
-560 42 0
866 220 0
812 -399 0
848 274 0
445 -208 0
737 -590 0
644 251 0
-41 821 0
-777 -439 0
290 -894 0
486 167 0
-605 442 0
-36 -833 0
-751 -481 0
545 -590 0
-838 373 0
88 -148 0
-259 -349 0
669 739 0
317 346 0
50 -803 0
-869 -50 0
-600 339 0
545 424 0
537 857 0
26 -9 0
20 853 0
-132 -505 0
-49 80 0
187 799 0
-684 -169 0
-538 -649 0
-864 577 0
464 -469 0
700 -746 0
360 315 0
-17 134 0
-716 -17 0
635 -527 0
633 -603 0
600 -166 0
870 734 0
-222 405 0
-822 129 0
-715 802 0
684 -317 0
495 414 0
-530 586 0
12 -102 0
623 -505 0
261 -875 0
-53 432 0
-393 31 0
231 863 0
-447 257 0
327 26 0
863 -895 0
-675 667 0
-590 -343 0
-334 613 0
572 285 0
-391 -137 0
385 571 0
204 -358 0
-441 -120 0
-343 -429 0
-40 11 0
703 350 0
-868 -671 0
46 -909 0
-568 -525 0
-460 454 0
-453 408 0
235 635 0
821 251 0
783 665 0
129 119 0
-268 398 0
-604 -409 0
416 621 0
751 -724 0
-50 -481 0
-543 732 0
56 -268 0
279 -648 0
-308 185 0
263 732 0
565 -805 0
-405 789 0
-854 -318 0
222 346 0
-665 -171 0
544 -227 0
686 -764 0
475 340 0
105 -802 0
704 -747 0
-678 -537 0
-439 767 0
-495 93 0
727 -430 0
479 200 0
829 -89 0
-86 -193 0
138 562 0
-426 -356 0
697 739 0
301 581 0
-297 905 0
25 2 0
89 527 0
-866 527 0
-387 -560 0
-255 -113 0
-128 -508 0
-903 471 0
772 -629 0
805 -148 0
520 -567 0
709 -346 0
763 680 0
358 87 0
269 -152 0
-237 -660 0
896 832 0
737 -50 0
685 -490 0
262 309 0
-664 -488 0
233 88 0
143 -593 0
-216 -305 0
795 804 0
731 -391 0
723 79 0
769 203 0
-561 -730 0
-891 770 0
-845 -361 0
-205 101 0
219 -490 0
-139 78 0
525 112 0
-653 248 0
-285 -435 0
618 496 0
-648 144 0
383 674 0
857 794 0
887 522 0
-318 -267 0
686 -325 0
504 407 0
-621 -172 0
-501 373 0
286 -307 0
276 -501 0
-444 179 0
5 -828 0
329 -229 0
-723 886 0
142 -323 0
324 -541 0
-55 850 0
-383 -54 0
377 -285 0
-218 836 0
-270 -542 0
820 608 0
167 756 0
122 847 0
475 -108 0
-580 -619 0
-655 -169 0
-163 670 0
198 -390 0
23 -595 0
249 -683 0
523 58 0
-607 41 0
-731 27 0
535 -804 0
571 -127 0
816 201 0
579 -888 0
193 -470 0
291 867 0
-518 -766 0
-566 506 0
-618 448 0
-867 -593 0
-110 -386 0
-101 352 0
484 890 0
-481 886 0
823 745 0
-210 71 0
78 -378 0
883 -588 0
90 523 0
521 894 0
-192 -781 0
5 656 0
503 -556 0
-91 753 0
-194 -877 0
142 395 0
575 48 0
-130 389 0
-191 -833 0
689 -810 0
572 535 0
-483 -588 0
-511 -234 0
-334 176 0
-235 107 0
-237 -152 0
592 -628 0
99 635 0
-619 -439 0
-223 92 0
651 -746 0
33 -434 0
-641 622 0
408 -181 0
866 -342 0
765 -845 0
856 374 0
-501 -648 0
-378 -634 0
-702 -143 0
473 -590 0
21 -717 0
-470 613 0
686 510 0
-807 842 0
886 621 0
-252 871 0
-308 397 0
-482 645 0
209 -777 0
908 -826 0
-236 -651 0
638 -83 0
555 -325 0
841 470 0
827 139 0
470 -230 0
326 126 0
-697 -149 0
-609 -698 0
-216 826 0
-788 -516 0
-111 684 0
-449 -538 0
-707 667 0
-245 -308 0
651 -266 0
416 -467 0
-353 27 0
-19 -705 0
827 640 0
340 -627 0
597 -658 0
28 473 0
-505 -752 0
-538 439 0
525 -317 0
856 188 0
31 539 0
650 249 0
-132 -865 0
-709 -664 0
-561 -788 0
-104 572 0
738 -274 0
-475 744 0
-5 -901 0
780 -172 0
-784 -760 0
6 57 0
-157 357 0
-719 -409 0
859 320 0
864 161 0
-663 694 0
23 285 0
516 -375 0
108 503 0
-173 556 0
112 -84 0
-387 -237 0
167 434 0
-88 376 0
374 132 0
831 -266 0
387 -280 0
-397 -146 0
-646 -376 0
-98 6 0
-17 269 0
-388 -332 0
-759 250 0
-823 829 0
-358 492 0
1 620 0
-128 213 0
600 503 0
-513 -30 0
498 -750 0
430 -583 0
