c NF
p cnf 712 1210
411 -661 0
-546 -673 0
321 -21 0
704 -365 0
465 -446 0
77 -508 0
-69 134 0
228 526 0
-699 584 0
-634 -325 0
576 577 0
-660 -210 0
-102 137 0
-360 540 0
383 -641 0
372 -414 0
475 -645 0
-351 697 0
-189 -426 0
-25 338 0
-195 -457 0
-557 -223 0
140 455 0
593 185 0
-394 141 0
576 -138 0
688 129 0
154 -562 0
241 377 0
-277 516 0
-671 143 0
-476 555 0
-218 393 0
234 -182 0
-353 -663 0
-251 670 0
-287 183 0
638 -395 0
-82 572 0
315 22 0
82 -516 0
-161 -224 0
647 71 0
-570 -500 0
504 -539 0
-699 209 0
26 153 0
682 513 0
-307 390 0
-609 -705 0
564 234 0
527 140 0
448 -107 0
707 -505 0
-405 420 0
-6 294 0
-307 -40 0
-409 -435 0
278 -671 0
115 544 0
576 -367 0
249 -125 0
-237 61 0
237 -284 0
593 221 0
-356 -561 0
689 281 0
178 70 0
179 159 0
-584 -167 0
516 -692 0
197 395 0
111 -288 0
533 298 0
-15 -333 0
550 -181 0
237 383 0
-524 402 0
-432 649 0
-50 645 0
-271 361 0
-712 -111 0
-80 -219 0
159 6 0
-622 -172 0
-104 -152 0
1 613 0
631 -349 0
593 -226 0
7 -230 0
630 -103 0
-509 273 0
-169 -118 0
144 -18 0
-158 -639 0
-167 -386 0
295 -135 0
-676 127 0
-274 -410 0
315 -63 0
214 -115 0
-63 -510 0
-125 -153 0
328 -436 0
-84 -463 0
30 -100 0
-582 -108 0
502 -209 0
-604 37 0
-256 -386 0
579 -186 0
701 101 0
-324 42 0
-128 -252 0
595 -687 0
-287 -157 0
359 317 0
-250 -196 0
125 -518 0
185 169 0
-192 411 0
-597 658 0
-423 -284 0
-400 235 0
348 216 0
-709 548 0
-452 -314 0
191 -595 0
-241 -556 0
-38 -248 0
-140 212 0
-422 -654 0
20 377 0
-409 -1 0
-184 202 0
393 451 0
516 -480 0
-11 169 0
-556 395 0
22 12 0
228 -287 0
-705 546 0
188 300 0
488 329 0
122 -84 0
450 -441 0
-524 -381 0
170 -87 0
77 485 0
646 -221 0
346 662 0
-360 523 0
79 427 0
-71 -172 0
310 19 0
-205 318 0
-438 -76 0
378 -443 0
332 -174 0
59 -709 0
240 280 0
573 502 0
115 -4 0
-344 -18 0
646 -225 0
259 608 0
-143 -643 0
-361 488 0
68 665 0
463 240 0
-560 -382 0
694 685 0
615 673 0
-703 -518 0
-297 -654 0
201 163 0
467 -589 0
611 -303 0
684 376 0
433 -447 0
451 -370 0
649 119 0
658 187 0
652 320 0
707 -57 0
472 596 0
516 -331 0
-226 267 0
-582 519 0
-45 251 0
-419 -472 0
-353 490 0
-178 -666 0
697 -134 0
205 -612 0
-426 289 0
-29 -251 0
231 657 0
165 -266 0
-147 372 0
-80 -123 0
608 -419 0
-405 471 0
320 166 0
-543 269 0
-567 540 0
665 -318 0
-207 692 0
-538 -406 0
-249 489 0
-71 208 0
-527 -517 0
-198 44 0
-262 -425 0
-692 150 0
-337 495 0
-308 -337 0
-64 57 0
-370 171 0
364 525 0
700 611 0
654 169 0
-539 -365 0
606 -366 0
406 -518 0
-68 442 0
-274 -355 0
-118 -533 0
332 514 0
347 122 0
310 613 0
315 -529 0
23 168 0
-396 514 0
418 -133 0
168 -199 0
402 -443 0
-118 675 0
632 -266 0
-105 -685 0
404 434 0
-192 228 0
76 630 0
-285 -304 0
581 -507 0
-178 -302 0
142 290 0
141 348 0
-702 -253 0
550 700 0
-247 -374 0
-705 146 0
-242 -654 0
87 -603 0
346 -463 0
-627 -351 0
697 -609 0
-135 47 0
-372 577 0
-266 273 0
159 -424 0
381 -284 0
-100 -304 0
235 -340 0
412 -464 0
-64 -179 0
-479 566 0
170 550 0
537 559 0
234 418 0
-155 -562 0
58 -570 0
-378 631 0
604 617 0
-645 -690 0
-284 429 0
33 339 0
581 413 0
29 239 0
-184 598 0
235 530 0
289 142 0
-200 341 0
62 -395 0
-45 401 0
450 582 0
-416 256 0
-594 -156 0
126 336 0
-654 -192 0
46 466 0
-410 -663 0
509 -481 0
227 128 0
63 -702 0
-661 -6 0
149 -225 0
502 472 0
71 6 0
243 -425 0
112 -308 0
-582 -491 0
315 3 0
-577 568 0
-384 156 0
559 681 0
62 657 0
-668 -349 0
-659 709 0
-104 -251 0
-7 -386 0
418 -415 0
499 581 0
89 3 0
496 652 0
54 -130 0
491 -155 0
198 163 0
-576 197 0
-698 171 0
593 89 0
112 636 0
669 -318 0
120 27 0
465 146 0
-454 176 0
658 -318 0
-207 614 0
633 -595 0
-685 337 0
-632 705 0
695 -666 0
117 -590 0
-587 -645 0
-481 -370 0
-520 350 0
695 84 0
544 585 0
-24 -510 0
566 359 0
568 413 0
-182 -189 0
-363 -565 0
-379 176 0
47 131 0
-297 -201 0
-26 -226 0
-452 252 0
-649 502 0
21 417 0
334 -398 0
573 124 0
614 -538 0
95 -158 0
-548 346 0
-539 663 0
4 435 0
706 -694 0
-535 -161 0
163 380 0
-586 226 0
37 631 0
-655 -455 0
-356 167 0
-688 22 0
-514 649 0
-518 -623 0
665 -433 0
-434 -527 0
-353 299 0
-150 220 0
125 -250 0
341 -376 0
244 -542 0
-664 111 0
-35 -605 0
162 -546 0
300 -699 0
665 312 0
617 446 0
387 368 0
195 -326 0
306 687 0
711 -33 0
472 492 0
168 -45 0
585 -518 0
-132 -558 0
268 100 0
581 404 0
-582 680 0
-265 274 0
-184 -166 0
484 534 0
-398 -591 0
-153 -376 0
-72 -454 0
420 167 0
639 -325 0
-106 233 0
176 -567 0
397 658 0
-550 27 0
-358 244 0
456 438 0
534 -397 0
-523 346 0
16 -163 0
336 153 0
-45 -672 0
-182 -532 0
-369 -324 0
-48 529 0
573 498 0
110 -293 0
-621 677 0
430 -483 0
-264 -40 0
166 -26 0
-699 126 0
337 379 0
-648 -460 0
-238 295 0
-342 -130 0
-61 21 0
-319 217 0
-221 -295 0
133 698 0
400 169 0
-177 -224 0
194 14 0
-206 -461 0
635 -491 0
364 -629 0
502 542 0
-85 117 0
450 -394 0
-399 21 0
-125 -639 0
213 -642 0
168 504 0
-294 213 0
699 -186 0
232 71 0
-660 -594 0
129 308 0
-576 564 0
92 25 0
-116 -174 0
290 385 0
203 3 0
-40 -558 0
-144 -452 0
-137 -691 0
122 490 0
-151 -289 0
-110 448 0
-352 -567 0
-325 -62 0
-429 345 0
279 -500 0
-362 303 0
-106 300 0
213 108 0
649 -394 0
320 -395 0
239 637 0
193 502 0
-613 691 0
-40 554 0
-356 596 0
-220 -172 0
326 -394 0
-404 593 0
73 -530 0
-347 -441 0
239 34 0
-705 -428 0
-133 293 0
492 275 0
-41 216 0
-433 1 0
-157 282 0
160 557 0
89 -189 0
323 -151 0
-515 -529 0
674 -527 0
-583 610 0
-279 171 0
-287 -436 0
204 -19 0
37 195 0
554 -308 0
541 326 0
-663 529 0
-676 577 0
-42 -540 0
-225 164 0
295 329 0
623 -243 0
656 15 0
417 -47 0
194 -531 0
-409 -331 0
-309 204 0
36 -687 0
-250 -280 0
-62 -322 0
192 37 0
4 -420 0
399 -526 0
709 -525 0
553 644 0
128 -693 0
-433 680 0
-188 -40 0
286 71 0
-454 305 0
524 120 0
-637 88 0
681 618 0
30 -242 0
517 620 0
-694 698 0
506 -39 0
264 501 0
-100 171 0
-286 635 0
18 430 0
489 -38 0
-143 -270 0
436 20 0
-391 -189 0
300 -693 0
-100 -371 0
69 217 0
613 46 0
340 -468 0
125 244 0
573 -526 0
-218 -632 0
-308 468 0
-678 -184 0
-405 -213 0
-517 255 0
-577 375 0
-125 -425 0
642 -644 0
-349 -514 0
631 -688 0
-230 -186 0
179 -655 0
-171 -238 0
80 523 0
295 357 0
558 93 0
-439 -549 0
357 447 0
292 650 0
706 283 0
437 32 0
112 -275 0
554 60 0
-545 511 0
436 456 0
-311 -581 0
-690 177 0
282 -216 0
-353 375 0
596 -650 0
-679 -400 0
180 -611 0
685 -227 0
-375 -709 0
103 -599 0
531 -679 0
-648 -359 0
139 285 0
347 683 0
-693 -668 0
495 314 0
168 -631 0
574 479 0
198 -92 0
-712 295 0
209 -624 0
362 -503 0
185 -286 0
133 -264 0
531 -688 0
22 -384 0
475 -710 0
-285 567 0
-617 -351 0
-21 -76 0
584 -106 0
208 260 0
32 438 0
-326 -136 0
198 -453 0
522 368 0
95 -534 0
456 201 0
-561 -625 0
588 -403 0
623 549 0
543 4 0
152 -607 0
113 -49 0
-560 559 0
614 412 0
-256 485 0
174 -156 0
-351 -435 0
-491 -671 0
514 681 0
-316 600 0
158 -52 0
-302 577 0
-604 618 0
336 70 0
369 -542 0
-215 593 0
-311 495 0
572 216 0
-457 -356 0
-663 557 0
684 332 0
466 224 0
-144 484 0
247 691 0
666 -664 0
564 -354 0
-705 45 0
251 150 0
142 702 0
20 -671 0
-405 279 0
-177 -556 0
359 524 0
495 357 0
695 -116 0
446 143 0
146 -121 0
-181 -457 0
-133 -209 0
613 95 0
-353 -326 0
697 -588 0
-335 258 0
-218 -595 0
243 -450 0
-424 360 0
-55 446 0
-656 -423 0
18 -634 0
400 -400 0
608 -137 0
-203 -189 0
98 -671 0
651 -253 0
677 -504 0
-428 -226 0
268 -256 0
-521 -290 0
-664 -360 0
-221 -318 0
-203 300 0
-13 -347 0
-529 -386 0
-663 136 0
-76 -625 0
-76 -64 0
-165 505 0
171 352 0
194 -471 0
-257 -603 0
414 -477 0
226 643 0
-241 -365 0
631 64 0
-114 -28 0
696 -277 0
-238 113 0
492 180 0
339 -118 0
-563 657 0
421 -15 0
-699 -283 0
185 99 0
-83 469 0
-515 377 0
-299 547 0
526 487 0
343 188 0
348 451 0
-322 -6 0
611 672 0
126 -399 0
460 372 0
-157 342 0
-661 419 0
389 263 0
-434 -230 0
-695 -520 0
-145 393 0
-270 95 0
-376 628 0
111 564 0
212 -221 0
-13 -200 0
-284 173 0
160 375 0
369 -169 0
204 -117 0
150 -575 0
243 169 0
-31 601 0
-440 257 0
620 -151 0
427 260 0
-124 -432 0
248 -370 0
593 -338 0
-574 449 0
513 375 0
549 -255 0
-116 81 0
594 298 0
681 371 0
-196 268 0
-364 217 0
397 598 0
-182 596 0
-144 -398 0
-660 -471 0
-514 413 0
681 -590 0
131 -471 0
416 -679 0
-364 611 0
-424 167 0
-263 -15 0
390 78 0
32 -662 0
-6 44 0
-215 -479 0
87 -565 0
685 -400 0
-541 -132 0
-41 -93 0
-601 646 0
-119 -9 0
-605 -51 0
466 -523 0
461 557 0
-596 379 0
-468 -56 0
390 123 0
600 -703 0
334 -130 0
174 373 0
-563 -350 0
-253 -562 0
507 371 0
-540 -106 0
296 -371 0
-588 378 0
-393 504 0
-164 218 0
-19 -363 0
-604 -195 0
-508 149 0
581 -406 0
-52 535 0
322 -464 0
74 -335 0
-569 554 0
-447 652 0
390 337 0
-250 -330 0
569 273 0
170 -405 0
480 692 0
402 -176 0
-362 327 0
16 -588 0
-247 445 0
-262 -510 0
-223 572 0
658 -539 0
194 336 0
-527 52 0
-181 -442 0
508 -326 0
268 99 0
595 218 0
-678 486 0
535 -317 0
189 -66 0
7 -129 0
346 -563 0
185 -487 0
-644 374 0
-542 146 0
155 -118 0
504 214 0
-494 -433 0
-661 469 0
626 683 0
-603 -513 0
-130 -702 0
-190 -535 0
401 -238 0
-375 145 0
-26 662 0
227 700 0
105 -104 0
588 309 0
-628 700 0
-696 707 0
-219 408 0
665 283 0
511 145 0
688 234 0
-620 -97 0
200 390 0
-416 428 0
527 669 0
-205 350 0
345 245 0
614 278 0
-384 -15 0
672 -658 0
312 -278 0
-676 576 0
-182 678 0
521 -560 0
150 662 0
-693 -52 0
-452 -174 0
-48 670 0
66 -452 0
596 240 0
-630 -644 0
108 -709 0
430 -115 0
509 -457 0
-319 -313 0
-206 -190 0
-374 378 0
-393 611 0
613 596 0
-247 -359 0
148 410 0
-271 -678 0
-527 337 0
-70 -326 0
-46 -353 0
-565 341 0
-566 -267 0
-653 -97 0
70 288 0
-699 246 0
596 557 0
292 259 0
-546 596 0
691 170 0
372 -603 0
282 149 0
99 -40 0
-425 56 0
-582 -562 0
-461 -56 0
247 379 0
-16 -238 0
614 651 0
-609 53 0
427 -579 0
-599 283 0
-406 -674 0
-391 -576 0
-26 387 0
27 564 0
552 487 0
700 609 0
531 -403 0
-454 596 0
-174 512 0
594 -106 0
-479 656 0
393 522 0
-86 340 0
-631 -198 0
85 -286 0
-199 -629 0
-238 705 0
-662 -120 0
-317 2 0
-437 -206 0
570 209 0
336 634 0
602 68 0
473 -56 0
259 592 0
122 -536 0
269 -483 0
488 87 0
-419 210 0
206 56 0
567 185 0
509 -635 0
-227 -261 0
645 103 0
103 340 0
361 14 0
-138 643 0
34 -105 0
-293 572 0
483 228 0
437 140 0
-57 639 0
-434 483 0
-567 -84 0
-246 -144 0
-426 -582 0
-231 612 0
-28 -607 0
338 -692 0
459 657 0
-278 375 0
410 -39 0
-513 261 0
456 -639 0
341 614 0
255 -409 0
-180 -316 0
-108 -527 0
-286 -274 0
-155 59 0
457 -186 0
106 -410 0
-339 -544 0
-614 269 0
384 31 0
-654 -203 0
707 -105 0
-693 -48 0
564 -664 0
-75 -301 0
-138 436 0
282 630 0
166 361 0
138 451 0
-147 211 0
-339 314 0
-468 377 0
-394 -50 0
-659 -262 0
436 -212 0
-644 82 0
-325 290 0
-238 245 0
-311 -472 0
-264 -194 0
369 548 0
-248 685 0
-543 -508 0
-401 125 0
242 -225 0
616 -710 0
252 646 0
-230 465 0
-197 565 0
-605 -373 0
17 -389 0
528 537 0
202 323 0
561 181 0
469 557 0
-131 561 0
485 -556 0
208 310 0
-155 -355 0
-242 610 0
-92 -641 0
-271 -538 0
-128 -125 0
330 -639 0
-440 -415 0
200 -344 0
209 553 0
103 -520 0
246 495 0
-525 264 0
-208 7 0
-70 185 0
-290 -277 0
-57 374 0
-395 -164 0
-302 655 0
-616 -79 0
-156 -589 0
116 99 0
151 -459 0
419 53 0
120 22 0
198 387 0
-105 120 0
614 -606 0
-107 232 0
-440 -368 0
476 -38 0
-173 606 0
468 578 0
-376 -369 0
519 -132 0
-515 -351 0
-223 440 0
-301 -338 0
-75 -2 0
141 -211 0
79 590 0
10 -229 0
341 248 0
-238 192 0
-268 631 0
372 433 0
43 232 0
49 -221 0
338 652 0
666 651 0
140 -28 0
668 158 0
-299 220 0
341 214 0
578 343 0
-58 666 0
-6 440 0
-181 487 0
285 670 0
-116 -113 0
-624 676 0
150 497 0
566 -645 0
677 -499 0
643 446 0
60 -221 0
-164 228 0
402 201 0
67 -471 0
92 336 0
-18 456 0
-599 188 0
626 -283 0
-8 -116 0
-537 -510 0
610 -161 0
444 23 0
217 218 0
-275 505 0
467 221 0
70 484 0
-538 572 0
-155 454 0
549 -439 0
601 -296 0
-125 -508 0
-230 -616 0
79 110 0
-679 490 0
327 374 0
-328 292 0
-391 196 0
-104 162 0
668 -63 0
-599 309 0
-690 -633 0
-322 237 0
-389 197 0
173 218 0
-274 274 0
-503 -521 0
224 -664 0
-533 209 0
122 547 0
179 199 0
264 402 0
622 2 0
-642 -105 0
-252 -330 0
171 512 0
-76 705 0
-661 412 0
-583 -453 0
176 -41 0
313 -37 0
115 -677 0
-542 385 0
-345 511 0
-61 496 0
-544 592 0
466 594 0
432 388 0
-56 692 0
621 -181 0
-45 -414 0
-587 -633 0
652 -525 0
-59 489 0
-273 574 0
224 36 0
653 385 0
21 -433 0
-708 -664 0
314 -311 0
168 -346 0
674 115 0
706 460 0
645 218 0
305 -344 0
16 302 0
-85 147 0
-252 -712 0
-558 197 0
488 295 0
87 -137 0
-216 -265 0
-77 -589 0
620 338 0
174 54 0
-474 61 0
-263 347 0
-100 -445 0
220 160 0
-612 -632 0
460 -200 0
474 606 0
-614 53 0
-506 -460 0
-317 250 0
-661 341 0
420 -706 0
601 368 0
-253 -306 0
499 61 0
-213 -384 0
649 578 0
412 -115 0
334 402 0
523 -571 0
-454 -616 0
415 -325 0
670 -592 0
-156 158 0
-458 58 0
430 359 0
436 453 0
70 -384 0
528 -316 0
478 -73 0
-138 370 0
-434 524 0
-551 -342 0
-51 549 0
192 79 0
682 -552 0
530 650 0
-667 -584 0
-361 -552 0
-488 -43 0
358 481 0
374 27 0
-98 -287 0
572 -614 0
-689 615 0
292 -331 0
183 -595 0
448 421 0
618 296 0
-353 339 0
295 -211 0
-637 -266 0
362 624 0
446 -281 0
-616 -227 0
-140 -78 0
112 -171 0
-645 459 0
239 111 0
279 -426 0
-693 565 0
-219 528 0
-317 147 0
656 388 0
-179 -76 0
112 293 0
547 -58 0
95 -701 0
334 539 0
-41 98 0
291 574 0
-84 -513 0
-702 206 0
-154 173 0
643 402 0
332 313 0
490 -659 0
577 -409 0
