c NF
p cnf 1202 2524
-1136 818 0
-857 503 0
529 966 0
228 -478 0
1039 -27 0
800 774 0
279 -649 0
-128 -209 0
560 -232 0
-959 -143 0
810 763 0
1036 457 0
-1089 -990 0
-1035 150 0
-664 -747 0
943 878 0
-1079 -926 0
561 562 0
-262 -361 0
-896 -11 0
621 151 0
-319 559 0
-715 -498 0
373 -158 0
1069 855 0
-850 -125 0
-438 -118 0
157 838 0
-1110 86 0
954 693 0
338 -1135 0
1171 995 0
93 -383 0
-734 553 0
-1161 151 0
-50 1199 0
-331 -896 0
390 2 0
-273 -305 0
635 -328 0
340 -241 0
-298 -232 0
-409 -895 0
873 245 0
1059 -1091 0
223 557 0
82 -998 0
-12 484 0
395 765 0
1123 -145 0
174 -865 0
-359 -29 0
994 -817 0
952 883 0
998 564 0
-498 45 0
708 72 0
-121 21 0
239 283 0
-1065 796 0
-278 -680 0
840 -466 0
785 -837 0
-287 271 0
968 -1133 0
571 301 0
-344 856 0
-1043 -162 0
-472 -1176 0
418 -505 0
318 541 0
-571 -462 0
1077 1120 0
-553 -992 0
-777 -716 0
212 -538 0
615 -602 0
-275 -1156 0
-100 -723 0
-1023 -849 0
-1 928 0
-216 920 0
-739 1002 0
580 568 0
-932 -88 0
-266 -17 0
-455 356 0
-426 -704 0
979 862 0
-1108 -327 0
-82 1090 0
-708 -239 0
-486 -205 0
68 -280 0
81 -111 0
-77 677 0
936 944 0
-421 1095 0
539 19 0
-880 -1091 0
1090 70 0
-353 1174 0
-839 1025 0
-134 -1039 0
818 1061 0
255 -1051 0
399 -1064 0
-122 -360 0
-520 -680 0
855 -273 0
623 -988 0
1011 488 0
68 -637 0
-33 898 0
153 -905 0
-413 -937 0
-1007 7 0
1151 -704 0
-406 414 0
-126 -1169 0
681 1185 0
-875 -405 0
-821 -184 0
913 710 0
-249 546 0
572 156 0
-373 -377 0
670 -122 0
-518 -317 0
-117 245 0
483 -590 0
-304 873 0
824 -592 0
-695 442 0
543 442 0
-59 -737 0
-917 901 0
634 898 0
-27 238 0
1113 942 0
-63 -871 0
-631 -46 0
-237 -473 0
-1133 554 0
-711 -542 0
1138 353 0
-434 -829 0
-765 -768 0
1095 1091 0
633 613 0
448 -1054 0
1163 1171 0
553 823 0
411 -881 0
-633 -305 0
-260 -916 0
528 979 0
186 732 0
203 262 0
754 -977 0
560 680 0
755 -137 0
1098 -51 0
1048 -97 0
1101 -134 0
231 -1180 0
-990 -80 0
-777 -926 0
1149 -17 0
-1014 351 0
355 -709 0
929 -1177 0
-744 560 0
522 985 0
79 779 0
206 1099 0
1041 829 0
-992 551 0
-261 532 0
901 -1202 0
8 613 0
-1019 185 0
-626 -682 0
-591 -612 0
-1178 -1000 0
-1088 192 0
-165 728 0
-491 390 0
-44 476 0
934 -365 0
602 -1158 0
483 1041 0
-129 797 0
978 -80 0
992 376 0
-140 840 0
-576 227 0
-716 782 0
-507 612 0
-560 463 0
58 -75 0
-445 -427 0
498 -803 0
-437 -94 0
1082 -272 0
-165 -452 0
-942 -394 0
599 -469 0
722 731 0
-287 344 0
988 103 0
-1023 -833 0
63 643 0
532 743 0
302 390 0
413 -84 0
459 -922 0
-52 -424 0
-408 662 0
313 -465 0
-837 406 0
-1172 -158 0
302 414 0
996 -448 0
806 -69 0
-813 -305 0
325 212 0
911 83 0
-531 -712 0
-193 1165 0
246 725 0
827 194 0
-570 -597 0
-777 -577 0
-709 -977 0
495 666 0
1083 994 0
-258 1147 0
407 -513 0
-661 306 0
43 -122 0
-230 331 0
117 227 0
969 -1152 0
-150 146 0
1133 -471 0
886 -736 0
-925 -534 0
784 964 0
893 -258 0
-262 143 0
-776 611 0
519 483 0
247 -511 0
949 1135 0
1133 -156 0
-572 918 0
590 -455 0
-833 427 0
-716 968 0
809 520 0
-368 -1137 0
-793 221 0
-198 624 0
-684 -224 0
382 47 0
-741 -465 0
-850 -1180 0
174 1057 0
980 863 0
-897 842 0
259 -811 0
1072 -675 0
673 292 0
98 270 0
-1176 -809 0
-11 369 0
-587 -1096 0
87 -362 0
-949 1123 0
1166 -755 0
-468 9 0
1064 -467 0
-577 -880 0
834 -60 0
651 -852 0
850 1049 0
-1165 919 0
-863 -829 0
6 647 0
869 -898 0
1077 -143 0
571 521 0
889 500 0
347 420 0
-955 641 0
862 -30 0
-428 390 0
-1016 -810 0
604 845 0
1124 537 0
655 596 0
-734 809 0
316 -915 0
882 -1091 0
393 429 0
-10 -368 0
69 152 0
-413 1079 0
1149 -641 0
-1053 557 0
-540 -513 0
1033 738 0
331 177 0
840 633 0
-821 281 0
971 784 0
-604 -236 0
352 -636 0
222 -1153 0
1074 -700 0
-852 -1119 0
301 -531 0
-646 881 0
-140 -1165 0
545 -509 0
-1028 -695 0
-286 -150 0
963 15 0
-1199 1139 0
1012 736 0
508 694 0
83 353 0
571 935 0
163 954 0
314 -612 0
-502 720 0
65 -1141 0
527 -525 0
-286 -254 0
-141 657 0
-765 95 0
-1040 442 0
1047 245 0
479 256 0
-383 1098 0
-208 -780 0
634 -408 0
191 -997 0
-437 113 0
-92 -1163 0
384 -897 0
-995 1011 0
-326 -180 0
1076 827 0
1157 -81 0
-878 1125 0
961 -536 0
1184 32 0
-925 303 0
-285 1167 0
-228 -367 0
-1108 -588 0
-1088 283 0
-490 1180 0
1104 367 0
1050 -188 0
-467 -475 0
-683 -1095 0
1123 519 0
-890 259 0
-455 -722 0
367 936 0
-383 -220 0
-894 -197 0
564 -546 0
52 310 0
5 320 0
-374 327 0
-930 110 0
-597 -792 0
-811 -319 0
-997 -1166 0
-14 808 0
487 -954 0
-859 615 0
-751 -880 0
-1015 -1179 0
856 1026 0
395 378 0
-644 -1177 0
-375 -645 0
57 -636 0
-512 -659 0
736 663 0
-630 -503 0
-1040 -941 0
-411 -308 0
1039 -839 0
-88 -1138 0
539 -399 0
290 746 0
91 -1140 0
-62 -1120 0
-40 960 0
824 -605 0
807 -297 0
-914 674 0
1155 -861 0
743 -1100 0
-700 515 0
1105 780 0
1111 499 0
-72 -144 0
-425 -625 0
-11 1028 0
226 -889 0
116 -668 0
-961 -137 0
-290 922 0
-298 -689 0
274 -1199 0
-135 -95 0
-268 735 0
-570 55 0
-362 472 0
863 -678 0
-876 994 0
-804 834 0
985 492 0
578 101 0
543 -242 0
-1148 -1100 0
1078 319 0
-1052 954 0
593 -664 0
-1169 -249 0
-426 -712 0
219 124 0
1050 485 0
963 -683 0
665 -607 0
-637 230 0
460 1147 0
863 230 0
-1181 34 0
520 -531 0
-748 -769 0
-765 -958 0
-1082 1174 0
-1180 -1120 0
562 600 0
946 530 0
-1027 -930 0
-894 -159 0
1161 -303 0
-332 443 0
580 1187 0
-352 -827 0
-916 -566 0
696 -229 0
787 -538 0
-414 410 0
1081 757 0
-116 379 0
-530 -723 0
74 148 0
226 -785 0
-742 -258 0
720 279 0
39 -75 0
1026 994 0
474 -1187 0
701 230 0
-871 1146 0
967 -578 0
-1118 441 0
-171 -651 0
-523 380 0
143 -567 0
-400 -839 0
-466 -75 0
996 -894 0
-821 -576 0
-273 361 0
118 -1131 0
21 -308 0
596 -1181 0
-234 -1030 0
807 -411 0
1132 244 0
-1080 541 0
-1196 -711 0
103 1037 0
708 -504 0
-71 -49 0
-250 693 0
966 -102 0
543 493 0
-295 -464 0
-453 -323 0
17 944 0
1011 -1144 0
1059 814 0
-72 -234 0
528 1104 0
-294 -1063 0
-823 765 0
763 809 0
-188 -821 0
177 -1006 0
226 -482 0
255 1047 0
-84 770 0
910 1012 0
-1134 -900 0
-768 -15 0
393 -109 0
-841 -581 0
-92 -863 0
-309 -466 0
-328 1181 0
-831 1013 0
-1051 5 0
474 -69 0
459 -557 0
669 776 0
-764 717 0
-140 403 0
-217 110 0
-125 -312 0
265 553 0
-61 748 0
-658 863 0
-859 53 0
-1092 234 0
201 -791 0
737 -470 0
-1169 -323 0
-700 -620 0
384 1116 0
-946 -642 0
589 192 0
-895 -84 0
1068 -576 0
-668 -406 0
-978 -835 0
-224 464 0
829 855 0
-774 -532 0
915 1004 0
1009 -894 0
-352 497 0
582 -1050 0
360 78 0
-1046 -876 0
976 794 0
-566 847 0
172 -46 0
-80 -960 0
-485 -821 0
-457 928 0
688 -1128 0
-551 -47 0
443 48 0
628 985 0
-443 -795 0
960 -837 0
-479 -801 0
411 -16 0
1147 -296 0
803 582 0
1080 559 0
-1180 -620 0
619 -781 0
784 -371 0
24 358 0
-1066 -313 0
-438 6 0
-964 509 0
-296 -871 0
-404 -191 0
64 542 0
34 1166 0
167 284 0
1037 -813 0
348 968 0
-201 -235 0
159 1150 0
763 447 0
-139 944 0
-824 604 0
-435 187 0
796 -15 0
-690 244 0
-602 359 0
25 707 0
-7 -847 0
-757 643 0
928 -924 0
-662 -631 0
-527 -526 0
-759 9 0
571 -782 0
593 1070 0
569 206 0
-300 -637 0
603 -1075 0
249 -93 0
167 1023 0
-942 -488 0
-537 318 0
317 604 0
-1182 393 0
-624 169 0
-153 -33 0
-54 -823 0
362 -408 0
-27 -272 0
423 1171 0
-747 -858 0
453 532 0
-739 -88 0
-1023 -661 0
1097 580 0
779 561 0
908 21 0
-745 493 0
-1013 935 0
484 -601 0
209 -612 0
-785 -728 0
588 271 0
-597 -193 0
257 533 0
212 315 0
-40 -1134 0
-471 349 0
695 15 0
-736 199 0
-169 846 0
124 -493 0
1090 857 0
-1133 1174 0
-237 15 0
-1114 592 0
561 -210 0
-168 476 0
-324 692 0
539 827 0
696 -1166 0
152 442 0
-743 -277 0
-865 -46 0
-896 -831 0
-453 449 0
-1173 949 0
-7 746 0
-783 -970 0
-1186 -128 0
840 -542 0
1068 771 0
362 944 0
960 -465 0
807 -412 0
784 819 0
460 471 0
435 -652 0
1058 -630 0
130 -699 0
-846 694 0
24 846 0
-1082 816 0
-108 -248 0
-1027 -105 0
-468 -419 0
117 757 0
516 -897 0
1037 -156 0
843 -181 0
-1019 -266 0
910 -731 0
-849 406 0
1032 935 0
133 -642 0
888 -12 0
1035 -285 0
-839 -878 0
-125 -294 0
1157 161 0
789 -510 0
1154 -484 0
379 102 0
-1182 -1161 0
457 984 0
-612 492 0
719 496 0
-810 979 0
-1158 -870 0
153 1041 0
866 432 0
-772 761 0
-982 -143 0
917 282 0
-900 40 0
557 -1165 0
141 -45 0
748 -535 0
-779 442 0
-421 114 0
869 -924 0
-728 9 0
662 -581 0
947 -481 0
-587 1191 0
-708 720 0
-950 -160 0
185 474 0
-830 -819 0
1004 -190 0
1171 -1005 0
214 -299 0
971 935 0
-335 -243 0
227 1104 0
554 670 0
-977 -300 0
-662 470 0
665 1140 0
876 378 0
-184 -364 0
1129 735 0
1151 397 0
-365 911 0
139 794 0
-690 804 0
564 605 0
874 588 0
-1089 866 0
1135 -648 0
-550 604 0
1038 275 0
-575 -1106 0
447 834 0
122 -692 0
603 522 0
165 245 0
-156 1002 0
828 -970 0
79 -440 0
589 -1109 0
-890 -1142 0
1132 -699 0
747 -648 0
753 -601 0
1138 1123 0
101 -667 0
167 -327 0
-1187 792 0
-316 230 0
-102 246 0
-700 1174 0
-596 227 0
-1100 -168 0
1199 -512 0
666 -585 0
1173 119 0
-687 74 0
-907 762 0
615 -1182 0
1177 779 0
1193 -519 0
-751 -760 0
1007 -1027 0
-701 266 0
651 -504 0
-716 -471 0
1079 -365 0
77 242 0
589 -1106 0
127 784 0
-1064 891 0
-988 949 0
-683 527 0
-1073 608 0
658 -476 0
846 -604 0
810 -1199 0
1192 603 0
1198 86 0
-759 246 0
1108 -1115 0
-1188 956 0
-703 1060 0
743 -1018 0
257 -1125 0
-744 244 0
-1052 131 0
919 476 0
833 677 0
822 1136 0
645 935 0
499 -74 0
-171 1077 0
1050 1168 0
344 -468 0
-185 -360 0
-659 1196 0
510 388 0
509 510 0
-435 -1167 0
-113 -286 0
253 -919 0
332 685 0
1089 -392 0
901 -582 0
-673 1131 0
990 -1013 0
56 -252 0
86 118 0
163 -744 0
-296 904 0
817 -358 0
-26 915 0
-1034 -641 0
572 694 0
-398 20 0
-790 -1056 0
-801 -771 0
-505 -366 0
-1071 -32 0
185 -1023 0
-450 744 0
403 1119 0
429 1042 0
-1025 -147 0
850 -54 0
-328 -205 0
-44 1136 0
-61 996 0
422 -1117 0
-389 -630 0
430 -713 0
-1031 47 0
-759 -958 0
-646 671 0
-244 -1147 0
177 182 0
1183 -703 0
573 -1083 0
-71 820 0
-1021 9 0
850 -764 0
966 118 0
74 -1053 0
928 -379 0
-602 366 0
663 1184 0
69 -540 0
1194 -567 0
1120 -694 0
532 -223 0
748 -913 0
1147 375 0
531 505 0
-437 -32 0
-715 227 0
447 579 0
306 -534 0
1078 -109 0
-500 -27 0
1062 -1183 0
-626 -821 0
-145 1027 0
420 948 0
1057 -1055 0
82 813 0
-12 -886 0
-570 954 0
-995 898 0
751 130 0
634 902 0
647 857 0
1070 790 0
901 119 0
-293 164 0
-92 -581 0
837 -88 0
-325 -958 0
663 402 0
704 -642 0
-134 51 0
-1114 221 0
707 -992 0
-952 -368 0
-777 874 0
634 -781 0
-804 799 0
937 799 0
275 804 0
51 729 0
600 -240 0
-580 901 0
829 639 0
527 1020 0
748 1195 0
-601 -800 0
924 621 0
-92 -1102 0
-46 -17 0
163 466 0
739 -931 0
-504 72 0
752 1135 0
-6 -792 0
47 -732 0
-561 329 0
818 622 0
696 758 0
-14 939 0
-209 415 0
-557 -713 0
-62 335 0
1124 -1168 0
-833 382 0
559 693 0
766 163 0
1016 -1153 0
389 736 0
597 1104 0
-870 -241 0
-432 -1039 0
153 -529 0
1075 956 0
77 967 0
403 1131 0
578 116 0
461 -682 0
-886 1013 0
-378 1078 0
-697 -808 0
895 -293 0
-26 -567 0
1002 155 0
-934 -1201 0
1101 -852 0
399 655 0
746 1104 0
-324 -22 0
56 307 0
137 107 0
-526 411 0
402 192 0
116 816 0
46 -155 0
1032 -930 0
-236 966 0
1143 -65 0
1081 704 0
431 673 0
227 978 0
-715 456 0
-66 1095 0
-305 888 0
-108 1200 0
374 -712 0
713 -790 0
814 62 0
738 -453 0
911 405 0
-15 866 0
498 -268 0
167 918 0
13 -272 0
-1065 53 0
1059 -519 0
762 249 0
762 626 0
-433 -772 0
-482 -558 0
62 -1023 0
-233 295 0
-1098 343 0
-217 536 0
-108 -320 0
-435 380 0
1151 -315 0
934 325 0
240 623 0
992 78 0
800 356 0
1102 913 0
829 -563 0
381 1191 0
-759 -236 0
-975 485 0
-752 -648 0
264 -467 0
340 -890 0
726 -180 0
-818 289 0
821 -11 0
-469 -737 0
-960 398 0
-155 -844 0
1146 -489 0
-407 402 0
-734 -146 0
233 -145 0
-287 941 0
-1097 112 0
674 -679 0
143 111 0
532 -937 0
433 194 0
-361 532 0
-391 -178 0
956 -1161 0
408 663 0
1132 -90 0
-394 557 0
-1022 694 0
-494 -241 0
967 -294 0
1081 467 0
3 -199 0
542 941 0
-417 937 0
-155 -1016 0
-286 981 0
480 1118 0
486 -31 0
179 -816 0
838 -347 0
-793 941 0
-620 -1010 0
-408 538 0
143 581 0
746 447 0
564 -955 0
-1160 516 0
-926 -825 0
-695 469 0
-992 386 0
621 -911 0
1151 -708 0
38 255 0
-465 954 0
-253 -198 0
-641 216 0
-739 98 0
169 494 0
-890 943 0
147 -236 0
-556 79 0
-768 384 0
113 -529 0
-702 858 0
-774 -1168 0
-664 1123 0
-234 -260 0
-342 938 0
1109 79 0
201 -462 0
552 -662 0
320 889 0
-1064 643 0
-1094 191 0
-379 107 0
-1066 629 0
934 -349 0
105 -116 0
154 130 0
-1077 472 0
846 -326 0
966 527 0
-132 -475 0
182 996 0
-812 -584 0
-975 -1173 0
-673 -356 0
-1120 -1034 0
-110 993 0
967 362 0
-850 547 0
-263 -867 0
-340 104 0
767 -1052 0
560 83 0
-1125 -998 0
-1175 -491 0
647 -951 0
1116 -470 0
1054 -951 0
1029 -1066 0
-199 -1105 0
693 187 0
1083 441 0
439 -520 0
349 236 0
-100 981 0
-785 -924 0
-532 -828 0
-899 -533 0
-992 496 0
274 -22 0
-1152 -1048 0
-656 -666 0
-459 -778 0
802 -783 0
863 -423 0
-38 -705 0
993 732 0
-1117 -510 0
834 670 0
-823 -889 0
652 -1110 0
847 -997 0
217 -318 0
473 -514 0
-553 882 0
-1185 376 0
546 1157 0
1046 457 0
215 -30 0
-237 874 0
-628 -923 0
-606 -684 0
784 746 0
192 -1122 0
-630 285 0
771 -271 0
-809 719 0
-1040 854 0
-368 -1095 0
763 19 0
425 161 0
-183 -82 0
-70 617 0
55 524 0
42 -996 0
-1148 -120 0
1000 -858 0
259 956 0
-992 196 0
-960 -317 0
396 -836 0
-278 -715 0
-62 -685 0
889 557 0
571 225 0
866 302 0
279 -346 0
-115 466 0
1076 1032 0
880 678 0
-847 -451 0
-124 1077 0
-190 -494 0
503 463 0
-1031 611 0
-837 -1184 0
-1016 127 0
685 -570 0
1065 1107 0
398 -201 0
-406 981 0
899 688 0
-888 834 0
194 859 0
133 97 0
-913 -959 0
384 99 0
927 -378 0
180 115 0
-97 688 0
-656 -826 0
1001 404 0
366 197 0
442 1164 0
454 604 0
-1024 549 0
-88 730 0
982 1072 0
773 1087 0
-289 -924 0
1061 142 0
-274 -497 0
395 -1168 0
1083 -875 0
-699 -195 0
747 231 0
1110 -715 0
559 174 0
810 -1001 0
-987 -1086 0
-61 403 0
-872 1123 0
811 -1021 0
1023 -615 0
656 -518 0
898 544 0
1001 -477 0
259 991 0
36 -182 0
559 966 0
154 -237 0
19 -63 0
74 -154 0
678 53 0
-419 -1054 0
1077 322 0
552 984 0
623 1016 0
-133 929 0
-429 -404 0
-230 -892 0
-868 -465 0
407 -603 0
667 -171 0
335 -300 0
128 503 0
-288 -93 0
-1202 -883 0
-972 -350 0
-12 -120 0
798 866 0
-95 53 0
985 794 0
587 -1016 0
-1181 545 0
78 35 0
734 459 0
975 748 0
-158 -335 0
-360 -210 0
562 -604 0
-533 -158 0
915 782 0
10 -62 0
-1031 -1127 0
-121 -807 0
-792 1128 0
820 813 0
433 -831 0
-272 65 0
96 -684 0
360 756 0
95 1052 0
588 -439 0
-244 873 0
811 1131 0
-1071 312 0
388 557 0
443 -626 0
787 761 0
-803 790 0
598 -1034 0
885 29 0
756 868 0
-70 1073 0
-82 -640 0
-1120 279 0
-879 853 0
-419 562 0
1001 -1027 0
1011 -482 0
-674 -649 0
-654 -134 0
-142 36 0
166 811 0
-849 -605 0
35 1152 0
385 -566 0
284 -172 0
446 -367 0
876 1005 0
310 25 0
782 487 0
952 944 0
-994 288 0
-1097 748 0
571 269 0
149 1198 0
-887 -951 0
836 -1166 0
-1126 1048 0
-148 1146 0
440 403 0
823 1111 0
71 -352 0
-375 182 0
-236 -195 0
341 -727 0
1047 -914 0
-1088 -793 0
-581 -210 0
1057 390 0
-208 920 0
-1044 -578 0
-668 1014 0
-826 864 0
-928 885 0
-684 -393 0
-729 1154 0
-210 -337 0
-1099 -1027 0
-997 542 0
842 -732 0
693 -558 0
-712 810 0
264 337 0
-15 677 0
-61 -487 0
-1006 1161 0
516 -978 0
-1201 -1149 0
-535 -111 0
-120 849 0
761 1174 0
460 881 0
1090 -1062 0
-434 895 0
-728 187 0
-285 436 0
-1081 1074 0
808 752 0
-1173 164 0
393 -45 0
775 838 0
761 -42 0
985 301 0
-705 -790 0
-66 198 0
-889 -610 0
-238 -277 0
-862 -41 0
915 643 0
-241 -554 0
-322 1072 0
208 8 0
416 541 0
421 -310 0
-536 -1128 0
74 113 0
-138 196 0
-572 386 0
-296 765 0
-38 -261 0
-879 624 0
846 -244 0
-471 501 0
951 -359 0
-914 -106 0
-216 364 0
885 -890 0
255 242 0
-805 726 0
884 -795 0
-637 -327 0
996 1201 0
778 -412 0
-517 513 0
-84 -959 0
-1195 -770 0
1198 -1114 0
420 1164 0
-354 -670 0
-1045 -810 0
-800 -753 0
-989 -426 0
1048 -706 0
747 -702 0
431 -1121 0
857 -335 0
-288 -815 0
338 1041 0
688 -833 0
160 -733 0
814 230 0
303 -1082 0
-608 421 0
857 527 0
36 1149 0
307 -1126 0
808 731 0
-339 -422 0
-1175 655 0
-294 -761 0
-1064 844 0
1104 -433 0
-899 -1143 0
-636 -856 0
662 -1054 0
-677 381 0
-1092 -29 0
-511 -183 0
-387 1200 0
-501 -638 0
-500 459 0
-418 5 0
773 -128 0
8 714 0
1189 -768 0
495 -339 0
664 -500 0
1161 430 0
-675 -394 0
963 1007 0
737 -595 0
-92 -990 0
-72 -426 0
968 -1141 0
1001 301 0
-212 2 0
381 109 0
1173 763 0
-235 -742 0
599 834 0
-204 -80 0
271 1152 0
441 -1145 0
1047 573 0
-710 -1123 0
461 176 0
1183 -795 0
-29 -1030 0
615 95 0
1111 -1192 0
856 539 0
-968 341 0
482 47 0
-687 -599 0
903 -1106 0
201 -875 0
552 -604 0
119 -430 0
48 352 0
81 133 0
-455 -454 0
-420 -293 0
580 -712 0
-431 1083 0
-82 560 0
-737 -1110 0
-1012 748 0
198 -1152 0
-500 1139 0
429 564 0
-1159 488 0
-772 -930 0
-566 476 0
385 -951 0
-8 65 0
-782 560 0
1145 -822 0
-149 9 0
-147 844 0
-185 1157 0
844 -287 0
953 784 0
-817 -930 0
-423 3 0
-291 969 0
410 -196 0
1028 973 0
-774 -751 0
-434 421 0
866 483 0
1038 283 0
528 1019 0
-16 -1159 0
-122 -1068 0
917 -603 0
-5 -649 0
-692 -295 0
57 65 0
316 -817 0
980 268 0
988 726 0
-141 546 0
786 -1031 0
-1082 583 0
912 1194 0
-304 -498 0
-6 159 0
-864 -517 0
-550 -261 0
1023 159 0
110 779 0
-207 -767 0
407 -173 0
280 -250 0
286 1161 0
1003 -926 0
-329 302 0
394 -1179 0
295 812 0
762 1146 0
-635 995 0
-894 8 0
-1069 1117 0
-907 -364 0
398 23 0
724 70 0
9 23 0
1084 -687 0
1190 145 0
-1031 -926 0
-413 -817 0
-467 -1009 0
912 421 0
32 81 0
-913 -638 0
593 868 0
-792 -103 0
-916 762 0
-1054 -309 0
-1054 940 0
-205 -360 0
642 1097 0
-704 -272 0
1104 1042 0
460 957 0
712 840 0
-727 98 0
-279 -268 0
746 -379 0
-164 996 0
73 -476 0
976 -1018 0
-620 508 0
-1177 -465 0
719 -1135 0
-574 1128 0
39 -115 0
980 -1106 0
-896 605 0
32 -924 0
-680 -636 0
-745 -829 0
283 -242 0
550 -808 0
-675 -120 0
269 390 0
568 576 0
-143 346 0
687 552 0
1087 44 0
-374 -1186 0
-676 -19 0
-428 295 0
-860 864 0
1004 -306 0
1 -497 0
268 1109 0
877 195 0
52 796 0
1069 -199 0
-1176 501 0
402 389 0
1161 384 0
169 77 0
723 502 0
-48 385 0
983 -1186 0
-126 -57 0
1167 -964 0
-220 -1184 0
-300 1122 0
-477 372 0
-921 -1013 0
-518 1042 0
-994 -618 0
-288 -661 0
-898 1089 0
38 945 0
-369 -1066 0
-774 1059 0
814 -778 0
-751 696 0
224 -513 0
-1027 1027 0
-13 -276 0
-584 -107 0
-871 -880 0
-876 354 0
182 -651 0
-433 -335 0
891 893 0
-516 -608 0
-177 1198 0
-262 -929 0
-977 152 0
-339 -994 0
-858 -843 0
937 113 0
529 639 0
1076 -138 0
-391 -974 0
727 -985 0
785 -649 0
45 -1138 0
-781 -258 0
-609 -581 0
-1025 -951 0
-16 -961 0
-140 480 0
25 811 0
-59 -1170 0
-964 897 0
-484 912 0
-621 -1166 0
-951 907 0
-637 -587 0
283 -210 0
954 -1148 0
588 684 0
167 -1134 0
-788 -300 0
-858 456 0
-871 -177 0
982 784 0
872 933 0
-1164 -880 0
946 -1180 0
991 -612 0
-133 -1179 0
-14 122 0
-252 613 0
-1100 -494 0
-1012 -529 0
-839 468 0
-11 461 0
-1174 -235 0
877 333 0
-506 -351 0
1046 755 0
322 44 0
-894 -565 0
331 285 0
212 1057 0
495 226 0
545 746 0
670 -586 0
-69 -1158 0
-30 -929 0
-1053 1161 0
-999 -241 0
51 -997 0
887 1101 0
-234 723 0
-8 -1194 0
-625 415 0
-601 -861 0
-137 -1103 0
971 854 0
-534 -244 0
-333 342 0
-408 406 0
-615 422 0
789 97 0
696 -101 0
-233 -683 0
1085 1038 0
932 243 0
-554 56 0
931 699 0
206 -128 0
-542 -728 0
676 187 0
-1160 1033 0
188 -675 0
-730 1034 0
-815 264 0
-961 -434 0
-905 -538 0
-552 -122 0
456 923 0
106 1200 0
-892 -352 0
889 611 0
735 1155 0
73 -652 0
-689 893 0
632 -774 0
-84 1060 0
-1137 575 0
636 1020 0
429 820 0
811 922 0
-489 1121 0
-764 1054 0
-240 729 0
554 948 0
-782 1161 0
-491 913 0
-111 -156 0
-198 566 0
-976 637 0
979 751 0
1061 221 0
-131 -757 0
-460 -234 0
1162 -724 0
54 -13 0
927 228 0
969 -426 0
-250 1002 0
50 -929 0
274 -419 0
-257 -1053 0
-825 1056 0
1101 812 0
399 -608 0
1079 1149 0
-926 -361 0
153 -61 0
572 -323 0
537 810 0
369 -854 0
765 77 0
36 361 0
-1179 -814 0
-785 -623 0
746 -198 0
-176 -24 0
-703 -323 0
1032 -503 0
-597 -395 0
-1013 -563 0
-203 494 0
-939 967 0
-184 -524 0
-671 160 0
943 -653 0
682 980 0
-977 1089 0
617 -570 0
-878 -323 0
-728 1074 0
-1002 -121 0
480 435 0
328 -905 0
-1198 665 0
-751 838 0
-907 265 0
155 -199 0
624 461 0
-598 958 0
-664 -1170 0
-710 -280 0
-561 -751 0
193 -236 0
-954 -1159 0
-435 -144 0
538 -646 0
-728 -214 0
37 -651 0
403 696 0
-687 -713 0
-506 31 0
845 -566 0
1017 -392 0
-627 562 0
862 -478 0
-1044 609 0
-322 15 0
-1064 1 0
510 -513 0
-186 -1138 0
-1008 775 0
119 -300 0
171 1033 0
264 1084 0
-704 436 0
-327 1020 0
549 -158 0
-285 -1099 0
247 141 0
-1185 -48 0
1037 924 0
-340 110 0
814 1068 0
53 -716 0
696 622 0
-237 967 0
550 -408 0
-536 1162 0
-769 1084 0
283 529 0
47 -703 0
-54 -514 0
720 1064 0
-862 652 0
-435 192 0
107 -705 0
634 -50 0
-561 -505 0
-803 441 0
-438 415 0
762 615 0
884 596 0
-209 -349 0
-983 676 0
-878 420 0
-839 353 0
-925 884 0
-195 -855 0
-556 1047 0
1070 76 0
546 -544 0
-511 -156 0
589 -799 0
727 1071 0
-946 563 0
464 -656 0
-140 898 0
920 116 0
267 928 0
814 -995 0
962 142 0
-233 953 0
247 1111 0
203 895 0
592 781 0
456 371 0
1026 736 0
-836 -847 0
1042 -394 0
-854 -164 0
-229 -286 0
-517 -875 0
1181 -713 0
895 -66 0
111 -144 0
-574 -862 0
-1117 353 0
-593 -701 0
214 631 0
56 -1171 0
-585 414 0
-985 -418 0
1048 388 0
-815 -924 0
1162 -879 0
14 -648 0
738 -365 0
968 -926 0
576 -1134 0
-663 1084 0
673 556 0
-494 645 0
-730 1155 0
913 716 0
-1064 443 0
472 -921 0
-988 610 0
1002 397 0
-1015 -1056 0
687 -176 0
353 -1000 0
-462 -479 0
-867 907 0
722 -988 0
-374 -639 0
385 -227 0
-451 -874 0
-61 400 0
-1067 -903 0
595 -1009 0
147 -921 0
903 297 0
897 86 0
-656 -309 0
-37 347 0
279 -1009 0
-841 850 0
-492 -174 0
490 693 0
-432 661 0
544 -69 0
-146 380 0
641 633 0
-631 617 0
403 -1128 0
-19 -250 0
1036 1136 0
829 146 0
509 -41 0
-826 304 0
-1071 608 0
-570 1131 0
845 -743 0
1104 344 0
78 1022 0
553 -425 0
275 -995 0
-310 -783 0
-742 902 0
-350 312 0
793 -17 0
-982 -379 0
-498 -593 0
-1123 882 0
868 18 0
-1015 393 0
-734 1055 0
932 -211 0
787 881 0
688 796 0
-1082 204 0
357 -864 0
713 194 0
954 -951 0
-150 1017 0
-1007 447 0
813 608 0
143 2 0
-1158 965 0
-961 -263 0
1072 -408 0
789 530 0
161 156 0
-1049 -121 0
-848 1011 0
372 245 0
-54 -1101 0
-374 -1030 0
-208 353 0
105 387 0
-689 -860 0
-425 -471 0
-1092 329 0
-723 1002 0
1102 770 0
764 -335 0
499 620 0
-1125 604 0
359 888 0
1011 187 0
599 -473 0
912 -244 0
-1007 632 0
-905 -946 0
1125 472 0
-1175 -798 0
993 -388 0
-1156 -1028 0
1164 -744 0
273 -63 0
-854 133 0
-1134 1165 0
146 630 0
143 1051 0
-887 8 0
1044 596 0
109 104 0
935 -434 0
1035 -1062 0
876 1123 0
223 -562 0
-1012 333 0
-703 831 0
-1102 -740 0
-1092 1064 0
-1022 913 0
333 -313 0
86 101 0
532 -475 0
593 1178 0
1164 1050 0
-626 -617 0
-625 312 0
-213 171 0
739 -661 0
-663 611 0
450 185 0
566 -826 0
509 -469 0
-562 -182 0
1159 494 0
2 -1062 0
349 -92 0
154 998 0
1003 214 0
-1114 756 0
663 -468 0
804 657 0
1037 508 0
-635 654 0
1102 -597 0
532 -697 0
-849 86 0
722 -1040 0
234 -394 0
-465 322 0
101 462 0
903 812 0
421 941 0
549 -981 0
-386 459 0
-833 -621 0
-1129 1107 0
623 480 0
-422 -822 0
-506 -92 0
259 -448 0
-776 845 0
-842 -1175 0
1173 -1168 0
-183 -798 0
373 -768 0
348 -861 0
289 496 0
452 601 0
-433 -629 0
1107 -734 0
-247 -132 0
631 1118 0
-533 -306 0
66 822 0
-30 1051 0
-1071 -1052 0
210 -232 0
-689 -361 0
-248 -481 0
-541 -504 0
-1019 758 0
362 -320 0
-913 -171 0
-592 1090 0
-418 389 0
22 288 0
748 -274 0
163 -695 0
-292 -1094 0
-691 304 0
1166 1136 0
499 846 0
-198 -639 0
1144 114 0
117 -492 0
-449 -600 0
651 1119 0
-822 -767 0
-1193 555 0
-463 -723 0
865 1111 0
-132 1026 0
-106 -753 0
1126 -536 0
-1102 -1117 0
-499 221 0
-628 45 0
627 -212 0
-544 -467 0
826 1113 0
-1157 -287 0
-736 325 0
-388 231 0
-485 -243 0
873 -1123 0
333 -793 0
-572 -139 0
-1134 932 0
538 -138 0
245 -96 0
200 742 0
-875 -624 0
119 -980 0
-11 1037 0
580 800 0
401 688 0
-722 1127 0
-1117 723 0
1077 288 0
1095 1101 0
1124 -447 0
1003 66 0
-817 -374 0
-606 -651 0
229 -587 0
460 606 0
-774 589 0
-1020 559 0
929 809 0
-783 -758 0
1110 765 0
-1004 -638 0
573 579 0
818 -435 0
750 -257 0
1083 -250 0
1123 -16 0
-108 814 0
-63 668 0
-1163 24 0
-1016 -641 0
402 -1139 0
1099 897 0
-788 -948 0
-664 792 0
949 917 0
1029 596 0
-458 1183 0
-106 683 0
897 973 0
1068 1016 0
1015 243 0
750 -1105 0
-928 -1009 0
-1142 1072 0
-1023 1092 0
-482 920 0
-1152 646 0
-133 1167 0
799 -278 0
540 443 0
-712 255 0
-1108 870 0
-110 -1106 0
407 -565 0
542 1085 0
-172 -182 0
-720 154 0
-198 -26 0
-106 983 0
-15 329 0
118 -845 0
-140 -1004 0
700 -389 0
-55 -498 0
54 887 0
108 -592 0
126 -757 0
205 -145 0
869 1072 0
-865 -870 0
-319 -936 0
-109 317 0
1059 529 0
-575 -970 0
-1094 912 0
-695 -1093 0
-680 130 0
-268 163 0
-984 -1179 0
-252 862 0
294 -419 0
-1093 -737 0
967 913 0
-760 -177 0
993 21 0
43 528 0
39 -849 0
-741 1054 0
-153 -221 0
1069 -1197 0
1002 557 0
-297 -745 0
908 -695 0
861 201 0
-469 -376 0
9 -137 0
378 1048 0
-404 -930 0
-1168 -818 0
432 1150 0
-566 -734 0
301 288 0
1114 619 0
-691 -1049 0
-1 -886 0
701 -370 0
-832 -289 0
267 655 0
-457 79 0
532 -370 0
92 991 0
408 -138 0
-191 87 0
1017 506 0
-323 800 0
-327 782 0
-311 383 0
767 -975 0
-1080 123 0
371 -439 0
-852 790 0
688 474 0
-599 1061 0
38 580 0
186 1001 0
562 -946 0
1200 -312 0
-370 618 0
-1136 765 0
-670 -359 0
1172 773 0
407 912 0
1174 1046 0
648 -858 0
727 -675 0
-1053 -432 0
910 851 0
-118 -1160 0
1150 791 0
585 -1152 0
-969 -1159 0
939 791 0
1147 353 0
889 -150 0
1174 862 0
-951 728 0
-997 -1091 0
-975 -941 0
-779 611 0
191 655 0
-460 200 0
-865 1167 0
979 -5 0
-398 935 0
904 361 0
-492 911 0
-903 -749 0
787 1079 0
-1180 -1088 0
131 -1034 0
20 -86 0
334 441 0
-951 -943 0
1090 1185 0
-405 603 0
579 910 0
-455 456 0
1044 -1194 0
1131 78 0
429 945 0
-1186 -999 0
-911 -346 0
-408 -983 0
447 301 0
-466 1059 0
943 756 0
-628 -66 0
132 381 0
833 -4 0
-817 207 0
855 -65 0
842 -1019 0
415 -173 0
648 -1049 0
-706 -691 0
-60 -646 0
761 -923 0
886 414 0
1157 -507 0
893 564 0
-69 -648 0
-312 331 0
-790 -327 0
603 579 0
993 -205 0
-435 -829 0
820 1170 0
-445 -66 0
-125 889 0
208 -1049 0
238 -115 0
-1049 -995 0
-1122 -1077 0
355 639 0
-1019 -701 0
630 118 0
803 114 0
-818 503 0
935 -437 0
94 -84 0
992 -630 0
639 -158 0
1048 287 0
783 -607 0
-704 313 0
407 268 0
781 -344 0
484 -740 0
1012 657 0
7 -391 0
544 -540 0
-82 -182 0
-525 1038 0
-354 290 0
737 -886 0
-1169 -189 0
-210 -1192 0
186 -98 0
-803 -1056 0
787 -3 0
421 322 0
-1025 -497 0
555 491 0
-584 -787 0
381 -123 0
47 1054 0
-205 226 0
1070 312 0
-916 796 0
-737 -1184 0
-1023 29 0
-687 1081 0
186 -487 0
230 461 0
502 -256 0
-998 -205 0
739 -200 0
496 1126 0
-234 -703 0
113 -518 0
64 -418 0
-1198 1126 0
809 116 0
563 822 0
730 95 0
-960 523 0
-1055 -816 0
-582 968 0
162 583 0
-732 182 0
218 -548 0
-867 -645 0
1101 932 0
278 618 0
-40 402 0
-66 -1103 0
1014 1097 0
371 -1177 0
-196 393 0
-848 151 0
760 920 0
-481 41 0
-1183 1070 0
-134 -553 0
-776 -195 0
-424 -208 0
-896 875 0
-566 1159 0
407 -1002 0
-1165 -1145 0
-746 169 0
-238 231 0
476 -428 0
-736 208 0
-977 151 0
572 1031 0
-1153 -433 0
-502 269 0
-1176 -1010 0
-54 347 0
130 -266 0
898 767 0
-732 -838 0
42 494 0
949 986 0
-1091 -640 0
-951 30 0
-490 -824 0
154 -805 0
-960 -424 0
508 -298 0
-57 -279 0
1038 1048 0
786 303 0
-310 -48 0
-52 -1035 0
994 -316 0
535 510 0
216 -1142 0
316 429 0
-339 177 0
-273 -950 0
226 -66 0
904 968 0
-1156 215 0
1139 389 0
-198 1187 0
936 811 0
-909 -652 0
-970 -1035 0
78 482 0
408 206 0
522 -1162 0
-799 544 0
-1193 -147 0
150 1097 0
-1082 -703 0
-266 610 0
191 348 0
-188 -211 0
967 706 0
207 -395 0
599 1200 0
499 856 0
637 1048 0
1168 -683 0
371 474 0
242 67 0
-548 -435 0
1123 -651 0
1133 -760 0
623 -1021 0
-921 -592 0
237 -295 0
-1115 401 0
23 640 0
595 -538 0
-328 898 0
-1103 -1182 0
495 -577 0
634 -182 0
571 -129 0
864 -477 0
-67 -536 0
676 1193 0
-996 -454 0
-274 -505 0
1166 -30 0
442 -1142 0
-1180 -698 0
-573 -268 0
269 -388 0
-821 -1010 0
-548 538 0
-589 -668 0
-1088 -124 0
1002 969 0
748 -1035 0
7 -632 0
362 -620 0
-768 -1008 0
222 768 0
911 -1066 0
781 -751 0
-209 485 0
951 1098 0
1015 1111 0
-811 -598 0
-252 -1141 0
-1071 -804 0
678 1014 0
-992 481 0
265 -1110 0
-388 -252 0
-351 1077 0
-629 45 0
-285 202 0
103 332 0
101 -515 0
441 866 0
-964 589 0
-1190 101 0
759 685 0
-683 -1079 0
-1067 389 0
-606 104 0
-529 124 0
185 -25 0
-779 501 0
558 141 0
-829 -1065 0
230 1026 0
-823 -1152 0
827 564 0
58 91 0
763 983 0
1090 -648 0
127 513 0
924 -504 0
-516 32 0
-1139 243 0
-336 980 0
-411 -100 0
657 203 0
-1117 929 0
1050 -332 0
346 -788 0
-1016 147 0
-304 -1168 0
78 -808 0
-511 -520 0
-325 -467 0
-952 -992 0
138 834 0
616 1130 0
-584 -295 0
-283 -939 0
-815 762 0
-551 113 0
992 -190 0
7 581 0
-1181 205 0
909 1079 0
-342 -137 0
989 755 0
-876 -385 0
-1029 -413 0
-1071 630 0
-625 -1153 0
-1144 -323 0
-419 -662 0
955 1120 0
508 -1173 0
-92 -503 0
1087 784 0
516 1061 0
-686 -106 0
-35 -591 0
-126 1083 0
978 -757 0
-1073 503 0
-837 908 0
366 -325 0
-337 -455 0
-648 -938 0
