c NF
p cnf 3162 7273
-1759 -1506 0
2107 1550 0
2003 1349 0
3049 -666 0
2981 1096 0
-3110 -1406 0
202 253 0
-2108 -862 0
-1081 -669 0
2604 -3076 0
-1813 -880 0
2332 -2916 0
-2442 -1163 0
-2729 -1165 0
-2525 -643 0
2731 3030 0
2040 -1196 0
-2082 330 0
-2966 -3039 0
-186 1968 0
1096 532 0
-606 2813 0
-2075 2813 0
-1072 2990 0
-2042 847 0
-464 2818 0
-683 -2283 0
1917 2423 0
-2828 -846 0
-556 -26 0
1531 1995 0
2433 2862 0
1675 2871 0
3075 2579 0
412 -935 0
-764 -663 0
2140 2452 0
1546 -1125 0
1012 -2952 0
-432 397 0
772 1264 0
-1810 -2303 0
1423 2114 0
-1835 -845 0
-2972 1350 0
267 -782 0
3079 1810 0
2145 -506 0
1119 3088 0
-241 343 0
-3022 2702 0
-1705 89 0
-1855 349 0
967 -131 0
2992 1625 0
309 -2009 0
1839 1033 0
1808 -591 0
-2741 2539 0
130 -2230 0
1294 -289 0
2225 1199 0
-2637 -2051 0
556 1378 0
-2538 909 0
2361 2039 0
2643 -2132 0
699 -647 0
1792 3113 0
-17 1185 0
-2871 -2554 0
2913 2755 0
-2339 2834 0
2109 -2232 0
1147 2256 0
2147 -1346 0
1940 1162 0
469 -2616 0
-268 1155 0
1829 -3021 0
-1930 -1311 0
-1628 1477 0
-1621 760 0
2680 -1925 0
1685 99 0
209 91 0
954 -1643 0
-2393 -2464 0
-588 -996 0
-1084 2333 0
3081 2392 0
2194 -1063 0
465 -1937 0
-846 2313 0
577 -2296 0
-3043 -157 0
-2594 253 0
1244 918 0
-1916 2063 0
-906 -2106 0
1800 -1557 0
-578 1925 0
533 -901 0
91 1599 0
2056 -638 0
-4 596 0
-579 205 0
99 2839 0
-1035 1985 0
1520 -1606 0
-2467 1859 0
-378 -731 0
335 2898 0
-1722 1011 0
-906 -1609 0
2635 382 0
-606 -2344 0
-866 1115 0
-2353 -121 0
-1985 1997 0
2152 2828 0
-841 -1476 0
-2535 -1786 0
1858 -770 0
-132 1878 0
1749 127 0
723 540 0
-2 -772 0
1609 376 0
-3133 1481 0
1117 -1147 0
2884 -1314 0
-2104 -701 0
1793 -2334 0
-2160 144 0
3031 815 0
1145 -896 0
-1355 2427 0
-3029 -619 0
-1938 204 0
-2675 -753 0
2887 2882 0
-1371 1627 0
152 1450 0
2428 -1268 0
-2454 -1437 0
579 -767 0
-870 -1830 0
-2732 -1794 0
3083 2362 0
1779 3156 0
2330 -1210 0
-2233 1624 0
1447 -544 0
2185 1230 0
-2246 -1247 0
262 -1441 0
-739 1839 0
-1065 -1110 0
-3064 -1936 0
-2947 2962 0
-2792 -1104 0
1590 -2911 0
2148 470 0
-2537 2127 0
2136 23 0
-1792 1557 0
1899 1303 0
1606 627 0
785 1044 0
2867 -1685 0
-1040 -955 0
662 -1052 0
-36 2542 0
-1225 -210 0
-2519 -2644 0
-3028 1918 0
-163 -2351 0
1568 -1277 0
-2672 -1729 0
-2518 2013 0
780 -1933 0
1792 1698 0
-2953 -425 0
-950 -2949 0
684 1435 0
-1224 -49 0
-1851 1408 0
-2401 2754 0
1458 388 0
-1069 1775 0
-2556 -2755 0
1021 -41 0
963 2592 0
1415 -2672 0
-1395 -2631 0
-1922 -3156 0
1534 -2139 0
1882 -1780 0
-495 -2259 0
38 -1547 0
2031 2349 0
-3041 1901 0
3065 1653 0
721 1496 0
-1808 -563 0
1394 -793 0
2952 34 0
3111 -2762 0
1917 626 0
-1253 1092 0
-1815 1686 0
2773 2029 0
-1004 -6 0
1781 1453 0
758 1649 0
-2259 10 0
562 -746 0
-1096 1507 0
1294 -64 0
-996 3114 0
1513 3080 0
-633 -1011 0
2138 -1171 0
2036 -1511 0
-1345 -2531 0
-2581 -1303 0
401 2687 0
-2139 -1350 0
-973 -872 0
-794 -793 0
-2690 -3036 0
1512 3018 0
1325 -206 0
-3017 1751 0
-1257 -2402 0
143 -1979 0
-2571 -420 0
2758 -540 0
1929 -744 0
2458 1419 0
2683 -1124 0
2818 -2316 0
1248 2974 0
-2377 319 0
-1162 -2729 0
-2070 755 0
-1572 1522 0
-752 1776 0
546 2230 0
-153 901 0
1595 -2860 0
2640 -3120 0
3086 267 0
-2714 -3057 0
1334 752 0
-1184 -470 0
-2705 2890 0
-1547 372 0
1099 -1865 0
2677 -1073 0
-2344 955 0
880 -1701 0
1316 2911 0
-1436 -2925 0
-2606 -697 0
116 -3049 0
2780 -2800 0
-2121 -458 0
-730 -1207 0
-1024 -1919 0
2091 2802 0
-628 -2386 0
1177 -1254 0
-758 2714 0
-509 -666 0
-435 2405 0
-725 -2802 0
2290 -668 0
-2859 -220 0
-1440 870 0
-2338 -2341 0
2257 445 0
2772 -1350 0
-2684 2866 0
1666 1365 0
1181 -1612 0
2833 -1167 0
-1240 829 0
-906 -929 0
-2016 -686 0
2698 -1539 0
-1908 1527 0
2309 -1524 0
1213 2983 0
474 788 0
700 2249 0
2312 1940 0
3062 -2271 0
-777 805 0
330 -2095 0
1941 1514 0
2648 -2795 0
406 2105 0
3061 -2646 0
-2623 -624 0
1560 1862 0
2091 2264 0
2359 1204 0
-251 -1750 0
3126 -239 0
48 -169 0
1659 2284 0
-1646 1994 0
-399 -163 0
-399 926 0
1719 -728 0
-1288 -1096 0
2057 -2961 0
2537 -1511 0
712 3067 0
3018 85 0
1572 986 0
987 -1054 0
-3021 -1612 0
-353 1625 0
-1016 -943 0
1234 2221 0
-815 2010 0
1803 -1329 0
-321 3118 0
-104 259 0
1205 1765 0
18 -1211 0
723 2531 0
830 1668 0
-1505 1718 0
2566 -1781 0
-67 -1209 0
921 2185 0
-2785 1393 0
1056 -1100 0
-132 2693 0
-800 2455 0
2340 109 0
575 434 0
112 -2193 0
1441 2341 0
600 1115 0
2129 -786 0
1125 -2921 0
1224 2724 0
2138 -1449 0
-963 -921 0
-1793 725 0
-2808 2320 0
643 2769 0
-1136 -2561 0
1370 -883 0
-2784 2295 0
802 3151 0
1633 -1579 0
1968 1929 0
2190 -951 0
-2700 2190 0
-2055 984 0
2983 921 0
-2105 260 0
-2953 2949 0
987 -1574 0
1990 -2348 0
-1760 133 0
-139 2919 0
261 -1646 0
2016 -245 0
-2474 2292 0
-2937 825 0
209 -1546 0
-2653 1931 0
2165 -1398 0
231 -539 0
2756 -1598 0
-90 -2387 0
2177 2 0
1911 2195 0
-3036 -2870 0
959 -1544 0
295 -1677 0
917 2005 0
-1118 -1050 0
2858 -1782 0
1897 2323 0
-3044 2119 0
2168 2729 0
62 1525 0
3146 1625 0
1659 1185 0
1849 -2819 0
1267 613 0
-2926 757 0
-177 -1791 0
2486 -2359 0
-3002 81 0
2549 723 0
680 -241 0
-1607 -766 0
-2373 -241 0
2293 2037 0
1362 -835 0
-1179 336 0
-1887 -951 0
-1511 3094 0
942 1880 0
-1165 2658 0
-2979 -2958 0
245 1888 0
-2525 -908 0
-26 -342 0
-2656 692 0
1453 1054 0
2284 -2817 0
-700 -734 0
-330 -95 0
180 3035 0
2800 -2659 0
3041 -1685 0
2992 267 0
-959 -1014 0
-1759 -2413 0
557 -424 0
1422 -579 0
627 -571 0
-2274 669 0
1205 -1497 0
167 536 0
-1305 142 0
-367 -78 0
209 1745 0
1091 232 0
-2167 -1081 0
-1959 2450 0
1875 525 0
653 -94 0
-255 2361 0
1642 2452 0
-3132 604 0
101 488 0
2650 -2181 0
2692 2509 0
2786 -2933 0
2871 863 0
-2183 1582 0
-1204 1903 0
-835 1496 0
-1756 343 0
-1318 -2555 0
2427 1065 0
2184 -2659 0
2143 -775 0
200 -2807 0
-2378 1317 0
964 1623 0
-508 641 0
397 -1423 0
826 -1944 0
2490 -3048 0
2694 1602 0
2586 2836 0
2665 2337 0
-2760 1170 0
-458 -2939 0
-2855 2397 0
-1830 2992 0
-1547 -1667 0
1760 -947 0
1109 1563 0
-1288 -995 0
1269 2987 0
-1247 -2780 0
-1956 -850 0
-3030 -779 0
2060 1899 0
2738 -1787 0
313 -1150 0
-634 -1736 0
-672 -2313 0
2395 1185 0
-1155 -1881 0
680 417 0
440 6 0
-2955 2948 0
-243 1668 0
-851 1672 0
-505 3011 0
-1034 -265 0
1359 -2307 0
-3127 2147 0
-1811 2887 0
2520 2245 0
942 -656 0
669 -692 0
2619 1608 0
-2803 827 0
-2966 2994 0
-2449 1647 0
1378 768 0
-1320 -830 0
-733 2464 0
-1811 -2165 0
-2347 455 0
-1936 2150 0
795 1665 0
2022 2175 0
-1811 1089 0
-2584 960 0
2948 821 0
-1598 2088 0
-1589 1896 0
268 3136 0
-312 -2583 0
2965 -1049 0
2069 -2735 0
1499 821 0
2114 1885 0
-409 -2215 0
1676 -2559 0
100 2360 0
2360 -2394 0
2091 2359 0
-265 2384 0
-2865 536 0
688 -876 0
1224 -2350 0
2456 1549 0
2849 -972 0
-3159 1803 0
2986 -1297 0
2382 3025 0
1279 -342 0
2772 -1100 0
-2182 1479 0
2 -1716 0
3011 -2155 0
1095 -2681 0
-67 793 0
2579 537 0
-2486 -147 0
-513 1004 0
3098 -937 0
-1933 2141 0
2331 871 0
-1062 -2009 0
2869 2916 0
2148 2391 0
1969 232 0
580 -842 0
-3082 -1636 0
1768 1505 0
1338 -2622 0
-873 -2475 0
-275 1850 0
-461 1224 0
-1333 1571 0
-1109 -2942 0
-3009 1681 0
295 -359 0
1091 2319 0
319 -1580 0
-199 -2597 0
3088 -2215 0
-616 -1490 0
2116 2348 0
1497 -1966 0
-2659 2195 0
-1789 836 0
2414 2291 0
-102 2318 0
474 -2066 0
1718 -2058 0
215 1120 0
-1043 -1329 0
-3097 1734 0
-1566 3007 0
582 229 0
-2214 2485 0
-1635 -2489 0
115 179 0
1747 2424 0
375 -457 0
-904 -2735 0
-1057 1433 0
1793 2697 0
248 616 0
-2937 -140 0
2087 2036 0
682 -608 0
468 890 0
744 1624 0
2418 -825 0
2732 1030 0
-1511 -126 0
-2363 -2591 0
1298 906 0
-1898 -1232 0
1170 -254 0
3007 987 0
1668 -1863 0
110 -690 0
-2420 -2307 0
-2596 922 0
-427 2269 0
3116 -2404 0
2120 -986 0
1253 -2048 0
-140 -1626 0
-2567 -447 0
2293 2800 0
162 -1885 0
889 -2475 0
-758 1650 0
-868 2614 0
-769 605 0
-735 980 0
-1015 810 0
-2242 1295 0
297 2222 0
1250 295 0
-2475 104 0
-2708 241 0
1798 -2953 0
669 -582 0
-1075 3144 0
-2396 2162 0
1014 -2768 0
-709 1484 0
1595 -3060 0
2017 2722 0
-1187 1423 0
-1432 -2759 0
-2363 -2318 0
-1071 2004 0
665 -1517 0
1079 17 0
-2348 -3091 0
-1055 924 0
-868 -2103 0
-831 -2144 0
1661 -2875 0
-2699 2181 0
-223 -1317 0
1497 1257 0
-571 -2157 0
727 -2205 0
1706 -2805 0
59 2539 0
-1830 2940 0
1245 2485 0
-870 1186 0
-1916 1068 0
2338 2485 0
200 -1807 0
-1878 1145 0
628 1729 0
-2665 -1027 0
2263 472 0
1533 -359 0
345 85 0
-899 2623 0
1174 -580 0
-2819 -2602 0
-1920 -1761 0
1831 240 0
-1530 -2852 0
-645 2127 0
-683 -3070 0
-1442 2537 0
2270 2085 0
591 -2005 0
-2373 2233 0
-902 2123 0
2115 -1867 0
-366 -1535 0
-772 401 0
1753 2775 0
238 -1028 0
-2681 -766 0
1012 -2836 0
2825 1192 0
367 -2681 0
-2124 30 0
168 -2706 0
-525 636 0
-1379 2297 0
-1417 -336 0
2286 46 0
99 -452 0
-1103 -254 0
381 503 0
-164 -1934 0
745 1149 0
-1722 40 0
2758 1083 0
-1228 906 0
-2715 -2969 0
3061 -2958 0
-921 -190 0
174 -502 0
1149 173 0
-881 2680 0
2776 -376 0
2934 -1123 0
-86 313 0
-1825 4 0
1854 -2415 0
-1381 -2935 0
2612 883 0
2892 -2098 0
2881 660 0
-861 1543 0
2621 2235 0
-689 320 0
1910 -1848 0
1154 -2800 0
-2898 797 0
-1 115 0
-19 1921 0
760 -899 0
2498 1582 0
-947 123 0
1356 -2050 0
194 -2296 0
-2862 -2028 0
32 1629 0
284 -993 0
-428 -2445 0
2480 -934 0
-1171 -67 0
-819 -482 0
-614 2059 0
-2639 -1098 0
-1014 2247 0
2434 -141 0
2087 537 0
-929 2100 0
101 627 0
622 660 0
2922 2172 0
1611 -2738 0
-472 384 0
2257 1987 0
848 2765 0
-2985 2 0
447 -2522 0
-181 507 0
1023 1248 0
175 533 0
1354 -2553 0
1609 -2803 0
-3050 -1103 0
1860 -3121 0
-39 597 0
1975 1117 0
3157 965 0
1579 2619 0
-2956 3157 0
1975 2720 0
-1677 -540 0
148 2813 0
-55 1861 0
-1966 -2003 0
-2477 -499 0
-379 -1594 0
1027 -2841 0
1352 2692 0
-2495 2936 0
-3084 -645 0
1447 2580 0
2195 -529 0
-1620 -245 0
-1296 -2852 0
1377 -3071 0
1948 -904 0
-1944 2080 0
1854 -675 0
1865 2833 0
2597 -2748 0
256 -116 0
2253 -1035 0
3088 1067 0
-2726 434 0
2127 2583 0
-2837 3049 0
-480 2823 0
-500 652 0
1216 2524 0
-2543 2841 0
2260 -577 0
-1132 1053 0
-2190 1499 0
-1201 2482 0
928 179 0
3019 1172 0
2753 2503 0
-2271 903 0
2299 2836 0
2162 572 0
1029 2301 0
-1463 -1797 0
-2090 2460 0
-513 2757 0
-485 -2410 0
2739 -2636 0
2903 3002 0
1255 816 0
-698 -1144 0
-2545 -2809 0
959 2767 0
-3120 152 0
-311 -2706 0
253 -2497 0
-1011 -2899 0
-699 1609 0
-92 987 0
-3043 310 0
1085 -103 0
2826 -2544 0
2421 2889 0
-1281 2749 0
61 2440 0
-753 -1147 0
1575 1976 0
2707 -2173 0
2847 645 0
-317 991 0
2937 1996 0
-635 -3088 0
1314 -2655 0
-1130 2582 0
2325 169 0
-153 477 0
-887 -1432 0
2514 -215 0
-2708 -1502 0
-1089 2653 0
-633 -1452 0
1996 2083 0
-611 -2501 0
2333 847 0
1181 -2964 0
1814 -2914 0
-920 -80 0
2144 918 0
2652 -2380 0
803 1535 0
-741 -10 0
-1791 -749 0
-761 -2536 0
-1877 2505 0
-598 335 0
371 351 0
-708 2053 0
-2639 1560 0
2066 -2839 0
1006 -3078 0
-1376 2620 0
-613 1571 0
3000 -2418 0
-927 -2279 0
1482 -1810 0
-725 -491 0
2180 -2868 0
-1 375 0
-994 -2939 0
-298 283 0
-2208 -437 0
-67 3038 0
-2023 -3059 0
-1445 2845 0
-2179 274 0
1578 -3004 0
2785 -490 0
-220 -260 0
-1513 2501 0
-1781 -474 0
1479 2499 0
-1106 -944 0
1042 -565 0
680 -3022 0
1158 -1895 0
205 -1588 0
1736 -361 0
1322 -941 0
2164 2183 0
-2347 -970 0
1170 -772 0
-2742 -2770 0
3026 639 0
1692 -1487 0
1496 1972 0
3149 -1019 0
2873 1089 0
1374 -2193 0
2320 -1015 0
-1873 -236 0
1059 -2296 0
1324 -2017 0
1290 -1962 0
-1826 1728 0
-531 99 0
128 -2863 0
3125 -2436 0
-578 2484 0
499 1969 0
1349 2161 0
-1558 -449 0
829 -1845 0
141 -2142 0
737 127 0
-1572 -233 0
-1493 -1713 0
-2478 388 0
166 -992 0
-311 -1454 0
-2522 -1417 0
-2864 -3100 0
2144 1477 0
-2999 -1426 0
-1135 -1424 0
-925 2727 0
-928 1865 0
-1201 -1276 0
-3060 844 0
-202 -2983 0
2073 368 0
-1407 -2982 0
-1112 961 0
-2861 -479 0
2304 2724 0
-728 1468 0
-1597 1835 0
2219 -349 0
1554 1393 0
646 1964 0
-239 2329 0
778 328 0
3090 1932 0
-3119 -1151 0
2404 308 0
2830 2235 0
-2629 1190 0
-2175 -1107 0
-1227 1116 0
-1547 -846 0
1422 1735 0
2530 2446 0
-2665 -357 0
-1288 -2300 0
-1860 2757 0
741 -1042 0
155 -236 0
-2106 -2675 0
-2523 -3075 0
1190 1647 0
1325 216 0
-1109 2050 0
-947 2088 0
1698 2733 0
167 -447 0
-1615 883 0
2390 248 0
188 -1637 0
34 490 0
1289 1285 0
1648 -775 0
1457 -2364 0
-2543 -1840 0
-561 488 0
-1146 475 0
382 -110 0
2479 -1585 0
-1637 -2518 0
1662 -2167 0
455 -815 0
3124 1403 0
2718 2216 0
-2549 -2775 0
2630 -1141 0
2241 -295 0
2407 152 0
-1228 -1556 0
-732 257 0
1243 2666 0
-1652 2005 0
-106 -17 0
-930 -2363 0
-2766 63 0
-1310 -669 0
-55 -1996 0
-409 1127 0
-2465 1610 0
-2360 1419 0
2695 -835 0
2074 -472 0
-1517 -1246 0
1439 2894 0
-2438 -1076 0
-381 2983 0
1469 -1339 0
-1615 1043 0
-1326 1356 0
2969 -947 0
802 1710 0
-172 1022 0
1887 -576 0
2011 573 0
-2704 1549 0
1149 801 0
-1486 -725 0
-2509 2635 0
-401 -2099 0
1115 -2240 0
330 -1427 0
879 -1329 0
-2512 -1312 0
101 -610 0
-2238 -976 0
-891 -3151 0
-1794 3118 0
-539 910 0
-1858 -1132 0
-5 2772 0
2267 -1545 0
-2591 1698 0
-1794 -541 0
-2667 -659 0
43 2588 0
276 -1413 0
1896 -640 0
1968 2446 0
-3096 -1764 0
2628 -1233 0
3115 -1476 0
783 2767 0
-445 137 0
-1556 -984 0
-2147 2222 0
-953 2068 0
1328 368 0
2593 1166 0
-2697 -1438 0
-2531 -2062 0
400 -89 0
-3148 -1395 0
-217 272 0
-206 -122 0
2406 825 0
-1437 -1460 0
-1493 906 0
-3037 -2374 0
-2449 -725 0
-1385 -328 0
2292 -602 0
-1312 2537 0
524 1925 0
-293 1569 0
1903 2114 0
-500 -787 0
-959 -3160 0
2600 951 0
-1306 -2115 0
2677 283 0
-2316 -119 0
1604 227 0
2203 -2155 0
-2042 -1801 0
2781 -1791 0
-1924 -1299 0
171 -1650 0
1854 -97 0
-173 1524 0
2997 2167 0
1294 -135 0
-1261 1708 0
1920 1461 0
-2310 -2899 0
-1207 2566 0
486 3120 0
1760 -2410 0
2725 2587 0
491 370 0
-797 2513 0
2612 -625 0
2417 2389 0
439 3028 0
528 -2370 0
2187 3040 0
-1883 2976 0
1384 -261 0
2056 -904 0
-399 -1227 0
910 856 0
-3055 2129 0
1836 -976 0
-835 -742 0
2550 -2646 0
336 -659 0
1546 2643 0
58 211 0
1131 250 0
1590 -1426 0
-2248 -198 0
2332 -2556 0
-645 -3050 0
2106 -309 0
1331 1430 0
-2990 -1568 0
-2081 -1131 0
1421 1814 0
1604 -2400 0
548 2920 0
-3074 285 0
1091 2557 0
1733 2092 0
3027 -834 0
-2438 -516 0
-423 -983 0
-2447 938 0
-116 2679 0
2751 2963 0
75 -1420 0
-2902 1687 0
-3009 -2978 0
2060 1472 0
-1235 -1544 0
1390 2949 0
1839 -2158 0
-1723 -2818 0
-578 -2565 0
105 64 0
1413 388 0
2759 -867 0
2720 -2766 0
2648 -3048 0
-1248 -673 0
1778 1097 0
123 -1024 0
-1586 -2566 0
-2595 1632 0
1993 853 0
1347 -1714 0
1716 3090 0
-86 2428 0
1001 -1894 0
-1650 1760 0
1235 -301 0
-661 -1557 0
2887 -3113 0
2276 400 0
-2101 2598 0
-529 1698 0
1552 188 0
1967 2873 0
-2173 2989 0
-2782 2471 0
2202 -1943 0
1087 -996 0
-191 2090 0
-757 2887 0
2276 664 0
319 -1528 0
-2090 128 0
-707 1421 0
939 -1934 0
-2949 -1366 0
-1146 -2918 0
1128 875 0
-2646 -2473 0
793 1929 0
-940 1102 0
-1359 -2414 0
-1175 2089 0
-1519 -215 0
-683 1097 0
-1908 1117 0
-1735 -2825 0
883 1562 0
550 552 0
1443 -2284 0
2348 -944 0
-190 -2062 0
1688 2970 0
-2528 -1827 0
2720 -2663 0
2121 -2632 0
2968 -2744 0
205 2027 0
1002 1192 0
-2958 -645 0
-392 -2193 0
-1268 1498 0
2337 958 0
1580 2474 0
466 3080 0
2312 -1247 0
-289 1396 0
3028 -851 0
-1325 1429 0
-791 716 0
2895 1191 0
2233 1956 0
29 -1395 0
-2058 -2296 0
119 1585 0
820 -3126 0
-2164 -1402 0
-2287 23 0
-2631 -219 0
2411 882 0
2548 -2529 0
-168 1065 0
-1626 -686 0
-2953 -549 0
1018 10 0
-2297 -1933 0
-1711 -3082 0
-830 -569 0
-2746 455 0
2550 2427 0
-2141 745 0
1863 -2784 0
2001 -12 0
1397 2332 0
-2759 -628 0
-2647 2767 0
-1722 -2830 0
2335 -1488 0
-2709 268 0
-693 2885 0
1397 -1289 0
-1003 2301 0
3039 -354 0
-2380 827 0
-1598 -2082 0
-2389 1219 0
3143 1519 0
-1571 3154 0
-1942 1692 0
-3057 2731 0
1604 1427 0
2323 86 0
-1206 3079 0
-203 2366 0
-921 69 0
-2819 2962 0
-1297 -2261 0
2323 -3094 0
930 538 0
1405 178 0
503 -2055 0
962 -2293 0
-2642 2495 0
569 2555 0
729 -789 0
2707 -2330 0
1338 -1702 0
-1762 -951 0
-2259 3041 0
1207 -608 0
1725 442 0
-763 -2048 0
1649 -248 0
-63 1564 0
1012 629 0
-815 -1134 0
361 757 0
-912 -163 0
-435 -1931 0
-372 1130 0
1401 885 0
1893 1357 0
1803 -2058 0
880 -2877 0
169 3105 0
-2737 3090 0
598 -934 0
-334 -2678 0
-1761 -2846 0
2394 -1411 0
-1327 356 0
893 -2294 0
-2347 -1138 0
-2289 2348 0
1487 2275 0
813 1873 0
2923 -1540 0
1014 2161 0
1628 -934 0
1904 385 0
1412 2651 0
-949 -1913 0
851 1808 0
-3056 1384 0
-2733 2494 0
411 2097 0
2175 1662 0
-1168 -1679 0
2068 -1415 0
-2636 2721 0
1271 -2273 0
2150 788 0
2309 3094 0
-389 -37 0
-2907 2838 0
2100 500 0
-1190 1026 0
1048 -650 0
-1296 -2811 0
2730 -612 0
-901 -381 0
-1164 955 0
-1766 1446 0
-2603 -528 0
-2935 -244 0
-1471 -2623 0
2776 24 0
848 -900 0
-1692 2034 0
2270 436 0
201 -2556 0
-101 2651 0
799 1684 0
-1213 597 0
533 3116 0
-2534 174 0
2527 1185 0
2181 3111 0
-1203 2354 0
-1040 2318 0
1421 -2596 0
-1796 2666 0
1958 -2783 0
-1762 2849 0
-708 -3092 0
1353 458 0
2714 379 0
555 -775 0
3108 -2077 0
-1684 722 0
8 -160 0
31 -2860 0
1408 -712 0
-348 2115 0
2884 -2794 0
-1789 616 0
2287 1575 0
3042 436 0
2291 1412 0
2039 4 0
-800 1540 0
-1944 -1265 0
-1737 575 0
-1795 -269 0
-561 418 0
-2350 725 0
-2706 -939 0
718 625 0
-2666 -2837 0
275 3136 0
-1913 2440 0
-2936 -22 0
2094 209 0
1717 -924 0
999 1244 0
-491 -970 0
-1018 2984 0
-1790 -2563 0
2563 662 0
-2324 3023 0
1525 1584 0
256 -867 0
1181 -1401 0
-1204 1656 0
89 1992 0
2834 2621 0
1754 -2340 0
-1155 850 0
1274 525 0
-1961 -2111 0
-298 -2706 0
-257 -2547 0
1047 841 0
1053 -1609 0
-2208 1946 0
-2548 1763 0
1970 1808 0
-1137 2003 0
-376 669 0
-1415 -983 0
-3156 -860 0
-938 1149 0
-61 145 0
-322 658 0
2539 -2790 0
-3100 898 0
1977 1026 0
-2783 -1735 0
642 -760 0
-3020 -2380 0
2777 -2907 0
1432 583 0
-1795 1606 0
1478 -2864 0
-298 1033 0
1258 1093 0
1368 -735 0
2572 -3131 0
2666 -867 0
3008 -2659 0
1733 2679 0
2212 3012 0
-1397 -537 0
-266 -2390 0
-2064 -409 0
-2170 2849 0
174 2368 0
1792 412 0
2850 -1265 0
-1090 -719 0
-2499 1226 0
-1029 1705 0
-2206 1444 0
-1991 2198 0
-963 -2537 0
2545 -1592 0
-2501 1638 0
1806 2288 0
-846 1320 0
553 421 0
-657 1298 0
2596 -1513 0
2270 1860 0
2998 -2190 0
-177 843 0
2381 563 0
-1689 -2778 0
-2675 -398 0
3128 -53 0
-184 -2309 0
-788 -2234 0
2740 -1203 0
-1308 -3068 0
-18 2544 0
-1966 2436 0
-1239 -2435 0
-2141 -857 0
-2446 46 0
51 1749 0
-2366 -974 0
-3055 -2569 0
-2669 3098 0
-1327 2314 0
2137 -2402 0
2248 -2441 0
-852 2974 0
-554 -3021 0
1080 3062 0
-1355 1979 0
575 754 0
3102 1033 0
2219 1958 0
-2431 -2480 0
2107 -192 0
1199 2701 0
2031 -849 0
-107 -1245 0
3035 2694 0
-2079 1901 0
2409 -757 0
143 1499 0
-271 -1699 0
1605 -1019 0
-2889 -1506 0
-1292 -1450 0
-2761 -1484 0
-2958 -666 0
-2388 315 0
-606 1464 0
-886 -2237 0
-1403 910 0
1908 113 0
-1991 -1189 0
167 -764 0
1153 2082 0
1167 1647 0
-2275 -995 0
1901 -2570 0
1494 -571 0
-1923 -3021 0
-2354 -1000 0
818 -2733 0
-2345 -502 0
349 1175 0
-1815 -941 0
-2681 -2129 0
-18 -890 0
564 2634 0
-820 1290 0
815 1917 0
-14 -2098 0
-2469 1472 0
1752 404 0
-812 -2430 0
-2963 307 0
2099 -2976 0
1759 -2062 0
1625 -494 0
-452 -2732 0
378 1729 0
674 2823 0
-2855 1390 0
2371 -1206 0
369 -2313 0
2798 -1062 0
-1176 2772 0
-1657 2757 0
-3105 -721 0
-1106 1641 0
1074 -855 0
3033 -1659 0
2285 2236 0
-400 -842 0
225 1294 0
1281 -2334 0
-366 -1280 0
2069 -864 0
385 -869 0
2263 -2644 0
-1634 -1747 0
-896 -1922 0
537 2991 0
703 1970 0
525 -218 0
2460 278 0
2636 -1851 0
2782 -200 0
2107 -898 0
1321 -2296 0
3008 1629 0
-1650 405 0
1332 -1176 0
-1437 1042 0
-1573 -203 0
-3123 -274 0
1911 1474 0
-894 1665 0
-939 -123 0
1987 901 0
2317 525 0
225 -1142 0
-1063 2735 0
1824 -2457 0
2729 1998 0
-1710 700 0
2944 1010 0
-1951 1279 0
-2844 112 0
-2951 2643 0
-2843 -1341 0
-190 -2671 0
-1679 -822 0
-146 -1361 0
-435 -274 0
-1423 2084 0
-2198 2524 0
853 1208 0
-2399 -1132 0
-3071 -1758 0
2586 -364 0
2216 -1390 0
-1488 3121 0
729 2612 0
-1456 2365 0
1982 3066 0
-1103 2036 0
-1640 -1066 0
-3076 -1011 0
331 454 0
2817 848 0
-3045 -55 0
309 -2924 0
1162 -1031 0
1353 1160 0
-383 -463 0
-1186 1841 0
-433 -1778 0
-1934 1983 0
541 1397 0
-865 167 0
-768 1834 0
2379 -2668 0
2949 1340 0
1867 176 0
-2622 2941 0
-1133 2965 0
-1658 1538 0
1888 3130 0
1653 163 0
-423 1752 0
-2927 1026 0
-122 216 0
1446 431 0
-2589 -846 0
-934 -838 0
-2372 -1812 0
3132 -2625 0
-2819 -1561 0
2113 671 0
2284 235 0
-2288 -268 0
-1257 -2633 0
2682 2019 0
1238 860 0
-2240 -1241 0
3108 -3058 0
442 -2561 0
-2966 731 0
1233 278 0
1613 -868 0
-1362 2728 0
1007 2778 0
-1772 816 0
-395 -3090 0
-1064 -1523 0
1690 -1801 0
-2252 1262 0
628 1687 0
1332 -1713 0
-2937 52 0
1852 -2814 0
-2609 -2571 0
-1733 -2296 0
-540 2267 0
-2174 -1278 0
-641 622 0
-1450 360 0
-1748 1349 0
1800 2917 0
-336 1892 0
168 -1936 0
3090 1432 0
2012 2865 0
1701 -104 0
-1251 -1892 0
2854 -580 0
-1454 -2216 0
-459 -890 0
1337 2319 0
2616 2126 0
-2969 -2458 0
1153 -1753 0
1295 1672 0
2630 -2304 0
2107 -2117 0
-1069 1372 0
-896 -2619 0
407 -2125 0
-2349 2599 0
-1277 -1471 0
1595 2100 0
2694 1626 0
-1597 -94 0
2327 -852 0
525 307 0
-999 -1050 0
2088 -1900 0
2585 -229 0
1355 -39 0
-1432 1507 0
3070 -2101 0
-1311 1871 0
1263 -1656 0
493 2573 0
-2966 -3133 0
898 -2791 0
-3089 356 0
2569 -2553 0
2658 1804 0
-1178 2294 0
2319 -2161 0
882 909 0
-1511 360 0
2859 -461 0
2443 -2436 0
3149 909 0
-1265 -1737 0
2128 -759 0
2913 -966 0
2882 -778 0
205 -2698 0
413 -1454 0
547 -670 0
-1660 -1485 0
-1640 -12 0
1471 915 0
-2835 2309 0
-310 -524 0
2246 1728 0
105 -553 0
-1262 -2266 0
2199 3078 0
1521 1674 0
-1476 -469 0
-2576 -740 0
-383 2017 0
2284 -1164 0
-1793 2027 0
-1821 1494 0
484 991 0
277 2352 0
-892 -409 0
-2541 489 0
1436 2441 0
-1261 1884 0
1911 2763 0
-496 -2950 0
1772 2263 0
2929 -567 0
1648 1304 0
-2792 1084 0
901 556 0
965 1886 0
-60 1300 0
865 -185 0
105 -1477 0
2931 1913 0
2411 857 0
910 589 0
800 2991 0
-2079 -2760 0
3143 2187 0
-428 479 0
3154 -211 0
441 -1008 0
-2090 1924 0
221 1779 0
1480 -2922 0
-562 -1790 0
91 -1933 0
96 -105 0
957 1764 0
2667 -393 0
1293 -481 0
125 637 0
2725 381 0
2255 2259 0
-2001 1144 0
1595 1629 0
1447 -799 0
-2467 -3116 0
-65 -1755 0
-2648 -1287 0
1676 -201 0
-2261 1535 0
2646 -2522 0
1828 1011 0
2714 -989 0
-1124 1248 0
-2953 -56 0
-12 1606 0
2041 287 0
142 1121 0
-698 -1370 0
-1371 2971 0
-74 -2560 0
-2732 2166 0
2611 -767 0
-743 -2693 0
-1664 2403 0
2460 1875 0
-1034 2285 0
597 -352 0
2986 -2405 0
-660 -2792 0
-1045 -2524 0
2551 -105 0
370 -2060 0
-590 -2045 0
535 2511 0
-3140 -204 0
-1842 2954 0
-1 209 0
1967 -2438 0
-2886 439 0
1565 2452 0
-2589 -2792 0
-1034 2529 0
2930 465 0
-725 247 0
-666 1884 0
2248 2142 0
-445 2788 0
2215 738 0
-2482 -525 0
-553 1212 0
-1215 113 0
-1241 -1443 0
-1056 2388 0
1644 -1155 0
265 1243 0
-2966 -512 0
2277 2901 0
-3059 3064 0
62 -2979 0
360 1358 0
-1491 -726 0
2825 1305 0
-2497 1547 0
-124 2120 0
1788 -416 0
2833 1187 0
1202 -691 0
1025 -2182 0
2301 1764 0
-989 -786 0
-1176 -728 0
-1081 -1953 0
2599 -433 0
2250 3013 0
2994 -774 0
2301 -2927 0
2031 -2699 0
-2881 -1021 0
2999 1544 0
-1324 2471 0
2498 -321 0
-1650 2272 0
1759 -2065 0
-753 2248 0
-226 -932 0
-561 1454 0
205 2545 0
1346 -189 0
-1572 71 0
-82 -2327 0
-3094 -50 0
1234 2373 0
1783 2277 0
-1547 2712 0
-1645 -1483 0
-1687 1578 0
-1113 1757 0
-846 782 0
2411 1276 0
2600 153 0
2284 -512 0
2238 1851 0
-168 -361 0
-2627 1767 0
-2106 -579 0
3054 2050 0
-2609 -2473 0
-1906 1963 0
-2851 2565 0
-1819 -2683 0
-2365 -79 0
-1312 -2192 0
531 2128 0
-3140 2263 0
1007 -1233 0
-1993 2387 0
-2281 66 0
87 -2750 0
1296 -759 0
-1273 -217 0
-2147 -2066 0
-2127 937 0
-2615 -2433 0
1563 792 0
2833 -1849 0
-1416 -1981 0
-1151 2869 0
-3058 861 0
594 -1362 0
-1978 -2269 0
-2842 -2537 0
-2765 2642 0
154 -2407 0
1375 1602 0
2530 -846 0
805 905 0
1868 -658 0
849 -2173 0
-800 -2239 0
-1089 -1857 0
1327 -2826 0
3012 1618 0
-2388 651 0
-566 -109 0
1635 -3145 0
1370 -1815 0
3154 2369 0
-1455 -740 0
2849 -571 0
3033 2614 0
-305 -2736 0
-911 -772 0
-1587 -1267 0
39 2346 0
2835 258 0
-2038 1944 0
-2519 388 0
-776 -913 0
-210 124 0
-2065 -720 0
1291 1067 0
-1476 -894 0
-2177 -2532 0
345 693 0
1771 -867 0
2956 166 0
-2176 -1765 0
1927 -840 0
-568 -1816 0
2190 -2287 0
-1906 2303 0
-118 -2890 0
1077 2403 0
382 209 0
-1475 1610 0
-2140 -2501 0
-2795 -1160 0
-2134 -1081 0
-1006 -1593 0
1047 -1275 0
-1499 2957 0
-2239 -2374 0
296 1174 0
-841 360 0
1348 -293 0
443 -2937 0
-3096 2275 0
-1275 -3054 0
-1967 1541 0
484 2580 0
-1411 -2046 0
2136 -1820 0
-2569 1429 0
2122 2503 0
118 58 0
-3059 2879 0
-1493 1908 0
2891 -946 0
1180 -1856 0
1872 1647 0
-2613 1970 0
-2983 600 0
2599 -698 0
2860 2548 0
319 -1403 0
2643 -2066 0
3072 -1965 0
166 20 0
-1616 -267 0
-3057 -336 0
3094 716 0
-2639 2396 0
-292 -357 0
-1285 -2979 0
-1310 -2018 0
-2024 2501 0
-771 1682 0
-2106 -409 0
-2289 35 0
1018 -364 0
-2165 -1699 0
-445 -759 0
-3024 555 0
-53 1239 0
-1031 820 0
1468 -55 0
2228 1160 0
-695 -1741 0
-606 -2133 0
2034 -2737 0
-1821 -581 0
-168 3099 0
-1090 1803 0
-2045 1377 0
-2700 3107 0
1093 757 0
-2211 980 0
-560 534 0
1217 406 0
-28 -118 0
-933 3155 0
1632 19 0
-1489 -995 0
-477 2358 0
2859 -273 0
-3132 -3119 0
112 -2181 0
1616 -126 0
-1104 1072 0
-2943 -2807 0
1989 -1029 0
-2573 2326 0
2927 -1065 0
-3049 -3158 0
-553 3157 0
-1647 -681 0
-1848 -1341 0
938 -2463 0
1917 -1613 0
1509 -1173 0
2219 2482 0
-2156 -837 0
-61 2487 0
740 2464 0
-2938 1408 0
1406 -234 0
1705 -480 0
1756 -1442 0
2755 -1280 0
810 -1271 0
-2181 1927 0
-1766 -414 0
1128 2638 0
-298 -2650 0
-2796 -580 0
-1855 -2637 0
-256 -1822 0
205 2831 0
623 -460 0
-2235 -1107 0
-172 1466 0
-817 -1928 0
-2746 1718 0
-1751 1691 0
-1049 -2717 0
-1768 -3105 0
-2485 1115 0
-1109 -707 0
1256 -2143 0
1588 844 0
-1566 -295 0
1897 1647 0
-2591 2754 0
-655 2630 0
1097 -1139 0
2391 -1009 0
-2181 -3018 0
1225 2519 0
-2836 -342 0
2163 -1370 0
986 -1984 0
-2705 -3095 0
-1957 706 0
-831 1967 0
1441 2905 0
680 2732 0
-1128 -1661 0
-1206 1778 0
1120 -1615 0
-2306 -1639 0
785 -2435 0
-548 808 0
-1255 1066 0
-541 -1827 0
1279 -2079 0
-1590 -191 0
1260 -190 0
3136 -490 0
1617 2957 0
-2888 2402 0
-446 1858 0
1316 757 0
2100 847 0
1703 1660 0
2952 1111 0
1200 -3044 0
-2553 -1339 0
2891 1908 0
1037 705 0
1841 3041 0
397 -557 0
-2551 1115 0
-35 1428 0
1416 493 0
33 -814 0
-1823 1095 0
1042 -1227 0
1784 -973 0
1757 1529 0
3004 -129 0
-1414 852 0
974 1219 0
-1307 459 0
-2261 2884 0
1261 518 0
-447 1363 0
2947 -2541 0
130 -761 0
-45 1584 0
-1608 2367 0
2491 180 0
1032 -2239 0
77 800 0
102 1919 0
-1805 1591 0
-3115 2869 0
2807 -2099 0
1160 -823 0
-402 2856 0
1838 -34 0
743 376 0
2178 1630 0
3087 804 0
2056 3107 0
596 -1842 0
1919 1631 0
-896 -1186 0
491 2635 0
-1 2635 0
-437 -2290 0
-1242 -927 0
1892 -1271 0
2631 1701 0
66 1752 0
-1841 2580 0
-196 2146 0
3056 -2555 0
-1149 2961 0
-2532 -1735 0
-1055 -371 0
1662 -116 0
-2157 -473 0
-646 -645 0
1187 -689 0
-25 1975 0
119 737 0
2704 3149 0
1982 1565 0
-549 -1406 0
-2357 -2205 0
-2541 2030 0
-2431 1351 0
923 517 0
-581 -2200 0
-1394 1688 0
1368 824 0
1770 502 0
990 1315 0
-974 2944 0
1867 -3064 0
-1519 768 0
946 1562 0
1890 -1555 0
2401 -1044 0
1007 -2871 0
-330 -425 0
2747 1988 0
387 2098 0
-1799 880 0
1340 -1879 0
-1554 -2825 0
2689 -2882 0
2199 2587 0
112 -2046 0
1435 957 0
-587 437 0
1149 -962 0
2859 -2717 0
368 1804 0
1649 823 0
2138 221 0
-3049 2679 0
1300 -2371 0
-1833 1071 0
1154 2167 0
1668 332 0
262 -2078 0
-2725 1240 0
-2470 1075 0
-1879 -1724 0
-2528 1375 0
2559 -537 0
-335 -1255 0
587 -115 0
666 1429 0
2136 -2405 0
-366 1039 0
54 48 0
2328 2928 0
635 2694 0
2948 2133 0
1009 -1011 0
2605 1380 0
2167 -1002 0
-3160 2772 0
2076 1304 0
-429 -755 0
1718 -281 0
-1814 -196 0
180 -719 0
2785 2832 0
325 827 0
467 -881 0
-94 -200 0
-1414 166 0
-1253 2138 0
183 737 0
1813 -2476 0
2866 -539 0
1295 1169 0
-2254 242 0
-2909 -1386 0
-1143 1968 0
465 276 0
1061 914 0
-3115 -1523 0
-901 2959 0
1332 -1540 0
-661 408 0
-565 -2678 0
-2811 -2308 0
1580 -816 0
852 2513 0
-2591 -196 0
-680 1828 0
-2134 -122 0
2697 -565 0
945 2533 0
-2223 -1544 0
-2848 -2141 0
582 3119 0
-1340 1075 0
2183 -1166 0
-2196 -3085 0
-1633 287 0
-2560 -1855 0
-3057 261 0
551 671 0
-581 1338 0
-2419 -384 0
-2578 -1247 0
-2828 1523 0
2461 1321 0
-2072 -1704 0
2911 736 0
-2370 768 0
2202 2035 0
1019 -1581 0
878 -2860 0
-2164 1918 0
1565 -1796 0
-2632 2385 0
-2837 -399 0
-1424 863 0
-750 -1597 0
2060 801 0
85 -1395 0
3107 -988 0
789 -1916 0
-2553 -1208 0
1540 -1943 0
2520 -1833 0
2559 -3129 0
3011 3027 0
2721 -3148 0
-2059 3113 0
-167 1562 0
-2437 -2049 0
-200 -2807 0
-616 -1546 0
1979 -1268 0
2985 1681 0
-863 2963 0
2992 1098 0
-2424 1918 0
161 1198 0
-2803 -1116 0
-3142 -1458 0
2614 -220 0
-3050 1095 0
1236 -3152 0
-601 693 0
-851 1735 0
29 -797 0
806 2618 0
-3027 -1622 0
2741 -1228 0
-2108 -1374 0
-3081 2796 0
-374 -2586 0
-1583 -1855 0
2540 -1825 0
-2754 -505 0
1490 -657 0
-461 -952 0
1593 1535 0
-2678 -2555 0
1158 -2583 0
-2016 -2644 0
2469 -39 0
1393 2333 0
2376 1045 0
1181 2081 0
-1157 -2121 0
-2993 228 0
1364 2307 0
1453 -1986 0
-66 -3140 0
-1017 2315 0
893 -141 0
-1344 -725 0
-2796 3041 0
-563 -470 0
-190 1974 0
-1099 1826 0
1060 1072 0
-306 -2742 0
-2205 1736 0
2833 -1813 0
894 575 0
1199 1727 0
2255 -1562 0
48 633 0
-1943 3161 0
-2388 -588 0
-2078 -2023 0
-1041 2303 0
-1220 -142 0
2480 780 0
-2269 -2147 0
-414 -2647 0
365 -972 0
-1311 -26 0
-2658 111 0
2788 2371 0
-2541 -1021 0
2940 -1582 0
2710 -2501 0
-1835 -509 0
-1035 -2288 0
3018 -2116 0
-1016 -1514 0
-16 3109 0
-1802 -402 0
-1902 -3089 0
-64 -2863 0
-2256 2212 0
-2046 1330 0
-2015 -2669 0
-1529 -983 0
-2901 886 0
2096 318 0
2369 972 0
-483 -1430 0
-1723 -368 0
281 2026 0
1801 2409 0
2544 -714 0
-446 -1537 0
-2359 964 0
-1993 225 0
510 -64 0
-2113 1011 0
-2877 -812 0
-2429 2383 0
1808 1340 0
-2458 2094 0
-2534 2450 0
-1442 2616 0
1307 373 0
-1313 968 0
-1220 -2905 0
1219 1940 0
-730 -576 0
-2351 -980 0
542 757 0
2154 -742 0
-2924 1283 0
1625 1384 0
-1647 3136 0
1764 -742 0
856 1129 0
1235 1432 0
336 1579 0
-576 1999 0
-2542 2587 0
1379 -996 0
290 -1709 0
2999 -1542 0
-1570 -322 0
-1164 1439 0
-2893 -2496 0
-2548 -2845 0
-2570 -1146 0
1882 2460 0
3024 -331 0
-832 1492 0
3149 -900 0
2967 1690 0
-1763 -1085 0
-3069 2005 0
2815 -1111 0
-2181 -1495 0
-346 -2019 0
-1403 -1646 0
5 -3161 0
-1038 -1978 0
-3061 -1031 0
1808 -99 0
1166 -395 0
-812 3151 0
-619 2076 0
1329 -2405 0
1886 -177 0
-513 2903 0
-1856 2632 0
-899 -1140 0
3104 1853 0
2989 -2391 0
1633 2533 0
-2370 374 0
-2164 2412 0
699 -2289 0
2008 2492 0
1051 -2236 0
-3130 -1583 0
-649 2281 0
-1454 1660 0
-494 -653 0
2363 -2556 0
777 3142 0
-1981 1752 0
1111 -1464 0
1801 2959 0
-1577 2753 0
-693 384 0
1501 -2409 0
2183 432 0
-1937 -1506 0
-2397 -2700 0
2373 -2461 0
-1601 237 0
490 1688 0
-1181 410 0
-2694 2265 0
14 -679 0
610 1219 0
-952 -876 0
1633 798 0
513 -2969 0
148 -979 0
59 -2570 0
35 870 0
-1237 -2601 0
287 2946 0
-2556 2699 0
2279 -1418 0
-1427 1025 0
-2996 62 0
-2615 -661 0
2252 56 0
-1382 2444 0
2518 2867 0
1210 -769 0
-571 2463 0
1868 1638 0
-1363 -1519 0
1918 2100 0
-2190 -689 0
302 260 0
294 -383 0
-112 -2486 0
1790 2120 0
497 2882 0
-820 809 0
-2482 903 0
1599 1610 0
2087 -2842 0
1536 -2361 0
40 -1822 0
-1247 2314 0
-2866 2663 0
1089 1640 0
2493 1904 0
-2740 -791 0
2027 1356 0
-2822 -2193 0
1850 -2074 0
-2006 -1155 0
2206 2129 0
3008 2813 0
3027 -921 0
-2397 1682 0
-92 -543 0
-1528 1073 0
1208 1932 0
1388 574 0
-144 2463 0
576 -888 0
1950 -1274 0
2791 -1922 0
1575 777 0
-1767 1046 0
148 1738 0
2558 -739 0
-2066 20 0
28 2175 0
2057 1006 0
-687 -586 0
328 -1131 0
1803 561 0
-567 -945 0
-348 917 0
-1463 2890 0
1187 2086 0
-1414 1568 0
-795 1869 0
-129 -2706 0
2033 -2736 0
491 -446 0
-1715 -939 0
-1675 1906 0
2930 -1398 0
-1904 2626 0
-126 -798 0
1028 2471 0
-228 -2467 0
2586 2285 0
-26 -2236 0
-2485 1858 0
-2608 -2387 0
2250 3107 0
-2288 923 0
-2914 827 0
-2577 -42 0
-727 2080 0
2461 152 0
-593 1624 0
-2212 -255 0
783 -2659 0
-794 2006 0
-2557 1950 0
2516 -133 0
-2495 1716 0
686 1219 0
1636 484 0
-243 -1572 0
-1980 1026 0
608 2035 0
2628 -2101 0
-353 18 0
-2342 2707 0
751 1708 0
1609 -893 0
2210 1713 0
-1707 2132 0
-333 572 0
-2444 1150 0
1207 -1345 0
-2502 1988 0
-2814 -1118 0
2391 2364 0
861 1674 0
748 2294 0
2727 -2615 0
-702 866 0
2312 3132 0
-93 -2353 0
-2383 811 0
1290 -1128 0
3053 874 0
-888 1204 0
2308 -215 0
-3138 1875 0
-1890 550 0
547 -1649 0
-1090 -1486 0
-1112 -2798 0
1915 2537 0
-288 761 0
2076 2471 0
1850 -42 0
-973 2364 0
1646 -814 0
1406 2511 0
2280 1632 0
-1362 2452 0
-199 -223 0
-395 1844 0
467 525 0
3003 443 0
2423 3124 0
226 -662 0
1315 -1740 0
1359 3019 0
1896 -94 0
-2794 -1718 0
-1819 2371 0
2214 531 0
-2764 -2444 0
-704 695 0
-2938 329 0
-289 -1790 0
2142 2113 0
565 2829 0
2961 -1101 0
-347 -2638 0
403 -1065 0
980 -316 0
938 2231 0
-1670 2151 0
-2167 2195 0
-2971 -1842 0
-1180 2730 0
-2486 -1705 0
2436 -1833 0
2689 -992 0
2917 -172 0
-819 -1431 0
-1926 -1797 0
-2352 -1257 0
-562 -1585 0
2084 -1177 0
-2535 -715 0
2718 860 0
2107 -2582 0
-1431 -2121 0
-111 1938 0
-950 -357 0
-2746 1213 0
2089 1686 0
-1016 -267 0
2225 -2044 0
-2590 303 0
-1174 315 0
-2157 -1016 0
750 -713 0
-258 -1960 0
-445 2417 0
-2562 3067 0
-1832 2098 0
-1945 -2052 0
-1738 -551 0
-2617 757 0
-2293 907 0
2115 1114 0
-3007 1534 0
-2386 -818 0
-930 -1572 0
1860 -1197 0
1212 -3085 0
-2007 1605 0
-2231 798 0
-404 1575 0
1758 1860 0
-219 2551 0
-1951 -2358 0
-611 -64 0
400 1780 0
1803 -1795 0
1177 2540 0
1716 2689 0
3136 -1274 0
1255 -309 0
2840 -2852 0
-1420 1635 0
-2109 -1859 0
1191 -1980 0
-996 -2605 0
2611 -540 0
3067 697 0
-2397 -3069 0
1575 -1246 0
1192 -186 0
194 2964 0
-3115 -336 0
345 -475 0
2348 3005 0
-1382 -1864 0
918 882 0
-1887 2282 0
-1050 -2608 0
1905 -2338 0
1135 -1245 0
-2579 1668 0
-2151 -2200 0
-1507 -1139 0
-1684 272 0
-1853 -2114 0
1263 -2680 0
255 2220 0
3035 -1562 0
809 -1734 0
-1232 2331 0
-287 -1407 0
1760 -3111 0
248 2847 0
410 2502 0
2932 2003 0
2311 2032 0
-868 2611 0
-1787 1903 0
1204 -747 0
-1304 88 0
1971 -2791 0
1398 -515 0
-2465 3032 0
3075 -1379 0
-921 -2747 0
-545 801 0
3137 -2280 0
-596 -1939 0
-1507 848 0
-1682 -928 0
78 -1598 0
1316 -174 0
1259 2826 0
2439 -2925 0
-3104 2623 0
-241 1177 0
2671 -1452 0
1251 2804 0
3116 -2666 0
1774 -3092 0
-3053 2168 0
669 -2476 0
1092 2207 0
-956 -2071 0
-2918 2739 0
-2307 711 0
-785 1185 0
1224 2400 0
2133 -1265 0
-153 -1036 0
-1092 -1765 0
-2632 1437 0
-3138 2327 0
2681 -2370 0
-2477 -327 0
-21 524 0
-420 -2165 0
-812 1079 0
2526 1810 0
2997 786 0
-2106 2713 0
-691 -2722 0
-2100 1018 0
-2552 -2745 0
1476 -1123 0
976 -1643 0
886 985 0
2964 1119 0
-202 738 0
-820 -3004 0
-1628 2605 0
1191 -1134 0
1657 -846 0
290 1699 0
-2515 1212 0
2171 -1415 0
2235 2323 0
-82 2417 0
2725 -1219 0
-706 2685 0
2620 -643 0
-2910 -825 0
-1513 -2478 0
-2897 -98 0
-2675 1570 0
-721 1399 0
149 1586 0
-2233 -1909 0
937 -2469 0
1571 1481 0
2366 399 0
895 -426 0
320 1116 0
-1366 -1527 0
-605 -2190 0
2787 -750 0
2187 3046 0
802 -2295 0
1998 -2751 0
2354 2188 0
3116 81 0
-137 -539 0
-1707 -1800 0
1945 -1276 0
-115 -927 0
2090 -282 0
1471 1023 0
1552 -309 0
-2287 1053 0
1729 2521 0
3121 -1338 0
-2133 -2252 0
-1554 1380 0
-851 2135 0
485 -2538 0
-2856 3007 0
-3162 235 0
1380 1059 0
-749 -1240 0
2746 1606 0
-760 -518 0
-2920 -1003 0
-2048 -2213 0
-2817 -1351 0
-852 2950 0
987 -1589 0
1857 2845 0
-3126 2579 0
2465 458 0
262 866 0
-242 -817 0
-1786 1326 0
-139 1536 0
-85 -94 0
-2596 -413 0
-3131 1623 0
-760 1787 0
-1842 -366 0
-1639 -2987 0
1715 2048 0
-2736 2524 0
1768 -2756 0
2643 -1414 0
-2001 -43 0
2469 1174 0
2804 1975 0
179 -1787 0
-2001 2732 0
1046 2936 0
-905 -1167 0
1886 -1101 0
-1063 1407 0
-1465 -2388 0
2041 -416 0
2703 -2679 0
-2552 730 0
-1414 1706 0
272 147 0
826 3001 0
-1662 671 0
-679 -407 0
-2316 536 0
-1058 1340 0
-1296 2178 0
1876 -1827 0
1559 -408 0
2052 -2415 0
-338 3144 0
1743 1799 0
-1598 -1937 0
-292 2464 0
1565 -2492 0
1866 -2998 0
-1719 1965 0
-2214 1708 0
542 1769 0
1298 101 0
-1663 1510 0
-2740 2320 0
-1941 -546 0
-104 1147 0
2490 1520 0
1647 -3013 0
-1345 -2866 0
2166 -1616 0
-1954 2535 0
1683 -916 0
436 -766 0
-1953 488 0
-1333 -891 0
1633 -714 0
-502 -1652 0
302 415 0
1571 -1206 0
-593 1330 0
-2279 631 0
819 -594 0
-2502 2040 0
2719 -1761 0
-1506 717 0
1996 -1402 0
1462 2946 0
-2827 606 0
-3036 154 0
-14 252 0
962 412 0
1450 -2022 0
-3096 -3095 0
-1655 2049 0
-1513 -565 0
-1151 -338 0
-1312 -1339 0
-1985 2590 0
-2125 -753 0
-2795 3150 0
-2871 -1418 0
1313 -394 0
1919 -2099 0
1080 -1736 0
-2808 2749 0
-2566 -1195 0
674 522 0
-1049 -1093 0
-2567 1957 0
1752 204 0
-2956 2986 0
-2950 -1577 0
2133 -3041 0
-2491 2879 0
8 -1443 0
2667 -721 0
-1712 -402 0
-2702 -216 0
-1615 -2419 0
2908 1945 0
-635 824 0
2541 -12 0
-996 2340 0
-1315 -321 0
-672 2895 0
373 1886 0
893 -1350 0
-1059 -2042 0
-1144 -2147 0
-599 -835 0
-2790 322 0
-1020 -240 0
-151 2869 0
88 -1923 0
-1209 -1677 0
-285 -1109 0
-247 -640 0
-2438 360 0
3052 1541 0
1375 -396 0
-215 2850 0
-1491 1170 0
622 -1051 0
-1243 1692 0
-2413 275 0
2936 1028 0
-924 1521 0
3101 -3024 0
-231 -321 0
3053 2372 0
2726 -2317 0
-1168 1556 0
-234 843 0
331 537 0
1681 2015 0
-1924 -2224 0
1406 539 0
-567 -1830 0
1147 -2495 0
1468 2678 0
829 -1137 0
-383 -1782 0
927 -1106 0
-2602 504 0
-1638 -2396 0
-906 -2206 0
89 1915 0
531 591 0
-1893 -1281 0
-1456 -470 0
-70 2397 0
2384 532 0
1306 1193 0
1881 -1485 0
1609 -1088 0
-8 -841 0
1291 2779 0
1509 -2851 0
-1207 2149 0
1266 2145 0
-435 2178 0
-1411 -963 0
-1157 -842 0
1243 -2502 0
-896 -3071 0
2903 248 0
-1816 -333 0
-2693 -2958 0
-2955 -1254 0
-1712 -1831 0
-2398 -1969 0
993 1551 0
1550 1631 0
2439 1280 0
2959 -1525 0
136 -2747 0
-1775 938 0
-1302 1656 0
-2437 -639 0
-663 615 0
2003 -1265 0
-1792 2152 0
-150 -752 0
-2881 -851 0
2080 -2711 0
-1706 -1634 0
910 571 0
-1895 -1317 0
2580 -92 0
2764 -2949 0
-3077 985 0
-2243 -150 0
1915 1441 0
-355 2006 0
-2718 -1605 0
-868 2869 0
145 -161 0
1012 100 0
-2454 -1664 0
-786 2530 0
1638 726 0
-225 -3122 0
2154 -1339 0
-1391 2626 0
-251 2468 0
-841 1181 0
2224 -266 0
1428 -964 0
2143 -2405 0
-33 -1388 0
1015 667 0
2144 362 0
1596 34 0
48 2125 0
-1405 104 0
-1935 -1493 0
2335 1850 0
2055 -1490 0
-1963 3109 0
-2854 -2870 0
-2976 1995 0
1864 1869 0
-2588 -1100 0
2988 -514 0
-1586 2818 0
-1418 -2027 0
314 -2168 0
-2387 2474 0
146 -1288 0
1091 1586 0
3097 1704 0
551 670 0
1565 493 0
-433 -2976 0
1881 2887 0
2487 -1930 0
3103 -2924 0
2060 335 0
1601 2905 0
2300 2616 0
-1548 780 0
-2598 -2324 0
2785 -712 0
1822 2372 0
2296 -1388 0
-48 2871 0
-1574 2069 0
2588 72 0
-673 -2782 0
2226 -1712 0
-241 1690 0
1485 2780 0
-1255 -893 0
1127 3031 0
1788 555 0
-3131 -1725 0
1458 -2316 0
-3136 1561 0
1882 2803 0
1707 -2904 0
-2121 2480 0
-1587 -2313 0
1065 -659 0
-10 1652 0
-2514 555 0
-2762 -475 0
-2040 1732 0
736 -896 0
-13 1198 0
1217 -110 0
-111 2152 0
2328 -788 0
-1720 -1175 0
-83 246 0
367 -114 0
-2512 -1470 0
-2628 -745 0
1455 2528 0
1304 -1578 0
-1865 2468 0
-2724 -2496 0
2241 662 0
988 -247 0
-280 -800 0
2061 -849 0
-2841 -2830 0
948 2187 0
2001 -2274 0
-448 275 0
2501 1936 0
484 -1459 0
2889 2368 0
-1856 2307 0
-1796 -798 0
-1195 -2363 0
1186 1395 0
-1139 -516 0
-2271 -113 0
135 2778 0
1965 -287 0
-1444 -1471 0
1338 -2721 0
2013 -1099 0
-1521 -311 0
1724 308 0
2614 1972 0
-2593 2093 0
1273 2721 0
-189 -1589 0
710 220 0
-2063 -2203 0
2442 -2336 0
-2284 -39 0
638 -1702 0
-2417 84 0
1419 1523 0
-748 2032 0
-3068 120 0
719 1864 0
-702 897 0
-2046 -1886 0
-181 -1783 0
-1187 -2325 0
-1078 1968 0
-935 2164 0
-1423 -372 0
-2970 -1175 0
678 -2474 0
2091 1543 0
2739 -1452 0
826 650 0
2545 2425 0
-787 -302 0
1006 2127 0
-1454 -1415 0
1347 1091 0
-332 -2277 0
-872 -509 0
2473 2319 0
-2642 314 0
-1420 1475 0
-1802 1100 0
2125 -1554 0
2636 1776 0
1859 1627 0
1715 -1126 0
2704 -1448 0
-1825 -566 0
-1506 -1033 0
-2336 76 0
-984 -3009 0
2576 2474 0
-2618 -37 0
610 579 0
-1053 2500 0
-3057 2430 0
-70 -3016 0
-1844 1778 0
-658 442 0
667 -1828 0
-1342 -2239 0
1821 18 0
2582 -1175 0
962 -1209 0
-332 -1690 0
-1658 242 0
-1685 -2569 0
1318 671 0
-2021 -1210 0
-1179 2351 0
-1828 -1603 0
-1289 -358 0
2319 -208 0
1536 -1262 0
469 1144 0
-3082 -380 0
-2870 -2816 0
1806 2074 0
1899 480 0
843 -1567 0
-745 -80 0
1146 -1713 0
-2637 -1919 0
-1307 -3160 0
-2545 1015 0
921 1037 0
747 -2259 0
1208 -2331 0
-1709 1078 0
438 -1816 0
-1941 -1905 0
-1456 -547 0
-3114 -564 0
492 -99 0
-2809 -584 0
1409 253 0
491 907 0
-379 -782 0
2739 -940 0
-2556 -357 0
1598 2119 0
-1344 -186 0
-333 36 0
-976 -2608 0
-2625 1210 0
-1120 754 0
2992 -1565 0
-734 2038 0
-1837 2285 0
1006 -453 0
-2368 2721 0
-2201 1541 0
544 -134 0
-1136 -2141 0
2671 -757 0
-333 2893 0
-689 653 0
2460 -1979 0
2772 1131 0
1202 -2952 0
3003 2826 0
662 2519 0
2008 -643 0
498 1627 0
1823 582 0
57 -2169 0
554 170 0
-2247 -2921 0
2166 619 0
-1209 1959 0
2940 -2163 0
-1779 319 0
2466 -2893 0
1173 -1741 0
-1756 -122 0
-1545 -198 0
-1161 790 0
-2502 -82 0
-2939 -1315 0
3088 3056 0
2366 -1503 0
465 1986 0
-792 740 0
-1665 -1011 0
687 806 0
-3115 -634 0
-2975 -3051 0
-477 -2072 0
-1766 2753 0
-1882 -1034 0
-1544 2905 0
-2709 -1461 0
-2105 -2405 0
3088 -2998 0
2782 -1076 0
664 1639 0
2554 1238 0
-186 487 0
-1860 -3100 0
2460 -468 0
-874 2640 0
-834 -1736 0
-2890 2905 0
-690 -247 0
2550 1185 0
2027 2479 0
575 -668 0
1564 594 0
-2929 959 0
610 2355 0
2869 -487 0
3094 1907 0
253 -820 0
1752 1428 0
-999 -1152 0
-1865 2537 0
2156 703 0
228 -2572 0
54 -1458 0
1729 -2842 0
-3118 -1063 0
2268 1520 0
-995 -3024 0
-567 2152 0
955 -219 0
1733 623 0
1156 -924 0
2781 2376 0
2485 2326 0
-1942 -1473 0
2422 -1796 0
31 827 0
-2647 -1777 0
2354 -1573 0
-610 375 0
-2583 2641 0
2402 503 0
-114 2319 0
221 2662 0
-79 2360 0
-1307 2703 0
-1459 -1713 0
1335 -755 0
-1449 -685 0
377 -567 0
247 2281 0
-1099 1995 0
-1924 -508 0
2570 -1717 0
-1477 1180 0
-2228 -889 0
593 -1254 0
-3096 -12 0
1874 -2457 0
1429 2320 0
1860 -1511 0
2314 -1547 0
2686 1673 0
103 -82 0
-2481 1061 0
3041 967 0
-883 -2559 0
-1156 2425 0
2249 -1015 0
-2874 2226 0
-2343 -1352 0
-1456 -839 0
-286 -123 0
84 2125 0
3124 -9 0
-1730 1582 0
1590 -436 0
-1865 -3043 0
934 2130 0
-471 817 0
2008 2817 0
-2080 -266 0
1815 -2292 0
3118 1109 0
-2748 1743 0
2533 3074 0
-700 -3048 0
-1934 1180 0
667 1923 0
-1063 -2054 0
2581 2757 0
1440 1892 0
-1127 -458 0
-1004 466 0
2002 2942 0
1931 3101 0
2114 -953 0
-2709 -2228 0
238 -1621 0
-157 7 0
707 1920 0
-546 -461 0
-522 1005 0
1399 -1937 0
1571 -3116 0
413 -1825 0
-3071 651 0
-1016 -2498 0
-355 -2987 0
2377 1256 0
2169 98 0
2268 -1003 0
-2759 -1533 0
388 -1454 0
2355 -2485 0
-800 2230 0
2624 -852 0
204 1801 0
-1415 669 0
2274 308 0
-2449 181 0
711 830 0
-802 -1057 0
-2359 -1855 0
-251 61 0
2614 74 0
-495 -1403 0
1757 1557 0
2166 501 0
-1280 1121 0
609 3098 0
-936 -864 0
-2625 547 0
-2186 108 0
-2481 -993 0
-2173 1646 0
2963 -2138 0
-1456 -757 0
-3142 -864 0
571 -896 0
2963 699 0
-1576 -1236 0
-2340 2046 0
-747 1780 0
-1167 -1113 0
125 1968 0
3036 2974 0
-2644 -1991 0
-3015 848 0
571 501 0
-232 -215 0
-873 -840 0
1340 1517 0
2314 734 0
2648 253 0
-1512 48 0
-929 -1101 0
-3161 503 0
146 -2515 0
-3158 1405 0
-713 699 0
2098 -1175 0
-2864 -70 0
-1719 -3042 0
-2484 2221 0
-819 -887 0
-718 2395 0
1153 -1034 0
-2132 253 0
-1156 1849 0
928 -2546 0
-2979 1220 0
-624 -2667 0
-1018 -1476 0
-2681 2227 0
960 1662 0
1394 -725 0
-2908 3155 0
2815 -2943 0
-312 -2759 0
-704 -804 0
362 -2524 0
-2795 2759 0
2990 2682 0
-760 -392 0
2704 2123 0
-2482 1997 0
-2236 961 0
-2874 -447 0
-317 1929 0
3128 1711 0
1302 1016 0
-1814 1383 0
-2584 -1548 0
-552 -1829 0
-1875 -3133 0
2521 2238 0
-499 -3069 0
2309 -2642 0
-348 469 0
2325 -1953 0
646 -498 0
1268 508 0
2091 -2647 0
-2589 3111 0
-1303 -2356 0
-2581 -900 0
-3089 -798 0
-2316 -2397 0
-1771 1440 0
2681 1686 0
847 -1572 0
2187 1968 0
1383 1563 0
-3142 -545 0
1410 -75 0
-2967 1963 0
-1230 -2987 0
2679 -2238 0
-1631 -769 0
-2024 -2606 0
971 -820 0
556 -561 0
2927 -1791 0
-1978 2900 0
47 2991 0
-1227 -1702 0
396 -2636 0
-1056 777 0
1877 -875 0
1938 -760 0
-3015 2776 0
2905 -1055 0
955 579 0
-1863 -289 0
2640 -2004 0
-73 1438 0
-1933 1283 0
2284 -2239 0
-1023 1399 0
2715 1108 0
-1470 1337 0
-3066 -353 0
-1761 1356 0
-2520 -41 0
-2974 1036 0
2394 1128 0
-416 -1672 0
-173 555 0
488 1111 0
848 2012 0
-975 -2246 0
1120 -999 0
2798 1244 0
-2665 2912 0
-576 -2350 0
2030 -881 0
2029 -590 0
-832 2480 0
755 -2192 0
1858 -2124 0
2960 -3137 0
-1598 -2487 0
-2389 826 0
1377 2643 0
1966 -1963 0
-1947 -1321 0
1623 -3030 0
2847 958 0
-944 1905 0
692 1234 0
1672 2597 0
1074 -1595 0
2767 -2213 0
1421 -287 0
2325 2895 0
159 -117 0
-1463 1375 0
-2005 -1885 0
1751 -433 0
36 -1281 0
2406 -1695 0
-1875 3099 0
818 1095 0
2284 1080 0
949 24 0
-424 1059 0
2596 -602 0
2122 88 0
2213 1718 0
-210 754 0
-1141 1190 0
-2455 -659 0
-2266 2560 0
-740 -2254 0
-2641 576 0
-1062 1996 0
859 -666 0
-554 -381 0
299 746 0
-1516 1563 0
-2221 2037 0
-108 -1761 0
1630 -703 0
1911 2328 0
135 2226 0
-2426 2878 0
-673 -423 0
1032 1552 0
577 3013 0
-2482 -2648 0
2368 3072 0
-3052 -1865 0
1967 445 0
-3150 985 0
1240 -924 0
878 -1990 0
300 -364 0
2577 1367 0
2290 -1909 0
-537 1268 0
1508 -2926 0
-946 510 0
586 632 0
1486 -2303 0
-2706 1912 0
1432 1935 0
1087 1316 0
-2437 3103 0
-2658 -2430 0
-1695 -1245 0
-1483 2557 0
1357 -2518 0
917 54 0
2587 2020 0
-393 302 0
-438 2373 0
2060 -1979 0
2799 -1362 0
978 -1205 0
1013 1272 0
-1368 2605 0
3136 1562 0
-295 499 0
-1855 1248 0
-2918 -309 0
-2781 -2875 0
-535 2506 0
-2553 -1360 0
-1157 -2555 0
789 -109 0
-823 843 0
-2179 169 0
1683 556 0
-2999 1611 0
-1405 2854 0
2853 1565 0
261 -2050 0
2245 1135 0
2837 -107 0
2214 1708 0
825 149 0
1534 1563 0
1121 858 0
1767 -539 0
627 762 0
-1930 816 0
-1778 -896 0
171 133 0
-791 -2763 0
-423 2568 0
419 238 0
-852 -430 0
1844 -2173 0
1009 2471 0
-1817 -1951 0
-795 -1101 0
1525 1386 0
-1819 2941 0
512 -2742 0
1511 -2353 0
-1215 -1121 0
-451 -2917 0
1918 -817 0
-2929 -2431 0
-2940 -678 0
-1132 -566 0
-1131 -181 0
2626 1696 0
-1747 -1041 0
-75 -199 0
2362 -358 0
-2684 2551 0
-168 1312 0
2349 -830 0
-534 1213 0
-2676 1839 0
-153 -1014 0
-1382 -59 0
-1417 -1191 0
296 -2909 0
-2168 -1978 0
137 -1311 0
-1156 -974 0
-1071 -2063 0
-1137 2576 0
3046 -2356 0
-2496 -3160 0
-2667 -172 0
-1973 -2340 0
1045 2628 0
1590 436 0
-2247 -2721 0
2332 -2361 0
-273 -1881 0
824 2886 0
2406 449 0
-1976 647 0
2195 -2294 0
-1336 -1627 0
963 -2203 0
-2934 2871 0
1893 613 0
991 1118 0
-2541 -1123 0
-750 -923 0
2978 1872 0
-1880 -332 0
-2890 1330 0
521 1850 0
-2754 -1463 0
-759 -3139 0
828 -633 0
-165 -2551 0
-1145 977 0
1948 2711 0
2097 2479 0
1891 -776 0
2954 1244 0
3118 4 0
2069 1249 0
-2090 -1820 0
1698 862 0
-1709 2803 0
2272 -1650 0
324 -3029 0
-410 -2899 0
-867 2373 0
-1714 1295 0
2181 -3058 0
-1043 -2153 0
-2356 91 0
2782 2621 0
-2343 1498 0
1419 900 0
389 -2488 0
882 1306 0
1870 -1487 0
671 -27 0
442 121 0
1648 858 0
2662 -2124 0
2636 -2572 0
-981 72 0
1145 538 0
1590 1349 0
-38 -2490 0
1282 3057 0
-2326 -491 0
-1842 -1275 0
-851 -20 0
-1766 538 0
119 1874 0
2049 297 0
809 1180 0
2909 -633 0
2243 -1845 0
-2154 -1076 0
846 1958 0
504 -1335 0
-204 3141 0
2449 1971 0
-883 1082 0
1756 -874 0
3045 -45 0
501 1712 0
-362 -173 0
-1058 807 0
2359 2517 0
-2523 -1074 0
1408 11 0
1390 -2134 0
-2418 557 0
-1094 3119 0
1266 -2398 0
-976 -235 0
-357 -1978 0
-502 481 0
-251 -1359 0
154 2499 0
344 1861 0
-2028 -156 0
2873 -340 0
1112 2886 0
-429 2987 0
-45 902 0
1284 -1876 0
878 -2854 0
140 2869 0
2986 -3051 0
2043 -759 0
2533 437 0
652 -2862 0
71 -494 0
-2457 -1056 0
-2699 2961 0
109 -3060 0
-1794 -519 0
3042 -456 0
-2212 -692 0
2889 773 0
-2279 2325 0
3134 -2881 0
-1004 640 0
-1029 1192 0
-1065 -1896 0
-1132 -607 0
-543 590 0
-80 -2855 0
2743 -2065 0
-1134 -1577 0
-2476 -1951 0
6 2688 0
-2111 -2054 0
-1689 -1774 0
618 1053 0
122 2747 0
2269 110 0
-527 2576 0
-2555 -1172 0
-2295 2406 0
-5 2509 0
2515 1154 0
-2418 -914 0
2365 -2554 0
-1339 -906 0
-1305 1358 0
-1321 1877 0
-2260 1091 0
-634 2162 0
1207 3136 0
1300 -53 0
909 903 0
167 -1626 0
-499 -72 0
-36 2411 0
-2659 -611 0
-1269 -1717 0
1251 1725 0
-522 1453 0
1171 -2334 0
2073 -334 0
-173 -2313 0
-1564 -1602 0
-688 -2746 0
-1714 -1276 0
-1790 -429 0
-1479 -2949 0
2604 2821 0
789 1380 0
2731 -1000 0
-2081 -766 0
-884 644 0
-1911 -2283 0
-2569 1422 0
1286 -416 0
2265 -1689 0
1694 -1392 0
-864 154 0
-1090 -3158 0
-2602 804 0
-786 -1011 0
-2328 228 0
2613 495 0
-368 -3131 0
2122 -1583 0
-2068 -887 0
-2491 1183 0
1944 -1640 0
587 3130 0
3019 1133 0
1910 1642 0
2900 1595 0
-48 594 0
-676 -346 0
-1069 1995 0
-1220 -1865 0
-2776 1299 0
-2054 -352 0
-393 -2650 0
2124 2931 0
-958 -1589 0
-587 -2772 0
650 1407 0
257 -1876 0
2636 1404 0
2916 -2563 0
1863 -1702 0
413 -1973 0
-1009 1520 0
-1107 -1096 0
-2334 -2940 0
226 40 0
-317 198 0
2073 -1122 0
-2668 2008 0
2893 -552 0
1944 -1558 0
-2573 -1562 0
-2807 -2897 0
2643 3111 0
-3059 -219 0
-3117 -1175 0
-943 1391 0
3069 3157 0
1731 926 0
2743 -1159 0
1022 -949 0
-1402 -2046 0
722 -1140 0
-651 -1828 0
-901 2188 0
-1156 -1024 0
-35 -3132 0
230 2758 0
-1500 983 0
2869 2932 0
-2561 900 0
-1386 1773 0
-1790 3115 0
470 1399 0
-2593 -1293 0
-1466 183 0
1018 -1615 0
1560 2963 0
-2835 -2874 0
732 1989 0
1706 1197 0
-2811 1501 0
-1890 -1241 0
1877 2627 0
550 -1693 0
1384 818 0
-321 -2495 0
1980 -2877 0
-104 31 0
2312 -709 0
-1112 1877 0
-405 -559 0
2060 995 0
-2305 -2726 0
-1164 -1643 0
1920 435 0
-2855 1497 0
-1738 -436 0
744 -1945 0
270 -338 0
3155 -2205 0
1223 -348 0
-1427 2867 0
2100 3 0
-462 2932 0
-872 1283 0
-1520 -657 0
2128 1696 0
-1708 2544 0
1300 2136 0
2628 1573 0
-1124 805 0
-1028 2804 0
2379 348 0
1075 2684 0
1725 1226 0
2092 -729 0
2521 -3112 0
1060 1503 0
-2515 -1749 0
1903 1309 0
831 -342 0
-1435 -2244 0
-2432 1490 0
2858 1918 0
1328 -1188 0
-1748 -187 0
81 -213 0
1563 1024 0
-3058 -2064 0
277 -948 0
2463 2381 0
-2732 -112 0
-874 -1934 0
2477 -1567 0
-678 1724 0
-2033 1874 0
-3010 -1687 0
1277 2806 0
-2174 1685 0
-55 1243 0
2141 1989 0
2287 -3077 0
-2080 -268 0
-1004 -2380 0
-561 -1542 0
1599 1912 0
-2020 2154 0
-2786 -746 0
2958 547 0
-3093 176 0
-672 -1561 0
1518 -2742 0
-1298 1622 0
-1140 -1944 0
2416 -3091 0
-2733 -2982 0
2408 -358 0
-922 -1113 0
542 -802 0
-2787 -1615 0
2706 2129 0
443 -1592 0
1785 -2491 0
1061 -1382 0
-2259 2900 0
-3109 1868 0
-688 2382 0
-187 -820 0
2149 2268 0
-2021 -2349 0
-673 2733 0
1179 2002 0
1866 2800 0
-2162 -1665 0
-2467 1552 0
-3137 1602 0
925 -1922 0
-310 -976 0
2302 1249 0
-1838 -825 0
-525 1829 0
2644 2026 0
1303 -1011 0
-2398 -1500 0
2257 -1262 0
1320 -246 0
-2578 -2387 0
2661 1877 0
2125 -676 0
-417 -1843 0
1412 -1209 0
2411 -1028 0
40 -1671 0
-2679 -218 0
-476 -2393 0
1153 396 0
2118 1405 0
1831 627 0
2815 1292 0
-1933 -1058 0
1750 -680 0
-1819 1489 0
1516 -1633 0
2526 -3121 0
-3014 1190 0
2773 -676 0
680 910 0
-1437 -3156 0
-2467 -2491 0
-2863 1122 0
-963 -906 0
57 2970 0
2404 -1307 0
-1435 1620 0
-707 -2193 0
-2668 856 0
-2900 3136 0
-951 2576 0
-2827 1330 0
620 1312 0
299 -2199 0
-51 1135 0
128 -3056 0
-2785 737 0
1703 -767 0
-2160 -1795 0
2415 1525 0
-1288 -9 0
-1608 -102 0
2200 2382 0
2997 1843 0
-1167 1207 0
188 2992 0
2611 -1040 0
-1767 1338 0
355 596 0
-2184 2357 0
-384 2185 0
-450 -20 0
1866 1274 0
1067 2393 0
1204 2490 0
166 2618 0
-2878 2769 0
1223 1498 0
2720 3005 0
901 -2046 0
2039 -2968 0
1224 2348 0
-1209 -287 0
1245 384 0
223 -742 0
-1748 -2276 0
1369 2636 0
-1459 545 0
-1648 -919 0
180 1693 0
-2416 666 0
100 -1234 0
-1336 3038 0
-2615 1633 0
-29 -1738 0
2644 -2759 0
564 -2810 0
-1292 -3083 0
821 -524 0
-2327 -413 0
1474 -2095 0
-2062 666 0
275 385 0
405 923 0
-2997 -2018 0
2656 2367 0
-728 -2096 0
-1453 -426 0
182 377 0
1938 1214 0
1154 826 0
-1351 720 0
-1031 -2768 0
-1622 -543 0
3038 308 0
1443 179 0
-3131 2903 0
129 -990 0
-2682 -2192 0
-932 2348 0
2037 -1175 0
-2101 111 0
-1515 3056 0
2817 566 0
1800 -2773 0
-1058 -2998 0
-2106 2601 0
-678 -1973 0
-2832 -1848 0
-1225 -5 0
-1351 853 0
3005 427 0
1796 -1336 0
994 1956 0
-2556 -3141 0
2605 1234 0
-760 -29 0
465 -2288 0
-1736 401 0
625 1051 0
1511 105 0
-42 1839 0
-9 642 0
644 380 0
2085 1929 0
1378 1891 0
2945 -1825 0
-1493 3024 0
2211 -3018 0
-931 -818 0
-3085 3118 0
2881 1926 0
-1876 -1547 0
1648 -174 0
-2988 2222 0
-830 490 0
1872 -522 0
2342 2957 0
977 -2457 0
2586 2704 0
-447 -1716 0
-1261 2194 0
1158 -648 0
1142 2152 0
1601 -3098 0
1740 288 0
-1321 -570 0
367 -1729 0
-1422 2107 0
1066 1779 0
1038 -2732 0
1215 2130 0
1860 -527 0
2821 -1211 0
1871 2505 0
926 -924 0
-1396 -2000 0
-3074 63 0
1248 -2105 0
-1761 1570 0
-2522 2182 0
1847 937 0
-236 2949 0
-1951 2320 0
-2604 -939 0
1204 -799 0
1877 -1078 0
1467 1908 0
-1477 1389 0
-1448 -340 0
-239 -2359 0
598 -818 0
141 -1780 0
-2890 3 0
2809 -1187 0
2628 2696 0
1711 -690 0
-1485 -466 0
2601 2666 0
-1573 237 0
-868 198 0
2320 1091 0
-1326 -429 0
-332 -562 0
-661 674 0
-90 -1018 0
-1590 330 0
41 -132 0
-1206 -2160 0
3074 1688 0
-576 -386 0
-128 1733 0
1275 1514 0
147 -394 0
2714 -939 0
2626 -2681 0
-2147 -2840 0
2579 2695 0
-563 -224 0
-1739 1740 0
40 -1554 0
1801 2821 0
2961 1672 0
-2147 -3026 0
-2484 1619 0
66 2458 0
-2917 1194 0
1996 1518 0
-810 489 0
-2778 -1246 0
-1821 1404 0
1363 3107 0
1043 -1689 0
-485 572 0
-1703 -409 0
-2973 -1869 0
-415 684 0
-1151 -1815 0
-195 -1503 0
930 -2849 0
2002 -2735 0
-305 1739 0
-107 -2927 0
720 -2141 0
1060 3107 0
306 2659 0
2804 1923 0
-1286 157 0
-2656 3119 0
-1709 1910 0
-840 -1693 0
2214 -446 0
2507 1925 0
1652 -1162 0
984 -2220 0
-1221 486 0
-249 2645 0
-440 1447 0
1269 1902 0
2493 -1874 0
2314 2154 0
-1636 2737 0
-1786 23 0
2928 -2644 0
417 -1360 0
-3129 246 0
805 -2476 0
-172 878 0
27 2626 0
2844 -715 0
-2184 -1739 0
507 1833 0
1020 3016 0
1690 -1174 0
2751 1426 0
804 -747 0
336 -333 0
-628 -2342 0
2635 2176 0
2427 708 0
632 -277 0
-1801 -2910 0
368 2043 0
1181 -1284 0
2905 1633 0
-911 -2848 0
2355 2936 0
2129 1340 0
3091 -464 0
1396 -2449 0
-1564 1045 0
2067 -2010 0
-1396 1278 0
2782 138 0
1925 -934 0
2611 1903 0
-905 914 0
278 -1111 0
-1024 -579 0
-132 -284 0
929 2685 0
-2155 335 0
-678 1554 0
169 -2646 0
756 1912 0
949 3120 0
1860 2496 0
54 1796 0
893 2574 0
-2039 2620 0
-1952 -867 0
-1301 1419 0
66 -1571 0
-1633 2 0
1713 768 0
-1062 2959 0
2390 1839 0
-2547 -219 0
-563 -20 0
1662 -1051 0
-3076 -2252 0
-2048 -410 0
-1688 -2466 0
-1585 3094 0
601 2526 0
-1615 1350 0
2123 1536 0
3124 -1681 0
319 -2438 0
-2475 -2898 0
1378 -2382 0
1496 3104 0
-1144 2530 0
-2347 285 0
1352 -2607 0
3139 2326 0
-255 -1231 0
1507 2548 0
-2475 3053 0
-9 1498 0
-334 -1420 0
650 -1793 0
-59 2188 0
-854 2023 0
1446 -294 0
-1874 2290 0
3073 89 0
778 -2660 0
1537 -1694 0
-39 -3008 0
1233 -1491 0
-3050 -3059 0
-2223 -2842 0
-693 1543 0
-286 -2368 0
1918 2705 0
-52 -2088 0
-399 -1964 0
-1106 1858 0
-2578 -66 0
-1532 -3148 0
-447 -1433 0
-1714 -2864 0
2528 -1541 0
2889 2782 0
-1922 -2743 0
-1222 -2024 0
61 -3085 0
-179 -1643 0
1299 -1572 0
1801 861 0
1202 2923 0
-2016 -799 0
2032 1022 0
-876 2922 0
2477 -1652 0
-984 -827 0
2362 631 0
1885 -874 0
-849 -2008 0
776 -2206 0
2677 300 0
-2367 -841 0
-1038 -1886 0
3104 -2692 0
2779 128 0
-2252 3025 0
-1452 -2380 0
-1919 -483 0
-2682 -919 0
2890 1434 0
-3160 2802 0
-2416 238 0
-1812 -1887 0
-513 56 0
1314 2622 0
968 2312 0
-1452 2178 0
-825 -2329 0
-2106 2255 0
2300 -596 0
-537 96 0
1267 818 0
156 1943 0
-905 -70 0
-783 -981 0
857 1793 0
-2676 -1861 0
-1113 -2234 0
-883 1444 0
2288 1647 0
1212 727 0
-540 -284 0
-2545 -976 0
-2046 -1717 0
1120 812 0
167 -1932 0
566 1899 0
-1684 2027 0
-1783 2853 0
-411 2740 0
-609 -600 0
-2296 3058 0
-2064 -2423 0
-259 469 0
1758 3093 0
-1135 2281 0
1667 373 0
-692 -1179 0
1370 -1765 0
2663 -956 0
-1416 1752 0
1320 -1696 0
3128 -2652 0
2137 -2504 0
-1078 -2364 0
-290 2950 0
-3046 400 0
-437 -2208 0
-2716 -2991 0
683 2427 0
-2123 -2466 0
1901 2554 0
2305 2539 0
1987 102 0
-2626 -181 0
-352 -1608 0
-1924 -428 0
-452 2800 0
-1162 -1069 0
-2871 -776 0
281 1352 0
306 -2324 0
2966 2029 0
-1561 -727 0
-312 2968 0
1065 3087 0
114 1895 0
1668 -2297 0
-3037 3130 0
2826 3006 0
-2121 1840 0
-447 1996 0
148 -91 0
-2205 -1155 0
-577 1624 0
-2518 1646 0
-1791 -428 0
-3116 -317 0
2743 2168 0
-481 2608 0
193 -740 0
-1255 -106 0
-2358 -2546 0
1810 -587 0
2080 1823 0
-1194 2371 0
-715 519 0
-210 -2810 0
-686 -621 0
-3110 1757 0
-2338 599 0
-2969 -1948 0
2010 86 0
-1559 -2435 0
-755 609 0
-1506 -1605 0
-1499 318 0
1304 -324 0
-2223 2931 0
-2110 911 0
2858 -1128 0
2944 3087 0
2154 1294 0
-701 -850 0
-2279 847 0
2635 -1488 0
397 1886 0
1602 2719 0
1587 2911 0
-1390 2015 0
656 2241 0
-394 2210 0
1800 169 0
1534 -3137 0
1080 254 0
2640 -2530 0
2291 2473 0
886 848 0
-2783 2 0
-999 -2511 0
2817 91 0
1999 752 0
1222 -426 0
-1724 1294 0
-1948 -2625 0
-2578 2318 0
1472 2910 0
2291 1405 0
-1151 -1528 0
127 1568 0
175 345 0
-1578 1674 0
2191 -1455 0
1783 -777 0
-1319 2337 0
2422 -2431 0
-2987 -101 0
-589 -2517 0
1472 885 0
-428 2757 0
1324 1522 0
3025 -1413 0
3112 -2160 0
958 -2627 0
-3049 1133 0
-2244 1165 0
570 -115 0
2777 -3112 0
235 2373 0
2803 -1321 0
-284 -611 0
-437 285 0
-2899 1607 0
1307 343 0
-375 -825 0
-2784 -879 0
-39 2832 0
2742 1444 0
3145 -2157 0
2776 -68 0
-1981 347 0
2194 -1455 0
-1099 -391 0
1420 -657 0
-740 -432 0
-2687 1185 0
2060 -3162 0
-1962 2667 0
1892 1530 0
-836 1908 0
2889 -1930 0
2660 -1783 0
856 112 0
2645 695 0
700 -1040 0
-270 547 0
-1049 2123 0
-105 -1297 0
2477 -687 0
-616 -1942 0
2051 1899 0
377 -2310 0
-1234 1480 0
3031 2576 0
2697 -269 0
307 2500 0
-996 -963 0
361 -736 0
-694 2004 0
2249 2643 0
2803 -208 0
1243 1011 0
-399 -2709 0
-714 -1747 0
-2800 -3089 0
-1030 1047 0
-2795 -2325 0
-1355 1161 0
1042 2473 0
2652 176 0
-2009 -720 0
1117 706 0
-2164 1654 0
-1350 -1296 0
-2590 1763 0
-1611 -1658 0
729 2673 0
-635 -1612 0
-3021 -887 0
-1510 895 0
713 -309 0
2548 415 0
-1916 -989 0
-1548 2949 0
2311 1489 0
-2021 2367 0
750 2588 0
982 1903 0
-2805 -460 0
-975 -1450 0
1116 -522 0
-1401 -337 0
3067 -1829 0
-976 1826 0
917 -1463 0
2215 893 0
-2108 257 0
-2178 3093 0
-44 84 0
2480 -1210 0
-668 997 0
-2946 2858 0
-2970 -3037 0
-1742 -1341 0
1735 2208 0
151 965 0
2225 2657 0
1917 -3080 0
2208 680 0
2374 -2156 0
-36 -1581 0
-82 999 0
2878 1498 0
-846 2064 0
2022 2140 0
1111 -16 0
-2350 2701 0
-654 228 0
-1848 -107 0
1233 2349 0
-111 -2128 0
2647 -2477 0
-1176 -1108 0
569 -2578 0
899 -2163 0
3085 -334 0
-3022 -1525 0
290 1734 0
-924 -1612 0
-242 -558 0
1796 1213 0
596 -2655 0
917 3008 0
1337 1111 0
117 802 0
863 -336 0
2640 2710 0
-2160 2722 0
682 1512 0
-343 -1949 0
-2116 -2549 0
-2552 -20 0
1967 1205 0
272 -2629 0
-647 221 0
562 -845 0
-1436 335 0
380 735 0
-1663 2187 0
1502 -317 0
-787 629 0
2778 -1974 0
1981 -922 0
2761 2212 0
-1277 -256 0
708 -918 0
1390 -1626 0
2659 373 0
2234 -2840 0
863 -3089 0
501 1861 0
-1226 -1176 0
1699 1282 0
1599 -1466 0
-2616 -2715 0
-2025 1451 0
329 1784 0
-1782 -3110 0
-2496 -1415 0
344 -2419 0
-2461 907 0
-377 -2196 0
1287 -952 0
-1985 3033 0
874 -199 0
2698 -1796 0
-553 -2491 0
1498 168 0
-1761 -219 0
-2402 1600 0
1601 492 0
201 -3042 0
-2229 2940 0
-13 708 0
641 1118 0
-581 727 0
-2774 -2979 0
-1759 -1336 0
281 3107 0
613 2180 0
-2016 -2669 0
2845 1834 0
781 -2792 0
1301 -2731 0
-2023 1300 0
-707 -199 0
-1505 -2681 0
-1056 -1808 0
3040 -3138 0
-244 1206 0
-964 1126 0
1044 2309 0
1005 -824 0
2638 -1710 0
1193 1436 0
1711 396 0
2593 1271 0
-1184 1399 0
-886 -931 0
328 -1177 0
-90 -20 0
-1139 -105 0
-316 -331 0
-2768 -1274 0
-1414 -1418 0
2851 -658 0
-1382 -1038 0
-2316 2250 0
2670 -656 0
1112 -1027 0
2360 -1688 0
-1058 -110 0
1932 -262 0
2103 -132 0
1020 -359 0
460 -2608 0
1291 -1057 0
-2092 197 0
-1268 1029 0
2690 700 0
-2237 511 0
2176 2841 0
1817 -34 0
-1465 2460 0
1999 -1192 0
256 -3086 0
813 2757 0
3016 -2454 0
-914 3035 0
-2688 -2129 0
1192 2056 0
327 1199 0
3107 -1101 0
2890 -2996 0
1779 -2167 0
-2320 136 0
19 -2600 0
-935 2635 0
-552 -657 0
230 860 0
333 1749 0
-338 -1778 0
1428 -1076 0
-913 2777 0
1170 -903 0
806 3119 0
-2822 -1881 0
-872 1280 0
-2310 -3030 0
-464 -1437 0
1804 -2943 0
1181 2123 0
331 -2996 0
804 1844 0
-2987 1630 0
1578 -2926 0
1996 -688 0
-470 -548 0
1541 490 0
-485 -2205 0
2712 435 0
2415 2188 0
2488 -140 0
-2054 2401 0
-2987 -710 0
564 -1134 0
-1259 2643 0
-772 3083 0
-965 -346 0
-2293 2147 0
710 618 0
-1143 1549 0
1088 1622 0
831 768 0
-449 2267 0
2802 -973 0
213 2191 0
-64 1269 0
-2822 -2964 0
232 -2541 0
2977 -2607 0
410 1418 0
-628 308 0
-2105 3099 0
-451 -2271 0
246 1889 0
-753 1533 0
-872 2940 0
1926 2247 0
2416 -606 0
3125 -1680 0
-1605 -153 0
2821 -2594 0
2388 -1123 0
3124 2882 0
-1499 645 0
-1672 -782 0
-1372 1617 0
-213 155 0
1769 -1335 0
-1948 -2901 0
-2882 252 0
-2987 -3082 0
-2653 -511 0
-187 519 0
-2924 -686 0
-1842 2034 0
-44 -2888 0
-165 -928 0
1406 2932 0
-867 -41 0
-962 1314 0
-582 -2155 0
1615 -854 0
-483 2300 0
2404 -2606 0
2568 -2748 0
1392 3120 0
-1573 1207 0
-2399 1668 0
1785 -3043 0
-1664 3062 0
2842 -2419 0
993 -1344 0
2635 1314 0
-2556 -1566 0
-2157 266 0
1211 1655 0
1753 -2314 0
2182 936 0
1562 -1895 0
1119 -795 0
-1027 1317 0
-446 1885 0
1783 -2546 0
-950 2507 0
-144 1785 0
1389 2883 0
3056 -815 0
-478 -1577 0
3106 439 0
818 809 0
3007 -1089 0
157 7 0
-1799 1927 0
475 289 0
-2744 1422 0
-2125 397 0
433 2180 0
1877 257 0
-2746 2963 0
-1281 277 0
-769 -3126 0
-2870 -2909 0
114 -2430 0
1875 -3081 0
2832 -1243 0
-499 -777 0
2859 -1833 0
148 -2976 0
-718 3108 0
131 1732 0
-916 -2942 0
-281 2300 0
-2820 -1605 0
2126 2750 0
1752 -2633 0
289 -2184 0
-2052 -214 0
78 1138 0
-1031 -79 0
-867 -2155 0
1595 1632 0
1419 1192 0
-930 1037 0
-986 -2862 0
-2627 1790 0
-1281 1197 0
-602 -307 0
-1924 519 0
2349 387 0
1202 -2547 0
-2008 -3060 0
-2200 -2316 0
-2021 705 0
-947 2441 0
2092 2955 0
-36 2533 0
858 -3037 0
-1446 1334 0
2393 -1555 0
513 -924 0
-1509 801 0
1641 -1848 0
-1493 2191 0
375 1684 0
-566 2448 0
86 -2884 0
-648 179 0
1138 -2016 0
-779 2204 0
-2352 -1323 0
-1586 2339 0
412 -1117 0
397 3032 0
350 663 0
-1506 -220 0
2078 -2868 0
-2598 1119 0
3024 -3027 0
-2803 -756 0
2731 2027 0
-78 -1792 0
1709 986 0
2635 2240 0
2896 -2655 0
2468 1003 0
391 1377 0
1835 -1012 0
-2163 338 0
-2852 -2097 0
2987 2382 0
-2735 133 0
-567 2679 0
-1038 958 0
-1513 -334 0
-2257 -1471 0
597 1976 0
666 1773 0
601 -2541 0
948 -1764 0
-431 -1476 0
-1428 3046 0
-552 -1491 0
-2348 2017 0
967 -1960 0
1971 -753 0
2815 -1106 0
-409 -139 0
-1965 -743 0
527 1481 0
2941 -1329 0
-566 2383 0
-403 2312 0
2549 2428 0
1731 3067 0
-334 2486 0
2933 2600 0
-681 2260 0
-1576 -2048 0
1450 2474 0
-2770 513 0
-1832 1375 0
1855 124 0
1945 -616 0
2350 1527 0
-2933 1367 0
-1738 2213 0
2957 2818 0
-510 637 0
-111 515 0
-3158 -548 0
1998 -1428 0
-2492 -1538 0
2235 2060 0
-2449 1992 0
2755 128 0
1384 -1486 0
-2392 -2062 0
-2843 -1011 0
-820 2258 0
325 3153 0
-776 -1679 0
2941 2290 0
-184 1051 0
-728 2368 0
2284 -268 0
-2274 -1566 0
1197 3000 0
-2036 3082 0
-2698 -1420 0
-1337 -2773 0
-918 1563 0
-2535 -2319 0
460 -825 0
2806 -2488 0
938 699 0
-3071 -90 0
-314 1033 0
2286 -2637 0
-2709 248 0
748 2373 0
-491 2166 0
1680 2286 0
911 2017 0
-2419 69 0
2055 334 0
1701 -2340 0
2984 -1413 0
308 -2837 0
962 1023 0
-2856 2764 0
1800 -904 0
-2232 -549 0
-1702 -3093 0
-82 84 0
-2352 -1563 0
154 -1265 0
2029 2909 0
2385 -774 0
-835 1592 0
-2519 -588 0
-1528 -432 0
-459 2697 0
1461 -1665 0
674 -2629 0
-2655 -1789 0
-1917 1946 0
3080 -1276 0
-937 2751 0
1901 -1879 0
-1399 780 0
-364 -1276 0
460 471 0
937 380 0
2047 -639 0
-535 2199 0
-2969 2872 0
1704 -974 0
1757 -2763 0
-374 -2877 0
1536 -1910 0
-2081 -234 0
-273 64 0
2265 -1301 0
288 -791 0
440 1674 0
-8 1690 0
561 -561 0
1614 -1113 0
880 2347 0
-163 2613 0
550 -2611 0
-1076 1414 0
3005 2361 0
-2192 2613 0
638 -729 0
-1107 -1682 0
176 -2168 0
-1542 1859 0
-153 -1577 0
2088 2162 0
1208 -662 0
-2128 -1671 0
-2271 -852 0
-1038 -1205 0
-1815 -2085 0
1820 -1573 0
486 1836 0
206 2540 0
2766 -2446 0
1207 -1462 0
3139 -1135 0
-2018 1407 0
-571 2304 0
-1113 863 0
-1868 -1985 0
-1107 -2907 0
-791 -1814 0
46 1523 0
2260 -1019 0
-565 -1110 0
-567 -2881 0
-1339 1790 0
631 -791 0
-2283 -2252 0
-1761 -450 0
3054 -2139 0
-146 -2329 0
766 1527 0
-1680 -758 0
-712 -2134 0
2094 -1611 0
-1960 1703 0
1149 208 0
391 2323 0
3049 816 0
-2918 1918 0
2247 232 0
180 1356 0
-52 1481 0
-134 1975 0
381 1239 0
-2900 1629 0
-2074 -1630 0
-2471 1115 0
-2783 -1285 0
-2443 -1991 0
-223 664 0
778 2069 0
-2809 234 0
-1423 3001 0
2507 3124 0
3134 156 0
-2851 -145 0
-2960 1808 0
2450 1073 0
350 1609 0
-3020 -349 0
-45 -1150 0
-950 2219 0
-2400 1007 0
1008 1117 0
-1215 811 0
1806 -1396 0
-2683 -3148 0
2662 -508 0
-3076 -2054 0
1076 275 0
-316 -1689 0
1498 -884 0
3112 572 0
2123 -568 0
2383 3121 0
1595 2661 0
2972 3033 0
-214 -558 0
-2340 1836 0
-2186 -940 0
-412 -2199 0
2892 790 0
-2121 1116 0
-1816 2215 0
-1479 260 0
506 331 0
1576 -896 0
1164 647 0
-1582 -1902 0
2063 3072 0
649 2944 0
-1867 -3127 0
518 2819 0
-3029 3122 0
-483 627 0
1076 2130 0
1051 -2898 0
1731 -616 0
-1081 -750 0
-2935 -2982 0
-2117 -1183 0
-72 1549 0
-1524 -2374 0
3155 472 0
-2387 -2437 0
1115 -687 0
-2407 -681 0
-1145 2453 0
-1873 1995 0
2624 -1821 0
-3143 -2141 0
167 1743 0
227 -3028 0
-92 194 0
-2639 -1790 0
2430 -1173 0
-2508 801 0
915 2078 0
-1781 2769 0
541 -1944 0
-2534 -393 0
-2951 2317 0
-504 3097 0
-757 -1930 0
-602 -1303 0
2027 -1085 0
-801 783 0
-1960 -2704 0
1718 -2106 0
-254 2114 0
2083 -1357 0
-1371 -1818 0
918 -2681 0
447 -2504 0
2663 -14 0
741 1225 0
1469 -713 0
1664 923 0
-1772 1873 0
-2285 -3023 0
111 -1203 0
-788 -527 0
1044 -2814 0
-2453 -2857 0
2019 1998 0
740 -2979 0
-1957 501 0
-630 -554 0
-2465 524 0
1958 -675 0
1609 3104 0
436 1071 0
-2828 -2432 0
-1782 2372 0
1784 -1062 0
-1722 556 0
1559 -1177 0
-2961 1838 0
-2125 3016 0
-2219 1419 0
2645 -420 0
1880 -3083 0
-2395 -1201 0
-78 2695 0
443 -2638 0
2660 2920 0
-361 -2051 0
-222 2210 0
1700 -2642 0
-2937 -1540 0
1497 -1387 0
652 -2462 0
-1163 1111 0
-1016 -1991 0
1337 1467 0
-185 -191 0
577 1285 0
1124 -2407 0
919 252 0
-1163 -1930 0
-2682 -690 0
406 -1654 0
-1598 -2562 0
-998 3113 0
-3076 -1635 0
-9 637 0
544 -1268 0
-1350 2294 0
-1831 65 0
-2669 -841 0
2318 1367 0
281 1671 0
810 200 0
-2605 -1182 0
-110 1370 0
1068 1753 0
1079 -1390 0
-2837 -1842 0
-2283 1277 0
-1890 1421 0
2961 1769 0
-2096 2540 0
-894 -2051 0
-2830 1064 0
-261 -1116 0
-1140 -908 0
-511 -3127 0
-2171 -2606 0
654 -1714 0
2175 -1347 0
-1371 -1777 0
-2569 -755 0
164 -2096 0
-346 7 0
-1916 1640 0
-1791 -3096 0
1208 -3127 0
-790 -2430 0
-1288 -1691 0
1182 -2545 0
-1941 2268 0
-652 464 0
2922 3139 0
394 -689 0
-1103 3117 0
3081 -2463 0
2034 808 0
-1130 -719 0
-2476 -2053 0
1655 2611 0
-1678 1054 0
-2237 -2654 0
-988 2970 0
2754 1851 0
3044 517 0
2306 2807 0
138 1290 0
-1134 -1219 0
1844 3052 0
1778 -884 0
-1540 -2702 0
87 -2463 0
680 262 0
48 -629 0
110 2697 0
2189 -136 0
-2462 -2301 0
-931 1247 0
442 1152 0
-3016 613 0
-1534 -2554 0
1154 -2644 0
-2520 99 0
-852 1391 0
2264 2613 0
-3000 -1792 0
-1290 -294 0
1271 1864 0
-82 -848 0
-1495 1315 0
2365 2335 0
-991 898 0
275 2207 0
2397 -2773 0
2354 -10 0
600 -1826 0
-1534 1858 0
1702 -2099 0
-626 667 0
-2363 -2246 0
-2855 2162 0
-2959 -1456 0
697 886 0
1124 1509 0
646 -1594 0
-2788 -899 0
2973 -2870 0
-174 -2253 0
-1602 -14 0
2557 1339 0
-2143 -1902 0
1426 -2278 0
2118 -2871 0
390 -1707 0
-1556 -451 0
604 -346 0
-1713 2028 0
-2649 -2008 0
-1292 842 0
-746 -389 0
32 -1123 0
-79 -2489 0
-2647 -992 0
1464 -2141 0
2695 1190 0
-862 -1460 0
23 1479 0
440 1959 0
-1105 -1358 0
1375 -17 0
-1495 -139 0
-2442 1120 0
948 -332 0
1728 3103 0
-1479 -523 0
-1488 -2641 0
-1788 2787 0
-579 -2763 0
-1358 -935 0
-1463 2027 0
508 1931 0
-2582 1685 0
-1883 1872 0
-1513 -839 0
901 2122 0
-2220 459 0
-3128 1705 0
653 349 0
2389 3143 0
2463 45 0
2600 2787 0
-434 -1206 0
-352 2951 0
-2174 959 0
977 537 0
2848 -2021 0
3116 992 0
-2904 1417 0
1376 1779 0
2180 1387 0
-1179 607 0
-243 -1477 0
2560 2307 0
-1833 1112 0
-658 1243 0
-662 149 0
-2307 -1010 0
-2457 2767 0
2751 -1913 0
15 3011 0
-1275 -561 0
-2202 -3162 0
-1293 -39 0
2210 597 0
1623 -1248 0
-445 89 0
-36 -470 0
-1660 -2549 0
2861 3157 0
3046 1492 0
3054 -111 0
-2974 -1125 0
-1679 56 0
-99 -742 0
296 -1984 0
-2646 -2451 0
46 -352 0
-1590 723 0
2195 34 0
639 1097 0
1225 1958 0
-1796 3031 0
-1583 -425 0
2039 819 0
-770 377 0
-1551 662 0
-2363 -185 0
1762 -483 0
554 1582 0
-999 1683 0
-2351 -3034 0
-626 1648 0
-879 -1664 0
945 2988 0
2243 2557 0
2422 2485 0
-1026 971 0
-2831 2030 0
-1729 2592 0
-1645 -3051 0
2331 -929 0
2285 -739 0
-2974 2321 0
-1246 -975 0
408 -22 0
-1267 1475 0
-1381 -2222 0
598 132 0
1773 662 0
-606 3036 0
-1600 -1000 0
-1819 2773 0
2304 1546 0
-1500 1629 0
-1916 2905 0
2696 503 0
-245 1304 0
2702 -740 0
2037 -350 0
2519 -2675 0
-1660 605 0
-520 1625 0
1590 222 0
-628 -573 0
2816 -817 0
-268 -74 0
-226 -2196 0
463 -2807 0
-1603 -2609 0
197 -2420 0
2936 -364 0
810 -25 0
-2376 -2684 0
-1628 -289 0
490 1579 0
-2411 1389 0
747 1684 0
-582 2032 0
-579 1568 0
1614 1380 0
684 2289 0
106 -1008 0
-2232 -2406 0
2414 -1485 0
-414 -643 0
-2181 1952 0
1218 -1832 0
-1570 -1516 0
-1772 272 0
-1011 -1045 0
-1648 1946 0
-1735 2939 0
-817 2604 0
486 -2698 0
-1203 -861 0
1611 1382 0
-2664 2187 0
749 250 0
2358 703 0
2248 487 0
-1749 -1143 0
-2759 -1027 0
-2717 -302 0
328 871 0
2507 2734 0
1054 1116 0
1868 -854 0
2092 -731 0
2367 -1696 0
1518 -1593 0
1529 -1233 0
-2302 2190 0
-833 617 0
-792 2358 0
-2289 -2024 0
-1414 2403 0
-1395 -2205 0
-2764 2263 0
1083 2444 0
-2099 -158 0
-1425 1852 0
936 -2578 0
-543 2439 0
-2688 1356 0
819 2634 0
-456 -546 0
2411 1986 0
1073 -2228 0
3066 2937 0
639 -371 0
-1362 1268 0
-267 682 0
2439 1619 0
-2648 -679 0
2173 3097 0
823 1213 0
2433 2941 0
143 1481 0
-2141 2172 0
-778 -258 0
-448 1135 0
847 -1410 0
1291 391 0
-1199 2974 0
-63 2220 0
2655 1729 0
2302 1535 0
392 2802 0
419 -3088 0
2986 2673 0
2335 1315 0
2391 -758 0
1330 -784 0
1277 1803 0
-1855 752 0
1704 -1902 0
-52 2330 0
-405 -357 0
-742 -1274 0
2835 -1435 0
-2259 124 0
1375 -2869 0
-1646 -416 0
2743 -229 0
-17 2165 0
-2000 2433 0
3032 -2761 0
-81 307 0
-2793 2626 0
-3152 831 0
3084 -1345 0
363 -888 0
486 -2196 0
1511 -2374 0
610 -2787 0
2031 1325 0
-92 2168 0
-584 2657 0
-992 -72 0
1779 1994 0
2779 -1919 0
2674 2509 0
1223 2126 0
2941 1722 0
530 228 0
-90 911 0
2683 -2045 0
-1979 -2820 0
-715 -3140 0
1388 1810 0
226 625 0
-2589 1562 0
-360 2673 0
-2302 -2688 0
2281 -2681 0
-799 -1707 0
1102 2865 0
1601 1609 0
1931 -681 0
-2402 676 0
-1084 -1308 0
2398 -2253 0
-1372 -2700 0
-365 2804 0
-1071 -824 0
2363 -1255 0
-1791 -2422 0
2689 2848 0
-264 1288 0
1116 -2228 0
-609 2450 0
2425 1092 0
-2469 1332 0
-1347 914 0
684 2968 0
-2325 385 0
-2315 2564 0
108 1921 0
3039 476 0
-1600 -779 0
1780 2634 0
-111 1750 0
1482 -635 0
-1296 508 0
-2128 -1127 0
-2040 -688 0
-2751 2930 0
2966 2221 0
-1445 -2488 0
-1840 3076 0
2845 495 0
1337 -2302 0
-2846 -478 0
2610 -766 0
-2515 222 0
3080 561 0
861 3001 0
1074 654 0
1258 -2451 0
2061 -2673 0
-1428 2635 0
-831 -667 0
475 528 0
1469 2622 0
-1671 1932 0
1598 1334 0
-2228 -2547 0
-2591 -461 0
1702 2447 0
866 87 0
-391 -571 0
669 332 0
1575 -1078 0
-3160 465 0
2992 -413 0
-2200 -2244 0
349 -1331 0
-1883 -2355 0
2022 518 0
2800 -1786 0
3013 -1736 0
-1838 620 0
-2625 -1326 0
1926 1476 0
-2310 928 0
858 -2204 0
-3106 1610 0
1796 833 0
-424 -1529 0
-234 127 0
-1153 2270 0
-1997 -1350 0
2027 2906 0
182 -1638 0
-311 -51 0
1386 -720 0
-553 -1269 0
231 1902 0
-391 -796 0
60 -1080 0
3063 2443 0
-1667 1721 0
-456 -3122 0
2565 -1172 0
830 2172 0
859 -982 0
122 -1386 0
-3162 -1563 0
723 -2838 0
2376 1762 0
486 96 0
-916 -341 0
1535 2902 0
-1380 -258 0
1483 -3140 0
-806 339 0
-3046 1571 0
412 2941 0
-3044 -38 0
182 100 0
-2864 -1247 0
-953 7 0
-1247 -231 0
307 1020 0
-883 434 0
-2502 -2661 0
-2494 629 0
-757 -589 0
406 -1589 0
1644 -3080 0
-659 1566 0
-1570 1817 0
189 -2795 0
-1861 -1110 0
-1377 221 0
-692 -1237 0
-47 -2483 0
804 -2906 0
259 -2778 0
-2121 1938 0
-2457 -2368 0
136 2403 0
-2474 601 0
-670 -1931 0
-648 2146 0
-1056 -2445 0
-1849 1397 0
2257 -2392 0
-966 3025 0
-709 -1027 0
-234 -1198 0
-854 1029 0
-1979 45 0
607 -2121 0
2020 128 0
2092 2917 0
3130 670 0
2932 -1246 0
1847 493 0
-1113 -241 0
415 -1680 0
830 -701 0
2989 1298 0
-2743 -1225 0
-2850 -520 0
-2050 2130 0
1314 -2728 0
-1132 -3009 0
2774 -1471 0
437 2485 0
2566 1492 0
-521 -1805 0
-855 363 0
-661 -3017 0
-75 -3025 0
538 1285 0
-1367 1480 0
2825 1318 0
-998 2769 0
1399 2362 0
1926 -309 0
1543 -2252 0
819 25 0
-1774 -1129 0
2487 -1565 0
-791 814 0
2315 -2939 0
2148 262 0
292 428 0
1651 -2956 0
1093 2705 0
-1555 575 0
-2007 -1550 0
-810 1653 0
279 -2743 0
-1626 2104 0
2656 -1615 0
-763 3030 0
1283 -794 0
-1739 -2701 0
-2529 2738 0
-834 707 0
1429 2017 0
-695 -2841 0
-2449 2004 0
-2050 -79 0
1418 -502 0
217 -1043 0
-806 -334 0
-591 -2444 0
147 -1126 0
-212 -2881 0
-62 112 0
-2455 -1038 0
-2051 -142 0
3080 1976 0
1390 2713 0
2779 -1632 0
667 -2910 0
-1482 533 0
748 119 0
201 -835 0
-2729 2625 0
-1961 -1144 0
1867 -2299 0
2457 -835 0
3128 1563 0
-2624 -1486 0
-2155 -2810 0
-1247 -1612 0
-461 -221 0
2989 -3058 0
566 -172 0
2187 1601 0
-2377 1563 0
-751 -461 0
-1198 -274 0
602 -719 0
1241 2017 0
2006 3071 0
-1956 1979 0
272 2099 0
-3085 -3096 0
814 1662 0
1695 -1127 0
2944 2288 0
-122 -827 0
666 25 0
-3145 2816 0
328 1317 0
880 914 0
-1531 1106 0
3078 27 0
1806 -618 0
-1566 1517 0
2588 -151 0
122 1285 0
-1691 370 0
-989 -1141 0
468 -1163 0
-20 1565 0
2284 2358 0
1571 2011 0
-1357 1108 0
-2352 -3047 0
2869 -2200 0
-2186 1325 0
-467 -939 0
-3037 -1287 0
1844 -2767 0
-1470 -907 0
1229 -1714 0
3159 -1410 0
-1418 -1727 0
1582 1485 0
2331 -2542 0
-767 -2679 0
1091 -674 0
-1607 1686 0
-605 318 0
42 1703 0
-862 -2552 0
-1118 -2799 0
-1337 1330 0
-2253 1183 0
-448 2680 0
1084 -1576 0
-282 -889 0
-2112 -1 0
-939 1083 0
2874 -195 0
-1853 -2394 0
-2038 -790 0
-1939 -2478 0
-1833 182 0
-269 2435 0
681 -1796 0
2260 778 0
-1379 1562 0
-1084 -368 0
-1125 -892 0
2225 1205 0
-396 1806 0
991 930 0
-1714 1875 0
-63 -2196 0
2220 1744 0
194 -1251 0
1684 2812 0
-1213 1808 0
97 534 0
256 -1081 0
2407 -905 0
-3134 -935 0
816 829 0
-2787 1749 0
-1716 -3059 0
2787 -1104 0
1635 -1797 0
2123 1387 0
-338 2219 0
1189 2981 0
-1930 -2288 0
1900 -1759 0
-1344 -595 0
2624 573 0
-536 2092 0
-988 87 0
-1038 2654 0
1539 498 0
991 2143 0
-846 1350 0
-583 -2519 0
2774 3016 0
3000 1012 0
2747 -2793 0
2404 793 0
2567 69 0
40 -1389 0
-2167 -121 0
-276 2580 0
-1100 330 0
2404 -2438 0
-1982 1174 0
-923 -3159 0
600 -527 0
2757 -2972 0
-69 -2207 0
-3022 241 0
-210 -364 0
1950 2346 0
-2562 2992 0
2215 3045 0
1370 -2254 0
1138 586 0
2546 4 0
2081 -922 0
321 2894 0
506 -624 0
-2013 -2555 0
2893 1009 0
2802 889 0
-2792 1908 0
-1876 -425 0
-1759 2879 0
2759 404 0
1895 -2922 0
1891 -2223 0
1932 1890 0
882 -2303 0
60 626 0
69 1227 0
-2231 -688 0
1908 -21 0
-1233 -2819 0
2968 -2866 0
-1360 -1765 0
-2236 -2590 0
-1565 231 0
-41 1862 0
2341 518 0
-1906 -2561 0
-1421 -1587 0
-163 -2476 0
-1263 -2856 0
-2735 712 0
162 1901 0
-2717 -228 0
2179 -457 0
-209 -2490 0
-1507 1073 0
-2035 1417 0
2168 1608 0
634 -2974 0
2721 -2549 0
368 380 0
-417 -542 0
-565 1550 0
-2997 -2227 0
1324 2278 0
1481 -1765 0
1569 -2401 0
-2109 -2941 0
-125 2652 0
-2023 2832 0
2210 -2107 0
1603 -2050 0
-3107 -337 0
1494 1007 0
1160 1162 0
2516 -2038 0
2479 907 0
-1668 2463 0
1269 -409 0
-1072 1119 0
-2774 447 0
2514 439 0
163 -55 0
3155 -771 0
1596 1331 0
-566 -1723 0
3114 3056 0
35 -2444 0
422 1419 0
-842 2528 0
-184 1366 0
-1307 1370 0
2489 991 0
-1210 -249 0
-1813 -463 0
401 -102 0
5 1340 0
-247 949 0
2511 -2287 0
1489 -2969 0
-872 582 0
-1475 -2525 0
2439 -1540 0
-1266 -2405 0
1162 1742 0
-2097 1686 0
2463 468 0
545 433 0
1502 -1973 0
-2470 -2897 0
310 2211 0
254 -9 0
2593 -1586 0
-1289 -2638 0
-2950 -1795 0
-2043 -1832 0
2698 -2907 0
-3028 -2276 0
2445 1999 0
-2070 2764 0
412 791 0
2253 -1231 0
1462 2311 0
-2559 3004 0
724 1166 0
1227 1863 0
958 -592 0
3055 2727 0
-520 220 0
759 -2756 0
284 1147 0
-1237 -202 0
-3112 169 0
1306 2815 0
2833 -1779 0
-3093 1489 0
2181 2723 0
2948 347 0
1517 -651 0
2669 -652 0
-212 -403 0
533 -1648 0
886 853 0
2500 -2208 0
474 1327 0
1434 1368 0
-2292 -661 0
-782 -752 0
3155 -2057 0
917 -2291 0
1938 -212 0
1146 2886 0
2526 940 0
-944 746 0
-2476 -2231 0
1160 899 0
1633 2957 0
-1996 1045 0
1483 -2481 0
1265 -2288 0
601 1743 0
-3010 -280 0
1111 -2827 0
-1627 1872 0
-1482 -1491 0
-2571 -3043 0
-2750 -409 0
-2520 -1495 0
-1706 2091 0
1465 -1303 0
517 1851 0
-425 -2923 0
1864 729 0
2355 -621 0
-1471 -270 0
989 -2683 0
989 -2928 0
-752 -1409 0
374 306 0
-2239 1258 0
-3050 737 0
-402 -1723 0
-2206 -340 0
1549 -2231 0
-1856 2195 0
1082 -681 0
327 -1964 0
-2230 2424 0
1761 1192 0
2882 -1924 0
3139 -2714 0
40 -1668 0
2917 782 0
1934 -16 0
-2010 2568 0
-526 1701 0
2140 152 0
2758 2537 0
-1273 -1437 0
-2945 2364 0
1059 -2779 0
2400 -1303 0
810 1204 0
-944 2493 0
-2184 -2185 0
-1301 2826 0
-1660 1446 0
-2511 -2397 0
400 1885 0
484 -1035 0
-2287 3148 0
-2095 89 0
1475 1350 0
-2631 3014 0
-20 1833 0
1538 -840 0
2714 2213 0
1020 1407 0
1134 1525 0
-1603 1066 0
-652 1266 0
-530 1880 0
3012 -1276 0
455 -3133 0
-2223 171 0
-1514 158 0
-919 1383 0
-464 -1141 0
-3152 2003 0
2557 -1465 0
2553 889 0
-2132 2349 0
-2260 3016 0
-1910 -150 0
289 -20 0
2174 1347 0
407 458 0
1600 1028 0
452 -41 0
-2682 -2840 0
-2898 2630 0
-909 2458 0
-2525 -2870 0
-743 1157 0
-163 1451 0
1926 2621 0
856 -929 0
1872 -2233 0
-49 -1187 0
2905 1077 0
574 -2928 0
208 -1342 0
-1660 891 0
491 -2415 0
1462 -2253 0
2008 -2585 0
-681 -940 0
2428 1804 0
1069 -963 0
-1618 1396 0
918 570 0
-409 1593 0
-584 2499 0
-448 2163 0
2291 2454 0
1629 2557 0
-2252 1724 0
-2744 -2187 0
170 978 0
-2325 405 0
-2315 -443 0
2320 -2570 0
-293 -924 0
315 -895 0
110 2119 0
-344 1599 0
-1707 -3102 0
-1538 77 0
-1748 1688 0
2176 -1960 0
1183 -1228 0
1691 955 0
2649 1444 0
2370 -845 0
-1719 -614 0
3094 307 0
-952 -1049 0
-1885 2452 0
410 -172 0
-2017 837 0
-2252 -2195 0
-1661 -1038 0
2623 870 0
-874 174 0
3119 2031 0
1642 1310 0
-219 -2474 0
-2090 -1586 0
2895 -2658 0
2445 -394 0
1661 608 0
493 -884 0
-2252 2040 0
112 742 0
-2433 -573 0
757 -968 0
2541 911 0
661 3072 0
-333 -1018 0
1696 933 0
-208 1408 0
2347 -2863 0
-2063 -1922 0
-568 876 0
-2966 1749 0
128 1390 0
-597 -1031 0
328 2678 0
2503 -127 0
2212 -1204 0
-2169 -215 0
-554 1994 0
-1919 -549 0
3011 -2362 0
1036 -849 0
2459 2373 0
-2102 2041 0
-2652 -1379 0
-2155 43 0
-1336 -803 0
3038 1166 0
350 1793 0
1197 1314 0
2970 -1687 0
700 449 0
-2045 1514 0
2043 1468 0
-2104 -2543 0
1 -2686 0
1890 -2792 0
400 2449 0
-2905 2176 0
1111 -776 0
-316 -1131 0
-1840 1664 0
-264 649 0
1380 817 0
-2042 2210 0
-1538 -975 0
1637 -3076 0
-1936 -1288 0
2651 -3058 0
-606 -1395 0
-2454 2172 0
646 -2392 0
-1710 1979 0
-1363 -205 0
1005 3160 0
-821 -2066 0
-1314 -280 0
621 1279 0
1115 -813 0
744 -1500 0
-2430 -1840 0
-1813 -2050 0
-1719 -1676 0
-1881 1204 0
1746 -679 0
-865 1732 0
85 2381 0
-772 2448 0
-90 1864 0
1102 2643 0
2079 -2687 0
-3028 -14 0
-1483 -1144 0
-1994 -618 0
-3152 -1118 0
2847 -713 0
-2678 -514 0
-394 377 0
3123 -835 0
-3156 -372 0
-1962 976 0
1658 -1127 0
994 3073 0
-326 -2282 0
1385 -505 0
-1222 -1059 0
-2728 -2669 0
-630 -544 0
1611 1914 0
2198 1808 0
-1441 1271 0
2223 -2883 0
3141 338 0
3112 126 0
192 639 0
1062 1462 0
-2074 314 0
-965 2776 0
-1552 -2709 0
1405 242 0
-1664 596 0
2700 3079 0
525 -2491 0
-2606 -2806 0
-769 -944 0
279 723 0
2160 -1913 0
-1321 -103 0
941 -55 0
-1640 -600 0
-246 -2138 0
-624 -3026 0
508 -2174 0
-2051 -924 0
554 2673 0
2938 637 0
-845 1601 0
124 -844 0
2434 -1388 0
-769 823 0
889 -1680 0
1553 1236 0
2226 2955 0
-1576 1132 0
-2273 -2310 0
1432 -2333 0
1806 1115 0
1753 1028 0
-2561 -2843 0
-2688 -248 0
2434 -2876 0
1995 1842 0
-59 -64 0
-2103 -1857 0
-1825 -3132 0
-1954 271 0
-899 578 0
1075 -3162 0
-1951 1852 0
-2382 -1057 0
758 180 0
-1024 1915 0
-523 265 0
-3133 1341 0
-2201 -267 0
2521 -193 0
-1047 -3015 0
-1857 1039 0
2366 -2842 0
697 133 0
838 2233 0
-3057 572 0
-1135 2276 0
649 1409 0
-2861 -2472 0
2817 -1646 0
-2649 608 0
2887 1210 0
-1197 -2259 0
847 -62 0
804 -2709 0
377 1267 0
-2348 674 0
-688 2097 0
484 1232 0
1508 -1251 0
2332 -39 0
2737 2737 0
-868 -338 0
-1905 -239 0
-2090 -1744 0
169 -2342 0
-2567 -581 0
-2387 -1973 0
2634 -211 0
914 376 0
597 -2448 0
2936 -97 0
200 2069 0
-2705 2736 0
1252 -146 0
975 -3085 0
540 -1313 0
1621 -1530 0
-351 -1636 0
-964 -1570 0
2114 -1035 0
-1488 408 0
-1802 2562 0
-1299 443 0
-2792 2241 0
1892 1735 0
-1910 -970 0
-2064 2476 0
2944 -2627 0
-62 -491 0
1632 -27 0
423 -2790 0
-1442 -599 0
-2658 -974 0
1571 -233 0
2646 -916 0
264 -1411 0
1217 1703 0
-1136 2178 0
-1876 1504 0
313 -1512 0
2784 -234 0
-2935 -2589 0
-1583 2626 0
-1380 2152 0
-1366 -2974 0
2088 2142 0
-2652 -2223 0
-2499 -407 0
489 -1250 0
-2765 -705 0
-1230 2260 0
-1775 2026 0
-620 -2949 0
-1415 -1840 0
-2025 -2778 0
2725 442 0
1491 -2518 0
3025 1512 0
-458 330 0
-636 2780 0
1819 -1857 0
-2601 2034 0
-1441 -1954 0
1858 -44 0
-2333 2540 0
-255 1300 0
2962 1703 0
-1863 -2021 0
3027 -1981 0
852 2817 0
-1036 -3131 0
2146 -2263 0
2331 -553 0
1551 1811 0
231 -528 0
317 2911 0
266 1745 0
2349 -2742 0
-90 -172 0
-3100 -1711 0
-584 2040 0
2711 -459 0
-688 -502 0
-2342 -2103 0
-2279 -1201 0
-1752 -1650 0
1810 -1708 0
700 1055 0
2803 971 0
-1502 1998 0
1434 1867 0
-823 -2980 0
-2669 -3159 0
-2392 2600 0
2829 -2055 0
1432 2799 0
-1233 2802 0
-1677 2485 0
-2646 -1100 0
-597 -1712 0
2272 -1857 0
-2079 -1883 0
-2045 -1022 0
1861 1005 0
3130 1214 0
-328 -151 0
1090 1866 0
2762 -1558 0
1170 -1581 0
2030 1273 0
-273 -2534 0
-3023 1234 0
2468 -2726 0
-2038 2894 0
18 1530 0
623 664 0
-925 -2496 0
-2777 -2426 0
2900 -707 0
-435 2027 0
-1508 2047 0
1334 -540 0
-1154 1919 0
824 -800 0
2765 -590 0
-320 306 0
-289 -173 0
2892 2590 0
-2543 2872 0
-171 753 0
-1558 1516 0
2496 1740 0
-1747 -1156 0
869 1153 0
863 1457 0
-981 2226 0
-714 1544 0
-2622 2442 0
-592 548 0
-422 -1865 0
512 2493 0
1274 -1025 0
-2275 403 0
314 2573 0
272 -2484 0
303 -1489 0
-2565 -862 0
1472 225 0
2905 2693 0
-1403 -2164 0
-2430 -311 0
-1678 380 0
-2728 959 0
2920 1203 0
-1677 -1335 0
-908 1516 0
-1203 -277 0
-1627 3062 0
-1952 -2046 0
-2426 3110 0
-883 -1788 0
-2432 -1720 0
1515 1971 0
-1544 252 0
-2868 -3154 0
1132 1023 0
300 1390 0
2386 -1607 0
-2472 -1395 0
-426 364 0
-1037 -51 0
-2729 -2888 0
2381 -2441 0
-2360 -614 0
2582 2019 0
1990 221 0
-1110 -561 0
-2211 -913 0
2989 2823 0
658 1901 0
-2923 -1454 0
1341 -630 0
1973 1208 0
757 404 0
-2287 -254 0
2654 417 0
608 2207 0
859 1243 0
-2484 -1447 0
62 -2748 0
3146 -449 0
2869 -1951 0
-579 -2495 0
-295 1990 0
-2676 284 0
-792 -1911 0
-525 -425 0
-2649 -345 0
2001 1785 0
512 297 0
-1095 -1041 0
-1539 -44 0
1514 1817 0
-929 2269 0
-905 -3156 0
1732 -2311 0
-416 -2808 0
-3146 -2079 0
-3008 1744 0
-1948 -900 0
-3022 562 0
-2743 -2811 0
-733 1759 0
2808 -348 0
1950 -2759 0
445 -395 0
1859 -467 0
-2939 -1034 0
-2147 170 0
-1584 -1919 0
634 3140 0
162 3143 0
-1495 2158 0
121 -2113 0
-2431 2911 0
1108 522 0
-1003 -648 0
-1865 1816 0
1497 -2452 0
-135 3033 0
-478 327 0
1353 920 0
-2681 -905 0
1651 -536 0
-2058 2584 0
-404 -619 0
1208 -382 0
1391 -2826 0
2984 349 0
-2674 -304 0
-1727 2794 0
1227 680 0
1917 1745 0
2025 2019 0
-2514 -127 0
-1572 2263 0
341 -3114 0
1264 -1999 0
-1992 993 0
2364 2265 0
-269 2745 0
505 2867 0
-1585 2950 0
-208 1990 0
3067 -2895 0
593 627 0
2995 -2248 0
-28 -1391 0
145 -2217 0
2873 -370 0
-2076 -845 0
-2900 1415 0
-36 1416 0
-2851 848 0
1 625 0
-2792 -2918 0
2303 -1832 0
453 -701 0
-273 2485 0
-36 1793 0
30 -2192 0
-383 197 0
2453 -2904 0
-291 1301 0
-2944 2530 0
2067 -1917 0
-1003 -397 0
573 -12 0
-30 685 0
-1156 -1281 0
-2291 -3051 0
2120 2903 0
2471 1380 0
-2584 1964 0
344 2487 0
-2921 308 0
-1369 1977 0
487 1938 0
-2314 2212 0
-1661 -1755 0
1023 -2856 0
2591 -1011 0
1181 -1549 0
-2239 -2949 0
466 1940 0
-238 -742 0
-3073 -424 0
962 -3140 0
-2830 -982 0
3073 2950 0
-1051 -1175 0
-2375 -1979 0
19 -841 0
-711 2129 0
986 -2051 0
-2535 -635 0
3118 1508 0
-1165 -2975 0
2484 -726 0
967 1255 0
-395 356 0
-924 -1436 0
-18 1115 0
-2532 2592 0
-2709 -2272 0
2919 1060 0
-2748 -1100 0
3063 1665 0
488 11 0
-887 1585 0
-2265 1364 0
-141 -1848 0
576 818 0
1009 -2229 0
226 3039 0
2422 1481 0
560 838 0
1912 -1635 0
-48 -1618 0
-1812 -1365 0
-1259 -1228 0
-3064 -2835 0
3081 1859 0
71 2351 0
2171 631 0
1390 418 0
-2485 -2478 0
-1881 -2062 0
572 2544 0
1447 -523 0
2614 2752 0
-1046 3041 0
-2191 -1376 0
2069 2221 0
2014 1862 0
-93 1755 0
-666 2420 0
2860 -1075 0
-640 2485 0
-2496 130 0
3135 -364 0
-1811 2355 0
-896 -524 0
-1223 -2446 0
-1606 356 0
699 566 0
-999 2571 0
-1717 -860 0
2125 -1308 0
-553 -2494 0
2597 1358 0
676 -1072 0
136 3116 0
-2266 2585 0
1244 2875 0
2272 -111 0
-3123 -1623 0
-2967 -2451 0
929 1131 0
-2090 2870 0
1194 1720 0
1496 702 0
2986 29 0
-2347 -1943 0
731 1647 0
2368 -373 0
-241 532 0
608 1669 0
-1549 572 0
-1856 1852 0
-791 1818 0
-1723 2354 0
-2801 345 0
2531 1543 0
1266 1231 0
-1179 761 0
2334 -1645 0
2673 -2256 0
2468 284 0
-577 1040 0
32 -473 0
1364 -214 0
-3028 3070 0
2707 720 0
-792 1470 0
-2389 -2671 0
-555 -2717 0
-1711 -2414 0
1747 2213 0
2806 -2454 0
1641 2826 0
228 -2638 0
1656 -340 0
722 2728 0
-2182 345 0
3075 1312 0
-1096 -2316 0
-1502 -1519 0
1811 -114 0
-3137 2486 0
679 -1188 0
2976 -322 0
759 -2171 0
-1573 -2439 0
-2349 -2581 0
1928 -3115 0
583 1944 0
-1284 -367 0
-2839 -2374 0
331 760 0
-2564 1402 0
-876 -2881 0
-595 -2517 0
260 -1888 0
2463 721 0
-1168 1588 0
-1335 -1262 0
-336 -1474 0
-823 2388 0
1167 422 0
-1363 495 0
3071 -2514 0
3087 819 0
-1202 1604 0
1334 -1848 0
-2262 869 0
1258 2724 0
2566 -2984 0
2001 -2637 0
-1346 -2067 0
3007 -350 0
-1528 2481 0
-949 1893 0
-934 1142 0
-1371 -2953 0
156 -1127 0
1663 2757 0
3000 3124 0
-560 -378 0
-2933 601 0
-2645 2643 0
-2437 2789 0
-2502 1820 0
1671 1971 0
2168 179 0
2787 1638 0
3093 1377 0
-2160 2344 0
-1527 -1884 0
278 -811 0
2708 671 0
-431 1970 0
1575 3113 0
2223 1698 0
-1157 216 0
1462 1736 0
-2513 469 0
-850 -306 0
1475 -1495 0
-1813 -395 0
-294 -561 0
-480 1976 0
-2547 -321 0
517 484 0
1871 -961 0
2676 -2051 0
-483 333 0
838 2707 0
188 -1391 0
1783 -1984 0
-2608 -2157 0
-2822 1764 0
2872 2839 0
-2635 1364 0
2872 -2680 0
227 2978 0
1560 -568 0
-372 934 0
19 -408 0
-3021 -832 0
2597 -347 0
-1107 48 0
-1874 1357 0
-510 -2630 0
-2116 -3129 0
2089 257 0
-20 -419 0
1273 -1076 0
3 -247 0
2361 1700 0
973 -573 0
-943 2677 0
-2549 487 0
2266 -3127 0
-1424 -2217 0
469 -1600 0
310 -2280 0
1072 625 0
1037 988 0
2202 -573 0
-2721 1218 0
396 -1015 0
2679 -1082 0
-1727 1642 0
-1298 281 0
1361 453 0
-1898 -2193 0
3097 -1798 0
2528 1014 0
204 -861 0
585 415 0
-2412 2427 0
3055 -855 0
2749 847 0
2887 -508 0
-156 489 0
2469 -2171 0
795 -240 0
-3161 -151 0
1010 -2428 0
-2252 2878 0
1817 2195 0
773 249 0
1810 644 0
-1078 -1493 0
1972 2828 0
1891 -2998 0
-2330 -2945 0
-906 2962 0
-1775 1681 0
-1031 2187 0
-218 400 0
307 1805 0
-1760 1205 0
580 385 0
1992 -2484 0
15 2787 0
-1608 1454 0
1006 3056 0
-1966 1995 0
1525 -2004 0
3066 -706 0
775 -852 0
1392 3063 0
2371 2024 0
-2293 -992 0
-1157 1263 0
2154 2984 0
2434 -2240 0
-2794 -1019 0
-1015 113 0
2487 1440 0
1092 2479 0
-2226 -2193 0
-926 -1819 0
-2016 -1687 0
-1255 -2323 0
-473 1569 0
-3014 -2542 0
-2490 -770 0
-1238 1858 0
-2704 3154 0
-2956 2012 0
-2251 1369 0
-97 554 0
1410 -896 0
-1608 -2424 0
-2440 -2968 0
1820 765 0
2248 -656 0
-2043 151 0
-2153 -2274 0
-1192 1316 0
1928 -1969 0
1877 -2715 0
-1371 1105 0
54 2161 0
850 1818 0
-976 -56 0
1445 778 0
1302 1619 0
1653 1536 0
1063 -1865 0
-1002 -847 0
-2603 -1673 0
-1775 -2689 0
-1643 -2143 0
-2482 -429 0
-2759 -77 0
2737 2276 0
-2071 -992 0
284 -196 0
-517 -2380 0
-940 1812 0
489 -1796 0
2801 1340 0
2419 -1449 0
-2746 -1637 0
553 1422 0
-92 2108 0
1568 2008 0
-1056 1611 0
-2572 -1621 0
987 3030 0
-1435 536 0
-3100 1863 0
1213 -677 0
1497 -569 0
-214 -1319 0
1197 2197 0
-1268 -2298 0
-109 -2909 0
664 2113 0
-76 -2138 0
506 2212 0
360 2067 0
2261 -409 0
100 -1459 0
339 -1307 0
-2004 1304 0
2369 -2080 0
-109 -714 0
3019 716 0
1266 -704 0
-2294 -675 0
1632 -1856 0
-2255 1542 0
-2343 2727 0
-2649 11 0
-524 -887 0
2499 -1156 0
-810 2776 0
1789 1552 0
2795 -1113 0
263 -921 0
-376 1330 0
1904 -2647 0
1876 1619 0
-824 -2101 0
-3071 -2436 0
-2222 1705 0
2653 -1636 0
-338 2483 0
700 -281 0
-1181 -41 0
-2686 649 0
-708 855 0
869 1749 0
-1344 -3074 0
3024 1973 0
-2785 -219 0
-2193 1467 0
3140 1839 0
-965 -827 0
-2933 2564 0
439 -1830 0
-1136 2810 0
2695 1005 0
-685 99 0
-875 44 0
-337 -1156 0
1700 -2345 0
1917 -2742 0
-1236 2905 0
-2548 1937 0
2731 802 0
-390 2671 0
2177 960 0
-2398 1805 0
-54 2745 0
1374 -2757 0
-1652 -129 0
1373 574 0
1989 144 0
784 2663 0
993 -2589 0
1929 1138 0
1311 370 0
1534 -1702 0
1887 -2738 0
1160 1202 0
2924 -3148 0
2908 363 0
-2891 1080 0
-785 2255 0
-887 -3108 0
2753 1040 0
3043 2983 0
2620 775 0
-878 -3051 0
1418 -900 0
-22 209 0
-684 -134 0
1661 2166 0
2368 -330 0
-1084 -2729 0
287 2446 0
1394 1078 0
-526 2213 0
2372 956 0
2295 -2814 0
-3008 -502 0
-324 -2755 0
-1413 -2545 0
-2294 -1334 0
-2659 815 0
1216 -2400 0
-2306 1994 0
115 -2186 0
1931 -184 0
-931 -403 0
1326 -595 0
387 931 0
-579 -1326 0
905 -2475 0
-2684 -575 0
2978 373 0
-1953 2804 0
498 299 0
-2571 971 0
-1654 -1774 0
-2371 -2465 0
2184 1854 0
-1046 -964 0
1846 789 0
170 -1536 0
-3123 -2744 0
-2100 -919 0
-324 -548 0
1772 2858 0
-676 -2444 0
2144 611 0
-2076 2413 0
-1781 2506 0
-1225 -1643 0
2461 -1853 0
2246 -679 0
-2525 -2842 0
-1849 -3076 0
-2120 -1826 0
-648 -175 0
2184 -1150 0
1213 -2868 0
2551 -2583 0
2828 1349 0
-595 -2186 0
-3158 493 0
-1231 -1491 0
158 2762 0
2656 -1533 0
1525 1623 0
-988 -2277 0
2836 -2846 0
-1663 1165 0
-951 2403 0
-2465 -305 0
2739 1749 0
3073 -944 0
141 -1826 0
-1951 -1212 0
-2143 126 0
-952 720 0
-2949 -448 0
1372 978 0
-347 1905 0
-270 -864 0
-593 -2388 0
1210 977 0
-2394 122 0
937 1048 0
-1425 -1842 0
2782 -3018 0
2145 2876 0
-2498 -3066 0
-1386 -1148 0
-1357 2873 0
1831 -1371 0
-1825 -417 0
-2803 -1572 0
1565 1864 0
-1935 2557 0
1996 -1024 0
2734 2093 0
2457 2760 0
2595 -278 0
-1485 2740 0
1578 -2583 0
-115 2586 0
-447 748 0
-963 -472 0
-296 -121 0
1208 179 0
2750 -1382 0
-2828 2371 0
-2001 801 0
-36 -2209 0
-1551 1119 0
-566 623 0
-2355 -2982 0
-1515 -2980 0
2559 2163 0
174 -811 0
-2742 1686 0
-1332 -1479 0
-2360 674 0
-809 1983 0
-197 1718 0
362 1406 0
2757 3079 0
1332 -1352 0
-1217 1994 0
-402 2037 0
-3122 108 0
-678 -462 0
-2998 -884 0
-2615 -2953 0
-497 2947 0
3074 -235 0
457 -2584 0
-432 2188 0
-115 -2769 0
-2929 593 0
-629 297 0
-656 1315 0
2500 1008 0
2989 -844 0
-612 -2942 0
43 -3109 0
-2110 -2521 0
-1465 2371 0
724 2232 0
-2154 -972 0
2565 -1319 0
860 1147 0
2619 1058 0
-2066 -2103 0
1304 -827 0
-2642 -1971 0
1635 -1049 0
1597 308 0
-1943 -1189 0
-1376 121 0
-303 2246 0
2850 2908 0
-2096 -2440 0
