c NF
p cnf 957 1436
751 210 0
-290 -32 0
-448 -482 0
-780 -632 0
583 -667 0
100 344 0
-431 781 0
892 -237 0
509 356 0
638 -545 0
305 883 0
628 348 0
952 -2 0
355 353 0
-413 607 0
-642 614 0
-390 476 0
807 -547 0
878 623 0
911 779 0
361 785 0
850 -412 0
-374 395 0
-901 -560 0
-379 -678 0
-222 -622 0
-832 622 0
-620 -365 0
874 -622 0
163 -163 0
704 223 0
69 488 0
288 794 0
-494 -644 0
-507 320 0
-780 -648 0
583 -437 0
-799 818 0
-103 -590 0
36 917 0
248 -64 0
-576 373 0
-366 -585 0
-630 -591 0
-942 -660 0
-544 245 0
91 -955 0
-526 102 0
-538 511 0
820 -109 0
613 -866 0
-937 -414 0
362 13 0
-232 729 0
260 -140 0
265 -877 0
-212 920 0
-768 575 0
259 146 0
558 -117 0
198 -293 0
-439 584 0
-823 -829 0
652 334 0
-268 -295 0
27 -772 0
-159 -297 0
231 -332 0
-77 -914 0
769 -281 0
784 -608 0
-933 581 0
314 -242 0
410 285 0
369 -717 0
322 -841 0
-884 -214 0
-622 -877 0
-840 -843 0
-612 878 0
-461 477 0
949 -646 0
-133 9 0
464 170 0
596 778 0
920 -843 0
-26 921 0
-176 523 0
800 -109 0
-389 -427 0
771 345 0
62 -530 0
-516 -699 0
-77 60 0
30 -863 0
332 644 0
-23 -885 0
-933 217 0
248 480 0
-514 -900 0
577 523 0
340 751 0
-191 302 0
648 680 0
414 -852 0
-636 -659 0
-312 -254 0
-867 92 0
-736 632 0
-764 -228 0
523 -751 0
-81 875 0
127 -362 0
895 808 0
-579 450 0
908 11 0
226 -514 0
-757 -682 0
80 -496 0
-438 -861 0
793 452 0
2 388 0
-651 41 0
304 -622 0
197 245 0
-277 -14 0
872 -542 0
314 237 0
650 426 0
183 584 0
954 -310 0
-154 -624 0
313 52 0
-149 -588 0
-161 724 0
-953 -270 0
-363 -580 0
172 339 0
-731 -722 0
-16 -955 0
909 606 0
-421 -917 0
-937 -360 0
-383 628 0
-336 247 0
456 624 0
-451 -512 0
195 426 0
-220 -644 0
11 -953 0
815 -617 0
-495 -945 0
219 491 0
458 -414 0
-186 264 0
719 197 0
-140 -95 0
-53 194 0
77 -774 0
175 -220 0
531 -952 0
482 675 0
808 -329 0
194 -658 0
795 -833 0
-886 -21 0
229 264 0
-452 -956 0
503 -438 0
-261 -613 0
367 -661 0
-396 54 0
331 429 0
113 -938 0
-839 314 0
-268 708 0
41 -783 0
362 353 0
-647 -487 0
379 702 0
615 -189 0
-766 465 0
-207 -843 0
645 274 0
-47 157 0
287 -894 0
-180 277 0
445 -932 0
-460 624 0
-616 -805 0
764 821 0
-6 876 0
-590 728 0
-85 178 0
-536 -6 0
-366 -320 0
418 -842 0
369 -779 0
-695 63 0
-183 -481 0
-117 600 0
543 -394 0
-290 -261 0
80 -725 0
75 944 0
656 -872 0
-278 -850 0
-675 154 0
-589 -21 0
-312 472 0
-884 475 0
876 -869 0
810 -805 0
-455 59 0
-309 688 0
-71 411 0
-106 896 0
789 231 0
-444 -922 0
-197 295 0
-930 182 0
-564 -805 0
462 -501 0
631 196 0
932 584 0
-115 -760 0
-628 423 0
-357 636 0
-191 845 0
-192 708 0
641 588 0
616 257 0
689 -26 0
305 596 0
442 -745 0
518 163 0
107 231 0
-191 882 0
727 129 0
300 -887 0
870 -171 0
93 257 0
-267 716 0
-563 427 0
300 -945 0
-14 427 0
-714 -953 0
546 -87 0
-458 -394 0
14 373 0
85 942 0
-551 -321 0
-830 750 0
581 100 0
65 544 0
-254 -241 0
469 -133 0
570 24 0
224 400 0
39 -188 0
117 -120 0
-545 -255 0
-678 -48 0
-753 236 0
-851 -416 0
630 190 0
444 -438 0
-337 902 0
-222 911 0
656 -801 0
-620 -292 0
949 -810 0
-836 -782 0
96 -275 0
247 702 0
666 -130 0
897 634 0
197 -420 0
-838 -402 0
-754 777 0
-459 60 0
-429 -85 0
279 -617 0
515 -526 0
500 -424 0
-509 59 0
432 501 0
310 684 0
739 255 0
-230 -641 0
-488 831 0
286 -366 0
65 -206 0
-755 -813 0
-403 31 0
-600 732 0
-212 23 0
106 199 0
-212 4 0
154 916 0
-686 -228 0
-110 218 0
941 -680 0
708 -695 0
882 521 0
162 783 0
-793 138 0
83 -462 0
388 15 0
-641 -684 0
-469 471 0
122 142 0
-557 32 0
32 141 0
833 611 0
-399 -809 0
156 -564 0
-679 257 0
-631 -456 0
-458 44 0
272 537 0
331 -794 0
652 260 0
854 -101 0
912 934 0
-184 -822 0
-234 -344 0
627 -293 0
-940 -584 0
75 -507 0
-618 -599 0
315 -65 0
614 -583 0
-895 -556 0
756 553 0
-84 447 0
491 638 0
56 -71 0
-306 -822 0
54 58 0
91 445 0
380 758 0
120 3 0
-714 -576 0
377 -374 0
450 -578 0
-27 -267 0
-735 -296 0
758 -322 0
-338 763 0
-685 151 0
86 701 0
394 -812 0
427 -725 0
-451 175 0
381 492 0
171 902 0
-192 -161 0
76 573 0
-301 241 0
-150 -7 0
708 395 0
-455 352 0
586 723 0
-132 -667 0
410 102 0
-779 -208 0
-484 -227 0
-557 179 0
-589 859 0
122 151 0
526 -444 0
548 -819 0
-97 900 0
312 -309 0
-924 631 0
767 890 0
-951 495 0
322 -386 0
533 954 0
346 -592 0
495 16 0
386 -750 0
-531 941 0
-588 749 0
58 371 0
-277 -830 0
-759 -439 0
258 52 0
-21 -332 0
-786 895 0
558 144 0
216 113 0
-287 -516 0
555 -903 0
-712 -42 0
865 -787 0
-630 -205 0
-452 186 0
937 -772 0
-936 447 0
-294 948 0
-12 581 0
542 821 0
132 1 0
-33 -507 0
262 65 0
-272 -861 0
215 -273 0
-651 -772 0
-133 -955 0
-917 284 0
699 -259 0
477 372 0
-737 -413 0
727 -504 0
-258 -615 0
-796 -942 0
-104 272 0
-414 -803 0
-501 67 0
-762 -309 0
-644 -914 0
-299 133 0
53 -219 0
10 590 0
-225 -793 0
79 73 0
-527 -407 0
724 -115 0
723 -21 0
855 -875 0
913 -550 0
394 -942 0
888 607 0
-41 -29 0
369 99 0
-660 -787 0
-119 -175 0
58 -233 0
434 774 0
-25 728 0
-138 442 0
317 -547 0
-546 157 0
-448 -709 0
-422 -41 0
-743 609 0
-780 -695 0
-591 -853 0
-608 -880 0
-188 85 0
349 -400 0
-487 -622 0
659 587 0
37 252 0
-12 -296 0
-177 -836 0
-291 -667 0
-542 803 0
539 226 0
680 411 0
-822 -479 0
-825 906 0
388 438 0
-174 373 0
-422 -320 0
-745 -797 0
-685 -443 0
746 737 0
944 302 0
306 485 0
390 190 0
22 624 0
-55 642 0
760 -362 0
45 -554 0
457 764 0
715 -111 0
-340 -230 0
597 -176 0
60 -223 0
331 -540 0
367 250 0
682 -659 0
235 781 0
800 852 0
348 30 0
110 -921 0
-327 565 0
-560 927 0
183 742 0
322 257 0
899 904 0
406 127 0
-145 -31 0
590 180 0
-811 -913 0
-10 -321 0
342 416 0
430 60 0
46 -343 0
581 -721 0
-818 310 0
-310 295 0
649 420 0
231 128 0
910 781 0
470 53 0
-266 -722 0
656 354 0
315 796 0
751 -529 0
-957 -873 0
-246 134 0
424 162 0
53 -397 0
758 181 0
55 -534 0
-200 -510 0
520 355 0
-903 4 0
865 349 0
243 -461 0
823 911 0
-292 639 0
-281 -233 0
567 105 0
-749 -700 0
-143 358 0
-312 185 0
-490 179 0
-711 -13 0
67 -233 0
-719 10 0
-129 740 0
-298 -49 0
-708 362 0
725 -220 0
665 609 0
-116 521 0
156 -531 0
399 -109 0
860 -679 0
-467 327 0
-133 712 0
522 -119 0
-866 -889 0
-189 -395 0
-323 732 0
-859 625 0
63 -140 0
149 -535 0
-11 -266 0
573 -800 0
-198 593 0
65 -637 0
115 -400 0
-253 880 0
594 -940 0
235 -93 0
-346 -444 0
594 746 0
-531 194 0
-925 408 0
127 -343 0
627 -829 0
-568 -795 0
883 -885 0
901 -148 0
83 791 0
-622 -809 0
-899 812 0
-242 850 0
-696 -450 0
-76 -754 0
905 695 0
742 664 0
-78 854 0
-514 -679 0
717 -161 0
339 -170 0
-684 778 0
-720 682 0
337 -799 0
-616 851 0
-96 512 0
-885 -945 0
-41 -257 0
169 230 0
206 -225 0
302 442 0
750 775 0
694 -263 0
-386 493 0
524 322 0
-467 -206 0
916 404 0
-249 128 0
-283 -545 0
-648 -329 0
-243 -276 0
-776 491 0
759 19 0
402 -475 0
339 -769 0
-800 336 0
-796 -821 0
955 470 0
-859 456 0
548 -840 0
623 308 0
566 -477 0
912 -471 0
483 -698 0
605 -308 0
-393 -335 0
583 -699 0
-329 179 0
55 440 0
264 -282 0
761 -633 0
597 223 0
132 442 0
694 -956 0
482 671 0
-923 497 0
-589 -716 0
-190 688 0
-630 -320 0
63 931 0
-844 -787 0
-795 205 0
374 590 0
305 -678 0
404 -529 0
-827 -487 0
-309 -440 0
-811 -5 0
-809 334 0
836 -937 0
-116 -220 0
-326 -93 0
-822 582 0
-891 701 0
289 386 0
-542 223 0
596 944 0
347 -31 0
767 -595 0
78 -134 0
-164 535 0
818 132 0
-634 -801 0
517 107 0
-129 -145 0
224 -534 0
588 901 0
-365 879 0
567 70 0
-877 -6 0
936 196 0
383 -839 0
-357 -686 0
62 -592 0
480 -241 0
-561 -112 0
603 109 0
-944 334 0
-779 441 0
542 -341 0
897 820 0
-439 614 0
-242 -341 0
-721 -236 0
231 -885 0
376 181 0
824 -276 0
854 895 0
-363 794 0
-278 -880 0
665 279 0
928 -316 0
-635 -490 0
732 -651 0
746 -249 0
-337 185 0
579 -383 0
-255 -508 0
154 -440 0
439 897 0
-316 -945 0
-170 915 0
21 442 0
107 -922 0
-586 724 0
779 408 0
288 -21 0
665 -74 0
-929 729 0
94 -717 0
-75 -864 0
-574 -887 0
893 209 0
-482 336 0
-155 562 0
802 83 0
-553 -659 0
136 77 0
652 784 0
-898 761 0
-47 565 0
647 -843 0
175 -616 0
397 -641 0
62 -779 0
226 -682 0
269 -438 0
-212 -781 0
142 92 0
-225 865 0
-109 -197 0
723 845 0
-197 -812 0
-809 -524 0
661 773 0
732 -284 0
-84 688 0
470 80 0
906 -159 0
-533 -862 0
-261 -932 0
230 219 0
583 -484 0
-620 -580 0
-604 928 0
-632 348 0
766 -809 0
-50 -902 0
-437 -419 0
-749 775 0
-110 -198 0
-532 -863 0
-635 490 0
-50 -328 0
366 388 0
-15 803 0
478 -476 0
-282 89 0
-444 695 0
-865 -736 0
368 -578 0
656 -725 0
-219 9 0
-874 461 0
150 913 0
302 -753 0
262 126 0
-577 417 0
-337 219 0
-836 654 0
463 -799 0
-51 -647 0
-36 757 0
-192 674 0
939 -705 0
-393 613 0
-594 -663 0
-687 -745 0
-675 324 0
-544 348 0
361 941 0
-753 828 0
-884 73 0
-657 -147 0
-795 667 0
115 -653 0
-212 908 0
522 114 0
-714 128 0
810 761 0
-438 309 0
-486 -826 0
56 -129 0
-834 -219 0
424 -812 0
483 816 0
811 -428 0
-431 87 0
-238 436 0
-181 398 0
269 930 0
-766 320 0
-353 167 0
669 -367 0
39 876 0
448 -219 0
-79 -925 0
483 149 0
-362 -158 0
-599 478 0
781 -263 0
-832 -912 0
-149 715 0
563 -104 0
-537 328 0
-111 -652 0
86 -803 0
949 215 0
296 -733 0
515 -683 0
519 -564 0
-414 -863 0
-508 -1 0
45 -615 0
-405 -679 0
-887 -822 0
91 67 0
717 -458 0
-437 416 0
-599 673 0
-147 -229 0
-625 -365 0
666 190 0
-384 705 0
-661 724 0
264 -565 0
243 669 0
-898 -650 0
749 604 0
-188 639 0
880 -766 0
-558 -871 0
954 526 0
-506 -847 0
-158 -890 0
5 -487 0
324 -431 0
207 75 0
306 -890 0
442 847 0
337 927 0
924 -652 0
938 -666 0
58 -842 0
-713 -341 0
-129 850 0
574 -215 0
186 18 0
374 -845 0
-194 -914 0
-6 88 0
314 -722 0
-391 -150 0
459 452 0
606 546 0
804 760 0
-279 -577 0
-533 -494 0
411 -841 0
699 908 0
-622 -184 0
369 -53 0
468 -144 0
-307 -532 0
11 -791 0
-176 -359 0
316 -133 0
-245 272 0
339 -254 0
84 656 0
791 -255 0
879 654 0
-342 213 0
-786 -331 0
-597 -489 0
912 402 0
103 347 0
-616 -656 0
-212 80 0
432 644 0
277 -177 0
546 -383 0
815 -246 0
-449 -383 0
534 -170 0
-430 752 0
372 166 0
433 -600 0
55 446 0
-608 -930 0
573 435 0
-740 -235 0
-332 763 0
-122 733 0
-534 40 0
-37 253 0
792 833 0
-829 -718 0
-217 -774 0
-7 -35 0
276 394 0
664 -41 0
375 908 0
587 295 0
-279 177 0
459 522 0
-12 167 0
-690 -505 0
26 -936 0
870 604 0
800 -791 0
85 -486 0
-137 722 0
614 -27 0
1 512 0
-349 665 0
-425 -652 0
564 -685 0
-502 882 0
-916 822 0
-70 857 0
-955 309 0
-118 -276 0
-44 -957 0
264 574 0
-834 -318 0
-35 526 0
-338 -638 0
-776 422 0
646 114 0
-566 -509 0
-363 104 0
482 -861 0
-762 -647 0
-445 -643 0
664 189 0
283 -590 0
-948 -372 0
177 -559 0
75 -466 0
181 142 0
91 704 0
-194 -471 0
267 285 0
-879 362 0
949 207 0
-23 -782 0
-400 -301 0
-71 91 0
-439 108 0
-829 873 0
-430 311 0
-770 571 0
-265 -466 0
-253 927 0
-769 -770 0
471 245 0
-41 -14 0
347 -787 0
-451 199 0
-504 34 0
-119 -88 0
-934 -346 0
-637 -249 0
-329 -453 0
546 629 0
886 902 0
533 660 0
586 550 0
-17 -696 0
949 500 0
442 348 0
-462 -97 0
333 -281 0
101 -357 0
-812 -493 0
-692 925 0
-99 -555 0
521 406 0
-589 -237 0
-140 -203 0
-290 309 0
-396 642 0
266 -811 0
532 579 0
565 102 0
-340 -474 0
181 -141 0
720 79 0
691 -489 0
827 124 0
-822 -411 0
-174 -710 0
570 596 0
172 -104 0
727 -354 0
824 -357 0
34 547 0
-355 -844 0
-484 -612 0
-428 -887 0
569 50 0
-788 24 0
416 -784 0
722 57 0
539 273 0
183 -930 0
-485 -222 0
-360 -346 0
-540 517 0
636 -510 0
744 -805 0
-876 -182 0
638 910 0
266 580 0
661 -430 0
45 883 0
-819 -820 0
-937 -19 0
-120 -402 0
-4 -504 0
-349 -382 0
941 691 0
-467 -116 0
499 -592 0
642 744 0
472 -636 0
-531 251 0
774 436 0
584 126 0
303 -505 0
272 -544 0
-21 -531 0
-844 -46 0
767 -350 0
883 -451 0
800 -647 0
-187 768 0
339 777 0
-787 -64 0
806 -149 0
-717 -845 0
-844 34 0
-408 749 0
-697 -319 0
196 888 0
933 -188 0
63 -475 0
-252 160 0
63 738 0
-841 65 0
-812 -389 0
642 -112 0
562 -169 0
-788 -288 0
-737 -363 0
-897 -716 0
-816 614 0
603 -307 0
-832 34 0
386 45 0
-77 -207 0
22 683 0
-531 -467 0
144 -239 0
-352 -444 0
-615 137 0
-301 353 0
-851 -65 0
-833 152 0
855 156 0
-316 -631 0
858 234 0
-788 693 0
758 -2 0
540 -886 0
-350 -228 0
521 107 0
-41 -933 0
127 550 0
909 -783 0
-481 -48 0
71 -460 0
-175 -41 0
750 -935 0
278 -843 0
10 -835 0
27 -455 0
194 931 0
462 -578 0
389 -29 0
-687 580 0
-877 75 0
914 -956 0
-881 828 0
708 -191 0
-15 -462 0
-538 -915 0
45 -651 0
-890 -54 0
-551 933 0
-841 627 0
-374 -913 0
932 483 0
-7 -914 0
-71 436 0
-710 427 0
-12 81 0
879 -803 0
515 -341 0
-834 479 0
-305 -869 0
-471 -644 0
-768 150 0
956 939 0
-454 -35 0
-904 450 0
113 394 0
363 -647 0
880 366 0
-937 243 0
605 621 0
248 701 0
-780 46 0
800 -506 0
-599 793 0
581 -263 0
-245 500 0
822 872 0
-929 -288 0
-709 141 0
595 59 0
-8 270 0
-58 298 0
-929 -1 0
550 41 0
777 -822 0
-48 -513 0
230 -130 0
-756 673 0
663 672 0
-203 88 0
565 915 0
406 -297 0
-310 543 0
-26 168 0
84 -74 0
883 -641 0
489 649 0
320 351 0
-501 -895 0
-200 -934 0
-396 -555 0
-192 -251 0
491 -363 0
463 315 0
133 -863 0
628 -411 0
724 331 0
-330 -714 0
-910 -228 0
83 642 0
813 -833 0
163 -360 0
56 62 0
-954 4 0
-54 -187 0
491 -609 0
-935 -206 0
946 102 0
633 533 0
626 -88 0
-48 166 0
-465 75 0
-354 -162 0
-41 600 0
161 -558 0
-865 -438 0
-319 -557 0
-635 -838 0
-567 -817 0
87 761 0
678 -671 0
243 -721 0
-486 -111 0
-615 828 0
325 947 0
-374 142 0
337 302 0
-29 59 0
496 532 0
80 -711 0
64 177 0
-431 93 0
-695 -35 0
-921 706 0
-956 353 0
247 -956 0
721 -187 0
-390 285 0
-106 -74 0
-344 -225 0
-685 -400 0
-918 694 0
252 332 0
582 497 0
-403 -211 0
-276 938 0
165 582 0
729 734 0
-932 -860 0
-244 -812 0
103 746 0
-510 -161 0
554 251 0
-829 570 0
-169 835 0
-47 -600 0
-264 -266 0
-893 -826 0
829 221 0
821 -407 0
415 297 0
201 827 0
296 457 0
-844 951 0
333 -636 0
666 431 0
605 356 0
-31 -639 0
409 -316 0
-195 -556 0
-24 24 0
-230 234 0
-106 -230 0
-150 854 0
-538 470 0
329 -633 0
-798 493 0
522 -117 0
-650 464 0
-20 423 0
-633 -49 0
-109 304 0
-707 941 0
287 -680 0
789 272 0
144 11 0
-684 695 0
-803 -422 0
30 -794 0
-862 422 0
517 -574 0
740 411 0
538 -93 0
368 383 0
855 42 0
615 -300 0
25 -389 0
496 612 0
-853 -421 0
-575 -716 0
-843 578 0
77 213 0
-488 33 0
662 -104 0
-297 45 0
525 732 0
619 245 0
-834 -138 0
-286 900 0
-220 -41 0
190 -446 0
-633 -841 0
818 -783 0
124 -689 0
234 -408 0
-401 -314 0
808 432 0
-429 -290 0
59 510 0
-806 454 0
-413 654 0
662 -909 0
-750 588 0
-111 322 0
-43 808 0
157 -171 0
936 298 0
-709 -112 0
549 -449 0
614 871 0
-550 -370 0
-50 -185 0
448 -455 0
-99 755 0
828 39 0
-125 952 0
-742 -167 0
792 -304 0
-825 -377 0
67 -591 0
-894 -103 0
-727 703 0
245 179 0
166 403 0
606 799 0
-759 139 0
425 -342 0
-232 -903 0
-349 690 0
-457 -647 0
454 582 0
-367 -249 0
775 -523 0
-547 -890 0
840 -599 0
-195 751 0
840 -586 0
801 -591 0
257 -681 0
-848 670 0
274 548 0
579 -741 0
948 -935 0
258 887 0
-179 629 0
757 -448 0
-740 -542 0
377 9 0
-820 -721 0
221 194 0
575 -205 0
149 -444 0
131 -158 0
36 139 0
480 29 0
-306 499 0
63 749 0
-117 177 0
-393 607 0
108 327 0
-173 -929 0
-238 864 0
90 -455 0
-796 320 0
606 490 0
-29 117 0
-444 -332 0
-709 949 0
-663 664 0
-233 -719 0
-637 27 0
476 702 0
-730 -241 0
-744 -859 0
776 -14 0
-454 -876 0
512 515 0
840 -615 0
-335 -750 0
351 654 0
783 -317 0
552 -896 0
3 807 0
485 269 0
-784 368 0
666 333 0
-237 126 0
-420 -420 0
-804 -329 0
12 272 0
42 566 0
-949 252 0
357 231 0
665 -360 0
-648 336 0
280 -382 0
872 605 0
89 -830 0
-607 -98 0
-97 62 0
-33 -115 0
580 -271 0
-753 61 0
-370 596 0
41 -921 0
551 -233 0
-657 -557 0
-423 -507 0
392 288 0
375 261 0
54 -798 0
638 198 0
-916 -55 0
-125 464 0
-935 -145 0
602 333 0
895 954 0
-25 116 0
-208 851 0
-776 512 0
-268 327 0
575 494 0
-229 614 0
520 875 0
-744 -795 0
-91 -237 0
-413 -469 0
457 166 0
688 -742 0
-836 426 0
774 224 0
634 524 0
60 55 0
313 6 0
314 774 0
532 -898 0
363 -564 0
-633 401 0
-313 486 0
-744 44 0
703 352 0
533 79 0
272 -563 0
-293 739 0
167 -164 0
-798 -867 0
96 -794 0
-266 723 0
404 -660 0
-921 100 0
-227 -225 0
-793 28 0
626 247 0
