c NF
p cnf 2305 4610
25 852 0
-509 1179 0
-1713 950 0
-1581 1019 0
-1896 821 0
-884 121 0
-1884 -1047 0
-874 10 0
1321 -1463 0
-675 644 0
-1798 -1574 0
1493 -2295 0
-1590 2215 0
76 -2024 0
1955 965 0
-2121 -969 0
66 700 0
1164 297 0
827 -2177 0
-858 -452 0
226 -1195 0
476 304 0
-455 -1015 0
688 -146 0
2153 1848 0
-231 1586 0
1331 -1005 0
-595 1277 0
-1174 1504 0
-1554 -672 0
874 -2121 0
-1198 1187 0
-1209 1629 0
-611 -228 0
-979 474 0
415 906 0
2239 -2170 0
400 759 0
-31 -2255 0
1016 -362 0
-1707 -2164 0
-127 -671 0
-155 1042 0
-2274 2004 0
-1151 -1237 0
918 -2304 0
-2094 -1927 0
274 -267 0
-106 -1253 0
-2203 -1346 0
-1892 -1311 0
-563 -397 0
1274 -543 0
702 -1270 0
1894 19 0
-1974 462 0
-1625 602 0
-1397 1226 0
2290 -1423 0
1111 1069 0
1649 -295 0
522 -844 0
-2102 -1839 0
-708 617 0
-1882 960 0
-470 -2092 0
1486 -220 0
-1367 -1601 0
1209 1746 0
1123 565 0
1054 213 0
-1835 -1202 0
807 903 0
736 2082 0
-1948 -780 0
170 -193 0
535 -2079 0
1509 -705 0
509 1469 0
750 65 0
239 -663 0
1317 1291 0
-941 356 0
-303 1507 0
-357 -1487 0
-944 -1601 0
1936 -1176 0
2246 1850 0
-2003 1165 0
-2258 2196 0
1095 1439 0
-1538 590 0
430 -704 0
1504 -1484 0
301 2165 0
-445 -112 0
917 845 0
-359 605 0
-219 -688 0
-806 2206 0
1880 1190 0
2297 2157 0
-383 1967 0
1832 1794 0
-1153 119 0
1069 543 0
-550 555 0
1222 836 0
617 248 0
-2200 -1696 0
-113 476 0
1724 277 0
220 -648 0
1675 -1572 0
-2175 1217 0
-2078 272 0
1651 -850 0
352 1397 0
-1335 -1136 0
-106 -749 0
-2114 -2190 0
2160 2127 0
365 1969 0
741 1731 0
720 2265 0
-1222 784 0
-1851 57 0
-566 961 0
-315 -461 0
-1809 2068 0
-1100 807 0
691 7 0
1106 1645 0
-700 1563 0
227 -1600 0
422 1715 0
1289 1917 0
-1229 -144 0
174 1584 0
-1659 1729 0
-1030 2075 0
1057 695 0
-120 2186 0
40 -2025 0
1678 2233 0
1889 1053 0
467 -1283 0
-1752 119 0
528 -255 0
1293 -912 0
-2254 -2152 0
1389 741 0
-984 310 0
-384 -508 0
-165 -1684 0
-850 2206 0
1826 1148 0
1616 -70 0
-109 2151 0
2207 -19 0
2142 848 0
829 -1710 0
-887 -727 0
915 1586 0
-1570 -575 0
1503 24 0
1635 827 0
-1440 1837 0
2136 -78 0
-2086 -131 0
-1877 -2247 0
1098 2190 0
682 775 0
-39 2005 0
57 -1173 0
1769 2301 0
1002 -406 0
1467 2195 0
788 1661 0
1641 -410 0
2006 940 0
731 -1497 0
1291 1375 0
-2105 373 0
217 -1137 0
-1067 977 0
-1490 -848 0
-1820 2016 0
-696 -471 0
281 -2264 0
-2206 -1309 0
1575 2206 0
1401 -1036 0
1815 -342 0
1142 -533 0
-1752 963 0
-913 -1698 0
-843 -813 0
-1274 -1409 0
667 573 0
-584 -1363 0
-1588 1373 0
-281 -1416 0
1623 -1655 0
1336 -1315 0
-1868 -1019 0
508 -512 0
2266 -947 0
-1549 136 0
-1709 1842 0
640 988 0
-1809 -1050 0
-943 -2242 0
-545 150 0
-1892 -1216 0
-145 674 0
1116 2133 0
1537 2186 0
1797 1862 0
-363 -1280 0
136 1882 0
-2232 1766 0
-1617 2289 0
1810 448 0
-51 -1996 0
690 1711 0
-1488 -979 0
382 1488 0
-1230 -1964 0
-559 -1479 0
1869 2233 0
-1388 1611 0
-832 -964 0
-1398 1231 0
-1457 1477 0
-1351 -430 0
1666 1007 0
-206 -1351 0
412 804 0
-38 -1127 0
1606 2208 0
1307 283 0
-630 -1593 0
573 1317 0
2037 -551 0
869 -195 0
972 -1933 0
1498 687 0
-1608 1142 0
1794 192 0
1238 -563 0
-91 265 0
-1045 -1923 0
-311 1641 0
1767 -1349 0
-115 -129 0
1716 432 0
-1643 -456 0
2009 1932 0
-727 413 0
-416 -464 0
199 -236 0
-1426 419 0
1834 -865 0
1020 1814 0
1217 994 0
1716 -1947 0
-586 2209 0
-2202 -350 0
-2002 1312 0
2043 2193 0
-181 -1032 0
993 802 0
-906 340 0
-139 1066 0
-1160 -1336 0
1077 2141 0
343 -2065 0
-139 -603 0
559 -1654 0
-1440 1864 0
785 1340 0
1510 -6 0
-1793 -1596 0
-2121 -885 0
168 -465 0
1562 308 0
2275 851 0
-1235 -1236 0
-103 356 0
-1554 -956 0
1885 -137 0
-189 1205 0
1962 -1771 0
-270 -1616 0
-20 -1593 0
-941 1173 0
-1751 -1116 0
2031 523 0
2151 -709 0
2049 1644 0
2198 1842 0
1548 -1970 0
-797 321 0
-25 993 0
312 -1278 0
2224 1486 0
-1278 1226 0
-1220 206 0
640 -718 0
1622 -657 0
286 -2262 0
1026 475 0
857 -486 0
-1640 1021 0
-1689 -539 0
1170 -1964 0
-1882 -2064 0
-721 -1097 0
62 1717 0
729 891 0
1354 57 0
-606 -64 0
1809 -1550 0
-402 -1604 0
2046 -1799 0
1107 -1841 0
-1220 -123 0
1240 -1319 0
387 1242 0
-414 539 0
1300 -806 0
879 -1847 0
-91 360 0
-931 -1452 0
1303 1736 0
2015 -1960 0
1586 -1447 0
-1639 632 0
2093 405 0
641 310 0
344 2149 0
-1051 -829 0
-1809 745 0
-1724 1098 0
-1372 -1757 0
-91 -1914 0
-650 832 0
1784 -1840 0
555 -433 0
-1155 719 0
1262 1310 0
-1801 890 0
-172 -735 0
-1722 -1946 0
814 -725 0
-557 -1745 0
-2082 -1739 0
-39 8 0
-236 837 0
-866 1514 0
-445 -39 0
-2008 -1370 0
-87 694 0
1785 639 0
-434 918 0
1483 -1155 0
-1362 -622 0
2251 656 0
-846 -1010 0
-1640 1271 0
-1434 802 0
-569 1769 0
2083 2288 0
-1713 -122 0
901 325 0
194 1507 0
-865 1024 0
202 -1703 0
-174 -1588 0
1179 1602 0
1973 619 0
713 -711 0
-747 -1457 0
361 1209 0
1240 -283 0
678 271 0
698 -903 0
-1343 171 0
-987 -16 0
-1726 1972 0
-1739 1048 0
-906 2204 0
1756 723 0
2280 -1115 0
2139 715 0
765 697 0
836 263 0
1370 1646 0
-1412 -1770 0
-975 1604 0
-929 522 0
-1631 -123 0
-1935 1794 0
164 -1175 0
1043 549 0
1118 -2064 0
1743 1840 0
798 -1048 0
-1614 230 0
-772 -2001 0
-1073 -1882 0
2245 371 0
-825 1861 0
1205 957 0
-1431 1792 0
1638 -718 0
-465 -930 0
1967 1600 0
-2055 1445 0
-2277 807 0
2184 -1561 0
1719 799 0
-1526 1687 0
-370 2007 0
2183 -337 0
1907 1020 0
-428 2099 0
-1259 1272 0
2125 1860 0
-1828 308 0
348 1781 0
105 -2252 0
-312 327 0
666 7 0
2298 207 0
-587 1323 0
1767 -890 0
1426 1128 0
1547 -1022 0
2246 -2077 0
-1796 86 0
-1431 208 0
495 -2193 0
-1454 -1283 0
-1743 2081 0
-2228 -483 0
1579 1174 0
2198 -681 0
-553 -850 0
1786 2141 0
-529 -1769 0
1369 786 0
-1344 -1992 0
663 -19 0
438 -628 0
-2016 -2263 0
350 1942 0
236 928 0
-769 -146 0
-1777 -1285 0
1858 -1513 0
2106 1984 0
1669 515 0
675 -995 0
40 1340 0
1184 -85 0
1830 60 0
-1679 -500 0
-680 266 0
-2032 -708 0
413 -2095 0
-2161 -2206 0
-1593 1689 0
-287 -27 0
-936 1938 0
-298 -1617 0
-2092 2042 0
541 -1199 0
-627 2101 0
31 1008 0
-643 -1623 0
388 -275 0
1582 -559 0
-1238 -1083 0
371 1234 0
1529 1190 0
1479 -539 0
1086 1700 0
-637 -174 0
-786 -1692 0
1347 -10 0
980 -1463 0
201 -1273 0
-176 502 0
-1559 408 0
2171 -1228 0
208 1297 0
-2140 -136 0
1428 -1058 0
-831 1203 0
471 276 0
1811 -1682 0
1839 795 0
1301 1126 0
-1022 1800 0
-638 -172 0
-858 1711 0
-430 1908 0
-254 305 0
1225 2139 0
-741 -1283 0
-1835 -332 0
426 -1679 0
744 -1125 0
1225 586 0
-1587 1058 0
554 -1658 0
-808 1488 0
-1253 153 0
1014 -90 0
-871 -1014 0
700 1624 0
1448 1557 0
2043 1753 0
-1488 229 0
981 -1618 0
1307 -281 0
1742 1805 0
829 863 0
1223 507 0
435 1045 0
1984 -1871 0
-979 514 0
-831 -918 0
1396 -646 0
-1027 808 0
2004 -817 0
-512 182 0
1623 -1885 0
1777 1701 0
-512 2170 0
-1115 378 0
-74 904 0
-954 -1448 0
405 71 0
1938 -1380 0
-1955 2111 0
600 1947 0
695 -138 0
661 141 0
1628 -561 0
-2292 184 0
-1886 1887 0
-1328 -1982 0
2290 767 0
-2102 -115 0
-1701 -789 0
-1178 373 0
1748 -1636 0
-598 -1160 0
-623 -1781 0
-1420 2232 0
704 2208 0
364 -1527 0
-549 1811 0
-348 -1699 0
33 868 0
1675 -1652 0
-51 -1019 0
-331 -906 0
-1268 746 0
752 -368 0
-254 -2242 0
-391 893 0
1205 -919 0
-498 -1903 0
1583 2076 0
-207 -1195 0
803 355 0
551 -34 0
-1570 -45 0
-1998 -961 0
1712 -2052 0
-1216 953 0
883 -1424 0
1722 -2150 0
-1082 -1528 0
1305 786 0
-1708 -1675 0
-1011 2161 0
1112 -1326 0
868 -1064 0
517 1457 0
2182 683 0
2019 495 0
-915 1653 0
917 821 0
1736 -1639 0
1038 -2189 0
2244 2015 0
601 -102 0
-2254 1143 0
-1184 -1598 0
-2206 -650 0
-1456 1846 0
-1079 1628 0
-1657 -1756 0
-1669 1265 0
-1728 1489 0
-1245 -98 0
-1509 724 0
1812 25 0
1293 -1997 0
946 -582 0
1763 -1160 0
2048 -2286 0
142 1435 0
94 -1035 0
264 1202 0
-2131 -2255 0
2072 1074 0
-134 -1123 0
187 -1918 0
-1138 -1204 0
153 -222 0
917 2013 0
404 105 0
-68 -1689 0
1491 1162 0
480 1930 0
1947 -722 0
1562 -1757 0
-273 352 0
-169 1963 0
-1608 -1342 0
2082 -1246 0
456 -779 0
-964 1307 0
1627 689 0
1769 1844 0
-2066 100 0
2138 -1712 0
-674 -84 0
-2271 1201 0
2010 -1867 0
-2244 -825 0
711 -931 0
-696 1981 0
1573 1417 0
-529 -490 0
-622 -1150 0
549 -2048 0
-1234 2143 0
-662 -573 0
230 -779 0
-587 1329 0
2225 2073 0
-2164 -1883 0
-2176 546 0
-735 -754 0
-2034 -1579 0
1287 877 0
107 1155 0
-1056 1182 0
-1892 -1517 0
-801 -519 0
677 617 0
-1085 -244 0
-1650 -959 0
1806 -1266 0
586 147 0
-267 -385 0
1806 316 0
542 -1703 0
-1952 -546 0
316 -1224 0
-38 1932 0
1910 554 0
1442 1766 0
-1911 -2176 0
-298 777 0
591 -582 0
1814 888 0
433 1601 0
331 286 0
-516 993 0
-1873 -2009 0
-1520 1731 0
1448 1062 0
-1424 -115 0
-1329 -1876 0
1100 1348 0
-2302 -1338 0
392 -683 0
-369 -1003 0
310 -361 0
1954 1316 0
-2238 -470 0
-229 700 0
-128 523 0
1336 -843 0
-1058 522 0
1664 1812 0
1406 -1509 0
1473 1666 0
-707 974 0
1569 569 0
1968 -512 0
-1067 1444 0
652 -694 0
1385 -1596 0
2271 -1945 0
-2103 2128 0
-1749 382 0
1849 1273 0
403 48 0
-2002 -1081 0
-1721 -1359 0
-159 1258 0
-553 -988 0
-1176 -1274 0
932 2260 0
-899 639 0
-1017 -2236 0
-757 -1735 0
1867 1562 0
-1575 449 0
1990 1466 0
845 -1248 0
-1410 77 0
-1104 1824 0
-1285 -156 0
-1798 1615 0
88 1552 0
1666 -1458 0
1375 -753 0
906 710 0
-1162 1786 0
1940 -2211 0
1935 117 0
1592 318 0
-627 -1047 0
94 316 0
1358 1204 0
-262 -1772 0
516 -657 0
-1427 -1401 0
-1520 274 0
-2305 -2239 0
1396 -1399 0
1272 -846 0
523 1021 0
-602 74 0
-331 2165 0
-2223 -1532 0
1276 -437 0
-1535 2155 0
6 1897 0
-1082 -2212 0
610 -768 0
-2040 -1737 0
-135 43 0
1836 -525 0
-544 -1853 0
-1707 1163 0
-2028 -1342 0
1043 -1464 0
-1322 -1972 0
261 425 0
365 1027 0
2042 -681 0
807 1795 0
2025 -1939 0
2115 72 0
-718 -1512 0
495 978 0
-1526 409 0
2243 -2165 0
636 -1345 0
2216 -1224 0
1672 1208 0
-603 239 0
365 -1735 0
-867 2286 0
166 1807 0
-1964 -1580 0
-243 -667 0
-1772 -1582 0
-618 529 0
148 -465 0
-288 2243 0
-1440 1299 0
-1830 1557 0
1517 -37 0
1158 2165 0
517 -934 0
1280 -1710 0
2042 -1979 0
1377 2222 0
310 -741 0
-187 639 0
498 1462 0
-1767 -659 0
-409 597 0
220 176 0
-97 2080 0
-1739 -642 0
553 -680 0
-1974 -2073 0
-346 655 0
-110 824 0
-646 184 0
433 -1023 0
-1222 -228 0
-251 463 0
-257 889 0
1038 -587 0
1199 1677 0
314 673 0
-303 -2143 0
946 -1670 0
-2078 -1303 0
-788 1833 0
994 382 0
775 1361 0
266 -567 0
-584 816 0
1353 400 0
-138 1298 0
1303 2025 0
-139 -1964 0
1074 -37 0
1747 1300 0
2186 1617 0
-1553 744 0
1204 1280 0
-897 431 0
-1759 778 0
667 -32 0
302 761 0
693 -648 0
-550 1459 0
-563 1522 0
1294 612 0
1197 937 0
197 -1984 0
1404 493 0
-1332 -1439 0
829 2 0
1050 1105 0
477 -1703 0
203 1330 0
1074 593 0
-39 436 0
798 2283 0
-274 2073 0
2148 -913 0
335 2157 0
2206 1853 0
1770 -1145 0
-508 -1554 0
1733 -1898 0
1859 -151 0
-2109 -1967 0
1284 -141 0
1030 904 0
678 1377 0
667 502 0
51 -1040 0
2236 -531 0
1304 349 0
-2222 1805 0
1154 -372 0
150 1885 0
1367 1730 0
1768 1882 0
-983 2247 0
-695 1459 0
-131 -1508 0
1543 1666 0
132 781 0
1116 792 0
-738 449 0
-186 815 0
1071 -41 0
1202 1727 0
703 -884 0
886 368 0
-1952 1347 0
2275 -1562 0
-1036 1607 0
1114 -1942 0
-1769 -519 0
-1297 -1726 0
1889 1450 0
-1999 467 0
-1228 -1597 0
-315 1442 0
-583 -1581 0
1035 -238 0
895 134 0
1711 1059 0
786 -1988 0
1470 -2064 0
-1641 -1454 0
-2162 -1878 0
448 -1131 0
-1820 1314 0
-1115 932 0
-262 -753 0
-1561 -2156 0
-228 -425 0
-290 -474 0
-1822 -332 0
991 -1578 0
998 -890 0
311 -1014 0
4 -1674 0
410 -1946 0
1482 -568 0
1731 -1370 0
-164 2205 0
1592 -1987 0
-2273 1069 0
-1929 -351 0
1087 961 0
164 404 0
1293 -240 0
-2106 1937 0
-1827 -1021 0
897 -1116 0
-2153 93 0
477 -531 0
457 -2171 0
694 -113 0
-1314 1432 0
-1473 1261 0
1375 1443 0
2057 493 0
-300 -911 0
-68 689 0
2282 2129 0
1906 388 0
-622 -1237 0
402 1146 0
1105 -1415 0
130 119 0
614 1303 0
776 -1770 0
-455 -622 0
-799 917 0
544 -1246 0
1722 -191 0
1916 2039 0
-350 -1671 0
278 -2051 0
-1898 88 0
-1946 1488 0
-823 -1574 0
1543 -243 0
-871 599 0
271 -762 0
58 -196 0
-838 -2169 0
-41 -2024 0
-1415 -2031 0
1964 1714 0
-2135 -2241 0
-1758 -1547 0
565 -1394 0
1501 2211 0
368 514 0
-1690 8 0
-1005 -963 0
-1927 -1053 0
-925 851 0
-1001 1870 0
552 746 0
231 1345 0
1392 1595 0
-1888 225 0
2002 1448 0
-1375 1261 0
-427 -697 0
-2047 863 0
-20 1156 0
-796 1666 0
678 2043 0
-575 299 0
188 202 0
1069 -677 0
-138 1386 0
1836 -2027 0
2259 -1323 0
-750 872 0
-324 -1155 0
1648 -1610 0
1162 -742 0
1562 -2279 0
-211 1027 0
2034 2067 0
783 -914 0
143 -2150 0
2030 1411 0
-1599 1594 0
782 -2237 0
478 948 0
-509 -1422 0
1384 824 0
1878 -79 0
-1443 -1263 0
682 -2179 0
1488 -1809 0
940 -795 0
-1499 -1464 0
-139 -1123 0
1033 -1006 0
-2151 1706 0
2224 355 0
-651 -1730 0
1424 2062 0
1535 1102 0
-1474 -2286 0
904 112 0
-1103 -1578 0
-2135 1905 0
1124 -1884 0
697 240 0
1529 661 0
-738 2229 0
-972 1929 0
-645 -91 0
448 -1872 0
444 983 0
1719 -1498 0
926 -709 0
-72 -2172 0
-543 -1159 0
-2222 1942 0
335 1033 0
-237 -876 0
1134 -1228 0
-1355 1852 0
1939 -2241 0
824 766 0
1277 1065 0
-522 703 0
1979 1580 0
-1044 2085 0
-2260 224 0
2023 2093 0
2261 1339 0
2060 521 0
-412 -346 0
448 -400 0
1496 2229 0
930 -1930 0
2298 -2280 0
-1743 190 0
1931 2054 0
717 698 0
-1422 -887 0
524 -1247 0
1112 1906 0
-809 2108 0
-839 996 0
1087 -441 0
-1191 469 0
-518 2085 0
-2212 2205 0
-828 -2027 0
1167 962 0
1566 1242 0
-665 -217 0
-2140 1422 0
1957 901 0
980 1490 0
1363 -1353 0
1322 1025 0
1592 1910 0
-1328 1254 0
-108 891 0
2236 -273 0
1307 752 0
1243 344 0
-1699 2245 0
1604 -740 0
-2194 -296 0
978 -1322 0
2183 -1642 0
-564 -1234 0
-1999 86 0
723 2216 0
1402 -1289 0
-1423 202 0
834 -1765 0
1437 -650 0
1087 1864 0
917 -314 0
-1915 1795 0
1629 288 0
737 -596 0
264 -1452 0
2062 -1998 0
-1650 1091 0
548 -164 0
1602 28 0
1389 -735 0
-581 1090 0
-1844 48 0
-1414 1629 0
-1254 467 0
1440 967 0
1766 -1196 0
188 -356 0
-1656 -116 0
-1671 -1730 0
884 97 0
-2098 139 0
-823 -1327 0
108 338 0
2289 -738 0
-1423 -2009 0
-2259 -872 0
-768 2108 0
-841 1135 0
-1787 1683 0
176 -258 0
-2077 2173 0
689 907 0
-484 1255 0
876 1240 0
1934 -1696 0
1247 -1295 0
-568 1529 0
-1827 419 0
1107 586 0
-295 1634 0
1970 -2058 0
-1634 -181 0
415 -257 0
1039 -713 0
-1457 -682 0
-553 -37 0
855 682 0
-1696 1855 0
-1912 1101 0
-1500 1634 0
-1984 -924 0
-1673 -2161 0
-2014 1530 0
1031 -1776 0
617 1030 0
-1986 2019 0
248 -1437 0
1948 1269 0
-417 -2032 0
714 507 0
2130 -25 0
-351 -817 0
-495 -1118 0
2145 180 0
-1901 1772 0
-1600 -2128 0
-249 2168 0
-481 -988 0
2054 -856 0
-1761 -1206 0
764 -2144 0
-1623 2124 0
-921 -1216 0
-2003 1040 0
-1210 -1364 0
1676 -934 0
309 -1902 0
-293 -1243 0
265 -282 0
398 -494 0
-1864 -613 0
-1595 996 0
-1704 -312 0
-1328 903 0
-1883 -2199 0
1794 28 0
-848 2069 0
-1719 908 0
1529 -2014 0
307 -507 0
-126 1350 0
-1373 2056 0
-1266 1428 0
49 -1033 0
108 795 0
672 1037 0
201 841 0
654 -389 0
-1841 -1116 0
2198 2196 0
-1947 513 0
-2065 2188 0
-1886 -891 0
1329 -2041 0
-2170 -1535 0
2259 -2268 0
-881 -714 0
2254 755 0
-80 882 0
1305 1259 0
-244 1613 0
413 -1346 0
1792 -1817 0
2114 1079 0
1231 1484 0
706 1233 0
403 1093 0
-1363 2287 0
-659 1877 0
-488 617 0
866 -707 0
705 1791 0
-903 1672 0
1944 318 0
624 -149 0
927 -1903 0
-421 1038 0
2089 563 0
297 -531 0
-1024 -19 0
786 1864 0
-1326 -832 0
1516 -1526 0
469 505 0
-1531 -1379 0
-2299 -2189 0
2217 -337 0
1188 481 0
2274 1609 0
1513 154 0
50 -1101 0
2084 -586 0
-451 -2172 0
-407 -1182 0
-1278 1324 0
-1620 2069 0
-1412 -627 0
-1372 223 0
880 -1089 0
939 -483 0
-1885 -1231 0
-1570 -1166 0
58 1621 0
1634 -2188 0
-2274 751 0
629 -1007 0
473 1390 0
2186 -1327 0
2177 2069 0
356 -2069 0
174 -1022 0
-2179 599 0
1774 166 0
1426 591 0
-529 1277 0
-587 -240 0
-317 -352 0
-378 2099 0
-793 1900 0
1219 -340 0
-474 2074 0
862 -490 0
-1230 565 0
392 373 0
313 -2109 0
-1 -1547 0
1011 272 0
-1910 752 0
-1699 1938 0
-2250 1731 0
2274 2053 0
-1349 -790 0
1838 523 0
1849 1460 0
-87 1815 0
2281 -1527 0
2294 2083 0
-1061 -818 0
-1313 -361 0
-2129 860 0
2233 365 0
432 564 0
-2196 1572 0
572 896 0
2304 -414 0
-1355 1051 0
-924 -85 0
-346 1715 0
-1013 899 0
1352 2130 0
-166 1162 0
1855 1687 0
-1758 2194 0
-1540 -1613 0
1558 1848 0
590 -1299 0
-850 -709 0
1990 1070 0
549 1608 0
546 1518 0
-1618 951 0
1400 1511 0
583 930 0
1570 1690 0
-1532 -123 0
-1275 -2271 0
235 21 0
1296 -1122 0
-346 -1063 0
-1592 940 0
-930 1054 0
2301 -1721 0
17 -1546 0
1149 1111 0
74 -178 0
-1003 594 0
-1540 -1597 0
2004 -421 0
-181 -196 0
-342 744 0
-1877 -1772 0
-2156 549 0
-421 -988 0
-821 -1472 0
-1397 1392 0
-893 -875 0
1851 283 0
286 485 0
-27 178 0
-2023 -1650 0
40 2252 0
617 1632 0
-740 1650 0
-1850 -1588 0
1984 -1359 0
-1155 60 0
-1026 698 0
815 -38 0
1341 1844 0
-240 1435 0
1337 1513 0
-111 -38 0
1343 -370 0
-1498 419 0
689 -433 0
-270 383 0
2295 1730 0
-295 789 0
1836 -2050 0
261 -990 0
1171 -2232 0
2005 144 0
-2107 -32 0
-1752 -1432 0
551 1711 0
-500 1025 0
-412 794 0
922 433 0
-1351 1493 0
-1898 155 0
1997 -1692 0
-1902 1329 0
-1538 -90 0
1915 751 0
1552 -1657 0
2271 -2021 0
1866 -1155 0
2029 1052 0
1492 1564 0
-153 761 0
2175 -617 0
2157 702 0
1783 -390 0
586 566 0
56 801 0
-1324 -2226 0
-634 1137 0
985 2269 0
1332 1167 0
-1210 1152 0
-2261 -1816 0
1873 1630 0
1125 1730 0
-1198 -1959 0
-428 -112 0
-1558 1470 0
-1256 -733 0
1978 225 0
610 -400 0
458 714 0
-245 392 0
1175 -2269 0
-1273 795 0
-1012 245 0
-1549 -2216 0
55 -2236 0
1486 415 0
-1902 158 0
-32 2104 0
-2001 369 0
-941 1142 0
829 -1941 0
833 160 0
1215 -769 0
-250 1859 0
-193 1634 0
920 1620 0
-2030 1517 0
2106 -1308 0
-727 -1770 0
-905 2092 0
-631 -484 0
-839 -646 0
903 -1733 0
670 -1017 0
-1886 -1182 0
-487 1098 0
-1577 -1320 0
-1635 -512 0
-667 1083 0
-145 289 0
-177 -651 0
528 1437 0
-2094 -1769 0
2 59 0
-1211 -1301 0
-472 -1152 0
409 376 0
1109 2083 0
-71 -896 0
1473 -1847 0
-1478 -564 0
258 -1210 0
283 919 0
1227 2054 0
1217 -1039 0
-2265 -1422 0
-1286 -694 0
-162 823 0
-128 435 0
-1256 -2197 0
-491 453 0
-666 965 0
-254 2039 0
-1955 1377 0
2248 76 0
-1338 436 0
-1970 762 0
469 250 0
77 593 0
-1453 -2187 0
-1926 449 0
-2135 680 0
-604 1467 0
-1023 1745 0
-990 -545 0
2097 500 0
-1885 156 0
166 1092 0
637 567 0
1944 -2128 0
1569 722 0
1525 1907 0
444 -2112 0
-1857 255 0
-195 453 0
623 1577 0
-1864 -1923 0
-1849 -1531 0
368 -1573 0
858 1470 0
-400 -233 0
1973 926 0
1620 1024 0
-1134 -1038 0
768 -1312 0
-1097 606 0
1436 1726 0
673 -1341 0
-67 -1886 0
-1551 -2030 0
1562 259 0
2246 -1031 0
567 -93 0
-616 1054 0
-672 1929 0
-130 -2181 0
-995 -110 0
-35 743 0
2148 284 0
-1500 597 0
-156 -1900 0
-22 172 0
1538 789 0
1503 -1069 0
1073 -1064 0
-1613 1244 0
2054 1023 0
10 560 0
-1628 751 0
-837 -2093 0
-2109 -84 0
-1354 -2064 0
250 -48 0
-1578 1628 0
-676 -177 0
-1552 2056 0
-2170 -2278 0
749 2278 0
660 1276 0
-417 -898 0
-2117 -1774 0
348 589 0
-1246 -1525 0
1583 -1330 0
-1843 546 0
-1490 -326 0
-1969 1153 0
1582 606 0
1566 -995 0
-290 -1640 0
-983 -225 0
608 -1560 0
-234 -1556 0
-54 1973 0
-275 1734 0
-1097 -1429 0
1804 -1574 0
1134 961 0
1934 -651 0
-535 -543 0
-1899 2171 0
951 -874 0
-2077 -1064 0
775 -748 0
-1695 -183 0
-1262 65 0
1623 1140 0
-874 2037 0
493 779 0
752 1190 0
-648 -1240 0
2181 1198 0
-485 -1845 0
-1078 2057 0
-1143 2282 0
380 -915 0
-386 -1407 0
773 -590 0
188 592 0
178 -1871 0
-1587 864 0
1695 288 0
1991 278 0
-2231 -570 0
1440 9 0
-1899 -671 0
-367 1543 0
-1146 975 0
1833 -1285 0
-1183 880 0
2224 1097 0
-2282 -248 0
880 317 0
1258 -1232 0
-1861 -480 0
524 -1066 0
-2302 -1885 0
517 158 0
-1983 53 0
2188 -1127 0
-396 607 0
-2030 -507 0
287 1506 0
695 -716 0
-1089 -1778 0
405 1953 0
-42 -1002 0
1247 -1391 0
-869 629 0
1543 -460 0
-833 2089 0
1723 329 0
-306 -1699 0
729 -2206 0
-414 1840 0
-903 -1427 0
-226 -1975 0
569 2113 0
1109 -294 0
743 1048 0
-1685 1113 0
667 -974 0
-892 292 0
134 -1568 0
-2152 500 0
1839 -8 0
-1309 -70 0
-534 -234 0
-1801 -1755 0
-602 -346 0
-1766 -2103 0
700 1100 0
1873 902 0
1514 1524 0
-2161 1291 0
1138 998 0
1738 1830 0
224 1934 0
-1246 811 0
-1597 -1036 0
-743 1484 0
1204 -644 0
-79 797 0
-1051 1622 0
-1757 1916 0
-190 1746 0
-1065 -1846 0
-567 2175 0
-1472 662 0
-1557 -2190 0
1113 1337 0
-465 -1168 0
1718 1582 0
-1758 301 0
1436 1730 0
974 -531 0
2052 -465 0
301 -1847 0
-2204 1350 0
1918 807 0
-1770 159 0
-808 772 0
1139 1672 0
-1136 412 0
566 -1029 0
289 -1514 0
-881 767 0
-1338 2037 0
-1479 -1360 0
-654 1232 0
-1104 -1831 0
714 -169 0
2143 617 0
1347 604 0
-793 -1269 0
1098 -545 0
-1027 341 0
-892 -1903 0
1007 -309 0
-145 -1680 0
-902 -1737 0
2250 957 0
-24 2174 0
-1805 1543 0
-948 204 0
819 -84 0
143 1753 0
1374 901 0
265 -261 0
220 -360 0
623 389 0
-586 1054 0
73 -1022 0
2294 232 0
2209 1909 0
303 -597 0
-2039 1970 0
461 1955 0
1455 1144 0
-1933 1718 0
-1145 -847 0
1595 369 0
962 -871 0
311 -724 0
1374 -2196 0
1326 289 0
343 -1058 0
-2241 630 0
1833 -1137 0
666 -620 0
-1074 993 0
1212 1471 0
1643 640 0
-1292 2112 0
1795 1117 0
-1711 2067 0
-1653 -1547 0
1190 15 0
-762 77 0
1391 1666 0
-2228 1378 0
-1508 264 0
1872 -2112 0
-1646 464 0
1352 1567 0
1145 -1852 0
-1248 1148 0
-770 1568 0
2 97 0
2093 -1354 0
-1013 1766 0
2089 961 0
-1380 111 0
-255 -1699 0
1002 967 0
-216 -1103 0
2168 1145 0
-723 -734 0
1343 -1116 0
789 2137 0
-570 -1130 0
-659 1544 0
886 927 0
-346 -2057 0
-1344 -840 0
238 1973 0
-2279 -2173 0
715 -248 0
2006 2188 0
1091 -696 0
136 2105 0
-39 -176 0
-684 1443 0
2209 1927 0
23 -1256 0
-940 1623 0
606 1936 0
1067 -1081 0
649 1196 0
400 -1073 0
1798 -363 0
1669 440 0
-2134 -1327 0
1494 -2275 0
531 1496 0
1317 599 0
-60 -2296 0
-1306 -921 0
1668 -1675 0
-960 1716 0
-1320 -611 0
-329 231 0
-1285 -853 0
-351 58 0
-805 -1783 0
-1796 2091 0
-1145 1616 0
1064 -659 0
-1423 1653 0
50 -1318 0
-1452 1272 0
-901 1964 0
-2050 -1760 0
-779 -393 0
-1984 -773 0
-1870 -416 0
-942 557 0
-726 794 0
-1560 -1058 0
2002 903 0
-2051 1617 0
193 847 0
-2152 -1921 0
447 -1601 0
-2145 -1108 0
1271 -281 0
-516 394 0
-2251 1541 0
2067 -1083 0
-1442 -1489 0
22 2290 0
1450 573 0
-2189 -506 0
1218 -1426 0
-1976 -257 0
-1756 2099 0
2183 176 0
-734 -817 0
566 388 0
807 408 0
-320 -758 0
1634 -1664 0
542 -49 0
-1304 1466 0
444 -1953 0
1074 2029 0
2032 1179 0
784 -1997 0
-1708 -14 0
792 689 0
-1391 81 0
-1633 497 0
1485 -1130 0
1930 -1511 0
-970 754 0
1375 -1774 0
869 717 0
244 -46 0
1100 1804 0
-65 -2267 0
2101 1712 0
-1686 2266 0
-1841 1494 0
-1963 1356 0
1685 939 0
1253 -2058 0
-355 -2086 0
2103 -2210 0
-841 763 0
-391 -1956 0
313 919 0
-878 2215 0
525 2137 0
-299 -1821 0
608 -2253 0
1603 2287 0
1665 1616 0
2212 415 0
-548 -1588 0
340 -861 0
-2079 -2075 0
-2129 803 0
-1222 -197 0
1219 -2121 0
1605 -184 0
1815 1762 0
-1323 349 0
2106 -1799 0
-2299 -1948 0
-1068 -797 0
1006 -2008 0
1039 1786 0
1579 -101 0
-1618 90 0
-1107 1024 0
-1017 564 0
-516 -674 0
1945 -634 0
-772 361 0
-2035 -907 0
-1641 -887 0
-60 875 0
2199 -137 0
-1421 -938 0
-198 -1553 0
-647 609 0
911 510 0
1627 -2228 0
-692 2049 0
-1608 -1755 0
1819 -1062 0
1187 1988 0
-1485 1044 0
-580 333 0
1883 -402 0
580 1071 0
-564 478 0
1167 -1745 0
-229 1629 0
-232 -1763 0
-456 1642 0
-1667 -1535 0
-671 1871 0
1159 -1541 0
374 73 0
970 -245 0
399 -1997 0
146 -600 0
-2058 1675 0
-2015 -1793 0
1119 -568 0
-1860 -1182 0
-23 -2189 0
1511 151 0
-1465 96 0
-1250 2183 0
316 1721 0
-397 -778 0
397 -1575 0
17 -487 0
1957 1401 0
1073 1411 0
1152 -46 0
1763 -1835 0
-1825 -753 0
143 -410 0
-553 -2267 0
-671 1278 0
-1430 -1166 0
-831 1113 0
1199 974 0
1755 -2158 0
-79 -1165 0
225 -1427 0
1609 -534 0
1060 -1835 0
2043 -1532 0
-1752 367 0
-1839 -1391 0
-915 1793 0
2115 678 0
-1643 1212 0
-925 444 0
-2057 -1976 0
213 -1464 0
107 105 0
789 1488 0
-129 1695 0
-52 839 0
-870 -1437 0
1733 -294 0
-1486 764 0
1184 1234 0
-56 408 0
1038 2257 0
595 -456 0
1875 -268 0
235 -1469 0
-846 -1051 0
-1451 -853 0
830 1979 0
-296 -2048 0
-2039 -1366 0
-2126 720 0
1305 1103 0
-42 -1812 0
1334 2027 0
-1866 -728 0
1202 -1547 0
-743 -1101 0
-1428 176 0
1208 2219 0
-1403 1199 0
-1183 -2265 0
-1320 -263 0
-679 1857 0
715 -354 0
538 1595 0
1988 435 0
-1708 165 0
1181 256 0
-1378 -202 0
1478 -1066 0
1308 1589 0
638 -1110 0
1527 -1650 0
92 1193 0
-2185 646 0
213 -1422 0
-779 -1335 0
-404 2195 0
1007 1520 0
1051 335 0
-1186 -1335 0
-1128 812 0
-793 -149 0
1174 -455 0
-172 -1345 0
-2296 -417 0
-2165 -736 0
397 214 0
-944 1515 0
1590 1161 0
-395 -1127 0
501 2273 0
-2017 2080 0
-1134 -1412 0
1111 -470 0
-762 -300 0
250 -1488 0
1288 242 0
-569 -840 0
-363 -619 0
302 270 0
445 -839 0
201 200 0
1232 1251 0
-504 234 0
520 1449 0
-1987 -1017 0
498 446 0
445 655 0
864 -684 0
2167 1969 0
-693 -942 0
17 105 0
-1621 -1109 0
-1927 -1161 0
-293 -607 0
-1288 -1536 0
690 377 0
-1720 -1479 0
1161 -1958 0
-2102 -1558 0
1156 -1263 0
572 767 0
-1879 1887 0
1401 1557 0
-1197 2045 0
834 2229 0
1192 -1251 0
2101 1690 0
1211 -1725 0
1400 801 0
69 -208 0
-1825 481 0
434 301 0
-1569 -676 0
-1003 2061 0
-1997 2232 0
-1186 -2058 0
1957 -721 0
1649 -1486 0
-557 -532 0
1533 742 0
466 1896 0
2108 1975 0
1934 1084 0
1940 1173 0
-662 -1495 0
-1615 313 0
-480 1725 0
1753 -1488 0
629 1800 0
26 1161 0
1716 993 0
-1794 1088 0
828 -893 0
2301 -367 0
2115 826 0
-63 2196 0
107 -865 0
-20 -1657 0
1496 -2246 0
992 -1939 0
-693 1091 0
1668 889 0
1602 2049 0
-2278 1211 0
1646 -644 0
1537 -2256 0
286 -438 0
1933 1792 0
-459 -1724 0
-1076 998 0
-1468 -470 0
830 -1870 0
-416 538 0
367 -419 0
502 -2127 0
1047 -64 0
203 -366 0
-470 -1886 0
517 1362 0
1734 -1680 0
-728 -1392 0
-2092 847 0
501 1471 0
-1135 -1292 0
565 10 0
503 -663 0
1158 1875 0
1432 -72 0
1771 -981 0
345 2227 0
-721 2267 0
-221 1386 0
-2066 20 0
-1457 -406 0
1888 2183 0
-1282 -2278 0
-702 -1022 0
141 466 0
1757 -800 0
173 -955 0
498 1509 0
299 -996 0
1770 -428 0
520 -1129 0
619 1469 0
-956 -1976 0
2273 1445 0
1257 -598 0
1006 1283 0
-257 -312 0
94 -330 0
-1353 -410 0
2124 71 0
157 1557 0
-920 636 0
-362 812 0
-1341 404 0
-2109 39 0
-1186 1948 0
-1110 2054 0
1375 52 0
-780 -312 0
2279 -1316 0
-1844 1576 0
-113 -1141 0
-1014 742 0
2131 1325 0
-379 475 0
1207 1310 0
-2024 -2280 0
-206 -710 0
100 -449 0
-1940 -2098 0
928 -2067 0
38 1716 0
1027 1483 0
-89 566 0
-276 -1810 0
-975 1538 0
1929 -899 0
2130 161 0
1154 -626 0
199 974 0
-1930 -327 0
1765 -1155 0
-1993 -1036 0
2042 -1344 0
893 640 0
-1790 66 0
-1066 -1283 0
-1031 240 0
591 608 0
-1975 -881 0
493 -228 0
-1290 361 0
2208 -458 0
1617 -483 0
-544 567 0
-1597 -2300 0
-753 213 0
-2148 1197 0
1211 -1884 0
-1484 1628 0
926 811 0
507 33 0
1842 1174 0
-1157 1938 0
-843 579 0
1138 -713 0
1997 2074 0
-938 -2031 0
1204 -352 0
2053 -47 0
-728 1804 0
-1092 -734 0
-1770 -1049 0
473 2215 0
1630 -500 0
1665 -1696 0
-557 1731 0
-1243 1466 0
-919 -527 0
993 1475 0
27 -1282 0
378 -1482 0
44 -1260 0
1836 2013 0
1565 251 0
821 455 0
1470 -658 0
-1931 348 0
-2030 -994 0
1645 2295 0
-875 -1811 0
1766 -372 0
-1632 -388 0
1883 -1964 0
1178 -2185 0
-421 -129 0
-1315 1232 0
1291 -286 0
374 -2259 0
1915 -1688 0
-1120 -2105 0
2037 1651 0
-630 1190 0
-1847 1361 0
-799 1949 0
917 -76 0
183 2166 0
2265 -1244 0
688 -1222 0
-756 -1134 0
787 1574 0
-1414 185 0
696 2032 0
-1886 405 0
33 -1472 0
1858 -89 0
2262 1740 0
-1540 -3 0
-1688 315 0
1158 889 0
80 -656 0
-2242 -1820 0
1964 -309 0
1691 1518 0
-112 1862 0
-596 1619 0
-963 1298 0
-1906 -1737 0
-614 2049 0
1687 1517 0
1647 2097 0
601 -2202 0
-1430 -2267 0
-856 -575 0
-1263 -1370 0
343 1647 0
1661 -1798 0
202 -503 0
-1138 -340 0
-440 -118 0
2287 -960 0
2239 1619 0
937 -1124 0
-681 -2243 0
1889 -1575 0
-1108 -238 0
-617 1143 0
-1233 -1926 0
-117 -1618 0
865 -1298 0
-1391 1839 0
1994 1331 0
1404 2125 0
1048 478 0
473 -879 0
-793 -1360 0
-1890 -1403 0
2173 733 0
-2274 -456 0
-737 -2188 0
935 -681 0
422 -35 0
-33 -193 0
2293 346 0
-312 337 0
660 517 0
2205 -1637 0
-1545 -1892 0
-858 2083 0
113 -1924 0
-991 -1366 0
-220 -463 0
1856 -196 0
-346 -654 0
-981 -131 0
1623 449 0
-2000 496 0
2155 770 0
-170 377 0
-1070 -1155 0
-806 1617 0
832 978 0
-1189 -1733 0
-2149 -1082 0
215 -1863 0
-2243 1685 0
825 -1760 0
-1103 -1747 0
1152 2014 0
-768 -1204 0
-1189 -1081 0
1757 -229 0
961 -1196 0
285 -1967 0
2285 1128 0
2033 337 0
1448 -2109 0
90 -1104 0
-2117 1457 0
-2150 -2101 0
-1097 -304 0
-1300 -1214 0
706 1308 0
-2255 536 0
1691 497 0
-1079 2006 0
-1535 1334 0
992 1352 0
2039 1647 0
-1070 -1411 0
1030 -1099 0
-2194 1335 0
1779 776 0
-1551 1000 0
766 -2201 0
-162 -267 0
105 -1785 0
-817 49 0
-1990 1393 0
-389 -210 0
-696 -209 0
-315 25 0
2273 -1010 0
-963 -459 0
980 -2182 0
-1440 377 0
1417 -229 0
1377 554 0
-1079 -2182 0
-913 -1969 0
1883 2219 0
-53 1598 0
-423 349 0
1269 -479 0
-2031 2301 0
-1822 -418 0
-182 -417 0
2104 1718 0
2001 -1230 0
859 -1030 0
-33 -2284 0
1609 -1124 0
1892 -624 0
-1674 99 0
1579 2158 0
-1670 1006 0
-780 -48 0
344 383 0
-1978 -618 0
1567 -1566 0
1359 458 0
-949 -2121 0
963 957 0
-564 1071 0
996 388 0
-1753 -1937 0
804 -652 0
1515 -288 0
1110 -1136 0
-2298 2054 0
-592 1546 0
2186 -1764 0
-314 -647 0
-1542 -1653 0
2005 1259 0
-1238 1507 0
-2145 -754 0
-708 1282 0
-806 -1223 0
-1819 1642 0
-713 -1507 0
-1281 741 0
2235 -808 0
2125 2217 0
-1733 -1081 0
-1160 -168 0
1015 -1115 0
300 821 0
450 -961 0
368 -246 0
-866 886 0
1327 -2023 0
720 1148 0
-1246 1660 0
-60 257 0
-1496 1503 0
-2267 842 0
-2271 -2008 0
1115 476 0
-2079 -1421 0
-1816 881 0
575 909 0
1048 2093 0
-1831 -764 0
2117 -481 0
-22 -1410 0
1184 1910 0
715 220 0
-887 -39 0
791 365 0
2238 1517 0
-622 -1175 0
815 -987 0
-979 868 0
1906 287 0
460 542 0
2124 -2026 0
1014 -1005 0
-1301 908 0
-2079 1630 0
-1525 1929 0
-1522 1470 0
495 -512 0
577 -1443 0
-2187 1237 0
1192 1275 0
-1359 -2261 0
161 -386 0
581 -1969 0
1970 -1009 0
1929 2213 0
-997 -2050 0
-2156 -412 0
1672 -1229 0
347 1087 0
143 -1560 0
-1970 -320 0
731 -1 0
-501 826 0
-906 -1506 0
1758 -576 0
-1281 -1839 0
295 -547 0
1412 1649 0
99 723 0
1012 1421 0
-1637 -1796 0
-933 2182 0
1307 537 0
1905 -2304 0
-486 2142 0
-2211 377 0
-237 1035 0
2234 -113 0
1450 -1839 0
1114 -23 0
2127 -2066 0
-435 -796 0
-264 -874 0
-2190 773 0
297 1894 0
1591 -488 0
-903 523 0
-1932 -1094 0
-1571 -1132 0
744 -1082 0
1650 -243 0
-1901 -76 0
-1437 1711 0
271 -104 0
-646 430 0
-997 952 0
-1519 50 0
-2191 1544 0
-1770 -342 0
-2106 -1248 0
-1684 -319 0
1257 196 0
689 2125 0
1634 1187 0
-113 653 0
-2158 1705 0
1060 1581 0
-820 -313 0
1913 -918 0
1960 1968 0
-1650 990 0
-902 1849 0
-40 1937 0
1305 810 0
465 -1635 0
403 -1987 0
-822 823 0
-222 -146 0
-908 -1751 0
-2142 -780 0
705 -548 0
-2001 -1332 0
1707 1468 0
1529 -1119 0
-533 -244 0
840 816 0
1482 -1423 0
1306 1686 0
2096 -1619 0
-1052 1512 0
-1837 946 0
1492 -1282 0
158 -1900 0
-1763 313 0
-935 -772 0
-2273 -409 0
-1121 -1252 0
208 -2129 0
-1193 -258 0
498 -515 0
-234 1188 0
-1215 -739 0
-1104 700 0
-916 415 0
-1903 -488 0
854 -2279 0
-128 -1688 0
1290 1930 0
2202 356 0
311 2206 0
819 -622 0
-2040 -414 0
1181 289 0
-960 927 0
-1751 1684 0
77 100 0
1953 1304 0
-988 -2156 0
-452 -1436 0
1785 -2043 0
1522 2 0
-312 1805 0
1759 -278 0
-730 1187 0
-125 -2029 0
-634 42 0
1473 1114 0
976 1314 0
2287 2089 0
541 1541 0
-1923 2130 0
-1068 1951 0
1815 1090 0
1799 239 0
1103 1077 0
-1497 448 0
-2107 1915 0
1789 1060 0
-2144 -938 0
791 -2196 0
-634 -1075 0
1120 2298 0
356 -1011 0
167 -1775 0
-70 -2137 0
-1398 267 0
-871 1288 0
1779 2151 0
-128 -1847 0
1200 1248 0
-748 1445 0
932 1463 0
967 2193 0
920 173 0
2044 1735 0
-704 226 0
1157 1029 0
302 -1191 0
-84 744 0
-1884 -621 0
-659 2143 0
1279 1324 0
1904 2225 0
-687 703 0
-607 -1989 0
361 -482 0
356 -1542 0
-1754 214 0
245 -436 0
-1728 -657 0
1663 761 0
1166 1212 0
-2230 1844 0
-1555 -1527 0
-1046 358 0
-94 -1273 0
1742 1176 0
-416 2022 0
-1604 666 0
176 1481 0
-1917 -1993 0
1443 955 0
-1495 450 0
-910 -708 0
1259 688 0
-318 -768 0
967 -2279 0
561 290 0
-1425 2065 0
-2256 1494 0
1940 -1145 0
-495 -37 0
2112 1037 0
591 -37 0
466 642 0
-869 2167 0
-863 703 0
-1114 192 0
2259 -944 0
667 -1762 0
-1220 2033 0
-671 -480 0
1319 -1306 0
-1743 436 0
338 -1564 0
1278 163 0
2100 1418 0
-559 897 0
602 1514 0
1164 -1750 0
-576 -772 0
1310 449 0
166 555 0
1813 622 0
-780 990 0
1151 959 0
-1129 -1555 0
2074 209 0
2233 1865 0
-828 347 0
-306 -1348 0
111 -1391 0
-1483 -248 0
1335 -1965 0
-2176 805 0
-799 1347 0
286 1520 0
1686 1237 0
2253 602 0
-1009 -550 0
703 1188 0
-1935 -935 0
-1027 -2161 0
1813 841 0
191 -284 0
1384 654 0
731 35 0
1310 2179 0
202 -693 0
-544 -1054 0
-2260 1990 0
2290 -102 0
-1886 -93 0
-37 1443 0
235 -2207 0
-942 570 0
-806 367 0
-1220 57 0
579 1570 0
2149 520 0
873 1055 0
-1048 -1872 0
-944 1733 0
-2007 242 0
-570 -1258 0
-2212 563 0
911 2022 0
1667 1254 0
-531 629 0
-356 -1192 0
-272 -1146 0
-232 387 0
-78 1619 0
517 -1919 0
-1965 587 0
592 -1540 0
-1681 2053 0
1377 -1124 0
-1143 1675 0
1402 321 0
-891 1204 0
-1602 594 0
1880 -973 0
-2247 -621 0
-1452 -1329 0
1913 -1092 0
2166 1081 0
-1175 -1754 0
12 1869 0
-1087 1571 0
2073 -84 0
-939 -586 0
-1917 -254 0
744 944 0
1533 -272 0
-8 593 0
-684 859 0
633 -1371 0
-1515 -1966 0
-1508 2007 0
244 -1558 0
2295 478 0
1886 -1969 0
-2284 -969 0
-1272 2238 0
1373 -1888 0
-744 -2039 0
-1223 -229 0
1284 -869 0
492 2236 0
1834 1330 0
-121 1913 0
-193 2075 0
274 1358 0
-477 526 0
34 1785 0
-1577 -1652 0
-1604 -205 0
1468 322 0
-1967 -1530 0
-80 -1168 0
2223 514 0
-568 -1816 0
-1929 532 0
-1359 -2257 0
2182 2075 0
-2288 -459 0
720 -1591 0
274 619 0
621 1127 0
-763 -766 0
-770 1714 0
1993 649 0
264 -1594 0
-414 -1047 0
-648 325 0
-1588 191 0
431 1576 0
-1206 -983 0
-1431 -857 0
-1891 571 0
-707 -1879 0
1628 -149 0
-1560 -2207 0
2257 611 0
1363 -753 0
499 -1180 0
-679 -1115 0
-528 -1957 0
-1738 -873 0
-1729 347 0
-1540 -282 0
-1009 -681 0
-1169 1862 0
40 2055 0
-1739 -2026 0
995 -570 0
1641 -857 0
1784 -2040 0
-1428 -2286 0
-2145 2166 0
-2222 -726 0
-892 814 0
1030 -218 0
1942 1814 0
-971 908 0
-1924 1756 0
410 655 0
-445 -1687 0
900 1331 0
-12 1878 0
-126 -737 0
1971 395 0
1484 955 0
-1771 -1479 0
-1194 279 0
1583 353 0
-506 -1841 0
-2106 798 0
1868 231 0
-2012 589 0
-553 566 0
1651 -2149 0
-856 -127 0
-937 -1648 0
-1309 -427 0
1861 1232 0
1138 -1097 0
1833 -1807 0
-986 1787 0
-1012 1525 0
-1178 -1819 0
-2052 1007 0
338 1061 0
1247 -960 0
-939 1850 0
-1216 1961 0
-1398 -2262 0
-995 1448 0
-1349 95 0
1951 376 0
2116 -1959 0
-2115 953 0
-1187 595 0
-47 1850 0
1644 -1403 0
-1702 803 0
594 -2109 0
1936 2082 0
1236 471 0
-966 -1332 0
-1550 -1730 0
290 1087 0
1071 824 0
1557 700 0
-73 666 0
-384 1808 0
2282 653 0
-1457 -415 0
-1321 152 0
-1975 2135 0
610 92 0
-319 489 0
-881 -1810 0
-194 538 0
71 -2027 0
-2126 4 0
2194 -1760 0
-966 2018 0
10 2147 0
-775 1629 0
-1400 2125 0
48 -649 0
313 767 0
221 1539 0
599 -1522 0
1182 385 0
686 -1068 0
-1394 1656 0
-1852 1748 0
610 2004 0
493 -1149 0
-2075 -1233 0
-257 -2072 0
423 1858 0
-1069 1771 0
511 -267 0
548 -44 0
1759 -1225 0
1933 1959 0
-300 -254 0
-981 946 0
1736 1900 0
636 1645 0
1611 -2173 0
-596 -221 0
-2000 313 0
-1560 1291 0
576 803 0
-589 1459 0
324 -1010 0
-1980 -1080 0
198 1631 0
-1348 776 0
2022 389 0
720 897 0
-1306 2074 0
1451 501 0
1093 -1599 0
1170 -345 0
-466 -1301 0
1462 -2115 0
-2196 274 0
-1598 869 0
1007 172 0
-1016 -763 0
324 -240 0
2022 778 0
-1337 -1303 0
-687 -1851 0
2298 1586 0
-1961 2017 0
885 -281 0
2039 2072 0
-506 -1641 0
-2264 -2302 0
1153 219 0
48 1470 0
1719 82 0
2043 -320 0
1100 -1171 0
-2005 -948 0
1992 -121 0
-70 -1568 0
-1454 -2013 0
2202 2175 0
-195 -531 0
-129 2168 0
1931 -1585 0
193 -853 0
1318 178 0
-835 -1788 0
3 -804 0
-657 2250 0
919 -2103 0
-1980 -1922 0
79 -1881 0
-171 279 0
1777 -1465 0
38 -1931 0
1482 1004 0
-713 -1250 0
-291 -547 0
1076 1715 0
1887 -112 0
-288 387 0
1241 443 0
-1270 340 0
607 -1478 0
1837 1915 0
2057 -1759 0
376 -885 0
-1821 561 0
-1059 1768 0
1837 -417 0
-58 -1173 0
-2199 -2211 0
-1516 -2144 0
1609 1533 0
-112 542 0
-1215 -507 0
-1002 -1056 0
-65 -1136 0
-89 -2036 0
355 1055 0
152 1087 0
-1661 1893 0
-2298 2102 0
192 1259 0
809 -1181 0
-1042 847 0
70 1792 0
-371 795 0
-136 -190 0
97 -436 0
-7 178 0
206 2188 0
-129 -539 0
-1137 794 0
1147 -630 0
-1694 -779 0
1647 -1611 0
289 2045 0
-1689 -120 0
-1313 1858 0
-1955 468 0
1830 1584 0
830 843 0
112 -1648 0
2138 254 0
-1780 460 0
524 150 0
1237 48 0
1128 1555 0
2295 -833 0
640 1730 0
-658 1077 0
-2009 1172 0
-594 1583 0
-2027 2104 0
-1422 1687 0
1064 -1499 0
-962 1240 0
-63 435 0
361 2118 0
-1337 256 0
1976 985 0
836 -2258 0
-2227 1905 0
-978 1971 0
883 1136 0
839 1940 0
-193 2132 0
-878 -293 0
-707 -582 0
-1783 2235 0
1604 1151 0
-2268 -574 0
1653 -1555 0
2069 1317 0
580 -2193 0
-1760 1069 0
2027 -2158 0
40 -457 0
2213 -736 0
-329 1850 0
-1185 1861 0
-679 1819 0
1378 -2223 0
-796 -991 0
-61 -79 0
-418 -1380 0
530 1350 0
1278 -1461 0
-1137 1333 0
-963 1531 0
-1246 584 0
-1082 -1723 0
-770 -191 0
-566 -127 0
-675 -1438 0
177 -37 0
382 -925 0
-1434 -2100 0
-47 -2065 0
1024 1089 0
2069 -866 0
239 1149 0
1589 -1341 0
-1980 -1210 0
-1903 1669 0
-1320 -205 0
-1278 1625 0
802 -2155 0
-1633 826 0
290 1665 0
1988 1010 0
891 948 0
-1644 1193 0
-1361 108 0
1014 -990 0
1155 2 0
1936 2168 0
299 -715 0
-768 1475 0
1885 1746 0
-221 827 0
458 -1048 0
-60 451 0
387 24 0
-812 -2242 0
-303 -228 0
368 133 0
447 -528 0
-2155 122 0
-804 561 0
-539 1570 0
-1960 1060 0
-442 1782 0
10 -1443 0
1033 -184 0
1786 -1568 0
-384 831 0
1885 2045 0
2263 -838 0
145 -740 0
-1713 599 0
-1378 741 0
1520 603 0
1093 -770 0
1211 1928 0
1092 1722 0
-30 1785 0
-98 -59 0
-531 -345 0
562 -1013 0
-892 340 0
-1273 1154 0
105 150 0
921 1811 0
555 649 0
1158 933 0
368 -1139 0
-485 -1136 0
88 -1749 0
-35 673 0
-931 116 0
1620 -856 0
433 1364 0
-799 135 0
2011 989 0
-1773 1068 0
-2036 74 0
446 1199 0
2234 607 0
-771 -2040 0
2143 -1320 0
61 1305 0
-1352 142 0
-29 -888 0
1081 268 0
536 -1720 0
179 2087 0
1117 -60 0
1247 1036 0
-1750 -746 0
1241 -357 0
-576 -753 0
-742 608 0
-2040 -47 0
-446 -1354 0
-2305 705 0
567 -1075 0
1385 2029 0
1605 -1112 0
855 609 0
-1931 728 0
594 -79 0
-1522 1153 0
1300 -2138 0
358 -1705 0
18 1128 0
-1777 1436 0
-2278 -2205 0
1269 -1639 0
-323 824 0
-800 -440 0
-1960 2204 0
-1519 -24 0
1111 -872 0
765 485 0
-1243 1558 0
-558 -1048 0
-398 1023 0
744 1776 0
-986 -73 0
1829 1437 0
-77 2225 0
-1080 -753 0
2041 1723 0
-35 -1352 0
-1540 993 0
-669 -357 0
-786 -2144 0
180 1363 0
944 -168 0
-2254 599 0
-1248 2097 0
1441 1282 0
543 -2268 0
1887 -28 0
1873 -757 0
-869 -172 0
-1857 639 0
-1698 194 0
-1863 -2047 0
-1230 370 0
-1372 -506 0
122 -1125 0
-1081 -1340 0
-149 1843 0
506 -563 0
789 1158 0
122 1244 0
-1987 1352 0
-1063 1293 0
-252 -1119 0
-251 -2141 0
1993 -219 0
-2163 -1886 0
-1155 1990 0
-2258 555 0
1436 1410 0
-135 -1512 0
1726 134 0
-1174 2236 0
608 1910 0
327 -1696 0
-1880 1208 0
-1720 -2113 0
225 -554 0
2080 2003 0
1599 1594 0
-1996 1864 0
-1458 -1808 0
1255 -1588 0
1254 -256 0
-1238 -1822 0
1919 663 0
2061 957 0
1662 1729 0
952 -1410 0
842 -2216 0
1455 1406 0
-617 1333 0
-830 -257 0
99 -621 0
2009 1340 0
-699 -1022 0
826 139 0
-288 1151 0
-642 919 0
2181 1280 0
651 -191 0
-2140 754 0
1054 -543 0
-244 -596 0
957 1515 0
-1597 -952 0
1649 -1007 0
-1591 -1595 0
-1101 1726 0
2281 21 0
-1122 -1850 0
-13 -327 0
641 1864 0
-45 -533 0
423 -461 0
-1532 -2254 0
2139 -303 0
1035 1813 0
2295 2253 0
-1476 220 0
-1855 2088 0
1568 -209 0
2048 -59 0
-164 1174 0
534 1492 0
1750 860 0
693 -1826 0
1426 337 0
244 2130 0
1242 560 0
1629 -172 0
-790 207 0
360 -1540 0
1055 1647 0
2097 796 0
-1631 2167 0
-1295 1162 0
-319 1432 0
2252 -75 0
1638 -890 0
10 584 0
1113 688 0
882 -1308 0
-154 -1673 0
348 -381 0
2010 -389 0
-2140 -1632 0
270 132 0
1717 -2176 0
766 -179 0
-733 1284 0
-1079 -1554 0
1920 2056 0
-1143 -1427 0
1932 185 0
-259 1432 0
-212 1401 0
1720 29 0
-2020 1306 0
-2021 -630 0
1015 1807 0
432 1761 0
1400 -1369 0
1712 1723 0
-1742 -1036 0
-1415 -32 0
-429 751 0
1889 -1078 0
1973 849 0
-1474 352 0
192 450 0
-298 959 0
1970 -1670 0
135 1649 0
2097 1051 0
74 719 0
-509 -860 0
-1464 1297 0
786 -2297 0
-1072 -2100 0
1921 -376 0
1519 860 0
-655 -427 0
1600 207 0
-23 -1819 0
-2261 1342 0
-2061 -1898 0
-452 1946 0
-170 97 0
-231 -2299 0
1562 -299 0
1012 -519 0
-1230 821 0
749 -665 0
621 818 0
-1976 -78 0
1710 -1996 0
1078 -2001 0
1660 -1673 0
1477 1590 0
1171 -1668 0
-603 1396 0
432 2179 0
1439 -553 0
453 -2235 0
117 2295 0
450 -1135 0
1856 -1398 0
-1585 -645 0
-574 1720 0
1083 -2241 0
435 -204 0
291 -315 0
1697 -880 0
-2109 708 0
754 344 0
-1748 897 0
1534 1364 0
-1274 -550 0
551 -240 0
-2094 -353 0
854 -393 0
1090 182 0
-1898 -2120 0
-1803 -1896 0
1746 -943 0
568 -557 0
869 -1186 0
-650 -1498 0
-672 -2052 0
1093 349 0
-1671 846 0
2302 -2175 0
-697 1921 0
-941 -165 0
-616 -153 0
-1950 756 0
330 -1655 0
-969 74 0
-1610 324 0
-627 -1807 0
451 2157 0
1002 -575 0
-1 2006 0
-985 1836 0
-927 29 0
511 -2158 0
1241 1475 0
736 -1276 0
1486 1818 0
-180 358 0
-896 410 0
-531 2123 0
1640 1444 0
-2120 -1222 0
-280 -1383 0
-195 904 0
706 -1850 0
2250 -595 0
-1676 1093 0
-1322 -1322 0
-1382 239 0
2267 -1246 0
-85 262 0
2010 -25 0
-1650 1475 0
-87 -1448 0
1471 450 0
444 932 0
761 -1758 0
1126 1231 0
1486 2201 0
403 1059 0
-870 -2299 0
1193 1903 0
-2094 -1773 0
663 1906 0
2080 2257 0
-1168 1514 0
691 1332 0
-1322 -1819 0
-1924 -506 0
2045 -1172 0
121 -1096 0
1036 -1064 0
1524 -1873 0
-411 950 0
-1313 415 0
-1397 -1538 0
-876 1317 0
-53 -1461 0
-1190 1475 0
-1968 -437 0
1844 352 0
-312 780 0
-154 1594 0
-60 238 0
1646 727 0
313 -519 0
-1314 -1872 0
2040 -314 0
249 1442 0
-2304 -1881 0
1808 405 0
90 -118 0
-937 -1275 0
-1814 1568 0
639 -672 0
-541 -315 0
565 261 0
978 1296 0
341 1506 0
-1443 -20 0
-537 -2106 0
1203 2282 0
-606 354 0
99 1392 0
1932 -1519 0
1025 2127 0
-156 1859 0
-1053 -734 0
842 -820 0
269 2246 0
-1070 589 0
-959 176 0
2209 -309 0
2142 -1021 0
-1454 38 0
-1454 -1522 0
-1540 767 0
-1279 313 0
-895 -558 0
1577 2046 0
-1440 -1051 0
582 -981 0
-957 -1952 0
-2239 1269 0
1317 -391 0
-101 602 0
996 1487 0
-2001 2141 0
141 20 0
-736 -442 0
-150 980 0
920 -2283 0
-27 -2305 0
1937 1712 0
-1230 -1099 0
1848 -1720 0
-1077 -41 0
100 -757 0
1669 1610 0
1608 -2114 0
71 -1536 0
-203 324 0
184 1069 0
2204 -1267 0
-2235 -619 0
-1965 -1896 0
205 283 0
-1274 -675 0
-1703 358 0
-771 -2261 0
119 1596 0
356 -728 0
-1185 -55 0
-1003 -479 0
-2108 1042 0
1049 -1870 0
1470 2208 0
371 107 0
274 520 0
-299 1545 0
1506 -2079 0
2096 1480 0
-1833 408 0
1055 2213 0
74 136 0
2197 2193 0
571 718 0
-1142 -474 0
1315 -1769 0
-1962 -1752 0
1608 264 0
1762 -857 0
1920 -1497 0
1616 -1628 0
-1779 1249 0
216 -1417 0
-1292 -327 0
-1777 -770 0
96 1634 0
901 -1298 0
-2030 2264 0
470 2160 0
-795 -1678 0
-2007 -2239 0
2111 -1181 0
-794 -339 0
-1866 998 0
1567 1887 0
-1878 324 0
118 -1447 0
-2147 447 0
1449 415 0
1684 2209 0
-899 1158 0
-200 -103 0
852 2265 0
-5 -351 0
-409 399 0
731 -444 0
-1332 -574 0
1212 -1881 0
510 -1554 0
-1763 2204 0
-1635 -2196 0
-284 2168 0
-2146 -1215 0
2099 456 0
-694 -2159 0
1147 441 0
-1898 1292 0
-1619 -245 0
1098 -608 0
584 496 0
-257 -1102 0
1167 -1921 0
196 -1401 0
-1144 -78 0
72 635 0
-725 -839 0
-612 874 0
-632 405 0
-2100 935 0
-915 -528 0
-1834 1638 0
446 -630 0
-2031 2205 0
-1824 1935 0
-1224 -527 0
-1643 1186 0
1257 942 0
2015 1764 0
313 -488 0
-163 -709 0
-2175 -864 0
-430 567 0
-1062 -1388 0
185 1571 0
-27 -1003 0
910 -659 0
-1740 469 0
-1278 -2066 0
-1554 1489 0
897 1629 0
-1489 -1233 0
1566 667 0
1629 -2299 0
811 2152 0
1844 773 0
2057 -126 0
-1744 1941 0
460 2108 0
929 -330 0
-889 -774 0
1091 -603 0
1782 -2008 0
1636 -1169 0
-1668 -1982 0
-2237 1666 0
-440 856 0
2063 1100 0
535 651 0
2056 -1101 0
-871 34 0
-353 2013 0
72 -1210 0
-1708 2108 0
-969 1544 0
-1366 -1856 0
-652 1795 0
2052 2143 0
-1659 -1991 0
815 1766 0
858 -1769 0
1568 -2206 0
776 476 0
653 -425 0
2096 962 0
576 -1442 0
1787 -1206 0
182 -941 0
-2223 847 0
-249 -1957 0
-1974 2297 0
-1168 507 0
-2249 -657 0
592 -229 0
-272 -518 0
1984 -982 0
2138 297 0
-2058 885 0
503 905 0
-2116 1880 0
878 705 0
-190 1928 0
1223 -1149 0
1294 2173 0
-983 -840 0
-1971 -2178 0
-682 1963 0
246 1313 0
1902 -1320 0
1333 389 0
-936 662 0
-657 -128 0
352 -2027 0
-1527 -2050 0
1769 -336 0
1220 1637 0
2139 -2129 0
-260 -391 0
-1619 491 0
586 -1447 0
-832 -1306 0
2090 1973 0
-788 -82 0
925 120 0
-1337 12 0
-161 863 0
1377 1090 0
1095 -1018 0
322 2042 0
1721 1937 0
1844 882 0
351 1786 0
345 -1063 0
-2277 771 0
1429 -1285 0
524 -1501 0
-1921 1818 0
1553 142 0
1982 -1239 0
-844 361 0
-1239 1152 0
897 -511 0
-1853 -1466 0
1271 626 0
1715 400 0
953 -1412 0
-963 -844 0
-1508 -1099 0
66 2292 0
111 -1998 0
338 1003 0
-770 -53 0
2099 -1718 0
1039 1174 0
588 -1323 0
1057 -1329 0
-33 1376 0
-290 -1922 0
-706 -258 0
-1108 276 0
-31 -1737 0
1484 1934 0
-548 -2159 0
-1236 -2176 0
-2107 804 0
-1371 626 0
1813 -897 0
-382 -1242 0
-373 -2027 0
158 1766 0
-1475 -805 0
707 -170 0
-732 -127 0
645 -246 0
706 1299 0
-1134 -20 0
-435 -564 0
1647 -1453 0
-2303 2090 0
1013 -1863 0
1080 -597 0
957 -1780 0
-1986 1486 0
2292 1609 0
-2101 -306 0
1459 787 0
1754 -2189 0
-1182 -902 0
-1527 -261 0
-2209 744 0
-1280 -1399 0
-62 1814 0
502 779 0
2294 -1397 0
607 -1931 0
309 -1361 0
2138 1948 0
-1069 -964 0
1094 626 0
-115 -91 0
2279 666 0
1338 1444 0
-1285 -2124 0
1400 -1576 0
2113 929 0
-1912 1349 0
2054 761 0
-1268 615 0
1628 1026 0
-1278 1173 0
-1680 585 0
-1728 1875 0
645 -865 0
-1899 -1278 0
-2086 -1255 0
1510 -1251 0
1846 1676 0
-508 -124 0
1593 1209 0
2161 -1003 0
-787 360 0
-1251 -1102 0
-1094 -1908 0
212 2053 0
-1853 1325 0
-2274 -1292 0
-503 -644 0
994 -283 0
-1998 -1649 0
-222 820 0
2188 720 0
-1104 1320 0
1485 -1338 0
925 -37 0
58 -1720 0
-2112 -2252 0
-666 -378 0
1355 477 0
-1233 -1124 0
1984 -451 0
-1574 -2075 0
1141 588 0
1498 -1519 0
-1252 -1143 0
-1965 1806 0
-1753 2114 0
2239 2229 0
159 -29 0
-1666 523 0
761 -191 0
-128 -1648 0
1228 1887 0
-272 313 0
599 1394 0
-1438 2106 0
-1383 -822 0
2300 -1965 0
189 722 0
-754 -902 0
-306 -84 0
1502 -1382 0
-209 -1547 0
66 1879 0
609 564 0
-691 2067 0
2031 2076 0
2273 -1348 0
740 -331 0
755 -2110 0
-736 1159 0
-1122 1841 0
-2277 1456 0
469 -2109 0
-1085 930 0
-107 908 0
1908 909 0
1885 1481 0
467 350 0
-24 -1760 0
1970 -1195 0
2113 1651 0
-2279 1077 0
1528 -309 0
-713 -856 0
855 -1816 0
277 61 0
1813 -1744 0
2011 -1827 0
-812 -2176 0
-351 -2283 0
94 653 0
-1124 1908 0
239 -395 0
-362 1645 0
-30 493 0
-2191 1419 0
-1661 -2284 0
1154 -2207 0
949 1973 0
1970 -2039 0
-1484 -1695 0
-1129 -81 0
-748 -892 0
-1461 899 0
-760 -1998 0
-292 -943 0
1228 -288 0
-1399 1631 0
1337 1562 0
-769 -165 0
-233 -1231 0
-2041 1962 0
-1591 1695 0
-2058 -1733 0
-845 -1987 0
233 -247 0
750 458 0
2180 392 0
-1969 -1294 0
-1811 977 0
-60 2261 0
-2254 111 0
598 1583 0
1665 900 0
-437 1562 0
-2271 -550 0
1463 -625 0
-2154 -290 0
-1658 1030 0
-1652 450 0
-1555 -505 0
-1882 -251 0
188 121 0
234 546 0
1757 -890 0
1682 801 0
-2144 1033 0
1840 2105 0
-741 -668 0
-2152 854 0
25 1312 0
1850 -487 0
379 -2161 0
1462 -197 0
275 -1588 0
-1538 1178 0
-175 -1132 0
2237 -494 0
-999 -888 0
-1723 -1094 0
-1739 -1435 0
-359 -1080 0
-489 847 0
-131 1570 0
507 -1868 0
1856 1539 0
2004 233 0
-932 693 0
1165 -443 0
930 -587 0
1195 1962 0
-826 -1796 0
-647 649 0
-158 -1326 0
856 -1652 0
-1354 915 0
-943 -1095 0
-1084 -1020 0
-485 -1362 0
-145 -1715 0
1911 593 0
-1708 1048 0
637 1022 0
2125 -224 0
2118 1503 0
-2066 -41 0
-718 -1578 0
821 -298 0
-288 -268 0
1229 -979 0
50 1890 0
19 -1326 0
-147 1566 0
-177 1252 0
387 1031 0
-1299 991 0
-113 1944 0
450 12 0
-1313 1666 0
415 953 0
-749 -2007 0
2294 702 0
544 -211 0
-1180 -1603 0
2155 2155 0
-1705 -358 0
-1112 -314 0
-1924 -1335 0
-1075 816 0
-2233 1712 0
1705 -625 0
1582 -1170 0
-1406 974 0
1524 -1650 0
1937 -1183 0
1162 -1742 0
-2096 523 0
655 -320 0
297 790 0
1740 1615 0
1556 636 0
1477 -727 0
-390 1777 0
988 1880 0
-788 -1309 0
-1807 -204 0
-1264 -671 0
573 1500 0
-1050 -664 0
201 1638 0
-2177 1658 0
-1571 111 0
-24 -2230 0
1942 993 0
526 1538 0
-1710 -1501 0
-1179 -533 0
949 2125 0
1159 476 0
-574 1227 0
-357 -2175 0
-192 1121 0
-2235 -1633 0
922 1828 0
1202 -150 0
1053 -1583 0
185 1830 0
304 847 0
1011 299 0
1049 1771 0
-842 96 0
-1703 2063 0
-1500 540 0
958 199 0
-311 -2279 0
876 515 0
-1947 -317 0
613 608 0
1048 -198 0
-1170 -1749 0
-541 -2212 0
-584 -1943 0
-1280 1261 0
985 1714 0
1611 1110 0
-1822 -1371 0
-81 2302 0
-479 489 0
959 -293 0
-1414 2274 0
-647 -489 0
-1659 510 0
-209 -302 0
-594 -1120 0
-1440 1311 0
-914 449 0
2283 830 0
-2253 -1989 0
249 -1725 0
-1735 1469 0
1895 -1003 0
919 1314 0
1784 -1511 0
-594 -1695 0
-35 1254 0
-921 -698 0
799 -747 0
1101 1150 0
292 1507 0
-956 -2161 0
2038 843 0
1205 -2007 0
36 -732 0
-1729 226 0
1084 -1503 0
-1286 1013 0
-1941 -1830 0
1779 1934 0
-320 -1408 0
638 -1441 0
2075 -2015 0
1469 -1317 0
84 -2021 0
2160 1469 0
1937 -2090 0
-1108 -1632 0
1019 970 0
-119 358 0
1600 -2122 0
985 -1424 0
-1676 1641 0
196 -1213 0
-315 1733 0
-233 -2233 0
489 -503 0
-779 920 0
-2034 -2183 0
-83 520 0
-1798 215 0
-774 1040 0
1337 400 0
-1854 -592 0
-2040 -39 0
-1820 -1506 0
1686 2024 0
2284 -1301 0
8 2215 0
-1507 599 0
-1972 -37 0
-937 -1751 0
-1149 -368 0
1982 1700 0
-301 -2254 0
-528 -1322 0
-406 -472 0
-510 -181 0
2088 1585 0
1625 1024 0
1670 1963 0
-2240 -1727 0
2005 -772 0
682 -1768 0
-123 1369 0
-2254 -1138 0
-1950 -1571 0
1187 765 0
-412 1746 0
139 -2154 0
-2176 1963 0
-174 -1012 0
-1348 1631 0
219 423 0
193 -1724 0
-1553 1917 0
2249 -679 0
1322 -1144 0
-2015 150 0
959 1277 0
1954 682 0
1842 -193 0
-2079 2108 0
-1138 418 0
-2002 1075 0
-1499 -1642 0
2122 792 0
-123 -1426 0
1727 -911 0
-1185 -279 0
-1744 376 0
-1386 -1338 0
-1107 -1508 0
-386 714 0
1968 229 0
-778 198 0
1782 -1729 0
1002 909 0
2229 -581 0
641 -281 0
-1323 -127 0
218 951 0
807 -1989 0
-113 462 0
1502 2169 0
1838 618 0
1550 -91 0
-2201 -2165 0
-1220 -924 0
-429 1564 0
1714 712 0
645 -102 0
-2009 348 0
-2225 1631 0
-1720 -2303 0
-1846 -1710 0
2054 1229 0
-1984 -15 0
-367 700 0
-295 -1173 0
-1541 1545 0
-1140 -1479 0
1247 920 0
-1706 1089 0
-1338 -1536 0
1806 -1227 0
765 1459 0
47 105 0
2072 1697 0
882 1495 0
-1440 1234 0
-2304 1257 0
1763 1661 0
1247 540 0
-302 661 0
1681 -1089 0
-2172 -2154 0
330 899 0
1072 -716 0
2037 -364 0
-1541 1326 0
1922 161 0
1575 1471 0
-470 79 0
-2264 197 0
338 1900 0
-1279 448 0
1091 -84 0
-646 -1783 0
-2284 547 0
36 739 0
-916 -1363 0
1616 1318 0
1634 1121 0
1020 522 0
-2172 -1412 0
-657 1029 0
-405 -2190 0
435 620 0
104 2182 0
-1577 1121 0
2082 253 0
1269 -1804 0
207 -1912 0
-1105 369 0
392 -109 0
1911 475 0
-1288 2197 0
2256 1658 0
-1925 1451 0
1829 2006 0
209 889 0
1706 -1882 0
1014 -741 0
1619 443 0
-1479 567 0
-1242 -451 0
167 347 0
73 -2173 0
2040 1204 0
-314 1522 0
115 -1170 0
633 368 0
-1281 -1260 0
2005 458 0
1123 1953 0
-779 687 0
392 -46 0
-2169 1594 0
408 306 0
1020 -1540 0
1837 -508 0
554 -101 0
-634 -1756 0
1829 1545 0
1776 1059 0
608 -2261 0
-1264 -711 0
-537 -408 0
-2243 -228 0
879 -509 0
-1667 687 0
-2135 -290 0
-1036 -699 0
64 2046 0
-1847 -2023 0
1856 -1444 0
-776 74 0
-9 -956 0
1288 333 0
-1313 1161 0
-210 -1366 0
1553 526 0
-398 -1024 0
-417 -768 0
-684 -380 0
-2257 -1029 0
-630 1000 0
-890 40 0
1356 1072 0
1550 -13 0
-2260 364 0
-1378 -427 0
313 -1896 0
2119 -273 0
-1487 -2028 0
1734 429 0
-1185 -2186 0
908 1088 0
-1150 -654 0
-2171 -1236 0
1418 -1150 0
-2258 -1732 0
1483 2173 0
316 1740 0
-298 -1753 0
-669 2292 0
1863 1794 0
2066 670 0
171 -169 0
-1860 -2184 0
1637 -1478 0
-2175 1545 0
-2241 -1655 0
-606 116 0
-1461 702 0
1096 -553 0
1921 195 0
457 -351 0
660 341 0
2217 -479 0
-2250 1053 0
-2154 -194 0
-170 -280 0
2022 1649 0
1834 -1511 0
832 1193 0
369 1624 0
-1264 -681 0
-372 650 0
-1993 1600 0
572 880 0
-452 216 0
1314 -2283 0
224 2232 0
-1283 -298 0
1512 610 0
1952 697 0
2286 433 0
-1688 2102 0
-1447 127 0
802 -138 0
2275 -439 0
-814 464 0
-963 1672 0
-365 -1349 0
-19 2269 0
1533 -1349 0
390 -632 0
-1027 2168 0
1951 -588 0
1357 -1239 0
854 -1178 0
1691 648 0
-2174 -837 0
-187 -450 0
605 -479 0
238 1432 0
1071 -631 0
73 -2234 0
1713 -867 0
-1879 -894 0
-647 -968 0
360 -1758 0
-1899 2081 0
-799 -1360 0
203 1905 0
1939 -24 0
-1976 1584 0
1786 -1270 0
1848 200 0
-1578 -578 0
-295 609 0
-270 -1482 0
-1797 980 0
-1547 -1066 0
-1997 1681 0
1159 371 0
-112 1611 0
216 -2015 0
1226 -127 0
827 -1299 0
2080 -1021 0
2115 752 0
1447 -841 0
1485 1519 0
-370 214 0
-439 -925 0
-870 447 0
551 -1027 0
1158 -272 0
-844 777 0
-2154 -954 0
137 -1424 0
831 1622 0
1619 2105 0
-1920 -1274 0
-465 -1030 0
-1482 976 0
171 1025 0
674 284 0
353 -1911 0
-2159 1948 0
-2258 200 0
-1656 -1710 0
-1863 -2135 0
2081 436 0
-2104 -1571 0
30 -533 0
-1002 -978 0
-289 -232 0
-1817 1047 0
-824 1850 0
-1640 1442 0
-440 -2154 0
784 674 0
55 -1139 0
-1289 764 0
-1419 1648 0
766 2169 0
2142 -105 0
-1409 1757 0
1507 -1573 0
1684 1405 0
-1732 -1698 0
897 -14 0
-1546 993 0
1429 1953 0
740 -1767 0
-2179 -1768 0
1414 -2077 0
701 629 0
552 1419 0
1204 -170 0
609 -79 0
-1443 -21 0
-637 1074 0
-1292 -1263 0
-605 -971 0
2304 161 0
-2029 -172 0
678 2302 0
649 -2295 0
346 -429 0
-1353 -1529 0
-1611 -1112 0
968 -1230 0
2248 1056 0
955 -1775 0
-690 -1378 0
1418 -584 0
-1194 -222 0
-977 285 0
-618 1202 0
-1068 -1045 0
-155 1289 0
1635 1153 0
-320 -1414 0
-1884 -1710 0
637 329 0
1887 720 0
-643 2260 0
-1242 -2177 0
-1505 1873 0
-354 -1194 0
2045 2088 0
2245 -459 0
-440 -716 0
-176 -1238 0
-364 -818 0
829 1044 0
1463 322 0
161 -1655 0
789 1235 0
712 -1591 0
444 2124 0
-41 -1044 0
-1067 -1918 0
518 -579 0
-1853 -382 0
2114 -1578 0
-2077 1719 0
2148 -1863 0
1811 -1292 0
1397 1859 0
886 1083 0
-1827 -539 0
-364 528 0
1915 -1414 0
-521 1547 0
-1528 -865 0
-1413 709 0
701 -2263 0
-1330 828 0
1211 801 0
1766 -1943 0
228 -252 0
1497 -942 0
-943 -1312 0
-327 -1888 0
-1197 1288 0
1091 -1116 0
-47 -895 0
1747 -359 0
-348 1662 0
-30 -547 0
2245 -1906 0
2098 -244 0
2074 -1613 0
-2039 -288 0
-179 -100 0
-1945 1786 0
-488 8 0
1727 -1208 0
-383 802 0
2010 -1733 0
-1691 1909 0
1984 1387 0
-1511 1162 0
265 -2062 0
201 -1805 0
1686 -1368 0
1441 -406 0
1126 1022 0
-500 -1207 0
-2150 957 0
-787 -307 0
29 1164 0
1891 -1720 0
484 492 0
-1431 571 0
-1097 -679 0
-1599 -1157 0
875 -205 0
566 -192 0
-767 536 0
70 -960 0
-2252 -2101 0
1645 -2216 0
1600 1258 0
689 -2023 0
-1141 -2050 0
-1683 -441 0
89 -942 0
-719 -126 0
-506 -900 0
-442 223 0
132 2053 0
293 2168 0
520 404 0
2009 -938 0
513 1517 0
742 -773 0
-1931 -72 0
-772 -1739 0
1481 1560 0
-275 917 0
-1774 889 0
167 2284 0
-692 -1453 0
278 2225 0
-628 1312 0
-250 -948 0
-1132 871 0
1813 1004 0
-2242 -1699 0
-382 1114 0
1509 1036 0
-2034 -1063 0
-1066 -1047 0
1620 1304 0
-2239 -1860 0
1712 1258 0
-847 2083 0
-1440 1225 0
-1871 -393 0
-391 863 0
72 -848 0
-357 -820 0
714 2137 0
-1082 974 0
980 -314 0
-1056 -1169 0
-1434 2285 0
394 -1308 0
-64 1704 0
20 -1360 0
-2214 840 0
-194 -839 0
-32 -2092 0
2188 -556 0
1190 -2242 0
-167 2266 0
492 -12 0
1267 -2264 0
-1808 -452 0
-670 -770 0
-1009 340 0
-298 -612 0
-1967 -1156 0
784 -209 0
-2083 1060 0
2096 1451 0
816 -942 0
552 -1337 0
-2187 -2103 0
1314 2087 0
1100 -492 0
-1735 -2176 0
1445 1225 0
-228 1481 0
-2079 -641 0
-448 -879 0
-1592 1208 0
-885 116 0
1417 1113 0
400 -603 0
-1325 2211 0
2297 249 0
-1062 1415 0
-128 50 0
-152 1858 0
573 2063 0
-989 -141 0
-2028 -2283 0
-307 1049 0
-390 379 0
-1184 -1210 0
-2156 114 0
1022 274 0
-1934 -1699 0
1768 840 0
2165 -2020 0
554 -1425 0
-1469 -1996 0
1928 215 0
-1820 1557 0
-1770 -465 0
998 -1592 0
-2291 525 0
-612 1385 0
599 -2100 0
-1740 -1280 0
-1418 1024 0
497 1031 0
-427 836 0
690 -1153 0
-131 662 0
-331 -1059 0
-1236 -1488 0
648 1954 0
-1445 -42 0
-862 368 0
-1488 346 0
-889 1404 0
1633 -434 0
-1908 -2036 0
-1644 419 0
595 1937 0
1606 1532 0
2190 845 0
666 785 0
175 1643 0
-1169 -341 0
-1901 1955 0
-887 -658 0
-1411 -306 0
1018 -1508 0
-251 -156 0
-1890 -1553 0
999 -1433 0
-1877 1937 0
-1872 1477 0
143 -576 0
-2239 1331 0
110 353 0
-1335 2111 0
1444 883 0
1007 -1689 0
2 1232 0
-2240 -509 0
-648 476 0
-1760 -2035 0
-34 1228 0
-1940 798 0
-290 -1600 0
492 -244 0
-1786 -1357 0
469 -1611 0
394 1385 0
-1380 327 0
-1310 1159 0
-1022 21 0
802 1766 0
1988 -459 0
953 -743 0
489 -563 0
1146 1960 0
2257 -1813 0
-1428 -1001 0
1306 1907 0
929 -1487 0
-1968 -386 0
-1941 -1311 0
-747 -1437 0
-1290 1175 0
683 2292 0
917 699 0
-2101 1400 0
-1608 -931 0
1498 -4 0
-519 -143 0
888 1053 0
1633 -2252 0
-1853 -2261 0
1814 -1610 0
-1635 -123 0
904 2042 0
-1981 -544 0
-384 -72 0
-1882 2221 0
1837 -1996 0
197 1462 0
-1637 -1528 0
-1029 -686 0
-1845 2006 0
1235 1876 0
607 -998 0
1683 -1280 0
-730 -523 0
