c bounds 473 473
p cnf 1000 700
-512 197 0
-632 513 0
644 -879 0
766 -677 0
133 -320 0
-638 -970 0
671 -347 0
408 -922 0
316 -162 0
-33 -606 0
385 -551 0
463 -897 0
-423 92 0
964 312 0
173 652 0
893 766 0
332 52 0
-381 218 0
-267 24 0
-817 -203 0
-372 662 0
-204 50 0
22 -779 0
281 -331 0
-35 -73 0
-473 556 0
-910 -120 0
583 -454 0
100 -206 0
791 840 0
563 134 0
-64 -735 0
-979 -474 0
187 -609 0
164 221 0
-69 -405 0
976 719 0
-130 981 0
-502 -263 0
788 -217 0
504 -179 0
-855 619 0
-807 -857 0
-607 15 0
215 -178 0
-729 -969 0
670 -511 0
-645 -743 0
9 -250 0
-948 724 0
-212 -675 0
121 -412 0
-337 -688 0
-703 357 0
-849 -684 0
-884 694 0
-516 534 0
977 303 0
797 77 0
309 726 0
-420 474 0
-363 108 0
744 -987 0
446 698 0
627 362 0
807 740 0
-965 180 0
991 -429 0
678 932 0
836 -318 0
238 -898 0
702 921 0
-932 -331 0
32 -528 0
881 -254 0
-360 724 0
960 -244 0
103 -542 0
711 229 0
6 -286 0
648 -394 0
-948 390 0
-328 867 0
651 -329 0
-183 932 0
-457 264 0
452 -684 0
659 44 0
-815 535 0
489 328 0
-725 107 0
508 -559 0
-538 -590 0
-613 -782 0
5 87 0
444 632 0
425 191 0
-64 -575 0
-515 336 0
-927 568 0
-441 -142 0
-817 -897 0
302 72 0
-879 171 0
-857 625 0
129 -474 0
651 -545 0
-62 -548 0
184 -458 0
-745 236 0
-696 903 0
968 -392 0
-313 -179 0
442 59 0
846 -843 0
-155 360 0
-318 -987 0
-441 -428 0
-195 574 0
-633 764 0
748 -174 0
659 305 0
996 -517 0
-699 739 0
397 -434 0
66 -163 0
-797 -765 0
-578 148 0
996 165 0
-890 228 0
-580 194 0
340 -446 0
-109 548 0
781 -154 0
576 -909 0
261 -203 0
-988 -64 0
-147 -815 0
750 741 0
370 -149 0
-725 834 0
949 -752 0
-623 246 0
-221 153 0
-452 -795 0
-868 327 0
-183 -810 0
319 -760 0
-163 -507 0
707 154 0
933 -237 0
-630 125 0
-652 404 0
27 -480 0
518 -206 0
-601 856 0
196 435 0
827 -468 0
195 855 0
424 -53 0
848 -425 0
467 -574 0
-295 -913 0
893 133 0
-380 -537 0
-473 -606 0
-414 18 0
417 -502 0
518 910 0
-301 -956 0
-260 -857 0
-951 -100 0
-837 -988 0
692 -540 0
862 201 0
-526 595 0
419 -959 0
853 -63 0
-221 -80 0
-711 -566 0
791 355 0
-414 127 0
-207 426 0
441 -46 0
-578 372 0
-122 709 0
828 63 0
-201 -747 0
-398 -752 0
973 137 0
-478 845 0
-301 -636 0
430 -379 0
826 543 0
-192 -647 0
-797 -387 0
-548 981 0
-419 39 0
750 505 0
-565 -880 0
604 800 0
809 -42 0
891 718 0
-104 -526 0
-720 499 0
679 52 0
337 -142 0
778 -913 0
580 -295 0
33 -857 0
-120 -317 0
939 -661 0
-933 415 0
-394 714 0
-551 799 0
138 825 0
473 -839 0
-495 -425 0
-297 881 0
-628 -396 0
646 -386 0
479 -921 0
830 -911 0
-551 -781 0
-167 -822 0
246 595 0
-623 -837 0
-571 842 0
644 724 0
788 -320 0
-628 -256 0
143 225 0
856 -282 0
-904 -472 0
-988 352 0
736 -873 0
989 -831 0
231 744 0
-106 37 0
-374 -199 0
-194 70 0
832 641 0
46 -379 0
41 411 0
806 -684 0
525 -587 0
790 932 0
790 70 0
-502 -843 0
262 32 0
-243 -137 0
-820 223 0
474 217 0
448 -368 0
-195 -585 0
-2 214 0
-914 -678 0
-161 -161 0
662 308 0
-106 218 0
469 -275 0
-481 111 0
-796 -999 0
17 -167 0
826 694 0
-949 609 0
-206 625 0
-399 -637 0
679 -275 0
-916 408 0
489 -823 0
298 912 0
-532 -126 0
558 -951 0
-414 -161 0
425 492 0
269 765 0
717 -482 0
-587 891 0
628 -284 0
-160 977 0
-961 -477 0
694 -356 0
-411 -526 0
-78 -402 0
-962 260 0
465 959 0
-584 851 0
-573 963 0
-685 382 0
-446 -486 0
-360 -806 0
656 -355 0
912 -163 0
744 -564 0
-244 967 0
395 741 0
-807 302 0
-486 -576 0
449 -835 0
936 -12 0
-679 -844 0
93 -642 0
-906 -179 0
-183 -713 0
337 -825 0
267 489 0
-783 772 0
-278 608 0
442 -955 0
228 288 0
-224 -780 0
395 -81 0
845 -358 0
940 -580 0
-828 637 0
393 643 0
103 684 0
210 910 0
777 888 0
248 -118 0
121 26 0
579 146 0
847 473 0
688 534 0
829 946 0
-692 562 0
-808 733 0
-622 -750 0
-304 193 0
523 -508 0
746 599 0
330 425 0
-436 -220 0
296 -966 0
899 925 0
279 -914 0
-198 360 0
796 -532 0
334 -442 0
-482 -247 0
-930 -132 0
418 -482 0
302 212 0
-147 -96 0
-114 -928 0
-30 -642 0
-800 169 0
-449 732 0
957 713 0
-866 169 0
524 -909 0
-180 -332 0
-774 719 0
-164 726 0
-754 -721 0
-78 -819 0
644 -272 0
-924 914 0
719 380 0
-993 -246 0
522 -512 0
964 609 0
591 -815 0
-147 845 0
567 949 0
-59 882 0
-219 -735 0
108 262 0
754 -658 0
831 -104 0
556 -176 0
931 -548 0
-894 35 0
461 -855 0
-74 591 0
-409 943 0
-516 -185 0
683 348 0
-400 -818 0
833 -628 0
-356 -820 0
-761 935 0
-665 -144 0
984 485 0
502 -178 0
19 322 0
-869 -684 0
-953 641 0
-512 -817 0
-112 615 0
-807 927 0
-141 -338 0
-175 881 0
-207 -906 0
-237 866 0
473 -818 0
-912 -161 0
-881 103 0
124 -240 0
-48 321 0
953 732 0
-901 -576 0
-839 -134 0
595 845 0
540 -541 0
-181 5 0
850 -948 0
489 -511 0
895 481 0
126 107 0
-675 641 0
-302 83 0
-374 -563 0
-180 -179 0
107 -663 0
650 615 0
-413 933 0
72 595 0
-762 732 0
-676 864 0
-374 -129 0
829 79 0
550 539 0
443 872 0
-981 -174 0
-43 -806 0
-31 976 0
415 897 0
70 -494 0
-894 75 0
-158 372 0
-140 53 0
-942 -254 0
-424 -31 0
-515 -711 0
749 89 0
-142 -987 0
-496 659 0
-422 -924 0
-955 -635 0
-526 261 0
-125 199 0
191 174 0
355 -681 0
989 5 0
958 -966 0
683 -190 0
977 937 0
-543 455 0
-662 -959 0
700 -479 0
229 -166 0
223 -617 0
-942 -454 0
952 936 0
120 -328 0
-192 -425 0
-372 358 0
445 932 0
981 745 0
-428 -847 0
623 415 0
549 488 0
632 -650 0
-762 -242 0
133 623 0
807 -247 0
-120 21 0
744 -856 0
-940 70 0
-233 629 0
-516 469 0
-443 -420 0
157 898 0
93 871 0
732 153 0
558 34 0
986 21 0
16 -313 0
986 -721 0
905 412 0
770 -369 0
614 -354 0
-962 -889 0
-352 -951 0
856 200 0
169 852 0
-785 741 0
-630 -143 0
884 296 0
143 432 0
593 228 0
-588 465 0
-987 626 0
-752 144 0
-564 -619 0
498 -787 0
643 -741 0
-876 -551 0
179 497 0
-203 -575 0
936 757 0
-183 -847 0
-321 981 0
-234 408 0
57 -377 0
871 -810 0
819 -909 0
-909 -343 0
-596 153 0
-66 640 0
-572 922 0
205 117 0
406 648 0
245 -346 0
115 -323 0
217 -941 0
-887 569 0
152 -290 0
-723 -887 0
553 296 0
147 -885 0
833 -78 0
201 -387 0
661 -565 0
-56 12 0
-170 -748 0
232 -623 0
188 -742 0
485 164 0
-897 239 0
133 522 0
-443 383 0
76 802 0
-827 531 0
-301 667 0
721 -283 0
798 715 0
-679 -684 0
-633 -877 0
845 -79 0
696 -139 0
-447 319 0
145 12 0
-538 450 0
-378 -510 0
-47 -369 0
95 137 0
722 -76 0
-575 -561 0
-286 -753 0
-621 -701 0
688 706 0
689 -680 0
199 438 0
269 992 0
-422 -929 0
57 125 0
558 860 0
-792 -715 0
-781 568 0
648 -812 0
-400 138 0
-206 -115 0
236 228 0
-173 567 0
-189 -764 0
402 805 0
262 -287 0
-412 47 0
196 -447 0
-939 995 0
-80 825 0
207 -320 0
-961 86 0
647 -235 0
-434 669 0
-137 -5 0
-166 807 0
881 57 0
-415 -240 0
847 17 0
-864 -326 0
612 940 0
253 -423 0
985 -454 0
637 286 0
-675 819 0
899 -473 0
-570 -189 0
491 -494 0
-424 -923 0
-179 177 0
694 -415 0
978 -965 0
-954 -86 0
576 287 0
-579 871 0
173 -703 0
405 729 0
-345 -894 0
785 260 0
392 -29 0
-960 522 0
397 990 0
569 512 0
363 896 0
-149 275 0
208 835 0
845 923 0
233 -883 0
-376 537 0
79 -689 0
275 -325 0
-511 204 0
928 -918 0
443 -863 0
-728 -478 0
928 -954 0
778 -824 0
600 -889 0
-508 -640 0
996 -95 0
-583 36 0
188 -78 0
473 883 0
-712 983 0
-257 981 0
-618 744 0
586 97 0
-251 -821 0
290 -254 0
-663 -706 0
-66 977 0
-576 -901 0
869 -426 0
-331 -807 0
-736 -477 0
610 -912 0
74 596 0
829 655 0
-970 -780 0
-346 -548 0
-139 -444 0
-166 -484 0
849 -811 0
-609 24 0
-538 452 0
646 21 0
582 984 0
6 160 0
-760 -642 0
788 -341 0
-906 553 0
597 -502 0
285 550 0
-461 410 0
-422 -280 0
240 -344 0
26 -34 0
448 518 0
-190 512 0
-507 -762 0
-392 105 0
-165 -29 0
915 -136 0
-742 -243 0
-158 -600 0
982 -899 0
-764 -904 0
-583 254 0
-455 -278 0
270 804 0
-527 -127 0
-21 -80 0
729 -909 0
-295 -100 0
-436 -472 0
612 -694 0
-402 -66 0
-124 957 0
558 -737 0
404 -801 0
328 687 0
418 28 0
13 622 0
-824 657 0
-604 882 0
-516 456 0
-672 60 0
-946 -733 0
872 -587 0
-904 -516 0
899 -68 0
68 -811 0
869 -205 0
-256 5 0
-922 -351 0
-330 985 0
