c bounds 84 84
p cnf 775 2635
62 -589 0
335 -449 0
-478 53 0
-482 478 0
572 -591 0
-623 151 0
697 -531 0
464 -584 0
-225 -361 0
521 771 0
-483 -244 0
-462 -522 0
-697 636 0
566 13 0
-576 -584 0
617 -250 0
-456 -472 0
233 -598 0
-676 252 0
179 6 0
419 28 0
-483 -673 0
-667 534 0
-172 -236 0
-324 -133 0
-737 369 0
-409 72 0
376 684 0
-19 602 0
-76 -31 0
-31 -160 0
-374 45 0
-387 -75 0
306 -424 0
561 168 0
-106 173 0
286 -709 0
199 761 0
749 -302 0
478 511 0
4 -131 0
-292 164 0
718 508 0
-576 -533 0
766 463 0
-86 -477 0
-438 167 0
300 -193 0
-213 -362 0
641 493 0
347 353 0
383 9 0
516 -753 0
-488 -114 0
516 -228 0
-222 -389 0
248 586 0
-330 -573 0
359 -127 0
-106 724 0
526 -498 0
-47 -602 0
606 -763 0
387 -355 0
-292 -505 0
80 -639 0
-331 -432 0
614 -406 0
-46 -560 0
232 -574 0
517 -24 0
-467 -137 0
734 -514 0
-127 -551 0
156 -237 0
-29 394 0
-249 488 0
507 176 0
-107 -416 0
2 -302 0
657 620 0
-571 -509 0
615 -268 0
-206 716 0
-774 204 0
-171 -13 0
-176 -482 0
-604 -205 0
-498 -363 0
-135 -484 0
-438 449 0
659 481 0
-329 -399 0
585 -236 0
-30 -79 0
-154 -27 0
47 -658 0
-536 -456 0
-732 -628 0
-389 -522 0
23 -717 0
-113 -278 0
725 383 0
-725 605 0
-302 397 0
75 -423 0
-434 314 0
232 -397 0
582 -588 0
297 -96 0
-236 369 0
587 554 0
-768 -758 0
-337 -107 0
654 -267 0
152 -324 0
248 614 0
-699 102 0
336 -113 0
-261 751 0
-640 486 0
458 200 0
16 772 0
732 123 0
-376 -362 0
55 -232 0
507 50 0
-201 79 0
-455 393 0
-414 -553 0
658 -722 0
279 12 0
126 394 0
-18 -701 0
-295 -586 0
726 -768 0
565 481 0
140 549 0
-645 -283 0
43 -492 0
-595 603 0
-242 735 0
87 136 0
-83 378 0
-355 -121 0
-758 230 0
682 136 0
481 -551 0
667 233 0
-287 768 0
370 350 0
-600 701 0
-534 25 0
-259 695 0
-106 110 0
-221 641 0
185 360 0
-669 641 0
295 -667 0
-312 -147 0
750 -661 0
-573 -481 0
486 -265 0
643 460 0
703 644 0
-262 684 0
489 -304 0
516 -234 0
686 -768 0
-432 -311 0
726 -337 0
105 -547 0
84 154 0
-142 702 0
-258 -73 0
-37 -57 0
-617 -323 0
460 645 0
255 -261 0
-646 326 0
511 620 0
-650 727 0
15 -669 0
-210 -403 0
-41 -267 0
-130 -374 0
238 612 0
-322 -303 0
457 -112 0
-21 546 0
-513 580 0
-340 637 0
-768 -113 0
-19 -8 0
143 -256 0
56 -625 0
-697 255 0
-532 33 0
-456 -433 0
386 -151 0
-722 -279 0
686 342 0
-417 -711 0
-684 -28 0
342 540 0
-82 -28 0
-676 17 0
-299 444 0
-633 -407 0
25 620 0
-721 -593 0
709 -668 0
99 160 0
-638 224 0
-49 -571 0
-318 -150 0
54 569 0
666 -354 0
208 -581 0
-759 -79 0
320 483 0
680 272 0
-593 76 0
-172 -107 0
-625 729 0
-555 680 0
95 -424 0
-362 512 0
614 353 0
-199 -280 0
-629 -691 0
376 -734 0
775 240 0
-487 751 0
-699 -606 0
-199 633 0
424 -299 0
-121 -598 0
-9 -220 0
-375 187 0
-496 -664 0
-292 -725 0
241 207 0
159 -400 0
659 -227 0
-471 -402 0
465 -320 0
-566 -146 0
-672 -614 0
-137 -322 0
-598 -300 0
-647 326 0
535 -79 0
285 104 0
466 -387 0
-357 641 0
2 640 0
382 581 0
183 -501 0
89 -418 0
-393 203 0
-702 -67 0
-721 -403 0
466 14 0
100 149 0
-158 170 0
-461 297 0
-715 -213 0
-29 260 0
756 -360 0
-697 -358 0
100 -671 0
734 -179 0
-688 756 0
-434 330 0
101 -377 0
-621 -588 0
-519 673 0
306 351 0
-650 -660 0
-496 -553 0
-395 677 0
630 477 0
733 479 0
458 -174 0
-377 402 0
-485 19 0
-553 285 0
78 63 0
-31 51 0
578 509 0
-758 578 0
-316 592 0
-37 -718 0
-740 -440 0
-423 49 0
-724 220 0
231 682 0
243 -303 0
-561 -618 0
665 -10 0
223 -605 0
-446 33 0
-161 616 0
172 341 0
420 221 0
204 -746 0
-758 13 0
80 421 0
-42 -64 0
356 -585 0
-525 -108 0
-306 566 0
-191 -774 0
-253 708 0
715 -454 0
-728 91 0
116 93 0
-384 517 0
701 -694 0
-477 464 0
-445 -228 0
582 -351 0
-762 569 0
673 262 0
-176 247 0
117 121 0
-130 -765 0
572 8 0
93 -483 0
744 -502 0
-226 -576 0
-669 -756 0
-274 -383 0
-551 -555 0
-58 -763 0
-559 419 0
-487 -432 0
-21 -633 0
610 -322 0
-229 643 0
432 -198 0
-176 70 0
-656 -608 0
-426 -263 0
708 693 0
55 -612 0
-393 134 0
642 -473 0
68 -166 0
-494 -315 0
681 611 0
129 712 0
380 -369 0
-722 -220 0
-72 380 0
338 -605 0
184 188 0
524 -124 0
-537 583 0
726 -198 0
-504 -527 0
-59 -673 0
706 177 0
720 -449 0
-123 304 0
-96 756 0
-445 654 0
730 -249 0
351 -743 0
-136 -202 0
716 -329 0
435 281 0
441 597 0
369 393 0
-194 236 0
-670 754 0
302 307 0
333 -575 0
-483 -432 0
-401 405 0
-635 68 0
268 -278 0
-130 -544 0
740 -211 0
529 218 0
503 -537 0
-277 -411 0
-768 -668 0
599 -698 0
-592 604 0
-190 555 0
-480 -774 0
309 440 0
-30 -231 0
-557 -570 0
-119 -136 0
109 55 0
-722 -26 0
689 678 0
-422 -169 0
84 439 0
71 473 0
-79 7 0
176 -264 0
-157 299 0
-536 402 0
558 337 0
-239 -629 0
-430 -373 0
184 610 0
565 -714 0
546 653 0
686 -626 0
572 -147 0
295 -15 0
647 328 0
-692 -505 0
-768 686 0
-551 774 0
-301 -656 0
89 -577 0
-347 -148 0
-561 -371 0
-290 -196 0
-440 -245 0
232 370 0
75 -700 0
-236 -519 0
734 546 0
-568 88 0
357 -225 0
-663 -525 0
462 -711 0
-295 740 0
-204 510 0
315 -702 0
462 -114 0
-395 427 0
438 -348 0
71 177 0
638 -358 0
-395 294 0
-39 -513 0
8 84 0
565 -242 0
-261 -460 0
281 562 0
-567 -130 0
34 -712 0
138 -602 0
-107 -25 0
-519 -518 0
430 615 0
132 -492 0
-183 -535 0
-384 -633 0
-514 -644 0
-756 -561 0
635 -568 0
335 677 0
-51 -583 0
723 221 0
464 43 0
566 -766 0
684 748 0
413 -336 0
-399 719 0
-310 -745 0
-375 -476 0
-698 465 0
430 -623 0
638 -696 0
-775 -265 0
-278 145 0
118 2 0
-487 227 0
-471 -768 0
466 93 0
273 -699 0
363 288 0
-287 502 0
-131 -37 0
-81 549 0
-291 642 0
-532 -545 0
219 -226 0
757 41 0
182 -82 0
-488 433 0
300 -413 0
713 -79 0
739 -495 0
-670 -636 0
424 710 0
616 -460 0
283 193 0
-278 757 0
335 -417 0
64 -679 0
-596 -575 0
-509 -513 0
233 -539 0
-586 -634 0
272 -169 0
3 -372 0
317 -262 0
610 763 0
-562 -488 0
-82 -150 0
-613 -646 0
-9 53 0
481 65 0
-722 -349 0
-671 156 0
466 -143 0
-632 -348 0
143 410 0
196 540 0
-445 723 0
-499 266 0
-169 -737 0
306 391 0
238 -261 0
695 -262 0
325 -184 0
-161 87 0
247 -447 0
-774 -650 0
-520 423 0
227 611 0
-758 427 0
-233 -551 0
-290 -206 0
226 -354 0
-501 -504 0
-246 -258 0
611 -124 0
343 336 0
704 172 0
-739 -269 0
209 -769 0
54 68 0
-717 146 0
-328 56 0
-545 -438 0
-420 -406 0
-693 -73 0
-713 769 0
239 396 0
391 446 0
-440 -33 0
206 159 0
-515 -74 0
-745 -265 0
-372 146 0
-42 -196 0
-650 -673 0
-268 -229 0
516 186 0
280 -221 0
-173 276 0
286 184 0
-654 -728 0
-333 289 0
-281 323 0
730 426 0
326 -144 0
686 -63 0
580 65 0
152 237 0
-126 -258 0
-256 -542 0
769 -422 0
-724 -421 0
730 526 0
171 641 0
-169 -343 0
205 744 0
-20 275 0
305 527 0
-358 -298 0
578 408 0
460 -58 0
489 234 0
-548 -42 0
-571 419 0
-701 486 0
-91 -180 0
-154 83 0
-534 664 0
558 -708 0
760 -250 0
-14 341 0
-555 556 0
485 -454 0
281 -579 0
-587 -536 0
-261 -733 0
-82 122 0
284 -724 0
-330 8 0
320 739 0
84 506 0
631 -213 0
-482 452 0
-202 -27 0
-474 260 0
160 471 0
772 -447 0
429 167 0
-411 -293 0
-768 333 0
527 609 0
-18 437 0
-413 -393 0
33 -639 0
152 104 0
343 645 0
-635 463 0
516 -32 0
-471 -710 0
87 663 0
-533 587 0
743 218 0
-103 650 0
168 -408 0
123 631 0
173 84 0
177 -316 0
-278 718 0
465 774 0
-652 596 0
545 -20 0
554 -630 0
762 222 0
627 -106 0
-393 547 0
-689 470 0
661 -439 0
464 -721 0
247 566 0
33 597 0
-479 -28 0
-617 586 0
-363 441 0
-281 -459 0
186 -629 0
-398 -31 0
697 355 0
-260 477 0
658 -523 0
2 -141 0
651 80 0
244 49 0
-258 -143 0
-719 -399 0
-83 478 0
-153 516 0
-268 -19 0
-485 347 0
-118 -475 0
161 -130 0
-674 -230 0
-103 -759 0
366 12 0
203 -723 0
-313 597 0
-337 478 0
750 410 0
-501 99 0
-713 -132 0
-603 -3 0
569 109 0
753 352 0
171 -302 0
461 645 0
9 343 0
212 18 0
230 -274 0
-398 320 0
-125 741 0
-456 -677 0
110 635 0
340 723 0
-153 -468 0
-432 -39 0
118 -268 0
-602 -702 0
-256 -68 0
5 665 0
-11 -16 0
718 353 0
647 -690 0
570 699 0
-99 -28 0
466 669 0
194 161 0
-524 563 0
-456 689 0
583 701 0
620 -674 0
-414 -694 0
-581 190 0
459 65 0
-99 -585 0
620 426 0
-101 -516 0
-513 616 0
-727 -11 0
-291 -284 0
254 470 0
475 -258 0
-272 -419 0
469 -446 0
507 -747 0
490 -454 0
185 -487 0
119 -278 0
638 545 0
181 -215 0
-668 -310 0
280 121 0
-651 15 0
712 260 0
-149 -215 0
-459 227 0
553 -428 0
-392 -23 0
674 686 0
-483 -588 0
41 -725 0
-187 -194 0
704 291 0
128 475 0
541 81 0
522 356 0
-136 -23 0
-85 -56 0
719 320 0
54 543 0
-312 -564 0
-136 -378 0
463 161 0
734 59 0
-742 -711 0
-675 -585 0
304 -516 0
7 -171 0
19 335 0
517 132 0
756 -768 0
-664 -502 0
-57 375 0
-153 -373 0
-341 671 0
-91 761 0
295 54 0
429 300 0
-327 72 0
-503 613 0
-316 -46 0
-592 -455 0
89 -260 0
-252 -743 0
-403 -758 0
286 208 0
-518 454 0
60 -325 0
518 -169 0
-280 647 0
136 -409 0
53 -388 0
560 234 0
-423 -330 0
12 259 0
-196 -194 0
-757 -746 0
-215 -150 0
-741 -561 0
-532 470 0
-319 56 0
247 680 0
226 -35 0
-78 -487 0
614 508 0
-530 209 0
-267 552 0
-265 505 0
266 175 0
166 227 0
295 700 0
-658 427 0
-664 663 0
393 325 0
441 -646 0
-390 -211 0
-352 590 0
-455 54 0
93 -553 0
-564 264 0
619 -637 0
347 -741 0
497 -151 0
-51 152 0
-523 -167 0
-675 -278 0
575 -400 0
-711 157 0
152 175 0
-32 -79 0
-305 418 0
758 -491 0
89 -705 0
516 450 0
526 -667 0
-284 -498 0
766 -46 0
549 -374 0
301 -314 0
431 219 0
-600 394 0
-667 -18 0
37 435 0
-519 -176 0
366 -632 0
628 123 0
-38 761 0
597 428 0
507 -574 0
353 -547 0
-755 158 0
661 -646 0
-98 128 0
-655 703 0
-414 331 0
-692 64 0
-311 -183 0
-242 60 0
221 217 0
-479 384 0
580 -237 0
208 44 0
583 -11 0
639 734 0
181 74 0
267 -40 0
159 -28 0
741 116 0
599 677 0
155 -270 0
-316 718 0
-67 -26 0
-605 -743 0
-421 270 0
535 -100 0
545 -213 0
110 28 0
-702 477 0
195 609 0
-277 -523 0
369 -365 0
774 295 0
-3 -514 0
597 278 0
355 139 0
317 730 0
-302 367 0
136 -350 0
-362 -37 0
583 561 0
-600 -773 0
64 -135 0
729 27 0
22 277 0
402 -27 0
148 214 0
33 -293 0
-774 -268 0
-541 -176 0
-20 449 0
424 88 0
15 -156 0
589 470 0
210 -83 0
-553 553 0
186 726 0
748 394 0
192 -322 0
654 357 0
-587 -357 0
-323 543 0
-461 -739 0
-708 -201 0
154 737 0
627 662 0
-119 -455 0
153 -591 0
-663 100 0
-362 -648 0
187 -236 0
-608 398 0
-44 -705 0
-628 654 0
-21 -445 0
-198 -541 0
-80 120 0
554 -279 0
230 25 0
439 -307 0
-161 -40 0
-461 -102 0
-371 376 0
-265 -249 0
-354 9 0
-453 602 0
-420 -310 0
227 540 0
380 -117 0
488 -229 0
-595 640 0
-727 227 0
-761 719 0
69 569 0
-664 -592 0
138 80 0
-310 371 0
290 -268 0
754 379 0
194 352 0
566 -633 0
438 527 0
198 636 0
749 506 0
-403 77 0
-755 314 0
-315 -181 0
81 262 0
770 679 0
-20 -41 0
541 -416 0
-201 -713 0
109 -366 0
-423 -553 0
74 80 0
-374 -604 0
121 -487 0
748 98 0
737 -347 0
-700 -179 0
-28 612 0
-547 -345 0
-376 91 0
-177 -721 0
257 252 0
724 -58 0
193 -525 0
-167 188 0
-11 103 0
173 -573 0
-363 -19 0
274 -487 0
-683 61 0
397 496 0
436 -122 0
-162 12 0
-260 -189 0
316 -319 0
-438 753 0
530 -752 0
-471 133 0
-395 754 0
-244 42 0
-461 143 0
-748 381 0
-528 207 0
175 469 0
561 604 0
685 496 0
4 -283 0
-109 -526 0
-677 -642 0
-149 -207 0
774 65 0
76 -526 0
363 615 0
-621 356 0
464 -383 0
-86 -290 0
-205 -605 0
-508 -334 0
-692 152 0
-365 43 0
-713 -125 0
-256 -499 0
-671 -774 0
-579 -167 0
-656 -711 0
286 -334 0
104 234 0
-573 724 0
383 -210 0
-121 459 0
606 -684 0
262 -252 0
-444 435 0
3 -149 0
-341 570 0
80 693 0
575 -400 0
444 277 0
427 -255 0
764 -558 0
590 -752 0
718 -153 0
-181 -278 0
-308 545 0
-70 667 0
324 12 0
-311 659 0
650 71 0
558 432 0
-421 -508 0
660 -390 0
606 -705 0
100 -73 0
-722 -210 0
-140 -88 0
-404 -484 0
-117 719 0
-662 580 0
-55 408 0
612 -720 0
-217 416 0
-314 -626 0
-453 -618 0
-297 -272 0
-464 -99 0
766 -709 0
335 -54 0
-178 -281 0
628 -706 0
512 61 0
-210 -456 0
-78 -245 0
-251 -540 0
71 -596 0
233 383 0
419 -42 0
-509 530 0
102 692 0
-356 356 0
-475 151 0
233 643 0
46 745 0
-108 -530 0
178 -328 0
362 -73 0
-197 56 0
554 9 0
772 -387 0
-25 542 0
277 200 0
627 39 0
326 -270 0
528 489 0
-151 -135 0
-181 -414 0
638 367 0
-143 -457 0
732 10 0
270 -39 0
-135 -348 0
-667 143 0
569 642 0
-164 223 0
-18 -585 0
-321 -470 0
22 653 0
-442 233 0
-403 -321 0
-182 -593 0
-581 -601 0
-52 -163 0
-715 -349 0
324 -574 0
379 88 0
-774 311 0
364 216 0
-237 -704 0
528 -690 0
317 344 0
697 295 0
-11 -148 0
-747 -403 0
-552 -278 0
271 684 0
627 -261 0
-33 120 0
306 -539 0
564 637 0
-288 -591 0
380 -197 0
-380 -83 0
39 271 0
2 538 0
-181 -243 0
-423 -403 0
-643 462 0
708 624 0
407 633 0
-26 433 0
-60 -377 0
-588 13 0
-649 -767 0
-7 234 0
723 -90 0
-428 -547 0
362 15 0
-30 177 0
-474 -312 0
-688 301 0
-614 -604 0
-20 596 0
436 -557 0
-394 -392 0
255 -332 0
38 175 0
653 99 0
-630 653 0
683 -48 0
-429 92 0
-123 -206 0
295 405 0
-274 -746 0
-664 342 0
370 23 0
-181 670 0
-148 386 0
481 -463 0
-772 -387 0
-515 469 0
638 504 0
-190 -567 0
-215 359 0
745 721 0
-409 91 0
718 289 0
-475 470 0
555 -563 0
153 -73 0
276 -754 0
567 -165 0
-595 22 0
-456 598 0
-393 508 0
-526 -680 0
-591 -445 0
219 -524 0
-480 402 0
140 734 0
-38 -205 0
488 72 0
100 393 0
-625 569 0
618 647 0
150 -149 0
-515 -606 0
531 -274 0
-399 620 0
144 -98 0
287 444 0
-556 -443 0
445 75 0
-151 -402 0
-314 118 0
-348 482 0
-545 111 0
-349 -423 0
-458 -722 0
-11 -760 0
-191 265 0
652 -37 0
-409 -445 0
-425 403 0
417 697 0
766 -456 0
-758 597 0
666 753 0
386 740 0
-21 -476 0
445 -210 0
468 695 0
758 60 0
764 316 0
-256 161 0
-279 -606 0
-431 138 0
-12 732 0
98 193 0
-252 -329 0
-561 757 0
-244 -494 0
130 -420 0
95 597 0
244 -158 0
-330 625 0
-501 497 0
53 353 0
158 748 0
193 -272 0
-717 638 0
-541 234 0
141 -771 0
-771 -105 0
-145 53 0
235 -764 0
-646 -465 0
232 -302 0
120 -278 0
-710 -498 0
-349 -399 0
412 -149 0
-625 -52 0
2 489 0
-551 77 0
-698 -451 0
-107 63 0
652 133 0
681 -727 0
608 -319 0
470 178 0
-190 467 0
-90 655 0
-105 544 0
-498 374 0
-629 718 0
665 -673 0
-283 -763 0
575 -568 0
-354 -539 0
-522 301 0
16 -280 0
-98 -378 0
-663 144 0
441 248 0
-332 119 0
239 161 0
-758 -98 0
29 742 0
72 449 0
196 -420 0
472 239 0
65 559 0
-112 -421 0
-190 641 0
-547 380 0
-716 -443 0
-182 342 0
-22 97 0
186 -399 0
84 49 0
-304 9 0
543 -576 0
-676 -241 0
-18 448 0
1 -197 0
252 -440 0
341 -373 0
753 751 0
723 -541 0
-430 397 0
49 398 0
-174 -178 0
-574 -423 0
274 -296 0
-313 -668 0
254 638 0
-756 -338 0
-764 -365 0
129 34 0
-320 335 0
-525 379 0
413 -536 0
211 -349 0
25 636 0
639 -196 0
-384 419 0
187 234 0
-11 -201 0
728 -759 0
-697 737 0
549 -566 0
689 -94 0
295 656 0
-382 671 0
412 22 0
5 130 0
-765 714 0
-714 -435 0
-207 343 0
583 -550 0
-392 284 0
-529 263 0
135 -18 0
-617 353 0
-687 326 0
207 546 0
-623 -72 0
-231 -491 0
-64 538 0
-182 668 0
120 681 0
-116 543 0
478 382 0
-290 666 0
764 -504 0
-228 -679 0
379 -18 0
-142 -635 0
-576 701 0
772 -530 0
356 188 0
561 98 0
225 117 0
-482 615 0
-666 -338 0
-523 -450 0
264 -253 0
627 528 0
142 -199 0
-58 -79 0
-94 -554 0
-624 771 0
529 317 0
102 -38 0
466 83 0
-264 -374 0
-608 -42 0
-619 15 0
-78 508 0
383 -33 0
648 -324 0
354 -515 0
129 100 0
-396 577 0
684 -248 0
357 -151 0
-261 693 0
-236 -135 0
-455 -551 0
-328 -73 0
-737 -29 0
-625 -406 0
486 204 0
663 306 0
-387 381 0
62 277 0
-244 -717 0
657 734 0
-669 639 0
-575 594 0
-648 136 0
-204 -746 0
-212 67 0
613 -588 0
359 473 0
476 477 0
-70 699 0
-657 -490 0
336 -450 0
469 -167 0
-158 -575 0
518 192 0
224 631 0
-660 654 0
723 414 0
-746 -403 0
-694 -264 0
-58 -361 0
-507 -447 0
-290 159 0
-476 -674 0
710 473 0
-445 -211 0
210 16 0
-449 -266 0
199 -434 0
704 -97 0
175 -747 0
682 -357 0
56 -403 0
-310 -377 0
368 -668 0
-667 -265 0
-520 313 0
380 6 0
-31 100 0
-39 131 0
481 -68 0
-139 -625 0
769 489 0
338 309 0
486 535 0
291 205 0
-107 -566 0
423 6 0
634 -113 0
136 43 0
136 -371 0
732 -37 0
215 -82 0
581 165 0
-271 -332 0
-323 -251 0
-578 -28 0
-256 -494 0
-69 -588 0
-541 -715 0
-285 613 0
-445 632 0
-315 204 0
202 266 0
-629 624 0
539 -28 0
-136 -680 0
-468 56 0
499 -651 0
629 -774 0
151 61 0
407 99 0
-650 692 0
362 -242 0
545 -712 0
-374 -375 0
542 278 0
-552 -88 0
683 -30 0
-184 -285 0
345 62 0
-747 50 0
-721 -97 0
744 224 0
-183 -335 0
361 594 0
719 81 0
322 156 0
80 -770 0
-750 243 0
42 663 0
-174 -333 0
98 -560 0
553 569 0
566 -490 0
-715 220 0
-470 -461 0
730 -719 0
62 190 0
760 -21 0
495 -78 0
-13 -738 0
56 -462 0
-532 -308 0
353 -291 0
-73 74 0
1 376 0
-412 727 0
577 163 0
680 168 0
-275 -603 0
-87 578 0
517 -371 0
-720 -290 0
151 335 0
-357 -172 0
-531 -218 0
-197 501 0
-269 356 0
25 -513 0
-600 -468 0
594 -495 0
174 186 0
493 -150 0
384 -252 0
463 224 0
577 -432 0
-193 -456 0
623 413 0
493 -29 0
-82 379 0
706 634 0
-305 416 0
-580 -471 0
-151 635 0
413 -390 0
-522 247 0
-40 332 0
-27 -273 0
-431 -181 0
708 353 0
648 -18 0
100 333 0
277 -625 0
-488 -633 0
-121 -485 0
-348 208 0
-455 -71 0
-520 -273 0
662 458 0
71 625 0
-395 205 0
6 -400 0
-124 129 0
430 604 0
-143 12 0
-657 -395 0
520 -531 0
-259 -440 0
439 306 0
-241 -773 0
-494 -73 0
-509 -149 0
-560 -341 0
-112 105 0
-94 225 0
-646 767 0
-345 95 0
173 -524 0
401 -284 0
-505 -79 0
-256 81 0
172 554 0
-32 146 0
-471 -301 0
-530 262 0
602 -358 0
-743 -180 0
-649 -334 0
313 -589 0
-17 -557 0
-1 337 0
159 28 0
239 -19 0
764 -637 0
580 555 0
320 -722 0
-355 419 0
-295 -442 0
-351 -573 0
-42 -688 0
-73 103 0
281 -645 0
-508 -211 0
636 -649 0
223 -506 0
345 116 0
-259 -65 0
227 615 0
493 556 0
33 699 0
-321 343 0
-371 -477 0
-106 101 0
374 307 0
464 -480 0
735 24 0
153 -113 0
9 182 0
-351 -135 0
-69 -432 0
401 -287 0
500 705 0
-265 27 0
-191 -282 0
-269 277 0
603 -571 0
-89 -250 0
516 592 0
540 737 0
336 237 0
-36 569 0
-705 218 0
-657 -595 0
-598 258 0
-331 -244 0
641 336 0
-174 -409 0
482 -125 0
168 202 0
61 432 0
-184 273 0
9 223 0
268 304 0
-633 -276 0
-125 139 0
582 -695 0
-56 160 0
-14 465 0
-297 270 0
450 -414 0
94 44 0
-276 15 0
-292 -316 0
-471 -461 0
-770 666 0
501 200 0
748 -213 0
530 235 0
-515 -393 0
393 -650 0
-272 -115 0
227 423 0
-220 -604 0
-574 -738 0
-649 715 0
224 -430 0
-78 560 0
-669 17 0
281 735 0
-30 446 0
152 -750 0
-318 -241 0
-755 -682 0
-438 -426 0
41 111 0
169 619 0
-501 407 0
-329 -149 0
707 -236 0
-484 763 0
67 -550 0
-362 -601 0
-178 -707 0
307 -514 0
105 565 0
-706 -20 0
-374 -298 0
-231 -267 0
-655 -438 0
-445 281 0
-722 149 0
-615 13 0
-73 689 0
-311 -41 0
712 60 0
163 -621 0
-676 160 0
424 177 0
-44 -354 0
665 -642 0
-252 -83 0
118 -702 0
218 -698 0
-167 20 0
678 774 0
427 -101 0
276 306 0
-284 -714 0
-459 -445 0
-548 -609 0
149 -301 0
-318 770 0
-531 -643 0
-389 342 0
469 -283 0
-73 687 0
738 441 0
-250 659 0
407 -205 0
-311 -108 0
141 616 0
664 317 0
530 758 0
-752 -261 0
-324 -1 0
-498 441 0
570 521 0
-605 -305 0
-496 655 0
380 612 0
-420 -319 0
157 728 0
-692 756 0
93 283 0
-298 517 0
-140 -259 0
178 -650 0
-621 -415 0
-320 -422 0
102 179 0
204 700 0
78 -213 0
248 -488 0
-508 -375 0
-460 391 0
764 -35 0
-724 362 0
-13 34 0
-224 -35 0
588 -328 0
391 -646 0
-260 366 0
-665 716 0
307 240 0
293 478 0
-520 397 0
465 87 0
-495 -509 0
-122 26 0
464 -69 0
659 419 0
352 123 0
742 464 0
702 611 0
123 -314 0
-420 -228 0
410 262 0
-722 -708 0
121 -272 0
294 -197 0
665 667 0
-362 -389 0
-27 34 0
742 -192 0
386 -591 0
-369 -196 0
58 -86 0
-79 -323 0
-591 65 0
45 520 0
-78 -531 0
-123 -670 0
-30 216 0
-586 -446 0
12 767 0
-697 -158 0
109 670 0
-584 204 0
386 -773 0
511 -151 0
221 102 0
561 684 0
-334 628 0
288 -498 0
-410 -553 0
-352 -250 0
-690 68 0
-283 687 0
-704 517 0
-423 553 0
-119 -632 0
98 578 0
482 368 0
166 -106 0
561 -403 0
-427 772 0
-740 102 0
74 426 0
613 644 0
-246 -73 0
-101 301 0
408 -613 0
193 -605 0
-249 -70 0
-570 -625 0
-268 138 0
-114 -736 0
169 165 0
133 -302 0
-346 627 0
-275 14 0
590 -706 0
-765 -412 0
-651 -301 0
393 427 0
-378 348 0
306 -257 0
152 241 0
317 593 0
85 -263 0
375 38 0
-286 -736 0
583 18 0
-344 -164 0
159 186 0
514 647 0
7 -51 0
-403 -121 0
-425 192 0
369 -534 0
-770 -147 0
-298 -193 0
-313 -395 0
-18 -38 0
435 684 0
-425 -137 0
517 -596 0
327 697 0
-556 131 0
106 168 0
534 -633 0
132 74 0
166 -33 0
223 -725 0
-66 -770 0
-180 618 0
-634 550 0
209 219 0
-108 691 0
-21 -333 0
-393 111 0
7 -119 0
443 653 0
-44 -285 0
-372 434 0
-61 -547 0
-608 515 0
15 630 0
44 -652 0
-600 -544 0
-496 75 0
309 303 0
402 -256 0
-539 -522 0
-514 -515 0
596 -224 0
-163 177 0
98 -574 0
639 333 0
-584 -603 0
25 727 0
-217 127 0
-491 527 0
-702 -380 0
119 -179 0
517 280 0
146 383 0
-433 172 0
-34 33 0
-373 757 0
279 -690 0
-349 361 0
-386 -390 0
-211 311 0
-676 -196 0
466 -112 0
-365 -144 0
-325 686 0
-233 -575 0
728 270 0
623 -372 0
-667 101 0
-73 545 0
-149 -308 0
-757 -219 0
-310 360 0
756 270 0
-49 -225 0
708 413 0
-303 -588 0
-1 -692 0
410 -1 0
-752 -362 0
662 455 0
-504 -592 0
-409 86 0
15 226 0
-664 535 0
-224 -220 0
578 -93 0
-595 -1 0
-372 724 0
663 -90 0
245 334 0
-365 82 0
-532 -150 0
630 -662 0
-176 425 0
380 593 0
-752 38 0
-650 -177 0
490 -313 0
366 -122 0
-601 -726 0
-84 467 0
-181 632 0
664 239 0
-755 578 0
564 -476 0
597 482 0
-418 5 0
291 -521 0
-438 -274 0
-711 631 0
505 -190 0
-747 -519 0
-351 -107 0
-285 204 0
-344 -342 0
-182 235 0
300 670 0
-629 -690 0
312 -757 0
636 162 0
-290 156 0
727 -570 0
-438 -122 0
650 -355 0
-731 619 0
-487 -177 0
227 -293 0
-522 -70 0
-391 111 0
-513 -48 0
109 73 0
569 613 0
271 -90 0
596 272 0
527 651 0
651 7 0
-189 -338 0
732 -652 0
-483 288 0
-220 -415 0
-650 -503 0
-180 -434 0
345 41 0
-162 -438 0
-603 58 0
484 -31 0
-78 -62 0
-748 299 0
642 -449 0
221 288 0
-296 -720 0
-519 26 0
-390 -273 0
611 -661 0
-733 -378 0
654 161 0
156 364 0
198 631 0
-17 78 0
707 -526 0
-688 681 0
452 747 0
-637 -633 0
-641 637 0
271 694 0
-657 -648 0
-1 141 0
93 -752 0
521 763 0
144 -142 0
-676 628 0
-401 -387 0
203 72 0
554 326 0
309 116 0
698 55 0
73 -371 0
-649 302 0
-329 478 0
-279 429 0
95 -403 0
445 457 0
311 -625 0
-458 98 0
314 -327 0
500 -682 0
377 -103 0
248 439 0
336 -751 0
-752 -195 0
-730 -167 0
437 595 0
-315 -35 0
734 -694 0
757 -537 0
110 411 0
-595 -158 0
-259 -387 0
-140 413 0
226 -476 0
-642 -244 0
-310 493 0
-588 121 0
172 -502 0
325 -121 0
100 9 0
-589 -595 0
222 408 0
344 -330 0
-601 257 0
-505 -18 0
25 -247 0
-668 507 0
765 87 0
364 -713 0
557 -585 0
280 -37 0
-587 -483 0
-125 -643 0
-24 678 0
680 646 0
-94 26 0
-59 -354 0
-540 5 0
141 666 0
-318 334 0
-581 -658 0
-95 439 0
680 488 0
452 402 0
-251 -231 0
257 -350 0
125 -398 0
482 27 0
184 -148 0
-400 -258 0
770 582 0
284 -1 0
-554 -617 0
68 -581 0
-600 630 0
207 231 0
133 -197 0
-537 -125 0
-436 -455 0
-525 -765 0
-236 -363 0
152 -82 0
-574 658 0
152 89 0
-226 165 0
482 -638 0
401 -729 0
-454 689 0
-82 15 0
-190 34 0
640 22 0
-496 2 0
102 249 0
681 345 0
-738 -485 0
-523 730 0
-259 219 0
107 -765 0
-10 117 0
-446 -103 0
436 -653 0
-483 -661 0
-425 407 0
42 510 0
-553 541 0
90 -149 0
216 407 0
-262 336 0
-114 -268 0
331 -425 0
-486 -728 0
97 471 0
-106 340 0
-510 512 0
754 -253 0
27 -264 0
362 -504 0
-529 -152 0
-82 640 0
-330 156 0
-213 -440 0
748 537 0
-253 548 0
297 -29 0
555 -34 0
611 -231 0
-106 -447 0
700 270 0
-759 -466 0
72 139 0
131 545 0
616 215 0
-85 499 0
620 -170 0
481 -437 0
394 -305 0
534 157 0
33 360 0
-198 -494 0
654 -290 0
-589 92 0
-571 26 0
725 157 0
599 -434 0
582 -501 0
-237 -717 0
-582 -447 0
-559 3 0
-752 -71 0
-749 -694 0
613 128 0
467 -629 0
757 -515 0
247 -80 0
192 356 0
-181 -514 0
615 62 0
254 646 0
-534 -181 0
757 -657 0
-571 444 0
-358 -739 0
-725 199 0
326 -649 0
-190 -17 0
380 -748 0
-595 -106 0
-615 227 0
247 83 0
662 -553 0
-115 542 0
154 -26 0
620 247 0
-618 247 0
749 -626 0
348 100 0
-44 -468 0
495 703 0
-390 -470 0
-738 -577 0
-220 682 0
-275 602 0
173 -697 0
613 276 0
696 -523 0
48 -449 0
-350 -711 0
565 -212 0
261 61 0
-150 -285 0
155 721 0
-117 139 0
663 -743 0
673 -588 0
-280 -99 0
-210 -358 0
-519 383 0
-520 -330 0
762 705 0
614 -432 0
38 340 0
-501 51 0
754 165 0
771 763 0
-713 224 0
-370 -310 0
-1 -338 0
706 -490 0
246 -179 0
330 -284 0
-498 554 0
144 -321 0
659 565 0
197 410 0
234 -443 0
357 109 0
-709 -86 0
709 529 0
-618 -20 0
557 -21 0
-618 -164 0
555 470 0
-455 -208 0
454 -515 0
-63 -738 0
140 -459 0
409 -17 0
-632 -121 0
423 22 0
118 -75 0
-223 -774 0
203 216 0
266 -673 0
529 -698 0
-671 -73 0
-272 417 0
-768 -432 0
639 -532 0
-721 -284 0
-657 502 0
-140 241 0
-262 -301 0
-27 582 0
630 469 0
183 -244 0
163 96 0
6 186 0
-693 -290 0
-272 -515 0
46 -731 0
-524 -293 0
232 -11 0
-224 -650 0
298 342 0
745 634 0
-519 247 0
-341 -487 0
-774 -102 0
-597 -378 0
-475 -168 0
274 549 0
-669 767 0
-678 -504 0
-312 685 0
-624 558 0
-681 -273 0
4 527 0
-187 -523 0
-297 -185 0
319 333 0
136 -17 0
438 753 0
-763 60 0
-48 -744 0
770 -536 0
-191 448 0
391 -600 0
384 -343 0
53 -571 0
567 550 0
393 49 0
64 167 0
639 497 0
709 -262 0
-316 -397 0
675 -298 0
-47 -98 0
405 -510 0
-302 482 0
730 -762 0
-383 -135 0
214 549 0
-694 145 0
-673 11 0
698 -454 0
-654 549 0
696 -504 0
-310 -539 0
45 584 0
-154 233 0
615 -713 0
456 309 0
-124 709 0
486 -279 0
-314 624 0
384 -186 0
-46 -380 0
77 711 0
-79 226 0
-524 753 0
-491 -135 0
-728 264 0
686 363 0
-725 431 0
262 -306 0
296 129 0
-140 669 0
666 497 0
-187 -456 0
474 -557 0
-550 655 0
294 398 0
-369 257 0
68 -473 0
-519 512 0
-225 -12 0
506 188 0
-669 -576 0
-91 -715 0
-539 368 0
-468 -83 0
251 -58 0
142 -628 0
343 -392 0
590 -148 0
-181 -279 0
386 334 0
-345 -69 0
-319 -668 0
-724 -20 0
295 1 0
540 -390 0
613 -303 0
-386 -377 0
-517 -741 0
482 62 0
-243 542 0
-431 204 0
-461 -186 0
128 -68 0
-551 81 0
477 -143 0
-714 -484 0
-392 -152 0
547 624 0
768 -355 0
-541 510 0
-502 540 0
619 108 0
-179 -757 0
-272 356 0
299 -251 0
-283 -72 0
370 132 0
665 -700 0
-174 365 0
665 -99 0
-255 67 0
-10 255 0
663 -83 0
707 -575 0
-560 -304 0
-430 628 0
-680 431 0
-591 509 0
579 68 0
-495 300 0
402 -449 0
397 743 0
474 653 0
177 456 0
221 -387 0
8 507 0
-266 769 0
516 586 0
-563 -398 0
-153 33 0
141 -27 0
230 -145 0
-140 546 0
661 -670 0
440 394 0
203 -692 0
93 64 0
-256 -518 0
-140 -381 0
750 -458 0
477 -575 0
116 -642 0
-389 308 0
741 -690 0
-573 215 0
452 138 0
408 -61 0
160 539 0
748 -610 0
686 680 0
-431 -648 0
-303 720 0
-766 770 0
-96 554 0
489 -754 0
-413 641 0
-126 -44 0
-29 -102 0
142 419 0
-409 -627 0
403 -773 0
-520 570 0
-557 207 0
388 -564 0
-398 739 0
-35 -279 0
-747 77 0
155 -39 0
7 -83 0
-699 621 0
294 325 0
555 155 0
367 -202 0
582 511 0
757 177 0
525 226 0
732 572 0
580 735 0
-674 765 0
624 230 0
-329 -521 0
-252 -679 0
130 276 0
606 726 0
620 -305 0
-112 -641 0
-451 -315 0
66 216 0
180 -210 0
-269 -169 0
595 -358 0
-621 -458 0
570 136 0
538 -755 0
-29 -329 0
-705 703 0
-205 239 0
-723 100 0
-285 -374 0
-122 516 0
-118 556 0
214 26 0
22 338 0
772 -678 0
705 612 0
424 -426 0
74 173 0
360 -233 0
233 341 0
129 308 0
293 -163 0
345 -365 0
-425 749 0
23 464 0
-195 348 0
598 517 0
-731 -515 0
429 258 0
69 631 0
-127 -220 0
-621 -773 0
-198 208 0
-249 124 0
730 631 0
-765 -570 0
114 -344 0
484 630 0
-162 -327 0
272 -330 0
-166 363 0
419 686 0
655 -434 0
-694 -43 0
-615 609 0
-119 -339 0
14 -420 0
-487 -231 0
466 -359 0
-377 -679 0
-446 443 0
-362 -471 0
549 -343 0
-660 597 0
-171 -433 0
484 -412 0
-525 -114 0
-372 31 0
-715 -495 0
-765 -454 0
-36 120 0
550 4 0
-492 384 0
404 350 0
769 -214 0
-154 -597 0
680 58 0
-401 -199 0
248 -680 0
101 478 0
411 336 0
-172 -598 0
110 708 0
744 -697 0
-757 436 0
-581 417 0
14 277 0
385 -272 0
236 -395 0
753 55 0
-509 -709 0
653 -244 0
663 98 0
361 -263 0
-763 -603 0
-231 740 0
238 -7 0
-584 -654 0
678 445 0
358 339 0
-80 745 0
419 586 0
128 65 0
260 378 0
103 665 0
-201 -268 0
-105 -259 0
-63 -372 0
-691 -328 0
100 -442 0
-509 477 0
-717 -633 0
-130 235 0
647 255 0
157 -531 0
418 233 0
-401 419 0
378 216 0
257 -56 0
16 635 0
-443 -283 0
413 543 0
-484 -459 0
419 751 0
585 -143 0
465 -755 0
-184 -112 0
-345 -82 0
-446 -73 0
-633 -89 0
-267 114 0
346 -592 0
-564 -338 0
277 240 0
540 -615 0
442 -677 0
511 621 0
-347 756 0
160 -586 0
645 662 0
719 -603 0
27 -664 0
-310 556 0
611 -65 0
653 -119 0
436 -89 0
71 624 0
471 742 0
183 710 0
-217 257 0
-724 -259 0
-548 388 0
-143 -167 0
719 -268 0
-58 337 0
-522 -564 0
-711 561 0
241 109 0
-69 -633 0
85 260 0
59 -202 0
96 -210 0
572 -103 0
300 98 0
435 565 0
-298 415 0
150 -560 0
71 -21 0
393 -425 0
164 -55 0
15 712 0
-759 200 0
-655 -273 0
489 -220 0
536 241 0
-175 -135 0
350 439 0
84 63 0
-390 164 0
34 366 0
434 -741 0
503 265 0
-84 224 0
-227 304 0
-584 -80 0
734 168 0
400 771 0
-116 -242 0
-409 14 0
48 -179 0
-638 751 0
761 484 0
-289 521 0
-371 357 0
583 770 0
376 9 0
-227 651 0
80 13 0
241 -675 0
762 -22 0
63 545 0
222 222 0
726 594 0
727 -153 0
-39 255 0
-488 346 0
577 244 0
600 544 0
-485 -233 0
615 221 0
-744 -112 0
96 -161 0
353 27 0
-447 92 0
76 384 0
-496 -319 0
-420 408 0
772 -81 0
689 549 0
-719 -357 0
214 324 0
568 320 0
-774 -215 0
-358 766 0
-266 -461 0
470 32 0
556 -48 0
-525 413 0
-167 -749 0
-372 145 0
128 203 0
315 -322 0
-28 -537 0
-339 732 0
120 -380 0
386 -179 0
-485 -81 0
-490 -322 0
-168 -584 0
-130 -430 0
-330 770 0
642 -242 0
-422 -524 0
374 -274 0
510 -412 0
258 654 0
-543 -724 0
159 12 0
-468 -217 0
