c NF
p cnf 2060 5562
1231 1186 0
1754 -1218 0
-1257 -794 0
179 1372 0
-139 901 0
-1861 1310 0
1389 1576 0
-2060 -898 0
1776 2015 0
-1864 -1290 0
323 -1926 0
-1849 260 0
1279 1901 0
-374 -638 0
1206 843 0
1145 1532 0
-1852 -466 0
-859 173 0
423 1104 0
-71 -779 0
632 -263 0
-747 1913 0
1532 1014 0
-2 1539 0
-978 1157 0
132 825 0
346 -1891 0
1006 1116 0
-451 -256 0
1329 -22 0
1825 1172 0
212 -1515 0
-630 183 0
-678 1623 0
-521 -1532 0
1908 630 0
-763 182 0
2018 1335 0
-789 1746 0
805 -1101 0
-411 1100 0
219 934 0
53 -1305 0
-1550 589 0
39 782 0
1915 -1234 0
560 1205 0
-352 1099 0
203 1482 0
1592 2003 0
996 -1582 0
946 -1765 0
1490 1239 0
-416 -1759 0
-26 -399 0
1385 679 0
-749 -1960 0
1508 -1742 0
-945 1838 0
-1775 904 0
-1071 1782 0
-114 -1633 0
-1041 -1961 0
-1198 1736 0
-1241 699 0
933 1176 0
-1915 -961 0
1195 2058 0
-1538 1963 0
-1463 1617 0
448 -198 0
-154 -505 0
1208 -1975 0
1920 2 0
-857 969 0
632 1827 0
808 1896 0
-1375 138 0
-761 1264 0
403 -1609 0
-254 627 0
-759 -1260 0
-159 940 0
-675 1418 0
210 1135 0
-1093 1044 0
162 -947 0
-555 -816 0
1553 1485 0
896 -1420 0
-534 410 0
215 -1362 0
548 1236 0
1602 75 0
-1195 780 0
-1775 1648 0
-1243 780 0
-1599 -301 0
1910 49 0
245 -433 0
-1572 -1297 0
-1889 -1618 0
-366 1710 0
1194 -640 0
1199 406 0
474 437 0
-885 998 0
-1561 1751 0
1410 -1869 0
-1209 -253 0
-564 256 0
-510 552 0
-1898 -636 0
1745 936 0
-1069 -1489 0
1748 1126 0
202 1603 0
1152 1162 0
490 1554 0
-1324 257 0
-1678 146 0
-823 1264 0
1588 -1229 0
1553 1907 0
1637 1606 0
971 1718 0
1157 -1240 0
-1495 -1188 0
1747 -205 0
-1709 -1837 0
-919 1016 0
-43 139 0
40 299 0
-772 1752 0
454 727 0
319 -1839 0
531 1937 0
-593 598 0
24 -232 0
2024 -480 0
-471 1106 0
-20 -563 0
583 1368 0
-809 1982 0
627 -308 0
-920 -1870 0
-423 -1499 0
634 196 0
-1406 1417 0
-226 1037 0
-1594 -537 0
-1626 318 0
621 1155 0
-360 -986 0
269 -1053 0
-1035 -812 0
-1530 -1197 0
-285 1925 0
1619 -400 0
-1297 1248 0
-872 1374 0
-1730 1560 0
-2002 1482 0
1613 -386 0
1939 221 0
1430 611 0
-1664 880 0
-494 -1699 0
-859 2043 0
-191 791 0
-328 372 0
-1645 -2048 0
1275 -326 0
-1355 -1454 0
-729 1156 0
-1123 1587 0
-291 1914 0
-71 -51 0
1154 705 0
1433 -91 0
115 156 0
1741 -34 0
-2020 -1114 0
-371 -542 0
1089 -765 0
2017 -567 0
94 -366 0
-1390 557 0
-1427 -616 0
-674 2050 0
-145 1844 0
-1284 1821 0
1848 -1065 0
-205 484 0
1655 343 0
-1870 -898 0
1157 295 0
1325 1314 0
-1229 297 0
-1793 983 0
-1915 -1391 0
494 -902 0
-174 437 0
-330 927 0
-1121 605 0
-431 1119 0
-876 540 0
83 1923 0
-1914 415 0
-42 -905 0
1706 1401 0
-880 1650 0
-617 1227 0
-1083 1253 0
-1468 -1638 0
1964 -1440 0
-1692 548 0
-1702 1155 0
440 568 0
-1126 1658 0
1574 -1408 0
-283 -962 0
808 507 0
436 -496 0
526 323 0
-446 718 0
-886 -1407 0
1265 -1234 0
-622 -1634 0
2024 -710 0
-1788 -416 0
-704 -519 0
613 -1376 0
-1568 1456 0
327 1000 0
666 -1289 0
1750 161 0
-530 2014 0
-1969 -779 0
1419 1956 0
-1680 1722 0
172 -1808 0
1155 -17 0
468 -696 0
1423 -372 0
152 991 0
54 95 0
-472 561 0
533 1688 0
1051 29 0
-1239 -1596 0
76 -1643 0
-1472 -1289 0
621 1393 0
-1171 -1012 0
-1140 139 0
343 903 0
-464 399 0
-1858 -545 0
-480 -1669 0
-1015 -117 0
1785 -1533 0
-1980 1036 0
1236 385 0
-1678 -1415 0
-1900 1456 0
-1349 1740 0
-693 1562 0
-711 1041 0
971 -261 0
1342 1697 0
1986 1723 0
1607 1339 0
-638 184 0
1257 -799 0
-1975 -411 0
393 401 0
2014 1425 0
1563 -590 0
22 492 0
-592 -1864 0
1821 -317 0
-710 1419 0
-1309 624 0
-1808 1738 0
-1930 1543 0
1387 -462 0
-1377 -658 0
1044 4 0
-623 682 0
-189 -1034 0
-871 1970 0
828 -1218 0
950 249 0
-1887 1001 0
-355 -1026 0
-1111 269 0
1817 -210 0
-483 -1783 0
-655 584 0
1127 875 0
1453 -1073 0
-1530 308 0
1302 1487 0
-1132 1367 0
-897 96 0
-1108 -440 0
1519 1116 0
278 -1299 0
-530 676 0
-1302 -440 0
455 -670 0
1384 1263 0
580 -918 0
-173 260 0
-927 -767 0
1075 284 0
411 -1440 0
-256 1196 0
1324 -57 0
-1499 63 0
1042 1597 0
1544 -521 0
-2001 254 0
-241 -1944 0
-1468 1115 0
285 517 0
1428 -37 0
-1074 -788 0
-1211 -986 0
-29 1329 0
-1578 -1764 0
554 -258 0
124 679 0
-1528 440 0
-778 -1500 0
-185 -819 0
-1550 516 0
-2051 -420 0
-1219 -1637 0
-1788 2057 0
25 -1633 0
-16 36 0
-1999 933 0
484 -1292 0
-20 1659 0
-145 -1093 0
-157 -1990 0
-327 399 0
427 321 0
704 -213 0
1884 -662 0
455 540 0
-1286 74 0
561 153 0
1875 -1654 0
2052 951 0
844 137 0
810 -1095 0
1912 307 0
-857 -855 0
-1713 -1219 0
553 -1926 0
-1171 1793 0
1956 481 0
60 1342 0
-1629 1334 0
1097 1789 0
-1536 -110 0
-49 1500 0
-1982 1900 0
407 1896 0
-243 -1643 0
-1391 -496 0
821 565 0
1012 -1484 0
-829 -1187 0
-1719 528 0
-467 -1027 0
1213 1396 0
-1314 -1952 0
-1612 1567 0
799 -491 0
1348 1898 0
1007 -431 0
-678 1385 0
-851 1922 0
-1250 -1032 0
-301 1740 0
-585 739 0
1804 751 0
-1036 -1091 0
-569 289 0
-623 1037 0
-538 1724 0
192 -92 0
1346 4 0
76 858 0
-1075 1526 0
1957 566 0
-1521 622 0
1706 -2054 0
-483 -399 0
-1375 -1053 0
-1771 -1657 0
-1768 -802 0
941 -34 0
-961 -1655 0
-522 1514 0
717 1397 0
-40 1372 0
1072 1285 0
1122 1977 0
352 1674 0
-1158 21 0
-1976 -1148 0
789 -1972 0
1206 -857 0
351 -989 0
-547 -72 0
725 -213 0
-240 1104 0
850 1940 0
-1614 -328 0
-473 1629 0
-536 -876 0
1723 -1109 0
-1271 -1493 0
934 1832 0
-1397 493 0
-1978 -691 0
2011 1069 0
1205 1444 0
325 1335 0
1107 -694 0
-1454 -1242 0
492 939 0
1099 -779 0
1334 1478 0
-102 221 0
-1435 91 0
-1185 -229 0
-1206 -435 0
260 583 0
-1226 1015 0
-1241 607 0
479 415 0
307 -1177 0
657 550 0
1154 -826 0
-22 120 0
841 -534 0
-1734 1192 0
1518 -1684 0
1119 771 0
1283 616 0
1188 717 0
1310 -1150 0
418 903 0
-1693 342 0
1311 -964 0
-279 1126 0
369 690 0
991 1333 0
752 1062 0
1201 -471 0
-1398 548 0
-590 1145 0
373 -321 0
1704 610 0
1771 -9 0
1418 -1748 0
-1880 1712 0
393 1378 0
-1061 -1858 0
-65 -1865 0
-412 574 0
-673 977 0
746 -691 0
-600 985 0
1138 1048 0
721 1594 0
-615 -67 0
-964 1925 0
-1525 -1346 0
486 1698 0
-89 1910 0
1566 -84 0
-1198 1598 0
-1134 -142 0
-270 -1972 0
1430 562 0
1023 -1163 0
813 1348 0
555 231 0
-1575 151 0
-1833 1803 0
-1709 245 0
-1092 461 0
-465 -2000 0
-1057 -428 0
-1070 -122 0
970 -1258 0
-985 1116 0
314 -1067 0
605 -1729 0
96 1584 0
1515 -1281 0
-654 459 0
1885 -1855 0
973 902 0
-976 46 0
716 443 0
841 1271 0
1528 -908 0
2032 -1718 0
499 -1872 0
499 -1978 0
-1366 -330 0
154 101 0
-1930 -758 0
-297 611 0
1826 638 0
883 539 0
-381 -1551 0
-1084 -1784 0
1187 -1583 0
-1049 973 0
1333 -399 0
826 131 0
276 -2011 0
-1441 -1744 0
1589 -1548 0
-1217 1125 0
-1637 210 0
683 -1649 0
-1115 375 0
1682 -2054 0
1495 1757 0
-937 -1542 0
-2043 1205 0
1201 365 0
1073 450 0
-361 -1646 0
-229 -1307 0
-1767 483 0
2006 -846 0
209 1529 0
1625 1039 0
30 209 0
4 -244 0
-1969 -1528 0
-1847 -261 0
-1678 -1845 0
37 1524 0
648 927 0
1463 -1605 0
-879 347 0
-1686 -756 0
-597 803 0
-587 -1640 0
955 673 0
-1607 -648 0
-1032 734 0
1178 -645 0
121 -1698 0
-1376 -1116 0
-934 -635 0
2011 757 0
1588 1540 0
-713 -1295 0
-55 -41 0
-57 -1330 0
-2053 -1009 0
-1043 -277 0
-1460 571 0
-1118 1761 0
912 1423 0
-1324 1448 0
1477 -1408 0
996 -1913 0
1558 -194 0
-603 749 0
718 481 0
-948 -361 0
-540 -1158 0
-1912 -1307 0
-948 -420 0
1825 -856 0
822 -1499 0
-849 1031 0
-1266 513 0
-1606 -1674 0
-577 -1349 0
-464 -1492 0
1352 47 0
657 1115 0
848 -263 0
-1712 1410 0
560 478 0
-795 -279 0
-1097 1784 0
-760 -1460 0
1976 -49 0
340 1195 0
-1473 -1852 0
142 -1073 0
-1980 852 0
-657 346 0
165 478 0
1248 926 0
-546 723 0
-702 -595 0
-222 1537 0
931 49 0
803 -83 0
-141 1125 0
-1236 -90 0
929 953 0
1395 1875 0
671 1510 0
-944 1187 0
-887 -1399 0
1620 40 0
-1063 698 0
1122 1731 0
254 1429 0
-1680 500 0
1854 -765 0
1063 -481 0
-541 -998 0
254 -1347 0
-424 -1958 0
-2008 1254 0
1875 1992 0
-93 491 0
-350 -962 0
-1426 -534 0
-674 516 0
-1565 -31 0
1162 -1259 0
-412 739 0
-1929 -1313 0
1210 302 0
-134 -312 0
-1838 -6 0
1326 -1178 0
1670 -1146 0
-980 424 0
-8 1494 0
1576 980 0
362 -1539 0
-1383 165 0
697 -1276 0
-34 -1163 0
-1394 125 0
-834 -1036 0
-1263 604 0
-1165 1818 0
2037 -788 0
209 1754 0
-88 -56 0
1347 1961 0
-1271 -1340 0
1445 -1218 0
-836 -1177 0
-551 698 0
485 -886 0
-1251 1168 0
-1678 -1942 0
-1799 -1097 0
193 719 0
-356 562 0
545 -1583 0
-501 2020 0
192 935 0
2006 679 0
-1322 1796 0
1890 -1680 0
913 917 0
415 269 0
1099 -214 0
-1528 -660 0
1367 1275 0
-1323 -1129 0
1121 1921 0
326 -1690 0
-1349 -107 0
-283 1063 0
1980 1063 0
707 -225 0
-1281 1908 0
-1366 733 0
-644 403 0
-431 -1545 0
1493 -302 0
-355 -1651 0
850 574 0
-65 -44 0
1593 -1454 0
1345 1806 0
652 -1052 0
-1315 1940 0
-551 -1336 0
-1245 -2043 0
-467 1986 0
336 -1562 0
453 1832 0
1380 196 0
-754 -487 0
225 850 0
1576 1731 0
290 552 0
-510 1043 0
1714 -45 0
1321 1232 0
1385 974 0
-772 -1363 0
-1472 -364 0
-1935 -97 0
2044 1598 0
1270 -215 0
1002 -1140 0
454 -1859 0
1062 709 0
-2029 1778 0
1360 797 0
545 654 0
1795 -1790 0
1251 1558 0
-1919 -998 0
1766 -21 0
1348 295 0
-25 -1314 0
-1818 -1744 0
1983 -773 0
762 945 0
1536 695 0
-115 949 0
-1252 423 0
-488 -1153 0
-111 -1441 0
1206 884 0
-624 -521 0
1046 -1890 0
-524 1945 0
405 -303 0
-275 1063 0
-1556 -650 0
2035 -92 0
-115 -696 0
-837 -363 0
-1244 1433 0
1235 -731 0
-1512 1598 0
757 -1249 0
-144 1693 0
-434 -1110 0
2009 1175 0
-335 737 0
1891 1806 0
1420 -460 0
1639 -1943 0
18 145 0
-1920 2055 0
1953 1782 0
169 94 0
-1093 -2002 0
-1183 -667 0
1395 436 0
1152 845 0
-1584 1834 0
-597 -1276 0
789 -1684 0
941 1076 0
1921 -426 0
-1573 183 0
224 1366 0
1936 1312 0
-1241 555 0
-1530 904 0
-1361 -1672 0
-503 30 0
-2016 -1243 0
1476 -88 0
826 1021 0
-398 1513 0
102 1126 0
1347 -1324 0
-473 -1224 0
-384 1193 0
1956 -1577 0
-1290 -246 0
1889 -1859 0
-1274 1902 0
1308 -846 0
-1034 1779 0
1135 1396 0
-1256 -742 0
1576 -241 0
180 802 0
1401 -671 0
-1190 -1345 0
7 -175 0
-601 1223 0
-78 -691 0
2022 -1655 0
684 1592 0
1770 -980 0
-263 1057 0
-979 284 0
-660 1460 0
873 373 0
1728 -1486 0
1418 -556 0
337 1999 0
-1358 -406 0
151 -1946 0
-987 -849 0
1333 -602 0
147 -1463 0
-576 -1923 0
-1962 1227 0
661 1827 0
-1536 -737 0
507 149 0
-440 -505 0
675 -1936 0
-596 1408 0
-775 -518 0
-29 -1319 0
-1773 -1869 0
-546 -383 0
-1563 1333 0
-1143 1439 0
-1386 -2 0
-1910 1746 0
1965 1188 0
-1630 -1292 0
-1303 -1250 0
1377 -1399 0
-1898 1978 0
1745 -1058 0
-1021 188 0
1151 -931 0
-1353 663 0
1984 875 0
1839 -1424 0
-61 -1479 0
1862 -1357 0
1107 -1750 0
-1596 -143 0
-1003 -855 0
673 314 0
1817 -902 0
1279 1314 0
53 61 0
811 463 0
193 429 0
-401 -426 0
-571 -1898 0
-2025 -768 0
158 481 0
-955 -1234 0
1574 -1654 0
1508 -190 0
-38 -1064 0
881 -1374 0
-1270 -525 0
910 1695 0
-578 245 0
-218 -366 0
-759 249 0
-1364 -928 0
1793 115 0
-390 -703 0
-1860 -1086 0
-1816 856 0
-1734 -178 0
1280 899 0
1522 -1645 0
796 -523 0
1248 -1659 0
-1120 -1590 0
-1235 -382 0
-1062 -609 0
1149 -355 0
-1387 208 0
-1711 -1246 0
-349 929 0
-493 -384 0
374 -778 0
-1274 -2015 0
-1978 -1853 0
-614 1339 0
952 1494 0
385 -1687 0
-334 -1595 0
-306 52 0
-245 1256 0
-1974 1428 0
1821 -990 0
1115 -135 0
1434 868 0
1145 -1038 0
-1452 -15 0
1757 407 0
116 -735 0
-1167 869 0
318 -355 0
-636 -1831 0
-932 -2011 0
1988 -841 0
1922 1259 0
1731 -1141 0
353 1435 0
-151 1285 0
-808 -1745 0
402 451 0
609 -1691 0
2043 1425 0
-1391 -19 0
746 -1329 0
45 -1713 0
884 -1686 0
-1484 -35 0
-750 48 0
1285 422 0
968 -1534 0
-1248 571 0
-57 364 0
1094 -532 0
-287 -1181 0
286 -1855 0
-648 -994 0
-631 122 0
1294 -602 0
439 -1870 0
607 905 0
-1746 544 0
-408 -649 0
1703 -1958 0
1143 743 0
440 352 0
1055 149 0
-1767 -271 0
1543 -55 0
-1892 -1232 0
-518 -1574 0
-460 -1198 0
336 -720 0
931 1970 0
553 -200 0
-1560 1970 0
965 1630 0
-1523 -1809 0
-1719 -1582 0
-57 -984 0
728 -646 0
-155 743 0
-1260 124 0
1231 1069 0
-605 -1841 0
-118 -1451 0
828 -477 0
-656 1291 0
-1051 -1034 0
-2009 858 0
-1637 -2004 0
1212 -28 0
1364 -360 0
-1680 337 0
1815 -314 0
1429 1409 0
-1268 665 0
1283 950 0
-426 -1402 0
-55 -1175 0
1566 1053 0
1316 -369 0
-818 1803 0
-2039 1496 0
-286 -1330 0
710 1969 0
1187 -1835 0
-1595 225 0
1679 -24 0
-1523 -496 0
424 -1722 0
-989 1484 0
-1911 -1314 0
-1358 1973 0
862 465 0
-231 -687 0
-1649 1921 0
39 65 0
717 -984 0
767 1811 0
468 1168 0
1735 617 0
-654 -163 0
714 -1517 0
1339 1651 0
-975 666 0
-1230 -597 0
1953 -277 0
-1922 -1560 0
708 127 0
437 1415 0
651 792 0
347 -1149 0
-1198 -1585 0
-1245 -688 0
648 1932 0
-519 1686 0
-1493 1116 0
458 -405 0
-1673 954 0
1051 -1994 0
-1556 -438 0
1553 437 0
932 -1322 0
-1640 -726 0
1672 -1995 0
-1129 1545 0
404 -1257 0
1284 -1419 0
822 -1091 0
943 358 0
-1472 -2047 0
1800 -1721 0
-2029 1463 0
-1263 1447 0
384 1984 0
1499 593 0
-1089 -2027 0
-2024 515 0
-1948 -1855 0
742 333 0
41 -1526 0
-1923 -480 0
805 1423 0
1266 -522 0
-1903 -887 0
-1637 -872 0
-1758 -1644 0
-1972 1543 0
-1659 -1933 0
-326 348 0
-1611 -163 0
1388 1023 0
-1181 238 0
-1548 1391 0
611 -111 0
1878 537 0
113 -300 0
1372 1577 0
-940 1650 0
-1408 416 0
-1896 1732 0
525 502 0
-464 1429 0
1553 -843 0
-442 1396 0
-1973 -183 0
844 1123 0
838 -2051 0
-266 -276 0
-22 101 0
717 -830 0
-787 511 0
472 1047 0
-578 127 0
-1664 -1502 0
1746 1169 0
-99 524 0
-828 -1828 0
-1931 598 0
-1060 1702 0
-312 873 0
-1324 406 0
-1739 2007 0
1114 1487 0
-1056 -1135 0
-1903 60 0
912 -1449 0
-678 399 0
2045 102 0
-1017 1306 0
-1033 1735 0
-1225 348 0
-490 1097 0
-489 1186 0
-784 -680 0
869 -930 0
-1206 -683 0
-339 1901 0
-466 -173 0
-853 -489 0
-636 1537 0
1066 -1065 0
-1753 -46 0
1589 -610 0
-1576 1430 0
414 433 0
-1609 1382 0
1010 -836 0
437 1918 0
1155 254 0
-1980 -194 0
403 1025 0
1292 -602 0
1208 -969 0
1745 1416 0
-1351 728 0
-1291 579 0
-553 1844 0
980 -49 0
-1713 -1774 0
1442 -19 0
1344 1216 0
-1129 81 0
-1825 531 0
-322 -1233 0
800 -725 0
-987 -1727 0
106 880 0
1612 -1204 0
-1217 -93 0
1956 1713 0
-790 -276 0
1090 707 0
-2014 -1647 0
1318 1541 0
907 117 0
1924 525 0
559 62 0
1739 1028 0
-1634 -1934 0
-1665 -74 0
913 -1380 0
1129 -1451 0
1486 1091 0
-1800 442 0
-29 -416 0
23 -1591 0
-312 1258 0
-222 220 0
840 1516 0
-868 -330 0
1677 -62 0
833 -217 0
-1263 640 0
749 -785 0
-1607 1256 0
1201 -1766 0
-1853 -1290 0
-309 -1788 0
1592 1 0
-1594 1078 0
1302 -1062 0
-944 1396 0
-1445 654 0
-1056 1270 0
-1282 1132 0
-3 1271 0
-1738 -1552 0
-958 378 0
122 1554 0
-942 -924 0
1472 -820 0
-576 1140 0
1695 1379 0
-1786 -389 0
1269 -1584 0
-1937 -84 0
-693 952 0
388 1553 0
-1388 1638 0
39 209 0
-380 -195 0
1171 -1402 0
242 566 0
-1995 1276 0
-765 1638 0
805 845 0
270 -1834 0
1298 1579 0
-1230 -1439 0
-1645 -1722 0
-391 -708 0
-371 -1376 0
-746 -1654 0
-1856 263 0
365 -609 0
1006 1155 0
-646 -345 0
1044 -615 0
-322 164 0
-1303 -616 0
743 -1091 0
-1035 -1975 0
-168 -928 0
-1467 1766 0
-1577 -557 0
1146 1936 0
129 873 0
-916 1376 0
1388 -1394 0
-146 1348 0
2009 -423 0
1220 2052 0
255 1673 0
-211 531 0
304 1557 0
1204 1237 0
1658 180 0
1168 -147 0
-1882 1800 0
-1915 -887 0
1906 1861 0
-1909 1013 0
-1794 743 0
745 759 0
546 316 0
1872 -255 0
725 -422 0
1407 1841 0
-773 113 0
-915 -1175 0
1484 1501 0
-565 -70 0
1701 1079 0
1987 25 0
-101 -1336 0
59 -1761 0
-572 -1875 0
-1520 233 0
-1907 -861 0
-1263 1800 0
1147 -1113 0
771 -1276 0
-2057 825 0
145 -1729 0
-1018 -1742 0
-1342 167 0
-1826 -919 0
862 779 0
1627 696 0
1203 411 0
-68 1941 0
-611 -876 0
2006 -9 0
1521 -1489 0
229 2018 0
-1124 745 0
-668 1038 0
-1872 -376 0
-113 -1209 0
-1078 873 0
1601 -1734 0
-49 -564 0
-308 -19 0
324 -405 0
-186 506 0
2025 -1942 0
-31 -1942 0
-2015 -781 0
-1855 1765 0
43 640 0
-780 1631 0
-171 -1694 0
1571 -1255 0
1544 -74 0
398 -1780 0
-1622 -1209 0
-1777 1835 0
1922 -276 0
417 -1100 0
-858 -1454 0
-1441 -993 0
1762 1464 0
-1337 513 0
1890 -464 0
362 550 0
-1141 -286 0
-54 -464 0
841 -750 0
1928 -1509 0
-1496 -1032 0
307 -1711 0
-1721 162 0
-1 1418 0
1087 614 0
570 -776 0
-256 8 0
1870 -1248 0
1829 621 0
-1771 -143 0
1738 -928 0
-251 -794 0
-1852 -871 0
-932 -413 0
82 1339 0
284 1433 0
1986 224 0
-1188 959 0
534 -1058 0
890 679 0
-1333 468 0
868 1762 0
1258 -644 0
828 -2 0
-1120 -1644 0
2008 319 0
-1461 -1086 0
-1888 -1732 0
418 1833 0
1061 -1909 0
1507 -1729 0
1412 883 0
-1124 -586 0
-807 -1106 0
165 652 0
-1702 -349 0
1116 -1936 0
1067 926 0
-532 1977 0
-1358 1728 0
-1709 -1309 0
1656 1451 0
-366 1137 0
740 1191 0
-1350 1319 0
-1719 -730 0
1433 -1506 0
-1167 800 0
-830 206 0
1455 1543 0
-1340 -1551 0
675 -1482 0
-551 -1221 0
1441 -308 0
1006 -2 0
-667 2016 0
-531 1334 0
628 -1842 0
1954 -926 0
-1905 1098 0
796 1251 0
-1405 -434 0
39 -338 0
1558 -510 0
881 -1043 0
-1626 881 0
-252 429 0
-1656 -961 0
2040 -902 0
2045 246 0
-1082 745 0
-790 -971 0
-1229 -1172 0
-1303 1970 0
1705 -271 0
-1962 -2039 0
656 1694 0
-308 1593 0
-609 -635 0
-1967 -232 0
1182 1195 0
-226 1875 0
-726 -1870 0
1262 -1274 0
-1067 661 0
1943 1182 0
-35 -2031 0
-603 -771 0
1151 -1531 0
496 -1420 0
-1668 2016 0
517 -395 0
1219 1045 0
-325 1138 0
922 -19 0
1284 1569 0
-1641 1867 0
-1474 72 0
265 2037 0
-160 1379 0
-1534 -1517 0
319 -114 0
949 -1882 0
-1950 -1767 0
1692 -306 0
-1780 73 0
1896 1918 0
-57 1293 0
-1640 -1862 0
-252 549 0
-1813 1392 0
-649 507 0
61 1701 0
1138 206 0
444 -1555 0
-863 -1356 0
-1865 1686 0
1121 665 0
-244 1069 0
-1797 810 0
514 1041 0
-1617 -144 0
-2010 1401 0
-2014 459 0
920 1410 0
289 -1547 0
1873 -43 0
-10 -1440 0
-1014 1988 0
2060 -960 0
2020 192 0
1785 -1632 0
323 1681 0
-197 53 0
-330 898 0
1030 32 0
4 1675 0
1985 502 0
1425 835 0
1468 643 0
-130 1590 0
-377 -1508 0
1657 792 0
1483 253 0
1917 -1979 0
1434 117 0
1917 280 0
873 564 0
1473 1291 0
1656 1401 0
1068 669 0
198 -1550 0
1429 1930 0
515 2030 0
-1006 -804 0
1471 1602 0
-394 -1426 0
643 1087 0
1189 1964 0
1969 1516 0
1782 -897 0
1779 59 0
1900 18 0
-1152 -541 0
1570 -1131 0
2005 -820 0
-68 -236 0
1055 -694 0
780 269 0
-1730 -1366 0
1855 -79 0
1626 607 0
439 -606 0
-959 -691 0
2046 -311 0
-80 -775 0
1197 221 0
852 -1171 0
-1997 -662 0
400 1964 0
628 -136 0
-24 340 0
1510 1240 0
-1678 18 0
-1344 796 0
-1411 1326 0
1741 1530 0
1672 1472 0
-1960 -2029 0
1791 -1849 0
-57 -1073 0
601 1519 0
177 -1754 0
1835 1044 0
258 -198 0
314 -451 0
763 957 0
2006 1576 0
43 1878 0
1699 932 0
-1971 -1909 0
-706 -521 0
-926 -476 0
-1985 722 0
1160 -366 0
567 -348 0
-1768 179 0
-822 1133 0
911 -197 0
-930 -891 0
-937 1377 0
-226 1676 0
1236 -619 0
1571 -432 0
-1850 1283 0
-204 641 0
-1331 1326 0
-839 520 0
1790 -1107 0
-1458 909 0
-847 -760 0
-1755 -1913 0
883 -998 0
-2019 -1217 0
752 695 0
1964 -427 0
-501 1068 0
149 619 0
510 -483 0
994 1011 0
-1316 -831 0
-1948 1832 0
545 2018 0
1334 -1554 0
254 1446 0
999 -176 0
1482 132 0
771 451 0
-2004 -905 0
-1003 -505 0
1404 676 0
-1605 -196 0
-261 1658 0
-1766 1621 0
260 -435 0
-486 319 0
-1458 -599 0
-1841 -649 0
2000 -1487 0
-817 780 0
801 -1814 0
-334 -1816 0
1461 -405 0
-1842 789 0
128 1377 0
1595 -1626 0
-280 877 0
18 -724 0
-1454 611 0
-578 672 0
1777 479 0
505 -1106 0
-751 -147 0
1475 -1466 0
1423 2011 0
-1901 219 0
-1688 -596 0
-1892 1299 0
1738 -438 0
-99 1945 0
868 -1846 0
-1309 -1640 0
314 553 0
-55 854 0
1907 1583 0
-1351 -612 0
-1488 1074 0
-43 -510 0
920 407 0
4 692 0
-1469 -1002 0
545 284 0
1522 1590 0
1161 -1058 0
177 -1527 0
1072 -248 0
-1799 138 0
-1367 1549 0
444 -647 0
1496 385 0
-549 -1281 0
-962 -825 0
-1615 309 0
609 1949 0
998 -1886 0
-622 -1065 0
-1809 1902 0
1127 -1548 0
337 172 0
-366 -1017 0
-307 30 0
1602 1016 0
-1262 689 0
-1819 -21 0
-896 1001 0
-427 -23 0
-1248 1566 0
12 1063 0
-1541 2035 0
-1852 1387 0
116 1428 0
-668 -1968 0
2007 1678 0
-1986 -1017 0
-592 -649 0
442 -670 0
1859 -163 0
-2042 1352 0
17 121 0
346 -844 0
-794 1962 0
1722 -968 0
-1579 560 0
-670 320 0
393 626 0
730 1132 0
-1793 384 0
969 451 0
-1985 -443 0
-1513 -1841 0
1226 -1220 0
-971 1201 0
509 1683 0
70 -465 0
1186 -823 0
1400 73 0
-190 215 0
1738 66 0
1791 -1082 0
-1898 1631 0
-454 -186 0
-1849 -1457 0
1676 1286 0
-153 67 0
-1078 1557 0
-10 -522 0
-1262 -12 0
-67 712 0
534 1514 0
306 -1427 0
1656 1167 0
1614 1331 0
-15 2042 0
1472 -2027 0
-1320 -29 0
425 529 0
2027 -460 0
315 -1996 0
-1637 362 0
-670 1987 0
987 1748 0
1291 -863 0
-797 -1889 0
-574 -420 0
-1475 -1531 0
-109 -392 0
1981 1521 0
1925 1495 0
1658 796 0
1516 106 0
-141 1036 0
1040 -160 0
684 -447 0
-77 873 0
625 1178 0
501 841 0
-787 1012 0
159 -428 0
-968 31 0
110 -990 0
1168 2022 0
-1868 951 0
-984 813 0
743 -65 0
1476 -253 0
-1322 425 0
689 170 0
1519 952 0
-1693 -288 0
-978 -960 0
-198 -952 0
1969 -1855 0
-1284 -1570 0
845 -1743 0
-1881 32 0
745 948 0
-1520 -2000 0
453 1868 0
-433 -2011 0
-1684 1754 0
-1972 -619 0
-938 1677 0
-1096 -1002 0
582 1925 0
-959 -1511 0
1915 -1226 0
1421 1197 0
844 -1074 0
-1882 -1897 0
1800 -1396 0
171 120 0
-738 1951 0
1195 2037 0
469 -1231 0
-1455 1176 0
962 248 0
-723 1508 0
1477 110 0
314 803 0
1923 -83 0
-1190 1057 0
250 -1789 0
100 1092 0
-1702 1547 0
-2030 1988 0
-256 -10 0
-715 -1862 0
1490 1000 0
824 1423 0
471 -156 0
-1865 164 0
1687 494 0
-1567 98 0
-31 -1933 0
-92 1240 0
701 13 0
-1520 -1010 0
-153 1099 0
941 -1226 0
1513 -1036 0
201 906 0
-844 -686 0
1169 -1497 0
-1664 -586 0
-1078 -27 0
-355 1001 0
-1493 -1185 0
981 -1118 0
1261 -1461 0
-1604 1042 0
-1837 -1092 0
450 1523 0
-1848 -105 0
-1658 -1996 0
372 1505 0
1710 1476 0
1067 -958 0
-962 -356 0
901 -1108 0
1443 -1494 0
-1666 808 0
1370 -27 0
1969 1256 0
1582 -516 0
-1828 1206 0
-1461 1617 0
-1822 -1618 0
-1096 -1260 0
2041 960 0
-1901 1401 0
442 1258 0
579 991 0
-836 250 0
-1512 900 0
771 612 0
1113 1482 0
-1645 773 0
-994 1306 0
807 992 0
-1083 1652 0
306 -1358 0
2017 1601 0
-292 1317 0
-79 -1984 0
1843 -990 0
-1858 565 0
-1105 1408 0
-1718 -1157 0
362 -1526 0
1159 -1488 0
-653 -435 0
261 -1610 0
1693 -1024 0
-1943 943 0
-1349 566 0
604 1476 0
-1046 171 0
924 -348 0
-1356 -1225 0
1290 -461 0
362 1306 0
-214 -575 0
-587 1145 0
-508 1501 0
566 -616 0
-1724 -1330 0
-69 -1716 0
201 1812 0
-1416 1614 0
1820 1034 0
-1990 -412 0
346 1638 0
1698 -463 0
-1397 1324 0
1706 1930 0
-311 502 0
-587 2030 0
1345 -504 0
-943 558 0
932 -348 0
144 1339 0
-685 -214 0
734 1558 0
-1587 1608 0
1827 -1116 0
-2027 -251 0
1268 293 0
-328 1840 0
-843 -31 0
-16 -121 0
-376 -32 0
-645 1562 0
149 -402 0
-1033 178 0
-224 1569 0
1296 -67 0
-2025 434 0
1494 1385 0
1838 1338 0
-664 763 0
1726 39 0
683 -273 0
1957 -345 0
615 95 0
843 270 0
-71 -620 0
1534 1144 0
312 1638 0
265 734 0
283 1794 0
-203 -262 0
1537 -1178 0
-2055 1501 0
-114 1058 0
1143 415 0
-1114 1338 0
-1502 1204 0
1798 931 0
1450 1168 0
913 505 0
830 -831 0
899 263 0
482 1213 0
-351 -831 0
49 -1881 0
-584 -683 0
1623 102 0
-827 -1379 0
-57 -1350 0
-624 -1414 0
-685 985 0
-1052 1822 0
-1982 1645 0
-1241 -473 0
-574 576 0
-175 484 0
-785 -3 0
122 -1527 0
-312 -1982 0
-1635 462 0
-1837 683 0
-1999 76 0
1473 -863 0
777 403 0
67 -1447 0
-1533 -631 0
-1536 -2026 0
-68 694 0
-963 -493 0
826 -887 0
1515 494 0
218 272 0
-33 1445 0
-1198 580 0
-1116 -1312 0
-1842 1164 0
-381 -829 0
124 -147 0
-2049 1878 0
-1768 1385 0
-371 1766 0
397 1580 0
-1257 126 0
-727 1775 0
1795 -1613 0
-1116 1228 0
-1017 99 0
-1341 -1266 0
615 -1866 0
-1999 852 0
1662 314 0
-2028 -969 0
662 13 0
1722 1126 0
-90 -149 0
1762 -688 0
1384 516 0
-1637 379 0
-1356 -412 0
-715 -1536 0
227 1783 0
-1765 -861 0
-706 752 0
-1241 -990 0
-1980 1696 0
-1859 1038 0
-615 1257 0
-621 -1743 0
-731 -2004 0
1319 1108 0
1440 -1570 0
-1350 -1264 0
-758 824 0
-989 69 0
1670 -1308 0
334 -157 0
1637 1416 0
1092 -63 0
-141 1238 0
-1002 1965 0
-1846 1795 0
-2020 1549 0
1431 -1269 0
13 -1853 0
-2049 599 0
-525 122 0
-423 -223 0
-182 1433 0
1511 1861 0
-196 -420 0
1867 1796 0
792 -1639 0
1195 -651 0
1044 -1995 0
-1299 310 0
99 695 0
-378 -71 0
-1077 -1823 0
-1994 1770 0
-1113 -1721 0
-1556 456 0
2055 2058 0
-26 -1966 0
-1035 1549 0
723 -1018 0
1216 1617 0
1409 -658 0
1658 -8 0
-1951 1256 0
-1966 -166 0
759 -1127 0
-464 -2042 0
594 999 0
-1489 1125 0
-753 -1459 0
-681 -148 0
962 -644 0
-258 1462 0
1006 -1316 0
19 -1263 0
1023 -1359 0
-59 234 0
-1146 -960 0
761 -160 0
694 -2060 0
1579 -313 0
1731 1061 0
1920 -1313 0
1147 4 0
-1893 599 0
162 -1349 0
1578 -736 0
1703 974 0
433 980 0
-1292 -416 0
-1172 -123 0
363 1966 0
327 -1247 0
1571 -1559 0
-521 -1091 0
-1989 1461 0
1924 1701 0
1400 1941 0
721 456 0
-1643 -1594 0
-535 -993 0
1316 -367 0
802 1633 0
524 -2045 0
1879 -1309 0
1925 1200 0
1434 1881 0
1093 676 0
-537 -1595 0
-1496 -1888 0
337 -1325 0
263 1578 0
717 341 0
532 462 0
-1727 -83 0
320 -760 0
-1767 -937 0
116 -402 0
-284 777 0
-54 906 0
-55 -171 0
972 -1032 0
-716 -1241 0
1755 -816 0
-382 1947 0
1028 -769 0
-578 -313 0
1714 1451 0
-905 274 0
1757 -1382 0
-211 1522 0
-2043 -51 0
-1716 -1550 0
1183 684 0
142 1416 0
85 1633 0
1988 -366 0
1821 1632 0
1789 193 0
-1922 557 0
957 1537 0
845 -1942 0
-664 -1689 0
329 992 0
-551 -446 0
2037 293 0
-6 219 0
-744 -937 0
1576 -564 0
-1913 -348 0
9 1712 0
437 -864 0
-763 -179 0
-1633 -1613 0
-68 -442 0
-918 -1618 0
-426 698 0
-472 -2002 0
-204 -405 0
-382 1917 0
1793 98 0
-982 -1033 0
-1860 751 0
292 -1764 0
-1561 -1269 0
869 -1462 0
-1730 -1430 0
-639 -552 0
-430 833 0
-1233 -1094 0
-83 -1923 0
1892 1750 0
1468 118 0
-546 -775 0
-1922 -1797 0
55 741 0
822 -1826 0
1979 -1555 0
-617 -470 0
1237 300 0
-472 879 0
-1680 949 0
267 -216 0
1089 -473 0
822 596 0
558 -1493 0
-271 1092 0
188 -188 0
958 -1429 0
437 -1424 0
244 191 0
-576 422 0
1953 1610 0
-1121 -1161 0
-955 119 0
-81 -335 0
-796 884 0
-380 -569 0
-1979 -434 0
555 -72 0
565 189 0
-1128 -1041 0
252 -772 0
-1664 100 0
7 183 0
-322 -1793 0
1527 -1983 0
557 -725 0
-1068 -1983 0
1375 104 0
1736 154 0
2044 402 0
-837 -1722 0
-840 818 0
478 1723 0
-534 -343 0
255 1275 0
250 1676 0
-1460 -418 0
296 1560 0
-481 -90 0
890 -1314 0
1357 779 0
1423 -391 0
-713 1194 0
633 -1424 0
-2048 -338 0
671 -1846 0
-1355 -220 0
-54 211 0
702 -69 0
1573 -56 0
399 -889 0
-235 1984 0
978 -1705 0
1356 -742 0
-1729 557 0
1156 421 0
-706 -849 0
782 -72 0
-1582 1094 0
-1358 543 0
-1091 -692 0
1414 -1327 0
449 -134 0
-418 702 0
1050 316 0
-1060 -1326 0
-631 -908 0
-660 -994 0
1925 1796 0
-834 -1709 0
-99 -286 0
1618 -111 0
-496 -1574 0
-1680 11 0
815 1976 0
-1338 667 0
317 1651 0
-755 -115 0
179 -1690 0
1811 -691 0
984 1984 0
2024 -396 0
-879 1674 0
-270 1738 0
-986 711 0
-346 517 0
-920 -2000 0
1764 -1353 0
-727 667 0
747 -586 0
-1657 1847 0
1283 -446 0
1624 1516 0
429 1571 0
294 1095 0
-460 833 0
1287 -8 0
355 -483 0
925 1710 0
-623 598 0
-564 -900 0
2024 319 0
1542 -1887 0
957 513 0
-1784 -118 0
-685 -1041 0
625 -1841 0
-503 -1372 0
318 1896 0
1497 -1297 0
-1457 968 0
-1287 -1177 0
-1142 1271 0
-1914 2005 0
-1120 -1452 0
138 337 0
-1030 -1788 0
1733 -146 0
-885 -1685 0
1930 -1899 0
1871 -1351 0
-356 1229 0
-1948 -1565 0
207 293 0
1095 2028 0
1278 -334 0
1404 1357 0
1104 1264 0
10 -775 0
1955 -55 0
-75 -1069 0
1628 -414 0
378 -1501 0
552 1140 0
1279 -1903 0
-1619 -945 0
-1517 1887 0
-1523 -805 0
-538 1821 0
2028 374 0
1174 1273 0
1743 -2021 0
-610 28 0
-334 -1650 0
1969 484 0
-237 -986 0
-1 784 0
1042 1288 0
1257 1984 0
1952 1704 0
-1857 -16 0
1966 517 0
1456 1934 0
-1819 1689 0
1785 -1370 0
1184 1522 0
1616 109 0
-148 1023 0
-110 -693 0
-161 858 0
-1263 263 0
-1828 -1635 0
-1929 1925 0
-431 -797 0
-355 701 0
1563 34 0
982 1418 0
2046 -604 0
-1737 -1035 0
1166 1454 0
-1033 -1342 0
1148 -562 0
-1541 1287 0
-1027 66 0
-1518 1954 0
-1359 -856 0
1406 -683 0
-578 151 0
-774 763 0
1384 -1411 0
-1971 -503 0
-930 -1339 0
1270 625 0
1196 -313 0
42 -263 0
545 369 0
-1630 -86 0
-1567 18 0
1653 -1709 0
1732 -288 0
462 -507 0
598 1774 0
1069 134 0
-1013 988 0
-2038 229 0
-526 -521 0
-1953 -710 0
-1970 -1442 0
548 -1988 0
-631 1208 0
-21 -672 0
171 977 0
-455 -1928 0
892 2014 0
-335 -434 0
1483 568 0
1364 -1729 0
-533 -1312 0
549 -1493 0
-419 1006 0
-1457 -640 0
656 1341 0
172 1279 0
-2039 -441 0
626 -581 0
116 38 0
894 -1054 0
-452 -160 0
1464 -1346 0
1390 1707 0
-70 1958 0
2011 -532 0
1030 -1276 0
1682 -179 0
-1848 -1198 0
-1066 -468 0
-885 940 0
-770 -1248 0
529 -2053 0
-399 1670 0
719 -923 0
-31 -1664 0
1119 1692 0
-1322 1946 0
1783 -1609 0
-1728 1759 0
216 1071 0
1791 -1870 0
-1340 -2020 0
1223 -1635 0
-1282 -1725 0
869 -842 0
-1796 -971 0
689 -326 0
-157 1190 0
935 664 0
1834 -1263 0
-1838 -1705 0
815 -1441 0
1301 1157 0
-472 -23 0
1519 2010 0
1468 175 0
-572 786 0
751 1938 0
-742 -213 0
-1036 -273 0
-1067 -1389 0
-21 -16 0
-518 -937 0
-742 -1490 0
1095 1926 0
-1479 -1415 0
1632 33 0
711 -1667 0
-59 -1295 0
1794 -1885 0
1578 1744 0
738 -793 0
929 1047 0
-1865 -102 0
127 1252 0
-845 579 0
1893 513 0
-2059 -211 0
-1825 607 0
-1645 -1702 0
1316 1647 0
849 115 0
1997 1580 0
-486 358 0
1510 -1366 0
1260 -1131 0
-1254 1227 0
-993 677 0
1707 2004 0
-2026 132 0
-1849 -86 0
1961 -134 0
1869 1102 0
891 332 0
-1755 943 0
-1752 -589 0
265 -1554 0
-518 -1253 0
1450 -1714 0
-905 1114 0
1754 -1766 0
-1617 -727 0
534 28 0
1406 -1201 0
-1386 1135 0
-11 -174 0
-107 -348 0
-1699 -1078 0
-9 -1314 0
840 -8 0
1465 684 0
-70 904 0
-911 -1053 0
1620 -251 0
1631 -627 0
-57 -874 0
1861 793 0
-1713 -166 0
1877 965 0
1293 1153 0
-207 854 0
-1898 -1528 0
1791 -110 0
-10 385 0
-1430 230 0
-1536 -1013 0
-129 -1767 0
378 -297 0
505 1704 0
-35 -455 0
-64 -1706 0
1332 1057 0
-1814 -2011 0
361 -1323 0
18 1641 0
-369 601 0
948 -1754 0
-23 2053 0
1836 -2 0
444 -248 0
-95 1180 0
-1237 1825 0
-847 1925 0
434 975 0
-883 -1552 0
379 1041 0
-1997 582 0
-716 1176 0
971 -511 0
-1529 -604 0
-1939 -1247 0
-1029 -1162 0
1990 1927 0
-1024 474 0
-668 -691 0
133 -1515 0
-185 -32 0
1826 -375 0
230 -1188 0
752 683 0
-339 -9 0
1087 -68 0
746 684 0
-1785 -700 0
-87 -63 0
956 -1196 0
637 -1582 0
-814 -244 0
1038 -1517 0
1752 221 0
-382 -164 0
1443 45 0
1114 -1200 0
1829 1953 0
-537 1894 0
1656 -1066 0
-1005 1193 0
-466 1646 0
-1105 138 0
-48 -181 0
-114 -1793 0
-886 -1730 0
-197 1539 0
908 -1005 0
640 1920 0
-1147 -508 0
1648 -868 0
-599 -1515 0
2012 1321 0
-1584 -1828 0
1778 -1931 0
1850 -190 0
-1959 2039 0
-1344 757 0
-1474 908 0
-1094 -1517 0
527 -371 0
218 1581 0
-1666 677 0
-1214 966 0
1174 1046 0
-75 -1901 0
893 -329 0
-697 -815 0
820 -1662 0
-1787 1992 0
1790 284 0
1128 -446 0
925 1484 0
-898 162 0
-2019 -1796 0
-55 1939 0
-166 783 0
1267 1332 0
1068 2044 0
453 -1383 0
1514 -1143 0
-644 1000 0
1000 -1079 0
1531 -1018 0
1269 -1594 0
350 502 0
-1245 1360 0
1077 -1015 0
643 -296 0
-1463 -846 0
-589 -1691 0
-75 535 0
682 -134 0
-564 1412 0
716 607 0
1258 -862 0
-87 -1263 0
1194 -1810 0
-1443 -1470 0
400 -407 0
364 -64 0
1061 -285 0
-1942 -770 0
-886 -1332 0
-551 -1311 0
1398 -1793 0
1694 -1249 0
232 -1290 0
2034 -2020 0
-996 -163 0
-1046 1712 0
-2060 1760 0
-459 1832 0
-10 2027 0
-808 -21 0
-1482 -1106 0
-1802 -937 0
765 -38 0
-1142 -887 0
1449 18 0
-982 -367 0
-693 1285 0
-2019 -1190 0
1650 1626 0
1357 930 0
378 -1419 0
-1408 -768 0
814 1990 0
2022 -1113 0
645 -597 0
-1802 -417 0
26 -394 0
-915 401 0
1727 13 0
-1841 153 0
1396 1478 0
1430 -1203 0
-1356 -1108 0
1770 -1642 0
1644 -1086 0
616 1374 0
-857 1553 0
-100 1382 0
-430 -1876 0
-1120 1448 0
-105 -935 0
1955 -256 0
-631 888 0
-592 -1394 0
1677 -232 0
539 -1460 0
-1090 977 0
1331 -546 0
-1726 1820 0
-571 -585 0
-1397 -673 0
-100 545 0
-412 455 0
-839 -1850 0
1609 -1140 0
1320 1897 0
1012 1261 0
1545 -958 0
-1598 -1901 0
1492 -1297 0
200 -1550 0
-1239 739 0
1317 1375 0
641 -4 0
-706 467 0
177 1709 0
-1995 687 0
-1091 137 0
1228 -1810 0
1865 -638 0
-848 -686 0
1387 -1417 0
661 550 0
-695 1955 0
828 -1657 0
906 1045 0
-1734 -1936 0
1041 -1797 0
-285 -1058 0
-268 1927 0
1652 -1625 0
-1998 -671 0
643 1862 0
1954 121 0
-938 -1676 0
-1717 1351 0
-130 875 0
1612 1585 0
-1599 -560 0
151 -1848 0
-199 -1785 0
1686 1759 0
-859 1680 0
-886 -927 0
791 -1222 0
1436 597 0
1294 1833 0
-1424 -760 0
1980 -1555 0
2040 98 0
1940 -2039 0
693 -1527 0
-1219 144 0
-983 1754 0
371 1456 0
-1660 415 0
207 -7 0
-672 1144 0
-313 -1245 0
-1339 113 0
-1527 -1292 0
150 -82 0
-751 48 0
952 -279 0
499 1962 0
-1233 -1534 0
1417 894 0
1905 -1189 0
-832 254 0
-1415 1174 0
-1531 398 0
-1140 1558 0
-753 1252 0
-756 -1442 0
-1370 690 0
1254 -147 0
450 398 0
995 549 0
1531 -1301 0
-853 1056 0
338 -1219 0
246 165 0
999 867 0
1894 1081 0
-2019 -1553 0
764 -1208 0
-307 -1671 0
-1239 1202 0
995 1465 0
170 -891 0
-1284 1423 0
66 -581 0
1789 -1411 0
-308 -1428 0
-1087 880 0
-402 -263 0
1861 1 0
-595 494 0
1380 1806 0
-1500 -20 0
-885 -1806 0
-934 362 0
-405 -522 0
1044 614 0
218 -6 0
1109 1603 0
-1817 1670 0
-1768 153 0
1906 -1680 0
814 -456 0
1433 -295 0
-376 -1508 0
-2026 -962 0
-1147 -1764 0
-7 -311 0
913 278 0
-1170 -1419 0
-329 -812 0
560 -1466 0
1067 -446 0
61 359 0
1667 1818 0
-1243 236 0
-1171 -1923 0
1045 -781 0
-1215 -686 0
-315 -848 0
1224 1271 0
-573 -703 0
1138 -215 0
1344 -886 0
1775 1970 0
1851 1896 0
991 -979 0
299 -3 0
1475 -1327 0
1669 -541 0
-829 1253 0
798 923 0
-6 -936 0
-242 -968 0
1884 2023 0
1853 -1726 0
1332 -496 0
1917 1398 0
-1369 -1367 0
-1010 1319 0
841 768 0
1782 -1314 0
1519 547 0
1319 630 0
-87 -461 0
1318 -1015 0
236 -10 0
-1672 1399 0
-1070 1345 0
-1168 1885 0
77 -1120 0
1389 -1080 0
139 1964 0
246 -778 0
-364 1319 0
-1644 454 0
612 1316 0
-1719 -978 0
527 -228 0
-1694 -1462 0
-1322 -1317 0
453 -481 0
632 -607 0
1551 1562 0
962 -361 0
264 171 0
292 -1773 0
2006 -1398 0
-2004 -114 0
323 -1783 0
-1985 -29 0
-1783 448 0
-760 1395 0
616 189 0
892 -1729 0
1447 -1761 0
1819 1703 0
-808 -287 0
-1300 -936 0
-1657 1610 0
-1209 -1399 0
1545 -1240 0
1100 -1962 0
-311 675 0
683 -750 0
1829 180 0
1222 -767 0
-1024 2040 0
-799 1011 0
-71 96 0
1367 -937 0
913 -106 0
140 680 0
1401 1199 0
-461 1661 0
1263 719 0
-1812 1338 0
690 -1547 0
1116 -2015 0
1032 965 0
-699 -372 0
1257 1371 0
129 675 0
-1999 -1274 0
1885 1184 0
-1609 1326 0
-1479 1825 0
936 524 0
-1992 -1774 0
-1818 621 0
-179 1791 0
1980 1501 0
-1843 -685 0
180 329 0
566 830 0
1106 -1538 0
-1404 1573 0
1074 1899 0
-750 415 0
-105 132 0
-322 106 0
407 12 0
-236 -1830 0
1930 -785 0
-346 1253 0
-746 -1251 0
1979 -167 0
598 34 0
-2035 -9 0
-204 640 0
1544 -1290 0
-1226 -1507 0
676 -196 0
95 -1313 0
-148 1715 0
527 1874 0
1107 1549 0
881 1511 0
-966 1788 0
-168 599 0
1793 116 0
1049 -1761 0
882 -124 0
-568 514 0
-1859 1461 0
-1812 -821 0
-1263 813 0
2004 805 0
1018 -174 0
-892 -298 0
2047 -58 0
1181 -306 0
-1316 455 0
-832 -1584 0
-392 1410 0
-711 -690 0
396 869 0
-137 -1967 0
1159 1895 0
-1876 -304 0
1486 1829 0
-1491 -657 0
1069 -1340 0
634 -908 0
-1017 -825 0
1775 557 0
-1446 1652 0
-806 -60 0
-190 411 0
-1203 -622 0
-976 -1097 0
-66 -1049 0
1603 -1086 0
-1520 -843 0
1208 -1830 0
-796 1063 0
-1796 1908 0
-1171 -1606 0
-1876 -235 0
1253 -1073 0
-1048 -653 0
675 -1793 0
-1963 -1333 0
-1276 317 0
-1352 -808 0
-1996 594 0
-1527 553 0
-1946 -1830 0
-1076 -1500 0
-986 -226 0
1257 449 0
-1708 -431 0
-969 297 0
-39 -692 0
-1085 912 0
-1138 1539 0
583 692 0
1479 1176 0
-420 1348 0
1460 520 0
343 -1097 0
-1142 -33 0
-1589 1799 0
-1100 -173 0
-1277 108 0
1357 1917 0
4 1210 0
210 -2036 0
-1760 1794 0
1017 -1322 0
-1621 850 0
-294 1682 0
-1273 -1967 0
717 1823 0
1853 1299 0
-1504 -265 0
-1617 -1580 0
1632 1467 0
1747 -1736 0
320 -654 0
-70 47 0
-1148 -1786 0
-17 -1190 0
308 73 0
111 430 0
-1819 -635 0
1172 1581 0
-8 -794 0
-1090 1384 0
-147 -658 0
-1251 406 0
-237 -706 0
629 929 0
-2000 256 0
-1517 62 0
-105 1238 0
-1487 544 0
248 -1154 0
1929 752 0
-1863 422 0
1072 536 0
1325 -27 0
375 1951 0
357 1292 0
-594 399 0
739 -898 0
-1846 -1818 0
80 -853 0
-593 -1976 0
82 -546 0
-756 421 0
-2042 -321 0
1283 -1957 0
254 764 0
-32 -1590 0
133 1613 0
1974 1134 0
447 -865 0
681 -1056 0
1311 -56 0
1069 1777 0
2046 1607 0
1911 -794 0
1746 -1513 0
262 1628 0
-1463 1452 0
1186 -28 0
-1467 1211 0
1028 -1176 0
1923 1492 0
409 1752 0
508 2022 0
813 -631 0
-364 -1889 0
-360 1409 0
-706 1537 0
450 1674 0
-279 -1895 0
1704 1442 0
-620 -306 0
993 -647 0
657 1203 0
-1555 -599 0
1585 387 0
-1255 -1304 0
-2040 996 0
1095 1769 0
-97 943 0
1517 -1331 0
-1098 -322 0
-1556 4 0
264 1627 0
217 -579 0
-1373 969 0
568 726 0
1704 1452 0
561 -343 0
-225 -241 0
-907 129 0
-1511 -1598 0
1367 516 0
17 683 0
933 -1250 0
-1152 313 0
403 -1613 0
-1967 557 0
1347 904 0
1890 -1277 0
1603 490 0
1258 375 0
-690 1714 0
-1531 -961 0
-371 1616 0
-1753 -412 0
-1893 624 0
1746 -689 0
101 -1068 0
-76 1821 0
-773 1375 0
1924 -1781 0
786 -1866 0
-1824 1614 0
1480 206 0
-465 1133 0
-2044 1910 0
1715 -744 0
-1073 733 0
1731 1807 0
-902 -1716 0
-411 891 0
2059 1801 0
659 1836 0
248 -1542 0
365 -441 0
-1442 -54 0
422 -1336 0
1787 -596 0
-1369 572 0
115 -846 0
-539 1801 0
1639 514 0
387 1731 0
1417 1186 0
554 269 0
-1687 1478 0
1626 1030 0
307 1119 0
-719 1072 0
-1064 888 0
795 1983 0
1879 401 0
1442 734 0
-871 1827 0
-1186 -834 0
-1929 1353 0
-925 -252 0
1069 158 0
955 -16 0
-261 -1975 0
1336 1047 0
300 -354 0
1532 1089 0
1105 867 0
287 1794 0
1044 -1205 0
-1488 -1994 0
-1725 534 0
-6 -249 0
1833 1392 0
-831 137 0
-974 1205 0
201 61 0
908 -3 0
1472 625 0
-1030 652 0
-1913 -402 0
323 -243 0
1481 870 0
-1731 1621 0
-372 -334 0
-745 891 0
-1120 -70 0
1458 -1206 0
183 -1416 0
-585 -1583 0
-296 1462 0
347 1544 0
-2006 1923 0
-1551 -916 0
1860 -1035 0
-1497 441 0
456 -1852 0
1242 1692 0
302 -412 0
-86 1269 0
-292 -1829 0
1946 245 0
1574 67 0
-1320 -562 0
243 -412 0
-485 -1147 0
-1235 288 0
-1276 1632 0
564 -755 0
1297 579 0
-1848 899 0
-1931 -1691 0
-1647 -1607 0
-1954 -1402 0
2008 1480 0
-589 429 0
174 1423 0
-1610 1159 0
1283 -466 0
91 -1813 0
-1307 1979 0
1692 1119 0
-466 1283 0
590 -1363 0
-1022 -1845 0
-99 -85 0
-432 -366 0
-146 459 0
111 1824 0
661 -1551 0
80 -1730 0
-182 1377 0
756 127 0
-1761 1692 0
-471 -768 0
2028 380 0
979 1910 0
-662 -1304 0
104 -969 0
-467 1472 0
-1507 -234 0
-1644 1221 0
-1904 -603 0
450 1538 0
-1983 -492 0
-1136 -1519 0
-1542 -535 0
307 -1676 0
-129 659 0
1302 1561 0
-537 -829 0
800 1170 0
-107 -1149 0
-1307 1409 0
-441 -798 0
-334 342 0
-732 -1786 0
1996 870 0
14 650 0
1278 91 0
-19 179 0
979 -993 0
-1851 -1139 0
-1125 -1876 0
-671 -1892 0
1903 463 0
1377 110 0
-756 -88 0
41 996 0
-1158 -646 0
254 1299 0
1765 1671 0
-1029 1754 0
-1978 1889 0
796 -278 0
-1710 1149 0
-535 -1758 0
-975 1259 0
1246 -1781 0
1803 1173 0
-1414 -875 0
-1157 1445 0
997 -276 0
911 -1944 0
-440 -1851 0
-1992 1735 0
-270 943 0
-54 1751 0
-702 -764 0
949 -688 0
-2028 1974 0
-239 1283 0
-1667 1623 0
350 2059 0
-788 1268 0
1381 -1649 0
401 154 0
1692 -1271 0
-702 2009 0
1318 -1860 0
1213 1423 0
-2047 1336 0
-1331 1693 0
-1697 -356 0
-1856 -592 0
-955 -516 0
947 935 0
1588 1511 0
669 1210 0
-196 -1711 0
524 1133 0
1965 1272 0
1695 -503 0
303 -262 0
-1882 1410 0
-995 -804 0
2023 1481 0
-286 515 0
1447 1465 0
315 1815 0
1135 1908 0
1752 1373 0
996 405 0
-1309 1544 0
-231 457 0
151 1431 0
459 137 0
810 -330 0
-147 -268 0
-997 -1626 0
1238 -454 0
1012 1444 0
-1514 1799 0
1775 1183 0
104 539 0
775 917 0
621 -1899 0
1517 1756 0
-1761 -1488 0
-1319 1119 0
533 339 0
-500 -750 0
1897 -412 0
-1101 -929 0
-686 -1179 0
240 1580 0
-1360 833 0
-1336 -885 0
1154 608 0
721 89 0
-1320 -303 0
-1065 -977 0
2008 623 0
1416 545 0
1072 -297 0
717 399 0
283 -199 0
-1411 269 0
537 1814 0
988 1447 0
759 -394 0
1004 150 0
-1316 457 0
1794 1552 0
-148 -1797 0
1830 920 0
-500 -111 0
881 -432 0
924 378 0
1457 -668 0
28 -1097 0
1182 1198 0
-797 -1321 0
757 1379 0
1789 -922 0
1017 353 0
2038 684 0
505 -472 0
1718 -326 0
146 1930 0
-1493 -1038 0
-1217 1853 0
632 -1768 0
691 456 0
-1829 927 0
230 -890 0
-669 -631 0
-619 1535 0
-1373 272 0
841 -1453 0
1345 139 0
1371 -234 0
2035 2008 0
-356 -959 0
-77 -335 0
1523 -164 0
1359 666 0
694 759 0
-210 1956 0
-2057 1411 0
-1506 -1793 0
-529 -77 0
-1708 1154 0
1952 -1454 0
675 301 0
-914 -1358 0
873 -906 0
920 -951 0
-470 1147 0
282 881 0
-1892 -672 0
-657 495 0
-382 1183 0
-145 -1278 0
985 309 0
468 609 0
-1948 1112 0
-657 -1966 0
-1943 581 0
1144 -1112 0
591 1305 0
-1533 1456 0
1216 -731 0
1792 1681 0
-393 1997 0
-521 -1052 0
455 629 0
406 945 0
-1618 1852 0
959 -619 0
-1714 -1065 0
-1913 349 0
1039 -969 0
949 647 0
-1003 -12 0
933 -750 0
1581 -935 0
-441 1256 0
-234 98 0
517 -537 0
1117 -35 0
1841 1507 0
-1015 -1191 0
-203 -2022 0
-519 -149 0
-97 6 0
1943 1000 0
-636 652 0
-244 3 0
666 1713 0
1516 303 0
-426 229 0
-845 588 0
1444 1442 0
-1834 321 0
2050 -963 0
-793 -1495 0
1229 -1394 0
-359 877 0
-551 -1034 0
-1887 1412 0
-1232 -1427 0
-955 -1828 0
-1539 1317 0
1409 -1900 0
-1994 -30 0
-929 -1534 0
-1719 -961 0
1815 1315 0
-1693 -1390 0
1223 1302 0
-97 -1186 0
-1185 1731 0
-1869 -1860 0
149 741 0
1126 -447 0
-1863 -1276 0
-1892 1189 0
139 -1661 0
-1290 -334 0
641 -794 0
-1105 1653 0
-1250 -160 0
347 -1064 0
-202 -364 0
2040 -974 0
-295 -962 0
886 -2054 0
-83 -341 0
2032 252 0
-413 1690 0
-1123 1894 0
1132 -383 0
602 -1585 0
436 -338 0
-1491 -498 0
-273 -162 0
198 126 0
675 1759 0
-1069 1395 0
1705 1039 0
-472 -1091 0
-1488 451 0
-474 -1119 0
-9 1705 0
736 1371 0
-1708 950 0
-924 1639 0
-457 909 0
-392 -1604 0
-1653 -701 0
1920 -1799 0
191 524 0
-1070 117 0
1076 -573 0
1700 366 0
917 -791 0
582 -840 0
-1980 1932 0
-1207 1328 0
1792 221 0
-1911 -445 0
-697 1981 0
-1024 469 0
2038 1535 0
-1722 -528 0
-2048 -357 0
1690 2038 0
1047 -1106 0
1352 1791 0
730 1270 0
47 357 0
-1365 847 0
-787 874 0
-1703 995 0
1956 1494 0
-1974 293 0
1417 -1092 0
2027 1227 0
-176 1531 0
-1010 1195 0
1014 1088 0
-1856 248 0
-1718 -1569 0
758 -866 0
999 -596 0
1275 -1522 0
-576 -2036 0
310 -1408 0
508 910 0
-1273 1779 0
-1764 904 0
-1557 -1035 0
-2051 1357 0
-1280 1703 0
-1646 -332 0
-416 -1117 0
1139 1405 0
1736 -128 0
1226 1428 0
-995 -577 0
-1529 -707 0
-596 965 0
818 -1578 0
1446 -1536 0
-977 2005 0
12 1936 0
-1059 -1216 0
138 -848 0
-1569 -968 0
-585 867 0
-1630 129 0
-273 -1385 0
-1343 -136 0
867 442 0
1360 -1716 0
1354 488 0
779 459 0
-1802 -775 0
1767 -878 0
-1829 437 0
-45 1395 0
1076 139 0
-1405 1636 0
-820 1416 0
1720 -1977 0
-1330 255 0
299 1550 0
452 -1892 0
74 819 0
-695 -1414 0
-49 926 0
-211 1539 0
-1495 -1055 0
479 -906 0
-735 -472 0
-1651 541 0
-49 -1771 0
245 354 0
536 -396 0
-781 293 0
-1888 732 0
217 -2018 0
1910 377 0
-335 430 0
105 -1854 0
775 2037 0
-1546 -493 0
1725 1056 0
-2025 -1542 0
1653 1201 0
432 1556 0
-1536 -355 0
-268 -1722 0
-968 1894 0
-503 -1455 0
-744 -1281 0
-1760 876 0
252 -463 0
-1316 -706 0
1350 216 0
1769 -1163 0
309 977 0
-1359 1922 0
-1886 958 0
1539 835 0
901 973 0
743 -443 0
545 -645 0
-394 -1334 0
47 833 0
-685 119 0
-729 -1060 0
-1191 -1554 0
-1124 -405 0
342 -473 0
-214 875 0
-2026 -630 0
1940 374 0
103 1790 0
-672 1800 0
94 1325 0
1103 -161 0
1879 1066 0
-1344 675 0
-932 267 0
-1460 822 0
-1181 -1795 0
-604 1006 0
1610 725 0
216 818 0
1603 -1363 0
-2009 17 0
-776 442 0
-6 495 0
-968 749 0
-1739 547 0
-987 392 0
-1449 -1862 0
1386 -1575 0
1983 -29 0
-1089 1941 0
-942 -43 0
492 686 0
116 -1183 0
-1027 1083 0
880 746 0
-1793 -356 0
140 -445 0
-662 -233 0
1417 312 0
-1463 1562 0
1042 -298 0
403 1182 0
-1167 -1971 0
-1266 725 0
-638 1533 0
-868 -1059 0
-978 -13 0
-286 1005 0
-1266 1488 0
-522 -296 0
1205 150 0
-2048 -1092 0
2045 -1796 0
202 1458 0
1202 365 0
869 -263 0
-1243 -1240 0
-1015 -724 0
-1561 -2020 0
-1147 522 0
-1575 1683 0
1543 312 0
1121 1296 0
-1618 1197 0
1249 -528 0
-537 -2019 0
1337 103 0
-1209 -1355 0
-130 -987 0
-1105 -816 0
-815 -1895 0
-173 -827 0
971 102 0
-222 -696 0
-647 1204 0
1629 -93 0
964 1925 0
649 -1847 0
-450 513 0
-777 1173 0
1790 -1823 0
-1905 266 0
-335 -969 0
1829 -2001 0
917 1877 0
-999 1683 0
682 456 0
954 -15 0
456 780 0
361 -908 0
1230 -285 0
-470 539 0
-77 -237 0
-71 1051 0
-311 358 0
1818 -1729 0
743 -1479 0
-200 -646 0
-1092 -204 0
-45 -2043 0
949 -1290 0
-1677 -1015 0
409 1592 0
1492 -480 0
1955 -347 0
1429 -1527 0
1161 921 0
563 1851 0
1874 -1100 0
1914 216 0
-1904 582 0
-1506 -1000 0
1892 -631 0
-360 270 0
-255 -745 0
-292 -1108 0
542 1758 0
254 1387 0
3 1074 0
-313 -388 0
1890 455 0
-1703 -1584 0
1272 890 0
406 -1979 0
1423 229 0
-1274 -9 0
730 -546 0
-327 -581 0
707 -195 0
1299 1498 0
-26 -837 0
1391 -1588 0
-485 283 0
225 -1028 0
1763 -435 0
1637 171 0
-783 1811 0
502 -1389 0
1800 -859 0
-333 995 0
1595 -1429 0
917 -878 0
227 764 0
-639 -1286 0
1333 -26 0
-621 1871 0
910 104 0
2015 -1841 0
-1668 899 0
-1391 1335 0
-2054 1997 0
-390 1593 0
1480 -1008 0
1047 -1886 0
-1929 956 0
1721 763 0
-640 -1307 0
685 917 0
-467 -51 0
-1614 -1946 0
-1098 -1951 0
2018 1563 0
-1041 -1887 0
-226 1984 0
322 1513 0
823 1791 0
-1979 -384 0
1413 -4 0
1269 834 0
46 -42 0
-1123 -623 0
-1587 844 0
-1990 743 0
1145 1047 0
1303 1430 0
-258 -543 0
1970 -727 0
1320 -1180 0
96 840 0
1826 367 0
340 -1855 0
-1540 1748 0
-1848 2007 0
551 -1489 0
-1202 -2039 0
-1763 -1470 0
-456 1566 0
1364 1580 0
1915 -1470 0
-477 -641 0
-726 1913 0
-223 -110 0
377 -38 0
-438 1209 0
35 -1548 0
11 1076 0
-1124 -142 0
901 82 0
-1743 -1913 0
1879 2059 0
524 -1299 0
-636 -1727 0
822 1146 0
121 1153 0
-616 -1061 0
756 -396 0
-706 -831 0
1668 78 0
-298 1642 0
-112 1906 0
-1437 698 0
289 -1760 0
370 1045 0
763 1391 0
2028 800 0
-295 -166 0
1186 421 0
-937 -630 0
-1846 -1274 0
-257 2021 0
556 1344 0
1592 -1185 0
-1422 1514 0
-872 975 0
458 403 0
-437 -1730 0
-1997 28 0
473 1299 0
-834 400 0
-2019 -1999 0
-143 -1300 0
-1223 -1127 0
1224 -1909 0
1101 1197 0
-1323 507 0
1119 -479 0
-918 -820 0
-1913 1940 0
95 201 0
-784 -1541 0
-1856 -278 0
-1157 -199 0
-756 1025 0
-565 328 0
811 747 0
1443 -1478 0
284 -1043 0
-870 430 0
-987 -2033 0
-1804 455 0
1660 -171 0
-1301 1978 0
1782 811 0
1810 143 0
1414 -26 0
-1067 -283 0
1956 -920 0
256 407 0
-1417 -285 0
-685 -989 0
-1828 776 0
734 -1531 0
-1620 1446 0
136 -1455 0
59 171 0
-83 1495 0
1108 -1309 0
-1760 -68 0
254 -785 0
-1029 370 0
-1808 93 0
-1481 1794 0
-1186 1169 0
-773 -1735 0
2013 -1548 0
-372 -86 0
1921 1036 0
-1495 -1224 0
-1555 -1687 0
782 417 0
-1772 1095 0
1361 921 0
-1438 514 0
-1559 458 0
9 -56 0
1475 1128 0
-1083 -1194 0
-1414 1484 0
624 -758 0
-1278 -1784 0
406 -893 0
1722 663 0
-1667 1863 0
1710 735 0
-662 -1922 0
-1358 1930 0
1028 1192 0
1182 -436 0
-441 1805 0
-506 1970 0
1161 484 0
-754 950 0
-1529 548 0
853 -1229 0
1757 825 0
-2012 401 0
543 401 0
-664 261 0
1167 -1208 0
-394 165 0
694 -1667 0
-440 -1881 0
421 1765 0
866 409 0
155 590 0
-296 -1850 0
1445 -1649 0
-1940 -1421 0
429 -2034 0
-572 -178 0
-1005 -1617 0
-416 -1217 0
-1854 -1954 0
1357 1288 0
-2002 -1736 0
1628 59 0
100 -548 0
-284 307 0
931 1729 0
-650 -1305 0
363 -364 0
-1053 -597 0
870 -75 0
1036 1728 0
-1341 -1466 0
-326 -1032 0
-1700 -978 0
1801 209 0
1543 -1943 0
1902 -392 0
-173 748 0
-972 -33 0
644 -446 0
1403 1769 0
563 -570 0
868 -1500 0
-1685 265 0
586 -1696 0
-320 877 0
291 994 0
1889 -565 0
-1303 989 0
-1485 -859 0
-2019 -510 0
920 1391 0
549 555 0
1115 -119 0
661 666 0
1720 1025 0
-1468 -857 0
-88 1815 0
1145 1613 0
-1351 284 0
533 -500 0
1196 200 0
119 1660 0
-159 1961 0
532 236 0
626 -1372 0
41 1537 0
-1051 -1838 0
-1434 1261 0
-1632 -1488 0
-823 675 0
-776 363 0
1834 -111 0
1989 -90 0
-1905 1155 0
1467 -326 0
-496 454 0
-1328 224 0
-22 -1983 0
1754 -1407 0
1676 1562 0
-2045 700 0
769 611 0
-110 -77 0
-876 728 0
1431 -1012 0
1613 1337 0
-772 -1725 0
1114 496 0
-1189 1212 0
112 -64 0
-1324 -1795 0
1474 913 0
881 623 0
-333 -1221 0
-144 553 0
-1850 690 0
801 -164 0
2054 -898 0
764 46 0
1758 2003 0
1229 -275 0
-1896 266 0
-1668 185 0
-578 83 0
407 -1511 0
-305 1355 0
-1188 -1348 0
323 371 0
1384 95 0
2052 -1112 0
-846 -1495 0
-1141 822 0
666 1458 0
-655 -713 0
394 1326 0
1596 1133 0
-1026 967 0
-1766 119 0
-960 278 0
-1354 -735 0
935 1553 0
-662 873 0
-1380 -251 0
-470 -433 0
-462 -1743 0
1987 -1029 0
225 215 0
150 -2055 0
-525 -1319 0
996 513 0
-24 450 0
1954 844 0
-703 -1554 0
225 -605 0
-82 -263 0
643 1923 0
1560 2058 0
-196 -292 0
-1170 -1776 0
1738 517 0
-837 1155 0
1733 1954 0
881 244 0
795 -261 0
-1705 1236 0
-1282 854 0
1385 -1946 0
-1550 1639 0
-1096 343 0
-349 19 0
367 -535 0
1106 -1171 0
-477 -1593 0
-925 -1033 0
2037 -638 0
-1206 1456 0
177 1329 0
13 -1853 0
1677 1385 0
-334 1924 0
1004 340 0
1273 35 0
-615 -731 0
-1725 -1155 0
-1943 -1298 0
-692 1154 0
-1314 1808 0
1137 -1225 0
-438 -685 0
-1915 1575 0
260 568 0
524 -1165 0
780 -280 0
-915 -1901 0
-308 1151 0
1937 -1841 0
-939 -1749 0
-919 -1463 0
531 -1373 0
427 316 0
2038 970 0
64 640 0
-1767 1446 0
206 543 0
205 -1812 0
-1972 807 0
1453 -1948 0
-1648 140 0
-696 1241 0
414 1030 0
-1835 -1534 0
1173 -1618 0
624 270 0
556 -724 0
1377 -63 0
-1044 291 0
1052 -1854 0
-952 47 0
1212 -49 0
-1944 62 0
1368 353 0
-141 1655 0
942 -181 0
346 1502 0
-1974 1406 0
741 -1269 0
1220 998 0
548 -468 0
-1454 -1509 0
-283 -1489 0
775 1465 0
-690 939 0
-413 -1722 0
1711 -1584 0
-2040 1020 0
295 874 0
-1399 -992 0
931 -1558 0
-62 -525 0
-1663 1193 0
-1550 -716 0
-1148 897 0
347 1129 0
-587 642 0
1368 1635 0
586 -1643 0
-79 -973 0
1836 1624 0
1969 1955 0
659 -1188 0
-110 -1862 0
-2048 1960 0
1803 832 0
-952 -1453 0
-1203 1205 0
652 -855 0
415 -60 0
1971 -185 0
117 -11 0
-630 98 0
-334 316 0
-1172 -837 0
680 96 0
252 -576 0
641 -1684 0
-434 1035 0
-425 -280 0
-323 1544 0
-1800 -1449 0
-706 -1079 0
-1935 -1522 0
-2030 539 0
-319 -1214 0
-1103 -90 0
327 -1681 0
1733 -519 0
-366 -791 0
-490 1839 0
124 1753 0
-1262 1541 0
704 120 0
-1177 -678 0
-1958 221 0
-788 -1813 0
787 -2036 0
-1152 -444 0
1335 -1394 0
-933 -1687 0
-99 427 0
-846 1809 0
-1609 268 0
1936 -1766 0
1402 -129 0
-1963 -2054 0
-1850 37 0
-1613 -63 0
-1659 -97 0
595 -1271 0
-857 454 0
1343 462 0
-1267 -220 0
913 435 0
117 -927 0
-193 -1298 0
1210 -91 0
1403 1129 0
1255 1411 0
-701 1067 0
-978 656 0
-1983 1563 0
-418 -1702 0
-76 -1861 0
-906 311 0
-1976 -423 0
-693 1126 0
-298 489 0
-90 -935 0
1240 443 0
1360 1159 0
-1937 1525 0
-1636 -1855 0
-1015 1046 0
1673 -762 0
-22 1734 0
735 -51 0
-1529 731 0
1405 -1092 0
-1336 -502 0
956 -1032 0
-1703 -1215 0
192 -1717 0
1522 1434 0
682 -1762 0
264 1683 0
1163 1076 0
1372 -944 0
-541 957 0
1126 -288 0
-103 -1332 0
-475 1394 0
522 229 0
-2001 1180 0
-1348 1658 0
1783 -166 0
-2025 -1949 0
552 -1100 0
-1934 -1965 0
-1705 -1964 0
640 -1985 0
1503 1768 0
-1555 985 0
-370 326 0
1167 -1162 0
1238 -1997 0
153 819 0
-1137 -1976 0
-836 1939 0
1533 -435 0
-433 -313 0
1539 -425 0
-156 -962 0
1120 225 0
1230 2015 0
1048 -1324 0
-701 -704 0
-3 -1701 0
566 -879 0
741 -322 0
-172 444 0
931 694 0
-1017 150 0
-412 -1500 0
2013 302 0
-1217 -209 0
397 783 0
1192 -530 0
1415 -1496 0
259 -295 0
-672 -303 0
1490 1497 0
188 6 0
1244 1814 0
-1860 535 0
-394 1796 0
-398 -1474 0
-1556 -1950 0
-366 131 0
1484 -1455 0
522 -1088 0
-1928 -1852 0
-920 -1848 0
1652 1131 0
737 1815 0
1820 1565 0
630 217 0
-1996 -1698 0
-1860 90 0
-863 -1110 0
-1182 40 0
-1243 1044 0
-343 -38 0
-1340 -1971 0
-1301 -2024 0
-127 -619 0
-1873 1545 0
188 63 0
406 -1010 0
-119 1549 0
1145 -1719 0
1228 -1245 0
-531 934 0
-880 -1209 0
302 -902 0
875 786 0
90 965 0
1993 1819 0
-1053 -1645 0
-1993 1413 0
-1358 -928 0
1172 1630 0
-225 1040 0
1104 1398 0
-595 1906 0
-673 -1849 0
534 -587 0
-1876 -474 0
1350 -1189 0
-1386 -244 0
-1815 327 0
-1343 76 0
765 -966 0
1938 1263 0
-99 -1214 0
548 242 0
1286 1801 0
-363 1663 0
426 -1260 0
-1959 616 0
-196 -1664 0
1812 -1596 0
-141 -930 0
-1538 -1297 0
517 -829 0
1137 -252 0
-1070 95 0
117 857 0
-148 -1831 0
-410 -1866 0
1181 548 0
-372 318 0
433 -105 0
-1919 1938 0
83 769 0
-35 -1940 0
-712 651 0
-1773 -1315 0
-653 -169 0
-1467 223 0
-199 -186 0
-1649 -1488 0
1651 1448 0
679 -1888 0
1205 -866 0
-430 -1488 0
345 -562 0
-1695 -647 0
224 96 0
1643 1275 0
128 484 0
-1678 -45 0
-1755 1660 0
-1152 -1301 0
1658 1910 0
-763 362 0
216 1233 0
1038 -1847 0
-239 -211 0
-693 -476 0
-1456 1988 0
390 -585 0
1415 486 0
-417 1333 0
-739 1641 0
-1669 -72 0
-944 24 0
1131 -816 0
1822 -106 0
630 878 0
-628 -1830 0
917 -1629 0
1464 -534 0
-1838 1115 0
-1555 1335 0
-1172 1987 0
-528 43 0
-1011 1156 0
1028 931 0
-1598 -969 0
-1150 -1847 0
-1105 -1796 0
-940 -745 0
-30 1642 0
-1931 -614 0
346 -370 0
-1463 -1301 0
-1123 422 0
-1453 649 0
-1310 2044 0
-332 -727 0
1918 -491 0
-1002 228 0
115 -324 0
-1210 78 0
-1516 -1235 0
1524 -1985 0
-1055 -1654 0
-200 571 0
-934 -853 0
37 903 0
-1921 1333 0
1330 -595 0
-251 746 0
245 -355 0
101 1412 0
-1672 -206 0
560 -781 0
1448 -386 0
1974 123 0
-1750 -26 0
1788 -1766 0
-173 -967 0
-214 -1661 0
-1158 -1588 0
-1045 -959 0
443 1756 0
1104 -190 0
-1021 997 0
-426 -1722 0
1294 -42 0
-661 799 0
-1466 -976 0
-763 -1495 0
1079 1200 0
-1230 -587 0
504 906 0
-1812 -1976 0
-331 -1989 0
55 -22 0
-1599 374 0
-1530 1268 0
-484 -1598 0
-1300 565 0
325 221 0
1704 -881 0
555 -367 0
-213 873 0
-1594 -1397 0
-1899 -1357 0
-1390 -1712 0
-298 9 0
-895 -280 0
-748 -371 0
1568 -1533 0
26 -226 0
1204 -97 0
121 -410 0
1685 52 0
746 327 0
1363 -2011 0
-1473 175 0
1206 799 0
-984 1522 0
1574 1601 0
1829 -90 0
1732 333 0
318 -2020 0
1314 950 0
1936 1572 0
-1758 373 0
935 1110 0
1611 -292 0
14 494 0
-486 -2020 0
115 -283 0
-1273 1817 0
-1999 -1243 0
-1734 181 0
1726 136 0
1586 -806 0
-1766 1033 0
-1794 539 0
-2036 1591 0
-337 -763 0
-750 1826 0
-1943 337 0
838 -912 0
259 -1997 0
1873 1946 0
-345 277 0
-1198 -947 0
1557 -529 0
1009 1410 0
1195 -906 0
-1497 597 0
-355 -666 0
661 -1373 0
397 1428 0
246 864 0
1371 -1639 0
-391 -761 0
-418 206 0
-669 -411 0
-474 1513 0
-272 -311 0
23 -66 0
-1366 -1527 0
-1446 1458 0
-1816 -478 0
1652 668 0
1006 1895 0
-1872 -471 0
1981 -1455 0
-283 -71 0
171 962 0
1857 999 0
-1924 2038 0
-905 -308 0
734 -1960 0
250 -1322 0
95 -1086 0
-708 1692 0
-308 1888 0
-990 -1899 0
-260 -163 0
-1600 -1479 0
-1292 680 0
1022 1798 0
-1657 -191 0
-5 1545 0
1202 1298 0
-1704 -739 0
1940 -348 0
-2039 1920 0
1829 1639 0
1170 1100 0
1035 -1053 0
1839 -726 0
2013 -1100 0
-1640 1603 0
972 488 0
374 1245 0
561 -93 0
-1116 1436 0
1984 -1753 0
-1847 -1435 0
-781 1024 0
1493 722 0
514 -1659 0
-1518 1014 0
795 -1598 0
1214 1090 0
-797 -816 0
-620 1305 0
-541 1402 0
-1949 1204 0
155 1357 0
-462 380 0
990 227 0
-688 -1949 0
-871 -509 0
861 -1647 0
399 -1161 0
1268 -1378 0
803 179 0
1672 1918 0
494 -1987 0
1585 1900 0
-448 924 0
905 815 0
-134 -371 0
1903 1359 0
-1569 358 0
-1087 -1364 0
1621 900 0
1267 -1226 0
1116 -1264 0
287 1732 0
376 -311 0
115 1765 0
-1838 190 0
-200 733 0
-1027 -1117 0
1107 -420 0
1910 -1607 0
1527 -787 0
-436 -1734 0
1745 -2033 0
-1108 199 0
-2001 -301 0
-1537 1832 0
1338 1558 0
47 1357 0
-1569 73 0
-117 -1527 0
-298 -604 0
-771 1916 0
-132 -1117 0
417 439 0
-1930 850 0
277 -282 0
-1559 1806 0
1831 -1913 0
498 -1315 0
2041 1218 0
-1248 -797 0
1557 -1454 0
558 -765 0
-1316 -522 0
-1687 -401 0
595 -1816 0
538 -635 0
-1886 -981 0
-1383 -626 0
-1961 -1286 0
-945 1200 0
-1991 1672 0
1571 1491 0
399 571 0
-1515 990 0
821 325 0
1820 742 0
926 -482 0
662 -744 0
1532 1823 0
1377 -804 0
-635 1765 0
-390 -1061 0
-1784 717 0
-1029 555 0
1330 -128 0
-1719 -1075 0
890 -940 0
-1263 -743 0
623 -1008 0
-1958 607 0
-1823 -2004 0
1007 137 0
1580 -1876 0
-940 -551 0
-834 1010 0
633 1825 0
322 1275 0
-177 -1872 0
892 -477 0
1945 -432 0
-1058 439 0
24 -477 0
1837 -1304 0
-124 -693 0
-790 1919 0
-388 -1377 0
859 507 0
583 -1936 0
1014 -1821 0
-1179 1679 0
-889 1180 0
1348 -1534 0
-123 -200 0
165 524 0
1987 45 0
824 1571 0
1411 -1664 0
-711 -1158 0
-1288 -285 0
-1774 -1067 0
-311 1592 0
191 81 0
-186 -1597 0
-554 524 0
560 1485 0
1839 592 0
-519 -1853 0
1889 -1327 0
-1223 -1034 0
223 -1649 0
567 955 0
-559 1736 0
-105 2021 0
-532 879 0
195 1345 0
936 1311 0
-1830 -1568 0
1045 -431 0
1517 -540 0
1318 -15 0
1592 -190 0
1936 1384 0
-708 -1497 0
-21 -447 0
23 124 0
406 -208 0
-110 -1662 0
561 -517 0
313 1972 0
-435 -1539 0
-1605 -1799 0
-809 -1841 0
1352 -222 0
920 426 0
1203 -1620 0
-1983 -298 0
1021 1054 0
-403 -93 0
882 268 0
990 -685 0
314 1559 0
-1835 -466 0
-468 -448 0
418 -940 0
-1556 -887 0
1264 -1959 0
1690 1172 0
583 247 0
743 -205 0
-1705 -114 0
-343 -755 0
1686 -1205 0
-1402 1338 0
528 1653 0
-1659 -249 0
315 694 0
-1416 -234 0
1735 820 0
1410 393 0
-610 -1791 0
-1782 -1541 0
-528 1714 0
240 -1786 0
-1769 1782 0
-1962 -63 0
560 587 0
1281 -1654 0
-312 -474 0
-872 -1919 0
-1719 1485 0
-1550 45 0
1472 -185 0
1522 -1339 0
695 1448 0
-212 971 0
-1605 1646 0
957 -46 0
-1408 27 0
236 1728 0
588 641 0
-603 1157 0
-495 469 0
-639 1962 0
-1709 410 0
658 -1106 0
42 791 0
-413 -1328 0
-1463 877 0
-1820 1580 0
-1614 -617 0
-1685 432 0
-1901 188 0
-1936 -20 0
1936 508 0
-761 -73 0
1429 949 0
-1280 559 0
-1300 2053 0
-781 544 0
-1730 205 0
-1225 -828 0
-1644 1066 0
875 -1070 0
-498 1407 0
888 1920 0
-203 482 0
1891 1921 0
-86 1682 0
-541 -1025 0
722 -534 0
-1691 -397 0
1815 1683 0
143 28 0
-1716 -674 0
144 514 0
-1153 -208 0
1362 1726 0
1484 -1815 0
1280 1652 0
1446 1176 0
-1403 -1311 0
-1911 973 0
1950 566 0
706 -576 0
-989 1443 0
-92 -307 0
-1012 -1027 0
-806 -122 0
1627 -1995 0
875 25 0
-1298 359 0
106 -1373 0
-219 1411 0
1159 1445 0
2012 -1570 0
192 -1931 0
-460 -703 0
32 1024 0
-631 -629 0
-79 1799 0
-1737 1564 0
-1829 -720 0
-2045 -1612 0
-519 -182 0
363 -1313 0
-1422 -444 0
-262 -1662 0
1464 -1757 0
1998 -44 0
-1474 1434 0
623 740 0
818 1615 0
963 -20 0
-696 -1435 0
1455 427 0
-382 1294 0
-1150 -1659 0
541 1629 0
1431 -1016 0
745 -780 0
-1760 1558 0
266 -169 0
-1566 254 0
-1963 -2049 0
80 -655 0
1006 1423 0
573 -1607 0
177 740 0
-1668 -446 0
-434 -1728 0
1169 131 0
1448 -1637 0
-1342 428 0
-689 -1841 0
1193 -1185 0
542 1311 0
-447 -961 0
530 -546 0
-84 579 0
-1364 787 0
1998 1949 0
184 822 0
1371 -2059 0
1097 -367 0
862 -1667 0
2057 -1868 0
1348 -1082 0
1512 -512 0
766 240 0
1182 791 0
-1394 -149 0
1380 1931 0
-238 492 0
-1602 -912 0
1229 -1101 0
1005 -994 0
1297 825 0
1505 -135 0
-772 -758 0
1820 1703 0
1864 -1009 0
-130 -687 0
-1632 -1863 0
-660 -572 0
-1701 1885 0
279 -1661 0
-1976 56 0
-1065 -1889 0
952 -829 0
-253 -286 0
83 -1219 0
-42 -1806 0
626 1677 0
-862 -2025 0
-1341 -109 0
545 -1215 0
-524 1733 0
188 1454 0
37 -345 0
1162 -2048 0
1901 1337 0
1604 994 0
-1739 -1583 0
831 -243 0
1846 323 0
373 246 0
-1857 1693 0
611 452 0
-655 414 0
1932 -846 0
-929 1818 0
634 307 0
1793 -1548 0
-1174 -485 0
-239 -523 0
-1590 -1964 0
1101 -1029 0
588 -2047 0
1724 1449 0
-367 1111 0
813 1951 0
-410 -361 0
-1476 -851 0
1278 346 0
386 -1611 0
-262 -42 0
-138 -220 0
2009 387 0
-188 -1527 0
-279 1304 0
-135 237 0
230 -362 0
1518 2022 0
1992 -1911 0
48 -1053 0
1660 -471 0
1979 1434 0
890 -488 0
-1312 1074 0
-576 1545 0
1527 663 0
1134 -1365 0
1416 -75 0
-1996 -43 0
-441 -1229 0
-1027 767 0
1754 -1783 0
-1082 -1616 0
741 -308 0
479 990 0
1649 821 0
-1662 -550 0
-846 1676 0
-1060 -942 0
-1926 -353 0
1651 1258 0
-1722 980 0
659 -827 0
908 1299 0
1211 -1018 0
633 21 0
-1749 503 0
-1906 1146 0
-70 345 0
172 350 0
1116 1986 0
1737 140 0
1129 999 0
-1344 -738 0
1301 1652 0
-857 -836 0
52 762 0
-1836 98 0
1020 909 0
897 419 0
-699 1479 0
2010 -1466 0
-1596 -394 0
1275 679 0
-1337 -1141 0
-1804 479 0
-435 -1929 0
578 -360 0
-842 1212 0
-2046 1763 0
-1434 -1901 0
-1010 1720 0
1469 1825 0
-1244 387 0
-1240 1357 0
-298 1472 0
1094 -1123 0
-1250 944 0
1805 -2043 0
1766 -1768 0
-213 751 0
800 -1068 0
687 1068 0
-500 -1077 0
567 -1368 0
-716 -1722 0
55 880 0
-103 1170 0
-869 1951 0
-1252 1016 0
-713 -147 0
-26 1633 0
1918 780 0
828 -482 0
-817 1909 0
-1898 -1708 0
1767 -1457 0
-912 -715 0
165 -1523 0
-1207 217 0
-970 1311 0
-1442 947 0
1494 925 0
2060 1139 0
-143 -426 0
-302 1283 0
-1339 2016 0
-715 -2005 0
-564 1789 0
605 1473 0
-434 316 0
87 -2 0
-1365 1129 0
-235 -1472 0
-440 -1355 0
354 -599 0
1604 1698 0
1228 -1033 0
1082 -1247 0
1006 783 0
-244 666 0
1184 -87 0
-1551 1873 0
-1173 -2049 0
321 -614 0
270 490 0
-1946 -111 0
290 -496 0
932 23 0
-1342 1300 0
394 -1701 0
-784 -1929 0
-48 1522 0
-2001 -1326 0
2011 -670 0
1670 998 0
1099 -1520 0
520 616 0
-1591 401 0
2055 -888 0
-1442 -485 0
544 -1585 0
-624 -742 0
-56 945 0
951 -10 0
1741 408 0
486 -772 0
-250 316 0
-1839 -223 0
-1248 461 0
-263 1151 0
442 877 0
717 1053 0
-772 -1017 0
322 1259 0
-1443 1964 0
1438 1867 0
1814 1823 0
1558 1056 0
531 182 0
680 244 0
1752 -1626 0
1115 100 0
716 -367 0
37 -559 0
1653 -1239 0
-549 570 0
-749 192 0
680 -1112 0
1516 1959 0
-1263 353 0
1688 -402 0
139 -2052 0
-1872 -1739 0
90 900 0
146 2043 0
-266 1379 0
-1617 -196 0
-1033 -365 0
146 755 0
406 -176 0
-1240 144 0
1371 997 0
-1527 -125 0
927 -1050 0
1186 98 0
36 -1634 0
1045 1016 0
922 1395 0
-1635 939 0
1700 -1372 0
1396 -1847 0
-332 -1318 0
403 552 0
180 1198 0
1269 -879 0
-424 -1286 0
-716 242 0
1446 -1571 0
1689 1201 0
735 934 0
326 -1659 0
-1353 300 0
1149 -169 0
-2036 868 0
1216 -1383 0
-488 -1581 0
-158 1202 0
-1043 -1579 0
362 -997 0
1880 1982 0
828 443 0
941 223 0
561 870 0
40 1464 0
1800 -470 0
192 -1621 0
-945 218 0
-1438 -603 0
-1713 1756 0
1240 1831 0
1415 -1837 0
1484 681 0
383 1554 0
-853 -1255 0
40 -2021 0
1694 1122 0
963 -364 0
-1538 321 0
696 567 0
1594 -1849 0
-1229 -1477 0
1974 803 0
1201 -575 0
131 -1365 0
-1023 1900 0
719 1870 0
42 132 0
-1169 1704 0
680 1508 0
-1010 -737 0
316 -1629 0
98 9 0
999 858 0
80 -296 0
-535 1010 0
-448 139 0
1939 -1860 0
1050 1078 0
-580 1592 0
-1168 1132 0
-7 1375 0
1914 -1587 0
-750 -572 0
-1956 -311 0
138 -485 0
-1132 567 0
-728 1543 0
6 2034 0
1746 1147 0
-655 -823 0
2006 681 0
675 575 0
-1217 -975 0
-1611 1039 0
-1761 -1233 0
932 1813 0
-951 -1846 0
1064 567 0
-1719 -1898 0
183 777 0
1827 -915 0
1000 -834 0
142 1180 0
-944 -70 0
-804 -1147 0
-1376 -804 0
894 121 0
721 -1157 0
175 626 0
-1936 1398 0
-319 1941 0
-1221 -1997 0
470 1356 0
1698 -69 0
61 -176 0
845 801 0
-568 1706 0
-472 -709 0
1014 -1592 0
-295 -418 0
934 367 0
628 1200 0
578 -1353 0
877 -1198 0
-738 -1426 0
897 -1886 0
-873 -143 0
-804 -812 0
1795 -537 0
1379 -1805 0
-1944 278 0
-1118 1687 0
1710 17 0
-1455 677 0
188 -602 0
-761 132 0
175 641 0
8 1335 0
1940 1846 0
940 1810 0
-838 -200 0
901 -391 0
-425 1652 0
195 1184 0
-1625 -1805 0
370 315 0
-1634 -1412 0
217 -1573 0
-116 1621 0
-1630 -1524 0
1568 1204 0
-1793 1531 0
1046 991 0
-589 -23 0
-73 350 0
-1974 -1929 0
1889 -1012 0
1170 -1569 0
997 -949 0
373 661 0
-476 -1915 0
-1315 -1707 0
-737 1125 0
1084 527 0
30 -1871 0
1560 -886 0
-971 992 0
233 1507 0
-597 -87 0
1508 -1474 0
-1987 -944 0
-472 1484 0
-478 1167 0
-1511 1103 0
85 1326 0
218 1213 0
-247 -1596 0
-1243 159 0
-77 400 0
-1688 -3 0
-1801 -1085 0
-176 -590 0
-2020 1770 0
-332 -1150 0
-1414 -960 0
-887 -590 0
1949 1518 0
-1181 1391 0
-246 805 0
-246 1232 0
1302 -842 0
-1188 -213 0
-27 598 0
-786 545 0
1593 -1727 0
-674 -129 0
1204 377 0
140 1133 0
-1171 -808 0
2050 -650 0
94 1722 0
1388 1004 0
1401 120 0
-1846 -961 0
-710 1421 0
-981 673 0
1569 -1967 0
882 1089 0
-1995 -487 0
-109 1947 0
553 -1868 0
1044 -1488 0
-260 -5 0
-1701 1551 0
1963 980 0
1385 -522 0
1608 -411 0
-1072 -1470 0
882 -644 0
-704 1697 0
452 114 0
246 1165 0
1782 -668 0
1336 1955 0
1364 571 0
52 -1763 0
-164 -144 0
-1690 -919 0
868 1997 0
2038 272 0
1196 -1711 0
1444 1880 0
-1744 448 0
-536 -256 0
-329 402 0
-1787 -1424 0
-696 584 0
-1461 -294 0
1385 -335 0
1076 121 0
1428 -207 0
579 1565 0
1110 -223 0
-488 -1796 0
973 -1399 0
507 1724 0
178 -1590 0
-1868 1391 0
-1928 -159 0
-1002 1755 0
1470 1392 0
771 -474 0
-418 358 0
-127 -662 0
199 -595 0
1606 34 0
-322 -707 0
-222 -395 0
1224 2015 0
1673 -403 0
-1973 1192 0
-1153 -315 0
447 -1249 0
1608 -849 0
344 -1837 0
265 1411 0
-417 -197 0
-668 1064 0
1364 -540 0
-1876 -940 0
1151 -1769 0
1595 651 0
1203 675 0
536 -329 0
-416 1513 0
-1533 -496 0
-1432 1943 0
-1017 2057 0
1169 -840 0
-161 484 0
-1788 -798 0
-75 1306 0
-1172 1752 0
1693 -816 0
-1372 -1713 0
149 -1792 0
1006 1092 0
-1791 -1066 0
-1263 927 0
1967 -1830 0
622 406 0
1902 1896 0
106 -1793 0
1490 -1359 0
-1420 -195 0
-1018 1131 0
-1397 491 0
1226 -1031 0
2042 -857 0
16 172 0
246 1099 0
449 1613 0
1478 -1137 0
780 526 0
-144 -1402 0
-1435 -1807 0
1114 239 0
-610 -522 0
-30 2015 0
1439 -488 0
1107 663 0
-1901 -186 0
342 348 0
-1651 1768 0
492 -1141 0
1822 -1722 0
1046 535 0
-455 -223 0
-1960 1724 0
-1098 294 0
1239 566 0
-391 150 0
-482 -841 0
-1730 -468 0
630 921 0
1720 -883 0
-1337 -576 0
1343 -784 0
-2036 152 0
86 963 0
-451 -1058 0
-79 1900 0
-1911 1906 0
1452 1599 0
-301 829 0
677 260 0
-1127 -1027 0
824 -1803 0
-1564 1452 0
1871 -1743 0
1011 -334 0
1708 -1598 0
1841 550 0
-1980 -1217 0
598 1423 0
-1603 -617 0
984 975 0
-1691 163 0
-1207 796 0
1833 -845 0
504 1870 0
363 -57 0
-339 404 0
14 401 0
-721 -1225 0
443 -229 0
-815 -600 0
1341 -525 0
494 -505 0
1890 449 0
267 -1918 0
-1777 -78 0
-1063 -1070 0
1279 1870 0
118 413 0
144 -1768 0
1961 -477 0
-59 545 0
1706 1258 0
355 -226 0
408 -329 0
1066 1051 0
-1392 417 0
-1570 1424 0
854 -2024 0
-1351 270 0
748 -993 0
-1588 -273 0
1357 -1377 0
1548 1817 0
1166 -1727 0
-229 40 0
1638 1161 0
-2025 -1134 0
-1330 824 0
-834 1827 0
-1583 -300 0
-1662 1145 0
447 621 0
-2021 -1318 0
1833 399 0
-1648 -1105 0
-1708 1212 0
-1171 486 0
-1955 -1504 0
-842 -1971 0
1729 171 0
259 -465 0
1310 -2049 0
-956 -86 0
442 1377 0
-1374 145 0
430 -802 0
-729 181 0
-774 -1668 0
2008 -367 0
1170 -525 0
270 906 0
-1560 -298 0
-1705 1313 0
-1882 -142 0
-1189 552 0
-910 -1036 0
1354 864 0
503 -1278 0
1547 -1035 0
712 -924 0
-2024 -2045 0
915 612 0
514 1574 0
-1496 -1080 0
286 -631 0
-1390 336 0
-1074 -1600 0
1701 -405 0
193 -866 0
1621 -1210 0
1326 192 0
1608 1683 0
1378 -1803 0
1604 -1067 0
327 -1340 0
1313 949 0
478 972 0
1494 1949 0
-471 -130 0
-2025 66 0
1228 -1142 0
-693 -1363 0
-1600 -1261 0
-167 -454 0
1924 1940 0
-1191 1834 0
-1061 1825 0
1128 1875 0
654 -257 0
362 556 0
1056 -455 0
-211 -323 0
-1088 438 0
-290 1303 0
-345 -1234 0
-1093 -1625 0
-364 -1154 0
-983 -914 0
1462 1723 0
743 843 0
1707 968 0
-1797 -447 0
-248 1970 0
-1138 -190 0
444 -1753 0
1132 928 0
1267 1965 0
478 -760 0
1925 -83 0
-2033 -868 0
106 1858 0
1526 1821 0
1415 -328 0
1666 1061 0
-1521 490 0
1255 586 0
2037 -290 0
-1003 -1152 0
1626 427 0
-1215 -888 0
-617 1448 0
945 1310 0
-515 -775 0
-601 207 0
-1028 40 0
1441 1986 0
-806 -819 0
405 -251 0
884 289 0
1334 -355 0
-2040 -1935 0
-1856 698 0
-1388 -374 0
-993 -480 0
443 -87 0
-765 -112 0
1865 1658 0
-1967 -1052 0
-154 -546 0
-1271 1022 0
-1518 -794 0
-1066 289 0
-376 -2015 0
-1774 1234 0
-1345 1378 0
-1664 1988 0
-1165 805 0
1658 1416 0
-204 -1281 0
1883 1924 0
1473 -923 0
365 1755 0
-1770 182 0
1243 -1148 0
-920 -1717 0
1566 1146 0
697 1348 0
1119 -1868 0
1274 -1005 0
-1061 95 0
28 -1744 0
905 138 0
1631 -1033 0
-258 1042 0
1845 601 0
-63 -1155 0
1075 -711 0
1867 7 0
393 -1349 0
-134 -1687 0
-2029 -138 0
-1112 -1246 0
1560 -2006 0
906 -108 0
823 1580 0
-1780 -1080 0
1280 -754 0
963 316 0
-871 542 0
1452 2016 0
1057 1851 0
-1652 -471 0
-483 -1375 0
-907 -22 0
194 1797 0
-1315 520 0
-1583 1378 0
1686 -537 0
-1397 234 0
1936 971 0
1555 -731 0
-794 425 0
190 -1618 0
594 -709 0
1398 881 0
1089 -1052 0
-1003 1896 0
-1065 150 0
718 -2002 0
-1077 -1012 0
244 -1886 0
977 -415 0
-610 -923 0
931 -775 0
266 75 0
-906 478 0
-1866 1121 0
-1962 1711 0
1000 457 0
-1695 845 0
1656 1009 0
1224 799 0
-1457 -920 0
1723 872 0
-1788 1169 0
1335 -1 0
-1685 -2019 0
556 -1833 0
1814 1348 0
-1646 1852 0
-1725 -1476 0
-1852 -65 0
578 -1596 0
1702 -859 0
-426 -640 0
-1057 1988 0
179 315 0
-744 -198 0
-461 -2003 0
669 119 0
107 1857 0
-1502 1443 0
-406 -288 0
-1278 1103 0
1063 12 0
-251 -1773 0
-2057 -1215 0
1398 -575 0
692 1357 0
278 346 0
1090 -541 0
792 947 0
