c NF
p cnf 2305 4380
1961 445 0
1850 -683 0
-114 1141 0
-1946 691 0
1881 -1092 0
-2278 -1801 0
2160 1347 0
-473 1591 0
-790 225 0
1023 -1142 0
2224 950 0
-2075 1890 0
-1528 287 0
-639 -1421 0
-494 480 0
-1371 -526 0
1028 -272 0
944 -457 0
-1938 -2140 0
-349 654 0
1006 -1788 0
1480 -130 0
1348 -1373 0
-1021 2084 0
813 -1938 0
70 2015 0
-50 1019 0
-156 642 0
2129 1809 0
-493 -416 0
1755 915 0
811 884 0
-1600 112 0
-1974 378 0
-1519 -909 0
514 2279 0
556 -391 0
-1804 -1892 0
-1267 -676 0
473 -310 0
218 1181 0
2084 2127 0
698 -1932 0
1524 -1162 0
1479 1048 0
1326 2244 0
77 -471 0
-1234 -790 0
504 1496 0
-573 217 0
359 -2096 0
-1173 -572 0
2271 949 0
-479 581 0
-373 1177 0
-828 -492 0
-1065 -1615 0
1690 -1125 0
-1641 982 0
964 -631 0
1897 28 0
-1859 -383 0
1788 292 0
2250 -1365 0
-903 156 0
-722 552 0
2285 180 0
1182 2075 0
592 974 0
636 -1896 0
914 -897 0
-1105 1454 0
-80 -813 0
475 2220 0
11 703 0
111 -1124 0
-1359 48 0
170 571 0
6 -1832 0
-1105 -465 0
-156 -2090 0
1582 -1889 0
-2032 1 0
486 1472 0
-354 -852 0
-861 1947 0
-1504 -1462 0
1427 -1939 0
1341 -1430 0
-2263 1503 0
1582 1708 0
-182 479 0
-1072 -367 0
-1748 49 0
613 1473 0
586 -1085 0
-348 1389 0
986 -599 0
410 -2152 0
-1385 1263 0
-775 -1555 0
979 -877 0
-1397 1160 0
1264 1168 0
1981 -1908 0
2044 -1537 0
39 264 0
-1801 1697 0
-1797 -1777 0
123 1455 0
2137 2035 0
346 -1104 0
-1885 2264 0
55 2282 0
-1419 -2064 0
2145 137 0
-433 -501 0
1233 -1492 0
-398 -1665 0
-2131 -1735 0
2141 -185 0
189 -402 0
1256 -2286 0
-1577 -1196 0
-1081 -1891 0
-405 806 0
-1486 -1940 0
-705 -1595 0
87 1731 0
-2055 580 0
-1811 -1226 0
1640 -1223 0
-779 1573 0
-152 -679 0
-267 -748 0
1227 -387 0
-520 -561 0
813 -1340 0
-2064 1687 0
1870 -1122 0
-854 -12 0
1432 307 0
-311 1474 0
-1650 -970 0
-1019 -367 0
-458 -999 0
1974 2130 0
-1299 -1708 0
248 -121 0
1782 -203 0
929 -1652 0
1096 744 0
1723 -267 0
231 1948 0
196 -592 0
1375 1793 0
-576 -2145 0
-288 -408 0
-338 846 0
1713 1187 0
638 -1564 0
982 -1498 0
-2054 -54 0
-25 -409 0
2276 2051 0
170 1717 0
1293 1199 0
340 -2033 0
-2193 494 0
1226 -1237 0
-2080 1849 0
1027 1526 0
1593 -1409 0
-663 -1308 0
-885 -104 0
1236 -5 0
-92 979 0
-1882 -675 0
-717 -1491 0
1564 -1487 0
-573 749 0
-41 -1799 0
-1292 -1881 0
889 -98 0
-881 -471 0
-1956 143 0
43 54 0
-1429 -1553 0
-270 -1465 0
888 -2010 0
1540 -2037 0
933 -15 0
1054 -121 0
-2023 -1966 0
-38 2038 0
496 1551 0
-98 1598 0
1729 -1160 0
-2242 -1769 0
-1303 1402 0
1674 -966 0
1254 -217 0
-198 -2248 0
188 -694 0
-1276 225 0
-1089 1111 0
-2056 -1379 0
2058 -226 0
-1239 -1592 0
138 -432 0
9 -1735 0
1788 1060 0
-1340 1231 0
-776 -2013 0
471 -1873 0
-320 141 0
-194 -50 0
-2086 3 0
-1326 -1277 0
745 1784 0
291 -958 0
1736 -810 0
957 -1436 0
-354 -2190 0
-971 1870 0
740 2101 0
247 -1391 0
1482 846 0
-1825 -274 0
2001 2245 0
2054 -859 0
-1116 -235 0
-765 -870 0
-1794 1242 0
1023 -100 0
-118 -2223 0
1008 -2243 0
-183 -1908 0
1799 865 0
1427 1306 0
1322 -447 0
550 1250 0
820 2104 0
1949 -61 0
2240 224 0
862 -1650 0
1620 1550 0
-1288 -29 0
-2162 1155 0
-1015 2033 0
218 -1789 0
-1806 -2231 0
-492 -2111 0
646 -582 0
-764 1817 0
842 1428 0
1675 -1197 0
212 -510 0
231 1997 0
1615 -726 0
-1802 -1581 0
-1320 -760 0
1531 537 0
1485 289 0
-1098 1990 0
566 2009 0
2276 1445 0
1458 -2003 0
87 1564 0
-1024 1828 0
-964 2169 0
1386 -50 0
-549 2037 0
-2262 -5 0
-75 -1101 0
1160 2145 0
488 1 0
1167 -593 0
277 -1487 0
1221 442 0
1050 522 0
1123 1603 0
1295 -790 0
346 -888 0
635 1372 0
-1716 104 0
-172 1520 0
1498 411 0
1525 -889 0
1904 2246 0
-1093 1614 0
-675 -1143 0
685 893 0
-595 -1295 0
-1284 1864 0
175 -1930 0
-359 23 0
1350 1514 0
380 -2150 0
429 309 0
-719 1300 0
949 -574 0
768 936 0
-841 595 0
-85 -1746 0
-1786 -1023 0
-80 -361 0
844 -157 0
-2195 1679 0
-63 -728 0
-1303 816 0
-1293 -1415 0
1850 -939 0
-1845 1867 0
1613 1051 0
7 1079 0
-551 1880 0
956 -1531 0
413 1166 0
-1625 1163 0
-1177 -508 0
1223 -320 0
1107 765 0
-1390 -828 0
-1958 749 0
-353 1923 0
222 1369 0
-1607 199 0
880 1428 0
728 -1203 0
463 801 0
-1123 -987 0
1570 -2124 0
1148 2008 0
-1546 -2194 0
1556 -1309 0
-2253 -1710 0
593 1318 0
1070 -1566 0
1002 -2063 0
-430 -1947 0
-145 -1209 0
-1202 -832 0
-1288 2246 0
583 -2190 0
-677 -207 0
1358 961 0
-1790 -2168 0
-59 -338 0
1759 1744 0
-2118 175 0
-1400 -75 0
2210 387 0
324 -1127 0
1535 -1510 0
1613 1261 0
-990 1293 0
1942 -860 0
-727 -848 0
1319 1118 0
1923 2235 0
107 1737 0
896 -572 0
-1743 2 0
-2016 839 0
-2057 85 0
-1177 917 0
-2081 137 0
230 -1937 0
-1627 -1358 0
-203 1956 0
-1782 1528 0
-151 -854 0
-214 418 0
-902 -911 0
2305 1669 0
-1076 -753 0
-692 1091 0
1999 -2192 0
1142 -1832 0
-1833 -832 0
1577 -2116 0
-118 934 0
-752 360 0
733 821 0
-1571 -2079 0
284 1136 0
-1198 -127 0
-860 27 0
-1710 -967 0
200 -803 0
1096 1792 0
-2251 -54 0
-1873 -680 0
292 -1198 0
-1942 -1434 0
1667 1864 0
-130 -1799 0
65 -1670 0
354 -791 0
-586 -342 0
-1879 710 0
-1352 998 0
531 1473 0
1711 1163 0
-1363 -1204 0
788 938 0
-1687 -988 0
-831 -2206 0
555 1216 0
1248 -206 0
1178 -411 0
1587 -481 0
1140 2091 0
-1669 1121 0
-828 1786 0
-2004 -954 0
1692 2002 0
-747 -2193 0
70 -298 0
147 1268 0
306 912 0
-676 2160 0
74 -701 0
1345 -1660 0
-1072 -1606 0
1084 597 0
1309 1266 0
2011 1118 0
275 1713 0
-940 826 0
500 -518 0
2220 643 0
-1730 682 0
125 -459 0
-2081 1629 0
1124 1409 0
-846 -1142 0
2262 1049 0
-2218 -93 0
2165 -1493 0
-1898 322 0
-32 -1142 0
-2164 1108 0
-1237 -1432 0
-1838 -1456 0
918 -1932 0
-794 2122 0
318 -1245 0
2071 -1438 0
2052 1846 0
-1109 2223 0
-62 1005 0
686 -1451 0
1374 1296 0
724 311 0
2033 251 0
-1105 487 0
-1263 1446 0
-138 1005 0
876 -1114 0
-1451 1242 0
1768 -102 0
689 -342 0
-1670 -1481 0
1356 -1750 0
421 -557 0
3 -1472 0
197 -935 0
19 -2036 0
2021 779 0
-1698 -1979 0
800 930 0
-508 -59 0
-820 48 0
-673 -350 0
-808 1297 0
-297 -1650 0
414 -74 0
678 1075 0
-1746 -793 0
933 1095 0
1506 423 0
382 264 0
1699 1126 0
1926 -1184 0
-1276 -1262 0
-720 -1680 0
-1237 -1716 0
265 -521 0
1553 1111 0
-726 1831 0
2055 870 0
1368 -246 0
1657 -1550 0
696 1097 0
1716 -2064 0
-211 -2234 0
1369 869 0
1008 1850 0
-874 1645 0
-786 -37 0
1374 -1736 0
-1564 1449 0
800 -791 0
-1790 856 0
-391 -1350 0
-1440 -989 0
1774 -818 0
-1676 -471 0
1472 -967 0
-256 723 0
-739 2297 0
-1480 113 0
221 2174 0
1585 -1218 0
-492 1505 0
-1059 1483 0
637 1752 0
658 2049 0
-1253 -1505 0
-1138 1506 0
-1253 -940 0
-1799 -1204 0
2102 2252 0
1102 2229 0
-563 1387 0
755 1555 0
334 500 0
2109 -436 0
-132 2141 0
-871 1932 0
-1631 -2221 0
-2223 -2223 0
985 1017 0
1983 1667 0
692 1483 0
-911 1160 0
2240 -1322 0
-1147 -2281 0
-1212 -2253 0
2256 1555 0
1163 1295 0
-1289 -1030 0
183 1270 0
-179 1372 0
1017 -1795 0
2186 383 0
997 2040 0
1347 -180 0
-262 -20 0
-1019 1249 0
1742 1156 0
1626 -2175 0
1866 -148 0
1569 763 0
1848 -1212 0
-23 323 0
2298 1017 0
-682 -396 0
1482 1865 0
-2110 846 0
1864 669 0
-2016 2159 0
1577 -1348 0
1827 168 0
757 -1182 0
1771 915 0
1117 290 0
1165 1110 0
850 1124 0
-473 1305 0
-1634 -1966 0
407 -2154 0
416 -1258 0
-552 450 0
1944 372 0
1541 2274 0
646 -677 0
-312 1584 0
879 -2208 0
-2080 -443 0
286 -1025 0
-1808 -2225 0
997 -1182 0
-2083 -1671 0
-828 -90 0
-802 1264 0
-675 1330 0
-1076 -452 0
-542 -2086 0
-1820 -1185 0
-578 -1245 0
259 -976 0
149 -940 0
-672 -984 0
-660 -2137 0
1455 1249 0
-157 264 0
811 419 0
1235 -847 0
-1285 -305 0
-1169 -1511 0
1941 2024 0
2154 -1518 0
1273 237 0
48 -1652 0
261 588 0
-2180 -1127 0
233 2036 0
1273 -1532 0
2075 -1557 0
-528 -1762 0
167 527 0
1510 1402 0
-997 -1447 0
448 1545 0
-48 -1197 0
-1992 -1003 0
-1779 -2249 0
-1773 361 0
-110 -380 0
-1364 1350 0
1973 787 0
584 -463 0
-879 -2239 0
-1030 -711 0
1732 1559 0
-1164 -571 0
-100 -791 0
-225 609 0
1178 971 0
1124 1582 0
-1812 1154 0
-2260 -482 0
-7 -754 0
565 -1402 0
-1606 -641 0
-1281 9 0
-915 -1156 0
1199 -778 0
884 -441 0
-308 1424 0
1120 -662 0
-454 290 0
-1080 2057 0
-559 -1576 0
-2222 -829 0
-2070 2201 0
788 547 0
-1945 240 0
-1701 2296 0
1908 782 0
2145 -1321 0
-1350 311 0
424 -34 0
-2138 -63 0
-364 -744 0
1266 860 0
-573 1007 0
722 742 0
-725 1969 0
1337 -1661 0
-2057 802 0
-2247 1405 0
1646 -1020 0
-2251 -18 0
-906 986 0
-1227 1916 0
-394 -2076 0
986 -1886 0
1131 363 0
1269 -2118 0
2006 9 0
-1983 -253 0
-955 1593 0
242 -2019 0
-359 81 0
-604 1401 0
-550 1458 0
2114 1334 0
-1349 -2144 0
894 -151 0
1144 -424 0
-1080 523 0
-190 -1592 0
569 452 0
-2073 1173 0
1228 -62 0
-219 1409 0
-215 174 0
-1527 -1420 0
-250 -1966 0
120 -267 0
-2064 506 0
-53 -1314 0
36 2030 0
-746 1235 0
-677 615 0
-1325 1973 0
-2223 -673 0
-920 366 0
1714 534 0
-817 535 0
-1898 1643 0
-2138 -983 0
-1398 2167 0
28 -1697 0
-1139 -712 0
-1824 1322 0
-721 1004 0
-2222 -37 0
-1152 1451 0
-1232 2043 0
-34 26 0
1843 -1592 0
-1270 -1112 0
-883 1499 0
-324 -303 0
-1332 2150 0
-1744 -1983 0
1547 -1836 0
-13 -1246 0
-964 -2212 0
2051 -1612 0
196 401 0
318 -378 0
-2274 1710 0
205 -157 0
694 -1839 0
-1725 1070 0
-223 404 0
356 -704 0
-1818 -374 0
-650 -1200 0
-718 869 0
1092 -1255 0
1474 1513 0
-2226 1995 0
150 1660 0
-2257 806 0
-2158 -1939 0
541 -1419 0
-320 -93 0
944 -1931 0
1798 -134 0
1765 116 0
1422 -1370 0
-1808 -900 0
2173 -163 0
-1629 706 0
-1685 706 0
-1855 1069 0
-108 1302 0
1775 -300 0
56 917 0
865 -173 0
-1739 -1715 0
-694 -1292 0
1092 -1277 0
-405 119 0
1154 -1003 0
1241 -1297 0
1411 180 0
1107 -1343 0
-1352 797 0
-656 -1634 0
-471 -728 0
2294 -518 0
-2124 -618 0
1450 1971 0
605 2065 0
711 -179 0
-1124 -1388 0
1376 -1824 0
916 8 0
704 -1069 0
-1976 -315 0
-639 1861 0
-2191 60 0
1581 1378 0
-438 -1734 0
120 2126 0
-590 -1253 0
-951 2021 0
-345 -2283 0
2183 -94 0
-897 80 0
867 -202 0
1432 455 0
-203 -1494 0
-2283 2300 0
1995 -815 0
-347 -2259 0
1401 -125 0
2195 -327 0
-1226 -621 0
1492 -701 0
1302 1674 0
-2109 706 0
-206 342 0
-2283 1290 0
700 -1431 0
-1921 -1226 0
77 -2081 0
2083 -1694 0
637 -1984 0
-1505 1075 0
1569 2262 0
584 -1093 0
-634 1972 0
800 843 0
1210 -1919 0
99 1546 0
-1564 462 0
435 -1850 0
812 1841 0
-226 -1371 0
1405 239 0
2061 491 0
-1115 -1040 0
-156 -1393 0
307 729 0
-1087 308 0
-1486 -1094 0
-694 -429 0
-1259 646 0
-329 1479 0
1734 -344 0
-379 -158 0
1328 195 0
-1993 -1701 0
1204 2001 0
340 -1006 0
2087 -539 0
1805 -639 0
1420 1935 0
287 -34 0
-1761 1903 0
1817 -2259 0
117 -1121 0
-214 -1535 0
-137 -864 0
1877 -1530 0
756 1592 0
1638 -1213 0
-1671 1617 0
998 -1514 0
1665 -889 0
913 -362 0
-927 -946 0
1617 704 0
421 -350 0
1301 2140 0
-771 720 0
-2138 -1109 0
-2034 841 0
1011 1977 0
-1359 -271 0
-2110 -649 0
-2136 -2117 0
-1820 -504 0
-2245 -1604 0
-206 1171 0
-2199 -551 0
1636 2190 0
-282 494 0
1113 -1915 0
-2293 1269 0
1117 -997 0
1507 1528 0
-1430 -2065 0
2008 11 0
-1829 24 0
387 -2044 0
-2231 600 0
-1772 -573 0
-430 1448 0
-1292 1344 0
-1860 220 0
-999 1267 0
-553 -143 0
837 -1740 0
-482 192 0
1881 -2075 0
-1067 -1606 0
1231 -1064 0
1794 466 0
-1618 -1733 0
1914 -1559 0
1640 -1590 0
-1508 822 0
-1306 -434 0
291 448 0
-833 -189 0
-1735 -1955 0
-690 -475 0
-1609 -1197 0
1280 2121 0
-1909 1360 0
-528 -2293 0
68 1172 0
247 -2107 0
738 1583 0
427 1588 0
1077 11 0
-434 -140 0
1149 -808 0
-155 743 0
1485 706 0
1540 -718 0
1672 -1953 0
-178 -471 0
1449 760 0
1238 732 0
-1166 -377 0
1405 -829 0
-1956 1376 0
2036 1422 0
-1911 1019 0
2249 2119 0
-311 1341 0
-1104 -960 0
-1763 -1154 0
1490 -172 0
1437 1852 0
-2001 546 0
-370 -1592 0
2213 107 0
-2048 1532 0
-690 -1363 0
941 1441 0
-1747 -492 0
2246 -295 0
-2223 -1814 0
-1435 -801 0
-1961 2046 0
738 -161 0
-383 -1651 0
414 -1055 0
-1568 -2263 0
156 1573 0
-1663 -908 0
782 -270 0
1326 1797 0
-1092 808 0
75 1815 0
-44 -1065 0
-223 2265 0
-523 1987 0
1141 1781 0
-1551 809 0
1523 609 0
-1651 -1033 0
-896 1587 0
-458 746 0
-596 -1469 0
18 334 0
-1917 1217 0
1848 -2017 0
2265 270 0
-2107 -582 0
-1902 825 0
-1516 1033 0
-1200 -214 0
-1808 -2044 0
1770 -651 0
-1425 -1635 0
-449 -1343 0
-1651 -1486 0
729 1692 0
-287 986 0
-1658 -2223 0
1985 -1938 0
-59 1504 0
2002 221 0
2147 2137 0
1066 1389 0
-1645 -1665 0
-2292 2191 0
-2078 -2255 0
-1627 -1802 0
-724 -1518 0
2112 416 0
-1780 1641 0
2177 188 0
1956 84 0
-1073 1904 0
231 -923 0
48 702 0
-1134 -382 0
-1492 428 0
1230 1899 0
279 2296 0
-1527 210 0
132 -2080 0
853 530 0
-1262 2120 0
633 483 0
1906 -1200 0
-1560 -675 0
1736 156 0
436 -1075 0
1264 -1725 0
-2303 2 0
-2138 -2157 0
1076 1326 0
-1399 1433 0
1582 873 0
1228 1096 0
1661 2267 0
-2284 1593 0
1959 -2183 0
1479 -1929 0
-1351 2303 0
-675 1717 0
-1829 -1612 0
255 1971 0
147 -1687 0
1331 -46 0
-1989 231 0
-854 -1048 0
-1195 1876 0
-913 1738 0
-78 -1674 0
1624 -272 0
1661 -156 0
-449 1656 0
1847 -602 0
1831 -560 0
1375 1637 0
-1314 1242 0
-958 -1665 0
331 -615 0
-1875 -445 0
-680 1178 0
1133 -1313 0
1090 1382 0
324 1411 0
1741 1990 0
1445 1656 0
-156 -1357 0
1862 1372 0
-653 -1356 0
301 -783 0
755 2259 0
-1120 216 0
1990 -2059 0
-262 -1179 0
2044 -1638 0
113 1726 0
-1784 -972 0
-677 2212 0
1206 -409 0
-776 -1530 0
-1508 1680 0
792 -37 0
-1011 1859 0
-2078 831 0
1036 -1558 0
122 2180 0
1289 2152 0
-433 500 0
-721 -1416 0
693 1302 0
-441 -661 0
326 -56 0
1170 -964 0
550 -87 0
-209 -1743 0
-1145 -1665 0
-922 -559 0
1944 -376 0
730 47 0
365 -113 0
-1539 683 0
2143 1547 0
317 -66 0
-2139 -1038 0
877 -515 0
1621 -1420 0
-2293 -2131 0
-822 305 0
1468 393 0
-2247 -69 0
111 1469 0
616 -250 0
1622 -718 0
-972 1608 0
-1428 612 0
87 -534 0
1219 -1836 0
948 -1769 0
35 496 0
-1492 -1036 0
-1313 -243 0
-193 -2141 0
-1330 921 0
-1810 -335 0
1897 -1701 0
282 -1730 0
1724 -2004 0
-292 -1139 0
982 1370 0
1594 820 0
-2286 -418 0
1341 -2120 0
2196 525 0
-462 1358 0
1397 516 0
599 -779 0
-281 -1891 0
-909 2177 0
9 -1112 0
-1065 -1618 0
1106 -1078 0
275 -2009 0
751 1675 0
930 -1133 0
1256 -336 0
-2270 1134 0
-1357 1848 0
1251 1703 0
-2232 1747 0
253 -2010 0
2083 1224 0
1809 768 0
-1264 1637 0
-649 2054 0
-301 732 0
-1089 1321 0
-1068 -472 0
-1909 1232 0
2228 330 0
-2262 1881 0
562 645 0
252 1621 0
1583 1994 0
-2290 -717 0
25 -2281 0
-1999 1776 0
-1645 2160 0
560 -1286 0
65 -411 0
-736 57 0
-1529 1640 0
-1493 -1290 0
-37 551 0
-5 -997 0
855 -1198 0
2173 1482 0
-773 266 0
397 620 0
-1266 -2003 0
-449 -954 0
-1489 -67 0
-1871 -1001 0
-2292 -1372 0
-2158 3 0
1383 486 0
-1254 1475 0
1695 1317 0
162 422 0
50 209 0
-2193 -1065 0
11 1017 0
2007 -1175 0
1324 662 0
230 -244 0
-398 -1062 0
-2249 -1939 0
-1299 -885 0
-1003 1598 0
2092 942 0
933 419 0
-679 -2045 0
1476 288 0
-1340 407 0
649 1097 0
-126 -806 0
-694 605 0
-805 1244 0
-2017 2205 0
-1093 -1604 0
1565 2247 0
1675 -450 0
1213 1657 0
-2144 544 0
-1508 895 0
696 -1681 0
-1138 -1839 0
1652 1017 0
1144 397 0
1064 1157 0
684 1378 0
1286 995 0
2169 2297 0
1627 83 0
-2176 -246 0
316 -28 0
-859 -2241 0
-542 2052 0
1086 -1855 0
591 -362 0
2041 1291 0
-1699 371 0
-4 -128 0
-5 -208 0
-1469 -176 0
-1782 -1897 0
-1270 407 0
1524 -2085 0
823 1047 0
1383 371 0
898 1643 0
1248 -888 0
1399 914 0
2061 414 0
-633 1695 0
88 -1486 0
-1676 1438 0
-349 -1580 0
-1886 -441 0
-1448 -1254 0
309 -1455 0
2062 -1838 0
-1136 -1931 0
76 886 0
-511 -1015 0
-241 -1585 0
-922 -1887 0
-1801 -1929 0
-67 -987 0
-1885 643 0
1131 -1688 0
3 -180 0
1020 -607 0
-551 -590 0
1218 1550 0
-1672 -751 0
-578 -1265 0
-1846 -117 0
-179 -89 0
474 -725 0
1819 1328 0
-1465 -246 0
-308 2258 0
-1403 32 0
96 163 0
-759 -1531 0
-965 1437 0
-362 1417 0
-764 -93 0
-416 -59 0
-770 -1448 0
-155 -1826 0
895 1886 0
1498 -2204 0
-507 -625 0
-9 1174 0
-1415 -1700 0
1496 620 0
-1164 34 0
-1299 111 0
1331 233 0
1399 740 0
1240 -2259 0
-206 974 0
-321 -1808 0
1207 -2241 0
804 1992 0
1700 -2162 0
-818 -2253 0
2206 102 0
2278 -207 0
564 797 0
1149 361 0
981 2256 0
-599 1130 0
-1769 -1957 0
661 -1671 0
2076 1363 0
-475 2136 0
1063 1655 0
477 931 0
632 -1636 0
1702 -678 0
-434 -1386 0
-1549 961 0
-1517 2008 0
1844 475 0
938 -1149 0
-2010 -1694 0
415 -2111 0
-1671 -1029 0
1847 -1618 0
535 -2216 0
2110 -283 0
2267 -1453 0
1246 -2117 0
-1683 1696 0
1801 -446 0
-1739 1165 0
852 -567 0
1329 -1739 0
1358 -734 0
-547 -913 0
-469 -391 0
1701 2198 0
-938 -1237 0
-1332 1602 0
-472 1293 0
819 -908 0
-1750 831 0
556 217 0
1378 -1210 0
-1346 -56 0
-991 495 0
2272 1903 0
24 317 0
1107 -1245 0
-802 -799 0
-1740 1942 0
-927 1798 0
-578 -30 0
-1538 -2110 0
1100 -610 0
-526 1857 0
842 -2148 0
801 -2150 0
-100 427 0
-679 313 0
-1671 -367 0
39 -1224 0
330 -502 0
-1423 -1580 0
-1076 1565 0
-2096 1096 0
-660 -195 0
1880 2147 0
1901 -835 0
-1021 275 0
-629 -1105 0
2128 620 0
176 -213 0
499 1726 0
458 13 0
466 1269 0
883 478 0
1475 1984 0
704 -497 0
-1777 416 0
1211 465 0
242 -1730 0
-1464 2067 0
-2156 385 0
632 -1340 0
-1824 -783 0
-1042 1070 0
-991 -270 0
2098 -2238 0
1575 607 0
-1756 1603 0
2202 23 0
-1396 -1541 0
1439 -1206 0
1427 -370 0
-342 772 0
-1033 -429 0
-1397 505 0
1141 1422 0
-1871 -2062 0
-493 -359 0
1433 -1396 0
1046 -1859 0
-581 -1298 0
-861 1979 0
-881 -2108 0
1401 -1582 0
351 -643 0
-502 -725 0
-615 412 0
1294 1108 0
239 71 0
-2277 -353 0
-1988 336 0
-956 -480 0
518 1172 0
1272 2141 0
1060 664 0
1636 -2274 0
-377 1937 0
-1824 -1398 0
-433 1862 0
-2155 175 0
1134 -487 0
-577 -741 0
2150 766 0
471 -1505 0
-1616 -1382 0
1696 -2061 0
-2283 565 0
272 1420 0
-520 -507 0
-231 -1877 0
-2287 335 0
-2089 2277 0
1620 2206 0
539 2230 0
1918 -1710 0
-1372 -441 0
-369 -328 0
-1908 1040 0
-570 -1519 0
836 294 0
134 -167 0
-58 2269 0
1183 2183 0
724 11 0
-739 1780 0
-1482 -1327 0
1764 -2242 0
624 982 0
-553 -652 0
-1795 -1651 0
-764 1193 0
-1404 1944 0
1846 2023 0
-1052 -717 0
801 -1903 0
-1996 547 0
2177 522 0
1573 -982 0
1450 106 0
-2100 -1416 0
-1693 -999 0
-606 1584 0
-568 -1641 0
-731 539 0
1759 952 0
-1563 1428 0
702 187 0
-185 1678 0
-1052 1228 0
-90 1267 0
2292 -1283 0
669 -1786 0
-676 -54 0
-1078 181 0
-1428 2021 0
-134 1814 0
2109 -46 0
-1281 1967 0
1784 88 0
2136 -1300 0
344 -162 0
-964 -1754 0
-582 -516 0
-674 -1130 0
-283 -1604 0
819 1273 0
576 801 0
-619 -713 0
1133 -576 0
466 -1327 0
-1106 -1122 0
-1459 -213 0
-1429 894 0
-1631 363 0
1484 1901 0
2162 273 0
-1801 -2128 0
2299 682 0
1083 -1152 0
-1592 1038 0
-764 -257 0
2303 -382 0
2163 -287 0
-818 -229 0
-45 673 0
305 1876 0
-1929 168 0
-816 -858 0
470 1817 0
561 -884 0
-803 2031 0
1233 -789 0
-1033 -872 0
-660 488 0
-1962 1880 0
-1339 878 0
2053 -2044 0
-137 1876 0
-1435 2235 0
-1517 -1184 0
271 -1221 0
-795 -251 0
-1142 648 0
574 1122 0
-189 2128 0
-1909 62 0
687 361 0
567 -2146 0
826 -1750 0
-2070 -1089 0
1678 -1137 0
1686 1531 0
2291 633 0
689 -1253 0
1952 -2293 0
1791 -1027 0
444 -1362 0
1671 1241 0
-475 -2175 0
-2187 1431 0
2253 -1333 0
2037 888 0
-836 387 0
-1265 -2226 0
-682 -1871 0
278 -1299 0
-632 1727 0
2193 1786 0
-1528 1420 0
-760 -1925 0
2046 -1376 0
1613 -30 0
992 103 0
-329 1492 0
-201 -201 0
1228 234 0
1594 -1508 0
-1741 1922 0
2023 -621 0
-2203 -905 0
-2304 1344 0
323 -1132 0
586 1890 0
-1593 340 0
1988 2018 0
716 794 0
1494 -271 0
-912 587 0
1444 1074 0
-933 -1715 0
187 -2184 0
-1504 1344 0
1230 2197 0
411 1466 0
326 -1711 0
-935 -1934 0
-900 -1710 0
2101 688 0
-2029 942 0
-1805 2254 0
2047 1614 0
-390 -16 0
1473 -974 0
453 -916 0
2115 1913 0
-1390 988 0
-1531 -2048 0
-1968 1636 0
-2245 332 0
-468 1959 0
-2112 1120 0
2010 -2275 0
-300 1292 0
-2230 -1808 0
1953 -1714 0
561 -696 0
1583 -686 0
-614 -2162 0
-554 -1012 0
1013 475 0
1966 -2168 0
412 -1713 0
-1137 953 0
-265 -2259 0
1751 -1327 0
-1215 -1190 0
1420 -88 0
-499 691 0
1234 1938 0
-1957 -695 0
-170 1918 0
-988 1393 0
-2082 875 0
1732 1003 0
-585 -1030 0
-1338 -1744 0
1233 222 0
-1808 -2057 0
-706 -1124 0
1887 1809 0
290 -547 0
753 2112 0
-432 -2259 0
363 -373 0
-308 -1458 0
-1998 -2231 0
1084 -1248 0
-738 849 0
1498 -1049 0
-490 110 0
1086 556 0
1269 1893 0
2035 922 0
866 -415 0
-1065 811 0
-696 939 0
-217 -114 0
1523 1870 0
-2266 1176 0
-509 1886 0
-519 -976 0
-1498 -1546 0
-470 -2273 0
-1011 1391 0
964 -140 0
746 1236 0
1545 1044 0
-1802 2064 0
-1629 -1915 0
1798 -300 0
1896 -157 0
-1250 143 0
-385 1403 0
1448 -1268 0
2219 815 0
-1686 -1963 0
-870 -1555 0
-603 228 0
-538 -754 0
-1259 -1476 0
-1488 506 0
2094 60 0
600 -1112 0
850 -1677 0
-1482 -1021 0
1489 -1494 0
-614 -1413 0
1159 -31 0
1362 -2226 0
-801 1977 0
326 1462 0
-634 -1371 0
2046 -1377 0
-179 821 0
-2264 1186 0
569 1962 0
-677 2020 0
-1186 232 0
2046 654 0
1830 1264 0
1395 -1824 0
-2029 -1865 0
-662 -34 0
1751 361 0
703 -17 0
1524 596 0
1546 -827 0
-67 -952 0
69 -333 0
1705 -1758 0
-2039 278 0
1355 -2068 0
64 1485 0
1524 1077 0
820 -217 0
812 -202 0
1377 285 0
1897 268 0
1471 890 0
-872 -2132 0
-760 -203 0
1376 2116 0
1175 9 0
-640 -455 0
2126 2047 0
112 1015 0
-1278 -1283 0
-411 -1197 0
-301 -508 0
882 714 0
1213 528 0
410 -1187 0
-833 807 0
2211 -94 0
1349 1922 0
-602 244 0
1707 340 0
1942 -2163 0
-1299 -1239 0
-2013 170 0
-490 -1921 0
1228 1897 0
1947 -630 0
-470 -1769 0
-310 1509 0
-283 1898 0
18 1233 0
926 -2157 0
-1351 -1946 0
1064 -1875 0
1056 1321 0
755 -1726 0
-690 -1142 0
726 2214 0
-1782 1999 0
1588 926 0
-935 -2244 0
-241 1424 0
-922 -2066 0
610 93 0
-1525 126 0
-1455 1109 0
-1746 -190 0
1133 -1138 0
-1651 463 0
-207 -975 0
1871 -364 0
558 2153 0
-1596 943 0
-1777 -1195 0
372 1409 0
-936 -2299 0
-1477 -2114 0
-1281 391 0
2007 1056 0
-416 -1418 0
1872 332 0
-1915 -667 0
-919 2299 0
-1727 -1701 0
-1035 -2200 0
-1396 -2240 0
-923 2204 0
1317 136 0
-1659 -2018 0
-328 164 0
1515 -1415 0
200 1461 0
1576 -118 0
-52 -920 0
-1476 1902 0
1495 1654 0
-1001 -1133 0
1856 -904 0
-2141 2020 0
-194 -797 0
311 -563 0
2073 1636 0
-778 699 0
1160 2064 0
-1523 221 0
-1923 1328 0
877 2015 0
137 1235 0
2034 1219 0
982 448 0
-971 -68 0
-734 -191 0
-1808 1540 0
-1578 -342 0
431 462 0
-1206 2064 0
1468 -550 0
1242 -1230 0
1745 -2017 0
-888 2152 0
-937 -2128 0
627 1242 0
1784 258 0
-1182 -2220 0
-942 10 0
334 786 0
269 1363 0
1223 971 0
-1986 1251 0
2152 882 0
-1135 -999 0
-590 -419 0
-731 -1814 0
1033 1300 0
-1819 -481 0
120 1940 0
-1779 -867 0
-294 1179 0
-80 2142 0
-1428 -13 0
-56 1558 0
-2265 -92 0
-947 -612 0
-640 483 0
1029 2133 0
-1039 -854 0
-1886 -1735 0
-1485 2038 0
-411 112 0
-1191 -350 0
2229 -43 0
-768 286 0
-1884 -1660 0
971 -901 0
2105 1527 0
1424 2052 0
1833 1817 0
-819 205 0
865 -1023 0
-2207 -382 0
1952 -1548 0
1289 620 0
1596 1223 0
-1319 -629 0
-1583 723 0
1738 -1637 0
1214 -932 0
370 -2175 0
-2208 997 0
638 -1041 0
1672 -1795 0
-810 -435 0
-2004 54 0
1950 855 0
-606 -607 0
-665 -893 0
653 -1968 0
1504 2194 0
-1357 638 0
1841 -2126 0
929 166 0
-144 -478 0
541 1734 0
-56 -1314 0
-2066 412 0
-682 -1677 0
-1641 -411 0
1687 526 0
-340 1179 0
-429 1356 0
984 -1772 0
1978 107 0
1466 -862 0
-579 -54 0
514 -907 0
-104 1794 0
-728 2068 0
1872 -1175 0
248 -967 0
876 1133 0
544 401 0
-668 49 0
296 768 0
-1150 1719 0
574 1067 0
-1145 1952 0
607 382 0
1583 1886 0
1975 -296 0
-910 -73 0
-264 -2146 0
-89 -2213 0
-121 1835 0
1959 70 0
361 -1554 0
-145 510 0
141 1640 0
-1385 -1435 0
1208 546 0
1701 -932 0
55 1929 0
1859 -1698 0
1326 -259 0
-1095 1447 0
2160 1553 0
-1277 -854 0
996 -778 0
-963 39 0
720 926 0
1881 -1143 0
-139 304 0
160 -1691 0
-925 -1278 0
-148 2006 0
2148 -1048 0
-877 -936 0
629 1084 0
-376 1278 0
550 -1401 0
1840 1719 0
77 -37 0
-38 2196 0
-1400 -1571 0
-816 -1546 0
79 -1543 0
-1900 -752 0
-1959 -241 0
-1548 1938 0
-2179 1235 0
-1530 100 0
700 1244 0
-1011 -2 0
-2286 -928 0
1770 -1970 0
816 1104 0
-941 -177 0
-2193 1079 0
-559 -1742 0
-901 -903 0
1078 -156 0
456 1236 0
-639 -497 0
1384 -404 0
1503 10 0
-455 2049 0
2056 347 0
-768 980 0
1855 -985 0
207 1449 0
-1088 -758 0
-1343 -114 0
1643 1276 0
1235 1528 0
1291 1766 0
1782 -1551 0
-1562 522 0
-937 63 0
381 1135 0
1082 -805 0
2103 -1000 0
-2166 1714 0
-1889 316 0
898 -566 0
-1555 296 0
512 -121 0
804 -677 0
-1058 1859 0
1786 1008 0
93 -1357 0
1781 1325 0
-893 1823 0
2279 1440 0
1982 1504 0
-1216 -567 0
1403 846 0
281 -721 0
1975 1217 0
1474 1160 0
-391 1140 0
-1282 -1728 0
104 -1129 0
-1537 1575 0
-1435 -1937 0
2024 -1235 0
1752 553 0
1043 774 0
1704 995 0
1356 1528 0
-1425 534 0
-1627 1357 0
-1181 -2012 0
-51 641 0
-1690 1046 0
1471 686 0
-655 -154 0
-2064 -1162 0
1095 2155 0
-2258 88 0
-416 -1088 0
2143 -1889 0
397 -513 0
-1739 1185 0
1296 -354 0
260 -243 0
-37 1187 0
-1645 251 0
2245 -359 0
1297 -195 0
1572 318 0
1594 -1071 0
1111 1844 0
2137 -1655 0
-1460 2060 0
1771 1695 0
-338 467 0
-1656 823 0
957 517 0
-1974 1144 0
-1025 -1327 0
2177 1289 0
127 -1173 0
962 -2158 0
1524 -1118 0
1020 -2044 0
-1137 432 0
397 -1073 0
-1015 1278 0
870 -1384 0
-2155 556 0
1008 -1793 0
-1345 -1010 0
416 2189 0
-981 -362 0
-628 -1637 0
1329 2194 0
685 -509 0
1028 228 0
829 -325 0
669 201 0
-860 143 0
-138 -1669 0
-370 864 0
-885 -1078 0
729 -1271 0
510 190 0
845 184 0
-2247 2141 0
2267 1876 0
-842 -1014 0
692 -468 0
1881 -1932 0
1672 -1860 0
-885 -639 0
390 -653 0
416 2027 0
-1313 -311 0
297 -2229 0
-998 -2104 0
-1494 -638 0
-1259 1856 0
2090 2125 0
1117 1649 0
-1697 -688 0
-188 -1938 0
1996 -916 0
1705 -2209 0
1110 -691 0
2003 -964 0
-1468 -47 0
-1536 2 0
1405 -1030 0
-1067 2112 0
740 980 0
-30 -786 0
-2086 1318 0
1910 -1480 0
706 1157 0
-1214 579 0
845 1697 0
1176 -1997 0
-653 814 0
-1304 1399 0
1356 -262 0
-1855 -421 0
1411 918 0
1524 1668 0
-1548 -1631 0
547 -2176 0
1588 1775 0
-1804 1765 0
-1850 -1521 0
1136 1014 0
-1766 1052 0
944 -20 0
-1518 -1756 0
-555 1888 0
-1748 -1869 0
-278 -1182 0
383 -2193 0
1271 -899 0
1485 -482 0
310 -1367 0
-1279 -682 0
1734 -41 0
-2066 337 0
-1493 -1772 0
-46 1175 0
933 1534 0
1881 1991 0
2140 -1091 0
1576 -317 0
-1553 1304 0
1587 -1606 0
-1911 -2084 0
-1277 1610 0
2056 -1491 0
1278 -1888 0
1538 -1058 0
452 -713 0
1904 678 0
2104 821 0
-1631 2293 0
-992 1688 0
-1170 711 0
2279 461 0
-815 -432 0
-1567 -1216 0
2114 -108 0
-1322 -676 0
1355 -785 0
-880 634 0
797 127 0
-2238 -397 0
-257 1396 0
-77 738 0
1019 1 0
-2157 2167 0
-2094 -1032 0
-503 -1187 0
-1031 -1644 0
-1105 -1504 0
488 2150 0
1269 -2019 0
-640 1754 0
735 -925 0
-519 -2030 0
599 -1009 0
1509 2051 0
-1510 912 0
-1820 1211 0
686 1511 0
1973 -1772 0
1538 925 0
70 903 0
654 -1597 0
-1844 -908 0
1614 -1229 0
-1645 -697 0
-1079 -1453 0
890 545 0
251 -1224 0
-512 2136 0
-1445 2269 0
784 824 0
-1846 635 0
-1419 -618 0
339 -987 0
-428 -2077 0
-1192 1943 0
-52 -1252 0
-727 -598 0
2288 1556 0
2267 -1715 0
1770 -13 0
-900 365 0
699 -1547 0
-232 -86 0
-442 2145 0
-1300 1110 0
2240 -1950 0
-2248 -1320 0
2246 -334 0
1277 2219 0
1449 -993 0
1997 -1436 0
1387 793 0
269 271 0
-789 -1009 0
-1286 -1748 0
1735 1887 0
588 -1202 0
-1491 -593 0
883 -302 0
-489 1251 0
-1947 -575 0
1020 1442 0
170 -1354 0
980 723 0
-1853 2156 0
814 -2179 0
2111 -1027 0
-1444 200 0
-185 -1592 0
182 274 0
960 -621 0
452 -2239 0
-1508 261 0
-2231 -2104 0
1984 -1628 0
-2231 603 0
-1000 210 0
-805 -261 0
-1076 -531 0
-903 -901 0
2240 -2083 0
637 2108 0
1931 -1644 0
-582 2024 0
2109 1141 0
-1142 269 0
-2180 -2063 0
-896 -1849 0
265 -1240 0
-47 -263 0
-1206 1294 0
1747 1899 0
-1666 876 0
485 1549 0
-1906 -650 0
-795 2079 0
233 742 0
-1664 127 0
2000 -1504 0
-807 1850 0
-2069 -1562 0
-406 -489 0
2285 -1032 0
-286 556 0
-1563 -1993 0
816 -1072 0
-1069 2158 0
2186 -1516 0
-200 -2222 0
1339 -1370 0
1228 -2304 0
-712 309 0
-1194 108 0
-2100 -771 0
790 -219 0
-1281 1404 0
1569 97 0
-578 -1185 0
1630 780 0
1213 -67 0
808 -736 0
251 -1508 0
1535 1244 0
-1636 1621 0
1713 -1015 0
-1390 2279 0
-1451 62 0
1468 -2261 0
-684 -695 0
2274 -1394 0
953 517 0
-585 -1148 0
-1561 1324 0
1227 -1283 0
864 -2283 0
2129 -2240 0
-1191 -746 0
-345 606 0
1621 -1849 0
-913 -513 0
1558 -764 0
-2144 -543 0
307 -2239 0
127 1046 0
1420 1214 0
-1474 -2179 0
-1650 -1237 0
1389 565 0
-990 539 0
-1640 -1701 0
-1741 363 0
1236 285 0
-359 2073 0
1498 1256 0
-1931 1502 0
160 1071 0
-1891 834 0
1265 -974 0
1987 -1761 0
895 823 0
-179 648 0
-468 -59 0
-240 -636 0
924 2137 0
230 1771 0
2235 -1468 0
-57 -374 0
188 -187 0
-1019 -1540 0
-2200 1757 0
1786 1096 0
-1139 -2156 0
1995 2155 0
883 1634 0
215 460 0
1296 -1510 0
-1965 1268 0
2154 -989 0
1654 718 0
-736 -2101 0
-1416 -2178 0
-80 1291 0
96 -2182 0
-674 -742 0
415 837 0
1888 1753 0
-1609 -945 0
-1045 641 0
1156 -1616 0
-2137 1478 0
-1716 115 0
-807 2267 0
-567 258 0
1622 -241 0
-2169 652 0
1359 2040 0
554 1007 0
-1634 -369 0
437 -1908 0
420 970 0
1704 2046 0
1808 -1148 0
1 -1813 0
-2239 2088 0
1412 32 0
-2168 -940 0
624 -1567 0
-1088 1726 0
-2184 1936 0
-559 6 0
212 818 0
1210 281 0
-833 -773 0
403 -460 0
613 1848 0
1104 -615 0
-958 2126 0
-1821 -306 0
1437 -1908 0
505 -1931 0
1912 872 0
2210 -1349 0
-2239 -1778 0
1387 -311 0
497 -79 0
-459 -765 0
-1194 -2239 0
511 -1329 0
-832 -748 0
-1710 1472 0
-2164 -1689 0
-1282 -19 0
-112 1822 0
-267 -1116 0
220 2250 0
1821 -1022 0
1887 -1854 0
-1035 -1673 0
943 -34 0
-844 1834 0
-1804 244 0
-852 -1435 0
-900 -1838 0
2177 2262 0
1531 -2171 0
-1209 2296 0
-563 -1558 0
-907 436 0
-995 1228 0
1084 906 0
-1368 -1053 0
-940 -1080 0
-607 1223 0
340 1424 0
600 425 0
1346 1570 0
-2030 1018 0
-507 -758 0
-1894 -2272 0
-2111 927 0
-1119 597 0
2124 1004 0
655 -194 0
137 -1673 0
-1773 220 0
-994 -1792 0
1161 -976 0
-1464 -367 0
-2289 -940 0
-2025 -889 0
990 -1754 0
2183 1718 0
1291 -992 0
1688 1727 0
-1505 -64 0
-1784 653 0
431 -1784 0
532 1269 0
-1623 355 0
1675 1096 0
624 14 0
1766 -996 0
-742 2049 0
-1976 -558 0
-1840 -2176 0
-1340 1468 0
-303 425 0
433 632 0
-493 -1626 0
1555 1422 0
-770 719 0
-919 620 0
647 1276 0
-1260 -1660 0
-1842 1432 0
-1972 -1504 0
1787 -1617 0
-680 753 0
420 1578 0
2155 -2010 0
-1125 1747 0
-1025 766 0
-1818 2258 0
150 -2118 0
699 1570 0
1305 474 0
-1222 2274 0
-1433 -1026 0
-1591 1793 0
344 1209 0
-675 -1801 0
718 755 0
-551 487 0
-500 -1388 0
1318 552 0
-2230 -133 0
219 -920 0
1727 2129 0
-1089 1392 0
1713 1556 0
-15 1413 0
796 -823 0
812 -1714 0
458 2246 0
1028 185 0
-2043 843 0
-623 2186 0
1753 -1532 0
-1081 1518 0
-1915 1436 0
466 -252 0
1989 1214 0
836 296 0
-2026 583 0
1108 -653 0
-2255 -906 0
689 55 0
-1461 1414 0
-2203 -2059 0
1479 942 0
-1160 1426 0
772 -1513 0
-2019 -1747 0
753 -698 0
-1782 -467 0
798 -639 0
-1205 -1565 0
-1489 1222 0
-540 550 0
623 1291 0
-1216 933 0
-1756 2240 0
-857 2223 0
-429 -1668 0
1727 1193 0
-713 -982 0
1903 -2072 0
-2129 -1901 0
-1556 -1156 0
-283 -2019 0
2299 -42 0
-2250 1841 0
-2039 -1421 0
-635 -632 0
-151 1738 0
-1367 -1045 0
-976 1858 0
-297 -653 0
1645 -151 0
-1838 1758 0
-627 784 0
1361 873 0
1473 2244 0
851 44 0
-2066 -1596 0
-1778 -1929 0
190 -1738 0
746 1473 0
-554 -2239 0
-1560 -1746 0
-281 913 0
2282 2014 0
210 1699 0
387 299 0
336 -446 0
781 -1666 0
-108 -1572 0
-2033 2018 0
-420 43 0
1692 2161 0
557 158 0
87 -163 0
1514 571 0
-1015 1473 0
-1951 -2291 0
-44 -553 0
1869 -1149 0
1608 1326 0
-2251 436 0
-12 1806 0
318 1046 0
1352 532 0
1421 -1966 0
-74 2188 0
408 1017 0
1936 1207 0
-566 -1919 0
-1934 -469 0
-2038 -418 0
535 -2209 0
-1115 -889 0
-148 -500 0
-1298 -30 0
1872 -1564 0
-1979 303 0
-1197 -256 0
1542 -731 0
1866 912 0
-1416 1220 0
-2043 -38 0
1553 370 0
761 -2086 0
-1124 -569 0
855 -1365 0
1933 904 0
1464 -1651 0
-676 1735 0
204 -179 0
927 1527 0
2072 -1519 0
1842 514 0
1131 -625 0
265 -1953 0
-1611 -677 0
1601 1840 0
1361 -1036 0
-1591 -1035 0
-913 544 0
979 1764 0
930 7 0
-1516 322 0
-1094 -1246 0
-329 -462 0
875 367 0
-2178 1764 0
-306 -1098 0
2214 579 0
2007 109 0
1569 194 0
502 1373 0
-1659 183 0
-1912 -920 0
-759 37 0
-590 -815 0
-370 673 0
-197 -21 0
1936 1789 0
721 -1489 0
-442 2035 0
607 2277 0
1442 -770 0
-1585 2042 0
-790 1627 0
-214 -1851 0
2067 -558 0
-991 610 0
2254 -1134 0
-605 909 0
2019 -21 0
-2146 -1229 0
647 1044 0
-1265 175 0
2214 -787 0
-2070 -17 0
1425 -1724 0
-1604 -888 0
1762 2172 0
-38 2042 0
-974 1075 0
7 1873 0
-2171 1382 0
1619 623 0
-1560 -24 0
754 -2097 0
748 -633 0
1840 -287 0
-1739 -955 0
2210 -286 0
2265 321 0
1295 -1600 0
1195 -433 0
2216 -2080 0
-1136 834 0
-996 -1283 0
-10 1727 0
-351 2115 0
-2157 1082 0
-713 -493 0
1084 863 0
-1591 -652 0
-1604 2212 0
-1307 -1867 0
-77 533 0
723 -260 0
-1121 1729 0
1965 26 0
804 1830 0
-411 -1198 0
-1879 854 0
1507 1574 0
687 474 0
1826 -1488 0
-764 -758 0
-1066 1501 0
385 2055 0
1499 -684 0
863 -626 0
-1695 1928 0
277 535 0
134 -1359 0
-203 -2129 0
566 -2099 0
-2030 1856 0
-1052 -382 0
-1481 920 0
75 -121 0
-891 -379 0
-548 -2189 0
2159 787 0
196 152 0
1234 691 0
-648 180 0
2300 1432 0
-1717 -1439 0
1211 -2103 0
-94 -262 0
709 2212 0
1177 1943 0
-2274 -963 0
-2176 -1486 0
1256 1626 0
-1543 -1253 0
-319 445 0
-1970 -1724 0
112 -1694 0
-1339 -1892 0
1579 1904 0
1077 2249 0
-2017 -1815 0
-271 1011 0
690 -2097 0
-895 953 0
-201 -13 0
-1886 -2131 0
-891 -524 0
-561 -1518 0
-1437 -446 0
-2186 -1019 0
-1388 -131 0
2071 315 0
-2132 639 0
444 272 0
-1511 -510 0
371 633 0
-1674 -223 0
-1875 235 0
-461 -518 0
998 -1189 0
2137 475 0
2083 1299 0
-1145 -376 0
1228 1344 0
1380 2246 0
417 -1454 0
-433 1468 0
712 -1724 0
-465 2136 0
1880 -676 0
-1084 -226 0
-1384 1871 0
1067 1535 0
892 -2245 0
-309 540 0
1535 -262 0
967 686 0
2225 1376 0
1253 949 0
-272 -1562 0
-859 -253 0
1760 913 0
-38 -1028 0
355 1665 0
273 -1058 0
521 212 0
1020 -542 0
772 -828 0
693 -1808 0
698 228 0
-2057 -466 0
-1735 -2269 0
551 -1088 0
-975 -1139 0
-684 1959 0
-1804 -1702 0
-1482 439 0
-1976 -2172 0
-620 -1863 0
1680 1146 0
1156 626 0
-734 -1754 0
-1964 -721 0
716 -1145 0
1666 2137 0
-1958 1446 0
566 -2123 0
1389 588 0
-832 -1205 0
1573 -1373 0
929 -1345 0
-2146 756 0
1853 -2167 0
-1574 344 0
-1928 463 0
195 -592 0
-1632 2128 0
-776 -1748 0
2228 -1188 0
-1858 184 0
1776 -338 0
-517 -1156 0
784 -2176 0
922 -1275 0
-1277 1207 0
69 -1205 0
2116 1680 0
790 1128 0
-362 2206 0
304 -1395 0
2285 -1787 0
602 48 0
-674 -2199 0
-1030 -2014 0
-908 -1089 0
-1632 -195 0
-1536 475 0
-1286 166 0
-2138 765 0
2218 -1303 0
-573 -38 0
-1230 1595 0
1203 -643 0
1315 -1325 0
-429 -1842 0
1117 -384 0
-2111 1619 0
1077 -94 0
497 558 0
2087 7 0
-906 -49 0
571 2211 0
-2187 -2103 0
-121 -1892 0
-1881 1847 0
1736 -688 0
795 1355 0
482 384 0
2181 -543 0
580 1718 0
-1941 1210 0
-409 1982 0
1874 1568 0
1346 1848 0
-1115 607 0
173 -480 0
41 -2109 0
-1833 -720 0
304 1656 0
-1493 -780 0
289 -1434 0
214 -837 0
-662 2121 0
-238 1011 0
2144 -1454 0
-1972 -1314 0
1883 1874 0
-1178 -478 0
996 1405 0
701 1366 0
834 -829 0
-9 715 0
64 -842 0
-920 1637 0
-1615 -434 0
1459 -1563 0
-699 -2166 0
-1193 865 0
-604 -437 0
-1701 57 0
1991 2163 0
-1691 1744 0
466 1678 0
-1720 943 0
974 1432 0
-1730 -885 0
-1101 595 0
1276 -1149 0
-1493 -1628 0
2011 2194 0
347 368 0
-190 -1681 0
-2116 -2138 0
-1692 318 0
-1812 -1581 0
-2117 -334 0
-1714 -446 0
-1561 1630 0
-1023 1938 0
-2031 -37 0
2049 -1571 0
-1338 826 0
1556 -911 0
852 -2123 0
1536 -1680 0
1499 1992 0
-117 -1175 0
556 -391 0
-1671 -716 0
1506 -2067 0
-392 2159 0
-1309 -226 0
-566 510 0
2221 -153 0
1986 -1574 0
2058 -1990 0
-1347 865 0
-1036 -1599 0
-224 269 0
-85 1610 0
-1996 -2033 0
1979 330 0
1227 -2299 0
-246 -1757 0
-1020 1526 0
-617 -683 0
-903 592 0
-2039 679 0
-961 1411 0
1784 1507 0
-1681 -819 0
-628 -851 0
-746 -315 0
-142 1853 0
584 -1809 0
-1442 381 0
-1805 -1237 0
1810 -1664 0
-1484 -1818 0
1353 -767 0
-1053 -1340 0
-572 1633 0
140 2161 0
-2287 -932 0
-2121 -1828 0
-1597 1759 0
1805 279 0
653 -901 0
187 -1227 0
1260 -1277 0
1507 -2047 0
768 832 0
112 2262 0
-562 1526 0
-1101 -1329 0
-2293 -2172 0
373 150 0
-1838 1075 0
-302 1285 0
-1325 986 0
-1373 -1674 0
1435 417 0
358 -1787 0
2125 -803 0
-1039 -351 0
-753 -1658 0
1927 -751 0
-92 -656 0
-638 645 0
-1878 846 0
-2220 1653 0
-781 1404 0
-605 1809 0
2080 -2238 0
1249 -226 0
-1265 2224 0
1962 -937 0
-489 -1131 0
-433 1177 0
-1287 -1258 0
621 1876 0
-795 1575 0
33 1480 0
-824 981 0
2169 -1689 0
-1329 1445 0
-1468 -758 0
1602 -1371 0
498 -795 0
-2096 -970 0
-82 -1257 0
-1761 -1936 0
296 -1901 0
487 -1494 0
-1924 1952 0
19 2214 0
-1437 834 0
-2084 149 0
1485 -1092 0
-1710 49 0
2288 1780 0
2071 -938 0
1927 -1754 0
447 2293 0
-1248 -1504 0
-778 526 0
727 -635 0
251 1630 0
-1143 -747 0
-187 1815 0
1871 -1396 0
-2072 181 0
447 -233 0
-1459 -1591 0
-492 -901 0
-1197 1558 0
1280 -810 0
-890 -937 0
1742 411 0
-994 -901 0
330 1183 0
2097 981 0
1778 -305 0
1290 -73 0
782 -160 0
-549 263 0
-2021 -1088 0
2290 -2170 0
-1380 1686 0
1211 -200 0
303 203 0
728 189 0
785 -932 0
2138 -1865 0
1217 -886 0
-2099 -2123 0
-1202 270 0
-1830 878 0
-1248 1803 0
1757 -1321 0
-193 2209 0
2081 -604 0
39 1191 0
-317 -663 0
-2035 496 0
-288 -939 0
978 539 0
-1089 397 0
187 -697 0
71 1049 0
-103 1177 0
-748 1127 0
-370 -778 0
-1393 -767 0
-1423 792 0
-226 -195 0
1544 119 0
-1823 1149 0
-2169 1587 0
-183 -2025 0
641 -1394 0
1462 -1309 0
-1270 1350 0
-654 -394 0
-1804 8 0
448 -2129 0
2082 150 0
1606 -1665 0
-1049 961 0
-1302 1501 0
-1314 1722 0
-365 -1543 0
-2015 1026 0
-2132 1615 0
-1463 386 0
-1826 442 0
1645 -1659 0
607 921 0
2083 -513 0
-966 -1058 0
-1996 -817 0
-631 460 0
853 -1308 0
-1855 -2164 0
-1879 1178 0
1686 2044 0
1808 2052 0
-2010 1615 0
-511 326 0
-1455 69 0
14 -66 0
-674 -787 0
65 1228 0
1959 840 0
1043 -1683 0
-2246 1358 0
-1096 424 0
-1374 407 0
683 1752 0
87 -517 0
1184 -370 0
-1868 323 0
1961 2277 0
-226 2086 0
1409 1975 0
-789 -1224 0
357 2016 0
-54 1752 0
1854 -1225 0
838 717 0
253 2267 0
820 -2097 0
742 1382 0
2052 473 0
-1812 -1780 0
-1491 -1508 0
1978 1278 0
1055 -301 0
316 1809 0
-1909 -1973 0
-546 -1848 0
2305 -1310 0
1203 902 0
1457 -1094 0
-892 -2202 0
922 192 0
-1021 1409 0
-1386 -499 0
-1546 358 0
-996 -2039 0
-847 1653 0
1387 -2109 0
-1406 1173 0
161 1852 0
1495 -2054 0
943 1589 0
1046 1752 0
884 -1270 0
1055 -1800 0
1730 666 0
138 -952 0
-2293 -676 0
-628 1466 0
-1510 -703 0
1358 2029 0
-1066 -1033 0
506 339 0
-2033 838 0
1967 -1705 0
2265 -2234 0
2061 -703 0
1588 -1516 0
848 -794 0
-1369 -1305 0
-207 92 0
-851 -1221 0
658 -27 0
312 -981 0
738 44 0
-705 -1932 0
-1327 1913 0
-1270 981 0
2291 -1107 0
2171 1543 0
2188 969 0
-508 878 0
429 -511 0
-2304 -1673 0
-515 342 0
784 580 0
1707 1977 0
-925 2102 0
-789 -504 0
-1574 1397 0
2044 -1483 0
382 1577 0
-1083 -1394 0
-569 1387 0
367 -418 0
-950 898 0
-1894 1402 0
371 -988 0
1891 401 0
-322 1438 0
948 318 0
-868 1444 0
-625 781 0
-1784 -850 0
607 -1625 0
-2199 -625 0
-1516 -1102 0
-509 2177 0
-1693 164 0
886 1186 0
-1367 1156 0
-459 1809 0
1540 -753 0
1031 274 0
466 1230 0
607 -151 0
-1309 1167 0
1201 -775 0
-775 -2289 0
1213 -457 0
-994 -942 0
-2289 -991 0
-92 -1442 0
-704 -451 0
-1497 543 0
708 -1928 0
-791 -1259 0
-1540 -1733 0
753 -2151 0
-1091 -902 0
-567 -2102 0
6 733 0
639 -1756 0
1278 -1254 0
1424 298 0
-53 -1788 0
189 -1669 0
2258 1504 0
-1142 2052 0
1098 421 0
-1352 -1866 0
-1808 421 0
-1650 606 0
1113 1908 0
-2276 1326 0
-1326 -1001 0
-1846 1663 0
1400 3 0
-1371 2082 0
-285 697 0
1247 1211 0
-1716 1251 0
-1090 -617 0
359 1906 0
932 -971 0
-871 1760 0
-995 -1494 0
-458 1499 0
1210 -821 0
-2139 1937 0
1809 -733 0
-1873 -411 0
21 -1367 0
1761 -186 0
1653 429 0
2000 -179 0
-309 1601 0
711 -2151 0
-667 -1487 0
-1628 -1575 0
-688 2224 0
-1650 -486 0
723 -2186 0
481 -1087 0
2272 133 0
-2184 -1025 0
738 2145 0
-572 -2239 0
1045 951 0
-2120 -897 0
1601 1820 0
476 -471 0
384 -1331 0
-2196 -1115 0
2145 1326 0
2229 -1140 0
-270 -2154 0
1686 187 0
2040 -481 0
559 1899 0
120 -1415 0
-2054 -390 0
1865 1661 0
-1218 -1675 0
545 -1788 0
-1837 -1025 0
143 253 0
2022 196 0
1582 1422 0
2150 1708 0
-560 1406 0
-487 -543 0
614 -2222 0
587 2039 0
-194 525 0
331 -906 0
-1183 1300 0
260 -1212 0
-74 2257 0
1251 2303 0
-582 -239 0
1722 -1934 0
-847 -1965 0
1536 -1623 0
-1026 497 0
-1759 -25 0
-928 -1025 0
538 636 0
-876 -470 0
-1835 2099 0
-384 -335 0
-969 157 0
-1114 238 0
2252 1045 0
-1701 1786 0
-2257 -644 0
332 -1352 0
2128 221 0
757 325 0
966 978 0
-1323 1290 0
-1019 1336 0
1723 -2185 0
689 1526 0
-79 301 0
1523 408 0
1569 -1048 0
-206 -1119 0
-1623 837 0
59 -659 0
1026 8 0
-1128 355 0
-864 -2203 0
-497 -1496 0
-1119 517 0
1377 -1327 0
-1115 1900 0
121 -1284 0
1238 -1414 0
975 -272 0
-795 -353 0
1383 -2232 0
442 507 0
-683 562 0
488 829 0
410 -356 0
312 1357 0
634 1176 0
1697 -473 0
-1826 -2060 0
1506 -502 0
-1440 1444 0
-1973 -990 0
-52 873 0
-1839 -1017 0
-1684 -356 0
-1284 -303 0
1216 -625 0
284 -896 0
-581 -1580 0
-1061 -1155 0
-1359 -1521 0
381 -254 0
522 -1363 0
-1640 -524 0
-1642 504 0
114 -2086 0
-636 -1785 0
1511 961 0
1057 -883 0
-1769 -1429 0
-1111 1188 0
-858 -1914 0
-792 2241 0
-389 -1895 0
-1792 -2193 0
-232 1339 0
-1076 356 0
-1215 169 0
-2035 516 0
-308 883 0
2052 -1691 0
233 -542 0
-185 77 0
-1947 1963 0
-1250 -214 0
708 -526 0
-2037 -1332 0
-2110 -1951 0
-1683 1955 0
1463 1372 0
-2261 -1844 0
-1743 -240 0
646 767 0
1335 436 0
-283 -1107 0
620 1579 0
-973 1809 0
-370 -817 0
-1777 1193 0
1186 1236 0
528 2106 0
-1768 1236 0
998 858 0
-502 544 0
2131 919 0
-1927 -916 0
1566 -2183 0
-145 -1277 0
-1056 -1103 0
297 -1062 0
1247 2117 0
-1782 -2151 0
986 -600 0
-1824 1068 0
-2111 -1072 0
-1357 224 0
-507 -737 0
-1052 1680 0
-301 -705 0
-1733 -2059 0
1075 2232 0
860 2000 0
-2019 2028 0
-1772 -2203 0
-573 -509 0
-1889 2212 0
-1359 -1898 0
-117 -781 0
-1211 452 0
-432 1667 0
2065 -739 0
96 888 0
172 575 0
933 2188 0
46 -1188 0
-1435 -550 0
-1934 -1094 0
-2138 2174 0
1424 -1464 0
-157 -1052 0
-985 -167 0
7 -1075 0
2257 -518 0
543 -1626 0
-1210 -469 0
-2276 437 0
1814 -494 0
-1080 -1860 0
1795 1 0
-1302 -950 0
-2042 -395 0
-396 -976 0
1326 -1885 0
910 -884 0
657 -1236 0
608 -790 0
-21 521 0
632 1135 0
-671 -2003 0
1339 178 0
-2187 1077 0
-238 550 0
-1518 -113 0
-960 -1296 0
-903 1725 0
2130 1942 0
822 580 0
-1931 219 0
955 -513 0
1971 7 0
1064 258 0
-1895 450 0
541 -1066 0
-427 192 0
2250 -330 0
32 -2268 0
231 -1895 0
681 708 0
1382 1874 0
-534 1925 0
-1408 731 0
2227 -591 0
-1374 2105 0
-787 -1849 0
224 -1653 0
-1415 -287 0
1473 -2269 0
564 2000 0
891 1064 0
-1635 -1614 0
1791 287 0
-124 516 0
-473 488 0
322 -1976 0
-338 -1530 0
518 -155 0
-752 -724 0
-515 -1065 0
-1093 -1365 0
-255 -1992 0
1704 1544 0
-1033 477 0
2201 -401 0
-798 1403 0
772 651 0
-1830 1506 0
2262 40 0
1276 1249 0
-1926 923 0
514 -1101 0
-1139 1615 0
-1532 605 0
-305 1899 0
-1379 218 0
-987 1585 0
1680 -1834 0
397 1206 0
-142 -2255 0
-868 1955 0
-195 -818 0
-27 -1879 0
1687 -1226 0
-736 776 0
745 -633 0
-1922 2256 0
-1992 -817 0
-2124 150 0
240 101 0
-857 -654 0
-1489 -1658 0
1044 -2043 0
683 600 0
-434 1672 0
519 -523 0
895 2018 0
-1926 809 0
1902 -1633 0
2282 1071 0
-1581 1290 0
1176 -1417 0
-2303 -1393 0
-1387 -1253 0
-1821 1262 0
-1490 -648 0
-495 -1364 0
890 -613 0
661 -904 0
-1262 230 0
1631 1213 0
-1228 1831 0
223 263 0
-1791 70 0
1718 -1650 0
-1412 -1989 0
-1139 -246 0
499 -1983 0
729 -147 0
612 -1988 0
-1567 -233 0
-896 -2255 0
2043 -1441 0
542 817 0
-1184 -204 0
1355 1749 0
-975 609 0
-790 1489 0
-96 -663 0
-478 2220 0
-1287 1591 0
-861 1962 0
1472 1880 0
-2042 -1668 0
-167 -1969 0
2259 1376 0
55 -485 0
2033 -205 0
448 1764 0
1919 -1773 0
-1992 1844 0
-792 2294 0
-986 899 0
-240 -547 0
11 -1253 0
-1918 1624 0
2231 -1029 0
453 486 0
1569 -2273 0
1355 -2221 0
-614 -569 0
-1125 -546 0
1331 1984 0
-1544 -1599 0
503 1556 0
1884 -1690 0
1389 -1566 0
-1574 35 0
150 1202 0
-1134 -587 0
-1392 1038 0
924 -712 0
366 -255 0
-900 1287 0
1536 -1 0
2252 -1618 0
75 296 0
802 -1128 0
-1875 -174 0
372 490 0
1254 1457 0
1048 -254 0
-1369 -1198 0
2074 -1811 0
-394 1521 0
1851 1044 0
-1716 -668 0
496 417 0
-237 2212 0
977 383 0
303 1436 0
-156 -1350 0
1529 -2208 0
29 -2071 0
1852 -604 0
1523 1222 0
-1385 -1003 0
99 -1819 0
2239 -12 0
1888 311 0
1439 -1276 0
1088 1959 0
-15 -1750 0
-2176 1260 0
-199 2225 0
147 487 0
277 -182 0
995 -828 0
-1212 1325 0
-1114 -1877 0
1088 1038 0
-2022 -1299 0
1967 2217 0
-492 607 0
-2205 2142 0
8 -633 0
-760 -1949 0
2052 -1017 0
-2248 598 0
1686 389 0
1214 -1481 0
1012 -405 0
933 -1805 0
2014 2233 0
908 399 0
1349 -2061 0
498 -1694 0
914 -514 0
-1382 1554 0
-1717 -455 0
-2085 1813 0
1509 -2148 0
-721 1259 0
2146 2127 0
85 1158 0
550 1235 0
2048 769 0
521 1207 0
-1010 -709 0
2019 101 0
-2036 -1049 0
2105 -1770 0
-1062 -74 0
1797 -872 0
-1835 1827 0
1353 1968 0
-2063 -736 0
732 1817 0
2018 -778 0
2100 727 0
-1786 -1292 0
1675 -1720 0
1876 776 0
-891 699 0
93 2167 0
1399 -1168 0
-1341 1064 0
1123 1284 0
-2139 -45 0
-219 -1895 0
1582 830 0
77 1119 0
1350 -2286 0
-2028 1501 0
1538 -1254 0
715 -2148 0
1586 2035 0
-1989 -595 0
1592 386 0
1300 -2006 0
-433 -660 0
-489 169 0
-394 -1335 0
2035 2098 0
-2000 -1772 0
-1439 211 0
1696 590 0
-2148 1499 0
2067 2062 0
-1779 -195 0
-2063 878 0
-1730 -2235 0
584 265 0
-1806 -606 0
1323 1230 0
911 2046 0
798 -1744 0
-1820 516 0
1567 -1976 0
-156 -2295 0
-1400 2251 0
-320 811 0
1461 2068 0
-606 -633 0
1104 -496 0
865 683 0
1542 -1965 0
-685 1055 0
-1956 -1762 0
-430 -488 0
-1849 1982 0
-983 1632 0
-1897 -126 0
-1007 -2176 0
1753 -538 0
-1181 1526 0
-2200 1127 0
1707 -1527 0
2201 1960 0
1971 -507 0
-749 -668 0
-1015 741 0
1236 -950 0
-2303 -243 0
2019 1268 0
-2200 1918 0
-1993 2008 0
492 -501 0
-555 132 0
668 -631 0
252 2135 0
1798 -868 0
-1651 -2235 0
-1873 421 0
-1455 -1124 0
2156 -631 0
-1419 -163 0
1583 -612 0
726 -663 0
535 -880 0
-697 -2029 0
-1352 2213 0
-2089 -949 0
1689 -674 0
-538 2297 0
-1750 -968 0
-2295 1164 0
-523 1642 0
-536 132 0
-781 1384 0
-876 -766 0
-471 2014 0
1911 -114 0
1292 -191 0
2014 1729 0
-722 899 0
-163 2150 0
1399 -401 0
-1580 1499 0
739 -241 0
1249 1653 0
575 1824 0
2065 992 0
-1122 1153 0
824 -338 0
1120 1380 0
997 -177 0
1734 488 0
-330 1872 0
-983 2067 0
388 -487 0
-1898 1750 0
535 818 0
1643 2029 0
1451 -1658 0
584 1479 0
687 627 0
-2168 -1756 0
1621 220 0
-1356 -680 0
1595 184 0
-663 -1894 0
-2006 1304 0
563 420 0
1615 1581 0
-2042 -1326 0
989 -549 0
1260 -179 0
1693 -778 0
2159 -738 0
-1860 1509 0
556 -377 0
-2302 699 0
26 2261 0
-1676 2151 0
1734 -1767 0
63 113 0
-2084 -34 0
737 -1254 0
-2009 1106 0
-1418 -1624 0
1705 67 0
-329 136 0
589 -785 0
1897 -713 0
-916 1332 0
-311 -957 0
-1414 -983 0
-697 -2034 0
-1625 230 0
169 929 0
-1948 -2206 0
1854 528 0
327 522 0
-62 -1274 0
-881 196 0
2075 -534 0
784 1398 0
-507 -643 0
131 -2111 0
1271 1311 0
357 1991 0
-1569 636 0
1444 1343 0
-1019 -694 0
210 1942 0
-1774 -1783 0
1700 270 0
1806 1431 0
1382 753 0
-688 -2171 0
398 657 0
-470 332 0
-437 747 0
-191 1661 0
2244 -468 0
1555 -325 0
1736 419 0
736 -1056 0
894 1831 0
1456 420 0
-769 -735 0
-1640 -1875 0
-1054 -1973 0
846 -975 0
1307 -936 0
-139 -692 0
-822 1143 0
913 -1911 0
1086 304 0
-1859 -785 0
-1161 522 0
-1664 -593 0
1143 -725 0
2254 912 0
825 -1505 0
1432 2029 0
1374 -950 0
2006 1240 0
233 968 0
2102 -1325 0
1820 -739 0
-1182 -411 0
1913 1261 0
-1298 -1994 0
-2035 691 0
-1333 520 0
727 -1173 0
-886 2089 0
-1014 -1298 0
317 -1367 0
-257 306 0
-1404 2077 0
839 1147 0
1775 -1388 0
-1852 836 0
36 -770 0
-671 -2076 0
334 1554 0
-598 -888 0
1450 -755 0
-2280 1482 0
1893 -1221 0
-1816 -1885 0
-827 1709 0
2228 -1254 0
1866 2227 0
1371 1304 0
-1014 -1247 0
-2109 -58 0
1126 270 0
1346 2206 0
115 -379 0
1687 1991 0
-1261 -319 0
1322 -327 0
1108 -2077 0
-1421 2133 0
1501 -513 0
127 2222 0
-206 -1862 0
-490 -2285 0
-615 1516 0
-262 1372 0
412 6 0
1624 51 0
-1387 -605 0
-2268 40 0
855 189 0
323 -2073 0
-949 1630 0
-379 -80 0
2136 1636 0
-1671 -1418 0
-709 -288 0
1594 2059 0
-1315 2163 0
-2057 -1253 0
1030 -576 0
772 -1714 0
-1656 945 0
-380 1012 0
661 1297 0
1864 231 0
-1664 565 0
1856 -467 0
401 691 0
-1875 -75 0
-354 -762 0
602 -1248 0
-1950 1844 0
-1615 -1345 0
-1558 -639 0
-905 1577 0
1919 820 0
-1921 1188 0
1938 -1170 0
92 951 0
-1455 -703 0
-2074 1366 0
-1366 1550 0
355 -914 0
-1839 -1024 0
-552 863 0
-1529 1226 0
153 420 0
716 -960 0
-276 2234 0
296 -1371 0
-1945 140 0
2298 -1732 0
-1339 -1067 0
-1693 2056 0
-128 293 0
35 -1808 0
297 60 0
1342 -2134 0
-383 1736 0
-314 -328 0
-1470 1680 0
1978 -652 0
-294 -1354 0
1420 -87 0
1979 -1338 0
-907 -1558 0
347 -1848 0
84 -44 0
-362 -2022 0
1344 -1992 0
835 -1965 0
-1370 2285 0
-3 -468 0
371 1822 0
-400 -139 0
-1061 460 0
-393 -234 0
-379 1365 0
-677 561 0
-725 -550 0
2205 745 0
584 -1989 0
263 212 0
1004 875 0
164 525 0
-1897 -1154 0
911 -1246 0
1596 -682 0
521 -987 0
919 -58 0
-1599 1781 0
1847 -937 0
-1821 -1162 0
3 574 0
941 -44 0
-353 2062 0
491 302 0
1441 491 0
1470 1448 0
1734 1537 0
-1039 -1591 0
-1911 1876 0
-690 852 0
2095 2198 0
2301 10 0
1715 275 0
-1410 1697 0
-750 -140 0
1123 -1931 0
-1266 -1744 0
626 -671 0
2278 1965 0
-1374 1648 0
-1679 1133 0
-2138 -2234 0
-682 -1498 0
-131 1096 0
384 2165 0
497 -2050 0
1399 -957 0
413 2014 0
-1974 630 0
1755 -25 0
-1849 1661 0
81 -2106 0
2135 -682 0
424 -844 0
-1352 -149 0
1324 68 0
2217 -747 0
131 -1917 0
535 -582 0
2167 -216 0
-1224 27 0
-1860 -1833 0
155 -1196 0
1913 1315 0
602 -1837 0
2279 -1096 0
7 1842 0
521 -1400 0
-559 2009 0
448 -835 0
1315 875 0
-1241 205 0
-1284 -2074 0
-1373 -1388 0
446 -958 0
-514 2054 0
-456 1654 0
508 1695 0
-1168 -1747 0
1876 186 0
-778 -644 0
-1793 1492 0
-449 -557 0
2062 1798 0
539 -1772 0
2279 1117 0
-1381 885 0
-1081 -713 0
2060 1814 0
-1456 1931 0
2091 1781 0
-616 1588 0
-459 1280 0
518 -1350 0
1288 973 0
-2041 -1840 0
440 1885 0
1366 -249 0
684 -483 0
-2239 -1089 0
-388 1923 0
483 -1539 0
-1625 -907 0
-615 351 0
258 -203 0
-1532 -1312 0
-1539 -183 0
-1168 426 0
251 -373 0
589 -999 0
-151 -1760 0
-1849 1831 0
186 -487 0
-688 -1126 0
1552 -1868 0
-1704 -1442 0
1514 2191 0
-2305 190 0
-59 1707 0
1130 -17 0
-746 2007 0
-1816 1944 0
-1558 2265 0
-769 208 0
-502 596 0
1180 152 0
-417 919 0
1335 1084 0
-2276 1608 0
-1011 1798 0
-670 259 0
258 -959 0
1091 136 0
1108 -2029 0
303 -1161 0
-1305 2265 0
-1475 200 0
-114 -2195 0
-2006 2115 0
-2016 -860 0
-731 -750 0
-1790 -1090 0
-956 -1062 0
-828 393 0
2053 -387 0
-850 1302 0
597 -1747 0
265 1636 0
1792 -2239 0
-1836 2085 0
1599 249 0
502 708 0
-1112 -1159 0
1560 -1762 0
253 -840 0
452 1310 0
799 -648 0
-898 1319 0
1113 -1230 0
1063 -1242 0
1073 796 0
952 1624 0
2009 1613 0
124 -929 0
859 1814 0
-54 820 0
1484 -1515 0
453 912 0
-958 1444 0
122 -1472 0
-1201 1389 0
1704 -2026 0
-1892 476 0
-2057 -1018 0
291 -1218 0
1538 -481 0
-511 -285 0
1482 1477 0
2075 -2274 0
-1628 -249 0
-1246 682 0
129 2177 0
-526 -1548 0
2182 -1347 0
1559 -628 0
1236 -1580 0
-1799 1418 0
-1162 -1548 0
-1330 -400 0
1427 -1039 0
-434 2044 0
-2123 -1175 0
923 -1959 0
-1248 -1746 0
505 -573 0
2237 619 0
1981 2116 0
1473 2049 0
-203 1023 0
465 -954 0
-1948 980 0
714 -1711 0
-1165 1542 0
1835 2095 0
-400 -625 0
1912 -1004 0
-1115 1937 0
1741 -472 0
-792 -545 0
1988 -1518 0
172 -682 0
413 -1010 0
-538 -781 0
1017 -16 0
88 862 0
-1801 -1926 0
-568 -533 0
333 -2016 0
772 -493 0
-53 1044 0
-1307 412 0
957 1722 0
1 -911 0
427 2271 0
-311 1522 0
180 941 0
517 -1664 0
1942 -387 0
1953 -1530 0
2177 1228 0
1656 917 0
-557 344 0
-1059 -302 0
-432 -1481 0
74 365 0
2105 -468 0
1411 80 0
960 483 0
1729 -1318 0
1437 -94 0
298 -2123 0
1328 2160 0
-2153 2212 0
-2003 -1733 0
-1976 1263 0
-592 -1101 0
1507 -531 0
610 1041 0
-429 1189 0
-1211 -1892 0
1781 -634 0
-402 -344 0
-583 2195 0
-1904 -1453 0
749 1534 0
1268 1760 0
-680 1435 0
1912 -985 0
-408 -2284 0
-327 1189 0
-517 414 0
381 -300 0
124 15 0
-785 -922 0
2033 -1746 0
-868 -571 0
1099 -1000 0
40 -142 0
1787 -1619 0
1667 1210 0
1223 -2158 0
1400 -260 0
-679 -1262 0
-385 -2019 0
-1037 -1976 0
-1871 -1298 0
65 2141 0
-1735 926 0
1400 265 0
485 -1780 0
-404 1037 0
-541 1630 0
1649 2107 0
1319 -1040 0
1412 2095 0
1174 -1114 0
1707 901 0
1856 861 0
-15 1350 0
-2179 2001 0
-1032 182 0
1503 1545 0
-535 -1609 0
1890 -1803 0
-1391 -207 0
-1295 1712 0
-2050 -786 0
1104 2009 0
-363 1243 0
-1564 -404 0
-1036 120 0
435 1236 0
-498 1534 0
1869 136 0
-1317 -847 0
1017 -1167 0
1557 -311 0
1005 1180 0
-135 894 0
-631 -911 0
1461 1314 0
1520 1252 0
1831 1648 0
1780 749 0
-50 -618 0
-1302 -676 0
702 833 0
-779 -1127 0
-2177 -24 0
413 -1605 0
1767 1263 0
2021 128 0
-1101 -2303 0
2119 -1413 0
1311 142 0
-1412 -12 0
-1783 -919 0
654 -770 0
-1000 -171 0
708 1020 0
-819 1815 0
-1020 -171 0
1136 919 0
-509 -1783 0
22 2031 0
-905 751 0
2095 -891 0
-166 158 0
290 -1339 0
-1769 184 0
160 856 0
-1056 -1191 0
1086 -854 0
-1461 -655 0
2147 -984 0
1012 -89 0
1020 1762 0
-1933 205 0
-1985 485 0
1313 1803 0
1920 -108 0
1409 -1099 0
483 -1845 0
2198 -568 0
-1493 -2282 0
1281 1426 0
2274 575 0
824 -2155 0
-2126 1317 0
295 -844 0
445 1501 0
-795 -2238 0
641 -73 0
294 2287 0
-765 460 0
1288 -1590 0
-1398 -1475 0
1264 -364 0
-1229 -975 0
224 1104 0
504 -2272 0
2028 1860 0
540 1074 0
1217 -968 0
-438 -1166 0
384 319 0
623 2006 0
-1353 1150 0
703 -1867 0
1503 -1225 0
-704 1432 0
-1957 -1255 0
1555 -1220 0
-964 -1583 0
1573 2023 0
1662 -1953 0
1677 -1059 0
1185 -2072 0
1661 584 0
-858 -451 0
1622 516 0
49 -286 0
-51 564 0
-2219 1278 0
1378 384 0
1042 -223 0
-2085 -911 0
1216 -641 0
1759 -554 0
-246 1830 0
-1958 -1208 0
-1590 -1797 0
1798 233 0
1816 -785 0
2071 909 0
945 1493 0
898 1120 0
1249 -256 0
836 -510 0
-1333 -644 0
730 -1274 0
-515 2237 0
339 885 0
992 820 0
936 768 0
962 1475 0
-822 2139 0
1723 850 0
-21 -421 0
550 1346 0
-297 -937 0
1175 -1555 0
-402 -652 0
-1670 295 0
456 -2054 0
851 106 0
1936 1380 0
-1225 -1011 0
2059 -322 0
-1917 1981 0
-1581 504 0
-204 265 0
-1873 -1063 0
1346 1556 0
-2276 -1246 0
-2134 -455 0
419 1452 0
1249 -1659 0
-2190 -353 0
1438 -115 0
-62 -1799 0
1027 -472 0
1649 1260 0
1069 2031 0
1899 2236 0
278 646 0
1914 711 0
339 159 0
-1651 969 0
-2147 -585 0
1121 1433 0
-133 -1036 0
1356 2110 0
1361 1735 0
-1390 -1441 0
1329 2282 0
1477 2153 0
1518 275 0
-1431 1177 0
899 1246 0
2115 -93 0
264 94 0
-2066 -963 0
1672 2024 0
1083 -2222 0
575 -1269 0
673 1205 0
1453 2102 0
-2287 1397 0
-1908 -605 0
-2193 -1453 0
687 -1737 0
