c bounds 228 228
p cnf 685 754
-628 -678 0
453 -156 0
30 -526 0
106 -365 0
334 273 0
-529 168 0
-265 372 0
491 445 0
-200 361 0
-355 591 0
414 309 0
-386 315 0
427 459 0
2 458 0
432 1 0
29 619 0
-56 -214 0
335 247 0
556 -473 0
-481 150 0
-664 113 0
12 635 0
438 -603 0
-311 204 0
337 -206 0
455 87 0
-566 -103 0
-613 -28 0
98 -477 0
-200 334 0
145 -528 0
196 -175 0
609 -363 0
-389 436 0
682 -168 0
-512 233 0
-530 349 0
496 -30 0
-622 -332 0
142 -209 0
-325 105 0
296 74 0
550 586 0
315 170 0
679 -454 0
-591 518 0
-472 587 0
656 251 0
-630 136 0
450 292 0
518 44 0
631 447 0
-156 365 0
-578 233 0
661 95 0
-339 19 0
229 -266 0
581 -399 0
301 192 0
376 283 0
131 1 0
389 319 0
216 -433 0
-198 -395 0
658 -139 0
-673 244 0
-462 -650 0
-413 334 0
-405 -237 0
-566 -379 0
-248 -253 0
-219 251 0
-477 -569 0
-501 -86 0
-232 478 0
-400 337 0
400 227 0
18 177 0
-456 -99 0
-200 671 0
61 104 0
226 -480 0
-588 -521 0
-213 -218 0
241 485 0
-675 274 0
-20 356 0
-198 -68 0
163 -80 0
-144 -278 0
309 392 0
225 -609 0
151 -231 0
493 195 0
-505 -246 0
-461 324 0
-598 600 0
-232 373 0
147 237 0
-463 -200 0
-31 611 0
432 540 0
-156 242 0
-65 389 0
404 -448 0
-194 -194 0
238 -564 0
349 649 0
87 -647 0
620 -605 0
96 -272 0
-477 143 0
216 350 0
396 -153 0
-167 107 0
-309 -551 0
308 -287 0
-468 179 0
649 320 0
627 -268 0
337 453 0
-2 -523 0
-167 -195 0
657 -143 0
4 275 0
438 617 0
478 67 0
-562 -420 0
-431 250 0
484 -186 0
668 632 0
505 539 0
418 661 0
-572 -138 0
256 -34 0
619 -337 0
681 168 0
562 495 0
-466 -58 0
-197 -648 0
578 552 0
570 150 0
71 -576 0
215 341 0
466 565 0
57 -357 0
-552 -351 0
-339 -178 0
208 -247 0
-672 100 0
-517 434 0
-46 609 0
663 570 0
-370 99 0
458 -197 0
-647 333 0
-370 679 0
532 85 0
508 -278 0
-305 -10 0
-296 538 0
63 241 0
639 233 0
239 81 0
253 -232 0
672 -528 0
-275 361 0
-410 -358 0
-457 -177 0
132 -502 0
291 -262 0
499 158 0
-331 -389 0
63 -187 0
51 -428 0
527 429 0
293 -31 0
-417 81 0
679 -403 0
642 196 0
382 546 0
-58 -641 0
390 356 0
-651 -424 0
413 520 0
-346 -331 0
511 -317 0
257 379 0
423 177 0
602 -46 0
-566 428 0
548 314 0
54 615 0
148 680 0
-496 356 0
587 208 0
464 432 0
-249 377 0
-554 293 0
-274 389 0
176 83 0
-459 238 0
-103 458 0
-601 -339 0
9 -81 0
28 458 0
627 -403 0
357 -17 0
570 604 0
603 -412 0
-96 81 0
356 509 0
-36 550 0
450 -412 0
571 515 0
-412 329 0
-527 111 0
478 -619 0
-579 351 0
90 402 0
-443 111 0
-104 568 0
525 -574 0
-164 -480 0
-325 -156 0
356 -19 0
-406 23 0
-159 -576 0
-347 386 0
-681 537 0
505 -246 0
46 -625 0
137 -650 0
107 -125 0
-156 -197 0
-505 242 0
-355 247 0
433 -669 0
39 276 0
-214 427 0
601 647 0
390 -283 0
-306 349 0
160 501 0
-300 597 0
-265 -572 0
-311 135 0
606 151 0
-23 602 0
-656 449 0
464 465 0
292 436 0
487 316 0
-471 244 0
-651 393 0
-613 255 0
237 -254 0
-82 225 0
539 94 0
-99 241 0
-350 342 0
541 -398 0
47 -213 0
-381 -623 0
466 90 0
337 -426 0
-272 451 0
-278 635 0
-302 317 0
-611 -238 0
-31 -96 0
279 617 0
-182 -300 0
-331 119 0
-182 324 0
-591 281 0
-378 -254 0
525 583 0
606 -506 0
-516 582 0
3 -488 0
-240 -610 0
273 -355 0
497 364 0
180 -129 0
361 -316 0
36 -523 0
-62 324 0
-21 -16 0
-521 478 0
349 -16 0
-589 -589 0
59 -424 0
632 -401 0
-684 295 0
-69 628 0
646 -362 0
-35 574 0
565 605 0
421 107 0
588 9 0
-665 142 0
255 -551 0
-350 -194 0
190 -611 0
-479 -607 0
453 -325 0
-271 -148 0
532 -192 0
107 -500 0
-191 183 0
-234 -330 0
14 -27 0
71 335 0
134 -120 0
-452 144 0
633 301 0
-117 385 0
-506 -27 0
266 -209 0
601 -492 0
53 244 0
277 635 0
-376 -390 0
184 -36 0
-169 -433 0
-358 -36 0
297 -463 0
35 588 0
235 17 0
50 226 0
-58 -224 0
-667 -387 0
-443 -191 0
-223 639 0
407 -398 0
459 680 0
540 -583 0
-613 177 0
-278 134 0
-285 -15 0
-153 680 0
427 -80 0
-162 -483 0
236 -403 0
-638 364 0
268 -46 0
-79 154 0
-164 -142 0
290 150 0
323 -332 0
-384 332 0
235 493 0
-191 477 0
108 -427 0
284 -207 0
-114 -469 0
-1 648 0
-310 -516 0
55 -64 0
402 228 0
-285 136 0
304 -489 0
497 244 0
-240 443 0
68 -57 0
394 -380 0
238 -480 0
-487 -218 0
644 -633 0
651 -379 0
179 407 0
498 543 0
125 244 0
374 350 0
-590 -260 0
-461 -181 0
130 246 0
-583 -5 0
18 -99 0
578 97 0
603 -609 0
-114 -164 0
-248 120 0
459 -656 0
-582 -362 0
293 566 0
-564 -490 0
-398 526 0
208 -631 0
642 -2 0
426 534 0
-159 342 0
-16 395 0
673 161 0
-310 -176 0
654 -421 0
212 -385 0
657 158 0
-500 481 0
196 -49 0
-454 643 0
160 109 0
-615 42 0
106 -114 0
-472 -370 0
281 -558 0
188 60 0
520 -291 0
183 304 0
558 -246 0
-623 -428 0
-308 344 0
-66 -412 0
-469 191 0
-561 -443 0
304 -118 0
374 -544 0
579 185 0
486 -600 0
81 630 0
-300 -563 0
268 31 0
306 -590 0
151 -384 0
238 -643 0
304 230 0
413 -552 0
-223 -231 0
643 83 0
263 75 0
417 -214 0
350 -626 0
-468 131 0
-363 647 0
-380 -439 0
-66 344 0
-34 -66 0
586 -178 0
-24 521 0
-60 347 0
510 -270 0
362 612 0
295 -104 0
404 480 0
-517 -205 0
409 -178 0
453 -41 0
546 -659 0
253 -270 0
402 -640 0
256 228 0
-153 57 0
-301 606 0
139 136 0
-618 -97 0
239 -299 0
483 38 0
335 -462 0
-168 44 0
533 122 0
-604 31 0
644 656 0
-292 -300 0
-544 322 0
149 439 0
-69 540 0
-204 74 0
-35 573 0
489 136 0
462 657 0
-164 -54 0
298 -584 0
299 196 0
502 643 0
47 -625 0
167 -472 0
-153 -272 0
576 -165 0
-244 -640 0
-130 493 0
-541 112 0
404 -89 0
-669 -452 0
-305 30 0
-676 -513 0
559 682 0
128 -215 0
-331 -153 0
513 547 0
29 -37 0
512 671 0
-681 49 0
677 71 0
-32 42 0
-2 -35 0
-482 663 0
128 -55 0
-494 104 0
365 -155 0
620 373 0
-329 562 0
11 -45 0
352 228 0
493 412 0
-212 161 0
228 -317 0
456 662 0
506 -338 0
-175 -577 0
598 -604 0
-448 197 0
-185 92 0
305 4 0
343 433 0
136 -549 0
-32 459 0
-438 -579 0
63 -617 0
-499 674 0
479 -167 0
488 92 0
-222 -448 0
417 -64 0
500 325 0
-152 426 0
-572 21 0
53 307 0
345 78 0
360 -530 0
-331 -96 0
395 -173 0
411 301 0
-259 -17 0
183 -584 0
359 484 0
-544 -143 0
-553 298 0
-426 -547 0
447 -267 0
-136 409 0
130 -249 0
13 636 0
395 -324 0
-79 374 0
643 154 0
176 -93 0
-45 -35 0
252 30 0
478 -403 0
214 57 0
677 -234 0
-240 -101 0
3 -396 0
574 667 0
569 -250 0
379 -503 0
602 207 0
-89 -106 0
-240 509 0
103 -230 0
522 -505 0
624 507 0
365 601 0
-306 -117 0
-8 493 0
615 238 0
335 558 0
376 -502 0
675 140 0
599 -186 0
402 -288 0
255 605 0
675 588 0
-70 16 0
-510 -294 0
-289 -337 0
321 135 0
-419 663 0
-191 324 0
421 529 0
680 -603 0
-96 579 0
84 -153 0
-347 -425 0
558 50 0
256 -500 0
-599 629 0
679 -667 0
-685 531 0
-343 -446 0
-256 -153 0
-283 -12 0
-31 -192 0
-492 -167 0
481 227 0
546 654 0
-581 470 0
-197 310 0
299 -371 0
175 602 0
536 226 0
319 -114 0
633 647 0
30 -141 0
-113 -410 0
-356 -20 0
-589 -13 0
628 45 0
546 -8 0
-529 -253 0
-499 599 0
496 -208 0
-118 -333 0
127 562 0
675 512 0
468 -466 0
-491 -521 0
212 255 0
680 -421 0
380 -290 0
352 -143 0
-78 -528 0
-658 225 0
545 -350 0
-258 -331 0
-490 627 0
-259 -52 0
-501 131 0
149 -24 0
-641 -26 0
-16 -161 0
680 391 0
588 561 0
383 82 0
78 -613 0
-462 -343 0
394 -530 0
652 -39 0
-635 -609 0
663 64 0
-423 336 0
478 -327 0
318 495 0
-434 360 0
-583 108 0
-225 -275 0
29 -246 0
-584 203 0
648 -286 0
451 -580 0
450 558 0
-499 -454 0
18 -254 0
-86 -387 0
651 -626 0
-503 -12 0
499 -70 0
158 -165 0
49 340 0
-418 255 0
557 -370 0
-534 -424 0
-329 42 0
-470 -178 0
125 -514 0
-583 -406 0
29 521 0
-2 235 0
-413 -14 0
421 473 0
657 -523 0
546 -659 0
-363 -510 0
57 73 0
624 456 0
-73 -2 0
-27 -134 0
329 387 0
83 441 0
362 486 0
-41 -58 0
-535 -121 0
115 508 0
568 153 0
-175 -431 0
305 -497 0
274 -239 0
-417 -122 0
267 322 0
-254 371 0
662 154 0
-312 -399 0
184 -497 0
-285 -506 0
-630 -140 0
-457 -307 0
354 -499 0
236 500 0
594 494 0
-607 614 0
-146 73 0
44 276 0
-474 -174 0
-480 186 0
-275 -148 0
368 268 0
-207 500 0
-406 475 0
-554 51 0
12 557 0
76 483 0
-82 393 0
-412 -385 0
615 668 0
6 144 0
-338 -256 0
-141 288 0
134 -457 0
79 377 0
-683 112 0
493 606 0
360 -472 0
-482 -551 0
652 -338 0
-435 -583 0
-34 198 0
581 324 0
-423 -463 0
161 -186 0
606 -151 0
565 -210 0
61 417 0
215 -472 0
87 -311 0
283 -153 0
-645 -613 0
449 137 0
675 -683 0
620 563 0
-14 273 0
-262 571 0
-488 414 0
215 -35 0
540 -383 0
329 294 0
513 550 0
233 283 0
-185 -376 0
-526 574 0
348 -339 0
-220 30 0
366 631 0
680 128 0
