c bounds 80 80
p cnf 640 1728
171 135 0
-512 173 0
-637 -293 0
616 -13 0
77 -160 0
76 501 0
452 272 0
476 -176 0
-531 397 0
42 499 0
-316 -67 0
-60 -507 0
-522 537 0
370 -318 0
546 197 0
-2 -286 0
187 95 0
558 -106 0
348 -483 0
151 519 0
34 613 0
227 288 0
579 -124 0
-393 -433 0
-163 349 0
-402 -528 0
335 -339 0
638 -73 0
-260 355 0
236 186 0
-281 467 0
-207 638 0
572 -186 0
-404 104 0
264 297 0
196 -102 0
638 279 0
-521 8 0
586 -609 0
-139 -445 0
-100 -203 0
-629 -177 0
377 -252 0
382 495 0
-468 -57 0
-197 -273 0
-426 591 0
243 483 0
101 -485 0
-148 -608 0
118 522 0
559 480 0
-639 485 0
-129 78 0
-282 119 0
-581 -3 0
-590 319 0
-465 224 0
-128 -428 0
-499 -521 0
347 397 0
-293 -514 0
-602 -327 0
-241 -339 0
62 -403 0
-617 -315 0
77 47 0
494 296 0
274 -466 0
-463 -94 0
-598 177 0
182 510 0
201 -256 0
-216 -489 0
251 -346 0
-237 19 0
-436 -542 0
309 490 0
-166 -380 0
-113 -361 0
96 201 0
369 -305 0
-311 -223 0
61 -262 0
-612 158 0
402 635 0
305 -558 0
307 296 0
-334 -417 0
391 297 0
-46 -497 0
-553 633 0
-534 110 0
295 -265 0
367 -72 0
-27 522 0
561 438 0
-210 112 0
571 -15 0
-380 444 0
-17 326 0
-294 144 0
-515 -357 0
141 281 0
197 -288 0
-605 418 0
-348 -314 0
-513 621 0
113 -102 0
-193 270 0
391 -113 0
-336 237 0
57 539 0
104 327 0
-430 -463 0
-43 506 0
455 252 0
190 148 0
107 -430 0
501 545 0
-140 191 0
-238 357 0
542 -448 0
-402 529 0
-584 596 0
408 386 0
-44 192 0
-241 397 0
600 301 0
510 -112 0
-24 -263 0
-271 -370 0
-352 -471 0
-456 -224 0
-310 -384 0
415 -403 0
635 531 0
193 322 0
-277 464 0
-259 -472 0
480 -556 0
-531 628 0
-519 -405 0
346 135 0
-405 473 0
536 617 0
-480 -161 0
427 480 0
444 -191 0
358 -509 0
179 -306 0
261 519 0
309 416 0
-488 220 0
-333 212 0
-563 -470 0
363 -407 0
507 490 0
497 -54 0
-335 -181 0
-345 -532 0
-610 -435 0
-447 611 0
170 492 0
9 -382 0
-299 -408 0
-190 194 0
-247 210 0
-286 136 0
171 -513 0
-341 -223 0
570 360 0
508 202 0
-441 -335 0
142 245 0
310 12 0
-87 338 0
-127 178 0
-39 457 0
603 298 0
-42 -231 0
44 427 0
-450 638 0
14 505 0
-318 478 0
-413 416 0
551 198 0
626 -474 0
497 432 0
-317 487 0
-111 351 0
171 546 0
-317 33 0
333 -465 0
506 583 0
-382 517 0
228 532 0
349 -115 0
-634 112 0
294 65 0
-58 249 0
-515 468 0
-169 -238 0
386 -180 0
-73 444 0
-488 259 0
-215 -139 0
151 -553 0
-98 386 0
-279 559 0
383 -316 0
-207 -555 0
318 289 0
-296 -489 0
219 588 0
-72 -58 0
-582 -215 0
415 100 0
51 291 0
626 -405 0
379 -531 0
400 56 0
-628 -228 0
600 -322 0
377 -139 0
307 -461 0
118 98 0
-588 69 0
55 38 0
219 -486 0
-590 479 0
-162 301 0
30 -493 0
-451 394 0
603 66 0
212 464 0
272 -289 0
-579 -70 0
27 -217 0
244 471 0
457 229 0
-18 552 0
-554 99 0
-298 194 0
163 522 0
537 -257 0
-280 48 0
101 -525 0
-493 -91 0
-447 616 0
-553 491 0
593 220 0
-466 624 0
-372 -566 0
-335 306 0
-435 438 0
82 381 0
261 -1 0
130 446 0
174 -280 0
-447 559 0
-507 -268 0
231 605 0
-144 1 0
593 221 0
-75 -255 0
-189 443 0
221 246 0
573 -406 0
536 -238 0
414 354 0
-468 -479 0
-53 346 0
-149 -138 0
-80 220 0
549 511 0
558 -526 0
538 -460 0
488 -139 0
-350 252 0
-227 -246 0
515 591 0
408 -56 0
19 540 0
-495 477 0
-35 400 0
-72 340 0
-331 -515 0
523 -563 0
593 -411 0
-451 5 0
105 -101 0
101 603 0
-382 127 0
174 -78 0
-260 625 0
72 591 0
462 214 0
-578 -25 0
-345 -632 0
-487 296 0
-189 225 0
-26 -172 0
-262 -585 0
-168 254 0
422 602 0
470 -263 0
37 539 0
-448 158 0
-116 415 0
-326 -399 0
-563 -376 0
-44 273 0
418 -513 0
7 -214 0
501 596 0
-40 190 0
-154 600 0
374 -367 0
175 575 0
92 384 0
-377 208 0
33 281 0
-177 -615 0
-178 175 0
-93 185 0
-62 -600 0
-210 319 0
581 -224 0
213 -23 0
389 591 0
-373 492 0
-595 -162 0
38 -474 0
-214 -329 0
560 -185 0
614 1 0
252 -157 0
637 174 0
236 267 0
311 591 0
343 -392 0
141 -571 0
-156 -344 0
115 -273 0
-34 251 0
318 394 0
-268 206 0
-314 -297 0
-628 476 0
-520 -59 0
165 436 0
-475 92 0
-437 572 0
454 419 0
487 116 0
291 546 0
177 121 0
-357 524 0
-94 299 0
391 73 0
-471 328 0
-382 534 0
-435 -276 0
-100 261 0
467 583 0
153 -315 0
134 213 0
-563 -37 0
-14 196 0
337 508 0
-231 352 0
-563 63 0
618 -513 0
594 -83 0
-417 -65 0
-307 -271 0
-462 537 0
-187 -249 0
-405 455 0
-282 269 0
390 -94 0
-38 -70 0
38 -330 0
234 -179 0
407 -428 0
601 -162 0
-67 9 0
-288 -453 0
475 297 0
-353 201 0
638 193 0
-472 290 0
-229 367 0
-431 428 0
-469 42 0
-512 -155 0
201 417 0
-631 -628 0
-20 -160 0
252 -97 0
-280 573 0
-265 615 0
-547 -4 0
45 -474 0
112 419 0
286 -209 0
572 314 0
597 -610 0
618 -609 0
-83 -19 0
-215 473 0
461 -81 0
181 313 0
-451 -479 0
-349 369 0
418 573 0
494 -443 0
-509 -626 0
98 -630 0
277 166 0
-550 93 0
361 -460 0
63 -58 0
-470 -410 0
63 173 0
544 -573 0
261 12 0
477 429 0
-57 -479 0
-639 -37 0
499 -60 0
635 -563 0
-536 250 0
-163 638 0
-95 -282 0
-499 -429 0
-112 385 0
-520 -525 0
-342 -98 0
-581 107 0
-414 -628 0
-181 -298 0
-521 584 0
-469 -7 0
195 185 0
105 529 0
246 -558 0
-200 362 0
30 -425 0
161 81 0
308 -383 0
639 77 0
586 292 0
-431 -236 0
201 267 0
-631 369 0
84 93 0
159 -77 0
-161 -214 0
-86 -217 0
175 543 0
-278 -495 0
-555 -537 0
56 112 0
562 -580 0
-174 580 0
-22 559 0
290 526 0
-577 -350 0
-329 430 0
283 480 0
-48 173 0
378 -195 0
442 82 0
-107 632 0
415 19 0
27 -145 0
308 -635 0
-338 503 0
394 137 0
-94 -211 0
341 -113 0
-160 -98 0
571 -493 0
419 -64 0
365 -618 0
416 -413 0
51 -636 0
631 -338 0
623 27 0
497 91 0
-295 -488 0
127 -151 0
-269 -362 0
-166 468 0
543 -389 0
-54 -269 0
137 543 0
357 -268 0
206 -463 0
298 502 0
-561 492 0
387 -224 0
281 -146 0
394 103 0
-86 81 0
-592 296 0
573 -385 0
-249 98 0
-420 -534 0
182 -448 0
-311 -131 0
-228 -580 0
-311 530 0
92 -83 0
562 116 0
-214 337 0
471 68 0
-174 -619 0
501 -526 0
-376 -133 0
392 -367 0
-73 -366 0
498 440 0
53 -465 0
449 -526 0
-96 -429 0
-125 -210 0
-55 -12 0
-291 -108 0
-418 26 0
563 -14 0
343 478 0
-224 -204 0
-384 -566 0
-180 -607 0
65 -117 0
611 -51 0
465 253 0
-22 -167 0
385 61 0
-592 255 0
-550 -401 0
-482 121 0
267 478 0
-443 -241 0
-372 342 0
-299 175 0
-595 497 0
613 -254 0
38 492 0
-480 165 0
570 -469 0
-617 -60 0
-313 -566 0
390 -387 0
-180 546 0
32 436 0
51 -218 0
170 429 0
-341 205 0
441 606 0
434 -490 0
-443 -518 0
173 -158 0
338 579 0
-286 244 0
-242 201 0
377 -419 0
291 -431 0
-91 -402 0
99 612 0
-407 574 0
-150 -520 0
-557 -472 0
-405 19 0
196 210 0
-391 -216 0
299 379 0
-232 -447 0
409 1 0
-549 201 0
-263 -292 0
-293 234 0
213 396 0
173 -197 0
538 -451 0
-558 485 0
504 -17 0
-94 -300 0
-196 320 0
-305 -67 0
-224 -373 0
-156 286 0
-308 482 0
-588 302 0
-296 55 0
317 558 0
-636 -149 0
614 594 0
522 -500 0
416 14 0
211 146 0
-133 -384 0
38 -39 0
354 -9 0
-533 356 0
-618 -431 0
416 327 0
-163 -198 0
166 554 0
-282 -216 0
-331 196 0
80 236 0
427 252 0
78 -314 0
-615 -259 0
620 33 0
8 182 0
298 215 0
122 -410 0
-208 510 0
220 -249 0
355 -241 0
-212 -180 0
277 196 0
302 -348 0
-486 -307 0
492 -433 0
618 597 0
-156 201 0
131 623 0
-293 15 0
136 -67 0
309 522 0
-360 -222 0
-183 378 0
420 573 0
-53 -114 0
101 243 0
472 342 0
-77 147 0
49 -280 0
250 -634 0
-75 560 0
192 -54 0
-581 442 0
570 541 0
-465 -131 0
-219 -261 0
-595 -614 0
76 -459 0
-78 -132 0
365 -465 0
560 527 0
-486 -63 0
-595 101 0
505 623 0
-120 18 0
-249 15 0
-158 503 0
159 79 0
179 541 0
97 27 0
-321 -299 0
-215 508 0
365 588 0
343 -321 0
144 -494 0
-417 467 0
618 244 0
175 599 0
623 535 0
-518 564 0
160 588 0
607 -343 0
-376 541 0
408 -362 0
-502 -362 0
-47 351 0
572 419 0
6 142 0
112 -210 0
-162 245 0
480 488 0
-216 -118 0
61 252 0
69 -569 0
-123 356 0
265 397 0
-438 11 0
-78 -246 0
-288 -368 0
-341 -219 0
-265 -140 0
-12 -422 0
-376 614 0
-624 -311 0
339 -567 0
-80 330 0
588 -630 0
-423 -459 0
-264 313 0
-30 -143 0
415 -619 0
-291 -479 0
563 -565 0
121 -565 0
146 475 0
-122 -198 0
533 -297 0
217 -109 0
-44 171 0
142 362 0
3 -131 0
449 -207 0
-394 179 0
-344 385 0
636 267 0
340 -431 0
305 -639 0
-48 -384 0
-287 -535 0
-353 511 0
-288 -622 0
-429 -496 0
88 -410 0
-612 61 0
582 -410 0
292 -569 0
-109 310 0
103 295 0
-65 406 0
-481 -228 0
449 -50 0
-567 -74 0
-17 185 0
-456 -56 0
218 -628 0
-44 625 0
525 499 0
200 415 0
324 -327 0
-408 121 0
379 -337 0
-153 -216 0
-380 -28 0
-334 -9 0
559 -260 0
-124 364 0
197 621 0
369 -546 0
79 -256 0
607 -586 0
-507 -312 0
504 -338 0
-396 -624 0
-402 -247 0
379 228 0
-209 184 0
-623 -336 0
-40 618 0
498 -113 0
371 448 0
481 -412 0
-129 507 0
593 -496 0
183 -8 0
-414 241 0
548 -350 0
-628 422 0
-491 -325 0
-466 -344 0
-25 -95 0
591 574 0
-589 -436 0
-50 619 0
179 102 0
446 -72 0
255 -618 0
-57 -597 0
631 411 0
-58 -108 0
92 246 0
-63 56 0
-62 -227 0
373 457 0
-474 -289 0
544 193 0
-113 -357 0
-54 -259 0
318 -404 0
457 -140 0
-355 -381 0
89 -446 0
-53 256 0
-174 591 0
202 99 0
-50 -362 0
167 253 0
-617 94 0
-289 -114 0
-47 -487 0
-328 462 0
-175 116 0
-168 -134 0
47 535 0
-46 348 0
395 -562 0
-513 32 0
-520 231 0
-460 588 0
112 337 0
571 -273 0
-587 -353 0
330 -376 0
-482 468 0
-113 546 0
-341 307 0
177 117 0
183 -521 0
-390 -256 0
-607 127 0
177 157 0
-277 603 0
409 293 0
-279 -567 0
199 232 0
528 498 0
546 -174 0
-40 509 0
-355 -188 0
467 349 0
1 171 0
187 -321 0
599 -303 0
-269 434 0
-36 -22 0
219 -5 0
-482 510 0
-609 -148 0
281 -589 0
365 -381 0
-51 593 0
365 426 0
165 262 0
59 -414 0
-339 -565 0
199 43 0
-619 390 0
202 566 0
522 623 0
255 -477 0
-539 202 0
62 307 0
324 -583 0
-229 -107 0
-488 618 0
412 -429 0
-297 19 0
26 561 0
-224 -249 0
468 -499 0
-211 -221 0
259 -74 0
338 482 0
89 -120 0
-116 -133 0
-207 561 0
296 504 0
-379 -466 0
-464 255 0
104 137 0
421 -429 0
-636 -152 0
-435 -376 0
415 -522 0
147 338 0
-626 344 0
-115 80 0
-472 -102 0
-5 308 0
-580 259 0
91 -188 0
65 593 0
-381 205 0
-346 -500 0
523 311 0
-366 -141 0
-615 -261 0
-446 471 0
67 -360 0
156 -359 0
302 -321 0
-122 -255 0
-327 229 0
-116 -479 0
-37 -568 0
-486 -263 0
535 493 0
-126 -210 0
239 48 0
416 -602 0
-424 162 0
-592 -135 0
-274 587 0
225 200 0
543 82 0
-417 452 0
-602 -66 0
260 415 0
-568 -509 0
560 449 0
-5 89 0
237 -598 0
-411 -453 0
239 -585 0
-181 30 0
-273 532 0
-276 214 0
-76 -322 0
410 -139 0
240 -101 0
108 260 0
331 103 0
464 487 0
-88 492 0
-381 -117 0
181 -71 0
593 343 0
-253 -376 0
-20 -554 0
144 348 0
-62 171 0
-445 487 0
-438 -117 0
508 -195 0
-29 -476 0
-497 551 0
-223 -152 0
631 342 0
-558 -14 0
-563 -138 0
125 -557 0
127 127 0
391 -304 0
-80 -617 0
500 -247 0
494 254 0
-566 484 0
475 325 0
492 -623 0
-203 503 0
-120 111 0
270 -78 0
165 420 0
-269 629 0
599 -502 0
-374 -271 0
177 -486 0
-229 458 0
-581 -579 0
-186 -329 0
-124 213 0
488 444 0
-313 -437 0
-340 -160 0
86 -223 0
-448 -329 0
-149 -210 0
251 282 0
455 -532 0
351 -239 0
-419 -131 0
-460 449 0
203 -419 0
-429 628 0
76 -307 0
571 -262 0
-95 -412 0
337 -181 0
-315 -549 0
-339 -49 0
27 -1 0
108 605 0
146 -402 0
76 -303 0
-295 -431 0
-269 489 0
159 -140 0
-499 1 0
355 -150 0
-109 577 0
226 -341 0
-194 -242 0
-617 -459 0
462 -235 0
-280 384 0
-379 137 0
540 -352 0
395 -392 0
254 275 0
-434 -437 0
589 -567 0
-15 633 0
43 632 0
-66 -567 0
506 -373 0
449 165 0
5 -466 0
369 -372 0
183 195 0
-156 39 0
-622 -464 0
-127 -50 0
580 567 0
-563 486 0
-417 263 0
99 -517 0
532 -169 0
635 -144 0
-604 501 0
-527 -93 0
-345 -353 0
529 -117 0
-499 626 0
541 -349 0
343 -34 0
460 -78 0
365 -258 0
-356 542 0
-388 -76 0
623 -193 0
-426 52 0
-491 234 0
35 287 0
512 -18 0
344 212 0
135 478 0
-61 258 0
532 544 0
-28 -405 0
-271 103 0
361 -361 0
618 589 0
-289 -507 0
583 -61 0
395 559 0
337 327 0
441 -164 0
-57 -311 0
468 -266 0
-95 432 0
-416 573 0
-277 -216 0
-54 -623 0
230 604 0
534 227 0
442 591 0
442 -426 0
621 55 0
220 203 0
-417 129 0
24 249 0
-3 138 0
-54 436 0
-60 -437 0
318 -587 0
-134 370 0
449 -524 0
6 559 0
461 400 0
214 -555 0
-80 141 0
-317 142 0
635 93 0
179 190 0
-265 559 0
382 408 0
-471 -50 0
-206 -312 0
-65 -443 0
-243 232 0
-478 -98 0
-557 -25 0
26 -460 0
100 -630 0
-359 52 0
-451 42 0
-124 494 0
319 68 0
-462 118 0
-71 632 0
575 378 0
-556 492 0
-234 -46 0
-17 -373 0
-605 -393 0
-322 468 0
-246 455 0
236 -481 0
-70 -484 0
413 -417 0
195 477 0
-278 69 0
633 248 0
333 -29 0
-163 31 0
-350 -629 0
-571 -624 0
401 -102 0
407 -62 0
227 -429 0
543 -263 0
503 148 0
-518 613 0
-60 32 0
-557 606 0
-406 27 0
500 309 0
-374 313 0
-413 -373 0
-180 525 0
541 31 0
-481 -130 0
391 -27 0
367 -277 0
323 437 0
-5 107 0
167 -222 0
211 -520 0
-617 -430 0
269 -472 0
190 -598 0
298 585 0
-428 261 0
-2 -516 0
-29 244 0
79 142 0
-289 161 0
-47 164 0
-233 -403 0
-393 1 0
401 28 0
337 480 0
-634 314 0
179 523 0
89 -285 0
137 -339 0
319 282 0
-491 -194 0
349 147 0
318 -571 0
320 383 0
591 364 0
331 -72 0
-369 633 0
510 -125 0
396 -312 0
-113 -366 0
135 508 0
564 -554 0
638 166 0
560 538 0
385 279 0
-59 -447 0
523 -396 0
368 -64 0
-60 -177 0
-233 537 0
-626 392 0
230 -158 0
-378 324 0
-309 -474 0
-315 492 0
-129 -326 0
638 -572 0
-110 179 0
-274 -246 0
460 425 0
-62 275 0
-441 -375 0
-515 635 0
-292 -2 0
76 455 0
605 -425 0
-446 186 0
-162 364 0
302 -4 0
-624 -437 0
-247 240 0
-399 196 0
552 -550 0
-154 51 0
344 -630 0
-250 174 0
-527 -200 0
494 -103 0
427 280 0
-512 -308 0
-57 -284 0
461 -155 0
124 -626 0
583 443 0
-327 -364 0
342 394 0
-526 4 0
255 -251 0
-466 363 0
343 400 0
-549 -246 0
250 -268 0
287 -273 0
-148 257 0
-443 65 0
36 -531 0
-122 219 0
-211 599 0
136 -510 0
-70 -64 0
350 389 0
-414 -413 0
45 275 0
-588 -614 0
636 -459 0
221 61 0
475 221 0
86 -632 0
365 328 0
187 -8 0
-559 284 0
-139 -222 0
-576 319 0
351 237 0
-394 358 0
362 -553 0
-539 -164 0
-288 55 0
86 434 0
493 96 0
193 244 0
-46 385 0
178 -348 0
-262 185 0
313 -194 0
-535 618 0
-53 611 0
28 -507 0
-189 -155 0
-527 63 0
539 537 0
-37 496 0
264 85 0
572 -392 0
-141 -212 0
-414 480 0
452 -20 0
32 181 0
36 -237 0
507 79 0
234 -341 0
606 478 0
-605 632 0
507 524 0
-140 -144 0
-330 354 0
-478 444 0
-214 346 0
201 -365 0
-64 -53 0
493 -262 0
406 261 0
505 501 0
-257 270 0
-531 118 0
416 -436 0
-65 -428 0
449 298 0
132 -352 0
256 153 0
368 -29 0
-337 320 0
-213 461 0
-269 411 0
-428 535 0
583 -83 0
264 149 0
511 -567 0
177 -617 0
634 -157 0
-106 -392 0
243 264 0
374 58 0
-348 308 0
630 421 0
346 472 0
-72 -451 0
-139 -14 0
-48 2 0
569 -297 0
-569 1 0
-54 521 0
-269 263 0
313 383 0
-97 285 0
485 -200 0
-330 267 0
-83 366 0
549 -38 0
414 -372 0
116 588 0
-110 -453 0
-433 477 0
-481 294 0
618 -98 0
628 631 0
495 553 0
245 -7 0
445 206 0
146 223 0
-150 76 0
598 342 0
-553 480 0
511 -49 0
136 505 0
-364 76 0
-78 -524 0
551 -123 0
-417 -592 0
264 -321 0
448 338 0
416 358 0
203 -375 0
-259 -413 0
367 -24 0
452 218 0
632 13 0
460 369 0
340 109 0
234 -599 0
-80 -274 0
89 -71 0
497 334 0
600 -269 0
-269 -228 0
-160 -70 0
507 -184 0
-169 -30 0
150 -46 0
-640 617 0
-314 96 0
483 427 0
118 62 0
-138 -122 0
-129 -93 0
-360 18 0
610 -18 0
-439 144 0
85 616 0
415 -362 0
610 90 0
-375 146 0
-590 -269 0
-184 296 0
522 -508 0
-429 121 0
139 523 0
-44 -612 0
505 463 0
102 -123 0
-488 -596 0
143 -481 0
-156 -448 0
-548 -336 0
-192 319 0
613 631 0
65 -67 0
-355 104 0
250 -98 0
-46 -37 0
-161 -406 0
418 -395 0
-292 586 0
452 427 0
31 317 0
-246 -475 0
-224 -417 0
356 -48 0
-305 324 0
-78 -494 0
-463 178 0
-197 576 0
143 257 0
52 150 0
411 199 0
496 -294 0
174 503 0
-75 -55 0
-189 -583 0
-589 140 0
-93 545 0
105 -528 0
573 535 0
28 -355 0
-260 -150 0
-462 -609 0
9 -209 0
22 638 0
37 507 0
-32 621 0
395 487 0
-588 -445 0
-114 608 0
96 548 0
-222 26 0
-210 317 0
-332 169 0
505 151 0
-400 311 0
510 532 0
526 574 0
14 -7 0
5 -256 0
142 161 0
337 -412 0
92 196 0
119 309 0
582 203 0
343 -322 0
74 -55 0
528 474 0
181 -260 0
441 85 0
-417 -382 0
546 -591 0
171 332 0
-458 -23 0
324 152 0
513 -335 0
115 -602 0
458 -440 0
-176 328 0
149 496 0
146 444 0
-518 -168 0
307 -425 0
304 -556 0
248 -8 0
-333 -513 0
116 402 0
423 50 0
154 395 0
-486 24 0
194 -215 0
333 383 0
498 -598 0
389 -164 0
32 -495 0
-306 303 0
262 -485 0
105 -612 0
-22 489 0
253 60 0
-393 -413 0
486 -249 0
496 -153 0
404 343 0
551 -246 0
-472 -277 0
366 -579 0
570 81 0
-22 227 0
-377 623 0
535 -516 0
498 243 0
620 63 0
-224 -626 0
495 -113 0
434 576 0
111 270 0
614 594 0
-15 -197 0
521 -241 0
-441 335 0
294 -587 0
-614 -409 0
-517 455 0
-364 574 0
580 161 0
-425 538 0
-120 625 0
165 615 0
292 -494 0
-411 560 0
57 65 0
-610 544 0
11 30 0
460 -117 0
-129 -553 0
-634 388 0
-119 139 0
41 594 0
233 -64 0
-499 -531 0
583 -161 0
52 -10 0
-517 -557 0
361 354 0
-157 532 0
628 -6 0
201 -529 0
-277 -18 0
153 -545 0
494 121 0
327 193 0
-462 549 0
-328 -189 0
-15 -154 0
610 -391 0
130 -47 0
-236 -326 0
-184 226 0
253 27 0
43 -539 0
-485 -105 0
-340 258 0
-132 96 0
564 221 0
-578 212 0
506 613 0
-554 221 0
-413 -18 0
390 449 0
463 78 0
-251 208 0
423 194 0
-509 376 0
178 -69 0
-412 -57 0
104 -569 0
343 379 0
-216 -357 0
102 -222 0
-14 -188 0
-4 246 0
-402 324 0
296 103 0
244 -119 0
89 -311 0
221 -64 0
83 137 0
-598 -273 0
-465 417 0
-399 -630 0
204 483 0
-278 618 0
-612 -380 0
4 -10 0
-79 492 0
-40 -197 0
-496 -553 0
-371 -23 0
-236 169 0
294 -239 0
-430 340 0
74 266 0
138 392 0
361 -637 0
615 -164 0
467 87 0
-42 -339 0
-75 32 0
-303 508 0
280 367 0
-4 -516 0
-476 610 0
-170 432 0
397 190 0
-350 252 0
-350 449 0
137 195 0
-159 419 0
346 612 0
-221 421 0
400 441 0
-512 539 0
-274 421 0
575 -553 0
-619 613 0
-10 408 0
130 -164 0
-189 -568 0
208 75 0
-481 -486 0
-267 562 0
-268 -314 0
-499 607 0
378 505 0
567 -191 0
-109 636 0
-403 372 0
229 -424 0
-8 173 0
-314 292 0
627 -223 0
-485 497 0
214 34 0
551 -2 0
270 204 0
-54 63 0
498 303 0
-598 -488 0
-554 -211 0
-445 -61 0
-46 -315 0
317 -371 0
275 343 0
541 -337 0
-262 -474 0
-450 -457 0
-403 281 0
-173 -380 0
33 595 0
-225 -426 0
-386 476 0
592 -73 0
415 624 0
92 -590 0
186 351 0
-314 -337 0
-164 502 0
-77 32 0
-443 473 0
208 416 0
-37 331 0
506 -364 0
-58 361 0
-559 -447 0
-163 -200 0
632 -603 0
-589 605 0
74 -317 0
-154 132 0
-200 177 0
-297 13 0
39 518 0
540 -499 0
579 118 0
354 38 0
220 494 0
409 -515 0
387 21 0
302 -173 0
537 140 0
-276 -499 0
-297 618 0
551 23 0
-353 480 0
-561 281 0
-143 -551 0
605 -283 0
-357 26 0
-566 408 0
77 -505 0
-278 272 0
183 -265 0
369 -102 0
-107 171 0
-640 529 0
-243 484 0
186 -134 0
-210 -95 0
-345 -374 0
627 638 0
-140 166 0
627 54 0
-428 -66 0
-569 46 0
601 -459 0
-53 -10 0
-558 -299 0
-48 -8 0
463 -327 0
-344 29 0
360 193 0
-322 131 0
477 130 0
111 525 0
403 -75 0
-524 36 0
620 449 0
1 141 0
-425 -501 0
301 -157 0
290 -171 0
361 -34 0
-406 325 0
559 261 0
634 239 0
-83 -25 0
-488 -164 0
45 -614 0
574 277 0
-431 -143 0
8 397 0
-337 -592 0
115 600 0
-464 633 0
64 -50 0
190 358 0
363 275 0
442 -481 0
-412 -257 0
548 468 0
-191 -2 0
370 424 0
75 -441 0
-501 408 0
-156 -468 0
160 370 0
-290 419 0
74 319 0
88 -260 0
365 -135 0
-131 -300 0
-440 248 0
149 -46 0
