c NF
p cnf 3530 14473
826 -3023 0
-3050 3381 0
137 123 0
1713 993 0
-276 -2387 0
1248 40 0
2783 -2689 0
1166 112 0
134 -338 0
-1552 -2176 0
2749 -1451 0
-619 1658 0
-1777 570 0
26 90 0
-434 -1750 0
2064 629 0
1170 -3036 0
566 3047 0
1832 1577 0
1613 2098 0
2314 -2666 0
-1228 -690 0
335 2003 0
-625 -2468 0
932 3524 0
2297 2222 0
-1244 59 0
1967 2244 0
243 -259 0
1347 1049 0
299 -2463 0
-2410 1016 0
112 -2015 0
953 3102 0
1590 -361 0
1709 3059 0
-1601 627 0
3060 2587 0
2843 1735 0
-3226 -3471 0
1881 -1987 0
1310 -2070 0
1541 -1416 0
3474 2338 0
3090 -82 0
3232 -3120 0
-2238 89 0
563 -2675 0
3438 -2348 0
-3449 3446 0
1133 3160 0
-3010 -273 0
-2498 -2683 0
880 -1702 0
3122 -1826 0
-504 3406 0
-54 -1879 0
1549 2619 0
2433 2546 0
694 2930 0
-2048 -3285 0
2918 75 0
-3364 85 0
-3039 -1043 0
1186 458 0
2073 -2966 0
-1348 3154 0
3141 2949 0
1626 -3128 0
3079 -1180 0
2560 1325 0
2580 -2901 0
-1030 3035 0
3091 -871 0
-2449 -926 0
1183 -1345 0
-3169 -525 0
2391 3218 0
1964 798 0
897 2019 0
-486 1952 0
-2913 -2438 0
-341 2094 0
-3129 692 0
3515 -3362 0
638 -1596 0
-2579 -2090 0
1971 667 0
3429 -2898 0
-1602 863 0
-2440 227 0
1823 483 0
-226 450 0
-1223 2885 0
-162 -3291 0
-751 3284 0
1832 86 0
580 -968 0
-1189 3214 0
3078 -59 0
1437 -2453 0
-2131 -850 0
1330 2066 0
2384 -2730 0
-1981 -768 0
2492 -3378 0
2607 510 0
-1619 510 0
906 2086 0
-171 438 0
-3349 -3104 0
-1109 -735 0
-2919 2942 0
2565 1019 0
651 1739 0
3193 -716 0
343 2266 0
-2176 -1518 0
2857 -1392 0
1843 -1548 0
3494 957 0
-1661 -2421 0
-2353 3173 0
-1879 -3124 0
706 2648 0
-393 2983 0
1789 2802 0
3171 1087 0
-961 657 0
3439 2734 0
-584 404 0
-3167 -1643 0
-42 1647 0
752 -1892 0
2730 1228 0
1629 -3005 0
-1088 3391 0
353 -417 0
-1854 -2197 0
1023 570 0
-3271 2523 0
-3144 -2998 0
-2430 -3396 0
908 1777 0
-626 111 0
-1273 2706 0
-2854 2217 0
2885 -1700 0
-2726 -1778 0
-1552 1225 0
-240 333 0
2310 -248 0
2139 765 0
1229 1904 0
-1330 3457 0
2167 -2124 0
-1101 2198 0
-218 3298 0
2994 -2750 0
1663 1461 0
-2249 -2345 0
-1756 -2267 0
2061 2016 0
-3004 -1072 0
791 231 0
-23 -1978 0
685 -425 0
-1639 3032 0
2867 3103 0
3109 1244 0
-479 2061 0
-265 -1955 0
-1174 -2498 0
3430 2215 0
892 -383 0
-2636 2711 0
2627 1146 0
-2771 3224 0
2696 2260 0
-1095 2005 0
-714 2619 0
-2271 3233 0
-321 -242 0
-748 3432 0
3198 2440 0
-2521 -2422 0
-1768 -255 0
1514 2186 0
6 -1908 0
1695 -2776 0
1608 -1276 0
682 -406 0
-1274 3059 0
-1657 2544 0
-781 -3099 0
2982 2087 0
-2376 -383 0
963 2206 0
-89 -2551 0
-1648 3193 0
964 -2158 0
3523 3204 0
1590 -780 0
-2218 -2589 0
1902 -2200 0
-2522 -2833 0
28 353 0
-2282 1685 0
-324 -1363 0
2163 -39 0
846 -216 0
1642 -1152 0
751 3022 0
2246 -626 0
-2432 -2919 0
3479 2359 0
-461 426 0
3175 1133 0
-3225 24 0
-2396 1092 0
-1938 1311 0
-2686 -1323 0
-1713 766 0
-942 1314 0
2151 2183 0
-943 2983 0
-987 3250 0
277 -2888 0
-2559 -714 0
-2214 208 0
774 -3359 0
3262 2264 0
-3425 506 0
-506 867 0
1827 2978 0
-360 2367 0
2135 -105 0
2786 812 0
-2380 -2419 0
1563 -361 0
-1835 769 0
527 -3163 0
139 3231 0
2097 -443 0
2513 -1429 0
2861 -2444 0
2648 211 0
2942 -2742 0
-2299 -1137 0
-412 2621 0
2477 1638 0
2063 2153 0
1621 -14 0
2370 1914 0
-421 -211 0
-2575 506 0
-1661 2595 0
-2765 -1011 0
-3384 -2278 0
-2982 2628 0
-1373 3386 0
2084 -471 0
-2322 1969 0
324 -2933 0
-1583 149 0
-2471 152 0
-1116 863 0
2739 992 0
3218 -1996 0
-1722 -1210 0
-928 -2745 0
-1639 -1077 0
1472 2562 0
3483 2793 0
-199 2082 0
2573 -3490 0
78 2852 0
3180 2398 0
-1624 -2984 0
-1290 -1495 0
-1865 1305 0
2079 -1609 0
1913 -3438 0
-2184 -3104 0
-3117 3111 0
735 3446 0
161 -1880 0
-1374 -1729 0
1135 -2577 0
-2894 3463 0
-3236 -1253 0
31 -2609 0
-2870 2057 0
-1016 -971 0
1990 -3015 0
-2501 -2530 0
1673 119 0
-2980 -1867 0
-2778 1906 0
2653 3024 0
-3270 2639 0
-3156 1048 0
2987 2744 0
-51 -2326 0
884 -999 0
-496 1282 0
-1975 -2438 0
-189 -3242 0
2307 -2287 0
-1785 -2148 0
39 -631 0
-2252 2448 0
-3222 -3132 0
-2796 -685 0
-1604 -1071 0
909 -69 0
2306 2284 0
2117 -3290 0
2078 2872 0
-1774 1658 0
-166 2795 0
-2778 3226 0
681 2565 0
-5 -3250 0
-2236 1321 0
826 -3491 0
2033 -802 0
-1617 -3163 0
934 997 0
-3496 24 0
121 -1460 0
2447 -819 0
-329 -559 0
1473 -991 0
-1041 1298 0
-3366 3368 0
169 251 0
-2202 2672 0
-275 -1092 0
-454 2996 0
863 2720 0
2391 3028 0
738 -2819 0
2127 -3408 0
2458 3262 0
-2554 -479 0
-1622 748 0
-2292 3011 0
1393 -2903 0
3199 1569 0
-1134 1797 0
-1944 -631 0
-1306 1275 0
1326 -1494 0
3389 -1133 0
-616 -3093 0
1164 -1066 0
-42 -1623 0
-621 3494 0
-1862 -832 0
-3028 -2773 0
-2405 -2286 0
-1986 -3120 0
1851 2902 0
401 2063 0
-2544 -2194 0
2367 236 0
-511 -1542 0
-2711 -3265 0
-1340 3179 0
2048 2702 0
2885 631 0
1581 2859 0
1529 -1788 0
-2677 -901 0
-2717 567 0
-3510 -1164 0
3122 1450 0
2012 2711 0
122 -1030 0
1068 96 0
-2462 -525 0
-3243 -3482 0
-1738 39 0
-2906 487 0
-1306 112 0
708 -1216 0
309 76 0
-686 -3311 0
1208 1567 0
-2138 -3384 0
-2603 -1471 0
-1556 1067 0
2363 366 0
-2251 -2763 0
-3088 2878 0
-2623 -3530 0
1753 3322 0
-447 -681 0
2086 -1623 0
290 1315 0
816 -1804 0
-1014 1417 0
-1196 2936 0
1603 816 0
-2554 2704 0
3528 -1451 0
332 -1479 0
-1636 -259 0
-3384 432 0
2173 -11 0
-1683 2756 0
-995 2198 0
1507 3086 0
-3508 3255 0
2562 3489 0
1949 -3113 0
1540 -3121 0
1150 43 0
1235 1675 0
458 -1466 0
-240 -466 0
-2122 -2354 0
3353 -286 0
1302 -2659 0
960 284 0
559 -230 0
3431 725 0
-317 -1003 0
261 -1262 0
-1229 -658 0
2466 -430 0
2975 -201 0
1172 1837 0
-987 -1901 0
23 2740 0
354 144 0
1086 332 0
-3205 3357 0
-3205 -1570 0
316 -1268 0
-1075 -2466 0
1937 1119 0
2354 -1006 0
1830 1299 0
-1455 -694 0
1562 -501 0
-1382 -3074 0
261 -931 0
37 1180 0
3199 -65 0
990 -182 0
-2591 2895 0
3058 1667 0
-331 706 0
-465 341 0
880 -1637 0
-1288 2356 0
768 -9 0
-717 1744 0
2012 -75 0
3208 715 0
-2776 2811 0
2025 2271 0
392 -772 0
-2936 163 0
-855 2757 0
-3347 2710 0
-1989 910 0
-2686 -1317 0
-2773 576 0
863 1528 0
-551 -755 0
-3148 -163 0
-3105 -2524 0
-1187 -2122 0
-2911 2791 0
-1060 660 0
-3364 442 0
1311 -2395 0
3194 -1772 0
2588 -1482 0
-232 3236 0
-3122 -1242 0
2052 -886 0
2919 -790 0
-1597 -638 0
692 2437 0
2902 -638 0
-2861 -2684 0
620 -1225 0
1822 916 0
340 -1872 0
2521 1561 0
-2704 -2841 0
2386 335 0
1606 3076 0
1465 1995 0
2793 -2317 0
-6 2076 0
-3163 -3216 0
-2601 276 0
-2627 1176 0
3404 -2065 0
-1429 847 0
1194 -382 0
-3512 -2384 0
-1374 266 0
-3465 -1989 0
2388 1812 0
332 3118 0
1372 3503 0
2557 2617 0
2643 -2508 0
-1423 3209 0
-2621 1846 0
-2028 1304 0
669 2941 0
-116 -2179 0
-3362 -2411 0
-692 -1921 0
1201 3413 0
3290 -403 0
437 3447 0
2948 1133 0
-3507 -2547 0
2096 -1473 0
-3252 -2609 0
-3292 -1383 0
-2051 -710 0
1600 -3204 0
-1806 -1191 0
-2846 -3320 0
-1819 -86 0
864 -2124 0
1787 -2495 0
-879 1465 0
-2982 470 0
2501 2640 0
2199 51 0
2191 1712 0
-1631 2878 0
-711 -1039 0
-2197 -1231 0
369 553 0
979 -3465 0
-1271 2085 0
1533 2438 0
-1150 1995 0
-1215 2409 0
-890 1929 0
-2913 -866 0
-229 -15 0
1287 -1210 0
1009 -3099 0
82 3499 0
-3147 -2258 0
511 2921 0
2128 -2482 0
448 -1977 0
3192 1359 0
664 1707 0
-2669 2815 0
-2729 3515 0
2895 -1579 0
2993 -1807 0
1464 -2373 0
-2564 2909 0
299 2016 0
-1652 1949 0
1033 -2170 0
-723 -1624 0
1516 -1310 0
1753 2513 0
583 -2863 0
-2907 985 0
3404 2510 0
-3376 -1137 0
1299 -338 0
-107 -2692 0
-1446 3287 0
87 1793 0
-3004 2470 0
1065 2558 0
2611 3179 0
-1492 -1310 0
3383 -2159 0
2993 -746 0
-3357 -1624 0
-3519 657 0
303 3170 0
-541 -1040 0
-2005 -3037 0
-581 -2092 0
-1943 -762 0
-2818 2895 0
3381 2797 0
-3056 202 0
-2350 973 0
1869 -188 0
1549 -146 0
667 1852 0
1331 467 0
-638 -602 0
952 -1885 0
3074 -2453 0
-1941 332 0
-2834 -2435 0
-424 -3025 0
-2418 2305 0
-1717 -2596 0
-2368 268 0
2713 1044 0
-509 1424 0
-3216 2918 0
-608 500 0
-2275 -2483 0
1982 -1070 0
2813 2223 0
2868 1926 0
-856 -3475 0
-405 -869 0
-2530 -2027 0
-424 -2969 0
-2643 -2836 0
3307 2034 0
1386 349 0
1369 -2399 0
-2723 351 0
-2184 -2883 0
-1612 -299 0
1090 -1522 0
-1999 -2476 0
2743 3118 0
-2546 1687 0
-2852 -1690 0
-753 -3040 0
-3355 630 0
-1837 1949 0
3154 2954 0
-648 1832 0
2907 -800 0
2691 -2417 0
323 2533 0
20 -3069 0
3501 -575 0
1058 -2203 0
-2324 3034 0
-1826 -1100 0
-867 957 0
800 -3091 0
209 -262 0
-664 -3426 0
-1404 -999 0
-472 -2776 0
404 1635 0
-974 -2772 0
-1274 -2462 0
3064 1253 0
1673 2191 0
1504 -448 0
-3152 -2913 0
-1614 1396 0
1075 -25 0
1027 889 0
1382 -3335 0
3417 -910 0
-3196 -937 0
-502 3016 0
-3471 1749 0
1473 -1545 0
2052 319 0
798 -1686 0
737 1448 0
-2840 2026 0
2366 -259 0
-3253 -1336 0
-320 -2292 0
424 589 0
1111 -1142 0
-35 1338 0
2649 998 0
698 1185 0
-2127 -3152 0
2073 -2758 0
2019 -295 0
-3078 943 0
1975 2141 0
-2524 2052 0
-408 1045 0
707 -3005 0
3048 2404 0
1075 3109 0
-114 699 0
1524 -2558 0
-1180 -1054 0
3042 -2409 0
1607 -1158 0
1650 -2882 0
-968 3297 0
-1907 331 0
-829 -3299 0
861 1738 0
1173 3336 0
-2971 3497 0
3387 -2354 0
-3304 3379 0
-999 1587 0
2800 517 0
3337 -437 0
181 3030 0
-1832 3397 0
3343 -86 0
-1079 3238 0
-1274 3283 0
-2840 -658 0
-2538 793 0
-2101 -3370 0
-2562 -1306 0
2234 2809 0
540 -1337 0
2214 726 0
-2388 -1452 0
-1424 -3076 0
833 300 0
-10 -113 0
-3449 -1341 0
1802 -716 0
16 -1643 0
570 841 0
-3001 -942 0
2878 830 0
-2734 -622 0
2741 2220 0
-3061 988 0
1846 500 0
-268 921 0
-1763 -85 0
3060 -3480 0
-1419 -1924 0
2968 2169 0
2512 3299 0
2338 -1372 0
-43 1769 0
-824 607 0
3193 -668 0
127 -145 0
2523 982 0
-3114 82 0
-1289 1155 0
-1790 2174 0
2440 -1937 0
-1576 -1585 0
-2558 353 0
611 -2532 0
-2255 1331 0
816 -1407 0
656 238 0
2642 -3384 0
-843 934 0
715 78 0
1505 2222 0
-1036 -925 0
-2446 2516 0
-1461 3171 0
3084 1850 0
1086 -348 0
-2846 -1212 0
-70 -501 0
-3263 -3328 0
-2349 -1407 0
1419 201 0
-1567 -521 0
-591 -2700 0
-1426 -2402 0
-1064 -1337 0
1786 -1409 0
592 -2453 0
-1032 549 0
-1570 2509 0
96 843 0
-3488 -125 0
-3111 3359 0
3403 -443 0
1468 -1654 0
-1028 -1426 0
-3091 2505 0
-3060 -410 0
3465 3486 0
2652 -3055 0
231 -2932 0
-3491 3404 0
2076 2573 0
2263 3467 0
-2806 -1030 0
147 20 0
241 1303 0
2573 -1536 0
1231 -1381 0
-111 754 0
-1870 3417 0
1705 1796 0
-503 1888 0
-1425 -597 0
1246 3139 0
-2725 739 0
-767 873 0
1009 824 0
2784 -1442 0
2972 887 0
76 -2882 0
-2456 -623 0
-572 -2893 0
2573 -1567 0
-1698 -3442 0
-741 727 0
-614 3375 0
-2201 -2393 0
-3460 -829 0
-2487 2719 0
196 3473 0
-1286 1847 0
1530 1646 0
880 -891 0
1871 -3044 0
1232 -60 0
-655 2681 0
3268 -1750 0
160 -324 0
616 -1013 0
2538 -3040 0
2193 -2240 0
1979 3049 0
1636 -2591 0
3226 3091 0
1025 2304 0
-1187 -2213 0
1549 -1044 0
-2149 24 0
-126 -3142 0
-2560 -2180 0
-571 762 0
-2785 2449 0
3389 -959 0
3204 -2087 0
727 -213 0
280 -1597 0
-2355 -2839 0
2847 628 0
1381 -1481 0
-42 -1123 0
2241 -3051 0
1277 -46 0
1744 952 0
-3208 1570 0
-2444 1315 0
375 -1404 0
-3306 -94 0
-3037 2226 0
1349 3085 0
2607 422 0
3528 202 0
-1323 3016 0
-3184 -3168 0
3370 -3081 0
-1333 2850 0
-782 -101 0
1641 -968 0
-3176 2297 0
1032 3509 0
1815 -1635 0
-1356 2326 0
-838 -1219 0
-967 3472 0
-2775 2218 0
2220 3450 0
3051 -1397 0
3389 -794 0
3098 1977 0
-2430 770 0
3234 -2766 0
1851 632 0
977 740 0
-1987 -1837 0
-2172 2682 0
-1700 3354 0
-2969 370 0
-88 -2670 0
1220 -264 0
-2411 -313 0
-3206 1597 0
-2001 636 0
3308 -3440 0
-3082 -2463 0
3160 2121 0
2792 -1697 0
1535 3289 0
-2288 2953 0
845 1316 0
-136 280 0
1738 -2485 0
657 -1941 0
928 2770 0
2238 1963 0
-1060 -1818 0
-3161 -732 0
692 3017 0
649 1979 0
-1270 3068 0
2387 -3006 0
-1896 227 0
3298 -156 0
859 227 0
-184 1918 0
-1809 96 0
-186 502 0
-1017 1406 0
-2178 1165 0
3286 1718 0
3275 -2131 0
-2261 -3121 0
-1762 -1875 0
2769 -1560 0
1978 -2531 0
-3353 696 0
-85 1495 0
1846 -2113 0
1022 26 0
3171 603 0
-842 -100 0
-2231 1457 0
3461 -2703 0
-720 1173 0
663 332 0
3228 -1666 0
-376 -3196 0
1076 3269 0
708 676 0
-1978 2537 0
-1106 2983 0
-135 -721 0
3400 1137 0
2297 1268 0
3221 -2286 0
1505 3109 0
-3456 -966 0
-830 -1501 0
-888 -2572 0
2284 1428 0
2573 -679 0
1457 -1156 0
1960 2925 0
1309 3378 0
-1123 -714 0
1530 1615 0
-2131 -787 0
2267 527 0
-3462 1516 0
-1531 -150 0
1152 1849 0
1668 1234 0
-1346 -901 0
-504 -1679 0
2234 2953 0
2857 -39 0
-2474 -3254 0
1912 -1709 0
-1421 -425 0
2510 -2969 0
-1930 1543 0
-2097 2712 0
3436 1430 0
-1845 -2653 0
2853 3138 0
2063 3389 0
-2839 963 0
-1021 2363 0
-1882 -2006 0
-1188 1983 0
1771 -2163 0
-1759 2671 0
-276 1968 0
-2893 2877 0
-1136 3152 0
-2795 1071 0
-3274 -2597 0
-100 2333 0
-2740 -2536 0
-695 -2062 0
2457 -668 0
3278 -1142 0
3029 -2850 0
1623 -695 0
-2989 -761 0
124 1227 0
2022 3465 0
-1270 2085 0
2513 1254 0
3360 -2027 0
-2390 2096 0
-2539 -421 0
-1787 -203 0
2812 1777 0
2116 1421 0
-1692 -975 0
182 2638 0
-2621 2581 0
974 -2856 0
1157 749 0
-1119 -208 0
-2416 -1627 0
-2763 -1340 0
2144 -1285 0
1702 309 0
-2488 -1078 0
-270 2527 0
1032 -2606 0
-1552 1742 0
-1889 1222 0
1537 885 0
-3507 591 0
-2390 1925 0
996 393 0
-2256 376 0
686 -1804 0
417 2435 0
-761 -2418 0
3269 106 0
3073 -1117 0
-199 -1536 0
-2891 -532 0
932 -994 0
1152 3222 0
-403 359 0
568 2702 0
2035 765 0
-1577 2007 0
-3406 -1459 0
355 2427 0
1979 2573 0
1311 -3139 0
-780 969 0
1765 -921 0
-669 998 0
-2662 -2388 0
535 483 0
-95 1393 0
2220 880 0
2162 1878 0
2588 -581 0
-157 2053 0
1061 -2737 0
-1820 1379 0
2187 1183 0
-366 2103 0
3309 -2466 0
2792 -2694 0
190 3245 0
-1719 -373 0
1612 1566 0
343 2524 0
2052 791 0
3230 2748 0
187 -3170 0
-1988 2396 0
2300 -2418 0
-719 148 0
-2676 2975 0
910 2680 0
-3415 2378 0
-2119 -3486 0
-1396 1751 0
-2974 -606 0
-166 -2460 0
1874 -1474 0
-90 1087 0
3029 -1448 0
-3374 -2646 0
-3456 -3464 0
-402 483 0
-3267 664 0
3337 2343 0
505 -3457 0
-1422 -3366 0
-2690 -1343 0
3370 -888 0
1370 -3050 0
-2480 683 0
274 658 0
-2197 -849 0
-700 -277 0
2510 2513 0
1239 -1340 0
1697 -1412 0
1007 2584 0
-3460 -91 0
-445 768 0
2234 -3025 0
-27 -3142 0
-2167 1645 0
2274 -3488 0
607 2996 0
-1455 3491 0
1833 1607 0
-2865 1496 0
651 -3293 0
1411 528 0
3469 -2131 0
-2617 -334 0
-2631 2521 0
-2420 1899 0
249 1144 0
373 -1431 0
-1963 -697 0
-322 2935 0
-1984 3328 0
956 251 0
504 -2840 0
-1896 -3061 0
-2189 -2001 0
626 3393 0
884 435 0
-3295 2646 0
-1541 -3161 0
-1618 -2190 0
1039 -1001 0
586 -1277 0
-1102 3137 0
949 -1984 0
-1724 -2870 0
-722 -2702 0
-1935 -1547 0
1489 -1121 0
-3114 -290 0
864 2006 0
3059 -1898 0
-1217 3308 0
2938 -2613 0
-48 1599 0
2987 1069 0
-85 -3091 0
3081 2443 0
-2897 -241 0
865 1018 0
2797 2085 0
-1780 3002 0
322 522 0
2147 539 0
-1398 -741 0
-2209 -1006 0
3393 -1773 0
-491 2668 0
-945 -1195 0
-1014 -2550 0
1660 2344 0
-3066 2895 0
913 -2965 0
2428 3435 0
-1730 765 0
3290 2940 0
411 2003 0
-1434 2869 0
3222 3187 0
1231 41 0
-3410 -1069 0
-3438 313 0
2362 -421 0
2328 1186 0
1741 -2615 0
595 2454 0
220 1861 0
-1977 846 0
-2005 159 0
-374 -3262 0
-1019 2644 0
2919 277 0
3064 -3184 0
2029 -132 0
2817 -3026 0
-2551 -2228 0
-95 -272 0
2677 -1916 0
3299 -1293 0
-1978 2905 0
2043 -1819 0
-2435 567 0
-3380 -417 0
-624 -2407 0
-638 108 0
-785 -3410 0
-2778 644 0
3139 2041 0
3221 39 0
-2808 -432 0
-1874 -1412 0
-312 1802 0
-259 610 0
-1654 -2661 0
-248 1361 0
-262 -1973 0
2786 1026 0
-369 588 0
1605 -2888 0
-3172 740 0
1733 3264 0
1409 -894 0
-673 2027 0
2650 -542 0
-950 1113 0
2594 -604 0
-1055 1083 0
-497 -58 0
-973 2227 0
-1292 1631 0
-909 -2792 0
431 -1511 0
319 -3024 0
3201 2968 0
-430 1344 0
2541 1136 0
2103 -43 0
-275 1857 0
2650 -2112 0
1113 -2870 0
2360 -2703 0
1058 2994 0
3024 661 0
-3390 1177 0
-2037 1164 0
2791 -3418 0
2329 -3428 0
-74 -1011 0
1691 -278 0
1901 721 0
-629 473 0
-2116 -2628 0
3288 -2874 0
-1686 1401 0
-2184 213 0
-2552 159 0
654 1056 0
2611 3108 0
-763 -1273 0
3100 -2338 0
-2715 2431 0
868 300 0
1572 2233 0
-1922 989 0
-2879 1139 0
3188 2959 0
-2834 -1402 0
1726 2594 0
-1223 -1645 0
161 1104 0
-3309 2878 0
-2528 -141 0
-1495 -3528 0
-2964 3377 0
-106 634 0
-405 -2399 0
-1189 -2936 0
1057 -2939 0
2861 -514 0
2016 -2137 0
939 -819 0
-3155 -2361 0
2078 -2438 0
1539 -2416 0
-443 -1997 0
-2633 1797 0
-953 -1875 0
681 -2268 0
-502 1705 0
1343 3433 0
-2292 -1019 0
-2760 -1099 0
-2964 3186 0
225 363 0
-2277 -2954 0
2253 2277 0
-3120 2564 0
-3298 -1987 0
-1085 -2881 0
-811 -2747 0
797 2964 0
1496 -380 0
-1365 -793 0
-1934 1315 0
245 -1681 0
-184 209 0
-2119 277 0
1280 -2204 0
798 -3218 0
-2729 -1950 0
331 2638 0
2895 303 0
1832 -112 0
-1978 -1544 0
-716 -2 0
-1373 -583 0
3414 -846 0
-2840 2784 0
-1140 593 0
3021 -2356 0
2612 698 0
1139 490 0
1196 1660 0
3327 2783 0
2048 2514 0
-2660 -2694 0
-1413 2842 0
1214 -1355 0
-1103 2631 0
2854 3207 0
2387 -2689 0
1894 2018 0
2426 3166 0
-1573 -2533 0
551 -1029 0
-104 1246 0
1518 -2665 0
1015 719 0
-3304 3424 0
2968 2556 0
438 921 0
-2314 -297 0
2391 1967 0
2241 1005 0
3032 -3289 0
-1708 -1154 0
2993 -3283 0
247 3140 0
-1896 1071 0
-666 -1235 0
1431 -3462 0
-171 324 0
660 -2682 0
-1881 -401 0
1787 113 0
944 -1055 0
-435 3447 0
2132 -2837 0
3467 -1913 0
-1495 1793 0
-3285 -1718 0
-1193 698 0
-830 1868 0
3291 -3479 0
301 -3419 0
-2898 694 0
-2810 2788 0
541 1473 0
3191 578 0
-1674 -578 0
868 -819 0
-1211 -3435 0
531 -2105 0
-1252 3150 0
-636 1205 0
3141 -1841 0
-625 230 0
-206 2441 0
1685 -2047 0
-1575 1950 0
-1406 260 0
2281 -3515 0
-3328 3414 0
2098 -2212 0
3255 -1523 0
1067 1778 0
-213 -254 0
17 -2992 0
-3129 3139 0
2455 -2962 0
-284 -276 0
1619 -3206 0
-2031 -2493 0
-488 1383 0
1497 3218 0
2222 2235 0
636 2584 0
-1763 235 0
1566 -3345 0
2908 -2437 0
1524 -1049 0
-3339 1744 0
-811 929 0
2391 2757 0
-1713 1713 0
-1699 -2064 0
-1323 -2744 0
2858 -3425 0
3045 480 0
-1246 1283 0
-3144 1085 0
2929 -2452 0
1853 -83 0
2420 -2527 0
-3049 -74 0
3197 3483 0
-851 -1275 0
2909 2214 0
-2618 927 0
-1000 1163 0
2132 -2937 0
2857 1674 0
1406 -1661 0
-629 -1818 0
-1541 -3152 0
632 -2362 0
-1570 427 0
1007 -3190 0
288 1716 0
-334 241 0
1334 -3134 0
2514 -1153 0
-2607 3355 0
-2977 2967 0
-2174 1136 0
1696 -2116 0
1043 1525 0
3035 1471 0
-1876 -417 0
-248 -2575 0
478 633 0
2226 -1 0
2809 492 0
-1255 -1596 0
1912 -2836 0
1528 3510 0
1025 1810 0
2359 2764 0
-2048 23 0
2759 2391 0
-1582 -2339 0
1231 -1541 0
634 -3463 0
-689 -798 0
63 1900 0
841 -3409 0
-2301 140 0
-1225 -940 0
-193 3053 0
1314 -2458 0
3174 -1099 0
386 -819 0
-3464 1473 0
1609 -353 0
1298 1170 0
-2681 -267 0
2022 3268 0
-1106 -2480 0
769 3045 0
3522 2316 0
-1247 -951 0
1838 -2977 0
2569 -980 0
-3152 353 0
3178 -43 0
-3094 3298 0
-2273 2970 0
-203 2229 0
-2890 -2965 0
1038 -1086 0
-695 -3472 0
2639 -3300 0
-471 -316 0
-2029 3182 0
-3270 -1213 0
-1195 -2310 0
-1255 2157 0
-368 1408 0
2786 2291 0
467 -2390 0
851 -2509 0
2152 1638 0
3456 1259 0
1129 3013 0
-2800 -2530 0
-2262 -778 0
-2939 -367 0
-1585 -3149 0
1944 -627 0
-942 -3091 0
-754 1055 0
-1807 2574 0
2309 -509 0
1985 782 0
199 3528 0
1164 510 0
-3068 -2524 0
-2275 -1474 0
163 -1449 0
-1933 -2714 0
-2301 -1081 0
-315 -2102 0
-3421 670 0
-2039 2458 0
-1651 3331 0
2458 2045 0
2646 -2491 0
-3423 -857 0
3257 1985 0
1914 3113 0
-1205 -3249 0
373 985 0
2485 429 0
416 -2020 0
-2879 2732 0
1076 -1433 0
-2739 -272 0
108 -3060 0
-1492 2453 0
-2534 514 0
1199 -2581 0
1158 -1238 0
-253 1998 0
-1806 -681 0
2937 -1892 0
1647 -463 0
-2287 375 0
1354 -3452 0
2175 1161 0
809 -1190 0
-178 -3348 0
2660 -564 0
295 1314 0
3311 -843 0
-153 2196 0
-2137 2374 0
-3505 305 0
1298 3062 0
-1916 -747 0
156 -2125 0
3237 -2403 0
2518 -2592 0
3032 -1229 0
-2068 201 0
2935 3318 0
-947 -3328 0
-2794 -439 0
-951 -1812 0
3064 -1221 0
-3198 2 0
-952 2987 0
-2005 -1637 0
-3517 2703 0
278 1233 0
-1482 2 0
-2868 3086 0
2008 -1539 0
2080 331 0
-1730 -1402 0
-1043 1283 0
1419 1260 0
-1977 -1366 0
2708 3233 0
394 2703 0
-183 2010 0
895 1291 0
-3335 2702 0
1834 3002 0
-151 547 0
-2635 -2637 0
1422 103 0
1157 1486 0
-3257 2724 0
-2020 -2212 0
3221 -2871 0
-2235 2973 0
145 -1914 0
2655 2416 0
-98 -725 0
549 -2474 0
646 -3215 0
-82 734 0
908 -2523 0
567 2087 0
-2798 -867 0
1610 -2046 0
-2924 2781 0
1181 2065 0
-1343 -1 0
1396 1113 0
1149 -102 0
526 -769 0
3521 1242 0
925 1537 0
-1413 -2071 0
-230 -2715 0
-2412 -3189 0
762 2338 0
527 -2748 0
-2346 -258 0
-1193 1949 0
-3117 -2888 0
-547 1144 0
-3299 1340 0
545 -1057 0
124 3500 0
2155 1454 0
-3321 1119 0
-3135 -1871 0
2887 2460 0
1132 23 0
568 -598 0
-2681 -2959 0
1855 2882 0
-731 -1903 0
-1908 -2085 0
-2771 1346 0
519 2117 0
-2218 -1920 0
2134 -2722 0
1551 -2023 0
2152 -2824 0
-563 1691 0
2925 2079 0
-3346 1032 0
-2305 -755 0
-1565 1804 0
-3334 1793 0
-2273 2811 0
979 3468 0
1401 -1493 0
-273 -1136 0
1580 2938 0
2469 -2478 0
3150 2965 0
-3044 3187 0
-3205 -217 0
2838 557 0
2246 -338 0
-293 -530 0
1010 893 0
-2134 -2164 0
-46 -1139 0
-192 2977 0
593 -2497 0
970 2966 0
-236 -3195 0
1847 2903 0
1633 -2416 0
-3106 -2159 0
1116 -2421 0
-763 181 0
3023 -667 0
-1526 1230 0
-814 -2464 0
-74 -1681 0
-2778 1133 0
1118 1484 0
-2196 2309 0
1291 2401 0
2231 -1142 0
-1317 -3081 0
-1935 -2915 0
777 -3373 0
688 1797 0
-2783 -1763 0
3360 -1773 0
2909 1198 0
-131 -1534 0
-2616 -2910 0
-1120 2912 0
3501 -3136 0
3318 -297 0
2347 -612 0
2427 1350 0
1213 1777 0
-1904 1504 0
-2961 1443 0
-802 -1103 0
1347 140 0
34 -57 0
1069 3250 0
-1880 1858 0
3516 -1053 0
2141 3365 0
-1380 -1278 0
2181 1319 0
2657 1808 0
1706 -2603 0
2523 -2476 0
2151 3407 0
458 -655 0
-1669 -2762 0
2674 -2908 0
1405 -1995 0
-798 143 0
-3374 2483 0
-3510 -2631 0
2262 1258 0
1986 -2542 0
354 -3283 0
2410 -3185 0
593 1575 0
-1271 2209 0
-1640 -2686 0
-2282 1653 0
819 -2414 0
3137 -1776 0
889 -2828 0
2832 -786 0
2717 916 0
-3524 1464 0
-2416 -3484 0
353 1645 0
-1154 959 0
666 479 0
897 -1252 0
1873 -2760 0
1671 -753 0
-3253 -1136 0
2927 477 0
-2832 -3238 0
353 -699 0
2833 -1925 0
3161 -1443 0
1796 -527 0
-3421 -3258 0
3026 1590 0
-382 3367 0
-1738 2066 0
3146 -2729 0
-2601 -712 0
-2012 2999 0
-2188 -603 0
-3438 1681 0
1655 -1864 0
1739 -435 0
332 -1842 0
-3438 -1115 0
-2361 610 0
-489 900 0
2389 2135 0
-1539 2510 0
-3350 -4 0
-3061 2383 0
-2340 195 0
2844 -2892 0
1191 -672 0
-1323 37 0
3329 -3005 0
-2137 2433 0
-2546 -46 0
-439 -891 0
1735 1778 0
-1202 -1398 0
-2258 1482 0
-1330 -1303 0
693 -2262 0
-127 -54 0
-3121 -3116 0
-1640 2538 0
-378 -3078 0
-1981 2263 0
-2358 -1863 0
2179 2682 0
-1914 760 0
-834 -2390 0
364 3076 0
1194 2745 0
-2635 2809 0
341 2237 0
3279 -2373 0
3473 3528 0
2063 -445 0
-465 2300 0
3246 1874 0
-1586 -3358 0
-48 2052 0
-1763 3216 0
-2771 2509 0
-1438 -373 0
-2593 -940 0
-595 3014 0
-1974 1049 0
-794 -2845 0
1786 -1155 0
-410 2246 0
2306 2164 0
-2622 -1905 0
-2539 2565 0
3093 177 0
-579 -1346 0
2252 1868 0
-2773 1195 0
2236 -938 0
2023 2068 0
-1727 -631 0
1210 -196 0
2291 2749 0
3031 -884 0
2910 -2476 0
1707 -2460 0
2835 -2286 0
-457 -2489 0
2029 1551 0
2945 -2060 0
-708 -324 0
2846 2408 0
-22 -475 0
-1054 730 0
363 -1646 0
-2574 3149 0
3223 -2077 0
112 1170 0
1801 1447 0
-3333 3374 0
922 102 0
-1943 2598 0
-1233 -999 0
-1016 791 0
2318 2485 0
-1472 1111 0
-3346 -1560 0
3058 -695 0
509 3155 0
-1346 965 0
3079 2483 0
3268 2820 0
-3467 3465 0
558 -2373 0
3277 2505 0
-1933 1241 0
-3280 -669 0
-2088 -1253 0
-16 3322 0
3476 -1796 0
1217 -2735 0
-1316 614 0
-1688 -1538 0
3453 -2143 0
1852 -832 0
-371 -2494 0
2688 -2217 0
2860 -2840 0
-199 -135 0
3436 -3467 0
-1182 2134 0
-3460 1060 0
-3115 -2323 0
-3176 -139 0
-716 653 0
-3089 910 0
-820 2795 0
-83 -1150 0
-2046 -633 0
123 -2120 0
-1436 2989 0
-2217 -1917 0
-249 -2355 0
2548 2379 0
-1179 1778 0
-1494 -2802 0
762 170 0
2756 1301 0
1338 2853 0
2046 -855 0
-2533 -2418 0
-1701 -2467 0
-2000 392 0
-1023 1291 0
2106 139 0
-460 -2020 0
-425 2018 0
865 -3320 0
1525 -3048 0
2937 -3027 0
-3322 1561 0
-2792 1083 0
1313 -3135 0
2208 331 0
2518 1857 0
-5 1979 0
1076 2740 0
-2290 2392 0
2644 -3303 0
-748 1953 0
-814 -213 0
-1044 -485 0
3294 365 0
2048 -1134 0
318 1113 0
2688 -292 0
-931 -1364 0
1823 2165 0
-1257 1428 0
482 2684 0
-2084 2451 0
-3390 3192 0
2371 -1103 0
-2496 -2020 0
-1908 -2261 0
1687 14 0
-2508 -1063 0
-780 120 0
-3032 1093 0
-1127 1901 0
-1129 1059 0
1793 1967 0
-2735 1144 0
649 1851 0
47 -3076 0
553 -464 0
-2299 697 0
2605 -184 0
2111 -543 0
-8 81 0
-1041 2168 0
-1233 -551 0
-353 3375 0
3500 -1542 0
960 2477 0
-617 -2504 0
-2050 2959 0
1862 3342 0
-2956 179 0
-715 -3005 0
1849 -2876 0
-2487 -3170 0
-747 -2421 0
1525 1527 0
1014 2151 0
-2287 479 0
975 1333 0
2370 460 0
-2780 -2261 0
925 1680 0
1235 401 0
-3524 752 0
-119 1793 0
-437 197 0
2154 2076 0
743 3451 0
-1514 3526 0
500 605 0
-512 2112 0
-3444 883 0
-1876 -541 0
-1109 -3487 0
-1292 958 0
-3502 2776 0
-3342 -1120 0
-851 864 0
-3424 694 0
-3300 -1890 0
643 -3335 0
-2089 2817 0
-2936 -2291 0
509 -895 0
-3009 1260 0
506 2356 0
3316 1315 0
1655 -2461 0
-2373 2611 0
-2185 -2583 0
-2680 1036 0
749 2412 0
-1441 2194 0
-1985 1833 0
1050 1161 0
-2741 -3457 0
-2244 -1120 0
-495 1888 0
2980 3343 0
3458 -879 0
-733 268 0
2516 759 0
-3199 3021 0
-1651 512 0
2100 2050 0
603 446 0
1530 -471 0
-1476 2829 0
2047 1241 0
3105 -191 0
-2001 -756 0
1347 -3320 0
673 -1775 0
1259 -22 0
-2774 1964 0
-1650 -2312 0
-287 -1398 0
-1011 -902 0
-649 -2951 0
-2742 -2840 0
-3393 1694 0
-2766 -932 0
-1892 1538 0
-441 2012 0
-2116 808 0
-3021 -897 0
-1175 1019 0
-1685 3492 0
-1676 -1909 0
476 -3344 0
670 3301 0
2011 1532 0
-1366 1838 0
-536 314 0
3227 3216 0
-2281 16 0
887 -2135 0
138 2813 0
-1476 -711 0
-2017 1764 0
2855 -3306 0
-2791 -2097 0
-1413 -1713 0
-2958 -237 0
-2201 -1922 0
-484 -58 0
-1365 1535 0
-644 -534 0
-1298 -1444 0
-2422 -1524 0
-623 -199 0
1657 -3169 0
-2439 1413 0
-304 -1958 0
-1882 1548 0
-2470 -2536 0
2048 1353 0
2928 2732 0
864 -1765 0
-1636 1499 0
2221 -3215 0
2064 1941 0
2341 1432 0
2987 1621 0
-146 -2693 0
2646 -880 0
2636 3302 0
2386 -1859 0
1838 1959 0
-3328 -1113 0
-1881 -1147 0
1861 546 0
-3219 -1477 0
2474 2553 0
-904 1073 0
409 -3042 0
-2430 3283 0
41 -1871 0
-276 -2698 0
-1483 -2971 0
-880 -2832 0
-1176 340 0
1782 -1802 0
423 1997 0
600 1674 0
2012 -2745 0
-357 -2941 0
1278 1173 0
362 -1837 0
-1854 -1052 0
-1322 -3487 0
1858 -2330 0
1747 -3047 0
2023 3301 0
-1588 -1522 0
-3 564 0
1328 2041 0
-2867 -1661 0
-3354 2075 0
3189 835 0
2264 219 0
1304 916 0
-3283 1352 0
-1725 -2763 0
3431 -321 0
-716 1085 0
542 -691 0
593 -2630 0
-121 1139 0
-2830 1246 0
-2847 -2466 0
2851 -1122 0
-1329 1802 0
-3524 -1492 0
3179 -459 0
3361 -2760 0
-1624 -3078 0
1369 -115 0
2076 446 0
556 -1836 0
-799 -1518 0
-46 191 0
1673 2914 0
1013 1951 0
137 -3203 0
-2190 1608 0
-3454 2318 0
2166 -696 0
1240 2668 0
2691 470 0
2766 1714 0
-3381 1887 0
-504 2090 0
-1815 2426 0
-2909 663 0
1546 -1250 0
-450 -3251 0
3496 -2089 0
-34 1796 0
-3066 1633 0
1991 -2138 0
-2913 -460 0
813 2877 0
-2361 -3254 0
-889 -172 0
-2324 3336 0
1837 -1336 0
-455 -2977 0
-1395 -2012 0
1463 1966 0
3237 1096 0
-3479 116 0
150 2719 0
1287 -2890 0
-2675 2195 0
-3202 3235 0
-2279 -938 0
3461 200 0
-1503 -1001 0
-2658 1747 0
-1639 -1882 0
-1996 -1969 0
2258 2693 0
21 2630 0
1118 2101 0
1672 1841 0
-81 1318 0
633 -1779 0
2434 -2992 0
2401 2129 0
1754 1499 0
1825 1420 0
1135 455 0
688 -1907 0
-132 -2293 0
3286 -987 0
-831 -2111 0
2696 2155 0
367 1258 0
-3263 245 0
1475 1685 0
550 -66 0
2086 2585 0
2080 2687 0
-3347 -3190 0
-3155 -3324 0
-909 1111 0
-3434 -1051 0
-860 1203 0
1521 -1462 0
-256 1173 0
2196 -1978 0
1311 -2075 0
-2927 -704 0
1829 -157 0
-2189 -250 0
-1182 2428 0
1732 3052 0
10 -407 0
766 -1347 0
2612 -1518 0
3476 1391 0
1467 -189 0
217 -2211 0
3225 2890 0
238 -806 0
-1720 1976 0
1826 1723 0
1930 906 0
2073 -2587 0
3085 -413 0
2511 -2668 0
-334 -3226 0
-2279 -421 0
-2766 -1554 0
-1328 -1174 0
-1724 2198 0
-2223 -3128 0
698 -3484 0
-447 -210 0
225 1865 0
-716 -3314 0
2819 -1150 0
-3204 -2666 0
-163 -2771 0
511 3022 0
1192 3308 0
509 2413 0
2168 3155 0
808 -3529 0
-1466 982 0
2524 -2533 0
-983 -2887 0
1589 -3072 0
3289 -432 0
-3497 137 0
-2758 726 0
2701 -1933 0
1994 -1972 0
-3353 3237 0
2248 -1401 0
-1998 -602 0
-2522 1266 0
-1026 1862 0
3177 125 0
-3120 -853 0
-317 2824 0
-124 1402 0
128 -1553 0
-2675 -2154 0
-85 -993 0
-1242 1402 0
2742 -2192 0
-1509 -213 0
-625 -980 0
-941 744 0
-2134 146 0
2657 -397 0
-954 2026 0
-862 3423 0
-494 1353 0
2568 -2806 0
-1408 -1179 0
138 3290 0
1045 -1782 0
1384 2461 0
-3409 -2120 0
542 1207 0
1758 -493 0
-402 3394 0
-1987 1928 0
-3132 -393 0
1110 778 0
-1688 -3194 0
-2576 -2998 0
-3199 1401 0
1753 -1526 0
3257 -2728 0
-2802 1574 0
3397 3150 0
-260 -2739 0
833 -2025 0
2386 3360 0
-2148 2129 0
3226 -2120 0
1341 588 0
-2601 362 0
-2156 -2744 0
-3265 -2262 0
-1765 -3019 0
-158 1442 0
-1355 134 0
-1773 3239 0
-102 -2672 0
-3026 -1143 0
2512 -1778 0
758 -1694 0
-1425 3302 0
3308 -2801 0
970 2480 0
3497 -2330 0
637 -218 0
905 3060 0
2115 -745 0
-2256 -396 0
839 -1273 0
-2062 -597 0
2243 264 0
-994 3516 0
-1592 2045 0
944 -621 0
-2023 -3495 0
-2233 -29 0
2501 1159 0
-1466 -2777 0
-3006 647 0
-38 3082 0
-2118 -1081 0
-3179 -907 0
3312 -3280 0
2924 2182 0
-1356 -1376 0
2357 -3475 0
-1893 1849 0
-3521 -810 0
-2426 1851 0
3289 3362 0
2059 1604 0
2276 1466 0
-943 1139 0
-233 -1553 0
-3228 -2754 0
1440 2523 0
859 3298 0
3013 -2610 0
-1988 1544 0
-480 -312 0
-1189 860 0
-1622 -2786 0
-2612 1931 0
-1585 1090 0
-695 -2267 0
-49 3399 0
-378 1159 0
3043 -2839 0
730 500 0
554 1416 0
1551 2059 0
-3203 -340 0
721 2035 0
-99 -1122 0
-781 232 0
-2088 -1298 0
-2149 -77 0
363 460 0
-3351 3018 0
-417 527 0
-698 -2625 0
2733 1809 0
-1070 2637 0
885 433 0
-1864 2524 0
-2684 3432 0
-444 -2975 0
-2946 -2531 0
-2148 -913 0
-2321 -935 0
3148 222 0
281 -3169 0
1436 -1244 0
-690 1864 0
-1165 310 0
-2316 -1260 0
2919 184 0
-1982 1318 0
2215 2116 0
684 -2681 0
-334 -3027 0
-2957 2699 0
-787 3167 0
-1587 -2858 0
-1559 -752 0
-344 -3274 0
-2056 2511 0
-85 -2552 0
-1415 245 0
-1144 -387 0
-2036 -1698 0
-585 1201 0
2221 2558 0
-2247 2663 0
2435 -506 0
-1112 1905 0
2514 3100 0
2002 -2440 0
-2729 3485 0
132 -27 0
758 -633 0
910 3307 0
-2931 -2840 0
-2219 -2212 0
-2972 3210 0
2443 880 0
-672 -1612 0
1228 -2678 0
2584 -1788 0
2204 -3326 0
468 -339 0
196 -2665 0
-2827 -2228 0
-931 761 0
3276 -1470 0
-2103 -1114 0
-240 -649 0
3506 -68 0
-2035 1218 0
613 -576 0
-3070 1150 0
3062 75 0
-102 -226 0
-346 -2821 0
-2108 1174 0
3419 -2303 0
-2269 -2276 0
286 2668 0
958 -1415 0
1710 2736 0
-1388 1771 0
-2621 2413 0
-1612 -3374 0
-3132 -3176 0
-3252 -2898 0
2446 -1347 0
-3348 2855 0
-2637 -3105 0
-3199 143 0
-653 -727 0
2162 -2350 0
-110 3128 0
-2661 -3214 0
235 -2695 0
-3249 1463 0
-1981 -354 0
228 2502 0
588 281 0
-3524 2913 0
1701 2844 0
-2289 2254 0
-305 2002 0
2354 -3012 0
-3105 862 0
2024 -490 0
-1156 -2623 0
-104 -1487 0
1595 -987 0
2829 1118 0
1514 2691 0
1111 -1464 0
2889 3032 0
1954 1309 0
3288 2018 0
3517 -724 0
910 -2449 0
-2085 -1472 0
-3415 -3500 0
1230 1147 0
-2971 -2134 0
735 -2444 0
3228 -419 0
-2858 -2689 0
-1883 -1641 0
-1274 -2920 0
1938 -2362 0
2409 -1877 0
-3252 -1490 0
-1577 2571 0
1173 2861 0
2951 -469 0
1851 -2600 0
-178 719 0
2798 1971 0
360 -957 0
-1096 2198 0
854 229 0
-2232 2728 0
-104 2610 0
2823 -1138 0
-2787 3094 0
3466 -2735 0
683 -2544 0
2930 1831 0
-2551 -688 0
-406 -1657 0
-1787 -1980 0
2433 3314 0
1172 -1988 0
-3054 2427 0
-2863 -785 0
-2716 -2092 0
-2399 2578 0
2579 -334 0
2395 2743 0
-2435 1389 0
2386 1432 0
3265 -1631 0
1411 2893 0
-436 3262 0
-2026 -754 0
-3334 -876 0
-2636 -443 0
711 1588 0
1772 -1933 0
1852 -1661 0
-1202 -2177 0
-852 -3133 0
-1921 -1701 0
2906 1782 0
-426 -2807 0
2990 399 0
2434 453 0
2445 3512 0
-1284 -3123 0
-3111 -1728 0
187 -878 0
-2835 2813 0
3414 -118 0
-3414 -1198 0
-2970 -2466 0
347 -3444 0
219 -1510 0
3221 1081 0
1465 -1238 0
1954 -2706 0
-3303 1097 0
1503 3367 0
-2339 -3169 0
-1129 2909 0
354 -2440 0
949 -645 0
-3105 -461 0
2624 -437 0
-2923 -2613 0
-393 544 0
1056 1234 0
2943 -1053 0
-3123 -3277 0
2878 -554 0
-1474 -995 0
3522 1533 0
1083 -3051 0
-2710 2068 0
-1367 2458 0
-2423 -1765 0
1402 -1582 0
-3090 -80 0
3050 -1205 0
64 -3195 0
-1937 -1455 0
1530 518 0
-756 3154 0
-2839 -2616 0
1508 1383 0
555 -2172 0
2972 -2665 0
-2896 639 0
2689 -234 0
-1002 -2149 0
3309 -3165 0
-2288 -2560 0
-905 2486 0
2250 -2258 0
-3144 726 0
59 2208 0
220 517 0
-2968 -1466 0
-148 -810 0
-2141 -118 0
1481 2823 0
-2473 662 0
-1780 -2061 0
-2539 -3258 0
2693 1592 0
1517 1360 0
171 -709 0
543 -3247 0
-276 -1626 0
199 -3121 0
-168 -3331 0
1632 -723 0
-946 1968 0
2411 140 0
-2058 -2033 0
-2314 -286 0
861 868 0
520 3299 0
1595 -1442 0
1971 -646 0
-1426 -3397 0
-2415 -1572 0
-575 3473 0
1425 780 0
2150 -1490 0
-2355 -572 0
2479 -172 0
-2664 480 0
-407 -2496 0
2856 1703 0
-1864 -3136 0
-1483 1195 0
2023 3249 0
1961 -1683 0
1857 2357 0
-1591 -649 0
512 3015 0
1473 2377 0
626 -2218 0
-1366 -3372 0
2997 3334 0
2332 1419 0
868 921 0
-888 -2913 0
-2778 -1440 0
-2861 -2007 0
3437 30 0
-3036 -781 0
1365 -193 0
86 -2976 0
-1059 -1439 0
2565 3396 0
-3524 -3448 0
-675 2689 0
716 -2771 0
-1046 2440 0
1784 1259 0
-2620 1735 0
56 -1605 0
-94 -1293 0
-1763 2073 0
2791 -2892 0
-253 -359 0
-1730 -667 0
-813 -3430 0
-2174 1562 0
-1367 2024 0
-2060 -2713 0
-2707 -3199 0
-2164 2482 0
-274 908 0
1417 -3458 0
-2116 2273 0
1385 1047 0
308 3528 0
3404 819 0
-873 -880 0
-1517 934 0
728 2379 0
1114 1148 0
3380 1959 0
1400 181 0
-1907 1445 0
-381 1250 0
2793 -3297 0
-517 1069 0
337 -1982 0
-1365 -3145 0
-1609 -3213 0
2138 549 0
-1193 6 0
3467 -2550 0
2951 -909 0
-3267 -2250 0
2370 -1206 0
356 -2004 0
-1068 -2549 0
935 -3251 0
1372 1796 0
133 228 0
1402 -1131 0
1243 -1526 0
1332 2194 0
1507 2213 0
443 2417 0
1105 -1328 0
2614 -296 0
-1641 -1548 0
2850 -2506 0
977 -2014 0
-1099 1098 0
925 -904 0
-2498 -2688 0
3050 1873 0
3032 -2901 0
3343 -2156 0
2867 1171 0
-378 3374 0
-1153 3162 0
2327 676 0
-551 2683 0
-57 -2009 0
2429 3021 0
-2082 216 0
-2981 72 0
709 260 0
-1623 -3028 0
934 -2546 0
2228 1742 0
-2253 991 0
-2380 1372 0
-2034 2921 0
490 3526 0
1254 122 0
-792 2605 0
-1725 -1481 0
2145 -457 0
-2663 -2251 0
1738 -581 0
-751 2644 0
-290 -616 0
1687 1248 0
-708 2475 0
479 -192 0
1970 -91 0
223 -619 0
-2097 -43 0
1155 3003 0
-1265 2659 0
-2678 -116 0
1369 -3365 0
-3054 -492 0
228 -2004 0
-1028 -1917 0
2811 -546 0
-2991 78 0
3166 -1947 0
207 -2414 0
-1555 -3335 0
-2527 -1384 0
586 -2920 0
-2906 -2886 0
1767 1149 0
-2615 -3240 0
3276 984 0
2776 987 0
-686 2609 0
-129 -723 0
-2507 746 0
932 -457 0
390 -374 0
-314 -2227 0
-722 1704 0
1628 2821 0
-1239 -1403 0
-130 -722 0
982 -481 0
17 -3120 0
-1097 1116 0
1685 1196 0
1069 -1725 0
2365 -1941 0
676 -2742 0
1135 -2759 0
-1182 1151 0
-2550 -3385 0
-1167 787 0
-2162 -1741 0
1884 -315 0
-3441 -2889 0
-3182 2950 0
-3142 769 0
2799 -2287 0
2048 -2187 0
1304 -752 0
-1283 1975 0
-3499 -2755 0
3341 315 0
3416 822 0
-545 50 0
3278 -1342 0
2859 -154 0
-3026 2818 0
2657 -2165 0
454 -1342 0
2542 -2520 0
-3520 -205 0
-183 1609 0
827 -897 0
2440 2712 0
696 -1204 0
1705 -2971 0
197 1334 0
1333 1774 0
386 400 0
-895 -1937 0
202 674 0
2510 -1632 0
-389 288 0
-3100 -2654 0
980 -3303 0
2137 -1461 0
-2480 1546 0
3530 -3181 0
2687 669 0
1733 -890 0
-200 458 0
938 3357 0
1475 1955 0
-803 2182 0
249 2586 0
2304 1259 0
961 2964 0
994 576 0
-1342 823 0
3197 2283 0
-559 518 0
284 3268 0
-1596 438 0
3488 2407 0
1517 -1552 0
732 2949 0
-3188 -872 0
1599 -2683 0
2848 -125 0
-1410 3240 0
-1177 -2158 0
-2060 -1064 0
-1001 2943 0
3194 -2254 0
571 769 0
-817 -978 0
-1112 2138 0
2408 1167 0
1318 916 0
2354 3340 0
2042 2188 0
3516 3100 0
3408 322 0
-741 3009 0
-2839 1081 0
-177 1341 0
-3167 1477 0
-2534 -3210 0
3230 -3499 0
3308 -2607 0
-2952 2450 0
-2393 -2102 0
41 -2201 0
1528 -2972 0
-369 -2403 0
2790 -95 0
-517 -3094 0
2669 196 0
-1932 3413 0
694 2709 0
1376 -1225 0
281 -1653 0
2974 -2582 0
1975 -2948 0
1314 386 0
495 -374 0
-2200 2486 0
-3016 -732 0
-1182 2189 0
671 387 0
2789 2150 0
224 -3408 0
2995 -2835 0
3125 -999 0
-2810 -1202 0
-13 -2364 0
-3144 -2059 0
2975 1824 0
-3121 -496 0
-485 641 0
386 259 0
1654 -170 0
2728 2295 0
315 -1167 0
-776 1337 0
2857 -2625 0
1447 -357 0
-2336 1118 0
-1059 -3242 0
-2247 1881 0
-3066 1545 0
-1001 3074 0
2690 748 0
-114 409 0
-2237 -2588 0
2153 -3323 0
-2864 524 0
-2384 -1890 0
1210 -2967 0
2712 -2279 0
-3260 -3256 0
671 1286 0
1974 -263 0
-727 -2811 0
-2489 -894 0
-3212 -2321 0
-2634 3422 0
-3257 -2324 0
-2158 -2388 0
786 2195 0
288 -1548 0
3216 -2872 0
-1697 378 0
333 -837 0
2208 -1102 0
1477 -2884 0
657 -3326 0
-2541 1733 0
3233 -2203 0
1660 2068 0
-2981 -2122 0
3249 1779 0
1496 -3267 0
129 -2148 0
-2616 -185 0
437 -81 0
419 -2313 0
3277 -2431 0
-2978 -1766 0
18 2473 0
-1242 -781 0
670 2063 0
-548 -2210 0
-504 -2261 0
2761 806 0
1252 424 0
-269 1311 0
1071 -280 0
-408 699 0
-2402 -3490 0
-325 -316 0
-2843 -3050 0
2328 -690 0
-1753 3189 0
-294 -3256 0
1259 -2567 0
-698 -3004 0
2936 -712 0
-2890 1901 0
-47 3157 0
-1488 3433 0
377 1810 0
-184 1689 0
235 430 0
3056 -2409 0
2165 -3502 0
-3306 -2006 0
3377 -2145 0
2109 2162 0
2242 -1752 0
2761 -2865 0
2449 -1601 0
-3195 -2507 0
2711 3045 0
-3219 797 0
3310 2208 0
2453 3528 0
260 -1969 0
-669 2040 0
-3323 2384 0
3395 2048 0
-1052 -1361 0
-1961 -1768 0
665 -2815 0
-822 -1031 0
3031 2764 0
1991 765 0
775 -3195 0
-2498 3218 0
3416 2894 0
-1578 714 0
3515 -257 0
2312 -3459 0
-2503 -745 0
-3109 -2955 0
806 765 0
1281 1749 0
1265 2300 0
-1317 -2146 0
1321 -1203 0
1928 2222 0
830 -3054 0
-3132 1837 0
2003 2513 0
-1671 2638 0
471 3095 0
-2287 1528 0
2883 -3415 0
-2833 -1382 0
3189 60 0
-2452 3450 0
2759 -3349 0
-1425 2385 0
-730 -2300 0
793 -3055 0
-925 -2070 0
-471 -95 0
2585 -3012 0
2644 -836 0
-536 -1921 0
-2555 287 0
-3019 3249 0
429 -3162 0
2946 -2151 0
-1519 -832 0
3298 -308 0
73 -796 0
-1403 -1476 0
77 -1446 0
-1699 -2766 0
552 -2988 0
-548 2800 0
1796 -3195 0
986 -1730 0
-500 -2012 0
127 1308 0
-2020 -2652 0
-3438 3188 0
-1584 401 0
-1627 2705 0
1610 -943 0
-456 2599 0
1706 77 0
815 3436 0
-1295 -3439 0
-822 299 0
-1233 -772 0
-368 -2395 0
-2826 -495 0
2159 764 0
514 -3156 0
-1299 1210 0
-2065 843 0
2096 2059 0
1687 3198 0
3084 -2289 0
1689 1371 0
1369 3249 0
3334 916 0
404 -1538 0
902 -1252 0
-1907 2181 0
1634 195 0
-658 -2881 0
-1543 -44 0
1191 3296 0
-389 3281 0
789 167 0
2680 -1043 0
-582 -806 0
2948 2030 0
-3384 -863 0
-1484 1392 0
-1618 -536 0
-708 509 0
2794 399 0
1389 -848 0
-2704 -3444 0
-1066 369 0
-782 -1165 0
867 -1446 0
260 3215 0
3176 1010 0
-703 -1601 0
-3279 -2901 0
406 3029 0
2835 526 0
578 -273 0
-1564 -692 0
-30 -1117 0
1944 -1686 0
1644 1608 0
1914 3510 0
274 889 0
-2011 -3259 0
2316 -837 0
-2686 -2570 0
-2165 -2514 0
341 -436 0
1141 1948 0
1869 -363 0
549 988 0
-949 -3390 0
-32 -1409 0
-1964 941 0
1219 1424 0
-89 517 0
-3106 -1056 0
3344 -759 0
3527 1024 0
2896 -1074 0
2383 -2425 0
2554 168 0
1866 -1520 0
-1285 3189 0
182 -2588 0
1022 -2653 0
2389 -1443 0
483 2691 0
-2579 2832 0
2761 -838 0
-1297 -658 0
2700 -1337 0
-348 1150 0
-463 3158 0
-3371 -3103 0
1490 -2257 0
1400 2318 0
580 28 0
-44 -1924 0
1955 -1939 0
1392 -2082 0
-2621 1706 0
-2321 -763 0
-164 -1604 0
-667 1209 0
-2304 -2080 0
597 846 0
-3201 2571 0
1350 -3482 0
-1892 -3169 0
-504 1323 0
-173 2061 0
-3009 -853 0
1210 3386 0
63 2338 0
2586 -3124 0
986 -2841 0
1940 -612 0
-2598 1607 0
-679 -3376 0
-841 2057 0
3500 1451 0
-3511 3522 0
-325 1172 0
-3412 -2427 0
429 1983 0
1187 -1006 0
-2101 -2174 0
1338 -3221 0
1424 -1506 0
-2839 -1941 0
-1931 -2782 0
-44 816 0
-1749 -1564 0
663 2530 0
2946 -347 0
959 886 0
-623 2086 0
-2220 3413 0
-2974 3059 0
2513 -1760 0
-2766 -2542 0
2373 2797 0
970 2546 0
1060 -184 0
-893 2025 0
231 -2568 0
-2570 1099 0
-3330 3186 0
-606 -1998 0
-2381 -2876 0
-2847 -2261 0
1266 507 0
-2349 -1109 0
2667 -1178 0
427 -681 0
-283 -3033 0
-1450 -2456 0
-5 -1817 0
694 -2662 0
-1911 3461 0
-1896 -66 0
2851 -1343 0
-1909 -390 0
-928 -2257 0
516 1167 0
-1407 -63 0
-96 126 0
807 1424 0
-2764 221 0
-3019 -358 0
-491 -1560 0
-1506 -2409 0
3067 -3146 0
-3077 688 0
1406 2174 0
-752 2332 0
3325 -191 0
2576 -420 0
561 -1382 0
-2168 977 0
-2951 1959 0
-1545 1172 0
2073 -3384 0
2609 2151 0
715 2687 0
1080 -297 0
-2312 -2582 0
3423 -2829 0
-1289 -2644 0
1953 -71 0
3033 -2149 0
1297 1928 0
479 -449 0
3175 -1818 0
-2633 -636 0
-2321 -2593 0
-144 3 0
2297 -2393 0
3412 -2349 0
-2495 -216 0
1122 -1645 0
-1778 -2006 0
-2723 -1659 0
3138 2027 0
-3036 786 0
2502 1501 0
411 3116 0
1099 -1029 0
770 2931 0
-2070 -3172 0
1084 3096 0
-1245 1170 0
2454 -2583 0
-1702 -2050 0
843 542 0
1626 3038 0
923 175 0
-1723 985 0
-1499 1782 0
-1795 833 0
1377 -537 0
-3530 -2037 0
-11 -1598 0
-2888 3068 0
-239 824 0
-995 -627 0
3341 -2670 0
-1337 1698 0
-2091 2112 0
3030 49 0
-1019 2724 0
2270 -1340 0
-449 509 0
-1730 1298 0
-2508 219 0
-946 -877 0
2188 -3126 0
1135 -2133 0
-2142 -1142 0
-3293 2019 0
-583 -3351 0
411 -2755 0
-146 3202 0
-2701 120 0
-2220 2567 0
1565 2260 0
2331 663 0
444 -337 0
1246 -1101 0
-2673 2176 0
-194 -396 0
-1651 2000 0
-98 24 0
2008 -2514 0
2055 2859 0
2497 2100 0
3312 -1343 0
1851 52 0
1710 -3390 0
697 3310 0
1124 -1233 0
-425 -203 0
72 538 0
1183 -2755 0
3465 1541 0
-3019 355 0
2959 -1799 0
395 2938 0
-2555 2274 0
3300 -2205 0
2543 2150 0
-3254 -1834 0
-74 -548 0
1444 -2496 0
257 -1164 0
1517 -2867 0
749 920 0
3487 2486 0
-3415 3447 0
-3444 -1819 0
-3494 -2229 0
1647 -1190 0
2170 110 0
-1198 -904 0
661 2293 0
-1671 -2992 0
-1388 2187 0
3265 474 0
-1671 1005 0
1237 1832 0
-2028 -1948 0
1464 -3069 0
-1492 -13 0
-2365 153 0
721 -1170 0
468 2488 0
-1377 -1899 0
-1413 -1188 0
-853 -2197 0
-1053 -396 0
3504 -1511 0
-45 278 0
117 3449 0
967 -1639 0
-1939 -3322 0
2315 -2138 0
1418 3431 0
1782 362 0
2035 -610 0
-2001 -3423 0
-1933 -434 0
-412 2245 0
1310 2057 0
-850 -1123 0
2397 941 0
-1286 2865 0
692 -3078 0
-2981 769 0
-3302 -47 0
-2747 -242 0
-944 -1619 0
-1497 -3361 0
-3134 547 0
-2999 983 0
-3123 2935 0
-3343 -1483 0
2863 -767 0
3332 -853 0
-1446 -1541 0
2723 -2825 0
2702 1939 0
411 1909 0
-1690 2572 0
-3351 -2144 0
-186 -1094 0
179 -1552 0
-2541 -2452 0
3016 -2310 0
-800 2325 0
2431 1567 0
-1465 479 0
-1993 585 0
492 2991 0
1163 1038 0
-3174 2959 0
3053 2875 0
2709 2073 0
-2380 1060 0
1621 -27 0
1683 1710 0
1105 -1853 0
3497 665 0
73 2318 0
739 -110 0
542 -165 0
1887 -1566 0
-2436 1176 0
3084 -1494 0
1707 -1414 0
-2600 -742 0
856 -3505 0
18 2912 0
840 285 0
2699 1802 0
-2209 1997 0
-2018 2821 0
1232 -1223 0
-3162 -2685 0
-1916 -2131 0
193 1308 0
-3527 -3228 0
-2677 922 0
738 -1681 0
2855 1487 0
-1318 1093 0
-1858 -3146 0
-2322 -93 0
1010 2537 0
-2961 1429 0
-1420 -635 0
975 3334 0
-1705 1556 0
290 -1614 0
-1590 2155 0
1879 -1226 0
3298 985 0
1259 -385 0
2343 1355 0
1751 523 0
-1306 2638 0
-1443 1098 0
-898 3342 0
2239 749 0
-297 2057 0
-2704 -2288 0
-2612 -1603 0
-2832 -603 0
3041 -2676 0
546 195 0
-2977 -2037 0
2475 -2757 0
2767 -786 0
3451 208 0
-3414 2917 0
-1010 1222 0
-764 -1908 0
294 -2240 0
1260 -1925 0
2074 -574 0
-1167 -1593 0
2682 1190 0
-1095 -1559 0
-1009 -913 0
1749 1212 0
3242 765 0
-994 1058 0
1387 -377 0
587 155 0
1968 3231 0
-2065 2559 0
384 2488 0
-1279 -116 0
-2149 -545 0
2345 -1952 0
1830 2496 0
1869 -1646 0
354 3091 0
1737 -290 0
173 2821 0
-550 1528 0
-974 -412 0
-625 -2285 0
2853 10 0
-2269 829 0
-2772 -717 0
1543 16 0
1081 -3255 0
-2056 -1877 0
-2879 -2213 0
3510 -1532 0
1320 -716 0
1520 -3224 0
-1515 2973 0
-1266 -2934 0
-1688 -131 0
-2951 -2184 0
-1329 -2591 0
-803 -1886 0
1422 2663 0
-775 -1054 0
-803 1275 0
-3278 1840 0
-1692 -2301 0
2506 -3034 0
448 1141 0
1299 -3197 0
2045 827 0
1136 -973 0
-2654 1270 0
1400 -723 0
-2963 -1410 0
3189 -2931 0
1864 -2346 0
-905 -547 0
1962 -653 0
1660 -183 0
-1066 -1736 0
-2397 -13 0
-1836 3233 0
721 -870 0
2061 2511 0
3497 -314 0
1240 806 0
-1479 2547 0
1385 659 0
-644 -3442 0
-1488 -264 0
-888 -3502 0
-2357 1746 0
-3320 1092 0
-677 507 0
1023 1010 0
1920 -917 0
-2827 3207 0
-2689 -14 0
-807 1713 0
1330 -2597 0
-1359 -1795 0
-1614 -1077 0
1225 -104 0
-1211 3396 0
33 -182 0
2255 375 0
-3292 -1162 0
-2394 -796 0
-2149 275 0
-1395 -3489 0
2516 3454 0
-2202 514 0
3413 -321 0
1493 -2279 0
1931 -3010 0
-1573 2833 0
-3201 2137 0
903 1596 0
2478 -583 0
-2800 -3275 0
-996 2644 0
-3341 688 0
1089 -2149 0
-2730 2719 0
706 1988 0
-2994 76 0
2908 -2754 0
-559 -2090 0
-3055 -290 0
-1709 -57 0
1783 678 0
129 3477 0
-2564 -462 0
2169 1478 0
1759 757 0
-3017 -3220 0
-159 997 0
1388 -234 0
-1882 3023 0
1431 1767 0
3307 2481 0
2044 1643 0
3211 -1279 0
-3341 1218 0
-2017 3105 0
-1663 -2289 0
-3047 2856 0
1728 -762 0
-2770 188 0
2383 -2347 0
-887 1874 0
-1861 1341 0
945 -3299 0
2183 -1881 0
1887 278 0
3402 -447 0
-24 -1134 0
-1471 3457 0
182 482 0
639 -917 0
-2765 2201 0
-805 2187 0
-2229 3269 0
-872 -2944 0
-2496 1464 0
1149 -2901 0
3404 3157 0
-3412 -2467 0
481 -2980 0
-1307 -1873 0
-859 688 0
-1509 -759 0
-2287 -3283 0
3381 -1398 0
-2480 -1232 0
-3266 1699 0
1767 -1980 0
-2027 1894 0
-496 3360 0
1709 -3150 0
1400 -935 0
-1764 -139 0
2441 1581 0
276 -3144 0
1595 -561 0
-1285 3215 0
-1403 2273 0
-723 -3299 0
-3206 1186 0
459 -1265 0
1181 -2822 0
-189 -2516 0
-907 -622 0
-1211 -1654 0
630 -3110 0
1228 812 0
2655 2153 0
-2393 -2270 0
-1834 -179 0
120 2054 0
-1910 -2494 0
2500 -536 0
-1925 -3256 0
-1657 -3009 0
3313 1151 0
-1118 -2178 0
-1224 -2104 0
3420 -3014 0
117 2471 0
3467 -2127 0
-2258 -1736 0
3077 -3312 0
-2653 -2792 0
-1757 1898 0
470 -2419 0
-1159 2731 0
808 2337 0
207 2209 0
972 -2549 0
-1686 3511 0
-1831 812 0
2415 -702 0
-1762 1762 0
3516 2136 0
2712 3130 0
1771 -1594 0
-1165 -3263 0
909 3310 0
-3000 1051 0
-3408 151 0
2994 -716 0
2996 850 0
3217 -1718 0
-630 -1382 0
433 850 0
-547 3143 0
2315 -2292 0
-141 1828 0
-3025 -3455 0
-2397 -1984 0
-2945 -303 0
-960 3154 0
-2450 1825 0
1605 1314 0
3439 -215 0
-3523 -2674 0
49 210 0
2132 3238 0
2128 -3423 0
-1147 -32 0
-644 -668 0
-668 3337 0
696 -1032 0
380 -3455 0
-1054 -1754 0
2883 -2037 0
1905 789 0
3307 2336 0
-3471 10 0
3029 -675 0
-3203 -2499 0
1389 2762 0
-363 12 0
-2525 1207 0
-1072 -1129 0
934 -644 0
-2835 1027 0
-604 3308 0
1070 2711 0
3030 1827 0
3239 -671 0
3306 635 0
-1878 -1651 0
-459 883 0
-3357 -761 0
-1620 -164 0
477 -1120 0
-1452 3074 0
-1299 121 0
2663 1645 0
1472 -289 0
515 2186 0
-1422 -717 0
-2947 808 0
-819 -1445 0
1680 3045 0
-3012 -113 0
3152 -807 0
-1966 -3100 0
-3041 -184 0
1092 -1802 0
-641 3326 0
787 202 0
892 -817 0
1096 2333 0
564 -770 0
3029 3094 0
-1545 2456 0
815 -2144 0
210 -3038 0
-1635 -2196 0
-2566 -800 0
-1661 621 0
1201 1734 0
-1938 1089 0
2287 1372 0
155 2383 0
2507 3257 0
3112 130 0
-898 -1229 0
-2476 -436 0
1289 916 0
2063 -1492 0
-1962 1954 0
749 -2885 0
1274 3166 0
3244 -3070 0
2089 -3311 0
854 1360 0
-1140 1720 0
502 840 0
157 -1176 0
2428 499 0
2525 -2015 0
1321 -1628 0
2593 -3347 0
2678 3505 0
-1615 939 0
1674 -1933 0
3128 1968 0
-364 -312 0
-3116 2759 0
-1158 -645 0
1557 -3339 0
-1665 -571 0
-918 -1814 0
-2090 -86 0
-550 1973 0
863 -196 0
-2769 1 0
2198 -1057 0
2589 425 0
-2653 3340 0
3228 2425 0
-2004 -782 0
831 2151 0
310 3021 0
2682 2916 0
2427 3248 0
395 -389 0
1234 231 0
2643 682 0
1071 1702 0
2812 2448 0
-959 -131 0
3011 -2079 0
-2284 -1397 0
1210 2540 0
-2552 634 0
2535 -904 0
1448 1720 0
2969 -471 0
3519 -926 0
2437 2805 0
813 -1632 0
3481 -1254 0
787 -3009 0
2444 1201 0
3062 -1735 0
993 1848 0
-1592 -503 0
-2931 2687 0
-2765 -2723 0
469 -158 0
-1474 -1309 0
640 -2858 0
2506 2920 0
-310 2049 0
2440 1318 0
3286 3069 0
-1087 -2169 0
-2963 -751 0
665 -2508 0
-955 2506 0
2672 2586 0
1177 -1990 0
-460 -3383 0
-176 -256 0
-1212 -2965 0
1219 -898 0
-3317 2310 0
2981 1008 0
-2357 1463 0
-1294 -1660 0
-3370 -1792 0
2341 634 0
627 1590 0
-3234 -2254 0
-1413 -247 0
-1571 2358 0
2526 -2933 0
-2324 1321 0
159 -294 0
-612 1423 0
-495 -1679 0
-2153 3354 0
3139 2865 0
2699 1187 0
-330 -1760 0
1480 -850 0
1282 -709 0
-1179 230 0
3056 -2199 0
-2785 3223 0
460 -954 0
-1470 -577 0
-2508 2915 0
-1821 2753 0
155 519 0
-3210 -2482 0
-2598 3035 0
-2410 1956 0
3134 -2685 0
-1515 164 0
-2596 -299 0
-2322 -1613 0
-655 -3159 0
-1277 -3037 0
-680 -3273 0
-1198 459 0
-75 -1074 0
-2615 643 0
-2113 1866 0
-1073 3158 0
-3128 1539 0
769 3130 0
2389 -1535 0
1347 -1042 0
-3017 2556 0
356 -28 0
-1923 -2963 0
-2029 -1696 0
-2375 1059 0
3021 -1781 0
984 -3104 0
2496 -2326 0
1025 2278 0
890 868 0
-2529 -1719 0
432 -815 0
-1738 448 0
566 674 0
-1836 2106 0
-3068 -2627 0
-1160 -2266 0
1634 3428 0
-3285 1316 0
2069 -2519 0
-1604 -263 0
-3471 2783 0
1277 -952 0
-276 -3500 0
-274 -81 0
-2955 -59 0
-3057 -3034 0
805 2062 0
1892 -3468 0
1782 -681 0
510 -1792 0
2034 -131 0
438 -1513 0
1170 -2780 0
2196 1721 0
56 -19 0
1127 331 0
2013 3325 0
1299 2322 0
-3401 -2460 0
3166 2459 0
2709 -3510 0
2405 247 0
-1906 290 0
-172 1038 0
-3327 1779 0
3062 3298 0
3008 156 0
-2464 1290 0
2939 217 0
-2605 2983 0
3144 -2837 0
822 592 0
-20 2318 0
-675 125 0
3262 628 0
460 2223 0
-1313 3414 0
-2542 1634 0
-817 -347 0
575 -2053 0
-2744 552 0
2003 2113 0
-3185 -924 0
1477 1722 0
307 -391 0
1025 1150 0
-1121 1223 0
1405 304 0
-1883 -491 0
-384 3431 0
-1940 -2493 0
2753 2152 0
995 -2119 0
604 -3403 0
474 307 0
-2723 -1376 0
-1927 1071 0
-2375 -2636 0
-31 -1054 0
14 1971 0
-1898 990 0
-2597 2622 0
2097 -1366 0
-3261 -3498 0
3342 1388 0
2465 1619 0
538 -3318 0
-1583 -1254 0
1900 -832 0
306 1996 0
252 -3475 0
2880 -1785 0
-2583 -1206 0
-2621 3069 0
-2178 2974 0
1210 679 0
-1709 2702 0
-77 -2745 0
3342 -3245 0
3307 -1750 0
25 -504 0
676 -1994 0
-2365 2987 0
2197 2749 0
-1534 -2104 0
2846 3256 0
835 -3358 0
476 -1365 0
2226 -2276 0
-1528 -3049 0
-2673 2743 0
-1525 3020 0
972 3171 0
-529 2371 0
-2011 -1605 0
223 -732 0
680 2258 0
2656 3266 0
3368 2921 0
-1807 2705 0
-552 3530 0
140 -821 0
-319 3472 0
395 -509 0
-3186 2484 0
-272 3088 0
2936 -1438 0
1463 -75 0
2156 963 0
2151 -548 0
423 3157 0
1406 3268 0
1313 1851 0
887 -897 0
-699 -2285 0
957 3038 0
960 -1521 0
1349 -1014 0
492 455 0
1385 2198 0
-423 874 0
1177 171 0
1754 2995 0
1475 -1110 0
2492 -550 0
2198 1128 0
-2192 1871 0
2977 366 0
-3443 -1117 0
-219 2305 0
-2547 3249 0
-1028 -1654 0
-981 3154 0
723 2019 0
1539 -971 0
-3089 1950 0
-3174 -2319 0
-2316 3511 0
2171 -389 0
2214 -3122 0
-3398 44 0
-3291 1723 0
2175 1110 0
1141 2490 0
-1398 -2234 0
-2527 381 0
1956 -1351 0
3053 -1951 0
1361 -690 0
-133 -3142 0
-1509 -3248 0
-702 1977 0
2925 2305 0
-1137 -915 0
1392 -3028 0
-832 -474 0
-1951 -3364 0
3492 -290 0
-2617 3410 0
3140 2076 0
1421 -2604 0
-3118 1458 0
600 -2689 0
1369 2530 0
-2627 2581 0
1848 -2204 0
2708 1051 0
-158 -3457 0
2044 2613 0
-247 1606 0
-2426 -559 0
839 -140 0
156 317 0
3228 2232 0
2419 2246 0
3383 -2901 0
-1497 1137 0
-2290 -1612 0
-2576 1796 0
1962 3277 0
1985 2386 0
-26 -3517 0
34 671 0
-1858 3112 0
-2878 -3335 0
-3256 -1830 0
-1784 2110 0
415 2510 0
2678 -933 0
140 2609 0
-496 3462 0
-724 3075 0
1500 3059 0
-246 -334 0
-3187 -1479 0
-1853 1991 0
-1819 -95 0
3434 2737 0
-1863 2965 0
-2108 -3102 0
-3299 -2866 0
-2474 3336 0
174 480 0
-1958 331 0
-370 -3196 0
1866 2719 0
-525 1970 0
2629 -2574 0
-1413 734 0
-2963 -99 0
-1850 2155 0
1067 2193 0
-3007 -2534 0
150 -2495 0
166 -2056 0
2168 2678 0
-3287 123 0
866 -2896 0
3018 -1788 0
-3162 442 0
-3244 1342 0
1334 -2936 0
-157 -3492 0
-1306 2827 0
646 -3464 0
-2936 2978 0
1378 -2458 0
-3288 -2888 0
-1692 -2742 0
-2550 3038 0
1568 2768 0
2890 -1631 0
2895 -6 0
1385 -774 0
-2975 -1294 0
3429 2907 0
-1522 -3110 0
-922 -926 0
-3203 -1998 0
614 3213 0
522 1160 0
2421 -1337 0
-279 188 0
2100 -615 0
-3441 -2714 0
-1875 -1616 0
3490 -2661 0
-1989 -2570 0
-3023 -1488 0
-2118 1808 0
-1612 3315 0
-2328 -1439 0
-2641 -1776 0
-1890 2622 0
315 1788 0
3428 1217 0
-2790 -2914 0
2510 -623 0
1229 -3060 0
-1 -718 0
-797 1742 0
554 -1876 0
3202 2927 0
-548 -328 0
1000 -3363 0
2273 997 0
1801 -1183 0
2223 2063 0
1752 1209 0
549 3107 0
982 2821 0
3526 -1591 0
689 -3044 0
-3162 -2542 0
979 -3288 0
860 1368 0
-504 2113 0
823 648 0
-3115 -3294 0
-1434 -675 0
1517 -1468 0
-3050 2929 0
-1951 -278 0
1002 1636 0
2275 -752 0
1994 2197 0
1899 2265 0
-2073 3211 0
-1021 705 0
-1492 -2564 0
1144 -482 0
-1782 -525 0
-2005 -2346 0
-2693 482 0
-1894 743 0
2985 -3244 0
2305 3174 0
385 931 0
2925 -2851 0
2650 -377 0
-3454 3263 0
-2896 -3394 0
1228 -1127 0
572 -1270 0
-2135 -104 0
-2126 -1446 0
1129 -2015 0
251 -68 0
-558 -297 0
2988 2859 0
91 -3214 0
-2773 203 0
-1423 3260 0
613 -2296 0
3096 -98 0
-312 -2674 0
3483 2356 0
-1119 2628 0
-685 643 0
288 3216 0
1371 1574 0
1723 285 0
2813 -291 0
-1925 -2884 0
-462 3522 0
506 1521 0
-1273 1709 0
566 -1588 0
2343 2338 0
3296 -820 0
138 3092 0
-2119 3418 0
2511 -3382 0
-3031 -2402 0
-3073 357 0
-1965 1809 0
3397 -908 0
6 -1673 0
-256 -357 0
-1865 2722 0
363 -1651 0
2076 3089 0
2241 -551 0
2368 -337 0
-3337 -2385 0
-2697 -794 0
2044 -2027 0
3439 2745 0
-174 -2499 0
1315 1142 0
546 -1763 0
2846 3342 0
2813 956 0
849 -826 0
965 -2549 0
2720 1100 0
-1627 -1008 0
-1281 368 0
1343 -2134 0
-1913 2129 0
-3496 1680 0
390 -1686 0
-2867 1834 0
-3164 1421 0
2286 903 0
1489 -2899 0
1948 -668 0
1478 2523 0
181 -987 0
505 -2076 0
-3372 1945 0
585 481 0
759 2842 0
1647 -2409 0
-2022 2140 0
-242 3135 0
194 -3460 0
-11 -1939 0
-2446 1124 0
2892 3214 0
1225 860 0
-2723 -566 0
-326 -1462 0
-1220 941 0
416 3450 0
-2950 3281 0
2579 2853 0
3509 -3303 0
2655 -955 0
-2253 3105 0
134 1916 0
-1072 -230 0
620 -1556 0
1708 -2261 0
1809 -2892 0
-1776 -460 0
1551 2005 0
-2015 -2299 0
3405 -2739 0
-1641 1164 0
705 1956 0
-3363 1 0
557 3373 0
-2610 1473 0
-1618 -2434 0
885 1215 0
-2637 1089 0
2046 1341 0
2847 3157 0
-1989 691 0
-2245 3250 0
-1442 1733 0
-2468 -1526 0
1712 446 0
3483 1105 0
1826 1266 0
709 -800 0
-3037 -1815 0
3232 -1488 0
1050 568 0
-560 -3266 0
2909 1312 0
-256 -2769 0
613 -2000 0
2510 -2670 0
298 -2817 0
-764 -1426 0
544 3286 0
-1657 -150 0
-1799 1888 0
1743 -895 0
-2603 3391 0
-1889 -54 0
2737 2946 0
-925 -794 0
-877 -3498 0
211 -1885 0
-2217 -930 0
3456 -491 0
3419 -3184 0
-3228 2866 0
-304 -3109 0
-1238 727 0
-1413 2883 0
-3239 586 0
484 3299 0
2002 2319 0
-770 289 0
-3126 -218 0
1628 2867 0
-589 2322 0
949 2456 0
-98 -2871 0
698 -1414 0
-3074 1187 0
1650 -2934 0
-3242 2872 0
-2968 -1381 0
3368 992 0
-1296 -1588 0
-759 -3025 0
168 888 0
-2540 3022 0
748 2235 0
814 1946 0
-2683 861 0
3365 2150 0
-214 725 0
3413 238 0
1539 -2230 0
2406 -1785 0
3502 -1446 0
-2149 -2971 0
-132 -1080 0
1856 2304 0
352 3155 0
2427 -1549 0
2925 2840 0
399 -1877 0
3154 438 0
-2703 331 0
1193 3003 0
-272 1326 0
1516 1736 0
-1126 -3089 0
-2558 1574 0
-1390 -3363 0
-14 -2204 0
1107 -644 0
90 3128 0
1369 217 0
-3339 -3162 0
-2534 -431 0
2391 2806 0
-230 -1526 0
-1228 972 0
2946 -2414 0
3194 -3379 0
3163 -2192 0
96 3343 0
-229 3369 0
-1818 -653 0
2405 -853 0
-2796 -2176 0
-2770 -1142 0
1085 -1228 0
-899 -431 0
2188 1339 0
2738 -3306 0
2967 -2390 0
-2872 1334 0
2607 -1414 0
516 -1490 0
281 2376 0
-1609 -1593 0
960 -811 0
562 -1439 0
-2507 -2870 0
-1413 -121 0
2371 883 0
-3523 2360 0
-2158 -2200 0
3031 -845 0
3362 1900 0
1405 -1342 0
-2449 -3016 0
1627 120 0
-718 -732 0
2512 190 0
182 2371 0
-2956 -904 0
113 -1624 0
-2088 -289 0
933 -671 0
-2923 -2110 0
1012 1617 0
-1262 2545 0
1162 -3278 0
-1521 -69 0
-1032 -43 0
-1197 -255 0
2889 -2104 0
-1417 -1366 0
272 -1328 0
1241 2821 0
1638 -1413 0
-2711 -145 0
2215 -234 0
2407 -3141 0
2519 260 0
1023 -1828 0
-2766 -2622 0
3501 74 0
3486 3380 0
256 3337 0
3058 1862 0
-2685 -214 0
-3096 -2649 0
2786 -899 0
970 3234 0
-178 -887 0
274 2892 0
1527 2403 0
749 885 0
1649 1539 0
-3027 2420 0
-273 832 0
-2302 1647 0
-666 -1639 0
1582 -1909 0
1765 -393 0
-1976 2071 0
1680 1123 0
-400 -2763 0
494 300 0
2470 1136 0
-93 1644 0
3197 -318 0
-447 -3271 0
1086 2804 0
2589 -410 0
783 -2286 0
-1593 2769 0
1321 2137 0
3435 3400 0
-1849 -2326 0
-262 -697 0
-3426 -1435 0
360 2649 0
-1052 -2472 0
2223 2891 0
-1909 201 0
-2385 1279 0
959 3451 0
2882 -2111 0
587 -844 0
1004 -1119 0
3064 1491 0
2242 1823 0
1825 -2852 0
-699 2014 0
-745 2362 0
665 -2074 0
2475 -2720 0
3227 116 0
1636 -2959 0
3502 -157 0
2305 -1413 0
-2276 -1974 0
1936 -2021 0
-1730 686 0
-3047 -1177 0
-1889 1067 0
238 -1156 0
-2050 -2473 0
1837 -1316 0
2490 806 0
1810 -2551 0
-536 552 0
-3193 2691 0
-1676 -2587 0
-1167 -2999 0
-1447 765 0
1485 -171 0
-108 82 0
3035 -3374 0
-1494 -571 0
-3061 3185 0
3335 -1906 0
1052 -2858 0
-3068 2908 0
-2400 1609 0
553 688 0
755 -56 0
-1350 -3170 0
2880 -139 0
2742 369 0
3003 276 0
-3016 -2135 0
3433 -2863 0
-1512 -2852 0
-878 -2631 0
2722 3154 0
1234 -180 0
-1276 1793 0
-2490 -1914 0
-2262 2853 0
-673 -2090 0
2221 -3379 0
-2527 2140 0
826 2607 0
-759 1362 0
2048 3121 0
2730 -2776 0
-3351 1816 0
2571 -1204 0
-2045 1418 0
188 3530 0
-3172 -1246 0
-81 -2507 0
1469 2014 0
-2684 -2195 0
-1692 -2911 0
-804 -1452 0
1358 -1745 0
-1249 241 0
-1926 -420 0
-1029 -131 0
-1353 -716 0
-1263 -169 0
588 3300 0
1590 -410 0
-1179 -1012 0
-3131 2108 0
2606 -2556 0
2476 -975 0
-866 2000 0
2431 -204 0
2359 2189 0
2425 -292 0
1945 2984 0
1277 -1482 0
-604 39 0
-1241 2375 0
-1180 -2007 0
-2552 -2002 0
-1301 -295 0
-2234 2207 0
-1763 3400 0
2045 -1929 0
-413 742 0
-727 523 0
-2006 -2438 0
-1690 -924 0
1458 1937 0
1523 1267 0
-2124 2212 0
1970 -2729 0
-1999 -1588 0
437 1507 0
1328 341 0
-1795 2002 0
-524 3367 0
-1026 -3337 0
-2026 2823 0
1448 -754 0
1934 -2570 0
1877 2752 0
-340 1124 0
-647 351 0
-3069 81 0
-484 780 0
-918 -2188 0
273 -3517 0
2682 3051 0
1954 -2321 0
-60 1192 0
789 885 0
2607 821 0
1133 -2807 0
352 -2564 0
1088 -1357 0
1498 859 0
1434 3139 0
3337 -3442 0
91 2171 0
-2735 1454 0
1350 1264 0
3110 238 0
535 -2764 0
1558 -2169 0
3254 1227 0
597 3164 0
719 -1649 0
-2160 -1599 0
-1702 -2694 0
-265 -759 0
-2822 642 0
1538 -190 0
-185 -3267 0
-707 2141 0
3164 -3096 0
-240 -2368 0
-2275 1743 0
2968 3213 0
870 -3116 0
-2942 -521 0
-1820 -1092 0
-3486 389 0
3019 307 0
-1880 3476 0
-2209 -1350 0
2059 -1594 0
3411 1339 0
-1479 -1233 0
120 1084 0
-1289 -1770 0
824 -1461 0
1774 2328 0
303 1482 0
3166 -1340 0
-2875 2711 0
76 3447 0
1850 -1246 0
-2648 1210 0
-1545 528 0
-813 -316 0
2029 -2843 0
1905 3098 0
1715 -1511 0
-197 783 0
-84 3000 0
1418 2339 0
-1554 -237 0
-1656 -1999 0
-2105 540 0
2246 2851 0
-910 2829 0
836 -2257 0
-655 -1180 0
-3319 833 0
-1403 464 0
2514 -1678 0
3497 2869 0
-2524 3319 0
-968 -3521 0
3084 -2492 0
1441 2096 0
-1119 -1929 0
-1950 2577 0
-3513 1555 0
-2396 3276 0
-2097 -3274 0
3084 -410 0
508 1199 0
2034 1239 0
462 3469 0
1060 2002 0
1086 -3452 0
-2153 2227 0
2511 3180 0
-2488 384 0
-74 -1547 0
2008 3356 0
2868 1104 0
1902 2145 0
2982 -11 0
-483 3332 0
-582 1849 0
3462 1930 0
-1151 1965 0
2957 -1427 0
-2219 -1903 0
-255 1794 0
-748 -27 0
557 3186 0
-700 -1287 0
-1043 -1622 0
-2899 -1116 0
1720 -1454 0
-1303 -184 0
-1216 -1404 0
-1442 2844 0
2328 -1108 0
2990 2359 0
760 638 0
-1887 -1941 0
-918 2543 0
-2658 1410 0
502 -1055 0
-2769 -1436 0
-2205 729 0
1883 -1012 0
1828 2985 0
2990 -3132 0
-3061 -1165 0
-2409 -2407 0
-246 717 0
928 -844 0
2404 -3275 0
2519 -3274 0
3093 -379 0
-1292 1281 0
-917 -3410 0
1151 -3188 0
2904 2802 0
179 -2313 0
-2303 -834 0
-571 -324 0
1169 -817 0
-1041 1891 0
1535 -1672 0
-1791 860 0
2243 -2954 0
365 1294 0
516 2381 0
3214 -1433 0
-170 -1779 0
2648 1299 0
1658 -2180 0
941 368 0
-1920 -1717 0
-2328 2672 0
1246 -2335 0
-2216 1771 0
3103 251 0
2718 637 0
-3126 -717 0
1767 2250 0
-161 175 0
1207 -2594 0
-396 -1489 0
-419 1482 0
2360 -869 0
2945 766 0
-2763 -1425 0
1875 -835 0
-1120 1708 0
-1592 -3340 0
1681 -3188 0
727 1754 0
3282 -2597 0
2033 -1966 0
3528 -66 0
-2615 -244 0
1190 -1872 0
-206 -585 0
-1272 -1837 0
-2508 923 0
-3208 1906 0
2110 -2675 0
3366 -1233 0
-2960 2515 0
-178 1673 0
-2224 -837 0
1314 2348 0
2998 -3236 0
-1011 2537 0
-896 3456 0
1718 -2803 0
1324 2028 0
2066 -1271 0
-3290 2063 0
505 -576 0
-2471 -818 0
-3135 58 0
-2143 -3204 0
-710 3435 0
-1750 3312 0
2753 -904 0
26 2442 0
1892 -3376 0
-1821 -2559 0
-3473 -741 0
-1675 1378 0
-3488 -979 0
-2867 2997 0
-281 -1234 0
-234 -3207 0
2219 -1881 0
-2633 1454 0
3082 -1329 0
1400 3355 0
1373 -277 0
-2965 -1332 0
-2104 741 0
-3020 2236 0
2196 -382 0
519 499 0
1333 234 0
-2548 1163 0
1737 -2139 0
815 -2981 0
-1374 2242 0
1333 -580 0
-3444 3414 0
2975 -2458 0
1971 -537 0
637 -3335 0
-2537 297 0
1746 3356 0
3239 1990 0
-402 -3266 0
-1091 -1985 0
2072 -3158 0
-2390 -2642 0
3232 2450 0
2214 3300 0
-2261 -3059 0
-3358 1972 0
-2174 3044 0
2044 2459 0
1472 2434 0
-878 -656 0
685 1787 0
2987 -2774 0
-2497 98 0
1297 1675 0
-796 103 0
2461 2628 0
-2929 2815 0
1769 -2090 0
-3265 -1102 0
-2285 -2556 0
3189 -1385 0
1228 2987 0
-685 -85 0
1269 2510 0
-975 317 0
2844 2722 0
-2534 -1891 0
2825 554 0
2553 3334 0
-2640 2381 0
-1641 1080 0
-98 1378 0
-1730 -2800 0
2952 2877 0
-1583 665 0
-2487 -1759 0
706 2580 0
1098 2366 0
-1104 -1155 0
451 812 0
-2785 1891 0
2388 2443 0
-1007 953 0
-2734 2470 0
1294 3302 0
616 -714 0
-435 -753 0
2801 3129 0
764 247 0
2755 2768 0
-2723 -1240 0
215 514 0
-1657 -2779 0
-511 158 0
593 -1970 0
2287 -2763 0
-610 -980 0
2273 -3291 0
2189 -3523 0
1 1796 0
-973 3412 0
-1443 2775 0
-1563 1266 0
-1733 -1623 0
-3436 2948 0
1173 -2579 0
1358 3276 0
2684 -1519 0
2404 -2223 0
-3342 2788 0
768 -2694 0
-2507 -2603 0
-753 3290 0
2445 -2610 0
-756 -2251 0
440 2703 0
1589 -1641 0
-3485 -590 0
2062 3515 0
-529 -3473 0
-3032 -3333 0
3430 2735 0
2426 -1515 0
2997 228 0
3362 -438 0
-3299 -1786 0
210 1403 0
812 965 0
-849 -3251 0
-548 -394 0
-2190 -1678 0
3504 -3119 0
-1597 1801 0
1565 -391 0
854 -1787 0
3186 2360 0
1716 -1354 0
-142 2547 0
98 2928 0
1146 -104 0
-991 1104 0
2312 3058 0
3339 769 0
1887 2376 0
2374 -528 0
3436 -1439 0
-3275 117 0
468 1102 0
1663 1238 0
1668 -3451 0
279 -1150 0
-2278 -1555 0
2210 -36 0
1539 -257 0
-3339 -3312 0
1947 1779 0
533 -3321 0
-2627 -3322 0
-1935 -2926 0
362 -2335 0
-1740 1662 0
-1686 -497 0
-3067 3467 0
-285 1666 0
1493 1438 0
1460 -1340 0
-627 -2491 0
-744 -1882 0
-1 1824 0
-1120 -3385 0
2984 2114 0
-1681 1032 0
2029 2440 0
2788 -1443 0
-186 288 0
2941 -1806 0
1055 -1337 0
-3373 624 0
2103 -2017 0
-1910 2150 0
-1077 1211 0
2364 1539 0
-3023 1456 0
1166 74 0
-2202 -145 0
2684 -1836 0
-358 2645 0
-2485 -152 0
-1768 -1301 0
909 2342 0
1919 -1394 0
2086 2007 0
2120 3387 0
-1078 2232 0
-2771 1940 0
-1820 -1101 0
676 1040 0
1193 1669 0
-3025 1600 0
2309 -1307 0
-3114 -3150 0
-3220 -2745 0
63 -3306 0
805 -2858 0
-272 2129 0
3083 -2005 0
3022 3177 0
1208 895 0
-2340 3154 0
-73 2995 0
-3339 1079 0
1178 -1464 0
-2411 -316 0
-2184 -3427 0
1441 -1146 0
-695 -2720 0
-1841 -2847 0
-1119 2878 0
2565 -2354 0
3091 592 0
-789 -2390 0
1139 -956 0
-2324 2535 0
2461 2066 0
1672 -674 0
2106 2558 0
472 -415 0
-1535 3118 0
1583 -2601 0
-1553 3486 0
-2871 -1000 0
-1137 1675 0
-3062 -1077 0
-3375 -2963 0
-2050 -2889 0
-2367 3231 0
2903 -2087 0
3254 -2189 0
2790 1093 0
2057 482 0
-2588 1010 0
2507 -3326 0
1566 -2881 0
1926 -1110 0
548 -2142 0
-1334 1783 0
-1059 2032 0
3232 1619 0
-73 676 0
-2775 -1113 0
-101 -2142 0
-2507 1462 0
-1881 2087 0
-2618 -602 0
207 188 0
-2452 2406 0
-2464 -3314 0
1661 924 0
-1331 -1348 0
-2320 2925 0
2167 1232 0
-3282 -170 0
2391 -1947 0
-3502 3344 0
-1962 -2184 0
2235 2890 0
2361 2844 0
3458 2684 0
-571 2233 0
1123 1477 0
2378 -494 0
2925 -2919 0
1038 2418 0
-1747 2394 0
-2621 150 0
2674 2972 0
-777 1967 0
2480 -851 0
-1519 1542 0
3069 -2694 0
-2633 2028 0
-3506 1079 0
-3017 2445 0
-3410 3052 0
1966 3113 0
955 -2432 0
528 70 0
1656 -2300 0
1143 -1871 0
15 -429 0
-1890 -2554 0
-523 554 0
3488 -1127 0
2417 -2429 0
-1378 217 0
-3524 2345 0
3033 -2062 0
-221 -2439 0
-346 -2188 0
158 -1185 0
2510 766 0
2612 3035 0
2718 2053 0
3275 -2339 0
-4 1556 0
-2235 -3266 0
1177 -286 0
-1061 3510 0
2389 -1486 0
-1397 -2845 0
3087 2281 0
-1849 -1459 0
-333 6 0
-1701 3091 0
-848 1882 0
-634 -2382 0
1617 3337 0
317 -2298 0
-173 1934 0
2573 187 0
-967 -499 0
-3132 -1377 0
2536 3477 0
1178 2039 0
103 231 0
3107 -1850 0
-1747 -1001 0
1902 580 0
455 -2292 0
-1770 1382 0
261 -1159 0
-1679 2662 0
-1382 -518 0
-1918 2203 0
-755 3136 0
1840 527 0
-169 -1268 0
952 -2846 0
-246 2047 0
1333 -506 0
-3462 1928 0
831 -1293 0
-1987 841 0
14 912 0
-3184 1141 0
-2315 -3338 0
-2399 183 0
-2203 -1792 0
-2339 526 0
-2821 -2980 0
-998 1498 0
1385 995 0
-1831 2294 0
1466 1169 0
-3238 375 0
982 -1004 0
1455 -2673 0
2891 1685 0
439 3386 0
1961 2226 0
211 868 0
-1159 2993 0
-3487 1063 0
3286 -92 0
-1080 -501 0
2503 -2920 0
-2614 -2345 0
2462 -2321 0
2388 2334 0
-1639 -46 0
-2229 -3360 0
-2335 3456 0
607 -389 0
-2472 -1149 0
1295 2630 0
3015 1900 0
-2311 2270 0
1905 1889 0
-2533 -3082 0
1850 -2067 0
1224 -1757 0
575 1229 0
-2778 -3451 0
916 -3226 0
-2555 -162 0
1396 -1122 0
-371 505 0
2950 3078 0
3281 1051 0
-876 2931 0
365 -210 0
1425 763 0
2518 2162 0
-1140 3053 0
2789 706 0
-995 -753 0
-2932 3058 0
2398 2058 0
53 -1379 0
-745 -11 0
-1614 -2244 0
581 -2423 0
1327 -111 0
3437 -2859 0
-751 -1346 0
355 -2934 0
2314 -1226 0
241 -2342 0
-110 -2864 0
3173 867 0
2059 825 0
239 3455 0
40 1197 0
-2403 851 0
3469 2251 0
3448 -1623 0
91 1432 0
-2571 3013 0
-328 3189 0
-2637 223 0
1821 2973 0
-1157 -2213 0
1239 -2827 0
2552 -1284 0
-1016 -1216 0
-2868 3247 0
2330 -3385 0
287 -1845 0
620 -2075 0
414 2022 0
-3443 2661 0
2818 -27 0
-2840 2230 0
-722 2766 0
1027 456 0
3369 1293 0
3077 1930 0
-3328 2956 0
2803 -2436 0
-1762 -3055 0
616 2703 0
261 -3179 0
-769 1298 0
-3066 -1485 0
-2165 235 0
-1239 3260 0
-1551 2239 0
-252 3146 0
1665 746 0
-3164 -1244 0
-32 -169 0
-2495 3235 0
-602 -110 0
-2453 -2799 0
-1394 1742 0
-1700 -2780 0
-3039 -1371 0
-318 1054 0
2140 -1373 0
-1604 -3458 0
1373 3274 0
2611 -1559 0
-2172 2916 0
684 3376 0
913 1302 0
2306 1906 0
2111 -1293 0
2059 -463 0
-287 2415 0
2804 -2945 0
-2209 -3246 0
-736 -579 0
-1371 -3463 0
-3176 3095 0
-1725 -971 0
3403 1564 0
-2628 2731 0
921 1119 0
1089 -1323 0
-785 -665 0
2100 -1672 0
319 715 0
844 -2042 0
-2599 -421 0
3184 -52 0
1269 2888 0
1384 -3497 0
-605 1650 0
-3352 1609 0
-602 -2650 0
697 -879 0
-827 -3463 0
1710 -55 0
-2488 -835 0
-3322 -97 0
611 3092 0
-2251 231 0
309 -3462 0
-3390 -1851 0
280 754 0
1796 -3208 0
3126 2135 0
-1635 -3163 0
3263 -3243 0
2215 -2883 0
-708 -619 0
-196 592 0
3486 -2480 0
-581 -2189 0
1067 1995 0
-1281 -1966 0
620 -1025 0
-1326 329 0
3530 3351 0
-1513 312 0
3211 -2173 0
1847 -2644 0
-2583 -1848 0
-866 2024 0
-3008 2976 0
1625 -2566 0
3362 -104 0
1036 -1780 0
-1383 921 0
657 1716 0
3118 -3340 0
-1989 -2969 0
-790 705 0
-199 -56 0
991 553 0
1264 3284 0
-1129 165 0
-1454 3276 0
446 -2473 0
-1303 -2704 0
-582 -1268 0
-3206 2627 0
-2194 -1671 0
2908 2515 0
2389 1733 0
2903 3037 0
-151 -2015 0
-1784 -1967 0
2484 -381 0
2533 -3366 0
-2230 1249 0
1533 -2839 0
1904 1735 0
2053 -2787 0
-3364 -417 0
464 -978 0
-50 -381 0
-774 1749 0
-2810 -155 0
620 2482 0
-2845 -1670 0
693 -370 0
652 -1811 0
-2837 2289 0
-1429 -3103 0
1339 1353 0
-2602 -3505 0
-2634 210 0
1423 2941 0
-2277 -2530 0
-296 -731 0
499 -3415 0
-28 2946 0
-1681 315 0
-2714 -1461 0
-450 802 0
1622 -1407 0
544 -3084 0
-3163 1523 0
-1260 3521 0
-2876 1261 0
1124 -23 0
-2184 274 0
1131 816 0
-1927 -1942 0
1950 429 0
2352 2885 0
-2291 672 0
-1875 2004 0
-2619 -1611 0
1240 3510 0
1665 3111 0
-2623 970 0
1799 -2969 0
1562 -2870 0
-1628 168 0
-2274 -1136 0
820 479 0
432 1911 0
-1066 -1095 0
-106 -2030 0
37 3010 0
-3428 3521 0
3 -3433 0
-2808 365 0
2315 1131 0
2146 426 0
-770 -767 0
-347 969 0
3114 -3102 0
2466 1082 0
-2127 2857 0
-2135 -51 0
633 2948 0
78 -2589 0
-7 3241 0
1170 -2633 0
340 -3097 0
-3487 3272 0
-3402 3247 0
-541 1070 0
-2254 327 0
-1274 -2385 0
-1714 1702 0
2005 640 0
2332 1406 0
-255 375 0
-2092 -2071 0
-1436 -3060 0
3174 -1898 0
2003 -3265 0
791 -3412 0
3260 781 0
-974 1888 0
-1802 -909 0
-224 3381 0
2612 2638 0
-3409 2713 0
1048 -2633 0
-2084 564 0
1973 -1359 0
3114 -483 0
2488 -1142 0
2283 2963 0
665 1159 0
-374 -3293 0
1511 1912 0
-2576 -966 0
1660 2318 0
3174 -1055 0
-7 345 0
-2393 1863 0
-1992 2807 0
-866 1065 0
1344 1939 0
-2314 -2012 0
2263 -2085 0
737 -3495 0
2291 -172 0
2082 676 0
1729 2614 0
-409 81 0
2130 3503 0
1154 -408 0
-2524 1412 0
-336 1822 0
-2158 2493 0
-3019 3365 0
-2449 1610 0
-388 3033 0
1480 690 0
-774 568 0
-1058 1607 0
558 1769 0
-146 -2096 0
1496 -1316 0
-1547 -2390 0
1305 386 0
2853 -158 0
-1474 -1285 0
3341 1773 0
75 1985 0
-2519 23 0
3109 -2552 0
2404 -1351 0
1269 -2476 0
3090 -1027 0
985 -641 0
2704 2941 0
3361 -1119 0
2163 -241 0
-964 -140 0
155 3269 0
-2418 519 0
2838 -2736 0
1240 993 0
599 -3331 0
467 -455 0
-3057 -556 0
-2261 2916 0
-1337 -43 0
2408 -830 0
1727 302 0
2037 808 0
-1395 -1463 0
41 3461 0
-3306 810 0
-799 2263 0
1563 1680 0
-1889 3521 0
-1143 -3120 0
-2778 2315 0
1109 1341 0
2736 3499 0
2535 -2361 0
-1483 -2608 0
-89 -3464 0
2618 1287 0
-3518 -279 0
2318 2791 0
-917 2614 0
-1807 107 0
3361 2869 0
-3528 1024 0
-826 1803 0
-2347 993 0
121 2620 0
-2694 135 0
-1125 -91 0
-3026 -1124 0
-68 580 0
-3244 3132 0
-1102 -2735 0
3389 1285 0
-697 1453 0
3156 -2598 0
-113 1626 0
311 -216 0
2052 451 0
2964 3444 0
-748 -113 0
2087 -1547 0
-1070 2470 0
3352 2919 0
-464 2687 0
1726 -1811 0
-786 726 0
-1147 -2861 0
2355 181 0
1154 2588 0
2093 -3180 0
-3276 864 0
-3454 1776 0
2984 -3338 0
2106 1312 0
2019 3519 0
427 -2077 0
-2149 -1880 0
-1846 -1593 0
-901 -2251 0
-1052 507 0
-1355 -2180 0
-3246 1652 0
-2597 -2379 0
-254 -3125 0
2130 842 0
-644 -1195 0
-1028 -2941 0
3001 -2507 0
2076 -2622 0
3345 -741 0
1869 -1151 0
157 694 0
-2436 1239 0
-548 2064 0
-3151 2973 0
577 774 0
-2755 -2932 0
1228 1578 0
-1699 -372 0
2895 -2211 0
3112 -2807 0
1050 -1890 0
891 -2219 0
-1245 2489 0
2545 -1153 0
1437 -1271 0
-2375 -3185 0
-609 2330 0
-1618 1738 0
-3042 -2411 0
-1565 -2029 0
2109 -2357 0
2967 -3132 0
3173 -1345 0
271 -1921 0
-613 -1205 0
-472 1990 0
2917 -531 0
-2237 -717 0
-30 -347 0
-2104 2375 0
3085 -264 0
2563 -1121 0
2513 1023 0
354 1836 0
-3309 2687 0
661 155 0
-3349 1901 0
-3508 -366 0
-567 2731 0
-2254 -557 0
-1223 2518 0
1905 1994 0
663 585 0
2360 -1923 0
3240 1705 0
280 -606 0
-245 -1784 0
-2519 -2713 0
-2637 2380 0
-2127 1378 0
1172 -2876 0
1652 3173 0
-675 -3238 0
1282 -1933 0
239 -860 0
3011 -1933 0
-2925 1199 0
-1875 -2520 0
-1879 -95 0
652 2016 0
829 1997 0
-1430 -2662 0
3320 -2507 0
3185 887 0
-2135 511 0
-1632 969 0
-1814 -2476 0
-716 3267 0
-1623 -2070 0
-2177 -2569 0
-316 -787 0
-135 -204 0
-1176 986 0
-1825 -3502 0
2278 -106 0
1830 509 0
-2097 1107 0
-2335 1222 0
1075 -1296 0
3517 -3149 0
-776 2252 0
28 2981 0
1398 -2774 0
-3477 -1064 0
360 1210 0
3002 3109 0
-1542 512 0
-1215 -1678 0
593 1419 0
2940 -2226 0
-2056 2824 0
-155 2064 0
299 -786 0
2954 911 0
1914 -777 0
-784 1098 0
-2960 -3202 0
-1853 2736 0
2001 3496 0
327 2401 0
3513 2360 0
-1820 1328 0
-2766 -1229 0
-81 -2685 0
3358 -199 0
1339 2180 0
-47 299 0
-2558 1679 0
-343 1347 0
-2585 351 0
875 -2547 0
-415 1076 0
-2485 -1710 0
1607 18 0
-45 -3416 0
2917 1283 0
-2455 1508 0
-911 1735 0
-788 -1458 0
372 1781 0
2490 -825 0
-2771 -304 0
-891 1384 0
-2765 -1204 0
-2549 -2980 0
911 1318 0
-60 -2841 0
513 3058 0
807 2946 0
700 -1357 0
2150 -600 0
1644 3306 0
252 3344 0
731 2587 0
-443 -2749 0
-3200 -934 0
468 -1869 0
-3229 -1216 0
-3474 -14 0
2622 1133 0
2795 1285 0
2517 -1363 0
2249 815 0
-577 -237 0
-1901 76 0
-2006 -2430 0
327 950 0
-1631 3107 0
3412 -1951 0
603 1844 0
2610 119 0
1032 3369 0
-668 2503 0
3090 367 0
597 710 0
1402 2375 0
-2213 1330 0
-1579 -2200 0
-2898 3089 0
-2115 -1358 0
3270 -3084 0
1353 -1123 0
-29 1401 0
-1868 1090 0
-1578 1887 0
-967 -430 0
1400 -880 0
-1813 -1625 0
-3004 -2863 0
2927 2731 0
-1457 1968 0
1382 2019 0
-1274 -2051 0
-814 -2395 0
-2116 -206 0
-1236 51 0
-1206 1105 0
2075 2232 0
2538 -3162 0
2552 -2906 0
-828 2326 0
3414 -3105 0
2059 3419 0
123 -603 0
2166 344 0
674 1566 0
-3363 -1890 0
-2478 -2365 0
-611 -2914 0
-475 2062 0
2182 -1712 0
-812 3387 0
-1217 -3426 0
2119 2408 0
-1130 1433 0
728 -761 0
252 -2958 0
-2610 315 0
1268 -2814 0
-2192 1143 0
-1974 3033 0
-1392 -2206 0
2829 -2850 0
-374 3012 0
2823 -1527 0
2341 -2632 0
2003 2889 0
228 1866 0
-2139 -1137 0
3113 2414 0
3238 -2683 0
-1669 1161 0
-981 -3146 0
-770 -1603 0
-346 -1537 0
-3036 -1833 0
1525 -1922 0
1586 1199 0
-1963 -3206 0
-2899 -1943 0
3063 817 0
-943 509 0
-803 -1677 0
3456 -1560 0
-2008 -2771 0
3410 -139 0
2647 -1153 0
-879 -926 0
3309 -1475 0
3337 -2006 0
939 512 0
535 1625 0
-2400 -1134 0
-2439 -1461 0
-1459 2365 0
-2602 2209 0
2820 -920 0
1720 -158 0
-2555 156 0
-1801 -1701 0
3031 524 0
423 -2217 0
-221 -532 0
2696 2098 0
3182 -1109 0
2557 -704 0
-1008 1753 0
2701 407 0
-3317 1083 0
3387 1173 0
1199 -1449 0
-2607 -388 0
-2419 2561 0
-3028 -1577 0
315 962 0
-5 -1301 0
-2301 938 0
2642 -172 0
-536 -1584 0
2023 171 0
-2338 -358 0
766 -2127 0
-1946 468 0
1749 -487 0
-591 1581 0
-379 -2937 0
-2893 2541 0
2411 1874 0
-1365 -2400 0
-1294 -1952 0
-2891 -1700 0
2142 3192 0
2396 148 0
284 -2651 0
-2253 -3321 0
-2353 3067 0
-2033 -2266 0
-3215 -1662 0
1422 -2734 0
167 2181 0
2767 -3085 0
-545 -2871 0
-128 -2288 0
2367 1908 0
-100 -388 0
573 1023 0
3290 -1120 0
-2501 397 0
2 3414 0
-1732 3499 0
-2405 -2505 0
2526 -1128 0
1509 892 0
-810 820 0
205 1258 0
2709 -391 0
921 1956 0
-3111 -967 0
1377 -701 0
-379 3188 0
2372 -831 0
1237 3341 0
600 -2279 0
3002 -2471 0
3086 -1974 0
-1947 1642 0
2115 -1425 0
704 -3251 0
239 927 0
1061 3085 0
-2550 2087 0
419 2367 0
-1492 -2727 0
1610 1308 0
-1132 -1072 0
1802 -149 0
61 -3077 0
-405 328 0
663 -591 0
-1373 3281 0
-2249 2210 0
1598 1953 0
-951 -1410 0
-3408 -3040 0
2544 -3078 0
2475 358 0
-2395 2969 0
-2547 868 0
2484 2034 0
452 -920 0
-1041 763 0
2952 1034 0
-2473 -2261 0
-253 995 0
2341 -2930 0
3301 -2796 0
-1164 -3141 0
3469 820 0
-445 243 0
-2225 188 0
-2463 3308 0
-615 3483 0
2245 632 0
-248 3059 0
1737 1450 0
1968 -2485 0
1608 2741 0
3053 -453 0
-5 -1252 0
2223 -534 0
1534 665 0
-1186 -1198 0
-818 2216 0
-1518 755 0
437 771 0
310 -2920 0
1779 -1311 0
-1034 -99 0
-571 -1180 0
2649 -1884 0
1606 -19 0
-2582 2749 0
-2555 -2735 0
-3236 -1826 0
-3426 656 0
87 1398 0
1654 -958 0
-2433 24 0
1118 1095 0
-751 804 0
-2348 2445 0
403 221 0
1915 -1732 0
1775 2475 0
2259 2018 0
-2615 -2530 0
1646 2709 0
-2808 -3372 0
1165 3199 0
3252 2052 0
576 -397 0
-634 -3379 0
1433 -1000 0
776 -1453 0
1319 -2738 0
-3304 374 0
3367 1947 0
-1896 963 0
670 -1910 0
2597 1287 0
617 2377 0
-1320 2479 0
1514 1900 0
-460 -3502 0
-2575 3379 0
1556 -47 0
912 -2569 0
134 -2884 0
-1725 602 0
581 -2108 0
2698 3020 0
2786 1662 0
3065 -1156 0
-2437 -358 0
-1115 3436 0
-2664 3284 0
2177 720 0
2743 1107 0
6 464 0
-94 1483 0
3435 2334 0
1852 30 0
-601 2117 0
2135 780 0
-142 2982 0
-3374 2293 0
-1963 -2095 0
-2493 -11 0
-1324 678 0
-1019 461 0
-2009 2815 0
2728 2520 0
-1438 2665 0
-2258 1652 0
3074 -820 0
2926 676 0
-1951 -622 0
810 2541 0
123 -971 0
2112 1039 0
2277 1460 0
-1048 -897 0
1915 -2527 0
479 2328 0
1380 1065 0
887 231 0
-736 -1063 0
-3039 2973 0
-2192 1487 0
2797 -3311 0
570 3170 0
-2179 1956 0
1428 1569 0
-3004 811 0
7 -1700 0
-1909 -529 0
-1593 3221 0
-1594 -1671 0
-2807 1563 0
-1466 -2286 0
-1271 3387 0
-3158 3396 0
2047 1411 0
-2400 3284 0
-961 90 0
-724 2859 0
-874 2152 0
1268 -1097 0
2205 2477 0
3276 -2366 0
-2531 -3364 0
858 -1531 0
824 -1733 0
-1441 3290 0
3529 2750 0
1929 2996 0
-3285 -682 0
2242 -1697 0
-374 1710 0
814 2110 0
-2029 2360 0
-2324 -125 0
-2576 -59 0
3495 2157 0
3022 -2296 0
2310 -534 0
-3108 1069 0
-380 341 0
-338 62 0
2295 3446 0
932 -2898 0
-323 760 0
468 2922 0
-1490 -646 0
-3338 2830 0
-1863 2887 0
-376 1485 0
-1509 -2535 0
-2412 2502 0
75 -2286 0
3309 -505 0
36 -1297 0
-2067 -962 0
623 3473 0
-231 319 0
1745 -925 0
-717 2214 0
-137 2967 0
829 3095 0
430 2392 0
1986 -2892 0
1510 -3300 0
2733 583 0
2609 1355 0
-723 -1271 0
-1350 -915 0
3194 1950 0
2276 289 0
3111 1527 0
2757 -276 0
-230 -323 0
805 2989 0
-3195 -1373 0
-650 3079 0
1742 2845 0
1607 -941 0
2059 -2845 0
-690 341 0
-2432 807 0
-2961 -2700 0
1507 1305 0
-551 -1497 0
-2814 3449 0
1322 3107 0
-1223 -1590 0
-1175 278 0
2001 -666 0
-1846 -3444 0
-2861 3458 0
-406 -819 0
956 -1927 0
-1691 -817 0
-1862 -3487 0
-1412 -583 0
-1804 821 0
-2738 957 0
-773 -2124 0
-1747 2781 0
-1273 -227 0
-2808 -822 0
3411 -3268 0
-1896 -51 0
-2867 1329 0
-3177 -203 0
-3331 -3220 0
-2204 1024 0
200 -1481 0
2061 -2299 0
1384 -2938 0
1570 -2209 0
-3117 -2129 0
3156 -2411 0
3463 -2468 0
-675 2526 0
-3284 688 0
3388 -2229 0
1682 804 0
-3169 -1512 0
364 -1535 0
255 -2862 0
-1317 322 0
-2952 578 0
-3520 -3393 0
-1089 -752 0
-2487 -160 0
2786 2197 0
915 -1158 0
-4 -2556 0
2363 1252 0
1913 1319 0
-273 154 0
2887 -2997 0
-2464 -659 0
-1377 -1017 0
-1963 639 0
-2620 2161 0
-1759 -1021 0
460 2106 0
1454 3510 0
2462 2241 0
-2410 -3371 0
2162 -787 0
1787 -528 0
2580 -1308 0
1139 -2035 0
-555 2044 0
1728 979 0
-3396 -3319 0
-888 106 0
1033 2866 0
3473 736 0
-668 -470 0
791 -1262 0
849 2433 0
1633 -477 0
-2592 2624 0
-1459 447 0
1702 -2308 0
163 436 0
1828 1894 0
-3219 -2945 0
1895 -3364 0
-1912 -751 0
1137 -1132 0
-1706 -1859 0
2751 2100 0
-108 2450 0
-2143 -388 0
-1398 -2969 0
690 2855 0
-1490 1679 0
-1474 322 0
-2134 3207 0
-1374 382 0
-1112 2269 0
1061 2980 0
370 -2550 0
2736 536 0
-3101 1576 0
2976 -2057 0
170 -1807 0
2482 1527 0
-3315 -513 0
-1718 662 0
-3388 1774 0
2925 1783 0
3526 -1201 0
858 1727 0
-1222 -1865 0
-2966 1950 0
-3297 -3503 0
538 711 0
2144 3034 0
-1920 988 0
-2039 1036 0
3337 434 0
-2116 -2474 0
-355 -1188 0
-2692 -2774 0
380 3175 0
-165 1419 0
228 -2133 0
282 -3004 0
922 2310 0
-359 1417 0
1581 1804 0
1214 663 0
-2261 1347 0
2889 -1914 0
1915 -2662 0
2734 2459 0
-740 -1653 0
1584 -13 0
1010 -1120 0
-2329 -342 0
-264 -300 0
2360 -745 0
-1737 -324 0
-1297 83 0
1107 -2127 0
-1947 -1384 0
-2143 3437 0
-286 -3518 0
-2174 -2173 0
194 -2453 0
-2716 -1966 0
-1938 3187 0
-2251 -1588 0
1911 -660 0
3195 2181 0
2460 3193 0
242 -1604 0
-2394 -1140 0
261 -1252 0
247 -103 0
-1898 -1304 0
-3349 -1921 0
2273 2167 0
832 -2698 0
-2156 -2710 0
546 -269 0
3515 -3054 0
616 -3186 0
3432 -2206 0
-2115 -2101 0
1909 -316 0
-3210 23 0
1471 -3306 0
1230 3103 0
1550 -628 0
-1650 2656 0
2861 161 0
-647 2928 0
-829 -1115 0
-1913 797 0
2147 3155 0
-744 3197 0
2282 -708 0
-1216 -2769 0
-1947 -2783 0
1396 -3418 0
3077 -2259 0
-1219 3403 0
1854 -1328 0
-1002 2928 0
-890 2544 0
-1909 3416 0
-603 3419 0
-1206 -1414 0
560 -796 0
620 -2386 0
-2617 1464 0
224 -1233 0
-1644 -1094 0
3074 -2315 0
2305 -3162 0
-2559 -532 0
-1278 -3460 0
2109 1304 0
931 543 0
2978 -931 0
1051 -1773 0
-1184 -2292 0
1133 543 0
-3408 -2532 0
-1147 -534 0
-1950 -2362 0
1641 3226 0
-724 1708 0
1332 3109 0
1525 -743 0
-1546 -2550 0
2712 3350 0
-3374 806 0
-590 -3375 0
-294 -2944 0
1809 -1039 0
-1623 2942 0
3319 -3055 0
-1013 854 0
865 3355 0
-3044 3239 0
-338 1062 0
-1021 2114 0
3154 1333 0
879 -813 0
-2497 174 0
1067 1736 0
-721 2606 0
585 2381 0
-3183 1016 0
571 -157 0
-304 2530 0
-1221 -79 0
-193 -105 0
-3062 -48 0
3008 2186 0
101 -882 0
3282 2745 0
1109 1432 0
1551 1730 0
-3126 2578 0
-2542 -102 0
-2082 2633 0
3013 985 0
-1826 -911 0
899 1965 0
490 -59 0
-944 -2109 0
-141 -2315 0
3437 1459 0
1650 -1742 0
-1153 -2014 0
-2715 -3096 0
-922 -2634 0
-2569 2083 0
611 -2635 0
2144 2859 0
-2826 -1147 0
508 1751 0
-2127 2980 0
124 -1487 0
-2570 647 0
-3239 -3317 0
-1257 -1734 0
3392 -919 0
277 2232 0
-1234 1655 0
-573 1157 0
1260 2469 0
-3078 30 0
-1536 3120 0
-3371 3248 0
1723 -1726 0
3068 3171 0
608 946 0
2368 3143 0
2352 2359 0
1630 1036 0
-2999 2389 0
-2715 2692 0
436 -3225 0
-3249 -1176 0
2576 -615 0
-1165 1370 0
2168 -2373 0
-3092 1520 0
-2896 -255 0
1695 -2480 0
-2051 3082 0
-1300 -1221 0
3022 3450 0
805 3016 0
1004 333 0
-1216 1861 0
2766 1166 0
2194 -1947 0
3335 -2519 0
363 1001 0
3319 3095 0
-1577 -2558 0
2384 -1908 0
88 3274 0
-3330 -527 0
397 2871 0
2659 510 0
1742 -785 0
2943 2553 0
-603 -1234 0
1733 -1264 0
169 1248 0
1453 1265 0
-1536 1527 0
-428 453 0
3229 3411 0
1059 -451 0
-2537 349 0
-1770 851 0
-1055 1034 0
-1788 -2501 0
-2142 1610 0
-180 2541 0
-314 1564 0
-1639 -1877 0
211 2690 0
-198 653 0
1236 64 0
2731 2809 0
3390 995 0
2957 -164 0
1824 -1509 0
-1232 -1597 0
-318 1417 0
-2598 -658 0
2551 3411 0
2860 -2677 0
-162 2397 0
-3127 -2130 0
-628 -491 0
3294 961 0
-1390 2575 0
-173 -1456 0
-2935 1707 0
-67 927 0
101 -583 0
-2286 2610 0
176 -775 0
3175 -2872 0
595 -2747 0
1596 -1343 0
-3333 -2641 0
3404 -1650 0
-2250 2587 0
-2313 -786 0
68 1282 0
-3040 2751 0
157 -2666 0
1135 -3385 0
2076 -3149 0
-641 -1211 0
-519 542 0
-3349 -642 0
-705 223 0
-2979 -1130 0
-3196 -48 0
3083 -49 0
-1775 3143 0
2687 -3364 0
3292 2959 0
-1550 -1180 0
-1953 -2898 0
1554 1739 0
2458 1727 0
-789 -2904 0
1716 -1594 0
-1470 763 0
-3509 -714 0
1915 -2991 0
-2530 1905 0
-673 3 0
1794 -1150 0
969 -2861 0
215 -3527 0
88 1009 0
1077 -2537 0
1457 247 0
-3010 -2196 0
1744 -633 0
1079 3233 0
-3010 588 0
2875 1400 0
-1990 3192 0
-2130 -3464 0
2738 -56 0
2882 1794 0
-2621 -100 0
3454 271 0
119 1435 0
2004 -3233 0
3086 -1833 0
-2058 -1202 0
-733 -2132 0
-308 3168 0
-2494 1821 0
-1281 2315 0
-136 -1367 0
-1671 -1390 0
3471 -596 0
-1692 -1961 0
1783 -2664 0
-2382 2175 0
-3099 2045 0
-594 -693 0
3516 988 0
-1575 2808 0
524 -1776 0
404 912 0
3276 2512 0
-668 664 0
-2883 2408 0
3357 -1482 0
3341 -2913 0
-1037 748 0
3473 3064 0
1491 930 0
-1951 -2304 0
-804 -240 0
-540 1516 0
1784 -843 0
-3462 123 0
-2775 2948 0
-3039 3115 0
2488 -2138 0
-2013 -38 0
-89 -2808 0
-3461 -704 0
-2213 -1498 0
1411 -3516 0
1850 -100 0
-1251 479 0
142 -283 0
-2080 2883 0
-1837 -2995 0
-1603 -2889 0
123 -628 0
-1044 -1784 0
-2466 -2722 0
101 -621 0
3145 2942 0
743 -66 0
3525 248 0
-776 -1900 0
1472 5 0
-2143 -943 0
2703 3509 0
-2063 1694 0
757 -710 0
-1495 1736 0
3269 -2205 0
-2983 -1363 0
-1296 -1007 0
-2639 1152 0
3336 1609 0
-2638 896 0
-1415 1287 0
1615 1019 0
-701 -378 0
-2906 2103 0
-372 2390 0
-3333 -2444 0
174 -1251 0
3360 2044 0
-1210 1647 0
2584 -3527 0
621 -2603 0
841 -1397 0
863 3314 0
-321 -2265 0
630 -3084 0
1224 -2378 0
3201 3422 0
-1425 -109 0
-3167 -1167 0
1376 -2346 0
-1622 2726 0
-2339 2435 0
2805 1957 0
-12 -2493 0
2158 -1898 0
-1939 2271 0
-2020 -2180 0
-2316 1160 0
-866 1311 0
-3405 306 0
-2333 -255 0
-3014 1154 0
-63 816 0
-1623 2242 0
-1916 3014 0
-905 2221 0
-2396 -3139 0
-2542 -1132 0
2918 -2601 0
159 1547 0
-2507 2226 0
-406 1489 0
765 -1648 0
-1863 -2568 0
3389 -1995 0
966 824 0
3491 -1030 0
-2091 734 0
-2939 -1832 0
1209 -1977 0
-3105 1734 0
-2626 -431 0
221 72 0
-263 993 0
2209 -3094 0
-1328 1989 0
-603 -1806 0
3506 -723 0
1125 -334 0
3461 3273 0
-2700 2363 0
-1479 -3382 0
340 1750 0
215 -1041 0
-445 -1844 0
991 -1896 0
-1507 2369 0
-2473 -3363 0
2152 -603 0
188 3462 0
-1519 -2527 0
1753 -3105 0
3425 743 0
3147 1192 0
120 -873 0
739 576 0
-3344 -3039 0
-1700 -2932 0
-52 -1753 0
-3019 -2382 0
-1537 -898 0
2224 1610 0
2648 -3522 0
-3313 1392 0
-1696 2075 0
2164 2360 0
-6 1928 0
3402 -9 0
2422 -1415 0
3234 1546 0
-38 3398 0
-579 1186 0
-1916 -430 0
-2539 -1250 0
-1539 -7 0
503 3404 0
-2566 1086 0
611 737 0
855 1485 0
-2986 -3299 0
1255 -3326 0
-873 -14 0
143 -1630 0
1100 -836 0
1117 2921 0
-2323 2617 0
-2444 390 0
2417 1769 0
2120 1004 0
2170 2644 0
-2184 -2036 0
1165 -1383 0
-1434 -2858 0
-2677 -3115 0
-675 1513 0
1181 -2345 0
3397 1797 0
-2401 -1175 0
-1434 -1702 0
3156 2381 0
-2845 -993 0
2975 -2834 0
2555 2678 0
-181 -422 0
-2279 -2369 0
137 -2280 0
1261 617 0
-2379 2094 0
-3512 -1376 0
-497 2069 0
-253 -3421 0
-1334 3461 0
2239 2300 0
-78 -1029 0
-935 902 0
2746 414 0
2366 2257 0
-294 2594 0
-1440 -1249 0
-910 3053 0
-1743 -463 0
-1390 -2615 0
2381 2231 0
-2258 -3471 0
-3181 2563 0
-1584 -2220 0
-1371 -3310 0
-3221 -8 0
3090 -186 0
-3251 1499 0
-1818 2037 0
-2288 2047 0
-2869 2040 0
-1029 -2651 0
-3421 1751 0
1277 -2857 0
2730 -1239 0
3243 -2135 0
20 3131 0
937 -1352 0
3091 -2741 0
-2057 -2487 0
1810 435 0
1539 93 0
3115 -2604 0
1008 -3228 0
2398 -3319 0
-1796 -2346 0
-171 -2803 0
2523 336 0
-1483 1983 0
3238 2296 0
-764 3440 0
-2715 583 0
-904 1157 0
-2903 -832 0
-2539 -3201 0
2047 -1271 0
2710 -2279 0
-1932 1027 0
760 2843 0
-1482 2378 0
-707 -2262 0
-605 -2491 0
-3511 1177 0
-1153 -2918 0
-2845 3505 0
-2296 -875 0
-591 -1895 0
1339 -3132 0
2648 -801 0
-1487 1723 0
-1108 -1054 0
2739 2948 0
1994 -2111 0
-361 -262 0
1511 3104 0
-2209 3492 0
2059 579 0
-1156 3102 0
833 -553 0
1180 -1842 0
2619 597 0
450 2255 0
-2932 2242 0
-1696 2733 0
-1107 -914 0
-2742 1358 0
-2192 3233 0
2361 764 0
2924 -419 0
1832 -2626 0
3175 2703 0
-742 577 0
-3094 -405 0
-1154 -1998 0
-885 2660 0
3011 -1331 0
-2575 -3098 0
2588 1038 0
2958 -2785 0
-3466 3218 0
2523 1434 0
3250 -1215 0
-818 1577 0
2725 1528 0
-191 -796 0
520 1562 0
-2771 2967 0
155 -1158 0
-2205 -279 0
-3181 -2940 0
591 3400 0
1160 -213 0
2626 -1898 0
3282 1989 0
-3147 -3100 0
-3512 -1132 0
-2991 1287 0
2813 2788 0
-996 -2466 0
-2766 -2358 0
2021 -922 0
-1750 1977 0
1069 -2496 0
2109 -3488 0
-455 2955 0
-3394 2523 0
2985 1953 0
-2755 1128 0
-2054 -1462 0
-131 -881 0
2851 -32 0
3042 -1414 0
1675 1714 0
-2091 1636 0
-3167 273 0
-3176 -3350 0
11 768 0
-2473 -222 0
2064 -380 0
886 1304 0
3178 1565 0
-3286 -67 0
3092 40 0
-2060 3287 0
3058 -767 0
54 -2533 0
-2934 -3292 0
-245 2910 0
127 -1798 0
-3459 -1666 0
-2537 2822 0
2492 -382 0
-1639 3447 0
-944 -3069 0
-819 6 0
2150 2682 0
2890 1704 0
2248 -342 0
998 3067 0
1838 3213 0
1163 1198 0
3347 -709 0
-1566 2343 0
-1992 341 0
-1235 -239 0
1854 -2245 0
121 3359 0
2820 -1935 0
2859 -1115 0
-111 68 0
291 -32 0
-2800 -679 0
3119 -1107 0
-2582 -2393 0
-1548 -2679 0
-1494 3134 0
1203 -1979 0
1220 -2789 0
-1420 -81 0
519 1160 0
683 549 0
-271 -2288 0
-2531 7 0
-2602 1336 0
2983 -987 0
3365 -1138 0
2008 -3233 0
1687 1470 0
-2340 2542 0
-3318 1796 0
-1513 -502 0
1557 1926 0
3092 204 0
179 -1338 0
2724 1006 0
-205 1360 0
-255 3044 0
3150 -1086 0
-3210 3340 0
-1603 -3083 0
2573 2262 0
-1436 913 0
2873 251 0
-3401 2313 0
-1584 -2143 0
965 1742 0
-1599 1965 0
765 580 0
1672 1117 0
-2936 1396 0
195 -644 0
-2121 2880 0
-1542 2619 0
766 2263 0
1489 288 0
-2660 1884 0
1715 1315 0
2096 2348 0
-3460 909 0
-1972 -14 0
-1586 2297 0
-2691 -1204 0
-3077 -1515 0
908 3277 0
468 2653 0
-438 -1492 0
-1534 -1156 0
-3285 -1099 0
-241 228 0
1322 2936 0
-550 -629 0
-1125 3417 0
-1513 2505 0
-375 -3508 0
2375 1793 0
-964 -1179 0
-835 996 0
-412 -847 0
1812 -3445 0
1955 148 0
1783 26 0
-925 -171 0
2941 684 0
-707 -994 0
-1123 2033 0
-418 -1585 0
2206 -1690 0
1149 2660 0
2673 -3345 0
521 -1158 0
953 3052 0
-636 2264 0
2469 2432 0
1553 517 0
-1337 -2499 0
-2738 909 0
3415 -339 0
-3079 1423 0
-420 -2322 0
-1418 3166 0
414 195 0
-1573 -1139 0
-180 2802 0
-204 2502 0
-784 -3303 0
2071 -724 0
-2465 -743 0
1033 1849 0
-1480 500 0
-978 -2940 0
1238 -3319 0
-2486 1529 0
-568 476 0
-2406 1860 0
-2592 2410 0
-1855 -403 0
3504 953 0
979 -299 0
-904 1079 0
1257 298 0
602 -1643 0
2788 -1414 0
386 -3384 0
337 -1185 0
2051 2912 0
-1689 1765 0
3172 -820 0
767 2613 0
939 -1982 0
955 -2843 0
778 -879 0
-306 1231 0
2420 2878 0
2446 14 0
256 -3313 0
2829 -2481 0
1013 1314 0
-1354 3000 0
1051 -2060 0
-3187 2849 0
75 671 0
2087 154 0
3122 401 0
-3410 -2333 0
-2313 2501 0
3107 450 0
3022 544 0
-1922 1496 0
-3213 2935 0
2829 2268 0
-111 2927 0
953 -963 0
2101 3404 0
2222 2758 0
-973 -1086 0
1324 -2694 0
2521 870 0
-3487 -682 0
2413 2050 0
3393 1972 0
238 1690 0
-1092 4 0
-3494 805 0
743 451 0
401 2770 0
1347 1521 0
2788 152 0
889 -2467 0
-3170 953 0
1564 -1156 0
-1564 523 0
-1809 298 0
-412 580 0
-1776 3365 0
1861 -3179 0
1004 -301 0
-3466 2325 0
-1287 -316 0
-3 -3443 0
-2764 -2947 0
905 1139 0
3411 -1372 0
-393 1414 0
-1021 2840 0
3109 -2826 0
217 -141 0
-1802 784 0
-1419 -686 0
1711 1221 0
2244 -486 0
-2274 836 0
-1817 2470 0
632 -816 0
-2961 1902 0
913 -2890 0
-2917 -1670 0
573 3171 0
-2617 -1969 0
-2516 -1483 0
-2710 2569 0
-1000 -1632 0
2223 -2685 0
-1397 3309 0
-1877 1650 0
-3405 560 0
-158 -237 0
2317 -2527 0
448 -822 0
-629 -3014 0
1271 -2519 0
935 1312 0
1255 3260 0
462 -659 0
2215 2200 0
-1342 2624 0
2146 -802 0
-1087 -3236 0
-1883 3428 0
1237 2024 0
-1469 2404 0
-3376 2227 0
-752 1948 0
1147 -2774 0
-3221 1013 0
-382 -2171 0
-2803 -1383 0
2987 1331 0
331 2920 0
-2634 3018 0
-2596 -787 0
97 507 0
-2781 1364 0
3446 1050 0
1842 -387 0
2590 1313 0
-2313 -2178 0
-66 -1220 0
-2969 -2697 0
-2674 932 0
-1872 3141 0
-1862 -3346 0
465 -3251 0
-2798 -1577 0
-136 -943 0
2264 706 0
-2690 2228 0
3233 2178 0
1013 -14 0
-906 39 0
2543 -85 0
-96 -2097 0
-1649 3219 0
1247 -894 0
-683 1644 0
-857 510 0
3501 1146 0
-1624 -1952 0
-2339 566 0
-2920 -625 0
-3122 -1155 0
1456 1747 0
-967 -3117 0
-2333 -2533 0
632 -1056 0
-2039 -1437 0
2922 -2556 0
727 -1439 0
-1587 2054 0
-495 -596 0
-1292 -3163 0
-863 2655 0
1813 -2349 0
-1929 -126 0
-590 -1631 0
1793 3373 0
-1330 -2911 0
3401 -2519 0
-529 -1225 0
-2217 2545 0
-1544 -1877 0
3334 -3415 0
-1181 -233 0
-2035 177 0
3433 -2040 0
1784 -1770 0
402 -1719 0
3042 -3017 0
-1623 -3507 0
1638 2611 0
969 -3291 0
-3346 -1176 0
2394 -3428 0
747 2047 0
2585 2091 0
-558 860 0
508 -834 0
-3085 2797 0
984 2102 0
-1932 1048 0
3468 2114 0
-2972 3494 0
1363 -1175 0
-1758 -2800 0
1840 1587 0
-2379 -174 0
-269 -2080 0
41 1823 0
835 -879 0
-653 -2833 0
-2068 2524 0
3178 1991 0
2584 3450 0
86 1111 0
2208 -1517 0
3315 2623 0
-2151 -314 0
-1241 -2558 0
-598 -255 0
-2723 2233 0
-567 -2550 0
1264 -1564 0
-1575 -1052 0
-2142 -1011 0
-136 2265 0
426 3030 0
3289 2879 0
-1404 53 0
-2173 2548 0
1563 -2138 0
1338 -2606 0
2131 -730 0
2207 2927 0
-2398 1778 0
-493 1613 0
-2364 -139 0
3083 -1840 0
2695 -1699 0
-2409 50 0
1640 -2965 0
-2982 -1638 0
-2505 1730 0
-2400 2418 0
2430 2234 0
-1264 1004 0
-907 1708 0
1562 2260 0
-2422 2185 0
1305 2455 0
2714 -1558 0
-1040 790 0
3518 2181 0
2223 1519 0
-3327 2767 0
140 -307 0
16 1670 0
90 1228 0
2174 1093 0
-122 -412 0
-1432 2462 0
-3489 -2634 0
951 176 0
-204 1393 0
2383 -1281 0
-1924 -1745 0
-2764 -2425 0
-2856 251 0
1743 2087 0
1044 -478 0
-788 75 0
-1058 2177 0
247 1461 0
-2237 2877 0
-3071 -375 0
-2792 -1341 0
-2826 -186 0
32 -1952 0
3307 1314 0
-1301 -2739 0
-1666 -219 0
1855 3035 0
-490 1104 0
-2101 2271 0
-3087 2762 0
854 -781 0
-2576 1975 0
-3283 -570 0
2035 2132 0
-2445 -2640 0
1607 278 0
-190 1610 0
1638 2671 0
-2119 1377 0
-155 -918 0
3097 3187 0
288 44 0
-65 -2643 0
-283 -3027 0
1182 -435 0
-3490 2733 0
-1597 1401 0
-525 -305 0
-374 -2934 0
-2275 693 0
-2091 -209 0
-481 1014 0
1082 1360 0
3422 -2005 0
-2046 -2624 0
1087 1453 0
-2068 3180 0
-3519 1709 0
1529 1142 0
2083 305 0
818 -1471 0
-3182 -525 0
527 -3208 0
2112 1589 0
3356 -2927 0
-3134 -447 0
1344 -895 0
-1810 -1134 0
-2594 -1196 0
271 2875 0
78 403 0
-3297 -402 0
128 -1840 0
1422 -2979 0
-416 2819 0
1783 -2288 0
-1219 1244 0
-3177 10 0
292 -286 0
1083 -2640 0
1827 -1826 0
-850 -1864 0
1668 3327 0
-1719 -168 0
2638 3467 0
3095 -435 0
2553 2106 0
3397 1724 0
-1721 -2184 0
1514 -1529 0
-2615 86 0
2479 -1878 0
2260 -3103 0
-1681 750 0
952 -3367 0
-2318 -1057 0
2982 3407 0
-2414 -1352 0
1391 293 0
-2966 -1851 0
-2120 -1769 0
765 3180 0
-2331 2525 0
3472 -1005 0
-1272 -43 0
-3405 -2735 0
-1899 -2324 0
3487 2278 0
-825 -2831 0
810 -1980 0
-2918 1339 0
-940 -1731 0
-1980 -2051 0
-538 3453 0
3348 -1057 0
1066 -118 0
237 1995 0
2827 -242 0
448 3511 0
-1423 340 0
2932 -2686 0
1821 -1323 0
188 -3375 0
1447 -2635 0
-3097 1810 0
-1492 340 0
-2331 -3184 0
-1468 -2625 0
300 -1494 0
1329 -3498 0
-2348 -1168 0
42 115 0
-2209 1625 0
49 -1415 0
-457 2805 0
-989 -420 0
505 1098 0
-338 -2945 0
3057 -403 0
-345 -41 0
-332 969 0
328 -1242 0
-1496 2271 0
-1809 -3203 0
-1196 3510 0
758 2132 0
-22 -195 0
-1029 -1587 0
-1880 48 0
3123 -2635 0
-930 600 0
-1905 -649 0
-1171 3255 0
620 -1788 0
-1869 -1206 0
2709 2077 0
425 2386 0
-951 332 0
-3170 2759 0
944 -667 0
925 1524 0
-1435 -190 0
1343 554 0
996 3119 0
1502 2815 0
-264 -2236 0
-405 -120 0
-2034 3461 0
1071 710 0
-1374 -3492 0
3034 1638 0
-2734 2514 0
2258 -3485 0
-2529 373 0
-3475 -1966 0
-2523 2302 0
-1802 2577 0
-2291 1433 0
-1669 335 0
-3293 801 0
-1187 -2822 0
568 -2683 0
-1821 -742 0
-2759 -3014 0
1697 1708 0
-2947 -2113 0
976 61 0
1415 -80 0
900 3391 0
137 -3352 0
2434 2767 0
2619 -1237 0
1430 -7 0
-2997 -813 0
856 3517 0
3148 1194 0
-2487 188 0
536 1894 0
-1927 683 0
-450 -1789 0
2021 -453 0
2607 2578 0
-306 2611 0
2366 1010 0
-434 2603 0
-94 -2296 0
-1834 2010 0
2856 -1431 0
2928 -2336 0
-1743 -2717 0
-1389 -60 0
632 -2380 0
2177 2923 0
1938 -1717 0
2292 -1249 0
-1340 913 0
-573 3016 0
3090 -1830 0
-3133 -296 0
-892 3467 0
1423 2294 0
-3519 -2892 0
-1398 2635 0
6 3048 0
470 1476 0
1917 2848 0
3344 -1023 0
665 -2630 0
-68 1314 0
2350 -1748 0
1906 303 0
-3526 -2864 0
1957 -218 0
2915 608 0
-3014 -2459 0
-1278 -654 0
900 1203 0
-3197 -3478 0
805 2640 0
3067 2378 0
-2658 -1371 0
-1309 883 0
-656 2674 0
-1111 903 0
-1936 -772 0
-2316 -2345 0
-1758 -2583 0
1016 870 0
3038 -258 0
2652 1691 0
-2497 1228 0
182 -2726 0
2477 -203 0
2845 2577 0
2441 -135 0
136 -967 0
-2570 -2240 0
-3208 2211 0
3419 2016 0
-2362 -704 0
-2194 -2697 0
-2273 3214 0
2384 2940 0
-1459 -947 0
1911 -1884 0
555 -1004 0
-360 874 0
2380 -1732 0
-1666 2573 0
1770 -3303 0
-1043 -1276 0
-2363 -3043 0
1963 -2108 0
1024 2591 0
-1438 -144 0
-2775 181 0
-2480 2116 0
-32 267 0
209 1113 0
-943 2667 0
285 3461 0
1059 96 0
647 1455 0
-2474 1753 0
-2576 -1282 0
643 -2225 0
61 2558 0
-2670 -364 0
417 -3455 0
858 259 0
2488 -3398 0
67 2938 0
-98 3484 0
765 2078 0
-2912 -894 0
-134 -2643 0
741 -1413 0
96 2739 0
2477 1255 0
-359 -708 0
-2216 959 0
3450 -1082 0
-1874 -2127 0
1493 806 0
-1986 3526 0
518 -1756 0
3002 2144 0
-2397 -79 0
1294 -471 0
2010 2270 0
-2013 3446 0
-2466 1035 0
-856 1746 0
-999 1665 0
2809 -1557 0
936 2242 0
-3166 1334 0
-580 585 0
-485 588 0
-2757 1392 0
2445 -3206 0
1273 -1165 0
2334 -1289 0
3091 -691 0
671 -2911 0
710 3482 0
982 456 0
3297 -1752 0
-871 -45 0
-863 3329 0
-2042 -2843 0
264 833 0
-1218 -1323 0
-1242 208 0
-574 -1403 0
-2697 1128 0
654 2622 0
268 -2058 0
3283 -2661 0
-1511 -3264 0
575 2141 0
-2464 -2794 0
225 -891 0
508 3319 0
2645 2272 0
-2763 -1172 0
-3036 -2592 0
-170 -2600 0
-3334 824 0
243 -1626 0
2213 1178 0
3477 -2317 0
1843 -909 0
3186 2263 0
-2249 1343 0
-1946 464 0
-2607 -3253 0
-2147 2034 0
1406 1332 0
-1670 674 0
1720 1322 0
3352 -980 0
1603 -1420 0
-2529 -2158 0
-1033 -450 0
-2400 -2203 0
-572 1969 0
-818 430 0
2887 2074 0
1200 -1696 0
2215 2427 0
588 -1716 0
-3200 1595 0
1458 983 0
847 584 0
1370 2659 0
1953 2149 0
-1522 -2773 0
1658 -587 0
-328 -2956 0
2638 -334 0
-206 -429 0
1697 -2991 0
3173 705 0
-976 1282 0
2740 715 0
-1934 -158 0
-3295 1570 0
-1278 3052 0
1912 -1501 0
424 2366 0
2656 1033 0
-483 -2420 0
1562 -3183 0
-1538 -1947 0
3082 1662 0
2599 -973 0
-593 3506 0
2001 3229 0
-3455 -2955 0
1032 -2787 0
2704 -2131 0
2644 1520 0
-1637 101 0
1924 2588 0
-2694 935 0
-448 -2514 0
-1943 -964 0
-278 1408 0
-2601 -3389 0
2167 -1693 0
123 3021 0
1467 -2349 0
-589 410 0
3083 889 0
-3458 577 0
244 1142 0
-2721 227 0
-2350 -488 0
564 -307 0
3196 -1215 0
-2582 -3132 0
-3184 1606 0
348 311 0
-417 -2495 0
961 -1294 0
-2870 2501 0
-3012 2272 0
-1544 1173 0
-2836 -2449 0
2715 3245 0
1837 941 0
-3411 2215 0
1729 696 0
-1236 -2784 0
-577 2952 0
-985 2642 0
-1879 167 0
-1415 -3444 0
-2827 -2151 0
-1267 2860 0
-81 1739 0
1046 -352 0
2967 2411 0
1344 2377 0
2986 -388 0
-1491 -2961 0
-1163 -1875 0
1378 169 0
-1279 2421 0
3233 3071 0
677 311 0
-2785 -1307 0
-1182 2733 0
578 -2104 0
-1190 278 0
1587 908 0
-1592 531 0
-1055 910 0
1148 -2336 0
419 -2911 0
3371 -1279 0
201 -233 0
-2479 -2540 0
-2979 -441 0
2793 770 0
-1635 1598 0
-1629 -3478 0
-1662 -2184 0
-1798 3529 0
3100 2307 0
-2822 2339 0
-3023 2261 0
1523 2100 0
354 -174 0
2427 2473 0
2380 3440 0
-2662 270 0
-1221 -2652 0
-1806 2177 0
-2099 -1700 0
1658 331 0
2561 -3349 0
-1753 1324 0
2970 -64 0
2371 -3078 0
1703 -2113 0
-2795 683 0
1314 1146 0
-97 -2685 0
-1100 1516 0
-2060 -301 0
2008 2563 0
2157 -62 0
1736 -156 0
3424 -1082 0
789 2420 0
2857 1455 0
-2676 -1347 0
2241 -2554 0
502 -781 0
3267 -848 0
2535 3070 0
-2039 323 0
-2833 -2035 0
2139 -1430 0
-2411 615 0
-1576 -2322 0
2305 3341 0
-2248 -3516 0
-1434 2196 0
1518 -3027 0
-2351 -1409 0
-1570 1433 0
-741 1576 0
1186 -837 0
1723 125 0
-1817 -1060 0
3407 -1654 0
2538 -3013 0
2910 -2799 0
84 -2909 0
2597 -1721 0
2404 1948 0
675 -1875 0
-618 -50 0
206 1824 0
-1245 -1598 0
-1083 1754 0
-2690 -2390 0
1347 119 0
1237 -1657 0
-2275 -2232 0
1299 -2556 0
2128 3063 0
2458 2008 0
-2929 2208 0
1379 674 0
640 1823 0
375 616 0
-2202 3018 0
-2608 -373 0
33 -2037 0
2307 -2392 0
-1564 -3218 0
-1264 -1444 0
809 3012 0
1652 -1066 0
2733 -1767 0
512 -971 0
1177 -2658 0
888 -521 0
3157 -2229 0
2045 1118 0
-2093 -772 0
-129 1589 0
-891 3184 0
-2259 -676 0
-2446 -2787 0
1832 -434 0
2772 -1682 0
3386 -1342 0
-80 633 0
2059 63 0
1389 16 0
3430 -111 0
-2206 1616 0
-735 -3073 0
-1298 -1972 0
-27 2581 0
-47 934 0
-1078 117 0
979 2530 0
1953 1563 0
2898 -813 0
463 -477 0
1177 715 0
-3331 3458 0
-51 582 0
-305 -499 0
2046 2271 0
794 762 0
2446 -2506 0
3261 -1092 0
-314 1950 0
1209 -1430 0
807 -1461 0
332 1846 0
1146 2383 0
1628 -1925 0
-2971 -3246 0
-230 698 0
-2485 206 0
-2262 -1091 0
-3213 -447 0
606 1086 0
380 -814 0
2638 -361 0
-3310 -2707 0
-1758 -901 0
2426 -2790 0
3171 -3071 0
1924 1418 0
-1835 -2453 0
632 584 0
-1012 -1387 0
-2409 1584 0
4 -2939 0
-3471 3051 0
-3205 2572 0
-3072 1663 0
2162 1615 0
2374 -443 0
-1903 2918 0
-782 -287 0
-2301 3302 0
-86 -796 0
-2250 -2993 0
2608 281 0
2228 -955 0
125 2825 0
-2396 3105 0
-162 -1768 0
1803 774 0
3191 666 0
366 1747 0
-419 509 0
-2615 1746 0
332 -2095 0
1083 -1897 0
1733 247 0
-1996 3194 0
2361 2976 0
2445 1081 0
-1060 -1713 0
2335 678 0
-2055 -2596 0
2318 -2750 0
-1196 2241 0
-3012 435 0
1723 2895 0
780 -2390 0
-1829 362 0
-806 -2245 0
451 -1004 0
2008 -326 0
-2156 376 0
-1490 -800 0
505 936 0
809 -3241 0
-94 -49 0
-1820 -418 0
-3015 2589 0
99 2304 0
817 3029 0
-3330 -107 0
-2208 -3096 0
-3236 2813 0
1489 1517 0
-1238 3024 0
-3426 -3206 0
3029 1651 0
-2920 861 0
216 -1522 0
1496 1684 0
-2853 -107 0
1415 -2345 0
-2204 1727 0
-1841 2905 0
600 -2527 0
2733 -2205 0
-3367 -3412 0
-2978 1098 0
1756 3005 0
-1766 1235 0
3307 125 0
-321 2074 0
2115 -357 0
-980 -2252 0
1781 -900 0
-742 1827 0
-1042 912 0
2820 3400 0
1888 -1677 0
-2771 2167 0
-2508 -624 0
-501 2639 0
1655 889 0
865 143 0
-2350 -2957 0
-1756 1465 0
-1088 887 0
-463 1111 0
-1528 3058 0
-1496 -627 0
-2889 535 0
-3009 -415 0
2757 -3132 0
-2679 3021 0
-2291 1000 0
-1810 -3292 0
870 3214 0
168 480 0
-1602 -1853 0
-1960 -653 0
1706 2100 0
3496 2832 0
-117 1633 0
-1372 2619 0
-448 -1548 0
289 2940 0
-1853 861 0
1379 -679 0
1231 2905 0
789 -3268 0
3482 -1902 0
-1367 -2000 0
-2948 -229 0
1741 2166 0
52 2386 0
1749 -1970 0
-2602 848 0
1530 245 0
1836 1716 0
1008 -2050 0
-2771 2517 0
-3508 -2504 0
-276 1894 0
-1156 -1568 0
1833 -1311 0
-3271 -1063 0
1621 1344 0
-2678 -1336 0
-34 801 0
-1145 1339 0
-3422 -2436 0
-3426 -3492 0
3465 -483 0
-2884 -1355 0
1396 2813 0
2751 -1760 0
-2741 1318 0
1650 3139 0
-3049 -443 0
-2542 2909 0
780 -2182 0
849 1111 0
245 3217 0
1029 -3498 0
1341 -3485 0
-3057 -709 0
-2700 326 0
1656 3126 0
3137 -2072 0
2525 -2228 0
1244 -314 0
-737 -348 0
-3395 -3096 0
261 348 0
-2717 2561 0
-3222 2194 0
2853 -92 0
3125 -3426 0
-3383 3126 0
331 1624 0
-1633 515 0
505 2785 0
776 39 0
-2661 -2736 0
-1935 1756 0
1140 -1730 0
1799 3432 0
2454 -2199 0
-2660 1878 0
-2807 3184 0
-450 2039 0
1071 3228 0
2941 -1215 0
-1696 2905 0
2045 1754 0
617 3525 0
1731 2220 0
-2808 -1766 0
2552 949 0
-3301 -534 0
464 -230 0
1541 1626 0
2525 -1758 0
-1338 3336 0
-3464 2403 0
-1805 -1531 0
1619 -331 0
-903 414 0
-3304 1718 0
3179 -3063 0
3175 2686 0
3201 2572 0
1458 -1263 0
749 -723 0
2185 -3168 0
-51 -2142 0
1907 -504 0
507 3120 0
-2816 2941 0
130 3235 0
-11 -980 0
-3434 2281 0
1498 2313 0
181 1538 0
1718 979 0
3452 -269 0
-1683 617 0
-1684 -2748 0
2354 45 0
3139 -1196 0
2472 -60 0
-919 1292 0
-811 -2582 0
-2841 1272 0
850 2163 0
2578 -2179 0
63 -2399 0
-3475 -3524 0
-2973 2114 0
1761 3006 0
-1951 1118 0
1228 -1540 0
-2190 -582 0
3499 791 0
-2292 101 0
2983 1164 0
1128 1458 0
-486 -875 0
-3040 -3375 0
-1611 -2680 0
2372 651 0
1144 1665 0
-56 2373 0
-1397 -1154 0
1137 -193 0
653 -614 0
-954 -3489 0
-341 2021 0
-2827 1124 0
-3345 -3240 0
304 2181 0
31 3445 0
-2427 1711 0
-942 2389 0
2609 3003 0
1822 -869 0
1742 2820 0
-610 383 0
-3279 1076 0
3334 -2945 0
-450 284 0
1812 -3234 0
-2868 808 0
2149 1569 0
758 -780 0
2122 1315 0
1584 3031 0
-595 -3065 0
-2030 1528 0
-40 95 0
662 2878 0
-2750 -62 0
3195 -2837 0
-1834 2812 0
-1580 3497 0
-1786 1901 0
2739 -2739 0
-877 1826 0
-2166 1915 0
-2131 -623 0
-2754 -1807 0
-2861 2935 0
-373 1773 0
-2051 499 0
-191 -1027 0
948 1794 0
-119 1965 0
-2067 98 0
-818 2113 0
-3378 -3078 0
1183 -3421 0
-2572 1508 0
-1635 650 0
-1244 1087 0
-2971 1118 0
474 -1108 0
-1055 -505 0
-3438 -3445 0
-1306 -625 0
-1396 -733 0
-2856 -1698 0
699 1315 0
3464 544 0
143 2205 0
2751 -2059 0
2491 1352 0
-3408 -1171 0
1737 -3032 0
-1307 1479 0
1061 33 0
1290 3486 0
-2552 -1068 0
-190 -3278 0
-1471 -1571 0
2033 3487 0
1660 1736 0
2906 -1693 0
657 523 0
284 3247 0
1400 1711 0
769 -162 0
-1563 1457 0
-2359 773 0
-2268 2069 0
2363 3380 0
89 -1211 0
-1282 1543 0
2026 2129 0
344 657 0
-595 -2729 0
3059 -427 0
-3354 -2079 0
-2839 -1191 0
-1534 1267 0
-3278 2208 0
-1777 2895 0
1979 29 0
2133 -2089 0
-2315 -2230 0
-3116 872 0
-1643 -2153 0
2522 875 0
2495 -110 0
-744 2117 0
-1696 -2202 0
-2893 1592 0
2661 3474 0
-1578 -1348 0
-1244 -734 0
1326 1715 0
1345 -3244 0
1438 1081 0
1477 140 0
630 1683 0
1769 560 0
-2289 1720 0
-388 -2042 0
-596 2209 0
2079 2021 0
833 -569 0
-1477 -2275 0
3410 3359 0
-2296 3214 0
1122 -2511 0
-3226 -2889 0
-1892 -3476 0
3494 -1845 0
-2211 -1991 0
-2986 -371 0
-1961 48 0
2566 -1592 0
1109 -2412 0
-477 -3408 0
-1340 -788 0
1381 -457 0
3494 2146 0
-3508 -3272 0
-806 3315 0
-2601 498 0
2982 1199 0
1855 -1498 0
2353 -434 0
3002 1163 0
-1845 -2335 0
-2896 -1572 0
-2640 511 0
-253 650 0
735 -700 0
1832 2768 0
1143 701 0
-3199 671 0
-484 -1571 0
-776 -2676 0
1433 -2726 0
-2406 -3047 0
-3060 -2065 0
1690 2805 0
-361 1424 0
1590 -1288 0
-894 315 0
464 -2477 0
2237 -1196 0
2312 -1627 0
-2991 1686 0
2420 2959 0
1177 -3520 0
-2209 -2854 0
2363 1245 0
-1807 -819 0
299 708 0
-2154 -590 0
2909 -3046 0
-785 2461 0
-2930 -2568 0
1893 -3255 0
3515 2437 0
1393 -74 0
-464 -1821 0
3229 2874 0
-95 334 0
-2608 -2767 0
-1155 2195 0
2942 -831 0
-2466 3268 0
3499 1357 0
1785 25 0
3171 -1981 0
-3253 1846 0
2853 271 0
2573 -1519 0
-2189 -208 0
524 2052 0
-3135 2758 0
-73 53 0
-2960 1708 0
1856 -3018 0
-2251 259 0
1550 -2245 0
2537 2614 0
-2324 -2784 0
-519 2281 0
1478 2407 0
1405 -336 0
1224 1442 0
736 3285 0
3250 1099 0
-3525 -873 0
661 652 0
-1420 -206 0
-3256 -645 0
-3503 2611 0
3332 -1225 0
-165 1283 0
177 -3210 0
-1247 -2661 0
449 -445 0
-849 20 0
2677 -1662 0
505 -2716 0
3074 -2725 0
-1018 -1377 0
-3234 3080 0
1354 -2139 0
3514 -1159 0
1107 2234 0
1856 3190 0
-1278 3341 0
-60 -147 0
-3485 -2471 0
1511 1887 0
2434 -975 0
1197 2876 0
986 -547 0
-2610 -3347 0
-1371 1491 0
1846 -2633 0
2826 -1453 0
1010 2871 0
-1123 -2894 0
1508 -1310 0
1467 -430 0
-2385 -1431 0
2761 2181 0
-3222 2702 0
1713 -3410 0
-113 -1667 0
1491 587 0
1312 -528 0
2161 1499 0
588 2724 0
-746 -2331 0
2071 -944 0
3304 3332 0
-2568 2769 0
-610 -2375 0
-3259 1458 0
1891 2926 0
-1811 -1883 0
-1197 924 0
549 2137 0
-58 -2694 0
-3241 512 0
2040 2813 0
-1687 -1904 0
3083 -2981 0
376 -176 0
-636 -191 0
1381 1976 0
-2392 552 0
2194 682 0
524 2277 0
1628 -2159 0
-1939 -2722 0
2272 -2939 0
-2205 514 0
-2407 -3060 0
3386 3429 0
-1415 1598 0
-3230 -3026 0
-234 -574 0
658 -1221 0
-2888 -2672 0
-996 -440 0
3255 3428 0
-2015 1731 0
3386 -2270 0
2329 -3302 0
-45 567 0
3416 -98 0
2062 1808 0
-2772 307 0
-2529 274 0
-3170 1849 0
1310 201 0
346 2865 0
681 -3259 0
-2043 2306 0
1592 -2291 0
112 -926 0
-199 -2504 0
-497 2410 0
2710 -2453 0
-1861 439 0
63 259 0
1995 -1596 0
-1933 -1413 0
-3188 -3123 0
2356 2256 0
406 -1800 0
-2546 -2807 0
3213 -1645 0
3143 -37 0
-612 2049 0
-1316 -2373 0
2343 2358 0
2008 -3029 0
2377 -705 0
970 -512 0
2032 -725 0
362 -2640 0
-1814 1600 0
2146 -2030 0
-1204 215 0
-2718 -1268 0
874 2909 0
-3478 -60 0
2647 1383 0
-485 -2327 0
-272 2445 0
2021 2708 0
-3115 1600 0
1502 -1011 0
2659 1845 0
-1383 -1375 0
1527 -1352 0
-3193 1759 0
-2395 -398 0
-240 -2837 0
-830 -3008 0
2026 -2924 0
-434 2082 0
-2375 -3430 0
1677 -3408 0
439 -1805 0
-1383 1163 0
2428 2243 0
1143 -3301 0
-1648 -128 0
838 -1637 0
-556 -2677 0
-2101 228 0
-573 710 0
3356 2805 0
2795 -794 0
3457 -1204 0
-1631 1327 0
-1577 -1748 0
924 -1410 0
2163 -580 0
3403 -889 0
-3421 -191 0
-2183 -1120 0
-1092 -673 0
-2708 -2178 0
-2606 -3500 0
2387 79 0
835 1485 0
-2015 -785 0
-3507 1233 0
-1528 -3451 0
2973 1480 0
-2622 -871 0
-2920 3507 0
642 -417 0
2572 -765 0
3187 -1908 0
-3491 3293 0
-2414 -395 0
801 1293 0
-2843 2337 0
1148 -3128 0
-1601 1396 0
1563 92 0
2916 -2212 0
-1351 3470 0
845 -2619 0
2499 1124 0
-509 1040 0
-2122 -1901 0
2616 -1670 0
-2396 2204 0
1663 2620 0
3420 -2799 0
-1635 2022 0
1535 1856 0
3496 -1483 0
-1701 -637 0
-148 1259 0
-1732 1619 0
-1499 -68 0
-2715 1966 0
-787 2844 0
-1643 -1001 0
-2570 -1052 0
-1621 1463 0
-2237 2873 0
2969 3456 0
-638 2337 0
2619 -1019 0
2624 -2138 0
1739 -549 0
3117 -2292 0
-1565 -1908 0
2776 1979 0
2668 -1639 0
2516 -2162 0
-2126 2485 0
1067 -1100 0
-331 2194 0
2711 2942 0
1610 3158 0
3103 -38 0
2334 520 0
-2252 -2301 0
1658 -252 0
2998 -1804 0
-2806 -430 0
-2109 3119 0
-1570 2117 0
2924 838 0
-3305 -1609 0
1983 539 0
348 -3071 0
884 -786 0
-1183 2165 0
2389 2018 0
-1427 -2240 0
-1795 1990 0
-1237 584 0
-2990 16 0
2458 -1455 0
1279 -878 0
-3243 1286 0
3158 621 0
-2204 -284 0
-2862 41 0
-820 -1092 0
-2052 197 0
-1958 3400 0
2619 2817 0
-3405 -1072 0
2358 1381 0
-1444 -2882 0
3261 1735 0
3519 -693 0
2590 2804 0
-3144 -1604 0
-1504 1691 0
-1254 -2658 0
-1618 3395 0
2499 -2249 0
-2286 -2531 0
-2436 2628 0
145 -2000 0
2562 3194 0
-150 -1790 0
977 1240 0
821 -2938 0
-2477 -2836 0
1793 1133 0
1011 3104 0
-2149 -1604 0
2499 -1449 0
-233 -3139 0
-1873 -1519 0
1676 3199 0
-765 2370 0
-980 -840 0
3063 -182 0
855 1227 0
948 977 0
1460 -2640 0
-279 613 0
-2992 124 0
3479 -2806 0
3308 -2771 0
-3349 -2563 0
638 -402 0
3315 1619 0
-3226 -2201 0
-1251 744 0
-625 -2578 0
2470 -849 0
3309 2513 0
3412 2586 0
37 -955 0
2810 -3057 0
-590 -3340 0
-2706 2022 0
-1799 -3271 0
118 -1582 0
-3050 -2421 0
-1296 -1683 0
189 -1160 0
-1184 2478 0
390 -1074 0
1861 1866 0
-169 310 0
3511 3284 0
-1956 -465 0
2063 1030 0
-806 -2296 0
1628 -1621 0
-2200 1515 0
3049 -2558 0
-2241 2719 0
1054 -1572 0
-2529 -2369 0
-1653 2975 0
468 -2470 0
-1435 1353 0
2090 -1346 0
11 -2663 0
-722 2343 0
-2742 2366 0
-1525 -727 0
3320 3245 0
1459 -1752 0
-3280 -1582 0
2571 -2188 0
-1829 -460 0
-421 -2457 0
-1938 1461 0
-655 -2938 0
-2278 -551 0
1952 597 0
-1374 -2677 0
3201 -2096 0
1089 3493 0
1073 1895 0
-97 -1894 0
-1219 1991 0
-2554 2287 0
-2575 303 0
-2498 -2169 0
-2086 -3323 0
-804 -2266 0
-2514 986 0
-572 -1029 0
2820 -3505 0
1502 -2941 0
1457 -2174 0
-183 -2939 0
-1862 -2491 0
-2714 3149 0
2630 -2718 0
1458 573 0
-563 2132 0
-2879 3118 0
247 79 0
188 1878 0
-1470 -4 0
-1661 1691 0
-3412 1863 0
427 -1796 0
3310 -851 0
1430 2170 0
1141 2949 0
-841 1097 0
-3261 92 0
2059 1716 0
-594 604 0
-1684 1314 0
-1317 1740 0
719 2431 0
-1780 -3111 0
2828 -3207 0
-509 -1699 0
-478 544 0
1306 2619 0
-2788 -2539 0
1971 2058 0
2186 -1036 0
-2716 982 0
-984 -3283 0
2445 -3055 0
995 2573 0
-1936 1353 0
167 -786 0
-3284 -2738 0
-2555 1608 0
-2808 1505 0
1053 -3321 0
-305 1395 0
680 2428 0
2246 -1784 0
-437 -2251 0
-1932 2275 0
1003 -752 0
-3039 647 0
3085 -1353 0
2565 -1724 0
882 197 0
-418 3141 0
1378 2069 0
1743 -1318 0
773 824 0
905 -1116 0
908 2952 0
1182 2111 0
-3331 2041 0
1824 -3071 0
-1188 -538 0
-1528 -3319 0
-65 2228 0
-1446 234 0
2114 3427 0
789 1503 0
-2194 3369 0
1773 -2798 0
3095 -38 0
1749 -2120 0
-3102 -2040 0
-2206 -2077 0
3266 2995 0
-1127 -234 0
-1560 945 0
-2347 888 0
2332 2923 0
934 -1652 0
3284 1267 0
62 2828 0
1733 -1483 0
3197 3050 0
1840 228 0
4 1176 0
1224 -936 0
-3487 130 0
317 278 0
-2901 -2757 0
-273 2548 0
-3457 1142 0
1103 -1445 0
-3350 -820 0
-162 -3387 0
516 -2892 0
2758 -1974 0
2114 -1342 0
1564 -685 0
2818 -1618 0
2441 1152 0
101 -2416 0
2832 -3353 0
1855 -1253 0
1172 3397 0
805 -1782 0
-1570 -920 0
-181 1473 0
-314 -2960 0
3237 -2197 0
-2437 1149 0
-2099 1181 0
1352 -313 0
-152 -3135 0
243 -323 0
3499 -2409 0
2538 1885 0
1942 -3241 0
2029 -376 0
-3214 -732 0
-1176 3199 0
2761 1690 0
209 -2858 0
2772 3403 0
223 -558 0
-3348 2047 0
3372 -1476 0
-2746 -530 0
2699 -404 0
3450 -2043 0
944 570 0
-2327 281 0
-3304 2048 0
-2395 2193 0
798 2561 0
2411 -1625 0
-47 1353 0
613 1365 0
-1882 -1980 0
-3035 507 0
-1024 -2651 0
-2698 2916 0
636 -991 0
2087 -848 0
2043 3301 0
2645 2020 0
155 2788 0
2993 15 0
-3023 -2315 0
3419 -363 0
267 2255 0
3355 3160 0
3453 1802 0
1059 -192 0
-1138 -2085 0
-2887 1655 0
1894 1299 0
92 -787 0
-3488 1733 0
3176 2314 0
-2294 -1561 0
1061 -3338 0
1771 -1473 0
-1004 -2509 0
-1681 -2207 0
2209 -1584 0
2708 2943 0
138 280 0
3469 256 0
996 2425 0
-367 -2452 0
-3381 -785 0
-2887 1635 0
2629 3340 0
-3445 2451 0
706 -2095 0
-3430 2069 0
2388 3079 0
2076 -1284 0
-876 -1333 0
-3271 -1620 0
1890 3483 0
-3142 -1717 0
-413 1038 0
-67 -1917 0
1217 -304 0
-1766 1218 0
-3271 1463 0
-1752 -2867 0
2295 -2251 0
-2285 -493 0
-517 -265 0
-2804 -422 0
2435 2021 0
163 1689 0
282 701 0
-2400 -31 0
309 -2056 0
2516 2317 0
-391 2166 0
-3400 2503 0
618 -541 0
2577 -2726 0
3089 -1724 0
-3335 1300 0
-3521 -232 0
1968 -2520 0
957 -1191 0
3314 -727 0
-1212 2052 0
-1480 1302 0
-1087 -3442 0
-1571 -82 0
-1306 -2434 0
1616 96 0
2672 564 0
913 2383 0
2426 -1165 0
-2901 3426 0
2402 965 0
2105 -675 0
1024 -2528 0
1344 3150 0
-2349 2091 0
939 1513 0
-1920 2407 0
1921 -1592 0
-1845 -1935 0
55 619 0
3284 -3342 0
-3344 -685 0
650 -2697 0
-588 344 0
-3032 -2825 0
3260 2610 0
-205 1163 0
768 2458 0
876 884 0
2609 -3169 0
1919 1624 0
-2782 -2810 0
-1633 1389 0
2859 582 0
-2863 -2345 0
613 -2907 0
-2056 1846 0
-97 3254 0
1403 -1654 0
2253 802 0
3309 -3199 0
-2986 -1555 0
2851 -946 0
2121 -3428 0
3177 -1792 0
-1271 2064 0
506 -1071 0
2407 2567 0
-1509 -3383 0
-2362 2987 0
2372 -1100 0
-1475 -947 0
3144 490 0
1054 2857 0
-3199 -2883 0
-2763 -2288 0
-1697 -3015 0
-1584 8 0
-571 -1576 0
665 3207 0
-2290 -2730 0
-1134 1035 0
703 999 0
2394 -1154 0
-1378 -1806 0
2083 -1381 0
-2551 3529 0
-2651 1877 0
2703 331 0
63 1265 0
-3488 -767 0
-2593 1105 0
1298 -1793 0
-1618 1493 0
-398 -1845 0
427 2056 0
3280 3139 0
379 2882 0
389 3082 0
677 -1180 0
849 1281 0
106 2434 0
-1896 -438 0
3355 3432 0
-424 -1239 0
1034 991 0
1884 -1366 0
-2254 -1399 0
-2478 3011 0
55 -1101 0
-249 -2376 0
3240 171 0
2763 133 0
2141 -256 0
-3409 -2732 0
-2754 -1866 0
984 -1807 0
3212 -3305 0
-487 -2540 0
-659 779 0
2588 -330 0
3095 -790 0
1709 -417 0
2687 -1443 0
2479 603 0
850 1940 0
-2798 2315 0
-1509 -1176 0
311 -942 0
-1955 3393 0
-855 2585 0
-2485 -3123 0
2460 -1496 0
-3004 -2104 0
-2051 2806 0
-353 -1679 0
3075 505 0
1738 1009 0
-691 1371 0
1178 -12 0
3326 -304 0
-1671 -2831 0
-2530 -380 0
-2199 -2017 0
-614 -2893 0
2878 2824 0
-1984 1844 0
-3271 -3379 0
2136 2811 0
-1288 467 0
-1582 2978 0
1771 -2631 0
-1057 -1501 0
26 751 0
3245 -2147 0
2367 -851 0
2452 -336 0
1562 2872 0
-2415 -3261 0
-1815 -828 0
-2004 -2608 0
-2085 156 0
-2520 3047 0
1846 -3253 0
-499 -1826 0
702 696 0
-426 1590 0
-1440 -2729 0
-3427 -3099 0
2337 3456 0
-3337 1830 0
1036 -240 0
2580 152 0
-493 -1909 0
2436 -2388 0
3238 3103 0
-1612 -3446 0
1078 -538 0
-1671 -3459 0
3399 2578 0
3504 3515 0
-1151 1751 0
1779 -652 0
-1591 3496 0
-3391 1951 0
2327 -2542 0
-305 -1436 0
2950 212 0
-1576 -1918 0
510 -2571 0
2231 -584 0
-2429 -339 0
584 -2036 0
510 -55 0
1323 -2482 0
2695 -1502 0
-1804 -1715 0
-2250 -2982 0
-1834 -2164 0
-3388 3155 0
-716 -2891 0
-103 -612 0
-22 -1834 0
-1166 3056 0
1464 -1373 0
1655 191 0
-892 -1212 0
289 297 0
-1784 88 0
2939 177 0
1308 997 0
2839 -38 0
-2704 -3376 0
-2025 -1182 0
-1793 2986 0
1537 -2289 0
-1461 -2355 0
-3021 -2601 0
1264 -3170 0
1530 -2508 0
2014 -1426 0
-239 241 0
941 3359 0
-2785 -79 0
-2845 2273 0
-1639 -1839 0
2680 -2630 0
2226 519 0
1448 1333 0
-2686 -2028 0
1096 231 0
3325 2720 0
-369 -2856 0
2786 -1338 0
650 -1037 0
-1426 -3507 0
1626 -2542 0
112 973 0
-1625 -2576 0
1795 1589 0
-205 873 0
-2600 1506 0
72 -2331 0
1432 3202 0
-958 -1413 0
-2890 2231 0
-73 120 0
-699 223 0
752 -712 0
2218 -3132 0
-1490 2719 0
-1888 2919 0
-3462 15 0
1202 49 0
3329 -1318 0
-1365 3297 0
639 -1019 0
1229 -484 0
-3266 1606 0
-1690 1895 0
185 -2550 0
-1168 -1952 0
911 -229 0
2277 3160 0
-1550 -364 0
-2350 2438 0
2168 1606 0
-690 3108 0
1979 1709 0
-2128 -846 0
-2090 1840 0
-1928 363 0
3042 1036 0
19 2987 0
185 -2115 0
-1811 3113 0
168 2278 0
-336 -948 0
2945 -1466 0
2384 725 0
-2837 1029 0
-712 1191 0
-3383 824 0
1130 2919 0
-2160 -3043 0
-2319 -996 0
-116 2428 0
1060 -2493 0
426 -953 0
-3507 1968 0
2403 -2634 0
-1466 -2218 0
-2700 -1993 0
2138 -183 0
-489 -2633 0
-2598 2978 0
1140 3048 0
-894 -491 0
452 -1533 0
-644 -3428 0
-343 -3049 0
-799 -2402 0
723 -704 0
1076 837 0
3496 -1921 0
-853 1350 0
1264 -1579 0
-901 2293 0
-154 2918 0
-524 2263 0
3282 -1484 0
-2304 -1147 0
-1343 234 0
-2478 3485 0
-3243 -1074 0
-632 -751 0
1446 1089 0
262 -1898 0
277 -2634 0
1047 1834 0
-445 153 0
18 2632 0
-2298 2174 0
1380 479 0
2147 945 0
1382 -1307 0
-1393 1844 0
-638 -1254 0
-854 2057 0
2647 1606 0
1267 3270 0
-3321 3340 0
-1437 -256 0
1318 -1538 0
2270 1312 0
512 -564 0
1108 845 0
629 2048 0
653 -3407 0
414 -698 0
-2714 -1670 0
721 1414 0
2427 -2858 0
-2939 -910 0
611 -393 0
-1811 -2118 0
-1802 662 0
616 2235 0
2147 2690 0
1208 -2869 0
2917 2280 0
3151 -408 0
2781 -2316 0
1688 643 0
976 637 0
-579 -3029 0
1047 -1189 0
161 3399 0
-1920 -3353 0
2548 3441 0
-679 -751 0
875 3147 0
-2625 2293 0
-3047 -3307 0
-2348 -753 0
-2881 -968 0
2679 2730 0
-2755 -2767 0
-496 2584 0
1891 2189 0
875 689 0
1457 2585 0
2866 3344 0
-1425 3106 0
3048 2926 0
-36 2482 0
-54 432 0
933 1926 0
-2127 -32 0
1348 554 0
-2591 3406 0
2655 2353 0
2742 3187 0
-1557 -2999 0
-106 464 0
-1651 856 0
1187 -3470 0
3187 1601 0
-2690 -2380 0
-1168 -1121 0
-2795 -294 0
-1370 923 0
1936 2970 0
-1321 670 0
812 1812 0
3024 -3152 0
-3026 856 0
-1292 2609 0
243 -269 0
3478 2786 0
-2019 1353 0
3419 -1208 0
3009 -1241 0
1074 -2178 0
540 1855 0
-24 3506 0
2170 -3155 0
3331 2061 0
3087 2378 0
278 -3251 0
3250 2484 0
-2411 -373 0
-1272 1135 0
-3163 -2219 0
2931 3477 0
-1380 -583 0
1628 3375 0
1630 3021 0
1806 -2119 0
-1020 -1297 0
905 -3007 0
1760 3138 0
-2101 1936 0
-2820 -1357 0
1613 -1190 0
-3315 2912 0
1703 1391 0
1668 350 0
-471 -2889 0
868 -1167 0
-1460 696 0
-694 2107 0
-1662 -1178 0
-3253 429 0
-3120 -2582 0
1749 2083 0
1846 2010 0
1431 2207 0
-1531 -884 0
-2858 -1466 0
1595 -772 0
-206 -2584 0
-2211 -472 0
-1935 358 0
1646 995 0
-8 -1337 0
2152 -1466 0
-934 2645 0
3476 -2641 0
695 -297 0
-85 644 0
-2887 -2229 0
2745 -3441 0
82 1912 0
2946 -2967 0
-524 1334 0
-2892 -944 0
-2959 -1279 0
2609 -1419 0
-1277 1089 0
138 -2372 0
483 231 0
1207 -1060 0
2407 2110 0
-3350 1049 0
1809 -2491 0
-1205 1381 0
1674 749 0
-529 20 0
1977 175 0
-234 2157 0
-1443 -2216 0
1634 -907 0
1337 1949 0
355 2349 0
-654 -3500 0
2172 1051 0
19 3083 0
-1773 1675 0
-2500 234 0
3244 -1748 0
-1784 2174 0
-2412 -1154 0
-1170 2081 0
-1809 -1669 0
1485 -2519 0
1047 -368 0
-1728 2645 0
1737 2353 0
-2530 -795 0
930 2431 0
-2951 1308 0
-948 -2894 0
-2036 992 0
1076 -1470 0
857 3284 0
1427 -2637 0
-3337 -69 0
2613 1087 0
-3004 1672 0
3383 -1390 0
228 505 0
746 -2481 0
-173 -1490 0
-2673 -3266 0
3387 252 0
-2262 -1074 0
-2677 2810 0
2850 2404 0
2462 -2933 0
2405 2809 0
-804 -538 0
3257 -2593 0
2413 586 0
2279 -3303 0
-1410 -3152 0
385 306 0
-2069 -2116 0
-668 -2300 0
-199 217 0
362 -725 0
1727 706 0
-3128 394 0
1732 414 0
-3411 3461 0
2587 -2594 0
3292 -2379 0
2165 -2867 0
143 1663 0
1827 -832 0
-1271 -1472 0
-624 1812 0
-3135 31 0
-77 -837 0
-2665 -2333 0
187 1523 0
193 -269 0
-1153 3268 0
-1623 2782 0
880 -895 0
-3311 877 0
-1798 -1196 0
2967 2580 0
-1773 -2489 0
-550 1416 0
1870 -2071 0
-1670 307 0
1618 1723 0
-1629 -813 0
3491 2588 0
2908 1191 0
-1821 -3099 0
-1409 -3017 0
-1524 63 0
-2596 739 0
-958 -3370 0
2747 236 0
-1609 -2139 0
220 -811 0
-101 2383 0
995 -1113 0
-249 -2717 0
-1447 -1167 0
-1495 -1805 0
3519 2507 0
-216 2987 0
-3023 -2330 0
-822 2964 0
-283 -589 0
-2602 3420 0
711 2359 0
2529 2611 0
2759 -649 0
-2058 -3300 0
-3201 2607 0
3375 938 0
2136 1004 0
-2796 -410 0
-3004 -1779 0
3340 2959 0
887 -3422 0
2862 -595 0
-3223 -3432 0
902 670 0
2798 -2028 0
1994 -401 0
-3050 2905 0
-1011 2745 0
411 1177 0
-1881 -1070 0
830 -2496 0
-3401 -902 0
1794 -3400 0
684 -684 0
575 -2332 0
2273 2647 0
-406 533 0
14 3501 0
116 1524 0
55 -2124 0
-1724 -2039 0
-2912 896 0
-2789 -2364 0
1389 32 0
-3218 -430 0
-1136 1391 0
-390 -1724 0
-183 2993 0
2536 2111 0
798 -336 0
805 28 0
3332 -1718 0
-2552 -582 0
1930 -716 0
1128 -567 0
3393 -1058 0
3178 -1274 0
2527 1940 0
2279 2458 0
2720 -1236 0
2578 1406 0
-2988 2595 0
2089 -772 0
-2574 -648 0
922 -164 0
2680 3448 0
2793 2183 0
-3448 1275 0
-1463 2680 0
1768 271 0
390 248 0
-1837 527 0
-3442 -700 0
1149 -3105 0
-300 -2955 0
1060 1764 0
-1257 -3399 0
-2294 521 0
1715 1708 0
520 1935 0
-707 -2060 0
122 1988 0
2450 1110 0
1360 -1681 0
-277 2461 0
1076 -423 0
-2529 3397 0
-2802 2595 0
2225 -399 0
1436 2293 0
2277 -1659 0
2274 -85 0
-1122 -1160 0
-3459 1867 0
-48 488 0
-2340 -537 0
3328 2281 0
-722 -860 0
1387 1784 0
-1667 1995 0
-298 -1646 0
1555 1496 0
-2235 1996 0
-2597 3049 0
-2901 2238 0
-1244 -1023 0
2162 -667 0
2248 1177 0
-2412 1548 0
736 -1227 0
-604 1172 0
-1278 -2290 0
3189 570 0
-1876 -3441 0
2815 -1115 0
92 -321 0
-1980 2438 0
-1859 588 0
2753 1859 0
3472 -550 0
1401 467 0
-1715 -948 0
1818 -2651 0
-1930 274 0
2606 3279 0
-1587 2244 0
-601 104 0
771 -3280 0
-3126 -3442 0
2276 -2261 0
1974 1411 0
-1763 -116 0
1643 1540 0
1979 2932 0
-2541 -475 0
-2738 3165 0
267 1475 0
400 -2781 0
-2495 1618 0
2129 2285 0
-347 -1478 0
2244 1392 0
2310 2562 0
2393 -1381 0
2279 -1442 0
2170 2248 0
1478 -3037 0
53 -2972 0
-3293 -1408 0
1517 3074 0
1078 -1307 0
709 -488 0
81 -1488 0
3256 323 0
-2508 -1694 0
-813 1762 0
-1119 51 0
630 105 0
-1015 1206 0
3028 -1153 0
-428 -3471 0
294 2329 0
-443 -2853 0
3077 -742 0
272 28 0
1543 -3004 0
-3445 1746 0
-2597 2140 0
2962 -2635 0
1107 -3201 0
3176 -2362 0
1197 -2686 0
725 -1786 0
1764 2902 0
-1474 470 0
1281 2580 0
1801 922 0
3307 328 0
-1819 -2495 0
585 -1828 0
-1870 -1613 0
-2231 3474 0
-1986 -1643 0
-304 -2766 0
-2395 2743 0
2231 -3447 0
70 -2285 0
862 -1117 0
1599 3201 0
2912 -3506 0
2281 -43 0
-718 -2998 0
1804 979 0
-2884 -2245 0
3250 1142 0
-2868 -2822 0
1655 2286 0
2817 2073 0
2917 264 0
2943 -1887 0
1202 3177 0
-349 -280 0
3048 550 0
810 1973 0
2445 1554 0
-2966 3247 0
2458 -304 0
-3424 1970 0
-713 3038 0
-2618 -538 0
-3025 2571 0
701 -2539 0
3152 2727 0
-956 -203 0
867 -1701 0
-2710 -3061 0
-3331 982 0
-276 -3246 0
-1200 -2742 0
924 -3425 0
3325 737 0
2153 -741 0
2894 2619 0
733 -2259 0
78 1457 0
2272 2607 0
-2551 2433 0
-2411 1378 0
-1697 -954 0
2727 -1909 0
904 -1542 0
1308 -753 0
-3461 -1882 0
-1255 -2631 0
-2906 2828 0
914 -2546 0
2584 1391 0
-826 -988 0
-43 2045 0
2594 2029 0
-2970 -1784 0
1492 3286 0
-1093 -733 0
1152 -2730 0
-1222 1702 0
1412 1843 0
-2886 -2202 0
-1372 1200 0
-2694 -1322 0
-2013 -2457 0
1731 -1388 0
2332 -1427 0
-1536 -2621 0
-2901 -43 0
627 -1784 0
-344 1822 0
-1031 3002 0
-3124 -2221 0
2263 -768 0
956 1754 0
-1798 -422 0
-1587 1115 0
3019 2585 0
1504 -158 0
-3490 1240 0
-995 1386 0
1984 437 0
-3225 -736 0
2826 91 0
-2495 -2960 0
-3193 2793 0
2256 -596 0
924 2032 0
-219 1320 0
-1967 -3014 0
2922 -2675 0
-2981 1076 0
1638 -2155 0
-377 -3445 0
1508 -51 0
-1531 -1158 0
-2681 2318 0
-1722 -1307 0
-1160 -3464 0
-1825 3235 0
-2949 4 0
-1374 2772 0
-2583 -2685 0
1638 2076 0
589 2761 0
501 2455 0
-3190 -1276 0
-1300 -75 0
-1276 -2406 0
3187 997 0
6 -313 0
996 -1675 0
385 -2745 0
2926 1359 0
-1519 3325 0
-2662 2318 0
1347 -1126 0
-1778 -314 0
1894 -1006 0
-2210 -700 0
279 -3019 0
197 -126 0
2556 1801 0
325 -2939 0
-1446 -2521 0
1523 2381 0
-2491 -305 0
2619 -3215 0
-151 -1986 0
-1127 -2362 0
-410 -1271 0
-2775 285 0
-2858 -2453 0
301 1267 0
47 -1776 0
1503 -1168 0
134 -758 0
1478 -3085 0
1589 -893 0
-994 -3366 0
-1398 -1888 0
286 1647 0
-1859 2846 0
159 2071 0
2297 -3163 0
-1752 -2300 0
24 -968 0
3374 -2053 0
3300 1925 0
-3263 2798 0
2749 -145 0
-3300 679 0
-1304 121 0
819 1644 0
156 1216 0
-2359 -2715 0
-946 -2864 0
-364 670 0
-240 1062 0
2009 2624 0
860 3325 0
-349 3126 0
-1046 -1396 0
3251 -2493 0
-2203 -1910 0
-2000 106 0
2157 -2555 0
-572 670 0
1231 2143 0
1143 2215 0
-568 -2382 0
-3321 -3309 0
1678 -1730 0
-2756 -1639 0
3323 123 0
-2593 -2357 0
-2213 -498 0
3216 305 0
2569 1031 0
-995 -497 0
-582 1270 0
2177 1689 0
-492 3143 0
-11 3483 0
-2068 315 0
-1726 -326 0
-1116 972 0
332 623 0
-147 2663 0
1452 -414 0
-590 274 0
-3057 3494 0
-1692 -1527 0
520 2710 0
2431 1599 0
17 2384 0
-2368 2165 0
-1772 -348 0
-1321 -2906 0
220 -894 0
1506 -1988 0
858 1243 0
-1262 -3191 0
3159 -1021 0
911 -206 0
-3326 -1901 0
3307 1002 0
-2352 -3333 0
2222 1860 0
-3124 2278 0
1608 14 0
299 516 0
418 -2651 0
263 -2692 0
-553 1441 0
3394 3527 0
-2820 -272 0
-1621 419 0
2939 -3338 0
-1137 -3101 0
-1202 -2250 0
2348 -1821 0
-1501 1911 0
-2480 -1290 0
2238 -1245 0
1775 -1609 0
2355 -3246 0
-2666 1842 0
889 -661 0
-1883 -311 0
2381 -1860 0
1232 -216 0
2694 3157 0
-1348 1954 0
3037 -3292 0
-3082 -339 0
-1756 -463 0
-2070 2410 0
-2037 3103 0
-3264 696 0
-1803 2803 0
2220 -780 0
-1978 1269 0
1822 -803 0
2903 -1850 0
-3379 710 0
-1649 -2128 0
492 -926 0
-2107 2805 0
-2229 -2229 0
66 2538 0
-3391 1033 0
719 3277 0
900 -2125 0
277 2765 0
2087 -1476 0
208 -2862 0
3473 266 0
-283 1447 0
-1215 3109 0
-3512 3046 0
1093 -78 0
-2316 -2175 0
-3271 1390 0
2111 617 0
390 -2960 0
1193 -1242 0
2425 -2712 0
2794 386 0
1133 -371 0
-1092 230 0
-2560 1890 0
3356 -2268 0
3425 639 0
439 2505 0
1226 2243 0
-2214 3198 0
-2327 -785 0
-2432 632 0
1391 -272 0
1450 -1242 0
3430 3320 0
584 2938 0
2687 3442 0
-711 -3374 0
516 2142 0
-14 2569 0
2910 -2739 0
-830 -96 0
175 909 0
-2765 -482 0
2464 539 0
797 2208 0
268 1832 0
2282 806 0
1829 2388 0
-3442 -1732 0
2675 130 0
960 1087 0
1710 2033 0
-1070 2768 0
297 -1310 0
-890 320 0
-1077 -2249 0
837 -2028 0
-1331 120 0
-1968 315 0
2585 -2975 0
-1346 2542 0
-47 -1997 0
2297 1267 0
1075 1360 0
-3149 -943 0
937 -1726 0
-417 1239 0
-2319 -516 0
-75 1976 0
-1792 -1538 0
1547 -2361 0
-1934 -2559 0
626 -2807 0
79 -904 0
-573 -1700 0
1952 2194 0
-1262 -1456 0
296 2846 0
1433 74 0
1976 1568 0
748 1088 0
2711 1979 0
1275 -1821 0
2392 55 0
980 300 0
467 -1043 0
1101 385 0
1998 -1688 0
1157 2089 0
2628 -677 0
-649 -935 0
1936 972 0
-2528 -219 0
395 -191 0
-3453 972 0
-2218 -3267 0
3360 1247 0
-2153 2932 0
2335 3423 0
1093 -901 0
-3462 -1094 0
1056 -1015 0
319 1047 0
3001 984 0
-1869 1510 0
1841 3389 0
-662 -1328 0
-1400 1968 0
1468 -1306 0
3231 2209 0
-2231 -3055 0
659 -2488 0
1002 -571 0
-3327 -1457 0
1948 -1432 0
2564 1741 0
-2541 2477 0
1079 -62 0
-2625 3043 0
-1766 964 0
3377 -1541 0
-1123 1098 0
1308 -3128 0
1182 937 0
-1698 -654 0
2606 -2700 0
-3517 -1009 0
-2158 123 0
-1108 727 0
2001 1830 0
-2637 -3061 0
1889 2052 0
-2362 -3376 0
2136 1352 0
2555 -1043 0
187 688 0
707 932 0
-1969 -2440 0
1529 -2714 0
-2011 -3203 0
1013 14 0
3332 2401 0
2580 2525 0
-93 517 0
1080 -2676 0
1668 1642 0
1195 2365 0
-2015 -1936 0
2649 -1982 0
-3102 -3312 0
2070 1157 0
-504 -1221 0
-2287 290 0
2308 -1775 0
2398 501 0
-1651 -3182 0
-3486 -2643 0
119 2794 0
1942 -869 0
3214 -1525 0
2728 1078 0
-1741 341 0
1940 -563 0
3047 -3463 0
970 -263 0
-1205 2751 0
561 -1372 0
555 -2675 0
3446 -1930 0
2377 1682 0
-3342 -1383 0
-2298 3301 0
1585 -1479 0
3143 -3196 0
1144 -3248 0
-1154 1994 0
-1475 -2582 0
-58 -1955 0
-1667 -266 0
-3076 -1088 0
3493 930 0
-3410 -1634 0
-3128 2016 0
-2840 2961 0
957 568 0
1564 -141 0
1299 1423 0
-1724 -885 0
3297 -368 0
-713 1791 0
1684 -2143 0
2106 3453 0
516 -3241 0
1413 2678 0
2791 -2955 0
-749 945 0
-3172 1901 0
-1682 -3520 0
-845 -1993 0
-2193 1161 0
-826 1754 0
3397 -2623 0
840 -925 0
2457 3077 0
-2054 2948 0
-53 -1632 0
2578 -1318 0
3260 -2958 0
-2556 -1065 0
574 -258 0
-348 -2039 0
1677 3005 0
1706 -842 0
902 2420 0
3293 -3145 0
-3485 -551 0
2957 -1328 0
2926 372 0
-1678 -2556 0
-3350 -316 0
-252 2560 0
-3486 -943 0
3147 1347 0
439 -845 0
-2464 -2209 0
847 576 0
-3005 3378 0
-1601 -1983 0
1959 988 0
3284 -1301 0
1774 3359 0
-238 -536 0
667 -3305 0
2437 -1293 0
-86 -1929 0
1334 -2884 0
1554 -489 0
-1120 1508 0
-2340 2185 0
2390 -1920 0
-1897 177 0
611 -3376 0
-2216 1180 0
-1338 231 0
-1404 1690 0
-1757 980 0
1706 -3239 0
2450 2044 0
2572 1460 0
-1966 2277 0
-2080 -1085 0
-912 -1182 0
-2050 -2215 0
3411 -3138 0
1230 -888 0
-1717 -2958 0
2096 -2616 0
1 -1835 0
2968 342 0
2640 23 0
-2675 -890 0
-3513 1770 0
-1011 -300 0
-624 1278 0
-2956 -308 0
-1664 1794 0
-143 1159 0
-526 664 0
-1540 -2438 0
-1893 916 0
1707 3065 0
-2283 -2230 0
2609 466 0
2014 -697 0
-574 -1263 0
-159 1000 0
3166 1227 0
1083 3136 0
2246 -423 0
1369 -2121 0
-1735 1731 0
88 309 0
-702 1031 0
746 1476 0
-272 2163 0
2305 2009 0
138 -1605 0
1070 3359 0
-3301 963 0
-3412 158 0
-1064 2502 0
2466 2968 0
1829 1198 0
1279 1707 0
-1811 -2338 0
137 -3149 0
2185 3260 0
2135 -1958 0
-3015 1936 0
-1379 2332 0
-3111 2329 0
-783 -2211 0
-2350 -175 0
366 2455 0
3021 46 0
-838 2232 0
-2196 -2327 0
2460 1232 0
1024 -282 0
448 1990 0
1894 -1621 0
294 -471 0
703 2092 0
-102 -2817 0
2969 1282 0
-3372 2711 0
2611 -2994 0
-3120 -1941 0
-3043 -191 0
-3125 -658 0
-3391 3261 0
-1806 -1324 0
1630 -3195 0
31 -8 0
841 -2915 0
-330 3 0
1428 1198 0
-3203 1314 0
3011 354 0
2093 -3040 0
-2939 2846 0
1341 -2419 0
-372 763 0
1276 -3061 0
-2179 2220 0
-2095 -3196 0
-374 801 0
-818 -1181 0
2939 -14 0
333 1850 0
2566 375 0
-1105 -2969 0
2860 341 0
-3182 2137 0
302 -1891 0
-1722 1251 0
-3354 -1881 0
-2991 2188 0
-2401 1617 0
67 1997 0
3265 2441 0
-2183 3465 0
2506 -2058 0
-1743 -1799 0
746 -3426 0
-3018 2784 0
2137 -3013 0
-1495 2434 0
2257 1682 0
-878 2013 0
1949 -2386 0
2033 -1588 0
-2476 1240 0
-3065 -1188 0
2266 2241 0
3191 333 0
811 680 0
3085 3016 0
2698 34 0
-1490 2764 0
-386 -1745 0
551 92 0
2877 -3382 0
-1700 -2853 0
2773 3104 0
3424 533 0
-1106 -2691 0
3040 -1721 0
-613 905 0
-2822 2851 0
1746 1508 0
225 -876 0
3519 -3114 0
2519 -1987 0
2531 -804 0
-658 2930 0
2473 -3127 0
-568 1650 0
736 -2501 0
1607 2643 0
2167 1636 0
-2968 1418 0
-443 -3297 0
-926 3019 0
-2362 1643 0
2329 1539 0
-1745 -2541 0
3452 3392 0
-733 -3213 0
-629 -3198 0
2225 2609 0
-328 1848 0
764 -1800 0
2336 257 0
1985 3482 0
-233 1405 0
1019 528 0
2420 2400 0
2868 -1572 0
2744 1010 0
-958 -1768 0
-2006 -2689 0
-2861 -548 0
-1244 -632 0
-1492 -3269 0
-225 -1939 0
-2984 -305 0
1919 -1155 0
-3437 -999 0
-479 -1934 0
-1640 -428 0
-348 -65 0
1799 -3170 0
-625 2012 0
-964 2167 0
2668 2697 0
1886 2272 0
-2113 1827 0
-3502 -1119 0
-3432 -57 0
1049 -3366 0
1086 48 0
-2775 2239 0
-1672 -3219 0
3262 2170 0
-2247 3322 0
-142 -3165 0
909 -1245 0
1255 -1084 0
-1159 1396 0
-547 2336 0
-3214 -2551 0
-2799 -1266 0
1799 395 0
-2159 -2482 0
-919 -193 0
2801 516 0
962 1610 0
1181 -1706 0
349 -22 0
3046 2987 0
1334 -2698 0
1411 742 0
-830 2988 0
123 -377 0
-1925 238 0
2169 896 0
-2120 -753 0
-337 -1497 0
2762 1968 0
-798 -218 0
-1444 -244 0
2311 854 0
-315 2907 0
885 572 0
-465 -128 0
-1955 -1577 0
3362 247 0
-1696 -980 0
1244 1936 0
2957 -3328 0
2631 -954 0
-1417 -1471 0
-1028 -2289 0
-2612 -1630 0
1248 2634 0
-1536 2606 0
-475 3024 0
-2729 -635 0
-3321 -1527 0
572 -3346 0
-2154 1353 0
2041 85 0
434 -2418 0
-505 489 0
1754 -773 0
374 2370 0
1496 -3485 0
489 1280 0
808 2509 0
-272 1170 0
-2358 827 0
3202 -2112 0
-1003 -3056 0
-1619 3301 0
-1372 -3050 0
122 36 0
-2772 215 0
3450 -1575 0
-3418 2410 0
-1260 -1030 0
251 -2203 0
-3152 -1639 0
-2420 856 0
2144 -2114 0
-8 126 0
2589 -2965 0
-2991 -1284 0
-3291 2525 0
-1901 -312 0
-583 -616 0
-690 2972 0
-3154 -1262 0
3308 2730 0
1986 2902 0
-975 -1382 0
231 -2313 0
3221 1718 0
2653 1468 0
3332 -2614 0
1201 -1179 0
-1029 2309 0
2779 2940 0
-740 1883 0
-1002 612 0
1691 -224 0
2415 -314 0
-1848 912 0
-3325 3183 0
1702 937 0
-3060 1687 0
2426 1362 0
1354 -2111 0
-3041 -2219 0
-2932 2825 0
2557 -2164 0
3003 1327 0
2801 1743 0
1257 -1758 0
-183 1761 0
3155 2091 0
-1158 2847 0
3216 -1688 0
596 2490 0
-1026 -3004 0
3097 1056 0
-1460 -1351 0
1049 1172 0
-2680 1149 0
-434 -371 0
-151 3439 0
1255 -1978 0
-2533 2567 0
-95 -1031 0
-2987 -1276 0
2313 -1072 0
-2362 -548 0
610 -672 0
-1645 2828 0
2486 2344 0
-761 1070 0
-1817 -2932 0
-430 -140 0
3308 -1280 0
-1252 -2443 0
-2750 -1762 0
1994 -1753 0
-1775 1847 0
2404 -757 0
1510 -107 0
-871 -363 0
81 957 0
1928 -2486 0
191 -1670 0
-3225 2096 0
-605 1943 0
3359 -589 0
3212 2461 0
2182 -294 0
2875 1672 0
3510 -530 0
-377 -2564 0
-1103 2544 0
-1719 2586 0
-3111 809 0
1855 -544 0
2619 -2661 0
-1470 -208 0
-2871 1530 0
3433 963 0
984 -1741 0
1232 2724 0
-403 -3306 0
-935 -594 0
-45 -1056 0
-1036 -3039 0
-3263 -3372 0
-3070 2256 0
1207 3025 0
2163 -558 0
-97 -472 0
-3438 -3155 0
-907 3287 0
1193 -3113 0
-3488 1638 0
-3328 -1182 0
1735 1223 0
3354 -2948 0
-2913 1214 0
-1493 -547 0
-1806 -1427 0
-347 -1440 0
-1540 -1947 0
971 2276 0
-2703 921 0
2319 1406 0
1290 3456 0
1523 -741 0
-2860 -3055 0
2973 1665 0
-1534 2970 0
-2798 -125 0
156 3404 0
-2814 -2125 0
2494 1387 0
-2721 2296 0
-1292 3011 0
-434 -3172 0
3249 765 0
-2280 1911 0
612 1128 0
1392 -38 0
-634 -1001 0
82 -359 0
-1188 2234 0
236 3528 0
1166 1087 0
-3128 -1613 0
2470 2761 0
1574 1949 0
2490 -2793 0
3256 -3319 0
-3204 165 0
2141 -2870 0
-1278 -1399 0
-2226 2337 0
-1465 -3014 0
-3050 -1009 0
-689 2021 0
-66 1563 0
-3140 1259 0
-868 -1906 0
2877 2811 0
-1009 -2432 0
-2800 2313 0
2215 1444 0
-538 -2584 0
217 1053 0
-2100 1424 0
-3019 1878 0
1687 1769 0
1122 1859 0
352 -8 0
-1859 -3287 0
-358 3038 0
3269 -1421 0
-2616 -832 0
2501 309 0
-306 -1409 0
2804 19 0
221 -2883 0
-1443 1696 0
3361 1193 0
1555 -1651 0
-2037 1059 0
-1288 1946 0
-2654 398 0
-1213 -1394 0
1398 -1602 0
1533 285 0
-3359 990 0
-1251 -324 0
2282 3494 0
-419 1167 0
-3475 1787 0
1081 -1526 0
-2536 -2629 0
-1654 -1151 0
-994 -3178 0
3315 2040 0
706 2975 0
-2529 -2811 0
1491 -1804 0
-3492 2255 0
1080 6 0
-2549 -2410 0
1810 -391 0
-654 2429 0
3027 1617 0
-1925 -450 0
897 -1688 0
-2134 -2449 0
2913 2510 0
-1454 -182 0
1685 2774 0
-77 277 0
124 -944 0
2297 353 0
1240 -1444 0
-811 -2679 0
3018 508 0
-1378 433 0
2606 1311 0
-1770 2395 0
323 -2893 0
-1758 3464 0
1553 600 0
1793 -1699 0
-3498 690 0
3372 2196 0
228 -3479 0
-74 824 0
3056 -2536 0
2068 908 0
-2963 -3103 0
1502 -2576 0
2884 3150 0
1711 3344 0
2602 -879 0
1040 -1747 0
-1006 -1687 0
-876 -517 0
21 -2765 0
2929 -3170 0
1811 2459 0
-1455 2463 0
1295 1051 0
-2038 1498 0
-1510 -511 0
-1607 1816 0
214 -2362 0
-2103 -2101 0
-50 -532 0
389 1950 0
-1364 416 0
2443 446 0
117 -2554 0
-3259 -1962 0
-316 -3188 0
896 1868 0
-1911 -3347 0
-117 202 0
-1489 -3234 0
-40 3001 0
2861 -1174 0
2764 -1303 0
-893 -3479 0
-1328 2428 0
1102 -2419 0
824 712 0
-825 -3327 0
-1523 -1011 0
699 1016 0
-3112 -2597 0
-658 -1282 0
-2254 -761 0
-1306 -3283 0
2727 671 0
2466 -590 0
-2393 -2017 0
-180 1104 0
3329 2344 0
-3163 2156 0
-171 -2897 0
3493 -380 0
470 1405 0
-562 1344 0
3423 -418 0
1727 505 0
2106 517 0
-1977 637 0
-2262 2283 0
55 2924 0
2091 -1434 0
2556 862 0
-205 2026 0
2168 -621 0
-1153 2248 0
-2218 -172 0
-2277 1104 0
-481 2952 0
-2084 -2997 0
-2225 1378 0
1016 -2768 0
2962 -1850 0
275 3257 0
1465 -2799 0
-460 -1723 0
911 -1890 0
2055 -2289 0
-816 -2714 0
338 -689 0
-3303 2118 0
-521 1262 0
507 -250 0
-1881 -1901 0
3106 123 0
1391 2424 0
614 3057 0
179 -231 0
-1407 -2742 0
-1978 -1211 0
125 -2232 0
1184 -1115 0
1577 -3288 0
-334 -2948 0
-3463 2040 0
2363 1658 0
-1251 3182 0
1901 -713 0
1139 -402 0
1811 715 0
-3349 1033 0
-471 -2060 0
-2324 -3163 0
-2516 367 0
812 2260 0
796 115 0
2805 2813 0
510 -3517 0
-1175 663 0
345 1489 0
2876 729 0
2239 1584 0
1142 1170 0
1563 1816 0
-2464 537 0
-777 2735 0
3240 364 0
-2300 965 0
2268 -1802 0
814 -2230 0
-1295 1723 0
-559 -2589 0
-2676 -829 0
1113 -52 0
-3219 2171 0
-3502 -102 0
2195 11 0
-3170 -2754 0
694 2070 0
-968 3145 0
2410 -2832 0
2935 -2217 0
-1344 -114 0
2328 2040 0
2857 -1444 0
3063 2515 0
-503 1830 0
35 577 0
-3295 -2448 0
-2547 -1612 0
-942 1541 0
-240 847 0
-1203 -3441 0
-3415 2532 0
1013 -1932 0
-222 -3146 0
215 2281 0
-139 -2780 0
294 -1488 0
-2410 306 0
-960 395 0
3011 -72 0
-2406 -3297 0
355 -529 0
2685 -248 0
3377 334 0
68 -3196 0
363 -1244 0
86 -3288 0
1255 -2111 0
2908 2667 0
2986 -2611 0
1119 -135 0
-784 -2225 0
1530 1432 0
-3252 642 0
1308 3520 0
2869 1716 0
1286 2244 0
-3349 -207 0
-2430 -2538 0
657 -1240 0
-644 1597 0
2048 -307 0
426 -1575 0
-2698 3047 0
2918 -1616 0
3169 -285 0
1842 -636 0
-1762 2152 0
-3159 -1193 0
3293 564 0
-246 2332 0
-3140 2110 0
1495 2241 0
1727 -570 0
1529 2843 0
-722 -1229 0
202 -3455 0
998 -693 0
-2044 115 0
432 1973 0
861 -1795 0
-2897 -2831 0
-2474 -597 0
775 3239 0
592 -450 0
2904 2036 0
3042 -3318 0
2432 3510 0
-1051 -42 0
287 -136 0
-2532 1014 0
1153 1901 0
1661 1396 0
1133 2763 0
2376 -2240 0
-835 -1139 0
-2186 369 0
-1399 171 0
2433 191 0
3125 -1950 0
-2475 2783 0
3035 -2478 0
806 -1947 0
1927 2442 0
2397 3173 0
169 -2889 0
885 -1604 0
-3172 2097 0
-3413 126 0
769 -3006 0
236 -1251 0
2199 -934 0
-101 2386 0
1787 -3153 0
490 -1486 0
-613 2242 0
1124 -2834 0
3414 -1252 0
821 -2122 0
-1355 -2542 0
-69 -3082 0
-1934 -3236 0
1464 -3306 0
-2808 2958 0
1508 1695 0
1100 -1570 0
3241 -2465 0
1034 2769 0
890 734 0
3399 3404 0
600 206 0
-1113 1086 0
203 1503 0
1224 180 0
266 1695 0
1616 -2076 0
227 195 0
-2442 -113 0
641 -3047 0
-2913 -1411 0
-1884 2462 0
-2380 1390 0
-3328 -2259 0
-925 -1749 0
1240 1662 0
289 -316 0
-2831 970 0
-689 -871 0
-751 -1407 0
482 -1074 0
-490 -893 0
993 427 0
319 -3106 0
-3361 150 0
1304 -1719 0
-1037 -3432 0
-1944 1963 0
-3434 -1934 0
2649 -3429 0
1677 -2560 0
-1054 64 0
2537 -2164 0
-2631 -141 0
-1957 576 0
-1620 1707 0
3148 1393 0
1372 -3426 0
2994 1521 0
1250 -142 0
-1776 -406 0
1393 -689 0
-1990 -3188 0
367 -3522 0
-2799 -3143 0
-3010 -1876 0
2523 -204 0
322 385 0
2121 -127 0
-3513 369 0
-2681 -1635 0
333 2916 0
-1032 -2582 0
-3410 1980 0
617 2733 0
-3090 1793 0
731 -1263 0
195 -2599 0
594 -1542 0
2937 1613 0
-1374 2360 0
2276 -274 0
1233 674 0
2667 -877 0
-871 21 0
3204 373 0
-3444 3409 0
-2601 -1234 0
241 -3063 0
-3181 1035 0
1527 -1062 0
679 3009 0
-1914 781 0
2946 -2836 0
-2833 -610 0
-2218 179 0
-2676 -1092 0
-3083 185 0
433 -742 0
-960 -2373 0
2978 -28 0
2523 2685 0
1622 1231 0
-1523 -1488 0
991 1801 0
1109 2567 0
3143 -1796 0
-8 2799 0
3260 -3009 0
-3316 -2625 0
3220 -2963 0
1494 -3159 0
2379 2460 0
1052 -2945 0
-1244 1419 0
94 -871 0
3022 1829 0
-2886 -844 0
-1987 2732 0
-768 1997 0
-3189 -1095 0
-2711 -1501 0
-2055 591 0
-320 -534 0
761 3154 0
-1003 3309 0
-876 -2522 0
254 2311 0
2407 2732 0
23 929 0
3185 1759 0
472 1801 0
-1698 -879 0
-1175 3022 0
2659 872 0
-772 -2267 0
937 -3321 0
3293 -2005 0
-2422 1339 0
2374 -693 0
-3427 -1947 0
2474 -876 0
3178 2293 0
-2657 1546 0
2770 1829 0
-1841 1293 0
-1102 1263 0
124 -103 0
1187 1322 0
-1019 -408 0
-2519 3207 0
-3246 197 0
-1918 2340 0
852 3486 0
1401 3213 0
1294 -2879 0
-2540 -240 0
3467 1443 0
600 -3487 0
-602 -248 0
-2531 -2414 0
730 -425 0
-3042 3290 0
-3274 -1070 0
2186 2112 0
-2059 518 0
-1072 362 0
-1022 2047 0
2404 2441 0
-2196 956 0
-1029 -3223 0
1767 -27 0
-224 -2692 0
2227 -2946 0
-879 2595 0
-3202 -232 0
505 -224 0
2166 1873 0
-2490 2198 0
533 2027 0
2711 -1521 0
1244 3032 0
1985 -1929 0
2029 -838 0
-3304 532 0
1648 2272 0
-1077 702 0
3472 2921 0
554 -2273 0
-745 2095 0
2672 687 0
643 -1646 0
-757 1703 0
2833 -1168 0
1234 2183 0
904 -183 0
-2151 -3040 0
-2904 2353 0
3231 -1981 0
2720 -2726 0
3164 -896 0
-3460 864 0
2788 2114 0
-2300 -643 0
-1544 -1390 0
-3070 -671 0
2976 2498 0
-14 -2697 0
135 -609 0
-1613 -2204 0
1177 2973 0
-2452 892 0
1792 174 0
-11 1507 0
-216 -1791 0
1618 -1257 0
-105 -3383 0
-3260 2672 0
735 -507 0
-768 -2536 0
-97 1360 0
-950 -3193 0
-2700 -2963 0
24 3309 0
3495 -3252 0
1688 867 0
3250 -1560 0
1458 -2120 0
-666 -2643 0
-2242 -1127 0
906 -481 0
1028 -835 0
-2184 424 0
-529 -2019 0
546 -2019 0
3141 2957 0
1755 2951 0
2581 1795 0
640 -892 0
-3487 -3153 0
3133 1871 0
-297 -2661 0
-1354 -2954 0
1556 -1439 0
685 -1273 0
-2982 632 0
2866 -2061 0
-1707 3510 0
1035 -2095 0
211 1999 0
-2618 -3080 0
2052 -3219 0
-2899 -2191 0
3155 -2905 0
875 -2602 0
-1215 -571 0
-1461 -915 0
-1376 72 0
1018 2056 0
2477 -3043 0
-3272 3270 0
-2373 3154 0
1980 2817 0
-1695 326 0
-2566 -3241 0
-275 -1622 0
-973 2321 0
270 -1631 0
-3055 3227 0
-3480 1868 0
806 1991 0
2538 1902 0
-636 -814 0
2456 -3172 0
-2092 -198 0
-601 3026 0
120 2262 0
807 -2739 0
2440 -3078 0
-2923 635 0
632 -1674 0
299 2683 0
2614 -1388 0
3386 1339 0
-1662 3263 0
3128 2152 0
-489 -1262 0
390 -1624 0
-1974 -200 0
-3273 555 0
-1355 2630 0
-641 2595 0
3194 1652 0
-1125 1862 0
-80 -1814 0
2820 -3017 0
1453 1107 0
2231 2842 0
-320 -1438 0
-1041 2692 0
-1759 1113 0
-2396 1924 0
1194 1008 0
1663 -2537 0
-820 3506 0
-1977 -2741 0
-1682 2733 0
3030 1171 0
1180 -1880 0
2953 -3073 0
-234 -2622 0
1171 -1020 0
-1815 972 0
-752 -1125 0
-2093 -1939 0
3255 -1170 0
-2794 -396 0
49 -2771 0
-2473 -325 0
-3260 1636 0
236 3389 0
293 -2744 0
-2894 1049 0
-740 2124 0
-2471 -142 0
2052 399 0
-523 -2665 0
153 -1142 0
1810 1473 0
-336 -180 0
-2456 765 0
-372 1554 0
2902 1632 0
289 2426 0
-6 2055 0
1217 126 0
2316 3307 0
-2043 2859 0
-655 890 0
-2179 2357 0
-1786 739 0
1744 -3323 0
-1241 2680 0
-1158 -1281 0
-2275 -1575 0
-385 827 0
3420 1250 0
1356 -493 0
1400 3155 0
-2561 -823 0
43 -673 0
-2134 988 0
1559 1593 0
-1129 3373 0
-1152 766 0
-706 -3153 0
-153 -329 0
-558 3450 0
-1434 -97 0
255 2010 0
-1966 805 0
1815 3413 0
-2288 -272 0
2860 564 0
-1026 -1160 0
2902 1200 0
1308 544 0
3322 742 0
2276 2431 0
-1885 -2212 0
-713 -2075 0
2311 -59 0
2642 2861 0
-2340 -662 0
2942 -1302 0
-556 1461 0
-2482 1742 0
-1723 -638 0
2912 -110 0
-382 2660 0
3248 -3142 0
3517 37 0
-3401 -1680 0
-2392 -478 0
-994 -2765 0
-2006 -3359 0
3423 -1000 0
-2213 1532 0
-2654 -2286 0
-731 1340 0
-475 -3183 0
-502 2033 0
-3388 -1872 0
1036 -1944 0
2609 -1625 0
-2384 -2488 0
23 2553 0
-226 -2011 0
2199 -3008 0
-325 1885 0
921 -2116 0
468 451 0
367 -1117 0
3133 -3489 0
-2709 2435 0
-2062 1230 0
2750 -2085 0
-378 953 0
3177 -9 0
1507 -538 0
3024 1871 0
1526 -3288 0
20 2645 0
-2741 2155 0
281 2401 0
442 -1332 0
2647 1708 0
426 2237 0
557 -1158 0
-655 -3525 0
-851 591 0
-2825 -316 0
2580 -2836 0
876 2917 0
514 -506 0
-2045 1489 0
-2026 -2536 0
-1155 1970 0
942 -3025 0
487 1086 0
489 -1097 0
1863 -370 0
2585 1565 0
-95 -2365 0
-1042 -2090 0
3389 -218 0
-1322 344 0
-3169 3203 0
-3129 -1243 0
-3527 987 0
-285 -958 0
883 -723 0
3458 2438 0
2873 1809 0
2263 -202 0
1129 -1784 0
25 1045 0
-2021 -2080 0
2085 -2654 0
1096 -1949 0
1653 3393 0
3521 1306 0
2010 1853 0
460 -2864 0
-254 1007 0
1299 3453 0
1849 -156 0
2450 -1927 0
1493 -3113 0
517 -2411 0
-1663 207 0
661 1419 0
2094 -961 0
-6 -1492 0
3265 1104 0
1218 280 0
-2266 -1819 0
2370 1407 0
-3280 -289 0
854 1489 0
2751 2588 0
663 743 0
1549 -238 0
-3307 688 0
-1533 -312 0
1862 1329 0
2590 1210 0
829 -248 0
-3154 514 0
679 1940 0
-1779 2239 0
274 -396 0
-1696 -1631 0
-3025 -48 0
-3443 -991 0
2769 -90 0
-3070 302 0
27 2838 0
-3350 -307 0
-38 2296 0
1088 -51 0
-2906 935 0
-1104 1379 0
620 -2617 0
-3092 -8 0
-422 -2659 0
1970 -1934 0
-2390 1534 0
2418 3053 0
-1512 -2956 0
-145 1571 0
2355 3014 0
2208 -1412 0
-192 -757 0
2324 -3007 0
607 -2540 0
20 -2605 0
-1966 -3262 0
-973 2821 0
-940 -2879 0
2026 3075 0
-1003 3458 0
-3429 442 0
-2382 3232 0
2067 -203 0
-1116 -879 0
-3049 54 0
381 -2603 0
3105 -308 0
30 1562 0
2793 -3236 0
2324 -2179 0
3028 710 0
-3233 1894 0
-3273 -1638 0
-529 -636 0
2397 -1494 0
3059 1788 0
31 661 0
2443 979 0
2199 1330 0
-122 429 0
1520 1283 0
-480 -2045 0
-3042 -885 0
-3478 -1462 0
-2230 668 0
-303 -1211 0
-3256 1038 0
-2397 142 0
-1189 1827 0
-2737 2517 0
-2446 231 0
-114 3010 0
749 260 0
1137 3499 0
116 -3148 0
-2620 -2615 0
1636 1107 0
-3044 -607 0
3241 -2641 0
-3066 -3028 0
-3280 1657 0
-1289 -3267 0
-454 -1030 0
2438 -1552 0
3150 -291 0
-2399 3174 0
2993 -3510 0
2963 159 0
-1978 3011 0
1014 -1495 0
-1022 -3516 0
1832 -1288 0
1835 241 0
2329 2653 0
2771 -691 0
-2081 706 0
-1211 1131 0
592 -3305 0
-2361 688 0
1619 5 0
-178 -444 0
-2497 964 0
-2140 635 0
-606 -1885 0
-2412 -1955 0
19 3423 0
1358 3048 0
2930 -791 0
-2633 1640 0
1551 1441 0
-3259 2266 0
-2777 2638 0
149 1702 0
-3153 -2205 0
224 364 0
-1440 2731 0
2161 2096 0
2528 -625 0
-11 3197 0
2727 -1220 0
-828 -2110 0
-2645 -1993 0
-170 -948 0
-944 -3371 0
3488 2687 0
1655 -960 0
395 -2931 0
1172 1999 0
989 1747 0
-1992 2136 0
905 -2545 0
1588 2985 0
3456 -3306 0
2587 -1123 0
-2088 2152 0
860 -342 0
783 -1808 0
-568 1704 0
1035 274 0
771 3487 0
3383 -2683 0
-3360 -846 0
208 1742 0
-1926 2171 0
-1213 -1243 0
-846 -948 0
681 2248 0
2740 -1809 0
1858 2936 0
-1671 -1447 0
-64 -443 0
1136 -2498 0
1192 -1776 0
-1662 -128 0
-815 1663 0
-629 -1522 0
3481 3298 0
2923 -3102 0
2025 -2542 0
-776 -2389 0
389 1267 0
3232 -2090 0
-1441 -693 0
-132 -2705 0
-899 2551 0
-3338 -1572 0
-1847 2782 0
-3428 -3410 0
1893 -1457 0
3051 -1721 0
1256 3045 0
251 535 0
-1516 2445 0
1405 734 0
-2478 919 0
-1162 2277 0
-3428 1489 0
-29 -3419 0
-2333 -1435 0
1381 1061 0
-1915 1783 0
-29 2054 0
-1760 -3345 0
-733 3062 0
82 -2837 0
-1340 1095 0
-2787 -2426 0
-2096 1475 0
1554 2225 0
2141 129 0
1755 -444 0
-1010 -1828 0
1458 -2449 0
3138 3341 0
-1671 2273 0
-1863 -779 0
-3248 1448 0
3367 1526 0
-2954 -1220 0
2251 384 0
-305 -2453 0
1675 -774 0
1870 -104 0
239 1803 0
120 -1078 0
-3076 -2892 0
3287 2353 0
2458 3013 0
3086 245 0
1014 -1771 0
-3478 -2777 0
581 -1323 0
294 -407 0
-3273 3165 0
2680 1773 0
883 1581 0
3314 921 0
1594 -2531 0
-1940 2194 0
-1768 -293 0
-199 118 0
-2046 369 0
2417 3128 0
-2333 -2561 0
593 -480 0
-93 -1828 0
1640 -2343 0
-1264 1566 0
730 459 0
-334 -1596 0
702 2869 0
-3015 -1203 0
1787 2061 0
2975 2897 0
-688 1508 0
-291 432 0
1283 1128 0
-1015 464 0
-534 2962 0
-2005 -2439 0
-3311 3149 0
2680 1791 0
1584 1532 0
1360 -291 0
-2037 -1795 0
1280 -955 0
-2306 -1579 0
-820 -2852 0
-47 -3485 0
1345 1323 0
-985 2490 0
1824 1213 0
399 -3364 0
-1474 1745 0
188 2337 0
-3186 -1555 0
1157 175 0
3316 2083 0
-2848 861 0
1032 -3365 0
3482 -3254 0
261 -1006 0
2072 245 0
-826 -2667 0
2425 -614 0
217 1587 0
-3097 390 0
505 2826 0
-1592 2828 0
-2745 -2644 0
-1950 -3468 0
-1811 -2868 0
-2992 3452 0
2941 -1986 0
1949 2895 0
-1753 -558 0
2973 -3458 0
-3266 -1264 0
588 1068 0
110 933 0
1506 2755 0
3116 -3487 0
-2039 -2113 0
-1455 -862 0
2483 -1006 0
2482 185 0
-1278 2796 0
-2683 -1223 0
3439 -98 0
-1757 -2202 0
1535 3004 0
2112 3249 0
288 1176 0
-1577 -3195 0
-3366 -639 0
-1254 1874 0
838 -1568 0
-1793 -232 0
1923 1789 0
-1640 -1627 0
-1897 -201 0
-1431 816 0
-1431 -700 0
251 -1544 0
3201 -1893 0
2853 -3132 0
2868 1411 0
1250 -69 0
-2771 -1674 0
-1115 1930 0
-2169 -264 0
-294 1513 0
-3220 1302 0
-274 386 0
-3307 -1156 0
-1835 3497 0
-832 -3198 0
612 -2209 0
1673 832 0
2389 2232 0
-2361 1460 0
3270 3115 0
2445 -202 0
2343 3131 0
3255 -1613 0
-2217 1902 0
1177 3387 0
-2558 2919 0
-2832 -2725 0
-1583 -896 0
-818 -1101 0
-2324 1151 0
-823 1657 0
-2539 -2507 0
3020 251 0
2307 140 0
2170 3189 0
-994 1828 0
-2382 -3211 0
-1722 -391 0
1428 2246 0
-778 1939 0
-2610 -2920 0
-672 -2352 0
-1188 -261 0
2438 -2485 0
2840 281 0
967 243 0
3084 -446 0
-1219 2964 0
-457 1246 0
2541 -383 0
-3295 -1821 0
-348 3496 0
-3328 -3471 0
1109 2271 0
-2601 -3145 0
725 -824 0
-1643 729 0
-1974 -213 0
-2388 -955 0
-2258 -2897 0
2508 -3193 0
-828 -503 0
3124 -3043 0
2937 -3516 0
-2160 -128 0
1310 -419 0
-3047 945 0
-3306 3107 0
-253 1214 0
-2473 1754 0
-241 416 0
1170 2704 0
-619 -925 0
3478 3247 0
-2904 -3155 0
1819 -796 0
2036 -108 0
-42 -656 0
-1648 -1409 0
2797 1533 0
-145 362 0
-696 3245 0
-1415 137 0
-1661 2279 0
2234 755 0
720 -1748 0
-1221 2951 0
1672 -1458 0
-1064 1344 0
2797 437 0
-1847 833 0
-3449 1083 0
608 2040 0
-527 119 0
786 -1046 0
120 -304 0
-2202 2477 0
-2213 3187 0
-296 -1412 0
523 3336 0
3085 -2394 0
-914 2648 0
3238 -2410 0
2054 1090 0
-3015 363 0
1631 -2508 0
-629 -2 0
941 -2741 0
-1635 -3280 0
856 733 0
-498 1311 0
-1531 1497 0
846 1539 0
-2388 3187 0
634 2119 0
1398 -2197 0
3091 -1165 0
-3044 -1766 0
-974 -498 0
-1228 -2190 0
-853 2735 0
-3451 -1753 0
-443 1302 0
1708 2493 0
3306 -3055 0
-2083 239 0
-3409 2661 0
-2300 -3342 0
3228 2278 0
-1375 2817 0
679 3437 0
356 -125 0
284 1784 0
1713 -2957 0
423 2040 0
1925 -745 0
1926 -2800 0
3357 1345 0
1755 -256 0
-1804 -2144 0
1214 -3261 0
-2007 935 0
2803 -66 0
-2520 -1285 0
-1803 -1380 0
-2590 -3223 0
-3066 3294 0
-357 2584 0
-3408 -318 0
-3487 -1947 0
3507 -1445 0
-2209 -2801 0
-3135 -1279 0
3020 390 0
454 1796 0
-334 2398 0
-1156 1871 0
-2988 2760 0
1322 -381 0
3521 89 0
-2058 147 0
-1966 2943 0
-2625 808 0
1991 -722 0
-1687 -3502 0
127 -1624 0
488 992 0
1532 2968 0
2865 118 0
433 12 0
-2856 -2584 0
-1890 -675 0
-1293 1733 0
-1718 -844 0
821 -2517 0
543 1823 0
-1395 -2793 0
-2614 -2322 0
-2202 201 0
-456 2433 0
-2862 -550 0
1354 -927 0
3087 -2233 0
2652 1528 0
1651 -1693 0
-3219 3522 0
2802 -2545 0
240 418 0
180 -1361 0
-127 -511 0
-2540 -370 0
-2660 1825 0
-3280 -1088 0
-3131 -639 0
-1916 1149 0
-881 2336 0
-126 2365 0
1032 -395 0
-724 -1054 0
635 2693 0
484 2811 0
-2042 970 0
-3009 -1765 0
454 -2693 0
-3500 -3319 0
-1479 817 0
-2843 3241 0
3290 1908 0
-2286 1065 0
-382 -2357 0
-1767 3092 0
395 333 0
-3512 1315 0
-47 -2907 0
1562 2232 0
-1015 -3017 0
1796 -2594 0
1317 -19 0
2140 -1776 0
2222 795 0
-3508 3470 0
-2011 3443 0
-102 -826 0
-2430 1706 0
2688 3130 0
-1933 -2210 0
-823 3435 0
262 -417 0
-77 -958 0
1537 2925 0
-1190 -2534 0
1201 3026 0
-1635 2675 0
2041 -3460 0
856 -1263 0
-3171 -2478 0
1781 -453 0
2246 -621 0
-2339 -1654 0
-1254 -1927 0
-1896 -2885 0
-2998 -2818 0
-178 -191 0
1139 1 0
163 3118 0
-794 -2441 0
-1700 -3196 0
-2615 -2949 0
1691 1428 0
455 972 0
-2344 310 0
-2279 673 0
467 -1682 0
-496 -919 0
-610 -2142 0
2244 542 0
-2939 73 0
-3011 -525 0
-2999 -1889 0
-3096 -1385 0
2017 -3258 0
-237 1617 0
-336 1450 0
-423 -890 0
-3234 1410 0
209 1141 0
2271 -1238 0
2071 182 0
1477 193 0
-549 -1060 0
1675 821 0
-3341 -615 0
2305 511 0
2752 -1917 0
1704 1358 0
-684 -1129 0
148 -191 0
-1837 -2685 0
664 1690 0
-121 3430 0
-414 1133 0
-2675 1511 0
1574 -3470 0
-1762 -2998 0
-2406 2694 0
1505 1958 0
891 -3498 0
-1221 -2576 0
-161 -2027 0
749 176 0
-2880 376 0
-2085 -2313 0
2556 617 0
-3527 405 0
1778 1494 0
-2641 726 0
1619 279 0
-2047 468 0
2685 -2612 0
-139 -3517 0
-1574 -1062 0
-454 -3043 0
3125 -2095 0
-1883 -1634 0
-277 -556 0
238 -2205 0
-3228 1256 0
862 -1072 0
-2623 3298 0
-1262 634 0
989 -268 0
-3169 -2760 0
1061 1749 0
635 2130 0
-103 -2025 0
3381 2847 0
827 3197 0
1760 -2253 0
-1063 2601 0
-372 -1831 0
-2095 -1814 0
2935 2665 0
-3371 2995 0
2803 -2388 0
-2545 3459 0
1910 3138 0
2381 -685 0
-1924 -1461 0
-1074 -2158 0
-2544 -3515 0
-2652 -3353 0
-317 2580 0
-3374 -2071 0
-1294 1079 0
1920 1708 0
2168 2370 0
-1866 802 0
-1009 -1673 0
3002 44 0
1644 3439 0
1801 3406 0
1713 -2106 0
1302 2152 0
-580 3197 0
-132 -118 0
-405 -3221 0
-3128 1401 0
539 2018 0
365 -1224 0
2782 2864 0
-1682 1636 0
2837 2394 0
3380 3362 0
-1838 2185 0
2716 2647 0
1813 -689 0
1796 -2197 0
-3092 1850 0
1975 -2272 0
2443 658 0
-752 -2839 0
-2349 343 0
-11 -745 0
2674 2027 0
350 -1225 0
-3149 1013 0
2085 -2388 0
3076 2736 0
-3458 474 0
-1108 -2131 0
-2884 -3103 0
1869 1976 0
1250 3103 0
-1550 -552 0
2046 -1725 0
-429 1457 0
-1657 762 0
-2026 -1578 0
3332 -800 0
-2039 -1519 0
-2060 3347 0
-3393 -2559 0
-3503 3260 0
1890 -772 0
-3331 -3268 0
-2011 1696 0
1336 -3321 0
1394 1843 0
593 1847 0
-2363 1965 0
580 -2812 0
-1027 3418 0
-3284 53 0
544 2152 0
-2897 2068 0
-2836 3377 0
-3457 -1237 0
-1949 -1609 0
-2186 126 0
-976 404 0
2196 2360 0
442 1466 0
1636 -1715 0
-3515 -1459 0
-2305 2123 0
3034 -2596 0
-2020 323 0
-1774 3407 0
-1116 814 0
2451 -421 0
539 2758 0
-1443 2762 0
2578 -2551 0
-2045 2234 0
-368 2401 0
-1448 746 0
-439 -701 0
-921 630 0
175 -2498 0
-1717 1869 0
79 -2345 0
-1553 -557 0
847 2228 0
2676 1884 0
-2140 1769 0
3521 353 0
-498 3204 0
2123 2671 0
-1768 393 0
-1088 -786 0
-754 -2582 0
1850 647 0
-32 -1719 0
-1591 -2956 0
-1048 3525 0
-3432 1569 0
-2061 1617 0
-1804 1345 0
-1049 1352 0
-2867 3358 0
-454 1255 0
-200 -1918 0
680 -1697 0
-3010 -1363 0
1326 2573 0
-1265 734 0
-521 2931 0
585 -2698 0
-3086 -2480 0
2890 -788 0
-2315 -1316 0
-1179 2448 0
117 -2160 0
349 -3415 0
1829 -38 0
1649 -750 0
-2102 2426 0
-3145 3500 0
-1281 -2373 0
1441 841 0
-873 669 0
-2003 1930 0
-1114 -878 0
-877 -2955 0
-3382 2563 0
-1361 1260 0
1957 -1346 0
3407 34 0
-710 2426 0
-2597 148 0
3520 -756 0
-733 -587 0
3298 -2599 0
2913 -621 0
997 2668 0
1286 2520 0
1983 -1520 0
-1932 -2328 0
3217 680 0
-1884 3378 0
-1288 1378 0
2315 3232 0
-2503 2270 0
-1136 3017 0
-964 -1054 0
-3228 2517 0
2657 2158 0
-2755 2028 0
1366 1428 0
-1774 -3047 0
976 3525 0
1874 2264 0
-1238 2744 0
3225 -3246 0
-1041 -2106 0
-2887 3331 0
-858 -582 0
1608 -1899 0
-752 1702 0
2208 3529 0
586 2857 0
1975 -482 0
-663 2341 0
958 -755 0
-1427 -588 0
1205 -583 0
-3288 1477 0
1490 -594 0
-247 884 0
-1132 833 0
359 -1762 0
-1030 -2340 0
3389 351 0
2732 -334 0
-3031 985 0
2230 1915 0
-1019 248 0
-644 -3156 0
2306 235 0
-1682 -166 0
2783 602 0
3241 -2274 0
-25 1157 0
661 454 0
-513 -2454 0
-1960 -902 0
2973 3429 0
1870 1986 0
87 3156 0
1854 3430 0
-2972 -1304 0
1095 3177 0
1754 -621 0
-3467 160 0
1240 3187 0
599 -1805 0
-2375 47 0
-2433 -2556 0
-869 227 0
-2700 -3092 0
-2716 1273 0
2656 -1559 0
737 3322 0
364 2800 0
-1662 -1862 0
2078 -1887 0
1039 2093 0
-3096 -2632 0
803 -2247 0
3137 -38 0
802 1938 0
-2619 -1762 0
282 -32 0
-123 -667 0
-1495 780 0
1128 -1927 0
2773 2098 0
-1295 3201 0
-3061 531 0
1849 -873 0
2913 -1989 0
-1379 -2874 0
2648 -869 0
-3220 2053 0
-3430 -2368 0
1004 -3234 0
-2529 3269 0
1451 -768 0
1034 -3417 0
2952 394 0
187 176 0
99 3250 0
1892 -1182 0
-2157 -1904 0
719 176 0
-2806 3305 0
2928 3417 0
-2139 3237 0
-3321 2765 0
-3416 243 0
-1490 1446 0
510 -3462 0
2993 -2987 0
449 -2813 0
-819 -642 0
2714 -3379 0
669 1602 0
-587 -527 0
3262 -2131 0
1939 517 0
127 -843 0
997 1300 0
-1000 -1281 0
-195 -1618 0
-1296 -1792 0
540 -1212 0
167 1309 0
-938 -2901 0
3435 2691 0
1000 -912 0
-3017 2950 0
3421 2917 0
2445 220 0
1324 812 0
1298 -1321 0
3281 1111 0
-3513 957 0
2946 2525 0
-1511 -656 0
593 -2992 0
1355 3247 0
3477 -432 0
2264 1337 0
-1560 1267 0
2204 -2319 0
-1398 -1368 0
1340 -2520 0
1228 -2004 0
1810 3502 0
1454 -2247 0
-2058 -1248 0
-2191 -2011 0
916 -1445 0
-1706 -740 0
871 2243 0
1254 225 0
1283 3439 0
-462 -876 0
506 -532 0
-1813 2740 0
300 -248 0
1212 -1129 0
3154 3434 0
-3308 322 0
-747 1363 0
1693 -2832 0
37 1509 0
3332 3164 0
-2476 2988 0
3068 -1507 0
801 -1450 0
-1055 -2832 0
-497 3090 0
-2556 327 0
-2679 710 0
-2563 459 0
1743 580 0
-2725 -2540 0
-1137 -973 0
-2611 -2871 0
2633 3139 0
-916 -935 0
2462 -450 0
1569 3211 0
1953 -1732 0
2801 2644 0
-552 -2825 0
-3409 -3299 0
-1083 1640 0
-1048 3458 0
2868 3289 0
-1028 -3302 0
1036 2054 0
2550 945 0
2994 -2664 0
599 -3470 0
424 -319 0
3160 -1631 0
669 983 0
3226 -2003 0
-808 3109 0
-169 -2698 0
976 298 0
1088 3437 0
-3115 451 0
-3198 -421 0
2447 1533 0
-666 -490 0
2656 262 0
956 82 0
-2324 3197 0
-3333 -2723 0
2372 3366 0
-622 -575 0
1629 856 0
499 3372 0
1954 3109 0
423 -1489 0
281 957 0
-2393 -2051 0
1970 3434 0
2376 3124 0
-493 3518 0
3056 975 0
-1582 2408 0
-837 -810 0
1433 -3011 0
986 -2931 0
-543 1887 0
3382 1086 0
-625 -691 0
-1483 229 0
-1374 2920 0
-3006 -3521 0
-882 -3468 0
-2818 1822 0
2910 1606 0
2886 -1590 0
3137 935 0
-2202 -1348 0
-2291 -419 0
323 3480 0
522 858 0
360 3218 0
1442 3269 0
148 -3447 0
-1892 -2342 0
-143 1150 0
2851 2518 0
975 -1204 0
2073 3088 0
207 -1422 0
-3172 2983 0
911 961 0
-778 2561 0
1555 896 0
2782 -3144 0
2681 3090 0
-2189 -1911 0
2816 -1799 0
84 509 0
251 -1579 0
-58 -2944 0
2482 507 0
-3500 -1555 0
2459 -2482 0
-1600 -75 0
2322 3286 0
2468 241 0
739 -2597 0
-2421 935 0
2922 3024 0
-3077 -1898 0
2828 665 0
446 442 0
-3012 2386 0
3024 -686 0
36 -1383 0
1098 -2049 0
2128 3017 0
2989 2852 0
458 -2232 0
3294 2995 0
3128 55 0
-3008 1997 0
1216 2383 0
1510 -1730 0
-2887 2750 0
46 3113 0
929 -598 0
-987 1144 0
-751 1851 0
3521 -43 0
-1196 2164 0
812 -2671 0
932 -1368 0
-2868 -2680 0
-794 1988 0
495 -2119 0
-3376 -2190 0
1267 3249 0
-610 -2418 0
1669 -1100 0
2387 239 0
2664 1950 0
-674 3514 0
980 -1271 0
3270 -2209 0
-487 3383 0
1024 -169 0
-1981 -3141 0
-3473 -3299 0
-2736 1437 0
1672 -525 0
75 936 0
-855 1452 0
-1724 1508 0
-1889 -2566 0
2880 -828 0
744 3123 0
1552 -2765 0
2392 -373 0
137 674 0
1258 -3186 0
-2738 -2339 0
-2725 -2525 0
-357 -95 0
-2639 -3449 0
2925 -1403 0
-1745 3186 0
-973 -95 0
2400 2014 0
3034 -3148 0
-759 -2191 0
389 -914 0
-517 -2267 0
-189 -3409 0
-2028 -641 0
-2087 2657 0
3447 210 0
1884 -1169 0
-3210 -3276 0
1500 1702 0
1544 2152 0
-2439 -702 0
-1161 2851 0
2442 -1234 0
2087 1903 0
-47 2026 0
-2298 218 0
12 -3116 0
-483 -2364 0
-702 2588 0
-3385 -487 0
-1418 -136 0
1506 534 0
1685 -1078 0
-2923 -2534 0
1866 -1416 0
-702 -460 0
-1504 1218 0
1860 367 0
945 383 0
1286 -1922 0
459 -450 0
2255 -2099 0
-543 -718 0
-1601 -3409 0
-379 -2961 0
2869 -3285 0
-2325 1691 0
418 -379 0
847 791 0
2194 1870 0
918 -776 0
-2941 592 0
2028 -2662 0
-2432 1619 0
-59 -3067 0
2111 -359 0
-1624 640 0
-2561 840 0
670 1034 0
3300 2475 0
2938 -681 0
898 -2785 0
-3020 2949 0
-1588 -2746 0
-843 3426 0
-481 2476 0
2693 2586 0
521 946 0
3047 1291 0
3309 -2511 0
2990 -1067 0
1248 -407 0
-2423 -2601 0
2181 3344 0
-2198 -495 0
182 3179 0
-2697 2316 0
-3509 -1756 0
-2108 2227 0
227 -2065 0
-2502 -1914 0
-2734 -2627 0
-2268 2202 0
403 2937 0
-306 -3129 0
2733 -2549 0
1996 -1009 0
-3297 901 0
1830 934 0
362 -2561 0
1085 -1469 0
2860 627 0
809 -1096 0
507 1900 0
3461 -1889 0
-2385 -1138 0
567 -745 0
-496 -2466 0
3201 -638 0
-481 1972 0
-914 -3187 0
-1724 -667 0
1990 -915 0
1636 -39 0
718 -1785 0
2487 -421 0
3322 2381 0
20 -580 0
-1622 -2792 0
-2550 2584 0
2283 479 0
1983 -2190 0
-2600 1767 0
2984 413 0
-1643 2434 0
2076 161 0
2742 1685 0
-666 -3389 0
-3196 -2087 0
1110 886 0
-2528 1360 0
1465 3030 0
1465 654 0
3243 -2932 0
2280 -1892 0
-3252 1269 0
3160 852 0
-3083 2842 0
937 -2707 0
2292 1227 0
2979 -1446 0
1162 -1854 0
255 1517 0
-2017 -973 0
177 2060 0
1231 -3008 0
-445 2 0
584 -3421 0
-2926 1079 0
2590 -2693 0
-1572 -781 0
-2945 -2250 0
3506 -1394 0
375 2898 0
75 662 0
-700 -1603 0
2787 -1119 0
-1247 2299 0
1685 -229 0
-1003 394 0
-2622 -2911 0
161 -1312 0
2130 876 0
306 1444 0
3160 3515 0
-1371 -3352 0
-272 -1168 0
-2676 252 0
2526 -1385 0
32 1023 0
3466 1672 0
3323 -2789 0
3104 -2368 0
392 -1512 0
30 -1783 0
-108 -2363 0
1228 321 0
-551 188 0
2631 2990 0
2441 874 0
1650 -2676 0
-1535 181 0
-1405 -1211 0
3121 3179 0
2857 3495 0
231 2244 0
-406 1142 0
244 2497 0
3530 -2414 0
-3208 2307 0
1106 1464 0
1161 339 0
-3520 2538 0
323 798 0
162 -3131 0
2902 -2192 0
-2774 1794 0
2513 -2784 0
-1121 2938 0
1065 298 0
572 -234 0
1228 3520 0
2714 120 0
-2248 2087 0
2595 -3509 0
2186 1547 0
1574 -990 0
716 -1072 0
-529 1983 0
2328 1421 0
-1932 -3221 0
-2485 -74 0
1553 2609 0
-51 545 0
-214 1750 0
1741 2003 0
-804 -1969 0
-28 2855 0
-1314 -2758 0
2413 1620 0
-3401 3484 0
-700 1669 0
-2909 -2799 0
-2110 1950 0
2587 -2681 0
-3467 1677 0
3085 -370 0
-252 237 0
-708 -1007 0
617 209 0
3136 2334 0
-3326 -2400 0
1303 3232 0
239 2142 0
-2900 1256 0
-704 -2807 0
752 -1982 0
3407 493 0
-978 2740 0
-3314 2127 0
-345 820 0
-2509 919 0
2814 2821 0
2890 -3310 0
2224 854 0
-2651 -2407 0
1472 -1139 0
-644 -951 0
2604 885 0
-1958 217 0
-2254 -10 0
-1550 330 0
-238 -1766 0
2567 1597 0
-1297 1533 0
-2335 -2037 0
811 2033 0
2708 1225 0
-3401 599 0
3156 1069 0
469 2577 0
-2894 1975 0
59 2066 0
-871 -986 0
2928 2013 0
820 1664 0
-2965 -2245 0
-949 856 0
3314 2447 0
564 -947 0
-81 1222 0
2304 2312 0
3207 2419 0
-3345 1769 0
1325 2926 0
-1669 -438 0
-1988 1546 0
3142 -951 0
1704 -3368 0
1673 -1760 0
155 2522 0
520 1925 0
1562 -1837 0
1684 305 0
1976 2789 0
-1330 1433 0
894 2344 0
2583 281 0
-1932 -942 0
-347 -237 0
-1171 1561 0
1345 -618 0
3190 -2971 0
-1507 -3478 0
3458 2935 0
1215 1378 0
1769 -617 0
1769 -429 0
-265 2782 0
-797 1199 0
168 2185 0
-3373 -83 0
2062 -52 0
2586 1840 0
-3410 1729 0
1498 1329 0
3250 -1632 0
2564 -164 0
-565 271 0
-3269 -866 0
-2105 -2705 0
-3070 1143 0
-221 1447 0
287 -2998 0
-3037 -2632 0
2345 -1839 0
2415 2172 0
2360 -3280 0
1852 1283 0
522 3194 0
-44 1406 0
3201 -2695 0
332 -412 0
696 1731 0
584 -997 0
1695 2841 0
2624 -2527 0
-268 738 0
-1745 -1953 0
-3218 -2201 0
3052 -2758 0
-1818 1434 0
1913 3365 0
-1584 -3070 0
3316 473 0
3173 470 0
2727 575 0
-2372 3187 0
-1286 3141 0
-2961 1995 0
884 433 0
66 -1455 0
-1908 2538 0
152 887 0
1521 -3072 0
1896 1557 0
86 3041 0
1111 3019 0
1410 -1303 0
-3447 127 0
2883 1850 0
101 1570 0
-2516 -2432 0
-2061 -1356 0
-625 1051 0
2866 633 0
-743 -2544 0
2117 2669 0
-2742 -2961 0
-3330 -286 0
1075 1721 0
2922 -267 0
932 281 0
-2199 -2574 0
-12 1986 0
427 -2078 0
-3306 -1622 0
-2876 -1522 0
-2200 999 0
1675 738 0
-3219 2667 0
-1831 -2198 0
-2143 -2092 0
-171 2310 0
2959 3306 0
-2529 858 0
1676 3309 0
315 262 0
-3442 -2267 0
-644 -419 0
1346 -3490 0
3031 -2745 0
2741 2667 0
2318 -3180 0
-2262 -194 0
-3324 322 0
-1700 1727 0
-2744 -2146 0
-1420 3439 0
-2712 161 0
-2598 3354 0
1599 2750 0
-233 -1128 0
-1751 -2333 0
3257 -400 0
-2412 1292 0
2450 -2664 0
-382 -483 0
-2911 -2917 0
-2096 -2020 0
-450 -1182 0
-3156 -3112 0
-1461 -2097 0
2924 -656 0
704 3262 0
956 979 0
1976 746 0
-601 -935 0
-2770 -372 0
3158 2306 0
-2548 2129 0
229 1533 0
-2690 -2054 0
-2398 -1982 0
753 -1770 0
-2818 2163 0
2684 2227 0
1532 1613 0
3018 -3374 0
3084 2374 0
452 647 0
153 1516 0
2812 2378 0
-2682 3058 0
-3505 -3489 0
1549 56 0
2447 1936 0
416 -3156 0
-1368 -1247 0
2983 -2294 0
2343 -3026 0
-3115 711 0
3491 -1698 0
1734 -1533 0
2958 1953 0
2209 2283 0
3361 -928 0
-529 -3040 0
-714 -2530 0
1535 -943 0
2783 2543 0
-2574 -2408 0
238 -788 0
1542 2584 0
1953 -1062 0
1423 -1204 0
3109 2424 0
-888 -2297 0
1098 -460 0
-2378 867 0
-935 -3459 0
2434 -202 0
-1445 1761 0
2093 596 0
-740 1826 0
-421 -779 0
-2299 2813 0
-1184 -1043 0
-2197 -2617 0
-3506 3282 0
-2770 -3043 0
-372 2772 0
-3121 3204 0
-497 -1897 0
216 2817 0
1820 -1055 0
2019 1220 0
1232 156 0
863 2374 0
760 -1961 0
-2639 2855 0
289 -1361 0
1107 408 0
-3016 322 0
-3296 -1182 0
-967 -180 0
1963 -2966 0
2757 -2490 0
-1019 -1831 0
3004 -1243 0
-1462 2948 0
806 -1030 0
-1156 -2312 0
1256 1046 0
1465 -1683 0
-1480 1566 0
-663 3201 0
2710 -2403 0
-1864 -3429 0
3079 -657 0
-967 -439 0
-921 -3165 0
-1219 -1265 0
3343 3276 0
1884 1477 0
-2298 2827 0
661 -1534 0
-2619 2713 0
2933 1402 0
-3318 220 0
2614 614 0
-318 -3319 0
-2261 -1531 0
2232 -924 0
1686 3332 0
2187 -97 0
-2596 -114 0
2866 2574 0
-2872 -817 0
-2657 -402 0
-1564 2035 0
-1773 1227 0
2504 2038 0
1086 -2870 0
415 1812 0
244 -2209 0
-2748 -2649 0
1361 1685 0
-3239 1586 0
2554 827 0
-342 -529 0
618 643 0
-928 -961 0
-2244 1986 0
-396 2850 0
-869 1673 0
-2038 500 0
440 446 0
-366 2359 0
-859 2344 0
-492 -1202 0
3035 1412 0
-3263 -2561 0
-162 773 0
-1605 -3015 0
-226 1543 0
-3022 -3264 0
-1924 1600 0
-1587 -3368 0
1921 -419 0
-2568 2328 0
986 3257 0
319 716 0
619 -2807 0
-3428 969 0
774 1858 0
-581 -2834 0
1375 2816 0
-2018 -2574 0
3469 234 0
1860 -3299 0
3387 -2259 0
-1998 -204 0
-2038 1782 0
-2438 1514 0
2535 -1631 0
-1408 12 0
1173 -1721 0
2501 -1750 0
-855 508 0
2674 -1138 0
-1110 -1582 0
1972 185 0
-2470 591 0
-2536 2054 0
645 -1774 0
3377 -857 0
2347 -2717 0
1242 2949 0
170 2004 0
-2487 -296 0
-113 -276 0
783 -525 0
-1895 -1868 0
-3439 -430 0
-620 2521 0
538 160 0
2626 -483 0
-1987 466 0
274 -2101 0
1050 -251 0
-3244 962 0
-2522 1701 0
1814 -2084 0
1742 -2023 0
-782 3162 0
2195 670 0
-591 -494 0
1027 -610 0
-1961 1166 0
-1426 560 0
940 -537 0
3469 564 0
-269 1288 0
-1855 -1029 0
-436 -77 0
-3142 -3004 0
-2523 -511 0
2044 -646 0
-2756 2967 0
-1256 762 0
-98 494 0
-413 2541 0
-1512 1565 0
-788 -3335 0
2800 1161 0
1892 1860 0
278 3177 0
1894 -554 0
3231 2200 0
2848 1979 0
187 -2785 0
-556 2353 0
-477 2325 0
-3497 1358 0
-951 -2331 0
-2349 2667 0
2838 251 0
-492 1098 0
3466 3284 0
2698 -154 0
1658 111 0
-1048 -492 0
-2539 133 0
2060 442 0
517 2369 0
-1758 -485 0
2875 2855 0
-3418 454 0
-1213 -77 0
221 -1352 0
-2803 -3032 0
-94 2349 0
-1337 1134 0
-2960 460 0
-840 892 0
-2396 3446 0
3485 1183 0
-2641 796 0
-2969 -403 0
3020 -2218 0
885 -231 0
-1568 -2449 0
-1280 3347 0
1143 3158 0
662 -206 0
-2510 3189 0
2068 -359 0
86 1128 0
-59 -803 0
-3274 1001 0
-427 1523 0
193 -1834 0
981 -1457 0
-2780 -3152 0
-460 -69 0
-3502 2043 0
74 165 0
-2694 -2269 0
168 -3428 0
-2315 2649 0
1331 -1872 0
-2312 -2815 0
-3091 -2504 0
-2350 59 0
3219 1447 0
1419 537 0
216 1561 0
2678 2157 0
-730 922 0
-2422 637 0
3213 591 0
-69 -418 0
3038 -2237 0
-1024 -1775 0
251 -428 0
-1132 -172 0
-2778 -781 0
-3328 -1520 0
1468 -2876 0
1651 1975 0
-1667 -3204 0
2377 -2873 0
2194 1942 0
3284 -1971 0
-2530 -1466 0
3424 -1176 0
-129 335 0
-1748 -2698 0
2309 -1631 0
961 -747 0
-1486 -2328 0
679 -1153 0
1058 3247 0
-3471 3437 0
1132 -2599 0
1779 -1992 0
-1065 922 0
2347 696 0
1660 -2603 0
2800 620 0
-1604 -179 0
-655 -2129 0
-3272 2712 0
2222 1221 0
-685 215 0
-2729 510 0
-2158 -1999 0
133 1319 0
-2485 3394 0
874 2514 0
-157 721 0
958 -2217 0
-1867 -3313 0
-1115 2527 0
1946 2029 0
1205 1965 0
1062 -388 0
-675 -1526 0
2526 43 0
-2552 970 0
-178 78 0
28 -831 0
-3090 2451 0
1041 -2931 0
-1251 -771 0
-391 2356 0
-3317 -3077 0
1321 -3246 0
226 -316 0
3187 436 0
-2735 -3510 0
207 -1159 0
-2260 -1834 0
2563 -341 0
1566 3319 0
1586 -1123 0
-365 909 0
-219 -1351 0
860 2866 0
-2367 3340 0
-2954 -3210 0
362 -986 0
-1910 404 0
3525 -2933 0
2503 -689 0
2188 -633 0
-3248 -2072 0
1480 -1928 0
3529 -2748 0
-3274 672 0
-3353 2341 0
3375 1957 0
3181 1832 0
-2527 2701 0
2410 -2623 0
-2320 3233 0
725 -2382 0
1105 -1765 0
-480 -1671 0
2514 1362 0
-1403 -3454 0
1187 1632 0
-2212 74 0
474 1773 0
2821 682 0
-889 1275 0
63 1011 0
-2321 -3502 0
-3307 1913 0
1688 1152 0
821 1985 0
-1973 -3409 0
-1772 2382 0
2118 -2787 0
173 676 0
2612 2816 0
779 2939 0
3365 -870 0
262 608 0
1498 2930 0
-1676 -2535 0
-2934 -2956 0
2973 -1206 0
-1204 2197 0
390 -2948 0
-905 2667 0
432 -1424 0
-1179 -1077 0
3131 -2536 0
-2934 -1094 0
2007 2770 0
-2200 -2353 0
3396 -1493 0
-275 3259 0
-1066 640 0
-2493 -3306 0
3467 -2131 0
3065 -2764 0
321 -36 0
2381 -899 0
6 -823 0
3133 -111 0
-1944 -3265 0
1512 -3121 0
-3026 -45 0
2489 2187 0
-2258 550 0
1919 -1651 0
-1580 -146 0
-3195 325 0
-2532 731 0
-901 -1700 0
-1819 -2240 0
191 1324 0
1743 -2849 0
-863 -249 0
2121 -527 0
1324 -2890 0
-2527 2453 0
2204 -3500 0
-313 -2449 0
2214 -2956 0
597 -86 0
688 -1409 0
-2291 1309 0
-1748 311 0
793 -2514 0
161 -216 0
-2636 -2073 0
2910 -1366 0
1045 130 0
-1715 -558 0
356 2442 0
-626 2251 0
-873 613 0
-1789 2657 0
-604 2440 0
-1982 -2956 0
-978 1339 0
1652 2732 0
-83 3461 0
2425 -1333 0
-1105 1250 0
-206 651 0
-3224 -3107 0
3014 -851 0
2076 3233 0
-649 1865 0
2552 -2998 0
-102 -1246 0
1588 -788 0
3044 2849 0
-2085 -572 0
1237 -685 0
-3482 3074 0
-3409 -675 0
-336 267 0
-885 70 0
-708 921 0
-1062 2311 0
299 1782 0
1044 -3171 0
2230 1079 0
1168 2073 0
1767 -3528 0
800 449 0
1685 -2498 0
-2712 -203 0
3394 -173 0
-1920 -955 0
-3339 -1929 0
438 1808 0
2210 -1558 0
-1987 -406 0
-3376 -2530 0
-2702 130 0
-1697 -920 0
-1030 700 0
-66 -1376 0
-1399 643 0
2334 -483 0
2953 3040 0
-960 986 0
-2077 -2145 0
-368 1851 0
-2881 -921 0
2898 3383 0
-1163 2317 0
2749 -356 0
3297 -1567 0
-2141 -205 0
-761 2774 0
21 -1952 0
1634 -3517 0
-741 3389 0
-1675 -2545 0
74 3133 0
-1415 -2287 0
-1823 -183 0
-546 1850 0
3006 -1017 0
-3249 -2662 0
91 1979 0
-2495 -2219 0
1567 -895 0
970 -570 0
1212 -2030 0
376 -3509 0
1255 -3089 0
-1380 195 0
-2638 654 0
2014 78 0
2657 -2418 0
-1426 -3050 0
-1813 698 0
87 1474 0
3038 -2427 0
360 -695 0
-2923 -800 0
165 -3095 0
2811 2137 0
-623 -1933 0
2844 1143 0
-397 424 0
1271 1957 0
-1510 2043 0
1639 -2675 0
3122 -3298 0
-2430 2076 0
-2608 576 0
2730 2389 0
-2301 -2774 0
158 523 0
2196 3336 0
1793 880 0
451 -2848 0
694 -365 0
-1572 2697 0
-3301 -3206 0
-1255 -1509 0
-2160 888 0
-2259 -2559 0
1620 1614 0
-2755 -107 0
-1965 470 0
-612 -1526 0
1504 -1195 0
-2456 3320 0
-318 573 0
3499 1363 0
956 -2830 0
-3344 -2500 0
1475 -2129 0
2946 1775 0
2513 -2739 0
196 -529 0
693 -2466 0
2642 3097 0
1353 -2560 0
-3374 1203 0
3268 2025 0
-1279 1449 0
-2531 -2472 0
-2106 -1984 0
634 -3425 0
-2550 3511 0
-3508 -2603 0
-3401 2783 0
-1518 516 0
-659 894 0
-2877 2004 0
3258 -2254 0
1945 -2079 0
-2676 -2810 0
3173 -565 0
-561 209 0
-3509 331 0
-1926 109 0
-1736 -2979 0
-2665 3349 0
-1482 1567 0
-1011 -2089 0
-2597 2776 0
-2597 -1753 0
-184 -243 0
-491 314 0
2777 1529 0
124 -1483 0
-3508 -3392 0
2041 2920 0
404 -3263 0
3013 -526 0
-2528 -2792 0
3433 2232 0
2447 26 0
-1815 -1120 0
-3039 3491 0
-800 1761 0
-2472 1902 0
-2542 -1164 0
2034 988 0
3009 -2261 0
-2468 -2444 0
-2783 -1696 0
228 -1349 0
-3322 1173 0
2604 997 0
-937 2513 0
1797 -2108 0
2727 -3146 0
1638 438 0
-468 1090 0
-2654 2755 0
-2941 -1699 0
28 3157 0
3086 537 0
-2291 -3215 0
-381 3275 0
-2658 -2421 0
664 -2149 0
1342 3197 0
-2149 711 0
1704 711 0
-2807 -201 0
-2808 -1957 0
402 997 0
1884 -2592 0
2358 112 0
-2481 1823 0
1191 -3409 0
1731 -1048 0
2251 -1414 0
-959 281 0
-255 -2864 0
1964 861 0
986 1207 0
-1442 932 0
2451 3322 0
-1881 -1592 0
3239 -2168 0
1664 1959 0
-1086 2801 0
-3442 -890 0
2242 1107 0
-2179 -2335 0
-1679 2978 0
3355 -2503 0
-893 2243 0
-289 1742 0
3499 -2834 0
-1407 -1472 0
-2797 -2050 0
-2864 2990 0
3386 2727 0
-2641 2978 0
-1306 -1990 0
-2748 1322 0
3360 -2894 0
-261 -2011 0
-2638 3051 0
-1046 1594 0
-85 2052 0
2034 1201 0
-3133 -3330 0
1419 104 0
-1112 -2335 0
2984 -3122 0
2793 1144 0
-3356 -3305 0
1761 1146 0
1010 265 0
-2704 2732 0
937 -2569 0
-3349 -3346 0
-2569 424 0
-2363 -2827 0
1528 2383 0
2290 -314 0
3332 -2106 0
725 -849 0
1279 2256 0
1826 1148 0
2319 3092 0
-2179 -2121 0
-1555 3114 0
-1821 1454 0
2487 1033 0
-1306 3362 0
-3301 -1205 0
-2738 -2122 0
1006 -1434 0
-2059 -1398 0
-1120 2586 0
1268 -1435 0
-1117 -1515 0
-1123 -2207 0
211 -2977 0
183 1113 0
-1942 -1009 0
-2776 -478 0
-2407 -2514 0
-2149 -2879 0
2328 3294 0
-98 -1355 0
-2030 -698 0
-3331 2502 0
-1696 -2554 0
965 3059 0
-3007 -1442 0
1634 -1402 0
-1996 -2870 0
-1311 3068 0
1209 2373 0
-628 1569 0
3492 -2726 0
-1564 340 0
-786 -696 0
542 3015 0
1233 2232 0
3301 -1735 0
-1567 2193 0
-2837 532 0
-491 -453 0
-110 -1410 0
1131 1862 0
1899 -1653 0
-1455 -2179 0
-980 2114 0
-1900 2381 0
-318 1994 0
1703 -2923 0
-217 -1993 0
-1161 -1326 0
-2300 2381 0
3250 -2495 0
959 -2315 0
2022 3234 0
-2643 1345 0
-2388 -2495 0
3166 818 0
1737 563 0
648 -3163 0
-3474 -2375 0
599 -2869 0
717 133 0
2994 3260 0
-4 150 0
-1795 448 0
627 -668 0
-468 -142 0
-2335 -152 0
-1470 -241 0
-920 -1115 0
2786 1761 0
2420 -1883 0
-817 6 0
1768 -2135 0
2255 306 0
909 1495 0
1927 -644 0
-2316 2506 0
-973 -2956 0
1163 -688 0
2949 -972 0
-1376 -596 0
-3129 1264 0
735 3025 0
2123 2984 0
-1603 -2996 0
26 1183 0
-2788 1339 0
1672 -89 0
-2494 664 0
-2065 2849 0
1913 678 0
1291 -3299 0
153 -2055 0
-1271 -968 0
197 1777 0
-2916 3087 0
2130 1012 0
1031 -3244 0
-3451 -2511 0
-1108 -233 0
9 2233 0
-810 -3353 0
2334 482 0
1302 2606 0
3315 1859 0
-897 -902 0
-2236 -1916 0
1526 520 0
-1501 989 0
2811 467 0
752 -3215 0
2112 -2193 0
-3306 2096 0
-1855 1783 0
-2084 3284 0
-2330 2286 0
-3099 1779 0
-3101 1905 0
2112 -32 0
2457 3136 0
-1245 2862 0
1761 -672 0
-402 -2725 0
-1274 -104 0
-2 -2127 0
3495 3038 0
-3302 1417 0
-2758 -2165 0
645 -1029 0
-667 -2583 0
405 -3415 0
3451 16 0
988 -2999 0
521 2096 0
-3445 3494 0
746 1401 0
-1842 34 0
1971 3171 0
2033 -1671 0
1451 -2063 0
1211 663 0
3297 -951 0
-1592 2289 0
-2134 306 0
-1921 2193 0
-714 2377 0
262 -1993 0
1053 -2031 0
165 -1199 0
696 -1210 0
1833 3186 0
3151 1172 0
-1850 -262 0
1640 1500 0
-226 1911 0
-1607 2022 0
2353 -2612 0
2072 -1998 0
3445 -1066 0
642 1333 0
757 905 0
-286 -1150 0
1447 -1036 0
-1897 1201 0
-3392 490 0
-1501 1454 0
-1512 -1037 0
539 3402 0
679 -806 0
-1604 -203 0
-305 -750 0
-1947 -2527 0
-1012 55 0
1192 1953 0
-1294 2203 0
-3412 3211 0
-2608 -1592 0
76 -716 0
-840 -1880 0
2759 647 0
-3427 -3381 0
594 2838 0
-1312 3151 0
-44 1681 0
-3070 -256 0
1749 395 0
-693 -1155 0
2014 -820 0
-232 -3182 0
1325 -2649 0
-2686 -1512 0
1617 -846 0
-3093 2186 0
-980 2517 0
3107 -1762 0
3511 -145 0
3094 531 0
-1027 780 0
2611 2492 0
2774 -2799 0
1974 1080 0
3177 1184 0
1794 -3417 0
-2872 1378 0
-270 -312 0
346 640 0
2644 809 0
508 -2915 0
2354 211 0
-843 2297 0
-1945 1503 0
372 -1346 0
-3106 -153 0
1031 2523 0
2045 2073 0
-620 661 0
2573 746 0
-2592 3395 0
2150 -2308 0
3031 -2019 0
-2514 2815 0
-810 2719 0
1653 3143 0
1866 635 0
-2105 -3466 0
-1729 -3091 0
3433 -2575 0
-1570 2065 0
1624 3173 0
-1776 2143 0
3074 -3308 0
-1144 126 0
2720 1607 0
3143 -987 0
2234 1985 0
3113 1713 0
1128 1957 0
-1143 -2794 0
1201 -3279 0
8 -1654 0
-1519 2318 0
3105 -2406 0
221 -62 0
-2659 -338 0
-1343 1240 0
-2422 -1271 0
-3517 388 0
-873 -1181 0
-2216 -474 0
-1862 -2603 0
-457 750 0
721 1469 0
2537 1032 0
-1099 -1083 0
959 2252 0
-3112 -3236 0
-382 2751 0
2404 586 0
2504 220 0
2515 -3107 0
696 -2842 0
-2421 -1520 0
-339 -877 0
-1883 965 0
1075 594 0
136 -1221 0
-2274 -2328 0
-1015 1431 0
-2910 -871 0
159 -381 0
3082 3456 0
2515 2335 0
-1219 -2154 0
1472 -1643 0
-898 692 0
375 639 0
-2544 -3165 0
2369 -1102 0
-230 -3161 0
1608 -1002 0
2425 1137 0
2959 -1395 0
-2678 -102 0
-1484 -3062 0
-2911 -1863 0
2683 1723 0
-2655 -1872 0
-732 3021 0
-291 -239 0
-602 2740 0
-1461 -941 0
1322 -249 0
-1020 3499 0
3051 -3384 0
2041 1809 0
2986 2521 0
-887 -2889 0
-1158 249 0
981 2858 0
2415 1930 0
2370 -2741 0
160 -2183 0
1753 81 0
2485 -3134 0
-3019 2666 0
-19 -2200 0
1743 -216 0
-910 -2922 0
115 -2056 0
-2160 -785 0
2941 -1017 0
-1696 119 0
3446 721 0
-107 2978 0
-3449 2032 0
918 2338 0
-1654 -283 0
1901 -3426 0
-2915 -1826 0
209 360 0
-1518 -2355 0
-387 1524 0
-850 -1558 0
-3424 -1623 0
-2547 2757 0
1068 -2259 0
-1875 2120 0
2748 -2570 0
1510 1193 0
3412 3030 0
3476 -286 0
-2464 1385 0
2189 -609 0
3329 838 0
1040 -2666 0
880 -615 0
-1682 1900 0
-2147 2038 0
1134 -462 0
-1776 -2896 0
-2184 -3149 0
-1564 1324 0
542 -2648 0
-478 726 0
-2732 1401 0
-790 -3390 0
3293 996 0
-478 -191 0
473 -2835 0
3342 3146 0
-2553 739 0
-3402 -2134 0
-1908 2199 0
930 2378 0
-1748 -1367 0
-1019 1143 0
1199 -402 0
2225 -2266 0
-2084 -2040 0
-2843 -825 0
2478 -1740 0
-182 1325 0
-142 2998 0
-1575 -1593 0
3022 3503 0
-2407 -3040 0
-425 -747 0
2451 -459 0
578 -3416 0
-1787 3315 0
-1848 1869 0
454 655 0
-3195 1465 0
3530 1187 0
-171 -592 0
-366 3529 0
-471 -1019 0
-811 2523 0
1203 -3135 0
2229 -1486 0
-3319 -611 0
-2924 -2570 0
682 -2385 0
2502 271 0
2344 -1837 0
-842 -1355 0
-2068 -2052 0
3187 -1376 0
3201 -1795 0
-260 2844 0
-1558 809 0
575 -1339 0
-1721 2182 0
-907 -814 0
-1488 2115 0
1240 780 0
499 -3076 0
1844 583 0
-3280 -1446 0
3386 -978 0
2331 -2549 0
2008 -1982 0
323 -2874 0
1472 2356 0
596 -3027 0
-2995 2895 0
-353 2356 0
-273 3286 0
-1600 2626 0
1728 -1438 0
-3390 -485 0
-558 976 0
25 -1906 0
-2825 2231 0
-2914 -1252 0
-2593 -2001 0
-1579 -2323 0
3420 187 0
-2313 -2401 0
1940 496 0
1541 1287 0
-3140 1143 0
1672 2500 0
-1336 2648 0
-498 -2978 0
-2528 -2058 0
-3024 646 0
-3336 -3188 0
2655 3310 0
639 2338 0
-2422 327 0
2455 -286 0
1351 -3292 0
-57 -1425 0
2136 -1768 0
-1697 -2150 0
390 2380 0
3053 -379 0
3214 -1037 0
3059 -259 0
1808 -1869 0
1917 -3185 0
-2546 2903 0
-3294 2860 0
-2321 1230 0
1529 3121 0
3041 222 0
602 3171 0
-455 -3144 0
-379 -1465 0
140 882 0
-3374 1917 0
-3489 -1863 0
-2515 -2364 0
2096 -1677 0
475 -2834 0
650 -1854 0
-1862 912 0
1705 2821 0
1240 -3124 0
-2169 -3068 0
729 -1480 0
2460 -2822 0
1008 -978 0
2725 -1845 0
3066 -2335 0
643 1996 0
1060 -609 0
-570 -3007 0
-200 -1693 0
-2690 -2283 0
1891 -1474 0
-1057 458 0
3293 -3223 0
-917 -1641 0
-1799 2437 0
3122 1100 0
1200 -99 0
2784 1008 0
2741 -1904 0
1702 1649 0
-2663 -2107 0
3135 -3405 0
2469 -3412 0
1329 -1046 0
2950 392 0
-2146 -191 0
-832 -158 0
-1206 -2266 0
-2301 3491 0
126 -3258 0
1166 1467 0
-2643 -131 0
-133 1903 0
-553 355 0
-936 1965 0
-732 1110 0
1104 2532 0
50 -1977 0
1298 -1494 0
1875 90 0
-123 473 0
-1533 -1813 0
1660 2685 0
-1494 408 0
3049 -383 0
2613 2268 0
2801 1544 0
-2068 -3224 0
1887 -691 0
1152 -1064 0
555 1174 0
-475 383 0
1324 -1813 0
-590 2526 0
864 -1715 0
2151 -2661 0
1360 2236 0
1641 -1552 0
-1981 718 0
244 3422 0
-1446 -1230 0
5 -550 0
3173 -3404 0
-590 2814 0
-2769 -1072 0
1801 -2494 0
936 125 0
-3023 -1085 0
1554 -270 0
1671 3062 0
-755 -2382 0
-305 3113 0
1389 -1147 0
2100 244 0
438 -1393 0
-1912 3494 0
-3408 1207 0
-1231 3016 0
-2785 -3183 0
-3039 -3206 0
-2728 3472 0
-2030 -1701 0
3360 1279 0
-876 -2527 0
416 1287 0
-1776 -2654 0
1311 68 0
1467 900 0
-1031 1224 0
2780 1347 0
3372 2645 0
2730 2737 0
-1931 1626 0
-3026 -3091 0
1402 2412 0
2004 -930 0
376 3117 0
1027 845 0
-2077 1571 0
649 -1136 0
-3070 906 0
-1206 2067 0
3298 -3317 0
-1440 1293 0
-823 -357 0
-1121 -255 0
2823 678 0
-2598 1460 0
1406 3073 0
3281 -9 0
1405 2654 0
-476 -1591 0
3510 -1624 0
1608 1629 0
3490 -1112 0
-199 -3088 0
2247 -1865 0
-1487 -3010 0
2914 1626 0
-2004 1502 0
-1254 -3129 0
1857 -1974 0
-3448 2790 0
2008 765 0
608 153 0
1169 374 0
-150 -964 0
-2968 -1725 0
-1460 -1819 0
-2192 436 0
-1279 -3487 0
-869 -2323 0
538 -813 0
-421 1281 0
-152 -2645 0
-2374 133 0
-2717 1904 0
953 284 0
3223 -855 0
3160 792 0
2454 3003 0
-1600 -1012 0
-2153 -3100 0
-2165 3013 0
608 -1425 0
-1215 1518 0
-783 1250 0
354 1733 0
3393 759 0
1255 -422 0
3339 -1293 0
-2101 1432 0
-1117 539 0
235 1406 0
705 -2380 0
-3063 -1519 0
2027 3268 0
878 3024 0
3506 3056 0
2997 1917 0
-1274 2942 0
1200 -2862 0
2255 2429 0
-2279 143 0
-2673 -1003 0
1282 -3096 0
2225 2790 0
-1359 1375 0
-216 2389 0
1103 -1216 0
778 696 0
1203 -1911 0
1141 1953 0
-3183 -2754 0
-142 -226 0
-1653 2506 0
175 3154 0
2585 2376 0
-1147 -2682 0
910 3496 0
2898 2238 0
176 2994 0
1373 -776 0
-324 1428 0
-2991 -296 0
-3218 540 0
2594 1167 0
-2913 2768 0
-1501 1734 0
1226 3310 0
-579 3135 0
-316 3345 0
-853 -837 0
-2808 503 0
-2542 1681 0
146 -110 0
-34 -1009 0
2653 -146 0
-3394 642 0
-851 -3242 0
292 -2633 0
-3348 -2577 0
-229 -578 0
1494 -2031 0
-951 -1293 0
21 3001 0
-1592 2036 0
1848 -997 0
1942 1120 0
-2379 719 0
858 2471 0
956 728 0
-1097 3128 0
531 -722 0
1540 1805 0
-129 2971 0
2492 -536 0
2670 2853 0
-1221 -3268 0
1481 -1271 0
1050 -1701 0
-2583 -835 0
-273 2351 0
-1555 1447 0
-1562 -2331 0
1735 2298 0
-3247 802 0
-3034 -2901 0
2759 1403 0
3284 2506 0
2513 563 0
-2356 -1126 0
1192 1649 0
-3401 2401 0
3308 2213 0
1682 -3140 0
-2065 -340 0
-357 -1365 0
-1257 2962 0
1942 1317 0
-1640 1157 0
-102 -1364 0
1850 -2730 0
-2504 2857 0
-727 400 0
1757 -2505 0
-1583 2007 0
-3264 1070 0
-3185 491 0
2809 -3339 0
-316 219 0
-2379 3084 0
-901 -1875 0
3048 -1474 0
3102 -691 0
-1945 1080 0
41 -1487 0
-883 -741 0
2109 -3306 0
1240 -193 0
-176 3281 0
1953 2318 0
-1799 928 0
-2211 1872 0
1419 -111 0
-1683 3083 0
-2204 -1372 0
-1133 2360 0
-1046 1590 0
2605 880 0
-2262 3351 0
-1740 3302 0
-2832 1209 0
-2889 -3151 0
297 -2726 0
-3409 -2406 0
-2650 -2686 0
-3480 679 0
2014 -1085 0
3403 2919 0
-3061 -2957 0
-3329 1630 0
-2774 -648 0
67 2344 0
2430 -7 0
-3013 1305 0
2915 -1380 0
2612 1144 0
3467 -2774 0
2352 -2202 0
-1198 2535 0
1551 1678 0
-2142 -847 0
-1074 -1522 0
-1480 -1285 0
-530 -3517 0
-948 2529 0
-3508 518 0
1969 939 0
1250 -2010 0
3435 2016 0
-1714 518 0
-3256 -3267 0
588 -471 0
1652 1341 0
-888 -559 0
2707 1480 0
2529 -3223 0
33 130 0
528 -2067 0
1408 2962 0
-1201 -3094 0
-212 -258 0
-2080 -2256 0
-3427 -2708 0
-3144 3470 0
-727 1964 0
1004 2615 0
1209 2221 0
-1243 -2393 0
245 -8 0
-2094 -1806 0
-29 -895 0
-3274 1418 0
-2180 -1932 0
-855 -1198 0
-3106 399 0
2441 3530 0
119 -496 0
-1918 2711 0
1044 746 0
-65 -2126 0
1615 -2104 0
1868 -3179 0
-2101 1508 0
-3323 -2561 0
-2999 -1382 0
2541 2164 0
-674 970 0
1148 2095 0
1695 -198 0
356 -1682 0
-2823 1258 0
-3097 1247 0
-3043 -2205 0
-3080 567 0
-2730 133 0
1900 992 0
-1211 -2561 0
1045 -2832 0
2728 1027 0
1606 2496 0
-59 -456 0
-1124 -3271 0
-91 -2915 0
-2631 1393 0
-1726 -2056 0
2511 833 0
1938 -1407 0
-2451 -2794 0
1848 2008 0
-3152 2632 0
650 475 0
1644 1512 0
-3205 1100 0
3189 -1635 0
3312 1178 0
2376 913 0
2705 1833 0
-1754 -1109 0
-1838 -3145 0
2337 2220 0
1880 2354 0
-679 3020 0
1661 -2138 0
171 2167 0
-3436 -475 0
257 1388 0
23 -850 0
-626 655 0
-321 -228 0
-799 -662 0
-1553 -3461 0
1796 3178 0
-1076 517 0
586 -3187 0
-296 -1743 0
182 -3524 0
-3295 506 0
-1347 1229 0
-2889 890 0
-1380 -1557 0
1784 -2156 0
2756 -579 0
791 -514 0
380 3164 0
-752 -662 0
-1974 -2336 0
209 -538 0
3189 1232 0
269 2107 0
-2995 -1445 0
2757 -471 0
454 2632 0
-2754 1796 0
2927 -1046 0
497 -3324 0
-1225 1702 0
-1596 1928 0
-2571 -2060 0
3032 -1881 0
2594 -2660 0
1746 1684 0
-2299 1727 0
280 311 0
179 -3294 0
-2920 -1435 0
-623 837 0
2094 3497 0
-2892 3060 0
957 2624 0
-1180 1322 0
185 674 0
-295 -858 0
900 617 0
-918 -2692 0
369 -262 0
-3276 1710 0
599 1884 0
2850 2893 0
-2936 2238 0
2718 -2215 0
-1274 -925 0
-1134 2283 0
1995 -994 0
972 1534 0
530 562 0
1544 -421 0
1333 -1627 0
-2794 2847 0
-1356 2075 0
-2626 3439 0
-2872 -3367 0
2387 2260 0
1956 285 0
66 -1762 0
-1582 2895 0
630 3266 0
-1271 -1454 0
517 -3366 0
2508 2885 0
1331 2233 0
-2600 -1138 0
-196 526 0
528 -850 0
1039 3118 0
1265 2039 0
3235 2777 0
-1982 1586 0
769 -621 0
2271 2897 0
1952 -834 0
-2488 -3101 0
-539 -1693 0
1175 2857 0
-783 3341 0
2306 938 0
-3106 -3390 0
414 1465 0
2227 3243 0
1862 1539 0
-164 -3122 0
-2550 -3258 0
55 -1272 0
-3036 -402 0
863 -1676 0
-1688 1544 0
-2570 2964 0
1386 -112 0
423 1758 0
-1853 -734 0
245 -1106 0
-3071 -1471 0
-1473 -2901 0
1769 3267 0
2639 3082 0
-1958 -3044 0
1586 2921 0
-2545 1068 0
-1947 87 0
2459 -162 0
2983 2169 0
-2350 329 0
-1036 1953 0
2490 523 0
17 1121 0
1764 2612 0
543 -3159 0
2389 -3010 0
3381 -474 0
-3044 208 0
-1097 -90 0
-3200 -596 0
155 1182 0
-1599 986 0
38 -460 0
-1026 2280 0
1897 -3350 0
-2952 332 0
-893 1223 0
-891 -395 0
-285 453 0
-2865 2353 0
-3436 -2142 0
-579 -1763 0
-1799 2797 0
2669 -2968 0
-245 -1989 0
395 -369 0
490 -3156 0
2928 -948 0
-217 -1910 0
3426 -677 0
-2598 1855 0
-262 -2495 0
-3252 3474 0
-493 -3212 0
72 -1173 0
-294 -3290 0
-151 1973 0
-1063 3435 0
-2947 -337 0
2117 3394 0
1613 -1306 0
-2098 2093 0
1886 -1229 0
-3386 -1064 0
-337 3484 0
1914 -2001 0
2090 423 0
808 2069 0
-1335 363 0
2111 187 0
-2172 2904 0
-1914 3281 0
1911 -97 0
-716 -193 0
-776 -432 0
1742 -673 0
1827 3378 0
2906 -811 0
470 -1589 0
-1497 -964 0
-3138 -308 0
-2399 1175 0
320 -492 0
2853 -1316 0
2614 -197 0
2933 -1865 0
-330 -2165 0
-2160 3075 0
2584 -1875 0
1063 1181 0
-315 -1542 0
-420 933 0
-587 -816 0
-1618 -2509 0
2947 2970 0
-2216 1970 0
-336 -2658 0
-1931 -1700 0
2508 -3495 0
-1755 -2852 0
-589 791 0
1789 -975 0
2234 -1968 0
-2792 2973 0
-2574 -2257 0
2618 3519 0
1144 -1882 0
-1822 -707 0
-1987 -1771 0
2365 3512 0
2987 -554 0
-2778 -3320 0
-2 1968 0
453 327 0
-2900 -1493 0
2167 -1017 0
597 3295 0
-3505 -205 0
-310 1919 0
1389 172 0
-2935 809 0
-373 33 0
814 -346 0
-2514 -2967 0
-1542 863 0
-202 860 0
1149 332 0
962 -1522 0
-3305 -1008 0
-1990 -3246 0
-441 2440 0
-1029 -1189 0
2617 -2042 0
220 2502 0
1370 3292 0
-2375 -3110 0
-101 -3312 0
-2317 632 0
-590 -8 0
824 -457 0
-777 2508 0
2376 934 0
1140 -2102 0
2459 2394 0
-1129 3051 0
-2915 -3466 0
-1389 845 0
-522 2185 0
-1748 1650 0
2029 -2194 0
-929 -2126 0
1797 1265 0
-138 1913 0
1325 -2840 0
-496 364 0
-1218 2578 0
2835 -484 0
-1696 -710 0
-2485 -2511 0
24 -2887 0
-955 -1130 0
2100 -1876 0
2444 -2945 0
1610 1402 0
-2447 -598 0
-186 683 0
-164 3 0
2320 783 0
1147 -193 0
2762 1331 0
1797 2477 0
726 -2080 0
-2095 -2364 0
589 2688 0
-588 885 0
-1687 630 0
758 -2824 0
78 -95 0
397 1815 0
2424 -378 0
-1029 -1194 0
1065 1183 0
-2981 -1015 0
1145 -1758 0
-400 2036 0
-2954 3175 0
-2354 -3401 0
-2451 -240 0
2895 442 0
-2841 -2735 0
-38 3128 0
-316 2215 0
664 3407 0
3471 1926 0
-189 155 0
-2392 -693 0
-579 -1359 0
683 1493 0
-1469 -3304 0
-368 -2881 0
-1602 -1902 0
-1845 -972 0
2701 -787 0
-151 -3074 0
-1678 2051 0
-1657 -996 0
-3292 120 0
-3321 2776 0
543 -2773 0
-2452 2036 0
-116 3032 0
1214 -103 0
-1989 -3293 0
-3385 360 0
-628 915 0
-1758 729 0
379 3476 0
-3220 2943 0
3256 2752 0
-3128 -1657 0
-416 -1382 0
-408 -966 0
1804 -785 0
3294 1791 0
524 -377 0
3126 2865 0
2643 933 0
-3496 437 0
-2756 -2884 0
2140 1186 0
-2755 -2778 0
-1265 -347 0
-2117 -3101 0
2354 -3466 0
-1611 -2221 0
-2353 -871 0
2458 -726 0
-673 -1051 0
-2201 -1712 0
1559 -1658 0
-3471 -1020 0
-2661 941 0
2081 -488 0
3394 -1893 0
1753 3488 0
3187 -1070 0
-3106 -1024 0
1751 543 0
2791 3370 0
1513 2762 0
543 -3214 0
74 1065 0
124 -1373 0
1086 2926 0
1268 2130 0
-949 -832 0
-638 -330 0
389 -362 0
1574 -2612 0
-3169 1554 0
6 900 0
-3054 -3311 0
753 -1007 0
530 1083 0
-838 -693 0
-3410 2650 0
-1269 1755 0
