c NF
p cnf 2795 6149
2149 -85 0
-1913 -1282 0
-2580 2597 0
2062 1390 0
-2318 -2531 0
-1568 2090 0
-2421 2042 0
-107 -941 0
2088 -2635 0
-2651 -655 0
2145 -751 0
-2421 -1416 0
206 -2650 0
183 521 0
-2761 96 0
-2098 1110 0
2595 -242 0
-816 1512 0
1764 -902 0
-1204 -1413 0
1384 -1049 0
1632 743 0
548 1776 0
-1395 -682 0
1406 13 0
230 2186 0
210 1764 0
978 -363 0
318 1524 0
-627 1928 0
-1661 1354 0
705 1823 0
1851 -2082 0
-2287 -1036 0
1706 -2794 0
1590 1719 0
-2105 -1695 0
-881 -2100 0
-2393 1044 0
-1467 673 0
-1342 2338 0
-1026 112 0
-1700 2490 0
2179 -1294 0
678 233 0
-2608 -1782 0
274 1415 0
1602 -1616 0
-251 1752 0
2535 272 0
-2446 -1699 0
548 1865 0
2243 1293 0
2748 -2138 0
-2341 -2245 0
-1240 -1922 0
516 -30 0
-937 2746 0
-896 -565 0
2456 -606 0
-1166 2221 0
-540 -2456 0
-1417 -2078 0
516 617 0
-160 -2268 0
2695 -1324 0
-289 -1935 0
2227 -1661 0
-2642 -2351 0
1128 -664 0
-402 -1946 0
267 2581 0
183 -1666 0
-489 2662 0
1400 -610 0
-2094 148 0
-107 1840 0
-1196 -2487 0
267 479 0
-1469 -110 0
-1696 919 0
-2487 -1136 0
699 -2558 0
-699 -1012 0
1103 -2571 0
-160 -2113 0
-1533 -1113 0
-714 -2487 0
-847 1253 0
1300 -1084 0
1693 2359 0
-2767 459 0
-2468 -20 0
2096 2359 0
255 2110 0
-7 -155 0
1750 462 0
2471 -2773 0
676 1728 0
795 25 0
-1588 1800 0
-1021 -1854 0
-221 1927 0
-1168 1061 0
-2195 1224 0
2112 1753 0
723 2346 0
406 2687 0
-2463 -2437 0
1494 -850 0
-925 -298 0
365 -1867 0
2750 586 0
1781 2606 0
-1529 -517 0
2310 -428 0
-2198 -822 0
325 -2508 0
489 -2413 0
-2357 -2453 0
-992 2425 0
1215 2508 0
-2205 -2405 0
-1526 -1688 0
440 1511 0
-636 -711 0
2345 -545 0
2331 -1982 0
-2140 -2366 0
-1943 1745 0
-2606 966 0
48 1371 0
-314 -1703 0
2675 -2153 0
474 -832 0
1249 -2017 0
790 -2229 0
-520 -1098 0
-859 -1260 0
-78 -867 0
12 -789 0
-37 741 0
-1277 -1172 0
1579 -693 0
2129 1294 0
89 1885 0
-686 1341 0
-975 1618 0
-1460 -2137 0
-2441 -436 0
306 122 0
2431 1005 0
-1380 -284 0
2394 -323 0
233 -1159 0
-933 2022 0
457 276 0
-1266 773 0
-1065 -934 0
572 -704 0
2254 -1181 0
960 985 0
-1175 -1743 0
1943 -1839 0
-486 731 0
-1570 2073 0
-1565 -1326 0
1604 -1768 0
-2552 -1515 0
563 -2631 0
-2011 -2770 0
2695 -426 0
-2673 -1248 0
-425 144 0
-773 2438 0
-24 59 0
2084 1485 0
2771 1301 0
1954 -203 0
1511 1622 0
2397 1496 0
-662 -1161 0
-249 -582 0
-2242 1718 0
1965 2124 0
1726 -879 0
694 -1520 0
-251 430 0
2307 488 0
1685 -2525 0
-1893 -963 0
1715 1402 0
2492 260 0
1097 -1763 0
-1784 2086 0
1330 1636 0
2369 2795 0
1416 1405 0
-1973 -2133 0
395 -474 0
-1006 318 0
-1926 1415 0
-1322 1350 0
1478 191 0
-804 2525 0
731 -1168 0
741 2418 0
526 -319 0
1866 -882 0
-1648 2533 0
-398 1323 0
2279 1405 0
-2023 503 0
417 -1370 0
-359 -2085 0
1350 2174 0
-769 -1846 0
-2450 -730 0
-1054 -2367 0
90 1350 0
638 -1916 0
1749 2010 0
1744 -2203 0
1880 -810 0
-2600 2509 0
2686 1295 0
46 -2650 0
-67 1684 0
-1338 2206 0
-2708 2258 0
2537 -465 0
-2454 -1469 0
2474 2394 0
-2398 -2354 0
-1357 2607 0
-2146 2145 0
-19 -1578 0
-1161 -2301 0
-588 2682 0
-365 -1634 0
-989 -1879 0
2116 2618 0
-997 -1108 0
1508 -573 0
-1673 1197 0
-1616 1193 0
629 -358 0
-1552 199 0
1461 1361 0
998 -1995 0
-1951 -2305 0
780 187 0
-2034 1717 0
356 -447 0
-1476 -1670 0
413 720 0
2697 2369 0
2508 2164 0
-1573 -2415 0
-78 2004 0
1726 2115 0
-1722 -2205 0
1100 -1857 0
-1895 2356 0
-1429 -1530 0
2164 1843 0
1409 -1008 0
-1090 2614 0
2022 -1400 0
530 -1083 0
-347 776 0
-1201 1112 0
655 1909 0
1134 2211 0
2757 165 0
-1394 -1398 0
2511 615 0
930 -1043 0
-1310 2392 0
-2118 -1226 0
-659 2330 0
-1978 -1855 0
2390 734 0
-2238 -1275 0
-2306 -584 0
2498 2131 0
2705 -2647 0
-1102 -1165 0
-1464 1869 0
-1311 -1078 0
-2734 -1972 0
2547 -2303 0
267 856 0
2287 2548 0
-1922 -2229 0
64 541 0
1050 -1680 0
2680 1623 0
349 313 0
-2503 -1338 0
-1792 -166 0
-540 115 0
-15 796 0
-2021 2498 0
1700 -950 0
2219 2672 0
2637 -2755 0
887 2392 0
1933 -1091 0
-1688 -2184 0
1642 -1722 0
-2051 -963 0
-811 -1605 0
-925 -1295 0
-1127 1597 0
-1239 1643 0
-313 -1169 0
24 287 0
-845 -1976 0
1781 -2369 0
455 1557 0
1052 -34 0
-1690 1856 0
2118 1138 0
1398 -1745 0
-1337 1105 0
1641 -698 0
-2060 446 0
-2615 264 0
-189 840 0
-1145 1231 0
-1036 1958 0
2397 2216 0
-2619 -1159 0
2237 -2255 0
2636 -1795 0
1767 -2774 0
-1213 -2482 0
-1011 430 0
2145 208 0
-249 -1709 0
2596 -2178 0
2591 1779 0
-2577 1802 0
97 1647 0
-1979 -2354 0
2373 2720 0
139 -1023 0
1106 2040 0
-1542 -1323 0
-922 309 0
-2352 -2686 0
423 -417 0
798 -102 0
-1153 2696 0
-46 -1169 0
-2657 -1346 0
-244 799 0
1950 -2133 0
-1201 1602 0
-1555 768 0
-546 2395 0
2033 770 0
-2094 1592 0
1714 1505 0
-1347 -2129 0
-647 2106 0
668 -1025 0
622 -549 0
-1473 2328 0
-1917 -2658 0
996 -728 0
-346 2 0
-1119 1014 0
2106 1958 0
-1969 1096 0
2249 -259 0
1312 1457 0
-26 2006 0
182 180 0
-478 1208 0
986 210 0
886 -249 0
2558 -2524 0
-2731 -2552 0
-10 -1230 0
-1151 -1473 0
564 1632 0
-1530 -405 0
-1970 456 0
2595 595 0
-2262 2696 0
-284 1764 0
514 -2145 0
-544 -1982 0
17 1767 0
-2085 2360 0
-2116 2643 0
739 -116 0
423 -1695 0
-839 -150 0
2782 305 0
1404 1020 0
-365 2508 0
-410 998 0
-1245 1416 0
1923 -1677 0
-866 954 0
1561 1901 0
2083 -2167 0
-706 2032 0
2613 1843 0
-1979 -1348 0
2414 1986 0
2673 1179 0
1295 -260 0
-322 -1696 0
1790 2604 0
-223 -2426 0
-2341 2522 0
-1358 206 0
2123 -49 0
-154 -200 0
-1758 -2514 0
2002 1552 0
1842 954 0
-1798 792 0
609 -1303 0
-2731 -1695 0
-408 2223 0
-2041 -836 0
-1387 -335 0
1878 -443 0
-676 -1989 0
-705 -830 0
-1326 1445 0
-2369 306 0
563 -447 0
865 -472 0
-980 2592 0
-1062 -2758 0
-2278 -574 0
2568 -1344 0
2 1350 0
-897 1048 0
-1878 -1175 0
1605 1455 0
-1623 2778 0
-337 -2478 0
877 1601 0
255 -253 0
-1495 -2141 0
1249 1395 0
-1461 36 0
93 -371 0
1227 2185 0
-173 638 0
2148 989 0
-647 -828 0
-2240 945 0
2127 2416 0
2521 -545 0
2038 -2417 0
-2168 -841 0
821 2739 0
880 806 0
1483 -2360 0
325 950 0
-2490 -1682 0
2447 -956 0
2359 2702 0
855 179 0
854 -2666 0
174 2328 0
-921 2033 0
1687 432 0
1419 -1975 0
-2630 -1579 0
-2515 -1834 0
-1260 1687 0
-2676 -1303 0
-963 -436 0
2589 1436 0
-1062 -2540 0
-1586 -281 0
2644 572 0
-610 -1080 0
1223 -2746 0
-335 2747 0
-2305 -1637 0
1763 -764 0
-1792 2374 0
-962 722 0
2743 1062 0
-1342 -1788 0
-212 -419 0
-466 -756 0
1650 2129 0
1612 1765 0
-1530 -2188 0
1771 -2217 0
1006 -666 0
100 349 0
305 -1337 0
-630 1840 0
-1067 2520 0
2488 -372 0
-2421 -774 0
1198 560 0
453 174 0
2166 717 0
-420 -1442 0
1906 161 0
680 -2100 0
-2234 -1402 0
1647 -2516 0
-537 -218 0
-802 -1891 0
2491 1173 0
75 492 0
-2757 978 0
-1533 -608 0
1009 2694 0
2125 -184 0
-2590 -842 0
2534 1403 0
-2667 76 0
-581 -194 0
479 1895 0
2680 2472 0
-1376 649 0
2151 1285 0
31 40 0
-888 160 0
2607 -1986 0
-1431 -2565 0
2468 -844 0
-1478 -61 0
1754 -2414 0
1403 -1996 0
615 663 0
-1930 2775 0
1586 -22 0
-1334 1087 0
689 -1613 0
-667 1678 0
1265 2112 0
-2472 -1447 0
-1155 -1282 0
-1836 -1363 0
-244 1235 0
719 -2549 0
1742 1986 0
2388 624 0
1635 -1930 0
-143 -2733 0
2055 -1914 0
2121 -2485 0
2075 -1571 0
-2733 1986 0
43 48 0
-681 1011 0
-752 -818 0
-195 1117 0
-2098 -1332 0
2679 -112 0
-2127 -63 0
264 1189 0
1354 -1762 0
1446 -1985 0
2505 2650 0
2223 -917 0
-1598 -724 0
849 -1442 0
1234 692 0
1108 -2428 0
-933 1506 0
-790 2321 0
-258 2769 0
-2326 -1077 0
-1378 557 0
-513 2339 0
-278 1967 0
688 551 0
843 2611 0
2362 -774 0
46 -1619 0
-427 1942 0
2567 1360 0
1935 2531 0
-438 2668 0
134 -2045 0
-280 2085 0
1715 158 0
812 -2632 0
821 986 0
433 109 0
-48 -2201 0
1338 1861 0
2322 1123 0
1812 661 0
973 2119 0
-1762 -2206 0
1653 1341 0
363 -2379 0
-319 -1172 0
-2501 -69 0
654 -1603 0
-1791 -306 0
-2184 1575 0
-981 1263 0
2196 2359 0
-2401 -2041 0
-1212 -598 0
-2353 -1577 0
634 1472 0
2125 2237 0
-2604 979 0
-1277 -2017 0
1988 1711 0
-2690 479 0
-2378 -2522 0
-2206 2383 0
-2300 2535 0
367 -2744 0
-1758 -546 0
-333 2302 0
418 -1582 0
-504 2555 0
2270 -298 0
-635 1904 0
2106 -1113 0
-392 -322 0
2685 1249 0
2725 51 0
-650 1294 0
2067 -2087 0
935 250 0
734 1750 0
1097 2614 0
1071 -1414 0
-1502 -1794 0
-1437 1154 0
2670 -1427 0
2050 185 0
-1190 -2384 0
695 178 0
437 -2565 0
857 1143 0
2713 -1083 0
1009 -1783 0
-2534 1575 0
-1115 930 0
1757 2290 0
2719 713 0
459 75 0
-466 1157 0
2264 519 0
-1967 -1447 0
-2253 -33 0
-984 381 0
800 -1109 0
-1586 317 0
825 -2690 0
-1973 -1123 0
1094 -398 0
2059 -1388 0
998 1639 0
-2391 -2182 0
-2480 1360 0
-675 -284 0
2280 -72 0
1537 -1456 0
2645 -1732 0
-1116 2331 0
-1087 -295 0
807 -380 0
307 -2047 0
806 -2013 0
550 1156 0
1006 -318 0
1082 1964 0
1908 -2424 0
1931 492 0
111 -132 0
1705 -174 0
8 -2483 0
-1119 -2500 0
879 1492 0
-838 1692 0
-2137 1046 0
-1412 -1868 0
-1601 194 0
1091 -2463 0
-156 -926 0
-3 -1789 0
-1837 -573 0
18 -1574 0
510 -1980 0
811 -119 0
-358 1829 0
1543 -2559 0
1535 2275 0
1066 -853 0
2358 -1545 0
-1795 1763 0
742 -362 0
-1829 -163 0
1496 -605 0
-612 1781 0
1598 -1567 0
2275 1198 0
-682 2435 0
1174 2469 0
-1331 2360 0
533 -742 0
737 -1524 0
-523 -1765 0
1852 2185 0
-893 -2683 0
-1346 -2565 0
-341 2058 0
-2029 2474 0
1574 -1524 0
2275 312 0
2527 -873 0
192 -1313 0
-1364 -2567 0
-396 -2516 0
-375 98 0
-698 2248 0
1000 -785 0
1594 -1601 0
-2240 -1995 0
1312 1273 0
-1269 311 0
-2233 844 0
-545 -2636 0
-1356 1575 0
325 -1284 0
-542 -1623 0
-784 -399 0
-2669 -2110 0
463 503 0
-160 1791 0
2128 -1854 0
-1129 351 0
800 2746 0
-2160 1584 0
412 -1836 0
-2756 436 0
-327 1533 0
2696 1138 0
2347 -1365 0
-933 -1071 0
1679 2588 0
-301 1059 0
-220 -2367 0
2791 1621 0
-1352 2470 0
-977 -1311 0
929 2487 0
-1059 2123 0
-913 -1979 0
-15 -177 0
-2730 -531 0
-303 2112 0
1037 1862 0
438 -2441 0
224 -1501 0
-1708 361 0
1422 927 0
2748 -1990 0
-261 203 0
1731 -1356 0
-2040 -70 0
-411 1847 0
-980 2704 0
2557 -983 0
348 1673 0
998 -1245 0
-1189 -1437 0
2400 -2187 0
2202 2301 0
-1959 1836 0
-2201 809 0
1123 -2026 0
777 1706 0
1350 2288 0
1483 -2378 0
2024 1706 0
-2666 607 0
1018 1981 0
-1857 2473 0
2400 -570 0
-2397 1760 0
-1267 1246 0
-2012 242 0
-884 -1720 0
-453 937 0
697 41 0
-1207 -1546 0
2309 1087 0
1127 1738 0
-837 -314 0
395 -1479 0
-2536 654 0
-2151 -1229 0
201 543 0
90 -760 0
367 -1242 0
-434 -1210 0
-346 -2759 0
1466 -53 0
2515 -1683 0
-8 1722 0
-295 197 0
-2282 -2300 0
-1131 1865 0
1362 -1031 0
-1432 -867 0
1281 1435 0
-1348 1278 0
-30 2004 0
-1548 -928 0
2684 -1640 0
221 1037 0
-505 -1874 0
-981 -1595 0
-1759 1017 0
277 711 0
-2436 -815 0
551 1572 0
-1956 -1061 0
436 -1962 0
1920 -961 0
2084 -2687 0
586 -1615 0
-1168 -844 0
-352 -1537 0
2618 -600 0
-1805 348 0
2115 1420 0
1088 1470 0
715 -1323 0
-1362 1353 0
-553 -652 0
1934 -23 0
-2075 -1399 0
-576 238 0
442 -1452 0
-2784 1183 0
181 2354 0
364 2248 0
1296 -1389 0
756 -1216 0
995 -801 0
1652 428 0
-1242 707 0
-1191 395 0
2281 1976 0
1492 -2567 0
647 -1892 0
-2378 2788 0
-895 -1314 0
-2390 -393 0
1328 2511 0
459 -1080 0
-2019 1207 0
-2167 -755 0
-1608 -842 0
-1605 -1011 0
1753 -330 0
-1211 1986 0
-1821 -305 0
-2698 -1682 0
-2289 2048 0
653 -2540 0
-1585 -1672 0
902 1099 0
-2578 1252 0
2265 983 0
322 -408 0
2516 1224 0
1037 -2743 0
2117 2541 0
-394 1300 0
-416 797 0
-1633 -346 0
1593 -393 0
-1269 2324 0
1612 1936 0
-2376 -1507 0
1528 -1943 0
1263 60 0
1246 1956 0
1053 1603 0
2761 1909 0
-840 1397 0
-1196 1555 0
494 -15 0
1408 1285 0
2366 -2070 0
-1586 709 0
-2327 -443 0
-605 -935 0
-1656 -91 0
1905 2645 0
-1291 -362 0
-1378 2189 0
-1206 29 0
-1529 -2461 0
306 -961 0
2409 -710 0
2629 -2440 0
-1879 1132 0
-561 -316 0
-2025 1581 0
-2217 720 0
-377 2363 0
1578 883 0
1986 1071 0
970 -2271 0
-1826 -383 0
-1283 957 0
904 -622 0
2096 2691 0
-2524 -2739 0
-2302 1544 0
-2650 1003 0
1970 485 0
74 -2399 0
-1204 276 0
-453 484 0
1200 2102 0
-2287 -2699 0
-1751 415 0
-1532 -115 0
-73 111 0
-1558 1007 0
-2244 689 0
454 -710 0
2069 -1375 0
-2111 2726 0
-2343 1928 0
-252 -324 0
-2731 1207 0
-2722 -2060 0
1515 170 0
2506 -1407 0
-1873 -997 0
2270 865 0
463 1412 0
-1156 2086 0
-841 1878 0
1572 359 0
937 -1854 0
1418 1123 0
-1378 475 0
-2583 1610 0
-218 612 0
210 2178 0
-684 1642 0
1761 2004 0
-1815 -1888 0
2243 2526 0
2370 2342 0
2779 75 0
-1984 1562 0
524 1980 0
-2649 -1131 0
2151 -223 0
-64 2723 0
236 -19 0
2110 -1068 0
-285 127 0
2409 -63 0
-1966 467 0
2532 173 0
60 505 0
2484 -2681 0
-2767 -1882 0
839 -2463 0
-891 -1337 0
1094 651 0
2168 805 0
-1490 2351 0
1771 1985 0
266 2092 0
-2068 -559 0
-615 -2617 0
-2381 1745 0
-352 -1210 0
753 -1972 0
2774 2568 0
-1216 -389 0
2469 -552 0
935 -1248 0
-1852 -2203 0
-1167 -1688 0
-602 -1248 0
-820 -734 0
-1172 1078 0
-2363 -2377 0
2794 996 0
-1092 53 0
-814 -660 0
2688 -1574 0
-205 2110 0
-1126 -653 0
-1501 -222 0
-1887 2584 0
-906 1694 0
1590 -2500 0
857 2592 0
-987 -621 0
1657 1596 0
-87 1823 0
-2699 2037 0
1503 -1139 0
-2405 1533 0
-1688 -1165 0
1732 -1871 0
564 -2295 0
1962 -1119 0
-1402 894 0
1170 1625 0
-2004 -805 0
-667 -851 0
277 1909 0
399 -1523 0
-710 -1234 0
-745 -2571 0
2688 1425 0
-2687 2276 0
708 572 0
-657 -1888 0
536 1649 0
724 -726 0
2790 -843 0
-1169 -2113 0
84 -1655 0
1901 2576 0
2321 1883 0
-1444 -2658 0
2159 1107 0
1258 -2326 0
176 -2397 0
2596 -1531 0
-2461 -1699 0
2480 2295 0
-1176 -551 0
1865 1426 0
-297 -2425 0
704 2771 0
2482 2633 0
1461 1178 0
-1621 -237 0
2088 2774 0
-661 -483 0
-812 245 0
2498 -2736 0
-1929 23 0
1369 1513 0
-1559 -2312 0
117 1732 0
-2770 831 0
1048 -2536 0
37 -623 0
656 -56 0
-614 -2583 0
1706 -1827 0
-482 -781 0
-2538 -1557 0
-332 -2600 0
1818 2660 0
-78 -1395 0
-160 -1078 0
466 -314 0
-1160 -1753 0
40 2444 0
-1759 -2008 0
-2446 40 0
455 2258 0
1239 1018 0
-2558 -580 0
1583 1726 0
850 491 0
1993 -2370 0
-2388 -610 0
-267 1371 0
168 -1410 0
-2282 2090 0
325 -1570 0
-963 28 0
-561 2530 0
-1808 1822 0
1830 1333 0
-1277 -159 0
-46 -1606 0
-2519 -2420 0
1709 2209 0
1844 2519 0
-2459 -1145 0
-2239 746 0
-1766 182 0
417 700 0
-92 646 0
-1478 31 0
985 -215 0
1106 2737 0
2712 525 0
2790 698 0
-358 -2720 0
-1323 2041 0
-1815 2691 0
318 554 0
417 -957 0
775 -316 0
505 1120 0
-2724 633 0
1652 941 0
1423 -1768 0
-962 1467 0
697 547 0
1491 2331 0
-2417 -1313 0
2055 1846 0
-1449 -1777 0
2142 1628 0
1595 -2361 0
-1921 1503 0
1740 1757 0
-1750 1091 0
-516 -1284 0
-850 -1428 0
2618 -1670 0
-452 -898 0
340 1396 0
1335 921 0
395 -327 0
2083 -132 0
1647 -2677 0
2567 -139 0
-898 -279 0
-1855 1902 0
868 1042 0
-1248 -2535 0
1268 1704 0
373 1405 0
-2632 555 0
1969 787 0
147 834 0
-2704 436 0
615 -2766 0
-791 -1030 0
1130 643 0
255 -2334 0
-1199 883 0
-2353 1868 0
-815 -2622 0
-1810 750 0
-1456 2469 0
2091 883 0
-365 -439 0
245 -2035 0
107 560 0
1285 1598 0
428 -2510 0
2182 -472 0
2428 908 0
-788 2131 0
1660 -1489 0
-596 -1646 0
981 2717 0
509 -2106 0
-2159 -2448 0
-2560 327 0
1886 1217 0
-1550 2578 0
-168 -1913 0
2513 -690 0
947 1966 0
-578 -2331 0
-2729 -592 0
830 497 0
-777 36 0
-937 -1505 0
2018 871 0
-1043 1174 0
983 1004 0
-2574 594 0
-321 -391 0
-1176 1658 0
410 -1997 0
935 1647 0
1988 -1536 0
1662 -967 0
653 -240 0
1589 -1154 0
-1453 -451 0
-1778 273 0
1974 2354 0
2692 -962 0
2148 390 0
-1167 1406 0
-2147 825 0
-2367 1283 0
767 -2672 0
2197 -1819 0
-1557 -1367 0
-2696 1245 0
1528 -1538 0
-11 2105 0
-604 -538 0
2440 -100 0
1687 2490 0
-2772 -2114 0
-351 2028 0
-1965 1909 0
2657 -942 0
-2271 881 0
838 -1195 0
-973 2122 0
2773 -63 0
233 2770 0
515 1046 0
1290 2768 0
2154 -704 0
-1662 -1288 0
2626 -2683 0
-111 -2009 0
1401 2652 0
-2451 -425 0
-33 2518 0
1923 607 0
2256 2283 0
2014 2485 0
-2296 -735 0
-2629 -889 0
433 -2051 0
-2025 -391 0
-416 2228 0
2775 672 0
2244 1699 0
-2543 -1589 0
-1020 2105 0
-1480 552 0
2748 986 0
-2782 2608 0
-1019 -1344 0
2498 1259 0
-152 2484 0
252 949 0
355 2732 0
-507 -2252 0
-1209 1160 0
-1795 -2561 0
-1869 -1408 0
1261 -2542 0
149 -2055 0
2743 2180 0
-11 -2063 0
-1688 564 0
1187 -478 0
2093 564 0
-1016 -539 0
-2209 -1947 0
-710 1675 0
-950 -1571 0
-2490 -333 0
2446 -2716 0
-1278 2553 0
343 283 0
-748 -523 0
-346 1801 0
-193 -1582 0
-44 2516 0
-1519 1332 0
222 1710 0
-2541 -1092 0
-667 -825 0
1215 -2021 0
2442 -1464 0
-1488 -2524 0
1970 -2019 0
2452 1166 0
1770 -2368 0
1457 -647 0
974 2711 0
2174 -2221 0
-1053 727 0
700 1580 0
2756 -1634 0
266 -281 0
2728 -2066 0
2606 974 0
-2232 -594 0
2581 -2376 0
367 872 0
-2049 -1786 0
-1139 1908 0
2290 -2446 0
381 -2531 0
-2191 560 0
1126 778 0
-1719 823 0
-2087 -164 0
-718 1869 0
-760 -1860 0
1093 -2400 0
649 1734 0
724 -1534 0
-2743 -1412 0
-1925 2491 0
-2194 -635 0
-2466 -1381 0
145 2409 0
1157 1728 0
-2523 -416 0
1617 -1870 0
1048 2118 0
-668 2276 0
-2220 1204 0
1650 2763 0
745 2245 0
1713 -1392 0
2555 -85 0
-1226 -2590 0
-2500 -664 0
-609 163 0
-824 1681 0
-2139 1154 0
931 -1266 0
-978 -2398 0
-1682 -1270 0
2219 -1747 0
-922 1617 0
-785 3 0
-133 726 0
2457 -2458 0
-2251 -482 0
1816 -1860 0
-1432 801 0
2498 1985 0
1931 262 0
1136 -2230 0
799 -2692 0
-1763 -2577 0
1298 -2503 0
1105 2468 0
2349 -1647 0
2183 2683 0
-2078 -786 0
-2415 -1502 0
413 -2196 0
-1592 2584 0
-1622 1787 0
-767 -896 0
-1530 914 0
518 -1841 0
-610 1525 0
-886 -579 0
-1734 1157 0
2284 -1003 0
123 542 0
-939 172 0
323 -879 0
2115 -385 0
-418 -1905 0
1257 -1431 0
2001 -2429 0
-99 2110 0
230 1325 0
653 2015 0
-1245 2112 0
1542 -212 0
-2456 -724 0
839 -1917 0
497 -40 0
1541 2322 0
-1938 1711 0
-2409 -1053 0
176 950 0
-207 -1629 0
1101 1791 0
1804 2344 0
1732 -1672 0
2589 -991 0
-1323 -1664 0
2713 -1604 0
-2200 -1615 0
2158 -1129 0
1693 -30 0
369 -2742 0
1836 -293 0
-1519 -2238 0
485 -337 0
969 -1288 0
-1504 1966 0
-130 -2626 0
-1678 -1267 0
2094 1885 0
1776 -950 0
1886 1730 0
2355 -2772 0
2600 1706 0
347 2096 0
869 -2329 0
-1922 -1546 0
1398 -2408 0
1042 526 0
-2538 -1396 0
-2524 -1608 0
-2012 2142 0
-139 -1360 0
1476 -500 0
304 -100 0
-317 -2785 0
-196 902 0
-2769 -1877 0
-1770 -2627 0
-912 2225 0
-1827 -1186 0
-2080 2723 0
-94 -1546 0
-1984 -326 0
916 1158 0
-125 -486 0
-2360 402 0
672 -1883 0
-465 -1724 0
-1215 2092 0
459 -1808 0
1590 2196 0
1807 -1114 0
562 -2794 0
2635 2625 0
-2468 -901 0
1002 1969 0
1846 -1767 0
-1938 675 0
-2543 497 0
2544 2465 0
-1532 1744 0
299 -1030 0
148 -1587 0
991 -256 0
-2161 1290 0
-2640 2310 0
-487 -818 0
-600 118 0
-1792 -519 0
-1983 2459 0
-1501 791 0
349 -2331 0
1106 2255 0
-715 -1238 0
-1182 1897 0
-243 -1204 0
-533 -900 0
2431 -1888 0
878 305 0
2676 1794 0
-1399 2323 0
-1248 35 0
345 -1344 0
2586 2153 0
2069 -385 0
-259 -132 0
-1154 -1720 0
1373 2053 0
2125 435 0
2352 1136 0
-1534 59 0
-336 31 0
1230 2633 0
-2228 1298 0
-2443 -1295 0
-277 -1028 0
-276 2086 0
-2009 -2452 0
1467 2265 0
-21 434 0
2775 1945 0
2511 1274 0
733 -433 0
510 -1338 0
-2214 274 0
1135 2478 0
-136 1986 0
-717 1405 0
-1095 -38 0
-150 -563 0
2476 2212 0
-1343 -1108 0
1351 663 0
-2579 2185 0
1553 -2498 0
2325 455 0
-1509 -1488 0
-1419 2234 0
41 -750 0
-129 1236 0
54 -2144 0
1103 -1078 0
-33 320 0
-472 -1738 0
236 2081 0
633 -1746 0
-478 -1434 0
2557 -240 0
2718 306 0
1819 -2355 0
-1324 -1349 0
-147 1446 0
-763 2069 0
1675 418 0
2299 2219 0
1583 -2305 0
-1980 1191 0
-2781 2267 0
2208 442 0
1547 -836 0
-1954 -1314 0
2460 338 0
1107 539 0
-337 -2664 0
1635 2595 0
1218 -2292 0
-2470 -1562 0
1963 1105 0
2410 -609 0
-1510 -2415 0
-2186 -1342 0
-2358 -872 0
-258 1675 0
-1056 -1518 0
1560 -375 0
-1595 -809 0
-299 2589 0
-1918 1906 0
-460 347 0
-1092 2154 0
1541 294 0
-138 -2186 0
-762 -1057 0
1723 353 0
-488 -2537 0
-2550 698 0
-750 985 0
-1772 -2378 0
-2792 2607 0
2459 566 0
-972 -1419 0
941 246 0
-533 1820 0
-2018 388 0
-301 977 0
-1911 -84 0
2573 -2623 0
-2494 -2547 0
2233 2106 0
-2446 -1267 0
2544 906 0
670 2562 0
2002 -2748 0
-542 824 0
2682 1731 0
-626 1841 0
-2656 2400 0
907 -2627 0
-370 -711 0
2750 -2094 0
1936 937 0
-692 373 0
56 -2747 0
1705 772 0
2170 493 0
-1019 -1767 0
-141 -2032 0
-1626 1384 0
1306 190 0
-2733 2373 0
-949 -2341 0
-2769 1820 0
460 -1672 0
2778 -573 0
1784 -1207 0
-299 -2604 0
563 2763 0
1710 -1925 0
-1011 127 0
-1693 157 0
-325 199 0
-166 -2368 0
542 -1187 0
-2114 -1381 0
-2232 -1762 0
1670 -2368 0
-636 -2222 0
1476 1714 0
-414 -1729 0
-1425 1707 0
-1144 -433 0
756 -886 0
400 1874 0
2024 1693 0
-1410 -835 0
2511 2179 0
-2556 -1104 0
1105 -1157 0
-1574 -719 0
-1608 -2361 0
271 -1979 0
1247 -1388 0
2291 -1311 0
2656 2158 0
-1302 -330 0
986 2711 0
-1019 -1407 0
-503 -2651 0
-486 1117 0
1090 694 0
-802 1064 0
397 1096 0
4 -279 0
1835 1861 0
1360 -630 0
1297 -198 0
-20 1274 0
-303 2243 0
-2792 -1375 0
-2582 1660 0
971 -531 0
-1574 -2536 0
2111 1888 0
-1536 -1317 0
586 -34 0
1220 -2159 0
-1307 -99 0
2649 1278 0
264 -1473 0
1722 1116 0
1498 568 0
2314 -1166 0
2396 -1460 0
-2099 2502 0
1301 1104 0
495 -2024 0
2696 -504 0
1223 -2372 0
-2056 241 0
233 2301 0
2524 -2138 0
116 2021 0
-302 2037 0
1505 2680 0
-889 -496 0
2103 566 0
712 1464 0
-1863 -2316 0
1289 1148 0
-751 -1133 0
1506 613 0
-372 2765 0
2057 229 0
-2341 -2667 0
1664 445 0
-500 -724 0
2728 -655 0
1273 -223 0
-1522 2485 0
1257 -1518 0
16 1028 0
29 1172 0
-2457 -44 0
-508 -2517 0
1785 -24 0
1625 -2667 0
1485 -2734 0
147 -2487 0
2775 -2718 0
1742 1763 0
841 1285 0
-1202 2517 0
-4 2480 0
-1181 -197 0
1873 2208 0
-673 1950 0
2505 1367 0
-1528 -717 0
1650 -207 0
-1634 -966 0
2098 1245 0
-1655 2459 0
2065 -2654 0
-1040 -2109 0
1940 1858 0
-2292 2023 0
1398 2555 0
-997 -2503 0
-362 -2603 0
-2512 1461 0
-609 134 0
-2599 -510 0
-1249 -1797 0
-701 1192 0
634 -1552 0
243 -2005 0
-344 -1069 0
-183 -1232 0
-1149 -1980 0
799 -994 0
-1329 -502 0
-1119 669 0
-2301 729 0
1164 -2361 0
-730 -1639 0
1690 9 0
1042 -1404 0
1963 2548 0
-216 -1633 0
307 -114 0
-763 -656 0
398 493 0
826 230 0
-2668 1597 0
-1399 517 0
1405 -522 0
-2353 -953 0
-1173 1924 0
2250 1883 0
-716 433 0
2069 678 0
2030 1379 0
-259 1056 0
253 381 0
622 -1669 0
1192 2445 0
-575 1513 0
-19 500 0
1150 -1125 0
586 801 0
-899 -1955 0
1298 -830 0
1394 -1792 0
-2765 -226 0
277 1417 0
-2640 -2353 0
1333 -1080 0
-2245 -284 0
1497 974 0
2405 1982 0
551 -2497 0
1380 -830 0
1537 712 0
-1510 -1623 0
-666 2046 0
788 -1889 0
1270 1687 0
2792 1438 0
-339 619 0
2669 1274 0
-529 -559 0
1776 2088 0
1455 -1948 0
-917 -1045 0
2651 -2377 0
12 1368 0
-1184 2726 0
-1665 -969 0
1014 -1602 0
-601 810 0
348 923 0
-2627 2509 0
2084 -2473 0
-2404 -1047 0
-1171 -1739 0
1293 -750 0
-1075 -914 0
-1356 -2328 0
382 -49 0
-146 -2715 0
-2486 1474 0
-1600 -1251 0
-2577 944 0
-507 -408 0
2566 -1571 0
-950 -628 0
1342 -1032 0
1733 2154 0
2702 -931 0
-1132 1114 0
1589 -537 0
-390 -2495 0
1283 2182 0
2659 -527 0
2297 -374 0
-423 1861 0
-866 1746 0
1373 415 0
-212 145 0
2760 -376 0
2336 1883 0
529 2523 0
598 -1396 0
813 155 0
-1094 -1550 0
-1971 -1221 0
262 -836 0
686 2745 0
1301 290 0
1270 1709 0
83 1120 0
-2330 -2090 0
-1080 -1337 0
733 -641 0
1458 1077 0
2695 -620 0
-1821 236 0
2518 -1769 0
-1331 -2250 0
-1826 491 0
2373 1635 0
-1432 -504 0
-959 534 0
396 1842 0
1743 -2450 0
-482 -1917 0
1247 -126 0
-767 2775 0
-937 -641 0
-2326 -1899 0
1307 2242 0
-396 -459 0
2300 1549 0
698 -1987 0
34 1626 0
1061 1720 0
-1299 -33 0
-2330 1083 0
-848 -693 0
594 333 0
2763 -1115 0
-2644 -879 0
1693 604 0
677 2665 0
-2426 880 0
1977 -955 0
188 2659 0
1360 464 0
2471 -1589 0
1776 -1377 0
82 1974 0
-561 -2158 0
787 2111 0
-1800 -620 0
1005 -2349 0
-2308 384 0
-447 -1827 0
240 -1339 0
2675 -381 0
1312 908 0
-1738 2563 0
369 2709 0
-2478 2675 0
1334 2188 0
-2126 451 0
1742 951 0
1916 935 0
-1053 -2254 0
2025 -108 0
865 2707 0
-321 -2783 0
-602 -464 0
1274 -1630 0
586 2445 0
1751 -435 0
-1184 262 0
-609 964 0
1258 -780 0
-136 -1777 0
-1522 1492 0
56 -2789 0
2784 -1953 0
-2517 -2214 0
281 2285 0
-2444 2295 0
-1848 1179 0
-902 -804 0
1956 -2351 0
2151 984 0
213 -1851 0
-338 -2207 0
-2419 1494 0
1930 -396 0
1350 1842 0
-1806 2245 0
-952 698 0
-540 -1275 0
-1711 -613 0
-1248 2410 0
-17 1641 0
-1666 -2172 0
870 -2209 0
-1326 -2501 0
-159 -1540 0
470 1638 0
-607 -2238 0
1048 1542 0
1283 2316 0
-1925 1890 0
-577 -420 0
-938 691 0
-2281 -234 0
633 -1154 0
-1899 1976 0
932 -1394 0
2432 389 0
2511 1808 0
2521 -1260 0
-615 1818 0
2274 -1501 0
218 -2312 0
75 2084 0
79 -896 0
-742 -953 0
-601 -1078 0
1157 1962 0
1064 278 0
586 2105 0
2783 2688 0
1660 -223 0
-907 -222 0
-968 229 0
839 -392 0
1317 334 0
-2024 -1529 0
-1107 -1977 0
353 -2653 0
721 -1793 0
1865 628 0
2373 462 0
-1581 1173 0
-202 188 0
1779 -391 0
-2361 -1918 0
-892 2315 0
912 1584 0
-2467 -2332 0
1746 -351 0
-2390 1370 0
-2573 -314 0
-1969 2236 0
-2770 2346 0
-1225 56 0
-1139 773 0
-549 -2090 0
-583 -1150 0
-1155 675 0
2728 1038 0
-2143 244 0
-89 2418 0
-681 2350 0
-2109 1421 0
2710 749 0
2101 -2345 0
1416 39 0
1478 23 0
340 2378 0
2483 551 0
-1089 -329 0
-1880 -2238 0
-1121 594 0
1941 -860 0
-2565 -2023 0
320 181 0
-2410 1458 0
-2081 -664 0
-2488 2788 0
-1372 2278 0
211 494 0
969 -433 0
-2053 -99 0
-1440 -2694 0
-278 -567 0
-1375 -812 0
-1566 -1622 0
1636 203 0
-1664 357 0
-1481 1350 0
-560 -1811 0
2239 -756 0
-998 292 0
-2415 1282 0
-2217 2105 0
1386 1121 0
2768 -1874 0
1414 -2199 0
-1126 292 0
1401 -356 0
-1328 1169 0
1494 -1002 0
2532 -859 0
-2571 304 0
-1427 -1207 0
106 -48 0
-1277 1299 0
1840 -1039 0
-2323 2653 0
-2495 -2585 0
2015 378 0
-921 2752 0
-1404 1692 0
-106 -133 0
-193 1458 0
2725 -2341 0
-1989 -903 0
2158 -2144 0
2586 -1080 0
-1462 430 0
-209 677 0
2498 -424 0
-886 -2159 0
2620 190 0
913 -382 0
1986 2048 0
542 -829 0
187 2617 0
-1609 1063 0
-1165 -1485 0
-222 1652 0
1564 1508 0
328 438 0
-2668 -1342 0
-710 1906 0
2123 1370 0
-1729 -2445 0
2439 -1538 0
2024 75 0
-871 118 0
2135 1794 0
-2234 -795 0
-699 1070 0
1360 1796 0
-1421 -1214 0
-2479 1712 0
-1743 -1590 0
-1562 535 0
1142 2380 0
129 2046 0
570 1549 0
-251 -2138 0
-1449 -340 0
1570 839 0
-810 2068 0
601 -804 0
-232 -2395 0
648 -860 0
-1039 1701 0
-2606 -578 0
1014 2481 0
-826 -317 0
894 -46 0
290 635 0
-37 1617 0
-308 -1628 0
2733 -827 0
-2150 2207 0
1491 -2263 0
186 2524 0
2746 -579 0
1184 604 0
779 1031 0
-580 2764 0
-426 -781 0
655 2514 0
1241 2556 0
680 -684 0
-1989 747 0
-2270 2065 0
862 -573 0
-1260 -2174 0
87 2111 0
2751 562 0
2388 691 0
-2139 2662 0
-518 2322 0
-2019 -1849 0
1714 -1594 0
-203 570 0
2259 -1849 0
634 1848 0
-547 1301 0
2101 166 0
1794 -67 0
713 1010 0
-1834 -1061 0
-1688 -260 0
2169 -341 0
-2005 1832 0
2208 1573 0
1848 -2676 0
505 -613 0
-845 1417 0
1316 163 0
710 -1736 0
262 -398 0
-1134 -2789 0
-1425 1509 0
-1407 -453 0
2391 2007 0
1406 -574 0
-1551 -1782 0
1776 -1015 0
981 -685 0
2584 2123 0
-852 -1591 0
1814 72 0
1748 2393 0
2737 -1789 0
1527 -2437 0
2628 1951 0
846 -1414 0
1681 -79 0
1499 -624 0
1391 1221 0
1472 253 0
-1029 -1899 0
-365 -117 0
-1708 1211 0
1653 2687 0
743 1918 0
-281 -1133 0
334 -578 0
1340 260 0
-2691 -2744 0
144 -2126 0
-139 2626 0
1647 -497 0
-2570 -2143 0
428 709 0
345 -2207 0
-583 902 0
-1072 194 0
1267 -67 0
1391 -1294 0
-1438 -1282 0
-667 -1317 0
2609 -340 0
685 -300 0
173 -1558 0
372 1694 0
-2745 160 0
-890 1872 0
135 1533 0
-2086 2 0
-701 620 0
1942 710 0
-1574 568 0
1165 698 0
-99 1549 0
-255 670 0
2558 -539 0
-2219 248 0
-2228 -1694 0
-1470 -439 0
-500 -1039 0
-279 572 0
92 913 0
-406 2040 0
-764 2417 0
859 1424 0
1549 1015 0
-912 -497 0
-1516 -2570 0
1247 -1178 0
-2512 1101 0
167 131 0
1523 -411 0
1174 -108 0
2045 311 0
1537 -199 0
2118 -1673 0
387 -504 0
1557 -254 0
-243 -266 0
222 1226 0
-2173 1652 0
1976 -1400 0
-384 -309 0
-112 1670 0
432 2557 0
-1076 -2707 0
71 -973 0
-2207 -1564 0
1103 -637 0
-1960 -1678 0
1932 -662 0
-73 1303 0
-482 700 0
-467 2719 0
-1375 1110 0
-522 -1451 0
1992 -1559 0
1071 -1837 0
1432 -2770 0
533 385 0
-477 1528 0
-2273 -1524 0
2242 2179 0
1434 2452 0
-2131 1368 0
1244 919 0
1847 2466 0
-2491 1738 0
-2467 -954 0
170 -177 0
-1427 1007 0
2679 429 0
307 2001 0
2195 -2138 0
-1779 705 0
1969 -2224 0
2244 -1149 0
1068 2151 0
824 -2377 0
827 -518 0
957 -1057 0
2000 -1325 0
-962 547 0
-411 1846 0
-334 -473 0
-2669 1478 0
-375 2415 0
1363 -2221 0
-1911 1906 0
-31 -2561 0
-2514 2671 0
2091 1259 0
-96 2632 0
-2715 -1516 0
1538 -1646 0
-1230 2791 0
-823 294 0
2576 -1877 0
-54 -13 0
19 1521 0
-460 2342 0
398 2432 0
-524 -2323 0
-2093 -1225 0
-2348 1714 0
-1858 1251 0
-2188 310 0
512 1896 0
-998 -1720 0
924 1081 0
64 -2731 0
919 2003 0
2169 1768 0
-724 -2699 0
411 457 0
-1652 -1131 0
-664 -2116 0
1037 440 0
-1232 -531 0
-593 -405 0
2639 -1617 0
-53 -1870 0
-1566 753 0
2622 -293 0
404 -599 0
-1380 1051 0
161 -1264 0
124 -1245 0
1162 -1922 0
-748 -1180 0
-544 986 0
-980 -495 0
-1900 2317 0
-476 -373 0
-1963 -2693 0
1102 2554 0
-2655 -1969 0
899 1481 0
-2205 -2674 0
-1864 -1717 0
409 -2590 0
-984 2697 0
2379 230 0
2498 1401 0
388 -1286 0
2032 2396 0
1833 -1256 0
2257 -2447 0
-1228 -972 0
-1703 -1812 0
-364 -1945 0
-1425 -1510 0
1866 2022 0
-2681 1738 0
1594 -1952 0
1492 -1701 0
1191 -2760 0
2163 1898 0
-1834 245 0
1013 -2089 0
656 -1867 0
-1145 1243 0
-2291 -336 0
-814 -1619 0
-766 -1213 0
-261 2083 0
1579 -1806 0
-2012 -1636 0
-430 -714 0
-2495 -1900 0
-136 -550 0
-979 -2463 0
-1884 -819 0
2342 -958 0
-445 1726 0
-1876 2362 0
2056 -2756 0
-2154 -2313 0
-1644 1535 0
-907 2547 0
917 -1291 0
-1490 109 0
1209 -2436 0
954 1486 0
-989 1479 0
-1227 -2256 0
1596 1737 0
1293 1441 0
2580 2164 0
-1641 -1248 0
2212 -1975 0
-1124 -46 0
-696 -991 0
-1273 458 0
2356 -1352 0
2482 -758 0
-629 -2715 0
-284 2308 0
-1927 924 0
-1559 7 0
-935 557 0
318 -2211 0
1768 1201 0
-2693 1122 0
-712 2001 0
-542 35 0
1646 -301 0
2169 -1928 0
1405 -1941 0
2024 -969 0
-874 2062 0
2273 1155 0
46 2126 0
-1434 -115 0
-2732 1718 0
1114 -1689 0
-1824 786 0
1251 -1609 0
-1304 645 0
-2719 -1320 0
-777 949 0
551 992 0
172 -2677 0
-1162 1840 0
-2573 2348 0
-2777 -910 0
2127 -2144 0
2476 -1850 0
-2635 -1935 0
734 2308 0
214 399 0
-1266 986 0
-1029 1499 0
-366 -1466 0
-1435 707 0
2723 2043 0
-912 1280 0
-2556 2388 0
-124 560 0
1067 2080 0
1697 1245 0
39 247 0
863 -196 0
1572 314 0
-1786 -2670 0
-856 1323 0
1130 1808 0
2557 -1980 0
1904 -353 0
-1271 -1502 0
-1833 1866 0
-2355 -874 0
-1585 -1099 0
-999 -17 0
175 -1801 0
1477 1766 0
-427 -2028 0
-1105 -9 0
268 -626 0
2147 1423 0
-2103 -107 0
-1185 748 0
25 753 0
785 -1256 0
-870 -2530 0
-1911 813 0
395 -1999 0
-1854 1047 0
-847 1521 0
-587 272 0
1679 920 0
389 597 0
-2427 -841 0
-2170 -2715 0
-1875 2046 0
-496 -2575 0
1067 -1154 0
2518 -2641 0
1393 455 0
-988 1715 0
2644 -1596 0
-2330 -287 0
2187 2217 0
-2114 -1343 0
-1212 1774 0
1899 1763 0
1296 -1825 0
-828 -401 0
1005 558 0
407 127 0
151 -1970 0
-518 460 0
2792 -1633 0
2219 1085 0
-1356 291 0
-1108 -1394 0
-1647 -287 0
1236 -254 0
491 1499 0
-945 146 0
-416 -1778 0
2067 2629 0
2574 -980 0
-1875 -1892 0
-1451 2043 0
1820 1599 0
-2005 202 0
1714 865 0
929 2339 0
-2294 -319 0
2325 -1760 0
1580 891 0
-523 -739 0
-344 2398 0
-2195 883 0
1798 -2408 0
2628 -2779 0
1087 -5 0
1105 158 0
-1176 188 0
-103 1086 0
-2276 -1877 0
-636 -1580 0
2086 2552 0
-1740 -1948 0
2059 1284 0
2705 1220 0
662 2273 0
-298 1131 0
-969 -1193 0
235 1423 0
-556 2615 0
263 1834 0
-1410 -1540 0
-2379 1249 0
-670 2243 0
1358 -2220 0
2675 -1738 0
-180 109 0
-2034 -1230 0
-1728 -2399 0
1941 -2286 0
2317 894 0
-1307 -1878 0
-2266 -1423 0
2701 -110 0
624 -504 0
-135 -756 0
2461 2392 0
1804 1429 0
1405 -2702 0
1602 -1377 0
-2133 42 0
-1441 176 0
-1854 1069 0
2387 1330 0
1064 -602 0
2435 2489 0
2528 1525 0
-1846 2521 0
-221 -302 0
-2052 2237 0
-2279 1541 0
2788 1132 0
901 -364 0
2723 2440 0
-794 -986 0
2320 -117 0
449 -1018 0
449 -2172 0
1859 1726 0
368 -2035 0
-2060 -993 0
-1859 1062 0
-2333 207 0
-1891 -2360 0
-2699 -240 0
-1837 -1587 0
2261 2416 0
-1966 1113 0
-1098 -1502 0
1492 -1927 0
-1158 2556 0
-952 -1238 0
455 -1816 0
2089 -1078 0
1628 -982 0
-711 -981 0
-1821 395 0
-1125 1200 0
1478 913 0
-853 2242 0
-2783 413 0
-1683 -766 0
2665 -34 0
2260 2618 0
-2066 -1266 0
-2464 669 0
-2758 -1744 0
161 -1753 0
1684 2559 0
-2429 64 0
176 365 0
-114 -15 0
-1387 1456 0
-2426 -1829 0
-2038 1803 0
-2795 1370 0
-251 2211 0
2385 -1500 0
-1355 -847 0
1844 1603 0
-2427 -1071 0
1545 -464 0
-2527 -1586 0
-1324 1070 0
-2186 2058 0
-1044 -1227 0
1585 -9 0
-980 1013 0
-418 -721 0
1004 236 0
1738 -1568 0
1764 -208 0
1179 2422 0
1996 -1741 0
266 -1 0
2722 905 0
-1662 -956 0
2700 1038 0
2206 -726 0
137 160 0
435 191 0
-2467 1122 0
1909 1615 0
1740 454 0
-959 1102 0
-366 1946 0
1653 510 0
-1111 -545 0
1661 -252 0
661 -1030 0
2501 2095 0
-2057 -1717 0
1805 423 0
2018 1404 0
250 2464 0
1999 2674 0
1228 -428 0
734 -117 0
-2009 2408 0
-178 875 0
-1916 -941 0
2409 2219 0
-2444 -1664 0
2165 1330 0
1086 179 0
-1093 -207 0
946 31 0
2438 2582 0
-2623 -229 0
1659 2136 0
-503 -2199 0
985 -2525 0
-2752 -330 0
-972 -1572 0
2432 -583 0
-2463 -206 0
-2181 -1635 0
2007 -2495 0
-2789 -1366 0
-2282 1677 0
188 2620 0
1804 -2468 0
89 234 0
1833 -418 0
1456 -46 0
375 -2355 0
-142 -1807 0
-181 -512 0
-2579 -1669 0
242 -2246 0
2074 -606 0
-1957 -2226 0
-939 -663 0
-2510 2728 0
-2443 -1615 0
-635 2332 0
583 725 0
198 2508 0
-1942 -1329 0
-1655 696 0
-171 1300 0
-1592 -1021 0
-389 -2464 0
2086 -114 0
-2477 -2081 0
811 587 0
-409 1353 0
2629 -2543 0
-2518 -1003 0
-27 1752 0
-881 2071 0
180 2169 0
2152 373 0
-931 -4 0
-123 -1972 0
2256 -835 0
-1434 2297 0
509 -2374 0
1085 -1396 0
651 1009 0
229 273 0
-20 -79 0
-1284 940 0
-545 -1139 0
-1614 -575 0
-2081 976 0
1866 -986 0
-1053 -1312 0
1801 -885 0
627 -2531 0
1686 -314 0
2293 661 0
449 -2768 0
2298 -452 0
503 -1072 0
-1941 1898 0
2563 -332 0
-660 774 0
-2068 2469 0
2018 -1891 0
792 -1354 0
-1072 1976 0
-739 -620 0
854 1541 0
-563 1925 0
272 1004 0
-1717 628 0
2670 1446 0
-754 -2301 0
191 -520 0
-2394 1769 0
1371 2145 0
-2127 -2324 0
2727 245 0
-136 -238 0
-2625 -1619 0
-2128 1060 0
2620 -885 0
-2450 2074 0
-152 -14 0
568 1977 0
76 -1371 0
845 1982 0
-1059 547 0
1112 1981 0
-573 -1690 0
-2620 2762 0
-2103 -226 0
-1428 -1727 0
1841 551 0
-541 468 0
-2674 2559 0
-1809 1049 0
1073 778 0
463 402 0
-1343 -2420 0
565 -187 0
492 2285 0
787 2251 0
-1779 -1155 0
581 768 0
-323 630 0
-2747 -1402 0
2783 118 0
596 -1860 0
-2581 1004 0
-1232 2400 0
1501 448 0
325 750 0
146 1597 0
1943 805 0
1566 807 0
1063 -1247 0
-163 -1318 0
1221 963 0
2088 451 0
304 -2727 0
-1327 -901 0
2122 267 0
2746 1997 0
528 326 0
2795 -906 0
-1768 -2075 0
2381 1948 0
304 -2294 0
-712 2440 0
-1504 1488 0
2657 -1479 0
230 971 0
2188 1260 0
1438 -2446 0
2555 629 0
2276 -1855 0
1312 -644 0
-1376 -1615 0
-2269 1294 0
1756 1763 0
1393 -1819 0
-1805 -1909 0
412 2445 0
2308 2762 0
-1291 1208 0
-1563 1505 0
1994 -362 0
-177 -166 0
1253 2665 0
-521 -2232 0
2430 388 0
853 -207 0
-2329 -1394 0
-875 -2135 0
-482 2025 0
-1029 611 0
1102 2766 0
-226 1134 0
-15 -962 0
2352 -117 0
1563 -1607 0
233 2081 0
288 -2629 0
-1263 -2164 0
-1645 -152 0
-2193 2158 0
915 551 0
-709 -507 0
959 75 0
-2256 -1725 0
2025 339 0
617 -1223 0
520 1136 0
1821 56 0
1383 -1006 0
1517 361 0
-361 1535 0
-255 -177 0
918 -2172 0
-1408 944 0
205 -886 0
-103 -1972 0
272 -1197 0
-2301 -1111 0
2331 -2366 0
866 1310 0
2124 -98 0
-2547 1694 0
-194 348 0
-2411 1988 0
-1346 1866 0
2682 -1005 0
2174 -902 0
2188 -677 0
-1402 211 0
2152 2484 0
1912 2124 0
-2245 -794 0
1066 2187 0
2002 -2094 0
1780 -105 0
2418 -198 0
1289 1427 0
2735 2560 0
2123 -122 0
-171 -2179 0
-122 1316 0
-2080 2137 0
-2210 -2669 0
2282 -2081 0
-2697 1549 0
1547 1839 0
1079 845 0
-1744 -219 0
-2078 2388 0
-467 1040 0
-2773 -1498 0
2636 2072 0
2555 1547 0
-2433 -382 0
1905 -813 0
-1402 -617 0
-1231 1812 0
1950 -758 0
-1932 456 0
-1793 2322 0
-1579 -346 0
986 -1586 0
269 -224 0
1235 1090 0
-883 661 0
-2573 722 0
267 -198 0
2272 202 0
-1476 -2003 0
2577 -1669 0
533 -1998 0
-1917 -1682 0
131 1803 0
-1676 620 0
2652 1739 0
-930 1847 0
-687 1330 0
-1688 138 0
-2198 -1957 0
-1810 -1178 0
-1615 -2574 0
-35 -2214 0
1393 -154 0
-710 -2483 0
1654 622 0
-1772 1735 0
-1535 -2552 0
-330 1611 0
-1468 2597 0
-1727 1422 0
-1408 2550 0
1928 -2466 0
-2266 329 0
-1630 631 0
-2686 -1416 0
-766 -1334 0
-2054 1339 0
-443 -467 0
2402 2434 0
-2708 -1653 0
229 -1348 0
-541 1883 0
224 1302 0
372 2092 0
2166 2636 0
-2559 1042 0
-2453 -1650 0
2098 -2308 0
-788 1545 0
437 -1430 0
1943 995 0
-2509 2629 0
1185 -1 0
-2162 -2608 0
2705 2533 0
2239 1857 0
926 2376 0
-1959 -226 0
-2245 -2256 0
2763 1565 0
837 -1579 0
-1236 -1400 0
-1131 1562 0
646 1183 0
1982 1577 0
147 1345 0
1737 1139 0
-1009 -2755 0
1000 -2489 0
-623 -1719 0
1249 2108 0
630 2484 0
1581 -557 0
-2629 272 0
-1355 615 0
149 -2571 0
-1683 2273 0
1702 1156 0
-536 -1418 0
1528 -2533 0
2555 1664 0
-1207 -1362 0
-620 -1673 0
-610 -2323 0
-2642 95 0
2239 -641 0
195 1431 0
2264 -1819 0
-35 1626 0
-2468 2618 0
-527 -2344 0
-922 -6 0
-1104 -2168 0
-2562 2725 0
1732 292 0
515 674 0
-152 2043 0
2141 1096 0
191 -1342 0
802 1677 0
-2334 -1901 0
1868 -136 0
470 1405 0
2048 1655 0
-953 -798 0
2696 2720 0
-826 2311 0
4 -2341 0
2495 1705 0
-647 -268 0
2521 -413 0
1630 -702 0
413 2610 0
1388 -1445 0
708 1849 0
705 -690 0
-1916 -484 0
2044 -2025 0
-1947 767 0
1976 1093 0
909 -2336 0
-1875 -1411 0
2763 -963 0
1541 -2560 0
1712 613 0
2080 -2393 0
596 859 0
397 -1472 0
-5 -1439 0
-1198 -344 0
-2493 1553 0
669 955 0
-731 -2656 0
-2334 376 0
-580 -288 0
-2351 806 0
-722 1071 0
-1789 1489 0
1594 -2767 0
2209 2013 0
1371 229 0
924 895 0
-998 2000 0
-1049 -1166 0
2795 2218 0
-2012 -306 0
-1180 -1682 0
2688 -57 0
2200 542 0
-2642 2294 0
1905 2357 0
-2734 2735 0
-2235 1345 0
2239 1723 0
155 -2055 0
663 -2609 0
-1482 -2573 0
109 552 0
-2113 -383 0
2531 -1028 0
-2600 -1634 0
1244 -878 0
-1140 -1379 0
1434 432 0
603 665 0
2044 -1129 0
206 -898 0
-770 -13 0
1007 -2082 0
-1269 -1688 0
2048 -913 0
732 -814 0
1587 2581 0
-2756 -674 0
1796 783 0
-574 2605 0
-2355 -169 0
118 1562 0
-1302 959 0
1501 1735 0
282 2506 0
686 -1143 0
915 2556 0
711 -574 0
-159 732 0
-989 -466 0
582 1156 0
-1805 -2772 0
466 1581 0
-1378 1710 0
1709 1879 0
923 1808 0
1149 124 0
-2333 2367 0
1369 405 0
-1299 2052 0
-1653 2072 0
2030 -2052 0
-2304 2711 0
459 -453 0
-2286 -2587 0
363 -37 0
985 -626 0
2520 -903 0
935 -1595 0
2156 -2355 0
1380 -1408 0
1013 -2623 0
-1132 638 0
-435 532 0
730 -1379 0
-2513 -1736 0
-386 380 0
-775 -1315 0
-757 666 0
1822 -1018 0
2022 -2549 0
2259 979 0
1496 -1959 0
2540 1370 0
223 1200 0
-1031 481 0
-38 2752 0
862 -2794 0
1712 -319 0
2286 849 0
-1302 433 0
1390 1554 0
-1416 651 0
1831 2021 0
-1349 -327 0
719 1197 0
-740 1885 0
2275 2532 0
2069 -2180 0
-1113 -546 0
417 2605 0
868 1277 0
1256 41 0
-2251 -428 0
1574 1496 0
1819 381 0
-2657 597 0
908 -1400 0
513 2391 0
285 2111 0
1310 -934 0
2364 -728 0
-1209 -1948 0
644 1233 0
1731 -58 0
-2627 -1064 0
1955 2065 0
-441 1772 0
-2517 2511 0
-1437 442 0
-1827 -1411 0
987 -1129 0
1136 -1167 0
-566 -2779 0
1973 -2776 0
1703 -2631 0
764 430 0
491 1299 0
2795 2243 0
867 2425 0
2149 552 0
-667 114 0
-598 -2473 0
-1913 2565 0
90 522 0
341 919 0
-555 -1609 0
521 -1392 0
211 1853 0
653 -2657 0
-2443 102 0
-2049 -972 0
-1749 -1348 0
2713 -973 0
-1791 -2545 0
-749 2352 0
-598 -2429 0
408 2607 0
-1894 2629 0
1177 2425 0
-319 -124 0
-2411 899 0
1941 -13 0
-1234 -1789 0
-888 126 0
-1382 2388 0
-874 1885 0
2045 -2602 0
855 671 0
-1816 1638 0
-173 294 0
556 2058 0
-620 -2081 0
-1344 437 0
267 -457 0
1702 187 0
451 1021 0
-2120 -1250 0
-1035 -1023 0
1846 -575 0
-2134 1808 0
2219 -2279 0
1522 -1867 0
2521 2718 0
1325 528 0
2638 -298 0
-2138 -1347 0
-1850 1496 0
2287 -2417 0
2248 -1567 0
1015 -2547 0
1780 -366 0
2331 208 0
-1432 -1969 0
1529 -558 0
1962 267 0
2058 -2070 0
887 -220 0
-578 2670 0
569 -1096 0
2331 2773 0
541 1364 0
1187 46 0
-716 -745 0
2277 -232 0
477 -531 0
-2746 921 0
-1605 -296 0
2445 -1938 0
-606 1564 0
-1512 1296 0
715 -826 0
-1607 454 0
-2747 437 0
-2591 1126 0
582 -2492 0
-1396 -1202 0
-482 332 0
1768 -1057 0
42 237 0
745 173 0
587 -525 0
2127 1889 0
-219 -1452 0
-1104 -2392 0
-1991 729 0
-2319 2655 0
1390 -503 0
-1275 1950 0
2138 1340 0
-1511 -545 0
-2296 542 0
-1514 236 0
2093 2173 0
-217 -421 0
-198 -2444 0
320 -250 0
-807 -476 0
1755 1333 0
-1242 -2467 0
2523 88 0
841 1503 0
368 -1831 0
-1904 778 0
-1025 -2186 0
-1284 929 0
-246 -2202 0
-544 -2356 0
-735 755 0
-1395 -2502 0
1223 -478 0
754 -531 0
-2091 -705 0
45 -705 0
1208 2627 0
134 2201 0
1295 -2045 0
526 -218 0
1695 -1532 0
-1001 -921 0
-2473 -1410 0
2297 1283 0
748 2486 0
1432 821 0
-555 -1835 0
-2590 -1300 0
-283 -2682 0
489 -627 0
747 1639 0
-336 -847 0
-1532 -941 0
-2153 -299 0
355 -202 0
176 -1301 0
-933 2112 0
289 -2624 0
2017 2043 0
1670 -2784 0
-821 -2777 0
-200 2114 0
562 2078 0
-796 -2010 0
2482 350 0
-2653 -120 0
-2089 -1083 0
270 275 0
131 2367 0
1744 1674 0
-2692 -2228 0
-37 -1566 0
-1966 -2420 0
-1993 -2565 0
1082 -10 0
272 -2075 0
-626 -774 0
713 -1066 0
-1643 -2764 0
-383 -1972 0
-1195 -2503 0
-2623 -2260 0
423 457 0
1904 2266 0
-2194 1842 0
199 -2640 0
-392 -1075 0
-588 -961 0
1779 -648 0
1905 555 0
1284 93 0
-1336 591 0
2646 -2408 0
300 -447 0
30 -948 0
-359 -518 0
-2181 -111 0
-1425 -904 0
1345 2086 0
847 1895 0
2611 1636 0
170 1897 0
-591 -330 0
1603 1215 0
1006 -1705 0
-1322 1930 0
-1660 -1595 0
772 1686 0
-2239 2325 0
1148 -1070 0
2173 2447 0
2121 -2725 0
2341 -1439 0
989 -2489 0
-2350 1230 0
1798 -1264 0
-1041 -2690 0
-2479 40 0
-20 -909 0
1055 -2629 0
-1251 818 0
1606 -675 0
-1465 -1426 0
-805 1913 0
-817 -1856 0
-2739 -1751 0
-547 1825 0
-1612 1665 0
-411 2297 0
2341 173 0
2521 2420 0
-762 187 0
881 -2459 0
2215 2358 0
-840 -1264 0
1778 -2386 0
-2440 -1493 0
-1411 -2027 0
-332 743 0
1163 1762 0
-1760 1556 0
1838 -1180 0
-1524 808 0
2509 -1169 0
1891 -1139 0
2206 28 0
213 218 0
-467 306 0
666 1621 0
-601 850 0
-308 2523 0
-1104 2156 0
-23 -451 0
-1817 -609 0
-218 -904 0
-2061 1616 0
2325 -698 0
-2182 -1996 0
-1432 -812 0
-2114 -1057 0
2449 -1447 0
768 2596 0
-1060 -177 0
2114 -101 0
-1654 -2269 0
2553 -610 0
2555 -735 0
-910 675 0
-1022 223 0
-2182 2387 0
2757 477 0
-1800 525 0
-681 -2498 0
-132 1464 0
2383 -2173 0
-1299 645 0
90 -295 0
-228 2070 0
-981 1083 0
2433 -1641 0
-2595 -418 0
-331 1285 0
2115 460 0
-771 2288 0
-189 272 0
291 22 0
-1012 -1062 0
202 481 0
1645 436 0
-1074 1051 0
589 1064 0
-506 821 0
2739 -96 0
-975 1270 0
-2022 -1026 0
-435 874 0
-1364 2197 0
2601 1309 0
1438 2448 0
1839 -1058 0
1257 1547 0
1494 2464 0
1848 2683 0
2546 -1947 0
-903 881 0
1741 603 0
557 2342 0
1173 -1273 0
2342 1861 0
-2411 386 0
1773 -189 0
-1820 779 0
-2308 1245 0
382 -2493 0
2437 -1699 0
-419 -2287 0
1585 2434 0
2660 2086 0
1197 2325 0
2185 1872 0
1577 -874 0
148 -734 0
-1655 -361 0
338 -111 0
2438 -1036 0
-943 935 0
813 -1558 0
1840 -737 0
233 -1980 0
-1225 2123 0
386 -1324 0
1290 1839 0
1018 2717 0
-1683 -620 0
2125 1160 0
-522 -1354 0
734 -1839 0
-2235 -2417 0
1028 -752 0
1907 1653 0
1455 -1724 0
668 -2710 0
495 2752 0
-2772 -464 0
138 263 0
537 128 0
-732 -33 0
2357 -1836 0
-1185 -2310 0
-1205 -2395 0
5 -2093 0
1501 -2381 0
468 -1525 0
1743 2031 0
-2367 839 0
-924 2095 0
-2227 2704 0
695 780 0
-267 -970 0
69 -2497 0
-284 -664 0
-1449 1035 0
1831 -2224 0
-2158 1603 0
-1503 2013 0
263 2163 0
-2078 2402 0
1719 1063 0
1965 -1695 0
-1203 -1873 0
63 1734 0
2258 -991 0
-1477 -1669 0
628 -1546 0
-1775 2275 0
-726 -1050 0
645 -1984 0
-526 2172 0
1353 -1823 0
2121 397 0
310 -1066 0
-1262 2673 0
16 1417 0
-2426 911 0
-1029 -728 0
-1619 -1823 0
-467 -1586 0
1474 2514 0
-884 -488 0
2201 -1132 0
-1247 39 0
2105 132 0
-1433 529 0
-1780 320 0
1315 1709 0
-2194 302 0
1138 -2435 0
1088 598 0
-238 1431 0
-117 569 0
747 -1204 0
692 -370 0
1033 1274 0
1711 821 0
1077 1750 0
-831 -2768 0
-149 -2067 0
-1245 -2360 0
-1837 1317 0
-1041 2496 0
-2458 2030 0
-1385 935 0
-1404 -2737 0
-2404 2316 0
1103 -29 0
-793 -1 0
2652 -341 0
236 -1484 0
1909 -912 0
-486 -117 0
2470 -2204 0
-1047 -405 0
-2038 -943 0
1380 1999 0
555 -472 0
-797 -1591 0
-1147 -1907 0
818 1624 0
157 2000 0
1525 1380 0
940 159 0
2068 -2704 0
1401 -2324 0
-84 2784 0
1983 1427 0
2117 917 0
2416 1505 0
-460 27 0
-1735 -2765 0
-31 979 0
-737 -1820 0
17 131 0
-931 335 0
-1689 -2650 0
2703 -23 0
-1346 2488 0
614 1525 0
1055 -2387 0
1735 119 0
328 -1004 0
-983 244 0
2562 -986 0
2236 2071 0
-1462 1770 0
121 624 0
960 548 0
-2408 2571 0
1094 -547 0
1946 2002 0
1449 -1507 0
-1705 -570 0
697 1465 0
-2201 -2284 0
-703 -442 0
425 2641 0
-2331 -814 0
2074 1577 0
616 -1650 0
1976 2784 0
1051 347 0
613 1048 0
2515 -387 0
-1586 -815 0
-521 -527 0
-1439 -25 0
-2128 2418 0
1296 -2677 0
2556 733 0
-1145 142 0
88 -1471 0
-636 -595 0
1577 -1892 0
-1802 2410 0
-336 -1253 0
-1879 2455 0
978 -2220 0
-2480 -1538 0
2221 776 0
399 638 0
2339 -1953 0
-2475 2031 0
2608 -1782 0
1993 821 0
387 -1526 0
-893 -1355 0
-1550 209 0
871 -1826 0
2088 1341 0
-84 -668 0
-643 1401 0
-1970 -2410 0
963 -1586 0
1206 416 0
-166 -261 0
-2454 -1563 0
2066 -1519 0
-1754 2563 0
-2289 -1015 0
-817 1318 0
-2676 995 0
-545 1499 0
-762 -871 0
915 1260 0
-1706 -822 0
-1577 131 0
2652 1732 0
-1018 -2549 0
1093 -1551 0
-1007 753 0
560 -611 0
-2342 -2699 0
-1372 229 0
1150 2613 0
1475 -1726 0
-2755 -627 0
-390 2007 0
597 -1910 0
-528 -275 0
968 -1468 0
-1789 1098 0
-2087 347 0
1862 -1673 0
2210 -769 0
755 -1994 0
-2494 -1163 0
1587 566 0
-2392 898 0
-2548 -2558 0
-858 877 0
2654 1539 0
1998 -468 0
-1059 2142 0
-331 -894 0
1982 -1010 0
2640 1986 0
-1579 141 0
1290 741 0
2581 -2330 0
-878 -1568 0
1370 264 0
-2653 97 0
-1110 499 0
-1199 -1131 0
2504 -1974 0
-46 1305 0
-1260 783 0
-228 1240 0
1016 -2773 0
2316 -1815 0
-2049 759 0
1101 247 0
-573 -2742 0
-998 -1468 0
1182 -754 0
-1433 -1411 0
-1811 2301 0
1860 -1196 0
2599 -1144 0
-943 924 0
-2793 1000 0
1784 -1179 0
-237 -2203 0
-273 -1546 0
2148 2527 0
1309 -699 0
459 -923 0
154 2033 0
1208 1127 0
2474 -2170 0
2511 -1286 0
-428 -751 0
-1490 -2010 0
-2072 312 0
2586 680 0
-1092 -1230 0
-33 -1454 0
2298 -1645 0
164 1952 0
-2474 1015 0
1238 -2377 0
245 -434 0
1918 -319 0
89 2618 0
629 -2508 0
-1886 -2052 0
-2391 328 0
542 -570 0
-1886 2003 0
-794 -653 0
-2061 -2204 0
241 -579 0
-2275 255 0
436 644 0
-1261 734 0
2241 1384 0
-1291 -589 0
748 -32 0
-1180 1849 0
-2214 -965 0
1750 -1890 0
-1317 1935 0
-1252 -2421 0
2330 1779 0
1675 1836 0
-1031 -58 0
-2005 291 0
-845 1807 0
-94 2781 0
-1924 -2683 0
-1008 376 0
1707 -635 0
1500 -1025 0
-1390 399 0
-1836 -763 0
-1083 -1108 0
725 -508 0
1918 -2404 0
-948 443 0
-2076 -2223 0
-1139 -2261 0
1611 1995 0
-2621 1547 0
-482 509 0
327 -2576 0
-2012 -1487 0
-2067 -169 0
1675 -1833 0
-418 -939 0
332 -2413 0
-1897 -1691 0
-891 1892 0
2331 726 0
1078 -1304 0
-1735 2726 0
2659 -2670 0
1798 269 0
-996 1707 0
60 1045 0
-2683 -1671 0
2242 -232 0
-1059 167 0
-527 206 0
146 -1506 0
-1467 1137 0
29 -515 0
-87 -1469 0
-2582 1476 0
2400 351 0
1005 -482 0
179 -2766 0
-2204 587 0
-1024 -1760 0
519 -466 0
-96 -1854 0
463 353 0
827 1134 0
-1056 -2725 0
209 1033 0
-749 -2279 0
-1530 1701 0
616 -1297 0
-495 -58 0
312 645 0
-448 2663 0
395 1082 0
2446 2679 0
-2397 723 0
-931 486 0
-1418 -1758 0
607 -159 0
1955 2127 0
-335 -1425 0
-2088 1141 0
-1171 2042 0
-2354 -728 0
2520 -1247 0
1046 616 0
2610 -1990 0
1968 629 0
-2535 -1994 0
587 1426 0
-1758 -2247 0
-739 -1311 0
2174 -926 0
1074 2690 0
-2128 2521 0
-530 -523 0
1557 814 0
56 -1009 0
-1376 -1508 0
-2410 1541 0
1 746 0
-878 2514 0
-172 -249 0
1561 -362 0
1632 -2457 0
-1413 -2545 0
-1349 -226 0
-1230 -220 0
-2719 -521 0
364 -1213 0
-2730 226 0
2190 -1948 0
611 1621 0
-1347 839 0
-1761 1017 0
-1795 2330 0
1962 -1931 0
-1911 817 0
1713 391 0
-1960 1480 0
-1460 474 0
2005 -1204 0
539 1812 0
2146 2455 0
-1884 59 0
738 -1332 0
-1896 -1171 0
840 -2161 0
-53 2763 0
-1027 -1551 0
-1848 -2486 0
1679 -342 0
-391 -2373 0
-1754 510 0
-2009 1442 0
-1158 1305 0
-1778 1867 0
2075 696 0
1685 -2462 0
-1147 1908 0
-72 2001 0
1915 2031 0
959 2096 0
476 1721 0
2009 594 0
2047 -1548 0
-945 -756 0
-608 -9 0
-39 2465 0
-2386 -1183 0
56 -844 0
-674 453 0
-1109 2326 0
-2308 1374 0
1301 -2606 0
712 2328 0
140 -727 0
-321 1033 0
-544 -1439 0
265 630 0
1475 536 0
-673 -1297 0
1461 1050 0
-2647 1125 0
-406 -2513 0
-1169 457 0
-1915 -2724 0
-219 1673 0
2227 919 0
2550 -1775 0
-2064 -1386 0
-969 230 0
-1984 1244 0
2285 -2113 0
2500 -579 0
1786 2369 0
-626 719 0
1256 2123 0
-1118 -576 0
1841 983 0
1180 1651 0
-920 1730 0
-933 -1007 0
-289 -1144 0
-360 338 0
-1269 2241 0
314 -1630 0
-36 477 0
1309 2520 0
-169 -785 0
275 2130 0
167 -1873 0
310 769 0
1721 -1821 0
1153 2637 0
2264 -1344 0
2347 -217 0
14 795 0
881 370 0
2300 -2217 0
-1099 -993 0
-605 -1799 0
2055 2727 0
1607 -152 0
-2145 403 0
-382 -119 0
2696 -1699 0
410 -2486 0
1591 269 0
1512 2587 0
-1465 -153 0
1920 -1300 0
2074 288 0
-942 1890 0
2349 -155 0
-484 -1945 0
920 -293 0
-676 1621 0
-917 -2642 0
2074 2705 0
514 1007 0
-2766 -1666 0
-2061 1316 0
1106 2726 0
2221 -513 0
-876 -1391 0
1492 -543 0
959 -1369 0
947 958 0
68 843 0
-789 2279 0
236 -919 0
2187 -1078 0
1500 2324 0
-2094 2222 0
-963 1410 0
1652 -1452 0
-669 -2413 0
1148 -859 0
-2436 1297 0
-2444 1005 0
2617 -702 0
-636 -2421 0
2499 461 0
-1884 -2775 0
1735 -2542 0
156 -23 0
-1087 231 0
-718 -122 0
-1497 -1727 0
1163 -1628 0
-375 1340 0
-1649 313 0
-2500 1810 0
-302 1158 0
2566 1046 0
2032 -907 0
1407 -1631 0
251 2724 0
-1154 1131 0
-2199 2136 0
2563 1760 0
-696 -2542 0
-1327 1707 0
-750 2623 0
80 -447 0
610 1417 0
106 1639 0
994 -120 0
645 -1693 0
1183 -1216 0
-1451 -1699 0
2017 1563 0
986 -1620 0
-2301 1819 0
-1977 1725 0
1055 -800 0
-2308 565 0
-1907 1828 0
-2337 1932 0
-1836 2101 0
676 1734 0
-528 95 0
-219 -1526 0
-735 1150 0
-2160 2416 0
1814 -2458 0
2476 460 0
-249 1135 0
-1268 -2305 0
-593 -1083 0
420 996 0
2508 1569 0
-2512 -2368 0
-1758 1779 0
-1585 -445 0
-1072 2379 0
-1083 1199 0
-172 1250 0
-2456 2718 0
-895 -547 0
-2199 -624 0
1335 2441 0
2173 -2020 0
74 399 0
-507 1838 0
-2399 272 0
870 -1806 0
-6 2644 0
366 -2255 0
-593 1692 0
472 2112 0
279 -289 0
2104 1799 0
227 2622 0
-2193 2723 0
411 -169 0
-2630 -1719 0
-441 673 0
-2767 2621 0
368 -309 0
-1800 2272 0
1293 1330 0
1277 -303 0
1761 -2571 0
2709 -626 0
2298 1921 0
1610 1852 0
2704 -363 0
-2061 -1493 0
-1919 787 0
638 -2783 0
502 976 0
1936 -117 0
1545 387 0
-249 900 0
1363 -2393 0
589 1390 0
-491 2544 0
1329 -85 0
2709 611 0
-177 2331 0
-2367 -1054 0
-1089 2556 0
2455 539 0
2437 1693 0
-2456 2064 0
2618 712 0
-1212 -2398 0
2740 -2071 0
-459 -1355 0
1174 -504 0
-1358 -517 0
-660 -2683 0
1721 -788 0
-2339 -2536 0
-1486 2539 0
1323 2525 0
2505 -1184 0
-2488 1363 0
-447 -553 0
-2300 -2501 0
-1347 1217 0
1130 -2201 0
492 -962 0
550 666 0
804 646 0
380 1759 0
2579 -701 0
-98 1503 0
1508 -2609 0
1084 2447 0
-2414 -745 0
-2777 -246 0
-943 2170 0
-1703 214 0
-1601 2493 0
1457 -859 0
431 1480 0
924 -452 0
248 2128 0
214 -2175 0
1549 -1530 0
-2299 2608 0
-2094 -1851 0
-1868 -2685 0
168 856 0
1595 -30 0
-2401 1400 0
367 2395 0
-1419 2183 0
1732 -1736 0
1103 844 0
-441 100 0
-2289 -2414 0
1893 1198 0
639 803 0
-1524 926 0
431 701 0
1156 -1370 0
868 -640 0
863 -1754 0
-2625 2037 0
2623 1340 0
-1125 -1057 0
1848 -2226 0
2011 2624 0
-1372 -1129 0
-10 -676 0
400 -103 0
-1269 919 0
1325 -1822 0
2288 -951 0
-106 -1284 0
-2377 816 0
-465 -1315 0
2544 1735 0
1082 -2692 0
1943 -702 0
-130 -749 0
244 -2177 0
-2051 2263 0
-538 224 0
2572 -521 0
-2503 1247 0
669 1063 0
2313 -1408 0
-2480 778 0
1496 2100 0
816 1147 0
224 129 0
-1793 -614 0
481 -862 0
-811 1580 0
-319 1184 0
-2436 -1801 0
1479 -580 0
1307 1727 0
2604 -478 0
-1619 -737 0
2428 1991 0
157 429 0
1455 2139 0
-1030 -751 0
-1315 -2498 0
-669 -359 0
-2645 -1385 0
-1841 610 0
1881 413 0
806 1711 0
961 843 0
-415 -1724 0
2362 1177 0
-270 -65 0
-1195 -1665 0
2051 1856 0
1560 1256 0
1368 -794 0
1477 -1792 0
864 1707 0
-864 -2130 0
-2553 -2054 0
-1185 -1145 0
-637 -1680 0
1797 -2503 0
-2375 -1877 0
1227 -962 0
-1846 2263 0
1300 -2067 0
1278 -1188 0
-38 2425 0
-2238 130 0
-920 277 0
2273 -1294 0
583 -1977 0
-518 1969 0
-606 1290 0
-1171 -12 0
1895 -95 0
-1435 -2578 0
-1719 2278 0
-1196 1512 0
2532 1015 0
1105 652 0
1410 -408 0
-2103 2126 0
-492 -833 0
704 456 0
-822 365 0
2783 -2417 0
2208 916 0
-2766 2630 0
-822 -2241 0
-1630 -44 0
-55 -1993 0
-756 -777 0
-2366 2078 0
783 633 0
2052 -1801 0
1070 741 0
-22 -1323 0
-2742 -2089 0
2079 -707 0
-1702 -1079 0
-2554 -2530 0
245 679 0
1812 2434 0
1376 326 0
2147 -891 0
277 -377 0
-526 2032 0
-785 105 0
-1497 877 0
-466 2001 0
156 -1664 0
1454 565 0
1946 -1057 0
-111 2022 0
236 327 0
-989 2244 0
1007 880 0
1610 2678 0
-1499 1221 0
-2606 1357 0
200 -1519 0
-723 -2222 0
-2326 2692 0
-1297 824 0
1202 -737 0
2170 -1873 0
-2778 2483 0
611 -1347 0
1443 2086 0
274 280 0
-2549 2125 0
-37 -1197 0
-235 -1612 0
976 -1720 0
897 -1926 0
1157 -782 0
-2629 -2585 0
1844 1296 0
430 -2266 0
-1655 2006 0
-2209 -914 0
925 1103 0
1236 -1665 0
-2064 1360 0
38 1320 0
2111 -1213 0
-116 -2789 0
-952 784 0
2334 -701 0
-1656 -404 0
-749 -2643 0
2266 694 0
778 -540 0
-2109 -254 0
1982 -242 0
-2551 -810 0
2472 -2755 0
2645 2385 0
-744 642 0
2714 -1990 0
-1007 1692 0
2142 919 0
-2177 -742 0
-1767 -1629 0
-1784 -416 0
-1977 941 0
-1648 -2161 0
-2161 1946 0
2343 2265 0
2722 -2077 0
-1921 -2075 0
-2759 -2520 0
-189 1444 0
-1042 881 0
-2449 -2375 0
1299 -1473 0
-2208 250 0
-1807 779 0
-1344 698 0
2014 1763 0
1537 -2329 0
675 2767 0
-1909 2352 0
2515 1443 0
105 1963 0
-553 2597 0
2511 -31 0
-2453 2172 0
1896 566 0
1734 -1197 0
715 2625 0
541 -769 0
1794 -480 0
1599 -186 0
16 246 0
-586 -1032 0
455 1979 0
2704 77 0
-2260 2680 0
2641 1360 0
-1440 -1989 0
241 -1522 0
613 2237 0
1071 -2037 0
183 -2274 0
46 2083 0
2165 -1835 0
1404 -2109 0
586 1378 0
1593 1904 0
-1111 1744 0
-1870 1356 0
1934 2763 0
-856 1401 0
738 1067 0
-2385 -1619 0
1132 -558 0
1459 1855 0
1706 -1535 0
-476 -1878 0
2002 -773 0
1697 -33 0
1755 -2140 0
-558 1398 0
229 768 0
-2089 -835 0
-2216 2788 0
2790 -2518 0
2400 805 0
1934 -1571 0
2756 -1775 0
838 1904 0
-1591 -621 0
-994 -1517 0
-2737 1583 0
2474 -2134 0
-1162 -132 0
-1189 -254 0
-857 2288 0
-1334 -538 0
694 -2034 0
2044 -841 0
367 -1937 0
-1385 -740 0
2361 -2543 0
-1538 -908 0
1123 1678 0
-755 -947 0
-1551 -1948 0
1409 -943 0
-45 1535 0
-202 883 0
2433 1040 0
282 1700 0
2492 -1210 0
-1382 -1876 0
2701 -119 0
2275 -969 0
-1814 -2617 0
-1070 -1783 0
-363 -2654 0
233 2672 0
-2287 -416 0
1541 1761 0
1227 -1908 0
1749 -2357 0
581 -1538 0
650 -2489 0
137 2431 0
1094 -1151 0
-815 2464 0
1574 918 0
-2602 -2335 0
2528 185 0
-2441 -1358 0
528 72 0
1315 -2279 0
-2114 37 0
1433 1054 0
-2076 2562 0
-2638 -93 0
1982 1751 0
-2404 1705 0
-2217 -2673 0
555 1373 0
-980 -2777 0
2209 -13 0
1362 -1933 0
-2713 -396 0
2032 -2581 0
-989 -2460 0
2490 247 0
1505 -2695 0
-816 -1041 0
941 -1771 0
1236 1529 0
1052 -1432 0
-1588 2146 0
-1369 -2301 0
-769 -2078 0
-2459 2336 0
-1529 -1763 0
535 -1512 0
-2579 -2603 0
-2289 240 0
-1558 789 0
-797 1351 0
2792 2400 0
825 2444 0
-959 432 0
1848 -2420 0
-2344 802 0
2349 -376 0
-899 -1853 0
2624 -1488 0
-2204 -2313 0
-1 -1619 0
54 1142 0
2171 -1878 0
2659 -557 0
500 648 0
-950 2226 0
1486 2165 0
-1182 -2776 0
-2497 -469 0
93 898 0
-763 -1702 0
-2186 735 0
2033 138 0
-1698 2280 0
2712 908 0
-2706 2522 0
-261 -1275 0
-55 -576 0
-544 -138 0
896 373 0
2205 93 0
-1221 1991 0
-831 -723 0
1100 -1100 0
-2578 -573 0
2592 -1829 0
912 -925 0
1598 -2311 0
-81 -2538 0
560 -1531 0
1902 -1778 0
-322 1243 0
603 -1277 0
-2379 325 0
-2055 -1348 0
1353 -947 0
-1432 -1395 0
224 2425 0
2135 1575 0
-1011 2164 0
-109 1350 0
-1103 1097 0
2348 2562 0
-1832 -2344 0
-1997 -2404 0
368 381 0
-797 -1224 0
1368 1840 0
1671 2058 0
-167 176 0
1863 -1719 0
2540 -727 0
2352 62 0
1711 2534 0
-198 1095 0
-418 561 0
1752 -999 0
812 -723 0
-94 659 0
1276 -1711 0
-1605 987 0
529 1362 0
2081 2788 0
56 -2278 0
-2729 2712 0
-1639 947 0
2793 1101 0
-2248 2111 0
2556 273 0
2390 941 0
812 -1227 0
-95 -256 0
1701 918 0
2759 436 0
-2789 2197 0
-1809 1775 0
-853 -1452 0
425 -1414 0
1370 -597 0
1999 418 0
-2572 180 0
1417 1259 0
991 -34 0
-1207 2394 0
-538 -2314 0
105 -1413 0
590 2177 0
-1069 -61 0
-2590 -1096 0
-1382 -2376 0
986 -2210 0
666 690 0
1606 2032 0
-2184 1517 0
-1021 -2092 0
-707 64 0
2141 1117 0
-2708 -461 0
-1699 2652 0
2383 891 0
-2063 1018 0
137 -207 0
1479 -1886 0
1099 -494 0
-2421 -439 0
2307 -1877 0
42 118 0
-583 -1422 0
54 -1150 0
-621 1330 0
-1995 -2224 0
-681 -2480 0
-551 -352 0
1224 -227 0
1201 2728 0
639 2142 0
-2366 -2087 0
1896 -2563 0
1681 2741 0
1596 -1589 0
1618 2741 0
1327 2584 0
-2348 -1867 0
1273 -1414 0
-479 206 0
-901 -98 0
34 27 0
1990 108 0
-2756 -470 0
2151 2033 0
-2659 -1448 0
2509 1939 0
-1241 2527 0
1521 -1881 0
-26 1909 0
-1664 45 0
1804 -2186 0
456 202 0
-2730 -1978 0
-1682 1300 0
-906 2396 0
2383 -1415 0
-1977 1929 0
2090 -1688 0
2187 -61 0
1678 589 0
-44 -2543 0
-239 13 0
-2340 572 0
2697 118 0
-2226 -1169 0
-2497 -2120 0
1517 1549 0
909 -1365 0
-1862 -1146 0
-2514 461 0
-1769 1890 0
-1971 753 0
-305 1577 0
493 1141 0
2626 2636 0
1075 385 0
2792 -125 0
-735 2070 0
1054 1748 0
2060 -1441 0
-2603 -1254 0
2339 -683 0
569 1377 0
-2226 382 0
349 -2185 0
821 -2722 0
2371 -1688 0
-948 -114 0
-1753 466 0
1042 -2385 0
1177 383 0
65 -1793 0
1156 2167 0
1100 1448 0
1336 -1673 0
1910 -9 0
-1313 2310 0
-518 -1200 0
-1068 1589 0
564 -1125 0
-23 2263 0
-55 1510 0
-2494 -2403 0
2032 -458 0
-1614 2211 0
-429 1857 0
289 1183 0
733 -945 0
1505 550 0
1579 2177 0
-2636 180 0
-814 78 0
1766 741 0
-1266 341 0
1657 797 0
1923 -106 0
857 -891 0
-1720 -1240 0
-1862 -1087 0
-1443 1746 0
2053 -2493 0
179 1624 0
2310 -2009 0
-412 2216 0
-1913 2498 0
2204 -2602 0
-2416 -1510 0
840 1049 0
-484 1097 0
-1054 -1655 0
-2342 2154 0
163 432 0
-1970 2340 0
1316 -2525 0
-912 1364 0
-1753 2117 0
128 -432 0
-2778 67 0
-2405 -1925 0
1759 -159 0
-2775 -1025 0
-1415 1082 0
-328 -2282 0
1928 -2679 0
-630 2568 0
-343 -2770 0
-2176 1852 0
-720 2074 0
654 -1573 0
-297 490 0
352 1819 0
839 -72 0
2439 -1952 0
712 -1473 0
1718 2 0
-875 533 0
2106 -2530 0
-2365 663 0
-102 -2033 0
146 -576 0
1173 464 0
385 2325 0
1565 1605 0
-2238 76 0
-215 185 0
390 -33 0
1240 2128 0
-2587 786 0
-884 -1277 0
-1517 -1585 0
-2265 -1852 0
-655 -1630 0
-2344 -632 0
2125 -2553 0
1562 2156 0
-2419 213 0
1883 1459 0
-1873 -237 0
2593 -682 0
1590 -738 0
712 1354 0
-1010 2400 0
-2134 2435 0
-1282 -2570 0
-728 2066 0
-1145 -1741 0
-270 -2234 0
158 1152 0
-2114 -1005 0
-81 -870 0
-200 -836 0
-1901 2278 0
-2606 2541 0
-1776 -1288 0
-362 -584 0
-2103 2148 0
-735 1183 0
-7 -2510 0
2479 2297 0
-1629 1843 0
-2369 -735 0
415 1960 0
723 -749 0
600 30 0
9 88 0
978 -1287 0
-2519 2763 0
-551 1606 0
1301 161 0
-874 1961 0
568 -243 0
-1107 -1811 0
971 490 0
1660 2525 0
-2670 1240 0
-1335 461 0
307 -2274 0
2469 -2417 0
1954 -683 0
-1628 645 0
-1295 -1323 0
1611 1428 0
-742 526 0
-1831 -7 0
-1115 -2506 0
1776 1374 0
-728 -1127 0
-1518 -557 0
-178 -2134 0
-1973 -2767 0
-1615 -1113 0
2212 246 0
-1147 1578 0
-1137 -2778 0
890 209 0
-1778 -1248 0
1501 1508 0
-983 399 0
-366 -2184 0
-2294 771 0
739 1937 0
-123 -405 0
883 2659 0
-2026 -1650 0
-1716 2147 0
-1613 -1248 0
-106 1040 0
-177 -967 0
787 2159 0
-2083 1902 0
-1634 372 0
-728 556 0
1620 1806 0
-2562 775 0
-2523 1372 0
-680 128 0
-846 -930 0
1067 2605 0
-1435 179 0
1787 2525 0
296 2596 0
694 -330 0
2559 -1078 0
-739 1997 0
-2205 -729 0
727 -1514 0
1902 603 0
-1411 -295 0
-1978 -723 0
700 -2056 0
1082 406 0
-35 -2666 0
498 1412 0
1986 117 0
347 2592 0
-685 -1161 0
-1695 1994 0
-879 -1314 0
-2481 1976 0
-1381 489 0
1307 129 0
1470 -287 0
-1261 245 0
-1664 -2209 0
1481 2270 0
2135 -972 0
634 -2546 0
2125 1345 0
2246 -2087 0
2511 2102 0
-1423 -472 0
1774 -2494 0
386 2028 0
2710 2704 0
2675 -2424 0
2515 2430 0
2090 627 0
-1461 -723 0
-1135 -2034 0
1740 2595 0
-2082 2015 0
1013 -2059 0
2308 2689 0
-1151 -75 0
2317 1232 0
-1682 -1660 0
1845 1228 0
1671 -2573 0
-1124 -1356 0
1985 -1810 0
2359 1631 0
2039 1041 0
-2094 -1184 0
530 1050 0
-2780 1830 0
-2254 663 0
2753 253 0
-1389 1276 0
813 -1004 0
2079 -1402 0
1328 1611 0
-1210 905 0
-331 -1304 0
2749 -1941 0
931 -416 0
777 -402 0
511 -19 0
-1765 -2337 0
233 -1310 0
1258 460 0
1796 -2114 0
-1631 -2264 0
1469 2276 0
1506 449 0
-656 1998 0
-81 781 0
-330 519 0
458 477 0
2639 -1801 0
-2530 -139 0
-2076 2279 0
-735 63 0
-660 2683 0
-496 -2284 0
-1437 1606 0
1224 1891 0
-1127 -1273 0
-1849 311 0
-2082 -2184 0
1619 -2547 0
-1255 -2707 0
311 -1310 0
-1893 -701 0
-1514 -2075 0
513 196 0
-300 882 0
1642 1052 0
-559 784 0
1843 -770 0
-933 436 0
622 1072 0
-356 2728 0
83 1319 0
2316 2563 0
-2043 -2427 0
156 -2086 0
1596 -1885 0
-846 -2392 0
-1271 2330 0
2296 -879 0
-2201 -1697 0
-1324 886 0
-427 1166 0
1728 1177 0
-1739 -914 0
2315 -950 0
557 108 0
1143 1593 0
1473 1781 0
-2576 2398 0
2031 1298 0
731 -1973 0
2342 878 0
-2123 -1798 0
-1694 2320 0
-2688 -5 0
-110 2308 0
-2009 567 0
1183 -2036 0
-1585 1838 0
-1427 -1489 0
-1203 -1039 0
1433 1099 0
524 -1319 0
1938 854 0
1678 -2074 0
-1919 -635 0
1304 -1586 0
670 2117 0
1722 2531 0
-717 1370 0
653 2017 0
-1166 -362 0
-1078 -951 0
-2057 -1242 0
-819 -1965 0
378 1373 0
283 863 0
-516 -594 0
-240 -2590 0
-1398 2752 0
2385 -2371 0
2198 409 0
2628 2333 0
-81 1792 0
-1028 -1476 0
-625 -1346 0
145 1020 0
1285 1725 0
-2126 -475 0
1722 746 0
2707 1014 0
-1979 -1835 0
920 1438 0
2002 1007 0
2306 519 0
698 1461 0
-2271 959 0
2638 1993 0
2685 -2410 0
998 1499 0
-398 1684 0
2521 1121 0
-1736 671 0
438 446 0
2520 532 0
-1551 2372 0
1075 1547 0
-1724 2173 0
-2134 2222 0
741 -2156 0
-2241 1894 0
2614 1891 0
1336 1273 0
2775 -610 0
2069 1000 0
1776 -2245 0
32 1692 0
-40 -1589 0
1435 -439 0
-287 1769 0
-2034 -1208 0
-510 1527 0
1793 1361 0
-1182 869 0
-265 2168 0
176 -717 0
2400 938 0
-2094 2133 0
-1329 2306 0
1576 630 0
-871 -782 0
-141 -2152 0
818 -2254 0
2786 -2019 0
-1233 -1809 0
-126 -2047 0
-1487 -2421 0
-2060 2740 0
-103 2044 0
641 -810 0
-2617 1063 0
2171 -2650 0
-558 -461 0
691 -613 0
-2190 -1582 0
-1759 -2299 0
-2002 2611 0
-1685 -1720 0
304 -772 0
2537 -1326 0
1336 1577 0
-1591 1173 0
-924 944 0
-94 2793 0
-1554 1924 0
-1206 -2514 0
-2719 -1374 0
1049 1573 0
1676 -103 0
90 -2594 0
388 201 0
-2063 1091 0
-2767 2592 0
1987 -141 0
-772 -1894 0
-2217 -2256 0
-603 2188 0
2472 1464 0
-2738 -2040 0
926 -249 0
-29 642 0
168 2421 0
-88 2528 0
-1701 -2313 0
2563 1735 0
2247 -1916 0
-2491 -1381 0
1785 -1925 0
2212 816 0
2106 -1114 0
1734 2293 0
1857 1923 0
-2475 2480 0
-877 -1956 0
79 -2191 0
-836 1299 0
1687 596 0
-1516 -2064 0
581 294 0
1906 2645 0
-1736 2694 0
1597 -264 0
-1833 1772 0
-1803 1103 0
-785 -1039 0
-2651 1020 0
-974 -111 0
1157 966 0
-2260 1206 0
-84 183 0
-1357 -2747 0
-1572 1333 0
-1362 14 0
-2739 -2619 0
-58 1649 0
-526 1384 0
-1550 -414 0
-969 -1454 0
1540 -1963 0
1509 -1956 0
-2501 176 0
-158 1625 0
-2269 1962 0
409 2555 0
-937 -1744 0
2412 780 0
10 1298 0
961 2145 0
-2780 2685 0
-2214 606 0
1286 2046 0
1485 -668 0
-1196 1832 0
-613 -961 0
-1209 2258 0
2268 -1729 0
1354 201 0
-1751 1626 0
1168 170 0
2444 -844 0
-701 -1899 0
-1295 -506 0
2677 -1490 0
-1528 -1534 0
2373 -1778 0
-970 787 0
-2452 -1530 0
415 -2417 0
235 1662 0
-2195 -2334 0
1512 -1292 0
-2179 560 0
-1407 -1728 0
2417 -286 0
1208 -1562 0
310 -52 0
-1654 -1299 0
-178 760 0
866 2763 0
-1204 2717 0
148 1931 0
1907 1976 0
-146 -2304 0
1409 -2683 0
2680 -1359 0
590 2579 0
2653 -928 0
1607 1388 0
1074 -1001 0
786 830 0
1084 -2769 0
-63 -1172 0
682 1865 0
234 1602 0
1339 -1066 0
1230 -1382 0
2691 -266 0
-2180 131 0
564 275 0
459 -475 0
118 1211 0
-500 2713 0
-681 1631 0
-2543 -400 0
-1098 -1152 0
-55 1695 0
-1423 2116 0
2622 214 0
-1365 273 0
-76 2750 0
-227 102 0
-2170 897 0
-1398 421 0
1433 1061 0
-2188 -2530 0
-1277 -925 0
2444 -1899 0
-6 -1751 0
992 338 0
-926 -1281 0
-2329 -2675 0
-723 -874 0
2260 698 0
1044 1914 0
-2250 2153 0
2539 951 0
-95 1249 0
-1133 105 0
-1593 1234 0
-2371 -2261 0
-221 -1500 0
-319 -2096 0
2757 -314 0
-2360 1682 0
970 -730 0
807 1483 0
2693 -2585 0
1668 2435 0
-638 -1788 0
2353 -1462 0
-2249 -2299 0
-2466 -2093 0
-1137 105 0
2726 2050 0
700 -2677 0
-606 53 0
-142 -1077 0
456 764 0
783 656 0
-2365 729 0
1705 1047 0
36 2343 0
-2295 1891 0
983 -1633 0
937 1289 0
-1783 -1929 0
2285 1570 0
265 -2735 0
195 -1533 0
-1069 -449 0
-1243 2277 0
-1188 -2610 0
311 -1612 0
400 339 0
942 -1581 0
1882 1737 0
-1092 -2111 0
-2128 -789 0
773 -243 0
167 -1131 0
2425 -1376 0
1090 1779 0
-2258 -950 0
1767 20 0
-2194 2644 0
-1672 -739 0
391 1423 0
-1790 -2103 0
980 -2676 0
2383 -489 0
-2456 -303 0
470 45 0
-306 509 0
2376 -2772 0
1575 281 0
867 437 0
-2768 2721 0
-2318 1685 0
1843 -2715 0
-735 2406 0
-1608 1265 0
-1194 -1884 0
-1662 548 0
-912 137 0
1749 -1181 0
-2294 -175 0
2245 -1144 0
-2138 -237 0
-2466 897 0
1145 -1664 0
1808 993 0
-2020 2266 0
-2595 430 0
2301 -1751 0
477 -1858 0
-418 591 0
1823 1620 0
-1544 1951 0
2721 113 0
1137 -841 0
-583 1371 0
-1701 1975 0
1930 -633 0
192 -2056 0
-2467 1675 0
2221 2010 0
2108 -1203 0
-2373 2132 0
-410 1104 0
-996 2148 0
-2364 -2103 0
-2716 2061 0
-1317 -1999 0
-2630 2567 0
218 1354 0
-598 -2210 0
-482 -2599 0
1670 -1949 0
428 -1369 0
97 -342 0
-1442 90 0
1358 -1870 0
-827 -1983 0
1003 -1751 0
739 -516 0
-1022 -885 0
1804 -611 0
231 -549 0
1094 -1176 0
-578 787 0
-2650 -2355 0
2135 1991 0
-1151 2258 0
168 -1097 0
863 1106 0
641 -852 0
-1973 2263 0
2296 854 0
1988 916 0
17 1903 0
187 675 0
1240 2236 0
-1929 -1914 0
2391 -270 0
1060 2064 0
-859 -736 0
1607 347 0
-1273 566 0
969 59 0
19 148 0
2541 -976 0
2758 2129 0
242 -2150 0
-2063 896 0
1703 -1399 0
495 -1743 0
-2658 799 0
-765 -258 0
817 -2686 0
-2681 892 0
2444 2523 0
-99 2412 0
-1139 2410 0
-737 -577 0
-2602 -739 0
1294 -1894 0
1309 1347 0
-228 551 0
275 598 0
-2694 1344 0
-889 1227 0
-706 1953 0
2605 -1915 0
-221 485 0
205 213 0
-2078 -15 0
1054 -2371 0
1222 1798 0
263 -1498 0
-506 -1692 0
-2020 -1288 0
-421 -1667 0
1653 944 0
-1858 -857 0
-579 877 0
2050 -1747 0
-2155 1207 0
2156 -115 0
-1431 -2080 0
-2 -1318 0
2639 2225 0
1086 -1386 0
-177 -1450 0
-1915 -287 0
-2108 2288 0
-2408 -998 0
419 -2419 0
-168 137 0
-360 -1186 0
338 -47 0
-357 -1478 0
-1391 1560 0
1085 -1470 0
2299 2787 0
1879 -2324 0
-936 1728 0
1892 265 0
-1723 2124 0
-1060 -508 0
1976 554 0
-504 -2706 0
-297 639 0
-1110 2024 0
-1926 -271 0
1522 1033 0
424 96 0
-1371 -1118 0
2331 2725 0
-1627 1636 0
-1654 -1602 0
61 -1507 0
-889 -1282 0
534 -781 0
2461 2459 0
-1875 -2066 0
1226 -2103 0
-875 -960 0
263 -699 0
-1601 1079 0
-999 -593 0
1457 1114 0
-1162 1705 0
596 -1039 0
1544 -1989 0
1152 -961 0
-952 -500 0
1740 -502 0
-1278 -472 0
-658 -1806 0
-2075 1924 0
2745 -1852 0
1044 2402 0
-1146 -139 0
1610 2252 0
-1884 -2451 0
-1874 1760 0
-1908 -762 0
-1436 2011 0
-2063 -2317 0
1597 -750 0
-2342 2680 0
-1665 -2071 0
2608 -2016 0
1477 95 0
1035 -1205 0
2618 -2294 0
-1956 -2473 0
-1115 2667 0
-1858 747 0
2528 -2635 0
-2173 821 0
2449 -2138 0
-2134 -1251 0
-2287 413 0
-2068 2469 0
-1949 1408 0
-1667 -516 0
-2719 -808 0
-1888 -1277 0
-1370 -2698 0
907 -1271 0
-1964 -429 0
2331 1325 0
2175 -2233 0
776 1878 0
-1115 -1741 0
1890 -2452 0
-2545 -1333 0
-1227 2539 0
-2027 -626 0
-2647 543 0
1541 1744 0
-1319 1436 0
62 -111 0
407 -1232 0
-1202 1806 0
-1327 2618 0
2263 -547 0
-1896 -856 0
597 836 0
-2096 -152 0
840 -968 0
677 663 0
-2504 1511 0
2666 -2279 0
-381 -2012 0
1844 -1989 0
-2619 2173 0
-1551 836 0
-48 -943 0
589 240 0
773 297 0
225 -1996 0
-2503 750 0
1103 315 0
2639 -1558 0
1165 338 0
-1012 2683 0
-1210 -2103 0
273 -2163 0
160 -831 0
1422 2089 0
-1858 -259 0
-122 -1589 0
-435 470 0
-2777 -1220 0
2682 -624 0
276 -1323 0
2717 991 0
2068 2598 0
767 -1028 0
-1323 -1382 0
-1155 -1701 0
-390 747 0
-521 -830 0
1748 -2122 0
-650 -274 0
1405 -2332 0
-2024 -350 0
118 2678 0
1221 -2251 0
-989 1117 0
118 388 0
1061 -252 0
205 -1698 0
1594 2732 0
1197 1563 0
318 2430 0
-1473 -21 0
1747 1906 0
-579 -1496 0
705 -857 0
40 -1875 0
-714 1722 0
983 -2673 0
-1620 432 0
581 -1319 0
1341 240 0
2639 -1968 0
1197 -76 0
-1153 2431 0
-2341 -1143 0
2518 -1479 0
-2119 82 0
-2405 1374 0
-2581 -1056 0
1895 1693 0
-693 -1879 0
-1784 -443 0
-2093 -317 0
127 -159 0
2714 1388 0
-350 664 0
-1612 -1863 0
1404 2160 0
-2368 2530 0
1515 -2789 0
483 2511 0
205 -73 0
-117 -1109 0
2593 1272 0
2386 -2673 0
2150 1657 0
-1519 385 0
2156 -1461 0
1642 2279 0
-454 -2647 0
-1260 -881 0
-1876 1234 0
-369 -2076 0
-840 2784 0
-102 -1253 0
233 2411 0
1722 2390 0
-416 2307 0
-439 -2350 0
123 2018 0
-1861 2727 0
2237 -1890 0
-1754 -648 0
-1882 680 0
157 2053 0
2108 1818 0
-1323 -390 0
-31 1674 0
633 -199 0
1518 -1733 0
1779 667 0
-2228 -735 0
-1248 1034 0
459 1156 0
412 600 0
-859 -1629 0
-1412 131 0
-1928 2211 0
1960 813 0
-419 1383 0
1200 1126 0
2219 -1507 0
654 -672 0
306 386 0
1027 -598 0
-2500 1226 0
1779 -120 0
-2339 -683 0
-2510 227 0
1661 -2399 0
-2353 130 0
-1131 -408 0
-2450 157 0
1549 -2108 0
868 -1691 0
-53 -258 0
-916 -1783 0
-2344 1731 0
-2442 94 0
-2324 -151 0
534 1261 0
2003 -1895 0
2243 1159 0
2132 1594 0
-870 -2378 0
-1379 1521 0
639 2166 0
1713 2674 0
-2412 -911 0
-1265 -1435 0
-239 -385 0
-2683 649 0
2387 1200 0
-1865 231 0
-1562 1297 0
-819 -2558 0
-120 2328 0
993 -1023 0
1965 -286 0
-79 -1439 0
-213 -809 0
-2386 2728 0
-1860 -1641 0
2521 -210 0
-638 611 0
2073 -2698 0
2449 2538 0
2028 -1782 0
-2731 -726 0
-2632 -1007 0
1208 -2210 0
-1530 439 0
540 -2190 0
2106 790 0
213 2701 0
-1415 2772 0
-574 -2605 0
-2346 202 0
1541 1581 0
2463 -1662 0
2411 2392 0
-423 2637 0
2532 -447 0
-1251 -20 0
-2770 36 0
1961 2060 0
518 2022 0
1715 2346 0
715 2783 0
986 -1747 0
1054 -1431 0
-2099 -1648 0
-2745 -1987 0
1436 -652 0
1405 -1699 0
-2579 1724 0
-1730 2587 0
-94 -59 0
-2405 -454 0
1930 808 0
-2773 33 0
1114 -1116 0
-1517 466 0
451 239 0
1600 2788 0
1594 2430 0
-937 1096 0
-1024 -1232 0
-1830 -198 0
-1236 -1593 0
2460 1059 0
-2324 -1929 0
2300 -23 0
1934 -215 0
-335 -237 0
-2227 697 0
1403 2411 0
-992 -2419 0
-2324 -1024 0
-1806 161 0
516 -1078 0
-781 -891 0
-815 -364 0
-1582 -895 0
1150 -1854 0
2402 1635 0
818 176 0
2188 -173 0
2115 1192 0
-2517 353 0
-1279 543 0
1967 2050 0
-1981 2783 0
1989 -1520 0
1213 -2441 0
2637 1373 0
-123 1481 0
368 1659 0
556 661 0
1284 1553 0
-383 -1446 0
2362 -1275 0
82 1898 0
1836 -154 0
1765 -1412 0
-1225 584 0
1014 -2654 0
818 1326 0
-999 2663 0
425 -366 0
-217 788 0
-2655 1208 0
1898 679 0
386 2122 0
2565 -2427 0
1359 -1671 0
-2252 -2106 0
-1537 489 0
-232 813 0
555 -1604 0
1459 -1729 0
-416 -2029 0
1388 -561 0
2556 -1960 0
-1655 1420 0
-1392 -1025 0
2636 1561 0
-574 900 0
958 1503 0
-2265 1787 0
1295 -2701 0
657 -2164 0
-2227 -772 0
2086 -2151 0
-1107 -1616 0
-1684 -1881 0
-2698 1400 0
1660 1835 0
-801 -1313 0
2644 563 0
-1444 1896 0
-1065 -887 0
-2712 -496 0
1625 -2358 0
2457 -1858 0
272 634 0
-2764 868 0
-2055 2734 0
-1071 2156 0
854 -935 0
900 -1164 0
2325 -2458 0
-2375 -2309 0
2688 2481 0
2476 -164 0
-483 920 0
-1522 -644 0
1559 -1772 0
-1824 -391 0
1728 -621 0
-404 67 0
1431 1101 0
-2458 1602 0
499 -1264 0
1099 -1989 0
2174 1170 0
-1409 -476 0
-811 -579 0
163 812 0
1345 1432 0
68 -593 0
-2323 2633 0
-1023 -618 0
1720 -1616 0
-1586 -638 0
1038 -2744 0
-814 -1509 0
-1870 2307 0
-445 2163 0
481 -410 0
-2479 622 0
-194 -663 0
-662 2108 0
-1778 2633 0
2136 140 0
-614 814 0
586 2151 0
1653 251 0
-1394 1676 0
-1683 -778 0
-1589 684 0
2134 356 0
1943 1698 0
1249 549 0
-610 -2000 0
1456 -2446 0
-796 -1383 0
2442 1901 0
-7 -579 0
724 75 0
1430 -1476 0
504 -2056 0
946 -836 0
1901 -1562 0
-2269 -954 0
2177 -1957 0
916 -699 0
-168 -331 0
-121 1452 0
2598 2659 0
-1947 -2416 0
1892 -2785 0
-559 1609 0
1779 -597 0
1067 2642 0
-521 -697 0
-1501 -382 0
-508 2358 0
-2067 1356 0
757 1350 0
-100 674 0
246 -845 0
1857 -730 0
1298 1495 0
2662 1887 0
-2751 654 0
-1774 -1294 0
557 2440 0
-717 -56 0
485 2723 0
-1032 -2260 0
-402 820 0
-2085 -724 0
1520 -2412 0
2467 2072 0
-1917 834 0
1219 -2309 0
-2223 1094 0
-313 768 0
-1029 1509 0
-1904 2762 0
-2482 1822 0
-1396 -1783 0
-86 275 0
-2022 378 0
2325 -2268 0
-224 -1435 0
-2040 427 0
-1514 -1093 0
-1269 -1368 0
2617 890 0
611 1260 0
-1967 -1957 0
1460 2156 0
-1133 1306 0
-125 665 0
-810 341 0
2108 214 0
-1945 -171 0
-13 1695 0
-2034 943 0
1582 -1559 0
1393 -2076 0
2447 -91 0
-1588 2710 0
1265 2571 0
1789 1560 0
-139 1398 0
-2282 -1894 0
1981 2096 0
677 214 0
1047 555 0
-1906 2027 0
2674 1718 0
2649 705 0
-203 490 0
2760 2285 0
1993 1459 0
195 -2397 0
1312 -1984 0
1254 560 0
-2261 135 0
2222 -380 0
-970 1471 0
1235 -976 0
577 1542 0
-354 -2390 0
756 -585 0
-1277 -1004 0
-1176 -1176 0
-320 492 0
-1172 1867 0
-2710 1325 0
743 2522 0
-2324 1133 0
671 2064 0
-212 -2431 0
2554 -2128 0
848 1780 0
698 307 0
-1332 898 0
1432 -2457 0
1006 1073 0
-770 2089 0
-571 1844 0
436 2130 0
984 2740 0
2505 1790 0
1821 -1205 0
2264 -1682 0
-1206 -1887 0
-1858 -463 0
138 740 0
2267 149 0
2356 1375 0
1105 -405 0
-444 2646 0
-2287 10 0
1141 -438 0
2258 -354 0
-614 1670 0
147 -707 0
1983 1562 0
2101 2475 0
-230 1941 0
-392 554 0
2035 1413 0
2777 2609 0
-1013 -1656 0
1306 1143 0
1187 1716 0
-1696 928 0
1055 -982 0
-2779 2578 0
733 -282 0
-1298 -453 0
-2649 1867 0
-316 2168 0
2697 570 0
2015 1093 0
205 1057 0
-2054 -292 0
2158 947 0
-1434 -1280 0
-1358 1410 0
-5 2386 0
2483 -1026 0
540 347 0
39 -965 0
911 2506 0
-642 -867 0
455 1510 0
551 -34 0
-577 -358 0
-622 -1966 0
2023 -726 0
-402 -1701 0
-1116 -1041 0
-1436 984 0
2348 1906 0
-937 -701 0
-1437 1701 0
1289 -1161 0
528 -1480 0
-1223 -1323 0
2592 270 0
1487 1231 0
-184 -2731 0
-1198 2749 0
2166 1865 0
-1276 816 0
-46 1046 0
96 -1689 0
709 2496 0
-520 625 0
-1725 145 0
2059 778 0
-2144 2735 0
7 2661 0
-2186 2212 0
-314 -1909 0
-2533 345 0
1371 1212 0
-2118 89 0
-2045 878 0
1596 2672 0
1639 1716 0
-2356 1174 0
-2336 2435 0
-2038 -1279 0
-2718 -841 0
1900 -2213 0
-2274 1681 0
-1852 2297 0
455 -423 0
-1230 -151 0
1519 -2351 0
2216 401 0
2325 1219 0
-2178 909 0
2615 -1025 0
1732 -1267 0
686 2699 0
-1105 235 0
2321 -1317 0
421 428 0
2537 -125 0
-1678 -856 0
-2472 -2281 0
1264 2507 0
1933 -1245 0
2509 -1326 0
-371 -918 0
-684 -969 0
806 -271 0
-2146 455 0
2660 2370 0
1739 2071 0
655 1690 0
-1283 -37 0
480 2260 0
1757 12 0
-1916 2047 0
-1861 -2733 0
-66 2409 0
-1434 180 0
1642 -2587 0
137 416 0
2263 1482 0
-1552 -2524 0
-1423 -10 0
639 267 0
-950 90 0
-1616 1954 0
-2681 2035 0
-1448 1080 0
1530 -728 0
2125 1568 0
1516 -2272 0
-2118 -513 0
1812 -1303 0
550 2018 0
2192 200 0
2626 -244 0
1006 1258 0
-1212 2048 0
906 2653 0
1802 -2778 0
2524 -1720 0
-1632 164 0
-392 -2446 0
-2085 -956 0
1981 2499 0
276 1066 0
-29 -487 0
-749 -2705 0
-1282 361 0
-3 2465 0
-1314 -116 0
-1418 901 0
-879 1883 0
-113 -1303 0
2099 -2020 0
-2107 -1548 0
86 -207 0
-2679 -483 0
697 898 0
2608 -2118 0
-385 355 0
-1366 1301 0
1163 -2241 0
2553 1531 0
-2420 1866 0
2455 961 0
-1971 1536 0
1990 1470 0
1142 2541 0
-880 -2573 0
-1352 2323 0
572 497 0
2216 -386 0
-438 -2628 0
778 -734 0
2529 -1927 0
-1036 2770 0
-443 2643 0
-1135 -375 0
373 -908 0
-2353 -2257 0
-1288 -342 0
-833 -2577 0
-604 -583 0
-1865 -1472 0
-1732 2696 0
-862 127 0
1660 262 0
-2349 -2631 0
2307 2137 0
134 672 0
-2159 624 0
1711 -1709 0
673 699 0
-2353 -907 0
-222 -412 0
-2562 1902 0
-2515 320 0
-431 646 0
-2351 2706 0
2590 -2410 0
2669 157 0
-1557 -2698 0
2084 985 0
1135 2720 0
1071 313 0
820 1525 0
1610 -1464 0
652 1909 0
135 -1927 0
1369 -124 0
655 788 0
2028 1334 0
-2523 -1999 0
2359 -2196 0
1738 -501 0
-2204 -1266 0
1470 1354 0
1605 566 0
2211 1074 0
984 1033 0
1489 -731 0
167 -1110 0
-2076 -1190 0
1842 -453 0
2584 -1094 0
-1514 -20 0
-1701 2645 0
2321 73 0
946 2401 0
-1448 1177 0
-1374 -1874 0
-2681 527 0
1356 -2198 0
-20 898 0
-351 -917 0
-2166 1197 0
228 2580 0
417 253 0
-2171 491 0
2332 2568 0
-1861 -872 0
-13 128 0
-2627 -1460 0
-2034 -2755 0
1273 -1887 0
-1702 -500 0
-636 672 0
-2259 2586 0
-103 753 0
-1379 2022 0
1621 2630 0
612 -63 0
-1763 -2034 0
1067 994 0
-1616 -242 0
-342 -1695 0
2572 -859 0
113 1901 0
2672 -1216 0
2254 -2266 0
-1706 1226 0
-2701 454 0
-1180 2572 0
-2637 -2756 0
-2239 -2384 0
-1064 -116 0
-185 -1562 0
442 -1953 0
-1508 -1087 0
-732 1626 0
-1536 -1426 0
214 -2083 0
-1169 -1899 0
1729 -2140 0
2108 -2144 0
-583 914 0
-827 -1800 0
-683 139 0
-1708 -498 0
-279 815 0
-2627 -1965 0
1614 -1420 0
1253 2211 0
-1004 -2488 0
1533 -2492 0
878 -2330 0
2600 2065 0
2453 356 0
1273 1554 0
984 1168 0
406 1099 0
-1568 1462 0
-2411 559 0
1912 948 0
1384 1221 0
-171 1809 0
209 1446 0
1020 -549 0
-2452 1986 0
2189 2749 0
2777 -1430 0
-2428 -2506 0
-1870 -1273 0
2677 156 0
2624 1752 0
-86 -2779 0
1835 1370 0
