c bounds 92 115
p cnf 595 1190
-233 -154 0
506 182 0
-215 -411 0
-479 82 0
-275 -408 0
-434 -147 0
-256 157 0
284 -359 0
111 148 0
205 -200 0
66 -267 0
434 114 0
224 197 0
533 505 0
101 186 0
-314 -461 0
176 -200 0
342 -315 0
100 18 0
393 122 0
484 -299 0
-126 382 0
-269 -368 0
-16 48 0
319 588 0
-230 102 0
-326 462 0
-108 -163 0
-102 -49 0
-179 -509 0
-133 434 0
-85 280 0
553 -78 0
-447 -329 0
-208 -208 0
-60 -471 0
-532 483 0
92 520 0
-293 -142 0
-2 487 0
-1 -173 0
93 -197 0
-81 -83 0
172 103 0
173 -462 0
-274 524 0
570 -327 0
269 100 0
-414 -20 0
551 350 0
258 -458 0
-505 177 0
384 590 0
445 -1 0
-234 -267 0
-61 189 0
-259 -390 0
-59 492 0
-334 278 0
-154 -535 0
594 591 0
-311 138 0
519 120 0
375 -470 0
-208 266 0
103 -141 0
-171 -430 0
-240 392 0
97 -520 0
-475 15 0
35 -228 0
364 68 0
-433 575 0
254 -44 0
348 190 0
161 25 0
547 473 0
-326 483 0
-137 -174 0
-469 502 0
-538 473 0
135 -294 0
498 -529 0
65 468 0
-27 97 0
-498 -141 0
-178 -188 0
483 -252 0
196 473 0
456 122 0
-287 380 0
136 -357 0
199 551 0
588 -446 0
284 346 0
-101 -542 0
152 -54 0
436 478 0
-232 -38 0
557 576 0
160 62 0
-76 557 0
478 92 0
-85 50 0
69 -240 0
416 -264 0
93 64 0
71 -399 0
-579 -79 0
445 -459 0
211 -310 0
82 69 0
-38 544 0
526 227 0
-237 441 0
290 -98 0
544 -237 0
298 491 0
497 -377 0
460 -170 0
-561 78 0
-351 -254 0
-2 -514 0
-57 -531 0
273 -274 0
-255 332 0
-101 387 0
372 300 0
-192 150 0
-569 -58 0
159 393 0
-459 -185 0
468 237 0
-330 145 0
-215 -384 0
-153 429 0
-479 500 0
457 -247 0
-41 565 0
-559 -140 0
551 497 0
-32 -297 0
2 -296 0
66 458 0
205 226 0
-149 530 0
287 -183 0
176 -258 0
440 -138 0
460 425 0
212 -244 0
-71 -514 0
-502 102 0
412 -370 0
525 -549 0
167 -32 0
-384 265 0
536 -109 0
-77 -504 0
102 56 0
301 500 0
53 131 0
540 -14 0
-9 497 0
25 -79 0
12 595 0
-579 299 0
-296 357 0
272 323 0
-365 -26 0
204 57 0
375 -258 0
-274 -592 0
323 518 0
111 488 0
37 -591 0
-95 -44 0
410 180 0
22 -244 0
-197 -115 0
582 61 0
512 -412 0
-196 -134 0
-553 495 0
424 -333 0
548 474 0
-411 -471 0
-411 70 0
-455 362 0
305 -488 0
380 174 0
182 -431 0
-25 136 0
376 -49 0
593 306 0
-575 585 0
575 15 0
-188 -405 0
-493 -163 0
-314 101 0
231 66 0
511 589 0
-543 357 0
89 -526 0
30 -463 0
-153 308 0
-85 22 0
-144 435 0
153 -99 0
-135 270 0
-317 -50 0
-9 299 0
556 332 0
-187 -431 0
528 -205 0
313 -233 0
175 558 0
23 99 0
293 -141 0
-177 386 0
154 29 0
-526 -4 0
-466 518 0
226 543 0
-542 -461 0
142 119 0
-451 402 0
123 244 0
540 -165 0
-553 -332 0
120 -178 0
420 420 0
361 -135 0
64 459 0
-300 79 0
-307 387 0
70 -179 0
-428 177 0
-364 -144 0
-578 316 0
167 -274 0
487 -21 0
-444 -141 0
-244 209 0
399 -382 0
53 -379 0
202 -533 0
456 373 0
383 554 0
-207 569 0
-284 -38 0
-286 -12 0
280 46 0
338 149 0
348 28 0
452 472 0
-272 -163 0
230 -553 0
444 -429 0
-247 -33 0
-286 176 0
-561 -437 0
137 -198 0
-208 -406 0
-554 252 0
167 -97 0
190 188 0
-485 290 0
-356 -264 0
484 -428 0
512 188 0
-532 56 0
-34 -130 0
225 -324 0
-514 381 0
-272 570 0
-369 547 0
-297 -224 0
-236 293 0
-572 172 0
-291 218 0
328 -8 0
66 242 0
465 352 0
191 -143 0
-455 -592 0
-98 517 0
361 -476 0
-276 -150 0
-301 394 0
-383 22 0
-50 -422 0
-112 486 0
100 -400 0
293 -247 0
-145 74 0
437 -193 0
-9 56 0
502 -345 0
-7 -549 0
211 -591 0
-327 -579 0
-304 -508 0
139 -514 0
242 -217 0
-469 261 0
-571 -137 0
-216 31 0
487 -63 0
90 186 0
380 491 0
446 538 0
173 56 0
-387 522 0
118 570 0
234 27 0
249 111 0
-350 523 0
70 241 0
387 -317 0
-337 -464 0
595 528 0
-498 -475 0
-586 -14 0
107 -70 0
-566 -143 0
103 -269 0
210 432 0
-503 29 0
238 -156 0
-564 -443 0
-279 382 0
521 139 0
533 270 0
155 -109 0
151 -532 0
-170 -14 0
226 -383 0
584 -286 0
144 53 0
129 -529 0
313 446 0
30 -434 0
76 -587 0
-168 132 0
-163 -400 0
95 350 0
-35 214 0
-487 -406 0
335 -328 0
295 379 0
33 77 0
576 -109 0
285 -43 0
-577 -312 0
-382 -10 0
-211 547 0
420 483 0
-547 -94 0
34 541 0
-394 368 0
-529 177 0
-432 572 0
-258 103 0
-428 -130 0
-328 169 0
76 557 0
-65 -8 0
572 -566 0
338 -271 0
476 151 0
303 -90 0
-407 491 0
-367 523 0
373 -60 0
-164 284 0
-531 -13 0
-163 -347 0
-108 99 0
480 575 0
582 568 0
-459 290 0
-120 -78 0
-462 412 0
-420 412 0
-257 -467 0
-323 -60 0
338 -77 0
71 -97 0
590 -578 0
398 282 0
-51 -363 0
-196 575 0
-102 -363 0
-141 546 0
91 -224 0
-564 115 0
580 104 0
-343 176 0
-262 -154 0
100 492 0
278 -293 0
355 -342 0
-317 -64 0
239 -345 0
205 -374 0
346 -118 0
-485 541 0
404 254 0
-517 -423 0
40 -499 0
-12 324 0
-233 94 0
-564 -79 0
95 -144 0
578 -59 0
197 487 0
510 139 0
593 233 0
55 393 0
593 68 0
-507 305 0
-94 -435 0
226 -543 0
-136 -63 0
-476 453 0
-385 -212 0
465 -588 0
338 439 0
-190 341 0
-311 336 0
165 -497 0
-163 -567 0
-418 -72 0
-508 159 0
-173 -41 0
195 -76 0
205 530 0
-245 -66 0
139 63 0
-55 214 0
-255 56 0
-321 23 0
554 -437 0
121 323 0
-375 222 0
494 458 0
292 -282 0
-101 -16 0
349 30 0
-369 226 0
-256 -457 0
-48 -330 0
-288 -362 0
522 -473 0
-317 -20 0
569 -295 0
452 -380 0
381 -403 0
-305 50 0
193 -86 0
-49 590 0
-269 122 0
203 123 0
46 -187 0
237 384 0
53 270 0
-438 156 0
568 260 0
299 -24 0
449 -437 0
-244 438 0
-206 529 0
-100 396 0
19 -73 0
26 -501 0
-267 -331 0
-187 -561 0
460 -511 0
60 167 0
-201 -227 0
-104 -457 0
478 -183 0
-344 -317 0
-113 63 0
372 -173 0
-567 502 0
-588 74 0
-305 166 0
117 -24 0
177 -410 0
403 -268 0
295 -237 0
267 7 0
427 -458 0
590 212 0
-190 136 0
-433 -364 0
293 -232 0
-452 234 0
-457 70 0
357 -109 0
56 -589 0
338 83 0
571 400 0
568 303 0
149 -117 0
-150 585 0
-72 352 0
292 148 0
-241 -339 0
382 371 0
-2 427 0
101 -38 0
-83 544 0
-337 -336 0
528 584 0
535 252 0
-23 270 0
403 204 0
429 392 0
392 100 0
-293 -382 0
-72 210 0
-120 323 0
495 -573 0
383 -352 0
290 527 0
-523 -32 0
299 -265 0
-575 167 0
-345 40 0
-364 103 0
89 386 0
449 -542 0
-444 -2 0
32 -291 0
210 -524 0
-1 -458 0
306 -571 0
-252 167 0
-441 -36 0
-83 152 0
48 313 0
-5 -314 0
319 -61 0
-175 -174 0
-169 -466 0
12 -72 0
259 206 0
360 132 0
123 -135 0
230 -257 0
-588 203 0
504 -448 0
-45 -587 0
-469 -65 0
-355 -47 0
489 -474 0
95 175 0
-277 408 0
340 -14 0
-315 -274 0
397 143 0
-145 -147 0
-267 -593 0
-296 -568 0
-309 454 0
397 -248 0
528 262 0
-100 -579 0
-339 -363 0
312 -229 0
-263 -41 0
550 226 0
150 -65 0
398 -112 0
-529 205 0
-351 -179 0
-314 -251 0
398 360 0
125 563 0
-560 -406 0
-250 161 0
14 275 0
-254 326 0
320 196 0
-500 576 0
372 -198 0
-587 13 0
239 453 0
301 -406 0
-264 -367 0
-282 -137 0
-458 -504 0
-401 -533 0
-49 -513 0
-373 547 0
255 -171 0
-236 -122 0
-12 116 0
176 -542 0
-434 347 0
70 304 0
-281 -374 0
397 -519 0
-584 263 0
-87 65 0
-200 216 0
-343 275 0
31 -514 0
321 -264 0
242 245 0
-39 272 0
145 467 0
19 44 0
146 358 0
-384 200 0
-358 -531 0
-495 -529 0
371 594 0
214 -536 0
397 -109 0
-410 149 0
-407 -400 0
-325 -107 0
217 -59 0
111 516 0
-434 396 0
-243 -354 0
534 -37 0
-389 129 0
-241 -432 0
-431 -568 0
-359 521 0
13 18 0
516 306 0
424 -503 0
-4 199 0
124 -175 0
477 359 0
245 397 0
-368 -509 0
-9 268 0
506 -496 0
223 165 0
-411 18 0
111 -143 0
-559 -242 0
528 -37 0
405 -362 0
-276 -266 0
-359 392 0
116 134 0
-143 -159 0
477 -324 0
264 -179 0
57 -10 0
-220 -154 0
562 312 0
425 489 0
550 158 0
46 -409 0
-221 -110 0
-505 351 0
453 -272 0
-18 313 0
570 -482 0
377 -311 0
-268 -50 0
-422 -85 0
-566 -38 0
76 48 0
178 -390 0
-470 394 0
54 -35 0
-282 262 0
399 -482 0
209 -317 0
-287 372 0
361 -84 0
13 242 0
148 329 0
235 -170 0
-216 -447 0
512 293 0
-94 -463 0
89 400 0
-24 -443 0
15 -112 0
483 -328 0
-219 376 0
519 -134 0
454 119 0
67 217 0
1 375 0
-271 262 0
368 -113 0
424 495 0
351 422 0
-279 576 0
407 153 0
-8 238 0
333 85 0
-162 -157 0
-489 -327 0
-361 237 0
-207 -506 0
398 15 0
-198 276 0
379 108 0
429 -268 0
-117 372 0
-264 520 0
-163 193 0
57 -296 0
398 152 0
-317 385 0
-437 -136 0
351 329 0
429 -566 0
124 -324 0
574 -548 0
-518 -251 0
-64 -154 0
227 375 0
557 443 0
-548 218 0
-595 -573 0
-96 421 0
-378 -586 0
-542 -35 0
192 -546 0
319 38 0
-105 15 0
-477 -2 0
347 -225 0
-297 -533 0
156 -324 0
261 140 0
-436 430 0
234 -221 0
-529 -85 0
417 383 0
341 532 0
295 150 0
-516 526 0
-329 569 0
356 -259 0
485 -213 0
305 -457 0
-87 -305 0
280 -268 0
-546 298 0
536 214 0
520 473 0
-249 -80 0
67 234 0
-501 262 0
491 23 0
331 352 0
-375 -400 0
589 465 0
-77 -323 0
395 338 0
-512 405 0
29 114 0
-240 -543 0
-524 -109 0
-256 -406 0
-90 176 0
188 -94 0
225 515 0
525 -265 0
-73 -257 0
151 312 0
-147 384 0
-221 -503 0
571 -138 0
-74 -257 0
100 -132 0
-353 -276 0
466 575 0
292 275 0
-27 -84 0
-131 444 0
352 230 0
500 -432 0
-458 -90 0
454 -22 0
-96 483 0
-261 -24 0
445 -308 0
441 500 0
-94 -94 0
-57 -258 0
-207 460 0
-196 -206 0
504 -121 0
372 -260 0
42 441 0
478 214 0
153 504 0
54 102 0
236 -281 0
417 -219 0
74 233 0
-166 -110 0
-326 569 0
494 -491 0
468 -565 0
214 -400 0
446 250 0
-108 -559 0
-458 412 0
-364 -187 0
338 -136 0
-555 -49 0
-19 -276 0
-290 28 0
472 385 0
-157 341 0
-210 -61 0
-15 -147 0
414 -434 0
347 390 0
366 -296 0
385 333 0
-423 420 0
-526 -95 0
-125 528 0
-138 -99 0
-356 581 0
-256 -76 0
451 -183 0
-284 284 0
-584 -164 0
74 323 0
-240 -259 0
135 273 0
123 -139 0
574 155 0
398 -20 0
379 484 0
-384 -236 0
-348 70 0
-314 58 0
441 18 0
484 528 0
-95 294 0
595 -227 0
-144 469 0
488 309 0
385 67 0
-517 -253 0
-384 233 0
-138 405 0
-220 -244 0
-396 568 0
416 -328 0
225 -271 0
-64 -41 0
-358 -498 0
356 97 0
-17 -57 0
-212 -349 0
-68 -489 0
-520 -217 0
420 -126 0
-283 577 0
-188 40 0
-73 546 0
165 -294 0
-104 524 0
-98 475 0
520 565 0
-436 380 0
-471 122 0
65 68 0
-403 -490 0
-125 -437 0
-510 85 0
199 228 0
-85 70 0
-186 356 0
-49 294 0
77 438 0
-105 454 0
-305 -525 0
307 -154 0
308 -27 0
-62 375 0
-446 347 0
-177 563 0
-319 -294 0
-564 187 0
-333 381 0
-496 205 0
239 337 0
-33 -10 0
-358 -57 0
386 392 0
-119 -462 0
193 167 0
226 310 0
472 -44 0
105 216 0
594 371 0
-28 -173 0
180 439 0
-53 -97 0
108 350 0
-437 89 0
-410 56 0
-342 83 0
526 245 0
502 103 0
-98 178 0
357 -477 0
-202 528 0
-552 -32 0
361 -101 0
107 534 0
40 -11 0
326 540 0
175 -173 0
418 -305 0
-221 238 0
526 -579 0
-392 -50 0
-37 341 0
-481 80 0
353 381 0
227 534 0
156 345 0
-191 -546 0
541 -375 0
381 345 0
-208 -166 0
-247 131 0
-431 -12 0
123 549 0
223 -195 0
-122 -158 0
495 181 0
-265 423 0
-44 -244 0
-291 511 0
378 -39 0
-293 42 0
486 319 0
-108 131 0
455 -492 0
106 -502 0
342 -233 0
169 171 0
-31 169 0
404 -456 0
-532 402 0
-165 -294 0
-248 510 0
-87 -348 0
295 -224 0
319 455 0
-104 -322 0
-405 454 0
-479 -88 0
537 -402 0
-97 -365 0
-558 -413 0
-345 482 0
-166 106 0
349 -196 0
105 -339 0
477 208 0
238 97 0
572 -262 0
523 -331 0
-411 -407 0
-517 -171 0
441 -162 0
552 -549 0
-572 -334 0
-11 23 0
-388 -67 0
465 -564 0
-367 -573 0
539 -224 0
-438 66 0
139 380 0
386 209 0
-462 -208 0
257 227 0
565 449 0
-285 -221 0
131 128 0
-208 -566 0
-298 -359 0
218 -255 0
428 166 0
-512 473 0
138 -35 0
399 589 0
16 -32 0
-343 -358 0
116 -333 0
-8 494 0
288 -249 0
-262 375 0
367 -228 0
372 -250 0
-220 -145 0
152 275 0
368 -536 0
-9 493 0
243 -330 0
368 192 0
-393 535 0
70 -534 0
460 395 0
460 -332 0
-428 284 0
-64 582 0
483 -316 0
584 -364 0
123 -332 0
472 92 0
156 478 0
52 301 0
453 524 0
92 -456 0
574 -583 0
26 262 0
-485 -582 0
338 -545 0
407 526 0
-445 -73 0
4 -76 0
-455 303 0
-305 -463 0
-173 -175 0
-51 304 0
-419 -327 0
-264 -510 0
-493 242 0
-560 -451 0
71 -550 0
-503 381 0
195 -474 0
-377 -482 0
506 -168 0
540 -562 0
141 -458 0
-206 413 0
320 387 0
-514 298 0
508 352 0
-49 -477 0
449 176 0
-411 224 0
-526 -117 0
382 -372 0
389 582 0
-354 -218 0
-119 -249 0
88 435 0
595 -156 0
-282 -462 0
-451 -327 0
375 64 0
-298 -587 0
-579 190 0
260 523 0
-120 -353 0
433 434 0
-18 365 0
520 -171 0
340 18 0
-132 -160 0
-226 195 0
594 15 0
30 519 0
-287 504 0
562 -554 0
416 -420 0
478 575 0
358 -207 0
-312 351 0
-145 111 0
-322 -51 0
-272 155 0
-31 -189 0
240 -208 0
399 -464 0
564 523 0
-286 153 0
263 81 0
273 118 0
102 424 0
207 -348 0
42 -388 0
-160 186 0
-201 142 0
-554 130 0
-559 -268 0
-355 -183 0
-207 94 0
-591 -385 0
-524 -369 0
-379 -108 0
521 -541 0
545 -568 0
90 580 0
-235 436 0
456 110 0
-492 -105 0
-173 82 0
19 288 0
-8 556 0
227 372 0
230 -185 0
-251 -370 0
283 -266 0
470 589 0
-92 275 0
497 495 0
-60 -278 0
46 -96 0
410 52 0
157 182 0
-305 366 0
236 -311 0
158 486 0
457 23 0
-294 371 0
-262 -323 0
-413 207 0
-543 -36 0
-468 -69 0
-289 -456 0
25 572 0
-336 -84 0
152 93 0
-83 345 0
-456 319 0
-529 575 0
-82 40 0
182 -298 0
-410 574 0
297 204 0
544 332 0
-78 -247 0
-75 -72 0
438 262 0
-43 -548 0
-268 292 0
82 413 0
593 310 0
-175 568 0
-382 -187 0
490 -428 0
-565 321 0
-206 -551 0
234 100 0
570 375 0
392 -480 0
-39 529 0
-330 -116 0
-550 -256 0
376 -194 0
-527 -198 0
-130 -88 0
-395 -312 0
523 280 0
351 383 0
7 155 0
48 422 0
24 -432 0
-359 361 0
-274 20 0
167 -183 0
-186 352 0
532 523 0
44 -215 0
-317 206 0
-118 -24 0
23 -214 0
-53 396 0
279 -402 0
359 565 0
