c NF
p cnf 712 2848
-236 571 0
-61 357 0
-674 658 0
-236 432 0
421 543 0
-354 557 0
332 252 0
-33 320 0
-143 -152 0
-510 -340 0
-645 253 0
644 -564 0
630 511 0
-346 546 0
380 -488 0
619 215 0
-126 -471 0
-427 -154 0
548 -499 0
-655 -365 0
618 -386 0
124 264 0
286 -257 0
64 406 0
-503 -602 0
-569 -516 0
-23 -694 0
472 -3 0
165 -70 0
300 -301 0
-540 332 0
264 364 0
316 611 0
502 -121 0
-693 -671 0
-278 -443 0
-70 -77 0
140 668 0
378 -14 0
-556 -566 0
-68 157 0
-372 -24 0
-549 491 0
644 -353 0
-25 238 0
128 -293 0
632 570 0
375 -465 0
-16 -397 0
-599 704 0
547 -251 0
-675 -608 0
305 438 0
292 -187 0
111 -37 0
-687 -242 0
-358 -80 0
179 582 0
26 -547 0
348 -245 0
-357 -464 0
-633 140 0
-227 514 0
-543 9 0
-588 683 0
707 -515 0
278 8 0
-347 -147 0
36 -272 0
139 -706 0
-691 485 0
-55 -603 0
-8 -324 0
-153 -241 0
-468 482 0
-14 274 0
686 -147 0
560 33 0
431 -233 0
621 -586 0
-450 -632 0
-313 -165 0
312 -699 0
-130 291 0
637 625 0
-40 684 0
-349 340 0
394 224 0
497 -145 0
-333 -482 0
-649 -456 0
-208 -43 0
-311 578 0
92 198 0
-565 5 0
61 300 0
-664 -334 0
-505 183 0
-523 -454 0
-568 -17 0
-19 -225 0
78 -60 0
-379 137 0
620 101 0
684 57 0
-510 531 0
-259 228 0
371 662 0
-517 -335 0
426 321 0
240 -347 0
-23 157 0
97 656 0
224 -63 0
-429 -588 0
-503 149 0
177 -454 0
330 -702 0
-248 36 0
-380 -234 0
330 -657 0
394 550 0
-143 431 0
108 171 0
-333 -541 0
-18 184 0
-396 -242 0
598 37 0
-39 -512 0
63 -405 0
41 -373 0
-346 -58 0
5 487 0
139 -285 0
585 615 0
151 13 0
-187 -436 0
-133 225 0
366 674 0
157 -410 0
-96 -238 0
-386 -694 0
-323 -180 0
-58 -45 0
-479 -507 0
388 -147 0
9 -475 0
-675 -225 0
-50 648 0
-44 452 0
-599 654 0
381 493 0
-114 389 0
642 -641 0
-311 83 0
-487 -58 0
450 26 0
-696 -482 0
-116 -382 0
-692 634 0
-275 -349 0
17 547 0
1 -143 0
-364 -110 0
414 40 0
584 80 0
-551 -288 0
442 -556 0
-426 -703 0
-117 328 0
-509 658 0
22 198 0
-573 321 0
-513 682 0
557 -383 0
1 -175 0
151 -622 0
560 -139 0
-664 -350 0
375 665 0
-468 -599 0
-161 -673 0
637 261 0
-75 486 0
579 -41 0
76 528 0
-419 627 0
-265 463 0
-673 324 0
-211 -397 0
-633 90 0
-106 261 0
-312 -603 0
502 -43 0
-359 -481 0
-557 -652 0
217 -43 0
376 542 0
683 -32 0
416 -152 0
-194 -115 0
-53 501 0
-331 65 0
529 -98 0
83 550 0
200 -118 0
-405 -72 0
-18 -306 0
-397 415 0
-205 -562 0
-251 7 0
-330 -523 0
-531 -281 0
304 -255 0
686 -657 0
277 -446 0
107 176 0
256 309 0
-648 -666 0
242 -158 0
-336 -489 0
649 -572 0
82 -695 0
-702 464 0
220 140 0
609 259 0
90 180 0
341 -643 0
-709 697 0
196 644 0
517 540 0
75 220 0
82 -327 0
217 -552 0
-460 275 0
639 317 0
-401 -360 0
539 -202 0
597 682 0
407 -115 0
461 532 0
247 -68 0
-140 227 0
-99 606 0
-117 -357 0
-596 8 0
446 -105 0
-160 -121 0
487 -116 0
-518 -154 0
-244 229 0
-298 307 0
-378 593 0
-398 -105 0
-90 -554 0
403 89 0
-695 518 0
-276 -667 0
-396 -455 0
-683 -599 0
-301 537 0
-515 -141 0
205 -371 0
2 -528 0
603 -92 0
473 -137 0
-248 318 0
-433 -615 0
-218 638 0
-324 -601 0
616 547 0
23 256 0
601 540 0
-284 12 0
-118 -115 0
96 -211 0
-266 548 0
665 -335 0
-707 -649 0
497 -657 0
64 -397 0
-664 366 0
-552 527 0
-305 406 0
123 190 0
171 -239 0
-274 -612 0
-685 166 0
640 -257 0
407 125 0
-326 197 0
205 647 0
-643 6 0
9 -667 0
-3 -672 0
-74 -461 0
356 -439 0
432 384 0
275 -245 0
576 -270 0
-398 497 0
318 -581 0
-291 356 0
644 548 0
-396 103 0
224 -1 0
689 231 0
-484 457 0
505 -78 0
353 -477 0
234 -10 0
-43 -459 0
196 -703 0
416 51 0
-301 371 0
-129 -465 0
-708 -161 0
486 -534 0
356 604 0
-61 -212 0
569 -219 0
-219 65 0
248 -541 0
-412 -194 0
179 -396 0
-309 -287 0
555 690 0
-462 -2 0
-106 -77 0
12 -511 0
115 -479 0
-503 -558 0
518 -107 0
473 100 0
138 -462 0
369 -92 0
-46 632 0
560 350 0
473 100 0
-684 -594 0
-574 -583 0
-218 518 0
417 473 0
-121 524 0
-626 339 0
-345 -699 0
-501 152 0
-484 -575 0
151 303 0
-298 569 0
2 -562 0
309 -468 0
670 653 0
-283 218 0
585 504 0
-576 478 0
387 399 0
709 -211 0
124 -474 0
310 -424 0
246 63 0
-30 358 0
449 -419 0
-338 46 0
-108 315 0
649 -17 0
-389 -261 0
-561 711 0
698 -251 0
-215 -579 0
-465 -435 0
374 416 0
-379 491 0
256 -164 0
120 131 0
-32 -78 0
404 11 0
-626 -702 0
-544 -135 0
-645 629 0
-489 -555 0
557 -170 0
-505 -588 0
-439 549 0
-576 -165 0
414 137 0
158 113 0
-85 117 0
-585 -456 0
272 -98 0
300 388 0
53 87 0
131 710 0
-407 532 0
-122 146 0
-439 -441 0
697 250 0
-460 -684 0
-521 233 0
231 395 0
-657 15 0
531 -628 0
476 -375 0
331 -224 0
-310 577 0
-215 -85 0
392 33 0
-594 423 0
518 -541 0
-56 89 0
124 -60 0
-345 -153 0
-554 -554 0
204 134 0
-582 648 0
327 303 0
-270 566 0
31 -403 0
174 -74 0
712 -34 0
430 -681 0
-419 -55 0
-30 89 0
65 -187 0
-673 470 0
373 -629 0
-51 -471 0
515 455 0
-521 100 0
423 588 0
282 -219 0
173 472 0
-460 -192 0
177 258 0
-133 111 0
239 167 0
-150 -323 0
-103 -161 0
364 303 0
275 344 0
26 -234 0
-87 -62 0
430 -184 0
563 -99 0
315 152 0
-324 -276 0
-565 -92 0
272 119 0
417 -338 0
-694 163 0
-327 98 0
199 -600 0
-143 123 0
343 -450 0
-594 -115 0
392 483 0
-142 82 0
-273 -225 0
-615 75 0
-199 -313 0
-165 474 0
-564 76 0
68 -4 0
391 179 0
-574 -38 0
-56 -52 0
-83 -378 0
-61 241 0
-353 88 0
353 518 0
100 -31 0
-67 683 0
-86 454 0
152 -297 0
-516 358 0
-337 -405 0
277 93 0
-148 82 0
433 357 0
551 -572 0
66 95 0
-649 -402 0
-678 -190 0
617 422 0
-14 39 0
-320 679 0
460 686 0
-25 126 0
524 634 0
-350 -456 0
31 -177 0
-285 -130 0
-151 605 0
455 145 0
265 31 0
-468 673 0
399 256 0
-170 -420 0
522 -191 0
171 -325 0
-405 516 0
-105 22 0
-615 179 0
546 260 0
250 397 0
103 359 0
-524 349 0
539 -18 0
169 280 0
583 134 0
-519 -453 0
501 205 0
-394 519 0
-696 -337 0
65 2 0
-596 668 0
-434 124 0
174 -479 0
-373 -392 0
-504 183 0
-42 316 0
307 -531 0
-684 398 0
-419 -111 0
-266 -429 0
437 -406 0
697 -584 0
354 -366 0
594 193 0
256 -413 0
-583 -582 0
90 162 0
207 355 0
-549 -525 0
-427 689 0
247 -553 0
-352 -575 0
177 294 0
387 -608 0
486 -533 0
-480 -259 0
-185 -145 0
-502 188 0
-685 267 0
-445 387 0
104 -607 0
-55 242 0
674 -372 0
-589 -99 0
-356 384 0
656 -6 0
-461 -34 0
391 -389 0
-27 402 0
-539 -165 0
-612 -474 0
-521 198 0
-565 -426 0
509 -330 0
-659 -413 0
438 -159 0
-685 68 0
210 -619 0
138 274 0
291 -91 0
670 -285 0
-664 130 0
576 -623 0
253 238 0
-192 -249 0
-453 258 0
65 32 0
267 -448 0
74 -572 0
547 -196 0
-289 149 0
-250 152 0
-242 -353 0
530 -213 0
431 135 0
74 -35 0
-117 342 0
-565 577 0
679 185 0
-161 690 0
615 247 0
303 102 0
-279 1 0
-645 651 0
95 261 0
292 -289 0
132 227 0
-400 228 0
704 331 0
-421 476 0
84 -217 0
-445 96 0
-247 -141 0
-613 -88 0
118 631 0
-450 339 0
-4 397 0
-68 -528 0
-702 -578 0
-119 395 0
-265 -63 0
-480 216 0
-383 -121 0
-424 139 0
-338 31 0
-706 -392 0
-454 -251 0
14 -588 0
590 5 0
546 -248 0
-693 183 0
-272 239 0
-503 142 0
-413 -142 0
579 457 0
169 -581 0
-369 132 0
145 -465 0
55 593 0
-630 163 0
292 -378 0
457 -607 0
693 671 0
-560 -192 0
661 -111 0
217 -659 0
-529 -361 0
-456 101 0
302 -112 0
-629 -104 0
-207 48 0
460 249 0
188 638 0
156 16 0
-420 53 0
138 473 0
-17 -701 0
-362 -552 0
-596 375 0
-274 -440 0
432 369 0
377 -613 0
-282 -609 0
62 -712 0
-305 210 0
120 631 0
-39 -484 0
-248 -130 0
-584 -448 0
5 322 0
304 -87 0
-51 1 0
490 -534 0
228 212 0
391 -269 0
-405 -351 0
-586 -98 0
-389 -582 0
-321 142 0
-460 625 0
42 217 0
-494 -327 0
6 -553 0
-588 -528 0
233 230 0
129 90 0
-67 436 0
-159 -136 0
317 -300 0
-143 205 0
-290 -599 0
-44 602 0
-181 277 0
338 -572 0
185 -652 0
-116 154 0
-60 -121 0
95 -118 0
-610 -516 0
-264 -4 0
72 218 0
661 29 0
-363 438 0
244 -529 0
341 -628 0
561 289 0
444 -285 0
279 248 0
-466 159 0
494 363 0
76 -359 0
-493 632 0
-117 -362 0
411 20 0
252 -426 0
-89 294 0
642 -442 0
-157 -370 0
-538 327 0
423 -338 0
-87 -694 0
-604 -487 0
-558 352 0
547 -562 0
95 -336 0
689 620 0
573 184 0
-675 27 0
585 200 0
-633 116 0
55 -63 0
-171 530 0
285 -323 0
485 -664 0
507 -10 0
-257 -674 0
-548 704 0
-409 -22 0
642 646 0
-404 -633 0
-200 -412 0
-372 -654 0
651 27 0
640 483 0
-484 -215 0
-125 -706 0
-36 -211 0
-556 307 0
443 -666 0
366 -676 0
81 435 0
-512 -598 0
-504 -419 0
-155 629 0
402 -218 0
-433 -471 0
-709 444 0
-313 212 0
-278 -271 0
-328 124 0
-238 451 0
411 -360 0
623 -274 0
579 -280 0
331 260 0
200 -99 0
-461 -673 0
458 -92 0
207 -475 0
121 52 0
-1 -194 0
698 -100 0
649 231 0
-113 624 0
-640 -200 0
100 68 0
-581 -50 0
667 -165 0
-62 454 0
-340 -586 0
545 11 0
171 19 0
368 421 0
-146 517 0
-693 -212 0
-558 396 0
-549 245 0
1 120 0
447 396 0
-712 549 0
-415 -79 0
-98 279 0
604 -66 0
-405 -529 0
-501 -114 0
270 -219 0
41 -685 0
289 679 0
561 -27 0
274 626 0
305 44 0
-253 518 0
332 203 0
697 -102 0
413 -609 0
288 -225 0
-613 -78 0
254 -183 0
563 344 0
-684 234 0
-108 -368 0
-276 426 0
220 -170 0
-567 206 0
-404 -293 0
243 592 0
-688 -271 0
378 -111 0
-693 272 0
-159 -75 0
232 376 0
478 610 0
-55 -568 0
-236 301 0
-178 -692 0
572 -15 0
450 11 0
-173 125 0
-311 160 0
-288 441 0
-677 341 0
83 -510 0
428 -43 0
149 -705 0
89 -612 0
-641 -700 0
-315 70 0
467 130 0
114 648 0
-554 -368 0
684 -440 0
-407 -379 0
-386 173 0
130 -470 0
382 228 0
-123 431 0
683 101 0
89 -139 0
123 604 0
-213 -220 0
28 -544 0
-481 -481 0
155 112 0
-474 -191 0
88 213 0
76 -524 0
-712 -141 0
-393 430 0
518 -63 0
231 480 0
-118 -248 0
399 615 0
-55 392 0
-153 304 0
-500 -628 0
-712 -39 0
547 395 0
-494 662 0
297 -403 0
96 -470 0
665 229 0
-223 -584 0
-712 -110 0
238 -347 0
297 263 0
-375 -262 0
548 425 0
-544 124 0
-558 631 0
-349 41 0
94 -425 0
682 -616 0
237 332 0
371 -358 0
554 -538 0
56 91 0
-245 -45 0
201 496 0
408 -666 0
-323 263 0
-332 -500 0
91 456 0
-487 605 0
-583 -32 0
-154 537 0
-370 -657 0
-295 -355 0
173 -509 0
-453 592 0
244 -23 0
-549 -99 0
-571 197 0
-308 -523 0
632 380 0
592 104 0
632 -413 0
193 -678 0
566 -212 0
324 -615 0
554 -628 0
-113 -640 0
14 -185 0
263 -589 0
26 -255 0
244 637 0
-611 239 0
428 220 0
153 -312 0
677 -237 0
-651 -606 0
351 -101 0
-405 -668 0
-676 343 0
188 76 0
-72 414 0
65 -666 0
-574 -658 0
-516 270 0
631 264 0
206 -20 0
109 -296 0
706 449 0
-428 -615 0
610 287 0
-679 656 0
-461 643 0
-559 -271 0
-139 389 0
-524 -350 0
-340 362 0
72 597 0
398 217 0
-465 466 0
-372 659 0
3 184 0
-419 270 0
606 168 0
-474 587 0
671 379 0
17 683 0
-462 326 0
212 388 0
139 611 0
-655 634 0
-358 189 0
520 -185 0
-696 -630 0
-460 -549 0
-19 570 0
-160 -471 0
-243 -515 0
-503 514 0
532 276 0
462 639 0
-674 550 0
-512 -151 0
-159 281 0
-286 -345 0
-615 -488 0
65 -448 0
-476 -318 0
697 253 0
-262 604 0
283 445 0
-1 -235 0
-126 -278 0
-709 -535 0
-554 -143 0
-72 447 0
-97 522 0
651 -461 0
115 -296 0
589 -83 0
-392 164 0
611 65 0
-220 -640 0
316 469 0
9 -341 0
-633 256 0
26 106 0
-545 341 0
-482 279 0
686 257 0
-18 -633 0
-42 -692 0
-92 277 0
-158 -546 0
-159 320 0
9 -129 0
89 502 0
-688 -270 0
223 -578 0
-400 -568 0
-657 686 0
345 180 0
153 84 0
-440 391 0
467 155 0
-458 -127 0
-584 -66 0
463 -478 0
-18 -96 0
265 80 0
518 144 0
-92 183 0
-105 -582 0
-330 -206 0
-362 154 0
363 -459 0
-334 210 0
201 -63 0
387 -602 0
518 -252 0
239 -391 0
634 -61 0
-32 -663 0
313 -471 0
287 300 0
-306 -136 0
253 307 0
646 -468 0
277 -337 0
196 287 0
-24 442 0
-445 616 0
-613 263 0
-440 -151 0
442 156 0
-647 630 0
536 -61 0
-43 563 0
350 -516 0
-708 -372 0
-137 -32 0
-158 77 0
304 -613 0
-629 -206 0
-645 -410 0
126 -397 0
-358 -614 0
655 220 0
-377 291 0
-342 -103 0
-645 -313 0
21 632 0
-24 -359 0
36 331 0
206 183 0
-477 233 0
448 91 0
-22 303 0
54 -310 0
-640 -608 0
208 344 0
5 383 0
-498 -653 0
227 631 0
497 -667 0
206 173 0
352 546 0
-591 -521 0
651 -133 0
172 527 0
-97 -74 0
420 -338 0
121 -667 0
-470 -581 0
336 47 0
317 321 0
642 -496 0
69 593 0
-248 375 0
-575 -401 0
424 -176 0
616 -276 0
200 -361 0
349 -526 0
-574 120 0
-386 -367 0
-456 140 0
-485 -421 0
107 -545 0
-192 -156 0
-56 -439 0
-82 -163 0
-568 -258 0
684 -576 0
283 -701 0
11 432 0
592 472 0
-473 566 0
-709 542 0
159 171 0
669 343 0
198 333 0
-351 -693 0
-549 126 0
272 -211 0
596 617 0
112 26 0
-648 132 0
294 -2 0
189 294 0
665 -625 0
508 -628 0
517 192 0
-524 -604 0
157 523 0
399 -376 0
432 -658 0
-699 -478 0
126 -373 0
-330 440 0
-35 -251 0
542 354 0
-308 138 0
237 -464 0
-642 57 0
-263 -205 0
-475 657 0
416 368 0
-145 473 0
302 -386 0
168 -500 0
-255 -6 0
84 -599 0
-216 -452 0
-203 -260 0
342 -623 0
-420 -480 0
-372 62 0
-46 -379 0
601 -353 0
-372 299 0
367 484 0
167 -415 0
534 54 0
-344 67 0
537 164 0
300 253 0
-146 646 0
-202 39 0
593 384 0
489 128 0
-572 646 0
157 -164 0
-124 95 0
-669 354 0
26 -180 0
-325 618 0
511 -707 0
710 567 0
416 340 0
-106 -115 0
-494 -222 0
365 -678 0
-478 -182 0
-710 -516 0
179 -498 0
-559 363 0
-85 9 0
-623 683 0
292 -635 0
259 348 0
650 -535 0
412 -46 0
165 463 0
-342 -515 0
332 -175 0
-304 704 0
266 22 0
611 -230 0
-684 258 0
-576 -82 0
-330 -249 0
552 -438 0
600 -460 0
-255 29 0
-655 599 0
605 205 0
493 -419 0
573 -233 0
-60 685 0
654 -618 0
356 276 0
-709 269 0
411 292 0
-333 248 0
-203 172 0
48 356 0
-709 -198 0
-266 -367 0
-277 365 0
100 471 0
-404 -153 0
-140 479 0
-619 -390 0
-240 -500 0
7 -329 0
304 583 0
-32 456 0
228 -574 0
-467 -377 0
-365 -211 0
8 648 0
-409 548 0
-498 214 0
-596 534 0
-533 -310 0
530 44 0
-169 125 0
54 -512 0
214 37 0
123 -284 0
518 -200 0
-87 50 0
-333 557 0
-574 -675 0
-12 -330 0
-588 599 0
-271 -75 0
284 543 0
-538 -159 0
-87 395 0
-141 373 0
337 -170 0
499 310 0
-232 -712 0
697 10 0
-465 -694 0
604 493 0
-460 384 0
-614 637 0
323 -40 0
542 135 0
441 -255 0
686 196 0
-56 44 0
514 382 0
60 -535 0
435 -46 0
-17 201 0
402 373 0
-702 222 0
67 -236 0
605 -165 0
411 -701 0
-467 -225 0
-420 224 0
-78 602 0
148 -329 0
-329 615 0
497 -686 0
-263 294 0
210 681 0
679 -238 0
585 25 0
103 422 0
372 283 0
303 -628 0
-262 659 0
-194 -476 0
325 297 0
-508 294 0
589 -4 0
-424 -693 0
-251 654 0
244 325 0
84 -475 0
-214 670 0
343 -204 0
28 -664 0
-588 134 0
-253 -524 0
-655 332 0
161 -13 0
-349 -664 0
651 -248 0
-130 418 0
451 440 0
667 -295 0
-146 438 0
37 648 0
376 2 0
321 -406 0
-215 415 0
-3 314 0
84 -582 0
-608 -514 0
-636 708 0
-457 501 0
620 702 0
601 546 0
-10 427 0
690 698 0
-655 -613 0
600 -185 0
179 -159 0
536 -281 0
686 -563 0
145 601 0
518 261 0
636 343 0
145 -688 0
301 -225 0
-293 -269 0
-329 -182 0
71 -79 0
-425 124 0
14 89 0
703 -479 0
-456 497 0
707 506 0
-404 -56 0
444 610 0
639 52 0
362 -574 0
103 -36 0
-481 -362 0
662 634 0
-666 292 0
304 518 0
-439 -201 0
-636 -24 0
-172 363 0
38 -504 0
351 -587 0
-269 275 0
-549 -510 0
-334 -145 0
-269 -184 0
534 639 0
506 -31 0
65 -91 0
-191 -199 0
-144 -32 0
-152 214 0
65 -383 0
368 -24 0
-573 -92 0
548 617 0
-29 -675 0
432 517 0
-326 431 0
438 -48 0
-55 -268 0
283 110 0
-529 -702 0
503 436 0
459 431 0
497 381 0
-306 495 0
576 11 0
-651 -347 0
-270 -112 0
420 -373 0
199 -263 0
51 -202 0
434 565 0
-633 668 0
694 -70 0
260 -425 0
-524 -147 0
-506 124 0
639 -143 0
-330 -338 0
-661 -350 0
-161 113 0
-506 259 0
197 161 0
-484 -469 0
-252 -402 0
-490 182 0
-372 120 0
695 -600 0
89 193 0
-202 691 0
196 -430 0
-591 316 0
-456 590 0
171 -367 0
411 53 0
-322 164 0
-321 182 0
-143 300 0
-620 -701 0
-52 514 0
-583 29 0
-537 402 0
-110 -154 0
101 343 0
-110 -568 0
-200 -40 0
-383 -271 0
-225 -307 0
-339 -170 0
363 -661 0
-690 -342 0
-93 148 0
-89 -659 0
-600 204 0
-609 -187 0
-682 -323 0
-60 -537 0
-701 431 0
-189 179 0
272 421 0
580 -303 0
-468 239 0
237 634 0
112 669 0
-423 -324 0
474 -529 0
-35 539 0
-163 -607 0
-309 -586 0
434 -261 0
264 -326 0
235 -342 0
486 -397 0
-273 217 0
567 87 0
536 -696 0
561 -75 0
480 -338 0
-640 444 0
-262 -697 0
-333 -68 0
-32 -461 0
696 -316 0
-316 -684 0
-148 267 0
-660 286 0
258 -120 0
535 -701 0
-524 540 0
260 -72 0
-503 -383 0
-651 616 0
-512 10 0
16 507 0
-678 -559 0
-671 -166 0
-260 -222 0
-533 80 0
-634 138 0
593 -621 0
294 -271 0
273 210 0
115 -345 0
698 -464 0
665 -43 0
-17 687 0
-703 -650 0
-57 321 0
148 -453 0
-60 -653 0
695 511 0
-607 -316 0
361 7 0
556 -645 0
259 637 0
384 486 0
123 -315 0
-609 218 0
511 171 0
-1 -87 0
-429 497 0
-38 -322 0
585 592 0
-693 -513 0
224 509 0
-179 71 0
95 483 0
-203 -110 0
-630 -454 0
355 528 0
-236 3 0
138 617 0
-707 44 0
252 -612 0
-93 482 0
304 -346 0
481 -676 0
432 547 0
356 -325 0
11 334 0
634 342 0
-73 -354 0
-494 -336 0
-460 149 0
61 569 0
573 137 0
-413 489 0
-692 489 0
-82 -652 0
-506 -675 0
223 -106 0
317 -40 0
-614 -368 0
306 -86 0
424 -685 0
-198 -623 0
-712 48 0
439 357 0
-709 -263 0
-446 -687 0
510 -417 0
81 91 0
-508 620 0
310 223 0
-703 -518 0
-50 557 0
-207 -535 0
-118 -392 0
-568 2 0
-401 -420 0
-599 -301 0
591 365 0
490 -127 0
285 -255 0
670 -582 0
5 46 0
-358 108 0
356 -84 0
438 -452 0
-192 -542 0
123 269 0
476 47 0
708 -426 0
-616 184 0
-102 -499 0
307 -291 0
-227 483 0
-558 601 0
-643 -482 0
486 426 0
-161 -329 0
489 104 0
286 -563 0
-389 286 0
469 96 0
48 376 0
-106 -116 0
5 35 0
-582 601 0
-84 348 0
-469 317 0
577 543 0
-641 -394 0
246 -425 0
11 292 0
-469 -427 0
187 -281 0
-533 -427 0
-75 11 0
-79 382 0
-370 -58 0
-589 80 0
376 348 0
226 598 0
-696 -406 0
577 72 0
48 333 0
-663 -318 0
339 638 0
377 537 0
205 -625 0
-479 375 0
-121 -13 0
262 124 0
-397 460 0
-482 137 0
493 -481 0
376 558 0
-518 -93 0
137 712 0
611 -40 0
670 79 0
-80 173 0
-323 364 0
-400 210 0
256 -407 0
-26 -32 0
-400 680 0
174 169 0
253 -259 0
-393 51 0
-437 -362 0
-496 545 0
707 -445 0
603 -423 0
341 -14 0
201 -215 0
195 -478 0
489 -702 0
-339 -453 0
239 446 0
-405 -27 0
-61 -266 0
-63 473 0
-543 -571 0
186 316 0
-484 626 0
-425 -428 0
-502 -535 0
-187 636 0
631 546 0
-511 -657 0
-499 -162 0
341 -574 0
29 44 0
644 -600 0
388 -582 0
459 26 0
201 -580 0
444 -519 0
232 435 0
152 146 0
447 551 0
-127 642 0
164 6 0
430 -255 0
272 133 0
543 -97 0
-316 -58 0
-34 -574 0
258 -25 0
632 432 0
-399 -176 0
-665 69 0
152 -150 0
226 239 0
686 -327 0
705 -548 0
-75 -646 0
-544 -92 0
-97 -263 0
-365 44 0
-109 -378 0
441 -408 0
598 -243 0
-226 563 0
-526 112 0
-244 -119 0
51 610 0
459 633 0
229 516 0
-360 101 0
-12 -4 0
-699 538 0
-125 -77 0
399 275 0
-171 407 0
585 137 0
-51 -331 0
-293 158 0
560 289 0
387 -448 0
-70 -527 0
92 -358 0
-464 191 0
191 -203 0
307 633 0
-308 526 0
183 -440 0
-480 196 0
447 -693 0
169 -385 0
-313 133 0
-652 -275 0
-251 -308 0
220 -206 0
611 167 0
-284 533 0
696 -334 0
-61 -643 0
201 -403 0
516 -409 0
140 -72 0
542 -532 0
14 182 0
428 282 0
171 -605 0
631 -56 0
449 -205 0
-207 -362 0
-301 -650 0
240 443 0
124 -79 0
706 449 0
-60 -218 0
-372 702 0
101 3 0
-554 375 0
-333 501 0
-181 -312 0
-185 206 0
-277 65 0
95 237 0
-340 -252 0
-122 -401 0
231 100 0
417 438 0
72 -377 0
100 -664 0
617 -581 0
-327 64 0
-198 88 0
551 577 0
-460 269 0
6 269 0
634 328 0
443 -129 0
-405 -460 0
-78 -623 0
497 -234 0
-570 179 0
-194 360 0
198 280 0
-541 -231 0
-525 698 0
-545 434 0
251 -306 0
-330 393 0
-388 -495 0
-670 -693 0
323 229 0
637 -141 0
-589 -498 0
-29 -346 0
-74 -541 0
-419 -538 0
244 -175 0
-322 -666 0
233 26 0
-691 290 0
320 587 0
-283 -496 0
-406 286 0
-678 82 0
473 666 0
-662 610 0
-129 80 0
-416 463 0
-478 -531 0
-539 -378 0
-79 488 0
286 -92 0
31 -300 0
402 -288 0
366 124 0
149 -448 0
470 374 0
658 151 0
-108 -265 0
-248 -665 0
430 -338 0
-194 30 0
555 -685 0
-96 166 0
-368 -591 0
197 357 0
247 -335 0
-403 135 0
490 13 0
106 476 0
-177 26 0
120 -151 0
396 523 0
260 -42 0
433 -56 0
32 537 0
384 546 0
-628 208 0
557 638 0
-611 -216 0
710 -475 0
259 -268 0
-392 -74 0
-275 -582 0
-37 -609 0
-360 356 0
371 555 0
697 -97 0
597 -503 0
-662 47 0
-38 414 0
249 -127 0
-661 -271 0
-645 619 0
39 623 0
-13 -510 0
352 -473 0
1 145 0
-594 -235 0
-702 395 0
634 -288 0
-211 -315 0
-666 232 0
-86 146 0
-13 -684 0
-604 -60 0
367 209 0
-653 360 0
581 -127 0
-538 182 0
156 -677 0
-305 242 0
376 463 0
-553 -61 0
-595 638 0
-606 -496 0
441 -236 0
259 -268 0
545 -429 0
-623 601 0
604 23 0
-694 -241 0
-203 -498 0
-298 143 0
463 -163 0
507 641 0
-483 -266 0
-230 -498 0
177 -558 0
520 200 0
-318 -612 0
179 267 0
-359 -293 0
-310 -293 0
669 289 0
-692 239 0
593 -51 0
570 -534 0
-17 686 0
220 317 0
-243 217 0
-199 359 0
67 -478 0
244 37 0
39 -420 0
563 365 0
-508 220 0
543 545 0
-299 398 0
-485 -165 0
-370 354 0
214 -251 0
-401 234 0
-463 -378 0
250 -271 0
-165 -598 0
341 -487 0
156 580 0
542 87 0
515 338 0
435 -521 0
-667 -187 0
-163 695 0
262 -643 0
177 -254 0
-568 81 0
665 -361 0
-509 605 0
184 -529 0
506 -379 0
349 -154 0
506 445 0
-558 -410 0
606 -640 0
-512 -337 0
189 659 0
656 184 0
169 -225 0
-700 -329 0
-195 369 0
332 -508 0
109 -258 0
-685 -222 0
269 700 0
-691 177 0
-112 -544 0
-554 164 0
-94 150 0
-512 144 0
402 -315 0
-52 -18 0
-582 72 0
356 237 0
-186 -243 0
145 -68 0
-640 408 0
-139 52 0
-507 665 0
169 629 0
532 -362 0
702 -419 0
-583 611 0
26 -537 0
260 -242 0
659 -312 0
88 -531 0
349 -324 0
150 505 0
479 -154 0
-199 -88 0
-619 44 0
-77 375 0
625 -411 0
-484 206 0
145 176 0
257 -694 0
134 595 0
-324 341 0
53 289 0
466 449 0
229 -681 0
662 -524 0
-615 290 0
382 133 0
-394 -530 0
189 -570 0
-101 -600 0
339 460 0
-314 -61 0
-121 -461 0
372 275 0
-589 -131 0
-624 363 0
28 -48 0
500 -500 0
173 103 0
512 -309 0
282 76 0
-74 419 0
-554 -16 0
-42 444 0
286 598 0
195 -146 0
-331 -175 0
-601 328 0
683 688 0
67 138 0
-509 -150 0
590 -19 0
414 -203 0
310 -306 0
-10 490 0
-23 -251 0
-256 -470 0
622 59 0
-342 627 0
-102 497 0
-252 -52 0
300 32 0
-49 -538 0
173 -640 0
56 585 0
-211 320 0
708 -10 0
418 60 0
550 -366 0
534 297 0
-244 -118 0
404 -73 0
260 -460 0
-660 12 0
687 577 0
-77 -114 0
-410 310 0
385 -27 0
507 -283 0
-214 152 0
351 223 0
467 -24 0
293 -240 0
-680 -271 0
64 235 0
-13 124 0
-674 287 0
-576 144 0
502 -109 0
553 -314 0
184 287 0
-96 648 0
448 -340 0
-340 -684 0
51 -437 0
-28 -456 0
-97 28 0
36 -507 0
-584 -694 0
-674 -37 0
-707 -105 0
651 343 0
537 208 0
671 -270 0
-164 44 0
-586 -302 0
-479 -181 0
435 -63 0
-535 -99 0
-58 598 0
303 -112 0
409 320 0
204 677 0
-243 418 0
20 193 0
-56 -551 0
-479 -372 0
-118 -612 0
-499 231 0
-659 682 0
-571 -226 0
256 503 0
-426 110 0
-273 591 0
-653 8 0
641 -591 0
656 -501 0
-83 173 0
-68 -409 0
486 563 0
80 -275 0
57 91 0
-225 542 0
542 626 0
-582 -36 0
-200 -589 0
690 -524 0
675 625 0
-419 303 0
476 371 0
-417 517 0
710 -245 0
422 -86 0
473 -306 0
561 559 0
259 -169 0
-327 -437 0
-178 318 0
40 658 0
221 -474 0
-691 -503 0
138 207 0
-51 499 0
-703 380 0
77 -119 0
-641 50 0
36 -122 0
-378 -51 0
-401 601 0
452 625 0
-601 292 0
-503 181 0
368 374 0
-647 -87 0
476 -117 0
-389 532 0
677 116 0
540 -663 0
-311 -165 0
395 206 0
-413 75 0
-13 -664 0
685 499 0
-51 525 0
374 665 0
100 6 0
642 421 0
447 -542 0
-614 -633 0
-381 496 0
-583 -506 0
-392 -413 0
337 169 0
382 -36 0
118 229 0
-636 430 0
91 489 0
-305 491 0
-650 681 0
-342 270 0
360 21 0
538 -372 0
385 462 0
-659 237 0
435 -416 0
22 -263 0
-656 -535 0
631 -412 0
-480 -373 0
650 -439 0
-612 -652 0
-257 156 0
-241 89 0
430 314 0
303 -347 0
-200 -572 0
420 428 0
440 -412 0
528 -338 0
427 -621 0
-349 653 0
258 -50 0
71 190 0
-13 119 0
-560 -509 0
-394 -450 0
128 552 0
449 -546 0
506 -40 0
-618 371 0
676 689 0
-426 227 0
-495 238 0
228 711 0
168 510 0
209 389 0
247 -505 0
363 -396 0
658 350 0
-300 -162 0
-269 -85 0
195 -700 0
155 499 0
-632 -56 0
-686 -479 0
-423 6 0
266 272 0
-306 -660 0
639 -335 0
-318 152 0
311 -345 0
710 592 0
-578 321 0
-417 426 0
-606 482 0
-533 486 0
-625 -233 0
-603 593 0
-286 -139 0
189 -506 0
-453 406 0
-673 -557 0
145 -168 0
-23 88 0
416 -268 0
-597 -512 0
-93 -295 0
204 -636 0
-63 24 0
-481 636 0
-586 -604 0
-153 -531 0
442 477 0
615 -558 0
-137 -661 0
-491 638 0
574 289 0
-117 612 0
50 307 0
610 -601 0
-591 -117 0
142 320 0
371 599 0
-509 339 0
651 592 0
-337 40 0
523 19 0
698 -422 0
129 -158 0
671 -77 0
-695 -510 0
-43 616 0
305 -148 0
184 555 0
-41 424 0
-347 250 0
-504 -422 0
-189 64 0
-500 -674 0
501 -147 0
142 -68 0
-394 48 0
-278 -131 0
331 -137 0
530 -43 0
439 -194 0
-285 -78 0
-586 627 0
-19 388 0
-494 156 0
-295 650 0
-213 -358 0
-457 -637 0
-647 590 0
-117 331 0
231 174 0
89 131 0
297 -268 0
90 -129 0
-511 -591 0
-549 378 0
-17 355 0
-397 138 0
20 -315 0
592 -172 0
-684 -78 0
-584 -424 0
-652 -200 0
-261 -135 0
-440 47 0
-70 269 0
-3 354 0
-113 677 0
-693 -343 0
20 431 0
444 327 0
-380 218 0
198 -226 0
489 113 0
-681 573 0
-368 -622 0
700 230 0
-102 683 0
458 363 0
-345 260 0
-412 9 0
181 -347 0
-481 465 0
-667 144 0
578 407 0
55 -130 0
25 -485 0
530 -607 0
22 -654 0
-19 375 0
428 -224 0
634 302 0
-516 -192 0
157 439 0
237 468 0
411 -480 0
490 635 0
-643 129 0
240 -427 0
44 -15 0
-591 433 0
-196 -281 0
-272 459 0
563 457 0
-477 610 0
639 552 0
-312 133 0
-690 -474 0
-387 -301 0
557 -558 0
587 -38 0
433 -342 0
-478 -395 0
554 -96 0
411 -693 0
-284 -565 0
648 72 0
-78 -289 0
153 -706 0
11 -282 0
561 -93 0
-329 -634 0
455 -479 0
-305 307 0
-13 -377 0
253 -535 0
-549 -203 0
8 -94 0
8 -456 0
264 -362 0
22 84 0
532 -485 0
-368 -306 0
344 418 0
489 -139 0
290 -453 0
-334 -56 0
444 402 0
-62 645 0
579 1 0
142 -51 0
256 531 0
402 -453 0
-641 -341 0
589 -565 0
-377 -684 0
388 -165 0
-86 365 0
-571 277 0
-108 63 0
124 390 0
380 -328 0
304 -465 0
-614 -554 0
566 437 0
-596 -242 0
-55 -130 0
-73 -575 0
571 -166 0
-396 240 0
106 -478 0
178 -470 0
-140 -95 0
610 -657 0
-545 184 0
81 -448 0
-35 -152 0
577 -704 0
-562 -72 0
287 -523 0
-646 511 0
-308 167 0
406 587 0
571 145 0
400 665 0
-419 -275 0
-172 -396 0
-58 138 0
-604 423 0
320 103 0
62 689 0
449 28 0
575 -454 0
-448 -135 0
497 123 0
-427 -116 0
-63 -437 0
151 -392 0
432 516 0
-540 -372 0
191 -683 0
-468 -68 0
517 -416 0
617 -475 0
-94 227 0
587 -330 0
-443 416 0
263 -424 0
429 36 0
-396 -498 0
-301 -553 0
103 -111 0
604 -358 0
416 -424 0
-129 -442 0
98 -200 0
-94 -53 0
162 -706 0
-465 537 0
699 -176 0
-111 36 0
-75 259 0
48 47 0
-409 113 0
7 -359 0
447 690 0
608 59 0
-298 -470 0
218 -342 0
-675 1 0
83 -337 0
622 711 0
-304 483 0
125 -3 0
667 -163 0
265 36 0
-425 100 0
-204 -653 0
-87 -237 0
-404 -473 0
82 -263 0
-476 -318 0
16 262 0
569 -200 0
-372 267 0
459 679 0
-293 -338 0
-150 686 0
639 320 0
689 -501 0
280 192 0
-111 -74 0
479 489 0
170 131 0
120 -133 0
-349 -23 0
3 -377 0
37 -333 0
-362 410 0
463 662 0
-19 653 0
436 50 0
107 -133 0
6 550 0
-447 228 0
-336 -475 0
155 -615 0
458 614 0
-187 277 0
92 682 0
-148 601 0
634 -531 0
418 592 0
473 287 0
280 -253 0
682 453 0
229 16 0
-608 -642 0
654 40 0
-391 310 0
-11 302 0
-489 -554 0
-96 297 0
29 265 0
-243 561 0
170 428 0
281 -159 0
171 -518 0
415 669 0
-45 206 0
-541 520 0
283 456 0
-323 467 0
2 466 0
-615 -47 0
418 -659 0
-703 -667 0
-419 -58 0
-493 -396 0
-541 65 0
-521 -526 0
-122 280 0
-133 447 0
411 112 0
-471 394 0
-353 682 0
-608 -68 0
-286 -482 0
196 -43 0
684 292 0
-61 -273 0
570 164 0
505 -707 0
-259 418 0
-273 689 0
-86 -636 0
228 467 0
171 564 0
618 -461 0
-235 -533 0
226 286 0
522 -481 0
261 681 0
-695 620 0
385 -315 0
523 271 0
680 -149 0
-538 603 0
229 499 0
123 491 0
-143 -311 0
305 286 0
-636 -151 0
-474 22 0
-674 -389 0
-380 518 0
-645 283 0
587 54 0
625 -471 0
592 682 0
401 189 0
-445 -15 0
-181 -538 0
-333 264 0
-257 -696 0
-426 112 0
447 -230 0
-558 197 0
-314 -703 0
-622 -536 0
395 644 0
677 -44 0
317 180 0
537 -335 0
689 -445 0
681 79 0
-678 -78 0
-500 50 0
-315 -519 0
-225 -117 0
-308 -6 0
610 46 0
-512 695 0
1 -192 0
560 349 0
-361 276 0
690 173 0
35 517 0
-365 189 0
-306 196 0
545 -323 0
-438 -401 0
-117 41 0
-385 -68 0
440 648 0
357 263 0
-243 622 0
421 137 0
639 -288 0
-199 -687 0
29 -19 0
443 702 0
-438 690 0
100 -243 0
-660 -127 0
-562 -692 0
682 -678 0
51 -338 0
631 677 0
-555 492 0
-512 271 0
273 26 0
478 -676 0
329 -591 0
-703 -610 0
-257 -34 0
493 -141 0
88 90 0
-690 -306 0
-4 -98 0
233 670 0
-531 -174 0
-148 -206 0
-34 73 0
186 -498 0
343 -254 0
190 334 0
-477 517 0
-599 -17 0
-581 -26 0
-80 -85 0
605 -630 0
277 238 0
-711 -213 0
-427 -305 0
505 -116 0
530 -358 0
-370 162 0
71 -695 0
-613 1 0
-594 -41 0
320 -342 0
670 -591 0
207 -633 0
343 -158 0
104 583 0
-361 -158 0
302 484 0
-305 -533 0
-194 140 0
91 -617 0
-345 -314 0
109 314 0
325 -290 0
436 -115 0
-661 547 0
-652 443 0
-116 -540 0
648 104 0
-360 -430 0
-340 242 0
145 618 0
-336 -200 0
-479 -336 0
-599 260 0
-46 402 0
-567 195 0
421 -187 0
617 147 0
612 597 0
-495 -121 0
-307 -17 0
-114 701 0
-507 -403 0
170 -178 0
-129 -462 0
-225 566 0
133 525 0
-383 -137 0
-695 340 0
-621 -184 0
-522 -261 0
-358 -481 0
545 -304 0
275 -616 0
254 -277 0
-356 -568 0
152 272 0
-93 551 0
364 416 0
380 -160 0
-99 -203 0
-679 -480 0
37 -571 0
463 502 0
-489 -647 0
-554 -169 0
143 -86 0
-466 -413 0
396 569 0
-567 190 0
137 35 0
-13 -657 0
-270 -638 0
156 292 0
290 26 0
59 484 0
-582 264 0
574 -678 0
-607 569 0
-42 697 0
619 -306 0
537 -659 0
365 -292 0
98 -241 0
-655 -184 0
-500 272 0
602 -84 0
-231 -203 0
-32 634 0
-318 53 0
-203 -539 0
624 -377 0
-70 518 0
689 -441 0
448 310 0
-281 -185 0
-336 306 0
21 573 0
302 -185 0
291 -85 0
416 -140 0
220 577 0
-645 -298 0
447 515 0
-569 638 0
219 20 0
408 124 0
-35 120 0
-628 -488 0
-542 -461 0
186 -399 0
329 39 0
-454 -274 0
51 237 0
-219 365 0
678 -394 0
-84 -185 0
184 134 0
164 -333 0
505 -24 0
-270 513 0
258 -275 0
-21 407 0
681 204 0
705 459 0
-324 683 0
205 -58 0
564 607 0
-269 -283 0
-641 -121 0
193 95 0
-424 624 0
183 -515 0
507 344 0
624 227 0
302 664 0
77 513 0
542 -543 0
416 -491 0
200 205 0
69 709 0
-478 36 0
-258 -482 0
-19 -186 0
-666 -328 0
-159 -236 0
698 -80 0
347 -427 0
-306 -269 0
467 -499 0
334 -154 0
-344 -377 0
-508 175 0
560 182 0
-63 708 0
-608 -637 0
-710 698 0
-324 382 0
1 -218 0
-67 -70 0
-38 354 0
-541 607 0
440 -531 0
-428 -612 0
-323 -283 0
546 423 0
-459 297 0
-448 57 0
-248 680 0
362 -241 0
-626 501 0
564 -425 0
-266 -524 0
56 239 0
131 -128 0
2 304 0
506 100 0
-257 91 0
339 555 0
-256 -554 0
517 -352 0
567 -455 0
137 247 0
-545 517 0
323 302 0
-46 -293 0
-243 550 0
440 411 0
304 366 0
-400 -185 0
523 112 0
-547 -439 0
67 670 0
-613 -9 0
-33 -345 0
-29 -678 0
539 -531 0
371 302 0
451 401 0
232 -516 0
-106 -66 0
618 264 0
-676 -114 0
-389 160 0
213 171 0
-47 -503 0
-667 -514 0
-484 -270 0
707 -653 0
-212 -282 0
-610 -133 0
-165 407 0
164 -700 0
-266 340 0
335 -337 0
-541 239 0
349 228 0
431 177 0
404 540 0
411 373 0
63 -24 0
53 258 0
323 -424 0
229 -167 0
-410 -534 0
-216 355 0
670 -243 0
-699 175 0
537 75 0
363 -435 0
205 237 0
104 238 0
-268 96 0
580 550 0
-74 -579 0
-477 696 0
-327 654 0
-482 -381 0
-644 303 0
673 442 0
336 700 0
-512 -217 0
-424 183 0
-474 76 0
-93 640 0
-234 441 0
593 -195 0
-305 658 0
428 -455 0
683 76 0
-184 -78 0
694 145 0
-596 -113 0
657 -199 0
422 372 0
82 -238 0
654 141 0
690 536 0
438 -299 0
-482 -444 0
9 -696 0
-245 -535 0
477 207 0
452 258 0
577 211 0
471 331 0
-387 -417 0
-274 100 0
219 -60 0
-270 -318 0
168 -327 0
67 -562 0
339 -615 0
356 -504 0
-161 -548 0
447 -151 0
-701 -156 0
-397 -591 0
-588 -230 0
-574 572 0
91 -419 0
126 -397 0
617 -222 0
77 -34 0
52 -389 0
605 20 0
-634 665 0
-127 626 0
463 703 0
27 -613 0
226 423 0
682 -211 0
131 -617 0
246 -168 0
-575 -578 0
487 -397 0
525 -83 0
-366 -456 0
303 -558 0
354 -507 0
300 -471 0
622 -688 0
-121 355 0
