c bounds 132 132
p cnf 280 196
118 -141 0
12 -99 0
-25 6 0
-24 -95 0
52 168 0
77 156 0
-271 -198 0
-158 -188 0
-221 71 0
-39 136 0
-81 -149 0
92 -85 0
-85 -218 0
-219 -217 0
217 -275 0
-241 -201 0
205 -175 0
-180 211 0
-168 150 0
-134 277 0
-235 -217 0
-39 -14 0
-151 -111 0
228 196 0
155 169 0
-271 -127 0
244 -43 0
42 121 0
-116 -187 0
-167 -2 0
-217 -268 0
-215 181 0
11 -275 0
239 208 0
49 263 0
205 43 0
128 147 0
-256 -101 0
115 159 0
-172 -18 0
113 -209 0
26 145 0
-159 -257 0
-237 249 0
-97 274 0
-214 -81 0
-218 146 0
-180 82 0
-179 17 0
126 120 0
-128 -59 0
116 -213 0
-23 3 0
-268 98 0
-60 -73 0
-249 -79 0
-46 263 0
34 -61 0
-251 -150 0
-99 -35 0
106 -61 0
193 -134 0
-58 -62 0
-50 -61 0
33 69 0
-47 117 0
-111 -53 0
47 -84 0
187 267 0
19 -121 0
115 93 0
247 -273 0
-212 -141 0
-237 -75 0
244 186 0
-256 83 0
-101 -128 0
120 188 0
-160 142 0
-113 29 0
-138 196 0
-173 -255 0
-124 -21 0
-170 -259 0
-271 34 0
-187 -33 0
72 -153 0
36 -208 0
236 -129 0
-45 -28 0
238 -84 0
65 -22 0
-110 240 0
-139 -43 0
-200 -257 0
-77 -76 0
-268 -108 0
71 122 0
-81 -1 0
63 -139 0
8 183 0
118 54 0
-197 -60 0
101 -39 0
-249 238 0
-31 -151 0
-169 122 0
75 -181 0
-184 196 0
42 157 0
-267 195 0
36 -151 0
-222 78 0
-39 9 0
-243 -214 0
104 -175 0
153 -218 0
199 -69 0
244 272 0
-81 165 0
-241 -196 0
59 -172 0
94 195 0
-16 -23 0
17 104 0
-173 -246 0
-87 -186 0
-171 187 0
-221 -225 0
192 -23 0
4 -56 0
23 8 0
-59 -89 0
-223 -184 0
120 -187 0
-16 -5 0
111 -164 0
-41 -63 0
-67 180 0
86 -101 0
-45 -261 0
154 -18 0
98 105 0
-15 -50 0
24 196 0
123 238 0
-215 -10 0
-228 -270 0
214 -144 0
181 159 0
86 -208 0
187 154 0
-176 154 0
228 247 0
-80 -148 0
179 -158 0
251 36 0
-24 -57 0
-269 56 0
109 -169 0
-99 273 0
-147 -59 0
90 136 0
25 -75 0
-34 -277 0
-268 274 0
-138 92 0
-22 146 0
-188 12 0
-129 -196 0
166 229 0
-110 -45 0
67 72 0
74 -49 0
232 -7 0
125 -178 0
-110 77 0
-104 33 0
25 78 0
54 204 0
-2 266 0
-55 -41 0
239 -275 0
-57 -240 0
33 98 0
-61 198 0
78 15 0
10 90 0
52 -32 0
-268 247 0
254 -244 0
-1 -2 0
-14 -261 0
20 52 0
206 -11 0
-229 264 0
