c bounds 314 314
p cnf 820 738
709 766 0
-537 -430 0
-192 551 0
-485 330 0
-458 -280 0
-417 -743 0
590 158 0
-552 662 0
104 436 0
-205 -70 0
153 -385 0
529 -795 0
-244 599 0
494 11 0
-290 656 0
-105 -598 0
376 -280 0
-594 -629 0
-545 -279 0
-745 -240 0
551 729 0
68 -517 0
-516 -232 0
-240 -355 0
693 794 0
-476 -612 0
-814 618 0
65 530 0
325 -280 0
663 -179 0
-136 629 0
550 534 0
-372 811 0
-33 -214 0
139 -53 0
694 -669 0
662 30 0
613 -179 0
87 -174 0
-481 -233 0
-516 97 0
-67 618 0
558 557 0
-820 230 0
296 -307 0
-532 555 0
-82 -105 0
577 30 0
-149 -100 0
248 122 0
468 350 0
-808 208 0
-2 -234 0
-458 797 0
-525 385 0
-106 -770 0
-158 5 0
176 203 0
-384 146 0
-555 171 0
500 -390 0
-88 663 0
462 -604 0
472 332 0
379 356 0
-416 -484 0
-307 99 0
-465 684 0
-119 -678 0
-122 334 0
-617 -270 0
-597 135 0
-199 -435 0
-28 -605 0
-71 -549 0
760 -226 0
-221 -488 0
668 639 0
-75 574 0
527 708 0
-547 -358 0
-709 223 0
350 -454 0
-639 -749 0
-722 343 0
356 -295 0
708 616 0
-49 -246 0
-286 562 0
-659 473 0
-41 698 0
-522 -611 0
-120 720 0
231 -120 0
228 -397 0
-344 -78 0
165 -405 0
80 173 0
-482 412 0
-488 -93 0
-309 91 0
-242 451 0
791 58 0
-501 692 0
360 -328 0
-66 -607 0
735 -545 0
463 509 0
-220 552 0
-683 341 0
-77 647 0
209 116 0
579 -597 0
-532 367 0
152 -676 0
-800 -720 0
122 -519 0
484 642 0
85 -563 0
216 -639 0
-233 -524 0
-180 128 0
143 381 0
734 -754 0
-787 -249 0
-306 799 0
-325 650 0
-808 480 0
152 -317 0
540 206 0
732 567 0
-713 -529 0
-740 290 0
283 -105 0
327 -341 0
333 -226 0
-271 523 0
-136 -728 0
359 -227 0
-295 -384 0
497 166 0
112 -707 0
251 -242 0
-226 -433 0
-465 716 0
-404 331 0
418 28 0
-611 5 0
10 -338 0
50 384 0
221 -278 0
-380 527 0
517 -380 0
539 632 0
-234 216 0
615 -422 0
236 -437 0
-528 359 0
92 -204 0
152 630 0
592 620 0
-232 -766 0
-605 526 0
630 122 0
27 314 0
-423 49 0
802 -403 0
361 768 0
287 589 0
-44 223 0
814 636 0
66 792 0
-603 326 0
188 329 0
-719 -752 0
-61 -443 0
411 -18 0
368 -601 0
-600 -210 0
-89 -764 0
453 -627 0
-288 -51 0
73 473 0
428 239 0
-803 -94 0
440 54 0
446 -34 0
-582 -338 0
-161 95 0
348 793 0
646 -131 0
-364 -201 0
310 442 0
-155 453 0
451 577 0
-305 -241 0
164 -380 0
-60 215 0
720 9 0
-422 207 0
-751 540 0
-16 -273 0
69 -56 0
-74 164 0
-617 -659 0
107 326 0
464 578 0
166 -137 0
-631 686 0
413 -428 0
-305 -6 0
-638 -163 0
-65 296 0
766 97 0
-704 613 0
145 -502 0
785 310 0
-462 -390 0
75 -387 0
-141 232 0
380 148 0
-40 -659 0
791 341 0
-217 -714 0
205 -18 0
329 -298 0
-53 331 0
462 -682 0
-105 -114 0
452 -796 0
255 -82 0
-696 705 0
-410 -552 0
-509 419 0
-241 231 0
126 -561 0
-322 -460 0
-354 774 0
-44 -737 0
-742 -795 0
108 -465 0
-86 33 0
213 92 0
460 700 0
546 -50 0
-116 364 0
271 -77 0
16 173 0
599 489 0
-11 -113 0
-801 -87 0
-339 -727 0
161 389 0
231 -81 0
653 299 0
-572 -62 0
258 55 0
89 630 0
228 -449 0
792 183 0
495 214 0
-143 200 0
-502 807 0
-553 188 0
470 779 0
-229 -377 0
790 206 0
504 -711 0
-45 -326 0
277 376 0
374 296 0
263 -610 0
22 -751 0
-83 25 0
500 -783 0
-47 -770 0
-179 -336 0
584 -141 0
-265 -126 0
-28 660 0
-679 -643 0
457 495 0
704 -200 0
770 328 0
629 -333 0
-338 -305 0
-95 -118 0
-383 -393 0
85 339 0
-591 509 0
-811 -100 0
-565 495 0
66 203 0
-713 -677 0
786 731 0
117 577 0
-100 -599 0
-574 721 0
708 -651 0
89 -743 0
130 621 0
-766 -293 0
-520 592 0
692 273 0
331 478 0
121 -229 0
-726 643 0
-513 -717 0
-583 356 0
-688 386 0
215 796 0
-510 409 0
147 -343 0
103 158 0
-416 -327 0
690 -549 0
-293 -35 0
-503 -676 0
290 -309 0
200 -622 0
-660 152 0
-59 -402 0
329 144 0
-536 244 0
-154 460 0
429 328 0
692 -72 0
-89 -239 0
645 -65 0
592 22 0
-588 -772 0
-776 269 0
760 -717 0
-363 -9 0
761 331 0
517 563 0
528 -728 0
-219 -212 0
37 308 0
-180 532 0
-675 -46 0
80 -770 0
162 -404 0
-449 595 0
175 -224 0
692 -662 0
-287 54 0
-295 773 0
455 723 0
-439 634 0
340 266 0
400 -586 0
717 23 0
-622 -50 0
20 -175 0
-587 456 0
734 317 0
-354 -581 0
101 -229 0
132 427 0
201 672 0
170 290 0
-478 -267 0
456 32 0
674 -588 0
630 -18 0
217 -83 0
126 221 0
243 -203 0
291 412 0
-498 711 0
-448 408 0
473 -168 0
-701 780 0
269 122 0
-382 648 0
253 -9 0
526 748 0
778 406 0
-397 608 0
107 -191 0
-105 528 0
173 92 0
-33 -805 0
84 -3 0
-568 -597 0
558 -527 0
-14 -409 0
-467 812 0
-260 -492 0
71 162 0
-585 -550 0
-163 708 0
-677 -169 0
794 152 0
-152 -642 0
470 -706 0
-521 -612 0
456 -448 0
802 -673 0
-819 683 0
269 147 0
685 597 0
457 -521 0
-375 -267 0
735 -195 0
-749 705 0
630 303 0
-123 297 0
677 -65 0
444 425 0
-439 647 0
368 596 0
212 -324 0
223 791 0
811 -722 0
-445 512 0
582 212 0
212 386 0
-407 -693 0
620 -775 0
-606 551 0
645 423 0
84 -636 0
-550 569 0
-133 -610 0
-87 404 0
525 -40 0
571 -726 0
356 600 0
509 -188 0
-409 -377 0
-544 332 0
314 -404 0
-374 -340 0
-143 674 0
-30 214 0
-280 -817 0
-499 418 0
440 514 0
546 119 0
-742 -741 0
240 -813 0
-719 441 0
-121 406 0
638 -125 0
-157 -550 0
-265 121 0
-301 244 0
627 11 0
-421 -796 0
612 -741 0
-16 -247 0
-366 -679 0
665 246 0
-634 -435 0
142 165 0
-734 528 0
418 349 0
613 85 0
564 799 0
-565 416 0
131 -764 0
562 -190 0
328 599 0
-343 108 0
547 393 0
-105 20 0
584 152 0
-421 -545 0
-40 -82 0
118 -149 0
580 582 0
-784 522 0
-451 509 0
-737 -561 0
-655 -211 0
-719 -394 0
730 389 0
-396 -77 0
-339 -103 0
-575 -699 0
115 -381 0
-134 200 0
630 -55 0
768 -183 0
-562 536 0
393 401 0
-488 -29 0
-132 135 0
-603 661 0
-93 -803 0
687 129 0
-76 519 0
134 -517 0
452 -185 0
178 695 0
-335 -45 0
-25 -161 0
222 312 0
-275 199 0
206 184 0
489 -45 0
91 -95 0
-177 209 0
-44 814 0
-321 28 0
294 -693 0
-506 -516 0
99 -61 0
-704 -706 0
-82 351 0
768 472 0
-362 -488 0
-471 -619 0
35 -464 0
31 143 0
774 593 0
747 -548 0
-274 -245 0
-2 631 0
-265 -360 0
70 -662 0
-33 -617 0
-239 -745 0
43 -175 0
-524 484 0
-805 -139 0
-328 -339 0
97 -503 0
-726 738 0
634 -521 0
-14 -573 0
-665 4 0
-545 267 0
750 526 0
638 385 0
32 -482 0
785 -625 0
-611 794 0
-372 -445 0
166 -293 0
398 -196 0
-259 197 0
-662 -695 0
-37 -384 0
234 -694 0
372 620 0
346 -82 0
-1 635 0
-45 -87 0
-159 176 0
527 -501 0
-382 251 0
792 742 0
-387 -717 0
-579 -205 0
-545 460 0
-717 -553 0
-675 -6 0
-372 -254 0
798 340 0
-623 224 0
184 -569 0
-10 -377 0
-291 -250 0
215 -581 0
191 -436 0
-184 646 0
-16 -44 0
-26 383 0
-490 454 0
-641 104 0
-196 -646 0
-229 559 0
-779 788 0
-299 356 0
96 -8 0
-502 3 0
535 -248 0
-603 -620 0
456 -442 0
-379 -772 0
752 148 0
804 288 0
536 723 0
690 -486 0
320 223 0
118 805 0
60 73 0
415 -668 0
640 178 0
590 256 0
479 748 0
457 467 0
227 -568 0
613 -274 0
-675 -318 0
72 -326 0
256 -461 0
747 -620 0
-172 -573 0
-417 -255 0
767 -622 0
530 -280 0
-815 456 0
460 -394 0
-34 -433 0
337 79 0
-819 -281 0
-469 203 0
-416 466 0
-6 -658 0
90 434 0
-521 -136 0
767 214 0
489 -79 0
-657 335 0
478 -717 0
562 217 0
148 -43 0
-799 -369 0
41 560 0
624 -804 0
-599 470 0
361 683 0
87 294 0
457 384 0
-694 435 0
359 -630 0
-59 417 0
-543 654 0
-112 -420 0
548 -574 0
-805 -375 0
794 -139 0
456 -565 0
702 -237 0
64 704 0
-41 -33 0
-422 -716 0
685 383 0
691 -86 0
-67 747 0
154 103 0
-812 28 0
-404 -94 0
799 -421 0
-95 284 0
-214 193 0
-788 10 0
157 782 0
244 -37 0
816 408 0
-163 -143 0
654 -403 0
380 -303 0
-70 617 0
742 293 0
730 525 0
597 8 0
-649 203 0
-698 -268 0
-548 -533 0
-599 -813 0
385 590 0
551 -321 0
-708 308 0
365 -691 0
-209 -737 0
211 797 0
538 544 0
-704 768 0
-139 -577 0
20 -472 0
-729 216 0
500 -726 0
-746 -703 0
409 -46 0
296 365 0
630 586 0
-45 190 0
-437 483 0
727 -228 0
447 -394 0
-53 663 0
-89 -642 0
-549 -345 0
449 -455 0
816 -760 0
513 -280 0
-441 687 0
-488 549 0
657 39 0
-495 -233 0
-403 -171 0
-762 698 0
582 253 0
389 -803 0
-659 -286 0
466 -202 0
-319 -532 0
-777 -398 0
-446 514 0
734 -725 0
695 -265 0
-617 -300 0
-298 -584 0
-265 704 0
117 -481 0
166 -571 0
-764 400 0
623 590 0
-259 644 0
132 685 0
806 -49 0
-72 331 0
208 791 0
496 446 0
253 317 0
-412 383 0
-664 -546 0
358 336 0
153 498 0
557 -137 0
732 -619 0
206 -233 0
-649 -271 0
-84 -775 0
-810 483 0
-161 -795 0
12 441 0
536 484 0
-710 281 0
741 702 0
-345 -611 0
-594 506 0
-154 782 0
