c NF
p cnf 4632 20381
-441 4468 0
1660 -876 0
-3053 -1591 0
-2270 2739 0
-3346 -61 0
2925 -3920 0
1072 -890 0
4152 1216 0
-3228 636 0
-753 2477 0
-4051 362 0
2234 -193 0
-1315 55 0
-3562 1185 0
-2435 3564 0
-1204 3006 0
-810 -474 0
1816 396 0
-2748 2625 0
4611 62 0
244 -4350 0
-4088 -2330 0
-683 4054 0
3638 1105 0
1405 -1962 0
3539 1277 0
3776 1423 0
-2013 -3680 0
1351 4146 0
11 -52 0
2204 3432 0
227 1735 0
-2633 -1432 0
2948 -765 0
-201 -4168 0
4018 265 0
-3509 3102 0
1794 801 0
-1794 3035 0
-255 4016 0
-4166 -1721 0
-588 -4353 0
-707 -3581 0
-2377 -3300 0
2747 -3681 0
2814 290 0
4023 2027 0
620 1084 0
-3663 -3775 0
948 -417 0
-3781 1791 0
-2987 826 0
3956 2472 0
-4273 230 0
-1678 -4046 0
-1945 -932 0
-4522 239 0
3352 3033 0
-629 4484 0
3922 -2368 0
-2030 -2692 0
-2062 3767 0
143 397 0
4546 2636 0
577 1438 0
3717 -3471 0
1899 2007 0
-3823 -4579 0
453 4435 0
329 -2408 0
-1017 -698 0
4436 -471 0
-459 2351 0
3426 1468 0
221 3660 0
-1129 -2051 0
-3799 -3838 0
673 1334 0
-1191 2445 0
3002 -4227 0
3398 3632 0
480 629 0
2529 -330 0
416 3501 0
-391 2140 0
-1731 755 0
-3380 -3905 0
-191 -680 0
-3943 -2079 0
1766 793 0
-3439 2159 0
-1168 3602 0
-2989 -4262 0
1614 3679 0
2248 1251 0
-4598 3731 0
1235 -3901 0
3889 2152 0
-690 -4322 0
4368 -4554 0
2279 3997 0
3376 -2393 0
3827 -1481 0
1164 1004 0
-89 3377 0
-1056 -1553 0
2033 -3337 0
3910 2739 0
2717 -1620 0
2053 -4338 0
1296 3182 0
-717 -1381 0
1903 1682 0
3398 -2648 0
-3604 -2327 0
512 982 0
1327 -1560 0
-463 3463 0
4486 -2331 0
2590 1435 0
3504 453 0
2967 1244 0
-3164 -1243 0
538 -663 0
-2562 -4590 0
3108 449 0
-2743 -3054 0
2890 1735 0
-1608 3086 0
352 3318 0
1734 -3813 0
-3850 -4304 0
-487 2135 0
-3387 -1302 0
1278 3518 0
-4614 3470 0
-1577 3843 0
-1623 -4321 0
438 -1843 0
605 -3252 0
3591 -4075 0
-1592 110 0
-1779 -1722 0
-1569 1636 0
-2247 1029 0
1815 630 0
-2713 -1436 0
4087 -2155 0
-2169 1897 0
960 2604 0
179 -3609 0
-2753 -4437 0
-3748 3588 0
-135 -402 0
875 -222 0
465 741 0
-4001 2944 0
-3152 3047 0
2363 -1918 0
-1233 -3213 0
-1015 -1365 0
1967 3736 0
-2048 -502 0
-2861 720 0
771 709 0
-2848 4437 0
4074 3778 0
-4212 -3075 0
-1641 3535 0
3212 -1894 0
531 -2626 0
4114 -2986 0
-579 -3933 0
-4311 1970 0
-1963 -378 0
-2441 2017 0
875 -4095 0
2856 831 0
4546 1410 0
-79 -593 0
3223 4505 0
-3875 -2820 0
2774 3063 0
-1652 250 0
-4605 -2178 0
-3400 1375 0
-1948 -4042 0
1595 -1253 0
2236 2643 0
-1338 3570 0
-2744 1541 0
-4372 -305 0
159 -68 0
-2762 -79 0
-4418 1256 0
-3688 2532 0
3761 -755 0
-527 2870 0
3575 4545 0
644 3343 0
2319 4052 0
-2298 -2433 0
-3717 1811 0
3974 -1342 0
-1370 3353 0
-1899 2355 0
-319 -2356 0
726 -1709 0
455 1612 0
3503 -3776 0
2687 677 0
3733 2719 0
-3548 233 0
-2680 -3062 0
3928 224 0
-604 -3225 0
4432 -2657 0
3051 -2347 0
-3176 -4567 0
-1323 668 0
-4112 -1008 0
-2281 1420 0
3995 1510 0
-3513 -3000 0
4281 -4499 0
-2648 3971 0
3226 3537 0
3985 1529 0
2495 1906 0
753 -2239 0
1674 -200 0
2563 309 0
2844 -825 0
-4117 -1347 0
-1999 -3446 0
55 -3352 0
-1022 -2278 0
-2253 -1746 0
-3583 -473 0
2962 -2333 0
4333 415 0
-4467 -3346 0
2911 -1046 0
-202 -1412 0
4293 -3167 0
-676 -461 0
-624 2671 0
2840 2129 0
3702 980 0
-1697 279 0
2335 1256 0
-4256 -2155 0
3305 3705 0
2982 -1726 0
-963 -1266 0
-2840 -4455 0
-681 4178 0
-3937 -3665 0
23 2329 0
1278 -2040 0
-223 3095 0
1891 2459 0
875 3362 0
-2490 -463 0
491 -1891 0
3212 -3494 0
-2240 382 0
763 4191 0
-660 -2061 0
2320 -2411 0
-77 -2755 0
3057 441 0
-786 4563 0
1988 4331 0
4550 839 0
176 -2436 0
-3521 -1548 0
-326 2234 0
-1597 -4615 0
-3910 1718 0
-3041 2088 0
2210 3825 0
-2584 -3624 0
3777 -3622 0
-3890 735 0
1514 -3930 0
-3118 -2327 0
1192 4599 0
-2560 -1645 0
2217 -3763 0
3856 189 0
-1096 1450 0
-1558 4333 0
4073 281 0
-3265 -1480 0
-2411 -2313 0
-4090 -2171 0
-3081 -3312 0
2274 -3721 0
-1262 -4004 0
1390 2243 0
3735 2836 0
-2519 -3568 0
2542 893 0
2004 1173 0
3405 599 0
2890 -1449 0
141 -3999 0
2781 -3771 0
2551 1458 0
544 -3842 0
110 -3674 0
568 1472 0
-2730 1502 0
-799 -791 0
-1981 3016 0
2383 2925 0
4543 -3399 0
-2980 3839 0
-147 747 0
2010 -2553 0
1075 784 0
356 -1492 0
-3457 886 0
3256 -182 0
-3924 661 0
2884 3519 0
3274 -1492 0
2939 -1551 0
3941 3357 0
2295 -1147 0
2549 -2706 0
-241 -1506 0
3300 -2989 0
-2626 2584 0
4448 -120 0
-287 826 0
-287 3523 0
3305 -1633 0
3732 1703 0
-254 724 0
-1355 1166 0
-1220 -3232 0
3878 -3748 0
-1328 2170 0
607 1595 0
1382 883 0
-3036 2312 0
-206 1414 0
1159 4516 0
-3886 -1355 0
-2303 -3009 0
1706 2366 0
-3646 -4540 0
2496 1703 0
466 -1047 0
2848 -3899 0
-3747 -4510 0
-2354 3500 0
915 -163 0
-3319 1407 0
759 1918 0
-3504 2746 0
-3880 3176 0
-3870 3331 0
3098 -3031 0
-1942 -1745 0
3840 652 0
1058 3633 0
-2516 2503 0
812 3509 0
4016 -1909 0
1645 -2973 0
-3232 1754 0
93 -3957 0
2388 -2083 0
1266 1152 0
1431 2094 0
2111 -2654 0
-3140 2600 0
-3003 3063 0
327 4120 0
3585 -3496 0
4436 -1352 0
-2054 3432 0
-2182 -3160 0
1131 1639 0
3941 2257 0
-49 3558 0
2669 3390 0
-3110 3865 0
-2030 937 0
-2040 -3742 0
-2183 -1170 0
-536 -2699 0
-3514 -208 0
-3696 -1140 0
-4274 4014 0
-1220 -1049 0
3327 -1984 0
2262 1782 0
1495 -508 0
-1117 -2559 0
-4105 -317 0
-4471 -3695 0
-3032 1072 0
-2474 971 0
2691 2584 0
5 2719 0
742 2581 0
-800 -142 0
-3192 2217 0
2786 -1784 0
-1478 3472 0
1666 -125 0
-4355 -206 0
-1512 -1641 0
989 -424 0
4553 2857 0
-3158 -1014 0
-3172 -3226 0
-1623 66 0
2130 4157 0
1051 -1441 0
-1535 4090 0
1272 -2127 0
2504 2558 0
-2261 -950 0
-1022 921 0
-116 1704 0
2625 3932 0
-116 3558 0
-2239 -365 0
101 4538 0
1277 -1406 0
-357 -939 0
3998 -1698 0
-1366 1872 0
-996 4350 0
-970 628 0
1791 1597 0
3145 -4454 0
-3244 -1292 0
-2206 -1007 0
-2744 -593 0
-1935 -2607 0
-1708 -3853 0
1543 3619 0
-4615 -557 0
4193 643 0
-445 2309 0
2024 -2863 0
2131 -2683 0
3097 980 0
3138 -3694 0
3945 -2051 0
-3792 -484 0
1700 -3373 0
-541 3452 0
-4581 2601 0
4145 1698 0
-3028 2355 0
3285 -4012 0
-3404 2160 0
-3455 179 0
2136 3989 0
-4130 2072 0
-4489 110 0
4283 -3320 0
3060 -711 0
-2230 2221 0
2937 -330 0
-2531 -1955 0
-348 2850 0
3888 3431 0
3092 3113 0
2163 -625 0
353 1344 0
-1871 607 0
-2826 -1518 0
581 72 0
-17 3896 0
4442 -3598 0
2688 2324 0
-53 -246 0
-2339 -2022 0
1334 -1260 0
2243 -4490 0
-3514 3590 0
2093 2395 0
1958 3202 0
-2695 3227 0
-4470 2004 0
2198 -738 0
-3159 1410 0
3660 -4479 0
-1465 -2698 0
-2947 -4231 0
-1519 4246 0
-3478 220 0
2639 -3772 0
-2641 3798 0
978 -4047 0
3456 2898 0
502 -4171 0
-1661 -3155 0
-3448 2270 0
-2034 1593 0
1598 1007 0
-3077 2008 0
1064 -1731 0
358 -2684 0
-3054 654 0
184 -1163 0
1885 439 0
-2273 1751 0
-157 -3036 0
849 -3988 0
-2909 416 0
2989 1518 0
2504 2927 0
-4443 -1128 0
-4261 -1505 0
1602 630 0
-413 2723 0
-808 -2309 0
-2717 -2921 0
1794 1287 0
-4078 -1689 0
3827 -2873 0
3849 -3689 0
1005 -2816 0
2110 527 0
-1830 2642 0
-4020 -4505 0
-2057 -687 0
416 -923 0
-3099 -3442 0
-1001 -4316 0
-789 -1435 0
1844 2855 0
-3161 1719 0
-454 -704 0
3177 -1555 0
-3213 1397 0
-4427 -2146 0
-1828 -3449 0
1670 1426 0
-2947 -3745 0
2792 3094 0
3994 4079 0
-2411 4169 0
-1806 -277 0
1514 2676 0
-3139 -2571 0
-3273 1908 0
-3291 2385 0
4418 -1175 0
-3336 -1276 0
2990 -371 0
194 -1938 0
1124 2125 0
-1402 -1323 0
-318 -3743 0
4330 -818 0
-2380 3617 0
1848 1117 0
-886 4195 0
1021 3418 0
-890 -3336 0
-4223 -2179 0
2153 2999 0
3152 -2951 0
2078 1834 0
-3222 -1333 0
-3685 -54 0
2596 2816 0
2470 -1943 0
3107 1958 0
1590 1491 0
1198 -2097 0
-3099 4082 0
-3729 -2190 0
878 1369 0
-2580 3516 0
-1444 4233 0
-1465 3127 0
-3742 4446 0
-2048 -9 0
-1519 4532 0
4331 786 0
2462 -1726 0
-526 -1220 0
851 2957 0
3456 -4536 0
4447 -994 0
-2039 -772 0
-113 -4445 0
4543 -2006 0
-4163 -3810 0
3258 343 0
-4301 323 0
-176 -27 0
-1925 -2639 0
-56 1465 0
2114 2831 0
-2796 -442 0
2451 278 0
-832 684 0
642 -633 0
2923 -2416 0
-2798 154 0
-525 -1128 0
2119 -896 0
-2132 4180 0
-431 608 0
4604 3867 0
1846 -1040 0
2821 1657 0
1378 3216 0
-3509 -1819 0
-618 -1032 0
1892 -2327 0
190 -71 0
-191 1932 0
-1122 -3422 0
-4306 -3722 0
-943 1849 0
-3904 -4143 0
-4452 -3861 0
4631 -2589 0
-2737 718 0
-2331 -3240 0
-2432 3481 0
2825 2053 0
496 2565 0
-681 -2829 0
550 834 0
105 1463 0
2503 -3134 0
3783 4609 0
-2157 784 0
-71 2297 0
-4266 2646 0
541 2527 0
-4299 4163 0
603 2119 0
-1020 -4610 0
1201 3569 0
3578 4194 0
-193 -4039 0
-869 4474 0
2906 2675 0
113 961 0
-4569 2146 0
1430 -1293 0
-2514 -813 0
-4474 657 0
1250 3746 0
4594 -468 0
114 -3696 0
-3181 3784 0
4524 -4117 0
-1959 -831 0
-2106 907 0
4411 1359 0
4545 -1579 0
1574 -4362 0
-3505 3975 0
-1317 -4434 0
1121 -956 0
2814 -3632 0
-2144 -2804 0
3382 1974 0
2817 3249 0
2255 1060 0
-728 -2097 0
-3980 2075 0
59 -174 0
3852 -2173 0
783 -3938 0
1996 1111 0
-2383 2885 0
-3793 -3185 0
1840 1293 0
3399 3426 0
-2185 3482 0
-2653 -1587 0
682 1847 0
-3781 4507 0
949 -3832 0
1810 -230 0
1682 471 0
-4598 4389 0
-3837 2471 0
262 4388 0
-2430 -1625 0
-2951 -965 0
3984 -2242 0
-790 579 0
-4348 4237 0
-1009 2265 0
-1071 -4362 0
-346 1041 0
3538 1380 0
2529 2837 0
1289 3856 0
4080 3422 0
-174 3318 0
1208 -3289 0
-3704 -259 0
2201 3508 0
1494 -2376 0
-2109 -703 0
-2756 -3502 0
-2908 875 0
1555 3572 0
-274 3655 0
-3223 2072 0
3458 -23 0
-2366 2881 0
-825 2472 0
2865 -3436 0
-419 2004 0
1020 -1338 0
3755 854 0
3479 1641 0
-989 869 0
941 -1463 0
-2044 -1784 0
-2909 -3890 0
-142 -3399 0
-2050 -4176 0
3183 -4596 0
1756 -195 0
-3907 3235 0
1228 -2463 0
2973 1857 0
2140 -3280 0
-2794 -1801 0
-4290 2309 0
-151 -3044 0
-1871 33 0
-4522 2673 0
4447 1662 0
-597 -3478 0
1821 4442 0
-3497 749 0
-561 -1390 0
661 -3494 0
-3048 477 0
-1364 2687 0
91 2441 0
-2434 838 0
-2254 -1217 0
4109 -2025 0
3372 1609 0
3486 4490 0
3804 2969 0
-2727 588 0
-2624 3202 0
-3821 4249 0
-2184 4531 0
3268 3686 0
-4446 2816 0
-2832 -3674 0
2937 4023 0
-1529 -86 0
3216 503 0
1039 3442 0
-1078 -2738 0
-1752 -969 0
-2065 3310 0
1328 4399 0
-2137 -252 0
1810 378 0
-631 -1941 0
385 -3866 0
-3194 1369 0
2364 3386 0
1665 -3010 0
-314 -1409 0
3194 -2337 0
3748 -3573 0
-4063 -3240 0
-1067 -209 0
1761 -890 0
1559 -20 0
-21 -1682 0
-2104 1262 0
2675 -3733 0
-2436 1527 0
-2587 3768 0
2691 2615 0
-2280 -419 0
-3589 3361 0
-4531 1458 0
-1429 3546 0
857 -983 0
-1601 798 0
249 1921 0
-4597 1895 0
-636 -150 0
1552 2083 0
-39 587 0
1788 -3783 0
2529 -1051 0
-1223 -1247 0
-930 -3111 0
-3723 -79 0
3988 1656 0
3219 390 0
-4496 3541 0
-633 3825 0
-2127 2590 0
2116 4007 0
1453 -1056 0
-4063 3503 0
-1428 -4471 0
-4275 1495 0
4002 -4053 0
3874 1 0
-1316 550 0
-1470 980 0
143 79 0
3625 -3375 0
-1800 -745 0
1823 -3950 0
-1707 843 0
-1017 -3432 0
3738 -1847 0
-1178 1161 0
3068 3431 0
-85 1023 0
862 -1378 0
-3802 -3683 0
-4484 914 0
3665 -1551 0
-4197 -1062 0
232 1373 0
152 -216 0
-3060 4254 0
-597 3457 0
-586 1653 0
-1931 -2061 0
-1956 -255 0
-1155 -1255 0
2771 2595 0
-3891 3137 0
-2973 1327 0
-763 3281 0
-2342 4395 0
-2631 -1099 0
1779 1539 0
-1989 1745 0
304 -578 0
-1324 -3385 0
1395 -24 0
3366 3718 0
1078 -478 0
1240 2318 0
1181 430 0
850 -272 0
2530 -2109 0
-4400 -1470 0
-3543 -3948 0
3580 3443 0
-3861 2707 0
-239 1913 0
-4258 -83 0
-4537 3822 0
3922 -3720 0
-3688 -1754 0
3767 771 0
-129 -1282 0
1411 -393 0
4072 3540 0
-4521 3673 0
-3474 -1579 0
3811 683 0
3010 4496 0
-2502 4431 0
-4 -4380 0
4414 -1400 0
-1667 2667 0
-2060 2635 0
743 -1147 0
707 2335 0
-1128 -3359 0
-4075 3889 0
-1770 -178 0
382 2979 0
1866 2526 0
1458 -2104 0
-2403 1892 0
243 -658 0
-3300 -1570 0
-1025 -1406 0
1416 -3977 0
-3784 -4475 0
-2863 1787 0
3410 -274 0
1327 1891 0
4000 2815 0
2350 1407 0
-3433 3322 0
-1008 -925 0
2691 -1009 0
1699 968 0
2153 4449 0
3466 3979 0
-38 -2259 0
3657 483 0
-1586 -4031 0
-2141 1306 0
-4140 -524 0
3827 -2335 0
3382 -78 0
1347 640 0
-716 -1737 0
3093 -3412 0
-1286 -443 0
-2062 -584 0
-2176 2789 0
80 -3230 0
-72 -3513 0
288 -384 0
-664 1254 0
-1661 -206 0
4311 1241 0
3308 -4374 0
1987 -3717 0
-1734 -3926 0
390 -1623 0
-1321 -2535 0
1495 -2488 0
1741 1679 0
1497 -859 0
-4602 2485 0
-2625 -3239 0
-3145 1399 0
470 1262 0
-3614 -1180 0
-3622 -3647 0
-209 1224 0
-2823 2499 0
2054 2492 0
2335 1766 0
2922 2179 0
-2384 4446 0
-4597 -2641 0
2734 -593 0
3859 3815 0
-710 -4345 0
1791 -4526 0
-3309 -4581 0
2119 701 0
-3925 -1824 0
-1611 574 0
1675 -304 0
-2617 -2848 0
-521 4094 0
555 -2984 0
-2332 4170 0
1817 -1146 0
3656 2027 0
2107 -3404 0
4560 -4620 0
2003 863 0
-2050 688 0
2574 -3098 0
2700 -2657 0
4299 -3315 0
1194 1322 0
2247 -3783 0
-2570 -4490 0
-4006 -4489 0
-3287 4401 0
-3104 -4262 0
3456 3994 0
-1523 -4290 0
498 2973 0
-3041 -4378 0
167 -1789 0
2334 4377 0
-3587 -3860 0
-4208 2265 0
2128 -3890 0
885 -1717 0
1334 3741 0
3853 -571 0
1310 -3171 0
-1851 2966 0
-1524 -817 0
-2332 -3244 0
-4287 -2558 0
3955 -3407 0
1271 3148 0
-1435 665 0
-1053 1011 0
-2623 -4341 0
2130 -1063 0
-2669 -3268 0
369 -2182 0
4148 -3139 0
2588 313 0
-2636 12 0
355 2321 0
776 -3033 0
2160 -2694 0
-3764 2849 0
886 2869 0
3132 2094 0
-2669 2883 0
1966 -3881 0
669 255 0
1287 4168 0
3537 4050 0
-2372 282 0
365 -1972 0
-2871 4025 0
-982 -3709 0
-1642 1657 0
2135 -2047 0
-1265 -4598 0
-982 -2909 0
1524 3884 0
-3894 833 0
-3654 -2352 0
-2066 3839 0
-3349 2407 0
-4003 167 0
-484 4420 0
-639 3848 0
4576 3688 0
3541 -2065 0
3764 3465 0
1301 4179 0
-1969 -1093 0
-567 -1722 0
1741 -3988 0
-132 2050 0
315 -322 0
278 2087 0
1974 4062 0
2624 -3562 0
-67 -823 0
2292 -877 0
4146 -4340 0
-1428 1137 0
2423 980 0
-3128 839 0
2146 -103 0
733 2262 0
50 3137 0
-1284 2784 0
173 3502 0
-3816 -3188 0
4586 -210 0
-2020 186 0
1378 3802 0
-637 2713 0
4194 3 0
1293 3890 0
-2652 2724 0
37 -174 0
967 -2621 0
1967 1056 0
1943 -3526 0
-2731 3595 0
-3203 -3156 0
-3619 -676 0
-24 -3386 0
1454 -882 0
-472 2452 0
-264 -2920 0
2162 2649 0
-195 2951 0
2069 1149 0
-2293 -1285 0
711 -1661 0
2931 2252 0
3183 4329 0
700 287 0
1875 1446 0
3068 3584 0
-579 2120 0
2447 2209 0
-606 -3912 0
2848 719 0
-2286 4526 0
680 -4132 0
-3708 -1957 0
3965 -1559 0
3293 4512 0
3773 2465 0
-3650 1474 0
-4340 -4204 0
1631 -1695 0
-2959 -2634 0
-3023 1926 0
2983 2743 0
1241 1456 0
4438 -636 0
-1073 4536 0
3189 -4614 0
2834 152 0
-3351 678 0
-222 1007 0
-191 1221 0
-2970 -698 0
-1244 -4456 0
-561 -422 0
-2177 339 0
-3756 -4363 0
630 -4265 0
4366 -3258 0
-1874 -182 0
31 448 0
-4313 -2908 0
2495 -1693 0
-1609 3091 0
2580 1525 0
-1537 2008 0
-1825 933 0
4275 -1761 0
150 -2303 0
2417 -3796 0
3580 -2491 0
2785 -3010 0
1959 3077 0
-3786 -2225 0
2282 501 0
-2400 -2523 0
-1746 -3909 0
518 1770 0
2588 260 0
1880 -841 0
-2470 -961 0
3686 4091 0
3795 -423 0
-3447 -764 0
4544 2580 0
-1567 -3103 0
557 -2917 0
3631 -233 0
3891 -3429 0
-2876 1260 0
548 4158 0
-3401 3462 0
-4176 691 0
-4243 -393 0
-1173 2023 0
4487 3342 0
24 -2863 0
-1648 -820 0
1260 283 0
-4024 2923 0
2458 4396 0
291 1798 0
3385 -3336 0
1413 1274 0
1972 1075 0
-404 4484 0
2720 4071 0
-132 4541 0
-210 2058 0
4457 1660 0
-996 501 0
1 3648 0
2010 -703 0
1062 -837 0
1892 986 0
2711 773 0
4346 -3801 0
-4550 480 0
3315 4626 0
1744 -1757 0
53 2939 0
-3213 -4024 0
3968 -1108 0
1590 645 0
-1636 2215 0
-4396 2460 0
3295 -1649 0
-1753 167 0
1420 -4005 0
-2324 4311 0
-269 -271 0
-3775 1634 0
2889 -1671 0
2897 -1111 0
-3487 -3558 0
-3396 -2479 0
-4076 -3745 0
-4394 -3847 0
1296 -1609 0
-3345 -96 0
2542 -3205 0
-168 -1433 0
-285 1096 0
1102 4557 0
2512 -3260 0
-4058 -2356 0
-1111 -518 0
-943 -2085 0
-4062 3597 0
-2157 -2744 0
-4240 3422 0
1775 -1590 0
2949 -4160 0
-2809 -4373 0
355 -2603 0
958 4189 0
-2028 -3412 0
-3235 2386 0
2217 -322 0
315 608 0
3430 -1784 0
-1845 -2401 0
-2241 3486 0
3549 2422 0
282 171 0
-3498 -2245 0
2311 587 0
-2204 2295 0
1091 4062 0
-778 -4148 0
-3352 3456 0
-1292 3341 0
-2750 4130 0
-4140 -2435 0
3854 -2070 0
-2970 -3662 0
4556 -2775 0
452 -2772 0
264 -2088 0
-4578 1082 0
1568 -2822 0
2882 -2725 0
1847 4079 0
-2370 2575 0
327 2281 0
-3117 2735 0
-388 -1700 0
-465 2108 0
-796 -2384 0
4007 -3473 0
2363 -1308 0
-467 -57 0
-1147 2867 0
-1753 -1607 0
2258 858 0
190 1671 0
-3395 -1713 0
-3226 -1253 0
-4307 610 0
3667 -3980 0
1287 3085 0
1527 -2864 0
-1181 -417 0
-1234 3799 0
-33 670 0
263 4520 0
466 3888 0
720 3926 0
-61 3686 0
3431 -2809 0
1011 584 0
2060 1767 0
1715 -4616 0
-3084 1127 0
-763 70 0
294 -587 0
-1236 4442 0
-1592 1347 0
-815 4010 0
-2558 3735 0
3052 3717 0
-4405 -646 0
74 316 0
-2392 2719 0
3994 4314 0
3450 -1781 0
3285 -1009 0
2939 1631 0
-1102 -250 0
493 3570 0
-1777 345 0
2941 3129 0
3023 1705 0
3319 -1512 0
-2521 892 0
4513 2289 0
-1724 822 0
-2121 -1956 0
-3296 4453 0
-2126 2544 0
-794 2557 0
641 -4428 0
1735 -3162 0
-4286 3440 0
-1811 -2951 0
3846 2039 0
3473 -2854 0
-148 1844 0
-1500 1915 0
3277 973 0
3111 -4417 0
-4617 -3010 0
-1596 3332 0
-273 1401 0
-2745 2330 0
-1888 -2732 0
-3934 -4101 0
-3070 -1276 0
2260 1049 0
-2779 -2870 0
3741 2417 0
1487 -1145 0
1835 1404 0
4550 3949 0
2072 2534 0
4285 -1368 0
2997 2512 0
3798 4022 0
-1632 -879 0
-1289 87 0
-2145 4246 0
1898 1114 0
195 -2101 0
629 1818 0
-3988 -3893 0
-1040 -3711 0
-360 -1013 0
-685 909 0
1038 -3929 0
-2898 2485 0
-3514 422 0
998 2109 0
-2728 -565 0
-736 -4292 0
-1050 -1991 0
3686 -754 0
581 -1572 0
4268 -1207 0
2326 -3863 0
-3266 -687 0
-425 2300 0
-4102 -3008 0
784 1818 0
1453 3678 0
-1488 -715 0
-2815 4148 0
-1443 -414 0
2514 -4123 0
3081 -2647 0
-3471 3416 0
-112 2165 0
-4220 110 0
-469 549 0
-3514 2567 0
3979 535 0
3475 -4033 0
-1990 3281 0
-2703 127 0
-1400 -3336 0
2320 -3015 0
-1177 -1334 0
-1821 2185 0
4179 1394 0
1915 2621 0
-1395 -4070 0
1569 -2051 0
4380 3460 0
-1022 1510 0
-3003 1247 0
-3423 328 0
-582 1250 0
1324 -255 0
-1221 3430 0
-543 498 0
-3904 4623 0
-3404 3096 0
-3226 -4318 0
-552 1694 0
-232 -3917 0
-952 -3837 0
3426 2321 0
3524 -976 0
800 -3407 0
4524 856 0
3718 3199 0
-902 3979 0
-4476 1411 0
354 -3953 0
-1172 2735 0
2557 2661 0
-4422 3803 0
302 -4445 0
1508 91 0
-865 -1889 0
-4289 2947 0
3017 -3034 0
1527 2322 0
3815 2830 0
4517 3730 0
-3517 -18 0
-1492 3748 0
-1 -2413 0
466 496 0
1700 -2705 0
-2994 -2290 0
-1070 4478 0
1353 -3279 0
-3871 1927 0
-3978 -2056 0
-3940 2661 0
1586 -2425 0
-2381 -295 0
2625 -120 0
765 -1877 0
-3827 -3525 0
-1793 3746 0
67 659 0
-2805 316 0
418 -2152 0
1852 -1284 0
-1881 3923 0
2124 394 0
-1135 -1671 0
-3133 159 0
1386 -2755 0
-1601 -664 0
-4197 2892 0
-3257 2722 0
3169 2815 0
-1998 3547 0
-3753 -2329 0
3251 4347 0
-27 495 0
-1148 4453 0
738 -1187 0
-1644 -4304 0
-4300 -4286 0
3704 -155 0
198 2183 0
-3885 4625 0
-17 -2564 0
1701 -406 0
1443 290 0
-4328 1906 0
2481 -4161 0
4616 -2721 0
456 -3103 0
-2620 161 0
-2248 -4561 0
-2892 -4310 0
-3589 4004 0
-2698 -2537 0
3829 4456 0
-3168 -1469 0
-4090 -2039 0
267 2635 0
342 -456 0
-2743 -1452 0
2608 1841 0
214 -1330 0
941 4053 0
3280 -3141 0
3193 693 0
888 777 0
3820 -3558 0
4594 4216 0
-3147 556 0
3626 2484 0
733 -1537 0
2162 -209 0
3938 2407 0
-1243 -2551 0
-3089 1864 0
-233 1193 0
4262 -301 0
1027 -4601 0
1534 -4203 0
3967 2226 0
-2159 -4568 0
-3467 -1696 0
2291 -1607 0
932 -4528 0
-2234 4546 0
126 -785 0
4239 3244 0
-1222 937 0
-4632 3642 0
-2254 827 0
-3275 -2427 0
-386 3387 0
3308 -967 0
3746 1426 0
-1936 1792 0
312 2045 0
1245 -3107 0
-2607 -3832 0
-4513 -2109 0
1763 -4162 0
2867 3095 0
1099 -3337 0
-2623 3971 0
3533 2366 0
3080 -938 0
1035 -3489 0
-3582 -1349 0
-4557 -2083 0
2865 -2849 0
-1523 -4297 0
-1506 4624 0
80 3665 0
-733 4296 0
3022 -4558 0
4308 -2901 0
-738 -938 0
-3991 870 0
149 -12 0
4484 -1945 0
-2936 3795 0
-4207 -829 0
-2453 2236 0
-877 1086 0
3488 -1055 0
-2714 -4192 0
-2866 1455 0
2749 -1111 0
-3544 -795 0
-139 -1999 0
2149 -3244 0
-3456 -2433 0
2916 -1633 0
-1542 -2168 0
1382 -4570 0
-2315 -3532 0
-3603 -3657 0
-3850 2974 0
-3978 -2780 0
708 504 0
644 3451 0
1308 3463 0
3575 -4560 0
4074 -1172 0
-438 -1576 0
-542 -4182 0
-822 1792 0
-3776 -1481 0
720 -1071 0
-2274 -1886 0
-216 -1482 0
1924 637 0
1378 -4164 0
-4142 1480 0
-3328 700 0
-1338 -1534 0
3755 1844 0
4510 599 0
-2341 -210 0
2396 -4149 0
1874 3533 0
-1071 210 0
-536 -4019 0
212 964 0
4145 2783 0
-2332 -2602 0
-3006 -3810 0
1945 -2959 0
-4065 1423 0
2496 -3173 0
3273 -1897 0
1044 4109 0
1372 -588 0
-1731 1488 0
-1093 2194 0
4044 3918 0
3360 -636 0
-1853 2799 0
-897 3177 0
-2005 626 0
4 1442 0
-1625 -653 0
-3750 3742 0
-1512 -3412 0
839 -1906 0
1680 -1662 0
426 -1346 0
1420 -2218 0
161 -1325 0
-3935 -2082 0
1871 3584 0
3791 269 0
3408 1398 0
3965 2209 0
3531 4628 0
2473 3233 0
2983 -516 0
1524 3846 0
-3995 -1164 0
124 1509 0
-2987 -3572 0
2361 2791 0
-3259 -1736 0
-1632 787 0
-3580 3186 0
1510 2319 0
-451 -1982 0
-2909 3809 0
-4287 -3471 0
2479 -2982 0
-4343 2873 0
-885 1299 0
-2650 -78 0
-4591 1185 0
-3035 1045 0
1761 -589 0
1750 -1734 0
1794 -2614 0
-2657 3411 0
-2181 1643 0
3394 2831 0
-2813 -334 0
534 -3402 0
-2735 496 0
-4263 -1475 0
928 -89 0
-3316 -4096 0
-4571 1084 0
-4120 2515 0
-2717 4449 0
-1155 312 0
-2011 -2709 0
-2297 -663 0
-174 3256 0
-3944 -704 0
2753 4267 0
3007 -3801 0
-1103 -796 0
3945 1048 0
569 3739 0
-1465 3461 0
-224 -2804 0
-1941 2537 0
1313 1084 0
-1028 -67 0
-2382 1504 0
-1056 4391 0
1153 4622 0
3810 1577 0
218 -425 0
-390 1430 0
-2399 3283 0
1037 3552 0
2806 367 0
509 4038 0
3994 2528 0
3637 529 0
3246 -1419 0
-108 -896 0
-3032 3741 0
-2769 -58 0
3698 677 0
3007 3838 0
3140 4464 0
3651 3642 0
3088 1277 0
-3562 -1159 0
918 4474 0
-3081 1280 0
-161 498 0
4307 -4224 0
-3484 -2641 0
-1894 2060 0
1775 1715 0
-1573 2099 0
1552 -3521 0
1989 -1830 0
-1338 -3455 0
2904 -4085 0
3018 124 0
-1663 2641 0
-4319 3297 0
-2089 -3226 0
4080 -1245 0
-938 1296 0
-1816 -1738 0
-1751 -1788 0
1719 -3904 0
-3771 2236 0
1328 -4430 0
2 938 0
4249 -2203 0
-3405 -494 0
-226 659 0
-494 -3917 0
-3105 4044 0
908 -2542 0
1081 3915 0
2369 434 0
353 3362 0
899 1450 0
-4047 2160 0
-1143 2886 0
2137 2203 0
1511 -2196 0
-2487 -843 0
2137 -2825 0
418 4617 0
2431 5 0
166 -808 0
-19 4314 0
-2104 4545 0
-1565 2231 0
4561 -3151 0
-791 1747 0
1081 -503 0
3643 1463 0
-2340 3757 0
-3353 -3205 0
2156 1792 0
-4307 -2545 0
-2604 3245 0
719 -2670 0
115 2174 0
3491 4345 0
886 -2189 0
278 -766 0
-2612 2879 0
1401 2346 0
4333 -3015 0
-292 245 0
1562 -4429 0
2864 4344 0
2126 -21 0
-4204 2446 0
-3429 1007 0
2407 -2185 0
2155 -3224 0
-2509 706 0
3945 -789 0
3388 -1432 0
-3994 4630 0
-2825 4535 0
-629 3482 0
3512 3689 0
1004 -3576 0
3126 3533 0
6 780 0
-334 2040 0
784 -3211 0
-1948 -1213 0
416 -3817 0
73 -666 0
-2266 4254 0
1831 -2379 0
1730 1539 0
-2365 1691 0
-1316 1367 0
655 -2292 0
-835 1369 0
-1114 -1962 0
1129 3152 0
1979 3964 0
-617 1384 0
1698 -2624 0
2763 199 0
570 -944 0
-1126 -3099 0
3920 1335 0
-67 -4144 0
3387 -3557 0
1199 -4537 0
677 3396 0
-4578 1953 0
2502 938 0
-1771 243 0
3053 1918 0
670 1137 0
4022 -2648 0
3828 -2179 0
1328 -2996 0
-1725 1372 0
138 -4120 0
3524 -2863 0
407 -1927 0
3622 -2826 0
-4553 -1222 0
-3852 -1481 0
-2742 839 0
4414 -125 0
-1642 1176 0
369 3268 0
1492 729 0
3094 -502 0
3944 3883 0
588 -1949 0
1225 -1575 0
-3039 -4353 0
-3752 -3397 0
1968 -3336 0
4336 598 0
2696 -717 0
1973 2542 0
4090 2058 0
1577 2974 0
-1246 -975 0
-4592 2227 0
2965 4572 0
-2531 1612 0
1403 -786 0
-3431 2864 0
2838 3739 0
2498 740 0
-986 3857 0
-3445 -256 0
-2747 -3273 0
-3171 -1453 0
4394 -125 0
3731 4296 0
-3248 -3240 0
2149 2393 0
354 2099 0
1592 3851 0
-2987 -1869 0
-3776 4115 0
-1124 -1004 0
2362 -3397 0
849 136 0
3432 -3094 0
2973 3033 0
-4011 -4082 0
-2993 4222 0
-187 -1956 0
-231 2124 0
3162 1816 0
1952 2249 0
-118 -2324 0
2491 -2859 0
659 -3619 0
3391 2582 0
242 -868 0
93 2604 0
3358 -1762 0
-1102 -4328 0
135 -1523 0
-1191 -173 0
-1800 261 0
1065 -1833 0
27 -4171 0
1597 -1350 0
-3935 -500 0
-2641 -1127 0
914 -3964 0
-3196 -750 0
3678 -3366 0
2966 376 0
-3059 -3571 0
-716 -2593 0
342 1446 0
2362 -1113 0
315 4446 0
229 2403 0
659 -3131 0
1601 429 0
649 2656 0
611 1133 0
-2128 -1752 0
-944 -713 0
3679 1697 0
-1049 -212 0
-3217 -1076 0
1595 -791 0
2339 682 0
-3581 2791 0
-3977 -1145 0
-4466 760 0
606 -1259 0
2163 -337 0
729 -2138 0
172 3536 0
2839 -3169 0
-3986 -688 0
579 -3563 0
-144 104 0
-3774 -1632 0
3820 -254 0
-1106 -4338 0
-589 -3582 0
4387 -2790 0
-3610 -3104 0
1794 -3035 0
-2722 -1066 0
-3666 3057 0
4583 -32 0
417 -972 0
-193 -4392 0
2574 99 0
-3205 229 0
-3786 4081 0
-1869 -4207 0
-1053 2908 0
-865 1079 0
2546 1002 0
4297 3719 0
-490 -3993 0
4110 250 0
1793 -4355 0
-4249 -3988 0
-1463 4276 0
3783 2296 0
-3299 2236 0
1455 670 0
-46 2929 0
-4262 -1786 0
4578 3967 0
-2905 -3112 0
-621 -3037 0
-3032 -2407 0
-3280 -3604 0
-4274 3918 0
803 234 0
3270 1711 0
-3862 698 0
1313 -2934 0
-3510 -1021 0
-1491 4226 0
-707 2371 0
-2340 -2703 0
-766 -805 0
-4160 -4162 0
903 -830 0
-3235 -3980 0
2482 -310 0
1660 -1592 0
-1752 1669 0
-1891 1472 0
1069 -1618 0
3365 472 0
-2951 -4616 0
-2410 706 0
-3516 -287 0
-1413 -2448 0
4350 -2662 0
-983 3790 0
-1850 -4124 0
327 -3616 0
-3920 -805 0
388 -3462 0
-653 1101 0
-2620 -1228 0
3612 1030 0
-3303 1000 0
4050 -3720 0
-164 3851 0
3042 2015 0
-2959 -3460 0
5 -623 0
1842 2523 0
-439 -3982 0
1808 -320 0
-1090 1234 0
725 -3589 0
3571 2656 0
-3617 -3483 0
-4192 -4609 0
-2636 2633 0
1167 -3677 0
1068 -439 0
196 -2331 0
-3857 -4625 0
-4140 2953 0
-3367 3127 0
-1108 4630 0
-2544 -3895 0
-1942 -1138 0
-1004 980 0
-794 -3300 0
-2046 660 0
-2285 3098 0
3560 310 0
1274 4200 0
38 -3909 0
1989 -2111 0
-379 1079 0
-126 2886 0
-3100 4526 0
531 -3384 0
-4171 4009 0
1709 -128 0
-1560 510 0
-1754 -4250 0
4080 -4305 0
2 1947 0
3090 -2015 0
3661 1273 0
3158 -2700 0
-3008 -2229 0
-2651 -1404 0
1374 1044 0
110 -3916 0
2964 -1508 0
-2477 2202 0
307 4564 0
3132 1183 0
-435 83 0
-3415 -736 0
-4277 1432 0
2942 -1229 0
2416 4074 0
433 359 0
-2297 -332 0
3407 -655 0
3578 -1107 0
835 1875 0
3128 -2298 0
-1560 2766 0
2913 1688 0
-1840 3794 0
3682 -2665 0
2991 -1594 0
4241 -4538 0
2981 3073 0
1796 2918 0
-4066 -4190 0
2761 -541 0
934 -511 0
1814 58 0
-3501 3080 0
4241 659 0
125 -2226 0
4539 603 0
1975 1360 0
4280 -2593 0
-1997 1823 0
-2475 -4341 0
-2742 1841 0
-516 -1229 0
-1264 -2865 0
2310 -1011 0
-4323 -174 0
4064 2472 0
4140 4520 0
-3103 -442 0
4252 1303 0
-1838 834 0
-2859 -956 0
-554 1499 0
-3257 3078 0
-1874 -263 0
-4075 -4012 0
-3924 -3754 0
-2825 2768 0
-12 986 0
2999 -3071 0
-387 2849 0
-4057 -4558 0
-4302 3004 0
1069 4314 0
-2992 -4108 0
-4137 3519 0
-3287 -1214 0
3676 4564 0
-4400 -3469 0
1192 2799 0
3994 1583 0
2221 218 0
3969 2958 0
-1111 -2412 0
1852 -1779 0
-3399 -1376 0
-993 -2269 0
3881 3150 0
2808 -292 0
-1836 -3922 0
-3514 2073 0
-2109 3508 0
-2659 -3883 0
2605 5 0
416 503 0
4005 -4215 0
-2959 1139 0
-2994 -3844 0
1843 3362 0
3524 2042 0
2553 -3977 0
-3544 -1169 0
-2345 -122 0
3257 283 0
1893 3962 0
4115 -3145 0
-2142 -738 0
215 -1906 0
2100 -4301 0
525 4013 0
2503 3732 0
4413 -4104 0
-2478 -1825 0
1241 -1646 0
-4494 -717 0
2383 4171 0
-3680 2458 0
-314 -4316 0
-832 429 0
-1462 -3469 0
-1857 4133 0
-1986 -2381 0
-1606 2890 0
3650 1527 0
-992 -23 0
3578 3855 0
-3035 4420 0
-3228 3883 0
-4190 -2578 0
-649 4322 0
1161 -2551 0
-232 -677 0
2075 17 0
-4282 2432 0
819 3368 0
-2339 -924 0
1873 -2116 0
-4107 -2357 0
-2555 1647 0
-2826 -85 0
2539 -3799 0
-541 -2954 0
1691 -3517 0
850 -3582 0
2929 3122 0
3989 3996 0
2708 4416 0
-2671 101 0
-2601 2618 0
-4397 -1126 0
-1500 917 0
1051 792 0
-519 4268 0
-1188 -2515 0
-2085 -191 0
1154 -1245 0
2100 -4591 0
-1005 -1894 0
725 -3926 0
-4262 -4130 0
-146 3352 0
-140 -1116 0
-2273 455 0
-2820 3552 0
-2349 2792 0
-754 -2917 0
-3955 -237 0
-623 -895 0
-3298 -3670 0
-1209 -3706 0
3812 -907 0
-2703 2780 0
-1819 -4033 0
3743 3979 0
-3793 -2145 0
-2448 -4185 0
3537 2639 0
-2249 656 0
2569 172 0
-1797 4476 0
1341 -2775 0
-3062 8 0
919 -2096 0
1497 4216 0
-4592 -72 0
1185 634 0
3422 4107 0
-97 -1636 0
-3610 -985 0
2904 -465 0
867 -2029 0
4514 1069 0
3276 -3306 0
3842 2917 0
2819 -2253 0
-122 2067 0
2209 3325 0
-3146 -958 0
-1073 -804 0
2798 253 0
-3862 -197 0
281 -1781 0
-935 -2887 0
2268 -4065 0
-3071 -1384 0
3841 3584 0
-3531 967 0
1153 1698 0
-2489 -3898 0
4267 1841 0
2762 1559 0
3490 -1145 0
-4081 3421 0
-3825 -2293 0
-3170 -4347 0
646 -2009 0
-3222 -2175 0
-1275 2532 0
2449 1927 0
-1397 -94 0
1051 -2411 0
-2855 -673 0
-3784 331 0
375 -202 0
4135 -1203 0
-1998 -949 0
2184 -4144 0
1367 2994 0
-2959 -1785 0
-2273 4525 0
3984 1026 0
-176 -1898 0
2817 -198 0
2471 2556 0
-871 -955 0
3612 -802 0
4329 4067 0
-1799 3380 0
-3497 -3267 0
3299 -623 0
4440 2554 0
243 -2945 0
1219 -2712 0
2974 3051 0
-907 909 0
-3786 1667 0
-3606 1245 0
474 -248 0
-4213 3377 0
-4320 -4519 0
1125 -1795 0
131 -3821 0
1858 -1531 0
-3235 -2172 0
-1740 -4534 0
-1520 -29 0
2520 -1090 0
-4240 -1846 0
-3048 -2457 0
3319 -2659 0
-4619 2468 0
-1516 -550 0
-1178 2465 0
-788 -4242 0
3289 1705 0
-2631 -653 0
1729 123 0
-176 -4159 0
-3273 54 0
2865 4069 0
804 -3265 0
-2624 -1444 0
4064 1460 0
219 3046 0
-2648 -4412 0
3365 -3705 0
-1563 2617 0
3289 3299 0
-2301 -1232 0
3806 -4041 0
1051 -1217 0
173 1829 0
1307 4146 0
2916 4181 0
3989 3833 0
-4272 3439 0
3532 -819 0
-4523 4147 0
-174 -4098 0
-3659 2455 0
-4161 2899 0
-1011 4576 0
4623 2316 0
-4533 -1398 0
4099 3798 0
4275 -379 0
3724 492 0
-1546 -4429 0
-1509 2198 0
2567 -1480 0
-3677 -814 0
2204 1396 0
-4225 2892 0
1707 283 0
-2309 1656 0
3673 1375 0
-400 -1181 0
-3607 -4088 0
-2785 -4307 0
-4076 -1476 0
-151 1061 0
-2322 295 0
2735 3490 0
-1682 -1455 0
-4230 1961 0
-3564 -4313 0
-3352 4298 0
-971 -1181 0
4332 -464 0
224 1176 0
3482 -558 0
-2894 -503 0
-929 2982 0
-1690 4549 0
3561 -319 0
-1667 3151 0
1018 480 0
2069 2520 0
-3902 1200 0
2977 -1521 0
-4425 -1815 0
-4312 3189 0
-3832 -604 0
-2089 -716 0
-2740 1870 0
306 -205 0
1083 1582 0
4543 1126 0
506 4582 0
2736 -2650 0
-3060 1413 0
4364 -791 0
-632 -3024 0
3213 -4037 0
4182 2063 0
3749 3552 0
2994 -1106 0
11 -4516 0
-2931 -2384 0
700 -2320 0
-1000 -1764 0
-2400 3512 0
-2663 2680 0
-3798 3491 0
-2434 -2807 0
-854 -3463 0
2296 3370 0
-1150 2487 0
-1616 145 0
-3457 1184 0
4106 4029 0
-3587 -3070 0
4152 -3384 0
369 925 0
61 -1040 0
4413 -1 0
3079 4557 0
1007 1634 0
3550 -2150 0
-1994 -3819 0
2925 172 0
-164 3022 0
-4331 110 0
-1236 -231 0
103 -3205 0
1651 -1850 0
3761 -330 0
692 -3326 0
4464 -389 0
2116 1555 0
-2169 -2971 0
1384 -3630 0
-3090 -142 0
2592 3524 0
2293 -664 0
-1128 4402 0
459 -1600 0
-3873 -3015 0
3841 -2921 0
3644 1300 0
1598 -2007 0
-2169 4293 0
-1246 -1579 0
-2631 4447 0
-3258 1637 0
-2527 -4137 0
3566 -4248 0
790 1716 0
-2211 2471 0
-3265 3028 0
-834 -2415 0
2939 3992 0
-22 4346 0
-3622 -2679 0
-2604 -54 0
-1846 622 0
-4092 4158 0
-2257 2016 0
-4425 1498 0
-802 2652 0
-2986 -3388 0
-1988 1278 0
3419 -4172 0
1705 937 0
-3619 -3257 0
1846 -3602 0
-3155 1964 0
1728 -4054 0
-354 -75 0
-257 3615 0
-2448 -1749 0
-498 4389 0
2973 -1843 0
4616 -58 0
-698 1955 0
-1537 -2052 0
1588 -3357 0
-4471 -3032 0
-3773 3779 0
-1406 3252 0
-749 3842 0
200 -4301 0
-1325 -1770 0
-3082 -1843 0
1208 -1180 0
628 1312 0
-3270 -1111 0
-1804 -3245 0
-4224 -3764 0
-2313 -4336 0
-1228 -3666 0
385 4567 0
2090 628 0
2654 1021 0
-1962 -3383 0
1378 -3465 0
-4463 1043 0
73 -2235 0
1696 -3134 0
2478 -754 0
838 -194 0
-3025 2426 0
1870 2853 0
-1814 1097 0
1273 2925 0
-3639 -13 0
2545 630 0
-168 -2642 0
1454 165 0
1774 -229 0
-4096 829 0
2941 -3367 0
3748 1328 0
4509 -3453 0
3788 445 0
4271 -3203 0
2507 -2786 0
-2405 2142 0
1498 3136 0
2578 4246 0
-4608 2363 0
-4530 -94 0
-4465 -3147 0
-2509 2813 0
1627 402 0
2319 2024 0
-1217 2720 0
-1100 -833 0
70 1985 0
-1700 4619 0
1545 -1286 0
-4597 1556 0
-2002 -156 0
-3454 3111 0
3627 2397 0
-1771 -1600 0
-1421 3445 0
-966 -2166 0
-2098 -3256 0
2963 807 0
4087 -1233 0
-3238 -1989 0
-126 -2002 0
-2579 -408 0
3815 -1307 0
749 -4373 0
407 665 0
-4627 -755 0
-955 -2433 0
3052 140 0
-139 2640 0
3709 401 0
-3762 -1115 0
2173 4605 0
3418 4478 0
-3747 2322 0
4535 -1945 0
3286 2948 0
-3442 -2108 0
-1574 2076 0
-2933 -2237 0
-4616 1018 0
-2834 4210 0
-2239 2243 0
1988 2474 0
-2408 2838 0
-2951 655 0
-3641 -2891 0
-834 1519 0
-492 -3975 0
-58 978 0
-4202 -3456 0
2581 1407 0
987 -2325 0
-1990 1722 0
-3147 -1623 0
2009 3926 0
1462 2974 0
982 -1019 0
3537 1117 0
-1007 4104 0
-4166 -2905 0
-373 -4018 0
3642 3916 0
-973 4421 0
-775 -951 0
-2980 -774 0
-4028 317 0
552 -3151 0
-1646 192 0
1612 -901 0
-4501 -354 0
2352 -2560 0
-834 3574 0
-1206 3207 0
-1574 2287 0
3693 -4445 0
-2749 4413 0
2981 3726 0
529 4222 0
3220 -478 0
2827 4087 0
-1903 77 0
2088 2691 0
-1661 1876 0
-4479 2683 0
-1346 -71 0
2961 2438 0
-2687 -3375 0
1007 -1503 0
2254 -4577 0
-2815 -263 0
-2004 -2002 0
2964 3238 0
-3359 -4300 0
-52 -164 0
-671 2109 0
-29 -1269 0
-1280 2446 0
-3763 95 0
-1259 4600 0
-4048 -651 0
-1321 453 0
-4145 1672 0
3271 3223 0
2686 1387 0
-1319 -200 0
-1720 2325 0
-1837 -926 0
-2908 -3620 0
3302 4195 0
2590 -4569 0
-3004 4111 0
-1507 2035 0
-2316 -3404 0
3803 382 0
-1159 2242 0
981 1765 0
675 -4364 0
1690 4157 0
-859 1386 0
1708 -1400 0
-1316 4482 0
-3565 1884 0
83 2837 0
-451 -1922 0
1853 2442 0
76 1748 0
-3946 3640 0
3320 3096 0
-4134 -616 0
2507 4194 0
-3239 -2614 0
-1132 -1354 0
-454 -1411 0
1219 4547 0
-3953 342 0
-4598 -770 0
-3563 2136 0
-3310 1258 0
4145 4141 0
841 3243 0
2060 151 0
-1313 3974 0
4100 -3524 0
3297 -1938 0
753 -4403 0
243 -1247 0
-3534 -2751 0
-3251 2074 0
-1591 -1836 0
-2539 462 0
-3719 1885 0
-2347 -845 0
-223 3209 0
3388 -4445 0
-1435 -3797 0
4212 220 0
3438 -1101 0
2536 167 0
383 1437 0
-2380 -3934 0
-2029 3086 0
2830 -4573 0
2581 -827 0
-372 -7 0
-1138 1860 0
-66 4544 0
183 -1451 0
-2002 2525 0
-3351 -17 0
1005 -1242 0
1573 2646 0
-4232 -3066 0
-3937 320 0
3568 -518 0
-4615 -391 0
-725 -3337 0
2672 3481 0
3570 2273 0
-3406 -454 0
1595 456 0
2863 -1945 0
4445 1883 0
1248 -2528 0
1061 4050 0
3820 2156 0
1738 -1629 0
95 -88 0
2114 672 0
-1087 -2198 0
3484 -3040 0
-384 -432 0
895 -255 0
3915 3496 0
2459 -2261 0
97 -3273 0
-1340 -1259 0
4449 4512 0
3300 3842 0
3701 2023 0
-1714 -332 0
-1859 -3136 0
408 409 0
-3320 -4623 0
3391 -484 0
3775 -4376 0
-2001 -200 0
-4034 1332 0
-3683 3327 0
3186 -4243 0
4044 -3950 0
4232 -841 0
3450 -3651 0
-164 398 0
4030 1442 0
-3544 -1608 0
2275 -85 0
-1237 -748 0
-3322 -441 0
-447 499 0
1133 -3032 0
2784 -632 0
3122 2874 0
3848 2547 0
3362 -3213 0
-115 -4184 0
-4415 4615 0
-4519 4357 0
-2600 -135 0
-2422 -1937 0
4374 -2675 0
-3776 3044 0
-4100 1106 0
-3916 597 0
2316 -4221 0
2000 -2182 0
3076 556 0
3931 -1332 0
4474 471 0
3947 -1889 0
1655 4459 0
-285 2592 0
-4418 1938 0
3464 404 0
1016 1431 0
-3931 -1681 0
-2906 4205 0
2069 4553 0
-1382 2765 0
-3313 -4388 0
-2719 -4256 0
-891 -1591 0
-2515 -2493 0
-3197 -3644 0
589 -1839 0
2096 3595 0
-3513 1765 0
1196 -4290 0
-3244 -2625 0
2277 -169 0
4049 192 0
2782 567 0
-2286 -356 0
-2586 -1718 0
-654 3239 0
-1755 -4171 0
105 703 0
-1377 -2681 0
4226 3842 0
-3759 -2697 0
4157 315 0
3883 -3916 0
-2762 3311 0
906 2265 0
-2635 -348 0
-3449 -4518 0
-3019 -68 0
-4061 908 0
-4013 -4624 0
2775 1853 0
2911 -1718 0
3048 228 0
3994 -1431 0
-3302 2741 0
-4014 -767 0
4557 3457 0
-3019 -4148 0
4244 639 0
1034 4386 0
1590 -923 0
960 -1198 0
-2245 1109 0
1673 -1453 0
3170 -265 0
3844 -4439 0
-2052 512 0
3867 -3484 0
-2907 940 0
-3784 2108 0
-799 -2127 0
1314 -4618 0
2183 -84 0
-3960 47 0
204 -265 0
2782 -4400 0
2233 -785 0
-1810 4194 0
-1280 -4604 0
-867 1866 0
-3009 -2149 0
-1452 2278 0
3691 1510 0
2259 -1505 0
4454 1165 0
2280 3846 0
-3159 -3311 0
156 2836 0
-2763 -751 0
-4382 -703 0
3391 -3715 0
-611 -1877 0
-2201 649 0
1068 -1850 0
4000 527 0
-606 -1048 0
-951 -2407 0
-515 4278 0
-1351 -1575 0
4269 3245 0
4582 298 0
4244 2493 0
2326 -3192 0
-1948 -764 0
-1099 -161 0
-3157 2285 0
2893 3353 0
774 -3948 0
-2628 2595 0
-3494 -157 0
-4167 3519 0
3178 -2382 0
-3580 889 0
-739 1668 0
-4124 1341 0
-2701 1290 0
-475 3942 0
-1555 -3895 0
4058 2508 0
1604 738 0
4470 -3225 0
-322 -2440 0
3141 464 0
3217 -3782 0
2451 2952 0
-398 3502 0
2287 -1070 0
-2112 2139 0
3411 2220 0
1145 1221 0
3824 -1348 0
2418 3572 0
152 1799 0
-2441 -1197 0
-3523 -3284 0
-27 1814 0
-52 -776 0
-1163 2113 0
-3993 -666 0
2746 -3765 0
-1763 -1371 0
-2127 3899 0
2492 2420 0
312 -2930 0
1928 1038 0
1802 1254 0
3928 -2196 0
2671 -2790 0
-1125 -4364 0
-2721 945 0
1001 -844 0
-3774 2031 0
-4522 -3294 0
-1033 -2685 0
4281 2508 0
2904 -634 0
-4319 1628 0
-3647 4153 0
-3429 -1434 0
4322 1400 0
4531 -1191 0
3460 811 0
448 -733 0
-817 -3949 0
1081 -169 0
-652 3939 0
-865 700 0
4401 4461 0
-6 -1445 0
2633 3958 0
-3906 1719 0
2706 2071 0
-378 -2322 0
-1272 222 0
1622 3906 0
1462 4331 0
-2634 -2725 0
-4188 -3192 0
-1133 4214 0
169 -1785 0
908 2590 0
3738 2347 0
-4248 -3602 0
-2559 -1812 0
3651 1515 0
-1045 -4620 0
399 -3486 0
914 -844 0
2481 -2731 0
2581 -4567 0
-1076 3520 0
-1452 -2576 0
-2632 1466 0
-3728 2303 0
112 1290 0
-4570 1077 0
-3030 4165 0
4068 -3596 0
-2498 -3159 0
-2430 3593 0
-1026 -858 0
-3054 -2187 0
-2286 -2905 0
-2702 -696 0
-3120 1887 0
-299 -1790 0
1842 3767 0
-83 4217 0
-3126 -3748 0
-1697 2633 0
-842 -45 0
2203 -3739 0
838 -3968 0
-4379 4271 0
-349 -3871 0
-1452 3579 0
-892 3879 0
-3860 3635 0
3020 -295 0
1698 2351 0
-896 -1261 0
3276 -1464 0
622 -1117 0
257 3851 0
-3739 -3354 0
4115 -1107 0
-2085 2439 0
1348 -745 0
4189 4390 0
-348 2194 0
3450 -1071 0
-1551 -1567 0
3231 -1285 0
316 -2872 0
2618 -981 0
2508 -393 0
1518 -3753 0
-1417 -3765 0
2240 -4230 0
843 -571 0
-4075 3274 0
-4562 2650 0
-1379 -2149 0
2309 2774 0
3557 1186 0
249 2573 0
643 -834 0
1669 3924 0
-1170 321 0
-3849 1195 0
79 4389 0
2975 1450 0
-2950 -4614 0
2929 2849 0
-1153 -1695 0
3583 2782 0
-3367 -4012 0
2856 3658 0
-32 -3759 0
-3887 1901 0
969 4314 0
-2889 -1611 0
1785 -866 0
-4197 -165 0
-1790 2338 0
4487 -4016 0
1435 3438 0
323 -2509 0
4009 -4193 0
3274 -300 0
-3349 -1997 0
-4124 -1387 0
2569 586 0
-3643 1951 0
-543 -1397 0
144 297 0
4386 -66 0
-1972 -3011 0
803 -1529 0
2176 -3834 0
3449 -108 0
-5 1198 0
-3921 2095 0
-1731 -1192 0
329 -3750 0
3216 4288 0
3020 3022 0
-2470 3369 0
1133 -2705 0
-3385 2404 0
-704 -4142 0
-1580 -2587 0
-1423 -2867 0
-525 -3665 0
945 2485 0
-710 3179 0
1954 -2672 0
-3680 -1431 0
393 -52 0
-3288 -1249 0
2035 4421 0
559 -1322 0
-2665 -4429 0
1892 -2493 0
18 4155 0
1805 1572 0
-1737 1424 0
-1843 3856 0
2981 4514 0
3841 1863 0
2938 -2988 0
-446 -1774 0
-3891 358 0
345 2532 0
483 -3227 0
-2374 877 0
-1100 -2926 0
998 4429 0
-4102 -937 0
1977 3949 0
2069 3313 0
-1778 3111 0
-1246 -2822 0
263 -3864 0
1382 -953 0
-2453 -721 0
-963 2892 0
915 -3229 0
-13 2713 0
-508 4375 0
-2033 1156 0
-275 -2199 0
-2653 3770 0
-425 3988 0
388 1025 0
152 2878 0
3595 1823 0
3824 -4109 0
1259 -942 0
1674 -2434 0
-2376 -2363 0
-2483 2131 0
4108 469 0
448 -3360 0
4040 -511 0
-3318 3046 0
561 3851 0
-1850 2419 0
1281 2643 0
-4555 -2732 0
-2514 1328 0
-2725 1253 0
-1140 -2685 0
3002 1238 0
499 2741 0
1229 338 0
-2969 2052 0
-487 -4173 0
-4083 1488 0
896 -28 0
-1213 1283 0
-1824 -1831 0
-3483 4127 0
4550 1708 0
1382 124 0
-2102 -1667 0
1581 2927 0
-4319 -565 0
4480 4064 0
-3925 1174 0
-1317 -2331 0
-1671 4207 0
2460 1184 0
670 4471 0
-1169 374 0
2130 -2782 0
1256 4080 0
-3086 3359 0
3093 3007 0
1984 328 0
3393 -4369 0
2897 1788 0
3220 -2796 0
-3272 714 0
317 264 0
1251 -832 0
3849 -1155 0
3085 1534 0
-202 2544 0
4222 -350 0
-835 -820 0
-3286 -3554 0
2537 404 0
4026 -2732 0
1130 4571 0
-4544 -4381 0
-1067 -4426 0
-4144 -1576 0
1483 4397 0
-3611 -1459 0
-3071 2201 0
-3879 714 0
-1020 642 0
4481 634 0
-4430 -2250 0
2046 2797 0
4582 1541 0
621 -2634 0
-4296 -3940 0
-4556 80 0
-3345 4115 0
-3542 2384 0
-3617 1997 0
4574 3121 0
1892 1646 0
918 -2947 0
-3872 -2381 0
-406 3601 0
3068 650 0
856 246 0
-3774 2853 0
37 -3472 0
3541 4066 0
3707 3479 0
3803 3715 0
3700 -2206 0
-1615 -4430 0
-937 1308 0
-3935 -2460 0
1037 1433 0
1324 -610 0
2214 -483 0
-4119 -1897 0
1472 4244 0
1624 3569 0
529 1720 0
515 1693 0
-3586 -3228 0
-2754 -2103 0
-1212 2997 0
584 1514 0
-4147 4589 0
-3348 2969 0
-3585 472 0
-721 -2323 0
1240 -2278 0
-2288 3533 0
3236 34 0
2697 1778 0
249 -805 0
-2734 3559 0
4579 2516 0
-1206 -3557 0
-3121 -227 0
3395 -4032 0
4121 3355 0
-264 1365 0
1417 2597 0
-4517 -611 0
1643 1308 0
-176 -3865 0
1332 4570 0
-1705 3391 0
-1155 -22 0
-4568 1174 0
1386 -1490 0
-2076 -3850 0
-4273 1474 0
-3553 64 0
-487 951 0
4197 1341 0
-3493 2063 0
1681 -2404 0
-3896 -1289 0
2274 -4177 0
1979 626 0
-4316 -951 0
4169 -841 0
1595 4353 0
695 4537 0
2611 3831 0
1613 3859 0
2430 -68 0
-1914 404 0
4332 -2988 0
945 2105 0
-1621 -2847 0
-931 3970 0
3985 4524 0
2555 288 0
-2666 -1052 0
3295 2557 0
1358 -3337 0
-1047 -3592 0
-2642 934 0
-2690 2383 0
-3722 662 0
-4198 3897 0
4087 -772 0
4195 -2926 0
3491 3652 0
3492 445 0
1328 -756 0
-1140 4444 0
-3062 -3588 0
4278 3638 0
889 -258 0
-757 3212 0
1251 941 0
1373 3711 0
-3384 3807 0
1666 -2930 0
-2921 -4119 0
-925 3944 0
-3153 -1881 0
-1286 2873 0
-2796 -4114 0
1644 4203 0
-3064 -3663 0
3528 1382 0
-4444 -1026 0
861 4010 0
1105 -322 0
-3800 -4534 0
-4207 -1606 0
-2608 2419 0
-3589 -14 0
-1779 3494 0
-2702 -2624 0
1352 -632 0
-2464 185 0
2362 528 0
-1868 4153 0
-786 -814 0
-3081 1781 0
-1184 -2839 0
-2745 3924 0
-54 -2072 0
-3522 1841 0
1264 -4455 0
-1966 -445 0
3417 -2519 0
-287 3708 0
455 525 0
3340 4441 0
-3276 -182 0
-1646 693 0
381 901 0
-4614 -295 0
-2706 4506 0
-3059 -3418 0
2751 -1811 0
-941 3007 0
4043 -739 0
-2432 -3907 0
-1959 984 0
-251 3276 0
-1321 -901 0
4598 -324 0
-4207 3027 0
2916 -3603 0
3636 -1116 0
-2150 2618 0
-2418 -2476 0
-3744 4474 0
134 -1015 0
-2194 693 0
-1360 -4263 0
4555 1654 0
701 3877 0
3546 514 0
4575 -1798 0
-1395 -3973 0
3661 -4576 0
-2269 -1028 0
3466 2396 0
-2986 -2867 0
1705 3628 0
4331 618 0
-3991 -796 0
2684 1694 0
-2441 1706 0
-360 -1629 0
-830 4018 0
-1004 99 0
155 -3396 0
3529 -3647 0
-3957 -1674 0
-454 4441 0
-3161 2128 0
-2422 -3114 0
876 -4587 0
4086 2524 0
1562 -4139 0
-531 -3379 0
1024 -3405 0
-1652 -4546 0
2219 -4566 0
1119 -2051 0
2281 2144 0
2211 4468 0
-4287 -16 0
4205 3096 0
-3122 3214 0
-3285 -3681 0
430 -3495 0
2895 2845 0
2915 -1441 0
-1389 -3610 0
559 3852 0
2240 -849 0
170 2677 0
-2248 3631 0
773 2974 0
-1467 -360 0
564 -4499 0
-4492 -4138 0
4345 2297 0
-3936 -308 0
-241 -609 0
1515 2638 0
-305 3867 0
-1028 -23 0
-1418 -3746 0
1399 4491 0
-4123 2157 0
-3426 812 0
-4513 198 0
2831 1938 0
3335 -3712 0
-3404 499 0
3449 -1998 0
-4169 -3140 0
142 4299 0
1327 -1536 0
1298 585 0
2873 3515 0
3316 999 0
3156 -2037 0
-4588 3858 0
-3285 -3476 0
2056 -2621 0
-4342 -4430 0
-1700 -107 0
-4247 3842 0
1499 -1668 0
-3169 4507 0
-2930 -3101 0
-1466 -1049 0
-1492 854 0
4538 1396 0
1054 -2396 0
-197 -99 0
4418 -1199 0
1981 243 0
-3097 -4069 0
-236 1500 0
-2685 2297 0
4250 714 0
-3140 -4558 0
-4490 -2457 0
4197 2216 0
143 -1912 0
-1401 60 0
-1249 3630 0
-2715 2687 0
-118 -4390 0
3479 -10 0
1423 -548 0
3369 -3527 0
-4314 -4415 0
-2123 -66 0
-3886 -2927 0
955 1742 0
344 -3920 0
-505 3065 0
2802 -3919 0
-3462 -4050 0
-785 826 0
3945 2316 0
4547 2734 0
396 -3288 0
288 -4113 0
-2347 263 0
-497 2772 0
-2182 2368 0
2284 -2733 0
3364 3516 0
-2730 -1929 0
-520 -1718 0
4244 -1487 0
1374 418 0
-2305 -972 0
-1092 2049 0
-109 -2962 0
-814 -3711 0
2424 -101 0
-2820 4021 0
-2384 -3639 0
-2596 545 0
560 2595 0
-262 1738 0
2114 4274 0
4404 -548 0
1623 -2794 0
1294 -262 0
-1031 460 0
-1951 -2828 0
2183 -4572 0
-2560 -824 0
47 3173 0
2396 -3800 0
-1436 1025 0
-1400 -683 0
109 4127 0
1387 -514 0
3269 3575 0
2361 298 0
-1451 2562 0
158 228 0
-4313 3774 0
3816 3530 0
-1085 2604 0
-703 -4352 0
-3880 -3946 0
1030 2090 0
-3905 -4017 0
3260 -2199 0
-1297 1315 0
3140 1352 0
4309 2516 0
2983 4382 0
2217 4025 0
2808 -1024 0
-781 1291 0
944 -2541 0
1515 -3611 0
2584 2903 0
-3203 -1071 0
2942 -4045 0
-1136 -255 0
-2833 -4107 0
3069 4233 0
1833 467 0
924 -1254 0
-272 3250 0
2 -4218 0
458 -1344 0
4582 525 0
-4329 3394 0
-712 1887 0
1134 3608 0
861 2719 0
-752 3868 0
-755 2282 0
521 -1960 0
-3562 -4423 0
-23 4313 0
539 -1261 0
657 2399 0
731 2221 0
1968 -3095 0
3078 1987 0
1134 -2863 0
-3542 -4039 0
4581 -1523 0
-103 -1650 0
-4133 -1962 0
2656 -2392 0
331 -249 0
-2885 3316 0
1274 501 0
3497 -3606 0
2724 -2526 0
2149 -1253 0
-4138 585 0
459 401 0
1483 2010 0
3636 1816 0
433 3145 0
912 -2257 0
3779 -3482 0
-3311 1790 0
3809 3085 0
903 -2540 0
1131 -4139 0
-916 -2172 0
2837 -2504 0
-489 -1456 0
-3602 -2050 0
-3480 -3904 0
767 -2951 0
1167 3202 0
-2984 1348 0
1175 -1779 0
-3306 3599 0
3677 -1956 0
-4204 4334 0
203 95 0
4291 -3792 0
4585 -3905 0
1460 219 0
1450 3952 0
-820 -627 0
-3404 374 0
-3326 -1661 0
1935 -1776 0
-82 4373 0
-2305 -1832 0
-671 -4243 0
-1213 13 0
-4579 -4336 0
-2510 333 0
-4309 -3451 0
-3306 -1667 0
-4451 -4206 0
-2965 -3509 0
-2868 2933 0
-1034 -2946 0
-3980 1063 0
-2684 2498 0
-4532 908 0
-2008 1924 0
4127 -1438 0
-2073 3056 0
605 -4440 0
4325 -4 0
2315 2565 0
-1925 -4406 0
638 -696 0
2508 -2519 0
-1342 -4519 0
-3959 2231 0
-1759 3 0
466 4458 0
2929 565 0
-4209 -337 0
-526 -4451 0
3828 883 0
3199 -3686 0
-4224 -3954 0
-3735 1976 0
1382 2931 0
-1574 3631 0
3098 2041 0
3724 4010 0
4441 -2988 0
-2596 -2337 0
1491 3247 0
-1052 4100 0
-2074 104 0
3679 4371 0
1404 3311 0
-3351 761 0
-3542 -873 0
2650 347 0
-136 -30 0
-4115 -3001 0
183 3177 0
-3728 -797 0
2619 -3813 0
1019 1536 0
-767 -1470 0
-3683 1618 0
3245 556 0
2153 -56 0
-1344 2025 0
636 -1364 0
1043 -171 0
1153 -3872 0
2844 4245 0
2681 1112 0
1702 -1469 0
-2276 -4592 0
206 2158 0
-1514 2309 0
1034 -4280 0
-296 -3498 0
-1992 -4573 0
4395 4556 0
-2329 -1614 0
771 -4485 0
4583 3266 0
4303 1633 0
291 3804 0
-2331 -3581 0
1395 -4471 0
3633 814 0
-601 3941 0
960 2656 0
2187 -4048 0
-4065 990 0
1644 -2600 0
4394 3945 0
-4489 -1362 0
-3415 3197 0
-3718 3289 0
3076 -1710 0
-1587 1059 0
-1364 -3673 0
357 713 0
1748 -1621 0
1226 -4245 0
-225 -4192 0
2041 -2427 0
780 1352 0
633 -348 0
-3801 2757 0
-2333 1788 0
4584 -4234 0
1552 -2850 0
-2830 -2669 0
826 -1204 0
-2392 -2521 0
-1455 -3848 0
-2344 -81 0
1588 3789 0
-3352 -2542 0
-2798 2671 0
-4019 -100 0
-3856 233 0
38 -3019 0
3499 -4379 0
-913 -4587 0
-4490 -3562 0
-2030 -354 0
3666 -2018 0
-635 3344 0
-529 -2395 0
3517 -265 0
-4107 711 0
835 2247 0
509 -1874 0
1676 -3936 0
3461 -3607 0
1447 1029 0
-1111 -1445 0
25 4462 0
1335 472 0
3655 3698 0
-603 -4425 0
-3455 102 0
2451 3258 0
-3991 3169 0
-3537 -2463 0
-4200 874 0
3560 -1325 0
3878 1949 0
2027 -928 0
4377 -3234 0
312 4276 0
-4504 101 0
425 3408 0
-3957 -268 0
-231 -4539 0
87 2952 0
3303 -831 0
4602 -2870 0
-741 -1124 0
-2557 -187 0
3275 -144 0
594 -785 0
672 3130 0
2615 883 0
-815 4328 0
-1113 1860 0
-2685 -420 0
4187 -529 0
1503 -2165 0
1 2264 0
-4172 -2045 0
-3397 2886 0
978 4252 0
321 1228 0
4187 -3188 0
92 1288 0
2635 -3071 0
-3736 4539 0
-3785 3235 0
1364 -217 0
-4308 449 0
-2670 -4515 0
4553 -2277 0
-1771 -4409 0
-4391 -247 0
-3048 -1139 0
-4016 -217 0
-2182 -341 0
-4022 362 0
4038 2515 0
-2277 1460 0
-3577 -88 0
-325 -3055 0
3067 3284 0
-4002 3807 0
-827 -3138 0
2481 -3916 0
-3192 2116 0
-3404 3741 0
-4182 -4026 0
-652 -4024 0
3590 149 0
-20 2232 0
4364 3028 0
-2141 -3631 0
-4557 800 0
1989 -3012 0
-3444 -1400 0
-3297 -4067 0
3450 3332 0
2033 -3713 0
-4629 -2085 0
3731 3578 0
-841 -3889 0
3914 1422 0
2765 1935 0
164 -3345 0
2184 -3488 0
-3752 317 0
119 -801 0
518 3715 0
286 -3789 0
-1998 -717 0
3195 -4466 0
2101 -2166 0
-785 80 0
-991 4571 0
-1233 -1778 0
1844 2350 0
1787 1150 0
3756 2511 0
3262 3660 0
-12 2379 0
2297 -4386 0
870 -3921 0
-979 -4101 0
-1443 1365 0
-3124 1197 0
4500 3989 0
-1455 -3682 0
-1031 1080 0
3625 4179 0
449 4528 0
-4527 -3747 0
3651 -1562 0
-2168 -2490 0
-1762 -4485 0
3757 2658 0
-588 2557 0
1940 -2117 0
-4430 583 0
-632 4500 0
-2354 -1331 0
2689 3913 0
329 828 0
1809 -1310 0
-2859 -4415 0
-2345 747 0
-1654 -277 0
1627 4236 0
-2318 298 0
2384 -1684 0
-649 -3211 0
-1049 4433 0
1792 2006 0
-4231 1273 0
-1134 -1557 0
-3274 -1939 0
177 2478 0
-505 -881 0
42 -1873 0
-794 1049 0
162 -3257 0
1485 2752 0
2883 -1166 0
-2085 528 0
-21 2712 0
4317 -3735 0
4241 2843 0
1570 1377 0
-3880 -1555 0
-503 -1584 0
-4610 -1494 0
-2017 210 0
3305 4474 0
-3486 958 0
-3871 82 0
1592 -930 0
-2455 1358 0
-2146 2119 0
-116 1040 0
-4469 -1494 0
3594 -739 0
3778 70 0
-2777 4406 0
827 -3014 0
3857 -4304 0
1486 134 0
2408 4156 0
946 -2470 0
2419 3989 0
4473 546 0
-3866 1051 0
-330 -2867 0
-1324 -804 0
-3742 982 0
1925 -1877 0
280 -2472 0
-3940 2639 0
-1199 3944 0
3983 1879 0
-417 3780 0
-2754 914 0
-3954 3027 0
4443 -3946 0
-3784 3017 0
-3614 -387 0
3233 -2193 0
3868 -1020 0
1795 -2641 0
-606 -219 0
-2408 1790 0
3162 -607 0
2292 1857 0
-1302 -2295 0
2489 3136 0
-2278 2711 0
1936 -1455 0
-2958 896 0
-3115 3539 0
-1775 -2015 0
-4452 4232 0
3258 1586 0
-1998 3203 0
-3256 3270 0
-1455 665 0
-1695 2832 0
-859 1798 0
-1930 -1264 0
3195 -2676 0
-4231 2307 0
-2774 1158 0
-2569 -3265 0
-3857 -2716 0
3612 1274 0
-4488 -125 0
-2802 -3074 0
-2924 4006 0
1110 -2432 0
-3375 3521 0
2757 1729 0
-2755 -2732 0
-4352 4069 0
3724 -1124 0
1312 -1464 0
-1661 1743 0
1224 1654 0
-4097 -1184 0
371 1519 0
967 172 0
2659 -402 0
-4401 2086 0
-703 919 0
-1950 -2863 0
4165 -745 0
-1294 -287 0
879 -4428 0
3909 400 0
-2624 -1842 0
1902 4317 0
2991 -3952 0
-4463 -4173 0
-521 474 0
-686 2842 0
4048 418 0
4408 965 0
-2295 3572 0
768 2078 0
-1776 -2425 0
-308 -2681 0
2298 -1424 0
-1891 2267 0
-768 3758 0
-3553 2869 0
-2040 -484 0
-1635 1485 0
187 2067 0
-3656 923 0
-2902 -1228 0
-2688 824 0
-2151 -3684 0
1289 -3455 0
-423 -3066 0
-2654 -4028 0
4355 -935 0
363 -294 0
2889 -1821 0
3842 -3806 0
2089 3929 0
4368 3972 0
4357 -2031 0
1988 -4026 0
2419 -2732 0
987 -3556 0
1510 -1014 0
3473 -3638 0
1488 -1618 0
-2304 -1301 0
1051 3579 0
1511 1121 0
4585 -1982 0
-2543 1273 0
-2813 4276 0
-3654 -3813 0
2989 -1731 0
-2608 -1677 0
1288 501 0
355 -2221 0
2950 2319 0
-964 4153 0
3424 -4084 0
3558 2292 0
-945 -3455 0
938 -89 0
953 -1968 0
3568 -1266 0
399 477 0
109 739 0
-4197 3902 0
-2353 2919 0
-1081 1927 0
2934 861 0
3145 1857 0
1940 -4047 0
-197 2496 0
2093 -4092 0
1497 362 0
227 -3873 0
-4054 3269 0
-4382 407 0
1437 1527 0
-4152 -1228 0
-739 -3030 0
3668 3154 0
1009 -2288 0
812 -2977 0
3852 -523 0
-3900 -476 0
394 -3830 0
1065 1578 0
-1355 -3681 0
-1286 -2078 0
-3425 -1010 0
4078 2869 0
-713 -3353 0
1745 -1485 0
4455 3748 0
1887 -853 0
-990 -3982 0
719 -1316 0
2187 -1882 0
-1932 1422 0
1875 3732 0
-929 987 0
2816 2947 0
3330 -3866 0
-1427 2236 0
-2963 2025 0
-1587 3773 0
1550 374 0
2325 -3422 0
-193 1699 0
369 3147 0
-255 614 0
1695 388 0
133 91 0
3241 -781 0
-1344 -4319 0
-2018 3104 0
1389 1630 0
3169 1731 0
1639 3432 0
1300 -1188 0
-2096 -1939 0
-1424 -4577 0
3549 -1432 0
167 2022 0
-3495 -2477 0
3435 2720 0
-773 -2986 0
3344 -3847 0
377 -1089 0
-3714 2054 0
2898 -1090 0
3523 -609 0
3881 324 0
-809 2746 0
3898 3931 0
4000 -1124 0
1144 -3750 0
-3933 -2264 0
-1419 -1238 0
3129 2358 0
3592 -3561 0
3724 -3355 0
3778 1389 0
-2249 4443 0
-4011 -823 0
1023 1406 0
-1302 1857 0
-2662 657 0
967 -3751 0
3210 709 0
-2497 -768 0
-4136 864 0
-1511 4074 0
-3240 4393 0
1908 1917 0
1583 -596 0
-922 -4160 0
4552 -2984 0
1790 1983 0
-3531 722 0
3477 3387 0
-3083 -3104 0
3642 -2954 0
2542 -1894 0
-3414 4572 0
3334 -4273 0
2890 -3607 0
617 -3752 0
936 3463 0
-1421 2537 0
2784 26 0
-1770 3832 0
991 -257 0
-2813 -2517 0
2291 -4031 0
-2166 -1733 0
248 -2181 0
2667 -2444 0
2011 657 0
-2647 -4075 0
22 -2457 0
3659 -3373 0
-930 449 0
-836 -813 0
598 626 0
4512 -1513 0
59 -2376 0
1165 -3414 0
-732 -1560 0
-2083 1081 0
-3151 -216 0
-894 -663 0
1196 3355 0
-2822 4154 0
1097 1289 0
4531 -487 0
4267 -2308 0
-786 3975 0
2638 1271 0
-3249 -1368 0
842 -461 0
-4631 3647 0
196 459 0
-1651 64 0
-3107 -617 0
-4322 4590 0
-3694 430 0
-4372 1459 0
-2165 -2878 0
-325 1640 0
3685 -3522 0
1902 -3306 0
3996 -4411 0
-119 -4211 0
-3237 -1181 0
533 116 0
4106 3460 0
4619 -3071 0
1761 2176 0
4062 86 0
2708 -2244 0
-73 3715 0
1912 504 0
-1575 -3405 0
3784 -4360 0
3932 2925 0
-2959 2242 0
-4614 3992 0
-2394 -4112 0
4394 -1786 0
617 1819 0
-1525 -3039 0
-1597 -4290 0
-972 3272 0
-579 3599 0
-3641 -1636 0
-2239 -247 0
2271 3530 0
-1350 -3218 0
2610 4527 0
-251 -187 0
3752 2967 0
-2530 4280 0
2088 -513 0
-1931 -721 0
2707 -2388 0
-1269 1719 0
-3640 3546 0
3329 -139 0
-517 3065 0
-44 -3633 0
3278 -2803 0
41 -1455 0
-2204 -3832 0
4050 2639 0
-3313 209 0
1324 4553 0
1544 3567 0
-1102 -4269 0
46 -2748 0
3318 3362 0
2351 2075 0
-1512 4250 0
1582 -1077 0
2199 -3684 0
-932 1687 0
1396 -211 0
2590 -312 0
547 1577 0
-650 1853 0
2321 -4573 0
584 -4295 0
1299 4155 0
3794 4176 0
-3781 -3955 0
1990 -3907 0
3811 3950 0
-3045 796 0
-703 278 0
4306 1653 0
-2250 2097 0
-4326 -4337 0
-4489 -2684 0
-19 -3659 0
-3793 -3493 0
-2338 -3699 0
822 48 0
-882 -508 0
-2458 -931 0
-3801 601 0
1434 -1672 0
4248 3896 0
-1859 -3210 0
-800 -930 0
4158 2043 0
1042 4550 0
4363 1290 0
82 2906 0
657 -3597 0
1557 1271 0
-962 -1871 0
-3527 -3287 0
-2281 -3926 0
2038 2317 0
-4221 2009 0
-1685 310 0
-4452 -3795 0
-503 3448 0
-4220 3167 0
-180 -4066 0
-4258 -3648 0
307 3384 0
4209 3668 0
1604 299 0
2058 3006 0
3389 -2315 0
-4085 -4247 0
-439 -3845 0
-209 1225 0
-343 3192 0
-3261 1440 0
-116 2810 0
3177 -721 0
2899 -3662 0
2195 -4037 0
-2619 -638 0
-2416 -2665 0
-2365 -3022 0
-4051 -255 0
-155 1070 0
-259 4276 0
-2331 1807 0
3915 1629 0
-865 1763 0
1489 1045 0
1809 -2428 0
-2790 915 0
-1238 -563 0
-3328 -3960 0
-1003 -692 0
4410 3571 0
-1820 2576 0
-2545 -4466 0
2140 4395 0
-2356 4414 0
-1860 3748 0
3329 -728 0
-847 -728 0
-4448 2544 0
-2733 2121 0
-935 -2652 0
4268 -1281 0
-1055 -4107 0
4178 -40 0
3494 -3459 0
941 1350 0
253 1648 0
2159 2414 0
1034 -3907 0
1043 2411 0
2860 -2716 0
4498 2984 0
3727 1637 0
-67 -2585 0
-1130 -2318 0
-1440 1448 0
-1142 547 0
-441 -747 0
409 2003 0
3943 -259 0
-1050 579 0
-2016 4015 0
-1739 1807 0
-581 -1629 0
-534 -950 0
-2936 -307 0
-2754 -4352 0
401 -1029 0
-2493 -2246 0
2043 4283 0
2983 -2264 0
496 4444 0
-271 2873 0
739 -1945 0
4205 -2624 0
2299 -1537 0
1675 3342 0
498 -251 0
-2318 2691 0
-3854 -4624 0
1847 -28 0
4582 -1614 0
-1686 3561 0
3269 -343 0
1809 -2204 0
3465 4588 0
3645 -816 0
-3617 2985 0
-4307 4371 0
-3628 2089 0
-1392 -1434 0
1438 -590 0
3840 -1791 0
725 2479 0
-78 3763 0
1422 -2930 0
1453 4147 0
4412 -2460 0
-2303 60 0
851 -507 0
2510 -2046 0
3115 1113 0
700 3691 0
-1832 -4060 0
-2328 -4510 0
-524 1620 0
2108 748 0
1872 -2788 0
1510 599 0
4204 -2617 0
-633 -2621 0
900 4104 0
3209 1134 0
976 3858 0
-1412 -2959 0
-604 -2744 0
1965 -2175 0
2503 -257 0
2035 -615 0
3010 531 0
3096 2921 0
-4293 3881 0
2499 414 0
1874 3091 0
-3352 1088 0
1280 1119 0
440 33 0
-1289 4543 0
-3904 -3536 0
-1450 4477 0
4088 -3819 0
-3410 1809 0
-3182 -750 0
3948 -991 0
-3287 -1117 0
2700 399 0
1137 1162 0
3352 -2878 0
1288 4000 0
-3829 2970 0
-2908 1885 0
-1401 1808 0
-3568 3545 0
-796 -2237 0
1948 1545 0
-3257 125 0
-699 2880 0
1631 -1442 0
423 2426 0
3806 2835 0
-2667 -4185 0
469 -2277 0
382 -2347 0
-237 -4356 0
4468 -4469 0
3984 -1832 0
-1509 3742 0
824 -2329 0
2654 4179 0
459 414 0
-640 -3205 0
2446 3488 0
-72 2172 0
-133 1858 0
112 1194 0
2651 -211 0
-2424 870 0
3209 2861 0
989 -3252 0
-2495 3584 0
2454 -2633 0
-2036 -1686 0
4099 2079 0
3628 -1839 0
4500 -3356 0
-1091 -1649 0
-1091 -1255 0
1864 4219 0
-406 1335 0
4514 2108 0
583 -1810 0
-425 -4297 0
945 1624 0
-3167 -62 0
502 3068 0
-2931 3567 0
410 -3291 0
665 637 0
2832 4007 0
1970 -2576 0
-1607 2222 0
-3576 -2168 0
2695 3281 0
-2958 130 0
4191 -858 0
-404 2013 0
2790 3085 0
2386 1005 0
3484 4377 0
-2589 376 0
702 -4000 0
-674 -1481 0
3791 1873 0
2431 1104 0
-1573 2711 0
4218 3472 0
-3267 3990 0
2228 -545 0
-3419 -4598 0
1959 -1075 0
1723 1258 0
-970 -2674 0
-4571 -2690 0
2019 2386 0
3238 1709 0
-977 2385 0
-387 3072 0
3843 -51 0
2696 677 0
4614 891 0
4128 -1807 0
-2453 1409 0
-3173 -259 0
624 3486 0
2768 3778 0
3216 -1907 0
3766 -3987 0
-2918 2817 0
3754 -1022 0
3010 3411 0
-1138 -4374 0
-2685 -4379 0
3644 -309 0
-3244 3732 0
2456 -4364 0
3730 -4335 0
-4184 2227 0
1855 -3288 0
1370 -2876 0
3718 -4415 0
-2077 -2214 0
-972 587 0
-745 852 0
-3469 3498 0
2332 -699 0
478 -1062 0
2830 -3208 0
2942 -942 0
-3759 -1469 0
1741 3393 0
308 3301 0
1419 670 0
-32 2095 0
1783 2516 0
-503 -2199 0
-3987 674 0
1366 2060 0
-486 -395 0
-3057 1572 0
496 -2028 0
-3279 3700 0
-4607 -3630 0
3474 -2055 0
3948 2153 0
-4585 423 0
1319 3748 0
3315 -4065 0
-1703 -952 0
-2079 -3894 0
3949 -2112 0
2073 3757 0
3607 -3752 0
-2167 -2903 0
-1747 1968 0
-713 -2735 0
2809 -617 0
-1372 -1852 0
691 -4190 0
-1711 4108 0
-4132 1606 0
2560 -799 0
1918 -4257 0
-3874 -3000 0
-4158 3679 0
-753 341 0
-824 -1452 0
1573 2363 0
-1922 -716 0
4014 1658 0
4547 -1757 0
3490 -1404 0
-4099 3145 0
4230 -1508 0
2576 3958 0
-3603 3839 0
-3523 -3907 0
-2637 4299 0
716 -3118 0
-589 4588 0
-3342 599 0
2539 1639 0
-3581 682 0
-1672 2297 0
-3396 1889 0
-180 -2218 0
783 4424 0
-1847 -3565 0
-1177 -1495 0
1035 3645 0
2680 333 0
4239 -3469 0
3541 1590 0
-1888 -443 0
4629 2960 0
2542 635 0
3294 2927 0
-2471 -2521 0
-1289 -2213 0
-1261 958 0
518 -105 0
-1583 -3146 0
-314 4524 0
2270 4157 0
2176 -2540 0
3571 3450 0
-2564 302 0
-2832 3590 0
-3148 2155 0
3097 3728 0
2475 2943 0
-337 -2028 0
245 -2573 0
-2813 3924 0
-2671 -403 0
-3926 1522 0
1274 1104 0
2238 -1846 0
4241 850 0
-2662 -3551 0
2791 -3244 0
2634 1491 0
-319 -2512 0
655 -4127 0
756 3521 0
-1690 1045 0
-1085 -4437 0
-68 -4601 0
3057 2050 0
4350 -1978 0
-1817 -4128 0
1529 3740 0
647 -242 0
1492 -153 0
4038 1356 0
3947 -424 0
1880 3941 0
-990 -62 0
2080 -1700 0
2937 2432 0
2265 1957 0
1736 3549 0
-2709 4435 0
1064 657 0
-3950 380 0
-3355 2812 0
2289 1096 0
658 -3870 0
1935 -2765 0
-410 -3134 0
383 -2621 0
1833 -527 0
4348 3051 0
4261 -375 0
2337 2581 0
1467 2902 0
3846 -3487 0
2515 -1270 0
-2699 -3199 0
-3159 -2890 0
-1087 -4610 0
3298 -1188 0
-1290 1127 0
-3102 -2677 0
2140 4188 0
3803 1061 0
4384 -1053 0
3024 -3118 0
-3499 1308 0
4528 42 0
3949 -3938 0
1462 3976 0
-2385 4375 0
-1618 949 0
4055 -2727 0
-3058 -1102 0
2501 -2165 0
-492 227 0
-1502 -2754 0
-527 2783 0
1250 -1506 0
-2649 2897 0
-177 -2353 0
2583 -3898 0
-708 -1309 0
4531 -2910 0
2882 -4409 0
2243 -604 0
2180 3938 0
2004 3021 0
1515 293 0
-3553 4242 0
4219 -3412 0
-1602 -3805 0
607 -2496 0
-126 1084 0
1947 2939 0
816 -188 0
4167 2933 0
4049 4212 0
1744 -2907 0
2093 641 0
-773 2069 0
3035 1771 0
3479 1139 0
4274 -953 0
987 4316 0
-2006 1219 0
-2118 393 0
4363 -3127 0
3969 -3056 0
3305 -4289 0
3451 -1100 0
-3636 3965 0
3113 -4486 0
140 221 0
3260 1365 0
-1832 -17 0
368 3575 0
-4573 -663 0
-3800 -3454 0
-902 1384 0
-337 38 0
-1502 -2763 0
-2269 1884 0
1458 116 0
-3643 3443 0
-2237 -3570 0
-2409 -3594 0
-1649 2177 0
724 -3225 0
3599 1486 0
1114 -67 0
-648 -3406 0
1523 -3764 0
307 1645 0
-2604 2857 0
-1321 -1726 0
-1597 -609 0
-168 -3966 0
-3088 1366 0
-4152 2538 0
-102 1670 0
-469 2455 0
4478 4560 0
-2279 -3146 0
1527 1087 0
4049 4467 0
-2165 -142 0
-2067 647 0
-2194 -3149 0
3115 3722 0
-2791 -2182 0
-1939 -2012 0
-1708 549 0
3073 2197 0
-1736 -300 0
-1710 -2127 0
2595 2483 0
-2077 -902 0
646 4351 0
3339 -580 0
1107 3698 0
-2161 -2196 0
937 -2554 0
2700 -4537 0
-216 -3847 0
-799 -3649 0
-3728 2240 0
4109 -2383 0
-2659 -3400 0
2033 -3343 0
1891 -167 0
-3001 -4501 0
-2126 4191 0
1211 806 0
2170 -1105 0
4478 1430 0
1334 -1494 0
3700 2508 0
-3635 -3720 0
-2807 -748 0
-3444 2495 0
-671 1836 0
3971 -2194 0
-4302 -2047 0
-2067 933 0
-4300 -2579 0
1194 -2455 0
-2794 1315 0
-1049 1303 0
-4049 -3440 0
4495 -1856 0
3189 3645 0
-4624 3801 0
-1716 374 0
405 -670 0
4058 -3455 0
-2896 3761 0
4307 -2030 0
2679 -1476 0
1901 3892 0
-3467 -3103 0
-1752 932 0
3308 978 0
1944 844 0
-2007 -1451 0
3535 -493 0
-969 4161 0
-275 -3337 0
1449 3843 0
534 -667 0
-4058 -1737 0
-4195 1704 0
-451 3929 0
800 -2509 0
-2012 1382 0
326 -1427 0
1828 2380 0
-2972 -4595 0
1709 -2939 0
3246 -4534 0
-2374 -1432 0
-2536 -4095 0
2849 -1901 0
2419 1531 0
-2962 1503 0
-4056 3107 0
-1536 -3714 0
491 2748 0
-3711 2125 0
-4066 2514 0
3450 -3500 0
1258 4093 0
-3231 -2117 0
2365 3366 0
2968 -592 0
1703 3376 0
736 -790 0
1711 2577 0
2391 -2016 0
-1284 3652 0
3115 -341 0
-2684 96 0
4165 -2012 0
920 156 0
-3583 -1076 0
1660 3585 0
-169 3950 0
1365 3042 0
1116 1814 0
4274 1440 0
-1504 4148 0
-2256 -2805 0
-910 3114 0
223 -1017 0
3670 -3412 0
-1113 -852 0
-1729 -89 0
-3121 114 0
1271 2516 0
927 3535 0
3967 -1717 0
1696 2233 0
-1400 -1861 0
-320 229 0
-3116 -4057 0
1660 -983 0
834 -3850 0
-2804 -2665 0
2845 -1886 0
-2394 1367 0
1605 1952 0
4407 4346 0
-4105 2667 0
1219 -1169 0
510 3295 0
1118 2833 0
-2172 3115 0
783 -1391 0
-1437 477 0
-1540 1253 0
1739 2370 0
-3612 -716 0
-4117 2626 0
-728 -2022 0
-3422 -3784 0
2312 -1851 0
-2804 2155 0
448 1189 0
1842 2979 0
-805 573 0
-468 -4557 0
3597 3877 0
1309 -1116 0
2792 -2988 0
-4448 3726 0
-2413 3329 0
-4328 -811 0
1499 -1602 0
-4632 -2820 0
3839 -2758 0
-3634 2601 0
-1269 -3110 0
-3210 -3795 0
2963 416 0
-4366 -3894 0
4129 -373 0
85 -3683 0
-2493 1769 0
2075 -1841 0
2869 4345 0
1018 -2655 0
-4400 4129 0
1552 -3552 0
-1057 -3562 0
-4217 2391 0
-1243 -3426 0
-1747 3972 0
2850 -1010 0
2677 3941 0
1136 2489 0
4557 -746 0
-677 -3673 0
-1418 1055 0
-2290 -1282 0
3987 2355 0
-1708 1987 0
1389 1683 0
4284 -3560 0
-2506 1791 0
-3309 -4417 0
84 -1281 0
4557 -1136 0
459 4154 0
3252 -3303 0
-1936 -347 0
2219 3376 0
-238 1325 0
-3675 -4063 0
-2475 3858 0
-4231 3168 0
-2394 -2423 0
-2421 3865 0
2899 -962 0
186 1679 0
-2807 3418 0
350 -4137 0
-2200 2957 0
1619 4311 0
-1451 556 0
-200 660 0
-759 -3232 0
-372 4050 0
-867 -1010 0
792 -1592 0
-715 81 0
-3832 -2945 0
-2129 45 0
-2169 3953 0
2193 1378 0
-2204 -511 0
-2400 2780 0
1872 3111 0
-1638 3146 0
1604 2033 0
1393 -2607 0
2582 4525 0
-1508 3241 0
989 3419 0
3370 2201 0
-2745 -2466 0
-199 1765 0
-122 2745 0
-1763 -4112 0
-2763 -3587 0
-2316 -990 0
-350 -4310 0
-2851 -1012 0
-2423 2474 0
3038 -3337 0
-3768 -1826 0
2466 -2910 0
-137 -3413 0
-391 4281 0
-2448 1597 0
-44 -1727 0
626 -3047 0
-3514 -3707 0
2848 3628 0
-1469 -1404 0
3702 -431 0
-2788 3319 0
434 480 0
1131 2377 0
3618 470 0
3931 -4542 0
3158 -207 0
-3333 -3856 0
1744 -1090 0
2987 -1620 0
1290 -2600 0
-1937 4047 0
-1246 -68 0
1971 -65 0
-112 4393 0
-2509 3766 0
4334 1320 0
-2743 -3904 0
-3416 -4338 0
1583 889 0
4371 4312 0
1255 3620 0
-4309 -2811 0
-2779 -735 0
-1575 4586 0
-114 4375 0
-2524 2446 0
4538 2221 0
1872 -4439 0
-226 -1618 0
2202 -3537 0
1344 -3444 0
1917 70 0
-1309 -1412 0
-4419 -3601 0
-4295 -3668 0
-1754 404 0
2209 -3158 0
4492 -443 0
-3919 -3349 0
2886 4030 0
-2745 -2542 0
-1937 -1473 0
-1959 -3348 0
-2269 4507 0
779 -701 0
2319 -4429 0
4299 -2988 0
1774 2615 0
-2622 -2040 0
1617 -1919 0
-2479 -4070 0
3409 2086 0
2449 425 0
-377 -3051 0
71 -3397 0
-96 -2060 0
4301 1219 0
1516 2297 0
319 482 0
-3987 3006 0
-2310 164 0
-379 -4532 0
-3511 -2515 0
2913 -2965 0
-1907 4629 0
316 -566 0
-3181 -3422 0
3998 1675 0
1863 1091 0
-3215 1130 0
4545 -3225 0
198 -939 0
-3351 -2319 0
-257 2680 0
999 1913 0
1736 -270 0
-73 278 0
2966 1126 0
383 -2226 0
-1212 -3986 0
-4033 -788 0
-1866 2201 0
1299 2076 0
3600 1432 0
3658 -514 0
1552 -4528 0
215 -1981 0
-1980 -1962 0
3160 2087 0
3547 -4524 0
-3943 -2263 0
-1663 -2724 0
-3645 541 0
-2718 -3106 0
928 539 0
4213 1080 0
1233 -1607 0
-3198 4278 0
3878 -730 0
-554 -611 0
740 -2045 0
-2015 -1548 0
-1107 839 0
1214 2296 0
-543 1433 0
2176 -2150 0
3731 -1946 0
3847 4135 0
3908 -3037 0
-2008 -3695 0
-1439 944 0
4147 3209 0
2082 -1341 0
-2705 -1002 0
2390 -2729 0
-1843 -659 0
2833 -3960 0
-1383 538 0
793 1646 0
2034 -403 0
-1758 2032 0
-4602 -3400 0
2861 2000 0
-2731 -168 0
3893 3010 0
-151 3581 0
-1930 868 0
2004 4366 0
4483 2741 0
2176 4435 0
3250 -2447 0
-1079 2490 0
3292 2707 0
-1641 -4125 0
-3653 -4212 0
-4553 -2427 0
-2525 -3190 0
-3585 -2646 0
4464 -1345 0
1581 828 0
-3886 2997 0
162 -3378 0
-3495 2861 0
-3035 3371 0
-39 -2850 0
-2858 785 0
1581 -2965 0
2535 2726 0
-2492 2620 0
-2572 677 0
2857 -163 0
388 -3717 0
-3887 -834 0
-2408 -3358 0
1310 -988 0
-396 -1041 0
-3845 -3426 0
1908 2079 0
1940 3316 0
1423 -3624 0
-3345 -1542 0
815 -687 0
-3664 -204 0
123 -963 0
-1142 742 0
-2931 1939 0
-1947 2262 0
4114 4617 0
2630 2335 0
981 3255 0
3137 -651 0
2694 -1123 0
2010 -4047 0
-4603 1152 0
1267 1890 0
4079 -3045 0
-1684 994 0
3431 1954 0
594 -3468 0
-2806 -1967 0
-4572 3432 0
-2018 731 0
-153 -2654 0
-4597 -982 0
-2173 -1056 0
1802 2569 0
-2224 3758 0
3313 -3838 0
-2894 4489 0
-916 -898 0
2412 -3359 0
-3615 -4384 0
3909 3530 0
-4109 3668 0
-4328 -2527 0
-3804 -4047 0
-3082 -985 0
-8 2529 0
608 -3643 0
-616 2915 0
2949 -1141 0
-133 2772 0
2006 -2600 0
-3536 1958 0
1757 1699 0
-1322 1577 0
3492 -1360 0
4572 4064 0
1692 -2330 0
-3834 -4159 0
2433 -4065 0
-357 -2622 0
3599 1247 0
-4534 1060 0
-2387 2906 0
-2504 3448 0
-3239 1390 0
3701 -9 0
-184 2587 0
2396 -1385 0
3679 1823 0
-2421 2631 0
-2139 3294 0
-3887 -3439 0
313 -4028 0
4133 909 0
-2208 3908 0
-709 1530 0
557 433 0
-1050 917 0
-2336 -859 0
2912 3486 0
-3490 1634 0
-2749 2932 0
-1918 -1614 0
850 4365 0
422 661 0
806 3828 0
3295 -2472 0
4507 -1626 0
-4032 2046 0
422 -802 0
3985 -3514 0
-2803 3237 0
1226 -1247 0
-3561 3801 0
-2987 3424 0
-1090 1816 0
-3013 1528 0
2712 1219 0
-4287 381 0
-1804 502 0
-4031 -1224 0
-1727 140 0
1862 2469 0
-4563 3600 0
-967 -2433 0
434 -1336 0
-3601 2008 0
3627 -2745 0
-138 1417 0
2232 4353 0
2227 -3373 0
4565 -2274 0
-2316 2082 0
1591 -1090 0
-377 2131 0
2869 -1591 0
871 1639 0
-3886 -4392 0
-87 -3064 0
-3337 -1111 0
1513 -2143 0
-2701 -4595 0
-3437 -2467 0
3914 -3473 0
3010 2428 0
1407 -4515 0
-3475 -4595 0
-250 997 0
-2480 -1503 0
4115 390 0
-1289 430 0
-4103 3924 0
-1269 830 0
-3822 -3813 0
-2009 2495 0
-1219 1989 0
-4175 4081 0
1968 2311 0
-183 -1649 0
-2222 3940 0
-4569 -1945 0
-3341 -3225 0
-1692 1818 0
1872 -2985 0
321 2634 0
4585 -912 0
825 -2331 0
-2807 -578 0
-1980 -3734 0
2464 321 0
-1558 934 0
243 1800 0
564 2925 0
1065 -1478 0
-514 -2084 0
-4042 -144 0
2377 -120 0
3589 53 0
-61 -4227 0
-2209 1131 0
1301 504 0
405 714 0
109 -1657 0
3851 -2293 0
229 -45 0
3136 -3126 0
-3348 1711 0
3559 -2963 0
-2169 419 0
2839 3982 0
-1268 1415 0
-2079 4153 0
2765 219 0
97 -4271 0
-1793 4540 0
1393 -552 0
-150 -2057 0
2232 1627 0
1293 718 0
-3979 -801 0
1655 -3540 0
-3631 -1053 0
-1606 -4031 0
-2154 -439 0
-943 -1095 0
-2341 -955 0
3027 1667 0
-361 467 0
1628 2393 0
403 -2663 0
1606 3879 0
-3244 2490 0
2742 -2277 0
-1141 -3529 0
-472 3052 0
945 4168 0
-4105 -2820 0
-2416 787 0
761 -1215 0
3426 1453 0
4347 3671 0
4274 1418 0
4016 -3086 0
-2256 -2513 0
-2091 1698 0
-1345 -1861 0
2525 2417 0
2114 1949 0
390 1930 0
-1755 -4255 0
-3163 -1837 0
363 3102 0
1718 677 0
-1220 -715 0
2024 -3950 0
-4384 -1773 0
-1345 4113 0
-983 908 0
930 -1232 0
2841 3199 0
2561 -3750 0
1911 -2096 0
-2408 2260 0
-3773 -942 0
-287 2118 0
-1838 -3580 0
2861 4630 0
-2420 -3837 0
4443 1630 0
-1138 1614 0
2015 -3734 0
-96 587 0
358 3284 0
1095 -3253 0
-2777 -3587 0
-2951 2108 0
1454 -4348 0
2524 486 0
4604 2721 0
1891 -2329 0
3453 91 0
4622 -2599 0
-1825 -400 0
2676 -4601 0
-1175 3320 0
-4287 -4393 0
-687 -3930 0
745 -3734 0
-265 1921 0
2576 -1752 0
2567 -4321 0
4361 193 0
-1971 322 0
2972 2934 0
-2713 -351 0
-1692 -4612 0
-2975 694 0
971 -2562 0
-3040 4397 0
-3859 -2978 0
-1149 1593 0
3451 -4508 0
-2193 3609 0
-4399 2724 0
3409 59 0
-3866 3168 0
-1785 429 0
-982 -1092 0
4064 -4488 0
271 2452 0
1112 3689 0
-12 3552 0
-1746 818 0
4106 3997 0
-4196 3727 0
62 2087 0
4362 2367 0
-2461 -1531 0
-142 3318 0
-3580 915 0
497 2297 0
-1851 4393 0
-3995 -1058 0
1520 2266 0
-2097 4038 0
-3342 -853 0
-373 2504 0
-439 204 0
-668 -208 0
-3454 -4567 0
-1492 -3669 0
3293 4170 0
775 -4385 0
-562 -384 0
-48 3129 0
1621 -2733 0
-3553 1711 0
-3607 -234 0
-3138 4309 0
-3382 -3181 0
-4511 1578 0
-3269 -1632 0
2527 4594 0
-2291 4296 0
2942 -1855 0
896 -3893 0
-4015 -4391 0
375 4539 0
4378 1656 0
-710 -473 0
2195 3263 0
3944 4128 0
161 1211 0
799 -210 0
219 -4006 0
2010 2547 0
1277 3480 0
898 -3153 0
-3954 -3635 0
-4237 3456 0
-4570 1742 0
-3118 2994 0
-1797 -2690 0
3989 -407 0
2426 -1503 0
-897 -4289 0
-4174 3965 0
87 -4568 0
2632 1158 0
4041 1240 0
1189 388 0
4441 -103 0
3164 415 0
-2468 -3467 0
1275 4121 0
-2261 242 0
-1117 4213 0
2830 -1839 0
-180 -3277 0
659 -1826 0
-856 3941 0
-4451 -1171 0
-1119 1154 0
3044 2152 0
-1395 2462 0
-716 940 0
3784 3517 0
-4092 -3059 0
-4618 -291 0
-4471 -1971 0
1965 -1145 0
-4064 -2422 0
-596 -3386 0
-4613 4456 0
2124 -1576 0
4013 4518 0
-411 1075 0
4032 4068 0
2996 -261 0
3549 3016 0
1637 3073 0
-2938 -3140 0
4146 -2966 0
3881 -314 0
2883 -3231 0
3069 2443 0
-2607 -208 0
-41 4283 0
670 -1816 0
3189 -1847 0
1749 1467 0
-4023 1673 0
1251 -2060 0
2723 4453 0
1387 -1317 0
-2018 459 0
435 -261 0
-1388 2386 0
1660 3251 0
-2960 379 0
1797 1190 0
993 978 0
2708 2950 0
-4140 -1124 0
-1287 -4258 0
-4258 99 0
2006 2726 0
2983 172 0
-4319 2873 0
-1451 1341 0
1083 4029 0
-591 -3141 0
-2190 3264 0
992 -1254 0
2752 -727 0
2077 1604 0
-814 3028 0
-3802 2675 0
1274 -4261 0
-2731 461 0
2523 -75 0
-2126 -2722 0
-1217 -1815 0
-2696 649 0
1944 -1948 0
2214 -4221 0
1761 -674 0
70 4053 0
3475 643 0
-2471 3600 0
-610 -1861 0
3945 3147 0
2440 2383 0
-302 -757 0
-641 2856 0
-126 2252 0
-4159 -684 0
-2744 2854 0
4180 4549 0
-3784 -4068 0
1048 -1312 0
-2405 2649 0
3310 1021 0
-1619 -2905 0
-4089 -107 0
3579 -4230 0
-3453 3651 0
2345 -2280 0
3654 -4250 0
184 -2044 0
-609 -4286 0
2032 3879 0
1649 -3126 0
-2893 -653 0
3997 1023 0
-2273 -4159 0
-1304 2831 0
-1178 3275 0
3538 -2122 0
-4418 2832 0
-2614 3145 0
2531 2246 0
-3225 1814 0
4196 -612 0
-4273 3488 0
-1391 2993 0
3368 3334 0
-2211 -2429 0
4238 2556 0
2393 -3185 0
602 -3499 0
3477 -1172 0
1691 3413 0
-3903 2268 0
3692 3409 0
4460 -4522 0
-3419 1084 0
-2562 -2681 0
-163 1628 0
4141 -4540 0
406 2183 0
-1812 257 0
-3537 928 0
-2565 -3254 0
2509 1712 0
-2179 125 0
-1504 2506 0
222 -4190 0
-3368 -2820 0
2317 -2877 0
992 -2734 0
-1604 233 0
48 -3948 0
-3273 -4271 0
-3854 3316 0
-3649 1902 0
-1058 -1915 0
-601 -1485 0
746 1314 0
1148 1307 0
-2103 -890 0
3576 1519 0
-1905 -3347 0
358 440 0
3812 -2327 0
1179 2009 0
-174 -1031 0
-1946 -1406 0
4141 1966 0
1343 986 0
4618 2213 0
-831 2539 0
3642 -3522 0
2363 779 0
-690 -102 0
-3295 682 0
-873 1938 0
1718 3279 0
259 2367 0
-492 -1677 0
794 1547 0
-2375 -3172 0
4178 549 0
-2932 -2034 0
-2056 -711 0
-1297 -4126 0
-1264 -3358 0
254 -3943 0
152 1006 0
4245 -2597 0
-2737 3696 0
1280 3768 0
4538 60 0
4015 -1625 0
636 -2379 0
-3792 4134 0
2231 -2636 0
-1660 -2600 0
-4551 -4268 0
-2342 3719 0
-2835 -2127 0
-842 3348 0
1897 -2734 0
-2241 -4176 0
-3840 827 0
326 3697 0
-1233 -3048 0
-3936 373 0
2834 -4167 0
-3437 3087 0
2149 703 0
2062 2247 0
3741 4331 0
-59 2943 0
2531 1975 0
2529 -3338 0
-4393 -3544 0
529 2671 0
2406 662 0
3799 840 0
-2286 -1142 0
2460 3714 0
-664 -1907 0
3997 889 0
-2161 3839 0
2349 672 0
3621 2966 0
1851 -1222 0
-280 -1388 0
-2621 3581 0
3749 4157 0
-3304 -2336 0
4435 3668 0
-4304 -600 0
3651 -2894 0
1674 -1160 0
4631 -3680 0
323 2791 0
-2883 -2121 0
4596 3346 0
-2954 -3495 0
970 2928 0
1852 3949 0
354 -2771 0
3225 -813 0
-738 -3040 0
-178 -4606 0
-2287 196 0
-2705 3478 0
-4473 -3943 0
178 -4160 0
-3341 3166 0
4370 -1471 0
2267 -2561 0
1637 -1553 0
-366 -2998 0
1096 -3100 0
677 452 0
-4519 2788 0
3911 3980 0
-406 4135 0
-3619 655 0
903 -1264 0
-1737 4187 0
-1225 -4136 0
2027 -4577 0
1921 914 0
-1641 -1775 0
4316 -2055 0
4514 4121 0
1878 -4309 0
472 1245 0
-660 -2977 0
-1931 -4162 0
864 -3428 0
-2500 -163 0
-2769 1211 0
3760 2971 0
3653 3632 0
-3345 -4325 0
3568 -3692 0
2408 275 0
-148 3859 0
-4597 4407 0
336 -3472 0
-1641 -4224 0
-191 -3681 0
4591 3017 0
4200 70 0
1520 4402 0
349 3947 0
3606 -526 0
-398 -128 0
-2703 3220 0
3513 316 0
4177 3430 0
-3727 1499 0
2957 644 0
4182 -375 0
-4608 -2652 0
4134 -503 0
776 2212 0
-697 -4313 0
3794 -1517 0
2989 302 0
1286 2444 0
-3880 -1215 0
1687 2131 0
-4075 2398 0
-3834 4228 0
-3469 -3254 0
2885 3971 0
2305 613 0
-837 3546 0
-419 -1419 0
-627 -4549 0
4596 -1566 0
-867 321 0
-422 214 0
-1011 -2855 0
39 4173 0
-1736 -181 0
-1386 -51 0
607 4610 0
-4274 1790 0
830 2162 0
3761 4329 0
-2731 1208 0
3829 1766 0
4492 -220 0
932 -775 0
-4530 -3895 0
-1733 1288 0
-3596 -4346 0
-2236 -3151 0
2422 4172 0
-2953 3979 0
-2798 -2603 0
2090 -1923 0
-3907 446 0
-4310 4062 0
1737 -3452 0
1761 -1034 0
-1832 -3852 0
-3018 -1603 0
-1252 -3904 0
162 4357 0
1337 -1282 0
-3445 4180 0
-1166 3985 0
549 3370 0
2140 -1502 0
2024 -792 0
-764 3338 0
2149 1354 0
2737 -3863 0
2876 -4376 0
-3544 387 0
3226 2370 0
-2117 -4131 0
714 1214 0
3297 4161 0
2067 -2375 0
3936 -3420 0
-2127 -3349 0
-1427 4392 0
-4263 3514 0
3881 2439 0
2689 1385 0
-153 1034 0
-2468 2689 0
1424 2342 0
1750 -4623 0
3605 -1874 0
-2305 -2168 0
-4449 -1341 0
-1074 456 0
2507 -3383 0
2803 -1636 0
-3622 1278 0
-912 3320 0
-2991 -1434 0
670 2334 0
-2747 3557 0
-3584 401 0
1727 758 0
1751 2115 0
-3139 918 0
2008 -4618 0
3736 -999 0
1848 3913 0
-2501 634 0
-2559 -1897 0
-3231 4618 0
1333 -3544 0
2833 -2577 0
4565 729 0
2742 1160 0
-4228 -918 0
-1217 2364 0
-2707 2619 0
1162 3500 0
-2126 -2077 0
-4456 42 0
1525 3600 0
693 -1182 0
-378 2292 0
-1404 -4346 0
1923 574 0
357 -3234 0
-2344 -2849 0
-3035 -3024 0
2957 -1213 0
1155 -1736 0
-1693 -2303 0
-3217 -3357 0
3687 2511 0
-4308 2856 0
-1861 2544 0
-2625 -4 0
-704 -4087 0
3481 2129 0
2715 -4263 0
-283 3485 0
3727 -3377 0
2287 -1473 0
-3276 -959 0
3005 1481 0
-1090 2429 0
-954 1969 0
2536 -3505 0
1486 -3291 0
2627 1822 0
792 3875 0
-126 3546 0
540 -1222 0
2097 -1921 0
-4450 531 0
-2552 -1906 0
2053 2217 0
-4426 -2206 0
914 -2173 0
384 1781 0
-1806 -1163 0
-1950 805 0
2799 1927 0
-4240 -1850 0
-2678 -2841 0
710 -4592 0
-4062 -708 0
1767 4373 0
-2266 -607 0
-2626 3095 0
624 -632 0
4178 -3411 0
-1238 3421 0
4514 2532 0
1940 4585 0
1674 3762 0
-2733 2740 0
-3581 -188 0
-799 3052 0
4509 1844 0
249 -957 0
3329 -3289 0
1034 4622 0
-1374 -2412 0
2507 1812 0
-1772 -1760 0
1966 -542 0
-3466 -513 0
-4075 -4352 0
3766 3552 0
-2952 1556 0
-1907 -2728 0
1829 -4240 0
-229 4425 0
-2690 3922 0
-368 -2351 0
4178 -2850 0
-1157 -1199 0
-4315 -111 0
1959 2950 0
-2919 -3801 0
-4492 -3457 0
-3692 -1817 0
3528 59 0
2097 2849 0
481 -2264 0
-524 -2066 0
-4403 745 0
-1533 -4201 0
2763 1694 0
1501 -4600 0
1962 4199 0
-1571 24 0
-2151 4606 0
3520 -208 0
1374 1274 0
-3645 -2631 0
-2706 -1209 0
1450 1601 0
-406 -1121 0
692 3955 0
3768 662 0
2201 -3793 0
960 -4596 0
-971 -1620 0
989 -4563 0
3728 2287 0
4437 1891 0
1644 221 0
-1637 1039 0
736 -3795 0
-1120 -1246 0
3311 1774 0
3286 2158 0
-1130 -1362 0
1084 -3572 0
4363 3323 0
295 1036 0
190 3205 0
-3788 -2150 0
-3616 1208 0
2859 3787 0
-1079 -1655 0
272 669 0
4049 1642 0
-4019 -3659 0
-1248 528 0
-579 -445 0
1803 2001 0
-4002 59 0
4251 3974 0
3863 575 0
-1796 -2898 0
571 1844 0
-4569 1584 0
2857 1993 0
2000 987 0
3476 -3795 0
-2374 -1906 0
-1401 -4309 0
2763 3330 0
2645 -3453 0
-977 -1254 0
3558 -2103 0
-2109 -1078 0
1581 -413 0
-854 -4490 0
3108 1958 0
-4420 2001 0
3431 -1894 0
-1767 733 0
-1172 29 0
-3300 393 0
2874 4529 0
4079 -3494 0
42 -2092 0
-1074 -2060 0
25 291 0
-3624 -1431 0
2633 -2255 0
1212 1414 0
306 -2097 0
4527 -2474 0
-3065 -1580 0
1884 -3021 0
1699 2347 0
449 -1860 0
-349 497 0
2033 -394 0
-1667 1570 0
2767 782 0
2481 2458 0
2684 131 0
2715 3447 0
-2514 2335 0
728 -567 0
1195 253 0
-4076 -3004 0
3185 -1487 0
-3571 -3936 0
1393 -1832 0
-4517 1554 0
4487 265 0
-3070 -305 0
4170 -2710 0
-1218 2133 0
3309 -3041 0
-2572 -2867 0
-3569 1709 0
-2002 3419 0
-4263 2367 0
-318 4163 0
-2119 905 0
3794 2091 0
4283 2492 0
2210 -320 0
4404 2609 0
-3753 -4048 0
197 -2823 0
10 -2151 0
-71 2543 0
1394 -2835 0
2488 1729 0
-94 -4490 0
-1171 3550 0
2966 3360 0
4115 2327 0
2712 -4304 0
-1090 -977 0
-4253 2616 0
-3296 157 0
-580 4603 0
2076 1640 0
-2772 -14 0
-98 2660 0
2291 2699 0
-1532 -2551 0
1313 -4393 0
608 1639 0
-2699 -962 0
-925 239 0
-4138 2874 0
-2099 3284 0
-2559 2725 0
-4289 -496 0
919 145 0
1810 -2677 0
-3168 -2489 0
388 1583 0
-4558 -2732 0
2649 -954 0
-620 216 0
3769 3688 0
-959 -1160 0
-3589 -3205 0
-1827 4476 0
-1188 1063 0
-2813 4477 0
-3501 784 0
2177 -2188 0
-2391 328 0
-314 536 0
2307 -4454 0
462 899 0
-2308 4256 0
-2175 3624 0
-2170 2544 0
1130 3504 0
-3482 -951 0
2403 -1753 0
-3788 1765 0
-4371 563 0
-4429 759 0
-2684 3710 0
3660 1699 0
3623 2839 0
3293 3573 0
760 -2513 0
-527 2454 0
840 -741 0
-2557 -796 0
3229 868 0
-3936 3229 0
3096 243 0
-1408 -4552 0
-3837 2546 0
2847 3956 0
3172 -3619 0
1240 2704 0
-2434 547 0
4628 4371 0
3724 4561 0
4240 3536 0
-957 410 0
1146 -609 0
-1425 -874 0
422 -977 0
-4355 3931 0
986 241 0
1653 2137 0
-1587 -669 0
-1740 -2522 0
4487 3846 0
-897 -4148 0
-1311 -3639 0
-833 -1772 0
-1557 2844 0
-4246 1650 0
-3714 -2434 0
2970 -3821 0
-923 -4092 0
-134 421 0
-4365 3194 0
1160 2877 0
4553 -3716 0
1528 3227 0
2359 3936 0
3172 2610 0
1310 272 0
2275 -3131 0
-4585 -1539 0
-3079 1991 0
3324 753 0
1973 2846 0
-2301 60 0
3591 3488 0
628 -2481 0
-503 -2591 0
1570 3427 0
-1150 2749 0
-3893 1939 0
-465 414 0
619 -1284 0
-721 4515 0
1892 1145 0
953 1302 0
-2497 -1829 0
-1144 484 0
3843 2547 0
-2536 2784 0
4087 -3809 0
-1511 -2278 0
1931 3508 0
3755 -1722 0
4600 2599 0
2424 -3810 0
4107 988 0
2916 -1303 0
44 3243 0
482 3476 0
-1966 -769 0
2669 -3048 0
-587 3153 0
-1242 2006 0
3026 1101 0
2580 3946 0
-4085 -145 0
1211 -3560 0
612 -3412 0
992 330 0
-3180 4432 0
-255 -490 0
3247 1166 0
3048 -680 0
-3274 -4026 0
-1439 -2015 0
-2103 -1802 0
-1183 -3336 0
-325 -1478 0
-3852 580 0
-2988 -2034 0
2990 -2031 0
-3619 2792 0
1620 482 0
281 -2611 0
2529 971 0
-3431 -1464 0
-1850 -1887 0
3477 -3509 0
-2172 3857 0
3919 -4287 0
-2071 1158 0
-3695 -655 0
4574 1515 0
-1475 -1248 0
-3952 2675 0
941 1086 0
3664 976 0
2838 -1264 0
3642 -3603 0
-3944 -3844 0
-942 -660 0
1857 -795 0
720 1617 0
1765 1086 0
2963 4562 0
-3949 -3795 0
3515 938 0
530 2678 0
-3735 -1265 0
-1451 -499 0
-107 -4551 0
-2000 2289 0
1378 -3744 0
-2563 405 0
1305 1774 0
4013 -894 0
2666 3732 0
-1113 223 0
-4578 2458 0
3071 -340 0
3713 3569 0
-3233 3867 0
-4104 -4378 0
-4436 2332 0
3046 -4256 0
4017 -3625 0
-1116 501 0
1280 -865 0
-1211 3944 0
2865 -136 0
760 -89 0
42 1786 0
3485 4389 0
1802 2993 0
-2556 1744 0
-1470 -367 0
-2042 3362 0
1386 -2612 0
-536 3706 0
-2593 -1066 0
1325 3780 0
2500 -3699 0
967 -3744 0
954 4438 0
4619 -3540 0
-2745 -3546 0
-3845 2471 0
1130 -1347 0
4143 -836 0
2033 1154 0
-734 -524 0
3471 -269 0
829 -541 0
2146 4040 0
412 -2198 0
2496 4470 0
-325 -1722 0
-3248 -4069 0
539 -1777 0
-856 2431 0
107 -4105 0
-3988 3490 0
-451 -1487 0
-1541 458 0
-170 -4439 0
-637 -4067 0
1866 2990 0
3914 -391 0
668 -887 0
-2986 3567 0
1660 4045 0
-1313 4564 0
-1300 -3290 0
1666 2659 0
726 -4554 0
-1697 1401 0
-1038 2503 0
-3002 2086 0
532 3486 0
4524 3671 0
-3555 -1280 0
-3340 480 0
-880 4007 0
1707 3439 0
-362 -4308 0
-4291 1665 0
1995 -3409 0
-2078 -3300 0
-4027 -1533 0
-4075 -1400 0
239 1391 0
1237 -3023 0
-4105 -2855 0
960 3161 0
2848 665 0
251 2283 0
953 947 0
1340 976 0
-3390 -325 0
1964 3642 0
4083 -1328 0
1747 563 0
381 1087 0
-4196 846 0
4093 2731 0
3975 3057 0
-2883 -3875 0
1627 3740 0
-3546 -952 0
970 -3105 0
548 2139 0
-2769 649 0
-1773 4491 0
2708 3017 0
171 -39 0
-1256 3829 0
-2115 -3885 0
-1683 4264 0
3011 3686 0
1035 -4151 0
4152 647 0
-2370 -3406 0
-2577 -1845 0
-872 -2415 0
2981 -3400 0
-2999 -3469 0
4034 4541 0
-3141 -1692 0
-1932 388 0
1917 -3542 0
-2029 -2472 0
-1705 -4089 0
1334 -79 0
4537 -3838 0
-188 -2186 0
-852 -824 0
-728 3573 0
1129 -3559 0
-4289 1229 0
-113 2892 0
3836 -4097 0
1545 -2017 0
118 3605 0
-975 -98 0
-3875 1797 0
-265 1646 0
1688 -3858 0
1539 1289 0
3295 3748 0
-2716 -142 0
890 -2360 0
2630 -1421 0
2549 -789 0
-791 -105 0
-2057 -136 0
1039 2699 0
515 -860 0
-4567 4346 0
-12 -3222 0
1020 -697 0
-1836 -3013 0
3028 1714 0
2136 -2307 0
-325 -608 0
-4393 3491 0
2576 1504 0
-3172 159 0
-2448 651 0
-3343 978 0
3654 -764 0
-2028 -20 0
491 -52 0
-3402 -596 0
-3117 -1752 0
3823 -1651 0
3128 -3941 0
-529 1519 0
2462 -3321 0
-3142 13 0
-1598 -1540 0
3993 1761 0
1674 -2090 0
4371 614 0
4458 -1734 0
-70 -1123 0
3470 1662 0
4229 -1964 0
1934 -3603 0
-4256 4462 0
4328 -3201 0
-3907 -4125 0
1153 579 0
-1035 4594 0
-4503 -75 0
3689 2102 0
-3331 -2104 0
-2975 -140 0
-285 2858 0
-3416 3766 0
487 -2920 0
1701 -4209 0
286 -1015 0
-618 -3194 0
1833 1271 0
2006 -1728 0
-4495 4015 0
4045 3724 0
-4151 987 0
3549 447 0
-3260 -1585 0
4402 313 0
2893 4590 0
-1689 138 0
-3850 -4180 0
-451 -2199 0
-1570 -523 0
1390 -3509 0
-3954 685 0
1451 -3323 0
4253 1024 0
-3580 -1801 0
-2061 -510 0
2369 -2405 0
3602 3588 0
-4403 3236 0
4009 -1625 0
-4313 644 0
-1175 -1988 0
-2969 -767 0
636 -3322 0
2839 -487 0
-2952 2045 0
-4149 3213 0
908 4420 0
1587 3915 0
3648 -270 0
2488 3455 0
-3822 -2966 0
-216 -2023 0
-1976 -2353 0
-1897 573 0
-3841 3922 0
1917 1685 0
378 -330 0
-1412 724 0
-11 4255 0
3403 -3692 0
3748 -3904 0
4197 4030 0
3589 -3869 0
-3003 -2827 0
-2470 2176 0
1134 -2407 0
-1244 1518 0
-2294 -2337 0
-589 3693 0
1573 -1605 0
-2078 -1342 0
-4558 2328 0
-4212 -3403 0
1853 -1220 0
312 -4175 0
-2450 -825 0
3813 -4096 0
-2619 -1388 0
-2878 1922 0
-3923 -524 0
1129 1846 0
1630 -65 0
-3948 -693 0
1326 823 0
-1749 2911 0
128 505 0
-4550 -4262 0
1754 -2636 0
3933 -1212 0
1855 4365 0
2796 -936 0
4085 -4315 0
2388 3788 0
2903 727 0
1551 -2377 0
1257 3894 0
-3866 -2493 0
-1685 -1907 0
2836 -1870 0
679 2488 0
864 1799 0
308 4087 0
-2564 2271 0
-2246 499 0
-3708 -104 0
223 2787 0
-1926 -4426 0
2218 1959 0
-1181 -366 0
531 1855 0
-2915 4540 0
-542 -2783 0
-2309 -3397 0
1944 2236 0
4196 2540 0
2009 4436 0
4362 -817 0
-2762 -523 0
4447 1125 0
-4352 -560 0
1934 -3399 0
919 -4348 0
648 -1728 0
-1779 -1689 0
3537 -855 0
-3214 -606 0
2575 -2571 0
481 -4249 0
-2513 1782 0
4473 -6 0
-3242 -1239 0
3599 2194 0
-4352 -2024 0
-2676 1817 0
-3104 3297 0
3564 -3383 0
-1628 1870 0
-3825 510 0
3239 -394 0
591 918 0
-4066 4271 0
3443 -1621 0
4113 73 0
1756 -3335 0
4274 3157 0
-1191 3549 0
2835 -1254 0
-3516 1948 0
1461 2112 0
294 980 0
945 -3747 0
-3721 -3215 0
3307 3379 0
-4577 2100 0
-164 -4020 0
-965 -4031 0
-1268 -4070 0
-1825 424 0
-751 3588 0
-2250 3905 0
-4221 1021 0
1139 1361 0
-1494 2137 0
-1548 -1486 0
2687 1624 0
-3124 3723 0
-3874 -3261 0
-1648 -4197 0
-61 -2273 0
-1490 273 0
-4537 -3390 0
-150 1295 0
556 -1451 0
4249 2471 0
694 3788 0
-2344 81 0
3473 2588 0
-3133 -1871 0
3333 -3240 0
2424 -2949 0
-1248 -1518 0
4564 -917 0
-612 -4485 0
-4028 4072 0
3284 -4026 0
-660 -4360 0
-3971 2269 0
2874 2853 0
1634 -4003 0
-1146 3098 0
193 3243 0
145 -3420 0
2207 -56 0
3426 2296 0
-3681 1804 0
1899 -1921 0
2653 4173 0
-3933 872 0
3876 -1374 0
-6 -3220 0
1035 3156 0
1808 1250 0
4588 -4445 0
-4528 1027 0
1389 -611 0
3946 -2304 0
-1319 -1261 0
3679 2190 0
-3453 -491 0
-1305 1466 0
1119 -3703 0
-162 2312 0
-1921 -4076 0
1299 -3079 0
710 4492 0
3128 -4629 0
-1565 -1797 0
-4035 1630 0
1841 -452 0
-3254 920 0
-4598 4532 0
-754 4508 0
-2145 1325 0
2990 3343 0
-2018 1360 0
-1177 2562 0
3941 -2949 0
966 1081 0
695 550 0
3636 -3917 0
-4285 639 0
-3230 -3001 0
1417 -3985 0
-3014 3384 0
2582 -2935 0
1762 2676 0
1396 2935 0
3949 2599 0
-3282 -1652 0
140 3318 0
-2410 1440 0
381 -3554 0
2237 3343 0
2456 -1200 0
-755 -866 0
669 4504 0
2097 -1432 0
2792 -2850 0
-2681 -3575 0
4600 3324 0
2968 -2099 0
1702 502 0
-755 -4511 0
-3283 -2770 0
-2529 -1960 0
-3337 120 0
3005 2510 0
564 3149 0
1315 -3136 0
1944 -670 0
-2827 3068 0
-4036 -947 0
1595 -1267 0
-494 -1550 0
-1091 1652 0
24 608 0
-1621 4080 0
4218 3323 0
-1431 -1485 0
804 2118 0
-1617 -1564 0
1710 -4130 0
3584 4569 0
3632 -4330 0
3214 -3707 0
-3693 -2341 0
3384 896 0
-4323 -1701 0
2184 -536 0
-1371 -1712 0
264 -3400 0
-3732 -2263 0
-3070 3007 0
2630 -4103 0
-2006 4018 0
1176 -823 0
1724 -1233 0
1416 -147 0
1799 -1841 0
2544 96 0
3075 2808 0
980 3704 0
-1638 2362 0
-3126 -2921 0
1277 -3399 0
894 -4534 0
-4441 -3869 0
-3142 -442 0
2026 -1784 0
-3512 762 0
-559 4413 0
1768 -3071 0
-2642 -70 0
1024 -2180 0
-1537 -4183 0
-2248 -139 0
3519 -2327 0
3403 3245 0
2641 -841 0
-2011 4342 0
4438 554 0
3316 307 0
2274 -4601 0
-3237 -2828 0
-4168 1323 0
1497 -952 0
-3359 -3917 0
800 3224 0
-1540 116 0
-4124 -2640 0
-4550 1055 0
2520 2970 0
1353 665 0
449 -2833 0
-1649 974 0
-1924 -118 0
-4489 2372 0
-2816 -334 0
-3190 292 0
-266 1979 0
-1963 171 0
-98 -2825 0
-4253 2653 0
2174 -3854 0
2202 -1909 0
1205 -2130 0
-3566 -3618 0
1327 -4621 0
3332 -313 0
4436 3987 0
3629 -257 0
-2497 1528 0
-103 -4 0
1442 3470 0
2220 -2525 0
-28 -3458 0
2462 -680 0
2752 4609 0
2227 -1291 0
-3883 1144 0
-3272 10 0
2635 -1435 0
-2514 3773 0
1130 -4570 0
-1243 4222 0
-4157 3297 0
-2066 -1133 0
1200 -2141 0
4446 1308 0
172 3339 0
-3424 -366 0
-1142 -1528 0
-3192 -2704 0
2610 -4313 0
3362 -3452 0
987 -3484 0
1750 1376 0
793 3942 0
1476 1709 0
2328 -3987 0
-3745 -697 0
2118 -2736 0
608 467 0
-1646 1192 0
1613 3425 0
3364 -604 0
2386 2555 0
2821 -2189 0
-1734 2462 0
1521 -2385 0
3828 920 0
-2022 2118 0
-2891 322 0
-3263 -2498 0
-255 2012 0
-1591 -2351 0
3179 1401 0
-4208 -3729 0
658 -3999 0
-2433 2202 0
-589 -269 0
-1355 -2869 0
4459 -1560 0
2845 -1533 0
-4608 2322 0
-1596 3696 0
1555 2617 0
281 119 0
-3900 921 0
4311 4156 0
2744 64 0
-3640 506 0
1982 1182 0
3614 -3220 0
-3013 -935 0
-3291 -2007 0
2477 3426 0
4109 -3059 0
-198 -3494 0
-373 4025 0
-4339 3812 0
-3382 -2380 0
-1142 3827 0
525 1401 0
914 4483 0
69 -3772 0
-1481 2091 0
-2104 1177 0
-1249 1622 0
1678 -1017 0
-1845 -1613 0
569 -4075 0
-3327 -2545 0
1791 653 0
-3861 3198 0
3956 -834 0
-1336 3094 0
-2085 -4021 0
-110 4402 0
1307 -4051 0
1167 -240 0
-2750 -3233 0
394 -1035 0
-3659 -1723 0
-2207 -716 0
2870 -1388 0
-1881 -3817 0
-2422 -45 0
4565 -3130 0
2709 -1726 0
-2807 -1191 0
-3961 4421 0
-4627 -450 0
2158 3985 0
-3546 1267 0
3421 -4440 0
1295 1590 0
-3794 2014 0
2635 -847 0
2197 -3793 0
-1090 3237 0
2999 -3683 0
-2347 -1148 0
4520 -2908 0
889 -67 0
-2206 3813 0
374 -1786 0
-2890 -2188 0
3985 3769 0
-3751 3819 0
-2207 1658 0
3239 2695 0
727 3347 0
-2052 3089 0
4233 -1490 0
-2884 -3185 0
3335 2919 0
-710 -1286 0
-2996 -3814 0
-1717 -2313 0
2880 -4154 0
-3785 560 0
-3035 3550 0
-981 2003 0
2428 3265 0
-3413 2776 0
4521 2216 0
1943 1742 0
4421 -1058 0
-3752 1101 0
-4119 836 0
2554 2964 0
-1825 -2805 0
2393 2390 0
-1480 2271 0
-1960 -50 0
-2143 1329 0
-232 2105 0
1290 -2450 0
-2930 -2437 0
-1560 2054 0
-4075 2006 0
2654 -2727 0
1424 3612 0
996 1064 0
2265 3783 0
4440 -4204 0
96 1703 0
3403 1927 0
662 -3620 0
-3215 35 0
-588 3888 0
1526 3566 0
-2878 3960 0
2069 4114 0
3780 -585 0
2503 -787 0
2584 371 0
-2232 -2768 0
-3354 4380 0
-444 -576 0
-2774 -1164 0
230 -133 0
4131 -4620 0
2045 3137 0
-347 -4471 0
4585 -2901 0
1002 -1371 0
-462 3727 0
129 3061 0
-2600 308 0
-633 661 0
4363 -4160 0
3838 -604 0
-965 -1053 0
1246 -4628 0
512 -2958 0
3235 152 0
-2943 4457 0
-1342 -926 0
4438 -4533 0
4453 3271 0
-2611 3389 0
148 2170 0
-287 2659 0
-2032 -664 0
-3713 -2166 0
-2767 -3144 0
1995 -3637 0
1581 1550 0
3585 4457 0
-2439 -1817 0
509 -3862 0
-4626 -688 0
4530 -3872 0
-4035 1703 0
-4411 -3747 0
3586 30 0
-1580 -4252 0
-2185 -3407 0
-732 -1713 0
3804 2865 0
3621 3785 0
-1831 -523 0
1702 -494 0
-1293 125 0
-3699 -504 0
-134 -4568 0
-3960 4571 0
-2825 -2261 0
89 2025 0
-3654 -3713 0
-816 -4089 0
-4598 2062 0
684 -3654 0
1785 -1571 0
-2740 -2121 0
3599 2904 0
-825 4623 0
-4411 -387 0
4272 -1747 0
-898 2044 0
-2304 -3491 0
-3860 1711 0
1422 -841 0
2341 1219 0
-4053 3625 0
2268 1247 0
1679 -1020 0
2535 -2381 0
2691 -2547 0
-1169 -1655 0
-1430 2899 0
3213 91 0
3605 840 0
1703 -1196 0
-3048 -1598 0
3553 298 0
-1355 -3364 0
-50 1399 0
3376 4403 0
-3397 3875 0
-427 -1957 0
-1433 -1455 0
-1206 -513 0
522 183 0
1498 3320 0
1917 -4517 0
-3107 -4365 0
-2031 -3016 0
1214 2468 0
627 196 0
3772 -4578 0
-3252 -3969 0
3230 4529 0
1803 4333 0
-477 -1481 0
4575 1503 0
267 -1668 0
3282 4576 0
-2689 -955 0
-2896 4394 0
-155 -1943 0
2111 3060 0
950 -89 0
1151 -988 0
2271 -4022 0
3393 -2200 0
3475 4198 0
-571 -4534 0
4218 -2684 0
-3875 -2096 0
-4393 -4440 0
-3934 1066 0
-1786 -3399 0
2508 -1834 0
2583 -1352 0
-1681 -3066 0
-176 -4467 0
2757 2335 0
-2467 -2986 0
-4475 -3053 0
3922 1882 0
-2639 1333 0
-1565 1250 0
-3349 1276 0
-2394 -3735 0
-1752 -1978 0
1450 -2148 0
3839 849 0
2797 3865 0
-2064 2363 0
1650 -3697 0
-4076 -3606 0
662 -4561 0
1172 -1116 0
-1199 1996 0
-548 2693 0
4495 4245 0
4473 4312 0
-2135 4402 0
-3261 414 0
2710 -4456 0
-1123 -3326 0
-1452 3189 0
313 -3934 0
-3237 -2676 0
2238 -404 0
-1124 2404 0
-1845 -1143 0
1940 3748 0
-959 -399 0
763 1846 0
-1803 1375 0
-4442 2507 0
1689 3329 0
-4610 -2355 0
3848 3562 0
-1180 3607 0
-653 -4287 0
1590 4125 0
-1057 -806 0
2745 2268 0
4121 -2197 0
-219 -3885 0
242 -2087 0
2477 -3837 0
-4006 4130 0
203 -2030 0
244 903 0
-1425 -3003 0
2170 -712 0
-385 1359 0
4423 -3587 0
1682 4127 0
3516 3854 0
-4084 1858 0
-3683 -3145 0
-3362 -3043 0
-4260 804 0
714 -1124 0
4129 -3862 0
-2668 2965 0
-1956 3957 0
1345 -2850 0
-3925 -3559 0
4146 4210 0
1701 -2224 0
1308 4224 0
1992 1634 0
2221 3323 0
-3937 -2282 0
2948 -2472 0
1574 -1158 0
2496 -666 0
1946 915 0
-1708 -1503 0
1653 -3467 0
-4340 -3647 0
-2948 3593 0
-4336 -1649 0
-1100 -805 0
-425 -3713 0
2155 417 0
-3887 -4070 0
-1664 913 0
-1444 2914 0
-442 -2556 0
3966 3268 0
-1567 4283 0
4477 2581 0
2293 -1611 0
583 -3696 0
3787 -672 0
-1739 -1432 0
306 -2654 0
3636 -1390 0
3845 3361 0
3308 -1530 0
-3528 1765 0
3294 -3576 0
2532 -4151 0
-1456 -2405 0
270 2857 0
554 -2207 0
-2122 -2304 0
-3137 2328 0
-2191 2496 0
1768 -3101 0
976 621 0
-2897 2810 0
-3974 -2166 0
2072 4006 0
-644 1131 0
-1804 -4602 0
-683 -2357 0
2923 -3695 0
773 -2039 0
254 1158 0
4421 -166 0
905 -2809 0
-764 3672 0
1848 1158 0
1876 282 0
-2146 -3765 0
2470 2363 0
-769 -44 0
-4085 514 0
-431 3190 0
1829 -3942 0
-3712 4512 0
1025 -2843 0
-904 3383 0
1944 2354 0
2326 -1408 0
2471 2651 0
-3967 1401 0
1977 2240 0
717 -1707 0
-3723 -4618 0
3793 328 0
1444 -2733 0
-1879 3180 0
-4020 -3423 0
-3687 2426 0
3543 -2230 0
-1153 -4554 0
2003 2393 0
-1228 -4164 0
-4251 -274 0
3989 1025 0
-1840 -3885 0
-4112 203 0
-2746 143 0
1337 -697 0
3949 3557 0
3391 1962 0
3740 -2315 0
3394 -1837 0
2326 580 0
2092 -417 0
1893 4234 0
-881 4243 0
2030 -3581 0
3853 -2127 0
-1366 -3726 0
2785 1333 0
-1040 2299 0
-1362 -1990 0
-3812 1750 0
1254 2938 0
-4076 2895 0
3815 -338 0
-1806 407 0
-4212 1226 0
-2559 -2885 0
-2731 2643 0
920 4590 0
247 4155 0
-2573 2291 0
693 -2270 0
412 3832 0
2942 2995 0
4338 -1212 0
-3020 6 0
2925 2440 0
-2218 -1294 0
-1438 2490 0
-2826 -1255 0
1727 152 0
-1080 591 0
-3620 3122 0
553 3678 0
-805 -711 0
-211 -2797 0
-1845 -3383 0
4205 -1697 0
-1173 -3302 0
2378 -3299 0
-1759 4570 0
3090 -1365 0
2370 2526 0
4336 -2993 0
2322 -4162 0
-2143 254 0
440 -2504 0
1685 -1903 0
4363 2840 0
-3940 -1374 0
1585 2797 0
328 -3562 0
3479 -3900 0
-3719 -1862 0
-377 422 0
-2333 -2254 0
2879 -4016 0
3664 1220 0
860 -565 0
4081 4601 0
3629 -3103 0
-1773 -3598 0
-2828 -4217 0
-427 1462 0
665 971 0
336 -3830 0
1710 665 0
-1575 2832 0
4148 379 0
1225 4149 0
-1363 -3801 0
4209 -1905 0
-3025 2588 0
-1104 4159 0
505 -2401 0
-2988 2114 0
-3232 -3290 0
1182 940 0
-4583 -15 0
-963 -1717 0
4485 3368 0
-3518 3931 0
-4076 2449 0
1739 392 0
4320 -4287 0
3697 -4046 0
1680 421 0
1902 -2129 0
3993 -1718 0
-3485 -3925 0
-1199 4312 0
4028 -1170 0
472 -182 0
-2747 3486 0
2540 1007 0
2049 -2609 0
762 3170 0
2720 -3581 0
-3146 3330 0
3707 3766 0
-3667 -1618 0
-890 4440 0
-2357 -2603 0
-3205 3578 0
2672 3550 0
3630 -876 0
26 -4264 0
142 659 0
3301 -3681 0
-684 -2721 0
-4077 -4381 0
-1929 -168 0
2601 -1490 0
-1077 -4271 0
3407 570 0
-138 2972 0
1566 1320 0
-799 3061 0
-796 -186 0
-1104 1614 0
1915 -1202 0
-4030 4064 0
-1076 -3680 0
4609 -2915 0
-1752 332 0
-2436 -199 0
-1629 -3561 0
-360 1704 0
-211 3756 0
-375 -3461 0
-1228 -1300 0
2538 -204 0
3477 -1542 0
-987 3651 0
3589 -3738 0
-2009 -764 0
3326 -810 0
-1311 -107 0
3652 3445 0
-868 -3693 0
-3869 3388 0
3941 3537 0
3707 -2102 0
-157 -3480 0
4425 -1243 0
2128 3061 0
322 -224 0
-2290 -3299 0
-3255 -2083 0
-4456 -33 0
-3119 -2589 0
-3282 1429 0
-4129 -1316 0
-3996 -4446 0
-1114 1044 0
-3328 -116 0
-2549 3477 0
2489 2313 0
1089 -3298 0
3263 2074 0
668 4338 0
-3271 -3850 0
-459 3501 0
369 -4593 0
4384 407 0
3806 -1075 0
-800 3344 0
-4031 2725 0
-3268 3998 0
2321 -1924 0
3508 4227 0
-3757 -208 0
-1244 -3893 0
-1281 322 0
-1830 -2921 0
-3568 3976 0
-170 -3159 0
-763 -3682 0
-3897 -1280 0
-3788 -3210 0
-2798 -2180 0
1467 -1529 0
281 -1408 0
-4428 2686 0
-765 -2293 0
-2708 4084 0
-3270 -2887 0
550 1134 0
38 2294 0
-4277 112 0
-2698 2606 0
-140 -1282 0
-1517 2279 0
2157 -1500 0
3246 2687 0
-4620 -671 0
-2959 4371 0
-1191 74 0
-4288 1989 0
-3792 -4505 0
617 -398 0
1110 -28 0
3791 -4538 0
1928 311 0
-2358 -3139 0
3450 -4238 0
-4017 -4027 0
291 -2776 0
3989 1081 0
2473 -1492 0
934 -566 0
2766 -887 0
1231 -930 0
1809 -3074 0
2366 -858 0
-2988 -1665 0
4491 4114 0
161 2570 0
-3173 2277 0
1460 744 0
-2248 -2840 0
-421 -3170 0
-2924 764 0
-777 -2661 0
290 3829 0
3095 -1048 0
4544 4218 0
-1120 -625 0
2858 -2372 0
-843 2531 0
673 -2051 0
-4310 673 0
-3761 -754 0
1547 3917 0
-963 4248 0
-1506 -3229 0
-3775 -254 0
2465 -1078 0
2379 3423 0
3130 1902 0
2020 3010 0
-2763 130 0
-790 981 0
311 -32 0
2358 4088 0
4522 -57 0
1490 4562 0
11 1668 0
1621 -32 0
-530 729 0
-4563 -3565 0
3470 3128 0
-382 1653 0
-3693 -4605 0
-3241 -1493 0
497 -1533 0
3423 3183 0
1405 -3116 0
-2298 3944 0
-4039 -3401 0
2394 581 0
-3265 -1043 0
-1942 -3424 0
4034 -590 0
1182 3621 0
1764 3564 0
-3635 -1898 0
-2973 -4075 0
1391 3220 0
-118 1791 0
2103 1687 0
3346 1003 0
-3089 -4552 0
-925 1192 0
2073 3948 0
4518 472 0
-88 -4556 0
-4460 1080 0
-65 -1412 0
-150 -2342 0
-3859 -2804 0
-4363 152 0
-1768 4420 0
1414 3828 0
-3489 -837 0
-3012 2824 0
-3273 1174 0
2095 -79 0
4589 1445 0
85 2760 0
1055 -3290 0
-4201 -338 0
4196 -2796 0
-4259 3028 0
-3786 -128 0
-2201 -3890 0
-2796 2995 0
618 3212 0
-549 1510 0
-368 -1324 0
-1440 4589 0
-609 -1147 0
3178 3548 0
-3697 -1894 0
-2472 -1083 0
-2629 -994 0
3448 -79 0
-117 3331 0
625 3702 0
2340 -142 0
43 -3206 0
-2026 -1820 0
3667 2292 0
-3778 -1406 0
-4597 1818 0
196 -1951 0
3312 -1188 0
-4118 1967 0
-2809 -4280 0
1137 201 0
-620 -489 0
2232 699 0
-3739 4140 0
1207 -4410 0
296 -4529 0
-1517 2825 0
-845 -1769 0
329 4383 0
4228 -1406 0
4392 -1495 0
-4341 -3553 0
-741 -1173 0
-3602 -2384 0
37 4503 0
-2748 -4230 0
-1851 -825 0
-2804 494 0
1817 3951 0
-365 -2698 0
192 4556 0
3138 -833 0
-1001 -4166 0
-4572 -1523 0
1997 3580 0
-2427 -2541 0
-596 1082 0
4512 -843 0
467 -3723 0
-3869 4138 0
619 -3837 0
4094 1476 0
219 -3844 0
-4390 -2098 0
215 -3367 0
125 2711 0
-899 4356 0
145 2911 0
-1062 -2527 0
3718 1819 0
-1673 -3079 0
-2031 -4157 0
2335 2075 0
-3125 -457 0
1559 -2209 0
4604 1548 0
3923 4244 0
1607 3959 0
2918 -2244 0
6 212 0
-2282 644 0
850 -3392 0
-3920 -4564 0
2934 -4592 0
3628 -163 0
-2966 3227 0
-2044 2202 0
-3980 4114 0
2065 -358 0
-3772 -1980 0
-955 -2248 0
3392 2967 0
264 -3290 0
-350 -2521 0
-4497 -87 0
-1895 2738 0
773 3384 0
3881 683 0
-2040 -621 0
-2188 4059 0
-1205 -2989 0
3015 -571 0
-831 3776 0
3458 -3697 0
-1317 -2316 0
-2940 -746 0
-1548 1590 0
312 -1056 0
-2040 2070 0
1415 347 0
-4511 -2302 0
-1829 -983 0
-488 -237 0
-3527 644 0
3368 -742 0
1741 -3656 0
-2910 -3074 0
-4436 1296 0
-3855 2455 0
4420 -2870 0
750 -3053 0
-1253 -3488 0
1007 3263 0
1889 2506 0
3704 489 0
-2300 -539 0
-4064 3029 0
3632 2691 0
-2784 -765 0
122 -4385 0
2658 1300 0
734 -3586 0
-3995 1915 0
2850 1544 0
-3154 2933 0
-737 -935 0
1572 -3795 0
3295 -4493 0
941 4470 0
-611 -455 0
596 -1413 0
-4537 -3048 0
2004 -892 0
-4469 -1169 0
-2044 -156 0
-2066 -3501 0
922 -2623 0
-1550 -472 0
2843 -4613 0
-2770 -4119 0
-2415 -1970 0
-1130 -3251 0
2760 3582 0
-3922 4078 0
-1191 -1694 0
3262 2325 0
-2062 1137 0
1539 -3843 0
3545 -841 0
-2147 -3215 0
-117 -2333 0
213 -1958 0
2900 1353 0
-3988 2715 0
-17 -3316 0
-270 544 0
4268 -3447 0
3773 1215 0
-3153 -3935 0
-2020 -1726 0
221 2429 0
-231 1851 0
4405 800 0
-98 -735 0
-2152 486 0
3429 1573 0
-3917 -1504 0
-2742 -4510 0
-822 -2200 0
-3007 -3901 0
3238 -728 0
3685 453 0
2034 793 0
3535 3849 0
69 -1438 0
-4384 -2827 0
659 -478 0
-3467 2764 0
3966 4557 0
-1550 -4111 0
-2537 -2034 0
-3102 -2796 0
-4561 -4162 0
2523 -2796 0
-1887 -939 0
2436 3263 0
-953 -939 0
920 -4112 0
-897 2955 0
1021 -2328 0
396 -2023 0
-546 -4324 0
2544 3886 0
-4395 -2018 0
2780 -2394 0
2999 -513 0
4085 -2065 0
884 -1722 0
-1621 -3257 0
3795 -633 0
131 3058 0
-2488 1420 0
-3299 2954 0
924 1552 0
3093 -1188 0
-4499 982 0
-3298 1684 0
-4500 -3031 0
-2724 -435 0
-1941 2322 0
1703 -1159 0
-4556 -212 0
-3332 -4417 0
2848 -2684 0
-1693 -4181 0
1637 319 0
-149 2322 0
415 3994 0
275 -4301 0
-4215 1858 0
1887 -263 0
-1508 -2356 0
1420 -2201 0
-2739 2913 0
-1885 -2827 0
-188 113 0
-2753 -3822 0
-4136 3481 0
1068 -3179 0
-3644 -4256 0
2947 1926 0
4192 -3381 0
-3050 -3786 0
4519 1627 0
-3104 3155 0
-2298 1002 0
186 -850 0
3262 3669 0
-571 1872 0
3911 -2982 0
1716 -3805 0
-4267 1746 0
-1220 -3119 0
-4150 -1802 0
-3491 -4552 0
1020 3998 0
4109 1228 0
1588 2444 0
-1606 -3407 0
3643 3096 0
-2436 -1955 0
4514 2292 0
1454 -1313 0
1273 -4585 0
2967 3689 0
-178 -2397 0
1120 2997 0
-2753 -1529 0
-44 -216 0
-4319 3089 0
1457 -3893 0
1339 2692 0
-1626 -1463 0
-3762 -2906 0
-2440 2853 0
136 3164 0
3417 951 0
2579 -2404 0
-644 -2794 0
3722 3212 0
3749 1207 0
2458 -2747 0
2587 -1804 0
-2211 125 0
-3375 -1455 0
2592 3238 0
3074 -3392 0
-2276 -4142 0
-4380 1864 0
-2465 2960 0
3593 -4357 0
167 2113 0
-977 2252 0
-2411 -360 0
-1337 1949 0
-1813 -3757 0
-1354 2658 0
1883 3113 0
-3877 -3909 0
-3442 1619 0
4574 -1540 0
2181 -1322 0
3968 4059 0
-1626 -2948 0
667 -1957 0
-4598 414 0
2670 3424 0
2584 -3518 0
175 -456 0
3732 4537 0
1006 -1379 0
693 -3118 0
-2805 -4077 0
-2057 -3774 0
-2706 -2620 0
-3992 -337 0
-2583 260 0
1027 4093 0
4235 -2591 0
400 -3176 0
-654 -2270 0
-3400 77 0
-2331 431 0
-1886 2939 0
-2004 125 0
857 -653 0
3714 -4591 0
-2453 2766 0
-4475 3874 0
-2472 -1276 0
-16 -2545 0
-4272 2888 0
-3286 1424 0
-4415 -1313 0
-2525 -1607 0
-1108 744 0
2000 2527 0
-74 2445 0
4412 -891 0
2180 4361 0
3959 1757 0
2003 3411 0
4032 4235 0
-3361 -3905 0
-589 -3101 0
877 -4212 0
-1282 -617 0
-3721 -1297 0
-4272 -663 0
-4284 2947 0
3377 -1259 0
2440 -1895 0
-3101 -1115 0
691 2080 0
-2986 2542 0
-2580 -182 0
3990 4622 0
769 -50 0
602 -621 0
-1775 -3693 0
-3282 -4584 0
412 3472 0
3511 4500 0
-2287 3353 0
25 -1206 0
-1709 -3917 0
-4414 -3118 0
-1093 -3434 0
-835 -2773 0
2585 276 0
2304 4005 0
4116 4025 0
1675 -2548 0
-3260 1837 0
1659 -1838 0
939 -2959 0
3764 -2181 0
3382 -210 0
-3791 -1770 0
-180 -2652 0
298 3810 0
-1945 -1785 0
-4395 -4614 0
-13 -1516 0
-859 -1939 0
-4356 -1607 0
3193 -2133 0
-1071 97 0
-1070 -1371 0
2220 -4047 0
-1385 2507 0
-2030 -1418 0
533 -4057 0
-2184 -44 0
3203 1205 0
-2415 -722 0
-535 -2769 0
-1480 -198 0
1858 274 0
2840 3839 0
3997 2871 0
-2425 -2079 0
-2887 -1014 0
416 3592 0
-3008 4271 0
-2373 -3808 0
2012 2014 0
-976 5 0
-3285 1379 0
-479 311 0
3816 -2061 0
345 -1874 0
-3359 -4112 0
-2253 222 0
2775 -654 0
-2777 -1244 0
2918 -4145 0
-4296 -2018 0
-3740 -3925 0
-3787 -1191 0
2205 -2483 0
-4256 -1211 0
3832 1454 0
2673 -4536 0
-609 -1919 0
-3361 3915 0
2658 1694 0
-3843 2212 0
252 297 0
4458 -3716 0
-3037 -4390 0
-2591 -204 0
-4203 3796 0
723 4086 0
3177 -3702 0
1154 1980 0
418 -2647 0
-1763 1555 0
-216 -1392 0
2532 547 0
-51 -4594 0
1130 2534 0
-1386 3915 0
3430 -3034 0
1973 -3305 0
-2467 -108 0
-216 1792 0
1161 -3540 0
-1681 -4082 0
869 1923 0
91 -4530 0
1706 -2411 0
-1286 -4495 0
1061 -2764 0
-3518 2710 0
4142 -3897 0
-557 -1092 0
1645 4025 0
1026 -3920 0
1668 818 0
-1376 -3042 0
-2311 -2065 0
1023 -283 0
2898 1088 0
-1026 3946 0
-3024 1799 0
-1807 2109 0
953 4233 0
716 -2850 0
4490 -3837 0
2466 -3535 0
509 1216 0
3366 3822 0
453 3767 0
-2366 1401 0
3737 -3834 0
534 -3275 0
-3404 4303 0
2760 -3743 0
1262 -791 0
-1381 2713 0
2496 3939 0
349 2451 0
1670 2574 0
3090 -1245 0
-1381 -1379 0
3183 -2738 0
-4408 -39 0
-4047 160 0
-4093 3678 0
405 -3759 0
1391 2738 0
1273 -343 0
-2290 -4002 0
-4406 2633 0
1562 -1269 0
560 -4339 0
6 -3066 0
-1873 -3728 0
1024 3743 0
-1261 777 0
-2731 -3210 0
-236 -2381 0
2134 -671 0
-3060 -2025 0
2111 -3011 0
3722 2628 0
4303 2304 0
-166 -500 0
-3198 887 0
-412 -2266 0
-1789 -1860 0
-4021 2542 0
3769 -2118 0
117 3438 0
933 -3695 0
-503 -4241 0
-2737 -1871 0
-3781 -2907 0
731 2824 0
-3581 1775 0
1912 -1576 0
-1188 2570 0
1251 3510 0
4545 -1155 0
-4568 496 0
4321 -1212 0
-1898 894 0
-652 -2301 0
-3169 899 0
298 -1436 0
-3509 4402 0
1048 3538 0
-1364 -3494 0
-4260 1320 0
-490 -3897 0
1527 -2175 0
143 1393 0
4575 -261 0
2508 -1728 0
284 -3951 0
3443 481 0
-2975 -269 0
2481 -3004 0
3898 -148 0
3490 3872 0
-2313 -1284 0
2347 -3116 0
-188 2077 0
-1116 783 0
-3205 2656 0
-1143 4018 0
-738 -3179 0
55 1677 0
-1348 980 0
-3621 -1392 0
3766 1176 0
-3708 2000 0
-3863 -2841 0
-3813 630 0
2592 3320 0
1861 3654 0
-180 -2301 0
3795 355 0
-359 -4611 0
-3337 4470 0
2440 477 0
2371 318 0
-2779 -2394 0
-3763 3529 0
-785 -1365 0
-2661 1870 0
-2594 -362 0
2824 4443 0
-2353 3317 0
1583 -1437 0
-396 1519 0
4013 984 0
-3059 -497 0
-3069 4379 0
-3552 4030 0
-2472 -2191 0
-2345 -2435 0
3120 -553 0
-309 -1472 0
2601 4399 0
2710 1987 0
-3484 4167 0
-3621 183 0
3758 -4264 0
3342 -130 0
2508 2578 0
2460 1884 0
3789 -2002 0
1417 3619 0
1245 -558 0
3022 4537 0
1578 3448 0
-3669 323 0
-1920 2584 0
2281 4313 0
3530 3239 0
-326 -2127 0
62 -29 0
1356 3777 0
2310 -3446 0
3230 3093 0
287 -2151 0
-153 3718 0
-2196 3330 0
24 4604 0
509 -3027 0
-3437 1320 0
-3453 -362 0
3995 -120 0
4370 42 0
4371 3005 0
4401 2160 0
-312 -820 0
-2440 1055 0
1934 -520 0
-2432 -3359 0
28 -2579 0
-1827 1601 0
2864 -1470 0
-2132 83 0
2683 1001 0
-4598 1470 0
-4117 2707 0
872 4586 0
-1266 4509 0
3612 -2802 0
-1324 336 0
-3498 3102 0
-2528 1671 0
-2389 2286 0
556 3120 0
3113 -4287 0
3967 -3860 0
-2268 -2717 0
1179 -4460 0
-4096 35 0
2125 1036 0
-3440 2503 0
901 -1900 0
-4528 695 0
1883 3255 0
3222 2997 0
4319 -3016 0
-1745 -1187 0
-2613 -4600 0
-3014 -1848 0
4388 1568 0
152 -4220 0
-1919 3785 0
-3418 4080 0
-3143 -3832 0
4487 -412 0
1975 -3690 0
3859 3828 0
2473 -364 0
1868 682 0
2437 1653 0
614 -753 0
2188 -1898 0
-229 -3145 0
4439 -1089 0
-3438 2995 0
1810 -546 0
4072 2317 0
1791 4325 0
-1073 -3707 0
-2642 3350 0
-618 -4503 0
-3836 -3288 0
-2389 -2783 0
2197 -4338 0
3974 713 0
-1724 1795 0
2144 -2469 0
311 -3611 0
-783 1643 0
-3166 -1753 0
1527 2668 0
-3719 -2353 0
447 -4545 0
-685 -3761 0
-4323 973 0
2833 -2133 0
-2211 560 0
1257 -3973 0
-2803 2697 0
2480 2306 0
-2394 1310 0
1336 3445 0
1896 2996 0
2078 -1191 0
4279 4178 0
3125 -1228 0
603 740 0
-4103 225 0
4094 1717 0
-98 723 0
348 880 0
3247 4421 0
-6 -1602 0
2081 -91 0
-3565 -1949 0
1045 -2936 0
-3191 2104 0
2618 3008 0
2158 -1173 0
4462 -1755 0
-57 -1141 0
-964 4618 0
3065 3098 0
4239 -104 0
-1351 1679 0
3711 -1052 0
275 4280 0
3255 -1597 0
85 4454 0
3970 323 0
-1160 4443 0
2212 -3796 0
-4493 -1286 0
3848 -2109 0
-2941 -1954 0
2682 4043 0
2692 261 0
2783 1635 0
-3869 -4558 0
-2041 -2116 0
-3517 -141 0
1704 1101 0
-2648 -499 0
-1296 1387 0
-157 -2237 0
-4542 26 0
-255 598 0
-2577 3112 0
3640 3149 0
2906 -1745 0
1915 -179 0
-1772 4442 0
2754 -696 0
291 813 0
3352 -3677 0
2261 2789 0
3534 2137 0
4041 3598 0
-3222 3250 0
3200 1678 0
-4592 826 0
-265 3529 0
4005 4529 0
1765 -1259 0
-3957 -3577 0
1271 597 0
1751 294 0
972 720 0
-4488 280 0
3614 2783 0
4093 3960 0
2409 -623 0
3533 -3453 0
3623 3120 0
-2345 -4223 0
2454 -2916 0
82 776 0
3938 -3407 0
4214 -3175 0
1749 552 0
-1453 -1553 0
4157 2245 0
537 -2172 0
308 1787 0
2786 3017 0
-350 1457 0
-3875 -4427 0
705 -247 0
4609 -3378 0
-3771 -993 0
2743 -3415 0
1407 3970 0
-3474 -514 0
-79 -650 0
519 560 0
4539 673 0
-3381 317 0
2328 889 0
-2689 787 0
1366 -161 0
3270 -3436 0
-2759 -699 0
-4438 383 0
-1209 2130 0
-4506 -982 0
-2541 1782 0
-523 4470 0
2161 -4290 0
-1180 3205 0
-651 3319 0
2508 108 0
-835 -3434 0
1424 3251 0
-1794 -688 0
-2780 1969 0
-3835 2538 0
-2011 -1509 0
-2344 -4415 0
-4618 -2872 0
2147 2751 0
3431 2477 0
1200 -3857 0
-3756 2068 0
-3811 1656 0
-906 -1957 0
-1941 -2089 0
213 3394 0
3681 -2269 0
-1932 549 0
289 -493 0
2358 4203 0
190 -2158 0
871 -1283 0
-3866 -4579 0
-3564 1555 0
-1990 -4437 0
3517 -606 0
2552 3390 0
1085 3456 0
-2737 -2280 0
391 900 0
-4357 -846 0
-2161 -2078 0
-3054 3466 0
-944 -3378 0
3896 -164 0
4526 -2633 0
-1683 -1006 0
-1744 1622 0
-2941 4535 0
-1932 2585 0
2264 -1239 0
-4510 -2788 0
2225 3833 0
-3210 1260 0
-243 409 0
4432 2528 0
3929 628 0
-2031 1185 0
3034 -1473 0
-3556 271 0
2146 -4343 0
-1345 3289 0
-2967 2176 0
527 -3100 0
4557 2883 0
-2268 -990 0
4512 2114 0
-696 2927 0
-1503 983 0
2632 -3793 0
-2770 1512 0
-2571 -3773 0
-1600 3674 0
4288 -3106 0
4223 -4223 0
3631 -354 0
2743 1736 0
-2382 -1060 0
-4243 -2808 0
-3039 -995 0
2386 283 0
-1431 -1028 0
3157 -4137 0
1189 1070 0
-4045 1841 0
4416 2471 0
2231 4441 0
2253 1299 0
2088 -627 0
-883 -3060 0
521 -4041 0
275 -1155 0
4247 -3800 0
-3460 1422 0
2592 2775 0
-808 -3538 0
-2220 -2188 0
619 -2908 0
-553 -3158 0
-334 3126 0
-1874 463 0
-85 793 0
2919 -3747 0
-1598 -237 0
4335 3421 0
-2420 -4397 0
70 2054 0
3671 2217 0
-659 2026 0
4402 2955 0
-375 3755 0
-3905 2478 0
3549 2454 0
3036 -4382 0
-845 1800 0
-644 -4253 0
-1820 -4291 0
-2441 3567 0
-1070 -703 0
2933 3959 0
992 -1753 0
-4342 -2860 0
2498 -2313 0
-951 -2141 0
-2937 -3127 0
1387 -4431 0
95 -3283 0
-2692 -4101 0
4347 4164 0
3488 2554 0
-1618 4044 0
-4240 1422 0
2867 -927 0
-690 -564 0
-4530 -1426 0
2819 4495 0
2713 1474 0
-1713 -4308 0
-1636 572 0
-3107 3530 0
2105 1767 0
3109 4590 0
-2348 -355 0
-1119 -1254 0
1383 3463 0
-1605 2164 0
3672 -2980 0
1174 -804 0
3665 -1985 0
936 -3601 0
2221 -2697 0
-1957 -195 0
-1789 748 0
-4193 -1701 0
1229 558 0
2373 3791 0
-3886 -1722 0
-1740 -1187 0
297 -19 0
1206 2593 0
883 -2803 0
2121 351 0
-180 4519 0
-3657 1876 0
-587 1474 0
-2230 1562 0
365 2760 0
-3940 -1983 0
1870 3063 0
1580 4110 0
990 2069 0
-3507 -4511 0
-1560 -795 0
-2482 4548 0
2584 3389 0
3975 3719 0
-2637 -3870 0
3974 3824 0
-209 -2457 0
2911 203 0
-1468 1876 0
-2102 2388 0
3047 -1654 0
1329 -1175 0
665 -3420 0
2235 -3086 0
-2639 1798 0
2119 -4588 0
400 -3206 0
-2036 -2936 0
-3551 -2695 0
-4504 3406 0
-2038 2556 0
3151 -3354 0
-3512 -4467 0
-4360 1410 0
3589 -3797 0
4533 -3433 0
3136 -1859 0
1061 2190 0
1849 3632 0
-1685 -2795 0
620 -3030 0
-548 -3845 0
4101 1043 0
1718 -3849 0
1558 1539 0
-2335 1782 0
-4585 4347 0
-4149 -3649 0
-99 3914 0
-4045 1924 0
416 -1696 0
3828 3674 0
4547 -1766 0
-1739 -449 0
-10 -2384 0
2656 -2194 0
-3422 -4581 0
1395 -1809 0
666 4583 0
-2494 -3596 0
2228 3111 0
4272 3491 0
-3953 -1565 0
-2815 -1419 0
2555 -2229 0
3320 2048 0
-177 2516 0
-1400 -549 0
-4321 -3192 0
2035 -655 0
850 -894 0
-1870 1366 0
-867 -1403 0
573 4122 0
-3514 -677 0
-334 -4433 0
1018 -1791 0
1195 -4174 0
104 -1180 0
-1014 3056 0
-1302 125 0
-3322 1249 0
-1685 -2893 0
1595 -2578 0
-2508 -4592 0
1917 -3515 0
647 3382 0
2093 2451 0
2054 2599 0
-3615 -4359 0
1880 -1798 0
-3012 4032 0
1710 -4387 0
1045 -1729 0
-2263 2453 0
-272 -2765 0
-4569 -1540 0
-2387 -202 0
2731 -936 0
3424 2521 0
-2180 2517 0
1476 383 0
2136 4118 0
1003 -1526 0
409 1608 0
946 1267 0
3512 -2678 0
4141 1935 0
-1819 -1755 0
-1046 -408 0
2437 2922 0
3773 2014 0
-884 308 0
329 -826 0
2282 1935 0
806 -3041 0
1675 -1902 0
2845 1558 0
369 1037 0
-4236 -2514 0
-1345 4497 0
4311 245 0
-2282 -2448 0
-1117 -4313 0
-3045 -980 0
3625 336 0
2534 -2576 0
-239 4506 0
124 2451 0
-4476 -4189 0
-3908 -3523 0
-4212 3754 0
912 -1128 0
-4292 -2776 0
-155 1320 0
1171 1358 0
-409 -4250 0
2640 3422 0
2881 -2817 0
1958 -1586 0
2070 -1379 0
3851 2419 0
-1480 -1226 0
-2066 2878 0
718 1745 0
1348 3266 0
3625 2524 0
1190 -2588 0
-3048 3079 0
3979 4065 0
948 2247 0
-558 1397 0
3767 -3441 0
3868 2981 0
3287 -2193 0
-677 2902 0
915 -1211 0
-3797 2256 0
819 1770 0
-1566 -2046 0
-2207 -4246 0
-3133 -4507 0
-4509 3128 0
920 2095 0
-2523 -2984 0
-402 568 0
-815 -3850 0
3658 3058 0
3674 2260 0
-946 -349 0
2577 -3385 0
3263 -850 0
225 2968 0
4344 2075 0
360 3169 0
4575 1135 0
474 -1242 0
2922 539 0
4179 4111 0
2912 -2151 0
3663 1303 0
49 3773 0
-4511 3617 0
-3235 598 0
3971 -3396 0
-13 2548 0
-2032 1147 0
-3740 -2436 0
46 -2871 0
2001 -2141 0
3435 -1936 0
3091 -3960 0
585 3450 0
3243 -4447 0
-1009 -3540 0
1765 2629 0
-126 -813 0
1816 81 0
3968 -4208 0
-3811 -3676 0
3288 -2803 0
-1388 2328 0
-3157 3655 0
-136 1514 0
-2699 -620 0
-3626 1995 0
1582 -3259 0
2776 988 0
-1932 3564 0
-4001 1221 0
3074 3033 0
-3871 -3827 0
-1890 -181 0
2383 860 0
3773 1683 0
-1641 -2615 0
-1425 -427 0
-2498 -2996 0
677 -1022 0
1534 3902 0
3382 -4054 0
-794 -1972 0
4210 -2628 0
2644 1087 0
4179 1556 0
1946 -4287 0
-4488 -1508 0
1445 3172 0
-2559 3055 0
4478 -1186 0
-2079 -757 0
-92 2086 0
-3624 275 0
3021 162 0
83 -3354 0
-1925 1308 0
-4034 -1845 0
162 -2807 0
-109 -3821 0
-2990 1683 0
3353 -2396 0
-1261 -2222 0
2010 -1853 0
1081 4039 0
2463 -3134 0
2245 -2033 0
4056 3426 0
-4342 2287 0
84 -510 0
-2484 -2455 0
2489 1383 0
-3856 509 0
-682 505 0
-1009 188 0
1360 -557 0
830 4 0
1299 1693 0
-4166 1403 0
-589 4122 0
-2519 -2998 0
-1843 -2237 0
-2426 -2171 0
-606 2438 0
-3528 -3822 0
4052 -1813 0
-755 -2454 0
-1271 4252 0
-4268 2932 0
3975 1910 0
4072 1601 0
-2210 -1821 0
3751 306 0
1345 -155 0
1864 -2733 0
-1865 1712 0
440 267 0
4509 2490 0
-916 1287 0
-3219 3724 0
2743 4575 0
-4001 -2032 0
-141 -4226 0
739 1352 0
-1398 -2148 0
-785 -1244 0
3244 -1302 0
4326 4025 0
-585 25 0
3848 641 0
2842 -2627 0
-4293 1543 0
-956 -4421 0
-3328 1310 0
1403 -1478 0
2578 2076 0
3489 -217 0
3354 1210 0
4214 -2719 0
-4358 430 0
4180 1031 0
-692 1679 0
3986 2371 0
-27 3637 0
-4056 -2977 0
-14 2129 0
-981 4050 0
-2676 -1982 0
2972 2618 0
-1743 -4510 0
-1522 -4260 0
-647 -2550 0
405 1590 0
-3504 3938 0
283 3357 0
-2844 1278 0
-3489 1235 0
-1764 -3093 0
2052 -1566 0
-3858 1528 0
-1999 4438 0
-2922 -1599 0
883 4623 0
-1426 1569 0
-1201 3325 0
3896 2565 0
2870 -4154 0
1256 4048 0
-520 509 0
3102 -188 0
-2881 3632 0
3635 -78 0
2949 3857 0
-3124 2234 0
-523 -4434 0
345 -4113 0
-3455 -3735 0
-2056 2844 0
-2960 -1597 0
-1242 2418 0
207 3992 0
4017 -688 0
-3175 -2318 0
-2648 2949 0
-2454 3143 0
2391 4370 0
-16 -1862 0
3601 -4051 0
-4359 -794 0
3824 426 0
2491 1723 0
3503 -1217 0
-2453 3184 0
2298 2592 0
435 4487 0
656 -2263 0
3794 -525 0
-4624 -3844 0
-3462 961 0
-268 -1836 0
209 -4175 0
-3579 -4556 0
4005 -800 0
4383 -1807 0
-1451 2735 0
-994 403 0
-4099 -3836 0
315 3476 0
-3073 2223 0
3949 3597 0
1381 3075 0
-1740 -2169 0
-1758 -927 0
-1164 -2363 0
2687 1246 0
-267 2099 0
-3971 4469 0
1008 -2411 0
-3491 701 0
-2941 -582 0
1310 403 0
-493 -2273 0
-1263 67 0
1152 -6 0
-4262 3058 0
-3705 1070 0
2497 -3107 0
1127 -151 0
-4190 -4220 0
2918 1245 0
-1213 4093 0
1201 -3982 0
-1089 -1657 0
3393 -750 0
-2771 3929 0
2209 -2604 0
3405 -889 0
2599 -3479 0
-1480 -803 0
2784 2688 0
-2729 -280 0
-3235 -3977 0
-4561 2911 0
-1766 -2133 0
-766 4362 0
183 3364 0
-3703 -2652 0
-1821 2912 0
91 1719 0
1419 3824 0
-1569 3431 0
-3244 -3771 0
271 -2942 0
1051 1916 0
-3619 2406 0
-3828 -3765 0
3094 1295 0
2229 -1667 0
-1284 819 0
-687 1477 0
-1708 2553 0
2160 1333 0
2983 -4346 0
-2552 78 0
-4210 2795 0
361 -3981 0
-4169 -775 0
1530 459 0
-4385 -1093 0
-505 -2946 0
472 -2888 0
2701 -3969 0
2937 2210 0
-633 -4612 0
1688 -3053 0
-508 -2826 0
3757 -3379 0
2672 -4234 0
-602 3965 0
-4291 3239 0
-1217 3184 0
-961 483 0
679 -4407 0
-3800 -504 0
-1550 3212 0
-3447 -187 0
2841 -4075 0
960 1474 0
-4082 3168 0
441 -218 0
-1625 2526 0
2214 2338 0
848 3337 0
-3107 1311 0
-4186 2817 0
1061 4217 0
-4293 30 0
4487 3289 0
-1550 736 0
3555 173 0
-3213 3103 0
3169 -1712 0
-737 3551 0
-2975 -3282 0
-1531 -3363 0
-520 -3034 0
-4338 -3257 0
367 3864 0
-949 -802 0
-4587 232 0
3944 3764 0
-3193 -320 0
2340 3972 0
2309 4253 0
-1095 2500 0
-282 4018 0
4175 -3818 0
1277 1326 0
3821 -1886 0
-1956 -4479 0
3979 900 0
908 -3613 0
-3474 -3695 0
3648 -2859 0
908 1911 0
-2029 -2218 0
-2147 -2235 0
-2173 -2436 0
-12 -3482 0
4048 3732 0
3985 -3314 0
-942 -1638 0
4515 -1135 0
-2863 1915 0
1977 -1150 0
-1080 95 0
2184 -2925 0
-2132 1346 0
-1056 2392 0
1066 4603 0
-1447 -781 0
-2194 -2172 0
-4127 3668 0
-1066 4489 0
-4175 -2641 0
361 2765 0
4246 -2603 0
3733 -3700 0
-2450 4412 0
2542 1729 0
-1478 -677 0
-2663 3152 0
-1784 -3345 0
3946 -1111 0
3439 399 0
1320 2724 0
718 -178 0
1485 -1485 0
-3771 3165 0
-358 4258 0
4050 -4369 0
-2669 -2315 0
1904 -3048 0
1106 -2465 0
1334 1084 0
42 -3792 0
-2924 -2884 0
2242 -1598 0
4629 -1773 0
3693 3913 0
4258 -3645 0
624 459 0
-250 3779 0
1645 -3934 0
1235 2736 0
4297 -34 0
-3785 3224 0
-1170 4084 0
1119 -1201 0
-3503 -1413 0
3485 -716 0
1790 -3176 0
316 -3333 0
-700 -1400 0
-327 -3659 0
-1228 -3530 0
-1922 -1801 0
-1366 -1652 0
2112 -1487 0
4089 -3181 0
-2249 1301 0
1071 -3684 0
-3847 289 0
-407 -4047 0
838 -309 0
-2702 2906 0
-755 -1980 0
294 3433 0
-3694 383 0
-2303 2230 0
1527 -534 0
-4563 2154 0
1576 -3040 0
2919 2247 0
-3822 -4212 0
3301 -1015 0
1204 -3265 0
3068 4554 0
2680 -2640 0
3997 3405 0
-3061 4131 0
-4530 1977 0
-2109 -2314 0
-2285 -2416 0
3126 -3253 0
3067 2735 0
-660 643 0
1217 3563 0
3833 -3254 0
-2010 -1464 0
-3325 -4033 0
-3546 -2535 0
-4076 3526 0
-2732 -987 0
1202 2836 0
4093 -1007 0
2934 2478 0
3177 -3484 0
1589 -721 0
-4104 -2349 0
991 -3951 0
-2065 -49 0
3470 1573 0
3405 -4548 0
1728 1283 0
-1567 -2711 0
-3583 -410 0
1723 2049 0
4440 -1941 0
1283 4358 0
426 65 0
2258 -421 0
2975 -36 0
1197 303 0
-4511 180 0
3143 2975 0
2748 3530 0
3150 1829 0
-2759 386 0
-3948 -507 0
4434 2025 0
-1772 2994 0
2462 -718 0
-4218 -334 0
-1386 1598 0
1245 1647 0
2727 1367 0
3733 2403 0
2154 1701 0
383 -1635 0
1782 -1892 0
4590 -1322 0
-612 -996 0
-993 -897 0
2554 -4614 0
2972 3165 0
-1264 1378 0
4288 3438 0
955 -1284 0
-3516 389 0
-1381 3854 0
-4372 -2345 0
607 -4399 0
-3871 2589 0
-530 -1492 0
-2340 2610 0
2955 -977 0
-3253 -4505 0
-3656 2213 0
-3106 -3543 0
4059 -4499 0
-238 2957 0
529 3241 0
743 -3071 0
3633 -2922 0
-807 -4369 0
-3645 -994 0
-1623 -3072 0
2534 -3569 0
-1759 -306 0
2067 -1402 0
3650 227 0
693 -1690 0
-306 -2699 0
3970 2319 0
-4067 1822 0
1700 1211 0
1179 527 0
-3688 2469 0
-2465 -3044 0
1274 2881 0
729 -854 0
2968 4368 0
2818 -886 0
-30 724 0
-4175 2212 0
-2869 -686 0
-3034 -1438 0
3997 192 0
725 919 0
4274 3557 0
2848 -3571 0
3481 1676 0
-2831 -2518 0
-539 -2196 0
-3240 2565 0
-3234 -810 0
3257 2765 0
-2497 2056 0
4503 3351 0
753 3029 0
1817 3227 0
-3186 -1771 0
-1630 979 0
2501 -1938 0
2849 3291 0
2905 -3103 0
-825 -1676 0
-99 -2372 0
1581 -1164 0
3130 -14 0
4389 1676 0
-1982 303 0
263 -3135 0
-817 759 0
-237 2294 0
3075 -197 0
-3696 1804 0
-3513 302 0
-2249 2015 0
742 3084 0
2719 -2833 0
-54 1141 0
-2725 297 0
-3694 -1796 0
-2534 978 0
-3218 -2706 0
-2423 -2994 0
3631 199 0
1658 -263 0
2561 3766 0
408 720 0
-389 2124 0
2402 3581 0
-4617 -8 0
-3455 -826 0
4478 -4120 0
-4324 2644 0
3529 -1614 0
-26 532 0
1999 -4146 0
-3667 564 0
2671 -1365 0
1240 -2628 0
-4319 3878 0
3085 -3070 0
4591 624 0
-825 -2907 0
2539 1343 0
-216 3755 0
3758 2585 0
2004 3145 0
2027 2351 0
1646 -3200 0
-2188 44 0
2360 -1608 0
2212 638 0
-2777 2271 0
407 2571 0
1351 238 0
-2543 423 0
-2324 4543 0
2956 -3154 0
2137 556 0
-476 1484 0
-3061 -2377 0
3601 -56 0
4537 -379 0
-995 -2683 0
-3912 -1533 0
2243 2404 0
1125 348 0
-193 2724 0
-4364 -2896 0
-61 -4372 0
-798 -1764 0
-1344 -274 0
-2752 -2872 0
-4355 3729 0
3002 -1089 0
42 2352 0
4566 3407 0
-1903 1392 0
-3826 1071 0
-934 -4632 0
-1701 3274 0
2876 -2 0
1442 4206 0
3987 3018 0
4388 3593 0
-2448 884 0
290 -4296 0
-1228 -1354 0
-3723 2616 0
-1596 6 0
2508 2679 0
134 2929 0
-1041 1572 0
-32 -1942 0
490 352 0
-577 1654 0
-1431 3117 0
-1368 3132 0
2125 -1879 0
2228 -1909 0
-4434 706 0
1151 -794 0
4268 154 0
-3856 -3357 0
1946 -4321 0
-3341 -2557 0
3807 915 0
3194 1577 0
-3310 -842 0
695 2165 0
2281 74 0
2904 -441 0
-61 4451 0
-880 -1418 0
931 -2083 0
4544 -4587 0
-226 1711 0
-3385 -500 0
-925 -3279 0
-2167 -4462 0
-181 -1199 0
505 -2004 0
560 242 0
-2409 -4522 0
-1197 -2818 0
1501 4590 0
1644 2728 0
-348 1539 0
-4181 2168 0
4578 1501 0
1955 2538 0
4590 3495 0
536 -927 0
-2794 3552 0
-402 -1955 0
2268 4067 0
-566 -4455 0
-1322 3325 0
-330 -4162 0
-2522 -368 0
494 3541 0
950 -2401 0
3934 1965 0
-2540 -2852 0
-1815 -2790 0
-4311 -1836 0
4125 -667 0
2130 -1943 0
315 -3101 0
-2745 2830 0
-387 -542 0
3993 4223 0
-3381 1870 0
-1536 -590 0
-7 1896 0
296 2078 0
-146 -4210 0
4155 2462 0
-1345 336 0
-262 471 0
-4622 -3813 0
-2435 -1170 0
-1141 -1202 0
673 1314 0
-2068 3923 0
-1978 1081 0
-4381 -3143 0
371 -4217 0
4340 -4280 0
-2852 -3558 0
-2010 861 0
1176 103 0
932 35 0
891 -1481 0
3323 -1821 0
1365 4022 0
4423 4492 0
-1207 -1546 0
4431 -3807 0
1186 -4251 0
-255 -1797 0
-3235 963 0
979 2912 0
1810 3436 0
-1583 3239 0
2181 241 0
-2525 2569 0
-1874 515 0
-3645 1351 0
-1927 -2065 0
3293 -784 0
3109 -4276 0
-1408 2297 0
-4287 2765 0
-3351 -1730 0
-140 3448 0
2784 3651 0
-2321 2795 0
2848 2682 0
-1525 -1513 0
2114 -3526 0
3015 -797 0
-708 2268 0
-463 1197 0
-398 3325 0
-4057 -4484 0
2879 4241 0
-3444 -1705 0
-4528 351 0
1829 3972 0
-3415 3216 0
-1522 -620 0
4276 128 0
978 -790 0
-79 -373 0
3078 -3814 0
2512 1872 0
4525 -1408 0
-4001 2957 0
-1751 -1048 0
-4349 970 0
-1800 -3043 0
3325 3286 0
784 -732 0
3190 -1925 0
-4026 -1509 0
-3707 -4350 0
4562 -2655 0
4582 -2884 0
3787 -1701 0
-2375 1555 0
-1660 1849 0
-4598 -3844 0
3777 3489 0
852 -1839 0
3119 3504 0
-1081 -3161 0
-2436 -1228 0
-2803 -838 0
1926 4099 0
-2324 1551 0
-2564 4041 0
-682 -2405 0
-4469 -1928 0
-309 -1223 0
3588 -142 0
1655 2155 0
-3829 1893 0
124 -3516 0
530 -4067 0
2856 -2862 0
-2558 4491 0
3339 -913 0
-4614 -2569 0
-2028 -3424 0
1916 -3510 0
1347 3177 0
1005 778 0
4001 -2057 0
-445 4316 0
-3930 -1845 0
4205 -241 0
-3352 999 0
2053 -3612 0
-4330 -823 0
-2614 877 0
-1962 3419 0
-3017 -625 0
-1651 4133 0
-3743 1352 0
-1238 330 0
-917 -4103 0
-1020 1604 0
-1553 2123 0
1277 -1026 0
-274 2808 0
-3558 -4488 0
-4475 4346 0
1904 -2515 0
-1117 -1998 0
-2944 4279 0
-230 4049 0
1822 4622 0
-3874 -3292 0
1080 2262 0
-478 192 0
-2382 2399 0
-1596 -1404 0
797 -1115 0
-141 -1093 0
-3804 -2623 0
3882 3761 0
4262 2162 0
4148 779 0
-198 -3666 0
-3604 -1599 0
2546 1000 0
3294 2334 0
-1032 -3968 0
-1098 -1618 0
1796 -2788 0
1497 -1931 0
14 -4122 0
1630 126 0
3214 -4069 0
-1439 -843 0
-1438 -4459 0
3517 -1517 0
-3539 -1649 0
-4464 283 0
-3711 -2301 0
-3859 3789 0
-511 24 0
4025 687 0
613 1509 0
-3690 3214 0
1722 -681 0
2784 603 0
-1430 131 0
3102 -632 0
110 -1215 0
3395 -3607 0
4267 -3875 0
1624 439 0
1393 -1448 0
3686 -872 0
-554 4006 0
3707 3541 0
1385 3198 0
1810 -793 0
2738 -3972 0
1065 -2952 0
-3520 -116 0
3243 -2592 0
-2079 1036 0
-571 -1512 0
-3561 3263 0
-1009 -4179 0
1463 2124 0
-1217 -506 0
3172 -1362 0
3787 643 0
-511 4472 0
-829 -632 0
1202 4218 0
-1292 -3235 0
158 -654 0
1514 -2051 0
-120 2201 0
1497 -2793 0
3364 -4174 0
1959 4092 0
-517 -2394 0
-3105 -4407 0
-4386 4165 0
2486 2030 0
-772 -2722 0
385 -4542 0
2772 -4397 0
-309 -836 0
-1454 1234 0
4347 3917 0
435 -360 0
1610 -2804 0
4529 1431 0
-402 -2669 0
-4158 2426 0
2073 -4549 0
458 1359 0
-111 1624 0
3851 2116 0
-1652 -2659 0
2907 -3717 0
2913 4451 0
1008 -4223 0
-1368 3949 0
2340 3391 0
4008 -671 0
-1126 2170 0
872 2214 0
2640 -4561 0
2010 321 0
-3822 2243 0
2755 -4128 0
1823 324 0
-3705 -2004 0
-3346 2756 0
-3800 -3785 0
-204 -606 0
-4480 3393 0
-2793 -133 0
-4610 -3854 0
650 2805 0
2392 341 0
2786 2287 0
1589 -4319 0
-90 -4428 0
1393 -1723 0
-4530 3951 0
186 -3225 0
-2165 4119 0
1283 80 0
3616 189 0
1210 -359 0
1061 -4269 0
-273 3752 0
1774 2334 0
-1062 -3968 0
4396 3492 0
-891 -2654 0
3084 -1949 0
918 2915 0
-4627 362 0
4157 -2201 0
-525 2672 0
-2272 1595 0
-4472 -3822 0
2627 -3336 0
1733 3592 0
3249 -4522 0
3124 -1302 0
-300 -3048 0
1979 -516 0
2415 3738 0
3636 -737 0
-445 521 0
2838 3461 0
2548 3778 0
4589 2807 0
2503 1332 0
3840 3690 0
3698 3883 0
-1220 -3123 0
2209 1791 0
-4295 3280 0
-1613 -3346 0
4573 3343 0
-2369 -2213 0
-1615 2081 0
312 691 0
1639 4516 0
2725 -4065 0
580 -906 0
-4184 2299 0
3737 3559 0
-2946 2984 0
323 3214 0
-3665 4568 0
-2356 -1890 0
-169 2446 0
2692 -3666 0
-2157 -4582 0
713 -1566 0
4306 382 0
-4264 1848 0
-355 -1136 0
2969 -3062 0
127 1715 0
-3505 4572 0
-819 -1890 0
4423 -2984 0
3570 1597 0
-1771 -3716 0
-2952 1532 0
-527 -3341 0
-4082 -1100 0
3102 -22 0
-3420 -289 0
856 -4132 0
3113 -3857 0
-4585 -1112 0
1637 -3904 0
-834 -1315 0
838 190 0
-2121 -2648 0
-1266 -181 0
-3601 4091 0
-3762 -2819 0
4408 -1937 0
-3256 3490 0
-4430 -1681 0
-2172 -1759 0
2655 -1320 0
61 -1426 0
2657 -3887 0
3350 -1602 0
-2919 893 0
3546 -3206 0
892 896 0
-1733 -3853 0
1984 -2831 0
-3040 -1140 0
941 3256 0
-1558 -2512 0
2888 -2066 0
1364 -4285 0
-1798 1148 0
55 -3266 0
1229 1268 0
-1512 -1983 0
2886 330 0
-3758 1039 0
-619 2274 0
-1011 3014 0
1157 -210 0
-4193 -3298 0
1515 -343 0
-2993 1347 0
869 -1540 0
4252 526 0
3113 4392 0
4229 3030 0
3042 4195 0
729 380 0
1991 1665 0
-3147 3678 0
-2338 2271 0
-2689 1349 0
2446 1375 0
2136 -2436 0
-2136 -1297 0
247 -1677 0
-2888 1711 0
2320 2506 0
120 -3860 0
-576 -1345 0
-1291 138 0
3992 -746 0
-3221 -2255 0
-4336 -2450 0
3733 -2676 0
-1841 -687 0
271 3393 0
582 3545 0
-4391 55 0
4082 3378 0
3207 -4568 0
4219 -4607 0
2930 4516 0
124 4107 0
4114 66 0
-4367 3672 0
-1748 -3252 0
-3514 494 0
1060 2466 0
-570 -10 0
-3672 978 0
-2295 572 0
-1040 3143 0
4392 -2894 0
-1091 2022 0
-4566 -1777 0
-169 -4125 0
3807 -1682 0
4252 2240 0
-957 3830 0
3987 -2304 0
-1363 -360 0
3931 -2641 0
35 -115 0
2434 -3156 0
-1413 134 0
-2776 -3313 0
2457 -487 0
780 -747 0
-3621 4496 0
2931 2486 0
-1517 -1886 0
-24 -4339 0
-1921 -3788 0
-1787 -2439 0
1208 -2257 0
3758 4048 0
-2201 -3800 0
-931 -4425 0
3162 2680 0
-3139 -4228 0
3313 518 0
3185 -1028 0
4108 -3726 0
-3453 2329 0
782 -636 0
-3036 -1982 0
-3725 -1452 0
4434 161 0
-3858 2650 0
1483 3722 0
-3677 2965 0
-197 461 0
-1272 -2663 0
2456 -3179 0
2897 2337 0
4622 -2953 0
-2278 1094 0
1648 3309 0
1783 -4328 0
1005 -361 0
-2841 -3744 0
2654 -177 0
-969 152 0
449 3791 0
-3400 1519 0
2203 3130 0
-4578 3688 0
-377 -4321 0
3127 -151 0
4037 -3953 0
-1260 2853 0
2994 1859 0
-2603 3202 0
-1451 -2138 0
-1907 -1646 0
-4563 -3881 0
-3328 -3239 0
-4479 835 0
3183 -1071 0
220 3715 0
1563 -2698 0
3169 -2484 0
-2888 2484 0
-537 -767 0
2279 -2047 0
4222 -2007 0
-757 4280 0
-1833 4081 0
2426 -4282 0
-4615 -3764 0
3876 1120 0
569 -366 0
1182 -4171 0
2444 135 0
4149 3743 0
-1707 1873 0
1969 878 0
4503 193 0
1387 400 0
-3025 -4488 0
-2885 -718 0
-1693 -3894 0
-2498 3701 0
-3821 -3189 0
4036 3212 0
3559 -737 0
-704 -2208 0
3779 -232 0
-4023 1086 0
-3559 1944 0
-942 1328 0
3614 -2239 0
-2704 232 0
4176 3838 0
-2618 1822 0
235 1628 0
-3847 -435 0
212 -2829 0
-1144 1816 0
2076 223 0
3294 2362 0
-766 -3713 0
-4510 4114 0
1011 4274 0
-209 -757 0
233 -1344 0
-2865 -965 0
1543 3758 0
-1227 -636 0
3055 278 0
-1286 -3018 0
-3261 2655 0
-2188 -4217 0
-4440 -4591 0
4474 4243 0
-1116 3630 0
-3436 -1502 0
911 525 0
2287 2914 0
1222 -2996 0
-4126 -2300 0
3816 591 0
-1578 -181 0
-3120 1253 0
732 -2148 0
-1709 1393 0
581 -2392 0
4186 -4046 0
-3262 -775 0
462 2463 0
-1689 1192 0
-1785 -400 0
4225 2811 0
4412 1504 0
-1571 -786 0
-2996 -2872 0
1192 -3313 0
232 4606 0
-3288 2364 0
-682 1899 0
4529 -2847 0
3876 -2437 0
-722 2692 0
2133 -3721 0
-896 -2491 0
3621 -2305 0
-1372 -4566 0
1245 1514 0
2458 2 0
-4066 263 0
244 2037 0
1073 3102 0
-2635 -2866 0
4026 3046 0
3130 4589 0
-4268 1395 0
815 -4125 0
-930 -3677 0
438 -1102 0
404 3338 0
-2395 1735 0
447 2530 0
-3801 3020 0
-4265 -2778 0
-2990 -2867 0
-3384 -685 0
3077 2588 0
3204 -1609 0
4087 2384 0
1885 1209 0
503 -3498 0
-2737 3881 0
477 2272 0
4120 3794 0
-4512 499 0
2913 2204 0
-3976 -2483 0
-2385 -1184 0
4068 -3167 0
-3694 -987 0
1946 -4431 0
-2346 1805 0
-3573 669 0
2858 472 0
-2314 543 0
-1284 2861 0
-2431 -2235 0
-2188 -1486 0
811 2629 0
-2463 777 0
1073 1440 0
733 848 0
1968 -3765 0
4461 -1767 0
2177 2881 0
-3056 702 0
2433 -2222 0
3161 -2617 0
-2075 -1948 0
1115 2655 0
2562 4239 0
4412 -3135 0
-4150 591 0
-1220 -3792 0
2735 -3721 0
-1346 -3473 0
2211 -2801 0
-1567 -4411 0
2570 1171 0
226 -1642 0
2140 -3655 0
655 3273 0
-2415 136 0
-1964 -4373 0
-82 817 0
515 2966 0
3933 3767 0
-3714 877 0
3552 675 0
-2586 2698 0
-2926 -33 0
-3012 927 0
-1053 -4185 0
4320 3148 0
1993 -1747 0
-3158 3451 0
-4105 -4419 0
2285 -1408 0
-2541 -1966 0
4538 4199 0
214 -3270 0
-1066 -2159 0
2203 -142 0
1108 -3957 0
-2596 3579 0
-1286 2148 0
-1018 -4223 0
2728 3607 0
-2118 -2773 0
-82 -800 0
2660 -3259 0
4441 3814 0
-2725 -2091 0
-2659 2685 0
-206 -308 0
-1284 2660 0
1538 -3213 0
4156 -1044 0
1673 -2320 0
-2558 693 0
4093 -4191 0
311 -3123 0
3389 -1233 0
-1091 4589 0
-174 1263 0
760 2993 0
-720 4576 0
-1400 1831 0
2233 4008 0
2654 -4006 0
2770 -2021 0
-2497 3560 0
1973 -346 0
3245 323 0
76 3436 0
-580 1811 0
740 1985 0
-2044 -2893 0
-2847 2596 0
-2093 -2533 0
3311 -612 0
4015 4343 0
-4236 -1364 0
-3553 -4343 0
3483 -1529 0
127 -3582 0
2563 3610 0
-3097 887 0
2650 -3726 0
-2195 2023 0
88 3050 0
1193 2294 0
466 -778 0
-690 3036 0
-441 -1864 0
-698 996 0
563 2058 0
1098 2691 0
-2744 3878 0
1237 -1172 0
1197 610 0
2158 -1739 0
-1093 -2445 0
-4021 2787 0
-1565 -4450 0
-4547 4264 0
-280 344 0
-3717 4412 0
-2562 1756 0
-2494 -318 0
-1184 1247 0
1781 582 0
4290 2402 0
-1531 -175 0
4392 4338 0
1665 985 0
-3009 13 0
806 4264 0
3592 -788 0
4498 -829 0
692 -4391 0
3083 -685 0
987 -740 0
4304 -4628 0
1430 3324 0
-1856 4550 0
-3848 -476 0
3730 1230 0
818 726 0
1954 2475 0
2846 -4399 0
-2208 -4000 0
-943 -3100 0
3769 1171 0
2712 1803 0
3870 563 0
-1957 -1025 0
1461 369 0
-4343 388 0
-2664 -2059 0
-825 3051 0
4246 1122 0
-2267 -732 0
97 2275 0
3099 1278 0
-1102 -2778 0
1816 -3880 0
-4024 -204 0
2989 2865 0
-3008 -361 0
-1816 3854 0
-274 3997 0
-2507 3504 0
2045 -1268 0
2012 -1504 0
418 -4593 0
1165 -1730 0
-476 4158 0
100 1046 0
1781 -4493 0
-325 3226 0
1311 -2445 0
-3126 1658 0
2132 -120 0
-2908 -2819 0
92 -3017 0
-662 1902 0
-2215 2869 0
1790 -1828 0
-1361 -4181 0
-1813 -157 0
-894 -2195 0
-1825 2077 0
-2510 1947 0
-3554 1119 0
-3793 3788 0
-4328 -2253 0
2903 -4373 0
-1663 1590 0
-273 1856 0
2119 3251 0
3128 -4304 0
3949 -2157 0
-4523 4199 0
-902 -2266 0
418 338 0
-3521 981 0
927 1200 0
-1112 4264 0
-1262 4016 0
1468 2828 0
117 1301 0
2113 874 0
1538 3277 0
753 1935 0
760 -146 0
773 1787 0
2816 2450 0
-1972 -1785 0
-2829 173 0
477 -3881 0
-177 -1277 0
4529 -991 0
4172 -2903 0
-4098 -3882 0
-1904 -546 0
2137 -1374 0
-2519 3391 0
-1806 2526 0
3621 -3876 0
-4407 -1708 0
-4464 3614 0
3509 483 0
-230 -548 0
839 -3077 0
4312 195 0
2609 4009 0
1496 1527 0
106 -595 0
3108 -3613 0
-2756 1119 0
-3494 -75 0
3432 -3153 0
3182 4314 0
-3643 -2102 0
-124 3552 0
111 4462 0
-218 -1538 0
-71 -4193 0
607 -4211 0
-32 3999 0
2747 -2237 0
2876 -1245 0
-3443 1075 0
26 -1949 0
448 453 0
2095 -1796 0
2799 -4316 0
-1009 1800 0
2531 -4171 0
3386 2428 0
87 -4223 0
3632 3969 0
-2377 -2058 0
-824 -3933 0
3879 3818 0
-3742 1535 0
1225 -2308 0
-3069 3705 0
875 1808 0
-2360 4135 0
-778 645 0
1926 263 0
-4404 184 0
2245 1807 0
-4077 -909 0
-2149 -3124 0
4383 2567 0
-1807 2532 0
3911 -1634 0
-604 -1974 0
-1652 -1959 0
-1963 -3705 0
2880 -1440 0
-1272 2406 0
3102 3713 0
-1127 811 0
955 4314 0
2402 -2485 0
1187 -1261 0
-3271 1502 0
2881 -3454 0
-4212 49 0
2853 3808 0
-4398 -3452 0
851 -3874 0
135 -2112 0
-1208 -2453 0
-246 2088 0
1523 -2285 0
4329 -3572 0
2985 -480 0
1564 1152 0
-1982 -4169 0
4358 2766 0
-570 1687 0
-1631 -2512 0
-3542 3503 0
970 -4131 0
-3670 -1583 0
-1387 192 0
-1027 -75 0
-521 1488 0
-2040 2214 0
1720 1051 0
1111 1486 0
-427 -1562 0
-3962 -2624 0
-343 971 0
-174 -2136 0
-88 -4053 0
313 4215 0
2861 -2269 0
634 -2689 0
-309 1507 0
-2908 4538 0
-3109 4317 0
2993 1588 0
4413 -4332 0
3760 -3502 0
-3377 3804 0
-318 1297 0
1204 4154 0
3938 2014 0
2667 2697 0
-3472 -1114 0
-4069 -2937 0
-4475 -3393 0
1665 2134 0
-2269 2974 0
-1293 2311 0
-750 -2924 0
1417 -1931 0
-2110 1552 0
2865 -4578 0
-1003 3096 0
-499 2321 0
-1776 1387 0
1318 345 0
-1812 2455 0
-1168 367 0
-4118 -3960 0
468 -2802 0
-656 -1661 0
3572 -1134 0
4383 3855 0
693 -1658 0
3829 1011 0
2113 3934 0
1080 -2893 0
-2872 860 0
3216 -2246 0
3165 -2875 0
-589 -2525 0
-2150 -1153 0
-2901 818 0
2100 3777 0
1863 -742 0
2581 1358 0
525 1581 0
2950 2052 0
-867 -2094 0
-2969 -433 0
-1455 2292 0
1283 -2764 0
-2718 534 0
3530 -3906 0
-4234 -417 0
-4631 -4404 0
-2844 -1249 0
803 839 0
4302 -2737 0
-3371 -2647 0
-3969 -3999 0
-384 -437 0
-38 -1465 0
4073 -3501 0
2270 -3592 0
4589 813 0
3027 1901 0
237 -4216 0
-4488 4065 0
-737 1679 0
-3266 4460 0
1653 2568 0
42 -2164 0
-4632 -834 0
3437 -1169 0
219 293 0
2538 -700 0
3827 -3513 0
-1941 -2180 0
-1820 -478 0
921 1766 0
-3138 -289 0
4478 -4022 0
2163 838 0
3206 -3499 0
-2059 -931 0
732 2480 0
4252 1413 0
1410 -4105 0
-4323 4269 0
650 2341 0
2363 -2768 0
311 -512 0
3975 -1029 0
-3375 -1247 0
-88 -1344 0
1394 1274 0
-2440 4442 0
-22 -3358 0
2973 -1601 0
2384 4406 0
785 -1652 0
2452 339 0
2619 -3488 0
864 3702 0
-1667 -993 0
1093 -1768 0
1586 -1843 0
4428 -906 0
4241 -3778 0
646 2695 0
602 -2859 0
3146 -3613 0
-1573 2163 0
-514 -3426 0
2576 -2328 0
-2943 -1362 0
3132 3992 0
-3192 3843 0
-3832 1035 0
-1950 -1971 0
4004 159 0
3418 3112 0
-1857 -1350 0
1998 -977 0
4446 117 0
4378 -4035 0
-3100 604 0
-2185 2291 0
-2098 2422 0
-3233 3804 0
1219 -4620 0
-1807 2204 0
3096 2029 0
-310 -973 0
-1078 1136 0
-4257 3582 0
2858 -3019 0
-4033 -1831 0
-4393 2802 0
3981 2003 0
-2517 -2198 0
-4453 -3397 0
2335 3515 0
634 4021 0
-375 2849 0
3494 2089 0
1553 -3322 0
2313 2383 0
317 3715 0
1149 -3337 0
-4240 -4417 0
-182 -1095 0
1247 -27 0
-66 -3112 0
177 -2628 0
4044 1432 0
-4243 -2691 0
-2526 281 0
1032 2477 0
-1941 -3471 0
3343 1497 0
1181 -4620 0
-1833 -3756 0
-527 2615 0
369 -2531 0
2980 1705 0
-1286 2745 0
-2610 1176 0
4293 -1636 0
109 -490 0
4330 -1925 0
-2757 -611 0
-4570 -2474 0
477 2912 0
2398 -1284 0
-2748 2453 0
-1614 -2975 0
-4392 563 0
3027 2712 0
-1845 -4304 0
-395 1447 0
2213 -667 0
-1517 -2846 0
-354 -3353 0
-3027 -2522 0
521 -1194 0
2393 4258 0
244 -965 0
2912 -910 0
811 1640 0
4383 -3320 0
1331 1229 0
118 645 0
-2921 -4465 0
3020 -2730 0
1361 -2479 0
-3169 -257 0
1073 -2920 0
-3235 -743 0
-4038 -985 0
-364 -273 0
-77 4344 0
-2276 2776 0
-2871 3148 0
445 1518 0
-698 4191 0
2038 49 0
-658 -4070 0
3235 1712 0
-3986 -343 0
-770 311 0
-1769 162 0
2584 -251 0
198 -4542 0
879 548 0
3586 1293 0
3884 263 0
145 2838 0
2831 -1334 0
2291 -2757 0
919 1962 0
1096 993 0
4310 -913 0
-730 -4494 0
-1381 -269 0
2661 -2324 0
-3615 -2759 0
-3890 -1773 0
-389 -171 0
-1535 331 0
-4022 3446 0
2968 1775 0
2792 330 0
-1827 3003 0
53 3198 0
1087 3017 0
2572 -1252 0
2832 3412 0
-2838 -3336 0
-389 4135 0
-1551 4200 0
4344 349 0
-893 2504 0
-3706 2666 0
-3237 1686 0
-538 173 0
670 1312 0
-775 4154 0
-570 3451 0
1559 -4060 0
2275 2814 0
-3632 -4537 0
-258 405 0
1872 3157 0
39 -4378 0
-3086 374 0
-3534 -1431 0
2240 1731 0
1043 3325 0
-4426 -260 0
-1509 -1955 0
-2596 3384 0
3690 -257 0
-3300 -1332 0
-3643 -4175 0
1733 -635 0
-262 -3710 0
-167 -820 0
-3676 3873 0
3922 3709 0
762 -2772 0
-3599 -2631 0
-1671 -2811 0
-2189 3209 0
4481 -404 0
-4124 -4295 0
2203 -4280 0
-4350 1463 0
-2283 1640 0
-2629 1878 0
-22 -2117 0
-2704 -1692 0
-2237 2131 0
-2183 719 0
-2825 949 0
2566 -3382 0
-4608 2132 0
4007 3600 0
3388 -3885 0
1800 1876 0
-3159 -3386 0
-3012 1366 0
-4207 125 0
1314 -4619 0
4508 87 0
-2775 -1081 0
1821 2881 0
-4227 535 0
1554 -2055 0
4235 3293 0
3270 1329 0
2070 185 0
-4132 109 0
-4379 -1027 0
3108 2587 0
-750 1770 0
3848 -914 0
-1374 -1897 0
-667 -4290 0
4009 3841 0
-2867 2262 0
-60 3307 0
3599 3966 0
-2773 763 0
1546 2068 0
-1698 1328 0
-2333 -2748 0
-2624 -1255 0
-2730 706 0
2488 -2378 0
-3730 -942 0
1454 3584 0
-3250 -542 0
-1247 3142 0
-3996 -366 0
-58 2205 0
1944 -1978 0
-2625 -1085 0
-3335 1181 0
3910 2568 0
392 149 0
-3107 2578 0
-796 -2060 0
1656 -3602 0
2407 -4120 0
4303 1710 0
-1778 -2036 0
1278 -3850 0
-2822 -952 0
-2241 2943 0
1409 3476 0
2279 1658 0
3949 849 0
-197 -1942 0
-681 -289 0
4237 1300 0
-3906 1442 0
-3313 -2893 0
-3692 4026 0
1821 4491 0
3145 1582 0
-174 4616 0
-2261 -3209 0
1180 2574 0
3456 3319 0
1767 -1777 0
3083 2853 0
-2672 1589 0
-1402 -859 0
1892 390 0
2172 -4198 0
307 -812 0
-2470 1619 0
-3488 253 0
-3907 908 0
803 -1800 0
-2733 -3760 0
3649 3053 0
-1090 -2832 0
3303 -929 0
1604 1045 0
-230 589 0
-999 -346 0
3528 986 0
-3653 953 0
48 412 0
3091 2897 0
-417 3990 0
-168 1974 0
-3063 2919 0
1775 -4388 0
3668 -2497 0
4281 -1475 0
3769 -3391 0
-1803 4626 0
2944 3852 0
3567 -2687 0
-4077 -1513 0
1156 -4108 0
-3154 118 0
-1800 -4342 0
1972 2881 0
2593 1622 0
-4034 -1062 0
374 -1087 0
-1427 -2733 0
-2234 4454 0
2426 810 0
-1443 -2753 0
137 -463 0
-2083 3335 0
4298 4055 0
2812 -2281 0
828 -770 0
-4171 2707 0
4483 2717 0
-2512 605 0
-4386 1309 0
1854 1398 0
-2438 -75 0
-2086 3773 0
-3560 901 0
946 2361 0
717 -4022 0
4462 3346 0
1973 -1375 0
-1284 345 0
513 892 0
470 3798 0
-774 -2800 0
4404 -749 0
746 814 0
-1629 -3126 0
-2501 2252 0
3405 -1072 0
-324 -150 0
502 1453 0
-2246 -4304 0
-3787 2756 0
-843 -2668 0
-983 2645 0
4285 -3127 0
-1713 -973 0
-3467 -2927 0
-3864 3150 0
-2452 -4069 0
-2042 -1379 0
-2871 -3444 0
-168 -543 0
-2354 2489 0
166 -3253 0
-4585 -3780 0
-3779 -3139 0
4507 1095 0
3276 3198 0
-442 -2263 0
-1768 148 0
-842 1925 0
1568 -270 0
478 339 0
4431 -259 0
-4462 -3037 0
-3230 -1300 0
3832 -1764 0
4318 1343 0
2024 4036 0
25 1134 0
-4115 339 0
-1828 -1292 0
2892 -4223 0
-289 -2616 0
-3395 1840 0
3931 2546 0
4443 -220 0
1872 3193 0
-237 4574 0
1109 -550 0
3331 555 0
2652 -2920 0
-633 -1334 0
-4257 889 0
1583 1554 0
-1992 382 0
4462 1525 0
2645 -611 0
4000 -2690 0
1674 506 0
2247 -3875 0
3597 -4198 0
-2493 -688 0
917 -1338 0
3611 -4224 0
739 2082 0
4549 3089 0
999 1369 0
2016 -3337 0
4104 4496 0
-2380 1198 0
3118 -2517 0
-2374 1906 0
-2732 -4403 0
2486 649 0
-2908 -1117 0
-3919 -1261 0
4441 3505 0
2231 -964 0
-1999 -2859 0
3856 -177 0
4605 -4039 0
1818 -4554 0
2518 -3101 0
634 -3965 0
-1707 -1832 0
-860 -993 0
-1509 -2032 0
2660 3116 0
-3353 4576 0
3779 1366 0
-1274 -2770 0
2592 -2039 0
547 3141 0
1159 -3140 0
-2168 -4007 0
1118 -2072 0
-1236 -4005 0
3021 -1362 0
-3811 552 0
2026 -2550 0
-3417 1000 0
-4522 -1247 0
4518 -4023 0
-3840 -207 0
-2096 -137 0
2094 -851 0
1495 3604 0
1085 -4528 0
1461 4083 0
996 -881 0
2023 1274 0
-847 -1626 0
137 3485 0
1950 2071 0
3600 -4321 0
-28 4612 0
3548 -2840 0
1331 -2360 0
594 944 0
-2185 -4469 0
2613 900 0
-2898 -982 0
-1175 -1422 0
-4429 -1845 0
-2231 4335 0
3578 1098 0
-3357 2883 0
-4472 4368 0
-1777 -4620 0
2158 -1379 0
324 -1949 0
3344 802 0
1927 -2381 0
-2302 -3545 0
2217 -4350 0
-3200 -108 0
-2207 4263 0
-1971 -1404 0
2458 -2866 0
3443 -2438 0
-326 -805 0
-4396 1724 0
1476 4044 0
2738 -300 0
1127 1763 0
3649 -599 0
-2822 -3381 0
2459 4438 0
-2229 498 0
-596 4165 0
-3162 -1104 0
1808 191 0
-1141 2229 0
-4399 2223 0
-205 -1350 0
1067 -202 0
1686 -759 0
1396 354 0
-4444 1 0
-2061 3304 0
-687 -2239 0
-3353 -1262 0
-3234 -4117 0
-2503 2985 0
2210 2923 0
4078 -500 0
992 3722 0
-3575 -3337 0
-2304 -2226 0
2216 2115 0
665 1224 0
-3899 -2409 0
-3732 1691 0
-3393 3047 0
2134 4512 0
-3377 2617 0
1915 -639 0
-748 -1324 0
-2100 2655 0
591 -2925 0
-3792 -2936 0
-3237 -3819 0
1335 -4031 0
-1431 2971 0
-4530 -1252 0
106 -1912 0
-1379 987 0
-3459 -4249 0
2747 -2952 0
1975 -3332 0
2251 -50 0
-2535 -3493 0
-1793 2420 0
-653 1902 0
1779 -1070 0
3718 -2009 0
1610 -4180 0
-1764 3188 0
1106 -1011 0
673 -449 0
2322 644 0
-1380 1731 0
496 4049 0
922 -2339 0
1255 -3786 0
3095 -2357 0
-2387 -4105 0
2570 3727 0
512 1101 0
-1120 -3134 0
4130 3050 0
2969 3466 0
-3168 1684 0
1364 -3873 0
-358 2160 0
1869 2738 0
-3579 3921 0
-1587 -475 0
-2966 -1830 0
338 133 0
-2829 583 0
-3259 -1110 0
-165 -108 0
-1548 -536 0
4586 837 0
-3130 584 0
70 -2422 0
-304 -3032 0
-1076 -4569 0
2321 -3612 0
4394 1209 0
606 3065 0
3949 -3641 0
3004 -446 0
-3230 -2451 0
3963 -2066 0
2954 3175 0
3896 1581 0
-2802 -3401 0
2677 622 0
3744 -4257 0
-3907 -458 0
4544 664 0
-4439 -279 0
-2729 3426 0
-139 3890 0
-3598 -1134 0
782 4325 0
3579 -1104 0
1794 3050 0
-1636 -3331 0
-1819 3366 0
-4288 3627 0
920 3604 0
-745 -3738 0
2972 3688 0
-2067 -2465 0
344 -3173 0
1470 4383 0
-439 1820 0
-4247 -1507 0
-2303 3047 0
1298 -837 0
-358 -1540 0
-1564 3825 0
385 -2023 0
-3900 3810 0
2093 -587 0
451 3820 0
-2866 -3689 0
4421 3655 0
-664 2018 0
1744 -1256 0
2886 3651 0
2373 -3514 0
-4307 -3957 0
2920 4436 0
821 3959 0
4477 889 0
1816 -4224 0
2649 1657 0
2814 -1254 0
-3420 -2598 0
-118 1314 0
-1242 -958 0
2128 2290 0
1093 2279 0
3492 3405 0
3330 -1777 0
3054 2358 0
-2519 -3115 0
3661 1783 0
-2444 2478 0
-2372 -2965 0
-179 261 0
-638 2005 0
1818 313 0
1767 -534 0
1127 -4280 0
614 1712 0
-3118 -4012 0
-2734 1368 0
-2490 -1213 0
4164 -220 0
3881 2098 0
4135 -4185 0
-4209 -678 0
3620 2829 0
-3651 2619 0
2079 -1616 0
2941 4340 0
-3434 -1095 0
-168 -373 0
-2373 1908 0
-4528 702 0
294 1621 0
174 -1297 0
-2615 -3797 0
-3572 -1019 0
4111 -4485 0
-2562 -3726 0
315 2094 0
-3127 3164 0
-3957 2642 0
-2772 -1304 0
1737 3757 0
-2755 -2132 0
1588 2997 0
-3495 1610 0
4274 -4213 0
-3744 -2143 0
-3973 -1059 0
3584 -3556 0
4097 2443 0
-758 -668 0
-90 -540 0
2742 1611 0
-3957 3737 0
-4208 -2444 0
1570 3156 0
4117 -4519 0
-3544 -3961 0
2853 -404 0
1834 1591 0
-3948 -39 0
4226 -3235 0
3119 -3860 0
-3673 1329 0
539 1370 0
1490 -699 0
-56 -2750 0
572 -1181 0
3768 2084 0
-4033 1864 0
4157 -1274 0
-1812 -937 0
-4502 -510 0
369 1074 0
458 399 0
-1930 2044 0
-2315 -188 0
4287 462 0
-2440 288 0
4255 2435 0
4322 -3776 0
1880 -1340 0
-2862 3269 0
-2102 4067 0
4153 1052 0
-4160 2130 0
1190 4256 0
2316 1864 0
-1652 3386 0
3454 535 0
1729 -4273 0
4425 4283 0
-1475 2805 0
-1181 1517 0
-3598 -2862 0
-2189 400 0
-2258 -2127 0
4447 -892 0
1811 1411 0
1290 236 0
4277 -3891 0
-2112 -98 0
696 648 0
-2628 91 0
1789 -3702 0
-231 -2346 0
4586 1257 0
658 -1503 0
-4528 -3838 0
1830 -425 0
3018 959 0
3370 2738 0
-3177 -3683 0
3363 3701 0
930 4184 0
1567 -3206 0
4292 1918 0
4479 1864 0
967 1680 0
-2374 631 0
-2096 1033 0
-1947 -4615 0
2523 -3040 0
-287 -4107 0
2620 2120 0
-1804 1272 0
204 2301 0
1983 2451 0
1377 -1744 0
877 2620 0
977 -4298 0
3010 3621 0
-3436 3048 0
2410 3091 0
-4567 -1512 0
4490 -4257 0
1391 3686 0
4189 -2664 0
-1404 -195 0
-73 -1879 0
2785 1245 0
358 2089 0
2030 -3110 0
2186 -1918 0
4574 -3420 0
3907 -3444 0
-2382 -3445 0
-3251 -2384 0
1211 -189 0
-1306 3557 0
-3379 4195 0
-3404 1467 0
4424 -4193 0
2962 -2662 0
-2890 -3377 0
-1146 3750 0
1048 3710 0
-3978 -4359 0
1926 -1413 0
-490 551 0
-4302 4556 0
-3674 99 0
2042 -2305 0
1086 -1126 0
-868 3506 0
-1071 3152 0
-108 -4039 0
-3561 -2577 0
-2354 -1577 0
3111 1364 0
-1062 3209 0
4104 3794 0
-293 -3935 0
3831 1750 0
-1011 48 0
-198 2504 0
827 -3888 0
62 -1239 0
2958 -3241 0
4573 -3654 0
1497 517 0
4388 423 0
-67 3199 0
3084 -2717 0
3964 -3973 0
2534 -2589 0
-1019 -2980 0
-2850 -4054 0
3334 265 0
1395 1329 0
3976 2753 0
3489 1707 0
-1982 -1243 0
-4064 -2977 0
3740 1521 0
-4193 -2968 0
339 3038 0
-2203 3958 0
-1201 -2455 0
4257 -3873 0
1179 -3930 0
-1445 -928 0
-3905 3075 0
4535 3874 0
884 155 0
448 -3931 0
-852 -470 0
-3948 1107 0
-1930 -292 0
1373 2713 0
-538 -3702 0
956 3529 0
2964 -1685 0
3119 475 0
-247 244 0
-3933 3605 0
-759 1310 0
368 -1772 0
2883 4095 0
-2657 -3901 0
-3053 -2355 0
1399 -4428 0
-4551 -523 0
-4595 3310 0
-3122 918 0
-4023 109 0
3554 3485 0
4148 3188 0
1021 -1649 0
4475 -424 0
1016 916 0
-3583 -4039 0
893 2891 0
2212 2504 0
1023 1011 0
2160 4547 0
-3229 3491 0
-785 -2322 0
-950 2413 0
-427 2330 0
-3586 -2607 0
1683 3940 0
-4549 1234 0
2918 2572 0
3370 558 0
1741 -2008 0
1857 4433 0
-2161 2553 0
-303 3530 0
-15 3570 0
-43 -2622 0
2391 -3183 0
1801 -1473 0
4406 4351 0
-3850 -2319 0
-751 -1252 0
2419 2535 0
-2521 1483 0
-972 -239 0
2488 2418 0
-2020 -4263 0
2531 686 0
-1058 1309 0
-1199 -638 0
2265 4402 0
3785 502 0
-3828 3584 0
-3937 2956 0
-4048 4480 0
-3251 3078 0
-1815 869 0
1571 4421 0
-10 1750 0
-373 61 0
-4205 1245 0
4622 1814 0
-2085 3538 0
-800 4442 0
-2851 -4405 0
-4263 4516 0
328 1106 0
1763 2593 0
1055 -1794 0
-1180 3682 0
3229 -1958 0
-1301 2220 0
2092 1690 0
-1178 -3345 0
2317 -823 0
2115 4622 0
643 914 0
-2039 1326 0
-3598 1508 0
-2288 1732 0
-3302 -1553 0
4212 -2708 0
2229 -3487 0
-3149 -4359 0
-1953 2484 0
-3463 3675 0
-74 -910 0
-2430 286 0
-3947 4365 0
-1020 -1337 0
-3314 2736 0
931 2831 0
3422 3332 0
-335 3269 0
-590 3987 0
842 -4357 0
-4177 -1305 0
2800 1595 0
-2615 -368 0
2881 -1103 0
3989 -2216 0
-3711 2019 0
-615 3306 0
1878 2307 0
-58 3466 0
-4453 -3899 0
-2822 4321 0
465 3767 0
4079 -334 0
-280 1624 0
-3696 1116 0
-4298 2413 0
810 -1123 0
-1346 -2694 0
756 362 0
2832 -1799 0
-3101 3482 0
3346 363 0
1226 -4157 0
2227 -2327 0
2192 4018 0
-2912 639 0
-2702 -1796 0
-778 409 0
-2169 -2813 0
1867 -2737 0
-3497 2841 0
4347 806 0
-4150 3846 0
-373 -491 0
2831 2326 0
-1010 2014 0
-4598 629 0
1578 608 0
4484 1288 0
1182 -178 0
-4569 3151 0
-690 -647 0
-104 74 0
-2281 763 0
-1255 3702 0
-1371 -2288 0
3759 4059 0
154 -3603 0
3811 -3526 0
-2467 3424 0
3325 -3429 0
810 -3082 0
-4105 -3699 0
-3434 3526 0
4447 3678 0
-3321 -779 0
2811 -1625 0
-2413 -1372 0
1818 1007 0
-262 -273 0
1272 -2231 0
657 -2424 0
-2878 -64 0
3395 -2590 0
-4396 1332 0
3279 -3048 0
-142 -3720 0
-3507 2478 0
-4591 702 0
1822 4330 0
-94 -3511 0
-4272 -3271 0
3855 -1722 0
3129 -3106 0
-790 -3325 0
4179 -602 0
-173 4546 0
4518 -2273 0
3839 2610 0
1174 -3904 0
1687 3897 0
-3697 3552 0
1979 -1339 0
385 -564 0
-3080 4559 0
-2953 3113 0
-2412 -3661 0
-4395 -2793 0
-442 128 0
-983 130 0
2074 -3834 0
1663 2014 0
2750 622 0
4133 -1312 0
-1587 -4302 0
4011 1332 0
-786 -3850 0
-3572 -3392 0
-1776 -1711 0
-2697 -2246 0
1770 3597 0
-191 4110 0
4240 -1426 0
772 -778 0
-1745 -3933 0
-2170 -3299 0
1848 -1055 0
2164 -2732 0
2265 647 0
-4006 4218 0
-310 -4112 0
-4500 4023 0
2382 315 0
-2250 1299 0
-1821 -3643 0
1878 -3441 0
1156 -4028 0
145 -2167 0
414 -3179 0
3410 -4145 0
-1353 3571 0
-4101 1555 0
3010 -1804 0
3456 -1652 0
4356 1450 0
3605 997 0
-2121 3721 0
-516 1745 0
1818 3578 0
-1943 1798 0
-1244 -3211 0
470 -3238 0
-4301 -3540 0
2924 -3805 0
1562 -4072 0
2402 3145 0
-464 3408 0
706 3735 0
3108 -2395 0
-2153 533 0
-348 -2065 0
2813 2557 0
351 2318 0
-2032 2942 0
2938 3366 0
-1814 -4489 0
-1766 -3572 0
-2336 -4355 0
-528 -3509 0
-1602 -3727 0
2183 3407 0
-3157 -767 0
1924 -3968 0
1549 4552 0
-1540 3507 0
4184 -3199 0
2692 4334 0
-366 -96 0
-796 2484 0
-751 -1908 0
-1138 1874 0
-3561 4608 0
-4092 -4417 0
2218 -1279 0
360 -1605 0
185 610 0
2242 -2920 0
3662 3614 0
2793 367 0
140 -1283 0
3089 -3141 0
-420 -1357 0
-2568 3552 0
4447 2921 0
-1950 1054 0
3574 2128 0
-637 -352 0
4113 2345 0
-1421 2871 0
-667 10 0
-1815 -3044 0
-3654 -1419 0
-445 1973 0
2425 -100 0
3975 -3167 0
-3696 239 0
-3421 4470 0
177 1547 0
-1805 -1266 0
-2868 4405 0
-582 -4233 0
-3594 1027 0
-2546 3090 0
2436 -3684 0
-1847 3367 0
2480 1280 0
2077 -4471 0
-4012 2882 0
1151 -538 0
-1286 -1586 0
2203 3461 0
4055 3673 0
234 3330 0
2180 -1961 0
2965 1407 0
-2077 -3488 0
-4611 -3951 0
-1242 -3120 0
-2940 1547 0
1825 -3936 0
-4120 -1107 0
-2331 85 0
-4381 3397 0
-1306 1293 0
1659 4478 0
1165 903 0
-3070 3906 0
-2607 3200 0
3342 -2439 0
24 2625 0
-4096 4047 0
1675 603 0
104 3056 0
3664 1934 0
4193 -343 0
-664 2789 0
-2475 4481 0
2335 4101 0
-1435 -1183 0
1911 2942 0
-1454 -2179 0
-34 -4599 0
-3690 -4153 0
-3351 -1001 0
170 -1435 0
-2137 -2647 0
460 3397 0
-2535 1934 0
-2946 -2070 0
-3352 -880 0
-1696 -4294 0
-1690 -783 0
143 -113 0
-175 1940 0
-4298 -1087 0
-2057 -2999 0
-273 3731 0
-250 96 0
3394 -3155 0
2536 -321 0
2789 4054 0
-1806 3564 0
-750 1000 0
1488 -301 0
-3901 4501 0
-2734 -590 0
-3196 -2730 0
-696 -797 0
1160 2318 0
613 2223 0
211 1313 0
-2552 -2307 0
-3718 2406 0
-2670 -168 0
-1196 -1490 0
-1042 4374 0
2616 -3050 0
-3386 -2998 0
958 3272 0
-4035 1817 0
4518 -1083 0
-4610 3395 0
4095 4515 0
-465 -1248 0
-2987 2033 0
4163 3668 0
4195 4375 0
3079 212 0
-1953 1108 0
-2314 863 0
-7 1372 0
-3043 -4116 0
3569 3792 0
-837 4546 0
858 4586 0
1837 -153 0
1194 1430 0
1497 1927 0
4224 3605 0
-2062 -4492 0
-3516 3031 0
4090 -4226 0
3533 -1947 0
-3235 3003 0
-2997 275 0
-4128 -1178 0
-994 -459 0
1368 2923 0
-3521 595 0
3568 -2699 0
-1057 -2076 0
-155 -3800 0
-1576 -2749 0
-257 2726 0
-2475 -3726 0
-3022 727 0
2928 898 0
137 -2624 0
1095 -1919 0
-1077 -3805 0
3612 -2173 0
-2785 -2061 0
36 -789 0
2732 4483 0
2674 3503 0
-1925 -1484 0
2424 -386 0
3308 792 0
1021 -2244 0
930 2597 0
-4540 -2867 0
-4615 1208 0
3967 -3428 0
2644 -1837 0
4296 2335 0
290 -2528 0
214 -368 0
-497 3420 0
-202 -157 0
-3471 2908 0
-3503 -247 0
-1441 -2654 0
-495 -2995 0
3317 -2850 0
-2448 -603 0
5 -2071 0
4580 -2852 0
-2708 3320 0
2014 1693 0
2511 -286 0
1934 382 0
4080 1500 0
-1238 1811 0
-500 -326 0
-4616 4292 0
3376 -3759 0
-1807 -3817 0
571 -238 0
-837 -3711 0
1854 3958 0
874 2262 0
-1825 -111 0
-3923 -3381 0
3294 4475 0
-3059 -2725 0
3473 2920 0
3569 -203 0
-416 3391 0
-1606 -2133 0
-2338 2861 0
2318 -4204 0
-1034 -1618 0
-176 2940 0
-4139 3458 0
773 2742 0
-554 -1486 0
3148 1361 0
-2187 -3136 0
-2859 1962 0
412 -2425 0
2110 3304 0
-1981 769 0
-1010 2093 0
-427 -430 0
-3616 -1446 0
2895 -3474 0
2539 -3963 0
263 -3786 0
1151 -4243 0
2557 -1470 0
4242 -1015 0
3715 -1283 0
-2951 -2347 0
-2852 -950 0
633 430 0
-1766 -2924 0
3702 -3267 0
27 -2914 0
-402 -4305 0
2966 4185 0
522 1143 0
405 -2166 0
-4577 4389 0
2931 -4302 0
3209 1796 0
400 1015 0
3945 3183 0
1530 -2940 0
1361 -3353 0
-2851 -3666 0
-1894 3608 0
4242 -2195 0
1528 4436 0
-3105 228 0
3605 106 0
-983 3590 0
533 -3659 0
-2340 3270 0
4388 -2253 0
3730 -2972 0
2724 -3789 0
-2491 2008 0
3258 -2614 0
-2245 199 0
4218 -1138 0
-2259 4295 0
2086 -468 0
-2286 -4093 0
2155 -1143 0
-1252 -2032 0
-730 -1142 0
-1066 3087 0
-4439 -1297 0
-1651 -1242 0
4435 986 0
4178 -2890 0
2348 4115 0
-2185 3374 0
920 2150 0
3515 3385 0
4395 245 0
2649 1696 0
-2305 2972 0
-2242 -4203 0
-3503 1488 0
3634 -2639 0
2863 2019 0
2143 -858 0
421 -950 0
1038 -1880 0
3123 -4594 0
4100 1943 0
-1869 650 0
2154 929 0
-2318 -1181 0
558 3286 0
4042 1504 0
-15 -2394 0
-1623 541 0
1189 2741 0
2449 -1495 0
1120 -4097 0
4495 -477 0
4442 2550 0
-2887 -3953 0
-1797 3934 0
1547 -1511 0
3868 2657 0
-2790 -3101 0
-402 -1648 0
3740 -1686 0
-513 1881 0
149 -2956 0
3911 3884 0
-4452 -3895 0
-4621 724 0
-764 2039 0
495 -68 0
222 4613 0
-2891 -1724 0
-2280 -801 0
4127 -1612 0
-1292 769 0
2565 4520 0
-2186 -2847 0
-1291 -3993 0
-1641 -2476 0
3480 -3267 0
71 -2802 0
-3887 1579 0
388 -3477 0
3896 1956 0
3367 4377 0
607 244 0
1862 -3180 0
3297 154 0
2873 2736 0
-13 3362 0
-110 -2636 0
2004 2785 0
-2366 3476 0
-3144 1749 0
-3144 2527 0
3642 1214 0
3191 83 0
527 -4286 0
4087 2348 0
2721 -749 0
4531 4110 0
2860 -1066 0
913 -3602 0
1510 -2393 0
-2862 -1633 0
2138 -2399 0
2274 -4600 0
-991 -2806 0
-821 -66 0
1240 -1177 0
-2793 -596 0
-3565 388 0
-3213 -2867 0
112 362 0
-2989 -1744 0
2474 -1557 0
2450 -1215 0
-4605 -1009 0
-206 -824 0
1185 -2161 0
676 -2855 0
299 -2211 0
-3270 3432 0
-792 -4144 0
225 727 0
-859 483 0
-3906 -2759 0
4131 677 0
2991 4489 0
1595 1257 0
70 4621 0
1137 -2781 0
247 -1830 0
-2153 -3300 0
4190 1272 0
3286 970 0
-1379 -3812 0
-1537 -3747 0
2063 3319 0
-2898 3530 0
4455 641 0
3250 -1564 0
2000 -3661 0
2538 706 0
1970 -389 0
660 3089 0
2536 915 0
492 3600 0
1366 2848 0
-4523 -1198 0
-4333 -4047 0
961 1993 0
436 2630 0
2231 2399 0
1683 1154 0
2913 1491 0
715 -4224 0
-3770 4492 0
1029 1712 0
-1093 -92 0
-4098 -3453 0
3370 -1745 0
-2997 2291 0
-3808 -116 0
2766 2778 0
3030 4532 0
-364 3476 0
-1738 3864 0
2505 -3346 0
-1275 -1136 0
308 3179 0
3327 279 0
-1354 1806 0
830 -4125 0
4561 -4176 0
752 -4354 0
-868 1677 0
2536 3419 0
-3019 4094 0
2767 -3633 0
-44 -115 0
4295 1370 0
-3427 4546 0
1084 -2025 0
-1558 -392 0
645 4346 0
-2047 -1778 0
-100 3629 0
3882 602 0
-2934 -853 0
-2198 1645 0
1195 -3744 0
-4534 2233 0
1236 -4560 0
1064 2576 0
-2841 -70 0
2210 3448 0
3540 -443 0
-3072 -1169 0
499 -187 0
1382 3015 0
3307 -3691 0
2667 -4528 0
984 -1502 0
3898 -2177 0
2797 200 0
2903 -854 0
2599 4290 0
-2389 -554 0
-1943 -4568 0
3123 1508 0
-4101 554 0
2247 2308 0
-2177 -3827 0
-788 877 0
3772 4515 0
4014 3109 0
2954 430 0
-14 518 0
602 -1159 0
2227 -1476 0
-3350 -1920 0
3477 1763 0
-7 -1625 0
572 -2802 0
-3735 1303 0
3864 -348 0
-285 2205 0
-4145 -1231 0
-4228 3423 0
1183 -3182 0
3470 1934 0
-435 1176 0
3006 2006 0
1720 1539 0
1029 -3399 0
3145 1271 0
-3214 -133 0
497 782 0
2412 -2819 0
1106 4453 0
-86 3835 0
-4391 -1157 0
176 4274 0
-3451 2287 0
544 -2167 0
2286 -3155 0
-3654 1323 0
3566 3612 0
2850 -2603 0
3320 3512 0
2845 -2875 0
511 -2596 0
-1155 4570 0
1656 -818 0
-441 1012 0
-3170 2332 0
1825 -3527 0
-4150 4270 0
1311 3050 0
2094 -2739 0
-1024 2561 0
-1418 -3569 0
2135 -3834 0
2496 2056 0
-187 1162 0
-4339 3713 0
3046 -1146 0
4588 1657 0
3043 1109 0
-1475 -2285 0
1469 -1837 0
228 434 0
-1793 -4593 0
-3231 -1972 0
4383 312 0
-1410 -251 0
2099 -2446 0
3180 2025 0
2883 102 0
-1808 888 0
-4329 3922 0
-2356 276 0
-1674 3501 0
694 -4006 0
2331 517 0
4454 1098 0
4135 4031 0
-1591 -4111 0
2360 1977 0
4157 -4139 0
-2264 53 0
2876 -2513 0
3080 3757 0
-916 -2407 0
3138 -1464 0
2715 1966 0
2852 3552 0
-1236 -798 0
-4234 -2615 0
-2832 1219 0
-2652 3558 0
-2793 2696 0
978 -2670 0
-3880 -293 0
3458 -3510 0
1892 -4041 0
4523 3330 0
4055 -2384 0
4399 2660 0
-2147 -3178 0
-4495 -589 0
-3676 -3389 0
-1551 2544 0
4312 -2969 0
3095 4025 0
4200 2384 0
384 -4220 0
-898 -1304 0
3443 1411 0
-1644 -45 0
1190 -3800 0
2899 1473 0
1447 1216 0
-132 3543 0
4509 -682 0
1547 1680 0
-2397 -4513 0
-2996 517 0
3206 2856 0
3151 4005 0
-4378 2802 0
-2427 -3222 0
2338 -1537 0
-2460 -1769 0
-4441 -4567 0
2547 -1605 0
2287 -3902 0
-3776 1186 0
-12 2629 0
2139 -2770 0
-2082 2426 0
4090 900 0
-1713 3032 0
2598 -4593 0
-3997 436 0
3265 -2515 0
-3112 2968 0
-2357 -2729 0
-1284 -4054 0
2020 -352 0
-1726 -1486 0
-2998 3578 0
-3428 -347 0
-2078 693 0
-3781 -4038 0
-3291 -4246 0
1342 -3677 0
-3383 4310 0
-2846 3089 0
2352 -481 0
-2284 661 0
2131 -2554 0
-2278 4439 0
3737 304 0
-3728 529 0
-2706 1430 0
-791 3491 0
-2807 -3154 0
-2563 4055 0
21 2842 0
-1557 3097 0
101 1713 0
4191 353 0
-90 -2284 0
2142 -627 0
2287 -2947 0
-3845 638 0
285 -375 0
1813 3555 0
2289 -1943 0
-4459 -1932 0
-2291 -164 0
-1645 -4096 0
-1472 -103 0
2659 -802 0
1302 3766 0
1329 -3752 0
3733 -3126 0
-3249 -432 0
-2591 -901 0
-3539 -653 0
522 3949 0
-4556 1479 0
11 1943 0
-3658 -604 0
350 1854 0
-1191 -3202 0
-3785 -1490 0
2449 -2647 0
3555 -3832 0
-2514 2691 0
-3783 -1304 0
2440 -3153 0
3259 3807 0
3456 -4586 0
-1621 -2108 0
-1261 -472 0
-2705 2524 0
-292 893 0
504 3615 0
1983 -193 0
-2277 -3305 0
3926 -4033 0
686 -3876 0
-3707 -737 0
2270 -4426 0
4518 -4556 0
2772 -2733 0
1538 -4387 0
2067 108 0
-511 3069 0
-206 222 0
3305 2529 0
3331 3418 0
-3069 1663 0
2114 62 0
2885 3990 0
-2533 -503 0
-986 -4556 0
-2249 3095 0
-2818 -336 0
1147 -3866 0
-3856 2537 0
-2359 -2606 0
-2202 -1586 0
996 3090 0
2452 1831 0
-3214 447 0
3272 994 0
3597 -2742 0
-2065 -1548 0
-4405 -514 0
744 -1092 0
-3900 -929 0
2413 3366 0
2444 -4226 0
899 -2526 0
-2998 -3142 0
-3521 -2387 0
-4570 -1103 0
-4305 2687 0
77 -2761 0
-2661 4296 0
2019 -33 0
1872 1855 0
2037 2728 0
-1452 2783 0
-1872 -2764 0
3149 1443 0
4494 1803 0
820 -2074 0
-2670 1936 0
-950 2184 0
-3952 1723 0
2521 -63 0
-2574 152 0
3317 -325 0
2588 -3206 0
3718 -1400 0
1989 -656 0
4121 -999 0
-3995 -4467 0
-4517 -2286 0
729 -3411 0
2838 -2545 0
-3869 2663 0
-1490 -3258 0
-1908 -2465 0
999 -653 0
2833 -3440 0
-1912 -1157 0
-3126 -1974 0
302 3172 0
-2519 -2064 0
3780 2538 0
-3705 -306 0
-935 -2429 0
-1228 -1471 0
-2269 -1659 0
3141 -3220 0
2879 3719 0
-588 3916 0
-3295 -1667 0
4090 4460 0
-3933 -3144 0
3056 -4617 0
493 3842 0
-1766 -1928 0
936 -4522 0
-1924 846 0
2925 2391 0
2991 -1886 0
2120 -4495 0
2245 3585 0
-925 576 0
3738 -1349 0
2352 1884 0
3309 -2820 0
1365 3426 0
-2996 -3595 0
-1979 1234 0
-3817 -1052 0
-2750 1387 0
-956 -2171 0
-2059 -2033 0
-3483 2328 0
-3465 1068 0
-2251 -2474 0
3343 -4324 0
-1279 -1500 0
3192 4559 0
733 -428 0
2527 1450 0
-3651 -2846 0
-3709 -599 0
-365 3578 0
1754 3652 0
903 -4471 0
2136 1686 0
-3964 -4410 0
-1736 -3210 0
-939 4396 0
-590 4252 0
-4093 1675 0
1246 -2150 0
-1785 -22 0
-4027 3021 0
-1860 -3673 0
-1479 -3774 0
-3428 874 0
709 564 0
726 2942 0
2751 -3623 0
-4400 1979 0
3162 -67 0
-3772 -2189 0
2212 -1026 0
3789 -2904 0
792 3523 0
941 -941 0
-2871 -3708 0
-4364 -4342 0
2735 911 0
-4487 -1770 0
2253 4131 0
1384 -2147 0
-1017 -1051 0
-91 4059 0
583 4585 0
-1513 3878 0
3713 2563 0
-3363 -2029 0
3148 2020 0
3793 -4490 0
3199 -4488 0
-786 3468 0
1890 -3016 0
-923 2714 0
1562 -4082 0
-4586 -699 0
1966 -1617 0
-1453 1080 0
-2977 -2677 0
-927 2372 0
592 2224 0
281 -2730 0
961 4372 0
3293 1373 0
-3561 1361 0
-3674 3704 0
-3726 84 0
3815 3344 0
3823 3768 0
4531 -229 0
4068 3243 0
3448 -4128 0
3456 -1930 0
1189 -1950 0
966 233 0
4104 -3651 0
-4032 -181 0
-2248 180 0
1624 -1359 0
4626 -555 0
186 1290 0
-932 -3439 0
-3695 3593 0
4071 -4606 0
-1294 -88 0
-322 -2870 0
-993 918 0
2135 2252 0
-4629 1744 0
4215 3906 0
1341 4615 0
4018 -1981 0
-1364 178 0
3095 -1049 0
-1397 1915 0
848 -742 0
228 -4421 0
-2253 -2394 0
465 -3041 0
2873 -1107 0
-420 1595 0
-774 1749 0
4334 -1932 0
4590 2297 0
3336 -2509 0
-3778 -2379 0
4143 -2530 0
290 2062 0
843 3710 0
-2169 3671 0
3566 2677 0
-728 4245 0
2186 -2631 0
-2627 3762 0
-3472 -3657 0
-3160 3559 0
4506 -2628 0
2553 3657 0
153 -2104 0
2295 -1895 0
-2574 3369 0
3864 1127 0
1572 234 0
-482 3766 0
3344 -3106 0
4042 3393 0
-2506 960 0
230 -4300 0
-4313 -2332 0
3182 3833 0
-1366 2213 0
-2302 -3155 0
4364 1763 0
-3322 2130 0
4496 -1381 0
492 -4488 0
-660 1900 0
-1735 -2323 0
-3397 1578 0
-1424 1260 0
397 702 0
-1428 3994 0
-3212 691 0
4080 -100 0
1644 2853 0
3467 -1128 0
4102 -4020 0
4424 -1077 0
4155 527 0
-4466 4484 0
1226 -1160 0
3688 3673 0
1316 3737 0
-739 -2288 0
2344 4384 0
-825 4016 0
-3136 -3099 0
2981 2855 0
-1432 -3526 0
-1614 2245 0
1394 1489 0
-1949 -690 0
-1850 3442 0
3848 -4391 0
271 8 0
-2234 -2389 0
3275 -1216 0
2656 663 0
2004 37 0
3701 -1288 0
-1136 1370 0
-1427 -2514 0
374 764 0
2729 -3323 0
-3212 -3935 0
-2493 4131 0
1644 -3438 0
469 -4452 0
3528 2724 0
3773 1438 0
912 -3385 0
1030 -2592 0
4320 4480 0
-4544 186 0
480 270 0
3417 991 0
2991 -806 0
3370 3150 0
-3152 -3553 0
-2449 -4311 0
-2116 529 0
1819 -401 0
2846 1036 0
1578 -2665 0
2982 -2331 0
-2261 594 0
-2263 2544 0
-2100 -2996 0
-3954 393 0
-2792 -1757 0
-424 -4385 0
865 2667 0
2258 4073 0
3419 -1403 0
-2701 4153 0
-1032 2424 0
2932 3892 0
-1726 3810 0
-4143 2529 0
-1731 1893 0
4470 -440 0
3275 81 0
-3342 856 0
3262 -2083 0
-4301 2375 0
-4521 -1887 0
-2164 -1019 0
1855 903 0
-679 -2171 0
-680 -4136 0
-1164 1720 0
3174 -2889 0
-671 1552 0
479 3249 0
217 4480 0
1610 -4294 0
-1949 -4232 0
-4097 -1838 0
4465 -4598 0
661 -3809 0
1604 2786 0
-747 2727 0
2004 -3717 0
665 3420 0
-2690 938 0
-2317 -633 0
1124 723 0
-1846 -1905 0
4219 -3853 0
-2084 -1471 0
-1966 1390 0
-4341 -3554 0
4443 -3168 0
2845 702 0
-1249 -4408 0
2941 958 0
-2662 -2171 0
-3379 2073 0
-791 4166 0
4245 -3278 0
-598 -2181 0
-2140 3748 0
2662 3779 0
-4519 -123 0
4326 564 0
-3247 -959 0
-259 -4579 0
-3236 4187 0
-1187 4506 0
2174 2054 0
-2694 -3015 0
-3432 3788 0
543 -441 0
-1755 -655 0
3567 -1851 0
-4471 1498 0
4347 -540 0
-1820 3894 0
2761 4423 0
3257 533 0
-3696 4031 0
1154 -571 0
-1249 1968 0
3302 -2461 0
543 734 0
16 -3212 0
4483 1456 0
-1780 2362 0
3894 -4631 0
631 575 0
-1529 -2123 0
-4415 3686 0
1025 -1180 0
41 -3438 0
-3180 -769 0
-805 3282 0
954 297 0
-697 1573 0
3405 1624 0
3028 -3674 0
396 -463 0
-4188 1780 0
2317 2013 0
4326 841 0
2686 -4138 0
-180 1880 0
4074 1568 0
-4046 3408 0
-1392 -2365 0
1522 -2143 0
-3659 -2960 0
4158 -3603 0
-2398 -1550 0
656 -2287 0
-3666 3038 0
1185 4352 0
-2491 2535 0
3318 -4608 0
4334 -3923 0
3344 1729 0
3596 2990 0
2736 4268 0
2571 -165 0
4428 -2754 0
2309 -3389 0
130 893 0
2169 2832 0
1749 -4591 0
-1608 542 0
-4556 -497 0
-2750 4408 0
-2495 4030 0
-841 -4325 0
-1867 -2395 0
-4070 832 0
-4290 3825 0
-2905 -2461 0
-2558 2411 0
-1459 3354 0
3324 -4300 0
-3179 2327 0
1988 -936 0
87 -4252 0
4552 2071 0
-3168 -1863 0
2045 -799 0
1825 -360 0
-2271 1430 0
-146 -3934 0
-546 -2379 0
4113 4507 0
110 -3701 0
-2811 2402 0
-4321 4112 0
2945 819 0
4621 1385 0
4104 2599 0
43 -1776 0
-3386 -2611 0
-3860 3822 0
-4002 2076 0
4516 -1032 0
455 -2394 0
-4093 1706 0
827 -1168 0
-4179 -3100 0
-1836 -2172 0
1310 1581 0
-2470 3710 0
777 2569 0
-3632 -2290 0
-3859 1922 0
2964 -2159 0
-451 3475 0
-265 706 0
-234 -3446 0
627 -1778 0
-814 4441 0
2270 -799 0
-3104 3198 0
4207 1525 0
-1248 -2122 0
-1835 2601 0
-4022 -3502 0
1276 3805 0
-1052 78 0
4207 -2179 0
-1280 -2685 0
784 1210 0
3922 4009 0
-349 -2813 0
-681 3843 0
2828 4438 0
-1103 1126 0
1205 -1487 0
784 776 0
3161 -3444 0
3735 -3883 0
-4308 2751 0
1125 3022 0
-3735 -739 0
1495 1642 0
1203 4481 0
3573 -4403 0
829 1873 0
1815 4072 0
-3604 2177 0
-2381 316 0
-1673 -3690 0
-248 64 0
2016 -3354 0
-75 -2185 0
3002 1291 0
3978 3984 0
-3221 2044 0
-2205 1260 0
-2404 -4151 0
-1502 751 0
-4401 -1412 0
-1761 -1638 0
943 2272 0
-4377 3678 0
-1942 -778 0
3999 1578 0
1660 3438 0
2436 3642 0
-3641 1001 0
4503 -3666 0
-397 -4628 0
2317 3749 0
3868 1 0
-857 -257 0
3236 2019 0
4274 -3000 0
4242 -3272 0
1206 -1136 0
-1352 192 0
-2189 2667 0
1580 2885 0
3265 3085 0
-4026 2492 0
2832 -2801 0
-3049 -2941 0
-3947 92 0
2173 1899 0
1140 -4612 0
-2057 -3128 0
1844 -3011 0
367 3806 0
2964 -679 0
-2037 -4522 0
-3886 -1441 0
271 1616 0
-4343 2756 0
-1026 2491 0
3896 2611 0
-3860 -1469 0
-216 -902 0
-3406 307 0
2213 302 0
1041 485 0
-1648 2536 0
-516 2236 0
-2813 -2574 0
-1246 3 0
-3404 -1032 0
-3437 1356 0
249 -3847 0
1910 2315 0
-1070 -2519 0
4629 -4165 0
-1661 -1116 0
1491 1948 0
2176 584 0
-3929 -4399 0
241 -4212 0
4168 -3764 0
-2999 3347 0
-4309 3909 0
-3591 -2615 0
1255 2058 0
-916 2869 0
4055 -4510 0
-1937 473 0
-3639 -1380 0
-3668 -868 0
3997 -2106 0
-539 394 0
-1121 628 0
-3936 -3863 0
-2698 -3990 0
-2004 -1141 0
-1441 -4597 0
4017 -1140 0
-3487 -963 0
-1958 -2698 0
3664 -2376 0
888 62 0
-2153 622 0
3563 -4183 0
-340 -795 0
-1321 -2249 0
-23 -2405 0
-3598 334 0
2076 -3527 0
-936 -4207 0
-3650 -3693 0
-3275 -4193 0
-3599 -3587 0
-1557 1161 0
-67 201 0
-1765 -3251 0
634 -1199 0
1595 3800 0
-2290 3808 0
47 3670 0
1277 -1617 0
-330 2407 0
1496 -910 0
298 -2633 0
3097 -2059 0
3426 -1371 0
3858 4180 0
293 -854 0
-3796 2582 0
-2421 4095 0
-98 1984 0
-4611 -1652 0
-4566 3481 0
3029 -1347 0
688 -1031 0
-2801 -2025 0
-2811 1450 0
-2331 -2184 0
2962 2447 0
1297 1577 0
1448 -2324 0
2587 -1122 0
-2662 -271 0
-2840 -2917 0
1135 -3434 0
2440 -546 0
-2463 -3418 0
4034 -2517 0
-1995 -488 0
-401 4245 0
858 -3525 0
2008 -2449 0
1496 -3709 0
3536 -4104 0
3151 -3468 0
-4452 -799 0
659 -581 0
-1677 3347 0
-229 987 0
3221 3990 0
819 -2747 0
2982 -789 0
-309 -2953 0
-3913 2311 0
-2606 2084 0
-4205 42 0
186 -2808 0
-4381 -3847 0
675 414 0
2994 2031 0
2148 3701 0
-1045 -1383 0
-4343 -4434 0
-419 -3121 0
602 -2930 0
-728 -4357 0
416 1039 0
-2984 -2628 0
-2215 -1266 0
2531 1146 0
1439 4173 0
1065 -4579 0
4322 4503 0
-4386 4227 0
-4291 2363 0
-3189 2927 0
2176 3991 0
-2474 4029 0
-3359 988 0
199 783 0
-2288 -3741 0
1161 4297 0
628 -2987 0
4088 518 0
1860 -788 0
-287 4197 0
-3673 -2353 0
-2380 1637 0
-316 917 0
-642 -2602 0
289 2853 0
-3144 -304 0
1534 4410 0
-4168 4084 0
4118 918 0
-4158 -3453 0
1717 650 0
3177 -1909 0
-3746 -4569 0
42 -139 0
627 -4053 0
-4466 -1778 0
2856 4575 0
874 -3099 0
2477 -439 0
-772 384 0
-2034 2730 0
3655 2228 0
23 1659 0
-1761 -4026 0
-2740 1195 0
-631 1048 0
-1439 -2019 0
-113 3288 0
-1450 2741 0
-1038 -2398 0
3716 -3221 0
-3775 -3731 0
4254 -1218 0
-1505 -82 0
1928 -3706 0
3114 -4391 0
1114 1419 0
1870 -69 0
-3735 -2923 0
-4427 -2146 0
-1126 -3070 0
3530 -3358 0
2909 2656 0
2693 3602 0
2752 2701 0
2149 -3813 0
2390 -4446 0
-3360 -3187 0
298 3540 0
-3739 945 0
-1184 2888 0
3542 -1181 0
-4334 -3832 0
4248 -1016 0
-2977 3836 0
-1839 1954 0
2027 3130 0
1226 4235 0
-3898 3794 0
-4599 -3279 0
87 3992 0
4403 -54 0
203 -946 0
-910 -3041 0
2899 533 0
3001 -3808 0
4183 539 0
3424 -1853 0
2991 1146 0
-63 -2263 0
2165 2911 0
1763 1411 0
-493 -878 0
-1999 3635 0
-266 -3582 0
-489 -1548 0
-4181 4579 0
3910 -708 0
-1378 -942 0
2500 2753 0
1256 -3919 0
-4171 -2825 0
4013 4243 0
2089 3186 0
42 -720 0
3640 2073 0
2584 -3924 0
1887 -1601 0
112 1460 0
4226 2066 0
-3301 -2290 0
4384 2636 0
95 -1502 0
4414 -3199 0
4557 -1659 0
-2189 2891 0
138 -3554 0
-1512 3713 0
-2659 -4399 0
1615 3345 0
2438 -3999 0
1852 16 0
-895 -2847 0
-2304 -2314 0
-3301 -120 0
3702 -1019 0
-3998 -939 0
662 4429 0
-3003 -636 0
-2937 649 0
327 3073 0
-199 1082 0
4254 4030 0
-3918 2195 0
-3551 -1058 0
960 -2950 0
-3462 -3384 0
-1270 -3734 0
1408 3266 0
-71 -3145 0
303 -3345 0
-3698 -3179 0
2176 3174 0
746 -1850 0
-4449 -2673 0
-900 303 0
-748 3955 0
-834 -2243 0
-2117 -4609 0
-1821 -2617 0
-2196 525 0
3823 2877 0
-2319 -975 0
2283 1557 0
-2313 -4534 0
-2147 -3276 0
-4466 -1839 0
510 -3532 0
1514 1405 0
4239 -2920 0
-3772 -4586 0
352 3354 0
1506 -144 0
694 26 0
-281 3572 0
3331 2886 0
4604 -4551 0
2307 891 0
-3549 -2048 0
-4593 751 0
771 -1903 0
-2494 1446 0
-3834 387 0
1326 -2401 0
74 -1598 0
-2453 -1784 0
-4619 3167 0
-697 -181 0
-3571 3915 0
-566 -432 0
2947 -65 0
3927 2789 0
-2636 -3575 0
105 -3649 0
-562 2688 0
4143 2511 0
-1054 -1217 0
-3275 -2645 0
834 -1955 0
3851 -4055 0
-1478 1800 0
-289 2589 0
-2002 -833 0
2582 -3338 0
2487 -2230 0
2572 -2960 0
3297 2644 0
4244 107 0
4303 2829 0
4398 -2198 0
-542 966 0
-2347 -1322 0
-2785 -1839 0
-14 -123 0
4531 303 0
4124 -3321 0
-1076 3298 0
1348 3692 0
3789 -1564 0
2649 -14 0
471 -1689 0
-2286 -4620 0
-517 -39 0
-112 -3180 0
3655 -652 0
1115 1780 0
-949 -112 0
-675 4084 0
3528 -3464 0
-3739 4568 0
4514 -2470 0
1180 1559 0
1510 1933 0
-66 4153 0
-328 -597 0
4609 -1410 0
3361 -65 0
4095 1416 0
3681 3089 0
-3573 -410 0
-3961 652 0
-285 -3986 0
309 -3953 0
2215 369 0
-4566 -243 0
-3784 -4208 0
2198 -1217 0
2526 -2924 0
1510 3741 0
-3666 -4412 0
2053 1129 0
-588 -3256 0
4297 -2405 0
-765 -1826 0
4268 -2289 0
-2521 1741 0
2221 2006 0
780 3326 0
964 -4285 0
-4332 -2034 0
-4405 875 0
-3666 -2531 0
4453 1046 0
-704 1875 0
4433 -1093 0
-985 2858 0
-3658 -940 0
467 1157 0
-4297 -3171 0
3016 -4430 0
855 -1537 0
2130 -3221 0
-3240 -155 0
4361 1205 0
967 3036 0
-1961 -2385 0
-4549 4144 0
-254 466 0
3816 1109 0
1697 -637 0
1879 -4301 0
4198 869 0
-3847 414 0
-4551 1882 0
2869 -3872 0
-321 2544 0
-4132 233 0
-1288 -1146 0
117 4222 0
-377 3905 0
-1856 -2149 0
1488 -3799 0
1173 3588 0
-1286 1365 0
4015 -2059 0
-153 477 0
2847 -1517 0
3860 -442 0
3075 -43 0
-2389 3137 0
372 -2889 0
827 1053 0
-3468 -1076 0
4401 3678 0
-2200 4474 0
-4180 572 0
-4294 -3079 0
2166 4090 0
-2545 1412 0
-1430 3644 0
-3937 -501 0
-1948 -1108 0
743 -4597 0
2954 792 0
-1071 -4257 0
-3641 -2074 0
-3015 -4332 0
-2106 -3238 0
-949 1519 0
-1661 173 0
1954 -349 0
-2893 4602 0
1096 -2209 0
-678 -635 0
-2699 -1567 0
-3297 3997 0
-1678 -558 0
-2259 3636 0
430 -711 0
-2109 3964 0
1273 -741 0
-3782 2868 0
-4551 1415 0
-3069 4553 0
-3088 3198 0
575 -4183 0
-3892 665 0
1450 1384 0
-2803 3603 0
3955 -3701 0
935 161 0
4458 -2858 0
-3753 3645 0
2688 4395 0
3707 -1717 0
-449 4219 0
-1361 -3225 0
4008 -3195 0
1975 -1961 0
1818 -2602 0
4441 -1360 0
-4586 3387 0
225 2451 0
-3979 -3282 0
-4441 -1886 0
278 2916 0
-2484 -3471 0
-3050 -27 0
-968 -231 0
3488 -3991 0
-2949 -1368 0
1055 -1750 0
3172 -4159 0
-1801 -973 0
-4261 -4288 0
4352 -559 0
-180 -4515 0
374 1807 0
-2515 -1242 0
-3734 -2121 0
-13 -809 0
-88 -3693 0
676 2160 0
-1450 -3936 0
-2221 -1919 0
-2141 317 0
1897 -4378 0
4102 -1228 0
2087 2321 0
-4615 -576 0
-3993 -4319 0
-4234 -4434 0
-623 -4233 0
-1392 1471 0
4562 -2563 0
3046 -2045 0
-4343 2487 0
-2219 -1140 0
-421 -3399 0
-4315 391 0
-3179 -2907 0
2880 -785 0
-156 1805 0
-907 1702 0
689 215 0
-2571 -4203 0
1939 -3059 0
4438 -1551 0
-3170 -3026 0
-2389 -4085 0
-687 -3996 0
4630 811 0
-3533 -2794 0
-2705 233 0
-694 3910 0
-3507 1549 0
3087 -3464 0
3590 -489 0
4123 -2608 0
-2122 2781 0
2442 3419 0
-3662 1275 0
-886 -3189 0
2941 3022 0
2504 -2735 0
2038 -1096 0
145 986 0
3942 -4336 0
-855 4195 0
-3864 -956 0
-3894 2860 0
-4595 -2078 0
887 4006 0
1997 2181 0
-3765 4062 0
756 -3654 0
2236 1864 0
-2193 -626 0
763 213 0
3746 -4340 0
-488 -1282 0
2741 -4313 0
3037 -1092 0
-1998 -352 0
-1280 -2768 0
1390 -4199 0
968 -2 0
-2302 1688 0
-865 2768 0
2066 -29 0
3239 -3123 0
-2180 1904 0
-4555 2334 0
-1862 1394 0
3315 4394 0
-943 -1247 0
-3662 1556 0
-3645 1144 0
1816 3931 0
-1063 -967 0
-1221 -1099 0
-4122 4396 0
-3919 -3437 0
2619 3506 0
117 2711 0
1833 2068 0
2146 -2704 0
-1948 -1508 0
-2817 2590 0
-1009 4487 0
4056 4548 0
-4355 627 0
3419 -563 0
-3607 -3958 0
3060 2873 0
-1170 303 0
3236 -1663 0
-3742 -4065 0
1679 -2057 0
4094 402 0
4452 1532 0
1730 3068 0
1250 2962 0
-1029 1577 0
1332 2272 0
-628 4249 0
-975 -401 0
3232 -3497 0
4604 955 0
2856 -3415 0
3751 -3855 0
-2504 -2101 0
-201 -4123 0
-2476 -553 0
3280 -2716 0
866 -1785 0
577 3664 0
-106 -2148 0
-758 -4148 0
-207 -1903 0
-731 -4612 0
-3669 -743 0
2095 3447 0
3492 -778 0
-1854 800 0
-1067 -3289 0
440 -3815 0
390 -4397 0
-3810 2766 0
-1963 -3796 0
-3682 -2394 0
-3455 2988 0
-822 2099 0
1880 -858 0
-4372 1801 0
2207 243 0
3172 3276 0
-3871 -2165 0
-1510 2079 0
-4459 264 0
-2788 1130 0
-763 2087 0
-2344 -2573 0
-3455 4034 0
-418 -450 0
2667 3076 0
637 -1605 0
3738 -914 0
3568 586 0
2983 2152 0
-4479 -1031 0
-1942 -3675 0
2418 -1761 0
-2156 4443 0
-4553 -3654 0
-838 -211 0
703 1658 0
3945 -1001 0
-1386 -3880 0
1200 -1605 0
-2061 -4037 0
3448 -369 0
-1584 -4628 0
878 -1847 0
4318 -3444 0
-1545 2105 0
-3845 -2732 0
-1606 3559 0
-1928 -1142 0
-4373 -2239 0
3488 3374 0
-1067 1056 0
-3464 -4326 0
1000 -3519 0
-3436 2954 0
2019 4059 0
3938 1647 0
1355 -3613 0
-2837 -2224 0
-3190 -2666 0
-1380 -4303 0
1865 -3682 0
627 1983 0
2593 123 0
1767 2967 0
1475 -1760 0
-1554 -2169 0
2111 3947 0
1021 2243 0
2094 -1178 0
-561 1161 0
803 -3617 0
3778 4264 0
1111 1622 0
-1163 4455 0
1672 3393 0
725 43 0
1508 -4256 0
3025 2090 0
3098 -2068 0
3640 4194 0
-3566 3094 0
1593 2667 0
3174 -156 0
-1829 3456 0
3754 -3161 0
154 1181 0
-202 -4316 0
-2583 4259 0
2026 3259 0
2789 -1502 0
1284 1060 0
-997 -4467 0
-1739 -1552 0
773 -2984 0
2021 2368 0
158 4471 0
1906 -1237 0
326 -3935 0
-1141 -2784 0
-1413 -4321 0
1892 -3256 0
-2280 877 0
2160 3193 0
-3394 1193 0
-255 -1339 0
-1939 3579 0
1065 2460 0
4414 -489 0
3675 -2960 0
-1553 1326 0
2632 1683 0
3595 -264 0
2668 -3641 0
-4158 672 0
4121 2001 0
-473 -402 0
-3896 960 0
-3766 -2654 0
970 113 0
-2548 -703 0
-4253 700 0
-2653 -3717 0
1840 1059 0
3128 1965 0
-2600 4458 0
3852 3032 0
-1178 -3957 0
-4587 -532 0
509 4531 0
-406 4575 0
-2413 4227 0
-3885 -3400 0
-3827 4454 0
3850 -858 0
-2642 2252 0
-3288 2157 0
-1239 -1844 0
-1273 -1700 0
-210 -175 0
-4479 -20 0
-1169 -1871 0
3724 4053 0
-2794 4064 0
-993 3901 0
-2345 1360 0
380 -2513 0
342 1177 0
-1249 3964 0
-1936 4418 0
4064 2972 0
1036 -1096 0
223 -4371 0
3500 3419 0
2159 2126 0
-452 861 0
1038 3545 0
-4128 3309 0
-1400 1566 0
-3670 874 0
71 -1408 0
-2677 -1592 0
-4248 -2802 0
1168 2419 0
-1726 1969 0
-3131 -4351 0
3847 -4390 0
3672 -1521 0
3561 -3466 0
-444 -1930 0
4138 -3336 0
-2521 3936 0
3264 3586 0
1817 -3874 0
4333 579 0
-2924 3564 0
-4175 -20 0
1278 1089 0
-4504 -929 0
2997 -773 0
-4282 -4490 0
-81 -420 0
-389 2815 0
-1278 -3225 0
3185 104 0
-2718 -754 0
-4463 4388 0
2544 4108 0
-2305 1883 0
-1608 -2199 0
-4144 1574 0
3722 -1170 0
-768 2848 0
657 3881 0
10 -3596 0
1528 3521 0
2999 -536 0
659 1482 0
-1243 -484 0
3828 -3889 0
-3383 4334 0
-2152 426 0
-1606 -2828 0
4602 4091 0
-4450 3366 0
2566 1345 0
-3100 -3358 0
-4540 -1365 0
864 -3179 0
-4432 674 0
4344 2632 0
-3088 -4396 0
-2313 -198 0
2414 -1319 0
-4303 158 0
4079 2194 0
-1184 3938 0
1637 -1344 0
1701 1174 0
1051 1015 0
-3576 -2315 0
-1148 -590 0
4104 -1793 0
-2378 -1808 0
573 3238 0
-3284 -1890 0
-3007 -1281 0
4244 2231 0
31 -3772 0
-2535 468 0
-458 -2150 0
467 -3413 0
2500 -4560 0
3470 -191 0
1402 537 0
-3564 -4328 0
-2768 1094 0
-1157 335 0
-3026 -1069 0
2756 -372 0
-1692 -3499 0
-3899 2851 0
-3399 -1633 0
-115 -4342 0
-1169 -2153 0
1739 -1537 0
663 1235 0
-1243 3887 0
-2516 2537 0
-4459 -2645 0
-1897 -1115 0
2455 -1246 0
4086 4546 0
2782 2076 0
4194 -2730 0
-1945 4300 0
-136 3823 0
3386 -1191 0
2176 2979 0
114 2092 0
-3877 739 0
1130 114 0
2422 2520 0
3870 646 0
-540 2993 0
-2229 2019 0
-3662 1864 0
2240 -1926 0
-1503 1119 0
1456 -3978 0
-1900 -3498 0
1347 -833 0
-1146 2083 0
-3477 -4425 0
-266 3094 0
-1578 -2030 0
2203 2096 0
1818 779 0
-4051 2531 0
1658 377 0
-2631 -20 0
4397 -2261 0
1377 3431 0
2972 928 0
1295 1988 0
1604 2292 0
-2179 2151 0
2877 -2448 0
4440 -1796 0
-4382 4129 0
-3813 -21 0
-2939 1995 0
3838 -3624 0
2048 2832 0
812 2519 0
2722 -3978 0
-2703 -3606 0
-3398 4560 0
388 -1028 0
2453 4353 0
-3978 -463 0
-17 365 0
-1592 3922 0
-2120 -2405 0
2035 -3437 0
2442 2373 0
344 -447 0
-1032 -434 0
4184 4519 0
1928 -1485 0
1288 -1983 0
801 2088 0
619 -1363 0
2014 3366 0
-2059 1249 0
-4459 2647 0
-1898 -2731 0
1792 -4355 0
2271 424 0
-493 -1657 0
4565 -1052 0
-3765 -2729 0
3134 1198 0
342 -2022 0
3989 -656 0
-1955 1644 0
4436 3786 0
4282 953 0
2015 1334 0
3555 2156 0
-688 -2706 0
-3201 2638 0
2317 -796 0
3177 -3197 0
4184 -94 0
-2432 1781 0
-43 -3436 0
-3987 -2768 0
-1509 -666 0
2345 -625 0
-1041 -445 0
-2892 3011 0
-4512 -182 0
-148 -1785 0
4242 1655 0
-3053 -1684 0
-3374 -3980 0
3842 -4236 0
-152 2544 0
3941 -1947 0
743 -1247 0
-1012 1777 0
-959 -2650 0
-3692 344 0
1853 -115 0
-502 -2519 0
3262 240 0
-4357 2254 0
-1728 -1372 0
4345 1718 0
-3274 639 0
240 628 0
-3015 -1108 0
1283 1902 0
2913 -931 0
-4028 -202 0
2505 -2876 0
-3572 2683 0
-1793 1305 0
1555 -1567 0
3242 -1116 0
-4400 1907 0
171 2063 0
-3155 1913 0
-964 -3911 0
-481 806 0
4286 -4307 0
1624 915 0
1637 3790 0
-4230 4088 0
3166 -910 0
-2879 -1188 0
-4493 -3277 0
-387 -666 0
2963 -4027 0
1452 3055 0
4363 -3015 0
-3992 3347 0
4266 -847 0
23 -2713 0
-2337 2372 0
4040 -3805 0
2493 -1033 0
-1321 -3064 0
1653 -3164 0
-273 2739 0
-1591 -814 0
3195 -4553 0
-1877 -840 0
2795 -941 0
-868 1167 0
3675 -3682 0
-3588 -2235 0
1767 -778 0
-1273 -2813 0
-2410 2098 0
976 -1239 0
-1562 -3140 0
742 3694 0
-2636 -1824 0
4429 1235 0
-4354 -3455 0
-2709 3076 0
-1903 4122 0
-1083 1152 0
-4252 3512 0
-3654 -2706 0
286 -116 0
-2447 -881 0
2772 3268 0
-3470 -3291 0
3512 1751 0
4559 1303 0
-4160 2739 0
-414 1928 0
-119 -3248 0
1421 2973 0
-3425 -4143 0
3426 3065 0
-3058 3186 0
1498 -510 0
3504 -1474 0
4453 4518 0
3612 598 0
-461 3199 0
-744 55 0
4038 -4092 0
3243 -838 0
888 4015 0
2025 -584 0
1795 2860 0
3964 4196 0
3799 -3435 0
4559 1713 0
444 4381 0
2256 -747 0
1858 -3072 0
2540 4225 0
929 3727 0
2484 2691 0
-3969 3983 0
2240 1226 0
2097 710 0
-268 2906 0
1643 3521 0
3210 3289 0
1965 3027 0
-880 -3168 0
189 3947 0
-2215 984 0
527 -489 0
-1070 1277 0
-4047 4072 0
1572 947 0
350 3381 0
-4419 4453 0
1735 4036 0
-2382 3361 0
2511 -1291 0
-3190 -255 0
-4425 1925 0
1486 -3215 0
1960 -3920 0
1251 4408 0
-646 -3819 0
-1345 1221 0
2760 -4120 0
583 1643 0
3217 351 0
1499 2165 0
-712 -1902 0
-4213 -1228 0
600 4526 0
-11 -277 0
926 -2901 0
2546 -4623 0
4445 2563 0
2460 4066 0
2995 -2803 0
847 2396 0
945 -765 0
-1111 -1821 0
525 3537 0
-3274 -3161 0
-852 674 0
4004 599 0
-4231 -2980 0
2242 -642 0
3699 1405 0
-2202 3718 0
1545 -761 0
-1958 1840 0
-2961 -191 0
-445 -188 0
-3139 -3662 0
-3077 -262 0
-3885 3780 0
4281 2088 0
4011 -1533 0
-794 -308 0
370 3983 0
-482 -2042 0
2231 4375 0
3596 1182 0
-345 -3210 0
4151 1774 0
-2278 -652 0
2263 -755 0
38 -4364 0
3671 4284 0
-2384 2063 0
2261 2879 0
2248 1658 0
3938 -1827 0
-4066 -689 0
3748 -335 0
-834 -4138 0
-3575 -3283 0
146 3512 0
3562 3661 0
4066 3763 0
3566 1260 0
3697 4364 0
4084 2682 0
-3342 2857 0
3209 2161 0
2317 -4119 0
1029 -1952 0
-103 -3912 0
-527 -2278 0
-3265 -1768 0
2037 -269 0
177 1718 0
2696 -4070 0
-3179 2912 0
-1873 4248 0
1335 1678 0
3537 -3561 0
493 -4 0
-2155 -4136 0
3376 -832 0
-1517 -1493 0
-2461 3868 0
399 1999 0
-713 2912 0
-1177 -3826 0
-2365 2860 0
-3800 -2944 0
1280 -2248 0
-1215 -2175 0
-3003 -1872 0
3418 -985 0
-1168 1995 0
-300 -2017 0
3930 607 0
1975 -4298 0
-89 4389 0
-1705 -3937 0
593 -1664 0
-1485 513 0
-3248 506 0
3993 -1280 0
2973 91 0
-2384 -4495 0
4413 878 0
2242 3394 0
-4099 -1951 0
-348 -579 0
1634 -3193 0
1212 2135 0
1160 4062 0
361 3441 0
-1708 2489 0
-3181 -3138 0
-2064 -1906 0
-2246 1773 0
1125 -2684 0
-2364 4091 0
-2908 3113 0
2156 -4600 0
2637 -2269 0
1578 168 0
828 -1692 0
-3641 -4453 0
1819 2386 0
-2470 -1442 0
486 2520 0
3746 -555 0
-1255 2800 0
-2646 2847 0
-1640 2274 0
835 2276 0
1693 -337 0
-2341 -4210 0
3263 -3176 0
2941 -2568 0
-1147 -496 0
-1609 854 0
-51 -536 0
-4105 2484 0
886 81 0
1923 782 0
-111 -3737 0
2003 4288 0
3272 -2408 0
-4039 653 0
-3831 -3346 0
-3985 3710 0
-66 4529 0
1919 -1323 0
-1671 554 0
-507 1126 0
4596 3906 0
36 -4337 0
-1213 122 0
2013 3103 0
407 4133 0
3523 -2248 0
1158 -2701 0
4414 324 0
3091 -4593 0
3823 1781 0
-2631 -3865 0
-189 -770 0
4296 -169 0
-4243 844 0
1068 -1718 0
2757 -3752 0
-1739 -2804 0
2784 -3493 0
-3031 -3345 0
4127 1818 0
2668 -3654 0
1075 -4532 0
1130 102 0
-4102 1790 0
-4493 789 0
-3319 -3004 0
2836 -386 0
26 3134 0
1679 -498 0
992 3362 0
-2930 -2023 0
-4107 2177 0
-3866 1257 0
2500 1610 0
3675 -4241 0
3740 2932 0
-3964 -2702 0
2287 2662 0
-3915 1061 0
3163 3409 0
1025 -373 0
2508 -678 0
-1455 -141 0
2464 -2998 0
-4427 3918 0
3540 -3795 0
4600 -3188 0
2138 3085 0
4361 1083 0
-4451 -1342 0
-2422 -4605 0
938 -166 0
1833 -3963 0
4163 2386 0
-1943 2565 0
-3431 -3708 0
-4590 4402 0
2091 494 0
1096 1553 0
-1243 4055 0
4028 -2450 0
2971 2262 0
-4098 -289 0
655 -1737 0
2913 -558 0
-3498 -1975 0
-4119 2860 0
-437 -2041 0
-4427 4338 0
-1821 3833 0
1412 -859 0
-4047 627 0
225 -2804 0
-1579 3392 0
-3039 -1337 0
606 3829 0
-262 3761 0
-4337 2418 0
-2926 -1149 0
4395 -1603 0
-4375 2928 0
-1350 -566 0
3589 3336 0
1881 3733 0
-2040 -1548 0
-2280 1143 0
4269 1289 0
2992 -2714 0
154 -3194 0
-3320 -4625 0
4477 4398 0
-4471 -3553 0
3020 -597 0
-3455 -3670 0
-2823 4377 0
-1323 3888 0
-32 -1226 0
3813 4086 0
-3480 -2417 0
3309 836 0
-3770 3027 0
-158 4371 0
-112 1603 0
1858 3497 0
976 992 0
-1847 1504 0
-1294 -304 0
-4487 1127 0
-1879 -3062 0
-83 -2041 0
4351 2443 0
-4449 2558 0
773 3797 0
560 1318 0
-3238 -1858 0
-2744 -3774 0
2890 -1638 0
773 -2981 0
-1536 4335 0
2197 -557 0
-1508 628 0
2046 2816 0
1151 -4103 0
452 4336 0
-1657 686 0
3113 -622 0
1096 2296 0
-750 4276 0
-2324 -383 0
4283 3668 0
2734 -3048 0
-157 2712 0
-932 3420 0
3529 -177 0
-3045 2863 0
2250 2131 0
563 2386 0
-4457 979 0
-3556 -3948 0
-1465 -2028 0
-3712 1551 0
1729 2335 0
-2549 -2345 0
2536 3965 0
-3844 -3356 0
-481 -1324 0
448 2172 0
1466 97 0
-3453 -3432 0
2209 -3551 0
-4524 245 0
220 -3409 0
1344 -1181 0
2272 -4419 0
-413 -3210 0
-1279 2757 0
-4167 2361 0
2156 -3348 0
-4552 -1425 0
1097 474 0
2003 -1938 0
245 -903 0
-1324 -3285 0
-488 -4325 0
4368 1414 0
-2045 -1486 0
911 -2786 0
-4079 -4125 0
3718 -2165 0
-474 -3274 0
-2483 -4415 0
-47 -2704 0
770 3475 0
-4161 2581 0
-3232 4109 0
2081 -3269 0
-2448 2855 0
-4528 3513 0
1362 129 0
2874 -617 0
-3505 -1373 0
-2083 2332 0
3732 -1732 0
-2498 1164 0
1377 -1274 0
4194 3645 0
3556 -3401 0
3015 -3326 0
-1022 613 0
498 -2424 0
84 -868 0
-1247 -4344 0
-3873 -2618 0
-2003 -3753 0
2838 -2175 0
-384 4303 0
2260 -4179 0
1650 3339 0
695 -1407 0
-3223 1884 0
-668 569 0
-4300 18 0
-1622 3902 0
3202 48 0
-1718 -4151 0
2073 2837 0
-1971 -439 0
-2041 -3844 0
1802 -1529 0
-2705 -2152 0
875 -679 0
189 3479 0
109 -4227 0
-2514 1078 0
-692 3113 0
3536 -2124 0
-1548 525 0
-4310 2388 0
-2999 1048 0
205 -1113 0
-367 -1635 0
3367 -2762 0
3935 -3254 0
3355 4383 0
643 4088 0
2176 -1814 0
-2375 -1670 0
3373 4187 0
544 593 0
-723 -2522 0
-156 -4120 0
-972 -3618 0
2922 3983 0
2735 -1734 0
-2103 3799 0
3965 1044 0
-3464 3606 0
-847 4382 0
-1640 4029 0
1130 4584 0
608 3269 0
-2919 1156 0
-2378 1169 0
3719 -3007 0
-1707 -4317 0
-3670 3485 0
2942 -1696 0
472 -3139 0
-3991 4363 0
4624 2599 0
-4413 -3238 0
3985 2673 0
-2204 4157 0
-1174 99 0
2183 -266 0
-4405 -3911 0
667 -867 0
-4298 -3274 0
-2907 968 0
-2339 -3856 0
2118 -882 0
-2684 -3521 0
-3843 -2264 0
3543 -3604 0
-2150 3904 0
-3323 -3883 0
-2360 323 0
-3374 1970 0
385 -3475 0
-3506 -2654 0
748 -2598 0
-561 670 0
-4082 1127 0
1477 952 0
-866 2441 0
502 113 0
1947 771 0
2588 -1920 0
2647 -1649 0
3212 3279 0
-1298 -3230 0
-727 -4341 0
-1722 -1529 0
-2051 -2909 0
3473 -1121 0
-248 -581 0
-3385 1104 0
2443 2751 0
2085 3489 0
-208 1209 0
1549 -1618 0
-1862 -767 0
412 3619 0
4333 -1689 0
2979 919 0
-1710 -269 0
-1246 433 0
573 -1325 0
-820 -321 0
-3988 -1925 0
-1545 385 0
-1688 1375 0
2799 -3703 0
1119 -3039 0
-4235 4333 0
4217 -1104 0
-153 3998 0
1308 -4062 0
-4494 -4610 0
-1467 -810 0
-1836 3215 0
1619 -2374 0
-2488 -2733 0
-2697 4055 0
-4185 636 0
-1060 -3716 0
-164 4432 0
-408 149 0
2216 -376 0
-1424 4276 0
-1481 3329 0
-4085 1697 0
293 -1371 0
1513 -2382 0
-1512 -3231 0
4318 1585 0
-4511 -3498 0
-1034 2480 0
1505 1802 0
-3609 -1455 0
-284 -2731 0
4134 -2115 0
1458 4141 0
-263 -3349 0
2243 648 0
20 2245 0
-3894 4520 0
3379 1179 0
-766 3256 0
-1074 -174 0
3353 -1925 0
629 -3057 0
1581 -229 0
-2945 -1118 0
-2408 -2490 0
-1798 1475 0
-1256 3889 0
-1473 -1350 0
-408 -785 0
1415 -4363 0
-3695 4042 0
-1073 -3673 0
2044 3688 0
268 3476 0
1448 -2556 0
-3735 3993 0
3576 -3406 0
-3884 3338 0
3746 1694 0
-1757 -3139 0
-1518 4080 0
1492 1245 0
336 2839 0
-1948 -3711 0
1077 -1042 0
1738 3292 0
3042 -3468 0
2932 -1220 0
2660 -2344 0
-210 4060 0
-4081 -1784 0
915 1352 0
-3126 3471 0
-2170 677 0
-1655 -3196 0
4492 546 0
-1223 3407 0
-1089 1602 0
-1697 3387 0
-3776 -697 0
-211 2941 0
-475 -73 0
365 2849 0
205 -4107 0
-2356 2034 0
363 1137 0
-4031 -2891 0
4337 4605 0
-2250 3659 0
-2262 3757 0
-1957 -1249 0
-2957 -4270 0
396 -3615 0
2561 -3662 0
4517 2366 0
-4606 -1302 0
-4460 -3876 0
935 -1831 0
-660 2190 0
-2893 4197 0
-3728 -1353 0
-4360 -3734 0
-4515 827 0
3644 -4160 0
2916 2024 0
2918 2426 0
-2628 3262 0
-2758 -1289 0
-3086 798 0
-2085 -844 0
-3303 -2434 0
-921 1137 0
2364 3172 0
-2907 -4345 0
-333 2914 0
3742 -497 0
-3067 4036 0
1848 -2995 0
-4560 2830 0
-1066 -1664 0
3573 3896 0
-3185 -1869 0
4568 -1632 0
-3601 1757 0
-2890 -3119 0
4520 -1018 0
2044 -2354 0
-3753 -4230 0
3362 4485 0
2992 -116 0
-1950 2050 0
-2016 -1809 0
-2790 -1465 0
-352 3390 0
2906 4575 0
-3401 -1506 0
-3641 3448 0
-141 1993 0
-2539 3422 0
-957 4193 0
302 -923 0
-4244 -747 0
-51 1522 0
-936 4129 0
3863 -3885 0
771 838 0
-4306 -372 0
-163 4161 0
-1511 -3062 0
2456 -2528 0
-2456 -1906 0
2063 4400 0
806 1048 0
83 -3571 0
4305 -3411 0
1370 -1707 0
-1071 -2933 0
-3270 -4591 0
-2141 3577 0
-634 -391 0
677 -3957 0
-853 2614 0
-3034 1485 0
3628 -1358 0
-237 2588 0
1497 -468 0
-1920 -490 0
-574 173 0
-1913 -1737 0
4602 -2338 0
2441 3597 0
-2372 4269 0
-1900 -1876 0
-735 -2218 0
1274 2108 0
3047 2426 0
1328 3921 0
-1607 -1516 0
-338 -1465 0
4626 1631 0
-2207 1157 0
2104 1101 0
514 -1713 0
-1252 -4492 0
-511 2262 0
-3259 -2820 0
1581 723 0
-2503 2138 0
-3925 1562 0
4446 -2004 0
3878 3584 0
3701 137 0
-67 1758 0
3576 3589 0
1583 35 0
-2268 -2622 0
2524 -378 0
3393 -4385 0
3537 -3916 0
-3505 -2932 0
1486 592 0
-1543 4333 0
-4095 4170 0
-2493 -3226 0
3236 3578 0
2784 -4207 0
-4481 -248 0
3679 2977 0
459 2525 0
2716 -947 0
-3045 3896 0
-3243 4524 0
459 -2854 0
-881 -1616 0
-278 -1266 0
308 -3533 0
-3121 -375 0
1905 1868 0
-3074 4404 0
-3611 3011 0
-2956 4626 0
823 -4397 0
3334 4602 0
2903 -4274 0
-1932 2544 0
736 4301 0
1940 -3988 0
-4231 -3085 0
-1150 -3892 0
4571 1542 0
-1032 -3411 0
4225 581 0
-4437 3219 0
821 2565 0
2585 -1433 0
3589 -2565 0
1234 -4313 0
2779 3279 0
-1291 3978 0
6 461 0
3839 -708 0
47 -119 0
-348 -931 0
3258 -426 0
-155 -2545 0
3717 1693 0
-1770 -2662 0
16 -4384 0
3755 -4200 0
3052 -723 0
-1584 -1649 0
-1825 -4329 0
-1181 -261 0
-3267 -4031 0
1818 -2666 0
22 460 0
-1628 3839 0
1790 3468 0
-689 152 0
1857 1971 0
-469 -2960 0
2008 4626 0
-4485 -4624 0
3812 3558 0
1337 3046 0
3936 -950 0
-2373 165 0
1765 -641 0
1332 1908 0
3573 3768 0
-936 151 0
-4426 -90 0
4414 -3078 0
-711 -4416 0
-4556 2203 0
-2654 -2291 0
954 3196 0
-543 -4576 0
2993 -2415 0
-3090 -1426 0
-1905 -1394 0
339 -3225 0
-2984 2370 0
4312 1939 0
3753 -1565 0
-2144 2063 0
3701 3517 0
-3693 -3372 0
4189 -3342 0
915 -662 0
-2674 1376 0
502 -2180 0
3148 -2623 0
1383 -4467 0
4077 -1425 0
242 1818 0
4131 -471 0
-3233 -1286 0
93 -2433 0
-876 -2841 0
-1798 1290 0
1000 4007 0
-3469 -4521 0
-3711 3906 0
3891 2068 0
-1548 -2588 0
-2487 2367 0
660 1495 0
-2946 3922 0
-499 -193 0
-1122 -487 0
-4494 747 0
-4413 199 0
3653 -2530 0
-1466 -2194 0
787 1094 0
1234 -1672 0
-2449 -3254 0
1468 -1518 0
-2395 38 0
1515 -1169 0
933 4473 0
-2494 2019 0
2553 220 0
-3739 396 0
-665 -606 0
1060 4402 0
567 3175 0
-2858 -4383 0
-4615 -4393 0
-3523 -1368 0
-1944 97 0
-67 2459 0
3906 3524 0
3743 505 0
-3434 -3308 0
-1514 2089 0
-2331 -2440 0
1249 3292 0
1519 2237 0
-3131 -1535 0
3278 -1726 0
2353 -4220 0
-3677 -3991 0
4318 -1333 0
-442 -2418 0
1113 1756 0
-121 -4200 0
2025 -2462 0
297 4285 0
2572 2722 0
2656 1195 0
3492 780 0
-3988 1389 0
-1889 -1091 0
2926 2937 0
-4427 2488 0
2370 95 0
-3598 -424 0
-1480 -2530 0
4532 -1748 0
2924 1612 0
-2465 -1574 0
2199 2658 0
3390 1283 0
-1422 1711 0
-4230 -3583 0
336 -4320 0
-1830 4462 0
-790 -674 0
-3205 -612 0
1106 -1774 0
2402 952 0
2955 -3990 0
599 -3204 0
-3079 -1441 0
-4291 1073 0
-2709 2127 0
-3860 1469 0
623 4176 0
1137 -2588 0
-3368 1929 0
2856 4222 0
-2571 -423 0
2471 -1856 0
806 -1199 0
-3880 1913 0
2296 -4010 0
-3784 -2922 0
793 3984 0
-1344 4414 0
-126 4238 0
-777 4377 0
2757 -143 0
3196 3570 0
-3772 -3559 0
2191 2902 0
3372 2070 0
3507 -3008 0
-4197 3450 0
3107 2481 0
-391 1927 0
-163 762 0
-1907 3519 0
-3244 -2157 0
-1897 -1168 0
-3592 -4595 0
431 196 0
3607 1911 0
263 -2081 0
952 4454 0
681 2566 0
-995 -229 0
-3978 975 0
-3699 -2560 0
4248 3822 0
3108 -2513 0
-2189 -3580 0
3596 -3208 0
-1237 -3415 0
1273 -2341 0
-1350 4128 0
-1874 -596 0
1219 -923 0
3148 1174 0
4557 -397 0
-1215 1787 0
2214 3324 0
-4434 -3437 0
-1153 -638 0
-2179 -144 0
-1362 1353 0
-685 -3697 0
-3693 -3505 0
-4286 2765 0
3524 1087 0
-2196 -3761 0
-265 3442 0
4239 3339 0
-3487 -2571 0
613 -3408 0
-2055 -806 0
172 -3598 0
-4490 -3287 0
3790 -4581 0
-1885 2134 0
-2121 -466 0
-1013 885 0
-929 3803 0
-4325 -2222 0
-3567 1834 0
2711 -654 0
-1252 1250 0
4217 1072 0
-1147 -2815 0
917 3035 0
-2879 31 0
2271 -444 0
2618 -1163 0
3214 -4499 0
3557 173 0
2825 2870 0
2058 -3397 0
-3208 1987 0
-4260 3737 0
-3246 1824 0
1864 -1416 0
-4452 3042 0
-4065 -3817 0
1874 3685 0
4403 -2689 0
-1285 1931 0
1183 -4183 0
-1824 -852 0
-649 -2781 0
3543 -3810 0
534 -3910 0
282 -3188 0
300 4093 0
-1512 -3678 0
-3379 -3527 0
-4621 -1889 0
-3951 4500 0
1254 -4319 0
4176 -4455 0
-4162 1119 0
2072 -949 0
742 527 0
-4570 680 0
-3346 -3570 0
-2584 2566 0
-2884 3701 0
1486 -1306 0
-3104 2859 0
-1957 -3675 0
2075 -1868 0
-2843 4408 0
-2214 -4581 0
-1842 -1493 0
-3364 -973 0
1177 -788 0
1061 3052 0
-2296 4164 0
1057 3970 0
2636 -3354 0
1028 1083 0
1190 1851 0
-950 -2723 0
459 3272 0
-4613 -1618 0
-3561 4020 0
1774 359 0
-821 3364 0
-1471 -3800 0
3258 -4501 0
3121 -1067 0
-3257 -3346 0
-928 1353 0
3950 -2433 0
3890 -833 0
-4451 -436 0
1358 -2436 0
-3201 694 0
3229 1007 0
3184 -1213 0
-2060 3021 0
4111 2673 0
-1810 2633 0
-4372 564 0
4214 -921 0
-49 2511 0
-3644 -2018 0
-2306 -2374 0
-4093 2928 0
-622 2902 0
3070 -2064 0
-299 3109 0
-775 -2002 0
-2846 -1606 0
695 2345 0
-2467 2192 0
-1640 -1759 0
2617 4011 0
1114 3595 0
3953 64 0
-4471 2202 0
2420 -1220 0
849 -4445 0
-153 -174 0
3628 -3119 0
-1076 1274 0
672 -2905 0
4117 4509 0
3300 657 0
-3222 -1728 0
2495 -745 0
-304 -551 0
-2297 297 0
-2003 4327 0
1524 3564 0
-228 3294 0
-3001 4009 0
2635 -1158 0
-3973 4068 0
459 -360 0
-2631 871 0
3037 3923 0
-2862 479 0
-2799 -3203 0
-349 4584 0
2687 -3231 0
339 2479 0
533 -4534 0
-852 -1245 0
3241 -1671 0
-2169 3480 0
679 3577 0
356 716 0
-1937 -1214 0
-469 -3510 0
729 -1277 0
232 1715 0
2981 -2727 0
-3023 -4149 0
406 2388 0
-1305 -2050 0
763 3882 0
-872 4565 0
-4343 -4242 0
-4532 -1752 0
4296 1313 0
-1017 3179 0
-442 4518 0
1176 -2140 0
-1301 -2762 0
1869 -2917 0
-3539 1417 0
3538 1232 0
-3534 -4213 0
-4040 -4540 0
-4423 -1513 0
536 -2571 0
-2118 3378 0
927 1518 0
-1117 4001 0
3682 -3106 0
-3181 -440 0
4380 2459 0
-3865 -4186 0
-3816 -4350 0
4410 2517 0
4155 -4270 0
-757 1383 0
-3103 369 0
-4107 3915 0
-1994 -1031 0
-59 -3712 0
1326 4596 0
-3005 -4067 0
-4359 3302 0
4194 -1540 0
-3836 -3892 0
1855 -1772 0
-3412 3778 0
1912 2407 0
-2307 3443 0
-2762 875 0
1791 -3361 0
-3383 1161 0
4252 155 0
1141 4014 0
-4621 3094 0
3846 -4415 0
4245 2771 0
3099 -1856 0
-3944 -3197 0
-568 -947 0
1274 3289 0
2026 3400 0
2248 -18 0
-2732 2748 0
175 -3874 0
-880 25 0
4496 -4026 0
-3518 -1423 0
-1228 -4454 0
560 1617 0
-932 2403 0
-2433 1982 0
2367 2950 0
891 -4533 0
2243 1129 0
-1279 442 0
-1490 -3764 0
3383 3857 0
-3484 1702 0
1903 -1074 0
-2651 903 0
2374 -3742 0
-479 2407 0
-1309 -1394 0
2005 4060 0
4318 -1107 0
806 -1820 0
-2160 3767 0
2258 4628 0
2231 3835 0
3767 -191 0
2919 4563 0
2825 -1945 0
-1736 2292 0
4035 3572 0
-2581 -561 0
-886 3458 0
-324 3579 0
2477 3818 0
3376 -2135 0
3488 4248 0
4549 1403 0
-2630 -737 0
-4502 -497 0
-3348 -2510 0
2609 2481 0
3888 -2760 0
1091 2005 0
-563 1526 0
-1178 272 0
1645 -2498 0
-3850 -3075 0
806 3261 0
-3306 3820 0
549 119 0
861 -54 0
3620 -2341 0
-2380 2395 0
-1244 -1663 0
2268 -4293 0
4488 743 0
1351 2363 0
-721 3773 0
1546 -790 0
1552 1549 0
-3456 2351 0
1562 -3789 0
3687 2874 0
2548 -1092 0
1808 -2310 0
2971 4219 0
695 -1596 0
-1551 1703 0
3636 1329 0
3879 3689 0
2218 3202 0
1065 -1150 0
3011 1240 0
856 3316 0
-1830 -761 0
4039 296 0
1935 -1513 0
-2648 -324 0
-2055 -759 0
-1754 3742 0
4194 -2368 0
-2626 -2154 0
2225 -433 0
-592 4064 0
-3705 -4390 0
-420 -4265 0
-1518 1458 0
-1526 -2891 0
1959 28 0
-2365 2325 0
-3609 -3449 0
-4381 -4095 0
2 3766 0
2555 2343 0
-3643 -2874 0
1190 -657 0
3332 -3318 0
1530 -1338 0
-310 1105 0
-2443 -1292 0
1388 -2387 0
-3066 2827 0
1137 186 0
3266 -3868 0
-1315 3149 0
-50 -1806 0
3138 575 0
-3316 -2669 0
-1441 -3995 0
-623 3722 0
2268 -2630 0
-1737 -590 0
-868 -1635 0
3922 -1001 0
4508 3563 0
1326 -3243 0
2848 4471 0
-8 -2679 0
-866 1791 0
3617 -4258 0
-2653 -2257 0
-2764 2474 0
2214 3056 0
-3164 4335 0
5 -2372 0
1436 -1091 0
-1222 464 0
2549 264 0
-1862 1429 0
2636 1987 0
2739 -3218 0
-4075 3480 0
918 1183 0
4184 -1423 0
3198 -3085 0
2292 1684 0
2673 1069 0
4284 -2439 0
3478 -1057 0
-3136 -4027 0
1152 712 0
4411 -1894 0
-3354 2942 0
-3498 3759 0
724 3822 0
1053 -2133 0
-836 995 0
920 -3151 0
-851 -2798 0
3678 4092 0
-823 1306 0
-4158 221 0
-2190 -2408 0
-2868 -4130 0
-4503 1410 0
808 -232 0
367 129 0
2424 -3954 0
74 -1530 0
-386 -1063 0
1848 -2604 0
-4247 955 0
2552 -3015 0
-2865 4329 0
2941 -1279 0
-476 2856 0
-808 2965 0
-354 2472 0
3497 -2725 0
-1338 3646 0
-1023 470 0
967 -3146 0
599 1991 0
2186 3772 0
-471 933 0
-3947 1834 0
2575 3372 0
3340 355 0
-1221 -1672 0
1515 3572 0
-4485 -1425 0
1787 3966 0
1867 4572 0
2293 -4354 0
-3598 -4398 0
-741 -3732 0
-1755 773 0
-3602 -3590 0
-2431 -4367 0
-2190 -3713 0
-3218 4118 0
4037 2144 0
-2066 -1081 0
-907 -1130 0
934 1609 0
1353 -3840 0
-1444 -4411 0
3640 -547 0
1787 92 0
-61 -3960 0
-539 -561 0
2363 2511 0
-3196 1704 0
-2338 303 0
4496 -2268 0
-200 3324 0
560 -2569 0
2079 442 0
2726 2227 0
3162 292 0
-4275 -71 0
4588 3051 0
-3703 -2446 0
-887 1799 0
4179 678 0
4434 -88 0
2351 2895 0
-2331 -4405 0
4416 -4128 0
1318 1839 0
4498 3388 0
727 115 0
2414 -2858 0
2635 1915 0
3931 185 0
1320 668 0
-1307 -3478 0
29 -2754 0
-3399 3956 0
-2125 2520 0
1278 1578 0
-2394 249 0
-2708 3858 0
-3658 2950 0
-2074 -150 0
1006 -205 0
827 3579 0
-1531 -4224 0
4333 -105 0
-804 -1761 0
3955 1429 0
-145 4036 0
1098 -4134 0
-1280 1770 0
-524 -2074 0
961 -3500 0
-899 3027 0
3547 -3336 0
2136 -765 0
3017 -3892 0
2966 -4373 0
3501 -3293 0
-1346 -2745 0
-320 2607 0
-1022 -1685 0
1437 -1502 0
592 -2359 0
4427 4603 0
-2257 -1155 0
409 806 0
4530 -3610 0
3145 3973 0
1863 -211 0
-3204 -3558 0
-680 866 0
1008 -1201 0
-744 2247 0
4054 254 0
-3941 4330 0
-83 3830 0
-2381 -2129 0
-2304 314 0
-3146 -4418 0
-4190 -444 0
1622 -4125 0
-3681 1833 0
2934 -517 0
-4174 -3870 0
-191 -2627 0
3033 162 0
3652 -3783 0
-1083 727 0
1034 -1031 0
1879 -450 0
1454 3972 0
-3680 1417 0
293 1693 0
2813 -4396 0
-1965 -2439 0
4540 2967 0
336 4502 0
-1720 -1476 0
-2551 -1586 0
3352 3479 0
1166 1296 0
3662 -1117 0
2749 -3738 0
3754 -2522 0
-1297 -8 0
1604 199 0
2070 295 0
2346 4457 0
-1589 2115 0
-241 1377 0
3545 -3927 0
4546 -187 0
-994 -2984 0
-2429 416 0
-647 2696 0
-2713 -1482 0
-4076 -3151 0
-3738 -3683 0
3773 -1392 0
-3875 3227 0
2949 3509 0
3046 -3232 0
-569 -2987 0
-1759 1288 0
2252 4518 0
-2914 -1137 0
4363 1147 0
-1898 421 0
-817 -737 0
-2794 -3332 0
-3745 -2869 0
3164 -4026 0
1915 1166 0
1210 401 0
3496 -1716 0
-3234 105 0
-4335 725 0
-1716 4330 0
2460 4234 0
-2681 -1229 0
-3436 -730 0
-2418 1118 0
4406 -582 0
2729 2043 0
3833 -809 0
3600 3292 0
3158 -4426 0
-987 -3908 0
4586 3999 0
3202 3625 0
-823 -3720 0
-1817 -1339 0
2934 3678 0
-2370 2585 0
-3129 -1289 0
992 2284 0
1696 -222 0
1101 -136 0
-4196 -951 0
1603 -2568 0
4154 -2862 0
3172 145 0
4503 -72 0
-894 -3597 0
4018 3788 0
2245 3107 0
784 3850 0
1743 -2200 0
2911 -4247 0
1763 -2857 0
243 130 0
-3488 2338 0
-3003 4288 0
-3650 -147 0
-280 4110 0
2620 2906 0
-1618 -106 0
-3658 -1094 0
1627 -3049 0
-2953 4146 0
-4385 4154 0
-4024 1680 0
189 -951 0
1287 -4427 0
603 -1042 0
3305 2819 0
-926 -4089 0
-2704 845 0
-3025 -4401 0
1893 -2477 0
1729 1356 0
3388 3282 0
1779 -770 0
519 -1800 0
3164 1573 0
-623 -2218 0
-2354 -2074 0
-4051 2468 0
-2335 1283 0
1762 4438 0
-854 -1582 0
-1888 -2925 0
1520 2354 0
-4459 2205 0
2222 2225 0
2668 2316 0
1991 3651 0
-3323 1145 0
724 4631 0
-3322 2521 0
-770 -4133 0
-2423 -331 0
-2648 1479 0
3438 1275 0
-613 -187 0
-4016 281 0
2064 915 0
527 2391 0
70 1803 0
980 -1331 0
2228 2592 0
1983 -1112 0
128 -3556 0
-1442 -2717 0
822 -4203 0
-996 -1730 0
2652 1123 0
112 4500 0
3311 410 0
3185 882 0
2352 -4002 0
1159 -3062 0
1990 -1871 0
3864 2836 0
2396 3148 0
-1228 -4422 0
-4470 646 0
-2539 -4390 0
2124 2328 0
2913 1432 0
3281 -1113 0
-3680 -1982 0
-3418 -3577 0
483 -4381 0
-814 -2875 0
-300 2808 0
1858 1194 0
-1537 641 0
4083 3306 0
4375 -1811 0
-120 -3755 0
3937 -4459 0
-2907 699 0
1631 2883 0
-1383 388 0
3477 330 0
505 -977 0
-3640 3445 0
-1314 -2827 0
-1955 -3830 0
1518 -2392 0
4161 2055 0
-2731 2024 0
4563 2584 0
3257 2529 0
2327 -3596 0
-4505 1332 0
2885 -2392 0
-156 4424 0
2570 -2710 0
1627 2175 0
3186 -1652 0
-4138 -3401 0
2271 -3965 0
2857 2744 0
4322 1616 0
196 1179 0
-2744 -777 0
-1274 2355 0
3284 -3795 0
-4485 -1057 0
-2689 -1049 0
1697 -2378 0
-2139 789 0
3686 -3640 0
1293 -4516 0
-564 3216 0
-4202 1027 0
-423 -2774 0
3421 -2392 0
-29 2035 0
-3328 -2602 0
3382 3549 0
31 2272 0
2744 4432 0
907 914 0
4221 2482 0
1261 2091 0
-3838 -4397 0
569 -3781 0
2501 446 0
-332 -1367 0
846 -2195 0
1044 -2069 0
1602 -520 0
-1584 -1851 0
173 101 0
3209 -3386 0
641 -946 0
4304 4078 0
4206 2823 0
3715 -2811 0
-2793 -562 0
1854 369 0
1165 -1589 0
-3588 1182 0
1687 -422 0
1808 2613 0
-1772 -732 0
1778 -3663 0
-2730 -678 0
-911 1733 0
-2286 4121 0
4217 -1350 0
4432 391 0
694 1551 0
-1609 -549 0
2390 -1172 0
37 2210 0
-3851 -1523 0
-984 -1677 0
-1075 1327 0
-4316 2825 0
-322 3461 0
-4468 479 0
-1689 1196 0
-2241 -1581 0
150 2720 0
1562 677 0
-902 1392 0
1370 3621 0
-3304 -1372 0
-530 -3673 0
94 -2653 0
2613 1519 0
-794 -2018 0
987 -4513 0
3129 -1950 0
-2629 3671 0
-3014 2040 0
-2770 245 0
3448 2817 0
-4531 2306 0
-3694 -4051 0
-2848 2309 0
-3839 4437 0
1286 -2194 0
-4022 2751 0
1818 2969 0
-3919 -4541 0
-1056 1863 0
2428 -1968 0
-2614 826 0
-937 -3904 0
3477 137 0
-2854 -864 0
1654 -1743 0
-2806 2556 0
891 -376 0
4563 4062 0
-3681 -3475 0
-216 -3583 0
-3770 -1776 0
2816 3969 0
-2700 548 0
-2318 2635 0
-687 458 0
3451 -2194 0
-713 -2999 0
-2259 -2044 0
-1264 -28 0
-1480 1058 0
-3373 4321 0
1996 486 0
2503 4347 0
2723 -729 0
2616 -1900 0
1940 1898 0
2620 2847 0
4081 3827 0
-533 3965 0
2062 1229 0
714 -3992 0
-906 -2490 0
-798 3561 0
-3933 -1416 0
3778 887 0
2707 -2606 0
2553 2039 0
-3155 2322 0
-2493 -3059 0
3806 4134 0
2593 -610 0
134 -498 0
-3497 4080 0
-4531 1904 0
1958 1556 0
3928 -1729 0
3506 3301 0
-1362 1987 0
-2931 4433 0
2398 -3670 0
-237 -4356 0
-3016 3827 0
-1154 -2681 0
-3795 2968 0
-4051 -4055 0
3512 2964 0
-2759 -347 0
2554 -2151 0
-788 -1455 0
808 -3464 0
-3936 556 0
3595 4529 0
2023 -1931 0
2297 4509 0
-3764 -4467 0
3286 -1027 0
-2499 599 0
1027 -3218 0
-912 -1632 0
4086 173 0
-3260 3200 0
-401 -1599 0
3432 -4542 0
2538 -4137 0
680 407 0
-2494 2701 0
4235 -1795 0
-2722 -4038 0
1378 -141 0
3112 2505 0
1969 3828 0
624 -2807 0
-176 -4140 0
-2933 661 0
-2730 983 0
-165 3029 0
689 3085 0
3767 -656 0
3015 -3071 0
-770 4049 0
435 -3612 0
-3229 -4472 0
-2098 1761 0
-1476 -3434 0
-1376 -2002 0
1680 -4576 0
967 1234 0
-178 -1248 0
-2858 -337 0
3005 -1996 0
-213 970 0
1483 -3841 0
-141 -3746 0
-3288 -1094 0
-2427 -467 0
3193 -195 0
3226 -3999 0
436 -1505 0
3492 3966 0
-237 1767 0
-500 2660 0
4369 -4046 0
2218 129 0
-4493 -2621 0
-801 1908 0
4007 2839 0
2431 -3897 0
2757 -3006 0
-3860 -1871 0
-2411 -3506 0
2042 3317 0
-3853 4245 0
624 -1134 0
-1134 1673 0
2731 779 0
-4040 -224 0
-3053 3178 0
3033 -346 0
2811 3748 0
2993 4358 0
-604 467 0
-1433 -516 0
392 -2598 0
-854 1759 0
-3061 -601 0
2789 1759 0
-2784 -1371 0
476 1366 0
-3823 1718 0
-1382 -1580 0
900 3233 0
3311 745 0
-3693 3579 0
-2173 897 0
-555 2836 0
-115 -3751 0
-3596 -884 0
-2759 -2644 0
-33 568 0
16 -967 0
-1579 3502 0
-514 683 0
-2801 2777 0
-2078 -2557 0
-1424 830 0
779 416 0
-421 3376 0
-97 -68 0
1782 3152 0
-1606 -1139 0
-4449 648 0
-4306 1864 0
4358 -70 0
735 -2924 0
943 -2179 0
2738 -3535 0
-4439 1268 0
-2336 -2202 0
-1072 -1579 0
1204 -4599 0
-2168 -1030 0
-4476 -4369 0
-967 3626 0
629 3074 0
-1827 -3706 0
-2796 768 0
4244 -4286 0
-3291 -4213 0
1914 -824 0
-2084 3677 0
-3598 -1767 0
1922 988 0
-3960 752 0
4396 1803 0
-3534 937 0
-3171 1122 0
1047 -564 0
4314 1083 0
-4488 -2056 0
3522 459 0
479 -271 0
-2399 -1103 0
-4069 2728 0
4248 -2948 0
-2093 -2753 0
-1321 -3575 0
628 -2595 0
-2744 393 0
2205 3655 0
3723 -1686 0
2932 -1884 0
-696 -2467 0
3511 2280 0
2883 -1435 0
-3001 520 0
-913 -1597 0
-680 172 0
2490 4170 0
-3015 -1451 0
2272 3732 0
-1268 -976 0
2121 3628 0
3258 -873 0
3646 1744 0
-2886 -1433 0
-1388 161 0
73 -4417 0
-1008 -1052 0
1029 -1253 0
-2502 -3151 0
-249 4093 0
1715 3243 0
3343 -3237 0
1789 -448 0
1753 -268 0
-1025 649 0
-1762 -3357 0
-3345 -723 0
-2514 2919 0
-407 1393 0
1861 -4426 0
3266 2325 0
3473 114 0
-3554 895 0
1138 3685 0
3568 -9 0
-155 -3582 0
-4546 3463 0
-2029 -2017 0
2291 417 0
219 -2920 0
-2500 2225 0
940 -2876 0
-3407 3889 0
2249 -1956 0
1057 1510 0
-1777 -487 0
-916 -4445 0
3286 -2121 0
-1629 -4368 0
-3598 -3290 0
-1132 -2714 0
-3619 -4449 0
-3671 1044 0
2082 -3761 0
462 4057 0
4384 -2753 0
897 -2169 0
1848 3644 0
963 -2704 0
-4035 3700 0
851 3528 0
-1104 -3412 0
-910 904 0
4212 822 0
-348 -2887 0
2127 2321 0
2359 -1909 0
145 -598 0
1767 2892 0
-1469 1501 0
1220 -4373 0
-3346 1474 0
-1135 3595 0
3150 -1537 0
-1125 -2647 0
-232 -2803 0
-2439 2999 0
4239 3706 0
-198 2910 0
-1426 514 0
1823 -1339 0
4486 1060 0
2258 3643 0
2957 184 0
-3937 -1135 0
3489 2547 0
-2365 3790 0
-1017 3032 0
-4411 1871 0
-2884 -4291 0
2833 796 0
2133 -2017 0
-3706 3772 0
-519 -2180 0
-3582 4331 0
-2293 223 0
-2427 -1217 0
969 3741 0
3501 -181 0
3668 1902 0
1899 -4206 0
-2578 -3602 0
4017 1728 0
2106 3918 0
-3925 -1651 0
1543 -2946 0
-2722 3149 0
4087 -4365 0
-2347 -1897 0
1574 -4048 0
3861 -208 0
1958 -4118 0
-2734 570 0
-3201 1599 0
2245 4258 0
-2448 -2329 0
2735 3057 0
3524 -1306 0
-3573 -675 0
189 -1911 0
-4366 719 0
2424 -2212 0
-964 -1339 0
-2980 -2051 0
-1654 -3287 0
1133 1075 0
-1806 4572 0
-2681 1230 0
-1350 3689 0
-4130 1929 0
585 -3011 0
2632 -2007 0
-3375 2473 0
3160 -1514 0
-3755 -2820 0
1483 -3503 0
4146 -4073 0
3565 3018 0
-2207 1615 0
-2099 -4598 0
-4088 -3059 0
-1129 3431 0
-3872 -2750 0
-1184 -2850 0
3804 -2694 0
-1652 -3940 0
-468 473 0
-2017 -3675 0
3851 4070 0
4176 3263 0
2781 3617 0
-1925 1253 0
3848 -4023 0
-28 -4566 0
472 -4350 0
3974 -1605 0
-3890 -3272 0
2655 2454 0
2488 -3157 0
-1859 1462 0
105 3970 0
4054 -2529 0
459 747 0
-177 4152 0
-4122 3797 0
3340 63 0
1125 -4328 0
-1167 -4 0
-2382 2 0
3906 2993 0
-1878 1460 0
2312 995 0
1965 -4319 0
-982 -1555 0
-4416 2 0
-4296 -897 0
1158 1558 0
185 2274 0
-1289 -3333 0
-1246 2028 0
-1074 4481 0
-680 778 0
3394 1137 0
1134 -1567 0
4406 -1914 0
-1521 758 0
4025 -226 0
-1286 1988 0
717 -3535 0
3393 -238 0
-4617 -2157 0
2099 814 0
-2205 4514 0
-667 -3247 0
288 -413 0
-252 -2541 0
1137 2581 0
1127 2745 0
1545 4384 0
-2954 1038 0
4274 -4029 0
-4020 -1609 0
903 -3335 0
2238 -4316 0
-2498 -3526 0
-2515 -441 0
-778 4154 0
-2670 1453 0
1782 325 0
-4262 369 0
-3905 -3801 0
-2755 2993 0
-1074 -3718 0
4600 2873 0
1913 1702 0
836 -833 0
2097 3425 0
-2653 -3145 0
3252 -1438 0
-1092 -800 0
3107 505 0
3167 1267 0
-12 4386 0
-642 -2340 0
-2744 -255 0
2245 1373 0
263 1310 0
-2431 475 0
753 -4600 0
-2640 -157 0
35 2029 0
-336 -200 0
-187 3489 0
-50 2687 0
4513 -4211 0
-4411 4138 0
2376 960 0
3069 -1386 0
4062 3651 0
-864 1393 0
-1321 -1336 0
4129 342 0
-3953 -2436 0
-4202 2393 0
3089 -2617 0
4071 -1584 0
2564 -765 0
4437 -3923 0
682 -2788 0
-3540 -3818 0
4177 -773 0
3786 -2953 0
-524 223 0
-4516 -2989 0
1999 2557 0
1106 1687 0
3168 -3144 0
1918 1750 0
3075 -70 0
-4362 -2853 0
-2905 -1478 0
-145 3913 0
1035 -3297 0
-967 784 0
-20 630 0
-3867 -1847 0
493 -3950 0
1458 4297 0
2507 2343 0
908 -932 0
-3226 1109 0
2548 4600 0
2462 -1829 0
4544 380 0
1700 -319 0
-454 -1804 0
-3526 -1261 0
3988 -3583 0
4178 4101 0
3391 589 0
3789 -3513 0
-773 -4608 0
3323 -965 0
-3506 -1063 0
2812 -1730 0
-2235 -257 0
3451 -1056 0
1915 551 0
-3742 -3553 0
2807 2505 0
-2962 -387 0
-3059 746 0
-732 1555 0
-1972 -3662 0
-3118 1288 0
-75 -3189 0
-1725 4023 0
752 -1978 0
-3606 -1419 0
-796 783 0
3475 1219 0
-4137 2826 0
-1175 731 0
2179 2536 0
4629 -2005 0
3319 427 0
-1111 -1846 0
-3296 4605 0
-3908 -2632 0
-291 -1738 0
552 4388 0
-2412 4304 0
584 -2196 0
607 4098 0
-3119 -2863 0
1847 1789 0
-2265 -4240 0
1990 -3170 0
2454 2332 0
4565 -1412 0
-1264 -3778 0
-1830 -1225 0
1754 4041 0
4335 1174 0
2592 -3449 0
-546 -2940 0
-4367 -1090 0
-3415 2485 0
3035 -36 0
260 4092 0
203 -1806 0
-718 4068 0
-879 3260 0
59 -1913 0
2154 -3558 0
2529 2525 0
-3617 -88 0
4062 -2326 0
-305 -2251 0
-1964 -925 0
-1481 193 0
874 -3768 0
-1281 3118 0
599 853 0
1348 -1754 0
3649 -346 0
-4342 768 0
-2993 -1128 0
3159 2576 0
3125 -3649 0
-3842 -1898 0
-1019 1668 0
15 3858 0
2350 -1239 0
150 2534 0
1589 -2959 0
-4581 1877 0
1255 677 0
4068 512 0
-3935 141 0
-1045 -2773 0
-939 -4243 0
-1419 2652 0
826 3883 0
-559 -908 0
4542 -3716 0
2366 -1646 0
1893 3921 0
-2342 219 0
-3237 -1243 0
-2579 -168 0
-3696 -730 0
3835 2322 0
-710 351 0
-232 795 0
-2340 2199 0
2350 -3917 0
-1751 4095 0
-3382 -2124 0
-3725 -4545 0
-2047 1693 0
-19 -778 0
-114 350 0
-2107 2554 0
-1042 -4310 0
-2604 1685 0
2419 3263 0
1132 339 0
627 1233 0
-2849 3650 0
-4482 -2851 0
-3612 1729 0
-4020 -2910 0
4329 1387 0
-3257 204 0
4441 2368 0
2877 -2669 0
2489 -2748 0
-1269 306 0
-1300 -697 0
-3547 -4467 0
-19 -4321 0
-4294 -2679 0
-3623 1520 0
4495 -566 0
-1254 4603 0
-2465 -2124 0
-1381 -487 0
2898 521 0
1461 -1800 0
-4285 -235 0
1526 -2352 0
-3462 1358 0
-1753 -1625 0
-1268 -2340 0
-574 -492 0
-2025 76 0
-1026 -3917 0
-4600 1356 0
429 -2457 0
4383 4153 0
-1269 -2178 0
-3872 979 0
1502 -461 0
-3669 3242 0
1488 -4343 0
1730 -2401 0
4563 295 0
3103 -4247 0
-4300 -2639 0
2315 -4132 0
3569 -1382 0
284 -3659 0
727 -474 0
-3444 2043 0
3263 -1032 0
-4328 4507 0
3776 -2273 0
3631 2285 0
-4067 2913 0
729 9 0
779 1533 0
3827 1805 0
-3134 -3507 0
2153 4084 0
-3207 -4530 0
187 -431 0
-1702 -4311 0
1196 338 0
-995 -756 0
2715 3058 0
-520 -4322 0
-982 -2721 0
1407 2974 0
-800 462 0
-834 -2081 0
-2272 1193 0
572 4487 0
4392 2240 0
1456 -63 0
1070 1612 0
3816 2608 0
1120 -2293 0
863 4080 0
3684 2743 0
2815 -2653 0
-671 1422 0
1216 -890 0
2283 -2335 0
1443 498 0
1800 -3681 0
2163 -4299 0
-3895 -667 0
-2958 -1142 0
283 504 0
-4212 3431 0
2605 -2682 0
3145 -2395 0
1083 1909 0
-2934 4281 0
756 1173 0
1514 -1475 0
-1089 3219 0
752 -1770 0
4371 -1949 0
-2759 2101 0
579 317 0
4158 1295 0
2615 474 0
852 -597 0
2318 1166 0
2367 1527 0
35 -4592 0
3404 -4293 0
2536 4205 0
-4061 -3745 0
2812 2675 0
-445 3636 0
2720 -559 0
2187 -554 0
-1786 3789 0
4211 -4385 0
-3774 -1708 0
64 2275 0
2904 -3170 0
335 -3362 0
62 -762 0
1454 -4192 0
-3863 -375 0
80 -1810 0
1055 1516 0
1055 -1342 0
-2621 839 0
-2808 2060 0
-3165 2687 0
1543 -3556 0
4258 1039 0
-2126 -2637 0
-2141 -4408 0
-4577 846 0
-179 2603 0
118 -1843 0
-1762 556 0
-4378 1477 0
2676 4527 0
3993 -4232 0
3021 -553 0
-3603 -2804 0
3632 -2483 0
830 -4316 0
892 1709 0
-162 -2818 0
-2958 -469 0
-3044 -1071 0
-1747 -235 0
-2579 918 0
3473 -2212 0
2919 -4031 0
-750 4473 0
3020 3756 0
3934 -3161 0
791 -2109 0
-4592 -2515 0
1864 -3871 0
2263 152 0
4005 -2348 0
2882 -3747 0
3175 2116 0
-2101 -4132 0
-1925 -2181 0
-493 1159 0
4188 1391 0
-3505 -3006 0
1251 -3674 0
3493 -4463 0
-2085 2545 0
-3966 3212 0
2073 3936 0
3826 -1026 0
3816 -1202 0
-1857 185 0
-2662 2113 0
4515 585 0
792 -374 0
252 1507 0
1451 -859 0
381 2417 0
-1832 -146 0
-1492 4440 0
3233 -1620 0
2447 -1987 0
3944 3713 0
1589 1006 0
-3225 -2683 0
-750 -82 0
-3725 -3736 0
-3294 -1337 0
-2386 -2145 0
-1580 1496 0
-2745 -696 0
-1859 1272 0
1570 2885 0
-2959 1545 0
2717 -3377 0
-3511 -163 0
2700 3420 0
-3135 -1057 0
-2467 -446 0
2637 -4610 0
466 -3838 0
432 -4098 0
-2951 -1215 0
-1564 -2650 0
1172 2192 0
2880 131 0
-2684 -2837 0
622 2144 0
317 -2103 0
-4180 -3207 0
-1777 -4096 0
-3236 -977 0
-2207 2926 0
-1194 -4221 0
-592 2970 0
1030 -3512 0
-22 -1014 0
-1100 49 0
3370 -2401 0
941 3160 0
-1521 1037 0
-3523 -2834 0
418 1864 0
-2439 586 0
674 1557 0
2438 4616 0
1600 -680 0
4553 -3906 0
-982 155 0
-4341 -3956 0
-1345 -3981 0
474 -2994 0
211 3423 0
-3011 361 0
-2776 4394 0
627 -4398 0
-1717 -4181 0
338 3433 0
3526 2516 0
3827 -2544 0
-387 -863 0
-2868 -585 0
4131 -4192 0
2435 1715 0
3475 -2486 0
-500 -4127 0
597 -3936 0
2203 -708 0
-43 -1353 0
-202 -2311 0
-3176 1828 0
-3800 -3583 0
4148 2972 0
-1930 -3516 0
3423 -32 0
2263 -395 0
-4415 878 0
-3573 -719 0
2576 3342 0
4135 -3743 0
3644 1950 0
880 -2613 0
2844 -1084 0
-878 -103 0
1577 2388 0
-553 -2748 0
-2841 2467 0
-4439 -1681 0
3412 -4082 0
525 -3178 0
-3916 2305 0
1857 2559 0
1704 -86 0
-188 4515 0
729 2490 0
1036 1512 0
3684 -1317 0
-1459 -2764 0
-781 1505 0
-1592 2846 0
432 -297 0
-3488 1910 0
-3106 -1329 0
-1513 3269 0
2004 -765 0
-2690 330 0
720 380 0
4108 -2743 0
2086 -2952 0
-2308 1086 0
1355 2583 0
2724 2488 0
2956 563 0
2415 -1321 0
-65 2330 0
3547 -2856 0
2766 4453 0
2650 339 0
1007 -2645 0
2033 2337 0
-408 -1363 0
-317 613 0
4325 -2344 0
-2706 1965 0
3587 895 0
-3018 -2754 0
-3264 -3304 0
37 4298 0
2744 1526 0
3280 -3039 0
-3860 1430 0
-1234 -3776 0
323 -2327 0
-2747 -2578 0
4543 -1629 0
298 -1274 0
-3885 867 0
-3725 1673 0
-341 -348 0
4556 2262 0
2091 -4491 0
-2353 664 0
1094 -2066 0
-3040 533 0
1051 3512 0
-2382 1613 0
-1617 4091 0
194 2394 0
3902 49 0
3823 1486 0
-1689 1066 0
-864 -2823 0
-588 -3415 0
-2101 3819 0
4481 -4059 0
3820 -690 0
3199 -4072 0
1203 -2397 0
-675 2921 0
-3929 1519 0
4068 -2731 0
3319 1565 0
-2318 -114 0
-4209 4446 0
-1490 -488 0
-1842 -1180 0
-1246 -2890 0
3990 -3900 0
2210 -2798 0
-2733 -1856 0
3396 1834 0
1333 -2926 0
-1206 3830 0
-4339 2152 0
-4463 -1145 0
738 -3136 0
-4497 -155 0
514 4413 0
-2425 -1444 0
2138 -3830 0
-2776 116 0
-144 -3041 0
3299 -1553 0
-4357 1532 0
-1076 -3959 0
4318 -1019 0
-204 3294 0
2879 678 0
4327 -3233 0
-2556 2783 0
1524 -235 0
3011 -744 0
863 4535 0
-1921 -4134 0
-8 -3362 0
-794 -1027 0
2144 525 0
4377 1411 0
-1525 3998 0
-4075 4514 0
-1418 -2024 0
-3494 -2807 0
-4472 -2323 0
2176 1601 0
2060 -301 0
3863 3122 0
2479 -3771 0
-2521 3568 0
4251 4389 0
4622 -2951 0
3589 -664 0
-1496 3047 0
-4493 -4376 0
614 1179 0
-2725 -3732 0
1867 -2567 0
4159 3915 0
4353 -3676 0
-2941 4250 0
1361 -3832 0
-962 1182 0
960 -1362 0
2877 -2263 0
3778 4269 0
2082 1974 0
1397 -206 0
-2339 2796 0
-4469 2525 0
4264 -1405 0
2504 -1028 0
-1701 335 0
863 2316 0
1257 -3822 0
-1708 1979 0
4272 1833 0
2892 -4612 0
-3299 -4314 0
3181 341 0
3092 -931 0
912 1287 0
-3170 4057 0
-2335 4604 0
2810 -1499 0
-3826 -1897 0
-3069 3790 0
-1637 -1072 0
3123 2789 0
2841 -1846 0
3656 -2050 0
-847 1757 0
-1246 1562 0
-472 2082 0
-2809 -2212 0
1829 2313 0
1591 2118 0
-3041 787 0
-327 2176 0
1155 2849 0
84 -968 0
-4343 -1817 0
-1425 2452 0
-2626 4557 0
-3156 4244 0
4009 1887 0
1727 882 0
4341 1318 0
-3040 -2066 0
1707 -1800 0
437 1887 0
-1085 -2688 0
1037 -1628 0
461 3327 0
2317 -2432 0
3902 589 0
-841 3625 0
974 -3375 0
3451 4607 0
4151 4371 0
-3468 2950 0
-4543 1848 0
-2681 -2467 0
4528 -4185 0
-3647 3037 0
3250 -1402 0
-3721 -996 0
4010 -1488 0
-1324 -4462 0
-4536 4582 0
2106 2985 0
-849 2156 0
2922 -2782 0
3635 4483 0
1399 1259 0
-1625 647 0
1927 -2873 0
1364 -2681 0
4048 -4319 0
4233 -4607 0
-3864 -4616 0
2451 -3063 0
2871 4259 0
3837 1278 0
-2552 4190 0
-358 2597 0
2519 3815 0
2524 -192 0
-3826 -2206 0
2971 3617 0
2202 2969 0
3389 -3306 0
-3365 -2859 0
2052 2108 0
2885 -4349 0
-3247 -3725 0
-1565 1655 0
-3505 -1897 0
-659 -2055 0
1037 -1402 0
-1548 2002 0
-678 -4079 0
4266 1156 0
-2867 -825 0
-4501 4044 0
-3616 3163 0
-2789 59 0
-3292 1788 0
-2404 54 0
3407 -2879 0
-1238 2494 0
1331 84 0
-3950 3219 0
3501 2367 0
4347 3184 0
420 3691 0
-257 -3132 0
998 -1439 0
2606 -3494 0
-2201 -4082 0
-1144 1430 0
-2176 2937 0
574 3970 0
-1591 -4378 0
3701 1080 0
-493 -4201 0
2967 2839 0
-1498 380 0
4030 -3138 0
1365 1101 0
1743 530 0
3008 2938 0
3091 603 0
-1096 -1982 0
-275 -4142 0
2448 110 0
-4497 1507 0
-2798 647 0
-1317 3633 0
-1162 3393 0
4320 71 0
-3520 -4546 0
-755 -1307 0
-4137 -632 0
-1242 -2506 0
2739 -4174 0
3928 -1937 0
997 -139 0
4040 -4111 0
1029 -1966 0
-3845 -3391 0
-4223 4380 0
4125 3966 0
577 -3852 0
-2181 -316 0
851 -1537 0
2164 -1746 0
-2506 3740 0
536 -4617 0
1610 -1921 0
113 1680 0
161 3898 0
4296 726 0
2752 820 0
902 644 0
3630 2673 0
-2408 -2206 0
-3583 977 0
-610 1710 0
3180 1315 0
3390 3352 0
-2038 3353 0
3823 2885 0
-680 3500 0
-2931 -641 0
-2611 1396 0
-4484 399 0
3958 2465 0
726 -1554 0
1567 1154 0
622 -479 0
1929 -566 0
4163 2000 0
1922 -293 0
968 -2563 0
-2121 -4211 0
3183 -1517 0
-2684 1773 0
-1421 -2617 0
-1741 -1248 0
3728 -4381 0
1624 -3787 0
-3079 845 0
3730 628 0
1382 388 0
1482 2212 0
303 -3899 0
-926 129 0
2749 -429 0
-2822 623 0
-1786 3873 0
1334 -924 0
1456 -2521 0
3264 4010 0
-2915 -3426 0
-2522 4073 0
-2441 -4631 0
2195 -4573 0
-1022 -1519 0
-2816 901 0
4398 -2150 0
-2143 -1982 0
-971 3856 0
699 -2129 0
-1095 4497 0
-1326 -3188 0
-3895 3806 0
-1941 -3670 0
-2134 -2404 0
-1707 -4117 0
-932 -1165 0
48 -731 0
1358 36 0
1698 -4577 0
3192 -3950 0
3437 -2178 0
1488 3557 0
-2056 201 0
1086 1057 0
2777 -2887 0
-2703 1663 0
-1003 4104 0
3409 742 0
-2141 1906 0
2105 23 0
-1292 -138 0
4017 -2659 0
429 -2925 0
-2475 -812 0
-2736 -96 0
-3898 2676 0
-2732 4314 0
-588 -3324 0
2643 4173 0
-2712 1742 0
-2315 -35 0
700 2232 0
1585 3689 0
1325 3227 0
803 2982 0
4569 -3427 0
665 4580 0
4356 -774 0
-3171 2778 0
-4193 2047 0
3223 650 0
-2083 -2986 0
2332 -2560 0
-3150 -3863 0
-20 -2313 0
-4615 1911 0
3036 2262 0
2132 3343 0
-4251 -4029 0
756 -2540 0
-2384 -2263 0
1844 1896 0
3042 2182 0
3408 -4310 0
1195 -4426 0
-2780 3654 0
-508 -3652 0
3990 293 0
1313 -3764 0
-4577 -4616 0
4574 1312 0
3541 -114 0
2954 -4581 0
1169 3858 0
1270 -1523 0
3700 3731 0
1177 2454 0
-4174 1675 0
920 -4609 0
-1587 2654 0
-2867 3174 0
2592 -2379 0
3953 -2834 0
2955 -1639 0
1487 -3687 0
2720 504 0
-1478 2902 0
-3251 1496 0
3809 1383 0
1055 -3964 0
-4323 4099 0
821 2463 0
339 -3165 0
475 862 0
-3343 1630 0
-2611 -1317 0
-646 926 0
-2410 -779 0
-1641 27 0
-2654 3149 0
535 557 0
3936 -1031 0
3329 -118 0
-4159 -489 0
-133 -4576 0
3268 3227 0
-932 2152 0
-666 4421 0
3042 -3383 0
-114 -794 0
-1610 -2175 0
-816 -2889 0
1378 -1922 0
-1478 1148 0
2602 -2278 0
2107 -1900 0
1005 1129 0
-3139 -3026 0
-773 3965 0
2547 104 0
-4573 -3044 0
1043 -1154 0
448 2919 0
2108 1031 0
-3925 2638 0
2207 -4614 0
1227 3914 0
3094 1680 0
545 -3924 0
4164 850 0
-4261 3183 0
1660 -2182 0
3254 2094 0
504 -1526 0
2082 4375 0
-4139 1566 0
-3753 -880 0
4521 -3106 0
4027 2462 0
-3610 4249 0
1655 434 0
1231 954 0
3473 -1764 0
316 -3142 0
3247 -2084 0
-305 -451 0
-2727 4508 0
2683 -3966 0
3295 -1473 0
3169 -1649 0
3967 2532 0
-211 4474 0
-675 3214 0
1574 2894 0
-3951 3243 0
-2910 -635 0
482 1290 0
1132 -968 0
3558 -3641 0
2846 709 0
-236 -2149 0
2483 1679 0
-2652 3794 0
-348 -2602 0
1197 213 0
4037 212 0
-3801 177 0
1867 -4231 0
-4323 -1312 0
-2823 -1213 0
-2126 3559 0
3445 2120 0
-497 -2790 0
-2476 -1970 0
4261 1245 0
2281 -3820 0
1276 -3982 0
3217 3715 0
-1356 1861 0
-75 -2346 0
-4061 -3521 0
-537 3301 0
-2166 3470 0
886 2183 0
-3105 3775 0
3727 -3769 0
3665 -1897 0
-1012 199 0
1673 -1667 0
3175 -1363 0
-4090 1977 0
1241 -3222 0
3763 2236 0
4146 -3014 0
-3253 1536 0
1161 -52 0
1834 -2652 0
3650 -1150 0
3368 3192 0
-4316 134 0
-1687 -4619 0
1613 531 0
76 4526 0
-4099 -3469 0
-3452 -1079 0
-2653 4026 0
-457 3500 0
-3913 1256 0
-3774 -251 0
-4102 -2139 0
1522 831 0
-2856 -4376 0
-3084 -3556 0
-3518 -3200 0
4287 -1123 0
-1827 -2485 0
2383 1918 0
3708 -3415 0
-2639 -3285 0
2170 -1646 0
-284 -4584 0
-601 2739 0
3202 -1869 0
3741 -1999 0
-3124 -2959 0
2298 -1856 0
920 -4567 0
1989 3944 0
3979 776 0
-4563 -3248 0
1534 -3115 0
3490 1106 0
2419 112 0
1084 -1616 0
689 24 0
-3294 4156 0
4038 2054 0
-3034 -1960 0
-2422 -2917 0
2338 2904 0
3549 217 0
-3924 779 0
-841 1882 0
2192 2952 0
3439 -4504 0
-4302 -2972 0
4245 -575 0
4452 2086 0
945 3955 0
-4112 1214 0
1315 -2044 0
-1481 -2635 0
101 4404 0
3589 1292 0
-1297 -4463 0
-2556 4480 0
-2910 -1850 0
732 -507 0
-606 875 0
-4624 3010 0
4204 3896 0
2149 4340 0
-975 2934 0
-2470 -147 0
-2349 4562 0
4134 2334 0
-4479 -4209 0
3881 2937 0
-4310 -2193 0
-864 3522 0
1430 4052 0
849 -2887 0
-346 663 0
-2790 1131 0
1794 -4572 0
-4494 2819 0
1212 3422 0
359 1269 0
-897 3481 0
-3974 4326 0
4591 1624 0
-400 1456 0
-582 2559 0
2605 2201 0
-1350 3387 0
-715 -558 0
3463 1568 0
-3528 -1801 0
3751 -843 0
2456 -2171 0
-2735 -664 0
575 4168 0
-3162 2569 0
-2730 -572 0
2831 -3759 0
-738 -1178 0
1110 -2196 0
-1435 4555 0
-1740 4359 0
2860 2144 0
2927 4184 0
-3723 -2056 0
-3240 2159 0
3335 2071 0
2774 1344 0
4135 4555 0
1691 -3828 0
-4442 -2564 0
-1150 -73 0
1117 3806 0
2020 -526 0
1944 234 0
-1854 -810 0
-2698 -2395 0
476 -2802 0
-4132 70 0
1510 -2872 0
-2330 -1413 0
4490 1046 0
2817 -3716 0
-3437 4100 0
-2675 2812 0
1458 -425 0
-43 -3731 0
1643 3157 0
2154 -1388 0
1743 1901 0
-4234 3896 0
676 -107 0
-1368 -4225 0
-3540 3370 0
1048 2471 0
4199 1724 0
-2204 -598 0
3761 -2698 0
1037 -1017 0
-1976 2328 0
-2748 3213 0
-1033 1614 0
-1117 340 0
-3082 -2347 0
-4530 -4551 0
371 -596 0
-3665 -1064 0
-3643 -4097 0
-1522 -1847 0
-629 -2133 0
-690 -1169 0
-533 2484 0
-3374 3709 0
281 3137 0
2925 -2001 0
1168 2386 0
3007 -1012 0
-2308 -1546 0
4597 124 0
-2988 -502 0
4593 482 0
-4610 2547 0
-3720 400 0
-1303 383 0
-1759 -1324 0
322 -1836 0
-4061 2602 0
4307 -1798 0
2446 258 0
4041 -2939 0
-2935 -147 0
-2490 2873 0
-1564 -2249 0
-2042 -2476 0
750 -2775 0
824 612 0
-1269 -1953 0
2997 -29 0
4374 2090 0
1554 4361 0
-1569 1792 0
3281 1141 0
-1575 3958 0
1005 1642 0
-1431 -2644 0
2563 3432 0
-2200 -3519 0
-632 -2611 0
-2062 2006 0
-427 -88 0
-2497 4090 0
-4563 568 0
4158 -3312 0
-1941 -523 0
-208 369 0
-4001 -2509 0
4005 36 0
-2636 -3663 0
1176 1847 0
2863 4408 0
-3886 2051 0
4443 -2128 0
1628 4478 0
590 1156 0
-829 4086 0
-4229 1544 0
-4379 2835 0
3290 3316 0
3552 -3805 0
-3070 -1016 0
2170 38 0
-4393 283 0
-4185 -2074 0
-267 -1942 0
-1937 -2521 0
3521 -4201 0
4044 -1799 0
1054 212 0
3828 2991 0
-4325 -2777 0
-843 -748 0
2856 -2699 0
2524 -1025 0
-795 -268 0
-1184 2204 0
3708 -2224 0
1736 -319 0
2821 3332 0
-4215 -957 0
-3386 -1811 0
-3118 -1326 0
1068 1310 0
1139 -4600 0
-2911 -855 0
2700 1452 0
-4615 -4263 0
1214 4233 0
2183 1359 0
3477 -1034 0
496 4048 0
2651 3095 0
-3190 2041 0
2738 -3772 0
2774 825 0
2610 66 0
-495 -2921 0
3209 267 0
-1988 -3323 0
153 -1364 0
4517 -3437 0
-2017 47 0
-3771 3372 0
-3908 3688 0
1732 3095 0
4148 -1475 0
-2618 -865 0
-2237 -3721 0
-4223 -92 0
-898 -1611 0
-2444 455 0
-2356 551 0
1934 1547 0
2086 -1625 0
4572 2565 0
-1032 932 0
3600 -1726 0
-1128 3146 0
-999 4274 0
4082 2761 0
-2766 2896 0
1308 -4005 0
539 4317 0
1335 -2666 0
-4025 1235 0
-2016 3685 0
3847 2335 0
-1272 -4192 0
4050 1280 0
-3526 -1345 0
-3954 636 0
-2769 3487 0
-1427 4447 0
4040 -3936 0
1083 2492 0
-1925 -349 0
3130 2729 0
-2313 -2258 0
2742 -1576 0
-1324 -1223 0
-4610 -589 0
-2758 3294 0
1817 -1228 0
4433 2981 0
-1222 2462 0
-2461 1209 0
-431 1942 0
1327 -4169 0
3807 975 0
-4514 -3008 0
-525 -1383 0
815 2362 0
3911 3835 0
569 -245 0
818 -1894 0
-4119 -2002 0
-3194 143 0
-619 1729 0
-4251 -3912 0
-272 4453 0
-2472 -3758 0
-3782 727 0
-1268 -780 0
3741 -1761 0
-697 -4012 0
2020 2052 0
3354 -562 0
1096 -1466 0
3867 -2055 0
-2071 -322 0
-3060 -2261 0
-390 1904 0
-4238 3439 0
1190 -610 0
4308 436 0
-461 -2479 0
-2029 1696 0
869 -1897 0
1539 3736 0
-611 -3903 0
1100 -146 0
-816 -3800 0
-58 -783 0
-3980 2667 0
4264 -187 0
-230 -1828 0
296 -322 0
3754 1631 0
2406 -164 0
189 2328 0
4551 3955 0
-3071 627 0
4608 4154 0
-2356 2368 0
483 -2907 0
-699 -1285 0
-305 4596 0
1231 641 0
-3425 1906 0
2050 3997 0
2810 -127 0
532 278 0
1852 2555 0
2625 1872 0
-4283 -995 0
-2708 4513 0
-982 210 0
-2855 3293 0
2503 -343 0
-1469 93 0
-2875 4148 0
-4445 2455 0
788 -3350 0
3589 3343 0
-680 -1831 0
3597 590 0
1528 962 0
2844 332 0
242 -232 0
1877 -2305 0
-563 1193 0
-2636 -1490 0
-1747 4576 0
1744 -2341 0
-4599 -3455 0
2728 2104 0
4229 3164 0
-582 -238 0
186 4603 0
729 2349 0
3928 -1429 0
2686 1260 0
2363 -3211 0
216 3284 0
1914 616 0
2365 3093 0
-4069 4589 0
-554 3530 0
4530 3330 0
-4439 1792 0
-3141 -2611 0
4274 372 0
4573 -2771 0
3108 -845 0
1890 -3662 0
414 -500 0
-1784 -675 0
-2490 -2987 0
-2535 -3141 0
-1798 1957 0
-1956 -245 0
-1544 -2230 0
-2914 1760 0
1485 -2498 0
1227 2343 0
-1687 4553 0
-2150 2978 0
-1304 1777 0
3812 2795 0
-3968 -1436 0
4198 -4471 0
-1281 -4260 0
1367 3158 0
-152 -368 0
-795 4125 0
-503 -635 0
-4272 -4581 0
685 -3964 0
2845 1892 0
2808 4173 0
2228 -1879 0
-1035 2842 0
-4138 2844 0
1420 719 0
3749 3517 0
-3707 -324 0
-2423 1758 0
3567 1345 0
3346 -3592 0
-4257 -4328 0
3462 3044 0
-582 -2961 0
-3141 -526 0
-576 1114 0
1781 -2804 0
4078 -2132 0
-1107 4030 0
4216 1654 0
-2 1853 0
3338 -886 0
-816 -2724 0
-1925 2038 0
-2562 2598 0
714 4347 0
-1699 203 0
3738 -846 0
-782 -810 0
-4057 -3291 0
2609 3532 0
1397 3113 0
2547 -3245 0
-3781 -155 0
-1433 2446 0
-1339 4495 0
3369 2014 0
1885 -3172 0
-431 217 0
-4152 -4566 0
-2796 -3053 0
-1597 -1521 0
-3208 1926 0
960 -920 0
651 213 0
1703 2232 0
1087 1110 0
1021 823 0
516 382 0
-4479 2964 0
-1794 -1907 0
2592 4026 0
-454 4302 0
938 1001 0
-2385 -3723 0
3687 -3674 0
1471 3418 0
1166 -1518 0
-1121 2471 0
-867 -747 0
-4546 560 0
-4260 3566 0
-2264 756 0
2461 -2399 0
2973 3578 0
-1603 3388 0
-3387 2711 0
2120 2667 0
-3092 4574 0
-3072 -2657 0
4278 1727 0
1115 2842 0
4015 3982 0
281 1273 0
-752 -2512 0
-2701 -2109 0
3995 80 0
4452 -1009 0
3742 1471 0
-1107 -3916 0
1277 -928 0
3141 3189 0
-2420 4330 0
-105 -2769 0
-615 -4378 0
1812 -272 0
4259 -1186 0
-4226 1892 0
-4176 -3086 0
613 -1370 0
-2811 -1129 0
-574 -4253 0
2462 4410 0
3671 -1403 0
3088 -1838 0
3970 -523 0
-1061 -3083 0
-4554 -3460 0
2715 2134 0
3209 1423 0
4100 -2758 0
-1641 -3725 0
4626 3390 0
2696 2676 0
-341 -202 0
-368 920 0
-1170 3621 0
952 158 0
-2057 2159 0
937 -586 0
4011 683 0
-2834 -4047 0
-545 1357 0
1466 -2467 0
16 -4007 0
1329 806 0
841 2904 0
3652 -704 0
-1134 4547 0
4589 1310 0
3599 3514 0
-2448 -2420 0
-3907 1233 0
3761 4453 0
3938 -2016 0
-4522 486 0
-2521 -576 0
3809 -1091 0
3295 1459 0
2242 -3510 0
-894 1126 0
-2357 3128 0
2480 -1736 0
2723 4469 0
-1938 -1648 0
2274 4235 0
1498 105 0
3659 -3464 0
3177 -612 0
-503 4295 0
4475 2969 0
-2423 1747 0
3094 1479 0
1292 -565 0
641 -2868 0
1662 2705 0
-2416 -4119 0
-1054 4196 0
-2250 4280 0
284 -2705 0
1668 -3284 0
-3315 -1008 0
4287 3443 0
-591 4606 0
3353 -2899 0
-4465 -1545 0
3564 3905 0
-2515 -2415 0
4509 3253 0
-14 -3228 0
-880 -3662 0
-3260 1512 0
2655 3424 0
2656 -2138 0
-1884 -2161 0
1373 2409 0
831 -2740 0
4195 -3066 0
-3904 -1646 0
-1366 846 0
3664 3058 0
-702 1745 0
-2479 -3544 0
-2866 2926 0
-3710 4626 0
-4197 2332 0
3949 2759 0
-3407 -4027 0
-3405 -1689 0
4251 -1270 0
430 3215 0
-3948 885 0
2893 -2615 0
2187 1225 0
-4571 -675 0
3058 -3500 0
-1890 557 0
2020 -2280 0
1954 -2799 0
-2659 2939 0
-944 -3335 0
2538 -188 0
1064 2510 0
-1392 -900 0
3911 4310 0
4491 -1632 0
-1493 3615 0
-3178 -3778 0
753 1664 0
361 -3352 0
4036 512 0
3849 1599 0
3733 -3441 0
3095 357 0
-3260 2816 0
-3265 -3331 0
-843 197 0
2013 1450 0
-326 -2487 0
2643 -3212 0
242 -915 0
2987 3888 0
1358 1922 0
727 -3719 0
4333 3294 0
278 2207 0
2518 4235 0
3106 3022 0
-3619 544 0
3444 -2717 0
2009 -4563 0
3882 1655 0
3748 4158 0
-1900 -2473 0
4453 1069 0
-4399 -3083 0
-910 -248 0
-3246 -2266 0
1782 -3764 0
2983 1805 0
-50 -2764 0
-2678 -3092 0
-1478 -2085 0
-1571 -4309 0
-2932 2842 0
2362 919 0
-1436 -3193 0
-2046 -2914 0
-2875 -1673 0
-2397 1659 0
3993 2495 0
-1170 -3905 0
-3363 1230 0
4291 -1388 0
-301 -1904 0
-4565 2766 0
-4618 701 0
2128 -3456 0
-2741 1555 0
-4251 1111 0
1763 730 0
1973 2312 0
1367 -2519 0
-678 641 0
239 -843 0
-3995 3787 0
2766 -3157 0
-3015 -3976 0
-3425 2419 0
961 4059 0
-3535 3868 0
4433 -3706 0
418 1738 0
3160 -692 0
-608 -2689 0
1535 4161 0
-4514 4582 0
-4488 -2012 0
2390 4283 0
1854 3585 0
-3644 -3891 0
-1601 3661 0
2082 278 0
1299 2322 0
4111 258 0
4199 -3443 0
-3038 2979 0
-4566 -4395 0
-1994 2892 0
899 4278 0
4464 -3475 0
-4341 2632 0
482 2004 0
3617 -2012 0
-611 -1330 0
-3724 2927 0
612 -1264 0
-1324 -616 0
3443 -1222 0
-4381 -2719 0
3938 4611 0
4334 -2204 0
4481 -4315 0
3155 -713 0
-854 3106 0
2700 -3394 0
1318 -3889 0
838 1791 0
1648 672 0
1221 -1510 0
2802 3187 0
-119 2831 0
-1398 524 0
-4387 3476 0
-698 -2588 0
-3086 -1398 0
2507 -3453 0
-4231 1902 0
1875 2134 0
-3357 4059 0
-2454 -3471 0
3635 688 0
1541 -2571 0
-4139 3927 0
1791 -3359 0
-950 1290 0
-1371 1453 0
1283 4421 0
1595 -1083 0
-3737 -476 0
-2401 3193 0
4368 1542 0
-3235 3102 0
303 905 0
928 -1451 0
3910 -859 0
3564 776 0
-2304 3387 0
4487 363 0
-3659 1309 0
2538 -1591 0
124 -3818 0
662 4091 0
3431 811 0
-4032 -2653 0
-2930 -2210 0
285 1782 0
1442 1505 0
2682 444 0
-3222 1570 0
1848 2743 0
1657 -955 0
1809 3942 0
-1441 -724 0
2454 4143 0
-150 -1698 0
-2600 -2163 0
3598 -2455 0
-2562 4435 0
-4144 2910 0
1910 -565 0
-883 3448 0
4165 998 0
701 3662 0
-2986 2131 0
-4182 -1613 0
4189 978 0
-4528 2273 0
729 1663 0
-4489 4156 0
-4503 1674 0
-1722 4058 0
4254 -2453 0
-3453 -2984 0
-3826 -2700 0
-1698 4274 0
-2362 1544 0
3182 -2543 0
1783 2254 0
1964 -991 0
3363 -1591 0
-2634 1200 0
4073 -312 0
-2453 -3871 0
-3330 -2999 0
3067 -2687 0
920 282 0
-2715 3500 0
-411 1691 0
1029 -3428 0
372 3109 0
-1836 3251 0
-473 3281 0
-3078 746 0
-4008 -2915 0
4165 348 0
2024 1376 0
-2 -1894 0
4507 -205 0
-4283 1498 0
-3360 1085 0
4089 2131 0
-465 1152 0
2831 4561 0
-1641 2800 0
-749 630 0
-289 -3530 0
-2498 1370 0
2307 -1072 0
1896 -3611 0
-2155 -2034 0
-1244 -1963 0
1339 -4619 0
4584 3256 0
-1773 2372 0
2363 -4053 0
3134 2162 0
2005 -3925 0
1524 -4612 0
4368 -1980 0
4084 2879 0
-920 -2662 0
-3411 -2420 0
3836 1634 0
-3839 1130 0
-918 -3699 0
831 -1503 0
1628 3380 0
-4408 -1128 0
2341 3281 0
-2356 -2156 0
-1869 -3788 0
42 1474 0
984 -4447 0
-2583 3080 0
2633 -942 0
-2261 -2310 0
652 -2129 0
378 2937 0
4609 -3510 0
4535 1670 0
537 -1185 0
2797 -514 0
3027 2525 0
-1931 -2668 0
4387 -4032 0
-4027 -4024 0
1711 90 0
2692 -2633 0
1816 4365 0
-1128 -105 0
1434 -301 0
-3916 -3995 0
1834 1673 0
-3871 -1960 0
-2433 -2335 0
-1202 3776 0
-4089 900 0
-2623 -3205 0
-2436 3982 0
-329 800 0
-2021 2806 0
-228 -526 0
-4549 3247 0
-936 4565 0
-2562 -1486 0
-1233 676 0
-2397 4252 0
1328 -1641 0
4395 -68 0
-715 -3717 0
-3487 -1953 0
-1355 -3355 0
4157 24 0
-450 -2399 0
1410 -3869 0
3712 480 0
2154 3011 0
1660 294 0
-2919 -843 0
-4302 -3313 0
3605 -2570 0
307 -1808 0
1298 -4294 0
3476 1901 0
885 -2042 0
-4 -2508 0
-179 -1692 0
2937 -4473 0
1703 -4545 0
-983 -1339 0
4130 -2018 0
-3890 -2037 0
706 -519 0
4483 -146 0
-2250 -2024 0
-4145 -4341 0
-179 -4239 0
-3171 -2987 0
3546 167 0
-2499 -710 0
-500 -1705 0
-133 3124 0
-2908 556 0
-3797 2631 0
1155 -1869 0
-3638 734 0
4375 1858 0
106 3635 0
-4418 2776 0
2220 864 0
233 -1743 0
4560 -1270 0
-1495 -3207 0
-2068 -3587 0
3150 3760 0
2188 -2198 0
-1433 -3436 0
905 2453 0
-500 -2196 0
-1961 -1654 0
190 -3120 0
2968 2176 0
3548 -819 0
510 2464 0
-8 3319 0
2399 3535 0
724 -2754 0
-3862 -4332 0
3816 4175 0
1215 -1222 0
1799 -107 0
2175 1559 0
-2769 1745 0
-3315 -61 0
1723 -3660 0
-4188 -3307 0
-2805 -1765 0
-3771 -1144 0
2967 -804 0
-2220 1096 0
-1163 4290 0
2914 -1253 0
4325 -3313 0
1284 2835 0
2154 -2554 0
-1960 3368 0
914 3145 0
1275 3537 0
-2036 -1334 0
-3641 1445 0
4552 -9 0
4275 3857 0
1312 3881 0
2914 -2958 0
2128 214 0
3065 -3201 0
183 -4429 0
-712 2215 0
4081 4551 0
-3818 -4290 0
77 -4548 0
2828 1064 0
-2735 2728 0
-3396 423 0
3911 -4455 0
2863 1685 0
2590 -3178 0
-4154 3148 0
-232 1744 0
3130 -1957 0
4519 -4534 0
-1558 -3740 0
4110 -403 0
4021 -1147 0
-3119 -841 0
4604 -2986 0
-3513 -3377 0
-1700 1787 0
-8 -1264 0
864 1861 0
1069 1716 0
4557 -1492 0
-3680 1189 0
-4569 3439 0
-2124 3210 0
3789 92 0
3071 2864 0
885 -822 0
-3496 -1784 0
3570 3443 0
1579 4225 0
904 1153 0
3790 4114 0
-1821 3319 0
-558 3884 0
-2801 3486 0
4574 -1588 0
3815 -365 0
1940 -2711 0
-433 2883 0
-1222 1425 0
-2302 -3079 0
2897 -2382 0
-3943 1799 0
1802 -1936 0
2316 -4012 0
-438 -1513 0
4296 -2419 0
-3291 -2913 0
1724 -902 0
-2482 2136 0
-606 -3650 0
234 -1317 0
-3998 -2657 0
-3594 -3362 0
-1807 -4622 0
-4273 -667 0
3563 3138 0
698 -886 0
4407 2138 0
-4397 3846 0
-558 1066 0
813 -4145 0
-3244 -836 0
-3643 -2316 0
-3068 -1597 0
-4249 705 0
2340 3994 0
1984 -3885 0
2607 -1372 0
-3863 175 0
2355 2970 0
-4132 12 0
3939 -3074 0
267 1944 0
-3506 -1700 0
2583 -163 0
3098 1330 0
3839 3881 0
-429 4377 0
898 3256 0
-4579 1284 0
-4138 4526 0
-3877 1926 0
-2835 -326 0
2840 -610 0
2506 -3333 0
-871 -2175 0
581 2967 0
1527 251 0
-1957 -238 0
-2894 1101 0
-2928 -2867 0
4274 1878 0
-3282 -1869 0
-4556 -2497 0
-37 521 0
-3904 -3008 0
-3116 3281 0
-1224 -1761 0
-814 2585 0
2067 -3173 0
4205 -3945 0
3181 4366 0
3513 228 0
1789 4620 0
2272 -2292 0
4152 3308 0
-2205 -3374 0
2068 4135 0
3707 -704 0
1448 -1202 0
1622 -3427 0
-1672 -3012 0
4058 2202 0
-3559 -3880 0
3557 -1314 0
-2055 -4052 0
-4295 -4216 0
-1263 -1107 0
3230 -1455 0
107 3571 0
-3657 -1223 0
-1981 -463 0
-1667 143 0
1922 -3110 0
-1838 4561 0
-2901 2530 0
-4142 -4071 0
55 -2713 0
97 -814 0
-2139 3865 0
2687 -4023 0
-508 349 0
-1589 3150 0
-2545 -4631 0
4180 -475 0
393 -4469 0
-4611 -2540 0
-2341 194 0
-4426 4586 0
-2369 4462 0
4212 -1042 0
-3381 3222 0
183 -4213 0
-1602 648 0
-2346 3317 0
-3677 3160 0
-3670 2866 0
-2005 1802 0
4054 -3198 0
-2549 2906 0
2284 3242 0
2789 3019 0
-4396 157 0
-613 1176 0
-773 -2378 0
502 2159 0
1023 -3857 0
1110 3692 0
-3771 4547 0
-3611 2134 0
3589 3459 0
-2714 2939 0
3402 1891 0
-3260 -3062 0
-1176 1273 0
98 -4117 0
1264 1719 0
3548 3800 0
-813 1443 0
399 -1985 0
-3344 -66 0
2307 2280 0
-707 126 0
1213 -2915 0
-309 2510 0
-1596 -3526 0
4453 -523 0
-393 3405 0
1696 -93 0
3646 -3847 0
-2850 4131 0
711 -765 0
-4188 -2440 0
3148 -495 0
-478 -2151 0
1100 -2044 0
1396 -1218 0
1320 1183 0
-1031 2457 0
1259 1545 0
-2780 1385 0
1685 3424 0
-3800 -2151 0
311 496 0
3310 2294 0
-1563 702 0
-2040 -3261 0
-3363 2563 0
-476 -1569 0
4341 -1145 0
3829 -403 0
-1108 -3181 0
3898 2294 0
-1921 -94 0
-3013 -4440 0
-2791 1323 0
1189 4517 0
-3725 547 0
2024 705 0
3763 -2305 0
4325 -2143 0
-3061 1267 0
3901 -1907 0
-4542 1874 0
-4467 -3953 0
4147 2245 0
-1155 -3466 0
-2223 3806 0
-2887 -890 0
3422 -1874 0
3900 -4476 0
4617 3295 0
3443 -346 0
-140 -969 0
3743 -3800 0
-1506 -1871 0
-767 -4509 0
1447 3417 0
-365 -612 0
-2718 -3191 0
2730 4424 0
-2430 4 0
-1603 340 0
400 3862 0
-1286 1480 0
-156 3560 0
1559 3331 0
237 1670 0
-2594 -1015 0
-3037 -1072 0
847 -3025 0
826 -4549 0
-2758 4255 0
-840 -3045 0
2227 2462 0
1456 1713 0
4159 -208 0
-1206 -3418 0
-3783 -3976 0
-4144 1296 0
594 1985 0
3012 -2666 0
1139 -4460 0
2355 -3389 0
1372 -1623 0
1937 1394 0
-794 2592 0
3934 4115 0
-3533 -4521 0
-1218 -769 0
-4215 -2706 0
-424 -2327 0
-1726 -3701 0
4262 -1689 0
-1247 3545 0
1420 -3215 0
-574 -3602 0
-300 2472 0
-1786 2057 0
-272 -2059 0
1194 4021 0
-3936 -884 0
3186 -1769 0
2649 -1752 0
-3772 1340 0
-1550 2013 0
4297 3383 0
-2674 2278 0
-4502 -1344 0
-1883 3700 0
-2086 -2657 0
4366 2445 0
-791 -4387 0
-123 -1689 0
1314 2306 0
1179 -2809 0
1703 1301 0
3575 -2455 0
1526 -4503 0
-3149 -40 0
-3361 1706 0
3910 3816 0
2002 3198 0
3844 -3480 0
-189 -2305 0
3851 811 0
1105 -3853 0
-4209 2103 0
4083 2759 0
-3197 -4338 0
1545 840 0
2164 1543 0
-1628 -3980 0
3559 -4556 0
-1751 -2769 0
2741 452 0
762 -1527 0
3991 -126 0
-180 4424 0
-1490 -4175 0
1645 2441 0
4472 3393 0
-3077 3992 0
3715 -1749 0
-3925 -4191 0
1438 -1596 0
-1800 4007 0
-1343 1747 0
-366 -2854 0
-2244 -2989 0
3489 4252 0
2355 -2245 0
-3227 -2278 0
-1907 4453 0
1883 1341 0
-478 3612 0
997 3856 0
1 1890 0
-1148 -2230 0
-2193 688 0
1131 2296 0
4597 3109 0
-4352 561 0
3310 -916 0
2233 -3176 0
-1265 -1572 0
2970 2137 0
-3877 -737 0
-3796 4460 0
3959 2325 0
-3816 3679 0
-3462 441 0
1117 -1077 0
2236 1309 0
-595 2454 0
3906 -337 0
-625 -633 0
4453 2720 0
213 -2377 0
-140 -1605 0
1081 183 0
-3592 -4324 0
-550 -2834 0
3923 3460 0
1 3397 0
2749 -3838 0
-4082 958 0
-137 -3147 0
-195 -381 0
-922 -1569 0
-1837 2232 0
2786 853 0
512 2489 0
148 -1439 0
-2096 328 0
1876 -2746 0
4284 3488 0
4442 -1982 0
-2270 3536 0
-1402 -4037 0
3692 47 0
517 622 0
-3818 3430 0
1109 3574 0
-1897 818 0
1479 4412 0
-2653 4374 0
3635 -4068 0
-1998 -2944 0
-1686 -3126 0
-1135 -1076 0
-1428 3313 0
-2657 3843 0
486 4180 0
-3282 3235 0
1054 3847 0
-1831 4033 0
739 3435 0
4421 -1759 0
-3287 -3058 0
-1419 571 0
-4616 -1756 0
-1533 -4088 0
-3870 1973 0
-1663 3376 0
3740 4586 0
-2397 2748 0
3741 -2514 0
2228 -3377 0
499 3526 0
3645 644 0
-1754 -2221 0
-1770 2193 0
1471 -1386 0
1723 3339 0
-4067 -4006 0
3780 -4287 0
2026 -3507 0
-107 -1465 0
-791 3311 0
-4534 3673 0
463 1306 0
2247 -2559 0
352 999 0
-3808 1375 0
4021 -3580 0
2236 -3703 0
2612 -334 0
-2518 2619 0
1571 3270 0
552 -3048 0
-578 2050 0
-2228 2500 0
1440 939 0
3806 3175 0
-164 2358 0
3176 3945 0
-2884 2608 0
3229 -1655 0
-89 -126 0
-1665 3145 0
4108 -93 0
-2875 3199 0
-4545 -3869 0
1709 -772 0
-2959 -2188 0
-2349 1029 0
-3472 -2716 0
1989 2640 0
2955 -2256 0
-2567 4222 0
-738 -3504 0
3306 1341 0
3182 4518 0
2323 2110 0
3320 383 0
921 -2368 0
-107 -3104 0
708 -1188 0
4514 -1349 0
-2476 4205 0
-4572 -3372 0
-2160 -1451 0
-279 -1026 0
641 1275 0
-2820 -966 0
3881 -1790 0
-683 -516 0
2326 3583 0
-4371 -3349 0
-1832 -3085 0
-3673 -2608 0
4040 -2850 0
-2356 800 0
183 2934 0
-541 1499 0
-2791 -3103 0
-1523 3184 0
105 3843 0
884 938 0
-1062 -2226 0
-2679 746 0
-1540 -4592 0
3863 2724 0
4549 1891 0
-413 1229 0
-637 -53 0
2563 421 0
4560 -1557 0
281 2710 0
2402 -4306 0
-2815 4557 0
2821 3430 0
2524 -2127 0
1082 -84 0
3337 199 0
-3062 -1717 0
-814 1510 0
-960 3376 0
4464 1822 0
-632 -3551 0
-3912 -3606 0
64 -3106 0
-3064 2707 0
-4053 -1168 0
-4616 2174 0
2330 2885 0
1911 1623 0
1025 -3871 0
-4325 -925 0
134 -2589 0
1580 -772 0
823 -78 0
19 400 0
2120 -3427 0
-2545 1343 0
2315 2361 0
3807 1666 0
756 -4057 0
-2737 3176 0
-2510 -1649 0
665 -3092 0
-379 3575 0
-1211 3537 0
1210 -1388 0
-4317 1645 0
3998 -296 0
-141 1527 0
-1606 -2335 0
-2537 2723 0
3018 -4258 0
3517 -369 0
1387 -1549 0
-3120 1614 0
1642 -3948 0
-1264 -17 0
3587 -1960 0
-3082 -1140 0
-1477 -3484 0
4117 -3717 0
-4569 2620 0
681 501 0
-1438 -299 0
-3876 1998 0
-4099 -543 0
-2475 -3235 0
-3261 3164 0
3286 -2270 0
-3783 -4527 0
2420 -884 0
2750 -2339 0
2012 -3217 0
-4302 -232 0
-4522 3730 0
-3262 276 0
784 -3378 0
2456 -1760 0
-3493 -4003 0
-3658 -801 0
-3032 3258 0
-3616 1518 0
2055 -1268 0
-1712 4438 0
2394 1410 0
2779 3219 0
1995 1853 0
-573 2279 0
2317 3535 0
-4607 -289 0
-1373 -1493 0
527 -4234 0
-2308 -1573 0
-1591 4330 0
4007 2163 0
-1464 3920 0
-2681 4416 0
-2284 -3826 0
3096 3791 0
3270 -3263 0
2848 -229 0
2687 1748 0
-1322 989 0
3697 -4269 0
-266 -3920 0
2270 -2347 0
-3385 -931 0
-775 -1763 0
1341 2701 0
-1136 -1212 0
-3057 -4360 0
-1633 -667 0
-1223 1129 0
-119 -4518 0
-4469 4276 0
3439 967 0
3884 -435 0
1277 410 0
-3454 4319 0
338 -4387 0
-425 3377 0
-831 102 0
2599 990 0
-664 -180 0
-2552 1682 0
-3828 -2614 0
2521 -2349 0
1927 -2898 0
-287 3501 0
3705 4018 0
1840 -610 0
1059 -4037 0
2917 530 0
-4069 4255 0
-3363 3439 0
-2596 3474 0
-1332 -2333 0
-4358 2236 0
-3366 3550 0
1732 3051 0
-3988 -3494 0
1694 4502 0
-3004 -1362 0
1437 4606 0
-435 2982 0
3519 -1987 0
-3467 4532 0
3966 -2498 0
-4308 2717 0
3301 -1163 0
1155 3076 0
4106 -1078 0
2409 677 0
-3114 4088 0
-3819 1857 0
-327 2221 0
-1635 2918 0
-1771 -1960 0
1132 -4139 0
-1215 -1143 0
4588 3831 0
4169 4147 0
3547 911 0
3247 -1236 0
-1357 2047 0
2726 -2151 0
-2989 1796 0
-2248 -3666 0
2550 1185 0
-2913 585 0
1775 4377 0
-1264 -2303 0
-2484 2095 0
3626 596 0
-3299 246 0
2349 -2952 0
3892 4300 0
-718 3562 0
2757 -3818 0
1490 -118 0
-4024 -192 0
-4608 -2759 0
-2253 1955 0
25 328 0
-2639 315 0
2620 -3376 0
-2788 4334 0
3578 -1560 0
545 1999 0
-764 -1205 0
-3384 -4592 0
322 3091 0
3281 -3324 0
-2703 -3412 0
4048 2227 0
701 -1204 0
203 239 0
-3171 3510 0
-4610 870 0
-3181 66 0
2746 4340 0
-1377 -1427 0
520 1190 0
-241 -2126 0
-4096 -2771 0
-2713 3332 0
-3392 3006 0
-1517 4431 0
-2744 -3251 0
3364 -2264 0
4606 -3688 0
-2027 2598 0
3848 -1410 0
-532 2954 0
3065 -46 0
4009 -2223 0
-1162 2294 0
-4291 -2535 0
-217 -4601 0
-3819 3105 0
2947 -4519 0
1153 1246 0
1814 -4031 0
-2075 -28 0
3915 -777 0
3847 1746 0
-365 445 0
2946 3538 0
-4075 3608 0
-501 -3935 0
-4066 -666 0
1132 -1964 0
1195 -3657 0
1554 4247 0
2664 -1225 0
-3132 1018 0
-1212 45 0
-4600 -2801 0
911 -3223 0
1544 -2590 0
3258 1198 0
-2592 2720 0
-398 796 0
-816 4361 0
152 1430 0
-2682 -116 0
-4362 679 0
-2378 3183 0
-3659 -3855 0
3016 2245 0
-3291 3673 0
1751 -1117 0
-2398 4134 0
-1120 2500 0
-2378 -3219 0
2091 -495 0
-4443 -1981 0
-3064 2463 0
-3958 3595 0
3492 -3292 0
-1143 -2839 0
2299 -2562 0
2399 -1089 0
-1187 1647 0
3371 -4294 0
2567 785 0
1465 2573 0
-718 3186 0
-1764 -23 0
2845 -3556 0
-755 -1151 0
-4175 2433 0
-2675 -1686 0
213 4040 0
1043 3312 0
1083 -495 0
3754 3734 0
-1470 2959 0
-2902 -1187 0
968 1176 0
-1590 -3008 0
-3505 -1501 0
-2157 -139 0
4294 -1322 0
262 4383 0
381 -478 0
4179 -1889 0
-1698 4322 0
3816 -3522 0
1853 -3590 0
-1798 2901 0
2771 4155 0
1266 -1363 0
1929 2738 0
1735 -2434 0
-654 -1396 0
51 -2920 0
-2308 -4235 0
-441 -2188 0
-2364 -2515 0
4548 -1935 0
-2412 -1368 0
-502 -2046 0
-1895 -3006 0
-3659 -8 0
1482 4296 0
3368 3325 0
-391 1924 0
-2290 2221 0
1435 1393 0
3660 44 0
-695 -2936 0
2297 4141 0
-788 1942 0
3604 4034 0
3376 152 0
811 -1572 0
528 1983 0
4526 -2370 0
-273 3966 0
1351 -144 0
2407 -3383 0
-3760 1715 0
1661 1756 0
-885 -22 0
-2700 547 0
3379 24 0
4225 742 0
-1533 -473 0
-4112 -3034 0
-760 1182 0
-4309 2540 0
1491 4539 0
4018 -1124 0
-1997 -1107 0
-1508 -3207 0
-846 2144 0
-3641 -596 0
2788 -3412 0
-1558 3849 0
-1656 -3528 0
1680 1904 0
1393 -3712 0
-2533 2166 0
1910 2800 0
2018 3395 0
1537 3410 0
3547 3557 0
-4240 -3630 0
-4063 -2044 0
1712 -4434 0
2005 956 0
156 -3563 0
-3024 4474 0
-2044 -2650 0
-1066 -819 0
1660 -1405 0
-699 2058 0
3922 -4506 0
1783 -1669 0
-3040 -4414 0
2964 1087 0
-1815 1298 0
-103 -4205 0
4279 -769 0
2856 4441 0
-1770 -55 0
-2948 3356 0
-3127 -2623 0
882 -1966 0
1450 -1638 0
1680 552 0
-361 1682 0
2972 -3490 0
-4016 -2140 0
2999 -4350 0
937 -128 0
4236 3380 0
-995 -3523 0
-4339 -3601 0
-1800 3325 0
-1564 407 0
477 3379 0
3651 2220 0
-2920 789 0
453 -4250 0
582 3431 0
-816 -4403 0
-2788 -1473 0
3506 -4616 0
-585 -1383 0
470 1732 0
1024 4627 0
-3791 -169 0
1840 -3203 0
3974 -1232 0
127 3568 0
1227 -3771 0
-3921 2644 0
3404 -3877 0
1064 -2513 0
-262 2355 0
2202 -310 0
2063 -2827 0
2186 2966 0
-461 -95 0
-3576 768 0
-3085 -3429 0
3182 69 0
-347 -3674 0
494 2243 0
-993 -2978 0
2237 414 0
304 -2674 0
2158 -2788 0
-1642 -1149 0
-83 4083 0
3961 -365 0
-395 4103 0
2 -447 0
714 3370 0
-1344 -2653 0
4473 -3865 0
4032 -1093 0
-1456 4431 0
3828 1002 0
4055 2577 0
-4211 -1980 0
3382 -4567 0
4427 -913 0
-41 -191 0
2424 -3907 0
-3348 -2841 0
-3279 -715 0
-3756 4281 0
-241 -3079 0
3308 1867 0
2732 700 0
-1556 -4354 0
4468 1030 0
4034 2018 0
742 -3653 0
-2998 1575 0
-1138 -49 0
-326 -1490 0
3657 -4002 0
-1633 -4199 0
4138 3187 0
4406 140 0
199 -1263 0
-33 1867 0
105 3818 0
4055 -1426 0
-507 2402 0
-3509 4532 0
-2791 -4625 0
-813 -3459 0
4547 -3123 0
-3613 -3991 0
1902 3742 0
958 -183 0
2663 -2905 0
1048 -3469 0
-2401 -2503 0
-858 -3127 0
4443 -1849 0
-4225 1097 0
-3379 957 0
3006 1396 0
1938 2637 0
1710 -2042 0
-1643 -259 0
4622 -555 0
2005 2482 0
3585 412 0
544 -2921 0
-3839 1277 0
2817 -4207 0
-1961 -2904 0
2837 -3049 0
4167 -3414 0
-2266 -1593 0
-1120 1429 0
2537 -1069 0
-3326 -2341 0
3042 974 0
811 1885 0
2343 -3323 0
591 4020 0
-1063 780 0
-4247 -3457 0
-2622 3539 0
2025 3503 0
1651 4548 0
-1473 246 0
2919 -3446 0
3458 -1958 0
2656 2880 0
2241 1577 0
-2531 -3904 0
-1708 -489 0
-3227 -2375 0
155 1196 0
-3222 -4362 0
3682 -1070 0
2523 3376 0
2567 2983 0
-1028 605 0
276 -3739 0
-3988 -9 0
1644 3742 0
2424 -4316 0
-737 194 0
2840 -3265 0
1041 -3673 0
-3855 3878 0
3234 -4098 0
1153 3782 0
4582 4188 0
-494 -3349 0
2501 3731 0
-1294 4447 0
-2859 4489 0
-1535 -3909 0
-4523 442 0
2763 2738 0
-3151 -508 0
-1534 -4207 0
1653 -1454 0
525 4389 0
1526 -3975 0
-2976 -3951 0
804 -1067 0
-1338 1715 0
-843 3681 0
-692 2700 0
3339 1876 0
-3828 212 0
-3124 -759 0
-4190 -3610 0
2678 -1236 0
-2701 -1594 0
-2828 1230 0
3995 3572 0
1696 -4023 0
523 -1505 0
1514 4374 0
3479 2134 0
4453 -1095 0
3443 -3957 0
3331 -2888 0
2419 1326 0
2655 1280 0
3098 3312 0
-1355 2614 0
2397 -1425 0
-3472 1759 0
2668 -3927 0
-2669 -2391 0
-1831 -2416 0
1295 2294 0
-348 -1628 0
830 -3120 0
2531 2003 0
-2122 -1501 0
314 -1804 0
3644 -2333 0
-1775 -51 0
-3967 -169 0
-1942 -4016 0
-3730 297 0
125 -2327 0
-3875 -3175 0
4517 4021 0
3550 -3003 0
1264 1705 0
-1554 4588 0
2326 895 0
3382 -2566 0
2213 2792 0
-1478 -1259 0
-1981 2953 0
920 -1561 0
-1695 3066 0
-2244 -825 0
2760 -2728 0
-1571 667 0
-2562 2882 0
2124 -873 0
1088 2159 0
-1570 1573 0
-3592 2583 0
-1219 -1621 0
2367 -2034 0
4412 -864 0
-3066 756 0
-250 -2541 0
2450 4043 0
-1950 -2596 0
-358 4147 0
1407 -439 0
2830 -3011 0
274 3424 0
-661 -3341 0
1509 -1067 0
2939 -473 0
2310 -3909 0
-3503 1312 0
3766 464 0
4086 -2150 0
-1686 4342 0
-4573 2437 0
2452 4213 0
-18 486 0
4389 2245 0
3503 -3242 0
-3837 181 0
-713 -4587 0
1263 2544 0
-2992 1378 0
1639 3150 0
2712 92 0
-4112 -550 0
-2056 3306 0
-314 3445 0
466 3626 0
4403 189 0
3461 1200 0
-1564 -503 0
-3427 1807 0
1688 -3845 0
1043 4548 0
-1664 2792 0
-513 1360 0
3727 -4229 0
1124 -1028 0
827 -2844 0
-4307 -3443 0
-488 3620 0
1545 -950 0
65 4052 0
3076 4361 0
-1676 2761 0
694 928 0
-4337 -3880 0
3702 -1536 0
-1167 60 0
-2106 -3759 0
4156 3811 0
373 3631 0
-1563 4529 0
619 -3449 0
1562 -3596 0
-1036 -2510 0
3431 3975 0
-3165 724 0
1520 -1664 0
4234 -1239 0
1193 -3452 0
4187 4427 0
2673 -2100 0
1375 -303 0
-4461 -3499 0
-3734 4431 0
-1089 -1984 0
2084 -4116 0
491 -544 0
-2402 -2605 0
-3875 2607 0
2660 -4375 0
2305 851 0
2458 433 0
1366 -3417 0
-3716 75 0
3560 936 0
2799 -1409 0
3726 -420 0
-739 -1349 0
-3514 154 0
-727 -181 0
-3346 -1044 0
1150 -2946 0
-3658 -1160 0
-12 -1883 0
2570 1319 0
-443 -2399 0
-1768 3232 0
2992 -2624 0
-1726 -495 0
1524 2117 0
-92 4575 0
-2155 -571 0
4602 -480 0
2666 -364 0
2307 3741 0
-493 1192 0
1208 1030 0
2888 -457 0
-1218 2536 0
3570 1375 0
4156 -1419 0
661 278 0
885 -3087 0
1466 8 0
-4609 4588 0
-2755 -931 0
3989 2578 0
-956 2989 0
603 -1549 0
386 -1769 0
-2273 -4171 0
603 -3503 0
4309 -2872 0
-1111 -2377 0
-4305 2082 0
4351 3861 0
1452 3094 0
48 2541 0
3682 851 0
1429 852 0
4173 -4514 0
-2954 -2732 0
1416 -4216 0
-3572 -1937 0
-4621 -386 0
-504 1958 0
-2491 -4056 0
2045 -3349 0
-2034 -31 0
-1657 -2428 0
1054 4120 0
-3439 1995 0
2589 650 0
1810 1120 0
-1035 -1010 0
-1717 -2020 0
-325 241 0
-1146 916 0
3279 4077 0
4249 1147 0
2142 -3223 0
2395 -3850 0
4478 186 0
3353 4321 0
1141 -636 0
3268 4387 0
-3860 1945 0
49 3743 0
-1122 -277 0
-1339 3426 0
-3837 -3012 0
1926 -2092 0
-1172 4177 0
3409 -3074 0
-3331 2500 0
-12 915 0
-1884 -3613 0
2680 3729 0
4206 -4555 0
4589 -2536 0
-3449 -3901 0
-3237 -1350 0
-4213 -4188 0
4275 920 0
-3706 -1245 0
323 3938 0
-1631 2201 0
239 557 0
-3347 1377 0
-3446 -87 0
-218 -4463 0
2525 1535 0
411 2081 0
-1285 -4380 0
1114 2872 0
-3091 -2381 0
3455 -4076 0
122 -2191 0
150 -439 0
-1616 3974 0
-2348 1409 0
598 -4390 0
1536 -1572 0
2113 -769 0
1179 3269 0
3402 2474 0
2593 3014 0
1039 4621 0
2273 3558 0
-1274 835 0
2227 4083 0
-4425 948 0
-1413 -2683 0
1871 4420 0
4442 -234 0
-4534 -541 0
-695 3823 0
2144 -3717 0
-4006 -1014 0
-1985 -3546 0
-534 -3099 0
2365 -4213 0
-1724 3885 0
-1309 -747 0
-2010 629 0
-2201 4548 0
-4095 -3186 0
3427 3882 0
4000 358 0
4216 4163 0
-2377 -2163 0
-40 -3032 0
3245 -3282 0
4466 -2302 0
4378 -2011 0
-1880 3668 0
-2706 -195 0
2516 -2248 0
2262 -2635 0
-1586 -1511 0
-4343 -4204 0
-970 3424 0
3154 -1778 0
-1549 -3817 0
-2132 1331 0
-3534 -1748 0
-1874 -202 0
1664 862 0
-4485 3500 0
-875 4148 0
2912 2722 0
2403 110 0
922 2720 0
-72 2979 0
1628 -1124 0
-3791 -2801 0
-2888 -2069 0
-88 -3326 0
-530 -815 0
2947 -901 0
-4527 -4298 0
1686 911 0
-1135 -1126 0
-3456 -2341 0
-413 3477 0
-3234 3937 0
-1862 2414 0
26 4190 0
-2744 1347 0
3491 435 0
-3123 421 0
4539 3982 0
3426 3878 0
-2091 -1309 0
1245 156 0
3613 1958 0
-2604 -4455 0
-493 -2376 0
2933 804 0
2621 -1824 0
2500 2789 0
-3256 -2257 0
-3516 521 0
-1284 3928 0
2816 -3421 0
4446 2532 0
1899 1866 0
-3014 -957 0
-2468 2447 0
-2302 -3610 0
-2087 2575 0
-44 -1707 0
415 -2674 0
3497 2419 0
3182 -3398 0
-4006 -3866 0
3162 -3793 0
-580 -4552 0
1256 -1955 0
1686 -2408 0
-139 4175 0
998 -66 0
-44 -371 0
-2226 3471 0
2280 3093 0
25 -1270 0
4268 -1334 0
-2788 -2707 0
3698 -2269 0
352 1477 0
-17 2449 0
-3681 -1624 0
2666 -1575 0
2119 -1828 0
-4623 -974 0
4344 -1113 0
-4130 -1972 0
-3296 -2554 0
1816 500 0
4412 -2406 0
3680 4081 0
-1143 -113 0
-2143 -2674 0
-3290 1877 0
2209 4113 0
2810 1558 0
-273 -4139 0
2038 -4592 0
-140 3320 0
382 3853 0
-601 219 0
4523 2054 0
-2402 -2708 0
959 -2151 0
-607 3 0
-544 3332 0
3827 4377 0
-1962 2352 0
1446 3522 0
3179 4157 0
3339 3841 0
-929 -3933 0
-4241 -2415 0
-1611 2637 0
4497 966 0
-2025 -4185 0
-2791 2964 0
-118 3149 0
2002 -2699 0
-810 -3422 0
1876 -1222 0
1159 -2793 0
-543 3327 0
1055 1067 0
-951 -53 0
-1113 -1386 0
-1620 -1784 0
-1443 4417 0
2305 1889 0
3803 -914 0
-96 -877 0
-1044 3626 0
-3296 4170 0
3666 3332 0
398 -3110 0
-803 -1607 0
-1550 3708 0
-2349 834 0
-1649 -3658 0
-1869 2452 0
-2713 702 0
-3837 -4351 0
-100 -1766 0
-1247 1580 0
-378 -4027 0
-1713 2503 0
2299 665 0
4028 3969 0
-2472 2900 0
2716 -2337 0
-3082 -362 0
203 -3964 0
-4019 -2797 0
2366 -192 0
-2163 3490 0
-3195 1789 0
506 3962 0
3485 2462 0
-397 -1724 0
2301 764 0
457 -631 0
-3760 -3359 0
-3279 1716 0
-4395 2446 0
1317 -3283 0
-2410 4334 0
-3676 -4140 0
4374 1569 0
1101 1534 0
-1047 225 0
1720 243 0
4073 4389 0
-4047 -497 0
-1607 -3807 0
-4365 2153 0
1288 3274 0
1534 -4604 0
-1635 -2377 0
1081 -1840 0
-1350 -4175 0
-392 -304 0
1295 -182 0
4222 850 0
-1161 1524 0
-3586 -2765 0
-508 1802 0
689 -2653 0
-4467 2503 0
-18 -1762 0
2743 -567 0
4475 -420 0
-2744 -1755 0
-1523 1035 0
-703 2488 0
3593 -2101 0
-3866 4366 0
-245 1863 0
-68 -1005 0
-1151 -2409 0
-4425 4424 0
3600 -3569 0
2744 2252 0
-1480 -4318 0
-252 152 0
-4385 1654 0
4336 -2398 0
3798 560 0
2789 2792 0
-1919 3966 0
-300 -2907 0
3405 -176 0
1497 -1618 0
-425 3441 0
3067 249 0
-3033 -1502 0
-4166 729 0
1904 4497 0
-2105 -1608 0
477 3513 0
1000 -1881 0
-4597 -4446 0
-750 -2985 0
1598 4438 0
1607 2170 0
-590 133 0
1728 1417 0
-2373 -3220 0
-2156 -1323 0
3712 3158 0
-3383 -1007 0
-952 -1100 0
4392 1615 0
1241 1915 0
-1337 1026 0
3102 41 0
2719 -574 0
-903 3432 0
-3504 2162 0
2068 3131 0
-4304 4572 0
-1347 4259 0
2175 1852 0
2778 -1174 0
-3285 1702 0
537 -1148 0
-1177 3837 0
961 3211 0
-155 4524 0
-1786 2156 0
-3299 -1452 0
-2707 473 0
-3012 3645 0
444 -3398 0
1307 -3110 0
-3454 719 0
-3146 535 0
-1039 1817 0
1436 4021 0
3134 3443 0
-206 -3552 0
-2813 -3910 0
1670 -1671 0
2861 -2215 0
3194 719 0
146 3992 0
-484 -3645 0
-2988 4453 0
-2639 4015 0
-1669 1782 0
1284 -3003 0
1488 28 0
-2714 -2801 0
-4558 -4075 0
-1788 -611 0
-3147 -3131 0
-195 -864 0
1466 4115 0
-1067 -1488 0
2937 3143 0
-4485 529 0
-3963 2593 0
-625 1437 0
3286 92 0
-2208 4500 0
4194 -3031 0
-1625 3984 0
3949 -1448 0
877 -1381 0
-3355 669 0
70 4235 0
-224 -3700 0
-795 495 0
-3802 3781 0
449 253 0
3040 -299 0
3944 1750 0
3511 -2314 0
3509 -2180 0
-2977 2999 0
-601 -1797 0
2974 1827 0
-3854 -2733 0
-754 -166 0
882 -515 0
-1145 -2762 0
-3234 -2080 0
2483 -950 0
-4007 -377 0
-570 -3218 0
-1359 -2380 0
-4568 2133 0
1552 -4267 0
1333 -1172 0
3453 1131 0
-3820 1899 0
3088 3938 0
-2466 3160 0
2786 -3966 0
-1465 -1843 0
3842 -631 0
3219 3743 0
-1309 1040 0
2534 410 0
-3119 3917 0
-3513 -1969 0
-4376 1401 0
-2375 2549 0
3310 -4443 0
3042 -3735 0
3093 2134 0
2611 1644 0
-3244 3560 0
2004 -2027 0
1060 -84 0
1864 -3760 0
-2313 -507 0
-2339 -1409 0
3954 -326 0
1946 4574 0
-3630 -2851 0
-4625 3191 0
-3102 3931 0
391 3477 0
4442 423 0
-1757 -1095 0
-148 1538 0
254 1484 0
-1903 -1614 0
712 363 0
1631 1260 0
2146 -1252 0
-4187 3754 0
-365 2073 0
4129 889 0
3628 255 0
342 -4522 0
4424 531 0
2814 -504 0
1952 -1671 0
3951 3403 0
2511 -922 0
-1827 90 0
-2737 1692 0
-3639 4317 0
2540 -4584 0
415 -3218 0
-3762 -4580 0
1137 1328 0
4133 1886 0
-1285 -3249 0
-413 3621 0
1366 4486 0
-4454 -1721 0
2271 1716 0
2272 -3903 0
-2306 -781 0
1203 -2092 0
1683 -443 0
4146 3486 0
-1550 -210 0
-2689 -2013 0
-954 -226 0
-2186 -3074 0
-1036 -3845 0
-4320 2696 0
1313 -3673 0
2789 55 0
2010 614 0
2288 -4032 0
4143 1495 0
-1027 1504 0
1261 -1948 0
1042 3311 0
-886 2632 0
-3753 603 0
3379 -2815 0
-2998 -2870 0
-594 -3063 0
4074 -3201 0
4094 -4319 0
-2849 1051 0
-962 608 0
-3381 1590 0
-2055 -2890 0
-495 -2166 0
2795 -3081 0
-427 1176 0
-3533 3584 0
-1513 3757 0
1887 -4341 0
2705 -3031 0
4408 -963 0
-2502 1170 0
-301 3920 0
-4005 3559 0
-2357 145 0
1338 -1077 0
-126 1697 0
1495 -711 0
3926 2874 0
4258 4093 0
-1680 1732 0
4506 -2375 0
-975 3533 0
1878 -2424 0
-2394 4099 0
412 -301 0
3243 -494 0
997 -463 0
-2046 2724 0
-526 -4313 0
-1444 1985 0
1682 -3136 0
-1544 3621 0
-3700 -1028 0
1031 2099 0
3193 2797 0
3863 -246 0
381 -2673 0
3380 -2438 0
-2940 3046 0
-2583 1880 0
-668 -2819 0
-1726 -3592 0
2775 -1505 0
4092 4155 0
3975 3957 0
-3039 -4558 0
4624 -3948 0
972 4227 0
2797 4452 0
3659 34 0
-4358 1581 0
1812 -3106 0
1615 2388 0
-426 2306 0
4025 -1881 0
3046 -1435 0
-278 -3285 0
-1548 270 0
1051 3899 0
-3066 694 0
-2791 2664 0
2795 -3041 0
312 -3588 0
-910 151 0
-1075 -82 0
-1102 -4145 0
-2421 3422 0
-1077 2116 0
-1128 -3334 0
3960 2897 0
2289 -1633 0
313 2547 0
-2399 -3681 0
-3054 1482 0
-3905 -3680 0
2576 -1617 0
3033 -4436 0
663 -2815 0
4088 -3437 0
1868 2334 0
3890 -4545 0
1039 2479 0
-2339 222 0
-4067 -841 0
-3386 -631 0
-1304 2516 0
-602 1676 0
1240 1847 0
4039 -1845 0
3274 3634 0
239 546 0
-816 -2489 0
-2054 3970 0
-1345 -395 0
939 -3147 0
1120 -768 0
2618 4219 0
-1477 4432 0
2426 -3359 0
-4464 -606 0
2546 -3920 0
2388 -4426 0
-3003 -936 0
2700 2624 0
778 -4398 0
3671 -851 0
2749 -3191 0
-2632 3644 0
-2627 -3136 0
253 4320 0
1293 3880 0
-4012 3127 0
1381 1457 0
3999 3334 0
-3500 -4534 0
-3844 170 0
1715 1312 0
4047 -240 0
3591 3840 0
-4472 3947 0
-610 -4554 0
-1426 -503 0
1659 -2622 0
-893 1991 0
-3876 -2602 0
1069 822 0
-2682 4535 0
-566 -4510 0
-2175 1854 0
-2859 4233 0
-585 3422 0
-4618 4127 0
-4107 -2833 0
-2596 -1770 0
24 -1265 0
-2922 -1400 0
4007 -1081 0
619 -2564 0
1729 -2491 0
-1116 -2068 0
575 1691 0
1385 2623 0
-1393 1858 0
-3609 2063 0
-501 3632 0
-2722 2912 0
-2269 -1942 0
-925 1295 0
2507 -4424 0
4241 -3123 0
-4208 -4512 0
-2747 -2585 0
2874 -1776 0
2018 -751 0
1843 -1713 0
-3690 -2753 0
3525 3732 0
-540 1134 0
1974 -969 0
1046 -3481 0
3165 3635 0
-2669 -1533 0
2985 -1133 0
2339 -1380 0
-1176 -2353 0
2224 -1646 0
-1632 267 0
3205 3122 0
2992 -90 0
3506 -890 0
393 4598 0
2701 -1462 0
3119 1539 0
3152 -2500 0
-1161 -3153 0
-2888 1323 0
-4109 3843 0
-442 -3069 0
-1371 -2041 0
2848 -1151 0
-2079 -4419 0
-1215 2835 0
1952 3770 0
-1949 2856 0
41 -1121 0
-2958 1341 0
-2264 -4407 0
988 1447 0
2537 -3602 0
-253 522 0
-2017 -3165 0
-300 907 0
4626 2654 0
-3350 -925 0
3981 -2365 0
2357 1805 0
-2542 -3392 0
2446 -4372 0
-2457 4453 0
2312 -756 0
1105 2654 0
4143 -2798 0
4512 -2428 0
-785 -3103 0
184 4426 0
-374 4242 0
-423 390 0
1828 4177 0
1043 -994 0
-497 1716 0
-4618 -4219 0
1787 3194 0
-2085 -2011 0
-3890 721 0
-3193 -715 0
753 -126 0
2452 2158 0
2817 -2952 0
2072 -2321 0
3568 148 0
3568 3879 0
48 -834 0
-897 2304 0
-793 -2051 0
3536 3080 0
-2548 3942 0
1899 4039 0
3555 1800 0
-2888 683 0
-952 2138 0
-2950 225 0
-757 3513 0
-2613 -269 0
-2265 -2381 0
-1428 -753 0
-3721 -409 0
3051 -623 0
2572 -1768 0
-1100 -320 0
4104 -3401 0
877 -2943 0
4166 -1475 0
3774 4516 0
-1270 -3205 0
-881 -3713 0
1596 -2453 0
-3319 2319 0
-1353 1822 0
-1048 3005 0
3538 452 0
-3352 -506 0
-165 -2717 0
-1274 -2639 0
-4396 2303 0
-4080 -4285 0
-1947 3312 0
2367 2087 0
-3235 679 0
3754 297 0
-4273 -969 0
3545 -4472 0
-2862 2076 0
1327 -266 0
874 -902 0
-883 -969 0
-713 -911 0
-3692 -1242 0
-4578 -520 0
-2297 1702 0
-909 4100 0
-1881 -120 0
-2924 3654 0
-3659 3275 0
-1962 2817 0
2172 -1766 0
26 2317 0
-3420 3578 0
-459 2569 0
-1735 -2286 0
-4554 2223 0
4594 -630 0
-1111 -3179 0
427 -1427 0
2224 -3952 0
-1895 -2823 0
-3755 -2422 0
-3469 2110 0
3690 -1736 0
39 1296 0
334 1064 0
3798 -2822 0
1705 -3970 0
-2282 -1887 0
-1232 -3730 0
592 4058 0
-162 4594 0
-4287 2019 0
-2302 1221 0
1964 3264 0
-3381 2266 0
1889 3193 0
130 3666 0
613 1368 0
2891 -4611 0
926 -2496 0
-72 -2047 0
253 -1318 0
-2609 113 0
3767 -1072 0
-4147 353 0
-2759 2263 0
-1449 2379 0
-2583 -2401 0
-4569 -2790 0
528 3388 0
-3744 -715 0
-4474 4532 0
3939 -33 0
-2891 -2122 0
-3464 -304 0
-1983 3465 0
-29 2361 0
-199 -2747 0
-58 -4045 0
-1237 -3964 0
-558 -2953 0
1441 3491 0
4487 -896 0
-2245 -3728 0
3319 -330 0
-3367 2219 0
-2411 4470 0
-4502 -1172 0
2938 -3014 0
1887 -2175 0
-3489 3931 0
85 306 0
860 -2486 0
-2171 1345 0
85 2757 0
-1143 3626 0
2414 3932 0
-2101 -4491 0
966 2419 0
1486 4434 0
-337 3928 0
2435 2618 0
-511 -2639 0
338 -727 0
3089 -397 0
744 -2560 0
-4602 2079 0
-3455 -3358 0
-3074 3971 0
-1270 -4095 0
1481 3056 0
811 -1629 0
-1138 2454 0
2067 -3826 0
-586 -1066 0
-3168 -4350 0
-1707 2335 0
-3968 -4447 0
2018 -1077 0
2147 -2395 0
1084 1762 0
-3299 -915 0
123 2362 0
3799 -2247 0
1527 -3230 0
-3875 -2995 0
655 -916 0
-4037 -2440 0
3531 3472 0
-1877 -4346 0
4487 4524 0
-2104 2590 0
2975 572 0
-939 2484 0
2573 -473 0
2719 -4093 0
-2997 2590 0
3598 4416 0
-1360 3450 0
3231 934 0
-4198 4065 0
1718 3810 0
1460 -1551 0
-1492 -2315 0
-965 -2971 0
-2376 -2463 0
-4475 1366 0
305 -2940 0
-1624 -2648 0
-1713 -3877 0
-3367 2651 0
-3645 408 0
-1751 1858 0
-867 281 0
1376 -2169 0
26 -1614 0
693 -1646 0
-9 221 0
598 4409 0
1060 124 0
-4002 -2206 0
1674 -1123 0
-4617 -2560 0
-2944 2852 0
-3350 3642 0
1794 -4562 0
3293 -2958 0
-2032 -517 0
-2798 598 0
-2216 4034 0
-2894 1854 0
237 -4032 0
3857 -1916 0
-2890 4232 0
3443 592 0
-3901 -377 0
-500 816 0
-1917 -2126 0
1706 4487 0
-4469 -996 0
-4449 -1997 0
-416 4161 0
4560 -2282 0
-1304 2113 0
-3038 1394 0
-2239 156 0
-376 3241 0
-4495 1866 0
2859 -3561 0
3507 -3907 0
1130 506 0
-3008 -67 0
3761 -3814 0
-3225 -4256 0
-1502 1260 0
3324 634 0
-1706 941 0
3128 -2086 0
4059 4195 0
2598 437 0
1573 3486 0
337 3667 0
3301 1325 0
1823 -1243 0
-4338 -3354 0
-3354 1709 0
-4627 3640 0
1557 -2819 0
3768 -746 0
-2875 -1103 0
2720 -4615 0
3806 2953 0
1555 -1208 0
1581 4173 0
-102 3152 0
3269 3689 0
1179 -3750 0
-3012 -1937 0
4269 -1095 0
-2230 534 0
-72 2685 0
-333 -1075 0
-1264 -1147 0
-370 -2487 0
2886 -171 0
-1822 -2395 0
-3518 328 0
-4258 -3717 0
-674 -197 0
-1635 -2074 0
-3847 3266 0
2811 3334 0
-314 -1032 0
-1947 889 0
3701 4309 0
-4103 -4054 0
2058 -1535 0
-1936 -1919 0
1966 -152 0
-804 3443 0
3343 -4613 0
-4098 -2476 0
4163 -1181 0
1954 -346 0
-1236 -2917 0
1059 -82 0
-2797 -2823 0
2843 -1759 0
-2890 3492 0
-3861 -4293 0
4005 -695 0
2355 -3838 0
891 -3715 0
121 1727 0
2572 1642 0
-4283 2955 0
-2447 614 0
3511 3878 0
-601 -1199 0
-870 882 0
-1137 -2098 0
2856 -4311 0
2065 1543 0
-4213 3566 0
-4485 -433 0
-457 -4359 0
-22 -3300 0
4263 4413 0
-2640 1499 0
892 -1490 0
-1759 1009 0
4235 -1956 0
-1349 4014 0
1675 1471 0
1861 3721 0
-526 800 0
2480 4515 0
1818 1603 0
1067 2130 0
3533 4161 0
2656 3703 0
3648 2682 0
1625 1021 0
4116 -3048 0
-470 404 0
-4611 -675 0
2521 -1480 0
2033 -847 0
3005 -2619 0
3820 -1969 0
-2375 -682 0
-3452 70 0
3563 -368 0
-4266 -1849 0
-1512 4138 0
2748 1298 0
-3822 2477 0
-625 2842 0
-2039 -868 0
3847 -3610 0
158 2935 0
-2674 -2253 0
-1321 1242 0
2563 3976 0
2728 3899 0
-2479 3437 0
-1160 -1505 0
-1825 -142 0
-4342 452 0
1273 1071 0
-3654 -2576 0
2343 3117 0
614 674 0
-375 -1862 0
382 580 0
-1563 4254 0
3192 -4450 0
-1593 1944 0
3884 -4203 0
-1199 -1107 0
-400 2306 0
-32 -2248 0
2088 2516 0
-544 3482 0
3543 -376 0
-2054 -688 0
2804 -3952 0
-2959 3779 0
-2825 3195 0
-1986 2464 0
560 4280 0
883 1630 0
-2254 1564 0
243 -3690 0
2929 1003 0
353 -724 0
4314 2585 0
-1945 3286 0
-2468 3907 0
-1663 2658 0
2247 -1511 0
-3226 -3480 0
-3390 -3703 0
-3155 55 0
-1431 1976 0
-1200 4274 0
-3973 2875 0
-2473 -1408 0
480 -3951 0
360 -2758 0
-3748 -845 0
-3015 995 0
-4538 -65 0
-1339 2951 0
-320 -2659 0
-2801 3902 0
-671 -2265 0
2045 1018 0
-4405 -4052 0
-4566 3212 0
-1579 787 0
-704 2593 0
3006 -3868 0
-2821 -17 0
450 55 0
-2395 -1613 0
1665 -2122 0
-3801 2471 0
1035 -1552 0
-1567 -3253 0
2757 -2415 0
419 -333 0
2193 -2806 0
-4096 -2372 0
-1150 3934 0
1795 1235 0
-1897 -2901 0
-2365 -3719 0
-136 1813 0
-262 2089 0
-178 -3955 0
1900 -2794 0
-1528 -2166 0
-1691 709 0
3055 2488 0
-4579 -2094 0
-4065 4196 0
3865 4416 0
782 -4616 0
-2600 4390 0
-1755 -1706 0
3279 2401 0
-1619 3028 0
598 2252 0
1743 4370 0
665 3120 0
-3106 590 0
-2457 -2608 0
-1528 3280 0
-3162 3914 0
-4278 -2172 0
-2277 -1733 0
-4204 -3181 0
-4076 162 0
-664 2769 0
-1143 -3103 0
2643 -2443 0
1698 -2428 0
1510 -533 0
3498 4044 0
2889 -1985 0
4137 -2198 0
-3934 -2327 0
1277 2351 0
-4467 2912 0
1696 1868 0
-343 -951 0
4235 1868 0
-214 3387 0
600 -976 0
1719 363 0
-532 -696 0
-2289 -3513 0
549 354 0
1388 -3176 0
1423 -1380 0
-2436 -4030 0
2431 1775 0
-3980 -539 0
-3895 2678 0
530 1582 0
-19 -1259 0
3620 2760 0
-2136 -2205 0
568 4393 0
-3590 -2182 0
-2500 -3832 0
2462 -3838 0
-2922 2371 0
2722 1391 0
2738 -3607 0
-3606 3165 0
1775 4172 0
2156 -1394 0
2013 -4035 0
-2437 1497 0
-1651 -4471 0
3823 -995 0
-3926 3373 0
190 -3117 0
225 1606 0
2907 563 0
-689 3724 0
1761 -2633 0
-370 3744 0
-3049 -3631 0
-436 4517 0
459 -3326 0
323 -2135 0
4550 537 0
-1558 -3577 0
-2790 -2884 0
2742 4031 0
-2383 602 0
-2098 -1682 0
-745 -590 0
4212 3546 0
978 820 0
-3405 -2621 0
858 -3728 0
2163 3140 0
97 -1376 0
-4339 3200 0
4623 -3618 0
-1764 -1413 0
380 1532 0
-1569 -3393 0
4592 -3968 0
-919 -1978 0
2693 903 0
-1817 -2397 0
-2010 -2755 0
4548 -2555 0
1670 -4205 0
-3467 4528 0
-4419 3945 0
286 -2266 0
-1464 -179 0
-2790 -3455 0
-2850 1773 0
2059 1461 0
-1396 -1473 0
-1803 -833 0
-4321 -2718 0
-951 -1102 0
-450 -304 0
1961 -3352 0
-4163 -3898 0
1634 -2305 0
-178 1206 0
2005 -4544 0
1577 -1867 0
-2528 -1026 0
-3047 1476 0
4184 4033 0
4104 -497 0
-2730 330 0
-581 2458 0
2067 -3963 0
3570 -2043 0
2099 -4063 0
-1100 2957 0
3017 1929 0
-2796 4509 0
349 307 0
352 -1343 0
-65 -4230 0
-3026 1031 0
-3862 4428 0
2434 -571 0
2073 2824 0
-904 1885 0
380 331 0
-1428 4577 0
785 -2215 0
-1772 4570 0
2670 3318 0
-678 -3925 0
1750 3397 0
-113 -236 0
2187 4194 0
-179 3076 0
417 3748 0
892 -4216 0
654 -4006 0
-2798 -4582 0
3111 1611 0
-1322 3200 0
-4471 -2961 0
1315 2099 0
521 1283 0
-2935 -2898 0
517 -490 0
1156 2332 0
3488 -4607 0
-1599 4172 0
-287 -2438 0
1685 1716 0
-2405 -958 0
3317 4438 0
4026 3308 0
2899 1979 0
-2029 893 0
3612 2362 0
-2540 -4338 0
1983 -3890 0
-277 2715 0
2149 1604 0
698 -3442 0
564 2075 0
1381 -3598 0
-4324 -4554 0
881 3591 0
2493 905 0
-3024 1527 0
-3960 892 0
2162 3319 0
283 1287 0
-2333 -647 0
3816 3329 0
2124 3108 0
2229 2445 0
4600 2110 0
-713 -764 0
1516 1341 0
3628 -273 0
-799 3809 0
1550 1068 0
-2191 1493 0
3425 -3386 0
2556 1153 0
1075 -2268 0
-3775 -866 0
4268 -454 0
2275 -1956 0
-3352 1126 0
1975 -247 0
-3069 -593 0
-3837 1222 0
3578 2831 0
-1540 -3013 0
2154 -813 0
4127 -4210 0
2370 4365 0
-2344 -907 0
3360 434 0
-2300 3875 0
2933 -2743 0
337 -4103 0
3829 -3462 0
-1374 3712 0
447 -1269 0
803 -3407 0
2224 4532 0
1615 3480 0
-1535 -2308 0
-423 -3427 0
-3466 -2937 0
4164 4450 0
-1633 -1706 0
3459 -1206 0
-3680 -2772 0
-4261 3590 0
1283 542 0
-3959 -4448 0
2074 4279 0
-1614 4212 0
2683 3426 0
3569 3124 0
-2278 315 0
1581 -4513 0
2097 -3310 0
-513 -3029 0
1048 953 0
-3221 267 0
-428 2971 0
-1296 4034 0
-640 -1921 0
-1598 -601 0
1656 -490 0
4229 -2340 0
-2564 -2331 0
1397 129 0
-4585 3407 0
2707 -1173 0
-224 1169 0
-873 1390 0
-4181 -4126 0
4008 -1122 0
1835 3122 0
-2829 768 0
3689 -1093 0
-895 2971 0
-4302 -983 0
-4536 -876 0
324 -300 0
-4272 552 0
-2255 -2380 0
3942 4023 0
-1546 -188 0
-3540 1454 0
-4359 3496 0
2158 1108 0
-1113 -487 0
-1689 -3747 0
361 3219 0
-52 -3060 0
4095 3584 0
3193 -219 0
1205 2262 0
1653 3192 0
-3264 2652 0
-3782 2409 0
-3948 -2369 0
409 3023 0
-4471 3076 0
1543 3420 0
-2227 -155 0
1048 3549 0
-2179 -1146 0
2116 4392 0
-24 -2745 0
-3166 -2535 0
-208 3782 0
211 4575 0
4191 1433 0
3458 4512 0
3671 674 0
-4540 874 0
1825 4506 0
-2545 31 0
2915 1536 0
-3580 4023 0
-1029 1311 0
4154 955 0
3942 -1736 0
1404 1756 0
-1364 3012 0
3256 2180 0
1012 1748 0
-2117 -766 0
1182 2932 0
3691 3122 0
-4313 -2841 0
-1425 1448 0
1346 1688 0
417 -620 0
-2181 1738 0
3969 1372 0
281 3485 0
-3817 -1942 0
2016 -1836 0
-1242 -2746 0
-123 274 0
2354 -2098 0
1644 -1985 0
-559 -3153 0
-991 95 0
-3629 -565 0
1559 -3666 0
4150 -2659 0
-1777 -3421 0
1023 1749 0
-408 -1981 0
-3761 -3596 0
-378 -2543 0
2911 382 0
3751 -4002 0
55 -2567 0
2839 -1571 0
-3119 2409 0
-4411 143 0
282 -1671 0
3730 3959 0
3770 -2249 0
-1473 -3930 0
-2041 4458 0
-1281 4054 0
-802 101 0
4055 2442 0
-2775 -2878 0
2699 3152 0
1084 3652 0
4335 -3278 0
1113 455 0
-1806 -966 0
1341 -2549 0
1732 1674 0
1389 997 0
-665 -3676 0
2963 2328 0
3871 -2330 0
-2641 2533 0
-3573 3535 0
1361 439 0
2091 2561 0
-2196 2346 0
839 75 0
1559 3486 0
2812 1959 0
-872 -4446 0
-2958 -4020 0
795 1875 0
1312 3945 0
-4285 1235 0
-2347 2076 0
-4613 3220 0
3386 3967 0
-2324 -625 0
-3028 -3507 0
-2940 964 0
-3881 -457 0
-4080 2444 0
-1870 1545 0
1994 1791 0
-2659 -710 0
289 -2372 0
-812 3975 0
1060 -4463 0
-2423 4217 0
2640 1668 0
-4369 -3475 0
2129 -2936 0
-601 -3459 0
-3943 1264 0
308 -1222 0
-154 863 0
-881 -3762 0
2210 -1277 0
342 -4044 0
2983 34 0
-2227 -4508 0
2364 3605 0
-4081 -721 0
336 -3015 0
-3804 -1364 0
-2988 -123 0
-2864 -292 0
-260 -1503 0
3175 4031 0
3439 3906 0
-759 -667 0
-396 -1108 0
-2654 -2498 0
2335 2483 0
4312 1691 0
-3254 -3986 0
-4258 -3615 0
-1117 -221 0
-245 -3795 0
2122 -2698 0
-619 -3298 0
2006 -239 0
1409 -1920 0
3484 -4381 0
1114 987 0
-4554 -1201 0
999 -1010 0
-704 -3120 0
-2914 714 0
-1580 -841 0
1731 782 0
-3040 -1568 0
-3114 -166 0
4236 -180 0
860 -938 0
-1078 3441 0
2731 3199 0
-3226 4146 0
4630 -3695 0
3470 -3808 0
-3720 -808 0
-3000 3063 0
4387 3134 0
-3785 4352 0
3202 -1906 0
-2243 -127 0
2817 -659 0
1416 -2623 0
-1938 3475 0
-1210 -1738 0
724 -1797 0
-22 4483 0
2061 677 0
1792 -1607 0
2563 -1869 0
2929 466 0
301 -435 0
-1435 680 0
4322 2041 0
1873 2533 0
-1401 -3107 0
-72 1725 0
4199 4151 0
830 -754 0
3496 4148 0
-2075 -942 0
444 -2609 0
3620 -3915 0
-1030 1733 0
3576 1626 0
370 -3890 0
-4099 -1838 0
1227 2570 0
1524 2436 0
1891 3475 0
-4578 -3776 0
-2208 -1861 0
-2940 -3156 0
2418 4409 0
-1090 1482 0
-3991 3277 0
3466 607 0
768 109 0
-913 2012 0
3894 4413 0
3938 -2108 0
1205 1527 0
2707 -4126 0
-3006 -1259 0
1471 3611 0
2736 -271 0
-4076 -2530 0
-2336 1642 0
481 745 0
2389 2830 0
-2550 -4380 0
-3937 -1341 0
-3936 3383 0
4009 -3554 0
-2406 -1321 0
701 -510 0
2991 -3882 0
3548 -1041 0
-2253 -4273 0
-2180 -3215 0
4327 2213 0
-340 2741 0
-3994 -1218 0
-1818 -182 0
706 3980 0
2525 -2062 0
2468 3152 0
4000 -1569 0
2542 -3933 0
4562 -229 0
4080 -1169 0
-1522 4630 0
-3951 -3486 0
388 3091 0
1517 4081 0
3145 4225 0
3572 2431 0
1069 -3932 0
1018 686 0
-3190 3655 0
-223 3281 0
2252 729 0
-1633 -2924 0
-3237 -904 0
-1705 4214 0
2553 -791 0
1795 2462 0
-4141 -1752 0
-3906 -4625 0
-3739 1250 0
-1440 2778 0
1017 -4494 0
947 555 0
2137 -4381 0
2651 -4065 0
-4030 341 0
-1988 -704 0
-4388 -1961 0
1664 -492 0
3310 539 0
-1546 2619 0
-2315 -3963 0
-3107 1819 0
-1282 -520 0
3851 736 0
1624 252 0
-3813 -2395 0
