c NF
p cnf 2305 3918
-501 -1019 0
-1817 2158 0
-837 -1461 0
1203 196 0
1297 -1885 0
-2135 -683 0
983 436 0
1026 -1113 0
712 -305 0
1613 -698 0
-1825 -1801 0
1655 1097 0
329 -1767 0
-223 -200 0
1488 2097 0
-676 17 0
-2204 -902 0
1845 -993 0
-638 -1387 0
1723 -89 0
-3 -2077 0
-2103 1304 0
-13 -185 0
-413 -1016 0
-1912 -232 0
524 1376 0
370 -659 0
928 -1002 0
1936 1097 0
-2176 -1904 0
269 232 0
-2287 522 0
1910 1560 0
-833 61 0
6 -2237 0
1855 -1980 0
381 -472 0
1892 -335 0
-419 -67 0
-613 -1945 0
-1961 2097 0
-318 -1883 0
1900 910 0
-1299 -1229 0
-1010 452 0
-287 1153 0
-1379 235 0
-255 992 0
-1715 -86 0
853 1479 0
2003 -330 0
1827 105 0
-328 -1657 0
-454 1319 0
406 -1734 0
1262 -2159 0
-87 294 0
-445 -671 0
2097 -1863 0
1958 1184 0
-553 -2050 0
-1329 -1445 0
129 -451 0
413 1579 0
453 -581 0
-335 -347 0
-363 -124 0
-851 -405 0
991 1459 0
250 1050 0
-1357 266 0
-1862 -423 0
2186 748 0
-160 -112 0
496 971 0
697 -1254 0
2025 -1268 0
-1894 -2264 0
612 1332 0
111 -531 0
-791 1281 0
2156 1830 0
2104 1178 0
1012 286 0
-327 1138 0
-1288 2052 0
198 1674 0
10 -2067 0
-785 -1614 0
773 -1945 0
-1039 -685 0
-994 -1947 0
1388 2204 0
760 -71 0
2073 -970 0
-1852 -1277 0
-238 1898 0
-887 -2256 0
-184 259 0
368 1519 0
-719 -574 0
-1931 -501 0
-1306 -1897 0
-778 -504 0
1648 589 0
450 1382 0
-23 -828 0
183 -2293 0
-1147 -1187 0
971 -910 0
69 -2124 0
1100 100 0
-1179 1193 0
1581 -1742 0
26 135 0
-752 813 0
1315 -1811 0
-2223 -273 0
-2127 -263 0
545 -1846 0
702 911 0
-1053 -1973 0
-1027 255 0
2050 1940 0
935 -606 0
837 303 0
-169 -2083 0
1433 -1796 0
261 277 0
2177 -199 0
-491 -1187 0
-1426 1177 0
-1596 -1549 0
1718 684 0
-7 912 0
-1785 -739 0
1938 -1987 0
1308 270 0
853 294 0
1748 -584 0
418 -1933 0
-750 -2243 0
788 350 0
-230 -1185 0
-143 -466 0
-1281 138 0
-1970 -820 0
1975 2027 0
18 2216 0
-1675 -1382 0
793 -555 0
2170 829 0
-1461 -1290 0
-242 -1318 0
-2069 -2061 0
1876 -511 0
1087 -638 0
612 -1751 0
551 914 0
-1868 670 0
-1623 1994 0
-1864 -2149 0
-28 -1721 0
277 -2057 0
-1231 -974 0
394 -114 0
-1666 5 0
-127 990 0
324 1732 0
-1880 1646 0
-775 636 0
2083 -454 0
-1983 704 0
-1204 -1256 0
-2092 1858 0
-1803 1413 0
-917 -1140 0
-15 -331 0
816 -541 0
1126 1421 0
-154 2260 0
1755 -2300 0
2298 1223 0
-2229 1343 0
2079 -1805 0
-1659 961 0
-1530 55 0
2224 636 0
-251 1784 0
-1073 49 0
-1964 -1403 0
-380 1615 0
-1717 -351 0
-1392 1763 0
-1833 917 0
-832 -2147 0
889 -1396 0
-2153 2304 0
-643 -995 0
-1927 -1328 0
-907 953 0
-1359 -141 0
1667 -763 0
1637 -36 0
68 -1770 0
-887 759 0
452 -2227 0
-1440 787 0
-1795 1465 0
1041 -1168 0
1456 1884 0
-1373 79 0
547 892 0
-1583 448 0
1528 -1560 0
672 -196 0
-1755 -1025 0
1843 -507 0
-2034 -1058 0
-1679 -1550 0
389 1857 0
1939 -194 0
-990 2185 0
-1260 2043 0
-1610 -438 0
1444 -264 0
1437 2143 0
-1617 -2162 0
1108 2179 0
1620 -2225 0
1935 -1264 0
2048 -1739 0
-302 762 0
-2109 2291 0
658 350 0
2018 -233 0
-1233 -492 0
216 -1541 0
-190 -2126 0
-1371 1269 0
-1214 -2294 0
-76 1771 0
1658 14 0
-2264 275 0
198 578 0
1954 -2135 0
-734 -1695 0
250 1481 0
1250 -1250 0
-956 203 0
390 -325 0
320 1382 0
545 1675 0
-1838 860 0
409 -464 0
1765 -1653 0
-1886 -158 0
1814 653 0
-1352 1420 0
-1440 475 0
-81 1269 0
572 -1485 0
-2170 -2256 0
636 -1071 0
1799 792 0
1020 -2252 0
-671 -1216 0
-1583 -15 0
1849 516 0
718 447 0
-463 -1994 0
596 -296 0
-2062 1613 0
-76 -1690 0
1140 2109 0
1616 -1515 0
1108 963 0
1358 -1393 0
-1012 362 0
2293 -327 0
246 879 0
664 1039 0
-303 1859 0
-1281 -1817 0
-1767 -1524 0
1486 -1445 0
70 828 0
1503 -1123 0
654 -419 0
823 1661 0
1858 -750 0
-536 -1284 0
761 1108 0
-684 -950 0
-875 -844 0
78 175 0
503 -1582 0
1343 -87 0
1926 -792 0
-1622 2086 0
114 -1409 0
40 -360 0
-2154 -1509 0
562 -116 0
151 2141 0
-581 1710 0
1094 -799 0
240 -1163 0
-142 -1674 0
1889 2048 0
2020 1823 0
-1130 -1296 0
-1052 -1160 0
1845 -1644 0
-666 1852 0
-1402 -2004 0
-1965 -495 0
-1167 -2065 0
-577 -1419 0
1196 1156 0
2278 -2193 0
497 -719 0
-1966 2061 0
55 125 0
-993 1327 0
-2076 667 0
-151 -1969 0
-525 -1882 0
-394 1095 0
279 1918 0
2083 1668 0
1741 -1296 0
2091 72 0
-2274 -1486 0
-1031 1912 0
-1960 1682 0
1887 1904 0
1997 1909 0
544 -2275 0
-1566 823 0
-1774 -1712 0
438 -746 0
-1891 1278 0
-1208 1223 0
661 1919 0
1401 888 0
-1583 1513 0
-1281 851 0
329 1712 0
2180 -1931 0
-187 1923 0
-114 -71 0
1182 -23 0
2249 -2099 0
-173 1274 0
-671 -801 0
988 -391 0
1249 2041 0
2202 -976 0
-292 -175 0
-1693 -338 0
1598 -1524 0
-1191 -588 0
-1317 -2088 0
1607 -1146 0
1539 1161 0
-2088 1747 0
663 -219 0
1297 -1511 0
920 -425 0
1122 2054 0
-345 -642 0
-604 664 0
-1915 -1817 0
1869 -2040 0
-1171 -2280 0
-1562 -1326 0
2212 1347 0
-391 2091 0
-1514 570 0
1419 -1398 0
-1962 -736 0
-1239 510 0
-1391 -2295 0
1285 1370 0
-467 1959 0
-1749 317 0
-1219 770 0
-701 -2217 0
-813 -1644 0
2183 -454 0
1702 2109 0
-1658 -1872 0
-631 696 0
721 143 0
797 -1922 0
-622 -1476 0
-993 1909 0
-171 -1838 0
-1335 70 0
-443 1337 0
-1037 -968 0
405 530 0
-1449 1388 0
1868 773 0
-534 2179 0
1664 -1669 0
-1257 135 0
2053 -1343 0
1355 855 0
-1442 2201 0
1790 1472 0
878 -413 0
577 2217 0
-1606 -673 0
606 2274 0
275 216 0
-1500 93 0
2219 573 0
-624 -1042 0
2119 -526 0
-591 -847 0
1627 -11 0
1003 -1742 0
-1227 1573 0
10 331 0
-574 612 0
-103 2093 0
-327 2138 0
1735 1937 0
1837 -1943 0
-1833 1142 0
516 -1532 0
1835 2298 0
278 -1382 0
909 135 0
-1502 -1411 0
-253 2176 0
-2094 1193 0
-2233 1880 0
-1359 -2017 0
-2135 -1090 0
-2055 -1054 0
-442 1455 0
1734 -2064 0
1799 1505 0
1494 2009 0
1546 -198 0
449 652 0
1069 -2149 0
-70 700 0
2052 94 0
-1806 -1463 0
1338 880 0
1860 -208 0
743 1928 0
1620 -48 0
-1315 1835 0
2201 -1381 0
-2049 -277 0
-71 517 0
1714 226 0
-1790 2204 0
-800 -1406 0
1859 -1105 0
575 -1407 0
-884 75 0
545 -1280 0
1184 -306 0
1766 1210 0
-1015 -1588 0
-854 -2121 0
726 -339 0
-222 971 0
1783 762 0
-356 -443 0
-1338 1670 0
-229 161 0
-843 -950 0
-499 -1785 0
1358 1771 0
-625 -1464 0
244 -1773 0
1876 2046 0
-1121 2132 0
1127 -1533 0
1655 -1162 0
-1804 611 0
-1851 -106 0
-1920 -1044 0
-1469 -2150 0
361 -850 0
278 1807 0
-1795 -1468 0
-1482 -1899 0
-17 1257 0
-383 2068 0
2058 -2054 0
-665 871 0
-2045 -1809 0
-223 2112 0
-1148 1230 0
-1291 -1755 0
680 1459 0
235 -263 0
1299 2303 0
862 1021 0
-290 -1313 0
-1628 100 0
-70 -23 0
-1625 365 0
-115 -1957 0
2005 155 0
1188 1564 0
-2153 1166 0
1451 2247 0
1265 1661 0
-1826 799 0
-349 -225 0
202 -1197 0
589 968 0
-950 866 0
417 -1543 0
227 1758 0
-1540 795 0
-493 567 0
1594 329 0
-585 -1810 0
959 1165 0
-595 -1505 0
-1894 620 0
-1028 1991 0
-382 -929 0
2166 -629 0
-2124 736 0
101 54 0
-604 386 0
1159 2041 0
-13 1503 0
-1257 -1291 0
712 -2012 0
1227 -526 0
708 1122 0
-1464 1669 0
-451 1740 0
586 -748 0
1865 375 0
1370 582 0
-138 -2147 0
-26 1565 0
2221 -1167 0
465 -140 0
-2243 -205 0
-1094 58 0
-727 1261 0
-2011 1723 0
-368 -976 0
198 -1327 0
-1610 1132 0
-1686 -1316 0
447 27 0
-1902 842 0
-2018 725 0
1614 1815 0
-1219 -2221 0
-1407 -676 0
975 400 0
-2025 375 0
-2293 -2070 0
-185 -466 0
-2004 2248 0
1633 -566 0
-2135 -90 0
-973 1250 0
1821 -2038 0
1992 1825 0
2164 -1746 0
1007 -152 0
386 1335 0
315 -2164 0
-882 204 0
-1217 2042 0
814 -967 0
-1302 1257 0
869 -1040 0
1007 -2244 0
1418 2076 0
2082 -1593 0
742 61 0
-384 -1626 0
-1881 1739 0
1049 1108 0
-2167 -1160 0
1317 -390 0
-819 -1087 0
-2292 1301 0
2254 -2253 0
-89 -1476 0
1919 -2198 0
-181 759 0
-772 1012 0
344 -1814 0
-958 -785 0
1709 863 0
-1141 1298 0
289 -254 0
386 -212 0
1429 2171 0
1459 -1507 0
-505 1747 0
1507 2194 0
-1973 1110 0
667 -1189 0
137 -840 0
-1656 -2110 0
-220 -2221 0
-1105 -1672 0
-1121 -1768 0
1851 -46 0
1248 1149 0
1416 -1346 0
1869 431 0
368 312 0
-1389 -610 0
1687 -1423 0
-495 -1097 0
1822 555 0
-2027 -936 0
-875 -296 0
-317 -752 0
805 -522 0
-2182 -1550 0
-1281 -695 0
-1606 1584 0
-1532 1901 0
-952 1468 0
-506 1065 0
-784 -2173 0
-920 -1872 0
-1261 2072 0
990 197 0
-288 -888 0
-2052 1107 0
-132 -564 0
1364 617 0
-960 171 0
-1491 -2162 0
-720 1051 0
980 -626 0
-558 1820 0
62 1975 0
420 -337 0
-435 -119 0
101 -899 0
189 -1873 0
-958 -169 0
903 -1449 0
313 -1090 0
1468 2058 0
-152 -1123 0
-981 -1538 0
-1317 839 0
-247 1543 0
1716 -497 0
587 -1372 0
-1156 1134 0
-40 -688 0
2171 762 0
1415 -338 0
-2014 772 0
2118 -1795 0
568 864 0
666 1563 0
-1805 -1938 0
-244 1738 0
412 800 0
-1650 -528 0
1609 851 0
234 -1662 0
-1188 -630 0
2258 1308 0
1300 297 0
500 1949 0
496 539 0
484 1506 0
-2232 1248 0
-100 478 0
-292 -392 0
-1833 985 0
2038 -1182 0
-1124 -279 0
2260 -1603 0
-597 -1102 0
-1703 -550 0
-775 -947 0
-1015 -668 0
1928 -1458 0
-2199 5 0
-1061 1534 0
-1636 -841 0
-923 -1996 0
-325 -1824 0
-1336 -2152 0
-1651 2040 0
1252 262 0
-520 1743 0
-196 -67 0
1979 1584 0
-535 2234 0
2084 608 0
-230 707 0
120 -182 0
1523 -869 0
-854 839 0
-2210 -403 0
284 -401 0
-1458 2092 0
2059 1999 0
994 -2022 0
716 187 0
418 1501 0
1384 -2221 0
1876 -1233 0
-953 -1888 0
-1273 -2027 0
-1749 2242 0
-867 -23 0
1311 -1225 0
1089 207 0
-1054 -647 0
135 1176 0
-987 -1073 0
-1860 1574 0
159 863 0
-1867 2003 0
-664 1284 0
1678 -530 0
-1423 -419 0
-1164 -387 0
908 -264 0
1828 2279 0
2231 1649 0
582 -2291 0
522 1823 0
829 -61 0
1961 -1567 0
783 -901 0
2291 -2088 0
-1915 1578 0
474 -1090 0
-535 2068 0
-598 -534 0
-796 -1215 0
-1340 1724 0
-330 -541 0
-109 494 0
188 -1354 0
983 1465 0
-1773 -1814 0
79 777 0
908 185 0
-1933 811 0
-1325 1907 0
-208 -1606 0
867 -1551 0
2084 1371 0
-978 1601 0
1684 1728 0
2104 1500 0
-1522 -284 0
594 -1596 0
893 -898 0
1870 1099 0
-1149 -634 0
-1980 934 0
505 -1431 0
2073 -2149 0
-524 1903 0
-1963 1165 0
174 984 0
-208 1691 0
2217 738 0
2048 55 0
-62 -1053 0
418 496 0
4 -1643 0
-1397 -2193 0
-938 2118 0
-310 -152 0
2288 1626 0
-637 1847 0
2076 1112 0
1474 270 0
-1991 457 0
1856 -2113 0
1172 1544 0
2179 -1559 0
-1283 -774 0
-533 -306 0
2086 -1307 0
-1763 -397 0
505 -906 0
1578 1757 0
90 -367 0
-440 2074 0
1211 1639 0
1117 -1736 0
1595 -1714 0
-381 -1231 0
-722 1288 0
578 145 0
1855 -630 0
-2103 284 0
789 -184 0
749 -1174 0
-519 -952 0
-2165 2131 0
263 -2034 0
-1229 1193 0
1370 1531 0
2070 -1663 0
-1197 1156 0
18 1828 0
-1666 1345 0
-561 2141 0
436 1181 0
-403 -1520 0
1148 -2044 0
-2054 -2149 0
-238 1169 0
1592 -1037 0
-210 1553 0
97 1982 0
-416 -86 0
-561 1609 0
1364 -1136 0
-736 2013 0
682 1942 0
-624 1421 0
1667 -774 0
-1403 -2210 0
1062 2264 0
-1705 157 0
-833 -838 0
-341 -1086 0
1853 -159 0
535 -1220 0
-1786 -1742 0
1470 844 0
-831 -1405 0
221 -1229 0
-1258 336 0
-2044 717 0
1268 1422 0
-1040 -947 0
-1631 599 0
-1173 2160 0
2053 1703 0
-1494 1338 0
-33 320 0
-2030 -99 0
1553 1177 0
330 -1666 0
1633 934 0
-1344 788 0
1254 -2115 0
-748 1637 0
114 -956 0
173 1374 0
-2283 1677 0
2152 1412 0
833 369 0
869 1432 0
-1683 -816 0
1071 1914 0
-1741 -1157 0
266 -1475 0
970 361 0
2217 -648 0
1020 1703 0
1913 2240 0
486 1185 0
-500 -850 0
1607 1872 0
1955 -1706 0
1586 1913 0
-2286 771 0
-2139 -1298 0
1792 2096 0
-799 -1409 0
-2029 1528 0
-2233 -1543 0
-409 -1451 0
-1372 -50 0
-1496 602 0
-1012 -2153 0
1831 493 0
-1986 2035 0
-1240 1588 0
1139 -855 0
959 -1417 0
-626 886 0
-86 -901 0
-1624 2104 0
2039 942 0
-1359 -2144 0
724 2029 0
-1267 -1963 0
-2111 -149 0
-506 -1881 0
-2278 -1711 0
-337 64 0
-274 -986 0
450 1535 0
-108 -933 0
602 795 0
-7 -556 0
1408 42 0
458 -706 0
13 -352 0
-1393 -384 0
1651 -2142 0
482 1754 0
471 -1471 0
867 1455 0
-1287 1854 0
-758 665 0
1199 -1651 0
1083 1270 0
1519 518 0
789 -19 0
1702 597 0
-1179 849 0
178 1781 0
2079 -330 0
-1441 -1294 0
11 -2227 0
1099 2281 0
580 -2181 0
179 -197 0
1549 2097 0
1812 -905 0
1979 -677 0
-2094 -468 0
407 -547 0
826 -773 0
-1328 -285 0
745 -366 0
-1069 -999 0
590 796 0
-940 515 0
1842 -1328 0
1510 254 0
-1766 1494 0
1060 -1618 0
-1593 196 0
-2172 711 0
-622 -1748 0
429 983 0
-1352 -1640 0
-1059 -1745 0
-1229 853 0
-444 1319 0
-321 71 0
-334 -753 0
1639 -755 0
-2277 1281 0
1378 -1071 0
-217 1525 0
1591 789 0
670 1949 0
-1195 -885 0
2193 537 0
348 1453 0
1202 -120 0
-1207 -109 0
957 2281 0
-200 1023 0
845 -1064 0
-806 1257 0
-1231 -339 0
-121 -1141 0
806 -1462 0
2141 294 0
-396 717 0
-852 -173 0
-335 -2227 0
-592 -1504 0
-1876 -596 0
480 1006 0
962 1769 0
556 -63 0
-1132 -430 0
-226 -287 0
1949 -613 0
1255 -249 0
825 344 0
-1024 1122 0
280 -28 0
1023 2067 0
93 -1418 0
2221 1478 0
-449 1324 0
209 -646 0
417 2216 0
-193 2168 0
1233 -1552 0
-1767 479 0
-1357 730 0
2208 1290 0
783 -625 0
-682 1068 0
-1009 2216 0
1725 1597 0
76 -1087 0
512 1103 0
2059 -2061 0
144 -655 0
1934 1905 0
1463 1563 0
-141 -2008 0
-1260 617 0
1011 1435 0
1305 -1248 0
-793 99 0
-1013 -1863 0
99 804 0
-217 116 0
-2240 -2263 0
-1342 -1515 0
1501 -7 0
-220 -317 0
1731 -997 0
-1606 353 0
791 -1527 0
1661 -1720 0
-1486 167 0
-1801 -1063 0
-182 1128 0
-1022 694 0
-1912 54 0
168 -2103 0
525 792 0
444 -901 0
-1350 -87 0
552 -1838 0
-1517 156 0
-711 1558 0
1279 1933 0
991 -1326 0
1503 -713 0
1364 671 0
-1931 -1567 0
1455 -1536 0
-9 47 0
-2159 -1324 0
1168 1601 0
-1411 -1113 0
1980 1604 0
352 510 0
122 -292 0
1963 2282 0
1055 1468 0
-2212 -195 0
659 942 0
-194 -733 0
-569 1308 0
1319 763 0
529 -2279 0
-1273 -1567 0
-1615 1353 0
-2056 -2004 0
-2024 204 0
1262 -464 0
-1242 -840 0
-1826 2187 0
626 -1438 0
-205 1861 0
1641 221 0
-2146 -540 0
-2028 -769 0
-1215 1760 0
246 -1030 0
587 1651 0
-1934 -1644 0
-1745 406 0
-1778 1021 0
995 462 0
2149 441 0
-646 1069 0
402 -753 0
751 -2270 0
2303 -1226 0
-1707 724 0
2142 1098 0
627 765 0
-1745 151 0
-1149 2265 0
-692 209 0
1307 -787 0
2038 -1461 0
-796 888 0
2222 -496 0
-727 878 0
-981 2289 0
-1357 -1447 0
-921 1823 0
1449 -1746 0
-653 -1690 0
1972 -1814 0
-698 1360 0
-264 1756 0
-1044 69 0
-497 1031 0
1824 32 0
-782 -626 0
-1356 -1339 0
1619 -100 0
1758 -1371 0
-1358 -1357 0
-1029 -411 0
-1629 -791 0
1581 2288 0
1405 -2225 0
-225 -1132 0
-1751 1217 0
1544 -497 0
1827 -612 0
1158 748 0
-1417 1690 0
-2132 -537 0
1190 -345 0
-892 853 0
297 1107 0
1292 1775 0
101 -1587 0
-898 -1594 0
-295 -1006 0
-729 -2291 0
-1569 745 0
-754 1849 0
-2233 494 0
2075 -116 0
-358 -1947 0
1902 1259 0
-427 988 0
740 482 0
2218 2099 0
-1178 -1302 0
-1515 1183 0
-570 279 0
1935 1986 0
-1102 1906 0
990 -980 0
-239 -1628 0
1463 1925 0
366 -1146 0
-182 -1624 0
-818 1537 0
-1231 2262 0
463 -848 0
-500 -96 0
-1547 -1469 0
892 765 0
504 -384 0
1040 -1409 0
-1407 832 0
-1616 -906 0
-2073 -2073 0
-763 -39 0
-2034 893 0
473 -1412 0
1856 -1273 0
1175 980 0
-2010 1730 0
347 -1778 0
1289 221 0
943 1482 0
540 -1302 0
-1486 -108 0
-333 1738 0
-127 1040 0
154 -1805 0
159 1305 0
-801 -1019 0
652 -1908 0
963 -2056 0
94 176 0
1419 -2235 0
682 -388 0
1900 1116 0
-909 231 0
-1974 374 0
2194 1462 0
-2148 -49 0
711 519 0
106 -13 0
1012 401 0
1737 1023 0
-1245 2138 0
-454 1433 0
1385 -1272 0
900 1702 0
695 -1025 0
-947 1575 0
2050 -734 0
1438 -1220 0
189 -1261 0
-1019 -1296 0
649 1007 0
-252 -1135 0
-1296 449 0
-1818 -1925 0
-563 -1324 0
1577 1395 0
-700 187 0
357 -1516 0
981 -19 0
659 1310 0
416 -1484 0
1710 2299 0
1970 -1640 0
-1797 715 0
1297 2217 0
1755 1697 0
-579 -1459 0
-23 1900 0
-1516 -387 0
-90 1184 0
-568 -1951 0
-1974 -1263 0
-178 1667 0
208 682 0
1307 -40 0
633 2090 0
2084 1776 0
718 -517 0
-372 -601 0
-11 -156 0
1669 -985 0
1884 -1666 0
-1761 -462 0
-2161 -906 0
-643 1685 0
88 1664 0
-197 -1761 0
1953 -2177 0
-234 -2073 0
-2124 826 0
921 -2229 0
1008 -2022 0
1230 -2100 0
-613 -141 0
1978 -712 0
-386 -674 0
456 1083 0
853 -760 0
2216 38 0
-2302 157 0
1892 1461 0
-76 -1402 0
-1047 704 0
-1482 -102 0
739 -536 0
-372 -1122 0
1120 -67 0
-2254 314 0
2254 1620 0
-1634 932 0
129 -1361 0
-1329 1508 0
-1329 -1901 0
-1659 -1064 0
1226 926 0
-2206 2238 0
-2022 -1127 0
424 -1853 0
1199 886 0
-1072 -580 0
-1826 98 0
-1842 47 0
227 60 0
-1174 2012 0
1792 2065 0
1003 1643 0
1161 1665 0
-123 1742 0
1222 -19 0
-370 -1749 0
1126 1221 0
-410 -1405 0
-865 -1479 0
1118 1871 0
-752 1120 0
-1952 -368 0
938 -1701 0
301 -1394 0
-956 -1214 0
2006 1311 0
1589 1684 0
1212 -838 0
524 1802 0
1281 -1276 0
615 654 0
-730 806 0
2232 427 0
-1993 -514 0
-484 -1511 0
-870 2251 0
662 -427 0
-427 -1034 0
1386 -105 0
593 -2016 0
2184 -1341 0
-1617 -1538 0
-33 -1973 0
1264 -816 0
1165 -918 0
-217 1626 0
-1864 -1299 0
1857 1850 0
-688 1462 0
689 1670 0
1052 1356 0
-2028 -2137 0
-2128 1877 0
-1569 979 0
406 -1352 0
963 -1726 0
65 1532 0
1661 1536 0
846 1230 0
1912 1731 0
-1292 971 0
1513 303 0
17 2076 0
634 -569 0
-802 -1287 0
-974 -660 0
-856 -1468 0
1618 -1481 0
2248 149 0
-962 -1985 0
236 -376 0
79 -2167 0
74 858 0
-1728 2178 0
-130 2076 0
2024 -1614 0
-606 -2088 0
2105 -1635 0
-2237 -1931 0
-494 437 0
-1576 1104 0
628 1300 0
555 -422 0
-757 -60 0
154 712 0
-1183 667 0
-1036 -1319 0
1478 399 0
1747 -831 0
1923 1319 0
-2138 1377 0
96 -850 0
2074 954 0
1490 525 0
-1969 68 0
-1720 -117 0
2037 1447 0
1780 -798 0
2207 -2171 0
-705 1234 0
-2254 2127 0
-1940 -95 0
616 1924 0
-1585 -1526 0
471 879 0
-1071 -387 0
-1881 1029 0
1739 1153 0
1949 1884 0
-1714 1794 0
1470 1807 0
686 -1100 0
946 -2004 0
1923 1172 0
-321 1140 0
-1354 -1078 0
-1981 1595 0
853 260 0
-543 1641 0
578 1370 0
729 1941 0
-2268 -1291 0
768 -331 0
-1070 -964 0
1754 2234 0
-1392 -427 0
-2237 700 0
-22 463 0
357 1298 0
-873 -642 0
-1737 1601 0
1180 -2096 0
-368 -946 0
-1252 -1404 0
-1679 -1033 0
-1665 -1326 0
1592 4 0
922 -1340 0
-52 -1968 0
-1707 -1683 0
1125 -549 0
2171 871 0
-529 -898 0
1474 2290 0
-1230 -1628 0
-614 1171 0
711 63 0
-100 178 0
1815 -2257 0
-2249 1655 0
-1717 27 0
-974 -1733 0
-574 1903 0
-530 605 0
6 863 0
-1296 1298 0
-1073 997 0
2024 1076 0
-565 -422 0
1152 1141 0
909 2179 0
1031 1334 0
-820 -356 0
-977 -564 0
-572 -2278 0
1400 -1084 0
1868 -1272 0
1088 -1749 0
-230 -1611 0
-2203 1098 0
129 289 0
-1449 1680 0
1851 -162 0
-36 1506 0
1385 -1423 0
1092 -1397 0
2039 -2065 0
-1413 -430 0
578 570 0
576 -195 0
-1916 1793 0
570 933 0
-1063 -1525 0
1313 539 0
-1897 471 0
-2269 498 0
117 2136 0
-513 -1152 0
2303 -1499 0
-1252 -1901 0
-3 511 0
-756 76 0
309 1938 0
744 1143 0
-625 222 0
-341 840 0
-644 -1920 0
1195 1441 0
-1547 1515 0
2135 836 0
-2144 726 0
2170 -28 0
450 -871 0
1399 1476 0
1493 2287 0
-721 259 0
2107 545 0
2114 1528 0
-2173 -57 0
924 -2239 0
-1172 -169 0
-2039 -1659 0
-579 210 0
1949 -1036 0
1536 -930 0
-899 1841 0
-417 471 0
772 1998 0
2146 387 0
1518 44 0
-340 -1117 0
-951 1713 0
-710 1230 0
-1768 739 0
896 -1112 0
973 -1612 0
1456 -471 0
-1975 1519 0
1860 518 0
755 1018 0
1285 46 0
2220 -123 0
1483 -1473 0
1333 93 0
2271 -2128 0
-579 -896 0
-1703 1647 0
2227 -212 0
1985 -1509 0
-2297 939 0
1570 654 0
-2300 1690 0
27 1139 0
1998 1120 0
377 1235 0
503 -1613 0
2075 1142 0
1949 2029 0
1839 1038 0
104 130 0
745 2112 0
-1650 -1967 0
2209 1757 0
493 1688 0
-2033 1248 0
1888 516 0
686 -1985 0
578 -1974 0
-282 477 0
1195 -477 0
1495 -593 0
1413 -456 0
1339 317 0
272 -571 0
374 -661 0
1141 1783 0
343 526 0
1467 -1629 0
-964 -213 0
2098 -998 0
-2023 -1085 0
-273 -339 0
481 -1803 0
1218 1978 0
-208 -359 0
1032 129 0
-1763 -846 0
-2140 1140 0
-1466 1997 0
2250 509 0
-1561 -1006 0
-1650 1260 0
1170 1684 0
-398 1779 0
268 -873 0
-1549 425 0
1053 -1276 0
-2149 -805 0
1573 1945 0
1790 -2276 0
-972 2087 0
-1764 1474 0
885 -1761 0
-1349 -156 0
-1412 1536 0
954 1643 0
-494 269 0
2186 -2003 0
37 -1217 0
2096 320 0
-1589 1909 0
-693 -1997 0
-1019 2024 0
418 1371 0
1088 584 0
1821 -1033 0
1814 -718 0
2112 -269 0
-2104 -2025 0
-746 1102 0
567 -2044 0
2084 859 0
436 -1281 0
-2034 1320 0
1972 2202 0
364 -1372 0
-2179 -550 0
-1589 -1673 0
-857 1297 0
643 1994 0
478 200 0
2107 -613 0
-1424 1355 0
1370 2109 0
1815 -153 0
-40 766 0
-527 12 0
-311 -1712 0
-882 516 0
-623 -1488 0
-1029 -134 0
-873 -366 0
251 1347 0
1377 1883 0
1377 -1663 0
586 788 0
-2257 -1723 0
14 1478 0
1964 81 0
-368 -1378 0
-1041 1142 0
1020 -960 0
-2083 2139 0
-2273 484 0
-1391 2266 0
-83 -174 0
950 -1416 0
-1075 599 0
-1569 -1184 0
228 -2153 0
2179 -1146 0
1125 251 0
378 -1181 0
509 2006 0
1267 1831 0
-873 295 0
-1124 -1126 0
-292 1680 0
-2294 1998 0
-1119 -1864 0
2156 -1672 0
-1050 -85 0
-447 1868 0
-89 -2149 0
-666 41 0
213 -1123 0
-1118 -1845 0
-1516 2254 0
1230 -736 0
-146 -363 0
-40 680 0
-1136 -263 0
1359 409 0
1639 -627 0
1555 -2249 0
35 2305 0
622 -1714 0
1844 1917 0
456 1263 0
2291 -1819 0
648 -1952 0
2239 -58 0
-198 -30 0
1239 1217 0
-2046 -841 0
-1109 210 0
-533 -1022 0
-2052 1842 0
207 1848 0
1330 -1394 0
-902 1968 0
581 915 0
-1509 -288 0
-1785 -1918 0
1660 -1797 0
-1581 -201 0
1814 -1958 0
-443 -93 0
1869 226 0
-1944 -1712 0
-550 -1636 0
1591 -2207 0
-1737 -706 0
-1799 1663 0
-535 -1899 0
1062 505 0
-227 -325 0
2072 -1327 0
128 1769 0
-1027 -1485 0
425 111 0
135 -746 0
-1296 -1594 0
-2249 -297 0
652 1686 0
738 686 0
-88 -697 0
1751 1185 0
2290 340 0
-300 -1795 0
2240 2018 0
-1666 1873 0
-575 6 0
1621 1227 0
-472 -1497 0
1563 -732 0
336 -237 0
-14 -1330 0
-1733 1955 0
524 2180 0
2064 1899 0
-2285 -1056 0
1175 260 0
-1504 395 0
-302 -206 0
216 -151 0
252 2136 0
-1947 643 0
-772 -1065 0
-1463 612 0
-1194 484 0
-634 -1686 0
1148 457 0
-1707 -2196 0
1278 519 0
1503 984 0
119 -290 0
-626 -134 0
-734 -584 0
900 408 0
-636 963 0
-2046 -1504 0
2217 1241 0
704 1536 0
-601 -1025 0
-918 -2127 0
-1180 -1644 0
860 -586 0
599 -2194 0
1754 -2165 0
1121 2245 0
-1493 -330 0
-2053 -828 0
-698 -1614 0
-2184 1478 0
-576 -566 0
-3 -119 0
2073 -2152 0
-247 -1828 0
-715 -1048 0
-1275 15 0
805 -2101 0
77 -621 0
-873 1962 0
-1029 -947 0
-1475 -711 0
299 2068 0
10 2009 0
-2253 2295 0
1363 -293 0
1643 -349 0
-240 -1361 0
700 705 0
1641 1488 0
78 1424 0
-734 1789 0
672 -1311 0
636 1644 0
2096 -1326 0
443 -2288 0
662 647 0
-1643 -33 0
-1490 -1219 0
-1207 2175 0
2183 -1560 0
-2181 -1605 0
1631 -1657 0
1116 259 0
-479 279 0
2268 -569 0
-690 -498 0
1217 -568 0
-2083 1482 0
-229 1609 0
-2073 -2198 0
1811 -901 0
402 243 0
-1670 -767 0
-352 -2034 0
-564 -1598 0
331 -737 0
1909 908 0
-404 1126 0
-1442 -1052 0
109 -1122 0
-1484 177 0
-1982 -577 0
949 1142 0
-1524 155 0
-1496 1786 0
-15 -238 0
-1834 1819 0
-1241 198 0
-801 1919 0
350 -1004 0
-439 -1449 0
-322 1035 0
1040 1838 0
628 1660 0
1116 -1822 0
653 -832 0
1209 -561 0
-1308 43 0
-1531 490 0
-59 -434 0
372 -698 0
355 1519 0
591 1864 0
1867 2087 0
479 1178 0
1901 1984 0
1439 576 0
1841 -581 0
-1386 -1720 0
1465 545 0
233 -644 0
1415 2053 0
389 991 0
-337 1274 0
1389 -514 0
2044 -1649 0
-95 -114 0
-257 1536 0
-2044 58 0
511 1516 0
1551 -2265 0
-2104 -2271 0
-1583 -2269 0
1212 -1994 0
-964 591 0
1386 -2134 0
14 -2037 0
2170 -543 0
-2069 1068 0
-431 -912 0
1430 559 0
266 1813 0
1866 -1507 0
-564 -1028 0
-1606 -204 0
-1985 1161 0
1648 545 0
-580 -370 0
-106 308 0
-139 376 0
-784 -1922 0
1831 4 0
-1374 1323 0
344 1678 0
919 682 0
1359 1912 0
-2115 1081 0
-1605 -713 0
57 -281 0
331 4 0
630 -1047 0
1564 2260 0
-139 1939 0
424 -161 0
1926 -1610 0
-370 1422 0
890 -1077 0
1291 971 0
40 1364 0
470 -1969 0
-1257 1051 0
859 -572 0
527 -1872 0
-850 -242 0
1286 -1447 0
-1497 2035 0
412 -817 0
992 1034 0
1151 379 0
1440 -1280 0
-2101 -1252 0
-358 -884 0
269 -1748 0
2051 -67 0
-1409 1460 0
1505 -737 0
2251 -1696 0
-1088 -888 0
-2298 532 0
-39 -2122 0
1688 1869 0
-1156 -956 0
831 -828 0
1622 -1253 0
-1598 -1565 0
-1016 -599 0
743 -1825 0
378 1157 0
-715 -1607 0
167 1960 0
143 -876 0
-2099 848 0
-1145 1827 0
374 -2092 0
-2023 -1301 0
309 -250 0
-1906 1444 0
1096 -1347 0
-936 1933 0
-53 805 0
43 862 0
-615 -1473 0
-2137 -355 0
-935 -1801 0
-1597 435 0
2059 1210 0
-888 -257 0
-1072 -100 0
1784 -1780 0
-331 -1143 0
1152 -1091 0
1083 2204 0
499 -1320 0
1501 1139 0
363 1954 0
-2199 -760 0
-665 -1738 0
1769 2217 0
-1440 -1816 0
244 -2266 0
913 1200 0
-2152 -2109 0
1633 762 0
-2264 -1318 0
410 -2149 0
-1513 478 0
-927 -1442 0
-701 2056 0
-1144 -470 0
-1000 575 0
1049 281 0
-1514 -1680 0
654 -552 0
1982 -876 0
-1562 2188 0
929 713 0
135 -1491 0
-2235 -1648 0
686 2261 0
607 106 0
1373 -1731 0
1536 -1803 0
-1874 -570 0
-869 -2158 0
-440 2289 0
-1107 975 0
703 439 0
1253 2267 0
4 -282 0
811 304 0
-974 1854 0
132 -2209 0
-658 -107 0
-940 -2237 0
-807 488 0
1307 -1163 0
926 -913 0
1726 -435 0
-175 -1302 0
946 -1918 0
2083 1345 0
615 1301 0
334 -1076 0
-1721 -274 0
-835 1654 0
-614 -2123 0
1609 -1472 0
406 -2168 0
954 1801 0
149 2266 0
-2132 -2185 0
1140 -1875 0
621 849 0
-269 -513 0
-1944 1156 0
1472 -46 0
1321 -558 0
-2284 -597 0
1356 -1414 0
2076 -641 0
340 117 0
-2244 18 0
-2085 -1359 0
-1384 -675 0
-1165 1680 0
-1620 2296 0
-2099 1106 0
-734 -1879 0
1616 574 0
-1028 -446 0
1814 785 0
453 -1667 0
1775 -1323 0
-488 1273 0
-106 189 0
1899 778 0
471 -1745 0
-1983 -1163 0
1702 -1555 0
350 1910 0
-1465 -604 0
-230 -1641 0
1332 424 0
-1135 246 0
-2154 712 0
177 -1303 0
-432 -673 0
1218 2210 0
-270 335 0
-2274 539 0
754 2109 0
-1722 1895 0
138 1003 0
658 831 0
1682 -1788 0
1351 -1855 0
1908 -2206 0
-1704 -76 0
-2199 -228 0
462 382 0
1952 -831 0
849 -1215 0
-1886 -1968 0
1267 314 0
-1650 704 0
-1248 895 0
-1742 211 0
150 1490 0
768 -1303 0
1308 1465 0
-479 -2205 0
258 269 0
27 296 0
-2015 1807 0
-837 1110 0
1697 -1520 0
705 -2176 0
1408 -603 0
314 1041 0
1264 -84 0
725 1754 0
687 1800 0
468 -562 0
-707 -1883 0
-1378 -625 0
-296 -616 0
45 870 0
743 716 0
-2231 2216 0
-1427 672 0
-2236 2096 0
-935 -588 0
-1673 -2278 0
-1573 1643 0
957 -83 0
2139 58 0
1625 -347 0
-769 877 0
-1329 -2110 0
1119 1709 0
-626 144 0
-1634 2045 0
1478 -1696 0
-2153 794 0
-1448 314 0
-1143 -75 0
-1761 -1349 0
1546 -816 0
542 -941 0
-1074 695 0
1264 -2044 0
1159 -822 0
1303 716 0
885 836 0
-443 1370 0
-376 648 0
-693 -1363 0
-256 2099 0
943 -2263 0
-2032 -2227 0
1991 -1595 0
516 -1557 0
-1819 1927 0
-219 91 0
-1192 838 0
87 -603 0
-285 -790 0
896 1792 0
1131 1345 0
342 -66 0
-120 1916 0
1527 728 0
-409 -2036 0
-333 -2247 0
851 -113 0
1842 -70 0
-620 -685 0
1627 -2082 0
1712 450 0
-1767 -588 0
2286 -387 0
1741 47 0
-579 -56 0
-2148 1546 0
-1635 1662 0
-1102 -1128 0
-257 263 0
478 644 0
522 1003 0
-713 1914 0
-1798 -2144 0
1426 -51 0
1014 1581 0
-154 1099 0
-2071 1151 0
1828 -244 0
-445 -707 0
1048 886 0
-337 1063 0
75 -1184 0
-764 1225 0
2275 -1046 0
163 145 0
1594 2208 0
525 470 0
-824 1531 0
879 -583 0
-1818 -1400 0
528 -1453 0
2173 1056 0
871 308 0
1831 1137 0
1345 -97 0
-1016 636 0
-413 -1383 0
1575 -208 0
-597 1101 0
-1666 414 0
-1875 -1047 0
2190 -325 0
-815 2304 0
-2076 -282 0
1424 -1688 0
2163 -805 0
340 -2248 0
25 751 0
1415 684 0
10 1776 0
-961 -1833 0
-514 -743 0
1827 -875 0
-1477 699 0
-970 -796 0
562 524 0
-199 -432 0
-959 -1825 0
-480 -536 0
1926 -2027 0
-2011 -1738 0
-1683 1637 0
357 2015 0
-1281 466 0
1012 -720 0
2186 -2141 0
1587 2110 0
-1883 1600 0
-1845 -431 0
1621 1652 0
1632 -552 0
448 -1961 0
-234 797 0
-2159 -1214 0
-1811 -1839 0
1824 -1834 0
1381 1201 0
2068 124 0
275 -1177 0
-1959 148 0
-104 190 0
1569 355 0
1700 -1675 0
525 1578 0
60 -1540 0
-800 -852 0
1284 -760 0
-1443 2056 0
1903 1553 0
-217 -2073 0
-340 -1942 0
2224 548 0
-1990 181 0
-1423 505 0
-96 1668 0
1747 -944 0
-1468 827 0
1617 -1653 0
-1619 869 0
-1399 203 0
671 -2243 0
1145 -587 0
-890 -2281 0
-282 2211 0
-73 349 0
212 1411 0
-1676 1304 0
-465 1351 0
822 667 0
-419 -844 0
-1451 -2154 0
437 1188 0
1609 -892 0
2146 479 0
-1486 482 0
469 -1577 0
153 2273 0
1145 1253 0
2204 922 0
223 -977 0
410 -656 0
1921 268 0
-2139 878 0
-278 -1464 0
-1187 -1229 0
2037 -1726 0
2283 309 0
-7 770 0
-2010 137 0
1198 -2297 0
1518 -214 0
14 517 0
-2154 -876 0
-1410 -220 0
1709 1890 0
2131 -790 0
1776 914 0
-1764 2291 0
-1179 -754 0
1491 1492 0
-1094 -515 0
-536 756 0
-104 2098 0
-506 804 0
-407 -2064 0
-1212 910 0
97 -620 0
-590 -1276 0
-595 546 0
-1379 2189 0
-113 -2079 0
-1551 1754 0
2116 272 0
-2156 1234 0
-905 -444 0
2112 844 0
-792 1284 0
243 2219 0
-1687 -273 0
-1398 769 0
1633 -885 0
-1053 456 0
912 999 0
562 1937 0
2212 340 0
1737 1579 0
-554 -814 0
-918 -717 0
342 -475 0
941 -2286 0
-1417 -2270 0
1325 -240 0
-1211 1115 0
-2264 973 0
1501 451 0
-2240 1998 0
-162 -718 0
1548 361 0
-1925 -781 0
1144 1939 0
-1128 -2061 0
2033 -1199 0
1564 -2065 0
489 -1550 0
-1557 841 0
-2267 -1157 0
1633 -11 0
-1 94 0
1817 1286 0
-1029 -2249 0
-1839 289 0
-1261 2241 0
-2240 -193 0
1153 -1820 0
1060 342 0
-52 1603 0
-1392 2018 0
494 -1953 0
-718 -1491 0
-1184 -1326 0
-1751 -316 0
-1959 2155 0
-1741 4 0
134 -50 0
-1891 -2013 0
-1746 -848 0
-317 1869 0
-1768 -2116 0
-1838 -180 0
1438 -502 0
1140 209 0
324 1637 0
-683 867 0
1573 -237 0
-506 -128 0
219 -2243 0
-107 -220 0
-138 2006 0
538 1452 0
1580 893 0
-848 -965 0
-626 382 0
-871 2290 0
-1129 -2085 0
1022 -565 0
-600 -1736 0
627 -1584 0
-1306 150 0
-2101 -754 0
-2191 -1303 0
208 -1741 0
-2156 805 0
-390 562 0
-2142 -767 0
-699 1032 0
408 2116 0
805 1676 0
-2071 1101 0
-1720 -897 0
1594 -535 0
-492 1789 0
-1586 738 0
-1893 202 0
-2159 1828 0
2046 1671 0
2151 -2078 0
-840 1233 0
-778 2026 0
2 1604 0
-1508 -1026 0
-1923 -1260 0
-156 -1488 0
-800 -1272 0
-1340 998 0
-2167 -1226 0
-1440 -1830 0
-2152 1077 0
1364 186 0
532 -2008 0
-1874 -199 0
1873 -2265 0
-1538 1739 0
-429 -1649 0
1343 2096 0
1771 1318 0
1052 -452 0
-1265 -776 0
738 -1986 0
880 900 0
-781 2124 0
64 -959 0
1755 -135 0
707 -145 0
1446 -1131 0
1230 1301 0
-1819 1070 0
159 198 0
349 269 0
1694 1908 0
-1851 -506 0
1833 -23 0
-1212 -749 0
1677 -1636 0
1901 -341 0
-1597 -885 0
-1042 1335 0
289 -464 0
1060 -692 0
1165 -678 0
-1785 -1104 0
-593 224 0
-1833 -1184 0
-698 1319 0
1140 -958 0
1738 1114 0
1805 -2275 0
-67 711 0
-36 1772 0
455 2041 0
1270 1687 0
-696 1519 0
1658 1385 0
1289 -1206 0
1411 -365 0
-974 1639 0
-885 2207 0
1071 -568 0
1024 1438 0
-1046 -1129 0
-981 -600 0
1621 -1487 0
1363 -716 0
220 1884 0
877 -1570 0
-1350 1140 0
1566 1910 0
1181 -7 0
-419 809 0
-1115 122 0
799 -2293 0
1038 -1257 0
-1946 -53 0
-2188 2145 0
-435 -1429 0
-1320 997 0
1218 -1822 0
-388 1466 0
-2043 -77 0
2032 1311 0
-896 -989 0
-2017 -786 0
-1715 1295 0
1723 401 0
-514 1191 0
1284 -28 0
-911 -1515 0
1839 -2246 0
433 2213 0
-1387 -1287 0
1675 -1352 0
-2042 1744 0
-1239 -2246 0
-1144 1212 0
788 1229 0
-1138 -2132 0
-828 1311 0
-291 -1764 0
1993 -257 0
-1659 -923 0
139 -1503 0
1182 -2103 0
826 -565 0
504 -35 0
468 -1861 0
-123 -50 0
-1404 1632 0
1156 -91 0
-1238 666 0
-699 2097 0
-220 -1064 0
1087 -1346 0
478 -2174 0
1832 651 0
-1555 1106 0
2022 1700 0
-1252 2145 0
-1514 2131 0
-917 -1533 0
147 1267 0
-1047 718 0
-2203 -733 0
1289 -278 0
1528 -4 0
-2293 1844 0
-1459 405 0
36 -517 0
-2147 -1244 0
-2278 1117 0
-1010 -888 0
-325 -1383 0
-1500 -1384 0
1874 1277 0
-624 -891 0
-2093 1851 0
-1592 272 0
-712 -585 0
879 739 0
301 -854 0
1744 -1275 0
1111 1983 0
374 1647 0
-499 -408 0
-66 1478 0
2186 2204 0
-999 -1087 0
-531 474 0
-571 -938 0
1499 1142 0
1219 -1504 0
1096 -2255 0
-1235 62 0
1009 -1258 0
-781 -1920 0
-1331 1264 0
1841 -1443 0
1910 -564 0
-1072 -1535 0
-163 1782 0
-342 812 0
719 -951 0
-1271 -73 0
-234 139 0
-588 -1409 0
1006 792 0
-548 990 0
1582 -1762 0
-226 200 0
-1127 867 0
924 -476 0
682 -1846 0
2172 1680 0
-681 -737 0
961 -1472 0
-281 1058 0
-969 1992 0
1669 1813 0
636 -327 0
1957 909 0
788 1549 0
1574 712 0
37 -2109 0
1480 -1 0
-1740 -1544 0
-135 -1018 0
-865 277 0
793 665 0
-1212 -1659 0
1750 1093 0
-372 149 0
441 -1171 0
464 2228 0
-1985 748 0
-1262 -1273 0
-1435 -1398 0
265 590 0
1159 -1806 0
345 -1989 0
-307 2122 0
-251 -563 0
-2056 904 0
1680 -56 0
-734 -1683 0
1771 115 0
1897 -1803 0
2163 -1494 0
-527 -1243 0
1232 -356 0
1589 -2060 0
1146 -2094 0
-1695 1618 0
1924 1907 0
-28 279 0
-2214 1413 0
-486 1466 0
1208 2256 0
-1251 2017 0
-1228 -2144 0
-430 421 0
841 1978 0
1528 -1797 0
2005 -229 0
2241 -814 0
-1942 -2080 0
2077 -477 0
-356 813 0
-1220 -240 0
-124 -1736 0
354 -159 0
-1457 1308 0
1304 -43 0
1397 1125 0
1337 29 0
-1734 969 0
-798 -1592 0
-1882 -727 0
2267 1068 0
653 65 0
-1895 -1656 0
-2104 -559 0
-1923 857 0
2096 -1880 0
-366 1325 0
1357 -1961 0
-534 1364 0
-2158 1321 0
102 -1089 0
-2256 586 0
-577 1842 0
-787 1235 0
1439 436 0
-1046 -736 0
-901 1678 0
-2010 -1097 0
-1797 980 0
1660 -1047 0
2172 -1738 0
-2228 -1484 0
1040 519 0
-1487 -1597 0
-1260 -518 0
675 -356 0
2148 -2228 0
-1393 -1993 0
-282 -827 0
-585 -701 0
-106 1472 0
1531 -1461 0
617 -988 0
770 -1701 0
27 1978 0
-471 420 0
1784 -2191 0
-1957 280 0
625 1949 0
-1344 -1524 0
726 1912 0
1325 1994 0
-250 1367 0
718 1109 0
2119 1016 0
-1784 -1094 0
-2030 -1705 0
733 1757 0
-2105 -438 0
2234 -1682 0
-140 2270 0
145 1998 0
-434 2171 0
871 1300 0
-1495 -833 0
2197 1739 0
693 -353 0
-1349 1353 0
-2128 -1667 0
1551 1376 0
-42 -1738 0
575 853 0
629 -923 0
-1923 749 0
-33 -1038 0
-920 -1405 0
1178 -813 0
2077 1244 0
-784 2113 0
-190 1840 0
-28 -1538 0
792 1712 0
-1305 1426 0
-1557 -314 0
811 1794 0
162 -1406 0
-1817 -1069 0
598 -1614 0
-1935 304 0
806 101 0
-379 -952 0
-1179 586 0
2284 2032 0
1641 406 0
-471 -1598 0
36 -1882 0
1339 -28 0
1664 1752 0
117 1757 0
452 -1891 0
-126 -1403 0
-1721 1645 0
2186 -1295 0
324 -194 0
1115 -2029 0
-2243 1369 0
-974 508 0
489 -683 0
-1543 -1659 0
-1819 2070 0
1123 1100 0
-189 1682 0
-400 -1092 0
-1406 -1296 0
2111 1618 0
-2001 -244 0
453 1208 0
176 -2237 0
209 1924 0
870 -1238 0
12 1573 0
505 -2292 0
-90 -1169 0
269 -943 0
-45 239 0
-1731 -172 0
-1237 2087 0
217 -1328 0
-563 99 0
-870 -1612 0
-308 2095 0
-2085 -1727 0
1349 2032 0
211 695 0
-601 -29 0
-637 2186 0
576 768 0
-965 -38 0
-660 1119 0
-1473 -1336 0
1432 1152 0
132 2195 0
2211 -38 0
872 -224 0
138 770 0
-2111 -1337 0
-1819 -906 0
-2034 -107 0
-1138 -1128 0
-509 1936 0
-165 -263 0
1949 -772 0
118 -1136 0
2254 -956 0
-2158 -2029 0
293 -1692 0
-710 1740 0
-2201 505 0
-1551 1111 0
-1729 -2148 0
-1648 1941 0
60 -601 0
-932 -1717 0
151 -263 0
839 -478 0
1520 -1237 0
-208 1630 0
1674 1353 0
-1834 556 0
-317 860 0
-1456 -20 0
-219 1660 0
1881 895 0
272 1212 0
2196 -758 0
-327 505 0
-2282 1548 0
-2157 -1027 0
-1416 1453 0
112 448 0
-801 -222 0
1303 -1351 0
1913 1973 0
641 2132 0
29 719 0
-255 1202 0
-906 -95 0
-1375 135 0
1217 -1818 0
-639 145 0
401 -2030 0
455 -1320 0
53 1199 0
-1526 -1127 0
1385 1514 0
767 101 0
-821 1050 0
582 1684 0
-2045 853 0
-2266 1449 0
-1154 320 0
1777 1323 0
713 -981 0
1410 -756 0
1624 283 0
546 -1382 0
1747 -1495 0
-2146 -1371 0
-1318 -2300 0
-1059 -1932 0
-249 -440 0
-1536 409 0
842 1368 0
-1909 -2016 0
-1939 -1121 0
-1500 1319 0
-1833 419 0
-1732 -1942 0
-1642 -91 0
83 1740 0
2298 -2114 0
342 1895 0
-379 -85 0
-2067 996 0
1844 -1513 0
2177 1679 0
-856 1412 0
1126 1063 0
-1720 885 0
2062 -2071 0
-143 480 0
-728 -1493 0
2219 -1448 0
942 650 0
351 1886 0
297 -793 0
1487 651 0
271 -1336 0
507 1388 0
-1944 236 0
527 -1064 0
-335 -2167 0
1722 1602 0
855 240 0
-1142 1783 0
-714 -549 0
1895 1216 0
-352 2042 0
487 -1863 0
1379 -1444 0
-311 1446 0
-2295 -611 0
1596 538 0
-1184 1026 0
2022 -1115 0
1426 1107 0
145 237 0
1372 176 0
-557 693 0
539 -1494 0
-1138 653 0
2037 1396 0
-1412 143 0
1797 903 0
1853 -457 0
-454 -971 0
62 -486 0
-606 565 0
1298 1732 0
-639 -1998 0
-509 1198 0
-1360 -758 0
-892 2298 0
-1606 -816 0
-602 2072 0
-2229 -1461 0
-1649 -8 0
-1947 209 0
515 -877 0
2033 -531 0
1343 -362 0
-403 1528 0
-1766 -497 0
-2154 -347 0
-282 -1449 0
1320 -1569 0
1645 1251 0
1828 318 0
1792 109 0
-870 -205 0
361 1747 0
460 -1024 0
-1094 2269 0
1125 1570 0
2162 1023 0
1506 -816 0
1632 -1700 0
-1747 -36 0
75 709 0
701 -621 0
-1299 -2049 0
2281 -1449 0
-2227 319 0
-1470 -73 0
-589 1904 0
728 -414 0
4 -540 0
-145 -1167 0
-695 -1865 0
975 783 0
-2111 -1822 0
309 413 0
-1762 1900 0
-1882 1813 0
2065 1565 0
-179 -1593 0
-1162 324 0
-1549 -1335 0
-983 -613 0
-999 -1007 0
-854 -2174 0
2242 1023 0
-325 1732 0
843 -782 0
980 760 0
1809 -1285 0
2178 -1375 0
-84 -429 0
236 -2304 0
2182 1289 0
-833 -1379 0
-627 789 0
-1513 2167 0
1317 242 0
-1776 1482 0
1763 -734 0
1548 -730 0
413 669 0
1572 194 0
728 -1541 0
-1701 -76 0
-229 574 0
-2092 1523 0
-847 1954 0
1641 1091 0
1028 393 0
-53 1006 0
1822 -1806 0
2060 921 0
-1487 -147 0
-791 1721 0
-141 1835 0
611 871 0
-2283 -2192 0
1125 -2065 0
189 6 0
62 -1907 0
-1703 2166 0
1494 -1845 0
-1715 -195 0
-1661 -237 0
1295 1111 0
-188 -137 0
1812 2087 0
1388 -161 0
566 547 0
-2062 -862 0
1434 635 0
-613 -1697 0
-852 2114 0
-37 1912 0
-1079 -650 0
939 -250 0
-558 -2265 0
-586 -873 0
-1520 1184 0
-2292 967 0
946 2218 0
1646 -621 0
-2301 -1822 0
-1299 1784 0
-2067 -234 0
-1730 -624 0
-1616 668 0
1643 -1264 0
1434 -1954 0
-226 -998 0
1042 2087 0
-1011 484 0
-1995 1079 0
-1619 -488 0
-90 2231 0
-430 214 0
-52 1774 0
1743 1547 0
393 1927 0
-917 808 0
59 -1778 0
839 -974 0
333 822 0
-1086 231 0
-180 1696 0
2210 1890 0
-671 -2050 0
-2014 1206 0
-2194 1952 0
-1667 1026 0
-136 1555 0
-391 2224 0
1332 813 0
130 -2026 0
112 -1931 0
145 1493 0
-278 -295 0
949 -1534 0
-2244 128 0
662 -2133 0
-2264 539 0
2033 211 0
318 756 0
57 1437 0
1629 -263 0
1745 -1517 0
2108 1910 0
1004 -563 0
-2210 -1267 0
-1157 -548 0
887 10 0
-136 1274 0
-1838 -1762 0
-224 2282 0
-1824 1202 0
-913 590 0
-1064 -1093 0
1276 1681 0
-1324 2214 0
-2144 1886 0
-731 -1162 0
-2296 -799 0
328 -1410 0
-1428 144 0
1284 1433 0
-1814 -1427 0
1308 -392 0
2091 -1329 0
539 2105 0
-1496 -514 0
-597 -1809 0
6 985 0
-743 2248 0
619 393 0
1739 -1163 0
-462 -1597 0
570 1872 0
851 599 0
-1189 -2269 0
1655 1201 0
193 -147 0
-1357 -2143 0
-255 -1333 0
-1825 -1895 0
783 -964 0
-2065 94 0
-1123 -1964 0
1142 1046 0
-1753 1140 0
2222 200 0
-950 735 0
1624 482 0
796 -2064 0
-2020 1699 0
1921 1581 0
-744 -883 0
1718 2280 0
1572 2189 0
316 1851 0
-848 943 0
-600 704 0
-2263 741 0
612 1001 0
1434 -1465 0
1884 1223 0
1746 1388 0
-1906 -849 0
-172 -2269 0
689 2261 0
-918 308 0
1216 501 0
-932 -1094 0
865 -36 0
2086 -1035 0
1788 821 0
2022 -1325 0
1153 424 0
-1433 -2193 0
-1762 -1494 0
593 -1165 0
-2047 -1931 0
-1785 145 0
580 1676 0
-2199 586 0
1450 1806 0
-650 305 0
-511 -492 0
1374 -1173 0
1876 449 0
-1985 -167 0
187 -978 0
-968 -1237 0
402 2044 0
1800 53 0
599 -540 0
267 2232 0
-1005 1323 0
-1650 -1561 0
-1090 -607 0
1448 269 0
-1707 -20 0
861 -1833 0
1948 378 0
599 -352 0
-470 -666 0
1027 518 0
-1959 137 0
-1149 1071 0
-1721 647 0
80 2163 0
874 -1109 0
-1218 -413 0
204 -1521 0
930 -1016 0
2055 32 0
-53 658 0
-1572 694 0
2272 1472 0
-1141 -604 0
160 168 0
1908 -683 0
-1889 -780 0
1853 -97 0
1373 -1557 0
-1331 1636 0
1081 1303 0
-2157 1681 0
1458 635 0
841 -238 0
356 1604 0
796 -1022 0
1546 -2210 0
2291 1638 0
-558 969 0
457 1291 0
-2074 1901 0
-2120 125 0
81 1926 0
-2276 -1845 0
1678 -1674 0
-1064 -1604 0
-997 -334 0
1275 -1475 0
1578 -718 0
1912 -1095 0
-2301 637 0
533 -696 0
-1009 -2242 0
9 -1610 0
68 844 0
-1405 -717 0
-571 397 0
149 -1834 0
-2174 -163 0
-26 -1961 0
1919 -414 0
971 -660 0
-984 200 0
-1169 1122 0
-288 1629 0
-1725 -714 0
684 -422 0
-1330 -1663 0
-2269 -582 0
-1193 -1833 0
-482 2228 0
293 -276 0
1358 -1117 0
-566 480 0
-156 -306 0
683 -1417 0
1014 729 0
12 415 0
708 1700 0
1066 975 0
462 914 0
1830 -980 0
-271 -1854 0
-1061 1948 0
2119 472 0
-2196 -16 0
-923 1316 0
2178 -1131 0
1125 1379 0
-2071 236 0
707 -2191 0
149 -740 0
744 105 0
-523 -1615 0
116 -1692 0
1849 -2299 0
-1037 2164 0
764 761 0
749 494 0
591 -878 0
2183 -1990 0
312 -428 0
1499 -920 0
560 2260 0
14 2 0
368 -1531 0
217 -1804 0
-1819 971 0
-2004 -1336 0
-987 -23 0
388 402 0
848 109 0
-1802 -666 0
2265 1774 0
1317 -1951 0
1043 -391 0
1418 722 0
-1240 867 0
2098 -1652 0
822 -649 0
886 1868 0
494 686 0
1951 -158 0
2035 637 0
1768 1462 0
80 116 0
-1659 -1682 0
-2158 1061 0
-1494 -434 0
-769 37 0
206 -677 0
21 -1328 0
1819 -780 0
-1380 376 0
-1597 -1405 0
-1084 -837 0
629 -1999 0
-346 -1874 0
-834 -1884 0
-919 1572 0
-1522 -1240 0
1545 1390 0
-1787 -1931 0
-1354 528 0
-734 1902 0
671 2125 0
1232 -1616 0
1972 297 0
1287 82 0
1258 -194 0
973 -699 0
-2127 -401 0
588 -1085 0
-512 551 0
-2039 902 0
-274 2090 0
1510 -2274 0
-732 1270 0
1919 2255 0
418 253 0
-1538 -2127 0
866 -1888 0
1184 2096 0
1343 -2188 0
-658 -517 0
-118 -334 0
-2159 -390 0
-736 -1882 0
1922 200 0
-283 1877 0
-1427 23 0
-622 -1416 0
-1829 -2197 0
-1463 -1372 0
-885 -1983 0
68 -2246 0
-108 1564 0
1202 -345 0
-2040 -359 0
959 -1118 0
-771 73 0
1203 -815 0
1970 1777 0
377 1003 0
-2003 320 0
17 1045 0
1930 -1091 0
1332 2139 0
-1785 -1247 0
592 -1064 0
1929 1859 0
-2147 834 0
-947 -2220 0
-171 1892 0
331 -52 0
1921 -1562 0
-2171 354 0
-1662 -2177 0
-208 -956 0
551 1609 0
-1127 -2069 0
1605 -1522 0
1453 -1679 0
-1247 -2205 0
-1796 -1769 0
-1635 -1859 0
1000 -2151 0
1142 1558 0
-744 2076 0
-776 -761 0
-1473 1822 0
-1495 2059 0
493 -1703 0
-664 560 0
-1697 1488 0
-1378 -1063 0
1588 815 0
-1690 1875 0
-32 88 0
-1545 795 0
468 -1708 0
-1721 1441 0
629 322 0
-795 1842 0
1203 414 0
-2287 -230 0
2251 -780 0
-1719 1767 0
-2157 -1727 0
1755 -1154 0
1607 2094 0
-28 -1931 0
-224 -514 0
586 -145 0
460 -1900 0
-842 -2192 0
-2085 889 0
2262 652 0
-1818 -1703 0
-1176 -244 0
116 -1631 0
1654 1877 0
-756 426 0
-2004 -2065 0
602 -84 0
2298 -1544 0
1959 996 0
2186 424 0
1564 2110 0
551 1982 0
272 -1403 0
-2101 -1127 0
511 1311 0
-2168 1596 0
654 -1590 0
-1502 1091 0
-1178 -1084 0
-1696 -2080 0
-609 -400 0
-2073 1627 0
1639 -1483 0
1562 2131 0
-66 1346 0
2019 -1047 0
-963 521 0
-1119 -1967 0
-514 1699 0
1483 -1491 0
743 -1990 0
1144 -929 0
-1327 170 0
1922 -468 0
-1938 891 0
-2269 2051 0
1422 -946 0
-1288 1653 0
-498 498 0
-1330 1274 0
1126 1648 0
-147 1868 0
-1991 1705 0
1676 -1503 0
1855 -334 0
-206 -1578 0
-92 -656 0
1438 1809 0
226 -2016 0
-249 1439 0
463 1929 0
-1447 1621 0
-864 82 0
1793 -647 0
-2288 -334 0
985 55 0
-888 1382 0
-1523 -1280 0
-1690 -943 0
696 -635 0
1446 -1810 0
-467 -50 0
-112 1643 0
-894 940 0
1028 -1324 0
2079 35 0
1539 1997 0
483 1618 0
-623 828 0
1022 2239 0
-1598 1850 0
-842 -545 0
-675 1089 0
-251 1413 0
1433 2237 0
914 1691 0
308 -1316 0
-2029 811 0
-1515 -1597 0
-666 1621 0
-1123 -1989 0
-578 -692 0
-1063 -471 0
-2039 -1923 0
285 1844 0
-2067 -2020 0
-568 -1287 0
-238 680 0
-1576 -67 0
-1494 1089 0
1838 -552 0
-1953 443 0
1490 -111 0
-1036 -1230 0
-558 -2172 0
-629 -334 0
1308 1745 0
-553 -478 0
1178 1695 0
-26 -634 0
-1208 -2263 0
-1722 -408 0
224 -1572 0
-2193 -1123 0
1779 1289 0
1814 1001 0
1769 1398 0
-310 1884 0
-1510 -1213 0
1136 1112 0
122 -2280 0
-1417 1250 0
-862 -1710 0
-1091 -752 0
-1410 1098 0
-306 1103 0
-1719 -281 0
1337 82 0
-582 -1093 0
112 -1439 0
-2016 -1331 0
-1653 -4 0
620 963 0
518 313 0
1049 2172 0
-2129 -519 0
1418 -849 0
-1322 -581 0
-570 -1117 0
-689 -644 0
1950 672 0
-1240 66 0
401 -963 0
-715 197 0
-430 457 0
342 -74 0
-1353 2013 0
-385 1876 0
330 -452 0
-2011 -824 0
1903 1218 0
-1366 964 0
-373 -1808 0
-1212 -1444 0
-390 -2072 0
-821 -940 0
-1214 -1997 0
-2278 -1592 0
1437 -1736 0
-877 -1226 0
526 370 0
-615 441 0
338 -432 0
1805 953 0
2217 -378 0
1493 718 0
18 3 0
1472 1618 0
-2167 101 0
-870 -30 0
2197 -541 0
-2295 1416 0
331 -273 0
1827 -2042 0
-1348 -952 0
-1041 455 0
1672 -1782 0
-344 1478 0
-595 733 0
-1180 -141 0
-500 622 0
515 410 0
-1324 -654 0
-1689 360 0
1250 -1357 0
-1100 -752 0
1235 -249 0
-294 216 0
1615 2055 0
-1660 -1131 0
-514 1572 0
-583 -583 0
-443 -264 0
867 1644 0
1887 1049 0
2129 -1956 0
-316 -1467 0
306 2053 0
457 2303 0
-2178 -479 0
-559 -1938 0
984 1956 0
-26 -571 0
-1444 861 0
57 -1143 0
1150 545 0
-1561 363 0
318 2290 0
-313 -308 0
-1346 1915 0
-1085 -1883 0
-598 158 0
-112 -800 0
1565 105 0
-1677 -1852 0
-2027 -938 0
-819 -387 0
-358 300 0
1751 -1484 0
-308 1468 0
-1362 399 0
-245 519 0
939 -1342 0
698 -1330 0
793 1755 0
-2252 1108 0
1177 1344 0
162 -2094 0
1975 1748 0
-524 -1036 0
-535 -1789 0
-1996 1404 0
1096 -487 0
684 -780 0
1545 1456 0
-334 1122 0
684 696 0
1835 1202 0
106 -1631 0
-2082 -1677 0
-1415 963 0
-1549 -622 0
-729 871 0
-1423 512 0
-1614 -1403 0
1453 1014 0
-1514 -2209 0
-1485 1823 0
1938 -1348 0
920 -1262 0
1412 -2137 0
1910 -1812 0
-339 1505 0
-709 -585 0
-75 360 0
1507 -595 0
-1417 -1654 0
-1894 -469 0
1413 1506 0
1859 1972 0
-2122 -1811 0
-1893 -397 0
117 -1375 0
-923 1636 0
2289 1323 0
478 1873 0
1667 -2273 0
1564 1875 0
1769 -1814 0
1873 -941 0
-212 2232 0
1551 2233 0
-1819 -936 0
-699 812 0
-662 942 0
581 1789 0
2287 1040 0
254 573 0
-1129 -1742 0
1499 -54 0
-2174 607 0
945 -1002 0
-1939 210 0
1599 -2211 0
-1550 1084 0
-2258 1122 0
1 -1281 0
717 -998 0
583 -347 0
342 1269 0
37 1475 0
111 -1752 0
1935 -76 0
827 1412 0
-1509 2073 0
-732 1157 0
-305 70 0
-103 1600 0
-536 1760 0
-278 1785 0
-129 669 0
-344 1227 0
-1812 -382 0
-1732 -2014 0
-38 -1878 0
-1602 1241 0
-757 -1832 0
2178 240 0
1472 871 0
-1752 -359 0
-1854 1831 0
2027 1465 0
-1173 -1054 0
1458 -432 0
-407 -890 0
-28 -1834 0
-1149 -2032 0
-216 -1192 0
1604 -1541 0
1142 -268 0
2245 -1649 0
1248 1758 0
2180 921 0
323 955 0
-1559 -1033 0
-1573 -877 0
-2203 -282 0
-2254 574 0
-579 -48 0
1319 -2069 0
1127 -287 0
-487 563 0
1671 1826 0
2273 -498 0
879 -711 0
-543 653 0
-328 1965 0
-2131 -356 0
-1162 613 0
-1702 1435 0
2208 -2061 0
-1573 1523 0
1652 -1195 0
-2130 -909 0
-1897 810 0
-1531 -515 0
542 -75 0
-1761 -51 0
-217 -178 0
527 633 0
-1845 983 0
-1207 -982 0
-273 1237 0
-1874 -1154 0
-848 -1656 0
728 1151 0
-840 1350 0
-1009 426 0
1832 -71 0
493 -168 0
38 -1554 0
926 348 0
9 185 0
-1895 -1402 0
-2047 2 0
-563 -152 0
-592 348 0
1710 -987 0
474 -245 0
1210 808 0
-1113 -1922 0
-1311 1738 0
-2005 -888 0
2094 -1882 0
482 -1588 0
1355 -1132 0
909 864 0
1223 200 0
177 975 0
-1503 376 0
-1772 1837 0
1381 1720 0
-614 -62 0
-1091 -1022 0
-1943 -414 0
886 1805 0
1758 515 0
2069 -354 0
-726 -671 0
1040 501 0
1469 404 0
-692 -570 0
1842 1501 0
43 -790 0
1668 2279 0
1130 817 0
647 -909 0
-1272 1089 0
-919 2178 0
-1666 1579 0
355 -816 0
1073 560 0
1317 261 0
-1201 1843 0
-1867 -1996 0
1200 490 0
-319 -1594 0
170 439 0
-1384 798 0
668 -2074 0
1139 298 0
-206 -656 0
-367 -1055 0
-824 899 0
904 -1932 0
-732 718 0
-1106 711 0
-2130 853 0
-2026 235 0
793 -437 0
909 2044 0
868 -392 0
1092 137 0
-1659 871 0
-1291 -32 0
-2160 -2275 0
2030 1134 0
-327 -103 0
-191 212 0
1801 -1516 0
972 1038 0
-2185 1536 0
235 2136 0
-89 -43 0
-652 587 0
971 -1464 0
-2072 643 0
-1352 447 0
-169 -1802 0
-1167 -1780 0
-2039 -807 0
1595 1180 0
202 -442 0
785 -1550 0
1108 -614 0
1803 -39 0
-1798 -120 0
1429 -235 0
390 2136 0
2302 355 0
2086 -1498 0
-868 843 0
2217 1595 0
-1376 -1219 0
-1309 1507 0
-1314 -1375 0
1737 2081 0
1457 -665 0
-1933 2177 0
-1816 12 0
294 -1438 0
574 1253 0
2216 808 0
1738 1351 0
208 1820 0
-51 1714 0
-1564 1733 0
-1292 -1404 0
-607 1021 0
1274 1590 0
2034 167 0
1096 -204 0
672 -723 0
-2157 149 0
1131 1114 0
1700 -1479 0
-161 1535 0
-668 1234 0
-208 878 0
-2036 -77 0
582 -908 0
-429 -1330 0
954 -366 0
1370 -1610 0
-947 -2015 0
1529 1505 0
-815 -877 0
2218 -1080 0
261 1217 0
907 536 0
-699 -974 0
351 1810 0
1381 -1176 0
607 -2293 0
-1252 642 0
1664 -501 0
-1896 728 0
1679 -252 0
81 1087 0
-1711 1112 0
2065 -1635 0
1422 469 0
-588 2185 0
-2014 -1108 0
-24 1710 0
-1583 903 0
1035 296 0
2134 -382 0
1315 -1440 0
-2030 -1785 0
-1586 392 0
-331 -981 0
1230 -388 0
-1357 1075 0
-1114 823 0
18 1041 0
2146 -250 0
-693 -1084 0
1607 -1720 0
-31 1169 0
-1119 -1996 0
1095 -1097 0
-2078 -1391 0
-1047 1559 0
1257 1481 0
-1998 -162 0
431 414 0
1643 -1826 0
1116 1359 0
2095 490 0
-731 -1640 0
998 -2133 0
881 41 0
507 -1881 0
178 1417 0
-32 -1258 0
2070 -1709 0
-2280 995 0
-339 -757 0
-800 -552 0
-2027 -1731 0
-1417 2123 0
-527 2038 0
-1578 955 0
68 -147 0
-432 -516 0
-1141 291 0
1975 2071 0
-1662 509 0
79 -1619 0
-631 -1521 0
-1146 1075 0
-2229 -67 0
1565 84 0
2238 676 0
-2200 1445 0
-838 -1966 0
-173 -1252 0
-51 -88 0
669 887 0
2009 1068 0
119 -1010 0
-2176 1198 0
2208 -1711 0
-1330 -1809 0
-296 2248 0
-1774 1353 0
-5 1465 0
1503 738 0
-1720 1104 0
-1012 214 0
-1054 -1035 0
-195 -538 0
-1479 -1001 0
218 2064 0
-2234 -1141 0
-1566 -238 0
1165 -1649 0
1546 1361 0
1814 1972 0
861 820 0
-816 -207 0
-705 406 0
129 707 0
2068 961 0
463 150 0
-652 -1066 0
-402 1824 0
-1483 -1761 0
1034 -1276 0
1832 1996 0
-73 2180 0
-2257 -1105 0
-2107 -180 0
509 745 0
-937 -1066 0
887 1033 0
