c NF
p cnf 4877 9754
-4729 -4132 0
2120 -351 0
3110 707 0
-2005 -649 0
3338 1575 0
2550 -4138 0
-1232 4422 0
-3623 -1978 0
-2316 4406 0
575 -2066 0
-2705 1053 0
-1423 -4758 0
294 3372 0
-1279 -2970 0
-2981 -4781 0
-501 -1709 0
-566 -3024 0
4613 2127 0
-4802 1028 0
-1954 -4344 0
4057 2119 0
2333 -1020 0
3930 329 0
-4774 869 0
-1169 -4100 0
1661 2180 0
-1031 2316 0
-4151 2969 0
399 -2413 0
554 400 0
1478 3320 0
2864 -556 0
-2646 3839 0
2888 3535 0
780 3385 0
-1147 4132 0
1134 1829 0
4432 -906 0
2483 -4707 0
2220 486 0
2329 -2568 0
-944 2786 0
3525 3136 0
728 1656 0
-204 992 0
-2196 -277 0
-3113 3331 0
806 -3686 0
85 1533 0
-4360 -3583 0
4236 -3715 0
-3441 764 0
4761 3830 0
-232 -1996 0
3972 1350 0
-487 735 0
893 -19 0
-3548 976 0
-1161 4155 0
-3463 -4224 0
-2051 1962 0
-4125 -3367 0
1416 4229 0
1853 -877 0
1964 -3087 0
1712 -3508 0
-4326 2013 0
1409 -2911 0
-2400 -847 0
1181 -3867 0
-1425 1143 0
-4725 -79 0
-159 -1793 0
3493 -1191 0
-4651 1296 0
-2185 -3835 0
-2524 3258 0
-4548 3284 0
-2802 -4602 0
-258 -1381 0
-3920 299 0
2402 -1349 0
4781 3638 0
3917 -2639 0
1285 4227 0
-3605 -117 0
-3282 1180 0
-320 2115 0
-3475 -856 0
3769 4818 0
2605 -3127 0
4014 -320 0
-4011 -4365 0
-1146 1038 0
275 -3220 0
2042 550 0
-1667 -2190 0
779 1456 0
-592 922 0
-263 1073 0
2268 2445 0
-399 2353 0
4752 4241 0
-1394 -4518 0
1867 -470 0
4767 -3162 0
-959 2920 0
1905 -819 0
-4169 -1029 0
-2974 -1851 0
1284 -1329 0
-3186 1172 0
-1195 2139 0
200 2018 0
-3629 4293 0
-314 347 0
-4424 495 0
-465 1457 0
-4398 -2452 0
-1218 -235 0
764 -907 0
3372 3261 0
-2944 -1843 0
-1044 -2757 0
1987 996 0
3888 3234 0
2457 1882 0
-2424 4329 0
2597 -1587 0
-524 -3179 0
-3687 3721 0
-24 510 0
2001 -4609 0
-3530 3253 0
1148 623 0
-3596 -3923 0
4045 -2762 0
717 1203 0
3644 1453 0
4330 3306 0
1075 4415 0
623 2883 0
-2405 -2143 0
-3818 -1067 0
3371 -333 0
913 3080 0
-3519 3655 0
-1219 2215 0
2048 4680 0
2184 -3466 0
-2896 705 0
4073 3447 0
-4739 -4102 0
1345 1645 0
1993 2075 0
10 -4710 0
-2511 -3232 0
-1291 2552 0
2712 -2938 0
-634 2298 0
-678 1945 0
-4619 -587 0
547 1402 0
183 1805 0
4186 -2222 0
-480 571 0
-3416 -973 0
1170 -4059 0
78 -3750 0
-3009 -1621 0
4530 -2883 0
668 75 0
-3007 1061 0
-2972 -157 0
704 -1048 0
1051 -4811 0
-4751 2841 0
4527 520 0
-140 4309 0
4260 -3423 0
-997 -2470 0
-1606 3141 0
-4119 3506 0
-743 1031 0
559 -532 0
1075 1127 0
4714 4157 0
-194 -4238 0
60 302 0
-1175 1669 0
-4500 -2420 0
-3588 1146 0
-2859 2338 0
4217 -4077 0
-2721 -4813 0
2397 4864 0
3780 -3499 0
66 1826 0
-1493 -2151 0
-1674 -3327 0
-3012 858 0
2412 2343 0
4127 -3093 0
-4040 -4656 0
-922 -975 0
2791 1859 0
606 -2935 0
336 -2777 0
-129 -3596 0
-7 -2813 0
-1716 -4165 0
2238 -3265 0
2183 -852 0
2290 3680 0
-4748 -2375 0
2862 -3750 0
424 -4042 0
-4064 -907 0
2079 -2904 0
-1667 4243 0
-4259 758 0
-2572 193 0
3067 2320 0
3577 698 0
720 4852 0
1331 295 0
1433 -2257 0
-2704 4520 0
862 -3038 0
-3999 2900 0
2679 -3758 0
-3688 -4785 0
-2950 3977 0
3813 2701 0
-601 -4698 0
-757 1775 0
-1387 -1305 0
-1274 -1767 0
3851 -4679 0
-3487 -1218 0
-1180 4279 0
658 -4455 0
-349 4734 0
3458 3004 0
-4067 364 0
-288 1986 0
-2378 1835 0
63 -4109 0
-1950 3418 0
4544 -2818 0
-4721 3504 0
2669 -2646 0
-4162 1726 0
3721 1726 0
-390 3979 0
-3159 508 0
-1230 -4453 0
-2970 3313 0
-2896 3034 0
-2206 1388 0
1597 2190 0
-1614 4496 0
-2230 644 0
-1651 3598 0
2837 1095 0
-433 3782 0
149 -4069 0
-2624 -98 0
1766 -4781 0
-4073 -1756 0
-3619 -3346 0
3691 107 0
-219 -969 0
908 -742 0
-3721 603 0
-3453 -4866 0
1998 1410 0
4166 1292 0
-1899 -188 0
-464 -3186 0
2543 1660 0
761 -4223 0
-1097 -4581 0
-3474 497 0
-4601 4617 0
-2838 -1132 0
939 -2980 0
-694 1797 0
2988 -1241 0
-4344 -4849 0
-1787 -3397 0
-1129 995 0
-316 -3082 0
-3109 4489 0
-3294 -224 0
-2830 2359 0
4243 -3742 0
-2686 -1000 0
-2308 859 0
924 4268 0
1395 -762 0
4496 447 0
-3212 4144 0
-2775 -1001 0
-801 4399 0
2682 2462 0
2004 -2787 0
-2080 -4232 0
-4522 2640 0
2658 -3730 0
-1334 -708 0
-4070 -4638 0
-4272 409 0
4468 1987 0
1508 1386 0
1214 -1256 0
2335 -4475 0
-4733 -1839 0
3099 -2136 0
-756 1561 0
2102 -3696 0
-811 -3445 0
-2810 -3616 0
-3795 -4700 0
4041 3806 0
93 1138 0
200 -1917 0
-3453 2625 0
1342 -997 0
4281 1224 0
2677 3637 0
1725 -260 0
2106 -1373 0
743 -767 0
-2654 -3814 0
-3728 -562 0
2285 -3084 0
-2760 227 0
-1463 -3696 0
-2954 -2515 0
-3322 4374 0
1224 -2714 0
-4483 -673 0
-3131 4783 0
-1039 3092 0
-4609 -2708 0
3557 25 0
-2206 -4091 0
-2119 4586 0
-2136 -1603 0
-1900 -735 0
-2630 4520 0
-2262 -2116 0
-4712 -3269 0
-4218 -2393 0
3253 -535 0
-1196 1489 0
-2764 4086 0
274 -4315 0
460 -3266 0
1999 -857 0
3536 -3480 0
-2962 -165 0
3476 2038 0
3732 3771 0
3237 4069 0
-4325 1584 0
-3830 3604 0
-4032 -1969 0
3129 1903 0
-3434 2083 0
-2719 -3289 0
-1693 -3846 0
1584 1723 0
2993 2155 0
-3730 2816 0
-98 2516 0
1893 2243 0
-2168 -1845 0
246 3707 0
-1168 3501 0
1995 -3699 0
-1993 -3815 0
1284 1386 0
-1622 3049 0
-83 -2068 0
1883 4824 0
-3354 -4059 0
-2038 -438 0
-1218 1883 0
27 -4733 0
-4865 -199 0
4001 -1791 0
-1183 -3254 0
-2155 2716 0
2892 1729 0
1246 -2667 0
1901 -3757 0
2710 3558 0
-2883 2260 0
-717 -1261 0
-3135 -4277 0
3486 -3270 0
-1883 -305 0
1985 3287 0
2312 -2281 0
-1169 4236 0
1213 -60 0
3971 -130 0
2515 -3337 0
-4251 -1295 0
-58 2630 0
951 -185 0
2591 -1850 0
1210 -3835 0
2296 -1646 0
-1909 1235 0
-1420 2748 0
3531 1344 0
-2531 2910 0
4592 3233 0
-308 -855 0
-1466 -1615 0
-4792 -2255 0
-2779 -76 0
2332 -3064 0
-1783 868 0
-312 -200 0
1273 1300 0
-3388 3398 0
2356 645 0
1874 1779 0
-1744 3230 0
2582 -3300 0
-385 -947 0
-1701 4543 0
-3017 -2053 0
-3083 711 0
-1601 -4161 0
113 -2344 0
-2740 -4809 0
1287 1458 0
4605 3421 0
-4076 1915 0
-4150 3035 0
-1101 4432 0
1562 -3509 0
2484 824 0
-813 3796 0
3902 966 0
-2034 -863 0
3197 -4288 0
-4866 -2313 0
-1395 1113 0
-1188 195 0
-2037 -2787 0
3792 4846 0
23 883 0
672 -1681 0
-4108 -4319 0
-2803 283 0
-507 4334 0
-1634 -3496 0
-585 3931 0
-986 2469 0
3363 4645 0
3704 4259 0
280 -4107 0
-1911 2009 0
3769 -3836 0
972 709 0
2349 -1657 0
-3466 -2708 0
1934 567 0
-2189 1047 0
-1004 2179 0
-3971 -3134 0
1871 3532 0
2859 730 0
-3675 -1309 0
-915 -334 0
2461 -3824 0
-3218 2083 0
-12 4782 0
-1406 3267 0
3097 1072 0
2877 -3006 0
4637 1508 0
1967 4377 0
-4464 1022 0
-2557 -3647 0
-2540 -3791 0
1762 -4631 0
-2828 2804 0
1044 -3906 0
1368 4135 0
-1082 4699 0
2242 -1330 0
-536 1880 0
-928 2000 0
3913 -387 0
4837 3085 0
1343 3512 0
-4508 1943 0
4460 1372 0
-892 4573 0
1714 2420 0
-1987 -1211 0
1080 2586 0
-4168 2057 0
1646 155 0
-1868 2298 0
1383 -3838 0
-1392 -1479 0
-19 3551 0
1593 4660 0
3834 4510 0
-548 3707 0
4736 -1156 0
-2092 -570 0
-669 -269 0
-1035 1315 0
4779 -182 0
4523 -2886 0
4621 -4199 0
3210 2144 0
3307 -988 0
-259 -361 0
-312 -909 0
783 118 0
-3947 -617 0
3420 2473 0
863 -2362 0
4012 2937 0
-4152 -3494 0
573 3961 0
-3220 -1406 0
-10 4575 0
-3062 -3740 0
-2339 1289 0
205 -972 0
2474 830 0
3799 -3912 0
603 3886 0
-463 -2406 0
1720 -4485 0
4679 4354 0
3260 751 0
4856 -4470 0
3402 4021 0
-1599 4537 0
4310 -2032 0
1397 -1507 0
-4336 -597 0
-3767 467 0
2274 -2393 0
-1368 -2202 0
-949 -1831 0
4080 2967 0
-3008 2398 0
2479 4860 0
-3139 -1780 0
722 752 0
-2734 -996 0
-4029 1155 0
2488 -3764 0
1404 2214 0
-1059 17 0
1189 4467 0
1697 -333 0
1083 -1301 0
-4823 -2624 0
-4084 4484 0
1091 -544 0
3516 4728 0
-875 4563 0
235 2065 0
-3675 -1247 0
1905 -1682 0
1733 4334 0
-226 2090 0
-3440 1467 0
926 -4753 0
1217 853 0
1328 -509 0
1998 -379 0
-3121 2378 0
-1854 1796 0
-3034 3674 0
-139 -527 0
-1878 -2762 0
4508 3096 0
313 202 0
1616 119 0
3687 1026 0
-4330 -3770 0
-880 4298 0
2790 2021 0
331 -3020 0
-242 -2744 0
-2167 4761 0
2735 -3077 0
4540 1535 0
4178 -2871 0
-2499 2507 0
935 3999 0
3968 1483 0
1367 -1969 0
4500 -4344 0
501 3692 0
715 3761 0
2726 1293 0
-1867 -1929 0
1583 -2719 0
-983 1502 0
-2258 -1817 0
-4404 -3785 0
4315 4234 0
4348 786 0
-308 -3815 0
-570 -2915 0
-587 2438 0
792 -2932 0
-4554 994 0
-3757 4616 0
3291 4271 0
2128 -2994 0
-3322 -2285 0
108 4616 0
-3204 786 0
-1128 -1336 0
-2619 905 0
1934 -4303 0
1474 -621 0
1225 -1623 0
-351 -84 0
2093 1802 0
2202 1921 0
-1553 4547 0
-2243 -2101 0
4294 1000 0
-3647 2859 0
3744 -3787 0
3678 -462 0
3222 977 0
-3996 2602 0
4589 4310 0
1691 2670 0
-4598 -1141 0
4238 -593 0
4287 -3410 0
-4310 -3929 0
1296 2170 0
-4046 -4255 0
-4647 -4231 0
3501 2544 0
-832 1033 0
-2890 3170 0
-1787 -2006 0
-2915 -1494 0
-2388 3682 0
1253 -82 0
895 -2436 0
2920 932 0
-3324 2817 0
4327 1272 0
3968 1961 0
2475 -3838 0
-757 692 0
-3494 3388 0
-527 -4678 0
1251 1558 0
301 -4356 0
4053 4465 0
-3289 3954 0
846 2952 0
3678 -2430 0
-1131 1764 0
4407 1703 0
1191 -1731 0
3715 -3486 0
4010 -129 0
-1590 4329 0
2595 -2276 0
-2268 63 0
3401 4628 0
1932 2539 0
-475 2595 0
3285 -2749 0
2336 -3208 0
812 -3550 0
3609 -4601 0
-823 -3001 0
184 3986 0
1142 -2394 0
4206 105 0
1568 -2563 0
-1837 4371 0
-3257 2041 0
-1701 -3604 0
-3819 3802 0
-3191 -123 0
3637 -3210 0
600 -19 0
2093 1684 0
4505 1530 0
-3042 2808 0
-1373 -82 0
-4453 -2863 0
-1695 4573 0
831 2279 0
1877 -2016 0
-1972 2928 0
-479 -1984 0
-3168 4126 0
-3975 1975 0
-2932 194 0
-3111 1730 0
-3278 1101 0
3417 3548 0
1903 617 0
-2311 -86 0
-3508 -1149 0
3542 -2674 0
428 -898 0
-468 944 0
890 -1762 0
391 818 0
3804 -2849 0
1638 2846 0
-600 4127 0
-4285 2394 0
2751 -317 0
-1553 4275 0
3745 -189 0
3657 -3261 0
4174 -295 0
-61 -2569 0
-37 102 0
-1807 3986 0
4406 -1722 0
-2717 4801 0
-4379 3269 0
4067 -4294 0
-599 335 0
1356 -1271 0
1161 3100 0
-2226 -4130 0
4545 -4519 0
4714 -4873 0
4123 -1282 0
2332 3288 0
-2148 -2030 0
-823 -1773 0
-285 1922 0
1155 -2630 0
-4643 550 0
-4242 -2868 0
3950 495 0
-1929 -2476 0
2903 3315 0
-4532 -1154 0
-2974 2838 0
-23 4147 0
-4017 3851 0
3104 -96 0
-4272 -3652 0
-1183 4310 0
2558 -609 0
-1263 -2915 0
326 3158 0
1006 943 0
-2682 -4631 0
803 -1033 0
3084 -1632 0
867 -1748 0
2651 976 0
872 -1462 0
1354 799 0
-2210 36 0
151 3414 0
3512 3747 0
-575 4771 0
4192 -1870 0
-97 -667 0
-2758 -1211 0
-334 -560 0
4526 1166 0
-3825 -2315 0
-2751 582 0
4300 -1785 0
-413 -4213 0
410 -3549 0
4350 1209 0
2142 1844 0
-927 2550 0
2620 -4155 0
-852 2415 0
2263 -1819 0
1125 3759 0
-4621 1155 0
-1493 -3791 0
1047 -333 0
751 -3304 0
-3671 2502 0
2651 -1447 0
1380 -2573 0
-298 3243 0
-1650 3471 0
1513 3131 0
-1510 783 0
3773 -2332 0
-28 2044 0
2071 -826 0
-1133 -2683 0
4398 -1916 0
-1349 -4362 0
1672 2310 0
2191 -2614 0
3785 -4761 0
-3017 -2364 0
-2760 474 0
4047 1524 0
-838 -2597 0
-4260 -1844 0
1877 -1410 0
3370 3980 0
-12 -1029 0
-3532 -1791 0
-3527 -1214 0
1770 1311 0
-58 1167 0
-826 -1543 0
-1248 4234 0
-2495 -1807 0
-431 -3380 0
-3629 118 0
426 -236 0
-3556 -306 0
-2207 1093 0
-3869 -4328 0
-1313 4530 0
3682 -1653 0
-3828 1874 0
-2075 1716 0
-4274 -1576 0
2074 -3434 0
-1320 1272 0
-2455 3497 0
4857 -4028 0
-1308 -2893 0
-347 4795 0
2764 679 0
1706 42 0
-4635 -4524 0
-1909 330 0
973 -3785 0
-2640 3416 0
2100 2946 0
-3975 156 0
1815 -356 0
1515 11 0
-593 -2950 0
-3505 -2780 0
4248 -1566 0
-1435 -3671 0
-613 1584 0
-3605 4310 0
2445 -595 0
2741 3597 0
3244 3485 0
4236 -3290 0
2627 -2177 0
3952 -3552 0
-4569 -1536 0
4691 1410 0
-3417 2832 0
-165 2194 0
2304 3334 0
-4459 883 0
3901 2916 0
-743 -2354 0
-4757 -2229 0
-1105 2605 0
-1066 -1253 0
-4806 4725 0
-2805 2738 0
2702 -4072 0
2532 -738 0
-105 4112 0
-819 1693 0
2964 -3774 0
-413 -3791 0
-2393 2670 0
576 2078 0
2891 -4534 0
-730 692 0
-901 -2460 0
-3412 -1307 0
613 1793 0
-3489 1760 0
2877 -1887 0
-3929 -4676 0
-1799 -3977 0
980 -2603 0
3378 4416 0
3454 -2851 0
-3205 3980 0
362 -1778 0
-4581 -4405 0
1647 2148 0
2217 3342 0
-492 251 0
3584 -4293 0
582 -4361 0
3174 3984 0
2163 2670 0
2552 -4093 0
-348 -2542 0
-4655 2876 0
-201 -45 0
4446 -1114 0
-1103 2750 0
-3048 2085 0
-2168 3902 0
-693 4387 0
1184 -1751 0
1252 3270 0
-1517 92 0
2562 3324 0
-836 836 0
-2831 3432 0
-3834 4066 0
-1013 4756 0
-4210 2732 0
-3809 4401 0
3545 2588 0
4692 3831 0
38 -3151 0
1788 -2552 0
-1497 2139 0
117 -3669 0
2715 1990 0
-2928 3195 0
-1785 -4581 0
1803 -2466 0
3110 -2290 0
3004 -1714 0
4022 -865 0
-587 -3808 0
3345 -3873 0
4823 989 0
4360 -3959 0
1478 -4212 0
-3632 4864 0
-900 -1524 0
-4051 3813 0
1589 118 0
-4267 -562 0
-3819 -1821 0
114 3290 0
1803 2577 0
2022 -2834 0
-2274 1773 0
-3802 3864 0
4125 973 0
1769 -4353 0
-2168 -533 0
-52 -914 0
4407 -1857 0
-1901 -3540 0
-2785 162 0
610 -1280 0
3318 -1752 0
-710 3710 0
108 -238 0
-641 -4166 0
4840 725 0
3039 3049 0
307 4417 0
-3398 4474 0
3649 -4004 0
1466 -1525 0
4772 -1173 0
-1850 1960 0
41 4068 0
-1503 2912 0
-261 1533 0
4570 -353 0
-2639 2597 0
-4058 -2028 0
1575 559 0
-41 2268 0
3800 4010 0
3026 1613 0
-616 -3245 0
2122 2487 0
2432 -2626 0
-3971 2913 0
-3102 -2173 0
483 4188 0
-2478 -3405 0
637 -1908 0
452 -406 0
3728 -1718 0
-4558 3443 0
4490 2976 0
-3486 693 0
-4326 -1139 0
1122 -3750 0
790 -208 0
-661 -3445 0
3275 752 0
-595 1153 0
1355 3885 0
1610 868 0
1756 1446 0
-3717 2690 0
-3592 3885 0
2851 4640 0
1443 -873 0
2479 -3765 0
-1763 -1848 0
1182 1240 0
3186 388 0
3811 -2233 0
2222 -11 0
-1548 -899 0
2378 393 0
2134 2392 0
-3709 1694 0
-313 -2168 0
3167 1885 0
3046 2408 0
4860 -4382 0
-2696 2617 0
-949 -2128 0
-4542 -4709 0
-258 2152 0
4865 -1267 0
-14 -4262 0
-3276 -3044 0
1540 -3473 0
2291 3117 0
2817 2999 0
-2967 -4224 0
2631 1161 0
3670 1459 0
3516 -3672 0
1672 2335 0
-3295 4560 0
1657 -1248 0
-3676 -2032 0
-3693 338 0
246 4598 0
3520 -647 0
3251 2433 0
2965 -253 0
-3736 -992 0
-4004 -165 0
808 -4217 0
-2213 -4068 0
-2253 -885 0
-1121 -494 0
-828 -3120 0
2615 -3631 0
-4263 -3176 0
-4713 402 0
-1303 4502 0
-428 4160 0
-644 -3530 0
-3264 -24 0
-3730 2308 0
3543 -4387 0
1720 4378 0
4228 -4424 0
-1006 -3397 0
-2678 -129 0
-1305 -3563 0
-2576 60 0
1850 440 0
-2238 3736 0
1252 1857 0
-2109 -1428 0
4384 2477 0
-1327 445 0
-2811 3688 0
3504 -2218 0
4595 2566 0
-923 95 0
4637 -3015 0
-1843 2994 0
374 1586 0
-4761 -4361 0
3853 -1381 0
1767 -97 0
-1135 3532 0
-3412 336 0
-4160 4850 0
-4095 -2277 0
3857 752 0
-2531 -117 0
548 -1091 0
626 -805 0
-3786 1336 0
-3085 4328 0
616 -4121 0
2871 -3387 0
-3769 -4593 0
652 1245 0
-4226 644 0
4447 -1142 0
3346 -4264 0
2106 -1399 0
4268 -2483 0
-776 4652 0
1658 -3142 0
3325 382 0
-1316 330 0
-2995 3076 0
1593 -2815 0
-386 -2217 0
-3733 596 0
2933 -339 0
-2546 4426 0
3691 844 0
-2788 1446 0
2183 -1611 0
4776 -3819 0
3678 -3003 0
4390 3556 0
2181 -1221 0
-4850 -3494 0
-1033 528 0
-1959 -3192 0
-2422 -478 0
1462 4767 0
-112 -2097 0
-1709 -2377 0
-2384 4830 0
-3954 4006 0
-3001 -2681 0
-2285 -4193 0
1120 -4614 0
982 -2078 0
498 -353 0
1222 2907 0
-2854 4050 0
679 1305 0
39 -1817 0
-2712 -1378 0
839 -1833 0
2739 3731 0
-2032 1162 0
1838 -2785 0
4219 -386 0
-898 406 0
786 2867 0
-3252 -871 0
-4638 3532 0
-586 1270 0
-3588 -2076 0
3999 -634 0
-184 1691 0
-299 4079 0
-2278 268 0
3407 2768 0
2707 2102 0
-2711 -1583 0
-2842 4755 0
1486 3357 0
-2386 1336 0
-2623 1004 0
-2391 -3922 0
1336 -1236 0
-316 -3554 0
2214 3084 0
2739 4824 0
4370 2943 0
1412 -4116 0
3215 -3975 0
-2729 -1342 0
-526 -2071 0
1484 4812 0
2548 -3648 0
2022 -3989 0
-1330 2474 0
-4133 -3198 0
-2492 2248 0
-2653 -4848 0
1266 -421 0
-4069 -3860 0
3439 1975 0
-1183 -153 0
4254 2409 0
4146 -2117 0
-1728 1686 0
2738 -467 0
-2743 -308 0
1613 809 0
4507 -4689 0
-889 -4128 0
3021 -2965 0
-3708 -1294 0
-4218 4629 0
1016 4274 0
3267 3726 0
4560 1903 0
2172 -493 0
3005 -3441 0
-3337 -70 0
-3232 457 0
-1289 2349 0
2479 -3262 0
-170 -3847 0
3784 -4511 0
-2571 1307 0
-4639 -3732 0
-953 4674 0
-2465 -3967 0
-1217 4270 0
-2620 1047 0
709 3139 0
1406 3170 0
1816 4797 0
-3625 69 0
763 1557 0
-3093 -3231 0
941 -2058 0
2506 -4054 0
3009 1193 0
4834 2214 0
818 4354 0
2419 -4020 0
4218 -1707 0
3516 707 0
1169 1743 0
4256 1171 0
-146 83 0
4542 4180 0
4476 187 0
-2189 -1175 0
942 -322 0
2363 -2072 0
1952 3253 0
2739 2535 0
293 -3069 0
3851 1487 0
1959 2902 0
-2747 3169 0
4873 -1464 0
-215 3680 0
4691 2866 0
-2129 -123 0
3168 -233 0
-4701 -4083 0
-1081 -1221 0
-2615 -4731 0
-2850 -3757 0
3719 1696 0
3856 -3169 0
1211 4375 0
-2365 -3009 0
-4286 2981 0
1611 1575 0
-1205 4015 0
1228 2246 0
4699 -2990 0
893 -1237 0
-3793 -3915 0
61 -1467 0
2336 -3248 0
2024 -3471 0
1862 -3893 0
-2201 -4758 0
4229 -402 0
4772 996 0
-560 -449 0
2988 -3691 0
-982 -2209 0
-2905 -1406 0
3419 -1728 0
-3028 2329 0
4187 1852 0
3915 -2981 0
-823 2130 0
-2049 -3518 0
-3439 2046 0
1024 -2362 0
-4765 -1899 0
4550 1493 0
-3394 -940 0
3745 994 0
78 -2954 0
-1211 2643 0
1058 -119 0
-4202 2938 0
-3932 -532 0
-4089 4343 0
2602 4655 0
-2660 -1813 0
4576 -3227 0
-977 -4780 0
-1541 4348 0
2979 1750 0
1379 -4773 0
780 -3028 0
-2737 4365 0
-306 -2838 0
3724 3254 0
-4014 -4265 0
4801 2360 0
-431 59 0
4516 -2362 0
361 391 0
21 -3326 0
4367 2740 0
2906 -766 0
4370 3294 0
1443 4327 0
3816 3 0
1537 644 0
-3687 2871 0
337 -3914 0
-3323 -2898 0
-574 -2887 0
2864 -4869 0
3970 1443 0
-1099 -593 0
-3561 -4765 0
-338 2462 0
-4532 -2415 0
-1352 -3253 0
-4223 -158 0
3285 -2857 0
4373 -4285 0
-4313 -2360 0
2109 2481 0
-2989 1764 0
4418 -2059 0
1260 -4473 0
-3773 -2865 0
333 -54 0
-3260 -121 0
-2011 4094 0
-3099 -2652 0
4338 -45 0
3406 1257 0
3998 -2548 0
-1977 -1872 0
-4292 299 0
2910 -2685 0
-1981 2053 0
4781 -3329 0
1385 -3936 0
2676 -202 0
286 1502 0
-4151 -177 0
-4471 -144 0
-2613 -3474 0
2335 1505 0
-3787 2676 0
-910 1428 0
-3261 3332 0
-1664 -377 0
-2420 -3022 0
2632 803 0
-3480 -1025 0
-1559 3709 0
-750 3964 0
-2261 -1048 0
4688 1187 0
2750 -2586 0
-4577 4135 0
4044 4757 0
3423 -355 0
18 -1920 0
3472 -2837 0
269 3262 0
3719 -1180 0
2959 4137 0
-3586 4142 0
-70 -4273 0
3825 -813 0
1098 -1541 0
-727 2331 0
2024 -3185 0
-4058 4231 0
1649 3984 0
-2423 -2844 0
-2636 1317 0
143 -3306 0
-4577 3339 0
284 1511 0
-2187 373 0
-3408 -2695 0
-1497 1773 0
424 -4354 0
1102 1100 0
2866 -2758 0
1064 -1626 0
-2879 -3268 0
-1223 -4806 0
2265 371 0
392 3914 0
3786 2174 0
-4408 3619 0
153 -3164 0
-4533 -2121 0
-4144 -4382 0
-3714 -1926 0
3626 3777 0
2210 -2527 0
-3547 -1722 0
3799 4123 0
4598 3970 0
1826 890 0
-4136 -2618 0
736 -870 0
4614 -756 0
-3746 2448 0
-3505 -1829 0
-3432 365 0
-3052 3909 0
-4178 -2757 0
-3802 -4486 0
2181 -4029 0
-4158 3186 0
-3503 3089 0
-996 -478 0
-3518 -3277 0
-1678 -1655 0
-2477 -1850 0
2616 929 0
3073 4377 0
-3469 693 0
405 -3854 0
173 -3328 0
2870 -2177 0
-435 -4746 0
709 787 0
-4397 1461 0
707 4048 0
991 -356 0
-3701 100 0
-3586 2832 0
-1550 3776 0
-3409 4235 0
1764 319 0
3167 -986 0
4325 4437 0
-1695 -4442 0
-2921 1310 0
4773 -3041 0
-1273 741 0
3060 2020 0
4043 1835 0
4450 2545 0
-3533 -4613 0
422 2081 0
-2578 4399 0
-4471 -4526 0
3892 1053 0
-3158 -387 0
-2796 2101 0
1482 2906 0
-2997 -4556 0
4131 -4341 0
1737 2527 0
955 -155 0
-2959 -3524 0
3864 2293 0
-1601 1277 0
-3230 3360 0
-4212 -2654 0
-1967 -795 0
-4270 -2797 0
3703 2260 0
-2236 3915 0
-1554 657 0
-4553 2652 0
-4288 -2909 0
3503 4249 0
2941 3316 0
-106 -1854 0
3626 -245 0
-3108 -699 0
3126 -3175 0
4390 -2603 0
3827 -590 0
-2067 1404 0
3540 -1168 0
4050 -4394 0
-4370 -993 0
-876 1343 0
3688 4126 0
-2658 -4500 0
-338 1912 0
-1842 -2896 0
-2080 4067 0
4432 -3944 0
-1472 -2627 0
-2632 2440 0
339 2618 0
2408 842 0
194 -4692 0
4646 -1132 0
-159 1973 0
779 146 0
-4786 805 0
1215 -3330 0
4734 -211 0
1292 3726 0
4717 3075 0
-2205 -1914 0
2494 -3719 0
-885 -3671 0
1029 1770 0
915 3498 0
160 -414 0
-4706 1712 0
4686 -2049 0
4082 1072 0
943 -1613 0
-3292 4206 0
-167 -1080 0
-2818 -15 0
3230 -2465 0
-4572 263 0
1485 -4310 0
2824 -4197 0
4372 -2855 0
-2520 2770 0
-3548 -1030 0
4719 -4590 0
-3628 -1189 0
4112 1798 0
1244 -1098 0
-984 -3292 0
-4511 4250 0
-593 1763 0
563 -2177 0
4368 -4686 0
3088 3891 0
128 3542 0
-4366 -4826 0
4338 3490 0
-694 2210 0
-1370 -4302 0
-3180 -4144 0
-935 -3495 0
1524 806 0
4768 -3337 0
-4694 2024 0
1104 -436 0
-544 3207 0
-2417 3501 0
-2362 1127 0
-4351 4429 0
-1681 559 0
-346 1575 0
-247 -3766 0
-2109 2809 0
-520 4134 0
3186 -2915 0
1845 1153 0
-1758 2250 0
2390 4607 0
-4408 -480 0
69 -616 0
479 2440 0
2152 268 0
-954 4012 0
3847 1946 0
4639 3528 0
-3319 838 0
-999 346 0
-4699 869 0
-110 4771 0
3269 2835 0
-3468 -4721 0
2020 -201 0
-2099 309 0
-2511 1267 0
-724 -171 0
240 4670 0
418 1914 0
-1178 -771 0
-1751 -2757 0
-813 2789 0
-4280 817 0
-2433 -2601 0
3796 2205 0
-3672 -2163 0
2870 4527 0
-925 4223 0
771 -1808 0
-2589 -3921 0
925 61 0
-928 -4653 0
-3822 -3536 0
-1339 -1842 0
3823 2856 0
-159 4127 0
4275 -3824 0
1082 1111 0
-2032 -2177 0
2006 4008 0
-679 -3826 0
2433 2867 0
2134 -2318 0
-1752 -862 0
4541 -3059 0
3665 -3592 0
-59 2975 0
-3569 3216 0
-2303 4147 0
1473 3365 0
1815 -2137 0
-2389 -1945 0
-2025 3184 0
-1867 3544 0
-961 958 0
535 -315 0
2408 -1667 0
4533 1396 0
-1275 4630 0
-1388 -2995 0
851 644 0
-3068 -4116 0
-1034 3964 0
-2453 2949 0
-2440 4791 0
-2849 992 0
-516 -1959 0
4063 -3911 0
3637 219 0
-1172 291 0
-2673 -3764 0
-2508 -2893 0
1078 787 0
-2148 -4059 0
-4443 2988 0
2061 3572 0
-1471 419 0
-3378 -585 0
1940 4585 0
-621 24 0
3201 -807 0
4798 -707 0
-2759 -4194 0
3644 -4833 0
-3218 -4695 0
1188 1475 0
-1202 1977 0
-348 -3208 0
-449 -1042 0
1462 -3053 0
-1198 1451 0
-3914 -3353 0
-570 -3368 0
-1297 4728 0
-4353 -3924 0
3803 4372 0
-4381 -1632 0
-3296 2150 0
-2217 -1170 0
-2922 988 0
-2897 -2619 0
-4612 -3061 0
2347 -162 0
1419 2116 0
1109 -348 0
-4657 -2415 0
-24 3055 0
-4291 4686 0
-312 571 0
-2519 3598 0
3992 195 0
-2790 250 0
2680 -1644 0
714 4663 0
4170 -4318 0
-3692 2134 0
-1275 -1317 0
2847 -295 0
-1174 2118 0
-3596 -2080 0
4365 -4061 0
-3954 1973 0
-1133 1594 0
3623 3747 0
690 -2943 0
1275 -4143 0
2588 -3716 0
4170 4019 0
-2688 3623 0
1003 -2275 0
-4552 2926 0
893 2320 0
4091 -3250 0
1910 2507 0
-2531 4332 0
1396 -3969 0
1940 -2411 0
2502 3821 0
-3536 817 0
1212 3149 0
4548 1153 0
4859 2317 0
3357 2839 0
2342 -160 0
4375 -4576 0
-2492 1382 0
576 2454 0
4061 1594 0
2785 1683 0
1109 2550 0
-3125 3567 0
4372 4752 0
2089 2926 0
-2649 -1022 0
-1272 -1290 0
3243 -1162 0
-4642 3401 0
-4473 2754 0
-3846 4542 0
-3352 -3322 0
-2030 988 0
-3238 414 0
8 -322 0
2382 -4793 0
3445 3416 0
2683 -3862 0
1309 -2237 0
-2286 -4499 0
-1816 -3387 0
3166 3944 0
1416 4107 0
1490 3968 0
-1907 1044 0
-3876 -2948 0
1520 296 0
2630 1396 0
1715 4008 0
-4401 -840 0
1170 -762 0
-1044 1179 0
726 -429 0
-4631 -3410 0
-12 1489 0
852 -3451 0
-2689 -4090 0
448 -3595 0
-4534 -4854 0
2250 3339 0
1633 572 0
2279 1547 0
582 601 0
-2328 -4308 0
2790 -1427 0
-2193 -4421 0
3533 214 0
3625 -2003 0
2611 -3001 0
-4774 -4861 0
-2688 962 0
-4766 -3346 0
-2940 -674 0
-981 -2690 0
3847 2615 0
-2418 2094 0
-3061 4459 0
-4208 -1406 0
-4559 3307 0
-3566 2340 0
2283 -3955 0
876 -3999 0
-3717 -813 0
379 765 0
-2995 -585 0
-1709 1242 0
3568 -2850 0
-3397 -2214 0
-2092 -430 0
-232 3300 0
4174 2066 0
-3215 4491 0
-3835 -875 0
-3473 -996 0
-4175 -467 0
2985 -4551 0
-2403 3305 0
3750 -1233 0
-4052 1336 0
1026 -3377 0
-3923 807 0
-3610 2677 0
-2834 -2252 0
841 690 0
-300 1861 0
-4437 -1087 0
-1634 -3645 0
-4595 -3588 0
-2263 -4051 0
2697 -4863 0
-668 4448 0
-4009 3382 0
-3154 -905 0
-4056 3008 0
2399 2114 0
489 1944 0
-3578 89 0
3244 4171 0
322 570 0
-4084 607 0
3280 194 0
-933 -2111 0
3359 -2518 0
-4410 4164 0
484 -745 0
-4011 611 0
1794 4640 0
2566 1760 0
4568 1914 0
-1913 4757 0
2744 1106 0
911 1557 0
-1197 3665 0
-1332 -934 0
-197 -3514 0
-928 -1223 0
-2431 2175 0
3007 2905 0
2261 -2815 0
-4549 -1070 0
3200 -2916 0
1402 3585 0
-1431 3667 0
-4826 3092 0
3069 2781 0
339 3811 0
66 2600 0
170 1150 0
2358 918 0
-4398 1083 0
-2695 -640 0
4065 1884 0
2745 -3651 0
-4390 2901 0
2768 2959 0
4583 -4164 0
63 4775 0
-3554 892 0
-2567 2267 0
1 4467 0
-800 -1002 0
1046 2912 0
1708 291 0
610 154 0
-3652 499 0
860 2376 0
-3770 -98 0
-3254 -2 0
-3319 966 0
-615 -2105 0
3670 -3551 0
-3758 -3587 0
1193 1409 0
-3548 -1124 0
-2224 -3560 0
1261 -164 0
-4861 803 0
440 3167 0
490 -1578 0
-3115 -82 0
-1255 -298 0
4582 3111 0
-3939 3747 0
4215 -543 0
1864 -555 0
2545 -4503 0
-2953 -4622 0
251 -1636 0
-1063 -4121 0
2594 1930 0
-1444 2359 0
-3027 3454 0
1620 2867 0
305 3235 0
427 1967 0
-2728 313 0
-182 4227 0
2236 624 0
-2528 3115 0
1063 1537 0
4691 113 0
-3710 4659 0
1085 -2743 0
2702 1017 0
2517 2354 0
2371 2596 0
-3584 1007 0
-2760 -2378 0
3610 1637 0
-4276 3408 0
-4817 -2730 0
-3628 -1165 0
860 2094 0
-4333 220 0
-3538 -2634 0
935 -424 0
-4074 3639 0
-2986 3544 0
-3019 3813 0
536 888 0
1760 -1047 0
-3314 1022 0
-513 3200 0
2107 4633 0
4750 2046 0
4341 -1247 0
197 -3165 0
753 -1535 0
-4302 1661 0
3600 -1274 0
-590 3896 0
-3140 887 0
946 1197 0
-213 -2743 0
579 4575 0
1967 -1197 0
1824 -3280 0
-2909 1707 0
-970 -1917 0
-4393 -1872 0
2430 3534 0
1959 2756 0
-4828 3293 0
-4071 3002 0
-4485 -1107 0
-2713 -3003 0
1617 -263 0
-4145 528 0
-4526 1627 0
-3583 -2481 0
-1321 3822 0
-2824 -986 0
-882 -4874 0
-1232 4414 0
3745 -3257 0
-4561 4014 0
-4565 13 0
2237 -360 0
-1287 -410 0
3992 785 0
-2251 1562 0
2077 2413 0
1716 1442 0
1737 809 0
-247 -3858 0
4851 -975 0
-2043 367 0
4505 -1787 0
4201 -174 0
-1273 -1288 0
2679 -2829 0
1077 233 0
1445 481 0
-2423 -4800 0
2413 -544 0
2512 -1844 0
-4017 2324 0
4600 218 0
1657 4419 0
-226 -298 0
-776 3917 0
-4696 4804 0
2602 -931 0
-1701 -72 0
1800 4109 0
1832 -1233 0
596 1476 0
-1715 -2840 0
-3385 38 0
-1950 -3301 0
-836 4871 0
4714 -3011 0
3775 2619 0
4830 2587 0
-3118 334 0
-1030 2788 0
-334 -2777 0
3661 916 0
-264 677 0
-3232 -1701 0
-4373 203 0
4720 -2705 0
2370 -242 0
-4379 -152 0
-3162 4134 0
3985 -1334 0
-1307 -1132 0
-1335 -4429 0
4293 -4585 0
3287 -1074 0
913 380 0
1547 3842 0
-3749 1076 0
652 2155 0
-1632 357 0
-2305 1445 0
-160 -2709 0
-505 -2184 0
2016 -1948 0
-1406 -2125 0
-2093 1042 0
-3871 -3570 0
-1680 4561 0
-3451 -4744 0
87 -3796 0
-3755 1995 0
-109 4596 0
-2653 3480 0
-174 -1970 0
4874 -3568 0
-1255 -3032 0
1405 4819 0
3653 -4196 0
-2422 4634 0
3880 2699 0
-4092 4178 0
2275 4225 0
4404 -762 0
4365 -3444 0
-1247 -1813 0
3634 -2477 0
1677 -1612 0
-1190 -200 0
831 -688 0
-1808 342 0
2434 1150 0
2298 3051 0
-2274 -2882 0
-1785 -48 0
1736 2961 0
-1536 -4306 0
-4211 -747 0
1369 -1119 0
2441 -2129 0
-3676 1581 0
-2647 3356 0
-2824 322 0
-4457 4303 0
414 76 0
-1848 2434 0
1520 1531 0
2197 -3275 0
104 1965 0
-4664 -2550 0
-1376 -3923 0
-1964 4170 0
-565 -453 0
2870 -4274 0
2495 2214 0
-834 4128 0
3281 1035 0
4057 -379 0
1426 -1488 0
-3295 -3781 0
103 -2413 0
-2455 1723 0
3019 4706 0
3379 2270 0
-4083 -352 0
-993 1354 0
1943 -549 0
1777 -3504 0
1780 -4340 0
-2748 4097 0
3240 4779 0
4326 4829 0
-4246 -1101 0
-3159 4701 0
-334 -3403 0
154 4662 0
1904 -4600 0
4347 -591 0
-3725 -3236 0
-564 -3826 0
1033 4371 0
-1000 4378 0
-4830 2240 0
1736 -2603 0
-4766 -4551 0
-3521 -457 0
4174 2979 0
4242 -4601 0
1418 -4007 0
-951 2035 0
-2109 -1709 0
-4454 -80 0
1387 1221 0
3557 -4617 0
-31 -2299 0
3147 3367 0
-4581 -2720 0
3623 -2100 0
4259 1621 0
668 2217 0
2123 1793 0
3844 4864 0
-1314 -4124 0
3568 2555 0
-3314 -3434 0
-1868 -2826 0
2298 -2911 0
973 -1496 0
2698 2984 0
4002 -383 0
1205 -2596 0
-4743 -1479 0
-312 -3329 0
4663 -3141 0
-121 191 0
-130 -3635 0
1136 -579 0
3031 1212 0
-1066 4630 0
-3292 -2124 0
-466 4209 0
-2051 -3798 0
-11 -1753 0
-884 2030 0
862 -3298 0
673 2354 0
563 -3301 0
-1731 3966 0
-2022 -2665 0
1463 3661 0
2778 -4532 0
-2136 -3562 0
-1505 3409 0
3010 -4425 0
2676 333 0
3507 2951 0
-4780 3197 0
-4686 -739 0
3514 3867 0
-3682 -2071 0
-4862 -3060 0
5 1703 0
2900 656 0
-4588 -1288 0
-3716 -984 0
2085 947 0
285 -882 0
745 1484 0
-3055 -583 0
-2956 -4005 0
267 3095 0
1184 -403 0
2002 -932 0
1910 2923 0
4242 1939 0
2154 1924 0
49 -1306 0
1737 -3008 0
-2151 -4219 0
4499 -4294 0
363 -2690 0
-86 -4280 0
1679 4024 0
430 676 0
-1560 263 0
-1106 3702 0
-1483 3897 0
-4126 668 0
3677 3203 0
1407 3921 0
-4593 2337 0
-3615 3738 0
-4624 -561 0
2561 -2653 0
-168 -1625 0
2435 2588 0
-3692 2432 0
-1625 -2589 0
2357 2359 0
-827 -3191 0
3198 1313 0
3917 2197 0
-1972 1476 0
4604 -3646 0
-2065 -2007 0
4421 4405 0
4728 4228 0
-1671 -4780 0
-1232 3421 0
-3858 95 0
4131 -289 0
424 169 0
4191 -52 0
-3790 -467 0
1133 -886 0
429 -4848 0
720 -868 0
1136 3709 0
818 -2328 0
3721 67 0
3921 -1975 0
-4251 -4508 0
1838 -3700 0
-2306 85 0
-4039 -4725 0
-428 -1076 0
738 -4809 0
2889 4529 0
587 4444 0
3956 -2563 0
-308 4402 0
231 -3480 0
-2595 -2895 0
1669 -3250 0
3535 1439 0
765 -1095 0
-1623 -3787 0
-867 3503 0
-4687 -1510 0
4475 4503 0
-3857 -1123 0
3851 4246 0
4623 -4410 0
-4110 4828 0
2311 -618 0
2107 -3452 0
2824 -1734 0
4668 655 0
-659 -2747 0
-4410 3324 0
2281 365 0
4627 -2628 0
-4002 3068 0
4841 -1510 0
3197 4409 0
-2851 4535 0
1614 2353 0
-952 726 0
-2805 -3872 0
2946 -604 0
1432 260 0
414 2418 0
-1240 4443 0
-4624 3268 0
430 4358 0
-4480 -1820 0
-1273 2752 0
-4276 -43 0
1404 -4110 0
1021 -240 0
730 4808 0
1111 121 0
4856 -265 0
2781 619 0
-2128 363 0
-2536 -123 0
2197 1767 0
-189 -1750 0
2723 4770 0
805 -4627 0
151 -3121 0
-2581 -1907 0
4275 -433 0
586 2864 0
-2181 68 0
-2777 3548 0
427 3516 0
-4807 2338 0
2504 -4138 0
-4351 1073 0
1502 1503 0
4244 -2080 0
3037 -4706 0
2745 -398 0
9 4201 0
-3157 3381 0
769 -3993 0
3492 860 0
1433 -194 0
1186 -969 0
1417 964 0
4463 -3615 0
1814 529 0
2511 3692 0
2551 4796 0
-317 2846 0
2593 3863 0
-3846 1403 0
-380 -938 0
-2618 2202 0
-3649 1114 0
486 3281 0
-3041 2857 0
2419 -2501 0
-631 -2854 0
4553 -1970 0
-289 4758 0
764 4275 0
3187 2925 0
-2853 -2909 0
-2893 3062 0
4593 3088 0
4229 -1288 0
-3089 1415 0
-2071 899 0
1554 1304 0
-2029 -4710 0
2296 -832 0
-90 -4179 0
2204 -2055 0
-502 1291 0
-4190 -908 0
2486 -2640 0
1322 3606 0
4734 -4508 0
957 -1712 0
1032 3414 0
-761 504 0
-616 2791 0
4309 3203 0
-1618 4828 0
-4769 1749 0
1888 -543 0
3673 -2921 0
-2800 -3662 0
1417 -1637 0
4186 -4261 0
-1478 -2272 0
-125 -2553 0
1637 1430 0
-3506 4078 0
-337 -4739 0
-1392 3430 0
1581 -1534 0
-3688 2937 0
1372 -2665 0
-1903 4808 0
-1331 2043 0
2007 2771 0
-1754 -494 0
-2067 -3448 0
782 1947 0
2999 2419 0
626 451 0
-2314 2539 0
-2152 -630 0
-1565 3709 0
-1548 1633 0
3375 1589 0
-1123 4604 0
-4473 -642 0
-4511 2890 0
-3943 3595 0
-4415 -48 0
-3135 -607 0
-1093 -1839 0
955 -2864 0
-1066 -4532 0
-1566 1871 0
-3897 867 0
-2654 -3838 0
-1622 3598 0
-3205 -3310 0
106 2808 0
1136 -3192 0
-1060 2262 0
-3347 155 0
1735 3285 0
2545 -1481 0
1639 -755 0
-331 -3961 0
-2032 3913 0
-2379 4520 0
-47 -3649 0
-2938 -4074 0
1571 -1820 0
4789 -2765 0
-2472 889 0
-233 2383 0
-3896 3105 0
-99 -2173 0
-83 818 0
-3242 -3440 0
-2811 2959 0
2289 -2657 0
945 -1351 0
4760 3267 0
22 1482 0
4235 -1440 0
-3511 1388 0
2351 2679 0
-32 -1562 0
1312 -1430 0
-1585 -4774 0
-1611 -1081 0
-410 4831 0
4696 3161 0
595 -2647 0
-3661 1683 0
-3687 -4792 0
-4280 4440 0
-2101 -639 0
-2717 3539 0
-2626 2445 0
-4749 1284 0
-4258 -1864 0
3476 1437 0
1187 -3071 0
-626 -4194 0
2234 -3547 0
335 -1907 0
-2124 -4338 0
-1217 -37 0
4526 3668 0
-4706 -515 0
-1763 2987 0
-3734 4612 0
-165 -3079 0
-4319 387 0
-3911 -1870 0
3299 102 0
-3500 3510 0
-2954 3026 0
1116 -3486 0
-2182 2153 0
-2171 788 0
4280 4015 0
1124 1698 0
-2147 -883 0
3470 -2378 0
-1862 -643 0
3433 4807 0
-324 207 0
1214 -688 0
875 -3194 0
-3940 -253 0
-357 -4632 0
166 -2688 0
-949 -4368 0
1338 3941 0
734 -4614 0
-1040 330 0
-1498 1769 0
1396 3506 0
-2181 3288 0
4756 2628 0
1606 -642 0
-2628 4628 0
1920 3431 0
-1755 -4710 0
4314 -1509 0
-1560 -1918 0
-2394 -2879 0
4003 2133 0
1485 4521 0
-639 4414 0
2469 2710 0
-1941 -2028 0
4483 -4120 0
184 -413 0
-4026 1572 0
2813 -1847 0
-1196 2288 0
-886 -1975 0
-3910 -1448 0
-2735 -1594 0
4575 1839 0
-2812 -254 0
2706 -4057 0
1212 4813 0
-1695 -103 0
-581 -568 0
-2777 1555 0
3243 -3544 0
-112 4847 0
-2472 4218 0
515 2826 0
1409 1366 0
-643 422 0
2245 4538 0
4565 -1900 0
-4090 -659 0
1861 4283 0
-1547 2114 0
-191 -2628 0
-923 -3635 0
-2029 -1232 0
4044 3258 0
-179 -1100 0
-622 282 0
3541 -3190 0
-1015 -1579 0
-4087 -2952 0
741 -3513 0
979 -2954 0
2945 -3897 0
-3828 4611 0
4257 3232 0
-3450 1678 0
-922 274 0
3019 -1564 0
1155 3677 0
2861 881 0
3435 -573 0
-2539 1732 0
528 2013 0
-207 1835 0
126 -2557 0
-554 3162 0
1957 3169 0
-4331 3373 0
3793 -2018 0
-2328 -2053 0
471 -2679 0
1780 -4213 0
3500 3964 0
2788 1543 0
-2927 -147 0
4563 139 0
752 3597 0
-1275 955 0
-845 4867 0
930 3379 0
-3829 2437 0
4429 -4438 0
-2973 927 0
-2403 2927 0
4794 -2444 0
829 -3343 0
-4395 -1890 0
4608 -2057 0
4256 -1082 0
3760 -296 0
2038 2879 0
-1463 -3730 0
4797 -2906 0
-490 3516 0
1381 -4744 0
-3060 -3852 0
2968 -895 0
3155 -1675 0
-2828 -2384 0
-3505 4189 0
-4182 -1346 0
-3523 1336 0
-1557 1691 0
-185 4773 0
1633 2869 0
-2702 907 0
-1498 -1099 0
-3008 -4374 0
3065 -4849 0
1608 -1330 0
-4597 4331 0
-2216 -1657 0
4659 -1632 0
-4069 1503 0
-3133 1236 0
-1370 2930 0
1737 -4334 0
-322 -1129 0
-2 -930 0
-3779 -3052 0
-775 4641 0
3509 4621 0
-1370 3972 0
86 -1558 0
3425 998 0
2976 4417 0
-3419 3171 0
3769 3602 0
-1407 4268 0
3565 -475 0
1892 -2613 0
95 -4426 0
1684 681 0
-3485 -3225 0
-3574 1614 0
-2470 173 0
-1337 328 0
1564 -1782 0
1451 -1247 0
2472 -2467 0
-4279 -3922 0
2722 -993 0
-954 -2390 0
-1379 -2908 0
1912 -774 0
1934 3530 0
-3599 2185 0
679 -1249 0
-3248 311 0
-4112 -4769 0
-1152 2234 0
4431 -1626 0
-619 1912 0
1272 -2272 0
3830 -1972 0
-360 -1162 0
2278 2680 0
-1630 2969 0
3193 899 0
-3699 -2777 0
-1126 3318 0
4874 -3717 0
4205 -3082 0
-3171 3829 0
-4703 4490 0
-1585 1108 0
-2282 -2019 0
-1585 -3347 0
3584 1891 0
-2722 -4231 0
1155 942 0
2900 -1221 0
636 2224 0
-3787 -4555 0
2500 2020 0
105 4041 0
-3274 2440 0
-2227 -2051 0
4476 236 0
1443 -2022 0
2615 -1624 0
-3682 -131 0
-4083 -2323 0
1551 -4176 0
-4408 1583 0
3060 2406 0
-3172 -462 0
1034 -4133 0
-2394 567 0
388 3962 0
4011 2354 0
-1393 -1667 0
3182 1118 0
-2797 -2522 0
499 -2729 0
437 -3241 0
-3080 -463 0
-1872 -168 0
2981 -768 0
3015 -1563 0
4169 -823 0
-3172 -191 0
2670 1434 0
1025 -974 0
-4303 387 0
-3079 922 0
131 -3226 0
-65 -549 0
-485 2653 0
-1812 2090 0
-3070 606 0
-2946 3253 0
-2330 -3212 0
162 -1663 0
-2563 -1253 0
1581 -1348 0
2760 -32 0
-3943 -264 0
2292 4799 0
1574 1751 0
-2688 -4265 0
4041 2548 0
4538 957 0
812 -4328 0
-3884 -2662 0
2045 -1094 0
-2720 -174 0
-4496 1077 0
3427 -1694 0
-2527 4716 0
-2028 905 0
3572 -1044 0
-2978 -3886 0
1566 -4084 0
4694 3729 0
-1731 4429 0
625 -3410 0
4377 1086 0
-605 789 0
-2158 -1764 0
-3292 -1061 0
-210 4605 0
3049 4387 0
-2593 403 0
66 1129 0
-3421 -3226 0
-4000 4291 0
1462 4622 0
1138 -76 0
-928 1089 0
-1250 4539 0
4852 1213 0
-3782 207 0
-1344 -566 0
-3274 3971 0
-980 -1656 0
-3879 4459 0
-1465 -834 0
-4145 -3030 0
4554 -1361 0
417 1593 0
-2451 828 0
2073 1974 0
3323 -3054 0
-3683 3697 0
3996 -1054 0
1723 -93 0
-129 -3511 0
3775 1141 0
4411 -3139 0
-2207 -3806 0
-4559 -4603 0
3516 3451 0
549 -2915 0
-2717 -3045 0
2411 -4109 0
-4221 3760 0
3895 -21 0
-1913 3011 0
3255 4677 0
-4061 -4430 0
361 1415 0
-2327 -1276 0
1007 2669 0
-4414 -1867 0
-4679 203 0
-1886 637 0
-4858 1299 0
-1934 -804 0
4088 -46 0
-1799 -1959 0
-2259 3874 0
-3517 440 0
-4370 3706 0
-1199 -3109 0
-1622 2038 0
-3067 -4402 0
-1018 3034 0
-2617 4797 0
3092 -4239 0
1881 3697 0
899 -2631 0
276 -47 0
-2607 -293 0
-3042 1142 0
-1233 -4606 0
2660 -2815 0
1689 -2341 0
263 2375 0
-2081 -3610 0
2248 1740 0
-2103 2138 0
-1775 3465 0
963 -3005 0
-2995 741 0
4060 4611 0
-2841 200 0
-1121 -3664 0
-1555 871 0
3978 -2548 0
-896 3905 0
2192 2183 0
3704 -796 0
-2751 -653 0
-2357 -2735 0
-971 1915 0
2841 -669 0
4699 -1159 0
-945 -4283 0
735 -2920 0
829 -3714 0
2627 3688 0
1608 145 0
4510 -4648 0
2946 1447 0
-502 476 0
-2694 623 0
-1799 -757 0
-1389 -4772 0
4258 -2833 0
-2769 -2998 0
-723 2061 0
-2866 4398 0
1749 -4693 0
1204 -3082 0
1583 1703 0
-1591 151 0
-394 -1779 0
-4048 -618 0
583 2385 0
184 3950 0
-393 -182 0
3498 3458 0
-515 4445 0
-2417 -4407 0
-2424 3766 0
-3581 2085 0
-3154 -4042 0
-2681 4619 0
138 3801 0
2031 4124 0
1920 3830 0
4672 3767 0
2631 541 0
672 -4786 0
-895 4726 0
-3278 -271 0
3630 4743 0
-4639 -1667 0
-1161 3525 0
-3564 1628 0
3284 -4282 0
-3363 3217 0
-3602 4822 0
4779 -903 0
3105 1237 0
1228 -3918 0
-2185 3894 0
1886 -1366 0
-2603 2020 0
-2439 4166 0
-2928 -2152 0
3021 689 0
-4850 -371 0
2042 -484 0
-3164 3088 0
2149 -4193 0
1774 -2529 0
2892 2211 0
-1250 2535 0
-4230 2816 0
2701 2024 0
-4802 4475 0
4181 4211 0
-2095 2248 0
-1356 2338 0
-3471 3021 0
2959 2541 0
-2417 -4251 0
-3369 -4076 0
171 -843 0
3294 -2536 0
-1066 1464 0
-4876 -1736 0
-3634 -2297 0
-1573 2127 0
-3106 4399 0
735 2742 0
1135 2351 0
-2557 -3757 0
4205 -4032 0
-1938 -3033 0
3411 -2129 0
-2232 -3949 0
-2628 2636 0
4315 2995 0
-4760 -1811 0
-365 1962 0
-793 2581 0
-255 -996 0
1002 2502 0
-419 -1363 0
-1192 3033 0
-3035 2826 0
837 1646 0
4093 -2457 0
-2899 -3993 0
-2715 3721 0
4539 2859 0
3945 32 0
-4155 3445 0
3099 1463 0
-1625 1456 0
-942 -2570 0
-4855 1438 0
398 -3593 0
-4424 1125 0
-4320 2419 0
1537 1520 0
4498 -2443 0
-1053 3445 0
511 1275 0
-3561 -3703 0
-693 2013 0
-2913 -2276 0
263 839 0
-663 32 0
4008 -4263 0
-3443 28 0
-549 2106 0
1465 -4612 0
4530 1676 0
2413 143 0
3352 1383 0
1476 -3905 0
-3200 -4643 0
-4836 -4758 0
4484 1227 0
2253 -1712 0
4827 -3796 0
-4709 352 0
-493 -2170 0
350 -3939 0
1138 -1773 0
-1313 -703 0
-1760 1544 0
857 2631 0
2725 -820 0
-3167 -3710 0
1069 2523 0
-32 -1856 0
1529 934 0
-4051 -2634 0
1350 3404 0
-3180 3788 0
373 1689 0
-2908 2947 0
1417 -1441 0
-2121 -1989 0
2916 -2375 0
-2555 -2361 0
1395 -2608 0
945 3340 0
-4135 -3362 0
-4031 1803 0
4633 271 0
3967 -3608 0
1379 1079 0
-3454 4311 0
-1939 -4336 0
-2025 -3917 0
-2438 -4777 0
-4676 -4800 0
536 -3141 0
4625 2637 0
-4190 -399 0
-2654 -421 0
4704 4187 0
4764 2305 0
2264 3851 0
-1596 -3515 0
4354 4281 0
-2358 1007 0
-2882 -2444 0
2024 -4121 0
-960 -1790 0
1193 -1703 0
3655 -4341 0
4468 -3431 0
-4050 4550 0
2088 2943 0
1459 -3486 0
-3988 -2227 0
-1391 -465 0
-3452 1441 0
-4128 1911 0
2967 2361 0
1486 -3352 0
-1815 36 0
-4415 -529 0
3413 4227 0
2530 2127 0
-2998 3774 0
-14 -2768 0
-1585 -628 0
-1552 -2736 0
-1825 -3536 0
-3196 -1248 0
1577 2082 0
-2190 4139 0
-1543 114 0
4075 3846 0
350 -3541 0
1053 1783 0
-2811 3829 0
-4577 204 0
866 3724 0
-4546 3396 0
1033 1006 0
926 -2743 0
-1224 -3561 0
632 4877 0
3436 4208 0
-1024 -4861 0
-384 4383 0
4571 -1809 0
4489 2332 0
1769 4874 0
4130 3396 0
962 -243 0
2364 1949 0
-2150 -3699 0
-4139 4180 0
-1738 1723 0
2495 -242 0
-2893 2919 0
1087 -639 0
-1556 -4213 0
-2258 3724 0
966 1117 0
-609 2013 0
-370 3936 0
-1900 4649 0
2900 609 0
4652 -3175 0
949 -2926 0
-4559 4463 0
4727 -974 0
2611 -3355 0
-2530 -2441 0
-496 499 0
-4423 2165 0
-3505 -728 0
-3476 -4501 0
-3863 -4381 0
1792 4754 0
-2618 1263 0
3626 -1870 0
613 -1741 0
3996 1531 0
-823 3200 0
-980 -2422 0
3555 -3085 0
-487 -4294 0
2967 -3621 0
-82 -245 0
-673 -3060 0
-2418 -3059 0
1635 -3734 0
307 -3802 0
1852 -463 0
4166 -3763 0
-1919 1711 0
1915 -1694 0
-297 2396 0
3844 -3341 0
-3451 1027 0
-3558 916 0
-4043 -4055 0
-3627 -3168 0
-1830 846 0
-4703 -2394 0
545 4285 0
-2797 769 0
-4381 -2588 0
4857 -1927 0
-2089 1965 0
1009 20 0
-986 424 0
-4556 2460 0
3895 -149 0
-416 2525 0
3267 1014 0
1929 582 0
-606 3215 0
1859 -4451 0
-566 -4133 0
1495 -3226 0
-3881 1558 0
-2323 1395 0
-2589 1095 0
-1898 2345 0
-3168 -1950 0
4573 -3791 0
-1348 260 0
4452 1597 0
-411 -2997 0
3457 -1405 0
-2734 -3090 0
2680 2191 0
587 4743 0
2581 4440 0
1824 2920 0
162 3317 0
-911 3061 0
2036 4318 0
4270 2876 0
-3748 -2062 0
-3768 1977 0
1713 4209 0
-2629 -3663 0
-2587 -1087 0
3736 3930 0
2199 -600 0
61 -1852 0
-2966 4089 0
4033 28 0
-1787 1260 0
3917 2620 0
-2994 4537 0
-149 1394 0
1746 -4482 0
4475 1838 0
-23 -356 0
-3639 -3428 0
-96 389 0
2227 -2704 0
-2104 -2298 0
-439 -4398 0
-3933 142 0
-3925 2520 0
-4430 -191 0
2979 -2242 0
-4002 3961 0
-2226 1841 0
2859 -2491 0
-4524 -3929 0
4747 148 0
-129 -3102 0
3891 -3094 0
-1002 -748 0
1588 291 0
3591 1610 0
-3346 -724 0
2127 -2958 0
3357 -3266 0
1350 1646 0
1355 -2946 0
424 4048 0
2986 1095 0
2597 -923 0
67 3231 0
3216 1260 0
3736 3161 0
1192 -3212 0
981 -561 0
1961 -2492 0
-4600 -431 0
4474 -2227 0
-636 914 0
-3289 -3502 0
3623 -3606 0
192 -2072 0
331 2507 0
-3290 2014 0
-1724 478 0
-4689 -3533 0
1527 -635 0
3905 3771 0
1045 1771 0
3562 -4164 0
3338 -2817 0
2881 3110 0
-812 3709 0
-3347 -206 0
4537 822 0
-1027 -2083 0
-1639 2915 0
-1008 1760 0
3087 3659 0
-2961 3575 0
4043 3075 0
3194 -4011 0
508 1382 0
898 899 0
4865 -4676 0
-3601 -701 0
3804 2424 0
3769 -2490 0
-4751 -3943 0
521 193 0
4662 -3058 0
-2092 2464 0
-1251 -1458 0
2829 2370 0
-2797 -4235 0
2603 -3852 0
-262 2253 0
1654 -4435 0
-1165 1288 0
-1630 -2747 0
-2714 2014 0
2982 -33 0
-541 3126 0
1692 1308 0
-4467 2956 0
-2726 -2668 0
1743 2567 0
2713 4082 0
2304 -4150 0
798 -4674 0
-2690 -2179 0
-4300 4217 0
-4858 900 0
-3765 -196 0
4576 4138 0
292 -3905 0
-581 4734 0
1312 3571 0
4086 2228 0
-4453 -3625 0
1805 2331 0
-964 1806 0
-1313 -1064 0
-1265 -3843 0
2813 -1339 0
-2075 3181 0
1449 -4820 0
1849 -2597 0
782 1372 0
1130 656 0
2265 -470 0
-3591 2122 0
2101 4167 0
-4386 -776 0
274 637 0
-175 -1642 0
-4556 -4864 0
-957 4872 0
-841 4295 0
-3783 -4153 0
1825 -435 0
-192 4141 0
-4574 3702 0
-815 -3794 0
-3562 -904 0
-1375 4548 0
1779 2354 0
-4588 -1812 0
-3605 1714 0
-3098 629 0
-3673 252 0
3837 -4078 0
202 2580 0
993 2140 0
-3835 -4266 0
691 2163 0
1924 -3713 0
-2617 3842 0
-2666 2827 0
-3884 4595 0
-3696 961 0
-620 1802 0
4323 1893 0
1213 -1276 0
2974 1731 0
2434 4295 0
1508 -4824 0
-2947 3623 0
-4719 -4624 0
-1128 -2181 0
-240 256 0
2296 385 0
4592 -3402 0
4814 4046 0
2543 4055 0
4476 -4315 0
-2705 -2625 0
-125 22 0
4417 -2625 0
-4036 1032 0
4779 -4428 0
1552 1371 0
-2570 2540 0
-2546 -4306 0
2409 -223 0
3662 -2673 0
3752 -4043 0
374 2052 0
1296 3285 0
4275 2433 0
2067 3608 0
1375 -4719 0
1419 -1012 0
1108 2987 0
-203 -81 0
1170 -4569 0
-703 1273 0
-24 61 0
415 4415 0
-83 3396 0
-4134 4838 0
2979 3942 0
1675 -3800 0
-2838 1260 0
2911 643 0
-4064 -4312 0
1694 375 0
-827 3781 0
3661 4697 0
-841 240 0
-3450 4837 0
-1247 -915 0
3459 -945 0
2835 -2190 0
-4324 -4628 0
4268 1806 0
1354 1572 0
824 -1127 0
-4004 -1692 0
4176 -1618 0
3915 -2737 0
968 -1248 0
1108 -4191 0
-3272 -2938 0
-2800 416 0
2620 -4746 0
2886 -2068 0
4301 -35 0
-356 -1252 0
-4512 -4132 0
-4351 1296 0
3957 -1289 0
-911 965 0
1170 -3561 0
-4283 3642 0
432 -3618 0
-3734 3496 0
-2019 4812 0
-1400 -394 0
-4609 654 0
4703 4010 0
4639 -1471 0
3857 -306 0
25 835 0
-3805 -51 0
1383 2751 0
-2108 -1901 0
346 -4717 0
-2931 -3603 0
4209 -1142 0
2458 929 0
-4230 -257 0
-3644 4798 0
-1966 2262 0
-1590 1107 0
4038 585 0
-3766 1017 0
4479 -3209 0
856 2315 0
-3874 2659 0
-4770 -4027 0
2437 -1393 0
-1656 -3681 0
375 -4051 0
1926 3731 0
-3225 319 0
-3443 4507 0
-42 -2692 0
4217 4824 0
2635 -10 0
-4626 -3690 0
3276 4700 0
1447 -3666 0
1666 439 0
4192 799 0
-1213 3661 0
569 818 0
-2404 -3239 0
4234 -782 0
4802 3454 0
853 1041 0
-88 4308 0
-3723 -20 0
-1797 2645 0
2965 4304 0
-467 -4418 0
-1615 -2809 0
2244 -3332 0
-3120 4443 0
2664 1996 0
-4832 -3932 0
2768 4323 0
4524 3639 0
-3838 -4528 0
2007 3501 0
-776 364 0
2161 -411 0
-481 4025 0
-3300 -90 0
-645 -995 0
-1637 4444 0
-4710 -1531 0
3335 2621 0
2192 1491 0
3290 -3819 0
-4559 -522 0
3269 -1840 0
-2016 -1721 0
4525 1124 0
1336 -2397 0
2627 -978 0
-4613 -3573 0
-979 -2134 0
-375 3941 0
-2460 -4557 0
-2155 -2913 0
2432 2617 0
-1844 3045 0
-1450 -1199 0
-2840 276 0
-3319 -3020 0
-2775 -1556 0
2643 -3717 0
832 -2850 0
3374 -3611 0
3397 4594 0
-4697 3729 0
-2330 -1009 0
-385 2449 0
4321 1623 0
2531 645 0
-2 -1705 0
3501 1928 0
3959 2864 0
-4749 528 0
-2375 4834 0
3945 3370 0
2525 3967 0
-2173 -3639 0
4812 -1273 0
-4119 -2735 0
-4020 4113 0
-456 4525 0
2762 -4240 0
-1808 -310 0
-2735 -3569 0
-2830 -3916 0
2484 83 0
2400 -1937 0
1280 -3211 0
2671 3330 0
-509 -1881 0
1248 -4697 0
-4450 3641 0
-4196 1282 0
2616 700 0
-1351 3138 0
1064 3650 0
2270 1069 0
3759 1727 0
-1683 -1858 0
3034 -3137 0
-3562 -4799 0
-2153 -1333 0
-2533 -1014 0
-3092 -1403 0
-4043 2676 0
2779 -541 0
1894 -1372 0
-1274 169 0
4825 -3631 0
-3179 -886 0
-1086 3230 0
-3696 755 0
-956 -555 0
3438 -2834 0
-4834 -2216 0
3267 -1837 0
2122 -3324 0
4226 -3613 0
-445 -1195 0
-4216 -3095 0
1370 1685 0
4315 1692 0
-4784 1019 0
-2313 -3029 0
-1948 -1926 0
1345 -179 0
-1998 1878 0
-3380 -3498 0
3861 -4712 0
1367 -4800 0
-3464 4035 0
2543 -45 0
4073 1036 0
3303 -4033 0
1167 4596 0
-578 -1656 0
-4733 4083 0
3 -1642 0
-2533 3627 0
1972 -2417 0
3916 2030 0
-223 -16 0
-2198 -4526 0
3515 -601 0
-1460 2367 0
4386 1077 0
-3073 920 0
-80 3634 0
-4288 2907 0
1283 1891 0
1793 3731 0
-1804 -4163 0
4629 2583 0
472 -1428 0
4095 -4845 0
-2561 -2690 0
1112 -3117 0
4168 3657 0
-2637 -3583 0
-3504 -3410 0
-2080 -1300 0
4579 -4202 0
1019 -484 0
-2170 3584 0
1522 -1519 0
1879 -3463 0
-4502 -2890 0
-4266 -1643 0
-72 -897 0
2455 -2848 0
2856 -4118 0
-4084 -4108 0
-1762 1617 0
413 2863 0
4668 -4867 0
4466 2222 0
2441 569 0
-256 -4818 0
-3302 -4081 0
795 3050 0
-655 1876 0
-192 -3578 0
401 -1217 0
-165 -2521 0
-240 3458 0
-3474 2145 0
-2676 -1459 0
-2128 -1332 0
275 603 0
4256 998 0
-2048 -2657 0
-4510 3223 0
2370 -4472 0
-1754 -167 0
3797 1245 0
2635 -200 0
390 2678 0
-1810 423 0
-3616 -882 0
-4328 -4006 0
4045 -3933 0
3972 -1750 0
-4577 -4165 0
-3587 4739 0
-4179 -4761 0
-3879 1390 0
503 3651 0
3758 894 0
-1992 2505 0
4516 4399 0
4689 977 0
3547 -1717 0
-153 2776 0
-4324 -1411 0
-2314 1822 0
-614 4713 0
-1908 3613 0
100 -2123 0
-1922 -21 0
3036 -1267 0
-661 4587 0
2846 -4650 0
1446 -458 0
303 1845 0
-738 1164 0
-4365 2695 0
4417 4656 0
-3767 -3854 0
28 4787 0
1111 4739 0
4416 1 0
-2129 -3723 0
1121 -2 0
2807 2245 0
923 1973 0
-2413 1368 0
-1797 687 0
3661 -3046 0
-2553 2943 0
-399 -173 0
1144 633 0
-354 3967 0
1103 3563 0
-4486 -2438 0
-1696 -892 0
1866 -2521 0
2885 -1896 0
4009 166 0
1112 -2706 0
3983 3471 0
-742 -3518 0
4790 3633 0
2173 -1279 0
-4162 4321 0
-62 -3357 0
-168 4677 0
2185 -3587 0
-2241 -4446 0
4811 2274 0
-316 -503 0
-277 -4296 0
3882 3842 0
-605 -3404 0
-483 -1785 0
430 3026 0
-600 -1901 0
1314 8 0
2106 -4166 0
-3286 -3243 0
3617 3919 0
4868 1016 0
-4042 3419 0
-3400 -4172 0
-4810 -3896 0
-3300 -2496 0
55 -411 0
-825 3513 0
-82 3289 0
295 4533 0
-3699 -70 0
-3976 1288 0
-3573 4096 0
260 -3549 0
-607 313 0
4418 707 0
-4582 -813 0
-1316 -1212 0
-4666 4023 0
829 -3807 0
-1906 4480 0
-3326 -3785 0
-3921 -660 0
4412 1964 0
-4388 4479 0
3950 -536 0
-646 4430 0
-2256 -1148 0
3199 -418 0
-861 3416 0
-4545 -497 0
-2707 -1305 0
-3907 1040 0
-129 -4174 0
-33 3986 0
4155 -2486 0
-4158 -142 0
-2454 -1695 0
-2459 -208 0
1433 2183 0
-3332 -2638 0
-2995 -3296 0
-144 -3622 0
-6 -3429 0
4704 1704 0
-2149 2859 0
-4733 -422 0
3276 -3434 0
-4470 -120 0
722 -1398 0
-1138 -581 0
-2765 -4179 0
1670 -1615 0
-2890 4311 0
237 2062 0
-647 -767 0
3357 -1454 0
-3498 -464 0
1924 -703 0
2369 2766 0
-3090 296 0
3801 4346 0
-1886 -1944 0
4438 1509 0
1029 1700 0
2102 -98 0
466 1509 0
-1009 4291 0
158 -4132 0
1918 3173 0
-4438 4170 0
-1639 1962 0
1449 3823 0
3641 4314 0
-14 4692 0
1451 -2176 0
-789 18 0
2690 -3943 0
-3739 -3686 0
3315 -3991 0
-2116 -121 0
1638 -1244 0
2281 -2226 0
-4404 2384 0
3377 -4285 0
-935 126 0
4039 4115 0
-1314 836 0
1953 4173 0
106 3641 0
-2587 2349 0
-4830 2392 0
3199 2918 0
1635 -4573 0
3672 -3987 0
2385 3246 0
278 -565 0
4171 -4793 0
4291 1987 0
-988 -2215 0
-4796 3655 0
3848 1503 0
-1423 1199 0
4024 1412 0
-962 -2355 0
-1182 -1048 0
-3645 2009 0
-3926 3004 0
-2882 -308 0
3653 697 0
2065 2594 0
-1847 -4613 0
-1652 -3885 0
3375 1918 0
-178 3653 0
382 3422 0
437 339 0
-2155 1722 0
4004 -3450 0
-763 -282 0
-2885 1509 0
3397 4449 0
2314 -184 0
2021 -3040 0
-3108 2398 0
-4522 3974 0
-601 -4775 0
-4329 -3579 0
-3493 4479 0
500 1286 0
-2524 3021 0
-2967 -4588 0
-2698 1422 0
-2411 4597 0
-4179 4877 0
484 1685 0
2740 3105 0
2025 506 0
-4020 -2904 0
1509 -3489 0
-3387 -1162 0
1971 -1604 0
3438 644 0
-3049 3210 0
2071 3230 0
4418 -4047 0
250 4587 0
-4543 -4011 0
3295 1881 0
4640 3600 0
-3711 -2055 0
-380 -3259 0
-1750 -2759 0
2357 246 0
279 1914 0
-4664 -2634 0
-2526 1456 0
-3569 1806 0
-2909 -2491 0
4564 1779 0
432 -2127 0
3537 2931 0
-3185 1210 0
-1364 -4635 0
-1594 -4809 0
-3703 -780 0
2174 -2652 0
3520 4350 0
-2806 -3088 0
-4518 -3404 0
2228 -2426 0
-4283 -4021 0
1208 3249 0
-3094 3242 0
2754 1800 0
912 -1001 0
4359 -3550 0
-2129 3204 0
2056 3099 0
-379 -2090 0
-2090 -3932 0
-1246 -4622 0
113 4093 0
2924 -2366 0
948 409 0
-2803 1636 0
1586 3521 0
2392 -4799 0
1386 -815 0
-56 -3578 0
-327 1199 0
-974 143 0
-3094 4059 0
-631 -3405 0
583 2433 0
-3954 446 0
-2035 -1294 0
-738 1083 0
-76 -823 0
504 1038 0
-1612 -572 0
-1004 4839 0
-3337 3558 0
-14 3290 0
2824 3624 0
-197 4115 0
1697 -4472 0
-2743 3853 0
2442 1234 0
-4194 -643 0
-4546 -1170 0
-4857 -553 0
1283 -1751 0
-2642 1545 0
-1857 4404 0
2399 -3917 0
27 1575 0
4497 326 0
-2684 -1139 0
391 3463 0
-1622 -3838 0
-1509 3318 0
3824 -2875 0
-1050 -4331 0
2066 1930 0
3465 1836 0
-4453 1568 0
3236 636 0
4720 -550 0
4322 74 0
4713 1802 0
1490 975 0
3558 -4214 0
4176 -4402 0
-2049 -2156 0
-1981 1311 0
-1761 3772 0
-3625 -3685 0
1028 1607 0
-4697 -622 0
940 1023 0
-900 3769 0
869 -929 0
3934 -27 0
-4017 -2934 0
2029 2642 0
-1168 -1681 0
2610 -110 0
-3486 -3902 0
-4386 2583 0
-971 -4132 0
758 456 0
-2645 3685 0
1561 -4423 0
-842 -3825 0
-3894 -3954 0
-4265 -1464 0
-4110 1257 0
-1330 -3949 0
-527 -2617 0
-2686 1379 0
-4833 87 0
3490 2588 0
-44 -1268 0
-3321 1358 0
-4029 -3158 0
4652 -995 0
3711 2745 0
1961 2009 0
-2415 4555 0
1878 -3700 0
-247 -3501 0
3127 3557 0
3412 2731 0
-2080 1293 0
875 -1152 0
-4760 -2899 0
4505 -1341 0
-1406 1084 0
2091 -3062 0
4371 2743 0
1043 2132 0
-2361 -1238 0
-2472 -4842 0
-1950 -247 0
-3579 -2874 0
-743 -1159 0
1141 4672 0
-227 -4526 0
1941 -945 0
306 -2601 0
-2125 2309 0
-2008 -3096 0
-1274 1076 0
2285 -4748 0
-2840 4491 0
3489 -2427 0
-3502 1075 0
-3351 -3929 0
-861 -1048 0
-1105 3088 0
2348 3701 0
-1255 -4037 0
-1357 2343 0
-806 412 0
3381 -2910 0
1134 -2814 0
-2000 -2487 0
-642 -3597 0
-3409 -913 0
2637 1971 0
1863 -3055 0
613 -2893 0
-1460 -705 0
-3925 1741 0
1344 1304 0
-4841 -2168 0
4161 3561 0
295 -3380 0
2044 3686 0
-3199 4479 0
-4588 2228 0
3553 82 0
-235 -739 0
3805 3927 0
-4165 -2546 0
-4010 2488 0
2691 -170 0
-4751 -324 0
-2734 747 0
-1506 -3548 0
2445 -4476 0
4268 -3526 0
-3860 -1411 0
1727 -1081 0
907 4620 0
2491 -1680 0
3535 3555 0
2987 4804 0
2381 3300 0
3315 1801 0
-3787 1468 0
671 3413 0
-686 4491 0
-4243 -1344 0
-803 -952 0
588 2323 0
-2698 -3953 0
-1852 -2291 0
1240 -3105 0
3457 -2734 0
2314 -2608 0
2697 4417 0
-1579 -3357 0
-371 -1168 0
-1840 3738 0
1110 -2329 0
-1838 3706 0
582 -542 0
46 4688 0
-10 8 0
22 4001 0
-1860 -2616 0
1981 1240 0
-900 -3562 0
-79 4001 0
-2681 1407 0
3366 2290 0
-4685 -4232 0
-1939 -340 0
-2503 1824 0
-301 -2724 0
409 -232 0
-1981 -2676 0
1893 880 0
-4336 327 0
3670 -4210 0
3208 1693 0
2561 -1335 0
-3007 3008 0
4292 -1926 0
-2397 169 0
-3806 -1555 0
3153 4551 0
4304 -2265 0
4075 -3905 0
4550 4181 0
-4239 4054 0
-2130 93 0
-4726 1385 0
-1538 4671 0
3512 -1203 0
2120 4384 0
-3757 -3747 0
3281 661 0
-34 1449 0
-233 1395 0
-2245 1770 0
4018 4844 0
-2667 2508 0
4600 -3907 0
-4670 -577 0
3849 2721 0
1293 -4830 0
3204 -2775 0
3664 -3527 0
2296 1111 0
-3705 -3250 0
-4391 -1236 0
-923 3436 0
1069 1364 0
921 -2574 0
4821 1809 0
3177 -3582 0
4707 2298 0
3855 4367 0
2145 4170 0
3004 2048 0
-2146 -756 0
3098 -2124 0
-2036 848 0
2727 2521 0
-4585 1765 0
2977 4588 0
-2812 3957 0
1802 2247 0
2645 1212 0
4228 -1929 0
4831 1568 0
3184 -3620 0
78 4318 0
4536 -3214 0
2194 -1261 0
-1444 -2461 0
2135 4216 0
-1704 -2447 0
-1624 -2431 0
-2820 86 0
-2109 3253 0
1499 -3822 0
835 -4369 0
-3341 1553 0
-2613 -1885 0
764 2691 0
-2531 890 0
2454 2104 0
4811 2611 0
3778 2360 0
-3502 3249 0
1238 4742 0
4367 1023 0
3911 307 0
-4863 -1004 0
320 2586 0
4406 -4437 0
1014 -3519 0
-3822 -3707 0
1529 -3872 0
-591 713 0
4672 1289 0
3370 -615 0
4091 1384 0
2656 -1141 0
275 -2734 0
-229 8 0
-401 460 0
4504 -4152 0
-4371 3555 0
1930 -1913 0
-3205 4272 0
-3821 -3795 0
4449 -2721 0
-386 4478 0
-4189 -1340 0
-3656 -4556 0
4347 -2758 0
1300 4216 0
1063 1440 0
-3336 -2017 0
-3162 -4223 0
-2509 -3725 0
4807 -1839 0
-564 3198 0
1578 -1346 0
371 -1254 0
1107 2546 0
875 1047 0
3245 -590 0
-4376 -1934 0
-743 -1101 0
-1101 -2563 0
740 -1151 0
-3883 -961 0
503 1433 0
36 -4810 0
-3411 3167 0
-1948 3312 0
2689 3936 0
589 -2857 0
86 2867 0
3634 -841 0
4547 -3668 0
634 244 0
1296 -621 0
-2613 3634 0
2451 2898 0
-4587 4672 0
531 2233 0
-1662 1699 0
-3314 -2478 0
1304 -2584 0
-1909 -1330 0
-289 -3538 0
-2574 -1188 0
4790 -1962 0
-2618 2561 0
4306 -4133 0
-4240 2815 0
-153 4366 0
4599 1793 0
29 -2377 0
2081 -4715 0
-518 -224 0
1978 3686 0
4641 3249 0
2409 -3162 0
-1762 1978 0
-1291 -1538 0
2201 -2930 0
-2017 4377 0
-367 -4780 0
-652 4727 0
1895 -4483 0
-2789 -1918 0
4685 -449 0
-4269 -2560 0
-1680 2131 0
-1807 -1274 0
-2224 4316 0
-3471 -2305 0
2343 1365 0
91 -3431 0
-1458 4581 0
2030 4001 0
4326 -1470 0
-4786 2943 0
-4299 1960 0
-805 -4778 0
-1247 1419 0
-2693 -1617 0
2346 2936 0
-1893 1032 0
-413 3534 0
-1966 3390 0
-3450 3258 0
4452 -2151 0
4562 2992 0
1391 -2480 0
-4473 -4656 0
-614 3621 0
-2051 -1858 0
-4052 -4277 0
-206 329 0
2312 1253 0
359 4418 0
-3671 304 0
3981 2319 0
-2815 -4848 0
1412 -2374 0
27 -1470 0
3426 886 0
930 -2712 0
1997 1736 0
4148 -261 0
4300 4248 0
3402 -827 0
959 1399 0
-2873 4009 0
2599 4617 0
-37 -2628 0
-4585 -1680 0
3665 -2275 0
3959 1320 0
4859 -695 0
2059 -2447 0
-1655 112 0
3189 -2271 0
-2056 -4658 0
4480 -825 0
-3831 2965 0
3428 -1313 0
3656 1413 0
4360 2013 0
1146 -590 0
-3585 2412 0
-2438 -3861 0
4442 1336 0
4057 2335 0
-4648 -3010 0
-2425 1843 0
3193 -3376 0
-3243 2605 0
-1070 4091 0
2502 -2080 0
-822 1449 0
-1319 4294 0
2924 3241 0
-54 -421 0
-2362 -3677 0
1537 -465 0
4729 -2522 0
-4755 -1087 0
-4043 681 0
2923 3567 0
112 -4477 0
2962 -837 0
3379 -3616 0
4339 875 0
-2164 -4717 0
4491 298 0
-1405 4479 0
-4421 3371 0
-4852 4806 0
1231 -2760 0
235 304 0
-2420 -2772 0
-3503 -2932 0
1660 -4526 0
4686 -2870 0
709 4730 0
-3530 -37 0
1036 -152 0
1254 -3354 0
-4852 4486 0
3390 4857 0
1997 -1783 0
4561 -3648 0
-2799 1518 0
-2450 -4653 0
2421 -4827 0
-949 -1816 0
-3368 -4228 0
2078 -3573 0
-4855 -2915 0
-2822 -267 0
3140 -3228 0
4367 -1667 0
-3283 3309 0
4552 613 0
-4638 1981 0
-2447 2993 0
-2334 -3218 0
1338 2053 0
1957 -2149 0
-984 2201 0
4054 3364 0
-2919 2596 0
1923 1559 0
1291 518 0
-826 37 0
4357 -4311 0
3761 -3688 0
905 3625 0
-4114 -880 0
-3062 -4145 0
3521 4653 0
-2682 -2310 0
1935 882 0
-3601 1935 0
-4698 -616 0
3659 -420 0
2800 1921 0
-757 -2152 0
-2629 -3350 0
-4452 -3370 0
2210 445 0
1676 -444 0
4629 2692 0
-2034 2298 0
2671 -2704 0
-560 2316 0
-568 603 0
3130 681 0
-1862 -4088 0
-1842 2519 0
-250 2483 0
-2327 2266 0
-392 3357 0
4249 -3589 0
-2066 1237 0
-3614 -59 0
-3962 -464 0
-3472 -1945 0
-3098 73 0
-2987 2131 0
-3342 -3073 0
4450 -1828 0
-2230 -4353 0
-3220 -3976 0
2970 -2775 0
-1273 4214 0
3299 4316 0
-4023 -4283 0
-3629 -4521 0
-1534 -2915 0
-3322 -2671 0
-3863 2047 0
-2111 -3068 0
-1343 2517 0
-4806 -3264 0
-475 -1916 0
573 3415 0
-2007 1555 0
-2515 -1283 0
3236 -2264 0
-1424 277 0
1235 2456 0
1237 624 0
-3737 -3579 0
4217 -332 0
791 -2800 0
1146 -3143 0
4010 1309 0
4255 3437 0
1903 -1204 0
3050 -4249 0
2288 3126 0
-2221 -2257 0
3692 3862 0
2778 -183 0
-297 -2063 0
-4770 2135 0
-3908 -3824 0
574 -4288 0
-3192 -3390 0
-2456 1076 0
-2470 1562 0
501 -213 0
-2688 -4473 0
100 955 0
2905 -2637 0
4047 4783 0
-3474 4449 0
849 4661 0
4546 -2327 0
-1343 -4010 0
-3220 -4150 0
-4122 2039 0
3890 -17 0
1977 -2248 0
2781 2544 0
-3640 292 0
425 3534 0
-675 -1887 0
-2881 610 0
3488 252 0
-3314 -1177 0
2219 -3332 0
-684 -1817 0
4592 741 0
-1993 689 0
471 1853 0
508 1894 0
2312 2285 0
894 479 0
789 -754 0
-2582 3156 0
-315 -621 0
1081 -1517 0
-4577 3195 0
316 -2736 0
3413 -2483 0
-2834 -725 0
-1674 -2556 0
-983 1350 0
-3605 -3826 0
184 741 0
-2095 -3040 0
-2230 -1960 0
846 -3971 0
-638 -4372 0
67 -3859 0
-4622 -2439 0
-2723 -1858 0
-1620 -3220 0
4289 -2443 0
2679 -1925 0
-352 1876 0
-3828 -997 0
2763 -2051 0
331 4814 0
-255 -768 0
-3419 -4285 0
67 3668 0
4576 1057 0
-2772 -107 0
280 2324 0
3771 3202 0
900 3336 0
3174 1426 0
-4382 2046 0
4047 3944 0
-506 1932 0
705 2793 0
-1492 3529 0
-311 -1006 0
-1993 -1862 0
2531 2979 0
8 -3745 0
326 -3053 0
-620 -855 0
-3594 -1683 0
273 -585 0
198 -3419 0
-716 -2581 0
-1411 -3121 0
1396 4146 0
-2936 -4211 0
-3084 -4288 0
966 -247 0
3448 -2841 0
4575 1801 0
997 -2232 0
-4869 -2330 0
4505 -1556 0
-2492 -147 0
-3428 4840 0
2010 -3710 0
4144 -4435 0
-2668 -4463 0
-407 2694 0
1018 -3831 0
2870 -1500 0
4126 -4730 0
1580 2022 0
-4318 -4482 0
-4710 -4549 0
-466 3099 0
3702 2235 0
1795 -1130 0
-1492 2778 0
3246 -3920 0
4385 -2000 0
-2923 4150 0
4621 -1701 0
-159 1465 0
-1350 -2405 0
1542 -3054 0
656 3832 0
3330 -4049 0
2076 788 0
-1156 -3962 0
2783 -4288 0
-4117 4041 0
412 2655 0
2458 4023 0
221 -1639 0
-4554 -485 0
4654 -4381 0
3146 1200 0
-3937 1189 0
-2159 -4019 0
4805 151 0
4180 4126 0
899 1146 0
179 -3748 0
-1522 4248 0
115 -2361 0
2326 -649 0
-1120 -2431 0
927 -385 0
103 4274 0
1451 2871 0
-1676 62 0
4034 -2775 0
2395 2880 0
3433 -3707 0
-3386 2867 0
-302 -4033 0
-425 -3058 0
-1230 1767 0
62 498 0
797 4106 0
1395 2339 0
-3743 2944 0
715 -3441 0
2540 4440 0
-3295 979 0
-19 1719 0
1826 4778 0
1875 -155 0
-1308 -4394 0
-2530 2643 0
2135 -771 0
-256 1449 0
-494 3056 0
4711 -1379 0
-524 4674 0
-1944 2859 0
-4528 2221 0
2337 -4806 0
1055 -634 0
4294 -3746 0
-2034 719 0
2381 -664 0
-3508 -1748 0
1976 3317 0
-3166 -3153 0
1087 4130 0
-4391 2317 0
-2428 973 0
-2899 1129 0
-3802 -1463 0
-797 1287 0
-345 4860 0
2880 -230 0
1109 -2048 0
-2645 3545 0
-4540 -2966 0
-2844 989 0
107 -3428 0
1672 4752 0
735 -1827 0
-2363 4810 0
1853 -380 0
-4097 3137 0
-2480 -3881 0
3841 3216 0
2819 2691 0
1232 -4866 0
997 -3523 0
3698 -2648 0
-1517 2830 0
896 -1715 0
1490 3951 0
-3357 -47 0
-3303 -937 0
-2861 -747 0
-3370 3237 0
-3642 3376 0
4566 4784 0
-4873 -2640 0
-748 -2584 0
3229 -3893 0
3340 2982 0
320 193 0
2059 4074 0
-4614 617 0
-4610 3782 0
2675 965 0
4783 1173 0
-4742 139 0
2925 744 0
-3414 -3932 0
-565 -2494 0
-3580 -165 0
-4269 -3732 0
4860 252 0
2107 -1289 0
-2430 1051 0
-1946 1865 0
103 2782 0
-968 713 0
-2217 -2447 0
4683 3958 0
4511 286 0
2713 4671 0
-3206 2914 0
-3204 -4453 0
3737 -1921 0
3933 683 0
460 -1180 0
-1470 2974 0
3686 604 0
-4207 -1509 0
38 -3951 0
-29 393 0
-1362 -3500 0
-4026 1827 0
-876 -4170 0
3619 1395 0
-690 -4302 0
-703 2192 0
-1207 936 0
-2007 861 0
95 -2617 0
3873 2902 0
-2477 -2526 0
-1995 3108 0
-3572 -4345 0
4870 2477 0
-2108 3832 0
-3053 2543 0
461 -2949 0
-144 -2956 0
2674 2924 0
-2729 -1666 0
-3268 -2460 0
-2449 -1469 0
-3863 -4301 0
4066 3421 0
-681 741 0
-1986 4865 0
-174 2892 0
-4015 -3592 0
-3628 3416 0
-4527 -1470 0
-3906 4362 0
3230 4362 0
-3754 653 0
-3631 -2621 0
1892 -1391 0
4514 -940 0
1250 1529 0
3195 -1201 0
-2499 -425 0
-24 -3640 0
1698 -3358 0
3465 3680 0
-540 1652 0
1651 1953 0
3994 -16 0
-4214 -4759 0
-2173 46 0
2902 3692 0
-4408 1610 0
67 4614 0
2234 791 0
2061 309 0
-1731 3923 0
-1329 -1331 0
2232 787 0
-2101 3626 0
2946 4859 0
-3059 -290 0
1312 2489 0
1081 3117 0
4188 -3497 0
3892 -1612 0
-469 -2841 0
2639 -3398 0
1730 2815 0
4112 -694 0
-4243 122 0
-661 2507 0
1516 -3486 0
-298 4037 0
2733 -1140 0
-3860 1965 0
-659 -2146 0
1659 -1946 0
4023 -3875 0
2408 1866 0
-1790 3812 0
-2501 653 0
2469 -2610 0
-497 1583 0
-3448 365 0
-4139 4077 0
-3196 -3288 0
-3661 4804 0
3357 -3592 0
1925 -4600 0
4595 181 0
1710 2332 0
-2853 171 0
1132 -3224 0
-734 4376 0
-1467 -2388 0
-1051 1740 0
-4668 -2831 0
-2093 152 0
4325 -1004 0
3775 901 0
-2929 4209 0
-4531 -4664 0
-165 3861 0
3415 144 0
-2653 760 0
-4762 -3767 0
2259 -2227 0
-3733 -3405 0
-1171 2958 0
-2185 1196 0
-1828 1888 0
3834 -1533 0
2194 -4290 0
-2971 4681 0
-3270 198 0
-3866 -1612 0
-876 -166 0
4096 -637 0
1429 2683 0
-159 885 0
-4510 1879 0
-1676 -2038 0
4297 -3583 0
-4872 -1619 0
1509 -2996 0
-4802 -3629 0
78 1112 0
269 -2281 0
4342 2123 0
-545 2586 0
4771 -1381 0
-2797 -3592 0
3719 2814 0
638 1036 0
-3603 1321 0
1657 -1282 0
-3608 3090 0
-2820 4798 0
-2619 -4824 0
-2858 38 0
-4397 -1487 0
1287 -838 0
-3672 -2124 0
981 -680 0
2687 2224 0
-163 2643 0
-87 3197 0
1742 2036 0
916 580 0
4465 -3132 0
-1271 2979 0
-4820 -1594 0
3016 1145 0
4801 -1373 0
533 -1391 0
-3583 4761 0
-2992 3260 0
1515 -2233 0
4308 -3387 0
3720 4593 0
-4518 -4717 0
2507 -2894 0
-4189 2392 0
-374 3599 0
-293 -1956 0
-1392 -149 0
3652 798 0
-24 -4715 0
4797 -3888 0
2699 -4833 0
-4796 -1984 0
-359 1686 0
-2687 -2842 0
344 1001 0
1109 -625 0
1030 -1353 0
-1137 -297 0
-2694 -1596 0
3986 -3157 0
2580 -1518 0
-1902 -2148 0
-59 135 0
-4501 -3385 0
1453 -596 0
2400 -589 0
-1659 3660 0
-1100 -3671 0
2997 3025 0
4564 -4585 0
1925 -2734 0
4823 -1611 0
3887 3492 0
-3491 1736 0
-190 2145 0
4294 -1188 0
1638 321 0
-453 1475 0
1329 2261 0
-4852 3314 0
-1834 -393 0
2101 -397 0
3534 4601 0
-1897 -56 0
1425 2122 0
-3579 4608 0
-3038 2920 0
428 2198 0
-2811 -2896 0
-2733 252 0
-3673 508 0
-2758 2102 0
711 -1905 0
362 2618 0
230 1132 0
2526 3237 0
-755 -944 0
2472 205 0
2253 2353 0
3633 -1706 0
-3074 -2007 0
3438 -2953 0
4523 3531 0
-3840 4750 0
-1803 -3746 0
3919 4110 0
4329 -1570 0
-4489 -4669 0
-3863 768 0
-2328 2185 0
764 -4374 0
1584 -1900 0
3647 -1715 0
-2831 -1760 0
-2851 -1922 0
-1013 3101 0
-580 859 0
3797 -1337 0
4589 2233 0
4139 2643 0
-2737 -91 0
-1949 -2487 0
-3391 4274 0
-1388 -873 0
2150 -1288 0
720 -2225 0
-174 2274 0
4457 1999 0
1150 2633 0
2873 -2189 0
4575 -4655 0
-2877 916 0
1467 4877 0
2275 1320 0
-1765 817 0
-2981 2197 0
-389 -3755 0
1428 4746 0
-2134 2612 0
-423 4094 0
3050 4342 0
-1421 -3329 0
-1754 -2308 0
-4222 -4766 0
3444 -1840 0
3348 -247 0
3974 -2431 0
-4078 3126 0
-2453 -3451 0
-4090 3005 0
1637 -4622 0
-4458 -4713 0
3543 1044 0
-4415 2629 0
-2437 2846 0
2814 -3181 0
-1850 -3313 0
1456 2969 0
1540 1281 0
-1370 1786 0
-173 3078 0
321 -219 0
3372 -524 0
4270 4128 0
-2801 -2837 0
4640 -3872 0
-993 904 0
875 1974 0
-40 -2166 0
3209 416 0
2094 3200 0
1419 1499 0
-2509 -369 0
1432 3135 0
4229 -3700 0
-380 4122 0
4465 1273 0
414 2634 0
-245 -2941 0
4771 1442 0
4566 -125 0
3026 -1531 0
1016 3509 0
1566 3891 0
4466 -439 0
-3505 -419 0
-1203 -1324 0
-3534 741 0
-1165 -2610 0
1736 -1522 0
-3981 3866 0
-3790 -3481 0
-4069 3797 0
-3530 -3673 0
4688 -1482 0
-599 1153 0
1317 -4212 0
-4132 628 0
1359 -2287 0
1232 -13 0
-3579 1174 0
-646 1510 0
3849 347 0
-3311 -2291 0
3410 3609 0
-3576 2496 0
2189 -1483 0
-1161 3505 0
-1612 2895 0
-3602 -2092 0
4618 2129 0
3222 -1028 0
3797 -297 0
4004 -2066 0
3056 -1067 0
1489 4004 0
4561 -1429 0
2057 -1295 0
945 -4196 0
4672 2454 0
3772 -2814 0
-3353 781 0
1495 -2282 0
-4083 2274 0
-3081 1389 0
3424 -3232 0
-4336 -2983 0
1193 -3690 0
2662 2143 0
-2803 2564 0
-3011 -4473 0
-2143 -666 0
-1628 -2068 0
1523 -3309 0
2962 2602 0
-3398 -1817 0
4027 -391 0
-1163 4448 0
-4718 1836 0
-4532 4681 0
2159 883 0
-240 2021 0
1359 -1431 0
-1909 3528 0
4614 434 0
102 3771 0
288 3123 0
-3796 1618 0
-3838 3568 0
222 4092 0
-4409 -1420 0
-3560 3257 0
1990 4616 0
5 -1128 0
-4005 -2672 0
-245 2511 0
-3244 -3451 0
2338 3375 0
-61 1861 0
4144 1657 0
-2489 4603 0
-1872 -2106 0
-29 -3896 0
-351 -1389 0
-3750 4796 0
-2894 -2361 0
1233 -464 0
-3609 75 0
-3876 2277 0
-2801 1563 0
-1051 -1795 0
-3574 -2499 0
-4636 -3949 0
1342 3980 0
-2852 499 0
4417 2908 0
-4473 664 0
1822 -4482 0
4244 -3511 0
-3397 1768 0
-3788 -1133 0
512 -1851 0
1315 -2643 0
874 812 0
389 860 0
-4538 2377 0
-4115 3544 0
3739 3491 0
1683 1876 0
-366 -2468 0
-1624 2094 0
-647 -102 0
-2744 -3319 0
-3047 -3624 0
2124 4456 0
-2818 -2777 0
-369 -174 0
-3467 3056 0
339 3772 0
4395 -306 0
3038 1094 0
39 -3517 0
-2617 -334 0
-1343 2152 0
-360 -2165 0
-1274 -1140 0
3082 -413 0
576 -4373 0
-493 -4806 0
-3893 3345 0
3122 -3539 0
-1570 15 0
-4433 -4302 0
3684 -1215 0
342 4727 0
2827 3505 0
-4133 -865 0
-2075 -1093 0
3333 -3412 0
1672 187 0
1621 -3132 0
-2406 -433 0
-2455 -2801 0
-547 4773 0
-2162 -4163 0
3753 2366 0
-338 -1721 0
1714 -4307 0
4872 -1128 0
-3336 -1139 0
-4210 3814 0
846 -1648 0
-1771 3568 0
-35 -2899 0
-2125 2632 0
4598 4293 0
140 4260 0
-4847 570 0
2405 -2757 0
3738 2069 0
-3426 -4167 0
2022 -173 0
4284 -3854 0
4674 -3257 0
2572 -2486 0
2636 1608 0
-2974 -3218 0
2900 -4618 0
-1469 -979 0
2846 -4046 0
3701 2699 0
-750 2557 0
-162 -4404 0
3837 -2904 0
-3011 -4320 0
-952 -567 0
-3258 3372 0
-3911 -2290 0
-1991 -2694 0
-2853 466 0
3514 4742 0
-1629 -2329 0
-4066 -1496 0
4477 -1400 0
2638 246 0
-377 1375 0
-4276 999 0
470 -2607 0
21 -1177 0
-3587 -1968 0
1456 -4690 0
3363 -3926 0
1002 -224 0
-909 2327 0
-3310 -3467 0
-760 4280 0
-2525 1645 0
-45 1347 0
-4824 -1896 0
1793 -2533 0
275 -3559 0
-2840 -367 0
-905 -553 0
-745 -4834 0
-1959 -2790 0
-3965 -103 0
3461 -2079 0
2877 -3947 0
2706 -782 0
4829 4705 0
1425 -2020 0
-1231 -3300 0
-345 3866 0
-3406 -1884 0
-1663 53 0
520 -93 0
-2514 -2808 0
-2547 -3993 0
4078 3697 0
2595 -922 0
2544 3055 0
-3699 -349 0
376 -2169 0
-4648 -1154 0
2880 -1092 0
2451 4070 0
343 -4341 0
3430 -4636 0
-257 4077 0
3908 -3948 0
-2412 -3150 0
-1480 4366 0
-880 1862 0
4287 -383 0
-4070 1605 0
-2724 -1234 0
2979 -3449 0
4568 2184 0
1935 -2367 0
-366 772 0
104 3214 0
-3308 4241 0
-4723 3217 0
-19 -2033 0
2823 2131 0
4827 -4851 0
5 -2825 0
4542 3454 0
1551 -2112 0
-478 -4552 0
-3839 1661 0
-2124 123 0
625 469 0
1972 -3558 0
-739 1150 0
-728 1575 0
-2221 -1752 0
-2843 1088 0
-2541 -1313 0
-1927 -4374 0
4072 4521 0
4408 4583 0
4096 -4733 0
-2897 -4604 0
-2718 3290 0
2518 3759 0
-3094 -182 0
1116 46 0
-1609 -244 0
2538 -1340 0
-1782 489 0
4552 -297 0
1671 -3942 0
-1507 2231 0
3149 1855 0
1043 1394 0
-722 417 0
3973 2264 0
-2187 -408 0
-4719 -2003 0
1328 877 0
-3307 -3361 0
-665 3622 0
-4211 -4313 0
-1816 -1758 0
-3072 4212 0
-4533 -3632 0
-812 2740 0
394 4466 0
1837 -4226 0
-2417 4859 0
4228 3138 0
4594 801 0
41 -754 0
-3570 3219 0
859 4659 0
-297 3007 0
3063 -4116 0
4536 1166 0
-3962 3058 0
-2758 -2941 0
-1969 -2496 0
4637 -1964 0
-2874 -1557 0
-2185 2235 0
1380 1967 0
-4234 -2128 0
-3487 4064 0
-2042 -3962 0
-184 -4695 0
2246 3402 0
602 1285 0
-3897 -2740 0
-2803 513 0
-383 -2111 0
-969 375 0
-3722 -442 0
2502 -206 0
-411 2788 0
1003 1979 0
1777 -3341 0
890 3838 0
753 2847 0
3371 -4685 0
-2284 -1630 0
-2725 988 0
3719 -2831 0
-4372 581 0
3370 -1798 0
97 1144 0
1325 -4398 0
4041 564 0
-173 -4586 0
-121 -487 0
3608 -179 0
-1926 4787 0
2306 -954 0
3049 8 0
-4635 4424 0
735 2538 0
-3247 -4463 0
3816 -181 0
-4532 -136 0
-3477 -2054 0
-3485 2372 0
3956 -2698 0
831 2031 0
2677 2154 0
-2050 -2156 0
-1121 -3545 0
-3556 1664 0
90 -1087 0
-2872 -4852 0
-188 4718 0
753 4006 0
-360 -1185 0
-3781 4009 0
-3567 4480 0
307 -4254 0
-2525 2498 0
664 2082 0
3212 -1686 0
-2187 -1197 0
-28 3396 0
4568 2353 0
-1875 -3041 0
2286 3010 0
-257 -2233 0
-3240 -1190 0
-3177 -1099 0
-4197 464 0
1076 -730 0
1675 2013 0
4082 1843 0
4429 1092 0
3374 -119 0
-1471 -12 0
-312 -578 0
-1487 2594 0
-3290 -3871 0
-1405 -1972 0
-3448 -18 0
-740 -2635 0
1497 -2227 0
4217 -2553 0
322 492 0
1272 909 0
4793 2426 0
-1112 -1797 0
1783 4033 0
-2690 2581 0
1775 -3412 0
-4724 4805 0
-4687 -2330 0
3219 3544 0
-3170 -3087 0
3529 -4379 0
-3717 -118 0
-282 -4236 0
1053 -2955 0
-2243 1636 0
2610 397 0
1239 -4630 0
2451 2930 0
-1377 3764 0
3246 2713 0
-3747 -411 0
-279 4467 0
3330 2565 0
-2499 -4372 0
-3286 798 0
-1826 -7 0
785 1766 0
2013 584 0
2456 -2877 0
1936 -527 0
-2252 -4398 0
-212 1904 0
-1855 -3429 0
1370 4871 0
-3818 733 0
-2702 2287 0
-1191 -2173 0
3092 -1882 0
4146 3964 0
4829 2837 0
-2709 1016 0
2264 -3685 0
3488 -2582 0
2205 2873 0
1764 3915 0
4744 4704 0
-2384 -1630 0
2192 -1826 0
395 3263 0
-3518 652 0
2716 1837 0
2844 3685 0
1767 -681 0
416 -2111 0
-3498 186 0
-1435 -2065 0
3982 -4292 0
86 726 0
-2613 2359 0
1309 -1843 0
-2330 1172 0
3784 -459 0
3885 3794 0
1841 2993 0
4355 2319 0
1479 4352 0
-2819 -2348 0
-1697 -351 0
4449 3652 0
-1303 782 0
4334 -4572 0
-3633 -453 0
3303 -384 0
-3629 -3269 0
-2828 -2590 0
4172 552 0
2050 1553 0
-4150 752 0
-4341 -2050 0
-2815 4292 0
-2656 -3666 0
3505 -3252 0
1477 -116 0
3321 4066 0
-726 -4518 0
164 -2940 0
1924 3569 0
3510 3337 0
811 -4055 0
-4636 -2881 0
1507 -2378 0
2324 371 0
1370 -669 0
2702 1846 0
-1441 1204 0
-2907 -2842 0
1503 28 0
2427 -3589 0
87 -353 0
-3364 -4823 0
2026 -402 0
202 1760 0
4236 -12 0
-3662 4524 0
1589 -4280 0
3313 1987 0
-4466 1053 0
-4335 -3195 0
-1623 -1218 0
358 -3931 0
-1392 -480 0
-2083 2237 0
-4423 -3819 0
2615 -4179 0
3470 2960 0
3470 -586 0
3626 2706 0
1780 -1303 0
-1124 2958 0
4313 -2121 0
3146 3490 0
4602 -1911 0
-1250 2046 0
2663 799 0
-671 2619 0
1330 1417 0
-1066 -3266 0
1092 -3903 0
-384 2702 0
-2359 -1048 0
3091 -4038 0
-3973 -3216 0
-2636 -2206 0
4476 735 0
1675 1226 0
2572 -504 0
-3408 -3720 0
-646 4649 0
-2444 -2949 0
-1293 -1247 0
-3363 -1862 0
1267 -1046 0
-4459 -2291 0
209 -2165 0
-213 4150 0
2044 -93 0
3454 -1297 0
-3984 -4685 0
4601 -3205 0
-2579 1200 0
4847 2640 0
3773 801 0
-282 -2128 0
-2825 -1186 0
1182 -4545 0
148 3202 0
-1081 -4606 0
2110 -4828 0
-4231 2764 0
651 -591 0
-565 -2069 0
-4283 -3672 0
447 4870 0
-3280 3797 0
-1603 -4058 0
-2945 -40 0
4127 -1036 0
-1885 -713 0
-676 1559 0
-4281 388 0
-79 -2161 0
4145 -642 0
-2948 1003 0
1705 2900 0
-2754 -3873 0
-2577 4183 0
1254 925 0
1026 2173 0
3576 3608 0
-2114 4357 0
-4851 3325 0
2471 -968 0
3458 3512 0
508 1339 0
313 -4533 0
3445 -599 0
-4610 2227 0
464 -3094 0
-3546 3611 0
-44 3802 0
2421 1099 0
-3270 467 0
1184 263 0
-4648 3927 0
2731 2177 0
4739 -563 0
621 4483 0
3288 4308 0
-1748 -2177 0
113 1571 0
4610 2188 0
-903 4498 0
-216 -1126 0
-3475 1751 0
-4781 1035 0
2314 -4639 0
2102 -1430 0
1891 2115 0
-3271 3917 0
4616 1777 0
71 -4723 0
-2579 4095 0
-2372 2455 0
1214 342 0
-4329 -4064 0
2366 -4334 0
-231 1499 0
3095 690 0
-3009 424 0
-3446 3568 0
1083 -1747 0
4571 124 0
3022 -2818 0
-4085 -4459 0
4697 1777 0
-2797 3242 0
-2946 1551 0
-153 -2200 0
-1179 4714 0
-537 -4141 0
3970 -845 0
4315 735 0
2749 -4227 0
624 -2243 0
-1489 -2313 0
-2802 -543 0
-4826 -225 0
-3409 493 0
3325 -1553 0
-3825 402 0
345 41 0
-1320 656 0
1939 -2306 0
-3630 -3087 0
4197 -3549 0
-4718 -1944 0
2316 2846 0
-2518 1448 0
1215 1065 0
2171 4804 0
1688 -588 0
2072 -889 0
3160 -4072 0
-162 781 0
-1634 -2803 0
-3659 99 0
3840 3703 0
-3853 -3463 0
-3612 91 0
-2968 1005 0
-1218 -3671 0
2418 -2621 0
-2682 2559 0
3356 4619 0
-3250 -2993 0
-4402 2145 0
-3663 -3667 0
-191 -1217 0
850 -4000 0
4654 3900 0
2594 -2063 0
-1234 -2108 0
-3196 2282 0
3306 -3425 0
2287 2603 0
-1684 -2333 0
-4430 124 0
4114 4637 0
2696 -4574 0
3924 4180 0
370 -360 0
-1093 2603 0
3279 -4724 0
-3393 -4528 0
2337 1717 0
-2003 -1404 0
2474 1864 0
-4011 496 0
-404 -191 0
-313 3967 0
-4203 3342 0
3686 -2789 0
2278 62 0
-908 -3320 0
3585 -3756 0
3773 1183 0
1873 390 0
-2728 -546 0
-3538 -308 0
3857 781 0
-208 -191 0
1006 253 0
-2704 -4383 0
2035 -2928 0
-4114 115 0
-4829 -3076 0
-2231 -763 0
609 503 0
-3672 3672 0
-4869 4675 0
243 3290 0
474 3132 0
-26 -2762 0
4522 860 0
-4599 -2541 0
-2477 -2102 0
-4010 1633 0
2180 -924 0
-565 -1965 0
-3599 2676 0
-4529 -4114 0
-4541 -1867 0
-505 -59 0
1127 -394 0
-1998 1703 0
-3073 1422 0
3933 809 0
496 905 0
590 -1230 0
4095 3091 0
4794 -3670 0
-4256 -1146 0
3644 1103 0
1842 -932 0
-92 3547 0
-4779 4422 0
-3246 4380 0
-4871 -1243 0
1262 685 0
4360 -4335 0
3222 2794 0
-759 -708 0
-4071 -1944 0
23 -4362 0
-4713 -4397 0
4317 -1542 0
4693 -1316 0
1792 -3804 0
-2095 1090 0
2842 3033 0
1193 2588 0
2903 2837 0
-3555 1765 0
-4088 3908 0
-2667 -4137 0
-123 -2332 0
-2740 3751 0
4641 4421 0
4349 -397 0
-31 -4868 0
3591 2933 0
-897 -1817 0
1553 1356 0
-1911 1704 0
-4031 -1911 0
-2401 1158 0
-1515 -4308 0
2936 -4678 0
-3329 3523 0
-1069 4309 0
-965 3691 0
3039 4411 0
-4710 1716 0
1390 -596 0
2886 -1938 0
-651 4159 0
3269 4865 0
-1272 -1123 0
1509 1509 0
-4486 2497 0
863 2358 0
-3810 4360 0
-1901 4832 0
3972 -288 0
-4629 381 0
-1395 1922 0
4688 -670 0
-4843 -2276 0
4790 2403 0
-1671 -2312 0
-3964 2058 0
2498 1116 0
829 -1487 0
217 4315 0
-484 -1529 0
4024 2792 0
4600 2195 0
-710 -105 0
277 -3112 0
-3292 -2515 0
2357 -1158 0
1205 -2333 0
344 -4164 0
-149 2432 0
3924 -3221 0
-4 -3432 0
3054 -1015 0
2115 -1580 0
2067 4824 0
3461 4688 0
4496 421 0
1733 -3588 0
286 -982 0
31 3213 0
1183 -1872 0
30 -2837 0
-2071 -2389 0
2528 -2257 0
875 3393 0
2178 3193 0
-660 2739 0
-4776 4535 0
4671 143 0
-2851 2697 0
-2890 1957 0
2101 1342 0
-4633 -1759 0
151 -2459 0
2664 -4185 0
-1968 537 0
-1602 1547 0
-4200 -855 0
-1052 -140 0
296 -1690 0
483 1068 0
1715 4596 0
-2008 -308 0
-2472 3743 0
-258 -183 0
-2941 -2758 0
-3748 4763 0
4763 1242 0
3082 -3239 0
-3988 -2435 0
1930 1 0
-1229 -3476 0
673 2114 0
616 3784 0
2809 454 0
4568 265 0
-144 -2455 0
-307 -3854 0
-911 -4654 0
-2906 3938 0
4314 -3104 0
-1917 2935 0
2640 4670 0
-189 4763 0
752 -2891 0
-1869 2210 0
628 3240 0
-3683 3350 0
1183 -4672 0
3747 3394 0
-2010 3158 0
-3620 4570 0
3467 -4100 0
-2617 -3362 0
702 -2696 0
-3471 4086 0
1509 2579 0
-62 -1686 0
-4597 2917 0
-4095 1593 0
4291 -1238 0
1202 2841 0
-3896 -938 0
-2636 -468 0
-4164 -4632 0
4707 -2776 0
2693 -3742 0
1537 -1690 0
4456 2347 0
4165 -1011 0
2277 -340 0
-2230 -3746 0
2808 3215 0
2203 4188 0
1584 3224 0
3483 -1970 0
4061 -4577 0
4594 -4418 0
3568 -358 0
-459 4109 0
2773 -1287 0
103 -2989 0
2104 330 0
2846 -946 0
-2262 2401 0
-4142 1980 0
597 1586 0
2101 1567 0
-3925 -3369 0
3544 -3943 0
-2489 3704 0
1891 2112 0
1713 2416 0
-554 1254 0
-2442 4506 0
2071 1433 0
-4850 -2095 0
-213 -2877 0
1393 3429 0
-457 4490 0
-2442 -2610 0
-1059 -3273 0
307 1389 0
3992 -4553 0
645 -3808 0
-4124 2885 0
-3696 3643 0
-1789 1627 0
64 842 0
-3106 2317 0
-4318 2537 0
-2028 218 0
3417 4857 0
-802 3905 0
3478 -3332 0
1542 4871 0
-1046 3396 0
2221 -4457 0
1245 1631 0
-193 -4626 0
4786 -3494 0
-1883 -3640 0
-1720 -3199 0
1865 4245 0
2296 1115 0
4261 -3194 0
404 1030 0
4504 4078 0
768 -3511 0
2853 1529 0
1781 -4769 0
-1352 -1623 0
1919 -3303 0
-3028 -314 0
-2367 1229 0
4078 3018 0
5 -2634 0
-2673 3239 0
-3576 233 0
-3593 3657 0
2837 3372 0
-4820 21 0
-2483 3306 0
-2525 765 0
1240 4550 0
-639 7 0
-3403 4821 0
1659 -4505 0
2660 4327 0
-3078 -1635 0
-3130 -2395 0
-2955 141 0
-2443 3236 0
-1599 4099 0
374 2943 0
-3820 -1323 0
-1898 2700 0
4054 274 0
2522 -6 0
-3219 3761 0
-3819 690 0
-3045 -2665 0
-993 1482 0
-4084 3862 0
3457 1415 0
2829 -2388 0
2325 -4540 0
-485 -2117 0
722 4299 0
260 1157 0
-4318 -2123 0
-605 -4809 0
-1472 4272 0
-270 -4219 0
698 1466 0
3680 4298 0
8 -659 0
-535 -1243 0
1193 2882 0
-3521 4645 0
194 -1506 0
-4597 -1496 0
-1568 -2362 0
-3083 -1663 0
-3347 2611 0
1280 -1935 0
2646 -4466 0
205 1182 0
-3763 -651 0
-1059 -2163 0
-803 3280 0
3852 -1469 0
-1172 895 0
1143 -2793 0
2339 492 0
-2080 -2406 0
2096 -1643 0
1025 -72 0
-532 2981 0
-928 -2441 0
-4289 2120 0
1419 3171 0
-1396 -1305 0
2010 -4835 0
-2941 4089 0
-3515 -4874 0
1676 1142 0
-4361 51 0
-865 -2257 0
-332 -3904 0
4831 29 0
1698 -1130 0
-450 -3019 0
862 -3730 0
-410 -1651 0
-66 -4486 0
4616 -4728 0
3079 4499 0
-3448 4716 0
2915 506 0
-4601 432 0
3135 -586 0
-2407 4291 0
2170 3328 0
-4150 2902 0
1327 -1867 0
1617 341 0
-3431 -4603 0
-1545 364 0
2483 4518 0
-2424 -1769 0
-1512 -2604 0
-789 -3975 0
-1082 2682 0
-7 3937 0
3089 4798 0
421 3056 0
1764 -4494 0
1124 -3909 0
4095 -1992 0
2658 -1884 0
4301 -3560 0
4081 -3346 0
1214 3398 0
4129 -4743 0
-2853 2990 0
3050 1083 0
99 2345 0
-1160 2993 0
2863 750 0
3183 1703 0
-4615 1909 0
-4298 357 0
2468 2464 0
697 531 0
710 3626 0
-1844 -319 0
3559 1374 0
-4613 1280 0
-307 -493 0
4778 4710 0
2731 4704 0
1581 -586 0
917 -2729 0
3206 1875 0
3698 -1517 0
-795 -432 0
-553 2596 0
1836 4633 0
2064 638 0
1645 479 0
3299 644 0
-157 2802 0
1196 -3580 0
-4830 -4119 0
929 -2015 0
3096 3047 0
4583 3397 0
-2323 2523 0
1733 855 0
-80 4750 0
-863 -2207 0
-1261 4191 0
-4641 2740 0
-4787 154 0
2645 -4210 0
-548 -3929 0
-2482 -1937 0
-1977 2475 0
-2748 3801 0
4105 961 0
2591 -846 0
-1707 981 0
4377 3660 0
4251 2969 0
3586 3394 0
2315 -2837 0
-4351 205 0
982 -3906 0
-2890 -1789 0
-4458 4278 0
-901 1105 0
-3409 2639 0
2342 801 0
-1121 -897 0
-1037 -792 0
-1129 294 0
-3995 4652 0
-2452 -4786 0
4675 -1784 0
-30 2680 0
3237 1987 0
-1689 -486 0
2870 3258 0
2033 -453 0
-2425 4326 0
-4530 2114 0
3646 2296 0
1637 -3796 0
4727 1228 0
2091 -2852 0
-2467 43 0
1515 -2334 0
4014 -1255 0
545 1430 0
-4106 -4492 0
-2349 -2365 0
-3489 4613 0
-2897 -3342 0
-2074 -4683 0
3535 4180 0
4249 -837 0
4847 1489 0
-4292 3866 0
3372 -3278 0
-2760 1754 0
2907 3916 0
3902 2295 0
1320 -937 0
-3267 -3439 0
1541 4395 0
-42 -2913 0
2498 1083 0
4395 -3818 0
-3471 -4110 0
-3768 -3280 0
-1547 2026 0
-4219 1631 0
63 -4282 0
4434 -1620 0
-1881 -1040 0
-3954 -1735 0
-3559 -2802 0
-3030 4722 0
4550 -819 0
-4207 345 0
-864 332 0
3374 -2042 0
-1758 3121 0
3305 -4076 0
4449 4205 0
498 -3189 0
-2412 -1857 0
1664 -3928 0
739 1354 0
-1391 4168 0
-2601 2826 0
39 -3497 0
-4869 1094 0
-1152 1767 0
2389 -2063 0
-1747 -3903 0
-2863 4507 0
2586 1180 0
-912 -4666 0
3251 -964 0
1722 -4006 0
2213 -1858 0
-4359 1930 0
2281 2581 0
-1125 -4261 0
-2235 -2786 0
1344 -3156 0
-3872 -2911 0
-163 784 0
-2246 636 0
-1855 -3280 0
7 412 0
3786 3842 0
2670 -1795 0
2823 -190 0
2012 -3871 0
-384 -1271 0
-4424 1886 0
-3277 -4320 0
3141 2016 0
3312 -1421 0
2424 2322 0
4025 -1891 0
-2074 840 0
3242 -3872 0
-3652 -2531 0
4735 2987 0
2203 1643 0
2509 -3571 0
-742 -2325 0
-4810 -4432 0
2652 -2313 0
4281 -2852 0
-1619 1858 0
-756 -2434 0
-4813 -3320 0
656 -3253 0
-1327 -2072 0
1793 1478 0
-3577 -3269 0
896 2597 0
1419 -4045 0
-1084 818 0
-3472 -707 0
2860 1374 0
3918 -2943 0
2926 -3368 0
-667 -3268 0
-3668 461 0
1160 -3774 0
-1543 -4414 0
-4058 4123 0
3080 2732 0
2913 -2514 0
-3191 955 0
1669 1132 0
-3190 -2117 0
-3016 -376 0
-930 404 0
1112 -865 0
-3975 151 0
2080 -3910 0
4664 -3954 0
89 4054 0
-3314 -3733 0
-1178 42 0
4120 4390 0
-3365 -2633 0
4506 4681 0
2659 295 0
4536 -2262 0
-3688 3864 0
4019 -4726 0
-2722 -2496 0
-1851 -1398 0
2824 1567 0
2502 1948 0
-4671 -3455 0
-4540 1547 0
-791 -3077 0
66 3096 0
-4463 -2226 0
4204 -4453 0
3362 -2008 0
1474 4373 0
4523 2552 0
444 1291 0
1283 3451 0
2588 -919 0
4831 2593 0
-4159 4600 0
224 3973 0
475 -3082 0
-539 -3541 0
-3714 1494 0
-371 -185 0
-2275 -1079 0
-4474 2523 0
1731 -3081 0
-4631 -732 0
-44 -2740 0
1593 2773 0
-2819 -4406 0
1877 1975 0
2269 -840 0
4742 1757 0
-2043 1527 0
552 2727 0
-3926 509 0
3466 3461 0
1726 217 0
-2783 3504 0
-1082 1886 0
-4778 -4219 0
3587 645 0
-1846 4147 0
364 -1554 0
-4059 -3239 0
-1776 365 0
-2007 4321 0
-617 2877 0
4186 -4639 0
-3270 1360 0
-3040 2216 0
-2757 4141 0
1606 1390 0
143 -804 0
-4718 -87 0
2380 3464 0
2340 -3123 0
-38 -3802 0
-4105 -1477 0
2135 284 0
-4838 2047 0
3308 -2709 0
-3145 -2653 0
-2229 1610 0
791 -2681 0
3768 -3635 0
-4759 -413 0
-3257 -1882 0
-2584 -2925 0
4762 -2688 0
-4508 -4319 0
4081 -2226 0
-2049 1932 0
1230 -1363 0
-1446 3516 0
-1692 -2608 0
2267 2037 0
2679 -184 0
326 1254 0
4749 2404 0
-4143 3677 0
3654 4327 0
-888 -775 0
-1056 -2752 0
2666 1496 0
-896 1546 0
215 -641 0
-3524 -3610 0
-2973 921 0
-2392 -845 0
3906 2706 0
4077 -3125 0
3235 4321 0
-983 537 0
3307 -2417 0
-1492 -4868 0
4348 -2372 0
-2667 281 0
-3907 -1268 0
-3180 2304 0
1835 237 0
2298 3237 0
-2693 1504 0
-2178 4315 0
2122 3657 0
-3129 4751 0
-1993 -1337 0
-1630 3299 0
75 -2443 0
373 -1085 0
-1282 1964 0
2900 -2878 0
2117 -1758 0
-1461 -1534 0
-2798 2483 0
-657 -4 0
2349 -3984 0
-4032 320 0
-3688 1446 0
-2405 -259 0
-3428 -2640 0
3979 -1853 0
3347 1876 0
2198 1147 0
2335 -1626 0
-3672 370 0
2487 -242 0
-4180 -3922 0
-2262 902 0
-3536 896 0
3504 -2422 0
-1058 2266 0
2619 -3052 0
-892 -1523 0
3470 342 0
322 -565 0
195 4877 0
3977 -2797 0
-2218 -4500 0
295 -2245 0
2494 -3 0
-872 4870 0
-1352 -1612 0
2228 -2753 0
-3295 -2597 0
-2854 -4004 0
831 -3051 0
-502 -3953 0
951 1761 0
3427 4798 0
14 -2087 0
4198 -4556 0
2340 -2912 0
1732 -125 0
4187 3463 0
-828 2433 0
4131 234 0
2078 3631 0
2968 2098 0
-1576 -3695 0
2261 -4168 0
-4116 -3620 0
2199 -2344 0
1873 3596 0
1118 -2206 0
-1676 4460 0
-4626 3751 0
4745 4217 0
-4422 -4870 0
1374 1066 0
-1079 -3464 0
489 -4041 0
4315 -4741 0
-3113 3256 0
4563 -657 0
-3595 -4851 0
3670 -1673 0
-4830 -4531 0
-910 3820 0
-1808 3200 0
1191 -3378 0
103 -2215 0
-113 -287 0
2056 -3298 0
-2941 3033 0
-4265 -372 0
-1917 2773 0
1912 -2621 0
184 486 0
610 -2077 0
645 -1338 0
7 545 0
3126 -1253 0
528 547 0
-821 2914 0
4535 -4444 0
-3673 3634 0
3096 1333 0
-818 2829 0
715 659 0
-740 -734 0
-18 2664 0
3166 -1411 0
-4188 -3717 0
-1048 -3749 0
2343 3707 0
1358 -3354 0
-3828 -315 0
1415 -716 0
-1472 -1185 0
824 1394 0
292 1553 0
1465 -4343 0
4154 1765 0
-4817 143 0
4023 -878 0
-4397 3035 0
3310 -3658 0
2138 2000 0
-3239 390 0
-2722 1297 0
3860 1737 0
-4391 2778 0
-1427 1992 0
-2096 -4639 0
-2632 -3353 0
2968 -3344 0
1369 4082 0
-565 -3105 0
-1271 186 0
4215 4871 0
3504 -1492 0
-4614 -2570 0
-4761 -1543 0
1204 463 0
1536 4551 0
3603 1136 0
-2310 -1761 0
4740 -3723 0
2812 4364 0
-1034 4771 0
4298 -3805 0
-54 1544 0
4742 -2992 0
2902 -837 0
-4614 -3744 0
4787 2572 0
-2124 4360 0
-784 4218 0
-1628 -861 0
-22 4437 0
4126 1072 0
4032 -1421 0
-1527 1462 0
4877 -563 0
-1242 2130 0
-1619 -4543 0
-4797 4600 0
-3956 2193 0
3001 2635 0
-1294 -2746 0
-2763 -2857 0
2048 -3739 0
-4474 -3527 0
-1179 2651 0
3834 4801 0
3107 -3852 0
3433 1958 0
427 4046 0
41 -4601 0
-2919 2389 0
4458 1430 0
-390 1806 0
623 4273 0
-2245 -2802 0
3620 -2119 0
2591 1224 0
505 -2162 0
4783 -3897 0
-2949 -141 0
559 2404 0
-3117 481 0
2599 1319 0
458 -3995 0
4617 -398 0
-1604 3796 0
-994 -1186 0
-3182 806 0
3857 4570 0
-4569 -3293 0
3559 1767 0
2423 3597 0
1409 -742 0
4083 -4249 0
-4382 2804 0
1042 -1021 0
2247 -2589 0
4318 4822 0
-135 707 0
3736 668 0
-1669 -3226 0
-2693 -1865 0
4027 -263 0
-249 -2892 0
-2318 -2584 0
1164 1426 0
-1974 -4453 0
4394 -1169 0
4604 -2361 0
3811 -1271 0
-1268 2038 0
-4410 343 0
-3751 2680 0
-3458 3424 0
25 -2990 0
2786 3430 0
-4202 -2113 0
-3739 3456 0
4536 -4799 0
-1217 1688 0
-137 -3391 0
-2542 1178 0
-2767 856 0
1390 2082 0
-2772 -520 0
-354 248 0
1162 1873 0
1850 648 0
-1701 -1606 0
-287 -2133 0
-3525 -4372 0
-1412 -791 0
4795 353 0
-231 -3679 0
-3979 -2501 0
-1273 1502 0
-652 2031 0
4036 3336 0
3837 2976 0
-2450 1159 0
-4292 264 0
-1817 -4282 0
-3625 -3172 0
-364 -3551 0
-2821 -23 0
2337 -4264 0
-2097 -1489 0
1231 -3900 0
427 -712 0
-3820 2504 0
107 3248 0
-2776 2993 0
-747 1390 0
2484 -341 0
-3007 -3893 0
-4302 2460 0
-2447 4673 0
2910 3473 0
2386 736 0
3844 858 0
-386 -3906 0
1399 -4651 0
-952 -2215 0
-3136 2132 0
2540 566 0
4676 616 0
3763 1374 0
4320 3616 0
2937 2805 0
414 3119 0
-3530 2152 0
4561 -2466 0
3647 1586 0
3528 4306 0
4586 -886 0
-1598 2597 0
-2291 4364 0
4491 -308 0
-117 47 0
-3513 1206 0
1733 263 0
-1564 3373 0
1132 2894 0
-1487 -3575 0
-701 4633 0
965 -256 0
1903 -2957 0
638 -2684 0
-4029 269 0
3258 -58 0
-189 -2908 0
-4519 -1388 0
575 -1031 0
-4848 1728 0
-2007 -3102 0
-3403 4429 0
1602 -4676 0
-1937 2133 0
1046 -3102 0
-3713 2436 0
1137 -2186 0
-1970 -4303 0
2149 -232 0
-960 597 0
4216 -4429 0
1418 2487 0
2631 -3576 0
-926 1105 0
1844 4325 0
483 -4642 0
-351 2067 0
1670 2411 0
-1121 -2339 0
-4213 2971 0
1262 1281 0
-3630 -4344 0
773 4550 0
2811 -4140 0
-1667 -1387 0
4772 -632 0
-2399 -4117 0
2138 1406 0
-570 -3755 0
3896 1706 0
-3818 3977 0
-2871 4339 0
-1436 2564 0
-928 3236 0
-3106 4654 0
-4841 3980 0
-716 3170 0
918 -1024 0
-2642 4637 0
-327 3381 0
-1556 4352 0
4808 -527 0
45 -428 0
-3783 -2281 0
-3119 -4852 0
2575 -4759 0
3241 -2503 0
-4672 -2972 0
-2999 -1907 0
-4806 1189 0
-183 -3394 0
322 3265 0
-2538 2159 0
600 -1566 0
-2805 1562 0
-1488 1196 0
2540 -4494 0
-1168 2859 0
1462 -2095 0
-231 -3690 0
-599 3444 0
-1088 -3640 0
3331 965 0
-4525 -4486 0
-3381 -3218 0
2260 -836 0
-3073 -2092 0
3457 -4177 0
3852 3011 0
2982 -3559 0
-3087 -1056 0
-3470 -2839 0
3063 -2510 0
-507 -4551 0
-288 -3732 0
-1669 1610 0
-1301 -1995 0
2491 -2920 0
4623 -3581 0
3800 2894 0
-256 -4467 0
-412 -2777 0
-2302 4714 0
3720 -433 0
1994 4271 0
499 2723 0
1164 -2816 0
905 -222 0
-3138 3117 0
-4290 1462 0
-1869 -1471 0
1332 1234 0
-4706 1853 0
3585 830 0
-3107 303 0
-1995 989 0
-2998 -4026 0
1796 -4543 0
3833 1102 0
2293 4876 0
-111 426 0
-4718 2199 0
3941 -4004 0
-1689 -2978 0
-3029 -2970 0
-985 -4609 0
2881 -1160 0
2471 1812 0
-4124 -3156 0
-3683 529 0
-2072 -894 0
-4690 -1704 0
-3952 2807 0
1966 -1093 0
4159 3080 0
-2161 -2329 0
4061 3480 0
-4196 -1844 0
-2597 2468 0
557 -2650 0
4797 199 0
1228 3605 0
-4215 1012 0
652 -577 0
-4353 -4096 0
-603 -1339 0
1518 -2134 0
1384 1727 0
4011 814 0
305 -3790 0
4262 765 0
-1114 -1601 0
-1195 -3598 0
204 -1494 0
-3743 2386 0
-2839 -3745 0
-673 28 0
451 -1186 0
2448 -411 0
4025 -1218 0
-1026 3313 0
-1057 2822 0
4527 2922 0
-546 -2409 0
1986 1247 0
1204 -3734 0
-2525 2982 0
4592 -322 0
-3652 1803 0
2362 1117 0
688 1562 0
2250 2270 0
3382 -213 0
-1165 504 0
3295 -3601 0
-2527 755 0
4286 -2623 0
-2335 -2647 0
-1704 -3120 0
-177 1570 0
-1834 -2323 0
2677 464 0
-2853 3432 0
1176 -2816 0
-4597 959 0
2645 -4693 0
-1420 3633 0
-1373 2442 0
2172 -4092 0
1710 2296 0
-520 -1963 0
-4042 4409 0
-3806 -4241 0
307 -289 0
657 2507 0
-4587 -1521 0
3179 1258 0
2592 -12 0
-861 540 0
-2598 1483 0
2750 758 0
-315 2134 0
-1561 3461 0
4050 -4749 0
-3758 33 0
-506 -2064 0
3420 -2682 0
-1309 4315 0
972 -4071 0
987 570 0
2963 3721 0
4646 2091 0
-173 -4589 0
2127 950 0
-1434 4691 0
-3221 -383 0
-3893 4055 0
-1207 -1397 0
4017 -4642 0
1712 -285 0
2495 -1469 0
2596 -522 0
-1502 -1642 0
1934 2154 0
-1127 4691 0
-179 2234 0
4578 572 0
3153 4799 0
-4717 -647 0
-4775 4175 0
1196 1900 0
4142 -1581 0
3844 4198 0
3777 4267 0
-526 594 0
-1219 3263 0
148 -1579 0
1939 4199 0
2149 141 0
276 1359 0
-3915 2753 0
-4032 -3718 0
3008 -3419 0
-91 95 0
196 -2736 0
-722 -1161 0
4791 3574 0
-4185 -731 0
4000 -4510 0
-1271 3967 0
1533 -3008 0
-2958 -1037 0
3678 342 0
1344 -2509 0
946 -4317 0
1698 797 0
2781 3399 0
-1611 53 0
2276 -1352 0
1491 -805 0
957 551 0
-1760 1095 0
-3580 -4342 0
3604 -4693 0
2860 1736 0
384 -4429 0
-810 3421 0
-1722 -436 0
-1643 4191 0
-2 -4241 0
-662 -4258 0
2216 -2972 0
1172 -2355 0
2900 1749 0
3333 527 0
2122 3990 0
-4321 1600 0
-4318 -3084 0
2144 -4669 0
2030 2767 0
-514 67 0
1228 -1750 0
-163 2920 0
1932 -1634 0
-416 -701 0
-1298 -512 0
-2742 648 0
-3366 2288 0
-1711 -3408 0
3891 2976 0
808 3800 0
-2611 4504 0
3709 4582 0
331 753 0
-4163 2346 0
-2003 3057 0
3476 -3912 0
-969 -1972 0
-2560 -2744 0
-2589 3732 0
-4232 2701 0
-3967 -2973 0
3703 -3991 0
-276 -2302 0
2639 2420 0
-3187 982 0
2167 -4404 0
2925 1637 0
-3872 128 0
-898 -4789 0
-1349 1321 0
2945 -3530 0
-932 -4700 0
-1096 4188 0
1925 4377 0
2254 1310 0
3759 4212 0
2003 2468 0
-267 3078 0
4130 1266 0
-4211 333 0
501 2579 0
-1313 -4499 0
-2821 891 0
-830 4078 0
-1493 -2629 0
-4238 -1816 0
-1282 1069 0
-4531 -188 0
1349 -1722 0
2751 -3875 0
121 4548 0
-4226 -2273 0
690 1328 0
1540 -4036 0
2635 -3103 0
4644 -4276 0
564 3675 0
4383 -716 0
-2332 3841 0
-874 1928 0
2551 3261 0
-3300 3544 0
-4627 -4086 0
2968 2592 0
-723 -3795 0
976 560 0
2798 -3466 0
-3379 -2560 0
-910 3935 0
2171 483 0
2700 3214 0
-324 2669 0
3197 2345 0
-2810 2456 0
1561 -44 0
1698 -3058 0
216 -708 0
-2436 -4693 0
1200 -4546 0
-747 4559 0
-179 4306 0
-3783 -1332 0
100 -4017 0
4074 4339 0
-4143 2279 0
-3080 3514 0
-2510 -4326 0
-2103 3540 0
378 1371 0
-4577 -2569 0
-4285 -3885 0
-468 -3902 0
-4201 2560 0
-621 2732 0
-3479 -4584 0
1877 3948 0
-641 -2322 0
-2787 3766 0
-2361 2960 0
-858 -2163 0
2398 3950 0
3921 -2406 0
-247 535 0
-1377 -1710 0
4712 -2328 0
4367 2608 0
1563 4804 0
-1651 39 0
4818 -983 0
-1421 1969 0
-2954 3131 0
-2040 -66 0
-1779 -4552 0
-2282 -3587 0
1504 3509 0
-4179 1488 0
1672 3877 0
-3454 2152 0
-4687 3428 0
-3115 -3758 0
-3679 1902 0
-4553 -4636 0
-4216 1683 0
790 -4177 0
223 1565 0
2666 4174 0
1454 4596 0
-938 -3163 0
215 -1369 0
-669 2002 0
-584 3242 0
-619 -4327 0
2982 734 0
1105 1231 0
3256 -4090 0
-3435 305 0
-314 909 0
496 4115 0
655 942 0
-2690 -708 0
3584 2416 0
2775 2702 0
640 2944 0
-206 -3476 0
-3227 1247 0
-4728 1723 0
3703 -2931 0
-4324 -3838 0
683 -2963 0
2134 -538 0
-1575 -2527 0
-86 1802 0
-1464 2798 0
-4379 -3522 0
-2759 -2630 0
2243 -98 0
-3248 171 0
3552 -2629 0
-108 -514 0
-3881 -4437 0
2123 -3768 0
-2446 -3326 0
3888 -1175 0
1639 4421 0
-1382 2198 0
2188 -840 0
2981 -190 0
-716 -1415 0
-3453 -93 0
-4514 -4246 0
4496 -2320 0
255 -3907 0
-1779 1380 0
-805 -2591 0
1182 -707 0
-4124 3176 0
-3023 4434 0
1443 4476 0
-975 -1870 0
4093 -2211 0
-2171 1019 0
3046 -4234 0
3751 3701 0
-720 -3757 0
2725 -3007 0
695 -4398 0
3529 3272 0
2939 -1471 0
-4331 1463 0
-2759 -4534 0
-593 1362 0
3648 -3410 0
-1797 2138 0
-3554 629 0
-4815 359 0
3899 4392 0
183 -3270 0
460 1708 0
-3075 3691 0
678 3704 0
-796 -2621 0
1496 2643 0
-3918 -4525 0
4022 -1485 0
1980 -1606 0
-3798 4294 0
-1398 1314 0
1864 -2683 0
-67 -1098 0
-1549 -3897 0
3356 -1154 0
2300 1030 0
2712 4373 0
-3629 2285 0
-1517 -997 0
1006 -4372 0
-3990 -98 0
1864 -4869 0
1713 390 0
-2010 -3500 0
-1400 4703 0
4098 -3689 0
458 -3743 0
-3898 -910 0
3792 417 0
2077 503 0
-3361 4141 0
-1758 -2701 0
274 56 0
-346 -740 0
1904 606 0
3457 -2031 0
-2904 1075 0
4031 401 0
2029 -2848 0
4838 -2875 0
-2004 1865 0
3508 1081 0
888 2042 0
2642 -3076 0
2605 -2 0
-48 2956 0
3267 -2219 0
-1460 -2180 0
927 3667 0
3865 -4049 0
4613 -1186 0
-3648 -4816 0
783 1043 0
2096 1838 0
-2392 3986 0
-4269 -1195 0
-2087 -4670 0
-1528 -449 0
-2897 -2380 0
3922 787 0
3491 -3608 0
-4236 -4500 0
3439 -1821 0
2132 -152 0
-3675 -1139 0
3812 -4594 0
4845 -3646 0
1573 -2681 0
-1544 -3109 0
-4708 4531 0
2507 -694 0
690 -2584 0
-2023 -2131 0
2140 -4450 0
-849 -4143 0
504 3806 0
2234 -410 0
-138 -4737 0
-1652 246 0
-4664 -2685 0
-3013 -4476 0
2527 4452 0
-1250 -4077 0
3016 -4414 0
-282 -2173 0
-82 3577 0
4535 -2087 0
-4494 2214 0
-785 3235 0
4205 -2448 0
1729 -2890 0
-2276 3587 0
2352 -4308 0
2777 -4517 0
1103 771 0
-2859 -1651 0
-1016 3457 0
2373 732 0
460 3114 0
1679 -2262 0
3534 -785 0
441 -4074 0
-798 -2820 0
3129 -1029 0
2993 -4785 0
3647 -1743 0
-2808 -3129 0
-2361 -4850 0
528 -219 0
3516 -3607 0
-4503 -863 0
-2714 -2331 0
4305 -1193 0
-2390 -4804 0
1001 1546 0
4552 -469 0
-2117 4797 0
-2480 2708 0
1227 3801 0
2238 4057 0
1920 -1153 0
-959 -210 0
-3632 1786 0
1562 -2246 0
-1036 1610 0
220 -476 0
-228 1824 0
4052 -2574 0
-1168 988 0
2648 2037 0
-3575 -3673 0
1182 4527 0
956 1270 0
981 -4704 0
-733 3339 0
829 -2569 0
-1375 795 0
1047 -3938 0
145 -3992 0
1994 -2375 0
3694 -4097 0
4078 -3646 0
4418 -4353 0
4831 3927 0
-2801 -3517 0
-2646 2535 0
-3577 1438 0
1224 1706 0
-432 916 0
3146 -4165 0
-3579 -1448 0
-3508 4819 0
-427 511 0
-4413 4183 0
955 3813 0
-4535 -4388 0
3203 3170 0
2573 -383 0
1523 4026 0
3749 -1355 0
-3452 2171 0
1615 -327 0
-833 -1913 0
3015 1659 0
1733 4557 0
1824 2057 0
554 1800 0
4044 -1512 0
-2148 -1708 0
-252 -407 0
2164 -1860 0
-199 2442 0
156 2218 0
-496 2564 0
187 3958 0
-900 -3663 0
1395 4859 0
-560 1445 0
-3708 -1807 0
1142 1145 0
4195 1412 0
-3119 2956 0
-3033 -1403 0
-3273 1971 0
-686 1275 0
-3672 -3408 0
-4769 2469 0
3063 -3667 0
3654 2946 0
1562 2844 0
-208 697 0
-2630 214 0
15 3259 0
4754 4600 0
999 4539 0
-1208 -2434 0
-441 4347 0
764 4751 0
1894 -4124 0
2046 -1855 0
4825 -3300 0
422 -3750 0
-2616 -4070 0
-3119 122 0
-1585 -3458 0
3138 -2734 0
-1053 4566 0
3512 -1735 0
4374 1976 0
4639 3201 0
-4755 3947 0
-3090 4393 0
-1714 2396 0
3987 4311 0
-1813 -3393 0
-529 3536 0
-2436 -4397 0
-1575 -3300 0
4183 -3402 0
-735 1801 0
2147 4700 0
3468 -3905 0
3555 -3613 0
-70 -4465 0
1723 -1037 0
-4735 -1282 0
2748 -3040 0
-4139 2974 0
390 4786 0
-436 3773 0
649 -2104 0
1918 -252 0
-234 -1790 0
-1250 4850 0
-604 3426 0
-4149 -4719 0
-3133 -982 0
3152 1377 0
716 -2793 0
1843 -811 0
-1088 -99 0
-4820 -2165 0
-1015 701 0
-3963 -1878 0
1307 -3567 0
4475 -4514 0
752 -328 0
3225 -737 0
4120 736 0
-1301 4530 0
1552 2860 0
-4866 -3347 0
3930 -2420 0
-3347 -2415 0
1654 -721 0
-2553 3353 0
1774 4004 0
2182 -4534 0
-2546 -2099 0
1675 1117 0
39 132 0
180 -961 0
-1880 4102 0
-2343 950 0
-2509 4803 0
-3304 3681 0
4046 -2607 0
1266 -2446 0
1686 2449 0
4456 -2957 0
-1620 -145 0
-1525 1595 0
-3123 -2690 0
654 -1211 0
1511 -2075 0
-189 376 0
-3693 2574 0
2482 3447 0
2809 352 0
1115 647 0
-2119 -2331 0
3228 429 0
-4168 -464 0
3006 4699 0
-2376 1397 0
-4202 1324 0
-2726 -1324 0
4411 -4518 0
788 -3102 0
269 -583 0
2912 2646 0
3210 4143 0
4611 1808 0
4559 4859 0
-4264 -760 0
188 2979 0
4846 1320 0
1555 -80 0
-3560 -4519 0
1453 -1195 0
-2258 -2510 0
-2917 4760 0
2201 -4018 0
4487 -1250 0
-436 -3753 0
3727 -2915 0
-3892 -3673 0
1442 4071 0
4547 3769 0
-4501 -865 0
-3405 -3347 0
1994 -4843 0
3686 550 0
964 2699 0
-212 2115 0
-3782 910 0
336 1317 0
-182 -450 0
4177 -4511 0
2532 -778 0
853 1695 0
-3295 972 0
-2154 -3999 0
-407 -633 0
-155 2050 0
2590 -146 0
-509 2541 0
2383 -524 0
-4151 -3441 0
-3379 -1171 0
3269 2660 0
4211 -1594 0
-124 4759 0
-960 1838 0
-4826 -3767 0
1476 3498 0
-2636 -4535 0
-2249 -3208 0
1246 -4352 0
2225 -3323 0
3505 1453 0
3228 3919 0
3805 -886 0
-4559 -4408 0
-2579 2972 0
-2476 -579 0
2313 -4515 0
2838 3035 0
-3476 -3688 0
930 -1005 0
-3954 -943 0
1231 1754 0
-2936 -4136 0
-4806 -3158 0
-2245 -2213 0
855 -352 0
4616 -4125 0
-4751 1288 0
-1944 -4113 0
4035 4504 0
-1875 3167 0
-2907 4144 0
-4361 -3258 0
-1613 4554 0
1658 2249 0
3017 -245 0
439 3427 0
-1216 3510 0
1163 -1229 0
231 -4519 0
1520 4742 0
1783 -2374 0
-922 -2204 0
4206 2251 0
943 4465 0
1016 -3668 0
-2524 3354 0
-4565 -1479 0
2976 -2043 0
-2983 -1903 0
-1420 -4861 0
687 -3791 0
4423 -3016 0
-687 -1926 0
-255 1865 0
-3848 773 0
3716 795 0
3633 3402 0
-4165 3117 0
-3969 253 0
-394 2202 0
-1292 4128 0
-4275 -561 0
3276 -442 0
904 3872 0
-3303 925 0
4535 -4817 0
-166 -800 0
2083 -2291 0
-3452 2708 0
2264 947 0
2884 792 0
-1161 -4437 0
1514 -3864 0
1280 1971 0
1002 -2890 0
3323 -3576 0
-2719 -4575 0
1414 707 0
2798 -1605 0
-106 997 0
4169 3424 0
-3576 263 0
-3186 -330 0
-1046 -3029 0
610 321 0
3443 -2184 0
3698 -3428 0
-1630 -1607 0
4798 -1181 0
383 -3912 0
-3395 4566 0
4806 -315 0
4236 -1261 0
-1461 -2069 0
-2837 1241 0
3913 -1862 0
707 -2392 0
-4220 -1510 0
-952 -1656 0
-3265 3335 0
-1832 -2386 0
-2284 3024 0
1965 1637 0
-3697 2697 0
-210 4550 0
872 -951 0
1552 -2423 0
-2072 2914 0
2305 -2160 0
4371 -1709 0
-2908 -4514 0
-90 367 0
2265 -4744 0
2511 552 0
4568 2334 0
-3151 -2431 0
2621 1045 0
-3509 1372 0
3367 2343 0
-1341 1214 0
989 2586 0
4630 -3011 0
-206 -3770 0
-4232 4550 0
-1147 1910 0
1683 692 0
337 1089 0
829 1809 0
2558 1921 0
3175 -526 0
4435 -3233 0
4604 1608 0
-163 4016 0
-3310 -2950 0
-4632 3438 0
2930 2345 0
-4374 -825 0
2343 1240 0
3331 4615 0
-3211 -613 0
4842 -1293 0
2871 -2158 0
-1810 -1330 0
73 90 0
4652 -3995 0
2816 -2678 0
-1133 -4253 0
1182 -2913 0
3553 102 0
2586 -96 0
203 4548 0
2981 582 0
2347 636 0
2799 -4381 0
587 -4433 0
-4175 -485 0
1759 332 0
-1715 -845 0
-4586 -2553 0
3468 -4415 0
-4876 -2789 0
-4440 -3320 0
2000 -3449 0
-4156 1050 0
-4541 -4849 0
4471 2959 0
-4246 1593 0
2033 -4780 0
4696 -2778 0
3704 -4772 0
3498 -2237 0
2917 3338 0
1939 80 0
2727 -3547 0
801 4865 0
-3692 1184 0
-819 1234 0
4559 -2063 0
-910 -1748 0
869 2763 0
-4629 292 0
2768 3996 0
1443 2623 0
-2341 -3854 0
-1369 586 0
-1704 4244 0
-1053 -3134 0
-147 627 0
4445 607 0
3947 1372 0
4399 -4186 0
681 -3168 0
3104 3177 0
1103 -2104 0
-2485 2568 0
-3076 -4117 0
-2056 -614 0
3498 1061 0
4118 3568 0
1718 -4580 0
3529 2797 0
3098 1628 0
-879 2463 0
86 16 0
63 3928 0
-2871 482 0
3138 -2372 0
4223 4155 0
-2542 -2948 0
-1116 -3250 0
999 4083 0
1309 -2240 0
-2848 -207 0
1961 2488 0
580 1945 0
-1261 -1391 0
2990 -2240 0
-1556 -1590 0
3944 -345 0
-4762 4847 0
4684 -2940 0
3958 1935 0
-2589 -206 0
1243 625 0
-1729 4257 0
-3717 4492 0
3450 486 0
-1961 -3398 0
-3824 -2387 0
4102 2319 0
4846 -3846 0
-1236 -3113 0
4744 466 0
-2952 -942 0
-469 -3280 0
4782 1529 0
1312 1773 0
4518 -2068 0
4634 -4709 0
-724 4870 0
1374 -3160 0
1192 3777 0
3390 49 0
-2700 2021 0
2870 -916 0
1265 3712 0
2661 3618 0
-1199 -2215 0
4292 -2719 0
-4197 1738 0
-4274 -3593 0
4620 -81 0
1307 -3488 0
3703 -4099 0
870 981 0
2950 4649 0
-1389 3745 0
1946 951 0
941 4113 0
1177 126 0
3733 523 0
-360 -294 0
594 1698 0
-3822 -1822 0
891 1996 0
2106 -3335 0
-2430 4122 0
-3965 3223 0
-3874 4582 0
4108 -1234 0
2275 -2824 0
-4251 2200 0
-3257 3507 0
1963 2281 0
114 1934 0
3339 3972 0
-1378 -2041 0
-4625 -2375 0
-4128 3043 0
4303 -2898 0
1092 3439 0
-2665 -1544 0
-3988 1100 0
916 -2441 0
3343 -3494 0
250 -3785 0
2753 1498 0
-4013 -1849 0
2115 -1608 0
-3346 2015 0
-4430 -3870 0
-72 3353 0
365 -1749 0
4538 3048 0
-1636 1801 0
2176 3533 0
-4385 3861 0
3618 656 0
-952 -3359 0
-4839 -3852 0
-959 2039 0
2283 1979 0
-2465 -4027 0
-3084 -3373 0
-80 -1011 0
-2954 609 0
-880 404 0
-3912 -2328 0
2723 1985 0
-3450 -3712 0
-4242 -3867 0
1578 -2420 0
2475 -1636 0
4573 457 0
-526 -4140 0
-2671 74 0
4352 -4832 0
1048 -1151 0
2768 -1140 0
-2450 1216 0
4645 1921 0
-3530 -1528 0
3964 3173 0
2873 -189 0
-4739 -3261 0
4838 -1337 0
-108 -1642 0
882 3438 0
-4107 -985 0
2816 -2811 0
-2205 2733 0
3478 -3229 0
-2645 -3477 0
-1574 -581 0
-425 -2902 0
4155 -2846 0
-196 -2626 0
2825 -3014 0
-1734 678 0
-505 -2189 0
872 -3058 0
3469 3808 0
-1041 2873 0
-3244 4256 0
-4295 1111 0
-2339 -1847 0
-1948 2862 0
4735 -802 0
2605 -4452 0
-2963 3293 0
2878 2047 0
-3896 -3105 0
-3542 -3450 0
3413 3260 0
3816 -4398 0
-2553 4471 0
2317 -171 0
237 -2787 0
-22 1053 0
-4587 -1374 0
653 88 0
1949 4378 0
897 -3279 0
-561 4683 0
1114 -4340 0
2591 -2925 0
3800 4869 0
-3893 1885 0
-503 1986 0
-3622 4661 0
-1061 -1854 0
-1252 -1519 0
4775 -2155 0
-2618 1348 0
1960 4505 0
-1251 -1908 0
-1088 -2258 0
-14 -2957 0
2858 -646 0
778 3596 0
-4253 3880 0
-3121 -4522 0
1793 2472 0
1047 -2852 0
-1422 -686 0
468 -514 0
1366 -3477 0
381 4107 0
1993 3322 0
2406 929 0
151 -958 0
709 2703 0
2037 1543 0
-1917 50 0
2866 -2252 0
1206 2932 0
-1984 3996 0
-2341 842 0
-1298 -1107 0
-3868 38 0
218 -2473 0
1061 4827 0
-2601 -2061 0
-732 -518 0
-1552 -4531 0
-1752 1845 0
-969 2085 0
2031 62 0
-2784 571 0
3426 2587 0
-1478 -1486 0
689 1620 0
3000 2296 0
-4613 -4341 0
-2563 -880 0
-2908 1995 0
-4221 -15 0
-853 4205 0
-1454 -1817 0
4707 1271 0
-3856 -4249 0
2928 4543 0
-3631 -1991 0
-305 3478 0
-478 -1370 0
531 3669 0
3285 -2104 0
4268 -697 0
1212 -3048 0
-3308 -2099 0
-4358 4293 0
-238 2620 0
-565 -1919 0
778 1990 0
-1980 4829 0
-2855 -2217 0
-2236 3853 0
-4384 2385 0
4200 2656 0
-819 3296 0
-3185 -2843 0
2073 1854 0
2860 -625 0
-2395 4416 0
-2906 -1077 0
-1724 1721 0
373 1104 0
2269 -3265 0
-3276 1361 0
-3008 -566 0
1723 -1532 0
4466 -2511 0
1590 2053 0
-4279 -1863 0
-922 4774 0
1328 -680 0
955 -3387 0
4333 -3671 0
780 604 0
2250 -4549 0
798 2095 0
2392 -3994 0
3913 1390 0
-1333 -4294 0
-2051 1614 0
3203 -2399 0
-2566 -2162 0
236 -680 0
662 -4528 0
-3432 1000 0
1805 2391 0
2256 -4128 0
504 -447 0
4447 1673 0
1307 -2647 0
2404 2566 0
-4622 1532 0
1755 -2087 0
393 654 0
3680 -4184 0
-1401 -877 0
-4780 1885 0
-775 -300 0
3945 -816 0
-4143 -606 0
-2610 2573 0
36 4681 0
4475 -676 0
1311 -1498 0
3814 931 0
3729 319 0
-197 4274 0
2188 478 0
3771 -2404 0
1234 890 0
-1914 331 0
1148 1519 0
-2398 4502 0
-1687 -1790 0
-4528 221 0
-239 -1863 0
4150 1660 0
-188 3116 0
-4769 3103 0
-2330 3567 0
-2511 748 0
746 -2680 0
2948 198 0
1369 -4628 0
-3271 -2100 0
235 -2224 0
4773 -158 0
-2855 2754 0
-3798 2119 0
4514 2166 0
3145 -2927 0
-159 3697 0
4637 3700 0
-3574 -3079 0
-4016 -3119 0
-1788 -2012 0
-4077 -1919 0
-1557 244 0
2611 2376 0
-4388 -4105 0
1616 -643 0
-279 1557 0
-4588 2010 0
4749 -568 0
765 -4688 0
1370 -1564 0
3655 3999 0
3784 239 0
-3180 1012 0
3691 -3935 0
1936 -4496 0
-4159 -2171 0
2052 -4377 0
4200 2192 0
-4228 3709 0
143 1496 0
3273 -1549 0
3309 4350 0
-2295 -1727 0
3822 -1945 0
-3563 -3675 0
3145 -211 0
1947 -4608 0
701 -4634 0
-861 -4024 0
962 1562 0
3883 -2693 0
2652 2864 0
518 -627 0
-2413 -3798 0
-1215 -1261 0
-998 -1913 0
-3424 -4489 0
-2206 3241 0
-2011 3552 0
3106 -4069 0
-2864 -4394 0
3059 2463 0
2900 -1634 0
2246 -3279 0
-4145 1544 0
-2451 269 0
-2591 -1942 0
3967 2894 0
-4756 1789 0
4850 -3077 0
-4697 -3985 0
-4746 3574 0
-4470 -144 0
1418 3035 0
2587 4871 0
2210 4431 0
-4163 -1821 0
-2878 1551 0
-537 2759 0
-1477 -3699 0
-351 3096 0
1760 3436 0
-4642 -39 0
773 4569 0
-3180 3141 0
4703 741 0
1109 -2582 0
-2734 1235 0
-4835 904 0
2622 552 0
3210 3777 0
2650 126 0
-418 -535 0
4677 -4462 0
4473 4025 0
-539 -3208 0
-4233 2479 0
-4382 1900 0
788 -1203 0
-2243 -3017 0
1213 -680 0
-1598 3149 0
-1392 4189 0
-3206 -4216 0
1597 -302 0
774 4258 0
-4577 1236 0
4381 3655 0
4667 -3638 0
-1821 -4448 0
-264 3847 0
-4585 -3588 0
857 4507 0
4431 -2626 0
-2202 3521 0
4328 363 0
-4294 4865 0
-1401 3223 0
3656 -1349 0
3657 -1301 0
3773 3743 0
3597 3435 0
-1622 -3571 0
-1483 1761 0
25 3532 0
4649 -328 0
3285 -3574 0
-1790 1651 0
4860 -2625 0
3660 -1321 0
-142 -861 0
-3523 4226 0
925 -1001 0
-2485 1454 0
-3255 115 0
1359 3598 0
-4242 -4021 0
-1340 374 0
-2579 2490 0
-2051 -565 0
-3365 2659 0
-2411 1912 0
198 -2989 0
-3581 2983 0
-410 202 0
1297 -518 0
2408 4685 0
-1489 1881 0
3648 381 0
1525 435 0
4874 -567 0
-1236 1697 0
-3121 2835 0
-1045 -2806 0
3634 -2456 0
2033 -3662 0
-3418 4714 0
-3838 1035 0
720 1836 0
462 633 0
-2501 -2079 0
-853 421 0
-425 4253 0
1747 1974 0
2839 3890 0
-3113 -2349 0
-1572 -4664 0
1362 -1794 0
-2973 -822 0
-3578 4595 0
489 2580 0
-510 367 0
4014 -4302 0
2117 319 0
47 2042 0
2392 925 0
-4740 -2218 0
2432 -2249 0
669 788 0
-1658 185 0
3068 -1230 0
4349 -2543 0
-615 4321 0
3818 -2041 0
-4817 4373 0
1402 3424 0
1532 -1201 0
4760 2976 0
-3685 3043 0
-2711 -4812 0
-1398 -310 0
1071 180 0
3958 2844 0
3749 4791 0
3414 758 0
-4762 -3255 0
-3403 162 0
-3337 -210 0
4869 -3283 0
-4517 96 0
4037 4775 0
-4695 3561 0
-66 -3365 0
-3243 4611 0
3983 544 0
3095 -115 0
-4765 -144 0
-2834 121 0
-557 -2640 0
3692 -2794 0
2129 3715 0
2314 -1398 0
-1611 1054 0
506 1608 0
258 -4571 0
3993 2529 0
3533 3223 0
-4423 1468 0
-34 -2107 0
3369 -3840 0
-3141 -537 0
-482 -906 0
-2933 2739 0
2547 -504 0
4154 -4084 0
-3096 4349 0
-2225 -4451 0
1445 390 0
4093 -2648 0
3461 -825 0
-1596 -2992 0
1206 -4227 0
-2601 -1018 0
-3551 -3337 0
879 574 0
3281 2357 0
363 3725 0
-947 877 0
66 -4637 0
-1081 20 0
2755 3830 0
1685 2281 0
-3593 -2746 0
-4305 3394 0
3778 389 0
-4234 -784 0
-3397 -4006 0
-4586 -3575 0
-3332 -2643 0
-1611 -4009 0
-797 2052 0
-2994 -1287 0
611 -2365 0
3792 2751 0
-681 -1327 0
1736 673 0
4089 -909 0
330 -3665 0
1044 -3370 0
1003 3441 0
4803 2016 0
-2096 3572 0
-2493 2040 0
2628 2006 0
-1079 -600 0
2972 -1754 0
3817 -3024 0
3308 -2574 0
-542 3318 0
4077 -420 0
3901 1430 0
-3072 1227 0
-4312 -4594 0
-2079 -1468 0
63 907 0
-4724 1540 0
-4830 -2007 0
-4081 1822 0
-832 4068 0
-1751 -4654 0
-659 1697 0
-2793 2250 0
-1091 1832 0
-2701 -1467 0
552 -840 0
-1845 -4515 0
3915 3953 0
1839 1736 0
491 -2102 0
-1333 3578 0
-2185 4561 0
-3743 3613 0
122 519 0
-428 4168 0
-3032 830 0
-768 3204 0
2758 3117 0
2965 -596 0
-3473 -2128 0
2418 -3219 0
3972 -1250 0
1770 -4500 0
-1623 -1628 0
-2531 501 0
-2804 -655 0
-3368 4224 0
904 791 0
4206 -3419 0
-327 -4698 0
-2802 4757 0
3591 3296 0
4300 -3429 0
3228 2208 0
1047 3030 0
857 4611 0
-3233 3167 0
1505 -2610 0
3886 -1900 0
-2050 2669 0
-659 3725 0
-1445 403 0
-2447 -1759 0
-632 1972 0
1635 1350 0
-4727 3550 0
-2056 1015 0
-3048 -4512 0
1739 1514 0
-3658 -1106 0
-325 2326 0
-3276 -2741 0
2907 -4251 0
2106 4601 0
2495 -4264 0
396 3680 0
-3570 -242 0
989 -4669 0
-1599 -3017 0
604 3512 0
2296 -1596 0
-1118 3729 0
3135 -1122 0
1037 2138 0
2412 4504 0
4191 291 0
1212 1645 0
-366 -3627 0
4246 -76 0
2727 1155 0
-2977 -463 0
2457 -3286 0
1413 -3429 0
-4786 4053 0
-4319 -2540 0
-3779 -3266 0
4022 -1794 0
-923 4063 0
-2312 -4422 0
-952 -598 0
-2989 4137 0
-4647 -75 0
3422 601 0
2074 23 0
944 -3267 0
-1588 4605 0
2084 -4690 0
3515 2414 0
-1550 3491 0
728 -1211 0
-1855 4291 0
-3810 -2800 0
2631 -1477 0
-2216 3634 0
3412 368 0
-3269 -229 0
3608 -4310 0
-2963 698 0
-748 -3645 0
2502 -2880 0
-982 -4625 0
2716 -3717 0
-1855 -1967 0
-234 3645 0
-1072 4783 0
3002 4123 0
-3190 3355 0
-3435 -4759 0
-2600 -3151 0
1943 -3881 0
-1612 3183 0
3056 -4519 0
2809 3227 0
3373 -160 0
2298 -3746 0
-4507 -2876 0
-3252 3402 0
1097 -4655 0
841 -3087 0
559 -3270 0
1702 -4764 0
3921 1013 0
-2319 -1041 0
-3861 194 0
-2922 -1650 0
-3937 1971 0
-1521 -1429 0
-2295 3813 0
1647 4168 0
1385 4840 0
-3599 -3258 0
3241 -2169 0
1153 3179 0
1333 -2957 0
2449 -683 0
1998 2031 0
2261 4011 0
2273 1775 0
-1149 -2079 0
97 4223 0
891 1155 0
-3859 -3690 0
3372 -4769 0
417 -4114 0
-3840 -1458 0
2720 -4272 0
-3394 2082 0
-820 -1739 0
1930 -2556 0
-4632 -2462 0
3738 673 0
-1421 -3566 0
-2388 -598 0
3906 -4574 0
4327 -825 0
4450 -586 0
4115 1637 0
-4345 -3508 0
-4136 771 0
-4278 -1044 0
1415 1179 0
2097 -4152 0
463 2085 0
-3218 4443 0
268 -3442 0
327 -1525 0
-4332 2859 0
-2833 -906 0
4073 -2187 0
1213 2281 0
462 3019 0
2583 -2359 0
-755 690 0
-42 569 0
-2878 4778 0
792 4789 0
-678 3156 0
4407 1616 0
-2886 1224 0
2192 3317 0
-2600 1801 0
3411 1280 0
-2846 2440 0
4502 4398 0
-4007 -151 0
2676 99 0
3559 -2467 0
-2774 -2881 0
1002 -2954 0
-4457 107 0
-2560 -2728 0
4218 4092 0
-4368 -2405 0
2351 1003 0
3150 3501 0
-2253 -2051 0
-2717 -1370 0
3462 -3148 0
3238 -4286 0
853 4876 0
4151 4841 0
2131 -1653 0
-927 -1494 0
-627 3282 0
-1342 -3190 0
-2162 1764 0
-1952 -234 0
-1221 505 0
-2146 -3826 0
1291 2420 0
3402 3937 0
-3828 2997 0
-74 1272 0
2210 -1218 0
-52 2881 0
4568 -206 0
-419 -2289 0
-2916 -3947 0
-2819 3321 0
3392 -1667 0
-241 -3622 0
-2090 -1269 0
2777 2523 0
-927 3019 0
-3861 2902 0
-177 -2434 0
4296 -2025 0
-4129 -1907 0
-411 -170 0
4209 3370 0
-1946 -2866 0
3240 3430 0
4176 -3722 0
2003 2672 0
-3961 4016 0
415 -1591 0
-2492 890 0
3691 -10 0
-226 -2951 0
1019 4388 0
-3593 -2803 0
-4320 -1115 0
1664 2691 0
-4021 -557 0
3923 3389 0
4573 4452 0
1712 -1678 0
-4471 -1421 0
2555 -2279 0
3396 -3789 0
3972 -1738 0
4371 -3756 0
4804 4148 0
-4453 4763 0
2021 -1022 0
330 143 0
623 -3430 0
-1041 -1135 0
307 -2181 0
1099 582 0
-4445 -4425 0
1735 -2175 0
-3878 -2745 0
-3800 3056 0
-3030 3865 0
-4502 3707 0
-3850 -341 0
999 -666 0
-3070 -1339 0
-3211 -1607 0
-2374 -3524 0
-1752 -3384 0
-456 -3267 0
2622 -3603 0
2749 -1637 0
-3121 -3996 0
1526 -526 0
4380 -191 0
-1125 3803 0
-1028 -2626 0
1800 -2355 0
952 -592 0
-4221 -2771 0
-1114 -2957 0
4072 835 0
-2422 3780 0
2160 4507 0
409 270 0
-2359 -1517 0
3866 3555 0
-4654 1302 0
-240 -2436 0
29 -599 0
-457 853 0
-1839 -4643 0
532 -4085 0
316 -4876 0
362 -4610 0
3032 2920 0
-1232 -593 0
1322 -1188 0
-36 3491 0
2550 4629 0
-4489 551 0
-795 -1661 0
-2725 -3874 0
2293 -2805 0
-716 -408 0
930 2166 0
-4477 2092 0
3011 -4707 0
4044 -2857 0
4316 691 0
3107 -3427 0
-509 -4260 0
4707 -4265 0
-2807 -2367 0
195 -2688 0
339 -1005 0
2131 4649 0
2463 -74 0
2894 317 0
-2671 -417 0
145 1741 0
-311 3735 0
4008 -1476 0
-1909 -34 0
-1591 -1088 0
2956 -1205 0
-2422 2617 0
-2286 -2515 0
-4049 -598 0
4200 2304 0
-240 770 0
793 -4553 0
91 -3750 0
-397 1733 0
3266 -470 0
3780 265 0
-556 -115 0
-4113 2744 0
-1631 -3451 0
362 4453 0
3832 -2178 0
1732 -4583 0
-865 4481 0
-2389 -3583 0
-2637 3260 0
4714 -2689 0
4460 2189 0
-4091 653 0
-4804 -484 0
2086 -901 0
4578 4156 0
-3590 2354 0
-712 -763 0
-4128 2727 0
4560 -1434 0
2033 -1323 0
2275 1137 0
-1974 -1970 0
-4240 1138 0
2870 -4809 0
-4335 -2461 0
-1858 -723 0
754 -3387 0
1043 3841 0
697 4356 0
217 321 0
-4352 1256 0
-3363 -4723 0
-1962 2794 0
-1483 3899 0
3891 -2092 0
-3587 -2887 0
1608 3603 0
-108 965 0
3468 2484 0
950 -1361 0
154 -1143 0
2651 -444 0
4742 -1764 0
-693 -1289 0
3826 -3245 0
-2055 701 0
-2686 1227 0
1693 4306 0
-4610 -908 0
3174 -1856 0
-1221 3284 0
1453 1649 0
-1357 -300 0
3077 -34 0
-131 -2709 0
210 -2804 0
570 -1519 0
-43 -1970 0
-2772 -4105 0
76 915 0
2325 -2085 0
-1378 -4842 0
905 -2181 0
-2519 2699 0
460 -4089 0
3980 -1570 0
-4525 -4230 0
-4650 -3008 0
-2148 2184 0
3641 -3375 0
-2840 -1589 0
-4457 1463 0
-3918 -3906 0
2253 3456 0
2944 3143 0
4053 -3595 0
-1401 -2738 0
-2087 3921 0
1145 1061 0
-533 1920 0
-3778 2362 0
3995 758 0
-3383 1415 0
-1709 2419 0
2520 1906 0
-4367 3462 0
-2585 -1621 0
-1550 248 0
726 1109 0
-4471 1365 0
3300 -4800 0
-1791 3189 0
1319 -1518 0
430 -79 0
571 2550 0
559 1111 0
4399 -189 0
4749 4584 0
-2909 1596 0
-3734 2707 0
-1199 -713 0
3812 -2076 0
4405 4677 0
-4766 3829 0
-310 461 0
-4009 -3473 0
-3319 2741 0
2491 2707 0
4649 2383 0
-562 1309 0
2631 588 0
430 4358 0
-1954 -1133 0
-2569 3579 0
3732 4491 0
-2049 -636 0
1107 3589 0
-3363 -1349 0
-2928 1023 0
1317 -1134 0
-4372 864 0
2535 77 0
1462 2484 0
3745 -3648 0
-1890 -2068 0
-4810 1407 0
1369 -3137 0
47 -4841 0
1961 787 0
-3153 4394 0
-281 -1834 0
-2234 -2476 0
-2926 3851 0
-4261 2864 0
-2189 1006 0
595 -192 0
3339 -4044 0
4053 639 0
-1393 583 0
340 -4156 0
-1948 4873 0
788 4607 0
-3748 -618 0
-1474 -2794 0
1138 1912 0
-4814 -3464 0
4741 1176 0
3998 -1380 0
-2168 -3278 0
-4834 1399 0
2618 1678 0
4130 4502 0
-4424 3442 0
1705 -3320 0
4443 1705 0
2429 2602 0
2919 868 0
1965 -1646 0
1983 -2317 0
3595 1875 0
3089 3117 0
-2379 1619 0
-1959 2938 0
2697 -911 0
-1697 -2424 0
2615 3459 0
-1042 735 0
-3386 1710 0
-2571 -703 0
-3400 -3046 0
-1325 4354 0
-2469 -2233 0
4096 -281 0
-2164 403 0
2426 83 0
4820 -1321 0
-3154 -506 0
-4062 3051 0
1150 3748 0
-2344 -3633 0
726 1097 0
-264 1594 0
387 -4174 0
-3737 361 0
-1771 -3613 0
-1042 -1606 0
-4080 2502 0
-4173 315 0
1976 543 0
-2853 -1576 0
-3938 -2126 0
-3571 2567 0
4148 3748 0
-3763 -3155 0
-1128 731 0
-4315 3865 0
2481 1802 0
531 2521 0
-336 -256 0
-970 1461 0
3456 -2585 0
-4117 -3841 0
4296 3752 0
4089 1306 0
-4497 -3180 0
-484 2108 0
-1728 -116 0
4815 3531 0
4711 -3174 0
-1690 -4172 0
2946 -3785 0
3596 -4302 0
4122 -2876 0
-4240 3937 0
2300 2473 0
859 -647 0
-3628 1368 0
3333 4479 0
3444 3688 0
-3117 -2966 0
4102 4859 0
4126 -1357 0
1757 1649 0
-2653 556 0
3033 -2831 0
-3543 2263 0
-96 -4376 0
3760 -4347 0
-1863 4556 0
-4087 1246 0
-256 -3802 0
1157 -2739 0
-394 -2837 0
1090 1202 0
-4847 -1082 0
-1966 3442 0
4441 4347 0
-3283 -1543 0
4474 3692 0
-1213 -3276 0
2916 -2850 0
1555 126 0
4857 -277 0
3901 4105 0
4529 961 0
935 -3110 0
2500 4406 0
848 -3888 0
-148 4699 0
420 1803 0
49 1018 0
1709 -1782 0
-2547 -2167 0
-3159 141 0
-3284 1902 0
2778 -4159 0
-767 -1399 0
-2158 -4547 0
1254 1023 0
195 -1232 0
-4056 -3573 0
1012 -2955 0
-4740 4510 0
-4580 2054 0
-3576 -3448 0
4470 -2097 0
3698 -1275 0
4310 -3322 0
-3041 4448 0
-1051 -4006 0
-4442 -3364 0
3243 -4589 0
2471 -3455 0
4552 -2083 0
-1121 1600 0
4406 -3089 0
-3144 -394 0
590 -2878 0
564 -242 0
1789 -2446 0
-2051 4193 0
4108 2631 0
-99 -4875 0
2498 1627 0
-4145 3260 0
3504 -1986 0
3122 -4735 0
1327 -3922 0
2587 -4619 0
-287 3088 0
-3893 643 0
-2200 -1010 0
-2938 -2701 0
374 -4731 0
1838 164 0
-3271 -4275 0
-3052 943 0
-1235 102 0
-3793 2920 0
4818 230 0
-1016 -1937 0
-3218 3167 0
-79 2827 0
552 2131 0
-4004 -541 0
2307 -979 0
1106 1003 0
184 391 0
2105 -2190 0
-756 1764 0
4457 1045 0
1646 613 0
-2174 3543 0
1725 4001 0
60 4532 0
4230 -3912 0
-855 -2302 0
4293 2639 0
-10 3096 0
2283 -1310 0
-2949 1582 0
3674 -1608 0
-2991 -4472 0
3626 -217 0
2748 -1956 0
4035 3890 0
-1789 570 0
3703 -865 0
-739 -4403 0
25 4449 0
3851 -1554 0
3948 -600 0
903 -641 0
-2965 2199 0
3945 4680 0
1143 -1536 0
-952 2685 0
1876 -3840 0
-245 -3859 0
-4738 1445 0
2187 -1929 0
-2799 3535 0
-447 -2782 0
277 -4826 0
2020 -2026 0
3578 -1236 0
2506 3684 0
195 -4053 0
1240 4663 0
-4030 -3271 0
4829 -104 0
-3037 2663 0
2485 426 0
2558 -4592 0
-711 3919 0
-3321 -1840 0
-1166 3555 0
-3733 -2366 0
523 -809 0
4077 -1 0
-3189 -2876 0
3006 -2335 0
3871 3958 0
122 1330 0
-4487 -1877 0
1925 3967 0
-3544 -27 0
-4741 -1613 0
-659 -3511 0
-3186 1566 0
4337 -958 0
2216 4235 0
-3144 -4848 0
698 3017 0
-2265 -1352 0
923 4749 0
-3790 -435 0
569 4437 0
-3570 -1727 0
-3186 -3085 0
-4725 4073 0
-4469 2755 0
770 -3946 0
3857 981 0
177 1542 0
-949 -2797 0
-1985 1143 0
-204 671 0
-3053 3811 0
-544 -2555 0
4719 -1531 0
3018 -245 0
-991 -1276 0
-4543 1516 0
-1763 520 0
-392 2756 0
-1785 -2668 0
3454 -2307 0
3915 -2531 0
3991 -3511 0
-727 2301 0
-1109 -3795 0
1901 1727 0
1820 -4281 0
-1532 -2167 0
3214 -2875 0
-1161 -2875 0
-3591 2314 0
-2319 -1122 0
-3955 1197 0
1827 -2677 0
2628 -2957 0
-3476 4812 0
3686 4337 0
4421 -1381 0
-3606 -1411 0
2827 -1186 0
199 -2485 0
3328 -2441 0
3291 3879 0
2822 1755 0
-228 800 0
3532 -2207 0
-244 2325 0
-3111 -3987 0
4390 -4566 0
-768 1041 0
965 3915 0
-4056 4812 0
-3870 -778 0
4310 -2854 0
2912 2036 0
-2511 3959 0
53 1239 0
-4770 -3029 0
-4005 927 0
-1378 2392 0
-213 -3098 0
3459 965 0
3491 87 0
-2330 2198 0
-3433 -96 0
-3542 -1349 0
2336 4202 0
-3819 1520 0
3470 129 0
828 -2062 0
-2472 -2190 0
-2230 -3577 0
-2630 -3158 0
3633 3996 0
-1860 2594 0
-2400 1511 0
2964 -3619 0
3225 -1276 0
-3070 3193 0
-22 -960 0
1465 3794 0
843 -1606 0
474 182 0
1467 1703 0
4686 -4020 0
4649 3611 0
-2014 -3280 0
4824 -1978 0
3804 -934 0
-3143 -1808 0
-985 3243 0
3305 2482 0
2031 -1123 0
-3209 446 0
1574 1579 0
-1336 -3648 0
763 4057 0
-612 3677 0
4151 1048 0
-2758 -3632 0
2139 1396 0
-4017 2924 0
1861 -1106 0
-2966 3804 0
-308 4417 0
4061 3066 0
4054 -3151 0
-1392 3553 0
-2405 3511 0
-1461 2700 0
-868 -3549 0
1931 3033 0
3655 -3855 0
1214 151 0
-1848 -3796 0
-2743 3814 0
-241 4338 0
3812 3204 0
2366 2985 0
-1572 1220 0
-2232 1702 0
1776 -1166 0
-2989 1209 0
-4841 542 0
-2963 2418 0
-3055 -4792 0
-3667 -206 0
-4564 273 0
2690 4734 0
4611 3868 0
-2994 -206 0
-2949 -2253 0
3695 3813 0
3032 -1543 0
454 3944 0
3842 -211 0
3093 -452 0
-210 -4533 0
-2710 1700 0
-384 -3118 0
2322 -1732 0
4208 -280 0
84 4141 0
-1539 -2140 0
1920 4675 0
-2197 313 0
4636 4795 0
-4488 -2185 0
-911 2682 0
-2168 1753 0
-267 3225 0
3539 -1623 0
-2406 -2833 0
-2775 -2234 0
-2145 -655 0
-2612 1453 0
-2677 -649 0
3596 1963 0
3417 933 0
-2877 3973 0
3789 148 0
-1893 -3106 0
3011 2417 0
1920 4168 0
1635 -2033 0
3586 2997 0
3921 -4393 0
2629 662 0
1239 4476 0
1069 -3769 0
-2680 -1850 0
-1084 4584 0
-615 -4183 0
-1743 -1738 0
1425 -4636 0
3866 -2942 0
2464 858 0
-3685 1725 0
4852 2261 0
-3320 1586 0
282 -450 0
-3914 -1641 0
-3003 4668 0
1433 -1357 0
3246 4789 0
-1946 1891 0
-408 -614 0
1875 1636 0
-3693 -1619 0
1425 -3342 0
973 1158 0
4207 -3858 0
4659 -1969 0
451 224 0
20 3063 0
-4090 -4769 0
2945 4813 0
1788 2481 0
335 3515 0
-2664 -516 0
-1090 -1232 0
-3893 4852 0
552 657 0
49 -522 0
-2099 3011 0
3871 2638 0
-2630 3268 0
4804 -3824 0
3152 -628 0
4360 2315 0
-4776 1019 0
4623 997 0
-4852 942 0
-3242 2140 0
-2692 2714 0
350 2999 0
926 4802 0
4333 -3992 0
4314 -41 0
-566 4711 0
275 -2369 0
3741 3978 0
2464 -1601 0
835 -70 0
2290 1852 0
-394 1287 0
-4381 3928 0
3567 4342 0
2356 49 0
3746 -1625 0
3198 28 0
-207 722 0
1844 284 0
-705 572 0
2784 -4706 0
1990 3042 0
2433 3895 0
4037 -1942 0
-398 2428 0
2077 -3154 0
3202 488 0
-381 -3943 0
-4645 -3718 0
1763 71 0
-2188 -4569 0
-4421 -1429 0
4390 2378 0
-4399 -449 0
1950 -1090 0
4181 2711 0
362 4110 0
-443 -4063 0
1925 -302 0
719 2347 0
2152 -2595 0
4857 -1791 0
-1370 572 0
-3292 918 0
515 -2962 0
2175 -1048 0
4304 -799 0
1723 -2132 0
2338 966 0
-4433 4432 0
426 -4011 0
263 1358 0
2622 -1720 0
-2346 -4263 0
-4058 3590 0
-3105 -3314 0
-1089 -2399 0
1019 2937 0
-1067 3433 0
-3564 850 0
-204 -2862 0
-4353 -628 0
-1498 869 0
-3380 -3218 0
4651 891 0
-3052 -4308 0
-2663 31 0
2993 -2224 0
-3278 2129 0
-3027 3555 0
1344 -547 0
-1833 -4519 0
-852 -1048 0
664 2926 0
-4328 4694 0
1453 56 0
-111 -4282 0
-2311 -1895 0
-4267 -2674 0
2250 -3181 0
2331 -2761 0
4431 1703 0
2285 2135 0
2298 -2364 0
3639 4196 0
4338 -3418 0
3417 729 0
3721 -3785 0
-3672 1955 0
589 4422 0
-4177 1239 0
-3977 -2056 0
2590 -3501 0
-3547 -423 0
-32 1705 0
-3988 -660 0
-3955 -1728 0
-2836 3006 0
-4129 1380 0
3532 -243 0
863 -3795 0
1992 2057 0
-1688 -192 0
2882 -3827 0
3839 1010 0
-2061 -2129 0
-1539 66 0
-1170 -1653 0
2614 4050 0
-3192 575 0
1876 -4709 0
-3965 2203 0
1430 -2967 0
1281 3316 0
-3343 4864 0
4384 156 0
432 -696 0
1665 -3861 0
-455 2237 0
569 -4000 0
-153 4115 0
2917 -4122 0
-2001 -271 0
-1556 -2661 0
-4015 -4721 0
3949 -4706 0
-3451 -621 0
879 2217 0
1514 3084 0
2981 -847 0
1000 -505 0
-14 4107 0
-65 4323 0
-3134 2920 0
-4064 -1857 0
-2176 1663 0
-422 -1789 0
-680 -454 0
-739 751 0
-4545 2439 0
-3265 3035 0
-3764 -2579 0
4640 -1484 0
-2207 857 0
-2819 3698 0
-2541 -745 0
2946 2785 0
-2025 3897 0
3736 -2733 0
-1152 1224 0
3908 3749 0
869 -3354 0
3660 1395 0
1743 3101 0
4788 2859 0
-2276 -683 0
-2226 -3754 0
-1840 2020 0
-3113 -1816 0
4808 3982 0
-1331 -2715 0
-4333 774 0
-3615 -247 0
4602 564 0
-2568 -3690 0
2013 2574 0
1685 1316 0
4021 -3125 0
2894 -3794 0
-4665 1112 0
4296 3692 0
-3304 4135 0
2829 -3420 0
1202 3072 0
1586 -3220 0
-3009 3247 0
3479 3933 0
-1653 2724 0
-2858 1645 0
3444 -289 0
-1190 2157 0
-1848 217 0
-4296 -730 0
3202 -3213 0
139 -4190 0
-2298 -4477 0
-26 -2342 0
-4586 4321 0
654 -2279 0
4093 506 0
1005 -3594 0
2580 -1219 0
255 -3667 0
-1469 3802 0
-4234 2714 0
-505 -2837 0
-1233 574 0
-3250 -211 0
-3818 -2451 0
-787 569 0
-1088 4482 0
41 3487 0
1944 1766 0
1957 -2097 0
-2253 718 0
2207 -3954 0
871 -1249 0
663 -4062 0
-183 -4858 0
3952 -1868 0
-622 -3168 0
-2640 -196 0
-650 -1548 0
-177 -2647 0
2120 -4546 0
-4689 987 0
-1983 -1751 0
1202 3293 0
-1692 284 0
-2832 857 0
-3283 1540 0
-458 3974 0
-1897 -4761 0
-2996 -4105 0
196 533 0
-2221 -1607 0
-1109 3413 0
-2023 -1747 0
-2804 -2762 0
2755 -4484 0
78 4797 0
1504 1953 0
-4349 1430 0
4146 -2116 0
-2465 -1209 0
283 -516 0
717 -2901 0
1383 -1832 0
-2387 2119 0
-279 343 0
1499 -177 0
4502 -1018 0
-2778 -4240 0
-2121 -1747 0
-602 336 0
-4151 -2734 0
4209 -4701 0
2381 3207 0
4163 -241 0
4740 869 0
2037 1699 0
-4610 -974 0
389 1710 0
-3376 -4855 0
294 -1559 0
-1642 -3630 0
3723 3797 0
147 4035 0
-795 3318 0
2574 4831 0
4729 3262 0
-2707 -669 0
-2254 -88 0
432 -4313 0
-3655 3749 0
4302 2164 0
-3481 268 0
3088 4321 0
-4004 -2819 0
1418 2814 0
2251 1170 0
2507 -4275 0
-2464 -1852 0
1223 -23 0
4594 -2662 0
4750 -4822 0
4837 -2084 0
1245 -1494 0
2112 1683 0
-1160 -1469 0
2266 -1860 0
266 1111 0
-4848 -2782 0
2266 -3638 0
1711 2396 0
-410 -1667 0
3157 -2123 0
-2768 -3859 0
4819 -1419 0
-3036 -1993 0
1997 4654 0
-1252 4595 0
1096 -4333 0
-2803 -3484 0
2641 -975 0
1904 -3067 0
-4255 -764 0
-2929 -3202 0
251 3812 0
-1972 -4162 0
474 -2940 0
-4241 -627 0
-1502 -973 0
-394 -2258 0
2685 4722 0
681 1754 0
-189 1463 0
-146 1110 0
-4328 -4819 0
-1303 4305 0
-3977 -4669 0
2534 3806 0
-3134 4432 0
-4006 1007 0
-2682 -236 0
4172 833 0
-3924 1648 0
-1692 3039 0
3664 2169 0
-4167 -4198 0
3707 -535 0
657 1331 0
-916 -4117 0
-1794 1837 0
1565 1535 0
2135 1709 0
-293 2838 0
4804 3517 0
-3264 3421 0
3502 -1996 0
-4433 -4728 0
-3594 1395 0
-3870 4095 0
-4724 4662 0
-714 373 0
3553 4262 0
-3940 453 0
1065 -1782 0
4122 35 0
-577 323 0
-1730 -4029 0
2279 -33 0
-3632 -3860 0
674 4182 0
4175 -4280 0
-3434 -2839 0
4020 812 0
2437 596 0
-1085 3028 0
-1834 -2801 0
4639 -4666 0
4334 552 0
-4593 -4302 0
-4484 4014 0
-1623 1613 0
4877 4070 0
4592 -4787 0
2442 3031 0
1928 2776 0
1132 -2633 0
3561 -1146 0
-1008 3185 0
-3715 -1583 0
-159 -4595 0
-4043 -3190 0
-4275 2354 0
2611 813 0
-2149 -3734 0
2115 -3013 0
1837 -3743 0
3618 2303 0
-1096 -4742 0
1768 -1623 0
-803 547 0
2188 1146 0
-1263 1581 0
2782 1025 0
-665 -1670 0
1174 -2388 0
-4429 3508 0
503 3496 0
2639 -3992 0
-3097 1257 0
928 1771 0
-2227 -4802 0
-4088 2774 0
-1696 1589 0
1860 925 0
-2257 1680 0
-3714 461 0
4535 -3261 0
-3027 -2521 0
-4520 274 0
654 -2395 0
552 4595 0
4466 4693 0
1984 1661 0
-4410 4061 0
4001 -1545 0
-366 -909 0
4338 292 0
-27 -4420 0
4860 -2948 0
3199 -1039 0
3333 -3708 0
-1298 -1339 0
-2934 -851 0
-3926 -2999 0
-1733 1509 0
4743 1962 0
-1403 2234 0
-1318 -1027 0
372 1865 0
3064 -2953 0
895 4396 0
-3873 2567 0
3469 -2169 0
-1243 4318 0
-4587 4579 0
355 2876 0
1166 -377 0
-1671 -1949 0
-4211 -96 0
-12 -4128 0
1814 -393 0
2942 4529 0
-2736 -3964 0
-2239 932 0
-6 -4812 0
-4097 4325 0
-4656 968 0
2877 -4556 0
-2516 770 0
-4477 1533 0
-1361 2606 0
4421 4537 0
-1261 2160 0
1702 -1236 0
4305 2037 0
-3219 -964 0
-3095 332 0
625 567 0
-3617 -3906 0
3662 -3453 0
-1644 -2075 0
2407 4376 0
-1566 3166 0
-3669 2908 0
-1084 -1724 0
3155 3177 0
-3693 2091 0
638 -3860 0
508 3434 0
-2007 -4336 0
-974 -2002 0
163 3413 0
-1357 -2491 0
4508 -3314 0
899 3379 0
4404 4797 0
-4788 4227 0
-2774 -3260 0
4828 3215 0
-3365 1770 0
-2764 2216 0
-1542 -841 0
-4 2030 0
-878 -686 0
-1772 3697 0
627 -4160 0
3566 4563 0
-2999 -3629 0
3256 -4037 0
-1377 -135 0
-4383 -3649 0
-3905 3031 0
-3081 -2173 0
-1946 1348 0
3279 2288 0
3716 4225 0
-958 -3125 0
2144 2930 0
451 3833 0
2961 4452 0
1805 -792 0
688 1691 0
3461 -2161 0
1896 4575 0
-3368 2697 0
99 1652 0
4742 -2888 0
4235 104 0
-2178 2512 0
2268 -279 0
3105 3501 0
-1316 -2977 0
2250 -1762 0
2670 -668 0
-4642 -554 0
-1399 -3367 0
4748 -2344 0
-1467 751 0
-1847 2838 0
2516 -4012 0
2491 2788 0
-3880 1949 0
-342 -2276 0
-2158 -4307 0
3395 1903 0
-3982 4027 0
-1201 1688 0
1146 1684 0
3325 -577 0
1107 -4123 0
4859 -1546 0
2203 -3531 0
-2430 421 0
-2239 -297 0
-912 -823 0
-2378 1419 0
-3232 3306 0
3983 91 0
-4152 1527 0
-3810 -3526 0
1313 -825 0
1302 -1505 0
1485 3938 0
-3677 -821 0
858 -2815 0
-3030 4062 0
-2179 -2962 0
-713 2627 0
4252 -1546 0
-2505 1181 0
-245 -3884 0
3718 -3875 0
-4052 3995 0
-3560 3711 0
-4219 1742 0
-4208 -2719 0
-2422 2048 0
1084 -900 0
3486 1770 0
1997 -1142 0
-3416 2661 0
819 1092 0
4392 2112 0
-1129 -3547 0
2822 1528 0
3436 2491 0
2063 3697 0
-3410 1437 0
1646 -100 0
61 -2180 0
2141 -4298 0
1776 701 0
-1461 3545 0
3880 138 0
-163 2668 0
-3751 -4192 0
-42 1220 0
3394 -3928 0
-317 2765 0
-3404 1961 0
3514 -4177 0
-2708 2590 0
685 -287 0
2987 1871 0
2692 -524 0
879 -3969 0
2783 -1722 0
-3859 -1513 0
-2582 -3308 0
1925 -3733 0
2164 -4094 0
-1020 -2470 0
-2849 1036 0
-3109 -912 0
-667 -795 0
622 -3710 0
-3220 -4528 0
-3136 4134 0
-341 195 0
2248 2901 0
180 -1121 0
2713 2074 0
4401 2775 0
3480 -2147 0
513 2194 0
4057 1267 0
1992 -35 0
3921 -985 0
3045 -672 0
285 2825 0
-3511 -486 0
-3403 -1271 0
2746 -2979 0
4607 4175 0
-1762 3647 0
2622 657 0
-2925 -3595 0
-730 3389 0
-279 -434 0
4186 -1857 0
56 1153 0
-926 4650 0
2247 3720 0
199 -2715 0
4404 3348 0
4467 -2690 0
-4066 2412 0
2713 -2041 0
-1619 4671 0
840 -2307 0
-111 3641 0
-379 -1027 0
2551 -1235 0
-4560 2999 0
-639 3340 0
-2125 764 0
-821 3610 0
1921 -4342 0
571 -2725 0
1287 -4255 0
-791 -275 0
-3860 -4769 0
2450 1657 0
2656 3524 0
-4809 -927 0
44 3650 0
-3425 -4481 0
3679 1069 0
1551 3594 0
-1261 -954 0
3720 2572 0
1822 307 0
2626 3905 0
-1232 -3619 0
3735 4082 0
623 2113 0
4296 -4214 0
-1284 -1408 0
221 4402 0
4357 1350 0
-1576 -3359 0
1340 625 0
-4191 -3231 0
-183 349 0
-3575 -4103 0
2054 -3549 0
4533 -1784 0
1101 -1689 0
2337 2581 0
1405 -4017 0
-3676 -322 0
-2340 -3128 0
384 3263 0
-165 2216 0
-3196 4271 0
1887 1822 0
-1423 -1810 0
2964 1892 0
-2446 -566 0
-3547 1082 0
4787 4536 0
4617 -2052 0
-1411 -966 0
-595 -2997 0
2602 2570 0
3216 2706 0
-1683 -1867 0
-110 1157 0
3436 -1927 0
-206 -3329 0
2369 1637 0
3331 3692 0
-1647 4129 0
1719 1460 0
2816 -37 0
-1292 2942 0
-204 2749 0
-2513 -2511 0
-1950 -3059 0
-934 1141 0
-1500 -2157 0
-3470 -3309 0
1776 4578 0
-3995 -4243 0
-3553 -2010 0
-678 -4438 0
866 2795 0
2535 -3738 0
-616 2115 0
69 -2102 0
-1169 3749 0
1560 3244 0
3333 4217 0
-4565 2997 0
835 -1922 0
-601 2215 0
-2731 1184 0
-2327 -4874 0
3605 2377 0
-839 -120 0
1549 -472 0
555 3039 0
1924 4181 0
-4506 -2051 0
4298 -3869 0
-1907 992 0
-3305 -4656 0
-3477 -3518 0
-544 613 0
-1326 -1147 0
-3805 -385 0
-766 4877 0
-2061 2292 0
379 1720 0
1905 2449 0
-3014 1976 0
-494 4158 0
2261 -3214 0
-3987 -1070 0
938 2267 0
4725 683 0
