c bounds 143 157
p cnf 955 2483
802 390 0
724 179 0
-202 -811 0
864 47 0
-302 -586 0
-544 358 0
-726 527 0
-578 942 0
39 -634 0
56 769 0
862 -759 0
-523 19 0
-635 264 0
442 641 0
234 -594 0
-140 547 0
-11 230 0
572 318 0
435 -10 0
835 872 0
612 -245 0
307 -847 0
-558 320 0
-881 374 0
-649 -764 0
-785 -67 0
-146 450 0
-726 850 0
126 618 0
553 872 0
309 -92 0
-790 -440 0
905 238 0
922 336 0
230 -218 0
666 567 0
-910 624 0
-517 715 0
-773 882 0
692 -680 0
729 -507 0
-60 -599 0
-152 37 0
783 378 0
42 3 0
770 739 0
-351 430 0
-787 422 0
896 -508 0
66 -781 0
561 -528 0
-538 928 0
-819 -536 0
293 -366 0
194 -856 0
-728 105 0
-707 -634 0
918 -167 0
586 886 0
-128 -821 0
323 -41 0
-611 -18 0
211 -43 0
-335 -595 0
891 436 0
79 -740 0
-352 927 0
596 531 0
-875 826 0
410 -388 0
840 933 0
822 -588 0
438 436 0
268 953 0
535 467 0
-342 -827 0
-805 837 0
427 -7 0
-409 389 0
713 3 0
-491 -821 0
-677 -734 0
-709 499 0
59 230 0
-122 880 0
396 601 0
-182 141 0
638 -793 0
580 -544 0
945 -396 0
390 -165 0
762 -818 0
-655 671 0
919 -897 0
-787 -262 0
-730 -848 0
-474 -477 0
-544 730 0
-395 -142 0
292 151 0
560 -787 0
362 23 0
-536 -335 0
-184 518 0
-364 -29 0
-851 -297 0
635 -389 0
108 891 0
515 -616 0
538 -556 0
-630 -707 0
-598 -700 0
635 560 0
-286 902 0
-204 424 0
330 641 0
-468 813 0
54 -530 0
408 736 0
892 -726 0
-436 81 0
168 394 0
-658 504 0
-152 -529 0
-782 -246 0
799 221 0
479 46 0
-60 -837 0
-791 665 0
-157 -249 0
-89 732 0
-27 -148 0
-185 -899 0
193 -4 0
-35 -714 0
565 -361 0
56 478 0
-772 -120 0
706 -87 0
822 -657 0
-300 -283 0
347 45 0
870 -533 0
-627 897 0
-75 -637 0
-226 -418 0
631 865 0
-255 950 0
-538 -225 0
-147 -726 0
190 229 0
-31 -246 0
438 -649 0
-704 -544 0
130 897 0
-226 248 0
218 -655 0
797 -10 0
-891 -157 0
-622 933 0
-846 -809 0
679 487 0
-440 731 0
390 -19 0
409 -353 0
-11 64 0
-756 -253 0
-908 -87 0
-762 414 0
-138 403 0
-457 819 0
-302 -519 0
133 753 0
-682 746 0
501 -253 0
-907 668 0
398 783 0
-290 -235 0
-541 79 0
-129 -231 0
134 646 0
702 -687 0
-421 -480 0
105 -111 0
311 -768 0
-303 -56 0
275 -421 0
59 741 0
526 233 0
-193 -543 0
-10 -564 0
-254 -43 0
-836 -23 0
-718 -388 0
583 527 0
329 -903 0
-944 943 0
-648 -323 0
778 -26 0
-465 725 0
634 -246 0
865 -310 0
645 75 0
-568 786 0
-938 -569 0
784 -527 0
407 -745 0
-53 686 0
694 535 0
-744 -91 0
-711 -348 0
218 891 0
257 -102 0
-153 -92 0
-356 -273 0
-321 -16 0
-734 612 0
490 -921 0
260 -653 0
386 -591 0
911 -16 0
30 -47 0
-286 -744 0
86 -484 0
746 554 0
-644 12 0
-26 -846 0
-15 -520 0
808 -910 0
-668 903 0
-748 -124 0
-555 407 0
150 -355 0
612 702 0
150 674 0
947 -844 0
692 737 0
899 -638 0
-337 141 0
-683 294 0
-435 -619 0
331 -211 0
948 917 0
-736 -354 0
-541 377 0
551 -701 0
769 795 0
619 394 0
-499 681 0
-710 -95 0
-653 309 0
859 751 0
398 122 0
-888 -145 0
-310 407 0
334 -374 0
766 320 0
-740 80 0
-386 504 0
-602 550 0
-737 -148 0
825 -748 0
853 764 0
336 -696 0
-642 496 0
-826 -139 0
-538 -283 0
115 -265 0
-538 -948 0
224 339 0
328 581 0
-202 786 0
311 189 0
739 814 0
-333 560 0
422 602 0
-952 275 0
-135 -767 0
261 584 0
591 868 0
293 -622 0
858 -215 0
111 -103 0
-704 747 0
775 117 0
-924 -551 0
-867 712 0
-620 136 0
240 -610 0
452 787 0
147 149 0
187 -560 0
223 -905 0
832 -76 0
278 -946 0
-945 -374 0
-259 149 0
546 -755 0
97 33 0
-904 911 0
-817 -119 0
-878 -912 0
-575 489 0
-237 -704 0
-409 -697 0
141 798 0
-164 -269 0
-78 495 0
314 -633 0
-54 751 0
-781 -459 0
-673 -356 0
-659 769 0
-783 -815 0
-409 612 0
116 -801 0
736 -705 0
-87 -597 0
564 523 0
-731 -456 0
118 -903 0
-847 151 0
-29 606 0
13 -342 0
-633 -648 0
-339 416 0
-296 888 0
-532 228 0
340 -465 0
843 240 0
574 -480 0
-57 -432 0
755 -105 0
-728 -572 0
259 615 0
339 -511 0
900 -709 0
504 776 0
-552 -486 0
-613 858 0
399 667 0
378 461 0
891 -946 0
387 479 0
832 -935 0
-250 -322 0
347 -944 0
112 397 0
-288 -500 0
126 -687 0
-256 -935 0
-950 -396 0
312 -611 0
647 372 0
-591 29 0
-467 19 0
-15 50 0
23 469 0
-668 722 0
63 -355 0
-792 -454 0
-134 434 0
-829 922 0
-801 -278 0
-914 434 0
-507 -474 0
-396 281 0
350 -124 0
-281 645 0
741 -507 0
-916 -519 0
-432 -372 0
-738 -707 0
-656 667 0
157 645 0
-53 -70 0
-799 121 0
439 -305 0
636 267 0
-126 -11 0
244 711 0
927 -480 0
378 939 0
-213 482 0
635 -46 0
774 408 0
8 -137 0
50 602 0
-74 371 0
479 372 0
-553 706 0
-787 -945 0
612 561 0
-281 -934 0
-63 844 0
564 -620 0
-411 -607 0
733 -856 0
889 -444 0
-875 615 0
34 681 0
-132 -475 0
587 827 0
77 331 0
948 -800 0
-391 -544 0
762 -717 0
259 -670 0
706 -49 0
-647 524 0
-14 -802 0
-347 -721 0
667 -916 0
-208 127 0
-423 837 0
-125 248 0
-238 622 0
-722 -352 0
567 480 0
950 -617 0
-129 403 0
-553 247 0
-559 706 0
-709 -374 0
-881 772 0
-812 614 0
-931 230 0
-671 -260 0
429 -661 0
751 -394 0
825 -308 0
722 2 0
-44 293 0
181 -780 0
50 -279 0
-781 -871 0
107 155 0
-64 400 0
-457 898 0
-684 -773 0
-612 -164 0
-527 729 0
-581 772 0
-777 -4 0
349 -429 0
-854 -683 0
-261 229 0
-548 143 0
21 931 0
-742 27 0
-804 -272 0
589 861 0
765 -159 0
67 -601 0
423 -22 0
832 116 0
-787 -563 0
-2 809 0
-900 -859 0
495 851 0
-846 -351 0
-237 696 0
-303 504 0
-485 201 0
708 -279 0
-411 126 0
909 -119 0
-154 875 0
39 -41 0
-654 274 0
696 502 0
493 537 0
415 -547 0
-262 819 0
-511 336 0
-55 737 0
713 221 0
212 106 0
-490 -307 0
-574 67 0
-914 -233 0
193 463 0
93 -341 0
800 904 0
-528 834 0
-470 851 0
454 266 0
588 869 0
-135 592 0
-20 -190 0
-1 -605 0
-418 -425 0
-476 -185 0
-212 -175 0
-561 -342 0
-41 -364 0
-459 -704 0
403 513 0
-817 -323 0
292 -24 0
-631 -257 0
90 78 0
302 -304 0
929 -282 0
-718 670 0
-212 819 0
-591 -102 0
-27 -139 0
710 -41 0
19 741 0
-103 819 0
-269 -157 0
572 -518 0
-680 -900 0
597 406 0
906 -61 0
766 -576 0
434 -483 0
71 -276 0
537 778 0
-525 -64 0
600 126 0
-64 -536 0
797 -322 0
-761 -238 0
244 318 0
369 -402 0
467 -308 0
-623 -671 0
696 417 0
273 109 0
-766 619 0
-424 -309 0
-42 869 0
-691 -364 0
661 -591 0
690 292 0
220 452 0
197 -945 0
146 83 0
145 855 0
187 -195 0
188 -421 0
-936 -486 0
154 876 0
83 872 0
490 194 0
-386 -952 0
-216 382 0
950 207 0
629 870 0
773 -792 0
390 -149 0
505 781 0
9 -25 0
-579 85 0
614 10 0
130 154 0
713 -58 0
56 40 0
-144 740 0
-393 136 0
-226 75 0
883 -517 0
-245 -766 0
-129 -705 0
204 -820 0
-84 841 0
-732 142 0
-32 -610 0
652 849 0
794 -367 0
-115 -850 0
344 -917 0
-20 924 0
-353 -702 0
356 -156 0
853 621 0
837 -607 0
-154 -421 0
-276 -247 0
806 780 0
368 232 0
-184 899 0
133 -236 0
-232 -444 0
-190 -357 0
461 291 0
733 -227 0
-484 -901 0
-536 818 0
-863 409 0
-450 -773 0
681 130 0
874 101 0
-128 -424 0
368 859 0
526 537 0
948 -864 0
-887 -308 0
312 -728 0
-910 -905 0
561 -275 0
416 738 0
-806 42 0
-791 -443 0
-144 64 0
481 796 0
292 353 0
868 76 0
-771 -109 0
5 460 0
651 804 0
-447 -713 0
-530 531 0
-630 -954 0
750 929 0
-827 -540 0
-737 493 0
264 -598 0
868 428 0
110 770 0
-295 -423 0
649 -153 0
696 -126 0
397 923 0
517 -137 0
531 534 0
-535 192 0
-104 -697 0
438 -722 0
-399 463 0
692 756 0
-649 8 0
92 -643 0
852 -792 0
162 259 0
-578 -264 0
-600 215 0
-820 249 0
-663 -332 0
-622 785 0
345 161 0
-536 -61 0
-28 109 0
-661 368 0
2 -310 0
594 -214 0
-382 -521 0
-26 -334 0
32 -102 0
838 -333 0
-826 377 0
357 751 0
510 -797 0
439 -234 0
-808 -735 0
903 -11 0
-535 -785 0
184 -4 0
-527 898 0
825 87 0
418 -308 0
-588 949 0
-552 -13 0
-730 576 0
-92 -244 0
387 -682 0
-697 168 0
-470 -701 0
674 763 0
429 -632 0
-87 794 0
761 -183 0
-381 506 0
-66 859 0
438 -199 0
299 675 0
-470 626 0
462 928 0
448 675 0
363 340 0
951 -660 0
-346 -530 0
147 892 0
-454 -935 0
-28 -743 0
776 641 0
623 -719 0
-217 90 0
-713 -799 0
666 91 0
-698 -863 0
80 -518 0
47 537 0
-799 -234 0
-180 101 0
-812 -871 0
-325 -700 0
877 546 0
271 698 0
-175 -507 0
-277 -234 0
-100 -307 0
28 228 0
879 -284 0
-233 -748 0
-16 884 0
52 121 0
-31 762 0
105 -109 0
-701 623 0
-1 790 0
780 -954 0
-860 68 0
-556 425 0
167 142 0
279 794 0
493 -160 0
-809 386 0
-262 418 0
460 -873 0
174 408 0
240 -846 0
114 49 0
315 -839 0
-400 -744 0
-575 -244 0
-939 -265 0
35 -222 0
-298 -160 0
201 309 0
134 -664 0
717 -217 0
-265 -112 0
131 -202 0
-16 696 0
770 -719 0
754 -713 0
-687 -522 0
-23 -193 0
-739 149 0
439 422 0
379 -21 0
79 273 0
-246 -32 0
280 -85 0
274 100 0
-137 -535 0
-638 54 0
659 397 0
909 -718 0
-269 -289 0
155 60 0
832 -654 0
229 290 0
544 -611 0
-748 19 0
-639 912 0
-456 -767 0
-817 273 0
699 863 0
207 -399 0
420 804 0
-258 -605 0
-317 330 0
185 546 0
-559 -748 0
313 -588 0
717 640 0
-348 924 0
906 542 0
699 -865 0
-588 -246 0
473 139 0
299 -945 0
274 45 0
792 315 0
158 -575 0
600 820 0
-428 764 0
434 -929 0
-551 96 0
-889 113 0
-837 -803 0
548 88 0
2 -41 0
895 -604 0
-142 380 0
-477 505 0
223 -532 0
-120 98 0
-242 859 0
747 435 0
-945 -803 0
431 -327 0
-615 240 0
526 -138 0
-140 797 0
842 502 0
-396 -340 0
408 -722 0
-633 -443 0
-109 151 0
-752 697 0
-616 -555 0
50 493 0
-857 -92 0
-670 -44 0
-190 728 0
-579 580 0
-532 501 0
872 61 0
181 935 0
161 -482 0
-210 15 0
-119 548 0
-895 235 0
903 -424 0
-312 640 0
-681 23 0
371 677 0
221 -178 0
-197 169 0
313 -524 0
-303 690 0
952 898 0
-915 -332 0
576 -494 0
20 586 0
664 -664 0
-249 252 0
-513 -577 0
212 273 0
-307 -590 0
446 -41 0
-654 -732 0
-916 603 0
581 -296 0
827 -544 0
379 -816 0
-790 930 0
531 -93 0
641 -664 0
-691 609 0
-325 384 0
-486 -268 0
322 274 0
-204 -444 0
840 380 0
432 280 0
-503 -214 0
-781 188 0
897 -552 0
550 -73 0
102 133 0
-337 -659 0
-903 -262 0
-257 -687 0
313 778 0
-642 91 0
-929 -659 0
799 -435 0
-180 -483 0
49 800 0
-145 -897 0
549 -773 0
415 51 0
670 -261 0
-329 941 0
853 -954 0
-304 -538 0
-88 896 0
-491 -470 0
399 -522 0
-448 75 0
-477 -525 0
-537 70 0
-2 876 0
-944 777 0
317 586 0
369 941 0
-687 -258 0
509 -409 0
290 -197 0
568 -607 0
-204 334 0
-513 -60 0
192 609 0
483 -507 0
59 699 0
-952 346 0
24 862 0
-891 -929 0
736 318 0
-847 -666 0
34 327 0
897 -717 0
776 -304 0
305 778 0
-389 -669 0
83 -570 0
-558 643 0
-563 -544 0
248 369 0
-927 -296 0
-628 87 0
-305 858 0
-386 931 0
23 -832 0
-424 -484 0
-934 382 0
-199 560 0
796 939 0
336 -348 0
660 408 0
263 -582 0
-120 879 0
-319 -176 0
-851 117 0
530 695 0
81 -366 0
867 66 0
413 389 0
-769 430 0
178 -279 0
-773 -570 0
714 703 0
24 -175 0
-931 -129 0
-20 -354 0
-535 613 0
-752 -556 0
-87 831 0
96 578 0
393 -727 0
-436 521 0
-559 579 0
531 545 0
-383 793 0
587 -853 0
732 219 0
271 853 0
-807 770 0
-625 -213 0
-198 788 0
-513 -127 0
-859 -389 0
-672 -742 0
471 -773 0
868 -173 0
215 218 0
-222 725 0
796 -137 0
577 -244 0
372 340 0
458 -491 0
-420 454 0
-590 -447 0
-255 653 0
-444 800 0
-238 -883 0
-532 -407 0
-715 35 0
716 181 0
920 -488 0
-654 827 0
798 -79 0
33 -137 0
-370 -739 0
202 -236 0
826 802 0
-433 -225 0
-727 -715 0
-46 -84 0
-533 699 0
-290 783 0
-584 -570 0
23 852 0
496 616 0
809 -554 0
418 544 0
-397 696 0
648 -703 0
770 567 0
-944 -797 0
922 -929 0
-657 831 0
-220 -856 0
872 -264 0
670 -953 0
254 -24 0
243 -672 0
872 854 0
-620 354 0
-286 666 0
761 353 0
-581 -654 0
-597 841 0
445 -206 0
912 -954 0
561 -711 0
837 -494 0
-400 -296 0
-743 821 0
-779 849 0
-198 804 0
505 -392 0
-588 252 0
828 -205 0
636 -457 0
-317 -636 0
251 711 0
-682 796 0
865 300 0
166 525 0
-808 -148 0
-506 506 0
843 733 0
594 111 0
-743 -348 0
89 -437 0
-385 206 0
-499 592 0
449 -701 0
491 754 0
-665 -904 0
761 566 0
-937 -328 0
400 601 0
-250 -687 0
211 909 0
731 108 0
504 890 0
-99 311 0
764 -365 0
903 457 0
321 774 0
175 -910 0
-672 -233 0
463 501 0
-324 850 0
786 -511 0
111 -635 0
-847 -160 0
14 -784 0
-823 833 0
332 -195 0
-121 723 0
-237 548 0
-937 595 0
-164 -911 0
-10 -391 0
471 290 0
-809 -577 0
570 -878 0
-145 -776 0
952 -427 0
-920 -715 0
-624 -773 0
278 -180 0
775 -925 0
625 -955 0
495 805 0
529 405 0
918 -941 0
-940 -594 0
793 738 0
360 -360 0
166 645 0
-174 114 0
172 -582 0
781 -665 0
692 797 0
331 738 0
167 495 0
-176 809 0
56 113 0
-548 526 0
320 630 0
-834 -236 0
-539 168 0
-734 867 0
-622 -854 0
-120 34 0
603 -158 0
-795 -164 0
868 -424 0
883 -637 0
595 585 0
559 -373 0
664 -337 0
-247 -135 0
701 373 0
-347 -391 0
-810 -419 0
729 -563 0
726 408 0
635 -911 0
592 -334 0
-396 -475 0
564 -130 0
712 -12 0
-869 804 0
935 774 0
72 -732 0
445 549 0
218 -261 0
510 751 0
767 -789 0
261 375 0
-75 -485 0
-515 430 0
763 -748 0
366 -331 0
-397 -68 0
505 -363 0
-952 467 0
-55 -507 0
446 71 0
-476 646 0
-614 449 0
247 364 0
-744 839 0
-26 726 0
118 -530 0
-790 -214 0
-628 -789 0
57 651 0
-727 190 0
-367 279 0
313 -327 0
-327 415 0
639 167 0
-82 623 0
-654 469 0
312 880 0
865 -172 0
413 368 0
178 -896 0
564 623 0
-342 939 0
-115 -488 0
-180 336 0
428 515 0
172 708 0
42 -679 0
-401 -689 0
-687 639 0
-725 -211 0
687 -419 0
654 -174 0
-580 221 0
741 131 0
-818 -348 0
286 862 0
-651 -664 0
300 -709 0
51 926 0
682 -160 0
-532 -773 0
545 459 0
574 360 0
-851 -581 0
700 221 0
767 652 0
203 150 0
510 477 0
566 691 0
-754 -538 0
-733 274 0
-628 -622 0
-364 842 0
182 163 0
-239 -927 0
840 -629 0
-129 -127 0
410 -307 0
39 545 0
-551 765 0
-691 609 0
-474 -812 0
630 277 0
-566 90 0
511 848 0
-310 -289 0
-16 629 0
-58 913 0
-862 -851 0
241 -954 0
290 256 0
-319 746 0
-821 732 0
-272 -511 0
91 -16 0
-789 -192 0
236 858 0
-532 909 0
-635 -522 0
-163 8 0
-331 -803 0
178 165 0
40 -713 0
251 770 0
-260 840 0
181 277 0
82 764 0
-431 710 0
-421 433 0
246 -535 0
266 -912 0
39 496 0
487 335 0
-265 -938 0
818 -745 0
-277 -821 0
-175 505 0
331 523 0
472 -448 0
467 -394 0
863 897 0
112 -367 0
373 186 0
128 -4 0
392 -419 0
-821 812 0
211 67 0
-392 -103 0
-792 920 0
291 380 0
-185 656 0
-949 12 0
331 -519 0
438 58 0
-237 -781 0
-196 273 0
-553 795 0
-519 -214 0
631 -444 0
-594 -257 0
-126 -801 0
679 -184 0
240 -310 0
612 -288 0
48 -795 0
-783 -246 0
229 -603 0
379 -165 0
-551 -398 0
631 -576 0
780 -111 0
141 817 0
667 741 0
-245 442 0
-103 167 0
-828 -165 0
-564 751 0
723 699 0
-448 574 0
-465 -588 0
508 660 0
472 -618 0
596 -431 0
-409 -459 0
-769 -947 0
230 876 0
-31 340 0
298 -463 0
909 -170 0
896 -499 0
71 -282 0
-421 -810 0
-899 -728 0
852 -698 0
-903 -22 0
-28 -303 0
-453 -713 0
-175 377 0
271 -171 0
-900 755 0
-953 -324 0
228 572 0
-591 -69 0
-81 40 0
798 142 0
-952 219 0
-303 -621 0
-706 429 0
-685 483 0
588 -908 0
-222 -36 0
-205 143 0
-190 -945 0
459 -730 0
-95 -225 0
332 -310 0
411 187 0
-411 349 0
-320 -153 0
432 179 0
900 888 0
-643 -848 0
-643 -833 0
420 -528 0
163 831 0
188 336 0
19 -396 0
-171 -365 0
-427 672 0
523 178 0
-109 -466 0
728 -687 0
-528 825 0
-302 387 0
266 298 0
-1 -801 0
807 -813 0
-466 -790 0
-719 -751 0
862 42 0
567 430 0
-513 439 0
610 625 0
-934 188 0
-743 297 0
-269 -95 0
-823 510 0
-174 270 0
-117 -355 0
-282 -361 0
-693 -808 0
-305 253 0
-1 -7 0
-347 887 0
-356 281 0
-389 365 0
-286 -827 0
-317 -571 0
-942 -614 0
472 -611 0
623 -597 0
46 751 0
17 406 0
779 -854 0
144 834 0
-286 -668 0
-163 739 0
271 -780 0
170 760 0
510 536 0
141 -316 0
-556 -923 0
906 581 0
-709 -22 0
321 340 0
98 -468 0
-326 471 0
919 -443 0
-552 233 0
-303 275 0
-628 346 0
-75 -722 0
794 320 0
449 118 0
548 -801 0
30 800 0
-916 -83 0
741 657 0
-677 417 0
231 -549 0
-789 -632 0
-692 -24 0
-296 127 0
-439 -772 0
347 -327 0
417 -465 0
-684 696 0
-134 928 0
583 -553 0
-246 -735 0
-757 905 0
850 -300 0
-781 92 0
-154 -665 0
-838 -890 0
-128 -162 0
-857 819 0
207 645 0
-383 676 0
523 -607 0
92 -591 0
-812 549 0
674 257 0
-766 -392 0
-149 -807 0
624 333 0
-13 -493 0
791 39 0
814 815 0
-535 666 0
-247 -732 0
458 -188 0
-611 -366 0
-144 -736 0
-485 -302 0
-808 -135 0
-507 124 0
-686 890 0
881 -82 0
-663 -895 0
-363 -209 0
-841 -639 0
341 -636 0
583 695 0
28 -367 0
-140 -919 0
862 391 0
-225 -312 0
203 215 0
-385 -889 0
-364 -398 0
652 399 0
26 780 0
-373 -856 0
648 -332 0
201 870 0
-272 -63 0
553 -250 0
488 46 0
-269 221 0
229 170 0
-367 232 0
-205 332 0
-354 21 0
320 776 0
-270 29 0
-702 -540 0
22 113 0
403 -734 0
680 -838 0
-38 -437 0
414 436 0
-485 220 0
-382 -333 0
-519 45 0
-464 -400 0
537 -100 0
90 -365 0
128 -936 0
713 241 0
-842 750 0
173 -737 0
564 -851 0
154 783 0
363 774 0
-147 339 0
645 200 0
880 705 0
138 -261 0
-707 933 0
37 886 0
469 -806 0
867 -55 0
330 -246 0
691 -547 0
-523 750 0
101 723 0
478 -577 0
-660 663 0
609 407 0
621 855 0
-644 410 0
424 361 0
-685 231 0
-16 -460 0
948 68 0
46 -879 0
-869 -551 0
-161 47 0
626 -589 0
548 918 0
310 223 0
-528 107 0
322 906 0
699 466 0
-477 -69 0
-814 -48 0
-901 -223 0
-483 -392 0
203 -223 0
-331 560 0
723 -325 0
-479 -183 0
-53 905 0
-102 -226 0
-748 779 0
258 -864 0
919 -720 0
-907 -481 0
770 900 0
118 606 0
-352 -742 0
31 -496 0
-954 938 0
-22 797 0
148 -593 0
-863 -353 0
-942 -544 0
95 -446 0
444 733 0
-200 940 0
-333 100 0
-177 731 0
-118 -138 0
554 -479 0
-262 933 0
493 133 0
699 852 0
-484 148 0
483 -123 0
-760 271 0
884 464 0
949 -382 0
774 933 0
14 739 0
154 -517 0
-129 -315 0
-354 -478 0
320 633 0
-503 510 0
122 428 0
578 -929 0
656 428 0
-832 -638 0
-780 -82 0
-863 -682 0
-518 -35 0
-262 906 0
339 350 0
493 372 0
-366 455 0
-664 -42 0
-795 901 0
221 -163 0
862 -13 0
-705 -270 0
-547 281 0
-358 -249 0
-889 690 0
629 -851 0
-722 930 0
-332 268 0
727 -917 0
438 -639 0
83 -48 0
-680 -216 0
592 652 0
-183 -644 0
182 -374 0
-209 76 0
-424 83 0
-806 -672 0
334 -82 0
461 293 0
537 -791 0
-594 -354 0
-834 18 0
243 417 0
-245 -423 0
493 638 0
23 -235 0
299 -617 0
-412 240 0
-4 -928 0
-678 -536 0
-722 -778 0
-212 377 0
510 350 0
924 600 0
779 -432 0
-84 464 0
-693 495 0
938 -847 0
-243 75 0
711 534 0
-908 -578 0
-402 512 0
-140 -327 0
-937 451 0
-394 -36 0
-484 821 0
-498 -319 0
520 -214 0
-643 -618 0
-81 -811 0
536 -139 0
833 -337 0
-880 177 0
-398 -285 0
-942 -484 0
45 740 0
883 387 0
85 -214 0
-156 -441 0
-388 -547 0
472 -129 0
-678 -278 0
-821 155 0
260 -642 0
-468 770 0
-839 -238 0
-348 776 0
297 -707 0
-918 -435 0
268 417 0
542 -356 0
640 -204 0
-319 603 0
-582 377 0
133 -323 0
-36 65 0
-532 155 0
372 98 0
-607 356 0
-40 -226 0
-718 513 0
-519 472 0
-921 493 0
-825 -569 0
716 -900 0
-115 192 0
860 -725 0
-683 642 0
16 -642 0
-16 595 0
-950 -162 0
-579 65 0
615 -434 0
738 -584 0
550 52 0
343 -619 0
433 -248 0
-718 117 0
218 42 0
822 -209 0
-50 67 0
30 763 0
-404 -139 0
-61 -17 0
-520 502 0
-643 183 0
-233 -368 0
498 -476 0
887 -655 0
126 355 0
800 654 0
783 -904 0
477 229 0
-443 -22 0
615 -621 0
-245 221 0
-183 -664 0
-746 -683 0
-435 -806 0
80 -581 0
301 761 0
646 194 0
760 355 0
311 320 0
-11 478 0
101 -689 0
523 -782 0
539 375 0
869 -188 0
-660 -913 0
-634 840 0
-791 946 0
-602 -579 0
418 -745 0
560 682 0
536 134 0
893 -470 0
865 42 0
662 487 0
-441 -76 0
-21 346 0
-829 490 0
128 334 0
475 786 0
686 107 0
-223 -265 0
898 909 0
-308 779 0
-77 -482 0
-4 153 0
-382 666 0
699 326 0
211 -104 0
-294 3 0
-405 -932 0
-562 870 0
-383 -840 0
-133 -599 0
281 -288 0
470 549 0
734 29 0
-685 379 0
765 761 0
388 844 0
-867 -279 0
-239 696 0
-146 -261 0
-689 -385 0
-337 -575 0
-531 -262 0
-327 -19 0
206 618 0
548 -256 0
167 442 0
194 -283 0
-955 521 0
482 361 0
379 733 0
-758 892 0
373 -951 0
-915 675 0
-785 192 0
933 432 0
259 58 0
845 539 0
-66 -547 0
-608 463 0
576 763 0
388 -78 0
336 410 0
483 804 0
-226 196 0
452 -81 0
524 -668 0
-195 32 0
-676 -598 0
-354 446 0
396 -146 0
231 -145 0
-602 -225 0
-643 -190 0
331 204 0
209 479 0
834 529 0
-362 -171 0
819 -643 0
392 -838 0
-28 154 0
799 -451 0
-389 764 0
720 339 0
-575 -744 0
-88 -185 0
248 -914 0
-261 -671 0
-347 -412 0
169 823 0
-359 930 0
-680 118 0
46 -227 0
-708 458 0
-246 -156 0
-459 -501 0
-354 -157 0
-642 805 0
923 951 0
593 -573 0
872 390 0
843 605 0
-687 720 0
478 292 0
592 467 0
630 -470 0
70 -279 0
-720 836 0
-947 -224 0
681 460 0
-813 346 0
-811 868 0
832 862 0
-338 580 0
903 -286 0
83 -807 0
92 836 0
-829 -514 0
-445 476 0
-575 762 0
239 122 0
-408 377 0
217 -63 0
-936 395 0
-165 -393 0
-200 662 0
346 -515 0
-632 905 0
-658 -614 0
42 105 0
122 30 0
-604 12 0
114 -328 0
-927 328 0
-876 -135 0
831 197 0
666 484 0
-91 287 0
133 483 0
496 -201 0
-196 249 0
-884 -547 0
-839 -654 0
-280 169 0
247 663 0
-460 520 0
-638 26 0
750 820 0
23 -13 0
876 -20 0
266 562 0
-590 755 0
134 731 0
841 703 0
101 883 0
134 910 0
-916 -363 0
-68 363 0
762 -128 0
-20 -702 0
23 -272 0
-253 -89 0
-176 -145 0
248 123 0
101 574 0
837 853 0
-276 -410 0
-839 264 0
265 637 0
344 -703 0
836 -26 0
22 765 0
622 -265 0
-697 -132 0
-474 756 0
407 818 0
776 -694 0
-34 -10 0
-851 -236 0
575 -913 0
-823 257 0
-253 724 0
-649 953 0
-486 680 0
-687 823 0
-444 478 0
-112 105 0
2 950 0
829 663 0
-485 926 0
-343 539 0
-256 675 0
815 841 0
98 -255 0
-698 -246 0
783 -92 0
944 930 0
692 738 0
-69 650 0
-195 -845 0
-721 325 0
-361 681 0
-864 -354 0
616 311 0
-919 433 0
567 -820 0
-189 -715 0
-334 -300 0
884 420 0
388 -572 0
439 -851 0
-69 -356 0
-808 -525 0
28 168 0
897 -74 0
516 754 0
188 340 0
676 799 0
557 411 0
23 679 0
56 585 0
-745 877 0
-214 -577 0
-696 298 0
-419 -531 0
-262 122 0
612 -337 0
-270 -524 0
76 -888 0
640 368 0
148 -636 0
208 -480 0
-563 -134 0
-654 -861 0
-636 741 0
-333 370 0
-797 -162 0
308 86 0
-254 505 0
-470 561 0
635 462 0
21 855 0
416 -38 0
-897 -818 0
-175 -118 0
613 891 0
234 835 0
70 -763 0
765 88 0
868 763 0
-581 -539 0
231 819 0
-257 -666 0
97 452 0
-36 -142 0
-875 -300 0
-739 449 0
-138 722 0
-606 -300 0
-737 629 0
227 341 0
-709 -500 0
410 688 0
346 -321 0
-146 -309 0
-203 -707 0
416 673 0
-548 455 0
482 46 0
318 -577 0
261 -496 0
354 211 0
455 126 0
-728 -523 0
541 359 0
-911 -84 0
559 671 0
-93 -441 0
28 387 0
-818 137 0
-209 -685 0
524 350 0
645 441 0
768 883 0
-723 181 0
-570 -61 0
459 -880 0
-90 314 0
-556 564 0
731 786 0
614 230 0
-659 -445 0
469 -608 0
-442 899 0
169 -679 0
-209 368 0
-444 -625 0
370 -102 0
-280 -246 0
-907 23 0
-542 -772 0
912 -508 0
534 -422 0
710 -100 0
-682 -204 0
449 -329 0
520 97 0
-771 -217 0
483 -685 0
-869 219 0
803 255 0
903 -213 0
750 -607 0
175 -739 0
-237 370 0
375 335 0
899 -568 0
-68 699 0
-774 133 0
881 -748 0
752 194 0
430 15 0
561 830 0
-852 580 0
-147 903 0
770 76 0
-889 -120 0
-830 624 0
586 410 0
-838 699 0
-99 -496 0
-914 272 0
516 954 0
498 -496 0
37 239 0
-802 887 0
906 -553 0
670 -485 0
392 439 0
-470 -274 0
-317 -412 0
-620 328 0
666 918 0
735 -391 0
-289 -109 0
566 674 0
-55 -406 0
377 -89 0
787 340 0
219 712 0
341 361 0
360 -643 0
772 498 0
-294 -652 0
-805 91 0
25 -720 0
706 480 0
679 696 0
-151 -355 0
415 510 0
-692 113 0
668 -590 0
-817 899 0
163 -806 0
45 -413 0
217 663 0
865 866 0
-398 208 0
-442 -265 0
-597 379 0
859 -55 0
579 102 0
-272 -202 0
-881 -911 0
281 -338 0
-62 370 0
-795 -500 0
778 -804 0
-732 169 0
67 310 0
-434 104 0
636 -128 0
429 634 0
30 815 0
78 133 0
-542 21 0
329 635 0
606 729 0
-462 -803 0
-790 350 0
-543 -926 0
-947 -689 0
899 478 0
559 -291 0
71 -770 0
777 783 0
-456 898 0
-598 -781 0
-541 531 0
-355 -649 0
861 124 0
915 -595 0
-240 330 0
124 -404 0
359 346 0
266 361 0
-501 218 0
-421 898 0
872 741 0
780 421 0
114 -433 0
-886 52 0
-211 278 0
211 534 0
211 -146 0
-31 -689 0
492 -847 0
-925 863 0
605 -633 0
187 -211 0
706 -804 0
539 267 0
194 -543 0
-25 760 0
-915 511 0
449 -331 0
-938 141 0
953 334 0
314 -949 0
488 -851 0
529 861 0
710 762 0
-280 -900 0
-808 -445 0
879 166 0
-590 -484 0
-617 -6 0
-617 -129 0
-150 -238 0
215 614 0
681 6 0
-913 -627 0
125 -630 0
-299 886 0
-459 534 0
796 131 0
-489 808 0
-774 -874 0
-307 681 0
927 733 0
-878 -270 0
-482 -276 0
117 677 0
-838 463 0
-715 866 0
760 -492 0
-663 -435 0
788 -80 0
-937 -308 0
470 -929 0
906 -759 0
366 -802 0
649 349 0
147 -184 0
141 550 0
879 407 0
-132 376 0
-389 403 0
-637 -152 0
887 -773 0
-664 909 0
-688 287 0
-123 -26 0
-921 891 0
797 529 0
-31 -423 0
-59 -573 0
-507 -347 0
-131 -324 0
-803 -164 0
150 -882 0
274 -890 0
-870 -317 0
732 -500 0
257 259 0
-581 442 0
-247 182 0
717 852 0
-52 -801 0
461 -916 0
-885 376 0
-133 344 0
-325 843 0
-158 -612 0
-729 -803 0
-132 104 0
940 -182 0
-196 814 0
944 -889 0
47 -908 0
457 473 0
561 -195 0
872 167 0
453 -314 0
-737 187 0
539 -495 0
-670 230 0
-721 -496 0
-185 887 0
679 -77 0
799 618 0
717 937 0
-288 72 0
-325 104 0
-547 -795 0
523 372 0
747 -779 0
117 -701 0
54 -743 0
-406 -436 0
-371 -245 0
906 441 0
-525 570 0
-786 824 0
-163 29 0
821 366 0
384 -847 0
148 -218 0
412 392 0
-816 -485 0
521 146 0
-488 -804 0
42 -719 0
187 211 0
-310 -476 0
-773 -952 0
763 675 0
733 -450 0
368 645 0
772 -186 0
-275 -195 0
277 -640 0
253 -821 0
-769 -917 0
933 183 0
508 -730 0
212 -748 0
-307 667 0
-644 667 0
-605 -791 0
171 260 0
-456 785 0
190 369 0
-435 551 0
711 6 0
663 -361 0
-829 -162 0
-931 -610 0
861 152 0
-152 -742 0
868 863 0
713 -317 0
-551 -651 0
852 -10 0
-178 -262 0
230 -709 0
-63 922 0
-294 541 0
-316 -796 0
-610 198 0
-945 -577 0
507 933 0
399 -36 0
223 -521 0
-373 824 0
473 -691 0
511 392 0
-143 855 0
-329 736 0
769 -592 0
-632 668 0
72 162 0
386 716 0
-500 410 0
928 -861 0
674 860 0
777 -276 0
-310 -873 0
-470 320 0
-899 653 0
-582 -622 0
21 -25 0
53 735 0
-791 18 0
280 -102 0
918 229 0
-108 866 0
-633 -761 0
-88 -485 0
-222 850 0
-141 -195 0
-126 -224 0
283 -581 0
-591 -853 0
-17 328 0
368 -156 0
-29 549 0
-551 -35 0
-310 -681 0
861 -802 0
-65 -136 0
-599 -600 0
694 233 0
-398 -433 0
-689 889 0
-763 -638 0
-157 -645 0
622 -296 0
223 847 0
-291 378 0
-89 617 0
-913 -910 0
-284 695 0
-570 -296 0
-394 951 0
-197 -679 0
181 -63 0
789 869 0
-740 -745 0
145 56 0
330 316 0
695 735 0
843 898 0
-728 559 0
-157 -71 0
-947 -881 0
-840 397 0
150 936 0
326 -466 0
572 685 0
826 614 0
493 222 0
-316 -544 0
-649 -122 0
-338 -139 0
-327 -200 0
394 -707 0
172 -21 0
79 -717 0
890 -300 0
198 -295 0
280 -146 0
-421 190 0
720 884 0
760 177 0
-8 -547 0
-848 -688 0
79 -129 0
292 -37 0
-507 472 0
782 542 0
-895 -190 0
-112 58 0
55 -382 0
-456 -500 0
928 116 0
686 -53 0
-704 -546 0
859 219 0
-650 67 0
-276 -515 0
-721 -825 0
-780 -721 0
-332 90 0
629 -802 0
-425 -180 0
-482 911 0
144 -489 0
609 -145 0
-118 -722 0
85 -929 0
-468 -460 0
54 -626 0
-307 -723 0
-380 -395 0
592 -395 0
-643 108 0
-497 -853 0
847 -591 0
827 -436 0
2 415 0
-481 -638 0
-337 46 0
-464 -595 0
-681 -443 0
293 -949 0
387 -518 0
-602 -581 0
-547 386 0
675 358 0
635 -577 0
-256 211 0
430 -436 0
862 824 0
-808 350 0
418 141 0
-760 344 0
-109 -905 0
5 -244 0
-862 194 0
-682 -473 0
-121 459 0
627 412 0
557 94 0
281 -171 0
588 -254 0
814 -878 0
-573 -832 0
580 923 0
501 804 0
436 -112 0
-425 6 0
107 949 0
-456 667 0
678 -812 0
212 802 0
-645 -420 0
-87 593 0
-382 -679 0
-385 719 0
192 886 0
814 -485 0
222 -12 0
893 -878 0
-581 -845 0
761 -685 0
-911 -647 0
32 -704 0
746 505 0
440 115 0
808 341 0
-319 876 0
640 -303 0
884 -398 0
181 83 0
449 -425 0
-112 -96 0
-489 -443 0
117 -265 0
-877 770 0
913 -31 0
-305 -237 0
34 290 0
-676 -474 0
-682 6 0
523 -485 0
-197 -701 0
666 -808 0
770 -608 0
639 -620 0
-374 -489 0
358 -662 0
394 520 0
-512 933 0
795 52 0
50 859 0
-156 -888 0
439 -216 0
-949 740 0
320 268 0
-102 249 0
550 275 0
2 559 0
-27 172 0
-709 699 0
467 -866 0
-218 567 0
-27 886 0
-721 36 0
373 -376 0
-347 -838 0
-793 -140 0
594 679 0
-634 -350 0
-568 -157 0
503 168 0
-683 -659 0
-319 -553 0
-692 212 0
72 769 0
-55 -936 0
912 -931 0
168 -345 0
-795 665 0
-378 -129 0
-905 888 0
-783 105 0
716 825 0
-952 -361 0
785 -678 0
-857 2 0
-26 -118 0
-445 -739 0
-621 211 0
-249 -601 0
-621 729 0
-766 -279 0
232 -642 0
-602 305 0
-59 -73 0
593 341 0
