c NF
p cnf 1993 3587
-1984 585 0
1882 -1732 0
-200 712 0
-1277 -304 0
-904 -1531 0
-1502 818 0
365 1231 0
1229 -725 0
-995 -1332 0
1492 -1643 0
-1113 1453 0
79 -302 0
-256 1150 0
-697 -258 0
718 1742 0
932 1698 0
-995 -895 0
1874 331 0
-962 -920 0
262 708 0
-1114 -795 0
-1864 -1869 0
132 -682 0
-523 740 0
-1630 1961 0
-108 1963 0
-1074 1649 0
575 -825 0
1578 1153 0
1552 -814 0
200 317 0
1397 418 0
1773 -824 0
1283 -698 0
-1806 -1333 0
1676 -1033 0
1940 804 0
17 -854 0
596 970 0
-646 1221 0
1430 -1854 0
-893 1761 0
296 636 0
1501 -494 0
836 -921 0
409 -751 0
1044 1637 0
60 -157 0
-940 -1385 0
-3 -828 0
121 1677 0
1943 637 0
-1768 251 0
-456 -1854 0
99 945 0
1056 745 0
-1234 234 0
-400 -1725 0
-1157 -1233 0
122 -1059 0
-1533 544 0
-183 -600 0
-1163 -581 0
-1536 -1651 0
-1277 -523 0
1947 1712 0
956 -112 0
594 163 0
899 -550 0
-389 1417 0
965 -1021 0
361 172 0
899 -340 0
-1349 -874 0
466 -354 0
1868 820 0
-1819 810 0
1773 1152 0
1571 -1537 0
-877 -1676 0
344 121 0
1494 -814 0
570 1262 0
1240 744 0
168 -1388 0
-1036 1169 0
-918 1767 0
-1936 1180 0
-1594 1146 0
850 919 0
-1511 680 0
1145 1879 0
770 -543 0
-43 666 0
-597 1815 0
-482 77 0
-1767 -1663 0
1637 1628 0
711 -754 0
-844 -1324 0
-1820 1164 0
1310 178 0
-292 -487 0
1353 -1574 0
-144 -1889 0
1217 29 0
1209 122 0
178 -1323 0
1597 1010 0
1197 869 0
-1220 1701 0
-1108 -1830 0
886 1482 0
374 402 0
-1226 1920 0
1411 1488 0
1688 -872 0
-1025 -436 0
-53 -243 0
-652 -1759 0
270 219 0
-1199 659 0
408 1453 0
143 325 0
1903 1623 0
-1819 252 0
-658 718 0
1823 -311 0
-682 991 0
1540 -1724 0
-765 1943 0
324 -670 0
-1702 1517 0
-1277 -403 0
1811 1462 0
999 76 0
-1221 50 0
1477 -1392 0
1661 -235 0
-1706 -1923 0
1929 470 0
-1059 -1621 0
-1687 769 0
1908 1885 0
-1639 1323 0
168 -1212 0
1966 1655 0
-81 -1705 0
-1361 6 0
1775 -811 0
145 687 0
-1454 804 0
-357 -1680 0
-1114 -822 0
331 -1987 0
1428 1518 0
-924 479 0
1496 -1762 0
-1125 -752 0
1472 197 0
768 -492 0
1251 343 0
-299 -1631 0
1328 579 0
259 72 0
-1770 -1972 0
-456 929 0
-66 1785 0
-1503 235 0
1080 48 0
-1667 -399 0
1969 1962 0
-1102 1042 0
-1506 -634 0
220 -1650 0
-530 -1911 0
-59 172 0
-136 1196 0
1153 1769 0
1319 -1384 0
1722 682 0
-450 -1575 0
-1321 -1725 0
-180 297 0
1457 -765 0
-1041 139 0
-1108 1910 0
288 713 0
-1406 -1203 0
83 -427 0
-1018 47 0
570 -363 0
-924 -1972 0
50 1661 0
-821 1352 0
-1575 897 0
-1857 1475 0
-1227 -1591 0
-1458 -1329 0
1843 122 0
-1971 1764 0
-70 323 0
-1701 -1361 0
-1113 1938 0
-445 -981 0
-1643 1188 0
-1816 -25 0
100 -1278 0
-1523 354 0
1047 -295 0
1075 -1355 0
-1800 -286 0
1745 -798 0
-1539 -1969 0
-555 210 0
-905 1016 0
1844 1337 0
1751 927 0
-1595 372 0
1291 805 0
684 -1919 0
-208 -1863 0
1391 26 0
-799 -1638 0
-488 -761 0
1497 1964 0
-830 1460 0
-130 714 0
-1265 1497 0
-600 -1219 0
-1377 560 0
-1050 714 0
-1079 -747 0
355 629 0
683 -1007 0
-872 122 0
-232 -219 0
-583 -610 0
-1914 -1151 0
717 -379 0
-1886 -1768 0
1526 -1562 0
767 108 0
-373 -169 0
-215 566 0
888 1339 0
-1700 -1258 0
1441 1104 0
747 73 0
398 -609 0
1060 -1655 0
-1006 -376 0
-1120 -1744 0
-312 -1861 0
-1207 -738 0
227 259 0
265 903 0
-1722 -1200 0
-396 -465 0
1241 1532 0
-61 1626 0
662 -1275 0
1535 1798 0
-1965 -236 0
189 112 0
1291 939 0
1596 -404 0
284 -563 0
1710 -234 0
1482 269 0
1016 739 0
1034 -1096 0
-1106 1302 0
1547 -1267 0
1925 -1330 0
879 -849 0
526 1524 0
-1002 -151 0
-449 649 0
501 1953 0
-425 -1226 0
40 1779 0
198 1918 0
-1952 -1302 0
317 -1206 0
954 -176 0
1201 1862 0
1286 -959 0
967 -1883 0
-1956 473 0
-1413 -135 0
-1149 -392 0
640 -1897 0
-1795 581 0
1286 -844 0
802 -1388 0
-140 -1497 0
-1044 -1082 0
-598 -1552 0
-1720 1520 0
-1861 959 0
446 -406 0
-814 -1342 0
1013 798 0
39 -1126 0
-515 102 0
-1751 1492 0
1650 -409 0
1209 1209 0
25 354 0
1056 -746 0
464 1408 0
-267 -1242 0
-363 -466 0
-1072 77 0
954 1207 0
-1401 -1318 0
-92 -1433 0
-169 -658 0
-1324 -1891 0
73 1802 0
1677 -422 0
1881 -833 0
679 739 0
-1156 682 0
1202 -769 0
-798 397 0
-308 446 0
-554 -1256 0
1506 771 0
-149 521 0
1637 1411 0
-441 416 0
1540 -195 0
-891 -131 0
-1781 -37 0
-1914 44 0
-579 -527 0
-2 -688 0
1915 1992 0
886 -1324 0
1336 739 0
570 -1022 0
-586 -308 0
133 -1427 0
-936 -1838 0
-1143 1456 0
1801 -1310 0
-302 1741 0
-1643 922 0
1709 1650 0
-798 566 0
1336 30 0
364 121 0
-228 -68 0
1589 -689 0
-1277 -751 0
1449 1184 0
-754 102 0
-171 -1866 0
-407 729 0
1388 1508 0
-606 1646 0
1435 -1137 0
-1518 1013 0
1131 -801 0
-322 -1381 0
-93 -1883 0
278 812 0
-568 1565 0
-152 965 0
134 303 0
859 791 0
-1643 -540 0
1483 -1288 0
566 -32 0
48 34 0
-488 -1040 0
1925 528 0
-654 -1925 0
871 -190 0
-766 -1092 0
-47 -1914 0
-1934 -705 0
437 420 0
1439 247 0
-1764 109 0
-575 1804 0
1181 -1663 0
-872 1067 0
-830 1145 0
-1592 427 0
-1078 655 0
1820 507 0
-1350 998 0
109 1331 0
735 301 0
-1154 1757 0
-1058 -1 0
-1089 140 0
51 307 0
749 791 0
-523 1896 0
122 -1811 0
1814 1409 0
1646 -616 0
-1606 375 0
-1415 -1873 0
999 -778 0
1572 -1405 0
-78 -1605 0
-92 -1447 0
-1960 67 0
-675 -941 0
307 921 0
1599 1022 0
268 -1551 0
264 -598 0
-443 789 0
570 -454 0
-388 347 0
-895 547 0
1668 -256 0
735 1428 0
-791 -1604 0
-1797 -330 0
-936 -181 0
-163 -581 0
-1302 -1054 0
-1573 -528 0
733 582 0
396 -110 0
-898 1740 0
1940 1448 0
-1840 364 0
350 1456 0
-957 -1471 0
332 -372 0
-1341 1488 0
-1567 -1817 0
1674 -726 0
168 -1397 0
1565 79 0
-1097 418 0
912 1905 0
-58 891 0
-974 1407 0
-989 1950 0
-1725 717 0
-1104 140 0
955 218 0
1300 517 0
759 1927 0
1912 -8 0
1310 -7 0
-1043 107 0
-356 1742 0
1962 1371 0
-653 1681 0
1708 1047 0
1795 -968 0
-1556 -457 0
-519 -1242 0
-1188 1509 0
-1689 1065 0
-1287 -1894 0
644 -777 0
-398 73 0
-1821 -286 0
1929 -1319 0
424 -1628 0
-1305 238 0
1410 1357 0
1710 78 0
-427 -635 0
-676 -1604 0
1686 -1050 0
505 -1377 0
1949 -937 0
-1820 -212 0
858 1369 0
1823 -1156 0
1847 1539 0
1670 217 0
-680 293 0
-1850 782 0
1260 883 0
122 -1596 0
1773 -403 0
73 1500 0
-1355 -1583 0
-56 15 0
1701 -229 0
-451 1898 0
1779 1241 0
-1728 -1678 0
-1645 -933 0
48 1572 0
804 355 0
-1332 1924 0
379 1313 0
139 -169 0
-542 -561 0
1426 -363 0
-1470 210 0
448 -1894 0
-769 1320 0
1789 -1985 0
536 1691 0
-1023 -1415 0
1943 -1255 0
1066 -1104 0
-1752 -1391 0
-1059 -1428 0
1722 172 0
687 -1922 0
-1067 -1663 0
754 965 0
1761 -1406 0
-1036 -821 0
576 -617 0
750 331 0
-1446 -1199 0
1488 -352 0
-1021 -1477 0
571 -1347 0
-1566 -1878 0
-1566 -1470 0
-1232 -637 0
846 567 0
1822 38 0
-775 1442 0
1328 1287 0
-962 804 0
-645 732 0
956 -1835 0
-1583 -1084 0
1241 -1552 0
826 -1952 0
761 -1265 0
-1096 1488 0
785 857 0
-88 -1538 0
374 1193 0
1698 -273 0
-1501 1266 0
43 85 0
-1248 681 0
-1665 -808 0
1278 -1549 0
1686 475 0
103 -643 0
-880 -1010 0
-747 325 0
321 -799 0
-661 562 0
78 650 0
-1636 -722 0
-1038 1541 0
507 -1495 0
-1713 -586 0
685 -1128 0
143 -135 0
386 -1265 0
1525 563 0
1377 193 0
-861 616 0
464 -1948 0
1374 372 0
1927 -241 0
-1684 1769 0
-1235 -197 0
-442 684 0
1351 755 0
792 1962 0
1210 1514 0
1465 -1103 0
-1465 -750 0
-1680 760 0
837 -1142 0
981 -1743 0
-3 558 0
-1482 1460 0
-160 446 0
-978 717 0
-701 -494 0
-1783 1347 0
-1871 1679 0
1505 -1290 0
-515 1294 0
-1961 746 0
-1456 -1934 0
-1404 -1818 0
1622 -648 0
-1944 1741 0
511 1854 0
-253 1670 0
-1975 -1498 0
1506 -485 0
-836 -113 0
1189 -606 0
-549 -1750 0
1656 -1039 0
-1375 53 0
-1957 -1830 0
-1451 -820 0
-30 993 0
249 359 0
-1370 1222 0
749 793 0
1813 1851 0
-620 1135 0
913 1916 0
78 -1948 0
44 -1535 0
40 -1909 0
1689 1526 0
1835 -1523 0
156 1104 0
-409 -1049 0
1218 -1528 0
-1043 -1708 0
816 -1828 0
713 375 0
-118 1778 0
-1873 538 0
234 171 0
199 -1017 0
-792 772 0
-707 -783 0
-704 -1795 0
75 -968 0
-1322 -1586 0
386 825 0
531 1191 0
1834 87 0
1920 -1278 0
-1660 -1066 0
-1127 -113 0
146 1645 0
-781 -836 0
264 415 0
1199 1289 0
1383 143 0
-1463 -1213 0
-873 -33 0
668 1511 0
-1938 -795 0
1142 -1651 0
1926 -522 0
1875 -973 0
652 626 0
-1231 1314 0
-1333 -1228 0
-1569 1343 0
-1872 -62 0
-1971 -1312 0
-1250 -1490 0
861 1592 0
721 1972 0
-1823 1973 0
-716 -1520 0
-11 1063 0
80 852 0
1908 -1119 0
-1930 -892 0
68 1905 0
1231 558 0
1871 -879 0
-937 -1202 0
-302 1097 0
1190 380 0
841 -1970 0
-138 -208 0
-469 -1920 0
1171 1610 0
1031 426 0
1664 1065 0
-308 -536 0
1622 -540 0
794 512 0
264 181 0
564 -1669 0
-1974 -758 0
116 -1183 0
1548 -1328 0
1792 1917 0
-1397 111 0
1864 1346 0
-1018 -764 0
1174 480 0
-710 -1862 0
-10 -881 0
904 -808 0
-563 625 0
977 1221 0
1125 -1324 0
-726 -256 0
1428 50 0
1120 -306 0
-167 -625 0
-703 1933 0
-909 -1219 0
-761 -436 0
1671 1096 0
1694 -219 0
-315 -1237 0
71 -1325 0
1306 986 0
-1575 -785 0
-1765 1322 0
1154 -283 0
266 1955 0
-1484 -1365 0
-553 488 0
-603 1820 0
1530 1056 0
630 -385 0
-915 254 0
-1487 -1120 0
-1588 1269 0
-733 -1377 0
479 -418 0
100 656 0
-1331 761 0
-550 760 0
-1596 1186 0
-1983 -1615 0
761 -1926 0
1742 204 0
1833 74 0
-941 -391 0
247 1878 0
-128 756 0
668 232 0
-964 -671 0
-1059 810 0
-423 1878 0
-219 1478 0
-90 -1931 0
1563 -901 0
-670 149 0
-1055 -1545 0
1635 -737 0
1695 827 0
-128 1308 0
315 1134 0
-389 -1161 0
573 1555 0
663 -1559 0
-1837 -709 0
1843 -579 0
-1569 -1684 0
-1478 -697 0
344 1459 0
-1678 146 0
1209 702 0
-1 -738 0
-858 -1025 0
-230 1494 0
-712 956 0
238 1972 0
-448 -1319 0
733 462 0
-1253 956 0
-1574 372 0
-837 1806 0
-736 130 0
1351 1601 0
-939 -454 0
1246 823 0
-1552 848 0
1619 -1412 0
1661 1833 0
1656 314 0
1842 798 0
-502 -1877 0
431 1521 0
-1652 -1415 0
1411 -1119 0
1360 -1768 0
-1367 1663 0
-141 -963 0
29 -1830 0
1420 -1549 0
843 -741 0
1537 1644 0
1410 37 0
-1470 -718 0
-199 -322 0
470 -1058 0
754 902 0
-1242 965 0
298 390 0
-1496 46 0
417 -1035 0
921 361 0
-1712 1077 0
-1324 -909 0
-1579 1525 0
-1697 245 0
525 88 0
1583 -549 0
302 794 0
906 -1960 0
-1658 -1529 0
1827 -273 0
-962 -440 0
-562 685 0
1322 -1922 0
-567 -361 0
1533 185 0
1893 1785 0
1785 838 0
-436 759 0
1730 -621 0
-152 -1132 0
-1701 1857 0
755 1199 0
1947 1221 0
-1300 797 0
873 -1178 0
117 -1922 0
172 -1330 0
1983 -395 0
-254 1088 0
-589 -510 0
-518 536 0
932 -316 0
1175 -463 0
780 540 0
53 1173 0
-1770 462 0
1795 945 0
1259 -1157 0
1671 1871 0
-1032 -1192 0
1958 -131 0
753 -960 0
1514 1288 0
-284 144 0
1498 1703 0
-196 -1910 0
-1108 -407 0
1357 -1915 0
100 761 0
-636 972 0
-635 1071 0
777 1277 0
-84 -801 0
-1873 1879 0
-994 -352 0
818 -52 0
701 -1040 0
205 1424 0
-406 -291 0
-1935 1480 0
-1012 -1113 0
-61 -1611 0
1647 1564 0
1121 -1575 0
-937 727 0
-1872 -1422 0
-657 -1529 0
1438 1820 0
-191 1266 0
-634 1463 0
531 458 0
-760 280 0
1608 1296 0
1329 1561 0
1291 1575 0
1087 -1898 0
-1787 -652 0
-605 38 0
270 745 0
256 -623 0
333 1590 0
-122 -1629 0
1002 -1064 0
80 803 0
564 -1692 0
33 1289 0
-342 -226 0
-966 1195 0
-206 1408 0
-291 -1533 0
287 -281 0
319 1153 0
1521 -1288 0
1390 1298 0
1484 -1869 0
1682 1977 0
959 -300 0
183 -1340 0
472 1008 0
-1694 -119 0
-1629 1425 0
-1248 1075 0
1493 -226 0
-751 1827 0
-727 -1285 0
1722 -780 0
1916 1789 0
-382 -1672 0
830 -1531 0
-1769 -1538 0
1280 870 0
1148 -1694 0
-1624 1425 0
-691 -92 0
1502 -1551 0
1053 -1244 0
-1188 -1423 0
1769 -93 0
743 -997 0
1675 720 0
342 1538 0
253 -1848 0
1750 928 0
-106 -135 0
325 990 0
-654 1920 0
986 -1406 0
-1434 324 0
1757 -303 0
1741 1524 0
728 -1928 0
-1628 1012 0
-1048 -1128 0
1146 1709 0
39 -1537 0
-93 -1742 0
1154 -1018 0
1690 1118 0
-455 -1288 0
-601 1396 0
-225 889 0
-22 -140 0
-1182 931 0
1639 -1052 0
1066 685 0
1152 1602 0
-657 1416 0
1964 185 0
-1036 1576 0
1690 -1116 0
-1054 -415 0
-1219 -556 0
1786 -842 0
-1258 -757 0
-118 -407 0
-1886 794 0
-634 1056 0
-522 -960 0
1449 1750 0
-1536 1544 0
444 431 0
-1903 1296 0
-35 1664 0
870 601 0
-1136 -1249 0
452 -555 0
-1415 55 0
-919 1801 0
1253 -1342 0
1077 -972 0
1542 822 0
696 -1963 0
-898 -733 0
-1848 -581 0
1141 -1250 0
-1248 -545 0
1919 1916 0
-236 -1413 0
515 -1273 0
-466 -141 0
511 352 0
288 1078 0
-400 -1631 0
1327 879 0
-31 -1022 0
-365 1263 0
1283 401 0
192 -92 0
1487 1217 0
-978 677 0
770 1903 0
-1702 896 0
1693 -1928 0
428 -1618 0
1957 -185 0
195 579 0
-237 -1663 0
-1626 -811 0
788 739 0
-106 1943 0
412 -292 0
909 1805 0
1450 -1297 0
1359 1964 0
-1474 1280 0
1876 -1991 0
-1757 -1740 0
339 1799 0
-969 -1959 0
180 -802 0
-1174 -1062 0
1433 1430 0
-1960 866 0
-257 -173 0
-1879 601 0
-1365 -1353 0
-1830 104 0
335 -850 0
-406 -473 0
-209 -471 0
-1251 -1795 0
584 1453 0
-1321 270 0
-836 -1235 0
676 -1523 0
245 -697 0
728 -606 0
1699 1463 0
276 380 0
1638 585 0
1864 1555 0
472 285 0
-974 571 0
-516 -1902 0
-1611 -104 0
1530 -390 0
981 -1172 0
503 1347 0
-457 62 0
-1740 -3 0
-1755 1110 0
-1338 -1680 0
-959 383 0
1117 -171 0
833 378 0
-273 1057 0
-258 1289 0
-1427 248 0
1347 -1976 0
1363 1648 0
37 1165 0
1103 681 0
1337 221 0
-748 -1064 0
1118 374 0
1884 -471 0
1237 949 0
-52 617 0
1654 1572 0
1510 -344 0
-1234 1433 0
1136 1742 0
-1713 -193 0
-418 139 0
-78 187 0
-815 1303 0
-733 -1083 0
739 1532 0
-1083 -889 0
1992 -1993 0
779 -422 0
1294 1121 0
1386 -434 0
170 -1288 0
303 1124 0
-1697 -1651 0
-1777 -330 0
-718 788 0
-1632 1603 0
-1123 1096 0
-1683 -805 0
1263 1949 0
526 -597 0
50 351 0
342 444 0
-34 826 0
978 64 0
1623 -580 0
-892 -994 0
247 -586 0
-347 222 0
604 630 0
-1297 727 0
588 1870 0
1349 -1215 0
-1098 -179 0
861 125 0
1467 -162 0
1955 1193 0
874 -1147 0
-1579 -1333 0
-1986 -1812 0
-729 1092 0
-84 1609 0
1572 1869 0
-847 -859 0
1712 -912 0
1166 -1370 0
1878 1397 0
893 -1620 0
1825 970 0
206 604 0
732 1911 0
-1455 50 0
73 -178 0
184 -1371 0
298 1552 0
957 -1320 0
106 -811 0
-1512 1402 0
111 -1677 0
-1717 114 0
-224 1800 0
-1460 548 0
-1988 -119 0
1823 892 0
475 1526 0
-1665 1024 0
611 1539 0
-1989 1646 0
-1073 -1545 0
-1349 -927 0
-1816 1396 0
-1043 1525 0
1729 1494 0
-412 -1859 0
1065 -1297 0
816 913 0
-9 1204 0
467 -1355 0
1698 153 0
-241 -1983 0
715 635 0
-1106 -1454 0
383 -983 0
323 33 0
-90 -911 0
526 466 0
-1590 1925 0
-206 1843 0
619 -1887 0
448 -1023 0
549 1666 0
467 1367 0
-1067 -720 0
-1611 1164 0
-708 -1048 0
-1951 -355 0
-883 -962 0
856 -179 0
1860 1268 0
-1370 73 0
1746 1514 0
-1614 -670 0
-1255 -1726 0
1351 -1565 0
-292 109 0
905 -1069 0
-743 -590 0
-352 1104 0
1622 1185 0
1023 1451 0
920 -928 0
719 -1744 0
1108 -95 0
1769 -718 0
-656 1860 0
-1823 793 0
-8 222 0
-324 -1980 0
200 1671 0
-815 319 0
998 717 0
-396 1483 0
426 -363 0
-1320 -1796 0
-19 -1157 0
-1057 1950 0
1603 1794 0
-583 935 0
-109 -1275 0
-1273 970 0
28 -308 0
405 1216 0
486 -1567 0
-191 -1691 0
-177 -579 0
137 -1249 0
143 -848 0
1314 955 0
-647 -1276 0
1086 1961 0
-1853 -615 0
1221 1955 0
-56 -1007 0
134 -624 0
548 -1149 0
1317 -1254 0
1351 -305 0
479 49 0
-813 249 0
42 -1184 0
1876 1617 0
893 -1873 0
-326 396 0
-281 -965 0
546 1110 0
266 858 0
1069 1882 0
530 1144 0
231 -1173 0
-1114 938 0
424 -1784 0
-711 -487 0
1955 -633 0
853 1720 0
-1090 1665 0
-46 1792 0
-453 1290 0
1554 -111 0
1651 916 0
-605 -1530 0
127 -1447 0
-234 646 0
-1471 576 0
-1847 -709 0
452 1226 0
1904 360 0
335 -563 0
-291 -1539 0
-1025 -1653 0
502 34 0
-561 -1401 0
242 -1537 0
-1180 1291 0
-1526 -1439 0
-125 -1468 0
1937 -678 0
518 -1104 0
1833 -669 0
-305 1806 0
1968 1724 0
1758 -66 0
-581 1638 0
-173 1577 0
666 -681 0
1294 -424 0
-1532 436 0
1276 809 0
-1529 1948 0
-1114 -1581 0
-727 1307 0
1298 1903 0
-1656 -815 0
408 -1041 0
216 -755 0
670 -1568 0
-1636 -740 0
-1847 -657 0
1281 -615 0
-1930 -787 0
-1421 -18 0
-874 469 0
381 1399 0
1688 -778 0
-1731 -677 0
-302 -780 0
-257 -139 0
-223 -696 0
611 -1331 0
800 1135 0
-781 1197 0
-874 337 0
-849 -926 0
-1543 121 0
252 -1365 0
-1126 -323 0
882 1347 0
-1499 -1250 0
-533 1112 0
1496 -107 0
-781 1190 0
1184 -271 0
175 -1832 0
795 1826 0
701 1216 0
-1118 1524 0
1462 1484 0
-733 192 0
-208 1673 0
1721 1839 0
1985 -552 0
1911 1379 0
-1399 -1423 0
242 1305 0
1442 -1660 0
1542 783 0
-413 -444 0
781 -1643 0
-367 1966 0
818 1094 0
1899 -493 0
182 -56 0
-1929 1649 0
-949 -1815 0
51 561 0
283 788 0
-1253 -627 0
647 -147 0
11 -1237 0
-1807 971 0
-1115 -555 0
-1979 1404 0
1337 600 0
-492 -1797 0
-1285 1807 0
-426 210 0
-1099 650 0
-676 1780 0
-102 -1279 0
-753 1840 0
-720 545 0
1925 -1052 0
-26 -211 0
-1981 -1682 0
1884 -1605 0
917 -577 0
1153 1549 0
-1083 -1951 0
-835 -1851 0
320 1696 0
642 -1804 0
-127 -25 0
1512 294 0
1653 -546 0
585 1872 0
-1432 1436 0
-1728 1929 0
-228 313 0
-1736 992 0
1197 -1441 0
772 -556 0
1126 -1439 0
-828 -1319 0
1729 -899 0
-1923 -740 0
844 -1721 0
-1455 64 0
-1207 -221 0
-1379 1357 0
1543 -1461 0
-1965 890 0
713 1556 0
-1942 1476 0
-1153 1860 0
674 917 0
-1177 179 0
-726 1031 0
-1253 1213 0
964 1661 0
701 -1256 0
-1788 220 0
-1187 945 0
1109 214 0
1941 1505 0
59 -1649 0
-211 -1899 0
293 -1534 0
-589 -1580 0
897 -1182 0
-704 -1408 0
1301 -813 0
1484 -546 0
1104 -1972 0
-1558 589 0
-1583 421 0
-654 1394 0
-335 709 0
342 -905 0
-244 -562 0
-1589 1556 0
-944 -637 0
-1827 386 0
-1254 -1188 0
-390 1877 0
-1643 -395 0
-938 1964 0
-1108 634 0
-905 -1540 0
-1816 -645 0
1202 -108 0
1876 672 0
-760 -1355 0
-162 389 0
1447 -1558 0
-606 -1000 0
-510 -1396 0
-1083 -1791 0
-1010 379 0
662 991 0
-590 777 0
-1068 -7 0
942 -1557 0
-18 1982 0
1088 -1775 0
389 -1214 0
1162 1528 0
54 981 0
-169 -1364 0
1691 -1423 0
-1589 73 0
150 827 0
-1571 1894 0
-837 13 0
-81 -1376 0
1291 -917 0
232 288 0
488 -561 0
970 824 0
-937 -822 0
1158 1742 0
680 -473 0
-1113 1339 0
1152 392 0
1410 -1074 0
-1123 -373 0
-195 -1946 0
-1604 -227 0
-1759 -183 0
1441 -1606 0
-1915 1593 0
-92 1703 0
-1248 -1745 0
-193 198 0
742 -999 0
-242 198 0
440 797 0
1196 1013 0
-241 1794 0
972 -501 0
721 -1228 0
899 -351 0
-349 448 0
-1591 1034 0
1329 799 0
348 1025 0
1109 683 0
968 180 0
146 838 0
1062 13 0
1031 -1395 0
-1923 1513 0
-1223 1684 0
347 -1831 0
252 -1017 0
1203 1648 0
1662 405 0
1885 540 0
-1977 -1867 0
-1213 -1413 0
1969 -275 0
-676 1006 0
1161 1646 0
1425 -1918 0
773 -611 0
-1557 922 0
-1493 262 0
1656 -1084 0
284 1834 0
-664 -46 0
1697 -1165 0
-1783 -56 0
1751 214 0
-443 513 0
-951 -726 0
748 1184 0
-1387 -634 0
1595 466 0
-1478 -1500 0
-356 253 0
712 -1025 0
1916 1436 0
-1629 -821 0
-1197 1613 0
428 869 0
-881 1527 0
522 -1970 0
151 1408 0
1859 1419 0
-459 303 0
-90 -21 0
-34 1302 0
-1684 175 0
614 -1256 0
-394 -499 0
755 548 0
-1148 -14 0
885 -1800 0
632 -336 0
-758 -124 0
-1596 -355 0
-19 185 0
-1012 1957 0
1842 -1677 0
-1262 380 0
1827 -1799 0
-1883 -783 0
-1034 1204 0
-563 774 0
550 -688 0
-331 42 0
1610 917 0
967 -907 0
650 -1434 0
-658 -155 0
867 -1803 0
-19 216 0
-1107 -894 0
-262 1314 0
1838 381 0
-662 -456 0
1477 377 0
770 -1965 0
189 -924 0
-39 1369 0
-1889 1278 0
737 -1163 0
-368 1593 0
145 1127 0
1311 -205 0
158 242 0
1074 -1478 0
1732 -1759 0
-1874 -1627 0
-5 -938 0
245 -87 0
-1207 -1315 0
-734 1548 0
1953 373 0
171 844 0
1327 1553 0
313 508 0
1221 1633 0
-580 56 0
-1278 1233 0
435 1328 0
82 288 0
-413 -101 0
-241 1411 0
-1386 1181 0
1724 -1086 0
860 728 0
-1074 -58 0
43 142 0
830 -403 0
-889 -33 0
-1238 1645 0
1431 972 0
946 897 0
1656 -850 0
-1145 -636 0
573 -1399 0
1543 -525 0
1048 -1452 0
-1910 427 0
-769 -1074 0
29 1608 0
667 1694 0
1988 -133 0
-657 933 0
1838 -1089 0
450 1916 0
-330 297 0
254 -974 0
240 -1133 0
-1306 -1847 0
1513 1564 0
-718 -1426 0
62 -1740 0
732 -1604 0
-1692 292 0
410 -563 0
1599 1303 0
541 1881 0
1992 1901 0
-129 -1871 0
411 -1596 0
837 -971 0
-388 -1337 0
853 103 0
-271 451 0
1744 1826 0
1988 -506 0
-730 -509 0
693 -850 0
990 980 0
-1252 1892 0
447 -1559 0
1878 -863 0
1805 1812 0
739 -186 0
364 -388 0
1096 1520 0
1257 164 0
77 1239 0
-1715 -928 0
-98 -1665 0
431 -1900 0
-44 309 0
-1296 -676 0
-1093 499 0
1852 1525 0
1362 -394 0
60 1704 0
-72 1080 0
-555 965 0
701 -1164 0
-874 461 0
503 319 0
294 926 0
-261 -1425 0
1674 -1214 0
146 54 0
1159 565 0
-433 1548 0
1109 -1333 0
-406 575 0
-881 332 0
724 -580 0
1659 776 0
-976 -690 0
548 -789 0
-62 1549 0
-1320 96 0
-1867 1658 0
1581 1031 0
1398 1675 0
-786 -1501 0
-448 -1714 0
-1862 -1114 0
-404 1625 0
1556 537 0
-1872 342 0
1419 -988 0
996 847 0
528 1246 0
-1827 -1405 0
104 -1413 0
-978 -1894 0
1740 -1913 0
1375 -488 0
379 687 0
52 -742 0
-974 622 0
-1545 1199 0
-415 391 0
291 -1172 0
177 -710 0
-45 1233 0
-1585 -306 0
-801 -937 0
1344 -1910 0
917 1516 0
-1215 -1858 0
-1848 -1918 0
1929 -1048 0
-186 1863 0
951 1783 0
-1237 -1615 0
-847 1301 0
-1065 1707 0
-686 786 0
-1965 -1042 0
-160 -473 0
-341 549 0
-765 1442 0
1181 -1820 0
879 -46 0
1748 1233 0
964 182 0
1216 -533 0
-1972 -1040 0
-1862 -799 0
525 -19 0
1635 -743 0
-1535 539 0
-2 1435 0
1014 -92 0
1787 -785 0
1769 1584 0
-1249 -1029 0
-1155 -149 0
-364 250 0
1095 -1550 0
1113 1593 0
-1792 1211 0
1818 -802 0
1708 -620 0
-2 535 0
-1406 680 0
-123 283 0
-1112 -256 0
-1457 1131 0
182 -671 0
1294 773 0
-528 1007 0
1038 247 0
-1188 809 0
-760 424 0
-1124 -627 0
1693 1579 0
-1707 464 0
1581 -1839 0
1202 -495 0
1546 579 0
313 980 0
1086 -1969 0
1398 586 0
1072 -1772 0
-6 -426 0
-1582 1329 0
1161 1700 0
1976 -224 0
1251 -832 0
-882 -1220 0
880 1987 0
1657 -1466 0
858 621 0
314 491 0
1595 479 0
861 619 0
1474 -1489 0
383 -527 0
1297 221 0
1049 -1942 0
359 1768 0
-273 -1444 0
603 -1389 0
-56 576 0
833 -1165 0
-1634 -664 0
-1029 973 0
-963 -1112 0
-426 1002 0
541 1564 0
525 804 0
-1971 -603 0
-83 -1605 0
-1536 -1647 0
472 -1454 0
1024 1680 0
-1038 -1752 0
-396 -179 0
1696 1943 0
-1154 -681 0
-1809 1168 0
-1098 -157 0
-114 1671 0
1 393 0
-358 -72 0
-1207 -1954 0
1289 1959 0
391 -586 0
1912 -1213 0
1293 -658 0
1798 -119 0
-615 -490 0
1722 -159 0
-169 287 0
-1636 -1026 0
-330 692 0
1223 -168 0
-944 -1975 0
1232 -183 0
1941 -520 0
1587 -1551 0
359 322 0
-848 1152 0
1732 1379 0
809 -219 0
830 1039 0
1774 1374 0
-750 1362 0
209 563 0
-1104 672 0
1838 -1100 0
-868 210 0
536 1507 0
909 448 0
-890 922 0
1404 1283 0
-1823 -1487 0
1407 535 0
620 -860 0
-1313 25 0
-33 1703 0
1442 -244 0
-542 -141 0
1718 656 0
1705 -1193 0
2 -882 0
-1330 47 0
-1747 -485 0
-943 -1365 0
902 870 0
-1177 -875 0
-401 -1859 0
-1702 67 0
142 -725 0
1932 832 0
138 -471 0
-856 1889 0
-1684 1456 0
330 161 0
165 -571 0
981 -510 0
770 541 0
1809 -1550 0
803 -258 0
-266 573 0
980 -766 0
-1486 -358 0
1745 1560 0
-730 1528 0
969 1669 0
948 1560 0
-1062 -1166 0
1968 -1156 0
-637 -825 0
-1007 1785 0
110 -1330 0
-1801 419 0
-1096 669 0
584 -1123 0
1154 -510 0
-340 1626 0
-360 1250 0
544 834 0
1117 -1799 0
-1691 -1342 0
-1413 1508 0
-1752 -182 0
-1016 -37 0
1730 -701 0
-549 -1990 0
906 -946 0
-1898 -1348 0
-1009 -363 0
-722 1118 0
-327 -147 0
-498 1562 0
915 334 0
-1672 296 0
28 571 0
-942 1685 0
-3 -593 0
-487 270 0
666 1819 0
-627 615 0
-1552 1415 0
872 418 0
223 -1295 0
599 -623 0
-127 -1213 0
-1731 -1483 0
-148 -703 0
-1458 -436 0
-887 1254 0
-368 32 0
1978 1088 0
-1463 988 0
-443 -53 0
-437 1612 0
-635 -611 0
-1074 -710 0
12 1542 0
-484 10 0
-169 -429 0
764 -1568 0
1896 -1908 0
154 -1768 0
-725 -1919 0
-534 -430 0
51 701 0
-1921 610 0
987 -758 0
1137 -1345 0
1479 954 0
-1219 -455 0
-1817 1459 0
806 1863 0
837 1175 0
35 1380 0
1610 -1793 0
1472 -1092 0
601 1558 0
1982 -1725 0
-988 -1431 0
-1970 -512 0
-97 1095 0
1647 1266 0
-1115 679 0
1878 478 0
-1766 -122 0
1694 1238 0
203 -1672 0
-1394 -1049 0
-66 -706 0
-273 853 0
1635 202 0
1230 -550 0
944 1855 0
-1048 339 0
405 631 0
-534 869 0
512 -1543 0
1584 94 0
-1619 818 0
-132 -223 0
-133 1164 0
-1531 -1201 0
1608 -1202 0
1808 -673 0
-1282 -117 0
-159 -426 0
-53 298 0
-496 -465 0
-1185 -582 0
-1522 -1155 0
561 370 0
986 -1083 0
1392 -306 0
-595 1417 0
-1760 992 0
445 1569 0
-1240 -1499 0
-924 -1315 0
-531 327 0
227 -1782 0
-1783 656 0
868 -1199 0
-1530 1584 0
-1858 -669 0
200 -1271 0
-182 1457 0
955 1129 0
1418 28 0
455 947 0
-1227 -228 0
1404 207 0
-1032 1830 0
-284 -1558 0
-1652 -277 0
-1045 -40 0
-1663 781 0
634 -933 0
879 -1019 0
1465 1595 0
80 1094 0
183 -1743 0
920 -1557 0
-1527 1964 0
1495 216 0
1203 1202 0
1729 -661 0
-539 -212 0
1603 1573 0
404 922 0
-1519 1339 0
986 868 0
264 1073 0
-485 -494 0
-1503 1218 0
-1161 -619 0
89 1798 0
1501 -876 0
543 -63 0
1482 -418 0
-1480 -704 0
1070 1293 0
304 -1627 0
1374 -1405 0
-1094 344 0
-975 -365 0
389 -869 0
1300 -1370 0
-537 -1347 0
54 -863 0
1879 1261 0
838 -1555 0
-1011 -1745 0
-1541 351 0
906 -1189 0
-486 50 0
-1452 1310 0
-596 1765 0
-1486 -448 0
-50 1659 0
-468 1014 0
1871 1597 0
-995 501 0
889 309 0
1109 1777 0
1596 348 0
-767 67 0
1711 482 0
857 -490 0
1278 1206 0
233 698 0
-1836 1671 0
-854 -1764 0
568 203 0
-769 -480 0
-341 263 0
-1189 -955 0
-278 -1616 0
-1227 -1900 0
360 -1747 0
1524 -90 0
880 1692 0
-519 1845 0
675 -1069 0
-1896 -1112 0
-1378 -238 0
1581 -738 0
410 779 0
-907 -832 0
-1665 -47 0
285 -1498 0
-1616 1604 0
864 -563 0
-972 -1841 0
1639 1298 0
-868 583 0
184 1611 0
897 -1962 0
-1189 -942 0
-1838 777 0
1693 -1017 0
-1562 694 0
-1529 291 0
-873 1243 0
-453 -1271 0
-929 -542 0
1603 -1207 0
-1807 1549 0
-1112 383 0
-429 -1398 0
-973 1120 0
1221 1561 0
-1132 -851 0
1675 -1896 0
-1259 -1099 0
-1081 989 0
-159 1071 0
-1976 -154 0
238 -1124 0
-584 1921 0
-706 -1380 0
-519 -1675 0
743 1510 0
-550 -1006 0
846 1554 0
-1519 116 0
-1024 -819 0
-1186 -1447 0
205 1374 0
-1925 377 0
297 -1439 0
-1479 -1098 0
332 -1265 0
182 -1850 0
-905 -1045 0
1796 1339 0
-1276 1635 0
1366 1570 0
215 -1968 0
-1611 -625 0
-488 -606 0
252 -938 0
-613 -1690 0
1326 885 0
-751 599 0
1874 -403 0
-1019 1273 0
1077 -1199 0
106 680 0
861 1262 0
1590 973 0
-615 923 0
1457 -1011 0
1353 1456 0
768 -615 0
1114 -1434 0
-1874 -1537 0
1352 1879 0
-1112 1700 0
-600 -811 0
1523 804 0
376 1715 0
1015 -1118 0
688 109 0
1514 -1870 0
-522 1632 0
-676 746 0
-1652 -283 0
-1651 991 0
765 -477 0
185 955 0
1565 1497 0
-917 1582 0
-1238 1023 0
-745 1639 0
-673 1267 0
-865 1564 0
1164 -1943 0
1534 -1936 0
-556 -1365 0
390 83 0
1589 -1140 0
-1043 1855 0
786 576 0
790 -1046 0
-689 -968 0
1259 1698 0
494 792 0
-812 -1760 0
1430 1480 0
-1760 -1126 0
-206 1608 0
1226 -726 0
-1385 1180 0
163 -788 0
728 1315 0
-1544 -1621 0
-403 1205 0
-1138 -1549 0
1661 281 0
-515 -889 0
933 1735 0
597 759 0
1718 732 0
1842 -828 0
-1011 -1511 0
1227 -1038 0
139 -621 0
1927 -1730 0
1922 1347 0
1060 411 0
-128 1577 0
1845 417 0
1520 921 0
414 -175 0
-1984 1482 0
-335 1606 0
-149 671 0
860 -7 0
-844 -1214 0
-1872 1539 0
1878 1951 0
1003 -871 0
1326 1877 0
337 1107 0
-465 -461 0
-353 1172 0
1852 -367 0
1979 -1978 0
886 -1978 0
1622 -1908 0
-1426 -976 0
1131 218 0
1943 1555 0
-1054 -1027 0
-1187 -1154 0
375 -538 0
-1890 1364 0
-1033 -1292 0
-708 -1308 0
536 -1605 0
1433 -1593 0
564 329 0
1950 96 0
478 704 0
-1143 411 0
-426 -515 0
-127 1307 0
-807 -1602 0
-1006 1922 0
-19 24 0
-1856 1987 0
-561 -1105 0
-1757 -1717 0
-958 -1227 0
-925 985 0
-1449 -1618 0
-1030 -1734 0
-1002 -272 0
425 -1653 0
-279 883 0
-440 415 0
127 -892 0
1895 981 0
1834 -750 0
571 1282 0
-1662 1546 0
246 -375 0
415 1239 0
-1093 1822 0
918 -493 0
1250 -962 0
41 1603 0
-376 1407 0
391 -1149 0
-637 -1240 0
151 -399 0
-515 744 0
-514 -641 0
111 -1193 0
1020 1443 0
-1493 -508 0
-119 -1930 0
-1078 89 0
-819 -113 0
-918 1725 0
551 -1503 0
108 -390 0
-1531 356 0
247 950 0
1707 -1268 0
861 -827 0
1047 1362 0
1977 -1687 0
-1787 57 0
156 171 0
-1256 -307 0
1047 -1413 0
-409 -1879 0
-493 -1697 0
-246 -1842 0
313 1221 0
1345 -988 0
-301 467 0
-1437 -778 0
-1199 -423 0
-756 -24 0
-658 361 0
1510 -1749 0
767 500 0
1843 749 0
1612 -1736 0
1703 -341 0
1628 -1620 0
700 -125 0
1189 88 0
416 514 0
1034 -1223 0
-519 -1541 0
947 1406 0
-1699 1835 0
-1409 1534 0
1856 -1188 0
551 -456 0
-612 993 0
-224 -562 0
301 897 0
1457 1159 0
383 203 0
-1481 -489 0
-364 -1027 0
-654 -727 0
-670 1304 0
-76 1549 0
-867 -1099 0
792 -590 0
-1486 -1361 0
180 1678 0
-1406 -1327 0
511 629 0
-528 783 0
5 948 0
-690 659 0
1318 1216 0
-1078 370 0
1294 -1401 0
-993 -98 0
467 1517 0
419 -516 0
608 1218 0
834 1027 0
881 482 0
-1112 224 0
1964 -107 0
1460 -451 0
-1454 1812 0
-1530 -1661 0
-875 1819 0
1597 -1737 0
-1133 599 0
1619 1925 0
-1862 1918 0
-1307 -246 0
-778 985 0
1411 -1969 0
-1635 -1193 0
-567 1483 0
94 -1572 0
1655 266 0
-665 -169 0
-1300 -789 0
-1351 1355 0
-1683 -237 0
-950 -588 0
1282 -497 0
1098 608 0
927 1748 0
-562 -1013 0
1911 -661 0
762 1018 0
-252 -808 0
1705 1369 0
-297 459 0
-541 1534 0
1751 -1299 0
-1571 622 0
-378 -555 0
-821 1784 0
1483 1268 0
1397 1655 0
338 1182 0
293 1800 0
1866 419 0
578 -261 0
152 -1760 0
587 1938 0
1304 1693 0
-1150 296 0
-225 -115 0
-1446 -850 0
-546 -1295 0
-115 972 0
1933 1785 0
-302 714 0
-1836 -78 0
-1581 951 0
-1901 -133 0
1723 1356 0
-1214 -1645 0
1728 -429 0
680 -800 0
-760 -1433 0
1707 -1762 0
1330 -1948 0
-634 416 0
432 207 0
-1630 419 0
-756 -1818 0
-72 926 0
-766 1206 0
-659 -1980 0
-1099 -800 0
1698 1830 0
-1463 939 0
1100 318 0
1415 961 0
1303 -643 0
719 780 0
-1084 -559 0
-881 1824 0
1957 -974 0
-307 -138 0
1673 -25 0
792 -1530 0
1578 1554 0
1254 379 0
-1057 927 0
1299 -1702 0
699 -71 0
-1792 1112 0
321 -1672 0
-1376 -844 0
-623 77 0
1196 -1279 0
853 -1313 0
-1636 -574 0
-733 1686 0
-815 148 0
1717 -1971 0
1656 -409 0
-1991 776 0
947 -727 0
1466 -263 0
-78 699 0
867 31 0
1949 1245 0
947 1688 0
-1185 1398 0
-1912 1682 0
1175 -1773 0
-1089 1761 0
-709 -1201 0
1445 1414 0
119 213 0
1745 1763 0
-1816 -1840 0
-1253 820 0
1334 -1132 0
1433 -507 0
-471 277 0
1464 -933 0
-584 -1313 0
-805 -788 0
-1479 248 0
1976 -323 0
146 -423 0
910 -449 0
-958 -1029 0
-1726 -1569 0
1133 -270 0
-1456 -1284 0
-1425 788 0
210 1572 0
338 -1747 0
-1273 971 0
-1535 1939 0
-953 761 0
-425 -1059 0
1168 1086 0
-821 826 0
25 419 0
-426 1822 0
-1034 -1354 0
-650 -911 0
-748 -546 0
-4 989 0
1425 -612 0
-1556 973 0
-1976 428 0
-1932 -330 0
-467 -1880 0
373 1450 0
293 109 0
-1295 65 0
-1772 387 0
-1148 -1046 0
1384 694 0
1929 1726 0
-853 1102 0
-234 1525 0
698 803 0
585 70 0
1476 405 0
-1489 -192 0
-353 -136 0
646 545 0
314 1540 0
-828 -751 0
-1177 -565 0
-1707 -1079 0
-383 -1332 0
1310 -1340 0
64 -246 0
1131 1339 0
-568 687 0
1357 -997 0
73 -618 0
274 214 0
1830 614 0
-220 -733 0
-914 -1150 0
591 -950 0
-1172 601 0
-855 -272 0
242 1591 0
1524 -1884 0
1058 -1372 0
-227 -25 0
915 1334 0
878 -1872 0
891 914 0
793 -1575 0
343 -976 0
462 -176 0
-407 86 0
1277 -1566 0
-56 1949 0
1075 -1602 0
-536 -1815 0
1002 -1551 0
-1001 916 0
818 -771 0
885 1067 0
-583 -513 0
1390 -674 0
-649 408 0
-1847 -843 0
-1075 731 0
1569 1516 0
452 -202 0
422 1850 0
1574 -925 0
-1122 111 0
1676 -181 0
883 -1636 0
1339 -302 0
1146 178 0
351 -371 0
-1130 1326 0
879 387 0
531 -217 0
1657 385 0
-1579 -808 0
-12 -1744 0
-123 -1217 0
-1320 -10 0
-76 1903 0
604 958 0
-1817 1515 0
1247 1875 0
-691 -1092 0
-1688 -394 0
-695 -695 0
248 1652 0
-179 -1493 0
-1877 -607 0
439 1989 0
1291 1811 0
-1589 -234 0
-112 845 0
857 -1473 0
1716 1086 0
-434 1534 0
1286 830 0
1934 -649 0
-1172 -1406 0
-1298 1610 0
-1008 -1494 0
-1926 1236 0
971 1069 0
-1434 1420 0
986 -1739 0
-1918 -1008 0
-1158 -1718 0
219 872 0
539 521 0
986 -1550 0
1446 -1660 0
1130 -528 0
-1273 -1468 0
-44 -1952 0
1651 -605 0
-351 180 0
-1223 88 0
11 -1677 0
-654 -133 0
1823 -550 0
1337 997 0
-735 1534 0
-609 1040 0
-1612 -295 0
43 -1359 0
-409 -1941 0
-1530 104 0
-35 -206 0
297 -960 0
-892 1154 0
373 1065 0
1362 1012 0
-1219 -1688 0
-539 1109 0
1200 1466 0
-403 1843 0
1824 387 0
-283 649 0
-1912 -882 0
93 71 0
265 624 0
1659 1563 0
136 1031 0
218 -357 0
-562 -956 0
994 1525 0
1240 1892 0
1683 205 0
-1631 -705 0
-1730 -935 0
-1835 -1550 0
1097 -148 0
-45 999 0
-471 -311 0
688 1191 0
-366 1450 0
-1951 -856 0
-974 -509 0
961 207 0
-988 -1978 0
-102 1077 0
-543 1818 0
1221 -1107 0
-1104 1356 0
-1419 1871 0
1108 1920 0
1638 -1613 0
-1566 -1147 0
-1079 -1870 0
1565 1024 0
1012 -1564 0
-1566 -493 0
-1141 -160 0
-1054 -1279 0
809 1309 0
-1035 -1331 0
1163 -676 0
1941 -1333 0
-650 923 0
1223 599 0
-789 -1614 0
-590 -407 0
-864 -1811 0
1326 -329 0
1483 1081 0
-579 535 0
-1141 1977 0
-992 1100 0
939 -1619 0
1391 884 0
-825 266 0
-1506 1678 0
1346 -1147 0
1371 60 0
1764 215 0
-57 276 0
1642 1548 0
1517 1004 0
524 -1823 0
16 1700 0
1510 1088 0
1056 1417 0
831 -193 0
749 -269 0
1941 1589 0
-426 -1768 0
184 -1175 0
1919 -488 0
-676 869 0
-790 1181 0
-1400 -1211 0
576 -592 0
-1232 431 0
714 985 0
-887 1336 0
883 178 0
1181 -1881 0
-227 55 0
-859 314 0
-1578 -84 0
-1894 -1926 0
770 -1254 0
-1777 1509 0
1477 1102 0
-1059 806 0
1305 -1533 0
831 -895 0
-1155 -1072 0
-1463 -399 0
1610 1606 0
1446 893 0
1526 1211 0
-365 1464 0
344 -1141 0
577 -1853 0
125 -214 0
-1705 1899 0
721 -800 0
1730 -1763 0
-1745 -1099 0
-739 -148 0
307 276 0
-982 1741 0
770 474 0
322 1311 0
-1777 599 0
-376 -1728 0
-1764 -911 0
-1566 -282 0
-605 607 0
-839 -214 0
78 1555 0
-519 -1027 0
-1677 -376 0
-898 400 0
-1791 628 0
675 358 0
-1085 1217 0
-473 -672 0
-1401 183 0
1286 -626 0
1175 -1313 0
-1894 139 0
614 1337 0
325 1884 0
1590 -1588 0
-808 -1926 0
-1473 -818 0
493 198 0
-551 -1405 0
193 1617 0
-1850 337 0
-449 902 0
-586 -85 0
-565 -1481 0
-1500 -1113 0
-1858 557 0
-100 884 0
1390 -974 0
466 -833 0
1563 -1009 0
438 973 0
-284 1798 0
156 836 0
88 1087 0
-317 1301 0
-305 1535 0
1879 242 0
79 -1604 0
1144 -1900 0
1103 846 0
-1050 -351 0
1337 -1577 0
-527 1433 0
1633 776 0
1673 1274 0
-1686 -1170 0
1317 -1658 0
-1219 537 0
629 -1963 0
452 -239 0
-716 -672 0
117 -600 0
325 758 0
1318 410 0
1014 -1844 0
-283 -852 0
1432 43 0
1436 1613 0
541 -228 0
1880 840 0
-1594 297 0
927 1206 0
794 1025 0
-1226 142 0
194 1273 0
1446 -144 0
1462 769 0
462 -490 0
-1081 -175 0
941 923 0
48 -1648 0
1516 -1534 0
-1514 -81 0
1609 -1437 0
-828 437 0
-1169 -438 0
-1358 678 0
1670 -279 0
-1558 -609 0
-290 -1321 0
560 -1544 0
-1717 -137 0
6 -1105 0
990 1966 0
-1796 1060 0
-758 -394 0
-550 1319 0
-556 -49 0
-579 -1902 0
-767 1039 0
-101 1335 0
-1944 1127 0
485 -425 0
257 1317 0
1680 -1928 0
457 421 0
464 1753 0
1654 -675 0
-962 -1346 0
1504 -1256 0
351 1329 0
-1876 -215 0
65 -939 0
867 -805 0
-681 1751 0
597 411 0
477 1534 0
-931 1602 0
1534 -1783 0
13 1316 0
-467 -7 0
-1050 1784 0
223 -877 0
-1588 -977 0
-5 236 0
4 -1109 0
467 -1019 0
1485 699 0
-326 -594 0
37 618 0
1176 -1958 0
-1642 1957 0
1277 52 0
366 1671 0
678 782 0
323 -155 0
54 -698 0
-453 -670 0
1622 -223 0
-92 1421 0
-56 14 0
-1313 786 0
-384 -1114 0
-359 -1956 0
-728 -1036 0
1626 929 0
-1006 826 0
-1574 1649 0
1159 -1177 0
-687 183 0
-1078 608 0
1368 421 0
1443 1637 0
-612 1708 0
-513 -1023 0
-104 355 0
548 1411 0
-1601 -702 0
-1857 1751 0
-1638 861 0
359 1876 0
1346 -1095 0
1894 1070 0
963 -807 0
-78 -387 0
389 472 0
1042 1674 0
743 544 0
841 559 0
-1591 1419 0
791 1308 0
-540 -1970 0
205 -79 0
1710 -294 0
432 1337 0
1993 -995 0
-1234 185 0
-824 1655 0
-630 -1847 0
-1919 1598 0
1847 -796 0
-1365 1233 0
-557 1196 0
655 -1667 0
1004 -1536 0
1904 -1907 0
-1945 1688 0
591 1879 0
-1372 1936 0
287 -539 0
-1639 479 0
-1858 -443 0
-1252 1781 0
-1193 1849 0
-623 -1447 0
1990 -785 0
1539 1773 0
-738 -649 0
397 1758 0
-97 1870 0
1504 1442 0
-1256 -1007 0
-1231 -498 0
1525 -1511 0
-457 648 0
-1254 939 0
1241 -144 0
879 714 0
-1664 1112 0
297 -1990 0
203 -1956 0
-623 -1479 0
577 -1292 0
-593 1707 0
-643 1271 0
1119 1255 0
-1993 -1271 0
-638 1972 0
-504 -410 0
1233 -315 0
1761 -481 0
106 414 0
1054 1789 0
-204 -643 0
-1165 -534 0
1116 -456 0
1306 1466 0
-972 1097 0
-423 372 0
-154 266 0
814 -277 0
645 668 0
-757 548 0
-1913 -154 0
-1717 -1558 0
-830 1314 0
-1185 -932 0
-1489 -22 0
-1116 -593 0
-1864 -1402 0
642 855 0
-1515 -211 0
-315 -31 0
-256 -1180 0
1357 853 0
577 74 0
-1529 621 0
-396 -1089 0
-790 -1285 0
1041 -1283 0
1196 -1277 0
-1975 346 0
-161 1233 0
-1439 398 0
-1627 1407 0
-1092 -1071 0
-1328 1087 0
1737 -117 0
-1476 -234 0
-22 -53 0
225 855 0
1451 -460 0
-1491 1582 0
-1423 -1062 0
800 1171 0
-1931 771 0
-1386 1086 0
-290 1243 0
-497 -1521 0
680 88 0
-1229 -674 0
1420 1769 0
-423 -169 0
350 -976 0
1682 139 0
-1575 -390 0
1462 10 0
-366 1629 0
-251 -66 0
-1371 -1158 0
608 -907 0
1871 -1439 0
-1419 402 0
1070 431 0
1015 -1825 0
728 391 0
546 1003 0
-1952 -1155 0
150 -294 0
-1033 -1306 0
-264 163 0
-49 -678 0
1398 778 0
-1944 -593 0
24 -1691 0
1639 1068 0
-3 897 0
1534 -5 0
-1049 -1508 0
-1104 -1692 0
1703 935 0
-133 -429 0
1693 -1021 0
-166 1 0
-60 -1427 0
758 1417 0
-1798 526 0
1121 -1739 0
1304 -825 0
1728 -1643 0
-1022 121 0
-1464 -1251 0
214 -1471 0
-1356 -257 0
-828 1576 0
-253 -367 0
1181 -283 0
-635 -649 0
-1754 -548 0
-1150 1870 0
-1776 -1502 0
-874 394 0
1507 -313 0
1835 -56 0
-577 1868 0
-1611 -130 0
240 -1255 0
-1952 1028 0
674 84 0
1604 -1447 0
1542 -1535 0
547 1518 0
1966 1939 0
-791 -863 0
1439 1495 0
-964 -359 0
-148 1684 0
871 -469 0
1570 -1552 0
-1207 -35 0
1244 -835 0
-724 -1757 0
1524 -1413 0
193 -1832 0
246 -933 0
524 1201 0
965 1042 0
325 249 0
-1728 -1215 0
1897 91 0
136 916 0
435 1032 0
-28 -1980 0
1428 735 0
-1400 -553 0
1140 -1452 0
1920 -224 0
-1089 1944 0
1588 -1271 0
-1487 458 0
-1283 1988 0
-704 411 0
36 -881 0
-1928 -1418 0
-299 -699 0
-820 -11 0
-1937 -1602 0
574 1398 0
-1030 867 0
-265 -1387 0
-1345 -977 0
123 1534 0
1117 587 0
1272 -623 0
608 162 0
-336 1885 0
-1969 203 0
1609 -1816 0
1887 -232 0
437 -850 0
837 -1022 0
182 1911 0
1035 1962 0
1338 886 0
-665 -643 0
1581 -1307 0
891 731 0
-844 1192 0
1590 187 0
289 214 0
1294 771 0
-1762 1304 0
849 -966 0
-1875 -1142 0
-648 -1772 0
-953 137 0
-1391 -1029 0
-1046 -57 0
297 -238 0
-789 -894 0
-1627 1453 0
-527 51 0
1452 -1983 0
639 -132 0
1734 632 0
578 -1381 0
728 -1693 0
513 -1685 0
-1276 -753 0
-1661 -839 0
-892 986 0
-422 -137 0
-207 -1389 0
-186 806 0
399 -625 0
-889 -775 0
204 155 0
-859 -433 0
825 1941 0
957 1585 0
897 -62 0
-1841 424 0
-1550 1978 0
565 -893 0
294 1152 0
1735 -1337 0
1746 -463 0
-734 517 0
1257 1686 0
1466 294 0
220 1718 0
608 -162 0
-87 -520 0
1877 -140 0
-282 -188 0
-1907 1615 0
-760 -1006 0
500 1356 0
-1857 564 0
42 -90 0
-882 -1068 0
1065 -1928 0
402 -1306 0
224 1917 0
218 -1917 0
1563 -1932 0
-1114 -851 0
-1927 -935 0
-483 709 0
-1630 1679 0
1782 -982 0
-1079 538 0
-656 -907 0
1602 1821 0
101 1429 0
1310 513 0
-489 -642 0
-375 1052 0
1190 1592 0
475 -1431 0
1711 -1618 0
-139 1336 0
294 -453 0
1986 1619 0
1394 1304 0
-1097 647 0
-537 -1638 0
-33 317 0
721 -1802 0
-1634 -1643 0
-854 1953 0
-781 1854 0
-791 -310 0
358 273 0
878 -228 0
1838 -32 0
-393 -592 0
949 780 0
655 -1929 0
-1831 774 0
-1935 -212 0
-1207 1461 0
1070 1325 0
1751 1255 0
-1308 148 0
-9 297 0
-1017 -316 0
-1461 -1593 0
845 -30 0
-1847 1745 0
-1019 -305 0
-563 -1401 0
-1619 -890 0
660 -596 0
1068 1912 0
1609 -545 0
-312 1296 0
-117 -1290 0
1071 1398 0
-1471 -801 0
1227 -1503 0
-620 245 0
642 1178 0
-477 1107 0
-1651 -1212 0
-697 -987 0
-1312 -1236 0
1164 -939 0
-306 1472 0
1646 -1662 0
1075 58 0
-179 1456 0
26 807 0
-11 1391 0
484 -21 0
-1683 -224 0
1390 240 0
-935 -435 0
-1176 1443 0
1492 -1418 0
1580 -19 0
508 383 0
-219 -364 0
-770 1510 0
-844 -978 0
-1747 -1754 0
83 -386 0
-1969 1698 0
-1734 -1239 0
1468 -989 0
238 -1644 0
681 1409 0
-1069 -777 0
-1485 1321 0
-1410 -724 0
67 524 0
-121 1876 0
240 602 0
-1792 1282 0
1724 1146 0
-316 1585 0
-1615 1707 0
1832 -1960 0
1775 1085 0
-128 425 0
523 -281 0
1203 -821 0
926 -737 0
-1302 -1367 0
1767 -894 0
713 65 0
500 -339 0
-1242 -127 0
-479 560 0
1333 -1308 0
-782 -810 0
1639 277 0
-217 1088 0
-783 -1821 0
316 922 0
-873 1924 0
793 1624 0
-147 -449 0
1821 1080 0
-489 1118 0
1677 1282 0
1765 -1713 0
1205 -407 0
-1403 373 0
1774 1255 0
1346 1964 0
1282 511 0
-1352 878 0
1470 954 0
-1071 1863 0
-1814 -1079 0
797 -1609 0
-501 800 0
-364 -911 0
-1241 -1123 0
1738 1732 0
-1502 547 0
-1072 -230 0
65 -427 0
1893 1955 0
-1719 1902 0
-975 491 0
116 929 0
-1738 -433 0
-516 1303 0
1630 503 0
1269 832 0
-252 459 0
1071 1221 0
1461 -84 0
1052 -628 0
239 -1754 0
1390 -634 0
-214 872 0
281 -1265 0
-581 1891 0
137 -1242 0
-416 1589 0
-895 1107 0
1491 1662 0
-1582 -597 0
1092 -84 0
1403 411 0
-1752 -1474 0
-1237 689 0
1763 -137 0
-121 1393 0
-746 -1586 0
870 241 0
1456 988 0
232 1316 0
1753 -705 0
799 -1167 0
-935 1277 0
325 -542 0
893 -776 0
517 1893 0
41 -238 0
650 175 0
-890 955 0
-277 -1961 0
572 -280 0
219 1764 0
1181 1479 0
289 -481 0
-1619 -461 0
1548 1460 0
-204 -944 0
1377 704 0
-1566 585 0
732 302 0
884 225 0
-498 -1554 0
444 1626 0
-1880 -384 0
-1897 -1069 0
404 -1877 0
-443 -953 0
-796 724 0
787 605 0
-1019 -797 0
-350 1628 0
-176 -798 0
572 58 0
-1096 389 0
-1325 431 0
-1261 -403 0
-1499 -1916 0
164 915 0
1411 -802 0
151 -1843 0
-1185 -419 0
1302 -1351 0
433 1282 0
-1066 -488 0
-1891 -1689 0
-596 -1958 0
1042 -441 0
99 -1509 0
1903 -727 0
-280 41 0
-583 1823 0
-1478 672 0
-658 -516 0
-964 -1095 0
-756 -1732 0
-340 506 0
-995 -900 0
84 904 0
-271 833 0
-1475 37 0
-439 -1093 0
270 1328 0
551 -1943 0
-135 -1817 0
1851 1544 0
-555 874 0
-1201 -1658 0
-352 1929 0
1639 120 0
15 -1496 0
1508 -597 0
-507 -600 0
-65 -1714 0
-154 6 0
466 -562 0
-146 -445 0
-460 -390 0
677 -1640 0
1700 464 0
-422 447 0
187 648 0
-283 38 0
1470 344 0
1856 250 0
-995 1951 0
-592 1613 0
-847 1982 0
898 -1132 0
1070 650 0
1834 1190 0
809 1898 0
899 -1027 0
467 677 0
634 -716 0
881 -1629 0
-1634 -19 0
1820 -1560 0
202 648 0
1362 133 0
744 1704 0
-1855 -895 0
1060 687 0
1225 266 0
428 -1485 0
-230 -1032 0
-1487 674 0
1144 1246 0
-1817 -126 0
-856 749 0
-668 355 0
1260 1517 0
-952 1254 0
1004 1331 0
1195 -1640 0
-1503 -1697 0
337 -676 0
321 4 0
1407 -584 0
1761 281 0
-1159 1338 0
-1454 1012 0
-956 391 0
-911 441 0
-1732 343 0
1966 -1181 0
662 1302 0
1150 87 0
-593 -1993 0
-1498 13 0
-386 1540 0
-1972 -803 0
-1138 4 0
-1601 -736 0
-1760 -1545 0
-517 1682 0
342 923 0
-928 -74 0
570 1304 0
-217 -434 0
1101 764 0
837 -1409 0
-1738 1778 0
-750 682 0
1300 -1478 0
932 507 0
-1576 342 0
-5 622 0
-1848 -1664 0
-1708 -1818 0
1118 1980 0
-1558 -409 0
-454 1628 0
551 411 0
91 -149 0
1477 -1125 0
-471 -500 0
16 1772 0
1235 -117 0
-1004 626 0
1260 43 0
-1533 610 0
1376 -1667 0
335 878 0
-587 1778 0
1637 -19 0
129 -1306 0
-1104 1417 0
-844 -1222 0
-469 -1786 0
-576 -1378 0
319 1962 0
1649 1375 0
717 -92 0
1524 161 0
-1753 -1958 0
1632 478 0
190 -1667 0
-1022 1671 0
846 380 0
-1447 24 0
1836 -1426 0
-286 1869 0
103 -1091 0
1167 -786 0
200 -1193 0
-1421 156 0
-1796 -799 0
1334 -358 0
296 -1341 0
-383 213 0
1520 -1529 0
556 1314 0
-1634 1175 0
1100 250 0
-785 -1735 0
-12 1665 0
777 -1235 0
-1815 -1019 0
1781 1180 0
-1203 -12 0
1311 -1129 0
189 466 0
-1960 1808 0
156 -1147 0
1600 65 0
-79 -1521 0
517 -567 0
1442 1912 0
-1650 539 0
-1027 -378 0
1168 804 0
782 -915 0
1597 336 0
-520 776 0
1781 1424 0
-1174 1402 0
-1358 1216 0
1909 432 0
-1242 -775 0
1448 -655 0
-1193 415 0
-1559 80 0
-349 -778 0
-1862 1672 0
-1335 -1000 0
1379 -1485 0
1892 -1895 0
-281 481 0
-805 -436 0
-102 -1111 0
580 1362 0
-1522 1654 0
-1541 1042 0
-1502 -1947 0
321 1183 0
1800 -1238 0
-1048 -1706 0
-1803 -1904 0
417 -944 0
694 -958 0
959 -1111 0
279 1818 0
541 -1077 0
165 -1257 0
981 227 0
1371 1595 0
-1829 -104 0
1301 612 0
-57 740 0
1373 324 0
-1370 1221 0
1785 -181 0
-1600 1329 0
899 -1583 0
-1852 899 0
-142 -976 0
-1892 -600 0
-615 1271 0
-454 -1829 0
203 1341 0
-1549 -801 0
-157 -401 0
1310 1545 0
804 -1464 0
-1721 -394 0
-1172 864 0
-1127 -1387 0
617 -1672 0
1371 -1331 0
-351 946 0
506 1800 0
698 -1799 0
438 -532 0
822 -1689 0
508 -907 0
-1537 1875 0
-1568 -656 0
-1909 1660 0
1181 1204 0
-1463 -855 0
1773 -761 0
1174 1215 0
1806 -484 0
-1141 279 0
-1084 1022 0
1955 -1254 0
1181 -1356 0
-237 -1848 0
