c NF
p cnf 15578 28040
6565 -4366 0
-1498 -10676 0
1258 5641 0
5527 1295 0
11910 -1371 0
-3431 -6993 0
-6295 1646 0
947 11912 0
13280 11174 0
6917 5212 0
1997 392 0
3016 -8720 0
-5288 -4221 0
5950 14602 0
-15102 -1329 0
-14901 176 0
-15078 -1834 0
7407 -12723 0
-445 -5424 0
-9529 12755 0
10896 -10923 0
5895 -7237 0
-11481 -4614 0
-14921 10034 0
4388 -10217 0
-6461 -4942 0
-2273 46 0
-6437 13027 0
-2094 -4786 0
-14270 777 0
-3401 -5955 0
-10491 -2940 0
-3669 -1220 0
-15141 7271 0
535 -3427 0
8001 -912 0
7840 -717 0
3174 -10249 0
-8822 -1169 0
-3510 15022 0
3313 -2082 0
-5449 13015 0
10065 -586 0
-2252 8221 0
14103 -1181 0
-3974 13921 0
-9545 -2587 0
8009 9647 0
960 -3167 0
15088 -975 0
-1988 9936 0
9610 -3192 0
13208 -3099 0
-10183 9814 0
-7823 4257 0
-177 9383 0
-6461 6659 0
14540 -6283 0
12836 89 0
-9369 14198 0
-1536 15474 0
10891 -11599 0
-271 -366 0
-12187 1413 0
-8738 -3180 0
-11161 -14436 0
676 -1811 0
-11594 -14935 0
-11433 -6123 0
-4726 1948 0
-3409 -11582 0
122 -13437 0
-6895 -11921 0
13953 -8160 0
-12605 -5448 0
-6326 -10017 0
10448 -2330 0
-4978 -3199 0
-1040 -12692 0
-15498 12927 0
3347 -14147 0
-6678 13345 0
-10346 -9299 0
14482 -9061 0
4563 9217 0
11839 -1477 0
11387 -6060 0
-10362 15304 0
9076 9383 0
8798 -3609 0
-10104 -15249 0
13768 -2314 0
-7892 -65 0
-10397 -752 0
1387 -326 0
-4853 -15215 0
-14694 12358 0
5996 7787 0
-3805 -165 0
-4675 10902 0
-14706 3834 0
-14663 6077 0
10940 -4907 0
8171 -9887 0
1383 14125 0
13230 -3284 0
-9515 -11794 0
-7003 -432 0
-12876 -12541 0
-13544 15466 0
13272 -513 0
14921 -13334 0
1928 4893 0
4832 2295 0
6811 -10621 0
-14355 -13617 0
12557 -6079 0
9801 4548 0
10882 7832 0
-3513 15310 0
-10551 -11033 0
7298 -5092 0
11508 -10619 0
7942 -2363 0
10198 -6600 0
1650 12567 0
-14901 -11495 0
14433 825 0
2225 -14135 0
2754 -5699 0
-7667 -1761 0
-1782 12564 0
-9389 5356 0
-10207 -12013 0
14421 1729 0
-13746 7720 0
-3826 -13756 0
-9345 13336 0
2771 10131 0
3664 -3539 0
4066 2381 0
-2330 14188 0
-5920 -12548 0
13498 -3490 0
9783 7175 0
1392 9456 0
-9556 -9905 0
9519 -6138 0
-9720 -14887 0
-4673 13115 0
15496 -6485 0
-7092 4723 0
-1241 15138 0
-1279 -3893 0
-4866 12674 0
-4304 12981 0
2441 -8598 0
-1924 -10315 0
5787 -13251 0
-8334 2260 0
-4344 15265 0
-5364 15109 0
-4074 7076 0
-12330 -242 0
2688 10380 0
2482 11513 0
1512 -8848 0
-11849 -11402 0
10343 -7237 0
5136 -5177 0
-2224 -14859 0
-2259 -1420 0
8051 10903 0
-5030 5848 0
5198 -6588 0
-5103 13941 0
513 3264 0
-7638 -11353 0
2158 -12448 0
1505 -3459 0
-11638 -9791 0
4777 -13168 0
-6450 432 0
8757 -5224 0
1618 -13928 0
4538 -11656 0
9326 -15367 0
10126 -12730 0
11900 7772 0
5815 -14491 0
8253 14900 0
-10200 -3886 0
-8919 6381 0
-11081 13396 0
-6541 -10046 0
13945 -14916 0
-10162 8744 0
1118 611 0
12503 14216 0
-7960 -4947 0
-12222 9799 0
2609 6671 0
-14383 3821 0
13455 -13867 0
943 -14141 0
14879 2785 0
-6915 -6685 0
-11943 13130 0
-9354 -28 0
-3420 -11977 0
-8361 2256 0
-2861 -2958 0
8349 -1431 0
7042 -28 0
-134 13480 0
13125 -500 0
-11852 1386 0
-9844 4577 0
6312 12682 0
12527 -6586 0
3582 14559 0
-4939 -6445 0
-8141 -12398 0
1393 -10155 0
-7056 2570 0
-13813 -7503 0
12659 -11048 0
-8817 -2682 0
3685 -7753 0
-544 -14900 0
6876 7823 0
-5372 -4786 0
3922 3542 0
577 -12571 0
14022 12239 0
1072 8742 0
5942 5630 0
-10244 5326 0
-7424 -10637 0
662 3801 0
-14334 4266 0
-3836 15082 0
-2937 12817 0
9855 9375 0
4550 -3008 0
3446 7057 0
-10976 12506 0
7639 1702 0
14002 15227 0
-3464 3345 0
-1273 4965 0
4117 10425 0
4835 7349 0
10185 2762 0
5213 -10847 0
6523 -13375 0
-2142 3760 0
3837 -7192 0
-5680 7541 0
-12060 -760 0
5258 -2219 0
-4993 -4155 0
-3978 -5874 0
-2291 -11405 0
1499 11419 0
-15210 2773 0
-12578 -639 0
-8786 -2009 0
-10108 -3256 0
-11269 5688 0
-12852 11581 0
-9317 -8843 0
-6252 -14154 0
12346 2757 0
-2673 -2374 0
-14532 5934 0
-1548 6964 0
9619 -13206 0
1958 2921 0
-10088 -13597 0
13491 9459 0
-15017 -8804 0
5803 14557 0
10500 -13745 0
14626 10878 0
-14020 -10072 0
10443 6276 0
9483 9094 0
-12480 -10352 0
-7599 4361 0
12113 -1064 0
9633 2859 0
2635 14176 0
10676 -8423 0
-5585 -533 0
-8176 -4131 0
10039 6489 0
-13724 4826 0
5751 -12910 0
8548 327 0
-10598 -15189 0
-10953 -1212 0
4548 2614 0
5248 7519 0
-3289 -2816 0
8078 1002 0
11117 13296 0
-12927 -4965 0
-12261 4015 0
3798 14721 0
4455 8300 0
-11609 2066 0
1695 14216 0
2318 -8971 0
-10941 15511 0
-11157 7676 0
14201 2214 0
-4035 8689 0
-12717 -9005 0
-13923 5071 0
1896 10280 0
-4936 3923 0
-5856 -7545 0
-11151 -6870 0
11689 -4845 0
-13041 9286 0
12916 -9841 0
-1131 6862 0
-12234 3301 0
-9920 6817 0
10849 -9025 0
-11451 -10160 0
1188 -6508 0
13332 8073 0
1016 13144 0
-6200 7605 0
-10905 13888 0
10452 -11779 0
-4176 -5798 0
-5178 -3539 0
5809 -15298 0
10667 4966 0
7347 10864 0
-13562 -951 0
-3185 7047 0
-12129 -12606 0
9189 2934 0
-2288 6469 0
2292 -10951 0
-2567 -9872 0
-10637 6012 0
478 -10532 0
2866 -10240 0
10758 14534 0
-14385 6710 0
-1862 2163 0
1486 -3083 0
-12406 -13729 0
6075 10073 0
-10642 -13425 0
7297 832 0
9295 -1858 0
-13843 5325 0
12989 4117 0
8628 -4870 0
11191 959 0
-2004 6994 0
-11750 13781 0
-14830 -2740 0
2072 -10383 0
169 11359 0
11747 -12331 0
-6269 -15433 0
-11427 -155 0
7979 -15320 0
7167 -3422 0
-11499 -11309 0
-8000 1410 0
992 -9150 0
5378 -13553 0
-7455 -2513 0
4211 -12478 0
11873 -11269 0
-3095 -13106 0
1755 6985 0
7384 2075 0
-339 -4338 0
4077 -11451 0
13712 -12706 0
14364 14848 0
-13641 -5002 0
-50 -13927 0
14707 -4333 0
-6711 10667 0
-8841 5669 0
-6077 -3908 0
429 -11470 0
12230 -13790 0
-7408 11488 0
7310 -4164 0
14189 -11240 0
-7900 1317 0
6325 -14991 0
198 10129 0
-5271 -6258 0
-13677 -12368 0
-11836 13396 0
-1515 15117 0
-1548 12620 0
12007 290 0
-1542 10950 0
9800 8730 0
5764 12502 0
-5054 -4078 0
7119 -1454 0
10333 12765 0
-2784 -10025 0
-929 -2875 0
885 -3281 0
-11529 4239 0
5178 13714 0
1116 2069 0
-9272 14745 0
2474 1977 0
7863 -6943 0
2671 4031 0
-2164 -1567 0
-15173 -12910 0
-7591 -10926 0
-4441 2518 0
6058 1670 0
545 10663 0
788 3279 0
-15578 14813 0
4563 -10788 0
14670 -6481 0
-4907 11855 0
3398 -3142 0
-6404 14157 0
-11741 4342 0
-1692 8229 0
6039 2751 0
3162 -10535 0
1829 -5661 0
-12238 12298 0
-2130 3140 0
-488 -11809 0
-691 12997 0
-11262 7206 0
7198 -1863 0
-2650 7925 0
-6952 15079 0
-10213 9360 0
4443 -5662 0
12567 -4126 0
-13288 484 0
-10764 9977 0
-1139 6186 0
-12173 -7242 0
6274 9028 0
-7910 3802 0
14941 -14527 0
-6636 -13359 0
1448 13774 0
-6879 -10928 0
-14970 14118 0
-4630 -13917 0
-5435 -7050 0
4797 -14413 0
9100 -14465 0
4837 -2582 0
14994 -5584 0
2654 -12035 0
3882 -3689 0
-13024 -4850 0
2896 -3550 0
-8292 9848 0
11195 -10725 0
-5154 13192 0
-1121 -11934 0
5478 -2883 0
-11687 1687 0
-2 -12679 0
-6260 -83 0
-5660 -12832 0
10299 -11330 0
-8147 -1234 0
-3996 241 0
12682 -3915 0
-12009 11125 0
-14253 12052 0
-1668 12097 0
6590 -15171 0
-6261 -1002 0
4320 12745 0
-1128 -6135 0
5467 5472 0
3066 4154 0
11845 14284 0
10565 478 0
7365 -9304 0
9907 -6746 0
5806 -13864 0
-14583 -9248 0
-13216 -3699 0
4962 12380 0
-14020 -9497 0
-8036 -14479 0
-15243 -8462 0
3209 -13319 0
5412 -13272 0
-11450 -5886 0
9182 -10926 0
9578 5607 0
3432 -8578 0
10668 -6861 0
-3642 2828 0
-14661 4450 0
15283 10605 0
10210 -9711 0
-4519 -5083 0
-10972 14149 0
10608 7424 0
-7170 14826 0
-2683 14172 0
4910 -5749 0
6854 1103 0
1732 -13485 0
3537 14514 0
13213 7981 0
10641 10464 0
10693 5586 0
15485 -15342 0
-4284 -7703 0
-2130 -10490 0
11032 -3342 0
-4649 -8316 0
7542 -7227 0
-14801 -2940 0
5117 14536 0
-8198 7334 0
-4250 5689 0
-1503 -7141 0
6618 -14445 0
-2818 -3068 0
-4438 1066 0
-1252 -1591 0
-5281 -15130 0
1820 14548 0
-7450 5467 0
4341 -5717 0
13781 2228 0
-15470 -2256 0
-10905 7958 0
-9519 -1170 0
-3401 6003 0
-15417 8793 0
6389 -11254 0
-162 -9755 0
-318 3913 0
15296 -8295 0
7300 -12456 0
8782 -10738 0
-9766 -12411 0
13068 -585 0
-106 7656 0
9467 -12716 0
3882 -2115 0
-4542 -5377 0
11675 -11669 0
15487 -13659 0
-3929 1641 0
2225 -11940 0
15396 -12857 0
3986 11423 0
2969 -13616 0
-6097 -5184 0
4304 -4841 0
-14053 2464 0
10833 -10117 0
9034 -1055 0
-1099 -65 0
9447 6661 0
1474 903 0
2114 12296 0
-2468 7093 0
13935 12898 0
-9764 -1986 0
8170 -5523 0
15140 -6919 0
8067 -11936 0
-6810 10801 0
6265 8944 0
3344 -3567 0
-10449 11920 0
-15142 -15528 0
13273 -3822 0
-13355 -7379 0
-6234 13682 0
-12462 11089 0
-8102 -6137 0
5010 -151 0
15394 -1626 0
-10450 8445 0
-215 -2284 0
-13101 -12407 0
-13523 13681 0
3055 -8882 0
8628 367 0
9878 -13047 0
-5703 5860 0
-5760 -653 0
5282 -11107 0
-10896 -1108 0
2245 14507 0
-4060 -9758 0
-13542 5005 0
14540 -12182 0
3760 6776 0
9801 8879 0
13869 1405 0
-2912 -11621 0
-8433 -5522 0
6502 8585 0
-5516 -15070 0
-9066 -7654 0
3731 12269 0
-14204 -12083 0
10051 3317 0
11869 8171 0
-14963 -10044 0
619 11487 0
-4226 -7422 0
-14289 -2220 0
-4650 3413 0
2093 -10399 0
12651 -15166 0
14629 4815 0
-6151 -14231 0
14517 -5889 0
731 -5587 0
-12166 2980 0
14780 6422 0
14918 15319 0
5765 563 0
-334 5863 0
-1477 -2320 0
4312 -13643 0
-13423 -14722 0
10252 69 0
-7469 -3218 0
-548 -1671 0
-12544 -7497 0
-4183 5047 0
4334 -6837 0
9206 -4917 0
7882 3920 0
-12821 8289 0
-6077 2596 0
4254 -11804 0
-2299 6649 0
-5105 -4802 0
12915 8513 0
27 -9800 0
8430 -5029 0
13983 14422 0
-1158 -10202 0
-8284 12431 0
10644 14633 0
-10341 15022 0
-1063 -15394 0
14238 7295 0
1022 6447 0
-1388 7750 0
-6116 -5181 0
12447 10056 0
-3802 8398 0
-13743 5118 0
12085 -3084 0
7325 3050 0
-2702 11662 0
-871 -10528 0
-10858 -5347 0
8173 -10176 0
-7597 13033 0
11029 -3847 0
2962 3922 0
-1046 3619 0
-4283 -7077 0
-1279 -14395 0
10566 12691 0
8309 -14805 0
446 -9764 0
13445 -6341 0
-15405 9549 0
-12066 -470 0
2576 11314 0
4289 8322 0
5822 14329 0
-470 -2078 0
-14645 13070 0
-3112 8751 0
-14315 -750 0
2096 -3158 0
-10772 -9729 0
-13149 -8376 0
-14963 -6499 0
10250 -4377 0
401 10035 0
-4334 4173 0
-4216 -11995 0
-3801 -13785 0
2152 -9567 0
-13846 6044 0
-2208 10640 0
-10354 10314 0
-5630 -7937 0
6804 6252 0
312 4817 0
-8421 -12237 0
-13434 -4076 0
-1097 6800 0
13499 -9763 0
13597 -10092 0
8085 150 0
8391 -13875 0
8093 1166 0
6822 9218 0
8923 -9926 0
-5593 -10298 0
-13655 3177 0
1623 2215 0
-6401 -10873 0
4882 15297 0
-14311 2738 0
8172 8240 0
10122 -931 0
7025 -15168 0
2542 5198 0
7304 -12169 0
1706 -8014 0
12566 12796 0
5501 9914 0
-8399 11476 0
13590 -12696 0
-11508 4335 0
10196 -695 0
380 -12179 0
-3234 14117 0
-4828 -6064 0
-10749 -11858 0
-13500 1967 0
5229 -14070 0
-5895 5450 0
-9865 8713 0
13130 13433 0
13650 -8920 0
10922 -620 0
-1304 6224 0
3410 -15151 0
-3951 13944 0
3516 -14405 0
13443 -12145 0
-5877 -6157 0
-10285 -8910 0
7831 -1525 0
13897 -3150 0
6165 15152 0
-9052 4963 0
-4700 8225 0
9694 -457 0
10352 -6741 0
-9540 8963 0
713 -12260 0
-14073 -4328 0
12213 -5076 0
9217 -896 0
3027 -6175 0
9595 -14070 0
-5594 11579 0
2528 15509 0
2208 -2160 0
6939 12673 0
-6788 7383 0
1760 -3655 0
14098 -3407 0
-11303 -13059 0
14488 12008 0
10978 -2808 0
-1196 -8223 0
7359 -14146 0
7534 -8904 0
5222 2385 0
4578 -3431 0
-638 10563 0
3997 13603 0
-194 -4188 0
4175 -12802 0
9038 -4076 0
-5557 -5465 0
-9811 -8089 0
9722 4924 0
-9826 8580 0
-3701 -14191 0
10991 -9325 0
-15398 7308 0
-5267 -3108 0
2753 3309 0
-985 -13447 0
12633 -2644 0
-3532 4919 0
-10534 14465 0
14706 -13950 0
-11181 -8873 0
-10225 -6255 0
10996 -10859 0
-2893 -12725 0
7370 3675 0
5505 -2281 0
10017 -10756 0
-8163 8430 0
7868 752 0
7953 2619 0
-11199 -11170 0
8174 -3072 0
-5592 12501 0
2860 5969 0
-10379 13255 0
9729 5258 0
5121 104 0
-8233 -623 0
14750 12790 0
-14393 -1446 0
-7758 -15356 0
-9880 7953 0
4408 -9140 0
6396 2107 0
-10556 8629 0
-11644 15200 0
10544 946 0
2410 6299 0
7276 -10096 0
-8664 -1077 0
-4199 12907 0
-5388 14581 0
14483 -12714 0
-11849 -6626 0
15283 -10567 0
3095 -14300 0
-14447 10392 0
-6829 9486 0
-3039 5050 0
10182 1635 0
3216 10105 0
9873 5984 0
-3567 -2531 0
12658 -10116 0
14080 14531 0
-5277 2888 0
4016 6886 0
-11165 -12003 0
6209 3470 0
-11470 8697 0
6720 14318 0
-13507 4613 0
10863 -13058 0
2178 -4579 0
11413 -4506 0
11702 12344 0
-8965 -7124 0
-4085 -427 0
9446 12645 0
-621 3074 0
-3380 14900 0
-9889 -1496 0
14060 11912 0
-7420 7910 0
14757 -11471 0
10083 6298 0
4882 -1794 0
12853 9241 0
14413 -6816 0
5703 1315 0
12470 10911 0
11329 7914 0
-7169 -10343 0
-11100 14366 0
-3883 -15098 0
-10244 4976 0
8259 3720 0
-12897 -3588 0
-14116 -5257 0
-7006 6912 0
-12487 14091 0
-13219 4777 0
8519 5482 0
-10659 2960 0
-3422 -5576 0
-12420 2119 0
-10145 3836 0
-1131 7885 0
7250 -12519 0
4658 3111 0
-11866 7182 0
14337 -5378 0
-8849 731 0
-6191 -8225 0
-2582 -8518 0
-8204 686 0
8903 -7553 0
-10356 -8432 0
-9058 619 0
12233 12960 0
-7663 6231 0
-13904 -11856 0
-2741 -10011 0
-1141 13025 0
13135 -13808 0
73 -15402 0
-4706 11611 0
8032 8317 0
11665 9897 0
-1056 3354 0
-5097 11802 0
2348 75 0
-11864 7503 0
-5835 1996 0
-3391 12051 0
13503 -14410 0
5201 -829 0
-11019 -4874 0
-9587 4237 0
5118 -7611 0
6393 10542 0
-12588 -6925 0
-14282 -9506 0
6941 659 0
590 -8559 0
-10768 8016 0
7625 -7178 0
5815 -11988 0
-12629 4771 0
-6526 -6272 0
-13490 -13121 0
4023 455 0
-5938 -13985 0
2917 -9551 0
1022 -9169 0
-7699 -12038 0
11214 13646 0
-9748 12609 0
-8205 -15556 0
-14751 12357 0
-14342 4112 0
934 -10758 0
14626 -9530 0
-14454 9115 0
-4114 -8419 0
-6621 -200 0
9642 -14206 0
-11394 9299 0
-3840 13685 0
14644 -1164 0
13396 14588 0
-3787 11854 0
10031 -9522 0
2498 -15052 0
-4484 -9048 0
-14511 1006 0
4278 7662 0
-9651 12921 0
5752 6591 0
4032 3216 0
756 -13231 0
-14467 3207 0
-14553 6981 0
-13998 -8405 0
-9005 -716 0
-12805 7394 0
-2546 14420 0
12911 2734 0
5614 7726 0
502 10444 0
-10429 -7635 0
-14323 11480 0
-5690 -55 0
9274 6469 0
-2064 3975 0
8439 6134 0
-8525 1989 0
-1276 2597 0
-8331 3561 0
14586 -10361 0
-8756 -6210 0
12388 8221 0
9108 13070 0
-7078 4702 0
8227 -11568 0
15074 14829 0
-4020 -13964 0
8921 12261 0
-2925 10883 0
-3251 -3884 0
13257 11382 0
-942 1453 0
-8928 -9263 0
15550 -8520 0
769 -8604 0
7641 -11816 0
-2766 6785 0
-6850 -9862 0
14052 2884 0
4420 -6813 0
-1961 14805 0
697 -4371 0
-8977 10209 0
10270 -4717 0
1762 2639 0
4605 -6697 0
-1142 13499 0
-7841 6798 0
-6438 -3685 0
-11531 -3841 0
15032 13532 0
11626 3622 0
-11967 -10677 0
-8711 -10525 0
-14291 4157 0
3627 -14529 0
-11142 8844 0
4173 13230 0
7654 9954 0
-10920 -8380 0
12723 12321 0
1836 10171 0
4132 6527 0
2961 1790 0
-5299 -7153 0
8843 9730 0
11958 -13214 0
7554 2301 0
8028 -12628 0
-3932 8736 0
3640 10258 0
-2939 -11776 0
5660 -9578 0
4814 69 0
-1643 14447 0
10335 -3890 0
3715 -5819 0
-12877 2002 0
-9615 15479 0
10122 -10452 0
-2187 -5292 0
4637 7665 0
5460 15294 0
1483 -8181 0
4443 -11387 0
12089 6677 0
-723 -7630 0
13587 -14104 0
1844 -6158 0
-14135 -5249 0
-12283 2338 0
-5002 -4561 0
14855 -1750 0
-2618 -2287 0
9072 -3697 0
-5536 -4037 0
11136 10574 0
-1109 -6827 0
-15461 -13585 0
-6458 -1932 0
-7147 5222 0
-8626 -10859 0
-2012 9361 0
2796 -3567 0
-887 10531 0
903 -12134 0
5352 7340 0
-3060 666 0
8134 -5936 0
14351 9748 0
-9765 13027 0
-13122 -13980 0
1913 -6393 0
4995 6991 0
-8729 549 0
6465 -11560 0
14338 -12902 0
-4294 11598 0
-9321 10733 0
9058 -12179 0
-10184 -13646 0
-7051 -1545 0
12988 9887 0
-1338 10273 0
-5931 -942 0
3662 -15404 0
-4923 10623 0
13197 -927 0
2990 -1252 0
-11130 -14928 0
14231 4990 0
10221 -14209 0
-11281 10094 0
-1911 -14516 0
9827 -11775 0
-10255 12671 0
-13654 -7335 0
-1450 14452 0
896 14848 0
1005 14082 0
-11849 7536 0
9624 7266 0
-7363 -2947 0
-11844 -4752 0
10225 5554 0
-8448 12457 0
-6616 13742 0
7541 7447 0
-94 12759 0
7218 -10541 0
-11245 -1043 0
4639 5245 0
6283 10572 0
-13886 4814 0
29 -7493 0
11109 -5590 0
-15500 39 0
-203 -8414 0
6411 -9266 0
414 -2803 0
-12696 -6620 0
-7174 7970 0
-4162 9459 0
2975 -5422 0
-1699 -11774 0
-10215 11172 0
2610 -8816 0
-9462 -7286 0
-1160 239 0
-13985 -11886 0
-1480 13366 0
-2288 -9181 0
-5068 -2849 0
12887 14741 0
-11794 10445 0
-2487 -6860 0
-652 14799 0
-12044 11825 0
11992 11506 0
3691 7692 0
15570 13024 0
6238 8764 0
-14370 -3653 0
6471 -9839 0
-4756 -10240 0
-4616 7226 0
9291 6200 0
13664 10251 0
11953 -7347 0
15418 -11027 0
-5386 12757 0
-5442 -2833 0
12829 -13018 0
-2899 6321 0
-4770 6248 0
-9993 -3619 0
5417 9774 0
15431 -10208 0
-15241 -3098 0
-14637 6418 0
-1374 13833 0
-12391 401 0
-8043 6891 0
-13662 455 0
-7493 13516 0
14037 -13542 0
-13488 1979 0
2331 3166 0
-4719 9289 0
-14937 -706 0
3186 4652 0
1095 -7636 0
-4911 15083 0
-9533 13407 0
12695 -14367 0
5017 6731 0
2286 7701 0
-4347 -9178 0
5724 12010 0
10720 6401 0
-15501 290 0
12015 3333 0
-8803 -14367 0
-5089 -9092 0
-1697 2742 0
-10885 14547 0
-5158 -8171 0
-4680 11474 0
-1698 13632 0
-6111 -15467 0
-3840 -11426 0
4222 6395 0
-14469 9198 0
301 -5550 0
13014 -13417 0
11592 -7337 0
-10239 13021 0
-27 -2352 0
-1349 -2563 0
-10807 14132 0
-7875 -9487 0
-12054 234 0
-12201 2086 0
-1939 14816 0
-12105 -10748 0
-5639 14507 0
7987 9409 0
-5344 9144 0
14644 -6183 0
-10611 11450 0
11217 6238 0
9523 5856 0
-8287 7588 0
-3810 4188 0
13861 8033 0
12503 -14477 0
2477 3809 0
-11623 11278 0
-12580 -12487 0
-1864 11936 0
15310 -9358 0
-7567 8948 0
-4085 -1456 0
-11442 -8029 0
5064 -3453 0
-826 14518 0
-5959 10531 0
1715 -13998 0
5379 -2525 0
3196 -6119 0
10744 7950 0
7178 13146 0
-6318 -1334 0
-14073 5933 0
5168 -6254 0
6213 -10397 0
-8375 11299 0
13281 13793 0
10331 3887 0
9702 -3169 0
12258 -14467 0
7099 8070 0
14373 -8302 0
-3532 13090 0
8497 13403 0
-14776 -9972 0
11286 13657 0
-12015 3969 0
14607 4382 0
-9178 9261 0
3044 -197 0
12050 -9766 0
15336 -3093 0
2645 6435 0
-12511 -10468 0
-5062 -12690 0
-3184 497 0
3223 7775 0
-246 10568 0
1934 12557 0
2251 -2509 0
-9527 -14290 0
-11380 11293 0
12412 -12834 0
6389 3014 0
-7896 -5651 0
-3300 4687 0
9347 10161 0
-12391 -9056 0
6000 -3272 0
-10347 -12565 0
-6695 12800 0
2839 8132 0
15448 5659 0
-15261 8134 0
-13162 -9354 0
13160 2462 0
13948 6315 0
12739 7050 0
-3869 10154 0
-11069 -2537 0
8861 -5040 0
13353 -8962 0
-5987 -4254 0
6664 7232 0
-8454 -7765 0
-9923 12373 0
13065 -658 0
-3922 -14746 0
-7182 10106 0
14797 626 0
-13799 -4617 0
-1488 12584 0
15389 9382 0
-3673 -10944 0
-11544 7813 0
12940 995 0
-7461 -12722 0
-8527 -7582 0
7588 -3229 0
12322 6714 0
863 3591 0
-13957 4686 0
11384 -13447 0
3617 6110 0
4722 9075 0
-8327 -14142 0
12750 3653 0
-2522 13213 0
3926 9038 0
-2785 -569 0
-8823 11819 0
7568 12593 0
14281 12318 0
4339 -969 0
-12529 7889 0
12616 13033 0
-10697 4639 0
13420 -13289 0
-2579 -9002 0
-3215 -13167 0
-9758 -3871 0
10683 13062 0
-14666 -2629 0
-7420 7831 0
-15532 14797 0
-15182 -14877 0
10225 13731 0
-7257 -14587 0
5418 -6606 0
-13991 -7939 0
4525 -13924 0
-2737 -764 0
5573 -3536 0
143 -2879 0
-5207 8775 0
-4158 6959 0
-10185 -4587 0
-9057 -3839 0
-155 4382 0
13680 -9561 0
12968 6233 0
7139 12148 0
2118 8050 0
2308 11622 0
-7535 -3551 0
-8213 -13854 0
6574 -5685 0
-8234 -12413 0
12634 6393 0
3336 -6588 0
-9924 -13328 0
4523 -12606 0
11647 15417 0
-4537 7560 0
11040 1337 0
3232 -6319 0
-4001 10913 0
6738 14413 0
9235 -13458 0
-6597 -916 0
1883 -15258 0
-6466 -14272 0
-8508 -5908 0
202 13954 0
-6114 6352 0
2414 -277 0
-14851 -14716 0
11347 -8752 0
-7037 9156 0
9832 -1309 0
1624 1533 0
1107 15562 0
-3856 -12850 0
18 -8925 0
-11450 -641 0
2650 -10162 0
4011 14569 0
-7005 -6663 0
-3105 -9193 0
-1602 6765 0
3351 13495 0
-8187 -2945 0
14564 10021 0
-13889 9200 0
-5892 -13515 0
-7358 -9965 0
-14404 7393 0
2874 114 0
14391 -11843 0
-14935 4538 0
-8129 -3708 0
11167 -2314 0
8222 -4188 0
9958 12420 0
12310 -2832 0
13574 13493 0
-15343 -9327 0
-13249 -5453 0
15519 14682 0
2933 13626 0
469 13645 0
1356 3789 0
-3410 15231 0
13044 7042 0
-4245 7703 0
1633 12400 0
-329 298 0
-12924 13209 0
-43 7267 0
3017 12080 0
-4652 5482 0
-4946 3244 0
3791 15569 0
2356 3813 0
-1512 -7732 0
1191 7119 0
6369 -7064 0
-10157 -6781 0
-12195 7689 0
-9820 -7955 0
-11838 10096 0
-13672 1372 0
-14259 -10917 0
-11385 7626 0
-5323 -1703 0
3030 -9540 0
5886 8808 0
1898 9166 0
7260 -8156 0
-3510 -6123 0
-3415 -9451 0
-12528 -7478 0
-14220 -13005 0
9834 4422 0
-14729 -3607 0
-10391 10455 0
5719 4956 0
-11852 7253 0
10187 13646 0
12713 -14827 0
-6734 8322 0
-7964 -15518 0
484 -3949 0
15364 8277 0
-30 -88 0
-2820 -756 0
8867 -7094 0
-8120 -14532 0
5128 -125 0
-5511 -8482 0
9779 11928 0
-12277 -2690 0
8574 10022 0
-804 421 0
-3796 9518 0
-6264 12689 0
-9812 -12521 0
-3860 3413 0
10472 -7887 0
4460 6311 0
167 15407 0
-12844 -13786 0
-2876 -14436 0
10448 -14469 0
4976 3263 0
1014 -4795 0
-10510 -8749 0
9251 6683 0
-8487 -3883 0
7420 -14010 0
14979 -8480 0
-6505 8725 0
-2095 6864 0
-6861 13499 0
-12155 -1229 0
-9112 -3706 0
-379 6095 0
-13092 14839 0
2246 6955 0
-6277 -9701 0
-3349 5530 0
-3039 -2319 0
7575 7130 0
-11221 5413 0
7409 3735 0
-14673 -4946 0
-9257 5732 0
-10257 -6203 0
-9329 1268 0
-10731 11249 0
8935 14332 0
-13849 -13339 0
-7896 7649 0
-13044 -7649 0
9300 -2790 0
-14632 -14377 0
-8735 12760 0
-8162 9397 0
-12595 12577 0
10545 2320 0
-14477 -13825 0
-14812 13236 0
-9840 -9737 0
5570 4661 0
-1032 7581 0
9743 3273 0
6844 12935 0
-4470 -1255 0
7719 14686 0
12323 12806 0
567 8453 0
8886 -1564 0
6550 -10036 0
-13286 -12167 0
-580 -4593 0
11404 -12294 0
-5650 -6781 0
7654 14231 0
-8119 -1731 0
-2234 -13101 0
-3208 1065 0
-5967 12215 0
7179 -10327 0
6289 -6211 0
5773 2925 0
13230 11433 0
-13174 13884 0
7775 394 0
10454 8595 0
-12965 5863 0
9008 5106 0
10160 -13683 0
-7852 -11427 0
8501 -3630 0
1389 1533 0
-11757 9601 0
561 10069 0
13781 -1369 0
-8556 -8111 0
-12256 -7769 0
6659 12908 0
-1086 -7817 0
-9596 -461 0
14047 -7551 0
-830 -3071 0
7579 3494 0
4568 -13715 0
4167 -6385 0
-8769 13258 0
-5045 223 0
8088 -5388 0
-2159 -6255 0
-9032 15531 0
-14383 -2025 0
644 9022 0
-8237 7621 0
-9715 6014 0
-7043 13724 0
9780 -5943 0
10839 7904 0
-14000 -3587 0
-13770 1055 0
977 8843 0
10881 -8297 0
-798 2864 0
7603 12319 0
5970 -5013 0
14741 13142 0
-1207 12504 0
6818 5050 0
7784 8122 0
-12862 -5010 0
4920 6148 0
9757 -12032 0
3762 -10724 0
7871 14018 0
1070 -5868 0
12219 -6721 0
-2875 -3776 0
15145 -7767 0
-4601 -2082 0
-7817 3616 0
-10049 5916 0
5420 8970 0
15381 7598 0
3918 11658 0
-1442 -10419 0
801 -7670 0
3451 -8412 0
-1314 -3426 0
-11905 513 0
-10871 -1718 0
-9678 -10571 0
4922 -3102 0
-8508 5474 0
-4579 -2474 0
-14677 -652 0
13854 8793 0
3763 15417 0
1537 -8248 0
-4081 -5802 0
5067 4066 0
6828 -2640 0
-2031 -7121 0
-8203 -2466 0
12867 3842 0
-5574 -2497 0
-2408 -927 0
2986 -5194 0
3085 3836 0
7880 7559 0
-3300 -301 0
14499 -2997 0
-9263 -4493 0
-8227 4640 0
11324 -818 0
13667 14074 0
-10472 6159 0
11108 1386 0
3118 10426 0
-12383 -1169 0
-5333 -11543 0
-45 14876 0
8201 -10498 0
15550 1769 0
-4361 8345 0
9151 8486 0
-2718 7571 0
-9779 -8920 0
13618 -10840 0
-2838 12479 0
1550 10733 0
6184 4094 0
9105 9042 0
-11818 7306 0
-3335 -12887 0
-2314 13294 0
5788 11378 0
11466 -2625 0
7022 4137 0
-12522 -15363 0
-8429 8059 0
-12835 -8157 0
-382 9910 0
-1025 -968 0
12908 4153 0
11615 10493 0
-15247 -899 0
11782 11163 0
10251 10379 0
-10869 -2242 0
14691 -11200 0
-3357 -910 0
13770 -10574 0
-14116 12962 0
3049 7266 0
-12655 -9872 0
-13334 -2255 0
-2238 -13284 0
10990 -6228 0
8555 -11775 0
-1202 -7800 0
4640 -3048 0
3316 13499 0
11942 -1612 0
5208 -11549 0
14704 4474 0
-14212 2540 0
-402 9336 0
-8561 15227 0
14263 12878 0
12798 -1853 0
-4537 -713 0
-15127 11031 0
-3957 -13491 0
10652 14606 0
-3883 -11596 0
-3855 -7175 0
-2701 -6288 0
-8471 -3588 0
-14436 -15258 0
8258 1168 0
-11260 -4706 0
-3886 14675 0
-10207 8435 0
10651 -10369 0
9556 14440 0
9090 12595 0
-7820 -4964 0
13936 12424 0
-9873 10025 0
-8952 -9806 0
9060 14446 0
637 4678 0
12173 -2534 0
5079 4577 0
-8427 14336 0
14537 -6638 0
1410 -5223 0
1161 -12088 0
-9766 -14841 0
-10611 6818 0
-13695 2990 0
8241 11091 0
11158 -6447 0
-1753 -3500 0
15541 -3580 0
10536 9468 0
-14164 11604 0
8335 -11146 0
-13136 -6276 0
-9846 -10639 0
5204 7233 0
14938 5743 0
-15455 -3053 0
841 -5327 0
7827 5709 0
10584 297 0
-12391 11159 0
-2261 47 0
9140 14264 0
14538 -10571 0
-5764 12274 0
-1592 12744 0
5686 -10472 0
2908 -3969 0
1319 -11048 0
8965 6809 0
-12939 -11803 0
-1106 -2047 0
-6151 -3649 0
-4002 14733 0
7376 -10352 0
-1045 -4517 0
-510 -6072 0
-14411 1656 0
9440 -11331 0
11737 2815 0
-4331 -772 0
-14791 -5453 0
-14990 7029 0
8709 6514 0
5174 -4010 0
1288 1426 0
-4401 15439 0
13691 9042 0
11179 -2919 0
-8840 -11571 0
95 -652 0
-14251 -1212 0
7426 2647 0
6353 960 0
15444 9206 0
3837 -8864 0
3339 1833 0
3177 14280 0
8466 -2084 0
-392 -5460 0
6155 9135 0
-789 -7318 0
-14912 -3957 0
12863 -4732 0
9035 -15150 0
14634 -14536 0
14020 -1862 0
11070 1970 0
-1718 10652 0
-15120 3743 0
4602 -8461 0
8483 13938 0
-1251 10200 0
-7178 -7708 0
-10268 15238 0
-15311 7014 0
-10961 -4008 0
-1604 -5172 0
14195 530 0
-1429 -15547 0
3415 -1140 0
9133 876 0
3045 -12579 0
-11039 -1237 0
-1791 1187 0
-13730 12254 0
-9610 -12395 0
10871 10655 0
-3085 2066 0
-235 10809 0
12017 -2196 0
13437 15515 0
1650 -1430 0
14515 -4909 0
-9687 14637 0
9443 8355 0
14364 10759 0
-8452 1201 0
-6555 13015 0
-6629 -14321 0
-14180 -11286 0
7873 748 0
-4174 -3720 0
-6569 3208 0
2048 -7263 0
866 -1276 0
7010 1754 0
-4700 -12002 0
248 1792 0
-14005 10973 0
-12259 9568 0
10886 -10023 0
6324 -9708 0
-14077 -14776 0
14306 15510 0
-12854 14582 0
-3877 14318 0
8767 4930 0
10429 -5590 0
-2527 5128 0
13613 3743 0
6635 4497 0
-12566 -5388 0
-6433 -1245 0
14999 11274 0
5407 -14505 0
-12213 -3800 0
4061 2231 0
12944 -12525 0
8356 10294 0
13576 -5389 0
12375 12229 0
13260 1179 0
-366 -2339 0
-1984 -8243 0
13061 4863 0
714 5851 0
-6947 -7443 0
7220 6749 0
-1363 -2179 0
-9081 -5256 0
-13521 7643 0
10176 -9656 0
-9550 2265 0
-4773 -13794 0
-1290 8557 0
-12548 3093 0
-2125 12979 0
1897 1206 0
11461 2015 0
7409 5718 0
-10999 -7402 0
-13862 8448 0
1578 -15288 0
-870 -215 0
8924 1767 0
-4024 14075 0
-5332 -8431 0
15296 14528 0
-12512 15003 0
8126 -8383 0
-11785 -25 0
-2382 -12509 0
13563 9605 0
-15329 -11176 0
-14701 -14941 0
10102 -10718 0
7802 2716 0
3144 11967 0
-9597 3911 0
7451 2798 0
-3411 9152 0
-12434 -8388 0
15562 156 0
-2492 506 0
-9316 -334 0
5191 9003 0
-6720 5521 0
5500 12261 0
8151 -14817 0
-5201 6352 0
-2373 12572 0
4743 -7659 0
6487 -8663 0
-7590 -3372 0
12933 -3166 0
-7046 2084 0
-5115 1815 0
15576 10139 0
-12311 -13414 0
803 10904 0
7254 -10767 0
-13273 -1366 0
-5900 14414 0
2114 -15213 0
5564 -1134 0
6672 547 0
4054 7505 0
7128 -10115 0
-3148 -2588 0
-1477 -9338 0
6224 2841 0
4930 3993 0
-8951 -5411 0
8229 8618 0
-660 -6624 0
4955 -8540 0
-13497 -7082 0
-4399 -9478 0
-2656 -8424 0
4517 14281 0
4794 13893 0
-6905 5109 0
592 5206 0
1570 -829 0
46 -8577 0
7666 -13590 0
-10692 8760 0
-12862 -13429 0
-8470 9654 0
-1774 13245 0
6990 10338 0
-10781 13678 0
606 11004 0
4453 7067 0
3245 796 0
12434 13999 0
-5356 10896 0
2987 -1285 0
12235 11987 0
-13416 11380 0
-11079 -390 0
12782 1888 0
-13919 -12150 0
6178 -10592 0
-2579 -15288 0
9265 -9120 0
-4147 4129 0
-11577 -14898 0
7940 -13046 0
-15051 1225 0
-15419 -5780 0
-13528 13640 0
13541 1714 0
756 -12518 0
-10830 5054 0
6687 -11457 0
-13202 -4774 0
-10711 -6599 0
-11012 -10352 0
1831 -4120 0
326 15354 0
-1325 -2684 0
7827 12645 0
2547 -11635 0
-8543 13217 0
-14461 -12438 0
11122 13993 0
14228 9171 0
423 -367 0
-1303 14849 0
11763 -8922 0
-14690 37 0
211 -8836 0
-6980 -11772 0
-1828 2247 0
-3715 -10502 0
-12030 -9530 0
3940 6478 0
-13761 -6195 0
-11929 -4869 0
12478 -13771 0
-13956 -8987 0
13973 -789 0
11202 -12386 0
-13520 -15129 0
-11526 11593 0
-7862 -1573 0
-8255 14931 0
-12968 9224 0
15532 7895 0
12079 -8590 0
-4839 -7147 0
-2727 8557 0
-9545 -14689 0
-12725 -14702 0
-845 -7067 0
-14162 3154 0
11471 -242 0
-12145 5906 0
-10142 -2440 0
-5428 -10753 0
-5087 -13045 0
-6146 -5835 0
11507 5061 0
13666 -3480 0
-1612 -14014 0
-3348 8900 0
-9651 8070 0
14014 -8052 0
9695 -10350 0
6313 11214 0
7020 -3405 0
12189 -13388 0
-8103 -8239 0
14757 14801 0
-68 -1184 0
-581 -3915 0
-10990 8418 0
-8076 -6845 0
11550 1119 0
-7121 -13055 0
11404 13656 0
1617 -11881 0
-4761 3486 0
11454 -10719 0
7854 -12867 0
-12439 332 0
-3514 -6545 0
14756 10144 0
-8002 4108 0
10792 10810 0
-3992 -6055 0
15238 9055 0
-4732 28 0
1013 -11234 0
7571 10487 0
-9394 -4177 0
13840 5997 0
-10108 -15480 0
-5370 -7229 0
9297 -15393 0
-13321 5926 0
3044 -5492 0
4333 6243 0
-4473 -10826 0
-11842 10870 0
-14293 -8342 0
15058 -4224 0
5408 -14000 0
8308 14605 0
-6492 -1535 0
9214 -4341 0
7064 3755 0
-11079 3751 0
5735 -2242 0
-12619 -7168 0
-10036 14623 0
-14835 5855 0
3734 1629 0
-3523 8055 0
12503 -9302 0
7566 -3140 0
2679 -11540 0
10877 3919 0
650 10106 0
3751 -10119 0
-5712 -10374 0
6325 -12681 0
-9283 5086 0
-8267 -9302 0
4970 -10873 0
-3731 -124 0
-1946 5827 0
15287 13741 0
-6334 -1267 0
2120 -3592 0
-7236 10017 0
513 -12558 0
-12194 6964 0
5751 -9597 0
4642 3334 0
6104 -14660 0
1488 -9131 0
157 -8542 0
12078 -12910 0
-4206 6705 0
-7700 1624 0
5855 -2220 0
-12265 -14841 0
-14467 -996 0
6843 -7187 0
-2017 7062 0
-10930 8172 0
9584 -13672 0
-2026 5573 0
1208 -9538 0
12262 -13470 0
3760 -3381 0
1185 596 0
-349 12801 0
-8584 14407 0
-3527 -5876 0
-2112 -12516 0
-2985 13774 0
15231 -11866 0
-10534 -7986 0
-6227 -9558 0
-3020 9594 0
1909 15548 0
-8275 10059 0
10551 -15198 0
2720 10733 0
-12517 10886 0
-6622 3041 0
5827 -14846 0
-554 13406 0
-9655 14219 0
-10965 2166 0
8485 6175 0
-577 -564 0
-10672 -13156 0
-6765 9604 0
2555 -13219 0
9764 10224 0
-5073 -13298 0
-9423 9594 0
2820 -7894 0
11745 -3629 0
3036 -384 0
-4564 7516 0
15004 1307 0
8266 9977 0
-6479 1648 0
10818 14334 0
3739 2928 0
-6814 -2503 0
1532 -9793 0
8558 -5245 0
-13047 -5724 0
4304 -6280 0
-88 789 0
-8110 1608 0
-10242 5630 0
629 -4152 0
-14350 -695 0
10482 3972 0
1006 -9784 0
6124 -13871 0
-4713 -3594 0
7346 -6695 0
8212 -13807 0
-8527 -7760 0
-10734 -4239 0
5754 -2118 0
15024 -2889 0
5151 -11236 0
4731 7794 0
-11217 -5088 0
-620 -13242 0
4057 2677 0
4477 -1462 0
382 -3423 0
-2190 3662 0
-13502 -2823 0
-14377 -900 0
-4975 -6507 0
-3958 9652 0
9545 13360 0
12646 -14347 0
2247 -15193 0
14676 -14803 0
-1521 -10772 0
-14525 -10967 0
-598 -4123 0
-13684 8194 0
-9086 13575 0
-1313 3273 0
7850 906 0
-14240 11625 0
-15432 -4070 0
-462 -10779 0
14214 359 0
-4205 2763 0
5708 8725 0
-854 -9361 0
14304 6405 0
-3651 -10908 0
-2761 6143 0
-14877 -1992 0
6184 -1073 0
-1027 -3202 0
7790 -3352 0
-14875 9923 0
-3821 -1902 0
9625 -10884 0
-1761 2586 0
14389 733 0
9625 2148 0
9501 5315 0
-1796 -8743 0
-12504 1082 0
11630 -8186 0
-1703 5508 0
4416 -11464 0
14751 -10245 0
-13283 -15190 0
-13611 -14820 0
-5918 5908 0
-4926 -11296 0
-14823 -6515 0
265 -4419 0
-9451 -191 0
-5180 -2469 0
-4634 -1574 0
10837 -7596 0
12420 9772 0
2935 10643 0
13503 8394 0
-12293 1075 0
-9250 9239 0
7772 -1528 0
-12181 7020 0
-15243 6444 0
6257 -4911 0
-6858 10055 0
-2899 -5849 0
-8996 5358 0
1838 -12605 0
2528 14430 0
10669 5178 0
7874 -2573 0
-13704 -5359 0
-6120 -13749 0
-14328 13769 0
-8680 -13980 0
11348 -1147 0
-4120 -1320 0
8350 -13389 0
2453 -2737 0
-109 -7473 0
-13049 11712 0
-5935 -403 0
8550 9372 0
-4766 -1378 0
-12184 -8251 0
2113 6732 0
-9185 -3947 0
13039 7428 0
-1996 -8436 0
6286 10960 0
-4793 7741 0
7190 -2521 0
-13516 12572 0
-4662 2477 0
2997 15315 0
-11803 -4030 0
-929 -5745 0
1029 -12355 0
-10244 -11231 0
-149 13797 0
-14745 -5975 0
-5452 -13190 0
12021 14452 0
12514 -9844 0
-7240 4253 0
-9374 477 0
-4421 -5819 0
729 -11337 0
-4021 -11517 0
-9273 -5255 0
8154 13571 0
-14118 4994 0
-3568 -10903 0
-3578 -3578 0
15362 -5421 0
1910 -5458 0
-2563 -9702 0
-6047 10322 0
11815 -13077 0
-80 -6556 0
8497 10565 0
-12408 -1426 0
2235 7661 0
10919 -6989 0
-14099 5386 0
-7766 -14309 0
2254 13756 0
-1500 -4794 0
-2620 -6460 0
998 -2602 0
2180 9083 0
12485 -13272 0
14011 13340 0
1145 12699 0
-7945 -12433 0
1371 12174 0
-13133 -12544 0
-7180 6095 0
-4083 9700 0
-856 -8040 0
6073 -8207 0
10144 14026 0
8639 -8656 0
10283 -8836 0
-3750 12972 0
15548 -1566 0
-12426 -2723 0
-505 4179 0
7312 -10043 0
13965 -10758 0
-13977 11886 0
2116 12338 0
2431 -6327 0
-1928 8917 0
-14806 14604 0
-7219 -11704 0
11192 14302 0
-14028 -11033 0
-12525 5656 0
-10434 -10575 0
1531 503 0
-6423 7230 0
-1809 9703 0
-1429 -10808 0
-937 -8760 0
1961 -4010 0
13627 4080 0
13418 -14996 0
-10257 -14351 0
-12389 -6936 0
-9617 14525 0
-12328 -12498 0
15192 -5048 0
-10917 -5396 0
-8492 -4536 0
-14429 13648 0
-1434 9891 0
-15143 7205 0
14823 3647 0
11686 -410 0
4168 -14168 0
10014 -15128 0
-8738 2544 0
11491 -13289 0
-5702 15243 0
6262 11917 0
-5619 15217 0
-810 -1574 0
15232 15153 0
15444 -9125 0
-10416 -5720 0
-4554 -2029 0
1349 -10477 0
9990 -3155 0
9355 6249 0
-12030 4249 0
393 2148 0
11017 15565 0
3780 738 0
13513 9228 0
-12254 2376 0
-6392 2512 0
-1153 6675 0
-8962 6239 0
-4218 -5738 0
3287 15569 0
14963 12535 0
-5842 -14952 0
10739 7233 0
131 -9040 0
14089 7509 0
12713 10992 0
-5764 -4428 0
720 9381 0
-2581 -11318 0
14698 -13943 0
-3770 -11284 0
10221 -5470 0
1246 10962 0
7868 -1077 0
11437 -1010 0
7261 13728 0
-12081 8080 0
2352 -829 0
11047 -2615 0
13016 6849 0
13758 15196 0
13607 10654 0
4267 3315 0
-5700 -11996 0
4973 9789 0
-904 -8641 0
-12665 15126 0
-9043 2703 0
1746 -1790 0
-2314 -15127 0
4080 -12527 0
-13451 -14880 0
-5842 -1382 0
651 -11830 0
-5768 7797 0
-11860 6073 0
-14865 -6796 0
-8433 -13346 0
4592 -14521 0
10674 11841 0
8389 14974 0
11644 -12294 0
3662 6404 0
-10395 2871 0
-4968 6891 0
9294 9023 0
-10235 220 0
14040 -14341 0
8649 4428 0
-1847 1212 0
8344 3597 0
-15425 15041 0
14670 -9083 0
-11120 11950 0
-2760 8611 0
1738 -2488 0
-12118 2263 0
11423 -1261 0
-6148 -14437 0
14082 10908 0
433 -9272 0
2280 5168 0
-4575 11886 0
-4706 6903 0
-3983 -105 0
7420 -4453 0
-12343 3542 0
10907 -2265 0
-3123 -13594 0
-14831 -1872 0
4590 11309 0
-11710 -6017 0
-8856 -12478 0
-12992 -9929 0
-5281 -7080 0
420 -8517 0
3770 423 0
686 -3919 0
11127 2687 0
-2781 13478 0
10533 11198 0
2281 -3002 0
-9100 2887 0
3459 973 0
10963 -10765 0
8453 684 0
-5289 -5504 0
-7021 -14970 0
6814 -11777 0
13542 7625 0
14509 11990 0
-1374 1952 0
1904 -6851 0
13497 -3449 0
4990 -8409 0
15355 -9373 0
9801 -6357 0
3279 -9175 0
2457 -4355 0
6808 -13344 0
13445 -10841 0
-9328 -13299 0
4610 -1566 0
7946 10097 0
9493 -11626 0
3885 -15091 0
-9798 -9506 0
3087 5518 0
-7091 -15179 0
-12413 -7966 0
9635 3364 0
-8933 15509 0
-11726 -3114 0
-14905 -6087 0
4583 2759 0
7664 15569 0
92 11124 0
-13006 -13872 0
4279 -3289 0
7389 8101 0
12167 13704 0
5797 3995 0
14769 8689 0
-7404 -322 0
-6009 -12614 0
12070 -1966 0
-12513 1154 0
-6105 3102 0
-15119 -4040 0
13662 -9161 0
2177 5043 0
8480 8830 0
14255 11390 0
179 3646 0
4489 -8783 0
-12622 4884 0
14863 9052 0
9514 -14429 0
-1849 -12146 0
-9515 -767 0
4768 14999 0
-5697 -9594 0
4115 10568 0
-7543 -14243 0
12051 3151 0
-11395 -14510 0
3130 7491 0
5490 -6618 0
9092 2335 0
7210 11642 0
-10705 9004 0
9421 -4515 0
-1496 -12653 0
6518 -11738 0
-6090 -3009 0
14087 -10342 0
10066 -6741 0
3643 8636 0
5352 -10912 0
-6529 -3703 0
-7764 7187 0
-13995 1133 0
12353 -4057 0
1541 8278 0
-12741 -7735 0
-14175 14864 0
10765 -13811 0
-14192 10291 0
9021 -15384 0
10048 -11593 0
-14505 7643 0
14816 -4348 0
13534 8107 0
-14018 10975 0
2994 -444 0
7638 3493 0
8256 -10408 0
-10206 -2049 0
10790 9854 0
11087 13501 0
8224 6654 0
11115 -14112 0
7455 -7352 0
3592 -5061 0
-3111 12437 0
-4241 11116 0
-10480 -8475 0
9944 -13596 0
11253 -15218 0
-10569 -11368 0
10529 5549 0
-10633 5701 0
3952 9078 0
876 -15079 0
4761 1367 0
-914 9772 0
-3829 1506 0
-2851 11807 0
-6713 -3861 0
-2107 -11434 0
12908 -5655 0
6221 12963 0
-6788 -13815 0
4585 -9901 0
-9019 7625 0
14143 8600 0
-1349 3130 0
7267 -5892 0
12242 -702 0
5282 -1463 0
4547 -1907 0
7574 8611 0
-13965 -12680 0
-4181 8360 0
-247 -14934 0
-10835 4524 0
978 6645 0
-11252 1462 0
-7217 9313 0
-9338 12036 0
-7804 13794 0
-7558 -15020 0
8283 -15406 0
7836 -3008 0
-11119 13266 0
8736 9037 0
14091 -12845 0
5272 -14108 0
-5507 -10333 0
-774 6928 0
-3352 -7294 0
-6582 8058 0
-1399 -14199 0
3642 4329 0
-13389 11610 0
-8499 7378 0
-10233 -5861 0
-14746 13527 0
9179 -15418 0
14091 -9947 0
-5256 -5485 0
-5063 -4109 0
-2438 12156 0
-4168 2406 0
-14541 -15127 0
-5103 12508 0
12000 982 0
1428 -3972 0
11828 -13848 0
9576 8442 0
14062 6868 0
1667 11904 0
-3508 8118 0
12397 3417 0
-8764 -2828 0
-10054 -9419 0
-6850 -7202 0
-7218 7776 0
7235 4980 0
6381 -13563 0
-10196 -2288 0
-2357 -544 0
-8068 4976 0
12635 -5877 0
9788 11656 0
-4358 -9645 0
-14669 -4667 0
-8238 8947 0
9571 -9015 0
12797 -13185 0
3257 -7031 0
-418 -12281 0
164 13280 0
2423 14937 0
8980 -7111 0
-11366 14555 0
-607 3814 0
-9047 -3826 0
-845 7462 0
-1841 -10225 0
-10140 -10439 0
13915 -14161 0
14084 -13461 0
2115 -13783 0
-10518 -8672 0
-766 -7668 0
72 13038 0
-3686 -1697 0
11681 -12373 0
-10029 11869 0
1798 -15488 0
-4599 784 0
-11068 12358 0
401 -5039 0
13703 -2396 0
741 9677 0
9919 15101 0
-12085 3764 0
-11949 5283 0
9962 -514 0
6725 -8416 0
-7907 14050 0
-12225 1226 0
-3565 6827 0
-8421 1951 0
-2266 3554 0
11212 -597 0
12589 3163 0
-4020 -13652 0
11917 4714 0
14458 7023 0
-7098 3886 0
-2552 -10637 0
8702 -3533 0
-387 6777 0
4598 -11208 0
6875 3946 0
12332 -12586 0
-14159 9504 0
-3228 -13116 0
-9943 -4764 0
-10298 1145 0
14200 1786 0
-5300 -547 0
-9844 -1395 0
8566 3309 0
8564 -11117 0
4772 1194 0
-15332 -13402 0
204 11339 0
10474 4775 0
2970 11437 0
-9716 2324 0
5811 10486 0
3358 -11118 0
1562 15562 0
4855 5001 0
-8598 3427 0
10270 -6101 0
-6715 3679 0
-390 -15123 0
-12176 -11883 0
1748 137 0
15452 4715 0
-13054 14450 0
14081 2040 0
-1305 1897 0
-7196 -1198 0
-3072 1759 0
7926 9427 0
-7524 -4164 0
-13151 -10010 0
-8638 9697 0
1102 13216 0
-3854 12445 0
1128 1297 0
15279 -507 0
10150 -373 0
7662 8274 0
4367 -11478 0
-11002 -10387 0
-5469 -11256 0
-4474 10888 0
4834 5316 0
-1012 -404 0
12232 7811 0
4745 13442 0
-12425 -15414 0
2659 -2546 0
3366 -3307 0
10850 -570 0
192 -4026 0
-3282 -3767 0
4531 -12018 0
-2698 9476 0
521 170 0
-11650 1687 0
-10704 6196 0
10480 10299 0
-11380 10883 0
7838 -8968 0
-8803 4253 0
-7842 -8462 0
-6305 -4107 0
-7138 3029 0
-3085 9241 0
-5059 6413 0
-10439 13549 0
-6101 -886 0
5891 11522 0
-6006 -6636 0
11691 2630 0
9506 -7727 0
-2425 -12568 0
-6948 8670 0
6958 -3847 0
-9002 9703 0
6371 3662 0
-7987 -5034 0
-8068 274 0
-8161 -3433 0
-11218 3043 0
12819 -4398 0
-7034 -11057 0
-11783 -10926 0
4409 -799 0
1496 4097 0
8358 -6461 0
9333 12493 0
3065 -15150 0
-638 983 0
3434 11452 0
2200 -1984 0
13144 -8707 0
-7748 -7045 0
-10268 1624 0
8495 8411 0
-11857 -11225 0
10328 4222 0
11420 -3228 0
-12624 1117 0
9331 6476 0
-7962 10245 0
-14131 -3131 0
24 -1786 0
-3667 -9804 0
5118 5723 0
1969 461 0
-10631 -8863 0
577 9174 0
-9040 -10769 0
14871 1489 0
-11449 -14955 0
-3129 -6490 0
-4365 8106 0
-12577 8539 0
10529 -15409 0
-11977 -13429 0
13232 7143 0
5327 8896 0
-1521 15381 0
4020 1 0
-5010 -4003 0
18 -5050 0
5221 1059 0
-7789 -7836 0
5793 -9975 0
-13330 -10187 0
-9530 -8623 0
1636 -7800 0
-5284 -14227 0
-13335 -5399 0
5840 2610 0
-13682 14737 0
4108 -2698 0
12217 1124 0
2836 -288 0
9704 -8312 0
-1471 4320 0
14980 -8102 0
-12344 -14244 0
-3217 -14942 0
15484 -3925 0
-5792 -11436 0
10573 -2053 0
-6869 -14298 0
14357 -8651 0
-3577 399 0
15376 -1576 0
-5747 -5062 0
8735 14626 0
11020 10537 0
-2196 -8301 0
4035 1475 0
4172 -10031 0
-10391 -8169 0
-14965 -12299 0
14041 13859 0
-2826 -12215 0
1156 -2822 0
12225 13798 0
10283 9741 0
1076 -14990 0
8882 -6041 0
4400 -10188 0
-13755 8422 0
242 9518 0
14905 -8248 0
7244 -13551 0
-6164 6841 0
1580 4108 0
-11112 873 0
-5262 -12064 0
-263 2533 0
2792 -248 0
-9540 9542 0
10465 -554 0
-11275 5358 0
15573 7283 0
-1692 -10060 0
9632 -7481 0
-5476 -11254 0
-2953 -8531 0
8332 -6997 0
-13523 4845 0
-11036 4409 0
-7212 -13345 0
-13136 -3029 0
-1752 -10888 0
-13849 -524 0
12624 3478 0
-1401 -1169 0
-15408 11918 0
14967 -11405 0
-9128 -9335 0
2386 14770 0
-11511 -7705 0
12274 6627 0
9145 9695 0
-3545 5318 0
13094 1036 0
-11529 14535 0
-13739 -2407 0
180 1194 0
-12175 2553 0
-11960 1188 0
-7849 8843 0
-13172 -4792 0
9901 -8841 0
-14838 5363 0
4393 -9607 0
-8710 -13346 0
-3571 -11548 0
15205 4769 0
-8048 -12973 0
-12352 47 0
-12512 -2041 0
-5638 10662 0
-10716 -12992 0
15165 -1801 0
463 -11445 0
-4423 3019 0
3289 642 0
-10243 -622 0
-1946 7196 0
-493 -12295 0
-13477 -8215 0
1605 1133 0
-10897 3498 0
-9979 -15272 0
5504 -11739 0
-9967 4490 0
-14939 14315 0
-12628 8434 0
-11338 8804 0
4314 13733 0
-3337 -12760 0
11091 4663 0
9899 -1841 0
-2299 2897 0
-9916 -6469 0
-2965 11603 0
-10314 -2754 0
-9279 -10354 0
12048 -13583 0
-7357 -3325 0
7927 13626 0
-14181 -12244 0
-6199 12431 0
14284 13914 0
3285 2890 0
6693 14247 0
12959 1565 0
-5469 -13072 0
7980 -2196 0
-4141 -7843 0
7320 -2088 0
4985 7490 0
3513 3952 0
8583 -2765 0
-5760 -982 0
10579 14276 0
-9816 15362 0
7431 -4941 0
-12603 -2021 0
-4148 11208 0
346 8629 0
11986 4650 0
49 -11357 0
-14159 5377 0
3152 14757 0
6434 -6147 0
12054 3343 0
5981 -7582 0
-7148 -121 0
-7445 -12924 0
-12467 -13021 0
-536 -3433 0
-6546 13335 0
-8234 13525 0
-1542 582 0
11282 -5921 0
-1038 13067 0
-13739 10470 0
-11145 -4275 0
5738 3158 0
5437 13959 0
-11731 9254 0
12086 8593 0
-5427 1718 0
13812 12105 0
-10361 -7696 0
12536 14410 0
-6765 -3966 0
6878 8526 0
-1549 -1325 0
-7147 6054 0
-11449 12567 0
-13049 -271 0
1406 -977 0
-7607 -4686 0
-6136 2809 0
-7290 13780 0
-7566 -7806 0
1952 -4155 0
4053 -4685 0
7974 14746 0
-2747 -2200 0
8058 8497 0
-11837 1109 0
-1875 -1445 0
5857 -1918 0
13819 1706 0
2055 11837 0
548 -5899 0
873 -6648 0
-4804 -7845 0
14688 13435 0
-14665 15194 0
-8568 -12513 0
-1157 11317 0
10393 -2113 0
-12756 1792 0
13944 11731 0
10624 10486 0
-9451 14023 0
5961 -8822 0
4623 -4048 0
10096 5085 0
-9533 -1251 0
12782 -11703 0
-4947 -7928 0
-4090 14088 0
3457 5319 0
-15198 -1097 0
-8941 5679 0
-5135 -15334 0
-555 8490 0
-702 -12347 0
-6140 4403 0
843 5863 0
-1875 -11525 0
-7388 6247 0
1220 -1990 0
10856 9692 0
7542 -7100 0
3512 -8242 0
10444 10447 0
3970 -10430 0
12791 6922 0
1311 15215 0
6190 9643 0
11194 -5922 0
-14367 14858 0
9134 -5161 0
1351 4718 0
9033 -2183 0
13522 -536 0
7007 -2240 0
-14536 -321 0
2925 -3838 0
7395 8736 0
-9875 -5287 0
-922 -9372 0
-3352 -1943 0
13157 -1795 0
-3832 5830 0
-8990 3257 0
-5547 -13983 0
-10306 12061 0
-5335 -6864 0
8124 10637 0
-1869 -9410 0
-10043 -6404 0
-112 -10814 0
-11036 5214 0
-4537 -7306 0
-2647 15507 0
10258 14255 0
-3063 8031 0
-12041 13963 0
14539 -2534 0
4419 3549 0
-9132 -5229 0
-9198 5082 0
1769 15191 0
-8475 -4444 0
8924 11753 0
-12525 4389 0
-4242 -9709 0
15146 -10775 0
976 -2922 0
1185 6924 0
5913 -5522 0
-30 4938 0
-5304 -6608 0
13236 814 0
-14574 10405 0
10342 -9343 0
-5389 -7758 0
-3653 -9343 0
-12755 -8379 0
-11621 -11631 0
-9852 -422 0
-10241 -4358 0
13767 -8326 0
2370 9752 0
13029 7455 0
2931 -6545 0
9269 -11842 0
12810 12942 0
-3247 -2039 0
5829 -14467 0
11732 7656 0
-7148 10551 0
2726 -1045 0
14312 -773 0
-10907 7068 0
6482 5302 0
-12487 12497 0
-3624 -3651 0
8723 -1500 0
-3704 -1140 0
8192 5445 0
9141 -11948 0
-14937 4491 0
-7976 -1365 0
-442 5927 0
12190 -2374 0
-9382 -15124 0
10687 5408 0
7185 13929 0
11735 -10872 0
10906 -4959 0
6686 6844 0
-1891 -7719 0
-4173 -4692 0
-3965 1710 0
4376 11953 0
136 -2037 0
-15167 14438 0
-10633 11666 0
5540 13772 0
-1382 8757 0
-5758 13889 0
-12456 7626 0
6036 -6229 0
-665 4796 0
-1542 4903 0
-12752 -6339 0
-2093 -9112 0
14859 12123 0
-1222 -1574 0
12312 15072 0
-14508 3340 0
-3407 2409 0
2734 -10866 0
2473 -1983 0
14091 15545 0
-12511 -7317 0
1736 -11226 0
5824 884 0
-15461 -40 0
9680 10551 0
7994 6317 0
1925 -3530 0
6239 -4478 0
-6778 7700 0
124 301 0
5837 234 0
6221 15416 0
-2422 7774 0
-12119 -4176 0
-13867 4280 0
7137 -79 0
-15497 13187 0
-9730 4464 0
-13806 -14462 0
14003 -7668 0
-3884 13037 0
2962 2082 0
9055 7210 0
2686 -10222 0
8827 -12416 0
9849 36 0
2758 -10653 0
1135 14088 0
-9061 -1812 0
-5896 -10730 0
14278 5734 0
-10546 -7640 0
1123 1431 0
-9263 -8090 0
3972 -4292 0
15575 249 0
9090 -3671 0
10533 -1861 0
5230 -9086 0
-6413 774 0
14136 352 0
2201 -14798 0
-13077 11171 0
10272 1233 0
-10333 7343 0
-4154 8966 0
-2998 -20 0
13158 -9820 0
7641 -3580 0
8354 -4793 0
-988 -4519 0
-3133 2257 0
10141 -15182 0
-1480 2733 0
11883 12272 0
-10657 1960 0
-9603 3975 0
9484 -3117 0
12227 -8206 0
-13282 -10754 0
5142 5229 0
-8152 -2617 0
-13980 -217 0
-7078 -11056 0
11391 -10003 0
9023 8455 0
4397 2730 0
14438 -12102 0
-3077 6093 0
-10 -12175 0
6755 5906 0
-3176 1122 0
-13734 14753 0
-10875 -156 0
5977 4191 0
7519 -2995 0
-2300 -7715 0
10796 10331 0
232 -3357 0
-7487 -11303 0
-3805 5301 0
1506 -370 0
6313 8089 0
2116 -15136 0
1600 15192 0
-11618 9515 0
10527 -11180 0
9919 -6936 0
1048 -14286 0
4253 10979 0
-3695 -1922 0
11906 9943 0
929 4309 0
7428 1896 0
1188 -2827 0
-11610 702 0
6717 4850 0
-901 -1313 0
2484 -8196 0
9218 -1857 0
-3639 -7264 0
-7197 474 0
15334 -11509 0
7883 14737 0
5032 5318 0
-6349 14708 0
-6920 -6155 0
-14973 -1912 0
-7092 9904 0
1522 3711 0
15142 15185 0
2661 11256 0
6808 1444 0
-1087 -10810 0
12872 848 0
2840 -12333 0
-158 -7439 0
11881 12610 0
-9405 3370 0
2427 14349 0
4343 4842 0
3132 -8803 0
14720 13228 0
11276 -15412 0
-11762 -7156 0
-2861 -10097 0
15163 -2846 0
3952 1574 0
2000 -10184 0
-3420 13221 0
-2399 7068 0
-12145 -8554 0
-2018 2667 0
7488 14244 0
-6418 1808 0
-15366 -11529 0
9021 -6733 0
-7985 2070 0
140 -8620 0
7526 -4498 0
-14508 11975 0
7463 -10001 0
6277 -5286 0
-8130 6734 0
-13273 -12698 0
14805 3743 0
-11283 15454 0
-5292 -13482 0
-4095 -4231 0
-14836 7822 0
-9047 -6135 0
732 -11189 0
7899 14032 0
-3335 -6016 0
125 679 0
1272 994 0
3808 -12524 0
-5472 3934 0
-2015 12246 0
11054 5373 0
-9137 -12643 0
-15169 6233 0
8360 3957 0
10695 -3594 0
-12428 2376 0
-11030 5134 0
14681 -13211 0
1387 -12259 0
-10684 -5873 0
-13010 -10815 0
1857 13982 0
6146 -3997 0
7556 4990 0
12853 12937 0
-4907 925 0
4406 11500 0
5673 13660 0
4756 11637 0
-10956 -1032 0
5380 -9277 0
-11369 12362 0
6247 -6837 0
276 3084 0
-989 -8459 0
-14568 -14383 0
-12403 -4221 0
13068 -6593 0
-12720 -6546 0
1219 -7612 0
511 11486 0
-8377 8271 0
3655 -7088 0
-6626 1432 0
12460 -10314 0
4530 1603 0
6653 -10694 0
-14541 -8777 0
-14075 14943 0
8455 15285 0
-833 6636 0
14310 4446 0
-2367 5773 0
772 -5334 0
15138 1652 0
-2871 7151 0
-14868 6333 0
-12327 -8439 0
9652 -10914 0
3214 -3131 0
-989 6865 0
-12568 -14635 0
-13714 -2686 0
-6126 5465 0
10672 -10002 0
7210 8058 0
8597 5334 0
-9764 -7788 0
3149 -14603 0
3962 -14624 0
-13900 350 0
5895 -6630 0
3041 452 0
-5061 -6509 0
-7819 -11946 0
-3252 -2668 0
-915 7200 0
-11050 6166 0
7793 4794 0
-4353 12064 0
-11515 -13896 0
5252 -7440 0
-10684 2708 0
-628 10481 0
-7337 -4193 0
-10832 5066 0
-15128 -4605 0
8493 -4323 0
-8139 -13412 0
-4767 14375 0
4061 -3898 0
-8209 7701 0
-1911 -3068 0
-6283 11513 0
7032 3790 0
-4491 -10809 0
-13552 1053 0
4772 8019 0
-13401 7044 0
1713 8085 0
-14595 8293 0
-6201 12793 0
14973 -8363 0
-15227 -4186 0
5087 5622 0
-13229 -13850 0
-15272 4892 0
-10512 -9234 0
-9980 7408 0
4373 14218 0
-4981 -10833 0
-13142 14757 0
-8597 -15476 0
-7601 -4992 0
-1261 -6654 0
-8747 14879 0
11171 5427 0
-8868 11253 0
-7478 15191 0
-8879 7304 0
14034 -15336 0
1743 -11196 0
10281 -7120 0
598 8984 0
-2426 8137 0
11032 -13685 0
-14743 -14213 0
-3474 13686 0
9190 12455 0
3903 -8775 0
-2640 -9636 0
-3267 8356 0
2859 6266 0
14519 13757 0
8943 -5394 0
9655 -15506 0
-2940 8707 0
10323 3307 0
9652 -8896 0
-2456 4668 0
15158 11862 0
4910 -10599 0
-6984 -9790 0
-12895 -14988 0
6357 -2925 0
-8636 -8123 0
-6118 -15552 0
-6725 -6834 0
-6470 -11864 0
212 13392 0
7356 -3941 0
-7618 5277 0
515 -7866 0
9589 14335 0
-2942 7222 0
5253 12313 0
-11289 14995 0
-2017 3486 0
-7982 -4664 0
-10434 -8190 0
7325 776 0
13074 -14371 0
-12168 -7321 0
-3564 100 0
-4532 15310 0
-393 -2621 0
3879 -14274 0
-9144 15374 0
8479 -679 0
12380 5869 0
-8839 -15489 0
4118 3674 0
13960 -12253 0
9217 15477 0
5998 -15358 0
-10614 13484 0
14954 -6076 0
-227 10640 0
4237 -8738 0
-12649 2071 0
-2952 2020 0
9263 -7372 0
-12164 -11943 0
13718 8516 0
-4869 -9564 0
-9689 -6819 0
288 -14668 0
-12504 1955 0
-13316 12459 0
-7323 -227 0
-4702 11182 0
-14457 -9545 0
13462 -2222 0
13305 -4208 0
3618 -9175 0
-8752 1662 0
5152 12050 0
2361 -14016 0
-1782 10743 0
6148 7837 0
6355 9121 0
-10798 -5261 0
789 -1096 0
-6693 -13033 0
6508 -12655 0
8197 12731 0
-7829 -3448 0
-12635 6861 0
15024 -12018 0
-8769 4620 0
-6596 2726 0
-402 -4534 0
-583 861 0
8917 1707 0
9357 -8400 0
-8556 11738 0
4450 12079 0
7800 -11787 0
-10884 3483 0
691 10681 0
4452 -642 0
15191 11975 0
10226 -9801 0
-10298 -11026 0
-2775 -15175 0
-15076 4145 0
10299 -5023 0
-6913 4877 0
-13230 13527 0
1319 4367 0
13016 10730 0
-426 13950 0
4884 12978 0
639 -11629 0
2923 -4810 0
-14784 -10189 0
5887 1985 0
-13136 -10576 0
6398 1901 0
-15151 -8758 0
12336 656 0
-9751 7326 0
6704 -12089 0
-3010 -2763 0
10842 -2683 0
-3987 -5857 0
7648 4248 0
9943 -11006 0
14825 -1525 0
3443 -7727 0
-11579 123 0
-4338 2200 0
9086 776 0
-1248 -1119 0
-2968 9554 0
6561 -428 0
6454 11703 0
-13459 -9474 0
-9100 -12208 0
9015 9897 0
-9264 6111 0
-9014 5055 0
12824 3785 0
10420 -11542 0
-6107 -8492 0
-3510 12927 0
13533 -4808 0
10676 6435 0
-7660 -13530 0
-4166 3030 0
-15420 -13516 0
-4512 5929 0
-10380 -4227 0
8815 -9955 0
15397 -15540 0
13837 -5553 0
8923 -6108 0
6498 -3957 0
15479 579 0
11250 15295 0
-4042 -14544 0
7449 1891 0
13677 -15537 0
14670 -15501 0
-4765 13172 0
5465 11175 0
-13848 7295 0
9760 -13079 0
14787 9347 0
-3455 -10144 0
1070 -2710 0
-7032 -11376 0
-3425 9979 0
-9837 -13267 0
6599 822 0
3349 13895 0
-13820 2794 0
-9971 -13271 0
7667 -4954 0
665 1247 0
-3105 4392 0
-3834 6674 0
-11375 -7450 0
8814 -12024 0
-13351 -7390 0
7874 291 0
-11585 2294 0
2644 7544 0
7231 -10084 0
1917 690 0
2720 14285 0
-5553 12783 0
-2195 -6793 0
6001 14529 0
-6102 -15098 0
1769 -12343 0
-1858 670 0
-9729 5623 0
-3171 6183 0
-5288 5511 0
15533 -7721 0
-6654 -7593 0
-10180 -1504 0
4257 -10812 0
-13854 -14117 0
8153 11112 0
3035 -359 0
-10556 9754 0
13621 -8053 0
-364 -10301 0
8109 -4907 0
6511 12252 0
10813 -8476 0
556 -11322 0
10489 -3086 0
4860 -9891 0
7261 3523 0
6659 9840 0
-11027 -2145 0
4604 -3380 0
-4349 -2111 0
5946 10015 0
10251 13347 0
8669 -7495 0
12278 -10787 0
-6872 -3604 0
190 -11447 0
-1284 -11840 0
13805 -7082 0
-11808 9757 0
-9468 -13672 0
11021 11189 0
7217 -8747 0
-4233 9901 0
-4053 -13849 0
-812 2590 0
12381 -10644 0
4173 -11180 0
-5275 -6903 0
4154 -9750 0
4993 12064 0
-8808 1904 0
-4734 -848 0
404 -13807 0
14831 -8197 0
-1064 15113 0
-12325 -11162 0
8070 -14381 0
1189 -12152 0
-10181 -10342 0
-4839 9399 0
12404 14844 0
-9718 2721 0
-2285 13754 0
-6006 -2178 0
-554 4822 0
-12450 108 0
13550 3189 0
10906 -691 0
-3266 -7254 0
3552 -2357 0
14588 -10286 0
4476 13857 0
-8879 8329 0
-1164 -6115 0
8903 -6085 0
-13230 -12761 0
-14851 -14214 0
2518 -2692 0
9501 -2963 0
-6509 2423 0
8989 15260 0
-4037 -3382 0
15521 -4095 0
2786 -4293 0
12861 1384 0
-15195 5740 0
11778 8078 0
4296 10992 0
-4123 8555 0
9743 15229 0
-14688 8785 0
-8578 -15437 0
3141 6673 0
-4961 1163 0
-2285 11737 0
13281 -9322 0
7349 10714 0
-14171 6613 0
-4066 -14350 0
-1567 -1218 0
-62 4149 0
13720 -7211 0
8292 -9626 0
12228 -4988 0
-15263 -6662 0
-15323 -11406 0
-10419 -8621 0
175 7958 0
-8721 -12504 0
-5245 -1797 0
-5553 2555 0
-14732 -148 0
10624 -14783 0
4032 -5871 0
-2903 9907 0
-7924 11109 0
-7527 3606 0
7686 5622 0
-5260 -1591 0
11625 -14060 0
-11223 6444 0
-9019 6162 0
-12957 13859 0
9801 9681 0
-3704 1452 0
11462 -5097 0
7780 7152 0
2555 -12916 0
14466 5484 0
5659 -8975 0
9129 -10344 0
8648 4355 0
12014 -4040 0
5144 -1189 0
7223 6208 0
2515 2197 0
2410 10272 0
10194 -6104 0
498 5742 0
2876 -12838 0
9692 5159 0
11538 10562 0
3606 1470 0
13250 -7559 0
6493 1826 0
-9785 7982 0
-12661 2821 0
-1560 -8114 0
-5849 -3115 0
5248 -11508 0
10396 11731 0
14623 11166 0
-2160 5358 0
-6530 2675 0
5873 14796 0
-11230 477 0
-5402 2801 0
4682 8661 0
894 -3357 0
-1474 4282 0
-10366 -6588 0
5589 -12248 0
-11724 -227 0
-14284 -3480 0
-12671 5589 0
-11318 -14971 0
8744 -14420 0
8995 -13110 0
7155 -3540 0
11747 -13320 0
14992 8923 0
-10555 3933 0
-11552 11009 0
11156 -2280 0
199 15348 0
-7364 -7359 0
-10521 10010 0
11354 -3290 0
-4273 6884 0
-5195 -3354 0
-3383 5743 0
1801 15143 0
4069 -3988 0
-10901 3971 0
8322 10054 0
-13321 8002 0
-11642 -15063 0
2301 -14144 0
9381 11706 0
-15166 -9220 0
-11088 8792 0
11222 12061 0
-3663 -14093 0
4804 -760 0
939 6574 0
11898 -9055 0
-8569 -4202 0
9853 -9137 0
-10452 5818 0
-126 9797 0
11575 -14308 0
-2449 -7299 0
3190 1501 0
-12941 -852 0
-4942 -2835 0
-4780 14384 0
13449 1201 0
6398 -15207 0
7873 13708 0
-12994 13977 0
-11006 11253 0
6382 -2768 0
-5058 -8006 0
3530 14537 0
-5534 -10273 0
-5795 3095 0
272 -10776 0
-11011 -4643 0
7346 -5358 0
11319 -8033 0
-11084 15415 0
-717 -13303 0
3487 15403 0
-15403 6099 0
-1967 -13910 0
808 -12700 0
13676 9408 0
-14166 -6270 0
-10155 -13121 0
-11172 -926 0
12879 8460 0
-4572 4153 0
-13523 -6485 0
-8397 14353 0
-10854 9493 0
11438 12883 0
-5225 -2796 0
-15474 -439 0
-3448 12384 0
-2711 -1083 0
10726 -10509 0
4948 6492 0
-6712 7963 0
-2 14080 0
-14288 15384 0
249 -9431 0
-4674 10312 0
-7550 400 0
-201 -4674 0
481 1597 0
-9647 -6866 0
14139 -6654 0
-1975 -13841 0
4565 -9670 0
12580 -10154 0
8073 -1333 0
14566 -5737 0
2361 -14604 0
3305 -13851 0
9495 3055 0
12034 -4076 0
-4644 95 0
-10077 5337 0
2682 11219 0
146 -3156 0
-6164 -4058 0
14281 5077 0
11250 -15269 0
-13073 13194 0
15297 -1010 0
7060 7364 0
1653 -3611 0
300 -5457 0
-4055 -3737 0
-12633 8286 0
13244 -12694 0
15353 -8527 0
13364 8347 0
7788 -10039 0
2193 7047 0
7952 -421 0
2127 -8976 0
3763 6223 0
-8811 4884 0
61 4338 0
-13763 -14667 0
10476 -576 0
4833 15068 0
-5267 12981 0
-12687 -14716 0
-5006 -14904 0
2523 14766 0
-2599 -4657 0
-12755 10581 0
12769 15431 0
-1151 13072 0
-14058 10573 0
14429 -12267 0
4570 2977 0
7947 -7493 0
6069 10718 0
2114 13555 0
9488 4099 0
13248 -8404 0
-5857 4904 0
-2713 14082 0
-12084 -3262 0
-1779 -12773 0
7769 8956 0
-4734 6836 0
-12295 -6454 0
4586 9275 0
1465 14606 0
-1151 -286 0
8 3177 0
-14176 -7138 0
12310 -13336 0
12972 14305 0
-4275 9627 0
-15459 5497 0
4537 11653 0
-14934 -13048 0
-6676 9899 0
-5938 7649 0
9773 9817 0
2358 -3406 0
-15358 -1835 0
7455 -728 0
-3296 -6951 0
-8761 11386 0
1917 10059 0
-6828 -8633 0
2255 7633 0
10784 -2618 0
-15198 -11282 0
9254 3738 0
3043 -2131 0
14160 14139 0
-12202 11293 0
8149 784 0
14869 12497 0
13958 11826 0
4671 -3887 0
29 4708 0
-12198 -11846 0
6559 -15366 0
-8037 4826 0
-4967 -6071 0
-1304 898 0
12449 5576 0
13340 -14286 0
14562 2643 0
-1170 13107 0
13973 -7138 0
4953 -1644 0
13650 -6978 0
-11225 -9710 0
-8676 4862 0
14125 -14334 0
-3898 -4901 0
13812 -11409 0
-3179 12739 0
-10946 14636 0
-1548 12459 0
14532 -11546 0
6785 10474 0
-10942 10802 0
431 622 0
7629 -13074 0
13074 10890 0
-11458 12467 0
-13895 -11068 0
-14830 10604 0
-1280 3958 0
4260 -860 0
3753 15064 0
918 -10933 0
12940 7909 0
-15126 -3772 0
-4298 -12639 0
12576 8934 0
3778 10982 0
-11392 10869 0
12070 -13940 0
-11731 -1245 0
-1477 5291 0
6817 14560 0
-13558 -9890 0
-11390 -4021 0
-8881 -1115 0
-6972 4468 0
9951 -13101 0
-14744 7746 0
7277 -2434 0
10461 -7818 0
-6955 10378 0
3315 3690 0
-14835 -3054 0
8576 -6170 0
-3072 -8478 0
10454 -14826 0
9260 -3917 0
14012 123 0
10659 1547 0
-6299 1501 0
-6030 -5580 0
-13649 7335 0
-2824 14878 0
-14459 14541 0
-838 6393 0
2605 -12162 0
4528 11180 0
-12731 -5113 0
-12772 -8921 0
-2725 15416 0
9054 7307 0
-2660 645 0
-3539 1583 0
-8724 8654 0
-11008 -13584 0
-12950 -8980 0
1005 140 0
-8909 -8121 0
-8878 -10252 0
765 4942 0
2579 -3974 0
2182 4424 0
6712 14075 0
-15225 11933 0
-7390 -3042 0
6801 1704 0
-7129 211 0
12536 941 0
-2404 4113 0
1948 10847 0
12822 2494 0
10967 12891 0
15291 13889 0
10695 5548 0
-5847 -3998 0
9180 -9986 0
12495 14375 0
-12199 2337 0
4950 -14084 0
-660 -3053 0
-5838 -5042 0
13155 1527 0
-9590 -9812 0
-2499 9647 0
-8853 -10930 0
-4610 8853 0
-6353 -2665 0
8735 3186 0
8767 -9353 0
-3452 -15340 0
-12557 12968 0
8761 3129 0
5574 8465 0
-8505 -4989 0
-684 2 0
-13746 13076 0
-9318 -11866 0
-4699 9303 0
10522 -11611 0
-6748 3506 0
14982 12714 0
10492 9897 0
-13499 -7437 0
6224 7305 0
-2389 7883 0
12892 -8676 0
13970 -2079 0
118 12953 0
7677 -12098 0
-10162 7124 0
-5353 15073 0
3059 -7027 0
12835 10378 0
-8748 6934 0
-9674 -12514 0
8686 9464 0
-13539 3455 0
14407 889 0
4166 384 0
-7809 1243 0
12087 -3235 0
-1315 -10823 0
-5013 6830 0
10064 -6970 0
14559 -7040 0
-6633 -5877 0
13368 8447 0
12673 13524 0
-13085 10345 0
-10398 -1261 0
-5407 -15548 0
12942 441 0
-908 7626 0
-2919 1111 0
8257 -10024 0
7586 -12019 0
-2578 14908 0
4225 13874 0
-12501 6121 0
12749 -8400 0
-10394 -910 0
-10279 -6926 0
-6578 2630 0
6453 8936 0
8847 -10304 0
-3444 4145 0
-5684 1423 0
4003 -4090 0
11292 -11779 0
-6479 -7286 0
-1415 -7481 0
-2912 -5477 0
-6903 -14582 0
9716 -14811 0
11530 -7157 0
13733 13003 0
-3836 4102 0
882 9869 0
-9958 -4630 0
8960 2791 0
-14589 3821 0
-5459 14027 0
-2560 -2610 0
3830 -4093 0
-60 -1204 0
-10479 8294 0
-7248 -426 0
-13726 -662 0
-2466 14724 0
7868 3627 0
9442 -9292 0
-4981 -3140 0
-14779 -2425 0
-806 11422 0
-14485 14609 0
-10822 11255 0
-5647 -9026 0
10962 -296 0
-14597 2659 0
13874 -13322 0
10443 14901 0
-12531 -14841 0
3434 12798 0
1256 -13640 0
11675 -6757 0
-2255 12302 0
-6875 -14372 0
-9057 -8539 0
346 -563 0
7806 -372 0
-4529 -6635 0
-9656 12 0
-3301 -5844 0
12586 4584 0
5916 2378 0
-6716 -2107 0
14693 11170 0
12249 8112 0
10765 1288 0
10483 14828 0
-11310 4769 0
-2135 11030 0
-10548 -4446 0
12820 -15363 0
2405 5030 0
-8439 -15160 0
2535 -12314 0
-12696 6306 0
-1233 -2891 0
2979 4456 0
-12062 -9232 0
5530 9424 0
-6319 -9661 0
-854 -5861 0
-15457 -5574 0
-14191 -73 0
-10414 -5520 0
-197 4232 0
1315 12808 0
-8120 224 0
9852 4300 0
3400 4154 0
-3338 2785 0
-2535 14247 0
-2298 -10649 0
8022 -10972 0
-11149 -12488 0
-3768 -10014 0
7724 12751 0
-9298 -4634 0
805 2256 0
-11564 -2509 0
-9011 14091 0
-7002 -4047 0
2572 -12696 0
11068 5065 0
-5393 -12833 0
3898 -5689 0
-3873 1555 0
10323 603 0
-15358 -8328 0
2800 14730 0
-8285 -12813 0
-6979 15006 0
-6376 2989 0
-15341 4629 0
-10909 11456 0
7963 10633 0
-13579 -1932 0
-3970 5117 0
11378 13158 0
-4554 -2721 0
-2375 -11856 0
-8545 10057 0
5497 10937 0
12803 2635 0
9778 -5505 0
-1595 -53 0
5107 4072 0
-7066 8619 0
-3845 -6535 0
4548 4266 0
9448 -14209 0
-9405 464 0
-3151 5555 0
14936 13365 0
-4690 -14787 0
-11651 1783 0
12394 3096 0
14065 7950 0
1787 12381 0
678 -12420 0
9921 -11805 0
1506 139 0
4837 -14617 0
11297 11854 0
11859 -10685 0
-12905 5236 0
-15049 6778 0
7358 -10880 0
8775 -4893 0
-11104 -3073 0
-15320 12724 0
-8846 -2639 0
-8984 4093 0
11721 -4019 0
2957 -7173 0
-10910 -189 0
2371 -14097 0
7832 -12647 0
-9126 -3572 0
14601 -12434 0
4320 -1399 0
6190 7565 0
14584 2276 0
-15031 -12952 0
-7101 2069 0
-4879 6610 0
-8692 11163 0
4956 1898 0
5091 -14156 0
-6328 4558 0
-7612 559 0
6344 4497 0
7840 14858 0
-4570 4448 0
-3958 2903 0
14436 -4503 0
10138 -14891 0
-3053 -14428 0
-9575 2362 0
-7962 9975 0
5415 7462 0
4341 711 0
443 -3164 0
-13001 7655 0
-15245 6676 0
10158 -14598 0
-14418 -15304 0
-2827 9442 0
13900 -4396 0
9090 -890 0
-12992 14969 0
536 3925 0
6143 2519 0
1534 -15409 0
12238 4547 0
-262 11845 0
-2413 -12482 0
10482 8640 0
-5130 10052 0
8549 7611 0
-649 -10193 0
-4770 10287 0
-1650 -13109 0
-5204 -6803 0
13470 -11823 0
-10944 -4484 0
-3213 5264 0
-3572 -6680 0
13903 -4202 0
-8894 -10260 0
-5196 11432 0
14028 6613 0
14065 -5398 0
14805 -10299 0
-12334 10649 0
-10344 -5057 0
-5404 -9766 0
-6818 1436 0
-12181 5775 0
-4007 -444 0
6063 12229 0
6511 -5700 0
-12902 -4077 0
8265 4105 0
-3958 10206 0
3009 10538 0
-11935 -15118 0
433 -2823 0
9280 -1627 0
2750 -4087 0
-5595 4227 0
15084 -3040 0
6565 -12736 0
12685 -4666 0
-9332 -4169 0
-8876 -7901 0
-4091 -6338 0
-2671 -8535 0
8059 -4967 0
2558 12033 0
13954 11137 0
7798 7906 0
12777 -7662 0
-3367 5406 0
-339 4006 0
3950 10263 0
11059 1044 0
406 4697 0
-6022 5309 0
-1062 -14020 0
4930 -2012 0
-4882 14755 0
12695 -5588 0
-1429 -13552 0
3178 8073 0
-6616 -5108 0
9007 -12906 0
3159 14435 0
-10842 -10685 0
-6675 -10092 0
1978 -10656 0
1613 5031 0
12235 -14487 0
14682 -6860 0
-6437 2242 0
-6821 13316 0
3930 -11384 0
15277 -10767 0
3879 14719 0
-1496 1678 0
-13985 12796 0
220 14585 0
-1109 -1606 0
-9121 1489 0
15187 -13978 0
-4096 -10297 0
-6750 -3754 0
11126 -9049 0
-3681 -2766 0
6744 3389 0
-4597 6724 0
-14938 -3084 0
1163 803 0
-10346 9691 0
-14287 14673 0
1502 -7363 0
13777 -13408 0
4271 2792 0
2004 3952 0
-10402 -1325 0
11463 3497 0
-13963 -12216 0
2652 1510 0
4485 14768 0
-12805 3712 0
5626 -14078 0
9143 -10200 0
-5125 2859 0
-2382 6980 0
-2355 -13986 0
13432 14969 0
1268 212 0
6635 3837 0
790 4398 0
14027 4333 0
9111 7643 0
15496 2718 0
7334 3539 0
-5045 -8590 0
8798 -11785 0
-13421 11915 0
10655 -1083 0
10534 4812 0
13510 12051 0
-5667 -11262 0
10484 -5872 0
915 6416 0
8154 13258 0
3187 13343 0
-12281 6054 0
-105 7774 0
8861 -7996 0
-12005 -2195 0
4684 -6467 0
14173 -4573 0
7179 -14785 0
8473 4547 0
1957 -9916 0
8483 -14466 0
12794 -3838 0
7096 -3533 0
9218 14943 0
-12200 1469 0
3242 -3104 0
59 -7415 0
-7555 -6374 0
6669 -3348 0
4485 -14658 0
7708 -12182 0
11456 -11804 0
-12259 12442 0
2940 -2761 0
-14231 -9160 0
-14014 2275 0
-13162 2047 0
-2461 8671 0
11718 -13430 0
-12846 10174 0
-3657 14561 0
-8517 -11910 0
12549 -13988 0
-2531 -2735 0
-11597 -7958 0
5444 12871 0
-260 -6030 0
4555 -11963 0
10770 -97 0
-7939 -8526 0
10385 -7023 0
-12148 -10518 0
-10179 1173 0
13351 -3048 0
-13747 9710 0
14487 -11921 0
7320 5092 0
4658 -12213 0
-15106 9780 0
3658 -3267 0
2325 -4601 0
-4148 -11102 0
-9688 14821 0
-7350 15360 0
-14704 14896 0
-141 -4706 0
-723 -15223 0
946 -11726 0
6507 4243 0
-10329 -2791 0
-902 13459 0
-8201 -14746 0
-12051 -10026 0
-1259 11931 0
-12202 -4825 0
-9957 -12853 0
7735 441 0
-3475 -6540 0
-3544 7321 0
-7645 1982 0
5007 12470 0
-159 -206 0
-14328 4549 0
-9626 -14174 0
4116 -15244 0
-2834 14465 0
12669 3309 0
602 9145 0
-10185 -8092 0
-13375 3900 0
-8270 -1071 0
-9035 -10426 0
-57 7615 0
-10179 3881 0
12962 9432 0
-4816 -14958 0
-1521 -8156 0
-9946 10815 0
-13103 -11640 0
1537 -13389 0
6545 12604 0
-15216 -11831 0
-4937 2530 0
14833 -9648 0
2378 15497 0
-10054 15445 0
7414 -14177 0
10242 -6438 0
9451 -4019 0
-1692 14477 0
12615 735 0
-13725 7062 0
12661 -10817 0
-9651 73 0
-13819 5454 0
10198 -189 0
-1224 -1131 0
-1000 -8344 0
-2487 7106 0
-4835 9870 0
14412 11709 0
3564 -11823 0
12224 -2427 0
7434 9677 0
-1951 -9276 0
6958 -8691 0
10810 7114 0
9244 -8339 0
-9952 11127 0
-2638 272 0
-12375 -12505 0
-858 -1312 0
-3204 -13120 0
-4231 4822 0
-1474 3437 0
10889 -12285 0
12773 -5298 0
3928 -3736 0
-14920 5142 0
9227 1105 0
-4804 -8672 0
-9558 1648 0
-2216 -11555 0
34 -1924 0
-1857 9100 0
-11236 -11030 0
-1083 13421 0
2638 -13198 0
14260 11467 0
6902 -3401 0
-10915 -3791 0
-13924 -14175 0
4796 -3139 0
2043 -4353 0
-2522 6765 0
13869 -12565 0
3186 -12254 0
13017 -4764 0
3871 -7466 0
-8519 3787 0
12368 -9454 0
12438 3605 0
-4305 12358 0
10449 5198 0
-9509 -13367 0
2729 6593 0
-14679 5804 0
-14663 4489 0
-4631 7437 0
5612 -8243 0
8755 9531 0
-11264 12754 0
-9833 1578 0
8464 -12627 0
7349 4107 0
-12201 9610 0
8416 12245 0
9675 -3488 0
-1927 -13849 0
-2759 -3901 0
14193 -10027 0
156 -10637 0
11289 7271 0
1841 4910 0
-8975 -10904 0
-10066 -6862 0
-11263 -4460 0
-12176 14564 0
2855 249 0
-2766 7566 0
7407 -6049 0
6983 11389 0
11351 -9000 0
7784 -14224 0
-4033 -8079 0
-448 2376 0
-13258 -748 0
15527 6948 0
-1830 12998 0
4014 -485 0
-12939 -1100 0
-12616 -12728 0
-9573 12261 0
6203 11999 0
-9836 -15285 0
-2152 -9891 0
-6871 -5523 0
676 13480 0
401 -13058 0
-10090 3138 0
-14887 -4043 0
-11550 13138 0
-7439 -5702 0
-9348 -13854 0
13161 13886 0
-13371 8135 0
-7169 -438 0
-310 -8621 0
-15331 -6525 0
9966 4972 0
-12308 12036 0
-13653 14242 0
7225 264 0
6932 2738 0
-8036 13366 0
11507 -3109 0
-5698 -7590 0
9589 -4345 0
-9451 -12716 0
-7444 7185 0
5446 -685 0
-10832 12054 0
-4530 -10597 0
3355 -2625 0
-1159 -10242 0
-12042 -13049 0
-14109 873 0
4585 -4243 0
11607 -8312 0
-3620 -14511 0
-10 -7122 0
7326 -11024 0
4034 1541 0
3615 -6494 0
4417 -13482 0
-11019 10432 0
8185 -227 0
-3038 -6237 0
-12110 -13249 0
7389 -8735 0
1884 -14542 0
1527 12768 0
5595 -10627 0
8692 -552 0
4573 -2777 0
-10518 12046 0
-12580 12894 0
-5485 -14613 0
-5534 -7419 0
-8992 4648 0
-10252 -9903 0
-14655 1617 0
-8888 -10773 0
-15103 4971 0
4263 -7706 0
4822 -3903 0
13497 2005 0
-3295 -8886 0
11761 11696 0
12052 11500 0
-4190 -7600 0
-12596 12036 0
11255 -15501 0
9884 14745 0
-5221 -3157 0
-3269 -1555 0
-15065 5948 0
8557 9830 0
-8535 -10702 0
13258 -12677 0
-11614 1118 0
10412 -9088 0
-12639 7822 0
5080 -6016 0
-4219 -3567 0
12188 10825 0
500 -11234 0
4015 2857 0
10605 -9674 0
8714 8447 0
-6880 13522 0
11299 2539 0
-7238 -9686 0
-9936 -1568 0
-3695 12120 0
-12391 -12244 0
-9811 8321 0
13085 -15562 0
-8668 13716 0
-11581 4046 0
69 -13299 0
-2473 6312 0
6903 4854 0
-15417 -10959 0
7101 -1405 0
15554 11294 0
2243 -12370 0
536 -15060 0
-362 13587 0
-2601 3396 0
-13867 -7106 0
11793 4964 0
9662 -4724 0
-8873 -6689 0
-6639 12408 0
-10727 2153 0
-2122 14242 0
-2655 2771 0
-8546 12480 0
-10266 -10500 0
1575 8087 0
6480 -11565 0
10034 -13669 0
-2541 -10986 0
2113 -11367 0
9930 -111 0
-8503 534 0
6202 6187 0
6211 6570 0
3783 14281 0
-2101 10480 0
4103 -4346 0
12857 -11537 0
-5769 -6556 0
4989 -10085 0
-3847 9652 0
5696 -1162 0
-13738 -9650 0
-8632 -4573 0
-12247 -3294 0
-4685 12971 0
3049 284 0
1822 9838 0
11102 -13849 0
1244 617 0
-6587 5277 0
-2023 308 0
6978 -2609 0
-9301 2289 0
5991 -13990 0
-11135 397 0
15014 -1317 0
4450 -10856 0
-7448 -4380 0
13982 -3267 0
-1490 -13886 0
-10919 3836 0
13994 5319 0
-8853 -14055 0
-14016 6662 0
9060 -7644 0
-4283 -10545 0
-11303 5266 0
7810 -11620 0
12565 3496 0
13966 -9168 0
11371 1128 0
10064 13295 0
-10147 6303 0
12859 13712 0
6825 14435 0
-186 -8903 0
3622 -7589 0
13257 -12259 0
5347 14575 0
6343 2932 0
-7442 -12516 0
2648 -5244 0
-6751 -9689 0
7225 3024 0
-14313 -5113 0
-172 -9777 0
-5257 -7721 0
-6757 2474 0
12427 -651 0
-6719 -4853 0
3177 14041 0
-6720 2820 0
13781 5028 0
-11580 -1363 0
14691 14982 0
10759 6119 0
-12182 -9605 0
-9702 10894 0
285 15475 0
-3368 77 0
8530 -11365 0
-15265 -5242 0
-2498 -5115 0
-4470 14192 0
-2195 -4529 0
-11445 -11325 0
-10375 -1927 0
-1056 -15024 0
5614 -11192 0
-8079 -1672 0
-10061 -6971 0
6653 15231 0
-12952 -5494 0
15063 -4175 0
14513 -1528 0
-9991 -6795 0
4272 13717 0
-4367 5527 0
312 -8884 0
7319 12179 0
4708 1894 0
11242 -1782 0
15009 13167 0
13144 -5259 0
-7739 15030 0
-15145 13 0
8938 -1304 0
5399 -3219 0
-12551 -4256 0
7104 147 0
-10144 6633 0
12205 -6128 0
1354 13109 0
14404 -13232 0
12753 -14967 0
15477 -11252 0
2723 -5557 0
-14475 4906 0
-3825 8570 0
-3486 12116 0
10925 13085 0
12750 10574 0
4372 -6906 0
12283 -11835 0
2703 -11683 0
-13099 8328 0
-6816 -5842 0
298 12539 0
8192 -3574 0
6955 4207 0
9865 -7417 0
1853 -8344 0
-13437 11071 0
13500 1768 0
-14806 3689 0
3422 4654 0
-3674 13833 0
13591 12722 0
-784 1165 0
-6684 7656 0
417 -820 0
3732 -5584 0
15245 -4247 0
-2289 386 0
2443 8180 0
3441 -199 0
-7002 -8181 0
-8971 -10451 0
-9109 -10306 0
-1505 10936 0
-12540 8478 0
-11683 3900 0
-13288 -9121 0
-13406 -996 0
13350 12112 0
-13825 9432 0
9312 13211 0
7768 -9136 0
-6445 1709 0
6373 -9536 0
-5461 4850 0
-2071 -5861 0
-6711 5478 0
-2465 13102 0
-13801 12296 0
4570 5421 0
-6050 -4940 0
13853 -4870 0
-8714 -12136 0
1435 -8206 0
-15019 -827 0
8298 7133 0
-342 -11008 0
15105 -14884 0
-481 -8135 0
-14429 5553 0
13899 -711 0
10287 -13554 0
14347 2810 0
11399 -13668 0
3117 3139 0
4508 -4797 0
-14207 -7150 0
-11342 -7417 0
-12102 -12092 0
-6318 -12583 0
-1573 -13687 0
-9843 -14922 0
-320 10936 0
-9640 7791 0
10301 -137 0
-6101 8023 0
-15320 -6957 0
7566 6203 0
5139 9500 0
-3278 -7996 0
-13472 607 0
1947 1149 0
-15542 -7259 0
-7337 -7181 0
-8921 -4484 0
13840 15192 0
-14135 14469 0
-4262 3252 0
15140 10565 0
-154 -13962 0
-3929 10047 0
5700 4379 0
7178 -2832 0
13203 10348 0
1717 10882 0
708 -1693 0
-11510 5113 0
-11052 -10574 0
12373 12299 0
15516 -7159 0
8892 8770 0
2585 226 0
1486 3581 0
-3418 -10019 0
-13460 7133 0
4581 -2639 0
7679 -4634 0
-6837 13977 0
1884 -5961 0
-7450 -4865 0
13154 12164 0
10392 10455 0
6538 -4410 0
-8816 -6750 0
-3932 -8199 0
-15203 4581 0
-13677 -13007 0
5694 -1075 0
1194 4704 0
4406 11556 0
3876 2174 0
12032 -2839 0
5864 -15262 0
6280 -10501 0
-13571 -14851 0
7792 -9132 0
-11294 7983 0
-5767 11301 0
-14346 -1637 0
10022 -6467 0
12080 -13354 0
-7583 5463 0
-9745 -4792 0
1013 8602 0
11260 13181 0
-9411 -10687 0
4379 -12352 0
-2632 4449 0
-2563 -4704 0
-12623 -14619 0
-3445 550 0
-12934 -11568 0
-14464 11421 0
12481 1594 0
-12451 -8029 0
11512 -12260 0
-10005 5835 0
-11150 -14892 0
-567 -2323 0
-1852 1918 0
-4518 -9467 0
8406 -9317 0
13909 9524 0
-8297 917 0
4333 -11439 0
2840 13924 0
4888 -5649 0
10189 6886 0
11159 530 0
9925 -6123 0
5013 11802 0
7136 13425 0
1101 -9598 0
-6884 -722 0
5133 -4103 0
-9946 -440 0
-4863 7976 0
6414 -10470 0
440 13897 0
-7406 5760 0
1033 -3352 0
10279 7634 0
-12127 -8322 0
-8225 3142 0
-171 13632 0
-6823 -3687 0
-3214 -12795 0
9016 -15378 0
4276 14908 0
-11442 15269 0
6770 2847 0
-293 12969 0
13568 9154 0
11285 -9953 0
-10055 -10313 0
-15154 -7329 0
-10541 8895 0
-3722 -11676 0
719 -9577 0
14605 13644 0
6264 14652 0
8854 -11093 0
10500 7712 0
-3489 1990 0
3628 4072 0
-9198 -9940 0
14493 2243 0
4461 9923 0
13450 6492 0
-10187 -2989 0
803 -14266 0
-6906 7266 0
8680 -11406 0
-348 12414 0
-8010 14278 0
8302 8289 0
6367 8227 0
-1987 9294 0
-14845 -4284 0
1784 -6983 0
-12303 -13418 0
2729 14581 0
12459 522 0
-2940 -13851 0
-573 6681 0
10951 -1836 0
-12522 -13007 0
-3474 -8482 0
-3099 3292 0
-14623 11886 0
1590 -13739 0
-11833 2591 0
-11784 -12500 0
-2784 -11152 0
-13787 12813 0
7504 -583 0
-8730 13125 0
-483 -14637 0
-10360 -4907 0
5301 -2475 0
-12718 -12631 0
-164 14471 0
-8184 7895 0
6034 3499 0
-6342 -14790 0
15553 2871 0
-13052 11669 0
-14571 -3256 0
9082 10254 0
6823 -12429 0
3675 -13665 0
8995 -2044 0
-13770 -9215 0
8064 8737 0
7482 -13213 0
8686 14494 0
8682 -11002 0
-11563 -14869 0
5753 2216 0
2636 -7192 0
-4576 -12203 0
4080 -1521 0
5289 8414 0
-1071 -5338 0
-7439 -12522 0
4936 12315 0
11342 -7785 0
2104 -7336 0
-4877 -6803 0
-10235 6711 0
14344 2782 0
7172 -5712 0
7127 -3972 0
-341 4496 0
-2089 -11547 0
-12679 -9979 0
-2886 15109 0
-5092 -14300 0
11791 2837 0
6992 3781 0
1979 -479 0
42 -13192 0
1455 -6464 0
-10254 13169 0
-8410 -13783 0
-9340 13450 0
-3883 -6430 0
4710 5269 0
7027 8948 0
-7887 6936 0
7903 -13301 0
10603 -2902 0
3568 -9525 0
-10452 10115 0
14787 9000 0
-1393 11102 0
12388 2748 0
-4956 14026 0
-9371 4435 0
6244 360 0
5210 -7587 0
15482 2554 0
9029 -15178 0
-14133 -7259 0
1706 2290 0
-9989 -8825 0
1754 8206 0
-4572 15208 0
15011 -2820 0
6706 10861 0
-2810 6044 0
13599 10919 0
2887 -2927 0
-12797 14364 0
13871 -3013 0
-14812 -9598 0
-3667 3046 0
2030 8906 0
-3129 5391 0
-9615 -12045 0
-4151 -12181 0
1906 -7888 0
-1261 -7804 0
-10373 7950 0
8597 -13940 0
-9844 -9025 0
-8050 11176 0
-8998 7976 0
14168 -11619 0
-10759 8798 0
3405 -7100 0
-13508 -2515 0
-7965 -6580 0
10069 14979 0
15109 -5786 0
1390 6833 0
14353 15167 0
15055 -7868 0
-316 5625 0
11608 -14789 0
10105 6330 0
15422 -13379 0
-9559 15315 0
9811 -1867 0
1737 5781 0
14940 -13681 0
-10616 -7098 0
-5968 -1196 0
-12737 726 0
12194 -6083 0
-2964 4661 0
-6893 4498 0
8270 -7361 0
-7777 -7 0
-5507 8349 0
7515 5371 0
2530 -6239 0
5199 11271 0
-11265 13856 0
10528 8842 0
-11947 -3212 0
10465 -10223 0
-872 -3400 0
-3951 -4964 0
4985 5229 0
11423 -7218 0
-3011 3939 0
14464 -5504 0
13116 -8596 0
-13763 -662 0
11530 -4048 0
-13198 -5407 0
5845 15379 0
-9530 -5025 0
2880 837 0
12443 15156 0
13606 4349 0
9108 12296 0
13692 10682 0
-2646 -1555 0
-372 13972 0
-5167 12901 0
-15171 -15552 0
13233 9154 0
-3887 7212 0
-17 11222 0
-11157 452 0
-3280 -13544 0
1159 -12957 0
11392 3160 0
7366 -6493 0
-2675 -13041 0
5277 1596 0
-8805 -6105 0
-3961 -5637 0
-9944 2390 0
-5967 11027 0
5106 8083 0
1240 3931 0
-6242 -15183 0
-6862 -9010 0
2841 -6123 0
-8199 -11407 0
11289 9182 0
-14279 -8814 0
5203 14401 0
7325 -14969 0
-987 3609 0
11966 -11023 0
8864 -7315 0
-12147 1150 0
15551 9451 0
-8306 -11939 0
-13192 -9175 0
4127 -8905 0
-7162 -11515 0
-7111 14098 0
-2366 7897 0
15483 -13482 0
10997 1956 0
3381 -7864 0
-7230 12662 0
1799 -348 0
6120 -12507 0
1344 -14555 0
12871 2048 0
6878 -1844 0
2048 -4426 0
6687 -12215 0
292 9614 0
9308 6630 0
14475 6737 0
-14182 -6658 0
8258 10516 0
10271 -9387 0
-12213 -14604 0
4480 12753 0
-15045 8431 0
14439 9898 0
-2856 4588 0
2610 -12664 0
-3527 -15539 0
5317 -4864 0
10142 -4331 0
10575 -1245 0
4775 -13681 0
-1883 12379 0
3505 1386 0
-8464 -4591 0
-11974 2217 0
-10176 -1830 0
14587 -6265 0
14624 1949 0
-4806 589 0
-6224 15067 0
-506 2304 0
15010 -8135 0
14598 -5419 0
15341 8058 0
8135 -11897 0
-13817 -9285 0
8685 10974 0
-8623 -6114 0
2620 14022 0
-2358 -3489 0
13433 -9434 0
6435 -8087 0
2872 13064 0
-11941 895 0
510 1774 0
10603 -7011 0
14755 -6281 0
4121 -268 0
-3471 -1489 0
-11109 14827 0
1665 2099 0
-14719 2066 0
-12898 -6240 0
-11774 -3824 0
10843 11593 0
6003 4467 0
2716 -10879 0
-1136 -13915 0
12654 4041 0
15474 -302 0
7093 -10206 0
-10319 -3651 0
-11203 3926 0
5788 15015 0
-13615 8201 0
9559 -2181 0
3647 -14372 0
-10066 -481 0
13611 12205 0
-13146 -7662 0
1696 77 0
-4958 -2722 0
7343 11976 0
8074 -11168 0
-11617 10903 0
13598 255 0
-13086 3806 0
9959 -5349 0
-1434 1977 0
4052 13396 0
-4657 12245 0
-1358 -8369 0
-1334 14304 0
11103 -13381 0
-4958 -7274 0
11550 1757 0
9407 -9282 0
13422 -13681 0
-11844 -12449 0
-5986 -1931 0
15454 1116 0
2013 6526 0
8533 -8785 0
-6649 102 0
4505 14200 0
8801 10615 0
-1972 -6483 0
-10694 10093 0
12697 -4300 0
-5664 -8298 0
-14833 -9992 0
-6732 11253 0
-13823 13221 0
-3555 -4619 0
13784 -13449 0
14796 11215 0
-3577 -15554 0
3638 3760 0
13656 11797 0
-13223 -67 0
13852 13673 0
-370 2046 0
5644 5983 0
-3818 7475 0
-15004 -8519 0
1696 551 0
-15408 -3250 0
10932 11975 0
-3698 -10269 0
9835 1684 0
-1987 13395 0
2662 -10836 0
-419 3198 0
15170 10988 0
4517 -5773 0
-8673 -12203 0
-12899 8708 0
-1484 11493 0
12881 9639 0
991 -9393 0
12409 5379 0
-559 8941 0
-11507 -14907 0
-12471 256 0
-3944 9127 0
-9584 -2383 0
5124 13357 0
-11939 13688 0
-6451 -15144 0
-8113 -6433 0
6370 3997 0
9486 -15536 0
3682 -6302 0
513 3554 0
4141 -5678 0
5733 -7251 0
-4899 -12565 0
-4792 13819 0
933 5849 0
10260 9018 0
13085 13635 0
-8075 13372 0
-3830 14530 0
14569 4084 0
9739 8762 0
-7340 -4478 0
-13153 -10032 0
13327 -12287 0
6316 9511 0
15245 4117 0
4685 -7866 0
1538 4880 0
-5537 -11165 0
6520 2114 0
6098 -4842 0
-523 -3801 0
11340 -9213 0
642 8512 0
2382 -15501 0
2740 -12335 0
895 7803 0
4877 -2351 0
10486 6905 0
1441 -2073 0
8955 -6985 0
10223 -1968 0
-12778 -7280 0
-13896 10524 0
8107 -6131 0
4617 11915 0
-2555 9909 0
5458 -13162 0
-5880 -8260 0
13895 6662 0
-10314 -420 0
-3863 11791 0
-959 15228 0
-12558 5827 0
13014 13965 0
7874 -7210 0
12280 -10488 0
8565 1272 0
9128 2269 0
11815 3293 0
-3130 756 0
12929 -3026 0
-2781 -5548 0
8220 2596 0
-8140 6525 0
10683 -10434 0
2291 -9730 0
11954 -8679 0
-7190 5309 0
8218 10940 0
12247 -13134 0
11761 1254 0
9956 -3576 0
3113 -7069 0
6509 -5578 0
-3792 -688 0
-14514 -2491 0
-15010 14336 0
-1434 -5409 0
4566 9448 0
13622 8628 0
9845 10546 0
-11339 -10477 0
-10458 8113 0
-4158 -14252 0
-13381 -4565 0
15474 -7356 0
10606 -7990 0
-9670 -15533 0
-37 -12919 0
-14666 -9361 0
13423 -15090 0
2474 9505 0
-14288 -7305 0
1486 -13099 0
-8732 8391 0
-9074 10496 0
14734 -9607 0
11528 2114 0
4141 -11343 0
-12044 -11929 0
2928 -8129 0
1084 7291 0
10587 -11359 0
-2768 -5361 0
-13049 7017 0
14202 -10369 0
10150 -10096 0
-3762 1036 0
4859 5034 0
15092 -8953 0
2942 -12665 0
-2406 -13229 0
-2329 -15253 0
13501 10399 0
709 1336 0
-8421 11593 0
-2738 -15133 0
13378 -8123 0
1901 2062 0
-11941 -9013 0
-8191 -359 0
8279 -4652 0
-658 3853 0
9632 -10034 0
363 2142 0
-4946 3542 0
6539 -9661 0
-62 -3532 0
-4215 -12169 0
-13459 -6455 0
536 2243 0
-8352 12230 0
12784 11268 0
-9762 -5457 0
9982 -9968 0
8154 -2268 0
-5010 -5551 0
-10616 -11217 0
5356 8333 0
14217 10465 0
6489 14629 0
-2798 -2573 0
427 9236 0
-7269 14575 0
-7330 -4397 0
-4565 -6787 0
-11505 -13965 0
913 9679 0
-14131 8832 0
8906 9328 0
-15471 -2 0
-8052 1045 0
-11499 -15018 0
4754 -12133 0
-5616 8857 0
-5008 -14010 0
-3902 10418 0
1818 8858 0
-9138 8159 0
-4091 -8587 0
-12079 -14296 0
-10600 -14726 0
1651 11181 0
2391 14792 0
-14434 5929 0
-104 13675 0
1167 14598 0
15023 1901 0
-929 12274 0
12981 -5890 0
-3324 6110 0
14280 -7298 0
-5714 14334 0
8882 12795 0
4949 -8941 0
-3461 -1910 0
-7979 -2766 0
3676 -12838 0
-5683 15487 0
-13564 8748 0
-8499 -11539 0
-4265 -6188 0
-3951 15030 0
9611 14110 0
-7074 -1000 0
-5868 3266 0
-8952 -14741 0
13378 -5944 0
1714 132 0
10260 11270 0
5251 14856 0
-6244 -1976 0
-8308 -11536 0
-7071 -10172 0
15012 -1983 0
398 -9361 0
-15504 -4071 0
-4388 6973 0
-7185 15241 0
7235 6335 0
-6358 3507 0
5026 9783 0
-13018 15432 0
-13297 -9751 0
-6030 10188 0
5723 1490 0
-11019 15479 0
-9056 -799 0
-696 4517 0
-5386 13438 0
-4818 13822 0
2733 5080 0
-2602 -11935 0
-4902 7791 0
-5507 -1602 0
-12932 7052 0
5899 11031 0
14688 9284 0
6557 15099 0
-12042 -13248 0
10830 12815 0
-13437 -9390 0
-10833 12550 0
-12181 1130 0
-9866 11902 0
3611 11283 0
-6996 14386 0
-11298 12128 0
3231 -10760 0
11972 -8767 0
-9735 11890 0
14949 -3677 0
4505 10296 0
12814 -10517 0
-585 -1626 0
11854 10083 0
-236 -15525 0
1629 -9629 0
6758 -10138 0
9899 10533 0
6254 3977 0
-12158 -5667 0
-1434 14586 0
-3988 -3642 0
6238 6178 0
-10783 1786 0
-7005 -5442 0
-9776 -12112 0
4166 -11412 0
14651 6008 0
-15095 10628 0
727 10668 0
8125 1270 0
3802 -6132 0
6411 -14898 0
-8025 -6549 0
4356 -4075 0
8724 3378 0
-7580 13892 0
10986 -9784 0
-5874 9786 0
-4109 669 0
9647 4211 0
-3962 -3563 0
-7933 11848 0
-4557 -9738 0
15255 3775 0
5519 -405 0
12189 7210 0
-2744 -13533 0
-203 11210 0
5225 -3022 0
-11046 6836 0
15265 -11022 0
-387 10867 0
-9444 -8025 0
9619 -7722 0
2776 2136 0
1475 11716 0
-7595 -7545 0
3435 2441 0
-3435 14356 0
-1094 -7314 0
2373 -2905 0
-11622 -4736 0
14205 11212 0
-13019 -7799 0
-2252 182 0
4980 9877 0
-9218 4871 0
-15473 10462 0
4757 -3922 0
14051 9171 0
-13246 -8463 0
-1731 -4209 0
-13507 8736 0
12269 13940 0
-7226 -8549 0
3669 -5026 0
-1999 -8660 0
-1661 11748 0
7277 -5226 0
8243 4832 0
8486 7084 0
5953 -14865 0
-3225 36 0
-3485 -9188 0
11723 8330 0
-7430 -4122 0
-6353 -3459 0
3029 15509 0
15516 15532 0
733 -163 0
7235 3248 0
10987 -1207 0
3535 -9703 0
13086 -989 0
10713 6457 0
-11427 -4977 0
-8291 -9092 0
-8499 7750 0
-10840 -7331 0
12635 2118 0
6015 -9311 0
9507 2269 0
-4604 14058 0
9616 6638 0
1769 -4362 0
10480 8078 0
1590 -5599 0
-2434 1681 0
-8521 15574 0
-12591 -12348 0
1576 10844 0
-10309 -15532 0
-1073 -7811 0
5881 -6403 0
14832 -5282 0
-13388 -5038 0
13800 1696 0
12787 11218 0
-15186 -5145 0
15550 -7412 0
11197 5731 0
-10858 -10377 0
13795 14482 0
-515 10007 0
-2601 6966 0
-12176 14753 0
8051 7065 0
-10691 2365 0
12039 3239 0
8591 -15280 0
12318 -4160 0
7621 -13028 0
-3380 -12303 0
889 -12502 0
-1312 10070 0
5067 3576 0
-8951 2056 0
-14940 -1974 0
-13806 12855 0
12775 1974 0
-12103 13617 0
9261 -10036 0
-12658 -4193 0
2042 1651 0
10424 -11459 0
-10020 -3540 0
13921 -13046 0
-200 -6377 0
3494 -2546 0
-11960 -1280 0
1967 4990 0
3429 14394 0
12715 6352 0
-7740 11896 0
10218 11845 0
-9684 15093 0
12071 -6548 0
11314 -3733 0
-12284 9117 0
-4170 -829 0
6261 8345 0
-11099 -3426 0
8913 -4281 0
-6545 -11868 0
5246 -4384 0
-6550 12322 0
-6553 -11834 0
-10659 -6858 0
-12369 -1799 0
-7788 3598 0
-3845 -8363 0
5816 432 0
7547 7307 0
8647 11724 0
-6821 2658 0
-8034 -1870 0
5919 -8642 0
-2305 12832 0
-13330 -5043 0
8172 1953 0
-9584 -13619 0
5203 10356 0
2585 -149 0
4778 5308 0
10595 -13580 0
-15268 3999 0
2623 7081 0
8468 3147 0
-11626 4517 0
-4251 10778 0
681 -9988 0
-5767 11719 0
-3702 9458 0
-252 -14993 0
11503 7031 0
6613 14820 0
-3936 -8215 0
-6839 -13568 0
-2051 11259 0
291 14637 0
-14550 -11903 0
834 -7341 0
-5396 -7752 0
14894 10991 0
-11790 11300 0
8308 6973 0
-10469 13531 0
6684 -6605 0
-7770 -9555 0
3287 -1436 0
-11861 12483 0
-12337 -1136 0
-8375 3273 0
-1855 13638 0
-14926 13720 0
14468 -2193 0
-3949 -10212 0
14424 10945 0
-12774 2091 0
-242 -14545 0
11686 9348 0
5458 14032 0
-10251 -7918 0
-6832 4833 0
15561 -4977 0
29 5212 0
15200 10587 0
-10947 12502 0
-8816 7772 0
6395 -14798 0
-2607 -1284 0
7667 7911 0
3789 -159 0
6112 4889 0
14548 -3550 0
-2328 -6194 0
-8270 4543 0
6454 -6997 0
10466 -12845 0
-3670 -863 0
13594 -3000 0
-9821 -14480 0
5834 -14277 0
2712 15466 0
-9680 2038 0
10453 -13690 0
3792 -13837 0
-913 481 0
12296 231 0
5641 12702 0
-7045 -675 0
3392 -12286 0
11609 -9577 0
-13787 -5074 0
-7108 14571 0
2077 11886 0
6139 3595 0
4449 -10587 0
-7125 10430 0
-5222 8253 0
7718 -8186 0
-1248 -12826 0
2628 -1972 0
-5239 -9568 0
-12912 -8572 0
-14180 10632 0
7687 -14521 0
-12269 -2398 0
-2436 6946 0
1706 3289 0
-13575 14438 0
-11713 8043 0
-8324 9285 0
6417 -10591 0
-9231 8847 0
-7067 14810 0
2271 -13653 0
4584 2324 0
3652 -9515 0
-1135 -12708 0
-2823 -5910 0
-7857 3915 0
-8226 -11853 0
-9895 -4883 0
-13702 11792 0
14827 -12580 0
-1007 13491 0
10793 -3130 0
14375 -13613 0
-5520 -3763 0
9813 -14303 0
243 -2082 0
12777 -7681 0
-1629 8564 0
15161 -137 0
6539 12790 0
8213 6238 0
4836 888 0
-9230 -6339 0
8186 -12491 0
11417 5095 0
-10577 -14638 0
-13771 -3221 0
-13194 6968 0
-3648 1274 0
-2153 11972 0
14859 2786 0
1992 -4070 0
14877 -11547 0
2800 6422 0
-4589 8469 0
-9473 10188 0
3012 -5453 0
-8696 -7026 0
1154 -6549 0
-7170 -6043 0
3089 11646 0
13574 -11642 0
-7716 -6874 0
3261 -11040 0
-6262 2691 0
13476 14019 0
-192 -7279 0
448 5839 0
-515 5505 0
-6697 12223 0
10516 3681 0
-96 10157 0
15326 13814 0
-6246 6053 0
12365 -8078 0
-5245 -6908 0
-9550 11836 0
-9304 -10844 0
-3459 -3776 0
10853 -3105 0
6935 -1829 0
-2757 6501 0
-4944 -2064 0
-9794 13576 0
1637 7994 0
12266 -14709 0
-5739 8104 0
-11758 -11881 0
-10410 -13963 0
7871 -9785 0
-1485 -11409 0
14316 -3792 0
572 -14715 0
-8680 11952 0
6709 7446 0
-6435 5549 0
11660 -7263 0
-4221 -14618 0
-14370 -1883 0
-11588 -12227 0
6891 -8615 0
-10443 6148 0
1707 4196 0
1634 14006 0
-12015 1493 0
11740 -13536 0
-13476 15028 0
9043 14743 0
9518 284 0
2710 12596 0
-3369 -4536 0
596 14474 0
-3431 -2717 0
-1428 15460 0
15194 5896 0
3004 11402 0
9237 5428 0
14054 -7436 0
-2774 -15053 0
-5215 -104 0
9694 515 0
-4404 -9897 0
5344 14208 0
-15022 11812 0
-3211 -1931 0
-13681 -3051 0
-1122 -4109 0
289 -1629 0
-6243 -15096 0
-15094 1239 0
7656 9102 0
-5931 -4058 0
-2222 4420 0
13638 -8705 0
5104 -12426 0
13640 -7739 0
10382 -927 0
6924 9368 0
-8836 3277 0
9691 2232 0
11095 11854 0
-2649 8440 0
-6873 -8016 0
-12218 -3027 0
-4090 -2981 0
10106 -11349 0
-5349 6723 0
8308 -10509 0
4703 7635 0
4225 5825 0
-4414 6835 0
15466 11640 0
-6425 5079 0
4673 -3545 0
-9548 2728 0
9113 -5239 0
9848 -6281 0
-12225 -591 0
5928 6429 0
-14579 13311 0
6922 -14536 0
-10048 2351 0
4706 -14425 0
-5901 1578 0
-2557 7050 0
-5869 11194 0
-8606 -12942 0
6296 7987 0
-4831 -9266 0
9752 14794 0
-4687 7059 0
-11077 -13052 0
2211 7104 0
-1091 4990 0
-10103 2118 0
-4622 -3820 0
-11512 6003 0
-14335 -8549 0
-2088 4154 0
-10616 10579 0
13782 -405 0
7456 1545 0
-4076 9689 0
4553 -136 0
14958 -11350 0
-6090 7157 0
-13959 -14924 0
2341 -440 0
3434 9168 0
-1874 -12741 0
4350 -3468 0
-23 -5537 0
7342 -10749 0
3263 -9316 0
-11827 10986 0
-1265 1870 0
-14853 3909 0
2315 -12598 0
4420 8480 0
-3659 -3570 0
-1741 -7153 0
-2146 -15223 0
8507 -10771 0
-3756 -316 0
-4950 10871 0
-12352 9949 0
9216 13287 0
7266 -13655 0
11306 7378 0
8815 -1782 0
-13646 -11856 0
-14554 10131 0
10469 14364 0
1956 9094 0
4488 6767 0
9180 7958 0
-1345 -11360 0
-1401 -12483 0
-103 15152 0
-7705 6333 0
-7556 6184 0
-14150 12457 0
-13814 -6019 0
5474 -37 0
5730 6891 0
11548 -13728 0
-5727 1023 0
8622 -10145 0
691 4666 0
-1961 13962 0
-9513 -15514 0
-15474 -2993 0
-2744 12207 0
11681 6565 0
-7978 9511 0
-1559 3785 0
-2181 -11056 0
10006 -11107 0
13560 10615 0
-8325 -10834 0
-14563 11429 0
-7715 -11778 0
-10043 14645 0
3748 -5227 0
-9628 10474 0
-1880 5945 0
-6001 1646 0
5068 13065 0
1089 -10435 0
-15536 -2480 0
1631 7505 0
11634 5201 0
-12136 -8381 0
-374 8943 0
-290 7044 0
3776 574 0
-6669 7025 0
1778 -15474 0
5447 15474 0
-2940 416 0
8785 -6121 0
13045 4108 0
-8698 -952 0
-14354 3495 0
-9364 -5926 0
-7097 10443 0
939 -6362 0
-12041 -1522 0
-4877 -7341 0
9303 -9909 0
-7051 13349 0
13061 1601 0
-13439 1074 0
5049 -1112 0
12891 -12553 0
15156 -3685 0
-10900 -10754 0
-3297 11983 0
-11915 -15399 0
-12131 11317 0
12304 -971 0
-457 3915 0
-1724 12103 0
11622 2611 0
-9072 12262 0
15256 14853 0
-6816 7250 0
-13643 -5591 0
-13174 -586 0
-12160 -2394 0
-12854 3255 0
-4814 -2985 0
8599 -13010 0
-13826 -9204 0
14318 13614 0
-1668 -15109 0
15152 3125 0
-11519 -3122 0
-14411 11106 0
-3217 4786 0
1444 -1137 0
33 -12797 0
11916 11911 0
-482 1132 0
12923 -13389 0
1569 -2093 0
-6948 -1479 0
13884 -6557 0
-10588 -3461 0
-250 4792 0
-4429 1535 0
-9984 13111 0
-3139 -1335 0
-14324 -14913 0
8392 5445 0
7929 10901 0
3053 -6881 0
12306 3678 0
-3843 11250 0
311 -11660 0
3789 11906 0
-13820 13650 0
1696 -8841 0
-15354 722 0
-12364 10849 0
-1899 -9670 0
-7611 -13040 0
12315 -7892 0
-1372 -8364 0
-13021 12297 0
-1262 -1184 0
9583 11659 0
13534 -12305 0
4686 -6901 0
1562 -3200 0
-6417 -3071 0
-10869 -3390 0
-5092 14047 0
-6632 -11055 0
7409 -5242 0
6758 -4940 0
6035 -10787 0
-13649 14169 0
7458 -13604 0
-1427 2682 0
-7371 -12185 0
-1058 1654 0
13831 12738 0
-15568 -7969 0
-1202 11190 0
-434 8250 0
-3824 2490 0
221 -8311 0
-4105 14234 0
-1512 11662 0
11041 8831 0
14511 4283 0
1339 7012 0
-6836 9716 0
-13767 -938 0
14019 -14032 0
-4347 6313 0
6193 8816 0
-5207 15144 0
2097 -9410 0
-11168 -15219 0
-7717 -3064 0
-9458 -2970 0
11356 -12943 0
-8287 7211 0
11997 -5005 0
5990 -13871 0
-8395 5777 0
12229 1327 0
10855 -7496 0
-9382 -6588 0
-3487 8111 0
8319 -3454 0
-15266 9944 0
5827 -4520 0
-12353 875 0
1306 12413 0
11580 1531 0
11538 -11499 0
-197 -11050 0
-11284 -13185 0
11117 -5042 0
-3348 -7243 0
-13625 -10468 0
3584 2312 0
11879 -6945 0
-1851 -1787 0
-10944 -3176 0
4987 -11571 0
-11030 -15349 0
-3524 -14738 0
14768 -11346 0
6206 -3825 0
-3433 -10284 0
8258 -13229 0
-1777 -2736 0
10682 8210 0
-5124 -4300 0
-326 3291 0
-10391 3493 0
-7841 4514 0
-9051 -6531 0
684 -4962 0
4455 6892 0
-12526 -10514 0
10697 14051 0
5399 10770 0
-5023 3850 0
8486 -1688 0
-10208 2938 0
-1703 -12957 0
-3005 -14015 0
1666 347 0
-9690 -12991 0
-11537 4098 0
-14889 -8229 0
-11627 -13318 0
8032 -15070 0
-2303 10049 0
3151 9301 0
14177 14281 0
3304 -13494 0
14246 3293 0
-11135 3224 0
863 -3687 0
-13802 345 0
13666 -9821 0
-6003 7233 0
-7031 4738 0
5398 1631 0
9316 -11438 0
-10195 8311 0
-15039 -6578 0
3255 10450 0
-11203 9681 0
-3747 -246 0
14682 -12191 0
14857 -649 0
12346 1621 0
7195 -3322 0
-881 -1891 0
1115 -11645 0
-10670 10032 0
15071 -3667 0
-11321 -2095 0
-1113 4873 0
5143 -190 0
15209 -11168 0
9836 -13938 0
12968 -3660 0
8395 7179 0
-11077 -14222 0
8658 -8790 0
8084 1522 0
1696 -5386 0
-6010 12330 0
14345 -12563 0
242 5713 0
8842 7390 0
-10911 -8214 0
12486 -1205 0
-5684 -1697 0
12918 -1612 0
-10836 -3837 0
2620 -13985 0
-5979 9705 0
11452 3605 0
-14811 8153 0
7792 3542 0
3443 -2422 0
3700 8906 0
10969 4609 0
222 -7801 0
-12756 6412 0
-4634 544 0
4658 -15536 0
-9748 -10552 0
-12397 -6201 0
1631 5506 0
492 -6585 0
-9014 -13560 0
12651 13866 0
-2939 -6113 0
-2893 7020 0
5072 537 0
-13460 -6569 0
6953 -5075 0
7878 -744 0
6513 13039 0
-10045 7963 0
9569 -6066 0
9508 -7767 0
-6721 -10503 0
-138 -10681 0
-8061 -9112 0
7584 -9702 0
1649 3334 0
12087 1254 0
7001 2031 0
5880 -13991 0
-402 869 0
11589 -10176 0
5845 4889 0
-2959 3499 0
-15017 -2036 0
3211 -13808 0
-13614 -1555 0
8425 -10094 0
-14279 -11107 0
-2215 -9975 0
-1773 8707 0
8715 5724 0
-7841 -739 0
-10024 1966 0
7923 -926 0
-9174 14356 0
7427 12602 0
5856 -5733 0
7173 3869 0
5726 7489 0
-8969 118 0
-14351 -14298 0
15319 -10146 0
-814 13586 0
-12594 13409 0
1903 -4471 0
-9740 12419 0
11729 15474 0
-3129 -13423 0
-12655 -4791 0
-15413 -8261 0
234 7505 0
-9410 10066 0
3592 6625 0
15512 -10229 0
-7299 -3181 0
-15381 -5026 0
809 11670 0
-7638 11171 0
-7105 -10756 0
9122 15411 0
-3038 -14917 0
-8306 10960 0
2935 380 0
-12949 -13548 0
2307 6638 0
12184 -4241 0
-617 8983 0
5904 6064 0
10311 4609 0
-11647 -1081 0
2735 -11747 0
-4024 8510 0
9044 -905 0
-8463 10001 0
-6354 4922 0
-4382 -10183 0
-7674 11585 0
-10488 7186 0
7177 -12607 0
12287 -4196 0
10549 -2927 0
-1841 -4209 0
3224 -10554 0
4379 -10229 0
-12081 12410 0
14749 10340 0
7772 7921 0
-1032 -9218 0
-815 -14186 0
1621 4553 0
-11493 -1325 0
-13007 -11605 0
8112 -12441 0
-8197 -11779 0
14155 10770 0
12508 -3827 0
-1891 -110 0
13594 -6476 0
-9213 14324 0
3544 15357 0
1897 -4205 0
14987 3675 0
8177 -930 0
-14003 -14751 0
-10334 14030 0
3603 11670 0
572 12890 0
792 6990 0
-7838 11385 0
13582 4044 0
9331 -12480 0
13829 -4861 0
11548 -12906 0
13502 -4687 0
-1963 5456 0
12271 3596 0
3162 3312 0
13459 2195 0
12901 -8727 0
6493 -14755 0
-9223 -513 0
4932 14441 0
-10207 -8276 0
2977 12938 0
-6753 3317 0
-11673 11647 0
-14282 5336 0
4794 -3567 0
6784 7788 0
7064 1154 0
-2466 -10098 0
1461 11634 0
1743 2788 0
-8896 -10830 0
10867 -166 0
8536 9160 0
-13395 2535 0
-2142 -4245 0
6516 15373 0
-11940 -14161 0
250 11888 0
10044 -9819 0
2054 -3818 0
3245 2432 0
-9387 -10488 0
-8872 3597 0
2807 -7423 0
12555 14691 0
-3702 14548 0
-7632 13455 0
-11542 -11396 0
5418 -6004 0
-1924 -13480 0
1035 -5556 0
2472 251 0
8378 8137 0
-3103 -5388 0
6857 -4003 0
2871 -13216 0
13502 10319 0
7072 12761 0
-10459 -12914 0
5972 5194 0
10801 7368 0
1730 15078 0
-10199 -2927 0
-8527 -5070 0
10737 514 0
1673 -10696 0
-13984 15519 0
15469 -12276 0
-1984 8393 0
8839 6358 0
-5454 11644 0
-2994 -436 0
-13106 3807 0
-14876 5679 0
15063 -6328 0
42 -1671 0
10231 3413 0
-9112 -3632 0
-10242 -12595 0
-6221 11255 0
-12457 8086 0
3823 1413 0
-13218 8076 0
-7226 10272 0
-5075 15205 0
12101 -5830 0
-8993 -9322 0
-149 -10471 0
-5333 10294 0
-5057 -698 0
-2865 1713 0
1632 12051 0
-3881 -2017 0
-12183 4206 0
-5649 12430 0
-13379 -6899 0
10246 6069 0
-14456 282 0
6629 -3659 0
-12067 -14430 0
2168 -14959 0
-300 5072 0
2853 -5621 0
6235 7505 0
-11973 113 0
8425 15393 0
6465 -8162 0
-8567 -5535 0
-583 -8680 0
6712 -6981 0
6288 7084 0
-9542 -8931 0
5680 6594 0
12659 3945 0
1041 9997 0
2357 11615 0
-10010 12269 0
-13049 -15069 0
12514 -6175 0
13674 -11573 0
-11349 -2439 0
7092 -9655 0
-6004 -8459 0
4474 4918 0
-6520 11340 0
-9886 -14870 0
8598 -1971 0
-10692 -5332 0
5408 -9593 0
9009 -6595 0
-12150 -1394 0
-8683 -12681 0
8782 9076 0
-13159 -4348 0
6084 -15402 0
10006 -4968 0
-10850 -2978 0
-3408 -6177 0
-13803 -13292 0
11535 -3081 0
-701 13768 0
-9745 8448 0
5384 -8237 0
-6253 8212 0
13681 2047 0
10982 4973 0
4650 2670 0
-6741 -15487 0
2894 -4730 0
14038 4845 0
1584 6930 0
9571 -14860 0
15201 -5980 0
555 363 0
-7083 1686 0
4156 -766 0
-13359 12330 0
-13321 1143 0
-12930 -511 0
-3189 -10003 0
4154 12155 0
-13962 5265 0
-8408 -13998 0
5197 459 0
-13516 3431 0
-7331 7943 0
-6055 -12747 0
-10941 -10171 0
-997 12235 0
11797 2617 0
3475 -4835 0
1289 6584 0
-13140 -3726 0
5365 -8307 0
-10672 1957 0
-1782 13011 0
5864 25 0
-4150 3658 0
-3951 -6558 0
293 -12757 0
12511 -5312 0
-12181 8142 0
-12759 -1943 0
-13352 -319 0
5821 -8405 0
-14926 13470 0
-14994 -7513 0
114 -9522 0
-3524 13188 0
13134 -13624 0
980 1016 0
-13605 -5184 0
1129 2787 0
11397 -7211 0
-12751 59 0
344 -2089 0
-8661 8035 0
9356 10841 0
-2752 1822 0
-5389 14957 0
13800 -15161 0
11370 15474 0
-8910 -8405 0
-7693 14103 0
-8806 -841 0
12917 -13882 0
-2653 -5129 0
-5280 -13510 0
6219 -15417 0
-2947 -8169 0
12888 13138 0
8430 -1878 0
13302 12549 0
15559 -13742 0
606 382 0
-7203 -14274 0
-2901 3788 0
12748 7194 0
10018 -2768 0
-7368 15483 0
13663 -14414 0
-3684 -1841 0
11335 -11447 0
-940 -2134 0
12867 12613 0
-13151 -3056 0
8902 -10817 0
952 8875 0
167 -107 0
9556 -13715 0
-8052 15076 0
-7825 -4179 0
11896 -6709 0
-1007 -6710 0
10088 -13082 0
-3462 3711 0
-3249 -3506 0
-5685 -11338 0
-3358 12089 0
10174 14755 0
8442 -1320 0
7966 -9737 0
-12961 5576 0
11085 5916 0
11979 -6172 0
7434 665 0
-9448 4485 0
12754 -9932 0
-14251 7601 0
-5243 4878 0
-2286 10482 0
-5685 14751 0
9580 -3615 0
-9860 -687 0
9688 15204 0
5555 15325 0
10839 -10858 0
4658 4025 0
15352 -37 0
-11451 2126 0
-15213 14501 0
7235 -9203 0
-8029 -9960 0
-5859 13064 0
9600 2822 0
-13195 -5120 0
11766 12998 0
906 8860 0
-9500 6787 0
-8195 -1304 0
14068 10489 0
-15365 6390 0
10324 -3444 0
3788 -1041 0
2683 5438 0
-6289 1757 0
-13797 -12943 0
-11021 -8168 0
-784 6836 0
-12795 -13151 0
14514 -10036 0
-7703 14764 0
14237 664 0
1221 6357 0
-13613 4900 0
15379 4906 0
-5816 -12279 0
-13998 8154 0
-6106 1129 0
8150 4727 0
8801 -9973 0
-1043 -324 0
-13904 -14251 0
-93 1715 0
-5660 -1775 0
-7502 -9740 0
14173 -12361 0
-14292 -8614 0
13734 -14380 0
4360 -14664 0
10339 126 0
3566 -1308 0
-7309 7115 0
-7082 -12922 0
-13044 -8144 0
-15063 5586 0
-494 -12578 0
13182 -12540 0
-15488 -10683 0
5887 728 0
1567 -14841 0
10729 -1019 0
-15147 4985 0
-5187 4853 0
-1617 6268 0
38 5408 0
-11599 -6090 0
-1199 -14236 0
11790 -9593 0
-12862 -815 0
-15447 -187 0
4493 -3382 0
-4416 -8442 0
-597 -7984 0
-3065 11190 0
5875 -6791 0
1339 2274 0
2689 -5374 0
-2323 7172 0
3593 1998 0
-8813 8827 0
-11934 -2594 0
2652 -6198 0
-1529 -734 0
3100 -8407 0
-2891 5364 0
-3280 -9880 0
10829 -15368 0
3097 13508 0
6046 -5042 0
-2576 -10532 0
1776 -5941 0
-12197 2676 0
-12097 -6797 0
-13493 -9058 0
10020 3904 0
7718 5251 0
11367 9392 0
-10746 -7848 0
1580 5946 0
-9939 -2634 0
949 -7998 0
-41 13664 0
-6174 7212 0
1208 10737 0
7911 -10925 0
11413 15245 0
-12662 4294 0
5337 11987 0
-1491 -1105 0
238 2461 0
215 11474 0
7252 -7977 0
-6072 2672 0
-11379 11375 0
2351 563 0
-10101 3560 0
5086 6539 0
14155 13882 0
-10574 13897 0
3577 918 0
-9626 -4272 0
4622 -12376 0
11975 6977 0
-13242 -1971 0
-1429 -14608 0
3396 -3461 0
-15341 -14282 0
8046 13161 0
-7695 7118 0
14390 -14410 0
218 8990 0
8070 -1122 0
4023 -1605 0
13300 14861 0
1712 -5879 0
7195 14001 0
-2379 12913 0
-3224 1520 0
-8248 408 0
-271 10834 0
-9524 -12670 0
-13976 9531 0
7611 -5298 0
-6527 14856 0
11471 -1332 0
1584 15149 0
-11509 3465 0
-2885 -3615 0
4137 3593 0
-7425 -10785 0
-9660 5217 0
4831 -15311 0
11386 15156 0
-6834 15180 0
-7558 -12177 0
10313 -9598 0
-4944 553 0
6372 5974 0
-10499 5586 0
15158 -2113 0
-14362 8464 0
14786 -2187 0
-14448 -8851 0
1636 -9987 0
15512 7362 0
5648 -7910 0
1895 9691 0
15094 -13253 0
-12893 -11856 0
6289 11393 0
-9801 -12175 0
-8996 -6358 0
-11671 3166 0
-14236 -7883 0
-3206 883 0
15467 12072 0
-6945 10499 0
-2444 -3878 0
4576 -11045 0
9383 12138 0
1812 13249 0
674 -15013 0
-14731 -14963 0
-15504 8873 0
1934 7675 0
3402 -15175 0
6119 -11624 0
-2384 -12687 0
-13473 4859 0
2971 -14671 0
-13189 12497 0
10530 9146 0
3744 -14483 0
8924 -11263 0
11732 -2487 0
12949 -4421 0
-4174 -10620 0
-1560 -3720 0
8350 -4157 0
233 -164 0
-14114 15183 0
6937 12481 0
7414 2979 0
14530 13255 0
-3894 -12264 0
5853 -13232 0
9281 -10829 0
11110 -1863 0
-7875 817 0
-1993 -4019 0
-9852 -3792 0
14089 -7988 0
7514 5028 0
9591 -11316 0
13231 2065 0
-2440 11720 0
-10875 -4259 0
11873 12553 0
5162 11747 0
-5059 -3757 0
13884 219 0
-326 -13297 0
14820 -1935 0
-13825 10622 0
-11856 15204 0
10795 -7706 0
-13050 -9007 0
9165 -13554 0
-4838 12074 0
13798 1095 0
3360 -10757 0
3074 6991 0
10456 -13643 0
-10698 -327 0
-3227 10613 0
-4800 7414 0
6903 2236 0
297 -9833 0
-6195 -14023 0
15545 7969 0
-7151 12074 0
12474 1082 0
-10744 -4199 0
-4033 10916 0
-13770 -11520 0
13701 -685 0
9572 -968 0
7229 13363 0
-9354 -6848 0
-12049 1792 0
1179 -2169 0
-640 -7784 0
-12951 9845 0
-14211 1406 0
-11310 11381 0
-1279 -15103 0
12307 -10942 0
-12792 -15208 0
-9776 -13671 0
7844 5253 0
10064 8070 0
-3330 -5429 0
2347 -8307 0
-8391 -8825 0
4021 -13187 0
5695 460 0
-8012 10260 0
-5445 -5041 0
-11529 -3983 0
-12586 -15090 0
-10273 13137 0
1670 8594 0
-8584 6271 0
2727 -8491 0
4607 -2521 0
-14400 460 0
11095 -2735 0
3556 13308 0
-11316 12031 0
10011 -10875 0
-12819 -1425 0
-1385 -9492 0
-10758 199 0
-44 10801 0
14799 9901 0
10199 6218 0
-14774 -4202 0
-11373 13391 0
-4975 -9679 0
15519 7107 0
14387 15449 0
-14693 10264 0
14563 -2157 0
7749 -3387 0
-6568 -13757 0
13709 -8764 0
-460 -5678 0
15217 8228 0
7660 -15460 0
-8887 -9767 0
15201 13649 0
7773 6940 0
6930 -6052 0
13354 -358 0
11137 -6450 0
-3760 7904 0
2063 8430 0
-12047 -3423 0
-10976 1131 0
-6208 2076 0
-4376 -3517 0
14731 -6050 0
65 -4674 0
3611 4943 0
-12428 -7572 0
8224 7633 0
-11603 4427 0
1313 -14600 0
6736 3468 0
11207 3578 0
5408 2222 0
10025 -10004 0
-9971 14774 0
14618 -8505 0
-2084 -2529 0
5862 14302 0
144 -12461 0
-12700 -2065 0
3170 10162 0
1683 -9769 0
-11448 4791 0
-12412 11894 0
-456 270 0
8331 -5023 0
11188 11946 0
-4555 -1561 0
-3665 1011 0
4896 6887 0
4367 2206 0
644 8628 0
-10342 7480 0
-10071 6676 0
4383 -2295 0
-11181 12471 0
-2375 -11480 0
-1840 15449 0
-5619 14468 0
-208 -1915 0
8192 -907 0
11922 -2319 0
11969 -8857 0
14580 -4881 0
2997 14270 0
-7927 -10459 0
-13186 -6017 0
-9841 -7900 0
6434 10606 0
9633 -8167 0
13667 13930 0
15066 6112 0
-14795 -4345 0
10245 -4996 0
1133 4255 0
3110 -5652 0
11009 9913 0
9108 5756 0
8350 -8116 0
-6203 -11008 0
1926 13434 0
1908 6132 0
-10991 12848 0
1633 9409 0
3350 -6572 0
-10842 -5418 0
-7069 -12773 0
-1984 8545 0
-10024 4528 0
1256 -14776 0
10663 -8148 0
10232 12174 0
-11283 9470 0
11702 -15225 0
-6276 9804 0
11150 15339 0
15465 -2964 0
12155 9095 0
12848 7622 0
3983 5906 0
-3374 9974 0
9489 1953 0
1835 -14952 0
5923 3227 0
9072 8989 0
-14397 -13974 0
3664 2231 0
-6086 -7266 0
-1829 12779 0
-83 -4162 0
13419 12196 0
14327 -7823 0
-7351 3441 0
-11453 9489 0
14119 -9710 0
4053 6841 0
-2590 11434 0
-7364 5369 0
6228 15409 0
-4492 10239 0
7265 303 0
838 -4645 0
-4249 -4258 0
-15252 2263 0
7140 -14696 0
-1678 -13409 0
11370 -1543 0
-7673 9658 0
10668 1792 0
-7407 -4464 0
14423 -10411 0
12663 -6514 0
-3300 -14325 0
-8862 2366 0
11022 -3220 0
12917 -7170 0
12142 8725 0
-2650 9098 0
-15072 -8971 0
-10533 12401 0
-583 12406 0
14643 -9804 0
7135 -3161 0
-4321 5895 0
14711 9363 0
997 11698 0
-15398 -6349 0
6146 5818 0
5884 9977 0
-10341 -9396 0
-8846 -2403 0
-15318 -7184 0
1705 -1638 0
13958 11809 0
-8669 -1334 0
-7220 -9213 0
3544 13355 0
-3106 10410 0
3321 -290 0
15097 13637 0
7577 -13643 0
9099 10132 0
15087 6348 0
7619 419 0
-10125 -12462 0
9613 6235 0
-9379 7621 0
2166 -7658 0
673 8737 0
-15322 -5833 0
8415 -11973 0
-15290 -4287 0
-13581 4980 0
-6248 -4766 0
-9474 6019 0
5934 9581 0
14568 -3577 0
13721 68 0
-13112 -4075 0
-12146 7105 0
3117 13317 0
9075 -7379 0
5626 8644 0
-651 12837 0
-13429 -11093 0
-3362 -6722 0
10513 -7747 0
3666 11817 0
-12291 -1711 0
-13919 -1343 0
-7112 -6273 0
-5298 -8486 0
5537 -14438 0
15428 -12234 0
14834 -6470 0
-9139 -1960 0
777 13368 0
-10207 -11802 0
-14561 8975 0
-1634 -13353 0
-3974 -13349 0
7978 11175 0
-13210 -8083 0
13834 731 0
9085 -2403 0
-6765 -4079 0
15520 -1045 0
4747 -8571 0
-8403 3749 0
3549 2574 0
12895 2103 0
14496 -13789 0
-1415 -2261 0
-15279 5560 0
-7999 -1802 0
15243 -5769 0
848 -11448 0
-9563 12460 0
-937 9111 0
11961 2977 0
13788 10802 0
11176 -5105 0
3196 -2418 0
-10399 -4746 0
7206 12656 0
-1573 -13538 0
7426 -3420 0
10023 6443 0
-5985 10055 0
-6950 12244 0
14082 6769 0
7244 -11645 0
9819 6470 0
12800 -6745 0
-14683 446 0
-4696 -15047 0
-5928 -6719 0
15456 9360 0
-10479 11242 0
4209 9448 0
-12716 -743 0
-2610 -15090 0
13054 4689 0
1160 3030 0
-2031 15515 0
15293 -7121 0
-4318 6796 0
-8643 4195 0
-14320 7253 0
-5685 4116 0
9427 -8169 0
-14454 -3030 0
6959 3904 0
-12509 5124 0
11774 4360 0
-12912 -9617 0
-6462 641 0
-4201 410 0
-703 7818 0
10007 -14340 0
-13174 14493 0
1853 -13770 0
2388 -12068 0
-3519 -7113 0
-9575 -10590 0
10096 -2051 0
6179 14742 0
-8831 2301 0
-14605 -12203 0
6932 2908 0
-3000 -15577 0
2124 3253 0
3788 -11673 0
-5410 -3078 0
6124 -1113 0
-10104 8052 0
-1214 11108 0
10699 4475 0
-15473 -3329 0
14462 -13906 0
3315 4846 0
66 6146 0
-285 -10908 0
-14231 -15312 0
12625 -6317 0
-12252 -10585 0
-8380 8563 0
-3269 975 0
8928 9051 0
8145 15006 0
-14573 -6338 0
10552 -6150 0
-7391 7596 0
-5805 3898 0
-9922 12464 0
-4462 -13010 0
-7824 14676 0
10660 9722 0
14487 12107 0
11383 13913 0
-5507 10481 0
7528 11992 0
15359 1111 0
6511 476 0
12746 14448 0
-4923 -12450 0
5481 -12680 0
-3282 3700 0
14629 -12176 0
11319 2811 0
2409 -5930 0
-9283 -12861 0
-1736 -2871 0
-6138 12157 0
2236 2390 0
9949 -9389 0
-14884 6595 0
-8811 -13291 0
77 -11537 0
5014 10511 0
7206 11247 0
13522 1043 0
11916 -13118 0
6686 -14552 0
12832 14184 0
2099 10288 0
-1740 557 0
244 729 0
-10842 -271 0
-761 -11437 0
9699 2030 0
-14233 6141 0
13925 5669 0
-12565 -8198 0
5192 -386 0
-5575 12188 0
-14259 -2181 0
15298 1514 0
4757 -950 0
-9927 6772 0
-8539 6323 0
-1405 8605 0
-13007 -13700 0
-11118 10479 0
13161 -6455 0
-14363 441 0
-7524 -13285 0
-14811 -12868 0
-14755 -11449 0
11896 10109 0
-11718 -11971 0
4313 11660 0
14026 -9368 0
4197 -8691 0
15507 -11112 0
-1055 13736 0
4278 -4222 0
12695 -15053 0
12424 -12155 0
14040 13358 0
-13097 -15070 0
-10333 6268 0
5178 10552 0
863 440 0
-5861 12069 0
12223 -5856 0
-12792 -4060 0
-1875 -10965 0
-333 10474 0
14908 -171 0
-14411 -5147 0
-5304 2754 0
11285 6202 0
-990 7778 0
-12711 9297 0
-10139 -1877 0
10748 11205 0
13829 4206 0
13899 1428 0
14615 -9467 0
-677 -12758 0
10430 12711 0
4475 6315 0
-9338 5341 0
-2588 9609 0
1771 1108 0
116 7705 0
-6328 4929 0
8345 8472 0
13399 -10233 0
8878 -10900 0
5803 9935 0
15382 -4463 0
-11380 11559 0
-5540 6800 0
-14892 -13664 0
-5211 -6080 0
8906 -8885 0
-2758 -797 0
-3337 -2801 0
4715 -12575 0
-11820 -11707 0
-14850 7380 0
2257 -13188 0
-1799 -15129 0
-5828 14239 0
-829 -7607 0
-12708 11522 0
-9646 -4402 0
85 14163 0
-11897 -4445 0
4336 5194 0
-6014 -10054 0
-12244 13043 0
13906 7805 0
1390 8406 0
-10410 11922 0
-12521 13936 0
4905 5727 0
2058 6053 0
-14945 -11801 0
6814 11909 0
12867 15254 0
-10571 8080 0
10770 3249 0
-4539 -8471 0
-5608 -9627 0
-9150 -7900 0
-7108 13377 0
-14858 1945 0
-1464 -12066 0
3383 3207 0
-13127 775 0
-14344 -9940 0
2043 4529 0
-2362 -5411 0
-5252 15562 0
-5767 -6859 0
-1972 9211 0
6910 24 0
5676 15505 0
12674 -4077 0
-922 -918 0
14360 14967 0
-10056 -3105 0
-10924 -1886 0
10588 15481 0
-2711 4471 0
10469 -4087 0
-14146 4659 0
-8907 3706 0
-2533 -14783 0
2232 3724 0
-15065 13718 0
-308 -12895 0
-9295 8289 0
6700 15407 0
2520 -7817 0
-14028 2067 0
-8514 -3050 0
14800 -2589 0
-5955 7525 0
7499 14886 0
6794 12798 0
2630 2115 0
5718 15290 0
-5721 4593 0
-3586 13805 0
10061 -12408 0
13195 -10752 0
-1307 -12199 0
11590 1488 0
-15355 11175 0
2228 -3812 0
5810 -12551 0
-5043 -5480 0
-12187 4924 0
12202 -12758 0
14190 -10325 0
64 2119 0
-8385 -12878 0
-7262 646 0
212 15035 0
15336 -6004 0
-8060 11543 0
-4595 -2748 0
-15190 12915 0
714 10382 0
-6075 12814 0
-10391 -10785 0
3082 14247 0
-7704 -9846 0
-15190 10422 0
-7915 -1248 0
-1299 1663 0
4659 -2223 0
9005 13633 0
7145 11802 0
-99 -763 0
-4919 1016 0
-14768 -1676 0
-14478 13695 0
-11110 2611 0
9837 5116 0
-5910 -4667 0
-6807 -9874 0
133 -8019 0
14105 1582 0
6925 940 0
5426 3132 0
-8344 12153 0
2318 10261 0
-4024 -273 0
-15255 -15398 0
3358 -7650 0
1578 -3343 0
-1592 4715 0
4577 9489 0
14536 -8918 0
-925 -5642 0
-6837 -7580 0
-8055 939 0
14513 7173 0
10428 -7396 0
738 -4161 0
12910 -2723 0
-9628 187 0
-6357 6472 0
-7362 8669 0
-6654 -6071 0
-12396 10881 0
15140 -11212 0
1226 -5968 0
10187 675 0
-10983 -12388 0
-9736 7150 0
940 -195 0
8737 -12119 0
-11793 11871 0
14249 10996 0
-15147 -4164 0
-3322 -2023 0
-4058 8040 0
6632 14673 0
-10680 6715 0
-7338 8602 0
-6943 423 0
7793 -1808 0
8166 -4222 0
-13038 -2790 0
-5994 1098 0
10795 1448 0
7747 -5098 0
-3877 -3163 0
-11181 7973 0
-102 6990 0
-10183 7134 0
-4534 -14135 0
-11277 10247 0
-2459 -11379 0
14805 -2497 0
-6571 -12413 0
1663 11955 0
3512 5497 0
-9895 -11093 0
-5422 5892 0
10775 11348 0
-9483 754 0
-13630 -7118 0
-5158 -11376 0
-5950 2990 0
4381 3196 0
-1899 6650 0
-6133 11010 0
-2674 6983 0
-12250 -14472 0
-4641 -4898 0
5549 3791 0
-74 6346 0
-12728 9780 0
-3070 5334 0
11123 -10027 0
454 1024 0
2557 -12568 0
-14381 -4835 0
6103 12311 0
3917 2695 0
-3232 7801 0
-5680 11816 0
-8116 -12180 0
4698 -4581 0
14083 8308 0
-7396 11402 0
-15118 -3359 0
-4442 7214 0
-8790 -4788 0
10997 -3313 0
12445 -3742 0
-8180 -6222 0
-2929 -4494 0
14653 -8924 0
-304 10696 0
-11529 -3940 0
7368 962 0
-4281 -8612 0
14206 -5268 0
1035 -6950 0
2103 -9015 0
3432 6964 0
-12077 -6943 0
-4047 -5639 0
-2190 56 0
-2603 12418 0
6622 8691 0
-11760 -13841 0
-655 12538 0
-14290 -14316 0
6063 -12073 0
4705 -15152 0
-5603 8573 0
-2560 -3906 0
-11937 12659 0
10959 6000 0
12841 860 0
-4106 -3929 0
-3168 12266 0
136 -4568 0
-12193 2530 0
-5880 -6982 0
-14735 -9715 0
15343 -8888 0
13280 10505 0
14861 -2891 0
13829 10635 0
-5799 -4405 0
-2756 14043 0
-8674 -586 0
-13605 -9225 0
-4952 -11243 0
-11329 1473 0
5875 403 0
721 6398 0
3030 -7336 0
-8510 11411 0
4502 -7823 0
-2161 4491 0
4029 -11754 0
-10652 -3962 0
-11932 -6700 0
-572 -8423 0
14272 -3927 0
12182 -11303 0
-8835 -13436 0
10817 5470 0
3760 2995 0
10506 -13984 0
-12149 -6871 0
12673 -843 0
-1063 5561 0
-6975 -12684 0
6221 -13951 0
6460 -3173 0
9020 9024 0
-13876 5559 0
-10620 12560 0
9625 654 0
3828 -1356 0
-1298 10260 0
-14025 7190 0
-6177 3773 0
-14041 -5963 0
12356 13870 0
-9134 -6333 0
-14702 -12954 0
-7584 -1694 0
-7517 3304 0
-7878 -8013 0
-6772 -11861 0
8984 2631 0
-12141 1308 0
1250 3968 0
14382 14194 0
-13589 -3798 0
-4473 14943 0
508 11272 0
14060 -5161 0
-5881 4325 0
855 10426 0
-4101 -9445 0
-15443 1339 0
-10330 -8890 0
5308 8455 0
8947 3463 0
10790 -1680 0
6276 12052 0
-9984 -9641 0
-9665 -13204 0
-2734 -12466 0
-3372 13694 0
-9093 14025 0
-1141 -6695 0
7276 -8433 0
-4657 9990 0
10251 -11049 0
541 2391 0
-3135 12274 0
2834 8305 0
6265 -6263 0
11977 -8763 0
11106 6350 0
8688 -1010 0
14804 7530 0
7794 2937 0
-597 -6506 0
3468 5548 0
-7672 -15000 0
-12176 -9192 0
-33 -2519 0
-3240 -11178 0
-10042 -5598 0
11871 -542 0
-5058 4210 0
14698 -9670 0
-13289 12469 0
-4907 12088 0
9746 9225 0
-9309 -14221 0
-5382 8438 0
-2314 10816 0
8989 12928 0
-3482 9285 0
-14708 -1230 0
14281 -4091 0
3016 -1445 0
10149 -7102 0
2846 -5886 0
4559 -493 0
-9193 9306 0
-3091 -13330 0
3863 -12949 0
-2919 9200 0
-1156 -470 0
-5089 -409 0
-2817 2508 0
8143 -13648 0
4990 4008 0
14378 8864 0
9466 -12770 0
4248 14441 0
-6023 6715 0
14043 -8295 0
3528 -2842 0
-11314 1633 0
-14846 11815 0
116 12045 0
1945 -10505 0
11516 -2960 0
14870 7459 0
-3589 7707 0
-9511 4261 0
11333 -4258 0
7200 3831 0
3708 -4132 0
-14642 -8491 0
2243 14688 0
-1364 -4803 0
10761 -986 0
-10635 7013 0
11257 3208 0
-4591 13078 0
-1378 -734 0
-2062 -13862 0
2919 -11008 0
2687 -1220 0
-14798 10948 0
-11870 -8252 0
8118 -6174 0
-2254 3151 0
7641 4637 0
5732 7195 0
-3489 -497 0
7325 10859 0
10790 8547 0
3288 -12756 0
6714 9716 0
5263 -591 0
-12714 10094 0
-5242 -3563 0
6202 6436 0
-3639 14179 0
13246 13287 0
13902 -9617 0
7135 14376 0
13442 -8131 0
2002 -2016 0
5553 8957 0
-11149 -10103 0
-6893 -810 0
-12830 14871 0
-8651 6850 0
943 14596 0
9757 15162 0
-1317 2548 0
1004 -3425 0
5285 -14869 0
7529 -6951 0
-10541 -12686 0
-3899 13467 0
-14381 3513 0
6894 -5703 0
-12434 -1470 0
-10582 11456 0
12808 11116 0
3162 -14273 0
4788 -4001 0
5573 14645 0
-7494 -5281 0
2647 -7730 0
918 -13252 0
6161 11830 0
-7112 -904 0
-11996 13366 0
-2547 6911 0
-4384 10529 0
-671 -1813 0
-7994 -10746 0
-12691 -5385 0
-8096 897 0
-9006 10303 0
3856 -7812 0
-11337 10890 0
5383 579 0
-2237 -2112 0
13898 -10282 0
-9142 -14073 0
11659 6024 0
14357 1760 0
-10644 3986 0
5348 -4539 0
-9782 1036 0
5081 321 0
-10919 -414 0
-14015 -8260 0
-550 13897 0
-5877 -1013 0
1330 3094 0
-3353 6097 0
-6541 -8175 0
10692 10630 0
-10825 2629 0
15095 -5186 0
-2334 11059 0
-10569 7421 0
-2036 -6044 0
13152 -14908 0
10257 11959 0
-8756 -4898 0
-10286 -4161 0
-7209 243 0
-6792 10400 0
-14336 -10101 0
7222 11569 0
-210 11846 0
-13685 1011 0
7337 10022 0
15459 -8509 0
-805 -7102 0
-13082 304 0
7506 -10856 0
-7229 10229 0
9337 10215 0
13027 -6219 0
807 -8256 0
-14180 -13387 0
9961 -1837 0
11331 -2093 0
6761 4874 0
299 -11714 0
12631 13179 0
6569 3043 0
9411 -4852 0
1712 -285 0
-5500 -3184 0
1783 -2990 0
9575 8870 0
-6043 -2628 0
-10227 -6115 0
-2505 -97 0
-5391 -6162 0
11461 -8462 0
12081 5771 0
-12018 7956 0
6782 1837 0
8269 7556 0
-12547 -11016 0
14215 -12092 0
4698 -5707 0
-10184 -11008 0
6381 8684 0
4880 4846 0
-13067 10120 0
-14754 9312 0
12931 5824 0
-4152 -5094 0
-1672 2860 0
6153 14924 0
4034 14372 0
6913 7194 0
-12879 -3197 0
10313 2898 0
6918 13091 0
14240 12543 0
4380 4407 0
-11969 2359 0
3081 5620 0
-12113 -15108 0
-5102 -6342 0
11615 -13478 0
9444 -3453 0
-7054 -9680 0
-4674 -4908 0
679 6200 0
4907 -6412 0
8786 609 0
1231 9145 0
-12435 7981 0
5840 4251 0
-14990 -2061 0
-10436 3233 0
9315 -6420 0
-3922 -7828 0
-3203 5554 0
7489 14654 0
-14624 -11739 0
-6970 -2462 0
1812 9351 0
1814 9348 0
9295 -547 0
14372 3034 0
-8398 -14604 0
-11754 3164 0
-13041 971 0
-10513 5977 0
11963 -15322 0
-926 10247 0
9212 -11086 0
629 299 0
3326 -94 0
-3931 4310 0
3093 -5212 0
-9858 2261 0
-2801 3375 0
2580 -2827 0
5436 7991 0
2898 -10654 0
-3033 -10791 0
3979 15349 0
12684 -8027 0
-9886 -5841 0
-4443 -1043 0
-1073 -6807 0
10444 -12439 0
11022 8773 0
-15333 -2429 0
-4362 -5993 0
-10485 9815 0
-5794 -15215 0
-14368 4721 0
-5994 -5205 0
5046 10457 0
-7683 -867 0
1065 -7020 0
13403 -2444 0
-14308 -205 0
-11044 13609 0
-14620 232 0
3668 -1733 0
-5199 64 0
14319 -2433 0
-5008 8632 0
14252 -3272 0
-6611 4943 0
2307 -13225 0
-10737 -1862 0
13383 8653 0
2535 -13321 0
-3976 -12404 0
14149 7630 0
13662 -13468 0
-11883 -13108 0
-1938 -7323 0
-10598 2020 0
-10850 13202 0
7348 -7565 0
-14240 10951 0
-1281 -9509 0
8071 8354 0
9842 -4045 0
4183 -13701 0
388 15307 0
14524 2681 0
-7994 -12412 0
-12507 -11073 0
5143 -11994 0
11681 12717 0
7416 12982 0
9387 -11209 0
7164 -1500 0
-6288 3877 0
10747 9169 0
-12875 -6187 0
-12942 8597 0
10886 5809 0
8589 3581 0
-5345 -12141 0
-5671 -38 0
-2571 589 0
-14984 6224 0
-4024 9251 0
13135 2017 0
-3964 2420 0
-4654 11194 0
-4169 -4855 0
12341 5658 0
-10731 -391 0
14223 5816 0
4746 1748 0
11875 4608 0
8807 -8018 0
-4817 -8351 0
-9487 11558 0
6431 -6048 0
-4870 10348 0
-8107 3093 0
-15139 15509 0
-15097 2586 0
11676 -2877 0
-11079 -14851 0
7920 -6210 0
6539 -2801 0
-8202 -2642 0
2574 -3888 0
11197 899 0
3061 -5717 0
13199 -13418 0
-15500 -2903 0
-2012 -257 0
2172 -13682 0
-10889 5436 0
369 -6100 0
-3891 6022 0
14560 3067 0
13672 9132 0
-10523 3044 0
3554 -8326 0
-3010 15297 0
-1247 3842 0
8315 -15225 0
-7165 -5403 0
678 8872 0
-1437 7544 0
-12180 4076 0
-11055 2878 0
1422 -9907 0
8987 -12829 0
4456 -1062 0
-1157 -1255 0
-6346 3691 0
3535 12821 0
-9128 -14444 0
-8475 -3084 0
-7302 12106 0
1660 -8372 0
13903 -6320 0
-9594 1748 0
13431 14761 0
13336 5745 0
-6643 7163 0
-6670 7721 0
-8065 -15342 0
14637 1653 0
2971 9690 0
2356 -5208 0
-14245 4141 0
-5457 14698 0
11876 15129 0
-7819 7794 0
-8618 11657 0
10322 12461 0
-1659 9242 0
11491 -895 0
-7654 3916 0
6636 10623 0
-8814 -461 0
10529 8142 0
3600 -2540 0
12599 -10535 0
-12934 -14840 0
10843 14689 0
-9088 -3087 0
11624 -2972 0
-12176 -12808 0
-10575 12711 0
-4432 -11240 0
-4308 8671 0
-9916 -13973 0
-13515 -10375 0
1577 2673 0
-6850 13924 0
711 14030 0
-13229 7719 0
12643 12869 0
12198 2371 0
-12710 8730 0
-3001 -6609 0
2410 -8300 0
7788 8830 0
8213 -1111 0
-10907 13478 0
9786 -9992 0
-6340 -14319 0
-4887 -2000 0
9746 -2702 0
8343 -12824 0
-1991 -7749 0
10332 -10739 0
-152 5133 0
-3736 -6221 0
-10616 8659 0
-8883 5857 0
14538 -5629 0
-9443 -12268 0
6261 5285 0
-9192 -6272 0
4797 -8727 0
-13197 12986 0
-1942 14329 0
1646 -8095 0
-9416 15053 0
5878 -5096 0
4175 -6079 0
-6272 7349 0
6998 15470 0
14824 8476 0
-3245 2301 0
-4158 -2147 0
11882 3451 0
15202 4506 0
13249 13788 0
-9940 -7293 0
-3050 -9139 0
-12761 -7942 0
-770 14024 0
11545 -14272 0
8655 8730 0
7444 -14262 0
12131 13203 0
-10904 -14024 0
-2554 -2422 0
-5569 -3091 0
-13114 -6368 0
-10569 11232 0
10792 -14402 0
-4085 -13609 0
12653 -3109 0
-8156 14602 0
-7532 6325 0
-4233 -3629 0
14887 12651 0
2725 7644 0
10789 230 0
7548 -999 0
-10706 5090 0
4216 -5014 0
9052 -4075 0
-5253 -11053 0
2418 -9998 0
-8420 -5385 0
-8823 -3419 0
11562 -11945 0
-4774 -1690 0
-3859 -2271 0
-8452 -6689 0
11170 6068 0
699 -10711 0
-4680 3394 0
-703 -14868 0
-1823 -10325 0
-512 -10503 0
3127 3160 0
-14502 13385 0
10333 -5073 0
-13796 -2433 0
-9586 -15274 0
12755 1673 0
-8129 13208 0
7169 -6780 0
4319 -12147 0
-12844 11208 0
-8521 13772 0
-15369 -6692 0
7575 9000 0
-11673 -1582 0
6583 12300 0
-12710 11244 0
5694 8639 0
-11189 957 0
-10310 6594 0
4858 -3918 0
-1269 13932 0
6058 -240 0
-15523 -13971 0
-5180 -906 0
12711 7132 0
-10857 -2104 0
-5692 13648 0
3073 14803 0
5551 -3962 0
-8787 -11680 0
-10670 -9900 0
-10768 -1791 0
-15432 -8403 0
15019 6671 0
-2252 14055 0
-3832 4023 0
3468 10763 0
-11751 -9862 0
11919 -14145 0
-7577 13531 0
-11025 -1629 0
-9063 5774 0
7898 15140 0
3364 1418 0
9765 -12324 0
3785 7588 0
13279 -347 0
-8083 10326 0
-5476 -10054 0
-7540 1808 0
-6575 13216 0
1755 2135 0
-9639 5011 0
536 806 0
1727 1894 0
5689 -6971 0
7974 -1805 0
-8940 -13484 0
-15212 11248 0
-15341 -5790 0
4278 -12672 0
-10915 10881 0
4028 -4626 0
472 7261 0
-3420 4969 0
-1425 3671 0
-9872 1990 0
-10399 -2011 0
-4008 -9123 0
-10728 8451 0
3940 -12409 0
-2377 1808 0
11463 6125 0
12831 9778 0
-11261 11782 0
-13166 7869 0
-2266 3294 0
4273 -4353 0
-9957 -9014 0
-10462 9161 0
-10618 -3099 0
-1033 -9768 0
-2989 -3743 0
-1602 -2415 0
13642 10252 0
4416 -1542 0
-12909 -2322 0
7295 -7078 0
-15233 -11557 0
-5938 -3795 0
-10481 -9753 0
-3695 801 0
-14323 -9228 0
-3870 -13032 0
7267 10927 0
-3988 -7770 0
10112 6174 0
1207 -6205 0
15296 -6059 0
-10820 -12609 0
-3319 -1588 0
4888 -13174 0
6578 -2960 0
-1421 -10993 0
14238 6061 0
6383 13838 0
-12532 -5874 0
986 10766 0
-4958 3839 0
5160 677 0
13260 -1058 0
-8909 4943 0
8515 6465 0
7720 12571 0
-795 3664 0
-11081 -7247 0
2994 10870 0
-9466 -6793 0
-4620 -1722 0
10564 -6229 0
-9461 -14911 0
5391 -3338 0
15340 4161 0
14511 -7302 0
-10914 4059 0
9625 -7099 0
14061 -11973 0
-2769 -11525 0
-1869 279 0
4086 4154 0
-8476 13167 0
-10695 -14321 0
10587 10692 0
-806 -2612 0
-7154 1026 0
-12284 13009 0
-12201 3264 0
-5723 -1333 0
7983 10599 0
-11084 8224 0
-9148 13645 0
7707 10576 0
-7410 -2579 0
9435 7629 0
5564 3180 0
1901 -3815 0
6301 4760 0
-14364 -4835 0
-5384 -1237 0
-2866 -3276 0
-14156 -858 0
-5626 2623 0
12672 9278 0
9151 14305 0
4972 15340 0
2124 -1356 0
-1825 13050 0
-5371 10818 0
-4181 -8796 0
3337 79 0
13674 -10095 0
14320 -14097 0
-3123 7267 0
-5096 4415 0
8698 -12122 0
-1868 1337 0
-8270 1800 0
-1443 -8684 0
-15563 4655 0
-3817 15297 0
5145 -8515 0
8128 -12976 0
-1606 3501 0
-12690 11971 0
14362 6011 0
11893 339 0
5297 5821 0
-150 -7247 0
5729 -4580 0
4177 -7361 0
6080 12751 0
3241 47 0
7463 -8977 0
-14124 13987 0
11878 8151 0
7711 5235 0
6949 -8103 0
6928 -4824 0
9160 14085 0
14825 -2314 0
-13442 14351 0
-13437 1841 0
-4281 4053 0
11154 -13529 0
8638 -15258 0
-15227 3388 0
9161 4096 0
1058 -7861 0
672 -1724 0
8312 -1316 0
6445 -13394 0
-10458 1833 0
4395 11570 0
-8123 -4166 0
-5048 -10009 0
15537 8469 0
15467 13261 0
-5866 -6916 0
3682 -3564 0
11105 7533 0
-9564 -14441 0
429 2965 0
14101 -3406 0
11744 14577 0
-7695 10598 0
-209 -6930 0
14417 13088 0
919 13095 0
11907 4874 0
-2669 -133 0
5788 -9911 0
2864 11782 0
8907 -8607 0
14906 15419 0
15196 4902 0
9571 11438 0
-14322 11984 0
-3162 5789 0
-11540 -666 0
4914 11268 0
1568 4225 0
14368 9800 0
11376 -2009 0
-559 5163 0
-5541 156 0
11678 -7942 0
-10678 12524 0
8726 -9582 0
10429 -13678 0
-7285 -8363 0
8541 -13401 0
4894 -5579 0
-9889 -1617 0
11716 3631 0
-3901 -3390 0
13571 11120 0
-4345 -5927 0
4598 472 0
-67 -7612 0
5901 6933 0
7680 -764 0
11423 -5756 0
-3166 -15572 0
7213 -11107 0
-1309 11472 0
-14725 2217 0
-283 -5479 0
-10468 -5725 0
-9099 -2642 0
-12016 11023 0
-14919 -3694 0
10216 -2215 0
516 -11005 0
5570 -15268 0
-5798 -4937 0
-13331 -12520 0
8736 5337 0
-12686 -9006 0
-14074 2 0
-10912 -10180 0
-14744 7738 0
-9815 6106 0
-10952 -9156 0
-11685 -15433 0
7889 5365 0
-1083 2927 0
13139 3215 0
-15135 4086 0
-11844 -5642 0
-15547 -13636 0
-4645 -8124 0
11801 14564 0
-337 2556 0
-4441 5752 0
-12736 8423 0
4461 13527 0
-13736 11188 0
13378 -3183 0
-11859 -114 0
-654 -1104 0
-8294 -7023 0
-6234 -11303 0
-9418 617 0
11314 10782 0
10040 7076 0
-3524 -3650 0
928 12361 0
-6286 13918 0
11605 4266 0
-8530 13919 0
-9440 -2501 0
-14867 9662 0
-15014 -2000 0
8501 -3266 0
13838 -8766 0
-7729 -6876 0
-12830 14802 0
-4445 9366 0
-11003 -2948 0
1213 -11715 0
7518 9994 0
-1198 3789 0
-9547 -5541 0
-7082 -7733 0
4210 1184 0
-2644 6918 0
-8537 -4634 0
-10620 715 0
-14443 -9413 0
12780 -8102 0
13281 -12834 0
-6374 -13538 0
534 -8645 0
7645 -5677 0
1253 13413 0
14532 2068 0
-11007 536 0
14320 -6017 0
2868 14840 0
1947 -4947 0
-1479 -3604 0
-14400 2722 0
12214 -2774 0
9318 -5670 0
7256 8741 0
-8347 595 0
12733 14359 0
8253 -14144 0
-14171 -6563 0
6237 4240 0
13085 -4364 0
-8126 -8956 0
-1530 3745 0
-3312 -7681 0
-7176 -14272 0
1633 12600 0
9341 -8697 0
-5922 2738 0
567 3868 0
13098 -13276 0
-38 -13797 0
13525 13231 0
14614 -7290 0
8144 10322 0
-10779 -13124 0
-8452 10016 0
-5508 -2945 0
-9462 -7790 0
10743 10988 0
-454 14303 0
-715 11418 0
-13596 -4931 0
-11067 -8200 0
-7383 -8529 0
-14982 -4996 0
-6513 9720 0
3469 -4406 0
-13846 -1371 0
-13045 -10177 0
-6260 -2816 0
-4100 -7626 0
-6483 12489 0
-15500 -10229 0
5516 -13056 0
12484 -10110 0
-4685 -3220 0
1984 12464 0
8877 -3878 0
12703 -444 0
-9971 -8142 0
13102 2427 0
15191 -11574 0
-4443 5682 0
-9785 10301 0
-11805 7809 0
-4536 -2336 0
6340 8231 0
-9919 2047 0
-9073 -9276 0
-12062 -12249 0
-9172 11867 0
-1940 -13331 0
-10902 -560 0
1472 -1373 0
13083 -4473 0
-467 -13980 0
-13569 4552 0
-1308 -7622 0
-13960 -12266 0
13178 15378 0
-7271 9224 0
-4503 -5876 0
3179 -14243 0
-12091 3983 0
13889 -6911 0
10095 -15563 0
-12055 9288 0
3208 -3076 0
-6043 -12526 0
2876 -6952 0
-11240 -13147 0
-3531 15319 0
3443 -6173 0
-8602 -12179 0
4906 -4901 0
875 -11068 0
446 426 0
-10831 8752 0
-13892 -12480 0
-2934 13938 0
-7812 1609 0
10824 -8677 0
-9766 4601 0
-66 -466 0
8895 2207 0
-198 11660 0
-4041 5339 0
-9784 -4500 0
-15490 5996 0
-4434 1018 0
-4115 9730 0
-14732 -5617 0
12465 -233 0
-14309 4799 0
3990 -14325 0
-11219 13839 0
-12916 -1308 0
-11644 14827 0
-4158 13348 0
9341 -6470 0
4581 -13008 0
-6579 14331 0
-8248 -4043 0
6978 -2149 0
456 12060 0
-4524 -1912 0
-14340 -11628 0
-3380 -9367 0
-9908 -6549 0
6761 5455 0
-6698 -9842 0
-6726 8975 0
-11431 6638 0
-1308 14081 0
-10364 7560 0
-15135 -4357 0
12328 6207 0
6594 7587 0
-4944 6293 0
4277 -13335 0
7807 -6270 0
11703 10711 0
1307 -4508 0
10698 -14567 0
1520 -1203 0
-1987 -9035 0
10483 -2540 0
-5554 1720 0
3990 -12597 0
1910 -2861 0
-1464 -7330 0
-5382 -5590 0
3409 -11529 0
-3866 7011 0
6604 13186 0
15364 -9184 0
-9508 -2411 0
4077 -5261 0
14368 2401 0
2469 9098 0
7097 -14302 0
-5914 -14619 0
10493 -1496 0
-13195 5970 0
-10771 -7341 0
-1073 8422 0
9279 -12113 0
5579 -5203 0
-2313 14320 0
-14690 -12757 0
2493 4310 0
-1582 -3061 0
2622 -12196 0
-15276 -11082 0
-6113 10493 0
14412 -13654 0
-9447 5443 0
11443 7392 0
11194 12155 0
13372 10691 0
7214 -14014 0
14409 -3871 0
2636 -6620 0
14195 9196 0
12877 -491 0
-1098 10108 0
-6402 -11849 0
-7453 8007 0
9007 -426 0
3789 3923 0
-904 958 0
-3153 9686 0
3345 -4865 0
-1019 6351 0
7848 131 0
2049 -15106 0
-5114 -1683 0
2624 13092 0
-7237 -12800 0
12464 -7559 0
4333 -9400 0
-8521 584 0
-2399 -5180 0
4226 -7236 0
-14171 11246 0
-2482 4054 0
11972 1807 0
-5988 -7814 0
-14464 -14932 0
13436 14017 0
4873 -10731 0
-6408 -7678 0
1235 -10168 0
-9105 -9898 0
-7552 -6072 0
-7607 -15107 0
4507 -11334 0
6533 6594 0
-5288 -439 0
11377 4376 0
-13602 5530 0
4020 -2827 0
241 -2472 0
-5573 -773 0
-9509 11816 0
-10320 -4815 0
12460 3184 0
10303 4848 0
6332 6787 0
7776 8922 0
-7006 14054 0
6812 6311 0
-491 -3374 0
14041 -4883 0
-11868 -14297 0
-6769 -3959 0
11452 8268 0
4036 -8269 0
9105 1004 0
6077 11350 0
-11466 14331 0
8944 -14924 0
-3778 4214 0
-14716 -14136 0
-1813 5248 0
8824 -9881 0
9637 -9761 0
-4424 -5750 0
482 13720 0
13433 -10689 0
4210 8854 0
4655 -2735 0
5336 13993 0
-5405 2500 0
8449 8340 0
4682 -14875 0
9603 -5692 0
-910 14936 0
11439 11901 0
-5973 -14387 0
-1828 11231 0
-14277 1036 0
11757 -9373 0
14122 3715 0
-5296 -7513 0
-12701 -10472 0
6742 -7148 0
-14183 -8730 0
-8661 2400 0
4013 -3386 0
-5936 14535 0
5986 -10591 0
-5587 -10298 0
-15084 3581 0
13755 2368 0
11797 -15555 0
-6765 -12243 0
13619 -11771 0
13207 -15167 0
10252 -4546 0
9236 -9461 0
-12575 4025 0
15147 6568 0
500 -853 0
13017 -6620 0
3752 10020 0
9127 4090 0
-8081 7525 0
-854 3538 0
-999 14405 0
1998 11097 0
5264 -7583 0
3544 9078 0
-4799 7833 0
9104 2362 0
10819 2443 0
8223 10084 0
3163 9273 0
4322 -14204 0
2246 11615 0
-3932 -2363 0
11549 1733 0
-1620 12748 0
-5419 8323 0
-12899 7134 0
6472 -11003 0
12382 -10487 0
-5074 -4866 0
-1233 -12091 0
-15173 14936 0
2698 -7748 0
12625 -14904 0
1477 -15226 0
14915 -14763 0
-11440 -12817 0
-8774 340 0
15505 -8986 0
-11009 15530 0
-10611 -5856 0
-15504 -851 0
1302 10872 0
215 -6052 0
-8429 -8937 0
11854 -2140 0
1903 -301 0
14015 5856 0
-7813 8955 0
2575 6295 0
-11303 13016 0
-7004 12643 0
331 2975 0
11184 1544 0
-2147 -14317 0
13674 9052 0
-14492 2144 0
-8547 -9238 0
-13714 6150 0
-4801 -7022 0
-15158 -15182 0
-5150 14891 0
-13952 -9236 0
12724 -9377 0
15286 4161 0
804 -8072 0
13215 -494 0
5025 6331 0
6782 6699 0
-8288 -3005 0
8243 -9439 0
-13738 10223 0
12341 -5603 0
8600 -4688 0
-2813 -13484 0
3268 -5557 0
204 10117 0
-14559 8167 0
-11725 -11803 0
-10185 4731 0
3181 5409 0
-10010 6353 0
-8734 6482 0
9171 2792 0
-3630 -5473 0
-346 4456 0
-11695 -15448 0
-1570 -5536 0
6856 -5082 0
-8923 15566 0
-6649 -8253 0
-6577 -418 0
-9006 5013 0
3004 1812 0
-101 6661 0
-10374 13709 0
-11632 -390 0
-7771 -6157 0
-14650 -6027 0
11393 6513 0
1611 143 0
-2739 15551 0
-1280 13694 0
11952 -1737 0
-13223 3788 0
-14769 -12809 0
9153 8774 0
-6803 -13552 0
-4419 10237 0
-12714 5212 0
-11177 4386 0
12193 -2231 0
-5597 12219 0
11406 888 0
-13796 -5411 0
-9546 -6631 0
-5288 -9920 0
9259 4580 0
-12757 -3431 0
6167 -10530 0
-12912 15346 0
-13140 453 0
-1632 -8668 0
11726 4004 0
7277 5933 0
-9449 -9382 0
-12943 -12013 0
2048 -14293 0
-5343 -4518 0
-13776 7968 0
6902 7343 0
-12723 -3765 0
-8833 -10242 0
6208 14701 0
-3060 -15528 0
-3562 4220 0
-10670 14769 0
10801 10615 0
-9629 -9342 0
7307 -4893 0
5141 -1920 0
-11789 11749 0
5923 13366 0
10306 5862 0
6807 941 0
9157 -3934 0
419 11126 0
-14725 -3446 0
47 11014 0
-12203 -5684 0
-11792 5229 0
11513 -13431 0
-242 -1870 0
4289 10587 0
-10852 -10385 0
-1439 10916 0
12731 -6519 0
-4491 -13484 0
2591 -1011 0
11198 -1388 0
-6508 -12592 0
9208 1422 0
-2219 4919 0
-13319 15405 0
-2252 3309 0
9426 -1023 0
-5886 9224 0
-12215 8253 0
-7308 6086 0
-12635 -1629 0
10765 -11086 0
5706 -5702 0
-10909 -8172 0
-113 -4523 0
5371 10897 0
8566 2836 0
-10711 -1983 0
4779 -3326 0
-8318 -8031 0
7400 11370 0
9850 12396 0
-7475 6561 0
13539 -1906 0
10174 -8151 0
6325 -6884 0
-5080 12816 0
-13574 -8120 0
8070 -13489 0
11806 12531 0
841 -7107 0
3248 -6848 0
4794 -6163 0
6966 6574 0
14569 2686 0
7849 -3855 0
-8907 9261 0
-3276 8511 0
-6190 2339 0
-12173 -11983 0
10861 -14411 0
-10235 2841 0
2908 3348 0
-13967 -4300 0
-12133 -4417 0
-1086 -11562 0
14216 -4258 0
-5972 10263 0
-87 -13067 0
-7443 11446 0
4747 4984 0
275 -2791 0
9384 1431 0
9889 2 0
12638 -5860 0
13875 -9974 0
-2810 -2438 0
-2817 11623 0
-15019 -10512 0
-4409 -7969 0
6387 -9301 0
-11618 -11318 0
-473 -15256 0
-12354 -293 0
-1304 10772 0
6851 3868 0
14592 5752 0
-9138 -2370 0
754 -5901 0
2336 -2521 0
3665 7045 0
-10785 60 0
-3294 -14427 0
-535 -4745 0
7165 6864 0
-11624 9786 0
-13030 -6598 0
-5328 -14581 0
9045 10988 0
-9438 -2632 0
15321 -4972 0
-5357 -13373 0
-4860 39 0
-13307 9638 0
12086 7477 0
-5693 13666 0
8066 12962 0
-2417 8227 0
4864 -4257 0
-14044 15291 0
-11931 -2625 0
9296 3397 0
10969 -10306 0
14092 -10427 0
-850 -5269 0
10016 -11673 0
5318 -9627 0
446 -13910 0
14733 5734 0
-3201 13982 0
-10612 -9052 0
9339 -3803 0
11534 -13236 0
-2111 -6653 0
-12469 7874 0
-4543 -515 0
3903 423 0
696 3145 0
-5665 256 0
-6565 8544 0
6764 -5074 0
-2646 7793 0
714 6428 0
-14889 13964 0
15214 -3909 0
-73 1370 0
2120 -9475 0
11800 -2966 0
10213 -5848 0
-9318 7759 0
-7376 4313 0
-6938 7132 0
3934 -49 0
-8863 -266 0
-10665 -3670 0
-15432 -4346 0
-9898 15346 0
-5737 10342 0
11444 8321 0
390 10972 0
5348 -1585 0
5513 12230 0
10224 11337 0
14413 -8449 0
3961 2571 0
1311 -7384 0
-3695 -7287 0
-6240 -10035 0
96 -14341 0
11136 6766 0
-7603 -5920 0
12778 -4546 0
-7508 -1588 0
-3400 7857 0
-13926 14228 0
2141 12821 0
-8135 -7582 0
6394 13428 0
12032 12727 0
5661 14034 0
-9284 -4982 0
14303 -1862 0
-14161 -13605 0
4893 10729 0
7577 -2750 0
-14933 -12159 0
6652 -9359 0
-10911 7157 0
-6796 3394 0
-11261 14506 0
22 8720 0
10480 -13239 0
14524 1911 0
11883 13631 0
-12075 -2923 0
-11547 -6300 0
-2350 -12226 0
4333 7878 0
-11476 10704 0
-899 10160 0
15558 -7966 0
10759 4015 0
6763 -2481 0
-14862 6351 0
-8132 -11154 0
903 14667 0
-200 6941 0
-9169 12737 0
-2766 390 0
10131 -526 0
-12629 -3453 0
-6691 -2920 0
-7175 -11970 0
-1047 -3217 0
15397 -11892 0
1710 -5894 0
-5964 -14579 0
1961 8857 0
-8225 -7258 0
10815 12481 0
-14469 5415 0
-9838 -4542 0
-10298 8506 0
-13264 -12142 0
-5756 8807 0
-8061 6741 0
-10118 5793 0
-3824 -15386 0
4107 8117 0
-130 3626 0
613 13983 0
-14555 -15027 0
8 14418 0
-7809 6157 0
-2490 -121 0
-9258 -6569 0
-9036 -4927 0
-12412 506 0
9696 -7236 0
8300 7815 0
-11828 -9644 0
-10442 -7268 0
14607 -4560 0
-12621 -11897 0
-11274 13093 0
9108 -3613 0
4646 -104 0
-4652 -9005 0
808 1190 0
-14684 2712 0
-6148 -3505 0
-8429 -3435 0
-10879 -2449 0
3625 -6691 0
1526 12294 0
1070 10645 0
-6458 105 0
5498 4282 0
8823 5832 0
2309 13016 0
14640 -13696 0
15083 -12577 0
-12672 10216 0
8607 1116 0
958 -9859 0
-13387 11128 0
528 -14828 0
-7755 -4242 0
-12425 12152 0
-9781 7407 0
8923 -14961 0
-12469 8422 0
-1725 3380 0
-14040 -5045 0
-1635 -15486 0
11683 5948 0
-13486 7821 0
8315 10698 0
-3093 1243 0
-13724 -1152 0
4232 10702 0
11633 -12348 0
7748 5911 0
-10332 10515 0
-5718 5700 0
11421 13625 0
-9387 -6907 0
6443 -10018 0
-11795 -10536 0
10783 -11404 0
-2550 -13370 0
-159 -7100 0
-12759 1061 0
10922 12763 0
-12242 13016 0
-4124 -1125 0
7077 -8173 0
5990 10489 0
12371 15052 0
15493 10573 0
-4381 -15353 0
9862 -7715 0
-6281 1505 0
609 6832 0
-9386 1666 0
-10337 3809 0
14247 -2855 0
11071 11392 0
-2600 10776 0
-11819 -2907 0
-2169 12049 0
-9212 3569 0
4117 -14801 0
-6763 -73 0
-1183 337 0
-14399 4371 0
4757 -9464 0
10175 -14843 0
10745 7404 0
-5682 -12563 0
-4734 -10489 0
6779 -9577 0
2170 515 0
-12516 7867 0
4760 4455 0
-93 -9732 0
11662 12947 0
14569 5017 0
5188 6168 0
-11080 -7663 0
-9989 6108 0
3090 -3649 0
-5803 -4353 0
4674 5299 0
14966 -6058 0
-3545 -12167 0
-76 -8778 0
8149 -13607 0
2114 -14834 0
12588 5310 0
1069 2349 0
-1105 2260 0
11 -3774 0
-6872 -7664 0
4192 -12409 0
3245 -490 0
8953 12099 0
3751 -12413 0
9726 -2465 0
3732 -2759 0
10028 -6060 0
11848 5946 0
11894 -8913 0
12577 9855 0
-12168 -5515 0
-11135 6543 0
-14554 3647 0
9194 -7907 0
14252 -7647 0
-8528 9624 0
15343 -11852 0
14772 6652 0
-773 3407 0
-6264 2648 0
-3738 9780 0
7252 5900 0
1455 2128 0
4854 -7105 0
-5959 12613 0
14603 15378 0
10459 -2447 0
12875 4256 0
-1316 13883 0
-15115 5254 0
10157 -13652 0
-12078 7223 0
8996 -15250 0
4552 10299 0
-1777 -2391 0
-1121 11549 0
11471 -4952 0
-13791 9091 0
-1303 -9442 0
11153 10845 0
10056 2804 0
10984 8283 0
5188 -10658 0
-12208 -7460 0
4762 13837 0
-15039 5739 0
-6551 -10121 0
-3070 11383 0
6465 3755 0
9394 6452 0
-5270 -15070 0
-12160 47 0
12803 8313 0
8259 1318 0
12808 13842 0
-10121 4977 0
-7207 7168 0
-7611 -3602 0
-12098 14595 0
-7354 13844 0
-11438 9444 0
-9085 1985 0
4863 -2838 0
14488 4962 0
9507 2458 0
6184 13387 0
497 520 0
15422 2101 0
2141 12584 0
5177 -13509 0
-12075 8477 0
13770 -5220 0
11109 15531 0
6011 4373 0
1088 -3693 0
12440 -6447 0
13797 -1834 0
13735 9976 0
-190 -9359 0
-3508 6938 0
-8052 8973 0
10489 -7661 0
5056 14354 0
-3714 5169 0
14022 7567 0
-9691 -14077 0
15220 7908 0
-13959 11196 0
10563 7379 0
11655 -4560 0
765 -1288 0
-5393 9337 0
5634 -10653 0
-366 14401 0
4239 12347 0
2953 -15225 0
4978 2628 0
-554 2189 0
-5029 12868 0
-10716 3836 0
-10184 -9322 0
5151 5381 0
4466 -1524 0
-11748 -104 0
6398 6496 0
3933 12184 0
10891 4709 0
-3134 -3290 0
-3818 8176 0
-15416 3230 0
-3015 11097 0
12028 12705 0
-7906 7114 0
10263 6995 0
13524 -9673 0
276 1069 0
6092 14813 0
1926 -8094 0
-10177 6873 0
11336 -1959 0
-11298 164 0
6020 -8640 0
-9193 -10075 0
11443 -14115 0
-12058 10843 0
-3191 -2620 0
4556 -10929 0
-13662 8212 0
10466 7012 0
-10498 14137 0
-868 7851 0
4980 -683 0
8857 -10939 0
3652 -1234 0
12078 566 0
-14736 1258 0
11629 -9193 0
14151 7782 0
8585 -612 0
-2232 13132 0
9830 9994 0
2586 9742 0
-11690 1986 0
-10440 -6614 0
4752 -11642 0
-4677 2464 0
611 15572 0
2681 8897 0
-8704 -731 0
11436 -1961 0
3882 10297 0
-7238 9055 0
8381 -9235 0
406 13207 0
12739 -14253 0
8591 14942 0
9789 9107 0
-8813 -14766 0
-13097 -862 0
-290 -4537 0
-8676 1772 0
13988 -14550 0
6853 11443 0
4341 -22 0
-9781 -1699 0
47 -12538 0
-13651 -5427 0
7392 6427 0
10579 3252 0
7365 8295 0
-11235 -11408 0
-12756 1808 0
-4839 -12730 0
-2121 4834 0
-12945 3647 0
8392 -3112 0
11431 -8695 0
-11466 10401 0
-12817 -7538 0
-13674 13918 0
7946 -3035 0
3836 -343 0
-2762 7558 0
-5423 -368 0
-14703 822 0
1846 -14097 0
5908 12803 0
-8009 12126 0
14761 -4997 0
11153 -14479 0
8161 14083 0
-4696 4811 0
-9400 -10070 0
-8924 -797 0
-6827 -11048 0
-3077 14861 0
2708 7427 0
14797 -2705 0
-10685 4328 0
-7453 -12694 0
6659 -1689 0
-10459 13403 0
1696 -6748 0
-6891 7028 0
-1558 13609 0
367 10695 0
-2559 7895 0
14437 -11099 0
1120 -2755 0
-6878 6603 0
-4236 -7273 0
-1771 -1142 0
-7968 11445 0
-766 9969 0
6311 -8061 0
-9492 5415 0
13566 1177 0
-735 2184 0
-9714 9553 0
11159 3975 0
8038 11644 0
-10313 -14195 0
-13526 -9150 0
6487 1346 0
-15438 7723 0
-3374 -1480 0
3264 -15529 0
-251 -7806 0
-1583 -189 0
11955 8390 0
14176 1816 0
-15160 15013 0
6740 11407 0
-7147 -14220 0
11347 -15434 0
-9140 -705 0
-7189 -1030 0
12963 5297 0
-6523 -13796 0
-9969 12852 0
-8084 9571 0
967 -7525 0
-1871 -1196 0
12995 -2685 0
-14240 7067 0
-3887 427 0
11712 -7736 0
-8787 -4284 0
-5649 -7579 0
10164 14039 0
805 6103 0
-3793 -14068 0
13075 7887 0
-4439 -282 0
-3408 10439 0
-8894 13741 0
4214 11741 0
8759 -11139 0
-3559 48 0
10858 -791 0
4794 -12049 0
10927 -4420 0
-2904 386 0
-12072 13888 0
-615 -5831 0
-4981 -2364 0
6832 1044 0
-5360 14278 0
-6818 -14728 0
3185 13584 0
4698 -4259 0
-12916 14333 0
15294 -7146 0
-7513 -2017 0
1293 -395 0
-12859 12263 0
-15268 -5535 0
-10114 -12320 0
12731 -8324 0
12902 -5039 0
-339 257 0
4976 -4313 0
-221 5326 0
-5319 13958 0
-8242 -5191 0
-12095 6039 0
-7332 9845 0
987 -4319 0
-5089 -8208 0
-5083 2947 0
9897 -9767 0
12981 -743 0
3046 -4540 0
4880 3359 0
10018 11388 0
-14850 -15339 0
-9701 -2426 0
8140 -10633 0
8360 11631 0
-12897 -2428 0
-645 5534 0
-14080 -368 0
-5065 -1543 0
7210 -9545 0
5300 3056 0
12109 3495 0
-4936 -170 0
-7749 -11649 0
3257 2792 0
1948 1587 0
11627 -10558 0
4175 -4510 0
-12529 379 0
14269 -11111 0
5361 -8032 0
7307 12850 0
14695 4842 0
931 8263 0
-5814 -5035 0
-4408 14652 0
-8978 939 0
-7318 -12729 0
11628 -887 0
15324 -11012 0
7673 7325 0
-2129 -11948 0
1323 -1339 0
15403 15223 0
6242 8018 0
7271 1779 0
-2918 -7324 0
13834 -442 0
13671 -12001 0
14363 1476 0
-11280 -6594 0
-9873 10656 0
-8503 3104 0
11662 13244 0
-11960 -8053 0
12806 -4917 0
12832 -1388 0
8212 -5271 0
-8802 -12443 0
8689 12189 0
-14190 1219 0
7479 11211 0
-11154 14201 0
8185 11284 0
11769 170 0
-2969 -10942 0
-10664 -10184 0
7840 2983 0
-14378 -11447 0
1161 12031 0
-10831 -2853 0
-12992 -5553 0
-2511 4660 0
9408 -2045 0
12431 -2242 0
1514 -11229 0
-2269 8858 0
10309 3135 0
-15384 -3274 0
-3104 5996 0
-10393 -5737 0
7653 15437 0
-8113 -5324 0
9975 8095 0
15067 -15330 0
3930 15120 0
6292 -3852 0
3216 7258 0
4012 8335 0
2373 6939 0
-7713 -11307 0
4290 -10644 0
-7219 9625 0
630 -7270 0
13633 -14425 0
5735 13576 0
9205 4824 0
-2784 632 0
4391 5919 0
-111 4703 0
-14415 1775 0
-14396 -3519 0
-6663 -11585 0
9522 5282 0
14606 5466 0
-6275 -9841 0
-5860 8915 0
4765 2455 0
-832 -10409 0
-10630 6454 0
-13639 5853 0
7081 6628 0
15490 -13886 0
-5093 1815 0
-8905 -6054 0
-9658 7228 0
3767 435 0
-12899 -7218 0
-628 4449 0
-1877 10016 0
-235 -12293 0
11571 6008 0
9107 -4306 0
-5668 3255 0
5766 1257 0
9921 -12443 0
-13700 15250 0
5648 -4449 0
-7515 -2309 0
161 -6673 0
4946 10607 0
-7183 8389 0
-4772 10544 0
2986 5434 0
10165 7294 0
10012 -1290 0
-4780 6486 0
-13462 -720 0
-13749 6156 0
-12991 10247 0
5689 11686 0
-8734 -404 0
9727 -13100 0
-14293 -12441 0
6924 -6813 0
12788 -9062 0
-2603 11377 0
12503 -968 0
8389 -11970 0
5723 -12338 0
15225 12006 0
9601 128 0
-13152 -7332 0
13909 -13373 0
14509 1198 0
11258 -3017 0
13897 3657 0
-3103 -10411 0
1686 1621 0
6026 -11823 0
-12430 8560 0
-1284 11575 0
15157 -2629 0
-538 12984 0
2661 -4669 0
-8275 -13936 0
-2658 1146 0
-14709 -12833 0
-3519 -6004 0
-8581 5752 0
-6373 -6417 0
10486 -389 0
9501 601 0
-1342 -8619 0
2582 8684 0
8325 -9109 0
8657 7152 0
3231 14556 0
-2375 14680 0
-15277 7500 0
480 -8308 0
8805 -2306 0
2404 969 0
-10753 2371 0
3997 -2858 0
14205 -13590 0
-722 -1379 0
-10877 -1764 0
13531 4531 0
-10103 -11914 0
8247 5652 0
13584 -1277 0
-10746 13597 0
-7204 -5283 0
-8377 3960 0
-15062 27 0
-2885 12834 0
-12015 1258 0
-292 -14730 0
5726 -6183 0
-4813 6314 0
-12597 -13632 0
4855 -11316 0
-6853 -9445 0
6219 -6508 0
12648 -15274 0
-10247 -11252 0
2042 4877 0
-4610 12061 0
-4275 -7014 0
-14325 -3941 0
831 -825 0
1691 -9545 0
14570 -7131 0
3885 -7219 0
9043 -6531 0
-8110 -258 0
2168 -895 0
11500 8870 0
458 -7289 0
-7884 2032 0
-945 -14387 0
-3583 14324 0
6024 7372 0
414 -8687 0
-11512 3718 0
7630 8989 0
5135 -1983 0
-4816 14057 0
-1069 -2167 0
-8638 -2953 0
-7611 -9951 0
10062 11360 0
-760 8496 0
9888 -5062 0
12849 -9405 0
-11325 12468 0
1105 -13958 0
15434 -3825 0
1489 -2121 0
-5931 15231 0
9933 4331 0
2068 -7015 0
7092 -12948 0
-1469 3164 0
-14746 14844 0
-5173 -3611 0
2911 -4072 0
-8811 -11578 0
-4630 5088 0
8456 -5923 0
-3972 -3812 0
-961 -3747 0
13085 3455 0
5058 -11002 0
9652 6999 0
-4122 1006 0
3991 -9164 0
9023 -8354 0
14313 -754 0
1680 -12530 0
13760 -1930 0
-4706 -2240 0
6688 9829 0
-6090 -4751 0
-461 5686 0
-12568 -2127 0
-2608 1267 0
535 7433 0
-2366 9505 0
11869 4440 0
-9335 -6205 0
-8641 -11442 0
8396 11733 0
-8061 11222 0
5246 -2977 0
309 46 0
-9410 11178 0
5410 -13989 0
3239 -8595 0
8371 -14674 0
-9434 13470 0
-3530 -3782 0
-5580 4125 0
15260 11968 0
12690 8176 0
11563 8254 0
-10093 -12478 0
13648 8616 0
-1090 -5245 0
12406 -7623 0
12557 -1636 0
13083 3494 0
9395 -5469 0
-586 10224 0
4357 -1239 0
11443 -3988 0
-8615 -6996 0
3416 12044 0
3893 4205 0
6285 2903 0
-12293 12398 0
5382 -767 0
13203 10458 0
10168 6137 0
-2409 7021 0
-15162 -8053 0
-2417 -197 0
-7825 -9305 0
1501 11473 0
-1975 -10009 0
-2678 -12187 0
-10485 2944 0
-14621 -12268 0
-3793 -11336 0
-15280 14053 0
7405 11966 0
11840 939 0
-8570 4019 0
-7933 1590 0
13293 -12458 0
14002 4589 0
-9227 -8888 0
4739 -14827 0
15259 -12140 0
2938 7440 0
8051 9982 0
2271 -14095 0
12782 -9707 0
-11782 -4192 0
14273 -611 0
-6018 4922 0
-4872 -6080 0
431 3026 0
5016 -14124 0
13741 -3323 0
-13655 -11252 0
14088 1708 0
-4024 -14134 0
-6834 -9854 0
10154 13659 0
-5845 -1204 0
1603 2846 0
-13738 6642 0
6315 -758 0
-4693 -8549 0
-11984 -5802 0
-2242 -2376 0
12716 8351 0
-13496 -4444 0
8864 11578 0
9075 15454 0
-9678 14157 0
1077 3865 0
-8322 -1023 0
3569 15100 0
13834 6375 0
2452 -9185 0
-936 -10459 0
396 -6555 0
-7310 -132 0
-14480 8735 0
8359 -5012 0
2468 8328 0
-12059 -6882 0
11612 -4485 0
-9305 14480 0
-3880 2631 0
14124 -1779 0
15038 6829 0
8049 7675 0
-13104 -79 0
-5533 8583 0
14470 -5780 0
-1083 -15567 0
-14492 12990 0
8075 688 0
6988 10700 0
-11040 -322 0
-10676 5055 0
2512 -13056 0
-6377 -1385 0
12235 7371 0
-3020 6582 0
2433 5495 0
11067 -6970 0
14551 7300 0
-1819 -7761 0
3028 8332 0
1722 -13379 0
-216 10077 0
-7410 9960 0
8481 -6248 0
-4939 13878 0
-3071 -490 0
-1779 -3957 0
15147 -6473 0
13521 -11479 0
-12065 -15244 0
-6479 11314 0
1566 10310 0
1667 6820 0
10572 15255 0
-10509 -2751 0
3759 -8399 0
-14468 64 0
-2268 -9548 0
-8632 -12414 0
-6565 -862 0
15230 -2086 0
4812 10021 0
14704 -3971 0
12998 -6256 0
-5558 10557 0
10680 -10408 0
5776 777 0
13780 -9927 0
3009 7041 0
-3103 7055 0
-1102 13725 0
-3841 -7739 0
-9327 -13115 0
-7733 13885 0
6035 -614 0
2810 -11088 0
6504 5412 0
4476 -14595 0
-1791 14804 0
-11861 12336 0
-13267 2495 0
-3372 -2515 0
-1521 8297 0
12 -7672 0
355 -6605 0
-5959 -10394 0
8898 -7528 0
-3518 670 0
-9868 -4394 0
-7008 9457 0
-6405 10857 0
-14846 8930 0
-2193 7615 0
649 -5750 0
-13901 -7003 0
8784 -15536 0
2341 5939 0
-1003 -1503 0
-7327 -9266 0
10032 3907 0
-7800 -2396 0
2490 3458 0
6502 -6260 0
-13685 7610 0
3830 8896 0
3443 391 0
-6241 -5695 0
4439 2863 0
7983 10730 0
13426 -815 0
-8304 7939 0
-14898 4082 0
6160 9328 0
11608 2490 0
6777 -14896 0
8500 14435 0
6751 1585 0
-15211 -10268 0
10497 -14975 0
-10973 1925 0
-2819 -12990 0
-6456 15005 0
-6896 1238 0
-4226 10098 0
-196 3386 0
-7597 -8807 0
-15160 -12583 0
14155 1668 0
6715 -10093 0
-2705 -9069 0
-12289 4098 0
-6827 3158 0
-11081 11524 0
-15538 -13808 0
-1962 8523 0
-914 -11039 0
10129 4930 0
11640 -1026 0
9401 -4683 0
-2139 -9644 0
-9806 -11352 0
10812 -12666 0
328 -6294 0
-7203 -10320 0
-7828 6409 0
-4683 8326 0
13982 -12208 0
7076 13888 0
-2146 6191 0
-1325 -3515 0
15473 12087 0
915 -5911 0
1411 3623 0
6487 14244 0
-10874 2205 0
-14977 -2131 0
12165 -4935 0
1429 13935 0
12434 -1207 0
2607 -2697 0
12523 1487 0
13699 -605 0
13202 10536 0
5333 8405 0
-2861 7812 0
-1225 -7502 0
-661 -8326 0
6542 7134 0
-8324 -12306 0
13006 8763 0
10443 -14024 0
8660 -2135 0
-64 8387 0
6452 12323 0
-3592 14509 0
6974 8343 0
9699 -3778 0
-9191 -9281 0
-2179 2443 0
13469 14450 0
-14618 -2594 0
7348 14695 0
1335 556 0
5755 -424 0
-9185 13493 0
-9550 6757 0
-15035 -3016 0
13897 -5493 0
-7045 -7477 0
7379 14757 0
754 2312 0
-12548 11535 0
-8330 -2206 0
-15202 14289 0
-8763 4260 0
-15408 -2130 0
14914 -10642 0
2617 -12507 0
13283 13828 0
-99 -991 0
67 11094 0
-180 -10416 0
-11971 -12116 0
-2698 994 0
3358 15108 0
11569 -6078 0
8791 -2978 0
-3383 -13388 0
11616 14814 0
317 -793 0
-9314 5232 0
-2054 -6792 0
6661 -10956 0
-105 -2856 0
-12633 6086 0
14273 -1365 0
959 -4838 0
-1255 -12010 0
4493 420 0
13354 -14040 0
-1907 12126 0
6918 -3989 0
9070 -12354 0
-290 -2414 0
-8970 5555 0
10792 -13045 0
4735 -1500 0
11359 5139 0
-6893 -4094 0
-12391 7815 0
-1621 -11963 0
-13808 -1042 0
-2713 6949 0
1698 -6722 0
-15123 6121 0
4681 -2221 0
13389 2841 0
-6620 9851 0
-1942 8447 0
12672 -7768 0
925 -5949 0
13268 3243 0
-11943 6446 0
5006 -12855 0
2778 -10162 0
-2723 -3441 0
419 7173 0
-5637 -4529 0
-362 -7443 0
-10288 -2567 0
4487 617 0
7628 -4447 0
5797 -2428 0
-14974 10275 0
-6903 -6654 0
14429 -13990 0
-10113 2977 0
-15248 5639 0
11600 1537 0
11359 -5708 0
-2463 11045 0
-1112 -12712 0
3801 -2220 0
-9085 -5685 0
-15376 115 0
-3979 -14059 0
-15508 13676 0
1000 8443 0
6367 13385 0
10404 9633 0
9556 -5678 0
13699 -11810 0
-3431 -6945 0
2693 2438 0
-2313 357 0
-12520 -14464 0
-3699 6856 0
12301 -2419 0
7048 -14798 0
-10515 15319 0
-9616 4489 0
-6972 -10186 0
-1888 10617 0
7927 4918 0
-9230 -9117 0
-6880 -5419 0
-6365 -9230 0
1010 -13024 0
7055 14931 0
-13375 15420 0
2177 2847 0
-9393 10515 0
-2413 -3482 0
-14070 4844 0
-503 549 0
14493 6534 0
-3648 -287 0
-11215 7886 0
-3679 -5515 0
8438 13987 0
10263 14262 0
-14098 5044 0
-14065 -5844 0
-10943 9692 0
8803 1883 0
-11440 2823 0
2930 9633 0
6453 -8324 0
7816 1490 0
-5459 11761 0
15575 11610 0
6649 14957 0
9923 -1274 0
7807 -13367 0
4106 1051 0
-8516 -7937 0
-4969 14886 0
9194 -9411 0
10687 -9673 0
6897 9326 0
3835 -4738 0
14703 -11864 0
10225 -2401 0
7365 -14870 0
-13150 -12284 0
11803 -2425 0
6203 15390 0
-5317 -12120 0
-9461 -8230 0
5117 -9878 0
11457 -12770 0
790 -8270 0
-6517 8605 0
118 10072 0
-1981 12437 0
14670 1365 0
-15188 6186 0
-14427 -5288 0
-240 13945 0
14528 10302 0
13898 -13576 0
9090 -8092 0
4327 5570 0
9371 7833 0
11527 -14746 0
14271 -1664 0
7522 -268 0
-3306 9005 0
15213 -1214 0
-907 -13791 0
13190 13202 0
5458 -12582 0
7447 9541 0
-7460 -13057 0
-7221 12432 0
-5119 -10401 0
-193 14570 0
2828 -6901 0
14028 1901 0
3102 -604 0
10844 -13935 0
6117 7367 0
140 8335 0
5419 5574 0
9372 12775 0
-11052 1308 0
8636 2291 0
-14096 -8426 0
-13056 2437 0
-629 -12015 0
-10361 10543 0
7183 7853 0
14597 -15006 0
-10412 -4145 0
-6029 6496 0
14771 92 0
-3010 2734 0
15200 -9355 0
-8951 1066 0
-10154 9827 0
-7424 -2916 0
-10990 -5796 0
10977 10124 0
-12372 4553 0
-5776 -25 0
-1558 -13363 0
8415 11787 0
13065 2013 0
-4109 10110 0
3063 3859 0
8309 885 0
5380 2214 0
-8166 13955 0
14767 -9404 0
2099 8 0
14800 7583 0
11354 4197 0
12680 8727 0
-292 4415 0
-15302 -485 0
-2019 4246 0
6130 10568 0
5607 -5399 0
13272 -14056 0
-7966 9371 0
4436 -11084 0
-154 -5237 0
11215 -1688 0
-13963 11430 0
7707 -15327 0
-8819 -4707 0
-1405 15414 0
-5409 -10698 0
-5393 -1804 0
8941 12880 0
-8110 -14546 0
-654 -5909 0
5354 -7091 0
-9051 -14932 0
-13507 -15024 0
-3754 -6245 0
7598 11834 0
8707 9098 0
6517 13773 0
-14826 2924 0
6065 -6970 0
12862 10381 0
7998 12956 0
-11201 -946 0
-7082 -5942 0
6544 10393 0
-2291 -15178 0
13807 9042 0
7011 -6399 0
-2893 -11060 0
1605 -6214 0
-9390 4621 0
-45 6628 0
6591 13270 0
6208 -10591 0
-14559 10541 0
10145 -14042 0
6507 -6313 0
-2117 -8409 0
6794 -8539 0
-2957 758 0
13963 -15213 0
14121 -11914 0
8089 -6053 0
3523 -391 0
7442 -2486 0
8639 572 0
2952 -1546 0
14125 5843 0
11839 -9610 0
5309 5801 0
5017 -14135 0
-11755 -975 0
3744 -1048 0
-13854 2112 0
-15231 -1100 0
3359 14936 0
13915 -101 0
1579 9825 0
-11046 -5000 0
2776 13841 0
13981 -15565 0
8664 -10892 0
359 -12171 0
-3516 11079 0
-12683 -10994 0
-10134 4949 0
2777 9065 0
1833 -1506 0
1192 6707 0
-11901 4240 0
12532 3935 0
-9631 -7428 0
-2503 9971 0
-1390 1949 0
-9557 11845 0
-10949 1112 0
-10341 -8029 0
14939 1784 0
5930 5046 0
-8613 -13235 0
11184 -14241 0
2274 170 0
10302 -2893 0
-13243 -7290 0
15441 -14241 0
-2481 -10666 0
-2361 6660 0
-7809 -13562 0
5035 2355 0
-11307 -15207 0
8488 -5345 0
-636 6808 0
13270 -100 0
-6138 -7623 0
-2434 -14173 0
4161 11339 0
-4877 -8218 0
-2281 10080 0
14451 5139 0
1291 -7669 0
6324 -11643 0
10714 -11185 0
13364 -7630 0
-8979 1948 0
889 -11418 0
-9072 -588 0
-5708 -1378 0
13193 383 0
6465 -7432 0
-13762 -1388 0
2654 -11383 0
-15328 6095 0
-6831 4073 0
7433 2516 0
-8159 3524 0
10012 -703 0
-5924 -8732 0
-1886 -9035 0
2299 11682 0
9800 4970 0
-13533 -6880 0
3635 -15567 0
11231 -14883 0
4337 4460 0
10607 -13691 0
9413 7256 0
-2855 11711 0
3893 1453 0
-5044 2653 0
1327 -6533 0
-15413 -7738 0
8664 15055 0
10839 12880 0
7948 10491 0
-10207 -5115 0
-8251 -1000 0
-6029 -9490 0
5208 11892 0
1864 2386 0
411 -3871 0
3660 -4382 0
13982 -481 0
-4026 -791 0
11723 -10543 0
3094 -15025 0
2602 1637 0
-9131 -2665 0
5505 -11980 0
-13534 8258 0
-4213 7941 0
535 -10763 0
9802 -6962 0
2386 -12068 0
-636 -8838 0
8558 -2874 0
3561 4063 0
-11568 -1355 0
-1090 8580 0
-5961 -7595 0
-5755 11480 0
-13021 -14191 0
-5981 14786 0
-8062 -5950 0
2368 10141 0
3697 -3820 0
-6112 5632 0
-5141 8860 0
-6016 -1847 0
841 5301 0
-13331 12679 0
-7545 -215 0
3956 762 0
-15226 13883 0
3016 9079 0
7746 13692 0
13345 -4154 0
5908 -736 0
2273 -8224 0
-4809 6752 0
-6343 -8362 0
-5126 -10791 0
-1795 -4499 0
8319 2065 0
8256 -1456 0
13143 14080 0
1769 2936 0
267 -13281 0
12403 -4984 0
6129 -15521 0
-15292 5100 0
1023 -7733 0
-15165 -6222 0
13377 3202 0
10327 -13933 0
13210 11039 0
-2403 -3288 0
-13914 13269 0
-15375 10795 0
5251 12587 0
5007 3499 0
10134 -7327 0
6801 -12971 0
-8952 15166 0
-5170 -9037 0
7598 12446 0
3126 13195 0
6938 6215 0
8887 8297 0
5516 -7038 0
-14381 11942 0
-8011 14093 0
9299 1667 0
-625 4764 0
-2650 4063 0
-4903 -3699 0
13937 -805 0
1379 1012 0
-5850 -845 0
-9268 -9707 0
3117 7188 0
8333 11250 0
-11481 7814 0
-10581 -10383 0
6670 -9039 0
8914 8216 0
11550 -15494 0
12443 -15215 0
-7145 11441 0
11020 15122 0
-12752 11886 0
10079 -14114 0
-14622 -11344 0
9204 6688 0
13798 1709 0
2148 -5469 0
-12390 -12115 0
12753 -13140 0
-9414 -15465 0
14434 2984 0
11101 -9951 0
7853 12497 0
10089 8331 0
424 -9373 0
9299 7142 0
-5247 3022 0
-2755 -9141 0
3162 1176 0
1917 -13176 0
-7539 -1309 0
14936 -1446 0
-14494 -8147 0
11381 -12115 0
-3051 15240 0
11187 -1439 0
-1867 13009 0
-14098 -3998 0
3537 7996 0
13734 -6547 0
13441 5664 0
-5822 2192 0
6345 -15311 0
8599 -7223 0
10488 8865 0
8773 11472 0
-7283 -12035 0
3185 -247 0
5766 8281 0
-2765 11977 0
7204 5475 0
-7747 13130 0
2443 7723 0
11466 -14964 0
5168 -4094 0
-11454 -11535 0
-10315 1950 0
-12414 -3515 0
-5464 12462 0
6225 4073 0
3077 -12093 0
12018 -10571 0
-2505 14610 0
-10365 -11224 0
14688 -1959 0
11293 12212 0
-6028 -8392 0
13335 2869 0
14594 -3906 0
535 8073 0
-6175 -325 0
2797 8651 0
12765 720 0
-9876 1074 0
-664 4825 0
9076 -12838 0
10091 -5281 0
1393 -9546 0
803 -8756 0
-9324 -14389 0
-7855 7305 0
7384 7515 0
8119 7826 0
-8736 -322 0
8870 1361 0
15485 -13267 0
5664 -6845 0
4788 -19 0
-15003 -7494 0
5205 6275 0
-6889 -13671 0
5095 6837 0
4163 9823 0
-2059 -12268 0
11158 13290 0
6102 11338 0
5234 9232 0
-6665 7200 0
-13356 -4814 0
-9455 2082 0
3838 -4393 0
6804 7850 0
5501 -5532 0
-4918 -10192 0
4011 -10693 0
-5720 12185 0
11348 13097 0
5377 4715 0
-15568 -10794 0
12449 2523 0
-14337 -14600 0
-9206 -3764 0
8581 -14715 0
12143 -12919 0
5170 430 0
-4801 6595 0
-8036 -15572 0
6401 11091 0
9035 6830 0
-12042 -14739 0
2395 -5203 0
478 7558 0
-834 -7683 0
-11603 1254 0
7007 -8296 0
4305 -9453 0
178 10527 0
-9410 -12132 0
157 -14060 0
-983 3475 0
-6468 12761 0
-1718 6354 0
-6360 -2447 0
8818 -8411 0
-12466 -15048 0
3794 -1682 0
9806 8721 0
14091 7187 0
7407 -9209 0
14094 14931 0
-9906 -6557 0
-3368 -8190 0
3661 -10794 0
-1800 -10330 0
-5903 -8253 0
-4135 2904 0
4346 11560 0
-14613 3567 0
6576 -8905 0
11706 -12734 0
5975 5741 0
-11776 5649 0
-5899 7622 0
-1626 4115 0
10521 -13101 0
-6086 -1964 0
-11080 -13158 0
-3870 -1143 0
-5968 1279 0
13192 -1001 0
-14902 -2608 0
1096 -11808 0
10704 6945 0
-8754 -8428 0
6758 -5847 0
-9836 8374 0
-14096 -1246 0
-740 6471 0
-11981 -10092 0
9856 7723 0
-14244 4053 0
14389 15187 0
480 10831 0
10270 3 0
6822 -6663 0
-14251 10104 0
13947 -8004 0
1645 -2934 0
-10440 6253 0
8926 13765 0
-8427 -13014 0
-1176 -13584 0
6704 -14179 0
2160 -14961 0
15245 5514 0
4354 11643 0
-824 -6804 0
4145 2894 0
-10871 -7608 0
-15239 -469 0
12304 -3386 0
11101 -8135 0
-8891 2508 0
7455 5546 0
-2039 49 0
3094 -5703 0
4191 7504 0
6364 11313 0
-4754 1720 0
-8059 -10068 0
-1687 11416 0
-9561 -1218 0
-490 -14262 0
2293 -8800 0
2641 -13346 0
14298 11294 0
-2464 -13311 0
-4366 -10399 0
-2902 -11629 0
-3718 -13277 0
10032 12765 0
-7816 8916 0
-594 14089 0
-5869 8744 0
-9633 12536 0
13387 12860 0
-9603 3662 0
-9227 -13133 0
-11602 8104 0
12991 -11015 0
7215 -10454 0
-654 -12208 0
-7406 -11470 0
10265 15545 0
-13973 -11288 0
4688 -8193 0
-8288 4460 0
13364 2627 0
-5510 644 0
1562 9562 0
-4723 -1316 0
-12209 -4137 0
1322 2869 0
2618 -9923 0
2513 -1560 0
-647 6065 0
-6565 -1809 0
-1606 13492 0
6701 -1069 0
10693 -12572 0
75 5679 0
7557 -11300 0
-8706 -4117 0
6069 7081 0
-1002 12129 0
-10672 -6888 0
12623 -8116 0
-6787 2473 0
5037 -2299 0
-11859 -12198 0
14964 -14183 0
220 -10128 0
11885 -14179 0
-3577 -11511 0
-13518 1263 0
14636 6997 0
6765 -7077 0
10801 -5479 0
-6151 12234 0
-9196 -33 0
-9253 9466 0
-10820 4452 0
-2145 2688 0
3398 1533 0
5195 -12187 0
-1106 -8431 0
5465 5584 0
-1849 -8624 0
6426 -15150 0
-11729 9848 0
-12267 9494 0
-4405 -10470 0
-2040 7553 0
-12612 -13251 0
-10637 -7402 0
10828 9148 0
-14419 -813 0
-2814 -13378 0
9649 15294 0
-12122 -3977 0
7710 -14252 0
-13710 -10857 0
-6792 6949 0
-14689 12795 0
9757 -15349 0
-9248 -1063 0
6069 -7792 0
-10299 10246 0
5826 2573 0
8030 -7345 0
-10754 13852 0
-12141 -6046 0
14945 -12345 0
-7388 11875 0
-1536 -7193 0
8488 -7921 0
-9523 -9882 0
10197 -3252 0
7080 10489 0
-3839 -13812 0
6663 1160 0
8097 -1359 0
-2488 -1612 0
7148 -14363 0
5059 7465 0
7625 263 0
3664 14234 0
-2546 12261 0
6290 -15135 0
2998 -11597 0
9756 209 0
-623 -4983 0
2729 -14434 0
8282 3209 0
-1972 -11314 0
10932 3325 0
-3448 1228 0
6767 6844 0
-2053 -8378 0
-12267 6458 0
6801 13650 0
-13900 -5755 0
-2361 -8969 0
2394 -7175 0
-599 3155 0
-12726 -9494 0
-6967 -15514 0
1341 13385 0
8700 -10121 0
-8012 12143 0
-8054 9965 0
-14418 489 0
8258 -11613 0
11681 2248 0
-8111 66 0
-15467 13282 0
-13088 -6036 0
-12871 -12391 0
-4817 6431 0
-6770 -11551 0
-916 -12546 0
629 7111 0
-7217 2210 0
10766 749 0
15473 -11714 0
-11842 -6005 0
12077 134 0
-2893 -13279 0
-717 10251 0
12810 -13685 0
-13129 3856 0
7072 -7199 0
-2263 -7819 0
7705 -8958 0
-14480 13575 0
13137 5174 0
-3838 3159 0
-4680 -6700 0
4760 15175 0
13503 -7251 0
-8777 -2470 0
11477 -5600 0
-11192 -8103 0
5564 -7892 0
-14347 14621 0
-6683 11069 0
5739 13188 0
-2242 -7151 0
11492 -921 0
1557 4098 0
13407 6108 0
-12892 -9763 0
-13604 -14023 0
-717 3858 0
-14872 8335 0
10603 -2991 0
-363 6703 0
7952 9469 0
14172 2219 0
846 -4578 0
2031 -827 0
-2886 1978 0
-2922 6134 0
6533 7904 0
-7481 10852 0
1626 311 0
4859 -12296 0
9387 -3851 0
-1131 764 0
-4109 -9342 0
-11801 9514 0
-9825 -2980 0
-7865 13260 0
6564 14986 0
-1867 -3440 0
-14971 7650 0
-8710 8780 0
11119 -11020 0
3739 6092 0
6847 -10879 0
10698 -15193 0
-12368 3553 0
-3718 -1997 0
6953 11837 0
12497 11354 0
-7500 -1252 0
15515 1814 0
-6385 8673 0
-5196 -2974 0
-2792 -8998 0
2194 14671 0
-13332 -94 0
-5930 -14177 0
65 15556 0
-2215 -4652 0
15166 448 0
13102 13656 0
-11531 11454 0
-10155 14348 0
-9056 8541 0
11402 3080 0
-13474 -805 0
5744 -5588 0
-2768 2045 0
-3570 12280 0
1452 -14871 0
15401 -11396 0
-14740 -10757 0
6874 -2435 0
-11714 -6566 0
-4076 9966 0
-3431 -8602 0
11501 9203 0
6974 -2777 0
1296 14039 0
179 -11339 0
11726 12457 0
-14603 -11438 0
-1135 -6293 0
-15239 1109 0
-10496 -7104 0
595 -10812 0
-5808 12644 0
-3972 -14760 0
9259 2730 0
-5098 13290 0
-3615 -4563 0
10105 14500 0
-4109 6301 0
7615 -12661 0
-10959 4388 0
-13926 -18 0
-4591 -2648 0
10655 8763 0
-5469 12840 0
-472 -9911 0
841 11069 0
1938 -7763 0
13442 11807 0
-827 -2566 0
5351 -11600 0
-10279 4300 0
9885 14082 0
-4429 9333 0
-12834 8667 0
7997 -573 0
11605 -9699 0
3378 8415 0
6075 3398 0
-10275 -14494 0
-8631 9786 0
-8641 -7846 0
-1046 9127 0
-13823 13487 0
9754 3383 0
11180 10324 0
-3652 4408 0
-2886 11574 0
-4451 -14850 0
11102 9751 0
-1369 390 0
-3626 -7406 0
-4724 -7473 0
5266 -13218 0
-12563 -2655 0
15365 13443 0
4449 14640 0
8153 -1810 0
12138 7179 0
14886 4369 0
3859 -2419 0
-9612 5594 0
6868 -7207 0
7718 4434 0
7134 2527 0
-9490 7679 0
-14920 -11475 0
9289 -14996 0
-13561 11579 0
-13878 -6628 0
-4398 6210 0
5088 -15046 0
-6147 -7740 0
3117 -905 0
-15240 -6875 0
6914 -1588 0
-15470 -13985 0
-5269 -437 0
-12824 -1641 0
11904 6575 0
-12585 -2188 0
-2873 9512 0
11160 -14139 0
-8781 -2803 0
12882 -8918 0
6148 2933 0
-6397 -9626 0
-797 7033 0
15295 -2915 0
-9676 10934 0
-5699 5323 0
5719 2300 0
14027 5512 0
-14413 6778 0
-5261 401 0
-12816 7119 0
1804 -2797 0
4253 4571 0
-15031 -14863 0
-5582 -6461 0
-14561 -15511 0
11731 -8967 0
-10163 6062 0
194 -7876 0
-13690 10030 0
-2086 -9959 0
6634 -7191 0
-13034 -10840 0
14871 7958 0
-11781 -13502 0
-1653 5632 0
-4974 1175 0
1872 -6156 0
-7857 11553 0
-9731 -9168 0
6145 12453 0
9791 14626 0
5997 -4905 0
-15124 -1898 0
13361 11809 0
15364 15271 0
14714 -6981 0
-5698 -10124 0
2018 -10115 0
-6671 3146 0
11601 10871 0
-11654 7324 0
-9889 10466 0
-2529 -1710 0
3938 -11882 0
11070 12100 0
11652 -8692 0
-10683 595 0
15287 2109 0
11926 13656 0
-2925 8285 0
9754 6966 0
-11851 -8992 0
8006 6791 0
-10746 14914 0
2071 9997 0
-95 -6831 0
-7710 12689 0
-3405 6492 0
9404 3841 0
-13683 -5682 0
-998 12127 0
-11874 7230 0
-12835 7174 0
3230 10881 0
-5452 -2043 0
-1795 6075 0
4769 9823 0
-13763 -3683 0
-7163 13436 0
9919 -2092 0
-2270 12932 0
-7289 -14350 0
-11792 2631 0
4819 -14361 0
282 -9987 0
-12107 -5366 0
-3956 8366 0
-14099 -12699 0
13855 10938 0
3601 12399 0
-10053 -14638 0
-9540 9650 0
-15070 -8895 0
7814 -11176 0
2287 2606 0
-7971 -2660 0
6777 -7180 0
1799 644 0
-2297 -5455 0
-1135 -14810 0
-14391 -11177 0
12960 12394 0
-6745 -10259 0
-13816 13762 0
8553 -3397 0
5375 6801 0
-1331 1537 0
-4168 -15039 0
-14612 -3848 0
13896 2733 0
1417 2777 0
3937 1657 0
3568 5330 0
-2491 -10790 0
-778 9855 0
-8233 2683 0
-6825 10055 0
11190 3723 0
-14964 -7591 0
-4253 -3374 0
-8988 -5504 0
-3516 -3456 0
-9175 8022 0
13085 222 0
-963 1523 0
5154 -11882 0
11074 10933 0
-4597 -14059 0
-1861 -2024 0
15404 4417 0
-2857 -176 0
6422 -12236 0
-4330 -14071 0
9861 8987 0
-2497 -2479 0
-4609 -722 0
-12570 2675 0
-9533 13094 0
6757 1917 0
-6695 -2705 0
6292 8164 0
5965 14785 0
105 -4780 0
49 -4680 0
-13045 6080 0
6015 1156 0
-7909 13841 0
6252 -2684 0
5051 12567 0
-4248 6897 0
-1782 -7268 0
-11632 6149 0
-10366 -2223 0
14958 -8272 0
3089 1678 0
11783 15578 0
14737 -1804 0
8179 29 0
-6710 5669 0
-7324 -1477 0
13036 -8466 0
13790 6783 0
-4870 2941 0
-8283 8468 0
13976 -3055 0
15285 8646 0
11034 -11768 0
10958 13888 0
-14898 9537 0
-10680 -3429 0
13467 -4363 0
4272 8792 0
-10269 -5255 0
-5908 -2010 0
10920 6282 0
9691 11216 0
-11169 838 0
-4099 -14445 0
-2242 -14034 0
9346 -6006 0
2902 15339 0
-13864 5499 0
13683 12056 0
14094 -14526 0
-7729 -8396 0
-12655 -6491 0
1070 -6073 0
9258 1954 0
6109 7897 0
13083 11656 0
-8128 14309 0
8405 10260 0
5417 4167 0
-14201 11604 0
-5786 -4571 0
11467 2405 0
5178 14552 0
-5319 5024 0
-22 -4139 0
-7069 228 0
-388 14574 0
14731 -3602 0
-78 12240 0
-10734 -6181 0
15379 5834 0
-10039 -6303 0
1324 10982 0
4724 -4478 0
12751 13986 0
4923 -11998 0
-7311 6119 0
12761 -3346 0
5898 -1521 0
14914 -572 0
14006 2427 0
-3215 10055 0
-1877 -14743 0
9165 -12916 0
-9922 -4613 0
15278 4097 0
5311 471 0
7159 8612 0
-4365 -8759 0
-8051 6062 0
3989 -3857 0
10904 -7292 0
-6294 -13675 0
6403 13011 0
-4771 -8355 0
-4860 110 0
3379 3551 0
15045 -8799 0
3755 -8966 0
4065 -8817 0
4760 -9926 0
5425 15322 0
2695 -12085 0
-15273 -843 0
-3163 15436 0
9192 13812 0
-14290 6010 0
1970 -6182 0
-12114 -11319 0
-4440 -5778 0
8873 161 0
5391 9890 0
14758 4324 0
507 -4106 0
-10482 7116 0
-4511 801 0
7741 -11941 0
7827 9326 0
6956 8258 0
-10569 2826 0
9854 14008 0
-9204 1575 0
-4969 -12834 0
-6923 5420 0
-10053 -11193 0
8494 13987 0
-1253 -3039 0
622 14509 0
7930 -8587 0
8575 10742 0
-14689 14010 0
1821 14131 0
234 -10183 0
12891 -5191 0
-9329 256 0
14271 -8149 0
4512 14485 0
4296 12307 0
-12504 3596 0
2871 2184 0
3578 -7474 0
-7770 5617 0
2196 14683 0
-15206 2224 0
6414 -6763 0
-9564 6103 0
-7024 -577 0
4787 -5087 0
5171 -1984 0
7340 -7681 0
-9775 2611 0
-179 -3457 0
5923 312 0
-8330 -8742 0
13122 -1984 0
9663 13139 0
-7704 -15569 0
-1378 -3298 0
9202 -524 0
-13196 392 0
15390 -13524 0
9746 -13670 0
1284 5856 0
-8421 -10984 0
2506 7570 0
5156 -1483 0
-10803 -2805 0
-10123 -9002 0
4217 3617 0
-15022 145 0
7428 15387 0
6500 -3226 0
-10746 3817 0
6638 -9625 0
6871 -12414 0
4166 2814 0
6296 15337 0
7713 -4706 0
3806 6564 0
-4010 14953 0
-7513 -5558 0
-12393 2368 0
-11695 13650 0
5462 -5436 0
4431 6736 0
-2270 3424 0
-5771 5007 0
-6972 -13658 0
-4096 -250 0
11173 5499 0
14347 4520 0
1696 -6710 0
-8248 -10146 0
3164 7788 0
-15020 7509 0
10729 -13392 0
-1268 -329 0
-12785 -11733 0
10188 -1426 0
9945 -13635 0
-5395 -15365 0
681 12100 0
2771 1833 0
12926 7018 0
6423 10507 0
-2460 1750 0
-2142 15161 0
9504 9667 0
7441 13853 0
14474 -7508 0
-14851 2212 0
14751 5199 0
1268 -7300 0
-2264 -5813 0
-15530 4890 0
-9981 727 0
5495 -4038 0
10902 6000 0
8219 10600 0
13710 2177 0
-5244 6161 0
-8103 3247 0
-13507 -12247 0
14087 938 0
9460 14968 0
-13060 4019 0
-8446 -902 0
-6176 -8135 0
7347 -7897 0
-5928 8117 0
-2743 1578 0
-6686 4480 0
3000 -13444 0
-15567 4967 0
-2432 -5275 0
6610 -12570 0
-2773 778 0
-9995 -5935 0
-13959 13144 0
-8454 -751 0
-2399 -12581 0
-12766 4162 0
-6817 -12271 0
5041 14156 0
10795 1034 0
-4691 -14090 0
7752 -12878 0
9370 -8825 0
-5836 8144 0
-6031 8108 0
9851 -15237 0
-15182 4490 0
1933 7995 0
-3994 6956 0
-1497 -7463 0
-14860 1330 0
-2759 -7095 0
6378 13795 0
-1982 -12257 0
10630 -3731 0
-985 -4463 0
7886 6229 0
-15217 528 0
11958 -12815 0
7414 11205 0
52 -513 0
9442 3150 0
-11932 14159 0
-2741 11946 0
-2709 -2425 0
11990 -1748 0
-13318 -9513 0
-13504 -2216 0
-8566 -675 0
-7146 -9508 0
-7007 -73 0
-9747 -14353 0
15185 -13198 0
1542 12532 0
-4441 4757 0
5472 4769 0
-2482 10537 0
-1886 -8937 0
-7435 1958 0
11690 5639 0
-13862 -822 0
4134 8869 0
-6376 15103 0
-9881 6459 0
-6832 13450 0
12595 13397 0
-4315 2076 0
-8516 -5902 0
-8267 -4703 0
-14154 -14812 0
-6908 -12812 0
5061 -5556 0
-2223 -2845 0
-15399 -4465 0
-5057 -3615 0
7701 -4164 0
11727 7686 0
13008 1678 0
-469 4672 0
-6709 -12753 0
-4671 13692 0
8124 12791 0
-14420 -12404 0
-15279 -6628 0
2119 10922 0
3270 -12627 0
2841 9717 0
-10982 -4886 0
7250 2813 0
-8311 11675 0
-2678 -5844 0
10790 15140 0
14503 -12197 0
-11619 8413 0
8537 4542 0
5958 8633 0
-8729 -7542 0
-10440 -1900 0
-4560 12224 0
10898 -2365 0
7096 9527 0
-1473 7302 0
-13482 -2751 0
-12177 -12016 0
9359 -2497 0
-13473 4302 0
-1699 -1893 0
-14259 -9619 0
-3611 10809 0
2375 -11060 0
15367 1923 0
-11389 -5628 0
14454 14673 0
-2803 13312 0
-4355 14027 0
14594 -8701 0
-5435 8840 0
6577 5128 0
-7916 8607 0
-12137 -5874 0
-4775 -4463 0
13896 -12152 0
-10161 6350 0
-2771 -12363 0
-10024 13979 0
-569 9622 0
-13967 4325 0
-10379 7556 0
-6364 -13456 0
-10400 6957 0
-392 -10349 0
-12063 -7767 0
-13046 6804 0
5998 5872 0
11451 -13780 0
-13695 -14612 0
3909 10020 0
-926 8474 0
10839 13446 0
-7103 13190 0
-7399 12848 0
-13991 14267 0
-221 -11154 0
-3329 10493 0
12032 4205 0
2372 -11362 0
12424 -8400 0
-14116 12148 0
2670 14224 0
-912 10652 0
516 -14375 0
-3972 7092 0
-12507 -2602 0
15054 9151 0
4615 -5360 0
7386 14032 0
-6040 2524 0
13031 -8566 0
-1554 -15301 0
-15130 14232 0
3773 -4254 0
-9320 4107 0
-7600 -369 0
14525 1490 0
-4278 9334 0
8348 406 0
-8548 4741 0
97 7020 0
-15562 3190 0
-12044 -2906 0
5402 -13848 0
-5780 -1437 0
6211 -14696 0
-11421 -11366 0
10816 -11197 0
-2766 -5797 0
10532 9457 0
-13045 12027 0
-8416 12807 0
-1948 10991 0
8693 12361 0
-2454 7922 0
15011 2426 0
-14893 -13666 0
-10643 -11015 0
-2422 -8825 0
8788 34 0
-3664 11317 0
12748 -11320 0
-5637 -15237 0
5322 -14818 0
9872 11896 0
821 -14112 0
-5288 -10264 0
-8852 -15373 0
-15239 6001 0
-15208 551 0
-2737 2314 0
417 4491 0
3664 7837 0
-12987 2773 0
-9798 -7412 0
3451 -10686 0
6459 7401 0
-6691 -9428 0
12394 6252 0
6191 732 0
-10095 6552 0
-4443 -13940 0
-7079 -6115 0
-5920 10320 0
9236 -3253 0
8383 -7087 0
-13413 -11603 0
1579 12172 0
1623 -7118 0
3613 -5786 0
15233 -14220 0
9435 -2291 0
1 -2439 0
13216 -9739 0
12793 11669 0
3089 15190 0
-2576 -497 0
-5116 5531 0
-7520 12407 0
6761 9478 0
-5421 3039 0
-14732 3535 0
-1530 -14876 0
-5688 11741 0
-3228 1611 0
-6455 1996 0
-3633 4821 0
-11707 -10745 0
276 11016 0
-7555 6525 0
-7528 10941 0
-7430 -11490 0
960 -7865 0
-12012 -1399 0
11400 8531 0
10531 11906 0
-2993 -3816 0
8425 11769 0
3476 -2846 0
-1413 8752 0
3909 -10601 0
-4453 10025 0
-11865 10792 0
1371 -9858 0
-8418 -9150 0
4312 -9528 0
6404 14497 0
-13752 12074 0
1386 -6330 0
815 -1731 0
1706 6206 0
490 -5817 0
9208 3672 0
-4443 1753 0
8055 -14234 0
86 1663 0
-4801 320 0
1651 2228 0
11101 -7742 0
-2019 -7903 0
12872 -9354 0
11559 -5778 0
-9655 -1674 0
-11814 1240 0
1992 -11613 0
-12758 -1282 0
-9437 9744 0
-8242 14137 0
-15170 -1275 0
-10612 -7205 0
627 -13530 0
648 9724 0
978 9249 0
15211 11336 0
5508 11503 0
-6876 14982 0
-3338 3522 0
-6657 -3770 0
11767 -562 0
10168 12123 0
4600 -9862 0
-10290 -13601 0
7623 2246 0
10974 7594 0
-15193 -10101 0
-15548 -1784 0
-8743 -5878 0
-11105 3381 0
3363 1315 0
4650 -1084 0
13700 15004 0
9557 -12603 0
-2355 7670 0
5839 12970 0
-10693 15082 0
5625 4804 0
8551 4745 0
-95 -7885 0
-5666 -6605 0
8354 -15132 0
-15548 1008 0
-5120 14900 0
8345 13125 0
-2643 8798 0
-12797 1893 0
-10662 6265 0
3877 8524 0
1570 6930 0
-13686 -13072 0
13454 9179 0
-5186 -5786 0
-10509 970 0
-8454 -6387 0
6202 9756 0
9817 -10892 0
-6799 11492 0
-14669 -11653 0
16 -1135 0
-9043 9488 0
-697 12818 0
-1420 3107 0
-11531 -6574 0
9338 1536 0
13313 12520 0
-404 504 0
15519 -11414 0
15542 -13791 0
6106 14455 0
3495 -8155 0
-1711 10030 0
6337 -12005 0
6708 10476 0
-187 -9890 0
3917 -12522 0
11136 15187 0
-7386 -8904 0
11287 -3107 0
-14145 8219 0
-1877 -10981 0
-13865 7407 0
4485 -13109 0
-6569 8903 0
-7728 6686 0
-11341 -8521 0
-1912 -11577 0
12075 -4669 0
6622 9039 0
-7323 -10892 0
2321 2245 0
-13359 -6781 0
1070 10507 0
7227 -2222 0
12184 -11116 0
-1445 13018 0
11015 -8534 0
12078 -5943 0
-13548 -15250 0
-10202 -5757 0
2611 -7244 0
-5298 8009 0
74 6785 0
9955 -11304 0
1073 -10738 0
6627 -11913 0
-9265 -7751 0
10406 6429 0
-8915 9245 0
8402 -8027 0
-5611 -11371 0
-9379 -5113 0
-11645 -9248 0
9744 -7538 0
6224 3430 0
-10136 12303 0
10328 -7440 0
2769 -891 0
-3946 -6881 0
6057 7319 0
1624 5352 0
5570 9229 0
-9314 -5398 0
-7127 2189 0
6325 237 0
-1751 6552 0
-3509 4678 0
2897 -2854 0
-4074 6999 0
-1077 4477 0
13600 -996 0
9258 11140 0
-15563 11109 0
10867 7648 0
14349 11348 0
-14001 11678 0
5001 -1241 0
14535 -6296 0
-12159 -13655 0
9639 -15312 0
9823 605 0
-9014 -15486 0
-3353 8605 0
14680 3767 0
7990 -1549 0
-11295 11492 0
-8267 -12991 0
11708 -2240 0
-13358 -9213 0
5793 732 0
-12717 -14021 0
-5276 -7611 0
-15515 -1893 0
6374 2736 0
-14136 10210 0
1395 6276 0
9334 15431 0
-9603 8133 0
-4680 -486 0
-5956 -8504 0
-5269 3265 0
-5560 9654 0
6196 -12533 0
13749 -3479 0
13986 2695 0
-14543 5804 0
-2014 -1797 0
-6862 7053 0
-12350 882 0
1951 -12854 0
7921 9569 0
8750 -4732 0
10375 1518 0
-5093 10017 0
1109 -465 0
3439 12427 0
10132 -14508 0
9798 12861 0
15472 -9490 0
-8539 -10955 0
-3064 -6330 0
5206 14315 0
-12895 -7037 0
-9749 -1464 0
12580 14898 0
-3275 1202 0
-6318 -6123 0
4984 8292 0
-6262 10256 0
-7099 254 0
-1841 -10385 0
6751 -13983 0
-15104 72 0
12431 115 0
-2830 -9974 0
2121 -4736 0
-1191 -10548 0
5368 -13625 0
5380 5318 0
12508 11333 0
8842 -1445 0
-12845 4648 0
2778 8051 0
-7445 7724 0
-5510 4724 0
11198 -12755 0
7311 8350 0
7230 3339 0
2831 4126 0
-5501 4642 0
3222 -6389 0
8404 -4861 0
11067 -10404 0
10234 5579 0
841 519 0
-5503 2693 0
-1211 -15264 0
2168 14344 0
-4785 4796 0
-10468 10713 0
-10177 4419 0
8839 8232 0
14688 14284 0
-3135 4741 0
13424 -7537 0
1625 12365 0
-12638 -7371 0
15516 7086 0
-1988 -11258 0
-3218 -13775 0
-12036 3110 0
-205 11845 0
-2762 -9902 0
-4808 -935 0
-4178 11799 0
-4759 -9026 0
13812 -9750 0
-1751 5286 0
-11199 -14649 0
14716 15253 0
13169 7340 0
-5876 9116 0
-10095 -4837 0
-3555 3260 0
-7551 -13486 0
-10154 -10595 0
2107 -7121 0
8584 11283 0
-9545 -15128 0
6182 1184 0
13040 7939 0
-9128 1563 0
2574 12174 0
-7872 10188 0
-7285 4486 0
-15285 -2920 0
5232 -7845 0
-10059 4955 0
-10457 8328 0
-14929 521 0
-9449 7872 0
-12724 -7947 0
1636 2087 0
12428 -10546 0
7641 -1335 0
7831 -9418 0
5656 -9703 0
12874 2580 0
6725 -10547 0
13848 3931 0
-12233 3056 0
-11507 -1412 0
-9048 14001 0
3980 2908 0
1525 -11865 0
391 6311 0
11418 15006 0
-10860 494 0
4657 14879 0
1328 -6123 0
-8188 8337 0
14651 14094 0
-6250 -1323 0
-236 11616 0
11474 -3517 0
10667 -11228 0
-13483 -5271 0
-9237 -10474 0
14819 -12772 0
7777 -3618 0
-13752 -3181 0
-13918 9950 0
8499 -4488 0
-2314 -7469 0
-493 14360 0
-1589 -14956 0
8239 -11667 0
-7650 -1820 0
8790 2070 0
-9960 2263 0
4889 -1464 0
-3731 -4700 0
-2305 -2873 0
688 -7859 0
10795 -10696 0
1894 15072 0
3074 6303 0
15184 -14740 0
5541 -6689 0
-5787 -13164 0
-1330 3876 0
5170 -763 0
4012 10168 0
1215 12413 0
-6034 8753 0
-10951 174 0
15344 -3817 0
-822 7625 0
-4835 -3816 0
-2784 -1661 0
12508 -12416 0
3415 3290 0
-10044 -7404 0
6039 -7966 0
-2144 -6546 0
-7365 -7839 0
-9536 -11822 0
-1701 14667 0
5593 -6113 0
-15294 6595 0
-473 -2821 0
-9513 11887 0
-11329 -2462 0
-4860 6541 0
4191 -4213 0
12613 733 0
2636 9804 0
-14883 -11003 0
-5899 -76 0
4265 500 0
-259 6462 0
12484 4437 0
12577 7149 0
-13230 7065 0
1353 -3359 0
-3805 5607 0
-129 -4145 0
3791 -2428 0
6371 12763 0
2823 -2400 0
11889 5111 0
-4477 -813 0
-3384 5432 0
15435 -11781 0
6950 -12111 0
2500 -636 0
9269 9248 0
9834 -15177 0
-15387 -13727 0
-4964 -586 0
1041 -11811 0
2944 15143 0
-327 3477 0
8770 476 0
-723 -13658 0
-9974 7130 0
-11638 -2518 0
-87 -1379 0
667 12432 0
1730 5431 0
-14512 -14689 0
8150 12879 0
1018 -6840 0
-7580 13757 0
15141 10489 0
-8997 -4735 0
-13827 6428 0
672 14465 0
-5964 14419 0
954 13166 0
-4459 13242 0
12259 3732 0
-9618 5391 0
2935 329 0
1677 10599 0
13076 -10431 0
-8263 -13511 0
-1177 13187 0
5463 -8590 0
-807 -6308 0
7062 -11460 0
5147 10581 0
-10412 4120 0
-10067 -12266 0
6966 -9738 0
5927 -10937 0
966 9064 0
-2113 -10513 0
-2580 5734 0
11120 2255 0
9633 1469 0
-2291 8538 0
9763 7457 0
9462 -3721 0
14138 -2181 0
-4184 997 0
14745 -8570 0
-15557 5292 0
-5876 983 0
111 -4909 0
-3665 3806 0
-5969 12205 0
-15108 -10598 0
-14245 10617 0
-9684 14725 0
-14628 -11424 0
223 -10204 0
-116 -5259 0
-15473 -14303 0
13012 -2179 0
-9050 7278 0
10618 -11673 0
-14663 -2271 0
3011 -14370 0
13795 -13299 0
-6970 -5982 0
-6050 -12416 0
6758 2222 0
-14772 11338 0
1768 5319 0
-215 2317 0
-5778 -9865 0
15392 13499 0
2931 1965 0
10342 4282 0
-8230 13680 0
-14265 5526 0
-2107 -12463 0
-6665 12388 0
-2213 1490 0
-1580 -1889 0
13089 7335 0
11047 4153 0
-125 -102 0
-7355 -5449 0
-8316 11854 0
-4331 6769 0
11568 2596 0
8999 5008 0
-11135 97 0
-9592 -100 0
-9621 -14571 0
143 2991 0
-14785 5437 0
12860 -11443 0
9898 -2554 0
-9857 -494 0
-2969 -7867 0
-5715 10904 0
-2459 -7595 0
-12108 5209 0
-9800 -7887 0
4822 -15298 0
5689 2808 0
-8446 8960 0
10612 -15017 0
15483 -8377 0
4000 -7437 0
-15414 -12110 0
6913 15508 0
9582 13592 0
-13727 3531 0
-13546 3071 0
4950 -2035 0
-3567 -1086 0
8819 -5366 0
11248 -5127 0
-3280 4456 0
-8484 9271 0
2751 8583 0
-12469 -5172 0
-2376 -10185 0
4438 8438 0
-850 9718 0
14899 5742 0
26 5949 0
1502 -4197 0
-9995 -1962 0
-4652 -9520 0
-13479 517 0
5081 -1242 0
-8662 14254 0
7115 8285 0
11342 -3427 0
14472 11352 0
-6474 -321 0
2857 -7136 0
-12952 11986 0
-14354 11545 0
-1935 -8769 0
-6683 -10472 0
-1012 -6211 0
-11597 -9501 0
11116 -11134 0
10393 10837 0
4959 -358 0
-12181 -9794 0
12473 -9516 0
13151 6465 0
-13284 10355 0
-264 10839 0
2740 6005 0
2555 -5245 0
4957 -10272 0
-14963 -11406 0
-10848 12314 0
-8706 -3184 0
-13608 11600 0
-5868 14730 0
504 8717 0
-15272 595 0
15352 -4744 0
7446 7038 0
2324 1657 0
14939 -7176 0
-13947 -2625 0
5889 -4215 0
-10798 -5880 0
9721 -2148 0
-13176 2697 0
7238 -9871 0
-7054 5863 0
12148 8159 0
2786 -928 0
13086 7243 0
-338 -636 0
-3711 9981 0
12576 -5717 0
-11914 -11196 0
4400 -5856 0
-1686 889 0
13491 -11353 0
1199 -1431 0
8827 7855 0
12031 2092 0
6686 -10440 0
3977 8786 0
11852 -14831 0
10736 6324 0
-8384 -12329 0
13414 12667 0
-12303 -11722 0
14618 -4338 0
9716 -8397 0
-5231 6068 0
13889 -11959 0
13626 796 0
-10269 4142 0
-15260 -10912 0
-10532 -6102 0
-12202 -9367 0
12797 -2989 0
1738 -15116 0
11301 12230 0
7897 3831 0
6770 -2106 0
13644 -4002 0
5 -2666 0
-4328 -6486 0
-7608 8214 0
9329 -2009 0
-1642 -11460 0
70 4239 0
2386 3457 0
12695 13468 0
8972 584 0
-4404 11761 0
-3865 -13288 0
-15434 -13967 0
-1862 104 0
-7545 7899 0
-11269 9102 0
8192 1683 0
-12785 2075 0
-8609 -4849 0
-1274 14354 0
-3259 15496 0
-4158 5817 0
10849 4076 0
13999 -13928 0
12559 -2343 0
-9292 2844 0
-7967 6700 0
-14130 3492 0
-3464 12153 0
10112 13249 0
11065 8055 0
11747 -11410 0
1465 -5372 0
6433 12189 0
-6531 13471 0
7850 13529 0
-12999 9068 0
-3214 4793 0
223 12994 0
3458 -2470 0
-1289 -1975 0
6337 -9598 0
-14494 4035 0
-7737 -12895 0
10648 95 0
12298 12243 0
-1500 -9412 0
4333 -11714 0
-4534 -6895 0
7903 13766 0
3438 -1971 0
-11515 -14814 0
-3076 -10695 0
10060 13652 0
-10496 -9628 0
-8563 -5738 0
13753 -4896 0
-9498 13842 0
-8820 2495 0
-8949 -9971 0
-5010 -5027 0
14030 7928 0
5377 -5112 0
4586 14310 0
14126 -2511 0
-13176 -2575 0
5112 649 0
116 6160 0
-14689 -9976 0
-10182 -3251 0
10301 12592 0
-15438 -14356 0
-8141 -9616 0
-6707 6801 0
-11921 2897 0
6108 7271 0
-14168 15375 0
954 -12290 0
11125 -3118 0
-12454 11984 0
10500 -6954 0
-6599 4320 0
-8670 -6208 0
15491 2537 0
10425 -85 0
15202 -1503 0
9612 9531 0
3827 7119 0
8709 -6302 0
-8520 13898 0
13154 5391 0
-5821 1133 0
554 -4727 0
5549 13999 0
-6409 8194 0
-123 -11341 0
14050 5249 0
4597 -12708 0
-10821 13519 0
5018 12833 0
5322 -7470 0
12926 -14895 0
11646 2091 0
-14814 5620 0
-7647 10516 0
-13924 -8475 0
6701 9393 0
-12438 -9029 0
1873 14759 0
820 1770 0
-12579 9152 0
-9923 2793 0
-10578 -2111 0
-13218 11867 0
15374 -13295 0
-4591 8038 0
3442 -6639 0
11505 -8578 0
2808 15109 0
9910 -7063 0
-220 -10591 0
-11297 6593 0
13462 15101 0
-8220 -10478 0
-3699 -12187 0
-10776 -14702 0
11762 -13277 0
9960 -4512 0
79 -5346 0
-12209 -5534 0
-12367 360 0
10253 -12030 0
120 -9394 0
-1496 -14203 0
-15332 9478 0
-1826 -5172 0
8487 -4511 0
-14215 8309 0
1334 -4924 0
-457 -4948 0
-7589 12928 0
11539 -6662 0
11241 9378 0
12324 8558 0
-12986 6505 0
-3777 -7192 0
-10143 -5386 0
-14725 5808 0
960 -4207 0
1758 -5900 0
-594 -12677 0
-1933 -12433 0
-4266 919 0
6474 -9936 0
8803 6914 0
-10006 -12971 0
-7173 9247 0
6688 6204 0
13074 -6136 0
14043 -4966 0
12144 -147 0
-13418 3944 0
-6936 15404 0
-12696 -10578 0
-3227 -665 0
-6813 -9267 0
11478 1519 0
8938 12247 0
-806 10593 0
10188 -7998 0
14187 15304 0
9095 -6588 0
-6677 -12395 0
-3873 7908 0
-3670 -7611 0
-13806 -11870 0
9018 15122 0
6628 -1378 0
9810 -1423 0
5129 11520 0
-8850 7588 0
9397 7577 0
-662 -4964 0
-6647 -10119 0
6709 390 0
-5820 -15013 0
8178 -3615 0
4983 -3980 0
246 7149 0
-15178 -3214 0
7012 -13474 0
570 657 0
3446 6751 0
8368 -15130 0
3117 -14330 0
-14314 4877 0
9089 -11451 0
-599 -10054 0
-87 -7054 0
-9112 4985 0
5594 -3464 0
-14930 -6942 0
-1284 -960 0
-13101 -15136 0
3152 8443 0
4552 -3604 0
7417 -7111 0
-10854 -13119 0
-4996 -7969 0
-13786 -10664 0
796 582 0
14754 6389 0
-4419 12476 0
15283 -9095 0
8257 13183 0
2457 13102 0
11369 -3015 0
-13739 105 0
-12704 -6409 0
11893 1945 0
-7887 -1042 0
8464 -3315 0
-2012 -7132 0
-2258 6172 0
-14262 -15477 0
1448 -6327 0
4596 3063 0
2836 -6374 0
-290 -1962 0
2898 14674 0
9553 4479 0
-566 -11296 0
14027 -12577 0
-11059 -6342 0
-8881 5904 0
-1396 11268 0
-12004 -9209 0
-9253 -6115 0
-10197 6003 0
5809 -4229 0
611 -14623 0
-12064 -1699 0
-8788 13994 0
-730 -1325 0
-29 15271 0
8095 -11288 0
-12072 -942 0
7483 -13567 0
9312 -10249 0
1193 -15513 0
6362 15562 0
-10449 -1462 0
-12146 -5105 0
-5679 -14536 0
-15333 -5868 0
-15154 -6421 0
5505 -13281 0
-270 -4738 0
5881 14215 0
4701 4576 0
174 -2404 0
-15331 11616 0
1827 -10300 0
-12417 -12227 0
-4393 -7052 0
-1794 5598 0
-14361 1689 0
8024 -2794 0
-5616 7604 0
-426 6823 0
8268 -204 0
2 -14361 0
-8304 11687 0
-13437 -7214 0
-9715 -6095 0
-10269 12902 0
1695 -5482 0
10075 -2487 0
3706 -9983 0
-986 5696 0
13485 13946 0
13894 7708 0
8733 -13276 0
1815 -11136 0
-9946 -5513 0
-2223 -2680 0
-3480 3512 0
-2635 -9715 0
3278 -10093 0
-3280 6108 0
474 -15228 0
10034 5663 0
12651 -6762 0
6399 11874 0
9062 -2542 0
13265 1980 0
-14335 14512 0
13686 -8685 0
13225 -13041 0
-4051 -12291 0
-13447 12847 0
5708 -9381 0
12001 -11952 0
6861 -13188 0
-8139 10970 0
-3100 -3251 0
-11855 5723 0
-135 2821 0
13518 -9922 0
8750 13169 0
12898 -10953 0
4748 -13845 0
6543 -15236 0
9742 -3741 0
-750 13179 0
-15313 1044 0
13703 12065 0
-19 1913 0
7221 959 0
8424 13789 0
-2777 3681 0
3538 -2398 0
9625 -12974 0
6049 -3504 0
-6764 4220 0
14414 -6518 0
-9946 -6597 0
-2472 -3014 0
6190 -6695 0
3717 -6166 0
15181 -3426 0
-2556 -11934 0
-6880 7992 0
-10721 -869 0
-13907 -4411 0
-9119 7430 0
12418 -7537 0
8216 13270 0
-4321 -9405 0
-8379 3312 0
12641 -3902 0
-7766 -1405 0
-14754 5261 0
10004 -3124 0
-2019 13056 0
2751 -2969 0
-2894 3808 0
-891 -12710 0
5246 1649 0
-13928 4178 0
-3171 -6784 0
650 -589 0
-3302 5514 0
12772 -9627 0
-9671 13761 0
9887 1623 0
-4297 -14132 0
-4979 1997 0
6254 -11146 0
14459 13737 0
-4090 -1773 0
13336 -12604 0
731 167 0
4923 817 0
3559 2154 0
-10804 7295 0
-1997 9587 0
1507 -14405 0
8955 -3077 0
14348 9623 0
10661 12290 0
4365 -7445 0
-9648 -15296 0
-13515 874 0
-4839 135 0
-9778 11232 0
-695 -2 0
6738 3344 0
11995 790 0
5785 -4123 0
-1721 -9959 0
7258 1114 0
-13278 4085 0
-5955 885 0
10724 8298 0
-4523 -13435 0
7822 -4398 0
1462 -1889 0
-15349 6527 0
-14182 7709 0
-1451 12872 0
14118 -2239 0
1219 13794 0
5447 14815 0
1030 -9309 0
11446 6031 0
-5510 6050 0
-7305 6594 0
10481 11827 0
-8448 15261 0
-5275 15093 0
-9314 13107 0
6668 -6119 0
15302 9620 0
-6555 9747 0
6603 5820 0
-12518 11823 0
15234 -6086 0
3219 4742 0
11741 10064 0
2452 -11734 0
-4590 -2445 0
-11962 -1542 0
-5812 4602 0
-811 6176 0
-13447 4580 0
-13862 -5710 0
-3799 5134 0
-3944 -3901 0
11849 8451 0
-13214 -13161 0
-8202 -9737 0
-7329 -2982 0
8397 -13306 0
14922 14520 0
3303 -9373 0
-3127 -5803 0
-15506 -8493 0
3849 -12149 0
-368 55 0
2817 -14274 0
11187 -12068 0
-13153 13261 0
-2594 9398 0
-10274 7871 0
13296 -803 0
7107 -4580 0
-6027 7644 0
-3834 13575 0
-1486 11213 0
-3427 9288 0
-5940 -11170 0
5131 -13866 0
-12041 11990 0
-9390 317 0
-12956 -167 0
-14241 3938 0
726 -5256 0
-7305 -6523 0
12149 15179 0
-10725 13062 0
-12354 -5920 0
11 15107 0
2246 -3933 0
-1784 -4719 0
15032 1712 0
-8159 92 0
4191 -5435 0
4512 -4216 0
12978 -5040 0
13723 6887 0
1239 -13369 0
10610 -3591 0
8120 7203 0
-9162 -15499 0
-7290 -7630 0
12321 -2913 0
-11738 -353 0
-697 5078 0
-13340 15371 0
-8433 -15113 0
8308 11216 0
13360 -4580 0
-15233 2624 0
7064 7514 0
5610 -14753 0
-13528 2479 0
2703 855 0
8695 12167 0
-9520 -13818 0
14351 -111 0
13861 -7777 0
-8919 2369 0
6551 -262 0
-722 11798 0
12038 -12132 0
5436 6065 0
7830 11348 0
-12722 13992 0
-14965 -1787 0
-11303 -230 0
-2428 -9692 0
6146 -9058 0
4674 -12109 0
-7622 4821 0
9021 8325 0
4959 -544 0
-2234 -13818 0
-12795 -186 0
9804 4403 0
-13691 10480 0
-13002 -9937 0
10701 -12339 0
2572 -5931 0
8795 4895 0
-12474 -5496 0
9326 -14769 0
14213 -5328 0
1264 12371 0
-12322 11253 0
450 13843 0
9833 -9628 0
-5886 -10833 0
-13837 -12867 0
-12636 -2439 0
-9223 5555 0
14751 8286 0
3684 11205 0
9691 4500 0
-6904 -13131 0
199 8401 0
-6922 -6685 0
-9440 9584 0
-1873 -2301 0
-1234 -6072 0
-6880 -8789 0
-1989 -2843 0
-15339 15527 0
-4256 13212 0
-3284 2688 0
7677 -3472 0
-12076 9334 0
8866 12238 0
-2298 -5940 0
-14336 1621 0
1621 5861 0
-14457 13999 0
-6775 4687 0
14401 -2102 0
1586 10751 0
13708 8174 0
-944 -8376 0
-9887 3650 0
-812 -8886 0
-7220 -6618 0
-2470 -8556 0
13069 5570 0
-12649 -4728 0
-3491 -11014 0
-10646 6053 0
3149 2068 0
297 -11750 0
4156 11359 0
-4001 10157 0
-12517 14031 0
-5975 -15309 0
9115 11915 0
7304 -6729 0
-2048 7526 0
-15373 -12038 0
2075 14113 0
-3469 -2943 0
-14524 -1718 0
-2010 -13552 0
-7749 -1543 0
14691 9500 0
15216 10362 0
10615 15485 0
-13289 3643 0
-219 -3335 0
-6813 -11133 0
-11424 -6635 0
1155 -359 0
4025 1800 0
-9093 9227 0
3660 5440 0
-15118 8687 0
-11777 -12149 0
-13299 -11570 0
-8237 -2648 0
-1471 -13803 0
13757 -7008 0
7974 -4816 0
-12366 -574 0
-3252 9277 0
13627 11470 0
10275 7360 0
9726 2822 0
10328 12324 0
14748 11667 0
-14042 -4203 0
-8223 -9688 0
-3440 -11770 0
10086 -1355 0
8242 -15021 0
8513 3203 0
13081 8433 0
9337 1125 0
9051 4452 0
6498 -8887 0
10118 -14803 0
-1896 2925 0
-3471 9091 0
14110 11433 0
14395 6259 0
12151 11632 0
-11269 7042 0
-13476 789 0
-5023 -15211 0
4230 -9386 0
-3431 9125 0
-7298 8245 0
-11882 12697 0
11730 -11089 0
12082 12416 0
-8338 -157 0
12859 -12943 0
-15316 -4456 0
9443 6073 0
14875 -1135 0
7509 -6209 0
12387 -6893 0
10497 -11462 0
13236 -12995 0
14043 -2160 0
12554 8 0
15388 936 0
8155 -13750 0
-10181 -3469 0
-5275 -13760 0
-6105 -11243 0
14610 3522 0
-8436 6595 0
6400 -11765 0
7899 -13029 0
-12201 2785 0
12971 -9277 0
15508 -5442 0
-6429 7707 0
-3051 2664 0
-11582 14247 0
-2391 -329 0
1196 -8287 0
-4303 3405 0
-6588 6601 0
-2851 14734 0
-11698 3014 0
14106 6219 0
12836 13080 0
11084 6777 0
-2503 -5947 0
-13681 -14815 0
376 -14224 0
11952 7998 0
-4312 -1075 0
1272 -7579 0
-6753 14235 0
-4971 6923 0
5364 1917 0
3336 -9887 0
-7260 8280 0
12798 -10078 0
10239 -14299 0
3076 3730 0
-13390 11904 0
-12577 -13402 0
8633 12850 0
-11779 -5557 0
11847 9951 0
211 6860 0
864 14982 0
12053 -14182 0
-6049 8511 0
-3299 -8907 0
8241 12052 0
-11877 -13937 0
-4686 12000 0
-6986 -10993 0
8615 4163 0
14111 -8058 0
5677 9565 0
-5657 8819 0
5997 531 0
-1403 -15425 0
-6220 -11426 0
8767 11900 0
-14831 -12121 0
-11394 -10823 0
7392 -1329 0
326 -9865 0
13309 8014 0
13061 -3765 0
-7020 12969 0
9782 -10625 0
-744 -4158 0
-10386 -2039 0
-9100 -32 0
4332 14475 0
-9814 -6347 0
4678 -13649 0
-1433 -507 0
11812 5101 0
3378 3658 0
4633 392 0
7270 15364 0
6505 1774 0
9860 2950 0
-3651 -15033 0
-9338 -10906 0
-10066 -5745 0
12359 11896 0
8038 7061 0
3936 -1278 0
4848 13113 0
13731 -11387 0
-12490 4478 0
-7705 3608 0
7158 -13114 0
-6204 11876 0
-9232 -10100 0
4694 525 0
9102 -10893 0
-1073 -887 0
-7989 9023 0
-10664 6025 0
1048 895 0
15403 -34 0
-11146 -7835 0
527 2514 0
-12502 -10557 0
-3519 14124 0
-5510 1346 0
9877 -14783 0
-8254 -439 0
12823 2412 0
-1915 -13249 0
-5302 3416 0
4212 -10493 0
-8284 14782 0
12856 -10555 0
4320 -15440 0
4511 5569 0
-14174 -9848 0
-6240 -12461 0
-1942 -12355 0
7749 -13417 0
14417 2388 0
13043 -8861 0
-9393 15383 0
-6842 686 0
-9025 -5479 0
9206 -11467 0
-10679 -8015 0
10726 -6048 0
4502 -4427 0
6842 -13003 0
-11717 10429 0
9346 4493 0
-12901 10345 0
11299 -1105 0
4205 3474 0
7482 -14420 0
4494 5493 0
5879 2124 0
-8979 -5764 0
-9973 1865 0
954 8170 0
-13417 11279 0
3645 4836 0
-3122 14953 0
10813 -806 0
-13577 10465 0
2351 7565 0
-8433 15038 0
-13990 -3972 0
5438 -6590 0
-1491 434 0
-1557 -8412 0
-4248 -8371 0
-14512 11367 0
-4706 -10178 0
-13509 3954 0
860 463 0
11097 11535 0
-13812 2483 0
-14521 -8198 0
-4704 -11636 0
-3055 -15316 0
-11107 -12589 0
-11558 -12607 0
-1770 10160 0
13095 4016 0
50 6505 0
4534 2565 0
-1371 -14613 0
-7415 -9132 0
11671 -15413 0
-5283 9510 0
-948 7072 0
3815 -7317 0
-10616 1414 0
11823 13050 0
-2993 -13876 0
-13724 -12874 0
-12737 11546 0
-7460 725 0
-9220 -7733 0
9656 15228 0
-2365 13309 0
10294 -12103 0
6448 9766 0
-1443 13593 0
8050 -23 0
-5302 -14138 0
-14445 -1496 0
13826 -2842 0
12693 274 0
2715 6900 0
2359 9960 0
1501 7155 0
-7249 -9007 0
-12309 13393 0
10700 12933 0
7917 -6341 0
3809 -2519 0
-10612 -1867 0
13714 -5105 0
5653 -3376 0
13797 -12256 0
1469 -5969 0
10796 10852 0
4373 8074 0
2113 -14576 0
4548 -4276 0
-7738 9316 0
-2134 4832 0
-11963 -9843 0
-9527 -12067 0
10543 -242 0
-7251 2546 0
7041 -14301 0
11901 1227 0
-14809 -8283 0
-14832 -3776 0
150 10505 0
9996 3170 0
-3601 -11822 0
-3036 -15563 0
11660 -7191 0
-13458 -13103 0
4745 86 0
2301 -2334 0
-10145 -8162 0
-4926 -13259 0
-7524 -14912 0
-5057 1186 0
-147 -11540 0
-7751 2599 0
3499 8972 0
8267 7467 0
-2709 5782 0
14580 7269 0
231 6050 0
-2334 11677 0
-14477 9774 0
-10840 -7425 0
11232 -6643 0
10524 2689 0
3028 6962 0
-12071 -8558 0
8574 -5359 0
7107 14132 0
5992 -15355 0
14491 5378 0
-905 693 0
1267 -3211 0
-15260 190 0
-10363 -13189 0
-12977 3952 0
-9891 -7255 0
13178 -4721 0
928 3885 0
-6998 -1211 0
-8399 -9312 0
12876 -14079 0
-3099 8037 0
-14731 5853 0
-5428 -5717 0
-1558 -7768 0
3522 -4736 0
-7887 7406 0
-8209 3697 0
6789 -7013 0
-15539 12904 0
7304 1319 0
1323 -12940 0
3150 5557 0
14412 14596 0
5674 1545 0
-8296 -1366 0
2533 -8234 0
5329 7906 0
-1504 -12132 0
7774 6419 0
-14979 -10727 0
7610 -2776 0
2944 7304 0
5101 -9011 0
10182 -5739 0
9721 8716 0
-6201 -11692 0
3127 2572 0
-8904 7963 0
-5053 4299 0
-409 15001 0
1509 421 0
-5051 6697 0
-1819 7392 0
4028 -7724 0
4394 10354 0
-6245 -8373 0
3618 -6615 0
-12303 -295 0
-5664 258 0
-6721 -6526 0
-12717 -1589 0
-13862 13863 0
-11269 1843 0
8781 -15215 0
8638 10502 0
2517 10044 0
7137 -10523 0
-8223 -9400 0
3544 10488 0
-10135 -6478 0
-14245 2932 0
-3693 6510 0
-10268 218 0
5415 12609 0
-12868 -4714 0
-7308 12532 0
455 -10710 0
-5439 7342 0
-14104 9870 0
10254 -13364 0
3737 14382 0
-12539 -14140 0
-14928 11564 0
357 6541 0
-5093 14624 0
9975 2298 0
-2614 1825 0
-2249 400 0
-14528 5435 0
-5199 -13457 0
-6154 -3560 0
13441 3916 0
1965 -1488 0
6724 14581 0
9580 6032 0
5636 4410 0
-9169 -2669 0
8531 8318 0
-12277 -2560 0
11206 -11305 0
-8732 12830 0
-9934 10231 0
-11613 -13029 0
4168 5277 0
561 -11874 0
1280 1645 0
2612 -274 0
13144 5495 0
4206 2940 0
13198 15531 0
8337 -11740 0
-2987 -9773 0
4733 -10971 0
-4957 -145 0
2552 5528 0
1623 5313 0
-121 8605 0
6215 -12473 0
-14613 -14484 0
-11938 -6894 0
831 13053 0
11024 2894 0
-2179 -1467 0
-8864 3414 0
-9046 6369 0
8095 13878 0
-13921 -4187 0
-7966 14606 0
8665 4859 0
6235 11805 0
7433 -6205 0
-4399 1215 0
-2910 15254 0
7168 -4759 0
3322 12729 0
11099 15511 0
11169 -8481 0
-287 -10838 0
4658 12758 0
14930 -8927 0
-3668 7506 0
-12290 4681 0
-8672 -9819 0
9385 -13127 0
783 -360 0
3109 1705 0
14215 8155 0
5293 -10119 0
-7128 -8394 0
-1842 -1027 0
-12478 -6666 0
-4722 -10828 0
7717 2529 0
-14346 4889 0
-7792 595 0
-14550 -13034 0
-12687 -359 0
-7645 -8103 0
9683 13469 0
-6131 11924 0
-3060 -7900 0
-14958 -2104 0
-13417 4293 0
13226 2572 0
-7289 -13288 0
-1019 6827 0
-2559 9893 0
824 10689 0
9283 210 0
672 -7236 0
-5473 10489 0
11175 -5908 0
-1120 -12218 0
-2647 -5057 0
-12009 -10889 0
-4171 14761 0
-7954 -10937 0
15426 10956 0
6737 2851 0
-6886 2302 0
-14200 9466 0
15267 4384 0
4789 10886 0
236 5049 0
-12424 -4121 0
-5111 -11408 0
-13965 14100 0
-9213 4075 0
-248 -10414 0
-5670 -3165 0
7950 11195 0
255 9898 0
5653 -5062 0
-6229 -7326 0
4474 -11801 0
10012 5871 0
-15171 9106 0
13032 1882 0
3882 3085 0
-1995 -1697 0
-6967 -13982 0
-7747 11589 0
8989 -7424 0
4696 -12855 0
341 4637 0
-6393 14899 0
-9071 -4173 0
-14291 -6050 0
-13274 -15247 0
11289 6454 0
4586 7511 0
12360 3726 0
-12902 -5717 0
2768 -5021 0
10383 -14034 0
-12112 -8199 0
-3699 6395 0
-4095 -9481 0
-3656 -2420 0
-5034 14668 0
436 5635 0
-13877 -14477 0
12604 -4075 0
4961 -15068 0
11896 841 0
1501 7199 0
-2752 -10607 0
-12899 13508 0
12662 -9077 0
-867 -8313 0
-978 -13881 0
-12819 -8900 0
-9107 -14142 0
-9302 -3224 0
4315 -15543 0
-10191 14143 0
-13225 5241 0
3940 5050 0
-416 2371 0
-14024 -12906 0
-9470 4162 0
-10989 6612 0
5676 -8310 0
-2090 -3735 0
-14902 14802 0
-4901 12518 0
11083 -6680 0
11422 -11305 0
13472 -4492 0
11855 -768 0
3699 -4695 0
-5738 -8219 0
4646 -12999 0
-2057 -862 0
2459 -15289 0
7079 11933 0
-9304 14689 0
-8237 13698 0
15138 -677 0
-15441 -6244 0
1007 -11087 0
15359 -883 0
-12595 5739 0
11334 15452 0
-760 8853 0
-9637 5482 0
-465 -3201 0
5006 2469 0
15111 -4521 0
4804 -1874 0
-466 -7744 0
6209 -15136 0
1369 6702 0
1610 382 0
-13184 -11485 0
13999 -5161 0
-5102 8576 0
-14866 260 0
-845 -6179 0
-422 -12198 0
34 -1548 0
13053 -1421 0
-34 -11007 0
-10571 -5534 0
-295 -12510 0
3816 12630 0
-6411 15515 0
-14224 -4034 0
-10230 6433 0
8897 -9202 0
7363 14665 0
5904 -10904 0
-882 10289 0
-5888 -7514 0
2646 -2093 0
13858 9293 0
11767 619 0
-11608 2278 0
-13825 8279 0
4656 3864 0
1349 -7185 0
421 13074 0
-2446 -14480 0
-5602 -6940 0
6325 8288 0
-9805 1491 0
6612 -3199 0
-5118 -7061 0
-13969 13294 0
-3200 -2728 0
1126 878 0
-7794 9269 0
-11857 9306 0
12703 -2112 0
-7639 11147 0
570 -2009 0
-3621 6824 0
-2912 11298 0
11017 -12127 0
14691 -13286 0
-11075 484 0
5626 -14990 0
7415 6406 0
-2852 -12346 0
92 -14000 0
6368 -14960 0
553 -5688 0
-9528 -6461 0
14684 -9643 0
11124 -12820 0
-15523 -8470 0
9126 10393 0
-6028 3682 0
7654 2406 0
-1876 174 0
-15251 -1067 0
5143 1204 0
14354 -81 0
-11490 -2760 0
-14618 -8314 0
-6240 5948 0
-2658 11473 0
9385 -14383 0
-15037 14311 0
-13516 -3183 0
-7789 -15463 0
-9868 8279 0
-9259 14819 0
4760 -14884 0
-10792 4665 0
407 1748 0
15061 -9143 0
2557 6856 0
10697 8180 0
11548 -15056 0
-3394 -5337 0
11600 211 0
-12281 2945 0
-13734 7557 0
-8218 -7913 0
-9856 -1496 0
2607 12622 0
-8641 2373 0
-9074 158 0
3169 6261 0
-7766 -9611 0
-12749 7050 0
-4167 -14396 0
9267 11702 0
-3575 -6163 0
-11998 -6281 0
-10268 -965 0
4568 -11715 0
9345 -1393 0
5597 4264 0
12936 -3453 0
-11576 -2271 0
10647 12090 0
-15170 -9418 0
2615 -6127 0
-2623 -9880 0
13741 -10434 0
-6671 -4042 0
119 6252 0
13360 5816 0
-11757 -6374 0
3795 14232 0
-9676 -14991 0
-9374 5867 0
-5490 10168 0
5312 2197 0
-7841 4449 0
14388 5011 0
-9321 5639 0
-13787 -2439 0
-459 15508 0
13938 553 0
-14174 -187 0
-8670 5447 0
-2994 -14023 0
-13560 13871 0
7338 5854 0
-3425 -11339 0
-529 8957 0
-7351 -7177 0
-12412 -6341 0
11407 -15170 0
-427 -10684 0
7707 -11476 0
8657 -7002 0
14551 -14812 0
-5763 -8061 0
9677 6805 0
7639 -3487 0
-6365 -1673 0
13796 -2848 0
-13702 -15278 0
12875 5738 0
5907 5998 0
-3497 -6628 0
-437 -7756 0
-15238 12330 0
12083 -6927 0
7991 12231 0
-8220 -12061 0
-6488 -8766 0
12644 -13873 0
2798 -14778 0
14701 3204 0
11187 4505 0
407 12101 0
-281 -12574 0
5282 13206 0
-3447 12014 0
-9494 12269 0
11230 -1625 0
8236 -5698 0
75 6174 0
13633 -14078 0
-10127 -10349 0
10442 -7550 0
-2159 -1828 0
-378 -13616 0
14091 6595 0
1865 14386 0
-168 8392 0
1582 -9011 0
8526 -10212 0
6914 9770 0
-14145 9295 0
-9665 13282 0
10089 -1008 0
14793 1713 0
-13072 -5668 0
-12428 -3291 0
2795 1230 0
15099 -3088 0
7487 -953 0
5788 -4207 0
14900 -11991 0
8166 -6010 0
-6580 1898 0
386 14205 0
-13829 3368 0
-1983 1921 0
-544 8966 0
981 3512 0
-14561 6962 0
13011 7369 0
-10486 13303 0
-8186 -2520 0
12464 1848 0
14364 -3792 0
14703 2108 0
-1298 3611 0
7973 -4419 0
6215 -13200 0
-13820 9308 0
10566 1400 0
-697 12384 0
-8198 2987 0
-222 -12011 0
12752 -4734 0
6148 -8142 0
-9412 -13685 0
4750 -8785 0
6336 5074 0
615 -563 0
-3470 -4449 0
-7830 -8347 0
10719 -11445 0
9241 -12957 0
-5123 13347 0
13999 12704 0
-8233 5060 0
-10782 4951 0
-4619 3679 0
12960 6674 0
-910 -9090 0
8002 -13488 0
-10069 6617 0
-3047 1144 0
-2769 -12679 0
-3712 9297 0
-8429 -8136 0
8282 -13719 0
-12366 -14046 0
11214 9565 0
-11425 3313 0
-12066 542 0
-6135 11718 0
5833 13863 0
-3433 14987 0
7241 -8933 0
6224 8382 0
-14109 8906 0
7650 -1834 0
-12786 8426 0
-9063 12373 0
854 -14343 0
8671 9764 0
2079 3257 0
691 15461 0
11090 -4811 0
10144 -13578 0
2412 -10659 0
15028 5720 0
1181 -6137 0
2495 -13749 0
-4673 -13512 0
10919 4810 0
8170 11800 0
-8010 -11529 0
3427 -4886 0
1022 -2225 0
-13116 10294 0
9840 7582 0
-4104 8773 0
5714 -12412 0
-7595 14304 0
-6149 -15542 0
-15237 -8907 0
5882 546 0
-1274 6761 0
10760 10552 0
-12234 -12938 0
13703 603 0
2385 5580 0
11911 -13723 0
-9302 12443 0
5570 -8982 0
-7735 -14212 0
6846 442 0
14768 -8604 0
-2364 15153 0
13627 -12857 0
3769 -9777 0
12931 12494 0
-13895 14651 0
14080 4099 0
12095 7024 0
-11575 14540 0
3821 8329 0
820 1272 0
5635 1656 0
10982 -9204 0
15403 -8059 0
6493 -4992 0
-1670 10465 0
-11838 -8761 0
5995 14524 0
-2793 6100 0
10770 13155 0
-5692 -12786 0
-3637 12313 0
-2631 5674 0
7275 6226 0
12852 2297 0
1238 -1098 0
14885 3069 0
15370 1200 0
12984 8067 0
-981 15535 0
-12179 9442 0
3320 12311 0
-11638 7820 0
9316 271 0
-5447 880 0
7872 -108 0
-15448 -5023 0
-14822 877 0
-554 9700 0
9451 -4353 0
10791 -7589 0
-6950 -9634 0
6822 4827 0
3630 -10494 0
2058 -950 0
-14218 -11580 0
-10769 -14801 0
1775 -7031 0
2630 -761 0
-9688 -2030 0
14297 -4395 0
-1064 5447 0
-14307 -12252 0
9845 -1902 0
-6413 -7949 0
1364 -14047 0
-10971 9062 0
-5367 -5808 0
-1172 -10842 0
-3510 1948 0
-1580 11075 0
9224 1413 0
-12162 -9201 0
-7698 -3415 0
-9292 7362 0
-13902 597 0
11932 -7579 0
8977 -10904 0
-281 -8533 0
1506 6703 0
7921 -2324 0
5713 -8565 0
-11960 -507 0
7471 -14275 0
-4181 -376 0
8500 -7999 0
-2230 14476 0
4334 344 0
-6052 12731 0
2894 6250 0
-6980 -5412 0
3268 9798 0
348 -14464 0
-11552 5108 0
-8353 -7115 0
-15399 1412 0
9534 6425 0
5011 -9543 0
-2016 -9791 0
14761 10154 0
-7800 -9535 0
3187 14987 0
-1842 -1994 0
9115 -7367 0
-4307 14651 0
-14883 3273 0
-12012 -8340 0
-8835 12378 0
9447 -3275 0
9216 -4572 0
805 -15289 0
-2807 12562 0
4016 -2495 0
-216 12431 0
15094 -12029 0
-1735 13758 0
11088 -14147 0
3304 -9188 0
12490 10617 0
7649 -1959 0
-5385 -7120 0
10477 -3962 0
8022 -14093 0
-11454 6487 0
1149 -12406 0
-1615 6448 0
1220 5686 0
12306 12743 0
-1159 -5803 0
8323 6119 0
3435 -12140 0
-512 9668 0
12074 -12704 0
10211 8957 0
-186 14182 0
-13700 -14410 0
10282 2173 0
2571 -3550 0
4644 3146 0
-7684 5559 0
4206 8980 0
14205 -7228 0
-6625 -2938 0
14716 5090 0
-1122 -14963 0
-6156 -11623 0
-10644 -6071 0
-9715 7980 0
872 3634 0
-7581 15030 0
8158 12261 0
-7619 -810 0
-4388 9659 0
-12306 -4024 0
4718 -3088 0
5580 -6521 0
-9655 -9769 0
2468 -6084 0
919 8614 0
4219 -8522 0
-6866 -4098 0
6110 8770 0
-254 14225 0
-14694 4676 0
13757 646 0
-3123 2113 0
15448 4295 0
10635 -1142 0
9811 7329 0
6157 -2435 0
332 -584 0
-9348 -5326 0
848 -3815 0
-3822 14186 0
-7478 -2205 0
-3546 -12007 0
-12421 -11490 0
15367 -9877 0
-2912 8551 0
7595 -5399 0
-13292 8462 0
-3065 14907 0
962 7123 0
-4098 9072 0
143 4426 0
-3435 4278 0
15241 12493 0
-3952 -12220 0
3111 -569 0
13096 15439 0
7500 14579 0
15011 7132 0
-14318 -2536 0
15210 -10487 0
3796 10816 0
-14140 -10949 0
-13512 11393 0
5601 9153 0
8032 3952 0
172 -5485 0
-3252 -12512 0
-5938 -13709 0
4004 -1895 0
-11115 4654 0
13888 10887 0
-4383 12678 0
7130 -1830 0
10802 -6797 0
-10481 8312 0
3122 12079 0
8039 11094 0
2092 -9969 0
-10554 1993 0
-2027 -15293 0
15283 -7282 0
8599 15561 0
-7436 -6646 0
638 1684 0
10691 -14124 0
-7566 5163 0
12449 7880 0
8378 2863 0
3724 -10983 0
11735 211 0
-12117 11735 0
-6141 -13020 0
-7031 -2527 0
-2131 13742 0
-6568 13093 0
14710 -8571 0
2274 -4902 0
-2537 -5875 0
2045 -11075 0
10770 -12115 0
-12804 15046 0
9754 4447 0
3469 11688 0
13671 -3943 0
15508 -7359 0
12967 -1728 0
-790 -2461 0
859 14485 0
-10474 12257 0
10498 -4223 0
11297 -10427 0
-4566 -1957 0
4983 399 0
1601 7720 0
11640 -5896 0
-15518 -8916 0
8151 -6074 0
5658 -14446 0
6072 13772 0
4166 1263 0
-14494 2190 0
-8446 11782 0
-7416 -7184 0
11417 4846 0
10522 -10872 0
4015 15415 0
12220 -4169 0
11391 -3072 0
11159 14301 0
-13580 5428 0
-1642 -14061 0
13290 13089 0
-15533 14722 0
11262 12370 0
4057 -14876 0
2476 14978 0
-2574 -7006 0
7740 10930 0
4616 -58 0
-8691 3584 0
-4082 10447 0
14750 10607 0
7997 1469 0
5371 -909 0
-3076 -14791 0
-4556 -14904 0
3178 12701 0
-3405 -1309 0
1414 14479 0
374 2876 0
12095 -11783 0
10567 13425 0
-628 8847 0
-15352 -15386 0
11053 13876 0
13374 12660 0
9997 -9473 0
-23 3269 0
2091 -3858 0
-2183 14027 0
-8358 -4314 0
-9292 -8998 0
-5657 12647 0
-6715 -2223 0
14522 -6394 0
-15372 15295 0
-10208 3844 0
-10915 -856 0
-12876 -2897 0
8857 6395 0
4278 14779 0
224 2634 0
5937 -6512 0
23 -10950 0
-11251 -1461 0
14087 -12576 0
-3770 15101 0
6012 13442 0
-13219 5530 0
5291 12113 0
-7323 -10842 0
6576 9859 0
8767 -9760 0
6035 -13445 0
-3436 -12764 0
13287 15470 0
-12188 -4419 0
7535 -13434 0
-7054 -11907 0
-13041 -12320 0
14797 14488 0
9408 -12857 0
12968 -9882 0
-11075 -14564 0
13664 -2395 0
-13478 8593 0
-905 4143 0
-6286 -2797 0
-14983 9053 0
-12577 6121 0
7378 -8295 0
12980 5767 0
-7982 9165 0
-2725 -13801 0
7187 -2509 0
7898 -14407 0
-13865 8923 0
9432 10407 0
39 -6781 0
-9513 -12095 0
-4747 -3399 0
13148 -3211 0
-9774 10922 0
13534 271 0
5024 3259 0
7348 4342 0
-6872 11473 0
1101 -9767 0
-55 -7559 0
5866 -10290 0
-9714 8975 0
3813 -3059 0
-8371 -6952 0
-3228 -1207 0
-8911 14653 0
-1146 -6135 0
8575 11332 0
7142 -9371 0
4859 1817 0
-14065 11553 0
-3971 -9916 0
-13299 6161 0
15395 14737 0
10393 -5278 0
-3177 2833 0
-14790 6520 0
10655 12627 0
-14648 -10320 0
12981 4175 0
-4303 3634 0
11310 4357 0
10804 -5345 0
-8130 12287 0
-3076 -14463 0
8207 15111 0
-14210 11195 0
2216 1119 0
-10068 -10748 0
-10248 -3533 0
-8054 -3573 0
-8693 13790 0
-15231 5913 0
2305 -5008 0
236 -991 0
-3855 8286 0
5834 6148 0
3046 -11226 0
-9686 13601 0
-11087 11841 0
-9361 9433 0
-9592 8187 0
-4429 11681 0
6011 -2494 0
11057 -3568 0
-14996 8821 0
7313 -3371 0
-13999 9080 0
13302 14476 0
6856 9874 0
9698 3064 0
9096 7224 0
-8152 10775 0
4693 -6200 0
985 -10088 0
7067 3223 0
2455 -6414 0
-15302 -15578 0
-965 -8033 0
6600 -14097 0
-9607 8091 0
-798 7398 0
11117 11187 0
-13624 694 0
-5402 15441 0
9161 -5543 0
8797 -9339 0
-8053 12059 0
-2106 10085 0
1314 -2025 0
-8640 2784 0
14273 -15333 0
8750 -11108 0
-10348 -13818 0
-9722 -8706 0
-5154 2330 0
12613 -5778 0
-15499 4218 0
14413 377 0
-10414 3918 0
5342 8126 0
-5754 338 0
-7122 -10126 0
4871 15216 0
-11349 3024 0
2720 14024 0
-6936 -6763 0
-7703 -3909 0
-4907 -3340 0
-11626 -11694 0
7803 6273 0
-12836 5800 0
-4469 6425 0
-11287 -14253 0
-8534 11103 0
841 -12214 0
8486 7606 0
960 -4383 0
9623 2522 0
-5133 455 0
-3947 4730 0
-7472 13550 0
9493 5600 0
1531 -9896 0
7914 15404 0
15578 6933 0
-164 4127 0
11634 3136 0
11764 -7350 0
-14109 -5798 0
2976 13571 0
-8594 7192 0
-11264 8531 0
-14972 7704 0
8024 15255 0
8651 138 0
12069 7166 0
10629 -13562 0
882 11968 0
4475 -6056 0
11284 -9647 0
-5504 -12382 0
9411 -2053 0
-2194 8957 0
14897 -15108 0
-10375 9380 0
-7261 -10447 0
-3225 7809 0
1646 777 0
4636 7868 0
14631 2961 0
-10112 5612 0
-1595 -12862 0
13314 -6678 0
-5491 -539 0
9682 -1733 0
4668 -13767 0
297 -5030 0
-10243 11951 0
13564 6939 0
-1168 2906 0
-5842 12538 0
6691 9731 0
-14880 -5606 0
1791 -7498 0
9155 9596 0
-1638 -8233 0
-10110 -8645 0
11543 -11075 0
-5795 9698 0
-2745 3221 0
-769 -10690 0
2111 -7918 0
10766 12611 0
-1269 -8285 0
7993 -14657 0
-67 -4969 0
-5422 -4774 0
8108 -7301 0
-7473 13441 0
-7196 -15127 0
-14161 61 0
15173 2727 0
-4917 10140 0
-3153 -242 0
-8400 -5321 0
-13886 7318 0
9332 -8707 0
5593 -13969 0
-12883 -3204 0
-1607 -874 0
-5721 3903 0
3087 4858 0
1547 7641 0
-10543 13466 0
-804 14406 0
-6187 -9308 0
-6245 13805 0
12732 14045 0
-10745 11085 0
-1435 -605 0
5686 -378 0
1897 -8666 0
1381 2233 0
9103 -12529 0
-11381 -9993 0
-4421 12316 0
595 14703 0
9642 3830 0
-11092 -15278 0
3159 5985 0
-12383 3828 0
-814 12804 0
-11222 -1153 0
-5358 -3015 0
-8545 -6905 0
-10209 1886 0
5929 -13071 0
12533 -238 0
2884 1856 0
8849 -11962 0
13422 -13146 0
-1146 9102 0
2939 12550 0
1808 -6200 0
-14619 -6495 0
9437 305 0
-9184 4372 0
-5318 2677 0
-21 7646 0
8249 4297 0
8485 2774 0
-5338 -12312 0
3097 -4515 0
5788 10060 0
-13387 5469 0
-744 -5147 0
-3350 2825 0
-10758 12519 0
6107 -480 0
10109 6282 0
12590 -15377 0
38 -15248 0
2143 -5531 0
8080 -6178 0
-8705 1722 0
-7038 -15321 0
9079 8201 0
13092 3336 0
13997 10259 0
3890 -12042 0
-6331 -5677 0
2378 14522 0
-13277 -5617 0
10531 -628 0
-3107 -10488 0
-7711 -1252 0
12022 -15138 0
6773 14799 0
9014 8268 0
-2536 3438 0
-3420 -2417 0
14404 -4517 0
9718 5368 0
-5688 -2230 0
8632 -8233 0
9470 12558 0
1996 -8314 0
4106 -13048 0
-960 9270 0
-4214 -10829 0
-4780 -11526 0
3035 263 0
8119 160 0
1324 7039 0
-31 443 0
-9138 2445 0
955 -15045 0
13866 -15552 0
7348 12988 0
-7938 -13533 0
12038 -3667 0
-5887 2381 0
5179 -10842 0
-5148 2249 0
13333 -10164 0
-4083 8301 0
13029 -1484 0
12080 5232 0
14666 -375 0
-7354 -15465 0
15121 7979 0
513 8201 0
6527 -7759 0
-12443 -5000 0
-12722 -703 0
-5548 -14619 0
-10702 11485 0
8943 919 0
-7582 -6697 0
-10587 -9355 0
2850 -744 0
7180 -806 0
14396 9724 0
6799 -4012 0
838 8313 0
-10646 -6746 0
-9213 -10808 0
-13910 -6055 0
5518 -2918 0
-15285 -7504 0
-7904 -6569 0
7340 -13893 0
-9351 -14197 0
-14938 -6519 0
3032 -3851 0
-7364 1573 0
-6566 -6616 0
15166 -14992 0
3706 7515 0
-2491 1161 0
-9871 -9282 0
-9064 1039 0
-11460 2091 0
13151 7421 0
1509 15505 0
-10092 9623 0
14765 4698 0
-8026 -5003 0
-13918 9752 0
7178 12796 0
14166 -787 0
-13867 -7121 0
7231 -3357 0
7227 -12956 0
1792 1543 0
-11785 6882 0
-14108 -13430 0
-14992 -4308 0
-11332 -9866 0
9246 -10838 0
7679 -6704 0
-11431 14747 0
-166 -3264 0
-11946 -12614 0
8642 7992 0
-7098 -1454 0
-6010 -2242 0
10700 2994 0
-5010 -3277 0
13451 1041 0
-14005 15333 0
8096 4302 0
-7161 -4713 0
-14725 8636 0
6097 -1077 0
13309 -1514 0
9505 -13389 0
814 -14961 0
-13794 -14643 0
-1462 -7489 0
1031 5048 0
9122 -4608 0
11761 4797 0
14444 11083 0
5145 11055 0
-4370 -5899 0
8971 133 0
808 6171 0
-12696 -15031 0
-9713 -5695 0
-6392 -10314 0
-2673 -13035 0
-7255 11837 0
8315 3681 0
5856 -5402 0
-15540 9869 0
1836 7455 0
13874 7453 0
1936 -2344 0
725 10013 0
-10976 -11568 0
2547 -1465 0
-11785 9140 0
7450 -2164 0
-5502 11763 0
14530 2656 0
-9129 -261 0
4295 5585 0
13053 846 0
-14183 -11720 0
-15512 6706 0
-14061 14090 0
3002 -12792 0
-273 -8329 0
-7663 11810 0
7492 -9578 0
12764 -3862 0
-12204 13253 0
14050 13445 0
2283 1007 0
5248 10286 0
-6963 -13445 0
-1908 -11394 0
-7611 8194 0
15552 13789 0
-6976 -6569 0
13999 -3490 0
-12954 6924 0
-4440 14729 0
9194 5715 0
4892 -8228 0
3617 477 0
-10264 2008 0
-8506 3934 0
14320 -12088 0
1848 -13335 0
-1506 12090 0
10507 -547 0
6301 9313 0
-4379 514 0
-766 -8234 0
1720 2485 0
-7785 7162 0
5330 14894 0
14904 -517 0
-13430 -11768 0
-6837 10946 0
-4578 -7935 0
-4177 -11374 0
-7031 224 0
-6229 2772 0
12998 3568 0
-6645 -785 0
-14488 -4840 0
-15572 -2758 0
-7297 -2342 0
-5270 -3437 0
-7217 -11395 0
-5343 -2621 0
-14067 -13760 0
-5864 15291 0
11095 -11771 0
4504 -7148 0
-12565 6753 0
7269 -10892 0
2555 -14427 0
-12078 9920 0
-7229 -6967 0
-3897 -10923 0
-2521 -14902 0
4676 9032 0
-12107 -9799 0
5132 13720 0
5179 10082 0
4753 8910 0
-15471 -12299 0
2944 5020 0
-7257 -5993 0
11772 -15380 0
9101 -10962 0
-2399 4544 0
-8649 -8626 0
5351 8963 0
3039 13512 0
-4458 13762 0
-12643 1520 0
10160 -11891 0
11097 -12137 0
-15321 8944 0
9500 -3244 0
13039 -11982 0
-468 -12017 0
4494 1177 0
-11181 9376 0
-14051 4810 0
-2909 9056 0
-11700 6570 0
6687 4447 0
-1298 13249 0
14649 5949 0
8105 -13247 0
-13738 -14445 0
1383 -2563 0
-12395 -3959 0
-6129 -1168 0
-372 3254 0
9720 -9393 0
1904 13075 0
-1232 -3811 0
4466 7262 0
763 176 0
-4750 -189 0
-10783 -14666 0
-14561 741 0
-9192 8519 0
-11515 -14370 0
1020 -12797 0
-11085 3982 0
8285 13083 0
-4981 12575 0
2860 12973 0
-12309 -14851 0
-1525 -15453 0
14631 -6029 0
10991 1303 0
14121 -11093 0
-7438 -12049 0
-6165 2647 0
8345 10625 0
489 -12959 0
-12239 -13795 0
-2867 -10785 0
4830 10805 0
-3669 -4361 0
2000 -2052 0
10175 -13700 0
-6138 -5075 0
12810 -9100 0
-15057 3665 0
-4599 -7796 0
-2766 -4808 0
222 -9764 0
-2632 14542 0
3709 -8971 0
3441 -15527 0
6903 3111 0
15382 -1436 0
-6088 -141 0
-521 -8565 0
-6042 -4998 0
8563 6236 0
4096 14584 0
-799 -8174 0
9787 -4087 0
7418 -7446 0
11380 10722 0
629 5586 0
-2913 2952 0
7386 2082 0
543 -9953 0
11415 -9948 0
-1479 -4026 0
13466 15155 0
3557 10523 0
8775 4384 0
-8256 -3155 0
-7606 -8211 0
-8154 -12925 0
5332 1538 0
-3142 -1604 0
10863 -6929 0
-2003 6359 0
13935 -13126 0
8760 15295 0
-9858 15152 0
-1885 5779 0
7474 13143 0
-10028 954 0
-10628 9307 0
2553 4157 0
-1404 2559 0
-14057 4640 0
12997 1708 0
1004 5323 0
4515 -11052 0
7223 -10037 0
9411 4848 0
-11076 14030 0
5878 4610 0
-13635 2520 0
10721 -4341 0
-9732 -553 0
8952 6396 0
-8421 -13423 0
-5823 9966 0
2491 -12999 0
-2098 -786 0
4098 -3119 0
-4782 -15248 0
3965 -14733 0
-3818 8410 0
8680 10454 0
-3480 -14257 0
-786 -7350 0
13319 -1481 0
-9857 -5021 0
-6730 -1386 0
5111 13876 0
-3215 11371 0
718 6964 0
14591 -5054 0
9298 -9886 0
-3754 -270 0
-8796 -2487 0
-9183 -8183 0
-11864 1165 0
-322 13452 0
5063 13944 0
7407 -5957 0
-5493 13620 0
-229 -6972 0
-5859 -1642 0
12664 -855 0
8227 5378 0
-9449 15488 0
14033 7004 0
-11212 2837 0
-14109 2141 0
-5306 3128 0
11413 8858 0
-13500 -15139 0
-2163 3245 0
6496 -11346 0
-15170 -2640 0
-9491 -504 0
7200 -3532 0
-12403 12891 0
-10646 838 0
-8144 -10434 0
-12189 -13328 0
4024 6406 0
5043 2402 0
-14067 -3120 0
-10766 1565 0
10708 -5528 0
-5476 8078 0
6625 15565 0
-6627 14512 0
-5200 14684 0
3844 3429 0
2195 8298 0
4277 -11321 0
-10269 4896 0
3442 -4377 0
-8105 -14892 0
12967 -5127 0
4681 -1737 0
11666 9680 0
1039 5905 0
-1885 -12662 0
13668 10516 0
6566 -14573 0
-15387 -7144 0
5164 3982 0
-14579 9870 0
-10232 -10382 0
2053 -9468 0
7407 10289 0
14544 -14619 0
5032 -2112 0
-12061 9606 0
7808 1534 0
10342 -13474 0
2800 -6858 0
-3258 8218 0
-14190 -10102 0
-3715 5443 0
-12714 12908 0
6511 6675 0
11413 13094 0
5935 -7108 0
9124 -7220 0
8448 1593 0
-9598 -4766 0
-14967 5334 0
-2612 -463 0
5147 13951 0
6098 -12457 0
4210 -10188 0
-2366 8008 0
11800 13468 0
-6693 11208 0
11624 6713 0
3172 9323 0
-5807 873 0
4478 -8945 0
-14577 12151 0
8413 -325 0
-40 1235 0
-5303 -6178 0
-9857 4135 0
5209 -7583 0
-14486 -14582 0
4001 -3006 0
12175 12336 0
-3881 5020 0
-14337 -12799 0
-7964 -3280 0
-14161 -1143 0
10980 12087 0
-15291 6165 0
14856 -8502 0
5527 -8332 0
-11588 -368 0
8948 6670 0
-12824 -2910 0
5243 5143 0
-9042 1036 0
14762 968 0
7418 -6588 0
15184 12735 0
-938 6939 0
6578 12978 0
5483 15047 0
-3725 -13235 0
15487 441 0
10881 -4662 0
4765 -6018 0
-5832 9777 0
-11914 7740 0
651 -2527 0
-2771 -7705 0
4611 6760 0
3040 7434 0
-141 9075 0
6844 -3363 0
7143 -4020 0
7243 -6859 0
-13405 12332 0
7364 1085 0
11414 -4076 0
-5886 9780 0
10802 -523 0
5668 3333 0
-13334 5152 0
7186 -9785 0
-3394 1324 0
-12708 1727 0
-8193 -12135 0
2091 10729 0
-13559 -259 0
1199 -7046 0
3413 -3567 0
8082 -7117 0
317 8808 0
11670 8945 0
15238 746 0
-2175 -2010 0
-9193 -8516 0
15295 7733 0
-11781 4485 0
14698 9302 0
-9629 10130 0
14573 -9431 0
8468 6801 0
-5596 -15113 0
7807 3807 0
15529 7244 0
-12705 1881 0
3196 10573 0
-8036 -14097 0
13879 -11688 0
5526 -275 0
10182 8364 0
11709 -11955 0
-3815 14034 0
-3229 5173 0
2853 -12396 0
-9231 -14732 0
-3430 -6980 0
5423 15503 0
-13985 -12828 0
13186 -3687 0
-3069 -1123 0
-2937 4751 0
10722 13968 0
2707 4441 0
14031 -12091 0
-12829 -13998 0
-7039 9899 0
2050 -3777 0
-8515 -12071 0
11045 4279 0
-7638 -7945 0
14152 -156 0
-6710 -1692 0
-12158 -12485 0
15528 -890 0
11399 11798 0
-14835 -946 0
7721 3753 0
1119 -8672 0
-4997 14790 0
9555 11156 0
3495 -3362 0
10270 -15335 0
-5732 6278 0
-3529 -15402 0
-13432 -13047 0
457 -8504 0
702 -7820 0
-4338 -7695 0
5957 -5810 0
6673 9756 0
-14525 -10101 0
1526 -13624 0
-12391 917 0
9586 -11310 0
-14346 -8691 0
-11565 -3019 0
-7740 -4120 0
-5532 -9410 0
-700 -1731 0
-7905 -5232 0
-359 14632 0
-15065 790 0
-11596 -15294 0
5330 -14058 0
-3461 -1079 0
-14836 -5263 0
15176 -5727 0
11867 -8207 0
-13005 -1499 0
7206 -4503 0
-8457 -14642 0
784 -14907 0
5181 -12544 0
-4196 -3839 0
11933 158 0
-4427 -13573 0
709 5738 0
1605 -12382 0
-58 7382 0
-13880 7 0
712 -333 0
6789 -1728 0
-8020 -7193 0
-6886 -3548 0
-5994 -8303 0
5102 6713 0
-841 -4462 0
-11582 13269 0
8231 7807 0
-9860 6305 0
1705 11860 0
-4802 6842 0
-13003 6439 0
1133 1215 0
-8631 -4891 0
8551 7880 0
13981 -15139 0
9015 3797 0
-8211 -12373 0
6073 -3709 0
7903 2864 0
5620 10050 0
-1375 10230 0
5258 15123 0
-3079 13111 0
-2420 12157 0
6219 -4422 0
-7087 6881 0
8602 -15260 0
-13165 -13527 0
-929 -387 0
-9451 14341 0
-8516 8226 0
4501 -15268 0
-10594 5022 0
-14643 7227 0
-8326 -870 0
947 -14074 0
11215 -8759 0
-7972 -11923 0
10300 7832 0
-5449 4112 0
9915 10566 0
3160 9079 0
-1164 -9656 0
15124 -8781 0
9362 7378 0
11004 523 0
10164 -11728 0
-10595 10758 0
7202 -14070 0
10692 2133 0
-13168 7256 0
9072 -13505 0
3178 5605 0
2561 6348 0
-8279 -11341 0
-5096 -13637 0
11919 2038 0
-2554 6917 0
12163 -14988 0
-11032 8223 0
-14319 -2298 0
6593 5282 0
-14862 7340 0
-7743 -5403 0
8585 6298 0
8523 -1042 0
-14475 -8822 0
14495 -14355 0
2294 -10032 0
-10134 9441 0
760 -15344 0
-1703 9619 0
-7884 13349 0
-7403 -7986 0
7485 7291 0
-1901 -5459 0
9490 11257 0
-4886 14672 0
-6528 -1726 0
-1023 7559 0
3314 2564 0
-7412 -870 0
8818 -14333 0
12384 2612 0
4309 -9631 0
10821 -716 0
-4284 -6310 0
8547 -13152 0
5280 -8272 0
12095 -14580 0
-11405 -11993 0
-6457 8926 0
-4836 15091 0
5325 7567 0
-2536 -4752 0
-5249 14966 0
9492 -9616 0
-1038 404 0
12108 12371 0
-8680 -10330 0
1486 4343 0
664 -12842 0
11847 -11294 0
-6843 7657 0
1236 5906 0
-5936 5057 0
8042 1534 0
11753 10419 0
-15313 -14553 0
19 1848 0
-8615 -857 0
10409 -12312 0
-13719 -5130 0
9906 9261 0
-6688 -15017 0
-5542 -10227 0
10759 14266 0
11874 -3553 0
13391 3135 0
-7732 -7739 0
-3770 14605 0
10143 2107 0
-15026 7405 0
7244 6228 0
-11175 -5717 0
-13084 -3953 0
-11889 -7672 0
5461 -10770 0
3595 -11516 0
6613 -1803 0
4713 -1439 0
13036 13377 0
5201 -556 0
13456 14235 0
10674 -2592 0
8523 10566 0
8762 1297 0
429 -1173 0
-1930 -5537 0
-9953 15368 0
-14419 -5547 0
6635 6446 0
6231 4627 0
-4444 -2768 0
11793 -9668 0
13586 10668 0
4354 10139 0
-2457 9681 0
-6244 9338 0
6594 -8463 0
-1327 -5513 0
4569 -374 0
15421 -4575 0
-2244 7314 0
-9989 1730 0
-4000 11141 0
6603 -1375 0
-4125 8724 0
14085 8799 0
-14693 -11627 0
12883 14767 0
6938 887 0
5999 9415 0
9293 -13285 0
-9047 9078 0
2316 15110 0
-7345 5989 0
10317 4256 0
1965 6209 0
1160 -1635 0
2880 -10549 0
9214 1292 0
14475 10511 0
-3470 14765 0
-12779 -3339 0
-6124 -8771 0
-1205 7570 0
12800 8895 0
-1510 14468 0
-5361 3309 0
-11392 1356 0
306 -2305 0
12256 5925 0
5836 -5342 0
-3293 6906 0
11636 15380 0
-6652 -10788 0
11705 -7924 0
-7116 14655 0
1168 2581 0
6979 -14554 0
-15037 -1447 0
-10070 -10553 0
-8102 -546 0
427 -5119 0
-13608 7551 0
-11807 -1283 0
-13451 6723 0
-3215 -12209 0
-4388 -5958 0
13169 -12480 0
13966 13094 0
-11967 8080 0
4700 -12600 0
1256 -6994 0
-5523 -13211 0
-6437 -3726 0
5781 5790 0
-8399 -7746 0
-9826 7088 0
-1067 -12084 0
2838 11057 0
4657 1428 0
-8267 7236 0
-7607 7264 0
2152 -9648 0
-14113 -4546 0
15381 -501 0
6225 10850 0
639 13668 0
-1076 3923 0
-5972 -15401 0
11817 14539 0
-13107 5609 0
-13381 12272 0
12836 -3847 0
13421 -8102 0
-11365 15194 0
-14679 8827 0
-9710 15451 0
-12661 -3525 0
-3764 668 0
2083 5636 0
-8641 3074 0
13027 -1308 0
6001 10112 0
3760 2674 0
11317 -11353 0
-10162 -11344 0
1846 -12002 0
-4263 -8766 0
5050 214 0
-10963 8669 0
-3508 6553 0
-13284 5954 0
-1888 -4314 0
-9617 -378 0
1110 8895 0
-5189 -5434 0
-71 7295 0
-6308 828 0
15151 2876 0
4975 6373 0
6309 -4441 0
151 330 0
-8806 12214 0
-4546 -8677 0
7451 -2872 0
11336 -12746 0
-11019 -11439 0
6381 10588 0
-4788 -11235 0
-10306 -1862 0
-6719 -4362 0
-2694 14652 0
-6812 5724 0
3755 14298 0
6911 -3744 0
12590 14440 0
8360 -7142 0
10247 3468 0
11285 -1855 0
-1460 -13630 0
14076 6075 0
574 987 0
1783 -12786 0
5939 -11653 0
2696 5127 0
-7372 -13891 0
-10365 10934 0
-5785 -5977 0
-5087 -8006 0
9293 -7270 0
2111 7998 0
-9305 -2456 0
-15198 12019 0
4507 2500 0
-7959 14415 0
2072 13568 0
-166 -9340 0
3373 521 0
-14035 -15552 0
1529 -1703 0
3547 14830 0
13954 9169 0
10505 -3796 0
7507 2720 0
11659 -14492 0
8216 -12425 0
413 5360 0
5300 13590 0
-13706 13885 0
-7351 -2302 0
12241 1869 0
-11523 -15276 0
-15291 6273 0
-1873 -263 0
-14437 -2568 0
2062 6102 0
-5899 -11528 0
9713 3110 0
-694 6964 0
3676 -637 0
-6523 7489 0
-8900 -7627 0
3838 13070 0
-7960 -3511 0
-7764 11491 0
2200 15282 0
-12150 -6965 0
-14701 3690 0
5720 3160 0
-4969 12596 0
-3183 12654 0
-13578 -14026 0
8986 9603 0
-15494 12702 0
6904 -13417 0
13671 -11878 0
-1990 -6686 0
-4249 6777 0
2892 -15311 0
3104 -11862 0
-3366 8659 0
201 -7331 0
-2534 345 0
3099 7300 0
-6523 6740 0
-15456 -10558 0
-8776 -15133 0
-10825 -1385 0
1644 -13864 0
-7477 4260 0
-3918 -15423 0
10035 -123 0
-11155 12884 0
7874 -2142 0
-368 -12382 0
-13926 -7687 0
1386 -6036 0
1765 -1175 0
7675 -3881 0
-209 2534 0
5679 -15286 0
-11786 -5500 0
14459 7266 0
-2641 11211 0
-14741 7752 0
-11665 -14153 0
10824 9949 0
15082 12994 0
-6710 -9232 0
14878 2079 0
712 -9241 0
880 -6468 0
-7153 -11357 0
8543 1239 0
-7453 -12744 0
-10622 484 0
-13778 1295 0
132 8177 0
-7871 -4440 0
-7290 -15262 0
-7072 -8416 0
13592 8488 0
-12877 6784 0
-10915 5978 0
3463 7913 0
-12593 9375 0
5139 -11719 0
15215 -1795 0
3344 12831 0
-14920 -4404 0
3867 -2998 0
-625 -7493 0
-14699 -7878 0
-2468 -4724 0
-14642 -10752 0
-9026 -6244 0
3397 -12320 0
-3565 12395 0
-9456 13134 0
-5510 -7619 0
9716 14794 0
12288 -15342 0
-10529 13550 0
6915 -13320 0
10527 -12199 0
-628 3692 0
-13850 14710 0
474 -6871 0
-8619 -4573 0
-12119 4183 0
-13987 13703 0
-6097 13011 0
-1609 2706 0
-5402 12608 0
-1129 3188 0
973 -7517 0
7756 -13320 0
6985 10513 0
2431 12118 0
-3667 -12927 0
4125 -6391 0
-7888 6518 0
7808 -6317 0
11948 -15376 0
-13278 -9497 0
7872 -281 0
-9543 5543 0
-11173 8240 0
-3887 13358 0
5708 4808 0
2787 -13641 0
-6710 -14290 0
14330 2315 0
10184 719 0
5865 5428 0
7312 442 0
320 11835 0
-7777 -13173 0
12953 1523 0
1780 -6201 0
-2817 4991 0
-627 1598 0
3271 -8493 0
-15335 7495 0
-11664 3440 0
5705 -9145 0
4228 12627 0
14509 15489 0
10810 11462 0
-9006 -7192 0
-1908 -9663 0
-11302 12515 0
-11384 4154 0
14781 6419 0
-7494 7382 0
-8152 -11836 0
-3340 -4430 0
14107 8871 0
-9718 -3157 0
-14695 9530 0
-6792 4400 0
-8196 1050 0
-1397 2645 0
-15263 7601 0
-14806 -7003 0
-449 -1920 0
-1941 -6227 0
-13433 646 0
6515 13798 0
4953 12984 0
-4727 5832 0
-6761 1531 0
9901 -4917 0
13882 -14559 0
6805 6496 0
-3515 8098 0
13364 -1998 0
-349 -2712 0
-14764 -7139 0
7468 -3080 0
11257 11465 0
-15172 7978 0
11942 -1870 0
1379 7625 0
-14555 5894 0
-2023 -373 0
251 -7276 0
-1568 -14068 0
-1666 -6308 0
-12158 6432 0
-10787 7694 0
-13930 -5126 0
4979 12642 0
-11190 4859 0
-108 -14534 0
399 -1809 0
12623 -10580 0
6223 -1609 0
14219 1832 0
-1794 -9479 0
-14733 -7102 0
-8827 -5798 0
-12727 1422 0
-10200 8990 0
-14907 5327 0
1453 -844 0
5240 -3189 0
4845 -5462 0
-5507 -12408 0
3612 14584 0
-5433 14966 0
-15545 -56 0
10424 -9563 0
6819 -14780 0
13 -3121 0
-4090 -9959 0
-11123 1225 0
-5711 350 0
-8344 -12365 0
3365 7092 0
-2299 10257 0
-8269 -5926 0
-4700 2312 0
5729 -8511 0
-9502 -13442 0
-10966 7353 0
-11499 -5184 0
3707 -8408 0
1136 -6804 0
-6153 9235 0
9362 1506 0
-13039 -6171 0
-4973 12394 0
-11300 3522 0
8834 6177 0
7620 -7865 0
-15049 -9007 0
11441 4545 0
-4483 8060 0
12883 -5563 0
-8074 700 0
-6775 12534 0
12660 9698 0
9465 5472 0
-14428 10210 0
5185 14415 0
-4262 12898 0
-8574 2680 0
-15341 -5687 0
-130 13086 0
12438 -7764 0
-15494 -14840 0
-6011 -4040 0
9997 -6267 0
2017 6083 0
-10150 -10082 0
-4714 11433 0
-3371 13075 0
-2794 -2430 0
-1087 -13046 0
5954 633 0
-16 5001 0
-545 -10029 0
13053 -13092 0
-14049 -3860 0
-530 10766 0
8940 6570 0
4200 -1378 0
8373 13525 0
2140 -14328 0
-14010 -10801 0
776 -12055 0
8026 1594 0
-5702 9362 0
-6170 -11577 0
-7869 -5262 0
11960 5738 0
-5652 8109 0
-9228 1610 0
-4364 13855 0
-1823 -529 0
4323 -4856 0
3292 6613 0
13940 3067 0
-6831 8112 0
15317 1326 0
-1918 -11867 0
-10899 -9440 0
-6742 -7100 0
-11502 -496 0
6297 2063 0
-4287 -13819 0
10390 5867 0
441 11943 0
-3105 -15203 0
-3583 -15460 0
12980 -6323 0
-1828 1202 0
-15408 -7252 0
14268 6457 0
11793 5761 0
-7080 14651 0
-9923 11117 0
5049 -2051 0
-11417 -10161 0
-4935 -8915 0
-9877 13954 0
9398 10740 0
8454 10253 0
-13131 -588 0
-14589 10819 0
903 7059 0
2358 2958 0
8911 9548 0
5080 6300 0
-3072 -12688 0
-11865 8337 0
-3624 1422 0
1953 -6116 0
-2622 12532 0
-10658 5115 0
-215 -1148 0
-3292 -2555 0
596 13189 0
-9537 7449 0
-1941 3667 0
-6882 -38 0
-8141 12138 0
-9720 1778 0
2584 -10923 0
4421 -15419 0
2859 15502 0
-14300 8608 0
-3962 9855 0
-12012 800 0
-3510 7279 0
13889 -2990 0
-7719 -9877 0
-3406 6432 0
11103 4105 0
15214 7064 0
-6312 2888 0
-7133 -826 0
-4559 2168 0
-2185 12503 0
-11362 -13646 0
-8542 -6313 0
10935 8469 0
13768 -6370 0
-8555 14087 0
-10866 13618 0
13100 -14901 0
-2628 -8042 0
420 10047 0
7199 -11995 0
390 -4801 0
4460 10341 0
10305 -2912 0
-7417 6385 0
-13572 11985 0
4230 -3828 0
7485 2075 0
8441 -2538 0
-11053 -8119 0
13076 15198 0
10451 -9894 0
5420 -1076 0
-12201 -10034 0
13264 8392 0
-4453 10680 0
1643 -11356 0
-2291 -8248 0
-3564 13555 0
-15080 6906 0
-7317 -11561 0
-1091 -2698 0
-4976 -10408 0
12399 15232 0
-13335 -2767 0
-5451 -13724 0
-4531 -3008 0
3813 14109 0
-2018 -9527 0
3951 -13630 0
-4881 10110 0
14541 9109 0
3634 12031 0
-4860 -1470 0
-12001 1955 0
4028 -1201 0
-11200 -2527 0
7825 6284 0
-5648 -12092 0
13172 -9750 0
2855 -4155 0
5862 8187 0
6364 3919 0
-3941 -9443 0
10106 -13508 0
-9624 -10845 0
9675 -1928 0
-2291 7515 0
7532 3716 0
-12352 -13223 0
11374 1397 0
-9077 11433 0
-4056 -583 0
8272 -6753 0
8774 1480 0
15437 -9275 0
-10631 13624 0
7526 543 0
14144 7275 0
-9218 -4962 0
-13986 3290 0
-13434 -367 0
-1745 3357 0
5391 -7083 0
5938 10168 0
1766 572 0
10046 2105 0
-12221 8505 0
-830 3933 0
8252 2779 0
-158 1092 0
4195 13423 0
-11600 -11837 0
-2510 3932 0
-3722 140 0
6898 -14179 0
-10756 3234 0
14164 -12009 0
-7401 14974 0
2040 -2819 0
-1372 9611 0
13919 7163 0
-10999 -11805 0
8102 -3687 0
-1946 2720 0
-736 -10337 0
-223 -5259 0
-5251 -451 0
-13156 2454 0
936 -8195 0
-10459 -13646 0
-71 -6066 0
3398 -14275 0
10584 11398 0
-10646 10796 0
-1782 13553 0
12302 7827 0
5627 -14324 0
12853 -15285 0
-14093 10256 0
-9243 2298 0
11105 -513 0
11953 -5847 0
13964 2395 0
-4169 5475 0
4440 6734 0
11021 15510 0
13978 6516 0
-13235 -343 0
-9989 -9235 0
-6679 12040 0
4708 3195 0
-15288 374 0
13463 11979 0
5996 11020 0
10188 11375 0
-1924 3771 0
-1965 1531 0
2054 15269 0
-11285 -7372 0
7763 12789 0
-5266 10353 0
2836 12989 0
6444 12292 0
-4326 -7374 0
10158 7175 0
3601 -7693 0
11330 14678 0
13453 418 0
-14938 -13060 0
774 6853 0
8380 -6181 0
9870 -4732 0
-1785 12121 0
-5893 -3655 0
10923 -9510 0
-13232 -11715 0
4234 -10754 0
10637 -12005 0
98 -5714 0
-12733 3767 0
3948 11729 0
8020 7297 0
-13582 -14959 0
-15092 7117 0
1029 -10534 0
-3025 -12717 0
-9806 -500 0
-5180 11601 0
-11726 -3532 0
2792 9049 0
-5497 6756 0
14535 6338 0
6611 -7043 0
8983 -5924 0
14914 -14706 0
-9808 12662 0
-14653 7823 0
-8004 -2771 0
2428 -14795 0
9270 -6927 0
-13051 -15177 0
-2375 450 0
-575 -5211 0
-14162 6181 0
-11761 -2496 0
7726 10606 0
15371 14043 0
-1365 9930 0
2598 -3325 0
-2691 -13967 0
11871 -14889 0
-2331 6134 0
10732 -7817 0
-2889 -6366 0
-7796 10611 0
11067 15228 0
-12632 -15218 0
-14332 2773 0
-8846 12243 0
-3613 9829 0
-12423 -12275 0
8244 14658 0
-987 -9734 0
8801 3661 0
14117 2349 0
-9918 -6763 0
-5308 10766 0
11398 -14710 0
13877 -13974 0
5615 4572 0
-3876 5160 0
1081 14497 0
-11903 15055 0
7132 -2735 0
-5706 13993 0
-1064 14165 0
131 13246 0
5692 -347 0
-3594 9933 0
8231 8736 0
6605 8364 0
4445 -13635 0
5463 13407 0
3797 -13415 0
12206 -10698 0
5698 15166 0
-6806 -10264 0
-1188 11492 0
3512 -7497 0
12157 7295 0
-8997 -14271 0
8073 7630 0
13805 -8091 0
-10116 12826 0
-1280 5652 0
9357 6485 0
6835 645 0
-11808 9475 0
-3905 15077 0
-15090 875 0
3704 -1699 0
-2581 -9222 0
-11012 5748 0
-15342 5686 0
-12759 13925 0
-11216 -327 0
-12778 118 0
4034 -13517 0
-10919 15422 0
-1373 -913 0
1652 11176 0
-12134 441 0
6587 15449 0
-12099 -6730 0
-1436 -12701 0
12763 9973 0
-15253 -11972 0
-11449 -869 0
12525 5708 0
898 6080 0
-1290 -6153 0
6583 -4744 0
-14548 -3571 0
-15293 -13415 0
1251 -15029 0
13958 6630 0
-9020 15138 0
11942 -5765 0
-15332 -6750 0
-6049 506 0
-5924 -14442 0
-10070 -1683 0
15556 -9748 0
-5070 9523 0
1114 -11568 0
-7901 4215 0
-1671 -10222 0
5373 10849 0
-6901 -11742 0
-8878 2470 0
-13811 3759 0
4162 -1866 0
7690 -13007 0
12549 886 0
13650 10962 0
-9099 15560 0
1041 -5680 0
-1388 -6183 0
10251 11137 0
5533 3002 0
2836 3940 0
7302 14894 0
-6100 10947 0
-4689 7265 0
473 7850 0
14168 -832 0
-14625 -1319 0
-213 -13721 0
1642 -8147 0
-7082 4110 0
-2133 -3822 0
-12124 -2158 0
5770 -4716 0
7428 4999 0
-2265 15414 0
12458 -2357 0
-9216 6700 0
-14159 -4087 0
-10803 7875 0
1432 -5305 0
-11918 1955 0
-7315 -8334 0
-7175 -6196 0
-10716 8618 0
10849 -12871 0
-14536 -287 0
14256 -15182 0
895 4252 0
-11466 -3975 0
2868 -15240 0
-8362 7183 0
-11603 14926 0
15376 13187 0
-14061 -6154 0
-11084 -4918 0
12677 2262 0
1600 5416 0
-6762 11615 0
-30 -10108 0
14548 12642 0
-5448 -14985 0
-4444 -7754 0
6560 3871 0
6001 11783 0
13340 -5985 0
11294 -7540 0
6868 -8734 0
-3650 9742 0
13314 12298 0
-555 6772 0
-9612 4553 0
-11434 -581 0
-3127 -4340 0
12463 -5093 0
-13285 -10098 0
-15524 265 0
-2784 -11618 0
-12488 7326 0
4624 -1949 0
2379 -134 0
11774 -3139 0
4859 5815 0
5803 14100 0
11713 4403 0
-3346 918 0
-2571 -981 0
-1117 525 0
-2281 -14932 0
7215 5902 0
-15133 -6555 0
1699 -1284 0
-1075 2969 0
7774 10389 0
-13457 -10390 0
10823 -2718 0
-10651 8897 0
8402 9274 0
1772 4061 0
10749 8105 0
1520 -12738 0
2378 184 0
13930 -7795 0
-7351 3960 0
-10517 3899 0
-1905 -8454 0
-3285 14398 0
-12919 10995 0
-1700 -4198 0
4212 1512 0
6883 -12531 0
-3336 4890 0
-3922 8726 0
-1236 232 0
-3293 -15279 0
-5193 1132 0
-14055 15238 0
-7916 -8777 0
1008 -15195 0
9103 -844 0
13708 -12556 0
-2411 13364 0
12534 -5622 0
-1568 4333 0
4545 3339 0
-6959 -1142 0
-15551 -8320 0
6503 -2639 0
-10883 1781 0
-5124 -7770 0
-8546 2218 0
-11744 10978 0
-90 10547 0
-4508 3868 0
1218 -8371 0
-2008 4032 0
-15549 1172 0
4382 2154 0
10755 13471 0
4678 -2576 0
15003 -14983 0
8950 335 0
528 13694 0
10802 -417 0
1590 -11338 0
-2907 5549 0
-15202 12359 0
-15537 3319 0
6652 10571 0
-3951 -11494 0
-2682 -11810 0
-8532 -4997 0
-7498 13554 0
6035 13528 0
-6543 11902 0
10980 6088 0
-15219 4387 0
-6730 -14554 0
1471 -1462 0
-14877 14438 0
14455 -4933 0
-10253 -13482 0
-6661 2267 0
-6659 -9027 0
7278 12752 0
-3981 12437 0
12195 -2839 0
8317 15566 0
-14798 -13222 0
-2393 -1649 0
-9929 -14527 0
-14306 -1626 0
15492 -10602 0
-4439 -10814 0
-13033 4493 0
-15434 -11316 0
9858 -5909 0
-12293 11288 0
1913 2210 0
916 -9168 0
3466 11287 0
-14512 -1223 0
14828 10259 0
-4378 -13552 0
10059 12900 0
11345 5854 0
15142 915 0
-5034 -10725 0
-5745 -654 0
10379 -6364 0
-7539 10310 0
-10438 5917 0
1524 -7560 0
-12779 4977 0
-13223 -2209 0
15533 -258 0
-2945 -6594 0
-6321 -13818 0
-10447 14719 0
12819 4250 0
12071 -3220 0
-14472 11538 0
-874 -6076 0
206 5678 0
5132 -6082 0
12747 -4414 0
6924 -5800 0
15077 2552 0
13561 9106 0
-8099 -2604 0
14468 -1249 0
9140 1591 0
2933 -1467 0
-13291 13143 0
8947 5197 0
-1149 13569 0
8338 7235 0
681 -8743 0
-12148 -13112 0
-870 2065 0
-11647 -10385 0
807 -2364 0
10212 -5442 0
-14902 3028 0
13187 -11055 0
113 14264 0
-8248 -1141 0
10850 13868 0
-1358 -2332 0
14871 -13517 0
12721 -15334 0
8323 3982 0
10254 10775 0
335 -1231 0
-13596 -9046 0
-6564 9221 0
-1985 3126 0
-15351 -13830 0
2774 1401 0
-93 1533 0
5317 11098 0
11561 -1953 0
14255 11045 0
2177 -7131 0
-10349 -11026 0
12119 11188 0
3093 15334 0
-12951 -878 0
-4284 14702 0
-3653 -1240 0
-7942 4365 0
9441 4781 0
1556 -7855 0
6297 1090 0
-1087 -15578 0
-3918 7943 0
-12663 -1293 0
10698 12914 0
3315 83 0
-13170 12051 0
13092 7485 0
4258 -4020 0
8163 9376 0
-6906 -11466 0
-13118 -10063 0
6891 -9520 0
7168 -12591 0
5901 15059 0
-13359 -15409 0
-4798 -826 0
13773 -4206 0
-3503 -8578 0
1389 -10229 0
3165 -9035 0
14705 15570 0
-2712 6865 0
-12191 1460 0
11654 -14881 0
-6845 9115 0
-3313 -11372 0
-10891 -6971 0
1801 5290 0
-9198 13976 0
-2006 -2858 0
6368 -8607 0
-11383 -14802 0
-2313 11482 0
2562 -10295 0
-15410 1823 0
-14562 2387 0
-7928 11306 0
-685 15174 0
4173 -3800 0
-3161 -8591 0
3417 -12941 0
-11089 -5016 0
-6198 9653 0
-3201 -14774 0
-14143 9357 0
14138 11167 0
-15398 -11901 0
-5047 -8932 0
-9385 1377 0
-6192 5905 0
-13659 8299 0
11986 14302 0
6006 14421 0
-10963 2507 0
13182 -8392 0
8449 5416 0
-3667 10682 0
8108 -6668 0
3694 1494 0
13887 4769 0
-14549 9935 0
-1356 -12649 0
-8537 -5129 0
-11784 6931 0
1948 10349 0
10765 -8404 0
3759 -11308 0
-10461 1798 0
7401 -10401 0
6594 3094 0
8414 -6943 0
-736 -9962 0
7443 -5021 0
14557 11878 0
-8961 4247 0
7117 2685 0
1358 7165 0
2273 -3279 0
5629 -8652 0
2105 -2760 0
8795 -15376 0
1342 1679 0
-9922 10156 0
-2489 -12913 0
-6339 -4370 0
-2231 1090 0
-7999 -10267 0
1129 -10595 0
-15065 15026 0
3514 -6486 0
6236 11666 0
1501 9710 0
-7089 5899 0
79 -15276 0
-2279 10522 0
2658 -12107 0
11121 3195 0
-14717 -12178 0
-4795 -4626 0
2165 -9788 0
2425 -4536 0
12584 -11193 0
4448 -2012 0
-455 -10738 0
-655 -13956 0
-9414 12200 0
-4662 -5424 0
10925 12293 0
-4799 -14346 0
3683 10986 0
-6541 -1921 0
9772 5138 0
5754 12634 0
-6363 -10919 0
-8190 8880 0
-11729 8690 0
1256 549 0
3432 13691 0
-12282 10975 0
7536 8675 0
15108 -7452 0
8866 -10193 0
14353 13468 0
3245 -5668 0
-14098 -10257 0
-14746 -8078 0
-14772 3395 0
-2129 5748 0
3735 -4734 0
-5408 -6526 0
1794 -6834 0
837 11912 0
677 4896 0
-5124 15474 0
-11447 10377 0
7055 -7390 0
4364 -13229 0
-7323 13919 0
-3918 -6770 0
-6493 -14265 0
-3170 1440 0
-771 -3992 0
730 6188 0
-3906 13807 0
7825 6000 0
-4495 13864 0
-3348 -5233 0
-9489 -13702 0
-15542 -12137 0
-6574 1470 0
15132 -13702 0
15209 -10255 0
556 14091 0
2187 6673 0
9138 -3823 0
-6730 -14919 0
-13616 -4136 0
-6195 -15076 0
-1766 6107 0
-10101 -2694 0
-13904 -1628 0
3028 -5977 0
12828 -13497 0
-11212 355 0
-1676 13340 0
-8772 -8230 0
8849 -8641 0
-5241 11505 0
-10075 -5618 0
-15434 8745 0
5154 12493 0
-12980 3417 0
819 -15365 0
5363 -2571 0
9681 -2439 0
14435 11116 0
13785 10713 0
-4967 11292 0
-6052 -6820 0
12766 -15256 0
5785 -503 0
-10 121 0
-10788 12929 0
1792 -474 0
5230 -12912 0
9969 -1262 0
14680 8223 0
5077 5986 0
-13185 -10583 0
-13340 -12758 0
5934 -117 0
11936 -14565 0
-10826 15422 0
8500 -3917 0
-1273 10317 0
-15053 14364 0
-3215 2105 0
12732 -8890 0
11172 2014 0
4054 2081 0
-14055 14544 0
-1243 -3488 0
13293 9300 0
-4358 -9556 0
11239 14558 0
3425 -10138 0
1907 -5226 0
-3073 -2712 0
11815 10014 0
13458 -661 0
-1580 -3594 0
894 -11619 0
-9677 -9120 0
1775 -9889 0
-3079 -7622 0
-5100 1058 0
-13672 -5966 0
-3122 -4883 0
1160 -6668 0
12727 -8731 0
-3484 5686 0
-10955 7821 0
13737 -3818 0
-2999 -11464 0
3122 -7038 0
15408 -2481 0
3538 -15293 0
3424 -7795 0
944 -7281 0
3066 -10242 0
-9395 2970 0
13707 7338 0
1694 12072 0
13169 -8295 0
-620 4482 0
3775 445 0
10210 -8899 0
3409 -13197 0
14278 5477 0
14700 11977 0
-3438 -14171 0
-1710 -7955 0
7135 -1550 0
13815 -11466 0
6274 9229 0
-13870 -5558 0
8594 10641 0
14412 13602 0
7798 -1873 0
-7058 -114 0
14847 -8296 0
958 -4366 0
-879 -8035 0
-1042 -7720 0
220 7552 0
11085 -5370 0
-5592 7769 0
14403 -7907 0
6507 2566 0
963 3858 0
9237 -15195 0
-5163 -4196 0
-8800 -2263 0
-5907 8011 0
-7931 10894 0
-12440 9267 0
-4121 -3379 0
12131 -10833 0
4159 -11332 0
14260 -4868 0
48 -9506 0
-6721 5908 0
-7852 14331 0
-8478 -12888 0
-14011 11378 0
-2394 8954 0
1588 9492 0
2771 12677 0
12508 1105 0
5891 -13114 0
-9177 -7864 0
14605 15001 0
-3064 -10937 0
3006 -1719 0
-4908 14511 0
15074 11359 0
1989 -8942 0
-12216 -1467 0
-9329 8922 0
5121 1956 0
479 -15200 0
-5682 619 0
8494 5694 0
10017 3469 0
12793 12543 0
8542 14537 0
-135 -14542 0
3895 -11613 0
7126 6579 0
-10953 59 0
-11524 -1055 0
4548 -12880 0
-8425 4914 0
12318 -5798 0
7194 13286 0
10849 -13587 0
-11353 -12602 0
-5545 -14845 0
8235 11915 0
-705 -6951 0
13530 4266 0
-13458 8051 0
-3202 12362 0
-15104 5957 0
-7088 -15127 0
-7195 -6748 0
-11927 5933 0
5329 14680 0
-8613 -9957 0
-4857 -3722 0
1325 -209 0
2624 -2335 0
-9112 3443 0
-185 -8892 0
-4832 -164 0
14256 -12637 0
9381 -8140 0
1951 15566 0
13147 -378 0
12046 -14027 0
8038 -13486 0
-7126 15228 0
1585 -4114 0
-150 -1668 0
-13110 -7526 0
-9789 14552 0
14872 -1943 0
-8956 -10141 0
-5907 3171 0
-11239 1835 0
-12774 -14526 0
10770 8948 0
13422 6778 0
15055 12682 0
-1589 -6862 0
-4670 29 0
-7207 8695 0
14798 -11118 0
-236 -10811 0
11498 -4694 0
14500 -2783 0
1907 -13973 0
-1140 12676 0
8618 8754 0
4715 7076 0
15426 -10607 0
1973 -12496 0
1166 7193 0
-9873 -12985 0
11661 -6711 0
-8901 332 0
9478 330 0
-4236 -3211 0
-2208 -2125 0
15202 -14788 0
-9425 -13915 0
-11095 -14760 0
-15418 8112 0
-8477 6107 0
-1127 -8423 0
-8123 -14154 0
1330 12341 0
10670 -4235 0
14157 12022 0
2524 2824 0
-11653 7707 0
14916 -15029 0
-15326 -13451 0
-987 -6767 0
8823 -14538 0
11198 4659 0
-13732 218 0
10628 10134 0
-13073 -12111 0
-864 -1047 0
2446 -4134 0
-6837 -11035 0
-4318 11879 0
-6227 507 0
7266 5601 0
-7765 -5672 0
1389 8484 0
13022 5463 0
-11038 6655 0
-3565 7249 0
8170 -13706 0
-689 3717 0
13495 -12915 0
-1228 -9285 0
8319 10843 0
10580 8602 0
-9483 -8492 0
6133 1886 0
13315 -1111 0
-6035 -1571 0
14694 -7445 0
2957 12130 0
13699 9527 0
3310 -7170 0
15174 -1682 0
-1914 -9831 0
-6684 10449 0
-1774 13172 0
-13682 -9767 0
-8385 5981 0
2579 -12289 0
8466 9647 0
3561 -9492 0
-1152 6333 0
-11894 -5960 0
12773 -11066 0
-4631 -6449 0
10725 5481 0
-9490 -8192 0
-11512 4942 0
-13610 8987 0
-11066 -12544 0
-14308 -13567 0
-5103 -14598 0
-13671 4697 0
14691 8191 0
2970 8827 0
14206 6681 0
-3104 5268 0
-10756 12174 0
-83 -14215 0
-12376 -3549 0
-11300 -1747 0
11556 8533 0
2370 5130 0
3136 -5829 0
-13900 2830 0
14741 -7212 0
-1860 -9655 0
-15489 2899 0
-5342 -1046 0
5598 -14668 0
-5864 -12676 0
-5977 -9796 0
3289 -11659 0
9840 -2043 0
-12260 1181 0
-10417 11120 0
-83 8361 0
-13516 5272 0
9113 -10800 0
-6667 -10714 0
-2029 -7110 0
1995 7835 0
-8316 -693 0
14255 10881 0
-15471 8332 0
-456 15109 0
-3203 13336 0
4765 1288 0
-15326 5016 0
-14288 -7616 0
13471 10988 0
-12282 -985 0
2915 -962 0
-15202 13441 0
-2729 -6195 0
7707 14775 0
1364 -8672 0
14904 12252 0
-5125 957 0
11380 6397 0
-9546 2846 0
-12843 3724 0
-14730 8947 0
-9983 -274 0
-3670 -15328 0
-11597 5011 0
-13092 -11935 0
-3193 -2271 0
13661 -13278 0
-7139 7616 0
-6477 -4065 0
9677 -10045 0
8523 -2794 0
-1795 11327 0
-15469 -790 0
-13353 -14336 0
-13236 -1837 0
-5614 -6260 0
11660 14668 0
13899 9319 0
-10054 7217 0
-3916 1814 0
7596 8626 0
5828 10074 0
-3201 -868 0
4770 7465 0
8801 -3191 0
-1641 -3313 0
10764 14704 0
5437 1859 0
7295 11666 0
-15539 5078 0
2859 12714 0
-7440 -8642 0
-111 6868 0
-8545 -11925 0
4938 -5354 0
1723 12737 0
310 973 0
-9178 10054 0
11124 -8062 0
4230 9694 0
6775 532 0
-14521 9208 0
9178 -11981 0
4129 -8945 0
-9569 -14355 0
-4137 719 0
-7429 10059 0
6117 -13847 0
-1378 -14964 0
-5879 7000 0
-14643 5376 0
-11639 -1770 0
-11981 7751 0
54 -4131 0
-1002 -348 0
7231 466 0
-5175 11011 0
-6855 -1729 0
93 -2401 0
562 -2910 0
4064 -8426 0
-10847 1362 0
11404 -1125 0
13091 -15308 0
12196 -5130 0
11124 11927 0
12765 5306 0
-1365 4829 0
14146 2335 0
-4592 -10679 0
-13643 -14236 0
3311 -13301 0
9495 8135 0
999 5361 0
-1944 10247 0
4351 -9566 0
-8411 -10706 0
14118 -13340 0
-6850 3573 0
-1474 -5321 0
14640 10641 0
609 8389 0
10215 12456 0
11843 9529 0
-11614 4942 0
2662 -6035 0
6643 2779 0
2299 5734 0
679 -12548 0
12838 3205 0
3446 -15398 0
-5419 -4223 0
4188 -9410 0
-5665 -7797 0
-4103 6054 0
11250 12907 0
-13884 -11835 0
8635 -7273 0
6379 5648 0
9339 10251 0
-139 7745 0
4591 -6639 0
3506 8512 0
-12108 -10846 0
7963 3267 0
4808 -8937 0
-9788 -6212 0
-7290 479 0
4333 -1331 0
-11998 7657 0
-15120 10333 0
5666 -2472 0
14352 -4969 0
3995 -6689 0
-11764 -13678 0
8027 10520 0
1235 7864 0
10998 14306 0
-4816 -2462 0
8402 -8623 0
-7928 4234 0
-14643 -7359 0
-2429 4243 0
14684 6363 0
4942 -9957 0
-3972 14609 0
3249 -10728 0
-2134 8471 0
-7969 10685 0
11798 -9145 0
10410 -4821 0
1687 13173 0
-4198 -9772 0
-12191 -786 0
6382 -6895 0
-13579 -9519 0
8895 -1797 0
-4742 11153 0
-10523 1135 0
13784 13120 0
13672 -6790 0
-14820 10132 0
3028 -13136 0
4839 1770 0
-13359 -1997 0
15568 -9602 0
-1558 -6690 0
-6806 -5082 0
9366 14414 0
-8199 11029 0
2332 10073 0
-5547 -6616 0
12004 9033 0
2500 6841 0
-1011 10426 0
-15132 11677 0
-2514 -11157 0
4570 3933 0
15332 -7375 0
-10034 -13307 0
7318 12599 0
5519 5660 0
-10052 -5120 0
4473 3127 0
4871 -52 0
-10423 5655 0
-15042 6186 0
-4996 -5619 0
-13073 2601 0
3940 13626 0
-5092 11689 0
6002 -11819 0
4691 -11481 0
-1236 1216 0
-11420 13092 0
5729 -9309 0
9991 98 0
-5701 -11676 0
-8504 2359 0
14584 -5783 0
7520 1128 0
10180 -13232 0
-872 9675 0
11175 4625 0
1235 12488 0
-3681 -3866 0
8187 -2481 0
8781 12236 0
13143 -10948 0
-13858 -9544 0
3023 9184 0
5838 9245 0
-6807 4646 0
13515 -13771 0
12239 -12977 0
1408 1448 0
-15280 7060 0
9383 -3380 0
1772 3274 0
14369 11316 0
-9585 6767 0
-11412 10407 0
8964 -492 0
14353 11089 0
-7896 2583 0
2081 -2337 0
-788 -11403 0
-5439 -1851 0
3906 -471 0
1750 4894 0
7749 8447 0
4499 8144 0
-591 868 0
11269 -3932 0
1801 9903 0
13481 -7583 0
11091 5285 0
-7236 14637 0
-7437 2850 0
-504 -2162 0
2463 -5606 0
-6490 -724 0
8098 12645 0
3437 -882 0
-8998 -10958 0
-14956 -9912 0
-1731 -1535 0
13728 -14385 0
10687 -2384 0
-10654 -840 0
-10804 4017 0
2356 8576 0
-12509 -15448 0
-5427 -10434 0
7134 -8977 0
14157 12323 0
14182 -4155 0
-10803 -5975 0
1182 -15029 0
-965 -11827 0
-7094 12738 0
11946 15468 0
-11086 -8394 0
8150 14611 0
-2244 10886 0
3627 9588 0
14001 -5041 0
-11768 -11935 0
-8852 13961 0
-11023 -5703 0
-9692 13261 0
-8407 7585 0
261 -12145 0
-14246 6851 0
1883 2756 0
-1151 -14288 0
-1764 -3045 0
-15311 -7942 0
4279 -3454 0
13791 -2149 0
7744 -12993 0
-8699 -7038 0
-8766 -8520 0
198 -2158 0
243 -2220 0
9456 -7240 0
2857 2206 0
-14325 -7653 0
2192 12907 0
9098 -13517 0
-13204 372 0
14015 -2171 0
-10586 -13174 0
594 8830 0
14157 6150 0
-9052 -6834 0
-8936 8498 0
-13324 -7577 0
-10291 10015 0
11860 -14323 0
14290 -12008 0
5916 7143 0
-649 -5547 0
-15085 -14012 0
3989 -3214 0
-9268 -6802 0
6184 3711 0
-15370 1709 0
-3125 -2532 0
-11964 4770 0
4264 12781 0
-11382 -15323 0
4037 4588 0
-13101 10841 0
3746 -677 0
-7218 -8716 0
-1126 -7413 0
1354 -5844 0
11343 -13538 0
-4125 -10866 0
-6015 5557 0
13740 8757 0
-1072 -6548 0
-14139 15168 0
4252 -12996 0
-9386 -7291 0
9712 -10075 0
6059 11510 0
673 725 0
13342 5577 0
13766 -5151 0
-1566 -1249 0
4061 -1648 0
-10269 12429 0
-433 1910 0
7182 15509 0
-6556 -7027 0
-3455 13604 0
13331 15297 0
5864 -3733 0
-3953 -11129 0
3611 15267 0
2863 8564 0
3185 14359 0
5177 1213 0
-15092 -10384 0
10600 -8081 0
8170 -13645 0
9189 3496 0
-8938 -1098 0
-10364 -1935 0
-14657 3079 0
-12092 12422 0
-3545 -9459 0
6053 4748 0
3613 1050 0
39 2983 0
-9584 -14322 0
6107 -1371 0
11594 7142 0
3566 12329 0
13183 -1286 0
-1043 -10830 0
-4181 -8344 0
6590 -14380 0
12217 -128 0
2729 -10544 0
-14740 -3372 0
7871 15241 0
1598 13510 0
-6563 -2539 0
-5552 4066 0
-11217 -12268 0
6304 -15075 0
-840 -4633 0
-3069 14792 0
11564 9792 0
8808 7685 0
2300 6153 0
-2420 -2352 0
4270 4247 0
-6345 6881 0
-10128 -10194 0
-4180 753 0
8440 -12220 0
9997 11188 0
-11200 7326 0
15071 -13323 0
2400 3740 0
513 1310 0
-7004 -4886 0
-3456 13209 0
15573 -2766 0
-3832 5966 0
-1864 11590 0
3682 6691 0
-1860 -12500 0
-13110 8003 0
775 3470 0
1059 -2136 0
-468 216 0
-2308 -13434 0
-15114 6225 0
5279 1979 0
6932 -11548 0
5108 -11128 0
-12331 -6899 0
11232 11250 0
-11789 241 0
3621 12960 0
-5065 -8615 0
-6585 -15233 0
-6906 4294 0
-12834 -6556 0
-1312 14956 0
11886 5287 0
-486 2210 0
6142 11232 0
12214 14094 0
12615 13062 0
-9468 4342 0
-6321 13698 0
8391 -5845 0
-3915 -3121 0
-10661 5022 0
-13094 3336 0
14912 1741 0
-652 -7549 0
15210 -5776 0
1690 859 0
15204 -370 0
-5599 11231 0
1299 14961 0
4272 -9172 0
8431 -5319 0
778 9376 0
14850 -5242 0
4827 -3403 0
-12881 15265 0
-4790 -10512 0
-8379 7893 0
-862 -13372 0
11877 -10285 0
14417 -3874 0
-2540 9418 0
-5794 -7523 0
228 15437 0
-2752 7717 0
-12583 3052 0
3570 14778 0
8144 9383 0
-105 -2682 0
-10181 -3503 0
5808 -11470 0
11148 5623 0
9152 -6993 0
-9914 733 0
-13668 5140 0
8166 1043 0
-3420 9060 0
-2589 -8943 0
11717 13428 0
-976 13814 0
-14898 2416 0
-13353 -3943 0
14193 -12704 0
-9741 -14116 0
14835 -6345 0
-786 5950 0
-4522 -11662 0
-11877 -7285 0
6178 6957 0
1534 9134 0
1601 -5111 0
15512 8585 0
-3769 14363 0
-10505 -6832 0
12318 12156 0
-1129 2297 0
3734 -2694 0
2745 6285 0
-10668 7065 0
1822 -11562 0
5979 -10899 0
2302 -14397 0
11219 937 0
11625 -15442 0
-7646 -9454 0
-4037 -13269 0
2717 12068 0
6955 -14743 0
-15181 9301 0
-1128 313 0
13378 7128 0
-10485 14804 0
-6963 -4151 0
14997 271 0
-14879 -7192 0
-8929 -2925 0
-14228 8149 0
-3096 5363 0
11696 -1322 0
-6123 12455 0
8464 5295 0
5330 10700 0
-10468 -11792 0
-11012 6016 0
4686 -6700 0
14697 566 0
-4939 -5496 0
-10556 9556 0
4109 -5027 0
-11252 -2471 0
-12390 5189 0
4447 -13188 0
-3040 6351 0
4493 15131 0
-110 5163 0
794 13918 0
-8056 867 0
350 6036 0
12677 7143 0
-14844 6638 0
-7162 12223 0
2985 2528 0
-1719 -12815 0
7809 -1363 0
-6872 -4391 0
-3066 5490 0
4351 -4646 0
-7498 14311 0
-5347 -14352 0
-3780 11675 0
-14175 14843 0
-4355 8466 0
-8735 -7772 0
-5651 -1489 0
2158 -4432 0
9779 -12250 0
-10113 -14194 0
-13227 -5393 0
7353 3696 0
-4765 -7153 0
15080 -666 0
5696 5454 0
9042 8095 0
-554 6888 0
14273 -3600 0
-4465 -5687 0
8100 7686 0
9398 -9388 0
8406 5214 0
8819 -14590 0
-14643 2508 0
-4780 2639 0
5348 -9242 0
-6452 11966 0
11920 -14738 0
-12444 11162 0
13997 589 0
-2598 6709 0
-13113 12815 0
-14782 6501 0
12074 7875 0
4333 13971 0
-2678 8272 0
3868 -2194 0
-7189 5020 0
-4299 4661 0
-9525 4922 0
13783 263 0
-8735 -1056 0
13569 15098 0
3506 -9611 0
-11420 -4529 0
-72 -1277 0
12498 7225 0
6805 -15409 0
6287 -1494 0
7732 -15384 0
-14944 -2991 0
11686 7353 0
-10498 10624 0
-13431 13970 0
2388 -2049 0
7283 11054 0
8587 -6385 0
-8019 1617 0
-4987 15048 0
-1314 3939 0
7605 -11405 0
5078 5582 0
8196 2901 0
-3194 -9088 0
-7984 -11146 0
14499 1650 0
-9604 -3323 0
-9669 -10795 0
9930 8377 0
3745 -13251 0
-13821 -10727 0
-13942 9001 0
-9513 -414 0
-2407 -7165 0
15182 -14345 0
-5975 7441 0
-11137 14415 0
-8891 -7183 0
2704 -12499 0
-3154 -9198 0
14702 -13879 0
-6470 13375 0
-1338 -12410 0
-8318 -3197 0
5315 2477 0
-10427 -606 0
-5911 -2029 0
-8194 -6675 0
-1222 11655 0
-6665 14904 0
-8152 -9367 0
12356 -1292 0
10744 6587 0
5468 8268 0
11518 12514 0
-11082 -3044 0
-11611 219 0
1679 -5515 0
-2959 10544 0
-14194 12104 0
-10845 2923 0
-7024 6853 0
-7340 4304 0
1917 789 0
8469 -6177 0
-10212 -15272 0
-5906 -14133 0
-9081 14578 0
13135 5839 0
-5892 14102 0
12036 11113 0
-13530 -12135 0
4570 15198 0
-12386 -1606 0
10350 14401 0
8302 -13080 0
13199 -10810 0
7669 2976 0
2503 -3140 0
-105 -15328 0
-1874 4359 0
-25 -3779 0
-5678 1427 0
13825 1954 0
-4262 11388 0
-343 12203 0
-12037 383 0
-2867 -12403 0
-11911 -1773 0
-444 7120 0
-11246 -10557 0
-13722 10946 0
9763 -1245 0
7518 -10446 0
-3850 -12075 0
-13860 -510 0
-2682 -9289 0
-1764 -5417 0
-12526 -9147 0
13379 -4638 0
-3669 6602 0
-5968 9854 0
-11228 -9593 0
7969 -7696 0
-5695 13931 0
-14189 9167 0
-6323 947 0
12592 -10499 0
3016 390 0
-9866 -4823 0
12537 -12607 0
-9328 -8762 0
32 -10751 0
-7272 -4707 0
3183 9523 0
-13421 -14039 0
-4964 13502 0
5175 7703 0
9410 8653 0
5015 15474 0
11140 14794 0
4766 266 0
-13187 -7510 0
-8817 -14340 0
-9186 12955 0
-1573 9983 0
6017 -4634 0
6354 -10850 0
13025 7438 0
-9516 -8725 0
-10825 -7854 0
-1469 10594 0
12701 1184 0
-623 11114 0
14475 14533 0
-5556 3575 0
821 -12679 0
-7476 -3255 0
6293 -12293 0
875 2233 0
-12993 -2780 0
-4742 206 0
-12395 12413 0
4507 766 0
-10308 -3374 0
3883 -14191 0
-10049 -6935 0
-12433 -6705 0
4568 -7136 0
12939 -13506 0
-7801 -11384 0
-15286 -6071 0
-1254 -4674 0
-5958 11635 0
7547 -2550 0
4897 876 0
-11623 -8661 0
-9358 -651 0
4569 -6320 0
-14589 -7039 0
-15115 -12049 0
2079 -8938 0
-15047 6242 0
-7064 11207 0
-8610 -2354 0
-7839 5052 0
681 7098 0
1953 11210 0
-1559 -7143 0
-894 6490 0
8752 5086 0
12833 -7039 0
9899 -4908 0
11350 10892 0
5744 13266 0
-11875 -2417 0
15508 -12312 0
-7786 -9100 0
-5896 12729 0
3120 15433 0
-2521 12843 0
-14189 164 0
5209 11146 0
-1137 7930 0
4852 -11597 0
2914 7418 0
-2642 7157 0
-15057 10812 0
-7682 -8166 0
-14263 8301 0
14596 -14888 0
-12500 10608 0
-3059 8035 0
13157 -6127 0
10244 -5691 0
-8074 14320 0
12521 -865 0
14513 -15035 0
12214 -1571 0
-8735 -2672 0
519 2202 0
14149 12434 0
-2214 12263 0
400 10780 0
-6007 -13973 0
5286 12151 0
-13473 -5622 0
1216 3770 0
-11695 -1205 0
-14498 6393 0
-9026 10195 0
3286 -2992 0
-9862 909 0
-6062 9378 0
-4993 12020 0
-9502 -3065 0
400 4600 0
7044 -7938 0
6253 8853 0
8438 354 0
10706 -9256 0
10955 -13389 0
10593 4580 0
-917 -5070 0
-5309 5377 0
-3 -5819 0
-9218 14139 0
-7667 2985 0
-9873 13314 0
7300 -2193 0
-13254 -9764 0
-5759 15009 0
-6519 3253 0
11386 3334 0
-9530 -4823 0
-6080 15094 0
-10061 3762 0
10117 -9412 0
4757 10842 0
6165 946 0
14268 2536 0
6563 909 0
3395 -5772 0
11908 1370 0
-886 9995 0
-991 -1397 0
-3449 -2045 0
10835 -12339 0
-7939 5232 0
-11455 -10414 0
-12344 -10312 0
14487 3406 0
-1562 -5120 0
-3311 -2469 0
-14840 -1536 0
6153 9832 0
-15450 10170 0
12379 836 0
11952 11413 0
4576 1429 0
-9064 -4642 0
3073 7064 0
12912 336 0
15421 5785 0
-15008 -11353 0
-8571 -13269 0
-5124 -12182 0
12772 -2710 0
-5313 -15576 0
12456 -11580 0
9950 -9874 0
4103 -1156 0
13075 4864 0
13731 1370 0
-13071 9316 0
-7226 1611 0
-7809 14742 0
6001 5530 0
10102 -13952 0
6919 14711 0
8253 2629 0
-716 92 0
232 -10377 0
-3200 -4961 0
-10711 779 0
-10693 1780 0
-7582 -10946 0
-13546 4609 0
-13808 11283 0
-14138 10634 0
8930 8159 0
13396 -12946 0
9872 13568 0
9862 79 0
12468 -12582 0
14580 -15233 0
11242 -12409 0
6523 -470 0
6387 10031 0
-3054 14802 0
10413 10167 0
-4924 5589 0
10935 5251 0
-11614 -10748 0
15479 6407 0
6953 -6138 0
10488 3193 0
-13723 -7910 0
8017 -15507 0
15210 3139 0
-1547 11382 0
-9758 4486 0
-4495 -11880 0
-15140 1306 0
12184 6623 0
-5672 14082 0
415 -15328 0
5997 -7468 0
11926 -14537 0
-12271 -14508 0
1038 -2870 0
-6091 13721 0
-12567 7228 0
-656 -12416 0
13781 11288 0
-5768 -5662 0
-9263 8082 0
-2829 -14293 0
5163 4698 0
13367 7215 0
-2979 -10866 0
7318 436 0
-5684 14848 0
4753 -2221 0
-10306 12921 0
13606 -10890 0
13512 -14941 0
-12112 8229 0
4320 -7792 0
10174 -7324 0
-9655 7818 0
-1468 6463 0
-10558 -11031 0
-12822 -10359 0
1683 -4984 0
6265 -7141 0
6423 1740 0
-15152 1410 0
12721 4017 0
4990 -2900 0
-9920 7252 0
-2893 -14888 0
-7023 12632 0
12648 925 0
7881 11849 0
10522 -11066 0
7563 14348 0
-4485 -12710 0
-15332 5705 0
11526 -8182 0
1667 -14896 0
-14625 -13479 0
2766 8253 0
704 7498 0
-149 10262 0
5889 3683 0
-1142 83 0
2257 -5943 0
-140 -1935 0
-13811 7492 0
7259 -11038 0
-13947 -7118 0
-5023 -13193 0
-6890 -13176 0
-6714 9265 0
1177 6414 0
5776 7822 0
6324 -14706 0
7237 3686 0
-14199 -1332 0
15423 -740 0
4964 -15042 0
-11023 -364 0
-1229 -12354 0
12311 -12985 0
885 14789 0
5384 -12733 0
14060 7831 0
-2064 -4591 0
-13164 -11286 0
12905 2557 0
2136 -4294 0
11078 836 0
-2857 -5587 0
12468 -8479 0
7654 11640 0
-3874 -3096 0
-3174 -1045 0
-7562 -4559 0
-9334 11471 0
6549 -4551 0
-7633 -1804 0
5046 4764 0
3094 11577 0
7033 12056 0
10669 -13683 0
-2980 4415 0
-10827 13692 0
10600 6885 0
8230 6587 0
7506 -14691 0
8018 11969 0
10745 -2406 0
-12975 -5039 0
-1121 -5309 0
-3193 -2905 0
12947 12229 0
11471 -9280 0
12560 -4525 0
1552 -7229 0
12236 -14964 0
-15027 -13726 0
-4087 -13965 0
-11986 6340 0
-130 7634 0
8017 9688 0
-10581 374 0
9132 8073 0
-7727 -6280 0
-736 2001 0
-11453 -2226 0
-763 5535 0
12818 1082 0
2369 15064 0
1947 12097 0
-9351 -8854 0
10511 -3812 0
-15340 15383 0
11583 10076 0
3773 9608 0
-5961 -2439 0
2796 -8218 0
-12417 4065 0
10168 -5028 0
12623 6054 0
-8831 -9663 0
1447 -8590 0
-7875 6084 0
9303 2235 0
2749 12841 0
-8181 -15464 0
15078 15245 0
-8102 -13371 0
-11901 -3599 0
-8517 -11436 0
10396 -1635 0
-9561 10406 0
7300 -10843 0
684 -11848 0
-2567 5090 0
-14406 11778 0
-9831 -8576 0
3640 -7377 0
-10228 -1234 0
-11155 14258 0
11534 -14535 0
-2355 12647 0
-1788 14858 0
-6199 -12511 0
13215 -2134 0
11578 159 0
-12421 9472 0
-14392 5857 0
8161 -1155 0
-5109 -14729 0
-2775 -10532 0
-9953 -3880 0
12937 -8454 0
-4197 -3852 0
14013 9688 0
15343 -10517 0
-5721 -1182 0
4559 4246 0
-2560 8468 0
4300 939 0
-13643 4673 0
10902 9324 0
-1819 -14641 0
-3788 -11252 0
8684 5736 0
10923 -5082 0
-3651 -1806 0
-5988 2593 0
-2601 -3276 0
5789 -10356 0
1262 -14293 0
9359 138 0
-15205 -15208 0
-12439 -5004 0
2828 -1285 0
15421 -10320 0
-12160 -10090 0
-2115 7734 0
-5801 1181 0
-11784 -8631 0
-13494 -5799 0
4276 -8863 0
-12115 -2807 0
2680 -5510 0
-9461 -12181 0
-14523 -8320 0
-11445 12369 0
-8683 12050 0
-14604 -11129 0
7604 -15048 0
13929 -7817 0
2596 -14564 0
-11573 3523 0
11477 12489 0
-2595 1527 0
-8229 3346 0
-11299 -5089 0
-4428 6016 0
13557 10837 0
12138 -11012 0
-12342 3311 0
13253 1178 0
-8612 4191 0
-804 -4309 0
10568 10537 0
-8126 1835 0
4637 9385 0
-12880 1822 0
-4926 14 0
6418 -145 0
-3927 -9568 0
-10052 -13809 0
12846 11756 0
-9759 -13212 0
-9402 -12374 0
-5102 10715 0
2421 -7539 0
5862 420 0
5173 10699 0
-12802 -2845 0
6909 -3299 0
-10979 15372 0
14300 14029 0
3492 -5622 0
1841 -4092 0
15408 -9451 0
315 1857 0
-7102 12695 0
2087 -10636 0
-3956 14666 0
-1176 14269 0
5671 -13277 0
-7962 9930 0
13860 13243 0
7587 2348 0
9774 15316 0
-5729 833 0
-10430 14777 0
-14663 -7659 0
13074 10499 0
-14303 -8128 0
-9822 -9956 0
-10966 452 0
-5431 -14261 0
9091 -14259 0
-11479 -15179 0
-5063 11395 0
-4709 -4284 0
9288 1069 0
-93 10954 0
-7223 -3585 0
-10875 -9254 0
2139 -14957 0
2375 -9676 0
6983 -3098 0
6502 12427 0
-14637 11456 0
-2769 8639 0
-3313 -1606 0
14950 -15420 0
15373 -14175 0
11399 -10569 0
-5695 -1655 0
-10843 2056 0
-13179 1700 0
2039 10378 0
2049 13736 0
-7523 -3018 0
7314 243 0
-7577 14236 0
-8838 -14709 0
356 -3649 0
-13430 1835 0
14902 976 0
9003 -6006 0
14327 10561 0
11771 12832 0
-11138 -2665 0
4003 4230 0
-3446 -13777 0
-4316 3062 0
6085 4709 0
3453 -2521 0
-5098 -12469 0
-13421 7116 0
13504 5934 0
-1862 829 0
-2280 5797 0
-15082 13187 0
-5893 -9553 0
-10590 -7415 0
-12715 3032 0
-11199 -6477 0
-3749 6512 0
6386 -1211 0
8323 8213 0
6340 -11683 0
8232 9588 0
-6675 9406 0
15045 10707 0
-12846 -14312 0
-7006 -1120 0
-3105 -12671 0
-2318 -10797 0
13940 -1990 0
6158 472 0
-4911 13472 0
3840 -10252 0
-14114 5770 0
-2499 -30 0
-8651 -10937 0
-9550 -13543 0
13947 -8666 0
-2625 -6017 0
-4657 6892 0
1319 12552 0
-9594 10467 0
15439 -9431 0
2253 13550 0
-73 4355 0
-7345 -3530 0
4196 -2044 0
5640 12048 0
11535 -10719 0
-2510 -6564 0
-6623 -14158 0
-14350 -7793 0
-7907 -4233 0
-3663 2888 0
-2478 5309 0
-4396 14892 0
11805 -14892 0
2079 1518 0
9253 15357 0
-6685 -740 0
8077 1395 0
7634 10603 0
-14328 -13618 0
9511 2108 0
11830 -8027 0
2005 3052 0
-6286 -8606 0
6632 5948 0
1855 4956 0
-11840 -5216 0
-14913 -536 0
-4289 12539 0
8458 -2750 0
11776 13958 0
6583 -13904 0
-1980 -1397 0
-3360 -10546 0
2332 1928 0
-12857 9945 0
11299 9149 0
136 846 0
5382 -2175 0
-2996 2351 0
-4859 -3394 0
-6682 -215 0
-2599 1767 0
14530 -919 0
7120 9735 0
2788 14520 0
-567 -1856 0
-5669 -13371 0
8351 -3090 0
-4457 -6380 0
-11921 14069 0
10107 3077 0
-937 -6658 0
11560 782 0
8186 15309 0
-9707 -10119 0
-14014 -5935 0
12978 -10253 0
-12067 4615 0
5826 -9513 0
-7678 4493 0
-2095 898 0
-3639 -8848 0
9724 11855 0
-8173 10080 0
7774 5846 0
4539 -13131 0
-6521 3362 0
-6906 -14005 0
11064 -677 0
810 -204 0
455 9333 0
-13490 14800 0
3322 -1925 0
6299 -11632 0
7992 -7749 0
13517 -14336 0
-5250 11466 0
1641 -3139 0
-5204 -7259 0
3622 11362 0
7188 733 0
-12887 -13474 0
-11286 13547 0
-6642 717 0
4467 -2979 0
9722 -1197 0
9429 -10757 0
9371 -12596 0
12297 -6362 0
-7717 4388 0
290 -237 0
7162 14221 0
13090 4117 0
5267 -7085 0
7731 10829 0
-6239 -9364 0
-8312 -13028 0
-8516 13391 0
-15325 13839 0
-1475 7215 0
14544 -3810 0
-14491 -10450 0
-10129 11840 0
-2299 -5226 0
10040 4730 0
15406 12497 0
6937 4551 0
4754 283 0
14368 -10734 0
13483 7772 0
11639 -2134 0
-3877 -4839 0
13859 8392 0
15370 -2401 0
-7753 -12373 0
14769 -7494 0
-1202 12031 0
-13988 4870 0
-2953 -3575 0
11289 -6241 0
-11886 9867 0
-8081 -13924 0
6533 -229 0
-11382 -10085 0
-1263 -3570 0
8520 -2435 0
-105 -1033 0
7257 8827 0
-5524 -14523 0
-15494 7943 0
12816 -8122 0
-15043 -4150 0
6160 10697 0
-2440 9363 0
-12366 2647 0
-14309 7742 0
-10416 -5667 0
14970 1292 0
-11144 -11943 0
-4086 9381 0
71 12620 0
-12954 -2578 0
-12417 -3931 0
15241 2647 0
-12500 -8624 0
-6570 14634 0
-9340 -6569 0
-15132 -9257 0
15479 503 0
14403 -14400 0
992 3752 0
7441 9017 0
-3456 14398 0
15475 -13769 0
-5651 588 0
-14632 -7445 0
-5468 -8167 0
14507 2336 0
11047 6790 0
-8087 -14718 0
8075 3543 0
-15497 15415 0
-1260 6358 0
-4789 11656 0
9598 -599 0
-3764 -4324 0
-14738 -7830 0
-14201 -2013 0
-12162 -11172 0
-10136 -1823 0
-7204 9108 0
1742 9721 0
-332 -1278 0
-5587 -10953 0
7956 3900 0
3624 -8229 0
8985 684 0
-12363 -6401 0
5448 13195 0
-5139 -720 0
9909 -3987 0
-6040 4522 0
-15505 -7623 0
-5341 -6213 0
-10473 -138 0
14390 12506 0
211 -5024 0
-15115 -10004 0
-14316 -14802 0
-11822 -13926 0
5277 -8184 0
232 -11428 0
8869 8488 0
-11019 -2176 0
11252 5319 0
-719 2828 0
9805 7245 0
12028 -10860 0
14291 10042 0
-12054 -5114 0
-9958 5728 0
-10115 -8796 0
-3361 3634 0
5804 -3232 0
9888 -8868 0
2630 6713 0
-8911 -14166 0
-12301 -273 0
11329 -12504 0
-4714 2367 0
-9680 -4478 0
5859 -6936 0
2734 3185 0
-10057 4742 0
12477 -1443 0
522 -2115 0
-5398 -6615 0
-4828 7270 0
2966 -8494 0
-12912 -9440 0
-12041 -1072 0
-11544 -12077 0
8043 -13165 0
-10787 8415 0
9385 -8267 0
3915 5804 0
3538 11636 0
3388 2582 0
-13850 -7089 0
-9270 7319 0
-11376 -6124 0
2639 -3956 0
10899 -13641 0
6986 4486 0
-8875 2649 0
13491 4203 0
4226 -4345 0
10917 5669 0
6591 -2520 0
6307 11104 0
-10447 518 0
5634 -11410 0
1747 -13421 0
8046 13065 0
-14324 13549 0
6414 12584 0
3498 -11168 0
389 6977 0
-11588 -5717 0
-9777 -9348 0
3946 -3086 0
10789 3263 0
-10445 12794 0
-9120 12721 0
12532 4788 0
-3527 -8439 0
9394 -12287 0
3511 9533 0
7313 3609 0
-13685 5404 0
-13908 -3649 0
-8692 3119 0
10244 -14865 0
4461 4822 0
-5750 1473 0
14050 -7912 0
10805 -13513 0
-9881 -3452 0
10784 -5089 0
-1203 11649 0
-3458 -8237 0
-5975 12001 0
-13092 7104 0
-10180 1268 0
2921 -10085 0
11088 256 0
5537 -148 0
-8479 8635 0
-10948 13135 0
-11347 -4692 0
5159 325 0
-3125 -3800 0
-2752 10856 0
-4537 -13627 0
-12345 -11842 0
-9149 9101 0
-15476 -13536 0
2482 13731 0
6803 -1259 0
-2457 -3141 0
2529 -5908 0
-13714 8734 0
5693 2734 0
-7263 1219 0
-12696 -10496 0
3340 275 0
9460 -5552 0
-6315 14651 0
2706 -4077 0
8966 8757 0
9181 14966 0
-9332 11741 0
-7607 -11676 0
-9262 -7377 0
15175 9279 0
-5242 3370 0
15287 -13010 0
-10900 -4498 0
6125 11013 0
13852 13139 0
-5879 -10071 0
-2460 1810 0
697 -14539 0
15572 2645 0
8194 -4693 0
1615 9997 0
158 -3253 0
1012 12947 0
11343 -2586 0
9386 10035 0
14151 8438 0
-9025 -1609 0
-384 7319 0
9559 -9857 0
6164 -13818 0
-2889 13116 0
-8998 -12850 0
-14217 5239 0
11211 11386 0
-5543 -6530 0
3243 14901 0
-12516 -8012 0
-485 13286 0
13307 4923 0
180 10413 0
-4332 -12019 0
-6297 12562 0
5079 -2301 0
7002 4412 0
-6279 -11566 0
10828 12617 0
-3472 4698 0
13332 1132 0
-1161 2358 0
-14598 -1269 0
-1852 -3883 0
13667 4415 0
10650 -6281 0
-9275 -4866 0
6983 -591 0
-11024 -9727 0
-14921 7119 0
13298 2553 0
-10474 14119 0
-4325 8622 0
11488 -11796 0
-858 99 0
14892 12701 0
-215 15180 0
-12003 15482 0
-4678 -10909 0
-5390 -15068 0
11951 -5929 0
-6228 -14739 0
6350 14918 0
-14294 10291 0
8449 12703 0
14733 10572 0
6840 -2577 0
-3454 6298 0
-4838 13976 0
-9987 10526 0
-11496 -7764 0
-10315 -9076 0
15507 7374 0
5741 -14649 0
-14772 -4444 0
4751 4572 0
-1946 4487 0
13942 -1939 0
7097 4275 0
-14555 8456 0
10838 8343 0
3908 3932 0
-5535 -4056 0
-12159 -12674 0
-3546 522 0
-13254 -13583 0
-3682 -8685 0
-14454 925 0
-9424 814 0
-5988 -2392 0
-135 -6157 0
2440 -9445 0
6784 12870 0
-12563 -6550 0
11089 5325 0
11005 -11451 0
4206 -7448 0
10160 12244 0
-12514 11646 0
7280 13845 0
10714 2897 0
9521 -13370 0
3041 6168 0
-14464 938 0
8122 7543 0
7913 -3322 0
-1293 -2822 0
10812 -10932 0
14221 3081 0
-4209 11781 0
-14561 -12631 0
-5254 -5104 0
-6450 -2742 0
12602 -12426 0
-849 -1491 0
7255 10862 0
7803 5893 0
-3051 13072 0
-7631 -6286 0
2524 11321 0
9961 1129 0
-9703 15457 0
332 12592 0
-6926 1917 0
1570 616 0
-13210 -4542 0
232 -891 0
-8893 6771 0
229 -4595 0
-14328 8215 0
8522 11287 0
-5739 -14286 0
8093 -11460 0
-14791 4345 0
2441 -15133 0
10160 12820 0
-15265 12815 0
-10179 8481 0
14108 -6246 0
-5059 -75 0
-4428 13584 0
11200 -8347 0
-5670 -5530 0
12625 -5638 0
-13549 -361 0
-10411 -15074 0
-3202 15374 0
-7478 -10694 0
10225 11773 0
8685 -6630 0
4311 -11146 0
-2511 3397 0
2443 11710 0
11866 -13928 0
2372 817 0
-1379 9060 0
407 12888 0
-1372 13239 0
-10427 -2207 0
14697 -6586 0
-8429 10233 0
2710 6083 0
-15159 10402 0
-11236 -395 0
6312 -8527 0
-5450 -451 0
12841 5035 0
-6183 13399 0
3339 -7510 0
-12977 3860 0
15388 -7960 0
11219 4552 0
11492 2049 0
-2664 2544 0
-4119 14397 0
3511 -4662 0
-2605 3619 0
14894 -6030 0
6683 -4725 0
-8863 -4377 0
-1887 7670 0
8647 -10006 0
-3746 13840 0
8383 1377 0
14943 -1388 0
1803 9459 0
-9039 -6316 0
-6430 14665 0
-4314 -6814 0
5007 -6350 0
-13406 574 0
-4766 -15290 0
-15258 4719 0
5153 1189 0
5620 -7685 0
-7848 12749 0
-13040 8104 0
-151 -15501 0
4996 -7338 0
-11470 12871 0
587 -12142 0
-10594 13809 0
5712 10703 0
-10047 -13383 0
-8424 -14071 0
3732 -244 0
8736 11624 0
-3653 14748 0
-7079 6751 0
-3667 -600 0
5812 4369 0
14609 14914 0
-10981 13884 0
1525 7571 0
-12163 6039 0
4136 4873 0
10194 1744 0
10894 216 0
-10423 4718 0
-3881 -5369 0
-13048 3443 0
9941 -645 0
15014 -13739 0
10764 -1177 0
8107 6617 0
-8233 4549 0
14828 15337 0
-5895 -11803 0
-5496 5145 0
3003 7769 0
-15281 -13650 0
-6534 -6471 0
-11870 3543 0
1985 8865 0
11033 -661 0
13759 -13529 0
7961 10000 0
-11770 -7226 0
-5092 -5008 0
-15208 -11580 0
-6025 -11523 0
-4013 13601 0
10818 10053 0
-7134 -12368 0
-8193 590 0
3942 -5575 0
3267 12996 0
6702 7953 0
-10235 2617 0
-2511 -2624 0
-11300 15010 0
13358 -10872 0
2833 14160 0
-6696 -10493 0
4435 10296 0
-9613 1943 0
-1631 10835 0
13813 4977 0
-640 -442 0
-5598 5970 0
-9146 3973 0
11329 -5396 0
-15076 -3758 0
-5909 -7447 0
-7085 -9374 0
16 -5056 0
-8334 -15505 0
-5373 -6022 0
3039 -3109 0
13996 -8034 0
-11183 -6114 0
-9813 2313 0
-7658 -8926 0
-3134 -7981 0
1899 7988 0
-6196 -4109 0
432 6110 0
3493 12836 0
-3661 -3260 0
-4039 6933 0
-9256 13685 0
2549 -2152 0
4355 -12181 0
-71 -2677 0
-11719 -5003 0
-5838 257 0
-6595 -13989 0
6465 5925 0
428 -10853 0
-15260 -3485 0
-13316 2478 0
14861 12189 0
-4752 1179 0
10214 165 0
9198 -5037 0
-15375 956 0
-2615 12387 0
7455 -3105 0
-4734 -11287 0
9849 2778 0
-6413 7064 0
-131 -331 0
-11525 6815 0
-4211 2975 0
11706 11148 0
-14611 -14288 0
10284 7943 0
10529 12762 0
-7579 7166 0
7356 9778 0
-7624 -3015 0
-11108 12172 0
2939 -12641 0
6708 -2420 0
-1067 6625 0
8187 15061 0
-13794 5416 0
8428 -14099 0
-14906 -4301 0
-5448 -4551 0
14896 7815 0
-4941 -11972 0
2328 -1243 0
-6171 -4693 0
6454 6257 0
10948 -6889 0
2616 781 0
-8518 -10651 0
3763 -9827 0
11871 4000 0
15348 -8937 0
2821 13797 0
14074 -12665 0
8829 -9656 0
-9839 5659 0
15524 -12714 0
-11177 13425 0
-12265 11567 0
-6020 399 0
-1849 -5729 0
10219 -11561 0
11180 11321 0
3584 14540 0
-4415 -3878 0
15064 12357 0
-8050 -14949 0
-14913 6003 0
-11056 -14739 0
5467 -1120 0
14194 6039 0
15435 10128 0
1243 4138 0
-871 2757 0
15223 7205 0
-7768 14705 0
5264 -14970 0
9862 -5436 0
9244 7521 0
4007 -10778 0
6032 13576 0
9380 9289 0
10430 -11770 0
-5474 -5564 0
-4580 11860 0
-10778 9166 0
10806 4520 0
9485 9484 0
2896 7678 0
12088 120 0
-4582 -9277 0
-1325 -14084 0
339 14155 0
-9941 -3392 0
-7695 -6611 0
-11734 -11816 0
2406 12494 0
-4763 8201 0
-4323 -4641 0
3650 -12708 0
-1458 -7617 0
3111 -12639 0
2535 -4740 0
-483 -14868 0
12808 3765 0
479 1491 0
-6965 -4451 0
-13934 -2945 0
-11468 -660 0
9675 -10245 0
-1167 1064 0
-6416 7879 0
-14706 2049 0
1153 10515 0
13163 -12948 0
-4082 8957 0
-14404 11032 0
11578 -9938 0
-8565 1012 0
4590 3861 0
3937 -6732 0
6166 2445 0
-12860 3468 0
-7871 14878 0
8759 -3099 0
-5815 -12734 0
7744 -3766 0
-2118 2774 0
-12962 -11056 0
-12354 -2536 0
-10899 -4465 0
-11638 -1851 0
4242 -10521 0
-9067 762 0
5050 2154 0
-11330 5217 0
9232 1188 0
13236 401 0
-12597 1624 0
-14399 -7712 0
-5346 12200 0
4205 -7282 0
-1591 13150 0
9903 -868 0
4147 -9145 0
-13570 9836 0
6879 -10043 0
5049 -11036 0
13231 11166 0
-9359 -6550 0
3619 14917 0
-1350 -9169 0
-14249 -10851 0
4284 -12638 0
-6050 3247 0
3336 -5760 0
-7341 -11922 0
12815 -14099 0
-6238 13918 0
-3568 7583 0
-15358 14738 0
15151 12888 0
15322 13148 0
686 -15429 0
-5452 2598 0
13928 8979 0
3131 3622 0
10145 2733 0
1827 1124 0
13222 1534 0
11168 13016 0
1450 3198 0
-6381 -5886 0
1408 -10919 0
7421 -10411 0
7798 626 0
15082 -15573 0
12918 7748 0
11888 822 0
13090 -1046 0
8688 -4879 0
-2186 10562 0
14611 -10738 0
7297 4847 0
-9661 6993 0
-6572 -2713 0
-11003 1689 0
8365 14653 0
-8220 13839 0
3267 10996 0
-15490 -2010 0
12842 -9412 0
-13640 -9988 0
-4288 -14819 0
4524 14429 0
6611 -9002 0
3561 8136 0
7193 -7473 0
5747 -7850 0
6633 8989 0
-14436 -14183 0
8032 -4396 0
13717 1101 0
-13857 4953 0
-11358 1938 0
14446 -865 0
10103 10861 0
-14045 11617 0
-5137 12912 0
6034 -5926 0
-10677 6303 0
10299 7213 0
-89 -12172 0
-138 14320 0
-1027 5049 0
2017 -10612 0
-14154 -8307 0
2202 14525 0
-11025 -10571 0
6355 11112 0
-14058 917 0
-8403 -3687 0
1805 -3431 0
-13940 -13517 0
-13215 -14557 0
-13846 -7317 0
-13091 12022 0
-7038 -10970 0
14825 2060 0
-7597 -3126 0
-5520 15232 0
-8657 -899 0
-13367 -15514 0
-946 -9517 0
2750 -6078 0
-600 7992 0
15428 -9758 0
932 -6896 0
-5250 -11697 0
-9824 -13570 0
4455 9621 0
7732 -13079 0
7059 -12581 0
-257 -13658 0
-6570 10216 0
13415 -9528 0
-7834 -7341 0
2311 -5114 0
-5378 -10746 0
-3694 -15199 0
3362 6935 0
-2052 6260 0
729 4766 0
-15051 -14957 0
15061 8378 0
15276 8771 0
1414 9211 0
3658 -5477 0
11646 -1654 0
2318 10245 0
-5707 -5132 0
12713 -13692 0
-127 -11464 0
15370 8852 0
13515 -7141 0
-8283 -6821 0
-1866 -7154 0
-3657 -5242 0
-1115 12384 0
-10895 -12577 0
-362 4352 0
9181 -14868 0
-11665 -7957 0
-9548 -3800 0
7637 -1510 0
6708 -10632 0
7782 -11440 0
5836 7085 0
2300 4301 0
-8703 7443 0
-8013 -12415 0
-5751 -14053 0
5122 10795 0
-10910 -11361 0
14171 8900 0
13306 15297 0
-4485 2373 0
-2174 -11744 0
-6877 5170 0
11268 12219 0
-10831 -2214 0
-179 592 0
15064 -6954 0
6406 14020 0
-3449 -8103 0
2356 -9916 0
5912 -4288 0
-12650 6523 0
13572 5957 0
6352 -1556 0
13938 8488 0
5604 -4587 0
8562 3923 0
-12791 7744 0
-3342 935 0
-11776 7850 0
-4257 -9192 0
-12347 -9449 0
-1151 -5511 0
-1813 1712 0
14532 12747 0
-9405 8216 0
-9527 -6372 0
-11432 -7554 0
8800 -11613 0
356 8113 0
-9089 -3356 0
11902 -14470 0
-14047 -6797 0
-3651 11249 0
12945 -11776 0
-12930 6066 0
-11864 13107 0
14867 5881 0
9679 10634 0
1397 7991 0
4322 77 0
1667 -14437 0
5420 -2066 0
-5504 1241 0
8970 15163 0
2868 6295 0
12887 -443 0
-6950 -9875 0
10039 -11981 0
-8661 14710 0
15533 4889 0
-4587 -5093 0
-8193 -3072 0
-6394 14815 0
10703 13392 0
11763 11330 0
-2758 -9701 0
78 6511 0
-9944 9000 0
-13330 2609 0
-13198 -10350 0
-10452 -12870 0
-12792 7253 0
11507 14088 0
-11509 4852 0
-13437 -10352 0
12644 -3899 0
-10821 -12124 0
-5359 4337 0
-237 -13044 0
-10519 -10531 0
-5507 11991 0
-1920 -12219 0
-4537 -11811 0
-4747 -8011 0
-1293 13997 0
-3549 -13529 0
-6484 9029 0
-9702 -1211 0
-10062 8829 0
10865 12537 0
-15155 -15453 0
11270 -5547 0
9819 4590 0
-3628 1783 0
-325 13908 0
5754 -14502 0
-15280 -6132 0
6672 4105 0
-9015 -14047 0
11662 4344 0
-521 15383 0
64 3305 0
3949 -10148 0
9422 8978 0
-6023 7908 0
9410 -9131 0
12045 -535 0
3445 -13215 0
9568 -12210 0
-15504 14931 0
-12521 -14880 0
2847 -12342 0
9227 -8770 0
3165 -10637 0
-10269 8587 0
5339 -8424 0
-7624 -14390 0
-3969 1716 0
14083 427 0
-10242 -14988 0
8809 -6349 0
6851 3002 0
-10514 553 0
9392 6864 0
10459 -11451 0
6508 3609 0
4553 -7329 0
-3277 -1214 0
-1173 -6337 0
11755 15293 0
-6258 -5130 0
10737 -3421 0
-4024 -12947 0
10357 -14187 0
-11385 3521 0
-12029 -5457 0
-3591 -4700 0
5084 -10472 0
402 -14073 0
3643 3733 0
-829 -10185 0
5633 11732 0
15064 -12878 0
-12540 -1840 0
-3412 5847 0
-11580 -9088 0
-14464 -352 0
8867 5971 0
-3587 -1492 0
15441 -468 0
95 749 0
3186 9090 0
-12558 5246 0
-5424 11186 0
3591 -7687 0
7746 -3199 0
12089 -12410 0
-11464 10951 0
4107 -15191 0
2043 -7397 0
1488 -9994 0
-11261 -1879 0
4053 4919 0
1155 -5124 0
13976 -3100 0
-10954 -1312 0
3358 -10054 0
-3495 325 0
-12413 3681 0
633 295 0
5526 2165 0
-1164 -4599 0
356 -11379 0
862 -4863 0
-3202 11649 0
14565 15138 0
-7097 -10639 0
-3771 -6481 0
2167 8258 0
7409 12325 0
4317 8098 0
-4633 -909 0
-9881 5989 0
-5294 11596 0
5559 833 0
-5051 11363 0
3723 -14104 0
11958 5060 0
-10834 -12718 0
6000 3464 0
8486 4810 0
9835 -6691 0
-1345 -6557 0
1297 -1108 0
-2219 -15279 0
-11808 -8529 0
808 -9657 0
-2071 5656 0
9345 -651 0
-4241 -840 0
13076 -1977 0
-3936 -13947 0
-12134 2764 0
11855 14688 0
-3589 6805 0
-5632 -11281 0
-14734 14954 0
-9193 4511 0
-5328 -6084 0
6013 -9093 0
-7746 8939 0
-6286 6335 0
-12420 14987 0
-2421 12648 0
-15186 4279 0
854 -15096 0
9211 1480 0
5064 15136 0
-7504 -13131 0
8488 15062 0
-2568 -13596 0
-2997 -1049 0
-3892 -6728 0
-7508 -13940 0
10799 -7309 0
1689 -1563 0
13498 9780 0
13621 -5814 0
12074 -2138 0
1023 -13605 0
7717 -14162 0
3001 748 0
-12992 -2123 0
4102 -8719 0
9867 -10255 0
10807 -15525 0
2963 -8852 0
-2107 -11909 0
13980 -737 0
7205 -3268 0
12917 4408 0
-582 -13714 0
-11175 5072 0
-7775 3262 0
11262 10218 0
14004 -3211 0
9907 1270 0
-877 14540 0
-5850 -11440 0
-5710 12167 0
11815 3675 0
-11508 6458 0
12763 5206 0
-2730 8292 0
4769 -7413 0
-4694 -3065 0
6779 10297 0
-12933 11517 0
1193 -9872 0
4592 10190 0
-8127 12365 0
-11396 -1703 0
-9624 8328 0
10390 6524 0
-1559 7037 0
13852 12479 0
5594 2883 0
-12073 -10861 0
-10165 -3550 0
217 -15461 0
14540 -14869 0
13086 -12281 0
9622 4773 0
278 -3853 0
-13526 -13010 0
-9880 12303 0
-8518 -13615 0
1103 -7101 0
2399 8803 0
13361 5063 0
11398 -583 0
5774 -4430 0
14809 -9059 0
7035 -15535 0
-10235 10585 0
4125 6547 0
-4184 8360 0
6030 -493 0
-12767 -13733 0
-981 -14734 0
-9127 -11098 0
-2064 1676 0
3820 -7894 0
14157 -4291 0
9983 -2446 0
-14043 -2945 0
13105 -5431 0
-14611 4891 0
-7819 -14819 0
-787 -5569 0
9588 -7574 0
-8574 -10899 0
9879 -6781 0
11872 -1607 0
-10699 -5055 0
-1664 -7722 0
3073 -14893 0
-14445 -4611 0
-11302 -8605 0
8937 -6792 0
16 9821 0
14488 2272 0
5864 -9971 0
-8907 7439 0
-12616 1435 0
-535 -8375 0
-4301 8252 0
-7396 7979 0
-13580 11067 0
15274 12582 0
1969 -5288 0
-12839 -11414 0
-12862 226 0
1972 -7730 0
-13807 10025 0
10579 -9843 0
-4470 3051 0
10250 2557 0
14263 -4499 0
-8977 5274 0
8473 8314 0
-516 8304 0
9320 7380 0
972 2114 0
-2637 -7490 0
-1266 -4619 0
5898 12777 0
14198 15054 0
9393 6829 0
-11396 14651 0
-14282 -3456 0
-7555 -11216 0
14462 -3557 0
-2737 11214 0
-15060 5774 0
-15139 11616 0
7717 -4771 0
-8374 -9875 0
8414 6262 0
10556 -1002 0
-1421 -14653 0
-12477 -14692 0
11652 -6655 0
-3819 6832 0
6215 1361 0
-8504 -12399 0
7418 7092 0
-11246 4873 0
4864 -5672 0
-3108 -5142 0
-11274 13152 0
-8534 13896 0
8461 -6251 0
14455 13914 0
-1073 -10716 0
9460 -612 0
15177 -15273 0
-11767 -8779 0
6684 4400 0
15566 -2742 0
561 11967 0
13777 -6417 0
11428 6053 0
-6386 -737 0
9323 -4942 0
-6943 -868 0
-8125 -7900 0
9103 -11939 0
-4986 -13259 0
13292 10520 0
-14116 4352 0
5453 -855 0
-7247 6202 0
15456 12092 0
-10471 4904 0
4985 -2444 0
-4672 -3100 0
11254 -13803 0
-1710 8228 0
-7667 -255 0
-10478 -10344 0
-2524 -10119 0
-3292 8743 0
-4557 6443 0
8724 11198 0
11926 9349 0
77 -7189 0
-3007 6208 0
-13548 -13582 0
-699 11561 0
-12425 -2319 0
10966 4902 0
-3086 -4369 0
8377 -2032 0
-70 161 0
-7338 -14845 0
9006 -368 0
-12127 11546 0
-2584 -12135 0
9322 6403 0
-15276 -1111 0
15072 -9387 0
-6319 -12822 0
11300 1292 0
10188 -3086 0
15498 -7445 0
-6376 -2783 0
690 -10798 0
-14334 -12579 0
15147 4914 0
13781 3686 0
-7678 13181 0
5186 15527 0
12844 -4566 0
-14003 9625 0
-6678 12318 0
-7061 8652 0
12222 2485 0
6915 -5878 0
-8053 3075 0
-15347 -657 0
10588 4374 0
10592 4923 0
6315 -14885 0
-6100 -14956 0
14470 2192 0
-6489 -333 0
2894 -12626 0
6419 11742 0
14962 -9304 0
14233 -6441 0
-8467 7992 0
3604 4999 0
3629 1059 0
-6363 11468 0
407 13451 0
12087 14166 0
-15270 308 0
56 -8663 0
-3820 2592 0
14211 3692 0
4717 -3517 0
-13404 5642 0
-7501 10364 0
-9329 -9797 0
-15151 -14729 0
12461 11701 0
13506 12728 0
-7599 -491 0
9778 12813 0
-10324 -5178 0
-15154 3631 0
-5844 9571 0
4212 -11413 0
15153 -8240 0
-4513 5693 0
-3980 4889 0
-13785 2250 0
15571 4208 0
-14157 -10435 0
15390 15432 0
236 1050 0
-9592 -9171 0
11399 2579 0
13937 -6332 0
-5999 506 0
-760 -11225 0
-8168 10240 0
11701 921 0
-6185 -11088 0
-864 -5388 0
14088 -6201 0
-7768 6582 0
5079 2920 0
-7101 -13121 0
3907 5639 0
-1927 -11973 0
-6624 -2522 0
-10616 10158 0
-2149 -12840 0
13376 15352 0
-15308 5518 0
7322 13731 0
-9002 -409 0
10991 -11233 0
5152 -9054 0
10096 13977 0
1163 -5646 0
-10517 -6111 0
-5873 -5209 0
-14890 9848 0
14706 14809 0
8939 15469 0
12507 4412 0
-1729 -6529 0
-11137 6727 0
-2555 -3023 0
6011 -7427 0
-5682 10109 0
-6972 4894 0
3059 6671 0
4897 -7159 0
-9168 -5318 0
-11356 -7810 0
-9067 -11563 0
-14443 7997 0
-8997 -9685 0
-9056 -12655 0
12788 7348 0
-9324 1222 0
-1346 -13275 0
7120 9829 0
7836 14855 0
8392 -13412 0
-3789 13497 0
3743 9760 0
7901 -2710 0
8683 5821 0
11300 -12091 0
14684 7398 0
9949 10232 0
-6988 1089 0
11433 -14299 0
-9660 -12395 0
8709 -7537 0
-2364 -8543 0
-8521 -15499 0
-11457 7138 0
-12910 -8338 0
13776 13600 0
12869 7280 0
8029 415 0
-1864 8970 0
-9656 13723 0
10987 13445 0
-10313 14894 0
-1752 3849 0
-4871 -2803 0
11885 6440 0
2562 15578 0
-7532 -10721 0
-12243 10360 0
4066 4506 0
7834 6981 0
-6691 6295 0
-5477 -8891 0
-12075 4771 0
12575 -6890 0
-4085 -4285 0
-11991 15515 0
14533 -6114 0
734 10347 0
-1338 -12240 0
9372 -5075 0
11656 -8361 0
4951 9531 0
-7769 -10558 0
-11373 2721 0
-7731 423 0
6657 -15236 0
-13685 -4865 0
1973 4934 0
8662 -6349 0
6203 636 0
-12198 -5850 0
-6791 3209 0
3271 -14275 0
-7048 -1661 0
6849 -5504 0
-1861 3970 0
-1392 -7354 0
11325 -7537 0
358 -7581 0
5887 -946 0
3612 1164 0
-15534 4292 0
-5667 -9388 0
2509 4154 0
-11552 -12412 0
-10552 -10919 0
-14783 9281 0
2223 -7696 0
6954 -9877 0
-9224 -5460 0
-975 -12059 0
-2822 15353 0
-28 -7165 0
829 -14073 0
3492 -4188 0
-8054 -6486 0
14054 -1682 0
-9657 515 0
5225 -1088 0
10424 -14603 0
10957 4024 0
6278 1821 0
17 8443 0
-499 12043 0
-1881 4649 0
-14583 -130 0
4170 -13654 0
14500 2108 0
7191 -12377 0
-2111 12065 0
-416 12562 0
12966 3424 0
6640 3248 0
4586 -9267 0
-10415 14954 0
3600 98 0
-1606 13521 0
-10204 -13905 0
-1452 3340 0
5527 7511 0
13193 -4145 0
8202 -13648 0
3758 7363 0
-4157 -767 0
-7108 9128 0
15239 -3887 0
14382 4315 0
-8580 5006 0
-12465 4442 0
-12266 -13132 0
-15013 -3617 0
12208 4329 0
3933 13724 0
-9071 3721 0
-14 4880 0
-11002 13766 0
6440 -5099 0
4860 -7451 0
-14065 -11623 0
-3876 -1626 0
5719 4534 0
-5568 -8638 0
6168 294 0
-15447 -4256 0
1339 -7503 0
6428 -11707 0
14076 -4599 0
7150 8529 0
9183 -7790 0
14900 2118 0
-13517 -9343 0
-7523 -14131 0
1483 10078 0
13568 -7096 0
-12254 9876 0
9874 15501 0
5882 -12999 0
-5859 -7512 0
-2770 8458 0
66 7781 0
-6859 4308 0
-5654 -12345 0
13908 7940 0
-6496 753 0
-1209 -13875 0
13368 -11731 0
9756 10611 0
-696 -282 0
-6593 7157 0
-6217 11824 0
12033 -892 0
-15363 -8884 0
12327 10040 0
-3912 -9923 0
-12428 14924 0
121 -8511 0
-5775 14449 0
5794 10849 0
14346 -8385 0
-11380 6819 0
7502 -13030 0
1307 11382 0
-9465 -15558 0
3174 14348 0
-2926 -2219 0
9224 -8965 0
1769 2320 0
9037 -3159 0
156 3593 0
-11937 443 0
-248 -14371 0
969 8939 0
-8017 -6462 0
-4271 -11480 0
14413 9971 0
5440 -3085 0
5746 14552 0
-10455 -8121 0
-8001 -9412 0
173 10632 0
-13653 3899 0
10143 -3015 0
-3655 -2502 0
3037 -14323 0
12554 6654 0
-13610 -4986 0
-5010 -6382 0
-9405 4735 0
-13752 -13196 0
15153 -3168 0
-9598 -2904 0
-14045 -4727 0
-8423 2173 0
-14932 14863 0
6941 -15573 0
14890 14827 0
-10798 -13879 0
-10685 -7733 0
-12526 -3702 0
12305 -7825 0
-3295 14022 0
14121 -762 0
599 -10268 0
14724 1014 0
9177 -703 0
15217 -13103 0
-6625 -10306 0
14462 10715 0
6942 -4795 0
-11373 -12631 0
-8640 -15320 0
-38 -204 0
-8739 -7367 0
5722 4686 0
-6547 -13119 0
6355 519 0
7844 1943 0
-1242 2146 0
323 -5927 0
-14970 -1246 0
-4375 10816 0
7685 -12533 0
2998 11021 0
9437 13037 0
-11009 3753 0
10283 -14806 0
-15303 1503 0
5412 7424 0
-4480 553 0
-13858 -14693 0
3009 -7894 0
6140 15061 0
-14348 -14361 0
-380 -3892 0
3514 12871 0
4456 9279 0
-2660 -11939 0
-8265 -15209 0
909 4322 0
65 7462 0
-15442 14803 0
9556 -7560 0
-3639 12021 0
11159 -13759 0
12672 13677 0
8966 10161 0
13844 13918 0
7934 12515 0
-6754 15229 0
-1725 7352 0
-11752 64 0
-5028 4369 0
-1841 12448 0
5190 -6557 0
-15429 262 0
-12256 944 0
7349 4819 0
-8133 -8910 0
-3930 -3197 0
-2853 14158 0
-12363 15475 0
5620 -9078 0
10352 10353 0
-2077 -12550 0
785 -15247 0
13661 3168 0
11427 3876 0
-11514 -4343 0
12204 -10900 0
-10124 955 0
-4546 -14492 0
-1930 -10080 0
10204 10377 0
-1369 1883 0
9782 14837 0
899 10226 0
-12999 14298 0
-7515 -5237 0
-10415 11780 0
-1918 4581 0
-11442 1337 0
-4434 -10433 0
5689 -3741 0
14722 -7294 0
6986 2714 0
11253 -7602 0
6182 -20 0
-5658 7109 0
10526 -1675 0
2358 -3454 0
12265 1361 0
-14840 14076 0
-14240 1339 0
2562 -132 0
10507 -5424 0
873 -2601 0
4286 -10255 0
10305 10536 0
-13549 -229 0
12811 1637 0
1754 11953 0
-11436 8426 0
7526 -8303 0
-6330 7244 0
-15256 6583 0
-2053 4455 0
6613 -9368 0
10315 -4267 0
3783 -4148 0
4460 11206 0
-8997 4664 0
-12571 -8632 0
-5213 992 0
14239 15379 0
10061 10456 0
10230 -14831 0
-724 4499 0
-2588 13400 0
-4930 -7961 0
3652 14515 0
-14672 -6348 0
1538 -1671 0
8343 -5712 0
9143 12097 0
9693 13586 0
1192 -4874 0
14670 -14397 0
5025 -4156 0
-11695 13860 0
12092 10254 0
-2329 1091 0
-4036 1695 0
5611 -12942 0
6134 -8344 0
-1248 -2717 0
11983 -2927 0
-9968 6351 0
-4387 -5731 0
6756 11777 0
-6981 5136 0
-3 8337 0
-15515 -11627 0
-14901 -7975 0
14828 1029 0
-1405 11581 0
11249 -2095 0
-3657 10617 0
10164 1707 0
-3989 15187 0
-606 7416 0
12503 -3326 0
8369 -11275 0
-996 -5379 0
9794 14683 0
13680 -10916 0
3522 -3768 0
11117 7788 0
-5350 -13246 0
-6441 7671 0
-10842 4808 0
-1858 -3683 0
2670 -3261 0
-8817 -2806 0
12938 5949 0
14997 -1272 0
-10602 -13414 0
-2081 -7383 0
-1132 1470 0
-3136 4103 0
5935 -14843 0
-9611 -1779 0
-11073 -10087 0
-6128 -11699 0
-8416 -6585 0
-15455 5643 0
2815 7963 0
-1961 -4188 0
1407 2432 0
-11245 -12328 0
-7391 -15438 0
-15527 3497 0
-10221 4012 0
-13030 13403 0
-4177 -9031 0
1994 -3428 0
-11014 6417 0
-15215 8913 0
9601 460 0
6655 -10093 0
10929 -10379 0
8486 -13959 0
-3428 14051 0
8827 -11389 0
-2939 -12312 0
-2355 3289 0
-3523 -14624 0
8952 5609 0
11946 3684 0
9764 13931 0
14299 2791 0
-6618 -15079 0
-8548 4769 0
7025 3909 0
-15337 -9567 0
-7380 -14883 0
-9 -2891 0
-3992 -10218 0
14297 -6602 0
6040 4195 0
4710 -280 0
5984 2826 0
10632 -10470 0
4846 -1956 0
12574 2077 0
7800 1652 0
9812 -11574 0
3012 12201 0
578 -1316 0
9632 -13921 0
3842 4767 0
-10318 176 0
12349 -12175 0
-13723 13611 0
4285 -7290 0
10536 -7549 0
6499 10075 0
11479 -7837 0
1868 -7842 0
-5076 10931 0
8257 9150 0
13340 -2232 0
5754 -435 0
12243 -14826 0
14406 12388 0
-15185 -5010 0
-6746 -3585 0
7682 10083 0
12055 -8090 0
7003 -15332 0
4372 -8056 0
-12179 -2024 0
-9972 7306 0
15084 -9579 0
-9660 5352 0
-989 -5006 0
-5400 -14439 0
-6129 5251 0
14172 13546 0
-2858 -2675 0
-6547 -10402 0
-828 10538 0
-10765 -9173 0
-2910 11779 0
-6912 13313 0
-12461 11799 0
13475 2187 0
-13679 -12539 0
10356 3210 0
8021 8497 0
-9922 2998 0
-3722 -3106 0
9081 430 0
-1578 -9569 0
14665 8473 0
-811 13157 0
-9086 -6939 0
-2524 -6520 0
8646 6580 0
-2899 -7227 0
-6587 -5442 0
1600 6541 0
6458 9876 0
-8827 -7277 0
5313 -7806 0
2482 -12722 0
-5801 -1113 0
-7790 8223 0
7096 9571 0
6284 -5616 0
-103 11347 0
12724 -2034 0
5251 -1988 0
9526 -1016 0
7383 4079 0
1509 -2165 0
-13599 -37 0
14757 -8645 0
-7448 14238 0
-15137 -1308 0
14626 -9744 0
-8740 -10403 0
13661 -13738 0
-7239 -8366 0
11441 -3943 0
12032 -15337 0
-8515 -5411 0
15414 11248 0
2511 13147 0
6452 6237 0
6888 -1396 0
400 8308 0
-12791 -3299 0
4949 5446 0
-14424 -1005 0
-727 1054 0
-6710 15242 0
8689 -5972 0
-8670 8002 0
-6393 9312 0
-87 -3039 0
8104 -5757 0
15319 -2400 0
-10167 -2815 0
3757 -1702 0
6605 -5932 0
-3218 15316 0
-14822 -8863 0
5246 -13878 0
4224 -11304 0
1022 -6699 0
6352 4847 0
-2021 -12946 0
-2389 11603 0
-4150 12998 0
2871 -2078 0
-3648 14981 0
-14494 1213 0
7342 -3912 0
13465 -1362 0
14090 12460 0
-14256 -12338 0
8892 -742 0
-2181 -6731 0
-10567 2957 0
13535 -8195 0
-811 7059 0
7595 3595 0
2294 -10596 0
4257 -11184 0
-14504 10242 0
-9344 -11077 0
14502 -10171 0
-2628 -13609 0
-6963 8138 0
4063 -10665 0
7321 10990 0
-12788 -10380 0
12659 929 0
2373 -8506 0
-15411 5774 0
3326 -9620 0
15435 -1057 0
-13320 -11224 0
-1122 -8709 0
12393 5468 0
-12515 -1412 0
9323 2172 0
10124 -15498 0
-3476 6079 0
-154 2659 0
-9290 7383 0
12085 -6658 0
-5056 14233 0
-19 -6951 0
-469 -353 0
-14573 11365 0
-14412 9141 0
5858 1174 0
-11109 5463 0
-5568 -4525 0
4159 -7472 0
8143 -4464 0
-14647 -5735 0
-447 -7512 0
1774 -1141 0
11890 1168 0
-6506 2125 0
-2538 -5344 0
-1599 3834 0
-6793 -10490 0
5035 3158 0
9054 -14350 0
-9969 -9481 0
14539 15289 0
14610 8965 0
14225 4516 0
-15466 -13430 0
-1756 5539 0
8829 11095 0
6160 12292 0
-13825 -11813 0
-10815 -15102 0
6378 -6785 0
13821 -2511 0
14566 2217 0
7434 663 0
-4885 994 0
9200 6624 0
-544 -11431 0
11200 2910 0
-14002 -74 0
9931 -10290 0
10729 12817 0
-6862 1447 0
59 -1330 0
3887 15317 0
-4347 1883 0
13422 15180 0
8533 -9303 0
-752 6841 0
-5287 -11710 0
-11259 2247 0
-3345 -11788 0
-3007 -1939 0
1435 -13928 0
-958 10226 0
9509 7697 0
4769 4951 0
-13804 -14768 0
5383 -4463 0
924 1414 0
-3610 -1376 0
7174 -15405 0
7924 -15103 0
14585 3882 0
4475 6373 0
7262 -792 0
-11084 -2982 0
-13911 -6760 0
-3446 -4024 0
-12943 9182 0
-15369 -6392 0
-8691 -5882 0
-11238 -10643 0
-14215 -7536 0
-12120 -5361 0
-13003 -1018 0
-2784 -11390 0
9581 -10116 0
15541 -12147 0
-3264 -2134 0
-6951 -12618 0
-4214 7752 0
-8844 -7483 0
-8694 5817 0
-3173 4388 0
-14534 -7125 0
12405 12870 0
5193 -6563 0
-4809 15278 0
1575 10641 0
1522 5332 0
3934 -1369 0
-15557 -11874 0
13781 -12732 0
1423 -7738 0
7838 -15058 0
-15108 -6500 0
1085 5858 0
4707 -11524 0
345 -1307 0
-8131 3033 0
12804 12245 0
15142 379 0
-8095 -4075 0
1983 13952 0
5595 -1356 0
-11901 7283 0
-15503 11625 0
-3958 -14909 0
10508 -12928 0
-5480 -13436 0
-10532 -8474 0
10453 4702 0
-10791 11086 0
-3483 604 0
7682 -11971 0
11344 -1279 0
-9159 5080 0
4446 14228 0
-8698 3664 0
-8972 3912 0
-2520 4932 0
-11347 12052 0
-1907 7775 0
6530 9344 0
-87 9848 0
3897 2529 0
-5795 -456 0
4395 -3525 0
12161 12131 0
-10649 474 0
9028 -11073 0
-1664 -15200 0
4995 -8627 0
-5343 -11579 0
-10299 -11375 0
14382 888 0
-12510 -2781 0
14158 -10810 0
-14885 -5612 0
10606 15079 0
-4184 14214 0
4619 -11256 0
3393 1522 0
3548 -2109 0
-12505 14255 0
-7207 -11066 0
-11680 7436 0
-2517 5209 0
-6641 -13214 0
-13681 -7538 0
-3137 -8656 0
-6528 -11144 0
-2310 3543 0
-2460 -8467 0
3257 -5432 0
-7377 -4418 0
-4540 14239 0
-3712 13669 0
-14154 -14487 0
-12957 -15071 0
10743 -9077 0
-5148 -14540 0
-11168 -9502 0
-11679 7117 0
14710 -12910 0
-2570 15180 0
8001 -575 0
5317 10941 0
-1763 13473 0
-3279 -3538 0
7492 15157 0
-3386 1389 0
8387 4026 0
-13488 -13966 0
1650 -13555 0
1738 -13036 0
-3479 2848 0
11013 9381 0
-2493 -14097 0
12754 -1840 0
-1598 -11240 0
10139 -3263 0
7072 10470 0
-2709 2302 0
7019 -8375 0
-14872 -14483 0
-5278 -6316 0
12373 6449 0
-3761 -8156 0
-15226 -7102 0
-680 14614 0
10280 9342 0
-12115 -434 0
8681 3624 0
-11326 12488 0
-12389 -4411 0
341 -9722 0
-9343 -837 0
2344 -15183 0
-4710 -15132 0
-2882 -4423 0
-11074 3024 0
3595 4377 0
-3401 -8230 0
4497 -3630 0
125 -11536 0
3037 8701 0
-10397 -14715 0
14894 4418 0
10006 -6813 0
5375 -10273 0
5781 -8423 0
6754 13154 0
-4556 783 0
3962 -1248 0
6704 12319 0
-1303 1067 0
-3535 1562 0
15374 -3557 0
-865 6380 0
-11026 -11007 0
5084 5083 0
-15208 217 0
936 12164 0
7745 -9592 0
7775 -4077 0
-3798 -5949 0
7187 15413 0
-2994 -8882 0
-8210 14781 0
-11250 -7343 0
15237 2058 0
9398 -3603 0
2892 13596 0
7499 3530 0
-1229 -3131 0
3434 -1282 0
-3793 -14330 0
-4169 15022 0
2549 -6485 0
-1999 409 0
-12773 -2121 0
-281 6423 0
-15488 8531 0
-581 -15062 0
11187 -7965 0
-513 -13523 0
-1747 -9203 0
-11048 -6438 0
-11346 -11617 0
15488 -8859 0
2934 1317 0
2888 1586 0
8244 1088 0
12133 5821 0
-15031 -13379 0
-6517 4676 0
-3857 15423 0
2476 2305 0
5471 5947 0
-441 -752 0
10004 -3366 0
-7603 11654 0
-14086 4461 0
-7866 -6142 0
-1530 13242 0
-8664 -12434 0
-5126 4387 0
-5445 -10900 0
-7003 -2553 0
-9585 -10501 0
-7169 11459 0
13997 6907 0
-15465 937 0
14819 -5062 0
-6170 -7336 0
6148 -13507 0
-5882 -2230 0
-661 -14642 0
712 -10778 0
-2927 -1098 0
11074 -14988 0
14458 53 0
7656 -9949 0
-6908 -8651 0
-12722 -13421 0
-4899 1955 0
-13942 -3501 0
-1470 -6646 0
15417 2089 0
11800 -6662 0
-3840 -4659 0
697 11924 0
15095 -1466 0
-6408 4778 0
-15535 11622 0
-5857 -3980 0
-15198 -7472 0
12954 10795 0
8351 -1711 0
-8233 -12237 0
14061 -1959 0
10728 -6864 0
8732 -8123 0
7458 9541 0
-10829 7457 0
6504 -5482 0
-7846 2234 0
-10148 9408 0
-13085 -5727 0
-17 -3565 0
13606 8019 0
-2086 -443 0
10007 11773 0
11658 1399 0
-4859 -8382 0
10736 -5894 0
-10814 8597 0
-7527 506 0
10303 6830 0
-4972 18 0
-12101 -7357 0
10421 9683 0
2153 -3420 0
-8623 -621 0
-245 1386 0
4610 -3031 0
1875 -9909 0
-5622 10870 0
-15097 -688 0
-3399 -6607 0
3333 8161 0
7813 5626 0
4308 930 0
13104 7827 0
7083 -5603 0
11486 3561 0
-2490 9404 0
7433 14641 0
-7035 -2343 0
2616 -5392 0
-15281 -8666 0
-569 -12690 0
-10203 7194 0
-1853 14701 0
-2890 -9905 0
12123 -9942 0
14270 -3388 0
-5825 13086 0
3347 4087 0
-2625 -4165 0
5263 5066 0
-2149 -2710 0
1888 697 0
2742 5138 0
-10254 8261 0
-5218 -353 0
768 1413 0
-13381 -15277 0
-13862 10684 0
1301 8928 0
11703 5252 0
-6341 -8018 0
-10484 -6717 0
-13074 -6064 0
15315 14425 0
-13881 -14308 0
-3570 -4734 0
3365 -5563 0
13074 4835 0
4823 2293 0
12838 4821 0
13922 -6991 0
4331 12772 0
7025 -12514 0
-4139 -1925 0
12192 6216 0
6291 11998 0
10028 -4987 0
-2536 7658 0
-12850 195 0
-3500 2550 0
14927 6696 0
-9497 -14102 0
4308 4967 0
-10912 378 0
8512 -8262 0
-6040 14353 0
15526 13688 0
-971 8745 0
5456 1339 0
988 5253 0
11636 -9013 0
-6152 -14772 0
2074 -168 0
3120 6197 0
6972 13676 0
-10306 5808 0
10572 -4453 0
-14823 5949 0
643 -15456 0
-8876 6910 0
5343 -2594 0
13314 -4499 0
14353 -7424 0
12113 1811 0
-3384 506 0
3362 -7766 0
-12977 -3832 0
7187 8694 0
-12266 -9300 0
-4348 12495 0
5908 -10790 0
-3876 -9197 0
6108 -15231 0
-14963 -12363 0
-15351 1245 0
10690 3478 0
-89 -14604 0
2225 -53 0
13346 10568 0
-13016 6426 0
-5637 -1708 0
730 -233 0
-13984 -12885 0
4640 -9544 0
-618 14202 0
12360 -10341 0
-4627 -837 0
-7836 9089 0
4677 10177 0
475 -15279 0
1746 -5410 0
-10141 -5114 0
6278 -14870 0
4210 -10434 0
-15324 11680 0
-3968 12139 0
226 -4277 0
4036 9557 0
-6087 -10104 0
4112 -14006 0
-52 459 0
-15339 -8640 0
-10107 7643 0
6856 -4687 0
4629 7566 0
-10833 9521 0
12195 -3278 0
-6622 3590 0
-1370 8852 0
-55 -1713 0
-1147 -10083 0
13698 -15556 0
5824 -4925 0
5222 3402 0
15068 -4378 0
-13003 6052 0
-2414 5160 0
-1351 -7676 0
8963 2870 0
-3054 13688 0
-1066 14667 0
13806 9177 0
-10032 4191 0
-2820 13478 0
1565 7017 0
7757 2122 0
-11831 -3742 0
2139 -11593 0
12323 14793 0
-7947 -15234 0
-7649 12607 0
2078 -4838 0
-9615 -6587 0
14586 -15068 0
-5653 -12297 0
-2299 -14979 0
7418 -10326 0
12949 -15501 0
-5421 883 0
-12351 -12633 0
-12360 -15123 0
-7138 2524 0
-11582 4477 0
-10447 -3086 0
11556 -6221 0
-345 11760 0
-12655 9179 0
-14275 10969 0
-6437 4246 0
2489 -9635 0
2042 -1450 0
3725 -4037 0
581 -8107 0
11737 1928 0
9792 -4071 0
-6939 14974 0
-13103 -14879 0
12777 14395 0
2168 -10824 0
11911 3863 0
1319 725 0
15082 2554 0
4833 -12352 0
13766 3632 0
-7330 1754 0
7910 6606 0
2878 5953 0
-640 -1300 0
-11356 -1009 0
2388 4004 0
-12183 -12604 0
-13232 13717 0
-10234 -6366 0
-1747 -5158 0
13889 -4684 0
-8159 -4230 0
-8026 -7686 0
-12375 14183 0
-3075 -9196 0
-10642 1987 0
12090 -6019 0
-202 13032 0
-14142 6262 0
-5294 -3078 0
-11879 871 0
13128 -13424 0
9915 5590 0
-3184 -5785 0
3104 2041 0
12591 -6288 0
-5460 12782 0
8166 -5821 0
-14322 -12136 0
9819 -6949 0
-6362 1150 0
-1614 7261 0
8234 -14941 0
-11416 -4051 0
-7040 -42 0
-1752 11264 0
13169 2203 0
9375 1890 0
6956 7284 0
8717 -13826 0
-13541 -8851 0
1507 -8678 0
-5545 11902 0
12055 6874 0
-13526 -3238 0
-2642 14841 0
9362 805 0
6719 -8472 0
-4587 4430 0
231 -3115 0
12652 -10965 0
13994 -2271 0
-3182 -1837 0
1647 5147 0
7818 -15358 0
8455 -6777 0
14826 -7448 0
-10443 -6245 0
1138 5789 0
7602 -12117 0
11322 13748 0
13651 -845 0
9972 10017 0
86 -11114 0
13647 -1040 0
-9607 5889 0
13975 -13682 0
-15275 13445 0
-2615 3478 0
-12898 13134 0
-5161 -10490 0
-2928 -3613 0
8830 1317 0
-6684 -11696 0
-10131 9761 0
11926 2545 0
-14263 -12172 0
10262 2319 0
345 13700 0
3838 -8427 0
-8673 1116 0
3051 11437 0
-3886 -3457 0
12068 14386 0
-3838 -7516 0
1805 -10201 0
-1438 -14628 0
8388 12205 0
-10322 -2240 0
-8036 -2711 0
10644 -15027 0
8 -13380 0
-2407 -4558 0
-70 -7158 0
-43 -7177 0
14447 12877 0
-5653 -1298 0
-8529 -2497 0
12047 6922 0
-2042 -12273 0
4851 -11108 0
13784 -12737 0
-7333 -13816 0
4289 7786 0
7958 5586 0
5527 12297 0
2990 1992 0
4842 8354 0
-14429 -5157 0
11044 7097 0
-10459 13605 0
-13625 15299 0
-11707 13746 0
-2829 13250 0
-6724 2467 0
-2992 -15012 0
-8290 11113 0
5221 1755 0
-15216 7726 0
13657 -3454 0
-7097 13687 0
15397 -1371 0
-10649 -614 0
-7158 3392 0
9817 -1317 0
3417 -3928 0
-6949 -12750 0
2503 -14092 0
10894 7098 0
15469 6411 0
-7781 10428 0
14901 -6795 0
1099 -397 0
12186 13705 0
11377 -845 0
8345 -6374 0
-2758 9555 0
10602 13977 0
-14484 -8423 0
9396 -6643 0
-8345 -998 0
-13020 -3305 0
5690 8774 0
-5627 -763 0
13802 -11496 0
-9577 11474 0
12485 -14344 0
-8547 5206 0
12493 -12051 0
-12182 6777 0
-8788 2572 0
-13823 -2520 0
-9979 4517 0
-658 376 0
-14387 -7929 0
-13147 -12421 0
-156 -11917 0
9729 -1340 0
-10810 3869 0
-1279 8949 0
-8421 -7383 0
3662 -9504 0
9730 -6394 0
10603 3372 0
-13622 -13581 0
-4959 10456 0
2874 -15295 0
9432 -6616 0
1590 -3868 0
8736 9501 0
-5503 -9645 0
15155 -10028 0
-12833 7637 0
7576 3994 0
12943 -10517 0
8773 -967 0
-3482 8441 0
-8232 6904 0
5456 10729 0
-12019 -263 0
-14623 -14531 0
-14655 -11375 0
9741 -13549 0
8351 -9836 0
1956 -8123 0
-14330 -856 0
12073 -1678 0
13027 10070 0
9508 3002 0
5726 1165 0
-11259 -8168 0
13595 -6683 0
8919 -11783 0
9362 8099 0
-7445 11463 0
-5504 1380 0
7033 9321 0
11631 8916 0
1687 265 0
-12382 3419 0
-7849 12787 0
1163 -1615 0
13641 5693 0
-10198 15373 0
-9092 13390 0
9193 -3899 0
-14485 -11708 0
-3184 376 0
-2651 -11209 0
13062 469 0
5352 -12019 0
10879 8983 0
-7159 -11433 0
7157 11241 0
2864 -8159 0
3564 -6552 0
11736 -11482 0
-6017 -7402 0
13190 8554 0
2390 7541 0
-12467 1749 0
8113 1015 0
10149 13899 0
1442 13076 0
-15334 -3449 0
13471 6173 0
262 11488 0
-14961 8886 0
-6676 13339 0
3541 314 0
1486 -6178 0
6233 5718 0
3098 3067 0
9799 3762 0
-11195 -12382 0
-7699 -1331 0
-8511 1332 0
7617 -12205 0
-140 -8851 0
-15044 -1289 0
3507 17 0
119 14798 0
-7419 -8522 0
-14223 -1823 0
-3010 -5469 0
15155 8673 0
13915 2932 0
-5450 7600 0
-2470 7264 0
-14141 10520 0
208 2789 0
4336 -4619 0
-12547 15211 0
613 -14568 0
-15129 -12663 0
-4767 8977 0
2992 -2873 0
10400 -9584 0
-3107 15108 0
-12783 -10803 0
11162 3370 0
9127 10526 0
-13020 5282 0
11351 8474 0
2487 4970 0
1610 -2298 0
-10202 8415 0
4756 395 0
-1967 -8307 0
-5985 11857 0
-6854 -6415 0
6492 -12714 0
7817 11549 0
11732 8257 0
-8903 -12382 0
-1127 14006 0
-32 9622 0
-4311 -7235 0
-1654 956 0
6432 8072 0
-9232 8153 0
-1414 -9050 0
7366 -1861 0
5486 -9994 0
14186 -5397 0
-8752 5467 0
-15272 -6191 0
5967 -15376 0
-13391 13190 0
-12995 13579 0
7454 993 0
2289 -9044 0
15014 3094 0
-9875 -15094 0
12782 12835 0
8286 6913 0
892 -1739 0
-2551 7031 0
7509 3753 0
2043 -5991 0
11798 -6649 0
12033 10040 0
-9214 -4307 0
-4706 15373 0
3781 1215 0
-9582 -8679 0
4385 13551 0
11446 14782 0
-2340 -8581 0
10047 845 0
-9984 -11797 0
1440 4689 0
6048 124 0
-10529 -4633 0
5019 -8775 0
-9209 7573 0
8328 7172 0
7994 6881 0
5143 -987 0
-6064 -658 0
5885 -3412 0
-3576 -5322 0
-11473 -7396 0
-1176 8725 0
-7511 -7408 0
193 -99 0
-2552 -8623 0
13648 -31 0
-2635 3977 0
14453 -1795 0
-197 7057 0
-14694 -6508 0
-8146 -2742 0
-11763 -8515 0
6809 -7037 0
6651 12902 0
-11151 -13059 0
-858 -11230 0
-13743 -1422 0
15211 10088 0
15112 -715 0
-1943 5546 0
4540 -3154 0
10136 14721 0
754 -14488 0
-11132 -273 0
-10999 -7567 0
-11369 9240 0
-8981 -14545 0
2308 979 0
3603 8455 0
1365 12138 0
14018 -13907 0
10968 -4128 0
13578 -14467 0
-1360 -14624 0
-6055 -10517 0
-15558 946 0
-6115 11367 0
-5422 14653 0
-14840 10332 0
5644 -8349 0
-11217 13505 0
13777 -8665 0
12905 -12635 0
4256 -4643 0
-14129 6037 0
-9354 6568 0
5107 -9725 0
1140 14807 0
5109 -10900 0
-7445 -4869 0
2907 1344 0
11347 -13668 0
-2961 13883 0
13258 -9064 0
10194 -4653 0
796 -13867 0
10752 4507 0
10372 -2451 0
-4421 13373 0
-10815 -7614 0
15168 4791 0
5564 -9098 0
-9941 -10053 0
-5609 10167 0
-8786 5253 0
-15495 15109 0
7603 -9396 0
-4916 -2922 0
7228 -9823 0
6110 352 0
9297 437 0
2356 2760 0
9094 6408 0
11248 4697 0
-906 4859 0
318 10301 0
-2589 12507 0
-5584 6988 0
-4686 15287 0
8793 -13411 0
11961 -847 0
4137 13874 0
-12925 12271 0
-1255 -11628 0
-8128 -4839 0
5923 -8001 0
15099 -487 0
13647 6059 0
-11626 3389 0
2785 -581 0
-14200 -3695 0
-4692 -15112 0
-3702 3180 0
13792 7978 0
-10176 3485 0
1820 9536 0
-7367 -6728 0
-9602 -14724 0
9695 5014 0
-7612 -1837 0
-6845 -5041 0
8293 3706 0
-11576 947 0
4677 5477 0
-3502 -2796 0
-446 3305 0
11524 1969 0
-1227 7033 0
-3947 -13127 0
-8319 5581 0
-12737 7587 0
1052 -12990 0
-13670 -11512 0
882 2584 0
-11451 14369 0
12878 7000 0
-3258 -9332 0
11459 9038 0
5981 -2708 0
12114 -13726 0
1401 -3874 0
220 1452 0
-2165 12749 0
8058 -8539 0
-3886 -14457 0
-1971 -2209 0
10189 12508 0
-13076 8466 0
-12958 -8188 0
2443 7826 0
4447 9568 0
2218 -9932 0
-14232 13282 0
-7711 13950 0
2485 8839 0
-14932 11771 0
-1976 3271 0
-6988 -10236 0
-1234 7944 0
-15286 9419 0
-15557 -13779 0
12554 3980 0
11892 -15148 0
14738 -4024 0
-6268 754 0
-10045 12875 0
-13843 10948 0
12559 -8116 0
-4178 -6288 0
-2557 -13811 0
11786 -1615 0
-3524 5926 0
11221 3948 0
-3172 905 0
6048 -1100 0
-14694 9879 0
-14500 -2819 0
3772 10697 0
-13515 -14401 0
-12572 -2470 0
-152 12502 0
-2313 8177 0
-2568 6759 0
-13980 1355 0
10820 12975 0
10367 -6074 0
-11297 -5419 0
6813 -8800 0
5739 12964 0
-4689 -5488 0
12796 -3696 0
-8316 -9238 0
3630 -3108 0
-11768 6512 0
1658 -3562 0
-13180 -9805 0
2980 -13179 0
13537 13124 0
-14684 12457 0
-509 7505 0
400 3094 0
-7307 -14791 0
14354 3613 0
-5365 -7357 0
1410 -7673 0
-2208 -12268 0
-7061 2195 0
-2323 -6534 0
-11366 14297 0
4135 -4680 0
-12434 -9139 0
-14203 12438 0
7293 -1972 0
10450 -3191 0
8830 -4238 0
-2875 -8243 0
14873 -15047 0
9257 -8461 0
-3139 1107 0
-9329 15390 0
-12647 -4901 0
-14875 5804 0
-6147 -5493 0
-3341 -7738 0
7458 -1606 0
-2709 -2434 0
-15568 -8965 0
2177 10716 0
10580 9586 0
4638 -11597 0
-11256 5769 0
3849 4586 0
1948 -13690 0
14075 -486 0
-10397 11094 0
-5903 -1071 0
10941 -8614 0
4685 -8382 0
-528 -13358 0
-2985 5303 0
-2274 10692 0
11884 2825 0
-2353 -15387 0
8495 12308 0
-7713 13552 0
7966 10938 0
14576 -3633 0
14839 8607 0
8229 13996 0
-10619 -353 0
-4584 -14720 0
4793 -8420 0
13687 1461 0
-14838 15262 0
-2111 -8452 0
1339 9819 0
1660 1675 0
10995 4335 0
-6059 -3387 0
15089 -10797 0
-1645 -2625 0
1801 13997 0
-6680 -4121 0
4969 7004 0
7056 13674 0
12938 9272 0
-5387 5754 0
3193 2658 0
4538 11336 0
-1905 10760 0
-8102 -12515 0
6492 -8754 0
-11775 9167 0
-2965 -8766 0
8456 2421 0
-8433 4712 0
-11164 -6152 0
-2607 -5897 0
1929 -10586 0
-6353 -5483 0
-3741 13762 0
-1610 -9424 0
4271 13619 0
12719 -7752 0
3133 -3189 0
-11807 -9837 0
5814 -5832 0
-15411 1476 0
-1363 -13680 0
6657 12102 0
13748 1682 0
-3538 169 0
-4961 10000 0
-10236 -6365 0
-9350 -13738 0
-10203 -5359 0
-2812 11798 0
-6565 8812 0
8639 -14387 0
-1888 5983 0
-11320 5644 0
6504 14776 0
-6733 12848 0
-10489 13272 0
-2190 10578 0
14676 10232 0
715 -2766 0
-14708 1177 0
-12977 -5029 0
5510 11401 0
-8982 -11816 0
7531 5679 0
330 3052 0
-96 -1588 0
-3944 -3282 0
-8706 5804 0
-1937 -1975 0
15470 -9164 0
5085 10033 0
-306 -6055 0
-9264 -7996 0
-1131 -8455 0
-4965 -4692 0
3893 11919 0
-11036 -2151 0
3904 -9095 0
11558 -1474 0
2367 -2138 0
-523 -3650 0
6733 12007 0
14448 1708 0
-9137 8242 0
-1022 13888 0
-2453 3806 0
14152 -8314 0
-2527 -203 0
12065 11235 0
-13983 -12841 0
9398 10457 0
-2500 15346 0
-5702 9065 0
3237 13733 0
990 -1980 0
5633 11031 0
14598 12188 0
7726 4197 0
-4783 13296 0
9538 11912 0
3145 -6100 0
-11587 12224 0
-10717 -3096 0
-12686 -7513 0
-11632 -6271 0
5487 -10826 0
-10952 -13358 0
6469 -7418 0
12889 3027 0
-343 12675 0
-6357 9919 0
10227 -12130 0
422 198 0
7609 15121 0
-3614 -3381 0
-4025 -5151 0
12848 8932 0
-2706 679 0
1820 -9374 0
-13752 -10411 0
7471 9235 0
-1237 -11440 0
-5129 3185 0
14936 -9614 0
-4735 2043 0
1418 7785 0
-13313 -10885 0
-7960 6044 0
8177 -5275 0
-7967 12596 0
-8565 13767 0
-2700 1064 0
-7441 6542 0
-11138 -15093 0
11559 6232 0
8653 -9359 0
7853 5205 0
5976 2868 0
1212 1054 0
14082 36 0
9078 4524 0
3637 -4291 0
1404 10467 0
8593 382 0
2090 -10673 0
1594 -3842 0
6253 -13500 0
10296 -499 0
-5003 -4031 0
225 -15530 0
-7184 -12771 0
-6958 -4146 0
9966 -4791 0
11797 8333 0
7246 9878 0
10246 -14760 0
-13038 -5492 0
-3651 -1737 0
-2538 -13784 0
-764 -3840 0
-8691 -3999 0
6390 5716 0
6714 11655 0
13154 12443 0
13008 14311 0
-13181 -14965 0
-8520 -14584 0
15397 -6031 0
7584 630 0
4078 -2665 0
6533 -4650 0
-13943 -4685 0
9474 15379 0
-2967 -11123 0
3591 -9736 0
12959 -3020 0
11769 -13444 0
2243 -3166 0
8856 -14292 0
-6600 669 0
-2580 3715 0
-10373 -3082 0
-4240 1514 0
15560 -11595 0
4394 -1102 0
-15074 8608 0
-4910 11959 0
-11570 -8296 0
-528 5908 0
-8130 -4477 0
1508 -7556 0
-4316 706 0
-7757 6312 0
9046 -6241 0
-11613 -353 0
3541 -10860 0
14966 -3897 0
-1255 -8967 0
-13801 11116 0
-15244 -2754 0
4724 14160 0
12045 -3844 0
6691 11178 0
-353 2339 0
-9169 13216 0
-7532 -5723 0
-579 -14579 0
2210 13122 0
11454 -4738 0
10913 -13178 0
10419 -11409 0
-3917 -1749 0
10818 -6587 0
-9292 4116 0
8549 -9721 0
-7192 3275 0
-12318 4380 0
-3297 4308 0
-11635 -11246 0
8267 13113 0
-5018 2880 0
-1812 79 0
10998 11323 0
-5294 -9178 0
-2917 -12285 0
-8895 -7032 0
-14321 5951 0
2253 12655 0
5621 -14093 0
-14219 -10893 0
-4220 6655 0
5211 -9160 0
7808 -4828 0
-14959 2311 0
15027 4448 0
-5941 -884 0
-4941 -14091 0
2267 -8618 0
-9968 14707 0
11960 -3131 0
-3300 10159 0
3292 -3049 0
-6332 9104 0
-4933 -14993 0
-4685 5131 0
14325 -9373 0
5836 7592 0
14392 -9125 0
-8228 5256 0
-2105 1597 0
3268 2063 0
4342 8496 0
1804 3353 0
-13254 -13404 0
545 -7268 0
-8366 8748 0
-11394 -6019 0
7757 -13517 0
1198 -9860 0
-2742 3292 0
-5860 11124 0
12904 15249 0
-12475 9636 0
11747 -2230 0
-8619 2354 0
7324 9411 0
14232 -10351 0
-6086 4980 0
2119 11155 0
3865 11008 0
3310 6336 0
-5400 -13689 0
4607 14410 0
9016 8770 0
-5421 -9605 0
-13562 -264 0
-8256 12827 0
3633 11858 0
-3812 -8472 0
-11303 9876 0
1768 13303 0
12505 9129 0
-5158 4367 0
1695 6761 0
-2965 2181 0
893 -3899 0
-7604 -7068 0
1080 -11517 0
4857 9612 0
-12652 9996 0
13012 14969 0
15230 -7805 0
13539 7387 0
-2676 -4407 0
-15556 -12478 0
15282 8760 0
1426 -2718 0
2598 -14823 0
-3214 11836 0
6230 -11144 0
12249 5976 0
-7164 5006 0
-878 -329 0
1808 -11822 0
-11229 3129 0
-8630 4198 0
-8225 7657 0
-11665 -15178 0
15373 12893 0
-4416 -9985 0
-9423 -10082 0
-14720 2686 0
-1777 14037 0
5962 6735 0
8415 2908 0
9080 -519 0
-5186 12396 0
13750 -7076 0
15374 9254 0
-4595 -454 0
-8730 -7706 0
15425 -14657 0
-3688 973 0
688 -8463 0
5640 14582 0
4473 -14386 0
11095 -1661 0
14074 -14445 0
3721 16 0
-5353 -14367 0
-8217 14220 0
-11376 9161 0
-2892 -3851 0
-9465 -13884 0
-10146 -887 0
-3840 -14589 0
-215 -8799 0
13019 15156 0
3797 -6040 0
753 1488 0
-7470 -9779 0
1594 -6216 0
5801 -1929 0
8233 2168 0
3898 3121 0
-11219 14134 0
10038 -8489 0
-11261 13710 0
-1266 -2720 0
8068 -2770 0
-12393 13754 0
-7381 -9083 0
986 -14067 0
7304 -6188 0
11550 7062 0
6934 6207 0
-13402 2511 0
13160 2103 0
1055 5585 0
3162 4243 0
-12841 -2525 0
15490 -6945 0
-162 -5372 0
6389 -9413 0
2616 1693 0
8688 6148 0
-7176 -7020 0
15575 -7654 0
-8749 -10995 0
2214 -4681 0
15017 -647 0
9564 8124 0
-7039 15116 0
12686 79 0
-758 -14612 0
423 14549 0
4594 4197 0
-3420 -1481 0
11760 14848 0
10023 -15288 0
-7367 -10052 0
-9226 3528 0
-8314 217 0
-9857 -1550 0
-808 -10503 0
-3570 13274 0
5719 -7088 0
1095 2378 0
-13711 -1279 0
-5838 4041 0
12558 -9936 0
-8162 7400 0
-11338 2236 0
-9903 -5557 0
-10389 -12075 0
-7089 10305 0
-8053 -2366 0
-11971 6265 0
-10449 138 0
-1625 -13802 0
6360 12928 0
1967 5195 0
14898 1224 0
-1102 -14055 0
7200 6787 0
13530 711 0
-1845 -8196 0
-2949 -11846 0
-11278 10567 0
2475 4906 0
7329 1870 0
10399 10731 0
-7876 -11760 0
-215 -9061 0
-9141 -2041 0
-8260 6811 0
5450 -12684 0
-8102 13390 0
-4627 -14866 0
-14938 -14135 0
-1361 -10416 0
-6910 2013 0
-7142 13921 0
15212 14254 0
-3005 -2060 0
10023 6110 0
-12730 13255 0
-802 10285 0
5595 10215 0
-7544 2410 0
-12290 -9815 0
1417 -9041 0
-878 13008 0
14240 5300 0
-3808 -8152 0
-5841 9060 0
-2008 -11144 0
-13324 -11238 0
1192 -8103 0
11809 -10714 0
240 8865 0
-805 -6272 0
7720 9945 0
-5802 -15355 0
4125 2448 0
-2089 -8544 0
2747 803 0
-13373 -11123 0
14902 7552 0
11334 4079 0
1617 10055 0
15179 -1355 0
-10596 -2022 0
-1141 12018 0
-84 6669 0
-7463 14146 0
-13754 -702 0
-2876 -11916 0
-15029 1315 0
5841 -15568 0
-2699 -4918 0
-11088 -4264 0
6059 4682 0
-1615 -4510 0
-13651 12957 0
-13539 561 0
5376 -11765 0
-1265 3327 0
14333 1132 0
9981 11126 0
-13289 -6136 0
302 -5417 0
-10920 -5359 0
-10654 -8115 0
-14491 14962 0
-9078 11640 0
-14944 -14170 0
-2364 -2796 0
6607 -7834 0
2033 -8070 0
12481 -4052 0
973 -11973 0
10477 11833 0
-1010 -13166 0
-7713 -2490 0
8947 2318 0
-1587 15294 0
-13410 5590 0
12836 -5080 0
8527 -14140 0
13534 -15237 0
4744 -13499 0
-13177 -10504 0
5795 7977 0
-11616 3063 0
-3630 11679 0
1201 3117 0
8605 -10585 0
-1197 -6055 0
2714 6360 0
9303 663 0
9462 -6392 0
-4881 -599 0
2008 -6896 0
3148 -7462 0
610 -5214 0
-184 7344 0
9996 -5055 0
-13947 12967 0
4617 -11002 0
2747 5713 0
14047 -13490 0
14229 13286 0
8962 11545 0
-2848 3343 0
6065 6210 0
6379 -11833 0
9983 1215 0
-12506 3778 0
-5107 -11025 0
759 -159 0
-7878 -1083 0
-15032 -853 0
-3362 -2433 0
-9056 6037 0
6992 -11970 0
11847 5604 0
-1520 6534 0
-1806 -1830 0
14432 11011 0
-7927 5119 0
8924 4760 0
13646 -6198 0
11996 -7604 0
-4688 -1714 0
2425 14455 0
7508 6919 0
-122 5334 0
2675 -569 0
10745 11592 0
-4966 -5445 0
-3129 -10699 0
3429 -12831 0
12560 4204 0
2262 -11421 0
-11571 156 0
-1679 6992 0
-5734 -6509 0
5794 6248 0
8999 -14077 0
-469 6117 0
-10896 -2186 0
-13871 -12254 0
957 1211 0
6 9155 0
-3651 1630 0
-5808 -1717 0
-7638 -12218 0
1999 6488 0
-11926 -11771 0
-11366 15283 0
6177 -12475 0
12148 -8452 0
-5682 11386 0
-3726 15330 0
9553 -14247 0
-8885 -6711 0
2870 14737 0
12583 9298 0
-6326 13541 0
7468 962 0
-7833 -4556 0
3224 -9421 0
-13041 13080 0
-12230 -2110 0
13953 -12701 0
12255 -9230 0
-14130 -4297 0
1044 2276 0
5179 13188 0
10450 14795 0
8244 -2056 0
-11755 8983 0
1489 -6421 0
-2793 -7906 0
10428 -4879 0
4861 7953 0
4307 5926 0
5019 989 0
-3171 -1944 0
10819 2328 0
-3302 -12164 0
10231 -1136 0
-11649 -2327 0
-14093 -14325 0
4084 -4236 0
15522 180 0
12709 -7618 0
5125 -9651 0
8412 -12637 0
14598 13508 0
-13134 -14095 0
-11910 -14816 0
-5877 -315 0
-5950 12302 0
-7990 -12211 0
5424 -7156 0
-2561 -5677 0
12392 3400 0
182 188 0
-12778 -14868 0
-12509 7399 0
-13536 14685 0
-5764 -8448 0
10922 -5394 0
-9187 -8624 0
-4497 6525 0
-12244 9500 0
6861 -8653 0
-12668 2281 0
-9084 -6810 0
1947 -13080 0
-7311 -13119 0
13753 -1819 0
12603 1750 0
-14352 -6914 0
-1539 -5832 0
5517 -3378 0
-12870 6789 0
-13380 -3337 0
13181 -9870 0
-5219 4113 0
-14658 6798 0
863 -237 0
8093 13125 0
-7936 10542 0
5486 -3334 0
7386 -3008 0
1880 -3779 0
2929 2762 0
15379 -1205 0
-4197 -12526 0
-5006 -4675 0
6429 -14712 0
-2888 7898 0
-13886 -1060 0
-10741 -3648 0
7518 -13848 0
1237 1082 0
3198 -7691 0
-15350 -1481 0
-5619 11054 0
2590 -12112 0
3136 9871 0
11646 -6376 0
-3828 257 0
14761 -14559 0
13017 -10008 0
-9547 -14829 0
8196 7110 0
-962 3048 0
658 7594 0
-7249 11854 0
-13745 -12043 0
-321 -8318 0
-13658 -92 0
-7875 -5749 0
-1479 -6447 0
3982 -8908 0
3023 -13965 0
6567 633 0
2648 -12081 0
-4725 14049 0
-3917 -10131 0
-10436 -3765 0
-675 -13201 0
1803 -13639 0
-3673 5354 0
12991 15553 0
-3341 -11019 0
7868 -2915 0
-3 -10809 0
-6671 3017 0
-15495 -3373 0
-10104 -7085 0
12316 -5334 0
15547 11875 0
-6904 -7233 0
11950 14440 0
-8771 1274 0
-5918 -13108 0
8020 -10009 0
-4418 11143 0
-13517 12298 0
-10365 -10798 0
-6825 2145 0
-11196 7282 0
12215 -641 0
15252 5164 0
14172 -13346 0
-10509 13707 0
-8416 -4365 0
-7333 -14060 0
-4051 -4903 0
2876 -5486 0
11207 -12100 0
-9558 14490 0
8830 6975 0
1336 6854 0
-10758 -875 0
-12176 -11714 0
14921 -11 0
-7396 -14639 0
10455 -4715 0
-9671 4697 0
-2322 6659 0
-9123 -11568 0
-465 -1515 0
3424 -2578 0
11600 -6601 0
-987 -813 0
-12610 15100 0
-12769 -11629 0
-8303 -374 0
-483 11502 0
-9696 64 0
-408 8117 0
13922 4239 0
3412 7943 0
-7651 -9799 0
-12149 -13124 0
-2880 -14948 0
-2493 2775 0
-8090 8753 0
-11775 -2075 0
-9585 11551 0
10209 -3448 0
1931 -12383 0
3446 11983 0
-11072 6583 0
-4187 -6399 0
12537 -5504 0
2298 5054 0
-11118 -13159 0
-2100 14360 0
-4081 3531 0
-4664 -11963 0
705 12057 0
686 -3226 0
-666 8739 0
12436 -12417 0
9586 209 0
8767 9411 0
-3669 6813 0
6827 -3084 0
-6278 14918 0
-14955 -3796 0
-12178 -12173 0
-7322 8644 0
11158 -5842 0
-6922 -4301 0
1674 -12809 0
-4533 6604 0
-4009 -4883 0
-1407 -33 0
7993 -6779 0
-4634 -5618 0
11681 13455 0
12733 -14172 0
698 2657 0
-1557 6254 0
3478 -10144 0
7818 -2163 0
-13233 -14393 0
-5196 1767 0
6965 1413 0
-7611 -14598 0
-2945 13305 0
3288 7734 0
10383 -41 0
15046 971 0
15560 -794 0
-5434 5854 0
7407 -15081 0
-4680 -12544 0
11062 -2478 0
10759 -11125 0
-2796 6014 0
1854 15105 0
15271 -594 0
9818 3573 0
3149 -14572 0
12486 -10408 0
-7391 3845 0
15364 15174 0
14300 -12899 0
13474 -13107 0
-14820 13863 0
844 -4861 0
-15487 -10286 0
-6122 15142 0
1594 8222 0
-12187 9637 0
-7403 -11146 0
1228 6719 0
8195 5432 0
1544 -14561 0
7448 -405 0
12799 8216 0
13357 13403 0
7645 -15182 0
5763 3374 0
6913 15142 0
10483 -7291 0
-3335 -3409 0
-2634 -1628 0
-4368 -3422 0
12869 8660 0
1511 -5540 0
-6678 -15085 0
2423 -5297 0
-2222 -9163 0
4388 -6919 0
-12219 -465 0
36 -12146 0
9418 5312 0
-477 -1098 0
-9882 -9528 0
-13074 -14599 0
1746 9632 0
-4144 6252 0
-830 -14072 0
-15393 2428 0
-8431 -11517 0
-2910 14182 0
6953 -4146 0
10279 6822 0
-13775 -4981 0
11263 9485 0
6712 -12851 0
7045 3331 0
10991 3288 0
-11837 -2934 0
4319 -12912 0
-1671 10415 0
-12688 6560 0
12578 -6244 0
1723 4725 0
1860 8438 0
15027 -1966 0
-2692 -3899 0
2570 -4142 0
-242 -10934 0
2309 9698 0
3028 6882 0
-8274 -9579 0
-10056 12623 0
15358 -12709 0
-4753 -12213 0
2111 -10996 0
2168 4112 0
-13380 -14739 0
-6333 -237 0
-1782 7933 0
11232 11812 0
4389 -13541 0
5881 6372 0
3750 11102 0
9695 -12850 0
9538 -3163 0
11422 15401 0
-2053 -12073 0
8858 7902 0
-4582 7045 0
7434 13666 0
-4803 -9213 0
888 -11510 0
-3714 10364 0
-14878 -11617 0
-9481 6469 0
-9339 -4037 0
-3979 -1047 0
2788 14791 0
-14758 14091 0
-7525 -10797 0
-10498 -9522 0
5103 12503 0
10822 -5808 0
414 -1671 0
630 -6497 0
10846 -15455 0
8458 -3635 0
5647 -2396 0
-6780 -14270 0
-11699 13038 0
12943 -2193 0
-14375 11874 0
-3754 8013 0
-10254 -6353 0
7458 -4594 0
-9663 14768 0
8120 -11135 0
9207 -998 0
10983 8337 0
-15123 7646 0
-14981 1759 0
11116 -15465 0
2734 -1931 0
-11846 -10390 0
-6573 -5608 0
-3656 5016 0
14789 2338 0
7483 3904 0
11956 -4899 0
-9831 7001 0
-10208 -6888 0
11920 -9629 0
-1265 10215 0
13593 -13368 0
-10299 3486 0
-13367 -2086 0
8443 11494 0
-9450 777 0
-3634 9127 0
-8984 -10807 0
954 -1933 0
-3386 -2569 0
-9925 3717 0
13396 -11451 0
3335 -8566 0
1488 15538 0
-10714 5931 0
11480 11224 0
-12408 1791 0
-4427 8010 0
-7501 7815 0
-3565 -9578 0
7703 9308 0
-10443 4143 0
6903 110 0
5530 6835 0
12457 -6886 0
-370 -4186 0
5913 13399 0
7194 11773 0
-3934 -6884 0
-2465 -6470 0
-3561 -9105 0
-3374 -5742 0
-4641 9500 0
-7933 8508 0
5143 -10870 0
-4628 89 0
-12734 6325 0
-2806 -5218 0
7528 -9557 0
-12819 -9529 0
-1117 -6684 0
13602 -8491 0
6607 -2633 0
11686 10287 0
-649 7400 0
5624 12695 0
-236 -8068 0
-356 7654 0
-9067 -2289 0
6501 13129 0
-1314 1901 0
4448 -13542 0
8854 -8851 0
9664 -2587 0
-14880 -7330 0
-9492 3521 0
-2755 -111 0
-3058 -3635 0
13833 13499 0
-7257 5635 0
15379 6971 0
9855 2072 0
-2032 -14467 0
-2125 -12984 0
2670 -11965 0
-12302 285 0
3304 -1639 0
14474 13722 0
-12369 8409 0
-4261 -14519 0
10460 7010 0
6567 6240 0
5589 -14446 0
-2438 -5936 0
2545 -11129 0
5016 6978 0
-12570 -13953 0
7781 3645 0
-6481 2688 0
-4529 13131 0
-12508 -9794 0
3306 -301 0
6017 -11673 0
5375 11211 0
-9818 -5368 0
9675 -4441 0
-14922 5214 0
6837 14969 0
6671 -13060 0
12528 -14869 0
-14875 -11513 0
-15406 -5039 0
14480 -5503 0
-8004 11236 0
7152 -9128 0
-15234 -7907 0
-535 11567 0
-10411 -13818 0
10743 8384 0
-10753 -3436 0
13209 -2648 0
2625 10818 0
-4966 -670 0
3569 14236 0
-4072 -4251 0
10482 -1973 0
-1060 -13374 0
-3968 -14635 0
-7741 -5703 0
-4226 -466 0
-149 4474 0
-8879 5361 0
-407 8381 0
-11421 -8032 0
13557 -7149 0
8191 4578 0
940 1761 0
6184 -13154 0
6540 -15250 0
13575 7691 0
3013 -768 0
14747 -6597 0
-7034 13560 0
12182 12980 0
-9129 -145 0
10840 -5114 0
13192 1171 0
-2216 2799 0
4747 -11481 0
6228 1661 0
-8220 -1111 0
13037 5319 0
-12008 5035 0
-11282 -5879 0
-12480 -4565 0
-8874 -6464 0
7716 6770 0
13984 4063 0
3843 -14719 0
-13390 12184 0
3954 8645 0
-11870 -12158 0
-7029 -15409 0
-11624 -14611 0
3963 -3797 0
-13353 2404 0
3122 -8627 0
-14332 -804 0
974 9425 0
-6157 11936 0
-7292 13938 0
5620 9257 0
-4358 12923 0
-71 8391 0
12331 5157 0
-9976 14099 0
-3766 -6592 0
-15078 5820 0
13279 -12952 0
-11179 9179 0
11652 8992 0
4073 8303 0
5937 -6226 0
356 -8601 0
-5675 841 0
-6883 -6451 0
3396 -2877 0
7908 -1213 0
9883 -13435 0
9334 12486 0
15366 -1971 0
13822 -13353 0
5747 -8163 0
11113 -12285 0
-6419 2004 0
-654 -10864 0
599 -5296 0
-2408 8583 0
-9751 -8281 0
-11499 12724 0
-14861 1492 0
-9002 -8529 0
-12058 1694 0
-8559 14024 0
-15233 -14275 0
15372 12820 0
14609 -4708 0
-8221 -12314 0
3290 9738 0
6650 -14299 0
-4157 8323 0
-981 -3654 0
-13805 -2092 0
14995 -2728 0
10568 -5921 0
3372 14430 0
15413 -3555 0
13619 -12741 0
12768 -10343 0
-14909 6758 0
746 12426 0
13235 -13502 0
4721 6520 0
-4268 -7776 0
10335 -1102 0
-10522 -5692 0
-12207 3547 0
10663 -13201 0
1768 14409 0
-2614 14927 0
-10509 8823 0
-1898 -2930 0
6679 -7760 0
-1297 13210 0
-6037 10261 0
-15010 11851 0
14493 2486 0
563 3133 0
-13875 -6595 0
15017 8328 0
-391 -12812 0
3448 5013 0
14512 3232 0
7122 3060 0
1243 12995 0
-2383 13937 0
-12067 -15264 0
9900 8753 0
-6953 -5170 0
13444 -1356 0
14514 -1992 0
-5274 5781 0
5176 9909 0
3443 -5549 0
6069 13694 0
3464 14759 0
8556 12561 0
13321 -8591 0
3711 1711 0
-3332 -7419 0
-9559 5456 0
12372 -2816 0
7546 2424 0
-5030 -10702 0
4230 10292 0
-5575 -6682 0
2061 -7375 0
3955 11252 0
6265 3729 0
13201 -11492 0
10923 -5975 0
-2503 14744 0
12489 -11168 0
3218 4791 0
-12199 -644 0
15005 11762 0
-5243 13111 0
4917 5821 0
-4079 1579 0
4494 -10648 0
-15424 -1703 0
-15161 -10364 0
-14926 6361 0
12126 -1145 0
648 -10416 0
-10082 2779 0
9245 565 0
6769 4906 0
12494 -5445 0
-8012 -2665 0
10068 -2641 0
-14268 -1641 0
-2237 4186 0
-5003 -13123 0
-9282 -4503 0
-2852 -8 0
-13334 6524 0
-7909 882 0
-1176 -12835 0
2312 8033 0
14111 6572 0
-11492 77 0
10215 9827 0
10822 15316 0
-3582 2619 0
-10445 8680 0
-12792 -2023 0
-14696 -3876 0
12130 863 0
4596 9407 0
10463 3106 0
11401 1770 0
6696 15457 0
10114 4396 0
4781 -15482 0
12514 7387 0
5464 3405 0
-11119 -4763 0
15259 10285 0
324 7971 0
4708 -2864 0
-14179 1760 0
2660 13329 0
-4591 -2488 0
1519 -10834 0
9536 1814 0
-7091 368 0
-6270 14819 0
-6877 -7367 0
10573 -5595 0
5035 -11618 0
13976 5490 0
8296 -1852 0
-3570 4474 0
12006 1667 0
-4794 -11051 0
-13809 2476 0
12256 8869 0
10259 1540 0
14834 -11833 0
692 6145 0
3305 -14171 0
4888 -10593 0
8785 4372 0
9855 -11423 0
-11052 -9240 0
2414 2476 0
12100 -1859 0
6904 14344 0
2843 14134 0
-10451 -8340 0
-4164 -14435 0
-11888 -14840 0
-4587 11300 0
8760 14775 0
627 522 0
-5203 -5069 0
11370 -493 0
-10534 -9472 0
-4176 -1948 0
-8505 -6085 0
7873 13297 0
11812 9948 0
-1019 -7573 0
14810 7975 0
-3733 -5143 0
8274 8891 0
11771 4032 0
-1002 -9916 0
10253 -2328 0
-1555 -8142 0
-10754 4592 0
-2662 7464 0
-1432 -1648 0
5230 2995 0
12860 8502 0
3876 889 0
7429 1562 0
-5961 -14165 0
7903 -3888 0
-6847 8504 0
-10414 -4183 0
-8452 4228 0
313 -9145 0
-300 -12150 0
3322 9754 0
-3166 -13248 0
136 -3588 0
6783 5538 0
-339 12167 0
-5055 5875 0
-2713 13893 0
10367 -13813 0
6129 3417 0
8507 -11708 0
-3819 12677 0
2628 4807 0
-4340 -12271 0
-5061 8327 0
7326 11806 0
-4974 7147 0
-53 -1322 0
10872 -13658 0
-7962 -1649 0
-13963 -14137 0
-9543 13606 0
-12353 -715 0
-3283 -4587 0
-8133 -5329 0
2657 9433 0
2174 5826 0
-6538 -1223 0
-2460 -13836 0
-10851 15271 0
8792 9359 0
-12415 2364 0
10270 -4866 0
15551 9913 0
746 7358 0
9209 -8068 0
-1864 -10192 0
-5436 -8634 0
-3282 1114 0
8775 3347 0
12280 -3442 0
11872 -4544 0
-2355 249 0
-3356 -11389 0
11933 -10925 0
11985 13868 0
13110 -9648 0
544 13713 0
9621 -12005 0
14855 -12641 0
-10499 -10766 0
1800 13134 0
-5528 -11645 0
-12469 4604 0
4701 -11378 0
-7555 -14639 0
-1512 -10177 0
3033 15052 0
-13861 -9984 0
2838 10033 0
-8520 7626 0
8464 2484 0
-12411 13025 0
-7269 -5190 0
9539 -12212 0
12357 15483 0
-2881 1248 0
-3918 -6476 0
-3790 -14243 0
9352 -9637 0
9783 4655 0
13022 13753 0
5774 -8115 0
-1405 14579 0
-2081 9950 0
4327 -1825 0
-7291 -13064 0
729 -14491 0
11594 1495 0
3633 -1244 0
-14035 5632 0
-9191 1532 0
1149 13856 0
-1675 14426 0
-6862 5696 0
6551 1319 0
14886 -1662 0
-7671 -10123 0
-13746 -11457 0
6604 5995 0
1108 -7924 0
-1373 1062 0
-9414 3814 0
-13641 3382 0
6219 12831 0
-248 238 0
7001 -2799 0
8430 -6921 0
-15515 -44 0
-11870 -3591 0
-9024 -5831 0
-11170 1270 0
-6385 7414 0
-10371 -806 0
9187 -5653 0
13774 -10929 0
11633 7211 0
-4075 -4465 0
13917 6926 0
-5313 1346 0
5526 6961 0
10793 312 0
-2000 9678 0
-9453 615 0
6236 -3546 0
-11668 -13028 0
-1343 -7221 0
-14321 -9532 0
-3726 2006 0
3430 2231 0
521 -706 0
2170 13406 0
12401 -11997 0
6935 2691 0
-491 -4971 0
5995 -5202 0
5929 -12889 0
-4202 -1753 0
7010 3620 0
-7960 2353 0
8127 5970 0
-6483 -7550 0
-8759 -8243 0
2411 -11805 0
-6711 -552 0
-14446 -8456 0
-14588 14670 0
-2062 -12576 0
-6547 -11561 0
-11445 1721 0
3544 8957 0
-4089 4266 0
15531 -7915 0
9929 -722 0
3195 -9239 0
5380 8053 0
-13507 -14870 0
-13776 2886 0
12367 -9027 0
12971 11710 0
624 1886 0
14807 5028 0
1360 -7481 0
-13794 -1448 0
8860 6033 0
-1942 10544 0
5219 10960 0
13479 -12866 0
7360 -10088 0
8736 13610 0
-9206 -2979 0
10971 10455 0
-9002 -10889 0
300 -8941 0
-12113 472 0
3684 12076 0
-4145 -14884 0
-8491 3463 0
12720 14698 0
-7564 -13371 0
-11830 -6251 0
-8427 8191 0
6085 -8358 0
-5026 -2720 0
-10380 2662 0
-1445 -13517 0
-12995 12559 0
-2290 -11864 0
13102 -8245 0
-7727 9944 0
6454 161 0
-10993 -13887 0
-6683 -9629 0
-7149 8333 0
2839 14408 0
-8463 4217 0
15217 -13044 0
7410 12023 0
7435 -13967 0
2181 11446 0
-8484 8296 0
-22 10758 0
1626 8166 0
-3264 -4042 0
-11018 -7205 0
-4936 2154 0
-4038 10923 0
1842 8259 0
7759 7067 0
-10798 -1662 0
10610 7847 0
933 -7478 0
-11792 14692 0
14538 792 0
-6726 -5341 0
-4293 -7299 0
-1925 8522 0
-12861 -15478 0
-2626 -7928 0
-7101 -12688 0
1665 1966 0
4395 -1968 0
11032 -146 0
14539 13190 0
647 10461 0
2477 5876 0
-2456 7863 0
-11704 10335 0
13105 11696 0
-1893 -5803 0
-5686 12227 0
5870 -5985 0
7206 -4014 0
6716 -1071 0
-6070 1215 0
9508 -1144 0
6307 -2065 0
244 4327 0
-13811 2658 0
-9394 -14727 0
3212 -5991 0
-6640 9815 0
-474 -10144 0
-9565 -1555 0
-7652 -3366 0
-10177 -8843 0
-9184 -7003 0
9271 -14111 0
10627 11307 0
3231 -3847 0
-2540 12848 0
-9826 9445 0
-15549 5739 0
-3453 -2177 0
9221 -14082 0
-6242 13625 0
5546 -6605 0
-7709 -9116 0
-3295 1457 0
-10533 15180 0
9368 9015 0
-137 1481 0
669 12677 0
-8311 -3367 0
3623 -218 0
15520 -1989 0
6231 9394 0
-5226 446 0
2997 -12948 0
2564 -14993 0
-9477 -1250 0
-8260 -2309 0
9954 -7545 0
10146 14318 0
-10980 12410 0
5367 8986 0
-14456 8794 0
902 -567 0
6021 11102 0
8861 -6976 0
-12991 -15116 0
-6147 -10559 0
-4690 5853 0
5706 -12128 0
-430 3058 0
5796 11182 0
5508 2809 0
2326 -1763 0
-321 -8683 0
-5214 -8664 0
-10493 493 0
-13474 12181 0
5461 -3853 0
822 -641 0
14940 -7422 0
14504 7992 0
522 11286 0
-11082 11997 0
-14812 -15534 0
-4582 575 0
-12786 -3479 0
5381 11971 0
-6275 -13813 0
13155 7783 0
10592 4231 0
-7234 -8689 0
-2466 10836 0
1571 14815 0
-14320 12033 0
1600 3979 0
-5512 -6891 0
2571 5420 0
-7766 -7311 0
-11731 -7878 0
-14477 -12599 0
877 8417 0
1758 -13031 0
11477 13832 0
8611 4824 0
-9453 6179 0
-236 8694 0
4250 -321 0
-2819 -1447 0
12988 6523 0
-7361 4163 0
8414 -7938 0
4039 -70 0
-4865 -6189 0
9436 -3509 0
-8582 14121 0
-3307 2591 0
12506 910 0
2483 -2186 0
8533 -13333 0
752 4240 0
-11804 2229 0
-4783 -8090 0
3180 -3555 0
-430 495 0
-5275 14497 0
-13380 -9382 0
2417 -4714 0
-442 12999 0
-1693 -9010 0
-7396 6721 0
-10243 3582 0
3246 -3055 0
13564 -13044 0
11355 -13671 0
-7051 1059 0
15050 -12284 0
2482 -12595 0
3948 1324 0
9106 13301 0
5300 9476 0
11602 4631 0
-8976 8165 0
595 5536 0
2778 12238 0
-14359 -14806 0
-12526 -11829 0
434 -980 0
5867 -8142 0
-7692 -6680 0
14257 10056 0
-11090 -12150 0
-4465 28 0
-13494 2529 0
-3840 -2129 0
12402 -9036 0
6032 5947 0
14034 -2276 0
-5943 -14455 0
13339 -8604 0
-3211 -12779 0
3222 735 0
9298 12894 0
11187 13372 0
-2880 1882 0
6784 -10645 0
-4338 13447 0
-5383 6701 0
14713 -515 0
8210 -5750 0
-12850 -403 0
7888 7603 0
-6625 1979 0
1749 -3049 0
-7257 -12345 0
-11008 -14131 0
-6367 -14437 0
-6662 -3172 0
-5278 1826 0
-2326 -8576 0
14815 -6743 0
553 -10758 0
-11050 -3376 0
12356 12103 0
3558 2570 0
2405 -1340 0
14202 9690 0
-791 373 0
10328 -2063 0
-5101 -1393 0
-783 -9327 0
7975 -8364 0
-12759 -10272 0
979 8237 0
-1064 -8244 0
6994 -10962 0
-1944 1716 0
-9400 13666 0
-12481 -4688 0
4153 -13130 0
-4112 11986 0
12207 4878 0
417 8926 0
-11520 -11796 0
1768 9310 0
-4781 14793 0
-2441 -8882 0
-1310 13599 0
-9521 -15041 0
12532 -3734 0
643 -5868 0
-8594 -14665 0
8189 -4554 0
-1947 12685 0
-3146 2269 0
11232 12527 0
-2380 14607 0
-11354 13748 0
-10838 -9073 0
13339 -14237 0
12408 7427 0
6963 976 0
-13618 -15412 0
-9308 -8676 0
-9641 -15127 0
13184 1168 0
-570 -3948 0
-10619 -3138 0
8747 13008 0
-7896 -8789 0
-15440 1318 0
14769 -5660 0
7429 -14741 0
11258 5171 0
-4043 -1588 0
12505 10201 0
13841 -7374 0
-8737 -15022 0
12186 15421 0
1 -9983 0
15353 -3376 0
13301 417 0
-8005 4609 0
-6749 2167 0
13740 6335 0
13604 3812 0
-7630 5155 0
1240 -4561 0
-8482 3925 0
13009 -7293 0
4919 2348 0
776 -8166 0
10280 -2233 0
-12485 -9794 0
3794 -10693 0
-4771 5773 0
-245 8233 0
-12551 -5364 0
-13480 13859 0
-1190 6063 0
1943 -9915 0
4200 -11020 0
-1462 4347 0
-1849 8194 0
-11607 5939 0
492 7981 0
-11144 12611 0
-15186 9681 0
-15556 11930 0
-9949 -7835 0
-37 -4852 0
12465 -6064 0
3919 6061 0
-7841 9928 0
13735 -5102 0
-10326 -736 0
-7797 -8056 0
13840 -10530 0
13037 3319 0
12330 10635 0
4061 -10664 0
6736 -4863 0
5947 5991 0
-5928 13124 0
-10457 14796 0
-367 -6693 0
-8754 10680 0
2606 7355 0
10726 11741 0
-8275 9592 0
12085 15064 0
-15408 3333 0
-9396 -12402 0
-14009 14619 0
1677 15006 0
-5155 -10518 0
227 -9926 0
-8083 10923 0
-15182 -7060 0
13743 -6745 0
13896 -13081 0
-7242 -9718 0
-9164 -3408 0
-7476 -4087 0
255 13228 0
-14344 14029 0
-7550 10917 0
15492 -10398 0
-11145 14544 0
-15224 8902 0
-8631 -6735 0
-10852 11374 0
14794 5711 0
753 555 0
2001 -13230 0
-6511 10280 0
-2616 11898 0
-12509 -13756 0
9992 3301 0
12701 -666 0
15154 -14546 0
3175 7738 0
14260 2347 0
5317 -6189 0
-3616 10805 0
-8097 -6521 0
9516 1998 0
3884 -14647 0
-1135 15524 0
-12657 3468 0
1119 -933 0
-2444 15484 0
14753 11506 0
-4710 -6188 0
5928 13594 0
14151 4312 0
4189 -6424 0
-11042 9827 0
-4738 -9860 0
4743 3995 0
16 -3313 0
-4142 548 0
-3651 13172 0
-1233 -10057 0
-10393 5828 0
828 1291 0
792 -9498 0
-15251 1050 0
-14901 -3206 0
7775 6432 0
-10748 -8077 0
-11245 12060 0
-14418 -5775 0
4563 15530 0
-4268 -14387 0
-4564 5327 0
15373 1155 0
3011 -14345 0
5497 -9886 0
-7999 -6463 0
-8891 13062 0
9299 9783 0
-12664 -2115 0
-13026 -305 0
584 -9390 0
-13003 -6626 0
-15080 11340 0
-3423 8893 0
-11937 6534 0
-7959 -6617 0
3021 8715 0
2729 -7671 0
4626 -9041 0
6579 12458 0
12586 -705 0
15288 6846 0
10462 3405 0
-12294 -13288 0
-11186 -12380 0
-3631 -5920 0
-10298 -15217 0
12011 11083 0
-8200 -7793 0
-2924 -2123 0
-14910 -7760 0
-12728 7717 0
-6055 -8717 0
8286 -3852 0
5018 -6859 0
9131 -11216 0
4454 11366 0
942 2895 0
-9843 -6241 0
11004 14215 0
7807 -7595 0
10662 -1177 0
-5081 9534 0
6992 7330 0
37 -8988 0
-15219 -4306 0
7945 12615 0
-13730 -4201 0
-11715 14217 0
15563 9960 0
-11588 -3899 0
14942 11283 0
-5668 8316 0
14700 9516 0
8239 -11301 0
15483 11472 0
-13906 2908 0
-141 -11103 0
-7592 -11921 0
-13301 -11785 0
-10101 12239 0
-15518 -8885 0
-11291 6057 0
-11900 13152 0
-12162 1553 0
-6241 40 0
-6740 -7106 0
1418 -1425 0
-12509 4169 0
-14280 14998 0
10688 7556 0
12677 5945 0
-4848 3711 0
8294 9768 0
-7665 10044 0
-11898 765 0
2987 12431 0
-12866 15259 0
-9281 -11392 0
14617 -2886 0
-1103 -5493 0
11975 -14933 0
-5715 10948 0
-14372 -13501 0
-10660 6387 0
5648 4320 0
-12171 9182 0
10520 644 0
2623 6966 0
992 15309 0
-8462 -14519 0
-13786 -2802 0
1851 -7928 0
3376 -13299 0
-1443 2494 0
-11471 4705 0
-2601 6877 0
-4169 -2786 0
-7510 -4611 0
8043 3859 0
-5520 -9256 0
-15212 -10397 0
10905 14289 0
4105 -6848 0
-14416 4934 0
15308 -3061 0
-15457 4524 0
9182 64 0
-10088 4225 0
522 2715 0
-12555 518 0
243 -12142 0
-727 -11296 0
-7233 10450 0
-662 -14201 0
4320 5601 0
-5904 2349 0
-1726 -3784 0
-6402 6935 0
-8881 296 0
2978 15165 0
-12512 -4037 0
8339 12781 0
-9877 12069 0
9553 -7632 0
-13101 13477 0
976 -5153 0
12859 -3077 0
8782 5809 0
-12864 8475 0
9640 -14289 0
11533 -4154 0
-14111 -3980 0
-4430 376 0
-2466 1257 0
-5287 428 0
-5857 -4684 0
5494 6196 0
14623 3528 0
9348 7425 0
-12854 13619 0
6065 -5422 0
-5720 4292 0
-15023 9082 0
12916 -10546 0
8158 9375 0
14346 -14071 0
13203 -4992 0
13607 10913 0
-3841 -15270 0
12886 5045 0
390 -3218 0
6178 -1678 0
7614 -13136 0
1705 11784 0
-5777 -29 0
11602 3899 0
1698 -11004 0
9761 6816 0
-7382 -14677 0
-6041 12026 0
-7443 -3922 0
-1236 -1915 0
-5781 -5718 0
3653 -15305 0
-13677 -13573 0
800 13692 0
10608 12647 0
10286 9466 0
-15302 -4692 0
-8193 -5916 0
-8316 10797 0
4527 11689 0
4787 9837 0
-10692 -4518 0
9667 14698 0
-8851 1732 0
3653 -12876 0
-5307 -12614 0
-9463 -922 0
9933 -12417 0
-12547 -12647 0
-4347 -5943 0
-11628 -5397 0
12699 10570 0
4902 -9144 0
11530 8032 0
-7469 -9097 0
8882 -10815 0
-93 -6884 0
13688 -7888 0
9631 6355 0
3871 -871 0
12709 -343 0
-6633 -15552 0
2688 -15574 0
4133 -4755 0
8745 -10673 0
-12688 1863 0
-743 12496 0
10735 -14126 0
-3084 690 0
-30 9584 0
3614 -1421 0
-2426 -11922 0
4426 -8091 0
8849 -14312 0
613 9352 0
-7436 9901 0
13433 -6174 0
7780 11128 0
14397 -4691 0
9344 -2889 0
9487 -12527 0
680 275 0
-1267 -12775 0
915 4469 0
6660 875 0
-14548 -1358 0
6289 12481 0
-5341 -10803 0
-14260 12050 0
14516 -9657 0
11630 -1326 0
7781 -5407 0
-4927 9829 0
-12491 -9064 0
-4966 -4462 0
-8882 -11389 0
-5628 7621 0
405 7245 0
-1765 -6027 0
-14335 -1394 0
-12692 1903 0
9299 -13398 0
-8341 -1094 0
-2161 1051 0
588 14779 0
-1944 7220 0
-14172 -3197 0
-14599 -6232 0
-3049 5735 0
10059 -10830 0
-4290 -3986 0
1014 -15290 0
11223 -491 0
-4989 2346 0
5103 -9847 0
-507 -438 0
-9676 -1919 0
13993 -3612 0
7118 -7310 0
10565 -1724 0
-655 15173 0
-6731 11655 0
-254 -5501 0
2476 7713 0
9150 3117 0
-6554 -3568 0
-4432 1666 0
-3750 407 0
-11715 -9903 0
2304 -5194 0
-15351 -7951 0
-12861 11553 0
-488 7379 0
8861 14233 0
1932 -6185 0
4807 10594 0
-6269 14774 0
3007 -10683 0
-8314 -3564 0
-5592 6393 0
10054 6110 0
2564 5733 0
7906 -2064 0
-13319 3186 0
-175 2762 0
3705 3716 0
-13755 -449 0
7490 -10347 0
-8001 -12103 0
3963 -10209 0
11630 -8614 0
-9149 478 0
-1325 -9335 0
-7896 -5729 0
11152 -7677 0
4448 1440 0
9556 14493 0
13147 7867 0
-8465 -6276 0
-7885 1313 0
-11302 3381 0
-7071 -10554 0
-4000 1586 0
1022 2293 0
10253 3489 0
15529 -15238 0
12319 -11046 0
-7826 11826 0
4574 -4338 0
-9848 7321 0
13218 -12277 0
-2051 15179 0
9600 13298 0
-5703 -7103 0
-8820 -3375 0
-6899 10817 0
5732 1217 0
3819 -764 0
13467 488 0
7379 -10129 0
-4677 14540 0
2170 8680 0
-4600 -163 0
12561 13236 0
12763 294 0
8863 -9064 0
-9220 -14207 0
-5314 -9968 0
1816 13237 0
-3194 3393 0
-5030 10794 0
-14642 -3391 0
-15382 -3446 0
-10739 -11027 0
-8765 3625 0
-6987 14958 0
4799 2725 0
-1362 11594 0
-6952 -7011 0
1759 -1288 0
-11260 15154 0
9408 -6474 0
3001 10148 0
2714 -1982 0
10615 -2918 0
-9629 7708 0
-3265 -1231 0
7955 10916 0
2950 6289 0
7950 -1719 0
-11870 15200 0
-11338 -9879 0
-4423 -4436 0
5410 10789 0
10040 33 0
-4964 4117 0
-10162 -6366 0
-5032 -4802 0
14060 -4152 0
-6145 -3720 0
3060 15355 0
3657 -9784 0
13559 2433 0
-4410 13610 0
-8834 -5151 0
1592 11415 0
13945 -11347 0
5418 -15022 0
-33 -12492 0
-14329 -1782 0
11736 -15416 0
-4488 -4194 0
9795 15204 0
-9871 415 0
6945 9426 0
4814 7214 0
-7263 -12659 0
-1524 10497 0
15001 -10646 0
-7725 -12581 0
3753 -7331 0
3264 -15235 0
-4500 2476 0
-15074 7110 0
15093 -2281 0
5478 -5705 0
11116 -10487 0
13068 8702 0
-12886 -12868 0
8139 2543 0
3538 12141 0
-12587 15065 0
1419 7425 0
-13156 14761 0
-410 -3457 0
13258 -5623 0
2753 10626 0
-5145 -5393 0
-12993 -647 0
-6454 4900 0
-13785 -13542 0
2714 -1056 0
2383 1148 0
14249 7117 0
6381 -3104 0
-12213 12972 0
8417 -6417 0
-14256 -9461 0
-11835 -7380 0
-14237 -13448 0
-14963 2000 0
14982 -2991 0
-12005 11543 0
11891 14710 0
-12439 -4485 0
10890 -13846 0
2329 -14919 0
5082 9986 0
6585 -2883 0
13063 -6509 0
819 -11683 0
-1381 -12224 0
-7713 -12116 0
-7663 -13221 0
-8966 8830 0
12873 12297 0
598 6617 0
-6015 -9373 0
-11956 -12277 0
11576 5327 0
4710 -984 0
-11653 -6464 0
-6577 -11961 0
-3352 -11039 0
8171 -724 0
11737 4508 0
-14253 4468 0
-11477 217 0
5026 11031 0
-1293 5559 0
4627 8185 0
-12957 -385 0
-2126 615 0
-4370 -7483 0
-3240 -4643 0
-14803 14756 0
-2838 -5588 0
116 -8757 0
10891 -5385 0
9879 5482 0
8128 -8614 0
6780 6833 0
6820 -12461 0
2192 -3771 0
-8945 -3846 0
-9714 8738 0
-11084 -11618 0
-10854 -15452 0
-5045 14147 0
-11238 -4935 0
-9135 -14400 0
-3124 -12126 0
3476 7578 0
3745 14040 0
-10060 9897 0
-9705 -3673 0
8430 -12865 0
7922 4758 0
-4502 -7301 0
5929 -12998 0
12828 -9725 0
1959 -4312 0
5669 10655 0
823 10013 0
-955 -9188 0
-8156 -5479 0
13772 12934 0
-13284 -11532 0
-10236 5596 0
-11445 9403 0
14530 13047 0
-9881 10954 0
-1722 -13825 0
10679 -10650 0
-10437 -808 0
5306 10583 0
-12933 -4533 0
13441 -8051 0
10310 8284 0
-2656 -1274 0
7772 10740 0
-15399 -1375 0
10045 615 0
199 -2468 0
10846 -8851 0
14453 4852 0
9448 7861 0
1650 -12326 0
-10180 241 0
-6979 -6793 0
13966 -14882 0
12961 9160 0
2924 2125 0
-1731 -13951 0
8487 -9339 0
-8521 5744 0
-4877 -12577 0
8569 2706 0
6131 -8990 0
4847 8068 0
-10643 10818 0
-9500 -8233 0
14261 -5393 0
6080 -370 0
-9039 13361 0
-9610 1531 0
3164 -1008 0
4276 -6060 0
-126 -384 0
-13729 -8103 0
-1367 5869 0
-4020 7231 0
-4514 3947 0
-10067 2910 0
-2567 -14275 0
-1012 -12134 0
-5479 10584 0
131 -4268 0
974 10139 0
-7779 11276 0
-9570 3786 0
-4971 5673 0
13738 13599 0
-13780 -187 0
3065 -5374 0
-9101 136 0
-15472 -7837 0
-14926 -8975 0
-14542 -10162 0
7393 -13010 0
-14540 -3204 0
-3088 -3065 0
7622 -11989 0
7527 -1308 0
-12003 11072 0
-289 1228 0
-9561 3593 0
13383 -2965 0
-10398 -8515 0
14343 11480 0
13376 4084 0
13802 5752 0
-14892 1096 0
-11505 1570 0
2547 4593 0
6799 13240 0
14430 11608 0
6491 3289 0
-13968 5811 0
-950 13642 0
10174 7431 0
-9660 -2011 0
-4558 14167 0
15571 -10147 0
-2323 -2428 0
-13169 -9275 0
-4119 -6963 0
9624 916 0
-1225 14245 0
6824 7742 0
6889 -12422 0
-10264 -11028 0
4342 440 0
-8822 -12908 0
-12071 12724 0
7899 3362 0
-179 5524 0
-8362 13174 0
-6271 13413 0
1168 -12479 0
3117 -13378 0
-2923 7823 0
5866 -1259 0
6873 -13586 0
-5324 4618 0
6174 -3307 0
15138 -2702 0
-11448 10402 0
4300 15070 0
-9884 -2744 0
-10876 7215 0
-7665 -1550 0
-1485 5375 0
13453 5420 0
7196 -3860 0
4893 -8588 0
10322 13251 0
-1427 -10225 0
-13770 -4164 0
-5611 -4616 0
-11461 -4728 0
13881 -12868 0
3512 11813 0
-12346 531 0
9784 6704 0
-6807 -7651 0
-14335 -3976 0
-2186 3746 0
2899 10527 0
12991 -7812 0
13484 -8461 0
-7061 7229 0
2256 7408 0
-5578 10607 0
-3736 -9178 0
9913 -14133 0
-14035 -10269 0
-4444 2280 0
-7049 12063 0
11103 -11020 0
-10845 7379 0
-7583 -1005 0
3918 7203 0
14626 -7344 0
10867 -10098 0
9699 -761 0
-10071 14107 0
-13745 10814 0
-7105 -1607 0
5993 4640 0
-2053 -3217 0
12142 13860 0
7894 2200 0
-1659 8272 0
12252 -11737 0
-11198 8283 0
2590 -10593 0
-9046 15009 0
940 4332 0
-10282 9115 0
-2649 5888 0
11038 -58 0
1730 11992 0
-1198 -3390 0
-7092 2181 0
23 -5410 0
-3810 -3565 0
3051 -2768 0
-13011 10165 0
8895 5260 0
14921 -6526 0
14216 -5990 0
-9817 -8462 0
-6901 5308 0
7742 -14547 0
-15516 13954 0
-10918 -11780 0
3334 7459 0
-9525 -7719 0
7230 -11959 0
-2951 -4560 0
-648 11539 0
11345 13975 0
-6588 -13451 0
12105 -2781 0
-6345 -1077 0
-9998 3961 0
-8382 -7467 0
-4150 -750 0
-5901 -10588 0
12063 -5716 0
-10033 7120 0
-13779 -13122 0
-12595 14925 0
3495 -13693 0
-14625 -429 0
13604 -6574 0
12794 12557 0
-9913 -12843 0
7911 -15256 0
10168 10332 0
8325 14983 0
553 10243 0
8405 8618 0
14284 -8703 0
-8205 -5484 0
5713 15017 0
12772 9185 0
7400 -15532 0
-13311 -6775 0
12032 -8279 0
-11568 12406 0
1973 -7805 0
-5228 -6917 0
4610 2119 0
-936 -10810 0
-1790 -12364 0
-12473 -10413 0
-6269 -15056 0
14605 4567 0
8468 15200 0
-10269 7356 0
6021 14914 0
-11060 -8005 0
-3363 9538 0
-12354 -164 0
4934 -3835 0
225 3455 0
-13366 -258 0
13088 2406 0
-6981 -8641 0
5837 -11234 0
-3993 -3423 0
3184 4322 0
-1437 9109 0
-11536 5711 0
7147 14966 0
9306 1909 0
-3203 4593 0
7446 -6484 0
-13423 14100 0
-5801 5874 0
1089 -12358 0
6874 -10633 0
849 1875 0
4962 12431 0
556 -1181 0
-6461 15305 0
-11596 -7338 0
-414 -15462 0
874 8733 0
788 9421 0
-11395 -5880 0
1810 -1404 0
12120 -3887 0
-15308 -3378 0
13311 -4292 0
-4555 -7031 0
-4066 212 0
10182 -7997 0
9303 11653 0
12514 -14657 0
11564 -11689 0
-5872 -3127 0
3137 11552 0
14599 -1083 0
-12735 -2576 0
-9510 18 0
2104 -22 0
10837 -10892 0
4622 2962 0
-12225 -8106 0
10720 -6774 0
-6586 -13807 0
-4628 13916 0
10023 4889 0
-5746 8290 0
-7026 -81 0
-3413 -11519 0
5266 -718 0
12100 -12865 0
3661 12004 0
12984 2844 0
13774 -12889 0
-3762 8864 0
9211 5415 0
-502 7188 0
-2959 6549 0
-9073 -12675 0
-10887 -13526 0
-2209 1498 0
15550 13096 0
5391 14221 0
15509 14225 0
10988 -11269 0
-6022 -6136 0
-11881 10615 0
8177 9734 0
-1064 -11241 0
-8068 10018 0
9 11488 0
6507 -13344 0
-9984 -8314 0
12428 -3470 0
7927 5524 0
12378 4659 0
-4875 -8977 0
-13404 1114 0
-10864 -4663 0
379 -970 0
-3883 13979 0
-826 -8828 0
10109 -8988 0
-711 7186 0
-2993 -9571 0
14504 8174 0
13466 4502 0
4029 -7845 0
-8004 10227 0
-12766 -5669 0
-2449 -9950 0
8078 -5671 0
-2843 13343 0
-10915 -5099 0
-8594 3608 0
14737 -11186 0
-4392 9376 0
4680 -12844 0
6908 -4402 0
-8542 -2018 0
-9211 -8731 0
-6422 2647 0
-12408 11909 0
-13930 11167 0
-6802 -3448 0
-13955 -7361 0
5834 13801 0
-10754 -8308 0
-221 -8494 0
6266 14628 0
-9480 -5580 0
5709 8654 0
8158 -5715 0
-594 12722 0
5150 -12760 0
5942 11702 0
-4701 -15332 0
-1202 -13651 0
-13288 -6510 0
15324 4810 0
2870 8639 0
8614 8564 0
1933 -4163 0
11635 -169 0
-5615 -4050 0
6752 -4954 0
12150 -2953 0
-878 -1841 0
10516 8339 0
5315 5855 0
13487 -8783 0
-13643 -12052 0
5378 -6662 0
1291 -5743 0
4334 -10840 0
3647 -4950 0
2898 -3394 0
-14642 -3543 0
-8080 13339 0
6590 -9951 0
8987 -10152 0
11702 10962 0
-5153 4508 0
6212 -7672 0
3075 -15300 0
11698 -887 0
-9974 240 0
-5591 9498 0
-1582 14915 0
12126 -9046 0
-14519 13981 0
-15037 -11872 0
-5893 -6377 0
-891 9876 0
-5738 -4752 0
-11240 12213 0
-11431 -11837 0
-502 8759 0
-703 2762 0
12608 -2295 0
-517 4216 0
15263 -1987 0
-13705 8821 0
-4414 7872 0
2198 11416 0
14336 -12333 0
-286 9089 0
-2078 -12483 0
6829 10435 0
-6869 7553 0
6508 13559 0
13295 3948 0
10368 -6470 0
11400 9469 0
-13566 6611 0
-5464 727 0
-2328 6012 0
7074 -9598 0
-15474 11901 0
13032 -14385 0
2405 -6869 0
-4763 -5460 0
4449 2283 0
-8631 2624 0
-15428 -9057 0
-15281 -4122 0
-4361 -15448 0
-3077 13064 0
4217 8518 0
14325 -3061 0
-14632 14789 0
-7601 -14501 0
-13348 -3984 0
-2370 2370 0
-9320 14248 0
13090 6926 0
-402 -15003 0
8991 11290 0
-14299 13948 0
12994 -6775 0
-6135 12881 0
-5068 2617 0
1776 -9147 0
4686 -8483 0
-7521 -7703 0
11095 -9015 0
10707 8946 0
15493 8280 0
6593 -5955 0
5040 10788 0
7994 2432 0
-4514 14754 0
-10067 10288 0
9266 14395 0
-6874 10896 0
-561 -2491 0
11324 -5794 0
-1081 12350 0
13208 12788 0
3609 -8037 0
-13209 8451 0
-1817 10049 0
10823 931 0
596 -10659 0
-12618 -1995 0
15095 -12060 0
-8294 4480 0
-6851 -6616 0
-11164 -4180 0
-2277 -3213 0
-2578 5202 0
-4693 -1029 0
3918 -8913 0
6120 2902 0
14010 -11588 0
-9916 784 0
-15270 9741 0
-10721 -5692 0
-4024 -10577 0
9495 -8538 0
5438 -10618 0
-12239 4955 0
7096 6637 0
11725 -5094 0
-14776 14854 0
-15170 9028 0
-5646 6934 0
5723 -7523 0
-8028 -5452 0
-11141 2986 0
-11286 5349 0
5202 14157 0
6440 2788 0
-12771 -12294 0
-8787 9157 0
-6559 14694 0
-3487 -2217 0
-12748 -461 0
11080 1518 0
-6796 -10356 0
9743 -11393 0
-14708 9234 0
4846 -7593 0
-14607 -9976 0
10407 6701 0
12767 -3247 0
-14262 -13041 0
-7079 -1843 0
-1787 -9711 0
-8855 -9019 0
-213 9537 0
2012 1030 0
-2866 1812 0
6126 4941 0
13210 -2907 0
1417 10520 0
13805 -8111 0
-3200 5006 0
-5411 14111 0
11798 264 0
-12736 13691 0
1554 -1599 0
471 14856 0
-1806 -2330 0
6750 -9455 0
11739 -10473 0
-4998 8136 0
-3613 15424 0
-11132 6544 0
6104 6009 0
-4126 1732 0
3504 -6625 0
5890 -14840 0
-5180 214 0
6166 -1373 0
949 14114 0
14232 5643 0
11607 4442 0
-6563 -14977 0
-1576 13619 0
-8677 -2542 0
-2991 -7713 0
8818 13871 0
-11526 2890 0
10668 -7048 0
5949 -9842 0
-7111 -6113 0
-14339 2296 0
6121 12765 0
14320 3796 0
5063 -1482 0
2735 7702 0
-3415 -2196 0
-13608 -14183 0
8285 12554 0
8400 -4483 0
-6202 5694 0
-4935 -2502 0
15093 -8435 0
8597 -3971 0
-1876 1892 0
2362 -12437 0
-3287 -14437 0
-4573 -4931 0
1347 -11130 0
-13811 13628 0
-4752 -604 0
3899 -7367 0
3789 2031 0
1178 9793 0
10167 9223 0
1825 12380 0
-352 -12120 0
15275 -2329 0
-13714 -6897 0
-9074 5662 0
9501 -6784 0
-3447 7206 0
-4725 -3158 0
-8186 -9976 0
-9384 6823 0
-12343 1161 0
-10972 6665 0
6491 14770 0
13154 -651 0
11824 -12560 0
5043 -12520 0
-6931 -8130 0
4452 7123 0
-162 -13605 0
426 4880 0
4854 -7832 0
7449 -1172 0
4081 6165 0
263 -11859 0
-14922 -10472 0
2074 -9507 0
14214 5279 0
2778 -2446 0
-5403 -8894 0
-6645 6696 0
-6259 -3792 0
-6559 11698 0
15310 8579 0
-11717 -4051 0
-7858 -4005 0
14526 -11051 0
-12933 1059 0
-11187 -11834 0
1632 2020 0
14859 1349 0
-10181 9473 0
5432 -2094 0
15007 3768 0
-2875 -13864 0
-11046 -1864 0
13822 -6162 0
-7111 -12676 0
11564 6768 0
-2478 -9942 0
989 -6441 0
682 -5114 0
-8594 -3828 0
15545 -2520 0
13272 7064 0
-8588 5085 0
5495 -8885 0
-4786 8149 0
-10248 -11891 0
8863 14651 0
9013 -15227 0
11494 3415 0
9183 -5504 0
390 13110 0
-6682 -14479 0
7679 -1782 0
6703 -2583 0
-3781 12065 0
-13230 -236 0
79 -14215 0
12567 9270 0
-12364 11040 0
2576 -8199 0
8277 -12356 0
-6748 1676 0
8863 -9712 0
-4573 2568 0
-13003 -74 0
-2325 10232 0
-6347 -13208 0
-14956 -11216 0
-333 14921 0
12431 6381 0
10591 5693 0
-12518 -2705 0
14642 -3369 0
-2769 -8892 0
1384 8631 0
-3821 -4926 0
3127 5339 0
-8274 -1937 0
5521 15047 0
-14939 6737 0
11914 -1990 0
-2603 12377 0
13746 9045 0
-2367 -7962 0
-10915 14791 0
13409 -7470 0
-3809 4220 0
3550 13754 0
4810 -5281 0
-15219 -3089 0
9091 8175 0
-10866 -7652 0
-8379 13326 0
-813 -13968 0
8023 12338 0
-13145 -4898 0
-6444 1287 0
-13548 2180 0
-14516 11684 0
-15166 -1279 0
1386 5604 0
-3126 -15063 0
611 -4332 0
-47 -11905 0
-8466 8244 0
11095 -6269 0
3674 -12308 0
-7205 -5174 0
6138 4176 0
-3466 -9814 0
4891 -6202 0
-10847 11746 0
-9577 -1789 0
-14101 2007 0
6515 -218 0
-11236 12568 0
-7380 7818 0
11585 2748 0
577 -3265 0
-13641 3859 0
-1997 11703 0
9583 -7378 0
11664 -7150 0
3765 -11565 0
15106 6397 0
2878 -9745 0
2046 -14562 0
11248 -13102 0
14164 -6462 0
3641 -4020 0
11441 6700 0
-13432 -4181 0
6333 -10290 0
-9686 8943 0
-995 -5478 0
-3093 8227 0
7237 589 0
-7758 -13448 0
5751 806 0
-4533 -4716 0
5466 3016 0
3995 -1409 0
-13767 14609 0
15562 1486 0
-9562 2592 0
-4323 211 0
8589 -6329 0
11778 -1211 0
-12819 12026 0
-12426 351 0
12387 6486 0
5672 8739 0
11789 14237 0
-4262 10013 0
-9161 2218 0
-11582 4644 0
4993 -13401 0
3904 -13900 0
12928 6445 0
-9631 10733 0
7628 13176 0
-11849 -7222 0
5389 11345 0
12281 14530 0
4828 -14695 0
-8518 1525 0
3272 5800 0
14642 -8369 0
2332 -2401 0
-14067 -5902 0
10682 -699 0
2464 1084 0
1000 -11288 0
7634 4116 0
-1223 1919 0
9921 624 0
11732 12330 0
-3772 11372 0
1191 -2430 0
-400 -11547 0
-90 8249 0
11740 6955 0
-4999 2756 0
8494 -13173 0
14766 -10239 0
-14456 -14269 0
13589 -9816 0
12549 2184 0
-2334 -8430 0
-8371 -5168 0
-11931 -13107 0
-15317 556 0
-5542 13187 0
-2196 6606 0
4375 3310 0
13696 -702 0
3831 -13105 0
-8562 10506 0
4586 11547 0
8241 5481 0
-6585 -3348 0
-13406 12437 0
-8000 -3166 0
-8508 1088 0
-9519 -39 0
-8691 6837 0
15371 -8026 0
-5349 7606 0
-15105 7042 0
-15105 5725 0
-15558 7506 0
-85 14284 0
2380 -847 0
-9701 9324 0
-7589 -11655 0
-3108 -5338 0
-9728 -15132 0
8706 -2853 0
4468 11758 0
8333 -3288 0
-14030 11377 0
7274 -1146 0
1080 -9580 0
-7463 3973 0
1096 9004 0
-7706 10576 0
-8977 -8155 0
8035 12043 0
-14733 -1253 0
-6479 -9207 0
-5740 8799 0
-15102 -14166 0
10205 12906 0
2065 14974 0
-6812 12603 0
2799 11639 0
-11331 -7677 0
10646 3652 0
-9581 4559 0
5592 -5057 0
1721 2113 0
-9207 6789 0
-6898 -10757 0
5744 -10531 0
-6642 -11184 0
7606 12832 0
-6519 7204 0
8021 -5036 0
-1793 2987 0
-9652 13889 0
7035 -4402 0
-3354 10218 0
-6928 6315 0
15505 6335 0
-3527 -1474 0
-3061 13153 0
7106 -2866 0
-14308 -9682 0
9257 -6342 0
-10679 5728 0
-8501 -2973 0
4749 -11544 0
3869 -1695 0
7167 5437 0
9659 4360 0
-1124 -10734 0
1023 -12686 0
12397 11683 0
-2222 9069 0
-3403 2253 0
8958 15414 0
15004 -11110 0
-9506 -6702 0
8058 -14325 0
933 -14367 0
-9728 9724 0
4827 -760 0
5447 -11317 0
7543 11480 0
15549 -3771 0
-8342 -767 0
-5830 -2355 0
2711 -485 0
6309 -11890 0
9541 12603 0
-9806 1050 0
-13566 7230 0
13869 12273 0
8054 4625 0
-1588 5231 0
-13860 -2768 0
5376 10330 0
-7190 8896 0
6957 -11968 0
-2149 11737 0
-13616 -6733 0
4666 -4666 0
14376 -6514 0
9151 1156 0
15224 11987 0
12818 15026 0
-14944 15471 0
-1916 1084 0
26 13804 0
8777 12492 0
-10884 -11148 0
3319 10918 0
6193 9101 0
2970 1417 0
14789 -1515 0
4028 -6949 0
-13361 -5783 0
2099 11833 0
4519 5147 0
-10826 7921 0
5279 11508 0
8722 -12999 0
350 13181 0
-11061 -10530 0
6054 198 0
9397 -2160 0
3494 -11755 0
14332 13009 0
964 -15307 0
-2781 14371 0
-4229 -13256 0
10625 -14639 0
-11312 -10911 0
6199 7903 0
15122 3012 0
-14811 4980 0
6120 -15282 0
-5443 -9718 0
14004 -7960 0
8414 1652 0
562 -1103 0
6278 9797 0
9789 13267 0
-3422 -168 0
-8879 10668 0
11608 -9684 0
-3087 -2603 0
-12856 1368 0
-7082 -14933 0
4437 -6652 0
3975 -11060 0
4751 -9036 0
15121 1523 0
13661 5858 0
10419 -5922 0
7840 820 0
-2208 -11541 0
-6543 8696 0
517 12211 0
-9872 135 0
-6145 7534 0
2182 -6009 0
-7845 -950 0
12944 4758 0
-3324 5825 0
3931 3234 0
1242 -3574 0
-3296 -6949 0
-11905 -4763 0
3626 6496 0
8263 -14489 0
-894 -815 0
11178 10646 0
-10710 9187 0
14505 8842 0
7480 8552 0
-5641 -9088 0
-5259 -5355 0
-9515 -1836 0
3524 -3122 0
-12067 1243 0
4507 1501 0
11126 5004 0
-8280 11583 0
3439 12845 0
-11069 5926 0
-13327 -6685 0
7612 13735 0
-13153 4622 0
571 1945 0
12103 4357 0
4030 -7207 0
-10441 -9452 0
-15376 -9215 0
10655 -7453 0
11143 13178 0
-3084 -12606 0
14350 3573 0
15155 3837 0
-5978 7405 0
12611 -8411 0
-6790 -15290 0
-8562 10760 0
3778 14186 0
-11241 -8164 0
-6357 -406 0
-8985 -6877 0
-6775 14424 0
1978 -12002 0
7556 -3926 0
14058 2705 0
13268 6476 0
9031 -10381 0
-7373 -11089 0
-10485 -5326 0
3829 534 0
-8268 -5096 0
-3753 -5714 0
-4773 12666 0
14147 3151 0
-14048 -4213 0
-13592 -5631 0
-5258 1050 0
-13848 8614 0
-13465 -9116 0
8335 12172 0
10582 12584 0
14876 -8645 0
-8719 13563 0
-12847 -12949 0
-11477 -13854 0
14167 -15042 0
4430 -11587 0
4184 7707 0
-10651 4768 0
-2458 -5955 0
3918 -1834 0
-12016 -12495 0
1983 3067 0
4266 7028 0
-2015 -7336 0
-1888 13384 0
-8838 -14308 0
7011 7489 0
-4551 -14784 0
-33 -5508 0
14302 -499 0
-10153 -1625 0
-14201 5950 0
7321 -6700 0
1676 5146 0
4278 -13119 0
-5151 -7991 0
12049 -5874 0
-3357 11141 0
9373 10824 0
-7842 780 0
4290 -2342 0
-4486 -8740 0
12405 194 0
5775 1792 0
-11818 12883 0
1583 12135 0
11398 9370 0
-7790 8952 0
8975 -9936 0
-3335 -7911 0
-11405 9730 0
11111 -11019 0
-2577 4155 0
13058 -11856 0
-13973 2395 0
-11981 -6344 0
8674 12803 0
-8787 -6037 0
-8781 -13728 0
-2301 9409 0
-12517 -6024 0
7386 -14332 0
4291 9379 0
4761 15192 0
5672 2438 0
7936 12751 0
-12444 -4703 0
2216 5867 0
5607 14574 0
-11398 1006 0
-695 -10803 0
-3098 2686 0
-5439 2729 0
-7383 -7413 0
-11849 8104 0
-3722 5622 0
9071 -13734 0
-14446 573 0
2791 5674 0
-1248 5802 0
-14250 -15235 0
-14143 -2522 0
-7497 -8240 0
-2580 5728 0
9335 -5048 0
-10266 -642 0
-7189 -5677 0
-11809 12952 0
5574 -14889 0
-13842 -295 0
-786 -8851 0
-14627 2633 0
9366 15110 0
-9767 6527 0
-5493 -5750 0
-2223 -3514 0
-11712 15370 0
11397 -6717 0
-1479 -10673 0
-3500 -2146 0
11798 1956 0
14912 -14849 0
-5104 -8695 0
-3435 14530 0
-14225 -9423 0
6594 4821 0
-1942 -9916 0
-6625 4754 0
-15493 -8314 0
177 -12855 0
7729 3351 0
7574 -15391 0
3316 15003 0
-14967 12831 0
6931 9259 0
-13095 670 0
-1040 -5022 0
1323 4203 0
15211 12645 0
-12093 -6173 0
-3163 -1841 0
1887 -6269 0
-6163 -12145 0
-878 11446 0
-3863 9270 0
-4319 7713 0
6849 2921 0
10086 642 0
-826 6799 0
-9632 -5126 0
10247 -7962 0
-2567 2406 0
140 2063 0
2205 -2265 0
4994 -4389 0
-1246 -2143 0
-9692 -12930 0
12680 -12688 0
9426 -9960 0
-11573 1124 0
-7729 10200 0
-14232 -5895 0
7405 14330 0
7809 10645 0
8394 -4498 0
9045 4594 0
10612 10795 0
5308 2740 0
859 -14639 0
-2344 4654 0
-1206 -9481 0
11976 7115 0
15 -2138 0
8877 -10023 0
-12454 -8667 0
-8379 -7330 0
-6989 -1398 0
-306 -3996 0
3844 -12029 0
-10045 -4512 0
-9948 -2253 0
6520 2581 0
4181 4339 0
-2211 -12884 0
-2309 -14775 0
-11112 1548 0
12167 -1705 0
13470 -6632 0
13696 7137 0
6281 8038 0
5656 -3598 0
10931 2045 0
-8749 -6162 0
-2627 4452 0
-14458 131 0
10958 12673 0
8323 14441 0
2007 -9796 0
-2397 2557 0
2116 10430 0
-5398 -2626 0
9519 1638 0
3711 -14132 0
6822 14897 0
-8282 -13165 0
-13269 -13616 0
-13720 2850 0
4015 -4608 0
8440 5526 0
6637 -8489 0
5334 -10961 0
-10311 -8000 0
11075 -265 0
-7196 8618 0
-7579 -75 0
-3812 2925 0
-748 12326 0
4352 7215 0
14291 2338 0
-3929 10883 0
5152 9875 0
6186 2611 0
13740 -12179 0
10443 -191 0
-4304 -6834 0
5902 14304 0
2788 -11242 0
9986 5249 0
-987 12296 0
10557 2590 0
9769 -376 0
9012 10170 0
10891 5717 0
-742 -11793 0
15059 13251 0
4254 -5543 0
-4716 14652 0
777 -14189 0
10433 7509 0
-7749 -3323 0
1234 10703 0
6110 -9937 0
-7524 -13953 0
305 13357 0
13102 -10604 0
-12905 -3240 0
-8348 9625 0
-11619 -544 0
2315 2612 0
12011 7157 0
6193 -14179 0
-963 1235 0
-3470 1284 0
-13542 -12260 0
13821 -5174 0
-13759 -10320 0
-2242 -10800 0
-8546 -10931 0
-4338 7556 0
5912 -9533 0
4115 2727 0
-8554 -2904 0
6750 2947 0
7172 12617 0
-15300 -6559 0
8239 -4160 0
-14318 -5270 0
-5474 10187 0
2012 -11685 0
-11576 -14099 0
-7476 -5585 0
-426 -4382 0
13741 5971 0
-13104 -7050 0
9113 2685 0
-9112 6661 0
-14888 -12650 0
-7577 14596 0
313 4629 0
-1086 -3039 0
10029 -4799 0
-13602 8445 0
-3217 9031 0
3863 42 0
2504 -2454 0
3286 -5465 0
960 3982 0
13329 -5915 0
1485 -11827 0
-11568 -2046 0
-7791 3441 0
-7251 -8423 0
955 -6483 0
-8814 1693 0
-7345 -13003 0
3104 4827 0
15481 10636 0
6558 -865 0
14515 11538 0
13286 9140 0
4793 -14851 0
-499 -8762 0
7984 4608 0
12765 12713 0
-1140 8844 0
11531 719 0
-6107 -4945 0
6512 3558 0
15152 5069 0
10191 12378 0
11901 2094 0
10610 6602 0
-6509 7362 0
-7824 538 0
14875 8538 0
-14986 -3968 0
15296 -10583 0
10154 2655 0
9261 -9941 0
8200 5813 0
-14343 3570 0
4183 -14967 0
-10997 2229 0
1960 -11067 0
-7277 -9391 0
2973 8266 0
3208 -4904 0
2425 13446 0
-13502 63 0
-4861 15574 0
289 8034 0
-10654 -5099 0
15407 12429 0
14897 8868 0
-11722 -502 0
7203 -5402 0
1948 -2191 0
-1769 -7860 0
-4010 10701 0
3837 -1736 0
948 -8829 0
8797 11 0
-12575 2786 0
-5547 12888 0
-7114 -2215 0
8751 3645 0
-7449 -6232 0
-6390 6660 0
6453 11623 0
4609 15292 0
10428 -1642 0
13526 -4091 0
2357 -13307 0
-11536 6703 0
-14689 9329 0
-6943 -4921 0
-3726 -7021 0
6201 1323 0
-53 -15462 0
-1720 -10879 0
-1955 12832 0
11891 -2905 0
4214 -8811 0
-3819 9553 0
667 -4270 0
-15372 -5397 0
-187 12031 0
6729 -12752 0
9684 -1671 0
2751 -14788 0
13856 9991 0
-10596 -14880 0
6676 1283 0
87 2878 0
10837 418 0
976 4496 0
1503 2134 0
11920 -4100 0
5613 -4212 0
5376 -10769 0
8776 498 0
1592 10422 0
3520 3542 0
3478 1847 0
2274 -2956 0
-10320 3339 0
12029 -7805 0
-962 -15101 0
4867 3808 0
-11994 5106 0
13230 4743 0
6582 12795 0
3869 -628 0
9877 6485 0
2627 -31 0
8776 5954 0
7781 -11712 0
-9080 -13724 0
6511 13217 0
2574 -6212 0
-594 -4045 0
9253 12751 0
2485 1330 0
-6266 8639 0
11723 -14780 0
12788 11211 0
15032 -14175 0
-5204 -5410 0
-2944 9258 0
4373 8235 0
-4182 9879 0
11724 -6220 0
-3965 -3642 0
12824 -2843 0
13091 10909 0
-789 -6345 0
12693 -13592 0
-15367 382 0
11382 10629 0
-8448 10787 0
1596 -7361 0
13027 -8172 0
-15444 12650 0
4943 -5464 0
1695 4996 0
-13496 4342 0
12510 -9052 0
8512 6371 0
-13013 -8341 0
-1093 3847 0
8453 -13859 0
12056 -11378 0
-6272 7540 0
-8104 9491 0
-4556 2758 0
-8831 -10230 0
-623 -6461 0
-1096 -10441 0
-3184 4335 0
-7567 8384 0
14657 1705 0
-12062 -10423 0
-11690 5537 0
9797 -11605 0
8285 -11905 0
10031 -5720 0
4004 4770 0
-10381 14451 0
-9843 4053 0
-4715 -14862 0
11618 5498 0
-10164 -6761 0
-10597 -8179 0
-11014 14553 0
15192 12020 0
-1739 -3572 0
-1985 7035 0
1933 -12132 0
-12258 10500 0
5006 10413 0
-13040 -11442 0
-2819 -13772 0
8363 -6765 0
1301 -14916 0
-4490 10135 0
-4221 12862 0
1301 3631 0
-5184 703 0
-5975 4916 0
-7753 13769 0
-9163 -5257 0
-6408 4294 0
4805 -14180 0
15417 -3033 0
-15272 -5072 0
8457 15049 0
12785 -7918 0
-8199 5281 0
5495 -780 0
-3615 -5392 0
-5209 803 0
13134 -1009 0
-15281 -11356 0
-1943 -13900 0
959 -12737 0
-1066 -12509 0
15064 -2022 0
14357 -12616 0
-5292 6499 0
3761 14512 0
-1549 5843 0
-10839 -11947 0
-14818 11578 0
-13510 -11204 0
-8324 -3064 0
11516 -3135 0
-14078 -11814 0
-2951 6377 0
-9444 -12920 0
4097 14567 0
-5973 7233 0
5498 8246 0
1331 5007 0
-11947 12162 0
-319 -6267 0
4888 -12645 0
-7717 5846 0
7005 2128 0
-12217 -883 0
-11018 188 0
-3489 -5029 0
9650 12625 0
3222 -869 0
12588 1300 0
-937 -9632 0
-8933 13144 0
10286 -10555 0
-4439 -12159 0
2425 -2465 0
-4171 -5493 0
14747 -10517 0
834 10587 0
-6254 -13079 0
-3155 2376 0
12882 -8668 0
-14409 11148 0
-3375 -5975 0
-7082 -9226 0
-12414 -1897 0
1271 5408 0
14940 -4539 0
-9354 13897 0
12202 13919 0
-12647 116 0
4475 8730 0
1032 -14679 0
3638 -7106 0
-11122 -5612 0
-11370 4658 0
-840 -12922 0
-2674 7005 0
14591 2319 0
-10869 -14967 0
4597 -7986 0
5394 -6097 0
6426 3831 0
10735 7544 0
-10249 -3440 0
-6780 -316 0
7528 8469 0
-5110 -2283 0
6141 -5689 0
2706 15165 0
3364 -471 0
6438 5719 0
7334 14556 0
4876 -7677 0
5158 -11804 0
-3274 11158 0
5729 -13359 0
-8380 147 0
-12842 15378 0
15531 -1131 0
7057 -14142 0
10062 -11018 0
-9520 957 0
-2985 2730 0
6237 -14766 0
13313 10776 0
1153 -10915 0
-10518 1465 0
-10380 1412 0
754 15425 0
-547 -3450 0
15084 -5667 0
3839 14448 0
-6445 98 0
3268 7337 0
-8459 13457 0
4526 1059 0
-13672 -680 0
-8433 -7178 0
7774 12578 0
-9079 -8199 0
-2337 11912 0
-4840 -7026 0
-11712 -6918 0
-9971 10499 0
6341 399 0
12653 -5893 0
14700 -11752 0
4191 -11243 0
-4419 14209 0
13851 -9291 0
-10028 12399 0
-12361 3327 0
-830 -15 0
1272 3720 0
825 12009 0
-2587 -12401 0
14813 -4959 0
-12939 -9440 0
14258 -3539 0
-404 -14065 0
8720 2767 0
-12667 1168 0
-13444 1990 0
10143 11234 0
-12312 2136 0
15511 421 0
4455 -8937 0
-7296 -6189 0
-1733 -841 0
9970 188 0
-14813 6024 0
-13725 -15001 0
3536 14417 0
-7054 10764 0
9127 -5720 0
12781 15105 0
-14045 14389 0
-10020 10592 0
8930 -570 0
-12548 -11576 0
-4813 -6929 0
8582 4640 0
3113 2840 0
2572 -11830 0
12238 -3181 0
10534 2171 0
13287 1143 0
-507 10291 0
-13459 -11304 0
-5409 4640 0
-13905 -6715 0
8559 -9197 0
7492 -11700 0
7510 673 0
12387 -9328 0
1967 2988 0
-3060 -6970 0
11579 11443 0
10377 -3459 0
11072 -6802 0
-5759 -12149 0
-9430 -5161 0
-5861 10853 0
1880 -1372 0
13971 10460 0
-2779 -13232 0
-12232 -9788 0
-6608 -15069 0
11120 3015 0
-5004 -9391 0
-12474 -6123 0
11235 -6097 0
-7501 -5040 0
14682 8675 0
-8405 12316 0
-7039 -9865 0
-7077 5974 0
12981 -3056 0
-1658 7164 0
-11262 -9455 0
14100 8285 0
-5389 -8394 0
-9824 -6860 0
-2531 9087 0
-8778 -7153 0
3344 -12509 0
-14101 9493 0
1552 -3182 0
14030 6895 0
7370 -8162 0
2662 -14838 0
-8113 11993 0
7885 -12068 0
10060 5529 0
8866 -10371 0
-1636 -13565 0
10254 -15269 0
5501 3393 0
9333 6629 0
-5337 -11771 0
-2165 5319 0
10520 7920 0
-3515 13425 0
14097 12427 0
11348 -4528 0
-7361 4662 0
10188 -6214 0
1445 -13537 0
3151 7815 0
5078 9032 0
2238 12749 0
3138 14541 0
9975 -11023 0
6252 7300 0
9038 8892 0
8174 -3427 0
-8064 7342 0
14294 -6846 0
-13803 -4582 0
-9162 -5031 0
304 14332 0
6432 -5237 0
-4753 -10236 0
-3793 5285 0
-14437 1114 0
-12833 -15048 0
1458 -6726 0
5118 -13289 0
-142 -4790 0
6207 -11128 0
-8504 -3333 0
12992 303 0
7055 3954 0
9790 6911 0
-1842 3294 0
-13355 34 0
-13542 10175 0
-12757 2782 0
3796 10362 0
2614 15361 0
-9785 6637 0
-7270 9734 0
11579 4029 0
14566 -10336 0
-7092 6724 0
-5109 -127 0
-2355 5192 0
4157 7782 0
-5555 -580 0
-4452 6853 0
-12382 4457 0
-14915 12970 0
5733 -12363 0
-11570 1502 0
7682 -3781 0
-8997 15509 0
12307 -5243 0
7059 8734 0
-9368 6494 0
-6287 -9891 0
8921 -8094 0
-9888 -15367 0
9297 -13927 0
3333 -586 0
-6115 -5649 0
-6510 7384 0
4083 -12190 0
-1704 -12603 0
-9580 7158 0
7587 -10888 0
5178 -12168 0
-1896 -857 0
-9829 -4393 0
-2752 -13654 0
-1064 2456 0
-9453 10682 0
-2577 -4511 0
-14469 5309 0
-7041 810 0
10671 6974 0
1433 -5103 0
8113 6248 0
1562 15530 0
-10845 -8901 0
702 -3292 0
-704 -5396 0
10957 -3107 0
-1873 6290 0
-2501 14513 0
-8982 7015 0
9763 3668 0
1611 -8365 0
9876 -2831 0
5633 3022 0
-9775 -3515 0
-10140 2056 0
15093 -5857 0
12671 2124 0
-6166 -7037 0
-15320 14572 0
-11651 15126 0
-12525 -12151 0
-8901 -5455 0
-584 8900 0
13374 -6478 0
3883 -513 0
-1397 14779 0
7785 -73 0
-10148 -4313 0
-12124 11832 0
14828 -2037 0
15142 3094 0
528 10927 0
2531 -3376 0
-10028 -13893 0
-8477 -6780 0
7299 -3436 0
4615 5486 0
-2375 6237 0
-2151 -12375 0
-5051 8076 0
-14605 -10788 0
7786 -7966 0
14585 3031 0
-12029 -4014 0
-11629 -15414 0
-5448 12463 0
-5587 8166 0
6008 1472 0
12309 7068 0
-1023 12857 0
-7859 -6867 0
10174 -10562 0
66 -8708 0
-13796 -11831 0
-325 -5803 0
-3761 -6064 0
-4484 -11812 0
10824 2792 0
-6677 14255 0
12048 2936 0
12821 -6314 0
5025 -6827 0
1271 13265 0
4018 9802 0
1012 10292 0
-1787 -1405 0
5126 -896 0
6774 15293 0
-2646 -11731 0
5324 6141 0
13735 9401 0
7050 -2687 0
-8139 8486 0
-5507 -14460 0
5159 -2139 0
7211 -12435 0
4731 3780 0
-3394 1992 0
-9737 8024 0
-798 -12339 0
-14006 772 0
13769 -8960 0
-6192 -9826 0
4243 7975 0
15559 -14664 0
2236 -12848 0
10280 -90 0
-120 -112 0
-2399 8469 0
11179 -3992 0
-10351 2324 0
1643 14619 0
7226 -13418 0
-5783 8967 0
14569 -3717 0
-3287 10582 0
-3394 11703 0
191 10833 0
-12092 -13127 0
1529 -798 0
-2449 751 0
14239 -6503 0
2063 -15561 0
6213 5126 0
4950 6486 0
5447 -8336 0
-12114 1950 0
-13807 -10202 0
13724 5227 0
-8201 9672 0
3945 -10765 0
8085 7905 0
1547 3588 0
2118 -12199 0
-14713 -10835 0
10400 -2173 0
7283 4750 0
13996 12637 0
13560 -8897 0
15454 -4606 0
-553 -4326 0
-14098 13731 0
-11766 -12095 0
1056 866 0
-3883 -7707 0
10671 4559 0
10590 14037 0
-1734 -10676 0
15341 590 0
-15476 9514 0
-11362 14218 0
5671 2836 0
5840 -1389 0
-14224 9058 0
-14288 2722 0
-155 -12450 0
404 598 0
8606 2840 0
11911 -10141 0
13883 -4579 0
-6597 2519 0
-14188 -7771 0
-9317 950 0
1048 -11394 0
-6788 -13289 0
6035 3569 0
-1427 10144 0
-2510 10527 0
9307 11040 0
-1217 -11989 0
4606 -8993 0
5147 -10721 0
-12207 9680 0
-15028 4918 0
7938 11681 0
-7234 4177 0
-3699 -4268 0
3231 -2541 0
-3269 12488 0
-6808 6789 0
9447 11979 0
-361 -4660 0
-5190 13296 0
4496 -10103 0
14310 13964 0
11232 -12905 0
-9363 6099 0
-12317 12603 0
852 -108 0
1823 13629 0
1287 -13846 0
4911 -1625 0
521 10835 0
-13390 10253 0
-3636 11486 0
-10585 -8243 0
3876 12314 0
1704 540 0
-14959 -5808 0
6291 -12999 0
14351 -8724 0
851 2997 0
-6182 -15424 0
-11356 -7351 0
-12021 -2877 0
12170 -6169 0
7074 11559 0
-12955 2038 0
-2137 -15145 0
8736 8187 0
8656 -5938 0
6861 -5165 0
-11361 -8484 0
3719 4499 0
-14729 13463 0
6153 13753 0
3120 1789 0
-12778 4314 0
7879 -13213 0
-1728 -8589 0
8347 11413 0
1836 -5409 0
-4534 -14822 0
-8101 13908 0
-6958 -9005 0
-7839 -7903 0
13220 -1069 0
10139 2308 0
10689 13273 0
7010 -261 0
-4333 5573 0
-13959 6874 0
9872 12357 0
514 -4416 0
3225 -1760 0
13167 14250 0
6 -8299 0
-10330 -12489 0
-3529 -5803 0
-10547 -8679 0
-6640 -8353 0
-15501 3233 0
4052 -3570 0
-9788 12619 0
1634 -2616 0
-13362 -1754 0
-10769 277 0
-106 8593 0
-14461 -13744 0
6084 10033 0
-6817 398 0
4368 2083 0
15428 -12584 0
-14115 -11015 0
-5419 -15501 0
-12400 13127 0
-2783 9940 0
-1027 -2943 0
50 10421 0
-38 -14941 0
-1183 10381 0
-11092 -13066 0
-5123 7244 0
3558 -14701 0
-2264 6706 0
-2760 -11665 0
-2022 12103 0
-4081 -559 0
-6287 -13312 0
4559 3859 0
14039 -3423 0
-1313 13732 0
-3444 -14286 0
8456 8345 0
4632 -6187 0
11549 -4050 0
9430 1364 0
8245 -10993 0
11343 -14052 0
3325 14186 0
1804 6317 0
-3158 5091 0
2452 2874 0
12158 -14729 0
-4677 4252 0
8104 -7565 0
-3478 7339 0
-7627 12588 0
1845 -7724 0
-5393 10904 0
-473 -14272 0
-2276 1117 0
13759 7533 0
8274 15158 0
-1860 6097 0
15080 12781 0
-13640 -1608 0
8525 -10829 0
-5493 -4837 0
-3904 9883 0
7563 1770 0
9972 -2240 0
11702 14249 0
-3173 -11221 0
-7964 5737 0
2860 3759 0
-6516 -8217 0
2727 1453 0
-1906 3107 0
-15021 -11862 0
1786 1670 0
6442 2485 0
-8506 -15269 0
-2675 -11038 0
-132 -14322 0
-3042 -2078 0
14738 7048 0
6311 11534 0
13870 11524 0
-6375 -4909 0
-5997 8386 0
9503 13670 0
-8171 -2322 0
2880 8208 0
10009 11901 0
-2062 2535 0
-7736 3267 0
-3322 251 0
-3048 -2860 0
4650 -1498 0
10474 10905 0
14999 6384 0
-14905 -13791 0
-13430 -1359 0
6601 7670 0
-8982 -1192 0
8570 -1381 0
-11338 -13998 0
5549 8169 0
8936 12494 0
-15433 7319 0
2874 6253 0
8746 77 0
-9740 12365 0
1948 -5703 0
-12211 -10883 0
15019 -2456 0
-13424 11633 0
2178 11231 0
4197 6979 0
12175 1714 0
-10449 -11837 0
-468 6689 0
-6234 6701 0
-13396 10645 0
3982 3680 0
-8400 9199 0
-8209 -11019 0
7155 12124 0
-437 11791 0
-1290 -9567 0
-444 11472 0
-10259 10017 0
7712 -11827 0
14570 13593 0
11776 -11639 0
-6391 3127 0
-11180 6805 0
3434 -12792 0
-510 9023 0
-12286 8113 0
5339 -15323 0
-243 -1047 0
-6367 -7670 0
-8101 -4776 0
-10517 -6184 0
-6788 -3241 0
7685 9432 0
-14844 9802 0
3740 7337 0
8496 2386 0
10736 10696 0
-10240 -15460 0
-11118 -11637 0
3179 10781 0
-6620 -12999 0
12589 9954 0
6890 -68 0
-12293 4403 0
11919 6496 0
1827 -2929 0
13009 -9900 0
-11765 -8715 0
8134 10850 0
-3901 1098 0
10552 -1877 0
-12736 -11551 0
-12570 7913 0
11381 -1403 0
11897 14082 0
2742 -10979 0
2553 2182 0
-270 -9002 0
-361 12468 0
-10820 -11321 0
-2743 -12774 0
3035 7573 0
-15254 -14529 0
2584 13383 0
-470 12105 0
2914 8589 0
13287 -1381 0
-3563 -14672 0
-2747 14737 0
-2117 -1409 0
7644 -5754 0
-10836 -7562 0
6032 -15016 0
-3411 -11513 0
-10658 7688 0
-12722 4357 0
-10654 1494 0
-12709 14130 0
-7689 -410 0
-13055 -2400 0
-485 -4268 0
-6144 11689 0
-687 2388 0
2695 1616 0
13559 -1421 0
12208 -2458 0
-1547 15571 0
-5909 11786 0
-3713 9773 0
13591 -8051 0
11967 -2453 0
-290 -2817 0
1011 9754 0
14110 6452 0
-13681 -2912 0
-3892 -6795 0
-3083 4197 0
6479 -14678 0
10504 -7289 0
8309 14720 0
-7523 -11918 0
4657 3912 0
-526 -14935 0
2386 -9362 0
6079 6064 0
-4589 -12798 0
255 -8148 0
-6724 2038 0
14069 -5091 0
-2364 5546 0
6602 -6760 0
1062 -14066 0
-3651 -9111 0
-14546 12655 0
-7308 -14449 0
-5678 15023 0
-8937 8723 0
5725 6391 0
511 -2829 0
3758 14675 0
-14893 11344 0
1684 -2983 0
-11184 -8023 0
-9459 4682 0
3905 8633 0
11124 6258 0
8956 -10901 0
-10979 -8369 0
994 13217 0
12453 5079 0
-14248 10758 0
7099 -7088 0
-8946 11454 0
3161 -14032 0
3167 8420 0
-14621 -3792 0
2779 -8415 0
-7732 13669 0
-396 -11643 0
7270 -3156 0
-13103 -8710 0
8662 5367 0
-14943 12251 0
14653 -2601 0
6542 13867 0
436 -8741 0
-7615 15147 0
-5125 -7377 0
-13121 -1653 0
-11639 4641 0
14154 530 0
10437 -3171 0
-11393 -2602 0
11160 -2183 0
-13237 -8265 0
-14179 8875 0
1917 7813 0
4784 -4327 0
3759 -6530 0
12027 1113 0
7220 5160 0
-7593 -14061 0
1780 2591 0
11407 5743 0
-3087 -6825 0
11090 -936 0
-2610 11294 0
-813 13884 0
-13809 -12813 0
-7771 -8749 0
6102 10986 0
-193 -465 0
11038 5824 0
-3981 -4301 0
-10138 -819 0
-14033 6083 0
3178 9415 0
-2131 6936 0
-3260 7042 0
-4714 751 0
12043 9337 0
-13245 11158 0
-10038 -9505 0
-14858 5976 0
8203 10064 0
4824 -6656 0
-3774 -9295 0
-6895 -7888 0
11357 -52 0
-5382 4399 0
-12342 10766 0
14269 -6961 0
-3456 10303 0
7300 -8711 0
7400 360 0
-5156 -5903 0
-13577 1988 0
825 -10371 0
1171 -7963 0
-11676 -4462 0
-6647 -13771 0
684 -15316 0
15444 12485 0
7505 -12681 0
13958 1578 0
10528 -15363 0
9704 -3508 0
-888 -2505 0
3356 -10070 0
-94 -6887 0
3011 -5866 0
10929 11070 0
-13131 6923 0
-13506 -2125 0
14620 -544 0
1985 12928 0
-11486 5319 0
-761 -11056 0
1145 5863 0
9316 -11913 0
-322 -8631 0
-5044 11292 0
-11659 11557 0
-7053 -15260 0
9215 6388 0
-5272 2124 0
8710 -7008 0
155 -14207 0
4525 -7196 0
7780 -14669 0
-9084 -3487 0
14101 -14763 0
6333 -10763 0
14798 1292 0
-14399 -45 0
-4961 4345 0
-3328 11885 0
-13651 4110 0
13736 11232 0
-14861 6995 0
9789 12566 0
-1284 -1954 0
-15294 -2176 0
-81 7586 0
-1359 -13124 0
-4304 -15335 0
-13869 571 0
10416 -11941 0
10505 1518 0
8479 12994 0
-4277 14897 0
-8013 7752 0
13282 -1424 0
-3414 2316 0
-6884 -11265 0
10356 4089 0
-14297 2365 0
868 10035 0
-3265 -13698 0
10207 -6961 0
-12950 -7258 0
2422 2056 0
-13746 9639 0
-616 -4543 0
12553 8708 0
218 7355 0
15015 -15282 0
9613 -12843 0
-1219 -2711 0
-8121 11435 0
-1295 2159 0
11176 -5197 0
2286 6496 0
5108 1650 0
9049 -12282 0
-364 -7816 0
13338 13457 0
-2602 12890 0
-3255 4530 0
-4370 6768 0
10839 -8175 0
-9074 11982 0
8686 8408 0
-13101 -9940 0
9098 -12413 0
-11822 -5959 0
-8966 -812 0
-7691 5991 0
15092 -9237 0
-3510 13495 0
13342 -2721 0
-12113 10542 0
11492 11741 0
491 1272 0
6648 11317 0
10564 1260 0
-10730 -2578 0
12222 5163 0
-5960 5867 0
4516 6349 0
11074 -3646 0
7949 -253 0
-5910 -11627 0
-11794 -6603 0
-9468 2096 0
3795 14499 0
-3058 782 0
3591 -10821 0
5264 -2306 0
1922 -8132 0
-11642 9859 0
14255 -4606 0
10096 12652 0
759 5756 0
10566 15191 0
-14542 -14695 0
-1355 -13355 0
-1677 796 0
3645 -7817 0
-723 -14991 0
-10746 -14269 0
-5233 -10539 0
-10490 6984 0
8514 -8893 0
-3663 -10220 0
9242 -7292 0
14323 -9894 0
-3893 14640 0
12953 250 0
-1941 -11066 0
1108 -2917 0
-3863 4315 0
-10770 -3618 0
8067 -3215 0
9608 -4356 0
-11823 -4389 0
-1102 -8428 0
-5967 3193 0
986 -100 0
5675 8067 0
-6543 -1649 0
-14543 2446 0
6757 -12840 0
5263 12365 0
-11546 522 0
-3114 10889 0
11145 11579 0
-10220 -9291 0
-520 -6129 0
7886 -13371 0
7895 -15464 0
-4767 11141 0
10669 -14089 0
5189 10564 0
-15234 9392 0
11520 3619 0
12110 -1155 0
-5655 5821 0
13987 -14528 0
2712 -13553 0
-3545 -6192 0
-3504 -10996 0
6411 6403 0
6196 12055 0
2014 8109 0
-12830 -8442 0
5017 -2666 0
12201 -2433 0
5862 -6874 0
-14335 585 0
-5314 -1040 0
42 -11682 0
-10744 9786 0
-418 3512 0
12842 -2615 0
8797 -11261 0
-11931 -6950 0
-10746 -4800 0
-7674 5921 0
12294 -13411 0
10655 -2509 0
10249 12334 0
-13044 5498 0
-10621 -14185 0
-11368 15066 0
1168 -4989 0
-4221 5724 0
13230 -11118 0
15413 3863 0
13728 -11788 0
-1361 5795 0
6158 -13729 0
-11251 6410 0
-12178 -4724 0
-1024 -14887 0
9187 -12295 0
3502 -3996 0
4241 -4823 0
11956 -12004 0
12167 587 0
13972 -44 0
2302 3538 0
-10113 1051 0
-8311 13318 0
4327 6813 0
-13096 -7247 0
-7985 7516 0
-4057 4590 0
12157 -645 0
-15167 4454 0
270 141 0
3024 -2480 0
-3002 -12862 0
9190 -7129 0
-3759 11178 0
-58 -7748 0
10692 -1325 0
8547 1742 0
14904 -14935 0
-11517 -3199 0
-10859 7326 0
596 -1603 0
13841 -7399 0
-3486 10801 0
11782 -11836 0
-9852 6333 0
-5094 -6897 0
13418 8414 0
1472 8770 0
-12261 15125 0
9 15025 0
345 -14875 0
13982 5546 0
3678 -9468 0
10058 2477 0
-10485 -2174 0
-10441 -9285 0
-3810 -15530 0
3746 -2979 0
-6508 4525 0
6333 13158 0
5309 -2295 0
8725 -12001 0
-13369 -13311 0
12853 -3412 0
5939 -5596 0
-7069 -552 0
-3529 945 0
11142 -9001 0
-12792 8073 0
-6275 -1166 0
-12197 2045 0
4395 -11856 0
-2741 -3880 0
-1505 5825 0
2765 -12951 0
-5386 7516 0
-496 -7554 0
15020 -14763 0
-10415 -12178 0
-4131 8775 0
-9907 8748 0
6463 -6743 0
4259 6249 0
-9976 15361 0
2966 -13105 0
-3783 -9712 0
-7427 5748 0
-8334 -1626 0
5613 -13565 0
7313 4435 0
5854 15566 0
-7748 4507 0
-13993 5676 0
-7900 -11725 0
-9082 11543 0
-14380 10207 0
-2672 -8996 0
11071 -7746 0
2487 13597 0
7592 -5233 0
-6959 -9272 0
-13418 10406 0
15124 10960 0
1616 -6163 0
-4068 9109 0
1310 14840 0
-10626 -12865 0
-163 3194 0
11365 -4276 0
-9867 2152 0
-10748 14194 0
12807 13159 0
14935 10004 0
-10069 -13220 0
4698 8610 0
3675 -14920 0
5163 -7023 0
-9357 -4181 0
7586 -4911 0
12633 -2350 0
6640 6056 0
11121 5648 0
11109 9161 0
11253 -10878 0
6213 -4057 0
-3397 -4696 0
-4401 4377 0
10604 -14307 0
5752 12766 0
4243 11942 0
-13410 -4560 0
14408 -5885 0
-8715 1275 0
3923 6394 0
14440 -12896 0
-12485 -13323 0
-6600 -14888 0
-7515 -3023 0
2240 4 0
-8153 -3270 0
-7197 -10897 0
10642 6359 0
10846 10848 0
4994 -13198 0
2013 12643 0
-15096 9768 0
5620 -14670 0
2904 -2583 0
-7227 14105 0
2169 11148 0
5954 -1379 0
12380 4192 0
-13132 -1524 0
-2067 2116 0
7162 13774 0
-9699 -2011 0
-3143 -8744 0
-6845 14267 0
10778 13081 0
-2350 -3210 0
9720 -3950 0
-12627 9206 0
2821 13545 0
6320 -10196 0
9565 3967 0
13443 -2123 0
11871 -9548 0
-13563 12193 0
1854 5851 0
3575 6153 0
5529 -3235 0
-9629 -3777 0
7862 -1097 0
-12183 -10588 0
14786 4133 0
-14491 1229 0
14308 -11112 0
2473 8401 0
11749 6354 0
-9927 -6072 0
1010 -4185 0
10720 -845 0
14685 -4828 0
-2823 5136 0
-2699 9253 0
-7722 -2834 0
-13156 9360 0
2640 -12525 0
-5344 522 0
4388 2810 0
9301 11696 0
-12798 -10561 0
292 10582 0
9511 -3870 0
9249 -5877 0
-4707 -14853 0
12253 -12792 0
-9064 4228 0
9495 -4992 0
6993 1286 0
688 -5578 0
-11470 4901 0
-11880 14430 0
3234 -6406 0
-8920 -7056 0
14159 15006 0
-4495 6093 0
10600 14767 0
-14548 -10202 0
5605 -7877 0
4279 12502 0
5299 1173 0
-12426 4890 0
-14463 822 0
-6084 -1312 0
11211 -9247 0
-11487 -14405 0
10958 -4151 0
-12221 -3265 0
6924 -2908 0
14195 10617 0
5708 2381 0
13135 15353 0
7362 -2788 0
-14133 4586 0
9063 13707 0
-11629 -11100 0
4597 -6212 0
11011 8987 0
-289 4063 0
2359 5694 0
-7558 -9414 0
12844 6933 0
11214 -12934 0
-7078 -13874 0
6644 -12019 0
5384 -13672 0
-8804 -1312 0
-3224 6386 0
10050 -14211 0
-3699 5941 0
-10443 13733 0
2800 2617 0
-13960 -533 0
-12807 -11963 0
-10354 -14959 0
7948 -11585 0
6150 12788 0
-13511 5300 0
-9280 1189 0
1153 -14295 0
12352 -1146 0
54 -2813 0
3506 1034 0
8085 -1554 0
11100 -8908 0
360 5063 0
-12335 -719 0
13964 -6727 0
-2063 -14817 0
-4129 475 0
-6099 10407 0
5083 1138 0
753 8929 0
8120 5905 0
4490 2846 0
-9981 -5029 0
2935 -10902 0
-11367 -13486 0
-12412 -8862 0
-9412 4974 0
5474 -5916 0
-12390 -4483 0
-1155 -10794 0
9427 -11954 0
10199 2069 0
-14880 9447 0
-395 14078 0
-9354 -6602 0
2935 -14574 0
6199 5863 0
-3341 -14787 0
1152 2068 0
-13459 -7698 0
10981 -6826 0
-8241 11983 0
13290 -8684 0
2221 -5950 0
-590 -3628 0
-2844 -5398 0
10566 -14418 0
3569 -15209 0
-3490 1730 0
-11118 -1212 0
480 -13902 0
-5572 1410 0
-14001 -14109 0
-14293 2999 0
1144 3657 0
-9035 5218 0
13597 -13081 0
10301 -1718 0
3146 -14154 0
-10979 15050 0
-11437 3954 0
-11196 13058 0
14616 13495 0
-7043 -2309 0
4790 10870 0
7637 9514 0
5155 8276 0
-12688 -9343 0
-2770 -3246 0
-6374 7925 0
7842 -13986 0
11202 5823 0
-4217 -1985 0
-12207 7980 0
15203 -10399 0
-10651 1140 0
2361 -14728 0
1956 -5483 0
-11415 13483 0
14771 -4245 0
-8880 1187 0
-12741 -11973 0
9066 2373 0
-8584 -12971 0
-1032 -3442 0
-1521 -6561 0
1818 -4674 0
-227 -10088 0
-15022 -9504 0
-4397 6897 0
2860 -6174 0
-8378 8961 0
9601 2494 0
7184 -7753 0
1285 -13817 0
-4005 -12860 0
-13374 -11260 0
10781 582 0
-13388 -4055 0
5201 -8022 0
-4306 4724 0
8117 1635 0
-5359 -14511 0
-6114 8199 0
-11310 -7031 0
13784 8319 0
11360 1061 0
-3470 12971 0
657 11170 0
-6066 -6787 0
-14329 11251 0
13094 -15572 0
-6792 -13529 0
1821 -10956 0
7559 -913 0
-687 8001 0
7307 750 0
13215 13549 0
-10798 -10505 0
7045 -12488 0
4976 266 0
-2879 9851 0
-5162 -10997 0
4433 5340 0
11418 -14212 0
-1510 -14566 0
-5921 -15406 0
-4863 -11872 0
-7799 -3595 0
-9175 -10181 0
4869 7280 0
14828 -5856 0
4063 2904 0
4098 6949 0
6917 5393 0
14748 -9914 0
-561 -4928 0
-13201 1511 0
-7905 4108 0
11681 11916 0
-56 -6920 0
4938 -9461 0
4929 -8696 0
9925 -12076 0
-14745 9333 0
-2503 7803 0
15358 -11949 0
-1819 9182 0
1640 -1627 0
437 -5783 0
-8838 923 0
5719 -11364 0
7110 -15042 0
9864 -14133 0
-2935 -7810 0
13265 11374 0
7147 5806 0
524 11640 0
-12478 -11282 0
-11539 8808 0
12554 2149 0
-4589 -6001 0
10006 -5510 0
8059 9260 0
5215 7164 0
-1338 9519 0
4625 -13753 0
-14961 -4271 0
5946 -14178 0
10419 -13927 0
3152 -15056 0
8819 -7539 0
-4555 -583 0
11631 14091 0
-15287 46 0
14694 819 0
11301 -11721 0
-4038 -8307 0
1490 11483 0
8458 4902 0
-6959 3561 0
-5241 2031 0
2654 13642 0
-6864 -1234 0
-4635 -1202 0
-6484 -4931 0
-9508 -8256 0
-3256 -10179 0
14925 12465 0
-12385 -3265 0
-9861 -14367 0
9081 -9660 0
-7584 13838 0
15431 -15108 0
12113 -9147 0
-9428 12261 0
12302 -14836 0
-3057 -5116 0
-564 9234 0
-14131 7162 0
440 7742 0
-5660 -4629 0
2955 -5052 0
-8118 -7177 0
15271 -2393 0
-3895 -752 0
-12580 -426 0
-6029 -7992 0
1011 -6428 0
1892 -4711 0
10323 -717 0
-13770 10064 0
15032 14053 0
-13877 -5438 0
-13585 12995 0
7990 11630 0
6490 -3068 0
2058 14481 0
-11705 3013 0
6986 11681 0
14663 -7095 0
7561 8914 0
7509 7351 0
12369 -10575 0
13243 5817 0
2094 -11403 0
9981 7352 0
12661 -1320 0
7722 1513 0
-10367 -235 0
7205 5467 0
20 8947 0
11167 1323 0
14813 13906 0
5279 916 0
6106 -323 0
3724 9950 0
5205 -12872 0
-4729 -1285 0
-5878 10331 0
-5778 14995 0
10673 -2918 0
-11497 -5808 0
-5930 6537 0
14615 14196 0
-3107 2305 0
14709 801 0
10552 -6555 0
4798 14580 0
-456 2807 0
-6290 6317 0
12972 13422 0
390 -5542 0
-3198 -461 0
-4661 613 0
2655 582 0
3867 12659 0
1691 13400 0
10922 -10602 0
-13359 954 0
-6438 13441 0
1079 2811 0
571 4016 0
-13939 6153 0
-13656 -12067 0
-9471 -13288 0
7465 -12824 0
13491 -10072 0
11437 12053 0
-625 2313 0
-14857 -2808 0
6259 -13022 0
-11221 2430 0
15125 -11698 0
9064 -11862 0
5799 -4180 0
11646 10010 0
13126 1454 0
-3520 4007 0
-11139 5408 0
-15272 13160 0
-12353 4709 0
5058 -14207 0
-9218 4073 0
3309 -1489 0
-8296 -10359 0
-10976 14221 0
5428 3417 0
-9237 14845 0
2551 7988 0
-10832 324 0
-1363 -10872 0
4904 7302 0
960 10367 0
-4929 -10493 0
8157 2534 0
9362 -4661 0
3287 15431 0
5733 -13225 0
-6067 -14341 0
-13311 13858 0
3682 12564 0
9043 -1478 0
-10058 2141 0
5570 5432 0
12733 1485 0
-3750 -6205 0
-5608 7662 0
-13327 6535 0
-10133 7348 0
8276 -12722 0
12431 -14219 0
8032 -7442 0
-7905 3810 0
13859 -10835 0
2393 -7807 0
15185 -708 0
7276 13022 0
12661 8495 0
-9323 2687 0
-7743 8133 0
12887 4240 0
373 -5980 0
1079 -12126 0
-7086 10844 0
-5314 473 0
589 5098 0
-7406 -8193 0
4208 -2816 0
-14648 15400 0
-10072 7142 0
13982 12448 0
5198 -11469 0
2623 2156 0
-7582 -6228 0
-5267 5448 0
7140 1695 0
-2429 -712 0
4965 9116 0
8486 -1378 0
3486 11848 0
11745 4 0
8348 -2651 0
14554 -8198 0
-15098 -14132 0
-1312 6568 0
-7385 2012 0
11880 -11389 0
15061 -15354 0
15148 -5129 0
1341 833 0
11569 8804 0
-11764 -15490 0
-11866 5602 0
-15490 7626 0
-2750 13964 0
-5122 -14093 0
-9263 14489 0
1592 4965 0
-2525 12762 0
-1261 14388 0
-10981 11342 0
14085 2315 0
5448 -862 0
8108 -11639 0
-3447 12822 0
-7918 -13774 0
-7960 14958 0
12453 -4024 0
-4419 -13225 0
-10609 -6614 0
-3777 2836 0
-12125 -2004 0
-3591 -1155 0
14019 -9420 0
-13867 -4652 0
-3501 328 0
-10738 -6101 0
6521 9235 0
-9631 14914 0
-6365 12051 0
12255 9314 0
7550 12336 0
-13212 5384 0
-3838 -1566 0
-1097 -1944 0
6155 1628 0
7042 5979 0
2090 -1987 0
13550 3762 0
-9396 -14690 0
-15029 5881 0
-2613 -3329 0
-2941 -12477 0
-9054 -483 0
-4955 -8938 0
10291 -5275 0
4586 10383 0
-4503 13670 0
7463 -13504 0
-9345 13776 0
10442 -13659 0
9398 13450 0
4689 13204 0
-2491 8223 0
-13982 12033 0
10096 102 0
-14394 204 0
3908 -8580 0
13241 1048 0
5451 -5933 0
7912 1033 0
-14203 -11008 0
15486 10477 0
-1725 -12474 0
-6131 -15209 0
-8049 -1962 0
-1144 -6086 0
-6220 -15103 0
2905 8955 0
-14092 2359 0
-1467 8650 0
-12264 7660 0
-12969 -6405 0
10647 -8629 0
-8222 7863 0
9111 -9296 0
-1417 5594 0
569 -14109 0
-8093 12620 0
11937 -5967 0
-10949 14068 0
-9123 11818 0
-7894 -10314 0
-4570 -1939 0
13307 -11018 0
3875 -14010 0
1181 -2705 0
7501 4661 0
14615 2427 0
10013 -551 0
-11122 14026 0
9171 5520 0
3969 -2510 0
8915 3529 0
-1146 -13292 0
-10446 -11751 0
14413 -5100 0
-8446 -2230 0
15424 -11945 0
7542 -8038 0
6604 -2338 0
14880 -5148 0
-3081 4654 0
-13985 3037 0
-12628 -15576 0
-12353 13689 0
-10719 4643 0
-7715 -14581 0
10114 4194 0
6133 -11722 0
-13166 -1077 0
-7766 3318 0
-4002 14223 0
4352 -1548 0
7171 -4666 0
-583 11653 0
5365 1703 0
4286 -4728 0
-9494 12734 0
-7186 9313 0
-11545 -4633 0
1765 -6730 0
9883 2160 0
-14302 -5695 0
7664 9530 0
-11464 -12991 0
6397 8537 0
9087 7658 0
12262 8650 0
-2639 -3192 0
-606 -13668 0
-15548 11134 0
11950 -4803 0
11655 2764 0
-15175 -7220 0
4602 7355 0
63 6330 0
-9388 9241 0
12804 9573 0
-11952 13190 0
-7820 4529 0
6005 -5149 0
13062 -11638 0
-9454 -8518 0
-9600 5887 0
4337 -12623 0
-5422 2661 0
-15300 -12879 0
2721 -4146 0
-5312 8770 0
1896 -8168 0
-2624 -15329 0
-4747 -8114 0
10200 -1314 0
4913 -5004 0
-12293 -7412 0
8274 8391 0
13853 -10200 0
6431 8398 0
-1611 4056 0
-5277 7216 0
-12213 -7828 0
-13722 -1718 0
3658 7491 0
2786 -4572 0
-5712 2242 0
14302 4028 0
8531 -13486 0
7442 4000 0
1144 8078 0
-9071 268 0
-13638 14090 0
-14341 -8882 0
-5038 -3194 0
-12490 -9802 0
1110 4266 0
433 -12161 0
-1289 5168 0
12768 8476 0
14035 3753 0
14467 13427 0
-10651 -11564 0
-11991 -14740 0
10998 7493 0
-11458 -7950 0
-538 -9529 0
-15341 8826 0
-5798 -471 0
1841 3037 0
11083 -3097 0
-7269 -9806 0
1337 -1332 0
11423 -11042 0
9273 2270 0
-11527 -13378 0
10110 -10002 0
-12111 -6997 0
12986 -9807 0
15034 -6385 0
-8716 -8376 0
6167 -11043 0
-9712 -6835 0
10191 -13554 0
13784 14102 0
2146 -3951 0
-217 1163 0
-990 -5965 0
9699 841 0
11074 10465 0
41 3106 0
7283 -10441 0
-12687 3904 0
3605 -11831 0
-10354 -11517 0
-10952 -12759 0
-2347 10402 0
-2376 10165 0
-3031 -12865 0
1547 10766 0
-14865 -4164 0
-2838 6448 0
1166 14408 0
-5449 -2594 0
11132 -620 0
-8014 7961 0
11853 8120 0
5279 -2981 0
3114 -15181 0
-7331 -3439 0
14808 -1027 0
-12260 5640 0
-9616 -2037 0
-7220 -13474 0
-8473 2721 0
8647 -7753 0
-868 1643 0
-2916 12468 0
1289 -6016 0
9004 -15344 0
1660 -8263 0
11307 -5147 0
-8334 12613 0
11817 7416 0
-12178 -10435 0
14144 -2963 0
-10052 12190 0
1327 4009 0
-13875 2587 0
-1631 13406 0
-13112 -12529 0
-8882 311 0
4585 7983 0
-3794 459 0
2822 6410 0
8533 15043 0
4688 3144 0
-457 -11927 0
-8385 -13796 0
9596 14412 0
6010 -812 0
11732 -8179 0
-6017 -9423 0
9042 7366 0
5035 1940 0
8488 7378 0
-15242 -10622 0
8327 -9927 0
1638 12863 0
-13050 -2219 0
14332 -275 0
-9268 225 0
-13435 13028 0
-5790 12134 0
8342 -12632 0
-14016 5932 0
-3627 -11532 0
12620 15356 0
2788 8215 0
5979 -12334 0
14902 828 0
3309 8199 0
-13028 -14384 0
-14509 14914 0
-12862 1311 0
6916 -8226 0
-1702 -5354 0
-1959 -8942 0
-7529 -13963 0
-4833 11460 0
-14533 2626 0
-8256 -1131 0
-2783 -6853 0
6258 -7563 0
4585 -7285 0
-10894 -5104 0
-9897 2069 0
850 -10908 0
15473 4679 0
-6375 -15224 0
-11338 12119 0
-7541 -14389 0
-8828 11100 0
-11859 -9418 0
-411 539 0
-4040 -5456 0
-14449 -6404 0
4355 -10702 0
11472 -11683 0
-3103 5157 0
8931 -13516 0
-7101 -1050 0
-8369 11793 0
1676 -12661 0
-1884 8973 0
9040 11606 0
12730 -15372 0
-11814 10712 0
15475 -2291 0
14683 -13439 0
5614 14504 0
-13682 -13974 0
-6414 -467 0
-5034 2183 0
9733 6210 0
1449 3036 0
-2972 8274 0
15537 -7532 0
-13952 12695 0
-7910 -776 0
5758 11735 0
8587 12703 0
-9644 13718 0
-15568 -9256 0
1459 11526 0
-6750 -10329 0
13078 9291 0
13281 -3921 0
3878 13572 0
12831 13454 0
-12551 14228 0
2020 12823 0
-13123 -12755 0
-11568 13490 0
-4082 -2998 0
6735 -7777 0
3413 9981 0
-11062 -5762 0
-6845 8343 0
-126 557 0
-9423 -1487 0
6109 -1357 0
13054 9174 0
-9027 -7275 0
12559 -5275 0
2873 -6205 0
12481 -9172 0
-9219 -13414 0
-12594 7284 0
5634 -10520 0
-6680 -6666 0
14613 -8929 0
-13193 2967 0
-12698 -14801 0
-1378 -14885 0
4017 -9912 0
12806 7631 0
6668 1437 0
-3987 4778 0
2252 7216 0
-4763 -13574 0
-15149 -6700 0
4014 13304 0
-14209 -12854 0
11643 -2579 0
-10805 8277 0
2040 1147 0
-2346 -10626 0
-11362 6102 0
7179 -2866 0
-12210 976 0
4167 10626 0
-10612 -4511 0
-8159 -10768 0
13089 -5762 0
12860 3311 0
-1429 -8743 0
13050 -3027 0
7306 3438 0
-15163 -216 0
4973 -7189 0
-11073 6335 0
-5457 10999 0
15352 2510 0
2574 -7650 0
-171 -804 0
-6080 14160 0
4194 11646 0
-1056 -202 0
2269 -6592 0
11730 -6295 0
3411 6619 0
13169 -9368 0
2171 -15013 0
1180 -14251 0
4663 8511 0
-8800 9342 0
5444 12200 0
4338 -8623 0
-7063 11735 0
11521 -13963 0
6448 14557 0
-619 -14713 0
-12335 -4879 0
4336 -2523 0
2753 -9666 0
3094 -15208 0
-14536 -7419 0
14561 -14231 0
6856 -8213 0
8318 -616 0
13401 -13337 0
-13654 -3474 0
-4231 -1791 0
14064 -375 0
-3957 1095 0
-2310 -8302 0
1532 -13369 0
676 -9496 0
-13096 4124 0
3627 14085 0
-10539 -11081 0
10592 7264 0
8801 -1497 0
-13174 -6701 0
-15211 -573 0
-11458 8246 0
-10533 8486 0
-9762 1014 0
13637 -695 0
7788 -14231 0
1199 7521 0
1066 -12773 0
1882 8720 0
-1434 -7027 0
-4152 -11694 0
4335 12292 0
-11230 7160 0
4133 -804 0
-11345 6383 0
13054 -5682 0
-14806 -11260 0
8315 -14747 0
-4215 545 0
-10575 -6088 0
-4247 -893 0
916 7680 0
15509 -460 0
1254 -4087 0
-3238 -1500 0
13032 -4686 0
2290 4434 0
-11130 -5778 0
-8693 -4514 0
2847 948 0
11644 -4018 0
11647 -8322 0
-9203 14174 0
-7338 -13280 0
-8708 -10611 0
3378 1315 0
-12836 12040 0
12353 -1484 0
-11590 -11247 0
5483 4087 0
2676 -13778 0
-14811 733 0
8580 14269 0
-3229 12318 0
4257 6811 0
-7743 -9093 0
6369 -10868 0
-11267 -7749 0
-5491 -1747 0
8893 6343 0
-3011 14756 0
-11017 -12544 0
8180 11833 0
13428 3398 0
-7850 -3659 0
-15230 -6719 0
6121 7536 0
12006 -12003 0
-13206 -12380 0
5813 15517 0
8172 -9134 0
-9196 -1860 0
5586 4493 0
-3010 10275 0
170 5794 0
8460 -213 0
-1467 11226 0
11570 3208 0
7978 -3563 0
-13257 9846 0
-13006 6082 0
12967 -12075 0
798 5928 0
3725 5720 0
-15150 -10708 0
-13862 -6840 0
13261 -1104 0
-9954 11997 0
4985 8091 0
8931 -3974 0
-939 10187 0
-12270 -9394 0
-9684 4479 0
652 9848 0
-9971 -9688 0
-3983 -6060 0
9798 -15535 0
7005 10496 0
-5389 1833 0
5300 14249 0
-4892 -4078 0
4246 -14478 0
6794 -7972 0
-2965 2315 0
7386 -5215 0
-13285 12778 0
-11935 -13857 0
1977 13523 0
3778 6165 0
-6581 -10825 0
-2502 -13682 0
5040 2273 0
-10075 -13412 0
-10664 14368 0
-11281 14697 0
-11801 -4947 0
-3386 12602 0
6155 1307 0
7775 -2070 0
-13515 9821 0
9219 -387 0
-6825 180 0
7225 -11273 0
-12491 -11678 0
5027 2914 0
7280 9020 0
14969 6561 0
-4800 -9593 0
-3204 4559 0
1984 -8428 0
-6777 6344 0
-5026 3859 0
-3636 1700 0
4583 1292 0
10402 3707 0
-12200 -8941 0
7899 -7829 0
-14744 378 0
-13374 8283 0
-6353 -7315 0
802 -680 0
-9494 -2486 0
6253 11650 0
-3719 -10073 0
-3271 6815 0
-5728 12167 0
-4723 5829 0
4175 11274 0
7911 -3252 0
1221 9575 0
-14298 -9553 0
-2600 13343 0
-15270 -13080 0
13281 14618 0
13329 -2258 0
9623 -8812 0
-9777 11675 0
-5194 13036 0
4039 9595 0
-12009 -9755 0
9075 -3556 0
2850 -3845 0
-12805 14782 0
-14976 -15324 0
-9485 -7856 0
15425 15550 0
-5987 8212 0
-6967 14278 0
-2679 -2222 0
9812 12531 0
-4726 2787 0
-9822 2629 0
4797 -3400 0
243 2301 0
2630 12516 0
9810 -15202 0
-9461 -2897 0
6090 5633 0
14759 -12949 0
-8255 -14381 0
-937 -4093 0
-13180 -5168 0
3034 8601 0
-15142 9846 0
15511 -14736 0
15402 -3574 0
-2809 -12109 0
2546 6752 0
-5081 -14099 0
8410 -9530 0
-8434 -2084 0
-7516 -12141 0
5168 5205 0
10669 -763 0
-1847 -1355 0
-956 3041 0
-2129 11386 0
2887 7868 0
-9234 7030 0
-10787 -2663 0
12398 860 0
-9368 -7307 0
-5671 10108 0
9913 -5431 0
-5442 11002 0
-10377 -1852 0
11001 4778 0
1216 -14359 0
-117 15194 0
-9727 6865 0
-8674 -11676 0
-1944 -14868 0
12269 2269 0
-14381 -13088 0
-2102 -9420 0
-9594 -14052 0
5524 -6497 0
10008 -10714 0
15232 7751 0
-5635 1577 0
-6090 -3306 0
10537 15065 0
-12171 12423 0
9687 -15418 0
-13544 -3447 0
-15148 13832 0
956 4084 0
-15387 -7255 0
433 3334 0
-6293 -14433 0
-10772 9966 0
5553 -1259 0
-12785 7150 0
3253 7626 0
12252 6111 0
11653 13626 0
-12802 7261 0
4278 -12005 0
8238 -12887 0
7340 -996 0
4739 -248 0
-4925 7762 0
-788 -1638 0
1860 -7595 0
12642 -10925 0
8877 -11286 0
14002 -13060 0
-14946 -1197 0
-7080 -13940 0
-9459 4118 0
-7651 12456 0
2206 -3719 0
4223 -1300 0
5060 -3936 0
-15383 8171 0
-14671 -7606 0
7134 11519 0
10241 -13297 0
2866 -14416 0
-7389 5258 0
12121 4476 0
-129 9502 0
-13873 2878 0
-5870 -4075 0
-13000 -6899 0
10084 -14001 0
-3285 3182 0
-3422 -806 0
-6120 5729 0
-67 14586 0
14687 -9043 0
-7749 6024 0
6699 -10969 0
2804 2126 0
-11339 -12734 0
8487 3059 0
525 -13525 0
889 -3697 0
10665 -3883 0
3177 14807 0
-7965 -10127 0
-13547 -14166 0
5566 -1587 0
-9370 -9728 0
1389 -13301 0
-112 -13742 0
-2745 8873 0
-866 -15445 0
12611 -11595 0
-3071 -499 0
2141 15273 0
15 -13299 0
-10285 7829 0
-1729 11249 0
3430 10737 0
-102 -12715 0
-10369 3093 0
10498 12975 0
-13100 1436 0
-14573 -969 0
-11749 4442 0
7793 11070 0
1346 -9679 0
-10843 -8764 0
11985 -14194 0
-13706 -122 0
-3373 254 0
12839 -446 0
-1940 -4187 0
-13344 -13106 0
-2738 1545 0
2854 -1405 0
-8884 -11348 0
1601 56 0
-3443 11871 0
3233 -3422 0
-5421 -15252 0
14975 8658 0
-10832 -8283 0
11101 -7407 0
13748 -5051 0
4797 5379 0
14400 -10777 0
14799 1124 0
15313 7480 0
-2737 10719 0
-8362 -14656 0
-13929 5367 0
9695 346 0
-9255 10722 0
-7345 4170 0
10419 5572 0
-7624 11065 0
-4616 580 0
-1725 -11595 0
-6076 -11060 0
11059 -11242 0
7829 -10228 0
1235 8080 0
10740 457 0
4543 12807 0
13281 -10625 0
2257 11111 0
222 8187 0
7090 5415 0
-12147 -3556 0
8847 -4276 0
-12407 4068 0
-1888 -9269 0
-7161 -14904 0
-12383 10767 0
-11715 3924 0
-3177 -2487 0
1292 -10245 0
-8295 6062 0
11106 4767 0
-2711 9335 0
5836 -8048 0
8483 531 0
-13740 414 0
5620 -7054 0
-9705 8329 0
12317 3523 0
-339 15144 0
9270 8684 0
-7907 11901 0
4405 -15217 0
63 -7805 0
-486 -12716 0
-6691 10356 0
-13923 -11307 0
12571 -1806 0
-8302 13875 0
-5398 -13449 0
-10639 3867 0
-11373 -2699 0
5828 7793 0
-7557 -4665 0
13170 -10351 0
-1148 3661 0
-3134 5985 0
-10021 12604 0
-970 12454 0
13147 82 0
8149 -11820 0
-10008 12096 0
-5452 2607 0
-3010 -6642 0
9901 12891 0
4248 3166 0
8819 3077 0
-8026 2307 0
1669 -8289 0
-2910 2042 0
9772 -14060 0
13708 14997 0
-1292 10761 0
11473 -13326 0
3229 4819 0
9306 13342 0
5064 12039 0
13400 12296 0
-2987 -1785 0
-3065 13496 0
8625 -14244 0
-102 -10109 0
-5867 -12514 0
6025 -1834 0
-5506 2039 0
-7237 13953 0
-9644 3939 0
5074 -13728 0
-477 -4444 0
13250 12537 0
14357 -2124 0
-13508 1134 0
9242 -11331 0
12780 1313 0
-9729 13966 0
4763 11126 0
13251 1679 0
-8743 898 0
-2719 2065 0
13463 -10125 0
-3792 -7175 0
12420 10125 0
5905 3170 0
-9178 -3100 0
-11163 4814 0
-12438 -4100 0
-2625 -13509 0
7492 -11121 0
5461 -7545 0
-1891 -1479 0
-14805 13993 0
6751 -13099 0
-4440 2302 0
-8114 -12131 0
7169 -8036 0
-6181 -10491 0
-15450 15146 0
-13872 -6519 0
-4398 -13957 0
-4190 12693 0
13661 -7146 0
9480 -1920 0
-3135 12862 0
-4671 -11623 0
72 -6632 0
7471 -990 0
-11276 -4529 0
4651 10624 0
12731 11787 0
4092 14237 0
-8438 -9277 0
-3963 -293 0
-4836 -14305 0
11736 3849 0
8792 -9517 0
-11340 -2943 0
-8036 -103 0
3410 -5537 0
-13823 6072 0
-5188 13970 0
-15448 -14239 0
-10258 3813 0
-15470 7058 0
602 3117 0
9914 -7997 0
-1151 -9912 0
3307 -8264 0
852 -5338 0
-9137 -1949 0
-12480 -4223 0
-11150 683 0
11630 -3195 0
11548 -7107 0
9174 -10435 0
6301 -5835 0
10342 10094 0
-4670 12438 0
8949 14750 0
6729 3084 0
-5433 8023 0
2778 -204 0
2934 -14036 0
-1374 -3107 0
-10121 3797 0
12399 10018 0
15092 -2992 0
11247 -7422 0
-2909 -2178 0
-15264 6591 0
952 -14106 0
11292 15528 0
-3947 -12293 0
2828 14597 0
-2232 -14904 0
-9513 14669 0
-7088 -3029 0
3806 71 0
6657 -5483 0
9899 11682 0
14205 -7671 0
-14918 -8490 0
-10496 -49 0
4839 -10153 0
4039 -5960 0
1456 14032 0
4915 7140 0
-5636 -2918 0
10756 13711 0
5809 9310 0
6460 -2674 0
4721 -11813 0
6569 -14911 0
14570 -4210 0
2318 5822 0
8435 837 0
-6743 1837 0
-10192 3351 0
-8129 5241 0
7013 1560 0
8183 -8846 0
-1366 13643 0
-4667 4581 0
2202 13445 0
10336 -4000 0
7768 7428 0
-15463 -3281 0
3643 -15116 0
10818 -8779 0
-14708 -9553 0
3604 -14573 0
1284 9726 0
-11096 11736 0
-677 11841 0
8071 -8318 0
-4870 -2347 0
10370 7995 0
-13198 13884 0
8741 12192 0
14858 13526 0
6811 -1087 0
14110 -7989 0
5317 1241 0
-8052 -11354 0
15216 -10346 0
-10413 3706 0
1455 15464 0
-7341 -1602 0
-4744 2057 0
-1723 -7572 0
-15273 -4564 0
-11786 6037 0
10140 -4242 0
13991 -4800 0
-4025 2040 0
-4292 -6369 0
7062 -13985 0
1406 -4991 0
-8480 -3172 0
7960 10715 0
11938 2500 0
-3423 7379 0
-6078 -120 0
11427 1970 0
-5038 -12791 0
-594 2129 0
-9721 -585 0
-7234 -4020 0
3317 -2814 0
4325 1581 0
-10344 -5576 0
-2367 -12101 0
-3026 -1398 0
2210 -5617 0
9421 7232 0
-11848 -8358 0
-5350 -4662 0
-1331 -3925 0
13855 -14036 0
1302 -7069 0
12310 471 0
-13284 141 0
10805 2185 0
-7524 2483 0
-14722 -5485 0
10259 -6049 0
5815 8639 0
-8634 7636 0
10397 6701 0
-10208 8178 0
3609 15003 0
4103 -1080 0
-15081 5867 0
-4594 8004 0
7720 14526 0
-5008 -5722 0
-3833 -9789 0
-8475 8809 0
10229 1311 0
5133 -10148 0
-13236 -902 0
6304 4486 0
11699 9258 0
9116 8099 0
4287 14897 0
9315 5668 0
-6932 13645 0
14950 -9481 0
-5120 8007 0
-11537 -4939 0
-860 -3145 0
12465 12284 0
15286 -11978 0
8161 -10969 0
5143 246 0
-11363 -5483 0
-13095 2898 0
2128 817 0
6268 10554 0
5147 7529 0
15512 787 0
-9361 -7756 0
14847 12991 0
1859 5989 0
-5780 13071 0
-11183 10868 0
11960 -14023 0
6044 7655 0
-11707 -9762 0
3823 6702 0
-6105 -1773 0
-12941 10025 0
5095 -4961 0
-9397 -10748 0
-14298 -12575 0
-2470 -7585 0
6998 -8135 0
-14353 8203 0
1673 15328 0
-1090 6763 0
3279 -2679 0
-8563 -12758 0
-13289 -14183 0
-15158 -12619 0
5850 10317 0
10301 -14523 0
15094 -998 0
-4752 -13896 0
1840 10109 0
-14298 -1046 0
69 11955 0
-5712 9913 0
3641 -10180 0
5352 -9660 0
-1451 -9899 0
-4137 -487 0
-6514 -15511 0
-1154 8253 0
-13796 8184 0
4581 4816 0
3658 2590 0
5328 6713 0
-8096 -13923 0
-4979 -6797 0
-13082 -15497 0
2047 -7953 0
-13529 5213 0
4903 -11221 0
-7961 11366 0
1470 -4900 0
-12639 -13337 0
3036 -4105 0
-4337 -11415 0
-2188 -7077 0
687 -3990 0
9083 5447 0
-15121 -11342 0
-10578 -2964 0
5569 -3301 0
14874 -3875 0
1235 -12645 0
3692 11437 0
-3784 -7088 0
2032 -5705 0
-10594 -7478 0
10041 -2025 0
-12231 -10801 0
-12705 -3150 0
-6443 1258 0
-1433 7340 0
-15311 6319 0
5573 12966 0
7686 14334 0
15101 8991 0
-11446 -1602 0
-10314 2687 0
-2032 7319 0
-7871 -11144 0
10299 -5956 0
-11392 -2314 0
1146 8496 0
-3105 -1280 0
5092 -11235 0
4665 -12705 0
313 9683 0
-7688 13211 0
-9168 -15448 0
-1096 10646 0
-13848 14451 0
-8160 -3248 0
8122 5227 0
-11351 -2366 0
9385 -1660 0
5962 -3097 0
-11859 -7137 0
-8813 646 0
-7341 -4986 0
2903 -6332 0
-5214 -1340 0
11691 -14962 0
-1140 15210 0
12031 -280 0
3026 -5735 0
-4136 -15108 0
2742 14594 0
-13377 -8260 0
-1790 7629 0
-619 2348 0
-4096 2001 0
-10913 -3105 0
-13538 14427 0
-11352 -11497 0
-8188 -7445 0
-742 -5920 0
-6970 -4524 0
10508 12843 0
-12735 -3573 0
-4264 -5130 0
6307 -8103 0
-4245 14087 0
2725 7164 0
11306 7023 0
8408 11608 0
-7375 6281 0
-2142 -13392 0
15223 11158 0
4748 -13462 0
-13465 -11691 0
1218 -4917 0
-11828 7348 0
11633 -3275 0
8176 -6460 0
-1142 9386 0
8744 12361 0
-8652 8455 0
12893 -5677 0
-9566 3148 0
-2269 13227 0
4064 1455 0
-10819 10250 0
-9959 -13746 0
8916 -11937 0
1789 4111 0
-2666 -2186 0
11723 6426 0
14525 -19 0
7495 6756 0
6703 -9006 0
-4780 302 0
-13654 3495 0
-2599 12838 0
-12275 6963 0
15443 -3880 0
9653 15255 0
-15525 -2244 0
14512 7301 0
3525 -513 0
6735 -10681 0
-4961 -4071 0
6387 5847 0
4380 -14158 0
-7105 14815 0
-5637 1379 0
-13597 -1206 0
11280 13142 0
2645 -6091 0
8773 3065 0
14796 12773 0
-7601 -11787 0
-4589 3057 0
4769 -2141 0
11315 -12520 0
-3933 -14695 0
15524 13701 0
-13488 -12293 0
-11721 163 0
2559 -8642 0
-6332 8150 0
-3899 14469 0
-15500 9643 0
-6387 15541 0
-2431 -11504 0
371 12509 0
-11080 11215 0
6125 -9475 0
-3487 3804 0
2069 -10043 0
-8305 9435 0
663 -3322 0
-6422 -8759 0
-6457 14596 0
-286 -10842 0
-6345 10205 0
10800 -242 0
-3092 -10195 0
12045 -3880 0
-4739 10966 0
-9715 -8631 0
8486 -9869 0
7434 5811 0
12351 -8118 0
-13780 -10239 0
-6293 6485 0
1575 -5432 0
-1423 3795 0
1992 -14288 0
-12956 -9784 0
-5115 5240 0
303 1886 0
15232 -7503 0
7747 13062 0
-2015 13975 0
-3617 2473 0
5404 -8781 0
9966 -11852 0
15314 -12441 0
10221 1377 0
2358 -9004 0
1553 -15457 0
-9092 -7739 0
9377 -4523 0
11101 -8148 0
-9793 -4176 0
12319 -15465 0
2255 -11108 0
-2238 -13895 0
5020 5396 0
7025 7454 0
-7054 -3479 0
10482 -12508 0
-11999 7403 0
-3769 13664 0
10504 -9504 0
-12617 -181 0
9321 491 0
13693 -5057 0
3147 -15543 0
-8096 3770 0
9492 948 0
8404 -10513 0
452 5289 0
11622 -6277 0
9534 -7501 0
-4007 14969 0
-7377 -13966 0
12656 9351 0
-6377 2500 0
7361 11365 0
-924 -10058 0
-4451 8192 0
116 -15335 0
-1616 -8656 0
14121 -4693 0
13309 4692 0
12127 1746 0
6902 12390 0
10393 5928 0
1499 -10621 0
14654 2218 0
-1237 11113 0
2825 -12735 0
-1441 13680 0
6631 5724 0
-9831 2019 0
-7524 7603 0
14121 3747 0
-8042 -12969 0
4349 -1173 0
-5287 1187 0
6738 -2606 0
10972 2059 0
-13247 -10620 0
-11831 -1672 0
-11877 4702 0
11524 -2994 0
8893 -1419 0
-5075 -15371 0
8259 -4649 0
-8176 -8672 0
11833 -11213 0
14417 8558 0
-3457 -7274 0
-3491 3851 0
-4301 -3014 0
11646 -7525 0
-303 -483 0
-3864 12598 0
-2139 -2910 0
1865 1510 0
10536 -9131 0
3908 -10201 0
-8771 14813 0
11551 -14841 0
6676 -654 0
15439 11621 0
14214 14626 0
-12965 -10704 0
-3167 -5638 0
-6086 10544 0
15315 -7177 0
-11035 -9543 0
9648 431 0
1341 13795 0
-2574 -6043 0
244 -13749 0
-10920 -13049 0
1780 2740 0
10811 -4704 0
6488 -8992 0
11604 7347 0
-3414 1022 0
-7789 4039 0
9122 14029 0
-3025 890 0
7047 1124 0
-12930 11029 0
2935 1506 0
13097 8438 0
11149 13938 0
-6544 -5370 0
1297 5483 0
-6859 -10026 0
1124 -1393 0
10585 -12791 0
4804 15065 0
-5557 262 0
-5931 -8650 0
-13368 -11246 0
-11895 -2866 0
7097 -5241 0
14496 12017 0
-8018 -7084 0
-1543 -11066 0
-3508 -13262 0
-2588 9710 0
5320 1045 0
-8945 -1277 0
-6617 -11525 0
-11405 14357 0
1181 -14070 0
13303 3040 0
4938 796 0
-3279 -4367 0
15416 -420 0
5876 10126 0
13049 -15205 0
580 -8600 0
6393 13291 0
2555 7681 0
14186 848 0
-12728 8979 0
15163 -9764 0
1368 7531 0
1365 -14076 0
7802 5197 0
-14343 -1763 0
-8682 -14411 0
-14299 -885 0
-4110 3732 0
-11611 -14971 0
-677 3964 0
-845 2563 0
-6693 -10611 0
12370 -5880 0
4915 -14279 0
6305 11205 0
-12030 2081 0
-8707 -4678 0
-4599 12579 0
-3755 5020 0
-15344 11766 0
-11164 -7651 0
-12001 4400 0
4335 -7470 0
-13205 12212 0
-11950 -8652 0
-869 -8442 0
-8123 -5386 0
1380 -4035 0
13647 -3086 0
7897 -4613 0
-15002 -14543 0
-4784 -2870 0
1319 7213 0
-7443 10546 0
-7955 7426 0
7438 -6810 0
13883 -12649 0
15192 -8376 0
-1788 5474 0
6810 414 0
-1260 1840 0
39 -14250 0
-13291 13032 0
-13458 8009 0
-11858 8296 0
-4726 -14309 0
-9464 1195 0
8162 -3394 0
-10627 -13641 0
15480 -8359 0
-10567 -12549 0
14428 -1610 0
11538 -12460 0
-4004 -12225 0
-14996 -7452 0
9483 -6417 0
-53 -4608 0
-1104 12025 0
-2614 -12185 0
6581 2938 0
13513 8483 0
11109 -8077 0
9778 14850 0
13870 -4633 0
5761 11527 0
438 7976 0
-11567 3508 0
4070 14640 0
-14349 4079 0
14716 -12071 0
8651 4252 0
7522 -371 0
-4804 -10785 0
6668 -13213 0
4562 -28 0
8286 5696 0
11546 2377 0
894 -1311 0
-21 9274 0
-344 -11273 0
14852 11822 0
-9574 -5065 0
9780 -3173 0
-6517 -1169 0
11416 11393 0
9819 10347 0
660 10132 0
2771 7312 0
2557 3414 0
-1389 -6908 0
13456 -439 0
-3778 13773 0
-1108 -13716 0
6935 9281 0
3510 -2460 0
-6158 3469 0
11344 1983 0
-6125 -2403 0
-3373 11294 0
-2824 -5980 0
4623 -12168 0
-332 14981 0
-14136 13420 0
-6975 -9794 0
-7262 10712 0
-3599 8933 0
-10932 -15198 0
-12547 -7902 0
3216 -4164 0
-13689 9487 0
6612 190 0
-15351 10339 0
4619 -6049 0
-13169 -5683 0
-9302 -1661 0
-7599 10265 0
-13541 9199 0
-11185 -14913 0
-5918 -3673 0
12094 -2983 0
1449 11929 0
8002 -2709 0
-1187 -6566 0
7186 -8264 0
11134 14337 0
-5129 -767 0
4079 -9782 0
7509 -13786 0
3197 -8475 0
-8967 -15092 0
8310 13678 0
-11060 -15297 0
15544 6948 0
2912 -13808 0
7179 -3190 0
-15276 -13562 0
-5646 2087 0
-5411 -10535 0
13447 -12947 0
2753 -5993 0
-14917 -4535 0
7874 6012 0
13308 -4943 0
-15441 -15098 0
4825 11037 0
11548 -8317 0
-7608 2841 0
-15039 -1789 0
1390 15474 0
13040 -13952 0
9301 3858 0
8726 8445 0
5590 -6032 0
3807 -9466 0
-8107 -12827 0
7421 1637 0
2248 2949 0
14265 15435 0
-8528 -9547 0
-10321 -884 0
6561 -6222 0
10927 -6373 0
657 3398 0
-10217 -9348 0
8494 -12102 0
-10306 13727 0
-11823 3540 0
3143 1114 0
3086 -5314 0
-11003 -8788 0
14395 9776 0
5002 2151 0
-6857 14288 0
-13786 5316 0
9265 5194 0
-13454 -14658 0
-9395 11978 0
-5635 1039 0
12486 7048 0
3286 -11720 0
12088 -10666 0
9154 8512 0
-3356 14558 0
15315 750 0
-9833 14297 0
-11577 -6527 0
10227 12531 0
-2494 4387 0
-6234 4571 0
3245 -12483 0
-13767 14917 0
12026 -4402 0
9381 1671 0
-4731 -14407 0
-14694 -13000 0
15080 639 0
1848 -3116 0
-8768 -13049 0
-13445 -2930 0
-9547 -10312 0
-3591 69 0
-11661 -45 0
4567 -5089 0
-9574 14312 0
-8958 13863 0
-5867 -5182 0
-3028 -2313 0
-4782 2152 0
-8124 -8890 0
-1630 -3238 0
-5645 -14037 0
-8584 -2820 0
-8428 -10435 0
-9944 5934 0
5417 1 0
12184 -9904 0
4407 14229 0
5444 -11093 0
-12118 15310 0
9653 1257 0
15142 -9958 0
-1612 -14030 0
-43 573 0
7884 -5173 0
-801 -2104 0
-7337 2977 0
12080 -14247 0
3222 -7387 0
14330 2005 0
5412 -13388 0
14232 -3859 0
-6183 -13829 0
7025 9080 0
12521 -12434 0
-13080 -10555 0
11828 13088 0
-12857 8820 0
206 -13463 0
2095 10072 0
9142 -11414 0
-11056 9218 0
10342 -6110 0
12561 -438 0
5864 -9691 0
-9709 -14061 0
9698 -11918 0
3026 -5276 0
-11142 11993 0
-11199 -12291 0
9599 -7343 0
14323 9276 0
7245 15314 0
7175 -15543 0
9261 -175 0
-2536 4430 0
-13816 13903 0
7043 -14639 0
2178 -8046 0
1386 -12253 0
8315 -14014 0
3074 13477 0
11163 2961 0
711 13611 0
8102 12479 0
2778 -14242 0
10483 240 0
-2458 -12374 0
11297 -11905 0
11961 10544 0
7415 -4621 0
5961 1721 0
13420 -12337 0
11277 -5123 0
-3702 -8467 0
15162 -14139 0
-13495 6495 0
-12988 -9443 0
8606 2150 0
11617 13809 0
2840 -13278 0
-9651 -2676 0
4504 12645 0
-11668 9330 0
-8416 -1842 0
15531 -7322 0
2480 14368 0
-1094 5858 0
1222 -7572 0
-11229 7265 0
-5771 -3649 0
3679 13629 0
213 -11216 0
-8463 -15409 0
11729 7530 0
-5368 11194 0
8706 -10673 0
-8334 14335 0
-120 -2573 0
9273 -14581 0
-15171 57 0
9776 12711 0
5989 13444 0
7305 -15266 0
13248 11527 0
-6954 -7797 0
808 2005 0
-11280 3068 0
-12485 -12786 0
1250 -3814 0
-6116 -12278 0
-13783 -3846 0
1040 -6027 0
14435 -3945 0
-7007 13160 0
8223 -13375 0
4576 12805 0
-4180 13275 0
3053 -5810 0
-9905 217 0
6167 -4432 0
-1016 -12594 0
7130 -8870 0
7088 -2601 0
12671 13586 0
-10058 11305 0
3689 -5457 0
-3116 -12951 0
-6639 -7379 0
6307 314 0
11035 13108 0
-4741 6766 0
-5100 7282 0
-4757 6339 0
15135 -9603 0
-6494 -940 0
-7087 13270 0
-7841 7630 0
-2890 11317 0
14265 -8091 0
13861 -3119 0
5827 -3473 0
10697 -5533 0
10745 -8693 0
15347 -12423 0
-13321 -4016 0
-2682 -5073 0
191 9471 0
2311 -8952 0
2924 -1756 0
-10149 -1333 0
-14700 9141 0
-6495 5065 0
6163 -9069 0
-3368 -7618 0
11452 -7488 0
4791 8976 0
-9248 -9534 0
-13917 -10871 0
-13561 10348 0
-9054 13372 0
-10435 13753 0
2895 -543 0
-9578 3821 0
5232 -12214 0
-9955 6591 0
15553 -6771 0
1015 15551 0
10200 -8182 0
-2745 3707 0
7401 -8528 0
1530 -6944 0
80 7981 0
-7421 -6286 0
9996 -13256 0
482 3381 0
-11762 10816 0
10636 1361 0
-13538 -12797 0
2007 -11417 0
-947 -8876 0
-6966 8155 0
-3269 -12213 0
8989 -3324 0
12319 549 0
346 -2924 0
-10920 7356 0
12961 -592 0
-9894 -8456 0
-11624 431 0
5342 -8364 0
-4889 4140 0
-10280 -847 0
-6513 6974 0
-6706 2286 0
-13040 11189 0
11951 -11917 0
5453 -486 0
15278 12224 0
6348 8776 0
-8734 -15502 0
9458 -9277 0
1468 -1206 0
-76 -7046 0
231 -3121 0
-2190 -2800 0
1398 11762 0
-10242 -10491 0
-4729 -8652 0
-3110 10701 0
14323 -8751 0
-9007 11842 0
-13881 -5355 0
-9329 -4466 0
-3275 9384 0
5257 -11765 0
142 -6597 0
-12467 15070 0
-7453 -7170 0
3551 -856 0
14200 12310 0
12296 -2039 0
-1200 14415 0
-1246 2712 0
-8991 1214 0
15188 13903 0
4038 9871 0
-2323 -7203 0
-9808 1969 0
2688 3291 0
6448 5283 0
-6183 10732 0
2425 -4223 0
13620 -3589 0
-14527 12410 0
-6916 5049 0
-14048 -15303 0
11633 339 0
3783 -3880 0
196 -923 0
6261 -3003 0
9867 -8545 0
7575 6139 0
8821 12913 0
-6242 -12762 0
-15513 -3802 0
9945 -3433 0
-4 7587 0
12721 5781 0
5332 10035 0
4304 -8984 0
-841 810 0
-12114 -9532 0
6343 2056 0
-12035 15244 0
-6984 -6517 0
5058 3100 0
-1036 -7567 0
8794 -5208 0
-5860 -7837 0
13660 -12514 0
10022 13790 0
139 3946 0
4505 -2951 0
6169 -1881 0
855 -14579 0
12506 -2838 0
4753 -850 0
6853 -12126 0
-8054 -8302 0
9348 -15324 0
14797 -9308 0
-2086 7097 0
-8719 -8302 0
6278 -14942 0
-7550 -6419 0
14408 6495 0
-13534 7225 0
-1049 -8343 0
-10864 -8717 0
7569 -1111 0
-6029 -1874 0
-15114 14923 0
12972 2904 0
-856 14335 0
2722 -8333 0
4639 3888 0
-2137 4751 0
10345 -8123 0
-13355 9909 0
14638 -11288 0
10809 -13472 0
-7876 -10940 0
1336 -8331 0
3948 496 0
-1196 10058 0
5753 2048 0
7912 -13297 0
12401 9697 0
4420 4329 0
-14646 -12579 0
6623 12549 0
-3086 -13935 0
-9230 -1985 0
-7843 14228 0
12931 -12644 0
-13316 7421 0
785 -13836 0
-7962 -5241 0
6567 13572 0
10497 -1929 0
13651 -4928 0
10594 12353 0
-2368 -13804 0
-3851 5526 0
-11662 -3969 0
15497 -6562 0
-14389 12143 0
-9375 2604 0
-3877 -7859 0
6029 6782 0
-12830 -14995 0
-1341 13160 0
14924 8222 0
-14000 -11543 0
14555 9202 0
-11152 -7372 0
11265 14317 0
2830 -3375 0
-14625 -9116 0
-15039 12247 0
-12735 2518 0
-10027 -8652 0
4506 -5918 0
1250 -1485 0
-4470 -11164 0
2961 -7419 0
-4218 1301 0
-6753 -3482 0
13797 -108 0
13584 -5303 0
6143 -5133 0
-8103 11301 0
1645 -11424 0
2083 11980 0
6702 -14838 0
-7806 4013 0
-12813 2442 0
14601 -12149 0
-10771 11345 0
-14880 10746 0
-3412 14116 0
14544 -7550 0
-11331 -3073 0
-10830 13767 0
-8953 -7962 0
-695 9016 0
-12376 8839 0
3421 1399 0
11097 1483 0
-6831 8669 0
2243 -5278 0
8127 -5831 0
4709 -2381 0
4240 3416 0
9951 -2470 0
-15275 -4978 0
13664 1179 0
-10220 11175 0
12229 14981 0
-7364 -13748 0
-11828 -8668 0
-15108 -3408 0
14206 -5984 0
14198 -14774 0
2324 5130 0
15084 13100 0
14915 13111 0
-3192 11644 0
-10002 13050 0
3481 -6270 0
-3078 -9347 0
7253 15062 0
2762 8559 0
-7727 9304 0
5246 2386 0
3080 7768 0
-923 -11149 0
13071 -14442 0
-2488 7114 0
14835 2301 0
7937 -14158 0
-7800 -256 0
12969 10536 0
-6558 11530 0
-9292 -12687 0
-438 7066 0
-12528 12024 0
-7355 -3174 0
-3774 4706 0
15314 15271 0
911 -374 0
14705 -14581 0
13121 11136 0
4159 -3078 0
11730 -9170 0
1379 4274 0
-8673 230 0
4011 13278 0
10515 8382 0
10061 -14350 0
6978 -8709 0
-6811 11867 0
13916 4633 0
-7268 -8565 0
-8166 3437 0
8054 11377 0
12300 10291 0
-4911 5080 0
271 -804 0
-8475 -1729 0
-9829 12101 0
13217 -10087 0
130 -6618 0
10014 -12903 0
-3685 9959 0
5815 -5625 0
-13388 1754 0
-13953 -2761 0
-6936 13881 0
-13956 -15320 0
2210 9101 0
-9261 8752 0
-13853 4891 0
-10574 6581 0
3888 1716 0
-1090 -11932 0
-1882 -11676 0
3926 10494 0
-6175 12365 0
15519 -3015 0
-3805 8983 0
-10707 244 0
-6040 542 0
-12437 -15118 0
5675 -988 0
5644 -8047 0
-2143 -703 0
2905 -2264 0
-534 9650 0
-6624 5827 0
8633 -7478 0
123 -7170 0
12739 -3683 0
2788 -5043 0
3711 12612 0
13977 -5833 0
7830 -14299 0
-3269 7980 0
-2142 -6859 0
-14076 10287 0
3406 4506 0
996 12424 0
-5848 9299 0
-4259 -5030 0
8844 -14893 0
-5241 -4505 0
-3726 11446 0
-996 6274 0
-10252 -14138 0
5854 3708 0
-7779 9982 0
-2161 9438 0
-10808 105 0
3004 6008 0
13925 29 0
11808 13657 0
-9344 12719 0
3389 -6312 0
-7632 -13526 0
-12256 5211 0
-11681 15059 0
5155 6351 0
4234 -13937 0
14327 -2633 0
-10619 4259 0
-3506 2983 0
-15088 1408 0
-5075 13035 0
8165 -13041 0
993 6204 0
15018 12612 0
10774 -4391 0
