c NF
p cnf 12477 22459
11936 263 0
-10391 -7446 0
-3821 -384 0
-3348 -5543 0
-1922 -8326 0
964 3141 0
-4834 -11296 0
-8100 10103 0
2432 9962 0
-7256 -11780 0
4244 3443 0
-975 -6948 0
7642 11964 0
8293 -3991 0
-1819 -5804 0
7906 11788 0
11690 1769 0
6263 -1425 0
602 11139 0
-1220 -5493 0
-2834 10663 0
10678 -2263 0
-4600 4290 0
-1074 426 0
-10991 -12405 0
-969 6052 0
7241 -10278 0
-10417 -4145 0
-2885 -1292 0
-6644 -10401 0
7358 8019 0
5694 8412 0
-10954 -9128 0
-39 4323 0
-5186 -7911 0
-10894 -415 0
-5806 -10812 0
5775 3948 0
758 -6592 0
12056 619 0
941 10677 0
-12184 9517 0
7817 10777 0
2449 -5081 0
-9232 5751 0
7281 -9980 0
-3710 7153 0
8841 2725 0
12216 -11465 0
4689 -2751 0
10890 -3909 0
9645 612 0
-1907 8103 0
-8868 -7423 0
5258 10114 0
6523 5902 0
-6168 -1104 0
3974 -3961 0
10155 12277 0
-4727 -6410 0
10981 4671 0
10373 1340 0
-5295 8883 0
7177 -2687 0
11248 -2023 0
-2328 -5516 0
-2134 -9664 0
-6203 -6615 0
9424 -1408 0
12255 -5658 0
-7281 11770 0
-1207 7621 0
6080 -7702 0
-12006 5384 0
5967 -6212 0
-8107 -948 0
-1954 -2428 0
1884 -873 0
-11697 -6056 0
-3592 4986 0
-5788 -1490 0
-7101 -8149 0
-11520 7230 0
8165 11747 0
5703 -5335 0
-9049 -2743 0
-3445 -2248 0
-9047 -2897 0
691 5066 0
10219 -9474 0
6885 -2050 0
-10233 -4676 0
1201 9488 0
7538 4446 0
6499 6329 0
11397 11016 0
5421 -6842 0
-2634 -8902 0
2431 -798 0
-2483 1281 0
-8954 -9953 0
-7118 5080 0
4976 4402 0
-9688 9850 0
2734 -1740 0
-8071 2582 0
-12161 8593 0
8465 -11535 0
-6796 10977 0
-1313 -9077 0
48 -7462 0
3317 -10294 0
-9567 -5296 0
-3283 -3781 0
5158 11394 0
-12221 -3015 0
3937 6108 0
4716 5816 0
4863 8277 0
-12258 3445 0
-1511 1707 0
3955 -468 0
12175 10041 0
9053 -5353 0
-6830 10296 0
-2839 -6373 0
6970 -959 0
7852 -8318 0
12250 637 0
-3499 4213 0
488 7126 0
10784 637 0
-5953 -11329 0
-8422 -220 0
-8480 1765 0
-5723 -3385 0
2673 9962 0
-9194 -7433 0
-5116 -200 0
-8114 4541 0
-4586 -797 0
337 9176 0
7056 1896 0
5599 -8317 0
2995 -3286 0
-10911 711 0
11146 -3083 0
6643 -353 0
-2951 8342 0
8082 -11919 0
-4794 10001 0
11357 -7628 0
4772 -8032 0
2649 -12419 0
9906 4153 0
3784 8129 0
1891 12187 0
11695 -3065 0
-2606 -2770 0
4258 -5926 0
4827 8153 0
-3510 -11011 0
-3810 5477 0
-1728 3002 0
-8654 -8865 0
-3272 -7538 0
737 -11468 0
-6903 4074 0
8889 10821 0
1952 7846 0
-11576 10199 0
8212 -3272 0
-7498 -343 0
687 -7161 0
3504 6830 0
72 -1945 0
-9139 8497 0
8969 5552 0
-5447 1715 0
9198 -6512 0
-8899 -10352 0
-2219 -8890 0
-6401 -9858 0
4628 3972 0
8440 -9507 0
12415 7238 0
11897 5406 0
1217 -1556 0
-12322 11446 0
10784 -12468 0
-7624 -4548 0
-4149 -4743 0
-3188 -10198 0
815 8785 0
-8531 10224 0
-915 -10192 0
3974 10690 0
1866 4757 0
-7511 -1018 0
-7386 950 0
5971 -2185 0
6251 7049 0
11763 -9469 0
12322 -9136 0
8475 -1798 0
5300 -8128 0
5023 -8338 0
-7675 7369 0
-5093 -379 0
1259 -12334 0
-10393 -6029 0
-1299 -1985 0
-6320 12229 0
3004 -1561 0
-8993 1219 0
5921 -8438 0
-8932 3932 0
4206 6228 0
-8428 2494 0
-9548 -9268 0
8415 -5859 0
-10773 6275 0
3216 4222 0
-10993 6284 0
-680 2235 0
2208 2304 0
-7564 1210 0
-11527 8421 0
-6283 -10186 0
-7290 -11925 0
10817 -5452 0
11063 -7235 0
8580 11991 0
-4123 6461 0
-588 5097 0
-1476 -243 0
-5917 -4410 0
-1757 1033 0
-4930 -4342 0
501 8679 0
12217 6038 0
4187 9705 0
-4403 251 0
-8698 -11389 0
-10790 1821 0
-11567 5894 0
-10333 3935 0
-2954 10659 0
-6745 -8539 0
5981 5395 0
-1186 4728 0
-4173 201 0
-1284 -12215 0
5848 -11300 0
-11108 -3501 0
-871 -7252 0
-3864 -4653 0
9232 -7434 0
-12423 1346 0
3949 -3170 0
-1325 -6037 0
-9490 -6711 0
9432 10563 0
-1666 -7699 0
-4546 4525 0
8983 -6130 0
6286 10507 0
11632 -7060 0
-3335 -5617 0
5534 -9686 0
-4767 -7684 0
-2965 12081 0
-12176 6694 0
3612 5020 0
9663 -109 0
-1100 6624 0
-2910 4432 0
548 7992 0
-1788 -11005 0
3146 999 0
4511 -1547 0
2014 10367 0
-3288 -7795 0
4059 1846 0
-9735 8940 0
4934 4581 0
-11391 2808 0
-8951 -5195 0
727 -1767 0
-1483 -5177 0
6932 4918 0
-4154 10781 0
5788 -7103 0
-9379 -11350 0
-3580 10428 0
-2921 4009 0
2528 -9433 0
-8703 -5135 0
981 -7742 0
7139 -6466 0
3114 2492 0
2071 -4113 0
-10046 8628 0
4365 -11203 0
-12084 -4697 0
11712 7358 0
94 4880 0
-4963 -6913 0
12265 -1986 0
-7072 -1755 0
-5014 8686 0
-1964 4030 0
11023 12082 0
3590 -11954 0
1581 -5646 0
-8659 12256 0
11350 -9421 0
-1256 3093 0
-1832 -9161 0
-2975 -8013 0
-1233 4328 0
12440 -4655 0
1864 -1762 0
3590 10995 0
-5355 -11637 0
5371 10759 0
-3159 5822 0
3943 1755 0
10071 8824 0
9348 -10976 0
-9244 -8794 0
-11698 4270 0
5977 3056 0
9487 -1583 0
11867 -1683 0
7741 1386 0
-856 7411 0
85 2505 0
6116 4204 0
-5801 4858 0
-5140 3381 0
360 -7098 0
-2520 3330 0
-77 8267 0
-9016 11586 0
10608 11919 0
11416 -840 0
6315 -7983 0
5270 9374 0
11863 -3674 0
8422 -8623 0
3681 -1383 0
8640 10629 0
5804 -8663 0
4064 8215 0
3532 -182 0
-10086 1865 0
81 5292 0
11828 -6690 0
10657 12460 0
-6622 -4641 0
748 9008 0
4916 2929 0
-377 -10962 0
6763 -117 0
-11079 5414 0
-1965 9800 0
231 2817 0
-4773 611 0
-1950 3619 0
8322 -9282 0
3123 5804 0
-10589 -966 0
3988 -2468 0
-1685 7185 0
-3135 11145 0
4612 -1717 0
-12074 -3048 0
11579 8936 0
-11006 299 0
-1255 350 0
-10831 -4072 0
7964 -2548 0
-2378 -776 0
9948 -2013 0
8513 2729 0
6499 1347 0
37 -6667 0
-107 9151 0
-4947 9060 0
2558 -6746 0
-906 -3935 0
-4329 -3852 0
-9108 10633 0
-6852 -1345 0
9881 9390 0
-8855 -7655 0
2574 -1817 0
9995 1719 0
8491 6943 0
-3493 -11344 0
-8253 6691 0
5516 3370 0
-2164 -7699 0
680 11795 0
9737 -7776 0
6590 5937 0
1250 9673 0
-6346 2760 0
-1028 -4129 0
-5041 -6885 0
6437 -7488 0
8148 9100 0
967 1897 0
-10203 -1623 0
11023 -8690 0
-287 -10345 0
3798 937 0
-8938 238 0
304 3347 0
11019 508 0
-8267 -11311 0
8944 825 0
6251 -291 0
-5621 -7592 0
-10609 -12176 0
-8854 4884 0
9965 -6571 0
88 1725 0
-11330 1247 0
11157 -10869 0
6240 -8183 0
3612 -12404 0
1016 -4848 0
2423 3155 0
3750 11001 0
8165 7124 0
2110 -8653 0
-1704 3633 0
-3209 -6318 0
10535 585 0
1532 1419 0
8019 -10850 0
3888 4293 0
-12368 -2504 0
4055 -11593 0
3995 2803 0
-6111 -4285 0
-6093 -8056 0
10065 12310 0
1662 9921 0
7241 10480 0
11317 -4140 0
-1778 -8507 0
1830 -7385 0
11777 -3316 0
-6516 -4357 0
-4351 -10270 0
-1866 -11570 0
-3675 872 0
-5296 -4650 0
8196 -9161 0
-5449 -11820 0
-1667 7239 0
-2974 558 0
-10014 5491 0
-2999 -9337 0
-2091 8826 0
3678 -2694 0
11745 3496 0
3468 -3582 0
12295 -3442 0
-7231 -4352 0
-4544 -8112 0
-10200 -797 0
4918 -11148 0
-2500 7389 0
1839 -4851 0
10987 -157 0
-6582 -11622 0
-383 -8244 0
10615 48 0
2576 -10313 0
-633 -8684 0
-3956 8819 0
5665 10872 0
-8293 -8590 0
-9379 -5048 0
10077 1175 0
-2026 2607 0
-9049 -5320 0
-6086 -4817 0
-1274 -12317 0
10213 3601 0
2553 127 0
-9933 -546 0
3246 11833 0
-7017 9900 0
-9180 -8822 0
-8321 5675 0
-4521 8055 0
-9286 1167 0
-10063 -3582 0
269 569 0
-4459 -10063 0
3527 -10265 0
-968 -4154 0
-6374 -10185 0
10611 -10329 0
11442 2318 0
10033 9625 0
9717 -4108 0
9597 -1179 0
-9862 348 0
1948 4550 0
-875 -12466 0
-9966 -8416 0
9150 10978 0
3949 2426 0
10291 -11302 0
-1106 -11206 0
-3306 -4052 0
12191 5822 0
-11167 6587 0
5738 5073 0
1616 -5673 0
-9923 11876 0
-6357 -4021 0
10028 10033 0
-1527 3830 0
-529 -3830 0
-9087 -3791 0
-9417 -932 0
9092 5783 0
-7550 -3946 0
4066 5659 0
5351 -11583 0
6867 1805 0
11653 3820 0
-351 2123 0
9895 6256 0
-7857 -12185 0
-271 -8150 0
2695 5184 0
-1220 9196 0
-3663 8951 0
3318 6342 0
-8337 1769 0
-3436 -11628 0
3181 -1285 0
-6502 12422 0
10 12336 0
-4703 6705 0
-11419 9621 0
2767 -5871 0
-6473 7956 0
-6053 -985 0
12247 -1798 0
-3201 11149 0
-96 11782 0
5997 9647 0
-1177 317 0
292 12355 0
-8493 10091 0
1737 -916 0
7438 -9934 0
11028 -5801 0
-4663 390 0
-8071 10974 0
-12080 12207 0
761 -573 0
12028 3682 0
-6590 10351 0
9376 -11670 0
-7925 2098 0
1246 -1097 0
1962 9435 0
-7379 -7404 0
-9509 -1795 0
-866 -9089 0
1590 -338 0
-4748 1485 0
-4269 -3444 0
-11398 -2905 0
-8289 -1133 0
-12379 -8829 0
5150 5104 0
-5686 -9629 0
8198 -11839 0
-2858 9087 0
-6388 -11280 0
-4329 -11663 0
-3033 -144 0
6589 3946 0
682 -10728 0
10374 9870 0
-1030 6024 0
12063 1386 0
8423 -7279 0
4329 9064 0
4454 -10044 0
-8582 4863 0
3791 -447 0
-9271 556 0
-156 -10222 0
5529 -2804 0
4111 11281 0
1139 -14 0
-5254 -12392 0
4827 6058 0
-9258 7121 0
3712 -9904 0
-3760 10234 0
1410 -4522 0
-9630 5322 0
-12300 -1731 0
-6652 -5289 0
11403 -5786 0
-2345 12063 0
175 -9230 0
-2015 6208 0
-7721 6371 0
-188 156 0
7873 -395 0
-5063 11214 0
9352 4473 0
-10767 -783 0
5473 -8390 0
8421 2438 0
-10469 -8103 0
8695 3059 0
4957 -6535 0
7986 6691 0
-9934 -9041 0
6893 -981 0
7313 -10551 0
3032 6335 0
-12439 -210 0
3496 9707 0
11320 -7386 0
-4950 11949 0
-5982 11888 0
9402 -9248 0
-7830 -9334 0
-5845 -3611 0
-5587 -7107 0
2497 7900 0
1413 9611 0
10001 -3920 0
-11722 11125 0
-1442 6992 0
-1088 2918 0
7502 -1245 0
3089 503 0
-10486 909 0
-3958 7817 0
-5170 -9822 0
-9634 155 0
8565 -2404 0
9971 -2723 0
-10928 -171 0
11219 3528 0
1694 6176 0
8123 -8598 0
3200 -4852 0
6727 9932 0
4380 -9963 0
211 3694 0
11228 -9885 0
-3779 5868 0
9143 2180 0
-566 -6108 0
8474 9033 0
8671 -4238 0
-10728 -1733 0
5762 -1395 0
-9561 -2248 0
463 -6318 0
11759 4281 0
6265 -471 0
-3415 -9713 0
4449 -7224 0
6969 2466 0
2648 -1316 0
6243 11049 0
-1880 -2077 0
-2196 -12470 0
1419 2587 0
-78 8796 0
11627 11689 0
7549 744 0
-4520 1595 0
12396 -10299 0
9514 -8029 0
11969 8973 0
-2208 -6902 0
-11753 10737 0
-8159 1823 0
275 11157 0
3326 8940 0
-11302 3760 0
-2820 6009 0
2277 2357 0
-8841 4835 0
8579 -3535 0
5189 12418 0
-5669 -3645 0
-4076 -4426 0
-473 -10832 0
-11616 -5884 0
8399 -640 0
-581 -2973 0
-1377 -3564 0
-10604 -7850 0
-10662 -7713 0
-3444 11239 0
1793 3545 0
3644 -9150 0
-9080 -7769 0
-7237 -6627 0
4305 8639 0
1851 -841 0
3282 10137 0
8678 -4162 0
-5105 -5285 0
-4180 6535 0
10529 94 0
-3977 11635 0
9558 -5293 0
10602 7061 0
-4467 1835 0
-10159 -3590 0
-843 9937 0
-8046 -8256 0
-6481 -143 0
-8490 -8460 0
3142 7362 0
5711 -5184 0
-3905 8345 0
-11436 12470 0
1823 -11052 0
-11724 -6516 0
4029 3290 0
-8795 -7360 0
-6517 -9940 0
9256 -4457 0
8277 -1818 0
-3513 10077 0
-11470 12064 0
8947 -4336 0
8360 -6325 0
9012 -1740 0
11933 -2404 0
5684 5100 0
-11538 11289 0
4535 9019 0
-2386 -2978 0
-5183 574 0
-5008 -12253 0
-2850 656 0
-6438 -500 0
-8008 -5182 0
-2409 -6057 0
-514 -10733 0
8263 9205 0
210 8508 0
9311 8763 0
11005 -12040 0
12115 -4721 0
5919 -4045 0
-4428 -11364 0
-5522 4132 0
-2492 -2486 0
3923 -10125 0
-8307 -4429 0
5634 -10233 0
-4104 900 0
4094 11145 0
-3340 -10054 0
-12013 418 0
3687 -7016 0
-8583 11019 0
5803 7980 0
12265 9323 0
-4581 11004 0
12126 7638 0
-5688 3022 0
6908 -7471 0
-798 -4818 0
-6207 -2926 0
3060 -5532 0
9139 11940 0
2334 -4676 0
269 10051 0
11216 9333 0
1920 1830 0
-5898 3074 0
-1072 7533 0
-3117 4795 0
-7257 12074 0
7664 4377 0
-9530 -7265 0
5374 1770 0
-7902 -8623 0
12151 3090 0
3716 9472 0
10155 -9933 0
-12040 7995 0
-1104 4236 0
9399 -8738 0
5821 6251 0
-4627 -10668 0
3437 -3338 0
-1975 9572 0
9616 8730 0
-12043 9398 0
-1808 11871 0
-5845 2933 0
-1517 -11914 0
-10688 7077 0
-8425 6729 0
-3963 -12397 0
6643 -12243 0
5876 2120 0
-12155 -5680 0
11081 6508 0
-3807 -6884 0
-3176 -6026 0
-10901 7189 0
-4429 10492 0
-7770 4531 0
-7195 -12039 0
-7908 10200 0
-11518 -7496 0
-3818 -10462 0
-3630 1332 0
12224 8804 0
-2747 4200 0
-10427 1917 0
-11820 -6869 0
-7992 -10552 0
1392 1662 0
-6117 -1126 0
-4821 -4900 0
-2378 -2786 0
-11750 7148 0
7641 7626 0
8856 -3117 0
525 7299 0
-11083 -5564 0
-11845 -9845 0
9709 -4420 0
-9416 -6531 0
10780 -543 0
-5604 -1145 0
-8798 -11369 0
-4975 5130 0
-5040 -8221 0
946 11491 0
4833 3674 0
6074 4035 0
-7307 8006 0
-10441 3041 0
-2565 2439 0
-2820 -9754 0
-6168 -6347 0
-8627 -11398 0
-2735 -5188 0
9872 -3919 0
-341 3724 0
-10909 -8591 0
-2841 831 0
-6247 -6960 0
820 -5668 0
-970 3860 0
-10501 7081 0
7124 1929 0
-8583 -5961 0
4247 3522 0
-5829 1188 0
-2277 -9259 0
-1496 -61 0
5201 -10212 0
4594 784 0
-2480 559 0
-7884 2706 0
9944 -9689 0
-4301 -6321 0
-10131 6360 0
-9486 -3136 0
5963 -7788 0
-12206 12245 0
-8721 3051 0
-9625 -7938 0
3635 -9349 0
-11600 10871 0
-5503 -7931 0
1269 -10893 0
8780 1022 0
-6179 -9025 0
11299 11545 0
-4788 -534 0
3088 7238 0
1353 -429 0
-4618 4668 0
3539 -6926 0
-10708 -7506 0
-7543 -4758 0
-937 9470 0
-7857 824 0
-6214 7933 0
1492 5362 0
671 3636 0
2300 -11598 0
586 6853 0
-10493 6553 0
4248 6301 0
11353 -11919 0
-4914 -3186 0
6794 -9316 0
-9239 6883 0
-8362 -12007 0
-2313 270 0
-2300 7594 0
3896 -2595 0
-8795 -5162 0
-8816 -11902 0
-5074 8481 0
10430 -7168 0
-88 -2081 0
1167 6099 0
4890 -70 0
-8301 2097 0
5912 2500 0
9103 -2084 0
1998 6523 0
-4548 -2681 0
-2069 8538 0
4999 657 0
-1566 -8118 0
4238 -7629 0
11099 -9304 0
5659 -4567 0
-10834 -7160 0
-11729 2656 0
8872 10820 0
-6546 2725 0
-12111 -9718 0
1035 7173 0
-9872 -792 0
-12165 10878 0
-74 -9747 0
5934 7812 0
-7758 7343 0
8236 4899 0
11527 10489 0
11591 4614 0
-5923 -1185 0
-8974 -10345 0
-2068 8527 0
-5068 -11141 0
3907 4860 0
10452 6386 0
5932 -8820 0
10083 3867 0
3085 -4509 0
-7387 -8446 0
7447 -4057 0
6578 2716 0
9478 3679 0
-3207 -2583 0
-2120 209 0
3596 -5687 0
9995 3278 0
-3672 2702 0
2605 5041 0
-5265 1506 0
8382 3674 0
-3300 7382 0
10101 -332 0
2158 -7165 0
-2206 -1816 0
-11011 11810 0
5328 -1157 0
-5663 -6117 0
-9898 -10098 0
-567 7898 0
-3887 -11689 0
5005 -8607 0
-7075 5540 0
7503 -9984 0
11685 4323 0
5870 -5905 0
-8509 -1601 0
1420 12068 0
11074 9271 0
3058 -11658 0
-10386 -932 0
-1727 6701 0
-112 -1368 0
-10501 -12084 0
-12009 1543 0
3744 9115 0
-3341 10533 0
414 10055 0
4278 2285 0
-3241 6355 0
10159 3085 0
-11741 -5869 0
-2857 2457 0
12020 9909 0
-5497 -5667 0
-7869 -6609 0
-8899 12151 0
-9325 3009 0
5962 -2375 0
-7353 7416 0
-9841 4530 0
8871 -3887 0
-10972 -5120 0
7822 -1566 0
-2907 12063 0
-9186 10201 0
12303 4480 0
8328 6477 0
5881 -11383 0
-5135 -9628 0
-11394 9365 0
-3134 -5330 0
-5248 5406 0
-4815 -2928 0
-3494 -7691 0
6213 -4971 0
5550 -12154 0
-12477 -1667 0
-2852 -3291 0
-5147 -4023 0
-5835 -1695 0
4858 -4805 0
11230 5839 0
-916 4796 0
2915 -9465 0
-11573 1493 0
2765 -12069 0
3055 -841 0
555 10859 0
4714 6833 0
-8935 2125 0
5903 -3786 0
-8158 -6790 0
8268 5758 0
7940 -6566 0
-2228 1506 0
-10258 -10551 0
11590 -899 0
3887 -731 0
1096 11700 0
-12301 11695 0
-7353 9852 0
3658 -6899 0
-8092 2667 0
9236 -7319 0
1971 8303 0
1570 -1414 0
-3798 -429 0
-10390 8575 0
8647 -545 0
4478 8322 0
9327 10123 0
11430 -9108 0
-4647 8042 0
8709 1995 0
-11371 -2074 0
-2628 4732 0
5761 12326 0
7038 11718 0
1776 9973 0
11837 6292 0
8361 -1851 0
-1460 -2227 0
-10391 8245 0
1976 -2320 0
-11640 -7242 0
3120 -11429 0
9326 -8663 0
6412 -110 0
-6492 2944 0
7389 -8366 0
3142 -10209 0
722 9766 0
6033 2724 0
-3696 -1682 0
12040 -8582 0
1582 5631 0
-5540 -10316 0
12325 -1015 0
12400 8578 0
-12204 2649 0
10898 -10384 0
-9502 901 0
2253 -12434 0
159 -8658 0
10235 12438 0
6689 12036 0
6446 11351 0
-4574 -9672 0
9367 6649 0
9284 11348 0
-1830 2274 0
-9848 1239 0
-2312 -3791 0
11943 3679 0
6724 10266 0
1259 -4132 0
5427 2940 0
-5075 -1925 0
-8499 4416 0
12315 3967 0
-5427 2991 0
-6392 1326 0
3660 9366 0
7806 4405 0
3830 9918 0
-11504 -790 0
6817 7943 0
10052 -387 0
-6378 -6769 0
-2965 -4012 0
-7407 925 0
5318 1013 0
11739 3617 0
-922 -5689 0
-7089 7030 0
-1778 -4216 0
-5331 5767 0
-1686 6693 0
11127 -10597 0
8692 -11474 0
9224 -5442 0
-137 -12468 0
279 -10844 0
-506 10110 0
-8105 -1297 0
-2322 2480 0
-10628 525 0
-3406 12364 0
7079 9937 0
-6933 10069 0
-5980 -12005 0
4125 -4952 0
-201 1137 0
6197 -11787 0
-5212 263 0
-9360 8249 0
6878 -5370 0
7089 4256 0
814 -419 0
10873 7978 0
12011 12318 0
-6883 -7721 0
-11942 -4765 0
-8925 5890 0
-7455 11657 0
-4762 -8296 0
-6923 8376 0
-5312 -5244 0
-10754 -8034 0
-5197 104 0
9441 -10991 0
-4606 -10307 0
-8932 5843 0
-7274 -772 0
10304 -5215 0
9870 -4206 0
7278 -6968 0
-4105 -9683 0
8992 9159 0
8979 -10672 0
6920 -4653 0
-522 -7787 0
-11328 -11356 0
8474 4245 0
-5444 -11729 0
5629 436 0
-3649 -3113 0
10992 -1810 0
3745 -3908 0
-7298 -1636 0
-11250 10207 0
2851 2777 0
2036 -2905 0
12210 -10672 0
-6498 -3825 0
4934 2182 0
5394 11651 0
-6950 3996 0
10285 7165 0
512 -3073 0
-4017 -7534 0
-3645 2103 0
12213 11884 0
-6555 3081 0
8863 -1672 0
-4375 -10938 0
11986 -618 0
-11999 -5376 0
-11184 8597 0
-2935 4284 0
3911 -11178 0
-7537 -6680 0
3945 4495 0
-9518 2144 0
8029 263 0
8765 -3993 0
-5223 -12024 0
-11245 3588 0
-7105 -5460 0
477 2138 0
-351 10454 0
8712 -3038 0
-9866 11631 0
-7376 -12018 0
9281 8826 0
-7680 494 0
7693 -2125 0
-10449 323 0
-40 11557 0
3815 -92 0
-2800 10446 0
-6994 -2375 0
2221 -1377 0
-8733 1593 0
2330 3829 0
1672 -1081 0
-3772 7272 0
10499 10063 0
-8596 9404 0
-3530 -7523 0
6674 9881 0
-10356 -1506 0
-4944 2458 0
639 -11990 0
3771 -330 0
11712 6739 0
-4915 4823 0
-1516 -425 0
-9604 10470 0
7953 -150 0
-2302 5789 0
-7640 5809 0
8810 5874 0
1322 -5540 0
-10683 9354 0
3938 4229 0
1298 2622 0
3157 12131 0
3307 3944 0
-8164 -11598 0
-210 6328 0
10896 -760 0
1175 -11867 0
10959 -11147 0
8606 9210 0
-9791 -8717 0
-2140 5754 0
-9485 9037 0
-4397 -3400 0
-5060 -11122 0
6940 -3275 0
7641 3484 0
6193 -8852 0
-11923 -9396 0
-7993 -5574 0
-8429 9281 0
6976 -2795 0
-10469 11764 0
-8980 6333 0
4054 -8235 0
-10923 -12183 0
-800 7180 0
4528 298 0
-4015 2979 0
5080 -10657 0
-9177 2174 0
9121 6640 0
187 -4444 0
-10057 11747 0
7584 -10118 0
3536 -8012 0
-2362 -2714 0
-11685 9616 0
-10417 -134 0
7315 -3021 0
10912 4063 0
6727 -6163 0
-12309 -963 0
-3858 -10420 0
689 8961 0
-7034 2163 0
3548 9824 0
-580 -4622 0
-4305 -8292 0
-9276 11910 0
-10579 5634 0
-2459 -8656 0
8870 6953 0
5864 -9715 0
-4974 6473 0
3323 -338 0
12342 3733 0
8818 -4037 0
-5217 9126 0
8504 12177 0
-646 3604 0
-9886 -11205 0
5995 6981 0
-7217 -8642 0
-663 -3963 0
-4815 3924 0
301 -5843 0
-9899 -8152 0
6881 549 0
-5226 -12274 0
2032 5301 0
2218 7246 0
11891 -4700 0
10028 3464 0
5101 -7831 0
-10901 -4001 0
-952 -1430 0
-10260 4287 0
2421 2343 0
11745 -11471 0
-11804 4293 0
5316 6476 0
-11811 2434 0
3557 4187 0
11431 -2969 0
-1429 -10007 0
7120 3493 0
-11628 -5142 0
11405 -8264 0
-12132 -3357 0
-5172 -9559 0
4829 -12474 0
-523 -10913 0
10535 8120 0
11631 8846 0
10859 11464 0
578 2621 0
8484 1127 0
-898 -8534 0
-9261 1875 0
6455 8051 0
-11110 2011 0
833 -3137 0
-3869 -319 0
7910 -11815 0
-7214 -5180 0
7267 8590 0
10138 -11666 0
-567 7870 0
10777 -11104 0
5848 -3951 0
-12343 7054 0
9354 3292 0
-1646 -12102 0
-11673 8930 0
3938 -10805 0
1232 11049 0
-11151 6467 0
-9347 9016 0
7206 -5614 0
-5411 3470 0
2193 -9463 0
1242 -8312 0
8476 -8522 0
4133 -6070 0
11826 -8096 0
-2628 -5506 0
12142 5594 0
-328 -4816 0
-9958 3675 0
5603 -10174 0
1560 2362 0
3853 9942 0
-4442 -9483 0
10255 9239 0
555 8715 0
-582 -368 0
-4760 9681 0
-3320 10368 0
-8489 -12163 0
7096 5258 0
-3193 12011 0
-3772 2121 0
-351 -4493 0
-2263 8497 0
-9366 -7137 0
-8251 -8220 0
-7157 -966 0
10513 -5797 0
539 12117 0
2274 -4618 0
10657 -6786 0
3768 10753 0
-4301 1754 0
10739 -10469 0
11431 5755 0
3556 -6751 0
-1780 -11073 0
-10665 -10942 0
10882 6339 0
-2678 -8514 0
7365 7878 0
2328 7019 0
5072 -1877 0
-1290 -2768 0
10135 7448 0
-2486 -1704 0
-3151 6123 0
-1866 -12180 0
10843 -3262 0
6648 12296 0
12260 -2551 0
12385 -4057 0
6926 -9807 0
-5719 1790 0
-10691 1884 0
-2138 -9360 0
3916 -8453 0
1505 12086 0
11380 -10032 0
-11123 -10363 0
6614 11656 0
-7650 9417 0
11976 2496 0
5574 2466 0
5365 3707 0
6537 3932 0
-5693 -6285 0
-3371 -3572 0
8969 -645 0
7006 -5822 0
-11771 -88 0
-8356 8178 0
-8752 10547 0
-4539 -954 0
-3392 11722 0
-9553 -1972 0
6755 -909 0
918 8384 0
3150 733 0
10959 -6378 0
3381 -10868 0
4330 -6758 0
-4907 -7443 0
4980 -6193 0
-4456 -3125 0
-3806 -6081 0
-1222 -8026 0
-9468 -11187 0
11653 -4872 0
2718 6197 0
12410 6975 0
-9009 8387 0
-8454 -4265 0
-2708 1883 0
-11101 -829 0
-7050 -3579 0
-11860 3196 0
12224 4381 0
-7905 -3460 0
947 -12270 0
-11283 7956 0
6281 11144 0
424 4018 0
-208 4624 0
-5062 3344 0
6993 -9090 0
-10670 -10615 0
-5513 3098 0
-2438 2188 0
9284 -187 0
-11000 -2025 0
-3148 -9662 0
-2205 -8315 0
9074 11476 0
-6468 9548 0
-8233 -3270 0
6183 7826 0
-7113 443 0
12043 -7499 0
-12337 -6116 0
-6090 -4818 0
10574 -8018 0
-8441 -6532 0
-2847 392 0
3617 -6902 0
-4527 1968 0
9109 1250 0
5647 -5986 0
-2086 2040 0
9229 -11725 0
11455 -2955 0
3050 -7517 0
-4156 9218 0
-12223 10980 0
-8407 10547 0
-881 -11669 0
-6178 11297 0
-6118 -6242 0
6536 12032 0
11034 660 0
7176 -5794 0
1763 4509 0
-6297 1164 0
-1290 -12209 0
-5718 1317 0
-2158 -6514 0
-3099 9217 0
18 2690 0
-11382 -5929 0
640 3227 0
-4545 -8622 0
-10653 7707 0
-1779 8097 0
-4675 -487 0
2963 1766 0
5514 -10071 0
-9773 9875 0
-462 -4217 0
132 -9110 0
-12396 2 0
3659 2665 0
12072 7935 0
-10779 -671 0
-8468 9358 0
4549 -8066 0
8239 -3260 0
7234 -1244 0
-8524 -5683 0
-4157 -12315 0
-3950 -3118 0
-11267 2482 0
-11872 11118 0
-3318 -577 0
10427 4109 0
10883 10647 0
9870 -5926 0
-7724 -5597 0
-8995 -21 0
2901 -4605 0
-2800 -11092 0
2532 -2712 0
9982 10007 0
8054 -4273 0
-11266 -5937 0
10043 11647 0
-3267 -8463 0
-11761 -9904 0
10761 3061 0
-8550 11816 0
-568 -8005 0
7216 -8841 0
6662 -9569 0
9663 11040 0
-6774 -2168 0
11890 -2032 0
1000 8933 0
-11923 11247 0
3457 4093 0
-9047 -5044 0
6212 6928 0
-11682 -11892 0
-5533 3606 0
-8857 10421 0
-2016 1458 0
8119 3433 0
-9109 8122 0
-10257 11388 0
10187 10798 0
-8983 -4795 0
-667 -11759 0
8548 -7009 0
-10865 12318 0
-10919 -8900 0
-11291 1226 0
-1914 4698 0
3356 4362 0
-9694 -2533 0
-4728 1432 0
-4160 9757 0
-9096 11899 0
11264 6587 0
9193 -5267 0
-43 8113 0
3180 7366 0
-6690 -7495 0
2532 2537 0
-2133 2827 0
-5883 -1872 0
1638 -5961 0
37 -10064 0
-4543 5858 0
2761 7945 0
4873 10693 0
2346 -9148 0
3079 11802 0
12154 -8181 0
-867 10684 0
786 5020 0
6244 -8691 0
-11099 -765 0
-2270 -738 0
10978 -4243 0
3076 7743 0
-2668 3978 0
10016 -3771 0
5722 -1278 0
12434 -489 0
-8910 3857 0
-8830 -3836 0
-8437 830 0
1737 9381 0
-1840 9216 0
-11729 819 0
-11344 -331 0
-3866 -1229 0
-1493 686 0
-9947 -4689 0
-4787 5629 0
650 -7285 0
-4778 -12141 0
-5310 -1727 0
-7843 9093 0
11119 10239 0
-9890 -5232 0
11358 -11411 0
-2209 -1823 0
1696 6647 0
-1045 -4017 0
-1898 -3361 0
-7264 -3887 0
-8135 11710 0
-3782 3074 0
-6796 6926 0
170 3795 0
-6242 -1134 0
10966 6377 0
11386 7886 0
-10159 -4090 0
-4472 10676 0
-2900 -526 0
-8296 -9983 0
6050 -6922 0
-10569 11457 0
5619 7282 0
592 -4410 0
9827 5913 0
-9824 -453 0
-8157 4342 0
10952 6333 0
9778 9188 0
12189 494 0
-10804 -8117 0
-5846 -3904 0
90 -2780 0
7024 -5630 0
-9406 4751 0
-509 -4424 0
4663 1248 0
-497 -1493 0
-8664 261 0
7120 -5094 0
8072 -8582 0
2046 10035 0
-10333 -8325 0
1029 -11627 0
11516 4163 0
7936 -10186 0
-8833 1200 0
-7878 6857 0
-10292 12362 0
-2439 -4578 0
-2455 5933 0
6348 11799 0
-10750 931 0
11285 -4097 0
10831 10448 0
-6552 -365 0
-9440 -2297 0
-6071 -2539 0
11579 -2637 0
5870 10491 0
-11449 5769 0
8239 1639 0
-689 9650 0
4542 -2307 0
-2284 335 0
-7235 4893 0
-5121 1061 0
-1092 -12089 0
7806 -12271 0
8909 -11919 0
-8003 -2368 0
-10724 4633 0
10823 11788 0
6316 -11907 0
7972 933 0
203 -10231 0
292 -7220 0
-12288 -4488 0
2695 -11849 0
555 -1998 0
5834 9112 0
-7988 -3795 0
6388 6741 0
10722 11242 0
856 -878 0
-9721 7406 0
-5853 415 0
9488 5759 0
6943 -12300 0
5128 -4411 0
-9884 -1190 0
-294 -11761 0
-2530 -1186 0
983 10956 0
7848 -3974 0
6750 9276 0
-11161 194 0
12241 -6118 0
-8037 4066 0
-2924 7884 0
6487 -10277 0
-9253 4534 0
-11668 -5518 0
3727 -6241 0
10239 5590 0
3617 4669 0
12457 6129 0
10667 -8031 0
-6732 446 0
-11118 6243 0
5478 -6196 0
-9688 -10867 0
-7707 -5029 0
3292 6371 0
-3752 -3962 0
8071 3563 0
-11110 -955 0
2975 -5590 0
5157 -5070 0
-6269 -3868 0
10722 5962 0
273 3620 0
5993 -5709 0
-256 -5806 0
-5496 1903 0
10774 8681 0
-8353 6136 0
9684 11103 0
2771 2986 0
6031 6156 0
5038 -8777 0
-7871 -10091 0
-11130 1515 0
-9711 -1512 0
-11797 8429 0
-13 5839 0
-2921 -9352 0
-1143 -5571 0
-7206 -8766 0
1115 11046 0
-1993 2856 0
1662 2916 0
-573 2424 0
940 -10457 0
-840 12394 0
7817 -10618 0
7020 5035 0
-69 40 0
-3016 8593 0
-9751 8109 0
-1954 6356 0
434 2388 0
-1512 7758 0
4766 5825 0
-12405 8404 0
6107 2725 0
7631 -2128 0
-1628 1232 0
9255 4309 0
5574 -542 0
-11802 9482 0
383 275 0
-7193 3381 0
-3095 6743 0
-658 -6893 0
-5416 856 0
-11133 -9824 0
10552 -3511 0
-5216 -6318 0
-1493 -12002 0
10711 3499 0
-5948 -4327 0
5755 3553 0
10592 -10049 0
-2161 869 0
4434 -4980 0
-12050 10518 0
-10169 2376 0
-8981 245 0
-5144 7517 0
-9709 -9930 0
8273 10175 0
-2294 -8791 0
-12437 2600 0
1813 -5589 0
-3687 3452 0
-3405 -8864 0
2527 -1645 0
1012 -2257 0
2149 10184 0
-6344 6543 0
-12399 9906 0
-8967 -158 0
2771 1283 0
2131 1200 0
6857 -6064 0
-1481 1873 0
9749 -9730 0
-8419 -9844 0
5926 -9602 0
12239 4823 0
-111 5372 0
8247 9140 0
-7970 -11298 0
7973 -8729 0
2868 -9847 0
-3373 -3260 0
-2544 -682 0
-3936 -3967 0
-3661 9580 0
8447 1607 0
-9391 -4204 0
-4146 -1651 0
-5913 360 0
-5009 4462 0
-2204 4096 0
10537 12269 0
-982 -7451 0
-9491 4596 0
-5456 -10331 0
-9867 9602 0
9357 -8854 0
-10434 -10019 0
-758 9003 0
6260 -12317 0
609 10052 0
-4749 2496 0
-6452 8624 0
-6098 6618 0
-399 8948 0
1667 5354 0
-1103 -5941 0
-7279 -4200 0
-4706 -12406 0
-8114 -1343 0
3482 -970 0
-6699 -3234 0
-3626 1397 0
6629 -7680 0
2975 10004 0
-2455 3792 0
1484 -4966 0
-5788 -5101 0
-6586 7173 0
10231 4072 0
609 -4113 0
9677 -11766 0
-11186 10822 0
11670 2892 0
2956 2816 0
-1711 5502 0
-2339 -9005 0
-4721 7361 0
5974 8739 0
-4242 5991 0
6038 -10062 0
-3740 10730 0
548 -1943 0
2210 6060 0
4696 7598 0
3721 12391 0
520 1678 0
10020 -3462 0
1293 -9913 0
11669 10658 0
-10812 -10492 0
3779 -9040 0
10181 -12472 0
1101 -479 0
-3989 4035 0
-12101 860 0
-7994 -11014 0
9697 1319 0
-486 2092 0
-11815 2814 0
-2196 -8349 0
-1728 12346 0
6655 -9949 0
-7614 -10855 0
-2889 -3790 0
3007 -12273 0
1640 -4720 0
6180 7624 0
2333 -11229 0
-9971 3505 0
-11992 6952 0
-9120 7688 0
84 3326 0
-9679 -1335 0
2947 -10985 0
-11485 -5758 0
-1037 184 0
6355 11487 0
2842 -2509 0
-10447 1470 0
682 -2696 0
7087 8968 0
4815 9118 0
-10364 -9566 0
12035 7778 0
-11343 11611 0
10243 5377 0
1916 8908 0
-4744 9188 0
-3519 -7993 0
-6325 -4191 0
-141 -6340 0
-5549 8203 0
-4829 -5388 0
10297 -10786 0
-3503 3587 0
9756 -11287 0
3679 -8153 0
4114 -2985 0
-11778 6638 0
-8967 -11624 0
2067 10558 0
4192 -8603 0
304 3267 0
-12035 -6081 0
-10705 -3262 0
5543 -11815 0
11889 -5856 0
10791 3203 0
-8765 4578 0
3413 2547 0
-1805 12201 0
-10793 11386 0
-3271 3076 0
-11783 2412 0
9997 -9992 0
2685 -2519 0
-5029 810 0
-9295 -3209 0
-5137 7352 0
697 9087 0
-4276 -12138 0
7823 1102 0
3930 6995 0
418 -1302 0
-9595 -9108 0
2092 -6372 0
637 11818 0
-6026 -4847 0
-6750 2679 0
-2574 -6284 0
-971 11469 0
-5901 -9837 0
11586 1459 0
11278 -7488 0
-11211 -2406 0
-6720 -1738 0
-4383 8554 0
-4082 3307 0
7326 -5438 0
-4614 7877 0
5644 -7481 0
3673 2791 0
684 10505 0
8522 6795 0
9614 -11630 0
-9519 12393 0
4432 4623 0
-3631 1280 0
2221 -11832 0
583 -6672 0
6757 3922 0
9893 4431 0
7507 -7527 0
9286 -5425 0
-8100 -5815 0
-8566 3188 0
-8178 6579 0
-9026 9013 0
6864 605 0
8069 10538 0
2835 -10157 0
9181 -9714 0
-6791 -9657 0
447 -9436 0
7373 16 0
6385 11774 0
-8577 2202 0
8098 -8248 0
-8507 6088 0
-7681 -10270 0
-10413 650 0
-9293 3771 0
8200 510 0
-3723 7677 0
7830 1834 0
6959 -11757 0
-11146 -6494 0
7458 -9977 0
11671 -5530 0
-7496 2719 0
-5070 7868 0
2962 -9797 0
-1235 -8586 0
-9712 6154 0
1621 2258 0
-9820 -1605 0
-4948 1127 0
5404 -1813 0
10087 8826 0
-9082 -10358 0
-10369 10593 0
6271 -969 0
5713 11870 0
4873 7135 0
6600 6923 0
-4008 -3980 0
4628 -3155 0
7347 -11121 0
12134 4636 0
6848 -6555 0
-8480 -9471 0
-6280 2711 0
-5657 -6462 0
-3525 -9613 0
-3963 -10109 0
4002 -6612 0
144 -9055 0
11649 2603 0
-5068 8743 0
-8094 -6824 0
-7753 455 0
-6468 -2207 0
-11067 10033 0
-4699 8319 0
-4109 -4591 0
8668 6804 0
810 498 0
-2502 -9875 0
10648 406 0
6619 6464 0
5405 -8468 0
-298 12091 0
-10891 4934 0
4685 2383 0
-7522 -5520 0
-3837 -6165 0
9109 -1523 0
9241 -8557 0
-6307 -7963 0
-4902 7736 0
3211 -1479 0
-346 -4415 0
-7016 -11596 0
-11397 382 0
11781 11180 0
-12236 -4302 0
4241 -8321 0
-6767 -11186 0
-4742 -7419 0
7062 6536 0
3472 -10187 0
4641 -2130 0
676 10037 0
-11135 11980 0
-6098 6906 0
-10193 -6248 0
9407 936 0
9086 6448 0
-4119 3059 0
-3663 -8933 0
-4828 3365 0
3501 -7407 0
-10007 1477 0
4127 -2108 0
-8309 -9613 0
-10542 10480 0
-3113 6270 0
5165 4329 0
6249 11939 0
8395 -2320 0
-5358 4111 0
6177 4094 0
10080 5485 0
-2564 7155 0
-320 9257 0
-6758 1699 0
6545 -11944 0
-12293 5443 0
-7487 5047 0
2632 -3235 0
510 -12240 0
2109 4617 0
7335 835 0
-9624 -9537 0
7193 -111 0
-1032 -4676 0
6817 9502 0
-2962 1283 0
9466 -12423 0
-9937 -5829 0
3594 3091 0
-12043 831 0
-4764 366 0
-5791 1394 0
-6644 860 0
-6190 5375 0
-2314 8873 0
6694 8617 0
8273 5695 0
-2389 7181 0
-7437 2621 0
6044 5302 0
-7506 10479 0
5354 -5221 0
12416 9304 0
3559 -1615 0
6872 -2973 0
11936 -11266 0
-6161 -12094 0
10571 -12399 0
-10696 10589 0
9410 -11737 0
-11436 9950 0
-976 6494 0
6371 -1940 0
-9737 -3109 0
5429 9191 0
2927 2700 0
-9043 -3625 0
8554 11895 0
-4143 -7605 0
10314 7651 0
-7163 10396 0
-2616 -2565 0
11180 -5531 0
-6844 6825 0
-7031 3034 0
-12116 2439 0
5959 -6358 0
8820 -3752 0
2790 -10777 0
2605 2886 0
-8388 -6272 0
-4612 11576 0
-6143 9034 0
3052 893 0
-10170 9796 0
10949 8856 0
-7097 5995 0
1291 -9999 0
-6283 7538 0
-9566 -3862 0
-2336 315 0
-7490 -3139 0
-11110 -9205 0
-6738 3040 0
-10363 -3584 0
-8267 -1633 0
-11128 5434 0
1593 12249 0
4611 1655 0
11614 5552 0
-9180 6934 0
7895 8942 0
-8112 -5267 0
269 12106 0
-4647 -1008 0
-3801 2210 0
-10335 -2743 0
-5088 10284 0
-2557 6534 0
-4749 -1785 0
3821 -1880 0
-5403 -858 0
-10552 2755 0
-9153 -8107 0
9909 -851 0
-9734 -1294 0
3557 -12353 0
-4969 -1341 0
11337 11434 0
-2804 -2965 0
5822 8974 0
7548 6132 0
3614 -1377 0
-5232 8600 0
-8492 -1070 0
12386 5778 0
4072 -222 0
3964 654 0
10178 894 0
8883 -6462 0
5857 -1718 0
3524 -725 0
-11925 -8291 0
-5955 7216 0
7778 -6152 0
-6287 -9408 0
7307 10718 0
1749 -12464 0
1538 9899 0
9448 11195 0
5644 5562 0
-2595 4610 0
-11795 -9680 0
-8159 5516 0
12008 -464 0
8748 -8351 0
8308 -2146 0
5033 -4634 0
10784 116 0
8088 -10380 0
-873 8961 0
-2946 6083 0
7597 -7473 0
-8258 380 0
7116 -3753 0
-12357 -3053 0
-11187 6971 0
1677 2172 0
-12264 12234 0
-10148 4723 0
-8746 -798 0
11722 -5075 0
-7825 -9847 0
-4555 -1516 0
2207 -5664 0
-8733 3384 0
-394 -579 0
-11524 3652 0
5358 -1932 0
-12188 -6738 0
12239 5622 0
-9319 2079 0
8314 -298 0
-8833 5215 0
-10103 -3959 0
-10341 7581 0
-7798 -2262 0
2824 9220 0
-7622 9100 0
3256 1075 0
10102 12406 0
-6370 -2490 0
8844 2447 0
-1259 11242 0
527 -9867 0
7030 -7496 0
11379 -1652 0
11899 -4122 0
231 -11673 0
5934 2793 0
3440 -4879 0
3582 -11668 0
11966 -7187 0
11903 -10249 0
-2636 2499 0
1675 12322 0
8572 -10733 0
10495 4506 0
12104 3599 0
-4572 -7431 0
3087 -1239 0
690 8065 0
-6704 -5874 0
3129 -1652 0
6552 7580 0
10864 1578 0
6150 -11036 0
-11857 -10097 0
4522 -516 0
-8127 -11933 0
10287 8523 0
-4362 4176 0
-9694 -5672 0
-2268 194 0
-3117 4298 0
8062 -9817 0
-8665 12001 0
-6014 6937 0
2237 -6547 0
-9063 9708 0
-2738 11582 0
-7931 -2275 0
278 -7550 0
-4118 6624 0
-4563 12223 0
-8108 896 0
8667 8306 0
8809 -10061 0
-591 8010 0
9179 1990 0
-5944 6123 0
-11975 7324 0
-3920 10241 0
-1910 9037 0
-6941 -3741 0
-12240 -7867 0
-5117 -3388 0
-2105 1123 0
1832 6198 0
-7302 -6096 0
-5589 -11655 0
-2524 4278 0
2281 9732 0
-6518 10847 0
-4008 12427 0
5487 -11599 0
-10456 8639 0
-2294 -10972 0
9548 -4083 0
8868 -9419 0
-10745 9396 0
3180 10619 0
-1121 -9082 0
-178 -9145 0
-7104 11967 0
5644 1427 0
-8371 11243 0
8165 -6130 0
-467 56 0
-9314 -8254 0
-4924 4665 0
-3937 6147 0
-7192 -5580 0
9549 3325 0
8788 -11931 0
3216 -5330 0
10116 -7733 0
-851 5528 0
-957 4927 0
-5070 -7563 0
10093 -12131 0
-5158 1439 0
11190 12453 0
9797 -8551 0
-2628 3560 0
8882 7084 0
-10671 4283 0
-3477 8415 0
8123 -2317 0
-4874 4750 0
5838 9747 0
2796 -2607 0
3468 -1681 0
11919 1489 0
4428 -4751 0
-4575 -1789 0
-9111 -5568 0
-909 431 0
2452 5795 0
6136 -10684 0
-5533 -11283 0
9428 6927 0
-4216 7510 0
2034 -4782 0
-755 -8382 0
-8211 -7917 0
-8005 11041 0
-4812 3097 0
-8033 -7317 0
-2263 -4679 0
5187 2856 0
-5900 -4961 0
4284 -3250 0
8953 -3 0
1051 5582 0
2403 1877 0
6911 -9058 0
-12163 -12181 0
-818 11334 0
351 3086 0
440 -2928 0
-9815 10924 0
5936 5025 0
-6053 691 0
-11323 6683 0
680 9394 0
-11030 -1196 0
-1554 5262 0
-1007 -7641 0
5421 -12054 0
8277 -2507 0
12059 5323 0
7860 1139 0
-7251 11094 0
-11776 -850 0
5500 -7157 0
-7243 -5045 0
4957 9099 0
-5751 6693 0
6850 1261 0
1723 -7307 0
3976 -8151 0
3964 -7861 0
2173 -3707 0
-11783 -11491 0
-3736 -1343 0
-8201 -9238 0
-5524 1088 0
10836 -524 0
9069 -857 0
-4897 2701 0
-2846 4778 0
1105 6180 0
7055 -125 0
-7384 -3133 0
-10713 8341 0
5374 -7522 0
-9732 -7364 0
5544 7224 0
-4615 -8098 0
10761 -12411 0
-8153 9238 0
-10299 9694 0
-6295 -6470 0
41 8639 0
-3177 -11147 0
-1242 12424 0
8223 1957 0
7406 5011 0
-633 4696 0
921 8909 0
9582 10287 0
5166 -10991 0
-6725 -7099 0
2951 -2615 0
-1282 -6828 0
5438 9691 0
3320 1007 0
-7602 -1531 0
-1400 3266 0
-1671 7838 0
-11266 -458 0
828 6818 0
-3653 -10656 0
-10918 7909 0
-303 12189 0
4803 -9526 0
4999 -5261 0
10429 11370 0
-5228 -6907 0
10761 -11694 0
-2495 6782 0
-9879 -143 0
-8862 7342 0
-5520 -3761 0
9995 3433 0
-4286 -11461 0
-2482 1219 0
6837 12141 0
-9715 168 0
-8210 -2591 0
8257 9017 0
-7812 -9102 0
6541 8849 0
8873 10051 0
-4455 3239 0
-10569 -10613 0
11148 10137 0
-4232 -8121 0
2412 -11042 0
-5773 -848 0
5866 -8583 0
-6203 4018 0
-9207 -9112 0
1120 356 0
4179 2389 0
-1622 7329 0
2621 10265 0
-11433 -3507 0
3081 -6940 0
4186 3344 0
4836 -2370 0
6193 -1448 0
3320 6102 0
-10163 -4855 0
7753 3207 0
11712 9500 0
5695 -4380 0
-9998 -12033 0
740 -9899 0
11646 1291 0
8291 10605 0
-1515 1848 0
-11880 -5648 0
12045 -10926 0
-11214 -7589 0
9788 -5402 0
-11442 3080 0
5290 -5834 0
1848 3025 0
-907 -9431 0
7344 9475 0
7936 -7957 0
3371 5345 0
7412 9885 0
4128 12336 0
-10891 -8524 0
-8334 10638 0
-6696 2579 0
-9455 7029 0
6076 -7909 0
8012 3107 0
9922 10802 0
5819 -7553 0
-2843 4226 0
3086 -8511 0
2790 12086 0
9255 9008 0
-3296 -7650 0
-6767 10787 0
-10100 3674 0
9445 1913 0
-9812 3313 0
1771 995 0
1207 11680 0
9623 -3870 0
1700 6393 0
-1778 1856 0
10256 -2993 0
-6538 6233 0
-2371 -12206 0
-2127 -430 0
-7086 11782 0
11482 1127 0
11709 1949 0
5109 5090 0
-10750 3202 0
-7674 6174 0
-7746 12252 0
10199 -9711 0
9196 -1510 0
-8653 11052 0
4751 1686 0
-10920 10667 0
-6735 -1253 0
9211 10160 0
6505 4253 0
12080 12279 0
-3332 -9628 0
6631 -141 0
9311 6942 0
2296 -9729 0
3618 -2033 0
-2767 -859 0
6560 -2504 0
-4353 -7404 0
-11607 -4848 0
3070 -2223 0
-9186 8117 0
-1237 7874 0
2904 1261 0
-314 9523 0
12174 -6430 0
6749 -4038 0
-11040 10602 0
9968 -336 0
12033 11447 0
-8870 -2296 0
-856 -3229 0
5738 7346 0
-3457 4198 0
-8003 5963 0
-4379 3376 0
8973 5080 0
8403 -6389 0
12294 -2906 0
-416 -4947 0
-2958 -9666 0
-3635 6797 0
9870 -5673 0
-11025 11312 0
4950 3928 0
4860 -10047 0
3195 5189 0
4625 6151 0
7893 -11385 0
-197 10734 0
8015 4904 0
-11663 -4353 0
-8259 6435 0
-1459 -11279 0
-4852 9718 0
4085 -7177 0
-8331 -46 0
-7857 -1202 0
4406 -12003 0
-11069 3078 0
95 -5127 0
1423 -5942 0
2551 5753 0
8266 -3757 0
1580 8395 0
-11838 -10294 0
-11946 4259 0
-9412 1493 0
6220 5345 0
1228 -8327 0
7481 -7155 0
158 3328 0
10069 7376 0
6221 -3635 0
4924 4556 0
9410 11198 0
3992 1592 0
7564 -3541 0
5502 11416 0
11818 7495 0
-10497 427 0
7394 12207 0
-7582 6152 0
-10339 4458 0
-2746 7012 0
2033 -11303 0
-12377 -9332 0
9702 187 0
3111 1979 0
-5714 6464 0
-7773 -1486 0
-827 -5661 0
-8138 7931 0
-8650 -11491 0
-6146 -7398 0
2546 9036 0
-1721 7512 0
-6398 8505 0
1134 -11023 0
4171 9034 0
-5951 -12402 0
2499 9107 0
11375 10366 0
3031 5072 0
11371 -720 0
-932 9305 0
-5756 -4484 0
4804 11886 0
1003 3974 0
-6350 -2727 0
-7706 1499 0
-10987 -11250 0
6126 1568 0
2037 6108 0
-6473 6775 0
10826 -5219 0
9282 -12371 0
-1606 5936 0
-8215 -2756 0
9028 -12221 0
6294 -2678 0
-9361 4074 0
211 8702 0
11915 179 0
-5308 1465 0
-2741 -6644 0
412 -11884 0
531 2384 0
95 2026 0
-4424 2086 0
11445 5409 0
10056 383 0
5814 4684 0
-6980 2658 0
6481 9796 0
-8779 4993 0
8293 3061 0
-7406 4458 0
-6685 -10325 0
-6810 1112 0
9676 -5927 0
-9333 4953 0
11747 -2126 0
-7858 4408 0
6516 -9368 0
3556 -3704 0
3190 8597 0
11977 -9171 0
-9086 -2438 0
2160 2297 0
3872 1537 0
-8069 11705 0
7522 -6990 0
-3919 -3992 0
6928 8038 0
2322 -6882 0
-11261 7159 0
8618 -6851 0
6169 -6648 0
5778 7134 0
-10650 714 0
-4969 -11370 0
-2715 -5396 0
-3722 2461 0
-2472 -4504 0
-10148 5724 0
9126 -6160 0
-11982 7246 0
9371 6084 0
-33 1841 0
3119 -4806 0
854 227 0
-1313 10063 0
6186 10645 0
-8392 -639 0
-5368 -2865 0
2883 9990 0
-11104 -2920 0
3647 -7763 0
1920 1818 0
11021 12364 0
592 9967 0
102 -6317 0
-9970 -5663 0
4991 2951 0
-448 -3521 0
-11359 -5589 0
8396 11073 0
6891 1689 0
-3384 -2583 0
-6635 -5358 0
-5477 -3034 0
-11020 1634 0
6686 9509 0
-7908 -3113 0
3065 9828 0
9674 -2869 0
-4720 2643 0
9375 -5263 0
2598 -4421 0
2224 11421 0
6780 5894 0
-8046 4086 0
2976 3118 0
-7464 -4286 0
8424 -8573 0
-7563 -3465 0
5145 -4006 0
-11184 376 0
2673 -9208 0
364 2652 0
1731 6400 0
2858 8255 0
-1481 7694 0
1060 -7539 0
12110 6190 0
6651 245 0
7736 -9413 0
2511 9176 0
-1152 9691 0
-5745 10252 0
7784 -7536 0
-8921 7000 0
4649 10104 0
702 4862 0
-2037 -5161 0
-3946 -469 0
1990 -11396 0
4111 -5223 0
-685 -3751 0
-2200 -10973 0
4182 -8863 0
-1567 -3112 0
-8 11734 0
2630 2276 0
-9735 1245 0
1645 4918 0
-9591 -2801 0
4478 2176 0
4427 8486 0
-5068 -9444 0
5689 839 0
-8714 3111 0
9954 264 0
11848 8002 0
3267 -3411 0
-1529 -5096 0
4030 -11548 0
-12310 5389 0
-4000 6485 0
6665 -347 0
9480 1584 0
8746 -5213 0
4748 -5906 0
-5667 -370 0
-9905 -12243 0
-850 3357 0
-2324 -8344 0
3282 11074 0
-8784 8606 0
6571 -6043 0
-11818 -12220 0
1725 5645 0
-8938 1503 0
-3426 -9610 0
-3923 -10932 0
12253 3367 0
-9224 -8995 0
10392 5617 0
-6377 -803 0
-4230 8871 0
-3267 9118 0
7298 2073 0
9404 4594 0
-591 -1388 0
3219 -1880 0
-1107 -1003 0
11680 11933 0
-8647 -4430 0
-11377 9826 0
12307 -3085 0
-7161 -10949 0
8587 -787 0
10738 -4490 0
-10865 5957 0
-11994 -1258 0
-4069 -7065 0
7007 -524 0
9295 -7559 0
4964 -9347 0
-11475 -11659 0
-5701 7014 0
-11106 -2604 0
9157 -9327 0
-5250 569 0
12318 -4497 0
6699 10881 0
9650 4132 0
11346 2142 0
-10071 -5568 0
-8495 5889 0
11775 -172 0
-5795 6692 0
-11708 -11535 0
3 -12013 0
-3544 4976 0
-4954 11451 0
7523 -3326 0
11740 5544 0
-1751 10473 0
5962 -10903 0
-7999 -1789 0
2135 3217 0
-7660 589 0
-11451 10678 0
2346 -3696 0
-5402 1983 0
-7225 9614 0
4877 -8626 0
2231 6137 0
4263 11621 0
6234 -4244 0
-3010 1421 0
10073 -9683 0
6942 -578 0
-11903 4134 0
7727 -8192 0
-5601 -10501 0
2522 -6688 0
-8541 -1225 0
4227 9271 0
8834 9771 0
-12207 8198 0
-5392 12097 0
-5856 1763 0
10333 -3651 0
1656 -3010 0
9919 -10308 0
8812 3907 0
11405 -5022 0
-11506 8266 0
4839 1893 0
6199 3944 0
4571 -3822 0
-1764 -10901 0
-7546 2995 0
-6029 1776 0
-1766 -2708 0
-10184 5576 0
6969 1597 0
-541 3234 0
9340 2006 0
3550 5439 0
2822 5717 0
2902 -6772 0
-11917 -11197 0
6591 -7595 0
-3164 10769 0
-2594 -11479 0
-8205 -7372 0
-10973 -2549 0
-2376 -160 0
2340 -3847 0
4309 -7268 0
11423 -12282 0
-7992 10335 0
-3360 9206 0
-1427 -2300 0
1969 -7236 0
9580 -3597 0
-9062 611 0
-2278 6996 0
-9013 7194 0
9585 -2869 0
-2247 9009 0
-6479 -4426 0
-2362 -11657 0
-6293 2781 0
158 -7492 0
9681 48 0
3127 3616 0
3018 6701 0
2173 5136 0
6304 -513 0
-6032 5220 0
9789 835 0
-6755 3381 0
11750 -3541 0
6871 -6997 0
-5842 1313 0
-3828 -1932 0
2245 541 0
11730 11758 0
-6960 5386 0
5042 9281 0
1233 -11557 0
1075 8802 0
-10987 4901 0
569 -1522 0
-10972 -1996 0
-503 -1855 0
5625 -6135 0
-2988 -10655 0
-9218 4738 0
4381 9373 0
8601 -11306 0
7515 -4231 0
-4160 315 0
2918 9319 0
8250 8605 0
2330 8839 0
-8794 3484 0
9936 10914 0
-6651 -9836 0
2845 1383 0
-2538 -563 0
519 -6167 0
6376 175 0
3712 1913 0
7137 2367 0
-4648 -3225 0
-11520 10976 0
730 4257 0
-461 3774 0
-5806 -7861 0
-1429 -8783 0
-11696 2413 0
-7575 10838 0
-5088 994 0
-4788 2346 0
5747 4329 0
594 -8795 0
-7628 -5266 0
9327 -2313 0
10593 7653 0
-1403 -1829 0
-9066 -11196 0
-9553 7555 0
2176 1447 0
-3256 636 0
-5014 -2299 0
6953 -10626 0
-5060 -10966 0
3578 -3510 0
5966 -5140 0
-2796 -284 0
2864 -926 0
-1372 5738 0
7260 -1530 0
11078 -5357 0
-5050 7154 0
-5248 7429 0
-9324 -10173 0
5690 -7410 0
6144 5280 0
-8608 595 0
-4956 5318 0
-4045 -8791 0
-8160 2303 0
2795 -2873 0
44 6103 0
7319 -1748 0
-11271 -3790 0
714 500 0
-9951 -9024 0
-4316 -383 0
5358 9383 0
-11525 -8938 0
7143 -9791 0
1399 1955 0
-11892 6174 0
-962 11657 0
-6713 -6467 0
2123 8120 0
-6697 -12215 0
10909 -2649 0
-281 -1883 0
576 4641 0
10673 10346 0
-11633 5681 0
-1180 -10763 0
-5743 -843 0
-9140 -1187 0
-10801 12148 0
-3558 -11460 0
1111 11249 0
-1648 11086 0
-4801 -6925 0
-2050 -1785 0
-8289 -1613 0
3005 7498 0
-2159 5488 0
-10439 6023 0
6174 -5589 0
11296 817 0
2366 12046 0
-8567 -8504 0
-2879 11346 0
-9998 -8421 0
-11963 -1997 0
-8393 -8612 0
-11937 -1427 0
10868 -472 0
-8397 5141 0
-3663 -7336 0
-5947 -5282 0
3071 2724 0
294 -10247 0
7869 -5927 0
-2436 1056 0
-10815 -3542 0
-11972 -11500 0
8701 -9866 0
3155 8409 0
7490 -2766 0
-8014 -7329 0
-2493 9043 0
10395 -2567 0
6607 6963 0
-7171 -8476 0
-1384 -11054 0
-12043 -5846 0
953 282 0
-7957 -986 0
1813 281 0
-969 9580 0
5973 12029 0
7630 -19 0
-7017 -7769 0
1831 -7070 0
-4463 150 0
4376 6280 0
7824 -660 0
-6819 -857 0
10528 10583 0
11281 8692 0
5199 -4664 0
-8868 11185 0
9386 579 0
7257 -2549 0
-11307 -2092 0
12381 -6926 0
-9866 -9084 0
8892 1610 0
4683 12117 0
6511 1811 0
-2938 5348 0
-2739 1178 0
-6861 7785 0
4505 -40 0
-375 2133 0
9280 3460 0
-3494 2350 0
-3335 -3561 0
-9794 -12422 0
-6379 3170 0
7370 -8128 0
-11198 11446 0
9950 -1240 0
-452 -11368 0
-5656 760 0
-861 4133 0
1813 3845 0
8998 6674 0
11093 -113 0
-7675 -8336 0
6778 4510 0
-11466 11337 0
2276 -61 0
270 7966 0
5615 6650 0
7023 -11532 0
3538 -10306 0
-9969 -5786 0
4933 -5779 0
4609 1450 0
-6708 1765 0
-4275 7238 0
-5367 9934 0
-11765 -2015 0
-9310 9270 0
-1404 -611 0
-2828 10965 0
-8831 -3406 0
8429 -12206 0
10978 -11442 0
7347 5703 0
-11507 7645 0
-5739 -2246 0
-7135 9931 0
8857 1374 0
-11564 11950 0
-5831 -4766 0
-2661 -8462 0
-10739 4894 0
5778 8200 0
164 -11814 0
12384 9429 0
10630 6625 0
8892 -11727 0
11574 8830 0
-7492 -6757 0
560 471 0
-8504 -7979 0
-9421 -10670 0
9001 3909 0
-5006 3299 0
5615 -1826 0
11586 1427 0
-6832 9077 0
11837 11245 0
8131 12467 0
-10316 -4194 0
-6724 -1920 0
-3553 -7673 0
11810 -7995 0
5716 3178 0
10485 1749 0
3653 -9323 0
6245 -1972 0
12306 -484 0
-12221 4946 0
10366 -10738 0
11547 -316 0
-2721 3440 0
-5385 -11871 0
11627 4983 0
-6663 1690 0
11469 -6904 0
-11656 9399 0
-6236 -4788 0
-10722 -1106 0
4393 10175 0
-11269 -9269 0
7682 -11279 0
4348 -1145 0
-9310 -284 0
3048 -11078 0
10634 -2084 0
-8240 -3238 0
930 -4606 0
10593 1631 0
-11948 12104 0
-2213 7262 0
-8786 5155 0
11003 8788 0
10819 10067 0
-9073 -2460 0
9527 -7464 0
-7420 1455 0
-2621 7617 0
-7826 8834 0
-5826 -10370 0
-9067 3546 0
-4228 4238 0
-12357 -6015 0
-1055 -4852 0
832 1227 0
-11759 -10387 0
-3699 11290 0
8148 -7366 0
-1624 10623 0
-5155 -7129 0
6536 -10531 0
1281 1525 0
4915 -3403 0
-5018 -1122 0
-6146 514 0
-447 -3230 0
7973 -471 0
-9762 -2463 0
-11355 -6407 0
422 9598 0
-6901 -10121 0
-9705 2323 0
11292 7416 0
-10701 3717 0
-7780 -6470 0
2026 5503 0
8773 6381 0
-2680 8285 0
584 7655 0
-4658 4581 0
-989 -8099 0
-5860 -167 0
-9324 8949 0
6366 -228 0
-9463 -11097 0
-3759 8144 0
11515 -8584 0
-7205 260 0
7044 -2843 0
7973 -7783 0
8110 -5934 0
-4987 10017 0
4427 10055 0
-11514 -6319 0
3293 -3661 0
7144 905 0
2606 -3752 0
-1950 11357 0
-11015 556 0
3507 -581 0
-4861 7815 0
-9215 -805 0
8306 -10587 0
-937 9723 0
5360 1622 0
1224 -1403 0
4793 -4102 0
-3448 -9582 0
2506 1345 0
-5560 8761 0
11799 -11594 0
8098 -11302 0
8827 -5944 0
-3157 5465 0
-2407 11262 0
-1954 -9031 0
-8458 10935 0
11689 2068 0
12218 -5673 0
-8798 3053 0
-6554 8362 0
-4603 9667 0
5983 -7251 0
12224 5396 0
-10312 -6855 0
-7644 -2331 0
4133 -6480 0
-9374 -4467 0
8071 -5709 0
-10159 -3944 0
-6292 1722 0
997 -4553 0
2853 11001 0
-2485 9984 0
7883 1035 0
7793 5768 0
9565 -7051 0
7317 1977 0
5025 -10399 0
-4743 -2850 0
4243 1213 0
6060 -2657 0
-4521 5363 0
-3633 5916 0
-10174 -2354 0
-8985 3576 0
2251 1386 0
9585 2950 0
-5729 -11729 0
9359 -7044 0
409 11093 0
-10721 -11184 0
3169 9230 0
10810 9919 0
-4613 7604 0
1027 6451 0
-4973 6180 0
11991 -8728 0
7358 -4459 0
2990 -12005 0
-5228 -8594 0
-1144 -6813 0
2882 -4946 0
6856 -3801 0
1244 6430 0
-12423 -9428 0
-8384 9366 0
-9917 2684 0
-1661 -12190 0
-12200 5399 0
-2739 2814 0
2943 5194 0
-3919 12091 0
4782 -6269 0
9329 -7838 0
5850 -12382 0
12035 -6026 0
11834 4207 0
-8006 8494 0
-3960 7606 0
1912 -8114 0
5142 -10320 0
7179 960 0
11959 -4522 0
5661 -8383 0
8023 -4894 0
-7899 -7191 0
-7276 -7229 0
975 2107 0
7225 5369 0
2234 3584 0
2303 11944 0
-11910 -9848 0
2275 -179 0
5236 5377 0
9343 -7674 0
-7652 9417 0
2725 -2951 0
-1245 10205 0
6613 11455 0
-7232 12202 0
-7094 2580 0
-2950 -3289 0
-3327 166 0
-11464 4411 0
5243 9772 0
941 -9833 0
-3827 8246 0
1082 -9626 0
7324 2994 0
6198 10980 0
984 -70 0
7224 -8327 0
-12012 -1934 0
-3669 -10438 0
-3773 -3016 0
11964 1255 0
-12251 1778 0
796 10292 0
12095 -3343 0
4743 -8585 0
-3322 -278 0
-6334 -2339 0
-4352 2816 0
8748 -4562 0
12182 9010 0
-9599 -1256 0
-9802 9990 0
-10321 378 0
-11271 7446 0
-8589 -7202 0
8769 8024 0
1120 -11436 0
-2774 7043 0
-12319 11467 0
-5203 8557 0
6436 11178 0
-2005 -435 0
8911 11877 0
-9877 -10897 0
-5084 -4511 0
988 11193 0
7146 -6457 0
-6791 -4995 0
9838 -10633 0
-4980 5071 0
-2243 4717 0
6423 201 0
2359 12023 0
6583 1639 0
-9168 -5541 0
7594 -8296 0
-7322 -7064 0
4994 4136 0
-9087 11660 0
12377 9717 0
-2682 11755 0
3373 -7970 0
-1905 2443 0
-11688 9461 0
-12114 -2039 0
10735 4046 0
-6512 -11259 0
7442 1162 0
-3297 -11894 0
-11057 -1970 0
-7959 -11280 0
-8678 -11200 0
-2589 -4851 0
-11015 2768 0
-10523 -9184 0
7923 9854 0
6000 -6186 0
-9646 -2129 0
-1641 -10190 0
8013 4637 0
-4498 -10634 0
-10270 -7516 0
-1423 11882 0
-6820 -2107 0
186 -1676 0
-5046 -9337 0
6619 9935 0
8497 6441 0
2801 -9969 0
3136 4993 0
-4405 3014 0
-1215 -9149 0
11230 2796 0
-4084 -7957 0
-5078 3363 0
7331 -6066 0
9680 -1082 0
-1282 -5007 0
-5496 2746 0
-9452 7964 0
-10307 6305 0
9743 8863 0
-8557 -10748 0
658 -2242 0
-9343 -2337 0
-504 -7214 0
-1121 -12075 0
-7635 -7342 0
6497 -11508 0
-12373 6189 0
9524 -4518 0
3879 -12143 0
4632 561 0
-9662 3143 0
4934 -2127 0
-7842 -748 0
1033 -7879 0
7108 -8855 0
7458 -11196 0
-10140 -4984 0
2522 7986 0
-7318 -7425 0
-5855 -6343 0
4084 -4705 0
1101 -6454 0
7784 8159 0
-11023 8440 0
-6319 -10463 0
2864 6082 0
12435 -7213 0
-10278 4937 0
8183 4055 0
-9683 -973 0
-11748 -7677 0
-4126 1647 0
87 -7651 0
889 -8690 0
-2659 -12471 0
195 -3299 0
384 -12102 0
269 -9328 0
-2820 -2628 0
-91 -10594 0
-11365 -9901 0
10326 -918 0
12021 12415 0
3171 6367 0
9384 10303 0
-6031 -11736 0
-6809 -8686 0
934 -533 0
-3201 12394 0
2036 7982 0
359 81 0
3712 11155 0
7324 -7354 0
-477 -2724 0
7760 1768 0
-8122 -9261 0
-4926 8294 0
10634 6546 0
-888 -2511 0
9830 -10606 0
7995 -5587 0
9211 12076 0
-5602 -1552 0
3812 8748 0
-4765 -1452 0
-1288 -893 0
6407 10272 0
6420 -7321 0
3926 -11428 0
11953 310 0
8212 -6842 0
984 -1691 0
-8106 10846 0
5590 -1422 0
-9219 -1202 0
-775 -3984 0
10696 6520 0
11956 -3847 0
-12263 -2252 0
-11957 -11395 0
9692 -9822 0
-3037 6770 0
3382 8876 0
9811 4782 0
10703 9261 0
2641 -7628 0
9355 10279 0
-11203 -11857 0
-8929 972 0
-10591 -8669 0
7471 8484 0
-5441 8849 0
7718 111 0
-10656 -11483 0
-5310 10775 0
10223 -11149 0
10907 -5085 0
-4590 10946 0
-7988 7051 0
-2445 3287 0
-1875 4229 0
4831 -11745 0
-10456 -2022 0
-2205 -11229 0
691 -7795 0
9539 3692 0
10367 3636 0
-10324 10161 0
5719 -8148 0
260 7599 0
11940 -2826 0
-1505 3738 0
4292 -11933 0
-2685 -1852 0
1119 4538 0
12462 -11963 0
12318 2934 0
6516 -10434 0
3764 3229 0
-9282 -1476 0
7873 -5028 0
4626 -12026 0
-7748 6136 0
-11268 -3867 0
-2607 -857 0
-1277 391 0
2565 5865 0
-10783 8464 0
-2626 -7598 0
6469 8145 0
7963 -8116 0
2555 4140 0
-7488 6130 0
-10190 3882 0
-3894 464 0
8085 10761 0
-10145 -3941 0
-12057 4096 0
-8735 -2027 0
4369 -3923 0
10276 11643 0
2292 1229 0
11664 427 0
-9347 -10506 0
-4437 12086 0
1987 8088 0
-6322 2072 0
5003 -2420 0
-6233 -7105 0
12297 6839 0
2550 -7783 0
8966 11446 0
-4353 12317 0
-6412 -11419 0
11512 4409 0
-9098 -5844 0
7397 5062 0
-6555 2447 0
9269 5759 0
-4663 -8518 0
8042 11801 0
147 10303 0
7439 3188 0
286 -3977 0
-6615 10021 0
11105 205 0
-4175 -2938 0
2783 11139 0
-4272 -3630 0
-4822 1009 0
11134 -11829 0
-9334 -3897 0
12461 9775 0
1979 11140 0
-1965 1391 0
3255 6219 0
8165 12093 0
-5876 -2884 0
1385 2639 0
-9829 6212 0
5184 10619 0
-2819 1787 0
168 -8978 0
-2177 9750 0
-6829 5277 0
-9332 -1460 0
-7243 -10255 0
-5541 4167 0
2742 -9073 0
-1657 -11139 0
-9431 5202 0
6518 -5263 0
10888 -5277 0
-10916 -1281 0
11084 -1235 0
-6140 836 0
-5666 -10859 0
-11340 11986 0
-6025 -10869 0
-442 -3432 0
-6725 3807 0
1552 -1021 0
-6241 4340 0
6897 -9751 0
4595 -5116 0
-2497 -2146 0
-11626 6889 0
-5071 2896 0
-5827 9746 0
-957 -5105 0
8910 7861 0
-4473 9214 0
844 -1802 0
-4387 -11567 0
8825 -8517 0
7206 410 0
12190 8787 0
11525 -11178 0
-8429 4514 0
6871 3771 0
-4641 -11343 0
4569 6424 0
-5630 -1766 0
-10447 -5489 0
3409 -9178 0
-8207 -12031 0
4323 -4633 0
6714 2677 0
-8019 6224 0
-11732 -6884 0
10789 5885 0
-8462 6249 0
-6896 19 0
-9128 5012 0
-9658 3563 0
-1011 2795 0
2706 10047 0
-3634 -9977 0
-4129 -337 0
8155 -12209 0
11702 -10273 0
-982 -8726 0
9700 259 0
-11924 -1961 0
-4303 -9883 0
2193 11718 0
7025 -7734 0
-702 -2514 0
11900 7159 0
-3554 -6752 0
1726 9075 0
7862 -5884 0
4595 -1298 0
5322 1022 0
-3663 11764 0
5754 -7699 0
4078 5514 0
-10711 10856 0
-3095 4343 0
-11386 -3547 0
-38 -874 0
1430 475 0
-1412 -3161 0
-7740 -2158 0
-3736 3456 0
-1775 700 0
-9317 -11968 0
-6035 1899 0
11697 -5822 0
2864 6282 0
3239 -10327 0
2624 5526 0
9372 -11843 0
6336 -3932 0
8813 -2471 0
4024 768 0
-1115 -8107 0
3846 -9640 0
639 -5259 0
-8535 2020 0
7797 5196 0
1910 6706 0
-55 11658 0
7593 4588 0
4910 -368 0
6714 -51 0
11179 11902 0
-2863 908 0
11067 -2711 0
-10640 -2416 0
3732 -10119 0
5770 5973 0
-10353 -4458 0
1992 -9998 0
2205 3734 0
-6612 -11956 0
-4088 9986 0
-10481 11148 0
129 -12013 0
-2840 7055 0
6674 12227 0
9562 2261 0
304 -10216 0
-2179 5815 0
-10855 -8646 0
2574 -1503 0
-11892 -6574 0
-5549 10783 0
5759 -7178 0
8434 -3757 0
9423 -8902 0
-10032 -6437 0
10593 -11780 0
-1252 -7674 0
4728 317 0
-2806 12421 0
-6085 2575 0
-10294 -10786 0
66 10323 0
-4301 -4861 0
4389 -6636 0
1753 5234 0
-6517 1001 0
-11649 5303 0
4988 5584 0
3808 -62 0
-6899 -11963 0
-3835 11188 0
-8732 -6417 0
-59 1061 0
-7988 8342 0
8316 -2483 0
-8775 -1871 0
-10449 -12392 0
374 2659 0
-8088 4684 0
12036 -56 0
6791 -11478 0
353 -1853 0
-9183 12062 0
-7249 -2613 0
-4122 -41 0
-11033 -878 0
9451 5767 0
-5355 -5725 0
8015 -12100 0
-2677 -11167 0
-3503 6744 0
12015 -12282 0
2388 -3607 0
-7682 -338 0
3339 -509 0
-3349 -10553 0
-10670 9185 0
291 4441 0
9330 10343 0
10863 -2659 0
3861 12016 0
-333 7913 0
12405 -7421 0
-669 -4894 0
9110 -7263 0
627 4489 0
7578 -9962 0
-1464 -3963 0
8152 12068 0
-6256 -400 0
6099 7158 0
3105 3623 0
8434 2645 0
-1609 1834 0
8087 -171 0
-4737 -1872 0
1414 9576 0
-985 -8910 0
-9316 4044 0
-12340 -8581 0
1004 290 0
-7919 -3737 0
-5657 10899 0
-8617 -5942 0
-8742 758 0
-9409 10562 0
-5707 -4775 0
9541 -8868 0
-11027 6422 0
8286 -7242 0
-3433 -4617 0
-2324 401 0
-9108 1127 0
7561 5478 0
-8930 1340 0
7186 -49 0
-12319 7901 0
-4175 -6117 0
8537 8496 0
12452 11485 0
4506 8647 0
715 -7939 0
-146 8016 0
8198 10205 0
-10110 -11104 0
1195 9479 0
12130 -6530 0
4858 3835 0
1552 2880 0
-1570 -3795 0
606 -1466 0
-3571 -6554 0
-10416 -9672 0
8649 11173 0
2627 761 0
-3530 5391 0
-6766 10934 0
-5230 -6533 0
3573 1935 0
-4547 537 0
-2839 -8125 0
367 -1548 0
-2803 -5350 0
-12193 8174 0
8999 2310 0
6724 -6303 0
-6092 10644 0
-2840 2267 0
11625 8286 0
9903 6677 0
5182 4533 0
-8325 -10109 0
-2548 -166 0
8926 -4023 0
4017 -1427 0
-12202 8916 0
-3867 6187 0
-6916 8378 0
11660 3251 0
-4691 2991 0
9924 -4192 0
-2156 -8515 0
-2123 3885 0
-8802 -1316 0
1806 7691 0
5938 4999 0
-3680 -3463 0
3635 3904 0
-3947 3413 0
3944 10351 0
12057 1182 0
2929 7344 0
-10434 -7631 0
1953 353 0
7779 8786 0
-11850 6116 0
5432 1953 0
-1741 3283 0
-3894 -5827 0
-339 4127 0
-9415 -10735 0
2197 -10687 0
-7702 5230 0
-5203 1403 0
-10551 -9183 0
-3460 10659 0
9791 7202 0
-8554 -4584 0
-897 -4763 0
10801 3849 0
4869 -1045 0
-8024 -10724 0
8059 -2891 0
-716 -3911 0
-11511 -11249 0
-7679 -3315 0
7217 6326 0
5862 -2345 0
32 11367 0
10939 -9040 0
4697 3779 0
3187 -208 0
8787 -5356 0
-10654 -7563 0
-2928 -1662 0
-985 -973 0
10557 -10218 0
12364 -4221 0
9870 -10309 0
-11920 11402 0
-5980 3962 0
-7010 4669 0
6063 7332 0
8338 5579 0
-7500 876 0
3540 9126 0
12453 11267 0
-5020 11339 0
-2453 692 0
5366 5639 0
7238 5843 0
-7833 -1816 0
-8220 -3000 0
5454 -6514 0
246 -3480 0
6444 -11537 0
-7772 1060 0
3581 7241 0
8776 5267 0
-3115 -1624 0
-10173 -10365 0
-8238 -481 0
-10612 -3132 0
8810 8657 0
1370 218 0
-7164 9770 0
8208 4534 0
2440 -7783 0
-7223 6185 0
7880 -7214 0
853 -3257 0
2961 -7920 0
3860 12 0
-5084 6246 0
9719 -242 0
93 7757 0
10078 10629 0
-10025 -4704 0
6528 -10498 0
8424 -6779 0
-5386 -10839 0
5899 -12399 0
2073 5447 0
-2674 -4394 0
-6256 -5219 0
8267 11734 0
10737 11449 0
-11555 2652 0
804 12127 0
2940 2767 0
8768 -3272 0
-5134 -9347 0
4611 -7360 0
816 6695 0
-6749 -10619 0
-5901 -1977 0
-12242 6892 0
-8274 -4601 0
-6042 5570 0
-410 8965 0
-8583 -11255 0
-1369 3450 0
-1951 -4417 0
4747 -6917 0
10821 10572 0
9507 11269 0
-5332 -2989 0
-1504 -4688 0
4247 -8083 0
-4250 6195 0
7298 2008 0
3207 1848 0
3890 -6272 0
-843 -545 0
10523 10652 0
-11804 1062 0
-366 8382 0
10336 1816 0
5669 336 0
-8380 -10147 0
-4336 11184 0
11541 8416 0
9488 3113 0
8355 9943 0
-11444 -8441 0
-5187 3107 0
5019 1316 0
5479 -6556 0
-8822 -4511 0
-8816 3168 0
-8763 9880 0
-5915 2613 0
-12050 -1239 0
7222 7030 0
-156 -2008 0
-5818 -8091 0
12262 8267 0
1084 -7842 0
11997 -2210 0
-3627 -1875 0
2439 9079 0
979 5381 0
2777 -10669 0
-743 8961 0
-2692 11061 0
7523 11431 0
10616 740 0
-4980 8034 0
9750 6417 0
8728 -4918 0
1118 8780 0
3128 -3491 0
11712 8961 0
-9543 10233 0
5819 -10316 0
-10248 -11776 0
7873 -171 0
-5139 -303 0
4998 2540 0
-11017 -11396 0
4837 -6290 0
-10171 9523 0
4241 2922 0
11152 4740 0
828 9702 0
-4733 5279 0
11132 -4082 0
9439 -6847 0
-5219 8133 0
1012 5299 0
4789 764 0
-4601 -6124 0
-5058 7474 0
10555 -3095 0
534 8950 0
-8114 -11632 0
464 -11852 0
12306 2171 0
-3297 4882 0
-10430 11644 0
4041 2795 0
5897 -8530 0
-3650 -1472 0
1352 11900 0
-9643 -10531 0
-10 -5308 0
-7885 -7177 0
5445 -6820 0
1614 -11806 0
-7285 -8498 0
10430 -902 0
8434 -8289 0
-8079 9751 0
-6354 6090 0
-1963 -5048 0
-142 1091 0
-2234 1072 0
-9953 11464 0
-10496 6399 0
-6183 2363 0
-5786 1610 0
5357 -9361 0
11574 6753 0
-1520 8678 0
50 7624 0
-11400 6920 0
9541 -7472 0
-7932 6694 0
-6950 3788 0
-3727 5454 0
1393 -9243 0
4592 7347 0
-7291 10342 0
-6225 923 0
-205 -5525 0
-11971 -1302 0
9475 10857 0
-7772 11045 0
-7384 11702 0
-2602 -12076 0
6880 11319 0
11825 5958 0
11524 -10580 0
10806 -11990 0
-7495 54 0
4400 12372 0
-10037 -9283 0
-7851 3830 0
-1172 9091 0
-10723 -7890 0
4346 7251 0
1742 8205 0
9519 -11887 0
-11273 -3243 0
12204 10558 0
-7666 -9839 0
-3484 -12292 0
8859 -7735 0
7344 6592 0
3436 930 0
-10346 11240 0
-8185 10824 0
10294 -10964 0
-4208 8823 0
-11749 -10218 0
11973 -2084 0
4099 3439 0
-11023 -12339 0
-10072 -11544 0
-4765 8413 0
-1004 11529 0
-3121 5973 0
3302 2477 0
-2316 5427 0
2380 -7594 0
4054 3025 0
2262 -9866 0
4941 -1311 0
-8460 6995 0
-2939 -4810 0
-4382 6493 0
7697 -8464 0
10946 2995 0
2559 6500 0
-6075 -11375 0
10746 6456 0
5431 10780 0
528 2484 0
-3754 3013 0
-3095 10563 0
-2313 -9881 0
-9290 5364 0
3216 10547 0
-9016 -11353 0
8234 1492 0
-8740 -10257 0
-1729 9280 0
-11708 8010 0
9264 5033 0
10077 2767 0
5561 -9329 0
5928 -9313 0
-139 3687 0
-3067 -11239 0
4774 -4785 0
8806 6062 0
10492 4672 0
1524 1716 0
-1978 -618 0
5038 -1426 0
-8838 12268 0
9438 -10434 0
-12401 -1688 0
1841 9040 0
11868 8020 0
10660 -11149 0
9336 -1220 0
-4737 -4944 0
11907 10423 0
-5046 5128 0
-9061 -11372 0
-10946 -1778 0
-5350 6318 0
-5035 -2283 0
9950 4462 0
-7660 -11250 0
2969 6825 0
-9343 1012 0
-10879 44 0
11049 -3580 0
-26 3415 0
-3526 -5886 0
-347 11271 0
-2496 12431 0
272 -4842 0
-4062 -946 0
-12077 -4938 0
8129 -2032 0
876 -5829 0
-4748 -638 0
-8061 -8642 0
10898 3229 0
-5015 -493 0
-5859 -938 0
-6506 3891 0
-9341 -10038 0
8883 -10465 0
4630 -3630 0
-4438 10777 0
-1378 7336 0
-10932 11583 0
5454 12297 0
-1599 6083 0
1158 -1626 0
9120 3187 0
-9219 11849 0
3835 -870 0
7456 -258 0
-802 -512 0
10974 -8421 0
4391 1805 0
2936 -9546 0
7181 -10146 0
-12144 6140 0
-12343 -3087 0
10987 7121 0
11190 6071 0
-8457 -10014 0
4845 -1664 0
-10425 4510 0
-1429 -6634 0
7474 -239 0
-3391 9570 0
3618 -1835 0
-12048 2059 0
-5570 -3099 0
-6600 -11434 0
229 211 0
-3876 -5010 0
-4632 -1397 0
-10286 11671 0
5504 -7729 0
-6018 -936 0
9889 -3008 0
7024 1040 0
2878 9622 0
4848 10224 0
-10061 -11949 0
-6812 -7519 0
-9298 -3516 0
10233 10213 0
2432 -2004 0
9852 -6301 0
5620 3069 0
-11339 -3670 0
-3486 -8571 0
6322 -9453 0
-6633 5306 0
-5916 -1215 0
6710 -4975 0
4071 4044 0
2975 -10613 0
-604 11211 0
8983 -4166 0
-3640 7646 0
-6337 11219 0
-10046 10369 0
8089 -2039 0
-4846 -6188 0
-11369 1631 0
11297 3313 0
8764 -9700 0
-7948 -823 0
-7341 6097 0
8559 5488 0
-1031 3568 0
3999 1638 0
12078 7575 0
-2252 -2798 0
6002 137 0
11952 -2966 0
-6334 -3046 0
4403 842 0
7127 -11900 0
-8902 8631 0
9536 -10202 0
-7666 -3767 0
-8268 -100 0
-499 -9162 0
-8081 9479 0
-9353 -2334 0
-6740 -11987 0
9642 11003 0
-408 10333 0
355 -312 0
-2528 -5783 0
2941 -6604 0
2213 10439 0
-11370 -5030 0
-3419 1464 0
-2691 -8666 0
-11822 -9231 0
-4895 12080 0
817 -9619 0
3122 -4528 0
3012 -6972 0
1860 11035 0
9653 -8329 0
1768 11875 0
-9746 -6363 0
-4553 8429 0
2338 11033 0
-5705 -2571 0
-1732 6208 0
-10411 3546 0
12403 9622 0
7808 -10865 0
-2490 679 0
4120 11620 0
-755 2120 0
-460 4757 0
-11688 -580 0
-2294 8346 0
-8715 8031 0
-7379 -11562 0
6076 5053 0
-7666 5329 0
9596 11226 0
-217 5594 0
8684 -10414 0
7067 11899 0
-12409 -10889 0
1607 10252 0
11282 4091 0
-8357 7541 0
-7612 6095 0
-1633 6632 0
5167 -1033 0
-2289 -1235 0
8188 -1780 0
-10452 -1255 0
-3646 -1217 0
12110 2465 0
556 -12050 0
4609 5225 0
-10310 2552 0
3396 3451 0
-10390 168 0
7319 -11465 0
4094 8569 0
6137 5749 0
-490 -7494 0
-10024 11268 0
9921 9548 0
-348 7826 0
7235 8127 0
5759 -10151 0
-12111 2812 0
-3936 5327 0
9919 4402 0
-12313 11967 0
9626 -579 0
1196 -1862 0
4287 1907 0
4007 1953 0
10974 -5626 0
10041 -5773 0
-4443 8496 0
-1611 -10765 0
8532 -6425 0
11720 226 0
-5091 10558 0
2077 7395 0
10205 -5341 0
-2136 5500 0
-7682 -8001 0
-6854 -8787 0
-2761 -11177 0
3023 5294 0
-3919 -3154 0
7369 8292 0
-2094 -220 0
7180 5471 0
7360 7742 0
9293 -13 0
-6773 7903 0
3675 6361 0
5906 7597 0
9965 6695 0
-5935 -9082 0
-2889 -6786 0
10050 11889 0
-4162 749 0
5920 419 0
-7306 11389 0
-1275 6821 0
-2613 1080 0
-4613 6275 0
-5848 -10079 0
4657 -2510 0
-9407 -1728 0
-510 -2524 0
-9302 11749 0
-11282 -1970 0
9631 5532 0
12311 1135 0
-12302 1338 0
-6167 6065 0
-7106 6462 0
11445 8778 0
-11089 7302 0
3149 -10293 0
-2612 5008 0
-10292 -5073 0
-6077 11632 0
-9276 7581 0
-6739 -7384 0
-8977 -10709 0
1723 -6789 0
-3149 1459 0
-3341 -6142 0
11445 -10813 0
-9754 7873 0
10661 -377 0
3280 -2843 0
2963 2354 0
-11892 1823 0
-3435 -9156 0
-7098 -8602 0
9747 -5004 0
8895 9765 0
-3119 2144 0
-1519 8308 0
-1144 11337 0
3120 10088 0
-9309 -7499 0
-11828 -2865 0
5557 8687 0
-11896 -685 0
-2056 -9845 0
10089 -1381 0
5546 -2770 0
-9220 -9567 0
-202 -8309 0
-8674 7365 0
965 -4799 0
-720 -6902 0
2304 2074 0
-11654 135 0
11575 -12264 0
3318 -746 0
3658 -5718 0
12334 10949 0
-10894 -10273 0
6846 -110 0
-1649 -11474 0
3093 9174 0
2470 -7621 0
907 6733 0
11762 737 0
4211 8832 0
6997 -7291 0
-585 2915 0
-1533 8645 0
12424 -5334 0
-10175 -576 0
-11363 -11905 0
10254 4763 0
8281 5407 0
-7276 -2258 0
-10264 10207 0
8252 -3476 0
2346 10840 0
5407 5239 0
-7303 675 0
11732 -10553 0
8131 -11728 0
-5563 1030 0
-11974 -6976 0
-6567 10549 0
-4429 6238 0
3188 -3958 0
-11956 6625 0
-184 1830 0
-7869 -10668 0
-2803 981 0
-11004 -1591 0
-9363 9536 0
-352 6711 0
-8755 1840 0
-1981 10908 0
11934 -5603 0
6390 -7079 0
9499 -3872 0
-1513 2268 0
-8414 3883 0
-12127 6981 0
-2613 -420 0
-506 5920 0
2556 -827 0
9070 12432 0
3561 -3882 0
11614 4035 0
11039 9104 0
10381 8619 0
464 -3468 0
9227 -3413 0
4366 -2381 0
315 -4533 0
11477 5558 0
10976 -3847 0
12202 2053 0
-782 -1682 0
4915 -5744 0
6427 -10061 0
283 -89 0
8131 2585 0
6844 -10586 0
-6915 -8238 0
12116 5918 0
7886 556 0
-7886 -9010 0
-9646 692 0
-11235 4714 0
-4799 -1551 0
125 -8733 0
-3920 9796 0
-12129 7743 0
-10356 -9360 0
-8112 3096 0
-4459 -11178 0
4923 -7614 0
11846 3806 0
-9238 3547 0
-3100 -39 0
12059 -2791 0
-8563 2086 0
-1302 -6854 0
-8866 4139 0
-626 -12103 0
-5633 2467 0
-6532 -10449 0
-5044 3556 0
4066 -7460 0
40 -1490 0
1725 9971 0
1186 3437 0
-3453 2582 0
8203 9319 0
4994 10186 0
-5151 6556 0
-2857 662 0
-6027 7723 0
5870 2021 0
10119 -262 0
10987 1428 0
10836 5594 0
-6670 116 0
7752 2368 0
2718 10373 0
3445 8789 0
5784 390 0
1404 -4776 0
10082 -11736 0
-6590 2937 0
10871 -10985 0
-5175 -9455 0
-1880 8683 0
296 759 0
-4117 983 0
9691 8689 0
4956 3465 0
-2879 8849 0
4324 -7557 0
-3765 8356 0
-11698 4484 0
-9130 2882 0
-7910 4896 0
7510 -11378 0
-3894 3926 0
6444 1042 0
-7349 1109 0
12070 -5395 0
8651 -12028 0
-7680 -5385 0
694 -1787 0
5735 11471 0
934 7651 0
290 -1909 0
-398 -8265 0
-3740 -284 0
3282 -2117 0
3137 5204 0
10102 6403 0
-3833 -8613 0
8609 -6190 0
9340 1437 0
-11652 -3653 0
-6144 -4714 0
-6420 -8142 0
-1200 -2702 0
-11929 3893 0
-1615 7117 0
-6201 -5439 0
-8518 10043 0
326 -10436 0
-5646 7193 0
3399 6229 0
-1435 7491 0
12268 -3373 0
-7992 -3479 0
-10047 -7063 0
11603 733 0
5399 2989 0
-381 -6456 0
-7971 -2726 0
-3569 2597 0
2552 565 0
-5672 -5155 0
5400 -6774 0
3471 -1269 0
-33 -3978 0
11744 -7040 0
-11120 3192 0
8643 -5124 0
9857 -2472 0
4382 -5354 0
-712 -6346 0
4150 4381 0
-7152 -8243 0
5386 -94 0
-1392 5195 0
2269 10489 0
747 2144 0
-2227 9483 0
10456 -4316 0
2965 5294 0
612 1593 0
-4884 3716 0
2473 1325 0
-8149 4143 0
6270 7343 0
7025 10286 0
1648 -2338 0
11789 4240 0
-10306 7578 0
-8356 -6713 0
-3680 -7567 0
-4713 -1571 0
7262 -1087 0
5819 -5754 0
-2563 -6582 0
-6779 10459 0
10158 10070 0
-5578 7378 0
8155 1204 0
4642 6393 0
1289 5995 0
-10445 2684 0
447 -1513 0
6030 9490 0
-10605 4035 0
2231 2808 0
-9954 -4312 0
5456 9062 0
10632 -1108 0
-4012 9232 0
-4392 -8205 0
-2892 -6168 0
3305 1915 0
-9230 -7550 0
11916 -3580 0
-5180 7379 0
-971 11571 0
11710 -10011 0
-9662 3598 0
-4420 -131 0
4241 6296 0
-9846 809 0
-6859 9513 0
-6415 6836 0
-4349 2318 0
10823 -7589 0
2795 7448 0
5218 2224 0
9623 -10002 0
9516 5559 0
4470 -4113 0
-4045 7045 0
6194 8845 0
-798 2811 0
-148 6624 0
-3376 11745 0
9498 2200 0
5309 -12008 0
10467 5261 0
-11370 10398 0
11150 -3008 0
-7719 12185 0
-5427 5500 0
4387 -1119 0
11873 5910 0
-5529 -4438 0
4338 -7725 0
5947 11019 0
5472 8944 0
8236 -11211 0
-3775 11080 0
539 3249 0
-2939 8983 0
738 1665 0
7581 -3161 0
680 498 0
10016 11491 0
-152 -1868 0
-1352 2604 0
-7467 -976 0
2364 8560 0
4344 6966 0
-11210 9359 0
-827 5444 0
-356 -9088 0
10662 -765 0
-2824 -11676 0
-10193 -1203 0
-4924 1158 0
1768 7928 0
5813 7874 0
7919 12244 0
10721 -10951 0
8652 4352 0
-10226 3574 0
6419 9510 0
-3557 304 0
-4583 -6016 0
6074 -9702 0
1673 4236 0
1232 -2668 0
8006 -3373 0
-531 -2950 0
7044 -1806 0
-987 -317 0
7593 4963 0
3265 9764 0
-4157 -291 0
6695 7248 0
-4272 -4693 0
-5133 -5556 0
-10435 -1201 0
-7050 554 0
-3501 3445 0
-131 -12013 0
1051 -7147 0
-7845 -11864 0
-11413 -10751 0
-11353 3417 0
139 -3312 0
-12095 6579 0
-7211 5885 0
-4769 -3251 0
7416 10642 0
3676 7110 0
-5228 2535 0
-7711 -7615 0
-5050 -4417 0
5526 -9302 0
7584 10856 0
-3187 10960 0
3157 -4613 0
502 -7428 0
-2958 7497 0
9708 -7153 0
12455 8185 0
2584 -8636 0
-11981 -7481 0
-11573 7661 0
-11252 -7656 0
-12225 -8700 0
2731 4567 0
1700 6590 0
-10464 -8736 0
11257 8984 0
-7063 -2874 0
-3624 1931 0
-1634 5550 0
-11974 -3259 0
8437 10242 0
-9356 -9371 0
2221 7047 0
2999 -9572 0
-8440 -4652 0
11296 -4388 0
7652 3536 0
-10279 -7851 0
-8258 -2283 0
-9924 -7380 0
3483 -12182 0
-4066 8147 0
-853 10215 0
3881 -2712 0
12057 7313 0
451 1346 0
-11359 6666 0
-1733 7703 0
5011 6282 0
-3306 -1334 0
7148 -12283 0
-11090 4287 0
-2120 -375 0
-7257 1589 0
6102 424 0
-1881 -11553 0
-1424 6366 0
6395 11970 0
-2936 -9316 0
-4533 -10104 0
-9873 73 0
7631 4975 0
-8001 -6267 0
12011 6630 0
-4493 9133 0
1379 11043 0
-10358 -1593 0
10503 2235 0
-10652 6817 0
12190 157 0
6971 5757 0
2589 954 0
-1466 -724 0
-4610 -10408 0
7242 -11685 0
-6807 5315 0
3824 6547 0
1547 -7077 0
8263 -8567 0
1076 -11857 0
-11919 -10733 0
-7538 2468 0
8235 -5773 0
6015 -9303 0
7522 3357 0
5959 2102 0
10504 -4307 0
-5512 11833 0
6931 2266 0
3152 8525 0
10932 -6554 0
1950 -3275 0
-6258 -760 0
9737 -5867 0
-3248 5855 0
-5901 1891 0
9942 -7161 0
9858 -8903 0
8122 -11211 0
-9438 9779 0
-3978 -7197 0
8592 -1602 0
1910 -9500 0
5240 2039 0
4957 2260 0
11367 2056 0
9165 269 0
-7219 9627 0
-792 1370 0
9029 7193 0
9229 10519 0
10504 7544 0
2112 1309 0
2996 -10734 0
3265 1637 0
-10577 1010 0
-8045 -5037 0
-3049 1349 0
-10967 9794 0
719 -9121 0
-7421 2894 0
-3979 1793 0
9326 6038 0
6614 -7109 0
531 9350 0
-114 11278 0
11718 58 0
-8094 -8623 0
-1998 -8301 0
2187 6295 0
102 -6026 0
10216 6476 0
-10128 -4965 0
-2885 -4437 0
5235 -3415 0
-469 -5284 0
-2702 -11168 0
-3646 10426 0
-3501 -3354 0
-12165 -10973 0
5480 -10696 0
-7099 -2511 0
2919 -5089 0
3349 929 0
-217 -11816 0
-9931 -9810 0
-5757 12244 0
3452 1491 0
3717 3669 0
-3111 -11452 0
2366 -4341 0
4177 3274 0
2013 -9391 0
10504 4726 0
-376 -3402 0
-6435 6872 0
8252 10421 0
-2726 -5386 0
-2817 6920 0
-7501 11457 0
11314 10175 0
4068 -5972 0
1065 -6096 0
9052 9306 0
-4251 -1540 0
-10424 -3556 0
-11915 -8336 0
2284 4293 0
-6575 7961 0
-6493 -11360 0
-1934 9744 0
-10147 11330 0
-3636 -3207 0
-6902 1754 0
-1720 -5521 0
-8897 4416 0
-2868 -9867 0
4077 -2000 0
-11402 4878 0
-6627 1385 0
-10190 -12409 0
-10925 -11832 0
-2148 10260 0
6583 4145 0
1995 3614 0
3597 4706 0
5874 -10107 0
-2250 3300 0
-8946 4293 0
7752 4386 0
9208 -9549 0
-10145 8055 0
2152 11997 0
11916 -9245 0
10794 -10204 0
-4188 -9110 0
-1785 10660 0
3250 5886 0
6 -4648 0
7536 -6309 0
6447 5164 0
-5336 2617 0
9961 9756 0
7240 -10697 0
7394 3649 0
-10854 2484 0
-9807 3892 0
-2583 -11368 0
-1460 7062 0
-8805 -9456 0
-858 -12390 0
-7179 11335 0
-3593 2035 0
5293 9227 0
-6944 1564 0
-948 797 0
8218 -5173 0
4382 -11761 0
-10318 10400 0
6555 8360 0
2097 -9253 0
-5179 12208 0
2292 -6026 0
8113 -675 0
-6282 -5889 0
5752 -3133 0
-7396 -5588 0
3507 2956 0
10636 4691 0
-2356 6778 0
-5729 -6323 0
-802 676 0
-229 5601 0
1049 6724 0
11711 -11570 0
-6501 -85 0
4583 2220 0
-11860 -10681 0
-5127 4148 0
-10577 1913 0
9934 1558 0
5626 -1545 0
768 7087 0
4718 5149 0
2505 -9911 0
2523 613 0
-12240 4469 0
1861 -3965 0
-3709 7861 0
-2915 -9052 0
4877 7191 0
-1242 5776 0
10549 8222 0
-8394 7859 0
9962 -9863 0
-7224 6308 0
-12471 -9068 0
9372 -12009 0
10693 2241 0
9188 -4332 0
-8466 113 0
11760 10194 0
11110 -1974 0
4222 7214 0
5647 7985 0
-7126 9804 0
-11938 4473 0
-6848 11921 0
-5260 6302 0
-6047 -6514 0
-6539 7244 0
-9611 8422 0
-8296 -8886 0
-9125 -6330 0
-7028 5450 0
-9507 -2357 0
-11024 9818 0
-8653 -6898 0
-5978 11542 0
-8451 7616 0
11357 10943 0
-8210 -8663 0
-3616 -2356 0
-7436 -5340 0
4628 -795 0
-2410 10235 0
7745 -10039 0
2597 -2117 0
-959 4368 0
11289 12342 0
-12066 6169 0
-521 -3963 0
-546 9053 0
11301 3271 0
-4356 2561 0
9608 -7450 0
-1 6548 0
-8883 -11313 0
-6806 -3620 0
5203 -9345 0
1076 8272 0
4008 7416 0
-10929 6355 0
4446 -6026 0
-9102 2046 0
-11792 3048 0
-5188 3304 0
8616 7434 0
5193 3855 0
-3410 -8840 0
1071 10552 0
-11365 7627 0
-6759 3026 0
6921 9042 0
-9159 10149 0
3713 3187 0
7705 6933 0
7247 -11520 0
-5882 11900 0
-4927 3708 0
-568 7576 0
4921 -5462 0
-9723 6713 0
-7078 303 0
8195 184 0
-11934 8192 0
-6241 6184 0
12157 10729 0
6215 12059 0
5702 -1177 0
8222 -2471 0
5168 6221 0
2377 2969 0
12263 10872 0
8619 9093 0
6669 12411 0
901 -796 0
4061 -3950 0
3974 -1434 0
-11184 -9348 0
11128 -2361 0
-1346 -120 0
9034 5010 0
-8630 10592 0
-7 -8624 0
-208 -12350 0
5325 -6937 0
-1048 -5653 0
-7683 5339 0
-9325 11202 0
-10553 -3258 0
-9646 10816 0
-5837 -4449 0
5285 4693 0
8456 -7480 0
194 6129 0
11249 -6024 0
673 6358 0
-7395 -1219 0
703 7169 0
2200 1386 0
-5318 -11118 0
-7154 7776 0
2466 -10032 0
8744 8066 0
-8732 5748 0
-4882 10693 0
9209 -10505 0
-5613 1062 0
-9638 1688 0
6873 9495 0
3742 10142 0
4100 4280 0
3013 10084 0
-378 -3223 0
-3135 3243 0
2975 290 0
-8963 -1020 0
6253 -990 0
-12269 -5537 0
-3755 -8453 0
-7880 -8875 0
5015 786 0
878 2797 0
6002 11888 0
-4173 3896 0
2565 5798 0
427 2061 0
-7827 11643 0
10794 -3160 0
-8027 10342 0
-7296 -11336 0
-9340 3992 0
-3306 -11080 0
4951 -10001 0
4780 -5248 0
1662 -8270 0
11928 -8099 0
3252 10180 0
-4439 5109 0
805 -40 0
2579 9938 0
-7218 -10973 0
-8704 -9433 0
10497 -10632 0
3729 9259 0
11818 -1651 0
291 -1811 0
6559 -9781 0
-1208 11820 0
8664 -1126 0
-6028 -5968 0
1620 251 0
-643 -8327 0
11256 -7863 0
-799 -2275 0
7374 6264 0
11049 3402 0
-8103 12322 0
-8062 4088 0
10041 -329 0
-9125 -3472 0
1325 -1467 0
-640 -3841 0
-1806 -11452 0
-4090 -7693 0
-12468 -7282 0
-32 -8351 0
3612 -8164 0
5926 9134 0
-6390 6481 0
-1115 -5013 0
-5151 6888 0
-5933 5681 0
-11621 6891 0
-8627 -1912 0
-2409 406 0
-7587 -1302 0
1222 -10666 0
-10072 7894 0
-5290 6030 0
5667 8486 0
11075 9377 0
-7126 -5117 0
-11972 -6890 0
29 -1001 0
-6440 -5311 0
9010 -6283 0
8445 -11566 0
-7392 -3182 0
10003 -2641 0
12301 -9064 0
8086 1110 0
-9360 1137 0
12097 -10814 0
-4268 -6200 0
5425 2946 0
-916 9950 0
-562 4334 0
-7556 712 0
-402 6430 0
6141 967 0
-9069 1137 0
-11568 5409 0
-806 3033 0
-262 -3282 0
-9868 -5564 0
7618 -10424 0
-10486 -2448 0
4691 -8527 0
-11839 7688 0
-7725 6128 0
-7193 751 0
9143 2426 0
-1331 11632 0
-347 6426 0
5959 6776 0
-2076 -7669 0
3429 -2642 0
-10354 -1819 0
-377 -1919 0
7927 -220 0
3615 1860 0
-6368 -9853 0
4340 -6357 0
-1899 11749 0
4365 -8230 0
-11004 -11867 0
-8134 -9363 0
3365 -433 0
1280 3546 0
1190 -2233 0
-10674 -7635 0
1273 -12374 0
-2994 -6406 0
-3808 -3310 0
9813 9605 0
11100 12016 0
-3426 2138 0
681 1489 0
-9403 12111 0
-11494 8125 0
11848 -5797 0
10931 8633 0
-8910 8394 0
6049 11404 0
5348 1652 0
-1038 -11603 0
-1983 5000 0
-1989 -12102 0
-9270 -5933 0
10510 -12025 0
7330 -2869 0
-4688 9288 0
-12006 -5728 0
3584 12405 0
5857 -10805 0
-7546 10386 0
-11460 6839 0
7763 9850 0
-12391 6511 0
10647 -3524 0
11836 -5615 0
-4163 -5627 0
-432 3447 0
1458 2428 0
-8603 10047 0
-8092 12119 0
9558 6267 0
2586 5718 0
-4900 9412 0
-236 -4313 0
3437 -11651 0
-4213 9222 0
-1609 -3627 0
5040 345 0
-2443 5413 0
-4474 -11874 0
-1163 -4776 0
-1026 -11178 0
-7135 -12146 0
-3297 -4058 0
-10288 -10732 0
1796 10216 0
7270 254 0
-5646 8192 0
-11098 11796 0
-9101 12035 0
11209 9889 0
3860 -4025 0
-5477 5468 0
6048 4161 0
-9283 7332 0
-9943 703 0
-4301 1426 0
2576 5326 0
10244 12244 0
8234 5486 0
7893 9657 0
-10408 10844 0
-5807 2431 0
-12131 -10422 0
11332 -5679 0
-6339 -6175 0
7158 -363 0
-312 -6922 0
8355 -1401 0
12092 -11688 0
-74 -3470 0
-7517 -5786 0
6186 10077 0
9350 -911 0
-6252 4491 0
1170 3974 0
-6449 3944 0
-8022 -10527 0
-6294 8266 0
7667 -8297 0
6010 6094 0
7791 -6172 0
5931 5375 0
11001 -11976 0
4462 -3001 0
-12309 -6155 0
9338 3376 0
11122 -3611 0
-3206 4818 0
-10388 -10471 0
10588 -1463 0
11795 -3990 0
5928 -10024 0
-8949 5622 0
-5517 5572 0
12324 -1335 0
4403 6122 0
10875 6760 0
10884 -4559 0
3032 2505 0
-7037 2978 0
-2159 4957 0
-11867 -534 0
-12187 9077 0
-4711 -4019 0
-10815 -2490 0
-4467 417 0
6070 -1474 0
10693 11259 0
4783 -8551 0
11912 2396 0
-11288 9195 0
4386 5090 0
-8126 203 0
-2402 -5537 0
5186 750 0
5223 -3375 0
-7860 -10965 0
-5287 11251 0
-7086 9667 0
10892 5485 0
6211 5577 0
-242 3023 0
22 -4266 0
-6036 -4766 0
3169 -8004 0
1741 -5880 0
2356 4241 0
7089 -9907 0
-4859 -8433 0
-6714 -1653 0
11947 2078 0
3318 -3631 0
-9128 -9137 0
8765 -11205 0
-7731 -769 0
-9926 4347 0
-6159 -7668 0
-6410 -10350 0
708 8993 0
11006 8272 0
-11360 -9890 0
6218 3866 0
-1163 -996 0
6228 1584 0
-7166 9671 0
-3483 4014 0
-6405 -6550 0
-10914 3126 0
6172 10304 0
7085 -4234 0
-6958 -1201 0
6710 -1186 0
-10208 7458 0
-3134 4610 0
12467 -7388 0
10611 -4558 0
1891 11050 0
-1218 3650 0
-7369 -2345 0
6206 -12261 0
11098 -10126 0
-8608 -2780 0
2936 932 0
8612 9587 0
6588 8983 0
-2337 -4769 0
5491 9301 0
-7971 10071 0
6872 -2639 0
10125 9914 0
2986 11488 0
1268 -1425 0
-5756 10917 0
2125 -7107 0
-191 12186 0
-2205 714 0
-1356 12383 0
2154 -8995 0
1069 -8230 0
6046 6985 0
-4655 2218 0
3048 979 0
9414 501 0
3266 10672 0
8046 10767 0
2983 4212 0
-3331 5190 0
11574 3142 0
8995 7747 0
-8226 -2638 0
-10277 725 0
4329 5947 0
-980 -1597 0
2477 10686 0
2072 3277 0
-12197 -286 0
-12088 1095 0
9631 10821 0
-7823 -2889 0
-487 7836 0
-1008 7527 0
1798 -4824 0
8886 -6238 0
510 1396 0
-2688 65 0
11880 -5858 0
830 -7914 0
-5060 -12049 0
7920 -11429 0
6448 -5549 0
11476 -1860 0
8091 -3611 0
3682 -5999 0
4133 331 0
-4354 -3620 0
-4632 -8790 0
-5373 9757 0
-2869 4915 0
6354 11800 0
6953 533 0
539 6295 0
-5184 -12145 0
-11580 5134 0
1149 5949 0
6703 506 0
9161 -11639 0
-9546 -12094 0
-1583 4602 0
-3437 7718 0
-6860 10576 0
-7684 -11054 0
11602 7586 0
-146 -6749 0
-8968 10879 0
-10815 -6573 0
757 -7897 0
10095 7400 0
-11725 8109 0
-10780 -9604 0
2340 7102 0
10227 10461 0
-4195 -2519 0
6862 7604 0
-7107 -12195 0
11475 -8927 0
-6122 10210 0
-11684 -8506 0
-12162 5161 0
5012 7374 0
12199 2164 0
10811 -6891 0
9523 -5526 0
-10085 -10484 0
-11806 -8130 0
-2567 530 0
10470 3856 0
-7129 7814 0
-7844 -3248 0
1349 5833 0
10750 8294 0
-4090 -8269 0
5703 -10330 0
-6525 9663 0
5730 -122 0
-4166 -6458 0
3279 -6119 0
3574 -8376 0
-7098 11734 0
-8479 10734 0
-10903 -10014 0
12268 4651 0
-12110 -4024 0
3166 1650 0
3167 10522 0
8421 -1853 0
3874 11257 0
7672 336 0
-1954 12432 0
882 -6067 0
6912 -6154 0
-8728 -9422 0
4844 -1270 0
900 -7062 0
-8576 231 0
2679 -2541 0
2207 -10132 0
121 -280 0
10900 -6875 0
3638 -3852 0
582 -5812 0
6972 9759 0
12347 -8509 0
36 -2183 0
-10852 -5105 0
-5096 -6870 0
-1490 7501 0
-1473 -3550 0
-7497 -1705 0
-12114 7007 0
-8528 -97 0
216 -2339 0
2735 11677 0
7355 -6357 0
-7428 -1485 0
-9687 2291 0
8270 9948 0
-6413 1808 0
9847 4697 0
6448 -262 0
-2661 1469 0
1931 5307 0
549 -9812 0
10382 -9871 0
-1436 4825 0
-5461 -8334 0
5865 3139 0
2817 3221 0
8978 -9360 0
-10203 8441 0
10029 10227 0
216 -10208 0
6951 2875 0
-10299 461 0
-8785 2105 0
-4961 1254 0
2672 9874 0
11512 -7664 0
-3014 -5403 0
10519 -4686 0
2886 1967 0
-6639 106 0
9628 8075 0
8267 -398 0
1646 -12425 0
5643 6493 0
-7092 -2472 0
3774 -6533 0
7934 -7420 0
2073 -11344 0
3051 9465 0
4635 -5818 0
-10058 2181 0
-8351 -5680 0
-5534 -1901 0
-9190 -9581 0
-7610 5398 0
3201 2186 0
-9343 10430 0
-10114 36 0
-2482 -5020 0
11314 -10144 0
-4848 10336 0
-1900 4176 0
-8562 -1206 0
-1533 -2003 0
611 11223 0
-6893 7376 0
3891 3015 0
-9058 -3223 0
7102 9121 0
-2847 -8513 0
-6518 -7180 0
3862 867 0
1231 -11337 0
12243 -9828 0
-4984 -2062 0
11602 7787 0
-9111 7376 0
6545 7170 0
-12366 11634 0
-6488 -3855 0
10189 -11619 0
-768 -2409 0
-5101 -1839 0
-2076 -2297 0
-3368 9610 0
8077 9671 0
9743 -2740 0
-4311 -1399 0
-5061 5143 0
-8762 6817 0
-11987 -2835 0
-11599 -1038 0
-9996 -7506 0
-12235 6982 0
8766 6780 0
-3218 -6247 0
3037 8541 0
12387 -3592 0
3364 -540 0
1660 7993 0
-5867 12052 0
-7440 -4899 0
7914 3928 0
2423 -8299 0
-3157 5761 0
2705 11972 0
-6069 -12159 0
5768 8693 0
7142 -524 0
-4 -9684 0
-12051 1734 0
-8277 -2570 0
-7410 -963 0
4725 -4125 0
5302 1364 0
7863 -11626 0
8942 702 0
-12143 12427 0
10730 7886 0
-1705 -11793 0
7112 2437 0
12361 4798 0
-3357 -4154 0
-6891 7274 0
-10663 7727 0
5494 -3526 0
-6431 8975 0
1072 -4379 0
-1124 11487 0
4862 2181 0
3887 2063 0
10127 -5654 0
12331 -12253 0
-1764 5887 0
-10505 2091 0
3408 9206 0
12362 5477 0
8417 -5706 0
-4938 -1234 0
-8935 6381 0
12396 3060 0
-3962 -7254 0
3317 8959 0
-3772 11165 0
803 -3716 0
-3549 -9033 0
2969 11786 0
6021 -11775 0
-9923 8976 0
-8845 9021 0
7608 -8034 0
-1409 9497 0
-3209 -7471 0
9598 8734 0
6596 6177 0
-8331 -2183 0
4317 -6623 0
10108 3666 0
-11875 -11674 0
-10101 10787 0
-376 11423 0
-3316 7485 0
8211 9685 0
7010 3110 0
-5043 -4939 0
7466 8514 0
11112 -11411 0
-8253 -5979 0
-11513 -2727 0
-1750 6905 0
-7385 -4545 0
-3063 4672 0
2515 -706 0
-7656 5689 0
10549 -8727 0
-11592 5326 0
-2776 8132 0
9848 -1490 0
-5285 -7856 0
2404 -7847 0
8534 -6132 0
-2397 1078 0
-9876 12429 0
10774 -2804 0
4873 -2430 0
11835 -9063 0
11781 -1117 0
-4576 -6540 0
-3450 -7844 0
-5704 -5305 0
-10336 11213 0
-11794 -11868 0
-5085 -8589 0
-11587 1102 0
4156 -2299 0
1646 -2199 0
8881 9603 0
7647 -4563 0
10733 -2592 0
-10019 -1361 0
10417 2478 0
7084 6409 0
1725 3377 0
2945 11895 0
1469 -4326 0
-5587 9373 0
928 -7263 0
-7081 2580 0
-5845 -12296 0
-5676 9078 0
-6486 3178 0
10420 -8528 0
-3091 6876 0
-11946 -2530 0
-3717 8042 0
-7812 -7712 0
-3813 -9891 0
214 4644 0
8105 -5308 0
3187 10220 0
-4489 -1152 0
-622 1705 0
-6100 9990 0
-4516 3735 0
-1352 5495 0
-6015 -8131 0
12373 4537 0
11839 7768 0
-2202 -4742 0
-5833 4265 0
4839 9836 0
-7063 11126 0
-9589 -8249 0
-7666 -2146 0
7440 12394 0
-10466 -11184 0
-12425 6404 0
-9568 -8704 0
-3047 8799 0
2086 -3132 0
-8791 -7114 0
10124 10028 0
-218 -7160 0
-770 10460 0
-3818 4306 0
-1540 8391 0
10087 2249 0
-11812 -5031 0
-7391 1458 0
9625 9957 0
4994 -3100 0
-2349 8307 0
683 -8561 0
7226 -8475 0
-828 -6324 0
-11899 11657 0
-7577 528 0
8457 -5021 0
-6431 -129 0
10256 -11503 0
11415 -6678 0
-11401 -8484 0
-10643 2631 0
-3669 401 0
3155 -8850 0
2209 -1531 0
-9041 -10780 0
-8292 -6010 0
-9664 -4231 0
3784 -2739 0
-7937 7177 0
6213 105 0
2006 2567 0
-10634 11612 0
-4078 -10262 0
-4980 -11100 0
4111 -11315 0
-9905 -6096 0
1140 -5675 0
1376 -734 0
-5283 3237 0
3407 -10562 0
9322 -1476 0
-131 10630 0
-599 -3874 0
10841 -3301 0
10682 8286 0
-8446 1446 0
550 12224 0
10455 251 0
1529 -8157 0
2000 6962 0
-433 10981 0
2627 -4254 0
-1133 -11808 0
-9664 -11720 0
5477 -5203 0
1528 11817 0
6992 10678 0
-10720 9309 0
-2632 -5846 0
10959 -3672 0
9062 -11360 0
-10897 -581 0
978 4348 0
11145 -10655 0
-8019 -7538 0
-6682 2403 0
-2774 -4898 0
2959 -10174 0
4183 -8026 0
-4861 -8451 0
6291 -7656 0
6641 903 0
-9892 7084 0
5309 -998 0
-12146 -2127 0
-2147 3548 0
2262 -8852 0
-11718 4002 0
10538 -4796 0
-9082 -11213 0
8240 2398 0
4257 -10685 0
8119 -3044 0
-7902 1881 0
-4296 7441 0
-3321 7819 0
9256 -11028 0
3753 -7481 0
-8655 7808 0
-5495 -7078 0
-5632 -3932 0
4346 6359 0
-1827 6556 0
5194 -11425 0
-6359 7356 0
4801 -10999 0
712 -1907 0
-7451 714 0
-2471 5155 0
-4919 2397 0
-4527 -8840 0
6953 -9464 0
-395 10474 0
5250 6759 0
-467 7060 0
-4707 -5814 0
-8138 -3457 0
4830 -1164 0
-6159 7709 0
-1630 -8904 0
-4954 -1891 0
2582 283 0
-8860 3763 0
8706 7588 0
11496 -2291 0
2395 5416 0
4253 5404 0
9211 -6791 0
752 -3883 0
-11728 -6473 0
7239 9281 0
9531 2292 0
7294 4631 0
11061 -4042 0
5871 10953 0
-2112 -7672 0
-12470 -9853 0
11905 797 0
-8934 11185 0
-5254 -8324 0
-9469 -8840 0
9040 2434 0
-9568 -11768 0
6951 -6322 0
282 -3116 0
-4017 -8902 0
-9429 -9861 0
2099 -5064 0
2811 8863 0
6584 11997 0
-1054 -1922 0
-818 10977 0
-4281 -12371 0
6643 -10547 0
-10132 -1956 0
5862 -9473 0
-976 3009 0
-782 -8646 0
8015 10252 0
9921 3190 0
5936 68 0
5574 6140 0
-3598 3605 0
-3119 -1118 0
4915 247 0
-227 -8243 0
-11512 8787 0
-1263 10836 0
-7599 -10045 0
-1426 1451 0
-10462 -4690 0
-8627 -9193 0
-4073 10925 0
3009 -6663 0
5815 -910 0
-2524 -7414 0
-3518 305 0
-4453 5475 0
6955 -11778 0
2967 2076 0
-9353 -2201 0
-9093 6701 0
-501 -6486 0
-3010 -7178 0
-2944 6038 0
-3632 -11008 0
7770 -1404 0
26 12387 0
2198 9468 0
1931 -5877 0
-9277 10606 0
-590 -8736 0
-6004 3853 0
-9620 291 0
11980 -417 0
10579 169 0
-1042 -1062 0
12347 9533 0
5905 -7780 0
12063 -9009 0
2967 5650 0
6039 12030 0
-5039 11961 0
-11259 3303 0
-10756 -6212 0
-5349 9206 0
-2822 12257 0
6435 6082 0
1239 -4158 0
833 -5085 0
-11924 1918 0
-7981 -239 0
-8897 -538 0
-5543 -12264 0
-3246 9804 0
7357 6741 0
-8296 -4162 0
11958 -7863 0
-8864 2984 0
-4121 5025 0
2317 4986 0
1995 -1896 0
249 8560 0
8214 4736 0
-3369 8788 0
-7182 -4256 0
-1577 5883 0
-2248 -492 0
6971 -4018 0
-1285 -9218 0
5019 -7790 0
-6417 -3471 0
752 -6002 0
3525 -1641 0
-4605 3664 0
-2311 -2728 0
-7872 -5659 0
-8727 -5452 0
1526 -12255 0
-580 -1727 0
9935 6898 0
-12102 -3271 0
-5030 -985 0
-11566 -11884 0
6248 1791 0
5405 5152 0
-10993 11652 0
11627 -579 0
-7160 4292 0
-10246 -9370 0
3973 1576 0
-5780 7471 0
-10552 6692 0
8133 -8928 0
6981 924 0
-11572 9774 0
5355 -4867 0
-11753 -377 0
5730 -4185 0
470 -103 0
-9554 3617 0
-226 8483 0
578 -12101 0
9539 -8674 0
2110 3180 0
1221 -4204 0
-165 -9040 0
9955 -10620 0
11785 9685 0
-12181 -5638 0
1815 -6541 0
-5284 7439 0
5447 -5589 0
11755 9281 0
-1164 -8631 0
5224 -2554 0
-4849 -360 0
-9076 7427 0
-4681 -4722 0
-9713 -3255 0
11173 -11018 0
-4861 2843 0
3118 -1854 0
-10749 -11578 0
9505 -10993 0
11781 6109 0
6151 4548 0
-6022 7320 0
7542 7541 0
-12371 5575 0
5724 -3011 0
-11196 193 0
-4357 1980 0
3901 -3099 0
10952 -8001 0
4536 -9264 0
-11119 -5871 0
8714 -11474 0
-292 5312 0
690 4706 0
-9349 -2621 0
-10214 1820 0
2437 -5473 0
-10076 -1398 0
-2232 -4632 0
9751 9335 0
8035 -5040 0
-5550 -6839 0
2742 11116 0
-7034 -10486 0
-10410 -9926 0
3341 -1948 0
-8810 -6494 0
-6584 -2784 0
-4768 8459 0
6174 10646 0
6422 1283 0
-8862 276 0
3431 -6112 0
-5970 10095 0
-7221 444 0
4120 1676 0
-12121 -10325 0
-10342 8453 0
-2617 6414 0
-6806 -6555 0
-9538 -9095 0
-6464 -1899 0
-2592 7926 0
951 -1115 0
6650 -12066 0
-7860 -11291 0
-12470 -10168 0
8826 9143 0
165 4845 0
10195 6805 0
-6622 -9061 0
-1178 -3332 0
-697 -8025 0
575 -6792 0
-11349 -4638 0
-1404 1278 0
-9450 4702 0
6407 -5711 0
2462 -145 0
-11262 10581 0
10368 5366 0
8814 1240 0
-9246 -1257 0
1565 7173 0
-8682 -685 0
6149 -10054 0
-540 -6051 0
-5336 -6995 0
-1264 2028 0
-4800 -4674 0
-7443 -8032 0
8406 10866 0
-11025 1232 0
2735 -12182 0
9707 2556 0
8694 -10496 0
1861 6865 0
1514 1319 0
7827 -3560 0
7210 574 0
-197 -5839 0
-9678 10627 0
4409 -11489 0
9255 1146 0
9643 -5786 0
-4324 -2559 0
8437 -11623 0
-7013 -7873 0
6945 3851 0
-9894 -12474 0
-2739 -316 0
6883 -1127 0
-10003 8565 0
9627 -10258 0
-8225 -3624 0
-11983 -6770 0
-7224 8484 0
-5738 10873 0
-11581 -3443 0
3590 6361 0
-7315 -11945 0
7358 -9059 0
5373 -11196 0
-8078 7098 0
7197 -7082 0
2966 8538 0
-12030 -1118 0
-3915 2097 0
5587 5247 0
1364 4429 0
1767 -3765 0
324 -8805 0
2909 7586 0
-5916 -6248 0
-1375 -2653 0
395 -2445 0
6656 6327 0
8047 -3269 0
-11071 10356 0
3443 1383 0
-10316 1603 0
-4851 -750 0
12453 7970 0
525 1775 0
7647 7354 0
5770 5614 0
6323 -4356 0
-2753 5590 0
11264 1930 0
8198 789 0
756 3413 0
-7855 35 0
4226 -7296 0
-11202 3323 0
-3711 -8859 0
2684 7535 0
-4989 7972 0
-8936 -678 0
7731 5847 0
5586 4839 0
2845 4443 0
2719 -4990 0
3245 11697 0
12397 7561 0
7007 -2604 0
-5032 10079 0
5033 -1948 0
11627 1045 0
356 -3615 0
-3770 -5917 0
7890 7561 0
3273 -2912 0
-5766 -1095 0
1586 -4622 0
9260 1573 0
6033 3340 0
-11494 3704 0
-12074 10763 0
10378 1273 0
4357 7150 0
-8377 -6022 0
-9253 3485 0
2975 -3995 0
-1152 -10259 0
10919 -4756 0
-3032 -3421 0
1447 -1129 0
-3909 10876 0
-4559 124 0
-359 -10419 0
6683 2961 0
-5596 -769 0
3567 -3369 0
-10229 4514 0
879 -9251 0
-2263 -1683 0
-4718 -7307 0
10585 -2169 0
-8986 -2747 0
2057 7345 0
5141 11316 0
7505 -11875 0
7647 907 0
11855 -4684 0
-249 11001 0
-7059 12414 0
-10432 -447 0
11447 -3589 0
3255 1329 0
1538 -2058 0
7047 2535 0
665 10987 0
-3722 3041 0
1701 -9827 0
12468 -6345 0
-11509 -170 0
4055 11303 0
-12009 9066 0
-2623 -2454 0
11935 -5380 0
-5389 -9327 0
1525 -3508 0
-2819 11979 0
-9068 4239 0
-4174 -6982 0
-7490 10938 0
-5877 -6423 0
-6161 -5444 0
8434 -12025 0
10069 -9129 0
3222 -5854 0
-8487 4251 0
1613 -3340 0
-9379 -3244 0
-9987 -9902 0
-5786 3047 0
-2238 -956 0
5662 -8576 0
-3816 11777 0
5735 10301 0
-9884 5524 0
9697 -4884 0
7508 -1093 0
559 8819 0
-8299 -9890 0
4225 9790 0
-11352 11415 0
9003 1566 0
9456 -1037 0
3797 -3856 0
1931 -11259 0
-544 11907 0
2316 -9203 0
3492 5422 0
2658 9502 0
-3635 -4525 0
-6382 9532 0
-6525 11837 0
-12301 5981 0
6453 -2728 0
-1045 -5254 0
6397 -7598 0
3495 -11287 0
-2666 -10398 0
8800 12398 0
2758 22 0
-5628 9956 0
-3089 182 0
-10503 836 0
10272 -4335 0
10924 -11722 0
3370 6257 0
2152 10290 0
-4762 -11496 0
-7431 6094 0
6270 4696 0
-6011 6543 0
-2283 -11605 0
173 9110 0
1245 8361 0
-9752 4086 0
8284 -3102 0
-814 -8782 0
-10294 -6449 0
-4914 -74 0
-10152 -5179 0
4094 11722 0
-3291 886 0
-10003 10830 0
5326 11602 0
-11755 7534 0
9852 -8675 0
-11567 5362 0
-6060 2750 0
-10516 -9601 0
-1617 -11227 0
9115 -7198 0
5838 4991 0
-512 2761 0
3736 6996 0
5779 3011 0
-9512 -11087 0
-6453 -306 0
-3267 1376 0
-1407 -6328 0
-10400 11019 0
-11077 11374 0
2180 4129 0
-12264 -2006 0
-7404 173 0
11095 4696 0
3674 255 0
8644 6281 0
433 -889 0
-6159 -5023 0
-6656 3896 0
4464 4663 0
7461 8791 0
5471 -6581 0
2823 -942 0
-7934 5587 0
-7076 -8367 0
11482 -9794 0
2878 -8955 0
8842 -6132 0
-3690 11309 0
-10414 -1624 0
9619 11238 0
-5294 -12182 0
-3990 1952 0
4034 3072 0
-1777 709 0
879 9299 0
-6151 1637 0
1379 -3624 0
-11708 7555 0
12267 -5595 0
1427 11973 0
-2172 7721 0
8424 1500 0
-5028 8814 0
-10900 7990 0
-3462 6949 0
-7908 -6656 0
-6690 7602 0
-5460 6548 0
-9546 6488 0
534 -7008 0
-4821 -5798 0
-879 -4756 0
-175 -5088 0
4138 9363 0
-1267 9031 0
-4699 -4502 0
-4353 503 0
-9153 -3267 0
7704 5912 0
7663 -9608 0
2610 149 0
-3900 -6667 0
-1636 -11418 0
11941 10387 0
-4475 -2651 0
7452 -6305 0
4923 10867 0
4460 -237 0
5550 -2653 0
6914 -6235 0
4894 495 0
-5436 11989 0
-1600 9527 0
6304 1662 0
-1366 -6415 0
4661 -10009 0
1340 -4650 0
-8113 -11433 0
-1759 9949 0
10915 -2446 0
11760 -4373 0
-10643 -4356 0
3527 2839 0
9815 -10720 0
-8244 9011 0
-2257 -11497 0
8484 10200 0
11506 -8760 0
900 -9395 0
-11960 -7135 0
-4105 9006 0
11901 -4667 0
-2090 9021 0
-6725 3834 0
-11353 5325 0
11342 -5346 0
7540 5457 0
7580 2504 0
9744 -1146 0
6888 -8588 0
-8026 -6854 0
10983 11272 0
-331 -1441 0
4450 -4271 0
-10687 -10281 0
121 -8490 0
-7026 -11869 0
-10109 -2678 0
-6017 5970 0
7186 -7034 0
11652 10344 0
-6206 -11107 0
11081 -6499 0
-5643 10481 0
8274 -7123 0
3938 10309 0
-6540 2953 0
-8600 8751 0
304 10947 0
-10203 641 0
-6700 5913 0
-8453 2684 0
10652 -2766 0
94 -2897 0
-5521 -5355 0
613 -3804 0
-6627 561 0
9409 11133 0
3397 -2265 0
-247 1562 0
10336 7489 0
-1207 7995 0
-5912 8695 0
341 6896 0
8832 7532 0
737 -7398 0
-8571 -3279 0
9903 12286 0
-5614 -8055 0
-8961 5764 0
6786 -124 0
-8855 11573 0
1644 11638 0
-6934 -8951 0
1350 -192 0
-8329 11423 0
-8596 -6388 0
10472 2745 0
494 1690 0
-1659 10503 0
7399 5974 0
-8102 -7907 0
-2140 -5987 0
12391 -2965 0
1334 -5474 0
-1894 5700 0
7156 316 0
3330 -11678 0
-11397 -12351 0
3251 10158 0
-8859 -11353 0
-7099 3155 0
-12025 6204 0
11888 11552 0
8739 6455 0
10834 3058 0
5862 12264 0
-3861 6644 0
-11235 1178 0
-3894 941 0
-2086 6614 0
-10168 -10675 0
2632 -6277 0
-3940 3330 0
7853 -6354 0
10344 -1320 0
-7551 -7771 0
4860 -9305 0
-2963 6218 0
4392 207 0
11060 6870 0
6936 2040 0
8886 -3670 0
-5086 -4132 0
-9591 -9362 0
1844 9 0
-396 7101 0
-10118 3103 0
-2275 7234 0
8722 10849 0
-1631 3934 0
-9535 11997 0
10737 -5839 0
-1422 6187 0
4522 2894 0
-5927 -774 0
4403 5721 0
11406 -4175 0
-9058 -6438 0
-5877 259 0
7514 7401 0
10957 79 0
-50 -1055 0
8627 -1762 0
7095 -3698 0
9420 515 0
6075 -4163 0
1650 -10431 0
10783 -8325 0
-8181 3405 0
6295 707 0
12231 -5837 0
-9334 -8060 0
8310 11932 0
-10273 -1784 0
6106 6549 0
11471 10305 0
11827 4863 0
245 9165 0
-6667 -10845 0
3220 -11974 0
-5032 1765 0
-4122 6462 0
3158 3362 0
3394 5556 0
10676 -3563 0
-8221 -6559 0
6237 4522 0
-9898 6321 0
10086 5595 0
11074 10302 0
-8304 9199 0
4997 -4745 0
4264 6548 0
-7364 3066 0
510 -3678 0
-3878 7122 0
-9305 6816 0
1441 -4823 0
7693 -10275 0
5465 410 0
-8392 3335 0
3824 -7217 0
3481 -5953 0
-257 -5613 0
-5521 -10657 0
209 -10031 0
3974 -6885 0
3413 -9503 0
8652 -5831 0
9513 11614 0
-3443 -6357 0
9372 951 0
10493 -6823 0
9786 -3257 0
-4657 4261 0
-11910 5577 0
-9845 -8153 0
2253 -9713 0
4941 1941 0
-9022 2743 0
-11945 -9199 0
4624 -9237 0
6208 3649 0
9927 -10425 0
-5767 -10782 0
2044 -5422 0
3311 -1540 0
-8197 -8067 0
-3668 -1935 0
12107 -7642 0
12136 12318 0
10031 -5155 0
-3716 4896 0
-12477 -4630 0
4667 -8749 0
-1778 5701 0
-5144 4997 0
-11166 -1096 0
-9267 3964 0
-10408 -3958 0
-1527 -11959 0
10960 -12240 0
-9444 -6037 0
9062 6627 0
-2968 -157 0
-131 4775 0
12205 7199 0
7068 680 0
9386 -9377 0
9654 501 0
-4369 7733 0
-12401 -9531 0
-3119 -11385 0
10857 -6810 0
-8775 -4586 0
10122 8304 0
-8668 -8611 0
12038 9880 0
-5846 -9146 0
3603 -437 0
4588 -7078 0
-11109 9000 0
2700 -7385 0
-12153 -7596 0
3162 5503 0
5717 -2362 0
12126 -5915 0
-8380 10741 0
3035 4002 0
1982 -2224 0
3085 5690 0
-9837 -4540 0
6088 -3138 0
12420 8176 0
-7920 6085 0
-7500 -7005 0
-4210 -11811 0
9106 -5315 0
11078 1934 0
-12396 -10364 0
-486 -11097 0
9982 -8261 0
-8685 8828 0
4403 9480 0
-10324 7767 0
9649 -8956 0
-7133 6896 0
4415 2864 0
10368 10098 0
1178 -10328 0
3157 -1526 0
6212 -11459 0
-5777 -11472 0
-7516 -11316 0
-2563 -5521 0
2260 -3306 0
-1987 9532 0
-476 10806 0
3409 -9320 0
8088 11185 0
9519 3939 0
5184 -6913 0
9792 -6101 0
-5076 9232 0
-1990 -2139 0
207 6028 0
-7215 2898 0
-9622 -10600 0
-6326 -4987 0
-6240 -9166 0
6949 2180 0
-10958 -6895 0
-598 6865 0
9739 4386 0
-3656 2468 0
-777 -8395 0
10293 -1114 0
2334 -12397 0
-4037 1553 0
11094 4245 0
3643 -698 0
8163 -6152 0
11326 -102 0
-4058 702 0
9109 -9049 0
-4855 7575 0
-6786 7021 0
8458 2281 0
4979 -12408 0
-5720 8196 0
1071 -3729 0
3499 -8324 0
8689 -10441 0
364 -3412 0
1600 2940 0
2769 6671 0
1330 3232 0
5799 6429 0
-6379 -8842 0
-11696 1891 0
-1825 -11722 0
-2507 9873 0
-8298 -11968 0
-7350 4973 0
694 4358 0
11821 -2666 0
11579 -3093 0
298 -4042 0
-10604 6983 0
-5939 -6114 0
4333 5046 0
-3721 3324 0
4046 4216 0
-7747 -3542 0
-8527 -7913 0
6276 3221 0
10286 -8656 0
6384 7859 0
-3198 1644 0
-5390 -3791 0
1984 -6281 0
9195 -9405 0
-7154 9943 0
3793 -4176 0
3197 -8843 0
9494 9791 0
-1079 608 0
-1406 -9884 0
-7031 -11519 0
4736 -7799 0
10862 -10222 0
6226 -10139 0
3080 -5913 0
3533 -1283 0
-6773 -9776 0
7387 8193 0
5354 -9833 0
11444 -4280 0
976 -7609 0
-2161 -9545 0
-10545 1791 0
8054 -197 0
-10119 11660 0
5189 10265 0
-3866 2164 0
12226 9369 0
-7601 -8358 0
3941 9499 0
2825 -6258 0
-5355 -12382 0
-3836 -4105 0
-10052 6972 0
-213 -9382 0
-204 -7306 0
-8433 -9082 0
2975 -4982 0
-4796 -2358 0
3293 7752 0
-11997 8204 0
9301 -115 0
12023 -1575 0
-5584 11201 0
12036 8245 0
5542 -7962 0
-2998 -11727 0
8135 -5226 0
1470 -7358 0
-8304 11672 0
-1641 -4274 0
7085 5479 0
-5828 7205 0
7843 -571 0
-8371 -7763 0
-7479 8287 0
4579 6231 0
693 -10466 0
9021 -2833 0
-2238 -8490 0
-8956 -10311 0
-2019 -843 0
10919 -534 0
7275 -6431 0
12139 5753 0
-9322 -656 0
3708 365 0
9163 -1583 0
-11609 -6979 0
-8001 -9516 0
1868 4092 0
-2249 -4078 0
-9545 -765 0
-7128 -1400 0
2347 -8190 0
802 -1818 0
6085 10630 0
4420 2467 0
1157 6794 0
-1932 349 0
-9703 781 0
9721 -9460 0
9628 -12234 0
8227 5935 0
8096 3849 0
-11515 -8064 0
8794 -8134 0
8749 6257 0
-8538 -2362 0
9146 4300 0
7906 -2811 0
9766 6787 0
4447 -11389 0
6580 -10519 0
-11500 -8437 0
-1932 -12026 0
609 -7063 0
5655 8364 0
6067 -10930 0
6012 6333 0
-7650 -6246 0
5700 -167 0
-2442 10173 0
127 7048 0
4832 12428 0
-10713 -3312 0
-5598 -726 0
-2160 -3373 0
1101 8705 0
-3586 4807 0
-11010 -5006 0
-3997 -6322 0
7950 -10763 0
7397 -7264 0
-5676 6282 0
-3286 -11917 0
-9579 -11804 0
10519 -8265 0
-7676 1309 0
3198 10834 0
-4488 -8170 0
2814 -2430 0
9801 -8808 0
-1164 -960 0
-491 956 0
1111 -2750 0
-3232 -6922 0
6485 -268 0
10550 5029 0
-5815 11305 0
-5510 6246 0
-4214 11621 0
-3548 -2177 0
-4155 -666 0
11700 -6159 0
8534 5272 0
-4063 1959 0
10829 -2697 0
5341 5366 0
-10196 1691 0
-2753 -4082 0
-7215 -96 0
-1981 -7570 0
-9850 -3191 0
9834 -474 0
-3948 -9494 0
170 -5362 0
-12248 -2758 0
9611 3640 0
-2218 294 0
-10742 -2140 0
-8956 10490 0
-9582 -7624 0
-1503 2172 0
9947 -8654 0
-9598 10984 0
9054 -9937 0
7615 246 0
-10015 11653 0
-8844 4751 0
-11648 4518 0
6584 -7890 0
-12371 11653 0
11021 7526 0
11316 -11870 0
6557 7630 0
10150 8326 0
8844 -4694 0
1453 6180 0
-2220 1851 0
8391 -11414 0
-11257 6510 0
9021 -9348 0
-12171 451 0
7691 9314 0
-3935 10401 0
-8815 7685 0
-1244 -9035 0
8404 -7546 0
1529 -11631 0
-11870 -9191 0
12013 5159 0
10476 -10661 0
-3240 3548 0
8308 -67 0
12302 1210 0
8988 12224 0
5389 6935 0
12354 6444 0
3498 -4668 0
-3985 -10348 0
-2757 -7751 0
-1510 5738 0
-1155 -2128 0
8684 -8911 0
-11098 4298 0
12037 11095 0
-5278 2788 0
-6924 9875 0
10063 -1325 0
-11422 1050 0
-5373 -1705 0
-63 -9381 0
1394 -7842 0
12457 10056 0
-1853 -11653 0
-3261 -887 0
2843 2240 0
4282 -11036 0
-9774 -12384 0
833 -1082 0
-1238 -7773 0
-1415 6094 0
4217 7418 0
-10270 -4049 0
3455 -8225 0
-6925 -10470 0
11839 4134 0
-10623 -9285 0
-913 12455 0
-2482 9247 0
11210 1140 0
2416 12323 0
-11298 627 0
-4402 3294 0
-742 2538 0
8706 11072 0
-172 5838 0
10874 -11367 0
6458 9171 0
4936 10167 0
-10116 -742 0
2086 -1174 0
-2191 -4381 0
1676 -4020 0
-10498 -6779 0
5058 252 0
-9028 8606 0
-10457 -11713 0
-7239 -5650 0
-11736 6941 0
5124 2248 0
10589 9162 0
-240 5508 0
-6457 -2061 0
-10641 4214 0
-9323 -7447 0
-1030 6489 0
-553 -2764 0
-5829 -2794 0
-2391 3330 0
3226 -1521 0
1043 -11653 0
5631 4086 0
-9501 -12444 0
-456 -3588 0
-9293 791 0
6224 -11169 0
5724 -3223 0
-5140 -12083 0
-2179 -4630 0
5773 5911 0
-9068 -1215 0
11119 2589 0
-4574 5936 0
6518 -7123 0
-2048 -1779 0
10180 3697 0
12279 -11910 0
3364 -8952 0
2677 2852 0
-7902 5017 0
-706 -11265 0
2193 -2368 0
-7703 11906 0
-10237 2933 0
-2173 -1597 0
-9654 8145 0
11762 -547 0
2696 -3932 0
-12416 -4547 0
-7322 4527 0
1204 -9119 0
10206 -1877 0
-7561 -2350 0
-5680 12017 0
-3651 -8491 0
5447 -3800 0
8721 6684 0
207 1089 0
10297 -4388 0
3957 8203 0
-4773 10776 0
7878 3283 0
6461 10005 0
5789 -11089 0
-3718 -7126 0
3493 -750 0
-6160 10357 0
-1835 -11182 0
-7969 987 0
3079 10215 0
-6221 -2423 0
-4490 -6013 0
-3860 11140 0
-11453 -2726 0
-11532 2510 0
1668 -9424 0
1785 835 0
9587 -9199 0
-7040 -1881 0
-1708 -7195 0
11426 -10115 0
11617 5810 0
-3177 -10014 0
11911 4796 0
11625 1229 0
-1187 2380 0
-4691 -2070 0
-8569 4775 0
-234 -10916 0
-1043 -11987 0
-387 294 0
-5919 -5372 0
8434 10304 0
-5629 3451 0
-8680 12289 0
-11544 -2339 0
10345 -4020 0
2611 -1482 0
2856 -9619 0
-2645 -8790 0
-8900 -1251 0
-9038 -2262 0
8397 5561 0
-2172 6062 0
10323 -1479 0
-10430 3110 0
12057 -2369 0
-542 -4456 0
-4507 -4746 0
6590 2443 0
-7042 -11175 0
-8009 -5961 0
5750 -4795 0
-9343 3834 0
-1220 -991 0
11697 3191 0
1735 6039 0
-6914 -9526 0
7810 -1760 0
-5623 3765 0
8106 4264 0
-9044 3034 0
-11925 -6285 0
-840 4458 0
-1835 11485 0
-10426 -3286 0
-4650 9921 0
-4117 10890 0
6285 3218 0
-1774 4930 0
-6223 -12416 0
-7270 11131 0
-4282 -6317 0
8216 4747 0
10689 5679 0
6039 -6713 0
5792 -8910 0
3236 8667 0
1399 -7815 0
5570 1895 0
-9958 -11511 0
-5735 10614 0
6109 4213 0
5424 8919 0
11772 -12294 0
3701 11751 0
-1147 -4008 0
-4553 -3851 0
11334 3349 0
12285 -10548 0
-3295 -705 0
11137 -1392 0
-571 -9132 0
9140 9447 0
-10782 -8070 0
12445 -8736 0
-4216 9740 0
-2042 10072 0
-672 3781 0
3804 5270 0
-2133 1790 0
-4305 5865 0
-6660 -2512 0
-7513 -11852 0
-3156 -12371 0
9480 12078 0
-2585 -373 0
-8500 -1339 0
-10129 8965 0
-7020 -1800 0
-7696 2970 0
-5173 9251 0
-1724 -3904 0
-12433 -7567 0
-4584 6169 0
8940 -11685 0
-2609 5054 0
-4296 -8372 0
3439 -3216 0
10898 -8551 0
5622 -483 0
-2940 9557 0
-11933 -9156 0
-4646 12421 0
176 8277 0
6403 6848 0
10372 10568 0
-6916 -2422 0
-2413 -5340 0
-9161 -11995 0
-8216 3323 0
-2670 -3867 0
-1428 6465 0
-7342 10033 0
-11110 7820 0
3563 11106 0
-954 2394 0
-11801 -12402 0
-11661 96 0
-6774 -12262 0
4656 -4846 0
-1574 -7607 0
-9398 -1570 0
3944 -3487 0
-9789 -7276 0
10787 -376 0
-2373 -3132 0
1456 4718 0
-2056 12082 0
-4311 1466 0
2631 -5002 0
-10724 4660 0
10429 -9618 0
-3234 6940 0
679 -11920 0
-7961 9408 0
-12198 2284 0
-11744 -10346 0
-4271 -9010 0
7534 11362 0
-1094 -3492 0
-3317 1754 0
-11252 837 0
-7001 -1393 0
-3316 -6362 0
7864 8621 0
-8448 4042 0
12037 -12345 0
-10748 -5311 0
7870 -12290 0
6160 3989 0
3545 -5037 0
-9424 9518 0
9689 10650 0
2832 -12140 0
6250 4752 0
-11349 10113 0
3097 -12307 0
-9371 1871 0
-12418 -11431 0
-9482 -9313 0
166 7339 0
7413 -10465 0
-9250 -6895 0
3060 -6716 0
-10819 7947 0
12352 10243 0
-3993 -11042 0
5907 -3402 0
-2717 -9371 0
-9969 921 0
-11653 3989 0
168 2097 0
4558 4691 0
1300 -5530 0
9177 -7124 0
6921 2110 0
-3209 241 0
2093 -7484 0
-2794 214 0
7128 7688 0
-10504 3924 0
-7511 -624 0
-6310 -6763 0
7630 8704 0
11574 11808 0
-9687 9342 0
-5436 -5917 0
8494 9550 0
7771 -3421 0
4827 7565 0
-9716 -3822 0
-7316 -1766 0
-12211 -5896 0
-4442 -7905 0
1351 6403 0
-5039 7064 0
3290 7049 0
11128 3982 0
-7203 3911 0
-6901 5794 0
9464 7758 0
11635 -5495 0
-6884 -7845 0
-8729 -7574 0
6467 1644 0
8673 -1125 0
-2483 7088 0
-2268 -10596 0
9184 -5051 0
-599 -10362 0
-5331 8813 0
4125 -11234 0
1026 11949 0
2021 -4529 0
-9008 7041 0
9315 -5477 0
-12388 4042 0
-7789 4151 0
5550 -6937 0
12376 -12215 0
7414 3794 0
-3246 -12089 0
3519 11339 0
-11713 -2482 0
8933 7987 0
-7045 -1360 0
6878 5166 0
10242 -7340 0
-3641 9114 0
-2228 -3802 0
-9613 4440 0
-6838 5354 0
-9130 3020 0
-7124 -7494 0
275 -4357 0
7693 1129 0
8925 -2777 0
8889 -10434 0
-2446 10217 0
-7603 -8719 0
-3122 -10716 0
1718 -3572 0
12052 10434 0
699 -450 0
2819 -11792 0
-5567 1354 0
10118 -10769 0
2663 -10070 0
-3191 7994 0
-4071 11743 0
9477 9355 0
-2889 1102 0
3107 -4203 0
-5276 8127 0
-1775 -3732 0
4723 -3763 0
7085 9259 0
-6796 -10811 0
4735 -11495 0
7549 6199 0
1712 -11821 0
10583 -1559 0
-2905 8051 0
-9941 -4760 0
865 -4776 0
5911 4171 0
-3751 6703 0
6439 -4117 0
874 -4587 0
-12293 -8123 0
-7740 2123 0
7430 -3870 0
6432 -1219 0
9091 10023 0
-8983 12103 0
548 1936 0
-9783 8695 0
4617 10242 0
702 -53 0
-3905 -4379 0
7030 1484 0
-9876 8874 0
2042 -2997 0
12017 -5663 0
7839 -2290 0
-7902 10512 0
4123 -7303 0
5251 -3644 0
-1773 -2581 0
7202 -1971 0
5962 -9926 0
-5851 -2454 0
-10767 10149 0
-8386 -150 0
2571 2013 0
-6918 -956 0
-6828 10585 0
-1896 4554 0
-4974 -9533 0
-9491 7573 0
-2002 -5697 0
-5146 829 0
-1522 936 0
8980 12185 0
2692 5207 0
4513 -12353 0
3491 -10133 0
-1021 -8369 0
-4391 -2653 0
404 5011 0
5789 1681 0
-8137 -1684 0
964 1444 0
9848 -2196 0
-7553 -8169 0
-5013 -4888 0
7145 9462 0
10798 -2866 0
11779 -10617 0
681 11891 0
320 9959 0
2510 5421 0
-8957 -10605 0
3157 -3033 0
-2063 8849 0
5504 5376 0
8165 -11691 0
775 -8965 0
-8067 -5691 0
-2242 -7741 0
-2780 11394 0
12467 1356 0
-7129 2193 0
9408 -1550 0
-9468 12037 0
-153 942 0
7224 -6114 0
496 -521 0
-2305 3472 0
9378 2903 0
7874 -2218 0
-2272 -1532 0
3012 -11226 0
1345 10430 0
-9968 3787 0
9265 -10961 0
3986 -3805 0
9370 -2226 0
-5093 1082 0
-10624 -69 0
1401 -9696 0
6809 9294 0
-7860 9230 0
687 -2305 0
-5291 10464 0
-5069 -10637 0
-466 -7669 0
9622 -7266 0
10559 10836 0
-11981 -4438 0
3059 7610 0
-10312 -4874 0
-6784 1247 0
9028 6241 0
-10124 7892 0
7903 -6926 0
-5459 -6208 0
-6418 1689 0
11943 -6618 0
-9237 11269 0
-2019 12451 0
-12339 -2862 0
253 11012 0
12297 4460 0
1142 7122 0
-5337 11694 0
9385 -6178 0
-6214 -10904 0
12211 -9425 0
233 -8504 0
8207 -2213 0
11415 569 0
-690 -2594 0
-872 -4758 0
-581 -3441 0
-7978 2073 0
11919 -9494 0
-5300 -325 0
-2282 -1965 0
-1662 -8855 0
6771 -11220 0
-8084 -9881 0
7021 -1468 0
-753 11609 0
-1770 1225 0
11936 6917 0
2187 -8635 0
5670 2017 0
6733 4960 0
-12335 8376 0
1410 1816 0
-7093 -11230 0
5925 -9496 0
3438 7778 0
4869 11169 0
-8624 7928 0
7392 2331 0
6583 3086 0
-10057 -178 0
1029 -8220 0
5397 2448 0
-2755 10127 0
-9295 -4856 0
-11071 -11492 0
-5090 -10575 0
12128 -5601 0
2733 4626 0
10234 -9961 0
-2394 2799 0
-11417 -2116 0
-8536 5966 0
9264 3534 0
299 5033 0
6597 -3700 0
5154 -315 0
3560 -12041 0
-5246 -1531 0
-5538 6133 0
8973 6076 0
-11186 12141 0
-3909 4043 0
3012 1493 0
281 977 0
1545 10546 0
-10570 3933 0
12199 -6712 0
4554 -11553 0
-6279 -4025 0
3654 -7828 0
-941 -12413 0
-6575 -2647 0
5177 3965 0
-3973 1439 0
8964 -8701 0
2838 -9605 0
-2634 -8332 0
468 11367 0
3663 10759 0
-8180 -4762 0
8327 -5259 0
3818 -7147 0
-7520 -6349 0
231 -10501 0
-6925 3238 0
7876 4183 0
-4776 -1232 0
7144 7151 0
-1918 1108 0
4221 10634 0
10863 -5153 0
2334 -11698 0
7192 10880 0
-9128 9064 0
3397 8077 0
12069 7834 0
-7598 -4662 0
10910 -8876 0
-11693 1100 0
2957 8601 0
9493 6961 0
-4569 6333 0
-4197 11322 0
9357 -307 0
2080 -11494 0
11815 -2879 0
-1018 -11033 0
-11781 12064 0
12148 -9655 0
10099 -8501 0
-2794 7675 0
2171 6959 0
-3428 3381 0
9261 -2289 0
-3821 -1351 0
-11460 -8026 0
-6216 -9454 0
10532 -5993 0
11216 9790 0
8335 -8249 0
-8418 3146 0
8295 -9905 0
11856 -2804 0
-4929 747 0
10077 5787 0
-2067 -8684 0
8863 11678 0
9513 9466 0
925 8715 0
-8268 -2713 0
-11220 -7246 0
6784 -419 0
8696 -5058 0
-10726 -476 0
-1094 9101 0
7830 7998 0
-12010 6714 0
-1005 1551 0
-6050 1110 0
1857 4365 0
-5928 3437 0
-11956 -4685 0
9218 10747 0
3384 4669 0
3147 11898 0
757 -8127 0
9099 6638 0
-6024 1324 0
8433 -2474 0
-2755 6097 0
8715 -3460 0
12192 2280 0
2663 12014 0
6366 -11169 0
-6431 10650 0
-11571 -5113 0
981 8162 0
11170 11057 0
-3880 8941 0
8316 10681 0
10257 8268 0
-1854 7376 0
7012 9190 0
-3721 7125 0
6337 8210 0
-3375 -3094 0
-3630 1272 0
-325 1569 0
2875 10846 0
-4401 7662 0
-10527 374 0
9718 3013 0
10458 -7527 0
4374 -3804 0
6681 2672 0
958 4108 0
9264 8158 0
9771 -6210 0
-6206 -816 0
1915 6770 0
3045 4201 0
5916 10030 0
5716 4025 0
10689 -11375 0
1101 -8178 0
-5867 6927 0
-5365 -5089 0
12416 -3248 0
-4885 8702 0
-5235 2222 0
-12397 5233 0
-25 -2084 0
-9410 7769 0
-6600 7354 0
-5352 -10833 0
-8782 -6914 0
8453 4406 0
-9106 7120 0
7421 10121 0
-7817 -133 0
1895 7168 0
10515 -11608 0
-7707 -6746 0
-8648 1447 0
-1179 -9789 0
326 -2417 0
-8480 8193 0
-199 9660 0
-11199 -8840 0
3626 -2573 0
-954 -12365 0
10860 3325 0
1854 -1448 0
6195 -2880 0
-5223 -9418 0
6257 61 0
-12349 4391 0
6428 8016 0
7997 -7317 0
11758 5408 0
7269 507 0
-8086 2750 0
11252 -2194 0
-10889 -8919 0
9003 -12283 0
-4484 8657 0
-3313 -9786 0
11105 2575 0
10690 -5800 0
10459 -5374 0
4784 -8006 0
-9559 10111 0
-7924 -9707 0
-8383 -1485 0
-6422 -3655 0
11683 -3956 0
3012 -12031 0
9003 -6499 0
10592 -711 0
4263 1301 0
4411 -631 0
-12313 625 0
4236 9451 0
-3393 -11988 0
7226 10868 0
-8750 -11466 0
5731 -5663 0
5463 6951 0
-10990 5650 0
405 8381 0
2929 5738 0
5057 6186 0
2259 1013 0
690 -7867 0
-9801 5153 0
-5502 -9713 0
-10394 -1473 0
-6831 5084 0
-8895 -5157 0
2998 501 0
2927 -3807 0
-3694 -1881 0
3586 1455 0
3713 -5546 0
-1743 4025 0
7418 -381 0
-1667 1452 0
2838 7258 0
12381 -3500 0
497 6489 0
-32 4457 0
-9072 -8996 0
-6317 7803 0
10378 10218 0
1836 -2228 0
3466 8441 0
11716 6323 0
-12041 -11678 0
8211 -10109 0
12047 -8177 0
9174 7512 0
-4978 -3116 0
-5436 -8467 0
3643 -3951 0
-2776 -1380 0
-3033 2701 0
570 -3408 0
831 -11017 0
6481 -1986 0
2757 8387 0
7606 9364 0
-10631 -2044 0
-10356 -4381 0
-10045 4303 0
-4962 -8248 0
-1880 -2452 0
-11885 -11167 0
-11149 6656 0
-11381 328 0
-6144 -3773 0
-8012 816 0
6180 -827 0
-3877 -954 0
8661 1635 0
-3156 -6525 0
6041 946 0
682 11171 0
-11577 -1683 0
-1762 8562 0
-12402 -8461 0
7102 -7519 0
-10997 -10540 0
-997 5768 0
3927 11909 0
4893 -1711 0
12444 5899 0
2946 -9708 0
8684 1114 0
-9425 9467 0
9543 5751 0
-6467 8753 0
5516 3304 0
6530 6795 0
-11302 4211 0
-12199 -10153 0
-6017 5891 0
1144 9756 0
-4507 -10836 0
-2566 7688 0
7358 5966 0
-5171 -619 0
8163 10429 0
9294 -4715 0
9373 11491 0
-11760 -8428 0
225 -10637 0
6094 -10772 0
1380 3705 0
-6261 -9872 0
-8744 5438 0
-7639 10083 0
-4766 -10990 0
-3461 -7783 0
10627 -12131 0
-7041 -12317 0
6454 -6169 0
-4589 1940 0
3539 3038 0
-6724 11112 0
-8019 11529 0
322 -2895 0
4166 -10471 0
-10989 5363 0
3545 1607 0
1815 12155 0
3397 7199 0
-12415 8223 0
9723 -7944 0
12441 7284 0
-9145 -6954 0
-6357 5650 0
-8766 -7584 0
7878 -10437 0
-5319 -10750 0
687 12330 0
-11684 7462 0
4697 11008 0
7989 8159 0
-7718 2599 0
7174 -9692 0
-3449 2379 0
8950 -12108 0
-4890 -4542 0
1603 11457 0
2408 -4560 0
7994 -8484 0
6579 -1531 0
9266 11111 0
10386 -3648 0
-4108 5777 0
-11328 -10029 0
-1326 3478 0
643 5646 0
-7696 -3269 0
10385 -3653 0
1467 6824 0
-4307 -6465 0
-10460 8041 0
11869 4575 0
9616 -9067 0
2945 5460 0
-11377 -7452 0
-664 -4810 0
5305 2274 0
-1452 8257 0
6917 10483 0
-10293 -11519 0
-7755 7480 0
12160 3108 0
-6192 10751 0
6835 -9293 0
-7427 -779 0
2752 9576 0
9722 -2758 0
-3676 8920 0
3062 3939 0
-11405 12082 0
-7028 -4418 0
3118 8572 0
3729 4868 0
-3716 12247 0
-9145 5117 0
3827 4999 0
-10609 7761 0
-6472 9518 0
-10264 3762 0
1739 11012 0
-9177 -1683 0
-5495 2652 0
-5815 16 0
4542 9625 0
-1767 8209 0
8961 933 0
7007 -10054 0
9647 8442 0
-4651 10027 0
-10803 -8968 0
2146 -7589 0
-8680 -7286 0
4318 -5182 0
-12407 -9051 0
-2091 -4095 0
10620 5574 0
10081 -3575 0
-8859 -663 0
12081 7311 0
-6629 2879 0
11125 4155 0
-2325 12106 0
4123 6197 0
12352 9705 0
10430 8831 0
3041 -8247 0
9835 -11835 0
-934 -10354 0
2515 -7041 0
-3115 7123 0
-8378 -10620 0
8378 7748 0
-10322 2267 0
3546 3874 0
9683 -2685 0
-276 7466 0
1946 -6025 0
-8591 -11507 0
-2508 5651 0
2194 6657 0
2302 5956 0
-11741 11796 0
-6368 5164 0
-9077 -222 0
9540 1917 0
-1258 -282 0
-4514 515 0
1248 1459 0
101 -1029 0
9724 -5831 0
-420 8131 0
-4582 930 0
-9797 2706 0
-4974 -11064 0
-766 -3990 0
-2697 10587 0
2195 7396 0
-2306 4169 0
-10930 10883 0
11493 -6843 0
5981 -12437 0
2049 -4711 0
4732 2906 0
-6245 -4693 0
-5651 7273 0
10910 8955 0
-10295 -5949 0
-3018 5274 0
-1179 -986 0
6568 5882 0
-8662 -5734 0
-2113 7859 0
-10823 3791 0
9596 10244 0
-4642 -8043 0
-2889 10469 0
-9635 -5283 0
5369 -8272 0
6817 -2980 0
3381 918 0
-9710 -1372 0
-4752 -12050 0
-8297 12097 0
-11876 -10088 0
-12069 -8864 0
1636 2506 0
11602 11676 0
-7079 -9453 0
9595 8876 0
682 910 0
8076 2657 0
1936 7893 0
356 -9132 0
8218 -11220 0
-4347 12000 0
-9020 6965 0
-1092 -130 0
-8192 -2429 0
2631 -11815 0
7751 -9654 0
12355 -2320 0
-2881 -4659 0
1185 -2971 0
-11481 -9323 0
3274 9515 0
-9065 -9326 0
8737 -2987 0
-3375 -7123 0
-2106 -2360 0
10217 5283 0
-3732 5914 0
-11845 -531 0
554 4078 0
3892 -5356 0
-2992 5898 0
-2330 4111 0
-6163 1621 0
-1571 -11608 0
-6660 -9427 0
-3468 -11014 0
-11960 9833 0
3279 5182 0
-10665 -481 0
6471 7849 0
8907 -10364 0
-6374 -3480 0
7947 -6309 0
7566 10031 0
4913 315 0
7732 10452 0
11682 -9970 0
-520 -9893 0
-2329 6423 0
-11479 -5870 0
-76 -5383 0
4593 5966 0
-4013 6857 0
3588 3893 0
-3765 -237 0
-11290 10811 0
3012 -12215 0
-10971 -12100 0
4753 9664 0
7885 2893 0
-1780 -9645 0
-5910 -10686 0
-11743 6362 0
4808 8300 0
10822 757 0
5192 -294 0
9222 11957 0
644 145 0
447 -5105 0
9832 -1916 0
-7690 -1073 0
-1155 9192 0
11048 12096 0
-253 5033 0
9592 7485 0
10185 -2049 0
5890 2160 0
-2926 -9939 0
-12184 144 0
9825 1349 0
-1305 -7036 0
1497 -2811 0
-657 166 0
10085 1791 0
5612 7648 0
10147 8038 0
-8686 -3327 0
1906 587 0
7159 4452 0
-5910 678 0
7577 11682 0
6423 -2692 0
9448 -8455 0
267 -975 0
1484 -10716 0
2801 -3604 0
-10590 10234 0
4460 -11113 0
-5924 2953 0
5516 6086 0
3048 10004 0
-12170 12347 0
-7221 2561 0
-9229 3568 0
-9857 -7693 0
9611 9819 0
4994 -5635 0
-3248 -2324 0
10421 12447 0
788 -8025 0
6700 8928 0
3999 4935 0
1483 10970 0
10940 -6960 0
-208 1975 0
3225 -9333 0
-5195 1576 0
11917 7313 0
-1879 -9679 0
-4413 645 0
3354 2829 0
9870 -447 0
44 2461 0
2717 -309 0
11407 1930 0
2269 -10440 0
-2223 2117 0
2212 1797 0
11053 9464 0
4939 9587 0
-7862 6443 0
5020 -2313 0
-7254 7524 0
-5334 -7716 0
-6853 12123 0
944 -2800 0
-9137 5848 0
-5352 4672 0
-9141 7752 0
-5731 -7113 0
941 3180 0
1362 -334 0
3410 -7237 0
11957 2038 0
-8822 6142 0
6652 -1403 0
-10972 3555 0
6519 -7623 0
5150 6352 0
-7680 -12443 0
-5971 6420 0
-6731 -9263 0
6329 -9458 0
-12298 -11613 0
11343 -7664 0
8754 6709 0
-5129 -1033 0
9593 -11466 0
902 -12464 0
11442 -148 0
7759 -7838 0
-970 2920 0
-4426 7863 0
-1932 9588 0
-3050 8913 0
-6208 -4568 0
-1651 -9329 0
1366 -3641 0
11284 1599 0
-2223 7767 0
-8419 -3837 0
-2741 9338 0
4994 3977 0
-4201 -399 0
-2980 8306 0
-1766 6564 0
-3844 -8473 0
10309 3881 0
-3580 -10028 0
-6593 -6214 0
11933 9085 0
-10037 -8635 0
-9500 -6713 0
4478 -7969 0
1749 -5308 0
-6761 -12039 0
2137 -10185 0
-9665 1167 0
-8915 3939 0
11863 12103 0
-8469 -6781 0
-5244 3945 0
6568 9662 0
-3863 3855 0
3375 -10669 0
-2741 958 0
-11588 -1497 0
-5898 -6661 0
11539 -10009 0
7541 -6734 0
7278 -7795 0
8834 -1667 0
-4105 -2788 0
3127 12052 0
8216 -9024 0
812 3650 0
6633 -12458 0
-3307 9576 0
-11273 1796 0
2486 -11395 0
-5365 8199 0
-8659 -11983 0
475 5582 0
-5563 4366 0
-994 2970 0
-12050 6791 0
-1764 6757 0
-703 3924 0
5903 -2288 0
-1786 1562 0
9510 3946 0
-8069 5360 0
-4058 -7002 0
5149 -6774 0
-3597 -7705 0
-3686 8053 0
-10247 1926 0
-3172 -4119 0
-5693 11589 0
-5909 -9073 0
10799 -9050 0
3393 -11548 0
-8991 5401 0
7925 6808 0
-3308 9070 0
1047 4278 0
-5282 -2687 0
-8354 4854 0
12387 -5800 0
-2323 -7387 0
2457 -10186 0
-11650 2462 0
-10955 462 0
-7747 -7938 0
-4682 6599 0
11936 -1238 0
-2195 8739 0
-12081 1363 0
-11919 8036 0
-10124 -5455 0
9067 -5014 0
-7039 2829 0
2981 11816 0
-5191 -5707 0
-12048 1455 0
9158 8104 0
5988 6203 0
8663 9358 0
-7608 438 0
-2741 2459 0
-146 -4742 0
9738 5584 0
11109 2809 0
-474 -1608 0
2556 -1381 0
681 5071 0
1842 -1962 0
-6140 -5883 0
10999 -2765 0
-2803 11906 0
651 -4969 0
4935 -10364 0
-7967 -4886 0
11509 10221 0
10257 11865 0
4635 440 0
5193 7266 0
5527 -9373 0
-160 -1403 0
-9688 7062 0
5431 4769 0
-3201 9214 0
10850 -10626 0
-8583 -1171 0
9874 5237 0
-11331 11291 0
1969 -12418 0
7058 -2435 0
9605 7476 0
957 3466 0
-3584 12130 0
-10018 3114 0
11622 1719 0
9300 1421 0
1950 8523 0
-8075 7345 0
1769 -11217 0
-5297 -4026 0
1257 2364 0
9046 -1269 0
-11565 -9545 0
418 32 0
8314 10779 0
-1007 2710 0
1079 -12298 0
-359 6689 0
-5802 8087 0
715 9382 0
7741 11000 0
-10956 -11792 0
-6388 -671 0
5002 -10877 0
-12400 4309 0
-9022 -3002 0
7043 5528 0
-3857 -6655 0
-8281 11113 0
6160 -5826 0
9411 5616 0
-7009 -386 0
5446 7365 0
-6449 2246 0
-8646 -6699 0
-10252 -1262 0
-8049 -6276 0
-10515 -10468 0
3172 -11956 0
5552 10229 0
-9970 -7104 0
-6468 -10548 0
-5200 8998 0
-10935 -11070 0
12059 -7915 0
-6518 1770 0
9919 -7055 0
-5551 944 0
311 -1918 0
11348 -11178 0
1083 -4075 0
-6049 -9904 0
4580 -2541 0
10490 5834 0
1277 2095 0
11190 -4938 0
3601 3903 0
10301 5116 0
-699 -3615 0
10848 -447 0
-4059 -7243 0
4052 11405 0
-10462 3558 0
11565 12133 0
2088 9538 0
5514 -8459 0
-9324 -3068 0
10086 -4847 0
2219 -12227 0
-25 1980 0
8766 3225 0
632 -11890 0
10582 4055 0
11914 -8884 0
5836 -10349 0
-4356 11837 0
-3375 -5763 0
5527 6687 0
-6450 -7946 0
-9482 8781 0
-9844 -8690 0
-242 -13 0
10034 2739 0
-7946 -7225 0
-4182 -7785 0
11099 4998 0
-2211 -906 0
8515 -4348 0
3218 -5600 0
-866 10121 0
9346 -10152 0
3382 2239 0
10500 405 0
-1007 -316 0
8248 -2140 0
11875 -1 0
-6320 -3436 0
-6793 -1942 0
-5685 2805 0
-6154 -9063 0
7784 11501 0
4436 -11787 0
-49 -10651 0
256 6046 0
10855 8184 0
3388 -7340 0
-2539 -12391 0
-5391 7705 0
404 8711 0
-8293 -2025 0
-7124 155 0
5266 -8663 0
9385 8111 0
1821 8499 0
856 -7511 0
-4248 -12234 0
11489 -3238 0
-6779 7776 0
-5908 -4346 0
-4867 -6648 0
-10553 -3498 0
-11574 11911 0
1566 -2642 0
-9924 1153 0
-7860 5378 0
9226 -11373 0
-400 1877 0
9373 -4861 0
-6902 -1949 0
-8609 -2106 0
8355 4473 0
12392 -2015 0
1614 4532 0
-6510 9531 0
-9855 11370 0
-7716 3522 0
-2887 -1732 0
-10991 164 0
-10219 1663 0
-10653 -1490 0
2993 -1155 0
-10025 -10004 0
-12281 7550 0
-3371 -1323 0
3836 -2822 0
-607 -9407 0
8224 11935 0
-3343 -9392 0
-11698 5550 0
-1873 6419 0
11536 -1282 0
344 -9279 0
553 -224 0
8778 -2052 0
-8128 -5416 0
6466 11785 0
-1145 3169 0
1622 9774 0
7852 11103 0
2147 -1093 0
7056 -10686 0
-3164 -8059 0
-6545 -677 0
9452 3338 0
-3813 4436 0
980 9991 0
11430 10027 0
-9552 3725 0
-2407 11265 0
5895 7163 0
508 -5271 0
-3961 -6618 0
12204 -9367 0
-6415 10851 0
4963 -10458 0
-7229 9313 0
-4321 -8713 0
-4246 -7133 0
-7958 6915 0
-1917 -11066 0
11157 -11118 0
-5276 -98 0
7577 -4362 0
-2043 2246 0
-4642 3402 0
-8966 8176 0
-4407 3997 0
1657 5785 0
-5376 177 0
10930 10757 0
-10471 -9902 0
-2460 6216 0
5587 11146 0
-11509 -1160 0
-11617 -3184 0
4522 -1415 0
8219 8984 0
11255 -1949 0
3004 286 0
3274 -8571 0
11773 -1510 0
-666 1034 0
5377 6830 0
1763 8272 0
-7072 11671 0
-5371 -3542 0
8435 -5410 0
-2764 10766 0
-8948 11217 0
11817 -10596 0
-4929 627 0
5083 -9618 0
7841 2698 0
-9982 -461 0
-12228 9210 0
-1089 -10900 0
-417 -3388 0
-11069 6798 0
10928 -2774 0
-9465 -11812 0
-10950 4680 0
-405 -1352 0
4184 -3894 0
1196 2875 0
9785 5834 0
-667 -7407 0
4814 -5480 0
3076 5848 0
4512 -7126 0
7418 -3927 0
7709 -258 0
2903 -5181 0
-9717 -11453 0
5198 -8725 0
4955 2368 0
118 9576 0
-9094 8555 0
-8235 8780 0
-8299 -10022 0
11173 -8707 0
-1546 -12148 0
-4275 -3497 0
11472 4831 0
-826 -10540 0
8057 -11140 0
-11282 -5077 0
1959 -10997 0
-3832 2248 0
-9930 -9985 0
10938 -779 0
-9814 -7981 0
-2015 10998 0
-4414 5720 0
11536 -4173 0
-6123 1383 0
10953 9399 0
1442 -3754 0
-6275 -8135 0
-3510 3567 0
185 -3475 0
-3343 -3814 0
9230 -4765 0
4575 -867 0
7608 9921 0
-6668 1819 0
-4092 -236 0
-12288 6296 0
41 -5028 0
-4767 3965 0
169 -2901 0
8916 -903 0
6665 6298 0
-5165 9921 0
-7433 -4268 0
-4324 -4979 0
-1026 118 0
-5077 12324 0
3682 -11752 0
12215 10221 0
-658 2078 0
-8183 2363 0
-7329 10870 0
-4017 9062 0
10774 -3088 0
-10020 3662 0
3099 1851 0
-1198 2171 0
12351 2321 0
-249 -4389 0
3587 10601 0
6673 -11585 0
6453 12117 0
11168 6650 0
2437 4147 0
-9711 -9008 0
10774 -7229 0
2884 8826 0
3253 9858 0
11069 8280 0
-10926 977 0
-11543 681 0
1473 -7547 0
-3441 -11963 0
-10500 662 0
8568 7238 0
1323 3667 0
9578 -10334 0
-5240 -4804 0
-2997 7475 0
-4236 6565 0
-6121 -3788 0
6030 6143 0
-6045 1148 0
-4771 -10681 0
6139 -3424 0
7152 -2008 0
7418 -12006 0
1976 7799 0
1386 -8207 0
7555 -57 0
-4679 7512 0
12151 3679 0
6400 7931 0
2443 -3500 0
-5837 7151 0
4448 6949 0
603 8328 0
-11417 4908 0
2481 12285 0
-4273 11409 0
-9231 -8078 0
-9075 9472 0
6482 -4288 0
-2575 -12108 0
-11808 11712 0
3414 -3271 0
6543 -1718 0
-10844 7940 0
-12206 8558 0
4112 11818 0
-1126 -285 0
3167 6898 0
-3812 -1856 0
8197 5142 0
11382 1969 0
10266 9127 0
3832 3666 0
11682 -1970 0
10367 -11257 0
-10616 -10937 0
-2461 2946 0
12121 8150 0
7452 4719 0
-10364 -9856 0
8143 8819 0
1263 -3749 0
12352 6669 0
6307 154 0
-7447 8038 0
-3699 -8161 0
12126 2913 0
-7438 8034 0
5245 -5113 0
-8838 7844 0
-8069 6139 0
6896 -6509 0
-9974 -4314 0
11056 -4493 0
-12446 10272 0
-3823 -159 0
-5812 -2916 0
11819 2560 0
10835 6126 0
-5667 1018 0
-11986 -6544 0
-6704 -6064 0
-1091 -10300 0
-5747 -4954 0
-875 -8470 0
-3191 4496 0
2616 -4216 0
4476 12000 0
-4034 -4225 0
-4859 2286 0
3026 4514 0
-9706 8638 0
9188 6871 0
7610 -7618 0
-284 11246 0
3703 -2455 0
-4566 -8581 0
2603 -2932 0
-134 -9344 0
-198 -5824 0
-9225 3641 0
-11377 -5278 0
-2327 -3493 0
4597 3092 0
-9780 -8400 0
-1487 1856 0
-3263 -10841 0
6829 -10021 0
12323 -11288 0
-1393 -450 0
-9148 -6316 0
1519 10563 0
-11625 -1502 0
2251 4974 0
-1889 -7286 0
-58 7056 0
-11623 -6096 0
3568 -4257 0
-8405 8395 0
8079 9256 0
485 4560 0
4585 -11189 0
-163 -5671 0
-2102 8180 0
2143 -3625 0
-9949 3495 0
-11508 5165 0
4555 -3374 0
2802 4280 0
-4968 -4655 0
3635 -9045 0
8307 -11687 0
451 10081 0
-7431 -8493 0
6613 -10906 0
8977 947 0
11447 -11427 0
-1916 -8642 0
6482 -9429 0
-1612 -5376 0
549 7982 0
7903 9856 0
-2965 7360 0
-5710 -12038 0
8774 -1809 0
3247 3267 0
155 8504 0
-1081 -5187 0
-11167 9089 0
7611 1371 0
1039 6058 0
-902 -5736 0
7528 2979 0
-6026 -6534 0
-3840 -3837 0
-8299 4231 0
-5065 1968 0
11961 10757 0
-2039 11886 0
4460 -5061 0
-11788 11012 0
1569 -697 0
-1880 -673 0
-6296 -9486 0
8630 -5442 0
554 -3441 0
8357 -7909 0
1649 -637 0
-2617 6717 0
-10617 3727 0
-2200 -5093 0
-4633 -4965 0
1080 3911 0
-505 9834 0
161 -4849 0
-923 -2905 0
2791 10580 0
8520 7137 0
10022 -6538 0
11826 2388 0
11247 339 0
-7828 1240 0
10863 -10858 0
962 8562 0
-6762 2232 0
-11036 1660 0
-3688 -976 0
-6442 11190 0
-7517 3377 0
2857 -1241 0
8550 -436 0
6273 -887 0
11002 -46 0
3039 -4456 0
-3428 -11523 0
-4613 -5096 0
1558 -1951 0
4692 5620 0
-6882 -2397 0
3917 412 0
8009 -2619 0
-7130 -170 0
4728 -3336 0
6113 1881 0
5408 4815 0
4338 -3889 0
4170 -10481 0
-6609 5680 0
-10131 5990 0
11755 3261 0
-1927 2527 0
12271 -11731 0
-802 -12143 0
12226 5749 0
7638 7044 0
-8567 9588 0
11050 -1109 0
5250 6964 0
339 4403 0
-4763 -2351 0
6879 833 0
10189 -3812 0
10547 9373 0
-9293 2835 0
8054 8062 0
-334 -3664 0
5427 476 0
-5838 864 0
1910 5998 0
-6182 -9828 0
3998 3177 0
-3234 -4546 0
-7951 7705 0
7307 1865 0
-10142 11961 0
-1757 3507 0
-8045 11293 0
6970 9833 0
-6988 1064 0
2251 -6830 0
10690 -7796 0
6730 -9694 0
-7626 -1274 0
-11194 -9067 0
1226 10640 0
-4619 -4458 0
6366 2083 0
10069 2789 0
1607 9608 0
-10685 2058 0
-9340 -11626 0
-10889 -8899 0
11777 3147 0
2520 5407 0
-473 -5946 0
-5394 -4676 0
-7791 -7857 0
8804 7601 0
7772 -11378 0
-7633 4210 0
7186 10587 0
-200 -5685 0
-8986 -204 0
7258 -6841 0
-6901 -3448 0
-2808 8670 0
-400 5041 0
-10422 -2012 0
-2757 -2206 0
12375 8734 0
2173 8933 0
-9893 945 0
2209 -1933 0
11536 7842 0
4114 1559 0
-12283 8469 0
11146 -11773 0
-1282 -952 0
9376 -9113 0
-11277 -12162 0
-2524 -4934 0
-867 -3675 0
-10595 -3843 0
-4387 -767 0
1015 3505 0
10938 -11701 0
-9226 -8235 0
159 -9563 0
-3419 -7311 0
3954 -2784 0
7740 16 0
-7425 -9010 0
10277 -9025 0
-9584 4011 0
9071 620 0
1162 10385 0
-6013 10143 0
-3562 -11531 0
-6590 10862 0
-1732 10234 0
-9698 -8829 0
-3940 4043 0
9743 -6642 0
1319 11698 0
-10914 -2458 0
-4114 2426 0
10608 10116 0
-2588 6631 0
-10279 -5311 0
-3744 -5236 0
-3709 8769 0
-7572 8752 0
1637 -1030 0
-1759 1118 0
-3754 -991 0
648 2110 0
-10332 -12090 0
-6284 12344 0
-6512 5653 0
9395 -2801 0
-6534 11658 0
3355 4825 0
2960 2417 0
11021 -1825 0
2078 5157 0
8053 -8288 0
86 -10971 0
4784 7391 0
6996 7772 0
-881 5270 0
1305 1838 0
-10063 7474 0
-7921 -10975 0
6416 804 0
-62 1673 0
1060 8771 0
-2098 -230 0
-7847 -3115 0
1325 -8012 0
10467 275 0
-5581 10094 0
5645 6133 0
-3270 -11917 0
2440 -5599 0
6156 -6069 0
10487 1247 0
10381 -7763 0
3293 -2826 0
334 -523 0
10455 -4522 0
4399 -714 0
-4602 -4148 0
8328 -10764 0
7598 11658 0
-2046 -4615 0
9496 -11411 0
-8134 11733 0
-4383 11426 0
8695 10287 0
5493 8612 0
-61 -1570 0
3967 401 0
254 -9737 0
1525 -3241 0
-9315 7771 0
-9696 -10569 0
5994 -711 0
-9055 7569 0
-8547 -3132 0
6848 10972 0
-79 -761 0
-10934 -7969 0
6429 -12380 0
10843 7730 0
7680 10608 0
10065 -10324 0
1568 6214 0
8133 2071 0
-4655 -9430 0
4431 -1633 0
2674 -8198 0
-9225 -4343 0
362 -4209 0
-11715 6282 0
-10951 -5087 0
-11375 -4642 0
12342 6565 0
-10994 -4160 0
-874 -7904 0
-4886 -1576 0
-8127 4485 0
1844 -862 0
-8182 4951 0
-6688 -373 0
-9890 -3248 0
-4765 7863 0
3507 -9150 0
-909 -8871 0
-2612 -5539 0
10746 11705 0
632 -2885 0
3357 -162 0
-6543 8973 0
-8454 9995 0
-5193 4134 0
-10442 12151 0
-1563 -1207 0
2584 -10093 0
-6987 2610 0
-641 4596 0
-7815 1741 0
-1084 -8485 0
-10319 645 0
4453 7138 0
7786 9757 0
7272 12081 0
10144 1915 0
-3736 -9088 0
5401 -4508 0
-6274 -2003 0
-9156 11934 0
2957 8305 0
-3264 -7519 0
-5033 -3420 0
4316 5463 0
-1195 11199 0
-6640 -3833 0
-11015 2673 0
-7938 -6340 0
-6248 9568 0
-933 11616 0
-5032 -7806 0
1269 -10989 0
5899 -2390 0
10035 1368 0
-9328 -6252 0
-4100 4156 0
-1545 2123 0
-10212 2978 0
-3404 5079 0
5667 -10686 0
-733 -1897 0
2761 -3359 0
-2486 7142 0
11454 -6739 0
-5393 -2070 0
6682 4858 0
8466 -1156 0
-6248 -11563 0
-12390 7774 0
11444 841 0
536 6509 0
-4440 -9027 0
-6168 10146 0
-436 -11693 0
-5567 10986 0
-3221 -10133 0
11749 9429 0
12262 4725 0
4522 11674 0
9474 12291 0
10435 11541 0
4812 4253 0
6625 -138 0
1232 7217 0
-8824 -10147 0
9864 -9468 0
12265 -4582 0
-9084 -618 0
-11071 -8968 0
-1451 -4085 0
11281 12190 0
1291 9000 0
4814 -3576 0
33 -3262 0
-8417 9052 0
8912 3854 0
4284 -10557 0
-4566 -7531 0
6631 -7198 0
9870 -2127 0
-2183 -1852 0
2095 -131 0
5425 3721 0
-8269 -2289 0
-10356 -12209 0
-717 -1690 0
-4970 11245 0
4447 5380 0
9753 524 0
7289 -10053 0
-11773 -8309 0
10589 221 0
12446 10747 0
10362 7723 0
8133 10541 0
4752 -11081 0
-5101 -4840 0
-8442 4996 0
10908 -1388 0
-1487 -9304 0
6848 2586 0
-10197 -7920 0
-11892 -6514 0
-14 -8627 0
11882 5823 0
-3628 5395 0
4998 -8361 0
-7851 9405 0
8439 8449 0
11077 -3811 0
-313 -4105 0
-11648 391 0
-281 -8588 0
-6976 -12036 0
-7783 4759 0
8422 47 0
-8282 9223 0
12417 9325 0
9724 11763 0
6670 -2728 0
-1940 -2337 0
-9723 8764 0
-5615 -12339 0
2210 -7926 0
5169 -10607 0
-4321 7079 0
-1706 997 0
-9546 -3802 0
-5877 7070 0
-7616 2956 0
468 -11853 0
311 2740 0
-6425 -2118 0
-965 10265 0
-8385 -11723 0
7143 -3942 0
5996 -6028 0
-10938 411 0
-4034 -6065 0
-9347 -11691 0
3794 3265 0
-6539 -8638 0
11619 8670 0
-3644 -7958 0
-4686 10359 0
12355 -7004 0
3548 -2867 0
-1171 -612 0
8519 -11154 0
-11279 -4023 0
-5630 12118 0
10381 -9661 0
-3983 -9414 0
-12332 -9234 0
-7480 -11670 0
2442 -1880 0
5527 -6905 0
-6198 -7738 0
9343 10807 0
-4936 11023 0
2614 -8420 0
5699 -6717 0
-2636 -12056 0
2454 -5756 0
5796 8317 0
12313 5503 0
923 -911 0
-6024 -1158 0
2430 11301 0
9296 6050 0
-12146 1561 0
750 -4551 0
3277 11461 0
5625 2621 0
6298 -943 0
-6554 -1806 0
-12161 -2868 0
4871 9194 0
-7226 -686 0
-10530 10905 0
-6586 3836 0
4975 2021 0
10298 1280 0
3445 -8026 0
4409 -11992 0
1317 4546 0
-4319 -11463 0
9614 3833 0
-9343 10721 0
4334 -8564 0
-2106 4222 0
5194 -10929 0
12155 -2088 0
-3313 -9050 0
-8062 -5124 0
-10526 -8852 0
1058 8924 0
4098 8594 0
-4494 -8703 0
4969 547 0
-9832 -2985 0
-970 -8759 0
-9429 -9530 0
-8544 4451 0
-6710 -6001 0
12241 6786 0
8492 -9829 0
2787 5885 0
10966 747 0
-12145 -5268 0
8789 -1751 0
-11862 12313 0
-11594 -7783 0
-3713 6674 0
630 1163 0
4845 6300 0
10664 -5989 0
11979 -3067 0
-3985 8937 0
9809 -10115 0
-577 5885 0
10056 10362 0
5562 -6880 0
9477 -6938 0
-6561 7573 0
-2001 761 0
8021 -10353 0
-1086 -8946 0
-4987 2495 0
-8367 -10376 0
-6313 -9392 0
4334 -5537 0
-6479 -3310 0
9270 5720 0
-2678 6154 0
-8687 3972 0
-11622 -274 0
-1856 -5995 0
-12463 2798 0
12449 5100 0
4798 -966 0
11932 -1113 0
-1760 8117 0
-7247 -11678 0
12400 1902 0
-2111 -9452 0
10313 9518 0
3730 8746 0
9229 11357 0
11395 -6589 0
-2133 -7475 0
-5311 -1710 0
-7705 -4737 0
712 288 0
7590 -1451 0
-1084 9683 0
10653 4812 0
-5403 6188 0
8316 11959 0
-10854 -7830 0
-10512 8283 0
1840 -6943 0
2164 6903 0
3724 10829 0
9348 700 0
4016 -5568 0
-702 5427 0
-4208 -11152 0
-7586 1128 0
-10525 6213 0
11954 -4420 0
6506 3149 0
7348 1128 0
6768 -1849 0
-5597 7937 0
-4593 5369 0
-1810 5942 0
9800 -6609 0
7576 7301 0
11525 -4045 0
176 227 0
-5952 11140 0
2625 1913 0
-11951 -5216 0
10257 -3802 0
2198 8645 0
-7483 -3541 0
2622 -4298 0
-8904 -12068 0
-10538 4879 0
12450 3619 0
9524 -11130 0
4517 6974 0
-6325 -5026 0
-5336 8202 0
7948 8245 0
9322 -1748 0
-12114 -3747 0
10608 -8298 0
-9340 11542 0
6857 -6358 0
-499 -2250 0
835 265 0
-4026 -3372 0
-11766 20 0
7446 -8492 0
-2564 4866 0
-7251 -5396 0
-3089 -11396 0
-9786 -9163 0
-3657 -3811 0
-5700 9779 0
-12161 934 0
4060 -8019 0
141 7240 0
-1138 -7386 0
5695 -7007 0
5553 2503 0
9299 -12025 0
-7414 4712 0
-11098 4538 0
-7695 11894 0
-361 -1047 0
-1657 7540 0
5037 -4172 0
-6697 4797 0
6287 1329 0
7849 -3282 0
6803 -288 0
5575 -5541 0
-4670 -7968 0
371 7706 0
-2497 -7010 0
-3845 -449 0
1644 -1479 0
8520 -9053 0
8424 -4131 0
4169 -2921 0
-11444 -1065 0
6380 -10918 0
-3927 -143 0
-7132 -826 0
-7049 -2446 0
-8846 -12387 0
10856 -4757 0
-5167 -9444 0
-2609 7613 0
3762 295 0
-10045 -9017 0
-8700 -7401 0
-1311 942 0
4605 -3502 0
-7551 8097 0
-2279 4752 0
-3346 3888 0
4892 -8676 0
6079 5002 0
1920 -1645 0
-6370 6763 0
-7444 8222 0
-3574 -3905 0
-8797 -8195 0
-10563 -8994 0
8932 10094 0
2246 -3635 0
-7282 -9591 0
6935 7018 0
-4276 8302 0
-6938 -11650 0
-7845 -1775 0
7635 -10193 0
-2050 982 0
-11880 2826 0
9658 -11889 0
6561 5446 0
-1694 2215 0
10028 11988 0
-8318 -6276 0
710 1005 0
-608 -3262 0
-2914 -1175 0
-5831 -4078 0
8556 -11239 0
-6483 -4582 0
9612 -11378 0
-685 -2770 0
-6818 -6136 0
8605 -7958 0
12150 -2890 0
-653 3188 0
-363 10640 0
50 5887 0
7743 -7794 0
8346 -9290 0
8827 -8733 0
252 -1078 0
-7774 -3822 0
6520 -9874 0
7183 1260 0
4220 -9030 0
-1224 11979 0
323 -5692 0
-3917 -1376 0
-10710 -10818 0
-6064 8080 0
-8733 -4442 0
-10238 -11277 0
5446 3923 0
3715 3120 0
9448 3540 0
7580 -3308 0
8952 -11734 0
10541 -792 0
7600 2962 0
2483 7067 0
-7180 -4636 0
5364 6229 0
7457 7879 0
8599 -9290 0
5421 -8800 0
-9145 -7403 0
-12357 -2437 0
-2170 -11725 0
-8237 2313 0
-10505 -7926 0
8712 -7482 0
10236 -2545 0
-7001 11314 0
-3615 -1145 0
10465 -10103 0
3062 -9662 0
12280 -3010 0
-9944 -5854 0
10658 6117 0
-9095 -3239 0
6998 11288 0
7212 -3994 0
1044 5354 0
-3135 -735 0
-3359 -7347 0
-9269 -12168 0
-5280 -518 0
7325 583 0
-7239 11749 0
99 -1784 0
3249 7019 0
-8365 9352 0
-6618 10667 0
9515 -3914 0
-7631 9997 0
-11279 604 0
11349 -315 0
788 9490 0
7288 3171 0
1350 -6557 0
8708 -8714 0
3938 -190 0
-8957 11223 0
9435 -8881 0
3973 11465 0
379 791 0
-6268 10673 0
7034 -4440 0
4817 -49 0
-10355 -10946 0
-551 -10917 0
6892 5927 0
-7503 12269 0
3285 -3490 0
-11561 -2569 0
7926 -12255 0
-2382 -7734 0
9762 7892 0
10977 4094 0
10594 2347 0
-4721 9657 0
587 -8250 0
-10144 -7733 0
6053 8644 0
-6092 11777 0
-377 -8624 0
-8033 -11585 0
7613 -10162 0
-11832 6000 0
10152 -4829 0
-4377 -3570 0
-2587 2759 0
10111 9438 0
-10892 -7930 0
-12404 857 0
-3355 -2711 0
-1274 12462 0
-1376 -2572 0
11813 -200 0
5145 12311 0
-3606 6696 0
11585 -869 0
-730 -10502 0
-1540 -3086 0
8359 -1905 0
8462 5437 0
-10388 12437 0
-11199 -2233 0
-3612 -10462 0
11609 -1835 0
-3177 3071 0
3047 10973 0
3386 5377 0
-5056 -7106 0
1261 -9553 0
-8447 10241 0
4447 9 0
-4130 9714 0
7051 10231 0
-3645 10211 0
805 11494 0
3556 8602 0
-11392 8247 0
4518 -8815 0
-10748 6563 0
-11083 -512 0
3258 598 0
-3170 -3289 0
-3816 -4226 0
-9060 -5628 0
9437 -6990 0
-1595 -562 0
11603 -8426 0
-8957 130 0
4922 -7824 0
7029 11652 0
-8279 5255 0
-2039 3593 0
-5756 7346 0
-4966 8248 0
-5127 -3851 0
4230 -3989 0
-8384 2838 0
-9799 -6801 0
-11823 -3340 0
-6031 -473 0
7457 2813 0
-7244 620 0
-11440 -10845 0
-1503 -4846 0
12414 -8093 0
-11172 -3657 0
3838 -7894 0
8616 7883 0
1363 9491 0
-312 -5952 0
4360 3260 0
11430 -11789 0
5830 180 0
-12285 -9699 0
-3001 -11668 0
-9318 -7314 0
11061 5921 0
5843 -1617 0
6856 -5268 0
-12020 644 0
-2567 4433 0
5100 9790 0
11072 6371 0
-8816 3480 0
-3256 -9869 0
7629 11327 0
5004 -9468 0
9748 -4306 0
-794 8681 0
2040 8266 0
10808 -479 0
-5631 -3394 0
-8874 -3302 0
-5644 10335 0
-9550 -11551 0
-10981 7630 0
-4041 -11203 0
-1124 -9608 0
4079 -8650 0
2780 24 0
8002 2772 0
-7420 4213 0
-8680 1527 0
8212 -4765 0
5382 -9238 0
2558 12404 0
-1242 8548 0
4445 -11331 0
-2429 -944 0
-1498 -1561 0
3204 8091 0
2693 -1393 0
12454 -391 0
7771 7372 0
-5264 -1338 0
-39 -10916 0
9139 -11704 0
10619 -2835 0
-3242 4292 0
7998 4233 0
2440 9669 0
-7050 120 0
317 -2485 0
1448 5372 0
-10852 7107 0
6367 -342 0
-5468 6626 0
-10016 4496 0
11726 8036 0
-688 9226 0
7726 2062 0
2427 -8078 0
3919 4317 0
-9344 -6421 0
-3801 -792 0
-1040 1155 0
2274 2406 0
11426 -8443 0
11001 -11836 0
-6771 -3597 0
-844 -10695 0
-5045 -8509 0
-11272 -4356 0
7514 -9223 0
4549 -8902 0
8799 897 0
-6965 4742 0
3605 2045 0
-6926 8510 0
10072 6630 0
-5858 10260 0
6683 -5943 0
-3927 -2959 0
1752 -5106 0
3086 -6925 0
-8103 -6950 0
-11149 -10218 0
7315 10546 0
-3106 -1331 0
6867 5890 0
-1728 -9317 0
-2937 12460 0
-2135 -9724 0
-10937 4901 0
-4889 -11376 0
-895 10826 0
-5596 -11028 0
10538 -1490 0
689 9271 0
-2504 1932 0
-8045 10943 0
-3747 -4980 0
9830 -7857 0
-5774 -2992 0
4211 -352 0
11141 2653 0
8257 -10302 0
3303 8769 0
-8843 6244 0
4698 9705 0
961 -1852 0
5741 1584 0
4242 5464 0
7049 11913 0
3841 108 0
-7684 -12085 0
11591 -11709 0
-1725 7071 0
-4442 -3483 0
4406 -4701 0
-6916 11612 0
3335 10549 0
-11474 -808 0
9868 -11212 0
1780 -10171 0
-7449 9016 0
-1347 6102 0
11680 10008 0
-7763 -10277 0
4628 -8436 0
-1583 1830 0
727 -5463 0
-8430 -1998 0
2677 9386 0
-2897 -2122 0
-7996 -1335 0
8422 1425 0
-10762 -12125 0
2922 -1683 0
-544 -651 0
4233 -8767 0
2933 -11524 0
7631 -216 0
-6979 9475 0
-674 2042 0
643 -6588 0
6585 -11030 0
9093 4333 0
-881 -10057 0
-2694 -6322 0
-3569 692 0
8292 6294 0
3331 -10923 0
-7074 9806 0
2477 6236 0
9835 2548 0
-4515 -1174 0
-3343 10078 0
-6113 -11229 0
6113 -4321 0
756 -8105 0
-122 -7955 0
-6152 1975 0
8430 4596 0
-11250 -8741 0
-2904 -9844 0
-8409 3786 0
10880 -5061 0
4883 -10662 0
-6408 -10278 0
10465 2812 0
10746 -2371 0
9267 4259 0
4353 -5617 0
2488 -5229 0
7075 -4420 0
4178 3735 0
5288 6143 0
-5292 6945 0
-11507 -7504 0
3557 -2526 0
-7472 -11931 0
7061 5465 0
10772 5178 0
-5085 -7420 0
-11561 1830 0
-7064 7861 0
11356 8050 0
7461 6619 0
4099 -246 0
-39 -7134 0
-874 -5806 0
3030 8251 0
12080 4321 0
5687 4972 0
-1517 -2773 0
10182 8977 0
-10562 -2959 0
3211 -11504 0
-6290 9392 0
8537 170 0
-5709 12019 0
4841 1079 0
9826 2674 0
11670 12390 0
6277 -7543 0
4999 -1270 0
-565 11759 0
-3425 -1678 0
108 -101 0
-3792 -11340 0
8379 1044 0
-10422 2741 0
-9421 4846 0
-3327 -8041 0
10057 900 0
8919 -8686 0
7445 -11391 0
-8801 -2463 0
-11164 9834 0
1573 3911 0
4049 -7296 0
9395 1471 0
5694 11052 0
-5987 8533 0
-5522 -4739 0
10779 -3653 0
-5371 -7628 0
-6126 11128 0
10114 -8243 0
-935 -10077 0
9939 -6010 0
-10145 9025 0
11692 10533 0
11735 -7239 0
-5120 6083 0
775 11477 0
6631 9135 0
6817 2488 0
28 972 0
-9954 3322 0
4338 7479 0
-838 -12120 0
218 379 0
-4137 2742 0
-4887 6107 0
-5368 3582 0
8439 -2613 0
9587 1603 0
1316 10479 0
-7225 -8379 0
2927 -8866 0
2579 -2847 0
-6754 -971 0
11444 4323 0
-8548 -7167 0
12379 -9344 0
7608 4390 0
-4667 -11306 0
-2860 -3630 0
4339 -10384 0
-10384 -343 0
10317 10611 0
10185 3202 0
-8253 -388 0
9205 10147 0
-12316 -2609 0
8540 7186 0
-2526 9835 0
-3823 12466 0
4722 12387 0
-10310 3194 0
-10914 -10363 0
3974 -9955 0
-2087 11237 0
6097 -11406 0
-3763 -7993 0
468 8149 0
7122 9004 0
5290 7769 0
-5037 -4331 0
-7358 5115 0
12335 -11522 0
7127 3759 0
-10523 3820 0
25 -9800 0
-8527 3946 0
9244 -2497 0
9355 -5452 0
12137 9654 0
7357 11901 0
9945 1850 0
11121 5176 0
-7078 7900 0
4635 7351 0
-1418 1286 0
-3269 -6577 0
4270 -2726 0
-94 4513 0
5122 10338 0
-1336 9890 0
5401 -9017 0
11398 -3494 0
48 -7754 0
-5085 6697 0
-5381 -12263 0
8510 -2481 0
11170 -7163 0
1381 10870 0
7896 1025 0
-7036 10863 0
2434 -6541 0
-7894 -6375 0
2547 -4137 0
-5580 4665 0
-6018 -3514 0
-8634 -1858 0
-5090 -4511 0
719 516 0
-11885 -12193 0
11776 7534 0
-1359 -2747 0
-2843 -6136 0
7928 2057 0
10162 -9374 0
3675 -12197 0
10438 -5969 0
-2400 4860 0
5275 -5267 0
4478 5954 0
-9535 4293 0
-5797 8206 0
-725 11405 0
6719 10798 0
-2846 8044 0
-8777 -8912 0
-3971 -5537 0
-1051 6932 0
-4031 8849 0
-11808 -5858 0
11216 -11297 0
-2205 -5857 0
8229 1559 0
-10675 -8542 0
-3304 10949 0
-9881 -8939 0
6060 12389 0
-2997 10210 0
-12226 3898 0
-2284 3939 0
-39 9054 0
-7500 7608 0
-6122 803 0
-12476 744 0
4991 -5761 0
-4378 5478 0
-8687 9148 0
-9076 -7974 0
-7088 -9200 0
-4781 -7899 0
2807 -6767 0
8916 8973 0
-7041 11425 0
9531 -6906 0
207 -8291 0
3156 2051 0
8468 -11460 0
5522 4284 0
7632 11541 0
-3704 3286 0
5477 -8968 0
-3159 10491 0
-2047 252 0
-9409 4283 0
9386 600 0
-4962 697 0
-8653 464 0
2412 -12371 0
-4776 -330 0
797 2167 0
-8479 -7771 0
9201 -6627 0
4366 -5892 0
-745 -9512 0
-9803 6415 0
-2179 -11364 0
-3902 3774 0
5524 -6132 0
5725 10480 0
-2028 1869 0
8633 -5300 0
-2157 -10336 0
-9576 -640 0
9633 7340 0
-12163 -6468 0
6991 10261 0
5501 3180 0
-4252 -11160 0
9750 -7229 0
-138 -9346 0
2255 -8846 0
-6152 5303 0
2105 -2485 0
-7534 -8957 0
-11836 -6204 0
-5221 10834 0
-6789 3527 0
3490 -10309 0
-4056 3007 0
9520 12040 0
-4061 -5999 0
7800 -3999 0
-6527 3077 0
7922 -1309 0
-1199 -6257 0
-6077 1278 0
-1574 22 0
11563 -3263 0
-3972 6995 0
-6450 -10556 0
10172 -3372 0
5807 -11462 0
-7856 5696 0
-7253 -1235 0
-12175 4783 0
-875 -8066 0
2922 1348 0
7710 8675 0
-10928 4264 0
-5812 -271 0
605 -1785 0
-11226 -5107 0
5857 -5725 0
11140 7795 0
-2513 -9905 0
11314 -1040 0
-9536 10544 0
4627 -7113 0
11541 9079 0
-9302 5995 0
12305 9462 0
10872 -599 0
9956 4786 0
3726 9830 0
4887 1018 0
7260 12154 0
-8096 2941 0
8555 12215 0
6929 3631 0
-5693 -9938 0
-620 6556 0
-1923 6196 0
4456 -10109 0
-11051 -2147 0
3904 11489 0
-8405 6797 0
3957 711 0
-320 3487 0
3991 9982 0
1519 7566 0
8546 1868 0
6138 4510 0
7358 -2512 0
7564 8410 0
2961 -9361 0
-6162 9599 0
2688 2510 0
-7418 -6736 0
-6882 -3249 0
-1223 10953 0
-10342 -203 0
2365 -765 0
-5352 9906 0
7127 4564 0
2943 -9885 0
74 11242 0
4335 -9224 0
-743 7168 0
7037 -8749 0
1930 -7964 0
-996 -3752 0
-8768 10102 0
-10605 10847 0
-11541 -10018 0
2359 4347 0
-11723 11039 0
-6675 -9136 0
-9822 10664 0
11107 -5143 0
-8499 -2051 0
-4310 -2421 0
10768 -4741 0
-12153 -4179 0
1228 7422 0
7699 -3821 0
-9236 8345 0
5403 -3673 0
-6462 6841 0
2630 -4664 0
1587 4055 0
1349 9537 0
4133 -5591 0
9534 8670 0
-2818 -8010 0
-5407 9784 0
-3267 10294 0
9451 12173 0
-7380 5377 0
10873 8209 0
-5884 -8672 0
-5246 1851 0
430 2656 0
3425 -8792 0
-4763 8796 0
2736 8421 0
4812 6784 0
-2738 -3962 0
-5781 5488 0
8147 -8400 0
-10388 11708 0
-511 6448 0
9209 5713 0
714 -8420 0
3513 -3618 0
1861 2407 0
-10031 7624 0
-4470 8925 0
-11253 9230 0
11009 839 0
7315 12000 0
-5019 374 0
6440 8136 0
1682 -46 0
-4986 -2623 0
-7401 3191 0
11201 2148 0
-8769 -6410 0
-9464 4773 0
11157 7747 0
-12120 -10289 0
11319 6505 0
-7361 4481 0
-3392 9542 0
3901 -10890 0
-11136 10939 0
-1474 -12220 0
-1605 -7960 0
-9907 10165 0
5492 11107 0
921 -6853 0
-9647 5429 0
2596 2082 0
-11 -9453 0
7859 4202 0
-8948 11682 0
-11282 4956 0
4991 9141 0
-12390 9864 0
5540 -7108 0
-12195 -4803 0
-11661 5154 0
-2036 -11934 0
3149 -9136 0
-8247 -10854 0
-11080 7077 0
9706 11994 0
3606 -12058 0
896 -6252 0
-363 7664 0
-12328 -4804 0
-8900 2497 0
-9314 12047 0
-9058 7097 0
3926 8241 0
-1828 -8231 0
-7725 6309 0
-1676 7852 0
5595 10072 0
4380 10489 0
-5 8696 0
-9261 10419 0
-708 4219 0
7445 -4121 0
-5859 3370 0
-2002 914 0
5528 -8847 0
-2453 -6455 0
1432 12263 0
5695 3961 0
-7659 -5940 0
-545 1083 0
5932 -2455 0
8683 8630 0
-716 -7389 0
-11577 6890 0
-7212 -4032 0
8207 -10496 0
-11031 -9152 0
4309 6658 0
-238 5187 0
6129 -12067 0
-6047 -1101 0
5540 1153 0
-6040 -8114 0
8015 11847 0
4063 -9911 0
-4479 10866 0
-9131 3643 0
-5200 -1537 0
-3336 8043 0
5220 11326 0
6220 -8163 0
863 -10496 0
-11653 10227 0
7788 11758 0
-12114 8145 0
-9834 -4581 0
3045 6309 0
-5706 10858 0
-2834 -9463 0
9155 5826 0
-4721 5100 0
-3343 1142 0
-5588 9584 0
-3184 9589 0
11603 -3139 0
-1705 -1567 0
4716 -12310 0
8508 -6237 0
-3260 -1656 0
-11182 10946 0
-5773 8822 0
-6401 11426 0
-8326 -11776 0
-9384 11505 0
-2820 -8781 0
3114 8187 0
-2476 -9023 0
3274 5764 0
-5719 7658 0
-11603 -7269 0
-11872 -6431 0
2832 12192 0
127 -4066 0
-10726 10019 0
12315 10420 0
4205 10579 0
-1907 -2841 0
-10877 -10891 0
6625 -4493 0
-3044 -7996 0
6420 9961 0
7354 4850 0
-1959 -10903 0
-3271 982 0
1704 8787 0
8601 -9460 0
-9079 7259 0
3976 -9360 0
-5500 -8431 0
-11299 -3296 0
-6038 -334 0
-6010 -2464 0
-8405 -10169 0
1534 -4884 0
9235 2641 0
3664 3170 0
-11794 9679 0
-6317 12283 0
-1789 -10694 0
-5469 -4700 0
803 11019 0
-8456 10563 0
515 -8827 0
8414 6905 0
610 -11850 0
-9518 11318 0
-6279 2046 0
-12122 -5007 0
-6900 1953 0
-6010 -8750 0
-11980 -4607 0
-5789 -1721 0
-6280 4403 0
6829 -10594 0
-459 9650 0
-8665 11293 0
-3352 11896 0
7108 -898 0
4812 -10937 0
-9799 -8813 0
7883 -1414 0
-8227 -12442 0
-5930 -10988 0
3987 5726 0
-11963 -4394 0
-6160 6655 0
-433 -2452 0
8355 1759 0
-7219 -3230 0
-9570 7491 0
5402 -4569 0
-6014 1806 0
-1230 5243 0
777 -600 0
5194 -11929 0
8113 3750 0
-321 -6314 0
12194 -5367 0
4344 3060 0
-10511 7119 0
4331 -8890 0
-2850 -2945 0
8202 -8099 0
-5527 -8169 0
-1492 -5265 0
9871 -11585 0
-7739 12452 0
11493 4021 0
-2091 -10204 0
1305 3598 0
7878 -5409 0
1922 4759 0
2718 117 0
7919 -10158 0
-11316 1678 0
-6736 9879 0
-276 -1190 0
-11067 -11593 0
709 -9075 0
11858 4953 0
10945 -8835 0
-3752 -8488 0
12140 3773 0
-5413 3563 0
9560 -3627 0
11320 -592 0
-1896 1634 0
-9065 -1312 0
-7304 5398 0
-6233 -5949 0
-5952 7977 0
2032 -8905 0
-10176 837 0
-7233 -2902 0
4689 5451 0
-87 -691 0
8819 -4760 0
-1991 -1407 0
-5671 -9829 0
-1908 1650 0
9188 8122 0
6304 -2259 0
-4947 11762 0
-3677 -11171 0
-9214 2778 0
-9486 -7967 0
-9592 5260 0
2191 -8175 0
7322 11681 0
2974 10451 0
-11359 8017 0
-9545 10849 0
10906 -7718 0
-5461 2248 0
9524 9199 0
-9747 6508 0
-11581 5402 0
-7466 -1438 0
-12009 685 0
-6252 1026 0
6537 5944 0
2354 -186 0
-10387 -2693 0
9800 7326 0
-6330 -6450 0
-9119 5073 0
3255 -5143 0
12091 -8413 0
-9354 -10044 0
10020 -12056 0
-10228 4868 0
-7595 2237 0
-516 -9181 0
5990 -10170 0
-10386 2556 0
-4107 -7366 0
4191 -4457 0
1475 7586 0
-6796 -11073 0
-10355 -4399 0
-9454 105 0
3757 -8428 0
5627 -4138 0
-1738 7884 0
-309 8960 0
-11018 -12196 0
-1878 -11667 0
536 11786 0
2979 2355 0
-2686 -2696 0
7984 2174 0
12102 -8130 0
-771 1989 0
656 10035 0
8554 -250 0
9688 -11620 0
11717 5011 0
980 5941 0
7984 2901 0
8 7641 0
-842 -5396 0
9906 2258 0
-10851 9083 0
8345 -5033 0
1752 4935 0
7006 -213 0
-7515 -3036 0
897 1986 0
-4011 -3489 0
2823 -10841 0
-101 5573 0
10957 -69 0
-3791 2335 0
-8480 11077 0
9114 9431 0
-10816 -4097 0
7079 4243 0
-1824 12113 0
-6295 -3405 0
-9786 76 0
-8847 11129 0
7507 2612 0
-9427 -6765 0
1434 -2233 0
12061 5486 0
3580 -10982 0
-9312 10073 0
6175 -4897 0
8936 -8501 0
-2659 7691 0
-6300 4721 0
-10186 -1956 0
6665 2093 0
764 5857 0
1170 -6655 0
8107 -8927 0
-2993 -1393 0
893 -7269 0
9070 4658 0
6879 -4007 0
-6240 -12403 0
3403 -11998 0
2870 -6020 0
-569 -3290 0
11994 4944 0
7205 -926 0
-5367 11289 0
7790 11150 0
-3462 -3425 0
10804 8776 0
3017 -661 0
9427 -11865 0
-9813 -1374 0
-2232 -7671 0
4730 -11126 0
718 6339 0
-9985 9140 0
-4849 -8152 0
-489 8296 0
-10626 5645 0
1094 -228 0
3243 5109 0
8548 -3098 0
6075 -5058 0
-8731 4988 0
6213 -792 0
4855 -1645 0
6736 -3213 0
9727 10676 0
-4034 -5788 0
11616 11236 0
-6693 -3875 0
-3290 1791 0
-2718 613 0
-11639 -9916 0
-638 -1409 0
-1861 -7623 0
-11572 4280 0
-5007 12305 0
5493 8740 0
-488 9390 0
-6320 129 0
10830 -3534 0
-4700 -2818 0
-11931 11493 0
3077 -4462 0
-7802 9256 0
-2444 -5539 0
7094 -8468 0
12451 5316 0
-143 -2924 0
-10360 4175 0
-7856 7788 0
-8209 8752 0
12152 -477 0
-11024 -7823 0
1431 2250 0
2397 3806 0
1818 -5707 0
-2916 1842 0
3155 7478 0
-1732 11501 0
8248 2527 0
12203 -776 0
3509 9821 0
8833 -7656 0
-9458 -2890 0
10420 -5615 0
-9522 -8857 0
939 -11129 0
-10101 -5727 0
-4583 3573 0
7146 -2559 0
524 1958 0
-9202 7728 0
-3733 12062 0
8859 7895 0
-2724 -11234 0
4973 108 0
-11666 4775 0
-10812 -7518 0
-288 -8071 0
2019 2546 0
-599 2330 0
9317 -8967 0
-4480 -6450 0
10837 -9836 0
-8312 3320 0
-3067 -190 0
7030 102 0
8871 12046 0
-4469 -11956 0
11821 -2407 0
-3301 12256 0
9309 1019 0
-4161 11371 0
-8858 8137 0
-9449 11407 0
11649 1238 0
-10319 6247 0
-210 -12296 0
2034 -9425 0
6647 -7725 0
7852 11661 0
1977 11939 0
-8216 -11092 0
-3328 -594 0
8179 -998 0
4179 -182 0
5854 2441 0
-6907 7184 0
5004 -6907 0
165 -5592 0
11091 -10716 0
-10926 6943 0
4347 -3306 0
10522 173 0
-5740 1460 0
8056 -353 0
-11502 -4902 0
-11501 -877 0
4715 -4174 0
3330 -3461 0
-7556 -6873 0
11429 -7772 0
1518 -6655 0
5719 9205 0
-3957 -10579 0
-3869 5148 0
4860 -9887 0
12000 6437 0
24 -6589 0
-11136 6587 0
7000 -9282 0
-5853 2117 0
-7189 -6607 0
-7908 11986 0
5539 -1895 0
-8612 -35 0
11319 5498 0
1589 1851 0
-3566 11738 0
8290 7305 0
-6374 6596 0
11604 11516 0
-3562 7597 0
10881 -6252 0
-231 5498 0
9707 -289 0
11342 7135 0
2246 1560 0
-2272 6082 0
-2858 3832 0
-191 6627 0
5904 3657 0
-8763 -10300 0
-2126 -11014 0
11145 -9522 0
10587 -1685 0
9114 -4632 0
10681 4805 0
-6082 8859 0
12064 -8591 0
-2246 1844 0
2347 7458 0
569 1918 0
-4528 4123 0
-10793 2200 0
-4746 -8501 0
-5469 10742 0
11533 1342 0
3677 2824 0
-461 1146 0
6490 -513 0
-7492 -562 0
7940 4778 0
-9142 10893 0
8363 -5943 0
11479 -2885 0
7310 -4763 0
-9994 -3512 0
-11904 5059 0
-2891 -3269 0
-2511 -3112 0
10022 -8366 0
7448 9548 0
2567 5758 0
-2288 5134 0
-9430 9550 0
-9802 -5840 0
7483 4667 0
10160 -8935 0
-7391 3158 0
6812 -491 0
4095 10236 0
-7340 -54 0
9225 -9316 0
-9633 10606 0
-11918 5345 0
-10212 11332 0
-6817 -8256 0
-5263 1654 0
8799 11171 0
-10726 7196 0
6125 363 0
-10468 -7451 0
-1369 -7329 0
-3752 6041 0
6548 -3284 0
-1993 -9900 0
-10634 2716 0
-1191 328 0
-6446 -3924 0
9480 -2485 0
-7917 -9628 0
11536 -3272 0
-2676 3692 0
-12239 7343 0
-4756 -8454 0
3127 -4140 0
-7683 -2929 0
-10839 8154 0
10456 -11742 0
-6870 5220 0
8520 1499 0
7476 3703 0
-4511 5867 0
-9382 3934 0
-10477 -7102 0
-3828 1821 0
11793 7588 0
905 -10923 0
7890 -1896 0
8154 -7518 0
-4219 -8237 0
-2523 -8951 0
-1179 8350 0
-8272 -6831 0
7555 -7735 0
1414 -4095 0
-9815 4580 0
-4537 -3649 0
8223 -2080 0
-1753 11390 0
5425 180 0
10861 -9076 0
9755 11766 0
7006 -6185 0
-6762 -1594 0
-11118 -173 0
3639 8811 0
-2524 -10826 0
226 9810 0
5194 2618 0
12149 -7674 0
3881 11730 0
10316 953 0
2883 738 0
-2685 -7959 0
9641 -11143 0
-2278 9919 0
6171 -1937 0
1268 7960 0
-7595 12025 0
2135 958 0
3549 2793 0
-2437 -2609 0
6252 -1732 0
-6467 7884 0
-8746 3652 0
-6159 3888 0
-5951 -861 0
5342 -8046 0
5838 8583 0
4362 -2704 0
-1435 4646 0
-4001 7599 0
-5969 4935 0
-8876 9505 0
-11045 8784 0
5569 -1784 0
4775 8457 0
5720 -6517 0
-3010 -3929 0
-8749 -11580 0
-8825 9385 0
11252 -7725 0
8604 1315 0
909 -11778 0
-1949 1909 0
-11282 -5144 0
-6551 3028 0
6172 1263 0
4839 5904 0
12268 -1954 0
-8220 5560 0
3014 -7740 0
8537 1788 0
2820 11579 0
-12084 8278 0
9897 -581 0
1204 7853 0
11793 8009 0
282 7019 0
1246 -8312 0
1589 5566 0
-5346 -5604 0
-3799 5352 0
11386 11335 0
-12387 -11182 0
10965 8012 0
5291 10317 0
-9092 8804 0
-7906 -11441 0
4564 3878 0
4253 -9436 0
-8099 -10768 0
5421 6694 0
-5643 -283 0
3743 -11720 0
-730 -1674 0
-284 21 0
-11183 1017 0
-6193 -2104 0
-11722 -33 0
-8921 -5962 0
-10839 7397 0
-11079 8098 0
12015 -11480 0
10968 11318 0
-9810 3357 0
-12004 4877 0
-3019 6558 0
1164 -4435 0
298 -7455 0
-2661 -8662 0
9084 1741 0
12014 -2836 0
-2476 4529 0
-560 1997 0
6360 1269 0
-10131 5713 0
10584 8131 0
-1724 8827 0
-4063 895 0
-4417 -1280 0
-2880 -11955 0
6949 -4888 0
964 -5208 0
-10695 847 0
4757 8759 0
5682 -1315 0
11318 3633 0
-2937 -11511 0
-2645 -9672 0
3193 -9911 0
-9262 7024 0
-6907 2034 0
9636 -12283 0
11320 1831 0
-9842 -8019 0
460 8040 0
-6955 -5232 0
-6911 8015 0
6100 8922 0
-5057 -3407 0
1556 9397 0
6086 -8371 0
8016 -4499 0
12113 -5486 0
3476 -1917 0
8878 -11783 0
-2409 2663 0
-1055 1673 0
11 -655 0
428 7088 0
2467 3340 0
-5090 7688 0
-7599 8186 0
11846 11233 0
2762 -9902 0
5645 4701 0
-4527 8903 0
-6006 10369 0
11190 10931 0
-5958 -7861 0
-2353 9975 0
-2449 -5365 0
9984 -8420 0
6010 -5788 0
1292 -1297 0
9731 10758 0
10780 -10253 0
2141 1196 0
-5629 11348 0
-4659 -4085 0
8573 -10712 0
-7911 9679 0
-6243 2486 0
6525 735 0
-11454 4315 0
-11452 -10263 0
9956 -10822 0
-9151 5559 0
11455 -9604 0
-2438 -9937 0
-11665 -6146 0
3831 9301 0
691 11130 0
-8532 4171 0
4466 5642 0
-2832 -11865 0
6944 -11186 0
7111 -7715 0
-1772 6925 0
-7921 12243 0
-5781 2115 0
-6717 1859 0
-11461 6953 0
-1936 -12272 0
1088 2616 0
-3262 5352 0
-11685 12123 0
-10819 -1881 0
-185 -6851 0
-10671 -10091 0
-7113 -11652 0
10740 -5139 0
-8594 -4569 0
10527 4200 0
-5839 -8103 0
5928 10872 0
4227 10009 0
2252 6000 0
-3325 1043 0
12421 6548 0
5671 -8253 0
-11836 5965 0
9583 3760 0
-9102 749 0
-5659 -4722 0
-11030 -5150 0
-12209 -11255 0
-5037 -7559 0
-9420 2494 0
-11603 -11669 0
-9553 12444 0
5699 8501 0
-11471 -3205 0
-8258 -377 0
-6746 11847 0
-6665 -10057 0
-3122 5731 0
10519 -1655 0
-8522 -3389 0
3360 -7476 0
-765 1546 0
-5731 3386 0
-5777 10569 0
6071 7238 0
11155 -11471 0
-10488 -2840 0
-4759 -1104 0
818 8720 0
10712 -4415 0
-4794 11459 0
-3714 8621 0
-5006 422 0
11036 -9197 0
-10372 7793 0
4739 9113 0
356 12449 0
-8980 5020 0
-4647 8873 0
2809 -6722 0
-7605 306 0
-939 3178 0
-7773 -9705 0
-195 6961 0
-11494 -5509 0
8534 10549 0
-2247 8811 0
9519 -4056 0
6306 11135 0
-212 6083 0
-3394 -3137 0
-8106 -4343 0
203 11426 0
-1895 -3497 0
7877 11735 0
-10421 -7996 0
-4464 -7042 0
-9450 -11205 0
3726 -7197 0
-1412 -5087 0
591 10803 0
3740 10470 0
5167 -5218 0
1419 4770 0
-10285 -116 0
-9170 -367 0
5543 -3090 0
11855 5275 0
3244 -11136 0
-1870 -12134 0
-10649 6693 0
6500 6409 0
12450 -4037 0
-3389 -10604 0
3274 -3801 0
9880 -6628 0
-4518 -8841 0
-11372 5193 0
-12252 6984 0
-5609 -11038 0
-56 -6083 0
-10346 -9556 0
-3886 7831 0
2403 -950 0
-2912 8015 0
-946 -2430 0
-11528 -6506 0
9495 -6190 0
11261 11163 0
360 -2416 0
-7329 4868 0
-4390 -8801 0
50 5890 0
12133 -548 0
6716 -8221 0
-12132 5516 0
714 -11078 0
7757 4973 0
-4766 -6647 0
2029 2722 0
10470 11254 0
3871 12137 0
-5954 -2902 0
-8473 -9128 0
-230 10315 0
-6842 -8023 0
-3329 1471 0
11632 -9909 0
-10736 11667 0
5647 4883 0
359 1589 0
-1348 -2366 0
-10684 9498 0
1047 11185 0
-7237 1682 0
-2479 5489 0
-7810 11883 0
10600 -6937 0
10655 6009 0
7315 -3382 0
-1235 -329 0
2198 -4582 0
2111 623 0
-4503 -10301 0
-9190 10882 0
-6316 -6910 0
8806 -6792 0
2336 12056 0
-1454 -1853 0
3786 11854 0
10629 2949 0
-1613 -7727 0
11771 2060 0
-11904 -7961 0
-280 6631 0
-12339 -3740 0
-5459 6154 0
8928 -1053 0
1036 1952 0
9882 7221 0
-8895 7982 0
-7109 580 0
-8274 -8900 0
-9613 -6049 0
359 6373 0
-6843 6876 0
4857 -9464 0
10921 4289 0
5659 5351 0
-6535 6185 0
-9047 8900 0
554 12385 0
-8807 -4592 0
-819 5699 0
-3132 10246 0
6621 -5623 0
9377 5469 0
10313 4128 0
6654 -1886 0
-3099 -3504 0
-2515 4746 0
2259 11330 0
6564 482 0
5522 10474 0
-2730 7397 0
12414 8607 0
4737 -10809 0
4654 -4563 0
-7103 -8650 0
915 6489 0
-6085 -4582 0
-10279 -1150 0
5475 -4852 0
-5768 913 0
-9138 -1438 0
6893 11606 0
-6341 -3983 0
1827 -5984 0
1723 99 0
-10388 -5416 0
8610 11190 0
-924 -10795 0
559 -12062 0
-6440 830 0
7758 4026 0
12041 12209 0
-7968 -8106 0
-9237 -4511 0
-9409 1584 0
-9160 527 0
-4497 -4348 0
-2991 303 0
-10285 -3644 0
-5015 1872 0
12208 2283 0
6399 11752 0
-7808 11228 0
-11408 -5337 0
192 2134 0
10340 -1857 0
4385 -7110 0
-11076 6703 0
-8990 -11669 0
79 1175 0
2210 804 0
3113 748 0
5532 -1331 0
-10481 -5482 0
1386 -2704 0
692 -8635 0
4588 4313 0
2871 -7109 0
-1435 -5961 0
9942 -11108 0
4075 12416 0
9909 -4522 0
-4749 -9713 0
-447 -11282 0
-9695 6129 0
-6433 -2277 0
11540 11877 0
10698 -5240 0
8133 6732 0
-3628 -422 0
-8459 7184 0
-69 2136 0
-2324 9831 0
-12187 11906 0
8526 -9097 0
-12215 4361 0
1638 -11136 0
1582 -8030 0
5046 7276 0
-12270 2292 0
-10897 1864 0
-6376 6193 0
-7780 -9047 0
-5858 8319 0
-11968 -5001 0
-5471 1815 0
-1337 -10153 0
50 5461 0
11570 -5411 0
7937 7056 0
-9622 -2254 0
-5519 -11921 0
4944 6743 0
7498 5192 0
972 2584 0
11171 4702 0
5147 3181 0
-4754 1217 0
4986 9963 0
-3130 -3388 0
-10790 -9154 0
-196 -5248 0
-421 12196 0
-4058 10572 0
8776 -8807 0
-1698 -7049 0
1246 7235 0
6091 12207 0
6304 11203 0
7790 10754 0
6277 -7443 0
848 -5117 0
3216 4140 0
-9741 8681 0
-11159 -6015 0
-6714 4004 0
3061 7159 0
11325 -4346 0
-7355 286 0
7796 -9185 0
-1100 -2288 0
2258 5993 0
-12366 -7444 0
-12145 8829 0
2876 -5390 0
8399 -3017 0
1838 -9378 0
8779 -12243 0
-4307 -4958 0
-1401 -8871 0
-4075 -4172 0
11146 -4235 0
11791 4474 0
-11656 11233 0
11588 -8208 0
10664 3746 0
6260 9170 0
12217 6304 0
-326 -10865 0
1962 -10400 0
-10692 365 0
9617 -4088 0
-10595 5622 0
-1787 -3016 0
-2375 6476 0
2922 9086 0
7291 4637 0
-10753 -9080 0
-11803 -258 0
7864 -112 0
-10019 -3930 0
3131 7162 0
5401 -6466 0
-9582 -1733 0
-2931 7652 0
4245 -9590 0
-4271 6307 0
12064 4735 0
6282 -1998 0
-4404 4560 0
-4867 6304 0
3576 -9555 0
9679 -3249 0
1872 2756 0
-3757 -6931 0
-2363 -12443 0
-7847 -11419 0
6126 -7686 0
-2479 3087 0
3796 -5449 0
-12367 -1639 0
6726 -8666 0
-6382 2371 0
-7592 3191 0
-9084 793 0
-10242 -5082 0
6160 -6668 0
1165 7287 0
2222 6430 0
-249 2383 0
3659 4936 0
5542 -11880 0
-2143 9977 0
-7949 6319 0
-677 8997 0
-8325 12413 0
-7090 5604 0
3221 3369 0
-3536 6522 0
-1103 -11261 0
10069 3302 0
9545 -11011 0
1276 11802 0
-6239 -4591 0
5576 -9999 0
9815 -12253 0
3678 4436 0
6028 -3073 0
424 2216 0
1706 -4545 0
11831 -5920 0
-5175 3916 0
-2196 -6582 0
-10322 -10062 0
3498 -6825 0
9642 -6005 0
1125 9947 0
-5730 5897 0
5651 943 0
-4160 1629 0
2440 9377 0
6805 -10671 0
-6869 4802 0
-8351 -6037 0
-3095 -9859 0
-3547 1095 0
-11936 -5752 0
-9692 1525 0
-9388 -4379 0
2534 -11420 0
-1093 -10295 0
-1540 3046 0
-8075 -1092 0
-1785 7458 0
10438 -5667 0
-5982 6971 0
-7484 11430 0
-5860 -11016 0
5626 -4261 0
9275 -467 0
-3138 11165 0
-6085 8798 0
3633 6335 0
-10395 8665 0
-2138 9605 0
-9554 -3681 0
-10016 3062 0
-7421 12262 0
-3432 -1617 0
-8369 5306 0
-8228 -7531 0
-10591 -6960 0
-7538 -7728 0
-5281 3200 0
-6684 2154 0
11581 3827 0
-8469 -3091 0
2063 -4249 0
12190 10771 0
4146 -264 0
2713 4579 0
8280 4186 0
-6310 3490 0
5319 -2615 0
-5635 1756 0
-3077 -3650 0
931 4865 0
6342 1577 0
968 9855 0
984 -10257 0
2221 9863 0
-3079 5286 0
11670 5251 0
5667 4370 0
3914 -3299 0
6451 11135 0
-7124 -6721 0
-7379 -9907 0
-6511 -146 0
10181 6600 0
-656 529 0
-9091 -666 0
-7500 -9792 0
11797 6348 0
-3814 729 0
-1187 12169 0
-5339 -10078 0
10748 -2551 0
-408 -953 0
-847 4977 0
1432 9653 0
11510 4818 0
11873 -1119 0
-8535 9737 0
10128 2668 0
-8062 -11875 0
-7124 -7082 0
-11367 -11864 0
1931 -9843 0
8180 937 0
5773 -10631 0
3982 6818 0
-8678 9023 0
-10609 4544 0
1505 -11154 0
10429 -2417 0
10571 -3909 0
1060 1293 0
2506 3478 0
-8479 -11704 0
-6591 6367 0
10141 -8160 0
-5022 -306 0
3550 12332 0
3533 -3138 0
-10137 -1307 0
11181 -4342 0
-7311 -2636 0
-5820 -7412 0
2073 5594 0
9172 -6488 0
-3955 -7286 0
-10390 11370 0
-9050 -11285 0
11032 873 0
6708 -7472 0
7732 977 0
-5147 6909 0
10761 -10213 0
-2530 -12290 0
-9946 9247 0
-10793 11787 0
-7190 975 0
-1311 -11936 0
11552 8573 0
-9070 -11037 0
1839 -11589 0
-1124 -1643 0
-5563 1734 0
1902 10099 0
-5320 -10054 0
-11863 4814 0
2057 -9041 0
7555 -6269 0
-2886 12142 0
-9601 1443 0
-5144 -5286 0
3486 -4815 0
2536 10177 0
-12450 10055 0
7528 222 0
-7787 5374 0
-3740 -3528 0
6547 8013 0
7580 -5333 0
-1209 -891 0
-11890 -4545 0
-6440 4836 0
-11407 8263 0
8743 7205 0
807 7260 0
-7037 1137 0
10771 -5184 0
6997 2865 0
-3314 4968 0
1141 764 0
-3909 4191 0
-3172 7088 0
4570 -3627 0
-7954 -3346 0
-10055 3985 0
-9894 5047 0
57 -956 0
6017 5421 0
11339 -12425 0
-9806 -5068 0
-1260 -3869 0
8655 -12358 0
11387 4772 0
-5018 8035 0
400 9311 0
4150 -428 0
4456 -7341 0
-2565 -3517 0
-2362 2140 0
118 2658 0
6594 -7544 0
11122 -4256 0
-10101 3466 0
7614 -10281 0
-1516 -7393 0
-7411 -4939 0
6601 -9891 0
-1435 -5093 0
11622 3351 0
11782 -1659 0
-2780 -5455 0
-1753 -5935 0
10466 6497 0
-9591 -11651 0
-2380 -3393 0
-4186 6706 0
-1152 10189 0
6481 7296 0
-9016 7649 0
-1845 -6736 0
-11420 -10993 0
-6445 2871 0
1302 -2547 0
4145 5011 0
11802 9173 0
-3728 -8513 0
11455 10326 0
-11590 -1017 0
1496 10787 0
11491 -4924 0
630 2068 0
-3726 3446 0
-1818 2981 0
6471 -2639 0
-2732 8221 0
-4843 -6495 0
3615 2397 0
5681 -2008 0
-9916 739 0
1136 -426 0
-7937 -7237 0
7144 4702 0
-5941 6895 0
-9501 1036 0
-6892 8513 0
-7311 6751 0
7156 364 0
-7097 997 0
3599 7687 0
9092 -9172 0
-8090 -11766 0
-6834 418 0
-7318 -1847 0
-7656 -7943 0
2126 -4817 0
11257 -5605 0
2740 -4794 0
10415 -11285 0
-8165 -5780 0
-4468 11614 0
-6514 318 0
7135 6568 0
-12072 4878 0
-7245 2990 0
-1256 -1364 0
11215 1502 0
8581 -10749 0
11747 5455 0
-754 958 0
-11122 -4856 0
-10759 -6586 0
10607 -11084 0
10980 4033 0
-1461 -1170 0
-4044 4153 0
5904 738 0
-4482 10952 0
10530 -1014 0
-5049 7354 0
5073 -5899 0
-3552 8276 0
-6037 1372 0
-3697 -4938 0
-4511 -1885 0
-11833 7709 0
-2499 7437 0
-7896 4504 0
5954 98 0
-8902 -11118 0
5856 -6644 0
2948 1273 0
11742 11251 0
10582 7762 0
-2838 -11706 0
-1059 5185 0
68 937 0
-1357 9313 0
5999 760 0
-447 8329 0
-6222 -1679 0
-11397 -8273 0
2915 -2172 0
-2413 4301 0
-195 10386 0
3435 7079 0
11088 -9753 0
-6220 -119 0
-8985 -7086 0
2464 -9380 0
8678 -5677 0
-6719 2550 0
2596 2431 0
-11110 7193 0
-9004 9788 0
12322 5683 0
-7966 -5578 0
11529 6240 0
-1016 -3426 0
-11206 4778 0
6000 -3814 0
-5408 -3113 0
-9546 -7071 0
5765 11912 0
-11154 -3757 0
-744 -8593 0
-12232 -7630 0
-8603 10236 0
-3098 -9310 0
10141 8422 0
5434 -12330 0
7530 1100 0
4933 9139 0
4647 -12210 0
-2518 9348 0
4466 757 0
-10858 -5584 0
1980 2876 0
-141 -4748 0
5793 -8003 0
-3815 -4884 0
-1723 -7125 0
-4372 -10893 0
4678 -3022 0
4453 8346 0
12131 3423 0
2224 -7563 0
98 139 0
6753 160 0
-350 5651 0
-10044 9842 0
-4054 -429 0
8709 1994 0
252 -8819 0
-3514 3122 0
-6297 2904 0
-7832 8238 0
10498 9489 0
3595 8140 0
7983 7747 0
-3698 9274 0
-9837 -4273 0
-7930 -3358 0
10150 6681 0
3954 6236 0
11235 4996 0
-2242 -3585 0
-9713 -2775 0
2004 -10096 0
-7289 2805 0
2013 -11162 0
-8548 5082 0
-5127 8369 0
11829 -9848 0
7672 10538 0
424 2769 0
-4191 -5929 0
1713 -8573 0
7625 -12048 0
-1152 -377 0
-10044 -4113 0
4585 -6406 0
-10181 -9579 0
44 6309 0
2673 12289 0
140 -11934 0
-6079 -2063 0
-5818 -6296 0
4002 3965 0
2837 10790 0
8952 4210 0
-3881 5399 0
-8408 1769 0
9737 -9863 0
-351 3355 0
11372 -1004 0
-832 11702 0
1442 9232 0
-11513 -12347 0
11678 -10119 0
-1199 -1307 0
-6160 2825 0
9399 10516 0
-351 8525 0
-7023 11632 0
10800 -811 0
-8279 8726 0
-4767 -7077 0
10035 10487 0
1824 -5882 0
-33 8594 0
-6573 3617 0
8047 2226 0
-4129 -213 0
-332 -12106 0
12326 -10918 0
-4345 -3857 0
6271 7055 0
-4871 1631 0
1223 8759 0
-30 6458 0
7803 8588 0
-765 -3609 0
-11514 8842 0
-11306 10855 0
-7977 6706 0
-4667 -4461 0
-6318 8498 0
-3442 180 0
2885 8975 0
-7134 -7194 0
11757 303 0
4681 -9996 0
-3073 -2473 0
6833 -12437 0
6325 -1837 0
-3742 8432 0
1510 -9545 0
-5286 -6666 0
10203 -1180 0
-7952 6822 0
11332 -8033 0
-8558 5419 0
-3722 -7730 0
11446 11625 0
9153 4004 0
-7270 7354 0
-10044 -9310 0
-11585 -9986 0
-8899 -1611 0
2009 -3373 0
4599 -8196 0
6129 9499 0
10553 7919 0
3247 1299 0
-10286 2316 0
-5362 6110 0
-12054 -7696 0
10311 -146 0
11396 -4276 0
-11275 -2798 0
6967 -861 0
-2392 11131 0
-4921 7515 0
10933 -5773 0
1416 -8927 0
-5992 -2341 0
-2976 -8848 0
-3571 -3504 0
-10019 -5406 0
-6009 10401 0
-5023 4802 0
12179 -11408 0
477 -5103 0
5256 2624 0
532 -9761 0
3088 -2993 0
7110 -1775 0
-7771 -11451 0
-12307 -4883 0
1557 7483 0
7168 -10626 0
2214 -6610 0
6742 3675 0
5541 -11149 0
-11149 9744 0
-4413 -6517 0
5020 8415 0
3601 -10728 0
-4596 -1633 0
5698 8181 0
12436 -6886 0
-2712 2496 0
-11182 3020 0
2633 4434 0
6280 6419 0
-10935 6511 0
-8816 9091 0
-11343 1238 0
9138 6696 0
4445 -3010 0
12398 7880 0
-6919 -6041 0
-7746 9787 0
-6411 3955 0
-3392 -886 0
-6712 -9086 0
4150 4557 0
-4160 11421 0
-9679 -4204 0
6624 -2968 0
-11410 -3323 0
12000 4918 0
-899 -863 0
10295 4636 0
9636 -10809 0
8969 10422 0
4524 8068 0
-7993 -12102 0
-9567 -6316 0
6443 5991 0
2625 -7449 0
-6925 -1767 0
7553 7975 0
5192 2580 0
10064 -945 0
-5846 4522 0
10674 1908 0
-6545 -10152 0
12449 -9608 0
8814 -3816 0
11538 -9687 0
9967 7924 0
-7285 -2545 0
10676 -820 0
12287 59 0
6883 -6142 0
-6037 10295 0
-7039 -3814 0
10974 9767 0
-3432 -10631 0
-3175 4382 0
701 -7500 0
-4174 -128 0
2238 -11691 0
-4947 -11279 0
5761 -2723 0
3497 -11203 0
-9783 -4637 0
1871 -8369 0
140 -10812 0
-3317 2949 0
8404 1181 0
-2117 -10705 0
-3162 -12432 0
-5219 -400 0
11439 -10538 0
11476 3918 0
-1451 -12471 0
-5216 3453 0
11122 -8887 0
-360 -6616 0
-9275 7225 0
-1433 2218 0
9015 6801 0
2837 -2055 0
-8132 -4945 0
-5030 -34 0
-5474 3452 0
-7831 9085 0
11469 -2747 0
-3632 -12089 0
-1783 11552 0
3630 -9427 0
-9241 -8912 0
10190 5645 0
10928 1283 0
-859 8651 0
1500 -7596 0
-11850 -4693 0
7771 -9294 0
-7025 -2824 0
-832 9259 0
-11759 8449 0
7357 -6927 0
-12236 9928 0
-4448 7623 0
3898 -523 0
7406 -1733 0
-8821 -3182 0
-5412 8879 0
6115 11332 0
-2974 9998 0
-8691 3423 0
-5410 9913 0
4304 950 0
-8529 -3510 0
8338 4528 0
3599 -4092 0
-6939 2192 0
330 -6833 0
561 2337 0
-4765 11952 0
-8028 9621 0
650 -755 0
5214 -10584 0
2465 -8514 0
2088 -5531 0
6633 12220 0
-5738 10216 0
-2026 2994 0
-1 6863 0
11760 8279 0
8293 -4907 0
9801 -9509 0
10912 -11063 0
-2818 3329 0
-1429 -6349 0
-11628 10380 0
8187 -9718 0
3439 1660 0
-11471 -9915 0
1431 -2504 0
-11937 4759 0
-9822 8563 0
973 3860 0
5991 11303 0
9360 8286 0
-11211 5192 0
10805 582 0
7942 -7018 0
-9499 -11736 0
-6111 -2060 0
-2922 5395 0
12171 -9630 0
7119 -3270 0
9650 -9883 0
-5229 6872 0
5840 707 0
-10794 -7733 0
4200 7947 0
-6832 3581 0
-2785 2162 0
11950 164 0
-1472 10186 0
-1137 -7251 0
10715 27 0
-6069 8314 0
-10566 709 0
-11919 3727 0
10511 7868 0
5652 12087 0
-4480 3307 0
3452 -10932 0
8567 11818 0
-7522 1593 0
-1093 -4107 0
9048 -1037 0
12071 -11136 0
9054 4168 0
9306 -9094 0
-1347 9605 0
1379 -2584 0
-8767 7530 0
-12161 -521 0
6254 -6093 0
10251 9815 0
650 -7293 0
-7268 -5017 0
3519 -11795 0
-9041 4408 0
-10185 1194 0
8774 -6748 0
-11648 4864 0
-7851 -5943 0
3996 4443 0
1992 -12197 0
8918 2718 0
5659 2488 0
-2798 1490 0
11855 -7652 0
-6500 -7832 0
-3388 -1457 0
-3822 2053 0
-3977 -1825 0
-588 8500 0
-802 10336 0
-9041 -3015 0
8138 -9234 0
6142 -5621 0
-10360 4964 0
1874 7906 0
-7556 -8416 0
1100 -6091 0
4440 -12283 0
5690 -11030 0
10523 -1391 0
-10839 9804 0
5696 -10878 0
2586 1758 0
-2364 -5941 0
-3733 -6874 0
-7666 10521 0
8574 6103 0
6729 9650 0
9215 -9490 0
-2934 11285 0
7793 -11865 0
-5719 12386 0
-1899 -5839 0
-5398 -10164 0
-7815 11134 0
8226 3520 0
3515 11261 0
-4422 -6111 0
-3469 -9848 0
12196 -9429 0
-3648 4577 0
3396 4458 0
-5898 -12295 0
-4685 -3205 0
5162 2215 0
5841 -2901 0
-4699 -385 0
-4780 3100 0
4405 -10684 0
-10377 -10865 0
-6760 3180 0
-9248 -6452 0
-159 -6653 0
5612 -4110 0
-10348 6356 0
4996 -4993 0
-2450 -8388 0
7143 8853 0
9093 -3442 0
8045 -1889 0
475 -1459 0
-6592 4371 0
2449 1156 0
4379 -9984 0
1461 838 0
7416 2587 0
-2642 1045 0
9410 -1926 0
-8344 -8197 0
9867 -5833 0
6481 3308 0
-11442 -2603 0
-10278 -2787 0
-5315 -11678 0
-11182 751 0
6143 -3655 0
-8417 -10389 0
2657 -8093 0
12357 -11766 0
-3698 -8205 0
9691 7393 0
-5305 681 0
-785 10261 0
6607 9254 0
-9871 7534 0
-10471 -8385 0
4495 -11581 0
4198 -2278 0
12294 -12370 0
10488 11255 0
-10156 5160 0
-8368 -9521 0
8651 -7609 0
81 81 0
4061 -10101 0
-9554 -11456 0
-6181 -6872 0
-8629 139 0
-2281 -12120 0
5882 10062 0
1865 -2738 0
11195 5639 0
-11411 -1544 0
-3940 -1181 0
-5230 -12159 0
5776 -10569 0
-5453 2604 0
-5092 -1262 0
-2749 -5668 0
-10529 7866 0
1578 3965 0
-7687 11810 0
3364 12169 0
-3172 -11628 0
11812 -2917 0
-4369 7955 0
-9483 -7129 0
-12082 6497 0
7470 11204 0
11307 -1632 0
-4250 8679 0
8090 7444 0
2416 -2787 0
-1605 -8619 0
2068 -2371 0
-1779 1457 0
-6920 -10046 0
-509 -7290 0
1322 11212 0
-2959 -2421 0
3381 -11078 0
-5891 -8121 0
-8318 -2727 0
2498 -280 0
1192 5718 0
-9016 -7485 0
-1961 10042 0
-3603 768 0
-3412 -6690 0
-4606 -4438 0
-10640 5196 0
-8573 -1772 0
3588 5400 0
-9577 12014 0
12375 -4256 0
8301 4662 0
-9753 -12054 0
4483 -6015 0
7778 -6415 0
7152 5149 0
-4936 10376 0
-10299 -402 0
-1004 8820 0
-1241 -4755 0
-3462 -9081 0
238 -8982 0
5705 -6060 0
5554 -2170 0
-3751 7317 0
-4832 11816 0
-3257 -3388 0
-3899 4496 0
-4784 -83 0
10931 3318 0
7196 2628 0
-11520 -10709 0
-4587 435 0
9983 -6827 0
6352 -2472 0
628 -7712 0
-946 808 0
3990 310 0
96 -9467 0
225 -3723 0
-12472 735 0
-11916 -11703 0
6145 5569 0
-2594 -11231 0
-8513 -8238 0
-6906 2323 0
-4862 10470 0
78 -6413 0
4947 -8570 0
-2901 11896 0
695 -6490 0
-5686 -739 0
741 8376 0
-11368 4232 0
-7773 5912 0
3413 -2704 0
8548 -1717 0
-10199 -10446 0
-9689 8730 0
5920 -12224 0
-4419 10884 0
-7817 -3857 0
-10893 6804 0
-4274 -3795 0
-1966 11726 0
6874 -4956 0
-119 -2586 0
-10523 -11591 0
-6074 -5289 0
1029 -9566 0
-9328 -3800 0
5035 -9828 0
-8604 12285 0
-10163 4265 0
1357 -2247 0
-3421 5309 0
9015 -182 0
7299 -2937 0
11122 -530 0
3487 -1907 0
9654 12434 0
-7370 -208 0
-12312 -9655 0
10791 10272 0
4950 -10396 0
5992 5838 0
3985 -6559 0
-4833 -6670 0
2377 2124 0
8327 -1912 0
-6005 -6883 0
-35 -10095 0
5069 989 0
10707 4877 0
10526 -5295 0
-400 9518 0
-10913 -1371 0
-9549 480 0
2582 -7053 0
-3376 4532 0
676 4863 0
5121 -8348 0
5671 2188 0
-5339 -3494 0
-10955 5903 0
-1187 11657 0
-3307 -6245 0
2657 -9512 0
-11952 -4184 0
11150 -6428 0
5179 -4281 0
-8086 4127 0
8878 -4646 0
8915 8098 0
3563 -408 0
-7399 -7195 0
10381 9920 0
4368 -6201 0
-4791 -4110 0
-9564 8022 0
7823 -486 0
7012 9178 0
-1275 -11807 0
-2492 9714 0
-2112 -8632 0
-2065 -675 0
-743 10150 0
-11083 -6418 0
-6045 6397 0
10061 -5766 0
8067 -2904 0
8574 -7233 0
1878 1984 0
-7305 73 0
-6687 -9671 0
2799 -2125 0
10320 660 0
11489 -10066 0
-9323 3245 0
8985 3188 0
-2184 6065 0
2087 -7591 0
-7145 -7348 0
-8822 -10229 0
-5222 -4652 0
5572 7436 0
-8772 -10185 0
6075 5779 0
11329 9495 0
397 433 0
-3748 -4437 0
4069 5025 0
-2353 -7329 0
8035 1817 0
-4903 6549 0
2645 6460 0
7273 -3970 0
4970 2260 0
-6285 -11675 0
-2101 6149 0
-12475 3674 0
751 -9489 0
10230 -3832 0
4221 11188 0
-5984 8856 0
7043 7548 0
3349 -1160 0
7408 -3818 0
-6277 -5300 0
-847 -4065 0
-10134 -9279 0
4087 3155 0
-7134 -11949 0
7910 -10441 0
2630 4782 0
3928 -7296 0
-1956 3298 0
8287 6393 0
2558 -7211 0
-2728 8542 0
3364 -715 0
3130 -6988 0
-5851 8221 0
-5499 10249 0
7606 -7624 0
8879 4869 0
7975 6010 0
2101 11491 0
9053 9523 0
4845 -10079 0
-302 -4166 0
-5200 4505 0
-8840 -11500 0
-1723 -6155 0
-7816 -11624 0
7002 4104 0
-3119 1638 0
-6858 5825 0
-3870 3621 0
-2965 -7913 0
4376 -5730 0
4752 6143 0
7923 6311 0
-10614 -6638 0
3150 -5335 0
-376 9607 0
-2339 9222 0
-5284 -10464 0
-4683 -2915 0
-6356 -1565 0
12016 1673 0
9695 5533 0
11835 514 0
-9136 -7835 0
9528 7365 0
8430 6670 0
2059 1815 0
1624 -6364 0
-4566 9325 0
6338 -7119 0
5165 11954 0
-1672 -9583 0
-9049 3814 0
1349 12362 0
-1789 7546 0
6926 7540 0
-8209 -3361 0
-3804 -11036 0
1097 9175 0
6109 -3344 0
-3244 11931 0
104 -6203 0
9032 4233 0
-1926 -4119 0
778 934 0
-2067 6571 0
11436 -306 0
1151 1210 0
-7644 12016 0
8236 -3894 0
-3348 -5416 0
-4536 -7412 0
-4024 11092 0
1039 911 0
11175 -5468 0
8764 2698 0
5652 -3675 0
983 -3224 0
10883 -2222 0
11610 -12369 0
-7358 -724 0
851 6085 0
2696 2374 0
-297 5349 0
-8931 10108 0
-10612 1873 0
-10857 1505 0
-5648 3439 0
-6162 -3013 0
-3411 -8235 0
-7485 -8777 0
-7718 7707 0
-8466 -11070 0
8112 260 0
-1650 -4351 0
11738 -7740 0
-5084 -12025 0
-964 4873 0
-7838 8648 0
-10688 -4406 0
-7616 10629 0
4073 -9444 0
-4522 -12291 0
9613 714 0
7144 -11446 0
7751 8399 0
-2711 2984 0
5386 -10895 0
5439 -2734 0
3776 4740 0
-11008 882 0
5007 -11327 0
189 -9538 0
1719 11716 0
-5473 2142 0
9683 -10263 0
-7392 1713 0
-11098 -1778 0
-11846 7444 0
-11164 -12262 0
1558 -7484 0
2677 -12023 0
10227 11950 0
595 -7213 0
10189 2301 0
3394 -5707 0
9863 20 0
-7962 2051 0
355 671 0
5466 9188 0
-8838 -11395 0
7407 6497 0
-10014 -6232 0
-4577 999 0
-523 2322 0
6547 -9285 0
-8113 3533 0
-9323 -2664 0
-96 1313 0
-8071 -1267 0
6399 6456 0
10836 -1258 0
11954 -7139 0
-12077 4114 0
9507 -7772 0
-6168 -1334 0
7576 5331 0
10087 -2958 0
7485 11697 0
-7445 -7437 0
10628 -4862 0
-5390 -6985 0
-4077 -12475 0
941 -1910 0
4572 -2892 0
-2540 10095 0
5546 9447 0
700 -4433 0
-8443 9656 0
4931 -3276 0
-8073 -10130 0
115 -9828 0
2377 -8137 0
7159 3388 0
-5211 11099 0
9913 -3036 0
1861 4528 0
6332 5374 0
3340 -9966 0
-2476 8440 0
-11080 -11519 0
9951 -8238 0
3844 -5869 0
5009 1247 0
6322 -1406 0
7747 641 0
10772 -11977 0
-12177 -1975 0
6483 -10457 0
4337 -3859 0
6963 8005 0
1841 -1739 0
8291 9092 0
-1349 2107 0
-2138 11107 0
5848 4209 0
-4491 -8384 0
-6466 217 0
12234 -4250 0
11377 -1954 0
4010 -9684 0
-1732 1818 0
-621 5764 0
-8730 943 0
1219 10373 0
8873 9128 0
6711 8929 0
-12287 -9291 0
-149 500 0
-6700 -7609 0
-708 7948 0
4552 6661 0
-5208 1024 0
3146 8439 0
-5289 -9138 0
-12365 -2213 0
-2845 -2894 0
-856 -1695 0
-4432 2303 0
11023 -289 0
5488 -6236 0
-5661 -4477 0
-6990 997 0
-7582 10746 0
-9406 -7560 0
-9666 11379 0
779 -2711 0
-10618 3199 0
8773 -1108 0
-10441 -10536 0
-656 -1150 0
-12125 11095 0
-3226 -5270 0
2380 4393 0
2277 -5183 0
9572 -5704 0
3559 2352 0
-2091 -4427 0
11319 -3638 0
3922 11249 0
-4798 10756 0
7413 -8343 0
9907 -1914 0
-7794 8031 0
7643 9481 0
-12199 8271 0
-2222 -8007 0
-9696 -5493 0
-8344 10431 0
-3444 -1657 0
4947 8489 0
-5414 -5197 0
-3276 3107 0
-10683 9762 0
-9041 -4323 0
-10096 514 0
-1940 -4708 0
7210 -7571 0
9162 -4259 0
6987 698 0
3479 1196 0
-2206 10034 0
-3155 -3392 0
-10416 8546 0
-7216 -1138 0
-8037 10564 0
-11400 -9990 0
-9922 507 0
-509 -11149 0
584 -9684 0
-4803 -12071 0
923 -374 0
-3800 203 0
5348 6726 0
-935 -118 0
-476 7319 0
-6217 12108 0
6136 -7379 0
-7435 2640 0
-679 -9813 0
-5242 -5657 0
-5092 -10852 0
-2890 5593 0
-2894 10817 0
10268 990 0
1980 8002 0
10189 -5983 0
-8517 9647 0
-12153 7015 0
-5082 3022 0
3815 -540 0
-9207 1448 0
6557 -10413 0
7877 -8160 0
-4811 8291 0
-6091 -9543 0
-6315 569 0
-11080 -10089 0
10008 -11701 0
-2914 9707 0
8218 3509 0
-10032 -10437 0
6736 11009 0
-5096 2907 0
-5641 -11030 0
510 -11465 0
-7962 11309 0
1303 -3499 0
34 -10074 0
-10353 -8548 0
680 3085 0
2919 -9285 0
-7830 9178 0
2322 -61 0
-3199 -6441 0
10173 2532 0
-11639 -2916 0
-774 -1419 0
202 11993 0
-2252 -2611 0
3308 7351 0
9889 -10764 0
-7954 11075 0
-7362 8806 0
-6200 8877 0
-4491 -8201 0
9498 10395 0
4220 5257 0
-8403 -3295 0
4398 -6234 0
4557 -6236 0
-5852 609 0
6586 1385 0
11044 -11815 0
2379 9226 0
-4945 -3481 0
290 74 0
3422 6737 0
10502 -11737 0
-1463 -9934 0
1831 5624 0
4531 5280 0
-11853 4230 0
-11419 6312 0
6785 5121 0
7566 8827 0
2297 -10374 0
-206 10368 0
9027 -11934 0
-2968 -8589 0
3488 7806 0
7579 11912 0
427 5027 0
-4867 -4084 0
9701 -7623 0
-922 10817 0
12406 11858 0
-8156 8009 0
6261 8465 0
-11222 3878 0
6218 -10504 0
2842 2001 0
-7848 3447 0
-5175 4424 0
4819 5559 0
-947 -11924 0
-3216 2301 0
-2783 -5285 0
-3379 7334 0
-6121 -1653 0
-11375 -8441 0
12465 12319 0
4055 10733 0
-6351 -6241 0
9562 -2887 0
-6219 7035 0
-3115 8575 0
17 3288 0
-7309 -4130 0
-3456 3179 0
-11097 -4527 0
-8026 2718 0
7185 7327 0
9931 1362 0
-7911 2383 0
12336 -7161 0
7264 -6907 0
-10177 7806 0
11855 6319 0
200 -6833 0
-1411 4288 0
5968 -3981 0
10859 -3376 0
8771 -10252 0
-12261 -9618 0
10270 691 0
-5063 -4930 0
-1933 9625 0
1004 -12122 0
3188 -12234 0
796 -7816 0
8267 12008 0
-8638 -8823 0
-1301 -994 0
1585 6333 0
3743 -4002 0
-4045 11626 0
8817 -835 0
11460 6282 0
9754 6191 0
8614 -489 0
-2403 -3932 0
-2935 10649 0
12396 -11869 0
-4532 -3624 0
-5203 9213 0
-9005 8591 0
10081 -227 0
4152 5980 0
-488 7602 0
5547 954 0
-5874 -4302 0
785 3383 0
-9136 -8712 0
-8512 457 0
-2755 -1710 0
-730 7203 0
9298 4111 0
-5161 -3677 0
1405 -3866 0
-8967 -9013 0
-5189 7177 0
-1405 9753 0
-9422 5703 0
-5458 -9623 0
6561 -4776 0
11495 11129 0
6615 -9156 0
-4670 4925 0
1272 -5202 0
8834 -3891 0
1725 -11786 0
9171 -7527 0
-2312 10235 0
-4191 -1282 0
8940 -9209 0
4821 -1486 0
1646 9334 0
206 1541 0
-1413 -12423 0
4627 1673 0
5813 -3337 0
-4166 570 0
10561 -1478 0
-5345 12098 0
-3879 -8904 0
-7946 1445 0
11882 11259 0
11908 12429 0
5836 5056 0
6369 2945 0
-272 11013 0
-12266 7457 0
-9379 -8478 0
4176 10720 0
6012 9492 0
-7790 470 0
-4761 12252 0
-3793 -9231 0
11017 4436 0
-9687 -2420 0
-3847 -9049 0
-12261 5167 0
-2291 -8623 0
-916 1271 0
-8738 5828 0
-187 -9734 0
-7032 -539 0
-1367 7357 0
1961 -2394 0
-5623 151 0
-5930 -9999 0
1801 2120 0
-2146 -8635 0
10163 -10158 0
-6155 -9615 0
-9887 5220 0
-529 1398 0
2138 7313 0
-9250 1431 0
-417 -3517 0
12057 -824 0
-8256 -12228 0
3690 -6427 0
-9018 1339 0
-2810 -1092 0
9846 6787 0
7757 2409 0
-2295 -2011 0
-2975 -6852 0
1096 545 0
-3663 -6383 0
3395 2019 0
8630 2615 0
-10665 7248 0
-11097 -11496 0
-2818 -3354 0
6485 -5279 0
-609 4839 0
-3822 9326 0
-3453 10805 0
245 11789 0
4230 -9896 0
4267 1962 0
-10228 -4634 0
-42 4136 0
8565 -11864 0
-3392 9804 0
1820 -8061 0
10350 7727 0
-11143 5291 0
8401 12377 0
3322 493 0
-1022 -2857 0
-6183 10575 0
-5179 3723 0
1812 -8643 0
3436 6255 0
-9135 -4286 0
-8160 4605 0
963 -1478 0
-12404 -4728 0
4646 -1432 0
-7883 -2300 0
9557 11147 0
4988 -8165 0
2558 -4414 0
-11511 11621 0
5413 2777 0
-4809 -9282 0
7701 8969 0
-12275 6592 0
-10251 -4115 0
-6114 918 0
5626 -6759 0
10502 11909 0
5670 -10630 0
-1689 -2524 0
-504 10482 0
-11393 9742 0
-2724 -2005 0
-2704 -11150 0
3200 2446 0
4866 -11181 0
-7459 7812 0
-11185 9823 0
7030 -5038 0
9116 6443 0
-6290 -9642 0
-3756 5726 0
-5421 -2751 0
6050 6825 0
-3339 -337 0
-7678 -4272 0
9731 -11949 0
-11777 3516 0
5399 -3204 0
-3392 -4143 0
8757 9660 0
-12125 8517 0
-8456 10905 0
-12384 -10072 0
9986 -9559 0
12297 5663 0
-4463 -10051 0
9605 -5432 0
-6570 4067 0
6594 800 0
-597 -2031 0
1536 -10197 0
-2158 1241 0
-5307 -10844 0
-10390 -2601 0
-7137 1356 0
2542 4941 0
6622 7503 0
-3420 -9655 0
-9333 6808 0
-11772 -363 0
1959 9906 0
5416 -8591 0
8712 2093 0
-8340 4854 0
-9439 3795 0
9785 11264 0
3072 10559 0
-3126 170 0
-7370 3274 0
10370 -5505 0
9691 11991 0
-75 -8550 0
-7183 4373 0
-8766 8291 0
4717 -3759 0
9777 7315 0
-5799 -12367 0
-11934 -4356 0
9125 406 0
6978 4086 0
-6402 -2122 0
4311 7491 0
9258 -2324 0
-3970 2623 0
10057 6055 0
-2031 11090 0
-7524 9377 0
4178 4844 0
-8179 9859 0
-3184 3831 0
12015 -2304 0
6240 7834 0
-7920 8794 0
4151 8789 0
-2724 10832 0
-4677 3496 0
-3368 352 0
5991 1540 0
-1150 -12400 0
-11678 -1348 0
-11872 2245 0
-9692 -8203 0
-11006 607 0
-4480 8467 0
2280 10942 0
5069 3229 0
4900 -10637 0
3504 -3742 0
-273 1383 0
3544 -742 0
755 -3663 0
3529 -467 0
8502 -6231 0
7182 11821 0
10647 -10826 0
-2867 -6832 0
6885 -816 0
-6262 -2493 0
5554 2703 0
-6584 5273 0
9943 -10866 0
10087 9757 0
-4118 2028 0
5494 -11160 0
-458 -6445 0
9813 -8540 0
6110 9780 0
3139 34 0
-12353 -1114 0
-10926 5632 0
6306 -5892 0
10389 11785 0
-4748 -5779 0
900 1328 0
-10311 -6287 0
11772 1733 0
5172 4659 0
1334 108 0
6636 -8899 0
7177 -1531 0
11058 -11368 0
-3137 9369 0
9977 -9465 0
11871 -2745 0
301 -5088 0
12364 2701 0
140 -12357 0
-1089 -8919 0
-9664 -5304 0
6306 -4151 0
-12388 1169 0
1363 9679 0
-10551 -6833 0
-7296 6254 0
-11564 -3501 0
7816 3051 0
1642 -10365 0
441 6474 0
5966 12310 0
10074 -11622 0
5193 12374 0
5005 7150 0
-1892 -2169 0
-2685 4685 0
-5537 -7184 0
-11531 -7801 0
-9378 -6934 0
7298 6411 0
1128 -3446 0
6279 -5729 0
-8227 9855 0
-9644 -5476 0
-3686 708 0
6201 -10263 0
3551 -11470 0
-5592 -6015 0
2589 -6129 0
-5176 3322 0
-11849 -2036 0
6662 -6664 0
8562 1899 0
1893 -9160 0
-2971 4664 0
9784 -723 0
7091 11401 0
-2002 5891 0
-7509 -2100 0
-2852 10259 0
3014 -9460 0
2256 -6107 0
4515 908 0
-2666 -7347 0
9624 -11135 0
7119 -9888 0
-5788 -8628 0
-1664 -5224 0
3060 -3338 0
-7711 -1824 0
-8762 -7531 0
11308 -10609 0
-1947 -10794 0
2057 -6869 0
-9368 -1386 0
-11071 3839 0
-1014 -6786 0
4070 -9105 0
6859 5302 0
1012 -9059 0
-9893 7569 0
5167 2259 0
10974 10187 0
3054 -1219 0
-1369 -9664 0
10623 9674 0
-2241 7615 0
-12077 3418 0
2735 5011 0
-3106 -10118 0
4523 -10159 0
-3723 -2669 0
8656 7844 0
9871 11878 0
-827 11945 0
-6722 -3932 0
12310 1032 0
9864 -6772 0
-9980 -1238 0
-11258 3849 0
1712 -3480 0
12410 9737 0
-10204 -1432 0
-7734 11470 0
1220 -8456 0
-3546 4014 0
-9979 -10794 0
-8136 -4758 0
-8359 8031 0
-12147 -11040 0
446 -5090 0
2428 -11260 0
3801 1061 0
2527 -8294 0
-5006 6612 0
8362 10272 0
-120 -1950 0
5236 3266 0
8277 7913 0
-9923 7887 0
-3316 -7301 0
-8657 -11073 0
2969 11069 0
-12210 -7706 0
5861 833 0
7912 -7615 0
-7172 11691 0
-11805 -12025 0
-9847 1569 0
-11687 -1330 0
-8888 4707 0
9359 -5031 0
-1284 2856 0
-10850 -5730 0
-77 6090 0
7169 2753 0
-1448 4279 0
5024 -9372 0
9445 -10168 0
4841 -8641 0
-5226 -5442 0
-4671 -10815 0
-8057 3862 0
-8583 10383 0
-5554 -6008 0
-6957 -10015 0
3725 6370 0
2845 -812 0
-1299 9411 0
2465 3463 0
-2693 7644 0
2868 -2959 0
-6673 -10708 0
7379 3874 0
-2070 10956 0
-3324 -2054 0
-1927 -2460 0
7871 -6867 0
8398 -11721 0
-993 -5155 0
-41 7552 0
-10742 11185 0
-1051 -10358 0
1317 8983 0
-61 2647 0
206 2089 0
8476 -12054 0
-7904 4815 0
10389 -1151 0
-2485 -7820 0
1289 8209 0
3210 6218 0
-1220 10865 0
4810 -9119 0
2309 3358 0
-4004 7576 0
-8107 -11032 0
-2030 3318 0
-9660 5488 0
-1371 8641 0
-9042 -4859 0
-9871 -12005 0
8246 5653 0
-4136 -5568 0
-4715 -2245 0
10 1944 0
11133 -2231 0
8447 -3039 0
7087 -1791 0
6986 -9862 0
9627 5650 0
-8896 -3770 0
-913 9835 0
5963 -1077 0
-9138 -9635 0
5788 4381 0
9598 -11843 0
11160 8821 0
4712 165 0
5993 2947 0
8703 -785 0
-10727 1386 0
3493 3952 0
-10364 4654 0
6178 -7797 0
3636 -3318 0
10200 6584 0
-5835 12180 0
3872 -5833 0
10180 -2766 0
-547 -11685 0
11123 -11287 0
3183 810 0
11019 -4131 0
10039 -5376 0
-4588 -1249 0
7613 9024 0
2434 864 0
11490 8057 0
-3981 -6941 0
-12260 10519 0
7801 11049 0
7486 2828 0
-4388 3565 0
-7378 -12007 0
9935 4666 0
-9589 -7397 0
987 4230 0
4409 2739 0
2164 -2435 0
-137 -11759 0
-7137 -1632 0
-3715 6286 0
-1018 -6677 0
-1596 548 0
4794 -1376 0
10200 -4676 0
6860 8288 0
12016 8710 0
10645 4513 0
-5022 -4962 0
7914 11119 0
582 -5209 0
11585 62 0
1117 50 0
-6949 3889 0
1394 -11318 0
865 -3631 0
8226 -3204 0
-8802 7701 0
9700 7791 0
-11482 -4507 0
9280 -10299 0
2219 -110 0
-5260 12434 0
3437 10977 0
6970 -5281 0
8468 -7565 0
9451 2957 0
7763 -12396 0
-3525 7177 0
-3113 -11568 0
3109 6877 0
5328 -8509 0
-9872 -77 0
6046 2321 0
510 2935 0
-6106 4986 0
6325 -10725 0
12126 -10517 0
1690 -2973 0
3576 -5168 0
-8195 817 0
-7979 -1600 0
9791 9037 0
-4482 -6502 0
1432 1759 0
-3452 -6040 0
-1347 3464 0
280 10795 0
6802 1997 0
-12264 10237 0
5027 7599 0
8113 -11558 0
-11176 -12198 0
11269 8621 0
-4147 11618 0
11179 -8679 0
5235 8568 0
2160 7784 0
5290 -2194 0
-9026 1630 0
-6036 957 0
-4826 -4926 0
12073 164 0
-3680 10243 0
-10156 -3052 0
4026 3581 0
-8240 5648 0
-11622 7015 0
-3387 6436 0
9085 -2969 0
9081 6674 0
11476 6169 0
6447 9091 0
6981 9863 0
8140 10410 0
12426 -5878 0
8976 -4285 0
-7496 -6482 0
6067 -995 0
-11540 -7969 0
-1487 -7178 0
11439 -2388 0
10403 -11807 0
4819 9232 0
11674 -8329 0
-7688 8178 0
-4311 6225 0
-5905 -546 0
-6369 -10734 0
7377 -2213 0
11719 -5283 0
2679 6561 0
-3975 7789 0
-1044 -1369 0
10420 -2259 0
-6303 3015 0
10144 501 0
-10176 -8092 0
1536 -11106 0
11491 10488 0
-5980 -1378 0
-10675 -2635 0
9816 -6034 0
-11568 11417 0
-7954 10578 0
4616 6283 0
8171 5160 0
7871 -2519 0
1123 5985 0
-8938 6816 0
-4275 -4682 0
10143 7844 0
6329 -755 0
10179 7116 0
3766 -3379 0
9292 8029 0
4636 12334 0
-9136 -8997 0
-6963 -10174 0
-4939 -11537 0
-3177 1025 0
-4362 3455 0
-4828 -1978 0
-7150 -3201 0
-10641 -6880 0
8257 -6347 0
-5814 3735 0
7751 -11277 0
1666 -5871 0
-9555 -41 0
-11582 5563 0
779 -6250 0
-75 -8127 0
9555 -12384 0
-7271 -5367 0
-2960 7127 0
617 10667 0
4762 -5246 0
6812 -88 0
1136 -1792 0
6863 -11851 0
-5854 -2376 0
5886 -1281 0
-2216 7401 0
-390 -8150 0
11046 -11389 0
8171 7530 0
9488 6143 0
-6462 11086 0
3794 2165 0
-2503 3 0
5709 5319 0
10560 4976 0
-11427 3342 0
10684 5894 0
12297 7982 0
3674 -3703 0
-9007 -1320 0
2166 -7751 0
-5156 8204 0
12140 -3379 0
11099 -3565 0
-3297 3649 0
11221 -4765 0
5948 7485 0
9286 -4402 0
-3143 11125 0
186 9451 0
-3781 -3434 0
9745 9336 0
-12007 -11352 0
-1784 -820 0
4933 1105 0
6214 5573 0
-5762 9819 0
11310 10588 0
420 -4356 0
-11857 517 0
-8885 -5989 0
-11087 9107 0
-911 -10088 0
3194 -1731 0
-4707 469 0
-7997 6789 0
1476 9639 0
-10907 3268 0
8046 -10692 0
-11370 3286 0
10762 -4301 0
-9336 3667 0
-6417 -7908 0
-11592 5129 0
10748 7048 0
-5441 10673 0
-3446 3374 0
9959 2364 0
1452 10710 0
11868 -3891 0
-9827 2885 0
1581 8334 0
-1910 9539 0
4207 3863 0
-10603 4243 0
-7644 1594 0
6906 -8473 0
10667 -4374 0
-6272 -3226 0
3362 -2573 0
-9478 -2921 0
-1129 8530 0
-986 -7245 0
5017 -10274 0
-2383 1589 0
7614 1272 0
6848 -12353 0
7566 -5943 0
5586 -10962 0
-474 5772 0
4714 -3018 0
12239 12010 0
6202 -3802 0
-7251 6476 0
3365 -862 0
8856 -1392 0
-8833 -9171 0
8226 -11444 0
-12106 -12040 0
-6658 388 0
8025 -5536 0
-1297 8109 0
8953 -3497 0
1941 -1121 0
-5292 6485 0
11662 -7790 0
3496 -9245 0
1310 -1175 0
8842 4453 0
12449 3505 0
2967 -10047 0
-11413 987 0
11427 -6556 0
3399 -3135 0
-11196 9148 0
6221 -4965 0
-10227 10297 0
-11451 7100 0
-6200 5550 0
-12141 -4181 0
-10893 9014 0
-5611 -6645 0
12375 -3599 0
-3997 -744 0
5697 1899 0
-6667 1824 0
-5333 -3063 0
-6755 -4203 0
-4368 -6479 0
2116 10456 0
7680 3562 0
-11750 2024 0
-4146 -9147 0
10639 -12319 0
-8722 -2507 0
-3840 6162 0
6900 -7322 0
7641 -10319 0
3924 6383 0
4508 8337 0
9448 -5672 0
-12408 -2634 0
-7733 5838 0
10379 -11198 0
1594 4999 0
3876 2125 0
9299 -7151 0
-2252 7389 0
3047 -6505 0
-7223 -11219 0
-9752 -8341 0
-5499 -12056 0
9932 -1208 0
-2854 -7474 0
6106 -11492 0
3932 8042 0
10433 1635 0
7608 -10373 0
-1659 11902 0
7747 12133 0
-970 5408 0
8171 -8709 0
10863 1201 0
12117 -5241 0
-6910 7002 0
4942 7706 0
719 -7104 0
12179 315 0
7034 3361 0
-11806 -3751 0
-8618 10802 0
613 -2571 0
-9107 -7673 0
1908 3374 0
6783 9448 0
8515 12301 0
5315 -264 0
-8686 352 0
6829 7372 0
6569 -10574 0
-9212 5381 0
2092 2646 0
-9012 596 0
-3116 7429 0
9051 -3846 0
-6277 -7171 0
-3486 3609 0
2477 -10803 0
-7481 -7205 0
-5827 616 0
8101 9838 0
5334 -7039 0
8702 6824 0
-7322 -5799 0
2658 -9439 0
-3407 -10897 0
-7198 1101 0
-178 5160 0
11689 -2326 0
-8736 6427 0
10532 8074 0
-523 -11842 0
6458 -9525 0
12278 8624 0
-12201 2235 0
9155 11719 0
-9293 4230 0
-9465 -7862 0
-9283 -10992 0
-7076 -9528 0
-11514 94 0
7920 -12074 0
7584 -9171 0
-2659 721 0
-4841 1963 0
7453 -8770 0
12359 1980 0
-3290 8851 0
-6673 -9856 0
6865 -12083 0
11901 5356 0
7359 10926 0
-834 12425 0
10559 -12336 0
7629 8509 0
7079 -9619 0
11861 -11006 0
10267 -9049 0
9015 12138 0
-5413 1607 0
9818 -4762 0
6134 -4018 0
-9847 8224 0
9669 -765 0
-7789 11424 0
11026 10683 0
8647 -10445 0
8113 -9278 0
-1380 -11797 0
1579 -4432 0
-3293 -11781 0
-4928 -11707 0
7536 -5648 0
1974 8573 0
5727 1848 0
-4663 -866 0
11573 -5281 0
-7085 4955 0
-6510 -7596 0
-5071 -7026 0
-12289 2114 0
5863 -586 0
2975 6442 0
3003 -12177 0
6961 8462 0
7278 10864 0
-10522 -11016 0
-4785 11133 0
999 -11463 0
-11106 -1199 0
7989 9470 0
-11433 -2027 0
-6910 2988 0
10767 -2277 0
10873 -653 0
-2549 7957 0
8505 7462 0
3724 -1283 0
-2156 11462 0
-195 5702 0
11527 -4584 0
-128 -6089 0
-9275 6976 0
-9235 1098 0
-4442 -8759 0
957 -6399 0
-11678 5509 0
-2356 356 0
-5612 -8516 0
11403 2508 0
-891 -11932 0
3907 11818 0
-156 6976 0
-2583 30 0
-8232 6188 0
8133 7366 0
3561 -6284 0
-213 -1084 0
5577 7091 0
4209 894 0
11735 -4123 0
-10032 -10776 0
-380 5807 0
2324 11533 0
2079 10610 0
-2770 8842 0
10078 -1418 0
-4322 4790 0
429 7926 0
-12093 7328 0
4522 1537 0
3665 2904 0
11791 -6895 0
-9693 11599 0
-3849 7177 0
-332 205 0
11656 -10273 0
-10364 6495 0
-795 -11765 0
1927 1930 0
-2833 -7168 0
7991 8720 0
1338 8717 0
257 10907 0
12230 -4467 0
2810 4291 0
-8347 6102 0
-6651 -7735 0
11867 502 0
11222 6175 0
3687 -3810 0
-11804 -12056 0
-8741 -281 0
2201 -10669 0
10807 -9523 0
-12323 6003 0
-12193 7145 0
-3240 11883 0
-7455 3791 0
8663 7522 0
2359 11385 0
-9493 -4439 0
-2153 6127 0
-10312 2268 0
-12419 9359 0
8879 -10098 0
-1304 9154 0
11612 11188 0
-11648 -2646 0
-2551 1499 0
4756 -7729 0
1623 6076 0
4039 3217 0
-10739 11565 0
4502 -889 0
-3023 9995 0
5243 -2414 0
-11773 439 0
-9056 -11168 0
-4062 7302 0
10224 -5654 0
7252 -7488 0
-7499 -6328 0
-12188 -5347 0
4064 4060 0
2396 5612 0
1423 -2365 0
-5122 2443 0
-6700 8116 0
4072 -12323 0
-7010 10113 0
-2888 9722 0
-1125 11170 0
-12300 6797 0
3363 8724 0
-6721 -8400 0
-8901 10059 0
3198 11066 0
8047 9279 0
-2133 11362 0
5411 -1378 0
-10194 -3192 0
9201 -7462 0
10978 7696 0
-4863 -2172 0
8990 -11351 0
-230 3962 0
-7877 9001 0
4905 8599 0
2847 11357 0
-5246 -4129 0
11955 -10280 0
790 -7705 0
-8649 7611 0
-9965 -3936 0
-9225 -11185 0
-8349 -889 0
-7164 -6091 0
-6690 2076 0
-2594 6342 0
3557 -7153 0
-11024 3061 0
-2559 -1920 0
-3693 -8241 0
5553 10070 0
7181 -744 0
10309 -9486 0
-6245 8808 0
526 -9092 0
6458 2257 0
5928 -8387 0
1842 4220 0
-250 -2080 0
-4788 -9283 0
5031 -8766 0
-2521 255 0
-10198 -7585 0
27 -9746 0
-10499 -10318 0
697 8155 0
4040 -7017 0
3944 -5684 0
-1748 4767 0
1891 8819 0
-8792 11866 0
-566 10615 0
-4225 -6285 0
-3701 6770 0
-10628 -516 0
1928 5840 0
-568 -5145 0
8677 3262 0
11638 -1218 0
-11208 -11287 0
1165 2816 0
-10511 -1682 0
3455 1801 0
11624 -11807 0
-6334 1997 0
4949 -5989 0
8739 -11938 0
4378 2374 0
-5362 -7446 0
4287 10022 0
-10348 8381 0
2904 -331 0
9395 10101 0
7168 -11877 0
-8904 -728 0
4263 12225 0
-10225 -2766 0
4729 2477 0
7081 -3582 0
-2139 1445 0
8702 -11948 0
4896 9400 0
-9253 12378 0
10648 -11746 0
-5720 -5940 0
-6934 -2320 0
11048 -10599 0
4719 6460 0
256 -3264 0
2984 4637 0
-8530 -9244 0
1832 -9251 0
-6055 6147 0
8534 -2158 0
6155 -7686 0
-11849 1987 0
-10035 3345 0
1892 5182 0
451 9667 0
4023 -7105 0
9683 -11605 0
-8384 -1828 0
3548 -661 0
4208 -11730 0
-4757 -2686 0
10286 8607 0
11357 3860 0
-179 -2444 0
10625 -3990 0
2245 -4107 0
7541 -4490 0
-7657 9489 0
-6347 -8791 0
-9427 6381 0
9888 -6206 0
-5869 -2100 0
-8355 11390 0
5983 8267 0
-4316 -6311 0
-1311 8817 0
8667 10332 0
3522 3656 0
3281 11641 0
8991 -1206 0
3131 -4936 0
5913 10252 0
7233 -2293 0
-6149 -7077 0
-11436 -4856 0
3454 2771 0
-7636 9595 0
-8513 -10899 0
10568 -10923 0
-7007 -3136 0
-935 -8027 0
-7188 11293 0
-7661 -3136 0
-10438 503 0
11016 -10218 0
-3026 10978 0
11712 10431 0
-1312 -3296 0
-8807 4460 0
-970 -412 0
-9887 4595 0
6303 3243 0
-8586 4966 0
9457 -4249 0
190 3551 0
-2806 3589 0
11755 -6050 0
3170 -10197 0
4538 7884 0
-7836 4912 0
278 -9981 0
-5347 -12248 0
-11853 -9603 0
6680 -10557 0
10495 -11317 0
11710 -7340 0
8248 -11531 0
-1657 12147 0
12408 6403 0
3777 -6673 0
8550 -2776 0
-10979 11502 0
2396 -1422 0
8148 -7934 0
-6798 -7799 0
-8625 12375 0
10055 -7402 0
-11788 -9353 0
7890 -7187 0
9475 -10986 0
6861 810 0
10303 -6527 0
-7715 -12397 0
5571 10249 0
4929 4761 0
-425 6555 0
-4442 -8667 0
-1047 -5523 0
6025 9676 0
6367 -909 0
4093 775 0
-2504 -4840 0
-6725 -327 0
10843 2799 0
739 -11057 0
7709 -430 0
-2204 1483 0
3882 9835 0
-1366 11855 0
12375 -10125 0
11431 7588 0
7371 -6479 0
-11616 4176 0
231 6707 0
-9310 6128 0
9060 -10734 0
984 -3678 0
3490 11257 0
-11110 -2096 0
-1535 -1511 0
-7963 -3332 0
4868 6028 0
9740 2189 0
6780 388 0
-11938 11792 0
1952 9903 0
516 -1966 0
-8666 9185 0
8680 943 0
-4017 8206 0
4250 -5061 0
3841 -7492 0
-4519 9342 0
-3412 -9432 0
2614 3602 0
-9329 -11347 0
-3639 8706 0
9079 6656 0
10925 9824 0
-6976 -10869 0
-3140 12324 0
65 8763 0
7397 -8153 0
10388 -1255 0
-8841 -500 0
-4334 -6008 0
-10371 -11887 0
4970 7818 0
-3119 10608 0
-2689 2029 0
1472 -6375 0
-811 3045 0
-1001 6107 0
-2271 10053 0
2480 -6847 0
5725 -4321 0
1298 -11136 0
4003 604 0
7573 -2122 0
11476 11182 0
8310 -484 0
6240 -4362 0
-11996 795 0
5903 -12448 0
-9665 -10411 0
-4932 2189 0
10465 7017 0
-7753 -8733 0
8236 9638 0
-848 5638 0
-10402 -3352 0
-9582 -7974 0
6636 723 0
6189 -11131 0
10430 -11952 0
-11069 -4981 0
-6119 11308 0
-6697 -1530 0
-9944 4178 0
-1042 -11224 0
7396 3838 0
-8108 -1348 0
-8761 -12428 0
969 -11960 0
-9607 11940 0
10622 8687 0
1962 -10523 0
-4564 -2103 0
-1270 7777 0
-578 -9562 0
11817 689 0
-4532 8961 0
473 -1059 0
7442 6825 0
-12451 -706 0
1402 -8946 0
7394 2132 0
-8841 -2663 0
7551 4864 0
10969 3935 0
-188 135 0
12052 -895 0
-128 11157 0
-7431 2727 0
3473 -10662 0
827 4510 0
-11469 -7353 0
10703 5073 0
-1278 -429 0
10126 12390 0
-5571 2017 0
7476 11652 0
9882 -3553 0
9967 -6675 0
12424 3157 0
-5618 8466 0
4312 4983 0
11969 -5823 0
-10591 2905 0
-447 981 0
6768 2864 0
-5537 3212 0
10230 5670 0
-8453 -4572 0
8873 -2366 0
9177 1944 0
-1637 6139 0
-5667 10237 0
-9349 -7270 0
2348 404 0
-10769 1464 0
2545 4389 0
-2352 -8509 0
-5061 768 0
9539 4853 0
-7674 2197 0
-10790 6850 0
8938 10373 0
11190 4892 0
-7614 -7268 0
-6715 -9865 0
3187 -7473 0
-1095 5333 0
-9447 10836 0
-7219 -7368 0
6785 -8066 0
12265 -4119 0
-7543 -114 0
2033 -7208 0
-4725 10120 0
-10712 -7118 0
9736 3783 0
7044 -9702 0
-3138 5044 0
-6254 4672 0
-8507 -10275 0
-2181 364 0
-6414 -2261 0
-10903 -3727 0
-7514 -3511 0
-4801 -2385 0
-4461 -3030 0
11671 -12372 0
-3352 -5412 0
12477 5167 0
-2996 2678 0
-8634 -1496 0
5639 963 0
7250 10440 0
-7154 8481 0
732 -2271 0
-3754 5787 0
11780 -7875 0
-1068 -2634 0
-9346 9596 0
12477 69 0
-998 -3810 0
-9173 -8653 0
-2173 9693 0
-520 -6235 0
10497 10514 0
4743 -2566 0
9735 9927 0
5065 5046 0
6577 3414 0
9371 -2067 0
10408 9614 0
-1328 -6916 0
-7543 10306 0
2776 -6788 0
-1289 -10629 0
3593 11796 0
7889 -7734 0
6523 -4831 0
2735 809 0
-2326 -2140 0
1709 -9225 0
9370 5734 0
2229 -1589 0
7486 8458 0
10474 -3693 0
263 -11973 0
-8570 -3452 0
7367 -1128 0
-8701 -4068 0
-6245 2289 0
1222 -6993 0
-2183 61 0
8944 -2721 0
2752 786 0
-2617 -7466 0
7430 8000 0
6432 -3567 0
502 3265 0
6619 11612 0
11861 -8711 0
-8014 -8422 0
-1624 -10574 0
12065 -11020 0
12364 4527 0
12166 -361 0
-352 3347 0
-2281 -11016 0
-5551 11695 0
5861 9858 0
1379 4840 0
-4967 -5070 0
2641 -1852 0
5313 -5523 0
-9701 -6006 0
-6107 -12074 0
5867 -10317 0
3339 5584 0
-6215 -7103 0
-7930 -494 0
2801 5810 0
4281 10946 0
-8504 9755 0
-9967 10146 0
-4734 6012 0
-10375 -5206 0
4869 719 0
5526 2055 0
-10500 965 0
-3393 5600 0
401 12010 0
-174 -3281 0
3636 11236 0
-8102 -7828 0
-5567 7202 0
-9884 9174 0
5527 -9760 0
11407 -9726 0
-3613 5173 0
-446 -10639 0
4912 -10633 0
11342 8726 0
-1733 -1007 0
5358 -11247 0
11094 381 0
2901 -4785 0
-10215 -10971 0
-6541 12087 0
-5324 -11186 0
-9471 976 0
-6501 -9280 0
5434 636 0
1423 7560 0
-4210 780 0
1909 -2460 0
10817 -168 0
6859 4964 0
-9293 1430 0
6386 7058 0
-3029 -3448 0
163 3685 0
9736 -12191 0
-2877 3646 0
653 -7355 0
-6752 11943 0
5530 788 0
9411 802 0
-5609 -87 0
9099 10096 0
-1337 688 0
12393 8870 0
-3721 7585 0
1587 2259 0
5513 5652 0
-8758 -6907 0
-516 6044 0
3712 -5116 0
-9380 11881 0
4361 82 0
12244 -1125 0
3924 6233 0
-4268 -3332 0
-1461 -4407 0
396 854 0
-499 -7698 0
8398 9083 0
2729 -7415 0
8230 -7255 0
9996 -6702 0
-7747 -1894 0
-10287 6595 0
9945 -2216 0
4281 -10672 0
-1905 -1296 0
9742 10912 0
1495 7022 0
9417 -4877 0
-5346 -6673 0
3049 1569 0
5080 -10993 0
-11893 -9144 0
-9243 10909 0
9051 8312 0
-7891 211 0
4220 11754 0
-7375 -11185 0
-3969 -8129 0
-5659 -5015 0
1227 2742 0
-2530 2868 0
-9662 -9193 0
7331 -4731 0
-2907 -5622 0
-10486 -254 0
-6610 3420 0
-5763 -6229 0
8038 5205 0
-4438 -4927 0
-12346 -1027 0
-8939 1694 0
9396 8412 0
-853 -9407 0
-5433 -9302 0
-10106 -2449 0
-5432 -6948 0
8925 4561 0
11010 -10709 0
-8107 9793 0
-6703 -8138 0
9586 -2992 0
-4543 9393 0
4623 1941 0
-8296 10922 0
-7225 -539 0
-4053 -10815 0
-2216 7878 0
-7557 1813 0
3197 10254 0
1708 4040 0
118 -6935 0
1455 -3832 0
11443 10719 0
3513 7290 0
1893 -9415 0
6344 3206 0
-11363 -1726 0
-9195 12307 0
-8732 10456 0
-4748 -10916 0
-4655 6171 0
10653 5353 0
5924 6463 0
8824 -1380 0
-1462 11590 0
-2127 -9071 0
8609 10180 0
7984 2540 0
-7662 7687 0
5559 713 0
-6290 6898 0
-6925 2447 0
-9720 2159 0
5245 3461 0
2477 9281 0
6795 -4099 0
-1642 -6588 0
-12074 -869 0
-10752 -7457 0
-4438 255 0
2851 -5897 0
-5789 -20 0
8068 5445 0
-4304 -1950 0
-994 1634 0
7579 -5997 0
-4615 11240 0
6024 1074 0
12237 -9828 0
9480 7776 0
-5789 2304 0
-2850 10827 0
9046 -3390 0
2875 -54 0
-11753 -1594 0
9581 9474 0
2182 10440 0
-1162 4549 0
-5039 6885 0
6631 105 0
-1027 2716 0
-5955 1743 0
2649 1069 0
-12185 7757 0
5413 -395 0
1418 6773 0
4785 9871 0
-12159 -2961 0
4246 -5379 0
8865 -3419 0
4796 -3137 0
9347 -3733 0
-10900 2233 0
-4739 -4520 0
-1337 7088 0
-8347 12205 0
-1254 -881 0
-1998 10015 0
2035 -2215 0
7331 -12078 0
941 -10671 0
-8311 -8272 0
-11645 -2042 0
10695 5345 0
-4585 -10691 0
-10851 11349 0
-6160 -3107 0
11825 -6492 0
-11924 -1128 0
7056 -7018 0
8144 -11107 0
-6847 -4724 0
-3129 -9464 0
-7033 -2921 0
-5537 -3340 0
-7398 -7303 0
-9748 -7703 0
-6171 -4107 0
-5860 8482 0
7687 -12464 0
-7384 -6355 0
-2283 4362 0
5363 3495 0
-2361 -10393 0
-753 7905 0
833 -2231 0
-7392 -5699 0
5053 5417 0
351 -9836 0
-11880 7787 0
-9652 -280 0
-11806 4644 0
4474 12183 0
11416 7603 0
-5895 -3833 0
4389 -320 0
11986 2844 0
-4016 -5519 0
-6452 -8420 0
11617 -11234 0
7900 9183 0
-6594 7864 0
-10950 6293 0
2670 -3476 0
8907 -687 0
5653 97 0
-26 -6560 0
51 -4965 0
-10686 4243 0
1250 2422 0
637 11316 0
-2787 -1062 0
-8312 2495 0
4354 8904 0
2416 6650 0
-3319 -10682 0
6568 11447 0
-7036 9394 0
-9198 9056 0
-5638 3037 0
-9016 -2193 0
6123 -10444 0
10624 11747 0
-847 -3491 0
-10971 789 0
2550 -12352 0
-11005 7030 0
-1904 -5999 0
-7531 -3113 0
5347 10401 0
430 -4313 0
-8162 -4528 0
-10188 -8333 0
3218 -6205 0
-44 -10926 0
11719 5887 0
-7598 2495 0
7668 -4037 0
1994 -4675 0
9821 -7608 0
-12033 10774 0
-8149 -12388 0
-11329 -2105 0
-1985 2070 0
5407 4924 0
6891 8231 0
1347 -2362 0
-9221 4207 0
2122 4531 0
2185 9191 0
5708 2793 0
7186 11429 0
-3609 -8768 0
8048 -2116 0
-1694 12214 0
-352 1480 0
-4914 -2468 0
419 8123 0
10532 -12093 0
923 -3346 0
3796 -7733 0
-1414 -12314 0
-9718 -2085 0
9385 -7897 0
-2974 11296 0
-491 -6118 0
5705 10802 0
-2616 -9925 0
-4913 -9218 0
7635 6876 0
-2885 -9324 0
-6365 -1910 0
-4799 -7901 0
-3337 4182 0
8889 -7323 0
-1334 -5115 0
-3747 -3549 0
-10250 -6162 0
-11292 -117 0
12304 6898 0
3982 -4633 0
5610 6005 0
-10770 -7363 0
-5739 -11246 0
-6922 11144 0
-356 -4742 0
-492 10077 0
-12264 3229 0
1614 -5820 0
7663 8244 0
-2885 7110 0
-11407 5897 0
-7766 -7833 0
4966 -5300 0
-1214 -3233 0
-11279 -5601 0
-2782 -6199 0
265 -9390 0
4748 -7654 0
-9764 -3442 0
9101 1156 0
-10463 2912 0
-8712 6139 0
2155 7007 0
4530 -4650 0
-816 -2776 0
6161 7751 0
-11800 -10119 0
-3655 -10326 0
-10835 7980 0
3878 -2748 0
10155 5811 0
-3266 -2947 0
-10330 -10568 0
-4629 -4395 0
-11011 -6422 0
-6373 -5851 0
-4142 -12173 0
-2808 5635 0
9134 -7463 0
-10992 -4130 0
-694 -4315 0
975 -10902 0
-4312 -3319 0
-7231 -1978 0
-7342 5447 0
-10604 -3397 0
7447 -5860 0
11085 -8368 0
7958 4820 0
-4710 -1681 0
5738 2401 0
8575 -8237 0
5956 -7620 0
-4072 -9800 0
3571 4148 0
11074 8207 0
-3027 8599 0
-9651 10370 0
2154 -9458 0
-1400 -11055 0
3487 8192 0
11034 -1843 0
-12197 -12283 0
2251 -10353 0
-6447 -223 0
7150 -10962 0
6742 7777 0
-4753 -1138 0
10507 -6240 0
5273 5328 0
3304 -8964 0
-8968 6562 0
-3201 8008 0
-12191 999 0
12298 -10779 0
-7370 -10860 0
-1583 -1564 0
-11164 -12298 0
-1780 6364 0
-10681 -6100 0
4391 245 0
7315 -115 0
1573 9382 0
2574 -8197 0
-1360 -1116 0
-3077 4466 0
5351 -4217 0
5301 -3036 0
-9678 9413 0
-7845 -3156 0
-10643 -9272 0
9172 11892 0
-9063 -11665 0
2517 274 0
-6379 -12250 0
1496 -3183 0
3230 2519 0
11753 5507 0
-3212 1166 0
-310 10314 0
-8463 -3209 0
5476 8748 0
11050 -474 0
-11965 -7494 0
4113 -88 0
140 -12058 0
1666 5813 0
12001 -5016 0
632 9861 0
-6719 -4922 0
8553 -8367 0
-11174 -7941 0
8959 3443 0
-7730 7063 0
4756 -8647 0
11379 6083 0
-10556 8901 0
-3936 -8040 0
-4181 -2003 0
2389 -1659 0
-257 -5126 0
3018 -6866 0
7800 -1519 0
-6802 6582 0
12166 -171 0
-681 5482 0
9858 -10790 0
-5638 -1348 0
-2204 -3717 0
-11262 -9341 0
11971 -1708 0
-8882 -2676 0
5692 282 0
-3251 -7032 0
-5709 12353 0
3028 11967 0
6295 -766 0
-12105 -9430 0
-5199 -11880 0
-2724 -7935 0
5717 -9435 0
-9615 2012 0
-5520 8107 0
7150 -6657 0
-11377 -8293 0
5300 6863 0
-1278 7879 0
-3799 11763 0
-9600 -5688 0
9101 -2555 0
-9577 -1967 0
-1985 5954 0
9024 -441 0
3364 6260 0
-5520 -162 0
2467 10520 0
-6752 -11772 0
5951 11841 0
-6832 6982 0
-9729 557 0
-3239 1383 0
6400 -1586 0
1837 -10597 0
-328 -7596 0
-11380 5891 0
10941 9270 0
-6183 11815 0
10546 -10414 0
-8311 -3365 0
-71 -4425 0
11071 -9215 0
-2309 1551 0
4901 -11647 0
11068 6922 0
10342 -1503 0
-258 -264 0
-1466 -10070 0
-1588 7357 0
-2672 -373 0
10077 7528 0
4239 1652 0
-677 -579 0
2978 -5943 0
10209 -5062 0
-10015 -5910 0
11879 -11054 0
-6791 8951 0
-11982 11949 0
-3427 -11130 0
-5854 -3586 0
-5208 4401 0
-149 -676 0
-4847 2760 0
-3983 -2636 0
-7534 6312 0
17 -11393 0
8489 -894 0
7859 -10307 0
-1911 9206 0
1885 -10014 0
11610 10285 0
-10926 -4066 0
-4664 1477 0
9895 -7654 0
11660 -9421 0
665 -8623 0
-7763 -10218 0
3731 2145 0
2880 6528 0
12209 2424 0
-1599 -6634 0
-857 -5368 0
-8143 5957 0
2269 2282 0
12381 -4482 0
-3652 -5799 0
7385 406 0
-6186 6582 0
11390 6786 0
-1770 9090 0
-11203 8120 0
5991 9560 0
-10191 11853 0
7327 11610 0
11078 -5334 0
4487 -9436 0
-2944 10862 0
6676 -3098 0
4684 -7666 0
5988 -6578 0
-2313 4382 0
-9552 -2374 0
10559 12344 0
6687 -2579 0
-9288 12302 0
-6682 -10185 0
-3073 11436 0
7709 6236 0
-3592 -11030 0
-10462 -7005 0
10876 -8636 0
2740 5650 0
9517 6075 0
6899 5793 0
-6668 11154 0
6244 7362 0
-11970 784 0
10819 5263 0
3899 -8150 0
-11707 1011 0
-5279 -6975 0
-8456 -2415 0
4460 -182 0
5328 -5797 0
3108 -11227 0
-5246 6333 0
-11890 8699 0
-2566 -9691 0
-12079 3599 0
-8868 -3317 0
1851 4561 0
7826 -456 0
-6207 169 0
10722 2125 0
5269 2799 0
6180 -3956 0
-10232 -10695 0
8878 12095 0
10452 -4819 0
1599 3898 0
363 5098 0
11249 4999 0
-7113 7090 0
10393 4710 0
1569 -1504 0
8136 -3267 0
-11123 6681 0
4994 9497 0
5556 4450 0
352 548 0
-3796 -6634 0
5705 7742 0
5572 5997 0
-11853 12244 0
-754 -4364 0
7663 6857 0
12213 789 0
10974 -12056 0
8560 8728 0
7736 -8733 0
8383 -9391 0
5282 3202 0
-5847 4506 0
-540 -3702 0
9764 -5054 0
-413 -6279 0
-6788 7846 0
-8131 -1494 0
11532 -7696 0
3384 10007 0
-7559 -7822 0
-3407 4170 0
-1041 -7813 0
11367 613 0
8901 -2463 0
-1801 -8067 0
12209 -10672 0
-6183 9201 0
-629 10172 0
-5748 6388 0
-2647 2642 0
2153 94 0
4596 12301 0
-2069 -7667 0
-7421 -11630 0
-5084 2511 0
2437 -11988 0
4456 -7291 0
-6617 4999 0
-12354 4701 0
5739 5895 0
-6128 -4210 0
6227 3839 0
-1024 -10867 0
10702 3849 0
-5687 -5942 0
2792 1236 0
12200 3835 0
4112 11379 0
-5837 -8466 0
4606 -779 0
4063 9453 0
-8003 -7016 0
8066 1993 0
-4417 -2776 0
11001 -3458 0
-2315 -2492 0
383 8165 0
6954 3274 0
-2311 -3941 0
-2531 -4001 0
6822 1422 0
11396 -6680 0
11951 12212 0
9001 11659 0
6899 -9648 0
11914 -10573 0
-6006 -30 0
11840 -2137 0
12152 9797 0
3120 -8221 0
-6680 -1732 0
4882 9040 0
3290 11294 0
9302 273 0
4785 2984 0
5471 5867 0
-5339 7022 0
5027 3596 0
5594 7148 0
4294 -8065 0
-8303 953 0
-3850 8285 0
-10115 9760 0
1665 9961 0
9847 12086 0
-6323 -235 0
3399 3610 0
3675 4261 0
10111 -767 0
-5044 -8119 0
911 4169 0
11957 -12039 0
-12070 3334 0
9196 -6858 0
-3725 8145 0
-4893 -6305 0
12399 8688 0
-605 -4931 0
-5818 12440 0
-7097 3754 0
4941 -751 0
-1150 7273 0
5302 -6005 0
-8272 -12050 0
-8698 -1228 0
695 -4761 0
-11627 -8764 0
11823 6074 0
-1265 10805 0
-302 3800 0
-8631 10211 0
-5034 -9383 0
-4186 1790 0
7265 -4415 0
11040 5632 0
-12308 -9837 0
3898 3966 0
4406 5417 0
-9197 -4873 0
2816 3885 0
-8235 802 0
10535 7109 0
4639 34 0
11489 7448 0
-2137 -12199 0
-9043 8278 0
12085 -5877 0
-10495 4064 0
714 11917 0
1506 6414 0
4443 -11685 0
-5882 1602 0
8710 5153 0
1144 -10365 0
7127 1053 0
-1208 2145 0
-4495 -11564 0
-3830 6867 0
-101 6507 0
-5206 -5860 0
-10373 -6349 0
11439 8283 0
-9557 -10460 0
-5826 9803 0
1868 -7172 0
-10946 -8685 0
-3841 -12445 0
17 8626 0
9358 -3309 0
11126 1244 0
10459 -5818 0
-5061 8136 0
7037 11950 0
-9624 -6667 0
-10937 -194 0
10236 3755 0
10789 -2980 0
-10636 3712 0
-4110 10853 0
-10655 -5068 0
-10985 -3234 0
-1929 5145 0
-10846 -1901 0
-8181 2394 0
-1659 6330 0
3605 4882 0
9707 -11175 0
4089 -3353 0
4460 4523 0
5957 1954 0
2215 -1596 0
-9305 5646 0
-1778 3881 0
7688 -4680 0
-1152 5804 0
-11365 12244 0
11549 -8372 0
10272 -11139 0
-5150 12233 0
-6947 10688 0
7135 1843 0
-10215 5526 0
3826 -5831 0
8482 -9515 0
9880 -6491 0
-7992 2800 0
4382 6265 0
-5715 4732 0
-12021 1542 0
-1866 -12112 0
8737 7806 0
3012 -11687 0
-3745 -8503 0
6215 6856 0
-4877 -7896 0
4585 -4146 0
11027 9806 0
-8600 -728 0
-3180 -10666 0
-3799 305 0
-10363 812 0
8257 11790 0
10355 951 0
6642 -2548 0
6461 -12248 0
-12367 8566 0
6187 3318 0
6569 -10144 0
-198 1850 0
-4575 -2877 0
11803 5359 0
-5729 7622 0
-829 12405 0
-5845 -11029 0
8816 6344 0
1626 -2896 0
-4771 6699 0
-3689 10875 0
5637 1645 0
10180 2002 0
-787 10162 0
9819 -11056 0
-7603 335 0
-11974 -1180 0
-10867 -8578 0
10206 3804 0
3185 -6276 0
-7511 -11798 0
-8798 -3108 0
-4174 6808 0
-9347 4039 0
3467 10453 0
-9842 -92 0
905 -12340 0
1595 -6732 0
-5063 -2877 0
-3554 1558 0
8575 7127 0
-4587 1900 0
1642 -8951 0
-2132 -4290 0
-12451 -11543 0
421 272 0
4134 6778 0
-6220 537 0
-2604 -9465 0
-7792 -8931 0
-10572 8387 0
-28 -1601 0
-2049 4522 0
-9764 -7431 0
3582 -10994 0
2564 3778 0
-8782 -6087 0
-8146 2086 0
-11104 9299 0
-2926 -3117 0
9722 8051 0
-10894 -5851 0
-1487 1945 0
1671 2761 0
12459 11623 0
-9311 11049 0
-4925 1968 0
10219 2220 0
-7706 6496 0
8446 -162 0
-12295 5354 0
-1708 -10539 0
3867 277 0
-5598 4515 0
10371 6794 0
7905 -9795 0
5973 -8808 0
9654 -6382 0
10645 9748 0
10680 548 0
-11199 -5236 0
2903 -1732 0
-9695 -6113 0
-8770 11710 0
-3450 6049 0
9451 5973 0
9196 -679 0
-11033 2847 0
11828 2142 0
-7875 3648 0
-8470 8206 0
-4683 11040 0
6423 4214 0
11382 914 0
5091 9975 0
-31 7275 0
11524 723 0
1847 -11069 0
-9521 9652 0
10837 5567 0
1072 3709 0
192 -10138 0
-11029 8710 0
-1239 6030 0
11045 2284 0
10545 11930 0
-6050 -4279 0
-11369 4481 0
1856 5637 0
1871 -2738 0
-11397 3867 0
4263 11466 0
-3557 9565 0
9377 10391 0
7207 5838 0
-11869 -9002 0
-618 -7286 0
5516 11729 0
-2989 -4890 0
-8635 1891 0
5164 -1145 0
5064 12142 0
4392 -3851 0
-2209 2141 0
-1963 10949 0
7119 6000 0
-2453 -11228 0
1913 -8258 0
4941 -3157 0
2128 -11472 0
-2112 582 0
-1800 -6902 0
446 9876 0
10752 12127 0
1712 -4230 0
-5752 -8960 0
3724 -5567 0
-9730 -390 0
-5865 -10307 0
3686 8699 0
-2667 5496 0
12360 4666 0
-7493 -10528 0
2962 -10082 0
2092 7503 0
7147 756 0
-10240 5935 0
211 6232 0
3032 -886 0
-8770 10509 0
589 9340 0
-1574 2459 0
-2481 -10633 0
7579 10486 0
-10548 11308 0
11973 8983 0
-1429 -803 0
-11395 -7986 0
-1564 10111 0
1380 3283 0
-1588 9354 0
-2491 -9398 0
-10661 -3201 0
1808 -2650 0
11126 698 0
-5509 10331 0
5103 -1543 0
1665 -5173 0
830 -9848 0
-2570 10378 0
-2671 7853 0
7647 372 0
12141 -6745 0
7111 -7981 0
976 -10575 0
-6953 436 0
11912 -9035 0
1897 409 0
1581 -12075 0
-10380 -5001 0
-790 7174 0
-4925 -5220 0
4270 -11479 0
6830 5217 0
-5094 -12301 0
2956 1481 0
5351 -12387 0
6059 10836 0
-6173 7633 0
7046 -2431 0
11037 -2628 0
-2930 4085 0
7192 1951 0
3095 1053 0
4869 -9557 0
-701 -1659 0
-11154 -7684 0
5690 -9407 0
-4299 -96 0
10678 -4006 0
3930 6905 0
-3316 897 0
12178 7663 0
-11070 1160 0
9529 -149 0
-8765 -2651 0
-8442 3624 0
-1907 7186 0
-4682 -3070 0
11873 -4584 0
9178 -3767 0
4133 10657 0
-11628 6971 0
8778 10001 0
11233 7565 0
-6806 -5155 0
-7097 -3151 0
10266 -7504 0
6313 -1854 0
-7914 10922 0
4092 -10922 0
-11994 6965 0
708 224 0
-8626 -6229 0
-11250 9647 0
-6010 -8751 0
-11943 -9784 0
5552 -6969 0
7293 -7465 0
6157 -1847 0
1784 -2614 0
-11569 -26 0
4371 -2298 0
-8663 3784 0
10279 8558 0
8577 3003 0
-3494 -3587 0
12249 -2321 0
7707 421 0
-12266 -8912 0
5229 3334 0
8907 8578 0
2119 -4266 0
-5927 7105 0
-4834 7475 0
8091 9952 0
9771 4487 0
-4137 -11371 0
-12247 -11097 0
2643 8884 0
-1561 10422 0
2786 -6200 0
7955 4003 0
405 -11537 0
2627 2150 0
3992 -11503 0
-5050 2274 0
-3108 -7443 0
8959 -4518 0
-10212 10335 0
-1683 -3445 0
8846 -91 0
6230 8229 0
-221 4623 0
-11956 11812 0
7778 -9570 0
-11608 -2555 0
10599 -2258 0
-435 11882 0
2142 3298 0
10539 -7198 0
5253 10407 0
10544 5107 0
-7125 -9376 0
10329 -385 0
1354 -6953 0
8283 339 0
1487 -1057 0
5167 1664 0
3114 -12093 0
11541 12093 0
-9143 -11333 0
7235 -6615 0
3641 -198 0
2856 -8834 0
-4135 5660 0
-5577 10102 0
-6112 7597 0
-705 -1439 0
-5452 10239 0
-1294 -6090 0
8198 1298 0
-4404 -11371 0
2092 -8529 0
8891 9779 0
-9701 7482 0
11357 5321 0
8720 3872 0
10406 2128 0
-3731 -10930 0
-5359 -9283 0
395 554 0
4523 12231 0
6252 391 0
3784 9731 0
3462 -5638 0
10276 1241 0
6198 10487 0
11813 11784 0
-8443 6161 0
-6252 750 0
-2067 6231 0
-4383 -5094 0
11855 -2019 0
-5275 6513 0
9642 8501 0
-87 1908 0
10299 -7076 0
5913 689 0
-9726 5558 0
8445 -2804 0
-8878 -1220 0
-7237 4606 0
-4829 -1964 0
5726 -7909 0
-634 -5910 0
2813 1359 0
7749 9442 0
2229 4595 0
-6318 -10626 0
10898 -4985 0
-11753 -664 0
703 -10349 0
-733 7968 0
-3796 5834 0
-10709 -4726 0
-5065 -6041 0
-11331 12410 0
645 -3846 0
6613 -2137 0
-1052 9537 0
-12255 9254 0
-2125 -493 0
3411 -146 0
-6075 5669 0
-1737 3496 0
-6654 4973 0
581 -3520 0
7087 849 0
-1065 -12088 0
-2295 5488 0
-1671 -1373 0
8792 -3709 0
8798 8971 0
-564 -2026 0
2619 7709 0
1759 10676 0
-6747 -6505 0
8138 -11411 0
-2356 3654 0
-10157 11590 0
-1948 2562 0
-3117 -11890 0
12131 -11183 0
-5844 -12307 0
-4766 -3514 0
-3837 6000 0
-3942 -5128 0
-7402 -731 0
-3157 1464 0
-5999 5178 0
-10020 8418 0
-2281 -9569 0
6374 9336 0
6428 947 0
-5671 -9271 0
-10964 5549 0
1989 -1227 0
-1003 -8986 0
-10059 -8233 0
4454 -6794 0
-4507 8893 0
-2969 -1488 0
9297 6084 0
-12088 6647 0
-2820 6039 0
-9146 2239 0
1074 11936 0
8044 7199 0
-694 -1187 0
6557 11472 0
-1381 -4523 0
-2965 -1566 0
-4636 1317 0
7274 5902 0
-5489 -5736 0
-834 1642 0
-11993 6749 0
701 -4776 0
10308 -9258 0
177 8889 0
-6523 3551 0
2457 -2339 0
-1103 10077 0
490 -2985 0
-8858 -11874 0
-2474 452 0
9290 6928 0
-10042 -6445 0
4469 -4615 0
-8691 -11569 0
-10185 -4149 0
1616 -288 0
-9359 -10923 0
-10517 -7700 0
3968 -150 0
-6774 636 0
-5528 12390 0
-10797 -1017 0
-2841 9305 0
9302 -9123 0
-264 -12383 0
2963 -6800 0
-7814 4049 0
6148 7561 0
9673 -3126 0
11236 2513 0
-9079 -8775 0
-1932 10800 0
8012 996 0
-8493 -4756 0
-7746 218 0
-10019 9668 0
10488 5569 0
5272 3730 0
8907 5837 0
-5829 -1811 0
11066 -9454 0
-4318 1111 0
12280 -5536 0
-9390 -249 0
525 -3463 0
2628 -1024 0
-6612 -5537 0
-5363 -8351 0
-9856 -3511 0
10285 4954 0
-7132 12382 0
-5841 -300 0
-11073 -2104 0
2331 -9645 0
3020 -9805 0
4076 1123 0
-11452 578 0
-2278 -7186 0
2599 -5088 0
2497 -7026 0
2003 7524 0
-3467 7774 0
-6688 364 0
4669 -3477 0
2012 7507 0
2017 4580 0
-4008 11560 0
1999 -6030 0
-11418 9408 0
2338 7963 0
8711 6962 0
3077 -2409 0
8548 4158 0
-4365 -6163 0
7601 11574 0
-9929 8932 0
7957 1203 0
4023 -7300 0
-9167 -12476 0
9320 -8865 0
5281 6251 0
-4349 3575 0
-9617 -2902 0
1947 7065 0
-237 -11166 0
-1000 7105 0
10070 2762 0
-10743 -5248 0
-3488 -10115 0
-1514 1863 0
11321 6078 0
-5583 -5664 0
-3639 -8660 0
11179 4562 0
3304 -8121 0
-4316 -6026 0
-5183 -6837 0
-11067 6828 0
-10194 3200 0
12185 9227 0
11552 -386 0
1848 -11041 0
-4011 788 0
-8824 -1042 0
-9298 -9178 0
-492 -4519 0
-3622 8349 0
11443 745 0
-7347 -8460 0
12346 10644 0
2503 -9599 0
6710 -12192 0
2008 9448 0
-10053 5839 0
3754 -8081 0
-3936 -1178 0
-7908 5694 0
-9283 -12359 0
-12288 4740 0
-5107 6710 0
-1936 1725 0
-4622 -4952 0
6160 -988 0
8415 -5111 0
-1326 5956 0
-3478 6535 0
-6101 -7181 0
9558 1033 0
-5007 -181 0
8853 -8752 0
12416 869 0
-10855 1069 0
207 -801 0
3179 7217 0
-3622 5818 0
-5007 9557 0
-11778 6366 0
-6175 1111 0
5682 5801 0
2335 -5666 0
-5381 -7751 0
207 11952 0
-5144 7601 0
-11078 1559 0
-9145 -8255 0
5047 1487 0
-4517 11245 0
2500 -7626 0
-12262 5150 0
6002 -6936 0
-2670 -7254 0
8929 -9614 0
-9759 7357 0
-7376 11403 0
5278 10043 0
-10990 3952 0
3327 6880 0
11549 3568 0
8302 1519 0
-9269 -6526 0
-4543 -772 0
10359 8053 0
6029 -10294 0
-5018 7732 0
-8139 -12093 0
-8345 31 0
-4372 -8138 0
2239 -7349 0
11932 -6761 0
-2091 -4892 0
-5118 9469 0
-3919 -214 0
12438 3198 0
-7795 2787 0
-12097 -3731 0
-11909 -12445 0
3215 2088 0
-102 4044 0
-7617 6301 0
-11570 4871 0
-7630 4198 0
6583 7347 0
9014 -6433 0
-3234 4590 0
4548 9066 0
-5341 -8064 0
-5924 8000 0
5783 5584 0
-11164 -2995 0
6070 2364 0
-8041 1363 0
5997 10185 0
-912 4345 0
10249 -8142 0
6909 -5219 0
3907 2011 0
-1416 -2473 0
-10476 3601 0
410 1820 0
-6692 -2369 0
-12088 -2473 0
6411 -11937 0
-5077 8922 0
-4454 -9378 0
10860 5779 0
10949 -11691 0
-5831 -11116 0
2333 -5992 0
-5623 -9658 0
5988 -5730 0
-230 -9786 0
-7261 -9929 0
-4043 1076 0
3685 748 0
-10518 6078 0
-3549 7099 0
9137 251 0
-5899 11843 0
3719 7862 0
6513 -1757 0
6515 -10743 0
2377 1936 0
-4877 10041 0
-5518 -7661 0
-802 -9325 0
7978 -747 0
-4792 -9081 0
7297 627 0
2015 526 0
-11587 -2339 0
5891 327 0
12277 -2489 0
-7161 -10158 0
-765 -4354 0
12031 -6894 0
-1823 -12132 0
3065 194 0
4221 3423 0
-7462 10738 0
-7913 9489 0
-11888 501 0
-3486 -8723 0
7630 1493 0
-4090 6997 0
-1661 6260 0
-9568 5168 0
-259 12110 0
-480 1243 0
7808 -827 0
-1038 -2806 0
-11503 -4615 0
286 2896 0
-5292 -7251 0
2414 8966 0
-3831 5303 0
-8544 8437 0
-12364 -9938 0
6737 -7224 0
6698 5670 0
9397 -8998 0
-2613 -2287 0
5002 -1191 0
11783 -3057 0
-301 3926 0
-2974 6685 0
-3929 -2590 0
-8189 -8041 0
8930 11220 0
-9410 -4694 0
-9191 -1526 0
-11839 -4629 0
-2739 426 0
11898 -243 0
9571 11093 0
-10482 3672 0
-5013 -739 0
6147 8339 0
8884 -12236 0
9779 5768 0
-4612 -6462 0
6825 9521 0
8331 -1059 0
-678 6462 0
-6496 10110 0
6924 -3275 0
5463 -10818 0
9222 -5958 0
-7607 -11111 0
4730 960 0
-7294 -7857 0
1987 -3744 0
-3606 3472 0
10675 9497 0
-8891 -7316 0
-2998 10084 0
4742 8843 0
11394 -5396 0
7006 7121 0
-10880 5703 0
-3785 8673 0
-5565 -5812 0
1261 -8625 0
4579 11795 0
-10600 -10929 0
6960 8314 0
-5220 -1756 0
7613 2570 0
1069 2670 0
2099 -6946 0
-10044 7262 0
4131 -12061 0
-9006 -5393 0
-239 -1545 0
5741 -3969 0
-6757 -7937 0
-10992 12169 0
-8099 -5612 0
3483 3751 0
-5756 -4476 0
10393 6818 0
2297 7583 0
11748 -3880 0
-8750 2330 0
8180 -6800 0
-985 12463 0
-11894 3771 0
-745 -8589 0
5258 1959 0
-5153 7153 0
-7000 -6277 0
-12066 -10308 0
6778 4325 0
3500 9808 0
11754 -1611 0
-1332 -2740 0
9654 -2091 0
-10903 1747 0
-11303 -7196 0
-1264 4496 0
5833 -9016 0
4622 -4255 0
-6353 8928 0
9386 10078 0
-8194 3328 0
-6529 3157 0
12111 -4327 0
9373 -7667 0
9977 879 0
5298 1511 0
5610 1909 0
-2928 11317 0
11021 -3271 0
-10991 -1711 0
11321 -8274 0
-4355 -9338 0
-2446 -11252 0
-2097 7273 0
-2691 4530 0
825 -712 0
7196 11845 0
-6022 -1320 0
-7784 6732 0
2870 991 0
-6417 6171 0
-1095 -8170 0
8413 4932 0
-8625 -1115 0
-9161 12275 0
5481 -4010 0
-8162 -3842 0
3971 3873 0
1960 -7396 0
8053 8617 0
1846 -2902 0
12158 2405 0
-5217 -959 0
6831 -11504 0
-7794 9690 0
7610 2269 0
455 1621 0
5921 -701 0
10714 6051 0
11242 -5018 0
-5980 -6392 0
11768 11111 0
-8212 12352 0
1915 12226 0
3682 -10598 0
6670 7483 0
-8918 7230 0
6732 -2154 0
-7070 1271 0
-3974 12029 0
-3487 -9087 0
-7249 -1639 0
-5866 7553 0
-576 4227 0
-10002 3597 0
68 9387 0
-10076 3234 0
-2544 -9494 0
-12338 -9615 0
-8676 -4784 0
-3281 7198 0
-2629 -3632 0
12280 -6662 0
1872 -7676 0
-678 -2987 0
-7733 -6296 0
-2944 8613 0
7904 -297 0
-2691 3209 0
-7532 -5347 0
-3555 9697 0
-9850 -5219 0
7308 12065 0
-5175 1722 0
-9272 641 0
4790 11302 0
-5581 -6767 0
-11636 -8477 0
-3596 -3421 0
1951 -4173 0
4963 -9357 0
-9248 2284 0
-6446 -1516 0
-5680 -11070 0
-8437 3467 0
-8663 6642 0
8430 -3158 0
6846 10569 0
-4475 -4629 0
-11081 3061 0
8011 1550 0
-7166 -11374 0
-4147 -8177 0
-4008 -431 0
-8826 -230 0
-10978 -6900 0
10607 -11556 0
9217 -4598 0
-8084 10957 0
-12112 6270 0
-2228 5838 0
-4923 9162 0
-3821 -2704 0
-9303 8048 0
-4649 8669 0
-8716 10393 0
-11699 10930 0
8111 12328 0
-5214 10758 0
1608 12191 0
4182 -4846 0
-233 2386 0
-1657 -7891 0
2316 7792 0
5447 -7860 0
-10463 9703 0
-2332 -7706 0
-8884 8229 0
-1341 12095 0
-4529 7714 0
-2224 4712 0
3325 -11665 0
21 8430 0
-7864 -10018 0
-1463 10952 0
7722 -10765 0
313 -10434 0
-11353 6692 0
-3395 -10531 0
6759 -3530 0
-5264 -6661 0
9954 -3854 0
9306 -7045 0
-11483 -10164 0
11225 -6008 0
4836 -7038 0
6260 -1152 0
-3171 -11031 0
4619 51 0
2184 -9718 0
-5307 -8081 0
-8103 -9310 0
5865 11000 0
9513 -6139 0
12386 4521 0
-8685 -1675 0
9517 2333 0
-121 5834 0
4695 3414 0
-3233 8604 0
-8820 1431 0
6649 -11968 0
7599 3170 0
8946 -11098 0
1127 -5055 0
7972 -8790 0
5585 -12136 0
446 2701 0
-3495 -1006 0
6733 -10841 0
10430 -8366 0
-8441 -577 0
8342 4830 0
11475 -370 0
3762 -114 0
3028 4406 0
-1384 -2395 0
-7829 -9822 0
-863 -4054 0
-2787 9887 0
3144 -770 0
-2588 7238 0
-10835 10276 0
1976 -12287 0
-8090 5865 0
7407 7877 0
-6170 -2721 0
9164 -3365 0
3612 8155 0
-9102 -1466 0
8623 6674 0
1968 -4082 0
-7627 -9329 0
2152 5921 0
-11683 -8833 0
810 -9674 0
3592 -10274 0
5458 7714 0
-6816 -11712 0
3456 -5663 0
-9964 7350 0
5714 -193 0
8914 12176 0
5580 -5074 0
-793 8897 0
5351 -4487 0
12315 -5450 0
-11477 -1904 0
6630 -11130 0
-9689 -593 0
-10087 10804 0
6928 9155 0
6857 12346 0
4169 12378 0
1669 -10695 0
6078 -2564 0
848 9090 0
5441 -12363 0
-3206 -3716 0
-8084 2579 0
-5017 3340 0
-8350 -5255 0
9570 -2636 0
-3581 1909 0
-813 -6221 0
-9795 -4313 0
7447 2124 0
-120 4691 0
-10487 6389 0
-8870 -5694 0
4566 8376 0
-1111 -8754 0
11447 7098 0
-12365 9756 0
-1897 -6539 0
-6314 -1266 0
-8907 -799 0
5806 5761 0
-5126 -10096 0
4858 1489 0
5393 -3162 0
5057 6460 0
-4629 2066 0
-5851 5190 0
5647 2093 0
1315 2903 0
-4369 1603 0
-614 -3999 0
-3925 -10884 0
-1220 -2489 0
3568 -12203 0
9933 -11323 0
7372 -11967 0
3146 683 0
-6521 -11814 0
-7468 -5381 0
1030 4912 0
-5525 5760 0
-5066 -7488 0
5310 8521 0
-1862 -2024 0
-3281 12400 0
-5925 -3921 0
2034 7468 0
8474 1188 0
-4400 6065 0
6478 -12157 0
4719 -6037 0
11706 -5801 0
-6780 -1274 0
5009 -767 0
-1038 4604 0
-2444 8173 0
2735 -12446 0
-9118 -5034 0
-334 11543 0
8490 7852 0
-12211 -12359 0
-136 -3615 0
-8980 2964 0
-7057 -9202 0
11525 -11006 0
590 3240 0
490 12389 0
-3861 5400 0
147 -1543 0
-2474 -10301 0
-661 -6988 0
-12161 -4289 0
-4102 -2017 0
-3803 -6956 0
1325 9976 0
-7562 -8691 0
-5006 -5750 0
4862 -11177 0
-1942 -260 0
4300 -5364 0
-11200 3565 0
6519 -1827 0
5492 1313 0
4523 7488 0
-4470 -12466 0
5137 -7481 0
6329 -4557 0
-5549 -3232 0
-951 10870 0
10041 2310 0
1729 37 0
-6250 -1764 0
-5137 -123 0
9852 11185 0
-4104 -4200 0
2230 -5036 0
-5606 4941 0
-8946 8407 0
5019 9639 0
-6838 9959 0
2862 784 0
-9566 -3997 0
-1908 155 0
-4311 -5390 0
-11392 -2507 0
-3957 -8650 0
7367 -10808 0
-12266 8305 0
-1579 9493 0
-8362 -8472 0
7635 -12202 0
6249 2247 0
11621 -7217 0
-2945 6654 0
-7461 -8501 0
-10157 6991 0
1712 10810 0
2861 1101 0
552 -123 0
10642 12411 0
-6254 -12317 0
-5410 -9844 0
10576 -5770 0
-2252 -4340 0
4607 1820 0
5394 688 0
-4078 11490 0
709 -5260 0
6343 -12409 0
5971 -5733 0
7099 -9453 0
-4429 1457 0
-2173 6400 0
-5137 -5091 0
-4833 6986 0
6200 5785 0
8116 -9666 0
-12347 -8784 0
-4939 -6137 0
1607 -6552 0
211 -9030 0
2452 -4657 0
-8841 6219 0
-9379 1091 0
510 4228 0
2220 -1158 0
8222 1218 0
-11234 31 0
11939 -9182 0
-6057 -4634 0
-3000 -11080 0
2044 -2361 0
-4301 -6766 0
-5461 -8006 0
11072 -7631 0
-5985 5973 0
10068 9490 0
-3010 -11965 0
-626 -5150 0
-6287 -3509 0
-6507 2137 0
-4078 -10601 0
6113 12163 0
-30 934 0
-6183 -5046 0
-9518 4021 0
3548 -9652 0
7297 9816 0
4405 2761 0
-7392 461 0
6316 5145 0
1884 -3734 0
-10058 -10554 0
2441 -11755 0
-10992 3568 0
-6840 8675 0
572 12464 0
3904 -8400 0
-6886 8768 0
-417 -3754 0
-4972 -6934 0
3563 2765 0
1204 -812 0
6082 -4174 0
-561 2035 0
3912 4098 0
-9354 -189 0
5147 -5961 0
-2009 6899 0
-4432 -2818 0
-4053 997 0
8207 -11794 0
-848 -9116 0
-11470 4930 0
2561 3280 0
10377 8276 0
-4599 -11385 0
-6022 7206 0
6543 4038 0
-9671 7064 0
6475 283 0
-4118 -2799 0
7422 -5775 0
-9929 -10414 0
42 4376 0
6306 4635 0
3507 -9744 0
-6506 10355 0
-4267 9226 0
-11701 2147 0
8236 3482 0
-3883 -6894 0
-6755 2677 0
-5438 10412 0
-7421 -6335 0
-5509 -323 0
6896 -387 0
-1381 -7383 0
2991 9480 0
10089 -5310 0
-6080 8557 0
-1382 -196 0
4913 7131 0
10817 -5538 0
522 -8490 0
-6418 2270 0
7796 -8121 0
4562 -7504 0
4253 398 0
12305 -3438 0
-7902 -8313 0
-2904 -5173 0
6526 -4819 0
9744 -8131 0
7692 2367 0
-10531 6031 0
8167 4692 0
12332 4151 0
10776 -6283 0
3403 2341 0
-2689 191 0
11495 11695 0
-6532 5066 0
4626 -1754 0
-3104 8424 0
-4252 11228 0
-5826 -2569 0
-7570 -2959 0
-6621 -7103 0
-3610 8373 0
-11369 -2257 0
-1708 -10700 0
2489 -12014 0
-7348 -335 0
-10655 -12392 0
-3326 9359 0
-8746 -7801 0
-2770 2494 0
-2835 -8570 0
10876 7926 0
-8190 -6190 0
-4702 2586 0
-544 -12 0
4173 -3518 0
-5127 -5656 0
9758 -827 0
241 11991 0
-7277 -7614 0
-6853 -11318 0
4086 -11738 0
1600 3985 0
-1957 -3653 0
11037 6053 0
11362 -3868 0
-3833 -3529 0
5395 -9840 0
-10375 -9123 0
12081 -4851 0
2404 7091 0
3282 455 0
1976 -5366 0
-12046 -10171 0
-1502 9187 0
-12419 -977 0
8146 -5596 0
-1158 -7518 0
-9556 10544 0
10775 -9018 0
-899 4067 0
1883 510 0
-187 3294 0
-11638 -2686 0
11828 -7175 0
9191 -6551 0
-6252 8577 0
-9179 -6728 0
10209 -10261 0
-2561 -11266 0
3114 729 0
-6032 7091 0
10347 -1576 0
3261 -12214 0
9537 -12187 0
-11070 -874 0
3998 4223 0
5405 -2245 0
-1490 -680 0
-3043 -11905 0
-10490 5583 0
7069 5866 0
-8073 -12282 0
10909 9873 0
8834 -1995 0
-705 8837 0
727 6294 0
-10651 -3655 0
6205 -8981 0
479 1366 0
1971 12174 0
-2521 -3553 0
10458 4270 0
-2650 -5320 0
4506 -2981 0
-5204 5163 0
-1178 -8366 0
10321 6632 0
5934 -9336 0
7487 4405 0
6711 -12178 0
-1086 82 0
9072 1822 0
-8391 -6963 0
6464 -4507 0
5115 6822 0
12029 149 0
-2246 -60 0
-6854 -8948 0
6704 6794 0
8861 -6337 0
7238 8876 0
-1010 -1080 0
-4855 11445 0
-12143 -12221 0
-1220 10718 0
7373 -9979 0
2840 -6589 0
4540 2078 0
1026 -3560 0
-3865 63 0
-3284 -4328 0
8306 11783 0
1122 4067 0
6716 10823 0
-5119 -8130 0
10206 -11374 0
-11730 11826 0
4744 -10778 0
-11239 8971 0
2760 -6214 0
2401 6487 0
-246 8060 0
3995 2282 0
-6627 563 0
1773 -5368 0
-4208 6169 0
1968 1520 0
-11459 5196 0
-1292 8107 0
6744 -1482 0
7873 -10446 0
-5281 4494 0
-8499 2657 0
1984 4271 0
3107 -6214 0
-6324 5280 0
-7083 12059 0
-1068 -6349 0
-6446 -10782 0
901 -2368 0
-6552 -7130 0
-254 -375 0
5400 6819 0
6516 11786 0
-12016 -9600 0
-9929 11977 0
-4888 -7565 0
8130 -10531 0
-11753 -4446 0
9912 1003 0
3992 -9776 0
-5377 11709 0
9396 712 0
4841 -5482 0
-387 -2626 0
-9723 5421 0
-5252 -6414 0
-8356 2236 0
8779 -12082 0
-10523 -9557 0
4374 337 0
11003 -4633 0
-8946 3608 0
103 -8121 0
-1037 -2926 0
46 -9084 0
-1393 5059 0
-4972 -3213 0
5137 -11301 0
3039 11965 0
-9604 -9261 0
10762 11743 0
7446 11633 0
7268 768 0
11075 -10755 0
-204 -1443 0
6325 842 0
9444 -3759 0
-2361 -2243 0
1167 -346 0
-2216 2240 0
-1843 7121 0
934 5031 0
3606 -1685 0
8512 -9237 0
-8962 -213 0
-9832 5260 0
3831 -720 0
10658 5840 0
-6203 9610 0
2235 231 0
2433 919 0
1628 11742 0
-9283 10468 0
6561 11099 0
-3744 -5525 0
-12067 -6984 0
-1208 107 0
6294 -5204 0
7299 -477 0
3929 -6483 0
-10147 -1879 0
-9661 -5580 0
9854 -3365 0
-7970 3561 0
-880 -11418 0
-1985 9727 0
8412 -11092 0
2535 2516 0
-6142 -5729 0
-4905 -10300 0
4405 -4803 0
-10636 2167 0
-5906 -12345 0
1457 -346 0
8893 7171 0
-11363 -4991 0
-6220 10645 0
7635 -4969 0
10569 5899 0
1869 6724 0
-2690 8 0
-5921 -3161 0
2009 -2914 0
10492 -3909 0
1309 -3635 0
1883 8430 0
-11891 -5597 0
-137 -9149 0
-10035 6584 0
1984 -12265 0
-4687 961 0
2922 -2960 0
9055 3745 0
-7411 -7077 0
9681 -9718 0
-11956 -11156 0
6693 231 0
-5388 -8746 0
-599 -6141 0
9720 -887 0
-6832 -5827 0
847 6063 0
11146 -11276 0
3207 -7045 0
-4502 4329 0
-10460 5280 0
-12359 -881 0
-8014 5409 0
-3916 11612 0
-665 4056 0
-191 10386 0
-6670 436 0
-12292 6584 0
899 10237 0
10977 10722 0
1221 -9689 0
4049 9041 0
-5918 -6337 0
-179 4025 0
7723 -10685 0
7846 -226 0
5866 8067 0
10164 9178 0
10711 -11256 0
-5573 3543 0
-12145 -4517 0
10756 -5248 0
330 4585 0
-2585 2805 0
-3881 -6840 0
-846 11042 0
10963 -7777 0
-9678 -6512 0
3071 -1631 0
-12039 -1057 0
4207 9724 0
-6219 -10159 0
10737 10866 0
-1056 394 0
-5282 12344 0
-7952 -8432 0
-1208 2006 0
11046 -9322 0
8104 8176 0
4409 5945 0
3982 -2471 0
-4439 2298 0
1726 9062 0
-9433 -302 0
3607 -1327 0
-7858 8368 0
-11205 5428 0
9691 5527 0
2875 12384 0
6776 12073 0
-7620 -8024 0
-7285 10524 0
-4250 7279 0
1135 -5780 0
-9840 -2553 0
-9939 10070 0
-11476 5207 0
1393 -319 0
693 -2802 0
-9678 7035 0
4607 -10556 0
3459 -1502 0
-7696 624 0
7923 -8339 0
-5989 1310 0
-11940 5528 0
64 -1636 0
3609 5104 0
9619 -367 0
12426 635 0
7333 2676 0
975 -4137 0
-1728 8528 0
-7566 -7737 0
8950 -6947 0
-5794 -41 0
-6005 -1395 0
10777 -9476 0
-11821 2695 0
3156 5190 0
3811 2458 0
-10435 -5765 0
11255 -11040 0
-4866 3316 0
4265 8269 0
-1107 8397 0
-8345 -7970 0
-399 -4063 0
11611 6049 0
12451 -4172 0
8002 -9736 0
-11640 10645 0
40 2916 0
-8072 -6853 0
9271 -3404 0
-11154 7360 0
-4121 1860 0
-12446 -9265 0
2228 -6646 0
3004 6568 0
7432 -10842 0
1792 -11812 0
-11154 643 0
2556 11358 0
-4738 1279 0
9053 2981 0
11358 -572 0
11383 10243 0
-6140 -1783 0
1976 -9687 0
55 -3881 0
-4888 -9022 0
-3301 3646 0
6000 4540 0
9023 -1675 0
-9436 9521 0
3829 10403 0
-7607 8553 0
4951 -10906 0
9831 -5973 0
-3164 -10767 0
-7204 925 0
233 -6836 0
-11100 -8208 0
5700 -1721 0
-2806 9833 0
6473 -3870 0
-3796 -8461 0
-3909 -6598 0
-11080 2297 0
-1757 -1172 0
-7168 -7270 0
4729 11838 0
10830 12161 0
5748 -12178 0
9299 -6639 0
2317 -4892 0
-8621 -7713 0
-314 -704 0
323 5202 0
9348 5967 0
-1404 -7293 0
2230 -5206 0
-3940 -6897 0
-7944 1961 0
3378 8203 0
4252 -11040 0
-5024 -3224 0
-11146 -11250 0
2515 -10410 0
8492 -11999 0
-8503 -6208 0
-3116 -8720 0
9255 5291 0
-9992 -7558 0
-10727 6088 0
6109 -5592 0
7399 4781 0
1167 -7353 0
-3036 12188 0
6667 -10014 0
-8347 6011 0
-8177 -4041 0
-11800 1891 0
-11993 -7855 0
10962 6111 0
4592 -7422 0
-3255 5951 0
-3615 -1468 0
-1798 5673 0
5447 -7656 0
-11711 195 0
11660 10453 0
1804 -5879 0
-6651 -5002 0
-4629 -4909 0
8776 11695 0
-7568 -9509 0
8053 1551 0
9513 2175 0
5883 -11372 0
8952 -12272 0
8969 6248 0
6551 5205 0
10631 -5856 0
11490 5778 0
860 -9363 0
-4433 1827 0
-891 9263 0
3078 3307 0
-3984 10332 0
4899 -1916 0
9443 3548 0
-2578 10671 0
7267 -4054 0
-6214 84 0
10634 8620 0
2978 5861 0
21 -4297 0
-7903 -593 0
9531 -9123 0
4262 -6468 0
98 -8792 0
-8648 12293 0
-6570 -11963 0
-11801 2284 0
6237 7883 0
7732 -9194 0
973 -4676 0
-8407 10492 0
-11029 6451 0
7588 10244 0
1304 845 0
9959 11554 0
-7628 -7103 0
-8484 5669 0
-647 11776 0
8036 7770 0
9714 -7831 0
-8564 -2507 0
-5428 532 0
-5056 1877 0
-691 -9958 0
1721 444 0
8737 11257 0
6719 -9020 0
-3176 -11603 0
-8606 -8358 0
-2362 6260 0
-8885 10254 0
-5032 6196 0
3519 -12407 0
-1572 1924 0
-10140 -3306 0
11482 -5859 0
3097 7515 0
-2415 -8879 0
4611 -4022 0
-2179 4468 0
-6499 -10748 0
9603 -10562 0
-10907 11295 0
-6402 3794 0
8523 -11596 0
8528 6621 0
-11685 12392 0
8677 10650 0
6436 -7078 0
-7213 -6290 0
10806 -5372 0
1109 10662 0
-933 7047 0
-8686 -6045 0
2837 -11745 0
-11485 -1661 0
10430 -2982 0
-4898 -5649 0
-11267 4823 0
-4945 -4302 0
-10399 4074 0
2274 3058 0
-4887 -9847 0
4193 460 0
5250 -3095 0
-10339 1539 0
-1437 11681 0
-3539 6050 0
9001 -8331 0
11986 203 0
-5585 -2075 0
-3368 17 0
6743 10440 0
3075 -11874 0
1301 11469 0
-4335 1590 0
5868 8928 0
-2856 4770 0
1930 -7006 0
-5082 -466 0
-10548 -5521 0
3917 -5112 0
-5680 9193 0
8895 -7798 0
2824 -11819 0
6227 -4506 0
4342 -3566 0
-10779 -7412 0
4753 1397 0
11759 -3650 0
-5735 7726 0
-1833 7207 0
-10228 6806 0
8961 6596 0
3236 10366 0
10866 -1054 0
-826 207 0
6594 6584 0
-6324 -5844 0
-9948 10737 0
12160 5696 0
-1230 -6700 0
-5786 -3646 0
-3159 -1826 0
-5824 9106 0
-7833 -1472 0
-4137 -8761 0
-3354 10608 0
-1412 -2101 0
-9803 6388 0
-473 -4319 0
9503 -11932 0
4434 7989 0
-3767 -1600 0
-10388 11499 0
11001 -3683 0
-5113 1492 0
11697 -5675 0
9767 -6372 0
2389 1146 0
7578 -2444 0
451 5277 0
1881 8774 0
2377 362 0
-12407 9161 0
2089 -9056 0
-10807 6850 0
5077 2817 0
-2231 7809 0
6060 4616 0
-2702 -1020 0
-9844 -3958 0
9612 -7545 0
1523 -2101 0
8147 4171 0
-5946 12287 0
-7312 -5292 0
5149 9014 0
10451 -6990 0
4128 1599 0
6376 -1577 0
-8198 11610 0
-10749 10443 0
-11248 4488 0
4756 7491 0
3516 -4797 0
11707 -10032 0
11233 -1754 0
1865 245 0
-9574 -8896 0
-7096 -10414 0
9428 6086 0
-3289 -8620 0
4968 -9729 0
11472 -12158 0
-9670 8165 0
-11303 11636 0
-1978 689 0
-2269 3762 0
-12288 -10145 0
9271 -8732 0
-9303 -6352 0
-3913 -8736 0
-10123 1273 0
7856 6471 0
11686 12289 0
7745 -969 0
-5847 -149 0
-10327 5249 0
2201 698 0
-4859 -9781 0
8517 -11047 0
11888 991 0
6935 -1267 0
907 1326 0
-6014 -1781 0
778 -11794 0
-5212 4911 0
5684 -10124 0
2192 3445 0
10555 5921 0
-9405 9105 0
3851 -8789 0
1500 -10208 0
8389 5702 0
-11989 -6979 0
-473 -4804 0
5302 10452 0
5256 -2634 0
7728 11416 0
5685 8514 0
-12120 -10951 0
-11616 -2183 0
-10540 6437 0
11906 -4648 0
3553 -2559 0
-1440 9442 0
2764 -2337 0
6596 8815 0
-10852 -7355 0
12097 -5686 0
-7440 -8541 0
-6620 -3359 0
-8116 -8905 0
8349 -896 0
5964 -5048 0
11686 -12001 0
-11361 1573 0
6803 -10222 0
8067 -5491 0
4005 3454 0
11591 -2474 0
2123 11999 0
7839 -4053 0
3548 -10895 0
1110 819 0
7953 5457 0
1002 -9531 0
7984 -7601 0
-7136 -3019 0
10933 6695 0
1368 5493 0
-4515 1764 0
-9820 -7673 0
8082 445 0
-6684 -11156 0
11495 -816 0
-9822 -12437 0
4135 -7511 0
10610 -1057 0
5683 10798 0
-10284 8082 0
-5875 -10463 0
-5676 -4070 0
3008 11155 0
5974 10544 0
-5851 -9395 0
11443 11563 0
2281 -3645 0
9677 3466 0
-5760 -1444 0
423 9859 0
-708 -3392 0
7584 -10677 0
12126 9583 0
9046 -1275 0
9674 7622 0
5650 6421 0
6226 -543 0
11405 5655 0
-12473 2021 0
-433 9633 0
10923 -10750 0
-5537 -8764 0
-8375 2245 0
9169 -11147 0
7878 6970 0
9978 -56 0
8077 6315 0
4366 10358 0
4621 -673 0
-840 9738 0
-11929 -7397 0
6095 -2984 0
-114 4824 0
-10086 8945 0
8692 2016 0
-7835 -1553 0
9864 883 0
6126 2145 0
10272 -4379 0
-12010 -4350 0
4114 -9296 0
-11522 -4024 0
-12308 -7232 0
2487 4662 0
1872 2061 0
5682 1882 0
-7152 3197 0
-790 6928 0
-2497 7596 0
-1780 -8355 0
-1174 -8210 0
420 -4968 0
-3229 1736 0
-1526 3431 0
-1237 3522 0
-10629 2716 0
-4048 -8321 0
5876 11210 0
3202 -7485 0
-5979 7822 0
3198 -1044 0
6886 -2612 0
2037 -1043 0
9725 1131 0
-9379 -10138 0
-11268 -9324 0
3440 -1509 0
-4497 4165 0
-4203 10761 0
-11520 -5803 0
5257 12233 0
-11395 11326 0
1771 7722 0
-6354 4601 0
-2613 -9773 0
2224 -3513 0
-11277 216 0
-4536 -3758 0
-7554 -6434 0
11060 5867 0
-9562 -7355 0
4749 -11634 0
-9094 -205 0
-9343 4054 0
3292 -7005 0
9990 -4526 0
6038 -9492 0
-2846 -9792 0
9375 -7714 0
12285 -4667 0
12468 10970 0
12452 -2878 0
10245 -7180 0
4868 -8160 0
-4296 -1024 0
1982 2392 0
-1522 -8065 0
-361 -566 0
7389 1135 0
-645 4029 0
-5356 -4664 0
-1359 -6818 0
-7521 4915 0
1323 -11796 0
10669 894 0
1384 -10435 0
2853 -2755 0
-4312 -3650 0
1075 -4606 0
10608 -9459 0
7234 10654 0
12439 1071 0
-7218 6720 0
10791 4788 0
5850 1934 0
-1298 -10157 0
10446 2255 0
-5923 7571 0
-10989 1664 0
-6964 9455 0
-8843 -2917 0
5528 -9525 0
6654 -10845 0
12041 -4289 0
-9045 10906 0
6388 -11426 0
-2061 -11716 0
10648 -5163 0
-6159 -8158 0
7649 -5060 0
-11989 -4874 0
-9803 12269 0
-8159 -1393 0
-486 3994 0
-1365 -4526 0
2575 -8613 0
3968 -9720 0
3249 5967 0
7300 -12349 0
-10131 136 0
3465 4501 0
-1378 -3129 0
9019 -10044 0
9309 4233 0
-5331 1424 0
-696 1127 0
11379 -12277 0
-1532 3413 0
-9321 -8415 0
-9095 -3175 0
-11543 -1314 0
-11433 4044 0
-4501 2145 0
10884 -9341 0
494 -296 0
9453 12062 0
10816 -8420 0
9956 -11045 0
-9321 -10602 0
5188 -6629 0
-9703 3734 0
-1575 -3202 0
7352 3897 0
4025 11901 0
-10515 4335 0
296 6538 0
6772 5273 0
-11410 -5592 0
-1412 -529 0
10219 -286 0
-3609 -1958 0
-4861 -7892 0
11650 9466 0
57 -10982 0
-10065 -2351 0
10007 477 0
12046 -7339 0
-3990 -10052 0
1172 4635 0
-9334 -7117 0
8096 6918 0
6109 7530 0
-10681 -3086 0
11180 11326 0
-1561 3260 0
7324 -4644 0
4313 5002 0
4104 1066 0
5097 -9787 0
9330 -74 0
-6907 10144 0
-3749 -8582 0
-2996 -4148 0
-2206 -322 0
3885 12232 0
-3163 883 0
5529 -10443 0
-10955 -7160 0
-3317 -3460 0
-9824 -12413 0
7581 3940 0
-3254 10766 0
5179 680 0
10608 -9166 0
2742 -797 0
3054 2726 0
-7096 11665 0
2667 8554 0
4923 -12214 0
6908 -512 0
-465 6021 0
10593 -2832 0
11128 10243 0
-7398 3621 0
-4816 4032 0
6133 2092 0
-3592 -10999 0
-5877 -10154 0
-1738 -2152 0
-4533 168 0
10227 7709 0
-9250 -5471 0
-10184 -5193 0
7250 -1677 0
6743 7953 0
-6598 -3137 0
-1767 9573 0
-6259 7075 0
-6942 -10881 0
11207 7890 0
-2225 -9450 0
6639 11830 0
130 8560 0
-12270 3958 0
9760 8757 0
4940 4882 0
9625 -223 0
670 12429 0
6853 -4539 0
12419 -10773 0
3943 -11073 0
-3294 -11328 0
460 -1159 0
6880 10965 0
5500 8720 0
-11327 -6418 0
-9159 -6205 0
6123 6155 0
-9102 8121 0
-10255 8708 0
-8343 -3068 0
10562 -10854 0
-6665 6942 0
-7147 -3363 0
830 -3987 0
11669 -6869 0
-2715 -8083 0
-9617 -12365 0
-10629 -352 0
3277 -6782 0
-6111 7177 0
-5283 -10407 0
782 -6144 0
1170 -4094 0
8673 6989 0
-6793 -7112 0
-3383 3953 0
6207 443 0
8335 -11606 0
-4995 -11035 0
-11452 4546 0
-6473 -9733 0
4410 -1479 0
8271 6585 0
2579 -1410 0
4191 4321 0
3587 9951 0
8811 -12166 0
-8093 12106 0
-10894 10518 0
-2161 3601 0
-12128 10458 0
11306 12231 0
-2833 2385 0
12297 9450 0
10179 -2235 0
-10991 -1143 0
-12260 -5567 0
-5560 -474 0
11103 173 0
-1256 254 0
9270 -6813 0
-6882 -4127 0
-9719 -143 0
10805 -10994 0
3499 9907 0
-10394 -9879 0
-9186 4951 0
7361 9885 0
6120 3778 0
-5607 -4894 0
11471 -5016 0
9299 7338 0
-8248 -4204 0
-1671 -5592 0
1279 -9295 0
6293 1135 0
11052 8655 0
-568 589 0
8361 1310 0
5651 11810 0
1873 -2491 0
-10991 -9020 0
-5964 -784 0
6652 2725 0
7908 -4333 0
-11235 -2904 0
-4651 10974 0
6478 -954 0
-9078 5454 0
-2110 12167 0
633 -11828 0
-4947 9313 0
6569 862 0
691 3734 0
4231 4754 0
10945 467 0
-9668 -8181 0
-3695 -8578 0
-8823 11063 0
-6475 -10926 0
-8635 8477 0
10524 315 0
8892 -7222 0
3523 9690 0
5046 2713 0
-7216 -1296 0
2633 -2790 0
-8030 -5134 0
5083 -4153 0
-7390 -6869 0
-12474 2180 0
9451 -711 0
8440 1323 0
-1605 3245 0
946 -10280 0
-4632 2145 0
11293 -6037 0
-8145 9457 0
1619 -9827 0
-5620 -1905 0
508 -9769 0
10257 -5551 0
-6771 11559 0
5350 6338 0
10853 2292 0
3441 -12187 0
11841 -6696 0
11773 6863 0
-3010 10718 0
-5338 225 0
-11798 -2800 0
-7839 7393 0
10426 -11285 0
-3527 3917 0
-11643 2105 0
-7624 -9607 0
-8320 -11530 0
8478 -6810 0
9167 -12370 0
-7647 -9244 0
-4791 9024 0
9722 2915 0
4854 11253 0
-9046 -93 0
2963 3413 0
-8270 -6406 0
8444 -930 0
3327 -4763 0
8233 -10402 0
4850 481 0
10331 11288 0
-1351 -6843 0
-10292 10368 0
8252 8870 0
-3440 8711 0
9120 3948 0
7750 9663 0
-744 4579 0
-6806 10006 0
-12233 7617 0
5727 -6563 0
-10680 -7269 0
4065 6171 0
-9356 6742 0
12046 -1971 0
363 -5606 0
8316 -12120 0
8302 -9237 0
-7782 7458 0
4381 1769 0
-4952 4905 0
-3233 -7205 0
-6171 2970 0
2878 -7980 0
6210 11954 0
-7650 -8807 0
-12399 7253 0
-10086 -10709 0
11506 10309 0
5673 -7421 0
342 -3168 0
-10265 -8114 0
-8191 -7467 0
2268 8638 0
6064 -4154 0
8949 7238 0
-3781 5327 0
11937 2222 0
2379 9675 0
10237 -8103 0
1872 5566 0
-8084 -7232 0
12026 7288 0
-6545 -6675 0
1208 1394 0
3195 -7219 0
-10396 11296 0
3748 1604 0
-10482 10025 0
-12364 -1155 0
-1249 -230 0
6986 -2245 0
6344 -11615 0
10623 2217 0
895 12166 0
9683 -7318 0
5079 10043 0
1965 -7963 0
5443 4527 0
1794 -6197 0
3320 -7924 0
6293 12312 0
5712 -10349 0
10347 -11776 0
1763 12433 0
-7814 -3917 0
6953 3912 0
-12350 -8570 0
727 5485 0
11213 -1944 0
10119 -11395 0
8950 3061 0
-9328 -11997 0
2273 2291 0
12215 -4816 0
-9383 -8768 0
8285 -4224 0
-6598 -6005 0
-11715 -7943 0
-9540 -9749 0
3037 7233 0
11064 -4539 0
1286 7173 0
4207 1347 0
8428 2086 0
2553 3026 0
-12239 -1017 0
4993 2906 0
-5075 -9248 0
8044 6779 0
-6214 -12220 0
3108 -5642 0
1602 -10145 0
-9854 -5186 0
7046 -11641 0
-1685 868 0
5629 10767 0
-7391 4090 0
11961 -1372 0
11119 9909 0
-12368 9424 0
-9843 -6954 0
7725 -4638 0
12078 11181 0
6476 4551 0
-9084 3505 0
-615 -6427 0
1216 -909 0
10195 3936 0
-4629 -1438 0
7418 -51 0
-3809 10767 0
3179 9088 0
-11529 -7096 0
-10097 8494 0
-7908 -5139 0
9931 4888 0
6049 -11331 0
6911 9503 0
-5071 8349 0
-1885 5796 0
3007 -1870 0
10974 1718 0
-9209 -6629 0
-5703 -3272 0
-5991 -4577 0
6269 4740 0
-664 9342 0
-295 11295 0
1379 3499 0
-6879 9232 0
-7171 9653 0
-5722 5819 0
3009 -10688 0
4762 -4980 0
-3109 -8737 0
-1359 -2130 0
1298 3363 0
9447 -9148 0
9509 -7164 0
660 -12405 0
-7563 11126 0
3198 6946 0
4242 7023 0
6465 -7005 0
8009 11487 0
373 5389 0
1960 -2082 0
-1818 3345 0
2903 10362 0
-9615 -1972 0
-7734 6618 0
-4356 2219 0
8614 9961 0
2675 -4447 0
1885 3445 0
-6025 -654 0
-9810 2264 0
-7527 6822 0
3792 -330 0
5688 -7951 0
-8316 -5050 0
4014 5333 0
5638 -11368 0
3473 -7452 0
12368 2767 0
3792 6438 0
-3908 -7261 0
-8918 -1115 0
-12043 4948 0
-10929 -2209 0
4090 7779 0
2974 10574 0
1454 -4436 0
-11106 -6286 0
3 11092 0
-3019 3288 0
8132 4029 0
-4892 -6578 0
-6124 7119 0
7217 3066 0
-593 5705 0
-11274 5558 0
4738 2492 0
-5889 10555 0
6371 7093 0
-10732 -10398 0
-8405 -6986 0
-8674 -1995 0
2260 -9040 0
-9695 -8712 0
4254 10968 0
-9728 -998 0
-772 -11250 0
-6561 5741 0
547 -3835 0
1157 -3046 0
-7814 -7769 0
-6372 7885 0
3056 -6071 0
-8813 7475 0
5625 1764 0
-6245 -11575 0
-5529 5717 0
1515 2073 0
-4995 -1301 0
1801 -1875 0
-10192 4540 0
11477 231 0
12249 -9351 0
10670 -4154 0
6860 4668 0
-4624 8123 0
8454 -713 0
528 -430 0
-630 9259 0
-7878 184 0
9485 -7654 0
6591 11924 0
5315 8343 0
-4099 1997 0
-3570 7559 0
-5695 10178 0
2397 -7595 0
4878 11050 0
2304 -11164 0
11810 -4626 0
7717 2790 0
3590 -1575 0
7738 7765 0
10819 10313 0
3283 -6406 0
-7620 -9772 0
-4925 -5710 0
-2264 -1000 0
9756 -3327 0
6380 -4477 0
2871 -8032 0
-10391 -2552 0
4972 -722 0
5221 -3215 0
-2865 1950 0
-10328 3052 0
-3420 -10070 0
9379 -1107 0
7610 864 0
-2399 -4745 0
-2722 -9146 0
12056 4033 0
-5692 -800 0
5841 -9316 0
4434 1179 0
-6115 -5545 0
2589 2589 0
9154 -5659 0
3090 -8342 0
-10992 2099 0
-8189 2927 0
-10750 2880 0
11850 10412 0
-4453 -3239 0
11898 -9338 0
2044 -11250 0
10367 -4113 0
-7055 3482 0
-10786 9583 0
12070 -11146 0
-2794 4106 0
1771 7400 0
3349 8848 0
4002 11179 0
-11333 -8414 0
-2710 10382 0
-1998 -4701 0
-11639 -10078 0
-123 5954 0
4736 -5048 0
-4258 11847 0
-3968 3024 0
-1101 -580 0
5239 7580 0
11991 -8935 0
12216 -2973 0
11007 -2757 0
-4644 -6775 0
-9407 2875 0
-4748 11285 0
-2833 3413 0
1720 -2460 0
-11437 11773 0
-11160 -3046 0
8070 -5444 0
1355 4514 0
-6582 -12453 0
-10346 -3854 0
10335 2388 0
1314 -7485 0
-8597 4565 0
1962 6843 0
6460 4716 0
10304 -8589 0
11334 1759 0
5622 -10571 0
7740 2507 0
6661 -3788 0
-1367 -11786 0
7354 8372 0
-4 -3678 0
-7541 10332 0
-10075 -11009 0
-10118 5853 0
1027 -10033 0
-6781 2817 0
-9561 10867 0
7606 4814 0
-3673 -626 0
-284 6717 0
-3811 -10384 0
-7090 -5830 0
170 -6737 0
311 6717 0
-11647 4863 0
5990 -9000 0
-8609 9593 0
-8228 10332 0
-1534 -1063 0
-4400 3914 0
-9635 9484 0
6266 4483 0
-2925 10138 0
930 9673 0
10566 -2636 0
-60 -900 0
11487 5272 0
-1495 -9198 0
3915 11830 0
-2127 -8823 0
-3208 7126 0
-8659 8950 0
3659 10735 0
-8250 4087 0
-781 11997 0
-11239 -1092 0
-11460 1033 0
11933 -1461 0
-6601 10347 0
8145 -4175 0
-5581 5116 0
-4336 -10438 0
7549 -1566 0
7742 -8444 0
5676 -9341 0
5841 -9003 0
4051 -8585 0
-8816 2274 0
4730 -9856 0
-6186 3727 0
-10505 -5306 0
-7482 7085 0
1588 -1029 0
-3979 9120 0
2829 -8705 0
9662 -9985 0
-1357 8373 0
3384 1697 0
5418 11816 0
8681 -87 0
-1518 9722 0
-10531 147 0
-10773 10305 0
-5346 -8481 0
9656 1919 0
9809 275 0
1442 1491 0
6259 -5777 0
-11714 10941 0
-8181 3111 0
9438 7703 0
-11392 7437 0
5310 -246 0
5454 7728 0
-12355 4481 0
11502 -11679 0
-3405 5172 0
2865 -7410 0
-10005 -7420 0
-9227 303 0
-1774 9745 0
-6246 6264 0
10921 2304 0
-9433 -3745 0
3477 8631 0
189 1438 0
-6543 -10612 0
4230 -4598 0
4068 -1486 0
821 -5279 0
9033 5165 0
7418 423 0
-2837 2212 0
-8613 -11758 0
5754 -8491 0
-9307 5815 0
2189 -9035 0
7464 -4710 0
5706 2007 0
-3291 -5085 0
-10576 -2796 0
-5009 -66 0
8764 714 0
-5033 10149 0
-703 -6320 0
-8921 -5593 0
913 -3886 0
7350 -5665 0
-7921 10999 0
3078 -4021 0
10517 -1381 0
-9878 10690 0
-4441 -10002 0
4412 11690 0
-2314 -1751 0
8430 -3733 0
7121 3561 0
12105 12224 0
1411 -1006 0
-6722 2316 0
-8326 -10154 0
10231 4428 0
-10384 8167 0
-5297 2249 0
-4398 -924 0
2657 11560 0
10196 5844 0
-5268 -933 0
3311 -7391 0
5417 5181 0
3603 4188 0
406 5346 0
-6194 8256 0
-2763 11138 0
3230 9301 0
2874 11289 0
2511 -7438 0
4806 9091 0
2335 -6572 0
-11944 10847 0
-5451 2571 0
7164 -11288 0
-9432 5472 0
-2405 -4652 0
7941 -4196 0
1347 -2243 0
3943 -11378 0
-2595 10132 0
2461 -3585 0
4805 7037 0
2077 3031 0
10180 -9598 0
-2547 -5786 0
-6678 8255 0
8794 8897 0
-5536 4769 0
-7327 -6958 0
6253 -7617 0
2949 -2367 0
10637 7882 0
-4443 5478 0
-6240 -3740 0
-2116 -7587 0
3300 589 0
-4292 9710 0
1746 -4795 0
-4054 -6266 0
550 7542 0
-4466 -4958 0
11312 -7306 0
-8431 -9486 0
-8707 161 0
4858 10629 0
-3314 -11404 0
-8465 -11850 0
-10617 821 0
-11273 7272 0
-9701 -5917 0
3002 2934 0
-9574 -9689 0
-2312 7347 0
-9372 -2536 0
5877 9523 0
-10401 -4572 0
10298 2697 0
-12082 12174 0
-9431 1886 0
6983 -1674 0
9739 2131 0
-11413 -193 0
10211 10787 0
-8074 12019 0
-7715 9286 0
-756 -4461 0
-10246 11379 0
-1764 3863 0
-11678 -2693 0
-1023 -9970 0
-11399 -11312 0
63 -11069 0
3654 5241 0
9195 11685 0
4201 -7596 0
-8392 10082 0
-4601 3493 0
-2036 4339 0
3601 5485 0
-1327 10379 0
4808 -8629 0
-1670 10231 0
7809 10895 0
7525 -4432 0
-8417 -937 0
-2445 -1832 0
2078 -149 0
-10235 11686 0
-521 -10488 0
11749 -10193 0
-3722 -4887 0
-1000 -5534 0
4219 -1956 0
-6744 -4255 0
2615 6772 0
-4492 12083 0
-1243 -8240 0
-10885 -10250 0
2166 -11656 0
-8304 -3019 0
9195 -7927 0
11718 2316 0
1060 -3891 0
-3412 7124 0
-9736 -10554 0
8228 -1235 0
2328 -1207 0
11127 10560 0
-1095 1382 0
11300 5275 0
-12207 1859 0
7960 4709 0
1410 -1849 0
6137 -9427 0
7162 -1516 0
508 10465 0
-11475 1357 0
4822 -993 0
10471 -2920 0
-3975 -9754 0
-8653 1117 0
-4593 10420 0
4060 -9714 0
-1341 -1284 0
9965 -1029 0
-6954 -11250 0
4860 8688 0
318 12386 0
10480 -11369 0
10685 5550 0
-5310 -2855 0
-9296 292 0
-7211 -9644 0
-10234 3055 0
-1397 8645 0
-524 -3447 0
2267 10807 0
8404 1832 0
1734 6239 0
-6370 5116 0
2730 -7531 0
-11605 1952 0
-989 6551 0
3876 9012 0
3344 11077 0
-5794 -3807 0
4429 10857 0
10728 8294 0
1506 -1964 0
-5346 1001 0
-1330 3914 0
8175 -5330 0
5319 -1637 0
218 -3208 0
11845 -5901 0
-9568 -10548 0
-6233 -10015 0
5395 -10604 0
3510 4972 0
-638 882 0
-769 -6628 0
12007 7561 0
-4433 5284 0
-3651 4337 0
12306 9681 0
-11019 2837 0
1753 -3337 0
-3333 -3331 0
10912 8671 0
-1484 7062 0
3873 7516 0
9410 -2726 0
-12415 -2500 0
-4320 -3372 0
-2980 -9285 0
5554 6209 0
1500 1797 0
-7343 -7516 0
3468 -11753 0
2990 10210 0
-3597 -8231 0
-1441 2396 0
-2858 8835 0
1398 2081 0
-8433 -6025 0
-6709 11699 0
-8177 -6243 0
5668 -8443 0
-11624 11468 0
10156 11103 0
-3845 10955 0
-9830 3506 0
4760 -5087 0
-511 -10686 0
1699 12068 0
4413 -7783 0
8637 3966 0
4780 -11582 0
1663 -4299 0
9657 1170 0
4243 -4960 0
-7945 -2930 0
-8242 9099 0
5954 -5384 0
-11626 7283 0
9321 -1241 0
-2644 1516 0
8212 9181 0
-4554 5836 0
2234 -7423 0
1520 8346 0
3356 -5715 0
-231 5819 0
-3426 6201 0
-11881 -10889 0
7643 -11211 0
71 1540 0
-9405 10696 0
-10076 -8812 0
12046 12121 0
5862 6883 0
7779 -1345 0
-11184 11273 0
6569 -8594 0
2589 6773 0
10201 -10818 0
-3837 -2876 0
-11350 11662 0
9517 9965 0
-9968 -6854 0
-1948 2804 0
4770 -11146 0
-4888 -7001 0
6638 -12441 0
-2030 -3272 0
8762 10635 0
-9654 10876 0
-4985 7918 0
-4785 -10362 0
3732 1285 0
10373 -9931 0
4626 3413 0
9319 10008 0
1535 -965 0
1639 -8775 0
12056 8055 0
4738 -9701 0
-2839 9033 0
5766 1675 0
10623 -5927 0
-509 -4740 0
8310 4881 0
-7543 -4711 0
-2754 12118 0
1749 -69 0
2234 2951 0
9448 1439 0
6795 3278 0
-3894 8726 0
8246 -6466 0
-6750 -497 0
-10900 6075 0
7757 7318 0
-2356 10849 0
1147 12308 0
-10678 4199 0
9285 4198 0
96 -1104 0
1947 9984 0
317 -9179 0
4577 8145 0
-4560 11798 0
7117 -9935 0
8542 8512 0
-7488 -5016 0
-1717 -8556 0
-12194 4506 0
8980 -11661 0
3136 -666 0
5749 -7244 0
1216 4242 0
-3969 -7076 0
1316 6602 0
1125 7216 0
-12317 12265 0
-10097 -7557 0
-10695 -8177 0
-11762 -9717 0
251 9678 0
-1932 5282 0
7645 528 0
-9202 -6685 0
4167 -7021 0
-5246 -1197 0
-1587 -9682 0
-5848 9550 0
-5925 -1417 0
11615 -3465 0
5112 -11845 0
-11054 -9196 0
-5080 4291 0
-11561 -7029 0
10453 322 0
-7105 -7100 0
-7317 -2063 0
4692 9158 0
-11288 -2169 0
11125 -9620 0
1229 2224 0
5383 11710 0
1549 -1523 0
-6343 11022 0
1513 6555 0
1193 -5602 0
10576 12087 0
2435 10487 0
-8725 -6207 0
-3423 693 0
-5050 3695 0
-2026 -2351 0
9651 -7841 0
-6293 -9355 0
-9256 5717 0
3698 -4984 0
-10884 11049 0
-5665 2654 0
9101 -11805 0
10817 12010 0
-7707 125 0
1485 -5661 0
6508 4650 0
3885 12337 0
-8848 2044 0
2499 2561 0
3608 -12187 0
8127 -9730 0
-11131 6226 0
9596 8024 0
-2728 10410 0
2161 -4516 0
2542 6969 0
-12093 -7051 0
-9840 8594 0
-11573 3789 0
-637 6573 0
-674 -8982 0
-1462 1321 0
-9564 8190 0
-2395 12377 0
-2455 -309 0
7139 9474 0
5586 4628 0
1833 -387 0
-10180 10532 0
-10364 -4215 0
3833 -481 0
6748 -6833 0
-3079 6000 0
-7650 -6417 0
-11310 -8951 0
-162 10815 0
-1462 -2391 0
25 2695 0
-8724 4266 0
-7255 -7051 0
-1851 12238 0
-2747 8453 0
-1394 4131 0
6699 -2605 0
4673 775 0
2596 11952 0
5965 -1693 0
1359 1154 0
-4736 -10374 0
-6801 -6025 0
-8570 3982 0
2282 10267 0
2479 9586 0
-3138 -8460 0
85 -10693 0
6620 -5415 0
9711 10970 0
1734 -2217 0
6012 1687 0
8678 -5983 0
-6664 9173 0
2663 3062 0
-2252 3447 0
6908 -12095 0
1830 9768 0
11644 -3223 0
7975 457 0
4093 5783 0
-8007 1703 0
8320 -3512 0
-38 -2091 0
1630 9791 0
-5462 -8689 0
10228 -10281 0
-9180 -11295 0
977 -5815 0
5867 3169 0
-6413 -5844 0
8748 1861 0
9712 5935 0
-9398 -5888 0
6309 -9275 0
-5722 5452 0
-2597 6016 0
1915 -5096 0
-5282 3330 0
-9700 10017 0
2948 -7877 0
6040 -8309 0
9262 -5549 0
5873 -11903 0
-5614 -5048 0
10152 8702 0
12477 5540 0
-9403 -9305 0
7377 -3523 0
-10294 3045 0
784 -1761 0
-4229 -5369 0
-9458 -7402 0
1711 -3000 0
3236 -1341 0
553 -11389 0
-6245 1892 0
10082 1358 0
4201 -10277 0
-5158 9006 0
8973 -4595 0
-2353 -9886 0
12235 1474 0
-9227 -8832 0
3141 -5454 0
-4736 3367 0
-955 2589 0
-1935 1726 0
9069 7977 0
-6858 -4302 0
886 -8366 0
-5801 -11599 0
-11788 5148 0
-429 5079 0
10970 -4906 0
7865 -10461 0
-11769 4868 0
-1048 -5630 0
8916 -10686 0
-7211 -8155 0
-3212 11992 0
-4902 10589 0
4746 -3133 0
-9580 -3390 0
-10016 11133 0
11318 -7751 0
-9862 -10253 0
-7856 -2284 0
4047 -9827 0
1200 -3638 0
10918 -3656 0
315 -376 0
-4322 -1140 0
4060 7895 0
-10463 3023 0
2075 -4400 0
1413 -12102 0
11026 -6318 0
-3443 9307 0
6658 -11838 0
-11354 -2699 0
4215 -9297 0
6454 -3467 0
7243 -2369 0
-11383 -4943 0
-3718 -2215 0
1629 -11004 0
1993 -1428 0
-7645 11209 0
6467 6854 0
-12458 6224 0
5460 7960 0
5694 -810 0
-6966 5493 0
56 -9599 0
4953 10320 0
-946 10674 0
-4898 9852 0
-5630 -8364 0
-3676 -6605 0
-4022 4071 0
-11333 -4327 0
-12232 8119 0
11114 1019 0
-2428 -2221 0
8421 5994 0
3935 -11568 0
-2467 -4520 0
-248 -2652 0
-1150 4619 0
2028 -4568 0
2275 -10334 0
10260 2328 0
-7705 7399 0
-6673 89 0
1647 -11414 0
-12100 1844 0
-716 -5120 0
-9174 6487 0
-3741 -10581 0
8388 4049 0
5609 -10597 0
-12050 2967 0
8979 4006 0
2368 11590 0
4035 -7822 0
4709 10509 0
-8428 -10980 0
-6277 10702 0
5099 4052 0
8969 4390 0
-6525 -4558 0
3777 5063 0
10024 11526 0
-10655 -2641 0
12081 6424 0
2780 4557 0
3558 -3154 0
-11522 -8318 0
6138 3508 0
10615 11791 0
-2680 7824 0
-2823 -11273 0
-9062 -5851 0
8997 -1916 0
7604 12450 0
-5384 1450 0
10415 4606 0
-1305 -7992 0
-11872 5487 0
5451 -2877 0
10856 6087 0
7709 -8642 0
1639 -8385 0
8808 4953 0
5316 -11125 0
6270 -1977 0
7537 -6753 0
-9413 1509 0
10571 7960 0
-3790 -2847 0
4838 -10932 0
5155 3042 0
11502 1612 0
3545 -10295 0
8802 8842 0
11510 -8102 0
4562 -3874 0
8559 6799 0
10247 6212 0
2477 107 0
-9045 -10920 0
9583 4189 0
4798 1131 0
-11564 428 0
-3721 6429 0
3014 -918 0
6372 -2126 0
-4689 -3177 0
2716 -10485 0
-8566 -5238 0
-3678 -8425 0
-5497 -10829 0
-6484 -11717 0
-5216 2584 0
-2724 3060 0
9968 -4036 0
-10355 1413 0
-1225 -3923 0
5218 -2320 0
-12018 -5185 0
10721 8735 0
-6280 5624 0
9741 -3975 0
-973 1699 0
715 -10575 0
4789 -6503 0
-3910 1556 0
-69 -7917 0
3839 -4675 0
12047 -8101 0
-909 5830 0
3893 -10159 0
9738 1426 0
-4356 10598 0
-7370 9010 0
-9142 -6174 0
-8566 2612 0
-5144 9817 0
11280 3409 0
8351 -10705 0
-2260 8554 0
-3270 11040 0
11295 9628 0
6434 6478 0
-2186 -220 0
9357 -8016 0
-8233 9471 0
-2043 -5107 0
4868 -9404 0
-5010 10799 0
7149 -10730 0
10835 8303 0
-4421 -5038 0
-4100 -1651 0
11453 436 0
7371 -8363 0
12233 -9668 0
8857 -11217 0
-7658 9053 0
-6750 -5938 0
7732 -1507 0
6120 -11437 0
-11760 8257 0
-10014 -6617 0
-787 1133 0
-5653 -3301 0
-4087 9737 0
-654 -7695 0
10825 -4888 0
-321 -5212 0
5161 -3921 0
4757 -10993 0
10144 -5050 0
401 -1113 0
-6771 11975 0
-8689 9607 0
-6052 -8159 0
7095 3019 0
9029 -10738 0
-5638 12310 0
-116 -8045 0
9659 -3295 0
3137 -1761 0
-1001 -9014 0
12104 8363 0
-5286 -4593 0
-5673 -2081 0
9821 -6791 0
5852 3551 0
4931 -3708 0
2866 6075 0
3760 -5821 0
9454 -6015 0
3921 2788 0
-3937 -2428 0
-5908 2791 0
1795 6687 0
1283 -8279 0
-11248 7217 0
-9869 -2439 0
-5679 -6605 0
7587 8557 0
4006 4468 0
4065 -2507 0
-12180 12317 0
-4466 7685 0
11283 -4407 0
444 -12425 0
-3741 4899 0
-5692 8421 0
5190 -10079 0
-6845 -566 0
-8816 12231 0
-7285 1468 0
-2688 11657 0
8410 10860 0
10986 11695 0
-12436 9881 0
-7612 -1393 0
-11673 11797 0
7336 839 0
-10054 -3874 0
-10695 7824 0
-7715 -7609 0
11050 10678 0
-8448 -4184 0
-6208 -4083 0
-8923 -10993 0
9342 -113 0
10753 1584 0
7207 11321 0
-1274 -4601 0
7079 -3019 0
5420 5401 0
-5651 5128 0
10868 7603 0
-6037 -12116 0
-3210 10747 0
-3790 4967 0
135 -5970 0
981 12303 0
-679 7523 0
6819 6080 0
11676 8219 0
1677 8382 0
2654 -5565 0
-1533 7665 0
-10295 4723 0
-11019 -6093 0
-3825 7740 0
-3541 -8771 0
1763 4298 0
-4920 -9929 0
-2554 -2645 0
-4523 6508 0
7599 -3153 0
-945 -9924 0
12414 -4646 0
2786 6831 0
8043 12411 0
12237 -11045 0
-1805 -10025 0
-10551 -12195 0
-3941 4098 0
5041 3174 0
-9857 10492 0
5008 -9867 0
-8797 12223 0
-3428 -1972 0
9803 -11546 0
11379 8040 0
-8279 -8984 0
-8233 -6045 0
5625 3172 0
1603 -3769 0
2859 -8086 0
8681 -2523 0
8205 -3826 0
5487 3924 0
7045 9426 0
-791 10261 0
-10975 3657 0
5721 10783 0
-230 8631 0
-12107 -2688 0
-7582 7202 0
437 1687 0
-9295 -383 0
-10600 -2585 0
-2701 -10009 0
4669 7071 0
-3704 3097 0
6156 11222 0
492 -1933 0
-10611 8133 0
12035 3825 0
366 -5979 0
2255 -9208 0
3573 720 0
-2808 -2752 0
-2236 -12163 0
-4229 -11686 0
3015 9884 0
5786 7564 0
-4774 2309 0
-10176 -1680 0
-1199 3209 0
9144 -3234 0
-2987 -1870 0
1496 -11414 0
12079 -5665 0
-1596 -6777 0
-2776 535 0
5834 1556 0
8265 6846 0
7119 -8347 0
7241 4597 0
10639 -92 0
-11370 751 0
8983 3768 0
-3242 -1713 0
-1950 6780 0
3795 6475 0
1124 194 0
263 7706 0
11819 -8455 0
-1530 11888 0
4930 2686 0
-10726 -3389 0
-2269 1650 0
9703 -6311 0
2169 -671 0
5678 -5042 0
8886 2690 0
11695 -74 0
11315 -2748 0
10785 1097 0
9279 -10194 0
-3156 9597 0
-5917 -1887 0
-1530 -9919 0
-3848 -11851 0
-8661 829 0
3940 -4095 0
-5933 932 0
-5847 9136 0
2366 8176 0
-5693 5625 0
5595 3214 0
-10466 10988 0
3417 -3008 0
-12334 -7746 0
7321 10008 0
-9025 270 0
2675 -7343 0
4380 -6901 0
8710 5217 0
-7072 -7224 0
-9893 -6835 0
-3401 6044 0
3928 9309 0
3019 3220 0
9639 -6280 0
4735 -6421 0
-9515 6463 0
-2336 -11943 0
7700 10921 0
4159 3169 0
-10116 3987 0
10769 6088 0
-2361 -9742 0
9942 3934 0
-7608 3005 0
-9063 -4897 0
-10450 8146 0
-411 3072 0
-428 -10514 0
-2497 10611 0
7921 4604 0
-11380 -2876 0
-4819 5059 0
158 -3905 0
-4126 -4812 0
12207 11435 0
-8527 -1241 0
-1008 4628 0
4435 -1281 0
-5787 6366 0
6269 -3701 0
8347 -11428 0
-8859 9983 0
-10438 -8337 0
-9947 277 0
3216 5220 0
2791 7989 0
6495 -6455 0
-7633 -8966 0
9360 -7633 0
-9374 2147 0
3857 -268 0
4871 11757 0
-5750 1638 0
9912 4165 0
-546 11930 0
6721 -1849 0
-8292 11734 0
-11838 3936 0
5514 -2954 0
-9953 -12450 0
2950 -8657 0
-9115 -9615 0
-6150 4260 0
-9381 -2728 0
11717 6776 0
-429 -3185 0
-9842 9800 0
7839 1087 0
9960 -6956 0
-3663 8830 0
4074 1902 0
2916 -4244 0
-3591 8878 0
2449 1157 0
2213 -5767 0
8953 4066 0
-8763 11855 0
1531 3487 0
3250 -5824 0
12026 -2071 0
6927 5004 0
-11377 -1919 0
-7353 4754 0
914 684 0
-6245 9424 0
11182 -5333 0
-8585 2384 0
-10553 -8805 0
-2450 -2609 0
-6122 5571 0
10064 709 0
-6718 2962 0
-11017 5250 0
-3704 -11089 0
-9449 9176 0
6509 4994 0
-11872 -11911 0
-7003 9472 0
-9900 -5440 0
-5173 -9045 0
-5083 -6958 0
-5573 1410 0
9311 7466 0
-7773 -4435 0
-2934 -3886 0
-2226 6554 0
6803 -11395 0
7444 6087 0
8873 -150 0
-1290 -3723 0
7915 -4415 0
-861 -7385 0
5662 -11907 0
-7187 425 0
-1176 8204 0
-253 2210 0
8332 -576 0
-9787 5953 0
-1803 252 0
-1179 -555 0
6174 -5048 0
-1985 1690 0
-7182 -11514 0
-766 5894 0
-3430 -7661 0
3329 4265 0
5824 -2633 0
-4780 -6483 0
10961 -208 0
4798 -11546 0
-7106 -123 0
3571 -8920 0
-2278 -1482 0
9637 -4007 0
-6312 -7850 0
9461 5595 0
7803 -8648 0
-3957 -9812 0
-8277 11394 0
-6652 -10044 0
-6571 -4950 0
2207 -5308 0
3397 -1447 0
1343 5022 0
-8113 751 0
11512 -4223 0
-10590 -6832 0
-1108 3911 0
2153 10188 0
7618 -6052 0
-5114 -8770 0
-5589 7669 0
-3966 -6985 0
-12021 -7494 0
-10168 4883 0
-5883 -10570 0
4874 -7442 0
-5144 8570 0
-10498 -10139 0
9359 -4286 0
-1966 -7829 0
10474 11811 0
379 3594 0
8379 7530 0
4542 -33 0
-11418 -1119 0
10184 -3016 0
7378 1135 0
7182 10153 0
-10591 -2592 0
3174 5006 0
-3628 5702 0
-5224 5632 0
-9196 6429 0
-10612 9331 0
7192 -8489 0
2312 3755 0
-6450 1246 0
2122 5047 0
-7684 10525 0
-9297 -1026 0
-8460 6433 0
7371 -3038 0
-1864 -7901 0
-4570 11740 0
6129 -10371 0
-1214 -1257 0
-8426 -8506 0
9955 -10889 0
-2013 7092 0
375 3087 0
-9777 -1894 0
12354 -3646 0
-12038 4506 0
6295 1906 0
10234 -993 0
-10335 5114 0
10314 -1283 0
6447 -9428 0
8992 10556 0
-6311 4267 0
-11525 -11514 0
-10760 -10046 0
-12263 -10770 0
-6267 6951 0
-2137 6477 0
2799 6976 0
-5264 -7928 0
8632 -10791 0
-5139 2853 0
-3140 -154 0
5420 -10859 0
2324 9074 0
-7847 -11518 0
2741 10255 0
-12418 -981 0
11749 -186 0
-1529 -11532 0
-3827 4656 0
8011 -7321 0
-3908 2535 0
-5022 9579 0
9702 4657 0
-7705 -1455 0
-7989 -32 0
5425 5292 0
-7686 6820 0
852 -2757 0
-3709 -10573 0
-460 2465 0
4641 -1898 0
-11271 -9239 0
1741 8992 0
-5193 -3611 0
207 6306 0
1078 -8828 0
-4934 5604 0
-9597 -2540 0
-1441 1977 0
-1755 3800 0
-9334 2807 0
-3379 5290 0
-7188 5514 0
-7798 2436 0
-10750 -9354 0
147 3257 0
3445 -8247 0
-516 6727 0
912 -822 0
12188 -339 0
2880 -4322 0
-1172 8355 0
7508 5195 0
7878 3524 0
5168 176 0
10087 7792 0
-3961 -6575 0
11468 4754 0
354 9425 0
-12119 -8280 0
-4830 1525 0
10122 8307 0
9173 -2524 0
4850 -7030 0
1 9798 0
9118 11830 0
-9974 7288 0
-9166 8897 0
3446 6232 0
-4931 11053 0
-7440 9677 0
11652 2003 0
-9970 5439 0
-4966 -57 0
5353 6224 0
-7276 6142 0
-9946 1639 0
5437 -5709 0
-11084 1012 0
5939 11171 0
-5678 1686 0
6945 -9244 0
9540 5778 0
410 306 0
3232 -2680 0
10987 8947 0
7381 -11448 0
-2277 -4284 0
-4627 9130 0
-3324 4964 0
-5259 3983 0
9284 9606 0
-2413 -6017 0
2904 -6550 0
757 8064 0
-4213 -861 0
3386 8192 0
6830 5083 0
-11983 -6885 0
358 -2747 0
-9344 4885 0
-9981 -2382 0
1049 2122 0
-8900 -8025 0
1032 -9536 0
2832 2103 0
9925 8257 0
7736 3764 0
5504 -6391 0
-10007 -2093 0
11307 7768 0
-7064 -6725 0
-12236 9644 0
-8905 5506 0
643 9614 0
4370 253 0
8043 9580 0
2374 8617 0
7127 -1125 0
-3405 -2388 0
554 -10427 0
-6782 -12211 0
-11411 11320 0
556 9903 0
7794 -11703 0
-5156 9741 0
4793 11495 0
30 12268 0
-5739 1646 0
11334 7865 0
-6378 -6810 0
-177 2873 0
-11211 -4457 0
-11504 3853 0
9390 -6490 0
12160 12368 0
6588 -4581 0
2044 -7014 0
-9246 6883 0
4320 -1661 0
-8961 -1351 0
-2135 2649 0
-2856 -7042 0
4392 7693 0
7491 -5044 0
-9229 -5416 0
-7680 9074 0
-3790 7961 0
8681 -6415 0
-8860 -9038 0
-10724 2868 0
5419 6569 0
-10279 9028 0
1637 5903 0
8857 4032 0
11888 7240 0
-8059 3565 0
-9067 9072 0
-4609 -1978 0
7084 1798 0
4209 -7301 0
-1945 6075 0
-4379 4009 0
-11674 3146 0
6018 8853 0
-4741 6477 0
-108 -9050 0
-3847 -11118 0
-10517 -1651 0
11542 -1234 0
-41 -8829 0
3783 8964 0
12225 6174 0
-5551 -10127 0
3333 -7254 0
4070 12238 0
6783 7541 0
-7172 -1056 0
-83 4777 0
7372 -331 0
-9546 3831 0
-2986 -11474 0
7245 -133 0
5407 5650 0
-1894 -7739 0
-6984 7769 0
3477 -3492 0
4895 -4384 0
-9638 -9972 0
-12366 -5641 0
-4422 -11686 0
3872 8513 0
9557 -10535 0
8095 10813 0
-3428 -5585 0
-5132 5890 0
-8237 -6808 0
11004 -7586 0
12073 8364 0
1742 -7810 0
5925 10234 0
6178 3141 0
2555 5700 0
-639 3802 0
8880 3701 0
-1462 -2733 0
-7667 -9406 0
86 -5467 0
-4267 -3146 0
6240 -3540 0
5303 -8410 0
-10695 7118 0
-5710 -10116 0
-10543 9043 0
8047 -9670 0
-9415 1350 0
901 -8934 0
6841 10957 0
2654 5672 0
2956 1382 0
10060 -10272 0
-10292 10855 0
874 -4342 0
-9788 7593 0
-957 -11191 0
10799 3033 0
3292 2286 0
7030 -9124 0
-6456 6200 0
9648 7989 0
7297 -2139 0
-5968 3737 0
-7190 11715 0
-2265 3785 0
12447 -5144 0
10137 2612 0
3492 -2749 0
6990 2845 0
-6071 -4806 0
-6876 -4795 0
1834 -938 0
-7492 10181 0
-9370 -5999 0
-11474 -8030 0
9936 -7901 0
5622 -6419 0
2340 -12234 0
1935 -2417 0
12149 2909 0
-9815 11947 0
-10627 -11343 0
1059 -4105 0
-9735 10558 0
3009 -384 0
10776 10877 0
8742 -5097 0
12117 -7204 0
-11283 -11210 0
-9640 7861 0
-10206 -4442 0
-9371 11828 0
5559 -11990 0
5841 9870 0
-10725 2351 0
-2551 4794 0
7037 -9776 0
-11842 11233 0
2388 9688 0
247 9801 0
668 58 0
-5958 7923 0
-4520 -7966 0
-6725 1034 0
-1500 6640 0
10096 -23 0
1634 -11364 0
-1808 3536 0
-8009 -10979 0
296 9339 0
-9361 -2126 0
10936 8659 0
-1694 6121 0
-12204 -3699 0
4826 -1991 0
9206 9048 0
9748 917 0
-10716 -12205 0
1949 1924 0
1799 -3295 0
-10002 -5367 0
-4920 -7172 0
-1907 10502 0
2944 5417 0
8422 -7897 0
9359 -9004 0
-5629 10807 0
-11266 -8516 0
7373 8375 0
-2837 6409 0
9892 8898 0
10987 -2283 0
-2326 4160 0
12171 -2316 0
4103 5033 0
-8387 -9185 0
9712 865 0
11950 3060 0
-2738 -5031 0
-7988 8520 0
-8567 -9201 0
7754 5535 0
10491 -12272 0
-11591 7466 0
12036 -5538 0
-7353 6056 0
5796 -10814 0
-5416 -4579 0
-8984 903 0
8462 11913 0
-10586 7377 0
7040 9442 0
-2809 1036 0
8952 9128 0
-6641 12265 0
8549 5190 0
141 2599 0
9548 -4053 0
7701 -11162 0
7883 1861 0
-7229 5324 0
10150 11590 0
9834 662 0
-1302 -11703 0
8031 5711 0
2963 -2717 0
2138 -3483 0
-2848 5516 0
9674 -2660 0
7586 6164 0
558 6106 0
-3709 4851 0
-8473 6613 0
8879 -91 0
-6416 -9783 0
3118 -7487 0
-1288 8820 0
5125 -2533 0
-6352 6459 0
-8261 1624 0
8514 4940 0
9885 -4237 0
-2501 -11544 0
-268 -4945 0
6239 -2052 0
9590 1908 0
1485 8550 0
-8159 -6522 0
6436 -2176 0
12260 -10005 0
-9398 4693 0
-2567 3926 0
7652 9157 0
2124 10576 0
-3717 -8309 0
-10743 5620 0
-11460 10797 0
-11844 -3504 0
1916 5796 0
9155 4286 0
-9878 9062 0
5416 12133 0
-11938 -11581 0
-10878 10930 0
1677 10794 0
-9139 12342 0
-11788 -3919 0
5790 3084 0
3561 1851 0
5737 -7149 0
-6995 5375 0
-4933 2318 0
5258 4415 0
-8896 11434 0
3248 -8570 0
10582 -12023 0
10006 8779 0
1353 8620 0
8743 -7286 0
5808 3587 0
-11345 -1737 0
8871 -3132 0
-6566 -926 0
-11452 -9126 0
1158 -4794 0
5887 5625 0
3706 -10827 0
12155 -10287 0
11652 12292 0
11935 9728 0
-6121 -3276 0
-1941 -4799 0
10019 8303 0
-10928 -6501 0
11935 -4767 0
11153 -11364 0
10377 -1780 0
-149 -4333 0
8521 4593 0
-5601 836 0
-12259 3446 0
-4015 -4840 0
12431 9732 0
11858 7551 0
3349 2134 0
-9262 1190 0
4512 -2865 0
2457 -5482 0
-1671 -6800 0
7599 -4017 0
762 6917 0
4555 -3428 0
-837 5796 0
1641 12231 0
1484 4738 0
4808 -849 0
3192 1464 0
6432 -11156 0
7940 3882 0
-12197 -3814 0
3014 622 0
-2166 -74 0
9147 -113 0
-12463 12191 0
12319 3834 0
11397 -674 0
-8169 -6537 0
-2562 9165 0
2092 -12061 0
2321 -6392 0
-4587 3305 0
2147 9674 0
11426 -10266 0
-10040 9394 0
-4315 7796 0
10781 1525 0
1892 6485 0
-3285 9033 0
-12209 -10894 0
-2351 -9393 0
1141 8542 0
9324 2176 0
-2235 -4875 0
-8958 5544 0
-853 10981 0
4757 -884 0
938 3061 0
-5158 -5593 0
9121 -412 0
-7832 4348 0
11221 4113 0
-9848 10768 0
-1934 3149 0
-8701 -3025 0
7928 -4738 0
-4418 -3276 0
-11925 2103 0
-8322 -4612 0
8859 -10633 0
-11862 7297 0
-10171 -5832 0
-5883 -5931 0
7046 -6417 0
-11535 158 0
-359 -3678 0
8083 3808 0
-2004 -1235 0
6067 6662 0
786 -2541 0
4989 -8512 0
10367 -6316 0
-1668 -9044 0
-10280 7433 0
8176 -9605 0
-306 10865 0
-8808 372 0
-8868 -5642 0
8288 11182 0
8709 -8814 0
-9038 6667 0
-3656 11540 0
11533 -3422 0
8048 5380 0
-5522 -6960 0
-4314 529 0
-7896 -464 0
1086 -2305 0
-3430 3975 0
256 12317 0
-6127 9497 0
-8713 -5592 0
-3775 2339 0
-3569 6696 0
6378 7885 0
-4019 -1034 0
-5023 5569 0
8055 12337 0
-5317 6615 0
-8406 -493 0
-1455 7928 0
-6531 5051 0
-4632 9612 0
-713 8852 0
11097 7072 0
-8132 12378 0
-9921 8186 0
-2257 1996 0
-6178 -4343 0
-1292 9502 0
-7965 -6675 0
2806 -6777 0
-4970 -5834 0
11180 -1323 0
-5901 -5044 0
9515 -9287 0
5079 -6005 0
2878 -1667 0
-5654 -8893 0
-6071 -1119 0
5091 -3795 0
2060 -11605 0
2785 8324 0
5553 -7133 0
-10273 1066 0
4705 -4244 0
3491 -9667 0
3102 -8636 0
7250 455 0
348 5636 0
4222 -8965 0
12196 2684 0
5956 11124 0
4492 -7968 0
1142 -12132 0
-12427 5172 0
6768 8210 0
12299 -9839 0
4668 4552 0
-5538 6815 0
10851 -8765 0
8949 -2120 0
7112 1374 0
1566 -12122 0
-6499 -5531 0
2466 -6468 0
6336 9822 0
-520 -11907 0
-3766 -5985 0
7622 7102 0
7111 8341 0
2808 -6235 0
10902 12256 0
4964 -11534 0
-6001 7872 0
-8295 -8825 0
-9367 11759 0
329 -6258 0
6426 12068 0
-8779 -2012 0
-3688 -9919 0
-1355 -12454 0
-4267 -3504 0
-651 -8253 0
7302 -1483 0
-3279 -612 0
2981 4455 0
-4037 -7005 0
8807 -11517 0
11039 5786 0
10605 4198 0
-5383 10888 0
10492 179 0
-10110 235 0
1300 -10840 0
10960 2555 0
11298 12061 0
-2084 439 0
-8142 11120 0
-6774 -4208 0
9746 -237 0
9504 4127 0
-9375 -12415 0
-11520 -1317 0
5306 9586 0
-7723 3684 0
-9934 -11819 0
519 8444 0
5124 -1506 0
388 10678 0
-8161 -2374 0
-183 -7088 0
2503 -9556 0
-8192 437 0
736 7632 0
9143 -10967 0
795 -7106 0
5193 -8422 0
-9709 -11819 0
6148 -11304 0
11240 8447 0
-3897 1382 0
2286 4027 0
-2661 -7307 0
-8701 -6913 0
-11537 245 0
11425 10367 0
-2826 -237 0
9611 -8495 0
-12416 3087 0
-10746 -5155 0
12000 4116 0
-8151 -3585 0
-3013 3976 0
1322 -11575 0
-4800 8204 0
8871 397 0
1103 -9049 0
2705 -6690 0
-10052 -1220 0
-9535 8817 0
10905 9362 0
-9177 3334 0
4072 -10450 0
-539 -12180 0
-1077 8122 0
400 -5884 0
3431 2270 0
-9631 132 0
11827 66 0
3442 10598 0
-8007 7148 0
754 10977 0
-7960 890 0
-10935 -7816 0
-7856 7945 0
-9822 -8559 0
12196 10857 0
8108 6998 0
-10574 -7745 0
7295 11049 0
1584 3338 0
6065 -2027 0
2978 5103 0
9622 -9024 0
6998 -9755 0
10252 -8874 0
-9183 -8493 0
5063 2619 0
-7003 717 0
11201 10295 0
9903 8074 0
3030 -3171 0
4357 -4429 0
2690 -4222 0
-767 -6279 0
6260 -13 0
2401 11646 0
4292 11978 0
4561 -3502 0
-2107 11901 0
-6284 9300 0
10759 -12163 0
-4300 2187 0
12206 -6767 0
2135 -10745 0
5489 11936 0
-9448 -8738 0
3249 -5043 0
12416 -9934 0
-10222 10207 0
6815 12413 0
-8116 5142 0
-2492 5134 0
-3390 8687 0
5891 4811 0
4483 3376 0
10682 -793 0
73 9705 0
-8169 -8219 0
1734 -7774 0
-4560 -7635 0
6520 -7442 0
-9204 900 0
12117 6312 0
-75 -4594 0
-9898 -5300 0
-7060 805 0
6028 -5919 0
12420 -10277 0
-8374 -4758 0
-108 -3805 0
11165 -1894 0
2503 -5881 0
-11851 5545 0
-11537 -669 0
-8442 -4944 0
10987 9680 0
-12314 -12309 0
5252 11763 0
-5453 11817 0
-9439 3655 0
1502 9714 0
-6980 6710 0
-5073 -4032 0
-3257 -10182 0
-7243 8803 0
1804 -7082 0
-6293 -12356 0
-6274 7932 0
-11384 12436 0
-10738 5622 0
-4906 -11752 0
3252 11625 0
3896 7169 0
-542 2754 0
10201 1906 0
8579 12325 0
4728 9619 0
-3801 -2368 0
-8445 -10321 0
8399 1999 0
2979 8159 0
9308 -5727 0
4060 5323 0
-9249 10265 0
3455 -3727 0
-9387 5668 0
832 -11058 0
5550 4448 0
5352 -4681 0
-4448 5388 0
7563 -4470 0
-12055 12002 0
6253 -6410 0
7367 -10233 0
-3479 -4664 0
-453 -1302 0
-494 -1714 0
-2780 5709 0
4624 -5958 0
8472 -4223 0
-4225 12230 0
-11364 -11772 0
-12197 11730 0
-9578 -3969 0
8184 -7288 0
-10916 1370 0
-10471 7434 0
9014 11464 0
-5365 -2761 0
-4563 2344 0
-7020 9103 0
-9040 -5139 0
7632 -8177 0
6878 2640 0
6889 1158 0
7128 -10719 0
3129 -1018 0
-9012 8856 0
-4809 -10311 0
7396 -7476 0
10753 -5169 0
6981 8599 0
-4463 10055 0
12462 6567 0
2829 -777 0
-5924 -356 0
6533 5360 0
-11132 -6085 0
3194 -145 0
4040 708 0
-2987 2705 0
7787 -5970 0
10647 -8387 0
-4989 -3161 0
10667 -5440 0
9315 8198 0
-3406 -10555 0
-1920 -11054 0
8971 -2783 0
-12184 9411 0
-5150 7874 0
3413 6248 0
9649 9104 0
-3229 1821 0
-12030 -11546 0
4986 -4777 0
4095 2679 0
-8367 -10326 0
5279 7854 0
10086 7995 0
10827 -8197 0
-9248 12082 0
460 6613 0
8111 11899 0
5742 1593 0
10482 4487 0
1344 7163 0
-9327 619 0
10281 -9285 0
-4920 -8523 0
4683 -7450 0
1670 7146 0
-6134 -3656 0
-497 -9636 0
11882 -4083 0
1586 2786 0
-3370 3073 0
-205 -4491 0
-9219 366 0
-2921 6014 0
-9988 5895 0
-2289 -8136 0
5366 12058 0
-9511 7730 0
-7911 -10446 0
1628 9305 0
6992 2643 0
-5663 -9453 0
10087 -2929 0
-961 8328 0
-517 -10565 0
-8151 3778 0
5921 7437 0
11832 2520 0
-6994 -10224 0
5505 2068 0
-2250 5557 0
-4787 -9270 0
2250 10020 0
10534 2420 0
1912 7812 0
-2956 -4970 0
2166 -5382 0
1259 5745 0
355 7080 0
-7147 6480 0
7297 9666 0
-11461 -2356 0
1168 5003 0
7127 -2830 0
6874 11050 0
-11175 8461 0
-5236 -2682 0
121 -9497 0
3636 5268 0
8785 3384 0
8216 -1235 0
4150 -571 0
5489 -10979 0
-2411 -6208 0
1791 -3223 0
-8334 -9093 0
-7381 -573 0
-248 2029 0
4386 1051 0
3993 -134 0
-10769 6082 0
-454 -1195 0
-5162 -8294 0
-6626 -4146 0
-5952 10908 0
-8134 2543 0
19 6685 0
-4410 9446 0
-4622 -527 0
2004 -1136 0
824 -563 0
-5926 7100 0
7914 7742 0
1869 9378 0
-11549 10559 0
-8051 6292 0
11021 -7987 0
3659 5857 0
-6010 -10902 0
-9145 -9915 0
-996 -2666 0
-1287 -4352 0
9480 -4468 0
1872 -1082 0
-3927 -5391 0
3881 11848 0
1638 -1265 0
-6799 7270 0
-6821 345 0
1943 -4538 0
8629 -8135 0
-9659 -2518 0
-6205 1548 0
2331 -6541 0
8743 -5782 0
1761 3123 0
-8275 -5192 0
-12261 -8319 0
-5288 -8963 0
-7455 4094 0
7083 8241 0
-9980 -11998 0
-8576 6625 0
-8733 -3976 0
986 -5077 0
-7492 7715 0
4697 10065 0
10433 -10745 0
-1700 10272 0
-10466 3825 0
1716 2307 0
11526 5757 0
-8687 -6811 0
2144 -7442 0
3482 11997 0
693 11681 0
1509 -3832 0
-2780 -3425 0
-4462 -2806 0
-5217 -10911 0
9815 5001 0
-12117 1865 0
-5423 -10049 0
2627 5647 0
-6359 -3870 0
-3091 -1535 0
-40 -1278 0
-11960 5314 0
-6821 -1285 0
-8179 -8689 0
7743 9559 0
-4629 8095 0
-11085 -8733 0
-4053 -4885 0
5626 7241 0
7690 4481 0
-11950 -3418 0
7320 4182 0
-2605 -5948 0
-585 1268 0
5785 -2717 0
5125 8480 0
10313 -6089 0
-4593 630 0
5988 -9354 0
-12053 2406 0
-4076 5181 0
-11597 -4460 0
-779 7250 0
-9418 2273 0
-10445 -10966 0
-1373 -5968 0
10908 -5195 0
-7163 375 0
7897 6182 0
11243 -3932 0
-3902 2357 0
4943 972 0
636 3288 0
-5884 2843 0
-11089 8567 0
7991 -9718 0
-4402 1874 0
-8935 8814 0
-11226 3695 0
10475 -8248 0
-6356 -12029 0
9547 11987 0
-9207 10898 0
861 6750 0
-11399 9964 0
4447 4900 0
-3353 -11777 0
1268 5694 0
11465 -7899 0
-137 -8962 0
11823 5435 0
-8948 -3458 0
11656 -4652 0
7331 1358 0
-3963 -12130 0
10195 -5751 0
-10242 -8535 0
-1976 10919 0
-4891 -5113 0
-11685 -11384 0
-10727 3179 0
-4756 3473 0
-9459 8271 0
-2819 3942 0
12472 6996 0
-11813 8203 0
6223 -2139 0
8327 1982 0
-6879 -6446 0
7221 4602 0
12043 6640 0
-9044 -562 0
-6279 -6100 0
-2232 -9755 0
-9727 9146 0
-5568 3935 0
-3554 10957 0
-10724 1567 0
5793 4289 0
-4023 8308 0
11800 -7872 0
10598 5273 0
1183 11005 0
-2126 -7943 0
1158 -177 0
-8583 8800 0
-3997 -3006 0
-7499 7431 0
11425 -5340 0
-7656 6575 0
-515 -8081 0
-11289 -4410 0
-8018 4763 0
-8220 4307 0
-237 -4460 0
12155 8635 0
3936 -7033 0
5035 9279 0
-3231 10588 0
-5085 -8768 0
1228 -2071 0
8353 -6415 0
-2930 -11933 0
8092 -6651 0
8893 12156 0
-1108 -2519 0
4808 -6443 0
7834 -10604 0
8251 6190 0
-7577 -6040 0
9175 5040 0
-11031 823 0
401 -9255 0
2606 -10577 0
-1284 -8524 0
-10508 8039 0
-5203 8143 0
2656 9797 0
7195 8224 0
-7854 -10438 0
5607 -1705 0
10580 -3000 0
-9545 5527 0
8694 8710 0
10651 711 0
-10140 9927 0
-4189 -424 0
-123 4933 0
-6297 -4071 0
-9929 229 0
-4675 4691 0
-9486 -1017 0
8727 -7821 0
-8927 2466 0
-6183 8425 0
3292 9350 0
5899 6321 0
7359 12467 0
12097 -1896 0
-10595 3126 0
438 -3315 0
-9543 4557 0
10113 7975 0
-3035 -10743 0
2020 -10981 0
9396 11310 0
-9250 10229 0
10462 7548 0
3657 8087 0
6309 7115 0
11416 54 0
5960 -1606 0
-3095 -5812 0
8616 55 0
-12391 -11623 0
-10938 339 0
910 -6279 0
-11780 -2603 0
10690 -3512 0
9975 -10389 0
-8456 -11706 0
2320 9777 0
6585 11303 0
-4745 2345 0
4993 7273 0
-11410 11284 0
-7564 12070 0
6623 -11285 0
6823 -4746 0
4288 -419 0
-4024 11262 0
-7867 -1305 0
-10655 3256 0
11488 3792 0
9554 -8083 0
3182 -3125 0
-3530 -3640 0
1255 -1436 0
-12153 3430 0
4086 -1852 0
-8195 -8049 0
8883 -9061 0
-2284 -9951 0
3571 -7951 0
7505 11020 0
795 -3223 0
1690 7080 0
-229 -2158 0
4702 9462 0
-6121 -10665 0
-4079 -10551 0
6967 -7118 0
-9405 9319 0
7419 -5606 0
11052 -10088 0
4839 11511 0
4242 -8794 0
11728 -11473 0
-6874 5372 0
6086 -1954 0
-2755 7859 0
1981 -733 0
-732 8216 0
8796 -9671 0
-3129 -10781 0
5625 -3718 0
510 -569 0
-2669 1446 0
-5575 -8192 0
4750 1200 0
11231 414 0
-4204 -2153 0
-335 -1764 0
-2563 -9175 0
-1720 7882 0
-10009 -10382 0
8396 -9418 0
36 -351 0
-1255 -12333 0
-1984 -7550 0
6416 -11761 0
-9207 -6491 0
-9208 9668 0
-11371 -11718 0
4094 162 0
-1397 -11569 0
1963 -3727 0
-1178 417 0
6295 1322 0
8262 -8502 0
1789 -11713 0
-5791 -6801 0
995 -6869 0
7512 1310 0
1138 7777 0
-3632 -10771 0
-11228 -516 0
-8924 10455 0
2011 11512 0
-6782 -3224 0
9882 5013 0
4011 1781 0
5598 -10713 0
-5576 6142 0
-713 11524 0
2305 -9328 0
-5233 -8958 0
2819 -577 0
9922 -5565 0
9936 1102 0
6591 5169 0
-9792 -8250 0
6976 4695 0
-8125 -9180 0
-2279 -9801 0
-10894 -8535 0
9053 6978 0
-2904 -10044 0
-6811 10178 0
4729 5185 0
3944 306 0
6734 2837 0
7436 -11162 0
-8760 -11110 0
-4960 6794 0
9155 4813 0
-8127 -12402 0
11159 2801 0
2004 9435 0
-8942 7868 0
9771 10582 0
-5267 -4013 0
-1163 -8922 0
10310 9640 0
11173 4233 0
7246 3366 0
-8438 -5640 0
-5478 -7284 0
643 -8881 0
11705 -11836 0
-8409 10949 0
3092 10561 0
-6515 -11524 0
12132 -5725 0
7869 -8635 0
-10906 7906 0
5355 -6769 0
10839 342 0
12032 -5065 0
-5764 1874 0
8678 2929 0
-5151 -5028 0
221 9121 0
-2159 4009 0
-250 -10225 0
-10764 -3710 0
-4143 2006 0
3094 -3870 0
1232 887 0
-9770 -3067 0
5437 4937 0
6692 7515 0
-1618 -5793 0
-10281 -2678 0
1386 8716 0
-4399 -9553 0
-11122 -8101 0
-6731 -6869 0
2110 -12181 0
-5135 -11073 0
-1533 -7026 0
-7029 1339 0
4427 -5923 0
3954 -531 0
-6774 -1442 0
-10977 -3139 0
-7954 4592 0
-9074 -8096 0
1820 -6319 0
201 -7377 0
-10363 845 0
9643 -1570 0
3965 6118 0
-3503 -1304 0
-6276 -4039 0
1463 6051 0
-2290 -3392 0
-3286 -5763 0
-8380 -7962 0
-2983 -883 0
8692 -7303 0
7910 3901 0
7753 10223 0
-4009 -10160 0
-2747 9578 0
-5144 -3298 0
3559 -12099 0
-1998 12326 0
2758 767 0
-153 -2497 0
-790 11868 0
1549 -3864 0
-9263 -970 0
-11569 -943 0
-7321 -10551 0
918 2746 0
-814 -10694 0
1069 1981 0
6019 7386 0
6431 -5505 0
-10204 -4430 0
7489 -11200 0
2891 -7603 0
4681 -5268 0
10387 -5654 0
-859 4234 0
-7544 -3899 0
-6725 4069 0
-5635 -7875 0
-2995 -12229 0
-908 -3772 0
-8299 -989 0
-2650 300 0
-8566 -10456 0
5295 -10119 0
-7958 -1480 0
-5527 9232 0
-11750 12010 0
-3060 -75 0
-4434 2555 0
-821 -7442 0
12139 10986 0
1867 9523 0
9127 11981 0
11586 2089 0
6139 -2702 0
9079 4243 0
1197 -2888 0
-8314 73 0
-3497 -2660 0
4172 8357 0
-3312 -9104 0
-2313 -12415 0
7804 -9623 0
7985 9713 0
-8391 -5896 0
-6902 -7114 0
2626 -7223 0
-261 10871 0
10925 -11307 0
-11757 3544 0
10930 -322 0
4544 -10116 0
-9396 11251 0
-10794 -5682 0
-11753 -2129 0
9435 8509 0
1584 -8843 0
10707 -2704 0
-8046 6418 0
-11860 8777 0
1646 6601 0
5332 -4301 0
1304 -9749 0
-10733 7312 0
554 -3650 0
5510 -2009 0
5438 7588 0
-9145 -10664 0
-7348 1976 0
-3479 -1862 0
-7439 3911 0
-9324 5903 0
2373 5382 0
9423 -4435 0
-9787 7487 0
-11327 8391 0
8048 -5391 0
10340 -11580 0
-12310 -10573 0
9266 2201 0
-2667 -921 0
-7855 11984 0
-10135 670 0
9551 -5352 0
-4459 3599 0
11760 -4272 0
3681 4114 0
7299 10074 0
8615 1668 0
473 10711 0
-3903 -7305 0
517 -11032 0
1696 -10230 0
9053 -9716 0
2138 8145 0
691 5996 0
-3693 4386 0
-9911 -2493 0
-6081 -4118 0
2663 11077 0
-8547 5273 0
7279 -11432 0
-469 2222 0
5656 11153 0
-2733 11718 0
8095 -3535 0
-7861 8231 0
9024 -11795 0
10135 -6013 0
-7025 2167 0
-7098 615 0
-3505 6535 0
-12329 -6752 0
10206 -2228 0
2215 2202 0
4827 1431 0
-12368 -12209 0
-10218 3061 0
1272 4458 0
5393 -3019 0
-10131 11859 0
8678 -12341 0
-7944 10426 0
-2694 8315 0
-1024 8176 0
12171 331 0
-1826 -4158 0
4065 -2430 0
3916 135 0
-11006 -2173 0
-7209 2806 0
-8333 -9320 0
-7858 -2076 0
6322 9558 0
-7385 12462 0
-7180 10386 0
-297 -1075 0
4977 -11899 0
-11924 -1841 0
-10056 -1922 0
-11385 11366 0
-9733 -3124 0
6123 -2997 0
-4102 10479 0
-10059 7542 0
6163 -8957 0
1547 -6417 0
4027 -5378 0
-2161 -6333 0
-2954 -3470 0
7395 -4415 0
-3144 -6546 0
543 6609 0
11868 -7121 0
5295 -10419 0
67 -11507 0
9524 438 0
-10918 -9147 0
2865 -4143 0
-5831 -6902 0
3144 8231 0
-11861 6543 0
6564 -8235 0
9006 8247 0
-3269 -2457 0
-1227 4200 0
4411 8209 0
7060 6227 0
-2014 -11019 0
9484 7472 0
5273 -10343 0
-5794 1681 0
-2311 5324 0
-9293 9739 0
-5295 -8820 0
-2180 8811 0
-4635 4201 0
1040 7760 0
7352 9319 0
9365 8539 0
8813 -6135 0
8130 9484 0
-6268 2773 0
6478 -2853 0
-1320 9945 0
2268 7501 0
2676 -6875 0
3557 -3091 0
11113 3021 0
12056 -7004 0
-4580 4241 0
7023 308 0
9452 860 0
-4024 -1549 0
-9335 10403 0
9589 569 0
4854 762 0
-9507 4263 0
-5737 1477 0
-1593 -10186 0
10866 -5060 0
-7064 2299 0
8930 -1810 0
86 1986 0
11772 -5052 0
-5709 -10670 0
4850 2634 0
-7797 4626 0
-6303 -3450 0
-11486 -1933 0
-7840 12220 0
-4042 6628 0
9495 6933 0
-974 -4343 0
7618 -12059 0
11726 -7569 0
4240 -7441 0
-3909 -5284 0
11908 -4632 0
-1798 -11163 0
-12388 -7613 0
-2857 130 0
4006 6780 0
9591 -6979 0
3463 -6716 0
-396 -11002 0
-5849 2777 0
-7271 9840 0
543 4771 0
-5623 -813 0
-4951 494 0
10373 11484 0
6775 1166 0
-8794 -7899 0
6273 -7703 0
7736 3245 0
-7965 4611 0
5052 3314 0
-1897 -1408 0
950 -1842 0
-1777 -9689 0
7571 -4421 0
1280 9595 0
8677 4439 0
-496 -9056 0
-7930 -11727 0
6189 10095 0
7373 11710 0
-4344 -4776 0
-5287 6524 0
6055 -12125 0
7015 87 0
496 -4180 0
-4675 4002 0
3827 54 0
-602 12000 0
-9522 8813 0
11182 -5015 0
-7460 2890 0
4014 -12156 0
-8451 -11286 0
732 7919 0
11816 -7662 0
-8855 2571 0
-1360 10108 0
1998 5160 0
5386 9958 0
7177 1157 0
-10169 220 0
7451 -8705 0
-9368 9105 0
-4069 4808 0
4860 11063 0
7043 -7240 0
-1033 6189 0
-2753 -4199 0
-2296 -8452 0
259 -2702 0
2344 10220 0
9162 7131 0
-12249 -4438 0
10087 11337 0
-12122 6850 0
1196 -11022 0
-1618 -7980 0
-4045 -4235 0
-6680 -2989 0
-6323 10128 0
-10205 -3341 0
-6483 -9283 0
6665 5489 0
2736 -9203 0
-6069 9967 0
7159 -856 0
5095 11358 0
-9833 9082 0
10820 -12406 0
11261 -8084 0
11157 10980 0
-645 -3035 0
-7101 12241 0
5516 -8223 0
-1751 -9012 0
-3694 -10117 0
11636 -2476 0
-4217 -9666 0
-8119 2246 0
-10012 9510 0
-1574 298 0
-8555 10210 0
11439 4854 0
2246 9720 0
1480 -7558 0
-2219 7697 0
-9173 12391 0
1621 9717 0
-4483 -6417 0
2421 -5528 0
-2815 -10732 0
9997 -9637 0
163 -3747 0
-11199 3151 0
-11243 -6348 0
665 -8808 0
-1947 -11801 0
9182 -573 0
904 -3020 0
9409 4957 0
-11301 7168 0
2473 10974 0
9813 2450 0
-10685 3175 0
8199 6789 0
5838 -4814 0
7359 -1448 0
9480 2099 0
-9425 10062 0
3075 -675 0
-2189 -9822 0
10645 -8472 0
-10400 8434 0
-2169 -8240 0
-3986 -7134 0
-3850 7786 0
-160 -7567 0
11951 7960 0
530 -3701 0
-10324 6314 0
6148 7426 0
3780 4334 0
2950 -10292 0
1890 -10514 0
2619 7028 0
6517 -7349 0
1070 -6320 0
-4483 9991 0
9604 -10499 0
-11271 -3511 0
-7929 11842 0
-7455 -8556 0
712 11357 0
7298 10283 0
-6999 -12246 0
-3946 -5983 0
-9467 -521 0
453 5360 0
3517 11430 0
5177 -1837 0
-4897 4164 0
-10890 11788 0
8530 7120 0
-5301 3776 0
12208 -7515 0
7502 -8462 0
7393 -2830 0
-983 4165 0
-10135 -6877 0
5234 12148 0
-4142 2125 0
1566 -1696 0
11236 1727 0
5809 -10036 0
-6749 11188 0
2210 -5153 0
-6429 -9374 0
-3144 -6400 0
-1789 5298 0
9935 -10396 0
5785 2597 0
-3142 11446 0
-4699 -52 0
-1189 -589 0
-5041 7087 0
7604 -10083 0
-5303 -5718 0
3031 10142 0
9821 -10706 0
8897 -4069 0
5363 12215 0
-7384 3404 0
12103 4189 0
1614 -12003 0
-12153 -8378 0
7450 -677 0
-7181 3466 0
-9626 5483 0
-3707 8068 0
7191 10611 0
-4026 12 0
2371 245 0
-10548 8710 0
3015 -1940 0
10705 -5947 0
-6506 5836 0
7546 5604 0
234 -11981 0
11516 2247 0
1367 3680 0
-5230 -5522 0
9064 3066 0
-1520 -5783 0
6275 -571 0
-9196 6933 0
5311 -10387 0
4976 -837 0
2136 7747 0
-10270 11068 0
-9382 -6944 0
-6567 4963 0
6452 3338 0
-84 1246 0
7192 6133 0
1763 -1508 0
-9648 3198 0
-498 6753 0
304 -772 0
-6884 12435 0
-5821 6254 0
8186 249 0
-3160 -8175 0
-11053 8109 0
7430 11201 0
-5577 682 0
7613 3831 0
-9915 -6626 0
-3974 -3168 0
-6149 -12290 0
6392 5415 0
1033 5887 0
-4977 229 0
-7035 6638 0
3118 6350 0
8918 -4625 0
5234 -5627 0
1104 -4026 0
10642 -7178 0
3288 5470 0
4574 -4061 0
5095 9793 0
4969 -9719 0
-2728 426 0
5090 940 0
-10280 -11956 0
-2050 -3894 0
-11548 -2667 0
5460 -2985 0
-4589 11489 0
8711 -4800 0
-10881 -2184 0
6566 -8035 0
11037 -5060 0
3265 8861 0
-9072 -11419 0
-1442 2813 0
2173 -138 0
-7016 4983 0
-6873 -4248 0
11291 3142 0
12381 -11853 0
-6034 2048 0
-11331 -12332 0
-7756 -4967 0
8907 3884 0
10470 9621 0
1418 6507 0
880 -7441 0
-9850 -1864 0
11005 -6857 0
-9164 -4683 0
10128 9322 0
12223 -8464 0
-7570 -6202 0
-3254 -7449 0
-4032 1094 0
11685 -11375 0
8227 -2077 0
10606 2439 0
-3316 3458 0
9936 -7538 0
7288 -5061 0
-6687 10977 0
-10275 -3589 0
9383 -1255 0
-5070 -3387 0
-9432 1069 0
3022 369 0
-11978 -701 0
-8566 -2495 0
-10072 -6005 0
-6851 8981 0
-4311 8285 0
-11596 -6945 0
4798 -1405 0
-11780 -673 0
-2290 -6879 0
5459 2797 0
-11191 8561 0
2979 -10504 0
2029 10111 0
556 8892 0
10969 -5570 0
5714 -6026 0
-11605 12054 0
-3538 3724 0
6977 -8877 0
-167 9415 0
3258 -1117 0
8535 -5040 0
-11070 5819 0
11805 8362 0
5182 1905 0
7985 -3902 0
-12089 10237 0
-9778 1847 0
3369 -9002 0
11174 -11795 0
8199 -558 0
9208 -3795 0
-8898 11855 0
-11750 4584 0
10497 -11530 0
22 5601 0
3173 5241 0
3733 -11395 0
10144 10518 0
11536 446 0
-7060 1850 0
-9928 -2324 0
1574 739 0
5834 9712 0
-3570 4703 0
11823 10029 0
8209 -7733 0
1049 -701 0
-4288 4730 0
687 -6193 0
11434 71 0
-8595 -5822 0
1112 10244 0
-11782 4840 0
8353 5264 0
-1907 6430 0
-7283 -8811 0
-5440 6058 0
3682 2814 0
5532 -9436 0
-11907 7751 0
2401 8099 0
1658 2954 0
1888 8970 0
-4786 -917 0
-12125 11301 0
-5265 9385 0
7641 -1561 0
10421 11078 0
809 -3703 0
687 2133 0
-7295 -10528 0
3536 -381 0
-8524 2142 0
-9325 2929 0
6650 -5714 0
1283 2728 0
-429 10092 0
1363 5498 0
-11801 3733 0
-11808 7238 0
12264 -2420 0
-11522 -7416 0
-10341 -12272 0
-23 11726 0
4774 10544 0
6984 1977 0
3851 7173 0
7158 -895 0
1952 -5854 0
9498 -3416 0
-2371 3793 0
12339 9959 0
-12404 -10560 0
8924 3621 0
-4582 -1441 0
5522 5904 0
-11608 -6378 0
1315 -10954 0
-211 3879 0
-11964 2468 0
12392 9068 0
1142 696 0
4476 6361 0
9854 5067 0
-4725 -4717 0
-5576 7928 0
-11309 -5449 0
-3811 -639 0
12057 -7680 0
-3854 4978 0
3855 1870 0
-111 -8681 0
-10624 7230 0
5103 -10246 0
-9657 8280 0
9732 10080 0
-2766 7624 0
98 12085 0
-1984 -4776 0
-3156 5894 0
-504 9084 0
-7068 3515 0
8141 -5690 0
-9203 -4253 0
-582 11005 0
8169 2814 0
5356 -10643 0
170 3316 0
2868 6328 0
155 3196 0
-7594 7894 0
5449 11700 0
-5930 9099 0
-10992 5526 0
10372 3941 0
-11596 -9172 0
7314 3861 0
5745 -9419 0
3537 -7047 0
3042 -11347 0
11619 -3129 0
2679 -3435 0
4863 5028 0
-2852 1066 0
10593 -1524 0
4354 3506 0
10042 -10320 0
531 3690 0
-1684 1293 0
-2518 -5572 0
-6124 7095 0
-3425 7236 0
-11917 1790 0
4813 12326 0
-12225 8992 0
-5497 10017 0
11928 -10407 0
5462 -2858 0
-200 1275 0
-629 -1382 0
-4113 -11613 0
-3571 -7434 0
4168 -4599 0
11942 -9773 0
9895 -8954 0
2833 -9135 0
8573 -5230 0
6974 11901 0
-9861 -1770 0
5501 6824 0
8630 3850 0
-338 4259 0
-3550 -7293 0
9265 4291 0
-11990 12454 0
8972 -11362 0
-5013 3203 0
3675 3892 0
7611 -11576 0
-2044 -489 0
-11066 -8725 0
-10115 1509 0
6695 -4078 0
8439 -1904 0
-1220 -10431 0
-8889 2221 0
-3161 5096 0
-5406 6250 0
-1769 -6527 0
-8356 4307 0
-779 11302 0
-1248 -2070 0
-4403 -1509 0
12438 668 0
8512 -5495 0
-2359 -2784 0
-2958 -5510 0
2811 -2659 0
104 1794 0
-10302 -2942 0
-3032 -11475 0
-11813 -3872 0
-5105 -10344 0
471 11407 0
-6849 6699 0
11367 -11684 0
-2334 9321 0
3048 8171 0
6261 2883 0
7894 -8234 0
5493 -5100 0
2156 9983 0
10250 8385 0
198 1317 0
-2889 -1377 0
547 2718 0
6612 5131 0
-1214 -6568 0
-7248 -971 0
399 -3837 0
9016 11012 0
10541 -9659 0
1254 -10687 0
8323 -2830 0
-4625 12033 0
-8720 -6022 0
11893 908 0
-9978 -8690 0
-10130 5673 0
812 1598 0
-7462 4751 0
9165 -2331 0
940 -7830 0
1690 7849 0
-11954 9732 0
4033 -9124 0
4450 -10705 0
2602 3452 0
-10199 -5687 0
4451 5493 0
5068 -4834 0
-2018 6020 0
-11136 11798 0
-9249 -5032 0
-7388 4632 0
-3122 10048 0
11621 5896 0
6219 8892 0
-3568 6444 0
-12273 -12295 0
-4550 10128 0
2426 -3687 0
1711 5928 0
8119 3884 0
9808 12381 0
7034 7118 0
9065 -3994 0
8801 11458 0
10267 6952 0
-12353 -6891 0
1419 -12347 0
-10477 11026 0
9473 -333 0
1358 959 0
-8463 -9498 0
2731 -10440 0
-5788 6770 0
4387 7933 0
5821 5994 0
1766 -5209 0
-8126 3266 0
-1786 -2047 0
-6566 11438 0
5239 -3192 0
919 -10666 0
1552 7763 0
-5659 -1247 0
-6783 9868 0
-5026 -9107 0
-11597 6766 0
648 7359 0
-917 1900 0
8642 -4078 0
-6653 -1286 0
-4252 -12180 0
-7460 -4982 0
5328 -8372 0
-8437 12100 0
7298 2709 0
11748 4091 0
-3805 -6010 0
7530 -8162 0
-90 2198 0
-1461 -9847 0
2123 -8910 0
166 3510 0
10960 2965 0
-10629 -7512 0
2153 9548 0
10034 -7433 0
3056 -12462 0
6497 -4399 0
-1137 6860 0
-1530 -7179 0
1058 -6612 0
7392 -3295 0
-8682 -10889 0
-11853 8458 0
-5685 -3053 0
2452 -2678 0
-7368 -8674 0
4580 10386 0
2427 18 0
10265 -11876 0
7350 8502 0
7151 8781 0
-7950 3803 0
2186 2368 0
-7633 -8856 0
7138 -12379 0
-3727 845 0
11065 -9883 0
6996 -5473 0
2591 -12122 0
-6100 -7979 0
9358 5497 0
8443 -629 0
-9622 -2830 0
5711 -11581 0
4996 251 0
1904 -70 0
8011 -5463 0
10027 709 0
8354 11886 0
76 -2826 0
-178 -2063 0
5369 -2788 0
-10616 -1629 0
8911 -8871 0
-1122 8819 0
2712 8898 0
120 -8019 0
-5298 -4486 0
4361 11260 0
-6005 9329 0
-4155 -11735 0
6761 -3763 0
1829 -6844 0
662 -1490 0
-3234 9858 0
-3407 6555 0
7395 -5093 0
6021 -1368 0
-10419 -9392 0
10614 -6774 0
-10752 -6882 0
-9142 -11717 0
-4196 -11479 0
10213 -8 0
-4841 10333 0
5920 10938 0
-9333 -525 0
10834 9816 0
10579 6506 0
-2122 8222 0
8260 2838 0
2673 -12123 0
-768 9493 0
-2372 -2172 0
8379 -7951 0
2404 -7972 0
4807 -9081 0
-5898 12301 0
7299 -5546 0
10158 -574 0
-1974 -10682 0
-1596 2842 0
-8106 -9700 0
-10832 2562 0
-1710 -932 0
4416 -8522 0
-10277 10191 0
12171 -10700 0
-1960 -7816 0
5796 5086 0
-6327 -7720 0
-7695 -10813 0
3254 5750 0
1472 4583 0
-10816 -6605 0
-8207 -11432 0
4556 -4235 0
3971 3694 0
9849 -9494 0
10797 2408 0
-9751 1051 0
-2578 -6235 0
7461 -6680 0
-1282 6295 0
-3059 -5146 0
12251 -7391 0
-6826 10039 0
-4607 -3535 0
11720 8399 0
-7386 11803 0
4728 5323 0
7416 9288 0
-2738 -7235 0
-7733 5343 0
7963 -12197 0
12410 4462 0
-4485 -4589 0
-4848 -9321 0
7697 -9867 0
9174 5046 0
5934 9577 0
5481 -334 0
9927 2625 0
-7433 1814 0
426 -6600 0
8530 -8431 0
-5598 -7153 0
-7779 -7269 0
5856 1196 0
-8993 5283 0
-1865 -2420 0
8494 -4673 0
10478 12091 0
-9501 -5924 0
-3022 -802 0
10492 3389 0
6742 6773 0
-6989 10491 0
11873 -5074 0
607 -10664 0
7300 -7997 0
10676 -10948 0
-9050 2960 0
9377 -3047 0
-5271 -10322 0
-642 2291 0
-1510 4334 0
11148 -10160 0
6859 2891 0
-8391 -6748 0
-2032 11652 0
-9069 -7468 0
-9019 4006 0
-1040 -1235 0
11489 7385 0
12252 125 0
8139 -12005 0
-11517 -3139 0
8182 2845 0
5655 -5769 0
4968 -4938 0
2966 -3335 0
-10580 -12257 0
11034 -4448 0
2567 -3932 0
-8599 247 0
-985 6213 0
-11522 4869 0
3373 -6679 0
-8297 12392 0
-863 -8441 0
11053 7981 0
5955 -10543 0
5637 7105 0
-3795 -4857 0
-9526 -2031 0
-6875 -10280 0
10704 -2783 0
6687 8508 0
-6565 -3624 0
-7934 11187 0
7769 5191 0
-3622 2143 0
-589 9085 0
-8553 -2900 0
-7699 8879 0
6232 -9490 0
2109 392 0
-8995 -1197 0
-10542 -6116 0
984 -2019 0
-4140 -7490 0
-8160 -12352 0
-5217 -10972 0
7998 -6342 0
-7203 -2748 0
9601 -12260 0
847 -2367 0
11772 -2167 0
-12319 -7440 0
5400 7699 0
10483 -10370 0
2590 4270 0
-744 -5593 0
-11346 -5022 0
2541 -9728 0
10559 -8185 0
-9582 10826 0
-11262 5912 0
-11839 9941 0
4021 6271 0
9380 12045 0
-3874 -2428 0
-9728 207 0
10377 -1846 0
-8693 1441 0
-7664 9708 0
-3187 1499 0
-6283 4774 0
5453 -1862 0
-6792 4447 0
11733 -6491 0
-6806 8701 0
-12290 -10779 0
2487 595 0
5081 4246 0
-11776 -2065 0
8644 -7060 0
5221 -2407 0
7909 -2568 0
838 -2792 0
4047 2060 0
12371 -11532 0
-7767 -3814 0
-11661 3977 0
-12135 4621 0
-10080 -7454 0
-1528 -11169 0
-2237 -9554 0
7892 5702 0
8857 9704 0
5890 675 0
9405 4293 0
11561 5737 0
5323 3771 0
-2651 -2630 0
-4378 -9827 0
-767 -4603 0
-6797 5764 0
-8493 7400 0
612 3294 0
5299 -8638 0
-6832 10919 0
2317 -7579 0
-11398 -7340 0
8210 6126 0
-11459 -10934 0
-2472 8907 0
-240 4096 0
-5972 681 0
3218 1515 0
903 -2733 0
2089 968 0
5897 1377 0
-7459 -330 0
-10274 9435 0
444 611 0
3297 809 0
-8817 3515 0
-11182 -4199 0
3334 10859 0
10449 -9203 0
10180 6932 0
8574 5375 0
-242 -11447 0
9031 -6114 0
-8725 5516 0
7856 -10634 0
-1949 1153 0
4474 10501 0
-5793 9744 0
-6588 -1608 0
2074 -2542 0
10268 6083 0
2306 -9841 0
11608 5570 0
4704 5842 0
10158 -5348 0
-6234 -7196 0
-3655 -5081 0
2795 949 0
6471 -2117 0
53 6039 0
8707 -11518 0
564 5129 0
8278 5696 0
-10679 -5597 0
11064 4054 0
-108 10237 0
-4608 8011 0
2058 12267 0
1658 84 0
691 2393 0
-4107 8671 0
-9800 -3690 0
-248 4651 0
-6894 -2757 0
12342 -5760 0
-1287 10659 0
9726 -2704 0
2221 8816 0
8769 -9171 0
10954 -9667 0
-2225 5968 0
-7419 -6032 0
-8257 -8188 0
-1946 3458 0
5559 -2075 0
6744 -11199 0
4983 -7842 0
11366 -3096 0
5746 -7167 0
-12009 -8397 0
-9080 -3098 0
-12457 -4042 0
10882 6770 0
5386 -9166 0
-10336 -3592 0
11034 -779 0
6945 -2126 0
5703 -9353 0
-499 8571 0
-4438 460 0
-6730 -8411 0
8329 -11250 0
-6777 11741 0
8753 -4250 0
-8853 9825 0
6398 5067 0
11409 -3352 0
11964 9007 0
-9094 -185 0
-734 -436 0
5155 11512 0
10208 2010 0
9408 -8922 0
5704 -7898 0
-5069 9775 0
-5223 -7226 0
8681 8219 0
5870 -384 0
-2412 -1177 0
-3347 -3359 0
3724 8914 0
11977 -10143 0
-8153 11070 0
7986 11298 0
8588 5246 0
7935 -3314 0
-8795 7051 0
-11512 9163 0
6614 -11746 0
-11102 -12425 0
12448 3131 0
-10733 2706 0
-2064 5985 0
-10355 -12419 0
-9676 11720 0
-10649 4726 0
2073 9062 0
-1756 11462 0
-7692 565 0
-8086 -8793 0
-9260 -7713 0
7609 532 0
-4605 -6642 0
5251 -9075 0
-5252 -10568 0
-11521 -3229 0
11694 11579 0
-12032 1334 0
7044 3827 0
10389 3789 0
1850 6335 0
-91 7910 0
4852 -2902 0
-10213 180 0
6784 -6672 0
8915 7519 0
9765 1742 0
-4380 -3415 0
-12312 -7838 0
9001 -10234 0
8323 9001 0
11297 -7105 0
-3430 -8847 0
4894 760 0
8397 -9198 0
-10138 -4866 0
-2957 -6675 0
-8138 10177 0
-6136 9633 0
1370 -1253 0
7529 -8932 0
-3600 -9885 0
932 -11962 0
-7200 8431 0
-10116 -8382 0
-10737 9868 0
-2726 -6248 0
8708 -7829 0
8502 -6635 0
11305 -12425 0
-8409 -3241 0
-4204 -9689 0
6225 240 0
-5974 7991 0
3539 -9978 0
1799 7428 0
-9509 -6792 0
5893 5932 0
-8312 221 0
1433 3834 0
-8342 -9005 0
4890 8415 0
-11849 1266 0
-12396 -5403 0
-7387 1209 0
1548 -11532 0
-1264 515 0
315 12064 0
-11894 2731 0
-8547 11503 0
-287 1997 0
8353 1386 0
4790 8282 0
740 2493 0
2712 -6023 0
6086 -3156 0
11308 -9683 0
-10279 10096 0
12324 -3822 0
-11799 11928 0
-2796 -1252 0
-9425 7369 0
9657 4170 0
7170 -8964 0
-11014 380 0
-1357 -567 0
11086 -533 0
2333 4522 0
-1117 978 0
11949 11827 0
2481 -10702 0
-10995 11896 0
778 -11619 0
10651 -327 0
11656 -11480 0
6429 -885 0
3498 -9888 0
392 9265 0
-7004 -5831 0
5194 10544 0
11261 -9274 0
7826 -2003 0
5819 -7493 0
10253 -12165 0
-4802 -6235 0
11246 5068 0
-10708 -12388 0
5579 -8756 0
4520 810 0
1674 423 0
11412 3296 0
6277 465 0
1757 -5459 0
6428 11082 0
-7828 -11135 0
-6768 1471 0
40 318 0
-11302 7615 0
-4349 2215 0
7804 -12267 0
5847 3533 0
2863 5730 0
-11178 885 0
702 -6819 0
11931 -11839 0
-6117 -9783 0
7597 -1055 0
-963 -4163 0
-3093 5825 0
-9641 -12077 0
-4493 -12111 0
2851 -2393 0
-1736 11221 0
8116 8113 0
-4199 -2311 0
8216 2388 0
8722 -3894 0
11793 -9567 0
-5515 10163 0
3399 -4884 0
4172 4864 0
7533 -12457 0
487 -5803 0
-264 -10044 0
-10228 12047 0
-9615 -9450 0
4330 -5600 0
4377 -4125 0
-1307 10128 0
8415 -2048 0
2331 1627 0
8707 5090 0
3786 -7184 0
2607 10432 0
-8104 1507 0
4 12267 0
-37 -8722 0
-8603 11168 0
-8824 9813 0
-1288 8529 0
-1199 2439 0
-581 12095 0
8351 6454 0
6674 7139 0
4425 2789 0
4666 12188 0
12438 -353 0
1642 -4618 0
8349 5181 0
-1964 9071 0
-792 10851 0
-6391 -6705 0
9962 11059 0
536 3751 0
11808 1820 0
-7534 4722 0
251 -1916 0
-2717 -1916 0
5805 -4597 0
76 1757 0
-3890 7099 0
6580 -9584 0
-5278 -6269 0
-1135 11738 0
-7525 6476 0
-3959 -12382 0
-7918 -8948 0
-260 -11344 0
5341 -9148 0
-3337 -4033 0
1097 -11645 0
-12005 3739 0
-5756 -4215 0
3499 8475 0
6317 -11983 0
6487 7357 0
-8775 -9678 0
7722 10021 0
3711 1846 0
-1683 -2101 0
1367 3071 0
-8024 5190 0
-5668 -4609 0
4963 11484 0
4586 541 0
-3582 -9436 0
442 12231 0
3061 492 0
9232 -6611 0
5306 6908 0
6434 4957 0
-6351 -9002 0
4699 11315 0
-8958 -11581 0
-6060 4202 0
-6528 -5657 0
-2989 6581 0
10047 218 0
8433 6395 0
-10382 -7419 0
10217 1210 0
-9165 11563 0
-7554 -11055 0
-6022 -8435 0
523 833 0
6381 5957 0
5965 7532 0
7975 -3305 0
-9850 9786 0
2657 -4811 0
7673 -2112 0
3108 8070 0
1261 3286 0
510 8878 0
808 7508 0
-4694 -5878 0
-10208 -6362 0
3658 8508 0
-2286 -5216 0
-10105 873 0
-8767 437 0
21 -3053 0
4000 5682 0
-10880 3652 0
-11088 10503 0
11265 -12354 0
-728 -5813 0
-10497 -10922 0
-8304 -48 0
-986 -8736 0
5149 -9884 0
-10871 -2312 0
2101 -8256 0
-7353 11982 0
-8096 -4851 0
-8660 -9869 0
-932 487 0
7804 -3000 0
7117 3205 0
-5525 -2714 0
11281 9213 0
-3907 -11509 0
-9793 -10458 0
11361 1500 0
9271 8594 0
10506 3587 0
-10722 2188 0
1876 -12425 0
-1333 2190 0
-3336 -3925 0
-8567 -8919 0
625 -3160 0
8281 -1957 0
9260 -5011 0
-3235 -10375 0
2673 2145 0
53 -6835 0
-3432 -9013 0
-11260 -1409 0
-7916 -9837 0
-4566 2299 0
662 11275 0
-6120 4436 0
661 514 0
5240 -97 0
-3654 -4439 0
1716 921 0
-7536 2477 0
4593 -9389 0
4835 904 0
-6710 -10141 0
-10179 -10498 0
-291 5138 0
11618 9847 0
-11761 -5244 0
-6479 -8842 0
-3609 -8700 0
-6789 4771 0
364 510 0
9442 -6541 0
-5084 -10696 0
3088 -1627 0
3301 2646 0
5254 8355 0
4858 2165 0
-6412 6923 0
-1516 -10118 0
-3966 1021 0
2934 5624 0
-8059 -6791 0
-1229 11660 0
-8080 5021 0
-6279 4328 0
9211 -11558 0
2981 5180 0
2220 10344 0
6558 490 0
8133 -10449 0
-930 5702 0
-10603 -4856 0
-10268 -1412 0
-4126 -1338 0
4347 -2807 0
-883 2249 0
-5368 1658 0
9747 -1045 0
-12373 4813 0
-8680 7521 0
12074 -4383 0
-8953 2729 0
-9389 -7892 0
-4598 -102 0
-4166 -3796 0
-11928 11097 0
-3140 879 0
-10375 2816 0
-6474 4900 0
-2831 5605 0
3152 6424 0
-5732 4317 0
-2666 12446 0
4139 2020 0
-10057 4268 0
2431 -633 0
-3728 2326 0
-11678 8399 0
-5015 4711 0
-6491 4932 0
-8067 2203 0
1744 9654 0
-8742 -4083 0
-83 -4189 0
-989 -5710 0
-5892 11742 0
5543 -3299 0
-3212 3220 0
11424 5473 0
-9703 -6514 0
8694 -9134 0
2562 -2979 0
-6379 133 0
-9264 -11130 0
5779 10507 0
-8724 -2617 0
-5933 -2822 0
10773 10259 0
4074 -1985 0
3344 8629 0
-8485 12116 0
6 -12281 0
-2248 7345 0
-6168 3156 0
6911 -622 0
968 7391 0
11738 967 0
-8951 8925 0
-5328 2150 0
-5802 4276 0
2350 -8363 0
12127 -10282 0
1115 -3272 0
-4209 -10790 0
-10626 -2745 0
-8660 5930 0
2126 -1180 0
-9725 563 0
7553 -8835 0
-6311 -7564 0
9172 -10781 0
-10290 257 0
-1949 -1999 0
-11307 10647 0
8206 -11248 0
-4216 -1198 0
4366 -6297 0
-280 9384 0
4875 -10115 0
-6673 10677 0
-5339 6430 0
3271 -8100 0
-8157 11464 0
3612 -6818 0
2960 -10700 0
6984 4685 0
-10101 -8792 0
-6323 -4991 0
7764 11574 0
11434 -1987 0
6587 9365 0
5369 349 0
-9116 -228 0
3814 -2857 0
6615 -5384 0
-7794 10077 0
-2566 -6634 0
-6431 -6438 0
8205 -2307 0
-1413 4346 0
4935 -3966 0
-6200 5695 0
5150 11893 0
-3339 1859 0
-5182 703 0
6887 -8176 0
-7003 8510 0
-2855 553 0
-5491 610 0
-10295 3729 0
-9194 -6150 0
-3752 7867 0
9140 10535 0
-9614 -4498 0
-2578 6138 0
-1818 -6518 0
5694 734 0
2092 6663 0
-6755 -2843 0
-7015 -10457 0
-10318 -3589 0
4625 8017 0
8960 -1435 0
-6944 -9490 0
-10504 -12134 0
-2783 7486 0
-10806 4158 0
-7237 -190 0
7249 -4437 0
-10666 -7074 0
7580 10361 0
7000 9933 0
4231 10179 0
7847 3941 0
-4734 4198 0
3135 1846 0
9029 -4210 0
-10164 -11566 0
-11498 6220 0
2479 -8937 0
-5646 -7762 0
-8693 -1195 0
-9646 -3828 0
6651 8055 0
-4985 7756 0
4760 -11698 0
-2625 -6716 0
-9401 5053 0
-531 9150 0
-4985 919 0
-1991 -2844 0
-12142 8435 0
3745 -3732 0
210 4604 0
5574 8389 0
-2634 -11404 0
12092 3806 0
-212 9592 0
-10156 -2602 0
-5898 -7946 0
-11381 8397 0
8439 6212 0
-1481 -6150 0
-7994 6825 0
-6822 10048 0
2949 4227 0
12116 2173 0
-3612 -9932 0
5100 511 0
-4856 -5305 0
-6751 11807 0
1190 1093 0
-722 -1069 0
-1755 3764 0
-4597 5696 0
1494 -4170 0
11798 -11265 0
-3593 8772 0
-7116 -7668 0
-11821 -8108 0
3024 -12408 0
-6085 3456 0
1525 984 0
-2629 11166 0
-11395 -6173 0
8945 -2821 0
6846 -3572 0
-402 -7807 0
-10028 10368 0
-2319 -8545 0
-10500 -3402 0
6119 -5338 0
3787 3038 0
11713 -8541 0
6889 12087 0
9685 9059 0
6888 -8454 0
-5065 8366 0
-10545 -9594 0
2069 1221 0
9751 1176 0
3015 -9808 0
-4849 -4609 0
-6079 -3530 0
-9901 -1108 0
4811 7278 0
-2645 -2711 0
-7702 7476 0
-143 2677 0
-2320 10297 0
-7156 3250 0
-7425 6361 0
7108 11187 0
5408 11111 0
9015 -5527 0
10314 -12468 0
-8458 4371 0
12473 -2252 0
-12031 11658 0
-2247 -747 0
2622 -640 0
-11388 7874 0
-1008 -11061 0
-3358 -8685 0
-23 4263 0
4649 -452 0
-6342 5514 0
-5582 2466 0
-3512 9631 0
277 2863 0
4275 -5588 0
4696 -6484 0
-2051 -4023 0
-11344 -1350 0
446 5231 0
-6583 6084 0
2983 443 0
-2214 -291 0
-9496 -8158 0
-4588 2450 0
6985 7673 0
5483 6690 0
10136 -3209 0
-6191 4604 0
2469 -855 0
7852 6821 0
9303 1559 0
6815 5793 0
5612 3438 0
9832 5579 0
3797 5758 0
-7432 -2713 0
-5450 8324 0
9822 -9701 0
996 3431 0
4879 2599 0
9967 -8321 0
-2070 8841 0
-5373 -7836 0
-9247 -8197 0
-4308 6893 0
5873 -3020 0
11315 -4477 0
-12470 9482 0
10953 2134 0
-3884 1929 0
-2895 -3160 0
5070 192 0
-8081 -6559 0
-9425 -1008 0
-4676 -4319 0
-5259 7016 0
-7077 3086 0
4660 -6458 0
-4613 12354 0
11955 1659 0
-10307 10741 0
-3693 10148 0
1687 11251 0
-2928 -2090 0
7761 -12206 0
-8738 4912 0
9195 6815 0
11637 12315 0
7485 453 0
8827 -8150 0
-10185 7768 0
-5452 -9525 0
7660 -10132 0
9064 -4344 0
-7551 4148 0
-7468 -7319 0
9595 -655 0
-2472 8541 0
5098 -8529 0
2473 -6644 0
29 -177 0
-6590 -2852 0
-9088 11446 0
192 -11145 0
-798 -9965 0
11126 2253 0
-11555 1458 0
-12213 -988 0
-6151 -5587 0
2663 -241 0
8657 212 0
9214 3342 0
-3883 2106 0
-10501 -2203 0
4684 8539 0
-10114 9222 0
-5086 -10273 0
-4549 -4773 0
7482 -4353 0
5700 -6114 0
6959 -8774 0
-210 10022 0
-619 -10132 0
-1175 6103 0
-2100 -5525 0
-3960 10256 0
8399 -7037 0
-7342 -3752 0
-9678 5401 0
8020 11617 0
690 3534 0
-5421 -10865 0
3436 6944 0
1935 2282 0
5711 -1836 0
4941 -734 0
-10749 10154 0
-6221 -5337 0
5302 8949 0
6859 709 0
10636 -12024 0
-337 9217 0
8655 10684 0
-4421 -10089 0
-9694 4479 0
1663 -7837 0
2013 10240 0
-746 3356 0
-9136 -2674 0
-9432 -2296 0
9175 12445 0
-11135 4694 0
4923 10827 0
-4830 -1708 0
-4969 2991 0
1877 1832 0
2936 5990 0
8451 -9061 0
6936 12457 0
-6167 -6977 0
1950 8710 0
-9824 -5499 0
-9421 12193 0
-2548 4774 0
4802 -6156 0
7795 10799 0
-8118 11114 0
4132 -5894 0
5099 -500 0
-3274 12450 0
11206 7478 0
9777 10265 0
-3631 3132 0
-8803 -6840 0
4882 5564 0
-1440 11007 0
5973 -4709 0
11625 -7563 0
-961 1815 0
3778 7797 0
12462 364 0
-4750 2237 0
1139 -10702 0
-8912 4351 0
-6820 -2492 0
3545 -1713 0
-496 12447 0
-9587 12477 0
-3621 -3632 0
-1695 4759 0
4647 -8682 0
1322 -6937 0
1969 6377 0
-8114 1144 0
1459 8197 0
-4368 4242 0
11456 -10186 0
8527 -9163 0
915 -11480 0
-1229 9657 0
-5305 -7676 0
8460 4445 0
-10632 9621 0
6736 1847 0
-6593 3773 0
5035 -4709 0
-11600 -3109 0
-2112 -1450 0
-3399 759 0
-5794 1475 0
5700 -10926 0
8811 8911 0
2791 -280 0
9641 -4012 0
7407 10868 0
2557 -9251 0
-1745 576 0
-6235 9607 0
-7311 -11840 0
5135 -1724 0
6663 8034 0
-5415 -10281 0
3455 9295 0
-8599 -570 0
9861 -3421 0
10092 -2246 0
1502 9325 0
-149 6273 0
-10871 -9220 0
11837 6082 0
58 -1356 0
-6502 -8472 0
-2458 2864 0
2662 -11146 0
586 6490 0
5104 3799 0
1870 -9837 0
-8146 -12399 0
-1265 -3641 0
-5938 12075 0
-3648 -6927 0
2419 -4231 0
6289 824 0
11447 -5296 0
-12323 -11705 0
11789 -626 0
5924 977 0
2621 2963 0
-9218 -586 0
-69 -2437 0
4318 4040 0
-7675 5792 0
-2394 10407 0
-2825 -7904 0
-4199 4374 0
7015 5897 0
-9890 -6804 0
3445 3596 0
12447 8665 0
-841 -869 0
-8239 9146 0
-3557 807 0
-6334 12434 0
3958 -3591 0
10390 -8964 0
-11031 11058 0
-518 865 0
-4306 11854 0
-2356 -4607 0
-10719 -378 0
4293 7373 0
-8822 9211 0
-8721 8459 0
-7567 7761 0
4942 -5839 0
-4260 7148 0
85 5955 0
753 8048 0
-1475 -6712 0
3815 -2418 0
10576 1259 0
6463 -8520 0
1536 5585 0
-8622 -11737 0
-10974 -11687 0
11060 -4237 0
-7445 -5375 0
5834 12193 0
10819 5223 0
4243 -974 0
8616 -217 0
-4866 -6802 0
-8137 -7445 0
9048 6857 0
-8069 -641 0
3114 -11419 0
9643 -3450 0
2427 -6687 0
-5675 -2986 0
-5827 12251 0
-7059 -9934 0
-8293 -3401 0
4239 -6605 0
-3207 -2583 0
-650 -10493 0
8140 -11194 0
-710 3798 0
-1491 9913 0
10499 10340 0
-5483 -11922 0
-1385 -1921 0
-7187 5380 0
3159 2005 0
-3083 -9052 0
1621 8534 0
-7795 -6200 0
10598 -2329 0
-10837 -11470 0
-1954 -9160 0
-871 -3394 0
5032 3087 0
-5604 1924 0
3270 -1405 0
3279 -6022 0
4137 -1361 0
9557 -10099 0
-6575 4532 0
-900 -1298 0
9563 434 0
5778 7019 0
2970 3223 0
-8768 -3534 0
5997 7780 0
-316 1060 0
624 -4472 0
-4679 6823 0
-10991 -7902 0
6294 11789 0
7779 2862 0
-9998 -5315 0
-8900 392 0
10220 -12183 0
10418 8554 0
-1525 9570 0
756 -2697 0
-10758 1176 0
434 -9368 0
12123 -769 0
-6765 8992 0
778 -1287 0
-10789 12410 0
-11767 9657 0
7726 -2996 0
-11186 4730 0
-4354 2789 0
-5406 -1583 0
679 5199 0
3771 8056 0
-6779 -6739 0
-4204 -962 0
8712 4722 0
-9106 3304 0
1123 -11172 0
7536 4925 0
7092 -2816 0
5636 10651 0
-5879 -2733 0
9525 -3193 0
-10324 8990 0
-3959 -8521 0
-6767 -2760 0
-1302 -875 0
-9735 -5834 0
-2299 -6165 0
-2727 2397 0
506 -7785 0
-3575 -8225 0
10619 2445 0
-1124 4347 0
-2539 306 0
-3950 -8700 0
2335 -6397 0
814 -5840 0
-840 -5064 0
-11381 4305 0
2872 -10180 0
11881 10090 0
-4152 -10 0
5431 6126 0
5047 1703 0
6551 5790 0
6100 6689 0
-7911 -3324 0
-10286 3042 0
-1659 -5155 0
8612 5527 0
10409 2166 0
-7921 10292 0
3769 -4668 0
-10939 -4936 0
-10044 5575 0
-2997 -9516 0
5766 -4786 0
-884 3734 0
-3319 9648 0
6515 4395 0
10768 -9424 0
-8188 8915 0
-2956 4834 0
8340 -11998 0
245 8788 0
-11987 -4807 0
3362 -3976 0
-10958 10405 0
1554 3286 0
-6149 -9409 0
-160 -2668 0
11420 9859 0
-4444 10362 0
12145 -2777 0
-1927 -2672 0
8542 -12470 0
9030 -2590 0
12306 -2404 0
7145 -985 0
2891 12218 0
11289 -9175 0
6074 -689 0
-11476 -5418 0
4663 9663 0
-1518 8166 0
3612 -9891 0
6714 -9592 0
8322 -3529 0
-2528 -5602 0
3697 7781 0
7836 7788 0
-1885 -5433 0
832 -3893 0
-1359 11829 0
11028 4814 0
7987 7474 0
-7421 -3582 0
9730 -1034 0
-12179 -195 0
7038 3203 0
2383 -11650 0
-4358 1804 0
-2032 -8686 0
-6776 -412 0
1063 -3994 0
1634 -230 0
3674 -11076 0
-7093 -3771 0
6345 4120 0
9465 10092 0
48 8129 0
4367 -4981 0
3064 -11353 0
-6939 -3733 0
-3482 9570 0
-11700 -1395 0
3593 -8269 0
-6035 -2551 0
-70 -6364 0
-4675 50 0
355 6773 0
-8660 2341 0
9227 -2321 0
-7427 -5795 0
5912 9210 0
4775 -9445 0
11843 -6522 0
2649 -2359 0
-7949 -11619 0
7469 -78 0
-9214 5109 0
517 2905 0
2848 988 0
-10009 10068 0
-2793 2274 0
9448 9335 0
-4619 -6261 0
-8690 9167 0
12036 2587 0
-11040 8062 0
9973 1032 0
9445 5854 0
-7190 4231 0
10599 9265 0
9560 3338 0
3499 -11156 0
-11025 -2399 0
-1602 -8481 0
-6162 2824 0
-4520 8191 0
-11480 4085 0
5636 4519 0
-2875 -11849 0
4573 -8135 0
4352 -9383 0
8482 1303 0
9886 3493 0
-8169 11633 0
6709 -1288 0
-11891 1561 0
1222 -9117 0
-7649 -581 0
-11211 9865 0
-3392 -8487 0
1345 -9262 0
-6479 12174 0
-723 -9266 0
6286 -7016 0
11624 -6552 0
8413 -9554 0
-5835 -11165 0
-10097 -4584 0
-5746 -2839 0
6778 8248 0
5720 6183 0
-6539 -5450 0
3403 3719 0
-3427 2202 0
-8932 914 0
-9168 9822 0
-7686 -6118 0
-1846 -9208 0
-10295 -8377 0
6123 -3597 0
-5940 11501 0
-513 5445 0
5503 168 0
10593 8038 0
-9611 2147 0
-8130 -3829 0
9199 -1053 0
601 -2037 0
11662 9619 0
-8397 -7425 0
-5071 -7737 0
-8801 -5459 0
-9439 7046 0
4736 11677 0
1264 1389 0
-2642 12056 0
7395 -9784 0
-7096 -4468 0
-6904 -9884 0
10547 -8749 0
-10918 -12368 0
-7024 8753 0
-3723 4798 0
2586 -1634 0
5746 -7931 0
6869 6097 0
3903 -6582 0
9622 -7056 0
-9787 -1987 0
458 1228 0
-2697 2250 0
12249 1979 0
6134 -11934 0
-6437 252 0
10430 -4666 0
5146 2933 0
-2129 5225 0
10880 -9133 0
-5050 -9497 0
-11142 9033 0
311 -10129 0
-100 6708 0
-10704 10502 0
-7432 -6807 0
6347 8779 0
-3255 -4581 0
7815 -2959 0
-2803 3565 0
-5647 8266 0
2229 -9160 0
11656 -1534 0
3853 -199 0
-2357 11349 0
12243 10023 0
4500 708 0
-1233 1120 0
-11088 -2808 0
-10865 11526 0
6890 910 0
-10012 -10750 0
-8976 6463 0
-2681 1808 0
2995 -5088 0
-8467 8875 0
9831 -5061 0
7986 -1530 0
9625 -2500 0
-12071 -3326 0
11978 5547 0
2969 -1955 0
-4435 37 0
5873 10215 0
-5403 10085 0
-6308 -10803 0
9478 9001 0
-6913 -6147 0
-7022 9581 0
-1122 12348 0
-546 3536 0
-6958 8113 0
-6100 -8641 0
-10139 605 0
3989 1102 0
-6653 -2155 0
-3858 -5214 0
8868 -9600 0
535 -11962 0
-4764 -4736 0
-5028 3598 0
10089 9693 0
3376 -5123 0
-10740 -4988 0
-8217 -2874 0
-11340 -10033 0
-7394 -5551 0
11961 -638 0
1675 -7967 0
3666 9730 0
4497 457 0
-4126 12398 0
3734 11439 0
-7281 7181 0
-12402 8756 0
-8463 11596 0
-520 -8699 0
9181 -5707 0
12126 -3093 0
595 -2054 0
10232 4719 0
5650 -1212 0
-119 -7756 0
1442 -5850 0
-11576 3924 0
4702 -6216 0
9821 -1187 0
-1432 -12147 0
11953 11209 0
1375 -1474 0
5204 1375 0
-1613 -7418 0
-9792 -10105 0
-7630 -6149 0
3696 -399 0
-9160 -9090 0
2782 3322 0
3388 -4593 0
-2152 10678 0
6063 3812 0
1627 -5324 0
1371 2211 0
-9329 693 0
-3577 -12066 0
9449 -1828 0
8617 -4013 0
-10256 9154 0
5902 -1007 0
-12095 -7322 0
6734 7308 0
-443 6439 0
-199 -4967 0
-1285 -8637 0
12238 928 0
8438 7637 0
-2362 4242 0
352 -7971 0
10722 11186 0
-7484 -7473 0
4079 -8966 0
6279 -3380 0
4927 -2714 0
7721 6264 0
2015 -3002 0
-10523 -3880 0
-7642 -8983 0
3051 2554 0
1130 3022 0
-9101 1539 0
2374 9042 0
8355 11133 0
9399 -4198 0
7413 -9961 0
2837 -7412 0
-6903 -11825 0
1410 -11608 0
1542 -6938 0
11263 -11065 0
-11342 11140 0
9806 7538 0
-8126 -10395 0
1631 -296 0
-6509 10748 0
914 7930 0
3319 -4437 0
-6203 -2420 0
-7217 3076 0
-4310 -5516 0
5498 5730 0
10581 9397 0
11897 8966 0
-11531 -9043 0
-1041 -7107 0
-4959 6270 0
2499 11700 0
2600 10085 0
9825 -2936 0
-6525 -2987 0
-3752 -5674 0
-1939 11003 0
7889 11462 0
3676 10585 0
8223 5727 0
11986 10603 0
6086 -3063 0
5353 -5322 0
-729 9598 0
9499 7151 0
659 12434 0
2395 115 0
6850 -11699 0
2347 -10389 0
11733 6993 0
1642 -1859 0
6636 -4097 0
9914 9497 0
-10815 -10980 0
-2461 5286 0
-885 -4162 0
-5051 508 0
-12212 606 0
2560 -3233 0
5626 -8376 0
6540 -4603 0
7573 -5257 0
8773 8381 0
-765 -8697 0
9112 2837 0
-4195 -4643 0
7444 5552 0
8294 -5924 0
6523 -6762 0
4242 -5953 0
-7971 -2671 0
4702 -4890 0
5702 10224 0
3578 11414 0
3589 11739 0
-4507 -4064 0
5768 11214 0
-7895 -9998 0
-2386 -7024 0
12467 6556 0
366 5102 0
-3418 6395 0
11065 4265 0
10718 -4365 0
12362 -562 0
-5393 6533 0
-6947 4885 0
-11425 -571 0
5690 2013 0
6267 2603 0
507 6872 0
12113 -5098 0
-1098 -6828 0
-12355 6180 0
10210 7903 0
-2660 -11884 0
-784 11746 0
-4081 -1212 0
-1206 4702 0
7299 -193 0
-5806 -5588 0
11099 11092 0
8357 -6355 0
12400 -12106 0
-9981 236 0
4519 -10735 0
-5250 -9025 0
7778 -1514 0
-887 -1891 0
10786 -8297 0
-604 8497 0
12280 -5025 0
1568 -1751 0
-2191 10295 0
961 1908 0
-9746 -10893 0
-10839 729 0
6910 -7626 0
8395 10635 0
6704 9784 0
9262 1183 0
-3957 -9262 0
8558 -1219 0
-9759 -3750 0
-4082 -11901 0
-5715 168 0
12227 4929 0
11188 11321 0
1128 2947 0
8021 -9778 0
-528 -41 0
-1651 5951 0
4919 6819 0
-403 8876 0
-8341 -4851 0
-5285 3673 0
5750 -8593 0
-9955 -969 0
-119 4496 0
-7921 -11658 0
4874 -10058 0
-5967 10820 0
4889 7569 0
12456 -9052 0
-11678 4370 0
819 -6057 0
3481 3561 0
-9853 5016 0
-4161 -11054 0
6415 -2566 0
-8823 -9524 0
-1618 -2277 0
-6322 -842 0
1769 -10176 0
-7491 5100 0
4586 -6879 0
-11842 -11596 0
-11307 -8595 0
12224 1006 0
9611 3444 0
-6247 -4994 0
9959 4583 0
12445 -4760 0
4114 1291 0
-11928 -3469 0
11536 -2760 0
-8577 9815 0
-3023 10415 0
11072 -7937 0
-1849 1072 0
8155 8935 0
4164 11468 0
-6548 -7734 0
-7760 -12100 0
-3876 2202 0
389 -8219 0
175 -7829 0
-2241 -7621 0
11621 -10334 0
4234 -1759 0
-10723 -11459 0
-1814 8427 0
-3466 -12143 0
-4734 -3245 0
-4323 5634 0
1455 6851 0
22 1569 0
-3522 -5259 0
12435 11423 0
-1640 -6165 0
-5949 -3843 0
-3353 11024 0
-1428 -7166 0
-8354 -1651 0
-9698 -10553 0
-5671 -2113 0
6125 -5519 0
1869 2019 0
-4182 -12182 0
8668 6028 0
-5133 -1158 0
-11626 -7030 0
6698 9865 0
-2307 -5771 0
-4581 -498 0
8617 -2612 0
830 5611 0
-2520 3496 0
-4307 -10544 0
-6955 -5150 0
2951 -8610 0
4770 -60 0
-9241 -5772 0
10366 5548 0
-10319 -6024 0
6471 11242 0
-11443 -6259 0
10195 -11521 0
9236 -5448 0
-4517 -8499 0
3151 6465 0
4946 12226 0
10059 -7703 0
7928 3906 0
-8165 3330 0
1500 -10911 0
5277 -7335 0
-4553 -2177 0
6388 10421 0
645 -10537 0
12256 -7270 0
11439 -10326 0
-11845 1060 0
-10163 -10169 0
-10385 -2000 0
111 12070 0
3901 -5861 0
-5419 -5391 0
-8777 -10743 0
-4758 -8221 0
11453 12056 0
9401 -11666 0
-1334 3935 0
7887 11730 0
-818 10454 0
11048 -9067 0
1873 -10251 0
-403 10654 0
1581 -8731 0
10850 4135 0
760 832 0
3315 1303 0
9078 2090 0
-3484 3878 0
936 -6822 0
-7391 -43 0
9681 -10825 0
9123 -474 0
8486 -10536 0
-11741 4322 0
-11335 -4410 0
-10484 7939 0
-4025 -11862 0
3478 4143 0
11308 -6507 0
-782 -2779 0
6019 -6295 0
8207 6306 0
8752 8259 0
1985 6099 0
-12463 -6765 0
-9266 9584 0
-3264 -1577 0
-10212 -8663 0
6520 10579 0
1293 5216 0
-10682 9174 0
-3053 -9782 0
4892 3377 0
-6774 4953 0
11120 11023 0
11103 -7198 0
1851 3610 0
1518 -2571 0
-3309 -9686 0
3882 8730 0
-1290 6825 0
9265 11845 0
8430 -204 0
-8102 7084 0
8447 1718 0
-2398 -3130 0
-9043 1682 0
4536 4524 0
-6259 6962 0
-12159 -8804 0
2010 -3520 0
7275 -3156 0
5240 -5021 0
-2302 -2977 0
-9542 -1490 0
8641 11855 0
-662 12062 0
-10341 781 0
11854 8058 0
-765 -4778 0
6333 11173 0
4767 -5589 0
12262 -8746 0
10096 1042 0
972 -12337 0
8868 -8151 0
424 -720 0
-4907 4874 0
8370 357 0
60 4672 0
1742 8335 0
-3261 8396 0
132 9733 0
6363 -12214 0
-2169 2937 0
5194 -7606 0
1546 10196 0
11353 -926 0
1269 4499 0
-10692 -10380 0
10996 12470 0
2001 11150 0
-8303 7360 0
-10587 4262 0
6142 4296 0
3035 -9081 0
-605 -9966 0
4354 3495 0
-1661 -9548 0
-913 -11268 0
-9688 -3855 0
9380 6174 0
-7617 3633 0
-2211 -4816 0
-4844 1379 0
-1825 -9272 0
-5324 -4310 0
-7293 2366 0
-846 -5927 0
10017 9756 0
-11520 -2112 0
6996 1171 0
-6104 5866 0
-9522 -2661 0
12193 394 0
-3829 2462 0
-7388 1735 0
-6291 8048 0
-685 -5986 0
3623 -5232 0
-1037 -4819 0
4204 -869 0
1489 -753 0
1695 -7541 0
-3936 6531 0
12097 9012 0
-4883 7521 0
-2680 -6018 0
4583 5204 0
-10345 11115 0
-4255 -534 0
-729 10715 0
-11442 1861 0
-6248 7218 0
-1978 9712 0
10759 9932 0
5110 -2216 0
-2694 -10434 0
-4177 11272 0
12339 1141 0
-8619 2870 0
173 -844 0
-6131 10772 0
815 4096 0
6343 7973 0
-8032 12362 0
7869 419 0
4935 -2683 0
-10076 -12093 0
7789 10084 0
5241 713 0
8405 -9235 0
-11082 3097 0
-7941 -2005 0
11430 -2329 0
-590 8353 0
-7313 3562 0
8321 -8103 0
5570 -10609 0
6654 -6720 0
-926 -9397 0
734 3683 0
1746 -1925 0
-2319 -7405 0
4011 109 0
-2376 -3112 0
-4448 7217 0
-8236 1009 0
-8864 992 0
-4505 3454 0
-5361 -4438 0
6012 2803 0
5399 -8521 0
4313 -2956 0
-1507 7665 0
6687 -4415 0
7718 11691 0
-6501 -1484 0
3706 10966 0
8058 -12234 0
4104 -10751 0
-2159 -7910 0
-1478 6189 0
711 2378 0
289 4094 0
4433 -8805 0
-2662 9402 0
3013 8698 0
6851 -8910 0
6761 -11813 0
-3845 7297 0
-8152 -2082 0
1084 -10573 0
6871 -985 0
-9638 -11650 0
11430 11745 0
5843 -5284 0
8542 5223 0
-10193 -8112 0
-7002 5886 0
-8661 -3116 0
-8040 2465 0
-6845 -2618 0
3097 9308 0
-984 426 0
-8599 2403 0
8464 4257 0
-7124 496 0
-9189 6062 0
1947 -10607 0
-6206 1860 0
11420 -5334 0
-8764 -7239 0
6180 -1545 0
-75 -11350 0
6964 9954 0
4482 4374 0
-8586 -9815 0
501 1500 0
-2326 -9616 0
12083 -702 0
5840 -2475 0
9798 12474 0
-9492 -7505 0
-1624 11018 0
-5739 8563 0
-6840 2951 0
-4548 -7279 0
-2725 -8689 0
5882 9357 0
5309 -462 0
2392 -8193 0
3818 -1328 0
-376 -9148 0
-3162 12379 0
-11375 -7079 0
4927 11434 0
1152 -1948 0
