c NF
p cnf 6547 11785
4883 4273 0
3726 6480 0
5782 -6318 0
244 -2622 0
-1147 3694 0
6317 -2467 0
180 -3488 0
-241 5405 0
-3036 316 0
-5009 -400 0
1397 -926 0
-2275 5805 0
-6334 6191 0
-3684 -4255 0
-4300 -1828 0
3447 593 0
-2056 517 0
-5634 -6427 0
1563 3887 0
-3933 750 0
-2164 -3927 0
-5718 -5416 0
-4173 2143 0
3168 -2708 0
1145 4492 0
804 421 0
-6041 5548 0
5825 -5903 0
148 953 0
1768 -1897 0
-5904 6489 0
2279 4810 0
1716 -531 0
3963 3345 0
-3840 -4125 0
1751 4628 0
-3026 2840 0
5329 -102 0
1840 3721 0
1599 -4125 0
-5325 505 0
4066 3135 0
-5921 -1972 0
-3119 -2441 0
3636 -1036 0
-4125 -2515 0
5394 -1310 0
5467 2621 0
-3671 -415 0
3966 1302 0
809 -3991 0
3191 3314 0
2954 3249 0
-2959 2608 0
1690 193 0
-1203 369 0
1722 4162 0
-1382 -369 0
-176 -5505 0
-3712 -5182 0
-400 2704 0
-4308 -3979 0
3010 1535 0
-6106 2875 0
-5290 4098 0
2803 -4581 0
-1861 -483 0
1349 -5260 0
-6494 -6427 0
6034 -4147 0
-2280 995 0
-5726 -3869 0
-3748 -1582 0
6280 -1844 0
3741 -2475 0
-4535 4647 0
2529 4245 0
3692 -1362 0
5693 -4411 0
1453 -5474 0
-5921 -6061 0
5207 -561 0
-3347 -4763 0
-6247 -2708 0
-5372 4781 0
-5173 5956 0
-1728 -205 0
1297 6438 0
-6273 4114 0
403 4484 0
5259 -1627 0
-570 1394 0
-542 -212 0
-1988 -4487 0
-6490 -3750 0
1254 500 0
6323 5390 0
3506 1857 0
-5942 4333 0
2723 -1211 0
-1624 675 0
1958 5317 0
697 -3717 0
4454 4460 0
-4535 3076 0
2587 590 0
-4520 254 0
-2966 305 0
6029 1741 0
1288 2964 0
-856 -1320 0
-3555 -5668 0
5061 2621 0
591 4950 0
-199 -3882 0
-2814 5435 0
-2861 2542 0
3761 -2216 0
3400 -216 0
-4576 -2369 0
-6052 -2427 0
4977 -4384 0
4935 447 0
1020 1019 0
-2036 2565 0
5657 2002 0
-5122 -5783 0
-2243 3169 0
-2040 -2931 0
-3635 2687 0
3700 -3812 0
59 -4135 0
2783 2393 0
5397 -4456 0
5321 -1812 0
734 5071 0
6507 -215 0
5855 -5571 0
4950 -5965 0
-5014 3032 0
4755 -3397 0
1798 4890 0
-4281 -1288 0
2169 2135 0
2181 -820 0
6330 -4549 0
-4804 -702 0
-3134 -6076 0
-4952 3113 0
4952 3902 0
-5144 3254 0
-4755 3569 0
6375 -3137 0
3580 406 0
4445 4385 0
-663 -6167 0
-252 4852 0
5956 -2839 0
-3798 -6105 0
-5438 2758 0
5308 3851 0
2964 3619 0
-2977 3663 0
6083 -1748 0
-297 3439 0
-240 -2475 0
-4533 -1498 0
-647 5900 0
-1580 -3671 0
3512 6188 0
-1667 2106 0
-5364 -2139 0
1819 4918 0
5022 1711 0
4406 3436 0
-4528 215 0
4149 -1297 0
4116 657 0
585 -3764 0
5232 -4944 0
5548 -1239 0
4907 -4587 0
4348 2590 0
4005 -6412 0
3440 -1188 0
-4114 4299 0
-2275 3325 0
3241 363 0
-4147 339 0
-4491 3634 0
2788 -4055 0
-5687 5451 0
-863 -2088 0
-2775 5269 0
-5927 -3628 0
-820 2922 0
-1096 -1133 0
-5743 3009 0
-5885 -733 0
-5882 -3765 0
-1353 -965 0
396 6001 0
5378 4965 0
-172 -2673 0
505 -4226 0
-1744 -2792 0
-115 -1276 0
-1539 -5571 0
-1501 -3398 0
1465 -6416 0
6095 1456 0
-2960 -2550 0
846 1049 0
2965 380 0
-1523 -557 0
-120 -6176 0
4852 -2775 0
-293 -5225 0
-3697 -250 0
-5565 2110 0
601 -5721 0
-3078 -317 0
2156 417 0
4457 2525 0
5740 632 0
-2100 5575 0
4341 6226 0
3659 -2444 0
-2914 -1944 0
-3776 -6480 0
591 -5878 0
3862 3409 0
-1709 6200 0
-6158 -1260 0
6150 -1643 0
-5592 5367 0
-1011 -4790 0
4994 5255 0
3163 290 0
1527 -6147 0
-4376 -4242 0
-1185 -1189 0
4738 -6373 0
-5756 -3676 0
-6275 -2358 0
-4922 -6028 0
3507 -2619 0
299 3129 0
583 5782 0
2501 -3075 0
3145 6252 0
-403 -6404 0
2617 4553 0
-3691 4460 0
6195 -5721 0
6274 5998 0
5590 4641 0
3147 -2200 0
-5320 -1338 0
1269 -6044 0
-2131 1127 0
-3023 -5736 0
1826 2938 0
1040 -4267 0
-6532 -4078 0
-3449 3542 0
3809 -3349 0
779 -1478 0
2698 -4041 0
-1355 1967 0
2443 -720 0
-3276 1388 0
1452 -2751 0
3195 -2715 0
-3330 2185 0
-2055 -1344 0
5732 3262 0
-4249 6343 0
4551 -3160 0
-804 6353 0
5556 -3140 0
3705 -5991 0
5041 -3000 0
3332 670 0
2183 -3072 0
3045 4370 0
-3938 221 0
-6374 1487 0
3612 4315 0
4991 911 0
-2329 -1197 0
4794 -3370 0
5458 -1842 0
4089 851 0
-5262 6220 0
5165 1317 0
-5079 6252 0
2190 1360 0
430 -1032 0
-3848 5240 0
3773 -1484 0
4484 -1965 0
-3423 2365 0
2664 -537 0
-2213 5435 0
-5614 762 0
2010 -309 0
-8 -2959 0
5861 -492 0
-590 -756 0
5309 -1728 0
-3311 3419 0
-5153 -1521 0
6264 3440 0
5287 -3081 0
-6023 6363 0
-1169 459 0
-4218 -4416 0
-2678 3323 0
691 -1540 0
-2127 -5180 0
3904 -2413 0
-2967 -1916 0
-5372 -116 0
2170 -2192 0
-450 -5127 0
4474 4357 0
-3044 -3939 0
-4212 -2179 0
-207 -4212 0
-1039 3668 0
5483 279 0
-2298 -1431 0
5619 -361 0
5911 -1136 0
3649 -1913 0
-4370 5765 0
1387 -1416 0
6006 -3183 0
-1775 -288 0
-1050 5589 0
5700 679 0
-5815 -3661 0
70 -5372 0
954 3497 0
-451 1392 0
3819 1859 0
-299 -4386 0
3919 4739 0
4266 -3650 0
-5141 2780 0
-3388 -4426 0
-900 6144 0
-613 -5234 0
-1945 -3694 0
-2814 -2504 0
-1234 491 0
-4901 -5093 0
-3678 -11 0
4120 3199 0
3577 -2567 0
882 4498 0
3054 -3267 0
-5894 4001 0
-2109 4180 0
389 -5451 0
744 3231 0
3289 -2392 0
5365 587 0
-3264 -506 0
3162 -157 0
-1556 3486 0
204 1732 0
-5960 812 0
-1888 -1605 0
-1201 4260 0
1345 -3362 0
-4497 -2671 0
1710 -4787 0
1682 4602 0
5999 -2854 0
-5754 4926 0
-4627 -172 0
3077 -501 0
6034 -1956 0
5230 -844 0
5862 1666 0
-2786 4613 0
-437 6332 0
1314 3539 0
-3770 -4504 0
-1316 941 0
-2281 -5080 0
-5078 -4576 0
-944 -2342 0
3707 -4945 0
2672 724 0
-2941 663 0
6491 -2773 0
-3341 -3261 0
2673 -2317 0
-1252 1570 0
4825 6543 0
2296 4777 0
3404 3047 0
1577 601 0
-2512 727 0
-6520 5415 0
5615 6496 0
2018 -725 0
-5231 6506 0
3576 -6368 0
-2289 -2644 0
2957 3558 0
-5733 -1004 0
499 -4946 0
2248 -2837 0
-3962 -134 0
-6070 -6378 0
3280 5192 0
23 3089 0
3540 -2753 0
1586 -1906 0
-4250 5911 0
3387 -5222 0
1471 -856 0
-1893 3018 0
1868 -4522 0
-1100 1208 0
5863 1496 0
78 -5761 0
324 -609 0
865 4232 0
4449 -561 0
6297 -3130 0
-5724 805 0
-1669 -989 0
-5521 -2544 0
-3196 -3088 0
1835 -1319 0
-259 2748 0
-2685 -2171 0
-3342 -2966 0
1474 -1783 0
2107 -3800 0
-4694 -5406 0
-5355 -3515 0
-5981 -2084 0
-3078 2897 0
-4399 1011 0
-3941 2809 0
-1589 -6163 0
4184 3472 0
3759 -3412 0
1952 -1845 0
3309 -1305 0
5489 3461 0
4348 -6195 0
1622 -5311 0
4510 4729 0
-2567 -2623 0
-3814 -1756 0
6090 -5969 0
-5856 3624 0
4638 888 0
-5376 1992 0
6371 532 0
-1577 -1713 0
-4723 -58 0
3268 -2405 0
-424 1228 0
-2448 -2612 0
-3471 3903 0
-4080 1889 0
-3031 -2047 0
-2173 -420 0
-5668 -4684 0
-61 -5749 0
232 -1007 0
-933 4277 0
5139 3423 0
4014 -2856 0
4865 1020 0
5146 -6028 0
6174 -5203 0
-667 -4436 0
-3611 2392 0
-5603 70 0
6153 -2739 0
6234 3501 0
-4725 3923 0
1929 -5190 0
-4093 -2810 0
4010 -4241 0
3992 -6508 0
6295 -2104 0
5385 -3474 0
-5982 -1834 0
3657 -1819 0
1314 -2585 0
2407 5422 0
-1325 -5645 0
6440 5879 0
-4367 3790 0
3255 -5829 0
4781 1765 0
-4624 -5119 0
3059 4324 0
-2679 2445 0
-3179 -147 0
3696 -2664 0
2574 1512 0
4067 1617 0
3581 5229 0
-5144 -527 0
2579 -4953 0
2386 1596 0
-5564 -163 0
-3134 -3847 0
-1905 971 0
-553 1918 0
5847 -602 0
-3314 -226 0
106 -402 0
-819 6140 0
-3035 -2781 0
4138 4316 0
6472 -1007 0
-5014 2333 0
3661 -1252 0
-3374 -5779 0
-5530 -965 0
1202 -6365 0
3227 -4769 0
-5267 -5721 0
-5039 6006 0
-5362 6000 0
-587 4884 0
-4933 -4091 0
2988 -6133 0
4980 -6096 0
-5268 761 0
-2926 -2920 0
-4968 3279 0
5809 838 0
3283 4843 0
-5257 -4288 0
1165 -4616 0
6431 -4551 0
5708 5896 0
-3954 -3370 0
-5309 4529 0
1780 -3793 0
5907 -4582 0
5241 1067 0
4120 -1472 0
1596 4814 0
-3580 -1580 0
-47 -1545 0
2519 -3805 0
1885 6273 0
4229 3726 0
1930 -2354 0
1882 -1008 0
230 4237 0
-4520 1148 0
-1113 -3024 0
-574 -4697 0
2365 -667 0
-1330 6447 0
-4588 -2750 0
4094 -4484 0
4985 3429 0
-3080 4402 0
5967 4122 0
1199 591 0
968 708 0
4857 13 0
5736 4058 0
-2590 -5195 0
-990 -2149 0
-6154 -3184 0
4873 -2286 0
2571 -2798 0
-220 3567 0
-995 3516 0
-4086 -6324 0
2172 -5880 0
-3911 6085 0
-4459 -1610 0
2390 -1679 0
-3622 5204 0
-4725 -5292 0
5613 -1932 0
422 -1260 0
-3861 -4685 0
-2011 4706 0
-4129 6353 0
5695 1343 0
3801 -6284 0
-5176 -5521 0
-1678 -3296 0
6437 -5008 0
-2576 6006 0
-4277 5647 0
6522 -6504 0
-2367 -3766 0
2974 -1137 0
-149 3065 0
-1155 -335 0
-361 447 0
185 4094 0
-5859 -3082 0
1271 -3454 0
-3672 -4594 0
4030 27 0
-5352 5789 0
-439 5823 0
-6510 -4677 0
-3659 -4627 0
-1476 5620 0
-3570 -1658 0
2953 5707 0
-3681 -220 0
3437 18 0
2033 -939 0
1840 -4850 0
2865 3597 0
5305 1261 0
-6292 -2902 0
-5075 2416 0
-1612 5230 0
2370 -5580 0
707 249 0
-2847 -3891 0
-4615 -4042 0
2831 -4766 0
-799 2524 0
337 -6051 0
2682 -2287 0
5336 6103 0
-3423 3366 0
5728 -3934 0
4079 2824 0
-176 4901 0
-2330 1511 0
-4303 6098 0
5662 853 0
-6008 -5279 0
-5679 -2920 0
56 2193 0
-2270 2637 0
6463 -5306 0
-373 5293 0
-3425 4073 0
5325 -1463 0
4276 6111 0
3893 2599 0
1203 4245 0
2236 6170 0
-4475 398 0
-3246 -1302 0
-434 2461 0
5738 6379 0
-3699 -6068 0
4767 -1808 0
-4156 3693 0
-4374 -4672 0
2310 1784 0
-4596 5993 0
-6337 -4816 0
-5650 -3184 0
4280 -1059 0
6107 1340 0
295 -6348 0
844 -3703 0
-512 -5537 0
-1531 -2197 0
814 -1906 0
1512 -3684 0
2065 3509 0
-3029 5056 0
-1583 -1398 0
-2074 550 0
-6499 560 0
-3578 448 0
2149 1487 0
-6527 -1209 0
-450 2489 0
-3836 677 0
-413 -2905 0
-2073 -4481 0
-5697 -2250 0
3023 -1529 0
-65 -748 0
4293 -3169 0
-184 -501 0
-1675 -6508 0
-4016 -2369 0
-3995 -1310 0
-6424 -5221 0
-438 816 0
-2984 -6410 0
2999 2337 0
-4074 -2256 0
-3491 3899 0
968 5475 0
3286 4430 0
-2798 6310 0
289 -1169 0
-1273 2233 0
-701 6068 0
4821 3526 0
-3597 -57 0
-2192 -5761 0
5817 -5240 0
36 -1839 0
5431 -5532 0
-2330 -346 0
2854 5782 0
2848 -1439 0
64 -2464 0
-4885 -6391 0
-2217 -3255 0
-3490 5704 0
5825 3683 0
-6019 -756 0
1856 1343 0
1360 1417 0
-4139 -4840 0
-2201 -4914 0
-6106 5845 0
-2624 3717 0
1966 -2118 0
6257 2702 0
-108 -3867 0
5652 999 0
2521 5475 0
1990 5045 0
5303 1591 0
-334 4973 0
-6011 -1613 0
4134 -377 0
4966 -253 0
4901 1379 0
871 -3330 0
6185 -5074 0
5300 2248 0
-3213 5902 0
4136 80 0
-6280 4584 0
2453 261 0
3128 -3167 0
1135 -3766 0
-5800 -456 0
-2270 4579 0
-2329 161 0
3225 3046 0
958 -5922 0
1340 -930 0
509 -4534 0
-2927 3095 0
42 2656 0
-5204 -1481 0
2642 2268 0
-2132 -4210 0
162 264 0
2236 6177 0
-2593 -6504 0
-937 4969 0
-5573 4395 0
-5517 4340 0
-770 -5860 0
4045 530 0
-528 3881 0
505 -1178 0
-2556 6344 0
-2826 -3339 0
-5623 -4206 0
-5345 -2919 0
-1055 2529 0
-4076 3502 0
3386 -3560 0
5287 -2808 0
996 -4131 0
-5643 1634 0
-3501 1719 0
-5183 -6088 0
1761 -5094 0
-198 -5737 0
-787 487 0
-3862 1508 0
-2723 -1422 0
-4896 2571 0
-2849 -4307 0
-2805 -1102 0
-4680 -5692 0
-2792 5075 0
1210 3134 0
-4053 -3886 0
6449 3641 0
-1914 -2688 0
1154 -1999 0
4884 4610 0
-621 2049 0
-44 4937 0
-4351 -1005 0
-1349 1117 0
-5841 -5656 0
-501 4554 0
-2733 1182 0
-630 2542 0
2070 -1978 0
-4590 -4850 0
-1499 -6192 0
-2770 -6099 0
-2297 -5526 0
5778 5161 0
3992 2887 0
-4904 540 0
-1669 -3600 0
4887 -756 0
-6156 2537 0
1678 -5820 0
3281 -4335 0
-2872 -6524 0
-3082 507 0
-5110 -1539 0
-816 2398 0
-1999 2659 0
-6186 4629 0
-2630 -5421 0
-5800 -1710 0
1019 3079 0
-5459 -5528 0
2145 1955 0
472 316 0
5965 -5264 0
2982 -342 0
-4770 4791 0
-3088 -6485 0
-768 -88 0
-5797 862 0
5156 2580 0
3801 773 0
2556 -2095 0
-6518 5489 0
-6504 6023 0
-523 -5728 0
-623 2557 0
-5629 -6483 0
6094 -1255 0
-2275 -3179 0
-2372 -448 0
-6453 4251 0
-1920 6546 0
-4528 429 0
-3718 3478 0
636 -734 0
-843 -3006 0
6244 4723 0
4988 4575 0
-952 -6316 0
-5392 5731 0
-4262 6438 0
4856 6442 0
-285 3690 0
4789 -1764 0
-4906 3350 0
1698 4052 0
2004 -1164 0
-529 -243 0
-5159 3866 0
4366 3222 0
5087 -1842 0
-1740 1193 0
-6462 -1538 0
-5952 4966 0
-4365 4955 0
169 3052 0
-4090 1629 0
-1946 6544 0
-1903 -4871 0
5757 3355 0
-518 3695 0
-2064 -3333 0
6184 5821 0
5843 -1220 0
-4101 -3294 0
-2436 3590 0
1712 -6060 0
-3161 -683 0
4601 6475 0
-2946 -4675 0
3014 5655 0
6480 2333 0
-817 2608 0
-980 5937 0
-5881 -4139 0
-2450 -2086 0
3625 666 0
2819 5658 0
-2313 2646 0
-4311 -2641 0
-2302 3014 0
63 1203 0
3816 -6090 0
5390 -1424 0
2233 -2266 0
-2544 -4824 0
1770 991 0
6397 4859 0
2314 1377 0
-2325 3984 0
-5258 -438 0
5180 3541 0
2407 -2385 0
4275 -6528 0
-4491 -4112 0
-6183 -5262 0
1452 4437 0
5728 5939 0
-1044 -4435 0
-2696 474 0
3575 5664 0
4538 2504 0
-3100 -3772 0
6176 5071 0
4502 690 0
-5537 3460 0
-3179 -6278 0
-2551 4227 0
-4960 -2255 0
-894 1066 0
-5578 274 0
2214 4124 0
-4505 5464 0
-1717 1822 0
2191 5203 0
-914 -1496 0
588 2483 0
-2877 6285 0
6200 731 0
-3034 4139 0
6264 -4570 0
-2111 6196 0
4182 -4612 0
-2750 3071 0
1954 -2576 0
-5805 5178 0
-6050 5662 0
-2671 -1944 0
1176 3423 0
133 4398 0
-6407 999 0
4299 5107 0
-4436 138 0
-5009 5016 0
3557 -3958 0
-1493 -1710 0
-2661 -5217 0
-1716 -6292 0
981 5367 0
-2174 -4725 0
-639 -803 0
-2135 3872 0
2687 693 0
-4233 -5027 0
-6320 -253 0
5022 5312 0
4661 1727 0
-2056 -2063 0
-1660 -15 0
1145 4702 0
1144 1849 0
-6122 126 0
4370 -5292 0
833 -5305 0
-3557 -3820 0
-6495 -1876 0
-1238 5417 0
6202 2852 0
1878 -111 0
1401 1841 0
948 2666 0
-373 4116 0
-1249 1128 0
-916 559 0
4305 6045 0
5711 5983 0
-3240 1689 0
3413 6421 0
-3811 159 0
1570 -873 0
5816 -1813 0
2129 -6132 0
4521 -4466 0
1596 -4562 0
-1300 4663 0
-6377 -1541 0
-4676 -5335 0
944 -2522 0
1637 -6129 0
4767 -5759 0
-5718 -983 0
-6406 6164 0
-1584 2366 0
4762 -6531 0
1949 -2259 0
5862 2399 0
-2486 -707 0
-3060 438 0
-4089 -1568 0
-4010 -1649 0
-506 2137 0
3933 460 0
1736 4102 0
3124 -5413 0
-595 6459 0
5169 1479 0
-4023 -1745 0
1529 -4347 0
3094 45 0
4510 5575 0
3624 5369 0
-6360 -3183 0
-6063 -2422 0
4117 5304 0
2959 701 0
-2126 -252 0
-6362 651 0
1062 -2382 0
5054 -4702 0
3088 2211 0
-4231 -2690 0
5765 -3527 0
-4907 3612 0
-1404 -2714 0
6141 1409 0
3565 5641 0
3864 4592 0
4895 -692 0
1597 5566 0
-4693 -3410 0
1792 -3197 0
-2837 -3912 0
-4695 -4110 0
4739 1296 0
5368 -4057 0
-3594 5469 0
-5051 -5149 0
-2708 -454 0
-4013 4137 0
2975 -6406 0
-1161 -6366 0
1003 1899 0
-946 3107 0
-831 -4290 0
2155 -3334 0
-974 -2793 0
-6004 -3560 0
3995 5661 0
-4606 5389 0
-4277 2554 0
-3500 4064 0
-1203 1709 0
-4204 -2552 0
3956 2350 0
-4256 4015 0
5223 4681 0
1513 -980 0
4060 -1155 0
-392 -136 0
79 203 0
5807 -3481 0
2846 840 0
4303 -4647 0
4494 -3528 0
-1474 3030 0
-914 709 0
-373 5721 0
-2755 2215 0
-5451 -5962 0
-5666 1773 0
1132 5995 0
1145 4573 0
-6033 -1798 0
2021 -4201 0
1863 -5143 0
2415 5664 0
208 -683 0
-2292 -2253 0
-1525 1146 0
-3198 -5877 0
-3997 1648 0
4502 3167 0
4151 4127 0
2799 5702 0
6373 -3313 0
6246 4969 0
-2624 723 0
-709 -749 0
4005 274 0
5368 2118 0
6463 -5623 0
-2914 643 0
-1877 -1910 0
-1200 6431 0
-2700 -4302 0
3947 -3394 0
5299 398 0
5315 -400 0
-1029 238 0
-3017 3630 0
-1675 2607 0
-1589 -3630 0
-3417 2445 0
3509 1849 0
4871 3716 0
4670 -2472 0
4464 3860 0
3948 443 0
-3080 396 0
-5343 1370 0
-6285 -4809 0
-3555 -54 0
4445 1329 0
3201 2445 0
-6020 5380 0
-6256 -2481 0
-3405 5385 0
837 1274 0
128 1629 0
3924 3483 0
5629 5098 0
4956 4810 0
6221 6304 0
-656 -1554 0
-2263 631 0
3140 -94 0
-3879 -291 0
-6021 5366 0
-3846 -5321 0
4874 -2140 0
-4921 6190 0
5340 1907 0
5269 4370 0
-3304 669 0
4366 -799 0
-1589 -223 0
746 279 0
-1997 4057 0
5437 -5632 0
-5718 -172 0
-3174 258 0
-319 -1109 0
-5686 -1012 0
-1223 2946 0
-2537 2613 0
-5556 2204 0
2161 2637 0
-6122 -3337 0
-915 -5441 0
-5460 5946 0
-1575 2252 0
4794 2525 0
4997 -1289 0
-5234 -4353 0
4952 -3378 0
-6171 2141 0
-4630 3994 0
3491 2218 0
2981 -122 0
3424 -5173 0
3098 2789 0
-1988 3065 0
-5840 1896 0
-3915 4948 0
3214 -2154 0
1989 4180 0
4274 -5286 0
-4647 5124 0
-1909 -6417 0
-3130 -2227 0
703 -3473 0
4096 -6097 0
-1336 1483 0
3188 5810 0
1173 3410 0
2538 3229 0
-4360 6419 0
2396 -6258 0
-2181 -5136 0
-5589 -4736 0
2174 -3001 0
-6415 6170 0
4958 -6053 0
-4335 2007 0
1947 -2392 0
-4589 -3946 0
-6481 4110 0
3441 -4823 0
1277 -4287 0
3887 -5238 0
-381 -3710 0
5055 -5950 0
-2278 3942 0
667 -3969 0
-95 -3311 0
-527 -5362 0
2604 5597 0
-1550 -3717 0
-3323 4702 0
-1878 1950 0
-129 6217 0
-4768 4219 0
2064 322 0
4060 -1767 0
615 -2785 0
3840 -2173 0
-3417 2046 0
-6391 -5398 0
3129 4427 0
-1936 -4737 0
-6415 4798 0
3725 -5716 0
-5588 3497 0
-2392 -1076 0
-2718 1367 0
2887 5869 0
-621 3083 0
1723 -5995 0
-2131 -4111 0
-4887 2740 0
-759 -5657 0
-770 6075 0
5021 1246 0
4881 5253 0
2191 6230 0
3141 -5092 0
1994 -5443 0
-6334 1132 0
-5031 -2746 0
-4718 -1955 0
30 -6545 0
3591 5484 0
1107 -1515 0
5637 -2133 0
-3036 -3909 0
2407 -3625 0
-1912 2670 0
306 2661 0
4712 5213 0
-2136 1570 0
3644 3052 0
-2794 -2955 0
6422 2092 0
-335 3349 0
3622 3768 0
4221 746 0
1804 -4383 0
1253 3385 0
6296 663 0
-1528 4463 0
-5360 -6233 0
-4680 -5868 0
5458 -1876 0
482 1513 0
-3235 -5424 0
-1213 -4252 0
-2080 -217 0
-1316 -2476 0
-5028 5100 0
5832 3623 0
3422 -3013 0
-4452 2071 0
-6347 -3901 0
2442 -4896 0
-5258 -6464 0
4097 -5112 0
3475 -223 0
-501 -258 0
945 -6288 0
5994 -2376 0
3814 -55 0
5603 -1908 0
1778 -3871 0
-2507 -202 0
-1082 2031 0
1139 -4206 0
1735 6230 0
-1094 126 0
-5723 -78 0
4252 -4938 0
-1706 2734 0
-4678 5129 0
-3519 -1057 0
5206 -6244 0
-6431 -1211 0
230 -5891 0
2936 5156 0
-1005 1535 0
1725 -1662 0
1240 -633 0
5342 4786 0
-1672 -2203 0
-2219 -5696 0
-1553 -529 0
-2771 1689 0
4310 -2714 0
5955 1760 0
847 5908 0
1143 2839 0
3626 -901 0
-3363 6193 0
1849 4546 0
664 -648 0
-5691 -1089 0
-3394 3478 0
3409 6306 0
-4454 3131 0
4700 -5220 0
2768 1064 0
-4401 -6177 0
-1695 6305 0
-2894 -6317 0
277 3813 0
1638 -5358 0
-4038 1452 0
6425 -4255 0
-3990 4796 0
-5278 -1767 0
-6102 5289 0
-1646 -4128 0
-2753 5045 0
-5200 6300 0
3482 -3727 0
1175 958 0
226 2891 0
1206 -3573 0
-4809 -2948 0
-311 -5812 0
684 3358 0
-2274 -2035 0
4080 3466 0
5236 5239 0
-502 -2769 0
3806 4051 0
6501 -1199 0
580 1486 0
-4003 1496 0
4938 7 0
-4092 294 0
5139 6301 0
-3817 472 0
2047 5000 0
3315 1927 0
-5001 380 0
-6190 -1477 0
-1252 -5142 0
663 -2273 0
-4250 -3741 0
-10 -5694 0
-712 3383 0
4387 5734 0
5473 4916 0
-1032 -5515 0
-155 2826 0
-411 5138 0
5341 634 0
-5900 -3606 0
-1154 565 0
-1028 -1536 0
5014 168 0
-1717 -2945 0
2377 818 0
-4727 5486 0
-6085 -4737 0
3642 -449 0
6173 -5069 0
-6018 449 0
2161 5135 0
5053 2017 0
-2989 -6206 0
166 -6320 0
-4582 2380 0
1518 3096 0
-1628 -2334 0
402 -3261 0
-396 -4845 0
6472 2815 0
-3673 5155 0
-4439 -2585 0
-2339 -6362 0
-364 1063 0
-4050 -5532 0
278 3227 0
3458 -278 0
2618 -1979 0
-2875 -5032 0
1294 5963 0
-4190 -6237 0
-6398 5511 0
-5899 -4031 0
-5691 -4327 0
362 2415 0
5727 578 0
5350 4762 0
-885 1886 0
-3311 22 0
4011 -817 0
-83 4418 0
3577 -1966 0
-2063 -3912 0
-1328 2536 0
3918 6073 0
-3431 -6280 0
3485 -5018 0
5328 4008 0
-4567 5137 0
1421 -2229 0
2208 2518 0
4575 -2909 0
-1980 3164 0
-4310 3137 0
-4427 2252 0
-4101 4897 0
-5486 -3512 0
-1672 -3046 0
4655 -4145 0
2686 -5585 0
-4883 -3916 0
617 5288 0
4108 3014 0
1250 -5882 0
2389 -4311 0
-1985 5191 0
2589 135 0
5894 -4565 0
6118 2837 0
4934 -451 0
6296 528 0
1386 729 0
-3960 3590 0
3647 504 0
4838 4277 0
2257 3010 0
-5213 3831 0
4443 -3021 0
5943 1119 0
4641 5274 0
-5131 -2517 0
3777 2720 0
7 6062 0
-3836 -4380 0
-5834 5920 0
-4997 -1953 0
3980 -3899 0
3546 -4478 0
5118 516 0
1067 899 0
898 -3660 0
3064 -1580 0
5760 3032 0
-4475 4561 0
-3501 4790 0
1687 -5502 0
2307 -786 0
-3240 -946 0
-1275 -3192 0
5964 -3357 0
-960 5266 0
-2955 1041 0
113 -2981 0
-2918 -3066 0
-1878 -3268 0
-4188 4181 0
-4563 3838 0
-3237 -1106 0
65 4887 0
4017 5417 0
-1614 107 0
-1012 -4333 0
-5050 -11 0
5432 -5496 0
261 3355 0
128 -745 0
-3836 -504 0
3308 1599 0
3602 -3930 0
-4966 -4068 0
-887 3247 0
-872 4276 0
3654 -3021 0
-4373 1405 0
562 3590 0
2211 4399 0
4633 -4763 0
2953 -1361 0
-1171 -2258 0
491 -2665 0
3375 5435 0
2112 777 0
5871 -5642 0
5436 -4747 0
5836 -4199 0
-4394 -831 0
1095 2379 0
-24 930 0
280 -2476 0
-4140 5818 0
5115 -5951 0
-1487 2362 0
5662 -4971 0
5859 4042 0
3716 -5924 0
-2746 4036 0
510 2671 0
4475 -3062 0
1293 -3538 0
2088 5670 0
-5869 5681 0
1252 -536 0
-4318 -4261 0
213 1886 0
-4970 6004 0
-3163 -3049 0
-1682 4174 0
5382 -1039 0
-3371 4593 0
-2549 -3042 0
2017 6263 0
2343 -2063 0
2831 3519 0
3264 6055 0
-2648 -3532 0
6236 -4049 0
-3810 531 0
-4195 2004 0
-741 -3768 0
183 3584 0
1923 266 0
2803 -3985 0
-4010 -5302 0
-2730 62 0
-2490 -2177 0
3698 3128 0
4243 -3258 0
-4222 4734 0
-1077 2311 0
-2678 -3273 0
-3240 -6454 0
3781 -6201 0
4439 -6421 0
-6378 -974 0
2994 5009 0
-4937 -4241 0
2262 -4986 0
-6474 -562 0
-1126 33 0
-4616 4058 0
1526 -192 0
-3658 -3872 0
4837 -5872 0
-6152 6124 0
-1433 4002 0
4960 1952 0
-5227 -1608 0
-782 1714 0
-4156 -4756 0
5453 -4973 0
5520 -547 0
-6517 5792 0
-2252 5050 0
-557 -5145 0
1840 1725 0
6447 726 0
-2634 -3495 0
-6112 4028 0
5173 -3822 0
-1743 -3026 0
2505 -5010 0
3380 -1187 0
1105 -1682 0
1062 1205 0
-2716 -5216 0
-4901 5832 0
-2457 -6123 0
-5945 -5119 0
3516 -2007 0
4077 -491 0
-2727 4010 0
-4671 151 0
2985 5469 0
-124 -4656 0
-67 -24 0
-3663 4115 0
2088 772 0
5025 5315 0
-5301 2318 0
2831 -5423 0
-739 -6241 0
92 2075 0
-300 -6370 0
5865 -5707 0
1971 4762 0
-1372 -2534 0
5664 -2885 0
4842 -5716 0
-1593 711 0
-5651 5084 0
-1647 584 0
-5568 1358 0
3677 3477 0
5813 -5210 0
-1852 -4879 0
5878 -3974 0
2007 -4771 0
5852 -3276 0
-1618 -3524 0
5050 -1431 0
-129 5518 0
5776 6125 0
5494 6336 0
5810 3245 0
3572 -4156 0
-910 1162 0
-225 -2542 0
-1772 -5670 0
-678 305 0
865 5870 0
-1739 3477 0
2537 -3178 0
-4678 1087 0
-1489 2136 0
-2656 3615 0
-3863 -1476 0
1637 -2031 0
-5374 -4593 0
-4927 -1056 0
2703 -3536 0
3801 5611 0
797 3715 0
-5592 3911 0
3470 -4665 0
4818 295 0
-2313 1670 0
-5361 6052 0
5745 -1033 0
6513 42 0
-2174 5276 0
-697 -2021 0
2844 1989 0
2841 -1744 0
4620 82 0
-1061 5134 0
3593 -1141 0
4878 -3416 0
4382 -2103 0
6470 4474 0
1233 1474 0
5849 1969 0
1064 2222 0
-2766 -2298 0
-890 5916 0
-5950 1855 0
-2816 5272 0
2016 -2309 0
-6537 -582 0
-3786 3564 0
1574 -1309 0
-3710 -1467 0
4367 850 0
-4892 -2895 0
-5540 1571 0
1503 -4397 0
4748 4743 0
-4736 -2434 0
-5785 -4772 0
-4191 2200 0
1190 4253 0
-948 4346 0
-2404 -1362 0
-289 2005 0
3675 2511 0
-5423 2441 0
1301 199 0
-4196 4848 0
-1020 -2430 0
2224 117 0
2206 6336 0
-2490 -296 0
4477 -4039 0
-5860 -1720 0
-3951 -2283 0
-2910 -3038 0
-1800 -3894 0
-3685 -2747 0
3509 2465 0
-24 6113 0
2600 4921 0
-5934 4400 0
-3350 -2918 0
3022 6231 0
4591 -4824 0
6336 3615 0
1731 -3934 0
517 6151 0
3945 2432 0
2590 989 0
-3751 -1628 0
886 4783 0
3291 1600 0
-468 -5578 0
4607 -4851 0
-1756 835 0
-1608 595 0
-1887 4796 0
-5792 -5120 0
5447 3593 0
727 -2850 0
4149 -6148 0
-5645 1261 0
-712 -1963 0
-2856 5142 0
1912 4506 0
-980 4512 0
752 5386 0
6497 -1905 0
-5546 -5723 0
-1579 -1263 0
2506 -2051 0
-6182 -2836 0
-5545 -5505 0
-289 5012 0
4945 1412 0
-5264 -3943 0
2245 4484 0
-4925 -4408 0
-6374 -5028 0
-4380 2318 0
-4483 6191 0
6441 5715 0
-3688 28 0
-376 3722 0
-4682 1640 0
323 5098 0
436 5855 0
1118 -3768 0
884 -2267 0
-5665 1355 0
5542 4045 0
4236 -916 0
-2905 -3486 0
-2978 5811 0
-4053 1322 0
-1158 -6002 0
996 -1035 0
-5410 5277 0
1914 6080 0
-5211 206 0
-3028 -4602 0
-3860 -782 0
4317 3671 0
2687 -148 0
-4775 -5518 0
1335 2285 0
3427 -3042 0
-1471 5855 0
-1196 3470 0
1606 3063 0
-3889 -6231 0
5408 -3978 0
-3134 1523 0
-4626 -5688 0
4733 -2384 0
-3926 -4718 0
78 1079 0
261 1966 0
-4060 -3496 0
167 2119 0
2759 4218 0
-2333 6169 0
5508 4067 0
2869 -6259 0
3423 312 0
3580 -4929 0
-210 -4946 0
1152 1245 0
-1396 4416 0
-1517 3841 0
6012 6341 0
-6090 -2409 0
6236 1971 0
447 -1587 0
-4669 -679 0
-55 5990 0
5763 1485 0
827 3920 0
4392 -1616 0
102 1564 0
4957 -124 0
3281 -1575 0
-2485 -841 0
-3376 -1235 0
5772 2373 0
-2739 -6256 0
1498 -4736 0
-1936 1817 0
6499 -2001 0
-3762 -2748 0
-6139 2725 0
3391 5958 0
-6451 6083 0
4423 -223 0
-1739 -4166 0
4898 -6101 0
-6287 2869 0
5798 2124 0
-1519 -4630 0
-2407 -4309 0
-56 -2146 0
4459 3607 0
3851 -3399 0
-5819 4995 0
1601 3274 0
2518 1666 0
4940 -5355 0
-746 -3515 0
-6348 2316 0
1428 2273 0
5295 -4937 0
-3724 6367 0
-5784 551 0
-88 4967 0
-1134 3856 0
-5648 995 0
2569 -3426 0
-2098 4116 0
-3476 -3492 0
-5040 5866 0
-6390 3495 0
-2161 -2492 0
2311 -1461 0
-4725 2600 0
89 -6468 0
279 6383 0
-1363 1942 0
-4756 3701 0
-260 2827 0
4488 3985 0
318 3687 0
-120 5486 0
2782 -5425 0
-1804 -2929 0
-3033 -5785 0
-3776 5708 0
2485 2352 0
5320 4260 0
-4277 -4881 0
1992 -112 0
5578 4618 0
-6283 3564 0
-2574 -1714 0
4820 -3000 0
737 2235 0
6364 6421 0
-2356 -1833 0
4347 2106 0
6430 -5784 0
-2971 5964 0
-1180 -6258 0
-6206 1094 0
-3300 -4038 0
-4718 -5228 0
-1575 -1529 0
-2090 208 0
668 2195 0
-4117 -2994 0
6183 5206 0
5481 6193 0
-3859 3897 0
-2731 -4554 0
-3874 2925 0
5763 -4829 0
-5019 -4081 0
-4315 2696 0
-5399 -1671 0
518 -2920 0
-1799 2979 0
-4488 -4447 0
-4166 -4800 0
-921 -5173 0
-3800 -3658 0
-4945 2374 0
-4856 -1083 0
-1860 -1231 0
-4618 -1732 0
-1740 5843 0
5770 5212 0
5772 3717 0
2433 -2897 0
-2332 -6407 0
3350 2551 0
-3070 585 0
-2829 -714 0
6396 119 0
-2915 -3344 0
2085 -3807 0
-3549 -5352 0
-725 -2886 0
-6118 3856 0
1622 -1911 0
5134 -522 0
1451 -1250 0
4843 -1977 0
-6182 -6460 0
-2201 1563 0
1813 6458 0
-5541 1654 0
-4493 -5830 0
3369 3884 0
-5462 -3253 0
5993 -4384 0
2981 -3706 0
1888 2009 0
-4014 -2282 0
1402 6489 0
1255 340 0
-1316 -5170 0
978 -3704 0
-2679 -4007 0
6193 -5200 0
2116 -3078 0
71 2354 0
-5388 3216 0
-432 -1242 0
-4270 1381 0
3932 5966 0
4577 -4340 0
-5726 -3690 0
6276 1888 0
5180 6264 0
-1223 1533 0
1716 -1745 0
5339 -2226 0
-3960 5129 0
-2920 6480 0
-3767 2003 0
2318 -5813 0
-4105 814 0
-993 6111 0
687 -6486 0
-5367 1773 0
73 -5780 0
-4630 5434 0
3689 -6134 0
6198 6210 0
-3651 -3198 0
-6258 -2653 0
1134 5964 0
-655 1955 0
-570 816 0
334 -203 0
3344 -480 0
3802 5709 0
4376 -5373 0
5347 1828 0
1374 499 0
369 1037 0
-5408 -4496 0
-663 -3611 0
194 4172 0
-2543 -3589 0
417 3368 0
866 1770 0
4246 5009 0
3169 5415 0
-866 -2974 0
-5740 3358 0
-2964 3817 0
-5137 210 0
2689 3207 0
3118 646 0
6406 2744 0
4859 2465 0
-1283 -6546 0
4361 1699 0
-3843 1315 0
-2697 -4307 0
-3308 -5693 0
5478 -5813 0
3402 3862 0
-606 -2124 0
-3875 4899 0
4479 6343 0
-2792 -2642 0
-4520 -258 0
142 4180 0
-5823 -6026 0
3589 -125 0
-164 -3038 0
-5858 2947 0
-370 3707 0
-4347 -2274 0
-3679 -250 0
5683 4824 0
-1650 3159 0
2711 123 0
5719 -3850 0
-3029 3508 0
4026 6024 0
-1356 5299 0
-269 -11 0
-820 -4487 0
-3136 -3674 0
-829 6218 0
4040 2348 0
4334 -5745 0
4557 -5620 0
4529 -3675 0
-1727 4536 0
-6235 -2876 0
3134 -2029 0
-950 -5917 0
-3008 -4280 0
-4704 631 0
-2061 1639 0
-2356 -1494 0
1568 -700 0
-5834 -1453 0
4670 -3446 0
-1722 2573 0
-4128 4295 0
-3194 -3906 0
2643 5981 0
2553 53 0
269 -5790 0
3142 -4318 0
2681 6370 0
-2974 -3455 0
4675 -3310 0
-5822 -6428 0
3762 1075 0
-5202 34 0
2210 -2174 0
-2755 -3044 0
2999 -1993 0
6053 -847 0
2932 -2960 0
-6125 -3958 0
-965 -6000 0
5904 -1297 0
2300 -5100 0
-6208 -5776 0
4965 -1455 0
-1583 3854 0
-1623 -4992 0
3456 -3076 0
1690 1825 0
1334 5451 0
-2663 5633 0
-24 -609 0
-5927 -4417 0
1474 5622 0
6527 -998 0
-3490 3092 0
-2129 -2164 0
-1924 784 0
-5975 932 0
3768 7 0
4741 -6278 0
-6418 -4584 0
3928 4178 0
773 5987 0
-3635 -2040 0
-4547 -6347 0
5365 -1256 0
-854 -1898 0
-4672 1478 0
4143 -668 0
4812 1829 0
-4741 -5755 0
-6162 6295 0
-694 4949 0
3118 -5591 0
5506 -6426 0
-2957 -5106 0
-3103 -6280 0
4633 -980 0
6523 -6053 0
2623 5904 0
6058 -4567 0
1981 -34 0
1904 -3842 0
4959 -1387 0
3850 3263 0
-3647 -5554 0
-163 -802 0
-4804 4860 0
51 2328 0
5124 -5857 0
-1275 -173 0
-455 264 0
-1055 -5439 0
-549 -5790 0
4665 -1386 0
3902 -2680 0
3282 5683 0
-1511 1802 0
5618 5533 0
-145 -4797 0
-51 4317 0
3916 6353 0
-2630 1071 0
162 -6360 0
3032 -4932 0
-1561 -1963 0
4972 232 0
-4744 -4340 0
-4427 6328 0
884 599 0
1602 3792 0
-2844 -3631 0
-2827 3570 0
1600 4004 0
-511 -6413 0
-2922 -1219 0
-498 1118 0
356 3928 0
5560 -680 0
323 5988 0
3905 -6500 0
-5682 5469 0
2653 -4990 0
1144 -1352 0
2687 6254 0
4489 -4992 0
-4396 3058 0
1576 -336 0
-5541 -3845 0
-4975 -2075 0
4486 3164 0
1843 5920 0
1483 -6160 0
4802 -1234 0
-1306 5202 0
-4809 -5644 0
1146 -1159 0
-523 -1827 0
-1974 595 0
3827 2290 0
-5426 -69 0
5288 -6064 0
-3880 5217 0
3290 2190 0
-1513 -5019 0
224 -5364 0
-4298 3815 0
-6365 1064 0
4800 1549 0
4610 4840 0
-3523 -982 0
2408 -2114 0
5305 -2949 0
3875 -2770 0
3230 2387 0
108 -2256 0
-5093 -3323 0
1143 3780 0
-2898 4601 0
5643 5138 0
594 -2986 0
5368 -1871 0
-1588 -3894 0
5877 -5263 0
-3426 5448 0
-4493 2778 0
-2551 5993 0
-4979 3986 0
166 -6347 0
-5248 929 0
1428 -279 0
5476 -17 0
5356 -1354 0
589 2819 0
6459 -4404 0
918 -1848 0
-2329 -5830 0
-4374 -4664 0
2403 649 0
-2187 1532 0
5457 5702 0
-210 1291 0
-4125 6111 0
2015 1103 0
4131 2712 0
-6110 -5007 0
-2012 -4436 0
-993 3094 0
-1004 4240 0
5710 -1687 0
-1131 -3134 0
3589 3156 0
282 -557 0
-4407 -3719 0
-3557 6287 0
-6364 -667 0
-5406 587 0
4221 2790 0
-991 -4710 0
-6069 -1695 0
418 -3194 0
5513 302 0
3386 3186 0
2312 -3616 0
865 -911 0
-2321 3267 0
791 1027 0
4611 -833 0
-2983 -5715 0
-5191 6423 0
1535 -5252 0
-3050 -5496 0
1274 -254 0
-5571 -4433 0
-2875 3059 0
-3644 1210 0
-3592 -1587 0
-2798 -6421 0
-1941 6455 0
1073 -4805 0
-2552 -4953 0
-6296 -6511 0
827 -5384 0
-3146 -5419 0
492 6332 0
2681 -6458 0
4818 -3759 0
-574 -4387 0
635 246 0
-3816 -2134 0
-4545 574 0
1410 -4098 0
911 4045 0
-1424 812 0
-4160 5136 0
391 -4587 0
-1900 1091 0
-318 5132 0
-3132 2593 0
-5848 2548 0
5694 4724 0
2720 -5006 0
5132 2206 0
6029 3647 0
4794 1278 0
137 -4237 0
64 4356 0
2875 -248 0
-5171 -653 0
-1807 5851 0
4367 2127 0
-1658 -6412 0
-3412 -6314 0
-3883 4307 0
-291 2571 0
5506 5141 0
5914 5143 0
-6489 -3753 0
4464 2617 0
5845 5752 0
-5823 2772 0
1284 -3370 0
5012 4880 0
4206 -1789 0
3498 3539 0
2617 4709 0
633 -6522 0
5491 5650 0
4770 2824 0
-4255 1815 0
-596 4070 0
-1404 -2905 0
-2925 127 0
449 -2864 0
3107 -6386 0
4305 -5513 0
2363 -5916 0
-84 -3778 0
3940 2391 0
6118 1996 0
-4937 -5370 0
-1985 -49 0
-974 762 0
-6085 -948 0
-2019 -861 0
-2835 -6215 0
-2024 4592 0
6535 -1458 0
-4206 4009 0
-1976 5901 0
-2983 1304 0
4648 3293 0
5411 4305 0
4127 -2554 0
-1758 6352 0
4618 4195 0
-554 1764 0
1158 1966 0
-3132 -512 0
-1951 -1831 0
-3067 -5092 0
-544 1801 0
-1383 -3342 0
-1258 5272 0
-1596 -394 0
2115 545 0
809 -3612 0
-6366 -53 0
191 -27 0
3102 -3365 0
5361 4647 0
4955 6272 0
2804 4976 0
-660 3957 0
1666 -6510 0
1832 -2339 0
-3762 3326 0
2554 -2592 0
-2966 4683 0
2140 1049 0
-1683 3429 0
4194 -5251 0
1829 -169 0
-4401 -2630 0
-672 -2375 0
2998 267 0
-4921 -154 0
2605 -318 0
-1022 -4038 0
-785 1508 0
4355 4643 0
-76 2554 0
206 5027 0
-6391 -2604 0
5950 -65 0
2162 1695 0
4018 3189 0
5633 2013 0
4277 6271 0
1638 -1869 0
3092 -2287 0
1095 3592 0
4377 -6231 0
5190 1144 0
-1039 -5402 0
5207 -2823 0
1740 -5736 0
1638 -6041 0
-2535 -6219 0
-573 972 0
3637 -3267 0
4729 1191 0
-3973 -919 0
2608 -5434 0
42 -1309 0
4005 -1108 0
2535 -656 0
1183 -246 0
6176 -3211 0
-516 816 0
-2126 -5947 0
4860 -963 0
-1951 -2436 0
6449 -5008 0
1634 4986 0
-1117 -841 0
-65 2747 0
4741 -6123 0
2363 6067 0
-4710 5806 0
-1953 6175 0
-1206 5527 0
-66 2448 0
-4477 4048 0
3189 -2828 0
-4364 3035 0
4538 -4437 0
-6541 1025 0
1134 3164 0
2469 -1593 0
-6050 5534 0
-2409 -634 0
6068 1599 0
-1152 -3126 0
3063 3327 0
-865 2941 0
858 4645 0
-1915 -4856 0
-2038 748 0
5939 3324 0
5392 2550 0
-2122 -5806 0
-5446 -2140 0
5040 -3656 0
-404 -1520 0
238 376 0
-1287 1964 0
-1586 -2163 0
-5817 -5295 0
-4415 -2012 0
1375 -1113 0
5092 -4342 0
-4839 -2492 0
524 -5536 0
-6479 3632 0
5970 104 0
6200 -6022 0
2736 3868 0
878 808 0
-5960 5594 0
-3723 205 0
-3304 2096 0
-3675 1194 0
-3872 5761 0
6184 5840 0
-5737 2172 0
4416 4920 0
1022 -3416 0
-6348 -2630 0
3732 4149 0
1408 3475 0
5711 -5853 0
-4873 -5193 0
4538 4237 0
3353 -345 0
3135 3135 0
6213 -4168 0
-3934 3446 0
6213 -1655 0
-5107 -2345 0
-2802 5570 0
-2452 -5463 0
6476 2445 0
157 -3416 0
5468 3369 0
4852 3725 0
-4921 1982 0
6435 -928 0
-5654 -1287 0
-1933 -2878 0
-1171 4164 0
667 2941 0
-3067 -2634 0
3239 -1053 0
3877 -2601 0
-4807 5889 0
470 2899 0
1715 4673 0
556 1989 0
4864 6267 0
5065 1664 0
5098 -4074 0
2093 -303 0
-684 -1280 0
-792 -2082 0
5463 -1345 0
2180 -6000 0
5954 -4364 0
181 904 0
-919 5958 0
-2325 639 0
-3709 3106 0
5659 4730 0
-4296 -1688 0
-204 -2601 0
-1505 -3771 0
6419 6307 0
-2762 2397 0
5346 -3025 0
-902 62 0
-6187 2541 0
146 -638 0
-1558 -3496 0
5415 -2604 0
-713 -5137 0
3516 3331 0
-5574 -2021 0
-5014 4196 0
-6374 -3579 0
-3273 -1693 0
-5883 -4872 0
-5617 4999 0
1850 -5537 0
3183 4556 0
-505 484 0
-5627 -2974 0
6354 4096 0
5962 3634 0
1305 -6482 0
-1682 -3850 0
2141 3419 0
4827 -4727 0
-1815 701 0
-6342 -3550 0
-3972 -6050 0
1455 3879 0
-3718 2006 0
4757 1786 0
-6214 -4845 0
6428 -3299 0
1465 -306 0
-1099 3539 0
2695 3589 0
-2995 -368 0
-4381 5276 0
-1150 -6503 0
4861 662 0
-3015 2519 0
6437 3624 0
-3968 1492 0
-2923 -6371 0
651 -2825 0
-348 -490 0
-1622 -3115 0
-2798 -582 0
-4034 2299 0
-1789 976 0
-1435 3345 0
-5570 4993 0
5098 -4699 0
-3614 -1795 0
4152 -6135 0
5045 4996 0
5055 3216 0
-6222 3603 0
2917 5620 0
-5422 -6434 0
2951 -3968 0
4392 986 0
-3728 5149 0
-5745 -2068 0
4890 221 0
3233 5804 0
-6040 971 0
3917 533 0
-6170 -3829 0
-3324 -3232 0
5192 -5593 0
-2803 -5080 0
5372 4673 0
3826 -4039 0
2772 -5222 0
-5842 5484 0
4412 -3625 0
595 -2262 0
-1302 -1880 0
-1664 5046 0
-5537 -597 0
2823 -3277 0
-1262 -4127 0
-3402 6393 0
761 3503 0
-4858 1635 0
1186 2449 0
825 1697 0
-6434 -1652 0
1635 -1486 0
3681 5049 0
2283 2495 0
-3601 5114 0
4907 3239 0
2961 -4782 0
2756 4315 0
-2715 -1505 0
5605 -830 0
-5823 -4932 0
-2849 -3492 0
-6293 -1971 0
6321 3158 0
2848 5082 0
-1682 1731 0
4784 -912 0
-6229 -3076 0
-4281 -4301 0
3024 1926 0
-1082 1337 0
-3423 5960 0
3283 771 0
-2967 2961 0
-1193 2971 0
113 5460 0
5334 2517 0
3649 -4353 0
77 2134 0
-1323 -4145 0
1630 -5622 0
2566 -133 0
1448 -2278 0
-730 -2376 0
689 -4003 0
3726 3853 0
-2755 1758 0
1129 -2025 0
-855 -3352 0
3461 -5290 0
5423 2698 0
-3857 -963 0
2079 3618 0
2509 -1909 0
-4957 -4491 0
-1182 -549 0
-945 3972 0
-709 -1790 0
6328 -4821 0
4681 -4191 0
5187 -5215 0
-2914 2345 0
-3259 -4318 0
-4377 -1941 0
3457 -6245 0
-1153 1730 0
-5802 5287 0
1440 5850 0
-159 6247 0
-6276 -1644 0
-641 -944 0
-2927 -4362 0
4433 -1660 0
-6244 4954 0
-3845 -2384 0
1896 -5755 0
940 4067 0
-3180 -835 0
2906 -4582 0
6034 532 0
-719 5171 0
2608 -5940 0
-4203 5602 0
-57 501 0
-3646 -4237 0
-3775 3202 0
766 -3204 0
2799 -2897 0
-1353 -2889 0
98 6250 0
-2433 -307 0
762 -1193 0
1981 -455 0
33 -4588 0
-3759 2343 0
3832 3429 0
4820 4729 0
-1273 2201 0
2737 4091 0
-5171 2249 0
-205 257 0
3129 3519 0
110 2343 0
-6444 351 0
-4904 5918 0
-3217 -2439 0
1621 -6182 0
-4912 -4833 0
-2326 6147 0
-2949 -3665 0
895 -2670 0
2165 -412 0
3820 -4840 0
693 -1132 0
-1912 5194 0
-1094 5662 0
-4155 -4522 0
753 3167 0
-2816 -3568 0
-2117 -5413 0
-3987 -5541 0
1274 6429 0
3101 -5738 0
-2805 -5624 0
-5539 -3078 0
2916 -3728 0
-2733 233 0
1889 -4191 0
-1519 864 0
1623 -2292 0
-1999 -5447 0
-4463 5706 0
-5929 -3677 0
-633 2516 0
-5777 -5933 0
5558 -3389 0
-4901 -2813 0
5975 3240 0
-1182 6232 0
1744 -4466 0
-2777 4774 0
4449 5803 0
4464 -5232 0
-1525 533 0
-4517 -4534 0
-1976 3849 0
-2155 1991 0
2656 -5877 0
3885 1724 0
-4506 4523 0
-3001 6333 0
-847 -2024 0
5924 -622 0
109 -1861 0
1870 840 0
926 4847 0
-4766 2986 0
-2377 1809 0
-6146 1299 0
899 -5631 0
-6301 -4050 0
4014 -209 0
-5830 3247 0
4900 -2156 0
2560 -6277 0
5677 -3841 0
-6334 -3848 0
-2876 -3501 0
-4921 -814 0
-4486 -179 0
6164 5781 0
1206 -4859 0
4794 -6308 0
1530 -3464 0
-5892 1172 0
6012 -2547 0
5609 -5027 0
2018 658 0
-459 -3393 0
-1846 2924 0
-4097 3692 0
2093 4014 0
3662 -2731 0
5466 -3045 0
204 6512 0
6265 4593 0
1444 1006 0
-924 4990 0
331 2235 0
-4134 3964 0
5461 5886 0
1496 6090 0
-612 -4808 0
2235 -6288 0
852 -2585 0
2303 -5667 0
-4958 3827 0
-3717 3986 0
-4290 3137 0
5207 -3685 0
4051 2248 0
2792 -5049 0
2194 1742 0
5889 -6249 0
-1152 -2606 0
-613 -4124 0
5580 49 0
2057 -285 0
-1373 6449 0
-659 4872 0
1019 -4602 0
-4433 -1263 0
4503 -4046 0
6022 -3556 0
-2360 6513 0
6335 -4372 0
6098 5885 0
-5497 -6160 0
5172 -1987 0
-2988 -5010 0
-5035 4998 0
-1303 3694 0
2870 -5618 0
-1743 -3998 0
-2875 -779 0
2310 -2109 0
-262 -5424 0
3825 -6070 0
5475 5221 0
4885 122 0
-1518 5412 0
-420 -3090 0
-2712 -3954 0
3101 641 0
3469 6418 0
2423 2768 0
3657 1387 0
-336 5023 0
-3716 3834 0
-2131 4975 0
4685 1196 0
877 193 0
2658 -1615 0
214 1698 0
-3251 -4221 0
5738 4031 0
-3281 -4639 0
113 -4118 0
3086 3191 0
5495 1361 0
-1197 4139 0
3588 -1409 0
-490 -4913 0
6341 2820 0
4079 -6526 0
2208 1411 0
6411 2402 0
4221 -4342 0
696 5983 0
-81 3200 0
3375 2094 0
168 -2389 0
-3012 3624 0
-1313 -6474 0
1088 -3801 0
-5862 -5085 0
-5428 1998 0
-823 -1923 0
4724 3072 0
1857 -2138 0
4969 583 0
2121 -3978 0
2729 2199 0
-820 -2363 0
4213 343 0
-3962 3079 0
-6356 -6044 0
-1719 -5547 0
5499 -592 0
1853 2754 0
2289 -735 0
-2520 -2736 0
-356 5764 0
-2878 -2216 0
-1171 -2186 0
4603 -4507 0
3375 616 0
5719 -5371 0
-1894 3019 0
-5926 -520 0
-2611 -6144 0
-5588 5668 0
1808 -782 0
-731 5020 0
-2630 567 0
-3863 5884 0
-1686 -5800 0
-5568 -537 0
-2762 -2568 0
1992 4670 0
-5945 6375 0
-2671 1754 0
-1745 -1019 0
3587 5920 0
-1106 4434 0
4284 -3915 0
2888 -4673 0
-4368 1635 0
6061 5843 0
2416 -287 0
128 6150 0
-1072 -225 0
2537 5884 0
-278 3688 0
4175 3269 0
-2605 -1803 0
-1126 4533 0
6129 -3572 0
-3278 2682 0
4860 -2478 0
2112 2406 0
5878 -3237 0
3947 1136 0
3835 5387 0
-4128 380 0
5068 6469 0
-537 -5119 0
-100 934 0
-491 -2856 0
-4449 2772 0
2886 6376 0
-6148 -3177 0
2494 -5361 0
-3023 3383 0
-291 -2308 0
5402 4921 0
-358 690 0
4048 5594 0
219 -1660 0
4141 6001 0
886 -1688 0
3393 161 0
2691 -6031 0
5179 1703 0
-3528 -4503 0
-3051 -5875 0
-6438 -1973 0
4056 4871 0
-4371 1548 0
-275 4847 0
-1919 -2197 0
-3894 -478 0
-1459 -1349 0
5899 -4928 0
-3811 -3080 0
1046 -3794 0
-753 5797 0
4592 4963 0
-1373 4675 0
2538 -260 0
-6160 3680 0
-2337 -4586 0
2049 -1524 0
3544 -1438 0
138 -5967 0
-2964 6397 0
-6473 5560 0
6295 5905 0
-4572 -3311 0
-684 -364 0
-3355 3798 0
-4190 5067 0
-6249 -3157 0
-1956 4671 0
-5528 2014 0
-4467 -6239 0
-6233 58 0
5743 2353 0
-2300 -6040 0
-21 -6360 0
-5694 -4864 0
5766 2973 0
3706 -4832 0
-2357 1383 0
1206 -237 0
5600 425 0
4251 -2739 0
5995 2983 0
1597 -575 0
-6109 1339 0
41 -913 0
5442 -284 0
4441 -2459 0
-6350 4031 0
-2519 5224 0
2413 173 0
2482 -1650 0
-6518 2271 0
5971 5010 0
-81 2496 0
2735 5315 0
4137 -4107 0
341 -3935 0
853 -1504 0
-6100 5880 0
6067 -1539 0
387 4890 0
828 -1719 0
-3454 2601 0
-4019 -5388 0
-6011 -2161 0
-270 5671 0
4735 -4915 0
-30 -4602 0
-5149 1537 0
3755 -2163 0
6025 -5408 0
4074 1618 0
-110 4712 0
-4771 -3459 0
-6243 -3295 0
-2944 -2049 0
6356 2300 0
473 3106 0
-4178 -2177 0
-4787 -2748 0
-1440 5717 0
-3598 -4701 0
2938 4780 0
-3623 2544 0
4079 -814 0
-3818 5761 0
-1050 6232 0
-2726 4004 0
-1788 -1220 0
1166 3841 0
-6121 -3754 0
1038 -1101 0
-4521 -1300 0
-2380 1784 0
4474 -6 0
2271 3644 0
4616 -3593 0
-1789 -5562 0
-6130 1920 0
-6509 -4103 0
-1116 -1275 0
3037 536 0
6276 -1495 0
-5471 2158 0
4683 -3459 0
-374 -2420 0
-6433 4336 0
126 4014 0
684 -5485 0
1058 6449 0
-2932 1802 0
-5386 -1876 0
452 -5815 0
-2203 1618 0
4070 292 0
-797 1387 0
1958 2196 0
-4770 -337 0
5727 3937 0
6419 -865 0
-570 -1771 0
-5976 6418 0
4643 1645 0
6140 3005 0
2018 989 0
-1447 5641 0
4791 -646 0
4428 -3341 0
1042 -5974 0
881 4564 0
-2053 -4590 0
-2524 4798 0
-3555 -6440 0
-5321 -1837 0
5040 1731 0
-4533 3651 0
3572 -3818 0
1947 -2901 0
-3225 -4851 0
-1087 -604 0
2648 -1368 0
-684 541 0
4306 2255 0
-1739 -5805 0
-5327 -2103 0
-4918 2772 0
-2928 -4816 0
-705 -5032 0
-6318 -2456 0
-5927 -24 0
1058 -4640 0
4130 6437 0
6289 -4082 0
5353 -5061 0
4762 3746 0
-4565 1689 0
-2726 -3173 0
-1759 -3545 0
-6260 -99 0
-4687 -4808 0
4113 6534 0
2778 5579 0
1537 -6534 0
-4358 1771 0
-1599 -5605 0
-4817 2414 0
2478 5641 0
-4658 -4629 0
3312 1517 0
1683 -6459 0
-3708 6070 0
-5905 6171 0
-6390 5381 0
-388 5683 0
-1189 -4658 0
4777 4597 0
-2794 -5668 0
-3614 -6016 0
1973 -5595 0
-2314 -800 0
-75 -5792 0
5157 -1974 0
-6235 -3766 0
-3488 3042 0
5236 3852 0
-90 -6227 0
5980 -6004 0
-4213 -2753 0
4884 1592 0
2461 -4034 0
5834 2246 0
2943 -2236 0
-5239 4633 0
-525 -6511 0
-200 2904 0
-812 -1917 0
-1515 -6373 0
-1719 2030 0
-2596 5619 0
-5026 -1925 0
6039 1882 0
1723 2410 0
1356 5843 0
-4356 3298 0
-218 -646 0
-2228 -1933 0
2058 -928 0
-5617 -1356 0
-4721 3989 0
1630 -3768 0
5333 5715 0
4609 1949 0
3157 -742 0
2177 -3400 0
-923 1326 0
-3198 -5192 0
805 2111 0
-3260 -5038 0
-1057 -3370 0
551 5401 0
5832 -137 0
-4816 2335 0
4802 -2987 0
-885 -995 0
5988 -1874 0
-455 -5759 0
3798 -2338 0
-3159 1592 0
-5612 6370 0
1938 3722 0
-2309 1819 0
1406 -2344 0
-6452 -1341 0
5449 -609 0
-502 -370 0
-4213 1720 0
1412 4990 0
-2570 1847 0
-4357 1585 0
2543 2653 0
1461 -5888 0
-2106 -4118 0
-5533 -1940 0
-1738 2416 0
5107 1278 0
-1589 -97 0
-1082 5949 0
-4560 -6470 0
-1772 -2033 0
-135 -5228 0
4370 -1382 0
6445 919 0
-6100 -3396 0
654 2519 0
-5512 -2633 0
454 -961 0
3782 3721 0
-1200 4438 0
487 -2666 0
-1859 1994 0
2257 -5367 0
3666 -2496 0
1552 5946 0
959 2057 0
5264 -1142 0
1613 4229 0
-1623 5699 0
-929 1954 0
-5509 -1748 0
-5693 -3588 0
3401 -5262 0
3087 -4075 0
-6334 3052 0
-998 -2165 0
-4503 -3560 0
-4504 -3198 0
-4836 -4585 0
-1010 2523 0
3970 -5717 0
-1641 -4747 0
1790 -1128 0
4158 1607 0
-2658 3451 0
3967 4802 0
2532 -841 0
-951 -2357 0
-4244 -4042 0
2261 2012 0
4478 6170 0
-2980 5437 0
-3228 6515 0
182 -4510 0
-453 6388 0
-1369 3266 0
23 -3076 0
-3109 3205 0
1009 -4406 0
-1409 -4063 0
-2164 3553 0
-5210 1064 0
-799 5309 0
4131 -1085 0
-5427 -1721 0
2619 4425 0
-6490 -2226 0
-1775 -532 0
-6026 -2948 0
-2378 -2358 0
4578 225 0
467 -2670 0
5480 -804 0
-1472 -1065 0
-3982 -974 0
1290 -2004 0
4791 -2 0
-557 2462 0
13 3859 0
-3469 -2719 0
-939 6386 0
-6237 3147 0
-3798 -4293 0
-5087 5250 0
2226 -2344 0
1049 5298 0
-4678 3242 0
-3572 -5947 0
574 1723 0
1503 -1657 0
-585 2106 0
3596 -4120 0
-5628 5770 0
1843 5359 0
2603 -1877 0
254 2548 0
2736 -2061 0
-1193 -493 0
3302 -5035 0
1313 2295 0
-4365 -2164 0
5614 -4985 0
-1544 -5858 0
-1799 -2983 0
-1108 -5384 0
-1466 580 0
-2696 2258 0
-361 -4366 0
-3449 -6016 0
3078 3831 0
-3521 3029 0
-6526 -5165 0
-1552 2495 0
-4510 -6490 0
-4178 86 0
-2903 -4954 0
5761 -3112 0
1139 -3106 0
516 5872 0
4152 -3194 0
-6397 4754 0
3974 5558 0
2982 3366 0
-6012 -158 0
2611 3038 0
-2978 1711 0
558 1900 0
-1447 -5242 0
858 4004 0
3332 4908 0
5911 -951 0
-2490 915 0
2552 4451 0
-1372 4021 0
-2724 193 0
425 -3165 0
-5709 -4151 0
6529 -6456 0
5256 5863 0
5987 -2379 0
1784 -1575 0
-3330 310 0
431 2769 0
-1749 5520 0
-4196 4568 0
6476 -2264 0
-1975 3999 0
-5145 3122 0
-5438 -5388 0
-3374 1468 0
1929 -5858 0
5201 4804 0
6335 -4981 0
2978 -1605 0
-2701 6528 0
-4806 4139 0
6213 5023 0
-4215 1486 0
4130 -5587 0
-1843 3390 0
-1854 1849 0
-3892 -4135 0
-370 -4615 0
-4983 3656 0
-2901 -3226 0
1697 -742 0
-3047 548 0
-2750 558 0
3942 4952 0
5855 1629 0
-3103 1806 0
-3956 3144 0
-4152 6328 0
5519 -2571 0
1250 3464 0
-494 5804 0
-4700 -5262 0
221 58 0
2349 4500 0
-4744 2831 0
-2250 5821 0
5569 351 0
-1769 -2309 0
-1734 -5773 0
3610 -709 0
5411 -6513 0
-727 2611 0
3026 3477 0
-6326 -3212 0
-4411 3932 0
-479 2758 0
5837 -259 0
4421 -3974 0
-135 5344 0
-5587 2744 0
5621 -5322 0
-4493 -4466 0
-5850 5574 0
-3050 4904 0
20 -6067 0
5803 -1155 0
3267 2225 0
2647 3273 0
1918 -5199 0
2729 2075 0
-985 82 0
2184 -5221 0
-4587 -1010 0
-3295 2077 0
-291 1277 0
3396 1121 0
-5157 4647 0
2664 -4957 0
296 168 0
-155 -3015 0
6196 2402 0
1610 -915 0
2837 -2946 0
4518 385 0
-3595 -2921 0
-5839 -5202 0
-5470 5198 0
-5869 -6408 0
-4901 6542 0
3363 3913 0
-718 -1461 0
2810 2355 0
-3769 -2823 0
2865 5968 0
-2655 -3427 0
1618 -3788 0
-5245 5148 0
-4948 6118 0
-5698 -4150 0
6359 -6446 0
-1294 6536 0
3220 -5033 0
-811 4197 0
-3318 1631 0
-973 -378 0
-1861 1070 0
-6349 5135 0
5206 5341 0
-5597 -2292 0
4414 1521 0
-1099 1405 0
-2274 2295 0
5729 3493 0
-5914 1351 0
841 5576 0
-4481 2320 0
-5363 6386 0
-5340 -4257 0
369 -4872 0
-1049 -5421 0
-3752 -6492 0
-6057 -3223 0
-4823 -3750 0
-3495 2742 0
-1020 -660 0
4757 -3290 0
-605 5153 0
2678 2571 0
1770 1277 0
-6179 -3766 0
-698 -928 0
-5219 -511 0
-6197 -1001 0
-5771 583 0
-6 5106 0
-1874 2713 0
-2388 -248 0
3478 2932 0
5690 -3081 0
1695 -2920 0
-6545 4948 0
1538 3091 0
-1359 -1979 0
2208 -3798 0
-3051 1639 0
901 -1946 0
-5308 -1441 0
-4114 5208 0
-3574 3232 0
-2821 3622 0
3155 -3082 0
4837 5174 0
110 -2226 0
5385 -5136 0
-4254 727 0
1745 -714 0
2945 5295 0
196 -4918 0
-1161 -3126 0
-1104 -882 0
-1896 -6280 0
4152 809 0
-2576 -5705 0
-4591 -1798 0
-3172 4072 0
5527 4349 0
-5720 721 0
-4493 5065 0
4844 5284 0
4900 2962 0
-5249 -288 0
1186 778 0
-5202 -5917 0
-2556 -3461 0
-5782 -3513 0
2187 -2748 0
505 5814 0
6151 6317 0
6128 2885 0
391 1332 0
4440 -606 0
1532 -228 0
-5457 3195 0
-5384 299 0
-1441 2354 0
-5716 -772 0
-1415 -4717 0
4851 -405 0
4444 -1944 0
-3240 2976 0
-2774 3232 0
-6418 -1730 0
-1981 -6198 0
2055 2761 0
4998 -3031 0
6384 -4874 0
1118 2271 0
1592 -4772 0
-6208 -5367 0
-931 -753 0
-5241 2695 0
6213 3336 0
-1337 -3501 0
-563 3601 0
466 3432 0
3861 5082 0
-2197 5143 0
-1491 5342 0
3128 4318 0
-2957 -549 0
5141 -3559 0
3248 -807 0
3542 256 0
-2655 -5279 0
2437 -4502 0
-6504 655 0
3846 1189 0
-2990 -2597 0
-728 -4517 0
-5756 -630 0
3048 -4298 0
3777 4709 0
-5209 -2716 0
552 4040 0
1529 5769 0
-2600 -2015 0
3966 -2669 0
4486 5684 0
-2155 -3863 0
3336 -5556 0
-5177 5826 0
5944 -1275 0
-40 -2039 0
-4942 -1923 0
-4740 5692 0
-1546 742 0
4956 1261 0
1248 -4848 0
6219 -4231 0
-925 -5240 0
-4092 -1900 0
-2575 2055 0
3021 -4082 0
-1576 -1307 0
3433 4842 0
3285 5366 0
-5856 -5449 0
-2171 -1899 0
5042 -4305 0
-2245 2009 0
703 -5275 0
4469 -5257 0
1586 4011 0
-3769 6106 0
-6453 6454 0
-1047 -29 0
-2144 301 0
5366 -4114 0
2202 2172 0
2678 -2325 0
-4405 6224 0
-4935 597 0
3591 -4581 0
5719 6043 0
421 1460 0
599 -3108 0
5841 1184 0
4917 -5130 0
-3982 -4009 0
-767 3966 0
-6109 458 0
-6349 -6235 0
-3145 1742 0
6263 3153 0
410 -5096 0
-2763 3606 0
-6202 2607 0
5571 1591 0
5275 -2146 0
628 2294 0
-2688 197 0
-5586 -5839 0
-4136 2961 0
-5142 -3374 0
-4885 -6541 0
-5959 2020 0
-6053 126 0
-2538 -2564 0
-2777 5415 0
5857 -490 0
-2383 -4098 0
153 -5550 0
5794 -5979 0
-4756 -4206 0
-5698 1947 0
645 3241 0
-307 543 0
4118 -2243 0
5966 2746 0
-3179 965 0
-4774 1768 0
-4605 -1020 0
-206 -2523 0
-4043 -6283 0
4977 789 0
3928 -2618 0
2311 -3203 0
-2637 -3082 0
5444 -439 0
-867 5662 0
6373 1099 0
-2753 3153 0
2582 2005 0
-1235 -4872 0
-3995 -333 0
-101 -5284 0
183 -1585 0
-2997 -1975 0
-1075 2919 0
-3525 -1988 0
1509 5162 0
1845 -5318 0
-2739 5303 0
2557 -4410 0
-1094 -1267 0
3466 2476 0
5926 4334 0
6175 -6379 0
-863 -6271 0
-248 2564 0
-6061 -3238 0
1130 1820 0
-3301 -2122 0
-6407 -5099 0
-2447 -1223 0
-3305 -5317 0
5387 4522 0
-4019 4851 0
-3998 2944 0
-1845 4439 0
6442 2198 0
1635 6347 0
-4802 4117 0
-4989 6008 0
-1943 5554 0
5765 4430 0
3859 3506 0
-4103 2888 0
-1425 -129 0
-2275 -6226 0
-4166 -237 0
4610 2168 0
-1669 3918 0
3071 4647 0
2053 5471 0
-5404 3650 0
4441 -6002 0
5349 621 0
6488 -5815 0
420 -3139 0
3166 2633 0
3871 3601 0
-1753 4538 0
-6261 -1271 0
3256 -1903 0
723 -4826 0
-2855 -21 0
1032 -3375 0
-2183 -4923 0
4148 104 0
-2089 3609 0
3211 170 0
3628 3073 0
3132 -2324 0
-437 766 0
75 6171 0
5646 6193 0
5581 -3331 0
2455 214 0
-1046 -4338 0
3541 408 0
-5461 -1037 0
-5762 -4396 0
1478 3521 0
-318 -1105 0
-1317 -3174 0
4579 -3560 0
-3998 -5240 0
-2510 -4993 0
-4549 -2275 0
554 4816 0
3690 2273 0
5146 -4338 0
3100 4123 0
-1101 1770 0
3010 -2799 0
6300 581 0
475 1787 0
960 1028 0
3038 2902 0
3301 -1396 0
-548 3865 0
-780 -2594 0
-5026 5901 0
2080 -1849 0
4822 -3461 0
-5217 1380 0
5928 3069 0
-1969 -1536 0
2777 3491 0
2462 -4387 0
1172 -1991 0
-5906 4328 0
-4622 -3517 0
-2877 835 0
-283 -3982 0
-177 -3414 0
-3161 4578 0
-4085 5660 0
2781 2411 0
-1057 2115 0
625 5717 0
-5137 2235 0
-1901 -1679 0
2738 4198 0
-6367 -3088 0
4344 2904 0
1415 -6532 0
2546 5648 0
-3369 6082 0
4306 1618 0
-1720 2720 0
-253 6062 0
5581 -524 0
-3034 -519 0
-360 -5253 0
-3836 2093 0
-2160 -1445 0
4887 4180 0
-6452 -3780 0
-952 797 0
-4620 3462 0
-3880 1354 0
-6226 -3285 0
-4809 1544 0
-779 3262 0
-4922 5296 0
4653 -2677 0
2084 5213 0
-6500 6239 0
-2269 -1972 0
2230 -1589 0
6174 -2056 0
-2597 3118 0
-2630 2631 0
3188 -3191 0
-1040 5708 0
691 5471 0
-3522 5324 0
1518 -3457 0
-6243 -6319 0
-479 -983 0
-3601 2844 0
5143 4488 0
256 -3803 0
-6312 -3469 0
-2472 5939 0
-2763 304 0
4064 2930 0
-4049 -2063 0
1787 -2837 0
-6312 4715 0
3449 1826 0
-1331 -3906 0
3862 6025 0
434 -2028 0
3398 -1359 0
211 122 0
-925 2183 0
-6312 -4918 0
1702 -2367 0
3327 -6 0
-5087 -4353 0
697 -469 0
651 2794 0
-4342 -2773 0
-1323 -431 0
-6391 5198 0
3903 -2447 0
1547 -663 0
-5092 1315 0
771 -2555 0
-1673 3929 0
769 -6209 0
-635 1526 0
168 3528 0
281 1156 0
5280 -5939 0
-164 6405 0
-6020 1365 0
6102 51 0
1587 -3604 0
-2291 4768 0
190 -5196 0
-4163 1915 0
-4701 -6477 0
-6506 5733 0
-4516 3062 0
2781 -3598 0
4318 -4694 0
-1500 -4969 0
735 6151 0
-4387 2191 0
1386 -5698 0
3975 -2205 0
2773 -4983 0
6031 -5436 0
-311 -2190 0
2756 -4365 0
5603 2429 0
4367 -3288 0
-1634 -5762 0
-2492 1610 0
6357 -2608 0
-4312 -3000 0
5479 -3651 0
2643 -104 0
1776 -3922 0
2056 -5350 0
4201 2501 0
-3643 3491 0
257 750 0
6092 4586 0
3505 286 0
-4840 6520 0
816 -3667 0
1629 -176 0
-2275 4317 0
-5543 -6349 0
1407 -5669 0
2777 -6414 0
3359 -5530 0
-6330 -5428 0
-5975 3428 0
5138 -3279 0
6236 -2931 0
-5058 5064 0
2039 4136 0
1065 -1088 0
1156 -6020 0
-6209 -1885 0
2550 -4364 0
3754 -1716 0
2670 -5472 0
856 2621 0
5648 5692 0
6447 -2505 0
-6388 -100 0
1390 363 0
4411 -6330 0
2349 -5630 0
-5437 3332 0
-2856 1779 0
-1794 6495 0
355 -3673 0
-3256 6005 0
-1700 -1902 0
-1142 2600 0
4385 -4056 0
4961 -1022 0
1784 2419 0
-1505 -3349 0
5208 1802 0
-6072 1604 0
5775 123 0
1934 1057 0
-1581 6140 0
5822 -139 0
1379 2042 0
-2611 -1193 0
-6249 4195 0
-1481 229 0
5294 2011 0
-4166 -4382 0
-2217 1471 0
-3879 -3410 0
-1054 4862 0
-498 -3841 0
-2677 -53 0
289 -1077 0
-6077 -108 0
-3951 2124 0
4092 -1707 0
-1751 5175 0
1561 -3335 0
642 4607 0
-3327 6340 0
-1390 126 0
-681 4592 0
-6340 -4636 0
-6152 -4259 0
1119 6031 0
-6063 759 0
-2645 -4359 0
4228 2696 0
2649 3710 0
-4110 1940 0
-3821 -763 0
3314 2556 0
6484 3877 0
1509 -808 0
-1539 -1089 0
-135 -6010 0
-3982 6284 0
475 2605 0
2130 -5628 0
-2474 -3031 0
-74 4968 0
-2358 -6493 0
4463 -6156 0
5819 -5971 0
7 -1920 0
-864 -5532 0
6269 1148 0
-6252 1769 0
-5186 3592 0
5880 -4819 0
229 4494 0
-5680 -6090 0
2556 -3197 0
-1415 -2250 0
2233 1066 0
-6279 -492 0
-765 891 0
1694 1858 0
4795 -3108 0
1922 -4397 0
-4003 801 0
-3732 -1260 0
-5740 -5014 0
-843 2133 0
5334 -4177 0
-5694 6188 0
1315 1781 0
3232 6411 0
5175 74 0
2582 -2951 0
-5091 2120 0
2001 2057 0
-5496 -325 0
4211 3883 0
-1001 -1908 0
-6466 -6387 0
129 -322 0
2378 -4750 0
5199 -1727 0
-4714 1727 0
-4436 578 0
6009 -699 0
2137 4386 0
-3840 5163 0
4493 -1945 0
-1495 -4036 0
6546 5097 0
-1353 -899 0
-229 1255 0
-354 6540 0
-5292 2377 0
4430 -4735 0
4560 -673 0
196 -4856 0
4657 6092 0
3085 -760 0
-4774 -817 0
785 -614 0
-801 -309 0
3095 896 0
-420 -823 0
4495 -5270 0
5411 -1171 0
-2578 -1707 0
1898 5112 0
5158 5211 0
-6470 3963 0
4705 -2257 0
-4252 6079 0
4138 4232 0
-3829 -251 0
-202 -3251 0
752 -2791 0
1266 -3850 0
-2402 2346 0
-392 -3288 0
-4366 5261 0
-3410 -3639 0
-1684 -4862 0
-4425 -4187 0
431 -5809 0
2759 -512 0
-1217 3642 0
-6539 -2264 0
-2100 -5455 0
1255 -2832 0
1387 1399 0
-4598 1564 0
-6429 -6402 0
-5367 846 0
668 -5161 0
2356 -3300 0
-683 3791 0
2373 6327 0
171 -5352 0
6118 5264 0
-2248 -3573 0
-1476 1723 0
-6436 2455 0
-6406 1479 0
3553 3759 0
4863 -4193 0
-4681 -6436 0
4674 -2146 0
-4909 4978 0
4902 -710 0
-2334 2207 0
-163 -1720 0
-30 4267 0
5428 1120 0
-4212 -6449 0
579 332 0
-3803 -5915 0
2830 3922 0
-5648 -6347 0
-4993 -124 0
-4183 -1722 0
4313 5289 0
-1935 5822 0
3039 -6391 0
2098 -3761 0
1769 -5908 0
-3244 1530 0
4113 522 0
627 6421 0
1083 -6485 0
-3501 295 0
-5069 -2513 0
-1801 -4259 0
6399 5742 0
-4325 -4568 0
-4780 -337 0
5625 6356 0
3491 1402 0
-2272 -3555 0
-2835 -1775 0
4035 560 0
-1328 -1873 0
6333 -2933 0
501 -4753 0
1754 -3440 0
2276 -4696 0
3508 3220 0
1088 690 0
2981 -4604 0
398 -4261 0
4979 -5893 0
-4994 -1297 0
-882 2506 0
-4907 1724 0
3804 -6431 0
4667 4506 0
-933 -1540 0
-4134 3643 0
-3177 5194 0
1951 3704 0
-3708 658 0
6170 4796 0
6399 3058 0
3837 -3334 0
2609 4563 0
4200 -1158 0
-578 -1012 0
-1210 -5802 0
-111 -5019 0
1529 4349 0
3022 -4023 0
3322 -4353 0
2418 4398 0
1262 3913 0
6358 -5456 0
795 1037 0
-5920 1556 0
-5994 -544 0
4755 -4139 0
-2573 -1235 0
2207 3691 0
-6367 -6236 0
-642 -361 0
-226 5477 0
987 1852 0
4352 -4534 0
-5481 -4860 0
-2078 6349 0
2445 2164 0
4013 -6535 0
4066 -5398 0
768 1325 0
3825 -2701 0
5690 -3528 0
4950 5734 0
-969 -3060 0
1645 4813 0
5827 -5190 0
2047 -4807 0
-4427 5911 0
5320 3853 0
5149 6183 0
999 2179 0
865 5267 0
6299 -659 0
-3361 -2841 0
4967 967 0
-2367 -687 0
-1801 4480 0
2021 4662 0
4734 -483 0
189 -2121 0
-4947 4124 0
1743 -2721 0
-1460 -2114 0
-1986 6194 0
-4514 3706 0
4903 2371 0
-3352 5911 0
37 -1984 0
-4687 -1947 0
-6479 6370 0
6544 -1710 0
4285 -4944 0
-6404 5099 0
-4989 -4199 0
-3900 -3435 0
5401 3586 0
650 -2334 0
-2180 5773 0
850 557 0
5836 4880 0
-5049 844 0
5706 1451 0
4052 -6545 0
3142 -2254 0
-4915 -4192 0
168 2766 0
5286 -2462 0
-5126 3755 0
4530 601 0
916 4253 0
-2433 -1354 0
3565 4051 0
-2986 1300 0
-6105 5010 0
6299 -2549 0
3652 2139 0
5756 4550 0
-4545 -5165 0
1790 -408 0
213 5475 0
-2517 -4425 0
-3000 3099 0
-1728 -3745 0
-1539 6041 0
-4651 5646 0
1222 -4605 0
-2166 -3475 0
1209 5676 0
-4882 -6334 0
-1454 -2204 0
-3033 6397 0
4705 -3351 0
1109 6170 0
-2105 -5501 0
-1339 5026 0
2603 -320 0
4338 1670 0
-3700 4390 0
-4020 -4973 0
-1794 4517 0
-2118 6074 0
3965 5234 0
6281 -5417 0
4518 2199 0
2348 496 0
-2602 1279 0
-3925 1501 0
4236 2880 0
-4356 -703 0
286 -2601 0
-3492 1556 0
-3713 -2129 0
-3213 -6107 0
-790 646 0
5188 5383 0
-3788 -6374 0
6303 -1900 0
4016 -2974 0
4070 -502 0
4269 -4827 0
-812 -2442 0
-6235 463 0
1346 -5172 0
-2717 1618 0
4120 -2142 0
-2234 -2914 0
-955 -3048 0
-3863 -3954 0
5585 5531 0
2880 3628 0
-4652 2420 0
-3867 5350 0
2715 -630 0
-6221 998 0
-108 5486 0
1098 6285 0
6459 541 0
-6221 -2795 0
-2747 -639 0
865 -1470 0
1437 -3360 0
-3566 5134 0
-3246 1047 0
1095 -3021 0
-5654 -2085 0
-1313 1691 0
-4211 704 0
1873 4099 0
-193 2030 0
-5654 -1976 0
6482 3740 0
-4517 2666 0
897 -1252 0
1284 1800 0
-6421 3815 0
-4740 1115 0
2652 5600 0
-3534 5897 0
-4658 6469 0
3841 -1304 0
-4013 396 0
-2860 2044 0
4729 955 0
2085 -5922 0
-1104 3238 0
4601 3817 0
3002 -2089 0
586 3997 0
-5696 -3829 0
-5188 2000 0
-326 127 0
-2395 3815 0
-5635 533 0
932 3289 0
1053 1638 0
-4767 -2771 0
-5359 -1659 0
-4880 -1092 0
-2153 4618 0
-263 -6527 0
4207 5884 0
616 1645 0
2341 -6510 0
352 -740 0
-3268 -6371 0
1123 -1459 0
-1311 -5549 0
1907 -308 0
1463 -2240 0
-3925 -951 0
-4675 6108 0
-5073 5965 0
-594 -2665 0
-4616 -1744 0
327 5113 0
3297 -2644 0
-2006 -1541 0
5086 3204 0
-700 1379 0
1190 2161 0
-3316 2646 0
1845 4510 0
-697 703 0
2301 -4207 0
-1251 -2069 0
926 1948 0
5296 -2332 0
-6151 -549 0
5670 -5062 0
5731 4880 0
137 3885 0
2292 5854 0
-4459 5460 0
1205 1867 0
-2020 641 0
-27 920 0
-3001 -937 0
6176 -1618 0
4564 -3673 0
3287 3708 0
2575 5573 0
4841 -5318 0
2098 4466 0
-2892 554 0
-1549 2661 0
702 1625 0
2072 -5613 0
6397 561 0
2379 -4761 0
-3916 4585 0
-394 4727 0
4795 -6268 0
4197 1589 0
-386 -6232 0
5746 -864 0
-5467 3420 0
612 -2366 0
2100 2487 0
2890 -831 0
3524 822 0
-5697 806 0
1723 1761 0
-3276 1713 0
-3953 3985 0
-6129 -1052 0
-1844 5916 0
311 170 0
3857 -1234 0
709 3068 0
273 -541 0
-3002 -3725 0
5546 -4352 0
3184 -1330 0
-6049 5044 0
-930 -3369 0
-3939 -4382 0
-4407 -6402 0
-1953 1615 0
2657 -5002 0
6328 -2978 0
4869 -1386 0
2212 -5411 0
5561 -917 0
5030 -607 0
-1874 2479 0
-1936 -5006 0
-836 2439 0
-876 5991 0
-1605 -5578 0
3339 -6198 0
-5410 6494 0
395 -2214 0
-3093 -3620 0
3153 5357 0
1890 5523 0
-4739 3024 0
-1033 -1811 0
5622 2663 0
-4694 -1944 0
-6114 3111 0
4553 -408 0
-1912 4703 0
1849 6035 0
3548 6249 0
6052 2020 0
-4686 -5373 0
2479 4493 0
-4939 -1487 0
4114 -3203 0
-4889 -2707 0
5809 -2861 0
1551 -6143 0
4161 -3712 0
5345 -6186 0
4502 -180 0
-1860 -6003 0
3262 -2886 0
-5897 4559 0
5729 2816 0
-6073 4014 0
-3718 -1014 0
-1700 -2153 0
-5943 5279 0
-1020 181 0
1163 5139 0
6045 -2369 0
-3793 -148 0
-160 703 0
6424 5614 0
-5131 5734 0
-4002 2530 0
-211 825 0
2666 5651 0
-2491 169 0
5976 -490 0
5368 4540 0
4699 6213 0
-1743 -725 0
-3146 1815 0
-31 -6483 0
-733 1893 0
-412 -3793 0
2658 4057 0
4529 -3579 0
-6156 5865 0
6511 6250 0
4776 -2807 0
378 375 0
1170 724 0
5429 5949 0
6379 3779 0
-5515 -4967 0
-1924 5692 0
4237 5750 0
1620 3386 0
3335 -3487 0
2778 5852 0
-4175 -2016 0
-5478 3066 0
33 -2683 0
-323 -4923 0
-3028 6237 0
5047 1961 0
5253 -4721 0
-3251 -4677 0
-2808 -2810 0
-6464 -6404 0
351 2424 0
2299 -3703 0
5956 -2333 0
1065 -4809 0
-1545 5843 0
-2847 2887 0
3923 -4077 0
1259 -2428 0
-3555 -3304 0
3271 -6221 0
-5074 -1321 0
5126 6421 0
149 2409 0
-2025 4558 0
-3618 -6288 0
-2790 -4124 0
-358 3198 0
4158 -2215 0
-2403 -1706 0
-3264 4951 0
-712 -5889 0
-6493 3885 0
-1567 4058 0
3984 -5213 0
495 -3961 0
4746 -4867 0
-6336 5865 0
-5730 4635 0
-5588 1561 0
3373 -3384 0
1846 5179 0
880 5343 0
-1066 5224 0
4789 -2155 0
5693 6514 0
4227 3949 0
-40 -6172 0
-1536 -1458 0
-28 2085 0
2766 3671 0
-6038 -4319 0
2416 5303 0
-5868 38 0
2317 5616 0
5973 4642 0
-4049 3980 0
-3709 -5214 0
-2197 4544 0
-739 5769 0
2649 1720 0
5731 4142 0
-3115 3677 0
-1332 853 0
-2409 -633 0
-563 5797 0
6480 5617 0
-6378 2238 0
4556 -2615 0
2971 848 0
3226 -2645 0
-1337 164 0
-4002 -5067 0
-3414 -713 0
-226 4687 0
3063 -3944 0
4074 -2878 0
5395 4717 0
1834 2848 0
4789 -6350 0
-2829 -483 0
-1339 -1369 0
42 -5989 0
59 5823 0
1075 -2280 0
1136 -2915 0
-3045 2645 0
-1528 -3337 0
-558 2296 0
-330 4345 0
6226 2618 0
3312 -3690 0
1897 -5454 0
-1044 3373 0
-4545 -1191 0
4113 -1252 0
-362 256 0
724 2889 0
3718 146 0
3980 5312 0
5008 -1455 0
7 -1974 0
5189 -5222 0
1128 5098 0
-2582 5734 0
-2801 -1567 0
5810 -6521 0
-187 -1054 0
3938 -3334 0
3949 -3708 0
3960 -1727 0
3337 4492 0
4083 5059 0
2865 -5328 0
-4659 -3973 0
1303 4852 0
-799 723 0
3391 5276 0
-2458 -4396 0
2153 -71 0
-5824 1152 0
-2262 1365 0
-6236 -4788 0
975 2364 0
-1384 646 0
-4173 3005 0
3283 -1020 0
5256 -5279 0
-3087 2153 0
-355 -5791 0
-3233 -3384 0
2222 -5428 0
-974 617 0
-4824 -3619 0
4511 2625 0
-4444 -5241 0
6097 2145 0
-4192 888 0
6297 6080 0
3881 -5557 0
-3922 -5073 0
-3973 -310 0
-5595 5949 0
5511 4127 0
-4320 5619 0
5676 5782 0
-83 2814 0
304 -6371 0
-254 -5962 0
-4933 6242 0
-3109 2939 0
-6209 967 0
-3008 5884 0
6534 -734 0
6027 6271 0
-2761 -4352 0
-5599 -3216 0
6253 -4130 0
4985 1011 0
1771 -4787 0
-3766 -2 0
6165 -5183 0
11 -4943 0
3764 -6330 0
4570 -5861 0
-2788 -4807 0
2184 -538 0
-2305 2892 0
-438 3833 0
-1284 6108 0
171 560 0
6184 -2471 0
-4281 -6182 0
-1126 3335 0
4321 127 0
-1699 2091 0
2339 -5388 0
-2065 -1814 0
-2828 2012 0
-2638 -3133 0
-337 2049 0
-2698 2303 0
344 466 0
-5053 6213 0
1454 2866 0
-3089 5151 0
2287 595 0
-5585 753 0
5678 -5874 0
-122 -2559 0
2271 -6291 0
2039 -3365 0
-1437 2800 0
-1916 -1515 0
4273 -1832 0
5601 -4869 0
-979 -366 0
-3182 -1182 0
-4287 4118 0
-2778 -6534 0
-3839 -3203 0
1950 -5651 0
-1540 3504 0
2467 -2133 0
4439 -2220 0
2986 -1575 0
-432 -3941 0
1723 -4304 0
6103 -6425 0
1412 5249 0
1920 -3735 0
5042 -4504 0
2720 -3540 0
1011 -188 0
2579 3733 0
5638 -4408 0
1992 1446 0
-4499 -3751 0
5937 6342 0
260 6449 0
-2575 -6525 0
-1148 2915 0
-6277 409 0
204 1341 0
-2354 3063 0
-2815 -3026 0
4580 1 0
5508 -560 0
-6456 4949 0
-4129 3159 0
-938 -5113 0
-3620 3789 0
-6405 -5779 0
-3225 2840 0
-1587 -6186 0
1926 -5924 0
1982 -2393 0
2423 5146 0
-3453 -1245 0
-3076 2902 0
-3169 2590 0
4634 -5275 0
4372 4561 0
1953 2591 0
5459 -1054 0
3122 -3324 0
1492 68 0
-4736 -2453 0
-1534 -450 0
-2430 4955 0
2609 6257 0
-3299 1018 0
-4376 5573 0
6058 705 0
429 -5588 0
3033 -2714 0
6507 2619 0
1988 901 0
3317 1216 0
2164 3819 0
4874 -5416 0
3363 -2699 0
-1366 -1467 0
-2929 -3536 0
6346 1113 0
-1444 1549 0
1857 -3707 0
4270 -2425 0
-4636 -5689 0
1600 -820 0
2356 -4985 0
1683 4605 0
1524 4392 0
-566 1843 0
-1116 3579 0
5491 1401 0
2083 4090 0
3916 334 0
315 -1446 0
-120 -3382 0
-2934 -5921 0
1877 -5732 0
5356 1265 0
-516 -1378 0
-2697 4629 0
-1254 -6211 0
3208 1395 0
1761 -71 0
-3989 -5224 0
1554 2098 0
-566 -4606 0
3290 -5699 0
-1791 -916 0
-520 -3212 0
-577 4611 0
2142 -2917 0
4145 -681 0
5021 4082 0
3686 5475 0
-5168 -3277 0
-5541 2255 0
6123 -3370 0
-4245 5648 0
2245 1044 0
2982 20 0
4521 -600 0
-2510 4636 0
-6308 -4091 0
-1029 3883 0
4214 -4574 0
740 -4567 0
6436 -4448 0
-1611 2867 0
4263 1951 0
-1189 5086 0
1571 530 0
776 -5347 0
-5332 5841 0
-1068 -2494 0
3055 5185 0
4963 -1999 0
6007 4216 0
-6530 -2192 0
-344 1542 0
3290 -5828 0
-1230 245 0
-1895 -285 0
-4145 -5822 0
-172 2360 0
4402 -5483 0
-2063 3045 0
5026 860 0
690 -5408 0
-4808 4311 0
2199 -2254 0
-945 -4769 0
5719 -5285 0
-4624 -5669 0
-4321 -298 0
-6392 -916 0
4506 762 0
-2547 3006 0
391 1038 0
221 6223 0
-1223 3442 0
4164 -5115 0
2567 -39 0
-5328 -5922 0
-3804 3782 0
-192 5208 0
-4575 -977 0
6072 6508 0
-6136 -5468 0
3787 954 0
-4647 4821 0
4674 -2039 0
-1989 3804 0
-3796 -5213 0
2062 -3774 0
-4928 -3621 0
5025 5879 0
-419 -6527 0
717 -6046 0
1373 2573 0
1748 -4360 0
-634 -5867 0
-4302 -1968 0
1152 -3558 0
-1812 2893 0
-4320 628 0
-3662 -2474 0
3351 5616 0
2540 6203 0
6523 -2460 0
6083 -5713 0
1244 551 0
3909 -3339 0
4642 3797 0
5034 -1441 0
-5260 5148 0
-950 -3994 0
-1225 4465 0
222 4581 0
-1101 851 0
-4943 663 0
-3383 -921 0
-3088 2537 0
-4215 5508 0
1482 2679 0
-3492 5347 0
3279 -3993 0
-2903 1335 0
-4405 1721 0
4489 5407 0
-4238 -1141 0
3528 5581 0
-274 -4806 0
-4113 2844 0
-1204 5309 0
-357 -4922 0
-2600 2053 0
2759 5939 0
958 5831 0
4468 322 0
-148 6296 0
-3532 -3151 0
5701 -3851 0
3277 3760 0
707 5796 0
-2000 3930 0
3730 1906 0
-2478 6395 0
1048 2442 0
3652 -5930 0
2609 5110 0
-2464 -4743 0
4152 4352 0
5055 -4309 0
4538 -874 0
-5166 3812 0
-266 -1134 0
3004 3288 0
-6348 2944 0
-1827 -1349 0
3638 4833 0
2906 -3167 0
4508 -1388 0
3219 -374 0
-1238 -808 0
5180 -1252 0
6090 1934 0
232 -5563 0
4733 -4801 0
-2579 4919 0
1558 5427 0
4519 -5722 0
-2692 2650 0
3550 -1318 0
-3710 -1322 0
6257 3694 0
-3034 -1119 0
-2473 1325 0
-5404 -6509 0
-1573 6005 0
-4790 5469 0
-1644 2298 0
-5190 1610 0
-3809 3531 0
-6519 5080 0
3312 -4666 0
6065 3760 0
2060 3518 0
1451 -5970 0
-291 5768 0
4674 3370 0
-615 -5525 0
-3103 -3209 0
6047 -5770 0
-4076 449 0
-3070 -4649 0
6082 -218 0
5280 -1883 0
-3154 -5520 0
4236 52 0
6214 1032 0
-5485 1330 0
2813 5743 0
-3746 -5110 0
-372 4227 0
-1951 726 0
-2126 -5362 0
-2879 4245 0
2300 5435 0
-2486 3585 0
3862 3131 0
4656 -3428 0
-1323 5247 0
366 1915 0
1807 5754 0
3252 -5756 0
-4521 -3313 0
-4133 1357 0
715 3095 0
-4504 -3063 0
-5379 -4404 0
385 113 0
2166 4345 0
-5033 4495 0
-1879 -3426 0
-3239 968 0
2502 -3352 0
334 -4694 0
664 553 0
-4337 -209 0
2186 -2312 0
1459 -5836 0
-5588 301 0
6005 3966 0
1946 5096 0
750 6473 0
-6538 -2274 0
-2697 -4837 0
1096 -6360 0
3896 4241 0
1259 2210 0
497 43 0
3217 -3390 0
-5301 3516 0
3162 -2430 0
-2487 6337 0
1175 4847 0
5805 2673 0
1373 -3543 0
-725 -2804 0
-6109 -252 0
5199 1375 0
-748 -3025 0
-1588 3747 0
-3505 2916 0
3904 -274 0
620 -3114 0
-6473 1808 0
-5074 5090 0
-1073 -5383 0
-6133 3122 0
1851 -5852 0
-6144 -935 0
-3520 -4964 0
-6445 4150 0
5202 -5793 0
2941 2053 0
-5428 -4220 0
5125 4806 0
-5984 2774 0
-6156 -2381 0
-1218 1876 0
5051 -1796 0
3552 -3658 0
4322 -1352 0
2228 -740 0
1097 2875 0
4479 -4228 0
4398 -2392 0
5359 5505 0
-716 3162 0
1732 3565 0
-3867 -4725 0
3215 5246 0
64 -4359 0
640 1127 0
-2436 -935 0
5340 3359 0
3905 1762 0
-4413 -154 0
6425 3830 0
-1614 6177 0
5320 -6104 0
-6283 62 0
1517 -2021 0
-1110 4005 0
5359 -4449 0
-4114 -2736 0
-535 2161 0
-947 1438 0
5607 -1429 0
-3206 -2492 0
3191 1939 0
3442 2815 0
-1088 -3371 0
-1169 -4001 0
-4469 -2778 0
-2582 -6040 0
3359 5583 0
923 4154 0
-1422 -989 0
-2064 586 0
850 -883 0
-1999 -3183 0
-1540 6013 0
-1283 -6076 0
6212 4843 0
-5889 -2376 0
-6151 28 0
4833 -4371 0
5878 5486 0
-1672 -726 0
-3258 1964 0
2710 6092 0
1291 191 0
-2904 5229 0
-4094 4346 0
-4160 -4339 0
-171 3876 0
-6025 6449 0
704 4365 0
3599 398 0
-5762 -2237 0
3094 5897 0
-4609 -2929 0
-5373 -6320 0
-5841 2401 0
-4212 1770 0
6261 901 0
-6495 -5598 0
5029 2670 0
-4076 2377 0
5591 -1657 0
2583 -6086 0
-5335 -3952 0
-5853 -4574 0
774 -6067 0
-3217 5724 0
4027 3110 0
-176 5527 0
3722 -5753 0
3569 3230 0
3049 2548 0
47 5886 0
-4548 3241 0
5551 1342 0
5101 2346 0
4228 537 0
968 5143 0
-4111 -2522 0
-4102 1589 0
2916 -5061 0
-5903 4227 0
2009 -2068 0
-3672 4006 0
-2646 -937 0
4512 -5043 0
-4336 6297 0
3717 -4937 0
-1626 1479 0
305 2573 0
4420 134 0
4489 -399 0
-3859 -4 0
-1625 -1941 0
-157 -6415 0
774 1512 0
-1263 -5731 0
-438 -2220 0
3731 -2943 0
2096 -5284 0
2384 -6185 0
1863 5782 0
-3144 5511 0
325 5199 0
1875 3224 0
6340 -4822 0
5143 -2211 0
-2705 2186 0
-6287 2767 0
286 -3131 0
-1257 -1937 0
-4280 -4871 0
-4081 -2585 0
3758 4751 0
4738 -3592 0
-5520 4286 0
-2917 3637 0
-2280 1643 0
954 -5203 0
-6418 4914 0
1853 6270 0
-2284 3241 0
-6111 2514 0
2946 3029 0
-3121 -5135 0
5593 1314 0
-3318 260 0
720 6266 0
-2399 3309 0
1296 4586 0
-3340 -5373 0
-1478 6329 0
-3953 -2473 0
2206 5120 0
-5753 -1173 0
-5714 2331 0
5384 5814 0
872 -4888 0
-3786 -2587 0
1615 -1139 0
-321 -5789 0
-5443 -612 0
4390 1607 0
3773 4007 0
2824 -3482 0
-6127 -1419 0
-2893 2858 0
-3677 -5091 0
-1530 -4462 0
2644 3141 0
-2448 -5533 0
637 -5243 0
-1302 -4282 0
2967 5250 0
5676 -1475 0
-2024 -5651 0
6179 4122 0
-1789 -3961 0
-841 895 0
-1803 -3147 0
-5475 4346 0
-2584 5280 0
-1772 -6354 0
-2076 1625 0
1914 5125 0
-803 520 0
-3577 6250 0
-5883 -1981 0
-817 -6441 0
4648 -6277 0
-6275 3197 0
-299 4631 0
-2633 -1026 0
145 541 0
4451 6413 0
4739 572 0
654 -3512 0
-3783 1233 0
4930 -6142 0
-1993 -5302 0
1160 6248 0
6144 1291 0
5532 4074 0
-1280 -2346 0
3275 -1678 0
5745 -4676 0
-3365 -3888 0
-164 -5127 0
3624 3396 0
909 -241 0
-462 -3627 0
5434 4770 0
-3362 1262 0
5707 -652 0
-587 -344 0
6242 -1424 0
-2690 -3924 0
-144 -4904 0
-5082 -5120 0
6305 1995 0
1977 2566 0
-6527 5433 0
429 3338 0
-2447 165 0
273 4759 0
3261 3363 0
-3076 5616 0
-5685 -1456 0
4762 -1616 0
-4020 2270 0
3858 -3110 0
-1808 -1272 0
4959 -3635 0
-5368 5408 0
-3051 -235 0
-471 -6360 0
-6330 1621 0
-1917 -3083 0
5588 395 0
-5989 -1038 0
-2173 -5011 0
-5240 -1833 0
4058 -929 0
3960 -1007 0
-1116 3252 0
1205 -284 0
5581 -3564 0
-5541 -4949 0
5624 4467 0
-5556 -3022 0
-1714 3627 0
5961 3674 0
-3990 2080 0
1387 -1390 0
-2779 -6523 0
4291 4789 0
-1498 -5768 0
4860 207 0
-130 3471 0
1383 6503 0
5199 -6190 0
-4297 560 0
-867 2262 0
-4003 -810 0
-2470 -4939 0
-148 -1044 0
-4360 -376 0
1763 5359 0
-4217 1368 0
865 -4864 0
-6396 4611 0
-4278 4057 0
-4381 -3120 0
3430 2687 0
-4649 6345 0
5862 -3872 0
-4782 5599 0
4878 5006 0
-334 -3430 0
-2413 4842 0
5878 -5547 0
878 -3911 0
-1 -642 0
1812 -66 0
6507 -4110 0
-5289 4072 0
-6215 -653 0
-4761 1907 0
4292 -5354 0
6199 -4505 0
5962 139 0
-4308 -5731 0
1968 -6266 0
-2894 -98 0
4690 5631 0
6350 -1445 0
-1801 -5319 0
-1059 -2780 0
4948 3823 0
895 -3185 0
-794 2429 0
-4082 -347 0
-2016 5672 0
-2527 4540 0
2945 5207 0
1746 48 0
5745 -6014 0
-1720 -897 0
-4073 4243 0
-3557 -2350 0
2758 5491 0
-6116 6177 0
297 -4946 0
-6451 2297 0
-3904 -3074 0
-5153 3225 0
-358 -6487 0
-2464 1362 0
-5652 -5111 0
-6529 -4201 0
-1201 -756 0
-4369 6179 0
5471 -33 0
-497 3170 0
5928 -6388 0
6117 -3226 0
2795 3190 0
3806 3554 0
6480 1380 0
-3837 -5421 0
-791 -2087 0
-2601 2898 0
519 -4769 0
2727 3516 0
2431 -1540 0
-911 5837 0
-149 -3083 0
-3252 -463 0
-4626 -6373 0
2628 606 0
471 487 0
4781 -5126 0
2996 2364 0
3130 -4356 0
3592 -2926 0
2271 986 0
5414 -4130 0
-5401 1884 0
-3495 1296 0
4634 1871 0
4654 5267 0
4331 -3011 0
-4824 -2273 0
3601 2323 0
-2733 3008 0
-4304 -5304 0
130 2886 0
-4204 2319 0
3173 2625 0
-4289 -5693 0
3358 -3573 0
2551 -3371 0
-1655 2880 0
-5013 -6534 0
2185 -4856 0
-4288 3643 0
2437 -4034 0
728 1992 0
4713 6271 0
-4600 1233 0
3071 103 0
308 6335 0
359 -4202 0
2109 -4915 0
-3217 -5694 0
-6524 -4315 0
-2918 -177 0
5327 1453 0
-211 5671 0
-2242 -877 0
5328 5100 0
-592 4566 0
3140 1058 0
-819 -3714 0
-2775 -5654 0
2209 -2727 0
4305 3896 0
3850 -433 0
2528 1829 0
-6447 1479 0
-2388 -4262 0
-1908 -334 0
988 -5338 0
-4059 5341 0
-3033 -5960 0
-3593 2973 0
-2107 -157 0
3755 -4192 0
2275 -29 0
3928 -854 0
-2882 1462 0
194 2014 0
1293 -6299 0
-1960 -148 0
4954 3490 0
-3017 -2641 0
2535 683 0
-440 1603 0
-6512 -4747 0
-6280 -1657 0
5393 -3926 0
-1331 2433 0
-5929 -3975 0
-640 -3098 0
-5699 2910 0
341 4994 0
-4989 -85 0
-4606 -4658 0
-5530 -3461 0
3093 6361 0
4777 5855 0
-5423 379 0
4300 1600 0
-702 -2283 0
4727 4909 0
-2468 4456 0
-1022 3717 0
4556 5630 0
1142 -4396 0
1957 5272 0
6043 -3843 0
2704 -4230 0
641 -4679 0
4028 2563 0
-5410 -1757 0
2049 -5666 0
-3496 -6136 0
4571 949 0
-2816 2598 0
-839 -3421 0
5486 580 0
-4048 -3616 0
1494 -3783 0
5408 1795 0
3765 -4626 0
224 -4406 0
-2828 -535 0
6189 -3650 0
5587 -253 0
-2351 -2376 0
-5153 6353 0
4398 -3381 0
5894 -2498 0
-4971 54 0
494 2014 0
2862 -5861 0
1654 132 0
5661 3234 0
-4102 4145 0
4866 -5461 0
-3885 5475 0
5132 1287 0
-812 15 0
2819 -5611 0
5467 -6376 0
-1742 4339 0
-603 6203 0
-6072 18 0
5884 5833 0
3949 -3454 0
3335 9 0
1023 -4656 0
-5168 -1318 0
2986 -2481 0
765 -1557 0
-3082 -5555 0
-4913 1272 0
5504 2314 0
5511 2929 0
-342 3382 0
-6392 1594 0
3339 1915 0
2916 -6411 0
2502 5469 0
1569 -1541 0
4818 2458 0
968 1128 0
509 -3545 0
-1974 3189 0
3603 -4884 0
-4873 -2851 0
-4382 -2343 0
-2590 -5203 0
-2090 -5250 0
-770 6236 0
3534 -5657 0
1431 4791 0
-5378 1345 0
2416 1620 0
-5637 -3251 0
168 6310 0
2062 5097 0
-702 3916 0
-4790 5486 0
1943 -6073 0
3326 -3299 0
3173 6530 0
-841 -401 0
-1979 3795 0
2230 -6516 0
6149 3290 0
1136 -6495 0
2752 -403 0
-4870 -810 0
2027 -3871 0
-756 -3107 0
6180 2183 0
5201 -3019 0
-1372 -4659 0
-5571 2401 0
174 -1050 0
-2260 3970 0
5187 -1141 0
-6069 -171 0
2501 -5358 0
2717 -1387 0
-473 -2731 0
-5002 4177 0
1685 -4452 0
-4451 -2911 0
3889 2670 0
2999 642 0
-5070 -4884 0
5526 1551 0
4373 -3623 0
1426 5522 0
-906 -6293 0
3719 -2940 0
-1681 -5563 0
4157 -4401 0
1688 5933 0
3636 5320 0
35 3073 0
2616 1152 0
1726 -1514 0
-6543 5987 0
508 6463 0
922 -4359 0
-3840 -192 0
-5874 3643 0
-1321 -5978 0
3224 -2724 0
5170 -6392 0
-6228 -2981 0
2840 -4382 0
306 125 0
-5865 -4369 0
-3266 -1422 0
-3573 5956 0
4209 6354 0
-989 -4101 0
2541 -6301 0
-907 1655 0
-2274 -2114 0
4326 -2429 0
6352 -1259 0
4745 4489 0
-4278 -3432 0
-4562 5297 0
4112 5403 0
1974 -1102 0
-666 -2383 0
3929 5453 0
-605 524 0
3950 2805 0
4900 77 0
-3730 6324 0
2573 -6522 0
5805 -3185 0
1420 -4272 0
1872 1221 0
-1687 1615 0
5300 -3352 0
-3612 -3396 0
-4755 -845 0
3111 5715 0
5799 1614 0
1530 -4718 0
1705 3387 0
-3628 -2887 0
-1147 3798 0
1376 -3172 0
3681 4251 0
1047 -3851 0
-365 4868 0
-6187 -3696 0
-251 -3004 0
-2601 5751 0
3495 -3050 0
1074 5123 0
-4854 3260 0
-5909 1286 0
382 -4273 0
1167 -4526 0
-49 -6075 0
1764 -1230 0
3111 -5080 0
-2547 -1025 0
-2562 5691 0
1513 4694 0
4273 -417 0
-88 -3901 0
-1086 4211 0
3489 18 0
-73 499 0
2453 3917 0
-6135 5217 0
-2345 4433 0
-3806 -1344 0
1175 1139 0
-5816 918 0
4006 -6344 0
-1893 5148 0
795 3170 0
4140 -2398 0
-2187 610 0
-2187 2000 0
-2881 -2015 0
4546 -2443 0
4087 363 0
6300 610 0
3581 2519 0
2004 -2963 0
-4921 6291 0
-120 3819 0
696 478 0
-4739 5788 0
-4713 -5257 0
5288 -5033 0
-3452 1998 0
-2831 -2856 0
3857 1768 0
5 2926 0
1491 -1570 0
5302 2041 0
-5051 3419 0
-2448 3037 0
-3810 3357 0
-5214 6442 0
4268 329 0
6506 6304 0
5667 -23 0
-3974 5022 0
5030 -894 0
4594 6396 0
5768 4295 0
4087 2717 0
3346 -2671 0
2137 6316 0
1165 -111 0
-1352 1432 0
4144 3647 0
4855 2296 0
-5189 -2204 0
2328 4981 0
2550 6034 0
3900 -5267 0
-5003 5721 0
-5525 5921 0
4077 -2157 0
773 -1210 0
149 -1901 0
-3863 -456 0
1687 5766 0
338 470 0
3829 902 0
-3221 -3952 0
-3749 -3738 0
4295 4602 0
-414 1632 0
-930 -1382 0
-2563 -3995 0
-2877 2881 0
62 -3266 0
840 2503 0
-3113 6029 0
-562 5849 0
4641 -85 0
721 428 0
5735 -2547 0
1110 182 0
-1044 -6169 0
-1543 -3836 0
-1250 -39 0
1747 -4732 0
3717 3901 0
1867 -5380 0
1542 -1156 0
281 5573 0
824 725 0
2789 5171 0
1335 2078 0
-2524 -6519 0
-2201 -1372 0
1172 -3982 0
-4625 -3619 0
2709 3684 0
-4923 3090 0
-6412 3462 0
-523 -426 0
-1091 5941 0
6538 -62 0
18 -1795 0
2627 -57 0
-2129 631 0
-2785 -1925 0
3568 5517 0
-2253 5842 0
1554 1122 0
-2 -3533 0
-1168 -5562 0
1239 -936 0
5878 -759 0
-4153 2406 0
-6519 -798 0
4485 -1469 0
-1867 182 0
1083 -244 0
5761 -3583 0
3585 1337 0
-1933 3215 0
5458 3911 0
-2987 4526 0
-2849 -6094 0
4524 -6467 0
1508 -488 0
-1834 -2636 0
1717 77 0
2712 5943 0
-2888 4317 0
193 4337 0
2748 -1359 0
-2463 -3680 0
-963 5014 0
284 1398 0
758 1790 0
2809 -696 0
3271 1244 0
-2671 -2317 0
-5751 3144 0
-2402 5489 0
2737 -1786 0
-2760 1095 0
-6121 5315 0
-1182 3207 0
-5449 -5374 0
1523 3199 0
-4454 2873 0
-5807 818 0
-3185 3439 0
-4455 5475 0
4330 6399 0
2779 6220 0
-5798 -3480 0
-2724 4339 0
-5777 5277 0
6201 -980 0
2366 -2015 0
3612 -5139 0
4225 5105 0
663 3957 0
2432 1762 0
-2019 4578 0
3784 2954 0
-3947 1566 0
1537 5658 0
4609 5710 0
-5814 -5388 0
-731 -4502 0
-1599 -3984 0
5423 4554 0
-6389 -3276 0
1580 -4839 0
-5423 -89 0
-107 4379 0
-1051 4478 0
5316 -891 0
-2324 -6378 0
-3763 599 0
-3724 -88 0
-4062 6014 0
3218 -1220 0
-4377 -5797 0
5527 161 0
-4708 -3849 0
-6069 6235 0
2369 3569 0
-2923 -240 0
4070 4269 0
5452 -1931 0
1677 -1361 0
-6172 3449 0
-4397 -4739 0
-2477 -3782 0
3007 261 0
610 5821 0
4992 6319 0
5015 -6133 0
-2622 -5448 0
-2489 4045 0
1014 2934 0
-4139 5287 0
-2320 3944 0
1429 3280 0
580 4693 0
-1495 -4669 0
807 4182 0
-3597 -4380 0
518 4752 0
2040 4477 0
-2450 4943 0
-1940 3777 0
126 -3703 0
-907 -2515 0
5358 6062 0
2393 -4085 0
-217 -5572 0
-6296 -318 0
-2894 -1024 0
4594 1408 0
4144 3032 0
-3211 5264 0
1594 1100 0
-1241 2471 0
-244 -1872 0
-1590 -5951 0
-105 1464 0
2617 -588 0
816 -3257 0
-4166 -1495 0
-862 -4857 0
5750 3709 0
5294 -273 0
-676 -718 0
4333 -992 0
5034 28 0
-5458 -5414 0
416 -2107 0
-3496 -985 0
5912 2299 0
-5703 -6456 0
-2099 -854 0
6212 -372 0
4523 -418 0
2607 -5687 0
5496 5464 0
1586 -1446 0
-5612 5530 0
180 -5422 0
2009 539 0
2066 2353 0
-6381 4005 0
-6303 4470 0
-3070 3329 0
5024 -403 0
5740 -241 0
-2496 -613 0
6222 -5748 0
380 3488 0
2013 624 0
-5697 -64 0
-5622 -2764 0
-4898 3613 0
-4428 724 0
6355 6323 0
4494 -310 0
-4790 -5758 0
-2515 -3385 0
-20 -6280 0
-3978 6320 0
-4481 5309 0
5610 -5905 0
1792 -4949 0
-1323 1773 0
-5956 2574 0
-2108 -2924 0
6309 -4684 0
-1247 1451 0
-368 2797 0
2322 -5260 0
-344 4465 0
-4871 4028 0
6079 5766 0
-3674 -2949 0
3292 2303 0
2682 1898 0
-3738 6179 0
-5583 -5498 0
-5777 3388 0
-3584 -4386 0
-2306 1432 0
144 3700 0
-1354 2211 0
1621 1221 0
-2292 -1094 0
-94 -6215 0
-5055 -326 0
5227 1562 0
-2095 -3617 0
1653 -2137 0
6027 -4472 0
-4054 -3381 0
1416 -3361 0
2040 -913 0
1536 1553 0
2841 5320 0
3105 2414 0
-2823 691 0
3254 2891 0
6204 3823 0
-1495 3889 0
-3168 -2444 0
-2422 6257 0
3188 -4965 0
485 -5160 0
-4111 5651 0
2222 -3463 0
6471 3798 0
-5592 3209 0
-417 1986 0
3409 5103 0
3882 465 0
-5134 4441 0
689 2114 0
-2747 -3920 0
5123 4274 0
2553 -3041 0
2039 3022 0
-2521 3781 0
4120 -6470 0
-1013 -2276 0
5094 2557 0
6163 4606 0
3981 -6030 0
-1465 -1273 0
4665 -2290 0
-5127 -5225 0
6520 3172 0
-4391 125 0
-5052 -4669 0
3192 -2514 0
-2113 -463 0
-5366 -4922 0
2257 2242 0
-3597 -683 0
-3080 -914 0
2651 3427 0
-2093 2265 0
3923 -246 0
3692 4978 0
4595 -3184 0
5801 950 0
-6062 -4310 0
16 -2358 0
-5003 -263 0
141 -2477 0
-2800 -6288 0
-5521 1596 0
-2392 -2900 0
-1626 -4270 0
2639 4482 0
3899 5222 0
-171 -2942 0
-2929 4449 0
-5474 3494 0
3494 2166 0
-1819 -5240 0
5409 -3510 0
3613 -47 0
1053 -1301 0
4390 -5675 0
-2520 -4357 0
-4727 -84 0
5975 -6040 0
4559 -5624 0
-2029 552 0
575 -3930 0
-5227 -894 0
1585 2792 0
2062 5880 0
22 -3155 0
1656 -6468 0
-4247 -1132 0
35 -5533 0
113 5502 0
-454 1382 0
5941 -6338 0
1096 6281 0
-5940 -2213 0
3020 4818 0
-4744 2995 0
2808 5982 0
3929 1609 0
1496 -3714 0
1153 -3751 0
-5607 -3993 0
691 -2653 0
4415 5523 0
925 1761 0
937 5969 0
-65 995 0
-4216 -2583 0
79 3867 0
6100 -5291 0
3302 4363 0
167 3877 0
6207 23 0
1557 3610 0
-34 -199 0
-771 1921 0
1656 4163 0
-2175 -4817 0
2694 -998 0
-1766 -1649 0
4752 373 0
-3732 3323 0
-2852 -1832 0
-2529 3452 0
5803 -6467 0
-1377 -2503 0
-2483 -1101 0
-4708 -3806 0
-3558 156 0
-1963 -2267 0
-40 -5921 0
1517 -3261 0
2632 355 0
-626 -6160 0
756 -3706 0
-1739 -6521 0
-6053 -5898 0
589 -1880 0
2003 -4085 0
3075 -5381 0
2326 2658 0
3681 2495 0
-980 341 0
197 3652 0
2139 5648 0
473 -4868 0
-800 -2893 0
-5204 6220 0
4196 -1106 0
6183 -2326 0
-1343 -5725 0
3068 -785 0
5434 -2682 0
-4462 3421 0
-5284 6115 0
62 6074 0
-54 -1188 0
334 -6545 0
-5446 3926 0
-3455 689 0
3776 -4417 0
-22 -5621 0
-5716 -3751 0
4771 5654 0
-1566 -3883 0
5346 -2085 0
-6452 -387 0
-2168 4126 0
6430 -2576 0
828 -6179 0
5891 -5934 0
516 4788 0
-4737 5085 0
2603 1285 0
-52 -4813 0
176 5827 0
2106 2570 0
4352 604 0
-6275 6360 0
4856 -1056 0
2962 803 0
4219 549 0
2828 3971 0
-783 1967 0
2745 -6006 0
4764 -2337 0
4521 -507 0
-394 1266 0
-2451 -4718 0
4886 -1091 0
-1056 -6157 0
4955 1877 0
6272 -4005 0
-6260 2594 0
-3633 4878 0
5113 -5449 0
-324 -4912 0
-264 3260 0
995 -117 0
-341 5176 0
-298 -925 0
-2607 -1054 0
3398 5151 0
-5119 -130 0
-2879 -1369 0
1768 2008 0
5432 -6335 0
-6367 5341 0
-1501 194 0
5872 1023 0
1831 -191 0
-5516 315 0
1208 4907 0
5125 -2326 0
-5732 4094 0
-5319 -2576 0
-5766 -1932 0
-2485 4869 0
3354 3469 0
-2876 -5046 0
3961 -2839 0
1537 -5011 0
-4523 3148 0
6508 -4913 0
746 830 0
-2971 -2025 0
110 -2690 0
825 -3155 0
-3304 2193 0
5016 2426 0
-2118 346 0
4558 -1218 0
3642 -2837 0
-1309 1728 0
-1321 -865 0
-1600 2861 0
4550 -5069 0
-5931 802 0
3600 -5298 0
2072 3282 0
4321 -1010 0
3734 3171 0
5041 4529 0
4925 -1589 0
6284 -5131 0
-6090 1243 0
4595 1330 0
3478 2865 0
3037 1428 0
3705 3777 0
3082 -5248 0
1767 -2201 0
4751 816 0
-6248 2725 0
3961 382 0
-2782 5409 0
-6021 -4155 0
5978 3422 0
4735 6122 0
2330 -5420 0
4763 156 0
-2883 2268 0
-1369 -264 0
2451 -562 0
3428 -6508 0
4846 -5703 0
2660 -5883 0
-1566 5232 0
-5608 -4694 0
2709 2887 0
2965 2922 0
-3574 2783 0
1621 -6133 0
4656 -1584 0
4125 -527 0
575 -1814 0
3350 -945 0
-3416 1966 0
-3346 3263 0
4773 5955 0
-5381 -2103 0
1710 -4238 0
-6248 4800 0
2632 5801 0
5878 -3783 0
-2456 -2751 0
-6165 -3247 0
-4280 5151 0
1096 5216 0
-107 3099 0
-6168 3521 0
-5179 -711 0
-139 -5773 0
819 115 0
-6098 1187 0
-5312 -1380 0
-2326 2219 0
3542 5159 0
5207 -2496 0
540 -5844 0
-6464 -2958 0
4637 -5482 0
43 5676 0
1452 -4884 0
-1138 -961 0
1763 3585 0
2880 5864 0
2116 1023 0
3156 -4310 0
-4721 4706 0
-347 1895 0
5775 -1017 0
-299 -1589 0
5519 -1584 0
-6100 5038 0
999 6080 0
-5618 -251 0
-2487 5497 0
723 -4429 0
-3898 -1108 0
3268 4810 0
4070 -2826 0
5811 -4808 0
5966 2004 0
4053 6108 0
4468 3856 0
-295 -1138 0
-4823 -6312 0
-512 -5788 0
5590 5923 0
-1350 -5447 0
-645 -6406 0
2110 3370 0
453 4483 0
-3571 -3417 0
5245 -5454 0
844 -1022 0
-5853 2965 0
-4154 -405 0
-605 -1958 0
5407 339 0
-6211 5752 0
-2646 -3577 0
-2117 6311 0
-5291 4513 0
-1813 -1571 0
-6473 4948 0
6145 5575 0
-4191 4164 0
5835 4750 0
-3032 5993 0
-3179 -6104 0
3680 4715 0
5351 3966 0
610 4478 0
-2124 170 0
-330 -5095 0
-185 -1659 0
3147 2537 0
4579 3243 0
-5152 5300 0
-717 -4971 0
-4560 -6061 0
-4259 -2291 0
-4708 3855 0
-2631 1915 0
4767 6141 0
-1644 -4779 0
4063 2062 0
-5428 -1227 0
-5389 -2828 0
2511 236 0
-5118 -797 0
-5309 6200 0
1520 -3413 0
4497 -2585 0
68 -1997 0
4819 -6226 0
-5599 -3236 0
2710 -3919 0
-2228 856 0
171 521 0
-268 766 0
511 -2726 0
4470 406 0
375 528 0
-1812 -5949 0
-4528 5213 0
2353 4154 0
3570 6422 0
972 3525 0
4443 936 0
-2257 3477 0
1337 -1433 0
-3987 -4475 0
-5626 -2950 0
-4937 2490 0
-1689 -2466 0
1815 6035 0
4798 -1566 0
3555 2542 0
-5546 2389 0
-105 1820 0
-741 4636 0
-6245 -4270 0
-924 -1124 0
1551 -654 0
2521 6117 0
184 5740 0
-430 3529 0
2946 1821 0
1337 -3223 0
4149 240 0
-3857 -6055 0
5486 6233 0
-6184 1606 0
2729 -1963 0
338 -1778 0
-2517 5886 0
-493 -1220 0
5566 -4021 0
1549 3652 0
4868 -2247 0
-3460 2839 0
-1110 527 0
-1783 3508 0
-994 6144 0
-6005 3099 0
-1885 103 0
6348 -3880 0
-3331 -5509 0
1667 2132 0
-2873 2922 0
6246 4416 0
-2390 -4504 0
-5533 2565 0
-6043 4710 0
-5587 2881 0
2723 5306 0
-4805 5055 0
3262 -35 0
6512 3429 0
-4109 -5710 0
-544 -3842 0
-259 1457 0
-3221 -497 0
5339 3912 0
-1487 -1554 0
4822 4070 0
-1155 5148 0
2610 59 0
-488 3364 0
3010 -4031 0
5347 -2992 0
-1060 -2751 0
539 -3575 0
3753 3005 0
279 -5054 0
-5484 2618 0
-768 -1353 0
-4399 -1579 0
-72 6256 0
1453 -2422 0
2495 -6494 0
178 -5457 0
2846 2857 0
1417 -2810 0
-5116 -3281 0
2657 1735 0
4492 -5057 0
1069 6022 0
-574 4920 0
3145 -1987 0
3901 347 0
1163 621 0
-4566 168 0
4656 -3300 0
-5259 617 0
2633 -5842 0
-4475 338 0
4071 3309 0
5751 5386 0
-2747 1492 0
1692 126 0
1863 -3419 0
-1903 596 0
-5952 3690 0
-4099 2494 0
-3561 574 0
6472 -2098 0
1022 -5472 0
-2878 3480 0
-4911 -5964 0
-4220 -1661 0
4899 -4942 0
-2546 -6181 0
2047 2498 0
-4004 -6545 0
1934 -5177 0
3449 -1104 0
-3206 -4670 0
604 5591 0
-4890 1212 0
-1470 -5791 0
-1006 1736 0
-879 -3081 0
1993 3902 0
-5659 -6434 0
-2754 -1982 0
-2868 -5413 0
-694 -1057 0
784 5357 0
3033 -2836 0
3650 -794 0
-4368 -1860 0
825 3186 0
-667 2023 0
-2641 -4545 0
1697 -4335 0
4379 -5367 0
-1039 -5689 0
5521 4716 0
625 -2652 0
-3423 -5116 0
-4805 -5084 0
-6037 4618 0
1802 6315 0
-3821 -558 0
2945 -3638 0
3289 4232 0
3264 1754 0
-1760 4011 0
4483 104 0
4530 2202 0
-3178 837 0
2277 -2832 0
6081 -6319 0
3442 -4436 0
-5936 3757 0
6401 506 0
-558 4955 0
4597 -5291 0
4348 -1308 0
472 -6044 0
929 3738 0
3594 -3377 0
-6164 5087 0
1596 -2683 0
6419 -1419 0
-4691 -1909 0
73 -549 0
-4988 -1033 0
-2872 -947 0
-3501 -6515 0
-3547 -3249 0
2391 839 0
5651 2189 0
-2802 3317 0
-4267 4042 0
-6128 6245 0
4485 -4748 0
-1642 1010 0
6323 5812 0
-669 911 0
3747 6280 0
-1915 5764 0
2198 4974 0
-5062 2653 0
-909 5839 0
-3553 1494 0
-5249 2872 0
-2630 -3348 0
-2422 1035 0
3484 332 0
-2267 -1700 0
1314 4845 0
-5501 -3350 0
4130 2881 0
-6292 -265 0
3195 -3184 0
-644 -379 0
-2794 -4937 0
-5520 -2372 0
5558 -2110 0
1085 5639 0
-2076 -626 0
1194 2788 0
834 -4630 0
6248 -2746 0
-4617 5635 0
670 1390 0
-955 600 0
1264 1291 0
-2695 2487 0
-6050 -3266 0
395 -6498 0
1559 -22 0
-4987 5641 0
1701 5873 0
-1555 -2640 0
1627 -2260 0
688 4871 0
6451 5832 0
6214 1307 0
5098 -4721 0
-222 -1700 0
-960 344 0
-2786 -5073 0
2187 -3356 0
5579 1941 0
2190 -6433 0
6080 1502 0
-250 -5358 0
506 4976 0
2249 -1977 0
1178 -6051 0
-1822 5294 0
3956 -1459 0
-3763 2151 0
-3412 6523 0
-6363 4512 0
5346 177 0
3844 -1113 0
-3572 224 0
-2686 2908 0
-6404 3538 0
4418 5469 0
3145 538 0
6126 4192 0
-57 604 0
-2695 4151 0
-1597 -1268 0
-3978 2399 0
-5301 3660 0
1261 2983 0
-5644 1185 0
-2273 232 0
162 -3169 0
-4581 1390 0
1372 3030 0
2017 -1275 0
-2576 -2959 0
1638 -912 0
2872 -1732 0
5187 5050 0
2066 -2523 0
3366 -969 0
5816 3315 0
-5389 -4462 0
829 -2042 0
3486 -2683 0
-2251 -1832 0
1975 5745 0
1615 3913 0
4405 -992 0
-3371 207 0
5930 4648 0
-5462 -1237 0
4830 -4179 0
-96 -5210 0
-1739 5664 0
4141 -34 0
4301 708 0
-4688 -5267 0
-93 -2539 0
-589 6223 0
-1244 4446 0
-5153 -2117 0
6532 -4606 0
624 -1162 0
5187 3219 0
-6356 2995 0
-1715 6254 0
-4068 3809 0
-5440 -4399 0
-4307 5214 0
538 4485 0
-3117 5135 0
1187 -1070 0
-5507 2417 0
-953 3477 0
-3930 -1014 0
-5343 470 0
3102 -3426 0
-5258 1269 0
43 -2441 0
997 -3864 0
443 -2635 0
-2996 -171 0
-797 -6077 0
2575 4724 0
-4641 -263 0
1249 -116 0
6447 6082 0
-275 -5829 0
-4636 303 0
6137 5012 0
-1766 -1084 0
-5353 -4377 0
2965 -4423 0
-5483 -1999 0
5417 1389 0
588 2179 0
1062 6331 0
228 -6110 0
5688 6177 0
570 -1235 0
-5896 1365 0
-3353 4199 0
4663 -6451 0
3230 -3482 0
6539 -1261 0
-4080 5812 0
-899 -319 0
1241 6489 0
5765 4265 0
-4651 -446 0
-752 -4853 0
1979 6507 0
-1632 2208 0
3027 1981 0
-437 1085 0
5626 -1158 0
5230 -2074 0
-3824 5827 0
5939 -1791 0
3809 3442 0
-253 -1104 0
1866 6383 0
3251 351 0
5303 -5160 0
4026 -4236 0
1518 2549 0
-5286 -263 0
-5076 -5492 0
1818 -5369 0
2353 -10 0
3988 -336 0
-3013 1088 0
-2304 -3815 0
-3108 3688 0
909 3096 0
3483 4326 0
2904 6363 0
-2685 -673 0
-5893 -613 0
-4704 2009 0
-2932 -1437 0
-695 -3545 0
3322 -1959 0
-2905 -3526 0
5481 5366 0
-2573 -1980 0
2936 -1362 0
-3790 -5853 0
-2933 -5333 0
4683 5551 0
4151 -2898 0
640 592 0
4380 4662 0
436 -1665 0
-386 -5952 0
4874 -3666 0
1866 5724 0
3434 4666 0
2505 5518 0
-1933 -3528 0
-3035 3486 0
-1740 2245 0
-2149 -1476 0
4680 -2894 0
-1073 -5967 0
3704 -320 0
3403 -6408 0
6062 1614 0
-2764 -881 0
5761 3152 0
-4862 -1873 0
5256 -3892 0
-3702 -3194 0
3206 -5583 0
3724 6058 0
4620 -4467 0
-91 443 0
2216 1600 0
-2070 -2462 0
654 -5526 0
4719 3833 0
6313 -6407 0
2301 -6537 0
6054 -1599 0
-5269 1388 0
31 3020 0
1474 -856 0
-4711 -4304 0
3854 2743 0
4905 -4285 0
4773 1802 0
5751 -3861 0
5775 -454 0
-3036 4687 0
542 -543 0
-5955 6323 0
-3446 -1043 0
-1064 -1227 0
4150 -2164 0
278 -2458 0
6405 -5737 0
3769 3670 0
-5820 1419 0
5050 -2174 0
-1086 -5348 0
-889 -1382 0
5435 -2602 0
-1591 4648 0
-759 2667 0
2454 -141 0
-6275 -4378 0
2071 3218 0
5473 -6086 0
2618 -1872 0
1241 3861 0
2891 -1783 0
6367 1780 0
-2165 955 0
1969 -372 0
1204 -95 0
-6475 3843 0
-5035 -2772 0
-1873 -3701 0
-5997 -1363 0
-6354 1983 0
5184 1170 0
2395 3754 0
-5179 -1472 0
-1228 1206 0
-137 -4894 0
1637 4635 0
-2782 -4271 0
3846 -3280 0
4045 6240 0
-4255 -2677 0
2121 2330 0
607 -2068 0
2853 3842 0
-3429 6520 0
-1212 -4417 0
-5805 923 0
409 -2501 0
1676 4479 0
4792 56 0
5591 3956 0
5761 -6267 0
2730 -2541 0
2609 -6451 0
6212 4952 0
-1412 -2585 0
716 3447 0
5679 5344 0
3755 -6505 0
-3510 4702 0
-2124 -3016 0
6210 4381 0
1997 1600 0
3622 123 0
-3794 1999 0
-1527 -1359 0
-5872 -3718 0
-6518 1252 0
-3394 765 0
6145 -4780 0
-2978 23 0
-509 4333 0
-2558 4005 0
-811 -6016 0
-4050 -2560 0
-5541 3427 0
3935 -4759 0
3151 -944 0
-650 4900 0
-1077 3175 0
3741 -2905 0
5524 6409 0
4226 5804 0
-4073 -3901 0
4366 56 0
-4659 1631 0
1045 5152 0
3196 -4753 0
5381 -4041 0
5601 6453 0
1817 -6541 0
1885 -1565 0
2742 5746 0
2607 3097 0
5853 -492 0
309 -5529 0
2029 1071 0
-2341 3077 0
-5964 -111 0
-1652 6108 0
2093 161 0
2183 -4680 0
-1861 5781 0
199 -3235 0
3239 3751 0
-2458 4681 0
-5033 -4438 0
617 5162 0
-2966 -387 0
-947 4456 0
4010 -663 0
-3775 -4322 0
-2617 3661 0
4821 4469 0
-785 -3725 0
5862 -6009 0
1831 -5608 0
-6443 -5735 0
-3333 1264 0
-2268 3720 0
4251 -2298 0
-5865 -6110 0
-2118 3111 0
-2076 -5184 0
-3102 5180 0
-4587 838 0
-2921 -4209 0
-5826 -1101 0
6115 -992 0
3870 -3116 0
5389 -6116 0
-4636 -1275 0
707 -911 0
-956 2532 0
-4034 -1318 0
2408 -3277 0
-5567 -5137 0
5574 -5372 0
-4305 3071 0
-2921 1322 0
3247 -6539 0
4963 -1264 0
5149 5743 0
-1138 -237 0
-5332 776 0
854 -1583 0
-1427 -5002 0
-3709 -2504 0
4792 3928 0
2319 5293 0
-1589 -2591 0
-466 5996 0
-5681 3248 0
-5972 -3483 0
867 123 0
3690 -5200 0
-4809 852 0
3519 1954 0
4536 3048 0
3601 2623 0
-3431 6022 0
-4466 -6345 0
-3651 3592 0
-2966 -4016 0
4891 3530 0
-3403 -5937 0
868 4778 0
13 5306 0
-3011 6010 0
4947 1257 0
5344 2272 0
3440 -6033 0
4105 537 0
-6312 5461 0
193 -3319 0
-5165 3390 0
-5771 5937 0
2398 -695 0
-5530 3662 0
-3323 2835 0
3228 5715 0
-5834 3470 0
2088 -2974 0
-5492 -942 0
-1617 -2683 0
-3706 -1078 0
-479 3041 0
341 5341 0
3800 -4915 0
-527 5077 0
4040 -3479 0
4759 -4501 0
-1234 -544 0
516 1755 0
6162 2623 0
-2048 -1035 0
3463 663 0
-3685 691 0
1192 3241 0
-1922 2401 0
698 -5334 0
-5684 3320 0
-5897 -5680 0
5586 -2051 0
-39 -6061 0
-6445 -1758 0
5750 -5129 0
5968 1555 0
3891 -486 0
2060 -641 0
-6068 -5420 0
6017 -700 0
-2854 4135 0
-137 1206 0
2645 3862 0
3483 4789 0
2208 5793 0
-5419 -5405 0
14 -4788 0
-2533 -1179 0
2086 -4799 0
-4327 580 0
-1584 435 0
5690 -2558 0
599 -2199 0
-1515 1831 0
6202 -4410 0
-5791 1992 0
5814 4968 0
-6446 3569 0
-4594 3199 0
-3987 -2978 0
-5539 -1706 0
-2984 1144 0
2691 5945 0
5401 2962 0
-696 -993 0
-3353 -732 0
-1599 4675 0
670 632 0
2461 -4826 0
462 1206 0
41 -5605 0
-4453 465 0
6468 -4805 0
-1339 2804 0
1903 -253 0
-3114 191 0
2820 -4911 0
6507 -4272 0
2106 -866 0
-217 -5966 0
3295 -307 0
-3974 6426 0
4524 4370 0
-1338 -5164 0
-5488 -578 0
4009 4486 0
4451 -3388 0
-4312 3984 0
-956 -4250 0
-4328 5216 0
-3724 -1805 0
3641 -1289 0
3472 892 0
-2389 -61 0
-6315 2643 0
937 -3462 0
123 3811 0
2542 -5774 0
355 1762 0
5252 -1756 0
-4076 -6087 0
1971 -5092 0
-2543 -3018 0
-457 -163 0
-2244 3366 0
4132 1234 0
2926 6401 0
-394 2926 0
-3788 -2574 0
-3245 -654 0
-794 754 0
-4749 3649 0
2975 -4970 0
6171 -5726 0
186 -5473 0
2619 4908 0
834 3915 0
3408 -5220 0
-2300 1484 0
2438 1406 0
5368 -1737 0
2664 -3908 0
5681 -4193 0
-4044 -5140 0
145 -4557 0
2896 5481 0
-705 5344 0
947 -6481 0
1829 -3593 0
-6231 6059 0
-5608 -2633 0
-2295 5938 0
6023 2111 0
-2856 5965 0
2443 -3334 0
4452 -3127 0
1691 704 0
-1400 6100 0
-6320 4521 0
6236 -4751 0
2886 -3934 0
-308 1662 0
1282 1184 0
3780 -821 0
-5563 -1867 0
846 -1028 0
-2473 4905 0
1131 2269 0
-6417 -5004 0
-1857 -2567 0
-963 -5764 0
3938 -2822 0
-6293 2451 0
2621 -1820 0
-5472 -1840 0
2465 -6371 0
1603 4773 0
464 3202 0
1485 1744 0
-819 -4076 0
-1578 2830 0
-6300 -3038 0
-5680 -2326 0
472 -2863 0
1015 3321 0
2666 4526 0
2489 -5643 0
-4339 -1747 0
6012 4796 0
-1267 -6431 0
-5112 -6164 0
-2321 -4568 0
1152 -1802 0
375 2235 0
-6343 3570 0
-300 -549 0
1081 -4108 0
-1855 -2784 0
3598 2694 0
-6453 -1751 0
-3042 -4071 0
-2609 -5816 0
18 4373 0
-6260 -2105 0
2937 110 0
3865 -2191 0
-5617 4611 0
5898 2493 0
2974 77 0
-5457 2104 0
-464 6009 0
6170 -6265 0
-4832 -5433 0
-5635 -4192 0
-3561 6495 0
-1577 3022 0
-4284 2194 0
-722 -3463 0
-6514 -437 0
3223 -5133 0
3642 1210 0
5911 -3792 0
-3316 4187 0
215 -794 0
-2378 4144 0
6166 3926 0
-163 -4649 0
-2746 -2512 0
-1021 600 0
-6071 5334 0
-885 4698 0
5280 -1016 0
779 5996 0
4095 398 0
-1500 -5915 0
2490 -3035 0
123 283 0
-770 -2224 0
5477 -3245 0
4475 -3604 0
153 -4854 0
-318 -1217 0
-2109 1183 0
5945 2696 0
-5181 -5944 0
-1588 -5333 0
5029 -6169 0
1815 2269 0
-3134 1127 0
-458 -5922 0
4948 6526 0
5294 -4907 0
2507 -2254 0
-3561 2233 0
6002 692 0
-2966 -653 0
6052 -5716 0
5782 -4218 0
-1996 -6468 0
2842 -2625 0
-1650 -5034 0
5272 -582 0
-6169 1466 0
1329 -5244 0
3509 1424 0
-1732 -5674 0
-6469 -3793 0
-743 -3595 0
4471 2958 0
3162 -3714 0
-6516 5702 0
-6178 -4108 0
-30 -4636 0
-2458 -4089 0
-5445 -1644 0
4964 -2150 0
-4918 1752 0
920 -576 0
-3234 -5534 0
-3435 5667 0
2180 -5106 0
-6042 591 0
-3209 -3154 0
4010 3699 0
4565 -5854 0
698 5225 0
3263 3963 0
-5479 1506 0
1482 -201 0
4024 -742 0
2092 4434 0
-1897 1254 0
-322 -1435 0
1747 -4220 0
-2458 4230 0
1606 -4066 0
-6063 -195 0
3854 4257 0
-3777 4608 0
-2949 442 0
2064 4546 0
3229 -1935 0
5167 -440 0
-6045 5437 0
6377 -4606 0
2981 323 0
5484 -4758 0
5575 766 0
-4257 4331 0
-1871 -4983 0
6068 -4872 0
732 1959 0
-3323 3287 0
-1804 -795 0
1032 6500 0
4914 -2695 0
-1286 1383 0
-1693 -5997 0
2696 -2327 0
-1736 -5388 0
3110 -1766 0
3983 -4230 0
2637 2706 0
-1464 3525 0
3587 543 0
1616 1214 0
2870 -3429 0
-2576 -384 0
5776 703 0
-4311 -1371 0
-1203 5538 0
1625 -4627 0
4607 -788 0
313 -8 0
2912 -5912 0
-571 -875 0
-3310 -1717 0
-1182 -5690 0
2752 -3656 0
-2448 1044 0
3413 3662 0
5227 4926 0
2483 2457 0
2647 398 0
-1116 -5680 0
4728 1630 0
-2765 -95 0
5637 3856 0
-1220 -3335 0
-3158 3338 0
-5681 -5768 0
2789 5273 0
909 -1457 0
5849 2331 0
2914 665 0
-172 2108 0
-1503 3343 0
-2542 3507 0
-5888 -4957 0
4510 2940 0
-806 -4828 0
-3381 -2581 0
-2438 -2259 0
798 4304 0
-3558 -1633 0
-297 661 0
4348 -2239 0
-5126 2207 0
-1604 -1433 0
-1747 -1771 0
4450 2514 0
2556 6173 0
2253 -4308 0
6280 2454 0
6472 -262 0
-5311 4311 0
2145 6412 0
-1156 -2523 0
4398 -3110 0
954 3198 0
5981 -2255 0
-6147 -674 0
1810 -432 0
-4587 5804 0
-5149 1716 0
1888 944 0
-1931 -6046 0
-6374 3905 0
-6198 320 0
5499 -5693 0
-2692 4143 0
-6212 3700 0
1704 3407 0
-4547 5810 0
4670 -3397 0
2894 4593 0
-2523 -3568 0
393 6295 0
-2885 -557 0
3151 3544 0
-6409 -3250 0
-6032 -4567 0
-6066 -729 0
4454 -5521 0
806 5395 0
-4806 -2933 0
504 -1614 0
4240 -498 0
-4495 6093 0
-5502 -3041 0
-5090 -5568 0
-5753 5905 0
2642 1327 0
1314 -1576 0
-1879 -6525 0
-5854 4245 0
6162 -3813 0
-6037 -4364 0
-1902 535 0
-247 5365 0
-1399 -509 0
6436 3308 0
-6214 2684 0
-3862 6384 0
-870 4677 0
-700 -4732 0
3429 6144 0
240 1899 0
827 -5917 0
-6211 120 0
395 1492 0
-1554 6072 0
-6441 4337 0
1654 -2507 0
-1701 -6516 0
6401 -3787 0
-5554 -5545 0
-1491 4564 0
-3043 575 0
-5348 3396 0
2808 1537 0
6445 -3886 0
6122 2574 0
6237 -4049 0
-5409 -2921 0
1849 1411 0
-6347 -3416 0
-6440 4966 0
702 -4691 0
-4926 -4788 0
2012 5020 0
5201 -2617 0
-2970 3137 0
5731 636 0
-1511 1060 0
-4450 -1827 0
-4181 -6181 0
-5547 -5035 0
-4536 -4195 0
-2697 4375 0
-2578 -6351 0
4299 777 0
3392 2990 0
1423 -3160 0
-2150 -6321 0
825 -3476 0
-648 -3687 0
-2213 -5862 0
2195 -3235 0
899 2397 0
-1893 -4668 0
-4334 -4025 0
516 1998 0
-1827 -5881 0
-5004 -6148 0
-429 6333 0
4795 -6236 0
1811 -5500 0
2414 -258 0
-1980 -6391 0
-2785 -5210 0
4827 -4678 0
-6522 -797 0
-4650 -5987 0
5226 2762 0
-5158 327 0
634 -4933 0
-2290 1871 0
5643 4021 0
1826 2194 0
3691 -1056 0
-3571 -3549 0
4419 -1721 0
49 -4781 0
-2026 1940 0
3874 2299 0
2913 4430 0
3681 3096 0
-605 2321 0
4841 -4841 0
6006 6489 0
-4198 -3735 0
2430 6313 0
-3710 3134 0
-2980 -4114 0
-1359 2065 0
-1106 3701 0
-5930 4024 0
2925 -2857 0
-2535 2073 0
4224 4594 0
-6534 4699 0
-142 -4097 0
-1725 5513 0
-527 1906 0
-6524 -2599 0
-2361 -2381 0
-5410 -602 0
5809 -2045 0
2142 5237 0
1601 3701 0
-5385 4390 0
4528 637 0
4275 2908 0
-5243 -237 0
-3982 5000 0
-2025 2650 0
-3190 -3045 0
4079 -6305 0
1106 3876 0
2600 1687 0
-6282 5904 0
-6107 -3260 0
-650 4218 0
1687 -3095 0
-4409 2970 0
6395 -3787 0
-3958 790 0
6080 -6011 0
-6371 -4324 0
5355 3063 0
4600 -4632 0
4763 -2645 0
5825 665 0
834 -6445 0
-5149 -4071 0
3005 2312 0
1630 5248 0
-6181 -3165 0
-2862 4303 0
3351 -1310 0
-151 1093 0
-2545 6515 0
-633 -582 0
-4400 -4399 0
1517 5229 0
2742 -1678 0
4351 6458 0
-3528 -5493 0
-5226 -3775 0
1877 -5211 0
2915 -3111 0
-3303 268 0
-4253 -6046 0
-442 -4922 0
895 -3378 0
1906 5056 0
-6535 -6533 0
201 -5615 0
6179 1269 0
-734 79 0
-1182 3043 0
659 3230 0
-806 -3237 0
-5662 6463 0
3382 -1850 0
3158 -3536 0
-5265 -282 0
-3024 -2048 0
-450 -2638 0
-3458 5059 0
-2337 -1497 0
-2668 -2837 0
-590 3167 0
691 -6060 0
1468 1032 0
1184 3220 0
6212 6028 0
-4080 4810 0
4972 -5976 0
2544 -272 0
5403 -5203 0
-4492 4553 0
-1331 -4119 0
1006 2314 0
-3758 -3586 0
-4608 6236 0
6275 -4695 0
-6362 3725 0
489 -3995 0
-4655 5672 0
-3075 1216 0
-5759 3489 0
-5523 -6021 0
-1153 -3092 0
5261 3163 0
5448 3043 0
4138 4090 0
-5860 -2579 0
6479 -536 0
-3880 2664 0
4887 2021 0
-2640 -5502 0
5281 -1200 0
-333 -5088 0
-6277 -95 0
-2067 5043 0
5308 -5691 0
6086 473 0
863 -6446 0
690 6170 0
5709 1831 0
-5254 -6482 0
514 530 0
1816 5314 0
4464 -4456 0
-5654 -2089 0
-3115 5012 0
6410 1131 0
743 5272 0
-2427 1855 0
2555 -4532 0
-2995 -4244 0
4047 1295 0
-162 3373 0
-6295 2881 0
-2339 3858 0
1393 618 0
2961 1154 0
-6446 -5283 0
868 1533 0
573 2603 0
-5305 4733 0
2049 -634 0
-3959 -4942 0
-1767 3555 0
4046 -4161 0
3733 5020 0
766 -3360 0
1510 -1789 0
2751 1864 0
-347 5970 0
5565 -1155 0
-4179 2985 0
-1705 3972 0
-4757 -1267 0
162 -1530 0
-4384 -5319 0
-1234 107 0
4452 4923 0
-6459 -811 0
-1419 3063 0
-5829 -77 0
6294 2300 0
-1445 4973 0
4182 -6130 0
3444 6462 0
-1438 -277 0
-364 4036 0
186 -157 0
-3070 -6195 0
2107 2648 0
4530 5306 0
3819 -2204 0
4090 5934 0
-6048 -3339 0
-2340 369 0
-2656 5293 0
4406 -5036 0
-5612 5632 0
-3793 1769 0
6379 -1092 0
-5281 6319 0
-1946 -48 0
4424 -4092 0
-2380 -1830 0
-2933 6350 0
-1445 -2095 0
-6505 -2312 0
-2194 -1789 0
-5137 4812 0
733 -5952 0
5282 5010 0
-4012 4786 0
5894 5824 0
-2470 2017 0
-3886 3583 0
-1422 -535 0
-4082 3783 0
877 5139 0
3288 3199 0
-1606 -3136 0
3464 -5033 0
4776 -3004 0
92 242 0
-4867 5543 0
5509 -5375 0
-320 5672 0
-4761 4781 0
1609 -4863 0
-6005 -2400 0
6072 766 0
2831 -1808 0
5619 4672 0
-2500 -2274 0
-4133 -4191 0
1209 1988 0
-3057 1162 0
5191 1184 0
-2404 2626 0
-2119 -1714 0
-5428 -2160 0
4460 5592 0
6301 4539 0
4397 -2854 0
3533 -198 0
-3148 -1322 0
-5976 4443 0
-3611 2449 0
-1900 466 0
1466 -6084 0
-345 -400 0
3677 -1772 0
-5891 -2874 0
4633 1714 0
2687 -1264 0
-6019 -5554 0
-3511 4994 0
-6373 4671 0
-2875 3463 0
-3754 1065 0
-367 -1682 0
2668 -1803 0
3489 -2216 0
-3799 -3088 0
493 1485 0
-867 -3813 0
-1322 -5029 0
-2182 -6312 0
-5156 -2977 0
-807 4579 0
2578 -5327 0
-3986 4209 0
-5014 -3173 0
2858 229 0
-1700 1047 0
-2254 1133 0
-29 5889 0
-2083 751 0
5848 -4531 0
-796 -6220 0
-2164 -1385 0
-3679 -6503 0
-2147 -3180 0
372 2634 0
-5061 3590 0
1663 1572 0
1535 -681 0
-1108 -2996 0
-2557 -5658 0
-4046 -2039 0
-3284 -1278 0
2588 3828 0
-3286 -3089 0
2571 -5500 0
3399 -3726 0
-1339 2769 0
-2255 3014 0
-4347 2241 0
-1959 -5080 0
6265 -1864 0
-2003 1528 0
5681 -5684 0
495 2073 0
4988 -4662 0
401 -5981 0
-5744 -6146 0
670 4705 0
2400 5216 0
1680 1161 0
3853 278 0
3079 -5526 0
3325 -5005 0
5728 -1006 0
4748 4366 0
-2909 2109 0
-6154 -1669 0
-5970 -4907 0
-2855 5776 0
2027 -1526 0
3981 2768 0
6175 5884 0
-700 5283 0
5570 -75 0
2340 -3284 0
-12 6177 0
1673 -3582 0
4470 3016 0
-1880 2989 0
-5550 -2175 0
-1664 -2898 0
1670 2141 0
3007 742 0
-5197 2321 0
-154 4496 0
-4598 2249 0
3274 4442 0
1625 -5428 0
989 6017 0
464 -281 0
-3404 -5137 0
221 -3342 0
6169 1221 0
1892 -4259 0
3016 -6515 0
4818 3234 0
4589 -2472 0
6153 -1487 0
-1138 3099 0
3328 -1868 0
5243 -4179 0
1385 245 0
-736 4540 0
-1972 -2978 0
-783 1755 0
-4383 -4743 0
-253 4986 0
-1713 2936 0
-1620 -4921 0
5724 -5390 0
-1797 -4293 0
2072 -6356 0
-1219 2631 0
-314 3159 0
4653 -3427 0
-3003 -329 0
348 5976 0
2053 142 0
3612 -1441 0
1173 -6521 0
-3586 -4114 0
1954 2347 0
4458 151 0
-6151 -1737 0
-456 6136 0
4109 -2774 0
5847 -3388 0
4768 827 0
4491 3830 0
-2334 4961 0
-6313 -4404 0
3626 1265 0
4540 -6193 0
5846 -5603 0
-1881 1312 0
-5172 3385 0
-1903 -2352 0
6080 -5182 0
6145 3439 0
1692 2633 0
-2115 -5608 0
6207 -1071 0
-4501 -6526 0
-5574 4722 0
3533 4262 0
4581 2000 0
846 -1289 0
-1914 -3895 0
2084 860 0
-3187 1902 0
2390 3470 0
822 -5009 0
6080 -2454 0
-4139 2995 0
4610 -3425 0
-4587 2226 0
-5025 5298 0
2656 -151 0
-5632 3235 0
3907 5745 0
3849 5873 0
-1061 -4794 0
3824 -1583 0
-1740 2156 0
-4246 -2568 0
3256 -3840 0
2471 -2003 0
3937 -4632 0
-3043 -3945 0
785 994 0
-3276 4464 0
501 4445 0
2228 1136 0
-1536 1406 0
-1262 -2822 0
1645 3163 0
-5317 -1051 0
-2366 5122 0
-1427 -3718 0
-2505 5059 0
4557 -5629 0
-6248 4404 0
-6271 -2404 0
-6371 -536 0
2961 4004 0
-4354 -3727 0
3441 -6015 0
-1054 473 0
-500 5617 0
248 -930 0
3714 -2727 0
4040 646 0
6497 5217 0
6055 -5652 0
5115 3329 0
4052 -4829 0
-5699 -2775 0
-3330 -3051 0
-3642 -4426 0
-3001 5925 0
4722 -1330 0
6356 1184 0
-1533 3578 0
-2712 5109 0
929 -5180 0
-4926 5450 0
1764 1959 0
-3277 -3396 0
3498 -2786 0
-1317 -2707 0
2755 -4035 0
4906 -2166 0
3950 -4897 0
1266 3232 0
3997 5026 0
-5898 5456 0
-593 -3910 0
-871 -6474 0
-224 1930 0
520 4596 0
1117 3282 0
2962 -5420 0
-5053 -969 0
2321 -5941 0
242 1854 0
2537 4796 0
2154 -2444 0
-188 2971 0
1419 5261 0
-2033 -4806 0
4069 1703 0
6126 -197 0
-27 4116 0
4575 636 0
1172 -5646 0
-1835 -4519 0
3069 3247 0
-4112 -5177 0
-2178 -938 0
555 5053 0
3036 1144 0
3645 -5797 0
-483 -4128 0
-6125 -5114 0
3456 4328 0
-5284 1499 0
3651 -6444 0
-2116 533 0
-759 -4364 0
901 -3437 0
5643 203 0
-3832 -3244 0
2623 2636 0
3256 5966 0
5574 -1218 0
-2478 -6080 0
-2448 -6314 0
2414 5362 0
-5921 4965 0
-19 1659 0
5746 1891 0
6038 2565 0
-3683 1125 0
-3463 1325 0
-200 3130 0
-1923 -1910 0
3477 5071 0
-1188 -1985 0
5505 5497 0
4526 -6476 0
3239 -155 0
-4731 -1169 0
3455 219 0
68 -2311 0
5109 4876 0
-5243 -794 0
107 713 0
-6501 -957 0
-855 1640 0
-4051 3317 0
1307 1876 0
969 4954 0
4321 -3956 0
4027 3964 0
-477 -5361 0
-1318 -6285 0
319 4122 0
3592 985 0
2395 5819 0
-3762 -4483 0
3497 -2125 0
1735 5339 0
1697 -58 0
-4109 5246 0
-2362 -6126 0
6178 1031 0
4365 2285 0
-1037 -495 0
-5536 6304 0
-1406 2207 0
5250 6000 0
-1440 -770 0
1315 -4944 0
-354 2100 0
-1290 3578 0
-2292 3502 0
-2112 1186 0
6510 5667 0
2000 2291 0
-6465 -3885 0
2627 -635 0
-4493 1856 0
-1811 6086 0
-3849 -2270 0
2556 -2566 0
-1096 -5919 0
-2765 -1083 0
-3429 -2817 0
-3368 4368 0
3609 2687 0
2141 5566 0
-4946 3694 0
-5290 -2817 0
6299 -1644 0
-679 -1706 0
1380 -3956 0
5316 5664 0
5095 -2735 0
-2361 -259 0
5678 174 0
5258 436 0
4131 -1893 0
1756 3823 0
5197 3020 0
-6541 -308 0
-5424 4800 0
-5540 5720 0
1518 877 0
-1820 -275 0
-2259 -1834 0
2328 -3660 0
909 -5691 0
5683 245 0
-2303 857 0
5208 3957 0
267 -932 0
1496 4118 0
-6338 -4760 0
5914 -793 0
2269 16 0
5365 3070 0
-4892 -1470 0
703 2486 0
5512 -76 0
-4989 3958 0
1676 1325 0
-116 -6014 0
4746 844 0
6541 -4112 0
-1183 4529 0
1351 120 0
-3778 5575 0
-1255 -5227 0
-4557 -5197 0
-1598 -3794 0
1010 3606 0
1826 5389 0
1018 4025 0
5274 -543 0
1052 -1457 0
3809 4577 0
-667 -1430 0
-3638 5031 0
3254 472 0
2121 5350 0
911 -424 0
4487 -272 0
-1777 687 0
6388 57 0
-4542 1688 0
6368 1992 0
1676 5096 0
-2464 -1161 0
-4187 548 0
-4327 -3726 0
-4250 2399 0
-2518 -1181 0
4770 6500 0
6489 2245 0
2002 1431 0
-5193 1987 0
1622 4074 0
-775 5258 0
2814 -1541 0
-927 3876 0
772 1168 0
1446 -1826 0
-1287 2587 0
1625 -4640 0
-2756 -5240 0
-2956 2072 0
1603 -2663 0
661 -3818 0
4333 -2452 0
-2443 1439 0
678 3885 0
-4571 -5890 0
3164 3607 0
-6232 110 0
-2146 -5758 0
4146 -2438 0
3873 4862 0
4990 -6428 0
1157 5647 0
79 -2720 0
-4922 -5184 0
-4549 -2114 0
-6499 -1084 0
6000 -4158 0
-3666 -6262 0
6061 -5362 0
-6061 4380 0
-1536 2723 0
-337 -3723 0
-5718 -5102 0
5402 -1159 0
2382 4367 0
-2978 -2381 0
230 1769 0
-4129 -6540 0
2964 -5871 0
3451 -3962 0
-2932 3980 0
4925 3507 0
-2343 -4016 0
3762 1483 0
-5457 4064 0
2152 836 0
1543 4677 0
4378 -1270 0
-2552 -994 0
1299 -547 0
6282 -1861 0
-3326 -6157 0
-1482 -1668 0
6527 -756 0
-3754 4637 0
2280 458 0
5192 -3501 0
3831 -2069 0
-532 -6053 0
-6347 6169 0
-2001 -3940 0
3551 -2301 0
-935 3029 0
2443 -3662 0
3394 -3025 0
-5357 2143 0
920 -3329 0
-2409 5737 0
-4470 -6453 0
5198 55 0
2225 1945 0
-2697 967 0
4443 -2256 0
-4534 2915 0
-390 -1821 0
-5516 1386 0
181 596 0
-5212 -1629 0
-2026 4774 0
2558 2155 0
-4695 -5824 0
-791 -1376 0
5256 809 0
-1739 -6064 0
821 -6016 0
3670 -6388 0
-5874 1762 0
-631 -5942 0
1401 4654 0
-3667 266 0
1030 9 0
-1001 1448 0
-5014 -6198 0
-408 3030 0
-2225 1453 0
1284 -3733 0
-3924 4825 0
-307 5847 0
1303 2233 0
3 -744 0
-3047 3845 0
626 2145 0
1981 4979 0
1482 1648 0
3166 -4535 0
-3473 -5182 0
4637 -739 0
97 -2854 0
-364 -4400 0
-3139 -773 0
-2259 4211 0
-6334 2060 0
1735 2781 0
1660 6299 0
-5380 3548 0
5180 5446 0
-6141 -287 0
2265 4381 0
-63 471 0
-4995 -1331 0
-6018 2808 0
303 4694 0
954 5884 0
4259 4982 0
-4425 2813 0
5715 965 0
343 -234 0
-4620 -2322 0
4427 3801 0
1326 6466 0
-2122 1862 0
3856 5944 0
3596 1807 0
-1510 -51 0
-3460 -4555 0
-1341 1145 0
-1487 2478 0
-2111 -2491 0
-3875 1071 0
-4043 -5760 0
3478 -36 0
-5947 -576 0
-4907 -5345 0
1327 356 0
-1534 2111 0
2590 3248 0
-2118 945 0
4496 5132 0
1093 5071 0
-983 4836 0
5880 -1647 0
5116 -6135 0
5488 -3304 0
-6161 -1839 0
2430 2964 0
-2034 77 0
4737 5609 0
-5492 -354 0
4179 -2160 0
3260 -1249 0
633 4480 0
3877 -4750 0
-2372 -1704 0
5222 -5106 0
-2894 -6022 0
5808 -1031 0
-5382 1019 0
-3222 -5909 0
3079 2761 0
-2082 4133 0
-3621 -3407 0
-2651 -2889 0
2541 3469 0
4211 -3080 0
1817 -361 0
817 -3974 0
-6330 3024 0
-6119 3139 0
-468 950 0
5812 -5771 0
-4268 -158 0
-4145 -6011 0
4182 5235 0
672 -4220 0
2831 -497 0
6164 -4850 0
2504 -6063 0
2955 6369 0
-4059 1978 0
3741 5710 0
4937 2670 0
482 3117 0
-5182 -1878 0
-3800 1968 0
-2487 -1546 0
-2994 -4955 0
-5244 -2540 0
-3763 4107 0
-4087 2057 0
-2949 3104 0
1525 -4258 0
-3211 -4793 0
-4531 1851 0
28 -107 0
4948 6246 0
5098 5077 0
-1492 6098 0
4214 -2871 0
2331 991 0
5708 4943 0
6331 436 0
2840 6263 0
-2782 1594 0
2742 -5505 0
803 6318 0
436 -3517 0
1833 2295 0
-3789 1452 0
5232 -674 0
-3954 1792 0
6230 -5925 0
746 -6079 0
1161 -3433 0
-3712 1850 0
1638 5233 0
-621 -5284 0
2710 3783 0
-4788 -1750 0
-4958 2552 0
-6044 1539 0
6372 1329 0
1384 2096 0
1118 -1231 0
-5032 372 0
6303 3905 0
6088 505 0
-4467 -3307 0
-3104 -3915 0
-6482 2693 0
-1057 -4358 0
-1297 -2306 0
-3480 4575 0
-5773 470 0
-5791 2953 0
5104 -5005 0
2065 -3058 0
5511 -737 0
328 -4219 0
-1179 3227 0
-2295 -4501 0
269 2573 0
1786 -1657 0
5968 -2920 0
-4843 -3706 0
2189 5192 0
-4267 5177 0
-5730 -1400 0
-4938 -3363 0
825 4903 0
-154 709 0
2585 5029 0
2677 -4413 0
5586 -4444 0
-3767 -1208 0
2800 3971 0
-1079 1604 0
-5642 4385 0
-4007 2358 0
-3441 6501 0
1551 5574 0
-1861 -4947 0
2315 -975 0
2072 -6251 0
-3769 3714 0
-5983 654 0
173 5648 0
-6511 -2123 0
-4794 -3036 0
2848 4104 0
5016 -325 0
-6342 846 0
-3952 4598 0
462 -4539 0
-2020 -1665 0
3099 -2870 0
3355 -5437 0
-5458 3904 0
1167 1504 0
4166 4136 0
-3286 -3138 0
-3115 -732 0
-1510 2780 0
-4040 508 0
-1546 1737 0
1650 -1174 0
4147 1685 0
4808 5347 0
3071 -3791 0
-6215 -1633 0
2162 -1633 0
-2457 398 0
5274 3083 0
-3548 2370 0
168 2080 0
3563 -6387 0
6269 4873 0
-517 -3555 0
-4931 366 0
2406 3539 0
-2267 -436 0
-48 -2117 0
5038 1384 0
-2614 -5029 0
-2488 467 0
-548 -342 0
-6061 -5299 0
3024 -4259 0
-6433 1100 0
-4564 -4560 0
-2612 5398 0
5464 2956 0
2570 -3183 0
2836 2378 0
1019 -5034 0
-4271 5466 0
-712 5623 0
5740 4763 0
-2699 5772 0
1896 -859 0
212 3689 0
-5245 1674 0
2318 5993 0
-2252 -5674 0
762 4474 0
-6527 -5578 0
-5502 4608 0
-4815 6283 0
4109 -1748 0
-4304 -4840 0
-5594 -3454 0
1763 -6372 0
522 3869 0
-1692 -3172 0
3885 2023 0
-598 5019 0
5572 -2836 0
3698 -4520 0
3511 -694 0
3800 -1693 0
-3876 -4342 0
3803 4777 0
-913 -2350 0
5505 4663 0
-5705 -823 0
-94 -2868 0
325 -21 0
-700 -774 0
2682 5912 0
2271 5884 0
3918 -6356 0
-4782 -1501 0
-4942 -2908 0
-3246 -5696 0
-4815 1701 0
-3093 -2987 0
3912 -5679 0
2245 -1720 0
-2933 5398 0
-2116 5621 0
2610 -2936 0
3565 -2079 0
1096 1300 0
1090 -1142 0
5477 5818 0
4673 -5311 0
3489 714 0
690 3157 0
-188 -6120 0
213 3012 0
-598 -1019 0
5962 4511 0
3858 1439 0
-2470 972 0
-5089 2570 0
-2751 4137 0
3442 -2847 0
-3159 -961 0
-424 871 0
666 -5655 0
3692 -3578 0
5517 -1937 0
996 -3693 0
-6043 49 0
3609 2121 0
-4 -5168 0
-4433 2202 0
1809 -1900 0
6277 676 0
-6034 -832 0
-4308 -2684 0
-1470 5551 0
-1574 482 0
3687 -3233 0
5056 -4965 0
1187 6430 0
-4109 1093 0
4679 2756 0
4233 -1161 0
-4010 4512 0
-563 5279 0
-4868 2475 0
-169 2370 0
-1769 2202 0
5751 -2943 0
-1589 4360 0
5846 1351 0
-411 -1302 0
351 -4950 0
4060 6204 0
3706 -3890 0
-5147 289 0
3005 5373 0
5870 -4042 0
4846 -4232 0
1152 2035 0
-2786 372 0
5288 -1264 0
-2104 -5375 0
1085 5733 0
-1503 2532 0
3401 -3304 0
-4742 -2274 0
-2722 -990 0
-2050 -3352 0
2437 1541 0
3084 4326 0
5418 2227 0
999 -324 0
5414 -6429 0
4295 -1082 0
4294 -5218 0
124 3107 0
2545 -749 0
3283 -6410 0
-564 -6392 0
-5636 4233 0
-2447 2531 0
-2981 -5948 0
6025 3207 0
-682 -5024 0
131 -264 0
6499 302 0
884 -4084 0
-393 2650 0
251 -6535 0
1651 1817 0
1270 569 0
-5268 -4853 0
3326 5212 0
446 -2630 0
5507 2815 0
-3965 5801 0
3552 1962 0
5686 4077 0
6141 3904 0
469 4889 0
-198 4067 0
-3238 1883 0
1335 -1706 0
-6087 5330 0
2428 -5874 0
1204 3 0
1965 4825 0
3448 6158 0
4041 -2417 0
-3552 -2144 0
436 1911 0
2176 464 0
5907 -153 0
4603 1074 0
180 -1518 0
-4104 -6382 0
-4723 60 0
1593 3455 0
-6245 -5930 0
5527 -5813 0
424 -3528 0
631 -5544 0
4995 -3531 0
3238 692 0
4906 5938 0
-4873 627 0
4950 -6280 0
1918 1953 0
4906 -4636 0
-6534 378 0
117 4035 0
4498 5380 0
-4147 2394 0
1853 2587 0
-2399 -3111 0
-1250 -1837 0
-6389 -3628 0
-4650 629 0
1408 3250 0
2605 -2940 0
5904 179 0
-2448 1499 0
5448 430 0
6077 5728 0
-5998 -6277 0
3583 4145 0
-218 -5547 0
-2917 -5712 0
434 -4591 0
-5187 4175 0
-2328 3170 0
-1941 -3724 0
4144 -2700 0
6347 3439 0
-4088 -1039 0
395 5783 0
4826 -6078 0
6270 6346 0
892 2213 0
-3430 -2741 0
2598 1170 0
-5830 -2715 0
30 -2543 0
6229 -6374 0
-3273 5504 0
-5268 -6060 0
-24 3445 0
3051 -5559 0
-5691 5864 0
-2197 4653 0
-2524 -4134 0
-5636 5766 0
-5505 -1016 0
6267 -3049 0
-5321 4317 0
281 2350 0
6028 2264 0
-342 -2344 0
4510 4504 0
6399 4250 0
-3378 676 0
-6351 3636 0
3914 5286 0
-1550 6072 0
4299 -2592 0
4671 -2524 0
-4815 -6443 0
-1728 5360 0
-3772 877 0
4619 -3865 0
2611 -4329 0
-1092 1727 0
-4629 -1081 0
-365 -5268 0
1013 -3674 0
-5588 5849 0
4441 -1000 0
1606 -5741 0
-963 696 0
1176 1263 0
-934 -4718 0
-374 4752 0
6022 5258 0
3312 -327 0
-3838 6239 0
-1107 -4097 0
2335 6065 0
2579 4450 0
-6434 2579 0
2778 -5040 0
3298 -987 0
-400 -4408 0
-3359 3390 0
-407 1806 0
1083 1683 0
-1639 5099 0
5341 1365 0
-6439 4279 0
3326 -2752 0
-3018 -3820 0
-1938 3053 0
-6165 668 0
-5536 -96 0
2766 -4080 0
1439 1623 0
1600 3442 0
2858 -6354 0
-3631 2982 0
4599 5988 0
1052 -3223 0
3764 5282 0
3684 2827 0
-3560 -2437 0
-2755 6471 0
5825 4722 0
-246 4699 0
1742 -1866 0
-620 3970 0
-5110 2130 0
6509 -83 0
283 3664 0
-2382 -4369 0
-838 3807 0
-3512 859 0
-5700 3054 0
-3261 -3428 0
528 -1442 0
5653 -4817 0
-779 2379 0
5784 2855 0
-3004 -674 0
4219 1494 0
-1447 -5688 0
3379 2050 0
2880 1264 0
1190 1253 0
-400 -4991 0
3846 -2352 0
2449 4613 0
-2236 4698 0
-2844 -4171 0
552 -3628 0
5560 -5813 0
-4376 5025 0
804 -1916 0
1816 6131 0
-3306 103 0
-4672 -650 0
-1550 -4125 0
-3378 -379 0
-2846 2767 0
-804 4906 0
-54 -1396 0
-5489 -4025 0
4460 4914 0
4976 6431 0
1304 -3664 0
5142 -5401 0
-4220 -2790 0
3497 3326 0
-6306 1577 0
6272 -2699 0
4496 5964 0
5070 515 0
-5482 1916 0
4746 2152 0
2349 -1936 0
5108 5638 0
-1808 5968 0
3407 -7 0
-5725 -4354 0
2727 5089 0
3816 -2164 0
671 5071 0
-5032 -2537 0
-1466 -507 0
1847 3614 0
-1529 -6227 0
3162 2123 0
-3347 3416 0
1148 -44 0
1540 -731 0
2321 5514 0
-71 -630 0
-3349 -6040 0
-1323 4012 0
-397 -4925 0
-773 -3525 0
3210 181 0
-5893 850 0
-2271 865 0
-4884 -2488 0
-2759 -4805 0
3034 1673 0
-2749 -1200 0
2395 2142 0
4654 -1684 0
3021 -2659 0
-775 -384 0
4534 355 0
2759 4817 0
-1443 -311 0
-3468 -455 0
4563 -6314 0
-4845 -5773 0
5525 -4831 0
5347 -4816 0
-4083 5007 0
-5979 3030 0
-3915 6100 0
3092 2530 0
-2450 -4010 0
2845 1466 0
-2476 4752 0
3660 -2421 0
-2143 -5876 0
-2929 -806 0
-3492 4039 0
-6312 -4428 0
2587 -1636 0
-4001 3054 0
2679 3683 0
-5260 6454 0
3120 5766 0
3383 -1131 0
-955 5173 0
-995 -3718 0
-2058 3705 0
6345 -5039 0
-2254 -652 0
-1076 4105 0
5759 119 0
-3376 -5999 0
2380 2262 0
5903 2580 0
-6063 -6343 0
3935 -6060 0
5648 -5332 0
-2129 1620 0
6412 -1093 0
3902 -3753 0
4003 -4156 0
1102 6466 0
-2472 -547 0
-506 3310 0
-2913 2353 0
-1737 215 0
-263 2474 0
-2835 5635 0
4963 3194 0
60 -476 0
-5090 -1954 0
2153 5136 0
-2063 1113 0
144 1261 0
-647 2836 0
6539 -3046 0
-6042 1932 0
-6506 4151 0
6247 3605 0
-1668 3774 0
-2826 1311 0
-1182 -2270 0
4583 -3043 0
-976 -5576 0
-529 -2572 0
5843 -1234 0
5447 3375 0
-3268 -3659 0
4380 509 0
111 2012 0
-2577 5307 0
-2988 -3164 0
-3395 914 0
5922 -4761 0
1398 531 0
-2441 -2436 0
-2235 -5803 0
1226 -1037 0
-1507 565 0
2101 -384 0
-5829 4858 0
-4135 5147 0
-4916 4619 0
1274 6399 0
-3830 -5813 0
5422 2057 0
-6358 5047 0
1596 -4835 0
-2749 482 0
5131 5431 0
1622 5447 0
6195 -5066 0
-5738 4060 0
943 239 0
-1806 -4946 0
-2781 41 0
-3564 -4990 0
-2192 -796 0
5949 -4839 0
-5711 -781 0
1537 -1092 0
3781 1514 0
-2921 2610 0
2285 -1731 0
-344 -833 0
-4545 -330 0
-3070 1786 0
905 3385 0
4539 3893 0
1896 1110 0
-1357 -5793 0
2481 5426 0
4000 4375 0
1711 1496 0
3965 -3405 0
-1077 5467 0
-4390 2461 0
2745 3102 0
-1267 -4148 0
1414 -2478 0
404 5315 0
5532 -2201 0
-2253 -3560 0
3271 -5019 0
-5876 -3972 0
5888 -2813 0
-1971 -5600 0
-4868 2084 0
3328 5170 0
5657 -3752 0
8 -3886 0
-2288 -4010 0
1431 3334 0
5662 4765 0
-4224 6397 0
5285 2491 0
-227 4589 0
1454 -6364 0
4365 4285 0
-4068 2464 0
5387 -731 0
1588 1729 0
-3777 1621 0
-2673 5781 0
-547 820 0
-5481 4935 0
4976 -1742 0
-6294 3024 0
-1472 2121 0
-6464 1843 0
-5074 -5345 0
-2717 809 0
4787 -5227 0
1159 1283 0
-4721 2538 0
-2024 5506 0
4242 -3316 0
471 1212 0
5838 5154 0
4811 816 0
1986 -3121 0
1585 -5457 0
-4759 2257 0
-899 -412 0
-4136 -4318 0
5116 -1594 0
-4000 5308 0
-952 6255 0
-2808 4098 0
-2512 -4161 0
-2432 -779 0
-498 -5958 0
-1510 2534 0
2887 -4921 0
1028 -3416 0
-4264 5356 0
-1700 614 0
-406 956 0
-5848 6056 0
-5967 -2662 0
5273 4936 0
-1504 4752 0
-2345 -4606 0
5369 5431 0
4606 -1976 0
-5453 -5713 0
-345 1132 0
-5520 5285 0
5764 2689 0
-2841 881 0
-3623 -4536 0
-2987 -5323 0
-1946 3093 0
5776 -335 0
-6433 1689 0
-5855 3637 0
6310 -1312 0
-1560 -6309 0
-2623 691 0
820 2660 0
-5899 5624 0
-6133 3831 0
2621 -916 0
5576 3698 0
207 931 0
1199 -4 0
3498 -3121 0
1206 3683 0
-6069 -4814 0
4352 5670 0
1196 4895 0
-2669 -3495 0
3233 2670 0
-2287 -1579 0
-1087 -912 0
-5768 -2677 0
5670 1395 0
4861 -712 0
423 -5631 0
2556 3160 0
-2784 -4964 0
2485 6304 0
6246 -5537 0
3833 4312 0
-4342 -4784 0
5998 1866 0
5639 6436 0
2045 -4765 0
3669 -5709 0
6214 -1179 0
-2100 2504 0
1779 -1196 0
-402 1023 0
-6047 6265 0
-5725 -5219 0
-6061 1320 0
5538 -3816 0
-1309 -1245 0
4858 -2230 0
5836 -855 0
-3433 -3317 0
-3405 2164 0
-6146 962 0
4048 4725 0
-2466 30 0
-5131 5488 0
464 1165 0
-3851 2354 0
1811 6007 0
2954 -4388 0
-3140 4487 0
5607 3133 0
-215 1379 0
-5948 -261 0
5529 -2552 0
-2238 -1746 0
-2074 -714 0
-1717 -4716 0
-3652 -4792 0
1671 317 0
-1880 -4900 0
4055 -507 0
2045 -4382 0
-2090 -3689 0
-6473 -1126 0
-1329 -2317 0
-141 -1539 0
2248 -6355 0
423 2425 0
5938 -2995 0
204 1070 0
4453 -2070 0
-6471 102 0
2038 -4868 0
-4616 -5784 0
3921 4398 0
46 6397 0
-4542 -5506 0
6132 -1830 0
-3504 -5046 0
-2119 -3259 0
-1770 -5190 0
5344 6155 0
304 1517 0
-2602 -6259 0
959 5700 0
1064 -1868 0
1018 -2243 0
445 4925 0
5701 -209 0
-3724 6450 0
6238 973 0
4261 1168 0
296 -2147 0
-1442 -4870 0
4375 2435 0
6085 224 0
-3148 1792 0
2896 -3633 0
1992 -5926 0
3216 -1926 0
-4213 3961 0
-1510 -3793 0
-6284 294 0
-6426 1398 0
-1674 1646 0
3606 -5606 0
5597 4152 0
3561 -4774 0
2619 -84 0
3342 -4749 0
-2476 5402 0
1463 5129 0
2910 1305 0
-830 5785 0
-1280 2384 0
1618 -5846 0
-3482 -1972 0
3192 -5035 0
-3833 -4740 0
-4834 6106 0
5460 -1109 0
-979 1004 0
-1494 3467 0
-5660 -6394 0
-1083 -3237 0
6083 -3050 0
-547 -833 0
-4103 -2736 0
5633 -2058 0
5751 1006 0
-609 -2929 0
2730 -797 0
5832 3581 0
2390 4730 0
-5259 -3775 0
492 -2515 0
2637 6409 0
-1639 -4516 0
2964 4986 0
1437 -2068 0
1761 1118 0
-1087 -5837 0
-1038 3220 0
-3798 -140 0
-5765 -2082 0
-4682 4648 0
459 -2392 0
-5044 -97 0
-5851 2185 0
-5410 745 0
-4299 1041 0
-2701 6301 0
303 5774 0
773 4458 0
-669 -163 0
1532 -836 0
4344 3827 0
-1941 -4286 0
4379 -2987 0
-758 2741 0
2388 -1611 0
5193 5208 0
-5865 -247 0
999 3124 0
3117 5582 0
-3368 4050 0
-4468 3542 0
-5994 3296 0
-4747 -1507 0
-5876 -1472 0
-6115 -5364 0
-5716 -6464 0
-2804 -3644 0
2698 -4328 0
2200 -1642 0
4162 3956 0
6515 5003 0
-994 3280 0
-2280 3382 0
-6396 -4886 0
6286 -6222 0
-1816 2975 0
5271 -1860 0
-4088 -93 0
-4372 -1189 0
-4407 -3340 0
5264 3137 0
6513 3866 0
-4720 6210 0
-414 -1177 0
-1138 284 0
-2956 -5406 0
-4189 -4007 0
-790 1627 0
5616 -5363 0
5854 4099 0
1258 1168 0
6300 713 0
-2810 -4150 0
-3891 -1781 0
2611 3373 0
-4421 3855 0
-2154 -2881 0
-820 1224 0
-3737 -2288 0
5835 1790 0
-6540 -1883 0
4881 -2056 0
4600 6289 0
-4104 5199 0
2412 -5182 0
4229 3275 0
3575 -857 0
-284 490 0
-1657 -5350 0
-239 6247 0
-438 -321 0
381 5811 0
3551 2238 0
-5219 4413 0
-3255 -4875 0
2139 -5270 0
-4763 3764 0
-5295 -4125 0
-3468 5460 0
4256 -5264 0
-5182 -6036 0
6045 1197 0
-3917 4948 0
-2335 5034 0
2272 -4319 0
-5971 -3413 0
619 -6363 0
4394 -1943 0
-411 2291 0
3502 5118 0
-939 3858 0
4732 -2389 0
-2252 5284 0
-1092 -890 0
-1575 4156 0
1039 -4700 0
5999 -4086 0
-3926 -5927 0
-2147 3909 0
-1041 3680 0
-5936 -6375 0
400 -3245 0
-5221 1090 0
6515 2634 0
558 5229 0
2836 4794 0
5331 2013 0
-821 -3704 0
6418 -2523 0
-4797 193 0
-2641 6391 0
-4007 -6133 0
5623 -5423 0
1765 6019 0
5024 -4787 0
-1978 -4986 0
-2894 -6147 0
-5330 3690 0
6170 5772 0
5495 -5484 0
3195 1326 0
-5472 -1540 0
4752 -4122 0
6319 4190 0
986 -4198 0
1902 -2854 0
6108 833 0
-3573 4896 0
203 155 0
3424 -5389 0
-2096 -4576 0
-3639 -3322 0
-825 2607 0
1198 3712 0
2989 -6135 0
-737 3568 0
-3193 -3487 0
-2306 -1311 0
-3174 4450 0
-3097 5273 0
-1518 -4704 0
-2904 -3004 0
-4154 -4358 0
-5545 6354 0
6435 1130 0
-2522 -719 0
-3522 4275 0
-4787 -4698 0
2603 -282 0
-5428 -4122 0
-6440 1487 0
-2672 -3804 0
-638 3342 0
2096 167 0
1066 1166 0
5620 -3203 0
-387 6346 0
1801 -1558 0
1178 -1500 0
-4186 597 0
-3403 751 0
1349 -3083 0
-4816 -6051 0
110 2811 0
257 5650 0
-3090 4631 0
-2600 -3933 0
-3251 3511 0
230 4600 0
5906 -5784 0
-5193 625 0
-1377 -358 0
-399 -3758 0
-2785 -5305 0
-1388 -4806 0
-625 4610 0
5627 4530 0
-5546 2819 0
5216 -2867 0
3596 -4652 0
-1668 4240 0
1851 -1809 0
2108 -4320 0
-79 -4337 0
168 -621 0
-5667 -88 0
-2840 -3399 0
554 -5469 0
3169 -1530 0
2442 -3666 0
-4704 2588 0
1993 2211 0
-3647 5851 0
852 -2697 0
-5642 706 0
-5363 251 0
6082 -4056 0
5116 4781 0
6163 -1383 0
-3483 6435 0
-5763 -2695 0
4565 -4305 0
1571 -6531 0
-2439 -5670 0
819 805 0
6032 -2712 0
-3341 -926 0
-5754 3997 0
-6526 4826 0
584 -4803 0
-5951 -3278 0
-2378 4395 0
2483 -3766 0
-3096 -3178 0
5930 -1348 0
5029 -5042 0
1934 -6185 0
2217 5141 0
-5032 5901 0
4361 -2228 0
5670 -4201 0
-951 1040 0
-3033 1630 0
5468 -25 0
4132 -4957 0
5789 5754 0
2176 997 0
4839 5151 0
-5240 1009 0
-3618 -4281 0
-2205 2391 0
-951 -1362 0
1016 4326 0
4900 -3169 0
-1327 -5876 0
-3774 -3374 0
4684 -340 0
4986 -4904 0
6341 -498 0
2846 5316 0
-5283 -4516 0
-3845 5640 0
2637 518 0
568 -4784 0
657 -4695 0
2424 -186 0
-5971 1683 0
-5434 1851 0
5178 3359 0
-4353 -6293 0
1522 -1303 0
3893 4541 0
-5431 2398 0
-2696 2265 0
3117 4898 0
974 -3625 0
-3817 5298 0
-3588 -3571 0
-2960 -3458 0
5241 3696 0
2912 -2974 0
5518 -5674 0
-736 -3221 0
3752 -2769 0
2327 2916 0
5499 2276 0
-1593 1757 0
-4446 5012 0
3438 -1658 0
-5175 -866 0
4202 -3711 0
-3812 -3622 0
1518 -6419 0
-3415 -2591 0
5558 4948 0
3502 -1995 0
-3702 3585 0
-1817 -5228 0
5882 6166 0
-1933 -4715 0
2518 5112 0
663 -5173 0
-1963 5109 0
-3604 1055 0
-4569 -6398 0
3240 5757 0
-1519 -3796 0
-3858 -2076 0
-742 -29 0
-459 -6531 0
-4019 788 0
1444 3350 0
5533 -1469 0
-2636 -1373 0
5326 -5334 0
-2349 -2444 0
3049 -5563 0
2536 122 0
3758 5123 0
3102 -4259 0
1125 -5275 0
741 -2327 0
-553 -5254 0
2495 2907 0
-6324 2942 0
-5060 -2250 0
2656 467 0
-5603 2723 0
-3306 2822 0
6388 -949 0
-2193 1097 0
-1147 4876 0
1148 4045 0
5296 4428 0
3768 -6487 0
-2172 4484 0
-4128 -2477 0
479 -3973 0
-605 -4703 0
-4916 -2464 0
2648 -2656 0
4259 4723 0
-1226 -2327 0
192 1513 0
4067 3992 0
-5642 -4840 0
3794 60 0
1202 2562 0
4648 -45 0
-235 3191 0
4729 -5103 0
474 973 0
893 5664 0
-368 -5174 0
-118 6153 0
3328 -645 0
6173 3181 0
5540 152 0
3103 4251 0
1250 -5318 0
-2678 -3387 0
968 4146 0
2734 -845 0
-734 4425 0
-1595 2915 0
2702 -882 0
1363 2843 0
2023 4976 0
127 4415 0
2862 6499 0
-5348 2781 0
-1249 -2270 0
-319 1857 0
-1965 -4592 0
-4034 4296 0
2737 -1767 0
-4090 2039 0
2116 984 0
-212 -5140 0
-4738 -6366 0
-2949 -3709 0
6335 563 0
2460 2042 0
3842 -5242 0
-4033 -4892 0
611 3838 0
997 4381 0
2272 -4997 0
5460 -5910 0
-6251 -4727 0
-5371 4851 0
-5375 558 0
-5786 2784 0
5847 3937 0
-5971 4364 0
4058 4529 0
-5553 206 0
5738 5578 0
-6487 -6314 0
1405 3321 0
6304 88 0
-5909 5092 0
-5951 5555 0
866 -4896 0
2660 -1871 0
-3271 -1350 0
4401 -3347 0
-4680 2140 0
2947 -686 0
1194 -476 0
-2719 4399 0
-3547 -6157 0
-5490 -5103 0
5031 2134 0
3948 1628 0
-3198 -4884 0
815 -5976 0
-3234 5846 0
-2294 449 0
1784 4996 0
1843 -6535 0
-1604 -47 0
-4632 -1812 0
-5217 -865 0
-584 -3239 0
-194 -4632 0
6261 3471 0
-4719 -4650 0
-871 1736 0
6429 508 0
3195 -5784 0
1694 4385 0
2057 -462 0
-4310 -1566 0
454 -4533 0
2734 1369 0
-4605 -3323 0
1740 -2256 0
5601 -1661 0
-6292 -1808 0
-322 -5892 0
-3788 -4646 0
-4515 3309 0
-1914 -2367 0
-2879 -5424 0
2425 -3013 0
4709 -4506 0
-364 3293 0
1591 -4643 0
4874 2633 0
-5614 -1 0
-1392 2065 0
-4217 294 0
-2762 -3334 0
-6521 4550 0
-1839 -2672 0
-2154 -1201 0
-4004 -6284 0
-4651 3414 0
-261 840 0
-2714 5577 0
4853 -206 0
803 1527 0
-430 5567 0
-6043 201 0
1187 -3852 0
5394 -459 0
-3374 -47 0
5645 -5905 0
-3078 4231 0
-2471 4556 0
4683 -4004 0
4628 -5668 0
3202 2050 0
-918 6470 0
-2544 180 0
236 -2756 0
-4697 4693 0
902 -3555 0
-4247 5870 0
-3289 -5632 0
-3034 4713 0
-3922 1583 0
-1692 5403 0
-2529 -6385 0
-2078 -700 0
5458 2248 0
1983 4236 0
963 -3630 0
-4121 -356 0
-6181 4370 0
6221 3956 0
6168 780 0
1283 1996 0
3226 5223 0
-3307 3994 0
6296 4938 0
3707 5190 0
-1283 -939 0
-4415 -4257 0
-2907 -3676 0
-4607 1422 0
2449 4801 0
-933 -3290 0
-6018 1160 0
5809 -5217 0
6282 5937 0
4525 1504 0
-3443 3339 0
-4374 3406 0
-5313 904 0
151 -5444 0
3167 4053 0
-6294 3882 0
-2069 -5441 0
-782 -4665 0
-2701 -4009 0
3750 5610 0
-1945 2279 0
-5136 -2107 0
-84 -1955 0
-679 4816 0
-6046 3336 0
-5415 5237 0
5586 -4806 0
4268 293 0
-1069 -2192 0
-589 -2473 0
-1377 2547 0
-5926 -3766 0
-1916 3209 0
-3544 -4534 0
4474 -132 0
260 4860 0
-6142 4733 0
472 2282 0
-2409 5369 0
-4192 5530 0
2508 -5207 0
-6185 -1063 0
-5630 -5349 0
90 3579 0
-4626 -1388 0
3818 -4436 0
3450 -6441 0
-2234 5870 0
2286 -5666 0
-403 -370 0
-4373 -3639 0
4707 -5221 0
-5033 5167 0
-5241 -3941 0
5252 -1960 0
-6443 6289 0
1400 -6221 0
-4631 1324 0
6047 4876 0
5006 -6236 0
6492 -4640 0
-4913 4934 0
-397 -1008 0
369 -6456 0
-474 3046 0
393 -674 0
-2829 4169 0
-4493 -1732 0
-928 -5360 0
1404 -430 0
1580 -2382 0
2825 -4404 0
5707 -1511 0
-2823 -2859 0
226 -3838 0
-1569 2804 0
164 -6474 0
-998 -3426 0
4773 -623 0
6172 1413 0
-4999 2902 0
-3729 2719 0
2241 907 0
3811 -457 0
5128 2693 0
-4598 871 0
-1943 1797 0
1687 386 0
5987 2799 0
-735 -1338 0
1229 1130 0
2883 -3134 0
-4175 -3180 0
1255 -666 0
3701 -486 0
2491 3369 0
-3702 -769 0
1209 -3309 0
4878 6166 0
3539 -2634 0
-4030 1494 0
276 4968 0
-1172 2998 0
-3072 -3454 0
-2566 -5547 0
2272 850 0
86 5017 0
4906 5686 0
4326 232 0
1185 -2852 0
-2251 3747 0
3175 1404 0
6526 -12 0
4995 1278 0
6546 -2131 0
86 -609 0
3568 -936 0
4538 1041 0
5534 -4268 0
-743 -3465 0
4920 -1058 0
2221 4905 0
5988 -2959 0
3051 641 0
-4253 2020 0
838 -5081 0
-3618 -974 0
3335 -2016 0
1058 -3143 0
-6476 260 0
-3453 -5958 0
-1400 3636 0
2554 -2958 0
-6156 1986 0
5198 4364 0
5112 2360 0
-3844 3219 0
-2875 4487 0
2277 -4943 0
-4443 -4737 0
4949 -2857 0
273 6351 0
2365 -517 0
-3297 2215 0
5359 2897 0
-3329 -4943 0
-1554 -5748 0
-524 -2521 0
-5184 -6414 0
-5684 5460 0
-1860 2183 0
6261 -758 0
-2911 -2980 0
3051 5194 0
1448 2258 0
-873 -3279 0
4177 3008 0
-5005 -4236 0
-1905 -3633 0
-3545 -194 0
-2304 95 0
-1753 -4946 0
-600 -159 0
-4378 3108 0
-1438 -186 0
-747 2627 0
-3143 4265 0
5848 -1604 0
-3934 5506 0
3372 5056 0
6458 4311 0
2630 -6016 0
-5932 -6483 0
-1856 -3870 0
5347 6320 0
213 2755 0
5359 -4356 0
2978 3887 0
-6057 -2516 0
1167 5933 0
5109 -362 0
4549 -6042 0
-2572 -4356 0
1670 -4772 0
-2201 6338 0
-3234 4813 0
-5825 -5554 0
-1704 -196 0
-1642 -5024 0
-6336 -1627 0
3798 -6044 0
916 2420 0
-6351 2515 0
-1970 -5964 0
-1124 -1894 0
-2977 2432 0
6503 -6481 0
3610 -3981 0
2209 -2703 0
-4445 2007 0
-4907 3209 0
1204 -216 0
2947 5804 0
-2101 4351 0
2251 2583 0
-2187 -4750 0
-3870 -3204 0
3427 5309 0
4026 990 0
-147 -2327 0
-3523 -4979 0
3051 -2305 0
5573 -171 0
-3700 -1063 0
191 6233 0
-419 -2217 0
5879 -4442 0
3448 6372 0
-6106 131 0
2208 -2911 0
2129 -1633 0
-6167 4767 0
1681 -4323 0
778 6119 0
3011 2245 0
-1730 5590 0
-714 -376 0
4276 4656 0
-1262 1559 0
-1759 -5196 0
-3226 2939 0
4846 4761 0
2897 1397 0
-5156 6321 0
6095 -3013 0
-3177 -5642 0
-2995 1085 0
3334 -4196 0
-2449 -3776 0
-5481 3135 0
-2810 -100 0
-4179 2113 0
-1973 -5243 0
1582 -3759 0
-4066 4870 0
-1300 334 0
-3374 4589 0
3807 -3176 0
537 3918 0
748 -4907 0
-4576 5646 0
-5557 -550 0
4484 4482 0
-3004 -6102 0
4422 -599 0
260 4976 0
3508 19 0
-4663 -4528 0
-1267 5343 0
1370 -4044 0
3636 411 0
-3789 -105 0
-290 6481 0
-5595 378 0
2942 4335 0
4846 -233 0
-4061 -3590 0
5156 6505 0
1144 -1220 0
-4476 -1879 0
-3686 -4290 0
-2526 2425 0
-1108 -2169 0
-1264 -287 0
-2048 -2746 0
21 5839 0
3338 278 0
2548 -960 0
5564 3721 0
5727 -5397 0
-4373 -4617 0
952 2536 0
-3763 4825 0
-492 452 0
-6120 -1107 0
-935 4652 0
-4694 -3924 0
-346 5276 0
315 2752 0
2532 5007 0
-6270 -3108 0
-350 281 0
6380 -2177 0
-1378 4486 0
-378 -4888 0
-4495 4792 0
-5785 3516 0
-6452 1484 0
4579 -928 0
1885 -130 0
-6228 5955 0
77 6485 0
5545 3531 0
4342 -3554 0
-6186 2370 0
-419 2347 0
-2387 -1477 0
-4861 -1572 0
3769 1374 0
1015 -6359 0
-5874 -5632 0
-2666 -5585 0
-4288 -3267 0
-1403 6267 0
-3847 -5014 0
-4490 -4196 0
-5474 -4589 0
6162 -590 0
-6500 3254 0
-1432 2449 0
1265 -213 0
6519 -32 0
1957 -752 0
-1570 -5424 0
3858 -3731 0
4981 -5604 0
-5532 387 0
-3365 -4714 0
-4749 -2061 0
-1667 -432 0
-3431 1622 0
-4612 5659 0
3441 1457 0
1259 5834 0
4540 -4447 0
-3840 3685 0
4604 175 0
-2811 1026 0
-4148 -3091 0
-3138 1123 0
-3679 3971 0
-1861 1848 0
-1506 3339 0
-6023 707 0
1026 -3679 0
1214 5391 0
-4399 -4334 0
-2200 4316 0
-2758 -1336 0
2036 -4495 0
-2554 -1476 0
1183 -4166 0
1499 1549 0
2260 2454 0
3866 4320 0
-3582 -222 0
-4493 -1164 0
-506 5252 0
676 5075 0
-3677 2548 0
-5057 2669 0
2008 -912 0
-5323 3363 0
5409 4350 0
3639 -4567 0
-1024 4334 0
4423 5799 0
386 6021 0
-4660 -2417 0
-929 4422 0
-5292 4545 0
-6334 -1559 0
5161 -1107 0
539 3129 0
-2948 -1316 0
4513 -2384 0
-3045 -4338 0
1307 -3076 0
-309 -444 0
-5066 -3117 0
-4555 -2750 0
5307 893 0
3959 3646 0
3506 -5371 0
-4155 -20 0
-4528 1585 0
1490 -1794 0
4469 -1385 0
-579 -969 0
431 -2849 0
4052 -544 0
3052 2637 0
-1076 -4305 0
6420 1692 0
-1451 -5152 0
-5698 791 0
-2305 -1147 0
2238 3629 0
5327 3477 0
-390 -2753 0
-6165 4399 0
-3719 5256 0
1948 -1787 0
-1734 -2812 0
733 -3729 0
5202 5139 0
-3837 -5081 0
277 5237 0
-1016 -325 0
5098 -4030 0
2342 -3213 0
6193 -2958 0
5891 3345 0
-4003 5052 0
-4590 -2024 0
4087 104 0
-3228 -5537 0
-1243 -4368 0
3289 -2141 0
546 5130 0
2391 2686 0
-556 2077 0
4895 2180 0
-3250 4681 0
1234 -185 0
3534 -1072 0
-1226 109 0
1498 -6136 0
-5753 -1043 0
-6190 3626 0
604 3435 0
-6343 -1228 0
-4879 1370 0
3603 1534 0
-3307 -6327 0
-6510 3317 0
-4408 250 0
-1369 3800 0
3123 315 0
-4460 4998 0
-3572 5835 0
4112 2661 0
5208 4338 0
6400 -2909 0
6168 -5844 0
1690 -6464 0
5949 -920 0
-6516 -2886 0
1128 3400 0
-3014 -388 0
2348 -6242 0
-1962 1454 0
-3194 5552 0
5428 -5319 0
-2111 -3547 0
-2736 -4929 0
-366 1863 0
4080 -5604 0
5114 -208 0
4577 5469 0
4508 -5820 0
2854 2652 0
3680 2888 0
3622 -3502 0
5613 -4303 0
-6406 5802 0
5787 -4177 0
6024 1142 0
2418 6299 0
-231 -1740 0
3441 -3884 0
-3627 -969 0
973 6452 0
3865 -194 0
-1861 -1540 0
2726 3527 0
-2933 -787 0
1328 6217 0
1741 5349 0
1324 4786 0
-1603 3382 0
-2090 2034 0
-468 507 0
819 3070 0
-3060 -4756 0
-3751 3819 0
4015 5942 0
5047 -3320 0
-53 -6347 0
-3171 1718 0
-2553 -2422 0
-1728 -4715 0
-4640 98 0
3820 -5194 0
298 -4222 0
6335 1959 0
-5352 3830 0
-1958 -2878 0
3634 -4207 0
4904 -2996 0
3229 -4742 0
1635 -3649 0
-3194 1959 0
3750 -986 0
-6418 6090 0
-1193 -4539 0
-4037 4759 0
-4296 -2605 0
-2949 -5249 0
5250 -5615 0
5648 -1633 0
-1592 1139 0
-3620 774 0
2450 -3246 0
2191 -2938 0
-1850 -5915 0
219 3313 0
-544 2207 0
-5249 4881 0
-2531 5285 0
1268 1514 0
5414 -2237 0
1611 -2835 0
-1561 5712 0
-3473 4114 0
2704 -2173 0
5201 847 0
5250 4368 0
5053 5445 0
-1839 3049 0
-1032 2639 0
-743 -4353 0
-4840 834 0
1139 -660 0
3363 1415 0
-5407 4266 0
-2877 -118 0
4867 -6511 0
1566 -1060 0
4664 -2717 0
4934 -714 0
5536 1120 0
-5831 -6386 0
-855 -2388 0
-214 2653 0
-4399 -4836 0
-71 5708 0
-5284 -4005 0
4054 5435 0
-3516 -5221 0
1340 1451 0
2468 -4811 0
-5389 -326 0
-593 -1220 0
-11 2431 0
216 4228 0
-831 -4826 0
-4490 -792 0
-5070 3086 0
4859 3583 0
6310 -1290 0
1184 1208 0
-3997 5928 0
4729 -160 0
-3160 2811 0
3671 5995 0
-1916 3679 0
-594 5187 0
5487 -928 0
1079 -4304 0
-3780 6140 0
412 3831 0
548 -1942 0
-4696 -725 0
6179 5010 0
1351 -5568 0
5492 4175 0
-584 3041 0
-135 6264 0
-6119 -2752 0
5285 586 0
-3804 -5829 0
2353 -4492 0
-1073 -1035 0
4944 1499 0
594 3471 0
2715 -1975 0
6035 6349 0
-3660 -1582 0
4561 2406 0
-4122 -4632 0
-1880 -2492 0
938 -4896 0
-360 -2420 0
4695 1383 0
1596 2316 0
-5936 5673 0
2336 2702 0
3444 -4574 0
-4519 6407 0
-6402 -2788 0
-1333 -2438 0
654 -3671 0
-2038 323 0
1490 -5085 0
1780 -2325 0
4554 -2944 0
3975 5438 0
-1019 5667 0
-2052 2636 0
1379 1282 0
-2154 -6378 0
-213 6257 0
-1147 6072 0
4555 -274 0
5308 -3043 0
-3177 -1189 0
-6334 5659 0
684 3008 0
5448 -1184 0
5283 -4758 0
2043 4191 0
2431 4189 0
1857 -5807 0
49 3173 0
5991 -6351 0
2116 -2504 0
3153 4035 0
-6450 3897 0
5391 -5984 0
5283 2621 0
-5892 1431 0
4461 -3837 0
-1521 -3082 0
1996 -242 0
271 1896 0
6018 -557 0
-1013 -3407 0
-1810 -5036 0
-1119 -3331 0
4571 -5634 0
2042 3086 0
2571 305 0
-2689 -2724 0
-4760 -1106 0
-3306 -4098 0
-1197 792 0
3410 -715 0
3093 234 0
6449 1334 0
3993 6034 0
2848 2039 0
-1825 -5105 0
-3340 -3215 0
-3057 -6282 0
4209 -2592 0
6463 232 0
-447 -3890 0
-3781 5230 0
-1765 4200 0
5729 -2510 0
-1873 -2149 0
1928 4263 0
-861 -807 0
-2732 -782 0
-2793 -1 0
6412 -5371 0
1088 -656 0
1021 3928 0
6022 -6285 0
594 1771 0
1157 1742 0
-2113 -5442 0
-1896 448 0
-4467 -758 0
6189 -1270 0
-1696 -4927 0
2407 1348 0
-2074 1161 0
3937 3446 0
3410 6513 0
-512 971 0
-734 3627 0
4253 -4119 0
-1658 -1357 0
-4930 795 0
-4112 6202 0
-5795 -4412 0
3152 -4472 0
-2672 -5254 0
-4845 4673 0
-4771 -843 0
5565 -4806 0
3047 6308 0
-1048 -1657 0
13 -957 0
3666 -2 0
-1016 1107 0
5613 -4221 0
3327 -5268 0
5973 -2852 0
-5354 2570 0
5329 -2673 0
2042 4360 0
-2091 -3584 0
6497 -2272 0
-5586 1522 0
5659 2080 0
528 3749 0
-1641 1904 0
1517 -5036 0
5188 871 0
-5321 -6004 0
828 1304 0
5613 297 0
-235 4045 0
-1031 -4594 0
312 -4780 0
2190 -2838 0
-1618 -3958 0
5473 -2854 0
6445 4962 0
4983 2915 0
4884 -38 0
6472 3647 0
-3562 -6097 0
-3013 -2126 0
-5993 3424 0
-4134 4167 0
1139 593 0
-570 1453 0
-783 70 0
2521 2555 0
3952 -2281 0
-2296 -2812 0
2373 5732 0
-983 94 0
-4886 3788 0
-3326 1958 0
2712 4764 0
-489 3478 0
-3342 6339 0
4048 6236 0
6074 -6377 0
4222 3809 0
-2834 1156 0
3485 5724 0
-1569 -4598 0
-4896 4431 0
-4805 6537 0
4424 -1248 0
4537 -6268 0
2183 -6316 0
-4665 -6003 0
-3566 651 0
-4142 3156 0
5949 -5452 0
-4 5143 0
-2148 -2868 0
-2931 -4857 0
1645 6058 0
3016 5898 0
-2895 3477 0
5646 4277 0
4500 -5479 0
1925 -3926 0
3086 6337 0
-4333 4665 0
-929 -1745 0
-6125 -3651 0
-6530 -1135 0
-5944 -6477 0
-6348 3976 0
-5657 -5075 0
-1008 -3473 0
-2054 3626 0
-5713 -2844 0
4810 5937 0
5174 -4686 0
-5458 -4581 0
2173 4140 0
-4156 -1037 0
-133 -4008 0
-4000 1291 0
5918 4419 0
-432 -1447 0
-4322 -5475 0
1163 2193 0
-4367 -4066 0
-6051 543 0
3720 3449 0
-2215 4934 0
5558 1847 0
-6530 -1239 0
5810 5162 0
4005 4707 0
684 -1985 0
-1126 -2160 0
-2728 735 0
513 73 0
-6452 -5377 0
395 -5274 0
-1196 -480 0
50 -1449 0
5256 894 0
6475 -2707 0
-2143 -6067 0
1811 -855 0
-3117 -740 0
-53 5871 0
1032 1006 0
-475 2938 0
-4319 2702 0
-3914 -4064 0
3631 -2026 0
6299 -3939 0
-3614 1730 0
4295 5618 0
-3044 362 0
4519 3411 0
5848 -3020 0
4683 -3663 0
2554 1010 0
-270 -3978 0
-21 4653 0
-4877 3158 0
-6355 -5148 0
2739 5447 0
394 -5215 0
-1373 2337 0
-3281 801 0
-3420 -296 0
-2876 921 0
2153 2713 0
-3729 5001 0
-20 -5246 0
-1055 -712 0
3835 -5823 0
4896 -4678 0
153 5514 0
-577 -6159 0
-770 -375 0
-4733 1221 0
-4216 3340 0
1812 -3520 0
-2466 3828 0
2211 5464 0
-2298 -6277 0
5125 -4888 0
5108 -4342 0
-4569 124 0
4480 391 0
-6527 -3160 0
3671 -3984 0
-2402 6210 0
-3257 -5097 0
263 -5410 0
5789 3387 0
-4115 -4261 0
-6059 5672 0
6458 6149 0
-6206 5284 0
5324 -5384 0
5504 -3960 0
2976 6357 0
469 546 0
-1830 -1767 0
5184 5646 0
891 -740 0
-5539 -2031 0
4570 -4659 0
5385 6123 0
1592 2411 0
-820 2352 0
1759 -835 0
4305 -3475 0
-1090 -3012 0
-2570 5253 0
-2421 2702 0
5013 -1179 0
2964 -5218 0
6089 -5602 0
3386 2940 0
3340 1780 0
4712 5621 0
2199 4513 0
-2191 -3353 0
-5876 2960 0
-5800 5028 0
-3542 -6283 0
704 5320 0
5516 5769 0
-5947 554 0
-1171 1941 0
-5522 -2802 0
4098 2966 0
-2835 -5241 0
2568 2772 0
707 5371 0
-5479 3660 0
-4669 -4774 0
5653 4345 0
6395 -5101 0
-4063 6225 0
-578 -5173 0
2329 -5807 0
-4477 -5921 0
-709 6086 0
-1844 5714 0
-3388 958 0
-3547 -762 0
-1408 -345 0
-506 -5704 0
4991 6271 0
-5501 3526 0
1143 -6434 0
119 -638 0
-5257 -2035 0
-425 -1987 0
-5509 3739 0
2720 5601 0
440 708 0
168 -1310 0
-5167 6181 0
-952 -3786 0
5919 264 0
6150 -5312 0
4833 -397 0
-998 -981 0
3269 4559 0
1299 1948 0
4997 1391 0
-2868 -4693 0
4036 -2971 0
6098 -4547 0
4593 2808 0
5372 -3177 0
-5597 978 0
2650 3273 0
4339 488 0
2487 -5877 0
-4840 -1683 0
-3597 -6341 0
1214 -1272 0
5765 5379 0
3168 3413 0
-4364 -2777 0
-5687 -3759 0
-839 3833 0
5385 3227 0
6181 1992 0
179 -2276 0
5380 -6450 0
-624 5108 0
-1382 -3889 0
-6305 -4806 0
259 5072 0
-6453 2178 0
-2784 1683 0
-3569 6068 0
-5001 2680 0
1563 -1578 0
-4560 4540 0
-2905 1899 0
3444 -1010 0
740 4698 0
777 -4749 0
-2813 -2372 0
-6498 1192 0
-3472 -655 0
6409 -3030 0
905 -1280 0
-297 -3713 0
-1965 3298 0
46 4127 0
4534 -1459 0
-4427 5317 0
-1897 3548 0
-3357 -787 0
1067 -2310 0
5927 -401 0
4903 5734 0
-4603 5578 0
-2909 2576 0
4927 4225 0
3311 5459 0
-501 5432 0
6096 1604 0
1498 4084 0
142 -2340 0
2918 2079 0
-1902 2003 0
-770 5246 0
-4459 366 0
3594 4276 0
6377 4541 0
4253 4841 0
-5097 392 0
3005 -249 0
1310 -3847 0
2562 -3344 0
-2326 4272 0
-2286 -195 0
5953 -325 0
-6336 2754 0
3344 -3832 0
-5802 5248 0
5005 -2534 0
6163 -3169 0
6025 187 0
3168 -2237 0
-4387 -5734 0
1284 -545 0
-6019 4607 0
1755 2796 0
2251 -2192 0
1117 238 0
6235 5486 0
-1974 -5550 0
-1901 -4554 0
716 -6028 0
1005 1177 0
4647 1216 0
2257 572 0
-1888 -100 0
5822 3065 0
5627 -1355 0
-652 -725 0
-3122 -216 0
1570 5953 0
-6312 -4558 0
-1517 3592 0
4791 2711 0
4770 -3258 0
-3077 5814 0
1406 5188 0
-4749 1685 0
3580 1761 0
-212 -3011 0
-3324 -1467 0
-331 5767 0
1410 1531 0
6265 -4091 0
-142 1978 0
5650 4151 0
-4487 -5638 0
117 4376 0
1784 -3198 0
-1504 -2086 0
-160 502 0
4305 -1834 0
-5606 -5679 0
4339 -2119 0
-1939 260 0
-2690 -3403 0
-6473 -5610 0
3421 -1383 0
-3843 -1648 0
5610 -5126 0
-4868 -5996 0
2615 -757 0
4026 -4207 0
4818 312 0
-2516 -2876 0
631 -2894 0
-1498 3317 0
-5779 -1844 0
5126 2538 0
861 5555 0
5505 5336 0
2782 -5816 0
3987 2004 0
-282 976 0
4344 4164 0
73 -585 0
6099 -828 0
837 -655 0
5410 4406 0
6506 -1538 0
-790 915 0
-6390 2561 0
6151 -2989 0
-3572 -6408 0
-6233 203 0
5486 4659 0
-1829 5064 0
3815 -198 0
-6435 -534 0
4181 4564 0
-4943 4453 0
2272 -2011 0
-1068 4372 0
-2522 -3221 0
-4845 -4102 0
636 -5994 0
4408 -826 0
5712 -2288 0
5381 -5768 0
-4499 -605 0
1856 -4507 0
2805 1537 0
-1730 1027 0
3074 -2646 0
2476 -3888 0
1708 -5137 0
-6014 -6290 0
-6000 -3945 0
-3297 -3526 0
-3941 -592 0
-265 6205 0
-4809 -848 0
-2426 3475 0
-4626 -1211 0
772 -2050 0
208 6421 0
-4070 -1999 0
-5842 2999 0
-361 -859 0
-5557 4990 0
5400 2485 0
1067 -3475 0
-3703 -3393 0
-5231 -4740 0
560 1616 0
3386 -4940 0
-1709 -605 0
-3320 -4066 0
-5916 -3639 0
-2276 2874 0
3683 2428 0
2924 -2996 0
3568 -3546 0
-3395 4889 0
2649 -2802 0
906 767 0
2198 -2105 0
-4693 -3928 0
-451 -4117 0
-4571 -4347 0
5115 6234 0
2151 -3504 0
953 955 0
-3464 6059 0
2696 151 0
3639 -2995 0
-2877 -3105 0
5236 5474 0
4785 -1932 0
2202 -4507 0
-367 1957 0
3025 -3480 0
5403 -4938 0
-328 -2612 0
4484 -1405 0
-2351 1563 0
-764 1134 0
-1078 6002 0
1459 -3418 0
-3631 5699 0
-4720 -3433 0
-5830 3776 0
-3536 1655 0
-121 4166 0
4658 2886 0
5561 -5568 0
4903 -6132 0
-2683 -1871 0
3720 3579 0
-4239 4943 0
3087 143 0
4492 4866 0
-1682 3673 0
-3801 2363 0
-1863 -5753 0
3134 5809 0
-2972 -2792 0
-5052 4355 0
2915 1240 0
-2511 -6331 0
1165 5229 0
-3077 -345 0
-1758 -1 0
-1838 -6462 0
-4329 -600 0
3196 -2391 0
-171 -1873 0
-3000 -6504 0
3802 -4282 0
-5869 -5155 0
-1244 6466 0
-4987 2531 0
-2134 -1260 0
2261 -4763 0
3489 4470 0
6295 -5958 0
2300 -3343 0
5617 628 0
-2475 -304 0
5603 934 0
-5674 5099 0
-899 6337 0
-982 -2661 0
-3952 3438 0
-3990 -2248 0
-796 2970 0
-4221 -1639 0
-1705 3610 0
-2988 1070 0
-4590 -3260 0
-2103 5799 0
-3213 3473 0
5258 -4310 0
809 -507 0
2711 -2986 0
5652 -3376 0
978 2606 0
-1418 -2028 0
2741 -2168 0
5916 856 0
3065 4608 0
108 -3586 0
4657 2040 0
5136 4677 0
3086 -6071 0
4655 -130 0
-2725 -4215 0
-2230 -4944 0
3201 -2163 0
-5472 3670 0
-6095 -1075 0
-3431 -4100 0
-6010 -4068 0
4613 1633 0
2803 -4522 0
4217 805 0
-4730 1490 0
6132 -6231 0
2621 -4191 0
1607 -6102 0
-497 2744 0
4295 -1442 0
5877 4541 0
-3948 363 0
-606 -4384 0
1653 -6112 0
1482 3850 0
-2966 1277 0
830 6265 0
-4294 -133 0
-2147 6440 0
4379 -3844 0
-826 764 0
-2152 -612 0
-667 -2942 0
-2786 -3259 0
-2254 1835 0
4066 4540 0
197 4246 0
5720 -4636 0
2769 2043 0
-331 1015 0
3679 -5767 0
-672 -1985 0
-6274 3903 0
3747 966 0
875 2217 0
-2611 -571 0
6523 2050 0
-2842 -1096 0
-841 -2446 0
-4863 -6390 0
-2728 1709 0
-4700 -3711 0
1830 -4646 0
5418 -2432 0
-3589 -4992 0
4890 -6174 0
1775 -3695 0
-2146 -3211 0
671 1958 0
1417 -3799 0
6529 -1951 0
4682 4087 0
6189 -96 0
-3846 -4029 0
-1560 5653 0
2262 -3930 0
-1504 -1240 0
-2352 -1715 0
-376 2525 0
-4943 1712 0
-4620 631 0
4037 -3396 0
-360 -4170 0
2194 3682 0
712 -2769 0
5759 -2951 0
3981 -2838 0
-2157 -6462 0
4107 -4596 0
-5374 2204 0
-2596 4361 0
1449 -4967 0
-2235 303 0
3280 -1608 0
-3334 2611 0
-6154 -3109 0
-811 3124 0
-923 -1475 0
-4271 1256 0
3253 -6508 0
6295 3652 0
-5274 -2150 0
-2860 -4149 0
2238 939 0
5095 -1572 0
-977 518 0
-1286 2715 0
5114 -3221 0
4885 -1862 0
721 3322 0
5331 2534 0
-4227 1763 0
6480 2663 0
-647 1830 0
-6428 -2485 0
673 5558 0
-4091 3053 0
1923 3511 0
-5790 5641 0
-3554 -6344 0
5189 -1961 0
-6051 5482 0
-2848 5331 0
-2948 4422 0
1384 5387 0
5110 -5421 0
592 -4256 0
-906 2540 0
-2305 -5152 0
1846 -5449 0
4624 4683 0
3037 1688 0
5729 3919 0
-5841 1886 0
-3507 3497 0
5002 5207 0
2064 3956 0
-2733 -3726 0
-3743 -5777 0
937 -5903 0
1420 6006 0
2071 2565 0
704 2244 0
-5095 -2736 0
-4045 -2513 0
-2515 -5712 0
940 -5169 0
-5362 -6176 0
83 -4627 0
-4616 -1274 0
-1137 -4766 0
-6224 -1676 0
395 -5048 0
2912 5822 0
-753 -4213 0
561 -5947 0
6096 -2672 0
-5030 2674 0
2196 1130 0
-2433 6406 0
-1628 -4242 0
2838 1342 0
-426 -4129 0
-5153 2479 0
4675 2748 0
190 -2956 0
-6187 5782 0
-752 6232 0
3336 -2325 0
9 5961 0
-2687 -3726 0
4366 587 0
6092 1190 0
-3520 -4714 0
2378 -6386 0
-1803 295 0
3239 -4567 0
-2733 -5425 0
2178 5934 0
4602 -3363 0
5208 -4435 0
-5382 -4013 0
1738 641 0
3743 4318 0
-1709 2121 0
3418 -5222 0
-6163 -2638 0
-5759 1410 0
-2376 -1036 0
-1903 1803 0
-4423 -1442 0
-1937 1339 0
-3271 565 0
-148 -4451 0
5009 -5077 0
-2151 4979 0
2302 4403 0
-1474 -473 0
-1747 -5170 0
-55 2266 0
-886 3256 0
4722 -6490 0
1545 1815 0
1836 -2389 0
583 -1587 0
-6184 2843 0
-1275 -945 0
1994 -5831 0
3182 -4314 0
6413 4092 0
-1430 -798 0
-2995 -4467 0
-1288 -2736 0
2261 4759 0
1118 2137 0
1881 -1827 0
-5441 4563 0
-3668 -4054 0
-4804 1448 0
2971 5016 0
-4772 -5653 0
4821 -3621 0
-2472 -2189 0
-1628 -4514 0
-2016 -342 0
3241 1550 0
884 -6275 0
3613 5570 0
-5493 -6441 0
-2955 -4925 0
-2329 2732 0
3508 4479 0
2182 -4271 0
3591 1266 0
-444 -2512 0
-2162 -5793 0
-1883 -4779 0
3414 5011 0
3326 -2839 0
-4304 5148 0
-3294 3053 0
4765 5287 0
-4532 4391 0
3702 -2067 0
3542 -6324 0
-821 -5739 0
-4259 -4431 0
-1020 5768 0
-1465 -4068 0
3206 4367 0
3248 145 0
-2352 1579 0
-3749 -4587 0
-2782 -3698 0
2155 2518 0
5109 -5609 0
-5337 2656 0
-2933 2763 0
5330 6369 0
-813 -4347 0
-4448 5691 0
470 -1112 0
616 -1082 0
1237 -32 0
572 6496 0
-6326 -2961 0
-607 -3083 0
-724 -5739 0
5674 5083 0
-3752 4019 0
-5377 -4374 0
-2727 2023 0
-1355 -3749 0
-1912 3688 0
-2078 5505 0
-1476 -6519 0
2598 5522 0
-1126 -1537 0
1408 -225 0
-3504 189 0
3108 5412 0
-2558 -5656 0
-5909 -3756 0
-456 2981 0
6055 4690 0
-1053 5701 0
-1332 -3394 0
-976 1246 0
5601 -694 0
2603 -5825 0
5570 -3056 0
5768 -1273 0
1899 -3888 0
3092 -712 0
-2568 899 0
-1550 911 0
-4809 -1140 0
2375 -5705 0
6300 -2688 0
-2991 507 0
6466 -1389 0
4086 4681 0
6172 -1939 0
-4851 -4921 0
-4797 1529 0
-3121 -3840 0
995 -1747 0
3519 -5532 0
-209 -2086 0
2621 -336 0
-6527 1834 0
4453 604 0
-4210 2353 0
2855 6303 0
4356 -5457 0
-1294 -6459 0
1127 -2747 0
-1525 -2761 0
1776 -2872 0
4986 1184 0
6342 1435 0
-56 205 0
-1142 1998 0
-5153 960 0
4524 4693 0
-2622 -4365 0
3784 -6248 0
-5059 -4347 0
1949 -4302 0
3655 -4826 0
1012 1547 0
-3647 3217 0
5118 -363 0
-3968 3890 0
-6190 -508 0
3294 4331 0
4667 -1026 0
-3434 2704 0
-3753 -6125 0
-2177 2165 0
1768 1435 0
6014 2170 0
4714 6175 0
3741 4265 0
1110 2373 0
-1186 3830 0
3053 2609 0
-4750 -1254 0
2656 4754 0
1100 2881 0
6039 3986 0
781 4917 0
-2384 1774 0
3537 5523 0
407 1993 0
1052 -2980 0
-6404 -2609 0
-162 2710 0
1979 3144 0
-4573 1846 0
4778 917 0
2318 -861 0
-1029 -2443 0
49 5827 0
-1007 -1142 0
5514 -3541 0
2843 -547 0
988 -58 0
597 -396 0
2737 -2641 0
-213 -2164 0
3591 -1576 0
-4298 -252 0
-3991 2508 0
-3888 -1663 0
-2864 -1886 0
2780 3216 0
-88 4622 0
637 4199 0
-3685 706 0
-5874 4510 0
-3020 1484 0
-3313 2059 0
4898 -221 0
4555 4125 0
-2788 -6431 0
-425 -5014 0
3516 3476 0
-106 3583 0
5702 2252 0
365 3750 0
-24 1563 0
-5737 4144 0
966 -1878 0
-6043 -308 0
6247 4953 0
2711 -2966 0
887 4379 0
558 -2728 0
2294 -4679 0
-3908 3385 0
697 2101 0
-634 -5685 0
-2434 -5759 0
-4865 6346 0
-83 4478 0
495 -2342 0
-5584 -5530 0
5204 -2538 0
5874 162 0
-2037 -4244 0
3086 -3317 0
4477 -46 0
-347 -1063 0
-1734 778 0
2542 2055 0
5155 3498 0
-1151 2098 0
6396 -1867 0
-2250 660 0
-4808 339 0
-1188 -3061 0
5427 2404 0
2519 6455 0
-5876 -1103 0
-1302 3961 0
1845 1701 0
4075 5720 0
-404 -5089 0
-4472 -2170 0
-3141 -5051 0
545 -6133 0
-2264 3242 0
4551 1446 0
-906 -3682 0
4537 5349 0
-3352 3709 0
-4118 -13 0
-4364 -2515 0
1560 3053 0
1987 1638 0
-2017 1452 0
-2007 1069 0
1128 -732 0
-6506 4355 0
6342 4203 0
3421 -674 0
-745 -6434 0
2806 -1717 0
568 4747 0
4241 168 0
-251 3537 0
3392 -534 0
7 -2310 0
-3119 -2078 0
-5265 487 0
4602 -726 0
-742 -6131 0
-1961 6005 0
5146 869 0
-2237 2331 0
3064 1471 0
4559 4661 0
-4684 -501 0
3414 -1116 0
-85 -1946 0
-634 4719 0
1977 6140 0
943 -3848 0
4691 -942 0
-12 1345 0
-2219 3950 0
-1248 1908 0
-2637 -6288 0
4821 5919 0
3364 -1467 0
5414 -1821 0
-570 6154 0
3032 3680 0
-370 -4605 0
74 5333 0
-4201 -2065 0
-4686 -5311 0
2698 -2601 0
-608 -603 0
-5792 -4856 0
-1457 1117 0
-2985 4900 0
2965 -6212 0
1168 3654 0
5029 -1192 0
238 4572 0
4821 -4061 0
4200 4721 0
4339 -5197 0
5720 1930 0
1261 -299 0
-3068 2722 0
1394 -5920 0
271 2066 0
2232 -307 0
-4587 -5535 0
5042 -1221 0
-4450 4440 0
3251 -2074 0
-3989 -1669 0
2191 3661 0
3170 4455 0
-1044 -4878 0
5720 -3580 0
3020 2005 0
-221 5582 0
-4236 446 0
6457 -31 0
-2952 -1275 0
-3214 3059 0
2650 2977 0
5176 3109 0
690 5163 0
38 5096 0
5238 3089 0
4069 -1117 0
-2416 -6371 0
4217 -1841 0
-3578 -2389 0
-4315 -6167 0
582 1031 0
-1132 1686 0
-6420 3626 0
2278 -5981 0
-3410 -176 0
4759 6050 0
-1624 5129 0
1338 -6237 0
4858 5037 0
2057 -2826 0
-4818 -1470 0
-5190 -2120 0
5514 -4699 0
-6226 -2481 0
6153 1527 0
4494 2816 0
-3327 -2215 0
729 86 0
-6446 5662 0
509 -4281 0
-3759 1177 0
-1389 6224 0
-691 776 0
-5608 1375 0
3546 3978 0
-592 -5442 0
3942 -485 0
2657 2746 0
2066 -5521 0
6302 4997 0
-2488 5366 0
2073 5963 0
-4178 2981 0
5497 -3526 0
5285 5829 0
4992 -3713 0
4477 -5573 0
-2512 -5657 0
5277 -6048 0
831 -1813 0
-3236 -561 0
-243 6038 0
-163 1923 0
5459 -30 0
5577 -4389 0
-3778 -3011 0
1742 -3616 0
-1576 1676 0
6305 -6160 0
-1750 3176 0
1918 2690 0
6054 -5368 0
-2547 -5313 0
4552 5065 0
-1639 5482 0
1230 2158 0
-202 -579 0
-743 -5834 0
898 721 0
-2187 3724 0
3470 -4249 0
-815 4494 0
3794 -22 0
-6519 -4341 0
-4490 -2853 0
4887 5372 0
2504 6273 0
892 -4691 0
3269 5335 0
2588 -6463 0
4548 -3973 0
6376 2042 0
1291 576 0
-4376 484 0
-3437 -255 0
-5394 -388 0
2775 5702 0
1731 -5130 0
1801 2532 0
-2466 -2337 0
-6 -627 0
3345 519 0
-4605 -6286 0
300 -2422 0
-1047 -3476 0
-975 -4371 0
1964 -334 0
-2543 -6232 0
-1150 -4290 0
-4527 5683 0
1742 -5856 0
2300 -5587 0
-4476 -5074 0
-5636 -2305 0
-577 5610 0
3095 853 0
-1522 -6360 0
-4577 -5195 0
4419 -2513 0
-4163 1270 0
-1714 291 0
-6329 1397 0
-6445 -2651 0
5029 -3340 0
-5479 1606 0
2078 72 0
1792 5357 0
2871 6134 0
-4615 3402 0
-157 -1220 0
3613 -6185 0
-5685 -1350 0
-1576 6419 0
-5608 -3564 0
-6326 -2801 0
5334 -2005 0
3092 391 0
-5804 6344 0
3998 -322 0
3990 4027 0
5089 6344 0
4371 -1579 0
5513 -4382 0
-5628 6007 0
-182 -4304 0
1043 -629 0
-3108 -4411 0
-964 3621 0
-1810 761 0
-3814 3267 0
-4756 -2696 0
-2237 -2001 0
2923 2211 0
-258 2681 0
446 4976 0
-921 -4055 0
-4314 -992 0
4557 -4542 0
1428 1346 0
-6381 -2626 0
-1737 -4009 0
3135 4692 0
3178 167 0
-610 -1841 0
4093 5978 0
-4237 -1615 0
-2769 -5303 0
-3714 1919 0
355 -6110 0
-3297 486 0
-5481 2875 0
4284 5652 0
-4158 1633 0
2140 3694 0
3851 -2999 0
94 -3892 0
-5812 -1078 0
-5481 2667 0
-2806 -662 0
-2187 -1808 0
-1506 6173 0
4299 6544 0
-3281 1542 0
1688 -3463 0
-221 1431 0
470 -5545 0
-181 -3431 0
-2105 2435 0
1143 -3168 0
5050 -4639 0
-1345 -1791 0
2803 4243 0
5964 -1234 0
-2774 4853 0
-4020 -1228 0
3350 -5840 0
3718 4333 0
2735 3096 0
-2774 -5846 0
-5816 -6363 0
-5702 4146 0
4602 4573 0
-1745 -177 0
-2342 5884 0
-29 -1554 0
-5713 6399 0
4849 -3129 0
2160 3731 0
6179 2151 0
202 -3576 0
5571 -1871 0
-1445 -5716 0
4513 1397 0
-2710 4205 0
-6544 5071 0
-2614 -3300 0
-1078 2973 0
3005 -4823 0
3336 515 0
-3217 5995 0
4043 -5674 0
-313 -6221 0
3470 -256 0
-4920 -4828 0
5703 -160 0
4113 -3299 0
-460 -4128 0
4180 2540 0
-135 -4298 0
5467 579 0
3027 475 0
-3426 -5814 0
4117 -4265 0
5302 6166 0
-6198 -5668 0
-2483 2583 0
1223 -845 0
-5426 -2527 0
-4901 1647 0
-5463 1991 0
-6059 -344 0
-3003 4820 0
-433 -5867 0
-1999 3192 0
-1264 -3026 0
937 3178 0
6332 6250 0
-142 -2745 0
3343 -4933 0
-4770 -1063 0
2976 -2614 0
2117 5573 0
3208 -669 0
6313 2756 0
-2395 -2359 0
2411 4539 0
-4819 -5436 0
4661 3158 0
6281 1835 0
5463 -4532 0
-5319 -5481 0
5911 5341 0
-930 -4197 0
4700 1773 0
-4733 -2747 0
4580 -715 0
-2067 -2721 0
3731 702 0
-5777 -3742 0
-2221 -3706 0
-791 -3989 0
3309 68 0
4239 -3203 0
-5704 -4342 0
-988 -2144 0
6528 2461 0
3579 -3146 0
-621 564 0
407 -3226 0
-4617 -409 0
-2231 -6434 0
-2305 6398 0
2443 -3922 0
-2163 1826 0
1569 495 0
-5530 -1767 0
5344 -4619 0
-3738 1395 0
410 3155 0
6384 -4660 0
-650 861 0
-1519 -818 0
-1747 -6174 0
1210 -5257 0
-166 -5431 0
1989 -4624 0
-1764 631 0
1230 -4342 0
-2237 1823 0
-3203 -2242 0
-5144 -2512 0
-1112 788 0
5623 -627 0
5724 2166 0
6461 4805 0
5627 6380 0
1290 -1910 0
3713 5310 0
5489 -815 0
-1447 5741 0
6366 -1805 0
1246 -3699 0
-3046 -6485 0
-5654 4915 0
107 6542 0
-2080 5943 0
2449 4512 0
3938 1266 0
-5049 -2361 0
4176 -2358 0
5644 -2344 0
-1744 -213 0
-3602 -6169 0
-4752 1899 0
5028 -4639 0
4291 -512 0
6046 1346 0
2186 4553 0
-3202 -5990 0
-2042 18 0
2574 4051 0
-624 -679 0
3965 -1652 0
-710 -626 0
3899 -2959 0
-2638 -6260 0
-1217 1260 0
640 874 0
822 -2219 0
1555 5157 0
-2092 4162 0
4062 -5813 0
1850 -6181 0
-1438 -3712 0
-861 2141 0
-3821 -3951 0
-5921 5477 0
4835 5237 0
2007 -4533 0
-5070 6287 0
3580 -1412 0
1307 1463 0
-4587 2225 0
6429 5439 0
-4252 6249 0
1374 -4597 0
3540 3544 0
3509 652 0
568 3996 0
5381 -4371 0
-649 4899 0
3707 -2795 0
-4803 5801 0
-3947 5544 0
1234 4611 0
3165 -3140 0
-4570 306 0
-3611 -4158 0
-6139 1207 0
2303 -3553 0
-2624 -5760 0
6193 -2485 0
5061 6236 0
-5093 -2160 0
-2602 5326 0
-320 -1140 0
-5660 1735 0
190 5641 0
1602 5987 0
708 -2399 0
6353 -1467 0
1301 2220 0
2125 1855 0
6321 2508 0
-1469 282 0
3070 -1113 0
6254 4831 0
-1106 -4003 0
1402 -3079 0
5975 5988 0
-1447 -4650 0
3785 -3836 0
1603 -1213 0
5471 4314 0
-2973 6476 0
6031 -4557 0
2401 -6348 0
-3459 -1128 0
1164 -4393 0
4189 5761 0
2187 3622 0
2888 6113 0
623 5544 0
-5008 -3850 0
-3261 -2447 0
323 -5355 0
2467 3016 0
-2416 4042 0
-1493 4036 0
4449 -2806 0
-1647 5605 0
2681 4005 0
5874 -3286 0
4883 -6389 0
125 -80 0
2458 1463 0
-5255 -5967 0
-2909 -2089 0
-3325 6513 0
993 -71 0
3014 1827 0
2269 1292 0
-142 -2030 0
-861 -2059 0
415 2235 0
-1608 3340 0
-5446 -1054 0
4270 192 0
-407 -1248 0
-194 -4881 0
-3656 3452 0
-4750 -4434 0
1880 -564 0
-1634 -2274 0
-2857 4058 0
4134 -4298 0
773 4654 0
3925 -3183 0
-251 2465 0
910 -4686 0
-4636 -1491 0
-5248 -1846 0
1221 1246 0
-2714 -6274 0
-5881 -4377 0
3961 1812 0
1465 -6048 0
-5858 2526 0
2388 2767 0
-1188 -3030 0
-1901 1358 0
2149 445 0
2409 1079 0
3692 -2622 0
729 -4889 0
3622 -5269 0
6188 6113 0
1035 -3794 0
636 4911 0
4707 -3119 0
-4105 3692 0
-1926 -6003 0
-260 1242 0
2759 -4933 0
2577 3021 0
-5802 -2522 0
4753 1245 0
4173 -5166 0
2720 -2254 0
3854 -6363 0
4203 4765 0
-5324 4263 0
5993 2437 0
-3910 1544 0
-1069 -5691 0
-5051 1406 0
-2958 3290 0
6443 -3711 0
1241 -5635 0
-5796 -690 0
4140 1413 0
4896 -6288 0
-3025 -4573 0
-4198 3980 0
6412 2173 0
2010 4015 0
-6092 -1825 0
-5259 -662 0
-980 -5622 0
5703 5511 0
3509 -2362 0
-4178 2364 0
5443 -1914 0
3298 -1470 0
4922 4524 0
-6103 -1603 0
1224 3630 0
6257 -3801 0
2408 -5923 0
-705 5132 0
-2596 3677 0
5923 -2098 0
4040 -582 0
-448 5681 0
-1377 1242 0
-4530 -3277 0
-1913 -2083 0
5162 -5297 0
2867 4681 0
246 5288 0
-1218 868 0
6439 1967 0
-5738 2902 0
4812 -2765 0
4461 -2588 0
1170 -503 0
138 -4730 0
5523 -6515 0
4778 -1238 0
-5877 5824 0
-6237 6453 0
5298 -913 0
-1119 -4501 0
-3695 6430 0
2502 -35 0
-4904 -1171 0
-1325 -2977 0
-5028 -2481 0
-2564 6193 0
454 4622 0
-605 5877 0
768 -553 0
-4551 -3746 0
-4498 2599 0
4664 -784 0
959 462 0
5072 -5304 0
-6245 2105 0
2474 -5311 0
1391 4991 0
-5752 -1740 0
2780 -1469 0
-5373 -3464 0
4135 1686 0
-4111 5796 0
-3371 6011 0
3427 -208 0
5402 -5168 0
-5911 2328 0
-4146 2202 0
589 4594 0
-157 -6177 0
-399 2074 0
331 5889 0
-2254 -3185 0
-2974 2521 0
-1082 5473 0
2993 993 0
-3290 -2597 0
-3868 -5950 0
-6405 -4624 0
-2436 2207 0
-1109 -1369 0
3240 5071 0
-2195 6009 0
5062 1807 0
-1817 123 0
-2031 5740 0
6181 -4944 0
2172 -854 0
3381 1144 0
1888 2093 0
-340 -4475 0
6333 -4131 0
-6030 5811 0
6006 1640 0
-4522 3712 0
3455 6162 0
-4625 -54 0
-829 1615 0
386 -533 0
-2579 181 0
868 146 0
-4059 6085 0
-3160 -5426 0
4080 991 0
-1310 2655 0
4355 -5294 0
1146 546 0
-1951 6286 0
-5989 204 0
2086 5027 0
-4298 -373 0
-5713 1554 0
-4283 3531 0
-5621 -882 0
-3429 386 0
-5486 2664 0
16 6099 0
4498 -5584 0
-3012 5906 0
5801 3393 0
4189 -1181 0
526 -4776 0
-4034 -4612 0
-4110 -3891 0
-5751 -3727 0
-4185 1205 0
-493 -3720 0
-2129 561 0
5013 -2345 0
-5883 5348 0
1666 -5969 0
-3175 3669 0
-251 241 0
-4315 -1017 0
1199 3299 0
6139 -5268 0
5626 -3930 0
-5180 -2165 0
2072 3102 0
-917 -244 0
-4412 -949 0
5913 -1783 0
-637 4197 0
-866 -1123 0
2186 -5373 0
3075 -4038 0
-775 -6504 0
-6282 5647 0
3016 -1941 0
-3628 -3535 0
1143 -5602 0
-615 -4613 0
6224 -691 0
-1399 5368 0
-4569 -526 0
-5342 128 0
1957 4344 0
-6516 -377 0
-4918 91 0
5573 6000 0
-4404 -1190 0
-5291 5837 0
5818 -5485 0
-3948 4052 0
4979 4566 0
3717 -5878 0
634 -5684 0
-3764 -2850 0
-4213 2546 0
-5153 -1129 0
5118 -4854 0
3166 2961 0
-2042 5602 0
