c NF
p cnf 2809 5056
-2603 2436 0
-1107 713 0
1812 2486 0
-2397 -1382 0
-2247 -1403 0
-970 -141 0
-1757 -2341 0
-1944 -2131 0
-1961 1612 0
353 2071 0
1802 -639 0
2 -1680 0
-147 1568 0
-2567 569 0
-2714 2783 0
2337 -1994 0
890 864 0
-1052 -496 0
921 433 0
1559 2782 0
-2172 28 0
-1993 306 0
-738 504 0
2014 2080 0
-1697 -1635 0
-2209 -2210 0
-1214 -2033 0
-886 -885 0
2085 -840 0
1612 -1468 0
-935 2147 0
2676 30 0
1967 -869 0
338 -691 0
-2161 2717 0
852 1221 0
-381 -1611 0
404 -851 0
1002 -89 0
1988 -453 0
105 -1468 0
390 2539 0
382 -2538 0
-2569 -2124 0
-1841 1379 0
-75 2697 0
1312 -2582 0
-1955 -767 0
-54 -1735 0
-81 -1978 0
-1327 1687 0
2601 1358 0
-1740 -1471 0
-1321 -464 0
2266 2477 0
-1345 -2065 0
-2232 -468 0
-696 -2073 0
-100 44 0
2782 2075 0
373 116 0
-1449 -1156 0
-1811 -882 0
1321 -354 0
2467 -1524 0
16 985 0
-374 571 0
-2138 -953 0
-784 1511 0
1142 247 0
1658 -1213 0
-1933 1404 0
-890 -1826 0
-607 -2552 0
2472 525 0
527 -2344 0
-305 1390 0
1226 1278 0
1863 2100 0
-435 -1902 0
2425 -1335 0
-1837 -1285 0
-1601 779 0
422 -2304 0
418 -324 0
377 781 0
2134 426 0
2178 2389 0
615 -1828 0
-32 -487 0
-1744 -1035 0
2158 -2726 0
-1174 -467 0
1269 1670 0
-2752 1201 0
1260 -2215 0
-2264 -2436 0
2042 -505 0
-1020 -1060 0
2578 602 0
-1926 437 0
20 -868 0
-1895 1038 0
2104 -2791 0
-293 296 0
-590 1935 0
1414 -233 0
-2411 -347 0
1393 731 0
236 -220 0
2098 2459 0
-1871 -1955 0
2509 1642 0
-2289 -1984 0
-1984 519 0
-1026 -1416 0
-2646 86 0
2246 -2414 0
1532 445 0
1927 1148 0
182 1305 0
616 1207 0
486 -2557 0
-2221 -502 0
-2047 -2540 0
2196 2274 0
-1377 1991 0
1203 -463 0
1907 11 0
1137 -975 0
378 628 0
-965 -1028 0
-247 -41 0
1744 1462 0
382 -2659 0
-2201 -431 0
730 1438 0
-1770 -108 0
177 -172 0
-782 826 0
1234 -1196 0
1125 107 0
-468 1814 0
-1328 -1610 0
2436 -720 0
2034 2114 0
-818 -2540 0
-2488 -924 0
-2532 1605 0
-941 -1164 0
-900 2709 0
-668 1473 0
51 -61 0
-2340 -914 0
1138 -674 0
2149 -738 0
1681 1426 0
-2247 -204 0
-1490 -1269 0
-2090 -1166 0
-2538 2412 0
1173 2248 0
-697 -109 0
2008 774 0
2658 -2083 0
-2727 2132 0
-459 1835 0
2296 -1225 0
677 -1352 0
2025 848 0
-2212 -2803 0
1711 663 0
2455 -2283 0
580 -2172 0
823 744 0
-1823 -178 0
723 -2385 0
-1690 921 0
1447 -2061 0
-1512 -1307 0
-2765 -1175 0
2408 2513 0
-2506 -2526 0
2678 -2239 0
-543 -389 0
-2776 2206 0
-2443 -1922 0
2461 1270 0
1149 -1008 0
2741 -1227 0
-946 -1411 0
-855 -1123 0
-2454 -1138 0
-118 -1706 0
121 916 0
1167 -1507 0
1104 -1651 0
-174 924 0
555 -2433 0
2203 1673 0
-579 -1842 0
1077 1049 0
2381 -2621 0
1742 -871 0
-1514 -2690 0
-1750 908 0
-476 -47 0
-2618 1977 0
1577 -1336 0
-2412 -2323 0
-1179 -1865 0
1885 666 0
-1953 -2473 0
230 -331 0
-426 -1146 0
-69 1629 0
-23 308 0
2109 703 0
-882 -459 0
2233 -1784 0
-767 1431 0
1361 464 0
229 -128 0
1532 -1602 0
442 -1768 0
-2283 -1540 0
-1592 2642 0
-938 -1699 0
1600 -2576 0
-2755 -1963 0
-2570 -2110 0
-2484 2496 0
-2672 1128 0
-952 525 0
876 -2241 0
564 -603 0
-2454 -796 0
1496 -229 0
-967 -2319 0
1906 -1147 0
-1015 647 0
-2655 2316 0
-721 -1162 0
1104 -2774 0
-2273 1677 0
-1103 -2369 0
-645 -637 0
-796 -1264 0
-2407 -180 0
2721 -2664 0
-1202 2715 0
-595 1145 0
1485 2412 0
813 922 0
-1512 -2641 0
1800 -306 0
-1756 -170 0
1172 -2208 0
1761 -2234 0
2576 1577 0
346 -671 0
-1179 -2486 0
-1999 -2260 0
2130 2280 0
234 669 0
-1900 463 0
346 2446 0
-849 1106 0
1887 2795 0
1783 -2039 0
1776 -2013 0
-2160 180 0
-2362 1359 0
587 1942 0
1372 -268 0
-1266 -647 0
-885 -2532 0
1014 2270 0
-2396 2005 0
-2158 1247 0
-2145 -200 0
-537 -237 0
-1358 -1770 0
-930 1033 0
2077 -1745 0
-341 224 0
117 -1440 0
417 2067 0
-655 -2741 0
663 923 0
-409 871 0
2050 989 0
-1777 -1490 0
225 -517 0
-1194 454 0
1126 -579 0
-1346 -952 0
-1068 -931 0
1899 1540 0
-2375 1297 0
1185 -2312 0
-2383 -1182 0
-1910 -181 0
-1536 858 0
-127 -1590 0
-1765 -282 0
-2781 -495 0
-1001 1687 0
-2591 -947 0
2198 -894 0
1521 1992 0
-1980 401 0
1661 2705 0
675 266 0
211 726 0
2548 2033 0
177 -1011 0
2068 1992 0
-1526 1501 0
-1899 1131 0
1388 2399 0
-1874 1718 0
-540 426 0
-1199 846 0
2020 2418 0
-2229 -2800 0
469 -728 0
600 -1719 0
-1750 1292 0
-1686 2377 0
1182 -1544 0
-1373 1310 0
812 -2145 0
2093 2425 0
-1830 -698 0
648 -487 0
512 -2140 0
-2559 1019 0
-2053 -1574 0
-1199 737 0
2066 -1156 0
-2365 -2277 0
2472 658 0
-2653 1491 0
1550 2687 0
584 2354 0
1661 -1322 0
247 406 0
-869 2522 0
1494 -962 0
1107 1063 0
-1562 1548 0
-2326 1154 0
-545 -621 0
-77 -2331 0
-1117 1889 0
-198 -2681 0
901 -121 0
2446 -1807 0
-1083 -296 0
-109 -775 0
-879 -2164 0
-2217 -2524 0
2586 2657 0
1551 2715 0
-647 306 0
2643 -2644 0
-2302 -2731 0
1360 1712 0
-839 1756 0
-1099 678 0
-1560 -966 0
-411 -1457 0
2333 -439 0
-2636 1465 0
-2323 574 0
2539 -2323 0
1497 -2046 0
1127 215 0
2607 -2287 0
2077 -1008 0
-2105 1224 0
-1763 -758 0
-1739 -1020 0
2610 1597 0
817 -2388 0
-2620 1445 0
1796 -2484 0
-2039 1295 0
-234 -447 0
-1170 1889 0
1950 1493 0
-1339 897 0
-1404 1975 0
1048 -605 0
1847 -1406 0
-2686 -23 0
824 -1398 0
-1322 2201 0
-2055 1361 0
1935 837 0
-1199 -645 0
2130 38 0
-1517 2196 0
-2561 2332 0
1488 -2236 0
1479 -524 0
-1840 -2731 0
695 -2403 0
-1101 1703 0
-1669 -1249 0
2490 -715 0
-345 -2788 0
12 -1375 0
875 -1996 0
-2482 1428 0
559 1312 0
-2522 524 0
2547 -968 0
-826 -631 0
2660 2167 0
701 56 0
-1056 -557 0
-1617 -172 0
-602 2282 0
-2502 -2551 0
309 2793 0
11 -488 0
-566 306 0
-1125 1045 0
1320 -2795 0
-401 2584 0
224 -1980 0
-1147 -2705 0
-2377 -505 0
-659 623 0
-2532 2581 0
-1479 -1771 0
2036 2414 0
999 -1782 0
-1499 -1363 0
-178 1842 0
-2292 -622 0
-2752 576 0
-2150 -41 0
2712 -1990 0
2320 2045 0
129 2412 0
177 1243 0
-1240 -1637 0
2310 2601 0
-2269 1177 0
-2273 -1647 0
-111 2740 0
-78 -1098 0
981 -2220 0
-612 -1557 0
2180 1079 0
514 1119 0
1189 2809 0
2739 1109 0
-2007 1794 0
-1065 2233 0
-532 -2534 0
99 1516 0
474 -1032 0
503 2202 0
2468 -2246 0
-568 1501 0
-2094 -105 0
-1051 1606 0
757 1150 0
-1311 -1892 0
421 -469 0
-2429 968 0
856 -2046 0
-1059 -986 0
-706 -2062 0
-49 1348 0
-1850 -635 0
1470 -2111 0
2337 203 0
-1174 -715 0
818 -2000 0
-2161 -799 0
-629 1781 0
-1487 -739 0
-1222 1260 0
2535 42 0
-1429 -296 0
2321 1976 0
2069 2456 0
209 2301 0
1927 -1365 0
-2716 1268 0
154 -1969 0
871 -503 0
2142 2622 0
-586 -1465 0
-1458 -796 0
206 2597 0
1290 2432 0
1017 78 0
-1273 -257 0
1747 2706 0
1697 1369 0
-1944 -302 0
628 -1547 0
-586 2229 0
2392 -1544 0
188 -499 0
933 -1278 0
-2606 820 0
405 -2419 0
1682 1667 0
-393 950 0
-2518 2526 0
-1375 -20 0
2494 -1412 0
-2508 -1681 0
1158 2551 0
2581 2027 0
2446 702 0
1274 1379 0
-2017 932 0
-2127 -940 0
811 2320 0
-1981 -1758 0
2154 2791 0
1011 -1130 0
-697 1255 0
2759 -1306 0
2594 2703 0
-2556 557 0
418 2647 0
-438 44 0
-420 -2679 0
2754 226 0
-1140 -2220 0
-2465 -1719 0
709 1340 0
1841 -217 0
-2509 1156 0
2019 -2427 0
622 -1963 0
1449 -2382 0
-276 1641 0
-1726 95 0
383 -2484 0
694 -1519 0
2678 2764 0
1881 -911 0
1638 49 0
525 938 0
-2524 -2560 0
-1790 1380 0
-2366 -2260 0
-680 -1786 0
-1413 -1946 0
-1022 -178 0
901 1932 0
-151 113 0
1608 -2738 0
-1324 -46 0
785 -1676 0
706 2303 0
-2184 988 0
2152 -332 0
-2585 411 0
2757 2218 0
-1781 -130 0
-920 -1713 0
2376 2705 0
-2447 -1191 0
286 -659 0
913 -689 0
510 -2081 0
-952 2653 0
954 2460 0
-934 -1484 0
-1750 1193 0
-136 -1084 0
2230 2556 0
-1562 808 0
-170 710 0
-860 -36 0
-1204 894 0
-1980 -1631 0
-2048 -2478 0
456 2142 0
-650 1565 0
-1968 939 0
-2671 748 0
-2629 742 0
-2642 -1467 0
-1884 2132 0
1333 -1208 0
-2231 -2099 0
-2105 1620 0
-921 1251 0
1170 925 0
55 -2420 0
139 318 0
-1563 411 0
1731 639 0
-816 1673 0
1309 -1167 0
1915 -281 0
25 -758 0
-786 1569 0
11 -266 0
1570 -2266 0
1197 1004 0
2196 1419 0
-1218 2066 0
72 -2339 0
-2100 -532 0
455 2316 0
-1782 1188 0
-2061 -1016 0
750 -2546 0
-890 357 0
1033 -612 0
236 -41 0
-80 1827 0
-430 1189 0
-1861 53 0
-2125 -28 0
2233 1764 0
1529 -2236 0
-119 1038 0
1481 -945 0
-1356 525 0
-1949 -119 0
1261 1985 0
2642 -2359 0
-2128 2372 0
336 2610 0
-768 956 0
-2552 -2174 0
-1950 628 0
-402 2637 0
2333 -2345 0
-1873 1083 0
-75 -1914 0
-1116 -2582 0
-2029 2261 0
-1780 -77 0
894 1618 0
-1607 -941 0
1042 -363 0
56 -2187 0
2286 -1763 0
2616 -1214 0
1706 1000 0
1063 -1065 0
-239 -2746 0
-856 -1250 0
658 -868 0
-2058 1743 0
1516 1623 0
93 -2093 0
87 -647 0
-2488 -464 0
-84 2626 0
-1716 2604 0
-1993 -516 0
-2779 2489 0
929 2200 0
-1755 -1090 0
-2042 -2017 0
-2431 -2390 0
1702 -346 0
-60 2320 0
-2746 -1818 0
-338 1853 0
2639 -70 0
-1811 1638 0
1729 39 0
-1131 1330 0
1188 910 0
-916 -1558 0
-1106 -2662 0
-1313 705 0
-301 705 0
-2002 -2029 0
1305 321 0
-2458 -2061 0
-2388 532 0
2521 1685 0
-2414 -1542 0
973 972 0
2376 -61 0
-2061 -2520 0
1959 -2434 0
2744 -2212 0
-432 -1292 0
1901 2507 0
-1604 -670 0
-875 748 0
-618 1830 0
-345 -889 0
-1403 -1836 0
-1194 -2780 0
985 2445 0
-199 -1297 0
1928 2324 0
-977 727 0
-2377 -721 0
-1875 87 0
2036 887 0
2802 -118 0
220 -1949 0
1443 2147 0
301 -1973 0
1456 -1370 0
-1317 2308 0
2465 1528 0
-1131 -1961 0
-2147 -1057 0
-1766 -1198 0
-1757 -513 0
-256 -445 0
639 234 0
-1393 1769 0
-1591 86 0
535 -2185 0
-1737 -1121 0
-1425 1588 0
2182 1176 0
1334 2435 0
1298 2350 0
-45 748 0
729 1341 0
2762 171 0
740 -1107 0
-2794 -2427 0
2044 2026 0
479 675 0
1972 -2287 0
-1733 856 0
-545 -2255 0
-2327 -1015 0
-639 -1733 0
708 891 0
-316 -171 0
-1017 1081 0
-850 1261 0
1789 -1008 0
-272 -2771 0
-2401 -2203 0
342 2710 0
1200 -156 0
1403 -138 0
-496 -1955 0
-1646 -2307 0
534 687 0
2227 199 0
2425 2221 0
-2230 706 0
-355 -1787 0
-655 -1022 0
1666 1909 0
408 -924 0
965 94 0
-2641 -715 0
-2503 -2588 0
1864 -2151 0
-924 431 0
1098 2084 0
209 -2726 0
2627 -2259 0
520 1546 0
-21 -1787 0
-1501 1761 0
1095 877 0
2804 2083 0
-761 380 0
2183 1567 0
-2080 700 0
564 -483 0
343 626 0
-792 122 0
1456 1885 0
2397 1643 0
-1114 -103 0
-334 -234 0
2786 -1483 0
689 -262 0
-2455 480 0
-2318 2726 0
1600 -2534 0
2294 -464 0
642 2233 0
-1530 -1696 0
1082 32 0
-1968 1836 0
458 -2661 0
2637 -1565 0
2736 -1575 0
655 -1412 0
1780 928 0
-607 -2542 0
-2684 -1327 0
1841 231 0
-1637 -74 0
2153 -1102 0
-2543 2186 0
2655 -1604 0
185 426 0
260 2653 0
391 35 0
580 -1649 0
-730 1298 0
2050 -2761 0
1369 1101 0
2113 -1044 0
846 -2712 0
-1789 -1051 0
413 788 0
2157 -1008 0
859 -2056 0
1975 2721 0
-1538 1448 0
-2675 236 0
1813 -2091 0
1652 -1088 0
466 -1473 0
667 806 0
-1366 -1562 0
-1317 2470 0
-264 -1619 0
964 1465 0
-60 883 0
2472 -1581 0
2297 2225 0
2310 -234 0
-2295 -2478 0
-2287 81 0
1692 -138 0
-585 -2670 0
2297 -1069 0
-2228 -2186 0
-528 2091 0
991 -73 0
-2619 -1259 0
441 -2361 0
2547 -2046 0
-1209 -521 0
-1597 1775 0
2378 -916 0
-1972 2049 0
1063 393 0
1148 -990 0
-442 2614 0
-543 2182 0
-1842 -1331 0
-2199 -1944 0
506 -1241 0
1901 -597 0
349 -2069 0
1595 -597 0
799 1521 0
-736 -1248 0
228 -169 0
770 2339 0
-21 1143 0
1614 -1946 0
1210 478 0
-2027 -2699 0
-1723 -2500 0
228 1215 0
951 -213 0
337 2404 0
1368 -805 0
-874 1277 0
236 178 0
-2473 2239 0
1863 1936 0
2711 -783 0
-2722 1348 0
-1184 1284 0
-2128 -2230 0
2701 -346 0
-422 687 0
-429 1507 0
985 2125 0
-1614 795 0
1744 -2009 0
-1200 -2633 0
1315 -1102 0
-145 -1150 0
578 -497 0
2484 -1013 0
550 2734 0
-1235 -133 0
-2399 2134 0
2164 -2351 0
327 -1732 0
2270 1291 0
2529 -284 0
1645 2254 0
-1159 1726 0
-2798 -2122 0
-1109 -894 0
872 576 0
1684 1319 0
2287 -573 0
-1343 -301 0
-1834 -2806 0
-1354 -549 0
2561 858 0
-1530 1809 0
-2201 843 0
361 1185 0
726 2101 0
876 -1561 0
-1511 -863 0
1343 -1817 0
1338 -1059 0
1263 734 0
987 -2353 0
-69 -1198 0
855 -1755 0
-1630 553 0
646 580 0
986 1586 0
-845 -253 0
-1408 580 0
6 -1828 0
2442 -786 0
-2012 1826 0
2557 -1330 0
587 2276 0
-515 2539 0
-1623 -190 0
-945 477 0
-2517 1608 0
-430 -1936 0
1004 881 0
1956 -41 0
2222 -1055 0
-2058 -175 0
2782 -2076 0
-1657 2194 0
191 -1763 0
-493 -2681 0
1653 1467 0
-439 -732 0
-2795 -954 0
-306 -524 0
1480 88 0
-1276 598 0
-272 1802 0
-772 -2088 0
-1203 -1698 0
2606 -649 0
2495 -1029 0
1383 1129 0
-1939 -962 0
-1245 -1974 0
-76 -2042 0
740 -1821 0
-2572 -549 0
-996 694 0
-3 2061 0
-1225 -141 0
1687 -2797 0
2321 2068 0
640 2774 0
-272 1447 0
-1067 1152 0
2704 2784 0
2165 1556 0
-466 -2097 0
1093 -2011 0
794 -112 0
1035 -1881 0
2387 2128 0
1437 1036 0
-1221 -1026 0
-2097 -1561 0
-1528 -1035 0
-540 1230 0
-679 490 0
2034 2535 0
494 -307 0
-899 1517 0
-1481 1974 0
-1048 1195 0
-495 -686 0
-828 -459 0
-548 2803 0
-2401 -2665 0
178 -549 0
461 1531 0
-1031 -91 0
1742 -1787 0
384 -2483 0
1766 1256 0
2747 788 0
960 -2406 0
-2390 2724 0
-847 1888 0
1124 2013 0
-1044 737 0
-513 -130 0
-567 426 0
791 -1849 0
2773 591 0
-252 -1641 0
-1034 -1502 0
844 -2042 0
1608 1045 0
957 -21 0
-170 631 0
808 738 0
1104 -1407 0
-2719 -765 0
-1190 -70 0
-954 -1513 0
2065 -927 0
273 -451 0
1889 1941 0
1450 1486 0
226 70 0
-1490 -1562 0
1619 1061 0
-254 -2560 0
138 -1116 0
1727 1820 0
1205 -422 0
1266 1869 0
1936 -793 0
1333 108 0
-2448 -1037 0
1577 484 0
1087 407 0
-1102 -1023 0
2669 826 0
-2444 -1336 0
651 -1107 0
-189 -1891 0
738 -636 0
459 -2197 0
-1714 -521 0
2670 -1524 0
1864 1722 0
-2136 -2731 0
-724 1667 0
2006 -1962 0
294 -345 0
2686 1489 0
-723 -2296 0
-487 1776 0
1800 946 0
-2121 2444 0
1498 -690 0
-1646 -389 0
-288 177 0
-625 -2388 0
-1565 1753 0
2668 2720 0
-970 -2390 0
-206 964 0
2111 498 0
2176 1619 0
-1560 -167 0
2255 1302 0
-2560 -1346 0
-2451 972 0
-2753 50 0
1532 -1671 0
-2478 -1158 0
-293 -805 0
508 -1175 0
-1217 2760 0
231 285 0
39 2317 0
-2568 671 0
1650 1769 0
-2060 -2551 0
-1227 1445 0
1978 -2482 0
-420 -1236 0
1524 225 0
1744 -303 0
-742 -690 0
-595 -1758 0
2681 -1598 0
1151 1090 0
-2450 2383 0
-2197 -1248 0
962 155 0
1609 -480 0
105 2575 0
-409 1633 0
-1277 -1779 0
-783 -365 0
1463 2420 0
-1216 713 0
-1394 -727 0
-840 953 0
-2564 -2753 0
1333 -981 0
1640 -18 0
-2127 2140 0
-1591 -833 0
-2542 983 0
574 -1653 0
2497 1653 0
2424 631 0
-2646 1546 0
-1021 1603 0
2078 -2137 0
395 2772 0
-2762 -501 0
-802 -1836 0
-484 -1368 0
-1604 -219 0
-866 -11 0
-1679 492 0
-550 -436 0
-1418 -1275 0
-1029 86 0
-250 463 0
-247 1966 0
1618 2714 0
-2267 -1810 0
2203 897 0
-412 -2399 0
-1296 -2348 0
825 -2755 0
-605 -1821 0
-1820 -205 0
-961 -2385 0
-1216 -616 0
-550 2544 0
2430 -2359 0
731 92 0
40 -730 0
-1382 -951 0
-2079 -1085 0
-1150 2799 0
2178 -344 0
-2388 -1184 0
1840 1492 0
-2794 779 0
-2503 -2283 0
1760 1158 0
856 -430 0
2386 -1088 0
1895 -103 0
-1246 1166 0
1631 -2401 0
-347 1645 0
-217 619 0
2412 -955 0
-303 1747 0
2152 -2401 0
674 462 0
-114 -356 0
-84 959 0
-2331 1459 0
-459 -1591 0
1734 -1377 0
876 -14 0
1166 -1101 0
1162 -1724 0
227 1418 0
2639 2386 0
2276 -431 0
565 -296 0
-1779 -1397 0
143 875 0
-1835 10 0
-2377 129 0
-1335 -2128 0
-1861 -152 0
-1653 -1131 0
2063 -459 0
2325 -834 0
1729 2243 0
-1716 -2775 0
-2155 -2627 0
957 1472 0
1575 -657 0
1073 -1098 0
-1552 218 0
-1359 -208 0
-2333 -784 0
208 -2022 0
1880 -1897 0
2663 2220 0
-2181 2338 0
240 1312 0
-985 503 0
862 972 0
1092 -2534 0
-1317 185 0
1151 -2522 0
-914 83 0
-2062 200 0
-1403 -1803 0
-336 -1997 0
774 228 0
1640 2409 0
1217 -1541 0
-264 -694 0
2136 2365 0
215 -2280 0
2616 210 0
1019 -157 0
-2806 -1045 0
-1327 -751 0
255 -2626 0
-2035 2744 0
1727 -1933 0
1478 435 0
1834 -1034 0
1826 1487 0
-2553 1358 0
-1452 -2676 0
1231 -2128 0
2655 -769 0
-787 1485 0
-2775 275 0
-2047 -125 0
1751 85 0
1718 -2797 0
695 2744 0
678 -1646 0
-670 2669 0
1072 2723 0
-514 1275 0
-1801 -1735 0
2308 653 0
-2450 2167 0
1474 1764 0
1457 1171 0
-2014 1378 0
2701 1249 0
1652 2749 0
13 712 0
-1957 -1786 0
309 1340 0
-2286 -1406 0
-1846 2370 0
642 -833 0
117 -828 0
2428 -1584 0
-1708 -1906 0
-2416 889 0
2109 961 0
-91 -316 0
1868 -2089 0
2169 1380 0
2705 -2073 0
-694 -1683 0
-1682 -1229 0
2184 -23 0
1727 -1525 0
130 448 0
-2084 -2499 0
925 2628 0
2665 -2377 0
-288 1759 0
-519 -1914 0
1757 -572 0
30 -167 0
2428 -2533 0
-1978 1943 0
-554 206 0
-2296 770 0
-1502 1006 0
149 -661 0
-1320 -1503 0
-750 1845 0
892 372 0
544 -818 0
-2025 1243 0
-865 1950 0
2128 1584 0
117 2056 0
2341 -1339 0
2272 -475 0
-242 -1929 0
-1308 -1071 0
1391 80 0
2530 1425 0
-2099 286 0
-18 -976 0
-1860 -390 0
374 -1917 0
-1307 -2296 0
-2795 1427 0
975 -422 0
1209 -1037 0
188 -1159 0
-1813 -2291 0
-315 -1303 0
375 2123 0
1203 -1726 0
1688 1153 0
136 1224 0
438 1885 0
2413 1972 0
89 1979 0
-1822 866 0
336 327 0
-1214 -324 0
-1232 -1698 0
982 1580 0
1514 -1044 0
-1165 1008 0
-2418 155 0
2255 789 0
-1020 -39 0
575 1803 0
1268 2686 0
2741 637 0
2113 828 0
2541 -1676 0
-671 757 0
-1455 1803 0
2395 -2411 0
-141 54 0
-2466 1137 0
810 838 0
1891 1459 0
-2589 -2801 0
2520 -2572 0
1816 -2641 0
1103 -1121 0
-1165 -791 0
1849 1522 0
-75 -494 0
700 -165 0
-841 2693 0
-889 1072 0
1269 -1544 0
-2260 -482 0
2653 -941 0
-1561 2257 0
2064 -501 0
1822 2101 0
774 -656 0
1148 -2464 0
2182 2674 0
817 1807 0
522 -1537 0
2006 -2646 0
-1289 2059 0
1872 415 0
-2752 1122 0
-359 86 0
569 641 0
-1927 -993 0
2394 -2719 0
-1186 274 0
-487 -17 0
1591 2699 0
-641 -2569 0
-879 -668 0
-1240 2305 0
848 1560 0
-1961 2787 0
1665 -55 0
1141 -559 0
2322 -526 0
-1441 1142 0
2189 -2658 0
1070 2426 0
1903 -1051 0
2472 -2519 0
-2646 2448 0
1876 -1037 0
69 624 0
2536 -1515 0
522 -2717 0
-2618 1979 0
-201 -133 0
-1168 -326 0
379 950 0
1260 2392 0
552 -1797 0
-1514 29 0
1437 -1461 0
-2170 1863 0
2496 -356 0
1503 2732 0
-1744 -435 0
1108 -1566 0
1805 750 0
469 81 0
765 749 0
-1252 -611 0
-2546 -1033 0
1603 1939 0
-759 1758 0
-1266 1632 0
2414 -397 0
-28 1856 0
883 -2170 0
-96 1763 0
1114 -581 0
855 -1552 0
1149 1426 0
1913 2608 0
2496 1217 0
1640 -2550 0
-127 -1056 0
2387 43 0
-171 -1604 0
-2485 2603 0
-1830 -1851 0
2084 1573 0
1000 649 0
-1627 1902 0
468 -1938 0
725 -1593 0
-2652 -2022 0
166 -399 0
1374 -2506 0
2273 -1749 0
992 1678 0
-2802 1063 0
-1720 -341 0
289 -969 0
-2121 2706 0
-1595 -2714 0
-1275 -1185 0
2721 1844 0
94 768 0
1083 -26 0
1193 907 0
1534 -487 0
-211 -2138 0
-2566 -1027 0
1132 1228 0
1073 182 0
1971 -1576 0
-1264 -59 0
1627 537 0
1742 577 0
1226 140 0
2669 -2690 0
-1389 -1108 0
-1324 2315 0
-1908 2395 0
-1627 2305 0
-2510 337 0
-2641 1413 0
-1874 -1352 0
-337 2605 0
2243 -344 0
267 -2553 0
1072 -1113 0
1833 -1726 0
-2086 2723 0
-635 -1991 0
-36 -449 0
59 -1079 0
-1415 -1604 0
1168 -1475 0
-1321 1361 0
1344 897 0
-1327 -769 0
-339 -2729 0
2306 -1393 0
-2429 -2468 0
750 43 0
1854 -2655 0
534 1431 0
280 -2396 0
-2047 -94 0
689 1231 0
-1653 2412 0
-1882 -1212 0
-1902 -64 0
665 -2131 0
-2447 -2412 0
1817 -1538 0
2354 -2331 0
251 -2464 0
2117 -125 0
-2005 -2759 0
-1035 -1706 0
-622 -414 0
2091 -1646 0
-803 443 0
-2080 -554 0
-74 646 0
1718 2527 0
1432 -923 0
1442 1092 0
1093 2461 0
-2785 2467 0
1439 -886 0
-771 218 0
2688 1147 0
2110 -1084 0
-1282 1452 0
-119 -803 0
2198 1395 0
-2359 1987 0
92 1326 0
349 -853 0
142 -396 0
2593 752 0
-2460 -476 0
-1074 1806 0
2454 2113 0
-2072 -2770 0
898 1085 0
-1706 1561 0
2471 -930 0
382 2189 0
-1274 -1091 0
-1303 1911 0
921 -763 0
2187 -356 0
225 887 0
2387 -1284 0
-2289 122 0
1439 -2766 0
-2423 578 0
1834 -1624 0
-2065 748 0
2528 -1446 0
710 -715 0
2257 -2280 0
779 -380 0
-341 538 0
-2086 -2434 0
-1474 2585 0
-2522 -780 0
-1275 -1174 0
-2326 -1990 0
2663 -1074 0
-2341 -485 0
98 -834 0
1992 1310 0
-2469 280 0
186 -2077 0
2351 -2519 0
2404 -1248 0
2185 -2162 0
2098 -316 0
-1412 -1035 0
2526 -532 0
-378 1521 0
-373 -2618 0
-1597 117 0
-2166 2807 0
2676 -2636 0
-1826 -2485 0
-1757 -96 0
1600 1713 0
1070 -1818 0
-1440 -373 0
-1822 83 0
-976 -1088 0
2057 1340 0
1640 1156 0
2457 2804 0
-1959 155 0
2128 -1272 0
1429 1693 0
-1698 1415 0
-1056 1578 0
2021 1763 0
2327 421 0
-314 2186 0
1786 200 0
2224 -2063 0
-213 1350 0
-626 -1675 0
-2072 -165 0
604 227 0
1243 -1790 0
1533 -908 0
-334 -1005 0
-2766 -1444 0
1986 -1928 0
-2719 547 0
-1243 -2283 0
-2025 -2452 0
-1555 -334 0
-456 1888 0
1392 1089 0
-64 -1613 0
2186 2104 0
-371 -1889 0
-1365 -2679 0
976 -334 0
-2129 2096 0
-430 1711 0
1379 -1017 0
2183 -721 0
1753 -597 0
2569 -1040 0
1923 27 0
-1797 591 0
-2781 1173 0
-640 -2160 0
2423 -149 0
-932 562 0
2695 -2399 0
-299 627 0
-2805 2792 0
2715 -974 0
1888 -810 0
2261 -324 0
-1781 1705 0
-2750 -693 0
-2061 1546 0
-124 2496 0
320 -1444 0
-554 1473 0
-924 -556 0
128 -168 0
1693 912 0
1100 -2500 0
501 -225 0
-590 2261 0
2001 1308 0
1899 -1244 0
-1802 1629 0
2544 -1720 0
-725 85 0
-2454 419 0
-2504 -1183 0
-1861 -1310 0
-2754 2435 0
-28 -2103 0
-288 1049 0
778 -1820 0
-1052 1428 0
-1781 -2326 0
919 795 0
1991 949 0
-1261 -1776 0
-990 295 0
-586 -280 0
-351 1309 0
2118 -761 0
-1092 2078 0
2356 -351 0
-868 -173 0
1523 -1495 0
2526 -1499 0
2607 1914 0
-2446 2300 0
-1398 52 0
-1608 -943 0
2670 585 0
2366 -241 0
1437 -505 0
1905 -1513 0
738 -961 0
-550 -168 0
-800 1044 0
137 2090 0
1856 -2753 0
2103 -903 0
-391 -475 0
-1273 1300 0
-855 1158 0
2003 -152 0
-719 1931 0
1971 -2130 0
493 -250 0
-233 -1132 0
672 1562 0
549 1924 0
1745 1133 0
-2148 -616 0
-439 -2764 0
-138 2459 0
-2555 -2693 0
-1041 -748 0
1673 1067 0
2177 -2536 0
-2079 848 0
-389 1425 0
-1517 -1571 0
-1485 2736 0
1105 -797 0
-1331 -2647 0
-1101 -1563 0
-1759 -2162 0
2286 -274 0
-1553 1786 0
1889 -2223 0
366 -1635 0
-851 -1000 0
-1902 460 0
2203 -2679 0
-1351 -1933 0
2117 -800 0
1448 -2506 0
2517 19 0
-2289 1767 0
799 -1865 0
171 2413 0
-1286 239 0
2578 2300 0
2384 639 0
-2615 -2150 0
-234 1400 0
305 -316 0
-1241 -1235 0
1645 2098 0
2349 777 0
-2353 1404 0
-373 -2583 0
-1 1252 0
1004 2088 0
-1413 -2218 0
-1631 265 0
-2225 -271 0
2483 725 0
137 951 0
45 -1825 0
-346 -2493 0
-1710 -2174 0
-1467 -1607 0
-691 438 0
-2452 1672 0
1706 -499 0
-2497 812 0
-1469 1141 0
-88 -923 0
-789 1746 0
-2091 -2144 0
-418 1964 0
-24 -1481 0
-400 601 0
-65 1233 0
989 1362 0
1119 -1006 0
209 173 0
80 -282 0
944 -1123 0
-1343 345 0
-2115 -444 0
382 1894 0
-1625 2598 0
450 2423 0
766 -1922 0
-56 -607 0
-910 -2107 0
639 -816 0
-2486 -2122 0
1136 1189 0
-234 1009 0
764 2673 0
2602 -1349 0
-2669 471 0
-2158 -2517 0
-2355 885 0
-2769 1247 0
-2065 -2320 0
-952 1081 0
-797 -265 0
-1920 2694 0
1179 1439 0
-973 1108 0
2031 753 0
-2774 -1982 0
-1987 -1186 0
262 -1481 0
751 -2757 0
-520 1886 0
393 -2505 0
1644 -2777 0
893 1589 0
574 2507 0
-2705 328 0
-2561 876 0
-1164 36 0
115 2435 0
2379 425 0
844 2006 0
360 -2684 0
-1045 -1536 0
-221 -673 0
-2253 -745 0
-1131 -1341 0
-2717 740 0
1465 580 0
-2770 1294 0
1451 -869 0
-603 1463 0
-1285 1400 0
-1724 -1745 0
387 -1183 0
-1340 1177 0
-1907 390 0
-783 630 0
2663 2484 0
989 268 0
130 1203 0
-1961 -609 0
-1848 -108 0
-724 1441 0
1855 880 0
-353 1433 0
-724 535 0
517 -1787 0
270 44 0
-761 263 0
-1829 -577 0
-2164 -2443 0
-2153 -2780 0
1597 2382 0
-1556 -1439 0
2614 1764 0
-490 186 0
2788 -1205 0
451 1100 0
1396 -2777 0
-2268 1630 0
-857 1167 0
-1254 1442 0
-266 18 0
-2298 -419 0
-32 -2243 0
357 1397 0
-2297 -1989 0
-2250 -2663 0
-2058 2734 0
1470 2147 0
-1485 -1945 0
-2094 -1594 0
1751 -1721 0
-2700 -141 0
-2746 2487 0
973 -2454 0
-1477 357 0
1807 2057 0
-2469 2291 0
-2720 55 0
-1935 -1366 0
-1968 -2366 0
-2456 236 0
-786 -1666 0
1698 1061 0
-536 -769 0
2535 -532 0
-180 1146 0
1417 2678 0
1992 2313 0
1218 2757 0
-2314 -1026 0
701 -2621 0
-167 -2248 0
-2475 -2215 0
-942 -2722 0
653 1802 0
2390 -1793 0
1462 57 0
1716 1638 0
-1599 870 0
-483 2450 0
-1021 1975 0
-1384 -551 0
68 -2375 0
-1693 -2478 0
1840 -1820 0
-2260 -2251 0
2696 -276 0
-2122 -2279 0
-1199 -1721 0
-796 1502 0
-1933 2130 0
1738 1358 0
109 -468 0
1800 -2128 0
2460 -1165 0
101 -545 0
-2552 -2208 0
1699 472 0
-2272 1377 0
1364 656 0
2075 183 0
-1057 -1012 0
-478 -226 0
2112 -253 0
464 -2087 0
-1173 -1698 0
-2058 1636 0
2141 -2531 0
2697 610 0
2671 -1896 0
-941 1732 0
-315 1760 0
-1269 -1782 0
-1625 1004 0
-271 -1316 0
-1804 -382 0
-1289 -148 0
1991 324 0
-938 1003 0
-276 -799 0
2513 2164 0
569 -1557 0
-2089 1067 0
-1740 1744 0
-1884 1571 0
-1116 -2421 0
-1720 1712 0
139 2551 0
-918 -98 0
383 -554 0
-1530 2575 0
928 -188 0
-2531 -2152 0
2084 881 0
980 876 0
-1468 -693 0
1487 1028 0
1257 2516 0
820 1439 0
-2799 327 0
1176 1124 0
-635 1562 0
-41 -901 0
-1440 992 0
-1734 704 0
2076 -1737 0
-1402 826 0
-2342 2375 0
-2500 1444 0
-2245 -180 0
-2734 192 0
2412 1748 0
-1624 -1747 0
1974 -1660 0
-1583 -2497 0
-52 -1772 0
-1146 2124 0
171 202 0
-444 -353 0
-1568 -1336 0
-2146 -1295 0
1297 -664 0
-2750 1231 0
557 710 0
476 -2735 0
1005 -936 0
1959 2394 0
2631 63 0
-627 -1797 0
-1999 1462 0
1794 -1508 0
-688 -1376 0
-1956 1854 0
-1873 2389 0
120 1267 0
-452 1866 0
172 2637 0
-1557 110 0
1947 -751 0
-1566 -2229 0
1773 267 0
-1182 2309 0
20 -1346 0
687 -2127 0
-1147 1542 0
-376 -2722 0
-354 -850 0
-2278 2152 0
1073 -2782 0
173 -1155 0
2181 493 0
-1039 -253 0
62 -478 0
166 -1542 0
1133 1498 0
110 -1141 0
1152 -1095 0
1056 2791 0
2545 1014 0
727 369 0
2790 -1324 0
913 -2775 0
-1458 824 0
-218 -2045 0
1333 -392 0
2798 2496 0
236 1060 0
-1321 1923 0
2061 297 0
-1147 1164 0
-597 2136 0
2595 -1549 0
1987 924 0
-2388 -1530 0
617 2559 0
-2300 -1468 0
-1883 2213 0
677 -650 0
-2287 88 0
-276 1053 0
-1117 -1805 0
-801 -918 0
-1730 1741 0
646 398 0
2074 -207 0
-782 -256 0
-2488 1349 0
-174 -2155 0
-2770 -1332 0
-213 -1882 0
-909 2807 0
-1375 1645 0
-1794 1181 0
-428 -9 0
2529 1381 0
-18 1047 0
1932 2048 0
-2444 2413 0
2316 -1032 0
-294 -1 0
-54 957 0
-2351 -111 0
-88 1500 0
1888 2387 0
-1681 980 0
2434 2699 0
-834 693 0
-2709 2544 0
578 -1921 0
-177 727 0
-1005 863 0
2738 2498 0
2120 -2319 0
973 928 0
-532 -1050 0
-612 -1180 0
1463 2321 0
1411 2125 0
-379 -1060 0
2780 -2627 0
1889 639 0
2303 1428 0
178 2048 0
-926 2760 0
-751 -1681 0
-888 1298 0
2340 1916 0
-2127 766 0
1359 1998 0
-1704 644 0
-1682 -1637 0
1371 2332 0
65 1769 0
2733 1074 0
-2095 1527 0
1855 376 0
-1501 -346 0
2533 1493 0
276 -2288 0
1206 22 0
-1064 -2574 0
-977 -2723 0
-2699 1871 0
1023 2166 0
2492 2262 0
1693 -1575 0
-2001 -685 0
1344 1167 0
2417 405 0
-2285 -1385 0
-205 2662 0
1392 94 0
2177 297 0
-474 562 0
-93 -1878 0
-323 -1336 0
-2801 550 0
1666 1204 0
2631 545 0
2598 363 0
-1095 151 0
804 -2482 0
2610 2063 0
-2691 -5 0
-294 353 0
2006 -1754 0
866 2490 0
-2447 -1039 0
-917 -409 0
-2421 -1991 0
1400 -1008 0
1827 1654 0
-562 -629 0
1412 -2646 0
937 -2679 0
-824 898 0
2526 -2594 0
1026 295 0
527 -2272 0
2587 -2636 0
552 2562 0
1996 557 0
110 -940 0
491 -380 0
305 263 0
-2808 -861 0
162 1417 0
-1294 895 0
-2229 491 0
1361 1062 0
-108 527 0
1563 -1737 0
-699 -2482 0
-269 -184 0
1809 -2518 0
2143 1859 0
-2648 -1276 0
813 2455 0
-1676 386 0
1476 357 0
-462 -2314 0
2460 531 0
1192 206 0
823 2737 0
-2774 -2314 0
1508 -207 0
-1930 -2151 0
-113 -2681 0
-679 1337 0
1411 2445 0
-2479 -2399 0
-233 704 0
-211 1344 0
2628 -1030 0
2724 -381 0
956 -2032 0
2445 -2745 0
-445 -2334 0
-2401 -2335 0
687 1543 0
2750 -555 0
-1360 2303 0
80 471 0
2613 2049 0
927 457 0
-2391 660 0
-1770 1348 0
1574 -652 0
-609 -1593 0
-2012 700 0
2310 1552 0
-78 -1022 0
1104 -1806 0
350 755 0
-1267 2194 0
1089 -1769 0
-303 1235 0
-2082 -2069 0
1594 -974 0
306 -1372 0
-2276 523 0
2602 -2003 0
-174 1418 0
2281 -275 0
1638 226 0
2625 151 0
-1211 -488 0
1735 1066 0
1328 1144 0
-1626 939 0
-2543 -1859 0
958 8 0
1653 -1831 0
2257 1083 0
-308 1372 0
-2153 -1115 0
1374 129 0
2759 -577 0
-965 479 0
-886 -1913 0
-2362 2644 0
2261 1622 0
155 -34 0
2109 2356 0
2561 -1700 0
464 812 0
2074 151 0
1007 -1695 0
2455 -1803 0
-2331 -2769 0
-2558 2195 0
-2585 1153 0
-1771 1358 0
1362 1116 0
419 -884 0
-1322 67 0
434 -1856 0
2444 -2252 0
1414 2010 0
735 280 0
1338 2102 0
-2332 414 0
-2289 -1613 0
887 1252 0
-1721 -1839 0
-1749 -1259 0
-425 1454 0
-1451 634 0
608 -976 0
-89 1639 0
-1317 1152 0
40 405 0
-1123 2622 0
-2797 -2141 0
2697 1576 0
-2522 -1722 0
-685 194 0
510 158 0
2552 1953 0
-1745 -1724 0
-1840 -88 0
-341 737 0
-1782 -537 0
751 -1779 0
-1561 -1211 0
-2277 -364 0
-78 1691 0
-1695 -2201 0
-250 -1702 0
-205 309 0
-2088 -1436 0
-783 -662 0
-328 -572 0
889 -2524 0
1938 1448 0
2201 1241 0
1437 1156 0
1267 -154 0
139 224 0
-2351 1062 0
1224 -1096 0
-1899 1877 0
-1086 2371 0
-2185 -421 0
-2039 2544 0
1691 145 0
831 1086 0
1806 -691 0
-1410 -414 0
2440 -1898 0
-2408 735 0
-2674 -1882 0
1971 1916 0
390 -896 0
1173 1527 0
1077 -2475 0
-260 2513 0
-887 -1702 0
-2552 769 0
1183 94 0
-850 -1693 0
881 1450 0
-2028 -168 0
-1833 2410 0
1516 305 0
1066 -2390 0
-866 2021 0
297 2431 0
-786 2737 0
-2669 -7 0
-765 534 0
-1595 -2200 0
-1946 -244 0
1652 156 0
-10 -1071 0
289 -1877 0
-198 1858 0
2599 1142 0
-1289 267 0
2349 -189 0
1616 -2306 0
-582 1975 0
1195 -1235 0
2610 -1596 0
-181 982 0
-2462 562 0
-1668 243 0
-636 -310 0
-890 109 0
2580 350 0
-2497 -2722 0
1218 2414 0
1572 -204 0
-1841 -645 0
152 -1274 0
-1690 2457 0
-1996 1176 0
8 2451 0
-1702 2658 0
2165 1982 0
1967 -1499 0
2326 2578 0
1827 1776 0
2264 967 0
-261 -2108 0
-1378 1118 0
-15 984 0
-2411 -2534 0
-1035 1480 0
-2536 2129 0
-103 -237 0
-372 -1608 0
-2032 874 0
-1984 964 0
-2160 134 0
2168 -2145 0
-1755 2222 0
2616 411 0
2528 -954 0
2176 -2076 0
-2560 2140 0
-1284 417 0
2377 -1020 0
1535 949 0
1833 895 0
1510 1073 0
1386 537 0
1304 -494 0
2078 -1780 0
2079 -1989 0
1009 -1476 0
-2803 -632 0
-2658 2246 0
271 1344 0
1798 -2503 0
1290 -975 0
-2657 -2270 0
2090 -1939 0
-1505 -2016 0
-163 -851 0
1901 -1137 0
1550 310 0
-1331 2625 0
-2700 -1944 0
1794 1341 0
-2232 -379 0
2241 -2095 0
1224 1958 0
2172 791 0
1656 1619 0
-2211 -67 0
-1326 -1168 0
-2433 -572 0
2153 -918 0
-1147 694 0
1485 -195 0
1393 2054 0
2387 -2043 0
-1797 -2567 0
-692 1152 0
1114 -463 0
1860 578 0
199 -428 0
498 -185 0
-2690 -1509 0
-260 -916 0
-1755 -1170 0
-2519 816 0
-716 105 0
831 -2128 0
1105 -2425 0
-1593 1894 0
-2349 386 0
-1174 -1 0
-136 -379 0
-1137 -389 0
457 -15 0
-64 -744 0
-524 -57 0
441 -1324 0
2134 -989 0
1590 538 0
-1574 732 0
2606 897 0
642 821 0
506 2048 0
-2260 -542 0
2749 -2116 0
440 695 0
1629 1448 0
-2318 273 0
2434 -2102 0
-1029 -1537 0
-2727 2520 0
-2411 2457 0
-1092 1625 0
1932 320 0
295 -1542 0
-1151 2434 0
-456 -2517 0
1715 157 0
841 2430 0
1175 955 0
1835 -716 0
2121 -2160 0
-522 2667 0
-2273 2019 0
1244 1239 0
-1292 1690 0
-2172 766 0
-1844 -257 0
-1575 1423 0
1089 -1778 0
-1297 -1669 0
-1553 1767 0
1572 -306 0
-1878 1545 0
1849 915 0
-2473 -2708 0
338 69 0
496 -2454 0
2687 -2429 0
843 2782 0
407 1470 0
2358 985 0
-1155 1995 0
-1259 374 0
320 -551 0
-2727 1866 0
-1624 2778 0
2055 163 0
-488 1110 0
-2447 1441 0
2449 -2389 0
672 -939 0
186 -721 0
-2168 -1868 0
904 1191 0
-1804 550 0
2780 692 0
2100 2281 0
2231 -736 0
831 2722 0
1812 -1154 0
-1137 -135 0
-2503 2709 0
-1324 564 0
-2245 5 0
-2403 -1264 0
2620 -1955 0
1058 -118 0
-381 -1102 0
-2112 2052 0
-698 2622 0
-640 -1628 0
-2686 473 0
2772 2097 0
850 -2796 0
-26 -2313 0
2018 160 0
-2803 -2667 0
403 -1458 0
-88 -211 0
1832 -1627 0
1809 408 0
-2694 -2671 0
1427 -396 0
2228 -636 0
1877 -2743 0
-1148 1671 0
63 390 0
-1781 2117 0
2235 1199 0
2026 -835 0
1528 -692 0
2346 2383 0
-2552 615 0
-1179 1110 0
2767 615 0
-2349 1560 0
547 1939 0
-690 2026 0
2776 2154 0
-90 -1898 0
-2673 829 0
1870 920 0
-2419 -730 0
-1378 1802 0
-2714 1065 0
-988 -1277 0
146 -948 0
-78 -761 0
-1900 -1173 0
882 2309 0
-1641 -2219 0
1058 -65 0
-6 2536 0
1987 115 0
225 -101 0
-1686 -715 0
-170 -618 0
-1524 -119 0
-1264 -2026 0
-1202 -2397 0
-2752 2189 0
841 -196 0
2279 1046 0
-1225 -1837 0
542 486 0
1794 -546 0
-1854 1918 0
1189 2085 0
-818 392 0
2398 2514 0
523 -659 0
-1602 398 0
1255 2459 0
-572 -1916 0
1000 1352 0
2737 -15 0
-1308 2780 0
-217 -467 0
-427 446 0
507 2581 0
1954 -107 0
2724 525 0
1666 -691 0
-1708 1944 0
-564 2463 0
2100 -1964 0
-1816 515 0
-38 1963 0
-813 -255 0
-2428 -2756 0
2145 -1092 0
950 670 0
2034 2198 0
-2494 -2168 0
846 -1289 0
-1968 1520 0
2372 -1053 0
2562 -1708 0
-1295 -655 0
288 -168 0
1308 -2426 0
-1424 -1286 0
-1605 -1908 0
-1914 -2723 0
-2159 -1894 0
-2615 1277 0
-272 -1925 0
245 199 0
2077 -585 0
-975 -2239 0
2075 2751 0
-19 83 0
-803 2064 0
1608 614 0
-1481 -547 0
-400 -532 0
-1629 -1835 0
-1112 2138 0
969 -1816 0
1234 1260 0
2134 -375 0
-1905 2387 0
1440 340 0
-952 301 0
-334 1591 0
-2698 660 0
-724 -1283 0
1024 506 0
761 500 0
2475 185 0
1672 1051 0
-1317 1760 0
1897 -728 0
146 -2749 0
2057 2 0
1931 709 0
1891 -377 0
-60 1876 0
-554 1417 0
-2699 1503 0
182 -649 0
990 893 0
2354 -168 0
2592 1108 0
1423 -2046 0
-688 -378 0
-1598 754 0
-2617 823 0
56 -202 0
2167 -581 0
38 2162 0
-1942 -1397 0
-816 -2124 0
216 -618 0
-1541 2398 0
1423 -797 0
423 1605 0
646 -2384 0
2329 -474 0
2474 653 0
2419 69 0
731 516 0
-2307 921 0
-1763 2486 0
1310 1444 0
-2006 -2576 0
-1563 -2056 0
1310 -839 0
1276 2683 0
1399 919 0
-2359 1749 0
366 -1382 0
664 1171 0
1845 417 0
1005 -1692 0
2748 -937 0
-1017 1218 0
655 -109 0
-2696 1586 0
-2280 440 0
578 172 0
-2531 -1537 0
40 1619 0
2261 1584 0
-2513 71 0
-2431 -784 0
-2643 -822 0
-529 2782 0
-2656 2355 0
2133 -483 0
-1256 2230 0
-1469 -2624 0
-1051 1702 0
183 -288 0
1961 812 0
1063 -646 0
-1608 -1003 0
416 -2272 0
-1413 1595 0
410 -2485 0
-1254 -2275 0
-1786 1675 0
-1568 -2255 0
-1236 758 0
-625 -328 0
1444 759 0
2082 -1621 0
488 -2216 0
-2676 -1592 0
1321 -1321 0
-395 -1749 0
191 1151 0
2349 -2220 0
-758 -981 0
2107 -1560 0
-2474 765 0
-1222 -2724 0
2431 2338 0
-2704 1769 0
-516 1875 0
2797 -1106 0
756 2546 0
-2185 2293 0
-2227 1748 0
-1634 -2162 0
-2809 -1947 0
823 -823 0
2262 448 0
1966 1853 0
-1445 639 0
1078 -2646 0
1075 1077 0
686 89 0
2380 -1932 0
-2127 -95 0
382 -1876 0
1390 -365 0
-2161 -843 0
1413 2579 0
-758 2402 0
1300 556 0
2544 2579 0
-2323 -1623 0
397 1042 0
-2749 -2437 0
-1346 1849 0
446 1234 0
2705 -1717 0
-851 1433 0
301 -2506 0
39 1396 0
2663 381 0
-2684 -736 0
-1958 -800 0
779 -1075 0
-93 -1651 0
1799 1283 0
1305 -565 0
700 2549 0
-1630 1125 0
654 637 0
-736 73 0
-1107 2631 0
-1875 1614 0
1225 2738 0
58 223 0
-2473 -1177 0
-244 1093 0
1525 -355 0
-470 -824 0
1838 -1041 0
-683 -2699 0
744 465 0
1948 1480 0
1790 -968 0
-1175 2033 0
2637 -729 0
-6 408 0
2203 313 0
-2376 -592 0
-15 -2045 0
653 -2620 0
235 -1146 0
1842 -97 0
1324 2258 0
-379 -128 0
-1182 -579 0
-1279 -956 0
216 -2082 0
-208 -2436 0
-2641 1524 0
2269 36 0
1640 2522 0
1695 -1086 0
-1754 1688 0
-449 -2658 0
95 -2488 0
1444 -2719 0
-945 693 0
479 1504 0
2525 -1906 0
-419 706 0
-553 44 0
235 -21 0
1504 235 0
-908 234 0
-2770 -339 0
1599 -2700 0
2041 -1508 0
-346 -2781 0
1212 -1582 0
1590 -817 0
-2325 2367 0
-1450 1051 0
2183 735 0
2417 -1307 0
1573 -2567 0
1497 695 0
-2493 -1093 0
454 -1629 0
-2579 2523 0
701 -2283 0
955 2501 0
-1874 -1620 0
-206 -444 0
2179 1452 0
-403 -2553 0
2148 -2625 0
-1366 2197 0
-2494 988 0
363 232 0
1856 1757 0
1114 1148 0
-2002 2663 0
425 -531 0
-2521 -455 0
-629 618 0
-436 2410 0
-2242 833 0
842 -2177 0
2322 -1237 0
90 2084 0
-1205 -6 0
2313 1479 0
-1779 -617 0
1462 202 0
-896 1867 0
-1952 -473 0
-1730 -770 0
2571 -1453 0
-934 1748 0
2180 -1016 0
27 -628 0
399 -1843 0
-1823 282 0
-2394 -1505 0
-2219 1137 0
-1143 -2215 0
-1060 -874 0
-2163 1953 0
815 1435 0
2342 2063 0
-739 2476 0
2112 -1644 0
-2556 -2126 0
926 -2636 0
303 1351 0
-654 517 0
-405 -1296 0
1879 145 0
383 2705 0
1193 683 0
1452 1062 0
-541 -100 0
526 1659 0
1633 -1606 0
-1806 -247 0
1379 -1554 0
-1170 -2714 0
-192 479 0
-1993 -2639 0
200 1255 0
-1621 -424 0
2080 -2635 0
-1339 457 0
-2234 -1446 0
2346 -958 0
-9 -16 0
-274 97 0
-2722 -2380 0
-1906 2440 0
-551 1265 0
1018 1792 0
2597 -2146 0
-1582 85 0
1619 1950 0
1538 1425 0
1649 2420 0
995 1871 0
2645 -2641 0
2737 -748 0
-1122 -1491 0
1447 2322 0
706 -2191 0
-2107 -1015 0
1978 -2555 0
-1438 469 0
-2626 -1337 0
-1727 1190 0
2686 -1865 0
-1744 2597 0
1744 1639 0
534 -2774 0
142 -654 0
-890 -987 0
-1815 1194 0
-127 -1571 0
1138 -2371 0
-2346 2689 0
496 580 0
1653 -101 0
-1306 -557 0
-1019 -1013 0
-2279 -962 0
-464 1954 0
390 1734 0
805 1754 0
770 291 0
766 1003 0
811 -1483 0
-1601 1148 0
1571 755 0
-2389 -993 0
-1964 978 0
1564 -1771 0
78 -1087 0
1522 1761 0
-2044 1987 0
1426 1608 0
2588 -2590 0
731 -548 0
1743 -267 0
959 -1685 0
1672 1405 0
-399 292 0
-1601 -2313 0
-1508 -1216 0
-159 700 0
-571 -449 0
389 2258 0
705 1493 0
2203 383 0
-493 -2473 0
2772 -830 0
673 1752 0
-2518 -1719 0
519 -1106 0
-2077 115 0
-543 -675 0
-1930 1859 0
838 -1418 0
1452 -2671 0
-2769 -1662 0
273 1600 0
-2253 198 0
-2155 -682 0
1396 -753 0
2009 -552 0
440 2509 0
2442 -194 0
-2431 -1165 0
488 -444 0
1862 -355 0
623 523 0
1399 585 0
1498 -865 0
2751 738 0
-1701 -1222 0
-2040 -690 0
-234 969 0
-2419 467 0
2786 1217 0
383 -880 0
2521 2091 0
2346 -736 0
1968 113 0
-81 -190 0
463 1212 0
-1392 -1951 0
2601 2251 0
1879 1387 0
-554 -878 0
-2402 -1182 0
-2632 1296 0
2623 -1158 0
-1322 -651 0
-1478 -2698 0
-1600 -1199 0
-2615 -2169 0
-204 -2078 0
-1954 291 0
281 -1655 0
-1920 1456 0
366 -676 0
-606 1131 0
1041 1110 0
1024 1840 0
-1293 -346 0
-5 2054 0
-2223 1899 0
1263 -316 0
-135 494 0
-2770 -1007 0
1689 2347 0
-227 -2024 0
-275 1429 0
405 -147 0
-1610 1589 0
1573 -374 0
-1706 1310 0
1570 724 0
-2386 1794 0
-2160 476 0
1217 -1135 0
-1914 -2458 0
2195 120 0
-629 -1416 0
942 -183 0
495 -800 0
-1477 1452 0
2742 -2302 0
1069 446 0
-225 -153 0
974 1497 0
-2031 -172 0
-766 -375 0
902 1023 0
759 1973 0
-1296 -2124 0
-2481 2147 0
-310 239 0
940 1678 0
960 -2256 0
-690 -1120 0
-290 -1155 0
500 -1297 0
2721 1806 0
-90 1214 0
1776 1423 0
-1336 1658 0
-300 1261 0
748 795 0
-1048 -743 0
72 542 0
-554 -2109 0
-791 1504 0
2057 -263 0
-2561 2405 0
2438 920 0
33 -213 0
984 685 0
2707 -1910 0
-1 2275 0
-1384 265 0
2158 -590 0
2408 1974 0
-1161 -1699 0
-1053 -346 0
-102 -1869 0
1870 619 0
1416 1887 0
-1213 929 0
-191 -53 0
2346 -1189 0
-1505 2533 0
2057 735 0
-537 -1341 0
-1354 2027 0
2441 752 0
1153 -1939 0
515 -2177 0
1804 -1336 0
-2646 739 0
921 -77 0
608 -255 0
-141 -2438 0
-554 -538 0
395 1987 0
2172 2338 0
2621 126 0
-1714 -1025 0
813 -2676 0
-1263 1044 0
1497 -683 0
1010 -2484 0
-965 -926 0
2020 -2530 0
1689 110 0
-739 1110 0
-2414 1396 0
831 456 0
576 1788 0
-52 1650 0
-172 -1303 0
-2181 295 0
-697 -2014 0
-2055 -974 0
-2314 -2762 0
-58 -2252 0
494 -2642 0
2367 -1820 0
-588 -1664 0
1013 -868 0
2582 2038 0
-525 2372 0
-148 708 0
703 -673 0
-2164 -21 0
-2640 2419 0
2740 -529 0
-1682 -2130 0
969 509 0
-1222 -1678 0
837 789 0
-1124 1365 0
-1758 -1236 0
-1843 2329 0
1681 2601 0
78 -824 0
56 2001 0
-1203 1794 0
-2585 -689 0
1907 -797 0
921 -1878 0
-2718 2713 0
2689 2710 0
1110 1507 0
409 2582 0
-1383 -1896 0
-1041 -697 0
25 2270 0
-212 1495 0
-615 727 0
-97 380 0
1231 -494 0
1858 1875 0
-1840 -1375 0
-371 -230 0
-1409 1431 0
-2737 1791 0
298 -2061 0
-783 146 0
-1834 -2089 0
-631 1004 0
-315 -2266 0
-1143 216 0
2198 2029 0
2409 855 0
-2187 1862 0
-2778 2010 0
-1527 1345 0
2660 2786 0
308 411 0
-1198 2240 0
-1656 1983 0
192 1508 0
2587 1011 0
243 -211 0
712 -2276 0
-2190 -784 0
-2737 -1258 0
-388 -2711 0
-850 301 0
-2326 -2497 0
1376 -1367 0
-2768 -508 0
-205 175 0
336 -212 0
-2494 -1417 0
2227 -2324 0
-1909 -502 0
2311 1325 0
2198 7 0
1120 446 0
1999 -285 0
-1744 -2747 0
1370 1070 0
303 -2076 0
2031 1611 0
-1713 1011 0
-73 -777 0
169 -1685 0
-2254 2202 0
841 1018 0
250 2104 0
-2128 -2553 0
1930 -2790 0
-2693 -1999 0
2076 -1698 0
791 -2569 0
519 1467 0
1870 501 0
-1467 2148 0
-517 -2797 0
-1168 2033 0
564 -2594 0
482 -1552 0
1009 2175 0
-1694 -1829 0
-2188 -1982 0
236 -308 0
-1166 -2671 0
2186 -261 0
2214 -1992 0
2337 15 0
78 2519 0
-2530 -1209 0
-24 2433 0
-2640 -2034 0
-2336 -354 0
2397 -1640 0
1574 -2228 0
-373 2454 0
-2185 -1560 0
-1 1763 0
-2792 1248 0
-163 -152 0
-2712 1435 0
-886 617 0
-1957 -373 0
954 -1165 0
-1810 -1613 0
758 -450 0
998 2202 0
-467 475 0
2443 -2240 0
-2046 -822 0
2254 -2450 0
-1474 -592 0
1655 -2357 0
-2025 1104 0
-2650 -253 0
-1393 2537 0
1456 -2014 0
1118 575 0
-2223 646 0
-2400 434 0
1054 -2624 0
1136 -1980 0
1904 1749 0
-59 -539 0
2514 -1925 0
-1864 1967 0
1761 -1714 0
1945 -298 0
596 723 0
-2350 -1410 0
714 -203 0
-548 58 0
43 -1000 0
1977 -279 0
83 -48 0
520 -2697 0
-1565 1539 0
-1436 1515 0
-2102 2687 0
-977 -991 0
2804 933 0
-234 480 0
-610 -317 0
-886 -706 0
1975 -1351 0
991 1918 0
-2613 1265 0
2530 1904 0
-533 -2364 0
1767 -269 0
-1647 790 0
-2047 2099 0
1902 -1511 0
1252 957 0
159 1089 0
2132 -381 0
-2005 -1508 0
680 -2681 0
-1349 -2183 0
-1998 -1141 0
-758 -368 0
-933 320 0
1222 -595 0
-1714 -1963 0
-2806 752 0
-1771 -1927 0
-2485 1810 0
-2566 -346 0
-996 -2173 0
-2649 -1630 0
1609 2226 0
893 -1057 0
327 -1187 0
-901 454 0
1913 -1346 0
2802 -400 0
2577 1084 0
234 740 0
-1402 -655 0
2350 717 0
2616 2514 0
1472 77 0
-1978 1167 0
-1582 944 0
-1679 568 0
642 -378 0
2449 -595 0
-1281 -1120 0
-1814 749 0
-2174 -971 0
-616 -1285 0
2660 694 0
1523 -138 0
408 2593 0
-40 1973 0
-1121 459 0
-806 676 0
-1681 -2086 0
1459 505 0
869 -180 0
13 2354 0
-590 2639 0
-2341 765 0
-1026 286 0
-2016 2100 0
-1083 2623 0
2580 -1888 0
-2677 1004 0
-820 1614 0
-530 2623 0
1310 2083 0
-758 1532 0
-779 -325 0
2483 -2717 0
-1187 2578 0
2361 2131 0
2474 -2018 0
172 -2640 0
353 -1452 0
-52 -979 0
-1793 -119 0
1886 1535 0
-2242 -1034 0
685 1928 0
2616 -2098 0
-1344 -2373 0
164 -2551 0
1226 -1753 0
-1028 -1815 0
-1128 1479 0
-629 2460 0
-2684 2737 0
1773 -2162 0
-1592 -1028 0
-2106 -971 0
1454 2696 0
279 2174 0
-2267 2581 0
352 2105 0
1983 2326 0
-911 -2770 0
345 -1723 0
-64 -385 0
-1391 -1676 0
166 165 0
-1664 -1645 0
1401 1248 0
-2115 -964 0
2446 1915 0
1119 -561 0
2727 636 0
-1236 -1701 0
-549 -2127 0
1658 2036 0
-602 -1857 0
601 1869 0
2684 -1109 0
72 -1981 0
-2647 -667 0
-2148 -882 0
2320 -2155 0
-1914 -605 0
1878 105 0
2246 -8 0
-796 -2741 0
1753 -2043 0
2100 617 0
-159 2192 0
-399 -2546 0
2078 -508 0
-1677 2340 0
-1872 949 0
-1063 -2796 0
-300 -1697 0
1876 2646 0
-977 -1215 0
2616 -1306 0
2284 2574 0
2451 -1250 0
-2485 563 0
-1950 -2673 0
98 1490 0
-2382 -1987 0
-1514 2113 0
1736 1403 0
2156 1425 0
-419 -2292 0
-24 -144 0
-2779 2139 0
-2718 -2088 0
-1828 -280 0
-1805 -640 0
-563 1124 0
921 87 0
-532 871 0
-658 -298 0
-246 -1557 0
-2561 2198 0
1495 -2614 0
1368 1550 0
-2730 901 0
989 2074 0
-2719 1002 0
-2775 2269 0
1079 -2699 0
-2373 2101 0
-1761 -1010 0
-925 -9 0
-1259 1687 0
2546 -2793 0
2262 -1560 0
2351 -1131 0
-2448 452 0
-2495 244 0
1046 1297 0
116 1550 0
-2506 -164 0
994 -810 0
-1644 -1730 0
-2277 2248 0
2668 1241 0
-124 2717 0
-1583 1619 0
-1156 -1976 0
949 -1028 0
1907 -2301 0
-2158 2683 0
-797 -2560 0
751 -2226 0
-2185 1565 0
25 -2780 0
-1829 -1051 0
811 2445 0
-732 2806 0
-1683 1382 0
141 -2162 0
-1607 -2770 0
960 1836 0
199 1323 0
2330 1349 0
-299 146 0
-2720 -584 0
418 -2443 0
-1707 1487 0
69 -153 0
-1366 -1735 0
1475 2662 0
755 997 0
-16 2337 0
-1912 451 0
1897 -487 0
-2042 -1257 0
1540 2584 0
-410 -861 0
-1921 -2408 0
1459 534 0
752 2334 0
2512 1121 0
2528 -1939 0
1376 -1155 0
1818 129 0
1663 1133 0
2149 2092 0
-957 -953 0
-1696 2261 0
-1188 -566 0
-30 1142 0
-1233 2293 0
-1172 -1908 0
2071 -41 0
-2664 -1011 0
1743 -1848 0
2802 -1602 0
1026 -2611 0
-884 62 0
353 -304 0
1160 1438 0
-861 -1797 0
-1023 -771 0
1805 -2524 0
-1726 -1152 0
1289 809 0
1399 46 0
-1780 -1527 0
-1206 -2089 0
-1705 1300 0
-2362 -866 0
1911 2635 0
2638 1119 0
2491 2090 0
-2479 -958 0
425 -2036 0
-1221 1308 0
2766 1401 0
-2578 1748 0
-2632 950 0
291 -2604 0
190 -97 0
-1377 2349 0
812 -1399 0
-849 -5 0
-1660 -1907 0
568 1363 0
1417 1011 0
-1042 1809 0
890 -153 0
-2419 -260 0
-991 -1716 0
1202 -685 0
-2801 -1148 0
789 -2394 0
-1115 1036 0
2041 -458 0
1365 2311 0
-334 -697 0
-932 2052 0
-205 1474 0
-2532 2106 0
805 -1224 0
-2705 -264 0
-40 2549 0
-991 -1550 0
395 -528 0
-1831 -336 0
223 -462 0
1404 27 0
-1020 -999 0
-1397 1228 0
2101 845 0
1288 -658 0
-2708 -2545 0
-2377 -134 0
1528 -1522 0
-1825 -684 0
-952 -2656 0
-2388 728 0
-2456 -2114 0
-680 -2172 0
535 1177 0
-528 -659 0
-579 2101 0
1386 -1389 0
-2275 2398 0
-2566 2607 0
1928 -1035 0
1215 1128 0
2129 1105 0
-1749 -2488 0
-956 505 0
497 2199 0
2326 921 0
1360 653 0
298 2006 0
-2572 -1488 0
1388 576 0
1063 -207 0
648 2662 0
1702 1290 0
805 -593 0
-909 -33 0
408 1665 0
31 -1505 0
-2732 1910 0
557 1242 0
2632 1889 0
1141 2090 0
2683 -2376 0
-2748 -2377 0
-2530 -2749 0
1717 -1582 0
2507 2473 0
251 1358 0
313 1729 0
-2208 2351 0
-1215 -1094 0
-248 -1992 0
-1157 27 0
-2679 -1100 0
-770 1249 0
-172 2762 0
1381 1572 0
-716 -556 0
168 883 0
-2168 78 0
8 -1315 0
-1542 -2075 0
-2688 -2260 0
-2626 -1480 0
-1058 2412 0
1400 531 0
199 -2653 0
1332 -355 0
1023 1941 0
-2089 2628 0
-1102 1011 0
2713 -430 0
2471 -2436 0
2133 142 0
-2773 -1001 0
-387 249 0
-264 1030 0
433 220 0
735 1869 0
-1358 395 0
1600 -1754 0
483 2243 0
-2416 -2497 0
595 -1146 0
909 -1835 0
-2194 2678 0
-1272 1724 0
367 275 0
-693 2098 0
1665 -1067 0
1038 -1116 0
-941 -2369 0
2027 2598 0
699 -602 0
4 8 0
789 1829 0
-293 -234 0
-274 -483 0
-2160 1883 0
-568 87 0
1967 -1425 0
1617 -2605 0
1729 -1147 0
743 -2792 0
278 2238 0
1241 -1774 0
-468 2424 0
2284 -2039 0
1023 894 0
921 -1822 0
-2011 2300 0
-1776 -2698 0
1073 -1074 0
-1799 -776 0
-1391 -1464 0
2235 -2670 0
2263 1259 0
1807 -2002 0
486 2354 0
56 1080 0
-2165 -1848 0
-2625 1590 0
137 -2188 0
1140 636 0
2031 842 0
-180 1924 0
-501 -2559 0
-2011 187 0
-2490 2108 0
-2019 2691 0
-1669 -1235 0
-1382 2251 0
1599 1699 0
-1178 559 0
-943 -375 0
-918 -953 0
1064 1192 0
1089 -1493 0
-611 263 0
1656 -2514 0
-141 -1543 0
2486 2595 0
177 -2611 0
-2426 -1343 0
1719 -1186 0
-843 1170 0
55 713 0
928 -201 0
-1393 -2605 0
1602 2586 0
-1553 1989 0
1214 235 0
-1599 479 0
6 454 0
2695 -2250 0
2157 2045 0
-1962 -301 0
-2447 2211 0
505 559 0
375 2521 0
2051 320 0
871 -462 0
832 -1362 0
-866 188 0
-2336 -854 0
2368 -1908 0
1835 25 0
89 -1155 0
-193 504 0
-997 -376 0
2614 897 0
419 -1184 0
1683 -1701 0
105 451 0
-1183 -499 0
2752 -1844 0
-423 2426 0
1539 -65 0
2738 2256 0
-1729 440 0
2689 1232 0
-1518 -1509 0
830 2489 0
-590 -112 0
-344 -113 0
-2760 951 0
-1706 -847 0
-728 -2475 0
1821 495 0
809 -2456 0
-478 -77 0
-170 2221 0
-2493 -2035 0
2565 -676 0
1534 -1583 0
-1877 -579 0
1911 507 0
338 -288 0
858 -2369 0
-2129 1576 0
-2732 1390 0
-397 2130 0
2305 1839 0
984 -1680 0
-2185 811 0
-1805 -1962 0
-1341 -2592 0
1442 2324 0
-2714 2125 0
1966 -318 0
2495 251 0
374 1842 0
1575 2186 0
-1965 1237 0
956 -635 0
1940 2267 0
30 -1370 0
-1343 -1551 0
1179 -882 0
853 1489 0
-1 -143 0
2408 107 0
-561 -1131 0
2807 -2362 0
-2502 2616 0
1119 1286 0
-2119 -739 0
-1337 -60 0
-2111 1279 0
559 -1623 0
2549 -114 0
1224 -2022 0
-1403 -973 0
835 -2421 0
2336 641 0
535 -2603 0
419 1567 0
2214 876 0
1177 -626 0
1584 -2042 0
-549 2047 0
189 62 0
-1252 -1020 0
-2038 512 0
-1520 -1556 0
1840 -1515 0
-1698 2045 0
-1436 -2758 0
-2440 806 0
-2612 -905 0
1072 506 0
1832 2346 0
-710 -2466 0
2602 2031 0
-586 -746 0
1814 171 0
1149 -560 0
-1225 -2584 0
-2184 -618 0
-2670 973 0
1345 -1677 0
2798 249 0
-2157 2547 0
2682 1543 0
1538 2791 0
2521 518 0
1441 441 0
-956 -1112 0
1969 802 0
811 -2365 0
1537 980 0
927 -2073 0
-958 -415 0
-1576 -240 0
2241 -806 0
2631 -2367 0
-267 -452 0
652 -1741 0
-691 2783 0
-1003 -2049 0
-419 -1851 0
416 -261 0
-728 2607 0
-1191 -967 0
-1994 -2536 0
2034 2388 0
-524 888 0
-868 39 0
1266 -1894 0
1857 1018 0
-306 -792 0
-2492 -1362 0
-588 1719 0
-2093 446 0
-2018 1238 0
1184 2767 0
-611 -2794 0
-2334 -631 0
-1453 -2730 0
1871 -4 0
2096 -2126 0
1910 -2722 0
-109 -2676 0
-2559 -562 0
-2500 -2332 0
852 61 0
-77 70 0
247 -728 0
852 2378 0
802 12 0
-1417 -1126 0
-1162 -1560 0
1448 -2268 0
-211 -2533 0
1024 2328 0
-1394 -339 0
1942 833 0
1497 -2783 0
42 -2585 0
-1892 -2374 0
879 644 0
2524 2787 0
1138 1536 0
1042 -18 0
1604 123 0
745 -982 0
913 1419 0
2032 -2725 0
-1092 79 0
460 713 0
619 2726 0
-1199 -674 0
-1080 195 0
-1288 1071 0
1696 1141 0
-1787 -122 0
-1900 272 0
1741 -2516 0
593 -1512 0
1102 -1503 0
-2024 2255 0
658 1891 0
2805 1577 0
-2467 -1146 0
-1505 -2746 0
-158 599 0
1416 -1521 0
-2579 -96 0
-422 -1038 0
-1530 -567 0
-2735 2685 0
1964 2579 0
-219 -147 0
-1649 885 0
-1385 1972 0
290 -2135 0
-234 -1563 0
312 2662 0
-2341 -1007 0
-2087 -486 0
620 -1293 0
-54 309 0
-2721 -865 0
2807 1590 0
-2421 -712 0
-846 1739 0
-115 -1996 0
1477 1023 0
1870 -1789 0
-707 -20 0
1684 1748 0
1533 -1888 0
2728 -2304 0
-19 -1741 0
-286 -513 0
-866 -1299 0
290 1995 0
-2122 352 0
117 2717 0
2165 2117 0
2321 -2355 0
-1768 -1781 0
2601 2502 0
-1964 -2231 0
723 -1646 0
820 -1025 0
346 2218 0
435 1239 0
-242 2327 0
-1147 1448 0
-1765 -1352 0
715 -180 0
-2088 2557 0
1229 1311 0
-783 1402 0
-2515 -2252 0
102 -2301 0
1181 578 0
-2362 2438 0
-1637 -1374 0
-379 -1723 0
-1773 -936 0
-943 1524 0
-1223 1383 0
-1424 -1990 0
-538 -1558 0
-2572 -241 0
-1631 820 0
-2756 2794 0
1204 1006 0
-1020 -2252 0
403 -887 0
-77 -1137 0
-1900 -2504 0
-1094 2685 0
-2362 -2155 0
2316 968 0
827 227 0
1479 -741 0
-49 -273 0
276 2 0
-563 -1367 0
1137 -1833 0
-2208 1188 0
841 -1237 0
1057 -2553 0
1404 926 0
1795 -1245 0
-565 -2416 0
2003 -159 0
1901 1289 0
2500 1454 0
563 642 0
2643 -2708 0
2008 -1984 0
-85 -2368 0
-678 2707 0
1632 -2727 0
-2788 -1035 0
1787 1061 0
-1946 2214 0
-722 -2531 0
-1490 961 0
-1168 177 0
1509 -917 0
-2572 -2218 0
1710 2224 0
1261 -101 0
-1848 -61 0
1193 -1734 0
-1321 1299 0
850 2262 0
2246 -695 0
1500 574 0
-2374 -2240 0
2616 453 0
-1010 -1253 0
2048 440 0
2648 -2227 0
-1100 -64 0
-2623 1616 0
-1178 566 0
1531 -2202 0
-1292 -2312 0
-2514 -2377 0
1574 1588 0
-1091 2502 0
-283 -896 0
-2576 -2160 0
-1893 -2343 0
396 2614 0
2442 453 0
1648 -135 0
-1404 438 0
-132 -952 0
416 -376 0
1170 -1926 0
219 -837 0
104 824 0
-975 230 0
-1981 1364 0
-218 2152 0
1252 -1169 0
2344 -310 0
-2760 2030 0
2665 -206 0
1971 2019 0
2538 -1202 0
1612 2667 0
2790 1943 0
-745 -1481 0
970 1668 0
-2529 252 0
1792 813 0
103 -1664 0
-1590 -1259 0
-1199 1982 0
-1010 -642 0
2403 94 0
2101 2251 0
43 -1643 0
-2076 -248 0
711 1654 0
419 -2012 0
-2199 -1781 0
-987 -141 0
-1820 -1957 0
-2805 1887 0
944 -109 0
-1391 -655 0
1772 1971 0
711 -1694 0
-880 -1057 0
-1217 2254 0
-2212 1002 0
2257 2633 0
-1930 -1835 0
2020 -2346 0
1785 382 0
-1511 -1616 0
-1822 1620 0
4 -2222 0
563 -2085 0
-1078 284 0
-2066 -596 0
1762 -817 0
-490 -1110 0
-213 1717 0
-1094 -2751 0
-1793 -1533 0
-554 327 0
1447 -1087 0
1747 -1953 0
933 -1981 0
1877 -2702 0
-1453 1498 0
-577 1994 0
-451 -1179 0
1812 -1029 0
-1377 -219 0
-2272 -1682 0
-122 -2543 0
-1547 -1313 0
-2102 -1184 0
-1291 1170 0
569 -2155 0
-208 117 0
-378 2269 0
-2769 1642 0
639 1759 0
-170 1918 0
1445 1388 0
-2731 -565 0
-159 -1078 0
2178 836 0
1217 -1224 0
-1271 204 0
-743 -1162 0
2593 -2558 0
469 1829 0
1036 1735 0
-1968 1747 0
-999 2269 0
448 -852 0
1001 1930 0
1438 1208 0
1675 -1804 0
-522 2021 0
-2067 1764 0
-2234 -2558 0
-2598 -2173 0
1739 2491 0
2463 -1034 0
638 2655 0
-2568 -2002 0
547 -812 0
1838 2495 0
-2676 1299 0
943 -375 0
1368 -1020 0
-1023 -2206 0
-1560 -993 0
1642 291 0
563 -2680 0
-1925 -2174 0
1440 -701 0
-29 1081 0
-1574 343 0
-618 66 0
1844 -2277 0
1807 -259 0
-1663 1658 0
-2676 -381 0
-2527 -2716 0
2565 -2097 0
-2333 -1851 0
-1003 1275 0
-2585 87 0
-555 -932 0
-2102 1483 0
2198 78 0
-1615 -696 0
989 2487 0
1947 -1940 0
-2226 92 0
-248 1563 0
642 -673 0
-2583 2006 0
-851 1362 0
395 -262 0
1369 -1305 0
-1341 473 0
504 1154 0
-2040 972 0
1074 -1056 0
-232 2258 0
-2015 212 0
-2599 -938 0
832 -2533 0
1622 2740 0
-1676 -592 0
-2180 -1552 0
2474 -1442 0
907 -2771 0
-285 -242 0
1992 -1037 0
-363 867 0
1353 2071 0
1050 -2363 0
2274 -195 0
2575 -1869 0
2789 -914 0
1030 -2357 0
2140 -2072 0
-1837 -1015 0
-2768 -702 0
126 -2447 0
782 1290 0
1147 -930 0
2732 -569 0
428 1175 0
2201 -2256 0
-1324 -2719 0
1881 -242 0
154 -1259 0
-597 -1531 0
209 -1170 0
-2332 2502 0
212 -2411 0
1758 -1144 0
44 59 0
-1112 1467 0
885 393 0
-2319 -1244 0
-32 -2578 0
-2718 -911 0
-1543 474 0
-671 1346 0
-162 1666 0
-719 -474 0
-2718 1108 0
1151 -2352 0
-894 1753 0
-2013 -2005 0
443 -1139 0
-497 1081 0
-1522 2011 0
1470 611 0
1582 -565 0
2261 -430 0
1778 -1166 0
1480 -1698 0
1221 142 0
999 2000 0
1419 -603 0
558 937 0
2271 1527 0
-1178 -1498 0
-1799 -617 0
-820 1615 0
2167 1532 0
2143 2804 0
-493 -1426 0
186 -2684 0
-1860 -1780 0
828 1487 0
-2364 -2783 0
-287 1396 0
-2228 -1320 0
-1780 1069 0
202 845 0
2679 -1259 0
-1993 -2044 0
-845 2807 0
-282 1448 0
-2439 -195 0
2310 -307 0
1413 226 0
457 -1997 0
-1733 -1623 0
2686 2424 0
1308 1764 0
-1247 -2120 0
1538 -1917 0
-344 -892 0
-2488 2401 0
2594 -425 0
1162 2622 0
2760 2417 0
-2489 1590 0
-721 -1442 0
1763 2109 0
-344 1158 0
-770 2156 0
221 2138 0
215 29 0
1979 1946 0
-844 -2063 0
2434 2500 0
-689 2539 0
-231 -1631 0
-2707 970 0
-1205 1467 0
2557 1451 0
638 -2323 0
-581 2205 0
-172 1368 0
2221 2501 0
751 2648 0
1241 -2171 0
931 -1633 0
-394 -2602 0
-2709 -2111 0
1388 155 0
-2417 -2426 0
-674 -2707 0
1285 -1905 0
-572 -163 0
-1953 2354 0
-1610 -2612 0
162 2345 0
1924 -1733 0
815 -1939 0
140 2041 0
-2252 -2637 0
-41 354 0
-2323 1413 0
-1191 1250 0
2090 -2479 0
1567 -1061 0
1773 -666 0
749 -1665 0
1579 -2765 0
165 -342 0
94 2209 0
8 -2130 0
2372 329 0
-462 -1180 0
106 1419 0
142 2460 0
1136 787 0
760 -1144 0
1495 471 0
1431 -2102 0
-2561 -431 0
-450 2539 0
-610 1711 0
-1270 -1269 0
2009 -889 0
-222 -1558 0
14 -174 0
1460 -1499 0
2079 1350 0
2523 1354 0
-2084 1616 0
1586 -463 0
2508 -2166 0
-2766 -1144 0
2268 -724 0
2504 2011 0
384 -2202 0
212 -435 0
-1820 -2035 0
243 148 0
1663 222 0
126 457 0
744 -1302 0
992 -339 0
-2768 -2086 0
220 -1107 0
-828 -2072 0
280 1152 0
-2020 -2517 0
370 -1861 0
-1010 -2629 0
2795 1009 0
-839 1655 0
341 12 0
2274 -82 0
-2025 235 0
1376 -536 0
2452 -1049 0
1647 1136 0
-2680 -163 0
2553 1224 0
2616 2239 0
-1045 -1324 0
-1765 -1714 0
-2752 -1793 0
2297 -372 0
-1284 -401 0
-1599 -856 0
-1154 -452 0
809 -1519 0
2051 -2454 0
486 -2210 0
458 546 0
762 445 0
1523 1491 0
-2799 329 0
-249 -585 0
-1779 286 0
-2714 -1938 0
404 -1402 0
-1629 -2172 0
666 -497 0
-1544 -529 0
-2528 1959 0
2558 -2626 0
358 -2510 0
1252 -731 0
116 1699 0
1459 -912 0
1337 132 0
38 2041 0
2392 -1359 0
-392 2331 0
-432 1397 0
953 -1811 0
547 -81 0
2096 2187 0
-2065 -2391 0
-1945 1546 0
-2482 1516 0
410 -1262 0
2340 -645 0
238 740 0
-2677 940 0
2310 2537 0
-168 -2761 0
-50 816 0
-825 -2094 0
1993 1586 0
-522 -1135 0
227 -1125 0
-1048 1653 0
1567 -736 0
-2420 19 0
1496 -1320 0
-1579 -1441 0
-1939 596 0
-169 1092 0
2187 2242 0
-92 2054 0
845 2620 0
2793 -645 0
2198 1810 0
922 -61 0
212 -2343 0
2757 1977 0
-646 -2430 0
2541 -339 0
1902 40 0
2798 737 0
-999 2593 0
-1601 2172 0
-487 467 0
656 -368 0
-803 -279 0
-719 2104 0
238 -1934 0
-756 1190 0
-906 670 0
1927 1602 0
859 -2687 0
188 1098 0
-2229 83 0
666 1147 0
830 -1857 0
2486 -869 0
-596 -1409 0
-2044 -2352 0
-1542 1121 0
-1221 2472 0
-1791 -2550 0
-745 255 0
465 -1314 0
-1944 -718 0
-1684 -536 0
-1485 -2234 0
-2396 -2442 0
-1065 -52 0
2520 245 0
-618 -1714 0
584 -2641 0
1699 -2576 0
1546 1701 0
-222 881 0
946 -64 0
-478 469 0
1760 -2351 0
-583 -893 0
-2565 2045 0
-2422 415 0
2068 2203 0
-654 2744 0
2033 149 0
-2338 1986 0
1492 2049 0
503 -1221 0
-1233 1662 0
246 -987 0
1756 2548 0
-442 254 0
-1818 651 0
2696 -34 0
1622 62 0
2425 2202 0
-2086 -2265 0
2639 -1481 0
-1468 -1006 0
2049 38 0
1875 -787 0
495 -1514 0
1401 2100 0
1442 525 0
1364 -1718 0
-1760 -452 0
-69 2138 0
1429 199 0
522 -2756 0
-2154 711 0
-2584 -2066 0
-1094 2367 0
202 -1280 0
47 -908 0
277 2778 0
54 -935 0
-2236 12 0
518 2767 0
2371 -809 0
1199 -612 0
-2388 -1204 0
-73 861 0
2049 1027 0
2340 -1649 0
-2671 1719 0
-621 -1349 0
-1025 1617 0
40 -513 0
791 -1962 0
-148 1720 0
-2083 804 0
71 -573 0
-1256 -2673 0
1794 -457 0
-233 1953 0
405 2386 0
1863 -511 0
-241 -2382 0
-2293 2333 0
2562 -2363 0
2474 -2152 0
992 19 0
1431 1839 0
607 1145 0
-1906 1630 0
2074 -1155 0
571 -73 0
540 1302 0
-839 1957 0
-1728 -2065 0
-1033 1833 0
-1322 -812 0
-1171 984 0
2696 699 0
2459 -1835 0
1166 -2164 0
2727 1693 0
1608 1872 0
1723 -2112 0
-714 -339 0
-2106 806 0
-1371 -1084 0
-1472 -2629 0
-2118 -834 0
-1914 2365 0
-948 1693 0
184 1800 0
-1226 -2750 0
370 1022 0
-1187 1624 0
2356 -1758 0
-854 2054 0
-2058 261 0
-2115 756 0
2052 -1331 0
-753 160 0
1013 -2396 0
1887 -1570 0
-317 -109 0
-100 2376 0
539 1960 0
1510 136 0
-2741 -1122 0
427 1333 0
-150 1233 0
-1261 617 0
1734 2119 0
-2587 -1172 0
578 1364 0
-271 -2640 0
1404 1368 0
476 -1303 0
-1574 1571 0
-174 -1218 0
-1686 -976 0
24 -349 0
-2224 -2000 0
-1835 -966 0
-2272 -2076 0
537 -2306 0
-158 106 0
-335 2293 0
-1689 -1917 0
95 -2197 0
-2718 1531 0
353 2778 0
-1968 2725 0
-1150 -2088 0
198 1969 0
-1131 -1812 0
2299 -250 0
1230 -111 0
-786 -1971 0
532 989 0
-1565 1597 0
-516 -2283 0
-1686 2768 0
1070 2442 0
78 -1041 0
-1417 921 0
-1764 -2390 0
-2550 1791 0
644 2430 0
1808 2782 0
2070 1810 0
2471 -2059 0
-1906 585 0
2508 1404 0
1435 1359 0
1472 -81 0
-2453 496 0
-1471 -524 0
1435 263 0
799 90 0
-1296 -1448 0
470 -835 0
2055 -927 0
1726 457 0
-288 2692 0
-1604 1553 0
-214 1914 0
1810 -1041 0
-792 -1764 0
364 -2502 0
-2564 723 0
-490 2601 0
1550 -2785 0
-2017 2198 0
-259 574 0
-757 -955 0
456 2159 0
1591 -1669 0
-808 1816 0
-1229 1058 0
-2468 -804 0
152 -14 0
-2454 106 0
-359 501 0
-1579 938 0
522 -285 0
1069 -2155 0
-1477 1294 0
-2494 -2674 0
-1695 1565 0
1770 1986 0
-1700 -2253 0
-1620 -982 0
957 -2530 0
2741 -1102 0
887 1926 0
2077 -1730 0
-1182 -1782 0
-1822 235 0
-180 620 0
704 -83 0
-320 1085 0
-1382 1953 0
742 1360 0
-1814 -2316 0
2200 1375 0
-1143 -909 0
-1526 2197 0
-1828 1468 0
1004 -771 0
2598 -2138 0
-1002 -2127 0
-2481 2568 0
1289 -2711 0
-1162 -2075 0
1477 -2353 0
-1537 -1703 0
-2081 1309 0
2141 -1782 0
123 45 0
-719 -1060 0
2500 -1503 0
-2217 -2506 0
737 -677 0
-224 -1777 0
836 2507 0
2736 563 0
1209 2235 0
-1206 -2746 0
1791 -1027 0
-90 -390 0
2185 877 0
-1618 -2323 0
-237 15 0
737 1017 0
-365 413 0
-635 -2250 0
1438 192 0
-1961 2746 0
-219 587 0
-2060 1737 0
2758 2170 0
1675 1819 0
-2362 1613 0
907 2207 0
-1539 -246 0
2412 1053 0
-872 -935 0
-109 1863 0
45 1718 0
477 -2543 0
-1876 -2714 0
1842 1975 0
-664 791 0
-609 -612 0
-667 1607 0
2356 2727 0
2601 728 0
2614 -1377 0
991 1942 0
-1998 -242 0
1433 1648 0
-1080 -1884 0
-318 -1242 0
-1215 -2637 0
848 586 0
-464 1298 0
-1656 -2791 0
500 -1770 0
-505 640 0
2786 -1570 0
-991 -1578 0
-933 27 0
2180 -771 0
659 2678 0
411 2653 0
1638 2418 0
1218 -1461 0
-50 516 0
-1473 -1911 0
-2698 1661 0
-404 843 0
-939 61 0
2527 1883 0
1712 110 0
-1693 -1349 0
1099 -1230 0
1669 1445 0
-548 -905 0
-378 -1033 0
1391 424 0
-614 -990 0
200 -1877 0
2366 -2304 0
-1088 -939 0
-50 428 0
-759 2530 0
2472 -1280 0
-1891 -844 0
1177 1769 0
-813 -691 0
1667 -2540 0
116 197 0
419 1054 0
-1247 -2701 0
-402 -1818 0
-1177 -2551 0
-1869 289 0
360 1847 0
272 -280 0
467 -2103 0
-2195 -781 0
-2380 -246 0
-78 2757 0
10 653 0
-1182 -2565 0
831 -1698 0
-884 -1256 0
-2318 2445 0
-706 -2669 0
243 2108 0
-450 -1228 0
-1646 -1786 0
642 -2539 0
2709 -2433 0
-2350 -573 0
1535 -2035 0
-810 1206 0
-2636 -2638 0
-2423 -1336 0
2489 2490 0
-1184 59 0
2539 -2087 0
2668 1870 0
-776 -169 0
-338 971 0
1101 -103 0
-419 -1262 0
645 1459 0
-466 -1222 0
-782 1072 0
737 -1676 0
1399 -1297 0
1054 -2790 0
-2063 -635 0
-2613 -2350 0
1700 292 0
986 -439 0
2139 2302 0
-2385 1941 0
-1659 2676 0
128 -276 0
-2069 -641 0
-990 1309 0
-502 -793 0
-431 -1537 0
-1627 -1595 0
2106 -1474 0
391 -604 0
38 382 0
-1719 1357 0
2602 -1488 0
-221 590 0
1607 2316 0
1880 -2168 0
1138 2077 0
980 -1470 0
-1232 1444 0
-1320 2254 0
2383 2584 0
200 -1706 0
-2454 -1934 0
-801 -15 0
1760 -983 0
-1769 637 0
2106 -1316 0
2645 1564 0
1385 2054 0
723 -1178 0
1224 1108 0
-2140 -144 0
-853 1668 0
491 2052 0
-1833 2582 0
-2401 -1696 0
1922 2227 0
-2037 -531 0
-2752 247 0
-2495 482 0
-650 1468 0
-1592 837 0
983 -1411 0
1840 2692 0
-2002 362 0
-2427 1712 0
2184 2345 0
-1384 1600 0
574 -2510 0
2793 2337 0
-2145 -2269 0
2425 -121 0
-1865 1106 0
1125 -269 0
-156 1539 0
1477 2663 0
-1307 2374 0
-517 -1823 0
-502 296 0
1667 853 0
-1883 -1644 0
-1797 1356 0
-143 -2078 0
-2731 717 0
50 889 0
-499 -258 0
1628 -81 0
-1743 1371 0
-1035 517 0
413 1657 0
899 -1139 0
-815 -1748 0
-2017 -2007 0
-1292 -1408 0
15 2096 0
-27 149 0
-2488 2236 0
55 -640 0
949 -905 0
-2334 -1725 0
2196 -52 0
-2755 -264 0
-2136 -1694 0
1458 -255 0
-981 458 0
-2731 -2628 0
-2068 2096 0
-2183 -760 0
2132 912 0
-1744 -1892 0
-686 676 0
-1413 -109 0
-2216 991 0
-2767 -1811 0
374 1751 0
133 -2287 0
-2768 1192 0
492 -1046 0
-1049 -1798 0
-1775 -2249 0
-981 -1922 0
-782 1871 0
929 -793 0
-2197 1627 0
-1046 2683 0
842 -1558 0
-422 -2115 0
526 1003 0
795 1788 0
66 -1265 0
-399 -866 0
-423 671 0
1060 -278 0
975 -721 0
637 1856 0
-1556 -2177 0
-2297 2573 0
1888 569 0
384 839 0
1837 -2436 0
2612 2508 0
1347 -1730 0
-2729 -1327 0
2566 -2482 0
2218 -1356 0
1496 1255 0
-1354 625 0
2553 -2583 0
336 -2243 0
1769 97 0
-798 -1649 0
386 -2729 0
-2488 2194 0
-2218 -2016 0
2202 1618 0
626 -2431 0
-2025 -100 0
1672 -2641 0
1359 360 0
2405 587 0
-2712 -511 0
1094 -1624 0
-1714 -1048 0
477 2654 0
-570 459 0
2214 -31 0
-753 13 0
2027 720 0
1783 -1949 0
-1866 1500 0
1682 696 0
-1902 2542 0
2097 1172 0
-1756 -2648 0
2633 1812 0
-2522 -150 0
142 -896 0
-979 -1165 0
-616 -2058 0
1806 1501 0
1442 -2072 0
2171 493 0
1745 790 0
2130 1370 0
417 -2079 0
-1020 -79 0
-613 -680 0
766 -2105 0
-2099 -1898 0
-1386 1070 0
2056 -682 0
-1082 281 0
2124 -1911 0
-2447 -165 0
-2053 -2543 0
358 -1762 0
-1697 -101 0
515 -1309 0
-2559 100 0
-1063 1514 0
1116 980 0
842 -1146 0
-2807 -1755 0
2781 146 0
2553 144 0
-2423 -1178 0
-2659 2142 0
1388 2235 0
-2540 -2794 0
-75 -2146 0
39 -2240 0
1088 -1770 0
-1664 3 0
-1422 -1733 0
-1165 1015 0
921 1201 0
-2676 1213 0
1914 1432 0
-540 1237 0
-2118 227 0
1361 -1339 0
-2484 2109 0
-776 364 0
-2396 -141 0
1461 -1685 0
813 -838 0
986 2445 0
-935 -379 0
-1106 382 0
1401 510 0
2507 -1662 0
-2082 -784 0
-1513 1441 0
-270 -1860 0
-1211 -1410 0
542 -2780 0
-1439 -250 0
-993 42 0
-1049 228 0
950 -13 0
-1197 -882 0
-1606 1428 0
1128 -1015 0
63 1749 0
1586 -1273 0
-1965 -365 0
2246 408 0
-2218 1577 0
774 742 0
-1262 -1646 0
1210 -1559 0
727 1483 0
-1418 -195 0
559 527 0
1577 -2611 0
-1859 1079 0
2428 -439 0
694 612 0
1082 98 0
1688 -2698 0
-1287 2098 0
-810 -2124 0
2235 151 0
-1554 -1114 0
-698 149 0
1662 -1199 0
-285 2607 0
-1558 -1175 0
853 2214 0
-1881 882 0
-1815 -793 0
2041 -2391 0
46 2480 0
-2118 706 0
-462 1345 0
-945 -305 0
39 516 0
235 863 0
-872 -2676 0
-1920 -599 0
-1518 -1798 0
-598 1785 0
1044 -493 0
-769 -2224 0
-1815 1163 0
-135 -1749 0
2077 2124 0
2003 1342 0
522 -824 0
799 -1957 0
-2265 142 0
-2040 -2226 0
1571 2495 0
-418 98 0
1623 -609 0
-2395 33 0
-680 -962 0
-1770 -1413 0
437 1195 0
561 -1263 0
-666 1388 0
-829 766 0
-991 -2283 0
74 889 0
2597 -1635 0
-2121 1539 0
399 -1649 0
821 826 0
-2793 -1551 0
-2086 2767 0
-2140 1570 0
1313 2169 0
2090 -2394 0
-2662 480 0
518 954 0
-250 -1262 0
-203 1819 0
1943 2648 0
1008 2692 0
1578 1603 0
