c NF
p cnf 23793 42827
20670 -8415 0
7797 -3791 0
-6254 -19965 0
-18669 3877 0
12469 -15438 0
-2368 -23467 0
21586 -10711 0
9945 -2690 0
2326 -9854 0
20556 -1623 0
-2234 18571 0
-20786 -14788 0
2516 -21560 0
-19320 18475 0
12489 20820 0
-7411 -12574 0
-1648 21715 0
-135 13007 0
-18300 11697 0
14244 -12522 0
649 16661 0
7049 -15422 0
-7121 13703 0
8122 22695 0
-19098 2753 0
-22413 -12216 0
16810 -14763 0
-6714 -2350 0
-1240 -510 0
11198 7240 0
-16103 -23145 0
21639 14995 0
-6171 -13602 0
-4489 4092 0
4981 17309 0
20999 -12797 0
6085 13461 0
-13353 -13233 0
-4808 -16977 0
-23156 -8124 0
6352 396 0
-2314 -10831 0
-5973 3545 0
-17225 -7738 0
8338 -632 0
-4570 23546 0
3590 -4341 0
-5494 6807 0
20191 7908 0
-7637 -5776 0
14218 16176 0
-3938 -18366 0
21251 -3582 0
5251 6030 0
-2150 -22824 0
-2309 -19919 0
-3390 2079 0
521 8697 0
-20481 2790 0
-8502 6998 0
-2691 -12659 0
13498 4801 0
21041 5708 0
18967 -22704 0
-12687 13750 0
-18397 8684 0
6431 13358 0
22460 -4523 0
5202 8583 0
-20382 -9698 0
18886 -23002 0
-9465 -4246 0
-5875 -8820 0
14205 -19785 0
-21609 -21203 0
22452 13216 0
21152 -20054 0
-14659 17396 0
12980 4959 0
3204 -324 0
-408 457 0
15104 -3034 0
-2761 -18274 0
2177 -18899 0
-16802 -19109 0
-20469 -18138 0
968 21639 0
14137 11935 0
-6613 2062 0
10863 -13944 0
20018 560 0
12947 -528 0
-1235 11151 0
-4637 -2538 0
-12465 4109 0
21883 13953 0
822 22621 0
14797 -18785 0
-14448 -14792 0
-17232 -5025 0
15194 9665 0
9370 -673 0
-4745 2275 0
-5206 -5848 0
-6430 4478 0
-12980 6718 0
6436 13352 0
-16131 -778 0
-21655 -7377 0
1467 -16216 0
-22789 9839 0
18554 -12459 0
-9200 -11476 0
6137 17895 0
-11324 -12221 0
19661 4191 0
-22720 -1853 0
7375 8985 0
-15673 -23352 0
8772 7321 0
-17009 -12687 0
4723 6002 0
15412 3258 0
-19629 -4442 0
11671 -11472 0
-18520 3014 0
-8549 6895 0
12427 8952 0
3566 -1411 0
14714 -12464 0
22261 9474 0
19720 -2148 0
-10135 -14797 0
-15377 14087 0
-11747 15322 0
-677 -11172 0
-21558 -15336 0
-8903 -19053 0
-3225 10513 0
-2031 16475 0
-162 -16583 0
-6484 -8441 0
-12487 9652 0
-339 -3355 0
-4683 -17790 0
-16589 -11663 0
-13154 16887 0
21451 10370 0
-2117 11344 0
-22294 9287 0
12576 17792 0
5574 -22288 0
11277 843 0
2580 -22961 0
-22785 14550 0
-21295 9584 0
3264 -23277 0
-21019 10404 0
-3 -4835 0
-12920 -18051 0
-12875 -5761 0
-1087 9703 0
6211 20820 0
5689 -18897 0
16785 18558 0
6651 -20575 0
7197 10339 0
3281 15415 0
4683 13994 0
9870 -1916 0
23652 -13914 0
11531 23237 0
7084 -8029 0
15494 8794 0
-22855 18005 0
-13110 -20968 0
-10108 9035 0
5159 -8630 0
-16142 -12991 0
-11479 1293 0
1114 8966 0
-21943 22573 0
-14046 -11198 0
10804 4705 0
-23322 9805 0
-9948 -2839 0
-116 -20093 0
-1154 4485 0
21363 1438 0
8232 11068 0
14729 20480 0
-10305 -17772 0
3436 -8164 0
-644 21061 0
13906 -9211 0
23091 -7349 0
-15603 9646 0
-17527 21224 0
-5051 -1252 0
21241 -18704 0
-75 22308 0
-2587 17363 0
-1339 18624 0
13130 -14724 0
-15074 13310 0
9595 -2498 0
16383 18070 0
15829 -11879 0
23486 -5776 0
3844 -770 0
15600 9656 0
-1521 -11753 0
-6986 18910 0
-3741 -3286 0
10723 10964 0
-14466 21255 0
-21461 -23097 0
2736 -478 0
-5443 7089 0
22237 10165 0
-15683 4519 0
-64 19482 0
-14808 -21472 0
-10383 -14906 0
11892 -8460 0
-15080 -2560 0
-16884 -3841 0
15861 5559 0
-7522 8611 0
-412 -11394 0
4262 3740 0
20366 9681 0
-9808 -13578 0
14491 3915 0
-18138 12622 0
-19122 -23522 0
-23150 15488 0
11646 -7190 0
-22612 -20788 0
-12827 -18197 0
21809 -22995 0
1757 10939 0
-20311 -331 0
-11864 7278 0
23312 20470 0
-13789 -13528 0
8242 13555 0
-22758 16429 0
-20856 11767 0
-18913 6492 0
21514 6343 0
13208 5105 0
14020 12715 0
6326 -17824 0
-21663 13201 0
-23226 -20088 0
-20130 -22265 0
12280 7483 0
15232 -13703 0
-4585 15090 0
20643 -1361 0
16325 -16442 0
-1780 23103 0
-6056 22463 0
8053 -14003 0
-5330 -9626 0
21635 20836 0
22077 -20239 0
23675 -7794 0
21103 -20620 0
-5814 -17157 0
20065 5912 0
-13203 -20911 0
11668 -17200 0
-17510 -2860 0
-277 18985 0
23283 -23655 0
-8892 -3493 0
-261 -21478 0
-1128 14632 0
11368 2253 0
-2573 17343 0
1932 14528 0
-5324 -1662 0
-13943 -12387 0
-22260 -431 0
-12749 2686 0
3017 7931 0
-1574 -21575 0
14825 -8848 0
5762 2221 0
-7589 4506 0
-21331 448 0
-7513 -11930 0
-3029 -6011 0
8011 -11104 0
18578 15437 0
23790 8140 0
-1057 -16677 0
-12775 -5330 0
9624 14059 0
-7119 -3938 0
17756 5022 0
-18519 -4091 0
23401 -11686 0
-14850 1638 0
1061 -10218 0
-7051 -7690 0
5603 19397 0
15854 -8134 0
6930 22791 0
20450 10381 0
11858 -19395 0
8566 20782 0
-4744 -19232 0
-2569 -8193 0
16002 -23081 0
-13737 -13215 0
-7250 11983 0
-8204 5259 0
-16401 -11134 0
-23199 9455 0
-15116 -13910 0
-3133 21041 0
-8530 -15526 0
2139 8104 0
5706 -21803 0
-21067 7627 0
3875 -21469 0
-19683 -6657 0
-9134 -2696 0
3710 9444 0
-16293 5467 0
-474 -6046 0
-13784 -20082 0
-3887 933 0
5230 -15039 0
-2674 -21515 0
-4063 7731 0
20752 -15422 0
21410 10097 0
3577 -11982 0
-14705 -21835 0
2201 -19301 0
-10118 -20873 0
10648 -17102 0
-94 18788 0
3288 -21195 0
5014 -7170 0
-22091 22195 0
6415 -18740 0
-14029 19614 0
-3607 -9948 0
-7764 -4671 0
19775 3646 0
13270 -10547 0
-21612 -20725 0
-17808 -8866 0
5591 8707 0
-21887 13436 0
5879 14919 0
-3690 13642 0
10179 7014 0
23472 -2150 0
-19841 -21122 0
-16037 23247 0
-21861 -11437 0
13300 11970 0
492 1410 0
-13841 398 0
-21129 -3688 0
23181 -12523 0
-2134 -3469 0
-23427 -6833 0
-2904 14249 0
-19012 20651 0
-10083 -9721 0
-1003 7985 0
-1003 19525 0
-5241 -19181 0
18136 1488 0
-237 -20439 0
-20772 7445 0
-937 22568 0
-14329 19377 0
11871 3787 0
16296 -10433 0
-22795 -15263 0
12150 -11593 0
6845 6176 0
14637 19268 0
-19441 9177 0
3801 9913 0
-3579 -12002 0
-23477 -8234 0
-17927 22503 0
14991 12613 0
-77 3512 0
-5249 -15588 0
-23148 -9780 0
1686 2856 0
-20634 15956 0
18438 13742 0
-4908 8518 0
3692 4861 0
-11390 6854 0
-23033 -9045 0
2222 6675 0
-5265 3921 0
22851 -7009 0
-7198 -14986 0
18118 6832 0
-17013 -22375 0
-23265 15759 0
2751 1877 0
21462 -17295 0
-13622 6952 0
482 12635 0
14748 17055 0
23359 -15223 0
-14070 14844 0
-15321 5431 0
14950 -11253 0
20195 7060 0
-7195 -1559 0
-12213 15167 0
23689 16918 0
13364 21347 0
13009 -21691 0
-17402 15899 0
-8665 -13627 0
14907 4181 0
17082 -19912 0
18548 -6122 0
-7305 -23364 0
-757 -10115 0
7265 10071 0
-18740 -20084 0
-5700 -3386 0
-7899 21507 0
12372 -3282 0
23376 1150 0
-14470 -10279 0
-21951 10286 0
657 -4245 0
-15551 -10790 0
-8195 -20844 0
-17082 -3149 0
-5131 -7739 0
21674 -4474 0
18550 3567 0
9944 -1013 0
10149 -12081 0
-23500 9771 0
-8657 -6753 0
-14682 16050 0
-15782 -20019 0
-12697 -12527 0
20939 14876 0
21236 21492 0
-1396 -2252 0
7341 -5883 0
-3323 23634 0
23719 14558 0
6372 -3746 0
23531 9451 0
14127 13953 0
-22705 -20677 0
23701 -20642 0
9553 -21161 0
-15883 2233 0
5442 -15014 0
-8282 -17678 0
-1675 -8779 0
74 -15790 0
21574 -13977 0
-9305 -22314 0
10501 20171 0
15672 7414 0
2136 -19741 0
-9364 -16769 0
-5107 -11971 0
4273 -5883 0
-15982 -20538 0
-13968 -5351 0
19437 -10246 0
19892 7766 0
13417 4457 0
-13769 5312 0
13223 11941 0
-21458 -2147 0
-10699 14195 0
1503 9487 0
8394 -3945 0
17806 -7101 0
7838 7626 0
-11389 20792 0
13873 -8639 0
-6126 -2395 0
-10149 14756 0
20715 -1125 0
-12526 -4342 0
-6136 -4174 0
14346 13961 0
-1585 -239 0
12262 -14347 0
6332 1014 0
-8 711 0
5594 -18397 0
18707 -20186 0
-1109 21362 0
2046 -15202 0
18483 23334 0
-8761 -13672 0
-17709 12167 0
21394 -16923 0
13009 14101 0
4517 3128 0
14945 12741 0
18597 2855 0
2001 -7411 0
-12123 3770 0
-21344 -17964 0
2072 7860 0
-13538 -7340 0
-16633 4728 0
2079 14093 0
-19608 15577 0
-18258 7083 0
11894 17318 0
14481 -8484 0
-4348 21598 0
18764 6488 0
16131 18204 0
-12594 -4453 0
21121 108 0
-4147 19963 0
4613 -1724 0
9443 12611 0
5293 -13224 0
20134 -8611 0
4296 2739 0
-17243 -8082 0
-14858 -14845 0
13649 19302 0
12183 2510 0
-23039 -2927 0
-14274 -9696 0
21755 10362 0
19529 10212 0
16622 -22909 0
1529 15794 0
8249 -20060 0
12407 18854 0
-8487 -20708 0
22933 -573 0
7801 3102 0
-10266 -11604 0
10613 20546 0
11575 11221 0
-9188 -4246 0
-22963 5793 0
20887 -20013 0
-13786 -23424 0
-6365 -16424 0
14808 17422 0
-14248 13117 0
-4697 19567 0
21816 22759 0
-23786 -15930 0
-16671 -12430 0
1388 21678 0
2544 -22475 0
3468 -3957 0
-20447 5254 0
-12929 7613 0
6696 5801 0
-22404 -12882 0
-23642 17940 0
4439 -4272 0
-3934 4181 0
-12620 7832 0
-14397 -11283 0
-23584 14910 0
2490 6137 0
3645 -9663 0
15682 7542 0
-19169 6946 0
21082 -9577 0
15180 21475 0
-19636 5623 0
-2241 19929 0
-16699 23423 0
3305 -9349 0
8681 20600 0
560 -18824 0
21191 8359 0
-7535 -10220 0
-1840 -9032 0
16343 610 0
-22120 9221 0
21408 4350 0
12 -3117 0
13192 6859 0
2388 -18994 0
-22068 7039 0
-22659 20654 0
-18373 9493 0
20893 -3142 0
10576 -21508 0
-8105 -609 0
10155 17187 0
5036 22197 0
15268 -22256 0
13308 -17784 0
-5724 14239 0
-14976 18266 0
21673 -208 0
-6500 2758 0
-4983 2844 0
9131 -8735 0
7749 -19057 0
16049 15050 0
-20091 5960 0
5087 9271 0
15790 20000 0
22432 -19970 0
-23226 12703 0
-3142 14159 0
-20887 10254 0
-23327 16221 0
-18365 -14356 0
15776 -16138 0
-374 6029 0
-16190 10071 0
8053 979 0
-17493 -248 0
-22147 -13499 0
-1303 23429 0
18171 -12459 0
-17824 -6599 0
-12039 3217 0
20063 -10775 0
20820 -16140 0
-10255 12994 0
20915 8655 0
-4019 15586 0
7999 -10850 0
-19018 12452 0
12234 13513 0
-3544 13280 0
-6298 22227 0
11915 -3846 0
-10583 -3419 0
16206 20497 0
-7646 16564 0
9146 -7511 0
8496 -12212 0
10014 -13322 0
20261 -277 0
10013 17811 0
-17953 -14982 0
-6559 -20265 0
-17800 23301 0
1205 -9792 0
22816 12451 0
-10038 3654 0
2650 10599 0
-17892 7097 0
21737 15087 0
-18237 18630 0
-23346 17884 0
-4311 7237 0
11379 -13234 0
-20323 4993 0
-2389 12380 0
-5799 22469 0
10390 15226 0
19895 -22009 0
-13017 15386 0
-13040 -6188 0
-9438 5790 0
20884 -4724 0
-817 21203 0
13455 -18129 0
5630 14939 0
-12186 4208 0
-8746 -1692 0
-12166 20354 0
6085 8308 0
-308 -14099 0
-381 -9153 0
-1738 -21084 0
11057 11800 0
18239 12273 0
-14197 10874 0
-20484 9200 0
21049 -8475 0
-8408 11932 0
23699 -672 0
6014 -20348 0
20376 -9750 0
-14453 -17596 0
8978 3097 0
8925 -11402 0
-8389 1450 0
-20171 22345 0
-2296 23624 0
-4558 21058 0
11933 10821 0
-1314 5089 0
-11762 12681 0
10179 -3526 0
11325 -7783 0
-18778 69 0
291 -4899 0
21861 8634 0
21604 -10601 0
15146 2443 0
17532 -2765 0
-22391 10176 0
-17041 -18847 0
22145 19792 0
-7733 12652 0
21353 -9065 0
-14582 -19895 0
17305 14602 0
10320 8741 0
6937 -8720 0
-14128 -22705 0
21191 3064 0
-21979 21128 0
23444 1694 0
17052 -8363 0
518 17638 0
-21876 -17359 0
192 16047 0
15646 -20673 0
23578 5853 0
-304 -16161 0
-1073 22214 0
15135 19021 0
-22172 14895 0
22787 -14164 0
-8687 -17635 0
-17538 9280 0
-11317 11854 0
-14084 15919 0
4943 -23235 0
3079 -11761 0
-13255 -14083 0
14310 10772 0
15025 14148 0
1384 -8053 0
6418 -10070 0
13050 18369 0
-8463 12848 0
-12328 11302 0
805 -9215 0
-22760 -13406 0
9096 12979 0
-160 -8188 0
14573 -14704 0
17940 5864 0
17590 -15753 0
21464 8248 0
9764 9927 0
-8685 6416 0
-18336 7009 0
-6767 10864 0
-8782 13530 0
-15157 2638 0
1637 -8113 0
1478 -16097 0
12910 21034 0
16812 -13077 0
-4818 3935 0
2627 3230 0
-10734 -23205 0
-19168 -21203 0
5943 15209 0
-8400 -18868 0
6990 11250 0
-15402 19099 0
19130 -8164 0
312 -8135 0
-17279 2618 0
-2089 17673 0
9699 -22029 0
12346 11052 0
7708 3929 0
-16937 5867 0
-7547 -18058 0
-633 17666 0
11937 -7612 0
-7747 -15920 0
6788 -19888 0
-11357 -3847 0
-1523 18240 0
17755 18094 0
-5965 -2260 0
-20676 21300 0
15188 -19912 0
-12764 10082 0
6309 -7923 0
18309 -18660 0
15964 4455 0
-15880 15407 0
22131 4863 0
20184 18795 0
-150 -14527 0
-18942 -19792 0
1787 10964 0
-17711 11305 0
10912 -21705 0
11255 5002 0
4405 14742 0
-16039 -20217 0
-20831 -13027 0
4693 11935 0
-23714 -10295 0
-11640 -22214 0
-22438 -20345 0
806 12877 0
-15542 15022 0
-17277 -20038 0
-8400 -13719 0
19682 23192 0
-2391 11418 0
14651 -12268 0
12617 18349 0
17429 11563 0
1292 23359 0
-10114 -16623 0
-3059 -22251 0
20908 2130 0
4002 -17340 0
-2983 -4148 0
10746 21614 0
1642 -6856 0
9483 20869 0
-7421 -14472 0
21121 16113 0
-7347 8364 0
18973 15723 0
19421 -18151 0
-2823 3730 0
-9921 13365 0
20371 -2477 0
6394 -17022 0
-11474 15068 0
-7587 17961 0
14358 6466 0
18296 7054 0
1091 17059 0
20207 -1860 0
-18712 -23724 0
19883 -10311 0
19881 16912 0
-21856 19026 0
-19792 -14088 0
-12542 -19008 0
15907 22362 0
-22942 -14486 0
15573 -797 0
-11698 -23474 0
14340 8443 0
1778 -18976 0
-18066 8399 0
-22276 -8464 0
34 22722 0
6492 -1695 0
-15762 -15058 0
9138 15113 0
-12033 16531 0
6111 19458 0
-2740 2887 0
15715 13440 0
-9902 -5788 0
7611 16996 0
-6993 -11250 0
-14689 3711 0
3306 -12264 0
8794 21656 0
8683 -16138 0
-11434 -8096 0
12398 -2802 0
15509 -15612 0
1448 -8463 0
-23631 1540 0
-2669 -834 0
-11956 1132 0
8031 1499 0
-6245 -9830 0
-129 22876 0
-23112 -16851 0
-21997 -12279 0
450 10130 0
11424 13847 0
10536 -17912 0
9375 -15053 0
-14304 -5443 0
-384 -16472 0
13417 -23299 0
18282 19315 0
1680 -15126 0
1638 23621 0
-1408 21998 0
-20533 -21246 0
13452 -6600 0
-23487 1662 0
-15561 15024 0
-14780 -10126 0
8922 -15430 0
23237 -4443 0
14440 5898 0
-11134 12661 0
-16555 22061 0
-4434 -1459 0
-21429 20260 0
-14869 4136 0
-9455 3266 0
17845 13476 0
-6454 11341 0
8529 -10992 0
2414 7785 0
-12482 -19354 0
-15316 10689 0
-21414 -8669 0
-15540 16552 0
21548 -17359 0
-14219 13016 0
12054 22479 0
7946 1551 0
-428 -2266 0
-6690 2530 0
5209 -18001 0
-13756 8383 0
4348 9105 0
18660 -15717 0
-17576 -5093 0
4927 -1826 0
-4538 12633 0
12267 17785 0
-9082 7088 0
-18507 -11725 0
-6401 -21794 0
10429 -962 0
18613 20245 0
-3313 -3860 0
5019 14439 0
15287 -2406 0
13052 -17575 0
-11921 -1677 0
-1535 10000 0
4625 -1658 0
1550 12690 0
6958 -5934 0
1667 5275 0
-16447 -11024 0
-3225 -14761 0
4792 -5086 0
14873 19411 0
7756 -5093 0
-9976 -5231 0
-20375 -6089 0
-7168 18932 0
-11889 -19083 0
4586 -13115 0
-18515 -11529 0
6215 -1298 0
-8182 10573 0
-2748 -19439 0
-10905 17852 0
-8016 -16727 0
-2093 23479 0
-17317 -7467 0
-4341 1712 0
23142 -1963 0
-5588 6963 0
9056 22028 0
-15762 12644 0
-14066 1404 0
-16733 16515 0
12314 11565 0
-20896 -21763 0
-219 19869 0
8396 14238 0
10966 13358 0
-9427 12771 0
3157 343 0
-22445 7327 0
-8488 3008 0
-1925 5857 0
-1909 -3800 0
-2474 2254 0
5037 10903 0
-22779 -8743 0
12272 -5473 0
17140 -2 0
-15372 15835 0
-11385 1000 0
-8291 12927 0
19614 4030 0
-6280 4526 0
-5680 -2400 0
-13560 14028 0
-20534 -9223 0
1249 140 0
-20471 -13811 0
20099 8940 0
19779 5037 0
22551 -8785 0
-18588 9087 0
-12904 14676 0
-14310 -3048 0
7975 -8692 0
11877 4716 0
-20338 -14256 0
10818 18294 0
1287 -2073 0
11694 -11019 0
17134 15696 0
-12455 328 0
10467 17661 0
15034 -22721 0
22622 -3283 0
-4172 -3675 0
2973 -23244 0
-21262 13404 0
-15033 6353 0
-11827 -23411 0
11868 5559 0
23790 -23612 0
-392 -3616 0
-20126 10087 0
-5924 19830 0
-7743 -20178 0
7420 8047 0
-14467 -8936 0
-2376 -4108 0
-14594 21524 0
-20863 -23349 0
17191 7133 0
-23079 2043 0
-19336 -3527 0
3826 -4237 0
12367 -4144 0
-17079 -11344 0
-19712 22967 0
-10669 5609 0
5608 14426 0
-21776 -18859 0
1591 7923 0
11836 -23006 0
-8900 -16657 0
16227 -14022 0
9636 5894 0
-12712 7289 0
-23198 -20983 0
-16888 -2434 0
15437 -10661 0
-11460 -5031 0
2313 3906 0
-17986 21682 0
-17494 -20730 0
9766 -501 0
-21927 -1652 0
-14608 -21063 0
-15159 -4292 0
-3505 5426 0
-9769 -18908 0
-5997 -14711 0
1237 6910 0
13538 -15514 0
-14968 18494 0
18464 -22702 0
1427 -12926 0
4371 23377 0
6308 16732 0
10298 -22453 0
-6837 -22893 0
1657 18012 0
2560 14151 0
3611 -6279 0
-619 -5720 0
10772 -7233 0
1220 7867 0
-11402 -15613 0
7061 9547 0
-10649 -757 0
16994 5307 0
-6519 -12889 0
-3893 -2462 0
-15697 10353 0
18424 20739 0
22705 4129 0
-12618 18928 0
10130 -8874 0
-20057 -21099 0
13126 7475 0
18104 5056 0
10461 -13620 0
-4264 5146 0
-3510 -15408 0
1905 1929 0
8475 719 0
-3079 -17648 0
-3147 17268 0
13171 2791 0
6413 23328 0
-471 7556 0
-3135 -13104 0
-1517 20383 0
10753 10106 0
4759 -11115 0
9118 20328 0
19546 -20012 0
-21475 -17259 0
17323 9946 0
-4799 2486 0
5595 37 0
-6684 -3964 0
-20886 17759 0
-9992 -2472 0
-5873 4661 0
-20758 4089 0
3257 -23464 0
-21633 21714 0
-20066 -4762 0
-22273 -5081 0
-10977 4393 0
14017 3075 0
-23052 -21672 0
-8002 -8771 0
-21079 -22133 0
-13512 5605 0
234 -32 0
13424 22975 0
10133 21382 0
-1298 12635 0
-16659 -21265 0
5484 -9500 0
9220 1038 0
-17159 1462 0
1338 4686 0
-18484 -2323 0
16317 14107 0
21184 -8276 0
19810 -8787 0
-15353 -21535 0
-10701 4095 0
775 3975 0
3657 19047 0
547 6400 0
9663 22508 0
-22182 -3001 0
-1808 16927 0
21933 14671 0
5674 -14341 0
-9722 13614 0
4615 -7429 0
6934 2955 0
-18302 -2091 0
-3660 -5840 0
17047 -17440 0
-9499 -12615 0
16117 20474 0
5071 2915 0
23261 12711 0
22298 -1246 0
13146 -1862 0
-17896 15498 0
4897 -19400 0
-10339 5860 0
-21101 4532 0
-7913 -14434 0
6341 16444 0
133 10151 0
-22943 19273 0
-6541 -21667 0
18326 -11230 0
21071 11141 0
-12539 -18679 0
15462 -14241 0
-4740 19800 0
1285 -7184 0
14625 -11959 0
-19232 -6997 0
-5265 -20059 0
-6157 -21689 0
-21918 -7808 0
1127 9385 0
2308 -1393 0
-21912 3092 0
-9169 1775 0
22617 19699 0
-5730 -3561 0
-1983 -19920 0
-11390 22984 0
9109 -1091 0
-15250 13018 0
338 4283 0
15743 -11666 0
14054 4274 0
-16509 -23620 0
-11408 9704 0
18698 -18576 0
19869 5901 0
3333 -4928 0
-16019 -18511 0
323 13489 0
20327 19177 0
21613 20146 0
21764 -2511 0
1626 792 0
1602 -17722 0
-3202 4489 0
19834 7306 0
-7902 14067 0
-14290 -13642 0
-4799 18422 0
4729 14124 0
5379 -22588 0
20289 -21946 0
-14397 -1937 0
17479 13834 0
-19391 -10334 0
-15640 -13696 0
20525 11106 0
-11704 19132 0
19090 5408 0
7008 -14764 0
-16036 -15475 0
-4723 -12012 0
-17391 -7428 0
-9962 -23422 0
-442 -8517 0
4990 -10972 0
-20168 -22053 0
12831 21821 0
22734 -19835 0
-15860 5207 0
5254 890 0
-20774 18529 0
8772 16426 0
15743 -10924 0
10868 15525 0
2799 9164 0
-544 -22917 0
5367 13495 0
-5274 4278 0
-3502 15054 0
21236 1529 0
7737 -8360 0
2445 -17798 0
-13273 22181 0
7163 8992 0
-15174 -20316 0
4265 11119 0
-21682 9826 0
-12172 19582 0
20621 -13423 0
18425 -16397 0
5561 -21532 0
-18977 21251 0
14202 -21012 0
15799 4182 0
-2436 4273 0
1014 -12649 0
21639 -16348 0
-5847 22127 0
5358 10383 0
10449 -13720 0
215 9171 0
18450 -7778 0
-1900 -21888 0
-2054 17919 0
8651 14101 0
-6886 -4378 0
-23081 18149 0
8790 -7195 0
-13391 810 0
-11307 3501 0
-1150 19128 0
-7637 -14122 0
13424 4139 0
7264 5577 0
15694 23761 0
8659 -17167 0
891 -22089 0
-17384 -8412 0
11944 -20200 0
-4358 -19749 0
-13585 21915 0
-13225 -14732 0
-18562 5256 0
13606 20517 0
2938 -4984 0
-8181 2778 0
11503 21443 0
22499 -21010 0
-17857 -15679 0
-8539 -5932 0
2654 1261 0
-1362 7962 0
11370 18438 0
-16921 -12343 0
18775 -15885 0
23522 21527 0
992 10449 0
14473 14615 0
-19595 8579 0
11320 -914 0
7033 -7699 0
-11171 -19757 0
12532 -8386 0
12558 1693 0
-3554 -22908 0
1324 -20097 0
3218 20450 0
-18642 -2994 0
14178 23145 0
-13717 4309 0
-12271 16341 0
9031 -14883 0
-3466 6176 0
-20106 -12427 0
-12382 6515 0
7878 -1407 0
10934 12587 0
7779 -4228 0
-13343 22416 0
-7685 -4356 0
5481 -18397 0
-15752 5166 0
13762 3122 0
220 -6982 0
-14346 7236 0
21169 -23364 0
-12308 -7386 0
-15132 -16488 0
-17860 -21663 0
-6427 -2391 0
-9464 2614 0
4146 -2254 0
-19750 -14711 0
22531 -11526 0
-19693 8358 0
-13327 -15641 0
21975 -12206 0
-15476 14035 0
16371 20155 0
-12712 22574 0
1492 -13217 0
-3291 20316 0
713 -20365 0
-20981 1467 0
-23716 6162 0
9988 -4881 0
-21367 7576 0
3712 -15413 0
-11863 8057 0
-7037 -2218 0
-14505 9680 0
-6491 9382 0
2372 -2145 0
8534 12454 0
13701 -20966 0
8939 13759 0
23613 -6760 0
14028 20828 0
-14042 -11160 0
14236 3047 0
-452 8380 0
-11719 -23365 0
-7933 22907 0
14586 -6555 0
17356 5348 0
12948 -17607 0
-21671 -689 0
9295 12532 0
-2827 -12742 0
-14228 7729 0
22263 -16563 0
2807 -5899 0
8462 -19576 0
-5984 7531 0
22302 -17202 0
-724 -6113 0
2344 -1515 0
-2609 4318 0
21957 13654 0
15517 6349 0
2969 13552 0
19075 4508 0
-23440 16434 0
22236 -1367 0
9109 6695 0
-10808 -11047 0
-2217 13192 0
-2402 -19121 0
17765 1463 0
21824 22401 0
1262 -7678 0
-6312 -2400 0
8055 -4697 0
-25 1527 0
-18451 -22223 0
18029 22511 0
-4700 -16060 0
-15790 9435 0
2199 -7324 0
10744 13687 0
2730 23091 0
-22557 -14586 0
-18735 -6208 0
7394 -14574 0
-15958 14017 0
-6048 17129 0
-15464 12885 0
-1134 18137 0
4938 -13320 0
7362 -15316 0
-10869 12463 0
-10806 18369 0
-22048 -6235 0
16885 12140 0
-8922 -2931 0
-4060 -8012 0
23749 13669 0
-6721 -9604 0
12383 -15852 0
3932 -3847 0
19563 -7268 0
-17431 -10687 0
15593 9210 0
-14152 -13731 0
-3138 -8565 0
-7536 -10736 0
17332 -20669 0
2812 22462 0
16461 -11773 0
1451 14747 0
-669 5366 0
-3720 6407 0
-16336 -9168 0
-2573 8965 0
-5387 -8944 0
-10649 18552 0
-7888 14993 0
373 -4516 0
12476 -8907 0
20746 -3938 0
6828 19684 0
-16854 -11930 0
-5781 15957 0
22197 6072 0
10196 -3870 0
-8246 7900 0
-2452 -18047 0
15210 18684 0
-16611 5941 0
21823 8920 0
16047 20503 0
11418 -15098 0
-5895 -15188 0
-19658 -1239 0
22021 6008 0
19463 -6376 0
3276 13181 0
-17726 18334 0
9148 11990 0
3246 -7868 0
-17044 16113 0
15917 -8672 0
-6374 -9965 0
-165 -15763 0
-18585 1029 0
22778 -21889 0
22565 16543 0
-7111 -110 0
-10302 10458 0
-18106 -3017 0
-2475 -7027 0
23525 13056 0
-10379 5789 0
-7892 12374 0
21598 -3773 0
20476 3273 0
-22758 -20096 0
16812 9195 0
-16746 1094 0
19652 4600 0
23600 2985 0
-16150 72 0
20843 -12919 0
-6368 6351 0
-22677 19844 0
15426 -8935 0
-14342 1684 0
-14184 258 0
-4211 -6962 0
2714 23721 0
-1568 -22812 0
9205 -16980 0
-14030 -8674 0
17639 10306 0
-6920 8701 0
2951 20049 0
-1069 16218 0
-7494 7931 0
22741 -19091 0
-17947 15705 0
21173 -20986 0
15504 9700 0
2085 -17253 0
-23303 14335 0
-20034 -7255 0
-3906 -5014 0
-4547 23584 0
-279 -6411 0
-22826 -2321 0
2066 22300 0
-4457 6546 0
-16884 -10448 0
-1668 4347 0
-20829 20176 0
-14272 7732 0
-1566 -5340 0
-10537 -7011 0
-16978 -11457 0
6612 -16349 0
-20849 13326 0
23446 -1779 0
-11585 -12178 0
11308 -55 0
14359 11757 0
-20686 16244 0
-6614 -2932 0
-19927 14326 0
16615 12616 0
5470 20907 0
-5132 -18193 0
-22420 2473 0
15691 -15849 0
2044 21036 0
-21919 7660 0
18857 -21105 0
15350 -4190 0
-23765 -15396 0
-9771 7527 0
13070 -23528 0
17728 1446 0
-2369 5707 0
11984 -13387 0
-21475 8344 0
23049 -22191 0
-22406 -21016 0
13296 -11905 0
-20401 16310 0
-9765 11505 0
-7094 15694 0
-5997 4335 0
17546 -14038 0
7197 291 0
21434 5624 0
11992 -16424 0
-10996 -12864 0
13554 -4525 0
18014 -22381 0
11125 -11064 0
-22929 -17976 0
-2164 -14887 0
-7607 -8012 0
-15319 -21086 0
20022 5717 0
7671 -19145 0
1724 2188 0
-2775 9635 0
10501 -19478 0
1541 -12859 0
-6172 -23170 0
-3536 -21641 0
15188 -10245 0
20090 -14960 0
21082 -1462 0
1387 10058 0
-15697 17338 0
-5245 16937 0
19696 -13313 0
-19023 -19709 0
-7782 -61 0
-21452 15193 0
2006 23275 0
-7863 -3872 0
-18137 4728 0
16214 -7179 0
12698 14443 0
-22874 -7763 0
9534 164 0
17936 -7177 0
15858 6685 0
3462 -1767 0
22390 23600 0
10311 5337 0
11250 -1523 0
-13638 15269 0
-18813 16928 0
10036 -20798 0
-8728 873 0
-11970 -7572 0
-7965 -16102 0
1762 -6875 0
7881 -13 0
-22018 23508 0
10348 -13649 0
-7456 -11738 0
-17527 14060 0
22183 -6362 0
2809 -11600 0
-1549 3376 0
9849 -21012 0
-10673 23447 0
15826 -10181 0
2812 -22857 0
-9988 -6989 0
-16729 -14263 0
950 2296 0
-22973 6811 0
-3710 14898 0
-11188 20583 0
-7461 -18279 0
2724 6945 0
-7222 7032 0
11705 -19026 0
14477 15444 0
12122 3364 0
13713 -5697 0
9128 7322 0
-2860 16733 0
-7252 -3642 0
1024 792 0
14444 -367 0
10863 -6774 0
8356 -16286 0
-7908 -7947 0
5438 -11138 0
-5951 -18693 0
19349 18788 0
16924 -10887 0
18488 14310 0
9985 -22814 0
-12441 11810 0
-7758 18784 0
-23039 2926 0
2225 -7015 0
7208 -20322 0
-7145 -8631 0
1965 -16248 0
13062 -1289 0
-21628 -9065 0
15687 23263 0
1590 -20277 0
18563 -21488 0
11218 -17362 0
12428 -15263 0
5610 -16343 0
-16431 -13085 0
9183 5395 0
6353 14636 0
-16955 -5369 0
-10375 672 0
1420 18441 0
8874 15480 0
-21924 -3053 0
-21289 -4864 0
23698 -12954 0
-22796 2066 0
-23581 -10743 0
-8402 -5599 0
-20698 16305 0
-3894 -10221 0
-17246 -16336 0
7714 18429 0
23414 -2030 0
3638 -6762 0
8113 -5527 0
6954 -5261 0
-18649 -19379 0
-23773 -5433 0
-9844 15488 0
14539 850 0
5154 7455 0
14474 -2793 0
-18371 -2291 0
5698 -9890 0
3201 18232 0
4639 -893 0
-22508 -16493 0
10254 -1112 0
-5153 2896 0
12063 -17953 0
18464 5332 0
-2197 14051 0
19829 -19550 0
12136 12614 0
-20849 -2408 0
1664 -12815 0
-22361 -11764 0
-16708 17105 0
-10102 21255 0
6277 -4855 0
17985 13788 0
-13652 -17785 0
-18787 10386 0
-19785 11430 0
-14565 -10911 0
-9873 -7435 0
21908 -9168 0
19017 23258 0
-18923 -19754 0
-9389 -3360 0
-3 7201 0
2672 12091 0
803 11175 0
23518 -5639 0
5391 -8574 0
-16774 15553 0
21767 7659 0
12943 16163 0
21712 -15825 0
5952 17906 0
12951 -13868 0
-13944 -6962 0
-21560 -7530 0
-21288 -9863 0
9115 18419 0
-21160 22178 0
-23251 3394 0
-15432 -19276 0
12070 17315 0
-14270 -2923 0
-1732 20410 0
-8326 7035 0
9959 1731 0
22989 20961 0
1253 9574 0
-23360 -15881 0
-1104 12705 0
-3763 -6448 0
4751 -10647 0
8884 -7166 0
23331 -21943 0
-20163 -6316 0
-11857 20356 0
-18113 15992 0
11652 9243 0
-6849 14967 0
9559 -11055 0
6808 -9460 0
-22582 15609 0
18467 9487 0
-22104 -4411 0
-7228 57 0
-13338 7828 0
18775 -16490 0
-8113 -21306 0
13081 16915 0
-279 13198 0
19026 1644 0
-2639 12183 0
-23255 -8905 0
-18864 -18258 0
-1944 23478 0
-10335 16548 0
1678 21006 0
571 12489 0
-1002 -21887 0
-21192 -3939 0
3414 10939 0
15608 -3213 0
-6729 -102 0
18691 -5612 0
-8894 6089 0
-15784 -5951 0
-11751 -12121 0
19108 2276 0
20175 5354 0
-8440 18988 0
464 -15301 0
-20853 2887 0
-4106 23223 0
-3016 2515 0
-3077 -14171 0
-160 17057 0
-23104 -15786 0
3011 21083 0
12059 11065 0
-12789 12210 0
7368 20061 0
15455 -19931 0
14539 -5593 0
5427 -13166 0
-10461 21051 0
6175 1899 0
10067 10878 0
11705 -1436 0
372 4398 0
18994 2060 0
-7003 -8508 0
1747 -8843 0
-10822 21390 0
-19395 14710 0
-16435 -1026 0
9855 -5372 0
-11560 14623 0
-22213 -299 0
-13897 13854 0
-2830 -3452 0
23788 3394 0
17327 -11547 0
13413 -18188 0
2203 20748 0
3633 12266 0
-11336 20064 0
-17609 -19274 0
-1725 5918 0
-6414 22813 0
-14131 9006 0
15274 -18671 0
-15394 19682 0
-20434 9469 0
16093 4286 0
-21945 -7109 0
17568 -2108 0
-16639 -13920 0
-5740 20935 0
-18546 16893 0
-23051 -4127 0
18172 46 0
8270 -23533 0
18675 -19264 0
12868 22339 0
16038 3633 0
99 23057 0
-7792 -8640 0
4814 -1473 0
14009 -8319 0
-21575 16772 0
1275 -10531 0
-14885 -21080 0
13453 127 0
15041 -17015 0
-13825 11894 0
-175 -4668 0
1241 -16720 0
7539 10739 0
-8679 -9749 0
-21019 18201 0
2590 -4182 0
9352 -13647 0
11983 -3241 0
14178 16678 0
21040 1533 0
-20091 19307 0
18536 -6164 0
16957 22664 0
-14384 -22797 0
3689 -16244 0
-15440 -13180 0
12132 8076 0
-12040 1285 0
-6941 -13122 0
6712 -9765 0
-20722 17028 0
-1505 977 0
3330 -20874 0
-12848 16531 0
20354 23295 0
-17737 21531 0
21443 7038 0
19120 -1221 0
14272 -7161 0
-1721 18216 0
-5560 -3537 0
10949 -12920 0
19429 -18801 0
9724 -12268 0
887 -8618 0
9566 -20619 0
-2749 -14949 0
6341 11736 0
-7913 -17566 0
-4698 17313 0
-12875 -12893 0
-17145 -17372 0
3362 -644 0
7369 -18102 0
-13099 984 0
-23146 -20302 0
17038 6201 0
-1921 11601 0
5405 18278 0
-19700 10745 0
-10537 19736 0
-8690 1824 0
-5413 -22625 0
11381 -8497 0
-3409 7893 0
3389 -3649 0
13815 -4434 0
-15011 6774 0
-20541 -11219 0
2306 -3192 0
18845 -22026 0
14077 19744 0
-14798 -10666 0
17272 -8300 0
17796 -2161 0
5438 1324 0
11758 -18169 0
-15706 -11891 0
-7792 21338 0
-17560 -22914 0
16526 -66 0
18972 -5999 0
15937 -5572 0
-9032 18052 0
-349 -4893 0
14726 -11916 0
20371 17398 0
-20044 21609 0
-4846 2245 0
-13104 -13679 0
23309 -19026 0
-14561 20723 0
-12076 -8199 0
-16820 6139 0
-2511 -5918 0
13192 -16365 0
-18804 21871 0
15676 16297 0
-12453 16250 0
14746 -3723 0
11367 7280 0
-4873 -2547 0
5528 18493 0
13883 -8036 0
4064 -21612 0
-13900 -19304 0
22561 -13418 0
-17507 -13687 0
-21072 -6624 0
20928 5097 0
1650 -23547 0
-19947 15131 0
-14399 23028 0
-7400 -16945 0
-6447 9270 0
5243 6835 0
3819 18003 0
12070 -2678 0
-12732 -4493 0
9891 -16849 0
-7235 -20745 0
-11619 -9217 0
10746 -8795 0
-5966 7430 0
3190 -21112 0
-11781 13811 0
-12304 5026 0
-3340 -12403 0
-5493 22411 0
-9172 -21015 0
5959 9626 0
9092 -20394 0
-15593 -17579 0
-11148 8595 0
-10943 5299 0
1356 -11279 0
9784 -18828 0
4723 5849 0
11908 -11338 0
-17443 18504 0
6445 23461 0
5815 395 0
-22544 23079 0
-22969 12610 0
23691 -13247 0
-370 -20685 0
2290 11135 0
9333 -7285 0
10145 2577 0
-4023 19556 0
-7243 7679 0
10983 -11376 0
-12011 -7279 0
-16156 16415 0
-14382 8738 0
-13432 -502 0
-14146 -3607 0
-18223 19324 0
17515 -11687 0
15046 -19837 0
-12982 -6980 0
7728 -5778 0
-13327 8589 0
-10141 -6917 0
4043 -2614 0
-19647 -14693 0
7354 -5200 0
14894 8223 0
-4285 15585 0
23313 5713 0
5830 501 0
-9003 -19300 0
-15641 -11073 0
-12206 6155 0
1719 12707 0
2893 -9570 0
-4778 -20574 0
5315 8476 0
-7501 -22549 0
-1177 14841 0
1934 11554 0
17392 -10651 0
9609 -20399 0
18015 -19061 0
7132 -19737 0
-19617 19859 0
7174 19358 0
14789 -7541 0
-12593 14068 0
-9876 13068 0
-8278 21314 0
21375 -19454 0
-4412 -9424 0
-22164 14655 0
5228 -22607 0
-3464 10143 0
13461 -9939 0
-23736 8103 0
21163 9513 0
17016 -14989 0
-15737 -9340 0
-2958 -20401 0
16023 -17154 0
-18923 8219 0
22399 21265 0
-10166 1124 0
17696 17155 0
9899 8051 0
-15150 18258 0
-11414 17519 0
-20223 -22345 0
6405 -1079 0
-14440 -19312 0
1203 21972 0
2995 -20201 0
-17256 -10528 0
-9799 -11488 0
-11738 -15041 0
-8690 11280 0
2391 14117 0
9029 -7625 0
4735 -22752 0
2308 -5698 0
7971 -4043 0
18346 -22076 0
16598 10662 0
17314 -3520 0
-10955 -20787 0
15180 22942 0
-21795 -6545 0
19861 9020 0
11679 -22844 0
2842 -5848 0
14421 -7479 0
-19795 6985 0
-20854 -3746 0
-20641 17387 0
7513 -18370 0
-9155 2819 0
-9012 -3399 0
21101 -18280 0
-6072 21339 0
-22196 -3293 0
-9278 -5772 0
14073 -2335 0
17689 -2412 0
-16431 -21123 0
-20439 -15023 0
-162 -23097 0
-2010 -11772 0
-7877 -13784 0
-22009 -17966 0
11890 12393 0
1039 -11030 0
-22257 -1829 0
-6778 -17857 0
12050 -17916 0
9602 5307 0
-5931 -5782 0
8456 17145 0
21381 -41 0
-20975 -13920 0
6613 1933 0
23790 1807 0
15477 -20706 0
3863 21063 0
18347 13126 0
23303 -20163 0
-5415 -18342 0
18678 -18569 0
21269 -5067 0
22775 -18662 0
-22187 -8866 0
19478 -5641 0
-16923 -3318 0
-13312 -7620 0
-12370 12250 0
20681 10331 0
9364 -7815 0
-10652 20915 0
6389 -8309 0
5007 1385 0
17773 -5794 0
-11172 -13982 0
-12549 -17389 0
6386 15898 0
-19328 3963 0
3317 -17334 0
-5424 20146 0
-817 -16284 0
-18640 -5295 0
-8311 8990 0
-14221 -2068 0
-21963 -2515 0
16987 -9137 0
23453 254 0
-5335 15026 0
-12079 5327 0
-21553 6944 0
-19442 -20264 0
22020 10852 0
13191 19029 0
-22618 -7988 0
-11271 17242 0
11588 11259 0
-10888 -21243 0
-22069 -2869 0
13065 -10437 0
-12873 -9327 0
19984 6625 0
-21457 6222 0
20625 -7353 0
-10678 10554 0
19506 -385 0
20780 16278 0
-10635 20733 0
1781 3512 0
-3529 20590 0
19312 2728 0
-13706 17100 0
-12343 -14669 0
-21763 -5130 0
-12905 21687 0
-7905 16612 0
23236 20014 0
-448 -22144 0
17160 15638 0
-13763 23457 0
13192 282 0
-19253 13545 0
-15643 22216 0
8128 -11469 0
5508 -7688 0
13080 1842 0
19420 -19281 0
8187 -9921 0
-10915 21636 0
-13328 4606 0
-5001 5690 0
12004 13070 0
-16741 -11807 0
20134 23077 0
11443 -2797 0
15911 -5183 0
19970 16421 0
2932 23549 0
23040 16120 0
-21754 15647 0
-7404 19478 0
22092 15382 0
10546 20075 0
-17871 19880 0
6537 20302 0
-15516 -19768 0
-7382 19549 0
-4363 -22164 0
8564 -10836 0
-17799 5625 0
8374 120 0
22956 21865 0
12125 -4355 0
-18548 -14049 0
23078 13883 0
9239 7022 0
13032 3996 0
-10132 12264 0
-18796 6935 0
-4663 -3262 0
-8294 21484 0
-8731 19330 0
13158 1148 0
-9795 11137 0
-7633 12169 0
18713 9275 0
1831 14870 0
17796 14980 0
5461 -8708 0
18457 20317 0
-8888 20192 0
-14055 -7332 0
-448 16053 0
-21062 -12143 0
22516 -13738 0
3890 -2975 0
-16635 19746 0
10564 10695 0
17488 -22844 0
-15932 -21828 0
2141 4281 0
9300 -11826 0
11213 20398 0
-16872 -925 0
16225 3899 0
17063 18325 0
12826 23755 0
-12886 16948 0
-15221 6129 0
681 -7743 0
-5778 -1498 0
4598 -3607 0
23679 -6921 0
14334 -14195 0
-6190 3772 0
-5436 -19936 0
-7844 -20986 0
-23637 -5678 0
-15329 -1884 0
10330 -11402 0
-23770 -19536 0
7758 -8033 0
16217 7874 0
19025 -2817 0
8381 1885 0
10917 8327 0
2786 -15710 0
15862 652 0
13552 -17714 0
3259 20111 0
-19071 -4726 0
-5341 13750 0
-12372 -14096 0
14316 -22520 0
-9023 -3172 0
-14919 17584 0
-16473 22560 0
8332 17969 0
521 -7265 0
5578 -2726 0
-14557 -22335 0
2669 20319 0
-13816 -522 0
17779 -18387 0
-19968 9010 0
6358 17045 0
-12529 -12801 0
23602 -23406 0
13183 10642 0
11205 -14241 0
-5553 -12284 0
10083 1167 0
-6101 21451 0
-10241 -13241 0
-23514 574 0
8978 2539 0
-11634 9843 0
-1300 9840 0
-9636 3884 0
22903 -23541 0
21976 14822 0
21577 2372 0
22411 -10901 0
-5106 4498 0
-8922 -17576 0
-11099 8788 0
22191 15537 0
-15616 -23147 0
8214 9481 0
-3323 -1302 0
12902 20100 0
15705 -14702 0
-13429 -22435 0
11892 -9761 0
-6331 23123 0
-2188 -14157 0
-19383 -11988 0
-10616 -10562 0
-12455 1392 0
7047 -16143 0
12224 13662 0
-1935 -21587 0
2306 22571 0
-23457 -7796 0
-1627 1831 0
6325 11323 0
3393 22921 0
-6271 1377 0
-691 10844 0
1845 287 0
-11630 -9299 0
580 -3 0
8297 861 0
13646 19560 0
-1784 -9669 0
-21153 13729 0
-5395 -116 0
-2893 -21048 0
-12815 13710 0
-14362 2536 0
-21588 -20592 0
7439 22650 0
19312 -18688 0
9954 -14324 0
-11241 15558 0
12691 3599 0
-6957 -18141 0
17625 7690 0
-4749 -7798 0
11445 21590 0
-23517 11490 0
-16752 3647 0
-3137 -10929 0
-7633 20122 0
10639 3647 0
-11959 9022 0
-11395 -17049 0
13785 -6697 0
-8520 7472 0
4420 19605 0
-18534 4350 0
-23065 -17445 0
22431 -20787 0
21718 3223 0
-7429 19143 0
9479 -15569 0
22488 8952 0
9016 15534 0
-9169 -6780 0
-22737 7331 0
2293 -6055 0
-18084 879 0
3689 -10659 0
-4181 20075 0
-6108 -2295 0
-22756 10513 0
12520 17525 0
14074 -16560 0
2288 21880 0
18772 11913 0
15386 3956 0
5354 -20229 0
-19177 11135 0
3180 -8317 0
16622 18186 0
-3751 6974 0
18374 9805 0
13172 13642 0
10341 7540 0
15818 11400 0
-14483 -16787 0
-17372 -13255 0
-12182 7523 0
-8165 5054 0
21274 18838 0
-10286 11675 0
-1347 -6800 0
-9975 15510 0
17868 4 0
-7298 6595 0
12359 493 0
19042 18319 0
-17908 15196 0
17387 6314 0
592 13277 0
-6298 -2761 0
-1715 -14523 0
-3989 -18024 0
21985 -5793 0
20090 -15306 0
-12743 -16854 0
11340 -1444 0
13918 7482 0
9866 269 0
-20202 -8920 0
8982 17107 0
-10673 9148 0
-5136 -6806 0
-17341 748 0
-16985 16491 0
-19285 -9115 0
-12805 11014 0
565 20691 0
-16573 -13789 0
12601 -12605 0
-16266 19885 0
2388 -10144 0
-1046 3957 0
14444 12074 0
23699 16543 0
-6810 -20677 0
-23331 -12030 0
-23559 -12308 0
-12293 22372 0
16915 4924 0
8647 23006 0
-8988 17178 0
-20248 -2780 0
-1063 18594 0
-1407 -18827 0
13193 16799 0
15835 -6073 0
3330 23265 0
13943 -3565 0
-1244 17139 0
-22550 19144 0
3046 21832 0
-6735 -15013 0
22020 -10328 0
9140 5123 0
-13237 -15582 0
-5833 18857 0
-9847 -16011 0
7284 18734 0
13598 22134 0
-22989 18950 0
14945 2801 0
22887 -19040 0
-19799 4070 0
21155 -17838 0
-9941 16139 0
-4185 12508 0
9989 -1781 0
-18917 1028 0
895 -19731 0
-11743 4213 0
8281 4148 0
-22785 10231 0
-16012 -4039 0
18716 10377 0
20589 4297 0
-19220 985 0
-19404 -23559 0
-5484 -11511 0
3024 15468 0
5994 -8341 0
-19401 -3527 0
-5201 -22191 0
-13263 -16092 0
-15698 4906 0
16783 14803 0
19794 22934 0
17823 -5474 0
-22079 1400 0
-11955 -2785 0
-7150 4958 0
6445 -6426 0
-8875 -8532 0
14311 -9236 0
-1132 -18074 0
9313 18597 0
1028 5377 0
-15465 9106 0
-5829 -7420 0
-21873 -14648 0
-10173 23088 0
5146 -1460 0
11605 -17866 0
-19032 20936 0
-21828 16880 0
-14922 -13130 0
-59 15711 0
-3029 10747 0
199 -6676 0
-9423 -10675 0
22092 -4726 0
-4496 -5391 0
-22539 15828 0
-3410 -8357 0
4072 -21608 0
-20370 -6557 0
-20345 -22163 0
-18117 -10559 0
-22905 20894 0
-22006 -513 0
20656 15421 0
12097 3549 0
8742 -14277 0
-20442 -9644 0
-17243 -3884 0
9822 10631 0
-8983 -8588 0
-10007 -1263 0
23070 -19238 0
9000 -293 0
5355 12951 0
9341 -2626 0
-12187 3297 0
-18333 96 0
-19476 -8958 0
8152 15198 0
-21890 -8178 0
-7928 -17973 0
-9213 -18295 0
-22345 7942 0
9694 7313 0
21815 -6570 0
6884 -20285 0
-13546 -1179 0
7574 23358 0
23440 12285 0
15663 18738 0
9332 -7624 0
-5469 -16769 0
789 -16954 0
18230 1114 0
1467 23341 0
-4906 18591 0
-18923 18405 0
8458 2115 0
-522 17266 0
19207 23005 0
8087 15252 0
13345 -22306 0
-9637 23167 0
-13693 -22968 0
-12252 14803 0
4288 18416 0
-18680 3202 0
-18813 9261 0
-226 -11453 0
-21972 17593 0
-18192 3790 0
-2582 13253 0
-15144 23793 0
-8494 -17502 0
6361 -3203 0
13039 8431 0
17381 -4078 0
-16189 17089 0
-8977 5479 0
3439 9555 0
492 18032 0
-21269 -20441 0
3651 5230 0
1547 18344 0
4890 3632 0
-7067 -20240 0
1520 -8253 0
6572 892 0
3698 -22241 0
3939 -23562 0
-18081 -12182 0
22131 22964 0
-22242 20652 0
-11530 -18341 0
-5456 -4639 0
10028 4361 0
-5109 18385 0
-599 13090 0
13612 -19166 0
-886 22204 0
-19246 -10285 0
21707 4007 0
-5858 773 0
-19288 -17918 0
3540 -7025 0
4998 21074 0
-1549 8856 0
-1627 6711 0
-19746 -3722 0
16983 7692 0
10199 -11407 0
-10981 -18329 0
6254 -8100 0
4076 -22604 0
8477 4515 0
-97 -4468 0
13326 14946 0
-8995 -2247 0
20440 21056 0
-10465 18127 0
-6843 8380 0
18933 -11606 0
-9065 -19741 0
-11587 -16162 0
12946 -13411 0
17082 9912 0
-6775 -20044 0
12398 -10248 0
367 -15200 0
-14766 -19686 0
-5756 7617 0
-4012 -21478 0
-719 -6775 0
-16669 -17732 0
-17598 -5176 0
759 12122 0
-18558 -18769 0
-22644 3327 0
21067 -18178 0
-22809 -21192 0
-8641 -4839 0
-9836 -12044 0
17034 9664 0
-2706 -11950 0
16643 -5914 0
22809 9399 0
-16097 21 0
7820 -8077 0
-12760 -2041 0
-7295 21822 0
10115 -11640 0
-14401 -3134 0
21558 -12001 0
-20669 9374 0
-3458 -9621 0
238 9277 0
1933 -19644 0
10251 11919 0
-7479 -16980 0
1140 -18754 0
-22703 -20622 0
-1033 -20525 0
20121 12786 0
14861 -11763 0
15640 18853 0
7351 15780 0
-11870 -12975 0
5192 -6626 0
-541 19519 0
-11188 15472 0
-5604 -12156 0
23051 -6548 0
-8074 -9651 0
13609 11280 0
9346 831 0
-21430 3187 0
-16289 -6190 0
16107 -9379 0
7245 16021 0
7179 -15529 0
19633 -19658 0
14050 3691 0
15885 18590 0
-18345 19372 0
-23325 4805 0
-15502 -23448 0
8529 -6978 0
15996 2577 0
14786 12163 0
12470 -19722 0
4424 -8668 0
21503 -13077 0
10641 -9718 0
7200 -503 0
636 19056 0
5855 -5958 0
20544 -15408 0
-21694 -5857 0
8560 13251 0
11904 4191 0
-17106 -2022 0
17478 10920 0
-9722 -5724 0
17541 -7625 0
-7690 -21329 0
9786 14000 0
-5016 6958 0
1169 10227 0
20489 16421 0
-949 20246 0
13439 -3363 0
-14493 12913 0
1432 1187 0
16281 -18089 0
14440 -5487 0
7932 -6595 0
13758 -2930 0
-17840 -9561 0
-11943 20584 0
-9980 -1701 0
-7635 -20098 0
10345 11854 0
-18869 10399 0
18453 17898 0
10117 -20779 0
-23654 16924 0
6875 -1204 0
4373 -23119 0
19155 -9935 0
12692 -16156 0
12870 -11426 0
-13139 -13015 0
-23782 -144 0
-17868 8197 0
10449 18188 0
-3557 -10831 0
12264 693 0
17179 12057 0
378 -22557 0
-12825 -9262 0
-476 -14393 0
18677 -15717 0
-6731 -14456 0
13408 -21475 0
9779 6125 0
-23107 8604 0
-23786 -14401 0
-20396 7138 0
16452 -5340 0
10849 6857 0
-11975 21034 0
-13490 -1009 0
16140 19026 0
-5556 -6446 0
18260 19293 0
4615 18927 0
7020 -23433 0
22904 17303 0
22686 8348 0
-22686 16247 0
18770 9508 0
-5211 -8837 0
-5278 21779 0
-22290 -2588 0
-7614 19763 0
-290 23206 0
5408 7447 0
20907 -4603 0
-11251 19389 0
7499 -7833 0
-13982 -15893 0
5112 -19235 0
13100 4212 0
-715 -5750 0
-4336 18145 0
18837 -16281 0
-11536 14535 0
-11733 19601 0
17415 9272 0
16683 8572 0
22127 4334 0
-11595 15564 0
-7876 21605 0
-20252 657 0
-1889 22170 0
-14037 19677 0
17757 12377 0
2344 18984 0
21576 15768 0
-23012 7723 0
-19266 13141 0
22959 13772 0
-4061 -7462 0
-15286 -19277 0
13780 20297 0
19857 -6728 0
20148 -14483 0
-5395 -7418 0
-19117 -14779 0
12028 23421 0
54 -8885 0
20713 9510 0
-8832 7546 0
20720 -17215 0
-14378 -14353 0
23160 -18174 0
-21499 -16628 0
-10109 -17844 0
4323 11096 0
-5302 -10888 0
-20833 -2478 0
22290 812 0
2674 -20410 0
853 -4367 0
-17077 -16798 0
-19700 20800 0
20585 -12940 0
-16827 -1423 0
8836 -22972 0
-9383 10544 0
-21697 9915 0
-1879 20551 0
-19710 -15103 0
-13257 -21265 0
6577 -2521 0
-13361 -22588 0
-8798 6130 0
-18508 18343 0
-12000 -6741 0
-1717 11600 0
19637 4777 0
-21872 3725 0
-22789 -2714 0
5926 11432 0
-14983 187 0
-17930 -12222 0
-5870 4077 0
-8314 21955 0
-3060 19264 0
12674 -23310 0
-16674 21540 0
-1576 1557 0
2169 -17122 0
5262 -10711 0
14842 11191 0
143 -21369 0
-10393 -19148 0
19132 -5593 0
-6191 -5238 0
-9169 8728 0
22975 17527 0
-9976 -17022 0
12344 -22794 0
-21502 -6910 0
13810 -795 0
-10971 -22816 0
20401 -16324 0
23505 -11938 0
-17153 17929 0
20570 4980 0
-17851 -22181 0
3829 20496 0
6420 -2338 0
-22154 8598 0
20135 -5121 0
-10822 13752 0
2913 -8438 0
-13450 5764 0
15434 7334 0
21443 10496 0
-18530 4364 0
97 15457 0
16390 11380 0
-20873 -15720 0
-10984 8415 0
17523 -15164 0
-23581 -22774 0
-11073 -9455 0
-14168 8669 0
13399 608 0
-4792 6510 0
-23672 -12225 0
19367 -11207 0
-4532 -1742 0
3727 10871 0
2779 2210 0
15715 9164 0
-1409 -20902 0
-16096 7443 0
-4338 -18749 0
-16786 -20590 0
13975 2133 0
1015 14065 0
13694 -11456 0
-22152 4028 0
-11168 21841 0
23034 -11568 0
2738 15393 0
18200 9273 0
18845 921 0
7975 -22265 0
18785 340 0
-9480 12769 0
20038 -5440 0
22393 -311 0
4351 13284 0
-22248 3815 0
-6662 7322 0
-21445 23050 0
2073 19257 0
-10305 -3001 0
-8665 4639 0
12559 -21499 0
-1026 -10587 0
7258 -10757 0
-21266 22940 0
-20504 852 0
23192 1589 0
-8069 10990 0
-18542 18170 0
9682 -17166 0
-23750 17130 0
2505 10745 0
-8361 -10576 0
17619 -9770 0
-18879 -20201 0
-15906 -14464 0
19556 -857 0
-15917 2785 0
9955 -19887 0
8059 -14969 0
-15809 7315 0
-1278 -16282 0
11193 18848 0
-22663 -13209 0
6066 15190 0
-17836 9026 0
215 -9326 0
-15073 -678 0
-8207 -4240 0
6595 6784 0
-6540 -4210 0
-11647 10896 0
10380 14420 0
-21874 -4013 0
-16235 -10333 0
-9420 -8614 0
16374 19577 0
-7693 -15596 0
17935 -6866 0
14260 11461 0
12433 2673 0
15039 -7960 0
-20626 3698 0
-19296 -4808 0
-21174 19401 0
3137 22572 0
-5330 -8328 0
-15736 -8247 0
18231 -3322 0
11302 14610 0
10613 -11184 0
-1200 -15157 0
-21331 -20412 0
4527 -9972 0
15987 7763 0
15263 10342 0
-4635 -2624 0
-22165 2019 0
-18810 2326 0
22416 14512 0
-11454 -19790 0
-9990 -2575 0
11688 -21274 0
21763 -11918 0
-12886 19916 0
-7853 -8326 0
15420 -8724 0
13124 -401 0
22059 -11187 0
13135 5045 0
4600 7941 0
21160 -14905 0
-19411 22483 0
13497 -14254 0
-1308 -15150 0
11979 -354 0
-12508 12603 0
-10834 -21457 0
-3291 3974 0
-12849 13362 0
-7206 -13299 0
-1895 -594 0
12547 14147 0
23335 -7468 0
-21704 21536 0
15166 15211 0
-7234 14178 0
19784 -9608 0
-12015 -8861 0
1626 21716 0
-1034 -17525 0
-2519 -23791 0
12657 19184 0
-6994 -11653 0
8619 21225 0
14936 -19541 0
7141 16167 0
-11472 -1080 0
3552 -23559 0
7333 -1354 0
18941 -19274 0
-18808 17316 0
-22671 -20537 0
10953 -5573 0
23691 3813 0
20570 -3485 0
-20082 22440 0
-6073 7516 0
-3666 -14506 0
-21460 -3940 0
-18580 5398 0
-7110 -19583 0
-1384 14962 0
-2176 -6949 0
3371 8383 0
16189 -14290 0
6792 -14680 0
-16518 -2281 0
-1365 -12622 0
-17788 12082 0
17645 16922 0
-19286 23686 0
22622 15930 0
-18883 -6110 0
-9103 -2727 0
4115 -21741 0
21518 -10056 0
20418 -23278 0
-17355 -625 0
10730 2812 0
13974 20806 0
-9736 -3009 0
-1325 -798 0
-6967 23163 0
-260 -8954 0
-9913 -17983 0
-7680 -21700 0
-11412 -16967 0
-7673 -1489 0
19641 10049 0
15295 4934 0
-23528 6208 0
-1894 -21569 0
-5383 8007 0
20182 23132 0
-22388 10864 0
8376 -11205 0
-9616 -16723 0
-13017 14865 0
15052 -4166 0
15376 4440 0
-3247 3470 0
20183 4338 0
-22998 6981 0
-10262 -16758 0
-7863 -17413 0
20005 -14246 0
11605 7162 0
5090 -5543 0
-23615 -16841 0
15585 -6986 0
-5249 -19069 0
6744 -16700 0
-20617 -2116 0
-21908 17019 0
-11579 -1947 0
-5460 5958 0
-12653 -10749 0
-17838 19427 0
8253 3625 0
-3254 11430 0
9990 4141 0
-11803 22603 0
-11426 9837 0
-19918 -344 0
-4184 -17678 0
22334 -302 0
-18356 -4413 0
-19093 22971 0
-12488 -19421 0
-22119 23603 0
12054 19525 0
22627 -12862 0
-5278 9963 0
-7986 1253 0
22480 9981 0
-8014 -17973 0
7541 13814 0
7732 5743 0
5383 13408 0
2910 -16923 0
-13774 21303 0
14125 13172 0
-8779 -13614 0
13314 -4937 0
17585 20152 0
-5511 6755 0
-8621 19983 0
-8700 13760 0
-7477 7980 0
3640 11764 0
19130 -19093 0
10767 -8109 0
20717 15133 0
18684 7284 0
1693 17895 0
-21385 4732 0
-2378 -23575 0
-10190 -12014 0
8869 -8199 0
-11617 -1169 0
-11112 -1866 0
-10690 18463 0
4130 -12435 0
-19744 18604 0
-13282 -1882 0
5461 -23622 0
22602 -7514 0
-20972 -13227 0
-7229 -10387 0
-13982 -6828 0
23639 -12922 0
-17055 -23535 0
13899 -8849 0
4164 -3542 0
717 959 0
12921 1454 0
14023 -23033 0
-20098 -19822 0
-17530 2650 0
22866 -19616 0
-5594 23742 0
-14305 23355 0
19057 18168 0
-2689 20983 0
5344 1857 0
-8486 10724 0
8841 -10993 0
1297 -15454 0
-14574 -19940 0
-23039 9778 0
20487 -22410 0
-4033 -5295 0
17342 -23230 0
5967 1571 0
10006 23511 0
-22955 4431 0
-7704 2826 0
14877 -21858 0
7208 6290 0
-5678 3297 0
23026 -10018 0
-16560 -7816 0
747 -4650 0
-9103 10447 0
-11826 14593 0
12051 6301 0
-15157 -20206 0
115 -10216 0
3080 5362 0
22463 -17128 0
2488 2451 0
2496 -9146 0
18673 2595 0
6878 -19511 0
-19083 -650 0
-14092 625 0
-17079 18437 0
16775 -20953 0
-2633 -9245 0
-21889 -1086 0
-22047 -18792 0
-6526 19511 0
-8828 5530 0
152 -23774 0
-2873 -21210 0
19039 20123 0
20954 12859 0
6574 -9778 0
-18146 11379 0
1233 13158 0
-22893 19675 0
-16603 16773 0
15935 4651 0
1439 -8890 0
4775 5015 0
14051 -9480 0
10808 17790 0
-8780 -9693 0
12209 -22746 0
2477 -6836 0
-20576 4821 0
-7956 15663 0
13049 -15726 0
-21596 -5501 0
11709 10416 0
8052 7207 0
10786 4935 0
3236 95 0
3332 8964 0
-13313 -6293 0
8197 -10166 0
-1109 -22320 0
-21320 -16505 0
2653 22356 0
-4889 -2575 0
-11852 -7047 0
4513 13148 0
-1119 -12882 0
-22874 -17734 0
4492 -2285 0
-15406 3322 0
-21228 -20211 0
-8159 -12648 0
-7203 21447 0
12670 -3962 0
16707 -22744 0
13277 -16812 0
-11818 -21539 0
-7595 15271 0
3826 -22931 0
-23210 -22389 0
8716 -18387 0
4990 23208 0
-19648 9642 0
2891 -22055 0
12144 -15330 0
12811 -10108 0
-15790 -14602 0
12267 -8847 0
-12661 -5382 0
20695 -14289 0
11148 -9193 0
7817 2613 0
-22692 -11862 0
22415 -11189 0
7913 -10955 0
-12379 -12507 0
16346 -20684 0
2489 14309 0
-6477 14325 0
20347 -6673 0
-11296 -9712 0
-200 1475 0
20786 -1674 0
-15499 15190 0
-4445 13914 0
8954 8577 0
-10797 6255 0
-16819 -21706 0
-4599 20856 0
16386 -13943 0
7523 -807 0
5359 -14549 0
-3277 3280 0
6341 21678 0
-20315 17754 0
2112 7036 0
-21429 13075 0
-12060 2521 0
-19222 -6341 0
6024 -8696 0
13085 21303 0
9559 4517 0
-779 5088 0
2188 -17345 0
3066 3196 0
-5132 22664 0
-20373 -11692 0
-5735 -5832 0
21629 -6419 0
-4008 19542 0
17690 -5413 0
-16334 -11350 0
19872 2619 0
-4904 21966 0
-3950 -18081 0
820 5644 0
21152 22031 0
-14422 9160 0
-19893 -22025 0
15868 -14223 0
-16544 -1651 0
19611 -23000 0
-3081 -13391 0
-4706 10512 0
-4542 -7003 0
15252 7219 0
-17798 -17977 0
-16643 17448 0
18860 7577 0
22597 -22116 0
-12223 21243 0
-8128 15729 0
19218 -23712 0
7042 7705 0
-18071 1379 0
-9876 5499 0
-13169 -12328 0
14746 9382 0
11876 -815 0
14593 3432 0
-23011 -20036 0
-4271 -17900 0
15306 -1141 0
-6710 16384 0
21809 13991 0
8884 -7505 0
-5992 -8258 0
12960 17056 0
-17547 -13770 0
4018 10576 0
6567 -16778 0
-15266 -4767 0
394 -10548 0
-7085 16501 0
16953 18852 0
287 -21895 0
3662 -1023 0
-13897 -346 0
7040 -22409 0
18480 9423 0
8422 -15795 0
3118 15631 0
-16680 18187 0
14900 9501 0
-2323 15107 0
9371 -16909 0
22556 4107 0
285 -3317 0
11940 10010 0
-19978 7928 0
2013 4073 0
-18768 -3804 0
-4852 6952 0
-19747 -14852 0
-7241 -21533 0
-5613 21211 0
6495 16092 0
3700 -22307 0
-6810 -8761 0
2541 -19288 0
22296 2387 0
10652 13403 0
-22951 18245 0
13187 19429 0
19236 -3410 0
-15738 22149 0
15773 -9344 0
17886 -1367 0
14927 23382 0
10129 5241 0
4578 23564 0
1048 -7019 0
21965 -8820 0
13007 11404 0
4889 20955 0
-22916 6655 0
-4943 -13333 0
22930 -9012 0
3560 1419 0
-18689 -16824 0
-13641 -414 0
-2161 11717 0
4068 -19790 0
20373 -7868 0
8652 -9921 0
-6532 -15312 0
-13713 20383 0
21892 -16458 0
-241 14017 0
22409 -16692 0
-8503 -1594 0
-14860 9068 0
1841 6237 0
12901 -17780 0
-3421 -3476 0
-17680 -3450 0
16529 9699 0
7851 -281 0
9545 -8309 0
-20925 -5834 0
-17367 5415 0
20794 1264 0
11004 18094 0
13022 -10536 0
21773 19054 0
-2039 -4487 0
8786 -3598 0
11493 15536 0
-13604 -15001 0
14157 -4420 0
14493 -728 0
14470 -78 0
12254 -6324 0
-22229 -9753 0
-1989 869 0
10809 -14711 0
21205 -19864 0
-17715 2506 0
-2646 6049 0
-20305 7185 0
-11815 -12906 0
20384 21751 0
-21597 2070 0
-5390 -5499 0
-22285 -6564 0
16656 -3902 0
2746 18732 0
11473 -20015 0
19629 3833 0
-6068 -9040 0
-19105 3930 0
-17435 15906 0
15878 628 0
-15679 6670 0
-1647 4212 0
19864 -13133 0
-21186 11634 0
-8377 20052 0
5818 21849 0
7008 -21537 0
-18000 -22082 0
1287 13126 0
2281 -13896 0
-5201 8886 0
12099 15458 0
13269 -8098 0
-3801 -18524 0
-11049 -17857 0
8848 7405 0
16928 -7029 0
15477 -939 0
2629 10425 0
6593 1471 0
-1288 -16028 0
18772 13542 0
21608 -17999 0
-21964 20085 0
10967 -23656 0
-396 -21613 0
-14904 -9713 0
-21612 -11029 0
15097 -22223 0
2610 -19765 0
3273 12670 0
11432 3371 0
796 18161 0
4552 10453 0
21666 -16185 0
15925 -8375 0
14335 20204 0
17483 20461 0
7038 -12288 0
19443 -17279 0
6702 -11523 0
-13217 -20969 0
-3376 -17122 0
2896 8030 0
-20977 -21503 0
1183 6513 0
19087 15816 0
14193 -10620 0
-1204 -20758 0
-4329 21591 0
17078 -8735 0
14261 -23655 0
11954 763 0
-116 -1018 0
10967 -8214 0
15714 -8907 0
1377 -13369 0
16844 17933 0
7924 -14171 0
13023 -6330 0
-23316 9188 0
-19257 -23562 0
9607 9737 0
-3310 3955 0
21726 -13360 0
7262 -13212 0
-16486 9020 0
-19275 21330 0
13352 10134 0
-18663 -23363 0
12341 5561 0
16342 -8232 0
-3013 10687 0
1117 -6690 0
-5488 21633 0
8954 -4301 0
-18138 -18440 0
-20313 2383 0
-20258 -14474 0
1628 14786 0
691 21347 0
-2023 -9012 0
-7709 6353 0
-17270 18786 0
-12275 8195 0
22297 10049 0
-14423 -14620 0
-20915 6083 0
-18624 -19624 0
-14214 -2604 0
-8643 21398 0
-3696 -4720 0
12593 2448 0
-11658 -2271 0
-111 19133 0
8346 -13594 0
13435 20873 0
-7014 14595 0
3874 3394 0
11079 -21913 0
543 22087 0
20217 -21647 0
-9409 10099 0
20887 11530 0
19955 475 0
17073 16152 0
-8246 1799 0
-5831 -734 0
11889 23700 0
-11596 5292 0
-13273 1647 0
16111 -2065 0
-1228 -9556 0
-2612 21826 0
2578 12051 0
3062 -10495 0
-15655 4899 0
5126 -20769 0
20456 -14591 0
22761 10303 0
16627 17913 0
-5114 7940 0
8251 10854 0
12469 5699 0
8760 -12151 0
-7033 3883 0
14492 -17865 0
-17537 10547 0
-2270 17297 0
-7877 8237 0
9350 -9004 0
-7387 -16 0
12992 -18705 0
21097 12137 0
20820 10686 0
14180 -16207 0
-17709 -23290 0
-19193 -3834 0
-8968 6688 0
-7294 -23520 0
-22746 -16812 0
6519 10740 0
-14249 16522 0
19220 -9598 0
-16672 -9823 0
5175 6047 0
19359 11058 0
21627 -7205 0
-14955 -5767 0
17177 -15243 0
-840 11213 0
22757 7149 0
-17025 -838 0
21872 16973 0
17965 23011 0
9753 18328 0
885 -9389 0
5672 -11460 0
-14462 6387 0
-19945 4283 0
-13312 -6600 0
14023 -3267 0
-17070 18068 0
9676 -5173 0
2083 2087 0
22003 -2155 0
15237 18161 0
3910 2657 0
14338 -16945 0
9756 -11083 0
11412 11130 0
23369 7724 0
21955 -2787 0
6420 -2120 0
13091 23065 0
20885 -3407 0
-14111 21801 0
21657 5316 0
6106 -3589 0
651 -13953 0
22009 18494 0
9865 -9940 0
-17604 -9033 0
-1364 -10976 0
21361 -103 0
996 -10276 0
23063 17068 0
1083 20475 0
15694 -6236 0
-2621 -10115 0
-18753 -16242 0
-23189 -12384 0
1637 3878 0
9012 11745 0
20218 15755 0
-10198 15410 0
-184 -21891 0
-13288 -5238 0
-2491 16290 0
14303 9554 0
17802 -18178 0
6800 -4550 0
-22228 7838 0
-1677 -22053 0
-16935 -8631 0
-10563 5093 0
6661 -17417 0
-8524 -2793 0
2214 5645 0
-23453 -5406 0
23137 16583 0
-294 20265 0
19267 16703 0
6579 22419 0
3728 5495 0
-8043 -7325 0
17974 18245 0
-8017 -2934 0
12413 -1840 0
-13017 -12237 0
21462 -3728 0
-3672 7734 0
7178 157 0
-6840 -14620 0
-16672 3756 0
606 -22910 0
4217 9151 0
-16291 -10839 0
14330 22002 0
10581 -17692 0
-1258 20299 0
-5705 13552 0
-12459 275 0
13814 -18436 0
-15352 -11479 0
8909 10643 0
-14930 10844 0
-6911 3783 0
-493 18291 0
14701 11497 0
6340 17946 0
-8224 -16347 0
2376 9541 0
11639 -10918 0
17157 18954 0
73 21182 0
1874 -10582 0
3375 -17581 0
-19888 11848 0
21696 -23093 0
-6318 9988 0
5801 20476 0
-9414 -3778 0
796 20312 0
11496 -584 0
-8902 -3856 0
19826 -9518 0
-10680 6575 0
16771 -15035 0
-7118 -17284 0
-5511 -7270 0
16092 -20620 0
-8654 -23288 0
3943 -1484 0
1455 13911 0
-10614 5038 0
-8872 -3917 0
16530 13945 0
-15154 -21533 0
2122 18299 0
-13275 -4286 0
20153 20 0
-2381 -8269 0
5868 22770 0
17631 8783 0
-6340 -2468 0
-22555 1078 0
-5891 1449 0
16392 7415 0
-22605 -2559 0
18695 8235 0
8869 -9370 0
-2445 11878 0
18426 10725 0
18255 9340 0
-14573 -5452 0
-23466 16558 0
-8009 10210 0
-20839 -2467 0
-16873 -1823 0
-9726 -16821 0
17007 -18242 0
20903 4830 0
-18897 18829 0
18868 -5596 0
-9844 -5376 0
-17456 -1976 0
-12120 10273 0
10536 18032 0
19704 3721 0
-16549 20316 0
1401 -21605 0
6155 -19276 0
14797 2990 0
-5242 -5356 0
-19050 9092 0
-19962 5637 0
-14963 -14275 0
-412 23513 0
-6706 14450 0
-15701 10644 0
-18288 19148 0
-19712 19543 0
21420 6582 0
15032 5279 0
-2733 -5335 0
-1576 22187 0
6353 17796 0
-6772 17525 0
7576 -22133 0
-13790 -13009 0
-1031 -12422 0
-12917 14872 0
-22745 -19398 0
18130 21867 0
3373 1682 0
2758 20053 0
13434 -23207 0
-10860 -21129 0
12448 -17083 0
-11015 7390 0
-2012 -22338 0
-13730 17369 0
401 3290 0
-7588 -15633 0
-12074 -17220 0
10026 6081 0
3655 22637 0
20115 -5716 0
1620 -9375 0
7326 -14782 0
-1659 1436 0
20549 8909 0
-11970 -15355 0
10176 4977 0
10792 8502 0
508 -19224 0
12529 16151 0
11593 -11258 0
3496 -17836 0
3757 615 0
-1255 18059 0
-7521 17420 0
-23086 -4874 0
-9228 -1862 0
12380 -20766 0
-20943 5018 0
-12242 19986 0
9850 -12695 0
-16083 20061 0
22873 -14500 0
-17064 22875 0
-9472 -10048 0
-21221 20390 0
-6937 -10250 0
12948 -3086 0
5181 12590 0
-7144 -15168 0
13081 -1429 0
-10394 -3134 0
7836 -21285 0
16392 -11531 0
23172 -11902 0
-16103 -7437 0
11296 -10972 0
4473 146 0
-16028 3970 0
20234 12419 0
-1125 12834 0
-19649 -19251 0
-13910 -16789 0
-4039 21563 0
-1389 -17929 0
15595 8208 0
19356 2912 0
-8921 -20052 0
11455 2476 0
16642 -8164 0
19611 -12335 0
829 -17460 0
-20659 -7279 0
22725 -16031 0
3666 8865 0
-21499 4545 0
11609 3237 0
16396 13283 0
18327 -13004 0
21225 -20657 0
-3424 -12718 0
17657 -317 0
3194 -7377 0
-22211 -3801 0
-10625 -7188 0
-6240 -13733 0
-13421 15057 0
16868 -15860 0
19776 -20515 0
20259 -887 0
-22069 3234 0
-16319 18028 0
14780 7515 0
-22861 -12107 0
-5388 6024 0
8651 16061 0
-3840 -21953 0
3532 5450 0
-23460 -19400 0
15267 11488 0
-9030 -16676 0
17995 10049 0
-16178 4004 0
-3116 21834 0
-1896 11533 0
-2851 -21313 0
-12284 1355 0
-20714 -2234 0
3466 9670 0
23269 -19189 0
-19426 -18697 0
9022 10174 0
-5895 -8903 0
-12023 21665 0
2807 20037 0
-19469 -10947 0
-23257 -12105 0
-20473 -10601 0
860 -1787 0
-5874 14169 0
19843 13321 0
-2413 -8010 0
-7608 -2000 0
-14557 -11479 0
12303 -7003 0
18015 -22761 0
-5335 10130 0
12213 -11521 0
-19206 -666 0
-17656 -20274 0
21222 1497 0
-7944 23171 0
-15986 13022 0
-21318 21856 0
5892 22232 0
18103 -16599 0
-23034 -3380 0
16326 15861 0
-15308 23705 0
-17920 -3421 0
-23710 -21261 0
9745 2616 0
-19393 12817 0
8655 -20339 0
-16588 10622 0
-17344 2630 0
14315 19666 0
-4799 12686 0
13364 -2588 0
-16202 23649 0
9812 -16855 0
1588 -11850 0
-13366 19052 0
-6907 21423 0
-14939 -16682 0
-11600 12694 0
-23462 4638 0
-22841 -2661 0
-17060 8441 0
11085 18690 0
9478 11932 0
15746 -3686 0
-14578 -5756 0
-13437 -20128 0
-2472 13930 0
7593 21438 0
5110 -15540 0
-12081 -9885 0
-18846 5657 0
-4323 15009 0
18214 -5573 0
-21786 22438 0
-14388 21002 0
-17581 13780 0
-594 -8364 0
-15412 22451 0
-5719 -18545 0
12234 -2633 0
-13562 16016 0
-21018 16828 0
10008 20115 0
8409 3027 0
-16058 18041 0
10684 4645 0
18973 6222 0
16163 -15633 0
18677 3519 0
9848 -14662 0
-10354 -17753 0
7653 13284 0
-4108 2746 0
6123 1155 0
13368 -7553 0
-22006 6351 0
-5234 -3107 0
19803 -9715 0
2587 -6483 0
20615 13819 0
20646 -2342 0
-3763 -4987 0
12003 8139 0
-19034 4158 0
11556 -17180 0
6868 17592 0
12533 20411 0
-17159 10806 0
6687 -13599 0
-4168 3166 0
8837 -10774 0
-2427 15920 0
-21137 -17481 0
-19554 15079 0
-17335 4290 0
13286 -20667 0
-9827 5544 0
-4531 -15317 0
-7967 -2519 0
6800 5484 0
18389 23293 0
-1302 -7186 0
-18185 -21578 0
-8520 7474 0
-10963 7480 0
-6982 -2603 0
-12309 -186 0
10840 7703 0
787 23579 0
20659 -518 0
-19921 21345 0
-5024 -22604 0
8281 9034 0
-15451 21867 0
9990 -22855 0
1095 18707 0
8657 -13578 0
-15086 5758 0
9450 6903 0
-19907 2829 0
-9186 5150 0
-15395 14759 0
23136 13511 0
16376 -10266 0
2338 17141 0
-20563 19415 0
-18743 5391 0
-5901 13913 0
17231 15483 0
18154 11743 0
-5381 -19205 0
-9685 8396 0
-20883 11942 0
16226 1685 0
-17703 -21272 0
-5489 7052 0
13525 -2107 0
928 12934 0
-22768 20 0
-18956 12184 0
1691 -5186 0
-5154 -1684 0
-9636 9014 0
23242 -4020 0
-2622 -18504 0
16642 8858 0
-15664 11192 0
-21888 11694 0
-7958 -14008 0
-11437 4786 0
-11355 -11148 0
-20016 -17414 0
-11581 4481 0
-20077 -14629 0
17349 5436 0
-1853 14504 0
-6899 -4468 0
-14270 -7395 0
-16701 -12920 0
-23239 23579 0
6476 -10505 0
-2786 19577 0
8787 -9112 0
-7551 -11056 0
-1121 3269 0
-18469 3790 0
-23783 -664 0
221 -8750 0
-5114 9633 0
3274 22456 0
-2022 10696 0
-19275 15019 0
2681 21791 0
5426 -822 0
-16544 -1281 0
-2982 -3594 0
19213 13465 0
-996 3854 0
-22432 -19454 0
789 -9779 0
-786 7922 0
-2720 5048 0
20246 21253 0
-9876 6934 0
-460 3158 0
13119 -21512 0
-15561 7470 0
-8673 -18210 0
-12995 -4305 0
8703 3390 0
19077 -8461 0
11151 -174 0
20114 -528 0
-16420 -9799 0
-22599 6700 0
-10230 -21627 0
-462 22173 0
8333 -7325 0
6459 23637 0
22371 9151 0
20372 19750 0
22036 -13470 0
5394 22096 0
-2390 -6265 0
7141 21268 0
13375 -11059 0
-2076 690 0
-23416 -21559 0
-3174 21242 0
14688 6293 0
-21678 -11778 0
951 -20300 0
2205 7052 0
-11555 -18341 0
-12372 12274 0
-16457 -22327 0
8522 8790 0
-13304 -4971 0
-14534 -18229 0
-3288 22951 0
17048 -21270 0
-12724 13956 0
19913 -22056 0
2008 -13257 0
-20899 3121 0
-4252 6971 0
-19138 -20227 0
21911 5388 0
-13426 -8135 0
-7492 4820 0
11310 1667 0
-18812 1036 0
9385 -7101 0
8553 16250 0
341 14525 0
-21760 21992 0
7659 10545 0
19909 -17904 0
21303 19263 0
-8050 -19349 0
10885 -15156 0
1223 11234 0
-10729 7674 0
-6155 -21663 0
2941 10472 0
7519 1207 0
-10711 -16488 0
-9329 -19116 0
5307 -7036 0
14416 12693 0
22411 22835 0
-15793 18827 0
-2515 -21078 0
-7338 -20623 0
15276 22464 0
6935 -9252 0
-13119 -17626 0
-16043 21058 0
-2069 8728 0
-633 -1677 0
15366 -21945 0
-19086 9711 0
-7401 8501 0
-7689 -1511 0
-14385 4844 0
-14035 -6512 0
190 22786 0
-22284 -8835 0
-20799 14437 0
-5427 9848 0
-1607 19328 0
-20760 16428 0
18865 11714 0
8158 4453 0
16925 4666 0
3650 17828 0
-3960 10642 0
-13299 -16174 0
-280 8798 0
-1209 695 0
9558 -22828 0
3226 1786 0
-12235 8921 0
15150 -21019 0
19693 -15596 0
-19249 -19159 0
31 -16194 0
22322 -5381 0
-20665 -19541 0
6437 -22355 0
-8689 2892 0
-10400 -19822 0
-1921 -861 0
7828 19510 0
-11555 -8772 0
-1121 6667 0
7438 -5846 0
22448 16168 0
14752 -20761 0
8380 3050 0
15135 -13378 0
-1780 -12102 0
-16019 -8226 0
-3362 23454 0
-11308 -22287 0
15487 -4126 0
18983 -23791 0
5702 7000 0
10901 -15275 0
16755 -1676 0
-5128 2627 0
-6101 14659 0
-11148 21432 0
-593 -10847 0
532 -21589 0
-8298 4414 0
-23683 15091 0
18366 -13545 0
-11930 -5440 0
-15639 -13589 0
-9274 -18999 0
18059 -16968 0
-7753 3757 0
-17352 7656 0
1065 -23046 0
15659 -20135 0
10025 6158 0
6539 2884 0
22701 -19628 0
-4222 -6631 0
19280 22979 0
-17099 29 0
22809 19521 0
21260 -8524 0
9606 -21103 0
-22605 14046 0
7216 -14132 0
-8853 15608 0
19880 -22360 0
-7624 23365 0
-22651 4995 0
-23789 17401 0
-23114 -13923 0
17484 -23645 0
-10669 -16583 0
8454 -9460 0
8704 9559 0
-8400 2666 0
-19922 -11543 0
-20094 12469 0
21465 13862 0
13553 -625 0
-17556 3071 0
-714 -18908 0
20236 16379 0
-17550 -4370 0
18344 2491 0
22778 -14131 0
20607 592 0
-3726 -8499 0
-5109 -9508 0
-22476 -15086 0
16243 -12894 0
13336 -15973 0
-19982 6495 0
6160 702 0
-9643 10888 0
14208 -10115 0
-10429 22387 0
-3868 4842 0
-11091 -6881 0
-8266 -11742 0
-23323 10155 0
5918 -12863 0
-15798 -11041 0
-9086 -16687 0
1178 -17344 0
-15987 -15047 0
18224 -12953 0
-14229 -23487 0
13912 -18925 0
14280 11532 0
-10495 -2582 0
-10829 -8145 0
-16068 15136 0
8267 943 0
2810 -23080 0
-6482 -14521 0
-16770 23512 0
20242 14149 0
-2621 -4485 0
17030 -15777 0
-13780 -19161 0
-19309 12391 0
-2024 -10116 0
21347 -5707 0
19021 -5315 0
20263 -23721 0
19231 -2175 0
22987 1087 0
6439 8036 0
-16558 6407 0
15869 -6289 0
15326 -986 0
-1148 -17104 0
-5486 9363 0
298 -22036 0
5031 5929 0
-18389 -23540 0
16485 18188 0
-13772 340 0
7951 -18929 0
-7352 -6438 0
12313 12304 0
-11472 -11369 0
-17620 -21291 0
-13688 -6343 0
-8400 -9539 0
10471 22635 0
-1553 -6423 0
10712 2405 0
-3378 19529 0
19911 12106 0
9557 21398 0
-7293 -11000 0
11379 -19702 0
13968 -8170 0
-14416 10094 0
-11403 17683 0
13301 -5202 0
-20857 -16834 0
-17383 14880 0
9323 20561 0
13487 17052 0
21922 -3823 0
3126 10116 0
699 -8600 0
11230 4002 0
13483 15263 0
-4754 3201 0
19416 -19463 0
10265 14115 0
-2854 -23311 0
-23480 20695 0
-16639 -7381 0
-16143 -5901 0
-8639 18908 0
-22489 10670 0
-21492 13961 0
9704 -3199 0
295 3655 0
20183 -21252 0
99 -23622 0
-14917 -12686 0
4809 4844 0
-4357 5039 0
6201 -658 0
23345 -4640 0
8925 -21483 0
-19774 11649 0
16733 4353 0
-9934 -10419 0
-15274 -10834 0
5402 -11851 0
5682 -6899 0
16700 3244 0
-4328 10823 0
-10664 1874 0
-1559 12803 0
7343 15152 0
-2827 15815 0
18684 -21733 0
-12112 21543 0
16182 -3445 0
11477 15862 0
15976 8387 0
14942 -12015 0
11033 8056 0
4319 11933 0
21370 13174 0
-1725 5870 0
-22096 -1071 0
-7253 -9754 0
17751 9648 0
5506 18907 0
-19388 20991 0
-3328 2073 0
-15600 -13072 0
261 18158 0
14882 -6058 0
-13721 -12887 0
19463 -8572 0
14770 9920 0
-6905 -190 0
10994 -7185 0
-20933 -11334 0
-10190 22376 0
13358 -10103 0
20837 22862 0
-13442 4696 0
2913 -19194 0
-11823 15328 0
-10232 -13020 0
-4537 15746 0
2099 -9340 0
-20013 16612 0
2791 -4735 0
-11360 -1590 0
20496 -51 0
-23665 -5520 0
16968 23200 0
-6886 9434 0
1298 7348 0
-12215 7846 0
-1204 8429 0
-20838 -22806 0
8945 -9203 0
23459 4126 0
4241 14541 0
-10018 15338 0
5 -6346 0
3532 20775 0
-6299 -14637 0
-2820 5166 0
21275 -21292 0
-18063 17477 0
22643 -20689 0
-18635 -1658 0
14486 1807 0
6441 -11812 0
-5253 12546 0
-12048 -13353 0
9675 13134 0
21938 -368 0
-11693 -6164 0
-8948 5634 0
-22058 6782 0
-10524 -8357 0
15382 19604 0
2312 -21630 0
15647 805 0
-11303 -10732 0
-3306 21333 0
17334 -22709 0
-23193 11 0
-19795 -16884 0
10671 -10222 0
7493 19382 0
-3370 -14562 0
-5823 16635 0
5940 -634 0
-23723 12713 0
11618 -23071 0
-12607 -14419 0
-10911 21398 0
-2024 -14240 0
-20436 -10703 0
216 -10767 0
11624 -10326 0
-2648 19544 0
4567 16912 0
-14214 -17571 0
7168 6365 0
-9519 6341 0
-19233 5473 0
19251 -2062 0
3631 9696 0
8502 -11655 0
-19566 10153 0
6265 19530 0
18306 8029 0
-9086 11176 0
8682 -8151 0
-11575 15128 0
207 2447 0
10117 22210 0
2163 -11347 0
3160 19318 0
-6508 -15836 0
-23394 -8644 0
5103 -8847 0
-6450 -1162 0
-19289 324 0
12288 -20983 0
-11503 6254 0
21069 -5755 0
-4970 -6669 0
19327 11269 0
20131 -18391 0
-13181 2108 0
-20266 17197 0
-16336 -12088 0
2591 2302 0
18094 9055 0
-12874 10025 0
-15371 -14360 0
23477 -13229 0
-5434 3598 0
15593 23691 0
2275 17371 0
-3526 -4451 0
19372 -22682 0
23650 57 0
-23301 -18961 0
6265 23790 0
-11610 21810 0
-13572 -6821 0
-21491 15461 0
-15863 -22768 0
-227 -1353 0
-2612 14053 0
11832 -8085 0
-21369 -19488 0
-7152 21502 0
-8984 -712 0
13933 4945 0
1453 17829 0
21722 22150 0
15081 -9305 0
5119 21901 0
-10566 -753 0
323 4507 0
14862 -292 0
-11683 8722 0
11176 -18610 0
-8432 16649 0
6590 15715 0
-18088 -11474 0
2075 -16607 0
-2222 22275 0
15361 13002 0
-16563 2135 0
-10122 8039 0
-18007 8399 0
-21460 -13122 0
-714 20070 0
-20017 -7451 0
18970 6556 0
-18182 4235 0
8870 8817 0
-625 -6302 0
-22038 1132 0
-22124 18265 0
19556 22590 0
23035 7201 0
19460 -721 0
7465 23009 0
7889 5241 0
15219 23708 0
-17048 19392 0
-17189 4424 0
-21881 -12885 0
-19267 7821 0
17696 -88 0
22687 -20788 0
4589 -3593 0
-20464 7884 0
-14417 18212 0
-13541 -14649 0
3093 14366 0
-22030 20466 0
-4683 3714 0
5221 12738 0
14845 -20829 0
-6819 15844 0
19217 -15594 0
-16406 7607 0
1658 13081 0
10992 -8633 0
-20956 -20353 0
5524 -18189 0
3594 -10799 0
-2954 -14590 0
-13770 8316 0
-7771 12723 0
-5415 -23608 0
7946 -21921 0
2282 17454 0
5315 10561 0
-9571 -18950 0
-22068 -10497 0
6961 -21287 0
-855 3193 0
13084 -4700 0
9319 11114 0
-23556 -2892 0
1188 15946 0
-11964 -1703 0
-21134 -1021 0
7576 -2495 0
502 -3386 0
4299 -15560 0
21999 -2912 0
-11698 8253 0
-17468 -19380 0
-13534 9174 0
-10201 13056 0
-16021 -2278 0
-2509 18008 0
-19663 -18176 0
18347 -23657 0
4291 7628 0
-7767 7779 0
-9357 8551 0
-10459 -6043 0
-7449 -22433 0
-18285 -7178 0
-12889 23394 0
12813 -22033 0
13855 18414 0
-5330 14153 0
-642 15080 0
22356 -11810 0
17876 17310 0
-12202 6758 0
7014 -15688 0
20158 20559 0
7313 6612 0
6974 -19253 0
-10451 10281 0
-6356 -17862 0
13474 -10803 0
6969 -9966 0
-9761 10745 0
-6492 -14069 0
7759 -10713 0
9680 -6489 0
-10005 12555 0
-9558 -12170 0
-22544 19372 0
12564 -11793 0
-3710 12027 0
4744 -18461 0
4137 -67 0
-23418 9016 0
15375 19087 0
9965 -21491 0
20707 16196 0
-1901 6662 0
-4937 -2726 0
-42 -6906 0
-21792 8471 0
-1616 20753 0
-2680 -3986 0
19525 -17696 0
-23398 -463 0
763 -9302 0
-18452 5138 0
13100 23664 0
12811 12055 0
-10388 20774 0
-13967 3322 0
2164 4088 0
-15565 -22032 0
15388 12179 0
-15379 -20633 0
-23457 -17012 0
461 2256 0
-18354 8255 0
-6299 10857 0
5095 -6182 0
-8669 6320 0
333 11633 0
-22636 10243 0
-4177 -6266 0
21614 7765 0
2155 2275 0
5594 -22809 0
-16211 11157 0
-22452 17131 0
-23624 -23129 0
-13608 6961 0
23508 -4141 0
-14525 23428 0
-12643 -22049 0
5408 -6918 0
19248 -22330 0
12735 -7431 0
-9467 21631 0
18942 8792 0
-19257 2944 0
-23389 -17290 0
6750 16993 0
2830 21900 0
-17546 -10416 0
13250 -3171 0
-23782 6247 0
2207 4138 0
-22003 -16952 0
12653 -19224 0
560 -13992 0
-5943 16567 0
2700 7264 0
-15158 -5725 0
14966 -18880 0
16979 23655 0
-22272 -4761 0
-51 -22491 0
6653 -21418 0
-8682 -16449 0
15985 -20875 0
4017 -5889 0
7630 -17824 0
16252 -7436 0
15406 21756 0
-3679 -17572 0
7745 10532 0
8077 3467 0
11548 -15049 0
14496 -21324 0
10130 20825 0
-13697 7748 0
22938 -23410 0
-12293 364 0
-1463 -10745 0
-7651 -12971 0
-10058 -16932 0
1350 1138 0
4675 9136 0
22110 -3848 0
-22912 -11229 0
1149 -5600 0
1674 9234 0
12183 -20624 0
-5342 20990 0
20501 79 0
-15553 -541 0
13665 20652 0
4083 13089 0
-11115 -12146 0
15125 15457 0
-13458 -22930 0
-8753 9032 0
-12668 7950 0
-22786 -12260 0
-3346 -14759 0
15084 -7892 0
-856 -12488 0
9749 9356 0
-11438 17090 0
11695 -17730 0
-7470 22354 0
-1817 -13435 0
20110 -10271 0
-12561 -22545 0
8525 -3853 0
-5544 -4081 0
6907 11764 0
-20484 4813 0
-18649 1457 0
-13318 -702 0
-7458 18829 0
-20958 -11613 0
-6755 -19299 0
-21145 18090 0
22492 23498 0
13272 -3212 0
-17935 -8265 0
-4198 -14536 0
-7741 2793 0
5795 22335 0
19650 -14215 0
18466 -17105 0
-19475 -632 0
5051 16147 0
-17264 -7301 0
-10847 10914 0
16701 7490 0
-9848 3979 0
-641 21287 0
19923 12238 0
7455 -19724 0
16920 -1153 0
-9462 21016 0
-2802 12200 0
-16930 13941 0
8063 -2103 0
-4344 -9086 0
-9064 5 0
5352 -16429 0
12270 17236 0
7176 -1421 0
-1348 18465 0
2584 17939 0
-11481 9159 0
17692 1887 0
-15292 17038 0
6227 -12681 0
19229 5528 0
-3773 9806 0
-10591 10671 0
-9971 16018 0
-13672 -952 0
-430 -18561 0
-13083 -511 0
-15136 -13318 0
-5940 16270 0
-593 11004 0
13054 12093 0
-19096 17731 0
4568 9160 0
1326 -16366 0
3308 19522 0
-21818 18421 0
-19151 -12963 0
-9683 10267 0
375 15516 0
-9520 -23455 0
-15243 9744 0
11045 5 0
8867 971 0
-17354 20663 0
-12278 -19426 0
-4692 -23535 0
-3037 3161 0
-17431 -3157 0
-9454 -4635 0
-18874 19794 0
-13255 -18098 0
-11560 18644 0
-10604 7618 0
19313 15169 0
6985 -8265 0
-22761 -10562 0
-8442 6795 0
2764 17171 0
-13354 15164 0
20466 14569 0
19120 5178 0
-5456 -9260 0
-6022 23680 0
-6886 19017 0
490 -23717 0
-22973 -1021 0
9110 -5832 0
-20868 -17804 0
-7947 4320 0
15396 -12562 0
-13258 -7943 0
-17852 -12767 0
-17680 -950 0
-7393 526 0
-22474 18416 0
7117 -15040 0
-13639 22710 0
-1962 -15599 0
-5650 12373 0
3798 11196 0
-1346 -9956 0
140 2247 0
1047 9628 0
-19249 -21285 0
-16768 15940 0
-16998 17874 0
-22244 12392 0
-1162 3433 0
5998 -2851 0
-19557 -8821 0
19378 22959 0
-19616 -5408 0
-20568 -23037 0
10446 21242 0
8339 14411 0
-4051 -707 0
18575 -2212 0
-11398 17739 0
-20412 17035 0
11698 -12475 0
17376 4123 0
-11544 -15050 0
-1705 -18002 0
877 8059 0
-21036 11875 0
-13931 -15956 0
72 -22185 0
-4056 -20962 0
-15654 13726 0
-21611 18374 0
22977 15917 0
23571 14845 0
812 -16871 0
17089 -7653 0
-23741 21005 0
2875 -23042 0
-5909 13022 0
22104 -10772 0
-21385 22205 0
19311 -7279 0
-9851 6505 0
-14554 14359 0
-14409 -6156 0
-15230 17375 0
-19177 -10720 0
13554 -12019 0
-15182 -20634 0
16767 9269 0
11162 -10934 0
7335 -10952 0
13678 -13086 0
20621 9683 0
-11126 9384 0
1992 -10016 0
15727 2274 0
-15246 -3043 0
15356 -5806 0
4830 10123 0
-935 11741 0
-2318 -1559 0
15665 13108 0
-10821 9536 0
-10470 16532 0
13120 22744 0
-4000 -22659 0
-19628 11710 0
2211 20556 0
-22502 17705 0
-16748 254 0
-5525 -103 0
-21372 11575 0
-5115 16331 0
-22658 -13468 0
8485 -7260 0
-13968 13281 0
23756 -1597 0
21595 17571 0
6766 -12531 0
1873 -23402 0
19290 -23578 0
19100 -19024 0
-23201 -539 0
7370 -21091 0
14690 12799 0
-608 -9257 0
-20891 11038 0
17515 20351 0
12433 20423 0
21762 -18616 0
8048 6713 0
-23696 20356 0
-10185 2671 0
21847 -12849 0
21298 20838 0
-18642 6239 0
8816 17380 0
-1938 7696 0
16846 -14133 0
11325 14767 0
17976 3817 0
-16657 -18906 0
10641 -10834 0
-5841 3166 0
23493 -22123 0
6629 -15352 0
-19450 7691 0
-16952 -15685 0
-15639 352 0
1572 4743 0
767 10510 0
-13558 3842 0
-5706 -18147 0
-11092 17691 0
-7703 -13484 0
-395 21002 0
19558 -21508 0
23172 20841 0
-9767 2290 0
-5424 11365 0
19398 8980 0
2881 -19927 0
-19424 9431 0
4522 23400 0
2242 -16876 0
10236 -17158 0
-6626 17985 0
-4542 -2614 0
-11900 4015 0
-11092 21180 0
-13079 12469 0
-22983 2135 0
244 -1950 0
-706 -10829 0
-3102 -20366 0
-20138 -19316 0
18986 -10885 0
-6778 -2972 0
2077 22124 0
-4198 -19014 0
-14724 1870 0
-10499 -19391 0
-22887 -9865 0
1455 1981 0
8397 5665 0
22901 537 0
21628 -20917 0
-17003 -2082 0
13528 4162 0
-14112 1591 0
6444 18677 0
-7296 -7598 0
11000 15607 0
8659 6021 0
3697 21701 0
-11436 -21973 0
4331 -22013 0
10248 -18169 0
-18460 -23268 0
-18610 18199 0
3821 -18821 0
4718 -22735 0
-7226 -5908 0
18102 10904 0
12564 20366 0
-7018 -74 0
-4443 11959 0
-1145 20511 0
19954 -21291 0
47 -23228 0
-8807 6008 0
-5994 11264 0
6794 7888 0
3430 -1766 0
-18071 21798 0
-21709 -11907 0
-23362 -7232 0
5533 12665 0
-15158 -9043 0
22622 15058 0
-22568 -10396 0
-3683 10911 0
-14159 -12020 0
-21467 -13505 0
3842 -9722 0
-11431 2036 0
4696 9120 0
-4287 -18698 0
-23602 -5696 0
22703 -16187 0
-21779 2991 0
19490 4507 0
15815 -3005 0
-20538 18535 0
-21170 4768 0
-12753 -3179 0
20818 -19970 0
-19117 6557 0
-10377 -17754 0
-11334 19844 0
-20066 12303 0
-4185 5628 0
6403 2810 0
-20658 3738 0
15733 17021 0
17083 -16060 0
11533 14136 0
-14782 -10444 0
-22932 13699 0
20506 -20336 0
-15276 21975 0
-3050 16003 0
-11282 -20862 0
-16849 18168 0
-14858 -16643 0
19729 -2437 0
-4030 21011 0
4652 -274 0
20284 -12966 0
-4143 -1870 0
7669 -5072 0
15388 18997 0
10831 -4307 0
-6773 22197 0
36 -17083 0
3295 18682 0
-8273 -12331 0
-3572 6223 0
9956 1499 0
9021 -15397 0
-18258 -3457 0
-14724 7999 0
-22671 -4521 0
-20186 16545 0
-15541 22040 0
217 18650 0
-22083 -8801 0
16910 -426 0
1671 -23655 0
-8362 -21860 0
-13634 10624 0
256 13212 0
23584 -21003 0
-6631 -21402 0
19650 13449 0
138 19122 0
-15965 -11968 0
20507 -17871 0
9557 16887 0
22517 -22504 0
11819 11316 0
-18638 21521 0
14138 4098 0
-14132 16578 0
16401 -8149 0
18192 12778 0
8239 -19415 0
1731 10376 0
23037 -714 0
-8752 -23482 0
-8479 -19020 0
-18739 7360 0
15871 17454 0
21670 -10477 0
19956 -18746 0
23311 -2729 0
11525 4417 0
-15983 -7739 0
-9778 21900 0
-3840 5761 0
23453 3727 0
18678 -17041 0
-20962 -14843 0
20152 12392 0
15455 2228 0
-1501 -1316 0
-12182 6897 0
-16962 22610 0
-15908 8358 0
21766 5326 0
-17804 -13996 0
-20358 19909 0
-11158 -5474 0
15799 -22344 0
-3787 16941 0
-23014 4021 0
-9917 6650 0
8023 1696 0
-14867 6466 0
-14084 -17111 0
7663 1286 0
-12261 -12830 0
22795 10417 0
12054 -21613 0
21257 21947 0
17552 18837 0
17681 -11573 0
-20604 1948 0
2800 11259 0
-14696 -15213 0
5749 -3820 0
6893 -22683 0
-10990 -15323 0
4346 -1208 0
-14945 14226 0
-16801 -4936 0
19310 1773 0
5228 2856 0
22949 -9583 0
900 180 0
-691 20403 0
23309 -3865 0
12148 5786 0
5652 22560 0
11002 -20420 0
-4650 20876 0
17488 -8366 0
-13130 -22290 0
-6153 11237 0
-14245 17672 0
-1816 3364 0
-2258 2733 0
2186 6354 0
2717 -12529 0
-18465 -20106 0
-9409 -14715 0
-19072 10050 0
-15439 23522 0
9577 5243 0
235 -21075 0
-7174 1369 0
-5708 14598 0
-19234 6016 0
21108 8578 0
-22159 -13349 0
15370 6233 0
12292 6291 0
2534 1793 0
-6457 -1312 0
15015 8256 0
-5111 6293 0
110 12755 0
7135 14240 0
19594 -22821 0
-23753 -20510 0
-374 17713 0
17922 -10197 0
7082 -3371 0
2142 12541 0
-10811 16870 0
-22012 18260 0
10657 21974 0
19593 20210 0
16338 -6644 0
8705 -6719 0
-14172 -14317 0
-8804 10376 0
9437 22860 0
-327 247 0
-14988 -1216 0
15407 -5246 0
-18633 8419 0
20580 -16336 0
-10499 11615 0
-13705 -5893 0
-17490 -9496 0
20100 176 0
-12986 -4998 0
7954 5110 0
-53 -17843 0
-16344 20422 0
18447 10273 0
684 -17530 0
12314 23123 0
-765 14147 0
356 -11790 0
-976 12051 0
-15024 -22303 0
-9673 10171 0
20912 9285 0
-5191 12126 0
-19126 -2335 0
22840 -18718 0
14075 2855 0
4860 -15566 0
-15999 9644 0
-18284 -584 0
3398 12347 0
-10718 23342 0
-16618 140 0
-22280 8575 0
22719 3230 0
3218 -19701 0
12575 -2957 0
-11137 -12112 0
21950 -21539 0
-4679 -3558 0
-11035 16221 0
-572 21640 0
22640 3063 0
-8461 -4001 0
16457 2073 0
5861 2211 0
22692 -10640 0
-16890 12642 0
11562 -10781 0
-19866 13986 0
-5159 -400 0
-22106 9255 0
19328 -20106 0
10036 -9665 0
-17380 346 0
-17254 15308 0
12896 -12930 0
-18180 -15461 0
20295 12288 0
-10981 13061 0
19465 19021 0
-17301 -3774 0
-8588 -22245 0
16065 6463 0
-1779 -3362 0
-12447 -12499 0
18019 23788 0
-17398 -13773 0
-22887 21848 0
-8778 21749 0
-6798 3750 0
10854 13006 0
12794 5595 0
5094 10634 0
14245 22427 0
11237 -2348 0
15763 21785 0
-23411 10150 0
3851 -18333 0
13703 1147 0
-13730 12927 0
-20013 -391 0
-17876 -353 0
13992 22833 0
-9191 -22666 0
-23432 17914 0
-11934 -15133 0
-10301 897 0
-15144 -7824 0
-8695 18200 0
-10596 3882 0
-4871 6587 0
-3381 -16012 0
11033 19654 0
15802 -8237 0
16126 8165 0
-11260 2448 0
19090 4829 0
2754 -21929 0
17302 -3122 0
-7201 13665 0
19114 6403 0
13510 -5372 0
-4835 2534 0
23373 -10372 0
9995 -8030 0
18277 5304 0
22435 14684 0
18581 6054 0
-2931 23045 0
9551 -17871 0
1917 -12464 0
-4033 -22157 0
-15375 15538 0
3545 -6363 0
-4305 -1563 0
16906 20820 0
9157 -9592 0
-16930 -5514 0
-4508 1038 0
12907 21659 0
2859 -12410 0
-6425 -16484 0
8270 12057 0
-18016 6322 0
-17978 3641 0
8858 17911 0
-9242 -6858 0
2567 -11119 0
-4543 2518 0
-19055 -11734 0
18812 2122 0
-22377 -16805 0
-20062 1391 0
5956 18931 0
-1955 12498 0
-21785 16544 0
-21116 -8114 0
-1668 818 0
-12156 8710 0
-5777 13093 0
-16688 -6628 0
-4929 2289 0
-9808 4246 0
7674 23505 0
-5042 -5817 0
-2519 -15393 0
12847 7891 0
8098 13742 0
-7517 -59 0
-2309 10081 0
16272 5635 0
-13273 -21497 0
-19681 14301 0
-16727 17092 0
17566 -8853 0
5546 -23463 0
20124 20260 0
11697 12035 0
17506 3563 0
-13837 23090 0
-19342 -9882 0
9682 -15589 0
6747 15209 0
-6371 22690 0
-14533 -10018 0
-103 -18442 0
10682 22739 0
-20066 -4153 0
306 -2707 0
7345 8084 0
-21988 -15778 0
-6964 -17579 0
5282 -16805 0
14839 2809 0
-22093 23178 0
972 23604 0
1090 -7324 0
12820 246 0
-22232 4702 0
20612 -22987 0
-20324 -17336 0
4821 5998 0
-18767 -9838 0
20622 22264 0
-19904 -2164 0
7258 -16164 0
-1544 -4386 0
-10216 241 0
-20564 5923 0
4111 2381 0
-19857 -19576 0
-21182 2102 0
-6714 -5955 0
11200 -22242 0
9466 -3134 0
-8662 -11298 0
8980 -2292 0
-7168 5384 0
-1173 21056 0
-18663 17662 0
21871 15751 0
14595 -17909 0
-6494 11500 0
-22964 6794 0
8672 15258 0
-21137 -3648 0
17665 -3349 0
-4390 23348 0
22357 -1786 0
6431 -16919 0
10508 -38 0
3391 4500 0
-7472 -17853 0
-7740 15204 0
2608 -10650 0
-12063 5304 0
12100 -12630 0
-16322 -8134 0
-19487 3561 0
18006 13941 0
-9453 5402 0
-6606 -20205 0
7632 -20953 0
2248 -11772 0
1218 -7127 0
17597 13764 0
-4573 -2459 0
17014 5583 0
10858 -14070 0
-6641 -17562 0
10956 11314 0
133 -6073 0
-12518 22135 0
13478 16111 0
2345 -4754 0
9355 -16605 0
1382 2916 0
340 -17954 0
-6894 11147 0
5462 14501 0
-8609 -18940 0
-350 -13717 0
-8670 17420 0
7148 -9627 0
15175 17855 0
23326 22013 0
21420 -18322 0
14535 -14912 0
-20465 -16365 0
19577 1578 0
1533 -19494 0
1097 -1941 0
6779 19680 0
-6119 -19296 0
-20588 -15075 0
12170 -8710 0
-10302 -9520 0
-10889 19762 0
-18302 1981 0
12163 6142 0
21355 19074 0
11563 -7885 0
-20236 -12136 0
-10400 2298 0
-18148 11349 0
-2182 22253 0
-17196 20997 0
9843 15101 0
-16756 11474 0
-423 -8745 0
-2366 17770 0
-15430 -1246 0
-14053 11472 0
-21011 2603 0
639 6606 0
-7245 7405 0
-18090 -13644 0
-7623 19341 0
-20560 -17732 0
-23080 11956 0
-18635 11880 0
21571 2496 0
-2925 14467 0
6926 -6321 0
55 5595 0
-17024 847 0
17586 6113 0
22316 21206 0
20500 -22487 0
-9213 3835 0
-11989 -15040 0
-20587 19063 0
17568 -3820 0
-14143 2692 0
5753 7370 0
21959 -12700 0
10970 -2050 0
9002 1377 0
17544 7901 0
-19233 2802 0
-2105 -5828 0
22705 -7722 0
-18387 23609 0
-12608 -1597 0
2067 2907 0
14693 12562 0
18301 14526 0
1320 9784 0
-18877 -9722 0
-23061 -6290 0
-10483 -22107 0
-5992 -2937 0
16707 17969 0
-10038 14015 0
-20889 7446 0
15751 5760 0
-11118 -19299 0
20652 -18866 0
16597 520 0
9049 -9286 0
21786 9060 0
-16419 -16063 0
-20828 1816 0
-4175 17083 0
-20769 2240 0
-854 23585 0
-3546 -9201 0
14500 2350 0
12658 478 0
-18834 -14142 0
7002 -22618 0
22357 -18356 0
-12734 -10725 0
14044 -14652 0
7378 -14714 0
17214 23511 0
12391 -11534 0
5094 -3222 0
7513 7836 0
16154 8976 0
-17262 -14939 0
-2179 1678 0
-8529 19065 0
5512 -17652 0
4310 14775 0
-19573 -16486 0
11191 -771 0
6675 -17885 0
-4139 7575 0
7112 17684 0
11945 22271 0
21082 14590 0
-5748 18073 0
-8646 11277 0
-10607 -16147 0
18563 -19530 0
-22952 -17269 0
-17237 12157 0
1365 18489 0
2931 12951 0
-18736 -5621 0
8016 -5232 0
-18261 7564 0
2923 21251 0
-7397 4258 0
14871 17461 0
2211 14722 0
-7265 -9713 0
14361 19315 0
-22407 -6265 0
-21568 -10070 0
-1818 -20921 0
-10232 -17416 0
23393 -23779 0
-17877 20655 0
22252 15331 0
17116 -12206 0
8403 321 0
10053 10897 0
688 -11661 0
9677 -23403 0
-5027 15863 0
12002 -20563 0
-11620 -12920 0
9468 22542 0
-9099 18891 0
12957 14428 0
22943 -18559 0
-23788 -20897 0
-14645 -2547 0
10733 19561 0
-12389 96 0
-1888 -19434 0
-644 7545 0
6006 -20505 0
-19705 -17204 0
21701 23375 0
19470 -10246 0
-19932 -18352 0
11762 2747 0
14727 -4850 0
16474 -5561 0
-10307 -5897 0
-11901 -19265 0
-8598 -9144 0
10476 4092 0
-14809 19999 0
-4044 10336 0
-13904 16152 0
-13369 -7204 0
10651 -7652 0
-21889 -1408 0
-7467 14845 0
-6911 193 0
-15431 19722 0
12600 14564 0
-15036 5163 0
1472 15994 0
15666 -8795 0
14194 1307 0
-11739 1011 0
15673 -10570 0
-13033 -8124 0
-1017 -1280 0
-18386 17081 0
12659 10683 0
-23516 -11328 0
19218 4812 0
-8691 -15463 0
1740 11459 0
12090 -19406 0
-18984 6503 0
6220 19846 0
4219 -5539 0
14306 -23050 0
4821 -3296 0
-11198 23012 0
10894 13012 0
14294 -20747 0
-6539 -6383 0
20292 -7326 0
-12105 7767 0
-61 -3243 0
19221 3685 0
23539 -687 0
285 -19015 0
2952 16772 0
-12384 8637 0
-13416 4191 0
-21515 3256 0
-21234 -16752 0
-14375 -2182 0
9718 -18332 0
-18495 22004 0
5729 -20097 0
3944 -20034 0
1845 8416 0
19297 20127 0
13120 4064 0
-14756 4192 0
-13996 -97 0
22222 -10704 0
15652 -10003 0
4605 13119 0
14937 12803 0
12303 17304 0
17191 -14672 0
-9813 14413 0
-14048 12441 0
-10152 2819 0
1040 -6931 0
-20838 22152 0
20756 -13502 0
-5906 4230 0
16065 -20723 0
13728 -6822 0
-14010 17425 0
11330 10178 0
-1109 23116 0
5362 22020 0
12812 16495 0
-8024 11337 0
-3786 5550 0
-16972 -1393 0
-19640 20035 0
-6839 -2084 0
244 -3401 0
12302 -11656 0
15392 -13601 0
-13924 1438 0
13678 3196 0
457 -17573 0
-10852 -22676 0
-15468 -6244 0
-9803 -16041 0
3901 8634 0
-11721 678 0
7352 -8820 0
10793 -12345 0
-5022 5599 0
-1909 20892 0
-12913 -17296 0
15043 13286 0
-18693 -633 0
6959 10656 0
2433 -21331 0
-19731 12549 0
5843 -5920 0
18485 14310 0
8471 3848 0
15282 -4594 0
23229 10883 0
16526 -5225 0
11737 1938 0
15925 -15912 0
-920 7444 0
-19785 -14212 0
-10637 14141 0
-15818 -4202 0
16064 -6406 0
7822 11736 0
-20113 -2645 0
2455 20314 0
9932 -1233 0
-13848 -379 0
13799 -4454 0
19752 5003 0
-5340 8262 0
-11072 -6817 0
-17377 9722 0
-13822 5785 0
-6278 7994 0
-2597 15015 0
11797 -10243 0
13729 20676 0
-6119 -20698 0
14057 14759 0
10997 -2040 0
-22417 18434 0
-20872 -11200 0
5452 -21180 0
3773 -23305 0
-17118 21464 0
-20899 -10368 0
11870 2650 0
15462 857 0
-16117 15187 0
-18246 -5578 0
18467 -20373 0
-17775 -12602 0
1001 10032 0
847 -20821 0
17960 19581 0
17004 272 0
-21565 -9938 0
10359 3258 0
16800 -838 0
19947 -11610 0
-1875 -20932 0
-20341 -1895 0
-2309 21198 0
-21733 -7494 0
-19801 19733 0
18159 -14547 0
578 -13507 0
-23027 -15875 0
-4670 -14685 0
-6845 22700 0
2628 1939 0
11041 15553 0
-11189 -12261 0
4716 -3551 0
-12968 293 0
10347 -1856 0
10057 -12974 0
974 5429 0
-16576 14877 0
20307 16221 0
3295 4860 0
-10210 17512 0
-4869 16613 0
-14027 -23599 0
21675 -20494 0
10632 8015 0
-2297 -13156 0
-12601 7299 0
19871 -1185 0
-19976 23171 0
21816 -17533 0
18560 -13197 0
-12706 18124 0
11766 9425 0
18434 -18375 0
19912 21736 0
2581 -20374 0
-4349 -16849 0
20800 -10889 0
2822 448 0
-13276 -22465 0
-172 894 0
-3824 -18866 0
17893 5449 0
-22824 -4406 0
16417 -22719 0
18784 -14171 0
-9008 15821 0
2218 -21305 0
-5425 10648 0
11474 -10800 0
-8151 6538 0
17345 20627 0
-4714 13871 0
22032 488 0
20049 -9049 0
-6850 -1581 0
-5745 8989 0
-22870 18909 0
-5397 9086 0
-12163 -5907 0
4257 -14856 0
1794 -2073 0
-10037 -14391 0
-16522 5366 0
-15478 11510 0
8768 -2619 0
11657 -6945 0
7354 -10975 0
1778 16764 0
5657 -22591 0
-487 5670 0
3892 -17808 0
5439 -11573 0
-14194 -23193 0
15394 11631 0
-3865 6405 0
19054 7106 0
14893 13311 0
-15799 -11867 0
-8438 8512 0
21425 -17959 0
23327 -12767 0
-9040 -849 0
4934 22992 0
-14985 -11729 0
12503 13090 0
-20809 12102 0
17498 19129 0
7284 -11633 0
1995 -6561 0
11990 15211 0
4 14931 0
864 3076 0
14948 -2346 0
18633 9997 0
-4643 1540 0
-2040 8659 0
10534 14758 0
4925 -5351 0
-10033 -17842 0
-1539 15028 0
-9171 22627 0
14477 -15228 0
-19527 -12530 0
-7661 15616 0
-23367 537 0
-3812 2206 0
6310 -18317 0
2493 5779 0
-11850 -10279 0
-23642 -8597 0
1922 16298 0
12390 -6718 0
-15253 12786 0
-5737 15839 0
23279 2175 0
-23499 17419 0
-254 -16637 0
12990 12099 0
1672 23691 0
13238 -14438 0
11565 8043 0
4135 23245 0
4511 -11231 0
15836 -15363 0
6124 -8928 0
-18264 11453 0
11375 -17392 0
16159 8327 0
7797 -4527 0
9472 -7511 0
21600 -607 0
4869 -14678 0
-6941 15699 0
-19585 -11875 0
8894 -11841 0
-5299 19568 0
-19816 1112 0
7331 -15873 0
493 2782 0
22409 -1532 0
-3149 2098 0
16976 20446 0
-7343 -20467 0
-2407 1996 0
-7877 2522 0
-20418 9704 0
-3235 -8900 0
14149 -11573 0
2794 548 0
7898 -19184 0
-9501 -7791 0
-19012 13302 0
18 -23316 0
17954 6089 0
-6204 15346 0
-21842 14079 0
-22520 2454 0
23674 2373 0
-14483 -13667 0
-9122 13615 0
-3400 1640 0
11765 19880 0
-20042 8536 0
6587 -11106 0
13099 11549 0
23676 1797 0
-15627 11276 0
-19471 236 0
2361 -4362 0
20578 3580 0
15427 -9650 0
-563 5758 0
-19981 10523 0
-19154 -4642 0
-22332 21534 0
19160 21315 0
-4542 -12064 0
-12801 -7860 0
-11655 23564 0
-18638 -11836 0
-4050 21281 0
-6945 17460 0
12417 -9143 0
-23230 1964 0
-10650 -5964 0
23364 -8849 0
13305 -2194 0
-3986 -17834 0
-16658 21884 0
18662 5944 0
21009 -20704 0
-5020 11468 0
-11561 -1923 0
17416 13911 0
23199 -12975 0
-18610 -10828 0
7731 17379 0
842 9363 0
-5187 20724 0
5156 20693 0
-14769 968 0
-11356 -1341 0
2766 -5629 0
23135 3799 0
22677 23613 0
18055 3491 0
21769 13510 0
8534 -12872 0
4356 -2149 0
-4002 -11075 0
8147 -3774 0
7666 19869 0
-5524 -9464 0
-2264 606 0
1959 -16802 0
4788 -114 0
-23082 23703 0
-13336 11581 0
22486 -1806 0
-7784 27 0
12726 -11592 0
7415 -9922 0
11892 22278 0
-18112 -16050 0
-1468 20501 0
-12188 -19734 0
21004 -9813 0
2193 10938 0
-21418 15727 0
-9762 3158 0
-10420 20158 0
23418 9203 0
-10381 574 0
-11733 12878 0
15934 15273 0
276 2355 0
2321 -22258 0
1550 -5549 0
6453 15401 0
-17484 -10791 0
-18634 -6557 0
3123 -14173 0
2578 4948 0
8719 8246 0
6078 6634 0
22845 17312 0
-18046 17187 0
-14961 11022 0
10505 13178 0
2905 1194 0
18858 -15283 0
-1846 99 0
12990 20225 0
-19488 -2621 0
5929 -8093 0
15232 11238 0
3426 14948 0
11399 -6712 0
11209 -23491 0
-9588 15548 0
-23209 -21643 0
-5820 11238 0
18043 19052 0
-6498 3084 0
1388 -3525 0
-9645 22610 0
-653 4038 0
20384 13636 0
-1556 -16735 0
-18103 -19570 0
7087 8020 0
21312 9563 0
-2318 22794 0
19194 11592 0
1023 11186 0
2221 3161 0
15084 15079 0
-5358 -9403 0
13965 -12845 0
20407 -4887 0
-16840 -1173 0
4550 15331 0
-6384 20358 0
15155 20922 0
-7181 -15650 0
-22652 21576 0
4871 -3958 0
-12723 7140 0
21251 -7217 0
11081 -19281 0
10252 5057 0
2563 -13320 0
-1650 21146 0
-6182 -1042 0
-20304 -20425 0
-11119 -22573 0
18920 -10192 0
14596 -1300 0
-17244 17497 0
19539 -5484 0
-17579 -6371 0
16456 11283 0
21347 7087 0
13195 6225 0
-10433 -13840 0
-6728 -10018 0
-19798 23695 0
9493 6629 0
-21838 -9751 0
-14096 -7880 0
1154 12037 0
-5781 -15183 0
-11653 -16214 0
-2024 19333 0
17250 -2504 0
-9797 15832 0
-5765 -23362 0
-1945 -19292 0
-22291 -10985 0
-18930 -5828 0
-8907 9727 0
-776 12633 0
13814 17709 0
-21970 -279 0
-8700 -15437 0
-7051 15366 0
21309 -8328 0
11846 19764 0
14773 13956 0
-250 10940 0
523 3122 0
19450 20454 0
18118 18519 0
9944 -14289 0
-10360 -22063 0
-11368 -11752 0
20543 10380 0
-6789 -465 0
-2685 18181 0
-21885 -19138 0
-18293 4899 0
234 21774 0
12410 2659 0
-23114 567 0
-4792 -11936 0
-2200 -1235 0
5072 -18544 0
7443 -4304 0
-12609 -20324 0
22052 -15316 0
-7095 -17260 0
-23362 4130 0
-12111 -1542 0
19409 -9472 0
17483 -3556 0
21398 21712 0
20976 -1136 0
4602 -3871 0
-15627 18362 0
2891 -5405 0
2999 -11290 0
-10912 -93 0
-501 -8707 0
7158 3864 0
935 12889 0
-14583 -5709 0
3178 -5293 0
12028 -2471 0
-11851 3174 0
23164 1096 0
16906 -11982 0
12786 12630 0
-1675 -3281 0
-17306 687 0
-16752 12781 0
19697 -13405 0
4026 -9780 0
23635 15923 0
-13753 19904 0
19547 -7717 0
6165 11436 0
-11401 -19269 0
2932 -18591 0
-2008 5097 0
13195 10895 0
-13971 -20750 0
19186 -25 0
4812 11410 0
12305 829 0
-4344 2303 0
23494 -14096 0
-6664 22859 0
-15317 13680 0
10922 -5013 0
23457 -7729 0
15918 -4094 0
20458 6511 0
-7114 15776 0
2432 16099 0
9853 11868 0
-18106 19653 0
3552 19089 0
-1302 -15583 0
-9844 -11466 0
3289 22178 0
7208 6749 0
-22014 10618 0
22229 20779 0
-22601 8934 0
-7957 -16058 0
19065 12455 0
13961 12532 0
19643 -9634 0
-5506 -17451 0
23059 -17202 0
-19979 -11663 0
-7435 -495 0
1388 8375 0
-17349 -23349 0
-18818 -18412 0
-10955 11712 0
-8509 -11253 0
-5557 10828 0
-7432 11843 0
-5617 -12683 0
18732 -17544 0
-10799 644 0
4558 -4772 0
5983 22933 0
-912 21925 0
-63 -5067 0
-7570 20692 0
17008 5380 0
8468 9070 0
-4083 12054 0
-14214 10833 0
-18302 22054 0
8567 22970 0
173 -11803 0
-3519 6955 0
-7141 -4161 0
5455 20627 0
-10621 -10570 0
15120 -21226 0
8677 -8970 0
-17920 -18065 0
-13127 -448 0
7362 8418 0
13698 -11321 0
-7588 19717 0
-5622 10400 0
-18823 -7502 0
-15494 22169 0
-12234 7822 0
23762 -13176 0
6808 4103 0
-4763 -12588 0
-1627 -15145 0
-16432 22351 0
-9230 -144 0
12016 -20605 0
-16201 7239 0
12747 17394 0
-18685 7424 0
15709 -19093 0
-18584 700 0
-17727 12493 0
-11115 11944 0
-4790 16416 0
-4292 10561 0
11045 -17867 0
-3216 -21322 0
-3534 7878 0
-4540 -19986 0
8153 6718 0
21327 17643 0
17387 -16677 0
22292 -3656 0
-5817 -22538 0
-11015 -13090 0
20970 -8245 0
3850 -15877 0
4256 -13597 0
-8203 -19180 0
-10587 19167 0
2536 -6654 0
20426 1858 0
6103 10646 0
3213 13779 0
-21445 19657 0
19872 5418 0
16355 11866 0
-14051 -16346 0
14402 4865 0
-8159 4752 0
17371 -960 0
16559 -3216 0
6024 -22699 0
8853 -6834 0
-1236 15450 0
21285 -15035 0
16973 2141 0
14461 -14654 0
21462 -6559 0
-742 14659 0
-22422 3494 0
4414 -13465 0
-7404 -8988 0
11248 -13374 0
9663 -409 0
-6719 -6576 0
-20249 -20150 0
9563 -23772 0
-926 -11881 0
20902 -13790 0
1611 15728 0
-2468 4705 0
16023 -2634 0
18884 5214 0
-5196 -20216 0
185 14269 0
-22283 -23428 0
21684 -11719 0
21918 -20863 0
-21889 11210 0
-15285 -5727 0
11617 7119 0
-22249 4033 0
-11248 -22024 0
5667 -8282 0
9688 -15362 0
21309 2033 0
18038 -404 0
17207 -21535 0
-16308 19793 0
-10669 13625 0
17182 -22377 0
6691 16050 0
1648 -5629 0
-11377 -20394 0
-23267 -5680 0
15733 14291 0
-9984 4772 0
-8499 -7394 0
-22423 -17482 0
11563 4796 0
21604 21262 0
14010 -15366 0
15012 -1651 0
-4630 -982 0
-14695 1948 0
-12936 -12037 0
-2606 -12806 0
3986 17029 0
-9052 -10322 0
-8169 9826 0
11340 -7083 0
-3731 -3309 0
-2690 17971 0
7030 -19599 0
9544 -3872 0
-2823 12289 0
-12676 -17408 0
-3991 814 0
-16817 -14291 0
-6455 15925 0
-18074 -11780 0
-18809 20600 0
19981 -16278 0
19006 -21281 0
11045 4565 0
6105 -8092 0
15613 -22675 0
332 -15482 0
-20062 -14575 0
-9167 -18236 0
-18473 -7274 0
-2991 -16148 0
2395 -3751 0
-16200 -13956 0
18804 11219 0
15987 693 0
-7906 -5986 0
17463 -15107 0
783 22481 0
-20791 -11431 0
-8437 16093 0
-14867 -18866 0
-3693 -1663 0
7390 16401 0
-7437 -4671 0
19072 2633 0
-13055 -23739 0
13563 21782 0
15376 7787 0
16229 22787 0
15312 -5373 0
-2271 3123 0
-6377 6229 0
-10319 -12320 0
-20237 -934 0
-10393 20649 0
-22286 -21979 0
-3419 20871 0
-15765 -21021 0
19626 -1436 0
6696 -22781 0
9604 1343 0
7460 17859 0
13702 -22093 0
1102 4687 0
-12623 23544 0
-16853 2355 0
-15742 17889 0
-3497 -20714 0
-7794 4489 0
-23740 22765 0
950 -20132 0
-12857 5047 0
10504 -11394 0
-17614 9533 0
-1866 14115 0
7854 561 0
22220 2979 0
6388 18404 0
-18821 -5868 0
-3428 14587 0
-1916 17521 0
-1235 945 0
4592 -16545 0
-20630 22739 0
-21616 -13739 0
-5610 -19149 0
-1637 -2277 0
7861 9362 0
-14205 6207 0
-19256 361 0
12800 18848 0
-3670 -21532 0
16975 -15094 0
17908 343 0
-22910 -7019 0
22970 4457 0
-23680 447 0
15865 -2542 0
-1432 10097 0
-23353 -6791 0
17512 -4140 0
7075 17740 0
-6500 22456 0
22944 12551 0
4211 13305 0
-10303 -14378 0
9138 7161 0
-8114 -12940 0
3946 8653 0
-936 2395 0
21359 10478 0
-7366 -17109 0
-11143 -17213 0
11263 -11131 0
-272 1205 0
-4039 -21305 0
1161 8691 0
3803 -2908 0
6864 8990 0
18476 22770 0
-18030 9942 0
20063 10031 0
-18506 3380 0
1126 11921 0
23541 544 0
-6805 17349 0
18093 -20391 0
21666 15108 0
-12240 6679 0
-20200 10861 0
-1193 11319 0
8366 2504 0
-12322 -12266 0
-20023 13272 0
20005 8705 0
-646 16616 0
-14016 3996 0
-18645 11106 0
-11465 2971 0
-13756 -9950 0
-3917 -5752 0
2100 9452 0
15739 -22280 0
-22045 -2180 0
694 -5021 0
-8411 -9520 0
-15745 17235 0
16089 -21983 0
6422 4032 0
20872 -12875 0
3689 9494 0
16672 22516 0
15566 -16190 0
17244 2739 0
5687 -4806 0
22801 -21253 0
-10999 -12023 0
22839 -23535 0
-9832 -7579 0
-8398 10291 0
-4270 -18312 0
6398 12599 0
7787 -7486 0
-5617 11759 0
19231 3661 0
-11871 -19898 0
8236 2926 0
3673 -5186 0
10278 16432 0
8254 12406 0
13066 21685 0
-16519 4738 0
3762 -4747 0
-16451 2334 0
6309 21368 0
-3939 -3747 0
-9878 -17259 0
-1359 -12899 0
20122 -17956 0
-7888 6113 0
10145 15426 0
-23711 -23607 0
-6529 4244 0
3358 12723 0
22360 6114 0
20906 -21095 0
8551 -13622 0
-12315 19032 0
16923 22194 0
8512 20890 0
-356 20303 0
-12968 -4481 0
-14553 13212 0
-23440 -1085 0
4217 -2962 0
1382 -20315 0
-3229 -15731 0
-12528 -10974 0
15967 21610 0
-3460 14744 0
340 -3082 0
-17943 -5568 0
11049 -5791 0
-8227 -23065 0
9361 2270 0
-82 14752 0
-10934 -17108 0
-20202 23166 0
10147 -7456 0
-14142 3687 0
-4934 -20967 0
13870 -20372 0
10804 -17340 0
-16033 -14423 0
-14997 -11528 0
-2066 -12259 0
23572 21988 0
-21007 18037 0
-16411 12603 0
-20301 -4122 0
14327 -21699 0
-4441 18320 0
20087 -8272 0
17762 -4062 0
-15927 2037 0
-11997 17750 0
-20943 -18067 0
-12434 10644 0
-2127 9256 0
21955 6984 0
-10652 -10048 0
13541 13815 0
-10658 -967 0
-2229 2652 0
17187 -5226 0
22739 11047 0
-17623 6225 0
-13893 -14906 0
17635 13936 0
-17966 -18282 0
-23571 -17159 0
-5725 -607 0
-18021 -19978 0
11842 -5734 0
-13969 -13057 0
-14975 2590 0
21573 15159 0
-12040 -1523 0
14901 -8287 0
4211 -9910 0
-19453 -14342 0
-7505 -7768 0
-11301 -4089 0
15135 23480 0
-8186 -5365 0
-13129 274 0
-19337 22093 0
-2961 18655 0
5382 -17389 0
5610 2683 0
17112 -6999 0
15562 23334 0
7401 -6470 0
-14388 2827 0
10831 -5067 0
-17123 -1411 0
15529 -6005 0
-12689 5909 0
-6251 -8667 0
10260 -12453 0
5508 5394 0
23283 -11575 0
-11004 -6131 0
7392 9785 0
-19256 -8389 0
16106 21650 0
-7704 10236 0
11909 -19968 0
21797 13463 0
-14989 -12439 0
-15314 12921 0
13550 1310 0
-4762 15153 0
7687 22780 0
-9178 17617 0
14210 5892 0
1515 -9222 0
-12306 -8629 0
-9747 23427 0
10135 -14022 0
-1404 -22861 0
-23085 -11675 0
2893 -4049 0
-6872 -5968 0
21726 -12038 0
1158 22712 0
-6512 -3214 0
16019 -1252 0
-8903 -5309 0
-2082 -690 0
-23300 -11970 0
18875 6950 0
10296 -9296 0
5563 21169 0
23788 19338 0
5069 -5351 0
1050 -21836 0
7157 21882 0
22250 9912 0
-3528 -5136 0
18401 -17008 0
15411 -4966 0
14726 13859 0
20087 -20506 0
4028 -13347 0
-9519 -12009 0
14156 -1537 0
-5003 23764 0
-3539 -15539 0
-11473 22589 0
-7511 476 0
-5823 -1940 0
-8668 -18364 0
10846 -8198 0
19721 -3559 0
4470 -10603 0
5536 -13622 0
-21530 -2138 0
-7437 10586 0
12395 -23752 0
23434 479 0
2729 12985 0
19588 -20465 0
5657 99 0
22678 5069 0
3959 -1977 0
-20625 7542 0
-21929 7436 0
17074 -19736 0
7769 -18246 0
8326 -17603 0
11289 -116 0
-13848 -116 0
-23104 7096 0
-6034 9505 0
-17271 9331 0
3245 23582 0
-2551 23696 0
-4244 -1709 0
-13243 -14905 0
22640 16973 0
3772 7732 0
-22553 -14029 0
-923 -20638 0
4954 -15431 0
-9338 6340 0
11980 -18154 0
15102 -19296 0
-3891 -18081 0
-22167 -13923 0
17493 14492 0
14865 -17625 0
5150 -5686 0
9368 12378 0
-1316 13492 0
-1962 -19612 0
-22299 -8536 0
13340 1768 0
15622 11255 0
-7238 -13033 0
-12786 -6789 0
17281 9679 0
-17608 5237 0
-21095 3761 0
10040 17930 0
-21028 -5233 0
-17280 2737 0
-4236 16487 0
-22239 -2153 0
1243 5832 0
-10160 -5981 0
-16776 -3149 0
-19425 -8457 0
-13588 9636 0
-5390 15562 0
-8272 -11244 0
10763 -3267 0
11669 2167 0
2096 20231 0
-82 20802 0
758 19716 0
-17328 -9033 0
-21963 709 0
8405 15774 0
-300 11980 0
-15801 -6194 0
-2444 -11468 0
-4715 617 0
-20502 13083 0
-1665 -7341 0
-20310 2003 0
-1299 -2364 0
4076 -15332 0
12024 12726 0
-16602 8382 0
-21289 -7713 0
4546 -21415 0
17212 19467 0
-19888 13944 0
-1706 8371 0
-21681 -15480 0
-1914 -5299 0
-11063 8576 0
-11947 -21330 0
-4881 2363 0
-9493 -10666 0
10303 16797 0
-14049 9200 0
-9721 -893 0
4709 -7491 0
21550 -20615 0
18228 -23315 0
12089 -22849 0
-14066 11094 0
-18215 -21838 0
9641 -5607 0
2846 13536 0
-12593 -3236 0
-9112 -19034 0
-5202 19939 0
12542 -8568 0
-7880 -1761 0
-17341 9308 0
-22206 21360 0
-19281 5953 0
21207 4569 0
9394 11173 0
9840 -19878 0
940 10976 0
-2746 -1008 0
18241 10580 0
-1269 -2821 0
-15171 15928 0
-11857 3827 0
-8444 3771 0
-14979 -11965 0
11615 1046 0
8486 13716 0
12884 -7469 0
-19881 -7294 0
-7394 -9162 0
4929 4084 0
-14206 4611 0
20414 -16845 0
2920 -19148 0
-3074 14474 0
6158 9709 0
-9520 -15000 0
2921 -3865 0
19323 17005 0
16972 -7792 0
-17398 22623 0
-8667 20005 0
11008 -23018 0
-21541 12033 0
3951 -17784 0
-7508 13091 0
20785 -19304 0
2479 -10177 0
10299 -19086 0
22192 -16293 0
9202 4387 0
11030 22414 0
-23617 -16955 0
-9718 -22596 0
-18611 -4636 0
2973 -8846 0
-20265 16894 0
20914 407 0
-8803 3344 0
-16305 -17531 0
-20005 22964 0
21731 -11673 0
-12945 5988 0
8087 2738 0
12721 13073 0
7389 748 0
14696 5398 0
9064 -5009 0
-5029 -14704 0
-11977 -10758 0
13533 22486 0
-16744 -21997 0
-16317 -18636 0
-14030 -9309 0
-15662 -18003 0
8476 17061 0
2208 20929 0
22521 -4524 0
3167 -13344 0
18755 -16698 0
12179 -3259 0
-17003 8400 0
16652 7878 0
-15889 12038 0
7454 -10115 0
-14061 14376 0
-8531 2671 0
10134 -20866 0
-6978 -1827 0
-12596 -6569 0
-16346 13227 0
-18478 1906 0
-3085 20648 0
-12123 -11207 0
-16241 4274 0
-19497 -12485 0
10409 5634 0
5694 -11094 0
-8552 18519 0
11354 -6345 0
-11203 3370 0
-23629 22838 0
383 11460 0
-22660 683 0
-7136 -19557 0
-4316 -22487 0
847 -20747 0
10520 19957 0
21587 -3135 0
-2689 4545 0
14517 -19352 0
17676 2065 0
-16754 22855 0
5489 7997 0
-20367 7991 0
-21106 17862 0
2598 18313 0
12566 -13180 0
5669 1645 0
-17402 -17118 0
-20445 -23076 0
14710 14459 0
-5213 -22188 0
-7514 -4143 0
-10672 -20368 0
-22518 -18401 0
-2307 -18985 0
7059 7950 0
9376 -2310 0
-9994 3114 0
14454 -6158 0
-1408 -14882 0
469 -145 0
-23683 -13000 0
5467 9581 0
-2067 21632 0
-18039 22991 0
20927 4497 0
4056 13739 0
-14863 16718 0
22203 3521 0
-23211 -7894 0
-51 -3897 0
20966 -1905 0
-11714 -19677 0
3297 5114 0
18302 -8532 0
22277 9054 0
-15849 -1777 0
-11158 -2309 0
-17017 7153 0
4454 -13904 0
1997 -143 0
9415 -785 0
2784 -4621 0
6233 -21130 0
-23637 11589 0
-6851 -1794 0
14925 -13247 0
-7868 -3676 0
-13676 -4150 0
-2725 -3127 0
19483 -18775 0
14055 -9714 0
9883 -13919 0
21137 4682 0
-12897 8142 0
-16063 -10909 0
23351 -11569 0
11070 23093 0
-15268 -2363 0
8595 5925 0
-18687 1426 0
3413 -4532 0
-15204 11565 0
-7009 -9015 0
-20631 20230 0
-15036 5664 0
9628 9487 0
-22474 12158 0
45 10194 0
-9179 -20969 0
5526 14241 0
6184 1100 0
7023 -7597 0
-1228 17902 0
-17867 9192 0
-11797 3707 0
8439 6040 0
23624 -11661 0
17740 -22344 0
-14087 -13988 0
21458 3321 0
-8901 -16752 0
9882 22521 0
-6420 -18345 0
-617 6507 0
6677 -11104 0
-9617 21060 0
13800 2110 0
-2470 20242 0
-4690 -11985 0
-15095 -388 0
-7863 14605 0
10425 18019 0
13964 2445 0
15187 -8128 0
-7485 -11701 0
-4051 -21310 0
4500 7527 0
-21101 -14640 0
-2322 -9769 0
-11054 -18512 0
-3380 -5914 0
3572 -11895 0
22230 -11278 0
12357 -9089 0
16933 5895 0
-3375 21138 0
4103 21180 0
18378 3656 0
-1025 -9799 0
-13187 -3964 0
13145 3842 0
-2409 8252 0
-3255 8269 0
23550 -8093 0
-8252 18693 0
15407 -23082 0
12410 5728 0
-7122 19355 0
2275 -22878 0
-9176 -6798 0
10224 9381 0
-5902 19938 0
4750 13246 0
-1816 -7206 0
19915 13964 0
3246 -7518 0
-16354 -4132 0
198 15644 0
14720 -18563 0
16856 12226 0
-2646 -11286 0
-1387 -9222 0
-9527 -16087 0
-975 -12178 0
12759 21446 0
21802 -3845 0
-7718 -21286 0
15060 2250 0
-11000 21621 0
-15933 -5897 0
4690 21011 0
8241 -487 0
15200 19028 0
-4693 -3090 0
-4009 -13934 0
12938 -23323 0
-23424 20607 0
-10836 23225 0
-6461 -12096 0
8133 -7528 0
12033 4506 0
-5459 19753 0
-21716 18430 0
-14084 -15546 0
-21442 8239 0
13196 -21235 0
9184 12914 0
-7526 -19345 0
16726 2193 0
-9857 3003 0
-10333 -17514 0
4054 -7285 0
8733 10487 0
-21697 2127 0
3787 -7686 0
23024 18794 0
3447 2950 0
17648 -11508 0
4157 23680 0
-11200 -14010 0
19417 -8402 0
-7697 12224 0
-19531 -12680 0
7282 7023 0
554 -6542 0
4885 2477 0
-10170 13286 0
5021 2857 0
-17814 4405 0
-3376 -15193 0
-11036 -18960 0
-12108 -4872 0
-3444 23721 0
-5189 -3986 0
-16202 -18234 0
-6245 4560 0
2070 19780 0
-17055 2578 0
-9498 -18849 0
-6170 6191 0
15434 2631 0
-7595 -23667 0
14977 -16020 0
23530 19090 0
-11420 -10718 0
-15615 4777 0
-4742 -763 0
-14241 -16395 0
-1291 6772 0
19987 -22877 0
-19976 -23770 0
-14009 -9367 0
-7545 9443 0
19935 -13847 0
-736 17276 0
-4877 5353 0
17740 -7596 0
7953 11618 0
13515 -1388 0
14760 18211 0
4489 -13520 0
12675 701 0
-16381 9435 0
-22666 -6989 0
19978 15969 0
968 -12762 0
16683 18599 0
13644 -13935 0
-12385 23248 0
1625 14791 0
-14867 8319 0
-5546 -11258 0
-15807 -22714 0
8327 13520 0
-7108 139 0
-3963 -15741 0
-19261 4899 0
3215 5280 0
-5205 14465 0
6631 6919 0
-22989 11249 0
-13500 8478 0
18201 -11917 0
14692 -14725 0
-8878 -15752 0
-11698 -1719 0
21692 19105 0
-1740 -21271 0
-9542 -6342 0
-17270 -17148 0
-509 1324 0
-6753 15240 0
8236 2574 0
-2232 -13379 0
1313 11759 0
7306 3727 0
4350 17235 0
-8910 -17533 0
-11110 10377 0
12467 7354 0
-18495 -9617 0
-9311 975 0
7220 6595 0
-17804 5822 0
3947 -7118 0
15628 -19094 0
12341 -23257 0
-18400 1794 0
8051 -2277 0
1286 -14435 0
-3850 -1391 0
-5401 -11014 0
4347 11142 0
7381 18340 0
17950 9049 0
13586 12341 0
9924 8066 0
11440 20184 0
-1408 -11934 0
20991 -16167 0
13321 23612 0
-5925 957 0
5467 21127 0
20901 -13387 0
-22057 22691 0
12249 -21948 0
21536 -1221 0
-18261 -1232 0
12063 6861 0
-18252 16770 0
3615 -18243 0
13794 -13547 0
-19756 18005 0
19744 11960 0
9899 -22466 0
6365 16659 0
18132 -21505 0
12513 2928 0
-6905 7335 0
-11581 18197 0
7986 22731 0
4153 -19647 0
-428 -15262 0
16558 7925 0
-20881 -12875 0
19213 21815 0
-16991 17451 0
5453 -8193 0
-17135 -4959 0
5005 15434 0
7308 -21204 0
20621 -12986 0
-9370 -3627 0
-3589 7584 0
-3707 14334 0
11871 14363 0
-11761 -22450 0
-18587 -10185 0
-8335 18551 0
17989 -19624 0
-20181 -8650 0
-13298 -19312 0
-23645 3332 0
9700 3431 0
3692 -14163 0
16697 13980 0
-6046 2801 0
2678 17676 0
21287 -23656 0
-11872 931 0
-20601 1774 0
13501 5397 0
15002 18365 0
-16060 16610 0
14452 -23207 0
9369 -9220 0
8583 12050 0
6946 3657 0
9864 6047 0
4476 6142 0
12135 19721 0
-19034 -14657 0
-20206 4681 0
20481 5443 0
546 872 0
-4619 -15661 0
-10320 -5992 0
-16477 7945 0
-16962 2044 0
-5266 -18155 0
-8673 -7594 0
10484 8494 0
-3971 -14651 0
21884 4699 0
-5032 -7574 0
-22072 -12324 0
-21422 -19404 0
20857 -12632 0
13839 14330 0
-15509 13269 0
5502 11745 0
-3028 -9690 0
-8069 19499 0
22255 -7209 0
-6573 -18478 0
6116 19757 0
21749 -2450 0
7663 15860 0
-20698 17963 0
-11024 -20700 0
22511 18888 0
16302 -11022 0
11666 5985 0
-5381 6339 0
23098 -20519 0
7706 10797 0
23145 -14977 0
21824 -851 0
-23580 19733 0
-8421 -20829 0
-16984 -8935 0
-1708 9926 0
-22307 10743 0
-1045 -22109 0
-8266 -1363 0
-3929 7927 0
4602 16581 0
-2385 -12675 0
-607 -2233 0
-11274 9986 0
4469 11647 0
13860 4433 0
-3004 -18233 0
6395 -14531 0
6331 10286 0
-21262 -20316 0
-13907 -10993 0
-8439 -5831 0
1632 -7125 0
-10660 3934 0
8094 -20854 0
20974 -6067 0
13533 2034 0
13133 15789 0
22095 -5817 0
5078 12270 0
-2530 9332 0
-948 2303 0
586 -6189 0
-16808 -699 0
-20833 -17975 0
-11575 7207 0
17742 9019 0
-6202 4757 0
3634 10492 0
13932 -16867 0
9279 22567 0
20741 695 0
-15212 8181 0
-17702 -7560 0
4292 -402 0
-7311 -9504 0
-7913 -10335 0
5419 11158 0
1170 -20741 0
514 13862 0
14738 2997 0
-15275 18286 0
16927 14647 0
16361 2257 0
-4794 13087 0
5764 3281 0
-5233 14927 0
9218 20310 0
22279 8155 0
-4030 2926 0
406 9744 0
-17017 9200 0
6553 21066 0
-1545 354 0
3667 -7349 0
-22137 -1100 0
17713 8535 0
-17020 -18381 0
14402 -1770 0
-20119 13516 0
2636 7921 0
-20595 20010 0
8178 -17488 0
5310 -13499 0
13448 18526 0
-4028 13663 0
11239 17534 0
-1573 -20842 0
2253 23606 0
9571 21258 0
1284 -9006 0
13855 -15195 0
4524 -22093 0
-16647 -2878 0
-5761 20139 0
-1497 16263 0
-16748 -12379 0
20615 -16768 0
-6257 4136 0
16568 -11853 0
-8440 -12790 0
-11017 -8706 0
14803 5969 0
-18089 -2851 0
15077 -88 0
-7305 16099 0
17909 1202 0
-10703 -8343 0
21670 -8988 0
-4297 -17540 0
-2131 1079 0
23707 -8218 0
-18503 9227 0
-4946 -14517 0
-15748 -14643 0
-934 13251 0
-17629 6272 0
-21502 19726 0
1207 10823 0
20513 -12095 0
10893 -9902 0
-16301 -18075 0
6829 2680 0
-19675 -7754 0
12225 12957 0
-2857 -184 0
-6950 22438 0
23504 -15180 0
16609 20521 0
-3109 -3016 0
-15761 13879 0
-15790 12225 0
6628 -18532 0
-6888 -17301 0
-5713 -16207 0
-15862 10424 0
-2373 -11587 0
20082 8346 0
16217 -10691 0
8532 -15787 0
-16209 -11049 0
-11285 5056 0
12392 16057 0
-16861 -7170 0
20197 6033 0
-3450 -5732 0
-4572 -12537 0
-16606 1430 0
7462 19185 0
-9302 6243 0
6109 13038 0
-7954 14885 0
17684 8113 0
-16898 14610 0
17195 -7241 0
4052 -14736 0
-6031 -20831 0
-8518 -6324 0
-8699 -6757 0
-20265 890 0
15817 14827 0
-7902 13720 0
-21117 -15450 0
5693 3131 0
12690 20713 0
2928 19162 0
-13711 1234 0
17615 21710 0
9516 -10034 0
8231 14842 0
11241 -13325 0
10794 352 0
7996 -11359 0
-13836 4194 0
-7827 23328 0
-3931 -22487 0
12517 -12100 0
18708 7779 0
-21146 -2081 0
19606 8763 0
-21057 -14168 0
1259 -14490 0
-11493 12998 0
-16537 16693 0
-20968 -18984 0
-14342 14767 0
9007 -5806 0
-3978 18150 0
18916 12379 0
20733 23557 0
17517 -3710 0
12194 9212 0
4681 -13769 0
-1420 10797 0
10137 -17509 0
15844 3925 0
-4108 8491 0
2125 9928 0
20901 20034 0
-2481 22226 0
10071 -12865 0
4483 15529 0
-20127 13115 0
-10034 -19493 0
-5385 -12167 0
22448 -3176 0
-17391 19610 0
-2004 -4157 0
6444 6732 0
-19442 -19814 0
11028 3515 0
-18316 22308 0
-19082 -19125 0
-1861 -12800 0
-15048 -8240 0
-18793 -21179 0
-12846 -19818 0
20208 -3224 0
-3296 -4816 0
708 -19109 0
-12092 -9626 0
-13582 8567 0
-48 23252 0
-19574 5155 0
14960 7383 0
-3922 15448 0
-1255 -19799 0
-18449 16343 0
4021 11322 0
-803 -23183 0
14140 -1196 0
18927 -15610 0
-2972 23369 0
-11814 -20316 0
19910 6513 0
9487 17140 0
7042 2795 0
-15857 14232 0
-19974 -3623 0
-5690 19377 0
698 -7814 0
-16702 10536 0
22842 -23096 0
-1851 4015 0
-16433 20441 0
-14323 17982 0
851 13896 0
-8940 23145 0
-11472 -8425 0
-10819 18859 0
-10930 -487 0
-16767 4289 0
-4085 -23293 0
18716 355 0
-3456 -8400 0
15370 2221 0
22886 -13492 0
-5039 -11261 0
-8160 453 0
-6329 -14010 0
18514 -4610 0
-20377 -11602 0
985 -7591 0
17718 -18454 0
-21516 -11664 0
-12154 -9166 0
15052 13799 0
2971 -11777 0
12805 -4836 0
-1085 -10868 0
16634 -4659 0
8870 -7244 0
22628 563 0
-14870 -21694 0
-14255 -18143 0
-5449 20379 0
6574 -12241 0
20251 23512 0
-5303 4508 0
13701 -6871 0
21227 2002 0
-9716 -2081 0
-11146 -5506 0
-22568 -19093 0
8167 -5738 0
-7593 12288 0
-7569 -10765 0
1463 21353 0
-6546 16169 0
14009 6261 0
3547 13250 0
-20016 -20243 0
-22713 10983 0
-15889 14704 0
-20921 6655 0
18601 -16567 0
6011 -11556 0
-5386 -19745 0
656 23604 0
-7006 -774 0
5686 -12981 0
699 -14778 0
-4543 4279 0
-8584 5919 0
-19177 18955 0
17666 4206 0
-6115 -13597 0
-13188 8866 0
11693 -23211 0
91 11508 0
-6090 -7747 0
11593 8873 0
-19879 23214 0
-19725 -23251 0
-14037 -7178 0
12641 7767 0
-5174 -4777 0
-4804 114 0
-4440 16882 0
12123 -18009 0
-16610 -14168 0
-16133 7082 0
19234 8905 0
-2113 -15120 0
3494 5095 0
3322 8980 0
7377 361 0
11890 18062 0
19512 -2083 0
-17673 -16258 0
-17508 -17929 0
-23103 7211 0
-13849 6755 0
4352 8003 0
-22099 15143 0
-8043 13110 0
13124 3697 0
-4926 5739 0
11599 2708 0
13 -153 0
-16135 -22430 0
-20151 6594 0
-4712 2245 0
-12562 -5102 0
-18972 15203 0
16989 -21053 0
-15238 -8045 0
-10598 18578 0
-12599 -10364 0
946 21869 0
-691 -15850 0
1613 -2737 0
-5479 -19385 0
15625 -13703 0
6386 12528 0
-5756 -21621 0
-8271 935 0
-17710 -19165 0
-6216 17197 0
-13161 -4720 0
-9209 -7765 0
-12605 18131 0
-16100 -20583 0
7931 -23521 0
9067 -15750 0
10285 -11815 0
-2323 -8360 0
23541 21848 0
10763 -19032 0
-21514 21949 0
-20597 7563 0
-6278 18093 0
-12658 7933 0
16416 -11520 0
-11240 -17319 0
-14584 -16901 0
-7339 11259 0
273 7746 0
-16902 2901 0
-3749 17182 0
-7174 16513 0
-21524 6049 0
10151 15070 0
3597 -16102 0
-14848 22254 0
2460 23716 0
17440 11652 0
-12780 -16732 0
-1196 22965 0
12244 22314 0
14529 -2612 0
5860 -7597 0
14715 8064 0
19771 4602 0
-7964 3853 0
-16897 13032 0
-11733 14393 0
-19855 8208 0
-2646 15990 0
963 -2256 0
-7960 -12639 0
14478 -1586 0
-15583 -17730 0
701 -22715 0
19842 18900 0
-1343 -61 0
-1548 14163 0
-7899 -22936 0
-7448 -793 0
20629 1105 0
10569 400 0
8322 -21377 0
18738 -5730 0
4711 -16286 0
-13129 4681 0
-5408 23080 0
-3255 10323 0
7737 -13029 0
-14869 -16780 0
18087 -14339 0
15504 22721 0
-888 13393 0
-1160 -18843 0
-10171 14420 0
16312 -9005 0
-4882 -14086 0
10593 -20866 0
-13603 -16960 0
6510 7600 0
16279 9748 0
-2057 8419 0
2154 6301 0
-19119 4964 0
-607 -10324 0
-6846 1374 0
11085 -12953 0
11968 -10633 0
-12217 12891 0
-11723 -17926 0
-23327 -5409 0
11194 -14827 0
-6603 2042 0
7851 8904 0
-5338 21789 0
7001 -259 0
-3889 -19531 0
-12693 -8643 0
-17910 12938 0
-20993 -9886 0
14379 -2055 0
21649 -501 0
17160 8491 0
16773 9754 0
7648 10424 0
-18352 21800 0
-6037 -19587 0
10916 14269 0
5985 15883 0
-3443 -585 0
15497 23263 0
17990 -14766 0
7535 22690 0
-7543 16403 0
-503 19900 0
23723 5702 0
-22047 16243 0
-20777 -2560 0
-20421 -8336 0
11722 726 0
2259 17066 0
20517 -10292 0
-19124 14942 0
-2315 -14696 0
729 17612 0
-17684 -8774 0
414 -15149 0
-12280 346 0
-4559 -9832 0
-2571 -16501 0
-21453 20650 0
1355 -11610 0
680 959 0
16492 21248 0
4196 -10252 0
20821 15005 0
11174 -23042 0
19630 18907 0
-13786 -7855 0
-19970 -1494 0
14424 9629 0
-21440 6223 0
-6817 -10393 0
18564 -20227 0
21083 -7371 0
3883 23149 0
8817 -18998 0
12873 -9343 0
-1905 3196 0
8435 -16700 0
-7598 9262 0
5727 -4856 0
14166 -9768 0
13823 -17023 0
-3847 -21709 0
-14724 10930 0
-11718 -14398 0
12632 -14548 0
-4874 -4806 0
-18178 15878 0
-16661 -6108 0
16664 -4599 0
23011 14345 0
-11244 23208 0
-23288 -11420 0
-21535 3177 0
903 -11160 0
-11780 -20373 0
-7287 1912 0
3336 -581 0
-12452 9264 0
-9102 -21749 0
22410 -5402 0
6230 -20037 0
-12566 4755 0
12075 18418 0
1735 -17788 0
1208 14920 0
-5918 15009 0
13750 -5812 0
7629 5385 0
-778 -6075 0
-21450 -4595 0
-12278 1781 0
7399 -23219 0
-8956 -1124 0
-18246 12525 0
7907 5211 0
2352 -2523 0
16983 928 0
-7446 11861 0
6556 -23734 0
23398 -3482 0
-21633 7229 0
15052 22878 0
18299 -8996 0
6046 -20178 0
-12023 19075 0
20543 748 0
-11249 5216 0
21321 -2101 0
-21678 -8549 0
-19531 15296 0
8167 23659 0
-10094 21168 0
10037 -1460 0
-197 -317 0
22734 6334 0
-5806 2223 0
-4418 21834 0
7070 -17727 0
5768 984 0
21997 9924 0
3513 16788 0
6670 -21738 0
9313 20577 0
15386 -8508 0
-16209 15607 0
-10487 -14753 0
12719 -15339 0
22144 -6159 0
16522 18227 0
6255 -3934 0
-14073 8511 0
-8711 -22249 0
19631 -19296 0
16763 -1979 0
-21297 -6003 0
-19269 12948 0
-9863 -3096 0
10355 -22147 0
19635 17037 0
-20735 17751 0
20662 15100 0
2723 9375 0
-22945 -14656 0
-7423 5178 0
7829 7895 0
8842 -11988 0
1928 -23001 0
-11286 20539 0
8775 -17071 0
-22230 2286 0
-17734 4500 0
3835 18190 0
14764 15919 0
10736 -20660 0
16451 18922 0
-15182 18711 0
-16147 -12158 0
14888 -21507 0
19393 -13421 0
-1439 -7014 0
12946 -21323 0
1495 16536 0
-6481 -19535 0
-7401 -6252 0
-9005 -16595 0
-12383 23269 0
875 -6552 0
19666 -1814 0
-4202 19376 0
6495 -13529 0
13252 -7095 0
1816 -11668 0
-13842 -7547 0
718 14543 0
19923 -1104 0
-14054 20651 0
-14152 15251 0
-5210 5483 0
18297 1352 0
-15970 -5395 0
-21690 -15981 0
-17055 -21123 0
-8306 21456 0
16776 18755 0
-20352 5424 0
-14553 21354 0
2326 -17034 0
19477 -12845 0
-8341 9521 0
1200 -15932 0
-12176 12829 0
-926 -3998 0
-9306 20196 0
-22799 3416 0
-21288 -19976 0
-13522 -13691 0
-13537 -5372 0
-5189 -7283 0
-19317 -13728 0
-17148 8348 0
-11874 19559 0
-331 -20058 0
9384 -2377 0
-6750 -22303 0
10407 -11701 0
-18681 8176 0
15655 17309 0
-15615 23001 0
7592 -5913 0
-7227 -12807 0
-13368 19362 0
22877 -9724 0
9166 -12043 0
-11795 8073 0
-17225 -22963 0
-11256 -20202 0
-19999 19682 0
-14763 23570 0
7923 8584 0
-8193 -8684 0
17546 15957 0
15726 -15451 0
1662 -14261 0
19036 -15968 0
497 -23315 0
-22373 103 0
15642 6583 0
10239 -15254 0
-22446 -19345 0
20114 8187 0
14191 -21672 0
7004 20026 0
-21567 -8829 0
13407 13262 0
7044 -22439 0
14169 4299 0
8082 -4429 0
-7480 22981 0
-15707 20171 0
-1723 1168 0
-18901 -4898 0
-15356 -21925 0
-17492 -5882 0
-2453 -4594 0
-20549 -18633 0
-10876 3691 0
22020 8661 0
6277 -1087 0
9043 -3137 0
-3852 2858 0
-4532 -1506 0
-20338 -621 0
10502 20278 0
-15594 1412 0
-17459 5051 0
16750 -18070 0
2244 2756 0
-19171 -4579 0
-14337 22905 0
-11520 5668 0
-1522 14967 0
-6754 -4454 0
17311 -2432 0
22792 -17572 0
-19008 -11240 0
-20341 -997 0
18482 14059 0
-22604 4585 0
-15144 -9820 0
-20412 2772 0
7132 -19721 0
6270 -17708 0
-19006 -10370 0
-15998 -8815 0
5274 -6797 0
16532 19718 0
14761 -7831 0
-18929 22473 0
18247 -16578 0
-22609 -4322 0
-1564 -20882 0
-7967 20554 0
-16428 18313 0
-17546 -17497 0
5062 12551 0
-1459 -8725 0
-1822 19916 0
2716 -15423 0
9679 7578 0
-6873 -13388 0
-12654 -277 0
-17602 -8402 0
12748 -5501 0
1130 2315 0
-7727 22326 0
-2347 7440 0
3785 13140 0
20825 2367 0
-10315 902 0
-7127 7342 0
-8363 19125 0
3647 8392 0
-4858 -11172 0
-17333 -5966 0
-19556 -10107 0
-16895 -11753 0
-11532 -23412 0
14000 13687 0
9822 -2795 0
-6073 -13744 0
3352 5801 0
-1738 18780 0
4011 12428 0
-6775 -17991 0
-8399 -8607 0
21126 10467 0
4453 21283 0
4286 -9410 0
9060 20765 0
-13906 -5479 0
-9731 -21024 0
-19546 -8996 0
-19657 2079 0
-15168 12248 0
23748 18946 0
22407 -21130 0
19976 -10577 0
18328 22564 0
-10364 -9248 0
17308 16302 0
23203 -16539 0
10643 -4618 0
5974 -7333 0
-10518 2625 0
-20453 -18274 0
-23027 -6655 0
18499 18044 0
14182 -3102 0
-22371 588 0
7391 13784 0
-16217 6971 0
-4122 3887 0
16463 12194 0
-4689 4966 0
-21571 -8523 0
-9795 4913 0
4137 -16895 0
6869 -16036 0
-327 -15772 0
-191 23503 0
-640 -14690 0
-474 15434 0
22627 9591 0
-9975 -11198 0
1356 -2296 0
-22757 -6965 0
7293 -16307 0
10100 17380 0
-5704 -15055 0
1933 -21179 0
-21421 10686 0
4857 -10536 0
1580 -13992 0
806 -18816 0
3956 -23066 0
-11707 -17799 0
15449 15548 0
590 -15585 0
15763 -14683 0
891 4316 0
-17278 13494 0
18303 -22195 0
201 5619 0
-21578 9574 0
2169 -15352 0
18001 -21022 0
-17016 -721 0
13471 9961 0
-7936 -13000 0
-20254 14826 0
18999 -19441 0
-8625 22149 0
8711 -4292 0
10165 18389 0
-4816 -9619 0
21526 8974 0
-11970 -9568 0
23055 -12979 0
11495 -11303 0
16950 15303 0
-2493 -8853 0
22566 -13022 0
21068 20843 0
11936 22509 0
20517 15343 0
10355 4193 0
-18654 -16509 0
-19986 13277 0
-17658 6613 0
4518 -17394 0
-4051 10454 0
5030 -9971 0
14209 -23230 0
-12202 -3482 0
-16602 21181 0
23648 -8907 0
4197 4519 0
17242 68 0
-23092 -22784 0
9963 -19201 0
14313 -20455 0
23600 -8868 0
-8914 5880 0
15991 12336 0
15686 6174 0
17404 -9621 0
1377 2577 0
-13122 -17461 0
-5236 -792 0
-12623 -9857 0
-11456 -2661 0
17333 3922 0
-9771 -1142 0
18227 2536 0
4271 3327 0
-8249 829 0
9470 -4704 0
-20750 16860 0
16079 -18586 0
-18054 19263 0
-16845 -8204 0
-23271 7978 0
-2213 23777 0
-10322 1056 0
11923 -11317 0
-21279 8187 0
3019 14315 0
-16869 1352 0
-11864 -9440 0
-18423 3791 0
-1795 -5907 0
-13332 5304 0
-1197 -4202 0
-13512 -1032 0
-14906 -15371 0
12948 -14002 0
-13630 21308 0
14716 490 0
11641 -13667 0
-22308 -6941 0
-11945 -5234 0
6570 -17932 0
-16841 -3998 0
17048 -20082 0
21444 11552 0
-8552 -653 0
9457 7312 0
23195 -7116 0
-8081 -2088 0
-17057 22460 0
-3128 -1350 0
-7004 -6905 0
-8483 14285 0
12077 9277 0
-22924 18001 0
3255 -8950 0
15812 22497 0
-18290 -7760 0
5961 6456 0
13060 18064 0
12170 6003 0
-10077 -15561 0
1838 -21877 0
-1018 -2540 0
2658 6825 0
7249 -9925 0
7523 -13060 0
-11810 9572 0
17740 15357 0
-23422 -1943 0
577 -4289 0
-15632 -1594 0
-254 -2942 0
2705 1655 0
-12176 19167 0
7146 -9931 0
4353 -3275 0
-13733 18914 0
-12649 5413 0
6545 3691 0
-17103 17664 0
10634 13849 0
-4170 -12583 0
10194 5571 0
12246 1187 0
-11253 -5537 0
16950 4398 0
-11919 8130 0
10674 4169 0
18491 1696 0
-22906 14016 0
23590 15485 0
-5825 -9619 0
-9329 -591 0
-22071 -17660 0
7678 6050 0
6652 1611 0
8388 13422 0
18052 7230 0
-17855 3361 0
-5139 -16601 0
18424 -23271 0
23411 6125 0
8711 -9921 0
14195 -18538 0
15227 19815 0
-11107 -19609 0
19441 11193 0
-22292 23512 0
-6268 8277 0
-8994 17517 0
14649 8066 0
-2094 9718 0
6438 8714 0
-3458 -19588 0
18326 2605 0
-7579 -19590 0
20413 -6874 0
-18660 -5115 0
-155 10709 0
-7795 7131 0
-23676 7202 0
1263 21420 0
19071 -20021 0
17691 -6995 0
-13863 12391 0
-10148 20814 0
7979 14072 0
-9515 9597 0
5298 -4238 0
402 -833 0
22457 20808 0
996 -3017 0
1710 11113 0
-20699 -22100 0
2586 -8576 0
781 -18515 0
10778 8263 0
-10816 7207 0
14893 -18042 0
-3489 6933 0
11081 -9879 0
-16516 19195 0
-19525 13687 0
8404 -23505 0
-7949 14058 0
16753 -10322 0
23468 5824 0
15407 15678 0
-22649 -2642 0
20493 18694 0
5976 1809 0
-15810 -4198 0
22311 8241 0
-22027 -4659 0
-21445 6551 0
18425 12175 0
-13885 23120 0
-5178 21510 0
17211 -21661 0
9850 -7310 0
6665 10640 0
-20723 15112 0
-6374 -19717 0
-20336 -16065 0
5546 -10957 0
-15391 14117 0
331 4028 0
4369 -6858 0
5862 -15222 0
-7702 -9820 0
17720 -11111 0
-853 12706 0
-8399 -22906 0
-15889 -12789 0
15671 15118 0
-10844 7306 0
-6581 -10126 0
21642 -17811 0
12926 -13254 0
-15127 11854 0
8694 -8988 0
-7529 -19887 0
4916 18520 0
23786 12021 0
-16555 -18927 0
22933 -9697 0
10291 15016 0
-10230 -90 0
21425 16100 0
-23324 -10583 0
-12898 -3018 0
-3126 10254 0
15450 21191 0
-1487 10221 0
2087 -11366 0
-4711 -2818 0
-3533 -14965 0
-6850 13953 0
18469 9728 0
-14069 12393 0
-9586 14864 0
17996 16692 0
741 -1799 0
10373 -6327 0
12484 -1520 0
679 2502 0
12542 7738 0
-10625 4418 0
9338 7082 0
16169 -20198 0
10244 9376 0
-303 3577 0
-10521 22921 0
-12898 -17842 0
-10026 10471 0
14249 -16449 0
20481 -14433 0
13339 10371 0
14560 -1820 0
13201 -4240 0
3271 -16319 0
-2198 23293 0
-15872 -2839 0
-12872 -5961 0
-882 12553 0
9804 19568 0
9012 -18555 0
12615 -8860 0
17284 -9178 0
-18823 20942 0
16900 -5681 0
-17526 -20349 0
-19682 -14968 0
-11164 -13096 0
6075 12828 0
17459 -3860 0
-22805 -13210 0
14745 -7130 0
18352 -5453 0
-9608 -3399 0
5158 411 0
-9578 18590 0
-8522 5097 0
21861 -20144 0
-1958 20681 0
-11815 -19788 0
-21836 19791 0
19133 -19400 0
-6154 22394 0
-13350 20201 0
15918 -5138 0
11450 -18128 0
-11523 -16610 0
-22658 -5522 0
-18081 18653 0
10844 -16322 0
-19998 -23766 0
-18238 -33 0
10781 2332 0
11004 -19650 0
-23705 -16378 0
-8829 20073 0
-10431 19605 0
21812 15223 0
-19159 14067 0
-4886 10424 0
1924 2489 0
1205 2755 0
-7646 -14973 0
10214 21030 0
-19168 -8298 0
-10953 2812 0
-9735 9382 0
8637 -9984 0
-743 7905 0
-22001 23024 0
-11555 -9434 0
-197 13898 0
-18172 -4792 0
1952 14727 0
-9673 1883 0
-4610 -22316 0
22804 -22923 0
5619 3417 0
-13106 -21341 0
-5820 -8844 0
18455 2451 0
5051 -10777 0
9592 2630 0
6343 23566 0
6473 -20848 0
5919 23771 0
10352 11634 0
991 21423 0
-15922 -12450 0
-10835 13445 0
13111 4321 0
-4307 17899 0
-13588 404 0
-17020 23108 0
22731 -2517 0
-11314 6137 0
-9582 -3571 0
-15751 -494 0
15465 -23433 0
19170 -22744 0
-3382 -1764 0
11817 -23556 0
636 -7492 0
10116 18523 0
-17397 -22820 0
15460 7480 0
553 12559 0
684 1116 0
20764 19772 0
6498 9020 0
-6858 20744 0
9201 -3055 0
-5433 -14035 0
-16005 23570 0
-18680 -9037 0
5462 16492 0
-8153 -12711 0
-22185 -21292 0
-9542 -16284 0
-3575 -16787 0
9579 -16095 0
-5336 -2955 0
464 -20814 0
13830 1063 0
-23657 -5406 0
8354 17305 0
10948 -19489 0
10588 -22595 0
4488 7751 0
11282 1759 0
-15833 -17789 0
14694 -1210 0
-22596 12489 0
-370 -17756 0
-2616 -7664 0
12422 -4901 0
698 3963 0
18224 2916 0
11392 -12085 0
-3877 8544 0
-23628 -3506 0
11676 1564 0
-6453 17606 0
-21483 16271 0
-19855 -1770 0
245 -22188 0
-19015 13855 0
20407 -18861 0
-4031 -21144 0
12908 9054 0
21411 -16798 0
-15565 -22476 0
-2105 4801 0
-14610 18441 0
-12879 5373 0
17325 -5746 0
9060 -17047 0
15118 2385 0
-18518 -2883 0
17138 13 0
13962 7708 0
22408 10856 0
-4823 12133 0
-6530 -15728 0
-11826 -6673 0
-5138 -22837 0
-9592 -10310 0
14059 16980 0
23589 21985 0
1231 14383 0
-11252 19128 0
7251 21334 0
-288 -13583 0
-18212 -5483 0
4443 20014 0
11041 6861 0
-15124 -2115 0
-11427 -20836 0
6420 -6724 0
16934 17140 0
-15053 -20519 0
-917 -18545 0
-7525 17061 0
6125 -7622 0
20699 1696 0
-3251 -7709 0
6142 -14390 0
15816 -20692 0
-21814 -12134 0
-12514 -4670 0
565 17858 0
21744 -18048 0
6694 -17170 0
-22432 -10101 0
9638 2448 0
9042 13377 0
-16165 -9100 0
3336 -6962 0
-932 -7338 0
3689 18516 0
-10285 7430 0
6262 18999 0
-4197 -14128 0
-7826 589 0
-1978 -10166 0
4590 -3783 0
3188 -17376 0
-18316 -5450 0
17511 -8142 0
-5731 17219 0
2058 21673 0
-19240 4788 0
-490 20325 0
-15454 18263 0
4969 -22912 0
-14220 15277 0
17877 5564 0
20653 -1927 0
-1611 -3880 0
-5680 17011 0
16287 -3841 0
6825 -3380 0
-17059 -3029 0
20760 -19305 0
1140 -14060 0
-6382 -13139 0
-21131 -22678 0
2513 -4194 0
3111 18811 0
-3251 17810 0
9740 -8524 0
-8640 -10521 0
-2181 -11281 0
-1280 10318 0
22117 -7253 0
-905 15296 0
22554 -15884 0
-18912 8738 0
-23588 -21546 0
-14772 -256 0
17639 2208 0
-18642 -22068 0
-13382 -3812 0
-2980 -11001 0
22064 -17579 0
-7332 -19736 0
-2876 679 0
12641 19030 0
10893 -17025 0
5958 -5048 0
-22528 22069 0
9914 -11750 0
-11732 13259 0
-23315 -17691 0
-12500 -21363 0
-17847 5304 0
56 4818 0
-19146 -1270 0
13553 12784 0
-10398 -21233 0
20581 22142 0
1056 10316 0
-1858 16707 0
13036 -19717 0
-12434 7923 0
5670 8294 0
-6551 4332 0
-13495 10453 0
-15268 10368 0
678 -22814 0
15077 3901 0
5664 18371 0
-20550 -4230 0
-16879 -23030 0
3049 9474 0
-7272 16898 0
5923 -18499 0
-881 12659 0
11215 -5954 0
18024 21316 0
-22819 -23392 0
21407 21157 0
-7603 -15294 0
-15582 -18491 0
-1801 -2459 0
10532 11423 0
10838 2541 0
1155 6034 0
8352 -13314 0
-7998 23596 0
16723 -20853 0
22927 9829 0
17412 18146 0
-15510 -2300 0
-21981 -6461 0
3644 -12926 0
2516 3732 0
-11474 -10950 0
2602 8682 0
8932 -9621 0
-2693 -646 0
-22184 -5492 0
10621 -13047 0
-16904 23100 0
21787 10809 0
21907 9356 0
2754 -1448 0
-10596 14239 0
13385 23382 0
22504 -3190 0
-9959 10237 0
-9633 8223 0
-18135 17723 0
22848 1575 0
11795 -16727 0
12235 13065 0
12296 5591 0
-12705 8155 0
16464 -18508 0
-13517 -11254 0
-17540 19623 0
-9024 3369 0
-19802 -1291 0
-18236 -2358 0
-2633 13985 0
-11508 -18592 0
9273 -19340 0
14315 19824 0
7132 -21199 0
-22523 -14420 0
-1278 15333 0
20574 22265 0
-13900 4387 0
-10813 21140 0
15804 -13892 0
-15123 12249 0
3105 -17825 0
-10714 12574 0
-4438 -6329 0
-20945 -17812 0
-10870 -17026 0
-68 -9211 0
22886 325 0
-13605 10870 0
6931 15773 0
-7699 -16308 0
11924 -21512 0
-6830 17168 0
-23041 12844 0
19491 -16756 0
12812 1650 0
20892 1596 0
-12055 -10546 0
-5459 -22719 0
-10343 1680 0
10231 21841 0
-337 -6906 0
12354 -3340 0
1059 -23290 0
-431 -6655 0
-22175 5697 0
19726 -4698 0
17855 16238 0
18315 10271 0
14925 8025 0
3644 7812 0
18992 7342 0
18028 -10532 0
21153 22432 0
14399 -8079 0
-13484 -14842 0
10467 20894 0
-6280 1324 0
-12502 3521 0
7854 18451 0
21911 -9845 0
194 -18114 0
5019 18312 0
10820 -6211 0
-22721 -16662 0
23227 -20104 0
-987 -21924 0
20589 -7252 0
22958 20071 0
-20322 -5452 0
11958 15559 0
14540 -16107 0
7339 3854 0
-22682 -21300 0
21263 -15011 0
23495 20242 0
17320 -5543 0
-19973 651 0
-5313 -12505 0
-9544 16385 0
6278 -1965 0
9705 -14086 0
532 9423 0
-18679 -12566 0
-22720 11590 0
-14406 12499 0
11527 -5043 0
20469 3259 0
-3505 -20719 0
4142 -21402 0
-11096 -19504 0
12587 -22223 0
13407 7132 0
-7403 -414 0
604 4468 0
-17542 -21543 0
10095 15236 0
-12772 16786 0
-14174 4523 0
4885 -17321 0
19730 -5202 0
16526 -4691 0
-7225 8574 0
-10132 -6983 0
16316 17782 0
7986 -19341 0
-7110 -16951 0
8442 -14043 0
-19337 -16123 0
-3849 21696 0
16440 -18053 0
-9371 -18167 0
3496 14741 0
9944 -3141 0
16099 17452 0
-5061 -9716 0
-14224 -2377 0
-10577 -2765 0
15920 -21498 0
-20517 -18819 0
17161 22073 0
-14562 -17458 0
-16609 13009 0
16775 -22629 0
-501 7995 0
15029 22833 0
7292 -20287 0
-318 -15819 0
16623 10575 0
20299 23598 0
9337 -19490 0
-4661 16687 0
3739 -14910 0
14584 -17122 0
-21858 -306 0
-11845 15543 0
19759 -4317 0
11516 6088 0
17941 19735 0
-15158 9063 0
-12104 -7947 0
-19810 16214 0
22083 19499 0
-6769 9173 0
-12883 511 0
4730 -3474 0
12779 5927 0
-8427 -18981 0
-124 15477 0
-4346 -8232 0
-11021 -23427 0
-3169 -4074 0
8819 -11600 0
6300 -11257 0
-3546 -4418 0
21693 21291 0
16860 1002 0
21613 -7813 0
13751 -14797 0
20193 8375 0
-6358 18425 0
-6631 12369 0
3493 14275 0
20019 -14717 0
21203 -13721 0
18786 4310 0
20914 -11101 0
-15249 -4016 0
-8000 -7325 0
20238 -17360 0
650 12901 0
-17002 -20750 0
-22256 9330 0
8928 -16469 0
14679 9705 0
21022 18017 0
3236 -8484 0
-10986 -2055 0
-7426 14504 0
-13901 -13971 0
14504 4308 0
-22617 21815 0
-22518 22499 0
1649 8432 0
-18410 -12619 0
-9025 -3296 0
-9754 -13986 0
4938 4918 0
2392 -19504 0
3470 18006 0
15836 -16957 0
-6565 17599 0
20276 8605 0
-5829 -22274 0
-13918 -22337 0
-14175 -3045 0
-8669 21040 0
4253 -21947 0
-2700 -12346 0
20268 -19805 0
-159 -5935 0
-12379 -6479 0
-3386 -5621 0
-5324 16077 0
-13973 -10115 0
10868 -1614 0
-23663 18083 0
-3289 -12496 0
16986 -4461 0
22993 20407 0
21145 -11406 0
9882 -12711 0
1917 4678 0
-20975 -20274 0
-18220 -10537 0
23005 15711 0
-7385 -14458 0
-5054 12995 0
-22990 5323 0
-22058 21984 0
10494 13335 0
-11055 8577 0
14308 -19560 0
15472 -12319 0
-13070 15015 0
14796 1913 0
16149 13653 0
23555 10340 0
-19582 15448 0
-21753 -21763 0
18434 17474 0
-11838 -11384 0
10397 -16068 0
16846 16606 0
-12081 19452 0
-14312 20160 0
17849 1514 0
9942 -7718 0
2909 -13720 0
5292 -16112 0
21400 -939 0
-8857 12751 0
2117 -7490 0
-5958 12918 0
-21147 -21896 0
-3575 12788 0
4600 317 0
-13998 -12292 0
-6519 -11494 0
-7177 11667 0
-13477 23515 0
-5515 -8072 0
21603 -23737 0
-17738 7168 0
17550 15644 0
-19355 11169 0
-8180 -8753 0
-21229 -18173 0
-4552 -9437 0
-12630 -5048 0
-22726 6249 0
-13903 -10051 0
2995 -13257 0
3584 -1016 0
11927 -1883 0
18431 17907 0
5604 -3235 0
-2858 -14768 0
3910 -1097 0
-927 -12683 0
-2600 -18770 0
-9517 -11432 0
1189 -18904 0
6731 -443 0
10189 6902 0
3832 20344 0
-16539 19658 0
20385 20204 0
-21877 -4829 0
-19182 -21678 0
-8881 -10774 0
6199 14992 0
-13906 22770 0
-20012 11324 0
21764 -23386 0
-9408 9183 0
3424 8363 0
20061 -2487 0
12989 -9445 0
12382 19475 0
4502 -5577 0
-7594 -20587 0
20102 11538 0
13422 16893 0
11710 9895 0
-20570 4528 0
236 -2198 0
3716 -4720 0
-12235 -8685 0
10154 19845 0
-22919 1571 0
-5554 6537 0
-20912 12914 0
1874 -17210 0
-20098 -21501 0
-20193 22286 0
4733 -8400 0
11908 16833 0
3742 22592 0
5655 14109 0
21176 -18555 0
20100 -23512 0
5714 -929 0
12218 5989 0
-13004 22199 0
-10475 -22694 0
11550 -7056 0
2037 22644 0
-3542 -16015 0
15066 -22445 0
-18442 -22549 0
17588 6785 0
-5519 -11087 0
-2078 8118 0
-11919 22120 0
-19132 23005 0
6787 2085 0
5592 7239 0
10046 13569 0
-16892 -17565 0
-4620 3250 0
-11088 23565 0
-1051 424 0
15042 -22852 0
17894 -21742 0
-17637 -15998 0
3187 11863 0
-13977 20192 0
13422 -7086 0
16510 -334 0
-23699 -2358 0
-22017 -267 0
6211 -6126 0
-22771 16407 0
-8256 -20623 0
15865 -11296 0
-20110 -11451 0
4907 18971 0
13892 12413 0
-4483 14746 0
21650 56 0
9142 -19981 0
22103 -20820 0
10238 -21951 0
12550 17394 0
8547 22878 0
9556 -22906 0
-18192 23125 0
19091 7306 0
-20003 -14574 0
-5836 10098 0
-14159 5831 0
-20225 16822 0
-218 7890 0
21824 8875 0
8419 -8831 0
-11985 -5409 0
2598 -23685 0
-4025 12306 0
4589 5420 0
9413 21344 0
-5427 -10621 0
-9772 -1407 0
14019 13326 0
17157 -15953 0
15384 17822 0
-18099 14752 0
14716 20413 0
-14404 11308 0
9924 8004 0
1804 4649 0
8899 -15856 0
4104 538 0
8980 -17822 0
-15110 -9452 0
14923 10484 0
-632 22416 0
23716 -13933 0
13287 2672 0
14005 -5577 0
7854 9126 0
-21617 -20568 0
13767 12065 0
8621 -21059 0
21222 -13786 0
-20406 -18612 0
-20686 23680 0
12173 15288 0
-20813 -18680 0
-10352 1565 0
-14316 -3536 0
15528 7488 0
-22307 -2871 0
-10611 7276 0
1378 -5675 0
-9655 12979 0
18485 -8374 0
-15246 -7952 0
9939 -16508 0
-1983 18875 0
447 17456 0
-4495 19341 0
-10405 8422 0
-1824 -7330 0
-1522 18081 0
-12271 23737 0
23560 -16469 0
12117 20842 0
-13541 2890 0
-3354 23607 0
-10263 21866 0
20049 -6641 0
6997 17735 0
-11964 1695 0
7815 -5841 0
20943 -18128 0
-21685 19749 0
-14773 9459 0
2488 -20500 0
6229 -6714 0
8965 10446 0
-14617 10058 0
4558 5371 0
19800 -7524 0
-13982 -13210 0
-11324 13534 0
-18073 8920 0
-10777 3721 0
-19818 -10644 0
-15539 16426 0
-5736 1083 0
-7170 -1535 0
23493 -2647 0
21056 -12653 0
-6076 -22287 0
-3538 9439 0
20120 -11205 0
-18407 12821 0
-12491 14373 0
20665 -15511 0
317 -12537 0
-23773 -9461 0
-10033 -1593 0
6144 23235 0
-710 7738 0
-16377 15371 0
23760 -2676 0
20661 -9033 0
14875 6989 0
-10521 -8866 0
20519 968 0
16951 -13724 0
15663 21011 0
14272 18552 0
-7873 1632 0
12958 -2423 0
-3830 6204 0
-1930 4785 0
21079 11340 0
-20785 5450 0
7881 -7007 0
8773 -7066 0
7874 3462 0
-7740 -5314 0
-13166 -20565 0
11954 -16181 0
-1483 19814 0
-2239 -16264 0
11500 -22501 0
16139 113 0
-3512 -411 0
2526 -17703 0
19376 -18560 0
15847 7933 0
10025 -1960 0
-6632 -9915 0
8497 -3173 0
-4592 7540 0
18622 -23351 0
7608 6628 0
-12031 14639 0
1769 19191 0
-15145 7656 0
16131 10187 0
15681 -17202 0
-2064 21690 0
9989 -14867 0
392 -12845 0
-1199 -1455 0
-18072 -6744 0
-4094 2122 0
20736 20019 0
-2003 8595 0
3118 -10449 0
-18934 16157 0
-14882 14803 0
9010 -990 0
16894 -11155 0
-9558 22220 0
9901 1193 0
15080 -22695 0
-17977 -9578 0
-22936 -1151 0
3287 18769 0
-15071 -8240 0
-14207 1957 0
-13417 -4023 0
-2009 6094 0
2982 10266 0
19670 3257 0
-22498 9184 0
13571 2226 0
11317 -15098 0
20063 12065 0
-1670 -3609 0
-21759 -4778 0
-12034 -5930 0
-5219 16804 0
6058 -18176 0
-8831 16032 0
-10894 16497 0
16616 -3555 0
14671 -16231 0
11189 -14227 0
-22834 -18093 0
-4490 14740 0
-16424 -12018 0
11277 18601 0
11637 19546 0
-23218 -13074 0
-21904 7799 0
3928 -10243 0
21570 -21886 0
-17277 18187 0
-807 17703 0
12542 -14568 0
-19595 -19776 0
-22938 15690 0
-13964 9235 0
6641 20723 0
6685 16140 0
17385 15427 0
9116 -16766 0
-6687 18633 0
9946 -6281 0
-5764 -17516 0
15399 -10606 0
4541 6235 0
-3846 1463 0
-4803 -9136 0
-19671 18078 0
-13591 -10111 0
10724 2553 0
-12688 -16543 0
-463 -13791 0
1218 2696 0
-22282 6664 0
-609 10449 0
-17184 23167 0
-1325 16285 0
8202 -11241 0
-15708 15168 0
5198 15172 0
-255 17625 0
-10589 11382 0
18250 7629 0
-10092 -7302 0
-19782 18196 0
-1810 -17204 0
18861 -20897 0
-7650 -12983 0
7034 -7181 0
6226 9470 0
-7995 11114 0
14770 20048 0
22621 16194 0
-6107 4055 0
-5675 22727 0
-23389 12797 0
-7874 17175 0
-17438 -18842 0
6160 10102 0
19273 15961 0
12989 -23198 0
16151 -20447 0
-17481 15130 0
4369 22061 0
-20664 19620 0
6820 22039 0
-12902 1190 0
-9909 10393 0
16302 -12776 0
14711 1642 0
-6577 -832 0
6172 -23134 0
-13359 -19902 0
-5603 -23388 0
-21680 9315 0
20022 -5733 0
17242 -8386 0
-10391 7985 0
-2356 12684 0
-1125 17183 0
1243 6611 0
20973 6460 0
9186 -12453 0
17914 -9821 0
-4534 -6276 0
264 19833 0
4506 -16145 0
-17627 -19831 0
14445 6332 0
15816 19173 0
3827 -6692 0
-7731 23640 0
-17443 -17633 0
-19642 -874 0
-824 -11472 0
6249 -781 0
12140 3257 0
-15895 -3771 0
-5088 -6319 0
5049 -9069 0
12386 -21849 0
-402 14929 0
-8782 -2988 0
7809 -14968 0
-5815 11756 0
14249 12888 0
-15105 2498 0
14429 -8279 0
13932 -3168 0
19263 -4082 0
13045 -13069 0
4073 15625 0
-12491 -20311 0
11240 -16812 0
-19911 3356 0
2995 -8539 0
3596 2125 0
2497 -15206 0
1467 18899 0
-21958 -22398 0
-4741 21734 0
3244 -18754 0
-130 -15542 0
-7215 19716 0
1096 -20966 0
-22736 -20031 0
-4061 21201 0
17393 -17209 0
-2233 -18843 0
11224 -4122 0
2844 21721 0
-5672 -14071 0
16890 -3503 0
-21655 17869 0
-9789 11898 0
-21863 -13947 0
20813 8358 0
22756 -22161 0
19529 6278 0
13316 1639 0
8916 -4737 0
-5301 8357 0
-9637 14789 0
3468 12591 0
17106 18415 0
-16977 14415 0
22252 -3074 0
-17016 -3374 0
15356 21334 0
-6737 -11002 0
4085 23558 0
14531 -10420 0
23534 -9194 0
-19517 11369 0
3889 -15565 0
-12257 9199 0
-23613 20035 0
-9228 11302 0
-15481 14989 0
-2721 -2814 0
-23189 4316 0
-22567 -1957 0
-3804 1058 0
-2438 18299 0
-23435 22644 0
-15213 21253 0
5272 9846 0
8934 1826 0
-12171 11838 0
17655 11150 0
10167 11928 0
4551 -15429 0
-10880 13722 0
1687 7934 0
-5492 9152 0
10572 -2345 0
14649 9445 0
8375 4839 0
23157 13126 0
-12534 15925 0
2046 -17514 0
9439 -3473 0
1691 -14736 0
20410 7823 0
-3039 7526 0
-696 877 0
-11850 -19866 0
14068 19602 0
13194 23676 0
6580 -3307 0
-3326 -7295 0
20781 18565 0
-22100 2497 0
17642 23103 0
-4919 8086 0
20319 -1781 0
3067 -19335 0
18556 9035 0
20246 -4328 0
561 -17402 0
7702 -3019 0
17475 19809 0
-16836 -12404 0
9426 8187 0
8205 -19097 0
16449 7775 0
-14455 -1322 0
-1248 -10732 0
23698 -10725 0
10748 -9073 0
-16339 11819 0
-14146 12496 0
-22346 19372 0
-5880 2935 0
-7364 -19125 0
-10211 5160 0
19958 13612 0
-17786 -9967 0
11852 11501 0
-6363 12847 0
4695 -18370 0
-22091 4654 0
22334 7202 0
336 -13812 0
21116 -3142 0
1835 15461 0
1292 -3147 0
2327 11648 0
21559 5772 0
1655 -11742 0
20058 -18911 0
-5613 12613 0
16701 -13127 0
1848 3697 0
-22525 -3197 0
-23320 -17173 0
-14345 12073 0
-1327 -22832 0
4225 -3623 0
23385 -15161 0
14682 -15397 0
-6407 4350 0
9937 15138 0
5846 -2291 0
15570 -18997 0
-22029 6480 0
13158 -22986 0
-22058 -10586 0
-22977 14478 0
-9681 -11626 0
-18843 -18534 0
-19212 -11976 0
22077 -14708 0
-4219 18703 0
-664 -8727 0
-13784 -8812 0
-20128 21460 0
3725 -4815 0
10326 -15040 0
-561 -10859 0
-8273 -22135 0
14575 -5682 0
14395 -4684 0
20476 -21471 0
6741 -9125 0
7286 10086 0
12580 -1509 0
-3558 4995 0
-16173 1706 0
12278 22987 0
16794 -19559 0
-22600 20183 0
-20780 3683 0
15246 14302 0
-2588 -9450 0
4518 -12601 0
-22906 -20469 0
-2300 16994 0
12610 1170 0
12821 1781 0
-19984 -18483 0
14281 4464 0
-20527 -21971 0
-14806 12914 0
13737 2383 0
8030 -11426 0
4189 17919 0
-16758 -17745 0
9996 -23351 0
11724 17952 0
-18346 -15978 0
12836 17544 0
17517 -19694 0
-13 18464 0
-470 -21467 0
8063 7600 0
22357 19906 0
-18982 -20676 0
1436 -5070 0
-8850 -16187 0
15839 -11483 0
-10876 13691 0
4959 9923 0
-12687 6527 0
3777 9923 0
-21961 18013 0
-9078 -20398 0
8466 20160 0
13103 -23189 0
-21827 20680 0
7821 3136 0
15701 -11587 0
20957 -16861 0
23477 3996 0
20615 -14885 0
-6894 -19340 0
21037 903 0
-20777 16229 0
13246 -10469 0
16963 16822 0
-19196 -9586 0
-6491 -921 0
8406 -4425 0
-846 -12302 0
11014 17850 0
-6639 -7706 0
-20883 -4443 0
-19447 -21428 0
-550 -12952 0
21260 17458 0
-10509 21738 0
13399 19674 0
108 -15718 0
-3704 796 0
12789 -768 0
-5792 -9010 0
6998 8229 0
-13369 -19849 0
799 21071 0
-22573 470 0
2259 56 0
10325 -19732 0
1934 3462 0
10075 5561 0
15884 5210 0
19138 13272 0
-17121 -23391 0
-9732 15358 0
-11947 -13627 0
20389 16467 0
12170 14154 0
17684 -4747 0
-8142 3542 0
-10924 602 0
-10728 -10170 0
10076 22321 0
18711 8603 0
10489 -2286 0
-22225 10042 0
-2511 -7319 0
-18469 16245 0
-16724 841 0
12976 -18695 0
-8965 -16679 0
-5275 1993 0
21935 -12912 0
-12729 19900 0
3938 14243 0
-768 17778 0
3901 -16633 0
3608 18019 0
210 19462 0
5425 9474 0
-13173 23737 0
-8044 2213 0
10796 4 0
6503 -21091 0
-21463 -10081 0
10347 -14147 0
-6006 18199 0
-21800 -16719 0
22273 22506 0
-7855 14624 0
-4403 -21315 0
1560 11254 0
18070 17567 0
-19159 10237 0
3839 10581 0
-20000 -23460 0
-8497 16351 0
-16005 2133 0
-15062 -5740 0
-9886 -15524 0
3665 -23079 0
-18534 -7211 0
18625 13181 0
4405 23206 0
-5263 -2253 0
-3465 -13847 0
-5792 86 0
-16096 -4650 0
-23084 3311 0
-7479 5228 0
8908 -6098 0
-8204 -5743 0
10450 -8620 0
-14985 18875 0
-4425 22851 0
13884 -3829 0
-5705 -11570 0
2717 -19451 0
-3898 17652 0
-4882 23165 0
23130 -21772 0
-16845 21917 0
-13215 4308 0
-17422 21880 0
-19760 23168 0
-15499 -6312 0
16002 -6092 0
-18904 1379 0
-21302 18737 0
14997 -14546 0
23452 -18441 0
-21204 22326 0
-6519 -3133 0
-23270 11141 0
-381 -21543 0
23788 -10908 0
-8050 3108 0
-2190 19700 0
-14917 17184 0
-16568 13030 0
8713 10096 0
-1727 4975 0
-16677 9627 0
-13850 20835 0
20308 16214 0
-14097 -8088 0
15023 -20018 0
-19100 10383 0
20574 -9334 0
2681 14284 0
-11159 7942 0
6362 20911 0
10213 15231 0
17674 9659 0
12950 23308 0
2729 -6657 0
15205 3388 0
-14190 13451 0
21851 5586 0
23322 -12087 0
-5804 -10876 0
-14307 9214 0
4034 432 0
-2308 -14975 0
-21312 14629 0
2827 11173 0
4564 16411 0
-11441 -11962 0
-5018 7132 0
-23567 -2342 0
1456 14661 0
14559 -15554 0
-21267 -384 0
-4943 10939 0
-6160 6093 0
17148 12486 0
-2940 -11460 0
-727 14491 0
7614 -6141 0
-23538 6099 0
-22925 -594 0
19861 17443 0
-2623 -4773 0
-17432 -19725 0
18034 6632 0
-18888 17459 0
-2581 -16288 0
-14003 9652 0
-3342 49 0
10633 18529 0
-21003 7510 0
-15722 -23097 0
17533 18931 0
8465 -2373 0
13269 18825 0
-15695 -1689 0
-9007 11094 0
-6618 7810 0
-15371 -15157 0
12963 -667 0
-4504 20005 0
23267 15997 0
-18703 -2081 0
-16919 -17706 0
927 12334 0
19522 13321 0
-3461 20728 0
-19936 7296 0
4900 12303 0
-7418 -12071 0
21580 -8123 0
10133 14932 0
10690 -6880 0
-3683 18830 0
13616 39 0
-19425 10441 0
10281 4669 0
-16883 15300 0
-21807 8456 0
-12936 16172 0
15018 14592 0
-19853 4499 0
13824 1479 0
18787 17652 0
8659 15682 0
705 7951 0
16321 498 0
12851 -12288 0
-2792 -18049 0
-2545 -23789 0
11576 -12734 0
7929 3603 0
-21239 5627 0
-16784 -16553 0
10352 19142 0
-19731 -2369 0
-13623 -6811 0
23143 21641 0
5185 15523 0
10064 -2965 0
-17972 16289 0
9967 12498 0
2088 19053 0
-15369 21741 0
-23288 -23147 0
-4727 -14479 0
-3557 -1670 0
12206 -17544 0
14967 2628 0
-2942 4197 0
-12445 -14051 0
-8890 3206 0
-12365 5481 0
13072 19971 0
17573 -4767 0
-15535 14125 0
6290 10641 0
23722 -6546 0
12786 15293 0
4175 4062 0
-14906 -19081 0
23208 -615 0
10594 -5395 0
17538 -15869 0
-15691 21347 0
6379 16527 0
-18305 -12482 0
20056 -17456 0
-618 4515 0
4902 7928 0
-11437 13950 0
-19786 -19786 0
-7318 5280 0
9576 3637 0
-962 5192 0
14600 21658 0
3126 16653 0
505 -6391 0
-9726 -22629 0
-19111 -21649 0
-6576 22791 0
1589 2497 0
3936 -11912 0
3376 -11383 0
1570 -6573 0
-12776 -8551 0
18771 -5253 0
21242 -4117 0
-18177 -5435 0
-4445 5791 0
22725 -4450 0
18997 -22077 0
4494 7625 0
10404 -2886 0
21172 9277 0
4391 -1280 0
-15158 1036 0
-15132 5220 0
8413 15696 0
16056 575 0
21561 15364 0
12433 -10250 0
-6425 -742 0
13270 -14178 0
-6954 -4362 0
13796 -15595 0
6369 6395 0
9080 -23396 0
-512 389 0
-4720 12577 0
-16222 -12433 0
-14892 19305 0
23153 -756 0
-13397 -14814 0
-12009 19773 0
2536 7069 0
14903 23510 0
14836 -12345 0
-8568 -4005 0
3396 -16790 0
13851 -10751 0
-4595 -5266 0
22034 -21556 0
9756 -17617 0
-13129 -16148 0
-11196 -20552 0
-9875 2744 0
-8714 -5858 0
-18092 -17151 0
-9840 -2168 0
11202 19061 0
-3339 4164 0
12377 22322 0
-12095 -8621 0
-11982 5578 0
8399 22741 0
-15601 -14770 0
-3584 11926 0
-3982 -20674 0
-5413 13886 0
1759 17518 0
-19946 -12893 0
14657 9776 0
-11620 -6044 0
-3530 7289 0
-14867 18178 0
2655 6279 0
23155 -5534 0
-12658 22804 0
7150 -14274 0
-23303 22473 0
-14648 -12789 0
22668 -14648 0
-13846 -11909 0
-11288 -23177 0
9981 -184 0
-22624 -17888 0
12170 17249 0
-18808 1481 0
-4827 -7776 0
-21730 -2023 0
18286 22459 0
-23330 -2486 0
-10435 7363 0
-18315 -22878 0
1378 23204 0
19372 -14092 0
15830 13468 0
-22871 -22608 0
8871 17011 0
-12893 20915 0
9699 4306 0
12132 -20696 0
4586 17941 0
-15552 16182 0
17212 1878 0
2730 -21650 0
-21131 -11241 0
-21382 7889 0
-11735 6976 0
1965 14861 0
19684 4320 0
-14707 -16894 0
930 20244 0
19102 -13774 0
8606 -3002 0
5597 10273 0
23555 -16556 0
14235 4991 0
23464 -20109 0
-17705 -7870 0
-20994 -20780 0
1136 -14980 0
23019 7304 0
6575 -15228 0
-15574 5450 0
-16356 7801 0
-15836 16742 0
-15330 11528 0
-12034 11588 0
18498 5638 0
-22313 5112 0
10573 -1532 0
10917 -12281 0
-19052 295 0
-19912 16025 0
8854 -16167 0
-7492 14704 0
-18878 -1978 0
-10298 -9291 0
1735 1731 0
-14574 -3365 0
17360 10608 0
-22757 12509 0
5025 15651 0
-14372 -13473 0
18437 18361 0
-3393 -23357 0
-12529 -6945 0
11946 7732 0
19394 18738 0
-6161 2395 0
19302 21300 0
-17184 23009 0
14851 -13265 0
2980 238 0
-22091 8200 0
-4055 -1022 0
22 9489 0
921 19569 0
-6966 -3227 0
-14370 3767 0
-13913 12852 0
16069 -9476 0
7785 2747 0
19144 22117 0
-21470 -9725 0
16828 -6636 0
-16339 21508 0
-21700 -23094 0
-13532 11824 0
-7595 -4403 0
18485 13220 0
3131 14752 0
12984 -17848 0
9063 23232 0
6989 16896 0
22968 19171 0
1643 12267 0
-12344 -6387 0
-1408 -6189 0
22730 -19712 0
18248 -23617 0
-18663 10531 0
-6783 -7324 0
-9053 2574 0
-1908 5717 0
-8508 23064 0
-18728 19519 0
19324 312 0
-16711 -14623 0
7406 6120 0
-9568 -10998 0
350 -7654 0
-9788 20901 0
7374 -19944 0
-22635 -22892 0
22608 20456 0
4470 -18298 0
9279 -6867 0
-3270 5533 0
-3031 -10352 0
-14964 8790 0
-23424 -584 0
-12305 -12260 0
-1622 -15410 0
21806 18989 0
16605 2617 0
2057 6583 0
-4451 -9738 0
19931 19560 0
-18572 1683 0
-13046 -10328 0
-2840 -4896 0
15614 -3875 0
-15993 -3174 0
11227 4248 0
13684 22521 0
12527 20459 0
-16617 19757 0
-7862 -23368 0
-6191 14884 0
-20113 18810 0
-23057 17977 0
14278 20889 0
-23750 8481 0
12635 21871 0
-2791 1525 0
11084 -20102 0
18594 959 0
20224 -15456 0
-4576 -20723 0
-14290 -21564 0
-2646 -2849 0
7628 15959 0
-13604 -3954 0
7713 -14208 0
-1535 -4571 0
-1380 -21745 0
7809 2514 0
-1480 -16790 0
-4952 19025 0
4913 7727 0
8875 4064 0
-7183 17028 0
19929 -21557 0
-12764 6921 0
-19278 20358 0
20354 -957 0
12293 -12178 0
-1628 -13036 0
-9763 -5241 0
-5158 2520 0
20901 -9653 0
-5440 13444 0
-21194 -16657 0
12942 -12808 0
-22699 -10408 0
-18685 55 0
-5164 17158 0
21177 -22223 0
20518 -16227 0
-10676 17863 0
-21459 -7211 0
-22557 -11830 0
23399 -21389 0
16475 -19628 0
-17566 21394 0
23126 20897 0
-22237 -10952 0
19366 -20805 0
16230 4052 0
108 -7620 0
-3375 -3792 0
-9476 11445 0
-10910 23790 0
17877 9879 0
20701 -3175 0
12363 17870 0
10716 -8050 0
-21800 21186 0
-15816 -6805 0
-16039 -1396 0
23747 -13156 0
-46 177 0
21525 20571 0
-1406 -3269 0
4128 -6976 0
-11588 4431 0
-12800 10001 0
12367 11012 0
13228 -15335 0
8642 16318 0
-17779 -7718 0
-5600 -21265 0
14073 -4458 0
12939 -12306 0
15659 -11427 0
11947 2891 0
-7494 23039 0
10337 7943 0
5021 -8767 0
-5239 828 0
15150 4902 0
9018 13829 0
1702 18386 0
-5451 20678 0
19695 753 0
-19878 -12001 0
7556 7254 0
-2815 -2877 0
13772 -19154 0
10830 15225 0
-1494 -5624 0
-13087 -15904 0
17719 -1903 0
-22709 -16632 0
18633 11671 0
3247 17665 0
-14305 15520 0
-13308 -11857 0
-14666 -17556 0
3271 12919 0
-23396 20021 0
-11049 -15623 0
-13085 -8499 0
11976 -6318 0
-19777 -15576 0
617 14435 0
-1628 16741 0
-15598 -4650 0
17863 959 0
1051 -4509 0
-3859 13267 0
16829 16243 0
6334 -7310 0
-19604 -21894 0
3618 -9518 0
-3128 -19977 0
-19999 -19934 0
9998 2125 0
-11159 12025 0
13602 -22029 0
-14469 7027 0
-18303 -12134 0
18381 -15144 0
12335 19402 0
17789 -2792 0
-13605 13231 0
13572 9954 0
15264 12321 0
9869 -6264 0
-16841 5647 0
-15409 11827 0
-17643 -23205 0
17694 8715 0
11367 9853 0
-4374 -1622 0
-5577 -10322 0
-2910 13797 0
-23785 -3981 0
-21136 12248 0
21182 711 0
9477 16602 0
21726 17154 0
-2371 -14574 0
17840 9260 0
3281 1159 0
-5816 -5033 0
-20206 -8910 0
4764 -15570 0
-6600 7061 0
-261 11944 0
-2025 -18755 0
-20082 13571 0
22539 7381 0
3833 17130 0
18957 -20335 0
3344 -1935 0
20256 10812 0
-6726 20000 0
-9231 9000 0
8168 -1900 0
946 15127 0
947 -7364 0
-7792 -7603 0
17597 -15777 0
-16658 -14663 0
11275 -837 0
-7083 13521 0
-3457 -4647 0
19235 2546 0
-17401 -23734 0
-22599 -5925 0
-7893 -19058 0
-1271 -18808 0
3796 -13576 0
773 8398 0
-19099 -12337 0
4979 13903 0
-3327 19559 0
-6187 -11877 0
-12936 11701 0
3180 -6519 0
5761 16188 0
3178 -22717 0
23027 -9851 0
11250 23730 0
-11034 -19751 0
12226 235 0
-16951 -14422 0
9027 992 0
22606 -6410 0
16824 12517 0
-14747 -13772 0
12103 1210 0
283 -6052 0
-15641 4112 0
391 1783 0
-19812 13664 0
-4993 -2851 0
-19631 2702 0
-800 -22389 0
15493 -1544 0
15946 19506 0
432 -13004 0
-22554 21153 0
-8832 -14412 0
5598 -13008 0
22303 -20897 0
-17883 2786 0
13720 4032 0
-16216 -10062 0
-1148 3638 0
-23140 22236 0
323 9745 0
-16064 4847 0
20616 4221 0
18197 -23058 0
20807 -8604 0
9577 -20255 0
6032 -16305 0
20348 16828 0
20376 -9642 0
12787 5249 0
20173 8153 0
-20435 22633 0
-11255 10575 0
-18285 17092 0
9742 -1411 0
-15479 -14488 0
3988 -6119 0
4867 15530 0
13347 -9122 0
22854 9707 0
-13356 18096 0
-14215 18286 0
21117 -15290 0
4333 -13097 0
3303 -19279 0
-15424 15150 0
8353 6672 0
11057 5476 0
12026 -4697 0
7973 -20257 0
5656 -4960 0
-3387 -2442 0
-3110 10091 0
-5067 -6424 0
10726 20935 0
-12181 -9880 0
16148 16869 0
13858 12646 0
20540 -15786 0
-22075 -10132 0
-14949 -17881 0
9451 -15589 0
8033 -3947 0
-3655 16236 0
-20505 10037 0
-9907 -17074 0
20860 -21179 0
15141 4353 0
935 -1810 0
-4384 -438 0
13927 -285 0
-7394 19144 0
17571 4363 0
-17583 17621 0
14332 -8369 0
-3112 -4810 0
2217 5198 0
-16888 4749 0
-6117 -20655 0
16239 3106 0
3528 16946 0
-18952 -5909 0
-14189 1939 0
14885 23359 0
1765 4236 0
3357 11237 0
1833 10021 0
-23479 -6452 0
19885 14123 0
-19062 -7194 0
6673 -14150 0
3167 7282 0
23453 7062 0
9293 -15158 0
-17771 20267 0
11649 -8026 0
-22211 -5963 0
5969 10407 0
17364 -23354 0
-13078 -14929 0
1337 11730 0
-20800 21214 0
-8679 1401 0
11403 -19206 0
11578 8420 0
-18478 -5416 0
7731 -14362 0
-501 -1106 0
23761 8953 0
-11144 3988 0
-18409 -9394 0
-6693 6587 0
-7882 -8751 0
16750 -8849 0
-16658 -3717 0
-17241 13230 0
12522 -17427 0
-16184 18994 0
20992 -13140 0
20403 -9629 0
7649 -21795 0
-15995 -19922 0
9192 8029 0
19678 -1603 0
2335 17650 0
-3664 -13501 0
-19294 -16833 0
-109 21534 0
18297 2920 0
14292 -18772 0
-1755 5163 0
-23207 -11491 0
-7260 -16891 0
-15583 367 0
-22823 3054 0
-11368 6219 0
-13568 -9597 0
-18570 -15048 0
-19452 3894 0
2499 5911 0
12727 -5329 0
19908 23448 0
12771 -11904 0
-8215 -1009 0
4872 112 0
18377 -13130 0
-13792 -20107 0
-5991 15999 0
19603 15771 0
-4635 -8927 0
-15885 -22441 0
-20402 12652 0
15951 -15539 0
23092 -4587 0
-7673 -13707 0
16267 146 0
-10176 -10325 0
7994 23194 0
20813 23431 0
6829 18651 0
7580 -13931 0
6586 6421 0
20363 3851 0
2970 10799 0
-16523 -11798 0
12451 -12159 0
-22847 13533 0
17786 -10393 0
-19656 -15392 0
-23638 -10579 0
16492 7538 0
-3898 16837 0
1482 -10262 0
7856 17682 0
21996 -14020 0
13392 7167 0
-3424 22804 0
-12052 -20469 0
5481 -4783 0
-21681 -4626 0
19929 21365 0
-15566 -2860 0
-20780 -14950 0
9549 -2708 0
-1522 21014 0
-1868 22695 0
-13296 -204 0
22801 -10071 0
-9523 2790 0
-8337 777 0
18246 13952 0
13012 7551 0
20047 -3649 0
-17390 6979 0
-2688 -19992 0
21911 -10135 0
16493 6754 0
-2759 16185 0
18445 -22529 0
21768 -21667 0
8838 3643 0
21112 8462 0
-15726 19972 0
-3870 14010 0
6181 -7653 0
6556 -16276 0
-23590 -19904 0
-16313 13285 0
-11232 -18631 0
-17708 -11198 0
6882 18579 0
-18936 3374 0
7424 12610 0
9939 -7966 0
-16773 10032 0
-19836 -17220 0
16976 3752 0
-17453 -791 0
-7232 8475 0
17009 -12172 0
-19928 12173 0
-21401 -1382 0
22298 12469 0
2283 17852 0
-2361 6975 0
1153 6672 0
-2815 -2357 0
9990 -16205 0
18939 -9471 0
19587 9469 0
-5716 -22864 0
7755 2166 0
-6429 22590 0
-18072 20982 0
6319 -22154 0
16183 -813 0
-12159 995 0
-12863 9428 0
-2635 -9565 0
5003 354 0
23571 13571 0
-21615 13260 0
-10325 -1914 0
16882 -5428 0
-22839 -3018 0
-22776 -1683 0
-11890 -20866 0
-23494 5850 0
-162 2622 0
5293 -17117 0
-17759 13571 0
-1771 -116 0
-14975 -6740 0
704 -20116 0
-11354 13459 0
-10001 -9695 0
9203 -17685 0
8050 3435 0
-12836 8167 0
23256 21358 0
8763 12193 0
-23395 21363 0
14224 -5264 0
16532 7118 0
-22100 -18869 0
13694 6561 0
-18520 -20592 0
-14046 23454 0
6800 17075 0
14844 6636 0
-22498 18000 0
12763 -13989 0
12706 -10879 0
-7119 -6239 0
-5258 16218 0
-5890 18986 0
6986 19769 0
12274 -20456 0
3619 -11906 0
-2622 -21752 0
-13420 -23026 0
12199 10199 0
-10732 4553 0
4458 -15639 0
-19096 21163 0
-5073 -20866 0
1467 14278 0
7190 -22093 0
13142 8709 0
-13604 -7187 0
2120 -11414 0
12297 -16329 0
5007 15661 0
15570 16547 0
-6098 19960 0
13216 -7211 0
20436 8031 0
-9517 7258 0
-4377 4489 0
905 -16212 0
-14486 -22923 0
4189 19235 0
11016 6831 0
5492 1852 0
5167 8792 0
-21944 -2599 0
-11288 2884 0
-4197 21721 0
13852 14952 0
690 -507 0
-9784 -23057 0
20128 686 0
17762 300 0
-14082 7859 0
15419 17116 0
2767 -20481 0
9631 -13754 0
-1360 20095 0
-23068 18505 0
-22745 11152 0
4053 10280 0
-18536 9092 0
-14142 21003 0
-11774 15788 0
-980 13462 0
5199 18199 0
-12920 2218 0
-14111 -23636 0
-12019 20303 0
-2193 13279 0
-15951 -4858 0
13898 -15670 0
22821 -16229 0
19761 -4416 0
-19432 -8061 0
-7058 -2182 0
22258 -2466 0
13091 -15105 0
13555 -5048 0
-10101 8470 0
15746 -2830 0
5733 -22091 0
2531 1700 0
7608 -8907 0
18643 -734 0
12902 -3037 0
-5822 13018 0
-8504 -7457 0
14974 -4268 0
7734 588 0
15143 -5414 0
2010 -7868 0
-833 15838 0
-17462 -7543 0
-22650 5661 0
6697 -13764 0
-20786 248 0
-14471 18537 0
-14352 -22038 0
-14434 94 0
10610 17001 0
18266 -9933 0
-23335 7751 0
-8753 22381 0
-14136 22988 0
13490 12581 0
16199 3274 0
-22598 6332 0
1387 -16103 0
2923 -21064 0
13622 14202 0
-23260 11005 0
18220 14099 0
-21215 -22867 0
16135 7505 0
-8831 16509 0
6249 13638 0
-16806 -9043 0
10461 15030 0
-9394 -20510 0
-8869 7551 0
2745 -12890 0
-2480 -9266 0
2941 12366 0
7457 -20467 0
-1273 18803 0
-22310 631 0
-13250 2909 0
20707 3572 0
22093 -2669 0
20772 -23723 0
19465 13444 0
20429 -17888 0
-13276 -8469 0
-17830 9156 0
-4447 14372 0
12808 -12480 0
-1235 9481 0
10627 20548 0
-4182 -22914 0
-19055 -16952 0
20671 -3928 0
6553 -10161 0
16551 -7923 0
-17022 -16098 0
-11457 14535 0
19882 7988 0
3924 6476 0
-18990 -3274 0
20915 14455 0
-2044 6704 0
15783 -11169 0
-18042 16127 0
-15808 5908 0
-18400 14539 0
-22280 10644 0
18865 -18214 0
17884 -14055 0
-15003 -18338 0
-12372 10373 0
-5895 -4572 0
12335 6645 0
19766 5496 0
12397 77 0
-4336 -881 0
-13281 -18718 0
-6867 7870 0
-19288 -8659 0
-18197 -8875 0
5221 -19306 0
19290 -18229 0
13008 -10232 0
-11187 -22221 0
-23132 3379 0
2089 -8654 0
21829 -16645 0
3006 -17093 0
-12819 -16116 0
-6059 19958 0
-13980 11974 0
19613 -6081 0
19065 -10380 0
-10075 -10960 0
12683 -3755 0
1710 11894 0
7948 -8098 0
-14885 12587 0
-112 6341 0
-22109 -2732 0
2236 1474 0
-13269 -3898 0
2003 20406 0
825 -13350 0
6226 19995 0
14909 1845 0
-9844 17136 0
-645 4028 0
-3418 -14613 0
-7640 -22022 0
-1184 20608 0
1199 16053 0
-7293 -11449 0
-12877 -22854 0
18093 -20467 0
-20254 -1173 0
-12409 15609 0
13015 -1197 0
-17108 476 0
-22861 -21300 0
20095 -2435 0
-11184 9549 0
5292 -9219 0
-12377 -14404 0
-1433 -10836 0
4130 -3265 0
5193 19788 0
-7185 -19159 0
21562 17585 0
-23531 -11129 0
-17151 -18847 0
-10342 -13220 0
-7128 18936 0
-5761 9106 0
18353 -12347 0
-8068 19004 0
-11931 -1268 0
-22045 -18341 0
18108 -23671 0
-4887 -10489 0
-11363 7295 0
-5535 -5866 0
-1890 -11197 0
-23526 12083 0
5590 -13792 0
-4071 8453 0
7572 14776 0
-17967 -19129 0
10589 11915 0
20461 18553 0
21727 -19608 0
-17448 -20854 0
7765 -6707 0
-20165 20155 0
6113 -17490 0
18307 2775 0
15789 -3470 0
1849 13517 0
11775 20877 0
-13828 -13112 0
-5847 4620 0
7986 14812 0
17485 -22785 0
-8855 -11752 0
-20187 -5379 0
8683 22915 0
15171 5152 0
19758 21627 0
-23314 -14221 0
998 19714 0
-7524 1153 0
-11743 9193 0
20907 13866 0
-17540 -9177 0
-8387 6632 0
12943 3021 0
-20094 23203 0
-17524 9022 0
-19336 -9902 0
3427 -20451 0
4318 -9231 0
-270 -12846 0
20480 8444 0
19830 439 0
12317 20116 0
-5606 8916 0
17407 10449 0
19235 -14103 0
17266 -3378 0
-8814 22938 0
-12511 13327 0
-19234 13411 0
-4590 -7421 0
-1364 17400 0
-1581 -23514 0
-19865 -10887 0
12493 -6931 0
10868 9581 0
19547 18169 0
-13332 -6782 0
-23667 23335 0
-9409 23676 0
504 9545 0
-10432 21359 0
-6252 -3090 0
-6822 -4402 0
-21574 -8961 0
-18645 -19321 0
1000 -9468 0
23486 17316 0
-7714 8200 0
-1257 -17113 0
-733 3131 0
2910 -21348 0
3209 -20074 0
-14707 15274 0
-10258 19884 0
-8442 -23100 0
-11421 6026 0
-13119 16607 0
-15437 -19262 0
-13775 -3690 0
-1506 -12579 0
2809 20987 0
-16226 -22686 0
-1139 -19873 0
15881 -514 0
-7899 7064 0
2752 6216 0
-4106 16692 0
-6722 -18256 0
13890 -17738 0
-7322 11330 0
23599 11669 0
-19205 -13747 0
4092 3436 0
3114 683 0
1967 -14854 0
-7908 9395 0
-12499 -3792 0
1334 22411 0
-8454 19736 0
470 16750 0
2303 -18588 0
11768 14740 0
-17225 -23301 0
966 9601 0
-19580 -2677 0
-23170 15224 0
7628 -12606 0
-8236 16268 0
-20091 -21333 0
-13132 12504 0
-21543 6469 0
2200 4327 0
-23419 -9583 0
3641 15638 0
15899 -22655 0
-18229 16089 0
-7387 -16420 0
-23354 -929 0
3724 11647 0
19205 -10471 0
-10030 -6636 0
7240 16788 0
-4014 -17031 0
15792 -7402 0
7664 -2249 0
16380 12335 0
3799 22798 0
-3323 -9429 0
-19365 815 0
-3238 -20661 0
6745 19576 0
-21477 -4896 0
-3205 -14858 0
-3438 -5274 0
13685 22472 0
17297 -13233 0
-13271 13775 0
17864 -1587 0
8760 -9722 0
13416 21519 0
13533 -18171 0
-14463 -17433 0
19121 9379 0
19418 18604 0
10922 5466 0
-5411 -7898 0
1673 23639 0
1385 6517 0
22995 617 0
-19099 -17767 0
-18261 21480 0
-2265 -3206 0
14097 -11030 0
-2380 -14667 0
10421 18669 0
4433 19546 0
-6316 -17685 0
-1165 4120 0
-16090 -12643 0
-6629 -8089 0
-20815 10396 0
21986 10666 0
15640 -19260 0
5298 -9550 0
-13170 -13972 0
-11627 -19152 0
22633 3100 0
10370 -3264 0
19815 10352 0
18209 -8951 0
-10643 -23245 0
-19659 16759 0
-17530 -22404 0
-15608 15422 0
-2862 17186 0
-821 19052 0
-12680 -14486 0
20103 3344 0
-10253 20573 0
17114 15700 0
1648 10137 0
-14514 -8368 0
-12500 3257 0
20418 -11758 0
-3544 895 0
-1886 -3192 0
9030 -13015 0
10280 9701 0
2607 -15528 0
1709 2355 0
-9808 -8010 0
8602 -19566 0
1187 -21378 0
9701 948 0
13353 -16133 0
9080 -15558 0
-19663 13957 0
13753 21201 0
-20370 -8454 0
-18853 -11910 0
-16991 -7256 0
22622 2470 0
-13014 -18411 0
-14300 3864 0
17908 -12832 0
11235 -17855 0
-23402 10743 0
1642 16709 0
-6462 22183 0
16946 -19910 0
-8957 -18098 0
17512 5541 0
-17424 10022 0
20904 9598 0
-4164 -15409 0
-18033 -4749 0
-12864 7062 0
-1808 -21250 0
-11790 -10687 0
9166 -4388 0
12188 18610 0
21750 -18649 0
-17641 -15171 0
15167 -20221 0
7178 -16833 0
-6765 -8002 0
-2204 -7437 0
-19992 10691 0
-17623 2991 0
-17533 14762 0
-7300 6405 0
-3171 13586 0
-16733 10056 0
-19247 13143 0
23377 -8944 0
17043 21245 0
-5001 15607 0
22217 -12060 0
-16760 22255 0
5931 1518 0
20653 3217 0
22153 10417 0
-15707 13879 0
9119 -22554 0
-4444 3765 0
21659 -18897 0
-17346 5412 0
-2236 -9379 0
-5085 11440 0
1778 -13685 0
-14941 3766 0
-86 -2295 0
-705 7088 0
4553 -16700 0
12075 -8679 0
-16361 -1568 0
-11508 6436 0
19707 -16808 0
-10232 -2317 0
11440 14150 0
-10468 12894 0
20121 19250 0
22271 18607 0
12989 1674 0
-13166 21847 0
12769 23161 0
-8509 -21483 0
-22455 -15053 0
5032 -23277 0
-20055 16606 0
20086 16630 0
-19168 22038 0
-12342 -1257 0
-10592 10430 0
-6315 -16595 0
-9092 -14150 0
9016 21866 0
-1056 -6908 0
-13790 16193 0
-7332 -21447 0
-13802 6947 0
-331 -21149 0
-7232 13117 0
-10115 -1271 0
-18418 10645 0
3817 3818 0
-21106 12545 0
16477 8486 0
-6528 -23319 0
-15890 -6561 0
11984 -5280 0
-22758 -18861 0
-21215 -12335 0
15236 8694 0
-17427 -6564 0
5913 9899 0
23451 -12866 0
-9218 -10241 0
-20628 -6189 0
20329 -10432 0
-21520 -10963 0
6738 21300 0
-19703 -200 0
-9386 10436 0
6537 18101 0
-14964 6734 0
1442 -5405 0
-9809 12470 0
-16313 15382 0
19315 -15424 0
-1945 -494 0
-19770 -15075 0
23252 10534 0
14682 7755 0
21902 6103 0
8855 5760 0
23325 -563 0
18604 21355 0
-6584 -20549 0
-3173 5045 0
19463 2597 0
-14464 -22245 0
657 15298 0
3355 -11837 0
168 20831 0
13899 9325 0
22326 13094 0
609 3569 0
-12050 10279 0
-10336 -4805 0
-13879 -11776 0
14466 10413 0
-2726 -11480 0
5537 -1791 0
3403 -3784 0
18012 -2879 0
21863 1823 0
-566 -22280 0
-14529 14626 0
-4314 -7236 0
-19423 -10094 0
1548 7186 0
687 1034 0
19095 -13909 0
-11953 5022 0
10515 -4185 0
6084 -6706 0
16455 -10300 0
-17891 6457 0
-1893 -13203 0
4414 15520 0
-2868 -20567 0
-5475 9954 0
-2774 6567 0
-634 -9089 0
-11986 23594 0
22413 13105 0
-4958 -20486 0
202 -21440 0
-22359 -9229 0
12002 -4036 0
-2528 -15130 0
-14767 18465 0
-14708 -10100 0
-2920 -10318 0
9843 20644 0
13554 19848 0
-5702 -22735 0
-18507 -10485 0
20561 9906 0
1122 -1434 0
-11738 14888 0
-20865 718 0
8683 599 0
18470 -17564 0
-11106 -17032 0
19615 23446 0
16733 -12085 0
18449 2834 0
-9671 -5666 0
-483 10581 0
-1809 -10646 0
20960 11793 0
19719 5134 0
3252 -18897 0
23183 -21499 0
8649 1075 0
20806 -2626 0
-14855 -17652 0
-8895 -8637 0
738 -22116 0
-4357 -6904 0
4094 -15464 0
18745 19332 0
8330 5846 0
-14574 -18719 0
-9663 -3504 0
5608 16502 0
-3280 19720 0
-21013 13778 0
-13308 -1182 0
8762 18583 0
-1737 15538 0
-12312 632 0
6137 17033 0
-17143 -16145 0
6342 19306 0
-20993 10076 0
17832 10739 0
-627 12990 0
-5391 13705 0
14082 -7224 0
7546 -14421 0
-4105 13296 0
4302 -10986 0
-1300 6185 0
3716 -155 0
-1362 -2154 0
7725 21673 0
-12644 16535 0
-5169 -16840 0
-1510 -39 0
11267 16098 0
-6333 6007 0
-20893 10406 0
-9676 14332 0
10588 -13609 0
3418 15789 0
-14741 13394 0
-22145 -19654 0
2558 -23193 0
-19220 -1317 0
-6036 -3795 0
-18560 4340 0
20291 -2547 0
-14668 -21172 0
-6780 -4626 0
-14069 -19395 0
-23031 -13301 0
-16380 -15994 0
-20454 112 0
-1877 -11522 0
16934 9670 0
-17434 -2787 0
6977 18459 0
-11024 -9184 0
-851 3914 0
-7143 -137 0
2371 21138 0
19594 -21964 0
18161 13936 0
-1515 16707 0
12330 23332 0
-7300 8335 0
15037 -19941 0
-2623 -1799 0
10832 13729 0
16225 9872 0
3614 -12228 0
17307 18579 0
546 -17807 0
1065 9804 0
-4998 -16549 0
-8250 -12321 0
611 14346 0
-20231 -364 0
9428 -1238 0
4007 -10103 0
6792 -14618 0
7031 12707 0
-15244 -7879 0
-20386 9114 0
-1835 -7897 0
-1333 7000 0
-1967 -11879 0
-1565 -14085 0
14262 -6065 0
-17357 3848 0
11122 6727 0
-409 -1124 0
18008 3576 0
-7692 18910 0
3164 -21905 0
18438 19358 0
-16815 10097 0
505 -64 0
10298 16412 0
-7219 -14341 0
-4158 3798 0
-22591 11690 0
-22260 7517 0
-10149 6624 0
17376 20419 0
-10348 -9484 0
-19466 19743 0
7213 -13283 0
-18252 15256 0
-12756 -10090 0
23134 -13828 0
-10923 -15286 0
18016 -15540 0
-20565 -21887 0
-14939 16696 0
3830 -18715 0
-11633 15475 0
16969 -787 0
-11790 -6473 0
9635 -6052 0
-18358 20108 0
-320 6541 0
4906 -18018 0
-3901 12708 0
231 -10149 0
16248 5878 0
-20169 18053 0
-8257 3043 0
21067 18253 0
20025 -7129 0
23640 3725 0
-11982 21802 0
-17994 3435 0
10257 -12396 0
-22344 -18655 0
-748 21446 0
18094 -4214 0
-14184 19780 0
-4352 6318 0
-4558 9257 0
5654 -13551 0
-17742 3653 0
4545 -19125 0
15991 -6673 0
-19653 18351 0
-3425 20166 0
11565 10695 0
21085 -17033 0
16801 12763 0
-18167 -839 0
17922 13052 0
18476 -14834 0
7926 9354 0
1508 10377 0
550 -18724 0
-12513 -6403 0
20876 20674 0
-623 -2299 0
-23665 -9336 0
13513 12646 0
-5228 13144 0
-23628 10200 0
-11679 8697 0
12777 2432 0
-6978 4077 0
-3220 16961 0
20312 -6468 0
-22606 -14814 0
-12332 12181 0
22524 15435 0
2757 -777 0
13933 -18283 0
-10516 14087 0
-19675 -22115 0
-10354 21930 0
-7902 16336 0
-20313 -17878 0
-18572 -821 0
-9375 -16465 0
-19121 -22618 0
-5766 10614 0
18868 1711 0
-17030 13364 0
10079 20930 0
21784 1769 0
8426 -16186 0
-13921 5587 0
23173 4480 0
20940 8799 0
9583 18201 0
3661 -394 0
-14545 -5504 0
10211 -18702 0
-7761 7343 0
-10154 20602 0
-1353 16418 0
-22573 20309 0
1994 -11480 0
11181 20268 0
-2729 -18671 0
8732 -780 0
21033 23533 0
-8664 -14435 0
-18706 -10553 0
-7995 4453 0
22020 16701 0
-5096 -22198 0
-17338 -22178 0
-11625 23503 0
3559 -6035 0
973 10687 0
-8366 -15551 0
8019 -6614 0
5534 21088 0
-20354 9786 0
-6728 -11938 0
3702 16823 0
-23192 5532 0
-6838 5510 0
12253 -14392 0
8221 -2534 0
13072 -3966 0
6751 -21547 0
20079 4555 0
-10385 -1039 0
10764 11153 0
4720 15890 0
13807 23768 0
-5174 11224 0
14339 -18541 0
-20069 -21742 0
-21941 15773 0
16939 -23173 0
-10325 68 0
-5060 23369 0
-13828 -3851 0
-2749 -15541 0
965 -21343 0
13916 11310 0
3252 -5340 0
-5872 21953 0
1262 6690 0
-1687 18162 0
-467 -1098 0
-6861 -1745 0
8997 2736 0
-9233 -2354 0
-19785 -18586 0
-16699 7809 0
17565 -22553 0
-3503 -22290 0
-11300 -7219 0
-22489 163 0
16986 10173 0
15659 9954 0
15355 -6752 0
972 20483 0
-5575 4900 0
-9274 16190 0
-11985 -9261 0
36 686 0
5449 13312 0
-17346 -2131 0
-17848 8000 0
-3995 12364 0
-13670 -5874 0
8196 21661 0
-10966 -19650 0
4380 23166 0
-10489 17577 0
-10728 -14529 0
-6037 2558 0
321 11731 0
-3248 23305 0
-2797 -11220 0
-6280 -4620 0
-2362 6656 0
-21338 15786 0
9753 -17421 0
10706 21152 0
9367 19289 0
-5464 14803 0
-13736 -12663 0
3559 -5819 0
4652 -8614 0
-8336 -3756 0
-15819 -1431 0
-3715 -11496 0
16391 -17541 0
5203 -5761 0
22012 20801 0
15214 -11659 0
-5841 -7683 0
-7468 -4296 0
-4518 -23022 0
18132 8771 0
17577 -979 0
19216 7914 0
-17131 145 0
-4020 12505 0
4772 6341 0
-13736 5512 0
-17795 -3133 0
-23728 5907 0
21977 -2150 0
3439 12663 0
9405 15990 0
3289 -9710 0
-19714 -9098 0
7340 -21961 0
9782 2174 0
-21361 -1502 0
7767 -14034 0
-5492 22978 0
-6344 -13396 0
-20596 -13820 0
18574 13409 0
-346 5402 0
3812 -6845 0
3259 -3230 0
-18619 18165 0
15265 4387 0
3825 -3700 0
-6490 10341 0
7537 19969 0
-7903 -23738 0
9387 -11611 0
-17192 -22367 0
13749 -4295 0
-19182 3306 0
-17255 -7581 0
23267 -18209 0
2011 -15953 0
17952 -21539 0
-2811 22315 0
23166 -23251 0
2253 -17187 0
-8497 -15298 0
9524 -15413 0
11229 8867 0
-5770 -706 0
8934 -14861 0
9823 13503 0
20549 -23516 0
6560 2703 0
20832 -16705 0
14745 8220 0
6011 -7537 0
-16205 -14819 0
933 7775 0
-13012 20162 0
-4881 14958 0
969 -22966 0
11722 -11309 0
-23369 -12409 0
-12764 14799 0
12722 8680 0
23613 -18248 0
-17303 -14480 0
-13831 -18730 0
5448 10688 0
15994 -5847 0
14563 -10394 0
18881 -16574 0
20383 -16300 0
-22518 -2592 0
19637 15935 0
-4249 1433 0
-14954 -6500 0
14215 -15379 0
-8535 -14382 0
-16515 15733 0
22392 -2753 0
7918 10554 0
5928 7435 0
-6147 -23195 0
-9026 6763 0
-9849 -14698 0
-12164 19507 0
-10230 -8733 0
21108 11124 0
-3533 -962 0
5989 16110 0
13047 -9875 0
-2028 -16865 0
12796 -2081 0
19099 -12411 0
4885 -2304 0
-1796 -9634 0
6547 -5820 0
-11828 17116 0
4149 4371 0
23670 -19725 0
19918 8560 0
-7548 -13313 0
15286 17883 0
-835 -9604 0
-12094 -15125 0
-5755 -13332 0
12576 10564 0
14480 4072 0
11085 -21541 0
6052 21000 0
-15998 17183 0
10567 -22596 0
-9441 -4344 0
-23336 -4341 0
-15102 15486 0
-10005 -15233 0
23 4003 0
23579 -2714 0
-14119 17868 0
8118 3852 0
-10746 -13263 0
-19875 6805 0
23725 -5766 0
2040 19718 0
-5724 7079 0
-19277 8405 0
-19983 12599 0
-8651 6802 0
10302 10892 0
5055 5305 0
4887 2383 0
-19527 23060 0
-5084 -18952 0
10262 -3912 0
-9186 -20252 0
-14167 18040 0
3385 -13761 0
-19088 -22184 0
15651 -8395 0
-1263 -7883 0
14283 10889 0
21447 3998 0
-12096 -8699 0
-11355 8426 0
5344 8006 0
-11656 -5257 0
16733 -21349 0
7099 2520 0
14138 -9565 0
-20708 -20029 0
18095 -3784 0
7695 -4020 0
12831 12937 0
-3329 -8299 0
-4633 -11973 0
-2119 7641 0
21527 7971 0
-19900 12367 0
-10144 -558 0
-737 -15786 0
-9873 -2382 0
11486 -21714 0
12705 -3434 0
9047 -6047 0
14399 20242 0
-3646 -19624 0
-1743 23542 0
3657 14902 0
14127 8219 0
2859 -18986 0
23087 899 0
13778 4365 0
-18403 -1913 0
22350 11784 0
22515 21545 0
-23258 21114 0
-13232 18289 0
8025 1119 0
10778 -18113 0
7747 21547 0
-1235 -3459 0
-21648 13106 0
-14870 -12707 0
2374 -18136 0
-17070 -17588 0
3973 -21041 0
-6947 -12874 0
13637 -3636 0
8115 -18358 0
3461 18512 0
12458 4256 0
-13475 -13287 0
21558 -1064 0
360 -271 0
23307 -4773 0
-7778 20133 0
4727 14429 0
20076 6480 0
-22715 -20524 0
15792 -8066 0
23177 -13026 0
16446 8493 0
862 22265 0
-7141 -7544 0
12429 10477 0
855 -1504 0
18588 16399 0
-9844 4174 0
-5296 7785 0
-8669 14848 0
-19574 5606 0
16684 -18110 0
-3432 -5574 0
5466 -18512 0
-2045 -11850 0
12006 19205 0
-19219 1693 0
-13478 13777 0
11149 5399 0
-13428 -1061 0
5508 -12123 0
22365 -5183 0
-8100 -8571 0
18088 4042 0
11279 22899 0
7767 -7963 0
-534 11736 0
5464 -16607 0
11485 6036 0
-4082 -11139 0
15537 12934 0
-1325 -21966 0
10345 -4101 0
16287 -22884 0
-2915 10113 0
-14036 23549 0
9600 -18636 0
-317 -12118 0
16974 1075 0
-3230 5110 0
23102 -9012 0
-9311 23702 0
11205 14413 0
-16919 6113 0
-87 -11520 0
11313 -21657 0
6398 19632 0
17765 -6949 0
23044 -7132 0
-11069 -12717 0
-5899 -16672 0
-16970 -12120 0
-17989 4993 0
-7088 4298 0
13174 -13361 0
6902 -1873 0
21501 12681 0
20513 -10087 0
-10774 11542 0
-16595 -5472 0
-16672 10348 0
-5393 -4726 0
-18624 16704 0
1126 -234 0
5980 -16057 0
-14644 17373 0
-11256 22690 0
-6272 -11881 0
17806 -10187 0
-12298 9200 0
-18800 -20811 0
-2664 -1915 0
2994 -5996 0
-11943 8007 0
-961 15631 0
-20802 -7405 0
22443 1767 0
-8435 -2550 0
-23567 1588 0
8656 -6471 0
-19180 7337 0
21847 13722 0
2874 7325 0
1175 6384 0
-9828 -22702 0
-6769 15225 0
-12497 -9823 0
-11091 -5231 0
-16307 -2072 0
-1753 -2961 0
-17725 -10440 0
18857 -18033 0
20930 261 0
9889 1792 0
-22111 3055 0
-23750 -22596 0
929 8566 0
-822 -17925 0
7119 16931 0
20756 -20103 0
554 -18442 0
-23655 6841 0
4503 -13213 0
-9938 14901 0
19572 9627 0
19133 -7571 0
21020 -988 0
19519 -22428 0
-21908 -519 0
-20156 18714 0
95 22123 0
-151 10042 0
7616 -1692 0
-6178 14766 0
-10707 -21857 0
15054 13964 0
23780 -4912 0
-6851 23454 0
16046 -2162 0
-1110 15945 0
3397 14065 0
-1779 17021 0
-14280 -13037 0
10930 2743 0
-15737 -22968 0
3447 -18238 0
-21217 -16187 0
5847 10925 0
-19946 -10735 0
-17221 -4643 0
20881 -17662 0
6007 975 0
3625 14430 0
503 15314 0
12999 -3325 0
-8698 18356 0
-1811 22562 0
9227 3189 0
8045 -13133 0
-15124 -13104 0
19087 -20595 0
-12329 -12009 0
-22878 21843 0
-7968 18125 0
-22240 14428 0
-2857 13093 0
16244 -13487 0
-7827 -5781 0
13808 7091 0
-14661 20370 0
-11433 -21979 0
-18872 21136 0
7703 -20093 0
10783 7962 0
-3514 5163 0
-1571 -23781 0
-15371 -6573 0
65 13674 0
-5856 1953 0
-11335 12949 0
3112 -21129 0
2353 19635 0
-16025 779 0
23088 20372 0
-6051 10381 0
-20692 4484 0
-4434 -17878 0
8104 5059 0
-7797 23582 0
-11961 -6987 0
-19598 9864 0
23534 -4093 0
1910 23152 0
-14816 2602 0
11627 -7522 0
-8907 7819 0
-2110 -13623 0
1791 20782 0
-4088 -17640 0
19578 686 0
-5032 7997 0
12890 16370 0
-4775 -18965 0
21337 4346 0
8675 19522 0
-20138 -1796 0
-1387 -378 0
18510 16770 0
-19836 5490 0
12945 -6769 0
11098 18057 0
-4370 -10629 0
-22912 -1887 0
4514 -5054 0
2980 -22447 0
-20278 -9310 0
14967 -14109 0
18116 -17737 0
-1522 -7579 0
9982 3333 0
-4377 -19697 0
-20919 272 0
18736 13692 0
-970 -18866 0
-93 -18060 0
-18778 11784 0
-17099 -20370 0
-1662 9328 0
16669 15384 0
-20997 928 0
15012 6364 0
6106 -10011 0
9696 -10131 0
21168 -7898 0
3277 17298 0
-5073 13246 0
22984 -9774 0
8171 -6128 0
-19454 -17975 0
11027 -20249 0
9911 1080 0
-5361 4391 0
23334 -6972 0
-7179 -14290 0
-10829 12324 0
10160 7997 0
-8282 12954 0
11575 -11036 0
-14313 5071 0
18543 18383 0
-16538 20793 0
5665 23671 0
-17372 -4426 0
-5485 17350 0
-8064 10699 0
11823 -22607 0
-20956 18223 0
-8095 20616 0
-10288 -3961 0
-3764 12604 0
7400 -9191 0
-7076 2064 0
21186 -19604 0
3571 15329 0
-2313 -19305 0
-15433 13429 0
13760 -5287 0
4052 9679 0
-17660 -17527 0
-22944 1090 0
-10861 1164 0
17455 -4169 0
-15555 -3982 0
10548 -15917 0
17676 -17403 0
-6412 -4096 0
-18867 -22239 0
2983 -2546 0
-13666 6586 0
-7586 -21988 0
8310 -5360 0
-4904 -7636 0
-17353 -7450 0
-8240 -20875 0
-4927 -18846 0
-22053 472 0
-4171 790 0
-17608 -13294 0
16659 23244 0
19846 -3723 0
-7990 -11958 0
-11518 7114 0
-19350 -13570 0
7455 -11570 0
715 -13457 0
23423 19708 0
6464 -5917 0
-9808 15887 0
-7078 -23470 0
11922 17672 0
5629 -11180 0
-320 10135 0
10788 13448 0
23603 -14058 0
7266 19133 0
6427 12382 0
-430 -16221 0
8739 21547 0
352 8649 0
8983 -6216 0
-6487 15914 0
18564 21275 0
20201 -17413 0
20365 -1137 0
3167 8704 0
-20623 -22393 0
-17761 -16245 0
12117 -14470 0
20528 5656 0
-18937 9689 0
16843 19800 0
-3371 9135 0
-778 13412 0
-2378 -1753 0
-532 10248 0
4941 -12305 0
-11100 21553 0
-19248 11579 0
4032 3916 0
18470 -17354 0
-18095 3796 0
3528 12272 0
7671 -10947 0
-22715 -3052 0
-8404 -3197 0
13766 -10870 0
-8976 -17776 0
19479 13978 0
11610 -5224 0
9106 -4408 0
15139 -11696 0
-15264 13590 0
5935 3877 0
986 2067 0
-6037 -4419 0
-11626 10878 0
20399 8738 0
6174 -6520 0
491 -20401 0
2361 20537 0
-16411 717 0
-15578 23239 0
-1957 5255 0
12272 -7762 0
13319 6700 0
-5654 20013 0
-6437 10277 0
18389 11723 0
-16798 -16441 0
-6480 -21556 0
2102 -20787 0
17815 -7524 0
-5531 -11434 0
10595 -1731 0
-15808 14359 0
-3562 -406 0
23726 -19459 0
22322 9821 0
-18852 7634 0
21029 7923 0
6003 8998 0
-9367 9611 0
-16867 -10516 0
-20346 -12900 0
-10215 -209 0
-3245 -10051 0
-8213 7996 0
-6190 923 0
3686 7279 0
-20370 6056 0
14404 -14982 0
-90 -1720 0
11986 8607 0
-16087 22711 0
19173 -15415 0
-19472 19220 0
2451 -9680 0
18832 -11985 0
-17297 7545 0
8115 2943 0
18157 -18015 0
11515 19041 0
8349 -1554 0
5959 4157 0
-15073 -23098 0
1351 -2787 0
-21365 -1659 0
-3541 -15069 0
4591 -20833 0
11639 -20575 0
-19616 -14262 0
18651 12962 0
18994 9089 0
-3049 15472 0
22662 -4399 0
11590 -19050 0
22647 -5994 0
-23364 -23400 0
21635 -17943 0
11937 -22818 0
-6070 -16549 0
-10035 15476 0
-13106 -21694 0
-16836 4146 0
21723 8910 0
-6067 12407 0
-13260 21149 0
23730 -22635 0
15888 22050 0
13699 23738 0
-7554 -12161 0
11754 -1317 0
11924 -14052 0
16775 1612 0
949 3520 0
6891 17332 0
-689 -4433 0
18886 -21794 0
-9635 13129 0
16177 -21361 0
15894 -901 0
22059 3059 0
9609 -906 0
-14672 -11374 0
3666 -209 0
19465 -1373 0
20828 23273 0
8020 -15535 0
4586 -10019 0
22576 16990 0
13494 -16002 0
6006 462 0
10390 23114 0
5845 23726 0
-8219 -23089 0
-11804 323 0
10541 15727 0
7039 6215 0
-2729 22990 0
-12592 -6761 0
4693 13604 0
-536 8527 0
21387 -20122 0
-11547 11000 0
-12475 -12387 0
22966 10318 0
3959 4652 0
17336 -10438 0
-16563 -23236 0
-15413 -17377 0
11971 -4037 0
-21772 20896 0
-22406 10893 0
-20090 12381 0
22253 9678 0
22952 4373 0
11316 240 0
-11917 2111 0
-4282 18216 0
2540 -2783 0
22692 -23093 0
-14721 -14609 0
-10508 21035 0
10088 13056 0
18036 23101 0
-17188 -1548 0
-3024 -17879 0
13340 -9218 0
20050 -3318 0
5008 3336 0
16474 10882 0
-10757 12602 0
-1502 -21495 0
7843 8738 0
-20254 22901 0
-15291 686 0
19014 190 0
12664 10939 0
19162 15539 0
2365 21901 0
16416 8612 0
-7369 13759 0
9443 1279 0
14852 17671 0
-545 -416 0
-189 1090 0
-11707 -15717 0
4970 -17502 0
-12340 -4519 0
19571 15124 0
-14675 -14975 0
17749 13961 0
-17542 9128 0
-7272 -14533 0
18806 14860 0
-5563 -4566 0
-7814 -6623 0
-18440 11125 0
16692 13425 0
10383 12293 0
1681 -14712 0
-170 -8895 0
-1395 -21218 0
-15647 -22040 0
5124 12758 0
4107 -23058 0
-13409 -23209 0
12975 3776 0
-22165 14482 0
-1653 -1775 0
12884 22689 0
-17603 -12198 0
13156 -21212 0
248 -5930 0
-11906 -7368 0
-19542 10392 0
761 9494 0
20277 8351 0
242 -1237 0
-19029 12253 0
-5524 7671 0
1769 17250 0
-11536 21412 0
-11429 -9616 0
-9386 21519 0
19871 8797 0
15698 8884 0
-20518 -8303 0
14179 -4603 0
19569 -4895 0
3690 -5107 0
-15981 20106 0
-21566 7103 0
-8417 21184 0
18206 4220 0
15051 13126 0
12964 11661 0
20613 1284 0
-9241 -18905 0
20670 -22126 0
-6896 18799 0
-11440 -21507 0
7258 16683 0
16471 14107 0
23040 19058 0
22540 -14755 0
-14939 -16083 0
6980 -16415 0
-10742 14712 0
9503 5189 0
-987 -23447 0
-18774 -7358 0
-739 -10474 0
-15931 -7542 0
14704 -23257 0
-3536 14894 0
10458 13619 0
-21438 -14923 0
-6180 11024 0
-5293 14626 0
-17993 -1918 0
8353 15411 0
-22407 19046 0
-4451 -16181 0
6393 6464 0
14987 -10369 0
13680 3515 0
8486 6872 0
20917 16950 0
-5695 -11315 0
-12223 12890 0
5389 -6035 0
-1575 22121 0
-1372 14406 0
-23218 -10994 0
-10880 11511 0
23157 -16012 0
-23329 -4913 0
-5876 -9295 0
18792 -19079 0
-11329 9840 0
-9852 -7529 0
-13027 -21468 0
1625 13666 0
-18391 -13342 0
-3360 21802 0
-4388 -22501 0
639 2654 0
-607 -2263 0
11204 6 0
9804 -21147 0
22562 -7285 0
18161 10661 0
8356 15253 0
-15159 -15028 0
-6584 -1917 0
-18187 -18288 0
22729 14904 0
-3340 6161 0
12036 -13948 0
14363 -9382 0
-13972 -14458 0
-3830 -11105 0
-12426 15099 0
5007 408 0
-2883 -5707 0
-2943 6732 0
3218 -16890 0
-10243 -7049 0
-13535 13101 0
21434 505 0
7659 12603 0
19524 18425 0
-2575 -1472 0
14859 1810 0
1777 -8673 0
12089 12428 0
-22391 -8109 0
13292 -1950 0
692 2778 0
20798 6004 0
-22915 22662 0
19397 -7072 0
-16495 -7438 0
1019 12216 0
-15299 -82 0
-10612 4729 0
23164 -1258 0
169 -13717 0
-3809 13571 0
-22191 13431 0
2183 -10518 0
23168 8270 0
22921 20172 0
9347 -12700 0
4556 -9726 0
-8245 -11778 0
-6055 -14293 0
-9266 23551 0
-7423 -20632 0
-19432 22135 0
-8320 -8417 0
-2377 -10707 0
22176 -6589 0
16452 -5101 0
14675 -4110 0
1938 7599 0
11623 976 0
-10063 8384 0
6908 2746 0
6399 -17318 0
-20962 9367 0
-4128 7309 0
-4898 -22927 0
-6638 5177 0
17617 12914 0
21810 -17353 0
20884 16672 0
-19628 -15063 0
22046 17151 0
6156 -9602 0
-15686 12004 0
3547 3874 0
-2229 21289 0
-22508 1728 0
1760 18224 0
-6881 -19932 0
-18027 -5480 0
-5875 5714 0
-22503 19205 0
-3716 7392 0
-22439 -9942 0
-20069 -16803 0
-3302 -16093 0
12381 10223 0
-5048 23097 0
8189 22675 0
-3510 -186 0
-3901 -3911 0
-15707 15849 0
-4800 14010 0
-14404 21620 0
-9863 1987 0
23726 3461 0
-13006 2737 0
-13382 9184 0
8928 -22840 0
-2215 -17265 0
7675 -16614 0
-18937 -15928 0
-14067 74 0
16992 -3022 0
14644 6966 0
-4652 10539 0
2747 22101 0
13211 -14650 0
21986 18806 0
7244 -18998 0
19322 -14287 0
-8097 3082 0
11825 3118 0
2070 3725 0
11993 -7184 0
15564 -15860 0
-6508 856 0
-12019 16872 0
17392 9095 0
12646 -16771 0
9323 -16625 0
-6259 -22387 0
-2163 508 0
-16879 8408 0
-816 11477 0
17982 -21722 0
-17043 -7740 0
5905 -11788 0
10767 -6543 0
-3380 15364 0
8645 -17955 0
-4491 17038 0
-5176 -15392 0
-8345 -7857 0
-1106 -6541 0
21720 985 0
18171 23495 0
-17953 -3436 0
18784 13358 0
21336 -3920 0
5863 22417 0
11974 16265 0
-9372 21335 0
-15842 4448 0
3405 13419 0
-8265 -20673 0
5079 -5359 0
-9479 897 0
4335 15966 0
13305 9667 0
-11600 -3549 0
-18674 1614 0
12104 -15971 0
-5621 -16003 0
-4942 -15800 0
-21831 -2033 0
-22709 -17357 0
-18445 -19615 0
15680 -22583 0
-4001 -681 0
22602 -17578 0
-20818 -9463 0
-19669 -1883 0
22372 22108 0
11963 -4178 0
4793 -14834 0
-12209 9752 0
12323 -10492 0
10586 5552 0
14503 -8843 0
-7849 15687 0
5288 12490 0
2033 11442 0
10431 -4900 0
8958 -5451 0
-19902 7986 0
20695 -10348 0
5074 -340 0
21787 13585 0
-6732 -16739 0
-7849 -4950 0
5709 7651 0
-1156 19517 0
-996 -932 0
-12867 -10714 0
-10735 9737 0
21539 5894 0
22440 -7741 0
-23554 6367 0
-16198 -15833 0
4319 -11238 0
-6335 -19091 0
-11543 -17187 0
-18116 -20886 0
-12696 -4560 0
2233 5837 0
20847 -14404 0
-19852 -4216 0
-3142 21896 0
11979 -13544 0
-15915 12884 0
21686 -675 0
-19682 16725 0
-19075 301 0
15945 19552 0
-14140 -19229 0
-8853 -6512 0
10360 -125 0
4780 -791 0
23539 13403 0
3163 7121 0
11013 1459 0
20487 1398 0
8384 19720 0
-15819 -8046 0
5231 3688 0
5763 9145 0
-21536 8593 0
1217 8265 0
2252 -16270 0
-20872 11830 0
-21075 13763 0
18012 8974 0
-6605 -20827 0
15986 -10408 0
14775 -6344 0
4007 -18845 0
-15866 19419 0
6819 12360 0
13444 16741 0
-18658 -21911 0
-9776 12201 0
-13148 -312 0
-10816 12865 0
15058 -14717 0
1682 20906 0
5018 -925 0
-18585 1548 0
-4850 -11991 0
13506 2396 0
6637 -17166 0
-18264 -14683 0
-12884 21822 0
6611 -19504 0
-17414 3277 0
3479 -15074 0
-799 11432 0
-9528 18496 0
16287 -10982 0
-17540 18235 0
-2057 11671 0
18650 18703 0
-5531 -23169 0
-17285 13403 0
15146 4300 0
13799 -5048 0
-2158 -18270 0
-13437 21157 0
12011 16442 0
20260 15068 0
20146 16499 0
-13069 5542 0
-11347 13103 0
17357 -3122 0
19806 -23134 0
6693 -1539 0
1818 3625 0
11306 21801 0
-22107 -2570 0
9720 5146 0
-19589 7631 0
14796 13028 0
-7612 -13052 0
-21630 -1579 0
-23317 -21608 0
-12537 -3493 0
8849 -23785 0
-4456 -17095 0
-11591 -2159 0
23146 14650 0
17756 -15596 0
13282 -12944 0
-4571 -17385 0
9056 -6769 0
14100 11558 0
1158 16823 0
-18921 18862 0
16158 4900 0
-22441 -7207 0
-5288 -2834 0
-20773 11272 0
19577 -4068 0
16106 -7496 0
-20712 14806 0
14238 -23789 0
12460 12278 0
-6293 12246 0
-11229 -7646 0
-22209 6582 0
4183 8776 0
-20856 -13352 0
-3839 21478 0
-11079 2438 0
21277 -2474 0
-14899 -7205 0
13182 15236 0
-15347 16667 0
10858 -12717 0
3379 19998 0
17646 1752 0
-10349 15313 0
-23771 19363 0
12166 9258 0
602 1883 0
14874 18429 0
11197 18716 0
5552 16737 0
-2506 293 0
1725 3308 0
-618 -23538 0
20172 -2493 0
-4518 -14419 0
1751 9106 0
-16529 -5629 0
-13406 -14085 0
-16664 -83 0
9288 -17701 0
4132 9366 0
-23568 16417 0
-9917 -5834 0
-12767 15095 0
22479 -3705 0
22415 -176 0
15959 -15973 0
1823 21047 0
-416 18147 0
-2934 6817 0
-22352 9659 0
19547 23171 0
6394 2342 0
-12413 -2904 0
2999 -19339 0
-17967 -15574 0
-7303 -426 0
6736 17729 0
-17389 -11474 0
21578 10228 0
-7294 -20804 0
-16625 -2995 0
17667 -3637 0
-313 -10693 0
-7239 8356 0
-2766 1208 0
-22102 -16637 0
-194 -19604 0
-11894 21589 0
14351 5332 0
-18160 -175 0
22603 -16286 0
-1016 12238 0
-22831 11152 0
-10115 -10884 0
6158 2671 0
-7794 -5265 0
21852 13941 0
19438 -11995 0
-20333 -15574 0
12392 -5359 0
-11086 4647 0
10486 -14381 0
22654 -12176 0
-18502 -7504 0
15261 21427 0
22313 -11481 0
6572 20332 0
799 11830 0
-13808 20256 0
-8524 -10990 0
12186 18078 0
23551 -3851 0
-22501 464 0
-12014 19972 0
7750 -17128 0
1859 21102 0
-456 526 0
2672 18836 0
14374 12273 0
14302 -20582 0
7966 -2116 0
-3935 -22185 0
-2796 -4125 0
-11201 17369 0
12723 9625 0
-17916 15921 0
-6329 -20653 0
-14381 22572 0
16601 -8485 0
-5342 -10716 0
14798 -3773 0
3907 -16293 0
-5603 13228 0
-6999 -19344 0
-16753 -3051 0
-11576 -4413 0
-6717 23267 0
8868 -22398 0
-17081 7609 0
-1371 -646 0
21674 3826 0
-11795 13208 0
-7539 -23741 0
1368 -6054 0
-8407 -19575 0
5519 -17714 0
-16227 8775 0
21391 6056 0
-2726 -3889 0
-10635 -18229 0
-4834 21284 0
15435 8238 0
-11489 -16397 0
10280 13151 0
-1866 -437 0
-11364 -1576 0
-16991 -20867 0
-3891 2398 0
23688 -1273 0
17740 -2547 0
-11902 7086 0
15706 3301 0
1250 20906 0
-20182 12622 0
-1062 -14146 0
14368 15194 0
9580 17385 0
4038 16997 0
3314 -8045 0
-15830 -15371 0
13084 -20853 0
16529 -6384 0
20905 -19292 0
8634 17903 0
15472 -7198 0
4878 -11664 0
801 19167 0
-8839 13293 0
18627 23524 0
-2255 20415 0
15110 -22198 0
-10338 -22002 0
-22143 -19604 0
6032 23555 0
-15120 -16743 0
-2106 -20499 0
-12695 13830 0
19639 9272 0
16108 -14215 0
1919 -11507 0
-17942 -13661 0
-23394 17547 0
11848 7805 0
-1777 -1088 0
16362 17779 0
18046 12279 0
12932 -15696 0
2195 9499 0
7127 -5631 0
-16395 -3013 0
588 24 0
12391 16416 0
-13490 -32 0
17671 -11536 0
976 21032 0
12720 -6892 0
3197 19772 0
-1576 -4775 0
4777 8573 0
7135 16777 0
-4423 -6934 0
-1636 3958 0
13419 15952 0
-16266 -14274 0
-6663 -14320 0
19704 20480 0
-21921 7683 0
-21141 10739 0
-17330 -4261 0
11074 13181 0
-6212 23086 0
15618 4699 0
-20684 18998 0
-2979 -19499 0
-1830 9536 0
-17034 -9723 0
11299 19087 0
-15228 -2367 0
-7095 -12541 0
6600 3352 0
18922 -4798 0
-12047 -10816 0
9936 22561 0
7486 1768 0
962 19604 0
-8465 22544 0
-13316 -747 0
-3323 15423 0
-19773 -23139 0
17635 19758 0
16297 -17165 0
8184 -22656 0
-2711 -19976 0
-9353 -6603 0
14366 -14559 0
-4948 -15132 0
15124 -19300 0
6452 -201 0
-4410 14089 0
-20323 1791 0
-1910 5935 0
18528 -18161 0
21058 -23715 0
-9394 -17290 0
-21298 -3579 0
7538 12236 0
14503 21942 0
-5198 -3986 0
13815 13677 0
-20614 -4075 0
5318 -12030 0
20743 9154 0
-19756 4904 0
16555 10969 0
2655 22839 0
-3173 12765 0
15042 6211 0
-23563 -13526 0
14824 9224 0
-18589 -2176 0
22247 -13552 0
15370 16184 0
-11924 9585 0
633 -3346 0
15448 -4527 0
23268 18272 0
9183 5243 0
-12526 19365 0
-12846 19953 0
-365 -18639 0
-5504 -9707 0
-12400 -2250 0
6838 10231 0
-8569 -9785 0
-6441 21661 0
-584 12202 0
-21512 21702 0
-13529 8139 0
9286 21742 0
8083 6627 0
22654 8986 0
-14320 -6774 0
-23198 4709 0
-2571 -3596 0
2102 12650 0
-19941 -6574 0
-17613 14845 0
16081 -16824 0
8228 -2190 0
-9769 20321 0
-20640 14573 0
15101 -179 0
14382 4338 0
-17629 -11362 0
-738 8121 0
19917 -10791 0
9011 -2525 0
1116 -12971 0
-4956 -9639 0
-14549 -16012 0
950 7544 0
-10253 -8510 0
285 -213 0
-2013 -11241 0
5977 -18919 0
-15867 -5803 0
-548 19827 0
-423 5901 0
-12318 7027 0
14375 -17989 0
4832 -17742 0
9064 8476 0
18096 12575 0
-6852 -19251 0
7348 -6112 0
1773 -6798 0
-7847 379 0
-11607 -4132 0
-16903 -8636 0
9691 7636 0
21388 15328 0
-2714 -14347 0
848 17448 0
-23710 12378 0
12004 -10856 0
8026 -12843 0
-20227 -4567 0
17072 -19730 0
-10308 -20608 0
-9058 -508 0
21299 5670 0
21268 -14360 0
23322 -8647 0
1912 -13472 0
1367 6879 0
-17222 -17775 0
19581 -2967 0
3290 -2433 0
18955 2979 0
19810 -6361 0
20206 6438 0
14971 18895 0
13750 9647 0
-7431 13338 0
-4305 -9530 0
-1544 8077 0
-6391 21269 0
-14796 11405 0
-11658 -18775 0
714 -7877 0
10480 10800 0
20149 -23109 0
20943 16206 0
-13445 -18295 0
17796 22432 0
7999 -22297 0
18628 -3323 0
23398 7950 0
-15920 15986 0
1479 3343 0
998 20729 0
6856 7411 0
14893 11059 0
19250 -21437 0
-17530 14918 0
-21276 16276 0
14283 8993 0
-9979 1348 0
9982 -21427 0
19463 8988 0
21488 -12326 0
-6893 -12109 0
-13824 -4909 0
-18704 7564 0
11468 11963 0
6965 15201 0
-10699 -2546 0
15053 -18113 0
-22520 1355 0
-10500 15218 0
7613 -21879 0
-16672 -8140 0
-9890 9978 0
10658 20807 0
10134 -15894 0
11162 -8170 0
-2817 -10431 0
453 7498 0
-20677 11249 0
9062 1414 0
-20433 -11529 0
15271 20242 0
-7604 -22387 0
2337 13724 0
-8891 -13972 0
17464 -12414 0
8167 11975 0
-23675 6129 0
19235 -6888 0
-5033 8480 0
1555 -13707 0
-6618 4418 0
-18186 18463 0
23203 14002 0
7162 11049 0
22348 -2048 0
-22431 -19999 0
-21695 -23494 0
7942 10223 0
-19677 -12271 0
20065 22449 0
8946 -3409 0
12597 12993 0
6533 -15152 0
8085 -23109 0
-3199 21762 0
8719 23006 0
-7653 -17470 0
11922 -13630 0
647 21174 0
1918 91 0
4258 -3237 0
10764 -13775 0
8660 15499 0
-1944 18241 0
19054 20775 0
-3784 -1681 0
2002 3349 0
21380 9410 0
-8509 12637 0
-4107 23221 0
679 4271 0
15165 197 0
-17365 3385 0
1612 20624 0
585 19688 0
-13450 -16399 0
7634 -7538 0
2393 1294 0
14550 -9511 0
9295 7787 0
-4935 22324 0
18821 22030 0
21772 -15729 0
-6213 17724 0
9320 2713 0
20024 18186 0
156 -11404 0
3906 -13953 0
-3872 -18841 0
15081 22947 0
5767 7664 0
-14171 4269 0
-19866 9395 0
6144 23511 0
-11641 830 0
9906 8765 0
14249 6334 0
-4593 10667 0
23253 -3938 0
20862 -18767 0
23395 -14691 0
23075 -19717 0
-10249 -3398 0
16043 -12152 0
-15569 17899 0
2724 -23457 0
-20460 -9418 0
18601 -9158 0
-4178 5392 0
13258 -8686 0
4300 -6866 0
3954 10976 0
-22709 21427 0
1180 -4147 0
-3052 19102 0
13785 17403 0
17837 13738 0
-567 -13590 0
-11640 -8288 0
1872 -10329 0
4227 14647 0
-6521 1241 0
5310 9744 0
6922 15942 0
-21005 17083 0
15133 15714 0
-10268 22357 0
-21479 15402 0
16269 11515 0
8434 20163 0
1348 -4508 0
8550 -20933 0
21990 -8795 0
-15859 -8700 0
12559 21171 0
1303 20348 0
-4662 -5802 0
17461 -12726 0
-20926 9744 0
-9153 23401 0
-23595 2368 0
-23440 -19515 0
-21697 -16593 0
-1847 6922 0
23012 15093 0
-13635 -10954 0
-21198 -9666 0
18777 2833 0
2964 -19228 0
-12595 9349 0
-1916 2120 0
-9996 13278 0
17556 16956 0
-2732 9985 0
11608 11062 0
6713 -7341 0
-8028 -12129 0
4212 -3375 0
13738 7931 0
14281 3896 0
7276 -19103 0
6780 -13369 0
13724 15392 0
-263 -6728 0
-1723 -15061 0
-6673 8707 0
-23665 -20484 0
16904 -912 0
-12152 12476 0
-8660 -23681 0
-22181 8850 0
10275 17777 0
-22928 -7401 0
6355 22317 0
2923 -17051 0
18417 -9589 0
15457 -20407 0
-7312 8811 0
-665 18004 0
19422 -13841 0
-18539 -20822 0
10911 5800 0
3913 10115 0
7313 15093 0
11890 -17545 0
6358 -14153 0
23191 6015 0
16493 -7361 0
23162 20627 0
-2365 -8761 0
8239 -19222 0
21025 9106 0
-14396 -8698 0
-13651 11600 0
23131 -3050 0
19980 4541 0
7054 16521 0
6946 8948 0
5178 639 0
13984 16604 0
661 17663 0
17362 -21003 0
-6622 -10366 0
2200 11637 0
-22281 -22015 0
12535 -20493 0
-2886 -18462 0
-20234 13943 0
18175 -1515 0
-15222 -2967 0
23576 -13275 0
-17024 5271 0
21949 -3583 0
-6603 -8001 0
-21079 4469 0
4477 -4702 0
19691 2208 0
-8139 1126 0
22083 6743 0
10288 -2182 0
4211 -11393 0
13108 -2558 0
1361 -14627 0
-10686 2096 0
15639 7641 0
15972 20988 0
-16047 8790 0
-15884 -17463 0
-19467 20796 0
-8193 -5701 0
-16819 9415 0
1612 -9157 0
-11241 324 0
-17207 -14336 0
-18799 20657 0
15653 6014 0
-17301 -17338 0
12720 1545 0
-11784 13362 0
11939 20311 0
-18256 -20181 0
12337 16072 0
14772 -7034 0
-5469 13724 0
9200 19157 0
-2179 9716 0
23573 12218 0
-15674 -12328 0
-21556 22262 0
815 -13153 0
880 -170 0
1387 6551 0
21385 -2277 0
-9070 -8385 0
18094 -20288 0
-8582 17597 0
-21791 -1032 0
18156 10257 0
-10679 12914 0
-21458 23731 0
-16396 2070 0
22041 1551 0
-6264 -14207 0
16158 -11715 0
-5332 -17335 0
-13465 14163 0
6133 2795 0
7066 -23687 0
13320 8295 0
-4439 3943 0
-13387 -23325 0
9078 1303 0
16519 -4888 0
7632 -19053 0
-8484 -19252 0
-18433 12219 0
10563 10003 0
-1686 15172 0
-14750 5369 0
10615 557 0
21028 4398 0
12528 -666 0
16330 -22768 0
-13387 12368 0
5887 15043 0
-8685 -3641 0
3366 -6897 0
7498 9109 0
22928 -20307 0
568 -1211 0
23029 6747 0
13531 22135 0
-8777 -15275 0
19072 12085 0
-8698 -9247 0
14885 16871 0
2345 -3327 0
23582 3188 0
-10831 2438 0
-2691 -12621 0
-21806 -11474 0
16905 11121 0
3567 -378 0
-17541 -4776 0
-6939 -5216 0
10897 -12994 0
-12887 -1198 0
-15155 17579 0
6361 13001 0
23309 2697 0
9002 1373 0
-4665 13534 0
811 19626 0
-15635 12628 0
20691 2345 0
16769 -20024 0
-3179 -4646 0
15816 2250 0
-4182 -11349 0
-4378 -387 0
-18815 14769 0
-9023 14845 0
14512 -3282 0
-8132 -17062 0
12454 -18382 0
-20658 -15186 0
-16277 -17102 0
-6489 4839 0
-16038 22348 0
12278 -17983 0
-10469 2995 0
-2127 -3446 0
8787 11677 0
-3020 17770 0
9690 13883 0
-7907 21739 0
20258 -7539 0
15231 -8988 0
-858 -17182 0
15479 -2814 0
10306 -2309 0
-2647 -11936 0
13573 -379 0
-4181 -4625 0
-5224 3609 0
-946 11731 0
1290 2221 0
11727 19484 0
20552 6024 0
9727 3257 0
-4233 4740 0
-18742 -23756 0
-18512 10872 0
22000 -11159 0
-23428 -7142 0
-5994 22174 0
5063 -23473 0
23035 8593 0
-9525 -23450 0
9150 22905 0
-1928 -13730 0
14202 11670 0
-22617 22740 0
-4569 492 0
18862 7025 0
12980 -1076 0
13547 -4309 0
3962 -23292 0
8519 -7791 0
290 16047 0
5892 709 0
23708 2713 0
-1290 11228 0
-23691 -20279 0
20270 -5650 0
19366 -15603 0
-6519 17488 0
20265 -10230 0
18509 20755 0
-3960 7579 0
5494 10060 0
-11961 18783 0
8100 -7338 0
-4781 1655 0
9060 -16880 0
-1331 -8655 0
19173 -22439 0
19957 17590 0
-15408 -9332 0
19940 1002 0
23650 7060 0
-11099 -5465 0
17371 -1610 0
-14952 16616 0
-1486 1037 0
11649 83 0
16978 -10944 0
16963 15906 0
-740 -13237 0
-5791 -13337 0
-13428 9867 0
18902 20039 0
9515 -1219 0
-15041 1217 0
-16780 2744 0
11255 12455 0
-15491 10979 0
19019 -4537 0
-13769 1233 0
15301 19383 0
-21504 -10365 0
446 4966 0
14671 -19401 0
-16711 -5971 0
21785 -12379 0
933 13009 0
-195 16469 0
18735 -8054 0
7759 -16276 0
11745 -8828 0
19314 -4734 0
907 -1799 0
20900 5395 0
-22973 220 0
14227 262 0
7951 18960 0
17748 -15670 0
-23586 10825 0
-7495 -20428 0
-17573 15435 0
-22568 3891 0
-21723 18163 0
-1973 1355 0
-10499 -4473 0
-2690 8174 0
-14475 10447 0
-14062 -14287 0
1112 16165 0
-13416 293 0
-11115 -15843 0
8280 -19674 0
18998 19625 0
-14267 816 0
5647 13695 0
-18185 -17305 0
2877 -18166 0
-10137 2033 0
-7934 22205 0
-483 23676 0
-7019 -5844 0
2767 15862 0
3236 287 0
19945 -9073 0
6757 -11414 0
-17103 -13982 0
-9919 5305 0
3261 -7748 0
21281 17364 0
-3876 -1170 0
104 17739 0
-2094 15346 0
-9722 -12908 0
12432 10710 0
8446 -6994 0
-9235 -7491 0
6823 13105 0
-18799 20922 0
-21877 15770 0
-14042 6396 0
5929 8596 0
-1596 2757 0
-5261 -14513 0
3312 4190 0
-10987 -21012 0
12150 21964 0
-1216 -12137 0
-290 6185 0
1735 8990 0
-2192 -12736 0
8606 -21075 0
15012 12675 0
-6817 5917 0
-7246 15326 0
-13522 3680 0
12047 -15365 0
5887 -9204 0
705 -19112 0
-19119 22589 0
3293 13918 0
-20279 -3974 0
-10701 3924 0
-10515 17149 0
-7279 1664 0
15043 -7211 0
14966 -8511 0
-774 -458 0
-10051 13282 0
-19312 11998 0
2537 8181 0
-5928 -21663 0
17626 20961 0
-3377 -13325 0
-2633 17388 0
-7569 1376 0
305 -13366 0
-4044 -20102 0
17484 -10767 0
-1761 6044 0
-22352 12696 0
-15972 15426 0
-18036 590 0
-13023 -13939 0
20545 18344 0
-22538 13128 0
-971 19099 0
-4146 10856 0
16705 -10514 0
12709 -14676 0
-10328 -13250 0
-13072 21238 0
-7037 -12515 0
-2551 -20529 0
8037 -8517 0
10456 11580 0
-11439 9873 0
-13214 -9483 0
-19954 6994 0
21197 13432 0
21346 -10801 0
7643 -16005 0
-11287 10138 0
17506 -19125 0
-8969 -7493 0
269 -23087 0
20513 -10878 0
-19902 21482 0
3217 18647 0
-6939 -14162 0
-16587 9201 0
-21679 7280 0
-7338 -19782 0
7517 -9944 0
7999 -8169 0
19495 -12308 0
11965 22125 0
10768 5243 0
11599 17562 0
5637 -9226 0
18882 21393 0
9451 22887 0
18353 12521 0
-18790 -1152 0
-23566 -3564 0
-17513 -13386 0
10164 5279 0
10050 -10077 0
-5984 9239 0
-5993 19026 0
-15726 20058 0
8446 -6692 0
5312 -7616 0
-5951 4641 0
-4902 -14025 0
-3212 -11840 0
-22274 12269 0
12533 -15723 0
10559 -8162 0
-13736 7816 0
15372 -1128 0
-3953 10917 0
16084 -23637 0
3322 -763 0
11763 -8245 0
23426 17161 0
-15743 17483 0
17302 -454 0
2971 -21777 0
10820 19766 0
-4703 7793 0
-8504 -2342 0
-18817 -23239 0
22284 -11031 0
14692 -12089 0
6691 9415 0
17038 -21860 0
22923 9064 0
4859 -11514 0
-1303 5184 0
-6467 -2287 0
-12304 3036 0
14432 10234 0
-8273 9327 0
7253 -22327 0
2992 -9077 0
-13568 19312 0
15435 1334 0
13272 20875 0
-7349 3311 0
4206 9124 0
-21352 23019 0
7525 9775 0
-20870 -13923 0
14647 10251 0
16545 -5205 0
5878 -15713 0
-8068 3154 0
10520 -19961 0
15771 -5679 0
9008 -21926 0
-665 -5841 0
-13919 -12946 0
-9115 20894 0
-17489 -23043 0
-20515 4607 0
18218 -23582 0
10129 534 0
-14303 -10409 0
-11158 -22680 0
9163 547 0
20959 10974 0
47 17688 0
3290 1683 0
22791 1017 0
3028 5839 0
7802 -18932 0
-6055 -15614 0
17203 5307 0
10649 -12052 0
-9988 21142 0
-11902 11018 0
-5881 7230 0
-3288 15649 0
15945 -21698 0
23597 13795 0
8699 -15265 0
7952 12820 0
-13255 21102 0
-13654 12447 0
14271 -8106 0
8881 -5247 0
16458 -3079 0
-2939 5136 0
23294 360 0
22830 -23451 0
-10956 -12206 0
-19341 -22107 0
-16800 8364 0
13097 480 0
-22870 -18261 0
8670 -15177 0
-1617 -21874 0
19017 14058 0
-7735 -9968 0
-2940 -1258 0
15286 -10178 0
11702 9719 0
5975 22877 0
6261 9179 0
-13982 10004 0
-5537 17427 0
12070 7140 0
5987 -8909 0
-22818 6177 0
-15316 -7335 0
23345 20577 0
-8010 812 0
6739 8474 0
-18937 -6429 0
-18157 -6529 0
-13188 4882 0
-7667 -7180 0
-6105 10168 0
-11293 -7890 0
-6817 -13604 0
13551 13438 0
-12355 11440 0
-14474 -10292 0
3725 -8756 0
11698 -15638 0
-9567 2242 0
-2192 -13081 0
-6494 11451 0
18606 20122 0
-22130 -5477 0
-5548 -18675 0
2567 5753 0
823 7508 0
4183 -6290 0
20812 -12166 0
-21873 19982 0
-4847 -6256 0
-13184 15354 0
-15801 -14675 0
10151 10158 0
-15246 10081 0
-22195 13207 0
-8468 -6501 0
19830 12616 0
-9612 9118 0
11549 21557 0
11375 23036 0
-8587 15475 0
4757 -5666 0
-1277 -14029 0
-1062 23638 0
-5430 14390 0
-21244 13722 0
7097 19203 0
-501 12743 0
-9749 16630 0
13244 -176 0
-3454 -20328 0
7314 19661 0
-8311 -5331 0
21853 22383 0
-5095 12675 0
19687 22375 0
-4342 2590 0
16853 -4593 0
12680 4631 0
-9125 4695 0
5291 -19504 0
21815 11938 0
-21938 12878 0
8893 19699 0
-23353 22400 0
-2830 12768 0
-22151 -6017 0
-10765 23651 0
10900 11865 0
-5949 12364 0
-5738 20548 0
18734 -7748 0
-14519 -12078 0
-8186 15848 0
8903 -1662 0
-12534 -20496 0
20678 -17723 0
20095 -5556 0
-15319 -17592 0
-6344 -7861 0
-20812 21925 0
-23621 20259 0
-9069 -7885 0
14504 14622 0
11257 4903 0
-23751 -1233 0
-19879 10516 0
-13692 -2027 0
21769 -18004 0
-1630 19762 0
-14436 12829 0
7403 5519 0
21150 -16908 0
9000 -11955 0
-1787 -17520 0
-21148 9997 0
-21592 -212 0
-3198 15776 0
6221 4133 0
9474 -6437 0
17060 18684 0
22976 20191 0
8284 -4139 0
-17957 22909 0
-9764 14625 0
19794 -11281 0
-22169 -3171 0
15483 -21767 0
22142 3658 0
14437 -2631 0
18024 -8076 0
-4949 -21200 0
4413 15211 0
-2780 2205 0
19021 -14295 0
-10755 10931 0
-16884 -17731 0
-1146 8840 0
8441 12770 0
-17102 -4074 0
8154 -2160 0
-4873 -4222 0
147 -19152 0
1534 -2315 0
9577 9743 0
13413 15761 0
-595 -14592 0
-19975 -10286 0
4230 -12595 0
7008 -18823 0
17884 -6722 0
-16068 21722 0
-12812 1229 0
-11067 10874 0
14908 6433 0
-20239 -8326 0
-17722 6039 0
13446 817 0
6558 -1034 0
-16203 6709 0
12078 19630 0
-15526 -5568 0
-21732 12268 0
17327 4001 0
8578 -16261 0
-6584 -23347 0
18474 15070 0
7399 10036 0
-15703 -20730 0
-10148 3342 0
-4725 9461 0
11812 10608 0
4318 -18601 0
-8995 10149 0
12047 -11021 0
-9981 21446 0
20276 11954 0
-22884 13213 0
15726 14489 0
3939 13861 0
20428 -5120 0
-10415 -1062 0
-14689 -7167 0
-8631 -9261 0
-11015 -4561 0
3131 -21093 0
6766 -3593 0
-17544 10739 0
6532 -6134 0
-1496 -17207 0
-13200 -9112 0
-3808 -9884 0
-2550 6106 0
12417 -18998 0
13998 914 0
3412 -2335 0
-8319 9468 0
-2472 2855 0
-20726 -4486 0
-23190 -11439 0
19370 4413 0
-1093 23405 0
7035 16548 0
-9077 -23719 0
13899 -1253 0
-11646 22428 0
22472 15481 0
10227 20051 0
-1905 -7498 0
-4106 22016 0
-11143 8296 0
9294 1825 0
13355 7634 0
23615 16764 0
1257 7834 0
6075 2438 0
-18148 -13867 0
712 -15200 0
-10087 1065 0
4792 -3015 0
14310 11942 0
8821 18210 0
-2868 -2305 0
-18968 -12474 0
10985 -10077 0
-9749 23035 0
-849 -3705 0
-3181 -8120 0
6572 3656 0
11506 4755 0
1081 3944 0
-1706 -15396 0
3662 -12683 0
-19249 -20199 0
19591 14257 0
-10761 13369 0
15232 18733 0
20796 4507 0
-19266 13208 0
7945 -2932 0
18807 2743 0
-21864 22677 0
-17444 -20555 0
-13919 12902 0
-11274 -12983 0
18964 -13428 0
17677 22698 0
12045 10584 0
248 2826 0
18006 -1410 0
501 10624 0
-20274 -8941 0
-14533 -8110 0
-23318 12633 0
-21504 3677 0
-10088 -16870 0
21517 -8853 0
-20052 -7469 0
-6941 20001 0
-15842 1495 0
-1670 4163 0
-19797 -714 0
-9608 11757 0
9629 8032 0
22333 -11828 0
22689 -13266 0
12606 -12737 0
-21135 -23221 0
6198 -4739 0
-8700 18677 0
-21635 11730 0
5198 -15414 0
1111 12763 0
15184 13614 0
8500 -11236 0
-15089 -21924 0
-19500 -14763 0
-23325 -8360 0
2969 20188 0
19653 -19370 0
13534 -11632 0
-20815 -22108 0
6266 -8552 0
2238 13477 0
22394 15650 0
1220 -5343 0
8880 -476 0
13572 6019 0
10993 5863 0
8234 -7765 0
17625 -6992 0
22131 -13067 0
5092 -4898 0
-15591 13221 0
-23785 6547 0
-12956 -7718 0
22984 -2594 0
14743 -3037 0
3106 -7253 0
3795 -2341 0
10146 21424 0
23629 20940 0
8101 -6671 0
-16959 -8711 0
-23223 -9372 0
17592 15019 0
4636 23334 0
11873 -14940 0
-419 23513 0
11634 3480 0
-8183 6901 0
-11990 -2379 0
-6532 -13939 0
-17573 15854 0
-13353 13072 0
15803 -14850 0
-11756 16904 0
22434 2334 0
10168 -16015 0
1157 11836 0
-7744 -610 0
1560 -10664 0
-19477 20518 0
12803 12124 0
22970 12364 0
23429 22272 0
1966 6748 0
-10714 -4807 0
69 20636 0
-22460 -3194 0
-13183 -20036 0
-9730 -7453 0
-4162 194 0
329 13268 0
-12680 23056 0
10779 16237 0
-20254 -23762 0
-8937 -10366 0
-7360 21883 0
5669 -14817 0
15155 10094 0
-2353 -1152 0
-8664 17563 0
13371 -20112 0
-7816 -18964 0
-3700 22955 0
18889 -8060 0
7419 2387 0
-9653 13281 0
4771 -15015 0
-9334 15271 0
9493 -13903 0
-3205 -3733 0
-2253 -15673 0
19164 -20283 0
15440 6781 0
8087 -9008 0
-2322 -1915 0
11002 -7172 0
-237 -15514 0
16534 -12869 0
-10115 -10159 0
10423 -19440 0
-16415 -12127 0
2101 -5639 0
18336 -4749 0
-4873 -10677 0
-9078 -11999 0
-4251 15479 0
462 19481 0
-16746 4815 0
7546 -20653 0
16514 -23361 0
14734 19898 0
62 14250 0
-512 -6092 0
-14677 14879 0
-20181 16370 0
-9436 18078 0
-14150 1896 0
22698 9912 0
-653 -1059 0
23020 -17036 0
-17133 -21624 0
-1820 9443 0
-23733 -18767 0
14566 21307 0
15067 -20339 0
-8403 -21174 0
23251 4966 0
-22582 8658 0
12386 17526 0
10403 19713 0
-20004 13978 0
2242 23381 0
14302 -13499 0
-11310 13729 0
7419 -20069 0
-3155 -5961 0
18475 17855 0
-18422 -7600 0
11684 -6263 0
-15393 11049 0
-16897 4870 0
531 15394 0
-10702 -14203 0
-1590 4860 0
-20766 9850 0
4691 7099 0
4446 19734 0
-9941 -12605 0
12908 -20119 0
1697 17827 0
-15267 1472 0
-1650 14188 0
22255 -21097 0
-22929 17731 0
-3143 -19016 0
15557 21863 0
4994 14286 0
7694 16515 0
8232 -16680 0
-10230 9786 0
-22344 -18198 0
10419 15497 0
-23402 8653 0
-10671 -18723 0
-21969 -400 0
11538 21958 0
-9739 -4023 0
-20769 -975 0
23145 5772 0
16061 -2276 0
2592 18578 0
-22557 -17246 0
3336 -9069 0
15322 -6137 0
-14807 -306 0
-22580 -4590 0
11799 -6406 0
6969 85 0
13109 21956 0
5717 -18146 0
-7741 17787 0
5891 -19970 0
-6316 22724 0
-17086 3261 0
-13723 13978 0
5344 23169 0
5145 8006 0
-20815 -13721 0
9515 16911 0
-231 8736 0
-16556 -16810 0
13336 -5636 0
11126 -19137 0
5198 -18982 0
-60 -17580 0
14534 14967 0
-20735 -2306 0
14730 -1364 0
-23622 15091 0
-10568 19251 0
-14669 13698 0
843 -16199 0
-10954 11549 0
-1258 -1097 0
17945 20026 0
-22642 3150 0
17476 17051 0
16755 -4069 0
-20722 -22477 0
2163 -19517 0
1944 2784 0
-1872 -6657 0
-19488 -16868 0
12335 -8415 0
-21437 23591 0
9173 -11785 0
-22623 2810 0
18346 21629 0
-1883 -5777 0
2432 -11094 0
19142 -14826 0
-11203 23768 0
-20083 894 0
8886 -9608 0
-22438 236 0
10535 -19587 0
4639 19631 0
635 1281 0
-4267 -20529 0
-5940 -155 0
20633 -23275 0
19079 -15336 0
-20073 -11526 0
-9717 -23118 0
21244 -12497 0
9150 6849 0
-3735 -15667 0
-3378 8254 0
1287 -2293 0
3324 20017 0
-8149 -12171 0
10805 3021 0
-10591 10503 0
13039 -12682 0
-5656 14633 0
19704 -23179 0
-18132 -8109 0
-260 -11944 0
5007 -4696 0
20445 -3284 0
-7129 7842 0
23124 12902 0
-4971 -19562 0
-13863 -5950 0
-15108 3129 0
2631 -13886 0
-20072 15739 0
-3954 -6483 0
934 3403 0
11838 23054 0
-3684 -19416 0
2520 -6761 0
-3487 -9252 0
-17202 20700 0
-20097 -715 0
458 8516 0
12567 14891 0
-21434 -7867 0
19132 -20246 0
7800 11006 0
20917 23701 0
23559 13308 0
10921 -10895 0
-23140 19366 0
-1781 -19786 0
22640 -3040 0
-14288 -17017 0
9602 14649 0
9984 13460 0
-18512 6301 0
-9110 10271 0
14040 -5157 0
6378 -12822 0
21962 23121 0
16911 -3151 0
-13417 21484 0
-13059 4686 0
20080 -5443 0
1544 15625 0
5216 16296 0
-5255 -10628 0
-13156 -8488 0
-9276 20637 0
13388 19028 0
-8545 -12469 0
-20220 2279 0
6278 4167 0
-21428 4529 0
-23656 17342 0
-18479 -3983 0
8127 7498 0
-3579 -23491 0
-22549 10903 0
-16076 -9148 0
-22686 -20514 0
-6245 -17169 0
-10472 6587 0
1441 12656 0
-11473 20243 0
19971 16399 0
-11131 -14108 0
-449 -12192 0
-5906 9257 0
6064 13064 0
19631 17179 0
12626 13194 0
-7017 18758 0
-4546 -2350 0
15183 1865 0
17151 -11701 0
-6090 -10179 0
23486 3492 0
-510 -7452 0
-19050 7430 0
14859 11057 0
20707 6730 0
9317 -535 0
-15341 15651 0
21346 18588 0
-10819 -326 0
15749 -21979 0
11623 -14685 0
-22686 -9724 0
11936 -21620 0
-13747 -10598 0
-20778 -12332 0
-2931 9910 0
-2180 -18542 0
13666 -12215 0
-2961 7172 0
-5082 10415 0
-3205 -7896 0
21205 -2289 0
10524 13443 0
-23765 -6658 0
71 -8499 0
14213 11184 0
-3418 18538 0
8590 23151 0
11785 -13024 0
-11792 2970 0
-11879 11619 0
3014 -6574 0
-20548 -5265 0
-892 7754 0
14832 21595 0
-2241 -5593 0
-12973 21381 0
23161 -12279 0
-23773 16883 0
7634 6984 0
-14822 6687 0
-2791 13277 0
9387 12951 0
-4996 -16408 0
-9461 17813 0
-8927 -6562 0
-17070 -15590 0
-11027 12272 0
6121 1244 0
-20876 8731 0
-9632 11914 0
17129 16860 0
-17163 -11185 0
8178 865 0
-3137 9691 0
2352 474 0
-1820 23502 0
-2106 20348 0
1035 -10909 0
19789 8373 0
-17843 20837 0
15969 13397 0
7789 -16396 0
-5117 -15939 0
21554 -23397 0
15959 9467 0
7483 14287 0
-20861 11956 0
22331 -20193 0
1695 18909 0
13934 21009 0
11166 11378 0
16248 6130 0
-15405 -14352 0
-16834 9968 0
20797 10239 0
-73 11936 0
11825 -9370 0
6916 21924 0
12103 773 0
-8021 20244 0
444 -16729 0
-7737 4562 0
19866 2541 0
13089 -5946 0
12335 15072 0
-6127 -18848 0
-5389 -7302 0
-6710 19577 0
6255 -22656 0
1646 16223 0
14377 -18180 0
-1884 -5116 0
-19782 -10952 0
-12480 -13704 0
-16901 6643 0
19933 -18631 0
-19791 11760 0
-21703 -15197 0
10398 -15645 0
-17702 -5365 0
-7412 -4418 0
-2071 6804 0
-16914 -23665 0
-23003 -9984 0
-2726 -17145 0
3266 -14495 0
-18279 4840 0
-15000 10294 0
-11081 -17546 0
7951 5919 0
8262 -22009 0
12443 23779 0
-22286 -6971 0
-13597 18249 0
23262 12316 0
-16726 -3701 0
-11572 -2839 0
10846 -16618 0
-17671 20770 0
-9168 4610 0
10029 -986 0
-23023 10990 0
-10545 8255 0
4493 -8260 0
3118 -3802 0
-16599 17434 0
-16967 -5434 0
-22685 19949 0
17188 -6424 0
14031 -3754 0
5485 21103 0
6592 6142 0
19848 19763 0
-11870 -22097 0
-21322 -1360 0
-16417 20316 0
-9395 10437 0
13127 7304 0
3892 10688 0
2490 -2071 0
-12333 -20274 0
-3034 7459 0
20053 14916 0
4797 10081 0
-3282 15030 0
-8324 -8747 0
20189 -7985 0
8225 21734 0
642 486 0
7632 -9910 0
6672 20376 0
-21111 -4421 0
12493 22908 0
-10746 18855 0
22396 7903 0
14288 -23762 0
20870 15453 0
-17801 -9646 0
-19469 -22198 0
8323 -7435 0
-14401 12178 0
18319 16973 0
-11177 -17334 0
-9733 -9320 0
-18783 16565 0
-182 -11428 0
-20186 -21945 0
15283 -13847 0
-3723 10855 0
-18377 7606 0
-18689 7997 0
22746 -8641 0
-17204 -166 0
7103 -4409 0
10433 -20967 0
13415 -19698 0
-12166 1141 0
-9926 18852 0
-568 5687 0
810 -10713 0
-9926 18111 0
7229 -21941 0
21716 3369 0
19602 -13369 0
-5091 -1937 0
-5882 -3630 0
18083 10872 0
-15502 -19070 0
-17038 14154 0
16832 8130 0
-9320 11018 0
1596 -12814 0
-6779 -15993 0
22786 -3486 0
11183 6574 0
780 13347 0
-11714 -21164 0
-18018 23011 0
17997 14817 0
3120 12763 0
-13574 -3645 0
3975 14655 0
9106 -23227 0
-20412 -118 0
-15230 -22435 0
4579 9950 0
23451 -15194 0
6745 13357 0
-1511 9615 0
-3709 -13113 0
-7113 -10823 0
4476 -22841 0
-508 15296 0
-18641 -8935 0
6214 -1430 0
22275 7999 0
6287 4227 0
1745 9035 0
-9799 11591 0
15338 -11645 0
-23443 -8445 0
-9764 -22516 0
14657 -21927 0
14117 10066 0
-11223 21284 0
2722 -12840 0
-8473 7579 0
-21701 4128 0
-19710 -14614 0
-4448 14665 0
-12803 -8161 0
-13387 -6133 0
20762 -21046 0
-11518 -19344 0
20481 20153 0
-20119 -9108 0
3460 -6990 0
14293 -6603 0
-21736 16997 0
-10956 -19318 0
12420 13155 0
12960 6553 0
19743 -5009 0
-20605 -6950 0
5779 4235 0
-10029 9149 0
-17180 -3713 0
22423 -14924 0
7817 -4002 0
-20771 19394 0
8686 -18894 0
-20979 -1590 0
-15197 -16538 0
23657 -10628 0
-8446 3473 0
12547 -3771 0
-11289 -16399 0
-13229 -22577 0
-17606 10550 0
-12594 10878 0
-18313 -18169 0
-19904 19022 0
-14360 -19768 0
14447 -8558 0
-920 -19628 0
11443 -12772 0
1348 -9182 0
-14959 -8846 0
-9213 21980 0
-3684 -14229 0
-7949 10367 0
20733 5594 0
17918 13550 0
-13920 -3339 0
-6857 -18893 0
-12595 -13554 0
-18393 -21308 0
-19828 -22520 0
19171 -16457 0
20267 -8212 0
418 2167 0
21329 13864 0
20874 -9571 0
13186 -15850 0
17356 -5502 0
14735 5084 0
-23107 -5082 0
5275 -18122 0
-9033 18999 0
19973 8697 0
-11063 -12653 0
18478 -7550 0
2908 -6060 0
13568 -4244 0
-15032 8448 0
-16549 6334 0
-10398 16099 0
-19765 -21232 0
20837 21916 0
16926 -1143 0
7916 -12163 0
7313 -16890 0
21380 9555 0
13841 7160 0
-15950 10046 0
19104 6226 0
-10845 -474 0
-10544 14569 0
998 18105 0
-17886 20590 0
8059 21620 0
-18228 157 0
19536 -6022 0
11119 -23709 0
-14156 -13609 0
23748 2652 0
-17910 -11223 0
-15590 11118 0
1955 -434 0
5019 -15931 0
-900 6763 0
21892 -633 0
-7394 7975 0
12272 9560 0
-741 -20537 0
6028 -11872 0
-18250 -10620 0
4265 -5614 0
21576 -12864 0
13218 5305 0
21186 17820 0
-9817 -10150 0
662 -15813 0
-21500 -20045 0
-19073 8647 0
19403 -21060 0
-18761 11184 0
-22732 -20767 0
1256 -6168 0
8795 -23741 0
-5904 1021 0
-8696 -18524 0
-4374 -3005 0
14871 23111 0
18583 22517 0
-16671 1974 0
-13454 -18223 0
7137 185 0
11782 15660 0
-20950 -8171 0
10816 13233 0
21818 -5464 0
-1706 -21323 0
10466 4167 0
-19294 1747 0
-3480 4411 0
12311 -13175 0
-2919 -19954 0
5632 -16474 0
13407 -15646 0
19482 7766 0
12398 -6300 0
3167 17739 0
-6202 -22974 0
-7059 16154 0
1915 5826 0
-3013 17478 0
974 -13517 0
8732 13064 0
-17777 10519 0
13211 16733 0
-9645 9430 0
-19015 -6681 0
13035 21824 0
6295 -10720 0
-21750 -20084 0
22432 -1114 0
-6269 -22477 0
-18938 14206 0
16973 -7607 0
2102 8574 0
-23432 20339 0
5830 -20384 0
-7614 14980 0
1334 22992 0
4046 14425 0
-481 3464 0
13879 -23340 0
-7505 4925 0
-9470 9251 0
9731 17310 0
-14199 3058 0
-10992 -22587 0
-11293 22541 0
2143 16173 0
12820 1783 0
21611 -15108 0
21517 -12501 0
-3282 3123 0
-9179 -17157 0
-8759 -16015 0
-22429 -18435 0
-22670 20943 0
-23255 3487 0
-7907 21784 0
2018 -14173 0
23729 -1443 0
9094 8683 0
4827 -16046 0
9345 13490 0
13746 4979 0
4725 20422 0
10405 -14754 0
22156 382 0
8715 22204 0
-16821 -9888 0
1299 -5413 0
16119 1231 0
-19675 20741 0
-10920 14910 0
21027 18790 0
-10263 4930 0
17251 7567 0
-14615 13985 0
16524 17024 0
-14792 184 0
19794 -18119 0
6137 -8515 0
22277 -8367 0
-8301 -15772 0
8634 -23737 0
13819 3753 0
2319 -22539 0
-8265 13403 0
10899 -19098 0
-17293 -6333 0
-15409 19186 0
-12510 6388 0
-16760 -21974 0
11020 16522 0
-17529 -9642 0
22313 -21686 0
13432 -3831 0
-1658 -13784 0
-23638 -10158 0
15304 -1359 0
16717 -3525 0
-4692 9121 0
-8940 1138 0
8055 -11102 0
-23027 17321 0
-11664 -6918 0
19962 9524 0
-15665 18489 0
-16265 -5245 0
-8241 -16980 0
-2145 -437 0
-10193 -19299 0
-14417 -11009 0
-23307 -13289 0
10515 18206 0
15310 -13760 0
-11483 3166 0
21806 11096 0
-7000 3521 0
-22758 11502 0
-40 -174 0
17554 12564 0
18445 20111 0
15154 -5402 0
16972 13051 0
-3771 19829 0
-12790 -20862 0
-6529 14146 0
-2720 9691 0
15101 -8518 0
22884 13183 0
23333 12694 0
-9070 350 0
14773 18388 0
-20119 17973 0
169 -6549 0
20831 569 0
-8071 -16701 0
20299 -20237 0
2607 2564 0
6375 -23010 0
20739 107 0
4482 -7428 0
14200 557 0
3358 5961 0
-23784 10026 0
22519 -15731 0
-14707 -19484 0
21139 -22781 0
8557 4508 0
5239 1231 0
20686 15079 0
-18529 -21377 0
15674 -14966 0
20095 -6631 0
-15702 1057 0
14009 -17450 0
7814 -21265 0
12360 21896 0
7663 23495 0
23304 13002 0
-1671 -18961 0
-14941 -6755 0
11155 -10784 0
-5690 -16849 0
13631 11666 0
-18853 -4171 0
-6553 9977 0
-15474 -8171 0
5074 -15793 0
-1305 -5273 0
19714 -15051 0
-14378 -22884 0
-12971 7331 0
-10628 12028 0
4029 5480 0
-3081 -22471 0
-15714 7041 0
1893 7223 0
9859 -13459 0
-6864 16614 0
9713 1919 0
2055 17978 0
694 -8654 0
20552 5102 0
11734 -22742 0
5826 -11466 0
-7253 20329 0
-12594 -10850 0
-7114 9498 0
-3265 -4382 0
2821 3843 0
8594 2876 0
8715 18574 0
11580 -7992 0
23064 -13897 0
14578 -15471 0
4990 -12797 0
7805 23670 0
-14270 8983 0
-13125 -22678 0
-19627 22911 0
-16382 5146 0
21920 -16367 0
-18102 12034 0
7800 -2713 0
12972 7650 0
18703 5887 0
21766 11786 0
2128 19895 0
-9803 -21390 0
13798 18379 0
3300 17237 0
-22342 1454 0
7992 9696 0
15556 4746 0
-513 -22425 0
21028 7865 0
-18295 -15362 0
-16398 22519 0
11783 -1031 0
9819 -19494 0
-15949 -2330 0
-813 -12894 0
4796 -9789 0
5489 -17227 0
15148 -21390 0
-19909 -20082 0
-20835 13611 0
496 13831 0
23167 13266 0
-6271 14740 0
-20949 19256 0
10802 -18176 0
11006 -4921 0
-6783 -14914 0
-18964 -7814 0
-802 -12345 0
389 16997 0
8179 10245 0
-14180 7981 0
-4079 20895 0
-18359 -14441 0
6813 -14859 0
-15505 23722 0
-3941 -10943 0
-16974 -16964 0
-2711 13349 0
9090 -7274 0
-3192 22629 0
4032 -11824 0
-20106 -7115 0
2738 -3575 0
-20109 22339 0
-13755 -23035 0
18286 -21187 0
-7275 14520 0
16417 -19731 0
8060 3325 0
-23583 23014 0
-10011 -10144 0
3056 -13372 0
1132 1792 0
18108 -887 0
5816 -100 0
-14902 1784 0
3876 7578 0
8548 17693 0
-15972 -16358 0
-3503 15616 0
18603 3485 0
-13647 -10443 0
-13204 21172 0
-13543 -8242 0
5992 -82 0
14823 -2544 0
-15760 -1076 0
-14696 23428 0
17384 13535 0
14325 -16122 0
5996 13795 0
21149 17756 0
5373 -1575 0
11818 -9807 0
-1021 10337 0
3982 -14388 0
-15587 -15348 0
12481 21546 0
6696 -18191 0
19609 13235 0
-20841 3060 0
-20608 11321 0
22027 3584 0
-23631 -19001 0
18624 23054 0
10202 8868 0
11694 8531 0
-20202 21203 0
-23386 -21547 0
-15584 2841 0
14993 1379 0
-12711 23426 0
10504 -6347 0
22148 3721 0
-6425 -20220 0
12274 -1784 0
-14052 -4206 0
1833 -20393 0
-4663 18797 0
7502 6812 0
-7759 -9587 0
-10791 14187 0
-12332 4590 0
11890 -13177 0
-7524 -7506 0
15759 -18119 0
-6476 14445 0
2754 -17342 0
-22521 9356 0
-6583 2593 0
18422 -11826 0
-8993 -19995 0
8383 6885 0
-22894 -2582 0
-14664 4643 0
-9315 -22115 0
16226 -7908 0
22898 -3306 0
-7851 -15779 0
5026 13981 0
1510 18401 0
1938 -18393 0
-13731 12274 0
19036 -16295 0
14431 16221 0
-3876 -22817 0
5647 -4287 0
-3755 3031 0
14612 19495 0
-12512 -23577 0
-22658 20345 0
18767 440 0
-6403 -923 0
-400 -13118 0
2262 -769 0
23761 -1146 0
-10802 -18198 0
2481 22538 0
10280 -7913 0
15317 -9960 0
-19224 -20832 0
11173 -20036 0
17230 19025 0
11381 -14375 0
-14233 17645 0
19976 -5148 0
5758 11843 0
-6511 21774 0
-8683 1455 0
15931 1422 0
-4190 3528 0
21338 20523 0
8088 -11568 0
-12594 -15744 0
-22428 -7170 0
7889 14672 0
-8653 -1574 0
14039 -17500 0
15099 -18123 0
23115 5595 0
5572 16876 0
4103 5322 0
-13630 8614 0
22359 -4626 0
-6561 -1422 0
18361 12657 0
4975 -6742 0
6955 -7484 0
-8465 9301 0
-16716 5942 0
-244 -8497 0
-5003 -9472 0
3913 -22407 0
-19922 -20411 0
-21893 -19647 0
12831 -20682 0
12428 14907 0
-21074 15609 0
-20859 -18335 0
22621 -21052 0
16213 7758 0
-3314 15745 0
-22861 19297 0
-17920 -11489 0
-9846 2093 0
3870 -9275 0
4766 -17651 0
-21256 12726 0
-16068 -21759 0
-8808 319 0
13488 -18437 0
19081 -9901 0
-3800 -12437 0
11499 23016 0
-12655 -20935 0
-2308 9674 0
-9291 18024 0
-1018 203 0
-18990 -22185 0
17551 -14503 0
10009 -10586 0
-10551 -13072 0
16319 -23026 0
3461 17255 0
10113 -4781 0
-14089 -10601 0
433 16876 0
16412 -9514 0
-2765 14837 0
4861 -10450 0
96 17805 0
-10177 -22825 0
17728 -9809 0
12809 4262 0
18283 3061 0
-5533 -22133 0
9777 -690 0
20030 4645 0
-7530 -22809 0
-9955 -3823 0
23670 -886 0
9426 21996 0
3804 -173 0
-2719 -15991 0
-6395 15466 0
-2846 21055 0
13857 -8509 0
6856 -227 0
17312 -22717 0
5690 9573 0
17168 -11990 0
-10914 7013 0
10738 -12940 0
16537 -21457 0
8197 -20140 0
1681 7813 0
-21694 15610 0
-10630 -4312 0
19266 20557 0
23359 -5575 0
10226 -13972 0
1087 15423 0
-22517 18599 0
-7604 10277 0
-10767 -6102 0
23469 -21684 0
9269 1553 0
-4849 1494 0
-1043 -4840 0
7591 -19576 0
-16211 12318 0
-353 3067 0
2988 -13566 0
7155 -5306 0
-11519 -3616 0
16929 -19873 0
-20454 2693 0
-11394 20135 0
-13544 23086 0
-15790 -5322 0
5512 21911 0
15469 -14322 0
2530 4793 0
-15416 -6122 0
18529 -1388 0
-22932 22011 0
-20567 -11529 0
-16824 10306 0
11984 14683 0
23230 -20815 0
15992 -312 0
21742 -14783 0
10226 -19898 0
-839 8179 0
19610 -17971 0
-2651 -2632 0
-13387 19481 0
22469 6720 0
-5502 -13552 0
-23152 1558 0
-7530 -7568 0
16877 -7937 0
-22903 23666 0
6277 16247 0
15296 -13923 0
10854 18597 0
21885 264 0
-5519 -7453 0
-9565 -7466 0
1109 -11436 0
-13367 10683 0
21102 -1338 0
-16643 -8208 0
9990 20811 0
-4482 -10916 0
-15773 13066 0
-8617 -14172 0
-2202 -18733 0
19358 10804 0
-21077 -2609 0
-15901 7459 0
13915 9976 0
5052 -3821 0
-10115 12393 0
-15910 13504 0
16118 4268 0
-21874 11668 0
1379 -9449 0
-11013 8300 0
-16691 9776 0
12912 1309 0
-11272 9793 0
8394 18820 0
18803 10283 0
-10835 -7090 0
-13949 -4804 0
21428 2924 0
-7524 -10125 0
13622 23163 0
-20806 -9505 0
9074 19456 0
3129 19366 0
-3089 20776 0
20077 -17241 0
14571 158 0
17038 4588 0
6813 8760 0
-14923 -17862 0
-18176 -2831 0
-17334 6029 0
-5487 13307 0
-3982 16864 0
-11285 -5937 0
-5935 -7110 0
3597 -22046 0
20881 5863 0
6648 -6398 0
20260 -16978 0
-9073 -22096 0
13851 -8294 0
-23451 10536 0
-19337 23737 0
-17040 25 0
-10621 -11146 0
-12280 17644 0
-21154 9966 0
-9493 -13330 0
-17601 -9655 0
15802 -17928 0
-16720 11400 0
-23237 -3694 0
-17490 20678 0
-4684 20740 0
11570 -12858 0
-13200 -14050 0
-15648 19194 0
19216 2125 0
7229 -5727 0
13795 5006 0
5300 14577 0
-4471 -15127 0
-9588 10641 0
-18932 -21536 0
8505 6276 0
6303 -18368 0
-6360 12508 0
4880 -19048 0
-8623 14247 0
-11965 -9915 0
-4312 -13541 0
741 9373 0
15000 7175 0
17788 7530 0
-19820 -20558 0
2095 23569 0
-23084 23632 0
9428 -10495 0
-21826 -10974 0
-9724 12350 0
-16890 -9940 0
13990 1710 0
-3805 -20947 0
17292 21039 0
21269 -8737 0
14615 23729 0
17646 -7765 0
-11738 20386 0
3123 1431 0
-3135 19716 0
12763 11361 0
21016 -3315 0
-481 13815 0
19973 8470 0
8380 18764 0
-10443 -21290 0
1895 -3123 0
-22587 -2093 0
20538 -23056 0
21616 22655 0
23554 23426 0
-8534 -17598 0
9899 17227 0
-7969 -7360 0
-13492 -1024 0
-877 -10285 0
-22454 4267 0
-6259 -8008 0
-13904 -14471 0
-13010 -15176 0
3230 19618 0
-18963 7419 0
-1251 360 0
2656 -4451 0
8889 3089 0
14885 20269 0
-21437 15277 0
-8352 15961 0
13005 -22189 0
-10142 7852 0
-17181 1774 0
-15208 -19447 0
-13277 16951 0
16276 -8615 0
4753 16934 0
2620 13368 0
-6887 -4985 0
10018 -4404 0
18495 -16010 0
-1036 -6723 0
16099 8308 0
-3318 -22057 0
16624 23099 0
17008 4286 0
7044 10110 0
-571 3470 0
18692 -3748 0
22765 6570 0
-2101 -2061 0
-20641 -6281 0
-5617 -13444 0
7231 -19388 0
9047 16567 0
21396 19482 0
22318 -4106 0
-10594 -4466 0
15979 -12933 0
-4429 -2740 0
-13564 -23741 0
13485 8185 0
-18609 -8638 0
-7092 -17162 0
-23352 -18548 0
23777 -2682 0
23517 -13479 0
5952 12082 0
3581 7533 0
12867 19485 0
21906 -17613 0
557 -3623 0
14336 -22321 0
20791 12943 0
-20123 -23765 0
14754 -2283 0
-12591 -11511 0
-8891 9328 0
-1905 17588 0
20585 122 0
9632 -5550 0
-17851 12760 0
9785 5093 0
16966 8718 0
-6615 -4447 0
-13255 14402 0
-12789 -19411 0
10953 1613 0
19369 251 0
13030 -474 0
21823 -12405 0
20754 -14121 0
-7114 -5324 0
-6530 3106 0
-12468 -21094 0
10944 -2061 0
22311 4791 0
-10594 14561 0
3496 12872 0
-21555 -19698 0
7012 -21143 0
-14159 18563 0
6761 -17249 0
-15251 -8457 0
18261 -3596 0
20550 19967 0
-3872 -9574 0
1918 -5901 0
-6538 22640 0
6812 -8120 0
-13347 861 0
19305 -3158 0
-21305 -14276 0
-9939 20578 0
-5618 9575 0
-6474 -17076 0
-19349 1410 0
-21633 -11879 0
-11077 6851 0
-640 6601 0
-1970 22860 0
6825 -1069 0
-11843 -15294 0
11283 13347 0
-8260 6621 0
6438 7646 0
9601 -22133 0
-14207 6866 0
-7270 -22449 0
-8467 -17242 0
-9178 7669 0
6704 13427 0
11588 -6196 0
-13565 15821 0
-13992 21863 0
5630 -30 0
-1930 18306 0
-10665 8707 0
1295 3686 0
-23525 9381 0
-18352 9049 0
-15990 -53 0
-11012 -13654 0
15556 -23467 0
18147 20559 0
-747 -19580 0
-4444 -18462 0
-10194 56 0
12712 -23784 0
3241 18734 0
-2813 1644 0
-21594 -23292 0
-12158 11184 0
-9722 2059 0
-17031 14509 0
-14097 12355 0
-1041 8197 0
10544 -15670 0
439 -4895 0
-5509 -1496 0
18277 -19623 0
-18053 -20067 0
-13516 21251 0
-18061 -4875 0
579 -3722 0
16858 -14165 0
-3192 -6984 0
-19669 -9084 0
18457 -5109 0
-3545 -15039 0
-7141 11010 0
8799 -23494 0
16720 169 0
2972 12833 0
-11446 11470 0
4729 -3530 0
21779 350 0
-1338 17518 0
21690 -17756 0
10174 20065 0
-16328 15069 0
293 20172 0
18052 -7029 0
8746 11519 0
9958 6498 0
7428 21692 0
-23042 -22427 0
-9007 5264 0
14704 -13161 0
12643 16223 0
19720 -2893 0
19896 2542 0
-668 19788 0
-342 4638 0
2960 -22701 0
8665 -4877 0
-23792 -15766 0
21221 19251 0
-18295 22311 0
-3658 -18702 0
11071 -9128 0
5102 -15526 0
-17766 -3224 0
21429 7656 0
-18908 -19288 0
5031 9328 0
4298 -20428 0
9824 15847 0
-1174 -12744 0
20775 -18453 0
16018 6487 0
22231 5606 0
-19595 23475 0
7341 -17924 0
-4748 16007 0
-3855 12191 0
-7324 -7060 0
20747 18374 0
7389 23524 0
22975 21664 0
-18450 8249 0
-7111 -10129 0
-4451 14184 0
21488 -5098 0
-12678 -4847 0
-15416 965 0
2039 -22823 0
14161 -15581 0
-7732 -7894 0
7864 18944 0
-9519 11188 0
-20558 16034 0
8916 14420 0
-12569 2518 0
20639 9259 0
23770 7599 0
9393 -15198 0
4179 -2940 0
13691 7742 0
11527 -9255 0
12259 -6987 0
3256 -12558 0
18410 -12534 0
5388 -15433 0
15897 19571 0
-2054 16872 0
17880 -13750 0
-7141 -5313 0
-19949 -15611 0
3152 4776 0
-13829 10812 0
18719 -17733 0
-11104 23114 0
3271 17400 0
-6407 -2709 0
-14918 -20014 0
-2157 10771 0
-23179 -6860 0
-16030 10251 0
-14299 3906 0
-20247 4868 0
3604 23556 0
5417 -556 0
-20628 21425 0
-21854 -22167 0
-18238 4670 0
-19564 23373 0
3628 3431 0
-19982 15979 0
6156 -5000 0
10064 -22720 0
693 -4900 0
948 17990 0
6399 18369 0
22842 -2104 0
-4695 -13405 0
8372 12752 0
5991 5548 0
-1795 2887 0
23447 8075 0
5367 13834 0
-13761 -21744 0
-2689 22174 0
7714 -19820 0
14794 7357 0
3439 512 0
-2906 15097 0
-17915 -9304 0
-22530 -8800 0
-19160 -10655 0
15597 -23226 0
3804 8919 0
14990 -9313 0
10397 11002 0
-14556 2518 0
-6269 20946 0
-1089 -670 0
7104 -263 0
-21831 23663 0
11667 -5075 0
12472 10615 0
9812 -20341 0
21407 10351 0
-1808 -8275 0
-22548 -14719 0
18353 -23177 0
22226 -11178 0
-17720 14693 0
6029 20734 0
-13916 -5231 0
-1173 2623 0
-3520 19708 0
-17879 -22425 0
13878 7359 0
18922 -4183 0
22870 -5748 0
-14630 -22324 0
1569 11344 0
-1355 5305 0
-23215 -11132 0
4689 3132 0
5442 -18031 0
20336 -11969 0
-858 -23461 0
20807 -22655 0
6975 -5517 0
23412 21167 0
-11857 -2065 0
6488 -14151 0
10493 10607 0
12773 18873 0
-23440 15926 0
-10487 -7645 0
13075 -18810 0
-17205 2838 0
6163 -8218 0
4661 -10134 0
-13035 16515 0
-16382 5899 0
19293 -19461 0
-15681 14407 0
12858 23072 0
-8328 5015 0
-12161 -17208 0
-11918 -11546 0
-20113 17559 0
4694 5193 0
811 8760 0
1290 -6073 0
-4988 13114 0
8485 -22112 0
-14528 -1932 0
-23540 18201 0
10217 4193 0
-12903 -2907 0
-180 -23288 0
-6999 12453 0
-17055 -13105 0
-20787 -16721 0
7058 2297 0
16268 8107 0
-9137 8143 0
20927 -3580 0
20367 8676 0
-13133 21473 0
4639 23385 0
8626 5861 0
-9386 9945 0
3980 8537 0
22868 9032 0
2671 -23288 0
14198 -12652 0
6163 22028 0
-7261 17084 0
17936 16126 0
-777 1894 0
2577 -11630 0
-8461 -4862 0
18633 2920 0
-12744 -11534 0
-21453 18759 0
14311 19021 0
-11696 -18746 0
4523 -7837 0
19157 -16486 0
12039 5467 0
22673 6543 0
-19610 -22794 0
-6846 20002 0
-5863 -19926 0
9948 23668 0
-3642 -1009 0
23547 13189 0
-15943 14325 0
15310 21928 0
-20774 11668 0
14584 667 0
21462 23057 0
15270 -13622 0
-371 11085 0
-11534 -10566 0
-12663 7751 0
-18587 20990 0
-22864 -18608 0
-6750 16278 0
-8038 12519 0
-22870 -11894 0
-2471 -3035 0
-18481 7262 0
1427 -5072 0
-13939 9388 0
-22968 23285 0
-16643 -9104 0
-15569 19063 0
11889 18633 0
5499 -16487 0
-6565 -17854 0
-6183 -7108 0
6990 -16399 0
10872 15649 0
4339 -23050 0
10438 -4443 0
-3504 9251 0
13448 13420 0
3398 9829 0
14851 18893 0
16738 5277 0
-4956 21291 0
20874 23662 0
2332 7801 0
14476 21047 0
-22141 -20606 0
-16678 6869 0
12755 -22351 0
-918 -5202 0
11811 22370 0
-1396 9796 0
-18675 -6105 0
-7916 19113 0
-20335 -3667 0
12936 -2097 0
-1981 13952 0
8645 23036 0
10435 -20979 0
-9344 -21896 0
11284 17141 0
-23753 -17760 0
-936 19208 0
-9928 -17962 0
5041 -6268 0
-13589 17397 0
9731 -19059 0
-21468 22062 0
23727 17868 0
-1398 14507 0
-12465 12866 0
-14620 13715 0
-22682 -16616 0
10674 -1477 0
6872 15654 0
7844 21680 0
15637 9982 0
-3339 -6213 0
6029 -11306 0
-5046 21352 0
971 -9819 0
-17757 16271 0
-4646 6814 0
3593 15547 0
7422 -19004 0
85 -20589 0
9552 21697 0
22570 21831 0
15356 -20787 0
-2247 -7105 0
-6914 9109 0
-2788 9029 0
-15853 -7222 0
-8933 16637 0
19238 -8655 0
12330 14683 0
3776 18232 0
15018 2797 0
22261 -6911 0
21959 -6669 0
6138 8383 0
-1670 -16266 0
-21197 10219 0
7605 -23573 0
-15753 -10463 0
7581 -16668 0
-7353 11912 0
22024 1111 0
11434 -10039 0
20391 -9007 0
21661 -955 0
7926 5251 0
-4580 -20044 0
1492 -14088 0
-5277 4360 0
18149 20879 0
-23791 -6312 0
-9517 -2593 0
2532 8906 0
1974 -13727 0
-21793 887 0
-13116 10396 0
-14924 17517 0
22586 -1752 0
23162 -21221 0
9009 1881 0
-14108 -16840 0
7659 2080 0
-20934 -13880 0
7256 4686 0
-1090 15478 0
-4238 18435 0
20800 -2138 0
14786 5078 0
15872 -5524 0
18659 -3581 0
-15070 -12789 0
-6846 -21518 0
440 12503 0
-22325 -18533 0
-16141 1687 0
21224 -4742 0
859 22536 0
-2356 373 0
10928 10423 0
-13010 4216 0
-8423 -21574 0
23241 841 0
-12393 -21759 0
12870 14100 0
15407 -6317 0
-17490 -3954 0
-19680 3115 0
10502 -5616 0
3967 4101 0
13773 -6832 0
-7160 -7904 0
14056 -8860 0
21715 2316 0
-22927 17781 0
16049 9543 0
-8115 10448 0
-1935 5257 0
3334 6954 0
4940 -17887 0
-12087 -3756 0
-19446 -1461 0
-12457 8583 0
9084 14593 0
10805 20359 0
7489 14567 0
16714 17674 0
18002 11725 0
5367 -21248 0
-19262 -23377 0
-1752 2217 0
-225 -12854 0
18850 3184 0
3615 -8583 0
5787 4392 0
3803 -20633 0
18421 -2083 0
2641 -23657 0
-7753 -9483 0
-14409 6952 0
-22931 15871 0
22016 19362 0
13282 9543 0
-2465 6897 0
5458 6560 0
8262 -3452 0
14043 18486 0
-17209 -7719 0
-367 2318 0
872 11592 0
16377 19646 0
18408 -8169 0
3261 -5193 0
-21121 -12189 0
-16767 18159 0
8567 -5733 0
-23134 3332 0
-22513 -8419 0
-19516 -10741 0
8331 -14767 0
19189 5090 0
-4060 5572 0
-7451 -5231 0
16263 -9818 0
851 19140 0
22633 -10991 0
-9260 5408 0
-1537 -19300 0
13374 1170 0
14333 7043 0
-10029 -20068 0
-1703 -23728 0
-9668 -10768 0
21949 -11775 0
-14784 1445 0
14717 -17596 0
-7520 -370 0
21904 23753 0
-12696 -552 0
-21731 10146 0
-7600 -10405 0
15460 -20453 0
-11345 18415 0
-22658 -8976 0
-18827 21331 0
-15385 10764 0
8909 8083 0
22062 5578 0
-1264 -8169 0
-16067 -13761 0
-21828 -1798 0
-13494 7009 0
-22314 -13200 0
-23025 -11051 0
22265 -4571 0
-16142 4172 0
-9686 11407 0
-6863 5629 0
11667 13243 0
-1224 20284 0
-7104 16515 0
-16505 -9278 0
-13238 18597 0
-8961 -7133 0
10983 -21672 0
-19917 15204 0
17366 -16056 0
19198 9426 0
9037 -10715 0
3171 20232 0
18260 -18840 0
1687 -5206 0
9674 16947 0
-10293 -14633 0
14277 5713 0
-11518 -1254 0
10558 2915 0
-22230 -12952 0
3786 -2551 0
-6924 7614 0
-12928 -3721 0
6549 21677 0
7438 -20535 0
-17569 20159 0
-8396 1790 0
9148 -1897 0
4681 11406 0
-6987 2227 0
-22420 -15739 0
-12917 -21704 0
-11402 -18843 0
355 11145 0
-16983 -13470 0
-5557 6260 0
-3720 2227 0
13788 -7712 0
-8840 -8214 0
-236 -20676 0
4690 -5792 0
-17217 -2470 0
10133 -8996 0
20479 -9910 0
-16543 -20251 0
2960 1538 0
-1198 -12217 0
-20862 -3850 0
8066 1456 0
10291 21037 0
-15136 16882 0
-20205 2834 0
-22931 -7872 0
-13131 17397 0
10212 22472 0
-224 10626 0
21958 -14348 0
2230 9474 0
11501 -10292 0
-6483 -7368 0
-6136 3547 0
-828 17837 0
-2690 -22940 0
14489 2302 0
663 3172 0
-10742 -323 0
5 -15614 0
15034 22166 0
-4521 -7867 0
16982 615 0
10808 -20817 0
20000 6614 0
21524 -21095 0
-9031 -23694 0
-4002 13049 0
-3506 -3335 0
-12770 -14977 0
21570 -1768 0
-13254 -21889 0
177 -23424 0
-11403 850 0
9225 -22761 0
-10416 -2237 0
9251 -1745 0
23579 7831 0
5407 -22541 0
2066 13644 0
-9220 -7912 0
13705 -21589 0
-19654 -7517 0
899 -5231 0
-149 -18660 0
14090 6103 0
7313 14596 0
-3565 -6641 0
-20281 -10906 0
-8913 1004 0
22190 -21416 0
7493 21138 0
-23609 2473 0
10698 7112 0
-17086 -14321 0
-22761 23604 0
231 -3042 0
-23245 7149 0
-11773 13107 0
9361 -16932 0
10162 -10807 0
15953 -3433 0
-5559 17 0
-1878 4980 0
22044 -19583 0
18649 3305 0
-14920 -7831 0
13009 -15884 0
-4790 6913 0
-5816 -9890 0
5142 7010 0
-23775 1170 0
-7813 -20676 0
-17913 22245 0
-9001 -8810 0
12998 6597 0
2117 2175 0
15747 23748 0
-18202 -9091 0
-19717 6548 0
15979 -9108 0
-10358 15722 0
17645 -14440 0
6555 18468 0
12272 -7091 0
-17347 14200 0
-17761 -2381 0
-14945 23237 0
13446 -23632 0
-2831 14663 0
-15736 13343 0
-9603 16289 0
7432 10288 0
6656 4694 0
-19821 3256 0
-15787 14477 0
23546 9228 0
16514 -18322 0
15795 -12078 0
10491 20065 0
16774 3097 0
-13523 -18143 0
-23172 -4700 0
-12702 13059 0
17414 -9716 0
-17090 18311 0
-18810 -21642 0
-1660 -20442 0
15690 -6920 0
16542 3613 0
-1633 6081 0
2259 19180 0
-9353 16862 0
-5608 -15014 0
-20064 7916 0
-23598 -8107 0
19915 -19117 0
11324 20183 0
-23431 -5966 0
-896 -8018 0
-10713 10000 0
4216 9262 0
22076 22885 0
1319 -8335 0
-17544 -3271 0
-9506 -2552 0
6249 2817 0
10610 13617 0
-18933 16763 0
17035 -18798 0
-8045 -14748 0
-12278 4528 0
10106 17010 0
-12280 23238 0
13338 -17104 0
-15500 -21891 0
-12538 5959 0
3209 -13940 0
-14790 -19381 0
65 23745 0
19193 -8175 0
23039 -10664 0
11565 -6623 0
20649 -16441 0
-7826 -7973 0
17692 17796 0
-7626 17675 0
13478 -4169 0
325 -7816 0
4703 -6949 0
-22116 11528 0
-10538 -2474 0
-7446 -7815 0
-15162 -3202 0
-14635 3477 0
12743 3346 0
-22290 2890 0
-5876 -4781 0
-6521 13559 0
-18123 -10977 0
7723 16126 0
-5397 8353 0
20957 -733 0
-4108 22906 0
788 11417 0
-7741 -7351 0
9518 -21508 0
12391 9196 0
-18048 -23638 0
-11475 11808 0
-10388 2784 0
14581 -1703 0
21141 -6672 0
-19359 -13877 0
-12538 -19424 0
23259 -2054 0
7898 22654 0
7286 -21945 0
12916 -21276 0
19269 23081 0
-18046 -1799 0
15418 -12885 0
845 -724 0
6435 -23248 0
13189 -859 0
4498 4279 0
-6085 -10061 0
20108 3106 0
-19393 7273 0
-7983 -15197 0
22726 270 0
-5628 -2759 0
2593 -14430 0
-10059 13480 0
17348 -2654 0
6079 21712 0
-14456 -20255 0
-22354 4474 0
22920 -20583 0
-17457 7409 0
-3132 -10382 0
-20962 -8165 0
-23672 -20705 0
-18064 21753 0
9613 -21459 0
-11729 9058 0
16310 -17680 0
5911 -11388 0
16515 -20567 0
15589 7002 0
-19904 -23760 0
-304 -15229 0
20501 -3497 0
14735 -19951 0
-18824 -5831 0
899 -12213 0
-5724 -572 0
-1576 -10387 0
-17106 23744 0
23716 -21525 0
-5219 -3997 0
4436 -15411 0
12870 -18994 0
-17880 21797 0
-9793 -1543 0
17560 20419 0
-12138 4647 0
5725 15370 0
11685 2107 0
-8002 17788 0
-20553 733 0
5172 -16197 0
-15637 20561 0
-20660 -8591 0
7448 -23141 0
-5380 7097 0
18436 -26 0
11521 19556 0
15032 -22909 0
1070 -21082 0
-2866 -2930 0
-13875 14621 0
16132 -9319 0
12165 -11556 0
-11900 6831 0
5113 8329 0
20360 19893 0
-20885 -15239 0
-22516 -16749 0
-9672 -21430 0
-8620 18002 0
-2351 2754 0
23623 -10780 0
1126 5943 0
16591 -20967 0
16050 23638 0
-17690 -11723 0
17167 21722 0
17626 4791 0
-17171 136 0
-4794 -21596 0
-10540 14333 0
23173 22143 0
12290 -20264 0
21767 -14666 0
14634 -15235 0
23336 -15366 0
-6282 10740 0
-21844 -8543 0
30 -11827 0
-17513 4087 0
-6846 4374 0
3970 21940 0
7986 -204 0
-23310 -209 0
-1527 -2490 0
-2293 13569 0
-20190 -14002 0
565 -7667 0
-15852 -2351 0
-18517 6912 0
18955 12366 0
-4944 -12293 0
-4140 -21739 0
-4581 3687 0
1135 6402 0
8784 7772 0
4844 8757 0
-5401 -3907 0
13765 8612 0
13377 4767 0
-2023 17729 0
-5994 -14398 0
-16635 -19076 0
-11182 -1396 0
-18493 -18668 0
-3360 7347 0
2950 -5485 0
-1009 -1339 0
-1881 12394 0
20662 22724 0
-12194 21679 0
-3771 -13484 0
-21636 23288 0
8844 -10315 0
20340 22426 0
18215 -6912 0
-20361 5885 0
14064 -2619 0
-13529 -2856 0
21583 5692 0
-7084 -15390 0
-18345 -14406 0
1834 7589 0
-1614 16675 0
4639 13998 0
-8042 -13492 0
8531 8997 0
-3785 -17398 0
-22024 -14755 0
-5811 -10647 0
-3083 -4229 0
-16002 21113 0
-7935 -19392 0
23702 5619 0
23514 6472 0
5813 18156 0
-5411 -2565 0
-9448 -14486 0
-1521 912 0
6425 -16729 0
16708 23635 0
9083 -13840 0
23510 -8398 0
-2636 -12719 0
13703 -11162 0
-11803 -13256 0
-21692 -18914 0
8048 1947 0
4975 -638 0
-2924 -17447 0
-8370 -16185 0
4558 23303 0
3208 -19455 0
-8061 7285 0
21211 -14209 0
-11339 -14678 0
19441 15907 0
13841 -22776 0
-13293 -5581 0
3944 -17818 0
8680 -12962 0
-8214 20605 0
8033 19806 0
-3346 -19783 0
21188 23301 0
-22730 13857 0
-17172 14866 0
12009 -5558 0
20578 7756 0
20 10316 0
-5531 2310 0
1374 -16370 0
9729 -5361 0
8062 -14474 0
-4234 86 0
19039 19559 0
8763 10582 0
10399 -6302 0
-3564 17127 0
19112 -19168 0
-14040 3184 0
853 -16237 0
17934 -23283 0
-22757 14699 0
-20237 21009 0
-3456 -2897 0
18286 -20797 0
-13227 22594 0
21531 2713 0
-4796 18134 0
-8825 4978 0
-9260 8136 0
-605 6668 0
-10352 22725 0
9367 18301 0
-23327 9703 0
-7433 -22494 0
20330 10092 0
21726 14220 0
2988 17960 0
-2179 -10263 0
-10676 -17467 0
-12592 4426 0
-5554 13193 0
16659 -9519 0
-14766 -22622 0
13052 -8132 0
-1475 -17438 0
7608 -10791 0
-5566 353 0
-6462 -9253 0
-11240 12990 0
-23380 12186 0
12752 -12718 0
-7550 20669 0
19522 -1390 0
13182 -12734 0
6140 19057 0
18563 -4740 0
22971 -16310 0
11302 -4090 0
-19685 -21603 0
11730 -2652 0
-12463 13192 0
15909 -9220 0
-8351 -1448 0
-3213 1568 0
2782 17458 0
-12917 -19890 0
-17048 -16147 0
18216 -21401 0
8334 -14597 0
-22656 6716 0
12869 7160 0
7094 3221 0
9956 10069 0
5314 11045 0
376 -1765 0
-8180 -22468 0
-1088 -19145 0
21750 4757 0
-15621 5545 0
9378 -22423 0
-13215 -20361 0
-8193 -5882 0
20854 12829 0
-675 -679 0
18667 17839 0
9371 16312 0
13418 -4741 0
9685 -2059 0
13922 -2858 0
17461 7329 0
11716 -21463 0
6080 -5143 0
13282 -11103 0
21308 -3190 0
-12784 2943 0
-22112 -18150 0
12940 -11254 0
-10043 -15406 0
2434 19196 0
-20634 -2792 0
13795 10622 0
10779 20282 0
263 20763 0
15858 -18668 0
-8253 17951 0
11702 -22847 0
19602 -13304 0
23766 6971 0
7056 -22900 0
-11989 15283 0
17474 -12651 0
23788 12087 0
8020 17597 0
-12010 -2977 0
-17593 8194 0
-13892 -6398 0
11676 3526 0
10273 2000 0
23476 5039 0
18925 -3624 0
-5048 -19336 0
-5120 3692 0
-2764 21366 0
23483 -20848 0
-8559 -19262 0
-13572 -19122 0
-21468 9654 0
6901 15226 0
-20658 -17914 0
775 -7353 0
-12680 -19645 0
-8858 -10718 0
-6538 -8134 0
-19710 -16972 0
-20509 -21053 0
22336 18865 0
9016 5975 0
-13802 3804 0
-12046 -4423 0
-6650 -13939 0
10710 -16012 0
-22145 -21454 0
-17054 -16405 0
-15406 -9881 0
-428 13007 0
-20788 -16344 0
-22572 -8644 0
-6326 8964 0
2234 -14979 0
5988 2870 0
9331 1877 0
-7914 13135 0
22543 9651 0
18872 -7806 0
-10899 -923 0
-19188 -12258 0
4929 -17335 0
20032 -3836 0
-14558 17466 0
21096 13798 0
-18420 -21195 0
23506 -4201 0
-11622 7070 0
-7082 11412 0
-19115 22354 0
-10851 -18598 0
19139 -9819 0
8947 1513 0
5532 -9810 0
9758 -10152 0
12382 -15798 0
-9797 19863 0
-19687 -527 0
7936 21112 0
-11072 14571 0
-6178 10686 0
15421 13600 0
-20586 21296 0
7123 -19452 0
-19005 5403 0
22460 -22517 0
21935 9396 0
-20352 -10828 0
-23543 3810 0
3958 -8096 0
-9172 19885 0
-22675 -2850 0
-13707 -11086 0
-18517 649 0
6405 -1805 0
6429 2999 0
-7053 6991 0
-20826 3504 0
-14352 -13225 0
16699 -23663 0
23599 14519 0
9407 7278 0
-8225 14186 0
-1946 -8386 0
-10161 6407 0
-5135 -19920 0
-16916 23741 0
-19326 -10927 0
7335 -15393 0
185 -15533 0
6040 -19773 0
23036 -5226 0
3437 18414 0
17182 -21292 0
18492 5942 0
-13019 22858 0
7821 12533 0
18669 -14356 0
6116 19310 0
1996 -11195 0
-21946 -16067 0
1482 -6049 0
18417 15331 0
-7365 -8013 0
23279 -16297 0
-5234 -5497 0
-18946 -6825 0
20724 9744 0
-5732 -21604 0
7452 -5462 0
23299 -1521 0
3572 6943 0
14916 8222 0
6881 -10388 0
-18179 -12929 0
5050 -18617 0
22042 -21349 0
-20965 3120 0
-1706 -629 0
-23791 14153 0
-19805 4268 0
-15758 5165 0
-17110 -16635 0
-9968 10726 0
-460 -6824 0
2717 -22795 0
6475 10782 0
19605 -21692 0
10688 -11372 0
3844 20279 0
-10435 -18113 0
10861 -22055 0
-15039 -6280 0
-16163 5508 0
-20669 -13559 0
19508 2806 0
-10965 4890 0
13433 7828 0
-17876 18478 0
-20857 -4565 0
10054 2118 0
-19192 -3803 0
-4162 -16717 0
-6380 15443 0
-16005 -11015 0
485 -2139 0
11706 -3822 0
-13840 16581 0
-1820 3619 0
-15317 17614 0
-3539 -12054 0
-16069 -6791 0
10843 20763 0
-16595 -8301 0
-14753 -8729 0
-5463 -10471 0
-13276 14629 0
16028 578 0
8404 364 0
-15231 3803 0
-11219 5238 0
714 -8440 0
1848 3409 0
7031 7500 0
22560 23091 0
23381 5282 0
3678 -10178 0
4215 13246 0
15549 656 0
2109 -22494 0
-7811 17527 0
-6074 -6289 0
-15396 5373 0
22941 -9728 0
-18152 -10007 0
23630 3433 0
-1069 23387 0
17945 20289 0
10727 -4653 0
-10279 -2048 0
-347 11859 0
-7874 2222 0
-23770 13653 0
-23649 6497 0
3478 -2573 0
23115 21243 0
-847 7632 0
10904 19727 0
-13401 -19256 0
-20683 5750 0
-22002 13427 0
12625 -5033 0
11500 -22432 0
8198 -5603 0
-22815 16409 0
2537 19366 0
-11826 2454 0
10445 -5518 0
11424 -18949 0
13966 8717 0
-18888 475 0
-21208 -16055 0
-14299 1729 0
-23687 22850 0
-20891 12384 0
8366 -22681 0
-14004 21908 0
-18429 -17612 0
-14752 20653 0
13394 -22060 0
-7927 427 0
12855 -6798 0
-7869 -4587 0
3875 20337 0
-5866 14596 0
-6523 22345 0
5170 -23417 0
17468 13184 0
11112 20850 0
-4544 8217 0
-8261 -3859 0
-13022 -19062 0
-929 3226 0
23761 22505 0
-4770 6403 0
-19277 -8613 0
-21872 -22289 0
-7381 -14487 0
1929 6469 0
21102 -4589 0
-16756 10337 0
-17176 14099 0
-780 19555 0
11703 -16823 0
8186 131 0
10470 -15453 0
-16682 2977 0
12575 -10707 0
-3086 -14321 0
1626 22258 0
1973 17669 0
9564 -2312 0
-3464 21586 0
-19000 -23247 0
21366 -6399 0
-14342 6557 0
5062 18960 0
-4927 17769 0
-15751 10463 0
-6462 18619 0
11423 -21305 0
6935 867 0
3718 14281 0
11345 21149 0
14923 -23528 0
-4322 -4300 0
723 11717 0
-16704 -15126 0
13885 -2625 0
1328 5855 0
-11910 17632 0
8591 -8188 0
13759 -1960 0
-22962 -18039 0
-11551 4921 0
-9111 18211 0
-14577 -20867 0
-916 -10472 0
-13470 -17582 0
22387 20962 0
340 5390 0
-21845 1186 0
22293 -17915 0
-17418 6155 0
483 13411 0
-4435 -17251 0
20901 7753 0
-2691 9002 0
23563 -14446 0
-18738 23407 0
22522 -6370 0
4495 -20649 0
-5041 6431 0
-10966 -11356 0
13431 -98 0
8549 -7661 0
1616 -2024 0
17859 669 0
-19992 -3335 0
3101 -14146 0
1456 22122 0
17476 -3311 0
15977 -20780 0
-14414 4842 0
14643 -5593 0
-15563 9415 0
9493 13149 0
20476 22027 0
-18225 9420 0
12335 21471 0
14770 -16820 0
-16217 17585 0
-21080 12841 0
1640 19690 0
18267 22248 0
-5410 10084 0
10530 -10833 0
17157 5645 0
-22947 10721 0
2220 -11981 0
8843 -3378 0
12273 4704 0
-16881 -522 0
15267 -8181 0
21718 18922 0
-2385 -17840 0
-9319 18750 0
-15896 -4206 0
-5977 18874 0
12543 -685 0
14032 10445 0
-13942 -8951 0
18920 1362 0
-21612 -12355 0
7319 -8523 0
7379 5274 0
19549 8914 0
9159 -7158 0
-8314 11569 0
2499 -2336 0
5392 1303 0
10209 -5950 0
11174 -19348 0
16429 1265 0
-5801 -18179 0
20297 23493 0
43 21920 0
16352 -9276 0
22368 -1768 0
17505 13920 0
-16505 -20805 0
1933 -16291 0
-12394 -19338 0
20825 4767 0
-9934 15913 0
-13327 -22170 0
364 13515 0
-15790 -5786 0
-7451 -1138 0
1068 311 0
23080 -11566 0
-22232 -4545 0
-5381 -2702 0
-21594 18586 0
-17382 10473 0
-13086 -13271 0
18656 15967 0
1854 -3498 0
3734 -6063 0
-13418 6640 0
-877 -17989 0
20489 -12487 0
-11591 18120 0
-14566 21184 0
21708 9085 0
20822 -18012 0
20805 -3153 0
-7677 9949 0
-16258 -6205 0
-5236 -13075 0
10535 2315 0
-10322 -18144 0
2922 131 0
-546 -16393 0
11175 -3457 0
2579 19106 0
12520 -3181 0
-9996 13385 0
5361 20364 0
12344 -11593 0
-10046 -15105 0
3833 -20660 0
7273 8060 0
-608 -5121 0
20875 15879 0
23168 -11351 0
20847 -10031 0
-7246 9308 0
-5740 -10242 0
-1298 14603 0
-1101 -4213 0
5728 18050 0
16241 17468 0
-1452 -22929 0
15810 17743 0
-1574 -1752 0
-3429 20581 0
-11107 3550 0
-2173 -20786 0
-19881 14619 0
-5507 -3995 0
-19395 -2756 0
-19040 -14975 0
-213 904 0
8334 -8736 0
-16148 1073 0
8033 1291 0
5871 1554 0
17670 10091 0
6990 -20154 0
6941 -16844 0
-15670 -23450 0
-20403 2602 0
-13967 -22304 0
-10047 17437 0
-5348 19003 0
-11360 11310 0
11817 4962 0
9647 22246 0
23770 -7228 0
22526 14765 0
7620 21651 0
3400 -3194 0
15069 781 0
-9217 -326 0
20207 18159 0
-5687 21412 0
11562 15191 0
14851 -20384 0
220 -1782 0
14852 20563 0
-19165 -13240 0
-7740 9937 0
-11325 -4995 0
-10374 23576 0
16176 7614 0
-3284 942 0
-13458 8778 0
-8114 13099 0
12135 -19610 0
-13122 19569 0
-18580 -9395 0
-9428 -18974 0
8173 -13313 0
-3519 23607 0
10681 -2422 0
10268 19314 0
-3909 -10197 0
20671 8407 0
10073 18166 0
8426 -449 0
13095 6065 0
-21864 -18974 0
470 -1212 0
12000 4867 0
11048 -21575 0
-7178 -11027 0
-16900 10545 0
6898 14389 0
18405 13788 0
-19087 -41 0
13286 -7296 0
-15840 -5106 0
-22198 -21275 0
12572 18877 0
-6660 -16834 0
4785 -17473 0
2944 -12309 0
8358 -23052 0
20175 -11243 0
15497 -23173 0
-10415 -21758 0
15614 -2013 0
-21657 14086 0
20798 -10509 0
3091 -12106 0
-21663 3966 0
-10006 11337 0
3902 -15308 0
23507 -19638 0
-8069 19382 0
-501 -6603 0
13724 19555 0
9351 19202 0
3801 -4828 0
-2698 -7206 0
17837 -18048 0
-2710 1818 0
-4596 2980 0
13942 4151 0
9896 11625 0
1833 2938 0
21674 -2195 0
924 -18719 0
-13782 -23738 0
7562 -2932 0
20414 17578 0
21023 -23087 0
-1782 14691 0
13778 -18238 0
-16003 -14442 0
-1476 -19970 0
8836 -7081 0
4038 -15079 0
17906 -11253 0
6047 -13261 0
-8891 -14048 0
-8700 -10564 0
-19015 -12883 0
-14632 -14951 0
8265 1644 0
23034 6634 0
7459 14489 0
21219 -17895 0
-8669 -2725 0
-21200 -13522 0
2395 485 0
17515 -14377 0
-1100 -15904 0
-17230 13987 0
416 -8750 0
6395 17312 0
-7760 -22218 0
17101 -6250 0
-21917 19882 0
-22145 -3549 0
-20152 23390 0
17941 -6337 0
-22904 -644 0
-13538 -23330 0
-13469 -7458 0
7430 18443 0
9555 16422 0
-2879 -13135 0
-1986 17288 0
22749 -17896 0
-8372 -8925 0
-22085 19370 0
-4296 12375 0
21822 2469 0
5670 23035 0
-10487 -4011 0
-20375 5305 0
11535 -11337 0
-7250 -3516 0
14838 -13658 0
18496 4518 0
-9933 -20277 0
-14600 -19498 0
21249 13141 0
-10998 6547 0
13967 6150 0
13446 -10639 0
-8193 -981 0
-12680 -18021 0
22081 23324 0
7141 -4062 0
20676 -21361 0
7711 7660 0
-12243 -4747 0
-14798 744 0
-18481 -10329 0
14786 -7762 0
-11719 -22068 0
-165 -9420 0
-13869 12574 0
8928 -16275 0
13524 -5017 0
16538 -17807 0
9381 -23436 0
6784 -1799 0
-10192 19835 0
22965 -23543 0
6469 14885 0
16941 2096 0
5912 17496 0
18224 -22467 0
-5415 7771 0
20109 -5276 0
20105 -16103 0
185 21330 0
9893 3428 0
-20852 -16037 0
-2082 -14907 0
-15102 21534 0
12867 22011 0
-15807 -3852 0
-3172 2178 0
20764 -16501 0
5583 -1984 0
14193 13659 0
-18971 15207 0
-19836 2784 0
7014 5118 0
-9289 -9957 0
17303 -13287 0
-1797 -11979 0
-4114 -7539 0
-15701 -2359 0
-2883 -14885 0
-21389 -10394 0
22634 8759 0
-16611 -8766 0
21394 -15798 0
-7872 -8570 0
12232 -18900 0
-20946 -17742 0
-8002 14800 0
9793 -4462 0
-6447 6540 0
1547 -6638 0
9067 -14791 0
7846 -20124 0
1290 21041 0
-3889 -10221 0
-9908 -14722 0
-1071 -4393 0
20347 20940 0
-21210 -3535 0
-5988 -5416 0
-16221 2412 0
-12213 -10981 0
13706 -22218 0
-22648 7910 0
-8483 -10655 0
5980 20911 0
-23074 -3585 0
-9764 10662 0
3428 -5823 0
-2240 -8240 0
14649 -8643 0
14238 -22095 0
12024 -16954 0
-11373 -4583 0
3766 139 0
22462 15538 0
-770 11349 0
-9433 -12966 0
10057 -9581 0
-5205 -17020 0
19132 21968 0
-7444 22908 0
21381 14163 0
-7806 -5968 0
-7902 -10451 0
-7815 -16346 0
19586 11673 0
10825 10953 0
8047 -17058 0
-12164 10735 0
8510 -5983 0
-6383 13394 0
-19326 14524 0
-1216 19510 0
-4345 -4234 0
21980 20218 0
11461 5611 0
-9129 13144 0
-8714 -11681 0
-14912 8570 0
-22968 -18765 0
3310 19170 0
-15073 22164 0
8573 9144 0
3931 -3169 0
-6349 15682 0
-23037 12928 0
-8743 -551 0
2901 -14560 0
-62 -7437 0
-8083 10012 0
6358 2689 0
-15526 19397 0
3191 -18511 0
8890 -10301 0
12713 -9659 0
-17742 -16496 0
13620 -21276 0
-5836 3603 0
1872 6966 0
-21954 18357 0
-8450 -17780 0
-4298 14718 0
-23418 -1309 0
-19985 4018 0
-2515 1958 0
-3673 -7707 0
-18448 19680 0
299 -12206 0
14704 -20439 0
19964 12470 0
-1758 4508 0
-3778 -14929 0
-8850 20026 0
-5372 17021 0
-16689 3467 0
12239 8056 0
-23343 7676 0
15401 18425 0
-4544 -20888 0
-4116 6133 0
-12561 9216 0
9063 1868 0
-22116 -8880 0
-10441 -21314 0
19212 -8032 0
12283 -15791 0
21826 21433 0
21051 6155 0
-11023 15690 0
-2797 23400 0
-2757 -23734 0
-8166 -3874 0
-3660 -18338 0
-15609 4309 0
13710 -11387 0
-1125 13317 0
-12741 -11519 0
-13664 14901 0
-9457 -2511 0
20067 -12693 0
13194 -13035 0
-17513 -13365 0
-12087 -10370 0
-23629 13718 0
15777 -17745 0
-18485 -23032 0
-18428 19047 0
21390 -17278 0
-3504 -12087 0
11069 9839 0
20765 9532 0
13590 22357 0
16741 20182 0
11037 8326 0
11736 6336 0
17437 3213 0
11287 -23728 0
7817 -12164 0
9601 -8 0
20437 -17205 0
23289 -21926 0
-22600 -16746 0
17871 10371 0
20065 -8387 0
10608 5210 0
7795 17247 0
-18361 15101 0
-8439 -5368 0
13881 -21449 0
-6202 13309 0
6926 -20692 0
-18358 -18194 0
-6558 -14870 0
11598 -12387 0
16110 -1997 0
17496 8301 0
-5409 23541 0
1497 4866 0
-12439 22727 0
10651 -13172 0
-5454 -11449 0
-13800 21526 0
-10745 4025 0
1947 4535 0
7256 -10185 0
5807 6111 0
13665 -306 0
22147 -14017 0
-19045 23015 0
-19703 -10603 0
-18197 3398 0
23099 -13899 0
-11891 5473 0
21890 16215 0
-2165 7217 0
21859 19546 0
15522 -11582 0
21014 993 0
-22981 -6798 0
-9542 3628 0
1891 -3712 0
5765 -6214 0
14318 -9263 0
9844 -22157 0
-12803 -9364 0
-8739 -15780 0
4088 22819 0
-7352 -15541 0
-3484 -22772 0
10362 15081 0
9921 -18308 0
-9621 8945 0
14269 12084 0
10489 -390 0
17438 -1018 0
4941 -19021 0
-17532 21645 0
-8781 -11945 0
-10491 8622 0
3795 20060 0
6721 9119 0
-4672 15874 0
19349 -6020 0
-9302 9445 0
23732 5852 0
-19234 19133 0
8055 -8274 0
17658 -2241 0
11548 -13164 0
14103 -20963 0
-15166 -6365 0
-19485 -4850 0
7677 -4874 0
5342 19163 0
-12725 8849 0
-18412 -12161 0
-11144 10516 0
19442 1425 0
-11147 -11530 0
-6455 -20631 0
19133 -226 0
20775 -824 0
-5475 5291 0
13615 3235 0
-8791 -21312 0
-19940 -12847 0
-1435 -20681 0
20858 23787 0
9362 -1346 0
648 2916 0
-16233 -15282 0
21579 23471 0
-9015 7918 0
385 15652 0
-20256 1525 0
-18311 -9280 0
-2004 20351 0
20061 17948 0
-1512 14460 0
19084 18255 0
-15444 -10090 0
-15947 17395 0
14738 -2385 0
2989 18345 0
7955 -16783 0
10001 866 0
-23182 15741 0
-17744 -18812 0
1933 485 0
15652 22707 0
-82 21680 0
20935 -15122 0
3769 -2216 0
-17460 -12566 0
5062 -19043 0
5348 3118 0
-13798 2311 0
2771 -9057 0
-4919 13901 0
-17757 5696 0
10508 15624 0
22134 5939 0
10441 3484 0
-12522 -22226 0
-2677 18865 0
6713 -11678 0
22915 -20778 0
-22642 -20411 0
-5226 5766 0
2444 -11993 0
21240 15909 0
-11696 -10294 0
-18226 -2792 0
5220 14400 0
12279 -5575 0
1193 -16346 0
-1924 -13827 0
-15409 -11657 0
-885 -886 0
21213 10370 0
-5109 1939 0
21015 -16338 0
4110 -10834 0
22499 14626 0
5238 10540 0
22067 -11423 0
7590 14646 0
1370 8689 0
-11297 2456 0
20520 19981 0
17207 23127 0
-14442 -16200 0
-9275 11242 0
-23183 -20402 0
13097 -21122 0
17059 -419 0
-21218 -882 0
10066 16675 0
17479 2255 0
-1996 -7168 0
-20096 -20440 0
17028 -10698 0
-5722 -12271 0
21898 7556 0
-9160 -12134 0
1244 -155 0
22571 -9505 0
-7328 -12340 0
19463 12972 0
-18592 6801 0
-16074 -23588 0
2257 14963 0
3374 -2796 0
-3617 -4045 0
17672 19085 0
6430 16905 0
10878 22083 0
5457 -14448 0
-16092 16328 0
-10418 19225 0
-11899 5947 0
7510 -17049 0
-8369 17234 0
-15278 21062 0
-18618 -7862 0
7580 8880 0
-19316 3073 0
-5067 15216 0
-17487 -6259 0
9808 -2647 0
11594 66 0
-3116 23202 0
-17113 13920 0
5425 -6927 0
-13532 -17043 0
-10016 19828 0
-21601 -1433 0
-15956 -11824 0
18260 -19282 0
-20301 -23216 0
-13923 -4120 0
-12198 -16222 0
11085 -16584 0
-13132 12784 0
9718 5347 0
6594 10390 0
18601 1469 0
-129 10446 0
8938 -22235 0
-22719 -15057 0
-9338 -17939 0
20163 6643 0
22116 19093 0
3178 20136 0
-5378 5703 0
6461 9452 0
-8730 -1236 0
19155 -379 0
-19168 20066 0
10084 -15675 0
20166 -13543 0
-18728 -13580 0
-16186 -9877 0
-18403 -17530 0
5750 21951 0
-770 22024 0
7630 11671 0
13052 -15806 0
-8466 -20879 0
-20525 18603 0
-19266 -15438 0
21580 9499 0
-9161 12871 0
6328 -6218 0
-14887 -20902 0
-20776 -15552 0
-1815 13793 0
-15481 14029 0
3657 19283 0
16149 15679 0
2694 -20081 0
15916 -21582 0
10593 -14506 0
19506 -5796 0
18588 -4356 0
-6126 22872 0
11181 21410 0
12273 4539 0
-5370 418 0
10626 -18423 0
19862 12181 0
8692 -6372 0
5080 -11489 0
10403 1972 0
11287 6595 0
2088 -16692 0
-7748 -18539 0
934 19970 0
-4317 -23085 0
17161 -12208 0
14011 -17892 0
1009 -5013 0
17538 -10538 0
11977 -6984 0
3512 -23331 0
5772 -5463 0
21490 3712 0
18973 -17897 0
-598 16748 0
21526 -8387 0
-20781 7156 0
5544 -2007 0
3297 -6189 0
-14648 -7746 0
-11128 -15321 0
11171 11584 0
21583 -18863 0
16167 -6896 0
15455 3361 0
-19818 -2190 0
19268 -5109 0
-10674 -18252 0
-12029 -20204 0
15407 2943 0
13127 737 0
20318 -10048 0
-9708 -22118 0
-19574 -6851 0
11418 -11924 0
-15641 7221 0
-15677 23703 0
22083 -14853 0
10228 -8421 0
16105 19386 0
-814 22448 0
-4987 -1331 0
13953 -10253 0
-18725 17325 0
-9896 -13651 0
9766 20628 0
5899 1399 0
23527 5528 0
23783 -4279 0
20401 -4794 0
1189 -9742 0
1817 22817 0
-11551 13245 0
2926 -4565 0
-9447 -153 0
13554 15267 0
6284 19313 0
-21194 19413 0
16386 -20928 0
16415 20241 0
-11771 -19395 0
1776 -20979 0
-11498 23031 0
13243 -3416 0
-11489 -12202 0
-20082 7282 0
-23411 11553 0
-282 -10134 0
12219 -19313 0
4027 -18944 0
-15729 -293 0
-23510 4629 0
-15184 -459 0
-21367 15464 0
-16434 8934 0
-15136 18362 0
-7414 10352 0
-13381 6334 0
6278 -175 0
-17857 -14801 0
10663 -12819 0
12236 11049 0
-14435 4703 0
-22650 5264 0
21325 11975 0
21873 23486 0
-11607 15643 0
-15145 11794 0
254 -743 0
-16609 8389 0
-16165 9943 0
-17502 6903 0
16038 -11461 0
1163 13870 0
-1496 -18617 0
-11785 -2670 0
-5924 14450 0
-12565 17936 0
-20750 22736 0
-21662 -5003 0
10399 19972 0
15998 -6758 0
-23279 -22642 0
-7454 -15827 0
8918 666 0
-18185 -12167 0
-10906 22452 0
18475 17925 0
-8077 -13287 0
-19234 -6149 0
-10095 -6218 0
-4229 20110 0
-415 -4020 0
5687 8416 0
7669 -14422 0
-19361 -16365 0
11744 -946 0
10229 -2511 0
661 4004 0
18838 -5255 0
-22248 4511 0
-22757 23573 0
-3072 17061 0
-11651 1499 0
-2029 7931 0
-6559 4818 0
10459 11370 0
18409 5686 0
-3012 -11657 0
1092 1600 0
20998 5635 0
12576 -1005 0
-16123 -11251 0
-381 -6204 0
-17267 4998 0
4349 -19541 0
11880 21704 0
16818 22541 0
-5002 -16466 0
-6427 2290 0
21376 -6748 0
14227 -7502 0
-1058 -8171 0
-1576 -10621 0
-13468 8880 0
-1531 22478 0
552 6270 0
-3438 -20130 0
-3600 11455 0
7199 10510 0
-2047 -13665 0
-14494 1507 0
-18528 -17372 0
-22981 8740 0
-9102 -20638 0
21439 -3615 0
20157 -10287 0
2592 -728 0
20781 -6916 0
1440 6080 0
1734 4924 0
-20832 21096 0
-17923 -15363 0
18585 21869 0
-3852 10162 0
22887 13738 0
3462 5290 0
-3878 -6286 0
21171 1538 0
-1375 10414 0
427 -17600 0
6556 7068 0
-23050 16647 0
6653 -20777 0
-15009 -15041 0
6125 8248 0
-7335 -19316 0
-15768 3022 0
-5189 -17159 0
-11887 -22903 0
5572 5702 0
-16203 5619 0
-15164 -13585 0
-17540 -7063 0
-1728 17774 0
-6300 -2906 0
-19583 -18877 0
-176 -17941 0
16725 18190 0
-22547 -13876 0
1978 22234 0
-9110 17671 0
19146 12184 0
7042 -9358 0
18899 9353 0
-14300 14244 0
-9351 15516 0
8938 16862 0
2152 -4457 0
-16406 12540 0
-4272 -8005 0
-6576 -5832 0
519 1893 0
-16342 6189 0
17685 17479 0
-6639 -818 0
23005 15811 0
-8638 -9640 0
-2887 -2516 0
-10772 -2660 0
-19913 11596 0
-1751 -2593 0
-22637 21434 0
-19542 -18939 0
11811 -15924 0
1212 4121 0
15001 -11086 0
-3983 11479 0
-17147 18888 0
17969 4178 0
2882 13937 0
9503 -17043 0
-19189 7677 0
20404 13975 0
-20443 -8645 0
3301 11090 0
-3967 -15048 0
-8743 11129 0
704 -5805 0
15293 22764 0
-3803 -4559 0
-17794 -1086 0
-16879 -22288 0
-20114 -14232 0
352 20867 0
-1765 -4328 0
-6225 -15509 0
6566 11425 0
-8514 4660 0
19046 -6037 0
17519 688 0
-8796 -23205 0
-22095 5570 0
20321 -18675 0
5725 8303 0
13144 4625 0
17127 -12716 0
-8459 -10831 0
14608 -14120 0
8881 2492 0
-14086 838 0
2106 -2545 0
21984 -15560 0
-18255 18454 0
-1534 -7085 0
-5272 -11107 0
17370 10078 0
526 -22101 0
-9335 12541 0
14289 14607 0
-11011 -2972 0
-5983 8334 0
8921 -12318 0
-1813 17454 0
-2588 16793 0
5398 23571 0
19838 22589 0
-11218 22077 0
9018 -4247 0
-22932 -10564 0
-19480 10573 0
-5679 -1811 0
-375 -22989 0
8538 -21564 0
20283 -22283 0
21494 17666 0
-1897 -3817 0
-15387 -5440 0
21848 -10282 0
11564 -6963 0
-12869 -3164 0
-21142 -12900 0
-22503 -9479 0
15094 3888 0
-11721 9904 0
-3077 10665 0
23771 -4058 0
-23181 -9033 0
-16228 16112 0
-8239 18921 0
2878 -18273 0
-16862 -1651 0
-4109 -9810 0
-19682 -17346 0
1212 -1749 0
-4991 9694 0
11804 -18948 0
5574 18485 0
15344 10815 0
21411 -13633 0
-19760 -13820 0
21309 -3121 0
-10758 591 0
491 -21778 0
-10540 -21952 0
694 -19176 0
-16991 10137 0
13058 12875 0
19665 2289 0
-4618 8028 0
-22607 -16467 0
1573 16532 0
16008 1176 0
-22650 22725 0
-10313 -1824 0
-14586 -20870 0
9100 -6852 0
-16241 3072 0
6274 5587 0
2287 2755 0
18707 21890 0
-11073 -7075 0
-14979 20256 0
-2215 -12732 0
-19490 -2883 0
3005 11643 0
-22272 -19344 0
-21688 -11351 0
-15965 265 0
-16196 -8688 0
20460 -9678 0
3442 8661 0
18571 20699 0
19613 -10081 0
11779 -16137 0
-14017 -11206 0
5934 14361 0
-1665 14058 0
-18405 -11700 0
-16308 -6480 0
-17232 2451 0
3595 -3549 0
-19606 12266 0
-956 1836 0
-681 -11219 0
21003 11028 0
9014 13034 0
-21544 -10846 0
-8126 1818 0
9998 -11363 0
21842 14723 0
-12694 -1615 0
-15509 -21546 0
-1962 2057 0
16552 3691 0
12104 -10085 0
-7106 21584 0
6 -10377 0
14349 -6009 0
-8854 -1720 0
-8642 -17765 0
-20234 15038 0
-4587 -18636 0
-21135 4336 0
12996 3150 0
-7104 -20865 0
22922 22360 0
9583 5407 0
-4149 15412 0
-22806 9753 0
8268 -22439 0
16750 10179 0
13554 -9937 0
3324 -6253 0
-21846 14071 0
18630 18224 0
-14472 -15053 0
-21637 -21079 0
11849 23676 0
-1527 -14731 0
-13344 4631 0
5344 -8076 0
19271 -19279 0
14815 20307 0
-8498 307 0
-18332 -11934 0
-22577 587 0
-9930 21941 0
-5995 3100 0
17694 18658 0
20724 10098 0
14871 -17915 0
-7586 8045 0
6165 -3903 0
-22705 5362 0
-16082 5458 0
-18144 -7048 0
-15319 -11333 0
-14858 21339 0
16708 8352 0
-4301 21044 0
11468 -1015 0
6669 -10159 0
-12189 -10346 0
16987 11657 0
-2382 6357 0
-12979 20524 0
1979 -22089 0
14099 2277 0
-22496 -10702 0
6868 -14505 0
-14725 22749 0
5337 -23456 0
-2107 -6839 0
-6630 23124 0
-2661 -10388 0
-8724 18031 0
-16606 12446 0
5523 2002 0
3730 6596 0
22029 -23496 0
1844 8420 0
-10921 -12129 0
-3697 6162 0
-12825 4602 0
7994 -12377 0
-17865 -1723 0
-21097 2619 0
10462 5407 0
7352 -2364 0
-10477 -18199 0
-17534 -23232 0
-296 18961 0
19651 -13485 0
8339 -3647 0
-13394 -6419 0
22613 1926 0
5210 -4658 0
-5488 18406 0
5930 -18452 0
112 16074 0
-2059 -20602 0
1437 15342 0
1984 -14313 0
-21688 -20398 0
-19946 -13051 0
13653 -20234 0
-8003 -3212 0
-7621 -20691 0
6964 18797 0
22784 8028 0
-16208 18083 0
-14053 5241 0
-13602 2965 0
22852 10883 0
22314 -13919 0
9728 -14892 0
-22367 -9819 0
18821 -15768 0
-12543 -8101 0
14851 4226 0
-15356 17203 0
15655 -6228 0
-10025 10442 0
20039 -5019 0
-1311 -14382 0
-18805 6730 0
2602 15155 0
-13435 -3292 0
-260 -10822 0
19450 14209 0
-11690 -12849 0
21980 2882 0
-16055 -15364 0
3996 -3366 0
10354 1081 0
21976 20067 0
11538 -5642 0
-7984 18240 0
-11472 -17481 0
-7150 -4295 0
4419 8974 0
-11875 19814 0
-13083 -21265 0
21034 4643 0
537 -5164 0
-17909 10644 0
15015 -11537 0
-20023 -6670 0
-22352 -6948 0
-19152 4965 0
-1234 6046 0
241 -11109 0
-21845 7861 0
-17051 20135 0
-3195 9401 0
-1716 -23189 0
17449 -3078 0
11581 -12502 0
-624 -11870 0
2188 -21095 0
-10693 -14252 0
-15955 -15352 0
6334 -17109 0
19357 14751 0
8733 21542 0
-19489 15010 0
-7061 21366 0
-2279 18787 0
20965 -14359 0
-1951 823 0
22192 16778 0
14999 8812 0
-4492 18986 0
1284 15261 0
-7191 -10756 0
-18815 -6012 0
13874 -8690 0
-9829 -926 0
13977 -7183 0
19543 -6516 0
-16542 17575 0
4320 22493 0
18046 4181 0
10996 23358 0
13528 10636 0
977 10869 0
21374 -4787 0
-5738 -10177 0
22466 5774 0
-989 9141 0
-13451 -6778 0
2071 289 0
2758 -398 0
-20372 -12478 0
-18511 8041 0
12109 18891 0
-7330 -10869 0
6692 -6169 0
-15137 -16518 0
-5822 -10607 0
23699 8980 0
-16773 -9889 0
8300 -9280 0
9212 -18954 0
17683 6985 0
-12408 7408 0
7313 4471 0
-18950 12285 0
-23462 -15330 0
6120 -7468 0
14936 16171 0
23187 16799 0
20468 -20784 0
12991 -176 0
15934 -9770 0
-7158 -21958 0
-3673 -8556 0
4471 -2651 0
-3084 3189 0
-16527 11660 0
19212 11392 0
20254 -12167 0
-10935 -4621 0
-19560 3519 0
-10151 -9811 0
7086 -18353 0
-21181 -5592 0
5945 -23788 0
16321 -22376 0
-8066 -1337 0
2150 10092 0
-13681 11969 0
-15631 -20885 0
-10311 16352 0
-12690 -7242 0
11588 2721 0
-6240 7270 0
23679 6129 0
-19321 6057 0
11551 -18194 0
6216 -10804 0
-8291 -6324 0
-12729 11244 0
21416 20186 0
-12482 -9044 0
-8546 -2694 0
-17928 -518 0
4832 -16928 0
-12496 13468 0
18780 7308 0
-11924 5120 0
3248 21408 0
-12423 -7188 0
13135 8812 0
15879 -6731 0
16829 -8910 0
14299 23686 0
6246 15375 0
-21048 7758 0
12056 -8994 0
-22205 2245 0
9019 -7150 0
-4037 -10715 0
22935 1540 0
-200 -8003 0
9835 -5677 0
-9930 15322 0
-2550 13150 0
9272 1626 0
-5039 12855 0
-13297 -9768 0
-23104 10480 0
-13839 8732 0
10677 -14618 0
4264 16135 0
-6484 22925 0
-14641 -11645 0
-22045 -10122 0
168 11290 0
-22461 14283 0
-19247 -19434 0
13269 -15900 0
-14176 -9284 0
-6326 3286 0
20085 -21506 0
-19657 9681 0
-11622 3224 0
4147 -12459 0
13033 -6851 0
6176 6639 0
-15667 -13754 0
4158 12913 0
-5895 18584 0
11724 -18875 0
5993 -1156 0
-9012 -14321 0
2729 17030 0
18217 16702 0
17339 -12668 0
-7056 5204 0
11525 -1022 0
12716 22094 0
16093 19091 0
-14684 7304 0
-19968 20027 0
-8669 17021 0
-10536 872 0
4205 3513 0
-4371 -5065 0
5583 -21707 0
19321 19195 0
-13930 17980 0
22275 -16111 0
9070 -19012 0
-6036 2992 0
6596 -11646 0
-1194 -20597 0
-2397 21333 0
6336 -4265 0
-20222 -18141 0
-14898 1120 0
-13020 -21603 0
12521 22234 0
-18519 -509 0
7624 11927 0
9122 2317 0
9457 2697 0
990 20372 0
-1984 7827 0
-8955 10034 0
-18251 -8880 0
23188 -11401 0
-5655 10235 0
15204 13725 0
21466 4477 0
-4799 22691 0
6309 -16400 0
19696 18077 0
-13012 -9907 0
19516 18783 0
-19200 -9305 0
7097 18355 0
18064 -17920 0
4714 22812 0
3204 13587 0
16335 -8072 0
-7956 -5939 0
21447 -16399 0
21389 11340 0
-14307 6620 0
9813 -21853 0
-9909 16743 0
16428 -589 0
-398 18826 0
18012 -23529 0
4782 4945 0
-18643 -9736 0
16244 -21303 0
18373 -1916 0
-17683 -22929 0
-2767 -17389 0
12471 7311 0
-18067 -14062 0
-12904 19930 0
-16315 6000 0
10831 16905 0
5848 -21211 0
16190 -11977 0
13347 -22283 0
14045 3534 0
4504 -8817 0
2966 -18173 0
12216 -6112 0
14752 6165 0
7412 -7558 0
13185 -7203 0
-21131 7294 0
-23432 20963 0
2659 -8864 0
23582 -22741 0
19736 -20106 0
21146 3532 0
-22906 -19503 0
-13907 22400 0
16085 19591 0
-2740 4627 0
47 -13943 0
17168 1847 0
4357 18505 0
23721 -3710 0
-793 -13661 0
14478 1084 0
-12203 -791 0
12941 18251 0
-4921 22911 0
22222 -15891 0
-13828 -21160 0
-9146 -7277 0
22919 565 0
14236 -8288 0
7033 21048 0
-16084 -4823 0
-15652 -7709 0
-13760 -3456 0
-13652 3453 0
14107 22059 0
-7474 18790 0
-12426 5060 0
-22088 17463 0
-20273 -2351 0
1849 14974 0
21071 -5565 0
-5624 21928 0
4400 6990 0
2598 15289 0
-15964 -19749 0
-21900 3559 0
-1515 14660 0
-2117 -15768 0
-22165 -6198 0
-3993 9890 0
-21124 10093 0
17056 646 0
-15929 -13466 0
17628 -9838 0
6578 20524 0
-116 610 0
-14926 -5121 0
-7675 2253 0
-13624 -7219 0
-14690 -259 0
-22500 -18472 0
-8853 -3060 0
7669 8414 0
12520 9597 0
13202 5145 0
-16022 6157 0
12729 -14894 0
10810 21982 0
-825 21190 0
10470 -6676 0
13793 18208 0
21744 -17338 0
19475 11014 0
-12463 22788 0
-4143 22990 0
16871 -8498 0
1093 10979 0
-1835 -7126 0
-12426 -15800 0
1710 -17628 0
-21594 8022 0
-9104 -7303 0
11515 -12645 0
21222 -5016 0
-1361 -16196 0
-14163 -2300 0
19332 15653 0
5644 9238 0
11736 5731 0
-22573 1255 0
1058 23682 0
11908 -10937 0
13260 23035 0
3623 -20879 0
21668 -13875 0
18806 -16399 0
-6286 -912 0
5905 -23500 0
19455 -17340 0
18455 14742 0
23591 -16333 0
-6822 -16205 0
-4912 3257 0
5036 -7130 0
16677 -9756 0
10550 2671 0
644 2754 0
-1169 -1324 0
-20627 22180 0
-12670 -1241 0
-2657 23296 0
901 -10802 0
-9591 5093 0
-16509 21404 0
12123 -8283 0
-6860 -8255 0
-6385 16023 0
-4051 2216 0
14352 22967 0
-23413 18125 0
-4568 -15378 0
13828 16905 0
-15989 -4372 0
-6115 1496 0
13009 478 0
4568 13018 0
-2639 16796 0
-17732 5230 0
22422 2665 0
3697 13920 0
20176 10782 0
-14341 23089 0
-8243 -20277 0
-10509 -1806 0
9654 23358 0
1295 21218 0
12513 -7081 0
6718 -9420 0
-20361 21413 0
-8551 -17258 0
-9794 -16397 0
-4147 -5171 0
21476 -10401 0
336 7176 0
-4401 23058 0
1536 -18808 0
-19656 -4943 0
14473 -20325 0
16458 12865 0
-8562 22356 0
10852 7984 0
-13055 -20386 0
-13424 23390 0
22859 -21607 0
-12126 -6777 0
-5328 17124 0
6072 11870 0
21461 -20931 0
13914 21481 0
-7048 23118 0
229 22441 0
4512 4003 0
-722 -15540 0
3501 13710 0
-19605 -22332 0
-23139 13181 0
15656 -13040 0
-19061 -11995 0
13459 -18137 0
4839 -7304 0
19046 5215 0
-7875 190 0
-8361 3469 0
16745 -22364 0
13471 15005 0
-3903 -16030 0
4271 1935 0
-15687 -19182 0
18392 -16565 0
2753 -22142 0
13444 10363 0
7491 14745 0
21022 -22966 0
-17834 -9051 0
4935 19297 0
1443 19157 0
16425 20729 0
16583 -1732 0
-20420 -1238 0
-15649 -12562 0
10232 10665 0
-12150 22480 0
-22911 19111 0
-22413 -15646 0
-16291 11432 0
-13039 1958 0
9993 12418 0
-1703 2883 0
-13291 -2616 0
-4817 -6429 0
-3458 -3596 0
-17508 4263 0
15279 -3085 0
-5100 3464 0
14013 -10491 0
13266 -6693 0
-23050 15988 0
8696 12123 0
2790 19639 0
-20188 11192 0
12683 -12362 0
-21924 7288 0
4632 -22603 0
11103 17823 0
974 -4233 0
6515 7929 0
795 18851 0
-14909 -14763 0
-1742 18772 0
14575 23622 0
-2640 -1343 0
21817 18917 0
9315 -20641 0
4991 7797 0
15471 -10149 0
3650 12776 0
4890 -17663 0
-9372 -6717 0
-11143 -20360 0
13806 -15141 0
10019 13848 0
-10411 2359 0
16818 -4694 0
-21621 19778 0
-256 23653 0
-16914 2675 0
13383 -8387 0
-2691 -18808 0
-17054 15047 0
23111 4036 0
-15748 20861 0
-12500 7689 0
2391 -18719 0
19275 -7195 0
-2842 -2640 0
8205 -6853 0
16464 -22834 0
-17213 -3205 0
15359 -13287 0
4503 -12150 0
7392 21314 0
-14764 -21377 0
-3927 11626 0
-16928 -9607 0
-1452 8259 0
-21735 -15657 0
15743 20204 0
-19857 13357 0
-11373 2780 0
6929 -14388 0
-2804 6588 0
-4152 22005 0
-13229 -12169 0
6716 23286 0
13948 -8604 0
-1511 -3334 0
-8445 6728 0
-22760 -18056 0
-18840 -11274 0
-23574 -23433 0
-20062 -2839 0
4535 -5632 0
-13751 3261 0
-5356 -5162 0
8724 5114 0
-13657 21525 0
-13655 -20566 0
8300 -22865 0
13540 2435 0
-3755 -13883 0
23451 -2778 0
19642 8845 0
16842 -10717 0
12486 -14774 0
4103 -15316 0
2799 -5433 0
13699 13912 0
-865 -6070 0
-21291 -21951 0
-20091 -17645 0
16554 17581 0
5896 5987 0
12868 -11575 0
7951 9151 0
-8582 23144 0
-5189 16873 0
-12317 19132 0
-21754 -20167 0
17797 6812 0
-18062 1418 0
-23642 -19472 0
-16438 -20213 0
-1003 14483 0
11047 -2200 0
23285 -16656 0
5066 -15565 0
-4862 11739 0
3388 -20231 0
-16508 14839 0
15778 -21137 0
17509 18242 0
-7680 -16121 0
-21001 19794 0
18154 13600 0
12497 -2773 0
-13426 -10879 0
17690 -18148 0
-14471 -23498 0
19 -4959 0
3909 350 0
-5070 18762 0
-1182 16746 0
-5420 -14118 0
-15440 -15071 0
-2377 -9726 0
5727 18885 0
-22235 -2612 0
3818 7877 0
-1505 20873 0
-7969 1698 0
2242 -4085 0
15634 5764 0
14590 17369 0
15749 7155 0
-9528 16281 0
-18314 -367 0
18645 190 0
23414 15473 0
-15141 -13512 0
-5366 -14183 0
-17603 -13149 0
20615 -10297 0
5432 -8098 0
17063 -12515 0
-645 13363 0
5923 6854 0
5439 -549 0
8428 23507 0
-19744 -8387 0
-14467 -23568 0
-15430 -2871 0
7057 -7436 0
-14505 1985 0
-8796 -790 0
20699 -5735 0
-18740 -5104 0
18608 -22489 0
-22616 20783 0
-339 13141 0
12517 1386 0
8728 -22832 0
-15526 -8881 0
-20349 -5050 0
-16964 11880 0
10794 6967 0
9942 13869 0
8880 6431 0
8506 -8393 0
3841 13614 0
9015 17735 0
7279 7237 0
3114 -13779 0
6737 14882 0
-19171 -4668 0
19931 -1263 0
21547 -17551 0
20490 3266 0
22933 14499 0
-11597 4673 0
-8984 -14636 0
4667 -9208 0
-8111 -10972 0
4499 -10643 0
2139 5981 0
-9540 16726 0
-10776 18395 0
7330 -20170 0
8445 7523 0
-20271 -1111 0
23609 -7539 0
3217 -20205 0
16522 10027 0
-16720 -2378 0
-4809 -9860 0
646 -4010 0
16885 -21509 0
10535 -4194 0
21242 -21530 0
-20747 -6026 0
-22856 -19515 0
-7921 3641 0
7352 -23210 0
-422 -16042 0
-14886 15913 0
21492 -22696 0
19467 17018 0
19345 5840 0
-14140 17050 0
10599 14124 0
19914 -6504 0
-853 7104 0
-4143 2478 0
-18717 300 0
-1680 -14827 0
-6136 -23714 0
-14608 8286 0
-22088 -20975 0
-18954 -12234 0
-11573 -7146 0
-1212 -11188 0
-10035 -21530 0
11059 -5377 0
-19785 -7425 0
18934 21035 0
21631 1316 0
-15634 -10912 0
10564 -23549 0
-5056 14467 0
16593 -22584 0
-11848 -5891 0
8719 17682 0
22300 -14702 0
10610 -17767 0
23375 -4447 0
-8980 -7144 0
-6957 -13209 0
21470 -3242 0
-10949 -11851 0
-8916 6645 0
10654 5624 0
-21198 83 0
14717 -20054 0
-16161 5548 0
16217 -16100 0
3908 -4751 0
-17646 -6026 0
17809 607 0
-2660 18868 0
6161 122 0
3701 -22682 0
-10402 -22427 0
22830 -21854 0
7290 -4493 0
-14371 8103 0
12778 2227 0
-4708 -14761 0
-15776 6568 0
-11345 -17587 0
-998 -8668 0
-10312 12829 0
-13605 -1357 0
-7201 -17967 0
14767 -21544 0
21640 -17294 0
-5187 -15000 0
17139 15762 0
-20683 1426 0
-11723 6419 0
-2495 4228 0
-10044 6035 0
418 -2283 0
-12084 -5698 0
-9682 23673 0
-18503 -23032 0
-9207 -22557 0
-9621 18475 0
6260 13528 0
21722 3075 0
-19460 9180 0
-1407 -14939 0
-4195 21773 0
-22006 -9639 0
7753 8751 0
-8023 -18238 0
12512 1603 0
2822 17258 0
-22027 16765 0
-3710 -3409 0
-16422 -4700 0
5412 4511 0
-19588 10966 0
-4534 16457 0
19847 -12523 0
10458 5090 0
-17209 4547 0
-11025 3498 0
-2981 11320 0
908 7656 0
-3907 3344 0
-6909 -23037 0
-3277 -4259 0
22837 1571 0
5835 -17851 0
-10985 -18653 0
-12510 19833 0
1891 18371 0
14543 20095 0
-9832 19877 0
-17854 -112 0
23194 -12180 0
17836 23689 0
15608 2910 0
-6704 3873 0
15312 6276 0
-18094 15613 0
-17126 -12734 0
11028 5185 0
5475 5085 0
-14936 15376 0
22646 9396 0
-12435 -17123 0
16632 2077 0
12875 -3881 0
-20563 -3808 0
-23318 -5382 0
1141 20933 0
23099 -2248 0
-12740 2572 0
-22206 17496 0
-3230 -13505 0
-14546 -3718 0
-7143 -3987 0
-13310 -22864 0
-13544 13434 0
21690 -11563 0
-16570 3434 0
8822 -14892 0
9606 -8445 0
1068 9814 0
-15177 -11624 0
14942 -6773 0
3711 9374 0
22590 7878 0
-397 17047 0
8490 10196 0
6 -2366 0
-8392 -19681 0
-18274 -18095 0
18373 8685 0
22248 -12109 0
12777 18062 0
11767 -421 0
-8419 -11368 0
-7773 8524 0
13387 -3293 0
-6696 -11474 0
4362 12746 0
7456 -15403 0
19885 -6921 0
-17241 -3465 0
-11815 23160 0
-4699 -17495 0
3683 14920 0
16566 15856 0
20971 -7369 0
11030 19358 0
15977 -17198 0
-4240 -2629 0
780 7432 0
-21890 11363 0
-11452 -9158 0
21336 -12848 0
-14934 4028 0
17043 18977 0
-22575 1054 0
22548 22403 0
-7063 -2917 0
1563 1477 0
8013 -7574 0
-15461 -5695 0
21861 19021 0
20960 -5400 0
10765 961 0
19386 -12280 0
16283 -13789 0
15815 -17845 0
-4292 -21380 0
16770 49 0
-13845 -13222 0
-5540 -4815 0
9009 15035 0
5178 -16252 0
-2158 17955 0
17506 -10423 0
-15102 21201 0
-3243 22109 0
-17126 7648 0
3391 -4853 0
19426 17990 0
18323 -18460 0
-23456 14363 0
-18080 6338 0
-21440 -5218 0
3299 2926 0
-18867 11164 0
9375 3628 0
-6298 -5201 0
-2870 23701 0
-18650 20105 0
23435 -17565 0
-307 1243 0
16215 17860 0
21408 -2237 0
10259 -5343 0
-1623 3527 0
-6838 -16932 0
18799 -20486 0
9351 23303 0
-22187 -22435 0
-14026 -7193 0
15412 -14979 0
-12900 18736 0
-3326 -19199 0
21001 19555 0
1567 6702 0
-18645 -19932 0
-15520 1289 0
-12820 19845 0
17451 16008 0
-11371 3177 0
22613 5947 0
-6588 7675 0
4340 7133 0
17677 19556 0
9037 16644 0
-1494 5386 0
14395 -9181 0
23434 8332 0
-4012 -14523 0
-11570 4138 0
-19239 17774 0
-15168 -21927 0
-11690 -11018 0
-6210 2134 0
-9778 13886 0
19534 15831 0
5899 338 0
6636 -19785 0
22250 9130 0
10129 3388 0
-8360 9444 0
-10663 -20786 0
12070 -11978 0
-5698 11709 0
17212 -13889 0
7922 -15737 0
-20223 -17092 0
9902 -18228 0
-10833 13498 0
15564 3906 0
6605 -16817 0
14568 3975 0
7096 -17253 0
5588 -1462 0
-23070 -2015 0
16061 22315 0
-18501 117 0
-1881 10161 0
-15248 8408 0
-7899 -10351 0
-23700 -3654 0
21746 19510 0
8064 -17745 0
11643 -5669 0
23089 -13254 0
13102 18574 0
609 12055 0
-8218 -22564 0
18422 -12673 0
-19391 -19702 0
-4909 13766 0
-19557 -1787 0
11284 20048 0
-9325 1885 0
18380 11554 0
-12240 23426 0
-2688 -4324 0
-3923 13392 0
22232 21676 0
-3817 1798 0
16941 11490 0
4032 -164 0
18216 7758 0
-20794 5865 0
-1475 -10279 0
20076 14390 0
9841 -2328 0
-13876 -10289 0
23373 13687 0
-11218 -18898 0
-21819 10419 0
-14911 -18386 0
-6255 -5104 0
20878 -7333 0
11357 12417 0
-17073 2450 0
-7441 11685 0
22572 -13003 0
18152 -5562 0
11729 -20778 0
5853 -979 0
-7051 -18510 0
-13391 -1720 0
-3526 19527 0
-17761 -14018 0
-22550 -2221 0
-21369 7666 0
-15577 22646 0
15274 -2690 0
-6657 -1240 0
3281 6424 0
4626 7145 0
-20332 -3292 0
-4281 -14506 0
22960 12525 0
19230 -23266 0
-14384 21936 0
-21892 22992 0
-7644 -622 0
-17881 -22161 0
9931 -11902 0
-14214 -21290 0
-6555 -20373 0
913 3469 0
3910 8411 0
9239 19123 0
-4666 19994 0
-10370 -4947 0
-17835 21346 0
-16355 -16394 0
-7816 15322 0
-7555 23283 0
18938 -1858 0
-20106 9196 0
-12458 15513 0
-9320 -9 0
-15379 -19129 0
-15371 -6456 0
-18269 -149 0
15030 -14295 0
12696 -18271 0
9121 -20878 0
2094 9566 0
-19115 13595 0
-17942 22515 0
-14584 -21312 0
11639 8299 0
-23567 -16970 0
2140 -20852 0
-9659 -18397 0
-17724 8567 0
-1945 -5158 0
13806 16631 0
-8162 16823 0
13410 12172 0
-8584 21520 0
12275 10426 0
18159 21227 0
2320 -12476 0
10580 -15745 0
-14542 19315 0
2782 10959 0
16293 -13605 0
36 21484 0
-16716 -4761 0
-10086 -19488 0
-11809 -12205 0
16298 7326 0
-17544 -19946 0
-2424 19330 0
-4925 885 0
-21463 -18898 0
-20206 1840 0
-7574 19879 0
-2288 22961 0
-2214 2449 0
17191 11618 0
13622 9536 0
-5739 5619 0
-14747 -11457 0
-1950 1762 0
19348 -15018 0
-592 12070 0
21917 7521 0
-7837 -12409 0
-1549 268 0
-12792 5178 0
9163 6434 0
19173 20183 0
-14725 5896 0
-16031 8773 0
22878 -12724 0
-12092 -7899 0
7385 -21238 0
20545 -6012 0
-5719 -6935 0
23312 6859 0
19800 -23590 0
-3666 -8243 0
-9832 6742 0
-9505 -14552 0
10587 -3117 0
-14422 -23723 0
-22527 -9975 0
17224 23552 0
-1856 20435 0
21197 8528 0
3558 -8731 0
14059 -22257 0
5025 -4435 0
16098 18377 0
-17726 7082 0
-21040 -1599 0
-7274 21915 0
22362 17983 0
9481 -7872 0
4015 18373 0
1966 -2930 0
14978 5843 0
3236 -21196 0
-14026 -12157 0
-8774 4877 0
-5705 -2634 0
795 13204 0
14641 -3340 0
-19755 21554 0
-11330 -4008 0
3843 14231 0
-11160 4325 0
-2642 6456 0
-22934 13593 0
6043 -19574 0
15813 -3195 0
10852 3280 0
3245 13726 0
14915 1164 0
4772 2739 0
-17117 -9117 0
17378 22887 0
-5695 19295 0
-9179 -7411 0
-2700 -15636 0
-18537 16777 0
-12886 11638 0
10942 2273 0
13410 19909 0
-19563 -13130 0
-10097 6679 0
-8619 6058 0
8541 -15373 0
13587 21057 0
-22745 -546 0
9262 -14345 0
3464 7091 0
13788 -13607 0
7494 20622 0
-21224 4676 0
10729 12293 0
2310 6478 0
5842 -7723 0
852 -237 0
21454 -9171 0
21454 13811 0
8181 -21046 0
16322 23172 0
-12620 5412 0
14009 -3578 0
8168 -17269 0
-17270 3466 0
-4161 -22187 0
-21961 -10831 0
17698 15861 0
-20985 -18743 0
-20409 5361 0
-3810 -23671 0
-11496 13722 0
14319 -18447 0
8324 22419 0
8470 7606 0
18395 4939 0
1231 -19275 0
-19985 -15482 0
8672 -18572 0
-8186 -22035 0
20086 -5776 0
-19347 19209 0
-936 9346 0
-21805 -22666 0
-22530 -17831 0
9847 -12801 0
-7304 7476 0
21727 13132 0
20399 16373 0
20611 21284 0
21091 -12440 0
15721 4383 0
3045 -11388 0
-14784 16383 0
7906 -23315 0
-16426 -23498 0
-16436 20425 0
5152 9001 0
1808 -14035 0
-14365 -9234 0
-416 11477 0
5775 -13088 0
2232 17309 0
11482 -16576 0
3283 3936 0
-3813 18102 0
19509 10155 0
2382 -9015 0
-960 -23561 0
-16618 -21562 0
8100 -17745 0
1298 -11091 0
3057 -2975 0
9176 20078 0
-6424 21717 0
-21599 9405 0
-11799 6205 0
11275 23099 0
695 -19781 0
-18898 -1486 0
2610 -3016 0
-632 5277 0
21484 -15456 0
-15316 4498 0
1615 -2233 0
-20038 21972 0
-8432 -6023 0
19910 13376 0
-8204 -20624 0
-17888 12366 0
-1299 -5065 0
-5444 18154 0
-20272 -2415 0
-16027 -11922 0
4273 5819 0
-14872 -1521 0
11632 -13207 0
-21262 13620 0
-5802 440 0
-396 -17822 0
7533 17585 0
-16277 13022 0
-20170 -11438 0
-19287 11670 0
-10901 -9210 0
14550 -2851 0
5534 -3653 0
-11343 -2815 0
-23219 -19253 0
-6615 21815 0
-7150 1559 0
19295 21081 0
-266 -10963 0
-6035 -10400 0
22868 -19725 0
-14816 51 0
-22596 7145 0
17803 -4874 0
8078 484 0
5458 -2131 0
-12247 -18018 0
-14616 8007 0
-5996 21168 0
210 6369 0
-18132 -7753 0
13218 -15511 0
-13165 6797 0
-2938 23203 0
-3750 -3601 0
1630 20908 0
-15406 9869 0
2271 10932 0
7864 -22748 0
-15501 -23232 0
13809 -12365 0
-4183 -18330 0
11784 16447 0
-18691 2758 0
-22914 -3065 0
-8604 3854 0
7256 6364 0
10452 -19476 0
-6584 18118 0
20971 12074 0
-8440 -11901 0
22651 -984 0
14042 12286 0
-5706 -12256 0
-18038 -2768 0
-21838 1249 0
-21325 -4445 0
-15174 -10340 0
14359 -23221 0
-13187 -22852 0
-13220 852 0
-10965 7046 0
-12914 -20253 0
-14060 7357 0
22920 17019 0
9498 -21025 0
11693 -22795 0
-10554 -5390 0
-14085 23530 0
-11516 18874 0
15407 2730 0
1404 13677 0
19426 -5278 0
20557 -3543 0
-6680 -22800 0
23014 21103 0
8998 13127 0
-3609 15485 0
-19624 -12392 0
12950 11028 0
-3285 5824 0
10860 -8810 0
16316 3870 0
19182 3082 0
-6479 -10004 0
-14508 11234 0
7125 21755 0
-7993 1800 0
-12698 -11510 0
14215 21837 0
-15141 -40 0
2019 -8393 0
-10030 -17147 0
22548 -12032 0
-20442 6498 0
-10208 -18824 0
4298 -19275 0
-386 -19659 0
15116 -23271 0
-3949 6428 0
8364 13749 0
-20697 -11265 0
-15018 -21076 0
-18935 19792 0
16183 14210 0
13218 2212 0
-13286 -22737 0
21251 11234 0
21582 -11091 0
-16631 13940 0
21514 6426 0
-914 -2058 0
925 10891 0
-586 1560 0
23226 5269 0
-5263 6688 0
22143 -5440 0
-14419 19769 0
-15638 -6941 0
-7337 10060 0
17818 19065 0
4432 -10328 0
2927 -10735 0
4633 1102 0
-20332 -11471 0
4277 1625 0
16738 -14212 0
22192 -14683 0
-15578 -18965 0
8557 -10207 0
-6582 -23791 0
-2208 -8170 0
19625 4973 0
-16687 15027 0
-19548 3191 0
23201 -6326 0
12739 -15014 0
8477 6963 0
9935 22413 0
-6164 -10636 0
-17297 11308 0
10468 -8028 0
10551 -2696 0
20054 -2045 0
14282 8652 0
1488 -23184 0
-7294 -14511 0
-12088 -12226 0
-6293 7136 0
19919 -20021 0
14832 -15892 0
-6328 -7369 0
18166 -3537 0
-19457 -9860 0
12570 12262 0
20376 -53 0
12380 8527 0
16778 3981 0
23444 -13198 0
3077 -17872 0
2198 -3248 0
-2920 -8159 0
8963 17302 0
19613 -15011 0
-14717 -20970 0
-313 21150 0
-1864 21475 0
13796 -19199 0
-15627 -6474 0
12542 2187 0
15541 -8539 0
102 -8070 0
-22225 -20013 0
3210 -11820 0
3812 -22871 0
4248 17233 0
4682 -417 0
-7466 -7401 0
15498 -768 0
-1641 -64 0
3387 -3231 0
-211 3604 0
-8291 2163 0
9779 -8571 0
23267 22800 0
257 9197 0
9013 -11651 0
-14876 7650 0
-13808 -660 0
-14108 11777 0
17309 17664 0
-3315 -14300 0
-8827 4295 0
-11597 -4463 0
16577 -12893 0
6730 16590 0
16023 18857 0
-13866 23517 0
-13409 -16584 0
-11807 -18304 0
-4769 -21378 0
22802 -1584 0
-16809 9298 0
-5749 -18820 0
1029 6567 0
1181 3330 0
10703 -7904 0
-22186 -5409 0
-14493 -11402 0
983 -2658 0
21839 15651 0
14553 23533 0
2630 16037 0
-2148 -9502 0
1760 13502 0
-10564 9601 0
13732 17597 0
-12034 -7798 0
-4513 -2130 0
-15884 -2167 0
13269 -2859 0
4891 -11818 0
-18807 13694 0
20489 23436 0
10311 17044 0
17248 -20555 0
22330 -4784 0
16018 -329 0
15620 -1612 0
22392 -12186 0
-18397 2213 0
7166 21712 0
-5491 -15401 0
2222 21258 0
1072 -12048 0
-12096 4574 0
-7072 134 0
-14654 -555 0
537 -11695 0
5975 15729 0
1393 -3192 0
-19152 -19267 0
-16908 23584 0
13553 -3730 0
-2141 4838 0
4688 -16606 0
16644 -11961 0
-15625 -10063 0
17136 -9494 0
12631 14987 0
18104 -11971 0
-23535 8812 0
4958 -17696 0
-9373 -14638 0
-9829 -16696 0
3749 -15465 0
3634 440 0
18771 -5558 0
10000 -4901 0
-17526 14581 0
2832 -20780 0
18811 -2357 0
-7017 23582 0
16455 8875 0
-13893 9332 0
19026 -3519 0
20301 14447 0
-11171 4453 0
12131 19858 0
11963 10560 0
-15566 -18332 0
21429 -3442 0
-7440 -13228 0
18895 -4718 0
-3569 -8292 0
-21244 18697 0
-8554 -5415 0
-11777 -10848 0
-6244 -17946 0
-1075 21153 0
-17306 21893 0
-17789 10554 0
-8635 10874 0
-12958 17011 0
11795 -20680 0
-16025 -3262 0
16900 -18268 0
-20634 -16251 0
-20742 -22695 0
21717 215 0
-9104 18172 0
7556 -20406 0
-12066 -16537 0
-17957 1102 0
19774 -1183 0
-22276 6805 0
14597 5678 0
-7093 -17283 0
-87 -3772 0
437 2978 0
-12586 -15391 0
1740 -15591 0
-5737 14262 0
8084 17392 0
5905 2039 0
-12992 18498 0
14835 19481 0
11819 -10312 0
6146 -3444 0
5745 281 0
18694 -7335 0
134 22827 0
8786 -18306 0
-11066 -9403 0
-16878 -4984 0
-15875 1728 0
18904 17107 0
-8797 -5882 0
-2524 21297 0
-7423 12384 0
-16871 -9409 0
-5770 4988 0
-919 17674 0
-11089 -2519 0
-7697 13470 0
22656 -7300 0
-6501 12219 0
-10834 -8463 0
-19194 6824 0
6201 -4620 0
-8761 -6244 0
-1072 -20730 0
-4842 -19954 0
5328 9889 0
-5331 -8808 0
9747 1379 0
-18115 23156 0
12583 -14377 0
22662 13330 0
5586 2948 0
-14045 21056 0
5835 9028 0
-17787 -1594 0
5610 2741 0
18378 20999 0
17084 -21807 0
20728 4908 0
-2379 -1464 0
-20594 -14019 0
311 7554 0
-13021 16773 0
-14604 -3621 0
-21509 1108 0
8325 6287 0
-16879 18902 0
11346 -4437 0
12547 -20841 0
-14095 -8970 0
-9942 -17893 0
6989 13208 0
341 -20117 0
878 -14806 0
6921 -13470 0
-10258 -15800 0
17114 22689 0
-14892 88 0
-17929 10066 0
6836 15037 0
17727 -6454 0
13237 22800 0
13276 12390 0
-18650 6441 0
-10244 -11985 0
22652 21531 0
16124 15327 0
-6945 6576 0
-17458 -18143 0
-14810 -61 0
18001 9722 0
21629 16250 0
-1499 -17860 0
-13082 -19604 0
-23108 5974 0
6331 -23442 0
-12592 -10572 0
7109 -23718 0
-15155 -22502 0
-16347 13207 0
8283 18693 0
21163 -7008 0
9990 15187 0
-4542 -17632 0
16665 14847 0
4925 2438 0
-15737 12319 0
7227 16436 0
-19944 142 0
-18086 16853 0
-16459 7009 0
6666 1812 0
-4955 -8288 0
10674 -1308 0
-15897 16886 0
-9887 -10385 0
13821 7303 0
15923 21236 0
-8296 6950 0
10702 -13029 0
-8733 -1409 0
13127 -12547 0
-16505 -2594 0
-1761 -2511 0
13952 5322 0
21499 17068 0
-307 9924 0
-17498 -11958 0
8294 -6728 0
5862 17252 0
6544 21653 0
16332 -14678 0
14093 3150 0
20075 -9543 0
-12263 -9894 0
14427 -23354 0
8122 -19967 0
13341 -11526 0
-12066 -23509 0
-2972 -2142 0
-9316 3845 0
517 -1227 0
17888 -19146 0
-16081 17634 0
-18048 1262 0
21155 -18717 0
152 4030 0
5028 17898 0
17124 6498 0
6955 16483 0
23674 -22835 0
-12420 -19771 0
11063 23297 0
2944 20741 0
-10850 -2438 0
-22850 8534 0
9155 11425 0
-23298 -10633 0
-21991 14232 0
-18124 8452 0
-17810 -18341 0
22320 4332 0
21700 8521 0
-21673 -13647 0
23699 8957 0
7731 -15791 0
378 20039 0
-18527 -2085 0
-15424 1223 0
19680 6402 0
3657 11324 0
20175 -16424 0
-6225 -4064 0
14951 -10907 0
-16067 22110 0
16285 -8204 0
22784 -17402 0
5432 -22400 0
-13367 19565 0
-7164 10656 0
4775 2755 0
-19654 13281 0
-20417 -10396 0
5144 13231 0
-23263 12890 0
13958 -4457 0
-10170 -9231 0
20699 -21467 0
-17257 -21664 0
16642 -5337 0
23443 23692 0
3906 20111 0
-1018 -10059 0
14688 22914 0
3467 18460 0
11872 -11386 0
-6787 16893 0
3972 7732 0
21182 -2821 0
22884 6569 0
674 -22243 0
-16969 -23254 0
8893 -22045 0
11129 -15972 0
-9539 11749 0
-468 -11869 0
5366 -23084 0
-7858 4964 0
-19156 9674 0
4844 -16203 0
-14360 -11132 0
-5968 -21625 0
16563 -22189 0
15674 2563 0
21018 8845 0
5941 19105 0
-12404 22708 0
-21743 -6616 0
3339 12575 0
11538 -3363 0
22190 -7291 0
-21660 -21872 0
-20888 6988 0
3846 9927 0
17562 -20935 0
18699 12493 0
21688 -20852 0
4045 19822 0
8919 9133 0
1212 -20054 0
4798 12959 0
10874 -8849 0
18266 8811 0
1079 -6918 0
-18669 -1878 0
16437 -16156 0
-18368 -2455 0
-10673 -18593 0
15199 -7487 0
-15611 12492 0
-5046 -7876 0
1934 8007 0
-3708 799 0
-222 11682 0
5498 6356 0
-11946 19329 0
-17828 -12128 0
-12771 -11654 0
21183 16629 0
-8171 490 0
-18112 -4996 0
-13525 -12113 0
6047 9519 0
11341 -7151 0
-12585 683 0
-21591 17830 0
-23456 -22774 0
16038 3975 0
-23230 -6096 0
-18799 -16286 0
6693 19470 0
-7067 6353 0
-20156 -2015 0
-1927 9633 0
22418 11963 0
-2434 -5032 0
18032 -9540 0
13812 1527 0
-2426 21001 0
-9772 -5935 0
2879 6113 0
-6860 -10820 0
10036 -9386 0
17567 5720 0
-17986 20085 0
9507 -10215 0
9352 4740 0
191 3688 0
8225 -814 0
-9394 -7193 0
18446 18241 0
20693 14452 0
-15158 -10859 0
8113 -23182 0
-5885 19959 0
4111 4074 0
-23075 22083 0
-10435 18163 0
4019 -11498 0
-15929 7641 0
15881 15034 0
-15745 -19820 0
-7968 -6461 0
14260 -19573 0
-9068 5077 0
22852 16172 0
12930 -14220 0
5497 -181 0
18014 14160 0
7529 -2551 0
-23590 23257 0
5173 12266 0
-16985 -10528 0
-11492 -22406 0
13105 -16803 0
17976 18414 0
-22397 -21382 0
-21356 -19907 0
-20004 20246 0
1479 18941 0
-1721 -6462 0
-3422 14763 0
-15638 -7435 0
9669 20501 0
-16273 12515 0
-3896 -10713 0
4589 -23526 0
7578 2101 0
-20379 -16266 0
21877 -595 0
8962 1873 0
512 -9621 0
-8730 -21410 0
-11838 20691 0
10076 20178 0
3281 -19046 0
-11378 14392 0
-16666 4154 0
3655 -779 0
-10425 22953 0
20656 14224 0
-1594 11666 0
-3131 19054 0
-8281 -318 0
-12023 -12494 0
16302 805 0
-18719 -13035 0
4915 -20050 0
-23577 20669 0
2205 -3404 0
21068 -6926 0
21856 -4803 0
20145 -3928 0
7862 -21369 0
2955 -16315 0
-19775 -16640 0
22364 8447 0
4352 -11396 0
-7694 21656 0
11233 -10514 0
-1118 717 0
1046 -20197 0
-16851 982 0
-5249 -5899 0
-23179 -16838 0
-12785 6205 0
19181 684 0
-5309 -15926 0
16845 18158 0
-10975 -22945 0
9948 16012 0
-22391 -22916 0
-7689 6449 0
-8609 17873 0
-21869 1425 0
4127 -11910 0
-10698 16163 0
-2225 -16136 0
-21544 19942 0
22949 -11646 0
-17295 -12436 0
-4722 -4233 0
-3220 -22432 0
7672 -15989 0
17181 11920 0
-22609 10099 0
18837 -2347 0
8319 -9217 0
16823 -8726 0
12075 -18203 0
13019 4397 0
18000 -10154 0
-2249 6918 0
-5273 3832 0
-18540 -15922 0
-5236 -743 0
14037 23244 0
-4932 9843 0
19657 -13870 0
-22225 18006 0
-16608 11559 0
10760 14795 0
15478 13677 0
-6384 8310 0
6692 18531 0
20978 -15371 0
14618 11392 0
-22248 -14972 0
13135 7708 0
-16860 -7040 0
21518 15186 0
-3346 15157 0
-8943 8985 0
-18516 -20785 0
-18284 -5514 0
328 -6953 0
21766 -9288 0
-2822 8048 0
19489 -18547 0
22424 -7475 0
-1532 -9518 0
-3546 287 0
-10800 -20815 0
-13730 -159 0
-10824 -9726 0
17851 -14468 0
1304 -6214 0
-17920 18698 0
-2034 16099 0
11908 -23224 0
16742 -21824 0
4549 6158 0
21620 15256 0
-4900 -22070 0
-12671 20164 0
-16698 14496 0
-12343 4446 0
4531 4831 0
-15743 -2406 0
12810 -13290 0
-1820 11669 0
22889 5900 0
-15289 -2321 0
3166 -450 0
9622 -18356 0
8318 11842 0
-12186 -11187 0
-6685 18970 0
-8657 10968 0
16931 -12144 0
-18545 -14278 0
3367 17119 0
-23705 22088 0
-16232 -15107 0
11045 1571 0
-9296 -2275 0
-20979 -1540 0
3771 15750 0
4945 -18733 0
19847 19625 0
5827 2889 0
820 9156 0
17445 2099 0
16199 -12636 0
9741 18504 0
12130 -6207 0
13069 -196 0
-18576 -654 0
7546 6005 0
5747 -16103 0
-17538 -19495 0
20656 11192 0
-18866 -11869 0
23078 19332 0
-6368 8346 0
12958 16896 0
12117 -20934 0
-284 -653 0
-21470 8062 0
23634 19641 0
19382 10281 0
4239 -7416 0
-3239 21861 0
-19294 17540 0
-19260 -17132 0
6902 -17108 0
6416 -2234 0
-2787 -23618 0
18277 -12740 0
-17566 16035 0
-14092 15020 0
-20253 874 0
1769 -6722 0
20107 17110 0
-1067 -20062 0
-1646 -6285 0
-13353 -1348 0
15113 6017 0
23772 -14689 0
-19109 22429 0
-5161 13548 0
22520 -19711 0
22688 -7848 0
-927 -11871 0
455 23489 0
-6300 17905 0
-10336 4364 0
10624 -22789 0
4975 -19694 0
-1769 -1918 0
10810 8515 0
4739 2065 0
14243 5978 0
2904 4107 0
5351 -11721 0
12253 14843 0
4550 6460 0
-22769 10599 0
-20137 18766 0
18753 20655 0
-11310 -13907 0
11234 12420 0
7213 -13175 0
-11884 20286 0
1956 9452 0
-15182 6417 0
-4522 16369 0
21534 -589 0
7086 22264 0
165 17073 0
-11864 18265 0
-7232 -1574 0
8775 16049 0
7993 -10162 0
-6052 -13035 0
-16510 -14635 0
22825 1020 0
11811 -9680 0
-4421 17570 0
13171 4179 0
-20377 20291 0
18789 -22625 0
-1224 22472 0
21589 21804 0
-8090 11149 0
8205 7451 0
-15300 14517 0
-5227 -6451 0
8061 22022 0
-16776 17879 0
11627 9380 0
-12859 12589 0
-2865 -3451 0
-3007 23579 0
15236 1640 0
-2246 -11419 0
-11126 -8473 0
22171 19779 0
12595 -10759 0
-11018 16611 0
-6344 -18754 0
-4381 21350 0
-10136 -13527 0
14455 -1430 0
-8853 22567 0
9436 -10577 0
-14630 6476 0
-1173 -7778 0
-15082 -6990 0
-14714 18583 0
878 7507 0
4416 -21207 0
5304 21015 0
11440 13785 0
-9922 -13329 0
269 22576 0
19234 -11110 0
-10590 -12607 0
13422 20157 0
-14691 18986 0
-14246 7097 0
15941 -13469 0
-5127 6421 0
-18530 -9178 0
4518 7682 0
955 20136 0
18984 20293 0
3645 -8163 0
-15467 -3926 0
-22979 17647 0
4156 11022 0
-19131 -5175 0
13135 -2839 0
22284 -2341 0
-20730 11374 0
3287 17091 0
-6462 -7020 0
-5267 -22313 0
-15834 -23107 0
-13064 -13134 0
7799 -19501 0
14181 -2045 0
3864 6629 0
-11576 13940 0
-11783 2534 0
5031 -12472 0
562 -16138 0
12884 -10387 0
-13043 17896 0
15890 -14923 0
-2688 230 0
-10996 -2772 0
1458 -22596 0
1032 9095 0
-20597 6471 0
-14940 -1529 0
5 -3350 0
-21210 -11511 0
-8900 11505 0
23569 -22153 0
8967 -12526 0
-10367 -13379 0
-23775 9605 0
12558 -15736 0
-20839 20718 0
9375 -15419 0
21010 16475 0
4269 -17269 0
1414 7550 0
-14331 11175 0
-13046 -2056 0
-4952 -17293 0
9333 -14474 0
-6287 20085 0
10962 8468 0
14754 14729 0
19704 -19689 0
-3554 13486 0
-13875 12035 0
6391 -12861 0
-3666 -11911 0
-12019 6695 0
-1755 -13416 0
-734 10333 0
-681 -19256 0
-4329 -15559 0
-13783 -9810 0
-5761 -13043 0
10810 -16864 0
15109 -16071 0
4599 -2081 0
-5187 -23241 0
12363 12064 0
-16198 -10004 0
-20235 -1353 0
601 10823 0
7455 -8213 0
22768 14292 0
-14163 11112 0
12032 -1576 0
7026 -18351 0
-22518 -16490 0
-7747 21968 0
4833 -2820 0
-22609 -7189 0
17462 10344 0
18288 -10001 0
-14962 -7289 0
3715 7636 0
-17939 18861 0
-5058 -7023 0
-17018 -4684 0
11605 -8639 0
2264 2171 0
19161 -18290 0
-16702 5432 0
2436 -19859 0
-20368 12923 0
15370 -20519 0
8750 -21410 0
-11930 -12528 0
-10923 -1084 0
-17997 6696 0
-1512 14641 0
6293 -4150 0
2220 -3604 0
12669 255 0
-21963 10420 0
-1750 12946 0
13436 -7412 0
-7624 20914 0
-5773 -414 0
15911 9429 0
-3170 8790 0
22044 934 0
19540 -5962 0
3656 -13168 0
-5779 -20760 0
1558 4904 0
136 13029 0
-7555 1592 0
19340 16787 0
-6810 8178 0
4609 -19095 0
-15219 -23105 0
6794 22462 0
-5580 -16654 0
6999 6967 0
-310 -2694 0
-12540 11340 0
18610 -7450 0
-6694 10014 0
1909 -21212 0
11813 -3370 0
-8421 16983 0
-23052 6909 0
8779 1833 0
-17081 -2599 0
-9657 3981 0
-9929 -12025 0
17312 -15086 0
16534 13297 0
-11387 -3534 0
-20264 10938 0
13200 -20919 0
-12714 8600 0
13729 -20911 0
-6424 4689 0
-18645 -567 0
-13720 -7635 0
20520 -14927 0
-14531 -2034 0
-13844 13385 0
22878 6456 0
-19628 19056 0
19688 -3369 0
-6104 12492 0
-3785 832 0
15703 -22752 0
11191 -22586 0
-6746 19888 0
21535 10036 0
2297 -10059 0
-9175 11932 0
15093 -10200 0
4006 5553 0
11192 3731 0
22642 1389 0
-4423 2420 0
-1371 -11883 0
3277 -12913 0
-9137 -22783 0
17263 -21575 0
16228 -17843 0
-8730 1561 0
-8450 -5101 0
7488 -5330 0
10959 8152 0
-14884 -1483 0
-6482 -19770 0
14760 5559 0
-19650 2138 0
7047 -6203 0
4129 -14251 0
8989 8024 0
13993 -4216 0
-15698 -6286 0
9122 -1890 0
-17972 -13180 0
4866 -1046 0
13749 -5841 0
12021 2209 0
-20542 1816 0
-2040 12380 0
-12623 17019 0
-6019 14043 0
13202 -3243 0
14788 -5096 0
-19900 1964 0
1737 -10622 0
-19434 13688 0
-19182 -13878 0
13656 -23184 0
15831 -23788 0
-9161 -21548 0
17436 -4020 0
11327 -20605 0
1399 5959 0
6963 -16697 0
11126 -14172 0
7493 9328 0
-9178 -8891 0
-21743 23139 0
7145 -23428 0
-20708 11610 0
15971 -22068 0
-10181 2194 0
9898 9951 0
-4719 -16300 0
13028 20659 0
2318 -1690 0
-9885 -11471 0
-3569 3967 0
-22917 3191 0
8053 -18303 0
-6265 -15654 0
9479 -19785 0
-1955 15788 0
13936 -2509 0
-20697 22984 0
-12415 12111 0
4512 -3288 0
-23459 12336 0
-12642 -23585 0
-16025 -19582 0
-10415 4528 0
14689 -17288 0
11379 12424 0
-19853 6261 0
-525 10926 0
-4877 -12103 0
7495 -23371 0
4738 -10832 0
-4968 -12966 0
13429 -13019 0
20679 20395 0
6077 12796 0
-7418 -1689 0
4298 -17951 0
-23478 20786 0
3184 -17335 0
15075 1858 0
-23541 3092 0
16323 -9870 0
-15024 -12359 0
-17758 -21617 0
-10184 -16754 0
11893 -21417 0
-8156 -5794 0
17179 -5567 0
10827 -8550 0
-5920 10027 0
7099 -9605 0
-21382 1965 0
-8527 20650 0
20162 15380 0
23395 23022 0
-11574 5496 0
-20424 7916 0
14994 -18285 0
-17612 -7791 0
-14902 16973 0
4772 -2400 0
12335 -19459 0
-15158 -11774 0
-14262 4588 0
-3806 -6750 0
-7607 -11714 0
-8459 9959 0
18034 -15055 0
-21648 4658 0
-14082 2597 0
20615 12812 0
-10729 -12630 0
-21458 -8456 0
-11168 18919 0
-21276 7597 0
19699 -17566 0
3423 14151 0
16582 -21135 0
-15459 14946 0
-8047 20312 0
-9532 4297 0
20963 -20121 0
6672 9899 0
-7633 10679 0
8862 6859 0
14829 -5910 0
17345 8974 0
15982 -11773 0
1007 -4248 0
-19534 -17759 0
8597 6598 0
-439 7139 0
-12881 2813 0
-721 3156 0
8517 5758 0
-4690 16604 0
10331 -14456 0
-11317 10740 0
-21505 13657 0
14482 -11747 0
-11378 -18026 0
-20826 -789 0
5339 22455 0
-7065 14557 0
20909 -10824 0
-19314 2374 0
12218 18390 0
1732 21163 0
-3455 -10111 0
-6485 21878 0
21481 12881 0
-9721 -16601 0
8784 -19385 0
-12651 -20125 0
19094 -11947 0
20744 -21733 0
18209 -23494 0
-18089 2671 0
-14560 -10851 0
2059 -11433 0
22272 21038 0
11747 -2106 0
-4493 19866 0
-5217 -17671 0
6089 15964 0
-11998 -512 0
-7366 12711 0
12656 -17604 0
4504 14433 0
-2928 10344 0
-4617 15803 0
-8704 1191 0
-18285 -888 0
2875 -868 0
17422 12422 0
7331 19234 0
-21910 17625 0
19393 16953 0
-730 -2473 0
22347 -199 0
-2059 18874 0
-11812 -1364 0
13800 -4296 0
14671 6751 0
21972 -15574 0
-1777 3305 0
13759 -926 0
22288 6219 0
-11872 12513 0
16312 -11964 0
3795 9404 0
3063 14848 0
13189 15586 0
15032 6114 0
-3792 21333 0
-21093 20312 0
4866 -23667 0
-3920 23263 0
1074 -18840 0
-7454 -20098 0
1195 1745 0
20327 -18854 0
20540 2729 0
-7794 1349 0
-16179 -9844 0
-9123 -10865 0
-4598 -11281 0
-5276 -20112 0
-4141 9218 0
-23076 -19079 0
-12001 -17918 0
-1561 19606 0
-5266 13088 0
-5400 -11198 0
1437 -16999 0
15277 14224 0
-10725 -2565 0
16214 -9574 0
-9203 262 0
-5287 15476 0
2219 -9538 0
8058 -1093 0
-4474 8842 0
-21471 15854 0
8234 -4188 0
-507 16 0
6963 -14738 0
-23420 8444 0
-14133 -19214 0
-20431 -18731 0
-15319 -13724 0
5690 -22148 0
15300 -22381 0
11939 -23766 0
-4846 3414 0
-14995 22799 0
22788 -15694 0
16512 -8901 0
-19611 9241 0
9512 22972 0
-19273 7099 0
-19399 4756 0
14111 15418 0
19064 9611 0
13553 -18226 0
-15084 -20975 0
14503 -14624 0
-2118 9322 0
-4944 22203 0
-13502 4089 0
22342 -23315 0
-9480 18446 0
17787 -1406 0
14083 -7965 0
-8075 13023 0
13382 -20495 0
-1353 -19247 0
-2258 571 0
10730 -20913 0
-2376 -22828 0
5651 7803 0
-16007 -16612 0
-15692 -19617 0
-19188 -13635 0
-124 -14360 0
-8979 -11969 0
4712 5172 0
-1277 -16447 0
7542 9748 0
17175 -9597 0
-1252 -9178 0
-2537 3572 0
-7360 7751 0
10405 -17950 0
-22055 -15804 0
-16223 2896 0
-6178 -9332 0
22691 -21122 0
5894 -15823 0
22552 -3964 0
-8995 21938 0
-1077 23406 0
-6953 5204 0
-12846 -22741 0
19998 15965 0
10611 -10205 0
1080 544 0
3394 3797 0
-8303 -18263 0
7430 -15379 0
-19919 -16909 0
13620 -22023 0
-16783 15325 0
-20670 11621 0
-17155 16961 0
-4020 6239 0
7473 17179 0
18214 5564 0
3266 -22687 0
-4469 -6939 0
-21948 -12027 0
10478 -9113 0
-16856 -4698 0
-400 -10646 0
-10774 -1275 0
16036 18032 0
3827 -9620 0
-22388 -16226 0
-7514 3008 0
15195 20639 0
-5132 -2863 0
16361 -19190 0
23153 22490 0
15961 -3507 0
10888 22653 0
21446 -13029 0
-5650 10096 0
-1434 8762 0
21937 -1069 0
-1246 -16612 0
8362 -16180 0
-2387 -11930 0
-315 22834 0
11848 -4386 0
-2903 15157 0
21996 -12889 0
12901 -16041 0
10411 8237 0
18531 20485 0
-3080 -14639 0
-6388 -6187 0
-22670 1057 0
-18238 9179 0
1045 -1975 0
-14950 7495 0
5943 -3499 0
-5286 -14093 0
-5825 -14668 0
22675 -12641 0
4903 22491 0
1763 -6577 0
-21739 -4423 0
-5171 6754 0
14374 -10084 0
-14852 -16678 0
22250 16273 0
13501 -13099 0
21651 -18439 0
16687 -9732 0
22134 -3383 0
14446 -6410 0
4119 5305 0
-3792 3054 0
9064 13662 0
5404 17116 0
-22519 10455 0
-3713 -4291 0
-1473 -5056 0
-10995 7502 0
-13468 -15910 0
-22531 -7323 0
3441 12582 0
3806 23682 0
-10248 -15605 0
18038 -1121 0
23647 11622 0
12438 -5569 0
-5706 -22363 0
-6531 -18835 0
818 -22179 0
-15806 -14231 0
-20897 -20432 0
2489 7154 0
-21594 14844 0
5866 2762 0
-8484 18514 0
23609 -7763 0
-6743 1987 0
20287 1463 0
-4381 -1367 0
-11144 17894 0
12800 1868 0
-15287 -1406 0
-627 7336 0
23528 -7142 0
-6773 -3470 0
-5948 21792 0
11183 -14724 0
-21924 9243 0
-780 -7215 0
14264 13950 0
14610 -10901 0
18797 13662 0
-9807 -10978 0
-14923 -12879 0
-20530 -1003 0
-11289 -15952 0
-1201 -10130 0
6781 1351 0
13883 -4007 0
-14890 -21850 0
-4219 -19717 0
13878 14552 0
-6344 -1820 0
-2627 3256 0
-5820 16642 0
2650 -16664 0
21604 -2525 0
21819 2566 0
-23198 -15119 0
23408 -1409 0
-1137 2261 0
-10436 8189 0
-22602 4969 0
15956 17179 0
19962 -229 0
461 -16761 0
21488 12707 0
15575 4566 0
-8092 19077 0
1944 7415 0
5905 16422 0
21630 -1228 0
-9905 11169 0
5956 -3723 0
-7048 -21213 0
-7177 23705 0
-5571 22942 0
21177 -18393 0
-10714 15497 0
20512 -6346 0
13793 22813 0
23639 -7303 0
11944 -7224 0
-22062 21774 0
22345 -8357 0
-5169 8585 0
16109 21645 0
-18512 19386 0
-14323 3599 0
7616 20589 0
-17651 -19344 0
8545 -12807 0
-3496 14543 0
7000 -17824 0
-22917 14147 0
-20320 -6165 0
-8373 -4893 0
-20539 4085 0
-180 -1108 0
22247 16695 0
-3681 -21652 0
-1897 -18721 0
6337 22771 0
-5912 10113 0
2853 3097 0
11332 -16609 0
7916 -18423 0
19891 6551 0
-19714 11461 0
9607 10986 0
-16522 740 0
23572 -35 0
-13821 15696 0
1274 -12483 0
-23554 23171 0
11584 22110 0
2435 -22464 0
-14307 20313 0
15649 1389 0
16028 -20817 0
10251 18415 0
8349 -22197 0
1066 -7520 0
8454 10050 0
-20425 3501 0
6572 22271 0
12428 -4630 0
-20190 -8766 0
-15297 15870 0
23294 5910 0
18108 -16034 0
-17013 -14150 0
-808 -7951 0
-2128 -23309 0
16386 6856 0
17672 -15678 0
-11686 7074 0
-22565 5564 0
-23473 10609 0
3559 -5424 0
23362 -6218 0
2721 -5614 0
9191 6540 0
19911 77 0
5753 -15821 0
9536 -5259 0
8501 -4492 0
21863 22019 0
18885 -18226 0
8055 4950 0
-2824 -6898 0
4871 19667 0
-17881 -3683 0
-5372 12487 0
-19362 -510 0
-14484 -291 0
-4580 -8361 0
4160 -7746 0
-7496 -10441 0
12778 7197 0
20720 1891 0
11317 -14768 0
-12275 -18372 0
5785 -14 0
-7830 -19259 0
-20902 14280 0
18618 20740 0
18661 -8822 0
-22809 -10707 0
8353 140 0
23051 23054 0
-18141 -1409 0
85 1961 0
-967 -9730 0
-14112 16894 0
7403 19971 0
-17185 -17214 0
-19619 8449 0
-9085 -6842 0
-16733 -21504 0
-10789 4452 0
-1374 14418 0
22094 18900 0
5284 -14481 0
9080 -2501 0
-3062 11916 0
21968 19960 0
-21551 2622 0
10532 11349 0
-17711 10238 0
10299 -15662 0
-1785 -15897 0
-13951 18742 0
22967 11233 0
-18557 -18353 0
-8426 11473 0
20638 -21836 0
-1871 14016 0
19357 -8592 0
-5509 5317 0
13543 -5881 0
-11099 -12289 0
-11751 17994 0
6217 -747 0
11006 15811 0
13417 -832 0
-16538 4205 0
6018 -15378 0
-6257 -3865 0
-10989 10472 0
-2261 -4316 0
-18150 -5841 0
-5095 8423 0
7440 -845 0
-18349 -10276 0
23554 17718 0
-1295 12065 0
11602 -16328 0
-12648 18200 0
15569 22780 0
-9559 17850 0
-11903 18998 0
20547 -19754 0
20119 11163 0
-8393 -889 0
-7777 -12356 0
-2012 10151 0
13872 10060 0
-15257 -19540 0
-15844 -4748 0
-8130 20691 0
-1514 -2917 0
17770 1024 0
-20297 17029 0
20187 -23770 0
930 22226 0
17774 -5096 0
21971 19272 0
9288 22642 0
13032 -16337 0
12943 -491 0
3114 -2500 0
14846 4093 0
9926 -21661 0
7273 -2842 0
8344 -18983 0
-5146 8321 0
-21315 20478 0
8356 10439 0
21083 3955 0
-8725 19916 0
-14062 3322 0
11866 4473 0
14622 17885 0
1609 17901 0
23568 21570 0
14604 -8946 0
-13863 -8651 0
-4623 13460 0
-16833 -20675 0
11695 -18799 0
6093 -3984 0
-2462 -7615 0
-23531 16381 0
-15279 -2998 0
-519 10760 0
19835 -14554 0
-5126 14934 0
13377 -7495 0
2897 446 0
-14214 22689 0
-22160 4696 0
-18653 -6367 0
-21551 16461 0
-8965 11580 0
19487 4107 0
-1344 4550 0
-15173 5579 0
6156 -19163 0
-15105 -6442 0
14018 -22999 0
3412 -750 0
-5368 -12665 0
-4025 -6387 0
1232 16716 0
17135 19541 0
18066 2753 0
16385 -4654 0
-13032 -21740 0
-1612 3769 0
-4789 -8014 0
5322 -18608 0
-19557 -7050 0
-601 8904 0
4194 20621 0
-15392 -17518 0
-6657 -11691 0
10176 429 0
22579 4083 0
223 7884 0
-19768 -17477 0
-22577 -17168 0
-23785 17420 0
15111 15348 0
-4462 1242 0
-10118 -5647 0
5687 -14301 0
-23202 5076 0
-4405 22511 0
9389 22486 0
16376 4246 0
-22049 -17744 0
1472 -22203 0
-15238 -12437 0
18038 9286 0
15894 -11877 0
-18333 -5397 0
2986 -17888 0
18430 17089 0
-14663 12734 0
-6619 16804 0
-1819 4074 0
-12937 20996 0
21444 3848 0
12405 -129 0
2708 -13112 0
12483 -12989 0
1813 19959 0
-1701 -14088 0
-11664 -164 0
-15239 -14431 0
18406 -14012 0
-14486 12589 0
16468 229 0
13403 11331 0
-8919 17056 0
17821 -9263 0
5838 3943 0
5632 -20772 0
15065 -14987 0
-2164 194 0
11013 -16540 0
-7485 5435 0
15957 10337 0
9418 1172 0
15489 11764 0
-22793 6134 0
-15112 7677 0
16063 14329 0
19892 -6629 0
17056 1257 0
4667 -787 0
5429 22192 0
-10282 -17208 0
5620 13766 0
-19650 13460 0
10527 -17767 0
22161 -1466 0
-21988 -11355 0
18094 -20546 0
4844 19475 0
16277 -15574 0
11067 3055 0
6790 -1472 0
19365 -12522 0
-20694 -10248 0
17468 16014 0
-4106 -17499 0
-22943 14855 0
16706 -5961 0
-19425 12162 0
22535 8502 0
2928 -19298 0
-3116 22018 0
-18697 806 0
-11968 18642 0
-13381 6266 0
18379 -15821 0
5179 -11707 0
1064 22384 0
-17015 13103 0
-16413 8785 0
-2847 1218 0
686 -17691 0
508 13679 0
-9884 10768 0
7929 -14435 0
2628 2416 0
23391 -11306 0
11688 3666 0
18554 -5224 0
3110 12314 0
9600 -4039 0
-16021 8648 0
-4347 5041 0
22957 15832 0
-8923 6260 0
11780 17642 0
14374 6793 0
-1446 4243 0
22330 13620 0
23139 7755 0
-22376 -21439 0
7333 -1310 0
-1108 11928 0
21627 -6987 0
-339 4552 0
10511 6082 0
1517 12997 0
9036 -11522 0
-6074 21767 0
-1679 -3977 0
-3487 23519 0
8760 -9595 0
-7411 1995 0
7832 10237 0
18885 16317 0
-19212 22821 0
2400 -15634 0
18080 -16365 0
8993 -19590 0
18999 -9871 0
3572 -15611 0
6941 8790 0
911 -11905 0
-4419 -19578 0
10628 22009 0
-1570 20792 0
4806 -12332 0
12030 18191 0
20356 -21433 0
-6523 -23593 0
-19729 4835 0
-5970 -4315 0
20092 13913 0
-13369 1447 0
-9100 -15813 0
-20093 -4943 0
-22061 -4087 0
-15633 -496 0
12552 22296 0
4255 14194 0
-16715 -13213 0
-17509 -21119 0
-20946 996 0
-19101 6944 0
-18950 22980 0
2208 -9597 0
-15197 -17089 0
-3696 23564 0
-22167 -4632 0
11962 4068 0
16924 14205 0
11194 21721 0
-19446 12636 0
16234 -1302 0
-18553 -11566 0
16973 7343 0
-1790 23309 0
-3672 17978 0
-13465 8590 0
7405 -10423 0
-2963 920 0
917 -16018 0
8079 12344 0
3903 19121 0
-2463 3266 0
15837 11554 0
-17747 -22435 0
3364 5087 0
5355 15789 0
2988 -14477 0
6495 -20128 0
4449 9237 0
-18373 -15898 0
10460 -19674 0
23654 19731 0
20915 -16164 0
4865 -3378 0
-1888 1411 0
22418 -7604 0
6992 13818 0
1477 6039 0
2208 2337 0
-5724 -8133 0
15015 -8039 0
3702 11700 0
22984 -20713 0
2693 -19854 0
14811 -4437 0
-16475 -670 0
-13136 8492 0
21435 -20454 0
-17091 3389 0
6253 19872 0
-13079 6356 0
7838 5825 0
12442 -11237 0
-1344 -5370 0
22737 8239 0
23013 1766 0
-11797 20355 0
-11094 -19201 0
7535 18736 0
-17155 20221 0
20392 -11186 0
-10129 -7085 0
-9567 -7954 0
-4925 -8748 0
8083 -14393 0
19463 -20636 0
-12803 21088 0
9664 9017 0
-1009 8391 0
21001 -17241 0
23307 -8186 0
18141 1155 0
-1470 -3792 0
-14784 7378 0
17211 1195 0
21163 18916 0
-16711 -2931 0
-1631 -6345 0
-22425 -7746 0
9060 -7116 0
-12343 -7853 0
9006 13 0
18797 19644 0
-4093 -16858 0
-7638 13152 0
-21123 12625 0
-16106 7102 0
-3554 -7105 0
2248 1404 0
-17973 -19024 0
16889 11957 0
14148 -12835 0
-17057 7627 0
-3098 -21094 0
21481 11991 0
16667 -13714 0
-12953 -12622 0
-16618 -15375 0
872 -9355 0
-18688 -20641 0
-12986 -13221 0
3447 -14058 0
20318 7292 0
-3051 22244 0
2769 13338 0
-255 18005 0
10324 -13576 0
7648 22231 0
15302 3870 0
15077 -16884 0
20450 970 0
5984 21041 0
21065 17920 0
15202 -13265 0
-261 22501 0
13657 -12472 0
3869 19837 0
-18332 191 0
20075 18293 0
-18545 -8440 0
-10152 13928 0
12629 -22752 0
-1142 12212 0
2399 -20284 0
-9664 5747 0
22443 19501 0
656 14303 0
2813 472 0
-19616 -16355 0
19502 -14206 0
8004 11423 0
-14921 -16950 0
5220 8293 0
-2086 -14214 0
23578 -11878 0
-14131 -14469 0
-5334 -11518 0
-14026 8176 0
-18674 -7935 0
10377 6917 0
-20665 -9802 0
-13732 17292 0
-20548 -11835 0
11584 11971 0
-13106 11280 0
10356 -17876 0
19359 -18315 0
-4457 17884 0
-18076 6064 0
19157 11892 0
-10257 -1115 0
-3465 8241 0
11778 7940 0
22277 1325 0
-6268 3278 0
-23166 3065 0
13196 538 0
-11520 -13561 0
-4882 13819 0
6151 12801 0
-8219 -2697 0
-9052 6056 0
20040 -10114 0
5630 -19523 0
-20768 -14639 0
21892 -10806 0
-6101 -3238 0
-10628 -6957 0
-6225 -11956 0
13158 21642 0
-6068 -12468 0
14868 -15257 0
12070 -18351 0
21055 -3269 0
-18672 5610 0
20319 8466 0
-11982 961 0
6515 12195 0
19735 -17913 0
-8691 11438 0
12492 7624 0
-2785 18970 0
-18056 13698 0
-4672 -12373 0
-3443 -9320 0
-17871 8213 0
-9809 14971 0
-21491 1583 0
11975 -919 0
1735 -17954 0
-5245 -20858 0
16037 19840 0
16199 10437 0
13222 15446 0
22506 1446 0
-22544 -19326 0
-12304 -9640 0
-20806 -12181 0
14027 -7298 0
13001 -22704 0
-21786 -204 0
11841 -11493 0
22746 -5983 0
3697 -6544 0
-9358 4070 0
18416 18497 0
-20956 -18300 0
-20854 -22070 0
2169 -16148 0
-17507 11207 0
-678 -2176 0
-17800 6949 0
-8782 -15430 0
4955 6607 0
8841 -347 0
20255 6643 0
-7513 -19227 0
19174 2438 0
9970 19823 0
4887 -14144 0
-12115 -22264 0
11773 -23372 0
10010 -4995 0
-6110 7099 0
-6244 -2521 0
8084 -19537 0
-17637 481 0
-11674 17556 0
21236 116 0
1371 -19970 0
-1337 -6343 0
22094 -8471 0
-11456 21440 0
7112 -14113 0
-7848 -17003 0
-19375 -17843 0
15078 13989 0
-5949 16502 0
590 14756 0
14842 -22717 0
-20300 9891 0
-10538 -4449 0
-16762 3434 0
-9513 -2079 0
2526 -20853 0
21341 18379 0
-21301 -21027 0
-13530 1830 0
7619 4498 0
-3819 16312 0
16167 -19188 0
5419 -1266 0
2448 16343 0
22033 -23027 0
-7879 -1425 0
-19082 -21008 0
-17764 5721 0
5011 3899 0
6430 2562 0
18804 -6765 0
2072 -4077 0
6800 5877 0
6462 -5705 0
10020 -860 0
-21942 8333 0
-17202 -3192 0
10455 17831 0
21360 16543 0
18639 23248 0
9267 -22799 0
3593 20479 0
2699 -8389 0
6201 10121 0
4297 21633 0
16163 -20176 0
3190 11873 0
-3212 3593 0
-12459 -2687 0
18787 14013 0
-22223 22215 0
382 -13622 0
-7355 -14669 0
5854 21881 0
4833 -19683 0
346 -4496 0
11426 -19070 0
-17181 -17703 0
-20011 -2996 0
13983 -5850 0
4673 7381 0
-10590 15626 0
7760 -13863 0
-19725 14948 0
12644 4350 0
-1125 -10059 0
-20129 -15416 0
18292 18781 0
-21929 21294 0
-23638 -11857 0
-7768 23406 0
-19765 -17517 0
6613 15876 0
-23193 17841 0
-5693 -7437 0
-8373 -22456 0
14505 20152 0
12848 8426 0
-7522 10618 0
-7264 -14036 0
19622 3300 0
-15640 -16906 0
558 -2098 0
11899 -9155 0
894 -18961 0
-22025 7627 0
-620 -19220 0
-11754 20942 0
-1634 549 0
2115 -13464 0
-9069 17813 0
9841 9208 0
2211 -10933 0
-19944 -21973 0
-15525 9963 0
10948 -19280 0
19723 22698 0
18776 12779 0
-17651 13339 0
-12439 -18567 0
-17546 15696 0
-6707 -7668 0
-3029 -4915 0
724 11224 0
-8205 9425 0
-3655 -3969 0
-8656 -17485 0
13799 23383 0
12919 -14038 0
12382 -21551 0
935 1658 0
-18634 -3510 0
-1524 19549 0
21494 -6873 0
7211 12539 0
-6351 6116 0
-11003 -16371 0
20623 16823 0
4512 -6402 0
-20781 -4278 0
4995 9054 0
21668 11371 0
-23618 17473 0
4024 3660 0
23720 -21324 0
18755 -19785 0
10755 -3565 0
7102 -10709 0
8496 19317 0
21958 8351 0
-17229 -5849 0
18276 17501 0
14884 15296 0
-12474 11824 0
-1116 5351 0
9517 -1133 0
-18512 -21708 0
-6334 10535 0
-3485 13056 0
12191 -3481 0
-1957 4130 0
22192 -19386 0
-22513 -21972 0
12508 17705 0
20329 22646 0
15375 1245 0
23517 15880 0
-410 4415 0
19651 11044 0
-19794 656 0
-5603 -12543 0
19680 -15330 0
2800 -20422 0
-6998 -8271 0
-5207 23676 0
-5823 7996 0
20740 -10230 0
4136 -23274 0
12257 1437 0
-21845 -12787 0
-8685 -19232 0
12505 12122 0
-12238 -11015 0
14529 -5589 0
-6266 8001 0
23290 -8660 0
602 12412 0
17659 744 0
10807 19438 0
-144 -21076 0
-156 2293 0
22907 -14216 0
-10325 -3270 0
-20117 -21575 0
669 1948 0
-2917 -17756 0
-16975 -11268 0
-13777 7986 0
-10623 13453 0
16824 -16136 0
-10721 16813 0
19048 10892 0
-23728 20013 0
-11919 -17388 0
10316 -8649 0
1245 141 0
5792 -11091 0
-22533 -5639 0
-13512 -12885 0
-3009 21797 0
17245 -12354 0
15229 -16993 0
2574 -1703 0
-3711 -22725 0
-10748 11381 0
21188 -11236 0
-9493 15942 0
-9565 -12807 0
2184 -84 0
-8135 588 0
1762 -276 0
-18818 8912 0
5574 5072 0
-1354 -5844 0
20501 -995 0
-6994 19370 0
16298 291 0
-4730 1950 0
-14803 -15712 0
5271 1369 0
539 8859 0
3157 3413 0
16862 13557 0
23479 -10021 0
17799 -12449 0
-18997 2891 0
14018 -7945 0
-8882 -23530 0
-2987 -3750 0
-2270 -5306 0
-5445 6017 0
-12769 17251 0
18977 -16966 0
5444 1849 0
7933 -17791 0
-14940 -4451 0
-15216 21545 0
14159 -11347 0
-5508 -14999 0
15954 11468 0
19387 -17071 0
5315 4267 0
14698 -8160 0
18 17419 0
-7047 -15273 0
13392 13275 0
-7464 -22256 0
-22716 -16028 0
-17550 -67 0
-7251 -12259 0
-16196 2885 0
20082 -4419 0
-19326 5156 0
-12383 12322 0
-20094 -17876 0
13878 8740 0
-12688 -10095 0
441 -17427 0
-5908 -5487 0
-2459 -4232 0
11593 -21162 0
-16921 17678 0
1892 11962 0
15297 -17610 0
-5556 -1888 0
-21397 8809 0
-7746 18202 0
5647 13114 0
6670 -4955 0
-13829 5952 0
-43 23700 0
-21679 12168 0
-22886 6895 0
19491 -22736 0
1011 10000 0
2425 2886 0
-16170 -23240 0
8310 18714 0
-4008 -19989 0
12661 -7806 0
-21262 2757 0
5422 -13329 0
15754 18602 0
4220 6202 0
3933 8102 0
-9531 -14317 0
-8832 20791 0
5774 11011 0
-11587 238 0
9520 12877 0
-8484 20585 0
21001 19028 0
-13457 22210 0
-2144 3725 0
302 14296 0
14658 17283 0
-10952 -15308 0
17007 -12704 0
19619 16993 0
2222 -6703 0
-13477 6614 0
-1298 -1371 0
14134 12108 0
18709 3446 0
2167 -11208 0
8777 -18079 0
2728 19593 0
15992 -12133 0
-11885 22183 0
-15713 13632 0
-9400 20070 0
-10496 21378 0
-15174 14287 0
-3605 819 0
-20689 -23588 0
-22683 -21630 0
-5372 -17589 0
-22119 2632 0
12175 1243 0
10569 -4646 0
21098 -14465 0
-21027 12847 0
-15206 -5278 0
3794 629 0
22756 -12613 0
2542 -17028 0
21849 12543 0
-8479 12150 0
-817 -11306 0
18295 -9898 0
-22861 4158 0
19676 -18123 0
-4117 1110 0
472 9218 0
10208 13034 0
12705 8566 0
-18316 4225 0
-195 -17173 0
14947 17958 0
15299 -10125 0
20682 -19212 0
16040 3633 0
-13949 -9483 0
21420 20325 0
17970 20961 0
4043 -11743 0
-4391 -18325 0
10944 -208 0
-21902 -22107 0
-16628 15806 0
-18284 -6822 0
-7543 13248 0
-1852 -21202 0
569 14703 0
-4539 15554 0
9772 4025 0
-21578 20948 0
-616 11317 0
-17923 5629 0
9074 -10623 0
-12237 3470 0
-9447 20008 0
4180 20943 0
-19730 12882 0
7589 1164 0
-10240 -14410 0
221 21928 0
-8302 18342 0
20099 2809 0
-21881 6708 0
17662 -23678 0
10382 -14870 0
-2064 -1774 0
15819 5131 0
-17095 -6111 0
22766 4265 0
-17917 -15132 0
-12184 16357 0
783 -12026 0
-6815 21531 0
5674 -512 0
4753 2740 0
10178 -10207 0
-3219 -7609 0
-5250 -15114 0
17543 11162 0
-19878 -2073 0
-22846 15770 0
20955 -18205 0
-6060 9277 0
19833 12877 0
-5729 12357 0
14089 969 0
-9568 -20690 0
-9973 14991 0
788 -1847 0
-10000 -19544 0
-11947 1699 0
-22818 10962 0
6395 -6906 0
-1847 -15270 0
2306 13951 0
-14926 -21102 0
6313 7449 0
22277 13978 0
5842 -5766 0
17552 13452 0
2310 21326 0
16510 -17591 0
17863 1791 0
14483 -8278 0
-4517 7273 0
-14437 -3192 0
-19051 6336 0
-21891 20932 0
-10834 -18454 0
6975 20241 0
4762 9251 0
-16844 18920 0
-12988 18321 0
-6327 19052 0
-23263 5675 0
-6367 18350 0
16129 -20417 0
4741 12709 0
-3248 173 0
7653 -5770 0
-4313 -5505 0
9966 23141 0
-10263 -13602 0
13059 10866 0
-7085 14510 0
-22696 -19044 0
-2185 -2856 0
4620 -7584 0
17203 -12872 0
-4952 -6835 0
-7771 3883 0
-1326 11390 0
7587 -19835 0
-21873 11188 0
206 -12238 0
-9343 15580 0
21985 20938 0
-3905 -21153 0
-10474 -21077 0
-23498 16581 0
15245 12813 0
6960 -21393 0
-17829 16796 0
16353 -22866 0
15661 -18035 0
-8128 -14611 0
4026 -10163 0
14823 21779 0
-15708 -19273 0
16332 -2852 0
8268 9427 0
21492 -17891 0
5516 -18136 0
-2031 3118 0
18101 15493 0
-21111 4181 0
-8888 -9097 0
-18106 -23627 0
-6726 20405 0
-6521 -8536 0
4526 -4471 0
-663 11053 0
-2280 1375 0
-14150 -3746 0
23091 -4808 0
-2089 23275 0
-17299 14993 0
15559 4242 0
-1929 4569 0
5852 16848 0
21252 20685 0
21191 381 0
5967 18531 0
-7155 7185 0
7207 -11100 0
21750 -12716 0
10311 -20133 0
17405 -12619 0
-8482 -20626 0
20363 -13534 0
5017 -19182 0
23673 -21795 0
3331 -13409 0
-12257 -12045 0
-12404 8679 0
-20068 1544 0
1225 -12210 0
8664 -11068 0
-17335 -9976 0
-7129 2556 0
-3286 -19222 0
20126 9791 0
-18971 -1906 0
15688 10786 0
12043 -53 0
-8339 11798 0
751 -10824 0
19334 -19579 0
11371 -4223 0
-22079 5203 0
1164 3302 0
-10090 -3856 0
-11684 -16086 0
-17885 -21438 0
-6471 -12129 0
1480 5216 0
7233 10127 0
1578 -5805 0
-2464 -19687 0
-6968 -2640 0
-12083 -7830 0
-8857 11064 0
10465 8286 0
-10465 8229 0
9359 -3258 0
11372 21652 0
8258 -22982 0
11262 11415 0
17657 20851 0
-11871 12055 0
-9735 -7465 0
15323 -3344 0
13880 -4771 0
-1680 -116 0
-3003 -6527 0
-4939 -17486 0
-19893 19426 0
11242 -12964 0
5380 20491 0
7229 15710 0
-20338 5523 0
15 10768 0
17685 2730 0
-15639 -2474 0
8161 18254 0
-11180 12179 0
-8193 -8737 0
23544 10971 0
23586 -4282 0
-4078 -14765 0
2042 -8730 0
15125 13802 0
3845 7625 0
1149 12860 0
16846 -13951 0
13186 13601 0
22784 9286 0
-5002 20418 0
-8435 -595 0
-6944 6228 0
-10125 -14970 0
12188 -4205 0
8740 455 0
-14146 5310 0
-1080 11081 0
-15189 18171 0
-8106 -636 0
767 18300 0
-13806 16157 0
-11029 -13014 0
-3177 -16937 0
15876 21548 0
21829 -9939 0
-17615 -6986 0
-1302 19083 0
-3755 -4595 0
1209 -12736 0
-20856 -3572 0
22768 23569 0
-16960 18032 0
-13782 11724 0
23600 -13625 0
-1331 -7646 0
-6094 16214 0
-7217 -13332 0
21534 13475 0
17863 18002 0
-750 9253 0
-22084 15815 0
20890 3805 0
-7776 -15210 0
19643 13780 0
1626 -6442 0
9835 -3555 0
-7299 -16995 0
13583 -15761 0
-17966 11773 0
-22603 18917 0
-2679 -3896 0
-16265 -21798 0
1447 23311 0
-20391 21869 0
-8951 7972 0
-16203 -15119 0
9259 8724 0
-10007 11771 0
7746 13810 0
9765 10247 0
-21173 -7355 0
2003 -18213 0
23075 10251 0
20615 -10667 0
4709 -9525 0
-2802 -22603 0
17403 91 0
-20829 -10877 0
12170 1534 0
-10803 14736 0
3106 -16788 0
16409 12854 0
-16444 4738 0
-13910 -12749 0
23365 -4046 0
-17267 -23765 0
16019 15960 0
8113 824 0
11014 -10024 0
13039 -15105 0
2733 13327 0
5477 12388 0
4770 -19106 0
2908 16035 0
12953 3827 0
12696 11849 0
20924 -20514 0
6990 -7008 0
-12302 -15169 0
-7625 4505 0
12939 -6398 0
-18840 3573 0
-304 661 0
221 -2410 0
-4122 -5270 0
-14572 -11159 0
8253 -598 0
972 -11088 0
13635 -6669 0
20509 -20431 0
7430 -4443 0
-2768 -10263 0
-6361 12090 0
-22764 -4358 0
10231 -11794 0
22460 4825 0
8622 18177 0
22444 -4094 0
21832 350 0
21998 -11377 0
-20302 11544 0
3385 -5143 0
-3845 14243 0
4397 17409 0
6117 3364 0
-4228 12614 0
-15136 8085 0
-19691 -123 0
20489 -5536 0
-21781 -23265 0
3541 17543 0
18281 -23000 0
-17597 -19654 0
2595 10779 0
22889 8308 0
13722 761 0
-10911 20122 0
21193 591 0
-5769 1121 0
12285 -10870 0
-18715 -7360 0
397 12255 0
15640 -19012 0
-5955 -23047 0
4981 -17174 0
-9925 -22578 0
3686 17043 0
-16921 -17077 0
8462 -9250 0
3571 17951 0
3706 -6382 0
6689 20092 0
-13721 -6868 0
11946 19577 0
12327 14685 0
-12934 -10713 0
-13314 23532 0
11504 6199 0
16335 -7302 0
12006 -7206 0
-1203 -16213 0
14477 13059 0
-19015 -18785 0
-11456 -12445 0
15847 -17334 0
15274 -23707 0
9101 14685 0
-9743 13585 0
15420 -4106 0
-1085 -15898 0
12489 -11775 0
-16414 17667 0
-5844 -21517 0
13537 -7277 0
17882 201 0
-15794 6658 0
-20809 18497 0
20119 -10888 0
-6262 -10988 0
6433 -4876 0
-7867 -20918 0
-5011 17947 0
991 -10777 0
-6912 636 0
-5375 23290 0
-629 23580 0
740 -16481 0
-20464 -5520 0
-17309 -15781 0
19913 -21359 0
18196 360 0
-757 22416 0
11876 14163 0
-11343 -12825 0
-2509 20463 0
-9620 21288 0
-6735 10002 0
-4744 -10325 0
21916 -15947 0
17532 -10790 0
-12222 -18803 0
9114 6839 0
-2591 -15409 0
-10056 -11627 0
6492 -3719 0
20020 2010 0
10953 -4342 0
21690 12336 0
-15716 -20421 0
5392 5016 0
16969 -19184 0
-9049 9096 0
11943 16201 0
16434 -14690 0
-402 13018 0
10615 -15193 0
-3256 5562 0
-19261 6410 0
21188 23120 0
8856 -9271 0
-12214 -8398 0
-23277 276 0
19993 -9499 0
-22465 -22048 0
-13986 -2466 0
9226 19721 0
22276 -16917 0
1167 9679 0
-9918 9471 0
22237 -20954 0
-10440 21662 0
15959 4885 0
-5871 21057 0
15415 -21013 0
-15562 -3553 0
917 17635 0
-18732 -20473 0
-17138 -2346 0
3650 -10621 0
15373 -17177 0
-22033 -5315 0
1643 -6761 0
-16121 -11938 0
5893 12535 0
-19590 4800 0
-10056 -3172 0
13752 -4803 0
-6839 439 0
5675 13439 0
-12082 19573 0
589 -12359 0
-23777 -3331 0
-2286 4179 0
7907 11418 0
-23540 10093 0
-20583 -9495 0
-5274 -4159 0
-17305 15175 0
-23027 18424 0
8971 -21332 0
4308 17787 0
10143 -15713 0
-6750 9993 0
-15449 2905 0
17009 1963 0
-8960 605 0
-12252 17364 0
-7312 16421 0
-2500 3006 0
22378 207 0
-2931 6307 0
69 16443 0
-8036 8277 0
16331 4436 0
-23642 12784 0
-11014 -12806 0
-7061 6131 0
10578 13957 0
-1069 14306 0
-3302 -13980 0
-14918 12924 0
1987 13522 0
19903 9963 0
21147 15220 0
-6458 3932 0
14610 -15155 0
-19353 -18387 0
6884 183 0
-21399 13467 0
-14960 14518 0
13373 7705 0
3758 19632 0
-5475 4638 0
-50 -20789 0
13482 -16521 0
-1805 -8262 0
5598 529 0
-21161 6564 0
9555 9670 0
23121 -16839 0
91 5093 0
-13382 3292 0
-11032 21506 0
-11573 14981 0
-22859 19883 0
-3811 -15796 0
13167 -16924 0
-10477 -8479 0
20189 -21129 0
-22251 -3102 0
-18715 6869 0
-4870 7420 0
-21482 -16864 0
2125 -5254 0
12393 -7032 0
-13957 -22938 0
-22367 -143 0
21818 -7760 0
16271 -5100 0
-6553 -13926 0
-2375 18335 0
-23364 -11448 0
-22827 9562 0
-6144 -19642 0
-17340 -11715 0
-1203 15550 0
-11707 -14141 0
23238 -10657 0
-15091 11360 0
-10549 -3021 0
-14186 5498 0
20836 8186 0
-15933 -9236 0
-1675 -5867 0
-17726 -23476 0
-616 12521 0
-10252 -15316 0
-19106 8187 0
-14285 1917 0
-21866 -7611 0
22560 20120 0
23408 12569 0
12070 -22815 0
-11356 -21135 0
-2609 5078 0
16751 9035 0
15841 -11438 0
23053 -16547 0
-16793 -6414 0
-14755 5097 0
-12209 -11786 0
-9698 5738 0
-7130 -9270 0
19089 -21541 0
9872 6999 0
15184 20415 0
-8498 -20559 0
-2190 -13920 0
-5972 14471 0
14961 -7738 0
-1603 -4364 0
7303 5226 0
3493 4881 0
-5582 -10965 0
-21825 2577 0
3297 10158 0
-18661 -11378 0
-21954 13298 0
3583 -3500 0
4919 23552 0
1312 -19515 0
-8305 -16223 0
-5908 5210 0
-1945 297 0
-21057 9051 0
-18745 -18077 0
3661 -3946 0
19797 7058 0
-11206 -16985 0
-5516 11008 0
4498 8486 0
16993 -18855 0
12051 10333 0
220 21904 0
-13847 23283 0
-21672 -9999 0
10720 -20256 0
-5730 20760 0
-1703 7508 0
21789 -5019 0
23734 -11206 0
-10283 -16809 0
11739 -15893 0
6482 -5525 0
-2913 -2711 0
-2836 4938 0
-11031 -20461 0
21342 -5658 0
9720 -19310 0
-13421 -23332 0
7971 4745 0
17053 -23641 0
18915 -22556 0
-10371 -14091 0
-23091 -19901 0
-4260 10719 0
-23486 3441 0
16204 19370 0
6629 19122 0
-17915 -4067 0
6058 -1337 0
21139 -22544 0
9705 22927 0
-6810 19952 0
12767 17356 0
-19877 9286 0
4217 6923 0
-1104 -4896 0
5928 20490 0
728 20927 0
-19997 3461 0
-21740 9870 0
-14858 -819 0
-20396 -2145 0
-621 -953 0
-21008 18607 0
-14338 -15356 0
4755 18207 0
11030 17495 0
-20225 14435 0
-16181 1882 0
-23651 -13804 0
-23780 -9209 0
-12936 2597 0
5407 -7398 0
-19418 12416 0
-14629 4567 0
-11702 -1109 0
-18421 -16930 0
-10089 1350 0
-1814 7352 0
-1846 -5715 0
-19200 -23073 0
-7584 -21347 0
3816 -5225 0
7280 18374 0
-3486 -11288 0
-20692 -10249 0
-12059 16762 0
-8631 -9580 0
-8495 -20016 0
489 -8732 0
3115 7348 0
10260 -13775 0
-1434 -20576 0
-18221 6513 0
17685 12533 0
-14602 14775 0
11996 -16720 0
-9350 23426 0
-3267 2240 0
-749 15653 0
-23353 4113 0
-3380 12091 0
-13104 -312 0
-20034 16509 0
-28 5327 0
-21978 14331 0
10454 1458 0
-13335 -10195 0
-11236 12811 0
-6544 -21620 0
10563 19546 0
-10168 -4748 0
6664 -16502 0
-6728 7870 0
-3369 13783 0
16053 6833 0
-20858 21940 0
20873 -18483 0
-18687 -3501 0
-15583 -17102 0
-19867 -23002 0
23342 20728 0
-10871 -1230 0
-18700 -12328 0
18973 1105 0
-6335 -4859 0
19039 -12083 0
-21319 -18371 0
20407 -13588 0
18575 3717 0
18389 12223 0
2644 -11794 0
2954 19534 0
19485 -8068 0
21439 9237 0
6713 -5568 0
1171 -21202 0
12278 3640 0
16092 -23439 0
5840 1276 0
-18077 20335 0
18568 9079 0
-4407 5170 0
-21071 -634 0
17884 -8780 0
-21860 -4540 0
21583 -18264 0
-21259 13374 0
15867 18807 0
-6010 -1917 0
-13239 -18330 0
7874 -2460 0
-3384 -18795 0
10279 -14970 0
-20984 16658 0
17283 3996 0
-19234 -3229 0
233 20543 0
-21226 7459 0
-22922 23321 0
-18391 23429 0
-3500 3030 0
-12893 4399 0
-11909 -20625 0
-7742 -7776 0
-3316 -1766 0
5999 -22281 0
-5385 -19059 0
22205 6260 0
23610 -15036 0
-22585 19188 0
-14595 20010 0
-595 -7318 0
-18403 2671 0
-4468 -16796 0
-17574 798 0
-10400 4954 0
3257 -16918 0
15229 9204 0
-10964 1382 0
23499 676 0
-20104 12420 0
-19224 -17776 0
-9745 9272 0
1055 20482 0
-9779 1145 0
-16964 -20114 0
13209 -3683 0
21239 12229 0
6261 18916 0
9493 -21014 0
6350 -10403 0
-4703 -9217 0
-20751 14152 0
-19111 -17580 0
22648 13705 0
-11069 22537 0
3414 22457 0
-13796 -13895 0
18899 7851 0
-15802 -16586 0
-14914 3494 0
-17905 12379 0
-4092 -23770 0
21481 -3490 0
9996 -15119 0
-16550 20022 0
-9878 2500 0
-20808 22459 0
12065 -22902 0
-22427 -277 0
-9412 -8796 0
-15329 -12759 0
-11027 -10529 0
9140 -17145 0
12290 15264 0
1898 -3733 0
8511 12054 0
-17258 -6134 0
16966 5662 0
-12704 -21701 0
-11678 -19591 0
19632 14496 0
4975 5410 0
4138 4465 0
11014 -6942 0
-17812 -16083 0
-16621 -7660 0
-17343 5633 0
-12437 -7918 0
7175 7434 0
-13647 17783 0
23217 461 0
2865 22892 0
-22437 -10216 0
2155 11183 0
21921 14638 0
9108 -20391 0
-16667 2794 0
13843 12898 0
15887 -18091 0
-18179 -7944 0
19830 -2648 0
14427 -9760 0
-20322 -20866 0
10092 -5786 0
-4570 -10982 0
-14359 7927 0
21079 -2984 0
-9093 -19683 0
13178 11173 0
-1113 -20069 0
-16776 -12844 0
16053 9201 0
21245 6095 0
12399 7212 0
-5631 -19592 0
4666 -7426 0
16360 5229 0
-4942 -20644 0
-12651 22151 0
-20876 -23082 0
-7136 -20068 0
7489 -21845 0
-4931 -5966 0
11624 15890 0
20757 -5742 0
-9919 -250 0
-9202 1134 0
-10026 -11419 0
17379 -5411 0
-235 -9847 0
2634 16362 0
-8805 7456 0
-18350 20355 0
5272 -22391 0
9892 20702 0
-9061 -18990 0
18564 8871 0
21972 2965 0
-16654 -858 0
-21273 11326 0
9513 23115 0
-4713 -13942 0
23037 -11026 0
4693 7543 0
-3566 910 0
-20059 -22709 0
19066 23385 0
-23353 11514 0
-15055 -19766 0
-1444 13400 0
-20233 7049 0
-10605 3791 0
6958 715 0
-9574 -5967 0
-13807 -21635 0
-196 8470 0
-22824 7243 0
17639 8713 0
-16150 -1028 0
-15431 -6827 0
-11428 -10450 0
-13697 -12516 0
-7506 2789 0
-5996 -8238 0
-23789 -15899 0
11284 -12098 0
-15033 19508 0
17218 878 0
20910 20114 0
8701 -10360 0
15497 20978 0
15487 8692 0
5066 13711 0
-1173 -15484 0
-16487 4402 0
-20899 -21276 0
4017 -22787 0
23004 12741 0
-11570 -1701 0
23025 11825 0
-22050 -589 0
-10472 17979 0
5325 18928 0
8526 -18007 0
7994 138 0
-608 -6845 0
12580 20812 0
-6671 7340 0
-5194 -10770 0
22695 -11447 0
7089 -16622 0
20370 -5242 0
-8754 6857 0
19998 -1104 0
-22680 -12458 0
14744 -20412 0
18904 624 0
21781 325 0
14611 20770 0
-5814 -6132 0
14160 21310 0
-5452 129 0
-5701 18731 0
1097 12895 0
8097 10983 0
-13298 4727 0
8133 -9950 0
13808 -16197 0
-12020 -16975 0
-7899 -9271 0
-5348 15226 0
-987 3435 0
-9022 -22952 0
18583 -13225 0
-3419 11331 0
10843 8195 0
14523 -3637 0
-5654 -11372 0
3318 -3291 0
21825 533 0
-18138 -12952 0
13414 6396 0
1579 -18746 0
6204 -10503 0
7658 16435 0
8340 -17263 0
6569 19203 0
4885 -10478 0
-10312 -2459 0
-5475 -19855 0
-3359 14154 0
-16613 -12281 0
13488 22428 0
15862 9943 0
-14034 19905 0
-11115 3522 0
-18580 -9657 0
-8857 9511 0
-18800 795 0
-3390 18970 0
11746 12919 0
-3251 -21234 0
11915 6704 0
8306 -15365 0
-7025 -9789 0
-2424 11892 0
-1007 19565 0
-11189 14010 0
21304 -21070 0
9686 19547 0
6160 21171 0
15503 -14378 0
10248 -16513 0
15656 15069 0
-21028 -949 0
-22070 -4822 0
-6775 -7393 0
-19759 -21806 0
-22525 -15368 0
-1937 9588 0
5919 -6352 0
11778 2391 0
4840 -4315 0
-4192 -14051 0
-20941 7411 0
-7098 -730 0
-6382 14064 0
8747 -15337 0
4114 -19253 0
21177 -3117 0
-15393 -1338 0
20753 -8831 0
-16327 -4253 0
-18316 1139 0
17483 -8285 0
-1364 21768 0
1568 -22947 0
-7269 -14864 0
-1978 22989 0
11811 3398 0
3680 14027 0
-22807 18663 0
-7584 -9923 0
-6432 21810 0
-15016 -8203 0
3237 -16564 0
-9852 1956 0
15986 -7980 0
16205 19110 0
-8086 -18912 0
8252 -10422 0
18855 7120 0
9938 -9229 0
-5883 211 0
15543 -17952 0
-568 8820 0
6150 -21239 0
5169 -17447 0
-19850 15453 0
19282 -2965 0
-21384 13785 0
15589 16707 0
-12543 16436 0
2283 -13973 0
-8831 4822 0
7540 19143 0
-6931 14687 0
-6010 -11386 0
-4143 14260 0
-22330 16895 0
-22855 -8097 0
-4070 9856 0
-719 4165 0
-10120 -23526 0
11323 16681 0
3559 -20031 0
-17205 10515 0
-3173 16886 0
6112 -2642 0
3178 19223 0
-11134 5455 0
-21317 17083 0
-3323 4161 0
-19654 19992 0
451 11933 0
-20749 -9774 0
-6450 1709 0
11741 23577 0
-12324 22166 0
-12928 5514 0
18865 -8134 0
-17200 9401 0
-16080 8029 0
-9436 3332 0
-15754 -19758 0
5979 -10859 0
-20036 9384 0
-14247 -23062 0
-18274 -5507 0
-14702 11179 0
-6518 7917 0
14904 5339 0
8875 20705 0
-22578 11307 0
-21564 11783 0
-873 22073 0
5708 13812 0
-8560 6536 0
-10360 -17361 0
12465 16442 0
12677 4074 0
-1096 4158 0
14720 -15210 0
17519 -3585 0
-1745 -19900 0
10455 21652 0
18746 -1911 0
5438 -17295 0
-10890 -909 0
21098 23616 0
16152 -12509 0
23104 2654 0
-3183 14662 0
13242 18114 0
-7159 16446 0
-20277 -16124 0
-12175 845 0
17831 6192 0
-16265 5936 0
-16166 -15035 0
11135 13719 0
6760 -14159 0
16981 16909 0
5077 -5191 0
15559 11552 0
-12863 -1079 0
-18025 8644 0
18307 -2586 0
18775 -7117 0
-22363 -3480 0
11163 -3551 0
19216 -196 0
13683 -11850 0
22479 5088 0
-20685 -13882 0
-8852 10559 0
-19560 -11080 0
-22814 -4581 0
14022 9981 0
5342 9366 0
-4419 -20433 0
14749 9180 0
-6146 -200 0
18031 -4692 0
-19868 20491 0
16032 -13464 0
-14297 -12814 0
-2382 -8052 0
-4037 -16677 0
22625 18215 0
-10454 -1811 0
11570 -14577 0
-21592 3673 0
16482 -21697 0
-10793 749 0
-9369 -18148 0
3560 12578 0
-11158 -6040 0
-15904 -5708 0
-1076 7034 0
19696 2693 0
-17683 1169 0
-16744 19638 0
1114 22342 0
-9678 5764 0
14368 20275 0
627 2913 0
-5385 2380 0
2698 -15772 0
-5096 -21712 0
-4460 18695 0
-15011 952 0
-8032 -6962 0
-21995 17143 0
-22916 -21864 0
-19414 10415 0
9297 -20119 0
23299 22450 0
22408 19483 0
9192 -5586 0
-3841 5482 0
-7811 5203 0
4450 18231 0
11039 -4341 0
6828 16844 0
16033 15518 0
18114 -17937 0
14971 -21512 0
-16076 12786 0
-1592 -13092 0
13401 17978 0
-10319 21032 0
21050 -6519 0
-5430 7743 0
1455 -4304 0
11217 -3694 0
-8684 -1017 0
5917 6892 0
4417 2073 0
8900 -12725 0
23262 17886 0
11259 684 0
2694 -11019 0
-4703 -22533 0
20337 1825 0
524 21875 0
508 -1572 0
1443 -6844 0
-7726 -14664 0
11084 -8945 0
-22869 8137 0
22162 -17876 0
17769 17523 0
7704 -21641 0
-19879 -3968 0
-10731 20821 0
12694 -9707 0
-14288 10180 0
4976 5446 0
17974 -8546 0
12090 3873 0
-874 -14802 0
15146 15416 0
9773 -5365 0
-773 14064 0
-10754 12185 0
10983 -3344 0
8496 15296 0
23211 18678 0
169 14778 0
-234 2885 0
-22623 20199 0
4782 -20466 0
-22076 19109 0
10770 -14461 0
6476 7531 0
19306 14625 0
19326 -12223 0
-13897 -2048 0
-1581 10377 0
1693 -21066 0
-3744 15037 0
12626 6717 0
-8907 22131 0
-5324 -13503 0
-22232 -3432 0
20968 8852 0
7715 15692 0
13649 18199 0
5395 22311 0
23208 -10941 0
9839 4338 0
20089 20739 0
2451 -13884 0
-9057 14271 0
-8687 -5285 0
-22194 19719 0
-13868 6168 0
17089 2804 0
11245 -13737 0
-7939 -20324 0
-16540 17578 0
13371 21206 0
22586 -23641 0
-16605 -4324 0
-22242 14601 0
9004 17309 0
9121 16023 0
14853 812 0
17500 -12269 0
-797 -4015 0
15068 18299 0
13499 -19248 0
7499 -20534 0
7506 -12156 0
-13295 -16523 0
-12662 10545 0
-22842 -17113 0
20554 7011 0
13463 -10702 0
-7277 -13041 0
-18797 10064 0
4013 -15273 0
-11507 -413 0
3113 -1607 0
-4993 -378 0
18976 -19780 0
16341 7111 0
15648 -14110 0
-3772 -20149 0
-3408 -21291 0
-6842 -13859 0
2424 22279 0
9426 -169 0
23584 23756 0
-18699 22672 0
3787 4057 0
-10236 -13295 0
-18069 21733 0
9014 12489 0
-3402 6305 0
-8506 -7635 0
5734 -11502 0
926 -4206 0
-15137 -4654 0
-5582 23446 0
2773 3460 0
13715 -8888 0
22184 -12808 0
22545 19947 0
-9834 -14645 0
3499 -6310 0
-739 -2669 0
-19031 -20142 0
10795 -3939 0
3114 -3061 0
-6419 -2883 0
8362 -5545 0
15101 -20636 0
-7889 -16005 0
17082 16813 0
2770 19335 0
-12341 14550 0
8696 -22082 0
13617 20346 0
-22115 -19187 0
-22587 -15268 0
2167 -20801 0
-15738 -16372 0
6607 13111 0
-23765 -5012 0
-2417 12268 0
15498 18421 0
-1637 8037 0
20002 -6847 0
-16019 -9268 0
-8754 -9031 0
-14654 -5373 0
-21166 12051 0
9842 -7944 0
8711 -16249 0
22928 -18472 0
23103 -18607 0
-13063 12948 0
22287 7865 0
-1154 15734 0
-2272 15154 0
-23200 -1857 0
-8835 2425 0
-21382 16542 0
4646 22547 0
-12435 3100 0
-23602 -3255 0
-319 -23140 0
-19577 -19419 0
-3876 7982 0
-15970 -11436 0
-4211 15536 0
9389 -11099 0
20456 -804 0
12927 -16723 0
16030 -12930 0
13760 4586 0
12075 -19198 0
6718 8402 0
-1548 367 0
31 -14768 0
2425 8657 0
-12210 1189 0
818 -2795 0
-16377 13933 0
-8808 10420 0
-3034 23239 0
-21057 -5383 0
18967 7871 0
19317 -22732 0
13958 23113 0
6250 -18491 0
-19974 -12674 0
9806 22148 0
4044 -18649 0
-6618 -10204 0
-15137 -18263 0
-7741 -2999 0
3845 -5336 0
5298 486 0
15986 20298 0
23309 -974 0
-3207 -13876 0
9452 116 0
-22782 8394 0
-13666 23778 0
13345 -13228 0
-1073 -20569 0
-20759 20429 0
-11857 13179 0
-20648 21157 0
-15295 -6217 0
-18244 20031 0
2416 -1266 0
-22723 -10270 0
-1924 20610 0
-5773 -648 0
14239 8559 0
1757 -17241 0
-2483 -3469 0
13091 805 0
8321 8794 0
-15508 -4114 0
-13142 -3991 0
4469 12325 0
-19787 -538 0
-22514 7755 0
21726 3098 0
-13168 -18039 0
-6677 23395 0
-218 10398 0
-7784 22804 0
-22088 -14196 0
-20338 21832 0
12938 3589 0
-20320 20668 0
19829 -1183 0
-11519 18306 0
3084 -20493 0
876 -8017 0
16675 8779 0
-2964 -2552 0
-17575 -11378 0
-7168 20939 0
109 12206 0
7587 -15594 0
-14439 10638 0
4397 153 0
15236 -4081 0
-15128 23614 0
18247 -14081 0
10484 5674 0
9094 9329 0
7728 -16951 0
-13333 -16143 0
-20571 12933 0
-7100 20617 0
8066 -16558 0
8604 4220 0
-14193 12286 0
11880 -12420 0
4623 15951 0
-16071 -4175 0
-7804 12705 0
-16397 -20494 0
-8872 -17594 0
-21563 -4959 0
-21235 -9261 0
4584 15448 0
6955 -8077 0
22164 1127 0
-8640 1723 0
13739 18074 0
6983 17617 0
9899 -18671 0
8772 -13979 0
-600 -16429 0
9054 -1397 0
-15445 21583 0
16492 23508 0
-2651 3215 0
-22997 17941 0
-10975 -11845 0
-16124 -21215 0
-21455 -6992 0
12314 19386 0
1963 -16746 0
15403 -10941 0
2673 -1345 0
966 367 0
19924 1887 0
-13660 15613 0
21524 5508 0
15842 -17408 0
-4536 4842 0
12805 2325 0
10318 -7559 0
-22623 22252 0
2344 -2743 0
-14716 -13341 0
-22605 -5705 0
144 1342 0
7396 10225 0
-14624 12426 0
-12738 14701 0
-22647 -19554 0
-6895 10790 0
11183 -4557 0
9885 -1255 0
-21831 -4306 0
5160 16092 0
-9653 7155 0
17590 4375 0
20124 16920 0
11589 -23725 0
9983 -22146 0
-9592 2340 0
9205 -14530 0
-14919 -15109 0
14724 16306 0
-6900 -8074 0
6513 -11627 0
-7611 16340 0
-10387 -3788 0
11298 -7123 0
3467 1767 0
-7857 13164 0
-14732 22281 0
18831 5004 0
15226 22486 0
17045 4709 0
-19636 2927 0
-15011 -14122 0
8003 -14071 0
-9587 -4860 0
-19080 19363 0
-20594 -18610 0
10643 2326 0
-7361 -80 0
-393 -261 0
21542 15865 0
12575 -3255 0
-15350 12558 0
9182 13744 0
-7463 -4113 0
7029 -706 0
8683 10476 0
-1943 17191 0
4427 -13588 0
13910 3858 0
-9545 -466 0
-6432 -4375 0
5284 3780 0
7731 -19371 0
-174 11976 0
-6287 -21833 0
23369 -19069 0
-14093 22795 0
6958 -20060 0
2735 -14435 0
17425 4903 0
-4944 -17331 0
3685 9607 0
-17828 -10469 0
16052 -6904 0
22576 2883 0
6123 -13293 0
10662 8290 0
-16692 -6789 0
-21907 435 0
-15278 22237 0
16392 -7533 0
4835 7214 0
4030 23511 0
6294 3581 0
-3326 9073 0
-22467 19595 0
-4635 -2703 0
-7233 -21896 0
-11342 5977 0
91 12777 0
-4894 -3629 0
23737 15994 0
9294 -17838 0
-15366 16255 0
19715 -2917 0
7126 -6881 0
-7444 18239 0
-8006 15813 0
-23043 -21163 0
-15476 -3971 0
16574 20797 0
-3766 -15353 0
-19175 19556 0
14882 -10321 0
-20184 6825 0
-2126 -11025 0
13530 6480 0
13123 -21553 0
-4096 -10152 0
20276 7564 0
-20697 -21538 0
-20427 -4386 0
13548 -2936 0
17462 9937 0
-10579 20023 0
-16027 -13809 0
5798 -14093 0
10846 9513 0
-3299 -2648 0
-7225 -6472 0
10519 9909 0
-226 -23667 0
17769 17631 0
6295 -7959 0
-14964 -6744 0
18034 -5337 0
-2349 6943 0
-5479 -21646 0
-20706 -16168 0
7145 -16371 0
-17853 -13722 0
23239 -4723 0
-1976 -13889 0
-23718 -1637 0
21581 -15724 0
7086 -9710 0
23425 8820 0
-18843 2503 0
-5122 4821 0
-696 -2379 0
-10082 -11120 0
-2223 14116 0
-3255 -9749 0
2726 14587 0
-4387 10959 0
-16731 -1437 0
23126 -22876 0
-7235 -16783 0
15184 17645 0
-1076 -4175 0
-5901 -8205 0
15239 -12568 0
-22835 -8300 0
17287 17760 0
21986 2435 0
-13828 -4336 0
-22587 -23712 0
-13982 -4487 0
16501 -22433 0
-18738 -21694 0
-20362 12870 0
8664 21251 0
7797 -16013 0
-4315 11666 0
-7184 -10513 0
7258 22949 0
-14475 -15467 0
19251 17100 0
-23631 16 0
21568 15942 0
-1357 -16323 0
20285 -16769 0
-14539 -14378 0
11422 -23110 0
-1405 2557 0
8838 -5274 0
1509 4728 0
-16220 15519 0
21647 4615 0
-13391 15067 0
23003 -7618 0
-8122 14886 0
-4770 -7771 0
-15506 3183 0
13265 11070 0
4843 -9170 0
-17307 829 0
17773 13442 0
-6317 -18982 0
15240 -21012 0
484 17461 0
-687 1728 0
-10681 22302 0
-20961 5830 0
-10030 -9809 0
5635 9210 0
1877 -6435 0
9208 -6317 0
21191 16153 0
9410 -3084 0
-21351 -11376 0
12731 -3212 0
-12827 14407 0
1686 3962 0
17484 22913 0
-5115 9244 0
20759 19213 0
1386 2686 0
14059 -19984 0
1325 -16882 0
-19161 -9004 0
-2992 14844 0
12528 7789 0
-18188 141 0
5896 -3254 0
4432 -10906 0
-11916 12438 0
775 15697 0
-8802 -11994 0
-23615 18170 0
-3755 13781 0
1385 11129 0
-14621 23589 0
-13243 -22797 0
-7612 22657 0
20182 11755 0
-19702 9058 0
-919 -20084 0
15549 -17002 0
12513 18812 0
3747 -9794 0
-10715 -21425 0
-14504 -20362 0
-21400 -16770 0
-5558 -7826 0
15743 -5106 0
23474 9182 0
-13836 21421 0
19465 22927 0
12889 13706 0
-21778 -17315 0
-17165 -5236 0
17586 -2137 0
-17442 20384 0
3731 -11316 0
18828 15739 0
-2966 15918 0
-11064 -11105 0
4979 -5902 0
-15728 -12756 0
-11338 -9167 0
2535 -12652 0
5298 -633 0
14841 4053 0
-20760 -4390 0
-17115 -17340 0
2 10595 0
6282 -14739 0
7175 -16615 0
-18005 -12176 0
-21596 549 0
-18898 -2843 0
-8875 -14452 0
-12245 -9852 0
704 9487 0
4243 -16186 0
-790 16841 0
-3244 -8305 0
-18782 -12361 0
-19225 -12634 0
-15501 7565 0
-18478 8097 0
-6436 -2498 0
-1344 -10189 0
-22414 -5724 0
6741 -12146 0
3144 -2685 0
-19037 -1903 0
10944 21935 0
-13418 -9708 0
3302 7517 0
-10632 -16320 0
13497 1421 0
-8643 -4795 0
-3419 -6468 0
14600 9422 0
-10841 -10403 0
4149 20772 0
-16170 11488 0
-4542 -17508 0
-23095 19174 0
-19295 23168 0
-416 18588 0
-20028 173 0
-18331 6495 0
-5743 15996 0
13210 15018 0
-14185 6776 0
22532 1550 0
15738 16788 0
-18943 -4559 0
-5097 -9775 0
-6775 14243 0
12823 -12265 0
12684 -22522 0
-13276 -491 0
-15698 1481 0
-13618 15816 0
-17439 10564 0
-22960 -7966 0
3394 -22366 0
-8587 8014 0
-6011 15187 0
-12887 2907 0
13041 -20290 0
-937 -22509 0
7195 -19232 0
-11787 8925 0
13546 -17465 0
-4231 16500 0
4929 19494 0
-20885 -7569 0
20716 -2764 0
-227 20656 0
7669 -18047 0
11563 20042 0
-22433 2705 0
3605 -19320 0
13597 -6382 0
20006 -20879 0
-7937 -21596 0
20461 -23112 0
-18065 -4730 0
-3719 11914 0
18530 -20917 0
-3191 13729 0
19664 -16073 0
15285 2199 0
18777 -16414 0
-14538 -11397 0
11177 7471 0
-18280 21153 0
-12751 5221 0
16642 19123 0
11513 17110 0
-6269 1858 0
792 2029 0
15531 8862 0
13651 -23459 0
-18146 7834 0
-13768 5122 0
-18515 4387 0
4513 -11575 0
15373 -22279 0
-13290 20305 0
21999 -14771 0
-703 -9637 0
-10096 -4540 0
-16903 23649 0
21368 -15904 0
17626 -11719 0
22874 21201 0
10235 -4269 0
-7394 -6027 0
22631 10614 0
7369 4759 0
-21473 -21459 0
22032 13321 0
-7946 3634 0
17127 -16435 0
19814 -22671 0
7507 -19183 0
-18413 11731 0
20946 -9771 0
-7453 -5884 0
13854 -10882 0
-4434 -6371 0
19443 -4751 0
-11361 -4202 0
-5551 14832 0
-15739 -3162 0
8181 13920 0
3848 12443 0
6263 16964 0
22778 18188 0
-1666 4156 0
-12337 9579 0
6201 11911 0
17685 4919 0
-802 19054 0
18470 11677 0
22720 -18705 0
-7344 -8461 0
-15348 11545 0
-8971 11617 0
4449 -6798 0
15021 3114 0
14138 -13965 0
-8288 -12415 0
3632 -4113 0
18499 2877 0
16053 -21880 0
7055 -8353 0
10755 8602 0
-19572 13496 0
-16777 17635 0
12961 -12619 0
-22651 3956 0
14090 -15931 0
-2739 9942 0
-14069 -22187 0
20990 8713 0
-14038 -6419 0
20087 21522 0
10996 -8328 0
-14422 -2783 0
-6772 23545 0
-17541 18756 0
-21452 16695 0
-2147 -2137 0
8577 1087 0
1953 -13973 0
11513 -17721 0
4513 -20471 0
13364 19752 0
-14886 -938 0
500 -105 0
-17341 -1846 0
-10793 16102 0
11291 1027 0
-2327 -9467 0
-14212 921 0
9628 -16789 0
-22166 14173 0
19555 -5473 0
-2612 15690 0
-228 -17095 0
17635 13243 0
9444 -449 0
-16558 -19031 0
18130 18609 0
17797 14341 0
-2039 21238 0
-22455 5840 0
17707 5500 0
-22838 -23123 0
-15210 -6422 0
8393 16422 0
22548 5098 0
-19389 1737 0
16667 -17153 0
-17421 -20871 0
-11922 -4610 0
-12425 21038 0
21992 -3511 0
-8940 -15330 0
-23254 15006 0
16072 -7952 0
-17128 -1339 0
-13021 -16250 0
21134 -5084 0
-11747 -132 0
-4670 -7108 0
-1990 -527 0
-5617 -4528 0
-1771 11920 0
-14587 -12605 0
-3583 -21505 0
1211 19246 0
11539 -6526 0
-6898 14017 0
16695 4604 0
4212 -18217 0
13714 4428 0
19481 -8907 0
-5992 -5014 0
15914 -11971 0
16447 5085 0
-9863 7656 0
19314 -12412 0
23171 -13044 0
-8533 9172 0
-8587 -21535 0
13128 -12474 0
-5409 13724 0
-7294 20926 0
-6803 -3270 0
-1473 -19496 0
16551 -3246 0
-514 -23419 0
-6140 2219 0
1177 -10043 0
-10913 8939 0
18711 22953 0
17324 19813 0
10546 3321 0
9086 -15263 0
-13835 -4665 0
-1167 -18580 0
9456 -1009 0
18818 18416 0
7049 7549 0
-8802 -1882 0
-11275 -19156 0
-6742 -17737 0
-8212 -712 0
-1564 7287 0
359 4817 0
-15262 -6341 0
4964 22074 0
191 -1896 0
574 11116 0
-10224 -17395 0
8416 12665 0
9219 3695 0
-23159 -14132 0
-242 -5340 0
-822 -13443 0
-10118 -20843 0
21092 10008 0
-11772 17874 0
-7426 21631 0
-12253 1472 0
18985 1496 0
-1871 -19173 0
-8875 -14696 0
-18637 -15653 0
-14369 3546 0
9519 -11220 0
-16334 3121 0
-15944 17948 0
22173 7178 0
17699 9927 0
-17336 1327 0
-21905 -14654 0
-23179 12737 0
2737 17648 0
13911 -5559 0
4525 -11661 0
16681 3936 0
15850 11264 0
-18559 8101 0
10641 21887 0
-22112 3322 0
14829 -14628 0
9116 -14162 0
240 -8640 0
-3238 22759 0
15607 -2017 0
1605 -14123 0
-16797 -10986 0
14484 2222 0
14494 -23248 0
-21093 17044 0
18035 14019 0
-8266 -1631 0
15134 -2794 0
-9594 1858 0
-1784 -12817 0
-15290 -21787 0
12344 9874 0
-467 8394 0
8898 13511 0
-7470 151 0
-3836 -12584 0
477 18409 0
20691 22752 0
10827 -13479 0
14760 -9297 0
20067 -1195 0
-4174 -6788 0
1744 -16913 0
-22112 17582 0
15834 -7350 0
-18423 14925 0
-11347 -4240 0
22597 2992 0
-5701 749 0
5198 22412 0
-18454 20681 0
-23228 -11462 0
-18614 -3077 0
-12453 -23687 0
1179 17934 0
-23478 6590 0
643 -21830 0
3972 -18894 0
742 -3657 0
21260 18313 0
7945 -130 0
-10438 -2795 0
7089 14747 0
-15703 -9517 0
-15770 -4082 0
11838 -14462 0
-5001 7231 0
8190 3790 0
-12241 9971 0
4897 4901 0
-9952 13440 0
-7847 3338 0
-19181 -21029 0
-10739 -10393 0
15462 14246 0
13091 5667 0
-8670 -13027 0
6919 -7271 0
1043 1154 0
16238 -5027 0
-6531 22656 0
751 23774 0
575 19855 0
-11384 2374 0
-19571 8659 0
-23068 18366 0
-21742 -1820 0
-6784 18857 0
-12789 -22890 0
-2003 -1364 0
3397 -5983 0
-1616 18181 0
-22952 11437 0
10997 -14871 0
-14012 -11638 0
14039 5277 0
7045 22839 0
5977 21476 0
-11309 -2873 0
14891 -18929 0
-8508 11701 0
-20698 19383 0
-22955 -4610 0
-21700 -6120 0
2359 -4226 0
-6699 22633 0
7 -19788 0
-17940 14329 0
-3743 9826 0
-8723 3221 0
-16551 4805 0
-23707 2421 0
340 13561 0
-12639 4851 0
-3505 -20174 0
-23611 -7356 0
8172 7255 0
13712 20665 0
7062 -21853 0
-11174 -23421 0
-14705 -17120 0
9687 -2197 0
8532 -8389 0
2770 11767 0
15921 17735 0
21883 -5854 0
-23223 4421 0
20535 -16826 0
-3354 7573 0
-19596 7117 0
-1745 -17924 0
-2164 3416 0
-17887 9109 0
19399 -1341 0
11043 18200 0
22159 23620 0
11345 -21353 0
-2110 -6181 0
12421 -5592 0
12995 -10002 0
-18 -19712 0
-5440 12503 0
8595 -15583 0
-2561 -5678 0
6658 -12782 0
-12089 18188 0
-6861 12479 0
23703 -13348 0
20894 -17832 0
-15237 -14975 0
7027 -19709 0
-7190 4245 0
4798 -3701 0
9030 7174 0
19197 -2046 0
23233 -4400 0
3443 -8892 0
5853 17955 0
-11588 -1237 0
-21912 18035 0
-8927 5866 0
17554 11044 0
-11401 13285 0
12388 -14404 0
19256 -17170 0
3581 -4577 0
4705 -6980 0
7116 21451 0
13497 -15793 0
-11305 3225 0
2931 11759 0
14519 -18219 0
21762 853 0
-6352 15892 0
5471 16379 0
3075 -15322 0
-544 9850 0
13894 -11996 0
12262 19215 0
-16733 1763 0
-149 1067 0
19843 -18995 0
2809 18716 0
-14289 10078 0
22621 224 0
-4108 -2958 0
-13437 14688 0
7193 -14668 0
-5946 -22968 0
17100 22731 0
6763 1059 0
18032 5717 0
-16156 -19471 0
9080 -7790 0
-22930 -11930 0
-16487 16673 0
1891 8760 0
-2162 21720 0
18312 -19955 0
-18487 -2315 0
23387 -146 0
11983 18093 0
8098 7755 0
11922 18944 0
15471 -1297 0
-15848 -13856 0
-15752 20192 0
8763 9262 0
-4356 18609 0
7821 21508 0
8637 4187 0
-5367 -19164 0
12028 172 0
17323 5291 0
-9660 8758 0
16995 16933 0
19210 -18661 0
5506 -7530 0
-20799 -2186 0
4449 15683 0
-21560 -3139 0
-14355 -16473 0
14993 -14481 0
6478 22353 0
-5624 22715 0
-17741 -979 0
-11803 9748 0
15557 -19567 0
-11851 -4363 0
11410 -3315 0
20675 -3415 0
-15423 4515 0
-18192 -9153 0
-9594 3581 0
-9082 8412 0
-20631 -19792 0
-15393 13646 0
-2536 -23351 0
13419 17645 0
-21303 19202 0
16526 -6632 0
-16479 62 0
14064 -22545 0
7701 7532 0
-7124 -18212 0
14117 -4316 0
7520 -8093 0
-5233 21657 0
-12450 7790 0
9114 11052 0
-1041 6952 0
2713 2710 0
-17205 -11489 0
6597 -16000 0
11975 6778 0
10413 14396 0
-8687 9681 0
-21543 4698 0
-10411 10547 0
-4313 -16244 0
-14639 -5773 0
-15474 16204 0
-16854 -22058 0
-7655 -16723 0
3714 18024 0
-18502 -13401 0
14620 19967 0
-13720 -8562 0
9659 -1715 0
-21119 13328 0
-4089 11068 0
-23782 7435 0
-3533 -16435 0
1351 11839 0
-14288 20199 0
-3349 15327 0
-20430 3938 0
1814 -13063 0
-6573 -23222 0
17255 -1034 0
-16334 20228 0
16887 -10958 0
7599 -14025 0
-1909 121 0
12881 -6414 0
-23614 -5589 0
3235 14097 0
-3750 -938 0
8229 -22407 0
1153 1378 0
11288 16662 0
9187 -10598 0
11885 1172 0
10268 3273 0
-22423 22792 0
10031 -8002 0
21734 16292 0
17655 12063 0
-7217 1672 0
5833 20972 0
17311 16992 0
-3309 9780 0
-16792 -1323 0
-6911 21988 0
15858 -6949 0
9224 -1336 0
-10014 -5724 0
17247 -22782 0
17328 21096 0
-18908 -20318 0
5346 -2110 0
15625 15543 0
-6477 -17181 0
-7056 -8913 0
-18672 19600 0
-16123 14782 0
10750 9453 0
13101 -1984 0
14797 22929 0
12640 21736 0
11185 -14356 0
-1808 -22138 0
12304 -7251 0
1265 -671 0
14589 13436 0
23361 -4778 0
-22548 22445 0
-16125 -2464 0
-18037 -4312 0
-12769 15476 0
-4597 -19138 0
10528 -19634 0
16973 11989 0
23500 -14343 0
-5704 736 0
-14049 -10806 0
-3454 -6223 0
7416 14831 0
-821 -16406 0
8205 -10151 0
22306 9853 0
12433 -12375 0
638 -20160 0
-2379 5652 0
-17660 -21193 0
253 -3403 0
9667 6506 0
-5524 -20077 0
16774 -22528 0
-18051 14158 0
-10338 -8377 0
19949 3402 0
6770 -6945 0
15535 -14582 0
-14583 1384 0
1854 -19773 0
9059 20101 0
-6463 9946 0
-1274 -6773 0
-23027 19559 0
15776 -570 0
15929 1309 0
12684 -7250 0
-8360 3183 0
15894 22905 0
1425 22254 0
18752 20697 0
-5181 8377 0
7797 -7463 0
606 -9716 0
9195 20045 0
8362 3740 0
13119 15992 0
-2336 5528 0
-16256 -5101 0
-19921 -20711 0
-2651 -19434 0
-14372 13109 0
-6324 -7321 0
-22240 15065 0
-19468 16156 0
21816 -12653 0
843 18168 0
10712 -17576 0
22291 -8975 0
-5395 -10157 0
2588 7379 0
890 5123 0
5146 -1188 0
4633 16231 0
12286 -23255 0
8945 19514 0
-17436 -9293 0
-4295 2014 0
-3237 14116 0
-6579 4298 0
15566 5634 0
23493 10887 0
1315 22829 0
2143 2414 0
-15846 -16358 0
-13807 -4651 0
-8510 22271 0
19461 -9317 0
-8026 21245 0
-10242 15579 0
17175 10576 0
-17776 -17847 0
13717 485 0
-23544 -21402 0
-9545 20906 0
21592 19572 0
8990 -20732 0
-4448 16200 0
-7091 -21608 0
11030 22445 0
11282 -4800 0
1510 -6715 0
-4040 13028 0
-4855 -4412 0
19283 8058 0
-7243 -21475 0
-21770 -21680 0
6102 12736 0
3022 -12539 0
14893 -5592 0
-1883 7148 0
-14391 9425 0
-10740 -6110 0
7619 156 0
6859 -11471 0
-13268 22853 0
-4194 10000 0
19757 -23034 0
3932 -8492 0
10597 11121 0
-12796 -45 0
21087 19715 0
3908 -16782 0
-13752 13497 0
22013 10990 0
16819 588 0
10917 -17237 0
-22816 -15966 0
13440 -12727 0
-9433 -2740 0
2175 -17688 0
-9655 22559 0
2301 21249 0
12795 -15151 0
-20945 -14470 0
12429 -7506 0
17507 -1444 0
16681 3028 0
-17291 16481 0
-5044 -1751 0
-12009 -13684 0
-5921 -14649 0
15946 3485 0
2354 9359 0
-5437 -18770 0
-14277 -17695 0
-11943 -1108 0
19621 1457 0
-17830 -10663 0
9173 19569 0
-23459 2888 0
21309 -7686 0
3011 493 0
18259 -1615 0
-5175 1312 0
-4010 21725 0
15914 18844 0
-16495 2505 0
22697 15182 0
-5485 9625 0
19227 1939 0
-6277 -19437 0
14430 13616 0
-6989 -4468 0
-11335 -22657 0
22379 -1575 0
-8781 -2048 0
-6662 18378 0
-6825 21969 0
13760 -9492 0
7506 -10591 0
2605 -22024 0
19366 -16461 0
7634 -12649 0
-21758 -17184 0
-8821 -19266 0
-7280 13324 0
19807 16404 0
-1885 -10400 0
-4543 -16077 0
-20341 -10481 0
-4799 11395 0
-16108 -14830 0
6751 875 0
-2902 17247 0
-10059 -1147 0
-10600 23414 0
-4068 17724 0
-13959 -10079 0
-14680 22372 0
19579 -2904 0
-12106 4824 0
-17633 19365 0
2301 -16518 0
-6022 -10144 0
11190 -496 0
-19183 17001 0
-19212 13236 0
-7361 356 0
-20175 -20531 0
3641 -6442 0
-17709 -1411 0
14343 10356 0
4345 -12477 0
7925 12388 0
7779 18210 0
-6426 10026 0
-15154 19633 0
7951 3815 0
-7908 -9669 0
-2805 -10655 0
1428 -5769 0
-22465 11604 0
-3111 -17519 0
-20273 -17359 0
8688 -19619 0
-5874 20522 0
3022 -21314 0
12291 7645 0
19451 100 0
-16133 1271 0
14175 -15182 0
-1603 -707 0
-7263 -11421 0
7634 2228 0
-4587 -16952 0
-22303 -15389 0
13576 21962 0
8964 -2745 0
-1810 -984 0
-7760 -12165 0
-20789 -8592 0
-8674 21036 0
-20306 16132 0
9347 -8475 0
-14591 -12701 0
-16363 20526 0
-14850 22357 0
-4272 15760 0
-10567 -17515 0
16407 21254 0
-117 15789 0
-12333 12355 0
-7564 15473 0
-22215 -7760 0
-7868 6930 0
-2967 -22032 0
8637 13674 0
-8518 -3626 0
2933 -2817 0
3244 -18941 0
-8269 3537 0
20816 23717 0
20034 -8433 0
-22629 -14611 0
-4959 -19581 0
2925 -15396 0
-22745 -6643 0
14105 -4356 0
8775 10283 0
13107 3328 0
16883 15261 0
16611 464 0
11657 9294 0
-23233 -5798 0
4071 13673 0
-15615 -7279 0
19129 -18555 0
16390 -16338 0
-22838 -22825 0
11546 -23031 0
5939 10094 0
-14586 -2681 0
7405 11371 0
18028 -6548 0
-17153 12465 0
-12964 12483 0
-7586 21867 0
-20617 11982 0
12244 -11752 0
7357 2470 0
-14007 13730 0
-909 -13845 0
-10805 -20186 0
-3779 -11120 0
-14064 -4041 0
-3609 -4636 0
11638 -3788 0
-11268 -8646 0
-19808 -23732 0
-9128 20724 0
15102 10889 0
1362 -2165 0
-18813 -16239 0
-9266 5073 0
22572 21113 0
-22823 16453 0
-6939 -11657 0
3236 19584 0
-5294 -9222 0
-15261 -12654 0
-2050 4468 0
9605 -13442 0
22795 -10911 0
-3683 -4522 0
17089 -17284 0
-2587 -2611 0
-6841 -1690 0
-2598 10111 0
-20317 -87 0
20141 11185 0
-18821 1180 0
-15902 -19287 0
-13477 -22272 0
20963 2432 0
-20653 -7741 0
9442 22034 0
16939 21897 0
-10252 -11911 0
-493 17647 0
-3247 7725 0
-15048 10086 0
18689 -10101 0
22890 23372 0
-21175 -16792 0
8452 3681 0
-13579 -10532 0
14040 20812 0
20405 -5857 0
9677 12033 0
1029 16352 0
19503 10839 0
4792 -13288 0
14733 21201 0
-21325 23749 0
-12800 9765 0
5165 -21330 0
18689 -13826 0
16132 -22402 0
4473 -18592 0
-17779 -16342 0
-14593 18441 0
7359 -11696 0
4860 -3248 0
8838 11309 0
9225 -3310 0
-7371 4285 0
-15932 -21524 0
-14061 5284 0
6346 -15456 0
-15816 -21003 0
15537 5423 0
-19232 -7780 0
19784 -8603 0
-8126 8743 0
9132 17976 0
5402 20318 0
5864 16434 0
-5827 3622 0
-16735 11138 0
-23275 -10282 0
8059 -9449 0
-19480 -16704 0
-10924 7542 0
14394 22090 0
-9971 3296 0
-1649 1057 0
-15879 15977 0
-12167 -22983 0
23544 12377 0
21049 16481 0
7363 11135 0
-8611 -23775 0
-4724 3030 0
13306 14401 0
-423 14575 0
-8165 -16488 0
-18181 -3830 0
-2378 -16299 0
18135 -14008 0
1618 11484 0
11566 -19143 0
11898 -63 0
4961 -995 0
-22881 6133 0
-8603 -1400 0
-21894 17067 0
16492 -8547 0
-12197 -2252 0
-20676 -230 0
9410 -10875 0
6806 3940 0
19042 10269 0
4877 9904 0
7166 -20866 0
-22731 -14530 0
-8696 -7253 0
-7481 940 0
-14214 -11368 0
17446 -7455 0
-16851 -22722 0
-11916 9944 0
20214 -1688 0
-5084 -14691 0
5929 15835 0
14472 -13028 0
-132 14722 0
-4251 12319 0
-15796 -15182 0
9597 -20340 0
8506 10076 0
-13718 -23057 0
23111 23785 0
7433 -5319 0
7212 -13675 0
-5429 16889 0
-14969 9951 0
2257 -1924 0
-9958 -2321 0
-8817 7629 0
5518 21508 0
11929 -20934 0
18921 -5029 0
11702 -1165 0
-2993 -19305 0
9154 -15202 0
-6348 22516 0
6700 895 0
-9176 -1623 0
-8544 -1673 0
5240 14313 0
-4262 10740 0
395 -17518 0
-18606 -20068 0
-13783 -15790 0
8057 -12221 0
-22438 -5582 0
-23329 7004 0
20840 1419 0
-17942 -8464 0
-6516 17497 0
-21466 -9548 0
-21455 -1373 0
-15713 5455 0
-3971 -23079 0
3223 -10374 0
-284 6071 0
-20290 -14475 0
11176 -20345 0
4764 11711 0
-8116 5448 0
3532 5426 0
-2696 -2821 0
10049 7403 0
-13301 20314 0
-18891 16482 0
-17410 8316 0
12074 5862 0
8846 -449 0
10736 20365 0
-18965 -23752 0
-1033 -14616 0
10593 8758 0
20009 -548 0
20833 -5585 0
12072 -4829 0
-459 -797 0
10614 -6392 0
-5350 1711 0
-17384 -11310 0
22169 -19916 0
-5029 -14820 0
-21696 18887 0
14363 -9540 0
16212 5833 0
1533 21137 0
5351 -5274 0
-2787 -899 0
-6551 15167 0
-11768 -14944 0
-9912 -19380 0
-13837 -15006 0
-827 7898 0
14211 1034 0
11751 10318 0
-202 -8825 0
23208 17887 0
6392 19218 0
-16550 -180 0
8593 -20768 0
13609 -10740 0
8913 18145 0
6112 -3038 0
2186 -12808 0
4335 -23669 0
19481 -524 0
6576 -2530 0
11560 -3901 0
13267 2966 0
22560 -20874 0
-13333 -18477 0
-21483 23508 0
-5701 -13913 0
-20685 19086 0
2701 -17395 0
-13709 -4247 0
-19599 6284 0
-12848 -21853 0
21574 -11040 0
-10589 -11969 0
2899 18703 0
7313 10942 0
-6957 14695 0
4947 -13228 0
17743 12821 0
10624 3955 0
1782 -21348 0
-16049 -15361 0
-1052 7992 0
-3619 -374 0
11401 -15075 0
6656 -12556 0
9011 7459 0
-23108 -2059 0
10655 8606 0
-7760 -9175 0
19555 -3422 0
4185 -17339 0
-3677 6903 0
1110 3913 0
10625 -5796 0
269 -6242 0
-18841 -3154 0
18733 15998 0
22510 -11398 0
-9755 20143 0
698 -9091 0
-424 -14242 0
12148 -18965 0
5779 20771 0
19394 20073 0
-666 1908 0
110 -220 0
9150 8270 0
8015 14948 0
13324 7797 0
-712 -4682 0
-20819 15161 0
16863 -13114 0
-3038 13261 0
-21944 8920 0
-7133 2561 0
-5205 4965 0
-20221 -16120 0
-16411 23771 0
-22054 3771 0
21726 22743 0
21140 9147 0
-15693 23766 0
-22563 -17344 0
-11205 -2459 0
-3357 18011 0
14633 12276 0
-14667 7521 0
8408 -22493 0
9178 5438 0
23686 -11092 0
-1994 -8499 0
-2896 -5479 0
-6242 -9249 0
2230 -5169 0
-14436 -21673 0
18541 13902 0
16134 23398 0
6578 17686 0
2669 -1694 0
-20829 -3055 0
-7551 -13430 0
19020 -5256 0
-2023 -3171 0
19090 -19404 0
-10803 11430 0
16219 18909 0
-21781 -4779 0
-22604 6379 0
3231 -11770 0
-3420 12601 0
19997 -595 0
-7050 7322 0
6249 4941 0
16312 -7188 0
13862 -9894 0
-8976 3777 0
-10726 -11472 0
-3504 -13576 0
-8377 -5724 0
-18213 -11996 0
-9270 9135 0
-12573 7523 0
-3071 -21095 0
-6499 -5491 0
-15514 819 0
13059 -23681 0
12659 -5861 0
-16237 485 0
-23306 -20848 0
-15644 3651 0
623 16847 0
9215 18714 0
-11504 -8831 0
23339 23274 0
5435 17038 0
4880 6539 0
-7549 -21643 0
-2130 23298 0
2677 -2035 0
-12952 -2274 0
1912 -14932 0
1277 13547 0
17829 -3849 0
12869 16305 0
14837 16334 0
-15143 12005 0
102 23536 0
8810 -1480 0
20475 -3509 0
-9965 -5766 0
12993 12938 0
10575 -23638 0
-12362 10702 0
22387 -15131 0
-4624 12820 0
-12654 -3797 0
-401 5017 0
-4289 3041 0
11307 4945 0
-9402 7706 0
-6619 -3093 0
22253 17175 0
-301 -4176 0
11577 -5901 0
15693 6221 0
-13967 4693 0
-22568 -4372 0
9272 -14169 0
1450 16440 0
19303 -14795 0
17727 -6589 0
16113 -581 0
6929 -1986 0
-14662 -6054 0
-16530 5880 0
-23000 18444 0
8003 4627 0
14512 14149 0
-13727 -6742 0
18998 19824 0
12753 -4625 0
20850 15721 0
-1809 -11338 0
-12179 9361 0
3925 -6743 0
-8808 18288 0
-16309 10719 0
13637 16141 0
-20234 2463 0
-6560 5000 0
13763 -8823 0
3837 20057 0
-16691 -4700 0
9321 5425 0
-22857 18975 0
19028 3839 0
-8894 -9459 0
4062 -10571 0
-18989 1441 0
-11049 12706 0
-17300 7034 0
-16170 -3438 0
-11620 18142 0
-8339 -19584 0
16134 17624 0
-18494 -11868 0
-296 -912 0
-4448 17618 0
-15494 -15189 0
9006 -2724 0
-3891 -13087 0
-7570 16062 0
-5998 10293 0
-6398 9729 0
17987 5332 0
-19667 14621 0
-8509 9354 0
11537 -80 0
-5641 -11690 0
10035 1769 0
1804 8692 0
-13619 -15485 0
-1485 14003 0
21855 -8959 0
6520 5123 0
-22373 10825 0
7756 1047 0
-10440 -12757 0
17554 -1827 0
-14431 -19390 0
-21450 -14593 0
12450 23414 0
575 6017 0
-5678 -23660 0
-19852 -1641 0
-1189 22842 0
-10257 17936 0
-12342 -5454 0
-1716 11321 0
13704 6029 0
-23058 -19768 0
-17979 13312 0
19102 -20810 0
-7874 13034 0
-22019 11293 0
20139 -8908 0
22524 -4341 0
991 4903 0
-2371 -7826 0
4440 2163 0
12787 -8139 0
18553 -19185 0
-9311 8212 0
-17472 -17988 0
-14478 -19544 0
-20170 -9570 0
-20447 3096 0
12927 1382 0
22540 -5096 0
-9881 -18347 0
19548 9902 0
6087 -19049 0
7934 -984 0
15305 2554 0
9498 14171 0
1075 636 0
-14258 5623 0
-11245 2331 0
-11943 4012 0
23572 -23520 0
-6307 16869 0
21898 -17090 0
5627 -17918 0
10597 -5013 0
-18290 4649 0
-4480 4679 0
1817 16571 0
-13063 20020 0
-13527 9096 0
1970 7982 0
-1954 -18096 0
14087 1886 0
-5195 19118 0
7834 -22972 0
-13083 22971 0
15820 5863 0
-13020 15523 0
-18702 13115 0
-22910 -8018 0
3867 -6425 0
-517 -5536 0
-3360 -7712 0
13185 20861 0
9706 -17698 0
-10620 4224 0
-21798 -9845 0
17248 6813 0
-4707 12733 0
-2854 10691 0
-7590 -14276 0
-10264 4151 0
-10414 15941 0
11755 14687 0
-22646 19573 0
11043 -3197 0
-13027 1454 0
10392 -16481 0
-20347 8917 0
15925 -12572 0
21293 -20529 0
-13161 -18652 0
23714 20065 0
4117 -18617 0
-11398 -14597 0
20696 -4693 0
-19419 -1337 0
20871 -8587 0
-12161 -21118 0
-21692 -6710 0
-22294 16215 0
10885 4320 0
-10443 -2028 0
-18796 14497 0
-7320 9087 0
1584 -11241 0
22148 17298 0
-7835 23111 0
-6762 17007 0
-5832 -12289 0
9989 14828 0
21935 -16895 0
-22106 12295 0
21165 -23521 0
-11212 -11530 0
-14301 1482 0
9048 -21551 0
-8296 20509 0
16471 -4971 0
11083 -10987 0
-22749 -14497 0
3453 -12561 0
2963 -3621 0
-7413 3119 0
-12107 -8548 0
3650 14636 0
16271 7099 0
13804 -5421 0
11980 373 0
23390 12686 0
7500 11836 0
-13698 -21106 0
3036 -8203 0
10421 5768 0
20349 2405 0
-23108 13412 0
-645 -5349 0
-681 -19039 0
11987 23233 0
-20370 -8521 0
-18673 -21123 0
-9787 13003 0
-10323 21291 0
7608 21701 0
-17413 -6146 0
19420 -10635 0
4938 10938 0
16755 -22473 0
-20815 -23792 0
6533 -15854 0
-2587 -14343 0
-561 -18721 0
-7467 16961 0
-9104 18575 0
12640 -19650 0
10632 -19078 0
-9017 6175 0
-6588 8019 0
-6500 3068 0
-4829 15680 0
-3458 -6124 0
-3724 -7607 0
6607 -11019 0
-3035 18404 0
12651 8652 0
5549 -16733 0
-13521 -347 0
8567 -20326 0
-19642 4809 0
-21897 1556 0
23165 5781 0
4215 -9769 0
-4445 21016 0
-18319 -11054 0
4314 19933 0
5442 10855 0
908 21285 0
6882 5163 0
5454 22230 0
10572 -3224 0
-22227 12092 0
-15391 -7110 0
14735 7099 0
-2279 16718 0
14472 -5151 0
-5962 -19309 0
14939 -18541 0
7651 -4647 0
-15742 22765 0
16446 -21385 0
-15387 7448 0
-5773 20369 0
22177 13411 0
14062 -12121 0
9197 2383 0
3552 193 0
12549 6936 0
-13100 18987 0
8063 2744 0
1893 -4951 0
-22454 1274 0
3108 -8573 0
-5031 18758 0
-21295 18429 0
20203 17161 0
-16563 -13677 0
-5075 6394 0
-6326 -3768 0
19838 14179 0
18032 -13325 0
-5688 -18380 0
-19765 22881 0
-22124 7168 0
1691 -19311 0
-87 7817 0
16900 -3585 0
14044 -19024 0
-12647 18291 0
-22441 18567 0
-9916 -11068 0
8385 -23188 0
20692 -23314 0
-16185 8898 0
7174 12201 0
-5796 -9002 0
-5274 3839 0
12845 -13131 0
6472 -16575 0
-14309 -12985 0
20817 -8972 0
1110 -1491 0
154 -18739 0
4624 -839 0
-22846 -12480 0
-14006 -10793 0
22956 12157 0
-17331 -6529 0
-22723 -21944 0
6301 -10784 0
-7733 -12850 0
20965 3571 0
-23148 15671 0
8133 2639 0
7058 -9769 0
10588 -11155 0
-15704 10024 0
23131 229 0
-21680 -17702 0
-5663 7381 0
6834 11418 0
9277 34 0
-15683 -15606 0
-3554 -6080 0
5016 -14598 0
-13992 -11823 0
21390 8409 0
-8726 -7399 0
12196 -16805 0
13911 -1828 0
-12587 -15868 0
19110 -21960 0
-20230 1996 0
-18964 21422 0
5016 -1206 0
-21985 4432 0
-873 20978 0
17086 -11009 0
16170 8310 0
3007 10455 0
-8878 -6556 0
19807 9456 0
-16672 -4844 0
14432 23573 0
6878 -1596 0
-8875 4821 0
20023 14829 0
-6212 -9302 0
6953 13028 0
-11566 8834 0
2836 -19802 0
-5166 11789 0
-9813 9410 0
-21936 13974 0
-10665 -16722 0
-13193 -6335 0
-20146 5457 0
-15444 18716 0
17033 -23309 0
-18192 -252 0
16614 -19992 0
8210 575 0
-10292 6081 0
9767 1880 0
17408 15961 0
7155 -8868 0
-713 -13217 0
-822 -9518 0
-871 3726 0
21884 11514 0
-8204 -5149 0
19346 -19517 0
755 -12234 0
1529 -6063 0
6553 10736 0
964 11987 0
12408 -5996 0
6933 9372 0
-1077 -20263 0
-8247 -6750 0
-11260 5054 0
22882 -90 0
8120 -14781 0
20820 21631 0
-21117 -696 0
-21238 13763 0
1891 -12281 0
15338 23739 0
-3140 -15013 0
1996 7876 0
4680 -4121 0
-17961 21510 0
-1777 -18937 0
-5783 13270 0
-17416 -1762 0
4608 17422 0
12032 -15777 0
-18235 -14419 0
-16334 18708 0
15866 3769 0
-11038 -22357 0
-2298 -12883 0
10080 10142 0
-4050 9336 0
16037 -19942 0
14276 16887 0
7568 9632 0
-22350 -11459 0
-2522 2671 0
7929 15233 0
-3815 17852 0
17248 -1801 0
1370 10896 0
15913 9079 0
18207 13595 0
-6834 -18876 0
-15592 22731 0
21842 7464 0
5529 -6346 0
-10222 -4471 0
15085 4916 0
15819 -13628 0
-15597 7370 0
20497 6057 0
21957 23157 0
-1269 9755 0
-16280 -22048 0
1763 -12884 0
20005 946 0
-6234 -11064 0
-15930 11956 0
14605 -17177 0
-3704 15373 0
-7063 -11300 0
2655 15906 0
-22919 9007 0
-6342 -129 0
-13133 20448 0
-10621 -8750 0
3762 -11334 0
8245 17476 0
-7318 2230 0
-16888 -23548 0
-6723 -2341 0
-8292 -4615 0
5577 4589 0
257 20689 0
22811 -22164 0
-8806 22606 0
3674 -22814 0
-10677 -16275 0
12248 7350 0
4498 -11276 0
718 21518 0
10229 22951 0
-14159 23192 0
16877 869 0
7689 -15854 0
20556 16627 0
5261 -2254 0
-1017 -17071 0
2169 2907 0
-18055 -3829 0
-2581 23101 0
18233 3196 0
-17415 15415 0
-14263 10449 0
-2832 20643 0
-2149 12921 0
2886 -1590 0
-3234 -4305 0
7248 13827 0
18684 18292 0
-19649 19868 0
-21148 -12461 0
-11404 -4325 0
6817 -6233 0
7700 16565 0
10051 -10650 0
-3384 -18585 0
-16215 -18679 0
-17512 1016 0
18714 10814 0
-18638 -14086 0
19332 -10015 0
22378 -8988 0
-6204 -18826 0
-14512 -10603 0
-9526 -8324 0
-15392 10347 0
8924 9079 0
9077 -6671 0
-11118 10934 0
-15662 10008 0
-2279 -19454 0
-11232 10312 0
954 17079 0
6590 -12278 0
-16955 -23238 0
15515 -7697 0
-3053 -10675 0
3628 8359 0
-23620 -20034 0
14476 -7871 0
-10250 4962 0
12426 -6284 0
17065 5890 0
-4247 -15397 0
11020 -660 0
-2839 -5168 0
-1504 18763 0
23167 -21570 0
22933 -10399 0
9385 23632 0
-10886 -13715 0
-18860 23077 0
-5825 6924 0
13722 -11587 0
-21136 10547 0
-16847 -4684 0
-17623 2771 0
17901 7678 0
-12838 -11598 0
4537 21406 0
5063 -7237 0
-2129 -15994 0
-12759 -9805 0
-5376 14859 0
11062 -18147 0
18962 3792 0
-14790 -21213 0
3519 -7845 0
11770 8403 0
-21746 -17924 0
8625 -22832 0
23510 -20690 0
-19879 1714 0
-12259 10989 0
11524 722 0
4353 18935 0
4552 -4763 0
-16720 12321 0
11334 -5321 0
-3524 -13198 0
16323 -10009 0
14686 -1031 0
-20088 23669 0
1260 -21113 0
21471 3426 0
-10916 364 0
12995 -4796 0
-12136 -22550 0
-13424 7886 0
4612 19545 0
-10600 -21838 0
-7413 7383 0
-17109 6380 0
-13088 20631 0
-6555 19133 0
19611 -11899 0
14762 12581 0
23706 19306 0
-6147 -16184 0
12976 21139 0
-17023 -11406 0
-7862 14999 0
-10099 13550 0
-21207 7913 0
-17295 -19908 0
12424 11857 0
9475 23144 0
23698 -19078 0
18658 16201 0
9184 -12165 0
5124 -15424 0
-21857 -7937 0
-4394 -13360 0
17562 -8654 0
10493 7384 0
19988 6801 0
4070 13018 0
-10409 -892 0
11162 17149 0
-9032 -15383 0
-13612 576 0
15922 18958 0
-19137 -20240 0
7507 -22107 0
-7193 -22054 0
-6482 -18980 0
1126 -22773 0
-1108 394 0
18410 -4062 0
18654 -20125 0
-6811 -696 0
11033 -22540 0
-17993 5213 0
10519 13513 0
18633 23072 0
1970 -17956 0
-7375 21328 0
-1499 20142 0
-348 15323 0
-3222 10694 0
18478 -1549 0
-14867 -23437 0
14982 17684 0
-23437 -6070 0
-15319 11382 0
10762 5215 0
-11096 -8777 0
-5042 -21455 0
-5775 -13508 0
-14583 3460 0
-8320 16264 0
-17354 -23456 0
10739 17045 0
5172 -4015 0
-5345 22521 0
-16863 16295 0
-2668 4063 0
-12556 -9642 0
4827 -251 0
-11543 7344 0
-6714 4764 0
1588 8787 0
7627 18091 0
3998 -17016 0
15706 -2637 0
12301 -14654 0
10537 1591 0
-19250 -22299 0
-14150 -20288 0
-13847 -4888 0
-14040 21058 0
7362 5995 0
15813 11114 0
-16037 -906 0
1917 -6291 0
21127 -19587 0
-17006 19119 0
8333 -21274 0
18306 -3202 0
-15497 -23655 0
19994 -830 0
-15568 -8243 0
12265 9731 0
10259 13312 0
-14416 -9685 0
-19265 6793 0
-18733 23127 0
3334 1992 0
-6693 -11460 0
23691 1655 0
-15364 -15968 0
12493 -16584 0
-6650 -14795 0
-22884 1049 0
-12992 11795 0
19101 10265 0
-6390 -20761 0
-11270 15027 0
-17290 8377 0
-41 -8889 0
23283 -18017 0
-23268 3590 0
-4194 220 0
4719 12627 0
-22379 -12873 0
788 16736 0
14248 5969 0
6670 5477 0
3185 -22664 0
-8689 16117 0
11625 -170 0
-3282 -14737 0
-16445 -13130 0
1853 -8698 0
9018 522 0
5829 -14642 0
-8638 -23782 0
-6470 -19401 0
-5068 -15580 0
-9875 4408 0
3306 17101 0
12852 -20697 0
-2890 -23363 0
-3720 19817 0
2142 11344 0
13108 3689 0
-22490 15181 0
12482 2683 0
13289 1852 0
21872 -14219 0
-19535 6576 0
8660 8584 0
-10631 10753 0
2518 -11663 0
-20579 1728 0
-1716 23307 0
-2223 -12830 0
22915 -3665 0
-19866 17504 0
6913 -2356 0
16878 -11824 0
-12835 -19484 0
19244 3837 0
6991 14596 0
14249 35 0
13181 -22921 0
6734 2885 0
33 -21244 0
352 7419 0
18262 -20393 0
959 14991 0
15689 16167 0
14038 -5182 0
1405 -16573 0
16506 -20357 0
22444 22288 0
-17943 20616 0
-6698 -20322 0
13842 -4650 0
-13524 5391 0
10424 3912 0
-7955 -15408 0
4115 22006 0
-3850 -208 0
-7534 16974 0
13149 17736 0
-19389 11608 0
-10051 -18993 0
-494 20696 0
-4727 -2364 0
-1741 -19546 0
6109 -11251 0
-5326 3382 0
-11534 -13912 0
20302 7027 0
20160 2221 0
-15774 23429 0
18981 21091 0
-8428 -3808 0
14659 465 0
22050 -4240 0
-5925 17554 0
-3112 -6611 0
14514 -3422 0
-19131 -16549 0
-6259 13433 0
7274 -13551 0
-22863 12726 0
-4240 -13816 0
-4707 18248 0
-13257 -4486 0
-7268 20008 0
1392 965 0
-3585 4932 0
-10170 -14880 0
3290 14279 0
-16340 9041 0
10280 22324 0
-12190 13294 0
12521 -9446 0
-10926 2659 0
9777 614 0
-1496 -9762 0
19197 -19562 0
21905 -17346 0
-7131 12245 0
-12820 -6638 0
-14227 -9147 0
2902 -12187 0
-3081 -12503 0
-835 3802 0
-20948 5342 0
23208 -22502 0
-20674 21209 0
-14132 5085 0
-4235 16973 0
-6044 17375 0
-8515 -17988 0
-4731 22737 0
-11158 -7977 0
11703 -20387 0
-12648 -5975 0
12558 19932 0
-4437 3650 0
11486 2192 0
-14262 16745 0
-6731 21352 0
-5439 17611 0
2912 12547 0
-4113 6778 0
-11233 -501 0
157 20436 0
21051 21201 0
14302 -17093 0
-7607 2455 0
4814 -17423 0
-13789 -9818 0
13097 7953 0
13388 -11360 0
-22799 18390 0
3292 17110 0
-18080 7155 0
15285 -6776 0
-7560 -7365 0
7245 -2118 0
-23575 -6311 0
17479 -19066 0
-18503 -21667 0
23121 7102 0
-6740 -19344 0
-13174 17275 0
7 -11827 0
6114 -16423 0
-21250 -21525 0
3997 23046 0
-22005 -441 0
9746 -7748 0
-6048 -9971 0
-2069 16072 0
8842 14309 0
16568 3502 0
11790 -1255 0
-4195 -18144 0
15021 11004 0
-14687 -11683 0
-13336 -2369 0
-8630 -350 0
5713 10370 0
-23575 -20864 0
-18875 -9637 0
-403 -22720 0
12208 -7194 0
-23222 23718 0
-4445 22872 0
-19198 -5970 0
-15117 18042 0
-8878 -863 0
20522 19026 0
22214 11817 0
-11072 14809 0
-13558 5057 0
-14500 -18143 0
11225 4160 0
-8547 -12730 0
16649 -1582 0
-19751 -9169 0
3337 -7144 0
19346 12140 0
-11948 -13261 0
-16375 -1048 0
-1884 20437 0
-20378 5652 0
-2026 23560 0
642 21275 0
523 1036 0
-12763 23339 0
22703 -1629 0
-22586 -14958 0
-4885 8211 0
-7153 800 0
4042 -8050 0
10294 7626 0
12622 741 0
-9952 21768 0
-2779 15147 0
18873 19572 0
-5128 -12094 0
-12520 -59 0
18851 -5155 0
-23258 -23025 0
8035 1498 0
-19497 6888 0
18789 -16010 0
-2935 -1439 0
-20601 -19055 0
-17518 -20095 0
-20341 4879 0
-19513 8391 0
13176 -19936 0
15803 8018 0
-23077 17038 0
19099 2159 0
4107 15656 0
4625 7923 0
7381 8696 0
-5680 21418 0
-12020 -21629 0
-1304 22094 0
717 9144 0
18686 -10982 0
21405 -559 0
-20274 -11945 0
23676 23407 0
-21493 -8274 0
-20185 -18406 0
-20144 3364 0
21973 23518 0
-3131 -14879 0
16830 -18942 0
-4705 -6619 0
-4141 -8686 0
19258 7568 0
-23322 -514 0
7512 -18905 0
-13310 19960 0
-18145 -3432 0
-5781 17131 0
-9597 -19702 0
19966 -3758 0
12807 -3403 0
2852 -12756 0
-1016 -11578 0
-20824 -7421 0
16044 17161 0
1600 -19802 0
3341 -12489 0
-23254 -18658 0
15583 4083 0
22434 4878 0
-19799 -19790 0
-12078 9804 0
-5592 -21855 0
13307 -4275 0
11150 13743 0
-2087 3336 0
15252 17186 0
8640 -8116 0
18752 16859 0
6640 -23513 0
15868 -20947 0
4771 -11817 0
-18887 -22923 0
9314 -21397 0
-20368 4756 0
11862 4588 0
-19421 -6248 0
-15590 16885 0
13175 5552 0
-14025 22491 0
-20602 1927 0
5500 17824 0
-20775 11284 0
10742 13460 0
-9030 7751 0
-8851 -23588 0
18690 -19934 0
2087 18693 0
5160 -11887 0
11832 15452 0
9718 -693 0
-15884 8119 0
15797 -10530 0
-21684 -20629 0
15750 13365 0
-99 10248 0
-1835 -6847 0
-17637 -189 0
16770 16645 0
12948 -9126 0
-13006 17124 0
3626 -18831 0
14129 -11489 0
14815 8366 0
14492 -1447 0
18441 22058 0
-6225 5502 0
-23412 -9964 0
22356 10899 0
-12940 -16514 0
-7161 -19999 0
-13940 -5428 0
-15824 -1770 0
10260 9809 0
-247 11479 0
8802 3826 0
-9487 10081 0
7845 -15144 0
-75 -4156 0
17864 17061 0
-17254 1982 0
-15574 13075 0
-5153 22450 0
10715 20775 0
-2986 -19780 0
-8741 4927 0
-4317 -8586 0
-8959 1078 0
20801 -224 0
17806 15462 0
6628 -1381 0
-23213 4246 0
-3444 10602 0
5063 887 0
9340 22707 0
-19034 13678 0
2546 -1251 0
-15818 13809 0
14802 22261 0
-20637 8678 0
-11996 -20240 0
4800 23768 0
-22745 10813 0
21183 23148 0
-17128 -7510 0
13823 -16684 0
-3095 22362 0
-13074 21954 0
-1064 -6458 0
4637 198 0
-9538 -1596 0
5866 -12445 0
-21943 -1727 0
4126 -14101 0
22730 12036 0
6280 -1653 0
9872 20366 0
-16594 -18168 0
-6723 -22663 0
-10585 -233 0
-11577 -10210 0
-8475 -4715 0
753 13267 0
-691 -18898 0
13264 4477 0
-12225 19595 0
-7353 21391 0
-13231 -21682 0
-18693 12168 0
16041 -14041 0
-4635 -274 0
-12346 -9714 0
-1236 -20933 0
-1331 -23293 0
10969 -7548 0
9481 -8504 0
19662 -14784 0
576 -17307 0
-5662 -111 0
-8776 4605 0
10653 20519 0
17347 -14528 0
10084 9488 0
-13264 -2727 0
-20849 22626 0
9796 6269 0
-13125 8790 0
8435 -18270 0
-7506 14544 0
17624 9784 0
-16036 -23299 0
-7631 1583 0
-7804 22962 0
14325 20509 0
-21763 11400 0
-4049 16200 0
9637 -14721 0
14754 9198 0
-21780 -13138 0
-3554 -11915 0
-6389 -15067 0
-23362 -7070 0
-2805 -1527 0
2444 1956 0
-18090 -4465 0
11749 -5237 0
23165 10729 0
22533 20122 0
-21917 21261 0
14886 17688 0
13008 -18182 0
21002 -18440 0
-159 5712 0
-4910 9234 0
-22832 -8903 0
-16970 -7437 0
23183 3574 0
-21375 -20852 0
-6257 -8707 0
-17245 -8072 0
15010 -4070 0
-8401 20737 0
18509 -13071 0
7407 2000 0
-10681 17907 0
17641 9689 0
-10767 21298 0
-21602 -15357 0
8097 -21079 0
-19125 -4927 0
-10772 5257 0
9442 -13670 0
-12065 6262 0
-19270 20367 0
5443 -14583 0
-11640 23461 0
12094 1519 0
20580 16360 0
13123 2399 0
23172 -2652 0
15986 1530 0
-19092 9837 0
6144 -21138 0
4432 -20219 0
4084 -5786 0
22143 -19656 0
22384 6558 0
-16091 -8898 0
22971 -5635 0
16555 21219 0
-5997 2564 0
-23314 -15331 0
16687 5608 0
-18144 -12769 0
-5936 -14175 0
6832 11445 0
-6548 17082 0
-13335 -23044 0
17035 -6270 0
-22361 10531 0
15951 -102 0
13277 -13390 0
14817 9137 0
8171 7309 0
-9334 -20870 0
-10246 3951 0
-2539 20846 0
20652 -18452 0
15925 -7257 0
17290 3385 0
-12630 -15904 0
-22848 -19292 0
18055 198 0
21795 23168 0
2143 7914 0
-14373 -17900 0
-20845 -1622 0
11022 -16244 0
-13392 13899 0
-12737 -23193 0
18490 -11194 0
19069 4899 0
17694 23218 0
20037 4019 0
-20461 4203 0
23319 20431 0
7089 6400 0
11492 -12642 0
7053 -9477 0
20296 -3448 0
-19758 6606 0
-4786 4518 0
5586 -14335 0
-13080 17803 0
9304 -13382 0
-6519 9024 0
20813 -18642 0
-20657 1195 0
-22370 12919 0
10037 -1382 0
-7573 5090 0
15841 845 0
-3830 2800 0
-6368 13594 0
-7924 18568 0
4535 -7414 0
-11193 19827 0
-1308 -812 0
16 18579 0
20413 -20264 0
6416 -10724 0
-9293 -20223 0
-13817 -13340 0
-21747 -3499 0
13069 -1829 0
17645 -14600 0
-8283 461 0
13107 -17426 0
-15468 23759 0
-9193 -19934 0
-1889 774 0
14195 -11113 0
-13532 8152 0
13065 13489 0
13834 18712 0
-20052 -4573 0
14231 -11902 0
13323 6677 0
-22495 -20179 0
23278 10525 0
-10280 21722 0
-20859 5786 0
-7706 14904 0
17059 -17098 0
-1520 -2176 0
20739 22794 0
2435 -23388 0
16091 -12237 0
4025 11589 0
-5959 9272 0
14776 3249 0
-18046 20424 0
21249 -13019 0
-23366 -20055 0
20707 -18744 0
-8292 -17762 0
-10436 17769 0
-3219 -8377 0
4020 1172 0
-5854 17963 0
-2681 -14184 0
14252 -15240 0
13732 1652 0
18231 11517 0
-17542 -14372 0
-20680 5387 0
-15854 -3603 0
13050 18897 0
4662 -3343 0
759 -6472 0
-4087 7931 0
-10501 16122 0
-22276 -7869 0
-5209 -14706 0
14281 -19998 0
-18462 -22575 0
-16327 -16948 0
-2449 6175 0
-12899 -11969 0
208 11961 0
6153 6435 0
8080 18355 0
7818 19050 0
-1423 19825 0
-16231 8209 0
-13329 12854 0
-21075 11859 0
-19045 -20203 0
-2213 6235 0
21255 -6070 0
4419 -15432 0
-8969 20494 0
17496 -2709 0
-17823 8634 0
14215 21140 0
7730 -3601 0
23358 21993 0
-22021 -21175 0
8213 20889 0
7676 -14528 0
-16811 -19827 0
-12759 -6269 0
-5274 -19393 0
6085 -14613 0
-8071 -19600 0
8560 22756 0
17134 -21139 0
-1415 -7106 0
6030 3970 0
9739 6464 0
-12710 10222 0
-10388 3353 0
8210 -849 0
11545 -14777 0
20987 6794 0
997 15861 0
17724 -13252 0
15552 -13322 0
20101 -21504 0
13666 14116 0
-19873 -23694 0
806 -7790 0
-18315 10989 0
10376 -10676 0
-12145 -22682 0
-8879 6731 0
20147 -3766 0
364 7624 0
7296 -14270 0
-14192 5029 0
-20588 5547 0
-16623 -22173 0
9407 -20534 0
-18636 10340 0
607 -8765 0
23656 11531 0
-1393 -14277 0
-13726 -2185 0
22384 -2509 0
-19616 -23424 0
4012 -21228 0
-17002 19948 0
-17588 21201 0
10501 -12155 0
-9880 -20947 0
-3846 22975 0
-930 10731 0
22444 14930 0
10632 1771 0
-922 -7776 0
6537 -5692 0
-11841 -4726 0
-786 -344 0
5422 -16805 0
-12153 -3450 0
6961 650 0
12132 6302 0
-13106 -777 0
1122 -5126 0
-7928 7889 0
-16284 19605 0
-22184 -20559 0
563 -634 0
-18874 18994 0
-9375 16390 0
18457 -13624 0
-14919 -5201 0
4954 20591 0
-8659 -13642 0
18020 10419 0
1616 -2354 0
13258 -7980 0
11427 12941 0
-18655 -3719 0
-2951 13327 0
5721 -7180 0
15303 -1508 0
137 -19314 0
-19404 -20858 0
-16723 6703 0
4069 -22052 0
15782 7512 0
20840 12747 0
-23715 16515 0
-13437 -6808 0
12664 -2281 0
19764 4706 0
-10735 14825 0
-4860 -11551 0
-23117 -9066 0
-21292 20139 0
11667 -16301 0
-13386 -17294 0
15425 14129 0
-2636 -21150 0
22319 7447 0
-2105 -9565 0
-16919 -21998 0
-20989 12077 0
-5425 -21450 0
-8597 752 0
-9637 -21044 0
-3900 18898 0
19839 -10811 0
13071 -7180 0
12820 -4545 0
-17423 10705 0
-12176 16337 0
23085 4402 0
7999 -3654 0
-6181 13062 0
12005 -15787 0
-10431 -9099 0
18961 4696 0
-20400 -17037 0
-21719 -15910 0
-4960 -14777 0
13386 5619 0
-10018 -20019 0
-21000 -9844 0
-20122 -4803 0
-6505 10998 0
2605 15618 0
-17342 5163 0
14967 -8806 0
-12898 6406 0
-935 2748 0
-16371 21942 0
-11117 3126 0
9699 -964 0
-10554 20192 0
12348 -19667 0
2605 -15914 0
5976 -1248 0
-1845 -20399 0
-12129 202 0
2884 -23725 0
4796 -6248 0
-12825 18553 0
-11864 19449 0
13744 3934 0
-20484 -20682 0
-4900 -12844 0
15221 13208 0
15797 3043 0
-7841 -13046 0
18786 9446 0
5222 -18484 0
-9059 9208 0
-8473 2526 0
4897 18031 0
-16349 23010 0
10308 -20494 0
20474 16915 0
-14725 -4036 0
-8721 1388 0
-1823 18589 0
8155 15237 0
23764 -12636 0
-15924 3686 0
-12388 -1753 0
-5729 -4633 0
8957 -17539 0
-9656 -5891 0
-5826 -8774 0
12295 -16388 0
124 17088 0
-11845 -12534 0
-1003 -6323 0
20955 -18144 0
12517 -23659 0
-5675 -3411 0
6885 12336 0
1698 -12412 0
-19173 20040 0
17187 -14909 0
-12745 18309 0
2193 22268 0
-17064 23462 0
-18808 17014 0
-17281 -20321 0
-6873 15162 0
18824 -1335 0
-9596 -13509 0
-2426 17720 0
-3044 671 0
-6098 10006 0
14694 15675 0
4805 -21407 0
7350 -19688 0
1729 10766 0
8926 21492 0
22971 -12575 0
-16561 -12868 0
-22122 -23098 0
-12905 -22509 0
-2031 -23531 0
-10300 12249 0
-4375 -5997 0
-19767 20738 0
469 -22879 0
917 -21597 0
-263 -10286 0
9920 7648 0
-14987 -3475 0
-2321 5114 0
-7553 -15868 0
-22233 -16060 0
-10988 8613 0
-18565 12776 0
-6992 -8225 0
-11581 4558 0
7005 -18415 0
-1071 6680 0
16983 4819 0
14746 -15044 0
2440 17621 0
-21564 -15012 0
7310 -3376 0
-6252 18258 0
-13892 3985 0
13286 14651 0
3101 19339 0
4411 7401 0
17879 -18432 0
-20447 -1299 0
13534 -6511 0
-8143 -8480 0
-23538 13266 0
-12066 -2840 0
16178 472 0
-19077 16828 0
-7847 -189 0
14083 14754 0
-23051 14873 0
-4717 23761 0
14432 -6972 0
11830 -18524 0
-5190 -11815 0
-20492 10432 0
-11560 -15373 0
-6615 12249 0
391 13453 0
18265 18513 0
8806 -7744 0
-16490 4879 0
-16313 16510 0
19723 19730 0
11153 -7974 0
-16198 20701 0
-4990 -22580 0
-10707 -3231 0
12138 3154 0
2112 -8629 0
-16866 13992 0
7327 3674 0
12283 -12737 0
-2546 -20185 0
-23345 -10063 0
5074 -2043 0
16345 981 0
10437 -3029 0
-2478 7566 0
22840 12583 0
12960 22569 0
9050 -9314 0
-3990 7177 0
-15088 -9365 0
-13832 2364 0
2855 -7633 0
4885 -18550 0
23465 21028 0
2355 12796 0
-14814 5341 0
8272 20183 0
-2403 -4163 0
5483 23542 0
-3229 -22940 0
9339 18831 0
1443 -15939 0
8262 20468 0
-6714 -12531 0
21390 -259 0
-8993 14782 0
16285 16869 0
1185 4449 0
20813 -11859 0
-17572 -17831 0
676 15484 0
2735 -9613 0
-12096 -3189 0
-5616 -23087 0
-13341 -8856 0
6689 19258 0
-15697 -8292 0
1960 -22919 0
15015 -3497 0
-8830 5350 0
-5136 12195 0
5304 -21948 0
-10982 -3748 0
-7380 -6959 0
-22838 -409 0
12908 -22743 0
2014 -7848 0
19132 -15832 0
-12026 -22489 0
-11306 4144 0
10734 12720 0
-15217 3246 0
18297 -13886 0
7900 -7732 0
11546 19919 0
21091 -9430 0
3563 -3721 0
-15958 21016 0
393 5074 0
8003 -10140 0
685 4950 0
-22214 7351 0
2439 15714 0
-11448 20496 0
-14545 18999 0
13640 21121 0
21883 5669 0
5851 16619 0
18083 1322 0
5910 15093 0
-1931 10280 0
18676 12198 0
-21235 -5745 0
-1008 20025 0
-11887 -23272 0
-21349 -3455 0
-19584 -11428 0
-1659 22959 0
-9395 5845 0
-9422 -15844 0
-11236 13752 0
20116 15077 0
-15568 6047 0
-21858 -4610 0
13797 -13364 0
-21013 13663 0
14853 18339 0
-5940 -2969 0
9962 16306 0
23546 -15249 0
-11910 -12873 0
-23039 -14599 0
-15184 9273 0
4233 14990 0
-115 -22033 0
10244 -21066 0
12844 4377 0
-3112 -10192 0
-18221 -6745 0
-12593 -7498 0
15738 -12169 0
7443 -18798 0
-12289 16642 0
17498 -16457 0
6861 -16801 0
-22118 3347 0
-2387 7306 0
17801 -12107 0
-6313 -14055 0
-12478 -16083 0
-7689 905 0
1972 13554 0
-15243 23772 0
3204 -8752 0
-8917 12779 0
-263 -15444 0
-9560 -1358 0
-13225 -20545 0
21073 -19809 0
-5773 7790 0
16784 -7411 0
-21855 13807 0
-7241 -19999 0
17774 6310 0
9150 2090 0
9817 16604 0
-23665 -23622 0
-12638 2885 0
-16876 -2803 0
952 -10936 0
-15972 -10912 0
-18717 -5095 0
-22866 -1525 0
-5756 20770 0
21147 -4550 0
6146 -8389 0
-3958 -8124 0
17234 18708 0
526 18018 0
-20571 -13355 0
6864 9009 0
-9529 -10290 0
-17445 -20373 0
-10812 5412 0
22006 -23149 0
-1089 15327 0
-16240 14512 0
5036 17100 0
-20313 -17186 0
14286 13694 0
11307 13515 0
-14259 -23225 0
3300 18523 0
4094 20894 0
8397 -22837 0
-45 -22985 0
14652 -15877 0
1313 218 0
-5584 23472 0
-8464 -6189 0
6937 -11938 0
-21459 -13262 0
-4936 -19983 0
-20140 -4221 0
-5767 -7224 0
-6431 4151 0
23322 -13551 0
20666 -19314 0
8659 -13298 0
-22489 14389 0
21451 -22281 0
5574 17083 0
18600 23387 0
-10407 19210 0
-18011 -21072 0
5066 -10712 0
10187 -21715 0
-8411 14121 0
10044 7031 0
974 21263 0
6462 17396 0
-3551 2635 0
21509 3552 0
22150 5606 0
-14940 23566 0
23477 -7966 0
10934 -11072 0
-8206 -12940 0
-170 21354 0
14518 -5528 0
23303 -4425 0
8338 -5036 0
-8786 773 0
-19785 6362 0
22003 -3109 0
-10496 17465 0
5412 672 0
-7492 -21298 0
-2274 10462 0
291 10389 0
19559 -1635 0
-17280 7313 0
20115 -9071 0
7364 21246 0
-10826 1215 0
19157 -8873 0
10848 -22372 0
-18899 -6115 0
-68 20884 0
-15472 -16490 0
16646 -17277 0
-14748 -13122 0
-2840 -17709 0
12879 -20714 0
4372 5794 0
-8698 10268 0
22238 -1465 0
15457 -2029 0
2320 21421 0
-5740 -7127 0
-8577 15010 0
-8388 741 0
13772 -12717 0
6144 20647 0
13764 3748 0
-5143 -17825 0
12108 20177 0
-960 19688 0
-11818 17019 0
5313 13411 0
-18691 3122 0
-9581 -19295 0
-2230 13722 0
-17619 -14926 0
-12052 21618 0
9891 21165 0
-17075 -7607 0
-20047 -4206 0
-20225 -11007 0
10488 5771 0
11627 20416 0
-8949 17835 0
14098 -8771 0
1961 7262 0
19171 -22606 0
8505 -20795 0
6793 13527 0
23369 2758 0
16325 -11860 0
21381 -906 0
18329 6698 0
18447 5509 0
-2927 -3158 0
-8205 2838 0
18754 -13895 0
1630 9957 0
-10060 -4811 0
-21077 -3429 0
19872 15681 0
-15096 -6868 0
21445 -16064 0
-2396 5747 0
-9140 -22270 0
-17651 7298 0
-21567 19876 0
1186 -5592 0
-1160 -18782 0
17612 295 0
-17253 12630 0
6139 -20856 0
-8782 -23788 0
-16501 -7738 0
11181 5925 0
-10238 22466 0
6192 16108 0
12669 -19648 0
8173 -16055 0
3124 15988 0
21973 -10128 0
-22188 14166 0
-12658 18244 0
11019 -2417 0
3972 12581 0
1981 -18270 0
-23132 -15381 0
-23043 10865 0
12588 -22562 0
23010 -9214 0
1666 8658 0
-1882 -3696 0
21571 1404 0
-14055 -21411 0
-3647 -5625 0
-4261 15805 0
-3242 341 0
13637 -18132 0
-10616 -9696 0
-15796 -2809 0
3400 17809 0
-3149 6632 0
19682 21506 0
-20295 18783 0
8064 21187 0
-7990 2872 0
9367 9883 0
17323 19010 0
-5985 21156 0
6503 -11354 0
-13204 12397 0
-18647 -18518 0
-12394 -19576 0
23261 325 0
-15664 -8100 0
-5460 -3408 0
-19855 11507 0
22996 -19844 0
-4950 -2502 0
1464 -17390 0
18454 11513 0
-16229 1432 0
-4556 -23615 0
2842 -7921 0
-9102 -21524 0
8452 -1760 0
15844 5356 0
-4629 10827 0
21675 -9844 0
-23490 -4171 0
-3140 -21418 0
-11543 7476 0
-14240 12355 0
-12087 -11636 0
6840 2506 0
-19212 4051 0
-14601 -6389 0
19471 -22330 0
-685 -16572 0
-1292 -12839 0
20554 23461 0
-16491 3803 0
14148 -310 0
6222 -16539 0
977 23418 0
-9502 15030 0
-8790 10025 0
-3296 -2792 0
-22631 13685 0
-16252 22144 0
-18069 -13463 0
-22249 5539 0
-5831 19122 0
-14999 -22361 0
9061 23535 0
14864 13800 0
-13617 -16509 0
-23163 -8399 0
-4050 8443 0
15094 16778 0
-12353 13159 0
-13027 -13384 0
23334 13916 0
-16423 -17744 0
-5699 -17208 0
5658 3795 0
-6561 6781 0
-5679 3028 0
-16519 9430 0
-5203 1996 0
13894 15280 0
23224 8876 0
-4636 -10088 0
19961 22610 0
20078 2226 0
3244 23366 0
15350 15313 0
10928 49 0
1051 13114 0
4639 -8073 0
-81 15928 0
-11929 4590 0
7023 -2207 0
18035 8052 0
18151 -12689 0
17863 -11055 0
-12979 23648 0
-13416 -23597 0
18681 -8685 0
23690 -10190 0
23094 -19380 0
17236 20452 0
-1162 273 0
-17663 -9988 0
4861 -6925 0
11762 -3245 0
-13626 18224 0
-15088 -13209 0
21766 -17255 0
6082 -17586 0
-6682 2098 0
3173 -15716 0
7940 -6203 0
2705 15502 0
17910 18713 0
-8261 9036 0
-20655 3858 0
-16409 -16315 0
-13380 -22680 0
-16264 5312 0
11185 2974 0
-9711 -6108 0
7711 16376 0
-21745 19826 0
1809 -16909 0
1441 -7272 0
-14664 -21324 0
-22120 14186 0
-16202 1184 0
-6525 -18550 0
-11154 -2266 0
4458 1549 0
20666 -7956 0
18680 -337 0
22372 -20628 0
18323 4152 0
16457 -9349 0
-16995 -1722 0
-12991 -8933 0
-8779 21353 0
-18527 -10126 0
8914 18954 0
-20089 21825 0
12642 5375 0
17121 2155 0
10761 -5488 0
-21458 2835 0
7638 9094 0
17531 -10035 0
17770 -22138 0
-11964 -7226 0
9051 6656 0
6525 -20607 0
-20549 20035 0
5035 -22591 0
-6455 -3831 0
17850 -20200 0
-4917 -10492 0
1556 6215 0
-12160 -1569 0
-7089 13677 0
12655 9149 0
19026 3973 0
22948 22806 0
-13235 -17254 0
-4746 4695 0
-14887 2968 0
10848 -17880 0
-6366 -3282 0
-2878 -15158 0
-15123 15569 0
-18377 -15447 0
20145 13834 0
-22934 272 0
17116 13571 0
13114 -18585 0
2067 22064 0
-12624 12491 0
-19537 20687 0
20456 13050 0
-18517 -20987 0
14665 -12474 0
-13934 18563 0
-18152 16349 0
-10496 -11049 0
6423 16535 0
-4490 -4775 0
2614 17503 0
-3659 -15650 0
7233 -1241 0
-23759 8660 0
-19432 -21919 0
-20586 8409 0
-22523 -18286 0
-14483 -3479 0
-18580 1773 0
11681 -4723 0
8568 13819 0
-723 -20323 0
2381 9822 0
-20038 -17264 0
-21455 -14652 0
-18715 -12188 0
-22491 -17377 0
9264 -1724 0
-13069 14204 0
-3938 -4887 0
10739 15300 0
23217 11184 0
2289 -632 0
-23401 -9680 0
21705 9399 0
-22522 10412 0
-12905 -21511 0
-9424 -3894 0
23083 -2179 0
-10965 -10482 0
1787 806 0
806 1816 0
-13651 -5615 0
21529 16268 0
-13989 -7497 0
-16141 7893 0
21029 -14168 0
-11318 20344 0
-6833 10470 0
-12342 23463 0
23733 18227 0
-835 19738 0
4215 13712 0
-22926 -5484 0
-9737 -9455 0
-10871 -1755 0
-7988 12507 0
-8857 -573 0
11230 18518 0
-14142 23224 0
-6920 -6537 0
-7166 -13119 0
18104 5147 0
11111 -18364 0
4097 14987 0
13103 -19351 0
11611 -3164 0
-12882 5982 0
-4366 2246 0
-20042 16851 0
14771 1370 0
22422 19390 0
10734 16939 0
-8618 20870 0
-13301 20059 0
8237 1262 0
-7083 19510 0
-15008 9000 0
759 17820 0
9757 -2559 0
1655 18520 0
21867 -12198 0
-9953 -8936 0
11156 -2957 0
11774 -14418 0
-13361 -4687 0
18382 -4828 0
-5872 -2620 0
-11309 -18929 0
21116 22490 0
18399 12878 0
21284 -13350 0
1867 -23530 0
5982 23724 0
-5782 10857 0
-5802 9585 0
-15388 -7066 0
15990 -9755 0
-20703 -10561 0
-17090 9618 0
20174 -5199 0
-20476 -18846 0
16728 9753 0
-3443 -20338 0
16841 13955 0
-21964 19772 0
14372 18852 0
-1826 -8038 0
-699 -9615 0
-15901 -9976 0
-11002 -23645 0
11620 -9140 0
15003 1326 0
-10660 -18106 0
-5329 805 0
-11924 -13442 0
15696 -8267 0
-14601 7391 0
18809 -22085 0
15063 -12509 0
4242 11887 0
-16952 13707 0
13233 12434 0
1186 -1983 0
737 -843 0
4988 -18042 0
-772 -4295 0
19902 23030 0
-23034 763 0
578 -19150 0
1739 10659 0
3970 -1780 0
1562 -5319 0
-17230 2100 0
21936 12577 0
14450 20167 0
-2823 -12793 0
-2565 -7205 0
19278 -18334 0
-14187 15800 0
-18822 -9887 0
11943 2019 0
-12835 -12967 0
10052 -9918 0
20269 4605 0
20467 -7819 0
-9256 11989 0
22001 1219 0
-3861 -2251 0
6318 23159 0
-7888 -10600 0
-19347 -16366 0
-7924 2293 0
18465 14194 0
-21912 11296 0
-209 -4315 0
-2356 7452 0
16531 7589 0
23066 -19550 0
15780 -6872 0
-5274 3737 0
-19239 5992 0
-15492 -12608 0
-16142 -8788 0
21873 22466 0
-571 -22325 0
-19688 13093 0
-5642 -3251 0
-19515 -23750 0
17589 -6713 0
9736 7517 0
-2283 11593 0
-7482 11823 0
1577 22521 0
933 -20934 0
-6685 -17716 0
-10459 808 0
-9710 -11431 0
19270 -15158 0
17162 22610 0
-17286 -10684 0
9109 3394 0
-21312 -1249 0
19982 -11446 0
1798 1670 0
11916 8948 0
-4552 9975 0
10883 -9332 0
-20381 -18448 0
-3889 -18413 0
-12850 6497 0
18478 14578 0
12309 -3486 0
23048 2379 0
23536 -2241 0
14787 531 0
-10376 -14697 0
-13323 -20112 0
-21145 4074 0
-19502 3645 0
3093 16168 0
-19319 13875 0
-8860 -1921 0
18547 5438 0
20225 -8070 0
18622 -6909 0
256 -224 0
-12290 14173 0
-3889 6488 0
-4096 1339 0
12564 2476 0
9060 -9591 0
-3399 11155 0
-2524 -19841 0
15600 14996 0
-23049 -15048 0
-214 -22636 0
-15173 1551 0
-22453 22278 0
-1021 4179 0
8292 9011 0
-3272 10158 0
-15323 -10660 0
-20710 23501 0
7769 19234 0
2659 4163 0
-18467 18216 0
17535 -17680 0
6327 -10693 0
-19178 6284 0
-4737 17267 0
-7690 -20381 0
9015 -135 0
-13727 6825 0
-19987 19571 0
-1128 -2859 0
-12194 12860 0
-6601 11524 0
3322 3908 0
10985 -3678 0
-5681 18384 0
22876 8030 0
-19101 11327 0
-16290 -4341 0
-898 -9556 0
-11012 4576 0
-21719 -19296 0
11821 -7603 0
-22057 -16340 0
21764 -13304 0
-22974 18506 0
2985 21227 0
-3585 13629 0
-15159 17321 0
13427 6270 0
5230 -12615 0
10597 12775 0
-19799 7383 0
-20771 18603 0
-1723 -181 0
-10170 18104 0
4095 20071 0
-17788 -2430 0
17985 19230 0
22156 -13388 0
12815 -5520 0
-6732 5764 0
-23341 2805 0
-21458 -2468 0
-5813 6443 0
-16691 3955 0
-634 10324 0
1264 21946 0
12551 -12075 0
21537 -5160 0
-16721 12391 0
10408 12788 0
8127 -12637 0
5426 -11325 0
-5539 -1893 0
23026 -162 0
-11076 -14870 0
4036 -6773 0
5084 11830 0
13957 6501 0
15865 15080 0
10336 16130 0
-13254 -22923 0
13082 -19774 0
9102 -9771 0
-12130 -13379 0
-7141 -10388 0
-19446 15515 0
-5053 5583 0
14418 -1475 0
22336 -13398 0
19015 14292 0
-3812 -2838 0
-16814 -23469 0
8181 -19710 0
-3508 -4000 0
19572 -707 0
-9418 7691 0
-22041 -17151 0
22077 -11120 0
14712 21457 0
-8502 22292 0
-626 -8667 0
14821 13055 0
9282 -18622 0
22090 -15109 0
961 6865 0
-2762 -9167 0
-18110 17356 0
-2882 20002 0
2484 2675 0
8598 -14260 0
3892 8328 0
2296 -3720 0
-13168 11592 0
-9096 -3009 0
18678 1323 0
262 16528 0
22910 -18701 0
19870 21494 0
-18386 -18007 0
-17335 22869 0
21481 767 0
12185 12956 0
-68 9671 0
-13813 9801 0
-7804 -2336 0
19894 10524 0
-21650 -20993 0
-3751 23763 0
14052 13556 0
-1339 -3374 0
20199 -13552 0
1981 22480 0
18335 -246 0
-13349 21586 0
-12305 8718 0
18467 -21394 0
5645 -3864 0
-3183 17465 0
4184 6816 0
5185 15267 0
-2088 -7967 0
11877 -5487 0
-16726 944 0
8626 -20921 0
-11735 18839 0
6813 20377 0
-20147 -14267 0
22113 -8808 0
10298 -986 0
-8720 -6635 0
14100 -5003 0
-12790 16237 0
9425 1135 0
-747 -6333 0
-1732 -8602 0
-12 -14698 0
1479 809 0
-22332 22036 0
12811 22429 0
-20269 12492 0
-21481 -11607 0
8354 -19164 0
12369 -3084 0
-18897 -250 0
21617 5130 0
-3124 -10414 0
5985 11214 0
-8240 -6972 0
20332 10458 0
7218 7114 0
-11422 19087 0
-22599 8747 0
-1856 3032 0
-7798 -10090 0
207 18262 0
23423 -4877 0
-16447 13415 0
-2571 -9508 0
-5424 8169 0
22867 -9789 0
8915 -19397 0
9458 14178 0
-1188 -17939 0
-17629 18421 0
-1490 10371 0
4993 -18643 0
23453 15747 0
8955 -1082 0
5952 3548 0
-18741 9214 0
15905 -11665 0
-3564 -2813 0
-2661 12003 0
-6186 14015 0
-231 15984 0
-22513 10561 0
21788 -4292 0
2943 -15136 0
19368 14119 0
2067 17647 0
8865 3115 0
20547 -17175 0
20317 -17290 0
-3586 15289 0
2818 14749 0
-5511 -6364 0
15360 -20758 0
22471 -7910 0
-8224 19722 0
16235 3826 0
-8156 -6489 0
-6442 -20022 0
-12441 -803 0
-11650 19030 0
14392 -6101 0
-460 1001 0
10241 9801 0
-20774 13191 0
13374 -15164 0
3894 5045 0
8824 7008 0
16303 -14394 0
-9208 16915 0
16952 -22540 0
16732 19537 0
7884 -19633 0
15 18749 0
22317 -1897 0
-1302 -17041 0
-1756 -11874 0
8550 20175 0
9523 -14246 0
20115 -17776 0
-2081 -981 0
-7736 -14643 0
18258 640 0
-7935 -6764 0
-16457 16765 0
16661 16131 0
20292 -10348 0
8179 -4221 0
-22796 -9539 0
-18532 -8682 0
-2499 -3437 0
-20270 -14814 0
5611 5569 0
5619 -21123 0
3337 20966 0
8279 14272 0
19357 -2840 0
-7133 -19074 0
-18929 5424 0
23219 -22647 0
12109 -13215 0
10547 -10191 0
-22165 21627 0
-17457 -11626 0
1920 -18225 0
-19280 276 0
-7180 -3124 0
-9483 12378 0
-8887 1090 0
-10587 -3038 0
17895 5396 0
2588 18656 0
14594 7882 0
18975 11207 0
11224 -7254 0
22410 -4207 0
5516 1969 0
-18081 -775 0
-11154 1254 0
9286 3400 0
-2942 8047 0
11941 -3272 0
-14386 -3238 0
9564 -9623 0
5231 -3408 0
2693 -2309 0
14686 12417 0
1264 -8316 0
-12928 -13404 0
14326 18260 0
-5042 14280 0
-20788 15776 0
-23417 1426 0
486 22171 0
13787 4053 0
20146 -18164 0
20061 -7555 0
-9900 15154 0
-22765 -512 0
-19460 9028 0
9969 -1677 0
-20323 -10611 0
4279 -19892 0
-11405 16882 0
-21063 -22760 0
23659 -12781 0
-14256 -1524 0
-17155 4741 0
14455 7013 0
3712 -13664 0
-11949 -19594 0
-13985 21910 0
-11336 11952 0
1404 11219 0
-10115 13211 0
13545 5675 0
-17306 4242 0
-6505 -16011 0
-10346 -10450 0
-19448 14578 0
7708 -9088 0
-9892 -13378 0
-12725 15910 0
-6767 13941 0
1523 526 0
2035 -23588 0
-18725 -22700 0
-4695 -18512 0
-19106 -2420 0
-18286 2337 0
10013 5955 0
-18335 19645 0
-20714 -3062 0
5757 -19243 0
13448 18427 0
-8732 15550 0
4468 -798 0
-21481 7075 0
4473 15233 0
-12237 5470 0
-10798 -18428 0
-8161 -12128 0
-10459 -21443 0
12429 2976 0
9876 7678 0
-1758 -15358 0
15382 -19954 0
-23258 11018 0
9251 -3791 0
-21073 3962 0
-19889 -3325 0
6555 5987 0
-3176 22353 0
-11987 -9333 0
5386 -4918 0
-7016 -16310 0
-1528 -1034 0
337 9368 0
1567 -9504 0
-19904 8226 0
-7623 -5479 0
-14315 23497 0
-3114 4034 0
9243 589 0
-18824 -21804 0
10318 4034 0
5166 -6483 0
3114 4234 0
-7890 -1612 0
-13407 11819 0
-20493 -19786 0
-6634 -15383 0
19066 -15611 0
9461 -5534 0
-5671 -3988 0
-18159 10237 0
-15241 -8356 0
-3562 -12157 0
8699 2006 0
4842 -4111 0
-11339 11238 0
8891 -22177 0
18837 -10005 0
-3409 4732 0
21046 -18182 0
9979 19111 0
-21775 4649 0
1533 18997 0
-12053 -23304 0
-10797 -6191 0
-16330 -11206 0
-18785 18343 0
-7647 -12411 0
3438 19586 0
9954 -3004 0
-460 -12994 0
-18437 -12490 0
-8640 2663 0
-21917 -20056 0
2255 -12811 0
20781 -13273 0
13144 -3788 0
8106 18794 0
-17450 21139 0
-11820 11170 0
-7603 20330 0
-18721 8340 0
13163 20007 0
-12991 1317 0
-15793 -19212 0
-8455 4136 0
-92 -19339 0
-3034 -17804 0
10116 18400 0
-23251 -19224 0
8448 20275 0
-13721 23293 0
-8005 -12452 0
2439 -3219 0
-11456 22279 0
-4028 16396 0
23710 -3690 0
-16142 19989 0
-12789 5455 0
21624 1730 0
6417 118 0
-3128 6646 0
-577 7260 0
302 7156 0
-10956 -22444 0
13811 -14227 0
-9876 -17973 0
18249 10501 0
18470 -748 0
10200 4291 0
3853 -23590 0
-5416 -16329 0
-13068 19789 0
16616 17008 0
15875 -20432 0
-6666 -5791 0
13127 -1336 0
12321 -8720 0
-13345 -3592 0
4602 -15003 0
-10131 -13472 0
20249 4747 0
2713 -2098 0
11904 15786 0
7263 10592 0
20276 16808 0
-16811 7389 0
-13889 11331 0
-5718 21050 0
-20218 -2531 0
15967 -8691 0
-5700 -21292 0
-5132 17312 0
13900 -18112 0
-16841 -6800 0
21042 10599 0
21656 16213 0
14488 11175 0
-16374 -23156 0
-21875 -14833 0
1103 -11041 0
16442 4779 0
-2974 8211 0
-2988 -7826 0
-1099 9158 0
8733 -14606 0
8927 16907 0
-13741 23073 0
5204 -6940 0
-20737 -18137 0
-14581 -620 0
-22423 22356 0
9265 -15630 0
-5488 -13360 0
-14155 -18222 0
-9290 18786 0
17907 18816 0
-12178 12576 0
-4526 8786 0
5912 657 0
16383 1031 0
21050 854 0
6239 9130 0
-2610 21152 0
22586 10929 0
-13168 4656 0
-17122 624 0
-17368 -17488 0
-23114 -13691 0
-6975 7669 0
-5149 2868 0
-18079 -22979 0
-7596 -14268 0
-5739 -10016 0
3180 -6804 0
9573 15953 0
-23642 -15361 0
-6830 -21883 0
18838 7538 0
5090 -6196 0
-18864 19519 0
-14254 23361 0
9406 429 0
-18657 -20644 0
4841 -9749 0
-23655 -22070 0
-23217 2062 0
-9195 -7554 0
-12412 -12816 0
-9097 17498 0
-35 22899 0
14799 7313 0
-17340 4899 0
17768 -19226 0
16978 16823 0
15443 21556 0
8794 -9001 0
11868 18191 0
-20795 10363 0
1587 23754 0
-5378 -7788 0
11425 23304 0
-3905 19442 0
-12835 8591 0
10731 -21665 0
-18164 11020 0
19529 -2622 0
-5101 15488 0
22243 23456 0
-978 9924 0
17958 4339 0
-21979 -3814 0
-20786 -15401 0
23051 -627 0
17434 21435 0
-21394 21937 0
-5817 -3205 0
12386 2386 0
21169 12558 0
16217 -6909 0
-11794 -22549 0
3831 5868 0
2984 -23766 0
7703 7420 0
9821 -5486 0
-16631 -16839 0
-21593 13752 0
202 17704 0
17066 -9393 0
6223 -5235 0
-12670 -16449 0
21804 8724 0
23310 -15965 0
21352 10257 0
-3409 -19229 0
-3610 13223 0
-1084 -19439 0
9347 -11065 0
7452 -10088 0
20487 8091 0
-8589 -15701 0
-17188 3471 0
-2815 17770 0
16061 -19905 0
7677 16100 0
-8012 -12150 0
12341 7428 0
-13696 4302 0
8406 6970 0
13085 -2887 0
17984 21434 0
18632 5619 0
17155 4288 0
10531 18957 0
-4481 20939 0
22136 8683 0
15976 -10040 0
-15701 -9372 0
-4333 18461 0
4567 -13663 0
-10529 -21570 0
-774 5150 0
-17384 -4138 0
-17821 3931 0
-5337 21178 0
7260 -17979 0
-4011 14384 0
1312 -14654 0
-8895 -17024 0
-4133 7293 0
20081 -15697 0
-22137 13699 0
-1363 -11929 0
532 -15566 0
-22020 -20814 0
2577 -11206 0
-14748 2994 0
11111 17248 0
1533 -21288 0
-17836 -17530 0
18617 10146 0
11804 5270 0
16743 11307 0
-21743 14584 0
22724 -22308 0
4239 3181 0
-23507 12204 0
8401 6915 0
-2966 -12018 0
11930 7102 0
12136 18770 0
-17409 10762 0
22310 1049 0
-12406 12783 0
3766 266 0
18138 -11672 0
-453 -20503 0
9257 -23093 0
-10999 -9161 0
-16712 23155 0
20677 -2588 0
11849 -22157 0
12619 -12536 0
22552 71 0
-7594 9059 0
9352 -19744 0
2108 -1805 0
1630 -9390 0
21214 -15508 0
7685 -11686 0
-14285 -6582 0
-15427 -4378 0
-10707 4086 0
2204 23680 0
113 -4811 0
-3 -17785 0
-14384 -16785 0
8544 12585 0
-17275 -9367 0
-2164 -685 0
-14415 -6417 0
10069 12460 0
7675 -22155 0
22808 -11915 0
15906 -15715 0
13812 -13537 0
15512 18644 0
-4778 -6350 0
3581 4777 0
8802 -11701 0
8507 -5161 0
-3037 6189 0
-4876 -3565 0
22127 22462 0
-9339 968 0
-16123 10153 0
-10996 17522 0
18314 9711 0
10002 2684 0
18707 -11977 0
-5150 -1921 0
-22850 -8530 0
8062 9286 0
-23514 14212 0
16260 9996 0
-3666 13688 0
-19968 16236 0
5771 -12321 0
9216 -22407 0
-15411 -4416 0
21484 -1464 0
8966 -12819 0
-22013 -21544 0
18568 13626 0
-10748 -16953 0
-11588 -3203 0
4489 586 0
7136 -6931 0
-10472 16705 0
23522 22404 0
23698 -2799 0
19563 3842 0
-20544 20163 0
-15307 9047 0
16225 -1983 0
-18819 -20777 0
-21890 -14836 0
-16024 16001 0
-20689 -20073 0
22147 7424 0
-18359 -5414 0
9654 -9071 0
13113 15774 0
-7421 1631 0
187 3918 0
-20061 -18039 0
5314 3290 0
22875 -14406 0
-19798 -15142 0
-13579 -2768 0
-15397 18396 0
-23231 -19401 0
22750 -4096 0
-5193 8955 0
-670 22769 0
10766 15225 0
-10864 -19673 0
18431 -367 0
-7273 -19436 0
14660 8696 0
6364 -15775 0
-21295 12598 0
22386 -14456 0
-2384 14953 0
-8464 1362 0
-10865 1516 0
22334 1303 0
14874 14406 0
2069 15372 0
-10963 -11319 0
18004 -20434 0
-3681 14914 0
10955 6675 0
-22045 20478 0
-22760 -15136 0
11059 6915 0
-23014 9119 0
1940 7538 0
-9793 11341 0
-10800 3771 0
-20709 -14484 0
12116 -12442 0
4490 5576 0
-6981 7257 0
15552 22630 0
17660 -17600 0
-1081 -17791 0
-11463 -16760 0
11839 12771 0
-3617 -17959 0
-4720 -1185 0
-19101 -20740 0
21340 -6374 0
-17273 13553 0
4205 -12635 0
2976 -23515 0
3448 19927 0
3716 18843 0
-12447 -14663 0
-14115 -22688 0
22171 -14237 0
17846 3095 0
-17734 23738 0
-19306 -10161 0
2514 15200 0
-14409 -16094 0
17584 8563 0
-22387 18644 0
13612 855 0
8055 4476 0
2012 1922 0
17693 17918 0
14188 21299 0
15725 -11888 0
23250 -22934 0
6998 20488 0
-22024 -4722 0
4716 -14623 0
-22464 -6983 0
-725 1392 0
-12182 2872 0
-4968 -4601 0
-7019 -19469 0
-3654 128 0
-8919 -22218 0
-3395 -19846 0
4193 21181 0
9731 12053 0
-3458 16587 0
16777 -22072 0
-19291 636 0
-12655 -16613 0
-6682 20685 0
14409 -21365 0
19509 -21973 0
8063 20590 0
-7385 -4775 0
16953 -11049 0
-807 15489 0
21484 12249 0
-6545 18466 0
23086 -15563 0
22030 19163 0
14871 -9246 0
15452 23273 0
23620 20233 0
-7148 9893 0
16999 9369 0
-471 9908 0
-3746 2560 0
5364 -3527 0
23340 14480 0
17131 -17805 0
-3565 -12142 0
-19754 22868 0
-19333 -23133 0
-2472 23153 0
6925 -11148 0
22507 -9229 0
13062 16207 0
-13001 1516 0
-18524 10013 0
13548 -12981 0
-21556 20655 0
15315 1681 0
11516 -18636 0
616 12890 0
-9660 -5176 0
9199 14929 0
602 23501 0
-8860 -18672 0
3082 -19294 0
-12096 -18590 0
23685 21975 0
18481 -3580 0
10887 12397 0
-13151 16134 0
20484 1557 0
10962 -14737 0
20161 841 0
-6287 16715 0
21549 18366 0
-15304 -17620 0
5630 -20455 0
-7382 -15525 0
-14542 5277 0
-21000 19793 0
15648 1075 0
-9615 62 0
12728 -10899 0
-7227 7068 0
-15346 4695 0
12856 -3846 0
9455 -9144 0
-12886 9163 0
10623 16455 0
-2783 6398 0
22966 -3586 0
-19089 -4157 0
-13155 -7969 0
-5883 2258 0
-3453 -5386 0
-16126 7027 0
2852 -20534 0
-5897 13838 0
5743 -19389 0
-5565 -14628 0
-4188 8776 0
4574 -7595 0
-15958 -15019 0
-9991 14394 0
13340 23755 0
-23297 -18514 0
22801 10579 0
-14972 -23599 0
-22565 9333 0
-20442 -8005 0
3584 9099 0
-16127 7930 0
-2550 7916 0
-1041 -15092 0
8467 -12134 0
21031 -13893 0
6276 -8761 0
4861 15101 0
-6467 2267 0
-13207 18693 0
14408 -12228 0
-3500 -18858 0
-22828 15443 0
6227 21734 0
-6063 -4431 0
12951 20513 0
1117 18838 0
9662 13496 0
22562 -8460 0
-3332 -659 0
19104 20997 0
6441 -15282 0
14064 14887 0
-19926 -1653 0
9436 20710 0
-17912 19258 0
14811 19462 0
-21252 13144 0
6683 -11907 0
-11606 -21230 0
1153 -3227 0
1858 2191 0
18639 19391 0
-13896 6109 0
22626 14138 0
729 10465 0
-23732 -3843 0
-2113 14182 0
17206 15968 0
-4067 -11906 0
11169 -17566 0
-14146 3593 0
-12544 -5545 0
4294 2862 0
10753 20901 0
-3901 -21247 0
17266 -11600 0
15165 3240 0
11384 1210 0
-21547 -9978 0
2177 -517 0
-22407 -5458 0
-7189 20657 0
-5508 19551 0
-10882 1257 0
-14165 -7378 0
-23026 2812 0
10860 -2940 0
-9731 17110 0
-11653 18906 0
1682 -5454 0
6227 -9107 0
-12558 -15161 0
12033 -1073 0
20791 -3184 0
14492 -18013 0
9688 -18702 0
-20945 4511 0
9141 13901 0
11056 22394 0
991 14235 0
-141 -14052 0
11477 -7055 0
-2304 4353 0
-6592 4124 0
23473 18914 0
11762 -22855 0
-11573 -4962 0
12537 -20530 0
18177 13929 0
-5218 -19585 0
-3523 15607 0
-7125 5471 0
-15765 -5355 0
11104 -16186 0
14650 16810 0
-7956 23486 0
-19514 -1311 0
-20093 -17992 0
-1888 13478 0
6493 -19274 0
-22380 -7735 0
14408 -4792 0
16472 3321 0
5938 -12845 0
6057 -9591 0
-16391 23706 0
3658 -13882 0
2221 10683 0
-12506 14139 0
23716 -6073 0
9935 13211 0
-18955 15879 0
7917 -4674 0
-20604 -10436 0
-930 4446 0
-20038 21011 0
9532 -21061 0
-1666 -16443 0
-15090 13725 0
-13331 11145 0
-21119 12211 0
13407 -8092 0
-16307 -2858 0
4875 21972 0
-994 22277 0
22207 5660 0
-6357 22098 0
19534 -12298 0
-17077 -9482 0
-11379 -3373 0
5281 -2706 0
-12665 20122 0
18554 -4731 0
-18868 19219 0
14924 9079 0
22411 -13827 0
1342 -13403 0
13934 -3704 0
1265 4331 0
-22159 9939 0
6357 7572 0
-7566 10337 0
-12569 -966 0
-15555 -23383 0
18745 -11718 0
7935 17156 0
-10842 20621 0
23339 -23277 0
9460 14636 0
12950 -5864 0
2327 5283 0
-17097 -7220 0
-14175 18891 0
10853 -7530 0
-11752 425 0
-16921 -16796 0
-12537 -13157 0
6493 22235 0
5696 -17488 0
-11320 5702 0
-13295 -5884 0
2429 -15456 0
-19901 659 0
4494 -16505 0
15056 -18586 0
10046 -9200 0
3636 -7863 0
-12885 18807 0
17980 5777 0
17449 -8411 0
19226 4047 0
4305 -22101 0
16753 -1528 0
-12297 18627 0
22863 -15562 0
8480 235 0
-23034 -18590 0
15608 -6500 0
8559 8734 0
-21544 -5819 0
8448 193 0
-13531 14348 0
-23046 -4464 0
21299 -128 0
21182 -14311 0
-15184 -12031 0
-9317 13645 0
-1657 -13036 0
20904 12940 0
-13416 13063 0
10252 14064 0
11920 -14603 0
-1789 14590 0
-22579 19310 0
13050 9059 0
-18718 -19692 0
-21396 -4866 0
-19667 15857 0
-4023 -6614 0
-9244 14615 0
-5836 18139 0
-18170 -12631 0
6575 -6215 0
20208 -23786 0
-18244 2737 0
804 -2287 0
3329 5928 0
-18348 -23214 0
-23061 -634 0
-21811 1399 0
13538 20037 0
-635 -6907 0
-6796 -5925 0
-23254 -16500 0
11793 -1160 0
-11090 7240 0
16725 22567 0
13737 -21779 0
-14027 -13066 0
12996 1665 0
14116 -6655 0
1503 -11171 0
-19951 18421 0
-2157 -793 0
7163 7148 0
-7748 6700 0
21199 -5142 0
5833 9132 0
18885 4809 0
-18979 -11465 0
14083 21736 0
18944 -5525 0
-21497 9925 0
-11848 15602 0
-6534 13154 0
-4406 18042 0
-9943 -19682 0
-19270 11515 0
-2037 -12100 0
-23196 -7483 0
-6248 -9706 0
10699 9301 0
21316 12994 0
-1574 2636 0
-6728 3224 0
-22746 -828 0
2730 20388 0
12960 6249 0
13199 17441 0
-18440 7374 0
15937 -6651 0
-344 22590 0
7392 -17852 0
13764 12705 0
9666 -1875 0
7945 16386 0
-20677 -21757 0
12013 22203 0
18361 12504 0
12396 20453 0
18737 -6710 0
10763 -12934 0
13632 -9650 0
-17534 13276 0
-17099 10326 0
773 -2166 0
-17314 -879 0
-19025 19394 0
13065 13809 0
-14104 -5841 0
-13019 15979 0
561 -6321 0
15020 14619 0
-15171 -12739 0
-939 -18978 0
-12743 -4061 0
14210 5181 0
-8767 -10249 0
-152 7711 0
-23161 16013 0
-20808 -9359 0
20218 22358 0
2430 -12698 0
-3968 -10033 0
16750 16039 0
-11850 12380 0
16303 -16644 0
-14105 -19290 0
21865 21236 0
6313 -20192 0
-6448 21106 0
4263 14441 0
-1310 -6055 0
-5173 12652 0
-22246 -13350 0
-15050 -10772 0
18301 3698 0
10624 10424 0
10684 -21775 0
5163 -14159 0
-14146 8769 0
-4170 -12106 0
-12453 8926 0
-7269 -22271 0
3011 -21690 0
7053 22599 0
-16166 15973 0
-13150 -8473 0
-18668 19470 0
6807 16981 0
686 -8805 0
19935 7503 0
-8815 9466 0
-11589 -12147 0
-11004 -1944 0
16687 -19574 0
-3848 3067 0
-12196 23263 0
-8668 -7448 0
22910 -7291 0
20869 3747 0
2723 -10418 0
-22101 -16384 0
-6617 1899 0
-7206 4151 0
11050 -2318 0
-923 -14168 0
-7597 4578 0
-16021 19372 0
14325 1370 0
-15043 -8000 0
-12618 -9693 0
-8549 -22835 0
-17185 -17053 0
3145 -23569 0
4628 10050 0
16796 9638 0
21167 20045 0
-3170 -8806 0
-14830 -18332 0
6254 15204 0
4661 -10365 0
4659 -6370 0
12566 6677 0
23320 -12482 0
16402 -20765 0
-19667 3140 0
2601 -8638 0
-10182 -10055 0
14360 4961 0
-12994 20454 0
-19368 11239 0
176 -18740 0
5102 -13387 0
-4038 3697 0
19432 -23079 0
-13904 -11834 0
6547 1110 0
-6706 -6633 0
-6953 21501 0
-12644 3928 0
-11743 -15371 0
-7422 22020 0
576 907 0
12192 1080 0
-6726 6178 0
-15293 -20102 0
-23242 19576 0
-9095 -9730 0
6325 9010 0
-17264 -1965 0
-14680 -2050 0
19990 900 0
-15929 6997 0
-6249 18096 0
-9171 -1857 0
8047 619 0
-22045 -12450 0
-5490 13392 0
7917 -11511 0
19173 8263 0
-4884 19252 0
11948 -18269 0
10055 20489 0
12978 11471 0
-18430 -12655 0
9217 -14950 0
-9767 -1566 0
-13868 -3561 0
-7133 -23786 0
15143 -6307 0
11323 -11831 0
-8138 -21930 0
19512 12993 0
-614 -12526 0
609 1616 0
-21767 19228 0
8760 -13518 0
-13681 -16154 0
-13180 -20341 0
12429 21248 0
169 -17004 0
16582 2466 0
-17489 10929 0
11768 1429 0
-1849 -21332 0
336 -3534 0
2445 9652 0
-10411 21677 0
-16592 -16431 0
-11763 -14466 0
-19845 11951 0
12784 9481 0
22490 16947 0
-16766 -11001 0
13253 -16935 0
-14116 -5346 0
-1307 -16431 0
12043 -17947 0
13239 599 0
-21353 8542 0
16986 12804 0
-332 -17629 0
342 619 0
1283 5978 0
-15257 -6430 0
16097 7446 0
-409 8934 0
-3206 21937 0
22022 23020 0
-12817 -3346 0
-22052 -8557 0
-14140 -11377 0
7575 -7391 0
10498 4471 0
-11355 -4398 0
-7579 16918 0
9631 -9319 0
-70 17073 0
-16009 -8357 0
-10920 -8234 0
-22596 -14301 0
-21510 15956 0
-11082 4975 0
11617 -12408 0
18051 -12465 0
-8401 -6159 0
-19476 739 0
7797 -9536 0
-9812 -17817 0
-19007 12816 0
-21945 -9785 0
-4650 21218 0
-1094 -17394 0
-20876 23619 0
14014 21646 0
18377 3464 0
8739 22148 0
16968 2022 0
20526 6594 0
-21706 14219 0
13068 3317 0
3513 5685 0
-14858 3907 0
1019 7487 0
18438 -23228 0
-14188 -21679 0
-7718 -7101 0
-20899 7284 0
-6426 -374 0
15553 -12109 0
21648 5547 0
10214 4702 0
21515 4271 0
-9954 -12835 0
22282 -18306 0
15520 -20932 0
20648 16166 0
21443 -13829 0
5974 725 0
13116 -8695 0
20406 -9860 0
7658 4843 0
-20386 -21325 0
21207 -14928 0
15426 11758 0
-18077 12087 0
2106 3822 0
19315 -3367 0
14057 -7227 0
22007 -22380 0
-12652 -14932 0
8647 15878 0
16925 17873 0
-21550 -3624 0
2891 14003 0
22240 11946 0
7989 -606 0
20335 -19709 0
-4780 2006 0
8874 -3627 0
-19411 529 0
19083 -12736 0
-19317 5461 0
-20126 -9293 0
-14311 1584 0
-17814 21004 0
4123 -9429 0
-14074 -11274 0
23691 6865 0
5763 13407 0
-543 -19310 0
-19470 -2573 0
-23634 5069 0
-21516 -3736 0
14100 -21992 0
-18026 13641 0
18061 22606 0
4533 21426 0
-17925 2711 0
11153 7628 0
-15068 -15305 0
-534 -2523 0
-7440 -7109 0
-15255 -21063 0
14920 -2672 0
19638 -24 0
-19662 -17697 0
-20196 10002 0
-21704 23291 0
-5726 -14876 0
19645 -84 0
10743 -6289 0
18839 5522 0
16530 -17262 0
-22308 -3740 0
20016 8947 0
-4173 1194 0
13358 1583 0
-12585 -17455 0
-949 17679 0
-15554 -4034 0
-10140 -9612 0
4210 -2234 0
2898 21947 0
5873 -22484 0
-2661 7766 0
-126 -17045 0
17387 -9015 0
12498 9021 0
11061 7391 0
20804 -11614 0
14696 1438 0
-7630 20860 0
17740 -751 0
6951 18480 0
-7949 21257 0
16448 6910 0
-5944 -8739 0
-18427 -12117 0
-11375 6611 0
-16067 16152 0
-6846 3454 0
2331 -128 0
168 -21228 0
15426 -9767 0
17313 9197 0
-11716 13579 0
-20592 -22544 0
8323 11730 0
7992 -10451 0
-21945 17434 0
5947 19831 0
14818 9645 0
1210 -6533 0
1032 10541 0
-19220 -1564 0
9502 670 0
9595 9410 0
-16239 -8216 0
-22015 -8071 0
468 4705 0
-19149 -7024 0
19443 -8831 0
-15716 -5119 0
-517 -4635 0
21548 -13148 0
17891 10776 0
-15524 -7574 0
14002 19803 0
-16838 261 0
21726 23403 0
20645 4286 0
-3137 18281 0
9117 6461 0
-9503 5547 0
11164 21446 0
21004 -8084 0
17034 -7467 0
-1744 13808 0
3650 4027 0
-1485 -10533 0
-9820 -23086 0
-12131 21064 0
-16509 -11436 0
-11117 -11489 0
3295 1090 0
17131 -6500 0
-9710 6351 0
-2370 19693 0
-7981 1045 0
4234 -14588 0
5938 19329 0
-5451 23441 0
-22776 12273 0
-2089 21987 0
-9613 16849 0
-15086 -21946 0
-20025 10854 0
598 8929 0
7494 7248 0
17161 21796 0
-10261 -17732 0
-10727 14188 0
-2466 -17832 0
14202 19541 0
16184 -5946 0
-23182 -4152 0
11605 -18692 0
-22862 11197 0
-9090 12291 0
6964 -5426 0
-280 15519 0
16367 -11949 0
725 7535 0
-6555 19129 0
-11704 -12685 0
12331 18157 0
4729 2805 0
1299 15302 0
21347 19813 0
-15059 22471 0
8331 -20577 0
3872 -10649 0
-12653 12082 0
-6484 -4004 0
2695 16327 0
-1173 9752 0
1601 -2080 0
6834 -6699 0
17788 8614 0
18240 18188 0
11199 21251 0
891 5005 0
-7837 8793 0
-14343 -14398 0
-16577 7532 0
-20003 -19373 0
15756 -12306 0
-20807 -17445 0
13373 -8270 0
-810 -4170 0
5240 15182 0
-16623 -1340 0
1621 -11692 0
14307 -15369 0
19959 23481 0
8879 14451 0
9865 12743 0
-18692 -10035 0
-9046 22333 0
6189 21570 0
19097 4455 0
7139 13345 0
22265 8202 0
-18490 -11723 0
-4722 -22906 0
12678 13414 0
5818 19363 0
-15829 -7167 0
2734 -3117 0
-19454 16725 0
-5123 4725 0
-22378 -23086 0
12063 -18872 0
14412 10188 0
6960 -11232 0
-18514 -21518 0
2046 14299 0
-7220 -1780 0
-685 17728 0
8933 14357 0
20474 410 0
-6580 -11437 0
-19614 -5491 0
-18235 -10286 0
10858 9113 0
-9930 -13566 0
2503 -428 0
-20788 18628 0
9434 -20016 0
22593 10040 0
7180 1101 0
9204 -21805 0
-13634 6731 0
-13422 -6303 0
-2069 19086 0
19536 -4853 0
-22404 -11650 0
14885 22045 0
8235 -11091 0
18807 18465 0
-6211 2823 0
-14474 -7493 0
3651 21304 0
16993 5969 0
-828 -6307 0
-7203 8375 0
17915 14310 0
-8301 4797 0
8270 5210 0
-7685 20256 0
-12639 14668 0
-9033 -11932 0
19581 -22522 0
8531 -1021 0
-23791 4861 0
7513 11205 0
13705 -14513 0
9090 -9963 0
17194 1246 0
9937 2789 0
-21584 -4425 0
10997 -3029 0
-20275 -12825 0
22299 -166 0
-16141 -3200 0
-20279 -21033 0
-540 6897 0
-22380 11606 0
6525 17650 0
-15285 20289 0
-14223 11528 0
-4639 -9640 0
-16902 3898 0
-172 -4381 0
3993 7535 0
544 19068 0
-15584 -16824 0
9406 1758 0
22555 3933 0
-18939 -3407 0
8544 1385 0
-14607 9163 0
-398 -2833 0
11669 -8849 0
-12725 23177 0
-12173 -1089 0
-13177 4997 0
17601 15651 0
-13048 15814 0
1939 -21991 0
14709 22410 0
5849 7930 0
-13025 -5330 0
15074 22788 0
1736 20955 0
-15675 15960 0
21411 -1483 0
-13053 -5658 0
-17438 -6786 0
5979 -6854 0
5580 16989 0
585 -19783 0
-4156 -5585 0
23720 -5856 0
-17131 -986 0
8980 1615 0
-21694 16000 0
-8273 21696 0
-3693 -1617 0
-15482 -18817 0
-17963 10441 0
-15970 -346 0
-23349 9357 0
-10921 -20973 0
-19574 -2069 0
-4939 2060 0
7284 22027 0
-12318 -1139 0
20965 -7726 0
-7090 -10628 0
-12011 -14560 0
10832 -17240 0
-12539 -19954 0
-13067 10992 0
20953 19197 0
-3645 -21771 0
-23525 22419 0
-20432 -5045 0
-1353 -52 0
5521 652 0
-14136 -20580 0
-19268 934 0
65 17373 0
-7435 3412 0
-21320 6695 0
-8244 -20780 0
-21622 -6202 0
12492 -18182 0
-13266 -430 0
1880 -16067 0
-9449 22821 0
15078 8587 0
7279 -21006 0
12135 14498 0
-4692 -1742 0
16002 9088 0
22774 -12957 0
-17600 -3614 0
-8022 6677 0
-8832 2810 0
12746 -10427 0
11233 -16519 0
2344 -19262 0
3712 -250 0
11875 -22198 0
-3229 15788 0
-7369 9826 0
-9086 -2859 0
10614 -3960 0
-17339 3344 0
14448 -21084 0
3556 16024 0
20646 -2911 0
12563 19709 0
13144 -13338 0
-20346 1473 0
-8752 -11745 0
8528 18193 0
5791 17 0
-20587 5959 0
10128 22546 0
-15490 -11071 0
-12081 9739 0
14752 5698 0
-12815 18101 0
17325 6572 0
6637 1477 0
-10249 17835 0
22091 12110 0
-3711 18583 0
705 -17202 0
2860 22324 0
-13217 -9938 0
-18659 12918 0
18927 -22368 0
16376 -19770 0
-4460 -6575 0
-3529 891 0
-8639 6477 0
-8160 20815 0
3092 -9868 0
15030 -14939 0
-8687 -21564 0
-19322 8843 0
22953 11710 0
5780 -14450 0
-8111 2510 0
-393 -21789 0
-14944 -10941 0
21341 -21379 0
-11080 -9338 0
22666 -12791 0
-15535 23776 0
5164 -9882 0
-14308 -11082 0
-7657 3996 0
7461 7056 0
10056 7742 0
18530 7080 0
-12609 -9761 0
-317 16162 0
3396 -2311 0
4432 -3740 0
17327 -7006 0
-17291 1056 0
17463 7832 0
1735 -4870 0
-21059 9700 0
-13525 -5401 0
-13854 -11329 0
9950 -21570 0
-9077 -12092 0
-17148 8836 0
2567 1311 0
-19043 -23170 0
-17432 -16617 0
-4769 -7629 0
13794 5352 0
9945 16070 0
2443 -22269 0
3751 -21126 0
16221 12424 0
-13716 6479 0
-12250 -4240 0
-20563 8869 0
2940 21249 0
-23158 19094 0
-19228 -17841 0
16308 3644 0
-18904 -6892 0
-16294 12172 0
14433 -10039 0
-5805 12057 0
-7842 -14076 0
-17758 -13180 0
16740 -23231 0
16250 -14097 0
1011 18520 0
488 8619 0
12990 -200 0
-5406 2171 0
-6560 18314 0
-2844 23036 0
1249 -20327 0
-19372 1952 0
-11358 -6853 0
23221 -12 0
-14301 12376 0
-5104 8713 0
-5973 -11735 0
19906 7183 0
10039 37 0
-8398 -8792 0
-20713 17309 0
-11722 9948 0
-4986 -709 0
12525 -12160 0
4880 8272 0
13760 2602 0
-5662 9288 0
-17379 6588 0
19196 14307 0
20336 10534 0
9900 4455 0
5628 -3332 0
17452 23127 0
-6848 8724 0
-10619 6643 0
20632 -9523 0
-9091 -7132 0
-13255 11882 0
19968 -23725 0
21388 14900 0
6207 -15291 0
-14336 4458 0
-23049 -10048 0
999 4818 0
18994 8879 0
10233 19935 0
22387 -1983 0
-12441 4001 0
-2325 -1494 0
-16354 12916 0
19414 16683 0
-21356 20348 0
-19200 -15847 0
-16976 4711 0
-6254 -18468 0
9756 -22643 0
19843 -23540 0
-9029 -9774 0
-16870 13847 0
19602 -222 0
17270 1058 0
2935 9559 0
-13706 14044 0
-23497 15099 0
2313 1392 0
-22752 9941 0
-5184 20174 0
-16405 7777 0
-10640 -17428 0
-23280 -15788 0
12715 3098 0
16956 10305 0
-3174 -14346 0
-8765 -12583 0
-14594 -19401 0
10593 -8813 0
-7583 10071 0
6896 3289 0
-9416 5747 0
21388 6616 0
-8730 -4324 0
12443 -10204 0
-17971 11988 0
14501 -10711 0
23713 -5729 0
9686 12685 0
17866 23007 0
3542 18397 0
-8956 19162 0
5068 -14950 0
611 244 0
4495 -21561 0
8283 -20527 0
-19050 3878 0
11680 20300 0
20060 -15391 0
-26 4793 0
-10252 4699 0
-7452 12043 0
-1837 4941 0
14494 667 0
-3495 -19800 0
2755 -18277 0
11407 8747 0
-4048 6146 0
9000 -11185 0
16446 -3198 0
14153 18922 0
-14994 2401 0
18296 -8148 0
-4601 11954 0
-9250 17011 0
21681 -4967 0
21661 4763 0
-7270 10156 0
14611 16122 0
-12966 -12399 0
-5577 23505 0
-5924 13816 0
10525 -21048 0
3994 6310 0
19821 3433 0
-18362 -20682 0
-13733 -15123 0
21985 5548 0
-4619 2349 0
-16214 -12146 0
-4644 -5368 0
-12516 7546 0
4329 -20288 0
18386 6678 0
-12341 -9768 0
-14903 20049 0
15747 17179 0
12466 -20864 0
-1867 -14970 0
20301 -16533 0
-18238 -20215 0
-5001 -1157 0
14071 16598 0
-3573 -20178 0
12082 -14500 0
10507 9591 0
-19988 -20620 0
-2125 -7952 0
833 -13730 0
-20749 -12456 0
-21978 -12268 0
16109 11420 0
-2727 -956 0
11098 -20798 0
3194 15026 0
17767 4284 0
-20741 15944 0
15375 -11018 0
-8263 -184 0
6090 14639 0
-5209 -16897 0
-18173 7142 0
17958 -3767 0
13416 13342 0
19605 -6685 0
-21930 1350 0
-5096 18350 0
2850 -17583 0
-1389 -10586 0
17234 2005 0
-23790 3662 0
-2743 -2934 0
-18636 12160 0
-4409 -6655 0
-12242 -15942 0
-11803 -8350 0
16297 5374 0
9737 -867 0
17655 -14803 0
-10601 -15214 0
-13285 9454 0
-11508 4409 0
-4425 8523 0
-14452 -3710 0
-23293 145 0
-15091 15090 0
-20629 16214 0
-16861 -18250 0
1289 22030 0
-15923 -6552 0
-283 20059 0
16139 -18798 0
-10646 6935 0
-8412 17141 0
-18165 22606 0
8557 -4927 0
12998 16283 0
-2854 -9609 0
8256 12572 0
3661 6897 0
1212 14612 0
8529 20114 0
-6181 18698 0
-4112 2175 0
-102 5647 0
19383 -19347 0
5985 21468 0
-20174 -19608 0
-20031 -1684 0
-11359 -9805 0
-16518 -20447 0
-3678 -13356 0
-9274 17231 0
-16625 -12397 0
8113 20910 0
19549 -11507 0
5824 2808 0
-3868 -23190 0
4839 4607 0
-7448 -1019 0
17917 5364 0
5667 5752 0
21139 -2031 0
-4919 14907 0
19713 7747 0
12935 -14222 0
-14050 -742 0
-21851 -16892 0
-3495 -6793 0
-10923 -21629 0
-19685 -13872 0
-6622 -9092 0
-3071 11412 0
-22738 -21377 0
1190 -2000 0
21702 19298 0
-21553 -844 0
-18316 -15387 0
-11354 -1699 0
18139 11320 0
20807 -6910 0
23202 -10351 0
-4374 9074 0
-835 -12052 0
4722 -17428 0
-4044 21869 0
-18195 -12800 0
20929 -3908 0
18662 4048 0
21646 -6170 0
686 7949 0
-3063 3269 0
-4471 -20550 0
13228 16341 0
-9623 -21026 0
-19663 -21875 0
-20523 19655 0
-10936 -15109 0
19853 -5186 0
22060 18328 0
-10373 -4377 0
9505 22231 0
23049 17166 0
-15144 2564 0
-15275 -7692 0
11933 -11833 0
7551 -18041 0
14354 8544 0
9840 20249 0
-12967 -9763 0
20944 18152 0
21751 -11943 0
10645 15347 0
20953 -13473 0
-5433 6582 0
22038 -9422 0
11283 -14651 0
10395 17244 0
5915 22362 0
-17529 -57 0
-15989 22930 0
5228 23252 0
-20842 -18170 0
-1091 4213 0
21117 -23329 0
18316 3816 0
-21854 12506 0
-3881 -2676 0
-15001 -9433 0
16411 -12919 0
16653 -11064 0
3837 21666 0
357 15426 0
17450 3167 0
-16317 10235 0
5022 5242 0
10037 -7273 0
-5840 12419 0
-6954 5230 0
17948 10642 0
13687 -2048 0
11210 -9848 0
7567 -5820 0
-7427 11677 0
-18515 -19193 0
-21917 1869 0
23133 15395 0
9340 -9600 0
-3719 -7724 0
-19507 854 0
-14135 16927 0
5095 18684 0
5572 -18308 0
-2372 8189 0
-20736 9961 0
12258 23610 0
19776 16689 0
16126 16236 0
1275 8229 0
329 5346 0
-12465 3335 0
14011 1732 0
-7081 1076 0
12414 -20463 0
-12929 1412 0
-14608 -832 0
23470 -1614 0
-4092 -5537 0
-16382 8506 0
1495 13324 0
-780 -21873 0
6189 -17020 0
-491 2705 0
14935 -5395 0
21227 -23245 0
-13334 3303 0
-607 -19212 0
11255 14476 0
9407 6106 0
-15416 -21571 0
6030 8272 0
18430 -18359 0
-15291 8135 0
-6355 10613 0
16354 21248 0
-19931 18126 0
6097 2055 0
10312 -11761 0
23347 -572 0
19782 19560 0
12853 2009 0
-19752 17496 0
4189 -13526 0
7584 -1932 0
9773 19543 0
-13923 12021 0
-1369 6338 0
14373 13701 0
-16165 13931 0
23180 -13997 0
-1854 18035 0
-18827 -642 0
1759 -19549 0
-2360 3439 0
15856 -8219 0
1771 -2307 0
-4219 -14549 0
-7676 -11113 0
-418 -14 0
-22597 6412 0
18615 14848 0
-19781 -999 0
-13836 -15854 0
-22175 21558 0
-3232 -7795 0
11552 2452 0
-3997 -21429 0
-6549 15730 0
14683 -17814 0
-572 7136 0
9189 13596 0
-8615 -8530 0
2968 22930 0
21918 -7220 0
1571 3426 0
14166 -22840 0
-9715 14267 0
19356 11660 0
-11256 -14944 0
-12678 18830 0
19170 22516 0
-22352 -5952 0
2318 2490 0
18762 17735 0
-9770 9751 0
14338 -13322 0
-13761 -8461 0
-16430 6466 0
18676 10982 0
21985 -10713 0
-19827 -21915 0
3014 15575 0
18528 14662 0
9023 -14105 0
23571 11082 0
-3941 -23213 0
-23111 -12078 0
22986 -277 0
20869 3706 0
-6826 -20751 0
17731 23048 0
16915 19559 0
-21855 9217 0
-20682 -906 0
-18048 -12960 0
-21122 11756 0
-1912 14770 0
-12025 10086 0
-16207 6221 0
-16850 8753 0
-2266 4487 0
22669 4812 0
2939 15090 0
13928 -5522 0
200 12371 0
-3863 22194 0
-5447 20671 0
-2364 -11139 0
11675 21242 0
-20271 7077 0
4970 3361 0
15921 6518 0
-14804 -11575 0
-9733 -19469 0
5145 18837 0
7750 -21269 0
8585 13386 0
-13732 -22799 0
-16102 15645 0
10541 -14542 0
1290 -20353 0
5309 10024 0
-16143 15064 0
-8895 23512 0
-7049 -6012 0
-11088 21359 0
20311 6550 0
14780 16235 0
13078 -12071 0
10866 20198 0
17258 -8878 0
-2853 -6890 0
2121 17333 0
-9906 6574 0
-17313 -385 0
8629 1093 0
17782 22046 0
-21450 -4924 0
23752 -14409 0
-8761 11023 0
-6049 -23356 0
-16826 -15537 0
20185 -10666 0
-23058 -8287 0
-11992 1886 0
10233 7254 0
20797 18698 0
-20858 -22478 0
-1712 10078 0
-4745 -6528 0
7966 -5812 0
5830 22507 0
-6458 -13493 0
20892 6925 0
819 5789 0
5630 -14750 0
-17739 -1152 0
-1475 21554 0
-5050 -16623 0
-3077 -20819 0
16376 -6196 0
-1424 -8445 0
-22092 -17920 0
-16487 -19425 0
469 2 0
-11109 -7771 0
-7722 20646 0
-12297 9841 0
-18818 -10825 0
13195 -18999 0
18926 18815 0
20005 -129 0
8237 1356 0
16473 17497 0
-4741 -354 0
-10440 17875 0
3241 -9391 0
8799 -5326 0
16709 -13042 0
-23499 11124 0
-19567 -3806 0
-19298 5713 0
20895 17587 0
-7522 23452 0
-11700 18899 0
-7584 9912 0
-2821 -170 0
13728 -10376 0
12646 -514 0
-2081 22615 0
-5175 -7935 0
-18256 12743 0
-11619 15348 0
-6852 11923 0
-2442 -21379 0
-15738 4981 0
22915 8398 0
11189 -21131 0
-6126 -19351 0
14204 -6924 0
15705 -11325 0
16762 1710 0
5441 -21052 0
-4634 1136 0
7248 -23500 0
-11964 -17072 0
10702 18335 0
-19826 17911 0
-11686 12080 0
-21558 -15824 0
2124 3000 0
15619 17187 0
-17486 -13530 0
-3194 18766 0
-13239 -15592 0
17171 -13100 0
-6445 12476 0
-14404 -13910 0
12081 4577 0
-14150 8147 0
-19012 -3469 0
-17939 -17890 0
-5117 -8297 0
8707 6181 0
15767 14022 0
-2506 -23258 0
-23574 -20424 0
-5763 -18613 0
15460 -7684 0
-16037 17228 0
21728 15551 0
-13040 9243 0
1852 1271 0
13317 17298 0
20930 -13991 0
16740 -1501 0
-23213 11774 0
9365 11811 0
21355 -5938 0
16368 -3993 0
-9668 -2577 0
12951 9754 0
-22093 -15239 0
-8500 -15898 0
-2573 4067 0
15445 -22706 0
-10951 -4633 0
-23668 -17830 0
14722 2743 0
4077 11918 0
-17566 -12884 0
6264 -14273 0
-1405 -18448 0
-5898 16718 0
10079 10540 0
-150 15965 0
-1960 -14716 0
13345 -18691 0
-6429 -10068 0
17951 -4002 0
-20941 -22092 0
-409 7461 0
-8768 -21252 0
-16175 -10818 0
-22806 -5354 0
3100 -5254 0
1077 -593 0
-16076 -11732 0
10870 22930 0
3325 -1567 0
-22294 -15893 0
-8416 -7701 0
16325 4666 0
-10986 -1090 0
8268 21404 0
8648 21790 0
21122 -22206 0
14946 13126 0
-1364 -3994 0
12106 1987 0
-20975 1638 0
13480 13797 0
22012 11445 0
-20566 -6494 0
23753 18388 0
22646 -20614 0
17897 12232 0
22060 3044 0
-7495 13732 0
5480 -15741 0
-8199 21151 0
-2906 -9482 0
15562 -5592 0
-4084 10151 0
-12287 16082 0
16745 20612 0
-23325 12656 0
4511 -4976 0
-12500 5822 0
-15745 -4147 0
16267 20065 0
9741 14558 0
8822 -18418 0
2188 16611 0
22261 15942 0
-916 23222 0
-22846 -12156 0
-2314 -8864 0
5192 5919 0
-2964 -22355 0
-13082 5532 0
-5169 -11516 0
23527 769 0
18493 -1619 0
-8604 13575 0
14860 -18416 0
-17726 19687 0
15520 -3785 0
-2481 15198 0
2741 15045 0
10711 10238 0
-11130 -22619 0
-13551 -8285 0
-18376 -14829 0
-22139 -444 0
-5212 -22656 0
18486 10000 0
19734 -14601 0
-7864 -730 0
-12669 21676 0
-224 22542 0
969 16328 0
4880 1670 0
18537 22556 0
15706 6400 0
-6354 -18801 0
8184 14344 0
17160 -6489 0
19536 -2689 0
-366 -17356 0
-8414 9636 0
17145 -7167 0
10493 -19372 0
-16958 -16417 0
-20858 -609 0
-7526 -22829 0
-2571 19672 0
-21758 19978 0
15313 -2097 0
13135 3157 0
7313 14155 0
-10879 15656 0
-21737 10027 0
3652 19821 0
-15258 -14095 0
12084 -3044 0
-492 14727 0
-14358 22770 0
14886 3352 0
-16545 13107 0
5265 -23224 0
-11602 13549 0
-3695 -1775 0
-17230 -22819 0
-19739 -1893 0
-6887 15953 0
2932 -3558 0
-10123 -18073 0
-22823 -11317 0
10257 -19751 0
-19531 6487 0
12896 7683 0
-1622 -13013 0
-14905 11418 0
13159 9514 0
1443 3904 0
4671 7705 0
-18216 -11718 0
7035 -3220 0
-1901 14220 0
-22227 -5513 0
21730 -22082 0
-12534 -10268 0
2707 -3475 0
-12862 -5878 0
19679 -5658 0
-14538 -11185 0
7164 7971 0
-13049 -6345 0
21125 -1162 0
4812 -19073 0
5890 -972 0
-19861 -3503 0
3247 -7301 0
5864 4561 0
18631 2043 0
-1273 -9845 0
4326 -18501 0
17047 -9311 0
1215 -15848 0
1011 16904 0
-7453 7033 0
-14751 -23590 0
22022 -19234 0
14998 -17581 0
-21790 -13642 0
-12160 -17098 0
1676 15756 0
19691 -22501 0
183 -9959 0
13145 13469 0
5157 18571 0
-6053 -3861 0
15027 -16752 0
13563 1858 0
447 19843 0
-12298 9419 0
10112 -3722 0
18600 -18190 0
-13566 11706 0
5272 9572 0
5768 4139 0
4652 11623 0
-18267 -17627 0
16338 -9402 0
-18275 -22715 0
12017 -22624 0
9393 -12086 0
-5380 21100 0
-14360 -7294 0
17707 2673 0
1754 9711 0
20014 -18398 0
3083 17255 0
2157 2219 0
-20309 11145 0
-13527 -1485 0
20172 8924 0
16666 3416 0
17912 10639 0
22058 -18007 0
-18596 -22521 0
-18629 16915 0
435 -4150 0
-5440 12745 0
23703 -23089 0
-12793 -16578 0
11690 11388 0
-17520 4656 0
-3024 11956 0
22020 -3679 0
-1260 -16909 0
17529 -327 0
11665 -23383 0
-5289 -1993 0
14018 -2915 0
-2246 21949 0
17310 17305 0
-5384 2670 0
-13146 3559 0
-1442 1761 0
-10290 14603 0
21408 5588 0
-7403 4400 0
-18593 -13552 0
7556 -5032 0
22798 -1264 0
21373 -20538 0
-1713 6361 0
4302 12503 0
18145 -9778 0
-6277 -12915 0
9927 18227 0
-362 12531 0
-23462 12614 0
18551 551 0
-5587 -7007 0
21598 22785 0
11467 6306 0
-13876 -2536 0
-7741 842 0
-11120 -19367 0
-22230 -5184 0
3339 -3392 0
11295 22731 0
-8861 -15562 0
-10409 -12151 0
-11947 -17913 0
6223 -18313 0
9134 5425 0
-23416 -4390 0
-6155 -12931 0
-11458 9686 0
8453 23395 0
-4487 -5377 0
19250 -8570 0
-14482 11789 0
-242 -17832 0
16148 -3400 0
-6494 -15142 0
2928 7087 0
902 -12618 0
11708 10238 0
-13609 -15481 0
-9331 -4926 0
-13514 7767 0
10300 -5932 0
-22222 -10216 0
-21612 -8566 0
-14842 -23299 0
-6986 -2176 0
-18770 22683 0
-21284 1667 0
-10265 23486 0
19606 22540 0
2374 10081 0
-18536 4988 0
-15923 18921 0
-22343 21573 0
19418 -7711 0
-10396 -22286 0
9382 -696 0
-16411 -18009 0
-251 16896 0
-22881 13286 0
13113 12033 0
12938 2320 0
-2711 -11757 0
-13299 -17737 0
6835 5500 0
22135 14435 0
20800 -5644 0
-22878 -17070 0
-14960 -3107 0
17873 -20674 0
-22681 -3293 0
7350 16115 0
12504 15080 0
-4005 22831 0
14869 10421 0
-3448 -7739 0
6186 1620 0
20103 8426 0
10417 -20945 0
-10355 9346 0
3470 -15928 0
7099 2678 0
-13450 17604 0
-20395 8358 0
-23052 -11351 0
4013 15027 0
14835 14064 0
7195 18023 0
6582 17661 0
6934 5238 0
-16504 16531 0
-13807 4805 0
-5769 17779 0
2976 -22969 0
6384 15626 0
7821 -15198 0
-11234 -2587 0
-15856 -8026 0
9199 16581 0
3089 -11729 0
12876 10941 0
21108 20394 0
-6436 -19771 0
-3506 23159 0
7280 14924 0
-19289 10733 0
-18117 21768 0
-133 -21180 0
11786 -3748 0
-7356 18626 0
23395 4186 0
10978 19328 0
-22261 7405 0
-13479 2968 0
22317 -3791 0
-19150 10153 0
3466 -18532 0
-19390 -1704 0
14420 8993 0
-9657 -12687 0
-21751 20554 0
-2631 20724 0
16321 4416 0
6716 -6450 0
7140 -3569 0
6174 15267 0
9590 -21597 0
518 9212 0
421 16349 0
-2195 3855 0
-14919 6538 0
-12163 -19750 0
13110 -5132 0
22081 -11268 0
18549 -22444 0
-14832 3226 0
-10602 4824 0
-16561 22717 0
-9783 2188 0
-1543 7973 0
6643 -14609 0
-15085 10034 0
-20802 -21281 0
7559 5948 0
-15505 8888 0
-23200 18667 0
-11384 20343 0
-12432 -13281 0
8861 10811 0
-13602 13535 0
21734 22896 0
-3001 -5849 0
-9684 9188 0
-19528 -3578 0
8519 15240 0
6832 12503 0
5751 -14135 0
7401 23549 0
-15903 -15182 0
19773 10576 0
-23728 -23445 0
11980 -18180 0
-21745 -17374 0
-14985 18133 0
16810 -17760 0
-10969 2971 0
-20428 -4561 0
17674 -10687 0
13837 7951 0
14382 10561 0
-2898 -349 0
8316 18485 0
-12151 3626 0
-19376 3613 0
-17079 -14426 0
-17230 -1542 0
-11560 -4339 0
-11387 -21843 0
23771 9184 0
-1386 -6584 0
-15892 -16498 0
8847 -21485 0
10193 -5829 0
19403 19324 0
-9749 -9865 0
7706 -766 0
14248 -1094 0
15283 -19471 0
10843 -8186 0
-8481 7473 0
20545 -2187 0
10695 -19139 0
-9219 14848 0
18742 -10704 0
15602 13080 0
-13177 15841 0
4631 6430 0
17127 -2276 0
20006 -20530 0
23237 18086 0
-8392 7843 0
-17106 -13117 0
-2915 -1650 0
17656 5797 0
21709 21263 0
15945 -11078 0
5240 22690 0
-21714 2065 0
17907 6379 0
20862 -9144 0
-4445 5181 0
1759 -23513 0
-21363 -14605 0
-19582 -21245 0
5811 3980 0
3517 -7022 0
-14891 -9770 0
-3042 5288 0
-15490 -13774 0
18351 -1665 0
-1951 17956 0
17518 22994 0
-21241 -13971 0
-10676 11554 0
16447 16481 0
-11211 -16202 0
19296 17811 0
7088 -15305 0
1211 -19705 0
-14876 -12414 0
19607 6781 0
-8757 15280 0
-17357 -23472 0
16992 -22196 0
9295 -8846 0
-19999 19201 0
7779 4468 0
2538 3546 0
-8271 -13373 0
13623 -23781 0
-19487 20642 0
19339 19736 0
6681 -17470 0
-20861 -8885 0
22854 15003 0
7770 22265 0
-22190 -13437 0
15340 10018 0
8803 -12845 0
11631 1737 0
-20447 -3627 0
-21999 -8760 0
5848 18885 0
-15302 -13458 0
7987 -16643 0
17518 -17213 0
-22709 2296 0
9436 -9517 0
21243 -22854 0
18803 -5622 0
18479 6464 0
12321 10725 0
22457 4292 0
16774 7915 0
13989 17257 0
22131 22720 0
21495 11852 0
-15516 17912 0
-11712 -6626 0
-5191 10917 0
-1106 21268 0
-19263 -20462 0
7084 -23057 0
-979 -6563 0
-2475 2794 0
-21344 22298 0
14276 -7557 0
11958 -12294 0
14710 6596 0
-20650 6653 0
-8173 622 0
15352 6014 0
19709 10728 0
-4112 -1066 0
-22884 -20174 0
6629 10964 0
-9408 2250 0
8941 -6241 0
11270 4967 0
10700 8786 0
-22935 -20252 0
-12156 3604 0
-5405 -10775 0
1507 -6730 0
684 -2629 0
-18824 2425 0
5461 -20725 0
-13493 -474 0
-20199 -9911 0
5879 -20566 0
-10520 17970 0
10346 -17502 0
-19371 -22027 0
-15675 -10521 0
999 3834 0
3275 -16916 0
-4552 -7403 0
11665 18406 0
-14145 14439 0
13359 -18102 0
-21509 13623 0
9130 -6410 0
21 -8668 0
-22151 11129 0
20166 -6070 0
1783 -12113 0
-3047 15789 0
8664 -18138 0
15343 -22686 0
-20608 -16850 0
-5709 -1135 0
-4116 7991 0
-13585 7085 0
1392 -2332 0
6263 21957 0
14490 -15393 0
7666 -22807 0
7392 1006 0
-13774 -15562 0
18974 -8313 0
-1551 4866 0
17907 6237 0
-220 -4359 0
-8689 -1273 0
-3564 12103 0
13540 -3095 0
-22757 6425 0
11436 23073 0
-20980 -9588 0
-16100 8013 0
-8950 1951 0
-2732 -7457 0
4167 -7159 0
3895 21609 0
9321 13952 0
-18940 15822 0
-2056 5063 0
-14254 10388 0
16484 22589 0
-2568 -17838 0
-12917 -19581 0
4786 21638 0
-14507 4518 0
-18416 9223 0
-1498 8419 0
-16284 19356 0
-12900 9419 0
-3078 -13952 0
15022 20395 0
17247 14433 0
23761 -901 0
5300 -12008 0
-7000 21728 0
19613 11104 0
4987 9485 0
-5491 17733 0
-3136 -21473 0
-14567 22984 0
8780 1993 0
22821 -4357 0
-6414 -17087 0
-14635 -6332 0
4555 -1661 0
-13350 -20058 0
-22514 20756 0
23279 17873 0
-1607 -4051 0
-16254 -20393 0
4618 6793 0
6018 17051 0
-1779 5731 0
-9909 -18564 0
-11872 20976 0
-18798 -20457 0
12671 -21607 0
-19627 -506 0
4816 -23032 0
18711 -22278 0
-7014 -16705 0
1063 7012 0
-21683 -9224 0
-17190 -16628 0
23554 22462 0
-4811 21549 0
-21827 10510 0
-5520 -12080 0
23116 10626 0
19518 -19516 0
-8028 -20422 0
-19403 176 0
11276 18550 0
22756 13030 0
-14988 18497 0
2451 608 0
-19459 -1983 0
-12405 21160 0
18501 -6425 0
1753 14090 0
12798 -14221 0
-15972 -15890 0
-6627 16348 0
-9745 -572 0
17855 12994 0
-5297 1428 0
9082 -3565 0
-9889 8422 0
-9746 -20962 0
-3424 6986 0
20834 6454 0
-11910 13590 0
20407 -4968 0
9098 9321 0
-16890 -10716 0
-11479 -22018 0
16878 -8135 0
-14880 15696 0
-21300 20900 0
14962 -13536 0
-9384 21777 0
-1071 12476 0
-18127 -8500 0
3157 -5487 0
11244 21105 0
15147 -8803 0
19465 1863 0
-7352 -4527 0
16785 3173 0
21842 -10582 0
-19194 15010 0
22292 22856 0
-4362 -6050 0
11066 11944 0
-9066 -16705 0
-64 20904 0
2504 -4117 0
13474 21392 0
1493 15505 0
17088 -700 0
14394 9798 0
1753 11307 0
-6722 15906 0
-10605 5026 0
21460 -150 0
15015 -3372 0
15679 -13832 0
5273 -17953 0
9195 -7839 0
-14016 462 0
-8168 -19856 0
1388 -14966 0
12908 -2899 0
-12492 -6617 0
15924 -5121 0
-5694 3168 0
18682 -10611 0
1002 -2668 0
6366 9116 0
-16055 14250 0
9599 -8166 0
7489 17980 0
13497 17927 0
-10596 21516 0
-625 1105 0
15270 20005 0
12755 -8169 0
2240 22760 0
13338 -22719 0
14775 -141 0
-19480 378 0
-8317 13793 0
1746 -7037 0
-19859 -1549 0
22192 17497 0
-10779 -15268 0
-13495 -3603 0
-22581 2699 0
-19647 20673 0
5854 -5230 0
-17742 22448 0
9752 12069 0
-5888 19350 0
-20665 18394 0
-8088 5876 0
-10635 -18894 0
-2740 -12067 0
20277 11319 0
14844 -13072 0
-6319 -5099 0
-21223 -6617 0
392 5662 0
17073 -23543 0
-6180 -23034 0
-19075 -23459 0
-13259 15421 0
21860 22574 0
-22809 -20189 0
-4337 5407 0
-18583 -3202 0
4062 18214 0
11784 18155 0
20748 21464 0
-21732 -20771 0
-17326 -9992 0
-23080 15699 0
8005 2966 0
3680 -11896 0
-20907 -20374 0
7023 -11529 0
17187 15403 0
11506 16559 0
19721 9910 0
260 23337 0
11641 17461 0
18186 1599 0
22248 -23765 0
-8183 -20427 0
-12949 -16082 0
17047 -11612 0
650 -10462 0
3597 19369 0
14481 -2021 0
499 19976 0
7139 -8207 0
15104 -1870 0
-20203 -8137 0
-406 15912 0
15841 21744 0
-1526 9019 0
-20001 -19264 0
-16443 13044 0
17288 23084 0
792 12600 0
22567 -23532 0
1605 -15393 0
7024 19214 0
-18730 -1972 0
10189 16638 0
15770 -21684 0
1648 20571 0
21635 21010 0
-18594 -1312 0
-4977 -8944 0
-9637 -10876 0
-13070 10369 0
15853 -6505 0
-1154 630 0
2874 -22014 0
23286 7333 0
12413 11297 0
8693 9248 0
9493 -23704 0
-17734 -2383 0
4631 -1814 0
-12015 -13786 0
5002 20053 0
-11673 -16547 0
22460 11738 0
-16238 -1954 0
-2615 -12324 0
-11012 15169 0
15961 13808 0
2483 -13711 0
-17858 741 0
-10567 -16560 0
5505 4337 0
10069 -5170 0
17750 -10102 0
-3651 -7857 0
-13458 14789 0
-16522 -18932 0
20189 10100 0
11822 18320 0
-4479 -10965 0
-9926 21905 0
6574 -17737 0
-23498 -5145 0
-8424 -6566 0
13839 -11685 0
15620 -26 0
-16209 -6719 0
-21779 -4540 0
-22686 14267 0
15489 7196 0
-4957 23081 0
6674 3885 0
-6423 -4901 0
-8882 -21195 0
-22423 23006 0
-15779 21522 0
-17332 17182 0
-2249 -8582 0
-15546 2011 0
-18147 -3001 0
-16372 10144 0
-17881 -11724 0
-22702 11822 0
-9087 -4269 0
6158 -22885 0
1756 20889 0
-18371 -15731 0
-11926 15624 0
-3840 8626 0
492 18981 0
18356 6949 0
-22013 -11164 0
23049 -19078 0
1446 4573 0
141 -10119 0
-16342 20770 0
-17072 -16823 0
-4603 -3558 0
-2351 11095 0
11311 -9372 0
-2796 -21655 0
14124 1933 0
-20441 9745 0
-11968 -1118 0
-1031 18705 0
-12562 17307 0
5608 -16024 0
-7705 14264 0
-22728 22451 0
3677 -16241 0
-18546 14194 0
-1125 -10867 0
14818 432 0
6731 -20586 0
4982 10372 0
23539 -17711 0
-5741 21653 0
-15135 12828 0
-22355 -15148 0
5493 11974 0
12988 8362 0
-16296 -13209 0
-4497 -22699 0
-4082 17403 0
21866 22899 0
6943 -19681 0
-17957 547 0
14437 -12115 0
-23045 844 0
-12428 5163 0
312 14723 0
-8359 -1133 0
16503 -11870 0
-18736 -15481 0
1725 7468 0
19805 -8272 0
8734 -3012 0
18243 8529 0
20708 10863 0
-11820 -7750 0
-2657 7536 0
6093 -9636 0
-21243 -8592 0
-12430 2268 0
9920 21728 0
8647 -22437 0
3519 19562 0
-12494 -43 0
-947 15169 0
-16605 -6020 0
-14406 12164 0
-7597 -14488 0
-22923 20018 0
-18580 -19 0
-3128 -7841 0
9132 20982 0
-12299 -4385 0
-11147 -9058 0
-22195 1584 0
-8634 21804 0
1957 15302 0
5665 -21559 0
19694 -8644 0
14068 -4763 0
-1269 -9798 0
6699 22937 0
11604 -15210 0
-18255 -12897 0
-1086 -3468 0
15208 554 0
16033 -13328 0
11263 -11409 0
-23622 -6270 0
5353 6087 0
3589 13983 0
21809 21458 0
-22479 -16213 0
-15718 -22061 0
-6538 13872 0
-21864 -2461 0
11060 -11073 0
-16218 13975 0
-13142 14694 0
8858 -6123 0
20182 707 0
3328 21327 0
-19846 19932 0
2492 4 0
-1906 12662 0
-8231 -23526 0
1698 -14033 0
4214 20681 0
-23351 2040 0
-1176 3488 0
-7829 -22825 0
-3419 22265 0
13947 16177 0
13687 19942 0
-2588 17950 0
-6810 19122 0
-21132 21337 0
8370 6433 0
-10860 11259 0
-8804 -20430 0
-6544 -19266 0
-7775 -18477 0
13512 9493 0
8440 10280 0
-14989 -12613 0
19592 10607 0
-19061 15828 0
10535 -18671 0
-10222 7902 0
-6918 -6642 0
-21047 -3792 0
-209 23583 0
10385 -8157 0
-8669 -6618 0
15977 5609 0
-11574 20154 0
19115 17098 0
9750 4686 0
-12101 -22714 0
-8863 -11860 0
9467 -1158 0
6224 -16894 0
16409 -17398 0
22660 -3498 0
19914 13732 0
-11211 17461 0
-5285 -23421 0
-18929 2177 0
11588 -16284 0
23338 -10311 0
-7745 15411 0
13617 21189 0
724 -14276 0
-22595 -14413 0
-20146 -3622 0
-6743 -16496 0
-9025 -14003 0
-2738 -3171 0
-12194 18991 0
-7142 4913 0
-7600 -8052 0
-16834 21514 0
-2231 -2266 0
11658 15751 0
-2582 -22376 0
-21819 -22853 0
5788 -12738 0
-17840 -20888 0
-20572 1866 0
-9898 -8556 0
-9556 22160 0
1271 -14399 0
-3673 23351 0
-6516 4290 0
-9129 -13092 0
-9953 23355 0
-22494 -22437 0
23777 7510 0
-3841 -6692 0
-19780 -10211 0
-6207 172 0
12964 -12098 0
3908 4192 0
8962 6157 0
5305 -5891 0
22357 17753 0
11167 -17253 0
15746 16386 0
13308 -13913 0
1096 22400 0
-12740 -21840 0
-15173 -9314 0
-20947 -7750 0
-5892 20446 0
17965 -19164 0
407 17701 0
-14482 16534 0
-6906 22335 0
-2642 15389 0
8492 2671 0
-7476 -4426 0
18547 20005 0
-1568 23116 0
428 12616 0
-20187 -11675 0
-23597 -17192 0
-5118 17238 0
-1014 17647 0
11111 -14793 0
-4547 15047 0
-5440 16978 0
18445 5272 0
11760 -1398 0
-12055 9574 0
-12625 -10402 0
16894 -19364 0
-16261 -12639 0
-18225 -3822 0
-4566 18849 0
20275 -11027 0
20599 10298 0
12232 6524 0
-22053 -4633 0
-9511 -7401 0
-4843 -21315 0
17869 -8240 0
12037 -6499 0
-22070 -11353 0
-6633 -2255 0
-5131 -15797 0
-16726 10329 0
13138 15436 0
-22845 -13731 0
23606 22015 0
9136 12212 0
-4745 7011 0
20419 435 0
18653 14200 0
-4979 8275 0
-9878 -20365 0
-19163 -494 0
-3847 21676 0
-20185 12322 0
-2543 -5037 0
15555 -21625 0
10672 6330 0
10723 2034 0
-4365 19138 0
581 7002 0
-4190 20238 0
-8940 -9248 0
4458 -17830 0
1570 -12623 0
-13801 28 0
15709 -16194 0
-14817 8619 0
-10839 15177 0
8945 6686 0
10559 16276 0
-774 111 0
-1026 9043 0
-641 12272 0
6912 5033 0
-6608 -5267 0
-5929 19458 0
14641 5510 0
16703 17170 0
-17857 -17187 0
-21983 389 0
-3293 30 0
16337 -4273 0
5581 10882 0
11618 3061 0
-6277 17201 0
-16290 6943 0
4002 2275 0
-6459 -4730 0
-11391 18234 0
-10628 5758 0
6015 -14660 0
-11275 21588 0
-17267 -21362 0
10575 -23287 0
15067 -10598 0
-7552 13713 0
1413 -1183 0
-19019 -13564 0
-14793 2603 0
-9495 20149 0
20743 12927 0
15193 3491 0
7829 12554 0
1647 15727 0
-4089 -23508 0
21103 -20386 0
7117 -10591 0
16399 18236 0
-10289 -7553 0
-5902 -12310 0
1202 -1379 0
-3016 -2918 0
18138 -7358 0
-7718 962 0
-18097 6535 0
-16924 -8373 0
-21807 12049 0
15865 17641 0
-4834 2699 0
-1804 -21552 0
-5176 -1071 0
-15728 23250 0
-11544 -3101 0
5285 -12913 0
-1989 21353 0
-11529 -12229 0
-5453 -14296 0
-20300 -191 0
5530 -22688 0
-20300 -14844 0
-5196 -23727 0
8706 -3773 0
22954 -11636 0
-14091 23208 0
-204 -11109 0
8016 -7018 0
2041 21444 0
-10149 9257 0
15983 16458 0
18432 -20586 0
-12431 15000 0
23790 17206 0
16664 -19899 0
18063 7283 0
10123 -12560 0
-6890 -12921 0
-12046 -19281 0
17509 22646 0
-1616 3226 0
-5520 -14676 0
-2807 15180 0
10250 10541 0
85 -9178 0
1908 15534 0
-18187 18383 0
-10364 19981 0
17898 -21301 0
-23512 16037 0
-15156 16863 0
21726 20183 0
-8234 -16066 0
-1316 -10254 0
-3997 -1236 0
-9816 13865 0
-9162 -16258 0
7011 10629 0
7789 2015 0
17037 -22282 0
4498 22788 0
-13594 -16368 0
10280 -14056 0
-21753 -11790 0
23 -14553 0
14399 12945 0
-11155 -20909 0
20250 17227 0
12715 -18370 0
-9908 -5066 0
-21772 -17924 0
7705 -16224 0
-22897 -862 0
14636 -20582 0
-12864 -15024 0
15498 10265 0
23647 -11934 0
-183 -8883 0
7425 -1389 0
13462 23074 0
-20542 -30 0
10334 -1478 0
-712 -16050 0
14854 -5318 0
14309 1112 0
13695 4960 0
19737 -1645 0
14250 -15068 0
-20585 -3442 0
18389 4574 0
5116 2534 0
5581 18500 0
-21765 -2781 0
16807 8799 0
-23690 -6046 0
-18641 -16532 0
-3591 22392 0
5840 10311 0
4614 21484 0
-22380 -7606 0
-4298 -14034 0
-9712 9745 0
2789 -7905 0
-4652 -11726 0
9982 2743 0
-14362 13694 0
-12559 -16872 0
14005 -21264 0
7921 11415 0
2804 -9481 0
-10401 4556 0
4710 11257 0
-11065 13248 0
-15942 9439 0
-10408 -18428 0
9081 3113 0
-7456 3420 0
-4459 -13370 0
-21449 -16619 0
13892 1276 0
4410 -4505 0
21638 -6030 0
23137 -19517 0
7932 -19674 0
-9392 -17920 0
23317 18711 0
15853 -5770 0
5198 13783 0
12777 14140 0
6730 -11652 0
-22814 -2793 0
-10845 -14277 0
-5448 -14465 0
-2946 19119 0
-11477 20846 0
-923 12104 0
-20868 -15943 0
8758 -1320 0
995 21847 0
-16017 -19888 0
12424 -16311 0
-14719 4984 0
14604 13118 0
8295 5163 0
-16185 1990 0
-19843 -4403 0
15784 -6787 0
-13756 641 0
-2470 -2463 0
7728 13417 0
-23511 22020 0
13452 7420 0
-97 -7706 0
7717 -5575 0
-22530 492 0
-5290 -12379 0
-154 1038 0
8349 -15588 0
22527 -7311 0
-9811 11355 0
11163 10616 0
6943 567 0
-19412 -3197 0
23340 -2749 0
17762 -2202 0
-19627 -11458 0
-15924 21064 0
22403 -106 0
-1547 -2103 0
7245 18199 0
4118 -21608 0
-23677 10937 0
1161 -6516 0
10585 23005 0
5098 6179 0
12802 22853 0
6265 4689 0
-18381 13945 0
-8530 3706 0
14728 -12441 0
-13735 13141 0
-10601 14541 0
1355 -11308 0
-13064 -5897 0
-9809 19618 0
10702 -13727 0
699 -23368 0
1772 7199 0
23185 14473 0
-3914 -22666 0
8950 -13055 0
-8635 20675 0
9826 22380 0
22519 -16906 0
-7310 -7924 0
-11916 11304 0
-10729 -8351 0
11509 5692 0
-19300 -242 0
2783 -18074 0
793 -14928 0
-4457 17650 0
-9304 10326 0
-20460 -16878 0
-7263 13763 0
-11981 -13266 0
-15784 -19684 0
-17928 -14055 0
8874 -729 0
7207 -22165 0
1697 17260 0
14678 22356 0
-17382 10088 0
15812 -22996 0
5019 -9433 0
-11007 -21285 0
7258 539 0
-3758 -8399 0
-1878 -20021 0
-16241 -395 0
17882 -10725 0
20043 3067 0
-23266 13375 0
-16166 -7692 0
-10774 11328 0
4864 3832 0
16462 17948 0
-22934 14789 0
5348 13589 0
-12815 -5092 0
6883 -17972 0
-19296 392 0
21550 -4826 0
1166 -4803 0
-14148 2580 0
15906 -3336 0
-7511 3391 0
-9518 19967 0
-22186 8885 0
6476 -21344 0
13063 10792 0
17526 -15216 0
5360 -19 0
22315 21765 0
-7735 -3444 0
23778 -19969 0
-912 15779 0
23079 -10250 0
-23529 -23720 0
13314 -18968 0
20114 19502 0
-19017 -23275 0
-3770 -11042 0
3896 -556 0
-2459 2595 0
2805 -4230 0
-2544 -1566 0
-6871 -4896 0
-5040 329 0
-13136 12153 0
-15852 -20409 0
1481 15289 0
-5827 -4270 0
-15038 19992 0
-10759 -15953 0
-9788 8644 0
-22366 -9451 0
23416 -15380 0
-9913 -1259 0
5955 22664 0
-607 -6398 0
-1911 8595 0
-22745 -21933 0
15914 8624 0
-3404 5101 0
14652 17434 0
-12715 13383 0
-18736 4584 0
-13397 -1945 0
15105 16231 0
-12710 23084 0
12191 9674 0
-15211 -5377 0
1284 -12450 0
-9462 -18739 0
3105 -17708 0
-13303 -5642 0
-19899 4068 0
-18139 -13867 0
5566 9003 0
-15321 11114 0
3677 20171 0
-1341 -18507 0
10542 -1977 0
11430 18494 0
-4287 -16592 0
22569 7021 0
-18734 1464 0
5231 13140 0
-4545 -17447 0
-18376 6591 0
10462 -12126 0
-23464 -19886 0
14672 1420 0
6279 -8463 0
9324 -11275 0
-21073 -7595 0
-109 -21893 0
19413 -8615 0
276 22012 0
-11994 -9556 0
15447 -9325 0
3894 -22287 0
-20017 12878 0
22641 11565 0
1506 22491 0
-23067 6224 0
-8267 8299 0
5507 14728 0
-9761 11793 0
3282 22622 0
18444 -9732 0
-1486 -22745 0
8064 4563 0
3330 12049 0
-23559 19091 0
-19782 -6930 0
-9032 -20902 0
13812 20656 0
-7800 22190 0
-17040 -14400 0
-17522 -4766 0
-6247 10644 0
-17763 20511 0
19762 20723 0
-22080 505 0
22758 14249 0
-14152 -18523 0
-17926 22896 0
-7827 16776 0
-19071 -23323 0
2019 11974 0
-7183 21359 0
-3140 -14298 0
-4781 -18058 0
19264 -11785 0
6897 3595 0
18004 3840 0
21156 19288 0
-19771 -3361 0
-9316 333 0
14877 -3315 0
20122 17908 0
-6850 15734 0
-6936 1056 0
-17025 5930 0
4389 5156 0
-8451 -18226 0
-23051 -17520 0
15600 3336 0
13994 16567 0
15990 -17696 0
-19051 -9286 0
5478 3152 0
20097 -22352 0
5344 -23483 0
7597 -22080 0
-3109 -16387 0
-21929 -1021 0
15945 19263 0
4662 -23712 0
13744 15331 0
-21896 16943 0
-17399 5588 0
456 2800 0
17450 8103 0
-22021 19847 0
-8485 1572 0
-6200 6227 0
20807 3478 0
13784 908 0
-14036 -11160 0
15003 9443 0
-12936 23668 0
-3548 15120 0
-4713 1884 0
4537 -20375 0
-11603 -10146 0
692 4540 0
15039 8073 0
-15048 -14259 0
-20864 -2524 0
-16087 -16547 0
-12268 -2646 0
8023 -10177 0
5953 20108 0
-22227 16934 0
-22610 -17289 0
-13840 21925 0
-13868 11660 0
8982 4694 0
-7825 -15046 0
-18932 -829 0
-12614 11944 0
20535 10816 0
-4895 21769 0
-1793 -17469 0
-19584 929 0
174 -23627 0
9612 -19999 0
19161 -2910 0
8214 3766 0
10134 -17566 0
-6491 23063 0
-6471 7828 0
6185 -23599 0
-20932 -23568 0
-16936 1937 0
18500 11802 0
-19417 -3449 0
-9086 -12133 0
15899 -18874 0
12032 -11973 0
13858 -22303 0
-20079 -2884 0
20051 3844 0
-5757 -9511 0
-7334 -22643 0
-21249 17948 0
18331 -23752 0
-20808 -4235 0
2543 -17143 0
4870 8732 0
7976 1507 0
-3732 -3763 0
-1755 -18619 0
23322 8300 0
-19472 -13730 0
6515 9563 0
16984 -3162 0
-21833 -15541 0
16684 -20403 0
-23240 -9514 0
-6089 16579 0
7163 -5841 0
16784 4301 0
-19830 321 0
21540 -3860 0
482 -9078 0
13608 -1742 0
-12499 -1911 0
-12292 -22031 0
23447 -103 0
-21647 1894 0
-23231 22066 0
-1321 1019 0
169 -19886 0
-9140 15060 0
11355 9825 0
1385 -23575 0
-10017 -23117 0
5915 23324 0
7847 12377 0
21385 -696 0
4922 -22350 0
-6609 -2069 0
15266 -15768 0
14137 -22716 0
-5763 -9651 0
22368 7161 0
8742 -20516 0
-1310 -10753 0
2973 3644 0
21658 -15193 0
10447 -23203 0
-20731 7892 0
13825 3822 0
6867 10523 0
21447 5109 0
-14439 -5531 0
-7848 -9388 0
-23527 5623 0
23161 -19102 0
19113 -21107 0
-2377 9560 0
-9687 -18514 0
-5752 -5536 0
20131 18925 0
12355 10820 0
13256 11680 0
17170 -21678 0
8411 10453 0
587 20834 0
-2297 -3360 0
-8229 22457 0
14534 11778 0
-2547 -10504 0
-4636 -23139 0
15548 -2443 0
11567 -12298 0
-4218 12361 0
19977 11210 0
-17956 23177 0
-1301 -5603 0
8998 16109 0
-19139 11915 0
-7767 10072 0
10047 20578 0
-15975 13124 0
102 -21893 0
-8669 -19451 0
16667 17233 0
15422 -18037 0
-1123 -15308 0
11004 22894 0
-17339 4215 0
-7465 -18668 0
-438 -8490 0
-8043 -2212 0
-10798 -21207 0
-13563 5564 0
22488 -16340 0
-16264 -20184 0
21152 -9051 0
14340 6124 0
-21694 -8146 0
-6449 -13298 0
-16123 14329 0
4820 19906 0
-17079 22873 0
-11683 -13130 0
9905 -16080 0
5488 5222 0
-738 12308 0
-6177 1463 0
13881 -20362 0
-908 17455 0
18242 -12614 0
20376 11962 0
8833 21042 0
-13661 21486 0
21029 1420 0
-19194 -20514 0
4194 -18211 0
9864 -18490 0
13952 1578 0
-12395 739 0
-4248 14585 0
10776 -8520 0
-10579 23757 0
12951 23570 0
-5197 -12160 0
15436 -20110 0
18361 -7521 0
9972 -20861 0
-14262 21997 0
-17955 -8857 0
18579 943 0
17048 -3501 0
-16601 23579 0
-22095 -14035 0
-10556 -5519 0
13606 21416 0
-10021 3416 0
-19018 -18407 0
1253 -9491 0
4586 -2474 0
-18204 13389 0
4487 -11910 0
-4763 19728 0
-1109 -15761 0
21018 -4377 0
18447 -9971 0
4573 17569 0
-21772 -23550 0
-5960 -18951 0
-18454 11986 0
-2187 -17241 0
-6290 2849 0
7666 21116 0
20491 -8371 0
-15540 -11504 0
-22688 -5 0
-18148 2510 0
2770 -2664 0
6385 -12201 0
9545 12336 0
16172 -681 0
14340 4872 0
16023 -4189 0
23227 19190 0
22022 14451 0
-1597 20679 0
-11009 4970 0
14366 -18330 0
-5883 3196 0
-11010 14889 0
-15038 19029 0
-12510 -4912 0
-15257 540 0
-20796 16529 0
8182 10690 0
15435 2736 0
558 -683 0
19375 -10138 0
9992 13031 0
19004 19641 0
-16950 20832 0
18980 -4238 0
22949 10501 0
-2722 4899 0
11058 15019 0
21537 -2369 0
-12502 -5018 0
-10725 -14405 0
-17262 -13747 0
-7107 11306 0
12398 17721 0
-21946 15561 0
16262 2865 0
-1445 -9601 0
-10430 20453 0
-3293 15985 0
-17862 -1395 0
-20192 -2237 0
23135 15015 0
-14429 896 0
1261 -3701 0
6337 -10809 0
6668 -16365 0
-3610 -11154 0
-21199 -21858 0
19911 8749 0
8986 -14992 0
16837 408 0
-4501 20674 0
2172 9703 0
-14500 659 0
-16030 -10498 0
15632 9777 0
-12345 -14131 0
3754 20153 0
12762 11209 0
18094 9279 0
-978 -14556 0
-13337 -14999 0
11858 11889 0
-14218 -4157 0
17814 11574 0
-10575 -22639 0
-3172 19305 0
17264 10428 0
16341 -2381 0
12508 13624 0
15472 -4460 0
-16378 -18805 0
-16044 -9053 0
8817 21126 0
17294 19863 0
2062 9607 0
20926 1474 0
8659 8976 0
5279 3047 0
18501 759 0
-16377 -17510 0
12728 8992 0
-10242 -15278 0
12610 -32 0
5406 23689 0
-1716 2228 0
-15964 11819 0
7408 4392 0
-308 15831 0
12050 -17163 0
-19003 -12886 0
-3160 -12514 0
-16600 -10982 0
-11794 21581 0
-63 -20467 0
-1743 -16792 0
-21976 21809 0
9995 -19844 0
18139 22314 0
6929 20755 0
-14697 22901 0
-19095 7912 0
20760 2713 0
-8890 -18658 0
-6097 -19457 0
14694 -2936 0
-8965 -1965 0
-17003 2097 0
-14834 18602 0
8652 -9713 0
-9868 23777 0
-23611 -13036 0
-848 14044 0
-2817 16396 0
-13579 -13241 0
-17194 -8043 0
13448 22838 0
-13391 -6360 0
-16299 -22033 0
17388 -6759 0
-16430 -6500 0
12253 -11330 0
-15051 -14835 0
10181 22941 0
-13660 11325 0
-2405 -14627 0
10832 -13008 0
-22025 3597 0
19645 -9699 0
20317 5535 0
3433 -13337 0
1233 -14769 0
21201 -2354 0
-1245 1768 0
10336 5703 0
13288 20748 0
-13866 23171 0
14270 20259 0
-18541 22022 0
13433 -21095 0
15328 18316 0
-14156 19335 0
-7594 5736 0
18514 6487 0
5954 7282 0
-4295 -5458 0
-16531 -11786 0
7648 -12210 0
17111 -22983 0
17104 -18246 0
-4231 -5132 0
-954 -22021 0
-9118 -778 0
-4640 -17584 0
-3966 -12478 0
-3363 -10684 0
4866 23274 0
-8276 2872 0
17323 -22568 0
19567 -2376 0
23523 4320 0
4889 -21122 0
-21312 -12128 0
1517 -12573 0
-19034 14763 0
12168 -528 0
-17346 -9720 0
17645 -16284 0
4857 18751 0
17833 -16657 0
2950 4261 0
19352 9306 0
-5395 -20210 0
-23650 -10540 0
20306 -20349 0
-8455 -8739 0
4591 -16182 0
6056 5841 0
-22055 -2132 0
21412 19758 0
-2243 6510 0
20153 13888 0
-23079 12903 0
-4434 17376 0
-5741 4835 0
8999 7068 0
-8433 -20669 0
11793 1637 0
22915 1306 0
-2465 22497 0
-10668 -1228 0
-1104 15155 0
12396 16498 0
-3335 -7333 0
-8253 -22699 0
-10099 -18827 0
13046 387 0
-18584 348 0
4041 17669 0
5591 22937 0
20858 20381 0
-18156 -5290 0
-199 -8837 0
14176 -1640 0
3799 -1551 0
15961 -17765 0
10165 22583 0
-17516 12886 0
-20542 -22824 0
16635 14125 0
8052 5685 0
3327 16250 0
-17374 6337 0
3271 15245 0
21579 11842 0
-5234 12706 0
647 17297 0
16656 22085 0
12501 21620 0
9896 18731 0
10843 -15923 0
-6415 15841 0
6151 -9872 0
-7184 5887 0
-17377 -7115 0
12992 -20540 0
23338 -23701 0
10593 -2617 0
-12128 -7609 0
-16205 -16864 0
-14022 -8885 0
-10600 11910 0
12492 5974 0
8306 -1203 0
-302 13878 0
15141 -5025 0
1774 22611 0
-15866 346 0
-12534 -19581 0
6915 -18542 0
14870 10552 0
23477 10874 0
-21926 -13124 0
17840 -9765 0
-9302 5244 0
-14273 -12331 0
-12749 -4096 0
-730 -15660 0
11629 10234 0
-3569 -3715 0
-2619 22162 0
-17411 22447 0
-21028 3975 0
-7913 19760 0
-11714 -21664 0
19280 20129 0
-298 -5142 0
-14663 18457 0
-3180 23241 0
-16266 20884 0
-8317 -7529 0
-17785 18652 0
-11861 22977 0
11314 -8030 0
-20157 -21442 0
19430 -9624 0
-1302 -7564 0
-17675 -21143 0
-1009 14074 0
-15339 23062 0
21105 -2357 0
3427 -10333 0
5842 2371 0
-20257 -20636 0
23452 -15934 0
9396 23608 0
5907 8543 0
-1329 -15177 0
-969 16579 0
17684 7340 0
-14198 -15385 0
19358 15354 0
16607 -15518 0
1522 -15361 0
7049 20926 0
16027 2453 0
-18673 -12259 0
3940 -18650 0
17037 16512 0
15913 -8657 0
21937 -18307 0
-1361 23294 0
-15876 -5065 0
-18325 -11376 0
23152 5411 0
-14697 -20911 0
-20858 21980 0
10276 20832 0
2799 -1985 0
12934 -23347 0
-5225 -3289 0
-16976 2045 0
-8319 -14303 0
-9092 -4804 0
-3080 -10860 0
-6651 -13120 0
-2371 -16789 0
1162 14781 0
11087 17463 0
12547 14985 0
-18494 1603 0
16305 7765 0
19212 -10637 0
-5116 1066 0
23746 2751 0
-10397 3426 0
-9563 -12445 0
-2171 15050 0
23355 -6714 0
-4439 -14543 0
19614 8038 0
20092 -20134 0
16781 -2286 0
-11751 -16739 0
1803 19723 0
4867 -9122 0
7201 16535 0
-11515 -2013 0
8531 22740 0
-17200 -6976 0
15734 -22496 0
-9394 -22306 0
-12263 -21095 0
21082 7864 0
1541 4221 0
-3800 -9717 0
5426 15966 0
-14940 19541 0
9921 -12658 0
-14037 18112 0
-21403 12247 0
72 -15639 0
-11351 -14865 0
18786 10930 0
21420 -19175 0
4375 11372 0
13340 16649 0
4155 17327 0
-18644 -768 0
14020 8091 0
-8240 4497 0
-19342 -23786 0
-18980 -5058 0
-2342 -14114 0
-8497 -11623 0
21098 -182 0
-1748 9352 0
-23640 -7198 0
4477 14922 0
-22580 9954 0
-5213 19752 0
-3448 -5441 0
17545 1962 0
5966 11488 0
-18177 20732 0
20149 16070 0
19102 7544 0
-4783 19845 0
8338 2066 0
-21241 12534 0
-20616 -824 0
-9453 -13702 0
-21856 21345 0
2118 14404 0
5211 7517 0
197 14863 0
23130 6754 0
-7506 -16380 0
12462 21987 0
14868 -2114 0
-3207 14509 0
-23280 -20876 0
3280 16343 0
22135 1695 0
-14864 -19164 0
815 -21174 0
9201 19665 0
-102 7126 0
8529 -21098 0
19632 -5332 0
316 -4807 0
-2940 -2678 0
5066 17167 0
-9350 -6676 0
-19160 1213 0
16268 -14578 0
4286 -5930 0
16201 -21230 0
8948 -19182 0
-17564 -19709 0
-16540 10998 0
12956 -6057 0
-14325 636 0
-18837 21832 0
19669 10022 0
17187 -11281 0
19554 7413 0
11063 -1449 0
-9230 16514 0
15311 -11151 0
16593 -23771 0
-9026 7510 0
-23236 -50 0
289 -12500 0
-13629 8983 0
11006 -13041 0
11581 -12826 0
7576 11102 0
19508 20392 0
873 1007 0
22372 5942 0
-7494 -14897 0
12504 -19854 0
-13762 -15875 0
22169 -20815 0
13519 -20872 0
5696 7642 0
-7820 -13717 0
-19300 -5329 0
6176 6249 0
-7825 21224 0
-12769 15278 0
647 -23608 0
1398 2927 0
-21288 -11350 0
19302 16170 0
-21053 -16710 0
-22358 3581 0
-23170 -10279 0
19121 -19414 0
-9365 -17416 0
-15479 22883 0
-21624 -7170 0
-2015 -20013 0
19847 -7280 0
18108 -6748 0
22276 4029 0
-20027 -18738 0
-2846 10787 0
18436 -14982 0
-12986 163 0
-1123 -1263 0
-6473 -7353 0
3239 -13890 0
-4934 9650 0
23143 4672 0
-14398 -19493 0
2686 -11212 0
-3198 9233 0
9599 -16906 0
20831 14443 0
-4200 233 0
-17877 -21189 0
11582 -16904 0
-17941 -15278 0
17279 13446 0
-913 23313 0
1699 18286 0
13612 16724 0
18812 3319 0
2716 -1960 0
2885 10724 0
5134 -16754 0
-18717 11630 0
15317 5747 0
-5073 -19106 0
525 7537 0
-4070 -9295 0
-4984 -4475 0
5978 -11036 0
11946 20326 0
-9649 -2223 0
16496 -8292 0
-2711 19362 0
-14587 18121 0
17061 2240 0
12261 16906 0
8376 22575 0
20283 -12289 0
1992 7545 0
-16859 -15213 0
-14170 13020 0
17175 -20680 0
2855 -13323 0
-8667 -22782 0
10994 7653 0
-15279 -3038 0
14020 -5348 0
10163 21450 0
-9607 15079 0
20039 -10601 0
-6411 1335 0
23074 1464 0
11467 -17291 0
3364 14551 0
1272 15458 0
11617 -21030 0
-22248 13582 0
7538 14684 0
10317 -4556 0
-5400 -12698 0
-17328 -10460 0
-20786 13883 0
4770 21412 0
19555 2970 0
18722 -22381 0
-17245 10542 0
-21838 13294 0
-23006 -14891 0
-59 -2722 0
-15185 -2827 0
-2 21619 0
-18384 -6767 0
-20198 -23459 0
-11738 4709 0
852 17194 0
-5149 -6914 0
16205 12669 0
4318 -15568 0
-11387 -22641 0
-17830 -3704 0
-8822 -23586 0
-12294 -1308 0
-3078 11652 0
2880 10173 0
1698 -14518 0
-12847 -1079 0
22130 1991 0
23112 13381 0
23740 -3212 0
1268 -8500 0
6831 13997 0
17750 19120 0
22716 21986 0
11162 -19361 0
19164 16442 0
17864 18149 0
18011 14839 0
-22079 2880 0
1267 4091 0
18388 14510 0
11045 -14951 0
-17283 -5101 0
-3978 -7156 0
-2835 -10879 0
18652 -15220 0
1739 8234 0
7951 -3587 0
-21379 -4791 0
8856 -983 0
13682 14751 0
-19362 7327 0
4338 6544 0
7542 5323 0
7374 -23780 0
-20285 20478 0
17017 294 0
21375 16754 0
5025 13611 0
-21635 -11487 0
-11352 13974 0
-11134 14336 0
45 -16958 0
-25 -10041 0
-12509 12740 0
20148 -4554 0
17227 -10658 0
5276 23336 0
19853 8138 0
22671 -4928 0
19947 -12580 0
504 -22232 0
21283 14017 0
9574 173 0
-1940 -22300 0
1455 -21303 0
-13165 15015 0
1614 10192 0
9801 966 0
-3562 -9340 0
3236 -10730 0
-4053 1632 0
22011 -11136 0
15580 -19107 0
13722 -14565 0
8769 18039 0
21331 -8572 0
-19596 -22268 0
17554 11651 0
-17080 -16144 0
-3641 21882 0
11709 -5358 0
4918 9989 0
-13735 2061 0
2453 -18844 0
1132 17028 0
-10233 23065 0
-8565 -4296 0
-18748 -3852 0
-501 20290 0
-20170 -11077 0
7069 -502 0
8605 8738 0
15060 -4932 0
8512 10353 0
15230 -2129 0
-7550 4326 0
-21371 -1381 0
-983 22941 0
-21732 9481 0
-11765 -18984 0
10083 -8709 0
-22713 20453 0
14683 22668 0
11742 -13825 0
-3267 16352 0
-5379 16158 0
14024 -16871 0
6711 17469 0
15146 -3686 0
16427 -1443 0
3510 -11894 0
-12840 8323 0
29 -18943 0
3103 -21400 0
16782 468 0
-10540 15545 0
-17602 5952 0
-21306 14292 0
-21824 11911 0
-17020 -17460 0
-4308 4842 0
-16754 5686 0
23450 16956 0
-4665 20795 0
9362 -14247 0
-9727 -2793 0
6931 14440 0
15592 -10927 0
-9931 22011 0
-11580 -11083 0
19649 -5688 0
4710 6130 0
-7848 17648 0
-11993 -5142 0
-4880 -19384 0
6973 -1116 0
10613 23150 0
-2495 14964 0
-22270 -10022 0
6050 11975 0
6885 -16171 0
6163 16199 0
17980 18191 0
-23393 -12467 0
-2182 -2636 0
9354 12838 0
-19255 13201 0
12359 1933 0
-22541 -18817 0
12463 -16854 0
-21644 1748 0
234 -1535 0
-13487 -4993 0
7487 7834 0
-7792 -18328 0
12293 -16253 0
6654 13150 0
4024 19293 0
-17661 -19265 0
-21314 20473 0
7107 1842 0
-1435 -23213 0
-10085 13702 0
-14553 -18174 0
-8328 -17896 0
6793 8840 0
-7848 9428 0
15686 8358 0
18652 47 0
13196 -16926 0
20363 -12456 0
-19006 1618 0
7510 -20996 0
-6703 -789 0
17696 16198 0
7729 20520 0
-16994 16122 0
-5463 -11910 0
7212 15005 0
-5962 17899 0
-17423 -15793 0
-2318 5165 0
-19068 3021 0
101 -7880 0
-14627 16003 0
22091 18281 0
19858 15794 0
23465 -19607 0
20773 -11205 0
-23622 -22969 0
6598 20508 0
16993 11394 0
14797 21817 0
18503 2173 0
-10408 18012 0
23 -5489 0
23545 -2058 0
4277 -14405 0
-17652 -8823 0
2890 -17055 0
-21709 -13304 0
-22651 447 0
-18835 -18869 0
17448 -6073 0
7166 -9659 0
12813 -13247 0
20413 11702 0
10377 19933 0
-20643 -1300 0
-1962 -20400 0
6203 -21368 0
-18237 -4445 0
-6064 13202 0
-2100 -1748 0
4975 21090 0
-8252 -19652 0
-18122 -19469 0
-4033 4414 0
18062 19761 0
6533 5111 0
18906 22462 0
1069 -1160 0
11129 623 0
393 -15336 0
-5191 -5244 0
23253 5114 0
1952 21659 0
7022 17158 0
8238 5090 0
4977 2370 0
4726 3819 0
16206 17175 0
-17709 -19495 0
21019 5710 0
-22001 -11547 0
-8495 -18789 0
20615 -4047 0
14061 -9438 0
11539 21660 0
-4753 4581 0
1180 -20431 0
10277 11307 0
-6967 2897 0
-6190 7323 0
-13939 -9913 0
23031 -4625 0
-4207 5581 0
4945 -10687 0
-17181 21287 0
-23094 -14769 0
11232 23309 0
-12077 7834 0
23721 23114 0
-21730 -1843 0
9736 -13604 0
13402 -4129 0
17782 8841 0
5552 19096 0
2079 9126 0
-530 10779 0
-20887 -17844 0
6199 -19690 0
-3983 -19581 0
16597 -958 0
20217 20366 0
-21889 12681 0
991 1045 0
16474 -7176 0
18087 16053 0
-2509 -15502 0
-1487 -13936 0
5744 885 0
-2534 23072 0
8534 9389 0
-19758 -23541 0
12368 -22287 0
7665 -3703 0
19552 -16987 0
-20812 11796 0
1956 19207 0
-11945 -10558 0
-11402 -12753 0
13255 12938 0
-15536 -22355 0
-21655 23036 0
-4626 16538 0
4860 -22974 0
21889 -23235 0
14647 21256 0
-1203 2658 0
-2663 3619 0
-4196 -5370 0
-12066 10031 0
-11933 -9379 0
15830 -8326 0
-7257 21315 0
19644 15519 0
20378 23443 0
-10215 20557 0
-682 -19952 0
-23327 293 0
-359 3102 0
-18506 2516 0
445 20009 0
21711 -21682 0
23721 11966 0
2672 -22644 0
-7918 6278 0
-16808 -22285 0
18105 -4211 0
13695 -20780 0
-16379 18000 0
-20485 12064 0
-20428 5775 0
21634 23233 0
1215 10754 0
-6748 -7717 0
5561 -10478 0
-6398 13295 0
-20372 15285 0
-12618 19036 0
6223 -19698 0
10627 9180 0
14023 9651 0
11927 21359 0
16486 13862 0
-8722 13252 0
-14120 992 0
-11380 15433 0
3060 5282 0
20090 12885 0
-18552 -13836 0
-20516 15512 0
18375 16028 0
18790 -9153 0
23362 -20680 0
4236 -16879 0
5223 8021 0
-21827 -6549 0
-9726 10410 0
7335 10547 0
23651 -13647 0
-21267 -19890 0
19018 10262 0
10247 7084 0
16443 -15555 0
-6499 -2629 0
-19080 -21637 0
-17953 -19999 0
1753 7059 0
-1708 15749 0
7908 1569 0
4871 18159 0
16477 -1636 0
-3452 8881 0
-16937 1235 0
-19834 2174 0
3002 -9603 0
-703 11617 0
-6753 8542 0
19572 -17216 0
-20411 19017 0
-16913 6498 0
-13203 12788 0
18522 12079 0
-14078 22726 0
-22099 15813 0
-12786 19532 0
22676 12831 0
8035 5500 0
-16495 -12306 0
-12077 -19783 0
9605 -23238 0
-19755 -7242 0
13261 -9653 0
-9655 12600 0
23475 -10459 0
20620 2526 0
15261 11849 0
12557 -4303 0
15113 1600 0
-8047 -20759 0
8295 687 0
15545 -9334 0
1923 -11643 0
22271 -7869 0
23712 18463 0
-19060 -1483 0
-3273 -23034 0
-12397 14674 0
-17544 -2844 0
19833 7633 0
5330 -21983 0
16533 15377 0
-15961 10568 0
-1082 -1720 0
-4142 -1796 0
-12094 -2676 0
19872 -3747 0
-1042 18 0
22576 -18170 0
-17488 -20463 0
21682 -23043 0
18452 -20986 0
9759 -14108 0
-20281 -17228 0
5062 -22944 0
13497 8762 0
-8631 20035 0
3652 16463 0
-13697 -21877 0
1808 21746 0
-10804 21243 0
-3768 -12893 0
14566 -19831 0
-8250 21871 0
-13068 13814 0
-18274 15187 0
15263 9912 0
13848 -10077 0
2995 -6112 0
20544 17472 0
1361 1923 0
4337 -20204 0
-19001 12804 0
21708 -9051 0
15632 -20400 0
-21646 -17503 0
11838 18856 0
20490 -9539 0
20247 9413 0
15358 -16489 0
-6885 -4905 0
-23364 13011 0
-14144 -2893 0
12521 2006 0
23262 -11243 0
19639 -8296 0
-9231 -18426 0
-1084 -10451 0
-23556 3164 0
-22714 18698 0
7747 9469 0
-9097 6361 0
14053 5116 0
-13779 795 0
22631 -23407 0
16927 -7955 0
-9743 11642 0
-9898 9888 0
-5183 -10190 0
10259 5879 0
-7424 -6101 0
21837 -19920 0
-16606 22475 0
21883 -15846 0
20809 -555 0
-4460 21108 0
2011 11682 0
21054 -4559 0
17013 -19636 0
-18209 -20945 0
-8669 -16142 0
14791 1596 0
679 -18977 0
-10568 9118 0
-23027 7271 0
7151 18171 0
3059 5382 0
-22410 17454 0
-18525 -405 0
-6536 8239 0
-4261 -7455 0
18531 9629 0
213 -16968 0
-5834 -2951 0
-4218 -8676 0
-8261 -7100 0
2767 4630 0
9136 6724 0
21828 -8243 0
-19973 4036 0
-22672 14104 0
17466 -11644 0
-7984 12412 0
-1646 10079 0
19620 -12354 0
-23495 -13992 0
12730 -22090 0
-22167 -9719 0
-15087 -12171 0
-4493 -15572 0
-7511 10045 0
5362 -2901 0
10090 -23623 0
17479 -6902 0
1691 17685 0
-23743 -1638 0
-23548 -3754 0
-13460 -17442 0
-7170 -17455 0
23144 -5963 0
-155 366 0
12591 -14919 0
-15375 -924 0
-17962 5912 0
-18584 18320 0
11410 19911 0
2529 13665 0
20971 -1084 0
11755 -21486 0
23709 15194 0
-16676 -32 0
11725 -11737 0
-6968 988 0
-1462 10922 0
14477 4538 0
22751 12372 0
-14549 6499 0
-13380 1831 0
-681 12917 0
-14680 -18672 0
-5684 -6626 0
-11879 -12486 0
-21740 12490 0
-18447 15930 0
-1977 -9484 0
-18333 -8267 0
-2716 -15840 0
3068 -12152 0
-18668 15296 0
-7748 1093 0
13140 -23294 0
-20301 18341 0
22949 -135 0
6617 8585 0
23022 -6765 0
2651 7164 0
-21229 -20172 0
-12202 -11121 0
-23417 9074 0
18543 20503 0
-18691 7506 0
-14145 21618 0
11524 1399 0
8355 -8422 0
7519 -18638 0
4715 17655 0
-8803 15671 0
20875 -22274 0
9693 19591 0
5289 -4634 0
22316 -18372 0
17484 15863 0
-857 -19982 0
22311 -16921 0
-5763 159 0
13226 -23237 0
-10464 -11672 0
14845 -22841 0
-16955 -17279 0
-926 -15431 0
16447 5096 0
-16209 -7205 0
19210 16863 0
17351 4161 0
-10221 4645 0
-19749 -20076 0
14578 12385 0
9948 3152 0
-19185 321 0
-8879 1722 0
19930 21184 0
296 18644 0
-5049 -9782 0
-20373 -21104 0
-11454 15838 0
-1876 17529 0
4467 -4240 0
-3514 23130 0
-23085 -22000 0
10080 -17857 0
-20583 13786 0
13851 9373 0
6536 -18196 0
4824 -20012 0
23333 16183 0
-20422 -17890 0
15983 18880 0
-6189 8471 0
-12992 -17180 0
-9274 20972 0
10686 -17890 0
14060 -18052 0
19725 -6242 0
-19137 11840 0
-9712 -2289 0
-14393 2401 0
-16270 3857 0
-3382 -8098 0
22804 -17135 0
2678 -9270 0
-1879 12727 0
-12447 -18013 0
-13944 -15842 0
-13148 5059 0
5978 -21075 0
-12861 13236 0
11880 23084 0
21245 -17222 0
-16024 4038 0
408 -10524 0
2730 -768 0
4470 -17012 0
1412 15946 0
-13456 13145 0
-2609 17022 0
18087 17424 0
-21397 -22262 0
7833 -16138 0
6664 15239 0
-22227 5654 0
-9491 12844 0
-23498 -786 0
-17748 -20978 0
1217 6285 0
8780 3541 0
-14567 17504 0
10768 9642 0
-20784 -20609 0
10134 22497 0
22214 2250 0
20192 20961 0
11179 -3202 0
-9713 4897 0
12170 -3928 0
-6480 -11309 0
-23383 11643 0
-1450 4545 0
-4689 8904 0
-10434 -12926 0
-14861 14023 0
748 -20049 0
6111 -3773 0
-821 15491 0
10024 3275 0
-16262 6410 0
-20372 4204 0
2738 6461 0
23508 23480 0
-5139 -23604 0
8622 -10975 0
13967 -10476 0
-19183 11831 0
12074 -15965 0
-18499 -6999 0
-20010 -8597 0
405 -22150 0
16423 15513 0
13928 3921 0
12440 23626 0
-16623 -19612 0
-22071 -21873 0
4814 8020 0
2894 -15612 0
-4801 -11998 0
-20519 10106 0
-14628 2889 0
2674 -6269 0
19665 -10079 0
5656 20723 0
9727 22938 0
18661 8421 0
8899 795 0
21152 -8371 0
-2849 -2198 0
-10547 18158 0
11074 -5681 0
11526 14420 0
-15677 -20597 0
-15273 -10855 0
-16737 16572 0
20812 11724 0
12967 -9291 0
-14869 19408 0
22548 -4829 0
11511 3429 0
14401 12214 0
-22084 20039 0
4908 7304 0
-13449 -196 0
18309 340 0
16934 8743 0
-12050 -11465 0
10429 -3951 0
14503 1807 0
-12457 -22021 0
156 -16405 0
-2816 5251 0
8837 -16864 0
9959 -2356 0
21566 -3517 0
-22551 1732 0
6029 21317 0
-12102 22239 0
-14982 6035 0
-9940 -1046 0
-14411 -13641 0
276 6421 0
-20435 13741 0
22788 17579 0
-23366 -7454 0
-22250 10599 0
-22723 621 0
-11338 -12561 0
1925 7917 0
-4879 12141 0
13506 -8858 0
22374 -9754 0
14000 12425 0
-7246 -1827 0
-18305 13799 0
14781 -20806 0
8020 -317 0
18696 13561 0
20182 -1537 0
11637 -17786 0
-22132 -22749 0
3863 1861 0
-22007 22112 0
5549 14944 0
6453 -8184 0
-23353 -1814 0
-21733 -3788 0
20704 -14381 0
-12710 -16389 0
-2954 18806 0
11659 -6100 0
17206 -10013 0
-3206 9288 0
992 -6830 0
-8507 -16716 0
-21614 3794 0
13567 -16632 0
4192 -13082 0
-7072 -2016 0
-13634 -9135 0
23091 18148 0
22459 -18979 0
22144 -1590 0
4564 -2962 0
17297 497 0
20286 16602 0
-18823 21772 0
-12973 12589 0
-20422 -17507 0
22360 -2015 0
18052 21766 0
-22241 -4785 0
-19686 -22922 0
18892 -14416 0
5866 -17595 0
-7044 -12953 0
22583 -18970 0
15834 -11103 0
18395 -17031 0
-23342 17161 0
9595 -5415 0
9973 10317 0
-22861 -1695 0
15871 15599 0
-16238 -12081 0
16038 -6515 0
20953 -23745 0
19268 8997 0
22134 -9244 0
-12461 20325 0
11281 4649 0
-4312 10278 0
-5228 8703 0
-496 -8872 0
12170 5628 0
667 7257 0
-31 -17169 0
-7765 -8150 0
12544 -16794 0
-15891 21388 0
16731 12823 0
1669 -18787 0
-11856 -21265 0
20770 -7480 0
-6403 -2369 0
-21788 22261 0
21641 -17778 0
-14487 5046 0
22688 23376 0
-16318 -3938 0
-21104 21998 0
-797 -15137 0
-3831 -621 0
-5011 4283 0
-22002 5861 0
9670 4766 0
12184 10765 0
-12155 -10627 0
-3829 19033 0
-2357 9848 0
10030 1896 0
23382 88 0
9476 16998 0
-15247 -7831 0
-20023 -5607 0
-13788 15370 0
-8650 14308 0
-14397 3072 0
-11055 -10464 0
2411 -2299 0
-22835 -9103 0
22387 -18133 0
9105 23407 0
20542 -1373 0
-16860 -13170 0
-817 3463 0
9279 -6485 0
-226 9362 0
22263 18234 0
17404 -8439 0
12103 -15825 0
8470 19115 0
-19615 -426 0
-19504 12420 0
-21122 3516 0
-546 9346 0
-15824 -9127 0
19051 -18483 0
15705 9175 0
-17480 -15867 0
-6354 -13907 0
-14729 -23696 0
13912 -13005 0
6083 -13320 0
-17795 4662 0
6248 -3048 0
-1095 -7657 0
-18099 22166 0
21994 -13175 0
-1739 -12365 0
-6104 729 0
1260 10089 0
-4606 -7612 0
-8209 11737 0
-13937 -12624 0
23179 -9603 0
-8972 -9793 0
6111 -2472 0
15565 -17841 0
-20520 -13830 0
9713 23283 0
6661 22630 0
-2671 -2178 0
14580 13983 0
-8935 -14498 0
-2774 -22347 0
13873 -20091 0
19366 -5506 0
898 22877 0
-4242 14224 0
-15675 -21491 0
14823 4791 0
-3509 -14171 0
-14273 -12173 0
-292 3261 0
1736 20865 0
-17845 -19263 0
-20178 5159 0
-17254 -3780 0
-4448 10814 0
9546 -10305 0
2154 -7241 0
21861 22065 0
-12321 -4000 0
9439 5801 0
8957 2729 0
19845 -19136 0
18227 -4487 0
-17772 -48 0
-14850 -20352 0
17654 -18295 0
12868 -414 0
1210 6482 0
-5672 -752 0
-19277 7973 0
16777 -11441 0
5156 -692 0
6221 -22926 0
-14297 11754 0
-9568 6955 0
-7231 18689 0
-22465 7405 0
-1333 2842 0
12830 -3714 0
6027 -16599 0
117 1873 0
-6598 -8643 0
-11734 -18941 0
171 -14615 0
22334 8889 0
-15322 -17786 0
-12695 18078 0
22134 -16624 0
-10911 11710 0
12244 4319 0
11862 6733 0
-14794 11793 0
-22597 6625 0
12150 13393 0
2505 -6664 0
-7924 19905 0
18429 -15565 0
19949 -13991 0
-11348 -11385 0
3386 10634 0
10517 9750 0
-23528 -18626 0
2610 8499 0
944 7878 0
4153 -2570 0
10508 23005 0
13485 -17575 0
1710 -22524 0
-5440 -8867 0
-18585 10078 0
4919 -19501 0
5100 22178 0
-11820 -15475 0
-14440 -22079 0
-14719 22691 0
19317 -10612 0
17353 -10123 0
1656 23337 0
685 18419 0
-11309 -3852 0
-18770 -17365 0
17104 -11095 0
-11869 -12060 0
-23209 6278 0
9805 -17235 0
-12222 -5358 0
12113 2102 0
-21465 -4910 0
-12526 -11028 0
5277 2089 0
-8569 23246 0
-5133 14813 0
9158 -19760 0
223 -10598 0
15016 21437 0
18422 -18063 0
-3513 12626 0
23718 966 0
21598 2369 0
-15304 20343 0
20577 -22001 0
21646 9234 0
-9527 16869 0
-12113 -5758 0
-1486 -9696 0
16396 -23119 0
-23220 9662 0
-16946 12921 0
-11835 4911 0
13288 2143 0
5242 2311 0
-1148 10727 0
17079 22996 0
12159 -16896 0
22708 13410 0
18859 -4922 0
-2359 -21992 0
-11913 8854 0
23693 -13099 0
-17198 23020 0
-21998 23208 0
17181 -10263 0
-975 22977 0
-15856 6722 0
-16809 -13754 0
20674 17368 0
-16735 -12776 0
10381 1046 0
10055 -21908 0
-5389 324 0
14859 20295 0
9444 -21327 0
-9002 -3315 0
-12051 -17097 0
3191 -7652 0
11960 15953 0
20268 -21075 0
3619 9745 0
16788 367 0
-10835 3300 0
10302 -5063 0
21259 5764 0
-16073 -4439 0
10852 -2479 0
-14216 -16443 0
-2227 -18086 0
-14052 7665 0
23552 -21667 0
-8665 20232 0
20573 17631 0
-15284 -18225 0
11738 13111 0
-9400 -2402 0
-7333 18652 0
-19419 -1182 0
19998 17 0
670 19908 0
-6046 -6284 0
14978 16699 0
16572 3428 0
-11992 2489 0
23734 -696 0
-20186 8371 0
1664 -15097 0
-2039 -9101 0
9282 5221 0
5997 -8561 0
-21403 14339 0
7521 -476 0
-8387 1207 0
-10713 -17724 0
-19903 -8633 0
-4718 19386 0
12819 -14498 0
18834 -3642 0
-8665 -17710 0
19606 -3682 0
9343 -1658 0
-8643 4611 0
-21340 -7252 0
-22912 -16092 0
20229 12390 0
467 -7147 0
-19220 2762 0
21361 11711 0
23508 23457 0
-2959 15327 0
18486 13209 0
-627 20671 0
3011 8003 0
-15091 13949 0
-5242 8694 0
-9433 -13565 0
3160 -3616 0
14282 19620 0
-6550 4473 0
-7110 -11170 0
-3160 7428 0
6347 -18464 0
2929 -7270 0
20986 -15758 0
-19989 20459 0
3648 -4176 0
21674 -16653 0
15964 15279 0
1280 8645 0
14154 -16947 0
-19423 8222 0
10809 -5796 0
2101 -21289 0
-1020 -16871 0
-13943 6597 0
12829 20842 0
7775 -9185 0
10655 -16691 0
4135 -13 0
-11917 -22661 0
-10723 12674 0
-7924 2547 0
23048 5927 0
235 21304 0
9280 7971 0
-271 5339 0
-21913 10238 0
4478 15217 0
3964 13961 0
23455 -4987 0
-12999 11429 0
-13509 604 0
-12704 5907 0
4698 7390 0
-6137 23142 0
-4421 14491 0
-12171 23551 0
-22385 -20569 0
1717 15690 0
-6387 -15221 0
17891 -15949 0
3398 -7295 0
18675 -6535 0
16876 -22257 0
-4630 -8901 0
13524 -14458 0
15841 13148 0
3021 -10799 0
14234 12375 0
-23714 6687 0
-8166 12281 0
-4182 8081 0
-1806 -22332 0
11949 9543 0
-13346 -1408 0
3761 4640 0
-1986 -14682 0
22398 7419 0
23079 13307 0
17441 15257 0
-10725 22665 0
14049 2744 0
4827 -17688 0
20000 13430 0
2441 -172 0
2548 -18477 0
17787 -3159 0
-8579 8258 0
-22678 9706 0
-2989 7566 0
11624 -1310 0
11654 -21378 0
-22442 19058 0
-13612 -1889 0
325 -11174 0
-19273 20860 0
553 -16825 0
-17653 21112 0
22653 3767 0
-15819 -444 0
-3487 -9237 0
21756 -20399 0
6804 8957 0
13218 -23335 0
-8539 -21129 0
2544 -19988 0
17710 -4801 0
-11864 -12718 0
2789 -20106 0
-2271 -10972 0
8235 -21067 0
-15084 7851 0
3396 11941 0
17350 -11898 0
-2424 21703 0
14555 5943 0
2868 -15968 0
5112 15624 0
-2949 485 0
-22684 -10851 0
3573 11275 0
-18205 6391 0
-11687 -20949 0
-13386 11277 0
15008 19091 0
-19058 2087 0
21355 446 0
23726 -17286 0
-8838 -7190 0
-1140 16362 0
15154 2954 0
-633 -704 0
6133 1408 0
9571 -4481 0
20480 -1515 0
21216 1200 0
9853 16237 0
-2589 -19273 0
11028 19479 0
-21003 21083 0
13171 15902 0
-18992 -8111 0
12692 -7343 0
-18816 -20241 0
4327 3618 0
-2772 -11192 0
-20386 13398 0
-19542 -16507 0
10949 8461 0
-14694 -13919 0
19972 16219 0
-2899 -7143 0
8302 1095 0
22682 -8737 0
-17656 21386 0
-22703 -20798 0
18629 12462 0
15244 6749 0
-19535 19268 0
16103 -13584 0
-23765 -13238 0
18550 -22997 0
13941 -20169 0
-20355 9437 0
-12807 8392 0
-17696 -8776 0
1072 4203 0
-14515 16763 0
1178 -15282 0
-17973 -21069 0
4465 -7120 0
-15848 -19773 0
9091 17655 0
-20151 13360 0
-9763 -1365 0
-6594 11022 0
18516 8469 0
-17649 -22018 0
18830 -4511 0
-7739 9803 0
16383 -20972 0
14740 -4072 0
22467 20058 0
5722 4735 0
-10537 15623 0
-3889 9914 0
-15982 8073 0
-17273 -18671 0
3874 23777 0
8642 731 0
21583 -5323 0
-15880 -21903 0
-2662 -16861 0
-1812 -11154 0
12180 3711 0
7353 12644 0
-8344 9350 0
12743 14683 0
7113 -10126 0
-16661 7666 0
16886 -12902 0
-4079 4725 0
18521 14947 0
-10833 -21282 0
3915 -10999 0
-17222 16067 0
-19944 4262 0
5185 -15072 0
11053 -2347 0
6493 -12740 0
6027 13662 0
6861 -13651 0
6595 -18754 0
-14506 -348 0
6673 -9209 0
-9698 11362 0
-20663 5332 0
19528 -10621 0
7440 -21231 0
-12130 -18542 0
-6861 4600 0
-15171 -6911 0
-18425 -16094 0
-10521 -7081 0
-6737 6621 0
8870 20185 0
9720 20686 0
14067 21937 0
-21250 4818 0
-23229 -23609 0
11020 -865 0
-14121 4331 0
-9754 -21935 0
9935 -14867 0
7864 -17690 0
-13416 6220 0
-17988 13443 0
14684 -17303 0
3801 -14470 0
-22771 -11723 0
13875 -19185 0
-4808 -12257 0
8596 -6815 0
19817 -12935 0
18391 -7902 0
-2946 22684 0
3055 -15623 0
-19741 -17643 0
-19404 -21039 0
6378 21366 0
-2594 8549 0
16434 -14569 0
15111 -22531 0
7376 -689 0
-7360 95 0
23248 7403 0
-7906 -17157 0
-15396 12953 0
-17253 16646 0
19017 -10217 0
12367 -15479 0
16200 -5445 0
-5171 19231 0
21811 10036 0
-16465 6583 0
11135 -3506 0
-8627 -2805 0
-4266 -19968 0
-12789 8696 0
-21250 9989 0
14611 10953 0
3782 -19333 0
23089 -7279 0
18033 2921 0
3746 -12337 0
8065 12695 0
16566 -12898 0
12121 7535 0
-22811 21015 0
4002 -2354 0
-15697 20041 0
-7382 -6516 0
-21006 -11379 0
-7065 -347 0
-22611 19195 0
11554 -11647 0
-2344 -310 0
-23541 -21730 0
-11261 3915 0
-18730 -9445 0
-15053 -20455 0
-10031 684 0
2578 11940 0
5134 21570 0
10456 -3314 0
-19347 746 0
20118 -10297 0
101 14849 0
-3424 4145 0
12307 10135 0
7714 15494 0
12625 -7154 0
20628 -18176 0
-16735 -15071 0
-11977 -16629 0
15483 9492 0
-3429 -5391 0
-5895 21005 0
-9594 -14998 0
7565 -13197 0
-20028 14467 0
-5820 -3213 0
17873 -18842 0
13216 -4408 0
12340 3674 0
-6448 -22517 0
-16641 19854 0
-19489 943 0
18543 18282 0
-13678 18763 0
-14063 22959 0
9826 -18151 0
20930 -3129 0
11925 -20651 0
-6022 -8919 0
1198 23300 0
-12930 3188 0
12892 22125 0
14655 -7901 0
1191 -4481 0
21177 12625 0
-11061 -11868 0
16427 -21728 0
2862 13442 0
-11869 4052 0
14454 -12972 0
-1774 -14804 0
8136 21944 0
-5320 -17128 0
-6907 7822 0
10268 -16751 0
13034 -10815 0
6317 22506 0
19720 -13203 0
-6362 -21307 0
10657 -11859 0
19642 5828 0
-6464 23600 0
23480 20101 0
2608 -7111 0
-1527 -1120 0
19510 6008 0
23125 511 0
23378 -11929 0
12565 11672 0
-1631 3223 0
17388 16113 0
4151 -22469 0
22978 10239 0
-13622 19136 0
-22363 -22201 0
-2923 21619 0
6090 -6850 0
5281 19611 0
22829 -4095 0
9451 -3192 0
16925 -21059 0
-18562 -19415 0
-23582 -17521 0
6593 -8615 0
16009 -16090 0
17720 -17971 0
13741 12291 0
12886 2655 0
251 -19337 0
23561 -18949 0
-8257 -1034 0
-7553 -13884 0
-13577 14675 0
5822 -3381 0
-21301 20836 0
-48 -19392 0
22673 9184 0
22661 -15294 0
-9919 2981 0
-20670 -20925 0
14217 23075 0
20573 13012 0
10702 -18937 0
-21607 -5073 0
-9987 -4315 0
-4113 -17069 0
-6409 -21903 0
12000 20880 0
11111 -4329 0
-6296 10739 0
12755 12757 0
5958 12080 0
4517 6144 0
-18777 10291 0
18834 13389 0
23036 -12105 0
-14089 6553 0
8962 18550 0
-22355 -4424 0
1693 -12777 0
4431 -19010 0
-12291 -9918 0
10792 -21349 0
11383 19171 0
14010 637 0
21892 -20621 0
19302 -20563 0
-46 -8213 0
-21678 5192 0
-7341 17060 0
22773 -4423 0
-9904 -1173 0
5774 10924 0
4347 293 0
17849 2119 0
-366 -7719 0
-20144 -17754 0
-13223 -2875 0
-6731 -8669 0
-16626 -20382 0
13364 -22730 0
9445 11185 0
20307 19004 0
-13604 9411 0
-20120 -6889 0
-7917 -1977 0
23331 6816 0
-1536 -17836 0
20770 19960 0
-19205 2738 0
-14388 -9549 0
22622 21547 0
5561 -8191 0
17788 17595 0
-10343 21571 0
12382 7515 0
-20213 -15794 0
21704 -22128 0
6214 -7831 0
22305 18052 0
-17589 -20495 0
22731 -21970 0
3805 -14917 0
22640 -5246 0
-3527 -15021 0
20783 -18410 0
4168 14341 0
-10016 -17487 0
-22218 -7842 0
9880 -13213 0
22535 -17213 0
-8755 -3479 0
12871 20136 0
4975 -21556 0
-1499 -2074 0
19704 -15793 0
-6814 -5085 0
14603 -20295 0
-22287 -8858 0
950 -18903 0
20390 822 0
19234 8328 0
-19448 -3736 0
8696 -12269 0
-6237 -3206 0
-16834 13501 0
-14721 14899 0
18337 4694 0
9757 -22586 0
-23352 -3585 0
-1718 18797 0
22330 -12965 0
-6412 -8739 0
11623 20358 0
14100 -19190 0
-14277 12891 0
-5332 -3663 0
-19169 -5239 0
-8809 23014 0
20559 -5273 0
12416 -4514 0
15945 1844 0
11062 -23025 0
-9404 23407 0
19774 16943 0
2776 -22480 0
-7134 -10152 0
1027 12770 0
18482 15035 0
-12766 -23381 0
-1791 5486 0
-518 12680 0
12002 -18373 0
-15381 11915 0
-18191 -4701 0
-9887 -8178 0
2023 -13072 0
5626 -11123 0
-23439 -1137 0
5575 5407 0
-19742 -8658 0
4892 -8116 0
-9647 -3016 0
-7657 -13803 0
17743 22266 0
-11529 -7229 0
6166 13710 0
-22105 9038 0
3571 11710 0
-12147 2804 0
-22329 -9900 0
784 4191 0
4832 9473 0
-1438 6799 0
-5615 17911 0
-1179 -4071 0
3921 23485 0
-339 -6760 0
7200 3450 0
13758 20035 0
-14054 -7487 0
-17510 -22881 0
-22911 -9931 0
-6543 -10629 0
-10445 -6067 0
-18875 14904 0
-16708 -1101 0
-21933 -21710 0
5843 1019 0
-14601 -1921 0
-12584 9641 0
14465 22621 0
13285 -19523 0
221 -8548 0
-16657 -21640 0
-15041 -5939 0
20509 -2004 0
-17761 -5675 0
6252 16403 0
13464 -23431 0
12917 9488 0
12232 14331 0
7683 7061 0
-22224 -3695 0
-2000 10565 0
-7488 -10018 0
-7270 1348 0
798 -11945 0
-10765 4383 0
-16385 -10596 0
-20206 3000 0
17405 15695 0
13122 10814 0
18157 -5924 0
10508 15354 0
8856 19412 0
16056 16106 0
-10553 10307 0
2928 -21372 0
-13061 5456 0
-3575 12127 0
12219 13203 0
-19177 -5935 0
-17353 11495 0
16825 -7543 0
-10035 -10586 0
-13559 22110 0
-10366 15454 0
-10757 -13661 0
16703 6138 0
6631 425 0
-11602 13760 0
-2331 -9808 0
-4576 -940 0
-16696 348 0
14733 -14747 0
-3231 13242 0
-8152 6401 0
-11396 -16327 0
8643 -931 0
-10003 9207 0
5927 -4956 0
-23450 -6800 0
12191 -20572 0
11825 16615 0
-17152 -4459 0
10656 2220 0
22574 14460 0
-3677 -18910 0
17019 4600 0
-18782 -14845 0
-8731 1489 0
20349 -682 0
14159 -10210 0
20002 -5795 0
-21937 -17241 0
-4681 11720 0
-7483 18465 0
-16624 -10682 0
-22174 20512 0
23116 -3288 0
8914 16594 0
805 -12099 0
-4591 -8804 0
-1449 9013 0
-20725 -14245 0
-16727 -292 0
-3419 22536 0
-17995 9434 0
-16103 11836 0
21710 -20799 0
-6232 -4468 0
-22859 -263 0
-12108 -4162 0
22284 4738 0
13147 -18688 0
-10849 -6874 0
987 17796 0
-22056 -11245 0
5054 14517 0
-18623 -19990 0
16126 -13473 0
-22269 12931 0
-3583 -7547 0
2884 6283 0
-7672 -16011 0
-4198 -6566 0
-13865 13000 0
-23412 -13318 0
-19865 20365 0
-2201 -13274 0
-4770 -7564 0
7420 16401 0
10147 -21144 0
899 -12892 0
15834 -6878 0
-3867 5985 0
17 -15330 0
-21417 -7345 0
10484 20319 0
13030 -18978 0
6080 6856 0
-14196 8548 0
-21372 -16749 0
17292 17312 0
-11686 -12086 0
-23537 -17346 0
21846 -2055 0
-22643 81 0
22915 3958 0
18320 9050 0
21590 5475 0
16938 -21011 0
-18370 2296 0
20238 9123 0
6138 3416 0
-23485 -23068 0
-15952 -5908 0
9145 -2714 0
-2635 21388 0
-5834 13850 0
6420 19457 0
-14262 20063 0
-19465 590 0
16070 14283 0
4427 -5218 0
21285 22470 0
7180 19271 0
14595 -8513 0
-12713 18231 0
-20865 -946 0
-14214 -989 0
-19056 1188 0
-16328 -14853 0
-50 16476 0
-9148 -1900 0
11703 -22671 0
554 -5953 0
4483 12829 0
14159 -8196 0
16280 -21145 0
-17776 -23063 0
5530 -14663 0
-1863 5789 0
-7960 8190 0
22326 -3121 0
-648 23428 0
-1185 19021 0
-17385 17175 0
-18094 5498 0
-20606 -10284 0
12622 -1406 0
20689 3179 0
-546 20874 0
13209 5987 0
-11879 -18213 0
-8012 -5765 0
18191 6151 0
-9801 20035 0
6610 -6465 0
1350 12478 0
-7167 -11394 0
-958 9999 0
-6906 13621 0
-284 20431 0
6727 16943 0
-13588 -6427 0
-11538 -5386 0
1350 -21012 0
-21786 -14457 0
-17413 -9230 0
-19731 -14158 0
21236 -18858 0
2080 -20967 0
-11640 -2680 0
15364 -23148 0
8267 4258 0
-911 -16025 0
-7742 -3495 0
4691 -9722 0
-14076 16395 0
-6352 -21520 0
-15294 -630 0
-12754 19721 0
15714 -7341 0
-12467 -18645 0
7354 5806 0
13534 4834 0
-16753 5522 0
9805 14234 0
17471 17559 0
6728 15015 0
-2184 10094 0
-9054 6764 0
10440 124 0
-13887 20268 0
20469 -12737 0
15118 17129 0
-16721 22569 0
-21616 -9319 0
-18077 -17821 0
-20212 -19612 0
5828 -14292 0
-8133 20638 0
-20382 9021 0
19880 -22106 0
-13148 5989 0
12394 -12029 0
17645 -18804 0
11174 -3500 0
-19406 -22634 0
-1116 -8985 0
-6634 5026 0
-7511 20940 0
12657 -16216 0
-22841 2238 0
-3809 20121 0
10187 2952 0
11524 10823 0
-651 2527 0
576 -14362 0
17638 2292 0
9594 16968 0
22791 9250 0
10381 -19001 0
11201 -19046 0
22876 14153 0
-20061 -19191 0
10486 -18988 0
12834 -18359 0
7713 11150 0
-413 9504 0
21388 894 0
20437 3043 0
-23420 -23582 0
-6097 -2168 0
21194 1976 0
14643 -4994 0
11892 4846 0
-1991 23081 0
17080 11393 0
7307 -20721 0
12505 -9524 0
15845 -18812 0
-11901 -13087 0
-4063 -17097 0
-2021 -9630 0
-19380 4892 0
-10312 970 0
-18234 7772 0
-13493 -5909 0
-611 14271 0
20310 8152 0
-11003 22122 0
-1719 -13807 0
-432 -23657 0
-700 -5811 0
10866 -14554 0
17949 -15046 0
11559 4806 0
-14920 -9231 0
-11655 -5233 0
2786 -20013 0
-6921 23118 0
-20482 17641 0
-16621 -139 0
19780 13785 0
6015 14973 0
5607 1621 0
19362 -16262 0
-9476 -317 0
4264 1804 0
-9007 11523 0
-5760 11568 0
-3624 8888 0
-5524 1899 0
5709 11972 0
8511 20058 0
4568 -3261 0
-1553 8236 0
-16073 15427 0
-4250 7498 0
-10249 -7625 0
-20854 6893 0
-21764 -5324 0
9354 16791 0
-18398 3493 0
13953 -17733 0
10225 -21159 0
-3096 -16194 0
-12055 -13480 0
3522 -9666 0
-3475 9833 0
3591 20947 0
-22721 -5013 0
1755 18242 0
-5951 -22473 0
19210 -107 0
-16920 10917 0
-5596 -1255 0
12753 8410 0
15483 -15348 0
13393 21824 0
-18698 -80 0
18858 -19983 0
-11603 23596 0
11027 -165 0
-21766 17385 0
5931 15732 0
6281 15582 0
-2233 13953 0
-13827 -12209 0
-8951 -3953 0
2370 -5703 0
2016 -2691 0
20387 -1884 0
23172 -15434 0
-1351 -426 0
-17480 11552 0
-14988 6675 0
12141 -22397 0
-17763 -359 0
-17481 3645 0
19656 6005 0
-6312 688 0
-21641 22488 0
14271 -22625 0
20822 19838 0
20674 5502 0
-7673 -23645 0
-12313 -12673 0
-20219 -7396 0
8258 5635 0
2190 7916 0
22756 -19664 0
20741 8113 0
9347 -22943 0
-21839 -6124 0
3094 18706 0
-21714 -11287 0
-19599 13858 0
-8825 -16125 0
-19419 8727 0
11953 -5836 0
22589 -20864 0
-13546 -21864 0
15987 20102 0
-17112 10174 0
-6746 23059 0
-17615 -4401 0
12709 -19514 0
-21482 12763 0
-20950 -13507 0
-9624 -15671 0
10205 6154 0
11440 -16039 0
-20957 -2493 0
-17895 -16731 0
-7228 19955 0
19066 -10759 0
22718 15301 0
-3500 -6816 0
20201 941 0
12524 18592 0
-18770 18466 0
5688 -20712 0
5492 6724 0
-23376 5534 0
-8988 -9676 0
6954 -10713 0
-4464 -13330 0
-10982 -21574 0
-8033 10523 0
16013 17366 0
-2693 1013 0
-4114 9011 0
14679 -8089 0
-51 9410 0
364 -3298 0
-5338 17184 0
-2656 -2386 0
-5302 -9948 0
-11075 3269 0
11235 14138 0
-11104 20433 0
5548 1820 0
-21013 8513 0
-19325 -14144 0
21653 11908 0
-22393 -8162 0
11197 20662 0
-6305 -2965 0
9365 -13119 0
-15087 6994 0
-22096 -21806 0
12218 -19284 0
10662 -21307 0
-21827 14239 0
-2769 -11543 0
7807 -17371 0
-23322 18380 0
-17495 12911 0
-12841 14947 0
8615 6571 0
-15501 6413 0
10219 -11561 0
13979 2283 0
-11158 -8089 0
-15535 -9713 0
-4037 21299 0
-20204 -12101 0
-12236 -23315 0
-4420 -15962 0
20139 9611 0
4030 -6534 0
-378 12274 0
19449 9609 0
-18066 -4883 0
8469 13287 0
2564 -21230 0
17666 21738 0
18040 5714 0
-4394 10486 0
-14118 -16088 0
1817 10931 0
3141 -18098 0
-1109 6439 0
22657 5316 0
-20601 -1303 0
-21192 17625 0
-21493 19420 0
-6072 18312 0
8529 8487 0
19709 -11650 0
-14979 7755 0
-18702 15190 0
5198 3354 0
-1241 -2419 0
-20396 4657 0
8903 -16058 0
-967 -16484 0
17636 5907 0
1794 13728 0
-13370 16933 0
-21775 -7093 0
14573 2246 0
-1716 18613 0
16236 19445 0
-8396 -19403 0
-380 -21606 0
-3042 -4829 0
-17552 -19138 0
9793 1385 0
-3664 17974 0
-21662 10685 0
-8132 6916 0
-480 -11949 0
5750 -19033 0
-2359 16226 0
-14327 10278 0
1330 17075 0
19020 4134 0
-8150 20908 0
11260 -23198 0
-1142 20165 0
15813 1106 0
12980 18671 0
-391 4196 0
21882 -12287 0
22930 16159 0
323 12013 0
-15671 7728 0
15332 -14131 0
-9337 14238 0
-20029 19191 0
-7319 -16798 0
-596 -8698 0
-9258 22606 0
-17300 7188 0
10344 -17009 0
1828 19167 0
11183 -15241 0
19202 17822 0
6850 19585 0
6300 531 0
-12305 -14737 0
-5984 -9804 0
22869 -20137 0
5980 -1895 0
-1320 -12543 0
-18182 -17305 0
9753 -12579 0
580 6414 0
12238 8715 0
-1485 -1806 0
120 18731 0
-22784 -2685 0
2671 -17837 0
7515 -17455 0
7507 -2051 0
723 -9799 0
4952 7708 0
54 22213 0
17505 -8095 0
-13337 12422 0
-12851 998 0
6224 -6773 0
6077 14832 0
8476 965 0
-4432 -1079 0
12128 -20082 0
4641 13044 0
16756 13248 0
10661 -10811 0
16742 2361 0
7955 -15866 0
-18884 -9592 0
-18024 -14295 0
18126 -5950 0
-11355 13902 0
19039 -19344 0
-22166 -13039 0
23626 17462 0
-10412 12214 0
-20980 -20909 0
-7491 -18592 0
12313 13954 0
11409 -11421 0
-19508 -14830 0
-19424 639 0
-22711 -11603 0
-13660 -18722 0
-20641 -2487 0
-21037 -14883 0
-19946 23553 0
-15946 21614 0
-10202 15812 0
9041 -1624 0
19719 22598 0
-21729 14059 0
9035 22811 0
18130 21067 0
-22378 19429 0
-12229 -23657 0
14722 9611 0
-6753 -16528 0
-20729 1966 0
2108 21847 0
-11872 6358 0
-18826 -23092 0
-20552 8963 0
7420 -2335 0
-8271 -6198 0
-4037 -8377 0
-8099 -7722 0
9295 732 0
-8875 -14623 0
-19501 -23445 0
-13 -35 0
-5256 7875 0
-20500 -12888 0
-17487 -9314 0
-1719 -6047 0
7159 -22787 0
-2831 -13995 0
10779 -12865 0
15188 -22814 0
-2670 18241 0
-2963 -2584 0
-10807 -13240 0
-1941 -7193 0
-16382 -19840 0
-14606 -7117 0
-1053 -12842 0
15705 12173 0
15042 -20937 0
16084 740 0
-4677 20987 0
17822 -6783 0
3342 20997 0
-12798 23195 0
-15198 2992 0
16008 12201 0
20352 -18947 0
-2565 13899 0
14476 17454 0
11023 12613 0
-14505 -1199 0
-14816 22065 0
-15803 15286 0
-13735 8237 0
1802 16857 0
-11036 6487 0
16120 3566 0
-12560 18733 0
8943 560 0
11532 19018 0
-7780 -11034 0
8903 -19093 0
16818 -2209 0
10383 -21398 0
18472 22539 0
3877 -9249 0
13175 18599 0
18181 -22851 0
16077 4039 0
-5077 7992 0
-9587 -7341 0
5399 -13820 0
-7716 -17711 0
-6354 8269 0
16019 -19565 0
-21437 -4701 0
16867 -2872 0
-2688 22993 0
7725 -10708 0
-2631 8355 0
-8298 11202 0
-17159 22353 0
-22186 1376 0
-11856 -8089 0
-14879 -17675 0
21687 -17206 0
10117 6981 0
-3909 18927 0
-3386 -22302 0
9507 -13371 0
-23499 -6124 0
-11094 18322 0
15822 631 0
-20209 -23333 0
19668 1060 0
-10478 -1905 0
7980 -19789 0
23297 -19146 0
3124 801 0
3995 1789 0
3397 -52 0
-13320 -17824 0
815 -23389 0
21992 -6373 0
-3982 16238 0
-13005 624 0
-9732 -16991 0
20442 9038 0
-22598 -19735 0
-5653 -19871 0
12341 16630 0
298 -7264 0
14231 -10071 0
15242 -480 0
-1536 -18781 0
-2066 336 0
11825 18387 0
16159 17544 0
-5742 22335 0
7818 1589 0
-20520 7500 0
6419 -21024 0
-14745 11202 0
-8514 -20249 0
-3787 -11007 0
15162 518 0
9638 21474 0
23107 -20636 0
-23766 187 0
21555 -13137 0
-12514 6651 0
-15298 22990 0
-1237 23228 0
3556 -417 0
-9329 -22658 0
-16045 -16544 0
6768 14743 0
10724 -22698 0
-1822 10465 0
12179 -2212 0
4150 9190 0
13202 -4939 0
1559 13762 0
6251 95 0
-7778 -15264 0
14065 -788 0
12332 -17530 0
-13622 10378 0
-12955 20889 0
10575 20605 0
-3565 8772 0
5651 -15933 0
-17108 8724 0
-4770 12110 0
10318 9675 0
21328 15005 0
5768 19311 0
-725 -9646 0
-1407 8598 0
11998 -19658 0
-18560 -4539 0
-11897 8332 0
-10930 5635 0
3766 -8219 0
-18326 9448 0
6675 15127 0
-18118 -5175 0
-4836 -12605 0
4196 20197 0
-3496 15311 0
6734 -7698 0
-16660 -6766 0
-11373 5123 0
-18072 16389 0
-2583 -8391 0
18120 -20794 0
-8453 -22112 0
-11448 6277 0
-17560 23044 0
1611 22342 0
7682 -9048 0
401 20757 0
19254 -2934 0
-14109 -19742 0
-21463 -15784 0
-12757 -9968 0
-11183 -16460 0
14683 -11134 0
-9639 9245 0
-7750 -6951 0
-13483 -7324 0
19971 -11265 0
-16661 10256 0
-5375 5410 0
-12203 23365 0
-78 -11807 0
11912 -21374 0
20408 10384 0
-10438 -5796 0
15885 -10898 0
6395 -16663 0
21299 -16167 0
-16418 20147 0
-12337 13057 0
12763 -20462 0
17132 17055 0
-14841 -13293 0
-1931 -7224 0
19147 -20281 0
-15970 -4552 0
-1555 16895 0
22120 -18190 0
12111 12037 0
1438 10124 0
-13346 19903 0
5895 -8457 0
11183 4555 0
1709 9082 0
21972 23424 0
11272 -14553 0
22347 -11480 0
4377 20904 0
7071 -20211 0
20930 16660 0
-23514 9481 0
2211 23089 0
22977 -12444 0
-956 -20639 0
-15467 12964 0
-14406 2511 0
12002 -11040 0
19370 22763 0
-3054 14347 0
14482 14455 0
20627 -21824 0
2420 -15262 0
15090 22254 0
13910 -23360 0
22062 10599 0
-16610 -19610 0
-8532 -14218 0
16568 18611 0
-16985 -4357 0
-22298 15944 0
-16731 10226 0
-8838 1006 0
4966 10656 0
-9783 2594 0
-16595 -18426 0
5492 -12882 0
16662 15547 0
-12193 -14975 0
9849 17138 0
16530 -8308 0
5329 12059 0
17295 -6921 0
12199 -1829 0
4391 17334 0
19675 7930 0
-18113 3955 0
-21480 7132 0
12183 -6067 0
-16868 21615 0
-13350 -7761 0
22522 -15151 0
1619 3701 0
18296 -20475 0
-11841 -16958 0
-23588 -9957 0
17898 14825 0
6648 -5209 0
15792 -10557 0
-5736 -9877 0
-11604 -2611 0
10425 -15668 0
-11487 -14174 0
-4232 -14170 0
-11467 17249 0
-774 18399 0
-17430 23519 0
-9185 5071 0
-21101 -2389 0
-11607 -17001 0
-4370 -12792 0
5117 -17581 0
1914 3843 0
-7092 -4166 0
-7490 10570 0
-18540 -22809 0
-975 -15633 0
-20947 -1767 0
21841 16652 0
9750 -8790 0
-9210 19611 0
4101 10534 0
-19468 -6103 0
-1559 1991 0
4017 -3439 0
-4940 -19050 0
-12037 16989 0
5158 5328 0
-6387 -9582 0
-16688 -10836 0
16353 18967 0
23014 -4045 0
5532 7832 0
-19609 3492 0
2005 20364 0
-16073 17291 0
1714 19251 0
18313 11254 0
-1883 5632 0
14773 -439 0
-7294 -15383 0
1333 21120 0
-5810 -15685 0
23652 -5541 0
21305 10042 0
-19251 9842 0
-18364 -7037 0
3264 20820 0
-19437 813 0
17929 7132 0
1281 16877 0
-12698 -17655 0
-5118 -11496 0
21989 -4069 0
1230 4577 0
-22529 21557 0
-14914 -23368 0
23181 -11995 0
16767 -3251 0
15056 1104 0
-18335 9237 0
13239 -14663 0
12906 1560 0
-15904 -6866 0
-8962 -8726 0
13865 -6427 0
7649 -4636 0
15765 1114 0
-1440 -6036 0
-8776 -21535 0
-14751 17588 0
-11193 -12120 0
488 -4538 0
-19610 3718 0
-7029 11051 0
-1432 9013 0
-2404 10410 0
2750 12507 0
-19064 23465 0
15678 2354 0
-17215 -10763 0
-7357 13683 0
-11135 -10713 0
16482 -400 0
-18274 20410 0
-20660 -16666 0
11796 -23037 0
-10674 -16917 0
12564 12629 0
-15166 6575 0
2078 20321 0
9734 -11486 0
-7512 15888 0
-19561 6875 0
19185 16259 0
-16085 10081 0
-1677 4740 0
96 6971 0
8033 6860 0
-21495 20328 0
-11287 2901 0
15443 5927 0
19226 -15402 0
-21875 -5389 0
7643 -17628 0
-7277 2894 0
22888 17429 0
10296 14714 0
21326 3878 0
-22520 -2023 0
-5848 -7796 0
20920 -21987 0
-8685 5724 0
10014 -1943 0
835 -17581 0
-13233 23435 0
9505 -18779 0
-15965 -874 0
-9147 9114 0
-12570 -8160 0
-18746 13243 0
-11705 2100 0
5351 1338 0
-150 -78 0
-21025 15446 0
15288 -18287 0
7957 3374 0
11151 1867 0
-12235 -12222 0
21045 306 0
-8809 15446 0
690 -11186 0
-18180 12458 0
-10776 8419 0
-14644 -19544 0
18264 -2491 0
21523 -21007 0
1081 -3765 0
2452 17937 0
9846 -6444 0
-4796 -1864 0
-21344 3019 0
4498 10684 0
-14493 13894 0
-5914 -2310 0
6922 -18505 0
-10839 -2553 0
-19217 1891 0
17782 -21044 0
22215 10619 0
-5825 -250 0
-19115 11786 0
-8303 -3286 0
18199 -1115 0
-8920 9882 0
13701 -7078 0
12532 -8807 0
8819 -16071 0
-5597 7522 0
3370 -13110 0
22325 -22033 0
7925 -10310 0
-6749 18828 0
7884 3014 0
-9918 -20510 0
-1719 20173 0
-14152 -20021 0
11854 11147 0
736 -14192 0
7560 13616 0
13724 -16410 0
221 22459 0
-19161 -2202 0
447 -6870 0
6991 -11024 0
3220 14592 0
20546 -3636 0
19813 -1079 0
-9520 17060 0
15564 16962 0
-22945 16140 0
-13546 -14902 0
7746 -3678 0
4427 -7920 0
8432 17981 0
-117 -4366 0
-5012 -9014 0
19231 -10507 0
-10094 18568 0
-5543 -3463 0
19502 -5765 0
-19156 3262 0
-22147 -11570 0
2534 -22727 0
9791 2574 0
-22466 9030 0
7558 4845 0
-4672 16579 0
-3879 2261 0
12214 1683 0
-13625 -22005 0
-19127 1388 0
-6149 -18136 0
-7379 21993 0
3753 -832 0
7609 -22383 0
-23129 22626 0
3890 -14935 0
8840 15528 0
-16459 -754 0
1342 -3679 0
-13136 -23383 0
407 18528 0
-9723 -19666 0
21635 22675 0
14849 -18150 0
5092 10041 0
13879 -16998 0
15295 22847 0
17928 -4721 0
7978 -4572 0
14491 -15369 0
-15933 10534 0
-685 15380 0
6267 577 0
-21672 -1372 0
-19132 10606 0
-16391 11567 0
-21759 22333 0
11659 12877 0
10633 -14438 0
8648 15447 0
6275 11190 0
1460 22043 0
-5576 -12439 0
16822 17233 0
20084 13178 0
19552 21692 0
-17391 -5927 0
4995 18996 0
-15610 -11768 0
5195 -17923 0
-5701 1275 0
11472 16271 0
13474 -10085 0
-14945 -4904 0
-23179 11529 0
20131 15854 0
22161 -3841 0
10066 -8160 0
-17305 20337 0
20642 11087 0
19491 -14507 0
-17888 6643 0
-4904 10827 0
-4317 -21924 0
5828 -19548 0
20016 -12966 0
-11233 -8653 0
-16541 3130 0
-3923 -333 0
-17328 -9439 0
-13295 1610 0
-20602 18896 0
3144 7873 0
22457 185 0
19611 5908 0
10365 7777 0
9590 -11325 0
-12282 19373 0
-8941 23626 0
2163 10775 0
4992 6442 0
-19201 100 0
-8783 -10582 0
19773 -10935 0
-14127 -5545 0
13124 -12693 0
-4823 -15666 0
-16451 6461 0
-20305 252 0
6876 2326 0
-7596 3358 0
-656 -10323 0
-2465 -7808 0
-11645 -7122 0
9563 -2548 0
-10087 10581 0
-18726 -5450 0
-5299 -20804 0
-11087 12549 0
-919 8156 0
-2163 -12602 0
-13643 -14126 0
-2097 11324 0
-7450 -17860 0
3809 5145 0
8065 -21395 0
-13132 6657 0
9081 -9017 0
824 -15584 0
-3474 14896 0
-20591 -21655 0
18513 15776 0
10237 15817 0
-6297 -12905 0
-11645 14001 0
-2247 6582 0
-2780 -20448 0
145 9424 0
-18175 -21945 0
14517 14787 0
-3323 20136 0
-2023 14831 0
13976 12567 0
14295 -10834 0
33 4620 0
5561 12818 0
10710 -21934 0
-4398 -10194 0
-3403 -14174 0
-9500 -18240 0
1020 -14286 0
8540 6943 0
-19802 15890 0
-2200 -15415 0
-18893 -19290 0
18766 -16356 0
9468 -16472 0
-1192 -2758 0
-17367 -4813 0
4800 -11910 0
15622 -1547 0
-3902 18829 0
-22995 9907 0
-8709 21203 0
17361 8485 0
7301 9251 0
21116 -21672 0
-16081 526 0
11429 17046 0
-6650 -12087 0
-19868 -21566 0
8498 22190 0
-15706 -14319 0
9303 4736 0
-12567 -22617 0
-13840 22149 0
20092 -22056 0
7274 23698 0
746 12870 0
-2991 7735 0
-23166 16159 0
-2248 1920 0
19972 -21228 0
6585 -16346 0
5979 20011 0
-22330 950 0
4228 20398 0
22628 22994 0
17327 -22859 0
-13046 -18597 0
13124 -1758 0
-1603 -5888 0
20447 7376 0
5439 12600 0
2208 9345 0
-23030 -2796 0
-8159 20554 0
-12744 14267 0
-14891 -12541 0
-9326 -20947 0
681 21347 0
11030 3845 0
-15992 -10101 0
-8 -12599 0
-18775 12555 0
-19225 -5122 0
3724 5521 0
-11653 308 0
7055 11372 0
-22439 18629 0
-10882 -7992 0
-17042 -13717 0
-7667 -9996 0
6971 15743 0
-309 -12807 0
18191 -16896 0
-21278 -23578 0
-7126 -16523 0
-22089 1803 0
-11015 16079 0
-6180 -5912 0
15989 3030 0
-14648 1018 0
-21838 -5378 0
13670 -7195 0
-5407 -3856 0
-11170 19876 0
-15144 -20500 0
-5395 -14190 0
9259 -13881 0
2238 3819 0
5886 -6937 0
-7906 -2443 0
1429 -15464 0
-22907 -17765 0
-4882 -2087 0
-5261 -1647 0
-5434 540 0
9402 15421 0
-250 -2371 0
21160 -8094 0
6539 -6866 0
21986 7952 0
-9060 8553 0
-23186 -3678 0
2892 2249 0
-10319 -19026 0
-1149 -9281 0
-1394 -21995 0
1385 21804 0
11955 14334 0
18679 21870 0
14522 19054 0
-8532 -3764 0
-15749 14937 0
6685 -14788 0
-18932 8431 0
3534 -23757 0
2050 3416 0
-19119 -15599 0
-1643 -21862 0
10418 -9402 0
-7743 3793 0
23242 15077 0
11727 11627 0
-13034 19707 0
2036 6654 0
231 -10975 0
13924 -11544 0
19479 3472 0
-10912 23168 0
3228 7171 0
20801 -5065 0
1865 17743 0
-21757 2137 0
6239 -10647 0
4128 -9900 0
8817 -19435 0
19323 -8922 0
17076 -4615 0
3522 -6694 0
1769 -8977 0
17364 -4766 0
-19670 -3142 0
14899 13938 0
-6023 1399 0
-18339 -16913 0
462 10729 0
5108 -19138 0
-17959 -15775 0
9633 -12541 0
16934 -18516 0
-17333 7993 0
4044 -2827 0
12412 -15736 0
12937 18105 0
-22680 -21639 0
-6793 21825 0
7784 -2074 0
-10553 -12114 0
-16625 -13230 0
-13830 22395 0
-17919 -15742 0
2049 14179 0
-20091 1738 0
1446 1525 0
19950 841 0
-1182 4759 0
20780 866 0
-3573 -21868 0
4774 18431 0
4762 -4075 0
13946 11989 0
5205 -7890 0
-14300 -18733 0
-18611 4688 0
302 13995 0
-8632 16723 0
19643 10637 0
-22332 -5452 0
-11802 2561 0
5868 9646 0
21242 -2993 0
-1994 10688 0
21076 1149 0
-11890 9557 0
22492 -6140 0
-9999 -1543 0
-5769 -4422 0
3331 -21478 0
5109 -7518 0
17556 -8703 0
-12566 -7064 0
3488 -3746 0
6248 -5460 0
-12451 -1465 0
-21751 -20097 0
-19498 4236 0
-9403 -18414 0
-7818 -2704 0
-12025 14325 0
-5390 3017 0
7874 -16963 0
12779 17016 0
22566 9810 0
-15075 21068 0
-17988 -14571 0
1588 -12166 0
-19336 8222 0
3405 -23281 0
-867 23569 0
5108 -15761 0
-18677 -2048 0
-14370 16990 0
2921 7134 0
18570 15446 0
9445 8108 0
168 13020 0
16040 22176 0
-9108 -16605 0
-6922 529 0
-12801 7796 0
-2314 2533 0
15709 -5595 0
18722 2090 0
8023 -20059 0
-2987 -15232 0
21658 -5378 0
15081 -13426 0
22036 -5024 0
5209 3102 0
9391 -18636 0
23405 -8326 0
-17044 -6124 0
-7906 -13825 0
4440 6349 0
-3558 23159 0
21353 2504 0
-22052 -3753 0
-8034 -3732 0
22264 2979 0
-16742 -8093 0
-12350 2688 0
6908 -304 0
5862 -21403 0
4012 -13217 0
19316 -6845 0
-20818 -8344 0
-11992 7004 0
12835 -5378 0
12235 -808 0
8912 -1201 0
-18503 8031 0
4673 1848 0
-20397 3593 0
3049 876 0
-14782 13109 0
20483 -21289 0
-16827 20285 0
-1128 -17175 0
-20500 -17226 0
-3702 -11969 0
-16935 22348 0
22238 2276 0
-21161 2267 0
-5253 -7061 0
787 -1997 0
-21513 12002 0
22432 -9256 0
22191 13613 0
23770 -23179 0
13300 17735 0
893 17515 0
-15598 577 0
-18054 -23417 0
22559 -8523 0
7060 -1065 0
-15713 8803 0
-5618 -3162 0
20605 21482 0
12926 -4381 0
22152 -5750 0
-19348 4372 0
-839 6116 0
-16393 -1108 0
-10876 -19198 0
14515 -10120 0
-17838 -5684 0
11499 9700 0
15615 15925 0
-16064 9246 0
8598 -18047 0
-2668 17512 0
-794 11741 0
3529 22379 0
-22446 3567 0
21673 -23040 0
10298 22788 0
-14328 -4098 0
-7500 -120 0
-2637 11506 0
-11271 -19694 0
-15102 21530 0
21855 -11355 0
-17070 4296 0
-20626 7330 0
11153 15050 0
-11761 12188 0
22448 22207 0
-19090 -17180 0
3591 1102 0
-4664 355 0
13916 -14970 0
-14274 10305 0
4064 16618 0
-23436 8256 0
4007 -18304 0
-22947 -14417 0
19789 -17658 0
955 -20934 0
16069 -3629 0
-8961 5470 0
3644 5599 0
16512 -7298 0
20890 19524 0
-155 23460 0
-10396 -16371 0
7856 614 0
18984 9628 0
20696 -2896 0
10078 -14191 0
-4697 -331 0
-2643 109 0
2921 -17095 0
3204 11963 0
-23026 10806 0
-12401 6916 0
-19508 3879 0
9605 -20844 0
-6474 20611 0
14274 -1393 0
15193 15450 0
-14819 11962 0
-9650 10840 0
-6405 23624 0
-5874 11070 0
-17643 -3265 0
17691 -23440 0
4093 -23024 0
-14776 -6746 0
-20886 13501 0
1714 18617 0
5758 16757 0
22208 -6701 0
-4063 -3380 0
-20170 -19322 0
16520 20807 0
-3636 -15322 0
-15807 14854 0
18032 -21121 0
6948 9850 0
16684 -10093 0
-9604 -21859 0
-19658 654 0
2736 -9673 0
6056 16534 0
-1065 -16085 0
-16507 -12859 0
13708 5591 0
14266 -8164 0
-9909 -7662 0
16170 6768 0
-6377 11277 0
17923 -16739 0
3010 21439 0
-750 17097 0
-8741 -20640 0
-20329 7819 0
12997 6911 0
19036 -7695 0
-12994 3838 0
11992 -20922 0
12692 -6227 0
-14213 13983 0
-3949 -17363 0
-20142 18706 0
-6892 4005 0
17419 8752 0
16120 21880 0
9086 15172 0
-13674 -10601 0
-22888 20458 0
-8670 15848 0
-2054 23234 0
18023 -9042 0
7848 2534 0
-18776 8070 0
19937 -20495 0
9150 20580 0
12489 4254 0
8195 11892 0
9227 22518 0
-11946 -14806 0
-12567 -1622 0
21905 -10879 0
4256 -12234 0
-11520 -18433 0
-15450 -14425 0
15957 -20872 0
7132 -73 0
-5832 -11197 0
387 -23756 0
-7980 5870 0
9128 4840 0
899 14406 0
-22457 14518 0
-6115 15649 0
-1806 -14066 0
-16445 -4278 0
-4453 15373 0
-17861 -9438 0
-18176 15010 0
8898 19608 0
-317 -3541 0
-20209 2381 0
5840 9369 0
-1407 20479 0
-16196 -23387 0
6539 -18717 0
7457 -19143 0
-10981 7741 0
16080 6567 0
-7377 12861 0
23258 -3346 0
-23421 4824 0
4992 -21400 0
10244 -12993 0
-21262 -8098 0
-5923 -3403 0
-3831 -6458 0
23513 7309 0
-16355 12712 0
399 3679 0
22166 12293 0
5683 -10398 0
-6259 -22684 0
-8801 -11023 0
-8764 20303 0
-20754 9303 0
-11876 19195 0
21944 -14645 0
19389 -7006 0
11353 -10033 0
-21872 -9934 0
-18937 -18257 0
986 13031 0
-555 19595 0
-14773 18125 0
-20396 2818 0
562 -16380 0
22659 7069 0
-19274 -9453 0
13433 -6745 0
-5891 -499 0
-22301 -7083 0
23502 13483 0
-1489 5 0
14339 132 0
-8043 19029 0
13326 -17566 0
21580 -2613 0
9678 13912 0
-14109 -23703 0
15376 -11262 0
19552 -13338 0
8174 11634 0
-1228 -7231 0
-19074 2943 0
21549 18904 0
20360 17749 0
-4434 18717 0
2208 7354 0
-7453 -22573 0
17965 19804 0
-544 -11526 0
-17425 -20516 0
-17742 -20294 0
-18206 2870 0
-3737 -20676 0
9972 -16572 0
-2900 10316 0
4473 -2389 0
-4851 11991 0
16302 19104 0
-11377 -3728 0
-11708 4122 0
-17887 22316 0
17927 -20856 0
-16977 12853 0
19053 -1057 0
-1055 21661 0
17682 11994 0
12564 352 0
-3929 5944 0
11553 14337 0
2593 13461 0
18131 5481 0
-23645 -7113 0
-5464 -22692 0
14744 10578 0
-16188 -7044 0
1322 3473 0
-6449 -4316 0
5578 22843 0
18272 -8956 0
10436 58 0
18509 -4080 0
-14113 -4526 0
-4618 10960 0
-12289 19788 0
14636 -23514 0
396 20276 0
6031 -19419 0
8275 5060 0
14493 12713 0
-4312 -21837 0
-727 1398 0
-19649 6584 0
13060 12405 0
-7505 1694 0
-23240 4018 0
-3889 -2505 0
-2812 16926 0
-23123 13586 0
-1977 326 0
4223 1161 0
-14515 -8460 0
7455 1443 0
3336 -2169 0
23734 11162 0
-22550 1820 0
23546 -14368 0
-17757 -8402 0
2055 -6283 0
17978 4482 0
19569 -14730 0
8830 -6273 0
15504 9303 0
15975 -13073 0
14311 13418 0
18764 -14666 0
-19610 -6585 0
2292 9728 0
17450 21619 0
4095 -15300 0
-5258 18661 0
5957 -2549 0
-16415 -20548 0
18126 11878 0
2532 -20956 0
6124 -12127 0
20189 -18014 0
-4089 -6382 0
13755 -2136 0
-13558 9973 0
-23075 -6448 0
-1382 504 0
5107 3401 0
9631 -9326 0
16888 22910 0
-7707 13525 0
14693 14802 0
9374 19111 0
-22605 -7491 0
-9394 4253 0
23639 7293 0
21558 -18204 0
-1621 -14051 0
-4098 2160 0
6156 -6030 0
-2886 17933 0
7470 -6499 0
-14360 -7018 0
-11088 -5717 0
-16754 8782 0
-22401 15968 0
-22776 -2512 0
-13388 3817 0
-7030 18780 0
-477 6033 0
20030 -15688 0
7440 -16383 0
14860 18240 0
-6264 -2985 0
-4082 -1500 0
-17209 -5539 0
16463 5472 0
-15620 8328 0
-1266 21493 0
-7597 -10415 0
17936 22200 0
12524 16739 0
-6534 -6520 0
-12756 15871 0
22580 -8572 0
16219 6727 0
3673 14683 0
-9340 8275 0
-18940 20160 0
-2710 18521 0
4776 -8541 0
18689 8443 0
10153 10926 0
18793 -20737 0
-7335 -6141 0
-719 -5048 0
7000 -4566 0
-18491 -9623 0
-4610 23720 0
-22743 14188 0
-6658 16934 0
22448 -21927 0
19958 1545 0
14792 13100 0
17958 12421 0
-3025 4151 0
-9112 12513 0
6381 13382 0
-6366 22130 0
-6247 5245 0
6667 21480 0
5098 -12455 0
13486 -1032 0
-9830 -8425 0
17193 -8207 0
-17153 -8498 0
6803 -21377 0
-23001 12558 0
20075 -23170 0
11941 9412 0
-274 4124 0
-13464 -1415 0
20756 -23781 0
22749 -2650 0
23570 -19290 0
16300 -14174 0
-14344 -19023 0
5003 17138 0
-4 -20614 0
-1182 14364 0
-3838 -5088 0
15328 -15103 0
-17780 14478 0
-12634 -13736 0
-3825 -22043 0
16115 16739 0
-2904 -22443 0
-6789 -1135 0
6643 13984 0
-82 -8561 0
-16495 -10208 0
12343 -10989 0
10629 21561 0
-11928 10317 0
-10888 -1276 0
20977 9773 0
19133 -23484 0
12811 -18823 0
-7741 -17546 0
-10118 112 0
-13992 3171 0
6897 2191 0
-14664 13938 0
-14806 -6466 0
5176 19478 0
22570 -20033 0
-15447 -23275 0
-4223 13086 0
-8504 -11414 0
578 2678 0
-22619 23465 0
-17167 -10802 0
-14372 17806 0
3361 7136 0
-16418 18385 0
16388 5204 0
-16508 -13588 0
7669 -23021 0
7680 -724 0
-8545 6755 0
21415 12412 0
5399 5035 0
-19936 13709 0
-11254 16824 0
-5428 4854 0
12549 2078 0
15679 11155 0
-20435 -5210 0
8560 -2767 0
16163 -15496 0
13729 2584 0
17578 16740 0
-15102 -7617 0
14650 15330 0
8502 2823 0
12158 16493 0
-19992 -8520 0
23539 -3520 0
-14084 8083 0
-1975 3956 0
-18620 1130 0
14255 -5720 0
-21175 -16296 0
17198 -8141 0
10233 722 0
-6022 -3764 0
-18611 -16792 0
21802 9348 0
12388 -11098 0
16009 4821 0
21007 -19460 0
-22301 -16896 0
10405 9741 0
13476 15467 0
-2487 -10064 0
-3947 1474 0
19861 -23421 0
22960 12656 0
-15339 429 0
1936 7861 0
20543 9269 0
4339 -16232 0
-3783 -13289 0
5201 -211 0
-12284 11951 0
-6908 -6504 0
12420 -20572 0
-13914 10441 0
17960 -8976 0
-200 -21701 0
20687 -11315 0
7425 -14802 0
20026 -21831 0
6069 -22762 0
19919 -15994 0
-19129 -20803 0
-8857 22413 0
-16161 -20500 0
8812 -9834 0
5637 13333 0
-21084 8242 0
-14123 -7715 0
-13204 -1261 0
-1680 -16729 0
13578 -17108 0
15442 3540 0
9442 5946 0
672 6286 0
-13070 -21753 0
-14640 17141 0
3188 9320 0
-4843 13689 0
7629 20920 0
-9099 13545 0
-8789 -18949 0
17769 -10449 0
15870 -20829 0
-11893 -628 0
2235 -10094 0
-2078 16491 0
16757 2176 0
-4260 -14370 0
-10339 -12482 0
9729 -21188 0
-9409 -8260 0
339 -8960 0
-17856 -8074 0
-23051 23743 0
-9209 5643 0
20145 1728 0
8791 21387 0
-12613 20679 0
12935 -4993 0
-19009 -14437 0
-17759 -7597 0
-20476 12951 0
-13801 11336 0
-17410 -18108 0
3597 -9440 0
-19491 1217 0
11021 4234 0
5312 13553 0
-15473 208 0
-20038 -10076 0
20424 13459 0
-16757 -8791 0
-14047 6795 0
-9522 12742 0
14838 3692 0
-23226 -18228 0
21217 4762 0
-17137 -8394 0
3266 -5788 0
22804 -19467 0
-10217 6349 0
7379 15879 0
9033 15794 0
-6409 -18899 0
9734 576 0
-1850 -8247 0
20030 21710 0
-5394 4294 0
-18808 -9525 0
13838 16103 0
22653 8705 0
-2866 9434 0
-18333 -21449 0
-2030 6289 0
-21706 -17288 0
-10243 8800 0
985 -7105 0
-2029 13625 0
-2728 -13356 0
22578 -1345 0
-12434 16420 0
-10623 15985 0
-15115 8264 0
6292 -14753 0
17056 13751 0
-3411 8481 0
2464 7481 0
14080 -21751 0
-6619 -22554 0
-22421 -520 0
-13005 23381 0
-832 11388 0
-10243 11868 0
-20541 -21241 0
-3314 -21623 0
-13328 8564 0
-3370 1800 0
3680 -14265 0
-12353 -22465 0
10388 -16899 0
-19075 9708 0
-4938 18920 0
10539 21587 0
-5640 -23111 0
-18440 -1308 0
20433 -1629 0
2471 -5881 0
8118 11440 0
-2814 -21511 0
-3533 12201 0
12954 -17916 0
-1396 4684 0
-21775 -1869 0
-19273 23216 0
-9298 -23450 0
-4809 18160 0
14236 -11729 0
20757 -22793 0
23470 -2635 0
-1786 -16431 0
-12712 -11924 0
5670 -4377 0
-14436 5140 0
8812 11473 0
18220 18056 0
-14583 1979 0
-11795 7083 0
4409 -8965 0
2100 10049 0
-8012 -23289 0
-5895 -6280 0
643 -14341 0
-18421 1657 0
-7331 -406 0
-6504 10183 0
9956 3589 0
-18711 2771 0
17353 5898 0
-22224 3422 0
-20848 -1705 0
-39 -11139 0
19205 -8461 0
-7442 17829 0
9864 -671 0
12987 -12411 0
-5401 -6436 0
-13054 15963 0
4656 13811 0
18332 21528 0
11580 -5466 0
18917 -2017 0
-12761 -9240 0
23103 -13469 0
-7782 -14315 0
1601 9852 0
-7318 3359 0
-1935 14483 0
2608 4378 0
-2426 14886 0
-5963 -8986 0
-13009 23497 0
2334 2375 0
-14979 8934 0
5003 -20613 0
-13641 3451 0
11899 -3347 0
20832 12957 0
18634 -17559 0
15100 -3749 0
-6429 502 0
8683 -18334 0
-23770 -8980 0
18404 2329 0
21974 8280 0
1249 -12938 0
-19945 -725 0
12798 -10491 0
2788 -5863 0
14443 22374 0
-3012 -19141 0
13572 -17465 0
23686 4586 0
13319 20011 0
-17687 -932 0
-13801 -3513 0
-6318 -18672 0
9430 -11055 0
-12678 23059 0
4868 18686 0
-5869 4781 0
8604 6085 0
-17141 7852 0
1898 23444 0
-19265 -18395 0
2916 12951 0
15261 22883 0
-9954 -15927 0
-5557 -14984 0
14395 -15753 0
-21319 -22239 0
17317 12888 0
-12055 17367 0
19360 -10471 0
-9915 16438 0
-12774 4899 0
-18325 1135 0
-6858 -10346 0
-8230 -22465 0
-4792 -4767 0
-16232 11255 0
-23076 16377 0
2712 7414 0
15636 22054 0
17033 21514 0
-12271 3656 0
-18068 22962 0
11793 -2225 0
994 18549 0
-21308 -23119 0
13186 -23721 0
-14763 16516 0
845 12518 0
-6819 10826 0
-133 4525 0
10837 4693 0
-4326 -19887 0
10902 3879 0
3045 -7825 0
-16308 5994 0
-7007 2428 0
-6682 443 0
8588 18920 0
-16222 -4645 0
-5740 8422 0
-17108 18852 0
-11815 -9300 0
-4471 -427 0
4438 13908 0
1293 14794 0
-7684 6147 0
10401 20027 0
-13353 -19092 0
3164 11346 0
14053 -21680 0
-7183 3572 0
-5180 5451 0
8442 13132 0
13353 16245 0
-3620 11242 0
7169 9128 0
20939 14895 0
-12668 -9707 0
-18280 15504 0
20868 -10374 0
11616 3025 0
-1213 -4550 0
-15848 11400 0
-15929 9880 0
10719 -12530 0
-23436 -13873 0
9899 -8857 0
-11574 21821 0
-18377 -18525 0
-7344 -8878 0
8811 -15429 0
23506 -22698 0
-11164 -17304 0
-14629 8998 0
-7631 -7944 0
5401 -23577 0
13157 23120 0
-1301 19257 0
-10450 -23575 0
9216 14231 0
-5866 -11931 0
9340 -18058 0
557 -13607 0
-13631 10179 0
-15776 -19835 0
22292 -4661 0
-3737 -21310 0
-5968 -22902 0
19806 -738 0
18012 21402 0
-12487 13131 0
10397 21799 0
-3216 -16669 0
-23746 -18037 0
-1505 8461 0
-14711 272 0
-16747 15320 0
21941 3546 0
1515 -18539 0
19837 -3511 0
-15896 23701 0
-19437 22931 0
10762 12476 0
15070 23243 0
-12850 -7358 0
6331 18962 0
-15663 -8144 0
-17190 17794 0
-23211 18749 0
11097 -1394 0
8195 -16537 0
15029 18468 0
-6321 16970 0
4903 636 0
-2970 15858 0
12669 -21862 0
16064 18651 0
4682 -15981 0
10487 -646 0
5052 23580 0
7982 -9222 0
-9698 -17429 0
10520 3187 0
-18532 -12774 0
18373 -2052 0
20354 13599 0
-6752 -8276 0
9094 -15256 0
10517 -7627 0
-1635 18869 0
-7827 -7279 0
-2872 -7328 0
3686 17043 0
-17024 17924 0
13267 9923 0
-20826 12369 0
7041 -20036 0
-15789 2317 0
16396 7604 0
3397 -8646 0
21425 995 0
-18440 5534 0
17681 15725 0
6301 18689 0
-17264 13598 0
-12392 -6187 0
11822 -2655 0
19719 -1957 0
12349 8177 0
-6229 12462 0
4826 -673 0
-10798 16199 0
6351 -20933 0
-9066 7559 0
15487 -3223 0
21358 -19742 0
5362 17109 0
4562 19044 0
-22306 6275 0
-17528 -22186 0
4541 -13883 0
9423 9264 0
3084 1055 0
14354 6866 0
17503 -14725 0
6428 10347 0
-68 2982 0
-8454 -10334 0
-15403 17112 0
-23469 10845 0
-20055 -2139 0
-14669 -15192 0
-16517 22867 0
13674 -3607 0
-21705 16023 0
-14551 -1161 0
15984 4967 0
-16042 -13440 0
-17624 10092 0
14081 -92 0
6966 -10241 0
22910 16969 0
-15854 15907 0
-10654 21986 0
19514 138 0
-19541 -3115 0
-23354 19925 0
7514 14338 0
9532 -22330 0
11905 12132 0
11083 -3513 0
-7373 -21232 0
-19818 -12956 0
-11220 -979 0
5850 -8027 0
-8825 9367 0
3543 23452 0
1769 6644 0
-21844 15747 0
20474 -15908 0
-11740 -2048 0
-7718 8697 0
22349 -21323 0
-3974 5327 0
21602 -4021 0
-17596 -20480 0
15705 -20818 0
15522 -7045 0
23047 17379 0
-7633 -19462 0
2800 -20721 0
16107 4740 0
7728 8813 0
6559 4710 0
15163 -22324 0
12463 11561 0
-11262 5134 0
21602 -14653 0
9282 -2105 0
12249 7201 0
15377 17557 0
14606 7513 0
10485 -19944 0
1456 20464 0
17530 4604 0
22756 -20533 0
-7130 -19258 0
11974 12226 0
12366 -23005 0
19345 19673 0
-11759 -16182 0
1988 302 0
13032 -20166 0
21380 -5307 0
21015 2217 0
5776 -23515 0
20114 6751 0
13436 2486 0
-21938 18118 0
-19874 15394 0
3477 -1485 0
-15068 -5095 0
-11375 19935 0
-9193 -4102 0
5334 11858 0
-6468 -6715 0
-18734 -923 0
10461 -5483 0
5526 -5130 0
-5936 -5510 0
19815 11248 0
-2180 -13274 0
-8618 -22061 0
12995 8582 0
23549 21269 0
11578 -12290 0
-22256 7712 0
-13577 15480 0
16818 12314 0
-11026 9458 0
-7332 -12090 0
-9004 -16966 0
-1242 4059 0
-4565 -6694 0
14112 8005 0
-872 -1278 0
-4288 -19253 0
1207 -2488 0
11059 1379 0
13606 2655 0
12841 2675 0
-2629 2740 0
-7901 18489 0
-9176 17387 0
18055 -15370 0
-7040 14340 0
-4416 -1901 0
-22742 -23485 0
-20373 9106 0
-6268 -21609 0
-13347 -14262 0
9381 8009 0
19549 926 0
-8235 -347 0
-21616 23120 0
21561 -22071 0
20548 20753 0
8942 15296 0
3717 4353 0
10328 10580 0
9709 -23242 0
-9583 9652 0
-20122 -6423 0
-17391 -2042 0
-4276 12334 0
-21935 -4113 0
-13136 11583 0
-16628 18941 0
16503 14134 0
21519 -793 0
18270 17250 0
-6546 6365 0
17792 -11661 0
-21253 -8702 0
-20103 -9953 0
-14189 -22209 0
-18055 -16610 0
-1791 -19992 0
-21323 -1209 0
-4912 8844 0
10695 -16550 0
-18115 -16480 0
6857 -22343 0
878 1739 0
-10952 13191 0
12995 -12397 0
15225 22408 0
1785 -11532 0
-4251 -1747 0
-958 -22591 0
-7314 -8076 0
17824 7441 0
8059 14282 0
-11803 22465 0
-10935 12389 0
19112 2681 0
3888 17585 0
16359 -136 0
-9351 -3381 0
-11787 -20937 0
4294 15689 0
-22796 14192 0
7980 977 0
72 14401 0
11308 -23166 0
-1937 17597 0
-9325 -13977 0
-2861 14236 0
-22677 20052 0
7815 -9513 0
4522 21517 0
-5171 -16551 0
-22951 -21687 0
-478 15861 0
363 -11943 0
7472 -14643 0
-15897 21438 0
23305 7593 0
-282 15844 0
6810 4047 0
-2611 19098 0
15766 -9795 0
-19058 20519 0
-7675 -13074 0
23769 -7960 0
9398 21105 0
-10608 -23496 0
2801 -22521 0
1934 -15596 0
6198 18672 0
10696 -6007 0
614 7510 0
-7133 -2931 0
-15002 -12147 0
-9205 -16832 0
-1766 -8471 0
15104 -3418 0
-2706 -14118 0
-975 -4876 0
9989 973 0
-9403 -19367 0
13781 -4907 0
6216 -20430 0
19524 -3171 0
-23325 22889 0
2005 1458 0
10091 21046 0
-17920 -14623 0
10092 12299 0
-3660 10539 0
-7317 18112 0
2664 8029 0
17468 12564 0
-6309 -6834 0
-23528 -10107 0
6507 2725 0
-16466 7779 0
-212 -12404 0
15477 19767 0
-9967 -16357 0
-1208 22668 0
22254 -19335 0
-23418 8022 0
10576 -790 0
15975 20421 0
-7670 15353 0
6349 11035 0
9420 -14108 0
5020 19957 0
6976 22282 0
9839 15464 0
19279 -1373 0
-16187 -6860 0
-18688 -7346 0
18577 1082 0
11746 18942 0
19182 -21732 0
-16220 11454 0
-13667 -1691 0
-16991 -14736 0
-2716 -5330 0
-1685 21274 0
-2294 4270 0
9221 19980 0
2578 -11561 0
16122 1238 0
9595 -15962 0
-14278 9414 0
20747 -19045 0
12838 10892 0
-19072 9436 0
-18726 22077 0
11739 12267 0
-18273 12517 0
8338 -18021 0
-8616 -607 0
-22072 2994 0
7256 -19562 0
18248 -10428 0
-14680 7797 0
10656 14107 0
6287 -14272 0
957 5217 0
-3636 13488 0
17182 8743 0
13264 21775 0
-726 -7577 0
2456 -4315 0
7010 10076 0
-12192 -4408 0
-22399 -14278 0
9965 -5824 0
13540 -17874 0
19869 11710 0
-14605 11226 0
-9569 2345 0
-6683 19235 0
-16329 10957 0
-16011 -1332 0
2502 17158 0
-8712 -5564 0
-18099 21513 0
-10985 -7216 0
-17186 10821 0
-6376 -2148 0
-5796 6392 0
10656 285 0
-8069 1996 0
-16164 -14707 0
9003 2678 0
7183 4402 0
-12149 9210 0
-18264 -1732 0
16672 16338 0
-3889 -21039 0
656 5480 0
-8797 -17125 0
13035 14836 0
-13468 -18327 0
4248 -16824 0
10847 16385 0
-9488 2298 0
-8431 -12767 0
-2178 3934 0
-4663 11486 0
5544 16873 0
-13983 5808 0
21415 -22649 0
-15474 7610 0
-12995 -4108 0
2354 -13166 0
-13651 -5514 0
17411 -2783 0
-22567 -19530 0
10517 10189 0
-4185 -10884 0
14686 23014 0
9517 9983 0
-11262 -13530 0
6445 -17998 0
-17928 13791 0
-21919 7513 0
-20200 20617 0
4082 -3815 0
-888 16835 0
20199 -11378 0
11953 7562 0
-12206 -22211 0
-12190 11910 0
-14273 22574 0
6369 -10108 0
15624 20534 0
-16265 -17775 0
6729 -18668 0
-6934 -3855 0
16719 22908 0
-1240 -17291 0
-5703 22546 0
-4291 20904 0
-4648 18163 0
15491 -19136 0
16352 1203 0
-10764 21258 0
-2788 3041 0
-21838 -12294 0
-23268 11038 0
17782 -12680 0
-12117 -21107 0
23115 -3780 0
-671 -366 0
-3010 3741 0
-2164 -14162 0
21461 18178 0
-15046 -14818 0
14889 16383 0
-19300 -4640 0
11992 20075 0
-14890 3396 0
-7601 -22400 0
-3126 4030 0
-5256 7124 0
-211 -22069 0
-7937 -23199 0
-626 14116 0
-12502 -23360 0
-8488 7239 0
-7253 -18746 0
-5333 805 0
-10408 -13601 0
-17598 -2372 0
15289 14684 0
-9677 -16889 0
15709 -21105 0
20793 19935 0
12704 12224 0
-19232 -8504 0
-18729 -1692 0
-23487 14393 0
1551 -6601 0
-22082 1589 0
433 -19380 0
-20341 -14525 0
-13848 -4468 0
4144 -11480 0
10397 9610 0
4600 -9176 0
16572 -19732 0
21705 18245 0
-9372 -15260 0
21706 -18540 0
-21732 18934 0
-15387 -2029 0
4492 -19530 0
17613 -8229 0
-19932 18167 0
-1810 -3851 0
19049 13269 0
-699 -20720 0
7307 15012 0
19626 -5954 0
9034 18745 0
354 -10446 0
14095 -7697 0
-13299 -452 0
15252 -1363 0
-7958 -14030 0
19069 -13817 0
-11672 -15701 0
-15273 -13807 0
-2677 -18831 0
-15140 -9615 0
-6932 6433 0
-22316 -5914 0
72 -23529 0
-19878 -3439 0
-13082 8553 0
-15146 -22530 0
14182 1293 0
8789 -21500 0
-23383 11453 0
14239 -9915 0
6690 -19325 0
9958 -9336 0
9710 -5792 0
19062 6045 0
10902 -4083 0
4538 -14449 0
-5903 15510 0
5896 3240 0
19525 14480 0
-10934 -22207 0
21542 19771 0
20838 6789 0
-12387 -15110 0
-13036 15152 0
23661 403 0
2823 1836 0
691 20806 0
12770 -15041 0
-22672 -17167 0
-12069 -21764 0
4328 22631 0
-3219 -10864 0
11371 -8 0
3975 -16866 0
19410 17785 0
-22093 -16301 0
7886 -17154 0
-20409 -11370 0
-1827 -15775 0
12776 -14741 0
-4718 -4005 0
-18229 -6390 0
-9561 -2961 0
21812 -23054 0
-16235 5454 0
-20865 -19979 0
14439 -3919 0
19818 -22614 0
20728 10169 0
-22806 -9407 0
19692 -15475 0
642 -5699 0
5585 9238 0
5057 5281 0
-6474 -16901 0
22670 -22773 0
16442 -17598 0
15714 4688 0
22368 1013 0
10585 -17637 0
-9152 -12960 0
17331 20048 0
3668 -12 0
2235 -7098 0
8147 14153 0
1583 6469 0
20904 -14896 0
1508 22361 0
1443 -23718 0
-8454 -20282 0
-9275 23065 0
-12142 1842 0
19543 14755 0
-18929 3481 0
-15864 -20090 0
-7698 1400 0
-20417 -20137 0
91 8116 0
-15889 10168 0
-6847 7426 0
23464 -16081 0
-20339 -3362 0
19096 17237 0
5516 -7118 0
-8656 13072 0
8951 -19664 0
18995 -11299 0
-5539 5435 0
21304 19069 0
14786 12056 0
-23250 -3377 0
3470 16567 0
-20546 18695 0
-19491 -8320 0
5544 14909 0
-6983 10904 0
-9334 -11938 0
8205 23121 0
4418 808 0
7687 -1267 0
-23626 -19780 0
5354 -11721 0
-22177 12864 0
-19427 21807 0
11310 11020 0
20785 -6596 0
10184 11901 0
6038 -3065 0
-1766 -21129 0
-7321 -16425 0
-2067 -22164 0
-21422 -1782 0
-15158 -3211 0
-8594 -12108 0
-16395 22758 0
22798 -19498 0
-6829 -15172 0
9573 -11441 0
-3808 -4380 0
6736 -13652 0
11150 -10183 0
-14187 -11414 0
13173 17642 0
-809 -18540 0
12319 4791 0
9642 1115 0
-19868 -22378 0
12272 19406 0
-7586 -13098 0
-2716 9071 0
-618 11443 0
-9468 7510 0
-1515 6687 0
-9930 8047 0
-22541 -5488 0
-455 21950 0
-12353 -13939 0
11667 18262 0
346 -17017 0
1736 -5962 0
15303 11619 0
-21268 5563 0
-22525 12022 0
-11526 -22696 0
-16620 10322 0
-7216 -9624 0
-5402 3430 0
22432 20790 0
3866 -12545 0
9695 19726 0
4852 -16573 0
-7888 -20486 0
1485 -8161 0
7926 10174 0
-18965 5990 0
-9000 1762 0
-10477 -7059 0
11658 -1977 0
12431 -7657 0
-12465 -5253 0
-2721 7049 0
15437 -7796 0
4648 3083 0
-11519 -19245 0
9202 16236 0
-13318 -17580 0
-8703 16666 0
1087 -6792 0
-19909 -21646 0
-21365 -23467 0
23296 22631 0
-20290 -22720 0
9105 -5431 0
-14769 -20196 0
-16433 -13642 0
22497 -14056 0
-19669 -23233 0
16149 8880 0
-3370 12887 0
-19562 14783 0
5105 291 0
-4317 -2226 0
1436 -14213 0
-5430 -1163 0
7587 -13074 0
-7808 -10313 0
-15583 19801 0
-10745 -7119 0
22345 -22630 0
-6051 -6395 0
-14560 19731 0
-4618 -5580 0
-5927 -20211 0
-4745 10083 0
-769 17191 0
-15624 -2983 0
20453 298 0
-16489 20573 0
-8785 13444 0
-21763 16407 0
-8739 -2546 0
-4296 -10978 0
-9206 12368 0
-22612 -23793 0
-12464 17547 0
-13577 5770 0
-2013 -8873 0
21957 18414 0
-4267 2630 0
-2651 -23497 0
-1946 7151 0
9244 19964 0
-3106 23400 0
19518 -2643 0
-17742 19360 0
-22446 17735 0
-821 -20294 0
-9840 -13807 0
18177 5838 0
-22119 -21664 0
-19235 21263 0
23358 -6747 0
1663 15814 0
12433 2350 0
9866 15730 0
13533 18811 0
-10755 5685 0
19504 -7496 0
395 -2375 0
2556 -13633 0
14925 15858 0
19429 20501 0
-17572 17290 0
-21617 -925 0
18281 -882 0
4214 -13465 0
-15142 -18697 0
-11360 21180 0
484 -13944 0
3947 -570 0
-3997 -17518 0
-14045 -6512 0
-15591 -20599 0
1743 -18715 0
19009 17936 0
13540 -13212 0
22795 9762 0
-8159 -14015 0
-9191 4515 0
-12789 -23665 0
14336 -22706 0
9640 19475 0
5327 15802 0
-16589 -20015 0
-7410 -1588 0
-4302 20639 0
10151 13772 0
-3710 -21405 0
14271 8548 0
-13098 -3866 0
-17767 14875 0
6463 12426 0
-568 13878 0
13880 -12015 0
7237 1533 0
-13008 -13905 0
-23037 -2547 0
18049 -21273 0
4078 23502 0
-19206 22391 0
-17425 7828 0
18994 2430 0
6338 -21527 0
8716 18815 0
-12538 -16760 0
-22093 3992 0
-10872 -5871 0
-5340 -18158 0
-18337 -20521 0
904 16080 0
5130 17632 0
12893 -15217 0
13980 15732 0
-7825 5581 0
-19385 10508 0
14433 -15123 0
19126 -8107 0
-10611 -19125 0
8172 -13046 0
16608 -9104 0
-15061 22576 0
-12631 -19031 0
-17480 22446 0
-12750 1194 0
-16817 -6622 0
4726 -10514 0
-11431 2069 0
2637 8129 0
-2690 -10202 0
16503 -16176 0
-1487 22108 0
19004 -6327 0
9027 20766 0
15078 20228 0
19033 7172 0
-14327 22842 0
-11868 -8387 0
-23658 11150 0
7013 -17535 0
-40 23248 0
23059 -13822 0
20705 22150 0
-13670 16907 0
-7554 -11996 0
-3745 8256 0
19360 -10192 0
14134 -12302 0
-19474 -6339 0
12116 7591 0
-5969 12914 0
23648 17479 0
9853 6835 0
-8873 -12585 0
-21479 12985 0
7393 11731 0
-18654 -19873 0
17114 15160 0
-13382 13420 0
4577 16219 0
13570 -20341 0
23259 -21342 0
10593 22465 0
-17752 -5436 0
-9510 7244 0
12627 4942 0
-5749 -6231 0
-14892 18608 0
14661 -10201 0
11238 1404 0
-3499 13920 0
-8780 -5699 0
3440 -16719 0
12786 13077 0
2918 21674 0
-6778 13178 0
4278 -9341 0
20551 -12927 0
-3431 -15439 0
-381 -9160 0
-6318 -2166 0
-19651 17814 0
-7173 7660 0
17775 8830 0
23284 13670 0
18370 18983 0
22471 -5639 0
9339 6569 0
4260 16370 0
22850 17014 0
-11303 20440 0
-4272 -5756 0
1588 -2694 0
10389 -3900 0
9465 -14050 0
-21644 -15431 0
-7194 -16081 0
-15988 -11531 0
-21692 2310 0
3280 1083 0
-8801 -12197 0
1620 834 0
473 11510 0
9963 13124 0
18613 -18961 0
-17061 17119 0
-1183 -4299 0
17729 4137 0
-5041 5571 0
-11968 5578 0
-21678 6420 0
-1259 20575 0
18808 22883 0
-14997 -13292 0
3066 395 0
17991 20835 0
19033 -2996 0
10680 -16342 0
-20460 -18391 0
7546 -10819 0
7962 18303 0
22529 8588 0
-606 20927 0
10858 -6759 0
10534 -8988 0
-6846 -14477 0
-9492 -15097 0
5444 21100 0
5797 7995 0
-18143 -2253 0
3209 -2712 0
-1744 18773 0
8612 -12631 0
-6839 6122 0
-1411 -4515 0
9095 -2596 0
-20985 18408 0
3625 7075 0
-14339 -18284 0
10180 9958 0
23724 -87 0
-5871 -14792 0
-18100 17569 0
4609 -23557 0
-16140 -11018 0
-719 15216 0
23444 -20703 0
7989 655 0
20189 4955 0
-900 -14417 0
-20927 -15119 0
4506 10967 0
-15546 -19985 0
-6353 -8644 0
-18098 15036 0
-22491 -10666 0
-19643 23321 0
-14205 -11978 0
3202 10891 0
-5715 7011 0
-11568 -17756 0
10861 -21637 0
-13565 -18605 0
16990 5646 0
-6581 9369 0
-15532 7423 0
-1915 -11372 0
-1824 -4697 0
3286 -5995 0
-13000 -5811 0
10890 515 0
-15710 -10263 0
11304 -15396 0
-6777 -8115 0
12391 -16413 0
18317 18743 0
12583 10111 0
-23192 -20215 0
12049 -15915 0
12264 -532 0
-1129 15392 0
-22395 20904 0
11832 -9255 0
-15525 -5636 0
-16269 -8526 0
8915 -16550 0
-10780 19812 0
-11786 -14305 0
-14269 219 0
-7650 -20929 0
21205 17424 0
17151 -21424 0
-17316 17083 0
-19893 4511 0
-23351 3910 0
5509 4203 0
21974 -3888 0
-9483 23044 0
-23151 -441 0
-5859 1096 0
2005 -3825 0
-21052 17239 0
1299 -21831 0
1132 -2681 0
-7468 -23748 0
-14241 2962 0
-5130 -2669 0
13954 8521 0
9165 -12215 0
618 -17495 0
-10359 -14571 0
-2539 4148 0
-5433 1785 0
-10560 -22491 0
-14913 17986 0
17238 11347 0
5561 14393 0
5017 -21084 0
-19973 7390 0
21801 17183 0
-17385 -11619 0
5809 -10321 0
18857 -9830 0
19684 -8232 0
-12981 -3369 0
14466 -5117 0
7268 446 0
17861 2567 0
18012 -11129 0
9192 -11999 0
-3930 -20614 0
19896 -7337 0
1663 21203 0
20121 5399 0
15785 -4636 0
22613 12200 0
10094 15915 0
1348 -2570 0
-17344 7523 0
-5143 -16538 0
14876 -16606 0
-8454 -6838 0
-6194 -21143 0
-5914 -19309 0
1826 -22049 0
-21951 -20665 0
6044 2590 0
21927 -1259 0
-10425 22078 0
5824 -17413 0
8342 -21399 0
-7781 13282 0
8498 -18042 0
3572 -13238 0
-13630 8041 0
-3634 -20761 0
12613 -18465 0
1965 -10540 0
14988 -13274 0
22547 10785 0
6045 -10698 0
-8614 16993 0
7237 13279 0
-2286 205 0
2445 -17196 0
5936 -460 0
8017 811 0
-18660 -7844 0
-6940 -8275 0
15070 3790 0
-15455 -13275 0
-178 -2651 0
-7873 -3019 0
18004 21542 0
-14108 97 0
18916 12098 0
-20455 833 0
-2187 2445 0
-8830 -21572 0
14495 -5148 0
19145 -16819 0
-2873 -2825 0
-21575 12966 0
-1935 12645 0
-21149 14127 0
-7796 -14405 0
-15895 -8237 0
-8937 -23731 0
3821 14428 0
-16142 -2871 0
9913 -21987 0
-6850 -996 0
-15482 15216 0
-14449 -1459 0
10863 -16928 0
-17234 4955 0
22918 4001 0
5114 6540 0
-11788 10154 0
-340 -11635 0
-16460 -8924 0
16896 -11654 0
16693 -13676 0
6786 -12480 0
1904 -10890 0
14910 -9543 0
19563 3231 0
-2464 15497 0
-18391 9321 0
9960 23321 0
-8969 2517 0
23172 -7194 0
-6196 -1808 0
21274 -19452 0
-11747 12437 0
-4823 -13926 0
1431 -5740 0
836 7226 0
-12993 19947 0
12927 -19286 0
115 -17237 0
17608 17552 0
-8826 -12903 0
-21233 18724 0
5673 -20140 0
-6728 20889 0
2809 -7098 0
-9656 -14833 0
18382 13490 0
-1192 -4608 0
-16709 -10951 0
-11566 -13302 0
-1283 -22049 0
-11515 -23650 0
5527 16249 0
11178 11974 0
-10577 10439 0
-9343 -20550 0
21389 3547 0
-6905 -21715 0
-9778 -10998 0
11870 -21179 0
10160 -21648 0
9451 21184 0
-8899 -21875 0
-2145 -8344 0
9990 18701 0
1667 1149 0
15093 17969 0
-3335 -7214 0
-6812 -8326 0
12325 15336 0
-3315 17475 0
15747 -9282 0
-17224 -13805 0
1947 -12822 0
2246 -19973 0
19061 -19681 0
-4636 -5596 0
-9829 13175 0
-12937 -21495 0
-15781 -22663 0
18096 22983 0
3350 6655 0
-3831 13297 0
-21032 -23213 0
273 -20223 0
11224 -20910 0
17909 -19647 0
-20098 7936 0
-21731 7459 0
23208 8480 0
-22285 -14644 0
-14983 -23043 0
-11214 10087 0
47 -13353 0
5972 -23068 0
-9830 18537 0
-6815 14772 0
-7291 22923 0
-19888 16619 0
10284 235 0
-16541 -2433 0
-16671 21784 0
6790 6297 0
6583 -16011 0
-5794 -11587 0
-22799 5177 0
-12901 22182 0
3473 -1411 0
-20794 -10898 0
10035 -12965 0
7391 -9907 0
2618 -6984 0
21477 615 0
11944 -11070 0
-19070 -7165 0
-16166 -16169 0
7608 -3621 0
-19884 -2281 0
21413 -8429 0
23150 9151 0
10433 -4716 0
-409 -10435 0
5976 10143 0
-790 16224 0
-20467 18491 0
185 -15069 0
-2219 9109 0
5860 -10511 0
-18133 6273 0
5517 -6571 0
-1484 23065 0
-17016 -15178 0
-6325 -5165 0
-7022 14798 0
5998 8353 0
-14404 -20973 0
-3255 14447 0
15743 -22546 0
1039 -10526 0
11635 1380 0
-8049 -7335 0
-16189 17096 0
23683 17475 0
548 -6715 0
-16639 -18799 0
1014 -10672 0
-1691 22611 0
-10735 -17813 0
6611 15600 0
1420 11110 0
13831 -13350 0
-16812 23610 0
19386 -11293 0
3863 -10232 0
19392 8128 0
-10905 20512 0
-37 17588 0
-7260 -22106 0
-22175 -8140 0
-4225 21292 0
23222 340 0
-17002 -12722 0
7831 -6810 0
13362 3711 0
3523 18639 0
-1652 19930 0
10105 -11123 0
8118 -9998 0
16629 -5539 0
-17281 -11886 0
-19664 -12260 0
-14396 11436 0
4155 -16317 0
6134 1669 0
-17337 -15859 0
-11220 -17668 0
13992 -16457 0
19026 2473 0
18282 -5861 0
-15379 -13727 0
-22660 -17611 0
8613 3071 0
-4095 9267 0
22123 6361 0
-21410 -9152 0
-21278 -8322 0
-5688 -9357 0
6129 6309 0
-16549 -1558 0
21992 935 0
5635 -6744 0
-18889 13439 0
-10266 -19638 0
20223 10439 0
11928 -15657 0
-9291 22804 0
20404 -10470 0
-5403 12976 0
17263 -14355 0
2777 -3602 0
-6756 21054 0
14090 7775 0
-588 -607 0
19554 -19737 0
4142 -5783 0
21886 -13314 0
5774 -9384 0
-19556 -16601 0
17719 5485 0
17068 2419 0
-14763 2735 0
-21692 -7332 0
12583 -16779 0
11720 4496 0
-21530 -22004 0
-5856 -14150 0
1210 2490 0
4213 -5810 0
16849 -10090 0
23470 17251 0
-9191 8929 0
-6345 9910 0
23221 -17416 0
22468 36 0
5117 -12221 0
-17163 23513 0
-3375 20385 0
-4934 -9159 0
-8562 -13552 0
9015 -18225 0
-10612 -20253 0
-13254 -7068 0
6257 999 0
7781 12307 0
-7470 -4896 0
-22223 17015 0
22892 -6671 0
-5535 22802 0
4208 17643 0
-4014 19605 0
-21761 -19125 0
-1183 -8284 0
2360 5746 0
12981 7971 0
-11828 -873 0
8833 10012 0
2436 -5187 0
10138 -14799 0
2735 -7965 0
2029 -22970 0
8909 22150 0
1371 2380 0
-18469 -99 0
-7359 -13340 0
4019 -220 0
-10585 -20690 0
-19916 -23547 0
-19441 21474 0
21627 348 0
-17669 3665 0
-5656 7229 0
17428 13366 0
-7598 -17012 0
13186 -23257 0
-11132 12448 0
1638 10535 0
-22797 5977 0
2572 3 0
-3296 -7361 0
-7404 14698 0
22641 -6103 0
-3558 -16752 0
-8938 1967 0
-8075 -5725 0
-21786 -19873 0
652 3266 0
-14559 17039 0
1860 -3592 0
4265 612 0
-13232 -14018 0
6137 -7225 0
15205 5933 0
-17608 -3437 0
21533 12777 0
-13241 16313 0
12981 -12955 0
-8489 4197 0
1245 -8520 0
-10772 -626 0
16394 -19603 0
5858 22198 0
-1499 14472 0
-12849 3315 0
4306 7982 0
-23420 12063 0
-17236 10752 0
19727 17448 0
17438 -5149 0
-17026 9457 0
-5206 -16164 0
16595 13049 0
-17043 -9574 0
-463 19209 0
3627 8700 0
-142 -3561 0
-4775 21695 0
-6495 -6773 0
12828 -980 0
-12039 -20101 0
8994 23 0
19959 -16964 0
-22433 -6470 0
4121 -19434 0
4156 10434 0
-13990 20456 0
-20930 23558 0
-9520 16075 0
-20377 -10261 0
20716 4791 0
13554 -17262 0
-11864 18539 0
-15509 -1108 0
73 17873 0
-8418 7503 0
-8237 -23671 0
22127 -5487 0
-14012 -16621 0
19124 3145 0
2701 -2336 0
-11222 -1319 0
9264 -15933 0
5381 -4198 0
-12020 -3665 0
-22970 -3227 0
281 6088 0
16658 -1075 0
-11883 8284 0
-22255 -1935 0
6753 -16832 0
23632 -1567 0
-10125 -21397 0
15727 8752 0
-20401 -11348 0
-7820 1017 0
3118 -15333 0
-284 -17720 0
-2694 5684 0
-14094 -20285 0
21628 -1925 0
10252 -4440 0
-20838 -5302 0
5354 1663 0
-7100 8962 0
-10911 -7295 0
-7623 -21818 0
15207 -22600 0
4954 14340 0
-16860 -7452 0
-16071 -3769 0
13100 -8914 0
11601 10086 0
-18982 -5399 0
-5297 -15631 0
168 -17647 0
266 7908 0
21260 558 0
-4451 -10962 0
8794 7571 0
-20329 -4011 0
-20905 3638 0
-21475 10509 0
-20197 19014 0
12724 16038 0
-6410 16850 0
20485 -9681 0
18583 20156 0
21659 10221 0
20728 -23430 0
-19359 -7704 0
-6504 14012 0
6633 -9500 0
23578 9957 0
16520 12861 0
-3527 3709 0
-15137 17376 0
-10529 -10441 0
7062 -17615 0
23573 16732 0
-4660 -7497 0
16773 20666 0
9483 11202 0
1028 -10195 0
9344 -8673 0
-5173 18255 0
-11840 18505 0
7799 -2246 0
1356 5346 0
19021 -6455 0
-21141 -3062 0
-6216 16813 0
-2550 -7813 0
11720 2481 0
9326 19646 0
11292 -20757 0
17845 7923 0
17954 -6307 0
-19736 14096 0
10780 16522 0
19494 14366 0
15166 5821 0
11394 10151 0
-5098 -5540 0
-2305 17846 0
11204 -11166 0
-1547 -21299 0
-11659 5989 0
5241 8056 0
3103 -5445 0
11859 16477 0
12044 -654 0
-7748 11842 0
-17012 12884 0
17248 -11077 0
11879 -17258 0
22458 -12300 0
-150 -12835 0
2280 -19640 0
12820 15926 0
-18687 -9609 0
14160 -22728 0
10874 9362 0
9180 20713 0
12549 15726 0
7946 -753 0
1225 10728 0
23685 5045 0
-17391 6882 0
4899 -20895 0
-12233 -21508 0
-10360 14325 0
10763 -10375 0
-1435 -6984 0
-5513 -13840 0
1747 -21363 0
-11289 20963 0
-11361 9105 0
11639 -2050 0
-16643 4018 0
-2282 5913 0
-11665 4260 0
12338 4351 0
22341 -20291 0
-23663 -20135 0
11798 -3280 0
3496 -487 0
-3838 -7300 0
-18141 -4756 0
-8633 -11794 0
-6512 19151 0
11867 77 0
6844 20653 0
10117 9432 0
-1503 -1280 0
23292 -3292 0
10974 12871 0
1825 23517 0
-20301 8307 0
14946 -23424 0
15690 -497 0
-18634 9670 0
-22093 11470 0
-18556 -9558 0
-18177 -5406 0
15438 -9284 0
15118 -13802 0
11301 -16203 0
15174 5606 0
-22577 -12257 0
7487 -6786 0
-8518 -441 0
13702 16269 0
-15723 -21445 0
3612 -5909 0
-3573 -19165 0
18384 5 0
18389 9894 0
4931 7202 0
-7884 21134 0
19330 10548 0
4397 -20388 0
7278 -16869 0
-17929 12610 0
-20605 -21250 0
-4315 1575 0
-20184 -14530 0
-11699 6994 0
4577 -10127 0
-1051 -20239 0
18707 -19533 0
21843 7532 0
-19385 -706 0
-1466 -2709 0
-12925 -22013 0
2561 3975 0
7553 17223 0
7424 16205 0
-16742 8315 0
-3988 -15864 0
12176 -11199 0
10186 -17449 0
-10006 18109 0
-17899 -23478 0
-10478 -9140 0
-18781 -20563 0
-22660 -13729 0
-21654 -23786 0
15936 -7185 0
5500 -1579 0
-14899 -1811 0
-19736 -7556 0
22624 23384 0
14829 13921 0
-22307 -15028 0
-9110 508 0
18913 -1122 0
-9224 -1891 0
18650 -18478 0
-19257 2455 0
-17284 11621 0
20042 6340 0
-10137 -12764 0
14849 22176 0
22397 7350 0
-2169 -19886 0
18748 16616 0
18286 -11126 0
-14360 16300 0
9434 21085 0
12218 -6853 0
-17049 4657 0
17208 14324 0
-6830 13890 0
14097 -22540 0
-981 19108 0
-10663 -4936 0
11342 -17062 0
-8362 28 0
-10676 -16831 0
-7551 1366 0
297 -17722 0
-22069 610 0
-13717 -19121 0
-5212 7441 0
20999 -17841 0
13025 -348 0
-3489 23444 0
-7262 -1748 0
-6368 -4624 0
17649 -1975 0
-19217 -10723 0
-9674 -14483 0
22654 18583 0
-5495 -144 0
6705 11284 0
-5687 10576 0
-23422 4071 0
-10141 -23306 0
5674 21547 0
-5904 15938 0
10026 13392 0
-15255 12362 0
22387 3147 0
-9456 -16425 0
5789 -21679 0
7424 -3291 0
22220 -10906 0
-13440 12463 0
-14135 -20220 0
20966 17561 0
16529 -9842 0
4693 -21411 0
8540 -313 0
-19741 5050 0
17473 3043 0
7800 -18634 0
-16375 15935 0
-4548 -12000 0
13281 -22076 0
4089 5305 0
4755 -4354 0
21151 -12775 0
2244 22690 0
21439 1608 0
12558 8759 0
14448 18953 0
5931 22934 0
1508 -21793 0
-15921 8242 0
18442 16134 0
22414 13456 0
19069 -2436 0
-5431 6271 0
19584 -3146 0
-22779 -18239 0
-23441 -18700 0
-7509 6844 0
-1344 17005 0
21531 -8608 0
-15893 13372 0
9690 -1905 0
15447 54 0
-2662 15838 0
-19966 10052 0
-6695 4852 0
1130 20813 0
-12165 -9247 0
20604 -4010 0
-21851 -10450 0
17292 -1930 0
18954 -14672 0
23566 895 0
6725 21011 0
12935 16266 0
-8219 21080 0
19643 17666 0
-9092 -11977 0
7274 -1156 0
4294 3336 0
-2214 -97 0
6935 22478 0
-18670 1544 0
-19784 16535 0
-22488 4286 0
19577 -7675 0
-19057 -19973 0
15957 15977 0
-9107 -20144 0
3576 -19476 0
23551 16502 0
-6741 -20849 0
10905 -9326 0
-14630 -19255 0
-13807 -22440 0
-4206 -23505 0
1678 20863 0
14021 10626 0
-17432 -19099 0
-7534 -2254 0
-14581 15229 0
9219 23072 0
-1224 1309 0
674 -20878 0
19553 14858 0
20888 -4039 0
-10594 -16320 0
-15642 23078 0
7620 -16882 0
12270 11179 0
-4873 -19235 0
12693 -15176 0
-20467 -10472 0
7454 -6987 0
22009 438 0
13392 7880 0
5094 23603 0
-11888 -20760 0
5039 17358 0
83 -1282 0
14680 8091 0
-22303 -5087 0
-12700 -8026 0
-5972 19528 0
-1228 20358 0
17605 18301 0
4683 -12046 0
-12484 -2673 0
8947 -10934 0
-4632 6040 0
5929 -4832 0
-6087 8416 0
-19023 -6919 0
1787 -9811 0
-21872 -1635 0
-6528 20332 0
-5365 8745 0
7805 -4627 0
6733 21605 0
-13227 -12308 0
-3446 678 0
7185 -10666 0
7864 15478 0
-4843 -8508 0
-15899 -17600 0
-17829 -14898 0
17392 23111 0
-11786 20146 0
14230 -8940 0
-4312 -3971 0
10280 6676 0
1168 19042 0
-7119 -21095 0
-17151 20930 0
6221 -2524 0
-3555 -6234 0
-12620 1019 0
15729 15876 0
10619 -11361 0
2142 19268 0
-791 -10551 0
13010 6788 0
-9192 9016 0
1205 -19473 0
-20986 -11419 0
-13727 23576 0
-19926 7372 0
12088 8717 0
16916 -23147 0
19063 13368 0
20000 -1275 0
20238 -4139 0
3257 -16995 0
-13485 2604 0
2819 12638 0
6580 12923 0
13032 11853 0
-6830 7806 0
-14981 9584 0
-15993 -21729 0
23007 13860 0
6375 -7028 0
14688 10653 0
10925 5728 0
1192 23101 0
-3385 7513 0
-13389 -932 0
19238 23363 0
21607 -18368 0
10363 15460 0
-14108 -22884 0
21519 12606 0
-21565 -19497 0
16893 18274 0
18202 -8531 0
-18977 5785 0
-9671 23500 0
-16064 -1480 0
-7589 5716 0
-5942 13108 0
14077 9897 0
-19395 18695 0
21769 7832 0
-18692 17634 0
10747 -1148 0
-977 18708 0
-22586 -3984 0
-15884 22206 0
-20225 -5431 0
-16063 -21809 0
17358 2536 0
19413 -19517 0
-8202 -15810 0
15188 -13401 0
-17064 -3112 0
-2914 -12216 0
21678 1055 0
23208 -4089 0
7178 -22761 0
-22305 -21018 0
3028 9465 0
-966 -14527 0
-19524 -9296 0
2901 5931 0
-4464 13403 0
-22137 18964 0
23286 -19965 0
-9874 -10637 0
11339 22162 0
1756 -15305 0
4757 20126 0
7476 -5114 0
-522 -15440 0
-2510 16298 0
8435 21360 0
-23251 13324 0
20630 12823 0
4642 22347 0
13389 -16737 0
-6577 -11019 0
2337 3388 0
-7358 -6932 0
-7648 14309 0
-1600 6672 0
5291 3258 0
-2179 1999 0
-23750 18335 0
17690 11803 0
12548 21341 0
3787 -2281 0
-5984 -15995 0
-1280 9336 0
10044 -23537 0
6551 608 0
-12460 -19490 0
-9555 12420 0
-14244 14283 0
-8203 14602 0
-16679 -22771 0
333 17224 0
16828 -16813 0
-16808 7203 0
20405 8842 0
12800 21909 0
9054 -1873 0
-14321 -17842 0
15729 4899 0
21503 13713 0
-727 17164 0
8260 -16509 0
22113 9984 0
8307 -8488 0
-18576 12713 0
7288 -751 0
9919 -8427 0
-22045 -2383 0
-23068 6084 0
-21386 -4320 0
-22095 -13132 0
-1328 -586 0
-19889 2346 0
18077 -23353 0
12918 16176 0
-14404 -1184 0
22459 -8781 0
-11182 -3874 0
-4715 -19149 0
17689 3144 0
-6092 8844 0
21554 -1792 0
-15348 1261 0
4920 18649 0
5292 17981 0
-21535 17190 0
-16202 -15667 0
-8318 23429 0
4784 14686 0
-21196 -16058 0
-11824 17373 0
-9653 -12029 0
-13335 -15145 0
13236 15659 0
23290 -13505 0
16844 20989 0
12111 7010 0
19028 7191 0
18743 8996 0
-7131 -5536 0
5762 -19531 0
-11281 -21890 0
-21413 -1453 0
11999 -16856 0
-385 -6530 0
-7463 -10678 0
-11397 -8191 0
-7091 -1728 0
15441 -147 0
5800 -1298 0
-6121 4745 0
-17362 13255 0
13402 16711 0
-12711 -3640 0
-5840 -16433 0
-7797 -22998 0
5095 11569 0
14455 -21881 0
-1928 -1539 0
2966 -18332 0
-9818 -17584 0
6733 -2546 0
11991 -17365 0
-15752 -2609 0
4294 -6512 0
-23710 17530 0
1508 -22891 0
-20396 1326 0
9228 -15779 0
19835 19362 0
9842 7643 0
-3642 -5266 0
4950 -7883 0
-21489 -7869 0
-12312 -6442 0
-1924 119 0
-21099 14589 0
-14213 -17725 0
5745 7171 0
-8832 10350 0
2589 22203 0
2327 17157 0
-11311 -16670 0
21183 -2845 0
-15591 -17453 0
13429 -231 0
-23739 -5086 0
22765 13700 0
3810 16656 0
2196 -1881 0
12777 19352 0
-21291 21202 0
21029 7120 0
141 -14578 0
-21514 19560 0
19643 -7689 0
10917 23303 0
-22614 -20414 0
21805 -7862 0
-10109 -16044 0
-2609 13795 0
9508 7946 0
-22757 3222 0
-12261 4123 0
6343 -7638 0
4179 4603 0
-4976 13554 0
-154 3343 0
-5567 -8199 0
-15433 11436 0
-14761 19914 0
16740 -20331 0
13512 1583 0
-8524 7556 0
-16962 7665 0
4773 12246 0
8181 -10065 0
11885 17882 0
-4475 18996 0
-8366 -5357 0
4036 2067 0
-19925 -11234 0
392 -4357 0
13829 -11887 0
8871 -21469 0
-16592 14722 0
14672 -8307 0
-16696 -17181 0
14658 11399 0
15828 16571 0
18474 -16758 0
1864 -11336 0
-1133 -2039 0
17882 7565 0
-14468 -19703 0
-7092 7424 0
8213 11282 0
-17290 1517 0
-16055 14206 0
-5509 -2223 0
-10748 22921 0
-12411 -19439 0
8257 11849 0
9686 -7313 0
23226 -11325 0
21188 2143 0
-19478 -16442 0
15347 -12536 0
13707 6736 0
21205 -735 0
12046 -1827 0
-17388 11914 0
-18995 21142 0
-14213 -2931 0
9320 -15636 0
-3860 8792 0
-9319 -8043 0
-5901 16627 0
17985 16886 0
22470 2324 0
-4099 -2232 0
-8150 23298 0
16964 -5129 0
14312 -11453 0
-19884 -15082 0
-20854 -22189 0
-11805 20068 0
-11274 15228 0
-20788 9219 0
-2908 -12950 0
12577 -12047 0
-18724 21327 0
-981 18586 0
10513 -10313 0
1958 -21970 0
-7732 -2647 0
15322 19575 0
-10351 -34 0
-9978 8963 0
-23709 18146 0
6312 21328 0
6729 19209 0
5906 11162 0
-20279 5358 0
11405 -196 0
12773 22189 0
96 -9817 0
-14320 17381 0
2943 1815 0
5095 17184 0
16718 157 0
-3265 1646 0
1586 -810 0
-6847 -21319 0
19847 -128 0
-6505 3304 0
-15928 -13607 0
17663 22312 0
-20744 22275 0
-9062 -17852 0
23081 -21100 0
-456 -13679 0
7676 -7144 0
-11426 20054 0
-22454 -12350 0
-15572 -3383 0
14094 17853 0
5919 7308 0
12197 -22 0
6677 -7515 0
22123 20961 0
5956 -4521 0
7955 6634 0
-13581 15915 0
11510 -13656 0
-14726 13280 0
3026 -17436 0
22094 16448 0
7986 3980 0
6915 -14602 0
959 12134 0
-10333 10443 0
-22264 17363 0
-7141 -13598 0
-17220 11842 0
12188 15812 0
15977 2003 0
22927 -17484 0
-3346 -7117 0
-8241 -1630 0
-17750 11074 0
13343 14429 0
-17893 -14002 0
-12141 20233 0
13327 1118 0
11752 7027 0
819 -19391 0
6788 8779 0
20868 21326 0
-19878 14686 0
-12602 19535 0
-7173 3046 0
19760 -7902 0
-14251 -8758 0
-11888 2756 0
19945 3394 0
-16545 -6372 0
-16169 20309 0
-17855 -879 0
-17758 9209 0
23477 3221 0
9030 -18082 0
-20003 16967 0
-18141 -23498 0
-7804 4831 0
-11592 7856 0
-17413 -22002 0
-17148 4184 0
-14577 -19211 0
-18273 14223 0
-2220 -12642 0
-8599 13100 0
-654 2586 0
-11476 10182 0
13529 -6822 0
22868 19271 0
-4734 16453 0
19534 -357 0
-23780 -1156 0
-7601 -8882 0
22313 21000 0
8036 21611 0
9705 14198 0
19386 -11644 0
-162 -8796 0
-20932 2309 0
-12403 18241 0
11456 12778 0
-16699 15088 0
-9620 -7030 0
-11592 -21145 0
6893 13691 0
-1028 -21288 0
23259 -16965 0
-6073 -7801 0
-22783 -10130 0
12199 4528 0
-11832 11295 0
20469 -13848 0
4959 -8121 0
-11391 9427 0
-13386 -8782 0
-9224 7987 0
21058 -13883 0
-20761 -22396 0
-3474 -10225 0
-4044 14755 0
-15854 -11380 0
-21234 -5318 0
20185 -13651 0
6597 -12333 0
4880 10265 0
3698 -20771 0
3592 3563 0
18318 -4044 0
2650 -13562 0
-3463 -12714 0
13011 2799 0
6477 -1421 0
-3736 -14785 0
13045 9369 0
-12029 14911 0
-16872 -17742 0
-7707 18538 0
-12305 9644 0
-23380 -9690 0
-13838 17231 0
4832 -21927 0
23603 10866 0
-23158 -23487 0
4405 13188 0
22118 -19812 0
14530 3040 0
-12247 13784 0
3204 -19176 0
-5231 704 0
6064 13466 0
-2047 23357 0
3963 22755 0
-18341 -2627 0
10330 23208 0
-7123 -2521 0
-888 11255 0
-23706 9670 0
-5524 -9280 0
-12662 17010 0
-9230 -18850 0
12486 -6673 0
-937 19839 0
-7743 -22470 0
-20487 -10537 0
16729 17779 0
2799 -16125 0
-3672 14344 0
-21236 9385 0
-14017 23106 0
-7615 -10604 0
-16609 23783 0
9264 2210 0
-20421 6282 0
-5702 -19265 0
2832 10303 0
5483 -1943 0
-14703 15676 0
11477 14932 0
-10098 -14030 0
-10074 -1070 0
405 -9477 0
-23192 16140 0
-13991 -19518 0
8874 9939 0
9516 -15534 0
18340 -777 0
-11706 1618 0
1368 5260 0
-16332 2634 0
21100 3495 0
7130 -23515 0
-8313 3466 0
17614 -1853 0
-22615 -19768 0
-352 8886 0
11702 20980 0
15597 -12209 0
-9271 22252 0
4425 -11405 0
-14426 -18264 0
-20566 -18146 0
-14784 11020 0
22507 -2462 0
3344 975 0
6227 2265 0
12841 -23270 0
22801 13317 0
21729 13181 0
19819 20605 0
-6849 4695 0
10835 -18932 0
-21624 -8715 0
14291 18845 0
16480 6192 0
-13719 -9325 0
-21890 14837 0
-18438 -159 0
-17134 5192 0
7138 -5226 0
-3855 3966 0
-19849 -14040 0
11153 -14887 0
5307 20998 0
21874 7679 0
4335 12003 0
15165 14199 0
10307 -23660 0
-14456 -18902 0
-23177 14920 0
22753 -16918 0
7798 -8009 0
12954 8084 0
4190 6230 0
19784 4119 0
22932 -17055 0
-18289 5458 0
-13384 -16016 0
-5294 -5800 0
-23465 13167 0
-22528 -6914 0
3603 9234 0
-22118 11377 0
16726 -23055 0
4813 5947 0
22426 17002 0
-19095 10854 0
17937 -23711 0
-11943 2568 0
4012 -14478 0
5163 21897 0
6372 -8203 0
1136 -10382 0
-23393 176 0
4974 -7495 0
15954 439 0
17980 15872 0
20118 7044 0
2812 -6383 0
1245 8721 0
-17799 12737 0
-1561 2642 0
15922 15762 0
-20865 7171 0
-8754 8978 0
-13869 -17440 0
19315 8080 0
7381 4113 0
-3830 -15026 0
-14355 6850 0
-17362 10731 0
22627 -9950 0
-9811 5274 0
-13846 -22692 0
1050 4463 0
4198 -1 0
-18604 3493 0
-18759 -15278 0
-15343 7833 0
1731 10492 0
11415 10956 0
-7601 -10912 0
-155 2577 0
20015 11699 0
19192 22965 0
-20721 1956 0
17213 -19747 0
5141 -19588 0
-6534 965 0
17915 22346 0
-6851 -9803 0
-11701 7054 0
5801 -6657 0
-10667 -21263 0
20230 -8971 0
1964 -8721 0
-6326 5159 0
1526 2572 0
-13263 -12079 0
12700 11244 0
-23234 1329 0
-11929 -1386 0
-6833 -16473 0
11486 17057 0
14658 -9328 0
2014 1283 0
19619 -3797 0
-19112 3044 0
23394 17922 0
-541 12797 0
-22042 19170 0
16975 13231 0
16518 -11361 0
-8581 18055 0
-20052 -19032 0
16657 -13005 0
5000 -18279 0
-19326 22625 0
-6078 -16362 0
-23682 -14700 0
21752 8690 0
9124 -9738 0
10525 3780 0
-13450 -5430 0
7072 10887 0
22624 16448 0
18513 17043 0
21774 -3462 0
11943 12463 0
-15330 -18211 0
-12480 -4475 0
4149 -8247 0
14820 -18550 0
1581 10093 0
-8185 -21819 0
-16254 22671 0
-4154 -4040 0
-5303 2340 0
11488 -18893 0
15273 -5083 0
15298 13894 0
-13789 -18565 0
5118 19668 0
11941 4336 0
-9578 -21273 0
-18106 -11841 0
22981 18513 0
-2187 23024 0
-3052 14226 0
-20227 3279 0
-22973 -23366 0
3223 1842 0
-19087 -7225 0
2929 8636 0
7996 5632 0
20404 -10028 0
6519 -3444 0
11576 5588 0
-7154 -16669 0
-2182 -6924 0
19764 6926 0
908 -13202 0
15746 -8234 0
19169 -23576 0
-8788 -10431 0
-5408 -10744 0
-4598 -12732 0
-18992 -6257 0
9443 14189 0
2827 -14076 0
23140 -7645 0
4374 -11167 0
-23056 10354 0
-6931 -10742 0
-17106 12752 0
-15572 -12107 0
39 -20592 0
10867 -6074 0
1997 2494 0
-105 -21178 0
15666 19359 0
-5889 -11977 0
-16552 -15633 0
-22631 16471 0
-3013 -749 0
-22303 -4079 0
-10982 -21039 0
-17093 5310 0
14374 -13241 0
7898 6441 0
-16785 8011 0
21816 -13852 0
-4233 22432 0
7055 -23036 0
5764 16996 0
-923 13669 0
-3511 -7356 0
-5621 -11126 0
-7810 8793 0
-23792 -22805 0
9972 -23180 0
668 5214 0
9805 13853 0
6341 -22886 0
13561 -12688 0
1857 2391 0
-4178 22558 0
16000 -18483 0
19697 -3046 0
-1688 -3582 0
3662 -14294 0
-21532 6957 0
-20633 -22138 0
2073 -10921 0
4693 15637 0
-10549 22976 0
-18225 11042 0
-18801 -1550 0
8280 851 0
22987 -22739 0
722 -8023 0
4092 -23212 0
-17334 -20677 0
18535 16030 0
22669 2221 0
-6748 -8720 0
-22128 -18580 0
14734 10736 0
12156 -7154 0
13364 -7797 0
-20072 -23212 0
17567 -1540 0
13885 3240 0
-7741 5223 0
-10099 17849 0
5854 -22437 0
-15823 -3174 0
-2631 -1464 0
-20790 20438 0
-5393 13620 0
-20265 19093 0
-8562 -14483 0
7264 18437 0
8430 9128 0
8740 -8131 0
18577 13556 0
-4272 13891 0
-2212 10922 0
-20633 -12347 0
-2480 -12123 0
-21997 18854 0
-5558 -14614 0
983 -11959 0
-8861 -5900 0
-6483 -3785 0
-17576 -7931 0
20315 10764 0
3109 17055 0
22237 -12347 0
-14907 9226 0
11819 -14175 0
134 -2813 0
-2714 19149 0
23735 10671 0
-4374 -20223 0
13749 23347 0
-16195 19805 0
-22389 -1698 0
17648 4203 0
-646 542 0
19282 21019 0
-4041 -15051 0
3353 -22713 0
-23158 -22323 0
-10124 -4630 0
-278 9989 0
15455 -624 0
-9684 -13870 0
1602 -15165 0
-3255 -210 0
23020 12428 0
-14442 15778 0
-2818 14752 0
-14313 -11500 0
-19505 9079 0
-11349 -8214 0
-5164 -2525 0
-10182 -13491 0
2134 -16094 0
-12970 -21938 0
1737 -8473 0
-10744 -13728 0
17497 3914 0
-1156 8815 0
1536 -3901 0
18644 -20970 0
-14407 19612 0
1845 10650 0
-21771 -11116 0
-7826 2710 0
7602 -7233 0
4490 -3620 0
10705 1178 0
19973 -1228 0
-6470 -10412 0
-17205 7168 0
-150 -17896 0
2244 -22855 0
22122 14094 0
21102 3398 0
-1179 -20084 0
22156 18083 0
-14020 -736 0
-6962 -22724 0
-16523 19771 0
-21648 -3227 0
9192 -6636 0
-1488 -22721 0
11684 23033 0
-12826 -20751 0
11370 -15871 0
-7461 -19859 0
5203 -1902 0
1583 19532 0
23693 1370 0
-6390 12405 0
-1203 10927 0
-23122 18497 0
-5600 9767 0
5974 12407 0
-19007 -3786 0
7384 -18273 0
-12383 -11733 0
-12543 12438 0
-1657 9245 0
16043 21796 0
7092 -2851 0
-10861 -19074 0
23091 -10622 0
-12010 8747 0
-7149 -17502 0
17293 16576 0
-1839 4697 0
1614 -14904 0
15545 7273 0
-3601 9103 0
16407 13787 0
3728 -402 0
-21141 -6722 0
8594 -23099 0
-22295 10249 0
21528 1918 0
-9733 14761 0
-14806 9288 0
-1347 -21394 0
-13024 11610 0
207 19054 0
-20434 12540 0
-16065 -691 0
-4882 20185 0
18022 785 0
-12356 -19531 0
10433 1730 0
-15072 -19982 0
22194 -21862 0
-13604 21083 0
18208 -22564 0
11606 1946 0
-4410 -13593 0
-6444 4749 0
-12683 6593 0
14823 -723 0
1869 -18911 0
12132 -14293 0
1287 21546 0
-13261 18430 0
-19037 -22182 0
9633 -18720 0
-7412 -11627 0
-20134 -18689 0
9351 -20722 0
13861 -14299 0
17873 2456 0
6247 -20888 0
16158 -10687 0
-17457 20955 0
15326 5149 0
11319 -15107 0
9863 -6348 0
-7504 -13458 0
19113 -7467 0
-9269 -9964 0
-22258 -12872 0
-11856 2463 0
-16799 -14265 0
-489 -17804 0
5596 -9302 0
-17252 2411 0
9858 -2225 0
5751 -17797 0
-16881 -1593 0
18576 -10940 0
4346 -10209 0
244 -9523 0
18392 -10413 0
-15995 1596 0
13706 3710 0
13483 -17188 0
-5240 -10675 0
569 4606 0
4048 10709 0
9611 -15639 0
6514 -278 0
-10987 -1106 0
-18869 17901 0
173 15284 0
-12521 23187 0
10550 11000 0
-18821 -20361 0
-6369 8583 0
-18507 19571 0
16738 5883 0
-4589 5272 0
-13505 11490 0
-16613 -20861 0
-19817 -22344 0
19510 -16936 0
5162 11162 0
5698 -18228 0
8496 16948 0
-11480 -5475 0
-4583 18617 0
14599 9042 0
5051 10034 0
-5739 -10529 0
19236 -19267 0
-21453 -18124 0
-15628 6557 0
985 2095 0
7342 6986 0
18401 22339 0
-898 6741 0
18630 -22600 0
611 17867 0
16879 8553 0
13680 -15046 0
-16910 -3026 0
10037 10348 0
9456 -4069 0
1065 -5810 0
-6118 -4450 0
-22476 -17538 0
-7407 -10703 0
23303 14909 0
-12934 16808 0
920 7380 0
440 22547 0
12438 10197 0
-16303 14376 0
22259 18411 0
-2365 19077 0
20607 -14581 0
-21067 16023 0
7914 16534 0
-22309 -21353 0
5151 -22135 0
23765 -12351 0
23661 -5205 0
18877 -19089 0
6748 -7527 0
-23503 5674 0
1221 -1490 0
21590 11892 0
8194 22440 0
-16425 9917 0
15803 21657 0
-1994 2092 0
-11614 -3598 0
-8216 22559 0
-3880 -9831 0
-8414 4334 0
13185 -3721 0
8436 -5341 0
9043 -5486 0
19155 -20866 0
-11905 -4344 0
2939 16757 0
-21559 -10801 0
-23595 5116 0
-22684 18127 0
-22805 -3744 0
-15793 3873 0
715 15276 0
10206 20371 0
-434 5314 0
7466 17506 0
-18754 -11123 0
17280 -10328 0
2778 -1097 0
2933 7982 0
-318 -13110 0
-14787 10568 0
23030 -6494 0
-12787 -6701 0
-2329 -17967 0
8080 13210 0
17868 8037 0
23230 -10924 0
1899 -5669 0
6445 18501 0
22202 21022 0
18606 17580 0
-11300 21193 0
1497 6464 0
4121 18531 0
9597 -8125 0
-8034 -6811 0
-16336 15214 0
-1465 -21459 0
15551 20976 0
-7298 -7332 0
-12985 -4418 0
-14106 19011 0
-11533 14125 0
15647 -19210 0
2931 -13257 0
8096 -21500 0
15413 3097 0
5091 -4576 0
9011 12879 0
-11445 -2212 0
3100 -14284 0
6202 11453 0
-9842 6004 0
23569 -15046 0
-21690 6111 0
-12749 -7706 0
17624 -3282 0
-19703 -6716 0
-9657 -6776 0
14726 -19979 0
96 11187 0
10293 -21292 0
-2662 5212 0
19791 12295 0
-4931 13324 0
-21675 -21882 0
210 11148 0
21226 -39 0
3477 -26 0
13582 10569 0
-12225 -11807 0
10836 -19183 0
-905 20099 0
-2780 -17546 0
-4196 17931 0
12531 4191 0
18003 -13269 0
-11738 15623 0
9791 4863 0
-18516 12338 0
-14192 -12520 0
1021 -10729 0
13738 18783 0
-6110 14195 0
-9649 17982 0
10825 17473 0
19650 -4437 0
14944 -3160 0
-10588 -22737 0
-22845 21321 0
19085 15946 0
22978 5664 0
1821 -10243 0
3727 16670 0
8716 11260 0
1195 -19045 0
-7974 -6726 0
-23595 7354 0
-22517 -6674 0
-21939 3612 0
-8043 4335 0
1724 -15590 0
13171 -10596 0
15092 -4454 0
8113 -12898 0
-9868 -5640 0
4439 -23636 0
10516 -21600 0
18237 -2404 0
-21689 -19127 0
4534 -19664 0
20133 3326 0
-23006 -2188 0
-16073 14650 0
-5137 -1872 0
-1942 -22615 0
-4640 -10887 0
18963 -18631 0
-19768 -13826 0
-17379 -5033 0
-19016 23032 0
8528 -16248 0
4793 5495 0
15802 19919 0
1593 -4377 0
-23531 -12083 0
13326 485 0
-17890 -18060 0
-13826 14370 0
18034 -13655 0
-7731 21221 0
-9921 -19566 0
13344 9174 0
-12682 -1779 0
19737 15909 0
-7401 -1086 0
3695 23607 0
20413 -23319 0
-19793 9173 0
630 12468 0
8567 9050 0
-167 14495 0
-17220 13586 0
-5983 13191 0
22872 2397 0
11227 22691 0
14684 18396 0
12516 -22660 0
-12067 11815 0
9547 4435 0
-19158 -6542 0
-9268 -4084 0
-19368 2182 0
10534 -13786 0
-20273 4853 0
-5530 13901 0
-15865 8435 0
-7341 14542 0
1893 -10096 0
-23765 -12335 0
4080 9353 0
18822 -21288 0
7260 -9506 0
22228 -5436 0
22459 18145 0
23208 -6823 0
13787 -11110 0
-932 3128 0
16215 -23329 0
8727 -18347 0
5408 -22005 0
19251 21820 0
-18841 -1543 0
-6188 12546 0
10318 13670 0
6873 12918 0
-14295 20395 0
22657 7656 0
-18385 -21608 0
-17951 16685 0
9523 -19749 0
-21152 -10522 0
19786 12996 0
22953 -4497 0
-3769 20624 0
13409 -11198 0
-6493 17379 0
-10048 -19215 0
16963 11675 0
2159 -23055 0
-12165 -3155 0
-15249 2177 0
-18982 11532 0
-17064 14133 0
2925 -18749 0
-3921 9824 0
-449 -12432 0
-8949 11332 0
11891 127 0
17397 13922 0
4047 -6684 0
2516 4476 0
23689 13701 0
-7692 2860 0
7751 7327 0
-7387 -18277 0
-6698 1935 0
4663 -7912 0
-14197 -5847 0
-3495 -7536 0
284 10130 0
-15330 -1335 0
11951 -11064 0
-11205 -1790 0
-23231 -22585 0
-20847 -10264 0
-6874 -13926 0
-18704 1417 0
9331 23463 0
-17094 11459 0
-6927 -6623 0
-21030 8830 0
8453 -7785 0
8519 17854 0
15187 18433 0
11410 982 0
22658 16282 0
19552 -4952 0
13445 -19950 0
-12345 15777 0
20654 -19677 0
-17180 12173 0
-19625 20153 0
-21968 -564 0
3994 8622 0
21787 9300 0
-6419 19343 0
-6854 22410 0
7512 13280 0
11345 -13209 0
-16253 12207 0
15338 14910 0
-11555 -4628 0
-18212 -3604 0
11498 12216 0
12599 -17133 0
16492 23272 0
8460 -13176 0
762 -15580 0
19495 7384 0
-18174 643 0
930 -4423 0
10820 5583 0
-6329 -7484 0
-20251 -130 0
11480 -15145 0
23736 -167 0
-8797 -22610 0
-21384 -11712 0
15991 -17165 0
-20587 22589 0
19219 23628 0
-23372 -20094 0
9674 -3493 0
23783 -16042 0
-18680 -3445 0
15715 -1357 0
3433 19912 0
-10090 -1999 0
11316 -1435 0
4972 3505 0
-16165 9782 0
21274 -3163 0
5791 -14896 0
-315 12426 0
18127 -9759 0
19105 21900 0
3272 23695 0
-8234 187 0
6736 15715 0
-10859 -12184 0
-17165 5595 0
8409 -6500 0
-17955 -6060 0
-17743 -13387 0
-15647 10872 0
-21493 13045 0
22813 16707 0
9081 -16259 0
-19925 -10592 0
3178 -19523 0
22450 -8526 0
-2259 21083 0
-2223 -20539 0
693 14859 0
17454 -23591 0
-12769 15489 0
554 23500 0
-8210 4752 0
-23140 -8294 0
15677 17400 0
5324 13424 0
-630 -5213 0
17673 -7965 0
21557 -11480 0
8512 -1627 0
-3495 -18149 0
-7173 17277 0
-6845 11003 0
19025 20184 0
21771 -4375 0
19543 7601 0
-8920 16850 0
10696 -16838 0
-13654 -23548 0
-12671 20 0
-5626 -6053 0
18900 -9785 0
-11651 22448 0
21446 20746 0
14253 11762 0
-681 6718 0
11129 1790 0
18027 -16752 0
-6832 16057 0
8983 -15511 0
18948 -996 0
-11457 -21300 0
-20749 -6129 0
-17529 21139 0
-23645 -16451 0
-19562 -3903 0
6911 6944 0
2710 8904 0
-5342 -1989 0
18434 -7939 0
-7055 10502 0
-8920 3856 0
21461 -3654 0
-22471 -6423 0
-20200 8462 0
7204 4383 0
14647 -3334 0
-1877 -10905 0
10208 23761 0
-7644 -20058 0
-2205 22506 0
-21154 -9763 0
-7332 10897 0
7875 -3282 0
-21641 20785 0
21459 -7451 0
-10293 333 0
5156 -9322 0
20075 23647 0
3223 5516 0
18486 -287 0
21222 8540 0
-6351 7036 0
-18521 8642 0
-341 -20606 0
4393 21502 0
21168 15462 0
16249 7580 0
11498 -675 0
-20849 -2805 0
-15032 -21630 0
-4904 -6680 0
-19339 -406 0
-10021 -23530 0
12390 -21740 0
11927 8717 0
-7261 -12679 0
-12905 11194 0
-15727 12521 0
-12031 -3687 0
3356 18079 0
21232 -15097 0
-23672 -22905 0
14445 11134 0
11545 21220 0
-10215 -8195 0
3963 22877 0
-12776 15829 0
-9697 -11257 0
2764 9041 0
14749 6130 0
-5819 -13132 0
2819 1805 0
-13421 225 0
-6314 5561 0
-9613 -14788 0
10156 20136 0
-19123 13382 0
16454 -11297 0
8168 10145 0
-20639 -23229 0
-8734 3071 0
-680 -16827 0
7106 10097 0
15148 -15958 0
-19008 -9488 0
5656 -13047 0
-5179 -7910 0
17325 -23509 0
-2011 16172 0
19747 2479 0
935 -13472 0
16038 -5981 0
5917 -17003 0
17671 10509 0
16351 8268 0
-15942 22708 0
-17392 -8043 0
-4312 3172 0
-16384 -881 0
-15854 -4630 0
-19666 18285 0
11528 -19776 0
-12498 -9672 0
-1978 11709 0
-19945 -15823 0
-18884 22696 0
-23064 8435 0
-16847 10514 0
12131 -9847 0
-16833 18874 0
20735 10167 0
22619 -960 0
-10757 -8094 0
-22379 -10886 0
-23361 -19022 0
6722 -3316 0
4733 11147 0
16915 18395 0
20226 1080 0
-520 22576 0
-10295 9141 0
4962 17846 0
-6375 21405 0
-2323 22004 0
-4116 -19759 0
-20076 13226 0
-279 -13409 0
-8629 -1441 0
-11011 10663 0
18245 2347 0
-19649 -14331 0
3495 -12840 0
-3502 2874 0
15427 -6992 0
20403 -13415 0
-3202 -5507 0
21928 11078 0
5173 4563 0
10914 21037 0
473 1726 0
-13921 -21046 0
-1494 5711 0
15611 -3216 0
-15403 -18309 0
23792 21598 0
-13868 9711 0
16423 -7626 0
-12888 -2422 0
3481 16723 0
-21220 -22166 0
-9980 -21442 0
-9744 19931 0
-21923 -2851 0
-4880 22141 0
-17240 17019 0
5506 16759 0
4129 -6709 0
-4325 15289 0
-390 -20504 0
811 11006 0
20575 -15144 0
-3750 14367 0
12582 -4292 0
10631 20363 0
15814 5461 0
-5519 -22876 0
-20912 12344 0
-16811 -7882 0
-6035 -23021 0
-5760 -5701 0
18328 -1761 0
6607 -18501 0
-23130 5238 0
-8513 -15210 0
-4418 3994 0
-18527 10131 0
-22295 -476 0
12339 21973 0
-14270 17154 0
-4981 -3986 0
-16782 -11378 0
-14677 -16879 0
21612 -10936 0
8811 17532 0
17881 -14972 0
15393 -17013 0
-21103 12681 0
-3579 16135 0
-2280 -477 0
1709 6777 0
13794 7867 0
2637 13625 0
-23683 -18361 0
-21149 -1233 0
-4250 5503 0
8940 18395 0
-10007 -21430 0
-9193 -2840 0
16760 20874 0
6266 -10352 0
10671 -12608 0
-18212 -11491 0
3868 -10101 0
18427 12837 0
-4039 16470 0
22235 15963 0
11611 -1344 0
-10076 15976 0
-9250 -11132 0
18564 -6222 0
18226 -22951 0
-13913 1190 0
-20363 -15808 0
83 3844 0
-22305 6580 0
15708 23238 0
8867 -8086 0
16070 7856 0
6084 10066 0
-13379 -23716 0
-12680 -4159 0
-743 -11261 0
-21969 -5440 0
9969 13012 0
17784 -19451 0
-16143 -9801 0
-2689 12051 0
-6982 -6709 0
10287 -162 0
-14053 -7543 0
-18972 16223 0
-17838 15557 0
12890 22411 0
-5385 18196 0
21904 -10468 0
-16400 -11638 0
11625 9192 0
-5689 15426 0
22372 -19912 0
20719 7133 0
12312 6877 0
1878 -20839 0
-10260 -15766 0
-7374 20256 0
-16452 -2384 0
1672 -6655 0
21089 13770 0
-13338 -15432 0
-17369 21422 0
-18763 15880 0
-5119 -1502 0
557 20359 0
-912 21446 0
-13072 21800 0
-15735 -23211 0
6315 -8708 0
-1856 11684 0
-19121 -4509 0
-19084 5696 0
-18452 15950 0
15377 15910 0
-3154 -21850 0
9089 8034 0
16157 -5386 0
504 15549 0
16192 -1529 0
15746 -15582 0
6198 23632 0
20670 13181 0
-10896 -12400 0
-15433 18561 0
10921 4940 0
13515 12201 0
-11394 -17858 0
-8729 7921 0
-5349 -18651 0
55 6897 0
-22806 21649 0
-7388 -23422 0
2842 -23261 0
-681 -766 0
22859 -726 0
15111 -14311 0
12099 431 0
23020 23336 0
-21617 5546 0
3092 6293 0
5894 14067 0
5559 -10094 0
-689 3924 0
-3853 15436 0
3046 9184 0
-10716 -19309 0
-2949 15399 0
-21939 -8767 0
-13884 15594 0
7531 -23385 0
-1211 -20960 0
16915 1283 0
-8654 23404 0
2484 -12807 0
-23220 -22101 0
4982 -20357 0
-19000 23521 0
-2406 -15834 0
10441 12530 0
-17030 83 0
-2582 14875 0
-2531 5380 0
-23461 21135 0
10885 -19022 0
-21723 191 0
-19235 14243 0
18683 -20988 0
-8907 -18399 0
-21822 -9710 0
-14825 -21072 0
2455 20027 0
8226 -20708 0
-1061 -17317 0
4189 -10358 0
-22421 22088 0
-22454 -22235 0
-21836 1953 0
13479 2847 0
-6836 14666 0
-14818 7419 0
-828 13988 0
14217 -16928 0
12489 -9660 0
1522 23261 0
-13597 70 0
1814 -22966 0
13363 1478 0
6435 -14896 0
-12902 -564 0
14236 -22697 0
-12112 -4582 0
-18593 -18358 0
-19767 21708 0
13152 -22675 0
-11977 10998 0
-22640 -12444 0
5420 -10679 0
-16629 10005 0
3352 -2285 0
-22350 -23787 0
-10956 2933 0
1568 4614 0
9503 -6357 0
7829 -21976 0
-23654 -5596 0
-17215 14570 0
18066 2671 0
-13842 1056 0
-752 8508 0
-9943 -11705 0
7513 -22475 0
-13253 14756 0
5738 11209 0
-12739 10145 0
-17193 3567 0
-9026 19248 0
9997 -7185 0
-18798 -9302 0
-6279 -7774 0
-7323 12544 0
15952 22216 0
-3660 14982 0
-10767 23450 0
-17502 4797 0
23653 18518 0
-8241 18077 0
-7882 -11679 0
-4199 12333 0
-17031 5528 0
-22826 -22467 0
3867 9580 0
1901 -20187 0
11530 16902 0
-2069 -6053 0
10777 -10061 0
-6279 -6168 0
5938 12766 0
21736 -15308 0
-16502 -21024 0
-2226 -15239 0
-9945 17877 0
2392 -14255 0
-7612 2371 0
-23165 6224 0
3826 1803 0
666 4309 0
-245 -12550 0
193 -5831 0
3841 4302 0
20491 268 0
14473 3987 0
-8852 17516 0
20908 11811 0
8314 18795 0
-6867 18348 0
15127 -21491 0
18267 4427 0
8340 -10509 0
-12571 134 0
-22047 6703 0
18497 -15213 0
-10073 19356 0
22976 -3900 0
4119 20857 0
11216 13941 0
2700 22804 0
-18099 -21377 0
-22407 3665 0
-9504 20537 0
21982 9550 0
8370 -17302 0
18286 -7968 0
-11884 -17875 0
7966 -7781 0
-9942 -12134 0
9119 -23097 0
22759 15983 0
-17945 -10559 0
-13970 -6354 0
-15859 13377 0
2918 -15257 0
-5641 -9379 0
21297 20229 0
-17538 -2247 0
-22860 4880 0
-15685 8340 0
-16856 8760 0
15663 2091 0
3532 3376 0
19176 10296 0
-5308 -19175 0
15585 -11662 0
-20529 -21857 0
-9181 1589 0
9753 -20444 0
1239 -22299 0
-22635 -18740 0
-9511 12173 0
14582 -5383 0
-18217 8845 0
5348 7399 0
17356 -11061 0
-13608 -5761 0
16278 -20083 0
19676 -11127 0
19211 14119 0
2562 17721 0
-2880 15899 0
9375 -23085 0
-17316 10 0
-4241 21809 0
17611 -4986 0
-13727 5176 0
-23220 -19350 0
-1423 7568 0
20696 -5493 0
10235 8528 0
-7087 -2632 0
13232 12614 0
22757 488 0
-8144 -14309 0
-17380 -12745 0
3717 -8009 0
-11172 -1685 0
-10751 -4090 0
339 -20264 0
16368 -4113 0
-1685 1607 0
14581 5158 0
11671 16577 0
-20293 23048 0
-10492 16634 0
-12984 18029 0
-11855 6883 0
6705 7428 0
22034 19464 0
-14783 16043 0
-3916 -1550 0
-14330 -12898 0
601 -5309 0
4627 9594 0
-5164 -10136 0
-15343 19601 0
-5543 -18340 0
11341 -11092 0
-17660 -4737 0
-14036 23588 0
-23251 -6641 0
2884 -22674 0
-2711 19003 0
-13842 13115 0
-21539 3256 0
20523 18707 0
-3308 16797 0
19077 -17656 0
17131 -8662 0
16795 -11065 0
15423 7397 0
5028 21847 0
4273 -3143 0
-13092 -14317 0
-18129 18148 0
4709 -1251 0
-9048 4106 0
-4170 7908 0
-16515 19697 0
7470 -8640 0
-2462 8595 0
14708 -4932 0
-22776 23028 0
-15692 14909 0
-12722 -23775 0
10917 16031 0
9154 15160 0
13940 -9118 0
23717 15347 0
-16708 -8172 0
-13087 12213 0
13158 14987 0
8698 -16724 0
866 13427 0
14617 -21431 0
10955 -18817 0
-17650 -17511 0
-14065 10904 0
9558 7446 0
22572 -22298 0
-6688 -20539 0
23593 -20168 0
21066 -17032 0
14798 -15077 0
15001 -6529 0
12173 4278 0
-8009 -4628 0
-9867 557 0
3171 17694 0
-23496 535 0
2618 13411 0
23521 14068 0
980 15937 0
10521 4360 0
3297 6718 0
5985 23211 0
-17046 -4158 0
-5117 6065 0
14262 19807 0
-12900 -2996 0
7652 -17472 0
18298 -21734 0
-20586 -14252 0
20027 -21024 0
6066 8110 0
12938 1393 0
-23690 8406 0
-17904 -5379 0
-8099 -10923 0
-9140 -10020 0
14777 -18277 0
-21408 8762 0
-5128 -11671 0
22455 -16586 0
-13299 -18310 0
-13426 3337 0
-6139 21263 0
-10420 19357 0
18217 -1695 0
2477 4107 0
12469 -1227 0
-18234 20108 0
22204 -22111 0
1837 -9638 0
-22856 14418 0
-6571 -6247 0
2401 -19215 0
18912 -5408 0
10437 14657 0
-19725 -20794 0
-19040 4581 0
5292 19940 0
22659 176 0
20130 22620 0
-8049 11051 0
-4483 -8686 0
-7976 14871 0
14003 4603 0
-9802 -15182 0
-5585 -15646 0
-17518 -21068 0
-17389 -2093 0
3358 -4783 0
-15895 -1026 0
-14677 6872 0
13922 9584 0
-17639 18181 0
18881 -19415 0
-19991 -16547 0
-8252 -7516 0
6072 -16737 0
-2839 19845 0
20521 19934 0
4015 -902 0
18172 -22558 0
-13417 18603 0
-12837 -1088 0
-18989 3431 0
-1523 4201 0
764 20246 0
-7032 -12966 0
-6255 20973 0
21809 -12635 0
-22223 13543 0
-22550 -1905 0
22539 -22337 0
-1853 23022 0
985 9717 0
-7565 12363 0
11745 -13371 0
-17153 7000 0
-11810 396 0
19227 -14701 0
-517 -1052 0
-7995 23167 0
11263 -3379 0
-10912 -724 0
-11493 -385 0
-11519 2852 0
6013 20328 0
22478 1130 0
-20595 17834 0
-7583 -20663 0
13808 -12289 0
20469 2913 0
-14973 1124 0
-22955 18263 0
-3555 -23325 0
-19096 -18726 0
-7035 -11018 0
-4707 -730 0
-5829 13347 0
13667 -12573 0
-18717 4467 0
-5845 -18385 0
3923 -9553 0
-17638 4297 0
21287 -5177 0
14539 11071 0
-9621 -18967 0
-7580 -4317 0
1936 17281 0
684 7585 0
2239 -22955 0
-10941 11612 0
18944 -8018 0
9593 -17809 0
-8186 -6076 0
-8852 10431 0
4318 9963 0
9946 -17881 0
-18358 8394 0
12290 -10332 0
-22471 16337 0
12374 -16683 0
-17384 22033 0
-16699 -16161 0
21135 13058 0
-5740 17058 0
20746 11087 0
-14168 12841 0
20525 -3407 0
-22287 -9908 0
-1286 2244 0
4755 7052 0
-10033 13090 0
-19641 -20365 0
-11252 -19868 0
-6803 22315 0
2299 -2078 0
-11188 12085 0
764 5060 0
10952 -2530 0
4332 -18912 0
21603 -8624 0
-19139 20260 0
-4807 -4927 0
14709 2122 0
19318 -13720 0
9715 -2525 0
-1334 -18081 0
-2168 23650 0
-12726 17235 0
-17754 -7111 0
20317 14131 0
2791 -6680 0
-1455 1427 0
12364 19211 0
-11720 -1627 0
-17405 23769 0
19552 11873 0
5078 -6617 0
-3617 -12382 0
9508 -20814 0
22309 -2081 0
-11555 -19609 0
-8060 -2400 0
-13903 784 0
22372 -23383 0
-6074 14934 0
-3556 16439 0
-21701 7218 0
-12952 -19947 0
13633 -14690 0
-3617 6368 0
3338 18422 0
12278 -17844 0
-5446 6711 0
-857 20584 0
22930 -22300 0
-23776 -10215 0
18921 -8657 0
-11422 -8314 0
-5042 19144 0
-3648 -2781 0
16360 22728 0
7362 -3116 0
-17372 -19499 0
-21599 447 0
-5727 6373 0
-16116 5228 0
5439 3899 0
-20570 -19027 0
-5085 18862 0
3891 11291 0
2220 15714 0
-8658 7749 0
-12015 -17428 0
7229 -6685 0
-5395 8933 0
-2435 22965 0
7608 -798 0
-14488 22611 0
14040 7362 0
9946 -11478 0
4465 -9931 0
4790 -19664 0
-2892 10445 0
-18097 -9556 0
-8357 -7213 0
13128 -3690 0
11143 -15688 0
19861 6430 0
23616 -15575 0
-11378 -13068 0
-19299 -3348 0
19427 16088 0
-22484 18163 0
22556 -3375 0
16807 -9294 0
-22523 12391 0
-13146 6537 0
7812 -3079 0
11869 -21282 0
20685 18734 0
10348 -11220 0
-13391 346 0
-1985 -7655 0
946 -3030 0
11007 -19422 0
-18240 -6896 0
-16456 -21180 0
-6974 -15222 0
23097 22463 0
15194 -12774 0
17552 6820 0
470 22409 0
22576 9610 0
-1979 -11886 0
-300 949 0
19028 4748 0
4732 -21290 0
14975 7940 0
-21331 -15854 0
-4132 -13219 0
15621 15343 0
5124 4115 0
-18332 13415 0
-11955 2694 0
193 -4644 0
14203 -15317 0
-6706 7907 0
-15456 -4574 0
-21233 16148 0
18505 -22189 0
-22391 14421 0
3779 -2136 0
4654 -22100 0
-3887 -8592 0
-10282 16863 0
7208 13523 0
3205 392 0
21723 21065 0
-2547 -4619 0
6145 16224 0
19394 5223 0
20495 2365 0
3911 -21956 0
3150 -11137 0
14092 -7552 0
15040 19851 0
-3837 -3101 0
-20970 3856 0
-5855 -6785 0
21750 17495 0
8158 20417 0
-4257 -17791 0
23788 7265 0
23410 -7242 0
4991 6758 0
16685 -15996 0
-23615 -6138 0
22753 4838 0
8675 -10333 0
4753 -17170 0
232 1586 0
-9561 17321 0
21061 -12275 0
-18332 7002 0
17385 18617 0
10843 -10683 0
18571 11830 0
7606 -16039 0
6937 -5836 0
-19484 983 0
5765 -8251 0
-18832 5204 0
-1116 -7586 0
-19436 -16418 0
-16885 9398 0
19948 22115 0
-4070 19328 0
9492 22898 0
-1988 13486 0
20734 14524 0
-4062 -20689 0
-7222 -16230 0
20259 -4553 0
-4905 -9146 0
21784 -13865 0
14522 -18082 0
-7238 -1021 0
-10336 13273 0
1389 17549 0
-19457 -7862 0
-8365 -17477 0
-6316 -3071 0
-20618 13709 0
-23701 -19056 0
12419 -5262 0
-12015 12400 0
6572 23336 0
1474 -2691 0
4672 -18439 0
-21547 -8278 0
20636 10614 0
-21964 17511 0
23015 -22176 0
-11381 11058 0
-9591 11801 0
-12069 -10100 0
-20130 7905 0
8230 15178 0
9687 -23691 0
13682 22368 0
-9774 -6887 0
16191 20320 0
14728 1664 0
9806 11843 0
-19512 -7763 0
-22258 15749 0
-440 -18338 0
-15011 19212 0
2208 12200 0
-8241 -12475 0
-8505 -22186 0
-787 -2349 0
-12560 20378 0
-21152 -22979 0
15577 -21526 0
14601 -13675 0
20657 22837 0
17158 -16558 0
12750 -22166 0
15457 -11708 0
10403 -12529 0
-7387 13100 0
7849 22751 0
11671 335 0
-17988 -13863 0
-13316 21947 0
10239 -720 0
-10733 -19227 0
-10697 -21681 0
2141 12352 0
21768 389 0
-14193 -23526 0
-23191 -16022 0
7557 15608 0
-23662 -9492 0
18934 23267 0
6115 946 0
23221 -17655 0
10149 7178 0
-18451 6232 0
-2104 -12712 0
-6707 -17077 0
-5825 13610 0
-10530 -23325 0
23395 -11871 0
-1706 -23668 0
5364 3549 0
6842 -4420 0
2507 -4742 0
-2378 1957 0
8718 -11671 0
-19344 10000 0
14011 6284 0
17131 -16922 0
-16279 12529 0
-17121 -14861 0
22277 20399 0
183 -6663 0
21661 16609 0
-1090 21201 0
-8328 -1942 0
-20259 3412 0
-10408 -8672 0
11835 -14632 0
-7935 -23559 0
-7233 -1447 0
-18740 1253 0
9371 -18054 0
-1049 9729 0
3530 -13628 0
-18942 -12123 0
12431 20442 0
-14630 -14627 0
4021 -1461 0
-22992 18287 0
17268 -349 0
348 -5463 0
11732 4596 0
17043 -2398 0
2909 16270 0
-7073 -13678 0
-8276 -20488 0
-16930 -10205 0
-3148 -21747 0
-22352 19752 0
11303 -10483 0
5958 23217 0
-8027 14205 0
22990 -10318 0
-5212 14985 0
-14998 -18757 0
20091 838 0
13874 -7667 0
-15224 -5374 0
-13844 21126 0
-23284 16256 0
-10717 -4952 0
-1332 -19033 0
16604 -19301 0
-6491 19994 0
-1390 -2328 0
4793 23583 0
-11464 21955 0
-2157 -18979 0
3591 -6410 0
-4356 -18811 0
-3031 10112 0
5039 17548 0
514 544 0
5237 -15049 0
16940 -7761 0
-4292 -22351 0
23240 -6473 0
10007 -17822 0
14587 -12011 0
18090 6334 0
3680 983 0
-2918 -20012 0
1223 -21857 0
12829 20549 0
-23076 -21780 0
2976 -21458 0
11509 11700 0
7069 1651 0
9121 -13253 0
-8538 16061 0
-23785 -10462 0
-20116 22009 0
5003 17635 0
8302 2207 0
21403 -14262 0
-2349 -11335 0
-23611 -4620 0
-10486 6495 0
-15406 19000 0
-238 -8100 0
-17986 11051 0
14826 -900 0
-5823 18991 0
-13691 15814 0
3014 3627 0
-1452 -8928 0
17889 -7423 0
-23513 20085 0
6457 12225 0
-19565 5670 0
943 6814 0
-6037 22652 0
14956 8772 0
-6707 -21344 0
8287 14499 0
-14642 3914 0
2988 -10856 0
-8115 -5151 0
-17747 6969 0
13031 -1428 0
19766 4568 0
21993 4458 0
-19632 4648 0
21968 -9347 0
18270 500 0
-11566 -3918 0
23619 -9071 0
-8756 21387 0
12978 12068 0
5691 23783 0
-20606 4369 0
22790 12212 0
-697 -17878 0
-7035 -4601 0
23716 5217 0
-18211 -22299 0
-635 -19633 0
15377 22217 0
14710 -3097 0
12773 17984 0
-19232 -10161 0
-17697 -12689 0
-9139 -17916 0
13151 23495 0
20718 19823 0
5614 -1086 0
14350 20423 0
21968 -16509 0
-14121 -21820 0
-15887 -4249 0
13908 3258 0
2994 724 0
18668 -20370 0
-20085 1223 0
17033 21993 0
-17176 -3537 0
-8677 -19865 0
-237 -8740 0
9416 -20568 0
12355 13918 0
-5535 -7042 0
2086 -20762 0
-2940 -16531 0
11369 14692 0
15837 -10718 0
-8328 -20058 0
-14029 -6842 0
-16048 -20755 0
19809 19953 0
485 20969 0
-19198 -12722 0
-4762 14005 0
10245 15135 0
-10450 -5321 0
-22524 21846 0
-15965 3975 0
-5245 -415 0
-19934 -8132 0
48 3259 0
21149 18986 0
-7553 13552 0
-9765 23767 0
840 -16689 0
-18668 2673 0
16191 -16166 0
3567 -17285 0
16504 3196 0
-8331 15497 0
10064 -18027 0
-23282 14841 0
21629 -23192 0
22566 -1250 0
21860 1303 0
7290 -9845 0
-2165 17910 0
-14288 -21765 0
-13177 12755 0
14510 18845 0
9527 -23246 0
-12088 13689 0
-12785 22162 0
20581 -1842 0
-16067 13087 0
-2546 -14518 0
1894 21952 0
10564 -16380 0
-18535 1324 0
20846 -2706 0
18989 22757 0
-6527 18238 0
-23402 -7373 0
-9895 -19588 0
-12795 -1810 0
22371 21183 0
15727 -3732 0
-6559 -11079 0
12192 1924 0
13163 10098 0
-1469 -16240 0
-5324 -19132 0
16359 10147 0
-22508 -14327 0
-14698 6111 0
18142 2416 0
-12164 -15319 0
-1774 17255 0
-19664 -2552 0
18242 22071 0
-8017 623 0
16926 -1214 0
21902 12920 0
-10597 9121 0
-18688 10736 0
19524 22026 0
10731 10218 0
-20866 -11463 0
-20240 1643 0
-169 -20224 0
-4225 -5741 0
-19600 -3085 0
-21034 -4406 0
3190 8202 0
4504 3035 0
-10710 -11761 0
17792 7622 0
20790 4249 0
7316 18052 0
8344 10550 0
-1685 8719 0
-5817 -21530 0
15646 6550 0
-17185 8786 0
557 -12775 0
2968 21465 0
3884 750 0
-4503 19827 0
-4077 23345 0
11985 -16022 0
4984 15770 0
-13523 1538 0
-8735 -13214 0
-1597 20179 0
-1723 2302 0
17089 17943 0
-9177 4411 0
14121 11621 0
4212 -8667 0
-3558 9251 0
2722 23038 0
-20253 -5119 0
23772 -22045 0
19726 -11143 0
-15531 13536 0
16763 21184 0
-699 13670 0
-1031 -11340 0
-21761 17262 0
-780 9597 0
4187 -1927 0
-14856 -3808 0
3201 18863 0
12661 -9190 0
-4855 -3305 0
11156 2746 0
14103 7009 0
22592 13801 0
23466 13294 0
2513 -1733 0
-15697 -6744 0
-21470 9319 0
-13667 11351 0
4212 -23502 0
22473 16566 0
-1224 -11421 0
11602 16126 0
19874 -3220 0
3196 -20442 0
21800 16029 0
-2530 19406 0
-8763 -19918 0
-21885 14657 0
-17105 15009 0
-5525 -8418 0
-6138 6476 0
-13967 -10972 0
-5481 -17044 0
-22081 -1295 0
6265 -22599 0
13195 -21338 0
-20813 -16055 0
-21803 -9987 0
21354 1940 0
-14493 22962 0
-14605 -19886 0
-1125 10036 0
3873 23390 0
-21850 -15002 0
19559 18408 0
10200 -21480 0
-7562 -8357 0
-13293 19137 0
17186 325 0
5765 9231 0
20676 998 0
8839 21333 0
-7516 -18885 0
22319 9685 0
-8857 -21189 0
-8216 15543 0
-13370 -14928 0
-4549 -23139 0
-20350 -12089 0
15914 -12281 0
8447 -3075 0
-15527 7285 0
23248 -18623 0
15346 -4249 0
-10868 8738 0
-5774 21004 0
-9082 -21312 0
-22283 -8970 0
9992 957 0
-102 -1938 0
2692 -20175 0
-12698 -13975 0
-16595 -11545 0
9478 7120 0
11620 13286 0
19522 19853 0
-12237 6201 0
-17748 -15719 0
-12640 4822 0
4710 -18999 0
-7784 6974 0
3039 22801 0
1518 22601 0
4393 11500 0
21505 -9085 0
-15496 672 0
-8791 -1354 0
-1751 5209 0
-17198 11838 0
20097 -15779 0
15321 2607 0
-23162 19433 0
-18620 3468 0
17049 11992 0
-14523 10227 0
2238 5570 0
-15584 2502 0
-12889 -5200 0
3780 20965 0
15833 -19512 0
-20859 -14549 0
1070 -3991 0
5454 -4647 0
5818 -18295 0
-5416 1136 0
-4092 19323 0
18275 5570 0
23237 2502 0
-5008 -11326 0
-11423 19099 0
16474 -20018 0
-19717 -16233 0
4027 17043 0
12094 22534 0
5242 21695 0
17178 -18847 0
-20201 -4843 0
23768 -5955 0
-11767 17626 0
-8539 -5158 0
-11859 -8032 0
-234 -2486 0
22548 22113 0
18805 -16927 0
5975 -6776 0
17005 -19498 0
-4707 22310 0
18931 -513 0
22449 12675 0
17042 -23602 0
-21946 655 0
-12873 1382 0
21896 -12499 0
13270 20813 0
-11339 16002 0
-20144 286 0
-9026 -3943 0
-15895 -20720 0
12472 -7868 0
18772 16742 0
-10894 -19590 0
-19326 -6783 0
-19442 15437 0
6235 21615 0
19804 -10577 0
6139 -809 0
-19112 -4174 0
-6874 1001 0
-4960 -15908 0
20356 16564 0
-7470 -366 0
23640 14042 0
-22952 -17840 0
-1634 23384 0
15267 10230 0
-725 17950 0
21978 -2233 0
21147 23212 0
-5686 -8787 0
10953 11324 0
-2354 -4617 0
-22107 -5094 0
-19850 -14892 0
17095 132 0
3344 4796 0
-23103 -8800 0
-14139 7232 0
-22838 -2325 0
8743 -9677 0
9663 -5043 0
-22143 -19711 0
-20600 -12362 0
-16660 14344 0
-10521 -18185 0
-172 2877 0
-15588 -15134 0
-4994 -10081 0
-20683 7278 0
15028 -12484 0
1251 -4259 0
17049 20284 0
-14103 6004 0
-16207 5471 0
23234 4018 0
3994 -1104 0
-4452 10758 0
10484 9049 0
9470 -8741 0
-23580 -7524 0
-7461 -191 0
-1546 -9119 0
-20504 -14701 0
7175 20184 0
-11052 -19453 0
-21743 18217 0
6664 17619 0
-4269 -17255 0
-5971 10667 0
-6283 -20841 0
2355 -6578 0
12792 -9520 0
7135 -3791 0
4208 19560 0
-5385 -10682 0
-15615 -23043 0
-362 18192 0
-11760 -9100 0
4641 15648 0
4661 -8729 0
-10940 -14831 0
22116 16499 0
23047 -12789 0
-14050 -13825 0
-15515 6967 0
-12455 -5068 0
-18158 15679 0
-5296 17132 0
-21293 -14169 0
-6429 21476 0
3474 18154 0
15935 -23507 0
6148 -14025 0
16545 -12710 0
-21771 -6921 0
1001 -23615 0
1874 -22956 0
8491 -22960 0
-17337 21493 0
18899 -15604 0
-5033 -4510 0
14675 21591 0
-12435 -4553 0
526 17689 0
7501 18600 0
3260 -12735 0
15 -518 0
3906 14453 0
-6087 -17190 0
20101 -2500 0
-12356 3962 0
-1201 -6753 0
-14343 -881 0
-6898 1068 0
2631 -586 0
-425 15323 0
5481 3670 0
-19540 -8847 0
-1091 -11018 0
23378 2892 0
-11347 -9460 0
8293 14317 0
-1505 8096 0
-21701 -21329 0
22931 -17704 0
5520 -2704 0
-13107 -5186 0
10645 12866 0
7678 9705 0
-5023 -19526 0
21550 -17845 0
-1026 16740 0
152 7140 0
14334 15399 0
-19970 8581 0
-626 13933 0
-14352 16646 0
-21901 -16022 0
23253 -9008 0
12852 -3719 0
-22622 -12973 0
7399 20390 0
1200 11153 0
-10626 -2991 0
23700 6054 0
21823 2321 0
19432 -19746 0
13449 -11725 0
-11028 -5384 0
-18491 10930 0
-5505 -18091 0
18856 -17355 0
-11967 13297 0
13111 22573 0
23055 -9553 0
-17821 -20808 0
20900 -20550 0
-11397 18922 0
19029 -9337 0
15306 19288 0
-20840 -1889 0
14080 -6211 0
-11571 19955 0
-2000 10108 0
-16872 18453 0
-20626 19430 0
-14222 21725 0
6642 7372 0
22001 7925 0
15821 -18930 0
21284 -18601 0
-15723 -13035 0
22946 14421 0
5196 12943 0
-15599 17054 0
-20949 286 0
-21223 -1026 0
-2082 -19079 0
-22364 -3720 0
2463 -7527 0
-8494 12426 0
2874 -3290 0
592 -3329 0
17688 -7289 0
-3388 18468 0
-19973 16759 0
-22391 -17333 0
6141 -20216 0
-10395 7844 0
17749 76 0
3269 -10216 0
2670 19810 0
8658 -13784 0
-14697 12013 0
-14570 -20863 0
20791 21071 0
2423 -12298 0
3735 2188 0
14205 -3190 0
5259 -9268 0
-6855 1586 0
9109 -13198 0
3752 17752 0
-12680 -16811 0
21186 5465 0
-7141 -23230 0
-5617 -8525 0
7887 -750 0
-8855 19777 0
17350 -19478 0
19871 -633 0
-18087 -14175 0
-21930 -3487 0
-2856 -15330 0
-18141 1965 0
-9261 5623 0
23773 -3133 0
12287 11642 0
25 14948 0
-1528 -8888 0
-19127 2050 0
-15581 16693 0
15756 16703 0
-810 22895 0
-15176 -12453 0
-21201 16600 0
6669 2473 0
5249 -19192 0
18055 13410 0
-2662 529 0
-11391 -11261 0
-3537 -21908 0
1168 11651 0
21603 -11089 0
15922 20972 0
-13897 -223 0
-3318 14376 0
7520 6282 0
17154 15139 0
23646 4758 0
6 -21323 0
-17780 1220 0
-16688 12953 0
-17336 -21249 0
17525 7801 0
-15599 4796 0
-21014 18646 0
-22281 6184 0
-15318 -796 0
-11325 -13095 0
16909 18153 0
17283 10966 0
13269 -8665 0
-23516 -6055 0
-11826 3937 0
-3314 6301 0
-16932 -6339 0
9807 17042 0
-13981 10421 0
11915 9505 0
-813 21928 0
19035 17933 0
16048 11749 0
-22431 14570 0
1264 -3986 0
1391 -4582 0
-1088 13479 0
-22916 -6824 0
-23405 -12739 0
-3379 23127 0
14722 22034 0
12613 896 0
-16377 -23451 0
11104 12460 0
8420 -8147 0
-2586 18468 0
14990 6935 0
8142 29 0
-14554 2452 0
71 -5455 0
-2668 -13810 0
18223 17805 0
16210 -8002 0
13415 5816 0
-16460 11914 0
5268 -1750 0
11322 -20214 0
3479 9622 0
-765 4294 0
7545 20397 0
16423 -18250 0
-10801 18519 0
-8623 9054 0
14619 2068 0
18408 18614 0
-7769 -21017 0
13236 -11427 0
21898 4145 0
2449 6159 0
-11466 -1360 0
8931 21482 0
-12271 16041 0
-6209 1754 0
18612 9959 0
-3038 -1864 0
3152 -14158 0
-13209 5755 0
-6531 23766 0
-13568 17703 0
10779 -17300 0
-15904 4149 0
-22967 1327 0
-5944 -21648 0
-19160 -17875 0
12616 21185 0
6386 -23677 0
-15490 19895 0
3728 5085 0
15990 -11502 0
11159 -5452 0
-23453 -23638 0
2034 -23057 0
11915 17616 0
11960 -12086 0
-4551 -9473 0
-5273 22728 0
7249 6792 0
-7993 8664 0
-9026 -15729 0
-19051 1939 0
15665 -3798 0
23292 -21006 0
-4165 -2878 0
10830 12912 0
-10075 17328 0
15618 17528 0
-12257 -2918 0
22529 -955 0
-14258 13032 0
-2937 -15593 0
4267 15100 0
21142 -6992 0
23071 7705 0
3288 -14876 0
5702 691 0
-1181 18185 0
15020 -4193 0
4360 -18268 0
-6312 14005 0
8421 -10264 0
4290 -19490 0
-5758 -16254 0
11282 151 0
882 22570 0
-1820 -12023 0
-4041 11909 0
5267 -13675 0
10113 7282 0
-21523 1847 0
-19499 19072 0
-62 13060 0
-16336 8288 0
1741 -6289 0
-11896 9258 0
17631 -23170 0
20963 -20944 0
-21701 9867 0
23626 20240 0
9569 -20700 0
-15105 6216 0
-22215 -9850 0
-15108 1122 0
10622 16441 0
-15654 -10430 0
15913 18025 0
21832 21251 0
16567 22524 0
20915 -17580 0
-21072 10945 0
8504 9798 0
2561 -9403 0
-2585 -11577 0
-18077 18282 0
364 -4789 0
12950 20741 0
8655 -8531 0
21476 17634 0
15020 19854 0
12201 5442 0
20942 -13253 0
-18025 10468 0
23457 283 0
2748 15168 0
21879 -7155 0
-20271 78 0
14641 10712 0
-7450 5931 0
22460 3506 0
5605 -22723 0
-5949 2097 0
7250 9292 0
19570 -5582 0
-4747 -20745 0
-3743 -4112 0
13594 13979 0
13165 10106 0
-18903 15206 0
19508 -706 0
21807 277 0
-4557 -431 0
17819 1317 0
-12245 -4255 0
15597 -9764 0
-3315 -20068 0
-18211 13918 0
20418 23289 0
-22762 -11661 0
21207 19463 0
-9110 -12797 0
-23257 -22388 0
-19818 7797 0
-15061 -15779 0
-12922 5111 0
1894 14085 0
-21891 -23496 0
-7242 19539 0
20685 -10494 0
19409 -15696 0
-10834 22876 0
-4519 -9062 0
21576 -17785 0
15148 -7273 0
2597 -20353 0
-6729 -20261 0
20882 -931 0
23544 -5094 0
17465 12195 0
3842 23228 0
15338 -2253 0
-6593 15831 0
1809 -3872 0
-12913 -12687 0
5974 14355 0
2123 -21840 0
-21195 -2772 0
-8759 -20514 0
18017 -11982 0
22631 -6732 0
-12745 -14769 0
-1960 -21266 0
-2068 14948 0
-13516 15903 0
7042 4506 0
205 -18856 0
17806 -12555 0
-547 9096 0
-7834 15678 0
2320 -15712 0
10016 -6473 0
23096 -8075 0
12432 4046 0
7 806 0
20151 -14052 0
461 15910 0
-6880 19224 0
-1682 -18440 0
-11154 7900 0
-7760 20183 0
8783 -3175 0
3464 12925 0
4558 -11834 0
21190 -22297 0
12165 11966 0
17420 17253 0
11515 -1206 0
272 -2527 0
4264 -5205 0
-10126 14424 0
-20379 -1883 0
13958 16608 0
-17447 -1231 0
15453 -13666 0
16499 -22120 0
-10027 -292 0
13284 -21775 0
22960 -11821 0
20693 14476 0
3940 9807 0
7525 4259 0
23772 15190 0
4833 -13387 0
11098 12573 0
22917 -12241 0
-16639 -22715 0
1378 19419 0
-3511 -17883 0
2733 1617 0
-2184 -7263 0
22675 -15735 0
17821 -5039 0
-17362 11927 0
-12099 21091 0
6704 17976 0
-5624 12375 0
-16091 2752 0
-14244 11613 0
-2559 13644 0
21068 21793 0
-18364 -5378 0
5849 4228 0
-22269 10412 0
7099 -11502 0
-12496 20292 0
-21914 22627 0
2230 -20240 0
-1944 -3740 0
-17966 -4313 0
-12187 15807 0
5788 -14898 0
-20738 18582 0
-21293 4340 0
-2430 -22091 0
-13422 15788 0
13908 5568 0
3089 10471 0
-4238 11567 0
-1883 13658 0
-4084 16407 0
23015 21506 0
-9514 8675 0
-8750 20627 0
-17596 21420 0
-11561 2541 0
16825 5118 0
9298 -11077 0
-18572 23721 0
-20741 -7110 0
-23766 10392 0
-19774 -16415 0
-12922 17921 0
-12953 15605 0
-23340 -2711 0
-5322 13024 0
10820 -21642 0
-17440 21730 0
22049 -5936 0
9712 4777 0
13050 13457 0
22408 13481 0
-1310 14700 0
-17140 -11909 0
22264 -21155 0
-10813 -14476 0
-2535 -11590 0
2748 -1756 0
13636 -9082 0
8083 -19270 0
-4906 20073 0
-1942 -23663 0
-19979 -13781 0
-11801 2330 0
-1088 8194 0
7569 10390 0
4197 -867 0
-19957 19042 0
17497 4044 0
-4688 4805 0
-20393 3549 0
-17675 13634 0
-21822 2154 0
13751 21825 0
-12240 9160 0
-5953 -21367 0
8403 -2031 0
13296 14802 0
-1499 18005 0
4699 -14381 0
14521 5941 0
4253 -3923 0
22379 148 0
21519 15022 0
-116 -7424 0
-12085 3462 0
15127 18668 0
-148 18422 0
17625 6687 0
-6914 18097 0
13007 15422 0
3848 -7029 0
-11149 -11199 0
7422 -17301 0
-4850 -9147 0
6550 -9209 0
-19145 -21262 0
6414 4038 0
16428 12996 0
7386 18986 0
18103 -23310 0
-161 -5538 0
-17661 -9202 0
-15205 -20844 0
7532 -15804 0
-97 5542 0
-10062 9451 0
2542 7787 0
5505 -2908 0
3686 -8571 0
-22428 22365 0
-6972 -2457 0
153 -15818 0
-19156 2809 0
-2167 15154 0
-12024 -267 0
16171 19189 0
16373 11800 0
-16928 11660 0
-3968 19942 0
-4732 -3395 0
5892 -16806 0
21322 20952 0
10846 -6011 0
-16032 7293 0
-11021 6352 0
-4626 -22418 0
6856 -3219 0
-11941 -4444 0
-3362 -5601 0
-8838 -21331 0
2356 -23595 0
-7878 3166 0
-18012 855 0
8479 16938 0
10746 -20533 0
-1652 -5228 0
-20630 -10087 0
17178 -13455 0
-10368 -12754 0
3979 19981 0
-23039 675 0
-6699 22169 0
6769 3879 0
14987 947 0
-23065 17517 0
-403 -8910 0
18323 -20606 0
-15290 7207 0
1389 -11717 0
6686 -10701 0
-21057 22800 0
-18007 21938 0
7699 23675 0
9000 -52 0
-16071 16720 0
799 -13521 0
-7361 9891 0
-5715 19961 0
19953 -9338 0
10777 9371 0
-18756 -19489 0
-9155 -2906 0
-23068 2485 0
-16490 -20197 0
1874 -4432 0
6429 7155 0
-19188 -13232 0
-4085 -1941 0
-14596 -8650 0
-13029 14696 0
-7896 -8429 0
-19305 -2723 0
1915 -21165 0
-10604 3716 0
-21357 13619 0
-3128 15141 0
-1337 12607 0
-7404 22054 0
-5021 -15296 0
-6666 18727 0
1551 -3987 0
-20518 20782 0
16788 -12367 0
13819 13872 0
-6984 -7336 0
8699 -6619 0
18851 18134 0
-19122 10832 0
-14486 -2871 0
18891 12825 0
17128 -11678 0
21313 -5408 0
9264 -17423 0
13540 1460 0
3022 14326 0
-20620 6159 0
-14145 2594 0
6666 22282 0
759 10401 0
7326 -16689 0
22289 451 0
15734 -1254 0
17184 -16010 0
7917 -18332 0
-4006 -10707 0
-2725 -14037 0
-9917 -21371 0
-5920 10737 0
6088 13141 0
-16394 8979 0
18845 -4639 0
588 1724 0
19373 -19590 0
-4811 -8851 0
-4968 13076 0
6677 1185 0
17179 -15339 0
-17620 -13591 0
-2115 -18862 0
23195 2345 0
12640 -6075 0
-19469 11490 0
12059 20072 0
-21290 -11231 0
10794 15306 0
-2124 -15542 0
10913 10817 0
-23193 -7776 0
-10289 -19687 0
-18556 5443 0
-6307 10665 0
-15174 16611 0
4454 15498 0
5280 -19302 0
-12880 19475 0
-3133 -22435 0
-2684 4175 0
5346 -644 0
20173 -3578 0
-19107 2973 0
21097 -12581 0
19688 20916 0
-11231 -12461 0
1934 18071 0
-16932 15116 0
20865 -7076 0
-3986 22624 0
-19149 22439 0
13071 7891 0
-1362 -20062 0
-12456 -5964 0
18514 -584 0
-15455 16419 0
-8416 -7825 0
5087 7343 0
-4339 -6538 0
1962 -12971 0
-17289 18495 0
-11237 4868 0
-11692 -17203 0
-4161 -12940 0
10588 22057 0
17553 16687 0
-23630 -19095 0
-6060 -12559 0
-4719 -3058 0
5750 12785 0
19460 -4610 0
502 -21684 0
-23129 -11286 0
-7334 -11138 0
1586 22150 0
18592 -12480 0
-10112 1131 0
-17230 -13083 0
1410 -22120 0
-17015 -9685 0
1168 -10038 0
1114 -2193 0
-11569 -23173 0
8750 -16417 0
-13443 -10395 0
-11828 -2963 0
18651 -3046 0
14714 3874 0
2915 -1749 0
-20742 6782 0
-20193 11284 0
-14855 9624 0
-6798 21313 0
-9765 -1756 0
-12573 5509 0
7775 22650 0
21238 20927 0
-11551 19705 0
-14648 3574 0
-17730 -16479 0
23297 -8352 0
23730 1967 0
16174 9551 0
13183 3892 0
-17785 22715 0
19916 20862 0
-10739 -9486 0
13140 -16496 0
-13405 -16580 0
18037 -2209 0
12060 -8261 0
-4900 -20725 0
14558 18659 0
7545 4439 0
-14701 -13346 0
3031 21656 0
-12069 5407 0
-10134 9361 0
1170 -8061 0
-1586 11450 0
8590 1865 0
9536 -12519 0
2944 12404 0
-5477 -6996 0
-8480 1524 0
-14792 -14313 0
23188 13861 0
-11856 17459 0
14907 23676 0
-10654 -22260 0
16338 7460 0
19071 10712 0
-7226 -412 0
-23734 17582 0
-11145 14236 0
-6426 -8624 0
-8949 -4617 0
-3008 -12081 0
2135 -6719 0
17167 -1756 0
20875 -9612 0
10226 16646 0
-7086 -4416 0
17884 -3756 0
-7154 23269 0
-14819 19139 0
-11505 -2832 0
13133 15214 0
12521 -12584 0
6345 -16812 0
17242 16671 0
-16647 1049 0
19157 -20203 0
43 13554 0
22267 23260 0
-490 737 0
9644 18832 0
-15911 -17026 0
-3789 18217 0
12693 -22041 0
-17142 21964 0
-1719 -19112 0
22077 -5419 0
-15869 -12408 0
-20385 -18148 0
-1748 -18543 0
-23176 -19999 0
-1947 21557 0
-14303 13620 0
17699 8187 0
-19257 19481 0
-2832 18546 0
22106 22802 0
10739 8912 0
9877 -5166 0
-5998 -13431 0
-2013 12900 0
-15932 18543 0
-4370 -2094 0
-833 -690 0
-19918 21128 0
-10148 -11908 0
6364 -4462 0
-3198 19688 0
9132 23150 0
-9340 -16354 0
-8768 23726 0
-15057 -21369 0
-22561 15135 0
-17747 -4509 0
6024 1923 0
-21495 21240 0
-22011 -15337 0
12073 10507 0
-11990 1035 0
19250 22253 0
2708 1907 0
10568 -10706 0
4501 -19662 0
-19466 -5812 0
19298 -12638 0
-3368 13419 0
191 14722 0
-11997 209 0
-14370 1404 0
9328 -17734 0
972 -14397 0
-10115 -23423 0
-17622 -23383 0
18639 -15684 0
-8578 -1281 0
-22196 -14479 0
-22468 -16573 0
1710 -3457 0
6835 5544 0
-23143 -15765 0
-21131 -15385 0
22646 -8610 0
7188 5059 0
8759 23035 0
-16521 21586 0
-20803 -7957 0
19293 -19874 0
-21094 7664 0
-7085 -15217 0
-11523 17692 0
15530 23226 0
4950 14286 0
1605 -5549 0
111 -3112 0
-15598 6730 0
-730 2746 0
-18905 -3593 0
2037 -22651 0
-17984 -10537 0
-9640 -16147 0
-13966 23195 0
-5322 -23264 0
-23330 -6881 0
-15953 9037 0
11535 22581 0
-13415 18327 0
-17196 17384 0
-17583 11868 0
19284 23737 0
-22227 -9447 0
4197 7970 0
5036 15632 0
-14706 -10102 0
17040 15295 0
-5297 -14527 0
-319 5781 0
18636 16993 0
-2606 16214 0
329 -10678 0
-5943 3449 0
2980 16114 0
22530 13326 0
9166 -10010 0
19362 -12166 0
-10147 12311 0
2371 -19416 0
-12015 2933 0
-1016 -18031 0
14017 -3446 0
11657 22706 0
1418 1993 0
-12897 18773 0
-21744 8217 0
16470 -19629 0
-21536 -1758 0
-10283 -19974 0
19196 14324 0
-11306 6477 0
18408 -7792 0
100 -17267 0
15525 4729 0
13880 11892 0
7376 3336 0
8592 17526 0
5367 15291 0
16481 10187 0
-22604 13653 0
22737 -21282 0
-8296 14239 0
-19627 -2354 0
12386 19339 0
11333 -12066 0
-21536 21191 0
3061 -21828 0
12555 -12395 0
-17240 -22412 0
-7722 22314 0
7702 -2366 0
20196 -7330 0
-3582 2497 0
-17097 -6925 0
22990 1567 0
-22061 14589 0
23384 15446 0
-21053 -16162 0
10419 11461 0
-19248 -18942 0
-17727 22525 0
17974 368 0
-5925 4088 0
20538 -8629 0
8769 3067 0
-16694 -22916 0
-16083 -18940 0
-14934 2916 0
-8244 -22035 0
-248 -17517 0
-11225 -23718 0
11473 -8071 0
-13559 -18747 0
-7299 -2828 0
-20062 -12265 0
-21440 -15949 0
-7975 1643 0
-2535 21990 0
14762 23483 0
934 5367 0
-13204 23370 0
11660 -254 0
391 19317 0
7008 8405 0
3413 7062 0
20789 2555 0
-22541 20453 0
-13324 6883 0
-22367 -19501 0
-22130 -8499 0
21918 18197 0
9059 -6896 0
-21724 -12066 0
-8436 9001 0
8697 -18831 0
3045 -17633 0
-9290 -21623 0
-20541 -18541 0
-2878 -17543 0
-18014 -10464 0
17773 -16552 0
-3986 -6603 0
21389 18780 0
1831 -16352 0
23730 -15533 0
19412 -15824 0
9193 5544 0
-20930 23390 0
-19299 -21267 0
15482 -8096 0
-4075 1384 0
16360 15292 0
-15877 -22967 0
8751 -7658 0
240 13145 0
5717 -14583 0
-16984 171 0
8835 -4983 0
17174 17984 0
1747 -8091 0
2070 6537 0
-3362 -10181 0
-22663 -7947 0
22691 12288 0
8585 -21579 0
3962 -13073 0
6364 9705 0
3179 -13897 0
-12345 16531 0
-2570 17643 0
14195 5162 0
-21521 -15296 0
-20168 22451 0
2414 21506 0
22181 22536 0
-6245 -6769 0
-18148 -11989 0
19953 23610 0
16077 15309 0
-9442 -11701 0
10944 -9988 0
-5540 20043 0
12864 5375 0
10516 -5577 0
19491 -5981 0
13917 -3071 0
-13 -15506 0
-23633 18157 0
8560 16348 0
-11909 -14374 0
16177 11319 0
16389 -10024 0
19801 7340 0
14615 20494 0
-9100 -16837 0
20838 4455 0
-2164 8183 0
17458 4306 0
22084 -21331 0
-9092 16080 0
8527 14952 0
-5782 397 0
-7118 1105 0
-10825 -786 0
-8077 13687 0
2564 3461 0
-17786 9192 0
-10549 -18463 0
2215 -18229 0
1356 -487 0
-12687 20049 0
19216 -16938 0
-15476 -13768 0
-613 1686 0
17630 21274 0
8448 -6298 0
-9410 -19629 0
8575 18454 0
15505 8176 0
20716 5961 0
19302 20764 0
10274 9675 0
10180 -16605 0
-1706 -10242 0
3796 12891 0
-6650 16481 0
20575 22625 0
-6935 4974 0
20825 12544 0
23466 -20805 0
13535 15078 0
-3749 2850 0
11698 -10759 0
-21798 -7177 0
-1536 -7305 0
19789 -1169 0
9214 -6613 0
11611 -3808 0
-11591 -17629 0
13258 -2721 0
2988 -7715 0
-22358 -11241 0
6658 1863 0
-3225 10796 0
-3673 -19064 0
-20766 9958 0
13815 432 0
20810 -3229 0
4777 -14188 0
21758 -22269 0
-7431 14259 0
-5707 4668 0
-10722 21531 0
191 7381 0
5541 10649 0
-16976 -11542 0
6824 -3873 0
3522 9620 0
2088 1898 0
-10305 4527 0
14244 -5681 0
-4933 -21893 0
23406 14408 0
-22901 4083 0
-20094 -4509 0
-108 -3016 0
20806 2691 0
1249 3806 0
5534 -1366 0
282 16863 0
-17347 -8633 0
19748 -8631 0
7046 -4055 0
-8986 -20061 0
22719 -16971 0
-11463 16035 0
-3617 -9184 0
4879 15906 0
8158 -1986 0
7463 -13920 0
-5984 9823 0
7060 -12223 0
-672 6169 0
14728 -23099 0
-18077 11813 0
-7235 9498 0
6050 10613 0
8906 3258 0
13383 19054 0
5138 -8166 0
-2086 -1644 0
-11128 -5540 0
-23355 15562 0
-15809 13476 0
-5320 -2234 0
-2373 10341 0
22381 21127 0
9411 21183 0
-18857 -23113 0
-2528 -5707 0
12224 21662 0
-9514 -11076 0
-16793 10933 0
-11442 17115 0
6493 -22757 0
8521 -12785 0
-18868 -20640 0
-4458 -17415 0
21764 -20136 0
17638 10321 0
-16513 15340 0
-4233 5689 0
23299 -16073 0
21017 -10957 0
12544 -17232 0
29 12490 0
-12840 -5378 0
-19666 -12752 0
15817 -8712 0
18587 -13101 0
-15947 21755 0
12434 -13184 0
-22693 -9846 0
-18411 4129 0
-10483 8660 0
-22365 -12110 0
-594 1404 0
22814 3067 0
6547 16107 0
-1831 -21857 0
-11373 20106 0
-15786 15698 0
-17924 16114 0
-15268 -6212 0
18606 -18141 0
12418 -6134 0
-23058 -20950 0
-7896 10049 0
-21644 2347 0
-8933 -6988 0
-8144 12805 0
23103 -2238 0
-23731 -9508 0
-230 -18549 0
9014 15876 0
4337 -5277 0
-2237 10419 0
4402 -6319 0
-9630 -22328 0
-5688 9528 0
-59 12487 0
-2998 -7421 0
14096 -2131 0
17157 -15142 0
13713 4585 0
11793 -4955 0
7976 -11619 0
-1196 13612 0
-7845 7972 0
7989 -7980 0
-5157 6477 0
20352 -3142 0
22854 18659 0
-8960 -1742 0
-15494 21896 0
1024 16925 0
-8971 5429 0
2131 -4362 0
23575 -4757 0
-6584 -16720 0
4348 -5726 0
11127 18635 0
-6784 -1346 0
5852 21370 0
2203 19640 0
19863 -12905 0
4258 -1531 0
8786 6762 0
3079 16056 0
-23134 -16516 0
-9267 -13067 0
16411 -671 0
23686 -17102 0
5031 22783 0
-1740 14889 0
-17556 -12190 0
-4303 9482 0
19764 23334 0
6708 6616 0
-3898 15913 0
8665 8589 0
-5234 4557 0
-2200 -4310 0
1447 866 0
-11864 -11590 0
20674 -15362 0
2070 13593 0
-10202 16411 0
8323 13445 0
-23440 -19178 0
-19021 13942 0
-17703 -12897 0
-3696 -17424 0
20405 2301 0
21814 9502 0
18857 -13065 0
-5856 5597 0
9869 -1881 0
22408 -12677 0
8066 -11827 0
-7761 22638 0
-9586 -779 0
19512 20080 0
15734 16438 0
-19245 -18621 0
-11534 23037 0
17925 -4554 0
19429 -22086 0
-15566 2315 0
-20127 13279 0
-9069 21258 0
12694 -8748 0
7340 -16641 0
22371 18525 0
18445 -9668 0
-11433 22362 0
-5614 4136 0
17710 -9749 0
14223 -18765 0
-8261 -9733 0
-20698 -15562 0
-5408 -7986 0
-20332 8922 0
21010 11061 0
9356 -17205 0
-4578 12401 0
11670 20458 0
4280 18566 0
-5849 -98 0
20889 -5595 0
-23461 -165 0
-14673 10271 0
-4249 23692 0
-1547 -10208 0
15125 -426 0
-3323 -12127 0
21837 -180 0
14540 -17185 0
4369 -8863 0
-1850 -8183 0
-12269 -18005 0
9651 19630 0
-3839 -7680 0
-16509 -10300 0
16369 -4653 0
14734 -4273 0
-22783 -4130 0
-12913 -19123 0
20628 -18430 0
-1514 -1905 0
-11423 -23229 0
-20849 -21643 0
-4426 14044 0
20228 -15748 0
-14212 -4251 0
20541 -17892 0
6059 895 0
-6779 -7469 0
103 16269 0
-11778 1521 0
13341 3253 0
11280 17170 0
-13911 -16031 0
22010 451 0
21087 -2908 0
-7756 14195 0
-10043 -15032 0
-9291 -8220 0
-11431 20841 0
9483 -23554 0
-10123 -12988 0
22164 -2413 0
-17306 -11015 0
-18785 8591 0
-14923 -8075 0
-22073 8131 0
8168 7226 0
-14174 19871 0
-8927 -381 0
9554 -15724 0
22687 8861 0
-850 15592 0
-17393 6102 0
-4847 21492 0
-23627 16470 0
-19445 -3728 0
-10240 -15217 0
-19517 -2127 0
-11346 21812 0
-16533 3790 0
-20438 22548 0
12314 -22018 0
13993 17991 0
6755 21699 0
-6054 12489 0
-13890 7206 0
-17819 3484 0
-17386 7671 0
-14121 4625 0
12751 -6301 0
-586 22645 0
-2626 -4486 0
10383 5430 0
-2261 2538 0
-1491 9175 0
20026 7583 0
690 47 0
15671 -22641 0
241 -7565 0
20545 -21770 0
-15430 1045 0
9779 -4678 0
-6448 -7219 0
-18385 -2772 0
20459 12599 0
-10329 -14445 0
-9755 8021 0
3500 -12181 0
-20102 -18204 0
2365 -13147 0
19210 18203 0
-11353 9029 0
14152 -16961 0
-21699 -14259 0
19386 23306 0
-23366 3450 0
11510 -22387 0
3433 13152 0
-13881 -1617 0
18175 4331 0
-7933 3178 0
4441 -15626 0
16380 -16879 0
5067 3130 0
11873 17766 0
-7486 -6055 0
-12624 7546 0
-512 13163 0
8062 7004 0
3727 -17428 0
-9107 -8239 0
-13438 -1717 0
-10242 -13016 0
20436 10859 0
-13863 -7 0
7051 18769 0
-16290 -790 0
2982 14893 0
11649 222 0
-1008 -8096 0
-12085 13785 0
17526 6222 0
22238 -2523 0
-23553 3848 0
17783 -8222 0
-9690 18504 0
11073 21391 0
-16809 14179 0
-20854 1767 0
-50 12035 0
8035 17305 0
9839 -5932 0
-7562 -835 0
2722 8686 0
11092 -18982 0
12805 -15804 0
19940 19463 0
14773 -23590 0
7440 -18056 0
13016 -15115 0
-2229 6790 0
-21164 9003 0
-2666 -8483 0
9970 18155 0
14713 22951 0
-3369 17469 0
-14511 -6863 0
16682 12877 0
-18650 -10457 0
983 -9939 0
21378 13158 0
12652 4321 0
1431 15644 0
-22129 -1241 0
8882 -15948 0
-14116 19556 0
1939 -6988 0
14059 21788 0
-444 20217 0
-16367 -7964 0
-21964 -4538 0
-4886 -16655 0
-20549 136 0
18521 -12795 0
-5646 1697 0
-13970 11539 0
-18432 15321 0
-4963 131 0
13843 -7577 0
-4454 5717 0
19658 14473 0
12754 -19308 0
-12481 8208 0
5351 18360 0
521 18203 0
1861 20601 0
-2963 -146 0
1348 -21988 0
15131 17428 0
-13006 15415 0
4162 -747 0
-17290 -14153 0
-2366 4058 0
21249 17297 0
1646 5818 0
17780 -10310 0
12238 6325 0
-5032 -21085 0
-16713 22748 0
-9086 -19210 0
18010 -6551 0
-21504 15074 0
-21160 -3538 0
23458 10417 0
-17982 7218 0
2994 18830 0
5436 9030 0
-13610 -16842 0
-12799 599 0
-15904 22967 0
15983 13246 0
-18350 19463 0
-13897 -9784 0
16571 -2643 0
23312 -11582 0
1180 22701 0
15597 4834 0
22640 -1557 0
-19872 -13610 0
-17522 13478 0
20283 2919 0
-14733 -7366 0
-22403 -19859 0
-14698 9584 0
11910 -10118 0
16790 22524 0
676 22349 0
-4218 3249 0
-18515 -12862 0
-22241 3944 0
-11472 -16736 0
-20803 14335 0
3165 -2249 0
7718 6691 0
-1275 3364 0
11386 -5535 0
-22714 -1474 0
-16719 -10286 0
-9377 -19908 0
-14487 -10109 0
16969 17397 0
-11428 7930 0
-5836 18454 0
17810 9272 0
2702 14312 0
-48 2991 0
-18823 15880 0
-7886 -6591 0
-13743 12841 0
-16850 18247 0
-19811 -18271 0
19221 22715 0
20639 -20862 0
-875 -12785 0
-19416 22191 0
-16217 -18993 0
-2266 4702 0
4812 -15680 0
12106 -19827 0
9421 -3104 0
-4201 -17967 0
7399 5619 0
741 -8554 0
-19852 -19464 0
10906 -16488 0
3250 -15688 0
-23575 -108 0
15274 5078 0
8299 585 0
7946 -10910 0
-22298 8843 0
6915 10046 0
-15200 13226 0
-9467 -11301 0
-15491 8295 0
10838 -15581 0
-1828 18476 0
-14761 9991 0
-17931 -13841 0
13760 16163 0
-23039 -3423 0
-7118 19566 0
-4933 -7349 0
-11031 7043 0
14000 14122 0
-8879 12391 0
-1353 -7739 0
14429 9924 0
5163 -12904 0
-5038 -14700 0
-18849 -10660 0
5656 2548 0
-8422 17187 0
-17400 -4877 0
6112 -17170 0
12736 7591 0
-10476 21155 0
-8367 -10567 0
-21407 -18942 0
-21238 -6608 0
6777 7229 0
-5516 -8164 0
21490 8825 0
19633 -21344 0
11680 1162 0
-19075 15116 0
-5711 23522 0
2680 -15198 0
-2571 1721 0
324 4307 0
-8196 8899 0
-21659 18266 0
133 -23545 0
12207 -12083 0
-15307 21732 0
14660 -13450 0
-19594 9494 0
-9191 3727 0
19590 6106 0
7196 -2933 0
-20682 19424 0
-4650 -6573 0
2581 -15972 0
6064 -786 0
-9961 -18646 0
17118 17390 0
12789 163 0
19100 8044 0
-17742 -19774 0
-1240 5807 0
3007 71 0
17736 5955 0
3094 9130 0
-17566 20730 0
-22234 -18631 0
12768 20813 0
-16135 -10195 0
-6577 -4234 0
9987 -20945 0
3311 -18233 0
13030 1992 0
6653 -7146 0
-7539 23309 0
-1181 -18296 0
-16625 -23113 0
20423 -19504 0
-8572 7893 0
20410 6239 0
-9984 -15069 0
-22681 -8355 0
956 7419 0
-10502 -20921 0
-7368 -18243 0
16436 14921 0
-12395 -20637 0
19527 -5260 0
-5184 -9298 0
19490 -16816 0
18276 -10216 0
4633 -15786 0
-6860 6248 0
-13033 -8525 0
5885 8235 0
23211 7599 0
9797 -12507 0
-23671 -8076 0
3471 6104 0
7018 10782 0
-5659 17325 0
-8787 3120 0
-16788 -11615 0
-5235 22038 0
-12474 10742 0
-23270 -18796 0
-5334 -22615 0
19430 -19385 0
-10427 8676 0
4894 1029 0
-13839 -4484 0
7039 -20899 0
-4775 -10620 0
-5459 9160 0
-19658 -11918 0
7989 12466 0
10366 10089 0
-8089 11145 0
21587 7415 0
-6131 4639 0
-658 -8629 0
8817 2659 0
11477 15752 0
9891 2279 0
-7300 -20455 0
-17103 -7256 0
-4171 -22684 0
-8847 23424 0
-1486 -4502 0
13912 -21462 0
8519 -3095 0
19247 10659 0
7032 -17875 0
8224 4577 0
-9178 446 0
-11799 -10258 0
3626 3040 0
-2119 -13005 0
9038 1344 0
14232 13995 0
-20093 -9684 0
21413 -13378 0
22548 8269 0
13943 21693 0
9776 -10568 0
16470 2650 0
2238 9839 0
-1470 -4250 0
-16527 4455 0
-12188 -12157 0
-20599 14888 0
7285 17736 0
-16030 1676 0
23303 1155 0
20874 904 0
-4921 3642 0
-21819 22538 0
-3570 -20001 0
15935 18087 0
-13146 -12907 0
16791 -1467 0
336 -12756 0
22604 23369 0
-14214 14539 0
-18091 15453 0
9773 19327 0
-7716 -16121 0
8511 22680 0
8758 -12753 0
-10284 -4267 0
7157 19690 0
-19032 7369 0
11071 9705 0
19483 -18119 0
11334 -1018 0
6625 16599 0
10136 -16733 0
13466 -5046 0
4998 20392 0
-2779 23254 0
-13312 9949 0
-15999 -17361 0
-18618 -8552 0
1119 504 0
-2136 18429 0
16818 13591 0
-4234 -10105 0
-13563 9901 0
13902 11617 0
-3705 -4376 0
12027 -9540 0
13056 -21979 0
-9468 -19253 0
-357 -4997 0
17030 15591 0
14486 -9350 0
-7100 18010 0
22733 18665 0
5569 13794 0
-23386 -20861 0
-21357 -14738 0
23533 -1997 0
23406 20655 0
-263 10641 0
20528 -12733 0
-460 -16993 0
16139 -4542 0
6366 -4387 0
17848 18959 0
22749 8268 0
18857 14537 0
17437 -13791 0
-3945 8326 0
-21431 -10923 0
2479 12280 0
-16513 20559 0
-6647 21931 0
13932 -22102 0
9235 -20296 0
9547 -13096 0
9186 -22797 0
-21729 -8295 0
-1099 17889 0
195 -87 0
-17168 -12873 0
-9026 -3872 0
-13875 -4849 0
-16073 -17276 0
-1263 887 0
3335 -8633 0
14837 20543 0
-19471 8253 0
-1984 17947 0
-22035 22255 0
21464 -14525 0
22304 -4720 0
19313 -14410 0
-2944 -14620 0
-3734 -12252 0
19335 -7037 0
-13318 14713 0
-21821 -5718 0
-2408 10573 0
-9650 10283 0
8892 20436 0
18249 -21740 0
15992 -7035 0
-13088 10403 0
17781 -615 0
-22420 4450 0
-13664 -328 0
17138 12086 0
-6255 -19531 0
199 9396 0
-936 14703 0
2177 -10324 0
16557 557 0
-513 -9624 0
-7458 -4238 0
3200 19320 0
-888 -7241 0
1495 -10699 0
23014 47 0
11393 14293 0
-9486 1222 0
7196 -3388 0
-23438 23523 0
20095 19142 0
-6370 14611 0
23659 12582 0
20816 7591 0
-15077 8290 0
10337 9872 0
-2619 13710 0
1458 9546 0
9060 20675 0
12190 -3642 0
2060 3453 0
930 -9202 0
22919 17941 0
12295 -22189 0
-13798 1830 0
22368 -21734 0
19386 -87 0
11509 -21710 0
-18235 -21638 0
-23601 5178 0
-8774 4327 0
19315 -8109 0
2600 -21910 0
-14313 -17993 0
-13135 11104 0
23791 -6673 0
10672 8883 0
-7485 -15553 0
-22772 -4572 0
-20800 4854 0
-12697 2452 0
1388 1516 0
11425 16403 0
-16446 -2030 0
-11159 6653 0
-425 -18221 0
-21051 1734 0
-14125 5581 0
-19376 -20941 0
13597 19475 0
5569 -9742 0
-6182 18750 0
14307 22382 0
15412 -2278 0
3998 -17295 0
17897 5835 0
5291 6942 0
-2972 -3015 0
19976 16152 0
-7177 -13779 0
-21168 11213 0
-3382 14211 0
20952 10711 0
8229 -7804 0
23172 7754 0
-21676 -1758 0
11193 7 0
21576 -22897 0
8962 -197 0
-4370 10916 0
11121 -11994 0
-1335 10078 0
13570 -404 0
-44 16052 0
-11792 8528 0
1170 -5264 0
-8567 -1820 0
-3254 21227 0
-21889 -4496 0
-11252 -16085 0
-8804 -396 0
-2182 -16303 0
-5802 20647 0
-63 -16395 0
-22000 12267 0
-23745 -7802 0
776 -3140 0
-19952 -7771 0
-20873 -1365 0
21420 2747 0
-4300 5762 0
-3592 -15282 0
5441 5956 0
-10698 -1978 0
-14628 15676 0
5111 -1675 0
-21401 -440 0
17082 -21099 0
-4482 -424 0
9366 7533 0
-21630 -3582 0
-15723 3652 0
-15161 2960 0
-21873 -7919 0
-14813 14707 0
10184 -18412 0
-17519 8073 0
-20122 -6663 0
-18583 3686 0
-11707 -20946 0
2122 11352 0
15762 4145 0
9504 -7172 0
-16465 -10288 0
-17711 12588 0
-12717 7420 0
-14837 16338 0
5496 -16961 0
-6628 13124 0
-16451 1444 0
1523 -2136 0
-4873 -9449 0
-20435 -4058 0
17671 -1373 0
9405 496 0
-5333 -1786 0
20398 -7174 0
21042 1435 0
-1238 22065 0
-535 -15135 0
-4365 22756 0
2994 21037 0
6042 -9749 0
19845 8526 0
-10001 -19223 0
21128 -19738 0
702 6844 0
-23044 13728 0
-21396 -22079 0
1471 12798 0
516 -6451 0
12753 1309 0
-20198 -2398 0
-7091 -1449 0
-20310 10367 0
21863 463 0
-2918 -15541 0
-14150 -12583 0
19690 20063 0
-7610 9365 0
23580 21281 0
-13232 -1433 0
11154 -16397 0
17876 -17900 0
14316 17580 0
-2978 6913 0
16155 -14482 0
65 8323 0
-1323 16869 0
13210 6027 0
17782 -14287 0
-16109 16018 0
22113 -64 0
-15051 9879 0
-1314 2117 0
-1360 -17436 0
3625 -1867 0
7441 14927 0
-2408 15628 0
17592 9371 0
-21850 565 0
-22297 -1878 0
9183 20796 0
6255 -5199 0
6875 -8838 0
-9390 17793 0
16959 -3500 0
8886 -8473 0
-7153 7759 0
15160 -11052 0
5155 18421 0
-3634 17568 0
2791 -810 0
-7459 -17754 0
-12093 -5709 0
-20150 5552 0
4573 -14748 0
-18150 2862 0
-10500 -2701 0
15963 7575 0
-15474 -13193 0
-23641 -22874 0
-4451 -4651 0
3436 -8274 0
23754 5771 0
-8968 -14557 0
-23643 9041 0
-19319 -9062 0
-2233 1550 0
-14206 17211 0
3694 -15235 0
-13650 3943 0
4458 20241 0
-6832 -8080 0
4405 -11551 0
13953 -17391 0
-16673 13369 0
1309 18282 0
16455 -987 0
-20854 10795 0
4022 -8162 0
18627 4852 0
-7486 16106 0
21887 16106 0
-11687 11967 0
-18007 -1766 0
-22250 3802 0
-19629 12774 0
2806 17930 0
15162 -18089 0
14245 -18610 0
12021 4938 0
-3017 7891 0
23358 -18511 0
14224 6066 0
-18932 -12711 0
12074 -14467 0
19068 -11014 0
15812 19961 0
-23191 -5447 0
17151 5916 0
13799 10606 0
-10623 19957 0
-16702 -22586 0
-22325 5967 0
7285 6596 0
16931 18138 0
-9394 4667 0
-23574 18482 0
-15621 18267 0
13467 15803 0
1883 13324 0
6032 -437 0
2251 11953 0
-20079 -14369 0
365 21687 0
4421 180 0
16697 10831 0
10082 -13297 0
12359 -18757 0
14776 17821 0
-12940 14914 0
-22135 7389 0
-5270 -14589 0
3523 -17612 0
-23425 -6508 0
-20597 11518 0
-14230 11369 0
-13572 7126 0
-2231 -8747 0
23686 23401 0
-11317 -22479 0
-14617 -10619 0
-5308 14576 0
6654 -12799 0
-13011 -5362 0
-2803 -20382 0
-19968 -3158 0
-11659 16043 0
-21681 9669 0
11862 14625 0
21283 -23177 0
22530 -15088 0
-23779 14891 0
-11471 -19236 0
14107 -12555 0
15651 -17975 0
17891 15414 0
-6475 4080 0
-4413 -7158 0
-12293 -3648 0
-4713 -3105 0
13563 -10483 0
-21120 6952 0
-7849 23672 0
10331 -1381 0
-14739 -12973 0
-3469 2791 0
20043 23384 0
19291 -12725 0
-5585 20246 0
-3954 18103 0
584 -11021 0
-17532 17655 0
-1559 11580 0
-19999 -7190 0
3041 21597 0
-2168 -7888 0
-5786 16254 0
-17602 13905 0
6889 -3836 0
20206 -17726 0
-16072 -14802 0
-9416 -19248 0
11513 14379 0
17191 5598 0
21054 -19457 0
21938 8133 0
1845 -23023 0
-2465 -18752 0
6991 10349 0
22992 -23433 0
6998 3566 0
5222 4607 0
-450 -19966 0
-22530 20885 0
17769 -18787 0
17697 -18672 0
-12807 7287 0
-19288 4355 0
-8753 11488 0
-23169 -12723 0
8064 589 0
-4070 -10059 0
-1502 781 0
-14651 13244 0
3481 -17381 0
16093 5242 0
-18624 11367 0
-9220 -11344 0
22556 18461 0
11229 1299 0
-16417 22984 0
22238 9917 0
-6521 17392 0
12092 18402 0
11145 13948 0
-9820 -2342 0
-15428 22351 0
-3092 -4635 0
-16811 13824 0
15283 17817 0
17699 -20174 0
7665 -18234 0
10731 21686 0
20118 6944 0
23089 17096 0
9989 23510 0
-18871 12704 0
-7423 16643 0
19514 -14387 0
-7222 9679 0
18045 -17754 0
-9109 -1599 0
6995 -12455 0
-18240 1982 0
-20502 16905 0
-21384 -13213 0
-7484 4038 0
23573 11141 0
-2083 -6931 0
-13821 6246 0
-8600 -9993 0
-3382 -813 0
-17236 -1870 0
7356 -21711 0
-12496 -8461 0
3571 -4672 0
-23363 9403 0
-14070 -2935 0
-3811 -22342 0
-17078 -9536 0
-3483 -9133 0
14851 -8731 0
-23738 -7573 0
9385 -20857 0
16812 6439 0
17539 -21705 0
-18748 -18654 0
-22619 -1590 0
5173 6439 0
11458 -11782 0
-3202 -6789 0
-13162 9367 0
1271 -2283 0
5635 -4216 0
1180 15398 0
3015 20175 0
21810 -12171 0
134 8503 0
-13537 -4713 0
1772 18575 0
8921 -1310 0
-893 21633 0
-9932 5958 0
-11133 7093 0
-21330 -6839 0
14117 -21896 0
774 -9137 0
-16533 12783 0
2735 11678 0
20897 4652 0
2558 -3776 0
21142 20915 0
13012 10592 0
5988 20105 0
-14165 -1919 0
-6421 -3033 0
21385 18544 0
-4272 -2949 0
6004 -2498 0
-20277 11378 0
19971 22602 0
13994 -14326 0
14373 -8256 0
-10784 -21856 0
4367 21205 0
-4389 21221 0
7299 2927 0
-15126 -10797 0
478 20281 0
6569 10300 0
15193 -13970 0
-20234 14787 0
7178 -4915 0
10501 -19667 0
16979 5009 0
1725 -6843 0
16351 13309 0
3896 -16930 0
14974 -23419 0
8762 -8833 0
-12605 -21291 0
18547 -4416 0
-3678 -18978 0
21518 -15119 0
15180 -5577 0
-7461 1102 0
22501 15733 0
3434 9369 0
5085 11212 0
658 -14426 0
-4989 -4670 0
-22352 -19921 0
-17283 5550 0
23271 7671 0
15399 -4253 0
49 -18350 0
-4177 -22360 0
-14500 12870 0
6388 -12343 0
10387 -11905 0
-21687 7149 0
15665 -15053 0
17186 6298 0
-5847 -7998 0
-4973 21406 0
23106 19167 0
-17410 12726 0
-9820 9978 0
-2544 1759 0
17971 -20541 0
10965 12848 0
-15874 -1128 0
1200 19708 0
-11643 10434 0
21104 23458 0
-15670 14250 0
10257 19979 0
12453 -12329 0
-7421 -3051 0
18999 19068 0
-17811 13357 0
20988 -722 0
-94 -9155 0
-11479 -12815 0
6349 -7165 0
-3465 -20104 0
-3423 -12708 0
23517 -1520 0
8845 -3315 0
-11980 -4493 0
14335 -4249 0
15122 -19164 0
19979 -19154 0
10326 -19280 0
15985 8132 0
14009 -282 0
1959 5606 0
-19640 12237 0
9631 21672 0
800 -16850 0
-18246 -18865 0
-291 6027 0
755 -6939 0
-16648 -3590 0
-21012 3969 0
6793 96 0
-19664 -2984 0
21335 1220 0
16813 17877 0
13911 -17241 0
-22189 -14675 0
-17762 21631 0
4149 19559 0
22650 -16048 0
19637 11572 0
-15965 -23275 0
8784 -20763 0
-7085 23283 0
19002 -22396 0
-3149 12891 0
5611 19229 0
9927 2102 0
8379 -8355 0
12092 21341 0
-20028 -2958 0
998 -11085 0
-6423 -23730 0
23417 -21329 0
19824 -1335 0
-20468 -16706 0
-15684 22411 0
-1359 -7826 0
-18666 4405 0
2847 23573 0
-11126 20303 0
-1738 17981 0
4716 -15720 0
1718 -20405 0
-22071 -16130 0
-13865 4781 0
18925 -12849 0
12448 1740 0
-8145 1422 0
-4002 -3495 0
-20927 -12994 0
-7862 7228 0
21198 22121 0
-7070 -3511 0
-11210 -14275 0
-17594 13751 0
23347 -13149 0
-3674 17740 0
2456 -11599 0
-20509 9839 0
-5625 -13980 0
18023 -15126 0
-14765 -20251 0
-19417 -22136 0
5684 -3865 0
-3698 -15933 0
10864 -21643 0
-8051 23490 0
18918 13304 0
12128 8616 0
6724 20120 0
22673 -3747 0
-17350 -11240 0
-11294 -1113 0
-22048 -23747 0
3045 -6513 0
-16162 18532 0
-19325 -11167 0
-4247 18404 0
-19392 -22616 0
10909 -3647 0
7720 -3724 0
-10469 22196 0
-7879 10614 0
-21502 -16713 0
-12473 10081 0
12245 -5511 0
6562 10885 0
2320 22910 0
53 7005 0
-23291 -7046 0
-23539 7561 0
2098 -9616 0
5170 11906 0
18396 -13407 0
-22114 20191 0
-17709 -8835 0
10502 8137 0
19072 3892 0
10021 -9829 0
20056 23012 0
-23535 -7588 0
-10220 12837 0
-1078 13831 0
-8002 -20899 0
-12420 -13582 0
23287 13549 0
-971 -2712 0
-16810 18029 0
-22429 -19624 0
-3569 -19021 0
2399 -10323 0
-18335 9885 0
-22796 22889 0
21316 2088 0
-7700 -8363 0
-16554 10651 0
1215 4212 0
9961 -16284 0
427 16291 0
15904 -6906 0
-323 -14608 0
10174 -23334 0
-23022 2589 0
-9474 -6377 0
-3033 -17564 0
-7890 -2078 0
-2377 -9173 0
-9526 -3169 0
-10787 12200 0
-9254 19994 0
2878 9347 0
-13618 19889 0
-14296 2096 0
-5064 20790 0
-4491 -23040 0
-7888 3821 0
16692 21319 0
-10608 -6067 0
-16917 -7454 0
-8603 -15073 0
-18620 -13799 0
23601 19128 0
10186 12355 0
-21520 18355 0
1071 -22027 0
-19023 2471 0
-11380 10473 0
10245 -2702 0
7060 737 0
-17377 -2295 0
13414 -7400 0
-10755 13933 0
72 12034 0
12013 -20473 0
22203 15752 0
11552 12909 0
-2282 17133 0
6289 -2787 0
-10639 -10357 0
-1845 5562 0
16399 6877 0
12224 7137 0
-6904 6733 0
19743 21203 0
11939 14805 0
-4293 -13040 0
8122 5549 0
7946 -3740 0
7997 7795 0
7940 15881 0
12047 -6051 0
-4584 -6560 0
-6005 -4314 0
-2403 14676 0
-16669 -6025 0
11312 19683 0
8910 -12351 0
9935 11384 0
10841 -832 0
9772 15019 0
-10811 13642 0
15937 18865 0
10843 23501 0
-8802 13924 0
21032 198 0
3845 7540 0
2946 19445 0
12291 2 0
12156 19563 0
20708 -17283 0
-14843 18625 0
-17839 9486 0
9703 -6874 0
15520 -10875 0
-4417 -15645 0
-18572 -20879 0
13895 6792 0
12575 -5901 0
3762 18762 0
-10546 -6993 0
18350 -4165 0
-22423 -11308 0
-14672 -20487 0
5807 -22306 0
13803 -10707 0
-14883 7971 0
-13102 7087 0
-7860 -10754 0
19233 -4327 0
-779 -105 0
12664 -15504 0
12381 -23524 0
12151 -21564 0
17475 10688 0
-6578 -8913 0
3232 18266 0
10699 -20154 0
-16198 23389 0
-8883 -487 0
-18490 -7193 0
18810 -653 0
5238 -19359 0
6614 10254 0
19945 5103 0
10777 21920 0
-7976 -1125 0
-20439 1378 0
-14171 -1791 0
-21369 12391 0
16441 225 0
-17883 -18363 0
-971 -15098 0
1992 3679 0
1647 -3721 0
16578 -5217 0
2448 -1123 0
-15038 10835 0
20944 6782 0
-18785 8514 0
23603 21489 0
2332 -3392 0
-18595 22798 0
-18389 -18259 0
-1101 21311 0
19048 -12645 0
3897 -5971 0
-20141 -2137 0
-636 19356 0
-2097 -22352 0
-19480 2555 0
-12665 5179 0
3034 -6663 0
22415 -2597 0
22569 18249 0
21674 17739 0
6027 -5547 0
773 -12884 0
6556 -5219 0
-7534 17153 0
12864 6634 0
8867 -19610 0
18052 10659 0
19937 -4117 0
1862 -10476 0
14010 21602 0
19869 309 0
13201 21316 0
-4424 3488 0
-17494 -22334 0
-6483 -10159 0
-22442 678 0
-1716 -5678 0
4921 7810 0
-1594 -12708 0
-9979 1249 0
20809 13281 0
7658 23772 0
19815 14691 0
17158 -269 0
-6280 5358 0
-23751 -19647 0
-5416 10191 0
21634 7946 0
13151 9251 0
12864 -20028 0
-22023 -7346 0
-13485 20139 0
-322 10087 0
-3279 4538 0
-4602 -2021 0
10288 -10337 0
-21148 20296 0
-2930 3249 0
-17644 -282 0
21892 -18462 0
14910 -7675 0
-9430 -11740 0
9974 -22388 0
-14582 20560 0
-16459 14181 0
-10158 11042 0
-1185 11322 0
6102 4432 0
-15973 -21851 0
15770 7171 0
6725 5489 0
-919 -3606 0
-2441 1065 0
-5115 21862 0
-21884 12493 0
17485 -16451 0
21103 -364 0
17659 22674 0
811 20120 0
22141 -7877 0
-21954 -23615 0
1343 -22936 0
-13361 -8576 0
2261 5880 0
15878 2133 0
8792 -16651 0
3981 493 0
-44 3653 0
14673 7856 0
18502 7039 0
21151 -8098 0
-15662 14172 0
-5010 -6747 0
-12435 3745 0
-22701 9885 0
-17424 -18952 0
-19703 -4743 0
-13171 680 0
21489 -564 0
-4122 -42 0
-2353 -20507 0
2249 -2424 0
1272 -19584 0
16836 3356 0
11143 -5018 0
10264 1362 0
-11516 -225 0
-22121 23237 0
14835 16642 0
23079 -12319 0
9088 -4838 0
-23306 -21676 0
18062 -11833 0
22200 -7993 0
-40 4824 0
-13068 5043 0
12192 1859 0
-1081 7292 0
-14315 910 0
21992 -4659 0
19984 -4822 0
-23594 4018 0
-16438 -10071 0
-23717 10501 0
7111 2473 0
14692 -2141 0
19957 -8743 0
537 -16703 0
18677 -16080 0
-8502 -3942 0
7078 -8369 0
-18459 17473 0
-20024 22209 0
-11654 10634 0
-18376 -3048 0
19586 20880 0
285 -8465 0
20872 -2252 0
-16671 1661 0
358 -12528 0
-9643 1309 0
16788 -16376 0
-18613 -6413 0
-15742 9663 0
-12514 -17732 0
-17697 11215 0
3988 3899 0
-2917 -21139 0
2816 11986 0
10563 17867 0
20100 740 0
-12725 -15349 0
-16789 3211 0
12479 23167 0
8183 -21361 0
222 16687 0
-16238 -20527 0
-989 1655 0
-5802 16522 0
-11080 -16370 0
15995 14593 0
-16503 3279 0
-16500 -12621 0
1800 12542 0
20009 7540 0
37 -21060 0
1475 4414 0
-16892 -15875 0
11068 -12758 0
-20351 18493 0
14375 863 0
-10537 -13847 0
-15494 555 0
-1186 19606 0
-16595 -16688 0
3212 -619 0
15593 -12134 0
-16629 -17173 0
2971 -22441 0
16774 847 0
6735 5769 0
-21478 17921 0
5392 5478 0
21742 9888 0
15730 20062 0
6442 19306 0
-15034 22536 0
-13945 21548 0
21693 3701 0
-13271 20487 0
14057 17443 0
7025 6707 0
-17474 -19905 0
-21211 -6210 0
-21680 -12558 0
-3329 -16719 0
17869 -7328 0
-19791 -23642 0
21173 -11907 0
17497 -11950 0
-2015 -5022 0
-6020 20795 0
-6884 19948 0
-12231 289 0
-11453 -6892 0
5071 869 0
-1694 13860 0
-2271 -2019 0
-6975 17497 0
-8094 8484 0
11767 21885 0
-2693 -11807 0
16134 -4942 0
13280 7203 0
-23398 9468 0
-1486 -9256 0
16625 -20587 0
7536 -1091 0
14653 -15659 0
-2609 -1000 0
21161 11552 0
19583 1961 0
7202 20856 0
10661 -7797 0
7535 -2557 0
-16025 5435 0
-22427 -19662 0
-16075 -793 0
11604 -9313 0
14496 -12324 0
-2084 -12965 0
4009 19029 0
-6638 8494 0
-12191 -1326 0
2360 -5994 0
-4133 12637 0
-10196 -17306 0
17715 -2162 0
12572 19763 0
-1541 9899 0
-1079 -19671 0
18874 -21544 0
15646 -16834 0
-18927 -5636 0
5059 20020 0
17320 -12461 0
-11763 -8110 0
18022 17304 0
-12844 7986 0
19625 -18366 0
-23170 9625 0
-675 -3846 0
-17134 -2207 0
9196 5661 0
3493 14999 0
-14920 -13634 0
15063 -5301 0
-22650 17006 0
-23386 -23399 0
3623 -21271 0
-10414 -14110 0
15437 -4799 0
6174 -19354 0
-21791 9456 0
-7783 -600 0
10046 1204 0
719 -17281 0
-21168 19961 0
23587 14585 0
20506 -3919 0
-6132 9028 0
11119 -19279 0
16961 -3942 0
-12108 21859 0
-22256 1446 0
923 23342 0
-7265 5342 0
22180 -18272 0
15332 8858 0
-19954 2753 0
-4738 21041 0
12563 -10750 0
18714 -19427 0
16863 2824 0
-20508 -5579 0
12657 3790 0
-19076 -22745 0
-23486 -7131 0
-16720 11466 0
-12495 -2088 0
-19379 -4775 0
-1336 19228 0
-8682 23118 0
-12750 -4538 0
-6429 23081 0
-5411 15002 0
-10380 -17577 0
-9659 3888 0
-20125 21695 0
10300 -5258 0
-23546 17755 0
-18749 -10510 0
4620 12751 0
6822 21434 0
605 -9261 0
-4552 -18771 0
14980 -1914 0
-9206 -8522 0
-12432 911 0
15808 11226 0
-7494 12916 0
21896 17749 0
-21357 -23531 0
12792 19961 0
-14089 -9615 0
-22280 4186 0
4562 -9336 0
3327 8416 0
-11258 -12375 0
704 8593 0
-12063 6768 0
-14273 21679 0
9562 -22103 0
-23270 9283 0
22220 -3614 0
-21235 15579 0
-3122 -23041 0
16820 14058 0
2046 21708 0
-6294 -22069 0
21567 -3382 0
12180 -10428 0
19583 -19308 0
20328 -10157 0
8477 -13844 0
-2277 17281 0
489 17700 0
9091 -12696 0
-12905 13682 0
3066 3271 0
15336 10515 0
14938 -2832 0
-10287 -22462 0
-10427 -23041 0
15526 5443 0
-1164 18050 0
1769 -19993 0
22480 1936 0
12431 16158 0
6309 -17857 0
-2664 -15059 0
11590 -19622 0
-22024 6916 0
-21154 -2712 0
5026 3691 0
8042 -4907 0
-9129 -15139 0
-17798 -23035 0
18735 10080 0
8842 16334 0
15278 6021 0
-14442 19087 0
12174 -10852 0
-19514 445 0
-17022 15529 0
10142 -8939 0
-23164 -2831 0
-22571 -14234 0
12036 15173 0
-7274 11796 0
7772 11437 0
5630 18324 0
2862 17859 0
21802 14685 0
5026 -12849 0
-4583 19808 0
4497 13120 0
-8601 -4108 0
-23537 -15508 0
127 11055 0
-17877 -20885 0
6569 -10368 0
3329 -18119 0
13184 -15400 0
4227 -15768 0
1297 14200 0
-19428 -20247 0
19558 -1357 0
1305 21221 0
-13913 -11857 0
353 -3967 0
6813 23729 0
21320 -17848 0
16770 8559 0
15523 -13419 0
-8048 -6937 0
6045 -14035 0
-1860 -20818 0
-1687 -2372 0
-3017 14645 0
-19495 -3211 0
4052 -11259 0
16249 17948 0
-23066 -23471 0
-10586 -14292 0
-22720 9553 0
-15080 -21763 0
22620 -5291 0
-10149 -13370 0
-3300 5277 0
4541 17001 0
-16170 567 0
-11309 16773 0
-13923 4742 0
-22565 19029 0
1269 18804 0
21188 19079 0
-16240 16441 0
-5963 6431 0
7290 -5531 0
-10476 1232 0
18365 17666 0
12893 -13123 0
4577 -2625 0
13718 18814 0
-13320 8227 0
21703 4322 0
-13057 -3428 0
11499 -8160 0
-19722 3963 0
-7783 -21972 0
7889 62 0
-23204 -17015 0
13432 -18624 0
-1929 -13135 0
9322 22787 0
12201 16822 0
15257 -23372 0
17668 -17326 0
4254 -11423 0
-6235 13362 0
-3910 -5961 0
-1125 1863 0
-458 1147 0
8343 -641 0
-20388 21890 0
4393 20192 0
20157 6072 0
22110 -9915 0
-9862 -15063 0
-17009 -22415 0
151 -2561 0
-3586 -18180 0
11702 9679 0
19313 -21424 0
5188 -20747 0
18088 1056 0
-19321 -7353 0
-14429 -22862 0
-20126 4782 0
-20879 -11457 0
19750 9013 0
-11309 -12212 0
-20658 -10112 0
13142 -6972 0
406 -21118 0
-5256 -6801 0
197 9970 0
-14346 16837 0
-11979 6162 0
-6894 -16830 0
22655 17305 0
16038 19911 0
-6279 1412 0
-10346 11477 0
8381 -3414 0
-15828 -21466 0
16911 17277 0
7535 4806 0
22641 2969 0
18424 1130 0
-19517 -17953 0
-2050 -20050 0
77 9926 0
-12882 7840 0
-9522 -1393 0
10129 2664 0
-3314 969 0
-9862 364 0
-16064 -11548 0
19947 7468 0
22888 19573 0
21727 -5268 0
17866 8815 0
4389 -22104 0
-11656 -18302 0
9243 22310 0
-18658 12728 0
-17117 4901 0
-7087 -12261 0
3320 7213 0
-712 6804 0
-10002 -9232 0
17434 14628 0
-6761 -12229 0
992 19066 0
-1259 3651 0
-6326 11034 0
-12438 -1259 0
2238 3247 0
-14105 -8234 0
-10364 -20219 0
-6745 2448 0
12854 13456 0
-23189 13087 0
279 16795 0
-1192 13271 0
2343 9098 0
17396 -23625 0
-8060 18207 0
-15943 -21274 0
-12337 22711 0
-3233 -13450 0
-10057 -23214 0
10347 -10522 0
16001 17664 0
-1341 1798 0
-8422 5772 0
15432 -17705 0
336 -12068 0
18974 16338 0
16604 2622 0
-16559 8999 0
-11419 -16173 0
17018 -11200 0
10179 23026 0
21538 -4109 0
13974 -9854 0
-7769 23126 0
-18983 -4081 0
7606 12892 0
-13664 -8021 0
-17251 -15300 0
2859 -789 0
-12475 -6573 0
2329 -15424 0
-6420 5178 0
-16340 -21931 0
5496 294 0
-11384 -18147 0
6590 -18365 0
13798 6016 0
-19109 -3170 0
-15361 -19452 0
-10864 -15366 0
-3808 2489 0
-13923 11408 0
11324 -18721 0
-23647 -10596 0
13222 -23176 0
-9115 13024 0
10188 19465 0
17451 7198 0
-2908 -4484 0
10485 21291 0
-3935 16442 0
8068 -6815 0
2297 5562 0
-38 -14868 0
13390 -23255 0
18837 21731 0
10495 -11205 0
2479 -19899 0
-10061 4453 0
-1409 14655 0
14540 -12474 0
12325 -9199 0
-12573 15851 0
15312 -22074 0
2064 -9329 0
-23192 4508 0
19468 -7763 0
19882 12349 0
-17741 -18079 0
-2987 -14592 0
4407 -13077 0
4697 -11555 0
-16210 -1822 0
-21879 -13470 0
-17454 -2407 0
22468 3968 0
-1094 -6004 0
10931 17679 0
-1548 16581 0
2297 9101 0
12889 -6818 0
-5513 14858 0
22845 -22816 0
-23411 5664 0
5747 -20439 0
-17913 -20253 0
-17607 4204 0
6399 4503 0
6628 4934 0
19124 15547 0
11419 21058 0
10766 4907 0
23718 8792 0
22119 -13418 0
-22074 -14143 0
14338 -19337 0
21682 17941 0
17461 -17382 0
18521 22209 0
-3627 -14570 0
-3671 -22442 0
-3196 -21052 0
21256 23414 0
2605 -22757 0
-8497 -17198 0
3246 -4408 0
-6335 5877 0
-16142 1826 0
16215 -13698 0
15346 5291 0
13955 22006 0
-14373 20298 0
-4457 -4246 0
17773 19998 0
10449 22733 0
2674 22843 0
-15773 -3254 0
13964 19519 0
4492 12543 0
-18174 -12473 0
22863 -19812 0
-8653 16585 0
-10380 -13970 0
13012 23280 0
-23738 16581 0
-1621 -15413 0
4017 12661 0
22717 3356 0
23484 -5096 0
10410 8660 0
-17772 3732 0
4990 20818 0
-20957 -15915 0
-19307 4502 0
-2967 16105 0
18392 -6829 0
7701 8622 0
-4621 -20740 0
20541 -18283 0
-13249 11587 0
-5433 -22037 0
15962 13196 0
18234 -396 0
10150 15095 0
-15825 -4565 0
18373 20845 0
490 11946 0
8401 -22015 0
-20224 -14465 0
21700 7885 0
-3824 -9636 0
-9535 12716 0
-8363 4673 0
19568 -21625 0
-17931 20877 0
-9881 18084 0
-20180 21010 0
-15699 2238 0
-16643 -3146 0
12466 -13480 0
-20737 10732 0
17097 -803 0
7634 -9643 0
6829 14429 0
-10968 4024 0
14260 22326 0
9544 -6444 0
-13130 -23232 0
-10328 -21628 0
17042 -4067 0
-21430 3879 0
-2747 4032 0
-945 1374 0
13576 -7198 0
-7738 20607 0
-22603 19252 0
-16062 -13322 0
-21486 7386 0
23296 19912 0
20059 7660 0
13839 -22981 0
5969 12135 0
-5874 16353 0
-6261 -15254 0
-21122 14801 0
-21685 860 0
2411 8903 0
8733 -5137 0
-14241 -16329 0
-1733 -19198 0
-347 10952 0
18416 2099 0
-20184 -11692 0
20475 -12591 0
18234 -12332 0
9835 15017 0
6935 -18393 0
943 21492 0
-4804 -20137 0
13946 157 0
761 -16321 0
1020 13322 0
-9334 11927 0
12720 -9937 0
15016 3332 0
-19248 2385 0
-11620 -16161 0
-883 -19937 0
-10659 19797 0
2746 -5545 0
-20223 3438 0
2533 21677 0
1496 12555 0
-14725 12891 0
-2376 17187 0
-20579 5876 0
12188 8442 0
-23533 -23037 0
-17025 -19084 0
14811 15145 0
-4490 7785 0
14354 -17842 0
-10754 19278 0
1952 -23292 0
-15083 13773 0
10299 -9910 0
-8910 13612 0
-20046 20327 0
6793 -23763 0
21365 -20677 0
18498 15895 0
21215 3467 0
14514 23194 0
-1962 -10359 0
-23191 -14864 0
-11716 19924 0
14094 19537 0
9805 -20771 0
-11748 9756 0
-18074 -21855 0
17682 20513 0
-148 -15905 0
4753 -8040 0
18840 -23295 0
-4392 -4272 0
22748 18232 0
-263 3277 0
20486 -23538 0
1534 -19781 0
-16307 17817 0
1557 -14785 0
7572 7359 0
19509 16183 0
18777 -2525 0
-3102 11341 0
23713 15236 0
-2895 -10061 0
12771 10032 0
-10089 23249 0
-6092 -3786 0
-1806 -9942 0
17771 -5742 0
-17156 69 0
-6329 -16439 0
10318 -23323 0
17000 -10923 0
-11285 -172 0
16428 99 0
-6442 15922 0
-16613 -2466 0
-14205 22999 0
-8423 19591 0
-19345 9086 0
-10163 22506 0
12916 -12759 0
-21271 -19024 0
-23613 12478 0
16945 7962 0
8285 -6676 0
-12822 -23219 0
20327 11442 0
7312 -17706 0
-21715 17949 0
-9110 -19231 0
-11294 8927 0
-5339 10885 0
18992 -23705 0
23370 -3163 0
8375 21684 0
-12220 10838 0
22625 22417 0
-664 5144 0
-21492 -11698 0
-6285 5135 0
-14304 19642 0
-16760 -19892 0
497 1412 0
21091 -13354 0
-4507 21570 0
11480 -3198 0
-7341 508 0
-22151 12694 0
3941 -19702 0
-13237 3150 0
19981 13006 0
23453 15320 0
1236 20520 0
1961 -5531 0
15244 23328 0
5700 -11732 0
-888 -12378 0
3514 8983 0
-16263 17068 0
-5416 5641 0
-2182 1906 0
8048 2710 0
5725 11652 0
-23485 3166 0
9626 22491 0
-17776 -2061 0
-21567 352 0
-17423 1058 0
-18603 -23388 0
23476 6228 0
-18611 -207 0
-13648 21497 0
-15849 -19380 0
611 -15173 0
10826 17319 0
-15484 -8440 0
-3030 21436 0
14511 12133 0
-19230 17781 0
21863 15663 0
13126 11843 0
-237 22934 0
21410 20581 0
-452 6779 0
561 17688 0
5554 -2153 0
470 -12717 0
405 17911 0
2294 6981 0
-11157 18539 0
14394 -21638 0
921 -12007 0
-13034 -6647 0
1908 -7571 0
-22276 14441 0
-1983 -6211 0
-23306 -15299 0
-17574 -50 0
15255 8441 0
14238 -15543 0
-23751 20657 0
21663 12716 0
-19848 -1771 0
-15840 13400 0
-20179 -1347 0
2381 9117 0
-13837 -4157 0
-12733 5052 0
-20408 -11716 0
6068 -7698 0
10845 7482 0
-5605 19227 0
21423 10860 0
-19815 15774 0
23226 18471 0
15892 -12335 0
7718 -3368 0
-3663 3849 0
-18668 -5299 0
-18274 -13398 0
-17169 17746 0
13616 23303 0
2988 21808 0
12407 -2115 0
-18646 -3044 0
-7813 5087 0
-13931 -22604 0
4481 3965 0
16403 17634 0
-7299 20670 0
-1196 16052 0
-15278 -9887 0
-12603 4508 0
-7888 -3640 0
-184 5747 0
-22573 -6501 0
1429 6002 0
9637 329 0
-1169 -1766 0
-4538 6824 0
18792 12548 0
17870 18087 0
16732 21193 0
-3660 -7017 0
-14105 -5154 0
-17145 2842 0
10043 13355 0
5348 18906 0
-3334 -13028 0
23032 21237 0
-1535 -14591 0
9386 8693 0
17553 -16904 0
-18914 23328 0
-6382 15094 0
3836 -16861 0
-5903 5127 0
6903 8657 0
16832 8982 0
5855 -14332 0
13553 13381 0
13787 -13253 0
-1269 -21734 0
8068 -13624 0
-20587 -3571 0
-16007 8023 0
-17730 488 0
-17148 14491 0
-12406 8889 0
10562 13291 0
19997 -840 0
22314 19574 0
21620 -835 0
-16779 4997 0
-17040 -18883 0
-3171 10441 0
-14416 -543 0
-5296 1795 0
4555 -5091 0
2489 -6561 0
-9928 -23478 0
3451 17616 0
20559 -10476 0
2593 -20949 0
9850 17296 0
6938 -15121 0
10621 -1862 0
5824 -8772 0
-21067 -3749 0
-16284 20980 0
5823 -4255 0
656 491 0
-5365 8513 0
1644 19040 0
7254 -5648 0
-6737 -6306 0
-4133 6127 0
15386 -15251 0
13898 2719 0
-19459 3926 0
17392 1625 0
11685 8413 0
-8444 -5823 0
-15717 10024 0
7759 4879 0
21861 22586 0
-20431 17064 0
1535 8851 0
-20399 18151 0
-17592 21096 0
-2637 15851 0
-4445 -5296 0
7957 10320 0
-20374 8251 0
23239 -20293 0
11189 13635 0
9560 -19828 0
13162 -8604 0
15418 18585 0
-19200 -19689 0
23084 16876 0
-21342 -12527 0
-7428 11849 0
51 21972 0
12532 -20421 0
22619 -14706 0
19033 -23323 0
-12234 -590 0
-494 16046 0
-10394 -471 0
18865 -2814 0
-15246 -6413 0
-5577 -13500 0
-23586 20261 0
2600 -1219 0
6751 -20028 0
9309 -23393 0
-17518 22098 0
18633 -6598 0
10642 11817 0
23060 8129 0
-2422 7088 0
19588 18992 0
-3393 12889 0
-22303 -17945 0
-8572 -18691 0
-3753 -22596 0
20347 -22165 0
-12430 -7694 0
-8827 -1741 0
4107 17450 0
-17077 -6371 0
-19161 13902 0
16655 3803 0
21454 -12804 0
4013 20651 0
11947 623 0
6289 -14442 0
-13247 15869 0
7930 6933 0
-2159 21965 0
11898 -18250 0
-10325 -21606 0
23583 -16187 0
-15074 -18898 0
23061 -11268 0
7762 -14642 0
14327 -17591 0
-16101 12622 0
-5594 2374 0
15456 13701 0
-19034 -11158 0
-21288 -22920 0
-1075 18035 0
13062 -23550 0
-5308 -19459 0
4388 1503 0
23323 -14792 0
21756 -11858 0
9366 -11733 0
-17241 -1369 0
-9172 -15262 0
14072 4636 0
3366 16565 0
17435 22545 0
-3327 18370 0
23511 -19638 0
9593 6741 0
16229 -12332 0
-182 12771 0
-10877 -17465 0
-6350 -1924 0
4478 18164 0
15325 -12316 0
13915 20228 0
-17279 148 0
-16279 -22869 0
16948 14233 0
3915 -20102 0
-15406 -5097 0
-1787 -17771 0
-20444 -8140 0
-21458 16930 0
-9925 15090 0
-2490 17663 0
13494 -10127 0
3778 16353 0
-18142 -3953 0
14440 6085 0
-8728 -11056 0
-3323 -16095 0
10953 8160 0
-15138 11745 0
8243 -15562 0
-17070 -12609 0
-23288 -8267 0
-18283 1340 0
-9316 14865 0
21061 16394 0
9843 16703 0
5657 -19554 0
10786 16814 0
-6331 19633 0
21477 20466 0
603 12363 0
-17351 -6666 0
-3997 23240 0
-208 13335 0
-5111 -10713 0
-22737 2202 0
-20545 17459 0
2614 3942 0
7002 -6766 0
-13362 20543 0
913 20618 0
-1242 -19530 0
3662 -22176 0
-17415 -16058 0
-14191 -14155 0
-14918 -560 0
-15776 -14175 0
-367 14569 0
-14522 -16682 0
-18810 -22651 0
-19460 -19181 0
8605 16210 0
-9726 20904 0
-10509 2471 0
-14048 14803 0
-21083 6583 0
-18261 -5327 0
-11752 16159 0
-19307 5388 0
21951 9910 0
-6978 10222 0
20820 17256 0
-50 -369 0
621 21140 0
-13860 13709 0
13957 9056 0
4317 21866 0
1623 -17929 0
-12364 745 0
1541 -9063 0
-16807 7229 0
8448 -14000 0
-22856 -11762 0
-19054 21032 0
-22671 -8837 0
-8387 -6340 0
-3299 -15693 0
5608 -19890 0
17310 -8368 0
-4085 13122 0
-5528 5426 0
14742 7156 0
10341 -19001 0
4374 20053 0
-14935 -18474 0
17287 6747 0
18848 -5081 0
-23363 -22384 0
22510 -14693 0
-7566 -8311 0
-12591 11730 0
-14546 -19240 0
-2825 -16580 0
17360 729 0
-4652 16656 0
760 -21289 0
-10268 9866 0
11181 7265 0
-13673 5938 0
18586 16787 0
-15731 3547 0
18928 -4194 0
17611 -21478 0
-7120 -9144 0
-5067 -17808 0
-2378 7575 0
-22419 -15507 0
-12941 -15588 0
-22685 -5775 0
-9289 11765 0
12936 -10191 0
970 -21477 0
-1665 -4504 0
7193 -8427 0
-1200 -22334 0
-7409 -15182 0
7216 21436 0
-14201 -3248 0
10872 12765 0
12013 23498 0
-1040 17134 0
-17241 -21663 0
20109 -11917 0
-16156 -19329 0
4379 -5322 0
22877 -9236 0
14921 1621 0
-13562 17013 0
-3232 -1872 0
-9653 5231 0
-3373 4439 0
1789 -5737 0
-9505 -22961 0
-19801 6140 0
-21456 9946 0
12167 8286 0
11095 1464 0
-13859 17621 0
16893 2929 0
-20673 2562 0
-4271 22800 0
1663 -21968 0
16288 8668 0
11299 -6442 0
4238 -2636 0
13984 -1917 0
-5663 15328 0
-2465 12604 0
9888 -23237 0
5651 -524 0
22315 18250 0
-21621 3266 0
-17748 13147 0
6539 -12762 0
2563 -16717 0
6563 -10416 0
9084 -23318 0
-8126 -9174 0
6146 11610 0
12890 10465 0
-22186 -14704 0
14572 23024 0
-22776 -886 0
4686 -13982 0
17347 -21604 0
-7559 -1553 0
-4301 -6892 0
17309 -8328 0
-10905 21486 0
7340 7353 0
-22176 895 0
4274 10307 0
2095 12096 0
22783 17537 0
19523 12401 0
-17683 6001 0
10602 2828 0
-14276 5093 0
-275 -11738 0
-17315 -8088 0
18014 21844 0
13744 23730 0
22950 -21964 0
-14858 -15907 0
19987 15779 0
4274 7522 0
-16138 -21932 0
-14205 -7387 0
17070 -17103 0
-2583 14093 0
9345 -22748 0
-16986 17158 0
23443 -6299 0
14978 20994 0
13279 16872 0
-1062 5550 0
-2502 -608 0
22961 9028 0
19602 -19700 0
-5186 -10457 0
-16668 4662 0
70 21990 0
21392 20871 0
4577 -22157 0
1116 6747 0
3366 1284 0
-16936 2492 0
11371 -23702 0
6590 -421 0
-2578 13170 0
-209 -19161 0
-21608 -6357 0
-10480 13759 0
-14632 -21953 0
-22013 21285 0
12295 -13656 0
-9444 14578 0
-8452 -4774 0
3250 -5961 0
11126 -7776 0
18533 -6430 0
11235 22839 0
-2356 -9952 0
-13163 -6407 0
-20223 1852 0
9344 4822 0
21472 -4917 0
11442 23196 0
1820 2894 0
13863 11706 0
-9005 20511 0
-10370 -16957 0
18216 13365 0
-10839 -20277 0
19013 10653 0
-11960 -23588 0
-22377 7110 0
-21410 257 0
-21931 -18903 0
4130 2686 0
-9594 -12910 0
-4535 -19485 0
13393 -11679 0
16774 -2474 0
23442 -17384 0
-975 19290 0
-5097 -7380 0
-3589 -4862 0
-14407 -9253 0
-11008 5595 0
20666 847 0
-19912 21774 0
-17679 17647 0
23750 4027 0
-17584 -22495 0
-2256 -5244 0
11302 -2491 0
-11047 11120 0
-4942 3647 0
10689 -3380 0
6392 -841 0
13892 -1031 0
21624 22066 0
-8234 -4038 0
12178 17000 0
-22218 -441 0
15817 -8657 0
-8795 -16241 0
-1001 300 0
7021 -17034 0
-15305 7930 0
3175 -3257 0
-3831 15861 0
8258 13594 0
-3776 9151 0
19235 -16068 0
-19180 2439 0
8898 -4878 0
22691 20753 0
7478 -14541 0
-3721 -15070 0
-21362 15224 0
12095 -16546 0
21622 2777 0
12323 8540 0
-16328 -10048 0
-18021 -13609 0
-15392 6612 0
1801 -4810 0
13767 -1077 0
-21162 16635 0
-17435 6250 0
20495 4205 0
-21371 12698 0
-22869 -12815 0
2117 3663 0
829 13422 0
-4395 -20445 0
-5465 -4466 0
-8524 8253 0
6456 16248 0
19630 6460 0
11644 6228 0
-1828 11764 0
8295 -7784 0
-14025 14783 0
11969 7884 0
22962 8227 0
-16415 6530 0
-14228 20551 0
-1603 15512 0
-5256 -19947 0
22574 17323 0
-7241 -5128 0
19363 -22821 0
-15713 -12301 0
-17892 4176 0
-192 22717 0
-11577 12924 0
-15493 16762 0
10007 10866 0
-20866 -7251 0
-2933 -17799 0
-4784 7104 0
-18723 -20246 0
10651 16006 0
7147 -18508 0
2379 -18487 0
18006 3183 0
-20508 -20783 0
7347 7071 0
1451 -15108 0
-23366 5157 0
-2951 1891 0
23647 14554 0
10711 -3220 0
8218 -9222 0
8428 -13662 0
11416 11165 0
-1911 13251 0
-331 -16184 0
14002 -4979 0
14041 -13753 0
-22474 699 0
20741 -15704 0
-3951 -23383 0
-2636 -22221 0
-17003 -22493 0
340 -23223 0
17968 -21075 0
-6375 285 0
-701 5223 0
-3906 -2189 0
-450 4516 0
9929 -18749 0
-12936 12709 0
-6316 9390 0
11607 15314 0
-15 -10149 0
14969 -20342 0
-1653 -15635 0
-18235 10825 0
22541 4079 0
-23430 -209 0
-16674 17891 0
-10311 -14941 0
19569 -15369 0
-17003 8813 0
6114 -21308 0
15300 -1642 0
-18358 2073 0
179 -8986 0
18290 -12281 0
-8761 23730 0
-20941 19833 0
-6468 -7486 0
17116 -15073 0
22346 -6370 0
694 -3944 0
-617 6575 0
-8004 9352 0
-21241 6272 0
5498 -22751 0
9195 14832 0
9206 -2084 0
-15568 13140 0
-19149 6151 0
-20282 -12581 0
5272 16441 0
19597 -2783 0
13368 -17972 0
-3066 -1536 0
-17979 5224 0
6763 8963 0
-16723 22830 0
15348 -10007 0
-13681 13536 0
2566 -186 0
10202 -20365 0
-7897 -6750 0
-11416 15356 0
-11515 -6240 0
-4233 6682 0
-1814 17397 0
-2157 -12823 0
10028 14058 0
20314 -7067 0
-11724 -8414 0
15731 -3337 0
-2502 -4881 0
8966 -100 0
17065 -18735 0
49 3319 0
274 -8185 0
20691 -6698 0
-17490 4785 0
-2696 -741 0
-11502 -278 0
7266 193 0
16177 -12023 0
21722 -16861 0
8527 -19007 0
20637 17135 0
5332 22882 0
-12820 -7763 0
9718 -16987 0
-15582 7159 0
-1137 -11179 0
-2215 -7535 0
5961 2655 0
-13990 -19455 0
-14122 5794 0
2019 19554 0
19111 -22678 0
20404 -9360 0
-8714 3809 0
274 -8926 0
-20032 19987 0
11330 -20220 0
-20626 -10791 0
-18474 18496 0
5665 9021 0
9986 10620 0
-10477 -23038 0
-9713 95 0
-4089 18834 0
36 -23764 0
-13647 -9998 0
17169 -14997 0
-17822 16097 0
1606 14188 0
17262 4614 0
-20005 -16197 0
-10899 -10113 0
-17627 12480 0
12457 -14884 0
11309 2302 0
-17408 -21997 0
-20088 -13437 0
-8320 13002 0
12253 5173 0
18614 15466 0
12916 -10043 0
5222 3515 0
2892 18347 0
-22969 -3675 0
17483 -12804 0
23670 -19650 0
-20211 11852 0
-1847 9862 0
17480 -8032 0
3458 -12781 0
19147 -19432 0
6940 -5891 0
20650 19048 0
14257 19957 0
9017 -17533 0
-22230 17221 0
-12630 5571 0
-12678 -19565 0
19427 16434 0
-12856 9667 0
-14520 -9878 0
-20236 15211 0
-15485 -23179 0
2003 -6389 0
-5497 1399 0
