c NF
p cnf 1000 1800
218 679 0
342 -806 0
579 -806 0
784 850 0
833 891 0
-793 152 0
-880 149 0
179 818 0
-16 135 0
332 -603 0
272 54 0
-539 117 0
-797 460 0
516 -463 0
-745 -803 0
988 659 0
491 -868 0
703 -111 0
-76 921 0
152 623 0
282 -640 0
-612 -544 0
-620 518 0
719 813 0
-441 463 0
-348 -848 0
426 748 0
438 -321 0
-157 -977 0
852 94 0
-99 -443 0
-62 570 0
-363 421 0
-992 -295 0
592 107 0
494 673 0
-866 -359 0
-781 286 0
866 575 0
-30 -185 0
-348 944 0
186 891 0
146 -72 0
765 544 0
-465 430 0
-320 -379 0
54 -905 0
633 773 0
-279 -454 0
622 -453 0
221 774 0
-441 -114 0
-684 -540 0
405 -226 0
309 210 0
783 -262 0
-123 -8 0
-133 -180 0
-573 -513 0
407 883 0
20 471 0
590 -440 0
-118 -297 0
-990 333 0
-707 -852 0
865 448 0
-604 -447 0
406 -892 0
342 227 0
649 523 0
928 -795 0
982 -745 0
-150 -106 0
617 -178 0
182 -975 0
773 -578 0
-995 885 0
-451 -70 0
-311 -647 0
361 520 0
463 -473 0
-852 -378 0
-661 885 0
474 595 0
-931 830 0
488 620 0
-106 -462 0
662 517 0
254 -725 0
537 536 0
382 -940 0
-794 -419 0
-647 -809 0
338 -97 0
259 742 0
84 597 0
-991 318 0
-610 726 0
-386 -573 0
-687 720 0
521 371 0
317 185 0
-785 971 0
141 232 0
865 -303 0
678 345 0
167 158 0
-739 449 0
374 693 0
-292 -626 0
547 -245 0
-926 856 0
695 -970 0
-788 -289 0
166 -990 0
894 257 0
381 -896 0
-292 86 0
461 928 0
94 970 0
906 358 0
-406 -55 0
-84 -396 0
29 327 0
150 -811 0
-940 -294 0
778 -723 0
6 -631 0
263 221 0
-795 114 0
125 -309 0
-655 430 0
-857 114 0
528 -648 0
299 440 0
-585 247 0
681 685 0
70 977 0
-895 482 0
-383 260 0
-70 -808 0
-751 673 0
-137 -46 0
-834 659 0
491 -713 0
-734 -65 0
207 301 0
-908 -43 0
528 -408 0
-38 772 0
-366 883 0
280 -128 0
-911 -410 0
-348 998 0
-709 -510 0
-85 -821 0
-441 617 0
329 106 0
-677 -303 0
-735 618 0
-707 -455 0
44 -745 0
655 282 0
-688 -653 0
821 526 0
-870 -147 0
130 69 0
393 371 0
-696 -461 0
782 455 0
543 -376 0
286 666 0
-27 754 0
-531 397 0
-267 794 0
-293 627 0
-126 139 0
-921 -177 0
830 -699 0
727 -67 0
872 162 0
230 521 0
-812 143 0
-27 -370 0
565 823 0
68 -317 0
-421 -539 0
-996 129 0
-478 461 0
849 -900 0
515 -444 0
-157 -531 0
-166 331 0
-964 971 0
-202 257 0
311 -641 0
965 -607 0
-640 675 0
885 846 0
-972 47 0
-586 -786 0
-510 -911 0
495 -251 0
75 -465 0
-451 -426 0
-209 349 0
-883 -736 0
-999 409 0
528 576 0
-248 478 0
254 461 0
-52 -298 0
255 986 0
-592 957 0
782 -164 0
-511 -901 0
-24 -93 0
-990 247 0
-50 -52 0
-612 -904 0
-550 9 0
138 -904 0
-413 783 0
411 53 0
-567 296 0
-462 517 0
132 999 0
-383 -814 0
774 148 0
42 -513 0
141 -731 0
468 -532 0
-954 -336 0
403 -632 0
520 -849 0
-487 836 0
340 690 0
-598 316 0
991 272 0
-598 492 0
842 -152 0
971 -587 0
20 -452 0
156 423 0
-794 514 0
723 142 0
679 -490 0
980 -178 0
-560 -363 0
197 981 0
-572 306 0
790 296 0
-325 -492 0
295 -125 0
-839 354 0
44 295 0
-947 -453 0
220 -207 0
112 141 0
686 -52 0
54 -103 0
484 735 0
6 988 0
-669 -958 0
-667 -205 0
662 293 0
588 -668 0
-936 944 0
858 -904 0
-407 -857 0
-767 960 0
10 306 0
-466 -292 0
872 -517 0
-198 829 0
167 -749 0
-736 191 0
303 -810 0
-626 -877 0
528 336 0
98 -686 0
332 489 0
-268 393 0
772 -274 0
-597 741 0
369 -670 0
684 -122 0
-416 164 0
-655 -939 0
227 630 0
-490 -157 0
-719 426 0
-781 254 0
-721 -541 0
578 940 0
561 -849 0
-336 -169 0
-211 697 0
-523 -921 0
-465 -136 0
578 -60 0
741 -23 0
4 -837 0
-434 47 0
-555 62 0
-294 -33 0
-788 -139 0
913 -392 0
385 83 0
-183 -122 0
229 -746 0
306 -475 0
-844 236 0
-159 355 0
897 960 0
-677 -829 0
212 247 0
-35 -609 0
-251 759 0
240 450 0
-516 -144 0
836 -939 0
310 -243 0
-308 -424 0
571 972 0
570 508 0
965 -659 0
-427 -714 0
-308 386 0
247 870 0
-879 725 0
937 -60 0
571 543 0
-249 262 0
663 -81 0
549 95 0
387 275 0
193 824 0
-214 -891 0
931 980 0
960 195 0
937 249 0
-938 -246 0
-390 -478 0
-268 -369 0
-101 -823 0
937 -209 0
47 -424 0
17 -268 0
-201 157 0
-389 584 0
-564 -671 0
782 -842 0
-173 -472 0
-738 -144 0
911 939 0
868 -860 0
-7 783 0
646 -863 0
155 725 0
-467 518 0
-633 -654 0
-7 17 0
-18 -543 0
-515 -18 0
941 110 0
247 -197 0
-815 -274 0
-383 -983 0
-579 250 0
848 701 0
96 -416 0
488 -566 0
-720 176 0
-445 866 0
541 917 0
-217 -923 0
48 947 0
557 -921 0
-871 -952 0
-985 213 0
-79 -952 0
578 -247 0
774 -394 0
-764 -513 0
448 -101 0
-349 -620 0
31 -650 0
-503 -234 0
-191 -443 0
-634 -791 0
-731 76 0
158 390 0
370 -325 0
6 -966 0
-780 -369 0
136 90 0
-571 460 0
-92 -27 0
-612 -613 0
13 -299 0
87 -798 0
390 -702 0
276 -309 0
150 65 0
-283 -432 0
-802 -79 0
-253 967 0
-469 110 0
7 -972 0
-862 -636 0
-343 -451 0
-308 329 0
322 -182 0
-753 299 0
334 -386 0
117 374 0
699 787 0
966 726 0
-817 299 0
690 512 0
-248 259 0
-809 387 0
-613 -491 0
-38 557 0
112 788 0
-171 663 0
991 -771 0
-109 11 0
228 523 0
-401 -384 0
-26 -354 0
426 -303 0
-852 964 0
-352 320 0
534 -495 0
-100 -449 0
308 69 0
-870 -24 0
820 694 0
529 179 0
-437 574 0
415 -817 0
-656 -674 0
-30 756 0
-440 -607 0
722 220 0
721 771 0
-819 893 0
-202 334 0
-269 -687 0
-398 -612 0
-361 -357 0
-690 -834 0
-138 689 0
313 245 0
-383 711 0
429 611 0
-191 -434 0
-569 -171 0
-144 -192 0
-55 635 0
497 140 0
-987 -576 0
-702 -504 0
172 -501 0
-815 780 0
-34 282 0
173 -800 0
524 563 0
-794 275 0
-737 779 0
-436 105 0
-896 -34 0
-357 883 0
121 -887 0
-831 -756 0
631 170 0
-834 212 0
-546 288 0
-721 -300 0
879 -976 0
-769 986 0
888 -284 0
-150 -256 0
780 -864 0
-146 -592 0
463 385 0
413 -528 0
-466 -974 0
-596 3 0
-681 -651 0
-548 -815 0
-992 440 0
275 -331 0
561 592 0
352 -808 0
-642 -102 0
128 952 0
-1 468 0
706 932 0
-896 163 0
-370 -671 0
681 381 0
-641 406 0
672 -440 0
-219 -2 0
136 608 0
-9 10 0
-881 433 0
-235 -73 0
826 -749 0
-377 -321 0
793 -392 0
544 -71 0
360 -451 0
-422 -942 0
919 89 0
771 -127 0
-440 -987 0
284 254 0
-616 -567 0
-868 869 0
-531 622 0
662 -303 0
396 -507 0
654 512 0
-957 -370 0
397 -882 0
-560 700 0
789 978 0
602 70 0
221 41 0
519 -294 0
412 -719 0
-86 -285 0
944 524 0
-335 -550 0
-716 318 0
60 251 0
-119 465 0
760 683 0
725 13 0
168 -509 0
-171 381 0
908 -751 0
-344 -827 0
-66 537 0
-467 -509 0
512 880 0
262 -162 0
759 234 0
884 -880 0
48 -484 0
154 -943 0
-823 -567 0
-330 -255 0
-278 846 0
515 -123 0
-229 824 0
-71 -899 0
-793 -866 0
-567 89 0
-378 -206 0
-758 638 0
-606 -378 0
923 -751 0
-955 7 0
-555 239 0
-974 344 0
-756 870 0
211 543 0
985 504 0
287 -729 0
944 -238 0
998 -470 0
-137 518 0
-607 582 0
988 679 0
299 -268 0
718 -852 0
279 -464 0
208 967 0
160 109 0
-322 -478 0
-549 367 0
-475 -316 0
-162 93 0
-856 221 0
94 729 0
406 526 0
840 267 0
-415 -975 0
474 -97 0
13 125 0
134 -203 0
703 646 0
833 940 0
-203 -67 0
-927 95 0
-965 44 0
173 -947 0
-509 -31 0
363 -177 0
-287 282 0
-36 629 0
-422 -511 0
-287 90 0
205 430 0
-392 -801 0
-558 -801 0
-935 -580 0
277 185 0
-612 225 0
60 -829 0
599 -786 0
103 254 0
836 547 0
590 -867 0
860 -958 0
-243 -607 0
-936 606 0
582 971 0
-857 -830 0
503 -180 0
239 -58 0
-540 490 0
629 940 0
-349 735 0
23 61 0
-114 -793 0
-722 -383 0
-310 345 0
1000 -162 0
-665 325 0
-229 682 0
-752 -315 0
182 747 0
790 872 0
326 617 0
960 509 0
764 80 0
328 172 0
-12 -458 0
-256 710 0
806 263 0
-50 -396 0
-993 -171 0
903 -388 0
-849 104 0
463 167 0
302 -21 0
-975 108 0
-910 175 0
750 77 0
-629 -609 0
442 966 0
161 55 0
211 998 0
-714 -568 0
244 -305 0
-586 403 0
-56 370 0
-302 90 0
27 -100 0
654 299 0
-865 -119 0
-501 -483 0
-558 658 0
-380 -907 0
-192 457 0
-477 -451 0
276 858 0
714 771 0
-353 -685 0
-567 -63 0
-549 989 0
-488 307 0
875 -925 0
-973 124 0
172 972 0
-44 130 0
446 700 0
-855 -610 0
745 -933 0
-398 -570 0
-283 -878 0
-718 -806 0
154 425 0
948 109 0
-889 -549 0
-271 -393 0
39 -177 0
-634 148 0
-911 406 0
-51 -764 0
-919 382 0
-838 -813 0
-864 -288 0
890 -996 0
-308 -998 0
-747 276 0
193 453 0
-497 759 0
811 528 0
-727 319 0
872 -800 0
897 -198 0
-34 -256 0
941 370 0
-378 -844 0
946 -651 0
-248 -382 0
182 -984 0
-168 353 0
-29 -292 0
875 167 0
663 231 0
420 -668 0
934 -486 0
821 616 0
259 -623 0
-434 -917 0
471 259 0
-694 310 0
-8 -524 0
306 701 0
66 -345 0
-883 -284 0
154 193 0
825 -878 0
-698 144 0
-303 -266 0
755 -398 0
-352 744 0
929 -964 0
866 175 0
-100 483 0
-743 828 0
-671 92 0
-229 -763 0
-808 -909 0
267 -600 0
-121 872 0
-888 650 0
-911 200 0
-306 543 0
875 -892 0
-206 -351 0
324 -147 0
500 341 0
650 60 0
215 -281 0
805 -502 0
630 -445 0
-440 -989 0
5 39 0
-15 973 0
693 -19 0
232 -711 0
-133 -106 0
-172 67 0
972 -298 0
445 910 0
-502 -924 0
-971 -169 0
230 234 0
23 -752 0
-376 729 0
-656 898 0
50 -609 0
-50 707 0
455 390 0
719 -486 0
-712 703 0
-431 678 0
638 621 0
921 851 0
290 117 0
204 624 0
-852 536 0
-420 -721 0
-562 -41 0
705 -956 0
3 241 0
-114 929 0
93 973 0
927 263 0
-271 304 0
833 103 0
-873 -298 0
757 -437 0
777 872 0
-873 142 0
367 -916 0
-900 751 0
351 835 0
411 -410 0
856 -395 0
908 -665 0
713 136 0
107 -427 0
186 -626 0
627 30 0
-943 500 0
-452 48 0
322 -671 0
-686 -979 0
-444 678 0
-680 355 0
847 -860 0
659 957 0
508 -873 0
-504 -770 0
-994 339 0
520 -229 0
-837 241 0
-821 455 0
-878 -511 0
510 -122 0
423 -414 0
-94 846 0
-671 -688 0
846 -373 0
-865 -466 0
-734 -673 0
100 117 0
350 -364 0
109 -719 0
-144 -505 0
626 261 0
-953 124 0
-469 845 0
-776 -111 0
-949 649 0
-469 675 0
5 544 0
-600 859 0
593 -709 0
107 -397 0
429 624 0
408 -987 0
825 -464 0
423 -617 0
755 -729 0
-215 -640 0
689 944 0
-556 -516 0
780 -361 0
-691 -766 0
14 828 0
149 391 0
-205 274 0
257 700 0
-804 -708 0
772 555 0
464 -834 0
-663 -761 0
-804 524 0
-949 -391 0
-808 980 0
-762 14 0
-890 -636 0
-649 -934 0
795 743 0
182 460 0
986 178 0
42 -439 0
-165 134 0
478 339 0
-951 158 0
-793 -955 0
-587 -809 0
-725 -803 0
189 980 0
-557 426 0
-358 227 0
-370 340 0
-771 -974 0
118 -685 0
927 247 0
699 -907 0
-938 816 0
-554 263 0
-934 -530 0
-45 499 0
527 329 0
995 -172 0
-216 687 0
856 107 0
837 663 0
-471 25 0
76 90 0
258 814 0
-933 -265 0
-462 -646 0
-18 -324 0
7 548 0
718 869 0
-951 515 0
-703 -806 0
-289 -784 0
-405 842 0
547 161 0
-401 765 0
-694 306 0
896 -567 0
-6 43 0
-216 313 0
928 423 0
-227 189 0
118 186 0
-661 563 0
-69 -688 0
203 -744 0
132 -366 0
635 -292 0
326 -498 0
-676 632 0
-580 -581 0
439 -982 0
-321 253 0
-861 -284 0
-696 -751 0
474 -457 0
565 499 0
662 622 0
847 -880 0
752 270 0
-914 20 0
605 -788 0
-267 -565 0
-375 402 0
138 476 0
515 -373 0
988 869 0
164 457 0
754 -750 0
-225 42 0
-271 -65 0
44 685 0
-481 -398 0
-665 -41 0
-721 -992 0
-593 558 0
-388 -670 0
-258 -530 0
529 -416 0
-812 499 0
514 904 0
170 236 0
154 -217 0
617 371 0
-831 425 0
494 -692 0
-216 605 0
250 -23 0
607 -588 0
525 -645 0
-171 -58 0
-982 -530 0
-737 -900 0
-222 -460 0
-225 175 0
814 597 0
-172 -742 0
605 -611 0
395 388 0
-208 17 0
621 99 0
630 -924 0
494 96 0
-919 -961 0
-380 896 0
235 -961 0
-359 604 0
-261 138 0
932 880 0
-613 -898 0
6 -194 0
-8 533 0
705 -824 0
371 110 0
-668 -600 0
876 -549 0
-283 627 0
-566 -424 0
-380 -573 0
-315 -592 0
142 754 0
802 -458 0
220 -521 0
564 -821 0
988 399 0
-844 -149 0
-66 -91 0
-380 82 0
-411 954 0
-969 793 0
450 11 0
35 200 0
-37 -691 0
1 -671 0
-283 -799 0
-405 -686 0
16 -531 0
563 -292 0
-836 -987 0
621 987 0
-953 414 0
417 -180 0
-302 -516 0
823 -526 0
-711 -454 0
-789 -250 0
-698 472 0
120 265 0
808 649 0
-820 -324 0
529 549 0
255 295 0
-767 690 0
-568 954 0
322 363 0
188 970 0
205 -755 0
272 894 0
208 855 0
798 160 0
-81 -943 0
783 878 0
381 -636 0
920 -903 0
188 -783 0
769 228 0
-539 -819 0
-963 554 0
404 882 0
1000 -124 0
9 706 0
-389 595 0
-628 371 0
-562 270 0
-483 -982 0
-511 189 0
430 -718 0
-875 -411 0
586 -185 0
-103 -834 0
-443 -569 0
150 820 0
826 10 0
512 -138 0
-308 257 0
708 -102 0
221 -834 0
-860 645 0
-763 -343 0
-369 -574 0
21 422 0
696 -889 0
-800 -292 0
690 -523 0
-911 -81 0
647 -475 0
-656 -828 0
-628 -647 0
-166 -82 0
322 -325 0
620 -661 0
-909 -456 0
172 -424 0
129 746 0
762 964 0
407 -171 0
-960 66 0
-790 -27 0
269 107 0
-671 -954 0
235 -254 0
130 642 0
-30 -36 0
885 -488 0
456 -562 0
-606 -612 0
537 -656 0
553 494 0
-453 -316 0
-160 267 0
1 536 0
-294 481 0
970 -774 0
10 -785 0
-612 237 0
-194 -422 0
-256 -168 0
-226 270 0
-641 -246 0
-665 -761 0
874 193 0
-140 297 0
-633 -464 0
329 193 0
993 -51 0
-996 -105 0
-733 129 0
93 239 0
-506 -223 0
320 -805 0
-475 714 0
864 83 0
-795 273 0
482 557 0
-918 -862 0
13 -849 0
-790 -395 0
756 35 0
790 -753 0
485 -399 0
645 163 0
-493 -260 0
909 -370 0
997 116 0
333 16 0
-123 599 0
10 993 0
705 611 0
92 790 0
-94 512 0
365 62 0
129 500 0
-572 -808 0
-751 198 0
367 742 0
-921 -41 0
-302 -573 0
581 -192 0
-480 750 0
-71 544 0
-303 -840 0
-1 -465 0
-20 -905 0
329 739 0
-537 -195 0
628 -290 0
330 657 0
675 -536 0
961 856 0
33 -895 0
197 -498 0
-585 -658 0
-639 -539 0
227 -376 0
-953 944 0
-951 912 0
-821 655 0
-572 -762 0
814 726 0
542 42 0
968 -80 0
104 743 0
198 -195 0
-768 -572 0
-785 -654 0
-682 -720 0
-171 812 0
517 346 0
-956 -361 0
866 -381 0
-744 846 0
-577 559 0
-785 -564 0
-985 -464 0
1 744 0
-611 17 0
308 7 0
877 323 0
567 -942 0
-472 39 0
-272 142 0
-263 239 0
410 -585 0
-333 741 0
500 846 0
-749 39 0
-799 -58 0
-901 -837 0
889 -953 0
-766 669 0
-56 313 0
-553 579 0
715 515 0
-52 -690 0
610 771 0
-297 -443 0
136 345 0
-586 764 0
-269 -88 0
715 -793 0
-493 573 0
668 -405 0
-249 -74 0
702 -332 0
-688 -424 0
-357 -196 0
-609 672 0
-359 174 0
46 -452 0
383 -702 0
758 -116 0
972 636 0
15 352 0
461 483 0
758 -215 0
-560 -536 0
748 638 0
-386 597 0
-62 175 0
-714 -809 0
671 -477 0
-398 -677 0
886 111 0
-905 -889 0
-390 521 0
888 497 0
-513 204 0
-41 -254 0
403 -502 0
356 -701 0
-641 310 0
832 -64 0
912 835 0
231 -156 0
673 141 0
534 984 0
247 587 0
994 -320 0
135 -556 0
555 595 0
317 706 0
1000 -931 0
70 326 0
860 326 0
-784 -327 0
-454 -311 0
193 -798 0
-27 -190 0
238 -611 0
-82 368 0
515 -867 0
189 -873 0
141 -486 0
-34 232 0
-277 948 0
688 -761 0
68 -182 0
-333 705 0
438 415 0
-321 -738 0
534 -112 0
899 847 0
-551 -532 0
397 -572 0
299 -451 0
-793 -848 0
-433 -171 0
-707 530 0
-662 850 0
513 -740 0
-798 600 0
-332 -424 0
-184 465 0
-257 93 0
751 -736 0
117 -724 0
-537 -88 0
-564 388 0
-175 -787 0
890 167 0
-788 730 0
-316 -317 0
186 642 0
984 208 0
13 -470 0
557 827 0
-244 -223 0
453 420 0
-904 -251 0
190 -51 0
358 -669 0
-875 -34 0
90 -943 0
-427 183 0
-626 677 0
-593 -768 0
96 -787 0
-920 -378 0
-777 438 0
-483 138 0
-540 338 0
215 -713 0
-586 748 0
742 -706 0
-624 -869 0
-589 -539 0
630 -577 0
828 -505 0
298 -726 0
-25 -122 0
756 869 0
-424 -47 0
826 574 0
-656 -207 0
-810 -70 0
-564 519 0
117 -703 0
742 406 0
199 -339 0
486 939 0
494 -160 0
-803 474 0
856 -534 0
549 -569 0
592 -702 0
68 993 0
861 -32 0
642 548 0
-192 610 0
-879 723 0
-279 424 0
-899 -244 0
-974 850 0
310 538 0
804 -384 0
-95 -936 0
495 -819 0
-349 -946 0
336 795 0
961 -842 0
742 -38 0
886 -731 0
955 319 0
479 -342 0
-785 534 0
-777 592 0
329 206 0
-284 -546 0
-121 -688 0
281 -162 0
638 -982 0
-556 -359 0
-966 -145 0
-176 -73 0
455 554 0
483 -30 0
-393 56 0
-402 -184 0
341 320 0
-945 998 0
-833 96 0
467 -318 0
971 238 0
882 -918 0
-402 -188 0
500 -465 0
-487 -116 0
-473 867 0
357 -787 0
416 838 0
570 666 0
-546 -473 0
636 245 0
-494 998 0
-349 -214 0
-807 581 0
-178 679 0
118 -607 0
-100 -569 0
-979 -316 0
-613 -112 0
661 -507 0
837 223 0
776 151 0
545 -299 0
201 -211 0
-584 -814 0
-938 -736 0
-9 -597 0
-873 302 0
563 923 0
-574 -721 0
289 882 0
-443 -720 0
-729 -392 0
559 -446 0
-487 143 0
-864 -947 0
296 158 0
74 12 0
-739 -907 0
140 -999 0
658 -826 0
-808 916 0
-466 -522 0
364 -394 0
-435 620 0
-868 749 0
-949 421 0
39 -582 0
-595 -116 0
-146 -748 0
81 -530 0
-484 646 0
-55 628 0
481 -465 0
432 -362 0
-172 -37 0
-645 -63 0
-53 -587 0
497 -294 0
518 -79 0
136 -631 0
264 -879 0
-619 179 0
-379 828 0
-802 718 0
186 819 0
991 -87 0
858 -508 0
-677 -244 0
-592 -216 0
271 658 0
-172 -476 0
-309 488 0
700 -723 0
-149 -269 0
-296 -950 0
324 695 0
940 -545 0
-626 -941 0
277 274 0
-671 -599 0
692 792 0
533 346 0
11 561 0
422 13 0
-457 -702 0
-291 -743 0
25 35 0
609 -962 0
981 -726 0
877 620 0
783 673 0
-713 -189 0
479 677 0
-945 -284 0
264 166 0
796 -64 0
341 -62 0
183 452 0
-206 -951 0
504 -661 0
-788 554 0
-629 659 0
266 -733 0
75 -73 0
-919 20 0
656 -669 0
-400 681 0
-338 717 0
528 -725 0
414 -447 0
-394 4 0
581 -549 0
-311 699 0
-648 982 0
-874 548 0
-471 -862 0
181 568 0
-677 -196 0
-918 -110 0
-907 -87 0
37 -144 0
-738 608 0
399 -65 0
-989 547 0
-38 348 0
-807 739 0
-217 -122 0
594 759 0
-38 754 0
-20 -670 0
719 -249 0
-177 648 0
841 813 0
175 -626 0
510 117 0
-824 -208 0
-831 -856 0
124 1000 0
988 -857 0
-178 -608 0
124 281 0
-714 173 0
250 450 0
-811 103 0
-901 17 0
8 7 0
724 -668 0
-827 -711 0
-212 -147 0
245 422 0
-185 -611 0
643 -847 0
5 429 0
121 543 0
-884 780 0
-789 642 0
199 -55 0
-702 -865 0
164 181 0
-373 -661 0
-446 -258 0
107 45 0
-162 805 0
119 528 0
-739 -456 0
-766 204 0
-113 -798 0
-243 -101 0
913 385 0
-600 -483 0
447 912 0
-625 -951 0
397 383 0
-738 -199 0
344 208 0
-709 583 0
-140 -114 0
-176 429 0
303 -908 0
994 592 0
-878 422 0
-606 -485 0
-748 15 0
-336 254 0
950 -914 0
428 46 0
-752 788 0
-404 544 0
508 -464 0
-572 772 0
973 224 0
245 -303 0
-686 492 0
-721 471 0
-475 791 0
-190 -809 0
649 -721 0
-915 -395 0
-437 304 0
-807 702 0
754 955 0
910 53 0
-375 477 0
180 -376 0
343 142 0
490 -665 0
329 -362 0
-284 56 0
-464 -354 0
-482 -727 0
377 -636 0
-906 -914 0
83 401 0
980 -982 0
283 -169 0
155 -509 0
301 427 0
-431 356 0
194 299 0
-893 822 0
422 -593 0
-498 -608 0
312 581 0
-809 -176 0
-381 -496 0
-152 -362 0
980 171 0
997 187 0
244 -166 0
-325 589 0
379 267 0
-576 725 0
353 -152 0
-553 999 0
125 943 0
954 512 0
328 -951 0
994 -757 0
-918 -486 0
-819 -579 0
-116 706 0
-143 695 0
26 412 0
-95 -366 0
657 623 0
-959 801 0
-86 -24 0
-525 1000 0
-503 326 0
408 -152 0
-396 382 0
-354 -360 0
575 -896 0
-746 -910 0
-454 823 0
826 -746 0
856 -143 0
213 -311 0
-956 68 0
7 -420 0
-570 -180 0
-205 -191 0
-568 503 0
-855 -600 0
-758 -573 0
811 28 0
-308 -269 0
-670 -682 0
504 -184 0
-123 -784 0
994 -69 0
-580 -447 0
998 711 0
525 751 0
596 167 0
328 473 0
168 -55 0
-652 430 0
299 -297 0
644 -785 0
-614 771 0
894 -324 0
-715 -702 0
-594 548 0
14 -141 0
-798 -497 0
933 944 0
159 224 0
-815 919 0
939 -472 0
-839 135 0
-320 -357 0
-453 -837 0
312 727 0
132 228 0
129 -315 0
436 81 0
20 -794 0
202 44 0
813 676 0
-931 -122 0
309 68 0
127 -802 0
-687 -190 0
93 -150 0
165 361 0
840 -102 0
-197 -733 0
773 -924 0
-947 -220 0
-715 604 0
981 690 0
-855 -364 0
220 527 0
-780 -116 0
-478 113 0
-370 -781 0
-336 -85 0
-395 -291 0
-1000 704 0
-568 -418 0
-194 878 0
-696 -962 0
-691 14 0
449 406 0
-405 -147 0
948 760 0
-373 999 0
-610 -206 0
239 -859 0
286 -784 0
365 -488 0
524 286 0
-111 -126 0
237 -510 0
756 -102 0
695 -511 0
-620 -392 0
637 -311 0
-677 -770 0
-207 -301 0
-268 517 0
-976 783 0
-902 937 0
461 -323 0
37 471 0
-676 571 0
504 442 0
-399 -733 0
583 -692 0
576 -488 0
-401 -270 0
632 -693 0
63 329 0
132 -858 0
-829 760 0
-390 -100 0
-422 -366 0
251 678 0
320 664 0
-890 313 0
-21 174 0
-472 -674 0
-21 -274 0
-325 -387 0
-101 -587 0
-708 692 0
-515 -509 0
630 -307 0
509 -207 0
295 272 0
412 -588 0
735 865 0
280 -69 0
-215 356 0
517 -824 0
-553 680 0
425 -412 0
782 -688 0
643 721 0
-219 -677 0
-654 960 0
535 -206 0
-152 247 0
-865 -446 0
851 -881 0
867 -423 0
-165 662 0
245 416 0
197 29 0
-476 -498 0
928 663 0
280 164 0
-809 -265 0
660 873 0
21 -802 0
-617 322 0
923 -979 0
-688 674 0
860 966 0
115 585 0
906 -509 0
-615 -126 0
-599 853 0
434 -958 0
110 180 0
-419 -451 0
-547 -503 0
-325 -559 0
-253 700 0
-372 -487 0
661 -22 0
-708 940 0
-566 -394 0
832 -925 0
-454 -879 0
932 -984 0
-309 93 0
-216 881 0
-325 -647 0
-281 888 0
-483 -755 0
433 735 0
-716 268 0
-431 -617 0
29 -712 0
455 -646 0
411 -205 0
85 590 0
-256 529 0
-812 -962 0
-490 895 0
-178 -704 0
204 -87 0
-403 187 0
971 -22 0
-92 929 0
719 -269 0
