c NF
p cnf 1482 2668
663 1055 0
1041 -1341 0
33 -549 0
579 1459 0
1133 -69 0
-695 772 0
-1062 1314 0
378 1300 0
141 -200 0
-622 1165 0
1304 281 0
596 -881 0
296 529 0
-1404 -1446 0
813 326 0
-548 -1274 0
1227 154 0
1186 10 0
502 459 0
-887 -757 0
1015 1466 0
-726 801 0
433 -47 0
118 621 0
596 1330 0
-555 721 0
-1447 296 0
261 -267 0
967 -303 0
522 790 0
847 203 0
-744 -1004 0
813 1115 0
662 -1409 0
640 75 0
-1298 -556 0
1384 -1309 0
1118 -1157 0
-32 -888 0
1256 -781 0
-1361 -759 0
893 -939 0
849 492 0
-963 -357 0
-521 252 0
-1301 -695 0
275 -330 0
1019 931 0
862 -267 0
-37 -274 0
-548 932 0
-438 1366 0
578 1316 0
445 63 0
1435 -254 0
960 1174 0
-865 -1311 0
988 -964 0
200 1460 0
605 4 0
-506 960 0
-37 -174 0
-975 -1458 0
579 -386 0
434 665 0
-275 541 0
-977 1009 0
934 -935 0
-1382 -914 0
-219 338 0
191 -205 0
885 72 0
389 1088 0
-1458 -1095 0
362 -33 0
679 1410 0
1359 -1031 0
-115 -973 0
1398 1208 0
268 495 0
-636 650 0
-860 -1460 0
-912 843 0
-1167 1065 0
849 -1470 0
1176 -667 0
277 -1200 0
1459 -1148 0
-471 -355 0
179 -1268 0
438 -1013 0
-282 822 0
-724 -599 0
-176 1168 0
42 -277 0
48 62 0
-365 -1034 0
-119 -1221 0
655 -176 0
-1201 663 0
519 1194 0
202 912 0
-4 -1461 0
-1423 -1055 0
-559 321 0
-1380 -1313 0
-868 716 0
1058 407 0
-236 936 0
680 319 0
-445 -1337 0
-482 671 0
949 -765 0
1020 910 0
1480 -267 0
-988 -1090 0
1364 424 0
-1452 614 0
-526 -3 0
1290 154 0
-846 175 0
-542 -808 0
-1238 -1019 0
-185 311 0
-349 594 0
867 -799 0
-315 447 0
-1174 793 0
743 -668 0
-424 1003 0
1148 -972 0
1023 1355 0
-1337 -1220 0
-549 -791 0
-1393 376 0
-534 1249 0
-1373 485 0
361 -904 0
-611 -1430 0
-79 -1189 0
1290 -1240 0
446 -822 0
-1336 807 0
1457 298 0
-735 1391 0
-531 -116 0
1459 1328 0
222 1027 0
-1340 746 0
1294 1374 0
-328 -748 0
-1220 -650 0
944 961 0
739 611 0
-374 -183 0
667 599 0
102 20 0
1425 -445 0
-264 801 0
862 537 0
-132 -512 0
-156 -737 0
1420 172 0
-1078 545 0
-130 -1480 0
175 -969 0
1143 -689 0
451 -1419 0
-266 -1415 0
-53 1369 0
1366 -12 0
1462 1121 0
483 731 0
-1255 1080 0
768 -398 0
-616 993 0
-1078 -1361 0
-545 -845 0
-70 658 0
503 1065 0
-1128 252 0
-1078 1119 0
-648 -826 0
-1388 53 0
-25 1333 0
223 -4 0
-1218 -1008 0
892 -1024 0
-915 -1089 0
398 -787 0
497 -677 0
-616 -910 0
837 1176 0
1183 -983 0
882 -1419 0
-153 -1262 0
372 -448 0
-1126 424 0
-591 642 0
-237 338 0
655 1298 0
-268 -970 0
-980 1279 0
-1219 -156 0
-997 1204 0
-840 774 0
-1190 236 0
611 993 0
-893 748 0
1323 -1083 0
614 -1037 0
239 -928 0
1294 -1254 0
-1481 541 0
-498 -892 0
-695 -981 0
-990 -977 0
1312 -899 0
-291 -456 0
-757 911 0
-1272 -167 0
1010 -765 0
1218 -384 0
-123 663 0
588 719 0
472 -778 0
-67 -583 0
-1171 -459 0
-595 379 0
962 -1347 0
1250 -386 0
-833 -114 0
-415 762 0
-968 1255 0
811 1169 0
-246 -1442 0
-1076 -1004 0
1297 964 0
-953 390 0
-98 -1205 0
-450 1190 0
789 844 0
-1347 -1167 0
687 23 0
569 746 0
-288 -1443 0
56 1249 0
1254 -905 0
1413 -303 0
-303 919 0
791 594 0
-1273 682 0
-872 -720 0
139 -940 0
-1197 417 0
-1306 570 0
-1209 -1468 0
-1375 -1037 0
-675 -1014 0
-1415 1128 0
401 -803 0
-291 896 0
-69 929 0
-169 389 0
-851 1242 0
133 264 0
-795 1122 0
58 -376 0
922 -460 0
592 1175 0
-457 173 0
-982 495 0
1411 394 0
-1087 442 0
1146 535 0
-1057 -254 0
332 -408 0
-1366 -689 0
-818 -973 0
-717 -1156 0
-670 -499 0
-7 -653 0
-268 -1350 0
-602 81 0
1092 1410 0
-1287 -1108 0
917 -1083 0
-702 -993 0
1289 968 0
-1079 44 0
-34 234 0
-758 -122 0
-1188 502 0
777 29 0
-1394 235 0
1301 -752 0
-474 -183 0
1444 -565 0
93 87 0
-1131 -688 0
1135 -1313 0
-1283 979 0
1169 1276 0
-1244 636 0
-896 -681 0
-462 -1389 0
1152 -446 0
-998 287 0
-744 667 0
1074 -79 0
-133 716 0
-534 -558 0
508 1439 0
-533 -72 0
-1212 1455 0
-1437 -1127 0
-340 -1295 0
-21 -618 0
-105 -897 0
1020 -151 0
833 816 0
-37 -471 0
223 -1235 0
-748 112 0
517 -667 0
789 -315 0
-475 229 0
864 449 0
904 -825 0
-353 -332 0
-1309 -1197 0
746 574 0
-1156 1293 0
475 955 0
690 1016 0
-76 569 0
-169 -543 0
-855 -180 0
-543 538 0
380 -881 0
-707 1398 0
-1221 -586 0
1352 -177 0
949 1143 0
-1219 -1037 0
43 -277 0
-910 -505 0
338 640 0
-1373 854 0
-577 1352 0
-536 -895 0
892 -349 0
-392 -722 0
667 -724 0
1141 -177 0
1475 882 0
-1093 -426 0
-738 -1409 0
-19 -1179 0
-1288 -272 0
-986 695 0
-824 1109 0
1077 1326 0
-321 -899 0
802 -310 0
67 629 0
1085 1001 0
-833 311 0
507 -925 0
-839 -257 0
1477 -880 0
-1259 890 0
-1190 -1300 0
1101 -915 0
-1196 1405 0
1244 -550 0
413 -855 0
-1305 1014 0
-1034 -838 0
1407 677 0
-866 -1330 0
66 -383 0
253 813 0
991 922 0
620 -499 0
1394 -1136 0
-209 -409 0
-1049 33 0
573 -825 0
868 -512 0
245 1223 0
398 148 0
-566 1369 0
1115 -194 0
504 533 0
-1188 173 0
-26 874 0
483 -1466 0
-594 -123 0
841 -290 0
1013 -637 0
690 215 0
1314 204 0
852 89 0
-1085 -124 0
159 -662 0
-37 1335 0
1260 1453 0
1156 -1253 0
377 -866 0
767 102 0
-191 1132 0
-233 596 0
965 -463 0
-1405 1077 0
405 -575 0
21 1268 0
-699 -107 0
-82 -815 0
-1296 -364 0
-585 -1052 0
1072 -1278 0
-345 474 0
-241 1092 0
1221 313 0
-1178 -277 0
525 -672 0
-608 1214 0
-754 1003 0
-1313 -175 0
-740 -1230 0
1119 107 0
-1289 1176 0
878 -444 0
1227 1072 0
-737 -718 0
574 689 0
-740 80 0
65 -952 0
909 237 0
1291 160 0
1204 1448 0
430 -396 0
768 -1379 0
38 -542 0
-640 171 0
1266 -186 0
-670 381 0
-357 -341 0
1162 1407 0
-795 566 0
465 -817 0
-194 777 0
320 1126 0
-131 -16 0
1416 920 0
-953 649 0
-226 685 0
151 -1135 0
-846 682 0
-1306 734 0
-748 -463 0
967 886 0
541 -373 0
58 -1336 0
-771 1080 0
-112 -813 0
-868 45 0
1191 344 0
-913 -902 0
-1361 167 0
753 965 0
393 691 0
1461 -1016 0
335 807 0
1080 952 0
-1135 511 0
650 -217 0
-137 529 0
-238 -322 0
747 -626 0
-445 153 0
-963 -153 0
-1175 -2 0
-1223 -658 0
-1341 -110 0
-394 11 0
-251 1331 0
-183 -826 0
214 793 0
-233 213 0
1091 -437 0
1362 1070 0
333 61 0
-963 -1203 0
532 -865 0
-131 1167 0
-266 596 0
1454 897 0
154 -252 0
422 556 0
1449 1354 0
520 -969 0
-811 -1350 0
1082 -563 0
469 -128 0
-259 151 0
-536 -1047 0
-1062 -460 0
-1438 -1286 0
488 -572 0
-653 301 0
588 -870 0
-386 479 0
-1189 554 0
-881 -70 0
212 197 0
-1338 214 0
871 -1313 0
-25 -1401 0
-1309 -991 0
770 -928 0
1080 -1142 0
-562 -219 0
-1309 -581 0
1021 493 0
-1438 -457 0
-885 -510 0
-193 -1362 0
744 320 0
-1364 -1439 0
521 100 0
38 971 0
1062 -671 0
-551 1320 0
-347 1157 0
1346 726 0
1169 -990 0
-547 -1087 0
-800 816 0
-421 1242 0
873 158 0
-710 -1223 0
-1477 -1414 0
1051 -1000 0
1029 -807 0
252 308 0
681 1194 0
430 329 0
380 -675 0
-281 1021 0
-1414 1451 0
-253 879 0
-1412 944 0
-389 189 0
-1337 1018 0
-295 -413 0
-477 -1433 0
-208 -369 0
-1248 -25 0
-72 900 0
-535 -230 0
-1265 135 0
-104 -702 0
676 1359 0
-1177 -746 0
1013 1245 0
605 1376 0
432 -943 0
-306 456 0
147 -1395 0
-491 175 0
1352 209 0
425 1343 0
-974 -61 0
1386 764 0
-533 -830 0
213 -1458 0
259 286 0
-69 -349 0
-659 -1073 0
-1179 1474 0
1198 215 0
-25 -1079 0
-421 -1064 0
-254 462 0
-1135 381 0
111 1331 0
-139 -915 0
-1280 475 0
-618 1113 0
1107 7 0
-570 1307 0
253 -1114 0
428 913 0
-546 -1178 0
-628 -751 0
-901 64 0
-32 658 0
1332 660 0
1131 541 0
57 -1047 0
660 1060 0
1096 -575 0
-1212 1134 0
-996 1056 0
-952 -144 0
-206 -604 0
-69 444 0
-781 -842 0
-1321 -125 0
186 478 0
883 -1472 0
-681 1209 0
53 1219 0
-421 234 0
-1404 117 0
-1010 1276 0
-441 -18 0
849 57 0
105 -30 0
1060 266 0
-198 -295 0
-920 554 0
612 -884 0
500 -302 0
-870 -125 0
-1179 1353 0
-1468 -449 0
1302 1279 0
923 -50 0
-708 -1273 0
-643 480 0
1101 -203 0
569 -660 0
-1442 915 0
603 -540 0
-645 534 0
174 -758 0
575 -992 0
100 -240 0
1232 -648 0
-50 147 0
-161 -1286 0
-715 1289 0
981 1291 0
-522 -557 0
-1064 634 0
101 28 0
77 -47 0
-522 -735 0
789 1083 0
-903 -1097 0
-740 833 0
1130 1190 0
-812 871 0
865 909 0
395 1087 0
679 -1234 0
230 -1039 0
-787 723 0
-123 1141 0
1160 676 0
-223 493 0
900 -145 0
146 -1295 0
-992 -986 0
1282 -208 0
1435 321 0
-1196 -940 0
119 -333 0
770 -205 0
600 -570 0
-580 749 0
632 -1400 0
1042 380 0
-496 910 0
1399 -1395 0
1459 1220 0
1469 665 0
-1086 614 0
11 -1177 0
-696 -1115 0
481 1188 0
-1031 -1148 0
-1319 977 0
814 -1365 0
-1172 -522 0
-928 1088 0
-509 562 0
-229 1153 0
252 868 0
-628 -905 0
-871 886 0
1251 1418 0
-389 -1232 0
-780 519 0
1348 -1182 0
-892 -919 0
-1088 -728 0
1178 -653 0
-768 -1287 0
-1211 -1336 0
96 -1355 0
-978 -913 0
557 -70 0
959 114 0
-38 1428 0
-755 -578 0
74 -1311 0
664 -271 0
1291 -444 0
-548 -1126 0
690 -690 0
840 1379 0
-1413 693 0
-1452 -7 0
700 -1158 0
1405 921 0
-963 268 0
797 -1172 0
-1470 -124 0
-874 -1322 0
-840 481 0
-1303 -384 0
-628 -1396 0
-1229 1314 0
739 1418 0
-1236 -988 0
886 727 0
-957 1016 0
570 1006 0
1156 590 0
798 -396 0
-1407 -45 0
-703 1244 0
-203 74 0
-875 -715 0
1280 984 0
980 110 0
130 -1073 0
1187 631 0
-984 428 0
-365 886 0
577 -1277 0
-185 -1427 0
1256 -1251 0
-1321 1422 0
539 862 0
140 220 0
1228 -194 0
-1209 732 0
1339 -169 0
-387 473 0
-1235 -789 0
-1188 1324 0
-1176 -445 0
1143 1384 0
-1385 732 0
-1086 -1026 0
-971 -497 0
-1286 -628 0
-499 20 0
-973 280 0
-1179 419 0
-325 733 0
-722 406 0
909 1265 0
-1298 -1341 0
1416 955 0
1144 -1472 0
-493 1207 0
352 -1079 0
-340 -1038 0
-1020 527 0
-107 604 0
778 1444 0
-781 1271 0
-577 -206 0
153 452 0
-38 586 0
159 1443 0
1161 210 0
574 -1219 0
-935 116 0
747 897 0
1271 811 0
62 -651 0
429 -758 0
63 -234 0
-811 757 0
-449 188 0
1423 95 0
1162 -564 0
-737 -924 0
478 -1024 0
-1446 -213 0
929 437 0
1350 1298 0
-201 -12 0
321 -848 0
-1388 -327 0
852 -1 0
-1074 -781 0
-1419 -1216 0
-351 -109 0
-512 -555 0
965 567 0
1457 -1141 0
695 621 0
497 647 0
-672 -1172 0
-987 -310 0
1440 -562 0
-896 -1244 0
671 -526 0
307 -649 0
560 17 0
-821 -635 0
793 -1210 0
-225 -1008 0
-217 1062 0
-1022 224 0
-1151 1143 0
756 -114 0
1163 -1023 0
1004 87 0
1008 -1124 0
96 -538 0
-613 188 0
1279 534 0
1289 -1012 0
710 -1434 0
673 254 0
-1049 -1371 0
-842 -1045 0
89 601 0
-129 842 0
307 -12 0
-1351 1104 0
-1339 22 0
-160 1096 0
-738 873 0
-1376 -463 0
-842 215 0
-249 516 0
661 78 0
886 29 0
228 -713 0
-970 -920 0
-1039 -582 0
-936 895 0
-990 988 0
1000 877 0
327 -1238 0
614 1201 0
22 -421 0
-325 743 0
-1275 -745 0
402 -866 0
112 1410 0
1407 -93 0
-587 -1410 0
1093 -1211 0
362 1375 0
265 -830 0
197 850 0
-733 -305 0
827 144 0
-1339 816 0
-128 -464 0
1268 721 0
253 -802 0
-893 158 0
-1173 -832 0
791 395 0
-737 -499 0
296 -386 0
-365 -669 0
95 1126 0
-1259 550 0
1146 949 0
-199 1098 0
115 241 0
896 -798 0
589 1056 0
-56 -12 0
-127 -462 0
-1452 -3 0
-787 566 0
764 1278 0
579 958 0
-1136 497 0
-963 31 0
1085 -1342 0
933 -872 0
386 -233 0
1292 657 0
-1277 -1118 0
-612 673 0
-1111 1041 0
-993 -369 0
-784 328 0
-6 911 0
459 -645 0
-759 1421 0
-655 -150 0
-387 240 0
959 518 0
-897 -1133 0
-1474 -28 0
-427 1275 0
-180 1051 0
593 190 0
46 1461 0
529 1295 0
766 -139 0
1237 -1189 0
-969 316 0
-784 -1151 0
-1047 464 0
87 1162 0
-365 418 0
-752 105 0
-93 843 0
618 -305 0
-421 -978 0
-1322 281 0
1163 -455 0
1185 589 0
610 -426 0
1420 -1389 0
1348 -628 0
764 862 0
-1113 65 0
782 -602 0
1094 -917 0
492 468 0
-17 -407 0
493 431 0
-1355 -213 0
665 298 0
-34 1016 0
-50 636 0
778 -879 0
-83 1024 0
-88 -329 0
-977 -1037 0
-415 847 0
995 -421 0
1077 -1137 0
-89 389 0
-192 1247 0
951 1024 0
-204 742 0
-7 -214 0
943 827 0
-1116 -868 0
-775 29 0
-327 997 0
335 757 0
-773 661 0
-154 1119 0
-1293 322 0
-1364 -1252 0
445 -18 0
-1142 128 0
1145 -9 0
-1087 528 0
1094 557 0
-523 -853 0
1418 938 0
375 -123 0
144 1373 0
1441 -866 0
115 -656 0
456 1312 0
1139 18 0
-355 -1074 0
-899 219 0
-1081 -1078 0
-589 -165 0
1107 997 0
901 1294 0
-582 343 0
-693 -1370 0
554 -985 0
-505 403 0
-326 1116 0
1480 -80 0
891 837 0
1082 633 0
1067 -562 0
-28 -236 0
-920 -603 0
285 -240 0
876 703 0
-1360 -704 0
-539 -685 0
358 931 0
949 332 0
-1262 968 0
1365 -888 0
533 -644 0
-336 -1059 0
834 -1141 0
-1262 277 0
-283 -318 0
-1330 -867 0
-845 1154 0
-124 -465 0
-1019 764 0
1146 640 0
-163 1335 0
-299 841 0
1284 749 0
108 65 0
877 -845 0
-75 -1304 0
1239 -584 0
-14 97 0
-804 -729 0
637 -696 0
-112 -197 0
820 -267 0
1415 1333 0
645 -1325 0
-1363 697 0
1023 -116 0
224 -844 0
1167 819 0
-122 917 0
1014 242 0
518 -1371 0
-733 69 0
-553 361 0
862 527 0
-1179 -1324 0
694 -288 0
-125 656 0
-1005 -1023 0
843 168 0
-766 -1042 0
1469 -1126 0
736 -1228 0
-1155 384 0
143 -1379 0
1085 -336 0
-102 -203 0
42 474 0
-1236 -1014 0
-1318 -604 0
-467 1470 0
-707 -1391 0
-1420 -1022 0
-968 605 0
537 -1304 0
985 1271 0
606 1355 0
923 -840 0
-66 -1222 0
356 -598 0
-777 136 0
-249 264 0
729 -1037 0
-369 104 0
-4 -702 0
-1155 1174 0
-1083 535 0
1390 -719 0
1333 240 0
588 -419 0
-1468 115 0
-42 1053 0
146 -491 0
-489 -661 0
-668 1269 0
1416 429 0
335 -1072 0
-147 -374 0
312 -1306 0
655 -525 0
-1134 1035 0
-1302 934 0
120 758 0
-1274 52 0
-1308 824 0
-1370 446 0
-368 829 0
-267 -876 0
-7 -314 0
-523 1006 0
1052 1273 0
-1238 -1060 0
674 1359 0
-1207 1271 0
797 1159 0
-568 742 0
-1391 1201 0
1471 927 0
301 819 0
-859 721 0
-1482 -1236 0
-987 -582 0
-740 203 0
-396 420 0
467 1176 0
1314 -612 0
-131 785 0
-778 -952 0
231 292 0
89 -352 0
631 -1358 0
-11 -116 0
-257 -1304 0
1051 1335 0
-396 196 0
-1016 442 0
-1140 -350 0
-1452 -1020 0
-384 -367 0
399 650 0
-335 -713 0
1008 1104 0
-666 911 0
-199 -636 0
-1247 -1340 0
-1216 -1447 0
-1390 647 0
1297 539 0
-13 1177 0
-915 1362 0
-923 -469 0
-1326 -12 0
1381 657 0
182 716 0
-393 -184 0
268 -39 0
-1186 -216 0
-849 -765 0
-1269 -836 0
771 -1406 0
1475 682 0
558 481 0
-3 -380 0
-701 -929 0
946 -759 0
938 743 0
-1205 -1317 0
617 172 0
-888 -6 0
495 -312 0
-609 -1254 0
-637 241 0
-857 -201 0
948 452 0
-418 660 0
1113 1222 0
1453 1082 0
1186 -306 0
-1330 -1179 0
-116 721 0
-885 104 0
1237 814 0
-888 942 0
-121 -1181 0
245 -943 0
883 -1247 0
-1218 -1179 0
-67 908 0
1126 -945 0
305 -142 0
-38 -1051 0
-961 1459 0
525 -444 0
1274 -826 0
-916 363 0
480 -1426 0
-1461 1168 0
665 -528 0
727 -1210 0
-399 -443 0
1348 311 0
-783 671 0
37 -568 0
-831 -602 0
-492 -1313 0
861 668 0
1311 -1373 0
1354 -217 0
-483 -1309 0
457 242 0
1050 -218 0
1189 -781 0
565 902 0
886 -626 0
-123 711 0
-202 1239 0
1013 319 0
-1275 1405 0
1222 1096 0
-1026 -1278 0
-1312 866 0
632 -166 0
797 1480 0
-977 956 0
335 -5 0
-103 1141 0
1063 706 0
1390 -24 0
993 -1458 0
584 362 0
121 -473 0
-133 749 0
-712 917 0
-312 -1406 0
1298 -959 0
-1322 -206 0
-1037 434 0
1227 155 0
-280 -21 0
538 -435 0
-996 908 0
-671 -1089 0
1037 866 0
-1264 -1350 0
541 -407 0
373 1103 0
1298 -1071 0
-248 -642 0
-1233 -831 0
760 1377 0
1276 -1118 0
-509 322 0
741 29 0
-497 -241 0
655 -342 0
302 571 0
297 1431 0
-1166 -716 0
896 -668 0
1006 405 0
-39 -26 0
-668 -1415 0
-625 1062 0
86 975 0
-384 -749 0
-369 1181 0
48 877 0
1038 949 0
40 1073 0
1103 -722 0
295 -857 0
-943 -838 0
-173 -131 0
-1303 -278 0
441 616 0
909 -977 0
-1116 -1430 0
-999 184 0
-1204 1209 0
-64 -1076 0
378 -1037 0
-1443 308 0
-928 -677 0
-1322 -997 0
681 -591 0
-672 -1283 0
314 -347 0
-575 -836 0
-1205 -270 0
430 1061 0
-1145 154 0
886 1168 0
697 153 0
1084 1348 0
1263 289 0
-1193 299 0
627 1422 0
-765 -1039 0
-503 118 0
-1299 -26 0
-683 -1226 0
-648 1284 0
615 1257 0
654 -439 0
-1124 1388 0
141 -1076 0
-204 -943 0
-1442 419 0
501 848 0
1144 -1357 0
-429 -558 0
-232 407 0
-1463 -1456 0
436 854 0
1203 1465 0
-478 -624 0
96 -1211 0
-770 -675 0
1138 241 0
135 -1077 0
341 -948 0
215 252 0
-731 -1268 0
16 794 0
1406 269 0
-148 273 0
-35 918 0
1441 501 0
1078 -645 0
651 1092 0
849 448 0
-781 239 0
-343 929 0
1161 -1134 0
705 -1178 0
-88 39 0
1233 1350 0
-462 -132 0
400 320 0
-1357 441 0
362 62 0
11 -154 0
794 -1262 0
-826 -74 0
1006 293 0
-579 -1296 0
-1426 1461 0
-1413 420 0
-424 -494 0
230 824 0
667 -271 0
640 -1181 0
994 245 0
-744 1364 0
424 -206 0
-61 -1212 0
-416 113 0
-979 -1 0
1307 -413 0
692 850 0
1154 103 0
-462 -1354 0
411 570 0
656 -1205 0
-1132 57 0
803 -291 0
739 90 0
1064 882 0
-802 -549 0
-37 -462 0
739 -1047 0
1317 -589 0
1029 201 0
438 -288 0
-769 -195 0
-1229 1070 0
33 1217 0
-715 -67 0
-246 1185 0
-970 946 0
-575 822 0
1327 327 0
402 -1238 0
-1102 -871 0
-21 292 0
996 1139 0
-786 466 0
-583 -1000 0
-518 -182 0
-1456 1480 0
-1406 -1193 0
691 447 0
-745 -1189 0
1147 -32 0
298 1287 0
-1473 -1194 0
-964 -401 0
-277 -521 0
-1216 521 0
191 -1289 0
-1159 1067 0
663 117 0
1454 -882 0
-85 309 0
-901 -13 0
-122 1008 0
-356 343 0
662 -688 0
-386 522 0
382 863 0
-710 1180 0
-758 1008 0
198 796 0
-1258 -75 0
-1136 338 0
1257 385 0
832 1252 0
1113 -336 0
224 889 0
-784 -584 0
1477 -838 0
532 -950 0
-348 678 0
-723 119 0
-508 1175 0
960 32 0
-246 17 0
-1288 686 0
-489 1083 0
684 -1400 0
-505 -381 0
242 1156 0
381 -715 0
694 399 0
450 1002 0
-465 -109 0
215 -883 0
1214 -823 0
1325 1192 0
-27 673 0
-1186 939 0
994 -601 0
1448 569 0
-239 -1211 0
-1045 -932 0
-1132 -425 0
239 -1417 0
847 -1015 0
1228 946 0
838 -369 0
975 1467 0
-468 -542 0
1386 -391 0
669 -838 0
-224 -1400 0
-479 -1404 0
-919 44 0
-308 -1183 0
-1424 1121 0
726 -69 0
-965 16 0
-487 382 0
-905 513 0
1094 -511 0
-155 447 0
-589 154 0
1381 987 0
-293 -1151 0
-134 -223 0
-782 350 0
420 -523 0
-705 469 0
-575 -663 0
926 -626 0
-1336 -201 0
-1214 -361 0
970 474 0
-1326 -1118 0
399 -1124 0
611 -1121 0
-1039 -214 0
-888 21 0
1041 141 0
-583 -577 0
1139 1080 0
135 958 0
-1419 774 0
889 -446 0
1156 537 0
1058 175 0
311 -274 0
696 -626 0
-7 1316 0
1163 230 0
-587 -1004 0
-379 -1190 0
-1415 -1149 0
-479 417 0
-331 1431 0
1144 -154 0
-426 1350 0
1032 1410 0
-359 181 0
-130 997 0
1335 489 0
-149 -970 0
-28 -317 0
-30 1225 0
-1416 -848 0
694 -8 0
1204 -181 0
153 -1100 0
-910 1249 0
1162 -1299 0
-1140 318 0
1324 1059 0
-1172 872 0
-1216 649 0
1058 1209 0
-88 -358 0
-616 -1296 0
-1391 -176 0
327 1377 0
-797 -1424 0
133 -1391 0
-1007 77 0
159 -1442 0
-604 -523 0
-325 77 0
263 -584 0
-676 1032 0
-919 -439 0
-983 454 0
941 835 0
-1252 -386 0
-492 -1446 0
874 -737 0
-153 -1430 0
1320 -450 0
-1451 500 0
761 853 0
725 -454 0
-928 -987 0
-1153 -283 0
-479 1035 0
1098 1395 0
640 -598 0
-1269 773 0
268 -551 0
9 -374 0
1312 -1017 0
-247 982 0
1204 1138 0
1482 223 0
-1477 898 0
-1207 332 0
457 1041 0
-1006 -439 0
-322 1281 0
1050 -769 0
-32 -247 0
-1216 -1259 0
1029 1016 0
164 1390 0
623 -1275 0
-1385 -965 0
736 372 0
827 -765 0
-748 -655 0
775 1068 0
1138 146 0
-1372 -7 0
122 -691 0
-1072 431 0
-1172 105 0
-884 -59 0
836 1381 0
-397 -163 0
832 43 0
-598 -1421 0
949 1231 0
601 437 0
-1270 -925 0
-681 -742 0
-35 788 0
-370 856 0
-399 483 0
1246 -1443 0
-773 103 0
-656 1060 0
593 222 0
-859 -457 0
684 -533 0
-800 248 0
116 1255 0
1244 -1342 0
1231 -1325 0
144 442 0
405 -563 0
1243 901 0
974 -380 0
-1141 794 0
-118 -512 0
-714 -859 0
906 1430 0
-108 224 0
484 -818 0
-990 -778 0
1345 -1188 0
1474 -272 0
-447 -982 0
1207 -864 0
925 673 0
62 -1239 0
1373 541 0
1103 -1444 0
417 1147 0
-1205 -916 0
-248 -483 0
-998 -553 0
-1234 -17 0
-476 1157 0
-251 1105 0
-79 -1197 0
1407 -577 0
-956 572 0
110 928 0
-559 -615 0
-1149 984 0
-125 -1233 0
-943 1330 0
-568 -113 0
1257 -186 0
782 518 0
1119 -920 0
-644 468 0
-1385 -39 0
984 941 0
61 -734 0
1340 1180 0
661 -807 0
-624 -1417 0
-982 189 0
1063 826 0
-901 833 0
827 477 0
1094 -426 0
-22 406 0
-266 -621 0
-56 -1250 0
813 -751 0
-63 927 0
-609 808 0
-526 -1154 0
212 271 0
349 -779 0
1435 -157 0
1040 -522 0
1381 49 0
728 -505 0
54 -592 0
-874 -1075 0
164 -79 0
-184 -386 0
-30 -616 0
-642 -1306 0
-1413 1053 0
-867 -947 0
1335 -358 0
405 1169 0
-490 -674 0
317 41 0
-526 -657 0
-172 -775 0
-1465 -1179 0
577 849 0
-160 438 0
-1333 -1304 0
1369 -370 0
-288 -435 0
757 -1436 0
131 880 0
452 -1110 0
932 1384 0
620 -534 0
1051 1233 0
-615 1392 0
-696 -435 0
-1290 -703 0
-1369 1092 0
1421 -1017 0
1038 -582 0
-502 -150 0
-1378 949 0
1031 650 0
-1432 1098 0
-107 -709 0
-1460 -856 0
-122 269 0
-1285 -1356 0
197 -1279 0
-1310 -448 0
489 673 0
-244 -647 0
634 -467 0
262 1121 0
1378 -521 0
338 -1197 0
-1178 727 0
1017 -1148 0
1402 -701 0
-492 78 0
382 1276 0
292 -52 0
1453 -754 0
-303 -1035 0
761 -788 0
1417 1119 0
-498 -1218 0
-61 -147 0
1105 -1034 0
901 1121 0
-1391 -1159 0
-369 1044 0
407 1062 0
-1149 -1234 0
1293 -1318 0
1301 1417 0
-700 -599 0
-1371 -655 0
-8 429 0
204 -1095 0
-926 -1066 0
1131 -1188 0
-995 -71 0
-517 94 0
589 -948 0
-1296 -817 0
1014 984 0
-85 -306 0
-27 -551 0
-208 -1302 0
1337 -1109 0
371 139 0
1001 -815 0
-1267 809 0
-888 -170 0
1357 -861 0
-60 136 0
710 -375 0
751 861 0
508 -1114 0
1335 24 0
164 792 0
677 -186 0
-1009 122 0
-774 785 0
-1127 78 0
304 -608 0
1006 -815 0
268 -616 0
972 -576 0
-99 -780 0
-881 931 0
1083 929 0
251 -524 0
941 -123 0
1032 -1354 0
1092 -1272 0
-195 1343 0
-707 -801 0
1307 -1389 0
1105 -1290 0
922 747 0
-461 -817 0
1297 -1207 0
171 -1236 0
-990 -1084 0
333 -645 0
-1102 -10 0
-397 -439 0
541 -51 0
67 949 0
316 -805 0
692 -537 0
-415 -1452 0
-184 -1457 0
-286 -1084 0
965 -214 0
-395 108 0
184 973 0
1404 -462 0
-109 1115 0
-1416 -1097 0
-341 220 0
624 -620 0
-815 -653 0
190 -260 0
-220 912 0
-2 1157 0
852 879 0
-175 -264 0
-857 992 0
-235 149 0
-14 -809 0
-859 -562 0
596 969 0
-1243 -637 0
-393 -1303 0
381 703 0
941 -910 0
-1470 988 0
-795 -182 0
-460 330 0
-205 62 0
-1260 723 0
-158 1324 0
-1250 -1272 0
-289 458 0
-999 1007 0
-1211 -1470 0
-1438 -188 0
1403 1407 0
1035 597 0
-258 1400 0
380 1122 0
1474 -1425 0
1356 110 0
1180 1096 0
172 1309 0
-410 562 0
-659 -512 0
-1419 -1070 0
-1261 1289 0
-998 -297 0
-193 -1442 0
794 296 0
595 495 0
-1024 -586 0
1312 -1235 0
801 1082 0
990 -1071 0
-1196 688 0
1377 346 0
714 543 0
-898 287 0
458 210 0
1068 197 0
-806 825 0
15 525 0
517 -536 0
1465 -699 0
-622 -822 0
845 -236 0
-977 760 0
-507 -214 0
-1289 -1134 0
-1316 -534 0
-1283 -1458 0
1282 -48 0
-1399 -533 0
993 -852 0
-942 1096 0
1118 -463 0
-935 -367 0
1098 1015 0
-1243 -718 0
-1305 -262 0
-260 588 0
-32 1359 0
-509 634 0
-869 -1434 0
-219 835 0
1321 212 0
-1340 -205 0
1164 456 0
-1182 1038 0
-513 1065 0
1381 203 0
-973 151 0
1004 1429 0
-1326 789 0
1233 10 0
578 -556 0
1078 29 0
1102 -59 0
1160 1301 0
-536 -199 0
606 1139 0
1423 1158 0
-516 862 0
852 -1311 0
1075 -266 0
488 -1127 0
-366 -860 0
-28 1136 0
1114 -1188 0
1130 1077 0
507 -1432 0
-400 -681 0
-814 1119 0
1285 1343 0
-21 -391 0
126 1111 0
349 -1170 0
1450 -1209 0
802 1327 0
751 552 0
1428 139 0
-6 1391 0
-275 1270 0
-1357 317 0
-681 1102 0
-344 -1196 0
1146 -1194 0
-664 -1262 0
1249 -109 0
492 -737 0
933 305 0
1342 820 0
891 168 0
658 -1137 0
-426 38 0
-177 557 0
133 -878 0
1349 1285 0
-384 951 0
540 673 0
1152 1262 0
-1283 -332 0
-1057 -617 0
528 -1202 0
-357 -1181 0
1132 -1059 0
-46 1107 0
44 115 0
-936 43 0
-585 -431 0
1405 659 0
-677 -705 0
-1025 -51 0
28 -1229 0
1423 -696 0
433 779 0
-1442 -384 0
1390 991 0
707 -278 0
-1333 -806 0
632 -1423 0
104 -1273 0
-1412 993 0
-1091 -982 0
792 -939 0
-1406 1089 0
271 901 0
1382 117 0
-512 -547 0
1383 -1286 0
276 541 0
322 399 0
-1155 -977 0
-440 -511 0
1027 -984 0
921 -738 0
285 -680 0
-1108 -787 0
873 -788 0
-1076 -344 0
969 -1045 0
106 93 0
-704 -722 0
-543 -1313 0
-489 -586 0
280 -1199 0
590 933 0
243 -1412 0
-674 -73 0
402 988 0
686 -1236 0
-214 -1071 0
406 -1096 0
-1342 -1264 0
573 -1155 0
1075 -1178 0
-505 1327 0
-157 -1262 0
179 -1473 0
222 -1462 0
-944 1428 0
-106 777 0
-1065 1215 0
-204 -899 0
1402 -852 0
518 1238 0
-983 800 0
167 801 0
941 -785 0
-1073 1381 0
-388 -167 0
-138 333 0
-57 -1312 0
1359 133 0
-41 -759 0
613 128 0
-689 -1273 0
-868 -1174 0
-1158 193 0
186 -1057 0
1016 1062 0
430 224 0
629 1191 0
-536 484 0
-362 -414 0
371 -592 0
-1024 159 0
-367 -1433 0
-426 682 0
-258 -1223 0
1016 -275 0
-421 -205 0
69 -1299 0
92 779 0
-795 -476 0
-426 -426 0
-372 5 0
504 -751 0
-1455 152 0
-1121 -1214 0
678 -351 0
738 1477 0
-1389 1311 0
973 196 0
-781 -1370 0
-540 -1350 0
796 -348 0
1480 -504 0
964 -1342 0
-526 -73 0
-94 -486 0
463 -238 0
546 749 0
1300 746 0
-106 -549 0
858 767 0
685 -750 0
-1043 492 0
-316 1077 0
1255 -1155 0
798 -1086 0
-708 -1468 0
428 -1458 0
944 1278 0
1290 796 0
-21 -623 0
-759 54 0
-645 -32 0
1392 -803 0
-1057 1220 0
-662 -1096 0
1460 -1458 0
-347 -414 0
517 87 0
818 126 0
1176 216 0
962 -1155 0
-496 -782 0
-187 -1376 0
-316 -102 0
296 -274 0
-1135 843 0
5 1466 0
611 -676 0
1218 -536 0
492 -589 0
1416 474 0
56 -31 0
917 -266 0
-543 1357 0
-1313 126 0
-478 -1463 0
332 -1238 0
239 -1303 0
377 -1206 0
836 -1000 0
115 -1101 0
-1188 744 0
564 -142 0
-1315 -1 0
-111 -1224 0
772 487 0
994 385 0
-867 963 0
-142 1004 0
-384 1204 0
658 -1226 0
932 401 0
1030 398 0
886 573 0
382 -340 0
1070 404 0
667 -1025 0
-446 692 0
-297 994 0
87 1473 0
613 153 0
329 694 0
516 -758 0
54 1384 0
-1320 1429 0
850 573 0
403 -1317 0
-232 722 0
-1133 480 0
-1319 -1042 0
-45 1249 0
-67 -1187 0
1150 -988 0
122 1042 0
265 -977 0
1395 -1430 0
-12 988 0
144 -1142 0
1031 -611 0
-956 -584 0
-201 -1270 0
752 -1324 0
-1139 -85 0
-286 1362 0
-354 682 0
-1369 1301 0
-227 1368 0
728 841 0
-147 -293 0
-913 862 0
-102 -642 0
73 991 0
-869 547 0
407 666 0
-656 -881 0
-288 836 0
612 452 0
-146 -980 0
546 -1457 0
89 1247 0
843 -1385 0
748 1268 0
-335 382 0
-823 -565 0
-1125 898 0
891 -898 0
-335 578 0
-76 956 0
163 -1074 0
-76 224 0
594 1073 0
-1242 803 0
215 -231 0
1201 -1468 0
525 573 0
1348 1481 0
1431 -348 0
1168 601 0
1165 581 0
-849 1461 0
176 -543 0
-121 939 0
424 -1403 0
759 -713 0
-181 -747 0
-793 80 0
-912 882 0
-238 -548 0
-708 -148 0
-1161 44 0
-545 1474 0
106 -972 0
-472 -702 0
686 215 0
-1453 163 0
-198 -965 0
-758 1263 0
-74 230 0
-864 1326 0
-522 1294 0
713 -651 0
-74 -1432 0
153 -1023 0
15 899 0
-66 -1118 0
363 616 0
-71 -1473 0
-651 472 0
204 80 0
-153 1210 0
53 -121 0
-1279 -1473 0
1203 278 0
627 -158 0
1276 -308 0
-1303 -393 0
-91 -305 0
-534 1321 0
498 -1091 0
571 896 0
685 77 0
-1159 1312 0
556 304 0
873 -1010 0
1265 1059 0
940 933 0
1011 7 0
-111 1031 0
1467 171 0
-728 -199 0
1151 113 0
886 790 0
336 -1317 0
-310 -914 0
1392 -288 0
119 -1397 0
-227 180 0
1380 -4 0
-1164 -370 0
-444 991 0
855 -1083 0
-1195 -448 0
802 -801 0
877 -18 0
1078 -41 0
100 -696 0
89 853 0
-99 1417 0
-760 -883 0
-1199 160 0
-260 536 0
135 804 0
1432 -27 0
818 -902 0
1291 1034 0
1252 1099 0
-1069 1011 0
-486 275 0
572 907 0
-980 -892 0
761 48 0
-1012 -386 0
-216 -681 0
1362 -1321 0
660 -1272 0
807 1145 0
1195 121 0
1016 -597 0
738 -811 0
417 666 0
-509 -530 0
-414 1226 0
1062 -3 0
939 117 0
1009 -425 0
7 237 0
1030 -12 0
-199 527 0
-1224 1404 0
-1002 712 0
817 -821 0
-1022 -812 0
-545 1228 0
458 -1209 0
-154 -1470 0
-257 1413 0
1413 910 0
215 -39 0
-1328 78 0
40 -369 0
-1477 729 0
-187 -1449 0
-1108 -1039 0
1180 -1280 0
-1370 -1199 0
390 -722 0
361 -478 0
841 -173 0
-523 459 0
774 -475 0
-1049 -675 0
457 -959 0
443 -804 0
523 -1340 0
-325 -27 0
-998 1316 0
-605 -416 0
143 650 0
-1008 874 0
-1247 -1072 0
-182 -41 0
-1036 650 0
-1446 636 0
739 864 0
-676 -1141 0
-1287 -1350 0
690 -1283 0
-1128 -1177 0
1080 -407 0
1235 -799 0
-603 528 0
-282 -1240 0
376 -462 0
1358 706 0
-35 -982 0
-1266 -87 0
871 1058 0
128 736 0
653 -568 0
1242 1081 0
560 711 0
-409 1017 0
-1007 1333 0
-717 -49 0
1078 456 0
-1219 -410 0
1332 1457 0
-1042 -877 0
685 682 0
658 -390 0
-1295 -1305 0
-1336 -451 0
-445 428 0
-552 -371 0
-174 -576 0
890 459 0
-895 852 0
-1042 1415 0
-1337 -496 0
-1118 701 0
-1081 -332 0
971 1015 0
793 -140 0
-61 -164 0
-177 -1220 0
124 53 0
671 845 0
-1341 1230 0
-914 1066 0
-979 -981 0
1 -534 0
610 965 0
706 235 0
1350 -559 0
-1089 1327 0
-730 -1321 0
371 1168 0
-742 -981 0
931 -758 0
530 1381 0
-625 1197 0
-740 -1271 0
-818 -486 0
372 1405 0
898 -69 0
-533 -1014 0
1452 1033 0
140 -1152 0
1416 1243 0
-128 559 0
-301 1481 0
-724 1413 0
-1329 1335 0
-270 -51 0
1125 -652 0
575 362 0
-1261 532 0
-869 -1432 0
1105 -1459 0
-409 523 0
-340 -630 0
-213 -229 0
-1127 935 0
-1100 -175 0
827 252 0
1002 -434 0
-481 -176 0
598 -130 0
155 1166 0
-871 851 0
-348 -637 0
806 -983 0
-1029 284 0
1167 -952 0
528 -1012 0
-87 -902 0
-804 908 0
1063 -1364 0
1249 -289 0
759 -1100 0
310 647 0
-388 1271 0
457 905 0
-699 552 0
-980 197 0
1061 -645 0
136 1142 0
911 173 0
-924 -54 0
-1338 967 0
240 430 0
641 610 0
-820 -396 0
661 -715 0
502 739 0
68 -182 0
691 -615 0
671 1221 0
1187 -1206 0
87 -966 0
1440 984 0
878 1092 0
402 1131 0
138 545 0
-760 -628 0
-812 965 0
-1026 888 0
-1296 -616 0
1040 1187 0
827 -1356 0
919 845 0
-56 1298 0
-288 -563 0
1249 -1262 0
184 1258 0
916 538 0
-883 -103 0
-123 1180 0
244 -276 0
442 -38 0
1221 1204 0
-756 -6 0
-1004 611 0
891 1145 0
71 1051 0
636 64 0
1398 -1428 0
35 1067 0
562 243 0
-853 -2 0
402 537 0
-221 -246 0
681 -1177 0
-1400 971 0
1348 -1273 0
-777 -482 0
1004 -1318 0
1166 -1433 0
-1176 -755 0
52 -815 0
1065 862 0
-169 697 0
-37 -1279 0
431 -1247 0
1294 -401 0
259 -426 0
848 1195 0
-403 762 0
-60 -1292 0
-705 -367 0
632 1387 0
-1221 1015 0
844 -566 0
-200 -730 0
-1470 -334 0
682 -1308 0
-205 165 0
1161 408 0
481 1051 0
-1020 820 0
-1389 1279 0
-149 -1040 0
-1087 1467 0
-388 -1424 0
29 1209 0
669 -1106 0
410 1053 0
-980 49 0
423 -966 0
106 -755 0
727 -1064 0
-517 -936 0
-387 525 0
1416 1340 0
655 -30 0
-1134 207 0
1013 154 0
77 -566 0
224 1346 0
514 1363 0
-583 1194 0
-652 670 0
-300 -662 0
-557 161 0
-1359 319 0
120 -129 0
-249 683 0
-1017 -221 0
-198 -227 0
323 514 0
-278 -703 0
-270 -253 0
-1155 -1463 0
1305 1440 0
132 158 0
1426 -450 0
-860 -932 0
-756 -1282 0
383 504 0
-1035 -796 0
601 -494 0
348 -806 0
997 541 0
-410 1050 0
1257 753 0
332 1075 0
-474 1113 0
-913 679 0
-54 -176 0
588 -957 0
764 1194 0
944 1173 0
-696 689 0
-732 1215 0
-869 1276 0
651 1284 0
992 197 0
1130 626 0
983 -1075 0
332 1359 0
-156 1265 0
644 -787 0
539 -1473 0
640 -1281 0
228 -1057 0
-744 596 0
764 -1478 0
-448 124 0
450 -134 0
232 237 0
-577 -869 0
-172 379 0
-1316 953 0
688 761 0
972 -980 0
876 -109 0
819 -1276 0
-1426 -377 0
-1376 -1212 0
160 131 0
-32 -918 0
-1266 -1276 0
-344 -1435 0
-446 390 0
908 -83 0
-1262 -579 0
-1348 -98 0
94 263 0
-295 991 0
-264 292 0
1330 483 0
-176 1131 0
-229 -435 0
-884 -832 0
-1389 -630 0
999 82 0
-1080 1237 0
-226 -242 0
930 -1117 0
1194 123 0
241 -660 0
-22 -373 0
-431 -267 0
-620 -695 0
-423 -1190 0
-576 -946 0
53 1064 0
-1421 1324 0
139 -1020 0
101 572 0
-534 -999 0
-566 629 0
1245 -420 0
877 -107 0
-814 1104 0
245 1103 0
139 1078 0
1469 903 0
-913 -950 0
898 -1061 0
-257 1435 0
497 -1417 0
-651 -851 0
-584 248 0
-568 -1286 0
-898 -1356 0
-943 1232 0
906 1315 0
1293 -1311 0
55 432 0
994 402 0
-310 -214 0
1204 -720 0
-1308 -376 0
918 1415 0
108 -752 0
1323 1284 0
215 -1021 0
1300 -1090 0
657 -320 0
319 553 0
317 631 0
379 49 0
-564 150 0
-1170 600 0
-938 -332 0
1463 321 0
-571 -1052 0
-97 -1276 0
-475 900 0
113 -69 0
241 -1174 0
1275 -1476 0
122 767 0
712 -86 0
-1287 -233 0
-1372 -559 0
-446 -813 0
212 148 0
1388 350 0
-1007 828 0
844 120 0
-198 382 0
-955 1427 0
-771 -1234 0
-1181 836 0
-882 -1072 0
-166 555 0
-365 368 0
588 96 0
-1403 -93 0
345 340 0
-1266 520 0
-997 820 0
815 -1108 0
-996 -803 0
1030 438 0
131 -213 0
717 -1338 0
-426 1085 0
-337 303 0
-1012 687 0
-587 1074 0
-1338 496 0
-571 -1127 0
-71 -840 0
-347 1461 0
-812 -751 0
957 -266 0
-1205 1349 0
-271 -248 0
159 790 0
-1371 -970 0
104 -305 0
602 -540 0
-544 -407 0
-68 -342 0
677 -68 0
847 659 0
-924 -383 0
1368 -550 0
-603 20 0
175 1199 0
805 -656 0
382 -1379 0
146 -1240 0
-1042 -1007 0
-369 712 0
366 1192 0
597 -1223 0
268 1243 0
-1119 -506 0
