c bounds 74 74 1.93
p cnf 500 1150
-326 91 0
327 -173 0
442 243 0
407 -436 0
-250 140 0
206 -73 0
236 -439 0
407 496 0
366 -188 0
475 -467 0
106 -464 0
346 -357 0
58 218 0
461 -349 0
455 222 0
64 -4 0
423 -345 0
418 -152 0
-124 -389 0
-117 4 0
273 378 0
-461 -496 0
388 -296 0
52 422 0
-205 352 0
463 -153 0
7 -233 0
172 -239 0
-208 34 0
-363 106 0
118 34 0
-316 243 0
-14 246 0
-489 -117 0
-377 223 0
-154 -306 0
-415 -181 0
-102 69 0
-189 130 0
350 -261 0
80 -174 0
440 484 0
175 372 0
152 235 0
136 -118 0
7 54 0
95 317 0
-309 -372 0
-223 -106 0
-222 87 0
419 433 0
-435 -102 0
-318 366 0
15 -76 0
132 150 0
-62 -338 0
-316 43 0
478 -220 0
-256 52 0
-42 249 0
19 472 0
92 34 0
38 80 0
-414 165 0
-76 345 0
486 -358 0
262 -2 0
-385 -148 0
104 -213 0
-111 -476 0
405 177 0
334 380 0
483 466 0
384 75 0
-154 -270 0
-449 -224 0
490 -469 0
-318 -309 0
339 305 0
-294 72 0
192 -255 0
-102 -151 0
-330 -330 0
-424 -167 0
312 312 0
-427 371 0
-467 291 0
436 -377 0
-374 383 0
-219 97 0
43 -225 0
495 191 0
313 -318 0
-53 158 0
81 -183 0
59 -459 0
-148 134 0
405 267 0
470 -435 0
494 409 0
175 366 0
132 349 0
-258 -80 0
327 -294 0
213 37 0
454 -55 0
-76 484 0
-299 243 0
-208 335 0
460 -35 0
-57 497 0
135 164 0
16 63 0
-152 -302 0
171 324 0
-204 485 0
264 -185 0
486 -76 0
48 -53 0
-318 324 0
-215 217 0
-427 169 0
-74 -33 0
408 77 0
402 -498 0
143 387 0
123 -184 0
-154 -362 0
-376 144 0
320 148 0
-25 -214 0
307 -242 0
-101 464 0
-467 231 0
-222 -299 0
-485 222 0
264 -411 0
-148 -296 0
-257 18 0
-35 -91 0
-258 -354 0
153 -452 0
-268 -18 0
107 209 0
-62 257 0
-230 -323 0
372 -360 0
-195 340 0
-364 72 0
110 170 0
-309 -404 0
-458 -365 0
82 184 0
366 -199 0
-336 266 0
177 -186 0
-70 92 0
487 372 0
304 214 0
273 -294 0
477 -200 0
375 -347 0
-159 314 0
-207 -389 0
304 -16 0
-234 -415 0
243 432 0
-40 404 0
-397 -20 0
-185 442 0
-164 484 0
-65 -228 0
63 37 0
-209 107 0
236 -206 0
-225 170 0
18 -260 0
342 90 0
7 -112 0
63 454 0
-11 144 0
-430 427 0
218 159 0
65 394 0
52 208 0
143 424 0
-70 397 0
217 -134 0
-432 144 0
352 -423 0
401 353 0
451 -496 0
-19 441 0
486 -261 0
222 7 0
-422 402 0
-114 -368 0
450 -292 0
172 -323 0
448 444 0
194 -252 0
-32 123 0
442 352 0
-123 500 0
342 -329 0
-495 -262 0
-397 273 0
267 235 0
-387 -260 0
-218 -435 0
449 -358 0
-469 286 0
408 177 0
-450 -326 0
-486 479 0
-346 -227 0
47 -219 0
17 286 0
-403 149 0
-62 -131 0
-132 -390 0
-183 -282 0
474 102 0
499 -296 0
-98 234 0
422 406 0
-151 -357 0
412 411 0
-336 -374 0
-126 -106 0
278 150 0
357 -39 0
314 -95 0
100 -443 0
413 475 0
250 -205 0
316 -159 0
84 318 0
-133 -35 0
122 -91 0
-434 -80 0
241 -407 0
-322 178 0
236 72 0
48 419 0
407 -251 0
252 327 0
-217 -356 0
423 345 0
382 -339 0
-409 -491 0
278 170 0
372 -404 0
492 -351 0
170 79 0
461 472 0
-42 -471 0
222 13 0
-376 -100 0
-137 -49 0
-405 -275 0
-473 252 0
-276 398 0
304 170 0
418 303 0
-254 -471 0
-388 -331 0
-91 375 0
377 -118 0
-434 51 0
-339 173 0
-137 90 0
-397 -131 0
-430 60 0
72 58 0
-357 477 0
-302 416 0
388 399 0
-383 123 0
44 -435 0
379 -223 0
-234 188 0
-394 87 0
-70 334 0
-442 -174 0
-331 -229 0
-236 305 0
-19 -125 0
112 461 0
-123 390 0
135 116 0
-226 -67 0
149 -425 0
148 393 0
219 172 0
-315 -332 0
-95 -299 0
-236 260 0
246 128 0
201 -77 0
-36 454 0
-261 -171 0
163 -174 0
443 -257 0
439 -36 0
497 388 0
-349 -227 0
-333 -169 0
221 -151 0
353 355 0
13 -384 0
65 -164 0
320 13 0
-381 -190 0
449 -262 0
65 140 0
-445 -144 0
394 -497 0
19 -79 0
441 -377 0
-148 -10 0
-333 -268 0
-174 280 0
-318 -350 0
-10 -269 0
456 -280 0
-78 -464 0
440 305 0
-208 1 0
217 -393 0
-43 259 0
-40 170 0
-397 -9 0
-335 253 0
100 240 0
492 155 0
439 418 0
149 -434 0
-166 244 0
-97 -46 0
468 436 0
-211 82 0
89 -377 0
-459 -429 0
124 -306 0
-117 48 0
139 48 0
176 64 0
314 -208 0
-261 -98 0
-190 -471 0
240 375 0
152 -142 0
94 -205 0
-50 -32 0
451 127 0
-443 -414 0
-132 29 0
119 -2 0
150 451 0
-410 -478 0
162 201 0
461 -141 0
-8 428 0
461 -260 0
160 -334 0
-246 -46 0
385 51 0
-198 424 0
97 93 0
-158 206 0
152 -195 0
-91 186 0
-25 -383 0
66 128 0
107 -198 0
-233 135 0
55 -448 0
496 -473 0
-244 73 0
479 302 0
-387 338 0
463 467 0
245 73 0
-492 408 0
-78 -228 0
26 157 0
-435 173 0
370 -208 0
-36 326 0
-195 -147 0
107 -277 0
236 111 0
-376 227 0
-296 -440 0
-299 -366 0
6 310 0
-265 89 0
169 359 0
95 119 0
213 426 0
-1 419 0
-84 -108 0
-457 -297 0
497 240 0
-306 -240 0
-460 241 0
-75 -396 0
131 -62 0
-97 -278 0
-227 146 0
17 -482 0
415 -210 0
433 -468 0
79 -12 0
121 61 0
-156 314 0
-284 -358 0
-255 -279 0
-432 197 0
-53 13 0
-77 -435 0
380 402 0
-73 332 0
-85 215 0
222 206 0
55 406 0
158 488 0
121 174 0
363 3 0
-71 -484 0
-435 -382 0
451 -112 0
107 -325 0
-193 -256 0
50 -207 0
494 425 0
286 22 0
216 -350 0
-244 -295 0
-387 -479 0
430 -318 0
412 -262 0
-60 -462 0
65 -120 0
32 -434 0
305 174 0
-1 -359 0
-57 -331 0
-76 -16 0
43 301 0
428 23 0
-187 114 0
17 -3 0
-283 -259 0
376 -310 0
-208 65 0
-325 142 0
-347 495 0
-20 361 0
-496 -469 0
-379 -122 0
-496 -143 0
-325 -35 0
11 -309 0
-30 -53 0
-103 -89 0
475 117 0
-315 468 0
-208 -484 0
121 -148 0
-98 -322 0
188 304 0
294 -101 0
242 454 0
-207 -403 0
142 -55 0
-317 121 0
109 -362 0
198 344 0
193 -9 0
343 282 0
-302 335 0
-355 -310 0
128 38 0
-129 71 0
-66 -141 0
-272 -351 0
-405 -46 0
405 -365 0
482 -361 0
466 -239 0
132 -138 0
-116 426 0
-401 169 0
338 169 0
274 -202 0
-276 -302 0
247 -166 0
-31 -449 0
-124 169 0
-265 229 0
264 -97 0
-117 -250 0
-341 -283 0
206 157 0
-19 332 0
32 -389 0
-101 208 0
301 -1 0
-197 -475 0
22 -267 0
73 162 0
-268 -50 0
-133 471 0
416 -59 0
-219 418 0
2 322 0
177 -48 0
312 -325 0
-308 466 0
48 29 0
212 -324 0
18 -164 0
-416 203 0
-488 93 0
207 -74 0
-320 -230 0
-114 253 0
-386 -354 0
-71 429 0
355 -449 0
-174 162 0
-368 342 0
-374 -176 0
48 318 0
-11 -338 0
-269 -339 0
-57 -253 0
-250 -10 0
-55 62 0
-473 -277 0
254 -441 0
-387 -377 0
494 -176 0
364 -279 0
-200 -108 0
-323 -165 0
423 -89 0
-461 -106 0
377 416 0
-79 -377 0
-120 -452 0
309 93 0
-193 301 0
-459 317 0
103 479 0
-367 221 0
-132 -455 0
476 213 0
260 127 0
-212 -272 0
-12 305 0
-413 169 0
-390 -40 0
38 -462 0
-444 49 0
236 182 0
215 -228 0
-368 -136 0
132 -77 0
-500 -350 0
383 73 0
-267 96 0
458 112 0
-29 339 0
-111 -32 0
-302 186 0
-35 -410 0
375 371 0
302 -50 0
80 38 0
260 439 0
-9 -183 0
-406 407 0
-396 186 0
-414 -348 0
391 -483 0
-185 8 0
256 346 0
-69 -423 0
-415 500 0
458 342 0
291 30 0
-198 348 0
334 -324 0
71 -355 0
-105 62 0
351 -163 0
28 -215 0
104 -257 0
466 -350 0
315 -302 0
340 429 0
344 186 0
-305 395 0
-154 -103 0
424 324 0
451 339 0
499 -498 0
-246 380 0
-11 -473 0
-225 185 0
112 251 0
421 499 0
450 13 0
-454 -72 0
48 -273 0
431 183 0
-284 23 0
390 471 0
-26 325 0
455 425 0
-4 -39 0
90 63 0
-452 -405 0
-358 237 0
168 458 0
205 -91 0
157 -473 0
-199 -137 0
16 301 0
307 -302 0
50 447 0
-448 -250 0
7 -385 0
281 -98 0
-42 180 0
23 -74 0
-59 150 0
-79 -482 0
242 -126 0
-366 172 0
313 -359 0
391 426 0
-166 -227 0
231 243 0
-284 68 0
-358 -111 0
-213 434 0
136 376 0
44 -216 0
-359 -309 0
412 -197 0
-344 313 0
238 -469 0
340 -348 0
152 338 0
59 -36 0
-437 37 0
-480 -89 0
88 -327 0
222 -279 0
265 424 0
439 21 0
422 -42 0
-447 -199 0
-158 -2 0
231 129 0
-407 -386 0
-473 -401 0
431 -272 0
-165 429 0
118 338 0
216 -230 0
-359 -128 0
-275 -406 0
274 -480 0
-375 -444 0
6 66 0
229 101 0
186 154 0
201 453 0
-211 -362 0
-455 -40 0
361 93 0
59 -26 0
439 -91 0
476 -341 0
286 170 0
5 473 0
-464 -276 0
320 -464 0
290 403 0
228 -345 0
275 17 0
-385 -181 0
-447 -12 0
324 -185 0
-414 -365 0
-253 424 0
-267 278 0
-142 -174 0
-122 263 0
-410 -97 0
464 497 0
-43 434 0
314 479 0
392 -180 0
243 495 0
124 243 0
-330 -257 0
181 100 0
441 485 0
499 -27 0
152 -362 0
-196 -197 0
304 -191 0
453 75 0
-345 424 0
453 -153 0
-96 -315 0
-283 -271 0
222 -117 0
369 -293 0
15 168 0
-483 266 0
-137 118 0
48 458 0
-377 162 0
-261 -18 0
-488 371 0
-183 136 0
-93 418 0
-62 -120 0
95 -210 0
-1 -390 0
198 58 0
-443 -316 0
293 -400 0
231 444 0
-315 -307 0
373 289 0
-252 -493 0
-283 -4 0
-70 -369 0
462 370 0
437 413 0
-258 -198 0
-402 433 0
-96 -424 0
-26 236 0
342 -154 0
-112 -278 0
434 402 0
379 275 0
-473 -436 0
-469 -407 0
489 -445 0
-252 -27 0
-108 371 0
-333 -399 0
-452 -299 0
-405 -141 0
-269 -262 0
37 247 0
123 161 0
-328 -361 0
-261 -318 0
-298 394 0
100 -131 0
466 -325 0
-46 -189 0
245 -7 0
-61 182 0
-427 -156 0
243 -271 0
-387 72 0
413 -223 0
-197 -10 0
178 479 0
73 160 0
7 -490 0
-258 107 0
-399 397 0
-142 -2 0
-24 49 0
-145 286 0
395 -447 0
-24 2 0
-440 -166 0
-46 181 0
332 -23 0
100 331 0
-359 203 0
-102 235 0
-131 114 0
199 -335 0
-185 428 0
184 -485 0
88 362 0
23 283 0
-90 -291 0
-131 117 0
382 436 0
480 -316 0
-280 242 0
-282 -202 0
-294 -310 0
-165 314 0
355 -200 0
87 -90 0
-446 -10 0
-315 161 0
-443 200 0
68 -288 0
426 329 0
456 57 0
-272 -105 0
458 -164 0
-360 -369 0
415 -166 0
-463 472 0
-4 -166 0
59 447 0
23 56 0
-83 49 0
-400 444 0
216 162 0
-384 179 0
93 265 0
-416 82 0
485 332 0
304 391 0
-280 -497 0
250 139 0
236 -478 0
65 330 0
9 -156 0
-171 466 0
-6 -355 0
-439 352 0
174 338 0
-37 43 0
47 -145 0
72 352 0
-224 282 0
-36 441 0
-459 -114 0
-441 287 0
-29 25 0
338 -314 0
206 -36 0
-427 -328 0
383 -207 0
-410 271 0
-333 437 0
13 -141 0
192 -339 0
-175 -165 0
357 -387 0
-321 -410 0
320 181 0
379 -98 0
-71 305 0
267 34 0
-114 144 0
434 -104 0
-209 -182 0
4 188 0
186 -267 0
306 -42 0
256 95 0
179 474 0
23 246 0
491 184 0
-262 -199 0
-105 -356 0
209 338 0
371 -200 0
276 -319 0
-467 222 0
82 186 0
393 383 0
72 -500 0
-328 121 0
-310 338 0
229 -348 0
-10 -316 0
310 -71 0
322 98 0
-118 421 0
416 267 0
-199 50 0
-328 -67 0
123 48 0
-218 92 0
412 -225 0
429 -249 0
284 -115 0
-295 -344 0
333 -89 0
472 -491 0
-373 303 0
-269 254 0
-146 139 0
457 13 0
340 -295 0
-185 292 0
-174 -319 0
497 -484 0
334 286 0
130 109 0
366 167 0
340 412 0
48 -367 0
-196 -396 0
41 320 0
86 -469 0
-132 -265 0
339 -230 0
245 240 0
388 168 0
-285 -32 0
-40 260 0
-272 -163 0
174 371 0
67 -148 0
132 86 0
-35 -432 0
434 -130 0
201 -90 0
-76 433 0
494 -322 0
-432 -283 0
64 -427 0
-86 393 0
-295 474 0
-164 344 0
294 346 0
413 392 0
-217 440 0
-38 238 0
55 -268 0
-432 -409 0
101 127 0
-184 291 0
90 260 0
144 188 0
370 190 0
-112 -201 0
388 493 0
-207 251 0
-360 298 0
-167 -454 0
-55 -227 0
87 -352 0
-111 201 0
107 471 0
478 420 0
-183 455 0
396 -378 0
472 476 0
73 -293 0
260 453 0
395 473 0
-126 -367 0
457 446 0
487 -339 0
-355 293 0
246 291 0
-431 423 0
194 332 0
272 -323 0
-191 304 0
-122 -222 0
263 152 0
121 -460 0
-88 -56 0
341 247 0
217 353 0
320 -8 0
-483 -46 0
136 217 0
338 434 0
-298 498 0
112 49 0
266 311 0
-292 221 0
437 409 0
-38 -306 0
413 279 0
174 -156 0
38 437 0
-324 -453 0
-153 168 0
94 -215 0
331 476 0
458 -242 0
149 -436 0
301 -211 0
-280 461 0
-132 -438 0
144 193 0
314 431 0
171 -172 0
-279 -153 0
124 -130 0
-247 60 0
-483 377 0
158 58 0
266 -174 0
431 -344 0
285 388 0
-341 -163 0
136 -418 0
18 -19 0
332 80 0
273 155 0
268 -147 0
303 176 0
227 -120 0
118 -125 0
382 -39 0
-185 -183 0
-19 -500 0
-180 100 0
-190 186 0
348 3 0
-498 244 0
-73 -356 0
395 -484 0
-24 70 0
342 -107 0
465 121 0
-459 273 0
-161 -120 0
-181 487 0
450 -22 0
-209 127 0
-389 461 0
438 497 0
83 -364 0
-139 -199 0
-456 -364 0
-139 455 0
112 -185 0
-350 -167 0
153 -253 0
16 470 0
473 152 0
99 81 0
-293 -14 0
-409 -158 0
-181 -419 0
181 -298 0
-295 -5 0
368 161 0
234 155 0
478 247 0
-42 -31 0
246 -313 0
-403 -377 0
-125 398 0
194 -98 0
428 266 0
-347 -147 0
-91 284 0
-309 90 0
-11 78 0
-176 -274 0
-282 -120 0
57 -91 0
342 281 0
-240 -298 0
63 234 0
-269 58 0
-430 -294 0
216 -306 0
-56 485 0
-128 217 0
-11 495 0
37 -215 0
28 18 0
116 191 0
-131 -415 0
-404 495 0
-120 -90 0
-267 -233 0
-250 -185 0
465 121 0
-11 -250 0
-22 336 0
500 -40 0
-253 73 0
-339 -18 0
349 -329 0
384 249 0
-399 -26 0
289 -318 0
423 -293 0
308 -324 0
422 -197 0
220 162 0
478 334 0
8 -1 0
38 -430 0
212 -442 0
179 140 0
-191 346 0
421 -124 0
424 145 0
-135 -227 0
126 -42 0
-225 175 0
370 -257 0
-464 412 0
-94 -284 0
-108 357 0
-483 172 0
408 211 0
-498 -53 0
47 256 0
395 487 0
289 363 0
-263 -437 0
342 -147 0
398 198 0
-207 396 0
23 47 0
-228 -345 0
424 210 0
110 274 0
204 -381 0
-373 289 0
41 -192 0
374 160 0
264 123 0
100 493 0
-239 -187 0
193 108 0
214 -254 0
384 -191 0
-112 237 0
500 -283 0
144 475 0
-399 477 0
-223 51 0
-327 -331 0
-118 49 0
