c bounds 106 106 129.83
p cnf 500 800
-70 163 0
396 476 0
-244 -435 0
-151 195 0
37 -310 0
20 -471 0
-315 497 0
-401 -63 0
329 128 0
146 -179 0
364 122 0
112 170 0
-340 306 0
199 -35 0
-177 -417 0
-166 -90 0
39 -458 0
325 -187 0
-369 415 0
299 -278 0
-200 -219 0
-16 -30 0
303 -322 0
-179 -232 0
-187 -188 0
-95 437 0
234 -80 0
69 -390 0
-188 -14 0
-5 448 0
-340 22 0
-335 440 0
430 114 0
-332 261 0
-21 -134 0
-449 3 0
210 278 0
498 412 0
275 -70 0
209 -242 0
369 -257 0
446 180 0
74 118 0
90 285 0
-7 -275 0
444 168 0
-311 184 0
140 1 0
372 -385 0
411 -310 0
456 191 0
-127 480 0
-437 423 0
-496 -164 0
393 85 0
406 -476 0
-61 -328 0
-21 285 0
66 15 0
-459 13 0
-148 319 0
-40 155 0
403 391 0
-148 -241 0
376 -148 0
44 90 0
-198 -114 0
287 -468 0
286 -238 0
-50 -114 0
477 470 0
306 295 0
-417 -170 0
469 -253 0
-358 394 0
96 295 0
-494 -309 0
-153 354 0
-312 -267 0
194 35 0
-216 170 0
-120 -232 0
458 -228 0
-205 163 0
-213 48 0
-340 287 0
461 -301 0
184 113 0
-246 -100 0
328 -314 0
138 -155 0
441 466 0
411 449 0
95 -346 0
129 462 0
263 155 0
-41 141 0
158 -57 0
-483 -127 0
168 -274 0
-235 145 0
90 -428 0
-84 -8 0
232 -189 0
110 -391 0
-318 -407 0
93 184 0
165 328 0
-24 -116 0
467 425 0
201 95 0
-81 -51 0
81 488 0
-14 155 0
278 -238 0
351 184 0
-208 -461 0
-244 440 0
-65 -114 0
111 498 0
-301 81 0
-400 -273 0
95 78 0
344 -49 0
123 -296 0
192 317 0
250 -310 0
30 2 0
-363 -298 0
193 51 0
431 -175 0
-359 253 0
-497 -182 0
231 -373 0
-147 1 0
381 -70 0
493 -198 0
-470 401 0
170 -193 0
376 148 0
-7 401 0
-388 484 0
315 347 0
-344 -232 0
497 -216 0
-30 177 0
-459 332 0
14 -65 0
421 -359 0
-29 281 0
370 409 0
126 68 0
-245 201 0
-198 -323 0
172 105 0
-102 78 0
183 -277 0
445 -71 0
332 -263 0
-467 113 0
-43 147 0
12 99 0
481 383 0
173 426 0
125 448 0
-74 -133 0
-307 -338 0
314 107 0
-494 387 0
-252 338 0
-212 176 0
108 -459 0
-51 -49 0
-199 -418 0
-359 -220 0
-221 95 0
-455 -447 0
-74 -413 0
-162 144 0
493 414 0
-487 -428 0
-161 -477 0
211 -134 0
219 302 0
143 -417 0
426 62 0
209 321 0
-491 3 0
497 -291 0
-274 -197 0
-74 420 0
393 -65 0
253 365 0
-379 164 0
-300 399 0
-450 351 0
38 68 0
-445 -224 0
96 76 0
-253 -458 0
-147 -467 0
-291 371 0
-60 192 0
13 -235 0
313 333 0
232 -150 0
228 99 0
-475 -291 0
-33 -368 0
-393 -205 0
-101 203 0
-72 -344 0
58 3 0
407 453 0
421 486 0
-471 -258 0
-419 199 0
105 386 0
-232 435 0
485 405 0
371 -256 0
196 -5 0
311 -470 0
469 -449 0
288 -190 0
367 -291 0
444 97 0
190 319 0
26 192 0
-56 -461 0
201 -57 0
461 403 0
111 488 0
327 131 0
-32 145 0
-33 -179 0
-261 -458 0
-110 352 0
-268 325 0
-264 331 0
-159 -235 0
26 259 0
328 320 0
473 -207 0
145 230 0
431 -418 0
47 -19 0
455 237 0
-460 311 0
-53 -360 0
-55 -188 0
-265 410 0
44 -292 0
183 -225 0
82 212 0
-22 -446 0
-171 497 0
-131 98 0
302 -179 0
226 362 0
187 -127 0
-297 336 0
-199 82 0
-49 -240 0
287 23 0
-277 -417 0
-281 220 0
418 3 0
-404 78 0
-462 -81 0
-246 -387 0
-304 287 0
-36 163 0
85 164 0
-154 484 0
496 123 0
419 98 0
-65 454 0
425 392 0
-487 -248 0
471 234 0
-390 450 0
-164 -66 0
1 102 0
465 227 0
38 25 0
-73 -100 0
-251 111 0
-379 -338 0
-49 -241 0
-297 348 0
193 -187 0
396 -205 0
209 152 0
438 -269 0
-399 -148 0
-315 -9 0
-480 -83 0
-195 -346 0
235 400 0
429 -66 0
133 390 0
-235 -11 0
245 344 0
-26 391 0
404 -253 0
-484 -465 0
360 382 0
36 204 0
16 -5 0
206 179 0
-433 -240 0
285 443 0
-164 148 0
458 -252 0
-56 -146 0
-292 -47 0
-125 -497 0
146 437 0
449 -12 0
-487 483 0
419 -337 0
187 75 0
202 -276 0
440 456 0
-66 343 0
416 -21 0
-280 -11 0
-156 45 0
-164 45 0
144 107 0
-59 450 0
30 374 0
-461 -164 0
307 196 0
465 -46 0
20 370 0
-284 34 0
-2 -373 0
-89 270 0
-488 -358 0
279 -172 0
379 319 0
473 135 0
218 -214 0
-214 395 0
470 274 0
-71 72 0
-179 -437 0
-458 -358 0
-2 434 0
425 38 0
349 -179 0
-5 -442 0
477 -104 0
72 49 0
-342 72 0
-209 243 0
-388 373 0
-416 -249 0
354 444 0
204 -246 0
210 475 0
-270 -279 0
-374 45 0
-474 236 0
-304 82 0
-223 -222 0
-292 359 0
330 204 0
167 419 0
-282 470 0
-150 298 0
275 290 0
-166 -175 0
-239 -78 0
-499 -309 0
152 13 0
492 380 0
16 474 0
-396 64 0
457 -485 0
283 248 0
489 422 0
-203 445 0
-273 274 0
332 -59 0
-29 -21 0
3 368 0
-139 305 0
288 -428 0
238 328 0
9 -329 0
64 -10 0
325 175 0
-260 330 0
141 -253 0
-339 206 0
83 -93 0
310 209 0
325 288 0
454 -87 0
-488 401 0
-11 482 0
403 -89 0
72 -133 0
-241 123 0
-358 -415 0
453 401 0
157 -201 0
348 -398 0
-26 -369 0
404 -107 0
-482 -130 0
131 170 0
195 -336 0
-182 475 0
-102 -260 0
339 -482 0
-323 -82 0
111 -223 0
161 266 0
16 -441 0
-269 187 0
-261 474 0
-396 82 0
337 -425 0
-125 -447 0
444 275 0
13 -391 0
-31 410 0
306 -90 0
85 -238 0
-101 -235 0
389 -470 0
-240 357 0
-379 469 0
-433 -498 0
-404 326 0
288 -124 0
-216 -71 0
182 57 0
353 357 0
12 176 0
-108 -160 0
453 34 0
136 306 0
-252 -385 0
409 41 0
-123 -73 0
141 445 0
184 -95 0
77 -283 0
-94 464 0
-355 -27 0
115 271 0
-150 -179 0
-324 133 0
310 409 0
-166 49 0
341 -462 0
-184 425 0
353 233 0
243 -70 0
234 -213 0
-129 227 0
432 72 0
426 -244 0
-369 370 0
453 132 0
-386 218 0
270 -61 0
82 8 0
293 120 0
-124 11 0
-487 -38 0
-482 -31 0
-365 -17 0
-470 421 0
117 226 0
488 390 0
401 118 0
-258 177 0
78 333 0
190 312 0
188 -153 0
90 -284 0
-127 131 0
186 -393 0
239 194 0
57 -368 0
303 -13 0
459 -100 0
332 154 0
-315 453 0
408 469 0
352 335 0
248 61 0
209 -9 0
-345 486 0
-463 200 0
232 466 0
-58 261 0
315 351 0
-258 -375 0
317 -420 0
51 304 0
-291 461 0
227 -112 0
248 -399 0
184 -71 0
1 -227 0
-436 305 0
443 101 0
163 141 0
91 415 0
-331 398 0
254 287 0
382 -482 0
451 29 0
-258 -205 0
-25 122 0
-5 310 0
209 -351 0
321 -153 0
-404 123 0
39 23 0
89 -229 0
-385 -447 0
-125 -126 0
-52 -31 0
2 77 0
-275 337 0
121 408 0
282 395 0
-386 452 0
-400 371 0
431 -213 0
-276 290 0
-378 126 0
-239 -384 0
247 220 0
-12 22 0
132 -42 0
-495 243 0
59 223 0
288 187 0
54 93 0
-271 4 0
392 57 0
409 -330 0
133 -479 0
311 242 0
-174 177 0
-308 -96 0
-256 41 0
-229 376 0
-73 -385 0
-182 -300 0
69 -380 0
-398 473 0
-482 -13 0
-107 -254 0
101 -279 0
24 -422 0
112 -352 0
493 -36 0
-201 404 0
218 -254 0
152 1 0
-235 -413 0
153 351 0
-96 192 0
58 -308 0
107 -455 0
-246 -14 0
-161 -194 0
-475 12 0
287 283 0
15 143 0
-350 309 0
374 117 0
500 -296 0
489 400 0
248 479 0
169 307 0
-23 -33 0
381 194 0
-279 -42 0
-66 263 0
64 -246 0
45 275 0
-299 357 0
435 -424 0
347 -230 0
-146 -458 0
83 162 0
-252 64 0
-280 -438 0
183 -214 0
-482 457 0
40 253 0
442 209 0
103 209 0
306 -237 0
-230 419 0
53 -215 0
250 112 0
430 -294 0
272 201 0
391 59 0
-256 -40 0
97 -179 0
200 114 0
62 -472 0
-241 -315 0
-297 19 0
309 353 0
-244 345 0
-384 -152 0
-258 -116 0
496 463 0
-247 79 0
324 -310 0
-165 467 0
-415 -225 0
427 308 0
-286 451 0
-253 427 0
479 464 0
-97 -362 0
-357 -63 0
293 -307 0
133 51 0
163 120 0
112 200 0
-5 -459 0
-339 -267 0
-334 -301 0
-452 186 0
143 -323 0
-360 -56 0
326 398 0
-334 485 0
261 206 0
450 106 0
99 -479 0
245 15 0
-246 337 0
-500 6 0
334 68 0
-436 377 0
316 353 0
345 211 0
376 -121 0
462 158 0
457 279 0
149 138 0
-498 390 0
343 343 0
-355 144 0
4 -358 0
180 211 0
-377 343 0
-214 173 0
-411 314 0
-254 -159 0
277 -318 0
240 -20 0
426 326 0
167 430 0
261 466 0
39 441 0
330 -103 0
-316 -164 0
296 -384 0
490 325 0
-246 -196 0
-340 299 0
-86 397 0
-276 -119 0
129 -292 0
422 -321 0
-428 319 0
-65 144 0
-194 2 0
-263 382 0
210 98 0
265 -346 0
132 -107 0
53 -481 0
-314 463 0
-260 -223 0
146 90 0
-197 484 0
176 -11 0
105 175 0
-84 -499 0
-472 451 0
128 -292 0
-146 168 0
-308 -50 0
169 -23 0
411 64 0
20 -391 0
-282 -70 0
-479 -141 0
342 -194 0
231 -302 0
-9 210 0
-359 437 0
-300 27 0
226 319 0
-14 494 0
-488 408 0
173 -201 0
-222 -215 0
335 174 0
484 11 0
-252 -340 0
455 -289 0
-146 356 0
-313 -455 0
-10 -453 0
-389 466 0
-210 401 0
-176 -249 0
-423 -70 0
-288 408 0
-242 426 0
411 229 0
-491 18 0
29 442 0
-447 -362 0
382 -89 0
-264 405 0
390 388 0
-126 -294 0
-344 198 0
180 -263 0
431 -369 0
395 41 0
-282 -296 0
496 44 0
-151 -389 0
-465 -445 0
180 -269 0
-25 457 0
213 168 0
-100 485 0
-156 -130 0
322 -305 0
-400 261 0
54 -120 0
101 -114 0
348 216 0
-366 432 0
452 113 0
155 -144 0
-454 -237 0
-346 212 0
126 -483 0
-276 161 0
-417 -254 0
-495 -396 0
351 147 0
-258 430 0
-301 182 0
-236 -384 0
493 386 0
200 -239 0
-13 145 0
-12 -491 0
240 182 0
-228 306 0
-153 46 0
242 387 0
319 -31 0
330 368 0
-379 -18 0
183 204 0
382 -149 0
126 -269 0
-126 -188 0
-468 103 0
17 -221 0
239 -134 0
36 31 0
-300 -386 0
40 -41 0
-42 45 0
-258 -111 0
206 219 0
374 -157 0
218 473 0
262 250 0
-369 -237 0
-334 -344 0
-363 315 0
365 -69 0
