c bounds 235 235 0.02
p cnf 500 350
-130 128 0
-264 -309 0
-82 30 0
328 135 0
196 149 0
336 170 0
-136 193 0
201 -342 0
183 -423 0
8 86 0
208 453 0
19 -409 0
-18 164 0
249 50 0
-100 143 0
458 -458 0
-414 -473 0
-316 -373 0
317 -499 0
-431 408 0
176 8 0
-447 -267 0
-30 8 0
485 58 0
-250 347 0
-274 -293 0
134 427 0
498 -143 0
-369 -190 0
-361 92 0
-166 -271 0
280 -94 0
497 55 0
400 -3 0
225 -284 0
176 330 0
-72 324 0
-301 -361 0
70 -394 0
232 -146 0
-414 -6 0
432 -414 0
327 -16 0
194 196 0
472 313 0
315 -405 0
-375 -370 0
-307 207 0
375 79 0
-344 208 0
234 200 0
-455 337 0
-22 166 0
247 -283 0
-172 -351 0
-191 -55 0
-316 -454 0
83 51 0
-225 338 0
299 -69 0
-197 -8 0
-414 310 0
424 321 0
-311 -416 0
239 -141 0
266 174 0
-234 289 0
190 -94 0
-69 215 0
-227 -39 0
175 352 0
122 -267 0
396 -154 0
-186 492 0
-33 351 0
353 179 0
384 232 0
245 168 0
325 492 0
433 -468 0
-33 -469 0
-244 402 0
-135 -42 0
-361 228 0
362 390 0
-135 -212 0
-318 324 0
-248 -390 0
-286 104 0
447 -397 0
384 -156 0
-95 409 0
-307 -332 0
235 106 0
234 -386 0
329 285 0
320 -385 0
357 55 0
318 -212 0
113 -283 0
-90 -14 0
-179 46 0
39 10 0
335 206 0
105 383 0
408 -36 0
11 -204 0
348 292 0
-390 -83 0
-241 136 0
-356 -161 0
-476 463 0
207 -480 0
73 295 0
8 -382 0
292 -342 0
-332 -72 0
444 318 0
-428 70 0
-263 87 0
371 413 0
-254 -66 0
-88 209 0
257 105 0
-226 -78 0
368 410 0
229 -227 0
-121 -160 0
-118 -130 0
-277 254 0
239 -267 0
-146 -250 0
-143 -247 0
-436 -158 0
-366 -429 0
-158 400 0
-294 -122 0
-463 -292 0
176 261 0
-439 -380 0
239 -10 0
254 -448 0
298 21 0
88 237 0
-495 -188 0
85 -265 0
-469 -287 0
-163 180 0
83 -125 0
-12 225 0
-204 -73 0
-228 -28 0
-318 -114 0
136 105 0
174 395 0
479 320 0
246 77 0
220 486 0
-94 -475 0
-339 99 0
-296 344 0
332 285 0
172 -61 0
-243 11 0
-342 -110 0
469 -240 0
-4 -41 0
-481 -401 0
24 16 0
104 224 0
-46 99 0
-211 202 0
365 -270 0
194 -460 0
-335 395 0
-369 -472 0
-69 146 0
-354 -42 0
-133 -340 0
-119 62 0
-438 -161 0
347 -239 0
468 245 0
347 -433 0
345 184 0
415 -5 0
218 -195 0
125 -199 0
17 400 0
-90 -186 0
-71 -39 0
-47 -453 0
166 392 0
336 -204 0
257 369 0
400 -327 0
-488 167 0
-178 -461 0
-315 -132 0
157 -322 0
-312 -260 0
106 371 0
-331 103 0
399 -386 0
-360 376 0
243 -69 0
-301 -213 0
186 -65 0
205 105 0
55 -364 0
364 299 0
400 92 0
-308 -316 0
-383 354 0
-492 -47 0
90 -397 0
-196 -74 0
143 317 0
273 -494 0
-228 87 0
431 169 0
-337 -48 0
-159 -102 0
77 -373 0
269 -203 0
-500 -138 0
-478 -368 0
115 193 0
-111 -49 0
286 -294 0
-274 -205 0
460 137 0
-73 -419 0
442 -307 0
13 50 0
410 -77 0
364 421 0
484 -76 0
-248 385 0
11 -366 0
-403 -307 0
144 153 0
93 -397 0
186 19 0
-411 368 0
-92 43 0
113 -390 0
24 -37 0
-16 -198 0
-417 -131 0
116 132 0
104 492 0
155 -425 0
-100 -481 0
472 -287 0
-10 -417 0
-473 407 0
406 -252 0
-276 -468 0
-331 195 0
423 324 0
-286 -443 0
-336 57 0
-188 -494 0
-379 -32 0
-89 -394 0
324 -415 0
-310 -81 0
296 -42 0
-284 -76 0
-356 -476 0
492 -404 0
-243 500 0
133 -417 0
422 -130 0
-483 -31 0
-187 -184 0
200 -19 0
-210 367 0
171 310 0
346 -301 0
-230 -311 0
396 26 0
-411 -262 0
-114 -411 0
-39 -204 0
170 -461 0
356 -290 0
316 -339 0
-126 104 0
138 -310 0
-460 -66 0
226 487 0
392 -89 0
-452 -265 0
-306 -135 0
-107 460 0
-290 330 0
274 -37 0
-366 111 0
-488 -181 0
79 -336 0
-130 28 0
411 -168 0
237 77 0
353 -309 0
349 8 0
369 -354 0
116 447 0
94 295 0
486 -477 0
-255 131 0
-267 -391 0
-70 -185 0
-40 -47 0
9 -136 0
396 371 0
9 -113 0
35 -283 0
-318 236 0
-328 409 0
71 1 0
247 -72 0
-143 -128 0
-442 -302 0
-474 -127 0
451 125 0
-80 11 0
-260 53 0
-366 -481 0
-332 -236 0
471 176 0
-154 176 0
123 -345 0
-465 -416 0
-456 -436 0
-12 -300 0
-26 459 0
317 202 0
-12 -147 0
308 144 0
52 -26 0
291 -325 0
-156 408 0
407 -452 0
42 381 0
-459 -433 0
483 -326 0
404 -349 0
464 256 0
