c bounds 63 63 0.05
p cnf 500 1350
419 212 0
466 -393 0
490 -55 0
-75 -194 0
1 114 0
394 320 0
385 -10 0
-102 20 0
66 -4 0
272 115 0
132 -44 0
-479 -451 0
95 -138 0
-324 -405 0
-481 451 0
173 -412 0
42 -74 0
279 -61 0
414 463 0
-73 -484 0
98 292 0
41 -402 0
278 175 0
85 318 0
61 -117 0
-160 -188 0
-460 187 0
-302 293 0
117 -316 0
466 462 0
59 249 0
336 -478 0
209 -100 0
-476 413 0
-441 24 0
329 225 0
-169 -338 0
-219 -226 0
-88 317 0
31 -90 0
186 335 0
-272 -313 0
-20 477 0
-220 -321 0
378 139 0
100 -323 0
52 -461 0
431 434 0
-84 -12 0
26 -424 0
120 -255 0
250 -500 0
258 -14 0
-45 -290 0
292 -212 0
-12 -197 0
77 330 0
-453 -236 0
118 29 0
68 34 0
-16 283 0
485 432 0
122 -315 0
179 303 0
48 -186 0
341 -334 0
203 -495 0
123 -258 0
174 271 0
-147 208 0
204 383 0
206 -347 0
-182 -185 0
-393 -127 0
-154 451 0
373 -269 0
323 -274 0
-411 -437 0
101 183 0
-210 -250 0
392 -482 0
-52 -145 0
-405 127 0
-78 408 0
330 490 0
420 116 0
-188 155 0
66 131 0
-296 259 0
388 -126 0
487 -500 0
-257 30 0
402 -196 0
-85 286 0
-210 -210 0
-441 -344 0
377 -188 0
-322 -315 0
-483 -79 0
-124 -274 0
-379 -215 0
82 -129 0
-491 458 0
163 339 0
117 281 0
447 -484 0
218 -125 0
205 146 0
-131 440 0
-57 473 0
282 403 0
126 311 0
-464 33 0
30 -499 0
199 -258 0
-488 -313 0
-214 463 0
-207 361 0
171 -339 0
-289 -80 0
320 122 0
395 8 0
-395 -141 0
-269 267 0
-349 193 0
-257 -91 0
161 -80 0
466 -433 0
70 -213 0
240 372 0
29 -492 0
-411 251 0
-280 325 0
293 396 0
-258 -461 0
304 165 0
-30 -389 0
-84 -283 0
166 151 0
132 -425 0
-159 272 0
-87 119 0
-125 27 0
-14 225 0
-64 423 0
71 188 0
366 39 0
133 465 0
37 -157 0
64 38 0
261 -496 0
199 -473 0
430 235 0
183 -442 0
388 113 0
171 -280 0
-99 29 0
296 325 0
73 -88 0
23 -497 0
441 -228 0
347 -419 0
77 319 0
-143 -276 0
388 447 0
456 173 0
410 -344 0
91 492 0
365 462 0
-351 23 0
70 -315 0
-371 -180 0
335 209 0
349 -332 0
-132 -417 0
434 392 0
81 207 0
-287 -64 0
-475 31 0
-499 -447 0
356 234 0
-492 -327 0
-40 -72 0
115 -278 0
-68 -322 0
-253 336 0
467 -52 0
335 -246 0
228 -124 0
25 230 0
32 8 0
-124 462 0
-103 286 0
-14 -451 0
340 -327 0
-332 296 0
57 -200 0
-369 -197 0
-152 356 0
166 -174 0
-373 187 0
416 94 0
171 -486 0
-41 165 0
-38 -87 0
259 150 0
-127 82 0
-152 -406 0
-271 -459 0
-437 326 0
-380 -215 0
76 32 0
274 244 0
-358 227 0
183 -398 0
379 459 0
113 -310 0
225 106 0
-24 -169 0
-326 -92 0
112 220 0
-478 -444 0
303 -87 0
308 373 0
-107 -337 0
-416 491 0
355 17 0
-255 78 0
-150 26 0
60 392 0
459 -258 0
398 -409 0
32 -166 0
379 433 0
-371 406 0
-232 -224 0
-55 -468 0
-346 -479 0
-485 -212 0
-340 -435 0
-52 472 0
-16 228 0
77 -164 0
423 232 0
-223 184 0
-289 -303 0
360 450 0
335 68 0
49 -177 0
211 -454 0
406 381 0
-407 137 0
-110 123 0
-376 -158 0
478 -154 0
-472 -372 0
-211 -241 0
-9 -121 0
-280 -499 0
363 -84 0
-19 109 0
-18 -379 0
-1 -353 0
141 452 0
-210 44 0
-54 -277 0
-136 317 0
142 320 0
-214 -12 0
330 30 0
23 96 0
393 -126 0
-121 385 0
-90 -222 0
132 91 0
406 32 0
108 394 0
-472 -321 0
-275 -93 0
-460 464 0
279 -333 0
381 94 0
-242 -212 0
-130 -49 0
-336 246 0
-267 -344 0
-143 289 0
-483 -385 0
462 182 0
13 114 0
414 162 0
-500 -400 0
-2 -230 0
182 316 0
-332 336 0
264 383 0
-9 407 0
-431 -500 0
-252 -164 0
29 222 0
250 -472 0
-366 -382 0
-349 -49 0
-180 351 0
435 -154 0
-92 -262 0
20 -267 0
178 -256 0
-131 193 0
220 85 0
-310 -427 0
-108 -177 0
-461 283 0
319 45 0
-172 -198 0
-257 -334 0
-389 -351 0
301 -193 0
194 39 0
-192 122 0
323 24 0
-262 -288 0
379 -278 0
431 411 0
-426 284 0
-130 154 0
-108 -231 0
-68 387 0
-294 -44 0
298 150 0
-489 -16 0
316 481 0
-97 -326 0
385 50 0
279 399 0
176 242 0
-71 104 0
308 -169 0
-154 317 0
-426 -44 0
-92 277 0
388 -411 0
337 440 0
355 -479 0
-192 162 0
-239 -473 0
445 449 0
-495 308 0
274 -212 0
220 -288 0
58 481 0
-313 345 0
438 -74 0
-67 26 0
304 -468 0
46 -128 0
373 -174 0
116 291 0
243 413 0
-46 -105 0
-270 -222 0
-87 338 0
179 223 0
76 -490 0
-362 337 0
-368 -295 0
-460 -4 0
-97 -456 0
-193 366 0
317 287 0
57 -426 0
-365 -148 0
187 -289 0
-490 311 0
-268 -254 0
176 41 0
-231 450 0
70 -459 0
-335 -425 0
-72 122 0
148 406 0
-195 -206 0
-485 -302 0
273 -168 0
409 -155 0
-498 -326 0
-132 -496 0
-216 -400 0
-139 -143 0
-349 414 0
-68 -94 0
-404 -212 0
132 13 0
349 -188 0
-125 -400 0
-418 127 0
451 -128 0
344 176 0
330 432 0
-52 -464 0
-72 -357 0
-485 98 0
218 -221 0
213 -167 0
-361 -321 0
31 179 0
243 -331 0
65 57 0
-313 -257 0
-160 -206 0
385 -326 0
-14 351 0
-382 73 0
478 399 0
-215 -478 0
-149 56 0
202 11 0
-339 95 0
-318 -25 0
95 -312 0
-310 -252 0
459 -269 0
-188 -10 0
-194 -223 0
-235 -429 0
-111 -128 0
-408 35 0
-354 -16 0
343 -262 0
-179 -389 0
-388 457 0
-12 -199 0
-472 127 0
-21 -180 0
252 -341 0
-258 -142 0
-216 -280 0
-257 142 0
111 89 0
264 -362 0
219 137 0
39 -98 0
499 279 0
234 109 0
-215 -488 0
-388 427 0
391 -28 0
234 383 0
339 445 0
73 -16 0
335 160 0
396 -338 0
-22 150 0
-453 -103 0
-423 37 0
-52 -134 0
95 -439 0
-468 -164 0
229 422 0
123 439 0
264 -377 0
-154 -423 0
-196 185 0
-180 -352 0
-64 272 0
114 122 0
378 220 0
102 -319 0
-111 295 0
-78 -192 0
-255 -314 0
198 -11 0
-78 -10 0
-195 -217 0
463 253 0
302 -426 0
-4 -159 0
-267 -442 0
401 -183 0
462 -117 0
481 139 0
91 -388 0
17 73 0
91 -119 0
-316 466 0
217 -117 0
-220 -276 0
-439 330 0
-150 -313 0
76 -498 0
-87 -428 0
-320 -411 0
91 -191 0
-252 309 0
-83 233 0
30 82 0
234 206 0
121 -124 0
135 423 0
-289 -130 0
401 126 0
-236 349 0
-257 -465 0
250 -240 0
381 -194 0
238 -127 0
-29 -470 0
82 81 0
266 207 0
255 202 0
-341 10 0
45 266 0
309 181 0
-358 -332 0
123 -10 0
-417 -47 0
239 264 0
-22 167 0
9 378 0
217 -263 0
-442 408 0
94 -203 0
-275 -447 0
207 89 0
131 206 0
354 303 0
12 -346 0
318 317 0
324 463 0
384 163 0
461 473 0
190 -382 0
-63 -275 0
417 336 0
-67 -108 0
424 296 0
295 -342 0
-178 -342 0
432 384 0
-292 -429 0
335 -177 0
57 -239 0
-408 -398 0
-388 159 0
481 -91 0
463 -54 0
443 -1 0
-345 -226 0
294 -321 0
-254 -344 0
-196 -73 0
-55 53 0
-477 -55 0
122 156 0
-169 -456 0
-328 -172 0
-210 166 0
61 193 0
-135 156 0
91 -241 0
396 423 0
205 171 0
-50 384 0
-187 -300 0
315 229 0
-460 452 0
168 -30 0
22 -400 0
43 -140 0
204 -442 0
7 186 0
-477 -247 0
186 177 0
-422 -110 0
16 -372 0
-455 -340 0
-292 -161 0
-147 -112 0
-359 205 0
379 487 0
77 -94 0
309 490 0
66 109 0
218 -112 0
-332 218 0
-262 272 0
343 -216 0
143 -293 0
-124 -453 0
8 54 0
-21 250 0
408 -278 0
-10 82 0
-215 450 0
69 274 0
66 -366 0
-445 -358 0
68 165 0
63 -359 0
283 -358 0
-402 324 0
-263 -460 0
238 317 0
33 56 0
99 206 0
158 105 0
-171 -389 0
223 -424 0
65 90 0
471 302 0
474 -254 0
312 -475 0
-370 -479 0
43 -448 0
28 263 0
-221 -126 0
350 120 0
-449 -497 0
-369 404 0
-400 -257 0
272 423 0
-146 176 0
-44 -498 0
324 -46 0
-358 -47 0
-356 -260 0
248 -268 0
-63 -407 0
-288 -152 0
176 -109 0
-253 -405 0
-438 373 0
-236 20 0
-356 -257 0
-300 -496 0
297 153 0
391 385 0
-459 -385 0
69 -398 0
-344 -196 0
-459 -335 0
-428 290 0
-63 459 0
435 -475 0
-293 -204 0
331 -90 0
463 436 0
-88 491 0
-152 -340 0
171 443 0
-450 168 0
-87 -426 0
168 485 0
208 393 0
51 -169 0
-376 -280 0
-314 333 0
170 205 0
-368 40 0
-140 -444 0
-97 -262 0
-143 -488 0
208 76 0
398 50 0
71 -253 0
-437 424 0
-44 -87 0
-199 343 0
304 -243 0
-6 -255 0
-226 -337 0
-228 -409 0
93 -439 0
100 135 0
-256 285 0
-183 -78 0
-483 -69 0
-241 326 0
323 446 0
20 -489 0
104 437 0
387 233 0
-301 338 0
-454 -277 0
-499 409 0
-418 435 0
236 -78 0
330 416 0
351 -171 0
335 436 0
-224 229 0
384 245 0
73 357 0
329 -459 0
-370 103 0
-233 -291 0
-47 -492 0
-200 95 0
-18 86 0
-315 -444 0
30 70 0
34 205 0
133 -397 0
137 354 0
491 -495 0
-418 340 0
86 -476 0
-47 473 0
30 457 0
52 33 0
-217 362 0
134 75 0
-338 457 0
-55 -149 0
322 -341 0
-226 12 0
383 -356 0
1 262 0
-442 -106 0
415 126 0
-346 257 0
-286 364 0
-139 -272 0
-245 176 0
-195 -326 0
250 108 0
-222 17 0
-145 -239 0
469 381 0
-94 62 0
-405 453 0
233 65 0
-459 -144 0
-150 173 0
308 129 0
378 247 0
299 -16 0
210 -239 0
-365 89 0
60 -475 0
28 117 0
250 -397 0
282 471 0
316 -470 0
-112 -107 0
-333 -243 0
352 471 0
142 -29 0
168 -400 0
13 24 0
449 -499 0
-228 -414 0
357 250 0
-243 248 0
244 344 0
-242 447 0
371 296 0
380 418 0
-18 14 0
61 148 0
-70 37 0
85 20 0
21 193 0
-276 226 0
175 265 0
309 -22 0
-490 62 0
461 306 0
1 80 0
-41 423 0
-325 283 0
-210 29 0
-267 -337 0
-195 293 0
-341 -258 0
-313 -104 0
308 -5 0
-181 431 0
-490 61 0
-302 388 0
-184 137 0
355 327 0
-389 -56 0
-329 -233 0
59 49 0
379 -20 0
224 -64 0
235 105 0
-169 -192 0
445 159 0
462 -327 0
-354 102 0
494 396 0
135 451 0
335 -437 0
-219 -357 0
287 393 0
-264 151 0
-128 324 0
-247 273 0
203 -468 0
-103 -127 0
381 431 0
386 439 0
-263 195 0
463 -254 0
-482 -390 0
361 -59 0
122 -175 0
-354 241 0
-468 282 0
14 -243 0
324 -413 0
-287 -453 0
-120 491 0
-12 446 0
-333 173 0
-425 -83 0
-298 309 0
-52 -93 0
230 -285 0
374 -359 0
225 152 0
87 -372 0
-473 -118 0
82 -74 0
143 176 0
445 207 0
488 -453 0
306 -400 0
166 -389 0
-454 204 0
-300 432 0
-123 75 0
201 -362 0
397 82 0
-332 -400 0
306 106 0
418 -5 0
60 -302 0
-407 437 0
-216 -89 0
47 250 0
-340 -260 0
77 221 0
-38 297 0
283 -467 0
-365 415 0
378 32 0
56 -59 0
-431 77 0
457 -137 0
-270 -265 0
65 -294 0
-143 -21 0
-177 -4 0
251 -334 0
183 349 0
-465 30 0
-349 -498 0
-461 173 0
487 -487 0
-154 229 0
-256 -362 0
335 31 0
-257 251 0
92 -52 0
396 -489 0
-107 135 0
494 132 0
470 -400 0
216 95 0
-344 62 0
150 -292 0
123 -61 0
-184 178 0
-466 -316 0
-343 324 0
-20 34 0
-257 65 0
289 -117 0
33 -14 0
178 381 0
58 -6 0
283 35 0
-143 -214 0
94 -316 0
-499 -394 0
148 469 0
21 -107 0
261 -457 0
65 -154 0
-29 71 0
-358 78 0
-303 -359 0
-289 60 0
472 245 0
285 28 0
-218 -158 0
466 221 0
-136 -306 0
-378 399 0
202 31 0
-387 500 0
456 -478 0
56 302 0
447 -375 0
222 -499 0
409 438 0
-76 45 0
-422 -129 0
458 466 0
-255 250 0
-85 -496 0
86 -430 0
-428 25 0
202 126 0
20 -429 0
-405 201 0
113 58 0
167 206 0
361 163 0
-274 -64 0
110 -99 0
-467 -162 0
-224 -347 0
113 86 0
295 -185 0
-500 -449 0
394 -456 0
116 156 0
208 -422 0
334 381 0
457 -280 0
-417 -170 0
-306 -371 0
-25 -359 0
446 -75 0
-310 -483 0
-314 -468 0
-41 487 0
431 23 0
-478 -310 0
311 -350 0
-249 48 0
3 -31 0
-2 405 0
267 201 0
-112 150 0
426 423 0
-313 -358 0
-153 317 0
58 -260 0
486 208 0
66 -147 0
-97 -162 0
75 437 0
270 -2 0
-340 183 0
-238 33 0
-254 -160 0
-6 25 0
-371 -19 0
395 -189 0
-19 68 0
-334 -136 0
39 -56 0
-441 -226 0
89 310 0
158 237 0
-366 -300 0
8 234 0
-175 205 0
-49 -23 0
456 -202 0
206 -381 0
-250 -54 0
211 282 0
196 -479 0
229 -459 0
306 38 0
30 41 0
446 324 0
497 233 0
-102 -290 0
-197 -490 0
-164 -200 0
400 3 0
-18 317 0
-220 89 0
286 389 0
-426 -411 0
70 202 0
-299 -239 0
484 106 0
-101 151 0
235 37 0
-139 -484 0
283 -419 0
-415 -331 0
47 380 0
-184 -435 0
120 274 0
373 58 0
421 209 0
218 -5 0
306 -286 0
153 -191 0
111 379 0
447 169 0
-479 65 0
-307 -389 0
-473 -109 0
77 -481 0
-221 399 0
432 -181 0
430 189 0
-5 -260 0
125 335 0
267 -146 0
-352 271 0
-266 -233 0
120 303 0
203 -147 0
423 -237 0
375 120 0
270 325 0
-287 122 0
413 463 0
415 436 0
-155 413 0
-453 -74 0
434 174 0
295 31 0
-416 -266 0
-356 -475 0
-278 268 0
-306 298 0
-172 51 0
-132 443 0
421 62 0
295 -131 0
380 -469 0
336 -386 0
-322 -359 0
20 -273 0
-103 -228 0
-212 58 0
-476 308 0
-170 -226 0
-221 -420 0
-1 190 0
393 3 0
-226 -7 0
-475 42 0
-367 235 0
184 449 0
-448 -277 0
-185 385 0
-468 29 0
-411 411 0
-328 73 0
220 125 0
3 343 0
60 -333 0
-78 97 0
153 369 0
419 392 0
-188 240 0
-2 269 0
382 -472 0
-237 125 0
131 433 0
115 -77 0
58 -431 0
186 287 0
413 -115 0
-150 193 0
226 -139 0
152 -217 0
-338 445 0
-309 -193 0
134 -371 0
-417 -261 0
-342 -350 0
-276 43 0
381 135 0
-129 -324 0
-292 228 0
316 -500 0
249 71 0
250 -67 0
415 -97 0
437 79 0
273 -228 0
-202 -256 0
-406 -270 0
409 -219 0
148 -163 0
-163 320 0
-116 60 0
16 -222 0
148 -425 0
187 150 0
45 65 0
259 248 0
264 -227 0
113 -166 0
-474 84 0
-469 156 0
171 33 0
-185 -237 0
366 -487 0
414 -458 0
-368 92 0
347 283 0
-367 -316 0
-193 478 0
317 306 0
357 118 0
137 367 0
320 -165 0
278 -242 0
198 -63 0
335 -23 0
-460 -314 0
410 -334 0
377 412 0
-112 213 0
-472 418 0
459 -236 0
-283 -138 0
-408 345 0
324 -406 0
-217 -224 0
-300 -361 0
-467 -350 0
165 347 0
255 -322 0
339 -44 0
9 -289 0
339 67 0
32 434 0
-160 11 0
405 -435 0
475 -487 0
225 -459 0
469 -332 0
456 363 0
-405 -31 0
424 -44 0
-305 -111 0
272 -78 0
-333 -292 0
331 -484 0
59 -177 0
479 481 0
113 415 0
120 330 0
438 -412 0
280 249 0
-255 -147 0
198 -436 0
-35 -435 0
106 -16 0
187 -177 0
-196 459 0
-334 111 0
328 -28 0
317 -260 0
431 329 0
25 422 0
-472 -414 0
486 -266 0
-256 -490 0
-242 -256 0
-207 -475 0
-132 -132 0
-360 -498 0
61 401 0
-429 166 0
193 379 0
-196 -74 0
45 -139 0
299 173 0
-465 -180 0
-313 -429 0
-259 53 0
392 458 0
-454 389 0
100 460 0
-304 -36 0
48 358 0
-417 331 0
-143 -441 0
-11 -408 0
-360 -131 0
-118 -323 0
-62 352 0
-485 198 0
-490 436 0
-485 -145 0
393 -446 0
-223 -312 0
344 -292 0
-150 247 0
133 -447 0
69 230 0
-448 -257 0
-230 -185 0
-201 -54 0
-336 -475 0
-479 365 0
250 396 0
147 280 0
187 -500 0
23 201 0
-162 -241 0
61 367 0
-349 -246 0
33 -446 0
-354 -298 0
-172 488 0
-6 -99 0
-13 234 0
457 440 0
452 310 0
-276 -181 0
314 414 0
105 192 0
-137 -93 0
-236 -106 0
-177 -212 0
-389 84 0
21 -277 0
-57 -131 0
420 -269 0
159 35 0
-188 76 0
-106 104 0
-316 34 0
-122 113 0
-74 108 0
92 168 0
-402 -372 0
-428 399 0
279 -320 0
233 -322 0
-442 189 0
-384 11 0
131 -64 0
-129 261 0
389 -484 0
162 454 0
23 -106 0
-246 -479 0
234 483 0
230 -411 0
366 -268 0
256 -496 0
-252 -103 0
343 219 0
335 222 0
-385 -484 0
-97 -215 0
306 76 0
155 -256 0
-46 61 0
-341 -179 0
-15 -445 0
-132 -302 0
-459 440 0
-52 -326 0
322 285 0
-305 138 0
-275 -59 0
-356 422 0
-267 -59 0
-354 33 0
-317 -68 0
-84 -197 0
252 -160 0
451 -270 0
364 -280 0
-402 -118 0
131 320 0
325 -294 0
-2 422 0
444 44 0
233 340 0
-48 457 0
-320 -166 0
316 373 0
175 -76 0
385 27 0
244 -382 0
221 403 0
-420 -46 0
404 330 0
-448 436 0
-247 -142 0
-89 261 0
14 31 0
325 -255 0
363 213 0
446 -418 0
-232 -289 0
47 -91 0
-146 209 0
81 -235 0
130 -277 0
42 -432 0
151 442 0
-382 240 0
85 -460 0
189 326 0
-109 -34 0
456 409 0
11 -405 0
-406 -426 0
-390 325 0
284 -150 0
157 -58 0
-194 -47 0
-358 -224 0
-255 149 0
275 60 0
436 -310 0
108 -387 0
156 155 0
359 -195 0
-171 234 0
187 142 0
438 -341 0
61 -86 0
-294 193 0
390 50 0
123 -287 0
-6 271 0
132 471 0
391 393 0
-500 -230 0
-368 28 0
-129 -12 0
-22 171 0
328 -420 0
458 330 0
294 431 0
-161 77 0
-465 296 0
