c bounds 38 38 0.04
p cnf 500 1950
98 310 0
-470 -94 0
298 -107 0
75 -355 0
88 257 0
-500 -136 0
48 -176 0
262 -499 0
-115 399 0
-75 -483 0
-276 313 0
177 -445 0
-394 298 0
164 418 0
279 364 0
-181 -459 0
-260 137 0
-147 -485 0
-318 260 0
159 -317 0
260 419 0
25 -34 0
13 306 0
62 138 0
-294 -89 0
-109 -93 0
-250 381 0
230 192 0
-302 -176 0
306 -323 0
-407 -85 0
-54 -447 0
114 -326 0
288 270 0
164 -200 0
16 -234 0
-400 -142 0
272 21 0
25 11 0
173 141 0
-339 401 0
-19 -9 0
-268 56 0
-274 98 0
-213 -232 0
-61 95 0
29 -288 0
273 -338 0
182 412 0
156 -217 0
460 -244 0
-195 -445 0
64 -467 0
-121 197 0
-5 -161 0
-329 411 0
-51 -40 0
394 70 0
113 -176 0
-185 75 0
-162 357 0
184 -165 0
-94 -28 0
-307 323 0
-26 105 0
136 -336 0
-27 -217 0
34 -74 0
-122 128 0
-309 -427 0
-172 466 0
-176 474 0
-413 -442 0
448 36 0
129 103 0
-356 383 0
-208 -456 0
333 114 0
333 -99 0
-38 -194 0
196 483 0
159 -282 0
381 348 0
481 -437 0
-295 308 0
319 -296 0
341 -92 0
117 230 0
-489 9 0
-282 299 0
-7 -261 0
366 266 0
288 -474 0
-42 308 0
197 -488 0
136 384 0
135 56 0
56 -464 0
-163 18 0
-28 196 0
-249 -236 0
-188 -233 0
-217 137 0
472 391 0
479 -493 0
177 -89 0
325 -359 0
286 405 0
46 -295 0
413 -342 0
-221 158 0
298 387 0
194 -351 0
347 254 0
-154 19 0
-7 286 0
266 257 0
23 -473 0
451 116 0
128 -141 0
15 -223 0
115 279 0
155 270 0
155 415 0
449 -138 0
-201 344 0
283 -414 0
-16 218 0
185 405 0
-437 133 0
-235 -349 0
-228 315 0
-307 -146 0
394 -120 0
174 96 0
-61 -248 0
331 341 0
302 -464 0
231 461 0
-221 195 0
-425 -276 0
-79 80 0
191 -491 0
257 -58 0
-211 -469 0
255 267 0
-95 -89 0
486 -327 0
58 454 0
402 -327 0
265 348 0
208 -234 0
-284 -492 0
491 57 0
-104 243 0
184 364 0
411 -283 0
-36 -473 0
-247 471 0
68 -425 0
-396 -449 0
175 426 0
148 -278 0
-431 -403 0
-82 -499 0
-256 495 0
128 -24 0
-14 94 0
-236 300 0
144 56 0
-220 -423 0
-480 15 0
-160 -354 0
475 -253 0
177 -428 0
-116 -452 0
454 215 0
453 -302 0
-186 88 0
-253 -121 0
-409 -253 0
-226 110 0
209 -200 0
397 301 0
251 -45 0
331 429 0
353 -271 0
177 -268 0
102 -488 0
-413 192 0
229 -88 0
349 -362 0
270 -15 0
357 465 0
-281 498 0
229 121 0
-204 205 0
364 -121 0
487 -465 0
-142 65 0
-175 -492 0
-186 342 0
84 135 0
378 169 0
-161 394 0
-428 314 0
-44 -336 0
-488 -162 0
-263 3 0
313 296 0
153 39 0
-425 333 0
-50 -90 0
335 -489 0
251 -466 0
-98 -153 0
229 281 0
-291 395 0
-146 358 0
-366 -86 0
472 -491 0
-455 311 0
385 419 0
390 406 0
-81 452 0
499 460 0
-228 249 0
465 191 0
-109 -291 0
204 453 0
261 -465 0
-143 35 0
-156 208 0
-388 178 0
387 228 0
381 -250 0
-285 167 0
454 -207 0
-445 377 0
-291 -309 0
-26 -374 0
-142 392 0
184 424 0
-222 -483 0
129 -261 0
80 -218 0
370 355 0
363 298 0
-312 194 0
66 319 0
-215 -18 0
-54 343 0
390 -371 0
-154 387 0
333 -84 0
-464 -292 0
-259 -12 0
-368 337 0
181 377 0
76 266 0
-354 405 0
112 395 0
-112 -146 0
86 35 0
405 -100 0
-297 -429 0
449 -168 0
-23 -63 0
204 -188 0
-176 398 0
-392 -444 0
422 -446 0
303 394 0
-126 430 0
-369 351 0
73 289 0
-361 268 0
-241 323 0
80 -51 0
363 141 0
143 370 0
-223 -100 0
443 -374 0
-328 266 0
204 -286 0
323 -235 0
460 -390 0
306 -395 0
272 -112 0
436 -404 0
464 265 0
113 -59 0
-473 245 0
-469 397 0
91 288 0
-248 -226 0
-121 402 0
66 376 0
371 33 0
219 21 0
85 -56 0
408 425 0
-158 479 0
85 -319 0
35 -25 0
286 -325 0
494 335 0
66 188 0
232 -34 0
377 -14 0
365 -438 0
42 311 0
144 -99 0
-131 182 0
-317 -17 0
-254 -309 0
-61 -456 0
291 112 0
148 208 0
-152 -89 0
-224 -178 0
323 284 0
-378 -373 0
369 247 0
351 136 0
55 -52 0
-290 -54 0
404 -90 0
-236 -386 0
138 -307 0
-309 457 0
28 141 0
-189 488 0
-9 -336 0
114 -176 0
386 -304 0
481 219 0
-348 -58 0
-217 135 0
-161 351 0
-223 -266 0
428 -251 0
-119 112 0
262 -216 0
368 -367 0
50 47 0
-214 -51 0
-177 320 0
110 -373 0
-122 200 0
380 -421 0
-429 -480 0
250 486 0
374 -339 0
-321 29 0
135 461 0
-431 -409 0
-74 -359 0
-29 -313 0
256 -407 0
484 -307 0
-399 313 0
474 460 0
311 -389 0
-47 -253 0
-201 -130 0
-73 428 0
-24 -99 0
-366 -176 0
248 286 0
-44 -361 0
217 435 0
110 -16 0
175 71 0
386 -276 0
-99 6 0
-68 495 0
-392 -81 0
93 -453 0
450 -312 0
120 349 0
-69 -301 0
-52 55 0
-478 5 0
-223 -201 0
-166 -467 0
-104 -411 0
412 405 0
87 -87 0
303 -279 0
487 -217 0
-493 -390 0
14 358 0
-486 -336 0
305 366 0
87 291 0
405 86 0
454 207 0
-145 -420 0
318 -475 0
-142 74 0
57 -186 0
420 322 0
432 104 0
-52 278 0
-317 128 0
445 -228 0
-22 147 0
255 348 0
-18 -57 0
-249 -398 0
414 -285 0
472 -476 0
-96 -118 0
101 177 0
-402 -352 0
76 -438 0
374 211 0
-426 -89 0
-361 243 0
-433 -431 0
-122 -12 0
-394 160 0
-47 103 0
-31 -222 0
-148 -106 0
331 377 0
-336 -58 0
488 424 0
-24 -480 0
196 -413 0
137 -239 0
-119 208 0
385 243 0
-20 430 0
197 -71 0
-329 255 0
26 410 0
184 235 0
57 -429 0
-114 46 0
-134 65 0
-488 65 0
238 96 0
-207 -345 0
287 137 0
-231 -193 0
204 -295 0
-493 -285 0
-358 -489 0
-23 194 0
-266 -117 0
-322 351 0
325 300 0
-224 -8 0
34 447 0
-246 -251 0
20 -176 0
208 325 0
-336 81 0
375 137 0
202 -342 0
-409 323 0
242 -80 0
107 -228 0
170 -392 0
-205 240 0
79 265 0
-329 -77 0
365 -139 0
411 -328 0
-146 -58 0
448 193 0
-213 -443 0
337 429 0
-186 390 0
101 6 0
-466 -174 0
-283 -367 0
-232 299 0
283 188 0
-79 194 0
209 280 0
-365 430 0
-435 -354 0
-251 -92 0
-136 -399 0
190 474 0
-23 -214 0
-278 -459 0
-465 206 0
-367 169 0
1 337 0
-406 461 0
38 242 0
270 39 0
-64 200 0
-197 -72 0
111 298 0
423 -30 0
-34 11 0
-467 -371 0
237 -13 0
498 -328 0
171 -252 0
472 -42 0
-42 -24 0
306 -402 0
-469 -151 0
-339 -476 0
-312 431 0
173 87 0
433 85 0
-115 -234 0
-221 19 0
349 -271 0
-185 187 0
-312 -226 0
422 92 0
208 187 0
116 447 0
-468 411 0
-160 -121 0
-2 -10 0
-270 205 0
-388 415 0
-2 -379 0
127 -67 0
-393 11 0
381 272 0
-346 116 0
368 -466 0
63 -452 0
-256 196 0
-59 199 0
359 131 0
30 -333 0
248 -302 0
-89 -264 0
193 -166 0
-145 494 0
-138 334 0
-8 272 0
-301 266 0
-353 204 0
336 448 0
-170 460 0
332 21 0
-393 -223 0
177 21 0
107 -62 0
-407 15 0
-336 191 0
91 179 0
361 -241 0
-429 367 0
209 -461 0
461 -254 0
330 -297 0
-342 -306 0
-156 -338 0
370 -232 0
-108 -157 0
-184 -473 0
75 114 0
-412 243 0
162 69 0
-366 101 0
-288 337 0
396 485 0
-456 308 0
-122 252 0
70 195 0
-396 -68 0
50 420 0
462 485 0
-13 289 0
-224 353 0
359 375 0
-469 -97 0
-431 -406 0
227 -328 0
-222 444 0
435 -215 0
-315 -126 0
184 124 0
486 232 0
-46 375 0
-313 -99 0
273 289 0
270 -18 0
140 462 0
395 -41 0
240 239 0
-256 277 0
-324 -238 0
323 355 0
-77 319 0
-184 447 0
163 351 0
124 149 0
-94 403 0
-23 -382 0
-434 118 0
288 -353 0
234 477 0
-94 301 0
-365 -342 0
411 -22 0
-116 122 0
-29 -441 0
277 -230 0
-175 -373 0
-91 290 0
5 421 0
-258 266 0
-224 138 0
396 -219 0
-311 -244 0
-250 73 0
-81 -297 0
344 205 0
-359 -326 0
337 108 0
-317 415 0
486 -312 0
-322 395 0
415 370 0
52 171 0
-74 -178 0
-265 332 0
-45 42 0
-68 -407 0
165 -193 0
154 -83 0
397 -226 0
183 -404 0
-278 358 0
-389 -417 0
-455 -211 0
284 89 0
394 -450 0
132 79 0
-406 202 0
41 -327 0
-326 228 0
205 315 0
-434 -121 0
-434 -25 0
-487 -475 0
-417 -354 0
476 -186 0
108 135 0
-141 -426 0
341 -497 0
264 -488 0
-434 -17 0
-449 15 0
-55 335 0
274 414 0
310 -40 0
-417 209 0
162 -131 0
-173 418 0
-404 -445 0
419 -344 0
148 486 0
65 -406 0
-71 6 0
238 -84 0
482 -233 0
-307 -377 0
461 382 0
-44 -406 0
-466 -368 0
462 12 0
-320 254 0
159 486 0
-345 -39 0
315 -122 0
-400 -367 0
-392 136 0
-498 76 0
-38 238 0
371 -427 0
-122 377 0
-68 -369 0
-211 -119 0
144 -164 0
-483 -256 0
-336 -103 0
33 -406 0
-459 78 0
195 -413 0
-243 -437 0
196 366 0
282 260 0
448 372 0
-466 335 0
156 212 0
435 309 0
17 -83 0
106 451 0
-42 -452 0
-431 -265 0
422 -203 0
226 -116 0
-92 421 0
315 208 0
-73 212 0
-24 -111 0
300 -367 0
110 -241 0
-129 337 0
383 495 0
-73 -236 0
180 -443 0
141 -339 0
-243 -398 0
-145 -43 0
-399 253 0
448 372 0
-112 35 0
-262 230 0
32 -74 0
-116 274 0
428 314 0
-295 313 0
-131 -455 0
-346 435 0
126 -83 0
478 140 0
477 320 0
-190 88 0
-286 -14 0
46 -107 0
35 -377 0
-77 -40 0
55 -361 0
-298 284 0
256 245 0
-429 359 0
406 20 0
238 -498 0
-154 -309 0
-490 419 0
-44 -89 0
273 -352 0
-256 129 0
156 277 0
479 -392 0
-271 283 0
203 -353 0
-292 212 0
460 -110 0
-49 -64 0
155 443 0
227 -104 0
485 120 0
277 -168 0
242 410 0
-353 262 0
490 236 0
-389 411 0
353 422 0
-49 -123 0
-223 289 0
-213 148 0
-44 -399 0
-183 113 0
-304 -47 0
128 -229 0
-364 315 0
461 298 0
-30 279 0
178 -239 0
482 -456 0
322 96 0
169 287 0
371 -183 0
-295 -447 0
149 -342 0
-81 -382 0
-439 -417 0
461 9 0
-271 -327 0
315 448 0
286 486 0
-109 340 0
-239 -293 0
-47 -40 0
-312 -296 0
427 181 0
-48 -272 0
-34 327 0
471 -23 0
2 -24 0
68 5 0
393 -214 0
334 -495 0
484 -259 0
60 -472 0
-379 -338 0
-352 221 0
-483 -55 0
433 93 0
237 -313 0
430 -36 0
-93 -213 0
-150 -107 0
410 112 0
-344 -28 0
-134 -213 0
179 -142 0
-64 -263 0
348 414 0
490 163 0
-61 -190 0
-469 -145 0
67 296 0
-244 -399 0
278 396 0
-53 -246 0
-263 381 0
77 171 0
-451 103 0
19 264 0
116 364 0
20 -343 0
-248 231 0
370 -376 0
-417 162 0
265 -380 0
230 -320 0
305 -104 0
-233 -326 0
315 -268 0
-483 479 0
-406 266 0
95 -440 0
356 -73 0
98 255 0
-188 71 0
426 -350 0
33 107 0
-342 -83 0
-232 -131 0
356 -168 0
477 200 0
477 115 0
71 310 0
-241 452 0
-195 -22 0
474 -388 0
-362 274 0
422 17 0
60 429 0
-140 359 0
-350 -360 0
62 264 0
67 -492 0
-89 120 0
-207 -35 0
-273 -97 0
-304 -246 0
351 -83 0
371 230 0
319 487 0
-65 330 0
-278 -237 0
145 -294 0
431 -398 0
-475 347 0
-456 192 0
-7 -3 0
490 -285 0
-452 220 0
188 365 0
-254 427 0
363 356 0
107 -484 0
-437 396 0
-228 114 0
231 498 0
-170 238 0
-185 -234 0
-83 -22 0
-406 227 0
-71 291 0
169 333 0
114 -462 0
282 39 0
32 -121 0
1 58 0
-127 298 0
-338 -9 0
-385 349 0
-259 -166 0
-342 -157 0
274 -446 0
-282 -96 0
-488 -95 0
212 241 0
171 -375 0
-500 -438 0
205 -104 0
-425 -382 0
-9 131 0
-397 -302 0
-323 135 0
-146 299 0
-302 164 0
33 -393 0
273 200 0
-334 -214 0
448 -57 0
169 -77 0
-426 -54 0
150 -52 0
160 479 0
-45 -252 0
182 318 0
327 -138 0
341 -315 0
-345 -241 0
405 -452 0
-347 -139 0
-231 187 0
-140 48 0
275 422 0
-265 205 0
-307 -282 0
55 -418 0
385 114 0
-106 436 0
-53 -406 0
136 478 0
356 488 0
268 -193 0
127 46 0
-38 -161 0
-380 -282 0
-118 -496 0
490 -415 0
-215 -336 0
283 -187 0
-287 345 0
-320 -82 0
443 -199 0
-234 -118 0
9 474 0
-93 -23 0
-204 356 0
421 110 0
478 295 0
397 394 0
83 439 0
-298 -109 0
21 -44 0
370 -74 0
-489 -488 0
331 -440 0
142 -133 0
231 306 0
-96 358 0
-61 305 0
424 -25 0
213 -250 0
266 -408 0
490 368 0
-56 36 0
-113 196 0
-309 208 0
-352 260 0
-214 331 0
363 -139 0
-301 370 0
-28 -46 0
363 328 0
487 -447 0
-367 -282 0
-473 -171 0
-9 264 0
305 267 0
98 341 0
262 -207 0
-45 -47 0
-9 385 0
474 421 0
361 -352 0
-329 174 0
-327 91 0
-246 164 0
-254 -64 0
415 309 0
153 461 0
-400 -233 0
-117 159 0
372 -190 0
80 43 0
162 269 0
-178 -90 0
-449 -442 0
-185 276 0
27 -269 0
111 -482 0
111 -190 0
-358 -109 0
320 -355 0
-143 384 0
270 310 0
-426 -246 0
-60 46 0
-58 -440 0
55 -490 0
170 101 0
-97 335 0
256 -61 0
300 146 0
210 187 0
-347 196 0
57 213 0
213 414 0
-417 449 0
349 -109 0
-184 -483 0
-291 102 0
361 -185 0
305 219 0
-438 -173 0
-287 293 0
-440 312 0
-117 6 0
-166 -149 0
278 -338 0
-345 -440 0
278 229 0
-327 -405 0
182 104 0
-312 -381 0
435 32 0
156 187 0
-10 370 0
-288 6 0
432 33 0
306 432 0
420 -408 0
-475 227 0
-427 -367 0
1 -137 0
-235 381 0
-359 -354 0
-90 394 0
289 436 0
262 400 0
293 290 0
73 171 0
-431 11 0
-99 443 0
-185 433 0
-215 -92 0
332 294 0
-235 481 0
306 280 0
-395 -423 0
-312 -326 0
-31 106 0
46 231 0
424 9 0
-261 264 0
-165 29 0
8 -232 0
-30 160 0
394 -248 0
-473 -399 0
100 -138 0
-243 310 0
-302 -490 0
-329 89 0
290 147 0
386 100 0
-47 -186 0
-353 362 0
-234 -297 0
-219 -406 0
479 92 0
491 37 0
-465 108 0
-280 197 0
214 103 0
-488 339 0
-150 455 0
-123 310 0
169 -31 0
-333 98 0
-63 -147 0
359 252 0
286 46 0
-209 395 0
-275 62 0
-313 -297 0
-177 -409 0
-133 181 0
-163 -176 0
-423 226 0
27 -398 0
143 477 0
-224 -425 0
-374 176 0
308 -270 0
321 -102 0
277 344 0
-326 -238 0
-154 -497 0
-469 -160 0
155 -3 0
178 -81 0
-151 -119 0
439 381 0
-271 -352 0
197 -249 0
211 491 0
408 198 0
135 -248 0
-305 -133 0
-73 334 0
420 274 0
140 419 0
17 -441 0
454 258 0
-321 -7 0
-140 -456 0
95 -70 0
-104 -263 0
-436 -327 0
358 380 0
175 283 0
308 -445 0
471 135 0
368 153 0
106 -346 0
288 -404 0
-189 -464 0
-399 286 0
-259 95 0
-497 -53 0
-146 -407 0
-159 315 0
93 76 0
298 -37 0
-288 -70 0
351 359 0
-226 495 0
308 348 0
-141 -466 0
348 66 0
-119 -74 0
-399 102 0
-59 -336 0
-475 77 0
-401 -225 0
282 320 0
-350 422 0
-181 -345 0
-392 111 0
471 286 0
299 268 0
383 110 0
161 289 0
-68 -341 0
-267 -307 0
-212 -150 0
76 25 0
21 453 0
395 32 0
257 303 0
493 -402 0
-156 498 0
361 80 0
371 196 0
106 490 0
342 -328 0
-316 415 0
367 -437 0
-30 -145 0
481 -411 0
314 -417 0
370 -370 0
-463 -301 0
203 40 0
282 -492 0
-343 71 0
266 6 0
-270 -77 0
457 -154 0
65 148 0
-392 -251 0
415 430 0
238 -95 0
255 132 0
-84 -426 0
-421 -460 0
204 97 0
26 267 0
-433 98 0
-166 -342 0
-292 -31 0
-168 450 0
-84 -73 0
-480 -34 0
-279 -233 0
447 -149 0
185 381 0
75 -299 0
372 -297 0
-478 262 0
456 -258 0
-73 495 0
-373 88 0
411 377 0
270 -395 0
-121 12 0
-450 -88 0
-278 -121 0
-146 288 0
434 275 0
222 306 0
-198 268 0
1 -434 0
-163 193 0
348 -478 0
22 461 0
-343 388 0
415 255 0
-398 436 0
266 -251 0
-493 -22 0
226 -413 0
112 -459 0
-28 -483 0
91 -72 0
-74 -232 0
-45 214 0
-189 18 0
181 189 0
-81 323 0
21 46 0
498 200 0
117 396 0
148 -321 0
250 334 0
271 -26 0
11 347 0
-18 181 0
-150 308 0
341 462 0
-292 141 0
420 295 0
91 -406 0
-476 -82 0
-126 125 0
-213 -467 0
199 -239 0
-105 -222 0
-186 274 0
-134 184 0
344 414 0
-350 230 0
21 318 0
-494 173 0
-452 -367 0
209 260 0
236 -280 0
197 -459 0
-409 111 0
-391 125 0
413 159 0
-287 403 0
347 416 0
-266 -126 0
-476 -63 0
375 -239 0
-151 -142 0
47 -74 0
238 -453 0
84 323 0
111 49 0
496 435 0
332 111 0
-441 -233 0
100 21 0
-9 -449 0
-447 372 0
359 330 0
196 -207 0
-224 162 0
331 326 0
388 279 0
300 -79 0
468 -158 0
291 242 0
69 80 0
119 196 0
-312 -394 0
-428 314 0
498 -161 0
-113 53 0
46 396 0
370 352 0
441 103 0
284 345 0
-10 -166 0
335 478 0
340 -426 0
340 306 0
394 -475 0
-280 136 0
265 -109 0
485 -186 0
370 359 0
432 427 0
-222 -246 0
-233 164 0
-164 -23 0
227 69 0
-144 182 0
247 332 0
101 73 0
-253 -111 0
-122 -96 0
138 314 0
308 -122 0
-250 -17 0
-281 253 0
237 -97 0
-422 322 0
-305 -483 0
46 -399 0
-74 -498 0
187 23 0
62 -263 0
202 348 0
127 322 0
221 -72 0
-87 -127 0
-151 -401 0
-428 291 0
-196 -362 0
370 -317 0
-85 435 0
-296 -468 0
349 -370 0
-117 24 0
-389 377 0
316 -392 0
-263 -58 0
-67 -251 0
-338 93 0
381 46 0
83 -333 0
-18 180 0
260 179 0
390 460 0
170 197 0
-455 229 0
395 7 0
171 403 0
-74 -374 0
163 174 0
-257 -278 0
445 -122 0
309 111 0
49 464 0
-133 120 0
415 -109 0
-257 169 0
-460 463 0
434 -392 0
371 132 0
108 -329 0
95 463 0
-445 -283 0
-40 242 0
-341 -119 0
174 -55 0
-168 -4 0
428 -192 0
-360 -259 0
442 -401 0
-292 -204 0
226 -306 0
279 -325 0
-166 203 0
-157 363 0
79 -453 0
-413 -257 0
-3 -131 0
-399 129 0
140 -43 0
-151 -402 0
279 -239 0
363 -43 0
240 331 0
144 -112 0
-122 -465 0
-281 -85 0
340 -269 0
-4 -469 0
185 65 0
384 -167 0
59 365 0
192 -171 0
-39 -40 0
128 -317 0
494 184 0
-100 205 0
406 -24 0
-488 410 0
-32 46 0
-189 244 0
165 -401 0
-383 415 0
-433 98 0
322 -166 0
-441 462 0
-235 -328 0
-488 -337 0
-241 5 0
-293 320 0
-345 238 0
-465 -3 0
69 -260 0
-393 -426 0
-262 181 0
21 249 0
87 179 0
-58 437 0
75 -189 0
-139 -379 0
155 -397 0
141 206 0
-490 335 0
390 -191 0
66 462 0
-474 37 0
472 383 0
-239 -154 0
-296 390 0
-121 -76 0
238 -3 0
288 -311 0
-480 278 0
-425 -15 0
-69 35 0
-489 164 0
-467 493 0
433 -77 0
-156 -473 0
132 -441 0
-361 -447 0
20 406 0
437 -59 0
-17 -426 0
413 -161 0
-6 448 0
98 -153 0
-418 424 0
202 -464 0
-208 499 0
240 -52 0
229 -223 0
85 -161 0
-158 112 0
154 -217 0
-209 -380 0
-241 114 0
175 430 0
-215 -116 0
-27 -441 0
446 -389 0
409 143 0
-5 385 0
-25 17 0
-63 -328 0
227 -66 0
-177 100 0
415 263 0
-488 152 0
1 180 0
-134 347 0
327 286 0
-453 -490 0
-98 110 0
32 -339 0
24 -393 0
478 211 0
5 349 0
366 101 0
141 98 0
300 442 0
-392 -387 0
-291 -43 0
-345 262 0
203 -449 0
42 -107 0
193 -466 0
194 188 0
411 125 0
-241 457 0
137 345 0
-73 -144 0
-251 -41 0
266 -82 0
310 178 0
-302 165 0
143 39 0
367 349 0
75 100 0
-261 476 0
434 103 0
174 -83 0
-453 -205 0
-110 -109 0
-150 192 0
-353 223 0
171 -493 0
-330 229 0
350 65 0
-2 -462 0
-352 45 0
-449 388 0
77 -72 0
158 -423 0
16 88 0
-298 -338 0
-325 -123 0
-340 -253 0
-251 -431 0
371 -345 0
-495 -74 0
-215 -29 0
-498 -200 0
71 -7 0
386 11 0
237 82 0
166 -312 0
43 371 0
-402 125 0
92 -380 0
369 112 0
-183 -217 0
196 -347 0
-52 279 0
-492 341 0
-434 174 0
173 359 0
111 437 0
-70 155 0
354 110 0
-307 248 0
325 -228 0
-99 183 0
-333 -400 0
448 -470 0
-104 411 0
170 -221 0
-99 130 0
-3 84 0
325 -276 0
-140 496 0
-22 12 0
397 131 0
284 -445 0
-270 341 0
98 326 0
334 22 0
-179 420 0
314 148 0
-135 60 0
-280 -157 0
104 -434 0
-201 -414 0
-232 -496 0
12 177 0
264 208 0
360 -9 0
418 116 0
-223 70 0
-497 55 0
246 300 0
139 103 0
-368 -438 0
-163 473 0
-457 -51 0
57 50 0
335 322 0
257 -316 0
421 -23 0
352 479 0
-159 254 0
-218 -467 0
456 -392 0
-73 -256 0
-375 -367 0
-235 -59 0
-99 407 0
128 -89 0
-450 -76 0
-184 460 0
475 226 0
462 -389 0
17 372 0
198 473 0
351 227 0
48 265 0
277 55 0
188 -313 0
-140 72 0
117 -468 0
67 95 0
117 -489 0
17 12 0
-258 -250 0
142 286 0
428 216 0
318 -485 0
-201 -259 0
-261 310 0
-94 -131 0
197 105 0
-292 -232 0
481 -293 0
-336 36 0
-25 67 0
127 31 0
-24 231 0
-404 71 0
-265 76 0
205 -297 0
381 466 0
-367 -2 0
220 -131 0
401 -41 0
356 -105 0
41 141 0
327 366 0
-118 -183 0
-79 -434 0
78 56 0
-347 -446 0
292 310 0
324 -380 0
-86 -420 0
65 206 0
-65 320 0
380 91 0
-329 -328 0
320 196 0
-257 -256 0
-73 -399 0
-97 226 0
368 -143 0
-163 -485 0
-352 -87 0
415 432 0
167 -359 0
-293 -43 0
-118 143 0
-122 161 0
-436 33 0
495 82 0
499 397 0
428 17 0
-113 106 0
-443 -250 0
213 357 0
-346 -304 0
220 -313 0
55 -463 0
217 262 0
152 -235 0
8 -84 0
-142 -128 0
387 466 0
380 -72 0
-43 238 0
-42 160 0
-353 -156 0
303 -294 0
432 308 0
462 231 0
-14 191 0
272 65 0
230 -412 0
370 461 0
446 130 0
314 255 0
-132 -30 0
416 -388 0
-92 -322 0
-486 141 0
458 -30 0
-387 -402 0
-466 -440 0
-309 199 0
-64 -210 0
203 -320 0
-437 -244 0
-386 202 0
-441 -496 0
367 -379 0
-63 -392 0
415 -351 0
259 -345 0
428 474 0
-3 349 0
-142 364 0
22 -43 0
-392 -253 0
436 -360 0
220 -317 0
241 430 0
-301 -151 0
399 154 0
-95 391 0
-327 434 0
-125 319 0
197 -49 0
-277 -497 0
-107 218 0
-488 27 0
91 -208 0
210 -221 0
319 -142 0
-406 239 0
-352 193 0
-353 150 0
-456 124 0
-304 85 0
360 -56 0
-72 -299 0
375 -241 0
-153 -154 0
195 -468 0
320 -215 0
377 219 0
-60 288 0
269 -131 0
372 -423 0
-122 -151 0
-289 -338 0
71 -183 0
264 484 0
305 -207 0
-362 -433 0
106 202 0
-93 291 0
124 463 0
266 487 0
-356 -166 0
50 216 0
230 -419 0
-225 119 0
-153 430 0
-81 -415 0
-407 407 0
141 -122 0
-151 -88 0
430 -142 0
-81 206 0
-160 110 0
-134 173 0
-253 -236 0
-282 -446 0
107 223 0
-148 137 0
225 111 0
-131 351 0
-122 422 0
-120 -312 0
47 -3 0
350 -367 0
299 -30 0
414 -225 0
-228 -380 0
29 397 0
-59 314 0
265 137 0
-385 -59 0
-362 -203 0
-489 -499 0
-239 292 0
-475 176 0
124 85 0
-49 331 0
-135 477 0
-10 18 0
274 435 0
238 -25 0
371 311 0
-328 362 0
-61 -99 0
-224 443 0
329 -163 0
428 230 0
-70 -246 0
-13 353 0
-417 462 0
-470 387 0
392 275 0
474 -476 0
-455 339 0
-9 -261 0
376 -41 0
-41 208 0
157 344 0
-248 -301 0
-298 11 0
54 -250 0
-56 -58 0
-376 -117 0
42 -375 0
224 227 0
200 -345 0
-207 129 0
-375 39 0
-320 56 0
-55 -51 0
-446 -492 0
-251 273 0
250 -146 0
282 215 0
66 137 0
168 -452 0
-185 -134 0
285 478 0
120 15 0
-294 91 0
356 473 0
494 301 0
200 101 0
280 -311 0
110 392 0
-89 -189 0
152 193 0
111 485 0
-209 -122 0
-445 205 0
300 -24 0
-428 364 0
3 -225 0
330 110 0
-44 -215 0
164 99 0
277 189 0
-239 -37 0
-157 249 0
-459 -168 0
-336 31 0
-393 -201 0
-185 -368 0
412 147 0
372 184 0
170 377 0
195 267 0
-208 -456 0
240 -264 0
-469 -95 0
209 -262 0
481 -362 0
-436 383 0
-473 93 0
-431 87 0
286 -278 0
386 67 0
35 203 0
418 -392 0
-339 -4 0
-480 -500 0
173 54 0
-121 102 0
-440 321 0
386 -317 0
430 159 0
-58 116 0
191 381 0
266 -37 0
-131 -25 0
320 -434 0
439 -287 0
-328 -499 0
-493 -331 0
-448 419 0
309 396 0
-143 -475 0
-277 -58 0
256 422 0
-145 -130 0
249 -480 0
487 79 0
-215 162 0
-82 -114 0
-355 -53 0
-228 -297 0
441 160 0
355 -382 0
-208 -469 0
-354 -426 0
55 -208 0
274 350 0
145 148 0
334 -159 0
174 8 0
-214 481 0
184 342 0
-430 -287 0
405 -41 0
-393 127 0
34 -186 0
249 383 0
447 -324 0
379 20 0
6 -46 0
-374 386 0
57 196 0
-123 470 0
-146 -392 0
11 -144 0
-402 275 0
-211 273 0
120 -315 0
-246 218 0
63 267 0
-14 -444 0
42 332 0
32 -262 0
-110 -294 0
61 -425 0
206 454 0
56 95 0
194 110 0
-415 289 0
-55 93 0
-263 -139 0
64 -333 0
-150 427 0
-316 -332 0
417 212 0
-410 181 0
-208 242 0
