c bounds 35 35 0.04
p cnf 500 2050
-421 152 0
362 -354 0
-423 43 0
-11 -172 0
171 170 0
-201 -70 0
25 148 0
-321 441 0
497 258 0
310 128 0
-8 244 0
-12 5 0
390 341 0
-35 -94 0
-468 91 0
416 59 0
379 -425 0
-348 -202 0
-446 118 0
332 197 0
394 -168 0
240 -243 0
-194 -101 0
454 446 0
-346 224 0
153 106 0
-2 445 0
278 399 0
336 10 0
-391 377 0
184 468 0
-425 -271 0
451 142 0
-1 494 0
-3 494 0
87 -338 0
183 -87 0
4 215 0
-477 -96 0
-351 344 0
416 -137 0
-245 -328 0
373 457 0
-164 -219 0
-354 -11 0
-304 311 0
-372 -367 0
-90 332 0
257 -221 0
-50 130 0
137 -410 0
-161 -257 0
368 308 0
-313 278 0
-321 319 0
-165 -50 0
-158 151 0
101 -217 0
430 90 0
-224 452 0
-322 -59 0
195 -46 0
-335 21 0
-386 373 0
6 146 0
174 304 0
-54 -74 0
445 -431 0
-419 -430 0
140 -467 0
427 364 0
-238 175 0
-294 6 0
193 56 0
499 -315 0
177 18 0
-337 -370 0
-461 87 0
123 -312 0
-229 -411 0
-338 -12 0
-1 188 0
-500 -252 0
-163 -97 0
-266 29 0
89 -237 0
275 311 0
297 -386 0
410 -61 0
38 434 0
-221 235 0
-277 -391 0
-450 -330 0
18 -37 0
257 -458 0
85 257 0
452 176 0
389 82 0
-165 274 0
310 443 0
450 68 0
65 484 0
234 -80 0
371 272 0
-386 -38 0
-361 17 0
412 287 0
-50 425 0
-386 -88 0
251 85 0
-376 93 0
362 408 0
-363 459 0
-32 -309 0
231 -243 0
478 -335 0
484 412 0
136 -144 0
-163 67 0
-356 -69 0
-350 387 0
-205 -474 0
-487 -134 0
377 227 0
-182 120 0
214 -370 0
261 29 0
-294 345 0
144 443 0
471 -81 0
-366 26 0
-406 239 0
278 -20 0
212 270 0
-335 334 0
-174 215 0
22 -488 0
359 295 0
-300 -286 0
-160 365 0
-291 -159 0
-324 -307 0
-444 -24 0
-253 96 0
-431 380 0
399 -287 0
334 -62 0
-354 387 0
-255 247 0
-244 -113 0
146 384 0
463 -279 0
-225 229 0
133 100 0
336 64 0
89 425 0
-58 22 0
456 -324 0
-230 211 0
98 470 0
-156 -64 0
234 42 0
216 399 0
-396 -62 0
5 -116 0
-279 -286 0
-425 340 0
327 476 0
-412 -42 0
442 -459 0
-4 -282 0
-359 362 0
-285 -374 0
499 87 0
187 -305 0
-47 325 0
239 337 0
-132 321 0
179 -110 0
349 242 0
-284 -354 0
381 -48 0
294 -347 0
-458 202 0
-105 330 0
-403 95 0
125 430 0
-185 -480 0
487 -23 0
472 46 0
-167 -307 0
-458 -52 0
-80 -155 0
-279 252 0
73 -178 0
57 390 0
-436 -480 0
-309 27 0
234 336 0
438 204 0
-278 371 0
-45 450 0
272 -289 0
-127 408 0
103 -427 0
-57 190 0
366 121 0
24 -372 0
-92 193 0
420 -2 0
-207 472 0
-23 -318 0
384 -404 0
-324 -220 0
-217 358 0
-168 49 0
166 387 0
-182 -165 0
-199 416 0
336 159 0
-348 -240 0
500 -37 0
149 344 0
-132 -385 0
-80 134 0
358 324 0
-136 263 0
264 82 0
418 360 0
-82 331 0
14 -402 0
197 -328 0
439 -134 0
-404 88 0
194 174 0
442 -399 0
-195 -303 0
181 370 0
132 158 0
-70 246 0
-133 -410 0
-270 33 0
220 -160 0
-147 319 0
368 1 0
-417 62 0
388 -192 0
-449 -498 0
309 308 0
170 -136 0
-226 170 0
-283 -497 0
-4 247 0
450 -184 0
469 -46 0
-337 -121 0
158 -23 0
175 321 0
-479 -232 0
30 -96 0
-294 457 0
-272 151 0
136 -208 0
-306 225 0
-208 112 0
-374 229 0
-46 459 0
-423 73 0
-214 362 0
499 333 0
-250 -168 0
5 -370 0
-293 324 0
-47 -374 0
428 -238 0
-461 -330 0
235 292 0
-238 160 0
263 -184 0
-355 121 0
171 378 0
-113 -347 0
422 264 0
300 -454 0
412 148 0
-109 146 0
-158 -209 0
-37 -411 0
448 -48 0
-126 -18 0
-315 -106 0
-443 491 0
441 -397 0
438 -314 0
-493 184 0
103 335 0
95 -47 0
491 190 0
329 280 0
210 89 0
-46 -307 0
447 -453 0
-194 274 0
125 260 0
82 166 0
-97 103 0
441 -497 0
348 -297 0
-124 406 0
408 90 0
470 -383 0
-321 -219 0
476 -228 0
-238 274 0
-358 207 0
-452 355 0
-41 -34 0
38 -122 0
-365 -432 0
476 121 0
174 -359 0
332 -424 0
-440 27 0
323 325 0
41 20 0
30 -279 0
362 236 0
221 -202 0
470 -491 0
-53 -44 0
124 166 0
-3 67 0
475 320 0
442 323 0
423 159 0
91 197 0
313 -61 0
64 -39 0
-372 -136 0
-69 -422 0
322 -498 0
162 475 0
-87 340 0
-285 -264 0
232 -115 0
-231 481 0
316 -436 0
179 -457 0
120 -318 0
-324 10 0
60 493 0
-109 13 0
-254 491 0
484 266 0
-19 -259 0
276 -169 0
16 -412 0
121 258 0
-160 280 0
241 118 0
-348 136 0
-309 -402 0
-275 353 0
-201 283 0
162 420 0
-229 -337 0
-101 -172 0
268 -433 0
188 -367 0
-356 179 0
-238 175 0
-47 138 0
-442 151 0
-325 -411 0
302 -150 0
-326 288 0
-169 -450 0
-12 -383 0
-217 381 0
-62 -344 0
-284 -315 0
84 356 0
375 388 0
-46 -355 0
308 473 0
-150 427 0
30 34 0
-377 -144 0
54 -259 0
-266 363 0
400 -92 0
227 -282 0
-393 -261 0
-88 300 0
124 -104 0
382 457 0
-218 -75 0
418 -350 0
-46 -192 0
237 175 0
481 27 0
-62 183 0
-240 124 0
-430 375 0
151 487 0
-491 188 0
-344 -445 0
87 -269 0
258 -396 0
-498 -479 0
-109 -458 0
-105 -64 0
145 -199 0
-463 -130 0
-499 64 0
-49 -289 0
-462 -222 0
450 180 0
-314 -194 0
-244 412 0
60 -154 0
198 -401 0
-45 224 0
-374 12 0
333 -238 0
-203 288 0
100 327 0
-386 -367 0
149 -374 0
284 353 0
114 187 0
-423 122 0
-461 -135 0
87 145 0
200 -201 0
308 48 0
336 -422 0
-222 -262 0
253 371 0
-426 197 0
193 -46 0
-224 153 0
339 128 0
70 -147 0
-19 -37 0
390 440 0
-279 467 0
8 -414 0
-181 319 0
447 -269 0
-220 -396 0
429 -182 0
138 -444 0
-45 -79 0
-482 -9 0
-305 497 0
-296 -366 0
318 144 0
-196 227 0
-125 493 0
229 27 0
-86 -185 0
-182 -14 0
31 223 0
145 244 0
-363 484 0
424 -255 0
242 -385 0
-487 30 0
442 89 0
319 -305 0
160 300 0
398 408 0
-108 -479 0
321 -150 0
-42 -76 0
343 -220 0
485 149 0
407 -279 0
-439 382 0
-377 -58 0
265 460 0
-61 -377 0
-454 475 0
-141 -94 0
3 -369 0
355 -226 0
-48 -387 0
-122 -18 0
-168 -254 0
441 418 0
92 385 0
-244 94 0
319 366 0
271 477 0
31 -185 0
-75 -311 0
-413 -453 0
-289 -235 0
135 214 0
181 -239 0
487 -474 0
-289 -451 0
-121 -106 0
491 -254 0
-228 183 0
-466 168 0
-28 462 0
411 -357 0
-338 -277 0
-55 399 0
-50 211 0
390 260 0
233 -92 0
-422 -115 0
-252 149 0
-30 247 0
366 434 0
111 -47 0
-111 -141 0
329 457 0
381 326 0
-343 98 0
230 81 0
495 -352 0
-292 269 0
-124 -301 0
-48 -59 0
-195 29 0
446 -135 0
242 -97 0
-56 -399 0
24 102 0
171 146 0
-332 -168 0
-29 13 0
-315 -372 0
113 -241 0
457 -375 0
283 -422 0
366 462 0
-376 -39 0
-303 -417 0
-77 336 0
275 -430 0
-375 -33 0
-330 -62 0
-166 -314 0
-216 87 0
-62 -233 0
105 -122 0
-341 -346 0
472 184 0
302 -417 0
-443 -401 0
44 -106 0
7 85 0
72 425 0
273 42 0
-48 217 0
100 -169 0
229 227 0
27 159 0
409 271 0
-343 229 0
352 -235 0
-194 -203 0
-292 -374 0
-393 461 0
-46 -1 0
481 -14 0
491 -113 0
-289 366 0
492 48 0
-456 225 0
-340 263 0
-313 227 0
-168 353 0
132 173 0
77 -461 0
353 399 0
340 268 0
356 92 0
-181 33 0
-277 -492 0
132 -127 0
454 -99 0
175 -213 0
234 -420 0
135 485 0
329 -499 0
493 190 0
-98 -374 0
-456 215 0
-18 -479 0
-224 -276 0
-359 -407 0
-163 -454 0
73 479 0
-49 -328 0
274 -205 0
-372 84 0
-208 -363 0
39 -45 0
-264 270 0
20 131 0
173 -413 0
40 389 0
-205 -12 0
131 152 0
395 -479 0
-348 -27 0
283 -80 0
-105 455 0
-456 356 0
94 248 0
-5 166 0
-279 -430 0
12 -307 0
-5 -70 0
-406 -339 0
-259 -113 0
389 340 0
65 314 0
-289 -37 0
414 -204 0
-18 -59 0
12 -122 0
252 450 0
-34 463 0
-422 -324 0
382 427 0
95 20 0
-63 -376 0
-256 366 0
232 80 0
337 -182 0
-170 212 0
-294 6 0
-434 -288 0
-440 371 0
-308 -105 0
79 345 0
412 94 0
-269 -314 0
35 439 0
-3 -157 0
-304 -400 0
-426 94 0
343 400 0
-273 373 0
26 -370 0
-349 495 0
287 11 0
-297 80 0
-70 -429 0
406 171 0
-334 -476 0
-214 171 0
-199 -185 0
350 -335 0
332 -46 0
-134 -419 0
-14 -282 0
384 -276 0
-486 -389 0
41 229 0
-245 -204 0
449 -374 0
405 -307 0
366 -92 0
378 -158 0
-231 273 0
-451 232 0
-162 179 0
400 -224 0
499 -486 0
93 76 0
-84 321 0
-371 -419 0
179 -413 0
-466 361 0
459 -250 0
-140 -290 0
-266 114 0
300 96 0
12 91 0
-428 437 0
321 -327 0
-490 416 0
73 -335 0
-467 -182 0
89 -64 0
495 -396 0
91 -86 0
159 78 0
356 -172 0
215 -303 0
483 152 0
155 358 0
-292 369 0
4 454 0
478 303 0
391 82 0
-497 -245 0
131 78 0
82 120 0
298 356 0
-369 413 0
408 239 0
139 232 0
208 492 0
216 -480 0
-2 -455 0
423 -74 0
83 -18 0
-56 135 0
-1 -433 0
126 -330 0
390 -426 0
438 -62 0
-48 67 0
-458 63 0
-187 312 0
352 -237 0
-147 -28 0
-140 491 0
449 -468 0
352 75 0
13 38 0
-199 71 0
200 -411 0
-113 -55 0
437 -466 0
-195 -48 0
247 -289 0
303 325 0
130 -27 0
76 -96 0
-348 -363 0
500 -279 0
349 -335 0
139 76 0
216 -431 0
189 -489 0
-156 75 0
-252 188 0
403 -413 0
-294 -172 0
352 -9 0
-404 376 0
494 -324 0
27 278 0
121 -309 0
-243 -342 0
406 -454 0
-116 -428 0
93 393 0
373 -320 0
-466 148 0
-90 -80 0
-122 61 0
-364 175 0
400 -164 0
-182 -234 0
300 -411 0
184 273 0
-361 -399 0
-192 -191 0
152 308 0
437 387 0
-154 250 0
-36 226 0
-147 -102 0
-35 -33 0
-214 378 0
123 -5 0
450 209 0
379 -34 0
260 339 0
-180 -171 0
259 270 0
301 151 0
158 162 0
317 -402 0
-269 418 0
-372 -86 0
-61 -48 0
-182 -244 0
-393 -18 0
-147 -302 0
-164 55 0
215 252 0
-359 -326 0
181 481 0
-491 81 0
139 -339 0
-413 308 0
-342 -252 0
-402 197 0
308 -50 0
287 500 0
-307 -441 0
-423 126 0
-403 81 0
22 137 0
-152 -456 0
230 347 0
-433 107 0
-18 -106 0
-379 425 0
-137 -182 0
306 71 0
-116 330 0
-348 135 0
-419 331 0
248 232 0
152 483 0
260 -323 0
-392 248 0
225 -205 0
4 148 0
-8 317 0
104 371 0
-45 303 0
-494 321 0
120 298 0
-467 56 0
354 421 0
42 388 0
-272 262 0
142 -133 0
-311 50 0
363 4 0
47 475 0
115 338 0
69 22 0
307 -290 0
462 31 0
-293 405 0
-176 13 0
-282 -129 0
155 185 0
-115 36 0
-158 367 0
-38 188 0
-78 -187 0
-399 -426 0
65 498 0
-19 270 0
459 -231 0
-217 143 0
-241 -257 0
446 11 0
380 -471 0
-375 -191 0
26 17 0
-375 -306 0
362 250 0
79 -156 0
-309 -60 0
378 429 0
-398 -352 0
119 231 0
487 -14 0
-404 -385 0
-344 -185 0
-386 -277 0
-296 99 0
125 -345 0
306 394 0
17 485 0
214 -212 0
-176 -411 0
-224 -245 0
-16 403 0
-13 446 0
27 295 0
38 462 0
-456 -58 0
-383 468 0
374 -444 0
-425 -272 0
-427 394 0
164 -9 0
278 -294 0
30 180 0
-228 -298 0
-384 -25 0
183 -435 0
-390 338 0
-449 275 0
421 -470 0
-477 -215 0
-246 397 0
-154 130 0
287 121 0
-410 -313 0
-465 -74 0
491 95 0
3 79 0
-458 381 0
303 -397 0
65 -435 0
-175 420 0
-217 -255 0
-2 287 0
-367 -287 0
-291 -157 0
-409 107 0
-386 275 0
-80 412 0
369 -363 0
-444 258 0
-91 -435 0
33 -362 0
-322 368 0
494 67 0
-481 455 0
-229 73 0
-219 275 0
137 37 0
137 -216 0
-151 -254 0
329 -69 0
139 -453 0
470 450 0
178 -245 0
-288 471 0
230 263 0
-355 73 0
406 16 0
148 445 0
318 -408 0
76 346 0
444 -335 0
-354 -343 0
439 389 0
-18 308 0
371 -266 0
28 -460 0
-440 -276 0
-411 -83 0
-74 -496 0
382 -243 0
248 270 0
-245 398 0
-182 -401 0
152 -375 0
245 -244 0
405 235 0
-496 -104 0
-23 -154 0
235 338 0
409 92 0
-133 190 0
360 1 0
475 91 0
187 471 0
-95 -451 0
-291 92 0
-154 -322 0
418 -5 0
368 497 0
274 206 0
-239 -367 0
-320 233 0
-480 130 0
278 -289 0
36 -243 0
-59 155 0
-411 -325 0
-124 371 0
-59 216 0
121 319 0
362 -23 0
-47 -497 0
-474 -28 0
-478 -63 0
-194 -140 0
227 -243 0
39 175 0
195 207 0
473 -164 0
-268 336 0
243 149 0
-498 -210 0
422 216 0
273 358 0
-489 464 0
81 236 0
-104 133 0
-145 -348 0
-453 490 0
-165 416 0
-66 -428 0
293 -206 0
360 -127 0
-331 -248 0
17 226 0
432 -187 0
212 -430 0
430 353 0
-242 -150 0
-115 -23 0
-40 483 0
427 124 0
439 227 0
269 476 0
-80 247 0
466 -37 0
116 -109 0
-250 -413 0
352 383 0
-348 -270 0
303 -280 0
-324 19 0
-47 412 0
-43 -61 0
97 -47 0
-43 360 0
-34 303 0
-242 25 0
-47 366 0
181 -263 0
160 -14 0
327 65 0
274 19 0
-116 -448 0
130 -436 0
-287 462 0
474 -35 0
339 -17 0
340 481 0
424 -12 0
29 -437 0
-213 -456 0
-26 491 0
-484 -480 0
-475 298 0
171 -180 0
-129 380 0
464 -320 0
261 231 0
96 483 0
180 -187 0
-243 100 0
-243 -439 0
-454 78 0
-5 -393 0
462 -208 0
-150 10 0
478 85 0
406 359 0
287 498 0
-459 273 0
-467 94 0
-441 -243 0
-355 4 0
352 372 0
-334 -53 0
301 -140 0
-228 128 0
-477 -466 0
-423 495 0
36 -49 0
7 181 0
148 -419 0
-422 -319 0
-83 183 0
-149 484 0
102 -392 0
-451 214 0
153 273 0
-36 -208 0
33 -476 0
-361 338 0
257 -458 0
92 -256 0
262 478 0
128 -240 0
-423 -282 0
-204 22 0
-123 -444 0
300 -468 0
288 -243 0
491 257 0
490 -172 0
142 -491 0
446 -248 0
71 298 0
-393 494 0
-70 -347 0
-133 -256 0
-187 -467 0
473 204 0
-20 -122 0
362 -283 0
195 310 0
-423 163 0
-293 -261 0
275 -397 0
-46 388 0
42 300 0
126 -380 0
382 407 0
316 257 0
-467 -314 0
-56 -51 0
-345 -129 0
-269 483 0
140 -253 0
312 283 0
87 146 0
-291 -290 0
-127 265 0
-113 -493 0
233 -164 0
-419 -408 0
-65 322 0
-433 230 0
394 -211 0
-277 -6 0
-143 40 0
352 -267 0
-192 -95 0
-96 -410 0
-397 31 0
-183 278 0
-101 392 0
-456 -260 0
498 -392 0
490 -12 0
283 -334 0
78 395 0
101 -35 0
491 32 0
-347 -256 0
208 87 0
401 26 0
274 386 0
145 -219 0
257 -319 0
-93 -217 0
395 -423 0
-157 -349 0
-37 374 0
432 -253 0
491 -309 0
405 -21 0
-104 -213 0
-391 448 0
65 24 0
142 66 0
332 -106 0
144 431 0
299 256 0
-432 -382 0
415 -433 0
347 68 0
-131 -26 0
211 362 0
-8 100 0
374 193 0
299 -206 0
212 239 0
-266 -110 0
95 147 0
-194 114 0
27 -256 0
313 -195 0
-382 310 0
-30 36 0
-231 -195 0
495 -312 0
-290 221 0
295 408 0
-489 -111 0
343 481 0
-367 251 0
13 197 0
135 -32 0
-420 448 0
467 100 0
-483 424 0
120 334 0
218 -397 0
-436 61 0
85 434 0
311 -255 0
-163 104 0
-155 -210 0
22 441 0
-141 145 0
390 -369 0
82 307 0
31 439 0
306 427 0
332 174 0
262 143 0
231 243 0
-21 341 0
468 -346 0
-154 310 0
-83 309 0
406 -287 0
-32 197 0
64 -141 0
-480 239 0
-203 -356 0
22 462 0
-333 -320 0
-302 26 0
-201 -339 0
-53 -21 0
92 -129 0
264 -361 0
374 343 0
-11 188 0
426 -180 0
-106 -169 0
-22 352 0
481 115 0
-144 -296 0
-169 403 0
333 202 0
57 102 0
-339 -148 0
85 -315 0
310 -304 0
356 472 0
-160 389 0
283 260 0
-69 473 0
257 98 0
-453 121 0
90 -159 0
188 255 0
493 241 0
-464 -349 0
-293 129 0
138 457 0
275 177 0
471 -134 0
54 -62 0
378 188 0
-296 -45 0
-1 223 0
258 -293 0
-500 -158 0
313 371 0
70 329 0
-97 -286 0
-196 -308 0
16 178 0
330 -348 0
239 441 0
-33 153 0
317 118 0
469 -238 0
438 259 0
-167 417 0
378 -244 0
-248 438 0
-261 55 0
109 -304 0
-411 -291 0
-420 265 0
374 487 0
-259 336 0
-17 -180 0
-185 -346 0
326 -281 0
274 96 0
-35 463 0
453 340 0
-458 278 0
121 -179 0
86 183 0
455 187 0
68 -42 0
225 -352 0
354 488 0
-178 490 0
322 -317 0
-214 -97 0
27 290 0
142 402 0
-200 336 0
-432 -27 0
188 -469 0
178 430 0
29 290 0
-109 418 0
-323 82 0
-50 -241 0
137 78 0
-338 82 0
-482 384 0
181 -287 0
170 -208 0
-292 270 0
275 -468 0
-34 438 0
300 379 0
50 -497 0
-464 123 0
-269 -468 0
474 274 0
-323 137 0
-209 -119 0
447 408 0
370 -50 0
-376 381 0
-2 -1 0
-397 281 0
248 -354 0
214 -328 0
-112 -245 0
-184 -49 0
-372 257 0
333 367 0
-354 465 0
355 -106 0
170 -79 0
30 84 0
450 -34 0
229 209 0
-339 -463 0
-303 -127 0
300 90 0
-2 219 0
-365 60 0
-307 114 0
-220 -79 0
242 6 0
381 -28 0
44 -42 0
-217 97 0
-21 -366 0
-70 432 0
281 -379 0
487 -105 0
235 -101 0
241 299 0
-468 448 0
-85 40 0
-259 -486 0
238 370 0
429 322 0
193 454 0
133 149 0
285 343 0
421 281 0
-305 -65 0
391 19 0
-88 -246 0
284 351 0
-348 -120 0
-228 400 0
325 -223 0
-199 13 0
-96 190 0
467 -204 0
-107 -393 0
382 -345 0
-393 500 0
473 -432 0
462 -108 0
483 -6 0
188 -293 0
250 437 0
461 153 0
-192 -406 0
-150 -161 0
-75 -52 0
-377 464 0
421 -106 0
-35 190 0
68 -140 0
178 -14 0
267 -40 0
193 -204 0
-384 -80 0
-367 162 0
-232 331 0
-246 241 0
81 -182 0
142 428 0
-440 -383 0
-406 214 0
466 -101 0
-12 -281 0
-124 -454 0
176 349 0
-101 -334 0
469 262 0
27 402 0
-162 -292 0
353 -305 0
172 -113 0
-339 476 0
300 172 0
387 -169 0
-421 -1 0
471 -62 0
421 -296 0
-424 -320 0
-116 -20 0
182 498 0
200 -140 0
109 153 0
-26 -12 0
-242 193 0
-198 24 0
-1 181 0
340 82 0
155 279 0
-442 -49 0
370 -29 0
242 76 0
155 23 0
443 -401 0
227 -205 0
-354 463 0
462 327 0
-397 -308 0
149 -399 0
25 147 0
-331 -97 0
-266 -258 0
-449 -286 0
291 181 0
-23 -27 0
80 343 0
205 475 0
-167 90 0
-396 51 0
118 -363 0
-365 199 0
-343 488 0
87 -500 0
-292 6 0
-404 482 0
-444 138 0
287 171 0
-252 212 0
-187 -420 0
-350 -456 0
-461 145 0
-97 -147 0
45 54 0
138 498 0
258 174 0
-375 -20 0
207 33 0
76 302 0
-340 -482 0
184 161 0
-50 -245 0
202 -261 0
-109 317 0
-341 396 0
-151 -12 0
326 315 0
-93 25 0
415 171 0
488 -86 0
383 317 0
371 -405 0
-49 -429 0
75 390 0
-124 -26 0
-422 -187 0
-194 479 0
287 -160 0
-138 247 0
51 -208 0
3 -161 0
-184 -21 0
200 -393 0
474 -256 0
92 -374 0
60 295 0
-252 -436 0
-242 24 0
229 81 0
-143 -392 0
-445 -465 0
183 -182 0
-88 491 0
332 -354 0
-164 121 0
-105 -363 0
-367 -31 0
232 430 0
-18 173 0
131 -486 0
102 -20 0
-37 -366 0
371 -318 0
33 -157 0
395 420 0
279 -47 0
-87 193 0
-194 -457 0
-480 263 0
-191 -405 0
258 26 0
370 -383 0
178 447 0
-361 -29 0
-209 -106 0
296 -375 0
349 -395 0
317 378 0
-11 16 0
370 -165 0
-163 177 0
-304 -401 0
126 -81 0
447 -377 0
-59 103 0
143 -331 0
332 303 0
-92 176 0
68 -391 0
-2 -330 0
-290 -436 0
64 -388 0
26 -354 0
89 271 0
-311 -197 0
-41 16 0
193 473 0
164 322 0
193 -407 0
471 310 0
-204 -494 0
-435 -462 0
-226 -414 0
139 141 0
33 -146 0
-288 -191 0
-164 316 0
-49 132 0
438 -348 0
-219 346 0
55 -57 0
-127 -190 0
393 439 0
485 -277 0
456 -286 0
322 100 0
-38 416 0
-309 103 0
-156 -80 0
123 -370 0
-1 -182 0
213 397 0
-348 -267 0
-417 359 0
45 -99 0
-74 -149 0
30 -396 0
-150 -258 0
-374 120 0
488 188 0
-482 262 0
-254 87 0
179 251 0
-93 -46 0
-355 -374 0
331 -131 0
188 -405 0
-292 448 0
-276 239 0
488 -474 0
458 -195 0
-388 -185 0
289 -113 0
-479 223 0
69 175 0
214 95 0
-292 -461 0
287 493 0
-323 -141 0
-217 -463 0
-124 143 0
94 316 0
88 416 0
7 -454 0
-328 -436 0
363 128 0
465 -61 0
112 133 0
-351 366 0
267 192 0
-313 -193 0
-334 279 0
-263 332 0
-208 -423 0
57 132 0
-288 -62 0
-61 -423 0
-257 -15 0
18 424 0
-21 284 0
-393 -104 0
-62 -205 0
-451 219 0
100 323 0
-238 -210 0
-471 -117 0
-420 442 0
-392 -169 0
-249 -177 0
-154 -420 0
331 -482 0
-101 379 0
424 433 0
-99 -461 0
-110 247 0
-260 51 0
6 290 0
220 473 0
-452 459 0
-323 412 0
325 -266 0
-294 -259 0
-427 388 0
295 386 0
-113 -405 0
-326 -202 0
-117 48 0
483 91 0
89 -390 0
82 149 0
-129 -142 0
-426 219 0
359 322 0
364 -103 0
111 -161 0
-243 -18 0
236 -107 0
340 -119 0
-305 465 0
-133 -391 0
142 41 0
471 13 0
292 -192 0
243 300 0
-381 138 0
-170 406 0
209 -386 0
-195 448 0
235 -164 0
71 5 0
-191 138 0
-210 332 0
-296 -14 0
-133 366 0
-168 -40 0
354 312 0
498 24 0
473 494 0
-456 -61 0
-453 -357 0
-402 -68 0
-69 -162 0
148 -3 0
174 -400 0
78 483 0
-133 -86 0
-11 -271 0
-282 -195 0
452 16 0
-54 487 0
487 -232 0
-192 -190 0
-472 -330 0
317 128 0
304 -365 0
272 -433 0
272 -287 0
257 -308 0
-295 364 0
316 235 0
-135 102 0
312 409 0
239 -4 0
144 390 0
310 173 0
-65 -15 0
-271 -119 0
-286 79 0
-323 224 0
420 403 0
440 210 0
-37 30 0
298 208 0
-471 -35 0
303 -391 0
-276 52 0
128 -124 0
73 364 0
28 3 0
7 390 0
-52 178 0
26 -48 0
-30 353 0
-111 200 0
-485 68 0
373 263 0
-156 -128 0
101 188 0
-372 437 0
462 -464 0
41 -62 0
-369 358 0
-323 498 0
309 472 0
-158 400 0
-110 29 0
140 -11 0
-115 420 0
-299 -279 0
-18 439 0
-253 158 0
-314 -440 0
479 -58 0
350 148 0
229 -223 0
37 -461 0
152 -313 0
450 406 0
-293 84 0
-261 317 0
479 -205 0
-88 232 0
368 176 0
-496 -156 0
-196 -120 0
95 -392 0
142 181 0
233 79 0
203 13 0
-62 245 0
40 67 0
-168 -415 0
121 -9 0
145 -254 0
-237 264 0
279 274 0
65 443 0
94 30 0
-34 -394 0
-165 -75 0
209 -176 0
-11 207 0
416 486 0
-132 19 0
29 -27 0
226 494 0
-205 -140 0
-363 -313 0
-187 -445 0
-104 210 0
222 212 0
283 118 0
60 -312 0
175 354 0
16 440 0
-254 370 0
-363 11 0
284 -166 0
-367 230 0
-279 341 0
-435 204 0
-393 -104 0
-286 393 0
-127 -423 0
-155 400 0
-204 -458 0
428 -61 0
-208 488 0
58 316 0
395 74 0
254 312 0
-1 122 0
-370 229 0
132 400 0
128 -432 0
95 304 0
-497 454 0
-439 -17 0
152 33 0
-234 327 0
-63 -12 0
312 277 0
414 -96 0
297 54 0
27 117 0
-412 79 0
312 488 0
-3 499 0
-46 301 0
136 200 0
-435 480 0
91 -415 0
190 -92 0
143 39 0
420 -47 0
251 114 0
329 -59 0
-73 230 0
-1 41 0
391 302 0
282 236 0
-287 267 0
-290 482 0
265 271 0
446 467 0
-304 -424 0
416 -439 0
40 -226 0
-253 -223 0
157 -467 0
288 84 0
6 25 0
39 -460 0
421 -205 0
131 424 0
64 74 0
-32 -164 0
373 389 0
302 159 0
-93 -279 0
-286 -123 0
-160 -51 0
-371 247 0
-436 -55 0
-327 -191 0
462 42 0
-469 355 0
78 205 0
-105 81 0
222 -482 0
-158 -309 0
-377 -156 0
-430 -46 0
-274 -1 0
470 -14 0
-276 -486 0
353 485 0
-160 -82 0
242 -311 0
-252 235 0
403 472 0
-193 184 0
-18 451 0
-100 360 0
270 22 0
387 -356 0
-280 296 0
498 -456 0
-150 -115 0
-347 -8 0
326 277 0
-338 -297 0
-24 484 0
173 41 0
97 100 0
-107 93 0
330 138 0
278 -134 0
-358 -335 0
-362 405 0
3 272 0
-156 -247 0
189 184 0
-54 247 0
301 28 0
-93 149 0
500 475 0
-463 350 0
258 -270 0
329 -134 0
-456 33 0
-141 219 0
189 -203 0
-99 -8 0
-433 -88 0
-305 144 0
-406 -449 0
138 -141 0
329 403 0
92 -112 0
258 -362 0
-31 -187 0
-371 52 0
-3 57 0
-99 279 0
-370 303 0
102 -48 0
-340 -23 0
412 197 0
185 -398 0
-17 427 0
29 -31 0
-38 87 0
-2 -52 0
100 -477 0
473 -76 0
-383 -396 0
-396 -266 0
-47 -105 0
-424 138 0
-296 4 0
-396 -6 0
-349 -187 0
-467 69 0
490 45 0
306 352 0
429 -233 0
87 -395 0
310 23 0
194 159 0
-248 -415 0
-96 -47 0
-125 135 0
-466 -158 0
-432 -383 0
-402 -74 0
-330 305 0
6 385 0
427 -328 0
44 120 0
-46 -446 0
-96 -203 0
-414 234 0
136 -104 0
-370 415 0
235 -390 0
-489 -12 0
121 5 0
388 -163 0
-75 152 0
478 484 0
-206 -429 0
91 -97 0
340 321 0
-266 352 0
-257 336 0
-282 248 0
336 204 0
213 -206 0
51 -161 0
68 -492 0
-392 63 0
149 137 0
23 152 0
-122 205 0
-154 457 0
22 -386 0
33 -397 0
-467 -31 0
-69 -385 0
-167 -122 0
-216 -160 0
-107 144 0
-290 103 0
212 -289 0
153 -139 0
-451 156 0
233 -464 0
-39 -430 0
-40 366 0
54 494 0
-124 -118 0
-95 -374 0
-363 -359 0
-335 258 0
-2 352 0
325 -17 0
350 -439 0
28 498 0
-482 7 0
-302 -66 0
-195 135 0
-246 -61 0
-357 484 0
161 146 0
30 -354 0
-12 186 0
132 359 0
-462 -249 0
-141 43 0
-210 -203 0
443 357 0
27 -351 0
72 -98 0
-111 -68 0
-65 -59 0
77 318 0
166 -1 0
-113 433 0
78 -219 0
-61 -53 0
-62 -168 0
132 105 0
-435 -106 0
376 -3 0
251 7 0
-264 -217 0
-434 153 0
442 110 0
272 360 0
251 -124 0
412 295 0
-375 -54 0
306 403 0
-205 185 0
-30 108 0
390 -191 0
-158 278 0
-445 438 0
60 -426 0
91 -166 0
-402 484 0
274 -50 0
-335 -416 0
390 307 0
381 -423 0
-467 -121 0
43 319 0
446 3 0
317 -346 0
-372 -166 0
-163 336 0
389 -203 0
208 -122 0
381 19 0
-449 -61 0
148 43 0
200 140 0
-55 -282 0
-99 253 0
280 95 0
-210 163 0
