c bounds 44 44 0.04
p cnf 500 1900
-463 287 0
329 -24 0
-133 -338 0
-183 352 0
-395 440 0
358 16 0
482 -51 0
-184 455 0
262 -407 0
-258 444 0
-213 -461 0
-328 246 0
354 211 0
-85 184 0
-328 -388 0
-303 334 0
-356 203 0
237 -180 0
-189 426 0
347 -26 0
180 -439 0
-433 324 0
-234 429 0
-22 157 0
309 -198 0
235 190 0
-238 228 0
7 -427 0
-31 469 0
325 280 0
-469 104 0
-410 -477 0
-487 -328 0
-470 -138 0
-2 37 0
133 479 0
12 206 0
34 -470 0
228 349 0
-136 -162 0
-264 -112 0
-105 257 0
-117 -313 0
-270 -395 0
469 -167 0
-107 -431 0
31 45 0
226 -471 0
334 -109 0
-304 -262 0
107 268 0
-25 287 0
367 280 0
-320 192 0
-401 282 0
-377 -287 0
465 448 0
-458 -381 0
-370 302 0
262 3 0
62 -244 0
-3 495 0
-466 -470 0
53 264 0
229 466 0
82 124 0
201 -71 0
-205 456 0
-50 -456 0
-392 -380 0
-467 240 0
-49 -35 0
-155 -66 0
-375 40 0
174 499 0
166 212 0
-392 -301 0
49 -108 0
21 233 0
-22 -310 0
314 173 0
405 146 0
396 292 0
-393 154 0
-374 216 0
470 -54 0
221 -192 0
-59 106 0
-13 334 0
-435 489 0
-110 -220 0
-138 -22 0
285 -278 0
-147 148 0
154 256 0
-364 -63 0
322 -91 0
296 -484 0
-475 370 0
-96 248 0
-393 432 0
25 -396 0
110 214 0
-291 213 0
-416 315 0
-483 -441 0
-232 -117 0
381 -348 0
-147 85 0
467 -23 0
441 288 0
-436 -423 0
27 2 0
339 182 0
-238 -381 0
253 -35 0
165 -111 0
315 414 0
-159 -33 0
-285 -471 0
-73 -402 0
183 282 0
-247 341 0
-348 474 0
-388 -407 0
424 439 0
-289 158 0
-377 -214 0
-364 -134 0
-152 340 0
82 170 0
316 -177 0
458 270 0
222 -199 0
243 184 0
-494 -264 0
-450 -340 0
363 376 0
-364 -155 0
402 324 0
215 -116 0
-18 402 0
234 413 0
-307 44 0
468 260 0
58 179 0
150 -81 0
404 317 0
-431 -320 0
137 -423 0
-231 424 0
-232 -376 0
-497 -200 0
-59 346 0
380 -267 0
83 301 0
-39 -340 0
-38 -58 0
-101 188 0
-215 -455 0
464 -439 0
341 25 0
413 229 0
98 10 0
-177 442 0
-70 154 0
-17 -155 0
-449 298 0
-283 304 0
-78 483 0
345 -49 0
495 -247 0
302 379 0
-213 203 0
-153 324 0
-170 -296 0
18 -264 0
282 -62 0
-251 -8 0
-332 -265 0
-250 -483 0
-60 409 0
-147 72 0
-54 -205 0
323 29 0
-138 -51 0
-8 425 0
166 -98 0
243 -417 0
-393 90 0
-243 255 0
-192 -230 0
168 131 0
344 150 0
-492 351 0
379 50 0
111 74 0
50 86 0
263 -329 0
390 118 0
-436 -312 0
-19 119 0
-256 -125 0
347 414 0
187 181 0
449 319 0
-180 -488 0
-381 90 0
-384 323 0
367 -129 0
349 -450 0
-407 -116 0
-129 -21 0
-52 1 0
248 345 0
206 -69 0
190 -94 0
-113 32 0
202 -223 0
-108 -394 0
-98 -392 0
-433 59 0
291 369 0
268 72 0
369 124 0
-17 -72 0
349 112 0
325 -499 0
-102 -469 0
225 -479 0
-155 -5 0
-35 -148 0
437 -223 0
448 346 0
-371 -432 0
356 218 0
-93 -474 0
282 68 0
-70 442 0
-183 91 0
-360 -100 0
-324 458 0
335 396 0
-388 8 0
-60 86 0
-496 184 0
153 -359 0
-57 -38 0
468 211 0
-274 56 0
-352 202 0
301 -67 0
36 408 0
302 -468 0
326 234 0
317 -412 0
104 2 0
232 -355 0
-353 480 0
-479 258 0
-164 230 0
175 -5 0
189 -485 0
-492 -152 0
-306 -19 0
368 -295 0
199 140 0
-499 -16 0
279 -394 0
104 129 0
493 -39 0
340 99 0
-34 -269 0
479 343 0
269 -316 0
308 -133 0
-210 -156 0
-451 -344 0
362 -59 0
-1 -89 0
122 472 0
200 -392 0
210 -172 0
-163 -497 0
-376 300 0
-412 241 0
-376 380 0
-61 -293 0
203 -394 0
-443 -342 0
37 227 0
-11 -294 0
264 136 0
-44 40 0
-475 149 0
-251 185 0
434 73 0
-446 132 0
255 -451 0
374 104 0
417 -456 0
304 -283 0
-257 -113 0
-293 462 0
392 -142 0
341 -94 0
295 -78 0
-64 -150 0
-356 100 0
7 -59 0
-474 -103 0
124 441 0
332 473 0
201 302 0
-457 -484 0
-106 -274 0
-84 83 0
333 -311 0
-303 4 0
353 63 0
-308 409 0
-459 257 0
-176 379 0
400 340 0
-41 442 0
144 -355 0
213 -169 0
460 185 0
-478 323 0
385 -9 0
-470 -336 0
-221 -392 0
78 -296 0
174 379 0
63 -343 0
-416 -274 0
-192 -172 0
-143 399 0
-249 -3 0
472 -99 0
-485 333 0
250 52 0
123 481 0
-345 -420 0
203 -376 0
-247 -70 0
277 -39 0
-357 389 0
-432 417 0
-15 237 0
-310 -23 0
-492 440 0
-293 -105 0
-423 159 0
111 -131 0
-477 469 0
36 376 0
390 -423 0
62 -432 0
193 -346 0
-472 231 0
112 322 0
437 -159 0
-11 287 0
161 418 0
-281 -101 0
228 -56 0
59 83 0
405 187 0
434 -329 0
251 -316 0
231 215 0
-389 -483 0
406 73 0
106 -296 0
178 -321 0
-75 -23 0
426 -215 0
-32 -172 0
-60 262 0
-332 -97 0
-196 -164 0
170 174 0
232 146 0
442 -393 0
300 250 0
-484 -446 0
446 -484 0
-488 -109 0
396 -105 0
-154 490 0
161 284 0
-101 361 0
-461 236 0
354 318 0
-281 -454 0
-328 97 0
-278 -151 0
203 81 0
-209 441 0
-442 317 0
295 323 0
72 119 0
206 -306 0
-172 72 0
67 320 0
480 -119 0
-5 349 0
411 -337 0
-346 -265 0
112 393 0
318 255 0
243 -343 0
-497 -204 0
-393 428 0
20 400 0
-308 -331 0
16 -237 0
-116 -344 0
-108 40 0
-17 438 0
216 -377 0
-344 -113 0
-336 89 0
-390 -336 0
100 469 0
426 490 0
293 498 0
465 106 0
-131 -420 0
298 244 0
-56 -11 0
-463 -306 0
-104 1 0
285 -64 0
-188 -439 0
150 2 0
-500 347 0
86 20 0
355 -400 0
128 383 0
368 -276 0
-141 -391 0
-239 -157 0
252 53 0
-258 -162 0
-126 -156 0
-400 59 0
-147 329 0
310 404 0
-272 -38 0
310 -79 0
136 170 0
332 341 0
-226 -276 0
364 -50 0
271 -68 0
28 -392 0
312 393 0
-461 -370 0
-225 413 0
268 260 0
-200 -199 0
375 -84 0
339 202 0
162 194 0
47 302 0
96 34 0
130 -257 0
212 -196 0
-279 -64 0
102 -108 0
134 396 0
130 459 0
-396 386 0
56 278 0
294 -410 0
-357 -280 0
-105 80 0
-114 202 0
-162 130 0
20 -491 0
310 -59 0
98 -477 0
287 170 0
40 367 0
138 406 0
57 408 0
-286 192 0
32 -355 0
133 179 0
-190 -107 0
-461 400 0
-90 -431 0
178 91 0
-416 -135 0
-319 -172 0
-198 -52 0
-134 -394 0
-432 -163 0
-392 -257 0
-364 -404 0
-60 186 0
-390 478 0
-180 -477 0
-470 -55 0
174 209 0
-286 -269 0
178 127 0
418 -332 0
170 -322 0
-464 57 0
-103 -306 0
-289 135 0
-449 -3 0
224 -126 0
415 111 0
107 280 0
-364 -94 0
-381 208 0
-393 -342 0
29 130 0
-330 74 0
495 391 0
87 230 0
181 -137 0
20 264 0
162 -84 0
-135 486 0
-3 -304 0
-129 257 0
284 45 0
-109 -50 0
163 187 0
498 -388 0
84 -271 0
-30 152 0
-410 -478 0
-171 187 0
262 -75 0
-84 -180 0
-134 -89 0
-471 4 0
-44 479 0
-183 364 0
153 -120 0
-472 355 0
-223 -64 0
-327 258 0
14 332 0
469 191 0
360 326 0
329 267 0
-370 7 0
439 365 0
-134 -82 0
-256 -393 0
-376 259 0
-450 -226 0
-297 434 0
135 42 0
-79 -494 0
-411 215 0
193 -169 0
-6 -416 0
-216 -192 0
-70 456 0
381 -139 0
33 343 0
244 418 0
-167 224 0
163 -233 0
74 -303 0
-389 227 0
229 264 0
12 -35 0
-433 405 0
323 124 0
-349 313 0
347 441 0
-423 474 0
349 284 0
-468 -126 0
403 -270 0
232 251 0
201 -367 0
-296 -323 0
150 -480 0
4 -448 0
-179 -221 0
-46 144 0
-58 -19 0
248 41 0
153 108 0
-93 -240 0
-78 -109 0
368 -5 0
-328 -282 0
-339 -477 0
-320 -498 0
462 -161 0
137 116 0
-427 -3 0
-316 -152 0
-279 -378 0
-404 -35 0
-475 -483 0
91 197 0
-272 31 0
159 314 0
262 138 0
457 -492 0
477 418 0
122 -62 0
-246 91 0
299 305 0
284 -37 0
-221 -155 0
-64 175 0
490 -423 0
307 452 0
-180 -457 0
408 454 0
-227 469 0
465 -300 0
-368 -308 0
291 -472 0
377 -169 0
106 -182 0
-221 -302 0
98 -217 0
-5 -497 0
236 378 0
451 448 0
-471 446 0
-133 -334 0
208 469 0
62 -348 0
-219 273 0
278 379 0
102 498 0
-389 -242 0
250 -235 0
456 -47 0
-212 473 0
53 -463 0
-393 -440 0
479 -210 0
1 154 0
486 130 0
63 -71 0
236 -199 0
367 255 0
-70 -441 0
494 -229 0
-318 106 0
-419 -377 0
190 222 0
108 -496 0
-198 -302 0
-308 -59 0
-223 88 0
327 -167 0
218 125 0
-115 301 0
480 -457 0
-328 247 0
246 244 0
-471 -180 0
-281 23 0
8 362 0
227 82 0
-290 -121 0
171 209 0
-399 -197 0
-497 17 0
-152 360 0
258 122 0
-300 387 0
299 -206 0
451 458 0
489 301 0
32 47 0
-242 -420 0
496 380 0
382 356 0
160 26 0
-118 -50 0
-275 174 0
-64 -50 0
-395 487 0
-129 287 0
498 307 0
62 38 0
-402 -189 0
-90 129 0
309 199 0
-400 256 0
-272 220 0
227 -162 0
-12 -370 0
-461 -173 0
449 500 0
339 12 0
273 -478 0
182 261 0
359 -184 0
-377 148 0
248 58 0
252 80 0
-125 486 0
452 -316 0
-30 138 0
-246 -183 0
239 -439 0
-90 323 0
-484 -337 0
-458 488 0
91 456 0
201 482 0
-471 246 0
494 -433 0
480 -177 0
369 -162 0
238 -286 0
468 -325 0
167 -128 0
-455 -407 0
46 499 0
460 -337 0
441 171 0
-233 93 0
-444 122 0
-360 -199 0
-335 -253 0
231 173 0
483 -376 0
28 -92 0
-357 -99 0
36 -340 0
-343 403 0
176 -220 0
-135 342 0
295 -321 0
452 59 0
-366 438 0
354 -126 0
447 301 0
-108 167 0
321 418 0
429 -186 0
-94 -443 0
-454 48 0
-338 -20 0
328 -470 0
169 83 0
-198 -402 0
-249 -23 0
-7 34 0
254 156 0
-251 406 0
-221 166 0
304 -470 0
-140 83 0
55 -439 0
-68 -151 0
277 -409 0
130 -119 0
26 42 0
169 -70 0
-307 -92 0
-485 -180 0
179 -35 0
-300 -389 0
4 38 0
-9 144 0
-485 -265 0
-457 -483 0
26 -97 0
267 -214 0
-303 4 0
136 66 0
-304 -237 0
-366 472 0
473 124 0
-112 -319 0
-191 106 0
-249 -203 0
-444 -470 0
-249 492 0
-483 184 0
-217 214 0
333 -76 0
91 285 0
234 -55 0
-62 473 0
203 86 0
416 -30 0
231 488 0
-17 -132 0
254 -199 0
350 1 0
145 238 0
-301 87 0
-70 -371 0
326 421 0
382 191 0
82 313 0
167 -348 0
487 378 0
-363 399 0
318 48 0
327 -185 0
206 480 0
-68 -395 0
-58 142 0
498 -303 0
481 -445 0
-423 334 0
235 447 0
-162 -250 0
-311 -55 0
233 -468 0
-469 261 0
296 182 0
299 131 0
396 7 0
461 -38 0
-400 292 0
-256 313 0
-364 282 0
-404 -18 0
287 442 0
-113 -489 0
-29 -13 0
98 -111 0
-303 339 0
-247 -457 0
151 -319 0
-72 -73 0
-417 288 0
-427 -213 0
-492 -20 0
-23 25 0
-402 389 0
-439 468 0
-390 83 0
227 -159 0
21 160 0
-140 -291 0
-142 -321 0
488 99 0
-351 423 0
-58 156 0
-475 -449 0
-485 -428 0
-157 -52 0
-54 391 0
376 128 0
500 86 0
168 -269 0
-11 -196 0
-239 460 0
-281 -415 0
144 -107 0
-70 310 0
307 1 0
211 18 0
-344 83 0
201 435 0
-233 62 0
446 -35 0
-11 12 0
-226 -409 0
443 -54 0
480 -455 0
-370 -450 0
148 270 0
-319 293 0
291 -463 0
-172 14 0
191 -186 0
8 -474 0
476 276 0
-76 -385 0
-371 -340 0
338 252 0
344 473 0
213 201 0
157 -132 0
334 343 0
-402 234 0
234 399 0
-79 424 0
471 150 0
432 -85 0
167 -271 0
339 160 0
480 -6 0
-126 -262 0
343 -497 0
77 -134 0
-220 -30 0
55 -272 0
146 487 0
-79 -201 0
359 259 0
500 275 0
-155 262 0
-469 -461 0
465 247 0
-116 -478 0
-497 -141 0
-85 139 0
130 -18 0
458 254 0
-419 -207 0
88 -369 0
42 128 0
270 -64 0
423 310 0
-242 -156 0
-66 430 0
371 167 0
-105 191 0
212 473 0
284 -96 0
-19 422 0
-35 343 0
-35 144 0
-85 359 0
-146 -478 0
260 -316 0
186 -258 0
341 152 0
228 -233 0
-499 -286 0
-275 442 0
-120 -215 0
-335 -296 0
7 -25 0
490 72 0
-190 -116 0
-157 188 0
82 -24 0
-346 -389 0
-78 -11 0
137 -198 0
-124 -39 0
-401 -273 0
-355 1 0
189 380 0
40 498 0
294 197 0
-117 195 0
405 -68 0
156 216 0
438 223 0
-432 8 0
-32 386 0
407 -470 0
-471 239 0
386 -109 0
-23 42 0
-473 299 0
329 -414 0
-145 -323 0
-233 449 0
106 -89 0
71 -348 0
310 -160 0
-436 -87 0
-276 262 0
-239 65 0
-288 219 0
-141 -15 0
446 487 0
-33 312 0
282 -491 0
103 77 0
-134 -49 0
448 83 0
-10 222 0
305 314 0
241 391 0
167 -111 0
149 334 0
-151 -275 0
410 -303 0
-289 448 0
-96 131 0
-299 170 0
-161 -85 0
-84 361 0
46 34 0
240 -108 0
176 -280 0
343 150 0
200 493 0
-76 134 0
-410 -19 0
-53 250 0
-30 -432 0
21 196 0
51 236 0
-190 452 0
-483 -419 0
-10 -109 0
-95 -172 0
-366 254 0
-84 -138 0
4 -113 0
-131 -223 0
-478 396 0
-141 365 0
-224 -477 0
214 80 0
202 -340 0
396 328 0
-169 218 0
91 -152 0
-80 -121 0
-281 -479 0
-32 -305 0
-203 214 0
-415 -269 0
398 -79 0
-97 -36 0
438 -418 0
-407 383 0
-10 173 0
114 -274 0
20 279 0
-374 128 0
289 -392 0
282 145 0
-278 25 0
-43 384 0
-433 332 0
-440 -197 0
468 148 0
260 -207 0
267 112 0
487 -446 0
482 448 0
-407 -300 0
-485 56 0
-203 -404 0
-281 -61 0
-297 64 0
176 206 0
-123 -470 0
-335 462 0
-421 495 0
-401 -84 0
285 452 0
-305 409 0
166 196 0
-457 -322 0
482 -449 0
260 380 0
42 -416 0
313 -58 0
-340 -135 0
305 -139 0
462 -286 0
153 -262 0
222 257 0
-254 -450 0
-482 322 0
-284 340 0
-92 -141 0
198 -393 0
-333 -373 0
-289 382 0
-287 -420 0
-169 206 0
56 497 0
493 -440 0
-347 227 0
331 -493 0
282 140 0
-453 -76 0
462 254 0
416 -55 0
270 262 0
382 419 0
285 259 0
-162 -90 0
365 326 0
274 309 0
-370 145 0
148 80 0
464 391 0
-412 -226 0
-6 -100 0
-304 -375 0
-148 127 0
-19 40 0
216 230 0
46 153 0
288 -408 0
374 -303 0
221 294 0
332 -456 0
169 246 0
-61 -404 0
-394 -347 0
-300 294 0
320 -286 0
-499 -319 0
-76 359 0
154 137 0
146 313 0
91 -381 0
67 444 0
-381 -110 0
-242 12 0
-407 -89 0
168 -3 0
-386 154 0
72 -207 0
490 -335 0
-377 409 0
468 -485 0
270 380 0
-450 -107 0
-410 -118 0
-345 371 0
106 405 0
-227 -215 0
217 314 0
451 407 0
-471 92 0
-393 244 0
-303 -67 0
246 89 0
262 152 0
413 429 0
21 -388 0
173 -7 0
2 -356 0
-183 371 0
-395 -443 0
493 74 0
-487 -5 0
204 -346 0
291 107 0
292 -75 0
-145 441 0
464 217 0
490 -180 0
-257 -162 0
38 367 0
-420 -316 0
-39 220 0
-197 97 0
160 292 0
-132 -351 0
-57 -39 0
-55 -55 0
318 -119 0
322 -209 0
-60 254 0
37 -191 0
-215 418 0
-120 -85 0
-289 60 0
309 420 0
-365 16 0
133 12 0
278 -102 0
-152 -223 0
174 334 0
-306 341 0
403 284 0
406 120 0
-467 360 0
62 -76 0
-223 194 0
-244 114 0
160 -221 0
-272 226 0
37 458 0
-184 -495 0
-168 -478 0
-416 -423 0
-181 494 0
-145 -362 0
-9 -462 0
431 288 0
-287 -389 0
276 -226 0
154 -239 0
-427 14 0
448 74 0
208 299 0
-133 -41 0
34 167 0
-446 267 0
-290 -229 0
476 -364 0
-423 210 0
-293 -305 0
-311 5 0
216 -270 0
-242 -3 0
-466 321 0
151 460 0
-307 -145 0
367 -415 0
-49 -410 0
317 218 0
482 -196 0
-289 122 0
-386 417 0
84 -421 0
-92 -380 0
-62 -364 0
285 186 0
-247 500 0
-82 186 0
46 453 0
-60 168 0
-8 -481 0
426 46 0
152 -371 0
-290 417 0
363 -302 0
71 -160 0
299 282 0
-421 -328 0
271 107 0
304 46 0
-342 -177 0
-38 353 0
241 56 0
369 -47 0
114 -103 0
114 -148 0
-152 91 0
333 150 0
-460 150 0
-120 65 0
-67 16 0
-419 148 0
-91 380 0
490 -412 0
-282 295 0
36 39 0
-388 3 0
106 -108 0
-210 64 0
186 -52 0
214 372 0
-353 452 0
-10 -145 0
-151 -471 0
375 479 0
383 2 0
46 273 0
370 312 0
31 67 0
-300 -93 0
-270 -108 0
297 222 0
164 -458 0
-279 188 0
342 424 0
424 -324 0
-247 -147 0
-420 283 0
-13 236 0
338 41 0
-205 -285 0
-353 -86 0
-463 -468 0
-115 164 0
318 -475 0
301 -81 0
316 72 0
-421 -440 0
-279 85 0
16 -357 0
34 -222 0
-264 -55 0
-123 -133 0
1 202 0
288 -58 0
329 144 0
168 224 0
-485 -421 0
206 -328 0
31 325 0
-357 382 0
174 -160 0
344 -306 0
-86 -223 0
-43 -474 0
-196 255 0
498 -235 0
185 -180 0
134 365 0
144 361 0
146 -395 0
-389 112 0
278 -458 0
-153 447 0
-216 245 0
-206 251 0
-381 253 0
156 -300 0
-360 185 0
-24 324 0
-474 -196 0
-320 146 0
162 -210 0
-487 418 0
176 8 0
383 232 0
-89 -178 0
53 -161 0
-128 -275 0
306 -253 0
67 467 0
-224 -455 0
284 -19 0
347 80 0
259 193 0
-170 298 0
-330 -291 0
-190 276 0
-249 199 0
-348 -91 0
-151 500 0
-163 313 0
490 -365 0
389 -344 0
208 -200 0
42 -137 0
298 -495 0
465 -309 0
-85 -305 0
-70 -31 0
-94 128 0
391 -465 0
88 -395 0
-138 182 0
-467 230 0
477 -73 0
-305 -129 0
-370 262 0
312 -391 0
429 28 0
435 -171 0
-399 46 0
137 247 0
-81 318 0
136 362 0
406 212 0
52 218 0
-184 -283 0
-93 339 0
-99 -242 0
132 287 0
79 112 0
-485 312 0
266 -286 0
35 379 0
-486 178 0
-390 -268 0
174 -375 0
-10 -276 0
160 131 0
292 -8 0
-466 -263 0
-370 -308 0
-213 493 0
469 -338 0
-389 -450 0
427 -401 0
-473 -240 0
25 474 0
-285 65 0
-151 -485 0
-411 -276 0
-283 -405 0
-411 48 0
-191 -163 0
318 220 0
-244 391 0
-271 -215 0
-394 -483 0
479 -272 0
-369 -159 0
104 -476 0
488 -238 0
-27 383 0
-213 -417 0
-124 -461 0
-66 40 0
447 324 0
-253 16 0
185 124 0
-340 380 0
47 286 0
-11 457 0
124 -467 0
362 175 0
345 -162 0
367 -9 0
-427 -427 0
-42 200 0
398 149 0
-282 -213 0
-457 -258 0
-472 -16 0
53 8 0
-468 -387 0
375 -58 0
237 -8 0
329 -482 0
109 -97 0
-60 305 0
-357 -473 0
-156 167 0
330 191 0
493 -385 0
349 -381 0
-98 428 0
-340 229 0
-397 -52 0
-123 -117 0
405 -96 0
-220 279 0
235 -226 0
-491 -334 0
88 467 0
-233 259 0
105 456 0
371 -3 0
-467 315 0
49 -328 0
87 202 0
-264 -132 0
-204 -394 0
128 12 0
-21 -431 0
347 -288 0
186 399 0
207 -55 0
310 198 0
-22 -131 0
317 -199 0
408 32 0
-155 -443 0
118 -123 0
48 -44 0
374 152 0
225 350 0
355 -373 0
-363 313 0
211 302 0
-18 -350 0
175 7 0
-351 411 0
-57 405 0
-108 224 0
24 -51 0
398 478 0
263 487 0
-293 -172 0
-428 194 0
234 414 0
500 434 0
248 247 0
358 -10 0
-156 -459 0
-128 140 0
-269 80 0
476 -412 0
172 250 0
-119 -4 0
-125 399 0
-89 186 0
-368 481 0
-278 -60 0
-478 476 0
-399 -101 0
-52 448 0
-136 -269 0
111 -472 0
482 -181 0
164 20 0
422 225 0
-115 -401 0
431 176 0
214 107 0
346 350 0
-355 157 0
-410 -333 0
153 146 0
415 -297 0
-3 360 0
-141 378 0
-319 -58 0
405 182 0
186 -353 0
112 -58 0
232 77 0
391 313 0
-437 63 0
-465 -337 0
236 -484 0
86 -394 0
80 427 0
484 -274 0
-421 102 0
383 317 0
366 -142 0
-90 -457 0
-256 123 0
185 -216 0
-438 -370 0
374 211 0
292 78 0
-66 -393 0
-135 315 0
370 -135 0
-10 202 0
452 -205 0
-73 -137 0
-121 452 0
132 -439 0
-344 -117 0
255 -128 0
137 -384 0
56 294 0
431 -155 0
-88 -157 0
-392 -144 0
-409 -183 0
123 256 0
362 54 0
472 -95 0
-233 287 0
-93 474 0
112 -2 0
-344 -272 0
78 218 0
201 409 0
-353 -337 0
-213 -105 0
500 469 0
-225 417 0
-105 449 0
16 149 0
156 249 0
-38 318 0
466 -397 0
-329 -192 0
-124 -279 0
9 -177 0
314 -66 0
-455 -239 0
-64 -34 0
151 -49 0
442 -108 0
55 -306 0
167 125 0
362 44 0
342 -108 0
395 -108 0
306 57 0
186 -282 0
-138 467 0
131 477 0
20 -401 0
409 131 0
-210 76 0
-300 -11 0
260 293 0
-396 -308 0
489 -398 0
-78 -109 0
222 328 0
57 235 0
-88 206 0
326 -307 0
-223 106 0
-279 427 0
84 -388 0
-106 124 0
202 137 0
81 379 0
40 -327 0
210 413 0
21 360 0
-282 310 0
-43 -321 0
32 452 0
-418 -387 0
249 -256 0
-220 331 0
-335 400 0
290 56 0
12 -9 0
-226 -128 0
-22 409 0
-157 -252 0
-369 237 0
-229 123 0
374 -491 0
178 -400 0
-180 -132 0
408 351 0
-433 -401 0
441 482 0
-290 -57 0
107 173 0
374 264 0
-390 202 0
-409 -376 0
369 328 0
-497 471 0
-31 -192 0
-337 -250 0
16 230 0
-69 385 0
-10 191 0
-58 481 0
486 464 0
149 -200 0
-268 399 0
-268 182 0
-25 167 0
-143 322 0
-388 24 0
324 -68 0
298 -271 0
260 -5 0
-241 228 0
168 -189 0
-69 -414 0
-473 378 0
-38 -70 0
-488 63 0
104 213 0
-133 182 0
-47 -52 0
-323 498 0
181 -324 0
496 453 0
-162 -327 0
190 -64 0
278 -42 0
-279 -457 0
-484 98 0
441 -234 0
-151 435 0
199 -461 0
-491 434 0
180 -283 0
-410 158 0
-106 -10 0
-50 -266 0
56 156 0
431 321 0
-10 245 0
482 -205 0
-138 105 0
299 40 0
-95 44 0
-55 477 0
92 -240 0
158 -21 0
382 -271 0
405 -303 0
-468 -393 0
310 -180 0
135 449 0
396 -456 0
224 -204 0
-190 -38 0
-466 -418 0
493 119 0
-354 -29 0
495 260 0
-387 -111 0
-417 327 0
-290 -421 0
462 -437 0
-90 225 0
-420 260 0
-272 260 0
336 56 0
-166 42 0
332 -138 0
-222 254 0
104 298 0
14 190 0
426 -9 0
136 -272 0
439 488 0
166 -436 0
-90 -440 0
465 -481 0
175 -121 0
-256 442 0
268 123 0
309 456 0
-192 -404 0
66 -94 0
287 -186 0
-470 -159 0
-6 310 0
-491 194 0
-319 233 0
203 74 0
443 -35 0
31 -339 0
398 -18 0
-61 229 0
-408 287 0
-239 254 0
77 225 0
-184 -355 0
-151 -296 0
358 153 0
435 -138 0
-439 33 0
-110 -425 0
497 -384 0
451 34 0
-168 391 0
200 440 0
-199 452 0
173 418 0
-177 -36 0
492 434 0
369 -233 0
305 46 0
224 2 0
98 115 0
277 -200 0
336 -171 0
409 95 0
-300 63 0
-442 -249 0
458 229 0
-459 57 0
15 37 0
424 -54 0
-94 -300 0
200 -157 0
-134 -142 0
417 398 0
-447 288 0
-404 326 0
-306 131 0
191 158 0
2 -5 0
-257 327 0
-298 302 0
-109 67 0
437 -146 0
-496 -493 0
-249 -11 0
480 -200 0
-171 465 0
-443 -345 0
382 494 0
13 -421 0
478 -66 0
169 241 0
-172 35 0
-488 486 0
128 -207 0
486 -16 0
249 -99 0
-334 20 0
-411 260 0
236 -215 0
-468 -248 0
381 277 0
189 318 0
182 -61 0
100 381 0
-436 278 0
347 404 0
-240 243 0
363 -347 0
129 -8 0
492 -342 0
161 -336 0
385 462 0
420 -129 0
201 -108 0
323 256 0
-145 -304 0
271 -304 0
313 -20 0
-279 -47 0
-19 1 0
153 -281 0
-337 87 0
287 385 0
240 124 0
-5 366 0
242 14 0
392 -220 0
-411 -39 0
394 -79 0
-141 398 0
-110 354 0
-111 -3 0
285 168 0
266 -216 0
67 -279 0
-354 302 0
-383 -446 0
-346 -256 0
375 206 0
321 -412 0
488 107 0
-10 94 0
-101 -162 0
167 80 0
74 282 0
434 441 0
-15 415 0
50 -274 0
-85 -110 0
418 377 0
2 414 0
124 -191 0
305 -459 0
-189 58 0
-70 -359 0
180 434 0
321 310 0
-45 437 0
-371 486 0
219 201 0
-6 268 0
-56 -474 0
-395 -439 0
310 -59 0
-152 -339 0
-442 77 0
354 459 0
462 -360 0
-492 -115 0
-264 -35 0
-443 -217 0
234 -177 0
-54 -474 0
340 -274 0
122 404 0
255 291 0
451 477 0
318 -116 0
-75 379 0
-453 -38 0
-172 333 0
-154 -43 0
-416 -13 0
-243 -325 0
-220 5 0
379 96 0
-271 349 0
149 349 0
-347 324 0
-256 -364 0
-241 480 0
45 -28 0
480 -292 0
57 -365 0
-159 -192 0
-19 -154 0
279 288 0
370 -381 0
464 223 0
438 -145 0
136 155 0
51 -485 0
-102 -432 0
-59 367 0
-326 -393 0
446 -346 0
244 339 0
396 31 0
-397 -412 0
453 -116 0
25 -414 0
30 82 0
239 165 0
-138 113 0
-110 486 0
462 -297 0
