c bounds 57 57 0.06
p cnf 500 1400
-133 239 0
-3 267 0
94 459 0
177 -158 0
-247 411 0
312 445 0
-495 94 0
455 177 0
155 468 0
35 59 0
-143 -395 0
-63 473 0
-222 250 0
238 -427 0
-247 51 0
-255 -276 0
-112 -238 0
-418 -307 0
448 -25 0
-358 -337 0
-414 306 0
219 -139 0
-301 -320 0
-76 32 0
-445 320 0
144 -120 0
-43 -314 0
-151 167 0
391 311 0
469 293 0
7 375 0
139 -36 0
-231 48 0
-108 232 0
308 -48 0
-122 -318 0
-278 316 0
125 -349 0
433 216 0
-386 287 0
-359 -76 0
-122 -458 0
-70 -209 0
227 -381 0
-488 -270 0
-34 286 0
-268 124 0
274 142 0
364 412 0
132 252 0
-136 312 0
336 186 0
-262 203 0
483 129 0
497 173 0
-268 287 0
-460 201 0
292 -156 0
-321 494 0
87 -418 0
227 -164 0
193 -425 0
463 386 0
290 -61 0
337 -176 0
-358 -319 0
-18 -218 0
-365 -152 0
227 -206 0
324 -255 0
-164 -72 0
410 -334 0
-166 272 0
-104 51 0
68 34 0
-496 417 0
6 -373 0
-385 103 0
-49 -70 0
200 -187 0
-434 436 0
-119 -72 0
-22 51 0
-447 203 0
-408 -177 0
499 -222 0
52 -123 0
31 170 0
-337 289 0
410 -25 0
38 149 0
-143 238 0
259 10 0
-32 -262 0
-223 -449 0
-220 34 0
-35 -139 0
11 64 0
-51 136 0
-467 385 0
308 -212 0
211 -234 0
-419 -354 0
-467 -438 0
-174 350 0
419 103 0
-313 -155 0
-114 348 0
60 -156 0
-180 424 0
350 88 0
444 261 0
463 107 0
-346 383 0
-221 -324 0
238 66 0
430 442 0
306 478 0
-166 -101 0
20 -228 0
-121 465 0
-239 -493 0
-154 -276 0
150 -129 0
-478 -485 0
388 88 0
-436 -319 0
107 -435 0
-304 72 0
49 -251 0
175 -443 0
-424 340 0
-161 466 0
-248 -213 0
-371 462 0
383 -280 0
-475 195 0
-131 66 0
-375 -106 0
-108 -181 0
109 259 0
180 -5 0
495 400 0
-10 -290 0
136 -157 0
315 -222 0
-414 -407 0
139 350 0
414 -447 0
448 -331 0
458 495 0
-476 242 0
84 -216 0
91 311 0
320 -386 0
-439 480 0
-398 159 0
412 288 0
477 166 0
286 331 0
-274 329 0
-295 267 0
13 -250 0
102 489 0
-275 256 0
316 -469 0
141 -95 0
-489 -427 0
-494 446 0
-262 -211 0
486 -329 0
-7 356 0
-418 246 0
181 -70 0
-114 -152 0
444 144 0
-114 -326 0
362 -106 0
-267 167 0
453 37 0
313 -418 0
-1 20 0
-452 280 0
188 100 0
-116 196 0
-130 -366 0
-308 -290 0
470 -18 0
-55 -343 0
335 -492 0
-451 -373 0
190 -154 0
-416 -373 0
-348 -58 0
69 102 0
-209 113 0
-354 476 0
411 -191 0
-241 111 0
-275 -19 0
-190 -180 0
-150 315 0
-2 -453 0
344 -321 0
-50 -381 0
88 170 0
-344 -451 0
7 87 0
-429 143 0
-166 -5 0
419 -348 0
200 -338 0
67 185 0
32 -243 0
-253 498 0
271 -366 0
-431 -26 0
320 -27 0
32 -192 0
-218 -82 0
159 473 0
-169 -491 0
-10 -336 0
-138 133 0
233 35 0
385 -451 0
155 -399 0
-479 1 0
235 -459 0
186 179 0
1 126 0
137 415 0
185 395 0
161 -256 0
244 59 0
-441 -214 0
-155 226 0
193 401 0
-252 -55 0
-343 -408 0
-332 435 0
422 190 0
246 284 0
212 -485 0
-461 45 0
311 474 0
483 -438 0
-492 34 0
-498 -111 0
-134 160 0
-255 -281 0
-441 -176 0
135 -207 0
-156 -213 0
325 -2 0
-81 218 0
68 230 0
34 -375 0
-2 -40 0
-249 -371 0
-213 316 0
66 110 0
-288 473 0
-197 37 0
272 -410 0
-325 -276 0
-106 -403 0
136 -307 0
-244 -105 0
-14 -453 0
54 191 0
183 -482 0
-439 -475 0
93 -245 0
-231 -228 0
-69 272 0
1 -288 0
32 454 0
-442 -221 0
383 -5 0
259 -171 0
-180 401 0
-3 492 0
58 -422 0
303 -213 0
55 -469 0
-247 -465 0
-117 -124 0
-449 449 0
187 466 0
-220 111 0
-497 231 0
257 318 0
-83 159 0
-188 -322 0
224 279 0
379 -270 0
259 367 0
226 62 0
-371 -263 0
250 35 0
145 -247 0
-423 -169 0
-241 -459 0
-225 -15 0
244 -399 0
-255 478 0
363 -166 0
152 445 0
-359 142 0
455 -466 0
370 -120 0
125 -383 0
-162 -98 0
138 266 0
-153 38 0
474 -308 0
-47 -33 0
-66 -18 0
177 184 0
-187 125 0
-18 261 0
451 -240 0
276 286 0
-438 245 0
-464 390 0
-262 -342 0
-259 78 0
390 291 0
11 412 0
93 -169 0
463 -33 0
-489 438 0
477 -79 0
-180 369 0
-277 -220 0
-232 299 0
-439 295 0
-471 -449 0
-56 177 0
395 432 0
383 500 0
-250 103 0
-112 -330 0
379 473 0
62 116 0
308 272 0
-490 374 0
-361 -269 0
330 194 0
-321 -433 0
-454 -458 0
415 -394 0
-489 -228 0
-98 50 0
15 59 0
453 -281 0
105 339 0
86 -251 0
113 6 0
-381 -356 0
431 -63 0
127 -499 0
192 481 0
-449 298 0
383 342 0
362 1 0
367 -375 0
-221 -446 0
60 325 0
477 207 0
392 -8 0
-439 379 0
439 -39 0
311 7 0
477 103 0
-482 -108 0
-181 -163 0
-201 -273 0
100 -331 0
494 -298 0
-240 -163 0
-253 -369 0
238 -76 0
474 242 0
322 -415 0
193 77 0
193 231 0
-277 -199 0
102 -159 0
-424 393 0
317 117 0
60 -396 0
24 -324 0
46 -282 0
206 -23 0
24 -22 0
340 -114 0
446 -73 0
-469 -68 0
138 -140 0
337 280 0
289 -348 0
-298 -205 0
-293 390 0
308 167 0
-386 280 0
-319 -398 0
64 -53 0
-156 -51 0
92 411 0
369 13 0
405 320 0
409 325 0
411 -387 0
-479 270 0
300 -71 0
-73 477 0
153 -439 0
52 477 0
-187 -88 0
99 79 0
455 -364 0
88 158 0
-129 385 0
-294 -230 0
-479 457 0
-167 195 0
-142 103 0
493 -338 0
167 -437 0
-394 -279 0
-401 132 0
401 38 0
226 -369 0
-422 283 0
-164 -435 0
-425 -120 0
-440 260 0
-95 455 0
-217 -80 0
216 -460 0
204 -426 0
333 -413 0
-181 -457 0
-317 -25 0
286 -428 0
-22 181 0
-31 132 0
391 357 0
-31 -365 0
-230 206 0
165 -129 0
-288 378 0
269 -210 0
-187 485 0
466 422 0
-443 -489 0
-403 59 0
-445 -282 0
294 -494 0
-460 338 0
-113 257 0
-161 477 0
-446 -490 0
-5 452 0
86 -217 0
72 -98 0
442 -184 0
-438 -331 0
329 -134 0
-277 -376 0
310 272 0
-429 110 0
-439 305 0
-221 167 0
-328 -253 0
250 -372 0
494 100 0
-256 -78 0
-144 -247 0
-79 -201 0
56 287 0
-481 271 0
-485 157 0
461 -209 0
429 -359 0
-288 418 0
-216 -221 0
56 197 0
-58 9 0
55 -85 0
183 179 0
-454 145 0
-365 -124 0
96 118 0
-481 -282 0
-244 391 0
-323 -301 0
113 -378 0
-274 -218 0
182 442 0
-414 43 0
431 -408 0
305 168 0
206 -283 0
-257 -288 0
172 384 0
-434 -495 0
-6 188 0
-173 55 0
-270 495 0
69 367 0
462 339 0
107 356 0
199 31 0
-308 277 0
-258 -237 0
-436 -350 0
203 457 0
229 473 0
75 207 0
-245 45 0
435 -241 0
-362 -304 0
240 13 0
-298 103 0
-403 -430 0
168 -90 0
169 52 0
297 30 0
-19 44 0
254 -368 0
100 -452 0
-385 420 0
-375 -170 0
113 -23 0
135 305 0
-277 72 0
-405 -55 0
-249 203 0
483 -193 0
280 -55 0
-294 -313 0
383 424 0
4 -252 0
-6 -443 0
-194 123 0
-120 309 0
-75 -281 0
-356 -217 0
387 303 0
445 -398 0
411 259 0
203 435 0
47 -190 0
-491 -29 0
403 -217 0
-65 -293 0
-144 17 0
-181 -494 0
-32 466 0
100 -124 0
-41 224 0
299 391 0
-95 -178 0
246 -214 0
280 302 0
-355 -423 0
-404 167 0
445 52 0
238 -212 0
495 -403 0
59 337 0
114 132 0
-457 208 0
-174 -346 0
-215 -174 0
419 423 0
-79 38 0
-474 146 0
-357 -169 0
213 -98 0
-204 470 0
444 427 0
-30 -178 0
491 -484 0
60 71 0
-89 411 0
-287 289 0
47 50 0
-492 150 0
-390 315 0
68 362 0
-396 468 0
-5 352 0
-399 -38 0
359 -429 0
327 -466 0
-397 -95 0
329 105 0
83 368 0
234 -124 0
103 -381 0
40 -372 0
-88 78 0
-470 -88 0
-487 -354 0
-49 -63 0
-365 -396 0
110 -239 0
110 -422 0
165 305 0
24 136 0
55 -315 0
434 445 0
412 370 0
-164 -454 0
445 -118 0
-399 185 0
4 -111 0
483 280 0
367 -399 0
419 -440 0
467 -458 0
185 197 0
-469 -178 0
363 407 0
-279 -300 0
32 283 0
-331 455 0
140 79 0
-238 272 0
-361 -285 0
144 391 0
-220 471 0
-402 354 0
-82 277 0
-240 -217 0
-10 273 0
150 222 0
242 165 0
206 22 0
227 -393 0
-57 -81 0
-300 -71 0
445 69 0
334 -247 0
356 -247 0
-422 435 0
243 -5 0
-408 -27 0
403 -274 0
-217 450 0
485 -199 0
311 316 0
-332 201 0
211 238 0
-491 -247 0
-418 151 0
-398 124 0
-488 93 0
-205 194 0
448 -146 0
-460 404 0
-236 -148 0
-398 -416 0
-239 -451 0
-455 21 0
246 -354 0
-336 477 0
284 -452 0
212 7 0
133 -63 0
-172 302 0
255 -10 0
-364 322 0
-333 -447 0
267 -381 0
-86 219 0
421 125 0
-470 238 0
170 -57 0
-130 142 0
500 259 0
-352 12 0
-181 85 0
295 327 0
-396 -88 0
-229 296 0
102 254 0
24 279 0
312 -95 0
-240 291 0
-363 -441 0
-40 -251 0
-274 259 0
-316 277 0
40 -472 0
463 -334 0
260 32 0
-5 -255 0
-84 177 0
-119 388 0
-19 -85 0
-101 -4 0
-290 353 0
-148 399 0
152 -238 0
335 260 0
401 -276 0
445 47 0
426 -164 0
400 55 0
421 -457 0
387 -180 0
237 143 0
356 -486 0
14 -71 0
86 -133 0
-102 -386 0
-77 7 0
318 382 0
-357 289 0
202 -104 0
392 -34 0
226 -459 0
-304 -484 0
-391 -178 0
53 322 0
448 -36 0
-210 -463 0
-53 445 0
-286 219 0
194 466 0
-488 349 0
143 -471 0
411 -175 0
-137 -129 0
-362 62 0
-391 385 0
417 -295 0
165 -224 0
399 392 0
-493 -125 0
-278 -269 0
-415 359 0
-407 444 0
-489 248 0
254 -111 0
206 38 0
463 1 0
-271 -465 0
1 194 0
287 -476 0
-348 408 0
-155 -471 0
-265 380 0
197 -188 0
138 -210 0
-493 -8 0
-129 -464 0
-356 -76 0
-307 -233 0
132 -118 0
-247 235 0
-207 30 0
-34 40 0
195 -492 0
-199 72 0
-384 110 0
-467 355 0
-175 -79 0
-460 366 0
355 380 0
151 -233 0
-357 -140 0
362 -313 0
-98 -294 0
-443 467 0
-364 439 0
-118 -234 0
102 -386 0
405 195 0
-342 143 0
347 409 0
32 -387 0
463 331 0
-145 -365 0
-251 252 0
-429 388 0
222 -405 0
-273 102 0
84 430 0
-341 449 0
1 -14 0
-175 -149 0
97 69 0
123 190 0
-370 -2 0
35 -341 0
-346 -10 0
-435 -58 0
-27 -164 0
-202 -288 0
-179 231 0
103 55 0
424 143 0
-483 260 0
-148 60 0
-474 -288 0
173 -174 0
267 -95 0
55 -419 0
-343 -396 0
-333 233 0
-437 18 0
-240 149 0
496 -452 0
-201 -153 0
-49 236 0
-267 85 0
448 -29 0
-485 103 0
26 -269 0
-266 143 0
-128 263 0
-264 -92 0
-249 -279 0
-220 379 0
-394 -416 0
-114 -472 0
194 -71 0
-281 -359 0
-296 -276 0
497 -378 0
-149 315 0
108 421 0
68 -152 0
-440 441 0
-7 -378 0
-379 -222 0
-89 284 0
-13 -398 0
170 -415 0
-475 -57 0
323 -443 0
-57 -124 0
381 -199 0
257 -318 0
115 -265 0
-425 9 0
142 144 0
-141 109 0
-395 234 0
-410 456 0
-154 -262 0
-269 -477 0
84 -490 0
-312 -402 0
261 -65 0
-415 24 0
-101 -11 0
-361 230 0
-169 388 0
-389 129 0
186 -108 0
-212 82 0
78 -45 0
-291 -498 0
-37 261 0
205 299 0
185 -262 0
-436 -78 0
-86 13 0
-459 161 0
101 261 0
237 -451 0
-42 -16 0
299 -124 0
-491 13 0
486 410 0
-389 310 0
-131 272 0
-153 -493 0
-249 -114 0
203 -498 0
244 125 0
208 216 0
-225 -56 0
172 12 0
141 187 0
72 94 0
-156 -124 0
-451 -92 0
-401 -25 0
342 -483 0
-338 268 0
143 446 0
393 -312 0
352 127 0
-490 -166 0
-189 393 0
401 108 0
-177 163 0
126 191 0
-437 415 0
-74 419 0
-189 -228 0
75 -36 0
-398 -34 0
459 -221 0
203 -496 0
-95 -403 0
-397 431 0
70 208 0
-253 431 0
-433 -443 0
-45 -371 0
411 -175 0
-215 -74 0
299 498 0
-464 -219 0
21 143 0
-372 448 0
237 448 0
152 -355 0
173 -243 0
-313 228 0
-470 178 0
250 10 0
-101 159 0
496 -114 0
-2 -266 0
-372 -133 0
-317 414 0
471 257 0
56 -292 0
-43 29 0
-174 -339 0
471 195 0
-498 -456 0
-122 -276 0
-270 86 0
275 12 0
335 393 0
-433 328 0
-74 -328 0
-76 -378 0
-419 -249 0
200 -273 0
-112 314 0
411 -97 0
-64 299 0
100 477 0
-188 -233 0
-34 420 0
401 435 0
-12 319 0
-14 -148 0
-164 -41 0
-360 318 0
455 200 0
-425 -37 0
402 -482 0
-74 3 0
99 452 0
72 -458 0
25 150 0
-275 -393 0
68 422 0
-488 128 0
66 -404 0
-105 498 0
92 -184 0
294 -188 0
-145 -262 0
-184 -273 0
138 17 0
-269 52 0
413 393 0
7 406 0
-127 -396 0
152 -206 0
52 -363 0
153 -321 0
-29 -334 0
154 -6 0
474 -176 0
-204 11 0
46 -378 0
411 389 0
60 276 0
237 -119 0
-266 275 0
-137 -174 0
-137 -105 0
123 -388 0
205 299 0
250 448 0
73 334 0
319 45 0
-479 -88 0
-336 -202 0
-3 78 0
206 -466 0
438 68 0
-97 150 0
-14 410 0
163 410 0
45 -188 0
346 109 0
-365 38 0
-6 69 0
181 -364 0
211 -369 0
136 -273 0
-313 19 0
132 241 0
-386 372 0
-358 -424 0
208 -275 0
453 250 0
-418 -253 0
198 113 0
-108 -292 0
-221 -145 0
230 -79 0
459 272 0
-305 -39 0
-435 -338 0
-108 80 0
-32 191 0
194 19 0
-477 -37 0
-28 311 0
390 496 0
316 -369 0
-447 204 0
-311 -254 0
453 -120 0
-32 -234 0
-54 216 0
473 -70 0
-477 -252 0
456 -192 0
-313 56 0
-9 59 0
-223 283 0
383 422 0
-336 211 0
395 420 0
-159 -225 0
-426 -492 0
192 -317 0
-212 80 0
-441 487 0
239 409 0
308 -37 0
-418 160 0
180 -285 0
156 -256 0
107 165 0
126 -358 0
-169 99 0
431 148 0
-321 -152 0
-292 -114 0
-434 -269 0
342 -108 0
-372 -443 0
-470 159 0
-102 86 0
-492 -251 0
289 374 0
-137 -318 0
-201 -376 0
-333 -301 0
-219 415 0
-90 409 0
254 102 0
376 62 0
182 277 0
-49 -249 0
-461 -365 0
-227 -33 0
497 413 0
-395 336 0
-150 -434 0
-230 177 0
-376 50 0
-435 -329 0
-70 436 0
-202 -471 0
487 144 0
-47 -243 0
-252 141 0
125 -124 0
-53 -404 0
-217 161 0
-265 -26 0
-482 388 0
-357 -491 0
-253 478 0
-245 405 0
-27 -226 0
-403 -331 0
-20 -416 0
-49 -232 0
-273 -23 0
-198 -372 0
291 -334 0
301 203 0
-378 366 0
-74 -65 0
94 415 0
-79 -73 0
-104 -408 0
267 -396 0
284 -18 0
-291 280 0
168 334 0
-234 -105 0
120 -354 0
-204 -309 0
46 280 0
107 24 0
-202 -26 0
-234 234 0
-273 30 0
-251 -103 0
-157 -333 0
-323 -63 0
-236 133 0
-264 211 0
-357 21 0
420 -454 0
-64 -82 0
-37 82 0
-300 -6 0
-489 -197 0
-154 178 0
-428 149 0
-139 363 0
-346 331 0
-239 -373 0
-77 194 0
-173 -274 0
-57 -162 0
415 -23 0
450 -210 0
229 61 0
239 495 0
84 -124 0
-308 31 0
-426 56 0
414 -95 0
89 173 0
230 -253 0
-343 213 0
15 -327 0
-467 -372 0
327 -39 0
424 -22 0
444 2 0
404 -435 0
297 335 0
62 319 0
-35 -405 0
373 -79 0
-383 91 0
-230 -412 0
-440 -275 0
-348 283 0
-384 -250 0
452 499 0
48 171 0
-478 292 0
109 -245 0
-236 -192 0
440 412 0
-121 -338 0
85 440 0
59 192 0
119 -3 0
344 -282 0
163 143 0
40 8 0
-346 -136 0
-24 -395 0
257 -19 0
351 497 0
-321 125 0
419 69 0
-179 72 0
-98 -18 0
-466 -26 0
-16 -45 0
236 -73 0
-21 -301 0
174 -414 0
442 12 0
-328 -290 0
200 -443 0
260 451 0
-317 -331 0
304 -175 0
133 -425 0
242 -267 0
-155 -495 0
-17 239 0
200 -421 0
-276 86 0
307 -98 0
352 80 0
117 -191 0
-377 370 0
-5 -63 0
432 -160 0
-348 -122 0
-395 448 0
-10 194 0
333 97 0
463 -210 0
471 468 0
-175 -395 0
315 361 0
-101 -458 0
450 315 0
327 362 0
-105 -81 0
336 -346 0
114 -281 0
417 -178 0
-215 -449 0
-292 434 0
43 47 0
125 -452 0
356 227 0
-71 52 0
-309 -460 0
487 -225 0
-481 271 0
-105 226 0
382 159 0
483 -39 0
-354 -212 0
-254 -460 0
-303 413 0
480 -128 0
-251 392 0
49 -232 0
408 -317 0
-427 33 0
128 45 0
202 -371 0
190 -81 0
287 399 0
-472 97 0
346 -330 0
219 -205 0
148 172 0
417 492 0
325 213 0
157 -262 0
182 -381 0
-415 -355 0
-121 447 0
183 -275 0
271 -250 0
-19 11 0
-303 -47 0
481 267 0
-328 -335 0
211 333 0
-467 407 0
376 431 0
-369 176 0
113 476 0
-221 138 0
-399 -245 0
-449 499 0
-16 -369 0
-343 33 0
-121 46 0
-108 -265 0
391 -289 0
355 410 0
448 -457 0
-481 -16 0
-116 -361 0
386 -378 0
-278 456 0
-139 -269 0
16 -314 0
349 293 0
271 38 0
94 -416 0
-478 -275 0
-460 267 0
4 308 0
-21 -467 0
-313 350 0
-295 38 0
429 226 0
474 -482 0
-488 -104 0
-18 355 0
-151 -416 0
430 -124 0
25 -386 0
-294 -318 0
-83 7 0
205 45 0
-113 140 0
487 449 0
-276 -73 0
499 288 0
-258 -182 0
-75 32 0
-222 -139 0
4 10 0
-360 -288 0
206 380 0
-480 420 0
208 -75 0
128 84 0
-118 163 0
-445 135 0
-65 69 0
-480 -171 0
332 448 0
-488 380 0
393 86 0
275 -377 0
-357 -176 0
406 -20 0
-173 383 0
-371 395 0
-408 210 0
293 476 0
-69 -221 0
-201 -148 0
-76 96 0
466 151 0
-228 -42 0
163 -77 0
-372 325 0
-182 -265 0
-410 144 0
-6 -162 0
-243 44 0
-240 33 0
252 -369 0
350 472 0
224 -437 0
145 56 0
250 284 0
-116 72 0
-108 14 0
7 -497 0
-151 487 0
-353 480 0
383 163 0
262 115 0
267 -59 0
-178 431 0
351 79 0
-323 337 0
-52 -74 0
-194 142 0
-88 -53 0
-417 -436 0
464 -471 0
-95 132 0
197 -414 0
207 -346 0
119 277 0
-403 -346 0
-403 -258 0
203 -162 0
-253 209 0
-221 -111 0
197 392 0
-70 399 0
-240 -149 0
-73 -175 0
38 -128 0
366 -54 0
-15 4 0
306 93 0
-63 202 0
-395 327 0
-98 446 0
56 -16 0
-50 -371 0
-493 -406 0
-447 227 0
257 306 0
377 110 0
