c bounds 121 121 122.77
p cnf 500 700
-447 87 0
-487 -242 0
450 -139 0
172 253 0
-399 -392 0
118 -131 0
-410 -438 0
-141 336 0
-106 219 0
-29 160 0
-85 117 0
-275 -168 0
-97 -111 0
-472 -202 0
54 -277 0
91 57 0
-328 486 0
452 112 0
482 -229 0
157 -427 0
78 -421 0
-148 -315 0
-440 230 0
200 165 0
-224 -161 0
56 -282 0
-191 -205 0
-369 251 0
132 262 0
25 -341 0
47 202 0
206 -150 0
336 37 0
-204 32 0
-470 198 0
-499 -272 0
164 98 0
-109 -109 0
-376 -51 0
-367 118 0
-76 267 0
85 -211 0
-445 167 0
107 300 0
106 -288 0
375 -179 0
-417 308 0
-290 -11 0
-193 -32 0
413 -123 0
-327 495 0
105 184 0
-175 -289 0
452 396 0
-83 -57 0
-306 -214 0
83 -142 0
-312 -415 0
-318 -480 0
-286 475 0
-59 -147 0
232 -310 0
167 -46 0
475 -42 0
-339 -6 0
-415 -154 0
-424 343 0
-445 -168 0
207 -277 0
-103 179 0
144 299 0
-213 484 0
38 -218 0
20 -46 0
-339 -17 0
351 406 0
413 127 0
-380 -478 0
-398 -40 0
274 411 0
-404 144 0
-431 -185 0
-479 183 0
23 442 0
56 -466 0
337 -216 0
-471 -9 0
-380 -399 0
205 -325 0
-2 -467 0
304 -206 0
289 -33 0
-120 -388 0
-266 370 0
-454 -327 0
108 92 0
-496 249 0
-322 428 0
117 -489 0
-468 76 0
94 -125 0
5 -453 0
21 39 0
55 265 0
-279 419 0
214 -394 0
-51 -254 0
-105 -62 0
346 -159 0
-200 -193 0
115 83 0
-17 172 0
442 -136 0
96 -186 0
-109 93 0
324 -161 0
-63 -91 0
492 -437 0
77 -374 0
-282 -256 0
-258 39 0
-275 196 0
-75 176 0
431 -386 0
262 217 0
235 214 0
420 122 0
-227 -402 0
-248 -233 0
406 -342 0
342 230 0
-482 336 0
96 -164 0
-107 239 0
135 409 0
-425 227 0
290 56 0
336 500 0
34 -240 0
99 494 0
-4 186 0
-420 151 0
5 431 0
-112 -172 0
175 -130 0
-17 -259 0
-445 119 0
413 190 0
176 136 0
297 -152 0
-485 500 0
90 431 0
317 -360 0
-59 268 0
-322 214 0
251 -179 0
-305 64 0
-322 -377 0
326 -485 0
475 492 0
-226 -145 0
-5 223 0
385 172 0
-390 219 0
-296 246 0
-121 -325 0
176 -489 0
-125 -251 0
-490 -250 0
394 132 0
337 -218 0
-416 374 0
-320 -282 0
114 -398 0
473 -162 0
-52 151 0
353 475 0
368 114 0
-273 237 0
-460 365 0
390 331 0
299 462 0
-414 -289 0
192 271 0
-168 -153 0
-199 -10 0
-231 -167 0
161 95 0
-445 102 0
-454 -38 0
-33 -16 0
-162 -451 0
150 -100 0
-348 -11 0
-493 -241 0
98 -388 0
347 -212 0
169 -35 0
5 366 0
-208 422 0
484 -26 0
66 384 0
274 375 0
-133 -174 0
63 137 0
-314 478 0
433 256 0
393 -363 0
-211 -362 0
-435 346 0
-470 196 0
-376 -459 0
-299 -162 0
-376 -154 0
336 375 0
-306 471 0
31 -309 0
-384 214 0
358 -36 0
489 -494 0
413 -154 0
-471 147 0
250 311 0
-298 -97 0
303 -10 0
450 175 0
72 -402 0
357 369 0
248 -211 0
-332 284 0
-112 -462 0
-338 -130 0
67 -491 0
-258 -92 0
-100 301 0
99 -433 0
42 97 0
-289 330 0
271 158 0
118 -393 0
-265 -499 0
-174 -121 0
63 -235 0
471 62 0
-356 242 0
90 -70 0
-290 256 0
-42 -112 0
56 84 0
-287 -172 0
256 -281 0
498 215 0
276 -442 0
47 -349 0
-75 37 0
61 -45 0
1 -454 0
359 -254 0
-451 -423 0
108 -62 0
-199 167 0
305 -143 0
-175 -488 0
-14 39 0
-149 220 0
-17 -396 0
126 -136 0
381 -473 0
496 -377 0
-208 165 0
-154 -251 0
-269 -53 0
351 -121 0
27 436 0
246 -242 0
-126 295 0
-259 398 0
356 84 0
238 -393 0
-324 346 0
-105 -424 0
241 -403 0
-496 161 0
-268 353 0
408 407 0
-148 236 0
186 72 0
-10 -192 0
73 -21 0
-23 -28 0
439 256 0
-427 365 0
-367 452 0
80 -216 0
498 -288 0
252 -116 0
452 -434 0
-112 28 0
407 -293 0
-229 -290 0
426 -457 0
-357 -460 0
-493 -224 0
-185 357 0
-231 14 0
215 -2 0
493 -59 0
-372 76 0
-180 -209 0
-297 323 0
391 332 0
394 -182 0
-440 151 0
-101 -327 0
-349 452 0
440 -446 0
495 -45 0
178 -443 0
-356 -315 0
362 -237 0
-298 -351 0
50 158 0
22 -379 0
-447 -168 0
-141 334 0
214 211 0
-410 433 0
-496 415 0
-177 471 0
11 307 0
-470 -436 0
386 383 0
-269 382 0
354 -453 0
-470 -138 0
-355 183 0
138 -491 0
-106 -437 0
-15 -282 0
482 -230 0
441 -204 0
-21 -269 0
181 -238 0
-244 163 0
-76 266 0
140 386 0
-280 -25 0
203 -82 0
-28 -154 0
359 399 0
-232 -380 0
460 -113 0
260 231 0
-448 -292 0
145 -112 0
-288 459 0
-397 -301 0
-354 -199 0
67 455 0
382 84 0
19 -447 0
53 -232 0
32 -347 0
96 -138 0
-51 -120 0
95 -231 0
-443 220 0
31 -461 0
378 -279 0
-485 466 0
-298 155 0
-357 -425 0
-407 -35 0
-224 -28 0
-135 93 0
408 -76 0
-29 156 0
-240 43 0
-26 -182 0
281 -469 0
358 -33 0
-202 466 0
-251 -451 0
-47 -373 0
269 -199 0
-12 476 0
130 407 0
-120 -475 0
-381 382 0
-250 -82 0
-402 -327 0
477 -28 0
-380 -427 0
186 -115 0
-17 -399 0
-382 -255 0
-219 -244 0
-61 343 0
-277 -454 0
432 451 0
-312 408 0
469 -74 0
20 140 0
395 323 0
-40 178 0
-261 -490 0
-450 -4 0
137 -361 0
364 -328 0
-411 3 0
-153 -340 0
-146 -22 0
179 362 0
178 -90 0
4 -154 0
-306 400 0
-139 204 0
219 357 0
425 -231 0
-48 458 0
116 84 0
-85 89 0
-259 -303 0
138 -494 0
-382 366 0
-164 -464 0
-490 -195 0
-435 44 0
310 -392 0
-7 -242 0
354 -63 0
158 343 0
125 -316 0
332 100 0
311 495 0
430 -320 0
-334 -376 0
495 -24 0
311 -16 0
307 -87 0
55 -209 0
387 -318 0
332 141 0
-201 465 0
-259 5 0
-393 287 0
-154 17 0
461 -196 0
236 -146 0
-60 363 0
260 -232 0
146 102 0
368 -490 0
264 202 0
500 490 0
59 137 0
-85 -32 0
183 194 0
-3 -459 0
-93 178 0
166 142 0
-134 264 0
11 17 0
140 -387 0
407 -478 0
300 83 0
-124 -317 0
-345 495 0
-49 -367 0
253 -464 0
138 243 0
-38 32 0
-146 -397 0
93 -209 0
-496 403 0
-82 -335 0
132 159 0
-364 328 0
-448 219 0
212 223 0
331 -176 0
-63 -259 0
-353 -103 0
219 108 0
-324 381 0
111 -319 0
-449 486 0
82 307 0
-275 -385 0
-428 -95 0
304 -425 0
-171 -423 0
-306 161 0
-179 -270 0
442 176 0
-207 -293 0
175 318 0
-76 -496 0
-134 -243 0
-404 -78 0
-440 249 0
-192 418 0
102 73 0
-419 183 0
-371 27 0
-90 309 0
-362 272 0
85 -470 0
-207 -366 0
-32 285 0
171 74 0
-40 -159 0
-475 -124 0
429 434 0
214 448 0
-426 -96 0
-224 -144 0
362 323 0
-495 -181 0
458 63 0
-425 7 0
-407 -159 0
-306 34 0
-373 -385 0
105 -364 0
206 271 0
-180 408 0
491 -193 0
-350 397 0
-320 -421 0
-51 -150 0
-125 167 0
-387 290 0
-474 -339 0
80 363 0
193 -225 0
-346 -124 0
-135 123 0
30 20 0
-485 -373 0
187 22 0
-299 300 0
-193 -406 0
-48 6 0
-363 54 0
162 -414 0
238 49 0
-451 131 0
497 -467 0
-499 143 0
-33 -358 0
-39 160 0
352 -406 0
381 -79 0
-143 -199 0
-149 -28 0
-404 266 0
-120 410 0
-283 27 0
-233 -218 0
-40 432 0
137 -53 0
296 165 0
-312 413 0
-60 395 0
-337 359 0
-267 403 0
304 403 0
-18 -231 0
300 -111 0
-307 -210 0
-107 254 0
126 -73 0
34 -16 0
-323 242 0
273 202 0
458 318 0
109 253 0
202 412 0
-315 160 0
-273 -310 0
11 -191 0
102 -477 0
-87 482 0
-464 83 0
-360 -376 0
55 -360 0
-231 -21 0
-467 -129 0
431 387 0
366 77 0
-257 -206 0
-153 -225 0
-107 -379 0
-198 -43 0
-473 288 0
-185 -293 0
-189 354 0
-405 -487 0
-52 -212 0
248 62 0
368 -259 0
478 -154 0
-141 459 0
363 -299 0
-177 354 0
-145 166 0
-454 166 0
144 189 0
4 -76 0
239 381 0
428 -89 0
-140 -142 0
-159 302 0
111 62 0
400 304 0
411 -145 0
-146 -140 0
-438 164 0
-324 -47 0
265 -174 0
-325 -487 0
482 408 0
281 -257 0
-387 -329 0
91 278 0
-436 358 0
498 -66 0
-169 -30 0
-224 496 0
284 157 0
-194 236 0
386 317 0
449 -282 0
-347 138 0
-474 -293 0
-393 -255 0
-254 274 0
-288 -381 0
56 67 0
-349 18 0
-139 258 0
-282 434 0
497 108 0
173 137 0
58 -94 0
37 156 0
-180 393 0
-388 46 0
-428 462 0
158 -392 0
-488 -470 0
416 66 0
-172 -192 0
-123 -161 0
-363 324 0
-379 354 0
-167 122 0
-471 -74 0
275 206 0
430 70 0
252 -299 0
-278 9 0
-314 314 0
413 -477 0
76 -47 0
-294 -309 0
-167 -327 0
-472 394 0
66 -348 0
-7 -435 0
-135 40 0
-155 -242 0
-430 85 0
406 22 0
-429 420 0
-210 222 0
-292 108 0
-129 -129 0
-104 -1 0
488 -428 0
429 -338 0
283 72 0
383 8 0
274 331 0
53 332 0
223 -500 0
355 163 0
306 276 0
-339 344 0
-388 -473 0
168 -474 0
345 -393 0
-88 116 0
464 167 0
45 -490 0
79 194 0
165 -351 0
-278 285 0
-270 378 0
