c bounds 35 35
p cnf 100 130
75 54 0
98 47 0
39 25 0
66 26 0
31 -71 0
-50 56 0
-71 -90 0
-85 -68 0
-5 -40 0
19 7 0
38 -77 0
-57 29 0
84 28 0
41 36 0
40 84 0
80 -89 0
84 56 0
-68 -5 0
-67 20 0
-8 -2 0
78 -69 0
45 -42 0
60 -79 0
-65 -74 0
-65 -93 0
-63 82 0
44 -97 0
-57 -37 0
-42 -29 0
1 39 0
-45 85 0
9 43 0
-20 -63 0
-37 64 0
-86 7 0
-62 -30 0
-71 -8 0
95 26 0
19 -86 0
20 -30 0
89 91 0
16 -16 0
5 43 0
91 39 0
33 7 0
-36 98 0
-59 -95 0
-68 -34 0
-97 58 0
2 85 0
84 -52 0
-21 3 0
-42 76 0
93 95 0
88 82 0
-30 -25 0
-8 -10 0
63 -82 0
22 60 0
20 77 0
-44 -24 0
84 -29 0
61 61 0
-60 13 0
-86 -43 0
-20 36 0
-81 66 0
-22 74 0
-93 47 0
-55 1 0
8 80 0
88 -96 0
76 -57 0
-66 76 0
52 -53 0
-65 -13 0
-90 23 0
87 96 0
-29 -71 0
28 49 0
81 45 0
1 -35 0
-26 -33 0
41 98 0
-65 -86 0
20 -90 0
22 -37 0
8 -58 0
38 72 0
65 81 0
75 -86 0
-64 -53 0
80 -95 0
-67 81 0
-53 33 0
-91 -64 0
-30 26 0
87 -14 0
-11 2 0
17 -11 0
1 -79 0
-7 17 0
56 43 0
-70 -87 0
66 -53 0
-70 26 0
95 -19 0
36 -97 0
76 -79 0
34 80 0
95 78 0
-86 -84 0
49 66 0
-46 -28 0
-8 7 0
74 -82 0
89 -64 0
86 85 0
-11 92 0
-30 17 0
-40 55 0
-62 -79 0
-79 -54 0
-65 19 0
85 -78 0
-98 -63 0
17 -73 0
55 -71 0
99 -45 0
12 -35 0
