c bounds 24 24
p cnf 190 513
-84 54 0
-16 86 0
149 -43 0
-154 -185 0
-143 -88 0
66 107 0
54 -12 0
-167 -91 0
129 -69 0
-100 89 0
-148 -5 0
149 131 0
60 -69 0
135 -189 0
-144 -86 0
-146 183 0
-75 106 0
147 132 0
-121 -62 0
-190 101 0
-143 -9 0
142 133 0
-53 168 0
-146 98 0
-156 -167 0
152 164 0
-110 -133 0
41 183 0
-181 172 0
41 -119 0
101 59 0
106 137 0
170 175 0
120 -56 0
110 117 0
-96 -77 0
152 78 0
-34 -50 0
-98 112 0
14 129 0
147 141 0
39 -29 0
-26 11 0
-80 78 0
40 21 0
-112 33 0
41 71 0
181 29 0
29 100 0
134 142 0
182 -113 0
-94 -75 0
-119 103 0
-24 59 0
-25 -104 0
104 -7 0
121 86 0
15 161 0
-105 -151 0
11 56 0
7 -114 0
-117 -174 0
-62 -101 0
-185 118 0
-76 -158 0
178 -94 0
-62 186 0
166 143 0
120 140 0
97 -85 0
-57 -9 0
-106 -137 0
-22 93 0
134 114 0
83 172 0
156 170 0
90 -22 0
137 139 0
-106 141 0
141 64 0
-35 133 0
-43 14 0
-68 -32 0
7 -165 0
33 -85 0
-35 97 0
112 48 0
-84 -70 0
21 -173 0
22 4 0
-189 -186 0
-68 -47 0
15 29 0
-1 -6 0
156 -84 0
-99 36 0
-38 93 0
-88 -8 0
59 142 0
-73 -25 0
-103 -133 0
145 -36 0
47 51 0
110 90 0
73 -93 0
-8 -168 0
-25 -137 0
13 96 0
-84 86 0
-106 117 0
-35 -66 0
-17 21 0
-38 -86 0
112 168 0
-138 26 0
42 -173 0
-24 -32 0
142 87 0
-62 -5 0
-106 122 0
170 112 0
126 149 0
-49 112 0
122 138 0
55 31 0
-8 61 0
-50 -69 0
100 -9 0
-64 121 0
58 118 0
178 -36 0
45 -29 0
-18 -5 0
-128 -46 0
-111 104 0
-42 -88 0
-101 13 0
165 21 0
-40 -62 0
51 -142 0
141 104 0
140 18 0
170 -186 0
36 112 0
70 -48 0
-89 -34 0
-68 -7 0
-35 51 0
152 -108 0
100 -68 0
90 109 0
-27 -64 0
11 -25 0
143 -151 0
-110 125 0
5 95 0
-142 -171 0
55 -65 0
-150 -174 0
-20 12 0
124 -15 0
-107 42 0
-69 -36 0
-6 69 0
-148 -117 0
-2 77 0
-167 -33 0
177 3 0
-164 -80 0
45 -189 0
-63 178 0
158 -181 0
127 -61 0
-72 154 0
-87 -181 0
37 80 0
15 48 0
-80 -39 0
116 -99 0
129 -101 0
-53 -125 0
-180 42 0
153 161 0
11 129 0
-111 -22 0
-129 175 0
102 174 0
-148 -11 0
1 39 0
83 95 0
138 -17 0
-50 157 0
-106 159 0
-106 97 0
-98 142 0
162 -174 0
180 41 0
-189 151 0
-80 -134 0
111 168 0
59 156 0
168 19 0
157 161 0
-150 86 0
179 -6 0
-169 -102 0
104 29 0
11 -115 0
-14 73 0
-167 -5 0
-128 -139 0
-147 139 0
-115 141 0
-127 41 0
7 -35 0
-16 137 0
-88 55 0
26 71 0
50 150 0
-40 124 0
78 -177 0
-115 101 0
130 -153 0
-92 169 0
123 -188 0
-144 -53 0
153 -167 0
119 -76 0
-57 157 0
-64 177 0
-25 29 0
-178 -181 0
55 -6 0
-32 155 0
131 -146 0
107 74 0
37 103 0
176 -51 0
-174 -39 0
26 190 0
-10 -185 0
128 -91 0
43 170 0
34 -84 0
190 175 0
-5 -43 0
41 157 0
46 60 0
-123 168 0
50 106 0
-159 142 0
25 63 0
-144 -92 0
-14 113 0
161 -116 0
113 -6 0
-9 38 0
-48 29 0
136 -108 0
137 56 0
-2 -178 0
-8 -53 0
-190 -52 0
98 17 0
39 42 0
-167 44 0
120 79 0
132 44 0
115 -80 0
-148 -160 0
182 64 0
124 -136 0
97 -108 0
-37 -91 0
120 -76 0
-65 144 0
-82 99 0
-62 117 0
63 -148 0
46 85 0
-189 4 0
-188 164 0
-144 -169 0
-182 -158 0
-24 104 0
-133 138 0
-108 65 0
17 115 0
-167 -42 0
6 7 0
-85 153 0
-115 -42 0
21 187 0
-69 -1 0
-57 -27 0
34 -111 0
-15 -57 0
30 -184 0
60 145 0
179 -85 0
-82 -88 0
-134 26 0
28 179 0
-47 -179 0
-108 29 0
162 89 0
-164 -8 0
-80 -34 0
121 168 0
-76 -85 0
54 -168 0
-35 40 0
149 145 0
-49 -183 0
-186 160 0
-107 27 0
11 -156 0
-164 4 0
183 -2 0
50 -24 0
-113 -148 0
97 -171 0
-98 36 0
-128 149 0
-68 175 0
121 -101 0
-68 124 0
-127 44 0
-106 -140 0
-91 -79 0
122 81 0
149 -138 0
16 146 0
-82 -5 0
93 96 0
98 -68 0
77 -158 0
52 -41 0
167 -25 0
41 20 0
-65 66 0
-58 177 0
98 17 0
-173 -143 0
122 154 0
-8 94 0
-185 145 0
90 -108 0
-35 -18 0
159 -119 0
-56 179 0
170 26 0
-146 -38 0
153 -52 0
-1 80 0
-92 -15 0
164 -129 0
-24 188 0
140 46 0
143 -4 0
-22 171 0
-2 89 0
-156 -107 0
114 -102 0
46 40 0
-6 76 0
70 60 0
-189 -159 0
52 63 0
129 -115 0
-101 83 0
99 37 0
-165 170 0
104 72 0
90 -159 0
127 102 0
-185 158 0
54 -8 0
-75 163 0
100 60 0
-99 177 0
129 161 0
156 -43 0
-22 138 0
-135 -81 0
-100 122 0
-103 -170 0
33 -108 0
-147 108 0
63 155 0
-8 128 0
-44 39 0
157 -28 0
-144 29 0
73 -175 0
-69 161 0
-94 -13 0
178 71 0
52 58 0
-127 30 0
140 100 0
-64 112 0
97 41 0
44 -187 0
-2 -140 0
-169 133 0
-188 -46 0
45 -174 0
137 -171 0
-180 156 0
-12 -43 0
176 15 0
-24 -19 0
96 -167 0
50 29 0
-92 149 0
89 90 0
120 47 0
71 -166 0
121 27 0
140 -15 0
121 149 0
88 7 0
50 168 0
15 126 0
-171 -147 0
149 -78 0
36 -91 0
182 137 0
117 -72 0
96 -18 0
-76 170 0
40 -187 0
168 -159 0
90 166 0
7 32 0
123 160 0
-50 -14 0
-25 95 0
41 -65 0
140 -105 0
-68 -48 0
-26 10 0
-190 44 0
-190 -72 0
97 -110 0
175 -167 0
86 143 0
-150 11 0
179 -91 0
83 -32 0
-40 -173 0
50 -138 0
-121 -49 0
-49 151 0
113 -62 0
180 131 0
138 -157 0
-159 34 0
148 83 0
-143 -80 0
15 -187 0
131 -127 0
-38 -60 0
3 71 0
184 176 0
-126 143 0
82 153 0
-185 -73 0
-151 7 0
75 -187 0
11 139 0
-46 186 0
151 -169 0
77 -38 0
-101 -22 0
-2 65 0
157 165 0
4 96 0
-12 180 0
118 -155 0
7 -18 0
-68 -180 0
-153 166 0
37 -25 0
-174 62 0
-48 -92 0
37 109 0
-50 7 0
99 -151 0
89 -95 0
-37 -49 0
-41 -12 0
-189 -13 0
87 120 0
120 162 0
-92 -162 0
126 144 0
56 114 0
-53 -54 0
178 -149 0
-189 -29 0
130 6 0
59 -75 0
122 60 0
31 102 0
-185 -103 0
-149 21 0
-73 46 0
-171 14 0
-126 -18 0
176 30 0
-135 -117 0
