c bounds 140 216
p cnf 1000 1800
-259 -209 0
241 -978 0
-277 987 0
-230 804 0
204 -71 0
662 -625 0
940 597 0
-464 -235 0
-423 -428 0
467 838 0
310 43 0
-711 -795 0
544 482 0
-539 -255 0
-338 207 0
790 577 0
832 109 0
506 727 0
660 800 0
-675 -952 0
99 -868 0
-749 -324 0
626 -699 0
-13 -371 0
419 838 0
-138 -660 0
215 887 0
-892 498 0
-775 322 0
286 -470 0
257 693 0
959 -638 0
-273 -488 0
529 758 0
-195 -248 0
-722 -852 0
-752 447 0
-371 -37 0
78 -973 0
456 -14 0
518 -445 0
-549 325 0
-17 460 0
-592 704 0
-723 367 0
719 185 0
-422 -113 0
-962 128 0
361 837 0
-16 -271 0
-975 -672 0
-732 -30 0
-343 701 0
176 863 0
755 98 0
284 -51 0
349 404 0
-88 -339 0
420 281 0
-799 908 0
982 798 0
396 44 0
-778 -367 0
-200 799 0
718 -356 0
-253 497 0
-681 658 0
790 6 0
429 755 0
635 309 0
179 -329 0
726 755 0
501 -212 0
82 -683 0
567 -548 0
899 505 0
-469 -528 0
696 475 0
-483 -765 0
-995 -739 0
-918 -21 0
332 338 0
-138 -417 0
380 788 0
908 -789 0
-778 -937 0
362 75 0
-632 456 0
-700 -419 0
190 133 0
-655 -992 0
257 -93 0
-934 -252 0
-133 479 0
760 -119 0
-277 -992 0
-453 306 0
-457 -455 0
-476 421 0
562 475 0
147 -922 0
877 229 0
-423 283 0
-840 -888 0
456 -621 0
-910 889 0
130 587 0
-317 -19 0
-175 683 0
-780 133 0
140 -831 0
-674 -565 0
-436 708 0
372 -330 0
743 673 0
813 -342 0
325 -752 0
654 897 0
207 488 0
572 -380 0
-51 669 0
-334 -484 0
749 27 0
301 96 0
84 310 0
302 748 0
385 -734 0
984 -173 0
-362 -573 0
-187 622 0
85 -440 0
-367 -156 0
-336 34 0
-524 -922 0
671 -113 0
-990 380 0
-29 528 0
-763 -234 0
-762 -58 0
-966 111 0
368 792 0
-870 -611 0
-601 -652 0
-446 158 0
-929 690 0
-997 25 0
147 420 0
-179 368 0
68 727 0
287 293 0
-686 -116 0
-9 959 0
-570 -139 0
-758 225 0
855 -753 0
-985 954 0
-139 483 0
-339 -620 0
297 -658 0
819 711 0
-101 -948 0
-962 810 0
-258 -960 0
-78 -839 0
-7 439 0
309 477 0
915 862 0
-77 -619 0
748 -90 0
-836 -981 0
-455 -928 0
-741 243 0
841 112 0
-705 -518 0
-236 312 0
-400 96 0
-942 343 0
-590 -222 0
-963 -670 0
-239 -371 0
-408 97 0
936 -108 0
-956 32 0
-828 220 0
445 409 0
270 -749 0
525 -780 0
126 564 0
253 -852 0
-313 -572 0
-655 557 0
493 -815 0
-940 -554 0
743 979 0
-121 364 0
149 667 0
-883 837 0
266 -3 0
-290 817 0
-53 -728 0
-302 59 0
-624 -476 0
-455 -762 0
41 -567 0
-427 707 0
334 -869 0
-723 298 0
190 927 0
-810 925 0
961 239 0
-775 940 0
213 730 0
709 999 0
-973 -462 0
-177 -250 0
122 -104 0
-272 -530 0
102 -363 0
-924 770 0
-113 -401 0
214 -94 0
-948 947 0
684 -625 0
317 -13 0
727 250 0
-227 139 0
-741 297 0
809 767 0
310 -743 0
906 -996 0
-101 -328 0
782 540 0
777 -328 0
-40 -100 0
48 710 0
789 128 0
-796 629 0
187 -946 0
-826 794 0
-415 -472 0
-612 -884 0
736 -589 0
724 -824 0
419 269 0
450 -265 0
179 -386 0
-343 -916 0
-355 -487 0
-469 -438 0
-606 850 0
886 -511 0
-466 455 0
512 130 0
-148 -307 0
-746 82 0
-1 160 0
271 44 0
148 -452 0
-513 -660 0
305 720 0
689 849 0
-71 749 0
-684 624 0
-781 -463 0
651 20 0
-828 766 0
-941 -254 0
-441 73 0
839 911 0
987 599 0
-614 864 0
-731 861 0
-272 -282 0
591 -715 0
-291 691 0
-661 821 0
844 -502 0
-544 773 0
-203 526 0
-710 -205 0
-267 -9 0
-528 960 0
452 685 0
783 -586 0
-559 -533 0
-717 999 0
284 -924 0
340 -968 0
829 -780 0
245 770 0
-51 106 0
-925 -491 0
-995 -225 0
-942 -415 0
-536 861 0
552 565 0
-549 760 0
-371 -315 0
509 -515 0
-741 -930 0
351 256 0
133 -828 0
-805 -298 0
602 -800 0
236 306 0
643 747 0
516 -40 0
-660 196 0
493 889 0
862 346 0
-362 -116 0
61 -8 0
132 -749 0
98 -135 0
-400 -247 0
79 -922 0
276 -608 0
-389 -756 0
-469 165 0
-389 -381 0
978 11 0
-962 -723 0
392 320 0
720 149 0
-411 -410 0
-855 751 0
895 -223 0
-425 375 0
501 23 0
-775 880 0
440 -716 0
678 -425 0
-192 -169 0
-52 984 0
513 420 0
-707 -978 0
-143 -467 0
388 839 0
483 538 0
-853 824 0
-879 -402 0
-741 -657 0
377 -944 0
644 -569 0
-900 -123 0
518 -633 0
-930 558 0
-111 -260 0
52 547 0
-797 167 0
-66 771 0
225 -511 0
106 -596 0
-304 -626 0
147 748 0
259 -197 0
-431 779 0
980 -438 0
-964 -259 0
618 85 0
250 814 0
935 484 0
-404 430 0
-629 -770 0
629 -814 0
203 771 0
-121 -95 0
813 -485 0
-879 368 0
-350 635 0
439 724 0
-333 44 0
-351 -548 0
-628 -534 0
622 -486 0
-311 -760 0
130 519 0
-688 -485 0
733 407 0
-374 823 0
899 -197 0
386 -92 0
550 -324 0
-722 698 0
998 270 0
-119 -399 0
526 -829 0
-980 954 0
-467 229 0
-108 106 0
-432 98 0
-694 115 0
-754 -856 0
761 119 0
697 881 0
933 -77 0
519 396 0
388 900 0
607 694 0
-707 527 0
700 -88 0
-983 4 0
-648 -117 0
-570 637 0
-604 -752 0
-792 -739 0
125 -467 0
-679 278 0
-927 97 0
-831 -980 0
340 -970 0
-220 220 0
744 370 0
300 -466 0
915 -721 0
-173 -679 0
318 606 0
836 -711 0
434 -322 0
-283 -76 0
-166 767 0
-826 -363 0
-709 -139 0
243 -154 0
11 -554 0
-275 -403 0
-652 50 0
964 715 0
83 -253 0
-691 -750 0
-231 -1 0
317 510 0
-353 361 0
545 -372 0
-600 720 0
973 -644 0
-785 -693 0
923 800 0
603 226 0
85 900 0
-761 -628 0
-981 619 0
174 -829 0
-780 -267 0
507 -649 0
355 -873 0
-440 646 0
-576 439 0
-301 358 0
178 321 0
852 240 0
989 -772 0
185 821 0
696 -150 0
-350 64 0
402 812 0
-883 -194 0
-204 -268 0
-699 -855 0
882 152 0
-128 171 0
702 -960 0
687 -219 0
-918 -500 0
801 -85 0
-182 -314 0
839 294 0
31 -937 0
837 -452 0
619 -603 0
128 -253 0
601 687 0
-331 106 0
431 -506 0
-310 -548 0
801 114 0
662 -403 0
-819 823 0
-486 991 0
-542 991 0
-2 69 0
378 -799 0
823 -798 0
741 478 0
-129 569 0
-383 -326 0
-353 277 0
-203 -692 0
408 914 0
799 375 0
651 870 0
747 721 0
-563 400 0
917 971 0
344 -934 0
4 163 0
820 -254 0
685 -339 0
-342 888 0
621 574 0
677 60 0
-449 -461 0
-81 -901 0
154 -333 0
-709 426 0
-966 -804 0
849 44 0
-968 901 0
-49 541 0
-442 -990 0
-826 161 0
-456 -244 0
-995 -858 0
778 412 0
535 907 0
-13 772 0
-317 -616 0
-222 398 0
-59 -448 0
747 924 0
690 -428 0
822 -774 0
-107 -95 0
-776 882 0
-781 -929 0
-86 -22 0
757 274 0
989 499 0
-819 310 0
748 -90 0
714 629 0
17 673 0
224 -772 0
-162 -962 0
779 -237 0
360 -75 0
909 -194 0
105 794 0
619 591 0
954 -890 0
612 347 0
-953 -849 0
-491 -547 0
-372 -438 0
243 147 0
357 838 0
-209 334 0
-33 -484 0
223 -330 0
-826 733 0
557 -647 0
-250 -268 0
-812 979 0
802 939 0
-118 -762 0
657 340 0
733 -403 0
57 -759 0
-632 372 0
124 752 0
-938 274 0
323 818 0
731 621 0
-311 -305 0
822 -909 0
721 372 0
-489 -933 0
-78 -186 0
47 -311 0
622 -50 0
437 991 0
-338 -118 0
565 558 0
-26 -548 0
-496 -94 0
-469 -276 0
-428 -961 0
-631 534 0
-538 153 0
744 372 0
591 46 0
-1 -843 0
923 -386 0
-685 645 0
169 -92 0
126 32 0
361 936 0
353 -414 0
44 759 0
712 -761 0
-21 545 0
-452 -958 0
-235 -746 0
980 -264 0
-186 582 0
-946 474 0
-750 -399 0
970 -13 0
147 888 0
438 -186 0
-235 61 0
809 404 0
14 -994 0
202 -240 0
53 -415 0
-496 -768 0
-159 -997 0
967 -247 0
-965 962 0
-854 449 0
-719 -976 0
-642 -458 0
-433 -464 0
695 776 0
-344 -321 0
-587 -682 0
444 -367 0
-253 -397 0
-126 -341 0
116 618 0
382 831 0
-808 -942 0
17 154 0
-307 -349 0
-4 492 0
-130 96 0
633 785 0
-582 211 0
796 -78 0
-693 -550 0
-803 -803 0
839 502 0
800 -130 0
-118 643 0
404 -96 0
407 207 0
862 144 0
478 -312 0
878 -759 0
908 -929 0
-812 24 0
501 230 0
-138 375 0
951 -699 0
545 56 0
-879 -641 0
-944 936 0
-231 -439 0
-632 247 0
374 504 0
236 480 0
-618 553 0
374 536 0
958 909 0
-870 860 0
519 -891 0
153 232 0
660 -660 0
-835 488 0
221 277 0
711 -906 0
-835 -15 0
365 -29 0
633 -218 0
-448 -95 0
683 -416 0
953 304 0
-714 425 0
-39 842 0
510 -791 0
841 419 0
-959 889 0
632 -660 0
480 169 0
285 393 0
564 -920 0
249 48 0
545 -316 0
98 568 0
906 23 0
603 269 0
546 -958 0
94 -77 0
-56 -532 0
-742 85 0
-765 -737 0
261 -421 0
-66 972 0
-568 -283 0
-943 -343 0
470 692 0
-130 -534 0
-44 107 0
28 -423 0
201 -395 0
917 159 0
-166 936 0
720 535 0
294 -454 0
69 945 0
745 -105 0
317 -596 0
511 -614 0
-135 -998 0
970 -253 0
742 69 0
-257 -710 0
243 -182 0
527 31 0
460 -756 0
-640 -599 0
572 -288 0
261 -202 0
921 572 0
-324 707 0
605 750 0
-972 935 0
-206 906 0
87 83 0
-431 -795 0
240 580 0
547 316 0
-614 557 0
76 226 0
199 -835 0
556 153 0
742 635 0
-963 -487 0
554 915 0
278 -736 0
-417 603 0
356 -608 0
-181 402 0
-208 73 0
334 -602 0
-329 645 0
960 -977 0
106 -289 0
806 262 0
-66 -337 0
318 532 0
91 -927 0
997 -458 0
-624 778 0
-485 -2 0
-976 840 0
-729 874 0
69 -322 0
-946 -244 0
63 -266 0
-924 187 0
63 -622 0
83 -486 0
731 481 0
689 -570 0
301 450 0
609 85 0
583 221 0
579 -319 0
684 898 0
-638 -874 0
112 907 0
215 39 0
837 188 0
745 280 0
-932 573 0
833 919 0
261 -61 0
920 -778 0
910 844 0
834 -542 0
-775 -640 0
-826 449 0
887 511 0
400 724 0
19 -94 0
-835 -187 0
-352 354 0
-78 -873 0
333 60 0
-177 886 0
796 -735 0
522 -304 0
5 -781 0
-389 325 0
796 56 0
-774 539 0
34 119 0
356 639 0
-145 -672 0
954 439 0
-649 -382 0
233 -91 0
393 -311 0
538 925 0
-772 154 0
-365 818 0
-298 -693 0
207 -836 0
-234 602 0
192 598 0
511 -735 0
-525 -590 0
598 155 0
114 -672 0
-925 809 0
-618 -784 0
-966 12 0
48 -92 0
-676 -926 0
666 149 0
592 -176 0
-343 -208 0
108 986 0
-784 468 0
693 -795 0
-942 901 0
895 243 0
266 766 0
-715 712 0
-139 -219 0
-843 -559 0
764 -433 0
38 -153 0
483 -210 0
777 -418 0
414 107 0
153 36 0
422 -644 0
-556 60 0
568 -990 0
-191 847 0
940 -630 0
608 39 0
502 -504 0
97 969 0
-474 917 0
-10 -864 0
174 -728 0
724 134 0
230 -386 0
-15 -606 0
243 -629 0
200 573 0
636 -342 0
-113 -628 0
843 337 0
96 633 0
10 327 0
-484 620 0
409 -206 0
487 848 0
-833 -566 0
682 355 0
947 461 0
192 -311 0
-706 -459 0
250 -244 0
-180 877 0
498 -319 0
18 284 0
-563 69 0
813 635 0
-90 -930 0
-717 -35 0
374 -951 0
-512 848 0
861 -264 0
675 886 0
898 -555 0
999 -581 0
-395 -949 0
854 889 0
604 -974 0
634 285 0
-405 -613 0
532 62 0
315 -470 0
-85 -846 0
-710 636 0
-471 -328 0
-452 522 0
961 527 0
139 -948 0
240 -981 0
-399 336 0
-228 -719 0
-755 591 0
-209 -85 0
777 -245 0
-955 241 0
-718 -470 0
771 376 0
-903 346 0
906 988 0
59 -849 0
-410 -795 0
512 -193 0
736 323 0
562 185 0
-993 -523 0
-423 -637 0
-631 -363 0
331 506 0
637 -962 0
-522 825 0
-657 -349 0
768 455 0
-565 -436 0
-609 532 0
-974 636 0
-934 748 0
346 -12 0
727 -406 0
-508 -980 0
527 -440 0
109 -330 0
147 976 0
446 144 0
118 73 0
822 -387 0
926 -125 0
-927 940 0
287 -176 0
540 895 0
-743 47 0
562 -121 0
751 534 0
418 -663 0
144 -647 0
241 -928 0
69 55 0
316 -127 0
539 -218 0
-778 318 0
907 10 0
-514 187 0
-255 320 0
-706 -440 0
38 -231 0
394 -595 0
-258 -171 0
324 412 0
-367 25 0
636 -145 0
-331 841 0
525 144 0
435 -343 0
-192 -126 0
8 725 0
-914 801 0
-451 -606 0
-487 518 0
-258 -494 0
546 591 0
907 451 0
-118 -688 0
485 -762 0
-701 211 0
-980 -783 0
-695 472 0
-536 -441 0
-408 640 0
587 813 0
580 -938 0
-389 -384 0
53 -16 0
163 -132 0
378 -328 0
682 -215 0
503 -15 0
298 718 0
-405 -386 0
911 774 0
-985 -448 0
-756 700 0
354 -185 0
155 402 0
-998 -133 0
-13 976 0
-829 -831 0
-717 -241 0
415 -191 0
-749 658 0
387 -268 0
257 -846 0
925 -296 0
-54 55 0
859 -433 0
-569 734 0
-823 890 0
171 365 0
946 271 0
-605 404 0
776 -396 0
-406 -840 0
160 -89 0
-896 -81 0
491 -342 0
-615 -451 0
-944 359 0
546 878 0
816 -866 0
-324 663 0
-218 320 0
20 -30 0
298 -323 0
560 4 0
83 -856 0
744 -104 0
-22 -465 0
-353 795 0
-452 -95 0
-691 -341 0
882 563 0
-251 751 0
971 293 0
-636 747 0
248 -363 0
355 722 0
-88 -569 0
917 -456 0
994 830 0
-173 348 0
698 -811 0
725 175 0
-884 -549 0
-930 322 0
478 -952 0
531 532 0
-180 940 0
-410 -19 0
-268 352 0
224 -931 0
-592 -442 0
-531 -519 0
-691 929 0
-542 894 0
185 -71 0
-384 -931 0
-508 -959 0
-868 580 0
-930 -214 0
-56 -641 0
640 -535 0
-903 552 0
164 -372 0
894 -3 0
900 96 0
-845 -516 0
225 34 0
-363 41 0
-599 -554 0
939 -577 0
213 498 0
-168 -680 0
552 -635 0
162 -395 0
358 -702 0
-536 -572 0
-440 6 0
846 972 0
-847 229 0
-967 445 0
810 -846 0
146 -762 0
-255 -391 0
312 -416 0
369 598 0
329 -927 0
751 388 0
-491 -427 0
971 -735 0
768 972 0
-953 766 0
4 -991 0
-870 -8 0
-181 -823 0
125 -962 0
-413 230 0
182 -380 0
236 -76 0
-869 674 0
-929 -661 0
-593 609 0
464 -785 0
674 -185 0
518 404 0
269 -918 0
-303 624 0
98 425 0
-676 -663 0
-968 86 0
889 -585 0
86 -491 0
513 646 0
336 284 0
636 -628 0
-556 185 0
-941 -251 0
901 -476 0
403 -590 0
-732 -634 0
960 -92 0
547 764 0
-312 477 0
-532 249 0
880 664 0
-995 208 0
-223 -441 0
46 -839 0
-189 187 0
970 -539 0
48 -701 0
-102 516 0
618 161 0
-394 232 0
-50 465 0
-36 297 0
557 -824 0
678 141 0
-737 -403 0
12 87 0
-421 805 0
-225 745 0
190 -540 0
645 -461 0
-371 412 0
-126 808 0
-231 -885 0
-335 -194 0
863 766 0
-184 -300 0
-761 697 0
-22 -260 0
-873 323 0
535 -84 0
361 -804 0
-103 -214 0
946 646 0
279 -234 0
283 910 0
-529 538 0
424 -97 0
-331 986 0
-341 574 0
-29 37 0
-529 -137 0
91 -531 0
771 -995 0
-125 -575 0
-838 -491 0
534 829 0
159 251 0
-941 660 0
860 484 0
-834 87 0
773 849 0
309 -351 0
510 -561 0
-97 386 0
630 -856 0
-919 637 0
-504 163 0
-973 -772 0
65 689 0
-94 -241 0
352 498 0
798 8 0
-417 -926 0
-659 -708 0
-316 644 0
-898 -325 0
340 -300 0
450 238 0
-696 -386 0
210 -265 0
210 -233 0
-882 -695 0
861 609 0
281 -714 0
-314 962 0
720 100 0
880 497 0
-76 533 0
166 400 0
-894 987 0
-906 -763 0
-682 -399 0
-568 -813 0
857 -31 0
-300 -235 0
-456 519 0
833 338 0
-14 361 0
-584 -152 0
-568 -18 0
-210 109 0
16 -1 0
-322 -23 0
623 -980 0
265 245 0
708 506 0
843 380 0
490 -438 0
-935 -588 0
-829 -70 0
-763 802 0
720 -943 0
-675 83 0
654 -719 0
519 815 0
-875 -670 0
923 397 0
216 -938 0
583 -351 0
-673 -387 0
391 -223 0
-285 -111 0
324 -769 0
148 -314 0
-566 392 0
-179 207 0
-408 -120 0
623 -399 0
-108 -285 0
911 -589 0
-325 -85 0
-772 -461 0
994 -101 0
-47 -322 0
-623 361 0
886 -355 0
961 -688 0
-139 -270 0
467 -413 0
74 -812 0
306 72 0
346 -784 0
-959 -968 0
847 317 0
-324 274 0
983 377 0
622 480 0
-564 -538 0
-998 -852 0
291 -511 0
-407 669 0
602 -222 0
83 -694 0
-998 -342 0
-763 -99 0
-922 547 0
-994 280 0
-272 776 0
233 492 0
-256 144 0
833 294 0
-956 641 0
425 461 0
-161 628 0
-184 27 0
906 -549 0
-496 -671 0
-590 -395 0
112 -878 0
665 310 0
-804 211 0
-22 187 0
665 -438 0
-596 -317 0
327 -362 0
-582 -93 0
95 366 0
-414 -261 0
392 403 0
-152 936 0
48 -184 0
97 119 0
-188 -443 0
79 245 0
738 -153 0
-153 -723 0
940 -612 0
821 486 0
-121 286 0
-496 199 0
-912 242 0
-709 371 0
23 -626 0
-1 421 0
-568 -968 0
-668 303 0
-195 523 0
-350 830 0
658 951 0
482 467 0
-393 -51 0
-31 887 0
-956 576 0
710 894 0
176 -723 0
414 -54 0
849 -538 0
216 -652 0
713 181 0
457 -861 0
-459 -251 0
717 -932 0
-566 -283 0
-867 657 0
352 717 0
202 746 0
-441 -137 0
476 140 0
734 -739 0
-322 -683 0
-978 -337 0
-775 312 0
-984 -234 0
-952 -989 0
-508 445 0
-32 -331 0
67 788 0
641 -503 0
-533 479 0
-521 -776 0
-688 428 0
636 -938 0
364 454 0
-377 907 0
949 -488 0
-495 -201 0
-795 -617 0
969 -57 0
423 -691 0
-953 -3 0
454 894 0
-955 -612 0
781 -864 0
2 -309 0
794 -965 0
137 -756 0
647 -868 0
106 -709 0
-247 -234 0
-78 -349 0
-975 -982 0
-815 -894 0
951 -708 0
-476 -664 0
-457 -666 0
842 241 0
-632 -352 0
-786 651 0
-36 -30 0
83 640 0
-502 -504 0
57 -322 0
-223 723 0
-815 -339 0
938 -399 0
-600 -899 0
880 -327 0
-120 545 0
574 403 0
-985 -435 0
928 -372 0
810 -815 0
-962 461 0
-261 -434 0
467 -636 0
-608 -1 0
-677 -958 0
-311 -763 0
236 -984 0
673 667 0
550 75 0
860 628 0
-944 39 0
-333 818 0
635 -267 0
727 564 0
-566 329 0
-568 757 0
-441 923 0
900 985 0
620 237 0
836 751 0
-341 453 0
-324 -286 0
946 -129 0
532 448 0
355 -943 0
-787 -298 0
511 -533 0
508 -783 0
886 -421 0
-816 -245 0
983 213 0
107 -146 0
733 -798 0
-54 383 0
830 -612 0
773 850 0
-414 368 0
895 720 0
-437 860 0
959 -204 0
509 923 0
-683 -493 0
-856 -307 0
800 307 0
492 357 0
887 -227 0
-42 47 0
488 -661 0
-701 170 0
-663 283 0
216 -655 0
594 973 0
-160 -331 0
559 261 0
-774 -15 0
-282 420 0
-932 -581 0
100 346 0
-277 -362 0
-516 309 0
-533 26 0
489 -462 0
-855 607 0
-485 843 0
-958 516 0
686 922 0
814 -113 0
-120 242 0
-414 571 0
948 -942 0
-95 391 0
-484 64 0
520 282 0
-60 -373 0
-977 -536 0
144 -406 0
-426 8 0
-13 -649 0
-528 -25 0
771 -509 0
74 -990 0
-23 540 0
-701 470 0
-900 -805 0
-158 -991 0
33 -258 0
111 506 0
-3 -54 0
129 -982 0
-652 -927 0
-401 992 0
-848 479 0
-682 442 0
-588 768 0
-94 43 0
-703 39 0
216 212 0
-15 813 0
418 764 0
-319 390 0
492 809 0
899 514 0
796 -223 0
-260 477 0
-743 711 0
193 -551 0
-842 -195 0
-68 -552 0
-145 656 0
502 -315 0
-975 445 0
265 -455 0
535 310 0
702 -315 0
-883 112 0
725 612 0
492 193 0
-517 714 0
-511 -194 0
425 -421 0
-403 -811 0
-45 -657 0
-511 -215 0
548 83 0
-423 -866 0
553 -791 0
210 379 0
833 148 0
80 -407 0
-472 -786 0
-680 -40 0
868 -181 0
755 409 0
860 168 0
-462 -792 0
400 143 0
64 -731 0
784 -212 0
-832 -406 0
970 -486 0
461 -294 0
240 638 0
115 -171 0
-492 783 0
-8 882 0
-998 20 0
801 844 0
-279 730 0
-908 241 0
-116 178 0
8 608 0
473 464 0
-33 916 0
888 -214 0
431 79 0
-118 853 0
-493 -607 0
-642 -774 0
-427 502 0
-853 -566 0
-828 454 0
-20 -676 0
-302 -993 0
-532 -851 0
-989 407 0
468 432 0
-756 -533 0
557 -324 0
733 929 0
-314 -420 0
457 -949 0
-397 -634 0
313 -934 0
-161 -800 0
-541 381 0
497 -769 0
-960 -681 0
85 -774 0
241 -268 0
-101 165 0
424 -30 0
-624 895 0
830 764 0
-424 -723 0
-391 -527 0
-458 341 0
856 -123 0
-179 18 0
-709 -87 0
-81 60 0
-387 830 0
-53 -631 0
690 -304 0
-26 -113 0
525 -958 0
-459 -846 0
594 -195 0
-634 904 0
836 720 0
-387 382 0
-514 274 0
107 -910 0
66 297 0
363 106 0
-351 59 0
785 603 0
909 801 0
-523 -997 0
-507 -682 0
-234 -428 0
862 -1 0
151 629 0
-828 303 0
-644 -916 0
-509 142 0
216 -635 0
-106 499 0
789 168 0
49 -568 0
54 -600 0
460 -856 0
951 862 0
-23 733 0
-525 761 0
-681 332 0
-916 336 0
-856 85 0
-920 154 0
8 846 0
957 -799 0
229 -884 0
819 266 0
-715 -509 0
-337 -233 0
105 746 0
519 125 0
198 -650 0
-603 -15 0
-123 -879 0
-780 824 0
-181 -629 0
-319 -965 0
-836 7 0
454 -800 0
-962 -707 0
-127 -283 0
122 195 0
774 -459 0
763 567 0
-547 -120 0
-161 -879 0
437 736 0
-464 -669 0
619 -933 0
-35 900 0
-304 -795 0
800 -289 0
-472 -387 0
-772 -624 0
-253 83 0
-260 892 0
338 645 0
131 -22 0
-180 -992 0
-787 115 0
-191 984 0
841 604 0
-451 -596 0
181 -693 0
-458 -471 0
-570 -870 0
874 -559 0
7 -464 0
-120 198 0
-583 991 0
-254 467 0
972 -170 0
686 -431 0
-235 899 0
226 -276 0
897 988 0
-333 48 0
-477 630 0
342 148 0
201 114 0
75 467 0
848 -508 0
-330 536 0
999 -499 0
-569 -556 0
-856 -501 0
312 34 0
543 445 0
754 -118 0
-465 -413 0
-189 334 0
-385 -255 0
-873 25 0
862 -630 0
-596 -569 0
639 72 0
687 423 0
383 -605 0
-111 733 0
31 -577 0
32 763 0
133 610 0
519 823 0
657 -696 0
99 923 0
-302 404 0
523 901 0
880 537 0
-684 -166 0
-689 359 0
248 350 0
-291 614 0
-186 -264 0
919 297 0
532 412 0
727 722 0
-652 -889 0
28 117 0
-962 -616 0
-289 -216 0
740 509 0
109 559 0
-916 -719 0
-417 348 0
810 -452 0
637 247 0
-913 -102 0
763 -19 0
286 871 0
60 124 0
595 975 0
-778 -912 0
-611 617 0
261 741 0
-220 289 0
987 -176 0
28 693 0
-922 398 0
-613 -644 0
-630 -930 0
556 376 0
898 522 0
157 -283 0
400 -276 0
498 989 0
-648 -244 0
783 197 0
-208 751 0
-255 143 0
-289 -863 0
305 -7 0
-92 -929 0
-749 11 0
957 -461 0
-806 383 0
-345 -616 0
748 902 0
-934 -783 0
266 -240 0
-991 213 0
919 -349 0
999 -140 0
-462 628 0
477 -414 0
157 757 0
238 235 0
-643 -748 0
30 802 0
-222 618 0
127 -670 0
-968 -971 0
290 -485 0
-746 880 0
-337 -722 0
-335 -784 0
228 17 0
607 766 0
317 -789 0
-6 -680 0
-316 188 0
483 -694 0
841 -137 0
135 5 0
-927 -159 0
284 704 0
-319 382 0
249 -539 0
-471 259 0
-1000 -859 0
42 -466 0
-362 308 0
656 -760 0
793 -610 0
-416 -301 0
-303 755 0
-240 824 0
-130 -590 0
83 48 0
-433 -713 0
-372 -209 0
-424 149 0
74 186 0
512 595 0
473 261 0
-496 -744 0
-35 172 0
908 -90 0
385 532 0
-283 139 0
622 869 0
965 -434 0
523 -866 0
-397 247 0
912 832 0
-695 637 0
819 -631 0
114 965 0
-617 -495 0
431 -524 0
545 483 0
452 41 0
930 490 0
-448 -743 0
-314 276 0
-914 506 0
-61 -387 0
