c bounds 100 100
p cnf 190 114
185 80 0
-116 55 0
-176 -167 0
-61 119 0
-1 -124 0
-55 33 0
-158 10 0
2 -42 0
40 -16 0
44 -127 0
-78 80 0
32 -136 0
163 144 0
92 -147 0
125 74 0
140 92 0
95 183 0
-79 81 0
-55 -183 0
-101 -110 0
63 -186 0
-58 105 0
-68 -111 0
35 -168 0
-70 28 0
-183 176 0
-24 -121 0
-48 -141 0
63 5 0
-178 -104 0
-130 23 0
117 -130 0
134 184 0
-51 49 0
145 131 0
62 90 0
-76 -190 0
138 -1 0
190 -132 0
-52 181 0
-56 -45 0
174 28 0
-150 85 0
-17 -120 0
140 62 0
-121 -91 0
-134 -168 0
115 104 0
-68 -167 0
62 146 0
172 181 0
163 49 0
-117 -129 0
123 151 0
-12 33 0
-19 71 0
125 -102 0
128 108 0
-18 -71 0
189 10 0
118 -31 0
-48 51 0
-8 -164 0
80 -57 0
-182 -78 0
-108 -63 0
141 -15 0
110 158 0
-106 180 0
-176 -100 0
-55 57 0
125 -43 0
-91 -116 0
-155 85 0
-84 -21 0
115 -114 0
-7 -174 0
-157 139 0
-100 -45 0
-6 95 0
-19 -61 0
171 -182 0
-114 -65 0
67 119 0
-108 128 0
149 -81 0
-117 -158 0
-100 -117 0
-172 -108 0
77 -149 0
71 169 0
-1 -63 0
118 88 0
-42 56 0
86 181 0
-48 20 0
-89 -82 0
-126 -67 0
-144 147 0
20 33 0
-71 180 0
-16 -68 0
-143 -76 0
148 61 0
-91 56 0
-95 111 0
-147 -114 0
129 -173 0
115 -52 0
-149 16 0
11 -186 0
-159 -132 0
-27 -186 0
-89 45 0
