c bounds 247 247
p cnf 595 476
585 -67 0
254 346 0
254 -444 0
282 -284 0
-262 277 0
211 147 0
-160 143 0
-238 502 0
-580 -548 0
50 49 0
-391 -199 0
-382 100 0
47 -477 0
-26 -75 0
255 -529 0
-513 -341 0
-175 407 0
212 -13 0
469 221 0
281 -496 0
-390 363 0
-446 281 0
161 -125 0
469 -472 0
-69 -82 0
260 306 0
-113 -438 0
177 -588 0
-342 196 0
444 223 0
-483 -482 0
173 13 0
466 -278 0
-16 -355 0
165 -403 0
254 301 0
-543 -385 0
-307 -543 0
285 400 0
-428 208 0
-498 381 0
-258 130 0
-129 57 0
579 586 0
466 394 0
331 505 0
237 414 0
566 383 0
-99 558 0
564 100 0
324 -122 0
-378 -555 0
-200 434 0
233 52 0
-351 484 0
132 -385 0
-591 -571 0
-504 330 0
-144 -451 0
319 158 0
-485 49 0
108 335 0
-359 443 0
239 129 0
423 217 0
-496 -148 0
388 -234 0
398 -589 0
-584 -575 0
-524 562 0
-38 -449 0
-344 365 0
-237 -68 0
269 3 0
288 -33 0
-499 -576 0
-335 132 0
354 -387 0
-445 572 0
226 -273 0
-285 -34 0
433 -448 0
272 117 0
125 -547 0
379 15 0
430 -46 0
387 410 0
84 -392 0
-405 459 0
-69 -70 0
269 399 0
-550 -555 0
53 136 0
585 -149 0
-148 578 0
157 -521 0
46 280 0
146 538 0
54 383 0
513 554 0
100 -591 0
346 151 0
-115 421 0
181 -266 0
582 -302 0
-510 64 0
389 290 0
517 490 0
30 -131 0
-543 -187 0
304 -562 0
-319 -578 0
535 332 0
-187 -581 0
-341 71 0
-428 193 0
458 -209 0
-62 -19 0
-432 -188 0
-287 548 0
221 379 0
246 -190 0
-370 193 0
-427 338 0
590 -350 0
289 105 0
-546 438 0
-408 -437 0
573 475 0
27 -443 0
314 -134 0
-541 -383 0
-331 -427 0
571 -286 0
-173 -530 0
560 425 0
68 -499 0
16 -451 0
-573 96 0
466 -121 0
-150 568 0
27 -242 0
-426 553 0
-418 178 0
106 -98 0
-439 -285 0
-337 531 0
-53 -562 0
-111 12 0
564 279 0
249 373 0
-486 569 0
304 304 0
536 -330 0
315 352 0
52 45 0
-439 68 0
371 -406 0
350 3 0
354 79 0
-340 546 0
314 -97 0
540 -118 0
-500 43 0
20 -496 0
-211 -415 0
161 67 0
165 56 0
33 -208 0
-255 -538 0
-372 -24 0
-130 102 0
-172 -319 0
-126 193 0
206 56 0
577 93 0
-481 -412 0
-486 -485 0
430 196 0
-199 319 0
21 -291 0
460 115 0
-169 202 0
-238 -205 0
-14 -233 0
128 -412 0
46 378 0
-90 109 0
35 -275 0
-297 9 0
-336 -454 0
-593 107 0
-366 -352 0
-269 -164 0
-238 -373 0
-230 177 0
-541 -34 0
326 245 0
-279 177 0
-408 428 0
-505 272 0
376 -262 0
240 -442 0
319 -195 0
87 -446 0
43 -169 0
-287 -296 0
-517 -302 0
-56 -199 0
273 -344 0
-264 28 0
-448 -321 0
486 300 0
-510 -42 0
-506 347 0
-165 -354 0
-576 -367 0
202 -552 0
-269 66 0
-375 346 0
216 3 0
425 -286 0
254 -88 0
-518 571 0
-589 -441 0
408 242 0
-191 -23 0
531 252 0
-559 470 0
99 418 0
-64 54 0
-164 -324 0
331 -510 0
-222 531 0
-353 96 0
-52 -337 0
-117 1 0
-110 129 0
487 -541 0
168 100 0
-186 -227 0
354 3 0
215 501 0
-491 -515 0
230 20 0
11 379 0
-203 222 0
-495 -524 0
-509 346 0
-69 -577 0
-91 583 0
331 -116 0
33 435 0
-395 238 0
-352 -326 0
-555 161 0
-442 -182 0
493 -191 0
-78 -206 0
253 336 0
103 379 0
300 -521 0
-282 -1 0
-250 174 0
-574 -139 0
-511 111 0
301 118 0
-55 181 0
273 -16 0
243 -440 0
593 65 0
162 347 0
203 16 0
-178 -36 0
126 20 0
-262 113 0
-561 -549 0
-62 265 0
157 472 0
245 310 0
178 593 0
-329 -506 0
251 -243 0
-397 -232 0
-457 144 0
-340 395 0
56 -560 0
-460 223 0
-126 290 0
-560 144 0
-74 -87 0
11 -37 0
-542 -503 0
257 377 0
-266 -527 0
-368 425 0
307 -532 0
-111 -98 0
193 -78 0
-539 -80 0
494 -476 0
-396 -58 0
-505 -23 0
534 215 0
146 -15 0
-322 242 0
221 -84 0
-447 225 0
91 222 0
-516 206 0
86 -510 0
488 -256 0
459 436 0
538 85 0
451 -166 0
223 379 0
-448 -553 0
177 -544 0
-478 456 0
-56 -403 0
-339 -480 0
-579 509 0
-246 -295 0
452 -4 0
414 -90 0
270 -559 0
-415 332 0
-103 -305 0
515 178 0
8 83 0
47 -131 0
-298 517 0
-309 144 0
-579 426 0
-323 -420 0
77 219 0
-295 -222 0
-499 -246 0
-211 -396 0
-264 268 0
-351 281 0
306 563 0
140 -110 0
146 397 0
226 384 0
217 8 0
495 -183 0
-439 -511 0
44 -448 0
-14 -476 0
176 272 0
533 243 0
-157 466 0
370 -207 0
-112 -495 0
-198 -380 0
100 205 0
349 -305 0
-186 -48 0
446 459 0
-459 35 0
71 105 0
-463 560 0
297 -187 0
81 -409 0
-67 251 0
-448 -380 0
159 -458 0
-491 -18 0
-96 460 0
-174 161 0
515 320 0
-213 226 0
-242 -94 0
339 -482 0
19 -454 0
-195 -371 0
-201 -538 0
-327 -204 0
-176 357 0
-1 -544 0
456 -480 0
553 398 0
422 -420 0
116 -282 0
39 -521 0
491 263 0
-508 316 0
-313 -124 0
594 6 0
349 -322 0
430 351 0
316 386 0
-16 176 0
127 -562 0
444 167 0
-550 6 0
135 -485 0
133 -494 0
-474 -555 0
148 54 0
-427 -580 0
364 577 0
544 -55 0
250 466 0
-552 -10 0
189 -406 0
-87 -367 0
-576 44 0
-359 -88 0
242 -45 0
389 -467 0
113 -221 0
4 60 0
424 306 0
107 -164 0
212 -46 0
522 -367 0
587 -337 0
397 79 0
-348 368 0
-500 365 0
379 -228 0
-261 -509 0
-62 -101 0
-131 -407 0
-131 -487 0
-472 14 0
108 174 0
273 104 0
-304 347 0
144 162 0
-166 -257 0
582 -232 0
-355 -423 0
130 299 0
228 577 0
-435 -515 0
-407 274 0
-595 289 0
134 468 0
-303 -239 0
-439 -224 0
254 38 0
235 -352 0
-438 -120 0
-146 265 0
-441 -148 0
-401 -494 0
215 117 0
379 -152 0
-380 184 0
512 148 0
312 -428 0
30 -125 0
-64 -551 0
-579 -542 0
-496 -559 0
-247 408 0
-340 253 0
136 -217 0
523 138 0
-55 116 0
107 14 0
227 135 0
188 388 0
534 -362 0
-225 105 0
-116 273 0
-376 -264 0
-387 442 0
-187 153 0
546 274 0
21 255 0
337 -416 0
-477 -467 0
