c bounds 32 32
p cnf 280 756
174 34 0
76 -67 0
150 34 0
-100 -24 0
242 203 0
-104 50 0
231 12 0
213 62 0
-149 103 0
91 -202 0
71 135 0
232 101 0
-38 -21 0
133 102 0
-45 214 0
-114 184 0
11 118 0
-162 -89 0
186 -230 0
-192 -246 0
-32 83 0
-170 59 0
-93 -157 0
259 -256 0
219 -153 0
-176 -225 0
250 -96 0
-241 -271 0
11 -238 0
-79 138 0
31 -200 0
233 -257 0
12 -57 0
126 83 0
-57 172 0
-140 273 0
9 103 0
-182 -126 0
-104 48 0
-26 114 0
143 -53 0
95 -58 0
58 138 0
264 -181 0
-232 -8 0
-113 -120 0
-266 -204 0
35 165 0
225 138 0
271 -212 0
-64 -53 0
67 -211 0
230 99 0
-26 265 0
187 184 0
28 71 0
-219 219 0
-202 -197 0
184 169 0
-3 81 0
-2 -212 0
-107 37 0
177 -60 0
33 -199 0
99 67 0
-222 -49 0
-97 175 0
239 -241 0
-53 -102 0
-264 -4 0
-190 -210 0
198 141 0
-171 -200 0
-190 -265 0
-126 -218 0
219 -268 0
-152 263 0
252 1 0
269 -149 0
199 -206 0
151 60 0
-46 -181 0
-24 -227 0
-219 -135 0
-63 87 0
102 -154 0
-8 -211 0
-18 58 0
-38 -137 0
-78 -128 0
183 121 0
-207 231 0
216 20 0
99 -206 0
-248 -207 0
-149 -170 0
236 -59 0
-75 -188 0
239 -110 0
-149 -57 0
165 259 0
189 -34 0
-150 247 0
-154 128 0
179 119 0
158 117 0
-161 143 0
34 -111 0
76 -155 0
-150 -125 0
-190 -179 0
215 250 0
249 166 0
10 80 0
169 -150 0
43 23 0
84 163 0
273 259 0
76 -77 0
-60 88 0
220 -276 0
112 24 0
-52 -183 0
185 -92 0
226 245 0
-56 -62 0
-188 100 0
-22 -158 0
-258 -110 0
-98 -104 0
-233 165 0
-130 -197 0
96 221 0
-56 -197 0
108 252 0
264 91 0
27 7 0
80 -69 0
28 29 0
119 -249 0
-61 129 0
213 6 0
136 -26 0
242 24 0
276 -63 0
163 219 0
232 214 0
189 119 0
-122 -128 0
-19 -176 0
-201 -93 0
123 153 0
-278 -38 0
-55 54 0
172 50 0
20 203 0
122 47 0
-226 -268 0
214 13 0
97 110 0
210 -153 0
-169 194 0
-69 224 0
-196 184 0
-59 -280 0
-8 -174 0
-164 77 0
-61 124 0
-202 -129 0
98 95 0
-274 -176 0
83 159 0
-261 64 0
197 -51 0
27 258 0
-44 105 0
138 -51 0
-134 -22 0
9 97 0
160 35 0
-24 -48 0
208 -227 0
240 228 0
101 -69 0
11 127 0
-246 -193 0
243 -169 0
256 63 0
-206 -194 0
48 -154 0
134 19 0
138 260 0
18 208 0
-39 -260 0
-56 -132 0
123 -254 0
123 -161 0
95 -194 0
-104 199 0
-253 -55 0
-67 -270 0
33 74 0
-38 19 0
-122 213 0
226 73 0
-126 -211 0
-190 -153 0
-5 -200 0
209 -168 0
78 156 0
35 -24 0
67 191 0
136 -280 0
-170 130 0
59 152 0
-78 -104 0
188 -3 0
113 -203 0
161 122 0
219 212 0
259 4 0
-258 123 0
-66 -39 0
9 27 0
-113 -182 0
-225 272 0
-169 -191 0
-93 -139 0
231 -239 0
174 -155 0
-8 -27 0
-135 244 0
94 -112 0
-154 168 0
-82 -237 0
-181 -1 0
-188 37 0
-171 -149 0
-97 -229 0
-271 -71 0
102 -56 0
112 69 0
-277 246 0
-167 -86 0
-132 -265 0
183 105 0
-100 -253 0
94 4 0
-158 101 0
114 -143 0
-87 136 0
133 212 0
-49 16 0
146 -55 0
15 71 0
-39 61 0
151 -196 0
183 -88 0
-163 247 0
143 -154 0
-105 -143 0
-12 -148 0
-221 -203 0
-193 -141 0
-68 9 0
247 -201 0
84 -124 0
-274 -225 0
198 259 0
243 -171 0
-239 105 0
-154 21 0
-257 -207 0
151 -265 0
-61 -173 0
-230 -152 0
269 45 0
186 -107 0
236 -203 0
230 107 0
-8 -38 0
-166 -206 0
-47 21 0
156 -231 0
-25 -49 0
-254 -22 0
252 112 0
-161 89 0
-153 266 0
-180 213 0
-115 -224 0
265 -162 0
-261 -211 0
67 -280 0
36 -155 0
244 32 0
63 -81 0
-33 89 0
-206 -224 0
85 -38 0
145 67 0
110 145 0
-160 -258 0
-39 -6 0
129 -205 0
96 -115 0
228 -44 0
-116 -271 0
223 -136 0
20 184 0
-248 48 0
-72 -143 0
-93 220 0
-26 -106 0
279 -45 0
110 44 0
-75 -180 0
-195 174 0
80 99 0
272 196 0
-117 225 0
-161 236 0
123 -42 0
-8 7 0
17 -139 0
-124 67 0
-118 -49 0
59 -278 0
234 165 0
-1 -88 0
-70 8 0
62 2 0
-100 206 0
90 269 0
219 15 0
-68 4 0
-161 -259 0
231 -171 0
229 -217 0
97 -193 0
127 79 0
166 -170 0
11 137 0
226 238 0
-19 226 0
-241 63 0
-256 -3 0
-146 42 0
-215 250 0
-264 151 0
135 -143 0
-115 187 0
-193 125 0
-257 244 0
146 -28 0
211 -148 0
140 -78 0
-152 -38 0
97 111 0
-39 -13 0
-74 225 0
105 30 0
10 217 0
28 179 0
-254 58 0
-177 214 0
-100 138 0
-147 3 0
-39 231 0
266 240 0
-182 -190 0
199 240 0
-168 -189 0
-131 -148 0
-53 -133 0
29 -44 0
264 -154 0
31 273 0
259 225 0
-107 141 0
138 -4 0
-100 257 0
18 -173 0
204 230 0
-60 84 0
48 -234 0
146 -167 0
183 -262 0
-90 95 0
-103 166 0
-175 -52 0
138 146 0
174 -128 0
-242 77 0
278 58 0
-207 -160 0
-108 234 0
117 -202 0
21 23 0
-24 111 0
209 -205 0
-273 240 0
-201 -180 0
-140 70 0
-95 10 0
-90 -171 0
-11 -193 0
229 -181 0
245 -15 0
276 269 0
126 -277 0
145 -214 0
64 214 0
-16 -17 0
180 -86 0
-242 184 0
185 -271 0
136 78 0
-258 -139 0
141 -267 0
-224 100 0
69 67 0
76 -85 0
-212 -114 0
97 -17 0
-268 101 0
252 -104 0
10 231 0
-248 -278 0
280 119 0
-227 227 0
-197 9 0
113 101 0
71 -205 0
-223 30 0
185 -22 0
-75 151 0
223 -109 0
11 110 0
73 269 0
-80 -169 0
261 -185 0
-259 -106 0
-51 20 0
84 -224 0
-154 224 0
-113 -127 0
244 17 0
-171 54 0
-5 226 0
186 96 0
73 -272 0
234 197 0
130 234 0
12 177 0
42 177 0
54 -209 0
214 95 0
225 -258 0
204 54 0
-248 273 0
-45 -35 0
156 -207 0
33 191 0
-45 -132 0
7 87 0
170 -51 0
74 164 0
-113 -118 0
-276 178 0
-93 123 0
-8 -203 0
-25 -174 0
40 65 0
-152 91 0
34 75 0
209 -189 0
31 125 0
127 238 0
-121 -88 0
-111 -144 0
-27 -152 0
-4 35 0
30 -162 0
-264 273 0
-236 101 0
-121 36 0
-264 236 0
119 -29 0
-176 96 0
-115 -24 0
279 180 0
-263 -16 0
-256 105 0
119 165 0
214 276 0
120 127 0
-106 -229 0
-169 -137 0
171 136 0
209 -41 0
122 -263 0
228 40 0
-217 -60 0
250 -115 0
-229 61 0
-224 -69 0
81 -262 0
-30 -121 0
89 -267 0
-3 -90 0
269 -77 0
20 -137 0
-99 -53 0
-214 -157 0
-118 -192 0
27 -78 0
-149 -157 0
-190 65 0
-154 -144 0
74 -200 0
71 40 0
67 250 0
-49 -265 0
-152 12 0
-163 -220 0
-111 266 0
63 -12 0
157 -217 0
-162 109 0
-50 58 0
-274 257 0
260 30 0
240 -197 0
156 200 0
-267 -227 0
278 99 0
-204 132 0
213 182 0
-215 -84 0
-115 142 0
-106 -241 0
274 208 0
94 21 0
277 -267 0
213 183 0
-171 -228 0
-271 -92 0
-232 -138 0
-248 103 0
-105 -139 0
-194 96 0
-14 -53 0
67 178 0
268 -205 0
183 -43 0
62 223 0
-171 234 0
43 214 0
-137 176 0
151 -29 0
-161 -271 0
-252 -161 0
-32 244 0
84 70 0
242 122 0
78 239 0
-3 -204 0
-241 -218 0
199 -237 0
145 120 0
185 189 0
171 -271 0
240 -215 0
-92 119 0
87 111 0
-96 34 0
34 -206 0
-180 157 0
261 -145 0
-264 -78 0
-204 -109 0
-193 276 0
65 151 0
-44 96 0
27 144 0
4 43 0
-267 253 0
-118 -257 0
114 -56 0
80 187 0
-158 120 0
246 -115 0
-200 182 0
216 20 0
103 -148 0
43 114 0
-199 231 0
242 -253 0
250 30 0
169 185 0
-129 244 0
22 31 0
151 -5 0
-199 -194 0
-168 -162 0
216 118 0
189 -214 0
39 5 0
-71 -192 0
59 -148 0
51 -52 0
-280 -114 0
36 84 0
-72 63 0
73 -46 0
-209 275 0
96 256 0
160 114 0
275 -93 0
141 -132 0
-177 -274 0
174 106 0
-154 -94 0
-104 155 0
185 -131 0
20 -66 0
-60 236 0
231 120 0
273 177 0
-72 46 0
260 -88 0
-148 -194 0
65 126 0
80 94 0
123 18 0
-149 67 0
185 -168 0
-147 65 0
-168 189 0
-45 -260 0
-113 97 0
119 2 0
-265 144 0
-83 95 0
-66 236 0
-190 -154 0
243 -66 0
263 244 0
-165 243 0
-26 -252 0
263 54 0
-109 20 0
-93 -125 0
77 31 0
-206 142 0
-115 91 0
50 278 0
-93 71 0
154 -3 0
-280 216 0
-183 187 0
-132 -276 0
87 89 0
172 28 0
90 239 0
-264 -181 0
165 -34 0
255 -70 0
-106 -205 0
-234 -118 0
136 -57 0
234 -29 0
83 93 0
-146 -268 0
32 85 0
-194 -269 0
9 205 0
-85 -173 0
-3 -191 0
-38 -202 0
260 145 0
241 -248 0
197 216 0
-235 -173 0
-70 213 0
170 179 0
148 -131 0
135 -109 0
-161 -41 0
-206 -17 0
-104 39 0
224 -68 0
-109 160 0
7 -251 0
-258 177 0
-259 -157 0
-85 -212 0
-254 -144 0
-67 -115 0
-190 85 0
239 -22 0
84 27 0
-274 278 0
-112 -262 0
-195 -6 0
-162 244 0
236 126 0
76 82 0
39 216 0
50 234 0
-227 -24 0
-149 155 0
-222 230 0
-136 42 0
21 130 0
110 -57 0
-94 -171 0
-265 165 0
-15 37 0
-141 225 0
127 116 0
-66 72 0
-270 38 0
-252 -267 0
-80 10 0
9 -220 0
234 121 0
-270 23 0
-113 234 0
189 -89 0
-277 -140 0
-193 -158 0
-38 -171 0
71 -176 0
-75 249 0
-6 89 0
-119 214 0
172 -40 0
226 -193 0
-240 37 0
-101 223 0
11 204 0
251 -147 0
263 151 0
-113 136 0
174 142 0
-121 -56 0
-249 -218 0
67 -177 0
-98 -173 0
114 -25 0
248 223 0
107 65 0
-193 -68 0
-192 178 0
