c bounds 62 62
p cnf 325 618
-267 149 0
-57 290 0
62 294 0
105 74 0
77 -188 0
166 113 0
-281 154 0
192 98 0
-80 211 0
140 -106 0
29 47 0
173 -265 0
-80 -262 0
-260 -66 0
239 100 0
23 -3 0
147 268 0
38 291 0
232 -178 0
45 -184 0
287 234 0
-99 -149 0
235 -220 0
43 50 0
283 239 0
175 -125 0
-156 -82 0
-310 -312 0
-154 -205 0
185 -9 0
-128 16 0
287 100 0
-176 325 0
-223 -164 0
-63 -97 0
8 -213 0
-129 93 0
-210 -134 0
132 -46 0
-141 266 0
-178 81 0
261 28 0
17 12 0
81 155 0
-135 -111 0
-240 19 0
103 193 0
305 -258 0
-246 -298 0
-46 -141 0
80 -142 0
20 282 0
-171 -91 0
-142 263 0
-106 291 0
75 319 0
-225 -172 0
15 222 0
245 -63 0
51 144 0
-58 93 0
226 -297 0
90 310 0
-264 -83 0
314 -36 0
38 256 0
-23 25 0
163 166 0
206 -321 0
14 -258 0
163 300 0
-100 -156 0
178 -297 0
178 261 0
-140 163 0
178 245 0
179 -141 0
-255 -147 0
-288 131 0
182 -255 0
233 185 0
-191 64 0
69 -254 0
-218 -119 0
184 -73 0
-315 -279 0
178 -109 0
322 -154 0
153 -181 0
-168 111 0
-154 136 0
124 -63 0
-263 214 0
-225 -83 0
243 139 0
261 179 0
124 323 0
-34 71 0
300 -166 0
-220 -181 0
53 155 0
-156 75 0
187 242 0
-212 38 0
191 -137 0
-148 -255 0
-244 317 0
-152 -43 0
-137 -273 0
-13 -30 0
-123 246 0
-83 -195 0
300 -230 0
268 -44 0
-60 -66 0
-46 230 0
-169 286 0
-125 322 0
284 -230 0
43 -179 0
136 -74 0
229 -63 0
-243 127 0
212 -46 0
322 192 0
301 -301 0
286 -60 0
-142 -263 0
-304 10 0
-205 109 0
230 -34 0
133 257 0
290 -181 0
25 -310 0
19 -186 0
64 90 0
-188 -55 0
-181 32 0
100 -185 0
275 -259 0
286 -277 0
-147 117 0
-108 -202 0
312 -288 0
95 -168 0
-263 95 0
184 269 0
-58 263 0
206 234 0
-119 -50 0
82 3 0
-78 -67 0
91 102 0
86 -128 0
300 -142 0
-94 90 0
107 -271 0
-265 301 0
24 -15 0
-115 245 0
254 -241 0
242 -176 0
-143 -318 0
306 -280 0
-237 104 0
-267 -315 0
209 -164 0
163 157 0
-259 -135 0
72 -79 0
230 222 0
-66 -275 0
154 11 0
-82 309 0
268 -238 0
179 234 0
158 -130 0
-22 -168 0
-262 240 0
161 -119 0
132 -201 0
43 -269 0
22 103 0
305 3 0
-272 302 0
115 -194 0
-256 45 0
95 -66 0
98 196 0
-324 193 0
217 -194 0
-223 51 0
-313 235 0
290 195 0
101 -264 0
54 -250 0
231 -163 0
-9 101 0
-210 -273 0
-298 -291 0
71 243 0
-291 291 0
243 38 0
289 25 0
-311 323 0
-141 -173 0
43 -251 0
-45 -61 0
190 -264 0
260 231 0
-97 -226 0
-41 -41 0
113 221 0
324 -188 0
148 234 0
127 -258 0
15 183 0
132 -8 0
91 30 0
-10 193 0
-199 -228 0
230 -73 0
-191 -77 0
218 -66 0
307 100 0
312 76 0
242 -43 0
-133 -174 0
203 214 0
253 316 0
166 -177 0
163 266 0
-74 187 0
-265 172 0
-236 46 0
2 201 0
-139 155 0
-60 -10 0
12 170 0
-120 173 0
300 276 0
-105 306 0
-227 -133 0
-162 51 0
239 167 0
-260 166 0
-295 269 0
-134 320 0
-49 270 0
20 166 0
-146 250 0
181 -15 0
-169 306 0
229 314 0
-132 -297 0
138 197 0
-113 -147 0
38 98 0
256 258 0
-237 56 0
45 64 0
195 -204 0
-288 -188 0
-36 309 0
-252 306 0
102 208 0
-158 66 0
76 -87 0
-244 -288 0
102 258 0
254 287 0
-97 277 0
181 111 0
90 -253 0
-157 100 0
212 -202 0
65 -166 0
-221 206 0
281 -41 0
105 -319 0
-213 -35 0
-84 -57 0
-19 183 0
232 -10 0
7 33 0
228 184 0
-39 -232 0
-22 312 0
182 218 0
-70 -104 0
-61 -230 0
200 -287 0
-226 42 0
-22 -39 0
-218 227 0
270 9 0
-269 -244 0
-159 123 0
-11 195 0
-24 17 0
275 286 0
168 95 0
99 -321 0
206 20 0
115 -89 0
-156 -61 0
-220 -82 0
-36 -143 0
162 -288 0
-46 285 0
-297 26 0
113 243 0
169 281 0
-315 -218 0
230 312 0
206 223 0
223 243 0
109 -30 0
-198 24 0
-298 -306 0
-202 -101 0
129 -31 0
13 132 0
153 -249 0
-16 -224 0
108 2 0
-164 -27 0
195 323 0
233 179 0
-58 283 0
231 38 0
47 -24 0
-176 15 0
-291 -312 0
-220 -38 0
186 27 0
113 -281 0
-41 42 0
141 148 0
136 324 0
-51 -37 0
-119 202 0
-132 -267 0
222 -118 0
153 85 0
185 148 0
-176 202 0
282 -250 0
242 -104 0
190 190 0
-56 266 0
220 -97 0
116 3 0
-94 93 0
-247 99 0
185 184 0
283 302 0
241 208 0
-142 249 0
268 301 0
-285 280 0
46 43 0
-27 -308 0
179 230 0
-29 -152 0
243 -161 0
92 44 0
103 102 0
-21 18 0
156 127 0
285 -174 0
-318 107 0
12 77 0
300 243 0
-142 -180 0
186 148 0
200 196 0
-258 -276 0
-57 -97 0
-142 172 0
196 214 0
-137 -122 0
182 145 0
214 252 0
90 298 0
-5 65 0
-135 121 0
-201 -117 0
-217 65 0
-186 162 0
-173 11 0
-181 -213 0
292 242 0
-182 325 0
27 79 0
208 269 0
283 -140 0
8 -54 0
54 289 0
145 55 0
111 23 0
-255 203 0
89 -251 0
38 -125 0
-311 92 0
299 -213 0
179 302 0
-173 182 0
183 64 0
-260 -191 0
-233 -6 0
-265 289 0
-240 -143 0
-20 187 0
-321 -297 0
189 -43 0
-131 27 0
14 -64 0
-114 217 0
-84 -55 0
-147 -292 0
274 -244 0
149 -255 0
175 -313 0
325 -203 0
-233 225 0
114 -1 0
107 -168 0
112 282 0
32 -138 0
30 -70 0
321 175 0
-243 302 0
-254 252 0
160 76 0
-106 95 0
-299 95 0
138 230 0
-134 129 0
-56 285 0
71 -318 0
-19 4 0
321 -135 0
149 -155 0
-321 86 0
163 252 0
-251 136 0
-82 -190 0
-311 17 0
38 -178 0
-249 65 0
184 274 0
278 129 0
-102 -228 0
42 -77 0
75 209 0
42 -176 0
-80 306 0
134 217 0
288 -228 0
-141 177 0
-211 235 0
-100 -108 0
-171 -67 0
-136 302 0
-251 -187 0
-288 62 0
-130 -128 0
169 -176 0
239 265 0
253 19 0
47 -195 0
102 64 0
-65 290 0
320 42 0
-258 -122 0
172 -109 0
318 306 0
-167 -80 0
113 -37 0
-44 133 0
-69 303 0
-171 4 0
-5 131 0
134 -26 0
270 46 0
-33 7 0
-205 185 0
-304 -238 0
32 102 0
150 48 0
-15 -60 0
197 274 0
-147 270 0
20 -176 0
-64 -177 0
310 -194 0
190 -146 0
130 -137 0
-220 73 0
-158 164 0
104 307 0
21 -10 0
71 182 0
-319 -84 0
-205 12 0
122 -156 0
-1 -60 0
206 -321 0
-134 278 0
103 -308 0
292 127 0
-140 172 0
109 270 0
65 11 0
47 163 0
-87 -70 0
235 -170 0
-14 -142 0
53 153 0
229 28 0
185 -220 0
317 316 0
-218 152 0
96 291 0
-230 282 0
-149 -289 0
52 289 0
-15 108 0
-225 -281 0
-261 323 0
79 -275 0
25 152 0
187 161 0
-291 -110 0
153 -105 0
288 320 0
193 203 0
232 -34 0
-108 -128 0
-291 115 0
292 324 0
-159 54 0
193 258 0
-265 -88 0
287 127 0
217 -193 0
-12 -94 0
-89 269 0
-294 -104 0
-147 19 0
-6 -315 0
-265 -260 0
-188 -294 0
-236 -60 0
-5 -209 0
45 -232 0
136 -315 0
-97 -63 0
256 -221 0
30 120 0
-55 -281 0
-105 -91 0
52 254 0
302 -197 0
-249 -151 0
185 278 0
-56 283 0
-298 -75 0
166 153 0
-149 225 0
113 167 0
196 226 0
230 -188 0
203 203 0
-62 23 0
-5 199 0
-85 256 0
114 -279 0
72 -204 0
-210 21 0
76 -69 0
110 318 0
317 -9 0
-298 -198 0
-24 171 0
-198 -241 0
-146 -81 0
170 66 0
207 -104 0
-322 200 0
-186 -258 0
-28 -33 0
295 -161 0
-268 -131 0
-197 230 0
202 -268 0
104 116 0
-7 182 0
-184 160 0
120 222 0
97 -125 0
-322 98 0
-271 50 0
88 -309 0
-34 195 0
265 30 0
-105 -9 0
7 -312 0
246 81 0
-67 -160 0
-226 -282 0
208 116 0
102 35 0
-43 111 0
-84 52 0
-220 124 0
138 234 0
