c bounds 80 80
p cnf 685 2260
424 -280 0
-176 477 0
-199 -120 0
-319 -200 0
163 220 0
613 -435 0
-124 241 0
-10 553 0
-459 398 0
252 -389 0
44 -583 0
129 -115 0
-362 -65 0
-680 -235 0
374 542 0
358 460 0
82 -599 0
491 435 0
24 -243 0
623 -419 0
-189 547 0
235 -634 0
207 -189 0
-169 351 0
-645 -610 0
-332 624 0
533 476 0
-88 -626 0
-474 532 0
-332 311 0
663 472 0
-398 -191 0
455 475 0
-642 -118 0
-506 144 0
229 602 0
557 418 0
145 117 0
-253 -576 0
-611 149 0
616 -627 0
436 129 0
-430 -221 0
312 483 0
-409 -52 0
-90 547 0
-115 66 0
-318 -442 0
-283 644 0
510 -355 0
-280 -350 0
204 269 0
57 -503 0
17 202 0
-493 -649 0
-421 127 0
546 -361 0
-85 -647 0
-675 391 0
-560 26 0
574 4 0
-329 -553 0
-612 -89 0
550 456 0
-344 -543 0
-589 341 0
-193 150 0
183 454 0
-183 -473 0
-408 455 0
-602 -518 0
575 406 0
398 182 0
444 -677 0
-219 62 0
-680 -35 0
-647 100 0
-561 405 0
-641 -361 0
238 -556 0
-115 18 0
-483 369 0
-290 -478 0
-368 653 0
-31 469 0
320 661 0
-88 -428 0
-422 -350 0
-528 289 0
-28 157 0
369 332 0
-575 -153 0
26 350 0
-609 218 0
286 393 0
261 278 0
595 158 0
308 -623 0
61 354 0
112 339 0
-297 -154 0
-571 353 0
376 -369 0
-411 481 0
-440 -576 0
-197 293 0
110 -266 0
-554 681 0
207 601 0
679 -42 0
399 86 0
161 -499 0
-374 149 0
124 -583 0
-478 -609 0
148 185 0
49 463 0
272 570 0
437 242 0
484 -387 0
372 -464 0
25 591 0
666 295 0
-499 468 0
-285 -638 0
-105 174 0
-565 417 0
-143 407 0
-275 497 0
-603 516 0
554 678 0
-461 317 0
-404 -174 0
-179 -76 0
121 -93 0
161 -52 0
191 85 0
-527 -328 0
-446 157 0
-12 -135 0
255 68 0
549 -270 0
-272 -279 0
482 -130 0
-609 -279 0
-572 249 0
418 131 0
-399 476 0
466 -325 0
141 131 0
394 -243 0
-151 -327 0
407 -405 0
-95 -441 0
369 210 0
18 -190 0
-181 -281 0
-453 363 0
-451 -195 0
-222 -52 0
-213 50 0
343 -181 0
414 201 0
196 640 0
303 -64 0
-426 -167 0
-237 352 0
-201 -224 0
-449 -189 0
535 417 0
185 -402 0
-571 455 0
-638 57 0
117 -469 0
637 -573 0
276 -206 0
454 179 0
-280 113 0
-248 296 0
-74 -332 0
7 -544 0
-487 -200 0
-58 191 0
644 262 0
-213 -454 0
-103 -59 0
547 176 0
405 64 0
495 311 0
-120 -130 0
-474 -338 0
238 -563 0
-606 -361 0
335 463 0
254 646 0
-224 680 0
-221 -210 0
96 61 0
-273 450 0
-359 126 0
-189 -177 0
-641 -637 0
-260 163 0
-167 107 0
354 -651 0
677 -241 0
-511 50 0
-608 -437 0
-669 -226 0
109 319 0
-583 -147 0
516 504 0
-446 -66 0
-221 -181 0
-587 -675 0
595 336 0
644 327 0
-565 -31 0
685 -9 0
482 412 0
-675 -316 0
-583 -659 0
-199 80 0
-199 378 0
412 -323 0
652 216 0
547 -625 0
-336 -615 0
-661 423 0
388 -162 0
663 163 0
45 69 0
-224 -90 0
491 -50 0
261 353 0
-146 422 0
-502 109 0
70 15 0
-53 -651 0
-183 376 0
-520 177 0
306 -52 0
-563 -28 0
491 262 0
131 171 0
-565 -451 0
531 259 0
612 -551 0
521 -198 0
264 196 0
-469 -317 0
396 -465 0
-676 -43 0
658 70 0
-518 -48 0
-306 281 0
-275 343 0
-508 -337 0
352 -316 0
169 651 0
-579 -506 0
209 -115 0
341 -187 0
-417 -384 0
62 -644 0
-206 -543 0
442 -613 0
533 156 0
-127 -194 0
-602 104 0
-452 -678 0
485 626 0
-41 -559 0
-300 -92 0
201 -72 0
63 -34 0
365 304 0
-287 294 0
521 46 0
409 -208 0
684 393 0
434 -23 0
547 -151 0
245 305 0
-96 -98 0
572 -79 0
239 -587 0
-151 286 0
113 657 0
344 671 0
-74 178 0
-467 -609 0
498 590 0
502 353 0
-218 249 0
-38 249 0
-408 -420 0
-171 -482 0
-400 -447 0
-368 513 0
-256 -370 0
-6 -179 0
-309 -232 0
-521 -508 0
-610 -404 0
32 -376 0
-394 304 0
60 51 0
-464 496 0
174 -411 0
-77 -131 0
-478 -470 0
110 474 0
56 284 0
516 -84 0
380 609 0
602 124 0
-79 673 0
274 237 0
507 51 0
527 196 0
-442 527 0
525 -187 0
117 -607 0
380 -63 0
605 -509 0
-515 339 0
229 -79 0
-151 -379 0
-350 11 0
-318 89 0
93 325 0
-221 595 0
175 -664 0
-437 442 0
-313 -514 0
-364 568 0
532 -151 0
-61 -582 0
-449 -640 0
324 -354 0
206 -381 0
-283 341 0
-388 579 0
-326 -414 0
-647 -501 0
-361 -42 0
-608 450 0
-215 623 0
-248 249 0
-75 -548 0
-362 650 0
356 131 0
-504 241 0
472 617 0
148 -132 0
660 -525 0
-353 -499 0
-95 -601 0
-629 -538 0
21 354 0
-175 -213 0
397 345 0
140 612 0
-463 -433 0
423 229 0
-307 670 0
-179 58 0
-162 232 0
24 -198 0
-395 216 0
-643 301 0
-522 -268 0
-505 136 0
-120 285 0
-135 -12 0
-629 -81 0
53 -16 0
-638 346 0
308 -390 0
-133 -311 0
-585 -347 0
299 -625 0
249 404 0
527 474 0
365 -507 0
482 -181 0
-187 578 0
9 -428 0
-553 629 0
-630 -195 0
92 268 0
433 11 0
-281 535 0
-215 596 0
-320 489 0
484 -516 0
-220 -231 0
-495 -248 0
-379 47 0
-482 62 0
164 24 0
-170 28 0
-34 -310 0
474 469 0
598 -552 0
611 -284 0
-352 -337 0
613 92 0
132 51 0
-11 -69 0
-255 -329 0
-311 236 0
376 -178 0
-361 -128 0
670 128 0
257 256 0
308 105 0
192 -79 0
512 122 0
-395 -356 0
-204 -48 0
-618 20 0
-141 179 0
-69 -37 0
-42 -526 0
-373 -343 0
156 -224 0
-173 -476 0
-503 -470 0
620 221 0
50 -237 0
-624 197 0
-302 -558 0
479 541 0
647 -95 0
371 -16 0
-16 -335 0
149 -542 0
-379 -355 0
148 173 0
454 541 0
79 -522 0
667 -198 0
-399 445 0
399 -509 0
-84 -625 0
566 164 0
-230 576 0
-649 -185 0
490 -336 0
575 -367 0
346 -224 0
-681 -221 0
-352 -105 0
87 -575 0
-91 -48 0
56 -177 0
-449 230 0
439 231 0
64 -107 0
69 386 0
-50 544 0
-14 -539 0
606 486 0
204 -98 0
161 -237 0
-37 -42 0
510 -247 0
599 -501 0
-285 652 0
-526 303 0
-361 600 0
-102 485 0
348 305 0
386 450 0
184 -237 0
2 415 0
252 426 0
-35 -313 0
67 150 0
274 345 0
45 257 0
-47 531 0
-360 646 0
159 140 0
345 364 0
-265 209 0
447 -476 0
82 -341 0
671 82 0
415 334 0
-357 -579 0
127 -445 0
-278 -534 0
-74 -461 0
469 -126 0
-299 -672 0
-590 315 0
-28 168 0
-28 -200 0
-19 496 0
374 -103 0
354 -598 0
193 244 0
430 112 0
57 490 0
293 603 0
477 -662 0
71 480 0
532 32 0
453 628 0
275 261 0
-356 571 0
-447 414 0
-529 339 0
-170 149 0
319 -308 0
457 413 0
-230 -679 0
-373 519 0
-545 -115 0
625 -232 0
32 216 0
412 -347 0
-346 322 0
149 150 0
-296 296 0
-592 531 0
3 671 0
232 371 0
14 -92 0
-10 595 0
231 340 0
-407 633 0
410 -511 0
514 140 0
456 -665 0
-495 628 0
559 83 0
-556 -596 0
625 -565 0
295 451 0
397 53 0
537 -527 0
-24 -228 0
-193 40 0
646 -124 0
-305 -568 0
-511 -226 0
520 418 0
-672 -41 0
-213 -465 0
-592 -649 0
458 -88 0
198 -202 0
292 451 0
-58 -132 0
78 -493 0
340 7 0
-12 -538 0
-403 -291 0
-395 641 0
-178 455 0
446 549 0
195 -192 0
278 -574 0
-477 653 0
439 -635 0
-320 -583 0
304 -62 0
57 4 0
473 -561 0
-145 161 0
110 203 0
-367 125 0
-421 -118 0
224 513 0
-664 410 0
-551 -529 0
-608 -643 0
337 -416 0
-678 -615 0
151 486 0
-147 -636 0
321 -680 0
161 45 0
-132 389 0
-645 265 0
-116 -232 0
423 -447 0
-387 551 0
-102 680 0
310 665 0
-351 -452 0
-552 549 0
-437 293 0
413 597 0
610 268 0
554 49 0
351 196 0
-227 218 0
639 -16 0
-328 -566 0
-212 -529 0
143 -514 0
-497 -501 0
57 -411 0
175 -281 0
120 -329 0
-6 323 0
292 -223 0
274 439 0
-479 205 0
251 -93 0
212 11 0
473 -265 0
439 557 0
-681 -220 0
-389 418 0
-477 -285 0
118 -89 0
290 -13 0
438 -665 0
594 440 0
-389 -292 0
308 -440 0
371 586 0
-670 -42 0
-619 -670 0
627 -297 0
-426 -225 0
-680 -341 0
-333 218 0
378 365 0
51 -679 0
64 2 0
-666 -447 0
-251 241 0
-96 -74 0
190 619 0
-195 -147 0
249 644 0
-492 153 0
-338 -240 0
-367 -526 0
-29 455 0
-432 56 0
172 601 0
-495 -104 0
-44 -409 0
346 -384 0
108 -7 0
558 -89 0
448 -85 0
-654 -513 0
377 178 0
532 258 0
39 655 0
-471 80 0
69 -440 0
-235 -207 0
-433 174 0
-645 450 0
71 -562 0
373 568 0
214 -266 0
59 -276 0
-449 294 0
354 -432 0
280 -154 0
-420 453 0
-560 -435 0
670 -596 0
-299 87 0
677 -406 0
-344 -27 0
-544 80 0
457 58 0
-132 -30 0
-667 -228 0
91 551 0
535 540 0
-406 -35 0
2 -356 0
607 211 0
415 -554 0
-348 -226 0
-615 471 0
124 -3 0
532 -64 0
486 -621 0
213 124 0
345 -276 0
-5 -197 0
616 -251 0
-417 -471 0
53 -102 0
-189 259 0
496 -587 0
302 -233 0
88 -545 0
251 -497 0
359 -27 0
-218 -577 0
-440 41 0
16 495 0
582 616 0
-330 658 0
619 259 0
396 674 0
536 -1 0
439 -133 0
606 -114 0
78 458 0
-38 -356 0
-234 -61 0
655 -38 0
-334 -272 0
182 387 0
-124 -356 0
-76 -329 0
455 570 0
-270 227 0
-592 369 0
519 -205 0
602 100 0
681 -478 0
-649 -75 0
132 -11 0
-192 77 0
502 -323 0
484 -499 0
-375 369 0
-353 496 0
148 23 0
-214 -592 0
-644 489 0
298 305 0
396 217 0
-326 569 0
-173 -265 0
-172 -400 0
-436 450 0
-151 -671 0
605 -194 0
108 -579 0
-61 80 0
575 104 0
191 -577 0
187 -590 0
281 -95 0
-273 -539 0
-47 352 0
12 -279 0
582 442 0
636 402 0
196 156 0
-556 531 0
7 -76 0
-306 187 0
-225 -447 0
497 261 0
-176 169 0
205 582 0
-260 281 0
-636 458 0
397 282 0
-424 296 0
-606 236 0
-437 -102 0
180 408 0
-69 -155 0
-87 -427 0
153 -400 0
507 -484 0
-266 20 0
58 -418 0
434 -114 0
186 -187 0
259 507 0
-355 -154 0
-483 244 0
28 227 0
-461 -480 0
322 310 0
-470 566 0
485 515 0
90 594 0
-306 -276 0
384 -670 0
423 188 0
-162 582 0
593 -501 0
-601 -318 0
-596 223 0
-130 344 0
-198 383 0
660 470 0
-260 605 0
-410 441 0
-566 -143 0
-274 -42 0
20 -264 0
359 -135 0
-225 -586 0
581 510 0
441 -485 0
18 250 0
66 123 0
485 -210 0
211 -436 0
445 -395 0
-327 -578 0
142 208 0
320 -639 0
-209 -88 0
-425 -430 0
-440 -433 0
250 -277 0
475 335 0
-460 -178 0
-259 77 0
573 660 0
21 -294 0
-25 -201 0
-340 -159 0
336 -382 0
-130 -524 0
-127 -501 0
-428 -34 0
478 -207 0
-562 -366 0
286 110 0
-292 247 0
486 -228 0
-92 520 0
-55 -101 0
-106 -526 0
63 -234 0
-526 580 0
-27 660 0
-416 -388 0
-394 99 0
301 59 0
338 244 0
402 665 0
184 -643 0
-60 524 0
-142 -391 0
124 533 0
-90 -36 0
659 483 0
115 -318 0
-75 -31 0
420 -636 0
477 507 0
-271 150 0
-416 382 0
99 551 0
62 -309 0
-107 127 0
-387 -313 0
-618 308 0
40 336 0
652 342 0
525 -253 0
404 33 0
211 603 0
-527 438 0
64 26 0
-556 -556 0
22 -406 0
496 575 0
113 -428 0
329 -25 0
-679 633 0
156 197 0
424 -670 0
-428 473 0
83 110 0
-38 -111 0
537 -175 0
59 -240 0
-514 2 0
-444 -621 0
156 -82 0
211 415 0
269 -293 0
-511 257 0
345 521 0
633 -35 0
-356 -96 0
116 -248 0
-265 268 0
138 45 0
-482 387 0
7 458 0
243 -556 0
65 584 0
-92 -669 0
435 291 0
-282 292 0
-252 -349 0
-16 -633 0
363 302 0
-496 346 0
-683 140 0
-399 614 0
-43 -572 0
-93 321 0
343 -137 0
25 -189 0
-510 203 0
-196 586 0
495 -318 0
-603 -343 0
-407 150 0
-147 -470 0
602 239 0
-77 -425 0
142 93 0
376 91 0
-317 -416 0
46 100 0
235 678 0
-642 25 0
628 -507 0
207 -409 0
-315 439 0
-443 495 0
-459 -205 0
-225 475 0
433 12 0
636 -132 0
544 -344 0
21 283 0
599 589 0
70 435 0
574 -75 0
396 179 0
-102 -512 0
-448 346 0
-446 -126 0
-186 21 0
-573 -396 0
305 -202 0
-675 -305 0
70 638 0
404 524 0
-316 -662 0
-187 83 0
-404 -635 0
-537 80 0
-493 -8 0
-404 -16 0
477 518 0
-394 240 0
-81 416 0
590 108 0
-632 -435 0
151 -590 0
-636 -357 0
281 -398 0
-470 -281 0
-502 -55 0
-487 -132 0
372 145 0
453 -462 0
487 -98 0
325 -233 0
-110 62 0
-8 -275 0
214 -634 0
672 -162 0
-196 -356 0
597 -38 0
-100 -170 0
-284 -194 0
-590 -48 0
449 486 0
-380 274 0
149 286 0
66 -381 0
-532 314 0
70 -636 0
-648 -192 0
250 -418 0
651 397 0
-483 83 0
121 169 0
619 -168 0
295 229 0
-535 622 0
-518 135 0
-269 -177 0
211 -305 0
-523 372 0
463 -561 0
456 57 0
117 -356 0
-230 -325 0
-565 596 0
-478 611 0
323 557 0
-389 -635 0
203 613 0
-583 -638 0
-256 -538 0
-111 -437 0
-284 -145 0
41 589 0
-206 -26 0
24 197 0
46 428 0
469 82 0
169 574 0
-88 -561 0
66 -653 0
66 -154 0
351 -593 0
-588 -301 0
-373 -90 0
-479 355 0
403 -328 0
-362 -427 0
339 250 0
-564 -631 0
417 -621 0
455 223 0
373 -394 0
-134 225 0
301 353 0
-106 115 0
73 481 0
-103 -134 0
-520 -375 0
441 -255 0
228 612 0
-113 -656 0
-69 -285 0
-409 -584 0
376 310 0
453 -88 0
498 140 0
404 164 0
-407 433 0
336 453 0
-599 131 0
267 -71 0
611 -672 0
-258 38 0
-373 -465 0
-150 -260 0
-555 -540 0
-363 -3 0
-133 517 0
-28 -130 0
219 -206 0
-204 -323 0
517 -425 0
-426 655 0
413 -660 0
-668 -470 0
-151 45 0
-69 -136 0
683 -52 0
629 -228 0
613 -385 0
-305 13 0
-277 -367 0
-331 109 0
-611 491 0
-135 -367 0
-460 271 0
394 -388 0
-176 457 0
-226 288 0
-525 478 0
-255 -571 0
160 -484 0
-563 366 0
-390 191 0
-248 -44 0
456 -264 0
-189 600 0
569 -667 0
-604 -523 0
160 367 0
-195 -69 0
-130 -338 0
457 -327 0
18 -417 0
-18 299 0
-386 -367 0
-364 -597 0
-384 164 0
-279 -119 0
495 31 0
-222 -99 0
-647 -656 0
-72 439 0
-654 -458 0
106 96 0
-111 -178 0
102 -159 0
684 417 0
310 -526 0
128 572 0
330 619 0
633 -583 0
-194 -610 0
537 405 0
-186 378 0
-540 -78 0
654 -360 0
-206 -575 0
-37 -632 0
564 -580 0
234 486 0
-411 -250 0
156 -20 0
499 477 0
470 -411 0
-615 -681 0
547 26 0
214 -125 0
589 -554 0
633 416 0
274 -375 0
348 -584 0
262 277 0
-246 637 0
91 -145 0
150 -532 0
380 410 0
453 629 0
83 25 0
-167 -141 0
-529 -57 0
-173 374 0
-465 516 0
-75 -624 0
-221 169 0
-668 346 0
-172 -479 0
-61 679 0
-506 -244 0
331 249 0
527 611 0
-150 -111 0
653 -167 0
400 582 0
-337 79 0
-317 420 0
557 -30 0
-672 409 0
-662 330 0
-505 109 0
23 92 0
-608 -327 0
-514 -51 0
437 144 0
567 15 0
515 -199 0
-654 -557 0
-14 -170 0
534 -565 0
-639 -379 0
-269 352 0
547 -173 0
-315 46 0
-134 85 0
-632 470 0
533 251 0
644 57 0
-475 -571 0
131 223 0
402 322 0
-65 -106 0
-394 671 0
116 -609 0
270 38 0
-561 64 0
507 219 0
531 478 0
516 617 0
352 31 0
-524 282 0
222 -169 0
676 -296 0
229 -609 0
251 27 0
282 550 0
449 -220 0
-643 626 0
-71 -640 0
-209 439 0
-420 262 0
-23 -448 0
-138 493 0
78 -461 0
-636 114 0
471 496 0
285 -606 0
-356 -441 0
288 -538 0
376 -559 0
45 566 0
-95 423 0
457 214 0
-81 -654 0
-424 -179 0
-307 291 0
-365 -501 0
29 -555 0
557 447 0
-38 -337 0
161 -43 0
-567 -573 0
-593 -529 0
-140 -231 0
486 418 0
-85 -306 0
184 -117 0
196 -135 0
217 570 0
-479 645 0
-106 308 0
-526 527 0
-521 281 0
-328 590 0
495 250 0
365 37 0
182 418 0
366 -317 0
-639 534 0
624 89 0
-638 -444 0
1 400 0
49 524 0
294 -329 0
-360 -229 0
-275 -213 0
149 411 0
327 473 0
594 -608 0
-190 -136 0
-405 303 0
-669 234 0
-400 -105 0
223 -191 0
116 149 0
-32 -42 0
-579 -306 0
660 -252 0
677 53 0
184 478 0
288 -195 0
-284 -35 0
378 150 0
173 28 0
652 363 0
191 -548 0
109 450 0
397 377 0
664 685 0
372 550 0
407 -480 0
-50 -363 0
600 -530 0
-70 -137 0
-272 -67 0
522 345 0
539 566 0
601 443 0
-272 465 0
-516 -226 0
374 -656 0
360 320 0
-63 527 0
-416 -111 0
-487 -126 0
336 -613 0
355 -313 0
-394 -364 0
242 53 0
358 633 0
129 61 0
99 -181 0
213 339 0
-118 -677 0
-255 418 0
-198 136 0
-428 188 0
531 110 0
661 297 0
-308 -181 0
589 389 0
-640 21 0
-20 598 0
-97 -607 0
503 -641 0
-153 271 0
-403 -662 0
-471 -286 0
363 -166 0
-310 -511 0
175 -38 0
223 101 0
-651 289 0
411 -669 0
433 -259 0
615 -631 0
570 130 0
-103 348 0
-344 -140 0
-673 -491 0
422 549 0
526 63 0
-446 624 0
578 -447 0
-305 -554 0
-149 -134 0
301 -628 0
-521 605 0
453 -653 0
282 -317 0
-154 144 0
-556 252 0
-331 614 0
-467 301 0
448 354 0
531 672 0
-220 -677 0
-85 370 0
-505 -416 0
-9 -402 0
227 -273 0
-364 -534 0
-81 -329 0
649 249 0
-201 240 0
-44 -157 0
-154 460 0
262 459 0
319 541 0
571 402 0
-505 462 0
-615 575 0
470 322 0
495 679 0
602 -236 0
-35 -93 0
-347 -488 0
-349 -580 0
-405 56 0
-515 -76 0
-111 619 0
-560 185 0
532 133 0
-264 70 0
-406 -556 0
-84 -632 0
222 -344 0
-645 54 0
466 -472 0
-596 246 0
-212 -368 0
233 -558 0
5 -326 0
428 456 0
653 203 0
-283 -352 0
-79 -381 0
262 588 0
-599 507 0
536 -170 0
250 -488 0
-293 -579 0
652 -434 0
-221 -438 0
-632 -209 0
252 119 0
457 -373 0
-571 538 0
315 257 0
614 195 0
-168 -173 0
-79 -184 0
-279 193 0
443 -220 0
291 3 0
-106 568 0
-21 -508 0
539 584 0
101 -27 0
-307 652 0
-488 -27 0
-452 -331 0
-431 353 0
-141 256 0
683 -488 0
15 61 0
-245 -233 0
666 57 0
482 -155 0
-645 276 0
-120 -28 0
634 -204 0
18 -538 0
616 -167 0
342 169 0
346 465 0
-25 -14 0
345 -679 0
-555 -256 0
-97 -340 0
-153 100 0
284 -174 0
-482 -480 0
-18 295 0
490 68 0
-379 -513 0
460 239 0
-514 273 0
-506 -272 0
-177 104 0
91 611 0
-263 527 0
320 238 0
512 251 0
266 -284 0
-538 -195 0
65 42 0
429 -669 0
487 -577 0
-383 -565 0
-607 238 0
116 527 0
-642 -320 0
-133 -536 0
-132 -283 0
-497 -84 0
-247 -360 0
-318 58 0
-559 498 0
-258 -527 0
340 1 0
-418 -178 0
653 384 0
502 -154 0
624 -358 0
-46 633 0
217 -388 0
544 -387 0
569 -25 0
74 -585 0
654 658 0
450 -270 0
-152 -6 0
371 -618 0
-141 530 0
-487 -478 0
-80 537 0
-44 575 0
308 83 0
37 -28 0
104 600 0
-500 -543 0
-99 -145 0
596 466 0
315 -581 0
289 220 0
-4 567 0
337 -555 0
-394 676 0
65 -646 0
-593 281 0
-160 -478 0
541 -282 0
-63 -81 0
-384 -463 0
-672 -561 0
-8 -138 0
-347 553 0
-152 38 0
-61 -349 0
149 431 0
532 586 0
631 23 0
-77 -329 0
537 325 0
-459 127 0
282 100 0
-645 -416 0
454 -656 0
-275 555 0
516 29 0
-195 -561 0
-206 675 0
-432 -534 0
-632 -299 0
-560 -680 0
-565 -492 0
-322 160 0
33 363 0
206 -482 0
114 516 0
-387 -246 0
142 -328 0
552 -558 0
-399 -32 0
127 -530 0
527 647 0
-465 -271 0
388 62 0
-431 -482 0
-550 532 0
97 -675 0
-222 245 0
605 -664 0
297 619 0
280 -302 0
-17 539 0
503 -515 0
-375 73 0
339 -585 0
444 269 0
612 314 0
494 577 0
635 -181 0
243 -137 0
-76 550 0
-316 -181 0
232 570 0
250 -482 0
679 -92 0
386 -62 0
447 -99 0
-396 536 0
-471 320 0
450 538 0
-92 26 0
-643 433 0
386 238 0
-98 378 0
469 362 0
-524 -639 0
-447 -473 0
26 -578 0
-493 -165 0
-583 232 0
184 -642 0
-639 -86 0
-463 594 0
124 342 0
377 -379 0
127 567 0
315 498 0
636 281 0
-518 -603 0
-190 -162 0
193 -327 0
624 -15 0
-648 -529 0
-5 -459 0
337 -88 0
-447 502 0
-674 144 0
545 -98 0
172 -195 0
-279 128 0
-250 386 0
-465 544 0
488 -31 0
672 531 0
-318 70 0
-672 -360 0
-258 48 0
-201 -231 0
-318 -297 0
647 -642 0
-356 -645 0
575 -492 0
-163 336 0
-375 395 0
38 314 0
-231 415 0
-336 -309 0
75 -253 0
-630 409 0
-125 -97 0
21 257 0
-583 326 0
-511 539 0
-118 -635 0
234 497 0
390 570 0
522 454 0
342 -583 0
-187 -639 0
-453 -61 0
86 533 0
-375 -586 0
158 149 0
-476 457 0
336 -398 0
666 -84 0
-645 443 0
186 -74 0
-243 67 0
-449 -148 0
219 -207 0
-181 296 0
211 627 0
-435 227 0
-662 -323 0
-174 -92 0
-576 -528 0
661 197 0
227 133 0
12 -598 0
-297 -247 0
-435 -256 0
39 -177 0
292 -129 0
-672 644 0
-553 197 0
250 496 0
-9 -315 0
287 -668 0
527 -126 0
-25 477 0
-404 -463 0
-573 -365 0
551 292 0
-648 575 0
444 -530 0
573 -607 0
100 276 0
-9 -188 0
-180 620 0
-295 -497 0
321 -398 0
-183 412 0
637 -34 0
417 -52 0
358 622 0
-353 574 0
-47 -329 0
28 1 0
372 -643 0
-126 -68 0
30 26 0
-16 20 0
-586 -656 0
-96 -5 0
597 -74 0
-565 182 0
-28 -322 0
176 -685 0
-331 -51 0
73 -107 0
-393 489 0
-640 87 0
-540 178 0
548 -461 0
592 -459 0
-94 -289 0
390 -263 0
-387 314 0
-213 -356 0
-103 462 0
254 212 0
86 304 0
536 41 0
49 -35 0
653 408 0
-74 617 0
-193 -226 0
-420 561 0
-412 472 0
-40 284 0
681 -527 0
341 -375 0
-448 476 0
-77 525 0
-329 -541 0
-673 247 0
174 -219 0
321 170 0
-593 437 0
167 -514 0
557 -258 0
654 -130 0
298 -486 0
-192 162 0
-452 -285 0
464 -237 0
284 454 0
150 192 0
559 -133 0
-545 620 0
-88 -252 0
270 29 0
301 -478 0
303 152 0
-644 -670 0
-15 -31 0
2 400 0
-221 127 0
433 650 0
532 -562 0
-331 -499 0
546 -272 0
54 -138 0
536 -215 0
-419 -62 0
-626 -468 0
600 -191 0
163 607 0
-488 453 0
-98 -104 0
-497 -312 0
-167 -413 0
-74 -400 0
-517 -641 0
-682 -206 0
-31 -508 0
-654 -264 0
274 -122 0
-74 -177 0
-526 -490 0
-323 -118 0
671 -323 0
-337 -152 0
-194 -531 0
-519 575 0
410 518 0
-30 542 0
-273 33 0
533 21 0
-560 666 0
-390 124 0
-576 -14 0
-584 239 0
336 -427 0
-663 -472 0
542 359 0
-263 369 0
72 -359 0
142 358 0
249 286 0
-505 56 0
574 -317 0
-177 36 0
-523 455 0
-568 -42 0
-637 59 0
-624 -448 0
257 443 0
-401 -237 0
324 -167 0
319 322 0
-90 429 0
-169 -590 0
-635 -487 0
-581 -411 0
-326 -464 0
524 -179 0
111 -183 0
-265 -356 0
16 -651 0
468 472 0
92 466 0
227 604 0
-522 247 0
-332 -42 0
348 564 0
-61 655 0
563 -625 0
335 -364 0
-390 557 0
441 125 0
-401 -664 0
50 -200 0
18 591 0
-656 340 0
637 -520 0
-92 -407 0
182 439 0
339 249 0
-209 -283 0
234 -225 0
467 -461 0
657 -116 0
586 -275 0
-56 -88 0
-525 45 0
469 374 0
312 -135 0
429 -161 0
319 611 0
-42 621 0
392 -511 0
87 -328 0
-236 140 0
282 -265 0
359 251 0
165 432 0
-634 684 0
-604 -573 0
450 -352 0
-210 -533 0
-90 267 0
575 165 0
475 -11 0
251 253 0
-87 121 0
-576 274 0
-6 575 0
-119 615 0
-118 -634 0
630 453 0
412 -26 0
-555 -639 0
-647 -669 0
627 -483 0
454 249 0
29 390 0
282 -578 0
-182 657 0
-676 254 0
389 304 0
-460 -580 0
591 185 0
-181 -132 0
-470 -107 0
-172 -486 0
670 -27 0
-236 -649 0
59 321 0
-440 23 0
506 -593 0
502 508 0
-253 40 0
567 541 0
-271 -528 0
616 376 0
524 536 0
22 -586 0
-654 -92 0
652 -132 0
-201 -672 0
-4 450 0
666 48 0
579 -668 0
-648 636 0
-328 -80 0
414 -650 0
660 -288 0
-206 -323 0
-552 -583 0
-431 335 0
-199 295 0
-475 -162 0
417 413 0
32 142 0
-515 183 0
681 446 0
-514 -632 0
-193 -10 0
456 -34 0
-4 489 0
675 -305 0
626 -261 0
-47 -580 0
-593 -106 0
401 -580 0
652 -502 0
417 -13 0
320 235 0
-641 -625 0
-641 -373 0
-120 479 0
-518 442 0
-224 217 0
-305 -545 0
-269 322 0
67 461 0
647 495 0
-130 651 0
-394 -165 0
232 -361 0
-246 41 0
-159 510 0
569 -476 0
509 -11 0
-384 418 0
512 556 0
-446 -153 0
-552 -627 0
-328 -158 0
529 -608 0
-530 -187 0
-616 -499 0
-34 -81 0
264 -105 0
670 531 0
-134 -187 0
-42 91 0
-194 -247 0
684 -30 0
539 -47 0
-608 225 0
218 244 0
95 -543 0
17 -143 0
632 247 0
-591 -79 0
680 -638 0
-83 -492 0
-145 492 0
116 150 0
-6 -646 0
442 -447 0
-359 388 0
427 484 0
126 -90 0
569 -76 0
-657 392 0
156 -550 0
-634 -165 0
601 439 0
-399 272 0
-634 268 0
-482 -237 0
22 266 0
473 -116 0
-667 494 0
-511 340 0
-15 495 0
-668 87 0
-36 185 0
19 337 0
-403 655 0
462 348 0
548 -117 0
-369 -181 0
147 -273 0
530 402 0
150 -362 0
-230 -260 0
142 352 0
489 148 0
617 121 0
-316 -24 0
576 244 0
36 369 0
-640 -426 0
-373 -545 0
51 -576 0
-501 -215 0
-201 -49 0
-602 268 0
-427 -610 0
-179 528 0
644 335 0
-16 -624 0
-535 -493 0
-514 -402 0
-31 -637 0
-608 456 0
108 310 0
-206 -487 0
225 -587 0
495 -276 0
18 284 0
11 -391 0
-596 -28 0
517 362 0
514 -487 0
503 357 0
-432 -269 0
169 235 0
-52 -105 0
32 369 0
100 -679 0
-253 614 0
-677 380 0
227 -225 0
-382 -125 0
-301 444 0
685 -368 0
-151 -496 0
-4 -663 0
-133 -608 0
623 -561 0
503 235 0
-668 -565 0
-579 388 0
-352 -102 0
616 -667 0
-399 116 0
-334 119 0
-336 557 0
19 599 0
-606 614 0
-323 -63 0
566 666 0
600 -219 0
661 -284 0
-666 -625 0
-607 642 0
-258 201 0
10 262 0
89 -130 0
512 -208 0
-95 365 0
-384 657 0
-18 -297 0
325 -152 0
-307 -571 0
-32 251 0
82 -135 0
-213 -95 0
-411 -527 0
-328 455 0
-597 527 0
-128 574 0
473 -457 0
212 182 0
-593 -60 0
102 -383 0
-186 549 0
397 196 0
340 -180 0
-128 584 0
359 54 0
550 -302 0
515 1 0
175 -313 0
-108 -47 0
-488 -145 0
-336 458 0
562 -44 0
553 -48 0
-396 238 0
-643 596 0
333 -187 0
503 378 0
330 -618 0
320 660 0
-75 42 0
-92 -453 0
-316 -313 0
620 -11 0
-541 626 0
676 534 0
-638 -141 0
-480 508 0
285 271 0
-422 -349 0
-506 -385 0
581 372 0
-607 -497 0
-209 -318 0
-676 -603 0
278 73 0
-115 -44 0
-310 486 0
54 459 0
250 -348 0
-302 -94 0
-62 338 0
520 -492 0
-395 196 0
458 613 0
-96 -192 0
-587 674 0
137 142 0
-427 -210 0
483 498 0
677 653 0
-317 214 0
627 -6 0
7 95 0
-173 -556 0
567 557 0
667 -79 0
-172 438 0
121 -208 0
-192 -211 0
-497 -177 0
-373 -622 0
376 -153 0
-465 371 0
-138 185 0
338 -637 0
-609 409 0
-166 -61 0
-538 -266 0
-274 -287 0
50 -470 0
-310 658 0
-130 -663 0
104 319 0
629 441 0
-639 -596 0
444 191 0
-560 95 0
517 -509 0
-232 -597 0
-556 526 0
281 -601 0
29 -443 0
524 502 0
-664 477 0
-316 -255 0
-82 531 0
-588 -630 0
50 214 0
-431 -619 0
-529 -497 0
614 440 0
-153 210 0
197 671 0
150 -449 0
-349 -311 0
203 601 0
142 -12 0
600 -447 0
36 86 0
156 484 0
-590 -84 0
63 456 0
-10 -648 0
-596 -287 0
-330 -30 0
261 -368 0
-327 -204 0
-145 626 0
-178 -596 0
-214 -360 0
245 -181 0
393 121 0
-138 239 0
-88 -408 0
24 562 0
472 611 0
-372 685 0
-390 -619 0
574 -177 0
156 499 0
-116 -248 0
-552 -182 0
491 63 0
258 -207 0
378 300 0
-555 297 0
-200 -530 0
-240 515 0
-248 462 0
459 671 0
160 -588 0
-529 268 0
173 -242 0
229 -431 0
-344 -480 0
22 -298 0
-437 -367 0
587 -409 0
569 255 0
533 376 0
237 352 0
677 -452 0
617 256 0
26 -187 0
494 134 0
-314 -426 0
290 582 0
152 683 0
-573 -114 0
290 581 0
393 172 0
622 402 0
63 -155 0
238 87 0
-190 -226 0
663 374 0
-368 8 0
-586 -675 0
-428 19 0
-143 -446 0
288 -674 0
399 -631 0
574 -360 0
-284 -302 0
-501 429 0
-504 464 0
63 -187 0
-363 149 0
168 612 0
174 535 0
434 -596 0
297 -88 0
-189 -543 0
261 245 0
312 -639 0
91 -409 0
388 -649 0
-78 -416 0
-337 -248 0
-618 477 0
-52 -90 0
434 -36 0
650 465 0
49 -526 0
-680 -332 0
568 -602 0
229 -262 0
-395 358 0
631 -389 0
445 660 0
595 -428 0
653 -108 0
401 63 0
29 507 0
-577 685 0
-387 -102 0
-11 -225 0
-35 175 0
564 154 0
23 210 0
404 564 0
597 12 0
-626 567 0
-316 136 0
244 -636 0
145 -27 0
-347 449 0
-240 26 0
-259 -90 0
345 46 0
458 -154 0
417 -545 0
-209 539 0
-567 -152 0
-623 -482 0
354 -102 0
144 -510 0
-248 460 0
-445 516 0
-152 390 0
563 -460 0
-20 -356 0
-277 -521 0
353 586 0
445 596 0
