c bounds 45 45
p cnf 235 494
-137 7 0
25 166 0
8 -88 0
161 34 0
148 -101 0
-233 -2 0
-212 163 0
69 180 0
-48 219 0
-203 -201 0
-154 131 0
-79 68 0
-165 54 0
-152 182 0
119 60 0
229 -205 0
-15 -101 0
-67 -208 0
49 -220 0
-193 10 0
42 38 0
-219 -233 0
200 -193 0
-58 92 0
-86 -103 0
-70 -3 0
59 75 0
-128 98 0
102 -178 0
232 178 0
-168 -55 0
-133 150 0
37 228 0
213 -191 0
209 -193 0
-116 81 0
151 -66 0
-9 -191 0
43 224 0
-55 235 0
-27 199 0
-219 -225 0
-191 -235 0
35 -41 0
-157 1 0
235 -127 0
229 11 0
-47 31 0
-187 235 0
-198 -55 0
-34 136 0
-65 38 0
-226 88 0
-54 -2 0
-4 14 0
-206 -123 0
21 102 0
217 217 0
72 20 0
221 -119 0
65 214 0
-78 -203 0
95 215 0
125 -197 0
93 -216 0
94 34 0
-202 -152 0
-230 -113 0
-191 212 0
-52 166 0
178 17 0
49 230 0
98 45 0
227 24 0
-126 8 0
-69 50 0
52 -192 0
135 -233 0
161 190 0
51 -148 0
-79 121 0
50 160 0
50 -23 0
-175 34 0
-16 -4 0
77 -77 0
3 136 0
44 18 0
42 94 0
14 -193 0
44 -91 0
-184 52 0
139 153 0
-17 -88 0
9 138 0
-173 15 0
75 -135 0
12 147 0
232 -47 0
160 -29 0
-217 -212 0
182 -67 0
-109 35 0
150 -70 0
223 21 0
-233 53 0
123 -16 0
60 88 0
-126 37 0
93 138 0
-38 -101 0
121 72 0
90 -3 0
232 144 0
96 72 0
-201 -217 0
-67 -18 0
107 227 0
223 -163 0
31 46 0
189 -174 0
-86 197 0
-233 94 0
229 -121 0
-148 -101 0
117 57 0
-168 -88 0
-182 -26 0
-19 76 0
-184 34 0
-20 -126 0
-74 73 0
-147 -225 0
22 144 0
120 95 0
6 -180 0
171 22 0
133 108 0
44 1 0
160 146 0
-80 140 0
-233 161 0
37 -164 0
-204 -122 0
-13 -185 0
84 -58 0
202 190 0
-70 -215 0
-222 -128 0
-87 -62 0
-36 -220 0
-168 36 0
-142 107 0
135 -182 0
1 143 0
-186 165 0
-6 221 0
125 125 0
96 -208 0
-203 -26 0
63 60 0
-122 110 0
136 -179 0
-136 184 0
208 -116 0
-27 87 0
-30 75 0
29 189 0
-233 112 0
-165 -5 0
-29 -12 0
9 -203 0
143 52 0
-174 42 0
-188 -44 0
-187 -32 0
68 87 0
-41 -185 0
-168 -226 0
-182 -205 0
158 151 0
-33 -67 0
-165 147 0
7 -119 0
214 -206 0
-181 -217 0
39 -195 0
-193 -33 0
-218 150 0
80 -216 0
131 204 0
49 90 0
-65 139 0
-66 24 0
80 7 0
-67 -58 0
-44 140 0
156 223 0
-126 112 0
-4 36 0
125 75 0
-206 -65 0
151 75 0
-121 -94 0
-129 -13 0
-232 31 0
-154 -223 0
-172 213 0
-129 66 0
165 -122 0
117 -191 0
189 15 0
-198 60 0
35 157 0
-103 18 0
159 -99 0
134 150 0
-209 -42 0
-141 232 0
80 -165 0
200 -17 0
129 93 0
199 -86 0
44 12 0
-97 -90 0
-10 73 0
-21 79 0
-39 180 0
-2 -142 0
-155 191 0
-54 -147 0
-16 -51 0
-45 178 0
-59 68 0
-54 123 0
31 185 0
-82 -177 0
27 -222 0
-14 -147 0
34 222 0
-11 -210 0
184 179 0
174 105 0
30 -168 0
-36 58 0
-202 -154 0
-55 73 0
65 213 0
90 50 0
215 -127 0
-1 -234 0
105 156 0
85 94 0
-98 92 0
-17 -152 0
-154 150 0
211 -153 0
-217 -67 0
-119 139 0
50 36 0
-25 -116 0
-66 136 0
68 -106 0
66 211 0
174 -234 0
102 -98 0
-79 -210 0
212 169 0
113 211 0
-43 -193 0
-127 -212 0
159 -99 0
-36 229 0
59 146 0
170 -163 0
85 20 0
136 44 0
-215 -138 0
-13 -106 0
-90 5 0
-167 -41 0
-215 155 0
-158 -228 0
-182 -56 0
84 -51 0
-31 -47 0
123 133 0
157 -177 0
-28 -169 0
61 35 0
-107 -129 0
59 44 0
155 -30 0
225 -182 0
-4 51 0
-13 40 0
-6 139 0
32 -106 0
189 -97 0
-155 222 0
166 -6 0
73 -198 0
136 96 0
9 -195 0
144 -207 0
-214 -191 0
-45 92 0
157 -113 0
56 -14 0
200 164 0
-218 -151 0
156 -3 0
156 87 0
131 -148 0
-109 170 0
225 189 0
-88 -135 0
220 -216 0
11 -166 0
161 123 0
220 -114 0
-226 207 0
-5 28 0
211 111 0
208 -187 0
-63 -127 0
-113 234 0
-127 -231 0
-62 201 0
-113 163 0
46 -165 0
-95 -16 0
-146 129 0
59 -191 0
-13 75 0
-100 117 0
114 66 0
190 68 0
138 140 0
211 -185 0
220 -53 0
137 -116 0
-147 -143 0
211 -223 0
-127 -226 0
-119 -101 0
-29 -115 0
92 -77 0
-10 108 0
38 200 0
-111 -122 0
126 -28 0
179 78 0
-25 -56 0
144 24 0
93 169 0
-110 74 0
7 112 0
151 -233 0
-216 -61 0
-206 -73 0
-142 -142 0
104 74 0
-119 31 0
-116 -101 0
-43 -26 0
-44 -202 0
-119 14 0
149 213 0
-220 156 0
93 134 0
-109 12 0
60 134 0
185 -119 0
-142 98 0
-220 -28 0
-196 185 0
-110 -224 0
-100 -36 0
76 131 0
37 84 0
20 -36 0
-209 -142 0
-127 -202 0
-57 34 0
69 -117 0
211 -135 0
-14 141 0
-30 214 0
-18 225 0
208 152 0
156 -173 0
199 192 0
-106 -147 0
208 -54 0
-198 -186 0
184 171 0
1 -227 0
4 141 0
63 12 0
121 196 0
-51 -172 0
69 -101 0
-23 -64 0
138 -132 0
56 -194 0
76 79 0
150 130 0
-119 212 0
50 -218 0
144 -16 0
-155 131 0
83 -16 0
-172 89 0
-36 -9 0
-216 134 0
-233 58 0
-195 214 0
-124 -78 0
6 -95 0
-47 219 0
109 -27 0
-144 102 0
93 -102 0
74 -85 0
-140 -47 0
-134 164 0
-72 178 0
-23 158 0
128 223 0
-203 194 0
214 38 0
-21 -70 0
-101 -39 0
20 20 0
-79 -20 0
-187 -233 0
157 -52 0
225 35 0
175 -40 0
-27 -101 0
-130 -90 0
-71 162 0
226 -130 0
-122 -218 0
-32 134 0
34 171 0
-203 -177 0
174 -216 0
-100 -56 0
-205 27 0
-145 70 0
87 163 0
183 176 0
-168 96 0
111 -17 0
165 72 0
-229 -124 0
227 -3 0
-172 234 0
-158 -234 0
140 -111 0
81 80 0
-99 -71 0
140 7 0
234 -201 0
159 73 0
150 -32 0
-226 -126 0
171 -137 0
-30 -87 0
70 7 0
-90 72 0
-21 54 0
76 164 0
32 164 0
-9 -231 0
-183 50 0
-19 -39 0
124 -119 0
45 183 0
-124 -4 0
-143 -3 0
97 183 0
-129 20 0
-4 -77 0
-114 78 0
-206 124 0
208 -210 0
184 -196 0
136 -27 0
43 227 0
161 156 0
223 216 0
