c bounds 27 27
p cnf 235 776
-16 197 0
197 1 0
-161 -101 0
-28 131 0
-60 35 0
80 224 0
218 -7 0
-123 46 0
26 218 0
-77 222 0
229 -8 0
-86 127 0
-21 43 0
72 -229 0
-71 51 0
87 9 0
131 -228 0
18 21 0
-159 177 0
-144 129 0
-190 -57 0
90 -233 0
216 -13 0
-115 202 0
-50 136 0
-207 152 0
-177 -161 0
-144 -122 0
108 -23 0
211 147 0
11 216 0
22 138 0
-168 -189 0
140 -19 0
71 109 0
-45 -184 0
128 -229 0
176 193 0
-154 -36 0
216 -195 0
93 139 0
-133 226 0
37 -56 0
-121 -230 0
-181 -78 0
146 21 0
-221 16 0
190 -188 0
5 -60 0
81 141 0
-34 15 0
-102 -29 0
227 -223 0
149 52 0
-40 214 0
-137 -100 0
-174 -187 0
151 112 0
189 144 0
-97 -69 0
-179 -201 0
6 6 0
-165 -122 0
-184 -115 0
-150 22 0
214 117 0
-178 45 0
84 200 0
-24 65 0
-18 86 0
-220 55 0
-162 72 0
163 -143 0
195 -221 0
-155 119 0
-87 21 0
9 -96 0
198 -101 0
-231 233 0
-155 170 0
80 65 0
-227 121 0
-39 -2 0
22 -210 0
-150 126 0
9 32 0
-202 -178 0
89 87 0
-173 -75 0
-125 137 0
-217 121 0
-196 57 0
-174 -16 0
-159 -171 0
192 72 0
-34 163 0
193 -235 0
-228 116 0
-211 -234 0
-112 136 0
-91 -75 0
168 -163 0
-17 -139 0
32 -116 0
-33 73 0
200 182 0
197 138 0
-186 -14 0
-160 102 0
172 121 0
195 -159 0
69 31 0
-61 124 0
-40 1 0
174 57 0
156 -81 0
-45 -86 0
67 194 0
100 -96 0
226 36 0
-137 -53 0
42 -215 0
13 -81 0
-136 172 0
94 -165 0
-134 -181 0
166 150 0
138 9 0
-114 113 0
-77 206 0
-230 131 0
27 -233 0
-225 221 0
-47 -173 0
-110 -160 0
-145 -76 0
-30 -230 0
29 -61 0
111 195 0
-18 -124 0
13 19 0
78 -154 0
6 203 0
31 -83 0
165 -19 0
-130 57 0
-101 -215 0
-212 162 0
-211 151 0
-22 195 0
234 18 0
-178 -41 0
-22 -143 0
97 156 0
-53 188 0
-217 138 0
-208 -224 0
130 74 0
42 21 0
-93 -32 0
96 182 0
12 175 0
-105 187 0
-160 85 0
13 -54 0
104 103 0
194 -202 0
-144 26 0
136 -116 0
48 199 0
76 35 0
120 -27 0
169 167 0
-77 179 0
147 -177 0
56 -19 0
-184 161 0
-81 -189 0
-80 65 0
217 -88 0
1 -27 0
206 -232 0
-149 167 0
-156 192 0
57 -224 0
93 60 0
-32 -83 0
34 1 0
-60 -183 0
136 -218 0
-208 202 0
14 204 0
-201 -132 0
-73 -144 0
206 -234 0
158 -224 0
94 -185 0
-176 21 0
228 -183 0
-54 188 0
-39 110 0
176 10 0
144 59 0
206 -218 0
-7 -124 0
77 -169 0
161 50 0
223 222 0
-226 135 0
-60 127 0
-176 -96 0
208 117 0
-184 135 0
47 67 0
-32 205 0
32 -189 0
-233 221 0
-86 -177 0
-125 -125 0
10 -58 0
-110 -180 0
-133 207 0
220 6 0
-76 -124 0
83 -77 0
92 -221 0
-160 -111 0
182 -223 0
-177 142 0
-90 139 0
-223 118 0
35 -30 0
94 -85 0
162 183 0
92 148 0
-123 -37 0
-115 15 0
-20 -73 0
142 2 0
6 -235 0
103 -49 0
192 153 0
188 162 0
20 108 0
-88 -28 0
216 -15 0
42 123 0
-65 22 0
44 -214 0
-18 52 0
-73 -58 0
-233 -16 0
62 -207 0
11 -193 0
-189 -232 0
-34 -84 0
-133 -163 0
-88 -229 0
-178 -207 0
68 61 0
-208 -163 0
132 -51 0
223 118 0
-128 204 0
-80 84 0
-2 -230 0
-7 -135 0
81 93 0
200 66 0
-107 -67 0
79 -205 0
-125 -168 0
-79 3 0
-168 182 0
-173 -230 0
-179 -61 0
225 87 0
-167 21 0
-53 -219 0
72 -109 0
71 -169 0
-192 -35 0
178 -40 0
178 -143 0
35 -107 0
157 -112 0
195 -164 0
147 36 0
145 11 0
119 -177 0
71 -45 0
131 -134 0
79 148 0
-225 -124 0
197 -82 0
-96 67 0
90 -175 0
-205 16 0
86 3 0
2 219 0
87 213 0
-53 -52 0
-167 -4 0
-125 -198 0
42 -72 0
-155 -205 0
-208 -87 0
-220 150 0
-14 -207 0
-212 120 0
-196 -191 0
-67 162 0
-208 223 0
-35 -170 0
194 -18 0
-107 -32 0
42 -94 0
-232 85 0
36 -62 0
179 147 0
-163 204 0
66 -114 0
-160 -115 0
129 195 0
43 -210 0
-170 -49 0
11 -77 0
38 -180 0
130 -193 0
22 166 0
127 155 0
208 113 0
63 -64 0
101 -174 0
-68 -173 0
216 23 0
137 -91 0
-87 -107 0
-85 106 0
-174 -139 0
-140 6 0
154 152 0
144 -213 0
-102 21 0
-163 -150 0
185 226 0
-156 195 0
-140 148 0
-7 101 0
-180 167 0
97 -204 0
-226 -112 0
-154 145 0
43 156 0
-91 -148 0
97 118 0
178 55 0
77 31 0
198 45 0
158 12 0
52 -154 0
179 34 0
119 14 0
-134 178 0
66 -11 0
-23 177 0
113 -219 0
-100 154 0
50 227 0
121 226 0
-75 -98 0
-16 -175 0
110 -234 0
-210 207 0
38 30 0
-88 194 0
191 171 0
171 -11 0
229 191 0
-39 122 0
151 -74 0
147 116 0
147 48 0
61 30 0
-215 225 0
176 127 0
-17 -155 0
-101 159 0
14 15 0
-150 174 0
205 -100 0
89 -155 0
131 137 0
59 222 0
80 -86 0
-77 -187 0
-47 208 0
-202 193 0
100 37 0
-159 -156 0
-52 12 0
42 -212 0
147 -221 0
-60 -150 0
30 -4 0
44 56 0
-165 -205 0
85 -16 0
200 132 0
-163 -108 0
-90 -61 0
-212 -186 0
50 -134 0
209 135 0
-6 108 0
-181 -27 0
-25 -61 0
-190 -118 0
87 166 0
-61 208 0
-19 113 0
97 -107 0
-171 -83 0
-180 58 0
147 -208 0
-178 93 0
31 76 0
170 -231 0
-15 -163 0
3 34 0
-211 228 0
111 -149 0
-216 -213 0
-151 -34 0
-168 226 0
-34 185 0
-23 93 0
-85 148 0
222 127 0
164 -184 0
-177 -11 0
-116 -177 0
226 -62 0
232 -204 0
-98 -7 0
72 -205 0
-78 109 0
-18 68 0
-23 132 0
167 32 0
-123 44 0
-196 178 0
5 71 0
151 49 0
172 -121 0
-19 -88 0
182 -170 0
-29 206 0
72 -100 0
11 161 0
69 -41 0
192 -54 0
-8 136 0
-48 52 0
31 2 0
-7 -61 0
76 -223 0
-17 40 0
-183 -167 0
79 162 0
-212 194 0
-149 -54 0
-211 -216 0
103 -187 0
-188 -212 0
-123 -49 0
21 -137 0
44 -231 0
-104 162 0
209 -52 0
-170 -112 0
195 -180 0
-30 -170 0
-17 -49 0
106 -76 0
11 106 0
-170 -32 0
194 57 0
102 -184 0
-100 152 0
223 84 0
-125 195 0
68 125 0
113 101 0
55 178 0
-213 -154 0
-125 -4 0
-124 26 0
195 178 0
13 -37 0
3 129 0
-82 -4 0
-4 173 0
65 144 0
-231 117 0
-182 -233 0
-39 37 0
142 -59 0
-225 227 0
-29 -17 0
-40 39 0
131 179 0
-53 64 0
-23 -115 0
-47 -58 0
31 58 0
206 -98 0
-62 71 0
-73 22 0
47 131 0
-61 73 0
166 -125 0
-61 8 0
-176 55 0
58 111 0
132 79 0
-96 -155 0
-234 -74 0
166 185 0
113 94 0
-59 56 0
73 10 0
-160 12 0
65 -186 0
98 193 0
26 -154 0
95 50 0
37 -200 0
91 -157 0
-145 9 0
-4 131 0
42 151 0
-205 -19 0
139 -112 0
-141 57 0
166 68 0
-60 -217 0
195 -190 0
-40 33 0
-98 219 0
-218 -207 0
-223 -235 0
-74 -198 0
57 -193 0
-217 31 0
101 57 0
60 92 0
78 161 0
12 147 0
118 228 0
142 180 0
113 -74 0
164 -40 0
11 -105 0
126 -85 0
111 -143 0
118 118 0
119 157 0
-172 44 0
-90 218 0
93 -49 0
86 -133 0
78 -153 0
-212 6 0
124 172 0
-214 -71 0
-133 -76 0
145 -233 0
182 -125 0
6 102 0
-145 71 0
171 166 0
12 219 0
120 -156 0
-60 -74 0
3 -224 0
162 135 0
65 161 0
184 43 0
-210 158 0
-184 -77 0
-134 -126 0
126 223 0
71 -88 0
-19 -231 0
91 -169 0
123 -228 0
104 66 0
-80 -59 0
131 -96 0
166 -102 0
-8 -156 0
65 202 0
116 -233 0
163 -90 0
-209 99 0
113 -128 0
119 163 0
105 -175 0
187 -221 0
-204 -150 0
133 -75 0
144 1 0
151 -69 0
-196 7 0
200 95 0
-112 -24 0
234 -143 0
-212 173 0
216 -128 0
233 144 0
71 166 0
-187 -160 0
-104 -175 0
74 -224 0
-79 203 0
-218 126 0
148 84 0
-17 -125 0
-80 151 0
-195 -17 0
199 50 0
180 -23 0
35 -120 0
226 -205 0
-112 81 0
158 -2 0
-200 -184 0
-28 60 0
130 66 0
-163 166 0
-81 -227 0
145 80 0
215 206 0
-175 35 0
136 177 0
235 -115 0
203 71 0
-170 -8 0
141 141 0
-201 163 0
-150 -228 0
-32 -86 0
-221 121 0
-109 -220 0
69 94 0
139 -19 0
-29 -217 0
-91 49 0
-229 40 0
188 5 0
178 199 0
218 -155 0
-115 -119 0
68 42 0
-228 -199 0
36 187 0
26 36 0
111 78 0
-174 -61 0
76 -75 0
147 -20 0
-185 2 0
127 133 0
152 117 0
66 26 0
-157 79 0
-86 195 0
-223 56 0
-19 -3 0
-52 99 0
148 -211 0
-156 131 0
-100 -201 0
-218 -140 0
-96 127 0
-202 145 0
197 208 0
-188 166 0
-4 -186 0
140 14 0
66 60 0
-27 -33 0
-181 214 0
-93 162 0
-160 -110 0
122 -86 0
-134 -143 0
-39 -75 0
3 -70 0
92 -203 0
46 66 0
-167 -76 0
26 -80 0
203 -104 0
-152 -49 0
9 64 0
-23 94 0
-189 -7 0
-165 -21 0
14 -15 0
89 65 0
-47 -41 0
-126 -85 0
207 -115 0
52 69 0
178 -8 0
-173 -187 0
-227 -184 0
-53 51 0
-117 106 0
132 -232 0
1 118 0
179 -124 0
186 141 0
42 -33 0
150 3 0
71 -173 0
-89 65 0
69 13 0
-174 82 0
149 -74 0
-205 -1 0
56 -134 0
14 -211 0
57 76 0
-8 232 0
174 -53 0
110 72 0
123 97 0
-105 -202 0
-185 -67 0
-183 1 0
92 -166 0
-139 166 0
46 -170 0
49 121 0
-52 179 0
200 -96 0
-223 104 0
-184 69 0
55 206 0
13 -230 0
167 -19 0
-140 114 0
-29 136 0
166 -124 0
69 227 0
-123 -38 0
-21 -229 0
-79 22 0
139 84 0
-62 171 0
168 25 0
-156 182 0
-136 -177 0
198 80 0
-147 26 0
-91 -59 0
44 190 0
-215 183 0
103 -114 0
214 114 0
-15 119 0
227 122 0
-205 -20 0
