c bounds 67 67
p cnf 145 102
141 -20 0
100 -97 0
117 76 0
72 9 0
144 -25 0
125 -3 0
-97 -7 0
-22 -142 0
-106 114 0
-65 -6 0
8 31 0
59 -136 0
-34 57 0
-126 142 0
-115 16 0
-44 52 0
-51 140 0
91 -82 0
30 27 0
69 -29 0
-30 -124 0
-99 -10 0
135 42 0
-122 -110 0
87 -74 0
140 13 0
-142 15 0
-5 -113 0
127 2 0
69 102 0
-29 134 0
-75 39 0
-33 -29 0
124 -45 0
-23 -62 0
105 52 0
129 -112 0
-130 86 0
61 -37 0
61 71 0
-88 -60 0
-93 -27 0
96 19 0
122 40 0
-113 -79 0
-75 86 0
90 -44 0
129 109 0
109 40 0
-139 43 0
-12 -84 0
-124 -31 0
-104 -78 0
54 57 0
46 -54 0
61 -111 0
-14 -99 0
-4 -1 0
-63 33 0
-122 57 0
120 6 0
38 67 0
7 -77 0
-43 125 0
-51 87 0
93 34 0
-69 56 0
-22 137 0
-1 80 0
126 -111 0
140 -58 0
8 -104 0
-140 35 0
93 -28 0
73 23 0
-87 86 0
118 40 0
-135 92 0
105 136 0
-19 -103 0
35 66 0
-12 125 0
-105 13 0
53 -21 0
22 -113 0
8 -7 0
12 -93 0
-104 -106 0
95 -48 0
126 -97 0
-46 131 0
-41 -110 0
56 104 0
-55 144 0
-123 -105 0
33 -22 0
87 -125 0
-28 86 0
-56 -115 0
-25 -123 0
-106 83 0
71 -103 0
