c bounds 74 74
p cnf 190 171
6 -163 0
117 54 0
-153 169 0
-136 176 0
-127 -157 0
101 -102 0
-171 111 0
27 -39 0
141 51 0
41 84 0
-135 -75 0
-178 -61 0
-71 121 0
-120 74 0
141 -65 0
-182 27 0
-16 93 0
-188 -120 0
-79 -73 0
78 -124 0
186 48 0
-12 21 0
108 -64 0
-116 -115 0
-164 -17 0
168 -120 0
-87 133 0
-77 -154 0
158 62 0
-157 101 0
-134 -138 0
-150 -126 0
45 -83 0
-161 -66 0
-84 -61 0
-18 -61 0
-116 -124 0
-111 122 0
-17 69 0
-130 127 0
-29 -2 0
-86 -42 0
-61 -139 0
-21 159 0
-125 -109 0
18 -174 0
35 -60 0
-23 28 0
-56 -182 0
128 166 0
68 -28 0
-67 -180 0
-61 46 0
135 149 0
59 -135 0
45 -98 0
88 56 0
-75 -182 0
174 -70 0
-150 125 0
-83 -130 0
-97 107 0
37 -4 0
63 43 0
-30 160 0
-23 117 0
6 24 0
84 -38 0
111 -23 0
-49 -125 0
177 -134 0
-170 -71 0
159 -35 0
131 -59 0
84 -43 0
-187 -98 0
56 -25 0
37 -71 0
-180 11 0
139 -110 0
157 -48 0
106 44 0
-39 -6 0
81 -184 0
44 -26 0
18 -24 0
-34 77 0
169 90 0
104 -167 0
100 133 0
160 92 0
-70 -163 0
130 -97 0
-167 67 0
-115 115 0
-181 -72 0
-132 118 0
-97 -53 0
4 32 0
-109 97 0
-34 65 0
125 -67 0
-17 178 0
160 115 0
-20 -121 0
-38 138 0
-56 128 0
5 158 0
104 -163 0
133 -12 0
-29 -45 0
37 37 0
-134 65 0
173 -13 0
8 39 0
45 -131 0
-87 44 0
179 137 0
-165 -52 0
-61 155 0
76 120 0
-132 95 0
-11 -111 0
-117 -16 0
56 119 0
-12 159 0
189 91 0
57 53 0
-124 -31 0
65 -51 0
-36 -157 0
-181 172 0
-42 -114 0
-170 113 0
41 -143 0
-110 37 0
-148 -89 0
-129 129 0
2 114 0
-172 -162 0
-33 -93 0
-12 -120 0
-83 -98 0
31 178 0
109 -53 0
-166 101 0
-73 -23 0
-115 96 0
-188 78 0
-177 -102 0
72 111 0
85 119 0
-148 17 0
101 -147 0
-154 -117 0
14 -153 0
3 45 0
115 63 0
-147 43 0
-164 7 0
57 57 0
26 56 0
183 -68 0
-42 159 0
37 -168 0
-16 111 0
-146 -11 0
-153 166 0
177 45 0
-48 -15 0
27 -134 0
