c bounds 39 39
p cnf 190 323
-69 -21 0
-118 -167 0
-7 -127 0
103 108 0
-39 65 0
3 -38 0
-129 62 0
-45 159 0
63 103 0
134 -94 0
-163 122 0
-30 70 0
93 88 0
-4 -44 0
-70 -68 0
49 188 0
-167 -135 0
59 -86 0
-175 -39 0
97 -11 0
2 -10 0
-141 -144 0
105 -94 0
-109 45 0
-23 18 0
-140 -72 0
-86 -47 0
185 144 0
-69 -134 0
-141 114 0
-180 103 0
1 -146 0
-120 -104 0
-172 123 0
121 -37 0
176 -66 0
-164 65 0
186 186 0
23 -152 0
116 160 0
-135 25 0
21 93 0
-79 -140 0
175 75 0
126 -105 0
55 -140 0
-185 -47 0
-47 35 0
60 159 0
-29 -179 0
61 150 0
-156 -58 0
89 -94 0
-28 166 0
130 117 0
132 3 0
2 159 0
60 56 0
-51 -28 0
-15 -68 0
88 -109 0
-149 91 0
-183 29 0
51 93 0
-45 77 0
23 -36 0
-141 184 0
84 155 0
93 105 0
152 -167 0
34 -177 0
81 47 0
-85 -112 0
-44 -99 0
40 -178 0
81 -42 0
3 3 0
-124 -53 0
169 34 0
65 173 0
-88 -190 0
55 -180 0
-50 50 0
-185 77 0
154 98 0
46 -20 0
-22 171 0
166 40 0
114 187 0
60 139 0
130 76 0
88 137 0
187 -139 0
115 -52 0
-9 -125 0
-120 170 0
7 153 0
75 -53 0
5 56 0
-189 26 0
130 59 0
-1 -117 0
139 -184 0
21 -148 0
34 178 0
-134 162 0
147 153 0
14 83 0
29 -14 0
-74 -132 0
-132 56 0
-138 -176 0
-119 -189 0
-164 49 0
-63 -36 0
187 107 0
-110 -18 0
106 -12 0
126 -6 0
173 -92 0
-26 27 0
83 4 0
105 4 0
77 177 0
89 139 0
182 150 0
-53 160 0
166 -149 0
70 71 0
154 -79 0
65 154 0
-36 -40 0
17 135 0
107 -95 0
-5 125 0
115 -54 0
101 -108 0
-15 143 0
39 87 0
145 7 0
-53 -158 0
79 170 0
-178 -164 0
152 76 0
-160 44 0
-138 24 0
-41 -154 0
122 22 0
-6 116 0
-13 172 0
6 172 0
-111 126 0
-32 48 0
11 -27 0
-66 126 0
187 -114 0
-74 152 0
113 -10 0
51 -19 0
10 77 0
143 77 0
-156 7 0
-26 155 0
-120 10 0
-136 150 0
7 90 0
141 -161 0
-156 -144 0
190 -30 0
25 107 0
-14 -27 0
125 153 0
126 -151 0
20 153 0
34 89 0
-101 -171 0
17 -168 0
27 37 0
130 91 0
131 -59 0
-188 88 0
83 144 0
-173 60 0
83 -32 0
38 11 0
77 76 0
-124 -179 0
148 -30 0
102 36 0
100 -52 0
-145 -109 0
150 -35 0
-94 -50 0
152 -91 0
28 61 0
-167 91 0
-132 130 0
31 169 0
103 -23 0
162 -52 0
64 -175 0
-140 -82 0
-77 132 0
95 137 0
65 -185 0
-14 133 0
35 -109 0
160 56 0
34 115 0
87 23 0
-103 -32 0
-50 -108 0
-100 -63 0
-1 -185 0
-187 84 0
159 84 0
-111 45 0
-67 -14 0
174 99 0
-61 -176 0
-129 163 0
85 24 0
40 -180 0
-102 60 0
152 -155 0
-140 116 0
-147 82 0
-114 -51 0
81 -158 0
3 -79 0
-74 154 0
60 -142 0
102 105 0
-19 -68 0
177 -73 0
173 -4 0
-177 -45 0
-111 -125 0
76 -91 0
-73 49 0
136 -173 0
150 50 0
89 -184 0
159 131 0
131 130 0
-52 162 0
76 -22 0
-101 190 0
160 182 0
-106 69 0
-173 -88 0
-158 -19 0
83 183 0
-108 161 0
115 -129 0
119 -51 0
-148 -52 0
-8 -163 0
-112 66 0
-171 -4 0
18 126 0
183 97 0
-100 137 0
146 78 0
-57 -132 0
-151 65 0
-162 159 0
-19 -18 0
-57 -144 0
33 119 0
60 44 0
-67 -14 0
143 -57 0
39 83 0
-77 89 0
-141 -127 0
134 144 0
-30 8 0
9 174 0
-37 -114 0
131 37 0
102 -111 0
24 -57 0
-19 82 0
-185 38 0
-121 -57 0
76 -48 0
178 26 0
2 17 0
87 141 0
-109 -127 0
-117 -113 0
88 25 0
88 -30 0
151 3 0
62 -119 0
37 144 0
-171 -136 0
95 47 0
-18 -101 0
89 -94 0
102 64 0
-55 16 0
127 -176 0
-60 -46 0
-44 -104 0
-176 75 0
-94 16 0
-72 11 0
99 187 0
-63 172 0
-83 -29 0
177 95 0
121 -118 0
68 75 0
-140 126 0
31 54 0
8 42 0
48 182 0
51 -114 0
156 34 0
-47 23 0
-110 25 0
