c bounds 48 48
p cnf 415 1286
-293 188 0
-203 83 0
126 403 0
222 55 0
-85 82 0
-53 -75 0
-285 342 0
413 -413 0
350 -202 0
-303 -71 0
137 186 0
92 -387 0
220 -400 0
59 -106 0
-397 -271 0
-315 61 0
-96 230 0
415 260 0
-226 -109 0
-21 335 0
-31 293 0
209 246 0
150 72 0
-212 272 0
17 258 0
-5 374 0
-139 64 0
126 119 0
-180 -413 0
100 97 0
393 135 0
412 150 0
-164 -136 0
-287 389 0
113 -271 0
11 -332 0
-330 329 0
248 -175 0
-113 -195 0
29 385 0
287 16 0
-348 187 0
-44 17 0
357 -356 0
-189 -387 0
-175 146 0
-57 92 0
-215 -91 0
76 2 0
-337 67 0
76 -329 0
296 -99 0
85 -290 0
-414 -334 0
-246 243 0
293 -66 0
-240 -228 0
-19 -100 0
-217 241 0
-212 199 0
-325 178 0
-100 -72 0
-137 248 0
-406 357 0
-259 182 0
-169 80 0
-164 -271 0
-16 89 0
131 382 0
-39 -355 0
-230 -295 0
-106 307 0
-345 -113 0
115 190 0
402 -45 0
-276 -166 0
-163 150 0
-152 69 0
-54 -283 0
29 -48 0
205 -309 0
391 95 0
16 414 0
186 -121 0
63 -253 0
-78 -384 0
-345 -112 0
83 -279 0
-298 380 0
379 -175 0
181 -350 0
-112 -310 0
15 295 0
396 -150 0
258 300 0
-40 116 0
155 410 0
100 -96 0
-281 282 0
210 -94 0
-144 -404 0
-44 -4 0
323 77 0
175 392 0
-393 -371 0
32 -215 0
-147 223 0
118 142 0
-23 392 0
-174 -158 0
-221 -356 0
-243 -228 0
-145 141 0
278 386 0
110 -392 0
115 -268 0
-292 -204 0
258 76 0
-126 -33 0
-95 16 0
164 -217 0
118 67 0
295 167 0
-202 61 0
34 -132 0
-163 -372 0
98 -32 0
196 -309 0
342 -319 0
230 -107 0
139 18 0
20 -118 0
-264 -97 0
224 211 0
5 -50 0
-50 -335 0
-398 -383 0
224 -104 0
-241 -236 0
388 246 0
-152 172 0
-262 -101 0
56 -50 0
354 165 0
282 396 0
-218 -255 0
406 43 0
-319 135 0
166 151 0
119 -293 0
-109 313 0
77 -162 0
105 -173 0
-65 162 0
266 45 0
-113 134 0
392 -239 0
-149 365 0
110 -73 0
87 2 0
-158 308 0
301 -159 0
-219 37 0
-13 -296 0
-372 -49 0
-20 353 0
-212 305 0
-369 -53 0
17 117 0
258 -335 0
-239 -336 0
-348 154 0
-34 16 0
82 118 0
-279 -398 0
146 367 0
-338 197 0
392 104 0
147 -242 0
-370 148 0
-75 -370 0
250 365 0
-1 -103 0
222 -349 0
-252 5 0
-2 254 0
184 -30 0
93 65 0
210 287 0
-256 -366 0
-32 83 0
-128 10 0
-80 139 0
319 52 0
-155 -388 0
369 -321 0
-155 279 0
230 -405 0
-170 92 0
370 182 0
91 -252 0
-2 161 0
188 -142 0
67 -252 0
378 251 0
-301 360 0
-5 82 0
26 30 0
367 -345 0
332 -35 0
-349 -39 0
181 113 0
301 340 0
8 209 0
-205 95 0
-58 -30 0
-24 -49 0
359 -362 0
114 -203 0
147 -280 0
151 -236 0
37 246 0
355 407 0
-105 -333 0
105 211 0
170 -415 0
17 -327 0
391 -292 0
294 76 0
320 93 0
322 249 0
230 -285 0
212 -41 0
-98 248 0
-291 302 0
-380 196 0
203 299 0
330 -239 0
-233 -23 0
-217 267 0
-333 223 0
70 -35 0
-233 404 0
401 366 0
136 -343 0
-41 154 0
-61 235 0
-147 -252 0
-123 -239 0
197 26 0
160 133 0
97 -331 0
295 20 0
-412 -111 0
133 315 0
275 249 0
280 -329 0
-388 -343 0
-84 194 0
243 355 0
90 -173 0
-353 -347 0
411 -287 0
-214 -357 0
-330 -405 0
-88 342 0
-8 235 0
128 -413 0
-361 415 0
127 -62 0
-325 341 0
-402 118 0
-285 -158 0
-48 15 0
-244 -283 0
-218 -98 0
-367 82 0
-242 336 0
250 -4 0
101 -149 0
-142 181 0
147 -283 0
-228 -57 0
381 -217 0
294 396 0
-129 145 0
-118 -111 0
-290 -388 0
-234 43 0
333 -160 0
101 82 0
43 16 0
355 274 0
82 4 0
179 -190 0
91 -141 0
386 -214 0
395 -64 0
383 -169 0
11 -353 0
223 306 0
26 316 0
392 203 0
-385 184 0
292 -291 0
5 324 0
96 -345 0
93 403 0
-339 -36 0
-332 -34 0
-276 -373 0
342 -246 0
200 -176 0
23 -35 0
350 200 0
-268 334 0
-196 -72 0
-386 394 0
152 86 0
263 16 0
382 -4 0
-122 133 0
308 -39 0
313 124 0
396 207 0
211 -88 0
84 -387 0
-190 -239 0
-51 211 0
71 376 0
-253 287 0
316 82 0
-382 224 0
-310 233 0
31 -67 0
-269 -244 0
368 415 0
-42 354 0
310 -189 0
324 288 0
114 -298 0
220 56 0
186 16 0
242 415 0
206 -299 0
-408 -103 0
-160 -245 0
313 -125 0
-197 -208 0
-48 -332 0
-393 -129 0
-348 -259 0
-331 352 0
-8 -381 0
-401 -349 0
72 -103 0
384 107 0
-1 -19 0
-96 166 0
-17 135 0
-64 156 0
-6 -157 0
-159 319 0
107 -270 0
260 -75 0
-239 -409 0
308 -136 0
16 392 0
-229 -292 0
-160 99 0
-309 -348 0
200 -46 0
113 349 0
-32 60 0
105 203 0
-157 -369 0
-225 119 0
2 -100 0
352 163 0
120 -276 0
243 181 0
251 263 0
-1 196 0
-157 -282 0
169 11 0
320 -163 0
280 178 0
-142 358 0
-298 367 0
-291 69 0
305 340 0
340 -44 0
69 188 0
-214 213 0
-353 -297 0
-316 69 0
186 -228 0
374 -253 0
-349 -324 0
133 -361 0
223 367 0
76 -206 0
163 -71 0
-349 -125 0
-126 -295 0
110 -66 0
143 -12 0
146 266 0
16 40 0
415 -106 0
-336 -292 0
-250 201 0
-349 -318 0
6 119 0
184 -70 0
-152 -290 0
141 -88 0
-324 187 0
-208 -137 0
-396 -90 0
-132 -157 0
377 201 0
-180 32 0
279 -48 0
-137 -270 0
-212 45 0
143 389 0
-49 -340 0
-291 138 0
-80 -414 0
-240 259 0
240 205 0
-129 43 0
222 278 0
407 22 0
-140 66 0
-325 -207 0
-338 138 0
25 76 0
-158 22 0
-1 -59 0
6 -327 0
-252 -31 0
-159 58 0
-245 -69 0
209 201 0
262 -267 0
365 -98 0
293 -104 0
5 345 0
-153 343 0
-19 99 0
-141 -121 0
-146 126 0
271 -404 0
-28 372 0
-81 -8 0
391 125 0
318 67 0
257 141 0
365 190 0
-103 -402 0
-277 -32 0
184 375 0
113 151 0
100 -244 0
26 -255 0
-208 20 0
-68 -73 0
266 -283 0
-346 -287 0
192 302 0
-337 325 0
390 54 0
92 124 0
355 -88 0
-173 112 0
408 -283 0
-47 -116 0
-79 46 0
-198 410 0
-57 116 0
-214 362 0
-205 166 0
30 353 0
83 406 0
-121 -330 0
-361 -183 0
-80 167 0
-128 -315 0
-78 310 0
305 -32 0
48 322 0
381 92 0
266 396 0
-383 204 0
-154 296 0
131 -226 0
107 -187 0
46 -21 0
-60 -207 0
279 120 0
178 301 0
-301 -240 0
366 137 0
-66 -94 0
301 -40 0
316 391 0
364 -93 0
323 -35 0
-225 194 0
-412 -262 0
-407 42 0
-290 -202 0
174 -312 0
327 -297 0
284 -74 0
211 131 0
-109 -177 0
79 -228 0
165 -224 0
-256 364 0
323 334 0
-50 -365 0
164 -109 0
365 -195 0
20 191 0
81 334 0
-228 -271 0
170 17 0
-47 127 0
382 -119 0
-350 -190 0
-49 -163 0
89 -63 0
392 -233 0
-268 -132 0
-173 -332 0
63 306 0
-274 -347 0
-195 201 0
-271 353 0
-180 -346 0
-57 379 0
357 -144 0
370 -304 0
-49 138 0
113 127 0
-411 -291 0
-272 -205 0
-307 230 0
111 374 0
-337 409 0
69 -285 0
-357 -244 0
411 -276 0
-328 -372 0
410 -151 0
-332 368 0
2 105 0
46 275 0
-212 -368 0
210 121 0
-286 259 0
387 -1 0
-96 -375 0
318 183 0
-239 82 0
342 -90 0
-385 -387 0
295 30 0
257 77 0
302 286 0
320 -309 0
384 -218 0
-373 324 0
-290 -27 0
402 -382 0
-70 -282 0
-241 181 0
-100 -155 0
72 -58 0
196 -400 0
77 -33 0
273 385 0
131 312 0
351 -12 0
284 -122 0
-374 -73 0
68 -356 0
365 -27 0
-174 -40 0
-269 -404 0
82 -405 0
-309 -332 0
356 -363 0
-414 -261 0
9 -225 0
-363 -125 0
-197 -85 0
241 43 0
145 275 0
-398 -346 0
318 397 0
-58 266 0
-299 -253 0
7 -299 0
146 -21 0
-395 184 0
-283 -184 0
254 -375 0
206 160 0
-171 222 0
64 -7 0
-238 342 0
-334 -348 0
74 181 0
-121 -65 0
-323 411 0
-73 -165 0
353 365 0
-344 -346 0
197 394 0
-29 76 0
332 -238 0
-276 -411 0
-239 -93 0
-375 311 0
-65 -155 0
-137 -412 0
131 -312 0
150 -338 0
-169 227 0
68 -164 0
-3 -74 0
18 163 0
333 56 0
-399 -255 0
-327 -24 0
-286 69 0
-270 -157 0
-353 -25 0
-15 -65 0
355 -27 0
-72 -237 0
291 251 0
-347 380 0
-326 105 0
-377 301 0
-283 100 0
102 -298 0
178 414 0
268 -385 0
311 74 0
38 -346 0
365 -201 0
45 2 0
344 334 0
415 186 0
224 -378 0
-93 -314 0
183 283 0
145 -35 0
367 243 0
68 138 0
89 -110 0
155 -128 0
-42 313 0
255 342 0
11 -207 0
29 158 0
-232 -360 0
-75 411 0
266 -18 0
334 183 0
-260 -89 0
-138 -328 0
15 37 0
-94 124 0
335 -292 0
-141 -400 0
296 166 0
341 56 0
-53 99 0
370 183 0
-47 215 0
316 -310 0
26 -49 0
211 -96 0
388 -49 0
-12 -278 0
-78 -218 0
-137 415 0
-288 144 0
150 -28 0
-329 91 0
-271 367 0
284 96 0
21 -295 0
-160 399 0
165 -261 0
286 2 0
-292 20 0
317 -84 0
316 243 0
274 -8 0
-387 -13 0
20 -388 0
342 -134 0
402 17 0
286 311 0
392 -267 0
-177 287 0
-356 22 0
-242 -186 0
-219 262 0
133 386 0
-126 282 0
-113 -403 0
411 323 0
-295 223 0
-32 74 0
282 -83 0
289 -74 0
-66 234 0
397 -112 0
313 -160 0
-54 -41 0
192 -385 0
-295 37 0
61 -117 0
83 -361 0
339 -58 0
405 284 0
-315 -89 0
-413 370 0
-28 208 0
-387 -228 0
-394 282 0
396 7 0
238 46 0
-265 135 0
368 344 0
-259 350 0
-52 -189 0
344 20 0
308 255 0
291 174 0
-161 -408 0
412 222 0
-361 -175 0
179 -153 0
254 177 0
232 258 0
199 2 0
-75 258 0
-13 354 0
142 114 0
86 371 0
-215 -222 0
141 110 0
-335 -372 0
168 368 0
-372 241 0
-3 122 0
-337 -310 0
-303 391 0
-64 -226 0
-255 89 0
-265 -140 0
-2 -333 0
14 26 0
374 283 0
137 -338 0
-24 -43 0
147 -333 0
-292 -390 0
-367 358 0
-51 352 0
-377 188 0
319 -56 0
193 -168 0
-49 -27 0
-232 -297 0
-182 -314 0
59 396 0
-163 390 0
-321 212 0
-109 218 0
-287 -39 0
-412 323 0
-111 -74 0
-124 390 0
105 74 0
203 -365 0
-340 -299 0
293 -306 0
-62 393 0
-351 376 0
143 -412 0
113 -213 0
-70 386 0
138 -101 0
-125 88 0
-272 115 0
-8 -173 0
-403 -87 0
-387 -41 0
-146 -239 0
334 219 0
-201 -140 0
-226 9 0
86 17 0
-35 -271 0
-272 -296 0
268 -92 0
78 83 0
367 177 0
332 395 0
-263 -363 0
352 -163 0
-224 -57 0
-240 -306 0
374 113 0
193 -164 0
-21 -246 0
322 -5 0
258 -214 0
17 135 0
391 -412 0
-64 -263 0
-265 -256 0
-361 -97 0
-343 -136 0
151 -159 0
313 -319 0
46 318 0
284 -61 0
414 317 0
390 -58 0
302 199 0
-202 -191 0
105 411 0
268 -348 0
197 -214 0
119 -249 0
209 208 0
55 -394 0
-286 383 0
267 83 0
378 18 0
-61 -332 0
382 -9 0
163 293 0
220 -129 0
-159 -72 0
91 3 0
-145 -180 0
230 -264 0
-65 -49 0
352 -340 0
16 -362 0
85 -297 0
-248 69 0
6 355 0
-393 -212 0
-413 -150 0
294 -67 0
349 355 0
-333 -171 0
227 -44 0
-329 384 0
-130 376 0
141 -327 0
342 -294 0
118 -256 0
-134 -327 0
-64 336 0
76 -378 0
-152 251 0
-409 291 0
-372 -284 0
-63 141 0
186 -387 0
-285 249 0
146 -349 0
159 -116 0
-207 -140 0
-265 -88 0
-403 31 0
64 319 0
-62 93 0
-327 -404 0
180 -90 0
-71 -413 0
10 186 0
353 -67 0
414 368 0
11 -182 0
147 187 0
-227 43 0
-149 135 0
-87 337 0
-248 -333 0
127 171 0
117 -27 0
384 336 0
-362 -202 0
83 -309 0
-280 -378 0
246 -151 0
95 -301 0
24 342 0
-208 7 0
91 -372 0
-24 182 0
185 -345 0
-231 99 0
7 -88 0
-310 311 0
182 398 0
65 336 0
188 -231 0
220 236 0
-111 290 0
-50 -8 0
-96 17 0
-73 36 0
-10 31 0
-301 196 0
395 -213 0
167 64 0
406 347 0
266 392 0
321 390 0
43 270 0
-379 -102 0
31 294 0
206 -51 0
-250 -373 0
117 -232 0
41 -310 0
-77 -404 0
-200 -169 0
64 -233 0
371 -296 0
389 57 0
-234 -96 0
-34 -72 0
336 349 0
385 89 0
-344 -49 0
133 289 0
406 289 0
412 -66 0
-350 -265 0
120 374 0
-22 334 0
184 253 0
-81 93 0
-173 321 0
-303 -327 0
139 6 0
19 -363 0
-275 -407 0
171 134 0
388 119 0
-336 16 0
294 -347 0
-21 162 0
-80 -81 0
38 -73 0
392 -367 0
-283 146 0
54 249 0
315 -216 0
-261 -296 0
-292 368 0
166 286 0
-74 20 0
113 151 0
296 -407 0
210 198 0
215 -25 0
-272 212 0
-35 352 0
-333 15 0
117 -168 0
381 220 0
-325 112 0
-236 172 0
110 370 0
-362 -288 0
-68 -229 0
42 -21 0
166 -168 0
258 -409 0
405 -261 0
-157 266 0
-233 195 0
26 351 0
67 119 0
181 -47 0
-169 322 0
147 -365 0
395 400 0
364 382 0
-329 -13 0
110 -355 0
-40 -281 0
25 -180 0
-1 -62 0
392 -245 0
-19 118 0
-374 -45 0
-216 3 0
134 147 0
167 33 0
-271 -11 0
-383 -120 0
-62 -123 0
355 404 0
389 237 0
402 293 0
92 -233 0
119 17 0
-230 2 0
247 317 0
257 155 0
-237 -220 0
317 -104 0
-125 -242 0
-404 -181 0
354 -339 0
181 -168 0
37 -362 0
-135 -111 0
176 292 0
-272 254 0
93 -189 0
148 -412 0
171 -281 0
6 342 0
-231 -345 0
321 138 0
-240 -190 0
257 317 0
296 -202 0
-210 -213 0
103 -292 0
266 27 0
284 186 0
258 371 0
-40 -198 0
-218 -80 0
200 293 0
-402 293 0
-325 -72 0
-343 35 0
-262 227 0
102 -406 0
193 78 0
353 316 0
-34 295 0
-83 124 0
-213 278 0
344 -377 0
-106 151 0
-45 252 0
227 278 0
327 -87 0
-190 -206 0
411 20 0
401 319 0
399 269 0
-70 39 0
232 -47 0
263 -363 0
-70 371 0
16 120 0
-105 -99 0
-115 104 0
413 106 0
-358 -265 0
-357 37 0
-80 371 0
-253 -3 0
-227 -157 0
-253 368 0
-72 178 0
-223 188 0
289 291 0
113 -5 0
163 394 0
-267 243 0
-254 -262 0
341 25 0
-144 -327 0
11 -196 0
396 -110 0
-270 257 0
-167 382 0
209 -45 0
-259 -270 0
92 -234 0
398 -47 0
305 378 0
141 -372 0
300 -191 0
266 371 0
-409 -13 0
-158 255 0
-27 -94 0
365 -207 0
-295 -204 0
-13 -25 0
-263 -229 0
64 407 0
-3 -356 0
-288 311 0
220 204 0
-51 24 0
-130 -322 0
373 -239 0
391 -196 0
-137 29 0
-238 -282 0
-7 -315 0
-158 53 0
118 96 0
184 230 0
-8 315 0
301 -236 0
-262 -146 0
-173 331 0
340 204 0
-78 355 0
200 -85 0
-407 132 0
-262 -308 0
201 211 0
380 -245 0
36 -61 0
297 183 0
-265 50 0
-140 18 0
46 273 0
-401 -48 0
336 -86 0
-13 50 0
-269 -383 0
-43 37 0
349 389 0
-306 -276 0
-332 67 0
348 221 0
-385 -79 0
380 -96 0
167 -126 0
-85 -58 0
-407 110 0
-258 104 0
-271 -297 0
-231 20 0
-269 -408 0
213 -207 0
218 -202 0
-404 263 0
-126 -19 0
-327 230 0
209 -350 0
371 269 0
-28 -268 0
188 8 0
-151 -259 0
-263 -177 0
-331 349 0
-255 -65 0
-65 294 0
-168 248 0
62 389 0
135 -343 0
-47 -298 0
-175 -272 0
188 286 0
-160 323 0
183 -355 0
259 -335 0
306 -123 0
266 165 0
205 -98 0
-122 -13 0
236 143 0
-73 -33 0
241 -402 0
-73 1 0
-214 128 0
384 249 0
16 -404 0
-216 -165 0
18 -329 0
-122 95 0
380 -383 0
-78 -160 0
235 305 0
118 389 0
-85 -99 0
-383 -190 0
13 98 0
-28 55 0
-312 -63 0
207 266 0
-309 -373 0
287 -382 0
237 376 0
-340 -268 0
212 127 0
286 188 0
46 236 0
190 220 0
374 -403 0
-217 157 0
-338 -80 0
-48 42 0
199 204 0
342 77 0
-343 336 0
147 -292 0
221 -276 0
-335 175 0
-151 -405 0
-407 209 0
127 -157 0
69 -89 0
3 -208 0
-73 61 0
-207 -101 0
323 -214 0
-357 -208 0
-178 -21 0
69 -388 0
-213 76 0
127 129 0
-177 -334 0
310 193 0
132 -195 0
-260 194 0
211 193 0
151 -367 0
386 -352 0
9 -238 0
-225 -349 0
-219 -349 0
100 316 0
-271 183 0
-1 345 0
230 394 0
-414 -125 0
350 171 0
-101 171 0
348 -4 0
-262 166 0
-80 -121 0
-106 -212 0
254 142 0
183 29 0
-275 112 0
3 -50 0
18 27 0
350 -178 0
-132 -197 0
233 -57 0
-379 348 0
-213 -332 0
382 187 0
391 -91 0
-183 230 0
-191 403 0
298 143 0
-29 -173 0
17 290 0
351 44 0
26 308 0
-409 -173 0
-72 -356 0
189 230 0
