c bounds 195 195
p cnf 595 654
560 170 0
-13 -550 0
588 375 0
305 171 0
97 42 0
-434 536 0
530 -341 0
381 332 0
460 223 0
-174 509 0
44 -313 0
-308 591 0
343 156 0
-515 -419 0
-485 -116 0
226 427 0
-247 368 0
158 295 0
506 -311 0
8 -481 0
-7 -126 0
-467 -148 0
-362 -312 0
184 525 0
-113 -214 0
-151 333 0
-36 -494 0
332 107 0
591 378 0
-502 -19 0
-81 -74 0
300 -197 0
211 330 0
-155 509 0
26 175 0
-518 -400 0
352 433 0
62 43 0
581 546 0
-19 -232 0
270 -425 0
-460 -131 0
-432 355 0
-438 -160 0
-47 -120 0
395 378 0
581 -16 0
94 94 0
-48 -22 0
284 -444 0
523 180 0
-503 518 0
-210 -228 0
-73 -133 0
519 250 0
178 171 0
-439 -510 0
519 573 0
-278 271 0
-436 -278 0
286 8 0
-589 537 0
-107 -400 0
-161 -461 0
273 160 0
576 244 0
581 263 0
-306 452 0
151 338 0
-46 -480 0
219 235 0
-355 -88 0
563 -467 0
459 134 0
429 -567 0
-325 -511 0
17 369 0
-409 -441 0
50 -85 0
-187 -290 0
-412 381 0
586 117 0
-439 309 0
-229 -116 0
-78 470 0
445 510 0
546 401 0
296 -215 0
-409 299 0
-200 89 0
-88 -86 0
43 138 0
-589 -420 0
-287 253 0
-34 295 0
-381 -562 0
474 286 0
394 184 0
580 -349 0
177 -102 0
-503 425 0
-355 -326 0
-313 357 0
158 354 0
-343 371 0
106 252 0
-372 414 0
416 -551 0
-359 -303 0
-257 -459 0
177 -134 0
-278 -276 0
-234 276 0
437 -110 0
491 69 0
-233 341 0
-593 539 0
217 -377 0
-225 -379 0
-84 397 0
274 -102 0
509 -68 0
-269 245 0
477 12 0
196 411 0
-401 191 0
472 550 0
532 354 0
-465 -457 0
529 -16 0
-391 -472 0
565 -215 0
546 -554 0
224 37 0
-191 396 0
-508 89 0
578 -167 0
575 563 0
-49 -198 0
-303 -544 0
-181 289 0
-340 578 0
70 -575 0
157 91 0
451 539 0
-337 403 0
525 -290 0
171 250 0
-207 179 0
525 -425 0
250 -569 0
-467 -349 0
-189 -213 0
-410 522 0
-284 -19 0
-480 147 0
29 400 0
566 42 0
263 396 0
-160 -318 0
-79 -266 0
-41 193 0
338 -18 0
-335 -389 0
15 -429 0
485 518 0
38 291 0
-87 360 0
-228 -424 0
13 -439 0
108 -116 0
-180 260 0
-71 154 0
190 73 0
-520 -317 0
-557 -23 0
-394 -145 0
-318 -455 0
590 338 0
21 251 0
302 -90 0
-128 -342 0
573 301 0
-114 -377 0
-204 1 0
-11 -71 0
297 -212 0
549 -409 0
-158 458 0
-218 -411 0
328 273 0
-154 -593 0
-353 87 0
342 -582 0
-30 -358 0
34 -299 0
-147 -500 0
263 -20 0
-152 560 0
-497 -22 0
-405 37 0
47 43 0
-336 333 0
-51 -517 0
224 -126 0
-543 491 0
120 466 0
-42 -157 0
-411 151 0
512 -43 0
-467 207 0
495 178 0
253 261 0
-160 426 0
-149 147 0
-542 384 0
-357 239 0
458 303 0
351 -558 0
393 486 0
305 -374 0
472 29 0
512 -323 0
241 113 0
385 62 0
87 553 0
-58 70 0
335 -277 0
175 25 0
179 4 0
515 560 0
-252 491 0
-36 -395 0
-98 222 0
-594 -507 0
-569 -370 0
-500 -266 0
-468 463 0
581 -180 0
506 105 0
511 -454 0
7 -33 0
-381 338 0
-32 -7 0
539 546 0
410 -337 0
233 -80 0
-283 417 0
-367 238 0
458 -411 0
564 165 0
126 590 0
62 -113 0
-121 -587 0
321 565 0
-437 583 0
530 536 0
213 97 0
-400 32 0
-462 187 0
-16 -198 0
-58 -156 0
-426 -28 0
-457 -236 0
-185 -184 0
-432 -141 0
-155 509 0
503 567 0
448 587 0
-334 531 0
247 -565 0
-370 -195 0
338 -249 0
-116 196 0
177 -310 0
415 254 0
15 -169 0
315 -349 0
-505 252 0
508 239 0
-490 -176 0
397 -54 0
411 -204 0
-370 -49 0
290 -366 0
454 567 0
36 195 0
217 248 0
-217 -405 0
-215 595 0
-359 464 0
358 498 0
-47 368 0
352 -484 0
-469 45 0
-454 -362 0
493 104 0
-323 -172 0
573 196 0
296 -335 0
369 -57 0
418 291 0
380 -330 0
-217 -492 0
-276 422 0
-586 -558 0
-595 536 0
-284 117 0
-467 -201 0
-236 -295 0
-500 402 0
455 103 0
341 -434 0
-358 -327 0
-406 -61 0
-262 244 0
-444 -138 0
388 493 0
-437 45 0
96 242 0
-460 402 0
385 -342 0
-167 503 0
583 62 0
386 -66 0
273 208 0
178 198 0
-20 481 0
-451 21 0
210 -589 0
230 -565 0
249 173 0
-23 -528 0
517 -432 0
-54 -321 0
494 -533 0
-177 -309 0
-444 -447 0
416 -299 0
120 -590 0
351 -562 0
-485 -359 0
-19 454 0
368 -568 0
386 -484 0
-54 -420 0
48 67 0
145 326 0
571 -129 0
-516 -372 0
-252 -252 0
106 594 0
166 -297 0
414 34 0
-398 -54 0
-198 515 0
24 26 0
400 297 0
237 577 0
311 350 0
-437 384 0
526 -204 0
-384 -129 0
239 83 0
-325 176 0
-51 210 0
39 185 0
451 526 0
396 -276 0
95 529 0
-382 -428 0
-457 -437 0
-221 -316 0
213 -508 0
-194 -495 0
-65 -425 0
-471 -400 0
253 -323 0
589 -266 0
-312 -65 0
-525 536 0
23 -361 0
272 399 0
-457 -180 0
560 -229 0
-158 235 0
-549 358 0
328 272 0
-89 -468 0
440 157 0
209 279 0
-490 541 0
-376 19 0
347 -467 0
-282 -328 0
273 327 0
-315 403 0
297 213 0
-480 247 0
376 422 0
11 -198 0
-543 -500 0
380 -199 0
378 554 0
-149 110 0
-98 -107 0
-343 251 0
-20 -344 0
290 529 0
297 -99 0
-471 99 0
516 -73 0
-51 -582 0
339 -95 0
524 -539 0
37 380 0
-534 -542 0
-243 -481 0
466 592 0
171 481 0
-460 -377 0
-561 -121 0
170 -180 0
-82 -468 0
-205 26 0
-7 522 0
125 200 0
75 -282 0
414 381 0
404 -25 0
-468 512 0
-216 -168 0
15 -446 0
-99 91 0
-202 434 0
510 471 0
243 96 0
337 -500 0
351 -540 0
59 -250 0
-572 9 0
97 464 0
113 535 0
52 -250 0
-32 273 0
-512 114 0
147 375 0
-257 416 0
559 -210 0
429 -23 0
-278 -4 0
108 458 0
-499 259 0
-176 347 0
-202 -567 0
-346 233 0
528 76 0
-346 488 0
-84 -199 0
375 -4 0
573 -450 0
-409 195 0
576 116 0
-236 451 0
233 546 0
-407 263 0
548 -577 0
-138 67 0
-288 178 0
-217 272 0
-428 -117 0
-227 -63 0
320 -508 0
332 -353 0
114 474 0
254 253 0
159 165 0
-110 -465 0
404 -424 0
-529 -468 0
568 518 0
92 -511 0
541 402 0
429 -484 0
7 83 0
17 331 0
591 -246 0
-268 -241 0
448 -339 0
547 -212 0
-114 229 0
587 175 0
375 -51 0
255 379 0
576 -108 0
-430 453 0
-214 361 0
55 211 0
-167 448 0
560 398 0
521 -582 0
475 -34 0
-321 47 0
-105 -254 0
183 55 0
-497 40 0
486 479 0
-303 -219 0
17 193 0
-401 220 0
263 406 0
271 -56 0
310 449 0
216 519 0
469 -207 0
-335 315 0
-341 223 0
-123 -198 0
-355 179 0
184 245 0
82 -508 0
-205 587 0
-275 454 0
570 300 0
108 -198 0
-231 375 0
163 -136 0
-290 9 0
164 594 0
-86 159 0
102 -578 0
371 -297 0
-343 -389 0
-488 -485 0
-479 -574 0
-490 506 0
-241 501 0
-461 306 0
-216 -367 0
499 -68 0
-587 -281 0
273 315 0
451 404 0
-74 -272 0
-588 -16 0
292 368 0
217 -130 0
-335 503 0
-534 -308 0
-231 -565 0
158 237 0
-14 142 0
-435 333 0
330 -545 0
-327 112 0
450 9 0
162 408 0
-27 -537 0
155 -12 0
377 -13 0
383 -522 0
15 -427 0
-35 505 0
-550 525 0
379 -253 0
397 390 0
-128 -204 0
330 -394 0
379 -247 0
-188 -325 0
-374 449 0
-388 453 0
372 386 0
379 319 0
-456 -418 0
-114 305 0
33 498 0
-434 -137 0
-443 -122 0
-123 -386 0
-263 261 0
-166 165 0
507 -311 0
-430 -63 0
-401 547 0
-110 563 0
-134 79 0
345 -11 0
-241 109 0
25 211 0
-316 -503 0
512 -288 0
-486 -579 0
193 -252 0
526 -349 0
-221 -147 0
-153 -115 0
292 448 0
558 -460 0
60 -580 0
515 325 0
5 261 0
-71 495 0
532 179 0
-477 -231 0
-287 -233 0
-36 -299 0
229 -159 0
31 193 0
-284 595 0
84 197 0
-333 -72 0
-399 -569 0
29 242 0
-93 371 0
-81 264 0
171 116 0
81 -327 0
172 561 0
-281 -268 0
-30 -265 0
414 429 0
209 142 0
384 -505 0
91 254 0
-353 -17 0
54 -200 0
-508 -12 0
423 163 0
-443 387 0
100 -557 0
97 -122 0
-90 -517 0
-23 -189 0
453 -108 0
279 397 0
307 -32 0
536 -233 0
511 -561 0
95 -85 0
-81 -191 0
291 -230 0
-316 -424 0
427 128 0
-489 172 0
-70 -580 0
567 180 0
-220 464 0
412 495 0
-530 498 0
-134 -285 0
62 -112 0
-516 -84 0
329 -145 0
