c bounds 88 100 150.04
p cnf 500 1000
-158 237 0
-411 -453 0
64 -143 0
319 160 0
-386 288 0
249 -377 0
80 455 0
330 -73 0
241 -321 0
-467 -408 0
483 228 0
457 480 0
327 -48 0
-181 185 0
-127 -175 0
142 141 0
-225 -43 0
-193 -58 0
166 215 0
-131 142 0
246 -16 0
231 -312 0
288 -199 0
363 60 0
-379 -270 0
462 148 0
373 -331 0
-262 -297 0
455 155 0
106 -474 0
346 -114 0
-183 -182 0
46 -102 0
-281 420 0
-116 244 0
-11 -184 0
-184 279 0
-482 -219 0
-219 136 0
466 328 0
-42 -339 0
260 -321 0
-178 3 0
424 -82 0
275 355 0
-423 -273 0
-298 4 0
378 -180 0
285 -352 0
-127 -35 0
412 435 0
242 216 0
-100 167 0
-197 129 0
198 424 0
405 85 0
97 266 0
-472 -468 0
359 -301 0
-8 344 0
29 87 0
457 -397 0
393 -445 0
-372 -20 0
-126 396 0
-297 210 0
-167 -320 0
-301 254 0
115 -383 0
233 -318 0
-483 418 0
-320 96 0
-485 351 0
44 -462 0
346 133 0
58 111 0
-59 374 0
-5 63 0
458 -264 0
-5 -254 0
331 -253 0
-273 470 0
243 -81 0
59 -266 0
264 470 0
390 -98 0
3 -13 0
49 121 0
-104 261 0
-302 -471 0
295 -378 0
51 169 0
-104 -340 0
-297 24 0
-234 -497 0
191 179 0
233 -458 0
10 178 0
-447 -87 0
241 -69 0
-393 -37 0
168 -10 0
49 431 0
-213 309 0
243 5 0
-197 166 0
293 258 0
40 -385 0
48 232 0
109 -408 0
-379 369 0
37 -118 0
-126 -256 0
-337 -460 0
-334 -95 0
-98 -91 0
-459 33 0
-371 -62 0
13 229 0
457 134 0
420 -305 0
71 181 0
-121 420 0
263 70 0
-387 -146 0
-84 358 0
192 490 0
419 -234 0
-214 241 0
-331 383 0
4 380 0
-4 -75 0
21 -410 0
-341 246 0
-216 44 0
-467 277 0
441 2 0
-383 -208 0
354 457 0
138 -98 0
133 -335 0
199 404 0
288 -452 0
258 -10 0
-484 243 0
455 -387 0
369 -371 0
33 478 0
-297 318 0
163 -81 0
4 -433 0
11 -365 0
132 161 0
478 38 0
-393 398 0
450 66 0
186 51 0
264 35 0
-468 -438 0
89 -372 0
-321 49 0
-460 -172 0
-298 -147 0
283 -32 0
-25 80 0
-154 -295 0
306 69 0
-66 385 0
118 414 0
-392 -251 0
-422 163 0
228 305 0
320 -341 0
-21 -307 0
17 204 0
63 -8 0
-22 324 0
422 19 0
-420 -453 0
-301 163 0
-322 417 0
55 422 0
-487 85 0
209 -404 0
-126 449 0
451 -340 0
-398 334 0
-94 13 0
367 64 0
115 456 0
-286 -320 0
416 381 0
-76 307 0
321 -146 0
-359 256 0
-333 161 0
-121 455 0
-156 -305 0
-470 217 0
421 454 0
-316 -335 0
420 -248 0
-221 -97 0
-499 -197 0
413 -454 0
419 47 0
-440 415 0
181 186 0
169 -307 0
52 198 0
138 -429 0
-49 319 0
-173 479 0
-285 337 0
285 -77 0
228 178 0
82 108 0
-83 478 0
-205 -303 0
-313 308 0
285 -317 0
-371 51 0
-225 -332 0
-130 206 0
271 64 0
234 199 0
-316 284 0
308 100 0
486 -446 0
381 78 0
478 288 0
-298 -449 0
-218 123 0
-90 337 0
232 237 0
193 -328 0
111 138 0
297 51 0
391 171 0
-475 -24 0
-318 -14 0
-260 48 0
374 -214 0
-296 383 0
146 -339 0
298 10 0
-181 142 0
-410 17 0
-293 320 0
-36 -170 0
-407 -218 0
-213 -376 0
420 -54 0
-294 -130 0
170 -181 0
186 -183 0
-224 421 0
214 -431 0
294 325 0
291 -431 0
470 33 0
36 -114 0
210 -60 0
-214 123 0
204 -499 0
48 299 0
337 -423 0
-189 -107 0
391 300 0
165 363 0
-486 -368 0
271 -245 0
-170 -151 0
-332 -354 0
326 160 0
-7 194 0
-221 37 0
324 -45 0
414 361 0
92 -453 0
-30 -409 0
-361 382 0
332 -87 0
-146 139 0
222 -323 0
326 -156 0
-34 -366 0
-404 -491 0
186 -290 0
3 355 0
91 -306 0
-61 453 0
-111 -39 0
-367 -193 0
-111 306 0
-227 -21 0
-295 51 0
-22 -119 0
427 64 0
19 -100 0
480 345 0
167 448 0
63 453 0
-352 -16 0
-156 344 0
277 -496 0
-427 -75 0
-265 -206 0
-261 95 0
420 -177 0
364 -301 0
373 126 0
254 382 0
280 241 0
424 72 0
-395 -5 0
-32 -448 0
-350 371 0
85 -341 0
479 401 0
309 323 0
-95 -211 0
-281 -68 0
-214 -410 0
413 -341 0
-53 -64 0
-366 186 0
260 -26 0
38 -123 0
338 22 0
-389 360 0
456 -166 0
-218 -425 0
-130 331 0
-114 -99 0
458 405 0
-453 491 0
-262 261 0
-427 365 0
-434 -375 0
-88 -199 0
230 458 0
-335 248 0
39 -280 0
-484 -11 0
347 381 0
-156 319 0
-104 -180 0
159 -35 0
-231 -99 0
-45 -311 0
285 -379 0
422 -267 0
-151 492 0
179 -120 0
431 -460 0
-352 268 0
200 453 0
254 466 0
-438 340 0
206 -450 0
-15 72 0
457 106 0
-388 3 0
95 -214 0
282 -162 0
-5 -125 0
491 -390 0
-350 -203 0
-170 -245 0
-140 -54 0
11 33 0
457 -438 0
-53 148 0
81 29 0
446 -135 0
111 57 0
-245 283 0
148 260 0
-224 402 0
-61 221 0
-278 59 0
471 -218 0
90 -104 0
122 -280 0
-185 101 0
-428 -156 0
-106 155 0
-114 378 0
300 -98 0
-459 159 0
422 341 0
-317 332 0
-7 114 0
47 474 0
391 -440 0
-58 -71 0
97 -41 0
-158 383 0
12 -359 0
-27 -221 0
185 -114 0
84 -202 0
260 15 0
242 -487 0
343 390 0
-101 -481 0
171 123 0
22 -112 0
-158 368 0
-31 -77 0
348 -252 0
97 229 0
305 -141 0
-217 428 0
70 249 0
-187 220 0
-75 63 0
-194 -486 0
118 430 0
-173 485 0
-104 -209 0
-105 134 0
-180 -183 0
276 -446 0
-150 282 0
-346 161 0
-378 295 0
-350 -181 0
-171 332 0
-301 316 0
204 466 0
215 207 0
257 -430 0
-464 241 0
17 82 0
-201 -32 0
480 290 0
-289 52 0
469 -98 0
302 -255 0
-73 322 0
-426 4 0
316 276 0
-211 468 0
189 252 0
335 -187 0
-67 172 0
-34 -224 0
235 188 0
-18 -316 0
-343 164 0
85 412 0
-99 -11 0
-5 391 0
91 -152 0
-156 -406 0
492 -12 0
-179 -467 0
481 -372 0
176 -333 0
-206 422 0
167 109 0
281 -317 0
67 377 0
308 439 0
-125 95 0
-33 401 0
251 -31 0
-80 -403 0
429 285 0
492 -291 0
-397 -454 0
-329 -481 0
165 -366 0
-280 22 0
255 207 0
337 422 0
-172 94 0
106 -8 0
117 -214 0
-490 38 0
-295 347 0
51 -444 0
257 181 0
-36 -122 0
253 148 0
-180 -83 0
-187 -307 0
-264 -104 0
-307 -309 0
-160 -387 0
448 157 0
377 265 0
242 115 0
-340 -370 0
69 -196 0
-292 -445 0
38 460 0
-306 -76 0
92 -362 0
-464 109 0
480 -449 0
-467 -193 0
-125 244 0
-446 -403 0
-173 -124 0
-180 -339 0
44 -67 0
483 49 0
190 178 0
229 -50 0
-273 117 0
52 200 0
-42 127 0
465 -285 0
13 -107 0
492 -274 0
-65 356 0
346 -295 0
-464 497 0
470 -140 0
-320 -217 0
370 491 0
117 -376 0
-157 285 0
369 -165 0
267 -185 0
206 265 0
204 110 0
110 251 0
281 -7 0
-284 436 0
-134 -53 0
-293 -18 0
249 -132 0
-216 -462 0
-453 -371 0
160 -481 0
417 171 0
-383 287 0
-288 395 0
19 -272 0
426 309 0
-59 234 0
-225 -212 0
-386 -318 0
100 -472 0
-419 -407 0
-494 -500 0
-294 -120 0
479 5 0
-65 153 0
-180 -60 0
-219 -408 0
-222 -204 0
150 429 0
-489 -245 0
-446 345 0
-302 176 0
-267 -253 0
-383 391 0
-281 -297 0
-103 64 0
396 -364 0
42 -476 0
-347 -360 0
422 393 0
361 482 0
-3 258 0
-453 -218 0
10 466 0
-294 110 0
439 172 0
-468 456 0
-165 -210 0
152 65 0
-218 21 0
-142 107 0
-481 83 0
344 -210 0
259 -181 0
394 483 0
-222 -498 0
-345 -456 0
-41 -24 0
-175 309 0
-345 -149 0
348 -132 0
68 353 0
40 -498 0
413 49 0
-18 218 0
-464 -301 0
98 391 0
461 -146 0
420 -61 0
38 477 0
79 -81 0
-169 -156 0
-379 205 0
-25 -453 0
482 98 0
-416 204 0
107 -368 0
-98 -165 0
102 142 0
43 -305 0
404 -365 0
389 82 0
296 -438 0
-14 107 0
471 -60 0
330 -364 0
-209 -51 0
490 -321 0
-349 122 0
137 -403 0
435 94 0
-335 410 0
311 97 0
-339 353 0
-124 -441 0
379 -431 0
-114 331 0
-477 22 0
234 -221 0
373 425 0
-214 432 0
-398 282 0
-335 12 0
241 70 0
-224 14 0
-168 182 0
-434 485 0
229 277 0
197 -496 0
205 383 0
38 498 0
-68 -422 0
-39 80 0
-249 14 0
-229 -224 0
79 187 0
-353 -75 0
-143 -15 0
199 -446 0
-87 -96 0
190 -497 0
49 -287 0
440 -144 0
189 161 0
87 -103 0
117 -180 0
-158 -208 0
282 482 0
-61 -214 0
382 -364 0
-279 -497 0
52 446 0
148 -218 0
147 -115 0
24 499 0
-74 -474 0
106 10 0
-6 361 0
-372 -26 0
-78 -7 0
302 -262 0
-6 -326 0
-109 -354 0
259 -3 0
269 45 0
-293 -423 0
-6 -159 0
-37 -389 0
-78 278 0
463 -323 0
288 207 0
-39 -73 0
325 -202 0
-398 188 0
391 428 0
-431 425 0
-255 240 0
-326 50 0
469 -281 0
46 -321 0
436 -65 0
363 -206 0
82 -391 0
-323 -60 0
246 -64 0
455 434 0
-281 435 0
421 194 0
-329 80 0
490 153 0
-43 -63 0
182 -28 0
-500 246 0
326 -374 0
50 -380 0
-296 443 0
380 -408 0
221 -175 0
-43 19 0
-18 -365 0
-290 19 0
384 314 0
-111 -68 0
-335 274 0
-464 -186 0
343 451 0
-429 457 0
-339 18 0
94 37 0
-59 396 0
394 -445 0
356 -387 0
36 -78 0
-369 -86 0
210 263 0
-292 -404 0
-202 -218 0
-409 459 0
-431 -129 0
397 -365 0
-57 -438 0
427 -406 0
50 361 0
291 -28 0
47 -304 0
420 -407 0
109 138 0
-124 17 0
310 -404 0
-16 -68 0
352 85 0
-360 -376 0
-239 -365 0
372 -112 0
-467 -216 0
461 -81 0
171 -265 0
107 82 0
101 355 0
231 -252 0
95 160 0
-331 17 0
-344 -481 0
-114 -336 0
148 -1 0
250 -21 0
-189 -68 0
-450 -144 0
-195 -180 0
-408 -489 0
-464 194 0
-218 271 0
182 441 0
168 -43 0
-369 -39 0
-488 -126 0
-184 -90 0
44 -222 0
-208 -123 0
182 -221 0
343 -336 0
-161 -124 0
184 -86 0
-366 -455 0
-98 -334 0
484 -494 0
369 277 0
124 260 0
-51 37 0
105 47 0
111 372 0
-77 -305 0
358 169 0
-44 -389 0
313 -370 0
-116 465 0
-121 -464 0
-190 -218 0
109 141 0
-135 93 0
486 -181 0
-68 -373 0
232 -20 0
213 401 0
101 462 0
-173 436 0
-203 424 0
-383 201 0
-398 445 0
-196 -144 0
-312 213 0
283 326 0
-412 466 0
280 55 0
-6 28 0
139 100 0
-130 -154 0
-41 -346 0
-481 -295 0
-434 439 0
3 -144 0
379 -100 0
-458 -87 0
2 -189 0
93 447 0
-409 -403 0
-432 282 0
172 -16 0
113 172 0
242 415 0
361 29 0
-190 425 0
34 -34 0
-373 396 0
-216 -66 0
-67 -77 0
260 136 0
18 154 0
401 -359 0
236 230 0
-364 89 0
494 136 0
-68 -335 0
-56 -87 0
-340 -163 0
-445 291 0
-57 -339 0
-129 463 0
9 -394 0
-457 274 0
-130 477 0
153 -343 0
164 117 0
-78 242 0
-181 -112 0
456 -112 0
136 60 0
-124 -24 0
-76 -6 0
-454 -405 0
159 -315 0
-442 310 0
-233 232 0
258 -464 0
-398 -124 0
431 -74 0
150 235 0
457 324 0
216 342 0
192 108 0
290 160 0
428 -38 0
456 -127 0
-312 -244 0
-390 -110 0
-445 -248 0
-146 -49 0
38 61 0
241 -1 0
-221 17 0
431 69 0
412 177 0
218 -218 0
417 -384 0
-58 -372 0
420 419 0
361 -447 0
-423 -171 0
-392 -304 0
284 313 0
389 310 0
-89 -162 0
45 216 0
457 -474 0
235 -407 0
456 220 0
133 -189 0
389 274 0
100 479 0
-8 69 0
238 -87 0
-371 -341 0
-449 -96 0
-367 233 0
-408 79 0
-213 48 0
385 -299 0
-431 -2 0
296 -387 0
237 -97 0
169 74 0
-5 -254 0
-215 231 0
246 -427 0
197 -59 0
-41 -307 0
-68 199 0
234 -182 0
-346 401 0
265 363 0
-255 -244 0
4 458 0
460 -292 0
-430 415 0
-322 489 0
200 -298 0
337 -253 0
462 351 0
-114 -409 0
118 -98 0
-421 -360 0
379 -14 0
-350 -65 0
62 -366 0
432 117 0
373 127 0
-147 -193 0
-373 -7 0
-104 382 0
131 11 0
137 -293 0
-497 362 0
-387 17 0
315 -381 0
-203 235 0
475 154 0
469 -484 0
39 -323 0
-468 -460 0
-176 -335 0
-42 154 0
176 -469 0
-360 499 0
-410 -229 0
426 424 0
473 -308 0
-474 50 0
367 -475 0
115 -351 0
-468 -403 0
-209 79 0
-142 233 0
440 -266 0
-189 342 0
-133 195 0
-445 -130 0
-194 324 0
-53 441 0
-183 -264 0
-365 69 0
-383 -62 0
242 195 0
428 -383 0
-290 80 0
45 -57 0
-60 159 0
-253 -83 0
151 205 0
-348 -322 0
-349 -336 0
-270 192 0
-183 83 0
-203 -409 0
311 79 0
496 -359 0
413 72 0
219 428 0
-337 -366 0
489 -54 0
-90 -313 0
232 -157 0
300 246 0
-331 451 0
-125 439 0
-306 237 0
-412 -445 0
-356 -203 0
374 -218 0
471 -8 0
-317 -60 0
301 -213 0
-123 -208 0
361 289 0
284 470 0
-226 164 0
215 377 0
-280 -427 0
-459 -439 0
-187 -99 0
-226 -296 0
-423 498 0
-213 -372 0
