c bounds 141 141 7.98
p cnf 500 600
245 136 0
-43 206 0
-390 440 0
172 -341 0
-58 -487 0
259 133 0
-403 -240 0
16 250 0
-485 -249 0
-40 -423 0
-208 -261 0
289 44 0
358 318 0
-277 154 0
151 -328 0
370 -317 0
-369 -236 0
341 252 0
-136 -84 0
271 214 0
-342 -343 0
-375 -119 0
497 314 0
53 427 0
-20 321 0
71 458 0
-162 -203 0
129 -391 0
-376 469 0
-319 -402 0
-347 200 0
361 373 0
-11 463 0
129 481 0
130 283 0
-299 5 0
4 276 0
-89 321 0
288 144 0
-118 -218 0
252 -121 0
330 -16 0
-226 -89 0
420 157 0
-183 -21 0
-292 51 0
-413 -1 0
-185 7 0
338 369 0
481 113 0
15 -173 0
-41 477 0
-339 243 0
386 325 0
-11 -372 0
193 -336 0
376 -228 0
331 150 0
-75 187 0
119 63 0
406 26 0
-335 351 0
-485 -183 0
-486 -171 0
379 -57 0
-478 279 0
-129 440 0
72 -190 0
282 238 0
-44 -135 0
410 -286 0
-150 -441 0
31 -294 0
108 -360 0
-30 -394 0
241 347 0
-346 139 0
87 -450 0
-291 -323 0
-105 362 0
457 -233 0
-21 -487 0
-21 165 0
236 408 0
212 129 0
328 103 0
-148 223 0
-383 -65 0
-237 -155 0
-347 -326 0
-113 365 0
267 68 0
258 220 0
16 -114 0
-367 147 0
213 -299 0
101 -175 0
-263 400 0
-313 449 0
-494 -60 0
-443 146 0
-34 317 0
-433 140 0
-218 -352 0
-169 -330 0
382 135 0
382 162 0
-342 -162 0
-54 70 0
491 211 0
430 -428 0
-442 457 0
-54 431 0
227 -168 0
302 70 0
75 -85 0
-247 381 0
-44 253 0
271 -269 0
-383 -488 0
-101 -474 0
465 424 0
-37 324 0
-342 -85 0
200 -118 0
-247 -110 0
220 261 0
199 39 0
-299 -301 0
225 55 0
-435 -346 0
393 -164 0
236 -258 0
-215 46 0
-247 290 0
461 271 0
-465 328 0
-358 309 0
-263 158 0
285 -11 0
360 -352 0
-8 -407 0
-484 -254 0
337 -299 0
-480 -177 0
410 114 0
-110 232 0
359 394 0
351 371 0
-52 -204 0
-218 467 0
-118 -91 0
-32 332 0
-441 -85 0
450 357 0
-348 333 0
183 4 0
-196 -492 0
-483 -115 0
-495 229 0
-272 -332 0
-298 -458 0
161 389 0
-372 -455 0
250 39 0
-278 -246 0
-211 -242 0
483 -443 0
313 439 0
410 -249 0
-188 -32 0
83 -157 0
-425 -41 0
116 351 0
-144 -50 0
-496 1 0
-180 478 0
-360 435 0
-489 87 0
435 488 0
-305 -320 0
-215 -143 0
-422 -365 0
400 33 0
390 -56 0
244 -184 0
381 -493 0
294 -175 0
-75 -375 0
393 -206 0
127 -196 0
-29 -220 0
-307 184 0
201 386 0
441 219 0
-376 -66 0
-184 338 0
-104 13 0
-102 -81 0
-53 -499 0
-406 63 0
322 156 0
-180 -133 0
-307 -438 0
187 -365 0
339 -409 0
-57 337 0
379 252 0
-285 341 0
-102 461 0
65 -439 0
-201 -28 0
61 217 0
-327 -85 0
201 386 0
-375 177 0
-90 -211 0
430 403 0
418 -189 0
57 -397 0
483 -330 0
418 -342 0
-469 -98 0
259 260 0
147 -415 0
-77 -162 0
4 -45 0
433 -78 0
197 -341 0
-206 -458 0
50 328 0
433 -29 0
-347 -495 0
424 329 0
1 173 0
339 -231 0
173 281 0
492 397 0
15 -99 0
-135 500 0
56 -44 0
-218 214 0
109 -391 0
497 425 0
-156 -34 0
6 22 0
-441 -203 0
155 440 0
-267 -360 0
268 43 0
182 76 0
314 195 0
-286 -299 0
-447 81 0
-114 -368 0
468 353 0
294 -102 0
226 -253 0
-283 293 0
-221 -35 0
-7 45 0
-389 -278 0
-276 70 0
7 363 0
-400 285 0
45 47 0
-132 457 0
-455 -29 0
-126 63 0
-397 197 0
390 105 0
-201 -297 0
-413 419 0
412 -168 0
-428 -56 0
-190 -195 0
381 -128 0
382 176 0
-26 246 0
-348 -62 0
299 15 0
-447 -201 0
-372 -289 0
-115 -470 0
467 412 0
290 -149 0
70 -178 0
301 457 0
340 -235 0
-278 -466 0
-29 345 0
108 -306 0
329 -262 0
-494 -294 0
-462 488 0
-38 -149 0
268 -153 0
-101 -235 0
-178 -201 0
275 -64 0
151 354 0
-286 -347 0
219 7 0
123 217 0
148 404 0
110 457 0
434 -84 0
484 241 0
-298 -328 0
80 -23 0
-438 9 0
-428 156 0
-375 -357 0
270 455 0
-121 -254 0
-498 401 0
130 -104 0
442 -494 0
64 25 0
-432 -307 0
-30 446 0
-400 65 0
424 327 0
-364 -231 0
-105 -97 0
329 -415 0
354 -428 0
-39 -120 0
179 479 0
242 -52 0
62 140 0
135 -270 0
286 46 0
-143 -309 0
-322 170 0
-186 290 0
-366 -91 0
489 -413 0
201 433 0
350 115 0
-260 -372 0
-436 -330 0
325 202 0
152 236 0
-392 -451 0
-494 316 0
-448 171 0
31 -199 0
-364 416 0
487 -34 0
-107 -157 0
-291 277 0
-454 -256 0
264 -92 0
-482 -26 0
343 -181 0
398 250 0
28 137 0
368 435 0
206 276 0
301 468 0
325 -283 0
167 251 0
-61 144 0
-46 -272 0
-396 289 0
480 221 0
407 -448 0
83 -217 0
-168 -26 0
362 -391 0
386 -377 0
-195 343 0
45 -131 0
-118 62 0
-481 -42 0
172 -312 0
-487 134 0
-274 -139 0
422 -454 0
-271 20 0
449 -215 0
154 334 0
23 -116 0
385 163 0
324 73 0
-261 304 0
410 17 0
209 331 0
-338 -431 0
94 -375 0
-211 -38 0
-283 -299 0
-29 66 0
-419 304 0
464 500 0
-78 -49 0
-476 381 0
153 52 0
281 191 0
-253 -432 0
468 155 0
219 -193 0
370 51 0
142 -354 0
214 459 0
-121 -41 0
160 306 0
-447 222 0
480 -100 0
-202 -367 0
-48 -342 0
276 257 0
206 241 0
326 -90 0
33 -485 0
-485 -372 0
-413 -18 0
-127 -58 0
468 37 0
235 -115 0
-77 421 0
67 398 0
139 -205 0
27 -168 0
339 171 0
113 61 0
454 199 0
-44 -438 0
-360 129 0
-430 -102 0
304 376 0
-368 -262 0
-184 -332 0
-346 -344 0
-370 -254 0
-171 72 0
328 -361 0
-19 -255 0
-352 184 0
-127 -272 0
89 -272 0
1 114 0
167 -368 0
144 349 0
36 1 0
154 227 0
-24 -101 0
129 414 0
170 -265 0
315 -434 0
183 476 0
402 -455 0
106 430 0
264 -65 0
209 -495 0
460 -451 0
-211 -415 0
15 -358 0
457 156 0
494 480 0
124 -96 0
356 467 0
-222 -101 0
485 386 0
-346 -242 0
-362 -388 0
239 30 0
59 428 0
408 472 0
-234 -372 0
267 -26 0
-98 241 0
250 -375 0
24 326 0
-73 -493 0
123 269 0
32 250 0
463 -110 0
428 -431 0
443 -92 0
-356 -288 0
136 -216 0
475 167 0
-168 -180 0
38 -301 0
390 -456 0
439 467 0
-168 102 0
-219 409 0
-347 -387 0
317 98 0
-378 26 0
463 -281 0
147 417 0
86 444 0
169 328 0
-418 -110 0
458 -383 0
191 29 0
-297 312 0
61 282 0
53 -482 0
-74 -339 0
362 -207 0
-371 -455 0
189 43 0
-84 -322 0
-43 -217 0
-74 -32 0
-445 -266 0
323 -225 0
-322 230 0
-134 28 0
-282 -117 0
-26 291 0
223 280 0
435 59 0
-32 380 0
-466 -330 0
-168 -105 0
424 308 0
-208 -161 0
410 204 0
195 -101 0
-301 -157 0
172 475 0
338 -473 0
-52 -47 0
138 220 0
156 -348 0
-337 -405 0
18 -58 0
-96 446 0
238 319 0
37 -85 0
-262 326 0
-447 28 0
300 276 0
82 -30 0
-403 267 0
318 -131 0
145 462 0
183 -362 0
156 -174 0
-244 219 0
-270 78 0
431 408 0
31 -377 0
-16 -11 0
398 -81 0
126 361 0
342 -341 0
-164 258 0
-408 363 0
-34 -81 0
-217 212 0
87 -454 0
18 -26 0
-54 384 0
315 312 0
-290 24 0
-391 -424 0
430 -322 0
-470 -138 0
189 -326 0
-182 -370 0
-135 -445 0
-177 159 0
-413 -439 0
-200 465 0
-495 -311 0
227 202 0
221 419 0
-195 -67 0
-383 322 0
94 311 0
-282 405 0
242 -164 0
257 316 0
479 -78 0
169 -137 0
128 14 0
69 -392 0
198 395 0
239 -163 0
261 219 0
-21 417 0
302 -349 0
-106 411 0
343 435 0
417 -151 0
171 -428 0
-131 -67 0
-57 421 0
253 -96 0
416 -255 0
-323 287 0
-434 410 0
-5 293 0
