c bounds 74 74 21.32
p cnf 500 1200
-264 477 0
107 -1 0
120 -237 0
257 392 0
-312 291 0
152 29 0
124 -283 0
-117 -494 0
110 -152 0
-245 120 0
-177 -311 0
388 200 0
-484 417 0
-152 -120 0
-424 369 0
400 375 0
-212 -30 0
72 -384 0
-430 160 0
-183 262 0
-376 409 0
-245 90 0
-203 -467 0
-35 415 0
-336 -256 0
156 -188 0
291 -476 0
17 121 0
-272 182 0
39 -369 0
186 -474 0
474 -260 0
-251 -189 0
261 422 0
66 -61 0
150 90 0
259 -93 0
500 136 0
169 -230 0
-371 -99 0
-124 96 0
-105 -277 0
-70 477 0
281 -398 0
-171 -232 0
-86 495 0
-152 -419 0
410 -348 0
372 403 0
37 -449 0
200 -164 0
26 -418 0
-241 -305 0
-494 83 0
-295 308 0
-255 -27 0
-113 -135 0
435 70 0
-270 306 0
265 -252 0
-301 298 0
-51 406 0
194 -452 0
257 -187 0
-403 -273 0
130 103 0
288 -419 0
291 -35 0
-291 377 0
352 -310 0
-341 161 0
238 268 0
141 161 0
380 122 0
-104 -19 0
388 -336 0
-399 -219 0
41 -328 0
70 353 0
-175 128 0
-424 -34 0
-275 -186 0
-424 -480 0
-401 287 0
-462 -461 0
83 78 0
-34 -172 0
-38 342 0
-155 412 0
-180 333 0
-173 -410 0
200 -38 0
191 -105 0
235 -25 0
-143 -356 0
-321 500 0
-276 -286 0
350 -462 0
400 -183 0
-252 -164 0
-412 -423 0
369 25 0
-214 36 0
228 151 0
476 -238 0
-127 -232 0
278 200 0
337 334 0
-442 -131 0
394 -383 0
-386 -160 0
189 -227 0
493 -65 0
485 226 0
441 246 0
-73 -477 0
232 -492 0
-184 -288 0
-184 -302 0
35 -216 0
-118 -378 0
-250 -166 0
77 -177 0
-471 -462 0
-349 449 0
-195 -39 0
477 253 0
275 461 0
189 -32 0
201 57 0
500 455 0
-142 357 0
-182 301 0
420 -62 0
-22 75 0
-343 -472 0
299 -210 0
-3 326 0
-382 418 0
355 291 0
491 -7 0
363 483 0
462 159 0
180 -116 0
-416 -227 0
-18 -124 0
286 -209 0
69 -408 0
-248 66 0
9 305 0
-397 193 0
274 470 0
428 361 0
153 -237 0
233 -173 0
-221 -173 0
362 189 0
158 298 0
-414 -21 0
-424 -233 0
-482 494 0
261 403 0
-117 471 0
-3 7 0
-210 -239 0
-227 367 0
-276 26 0
385 -413 0
335 -167 0
335 354 0
-352 -113 0
434 -499 0
-469 6 0
35 377 0
347 -492 0
-115 -28 0
-470 -145 0
-97 261 0
-216 -330 0
-124 -360 0
291 270 0
-352 -152 0
-238 -221 0
274 268 0
138 299 0
192 31 0
38 98 0
-35 199 0
-312 -224 0
-156 385 0
-349 -297 0
-64 115 0
-8 -116 0
459 282 0
-56 101 0
-147 -227 0
-279 -78 0
28 2 0
-252 37 0
160 23 0
-134 -486 0
192 395 0
-371 162 0
355 253 0
-222 -177 0
-419 -430 0
-270 431 0
465 477 0
-318 -62 0
-401 136 0
299 191 0
490 161 0
218 -398 0
107 161 0
-149 -194 0
274 -208 0
12 -283 0
-89 489 0
-52 -252 0
-168 -148 0
32 -105 0
-373 -133 0
-128 -439 0
-265 -264 0
-303 254 0
-7 23 0
357 -212 0
-124 -330 0
70 -112 0
93 137 0
266 -436 0
357 419 0
368 -132 0
-350 -297 0
414 48 0
101 -461 0
-400 473 0
313 392 0
296 159 0
-336 -471 0
40 -320 0
-351 489 0
23 -452 0
-179 456 0
-348 -92 0
204 498 0
-195 -48 0
259 -402 0
243 482 0
-52 68 0
191 106 0
394 407 0
425 395 0
284 -217 0
137 394 0
84 -454 0
223 79 0
-125 -92 0
403 125 0
456 -387 0
385 -207 0
-100 49 0
17 -429 0
268 335 0
336 -250 0
382 326 0
395 -139 0
183 493 0
434 344 0
472 -402 0
472 -204 0
-386 -34 0
-297 410 0
403 345 0
51 -31 0
244 -492 0
341 -246 0
-298 190 0
-437 274 0
-132 400 0
166 -355 0
-132 -292 0
-307 294 0
195 374 0
299 -488 0
-462 307 0
-354 254 0
362 -336 0
-233 -347 0
480 -322 0
-33 358 0
233 158 0
287 -384 0
387 309 0
358 58 0
8 -214 0
315 -223 0
144 316 0
124 -259 0
241 218 0
-66 -263 0
353 120 0
-442 -391 0
277 183 0
497 148 0
-307 422 0
121 -245 0
-244 288 0
412 418 0
200 -317 0
-490 -331 0
-297 103 0
134 431 0
-219 115 0
85 -172 0
176 -328 0
-105 353 0
54 -370 0
-171 6 0
-472 76 0
383 448 0
-23 -112 0
-386 -446 0
-295 -408 0
-171 -295 0
-454 277 0
360 367 0
-160 -252 0
370 439 0
-27 1 0
-405 473 0
-443 385 0
137 77 0
448 -497 0
-206 -18 0
375 -410 0
-354 436 0
380 -83 0
10 -95 0
-363 -29 0
-19 90 0
-402 -432 0
355 -49 0
-312 151 0
-283 29 0
-145 -224 0
-324 -448 0
494 130 0
-402 -471 0
420 -330 0
-164 -172 0
229 425 0
249 190 0
-386 -134 0
-331 50 0
-330 -322 0
383 221 0
110 -246 0
-125 -123 0
497 -105 0
-218 395 0
270 109 0
-254 -94 0
279 348 0
218 -338 0
25 270 0
-47 160 0
-5 -67 0
431 -357 0
-60 334 0
-183 -143 0
-344 -449 0
-218 -339 0
-219 -393 0
-219 -407 0
187 438 0
278 62 0
-452 -464 0
443 -150 0
337 -341 0
-30 -157 0
188 -440 0
-414 -383 0
-423 39 0
66 -323 0
-98 -31 0
-163 53 0
296 -92 0
174 -370 0
-417 -339 0
-49 -209 0
-31 249 0
235 -278 0
-69 476 0
-464 -474 0
498 -32 0
-26 -464 0
79 -397 0
80 -51 0
-232 81 0
-230 369 0
6 -459 0
-6 29 0
329 -16 0
-323 -25 0
-247 -435 0
-347 126 0
304 -134 0
-32 393 0
463 -444 0
236 274 0
-224 -416 0
176 -276 0
-474 235 0
-145 290 0
-63 414 0
484 -308 0
360 -365 0
2 71 0
368 -139 0
-381 475 0
499 53 0
1 465 0
80 460 0
228 -39 0
275 76 0
-344 101 0
-113 -202 0
284 280 0
-297 443 0
418 -286 0
-218 255 0
-215 -394 0
-458 411 0
44 -464 0
-426 -365 0
-164 -405 0
460 168 0
-95 432 0
-462 -99 0
-234 353 0
380 -58 0
-207 -344 0
-129 -453 0
333 77 0
298 -427 0
-433 -196 0
-263 -132 0
279 -86 0
-249 346 0
14 -60 0
-324 75 0
-269 431 0
-52 -431 0
259 478 0
216 -67 0
-471 -391 0
-245 68 0
429 137 0
-246 -436 0
268 -19 0
136 -42 0
114 -386 0
-321 -324 0
-266 162 0
-391 239 0
284 435 0
313 265 0
-453 -82 0
72 -175 0
-177 262 0
272 221 0
-67 315 0
-323 -219 0
-250 274 0
-405 -443 0
79 448 0
255 -233 0
-135 199 0
-354 290 0
-224 325 0
375 147 0
-440 264 0
-214 268 0
293 493 0
-209 -325 0
486 497 0
-442 -435 0
76 294 0
275 -28 0
-315 282 0
-248 -454 0
-30 294 0
-23 392 0
263 12 0
169 -306 0
-52 131 0
422 359 0
380 361 0
172 -275 0
-42 208 0
-430 137 0
-284 -28 0
-343 10 0
-344 295 0
-275 -442 0
288 89 0
-262 434 0
-153 441 0
-133 355 0
164 130 0
344 -245 0
145 -471 0
-216 -99 0
-18 -64 0
-7 -182 0
429 80 0
475 -346 0
202 372 0
112 361 0
32 -283 0
227 -283 0
427 -100 0
-341 57 0
236 412 0
212 153 0
-366 -308 0
-224 380 0
-404 73 0
346 308 0
-474 396 0
137 -280 0
-490 411 0
-421 278 0
-352 108 0
187 214 0
214 203 0
327 476 0
-407 78 0
-435 -247 0
-476 6 0
-277 -32 0
-99 -390 0
-23 355 0
411 -233 0
-343 422 0
-83 -386 0
-293 37 0
-349 -391 0
-242 -177 0
-271 107 0
396 455 0
5 -266 0
-244 280 0
-356 355 0
-247 -311 0
94 -196 0
299 478 0
-58 417 0
-95 371 0
462 361 0
425 120 0
-378 418 0
48 -213 0
461 461 0
484 -94 0
-104 -127 0
-91 -21 0
178 -133 0
54 490 0
271 -31 0
-389 424 0
271 -427 0
446 -85 0
-355 255 0
51 -289 0
-124 36 0
-206 -242 0
-163 84 0
84 -374 0
-246 327 0
-341 281 0
441 -492 0
373 309 0
97 165 0
-51 260 0
-386 97 0
198 -500 0
244 -145 0
11 309 0
405 -295 0
-476 101 0
121 381 0
-367 43 0
257 353 0
-453 -162 0
-311 -187 0
446 -241 0
-263 -469 0
-163 495 0
310 -168 0
167 -325 0
280 -142 0
357 150 0
498 190 0
-34 -49 0
160 42 0
477 487 0
37 25 0
149 -97 0
183 -140 0
-187 400 0
405 446 0
396 -13 0
-477 -88 0
-382 314 0
-290 -399 0
395 -201 0
-57 109 0
-363 248 0
59 199 0
115 160 0
-303 -328 0
50 -76 0
-441 -19 0
434 -452 0
-32 194 0
-149 313 0
228 -248 0
50 86 0
235 -117 0
-3 326 0
-387 198 0
-195 -483 0
353 -276 0
-110 -143 0
19 -416 0
-246 170 0
288 337 0
403 222 0
-312 201 0
-358 -163 0
-64 -224 0
-282 472 0
-468 475 0
96 70 0
77 53 0
-194 58 0
-389 -347 0
463 40 0
-173 455 0
169 -438 0
445 477 0
26 -376 0
-151 -91 0
323 -414 0
-52 -180 0
81 -407 0
98 204 0
189 -443 0
296 224 0
-457 -112 0
-173 -416 0
-258 -21 0
386 -13 0
477 438 0
41 461 0
126 -93 0
-156 -457 0
469 -102 0
465 -245 0
-275 145 0
167 -376 0
314 297 0
-189 122 0
232 -469 0
-311 -120 0
383 -19 0
26 110 0
208 -167 0
422 -361 0
432 489 0
-126 -227 0
-134 -398 0
-95 65 0
421 197 0
53 58 0
264 -117 0
162 433 0
-458 -209 0
134 -259 0
-222 -93 0
390 -391 0
-62 -408 0
248 494 0
360 -347 0
90 -489 0
-70 299 0
-435 130 0
-407 98 0
477 -149 0
-260 -38 0
367 -109 0
180 -359 0
288 -22 0
-143 54 0
294 476 0
-22 -59 0
357 19 0
196 478 0
169 43 0
377 -85 0
187 -355 0
-22 -356 0
-384 -374 0
-203 288 0
491 98 0
315 408 0
-461 -440 0
-248 33 0
325 -457 0
-155 410 0
408 -442 0
-300 200 0
10 -259 0
50 -109 0
107 409 0
-147 351 0
-232 -187 0
-289 201 0
-90 -317 0
69 -139 0
-227 281 0
235 391 0
-409 40 0
381 247 0
323 65 0
-341 19 0
329 477 0
-311 207 0
279 -227 0
412 -231 0
152 494 0
-64 -344 0
85 193 0
-73 321 0
96 487 0
-231 -373 0
176 447 0
-458 291 0
478 199 0
-80 268 0
355 -402 0
-83 345 0
306 211 0
-366 -428 0
-467 475 0
-42 94 0
-269 496 0
-292 261 0
290 -340 0
-211 315 0
-430 65 0
315 44 0
146 382 0
229 354 0
-93 186 0
-469 -402 0
-224 469 0
353 406 0
-455 266 0
-367 338 0
-139 -62 0
377 160 0
-181 -30 0
-73 110 0
-138 -130 0
-208 -452 0
-113 -37 0
2 27 0
347 84 0
-155 -209 0
249 291 0
-88 -84 0
56 -133 0
398 -414 0
-216 196 0
342 -140 0
282 327 0
-488 -100 0
61 -45 0
459 -310 0
166 -140 0
219 -148 0
-450 479 0
36 69 0
256 198 0
156 -214 0
-207 44 0
247 490 0
-119 269 0
-105 23 0
-365 -18 0
274 232 0
-270 111 0
-49 -140 0
94 365 0
-317 -415 0
132 96 0
-19 -224 0
-462 -67 0
-320 115 0
-112 -216 0
137 -443 0
307 -270 0
261 -32 0
-68 -81 0
-361 -38 0
-153 368 0
-290 -251 0
495 403 0
306 -330 0
-149 407 0
174 -323 0
-113 200 0
-78 122 0
369 -244 0
379 223 0
-341 -298 0
-247 -177 0
-415 -453 0
444 -194 0
309 -46 0
246 -134 0
490 228 0
486 -120 0
-168 398 0
-497 -302 0
4 369 0
145 -60 0
288 -161 0
-403 225 0
-273 471 0
-97 5 0
300 94 0
-427 75 0
-452 -41 0
-22 -312 0
271 -109 0
339 -469 0
110 -45 0
486 214 0
62 465 0
-237 -82 0
83 83 0
-116 385 0
373 370 0
-68 71 0
209 23 0
197 -19 0
-440 452 0
273 115 0
-78 -33 0
-389 232 0
66 -10 0
-202 -349 0
482 -402 0
9 232 0
-352 -295 0
109 301 0
-7 -28 0
-426 -227 0
160 159 0
-31 441 0
-295 -4 0
483 -211 0
240 434 0
-231 22 0
-482 -427 0
458 189 0
42 76 0
160 -42 0
329 -12 0
-260 325 0
333 -69 0
-135 -224 0
-206 -276 0
-123 406 0
92 449 0
-452 238 0
-266 -186 0
-226 400 0
-373 -310 0
325 268 0
-497 70 0
-164 343 0
-44 -86 0
385 -66 0
-74 66 0
-256 -317 0
395 105 0
-103 -372 0
382 479 0
431 -4 0
495 -152 0
-488 -381 0
-84 235 0
-404 -220 0
350 -214 0
-342 403 0
-488 14 0
476 11 0
-330 157 0
75 63 0
-190 223 0
-346 271 0
-196 -262 0
-431 71 0
-270 -121 0
332 -56 0
137 329 0
388 -472 0
461 -387 0
290 -167 0
-468 484 0
-134 -186 0
-209 -57 0
-470 478 0
273 346 0
353 -67 0
-164 11 0
-5 -300 0
54 287 0
-149 -224 0
-413 215 0
-239 -88 0
246 359 0
-167 -45 0
223 -298 0
-474 269 0
-321 375 0
152 394 0
120 178 0
494 153 0
-175 469 0
-407 -492 0
-113 -276 0
-238 107 0
241 -379 0
-482 -120 0
140 465 0
131 -95 0
230 -462 0
233 75 0
-101 280 0
-267 -297 0
-202 -147 0
456 407 0
-243 274 0
-106 211 0
319 82 0
261 -467 0
-140 333 0
-364 205 0
-92 160 0
-407 170 0
-422 -195 0
-336 -284 0
-97 279 0
244 -132 0
375 -145 0
429 -4 0
313 268 0
264 -490 0
329 -371 0
192 404 0
-469 -65 0
54 -389 0
131 97 0
-421 346 0
-266 -28 0
-277 490 0
7 285 0
366 -152 0
-387 -416 0
137 133 0
-125 -320 0
70 -383 0
342 189 0
158 -494 0
443 437 0
481 -402 0
482 239 0
-291 -186 0
179 145 0
455 111 0
328 -340 0
-423 -317 0
290 -399 0
-207 -254 0
205 51 0
300 176 0
-71 59 0
187 -412 0
-68 472 0
-358 327 0
-272 -185 0
-80 -312 0
59 -19 0
-226 -428 0
-4 70 0
282 -360 0
381 97 0
370 355 0
-99 79 0
269 -223 0
183 -207 0
465 -84 0
211 -449 0
315 387 0
14 115 0
240 455 0
-277 -150 0
-108 -402 0
-388 -62 0
-179 -401 0
379 81 0
-271 -426 0
-415 -3 0
-322 -41 0
235 390 0
-328 -209 0
-2 -150 0
-219 -297 0
-55 -147 0
-384 -469 0
-314 144 0
-310 36 0
395 284 0
-48 36 0
-60 370 0
-263 -89 0
87 431 0
200 54 0
-417 431 0
10 39 0
431 -423 0
10 -472 0
96 198 0
304 53 0
293 141 0
60 380 0
450 -22 0
339 -416 0
284 -143 0
50 -18 0
33 -164 0
-55 -413 0
5 -213 0
403 -310 0
-244 65 0
251 135 0
92 478 0
88 -347 0
361 -142 0
-30 448 0
287 42 0
-348 -226 0
310 -322 0
-426 -29 0
-205 -99 0
-267 -62 0
-254 486 0
5 367 0
198 130 0
267 -398 0
-266 -47 0
218 -255 0
61 -352 0
496 -409 0
412 -354 0
136 257 0
377 130 0
38 109 0
-396 -171 0
417 -342 0
-101 -323 0
162 -397 0
17 -326 0
239 296 0
446 -439 0
-390 379 0
383 23 0
369 -241 0
-164 -272 0
-82 -139 0
274 -363 0
-295 345 0
410 156 0
74 -158 0
399 -260 0
193 -38 0
310 434 0
242 479 0
128 -116 0
-4 294 0
-80 -301 0
285 -37 0
153 326 0
-92 -2 0
44 -168 0
-276 -227 0
357 324 0
314 -41 0
-213 -412 0
50 241 0
-376 -478 0
255 193 0
269 -421 0
-377 -435 0
-344 476 0
-254 -402 0
154 -463 0
339 -289 0
367 394 0
319 344 0
483 174 0
-127 413 0
-251 -300 0
58 262 0
-378 390 0
345 -296 0
422 -128 0
74 71 0
500 435 0
364 20 0
294 -488 0
-248 240 0
70 292 0
-322 -363 0
11 -471 0
375 337 0
-349 -82 0
-56 109 0
280 -151 0
-209 -77 0
173 -52 0
-140 -146 0
-150 399 0
218 -379 0
134 -220 0
465 -131 0
-454 -419 0
426 485 0
-225 115 0
-365 377 0
-33 278 0
-62 115 0
-65 40 0
-273 137 0
-361 109 0
118 -114 0
296 -499 0
-115 481 0
-71 -286 0
77 249 0
7 411 0
197 -424 0
264 -307 0
271 -45 0
484 -342 0
274 67 0
-139 48 0
1 -1 0
161 -424 0
368 -116 0
14 180 0
-369 212 0
353 29 0
411 -486 0
419 118 0
-280 332 0
223 -135 0
355 -376 0
-404 340 0
-15 -140 0
-92 -265 0
-334 -310 0
358 -334 0
-233 53 0
-242 -219 0
260 449 0
279 446 0
476 429 0
374 163 0
-469 374 0
360 -467 0
-192 -68 0
367 -264 0
145 219 0
