c bounds 50 50 0.04
p cnf 500 1950
-287 28 0
482 -215 0
205 276 0
337 401 0
372 -224 0
-309 324 0
29 -142 0
90 -95 0
-1 -9 0
-118 -367 0
458 379 0
286 -193 0
399 408 0
-419 391 0
-85 -310 0
-197 150 0
-117 271 0
-405 -450 0
-376 -484 0
245 -150 0
363 -428 0
233 282 0
-420 267 0
-123 -38 0
-228 115 0
455 -77 0
-337 477 0
46 446 0
-23 -274 0
13 44 0
-350 276 0
-428 -307 0
404 -17 0
-40 -109 0
233 -256 0
190 155 0
-375 -137 0
110 -452 0
-468 -14 0
434 -296 0
-326 316 0
308 -77 0
9 -292 0
-379 123 0
300 -285 0
-77 156 0
116 -277 0
-473 372 0
-416 33 0
446 425 0
164 -268 0
70 -213 0
55 196 0
-126 466 0
260 164 0
-219 405 0
-412 405 0
-306 -353 0
-161 -93 0
-31 154 0
152 -74 0
374 393 0
344 -470 0
-372 -385 0
-283 88 0
-230 200 0
-264 306 0
391 -353 0
-19 347 0
265 -232 0
-36 -377 0
-76 134 0
330 -166 0
58 -300 0
98 202 0
-112 415 0
49 258 0
-114 293 0
-349 -432 0
-458 -415 0
467 -395 0
212 -174 0
-251 76 0
-57 -244 0
-468 385 0
179 348 0
-156 269 0
65 231 0
-181 -397 0
-203 28 0
491 -435 0
-208 -86 0
-432 -213 0
-259 373 0
445 284 0
-374 -309 0
127 280 0
-163 2 0
480 227 0
15 191 0
-364 220 0
-57 305 0
13 -354 0
348 32 0
476 -179 0
112 -453 0
-24 -242 0
448 360 0
-130 373 0
-275 315 0
98 87 0
70 -7 0
187 451 0
-325 -70 0
371 414 0
-412 380 0
-211 234 0
12 330 0
-214 -8 0
-186 -416 0
265 261 0
86 -154 0
-271 -405 0
334 187 0
-197 439 0
-266 77 0
-449 -352 0
-102 281 0
-33 13 0
172 -354 0
-258 256 0
358 86 0
214 18 0
152 -102 0
446 -296 0
189 350 0
140 -64 0
-217 -290 0
378 486 0
240 -396 0
-301 70 0
132 -473 0
82 174 0
-478 -35 0
-17 -344 0
427 256 0
87 426 0
-248 -136 0
77 -269 0
162 235 0
280 -383 0
-160 282 0
228 -90 0
454 229 0
-469 -347 0
134 222 0
374 -340 0
-283 449 0
-377 -86 0
-306 345 0
-453 -17 0
177 -103 0
-174 -126 0
372 -110 0
-202 -258 0
-364 -39 0
-340 419 0
486 477 0
446 221 0
306 -288 0
158 -188 0
387 55 0
-77 -131 0
236 -60 0
-128 -161 0
-363 287 0
464 72 0
53 -381 0
124 -422 0
206 167 0
138 327 0
-362 -154 0
21 372 0
253 -74 0
370 292 0
382 183 0
-308 -258 0
-49 410 0
-325 117 0
465 -165 0
456 393 0
-196 190 0
364 -159 0
382 -195 0
188 125 0
366 -157 0
-346 -324 0
408 285 0
-467 -143 0
176 -151 0
248 98 0
184 -144 0
337 -296 0
-341 -323 0
20 -499 0
-273 -35 0
-363 261 0
99 284 0
347 338 0
382 -386 0
-341 -350 0
-387 -354 0
263 475 0
-98 -102 0
-268 17 0
414 -369 0
30 434 0
275 312 0
363 -499 0
-43 483 0
-202 418 0
-28 -344 0
-238 -81 0
-430 -459 0
-258 222 0
-66 205 0
347 257 0
218 41 0
402 38 0
80 487 0
85 474 0
-499 -235 0
-136 298 0
-470 164 0
229 334 0
433 252 0
410 -174 0
206 261 0
-272 -238 0
124 -33 0
285 -93 0
134 -140 0
125 429 0
-145 17 0
343 461 0
-443 358 0
281 274 0
-89 286 0
-454 245 0
-176 -133 0
125 148 0
-288 -181 0
-171 337 0
187 -479 0
-119 32 0
-477 42 0
-374 -379 0
-192 56 0
-468 -328 0
-495 -417 0
324 245 0
250 59 0
-140 -365 0
106 -491 0
-153 -97 0
-214 95 0
414 -359 0
451 -451 0
-464 -497 0
103 426 0
-415 60 0
-221 -318 0
-385 133 0
-40 493 0
204 415 0
-46 -451 0
-125 15 0
114 -106 0
-375 96 0
251 150 0
477 -303 0
170 -456 0
-70 55 0
176 -342 0
-191 -101 0
-157 -326 0
-479 389 0
452 106 0
-71 -147 0
270 327 0
-428 -166 0
72 40 0
357 481 0
-117 -480 0
-455 397 0
-352 -125 0
222 -191 0
284 203 0
-467 317 0
-128 -46 0
-376 -171 0
-417 -184 0
301 144 0
-377 245 0
-243 -352 0
160 239 0
160 -358 0
-77 83 0
-145 107 0
-167 65 0
206 183 0
289 -184 0
-166 54 0
-216 291 0
-189 -358 0
434 50 0
-239 289 0
117 -322 0
162 365 0
-108 116 0
75 -296 0
-361 385 0
244 -25 0
-48 306 0
261 -465 0
-432 299 0
-340 -5 0
12 -309 0
-261 21 0
162 31 0
-322 -35 0
166 441 0
115 353 0
211 -341 0
-447 427 0
-344 -431 0
-214 372 0
-48 75 0
-98 -215 0
-278 -301 0
-197 -322 0
223 267 0
138 98 0
-194 -69 0
-405 -460 0
-459 -244 0
247 380 0
433 -179 0
265 -184 0
437 -409 0
-221 -290 0
341 283 0
8 207 0
167 233 0
-297 -291 0
81 -396 0
-229 -109 0
21 -69 0
39 488 0
134 55 0
245 -117 0
61 -133 0
-333 -23 0
370 -163 0
-356 273 0
225 -215 0
11 -303 0
-39 204 0
-150 42 0
373 292 0
267 86 0
-452 101 0
-309 267 0
-327 -156 0
311 -289 0
-249 148 0
-412 -53 0
1 392 0
-3 468 0
41 -496 0
-299 -254 0
-288 356 0
319 331 0
298 439 0
-453 251 0
331 457 0
-162 -420 0
94 260 0
-76 -113 0
-43 134 0
-401 316 0
442 451 0
-318 -271 0
-242 124 0
139 -349 0
82 -422 0
-38 331 0
422 -443 0
-110 -492 0
393 462 0
270 189 0
-181 -65 0
-218 -110 0
-465 200 0
223 176 0
338 319 0
373 -344 0
127 -453 0
116 -386 0
-57 125 0
418 266 0
-284 -377 0
-429 -188 0
-216 113 0
489 -412 0
-116 -211 0
283 -175 0
-296 -395 0
415 114 0
-276 277 0
-336 12 0
452 483 0
-400 -201 0
-78 -87 0
196 -377 0
-320 -344 0
-144 228 0
-208 -275 0
-420 127 0
127 151 0
-101 50 0
-73 72 0
426 -497 0
348 52 0
12 215 0
448 -94 0
-190 382 0
324 -29 0
252 -283 0
-302 -192 0
-349 -368 0
5 -322 0
-37 -240 0
-278 -57 0
399 19 0
190 -322 0
-287 289 0
-273 57 0
481 -437 0
-78 250 0
-49 -181 0
246 51 0
54 -198 0
216 -3 0
457 -369 0
-50 116 0
-222 466 0
-452 393 0
279 48 0
414 185 0
-451 25 0
-196 -366 0
-123 -337 0
-228 -432 0
189 16 0
-357 491 0
311 -473 0
-333 220 0
452 -271 0
-187 -17 0
357 -451 0
207 -365 0
-406 69 0
66 -273 0
209 -302 0
-149 96 0
378 -425 0
-272 401 0
-259 168 0
-92 274 0
380 160 0
-362 -195 0
-1 233 0
-103 81 0
447 -326 0
195 -292 0
-218 -299 0
340 -8 0
-165 -409 0
485 -379 0
-197 -132 0
-408 132 0
-80 425 0
-124 -24 0
372 64 0
348 375 0
-460 48 0
-95 -223 0
-266 -166 0
-52 -439 0
489 393 0
-365 255 0
-320 -304 0
-94 445 0
-461 37 0
458 -181 0
42 -322 0
382 347 0
-172 324 0
328 481 0
500 -349 0
-174 -16 0
-37 437 0
-279 -252 0
-463 -391 0
331 51 0
463 -230 0
-198 333 0
437 206 0
-461 386 0
322 -482 0
228 289 0
-377 -121 0
335 112 0
226 71 0
-307 334 0
496 -413 0
51 -238 0
-336 380 0
-453 -220 0
-315 -425 0
38 -451 0
-211 485 0
239 -193 0
453 446 0
-196 247 0
416 115 0
150 -150 0
-168 -173 0
131 203 0
280 -318 0
-153 -48 0
-486 337 0
374 345 0
446 -223 0
-342 -499 0
-348 -280 0
-165 -225 0
16 207 0
-267 -467 0
59 32 0
303 212 0
223 69 0
257 -436 0
7 474 0
-361 -236 0
-78 -7 0
-130 172 0
-53 -35 0
-362 199 0
-415 85 0
-184 -383 0
75 -486 0
-17 220 0
89 -259 0
472 56 0
-211 442 0
-162 56 0
-333 241 0
125 -229 0
427 433 0
-357 368 0
84 -69 0
-10 339 0
-493 -202 0
107 314 0
-254 -443 0
-263 -240 0
44 21 0
-264 139 0
335 -130 0
-424 -103 0
10 -179 0
-325 -94 0
-385 -469 0
-422 -67 0
-87 311 0
32 176 0
-211 -265 0
-341 -119 0
441 337 0
-476 251 0
-456 -90 0
2 -174 0
-165 -6 0
65 128 0
-337 -111 0
-422 34 0
-381 293 0
15 -199 0
-318 374 0
392 -411 0
281 -195 0
-4 -306 0
-326 307 0
265 -391 0
-117 -295 0
-463 375 0
75 379 0
-163 -490 0
-227 330 0
-212 -412 0
229 -76 0
285 -51 0
-255 373 0
49 48 0
-338 66 0
-412 -113 0
170 489 0
54 -43 0
448 141 0
-135 449 0
234 250 0
-363 -147 0
-450 466 0
426 -355 0
-129 70 0
492 -141 0
249 -500 0
-191 -191 0
182 190 0
-103 488 0
212 -385 0
305 -484 0
228 -169 0
-269 -112 0
-416 -482 0
434 -474 0
-306 -357 0
176 -169 0
-125 -435 0
236 -2 0
-369 -57 0
-110 58 0
-184 170 0
-457 313 0
26 -457 0
-165 17 0
458 327 0
16 410 0
374 -299 0
-278 -220 0
-67 264 0
434 282 0
431 104 0
139 334 0
-167 274 0
-57 -78 0
-72 497 0
-452 268 0
471 69 0
406 437 0
-351 -89 0
100 -366 0
222 469 0
55 -108 0
223 382 0
-307 -266 0
419 -432 0
-424 115 0
-407 -36 0
-454 -263 0
253 -353 0
462 -149 0
11 420 0
-295 -285 0
314 65 0
-404 -251 0
264 120 0
98 30 0
436 124 0
109 -473 0
298 -410 0
-110 306 0
-299 -198 0
402 -352 0
-333 127 0
-130 139 0
159 -185 0
143 -411 0
422 125 0
171 -22 0
-363 -46 0
-296 478 0
401 -35 0
54 -174 0
-34 -470 0
122 263 0
338 456 0
-326 74 0
157 -376 0
300 -258 0
-318 270 0
-167 -295 0
256 309 0
430 -218 0
438 254 0
376 -447 0
-178 337 0
226 -147 0
-17 -75 0
-197 -448 0
-223 -153 0
475 -133 0
-36 141 0
370 -137 0
246 116 0
382 305 0
-161 -353 0
361 -398 0
196 -312 0
335 140 0
288 -290 0
-289 65 0
-184 451 0
-309 -455 0
-292 256 0
-279 216 0
-440 492 0
488 -238 0
246 108 0
437 252 0
187 82 0
-5 426 0
-461 -69 0
327 273 0
-141 331 0
335 -83 0
-156 -140 0
430 456 0
485 84 0
117 148 0
-127 59 0
359 317 0
335 -328 0
-24 -159 0
-356 -287 0
255 12 0
95 399 0
263 -21 0
330 320 0
-447 91 0
19 -3 0
-24 347 0
338 -258 0
477 -110 0
-478 -95 0
-34 223 0
-38 195 0
385 -142 0
434 152 0
163 49 0
-154 462 0
323 86 0
-58 -346 0
-257 205 0
167 -73 0
402 270 0
292 434 0
-278 162 0
-67 -188 0
-256 -362 0
6 72 0
-127 -328 0
376 442 0
224 -81 0
144 -194 0
93 -244 0
126 -409 0
177 334 0
360 293 0
-445 -75 0
380 -459 0
-79 -484 0
348 -495 0
-184 49 0
-35 -445 0
56 -432 0
-46 488 0
-74 112 0
-23 -160 0
274 -363 0
-325 -135 0
-368 84 0
-140 -217 0
-455 -474 0
-372 283 0
40 233 0
81 484 0
-414 -169 0
32 -291 0
-34 162 0
9 -416 0
-174 492 0
-367 337 0
265 -126 0
22 488 0
-149 233 0
-64 -28 0
-312 -268 0
-275 -10 0
382 360 0
-335 -6 0
486 -370 0
-147 -291 0
286 492 0
21 338 0
-367 -359 0
375 220 0
-415 -389 0
116 -213 0
-149 -344 0
-461 -154 0
414 136 0
52 -195 0
-284 433 0
-257 -129 0
212 -285 0
-353 214 0
81 418 0
-365 -321 0
484 303 0
397 -299 0
-411 106 0
253 378 0
431 -444 0
229 -465 0
-78 -329 0
-208 456 0
-103 -447 0
-194 -9 0
-460 67 0
283 253 0
-36 -415 0
-401 -3 0
173 178 0
433 -369 0
16 117 0
162 -73 0
-455 -157 0
-186 322 0
-288 283 0
-455 -295 0
52 -47 0
48 -473 0
-307 333 0
220 -65 0
-245 -349 0
168 489 0
66 89 0
264 -336 0
98 312 0
375 176 0
140 70 0
410 491 0
-412 -338 0
267 19 0
-224 367 0
-185 312 0
-243 -81 0
312 104 0
326 48 0
14 42 0
-195 336 0
-471 -391 0
434 -450 0
262 -247 0
-57 -227 0
-140 77 0
-398 388 0
-34 414 0
450 48 0
-115 305 0
46 -149 0
-463 59 0
357 -105 0
-434 433 0
335 82 0
18 316 0
-112 302 0
131 -87 0
-351 -60 0
238 171 0
-336 -446 0
-160 -90 0
-13 316 0
-368 -23 0
359 131 0
-485 -17 0
-387 65 0
330 39 0
-95 126 0
236 -280 0
87 -447 0
-303 185 0
-92 -243 0
279 314 0
-445 -279 0
-184 380 0
-309 116 0
108 -460 0
-197 -70 0
-286 261 0
349 -490 0
127 -183 0
-346 -437 0
468 289 0
227 234 0
-203 -224 0
-288 477 0
-356 -165 0
110 180 0
278 497 0
44 367 0
485 498 0
395 122 0
138 138 0
136 -218 0
-184 372 0
-316 120 0
-179 -104 0
496 330 0
20 257 0
151 -440 0
-20 286 0
177 228 0
72 485 0
-172 -482 0
371 -7 0
212 -338 0
-383 15 0
-425 -117 0
209 -180 0
-8 -277 0
-62 -227 0
366 -385 0
-491 -291 0
-112 -465 0
-443 -151 0
-58 44 0
50 -470 0
-8 492 0
-472 -168 0
-259 -16 0
144 -499 0
487 -282 0
343 -160 0
-47 276 0
-18 -104 0
458 -473 0
10 387 0
314 305 0
-366 300 0
-164 135 0
-197 370 0
393 273 0
-443 380 0
-107 430 0
-356 306 0
-142 -316 0
150 207 0
-438 -57 0
-446 59 0
84 -400 0
293 65 0
126 315 0
-239 66 0
375 -439 0
120 488 0
369 -443 0
-272 207 0
169 228 0
315 197 0
495 343 0
-130 1 0
254 -316 0
-500 -469 0
-494 390 0
63 -77 0
-81 476 0
411 -447 0
234 -358 0
206 -121 0
432 139 0
-211 -88 0
-325 -368 0
187 294 0
-319 359 0
273 76 0
-396 -343 0
-3 286 0
-111 222 0
-120 -499 0
395 -38 0
464 122 0
58 341 0
26 -223 0
-497 178 0
-474 -145 0
-159 -438 0
-198 188 0
231 393 0
-274 162 0
-16 487 0
-248 214 0
-130 25 0
138 145 0
200 -208 0
-164 2 0
-368 440 0
-395 287 0
-7 -27 0
183 -244 0
84 333 0
-214 -343 0
-128 196 0
-445 74 0
-478 -321 0
-463 -70 0
141 -272 0
298 -121 0
438 485 0
-240 -493 0
-244 -94 0
-388 -275 0
-119 356 0
-383 409 0
-281 -111 0
-339 276 0
-426 -39 0
-277 -480 0
-161 -273 0
481 -54 0
-8 491 0
355 -166 0
149 -472 0
-211 -157 0
204 49 0
-46 -40 0
-322 410 0
431 -241 0
198 98 0
-23 150 0
-273 329 0
-205 253 0
-395 -273 0
407 348 0
-53 -66 0
-193 373 0
-235 -285 0
-231 82 0
121 -117 0
236 -136 0
-328 -173 0
-84 -288 0
445 -46 0
338 -383 0
-215 299 0
-65 -349 0
-367 -422 0
-2 277 0
487 442 0
-358 393 0
-368 -319 0
-367 -453 0
110 -172 0
135 340 0
331 -490 0
242 348 0
26 -412 0
-497 -218 0
-269 -5 0
-346 157 0
-453 324 0
218 488 0
-90 -397 0
-245 -165 0
-458 -137 0
259 -465 0
69 373 0
-308 173 0
-295 65 0
3 21 0
-231 319 0
-98 260 0
150 -142 0
436 43 0
240 49 0
-105 406 0
-221 127 0
206 462 0
-213 -81 0
238 87 0
423 67 0
391 -361 0
-346 318 0
-476 -19 0
187 187 0
-114 -365 0
-351 -46 0
-168 -117 0
-321 -175 0
355 -255 0
310 370 0
427 -102 0
267 448 0
498 -358 0
229 456 0
-184 -364 0
18 -279 0
114 -301 0
55 -322 0
69 73 0
496 -469 0
-224 -425 0
-10 263 0
76 -268 0
13 -299 0
374 1 0
72 304 0
-109 324 0
498 443 0
152 459 0
-496 200 0
-250 -470 0
-241 470 0
-10 -472 0
-307 261 0
218 297 0
190 -27 0
106 477 0
-360 -8 0
-35 310 0
317 -325 0
-307 -165 0
-295 442 0
228 -336 0
184 314 0
31 -389 0
-290 -46 0
-40 440 0
430 -469 0
-169 235 0
326 -8 0
372 226 0
484 177 0
-57 446 0
-500 107 0
-78 -137 0
-342 -103 0
134 -32 0
-276 474 0
240 171 0
-381 222 0
-342 -395 0
448 -387 0
170 -407 0
-303 -117 0
86 22 0
348 325 0
373 479 0
-482 223 0
-39 323 0
48 -19 0
-272 135 0
323 -73 0
369 -23 0
-328 -109 0
287 -235 0
75 -237 0
123 -268 0
285 189 0
-117 89 0
-216 28 0
-258 -474 0
18 -142 0
323 -151 0
271 124 0
-73 -10 0
178 -271 0
347 -130 0
178 496 0
56 85 0
-367 353 0
372 51 0
-195 166 0
-101 -223 0
-170 -451 0
-105 -17 0
306 -107 0
206 -143 0
106 188 0
461 -296 0
405 -469 0
-440 -451 0
110 -463 0
-496 26 0
-417 257 0
314 -407 0
-418 -34 0
229 37 0
273 -451 0
264 -2 0
-35 96 0
-117 335 0
-319 -182 0
-93 -142 0
-350 -389 0
-109 387 0
-217 -4 0
-282 -153 0
-226 37 0
-218 476 0
-468 484 0
-243 341 0
-195 -340 0
-358 -362 0
228 -293 0
-165 471 0
150 -207 0
146 314 0
155 419 0
422 260 0
371 -143 0
240 390 0
-479 -14 0
-490 213 0
299 317 0
366 -108 0
337 -86 0
-94 -347 0
134 -347 0
-164 316 0
83 -103 0
30 86 0
409 -102 0
-424 177 0
5 -357 0
-463 403 0
-470 -133 0
-460 -232 0
246 179 0
-324 497 0
391 -338 0
97 -445 0
432 87 0
-499 251 0
-215 191 0
-419 167 0
127 -64 0
-165 196 0
-196 286 0
462 -156 0
55 -187 0
-465 -71 0
182 -62 0
-328 112 0
-382 245 0
-118 225 0
370 -15 0
214 -440 0
259 312 0
250 -296 0
-404 454 0
-90 358 0
298 -16 0
158 265 0
381 196 0
-292 75 0
-461 -198 0
-43 106 0
-427 -278 0
-303 -53 0
-454 122 0
450 -112 0
272 -112 0
-81 167 0
26 -119 0
-350 -186 0
384 393 0
223 439 0
-10 -112 0
-432 118 0
338 451 0
-445 393 0
-318 37 0
-377 -446 0
-438 380 0
152 -362 0
408 -149 0
270 -330 0
-89 219 0
256 311 0
474 -364 0
-64 -409 0
-365 -14 0
-471 109 0
-79 -455 0
68 -438 0
300 46 0
-365 342 0
317 107 0
-194 -254 0
280 171 0
-365 374 0
-398 285 0
-341 -167 0
57 168 0
306 246 0
-479 -96 0
267 -34 0
177 -267 0
-226 -4 0
-290 101 0
-130 -354 0
-192 -198 0
226 -109 0
-273 46 0
-129 214 0
-411 -270 0
34 -467 0
345 -396 0
-470 -77 0
-173 -112 0
330 384 0
-243 350 0
224 -213 0
-303 -6 0
489 -191 0
283 -421 0
-266 -90 0
498 -347 0
330 264 0
-215 -438 0
293 -420 0
-8 -411 0
197 22 0
-9 128 0
-348 391 0
-341 364 0
-422 297 0
-436 -134 0
-246 -258 0
-404 179 0
239 -200 0
496 -26 0
126 474 0
-36 86 0
296 236 0
-351 -428 0
33 -378 0
-224 -54 0
-105 -400 0
155 -417 0
-19 -438 0
-22 -46 0
-442 -291 0
-436 -355 0
-292 -76 0
-309 -485 0
-420 -71 0
274 -221 0
418 -435 0
-464 477 0
-135 158 0
250 -316 0
228 323 0
170 336 0
357 -453 0
114 307 0
475 84 0
-353 -299 0
-425 -193 0
-115 -396 0
385 -179 0
92 -463 0
-117 420 0
-169 1 0
387 21 0
22 -179 0
60 32 0
-371 223 0
460 -248 0
-250 -104 0
-119 -288 0
-282 -490 0
495 462 0
1 37 0
-109 -113 0
-45 168 0
151 -425 0
-368 28 0
286 318 0
84 378 0
-87 228 0
260 -490 0
478 -89 0
-193 220 0
-492 43 0
-74 127 0
14 -439 0
308 152 0
441 302 0
352 430 0
92 277 0
314 60 0
428 -273 0
401 267 0
26 162 0
410 494 0
-322 -219 0
-384 418 0
-301 382 0
116 -17 0
-192 -356 0
-183 43 0
285 -436 0
317 -38 0
-355 487 0
150 54 0
69 -191 0
-240 -145 0
193 -478 0
-13 -447 0
371 254 0
256 92 0
-151 134 0
70 125 0
-126 -140 0
65 410 0
-47 -158 0
-349 77 0
390 -117 0
-129 -248 0
-35 -451 0
-179 138 0
-269 58 0
244 -166 0
88 -26 0
-149 -35 0
71 -60 0
-157 -301 0
70 -121 0
497 98 0
-79 -191 0
233 -261 0
-210 404 0
58 214 0
-317 -472 0
397 -251 0
29 401 0
-291 -404 0
413 407 0
-366 267 0
-411 438 0
434 458 0
-211 146 0
-278 500 0
453 265 0
146 -459 0
-43 146 0
-103 20 0
52 399 0
219 481 0
-89 -322 0
-356 240 0
-250 229 0
-172 -165 0
-135 -454 0
377 -453 0
281 -277 0
-106 1 0
68 32 0
-230 34 0
399 -344 0
242 -71 0
107 119 0
-415 -363 0
-287 -183 0
-494 417 0
247 -13 0
-105 432 0
289 311 0
-344 12 0
409 -295 0
114 -266 0
-427 -3 0
234 -326 0
-290 -162 0
55 -281 0
358 -142 0
-283 474 0
-434 -79 0
284 375 0
-316 82 0
236 -202 0
347 199 0
259 -364 0
372 281 0
-497 99 0
-94 331 0
373 401 0
-3 189 0
-133 122 0
-410 -8 0
169 -415 0
332 -33 0
-93 -494 0
341 16 0
306 -40 0
-259 -440 0
323 437 0
275 -269 0
261 -398 0
-154 7 0
85 -289 0
-352 496 0
404 107 0
421 165 0
411 138 0
456 -417 0
-302 -258 0
353 138 0
323 -447 0
-40 284 0
-365 -294 0
137 52 0
435 234 0
452 125 0
-425 389 0
288 -119 0
-422 -405 0
-113 239 0
-195 -449 0
-272 -406 0
-266 297 0
-500 -438 0
-3 373 0
-108 440 0
-71 -108 0
-351 -411 0
387 -359 0
-271 142 0
-494 452 0
-35 -78 0
-179 -459 0
279 -454 0
-354 202 0
-271 -453 0
207 -448 0
-111 -144 0
-161 -435 0
-240 -149 0
14 -389 0
-375 -113 0
-35 -167 0
-310 54 0
177 286 0
-160 277 0
-454 294 0
-4 267 0
133 134 0
-37 245 0
261 -336 0
-39 457 0
145 -363 0
430 -166 0
-259 -2 0
196 -339 0
56 458 0
397 -36 0
281 -385 0
247 -395 0
-161 234 0
-224 172 0
-387 107 0
42 -195 0
250 58 0
301 148 0
51 27 0
-373 382 0
-1 -62 0
474 416 0
-345 -241 0
329 500 0
120 -320 0
437 269 0
-91 -202 0
21 29 0
-249 344 0
-173 -416 0
-137 22 0
-279 -333 0
-24 206 0
-179 200 0
-142 445 0
189 -289 0
-285 -24 0
-240 463 0
61 11 0
186 -5 0
-357 252 0
-367 261 0
337 -420 0
213 226 0
88 -158 0
442 319 0
223 70 0
300 484 0
332 462 0
-237 81 0
382 342 0
-150 -275 0
-174 229 0
220 60 0
205 -340 0
406 111 0
-268 409 0
-163 -168 0
274 -62 0
298 -243 0
-53 -283 0
-188 -360 0
186 286 0
-485 267 0
285 -479 0
170 -211 0
-214 390 0
61 -440 0
-259 -301 0
-140 483 0
-404 -35 0
-312 -19 0
-5 223 0
89 -121 0
-428 233 0
50 -377 0
-313 -266 0
-64 -140 0
261 -307 0
462 263 0
484 403 0
-278 -340 0
-249 -130 0
-43 297 0
-402 -357 0
394 -39 0
-378 -383 0
231 464 0
-292 18 0
-472 203 0
-389 -102 0
-101 167 0
-123 -45 0
300 -142 0
432 380 0
143 448 0
-292 85 0
472 262 0
260 -49 0
68 -46 0
-5 -383 0
426 -65 0
-411 -410 0
233 5 0
-130 260 0
180 186 0
433 -480 0
271 -459 0
371 408 0
-142 -7 0
347 466 0
-73 414 0
-194 -420 0
205 -248 0
-370 -240 0
103 284 0
398 20 0
-71 248 0
458 296 0
245 -259 0
335 -465 0
148 388 0
391 -33 0
-251 158 0
316 476 0
432 -367 0
345 32 0
-235 336 0
-104 -218 0
437 343 0
-406 347 0
-254 207 0
328 178 0
404 -133 0
372 46 0
-292 333 0
-208 -216 0
289 96 0
414 48 0
-155 -130 0
380 6 0
-387 -266 0
145 384 0
-346 34 0
-383 -91 0
397 -19 0
-143 477 0
-249 201 0
430 -82 0
-349 -35 0
415 488 0
-116 -383 0
-28 -339 0
-163 -456 0
-340 51 0
-132 -201 0
-396 303 0
-26 -156 0
-140 -419 0
397 374 0
162 388 0
-230 -426 0
-469 143 0
-279 -187 0
-17 -130 0
478 300 0
456 134 0
-389 498 0
126 334 0
-302 -336 0
-345 492 0
-52 171 0
93 458 0
347 180 0
-69 345 0
270 238 0
-63 87 0
-235 -7 0
285 185 0
181 106 0
-237 -260 0
-224 -463 0
-342 -192 0
373 -272 0
193 -365 0
-3 -169 0
263 -147 0
262 429 0
-368 -128 0
264 -321 0
54 378 0
116 361 0
20 -290 0
241 222 0
145 135 0
117 298 0
175 -121 0
250 -346 0
485 466 0
395 -439 0
449 -3 0
-241 134 0
-474 -174 0
317 217 0
-411 -472 0
263 293 0
86 29 0
-271 -118 0
-352 -240 0
-121 448 0
-235 -198 0
-470 -64 0
-415 -109 0
315 -359 0
402 76 0
429 -216 0
338 316 0
-491 -431 0
-105 -70 0
330 -296 0
-287 92 0
381 324 0
85 -38 0
-410 337 0
-24 -383 0
300 -475 0
267 214 0
-462 -14 0
-349 -197 0
284 -53 0
234 -54 0
15 495 0
421 65 0
-405 -62 0
32 -177 0
-89 291 0
-109 206 0
-141 -452 0
369 301 0
-346 124 0
382 -280 0
29 297 0
478 -295 0
312 258 0
-141 -340 0
-23 -494 0
265 401 0
393 404 0
366 -424 0
-194 427 0
-113 -424 0
-333 241 0
-373 246 0
104 314 0
-126 343 0
50 -241 0
63 -62 0
373 492 0
488 24 0
441 -381 0
-353 -198 0
-379 -103 0
-96 -165 0
51 483 0
-395 155 0
-303 -478 0
284 -156 0
-277 -346 0
-312 293 0
441 -184 0
-395 258 0
-163 -9 0
63 382 0
-27 -161 0
82 222 0
-449 -213 0
464 466 0
-385 360 0
-382 313 0
-499 422 0
-420 -36 0
423 -126 0
-207 12 0
-460 -424 0
234 104 0
41 -112 0
476 393 0
-237 -273 0
-484 -38 0
-342 278 0
73 432 0
-463 286 0
-111 -308 0
-272 -121 0
-211 317 0
-195 -299 0
37 -314 0
-404 475 0
256 200 0
-289 136 0
63 442 0
408 115 0
353 263 0
-70 -258 0
368 -60 0
72 -304 0
-303 234 0
81 -8 0
20 11 0
485 70 0
329 355 0
-453 -62 0
-409 -216 0
285 -461 0
-436 -379 0
359 334 0
402 131 0
262 360 0
-359 -339 0
-220 -145 0
-38 -149 0
42 -297 0
-363 134 0
-384 131 0
-30 -288 0
-109 26 0
252 358 0
-123 17 0
-121 77 0
42 421 0
-473 -257 0
107 224 0
26 -479 0
247 276 0
17 305 0
317 109 0
-98 -377 0
474 -98 0
9 458 0
420 -244 0
-322 -73 0
-108 266 0
-278 -224 0
-259 -220 0
18 -467 0
-17 -67 0
-37 -438 0
135 344 0
-366 254 0
-369 -50 0
52 -480 0
-279 -48 0
257 -412 0
37 179 0
-379 -452 0
-395 -464 0
-36 -237 0
131 -2 0
-46 14 0
-250 475 0
-208 -12 0
-151 -100 0
-324 59 0
240 85 0
-241 -278 0
489 329 0
200 212 0
-90 90 0
-48 -202 0
50 -435 0
-425 225 0
28 335 0
264 85 0
-322 130 0
17 267 0
384 -368 0
398 125 0
98 209 0
-218 -97 0
