c bounds 43 43 0.04
p cnf 500 2200
-393 478 0
-393 208 0
103 -457 0
-124 241 0
-399 -156 0
-324 486 0
-395 -444 0
492 -283 0
176 -412 0
-363 463 0
437 -84 0
-53 -395 0
-104 9 0
-365 151 0
173 -339 0
69 -64 0
-251 297 0
39 70 0
372 410 0
-154 -209 0
266 -475 0
352 294 0
363 -36 0
-13 -78 0
-323 200 0
3 145 0
-495 -479 0
409 -53 0
-46 -308 0
164 -370 0
145 -187 0
-175 25 0
-484 -416 0
137 93 0
-473 45 0
-307 89 0
-300 378 0
-102 -125 0
-367 419 0
-363 78 0
-219 -286 0
82 -361 0
-226 197 0
-381 -47 0
368 -247 0
160 -414 0
83 18 0
-254 348 0
442 193 0
-80 159 0
159 -163 0
405 -187 0
199 179 0
87 -357 0
-397 35 0
419 418 0
-232 -193 0
335 486 0
432 -301 0
381 -40 0
103 -160 0
55 -458 0
-273 440 0
69 11 0
188 342 0
390 465 0
284 354 0
-371 19 0
59 -176 0
-116 -279 0
392 -477 0
451 -161 0
-283 -26 0
93 -61 0
10 215 0
407 -324 0
-288 -154 0
360 -373 0
-108 50 0
-59 129 0
-499 143 0
-239 453 0
-162 106 0
485 445 0
-481 -269 0
-9 -78 0
462 -92 0
-298 -346 0
306 344 0
-371 82 0
333 107 0
212 11 0
-441 -190 0
-231 -231 0
319 50 0
445 1 0
-477 -303 0
7 -84 0
35 -268 0
391 -303 0
339 207 0
-87 -455 0
-168 -269 0
448 -94 0
404 -402 0
116 284 0
402 -120 0
-326 -218 0
-16 -425 0
36 -373 0
30 -310 0
-412 62 0
-225 -280 0
103 -332 0
-317 48 0
-156 440 0
-124 -111 0
486 -156 0
308 437 0
-203 148 0
-252 -351 0
-336 27 0
-460 153 0
-229 -240 0
-327 -481 0
18 -473 0
213 -283 0
-428 -254 0
-116 -12 0
-154 284 0
33 -128 0
440 -27 0
-156 -228 0
109 486 0
460 -145 0
432 129 0
404 -230 0
446 -46 0
138 199 0
-269 -93 0
216 301 0
-347 498 0
14 25 0
-54 286 0
107 184 0
459 344 0
480 -402 0
-367 -291 0
167 -8 0
-399 -74 0
-408 59 0
283 48 0
-166 134 0
168 390 0
-369 284 0
491 -122 0
286 134 0
39 200 0
167 354 0
134 203 0
-410 -117 0
392 228 0
-190 2 0
104 142 0
109 -88 0
224 -80 0
-30 -462 0
-82 322 0
208 -313 0
-220 -132 0
344 -415 0
55 199 0
-265 -473 0
350 101 0
250 -94 0
-133 245 0
405 147 0
-197 491 0
207 63 0
-126 398 0
-45 -465 0
-3 440 0
-455 -490 0
-463 -272 0
-433 483 0
325 293 0
37 294 0
-296 285 0
46 -369 0
-451 217 0
-191 -481 0
-473 -212 0
265 -133 0
-305 -279 0
-233 112 0
-203 109 0
-64 365 0
-45 -5 0
135 323 0
229 419 0
175 238 0
472 -325 0
-357 -297 0
100 -204 0
-358 -104 0
-269 205 0
50 49 0
-226 216 0
-451 56 0
70 -176 0
390 -348 0
179 -55 0
-374 77 0
124 476 0
-266 -231 0
-282 78 0
54 25 0
-8 -229 0
-80 -337 0
134 214 0
-337 -132 0
449 -13 0
293 143 0
82 452 0
208 -126 0
2 185 0
116 349 0
251 304 0
257 342 0
114 -247 0
382 -342 0
-34 -245 0
-492 342 0
48 -447 0
90 23 0
-340 -328 0
411 247 0
-246 337 0
-279 -34 0
-255 276 0
-467 442 0
126 165 0
46 -412 0
-6 221 0
185 222 0
469 71 0
-255 345 0
-325 471 0
-72 168 0
-337 -334 0
207 144 0
329 460 0
-176 117 0
-56 316 0
-302 352 0
29 152 0
316 71 0
-231 129 0
-311 479 0
496 -318 0
-302 -113 0
43 212 0
332 -454 0
406 237 0
227 230 0
428 109 0
-416 271 0
-297 350 0
-411 93 0
489 238 0
494 -401 0
29 -347 0
-214 114 0
264 -260 0
-254 35 0
462 -8 0
322 493 0
-31 91 0
473 -433 0
419 -27 0
-330 -255 0
-268 -139 0
-160 -111 0
-243 -307 0
183 -7 0
448 -111 0
207 -151 0
-484 19 0
-315 445 0
429 -487 0
469 -132 0
284 294 0
300 -251 0
-277 -266 0
105 -103 0
-487 -363 0
-271 375 0
35 460 0
493 18 0
-16 229 0
-252 166 0
-61 -457 0
58 -477 0
-103 -4 0
133 -13 0
-292 -324 0
-279 81 0
-239 -204 0
44 -331 0
285 -209 0
82 352 0
-500 259 0
208 -248 0
-412 76 0
-461 -83 0
213 -73 0
-177 -54 0
2 484 0
-197 -401 0
213 215 0
-395 206 0
-31 -495 0
-409 -162 0
-259 -305 0
-74 344 0
330 260 0
-351 295 0
298 271 0
489 245 0
-405 388 0
207 350 0
-463 -110 0
140 24 0
-480 -175 0
-425 -118 0
-156 15 0
-105 142 0
-218 421 0
-375 468 0
117 221 0
-339 142 0
265 114 0
-206 361 0
247 494 0
-194 184 0
-206 229 0
-425 213 0
25 -211 0
-410 338 0
433 452 0
188 -476 0
-233 -380 0
-305 -105 0
418 -283 0
-13 -102 0
-272 208 0
-61 318 0
-28 295 0
-229 -380 0
-195 -78 0
114 418 0
368 436 0
456 381 0
-367 -176 0
314 -84 0
-63 -425 0
164 -75 0
91 499 0
-423 463 0
-37 114 0
315 378 0
118 420 0
105 358 0
-488 -289 0
157 -348 0
493 -222 0
-56 300 0
-307 130 0
-161 155 0
56 424 0
-487 -467 0
-50 291 0
288 75 0
382 -455 0
198 195 0
-469 -307 0
398 422 0
406 -42 0
299 368 0
-6 290 0
37 304 0
-198 -7 0
115 406 0
53 338 0
-255 340 0
-63 -241 0
207 -88 0
195 156 0
93 -181 0
464 -435 0
217 -470 0
61 31 0
-198 208 0
-247 126 0
104 37 0
-442 -339 0
-425 -495 0
207 -264 0
454 -20 0
138 427 0
-264 179 0
-246 -141 0
109 86 0
-347 -475 0
-131 486 0
-186 381 0
137 -478 0
71 -297 0
-365 -277 0
396 304 0
117 -140 0
-204 -428 0
-66 -133 0
402 -205 0
-165 114 0
-165 483 0
-21 -6 0
-393 447 0
198 398 0
-115 -164 0
-145 471 0
348 -415 0
374 375 0
474 -452 0
14 62 0
-25 -485 0
-265 330 0
363 159 0
149 -26 0
-235 -220 0
-306 11 0
-194 95 0
-85 -303 0
-147 -130 0
-253 294 0
203 240 0
-179 377 0
191 -302 0
-125 -162 0
183 -13 0
215 -237 0
166 -207 0
294 61 0
-87 -338 0
31 341 0
-145 -258 0
167 -315 0
-147 -122 0
-435 45 0
-334 -298 0
376 -356 0
211 -403 0
390 -176 0
-52 390 0
3 -238 0
-331 419 0
281 87 0
-127 345 0
228 -20 0
-270 -429 0
113 148 0
-469 -418 0
24 -142 0
-63 -42 0
7 359 0
104 -65 0
457 37 0
-398 222 0
-222 76 0
444 174 0
-377 447 0
-264 -78 0
105 100 0
405 203 0
-204 -62 0
252 495 0
344 -297 0
403 -195 0
-187 -473 0
94 469 0
166 -322 0
137 -191 0
358 -279 0
-308 -87 0
-270 -159 0
489 105 0
-139 189 0
388 -299 0
93 400 0
-25 -487 0
-43 -40 0
265 496 0
-207 -81 0
-483 19 0
-236 -201 0
-325 -45 0
474 -136 0
-251 -30 0
-27 -248 0
-78 -486 0
-141 -44 0
-92 373 0
-257 142 0
313 257 0
-7 431 0
-326 74 0
-425 294 0
338 -264 0
-297 252 0
341 26 0
497 236 0
-83 -479 0
-225 135 0
57 68 0
-246 -115 0
-369 -398 0
333 167 0
223 -149 0
394 -157 0
-387 -367 0
305 474 0
457 -300 0
-393 371 0
85 211 0
-143 276 0
-175 -28 0
-262 -363 0
38 -132 0
-304 -144 0
-104 316 0
-161 -141 0
-218 -116 0
-278 -145 0
431 15 0
228 -324 0
-269 -262 0
-352 -297 0
153 -400 0
179 -256 0
157 -298 0
-444 324 0
-168 -261 0
120 -244 0
278 198 0
-155 308 0
-172 -172 0
-230 -320 0
-194 -214 0
453 460 0
77 -142 0
-490 370 0
38 -401 0
-63 -486 0
281 48 0
-115 274 0
494 462 0
323 -311 0
192 421 0
-7 375 0
-83 -487 0
468 -314 0
462 -455 0
481 469 0
-109 460 0
-175 -340 0
157 -226 0
-141 357 0
117 -176 0
-395 224 0
360 -33 0
375 228 0
-317 392 0
300 358 0
44 -467 0
-226 -197 0
-274 -47 0
-226 -343 0
-107 -254 0
-406 -98 0
-377 -118 0
76 70 0
360 -378 0
-166 -291 0
-32 101 0
348 142 0
-268 53 0
-418 106 0
-168 438 0
437 -92 0
257 388 0
-425 -427 0
217 87 0
-79 -365 0
23 -451 0
385 490 0
-98 -169 0
136 82 0
-131 -81 0
139 -409 0
233 -351 0
62 478 0
-441 229 0
-482 -419 0
-305 127 0
396 474 0
258 57 0
382 271 0
287 -434 0
349 410 0
321 138 0
-133 -6 0
-163 482 0
103 50 0
-43 -154 0
-291 419 0
-182 442 0
-222 -365 0
381 -249 0
-5 214 0
-116 -277 0
-156 52 0
398 151 0
-438 -451 0
52 308 0
274 -80 0
171 -495 0
-333 -130 0
-213 -245 0
479 126 0
-229 -155 0
-363 193 0
-58 -409 0
117 426 0
-270 -143 0
-41 479 0
364 -32 0
-296 325 0
488 -13 0
-56 393 0
-301 -460 0
335 193 0
-308 354 0
96 67 0
290 -25 0
345 -73 0
112 -392 0
338 -268 0
442 -453 0
23 -475 0
222 -423 0
-111 -444 0
192 234 0
-400 263 0
-444 -166 0
25 -31 0
295 408 0
441 -202 0
441 101 0
332 -15 0
-233 -398 0
214 301 0
-162 240 0
-104 355 0
259 -301 0
-20 -311 0
169 -400 0
-232 215 0
284 293 0
290 321 0
341 381 0
146 -4 0
-110 13 0
190 -352 0
-386 -118 0
-40 -174 0
-40 -466 0
-455 114 0
-220 -141 0
405 -56 0
-282 -415 0
491 -396 0
216 -318 0
-78 -438 0
-238 460 0
-367 186 0
335 -312 0
-377 -443 0
-268 456 0
430 -219 0
366 276 0
-97 330 0
-320 88 0
404 287 0
253 -88 0
285 -345 0
304 -115 0
145 -303 0
267 -463 0
213 -433 0
-58 311 0
-133 -344 0
290 249 0
-208 -487 0
2 -204 0
-193 -415 0
-96 -219 0
-389 -53 0
-369 480 0
287 -469 0
398 -2 0
-410 -482 0
126 -3 0
-254 465 0
3 -85 0
228 -348 0
-414 462 0
483 -55 0
-256 -205 0
217 242 0
273 187 0
360 -219 0
-83 79 0
119 479 0
230 -263 0
462 -147 0
-115 226 0
285 233 0
276 124 0
205 -307 0
-23 268 0
-351 264 0
476 -94 0
-276 -206 0
-371 -171 0
-343 493 0
-224 -499 0
-367 -480 0
363 406 0
-263 53 0
272 101 0
77 -211 0
-225 253 0
149 -328 0
460 -122 0
-40 55 0
358 11 0
-5 478 0
77 237 0
-206 457 0
95 -136 0
492 64 0
-191 216 0
-410 -173 0
374 486 0
431 -278 0
464 -87 0
-350 -259 0
-56 477 0
472 -37 0
121 289 0
-280 124 0
-81 461 0
-291 39 0
-156 -7 0
-34 43 0
-44 480 0
92 -135 0
-326 -393 0
-434 370 0
-76 127 0
432 39 0
419 431 0
25 74 0
-324 315 0
265 -328 0
-65 -151 0
189 -453 0
-46 -155 0
377 18 0
-52 31 0
-58 62 0
-201 284 0
114 -175 0
457 -417 0
273 -212 0
-439 -68 0
-439 36 0
362 -162 0
432 19 0
261 -357 0
174 -168 0
-436 -192 0
59 -425 0
-174 285 0
68 -460 0
129 200 0
209 -407 0
-92 -181 0
-98 -12 0
1 192 0
18 -282 0
169 -338 0
-387 294 0
-411 -373 0
2 -167 0
243 22 0
-262 -310 0
-485 -237 0
-256 496 0
-265 15 0
-9 -368 0
183 -56 0
-178 -104 0
250 167 0
78 62 0
291 -212 0
371 -187 0
347 216 0
344 -298 0
-79 -333 0
25 236 0
271 -181 0
117 -89 0
-14 271 0
-302 -391 0
-92 -65 0
-70 460 0
-363 -310 0
379 178 0
497 332 0
2 35 0
200 287 0
-379 -51 0
448 499 0
320 -244 0
183 -171 0
-95 359 0
208 174 0
-37 35 0
-155 160 0
233 22 0
390 -26 0
109 7 0
-281 100 0
-122 463 0
247 68 0
108 -224 0
321 -91 0
195 -20 0
-427 -145 0
215 -180 0
95 73 0
-303 -288 0
280 -116 0
-171 323 0
-209 -239 0
-174 -56 0
-337 -54 0
212 -315 0
470 -493 0
-65 122 0
24 124 0
-383 -260 0
-329 -204 0
-47 143 0
444 -51 0
277 121 0
242 41 0
488 -294 0
261 411 0
489 18 0
-427 -462 0
-42 250 0
-38 266 0
-299 -407 0
207 -146 0
166 -170 0
-133 84 0
212 -20 0
499 15 0
-475 194 0
-63 -395 0
-160 -53 0
-237 -220 0
-57 -96 0
145 440 0
54 345 0
-390 411 0
143 -169 0
374 487 0
75 -242 0
60 -416 0
-490 336 0
-180 -324 0
9 -443 0
-94 -305 0
-391 22 0
-45 -365 0
70 -444 0
-36 139 0
499 -357 0
372 458 0
428 -261 0
99 -321 0
332 55 0
-83 -188 0
-118 -204 0
-383 -94 0
474 247 0
-460 -292 0
-280 71 0
308 387 0
43 -367 0
-478 218 0
-197 16 0
59 -416 0
-413 -408 0
311 241 0
75 74 0
167 -288 0
-151 -433 0
492 209 0
447 -289 0
41 436 0
-194 -226 0
112 296 0
-116 -233 0
-261 -236 0
4 253 0
-200 483 0
336 -116 0
187 -80 0
312 480 0
237 -162 0
468 -310 0
-288 -141 0
383 -21 0
-181 -197 0
-13 -437 0
299 316 0
368 -248 0
-389 142 0
-181 313 0
74 -275 0
-165 309 0
-282 214 0
143 223 0
491 -36 0
-72 87 0
-333 238 0
366 111 0
-296 112 0
56 -88 0
-61 295 0
-44 179 0
121 190 0
-498 378 0
-475 307 0
366 3 0
-116 299 0
430 410 0
-54 -37 0
106 109 0
-186 -102 0
-220 160 0
360 -161 0
-160 19 0
-232 -60 0
-104 -73 0
-125 164 0
-386 8 0
-479 -340 0
-413 -24 0
356 479 0
-289 -340 0
406 -488 0
241 92 0
-424 109 0
432 308 0
37 105 0
113 -460 0
-88 -211 0
486 -65 0
-326 44 0
163 308 0
-184 227 0
15 -201 0
309 73 0
432 388 0
-318 273 0
495 129 0
-202 -407 0
129 -266 0
-224 248 0
120 156 0
-296 418 0
-419 -125 0
90 214 0
159 153 0
-186 -417 0
-9 174 0
106 -81 0
198 302 0
-115 323 0
344 300 0
-255 -301 0
364 -107 0
420 -330 0
404 359 0
146 432 0
454 -110 0
-328 -434 0
-104 494 0
-212 -132 0
59 476 0
127 381 0
-139 -245 0
93 230 0
30 -171 0
17 348 0
-288 -279 0
-245 -230 0
411 346 0
-274 -296 0
169 126 0
234 -477 0
392 -100 0
387 -251 0
273 335 0
-484 499 0
39 140 0
-130 -407 0
-467 474 0
242 91 0
332 275 0
-381 -313 0
19 219 0
391 -84 0
-226 -336 0
188 18 0
-445 364 0
-409 -2 0
-5 498 0
380 30 0
-235 -283 0
-423 -9 0
173 -235 0
11 108 0
175 106 0
294 250 0
-407 166 0
155 -379 0
76 -394 0
-282 454 0
-163 -339 0
13 -202 0
-332 474 0
-208 -81 0
424 372 0
-147 221 0
-256 348 0
379 55 0
18 -61 0
111 -34 0
193 430 0
-422 255 0
25 465 0
235 -66 0
-373 -356 0
-102 -447 0
-341 227 0
380 82 0
404 497 0
-411 -408 0
185 -378 0
306 -22 0
319 -379 0
-5 242 0
-134 103 0
-289 431 0
429 -398 0
-206 -48 0
-232 344 0
338 430 0
-112 41 0
93 -192 0
442 120 0
472 397 0
-449 496 0
494 -477 0
177 -422 0
343 222 0
-283 159 0
160 281 0
-409 99 0
426 1 0
95 -329 0
494 55 0
-296 98 0
142 -230 0
50 -326 0
-473 -165 0
402 -75 0
471 430 0
30 445 0
3 258 0
-328 -441 0
-256 -191 0
196 -104 0
134 472 0
-148 -256 0
-249 -246 0
135 -435 0
-426 -127 0
405 330 0
164 352 0
124 106 0
-389 -150 0
129 -397 0
48 -102 0
-209 -131 0
39 -157 0
-192 -353 0
-260 346 0
-136 340 0
456 -441 0
142 165 0
-255 102 0
-180 207 0
-243 331 0
-416 44 0
-287 -102 0
-262 -187 0
-400 -303 0
77 396 0
-251 -423 0
-66 -131 0
-188 -245 0
418 -277 0
-315 107 0
112 -20 0
-424 253 0
-244 198 0
-426 36 0
221 -144 0
342 -414 0
-479 -455 0
228 335 0
273 -72 0
-36 -37 0
-162 287 0
-235 46 0
5 375 0
224 -58 0
329 238 0
-144 112 0
-434 -479 0
-260 -91 0
94 -141 0
-324 387 0
-140 493 0
432 82 0
-132 10 0
390 -135 0
-102 -235 0
423 457 0
148 -133 0
293 -361 0
-357 -156 0
-490 222 0
338 98 0
-7 242 0
319 -148 0
387 -264 0
22 64 0
346 71 0
-64 13 0
-175 375 0
383 485 0
-53 -407 0
-176 -314 0
-382 -325 0
480 -284 0
322 -483 0
493 24 0
71 276 0
-51 375 0
-20 -377 0
-56 211 0
398 -132 0
242 497 0
-182 -464 0
383 324 0
59 285 0
494 372 0
338 294 0
-334 130 0
402 -413 0
94 -202 0
-272 -358 0
-260 -136 0
221 -443 0
-104 -370 0
2 -134 0
355 -487 0
349 7 0
-260 -120 0
-34 -295 0
-125 -291 0
306 -19 0
-413 -21 0
-248 -283 0
372 -98 0
241 -499 0
-415 -53 0
-427 -64 0
143 -148 0
50 -275 0
41 -248 0
-350 200 0
188 101 0
293 -24 0
462 462 0
242 162 0
-356 378 0
287 -281 0
100 -346 0
492 -321 0
-340 290 0
29 -51 0
27 382 0
-6 -23 0
-190 327 0
193 -186 0
-443 -161 0
332 -232 0
33 -210 0
-491 -194 0
-310 67 0
102 -461 0
-178 -248 0
-397 -227 0
291 330 0
431 -21 0
-438 -171 0
67 -98 0
-277 257 0
55 -136 0
-306 169 0
-370 313 0
-236 68 0
380 362 0
-89 372 0
474 -89 0
-356 -164 0
450 -186 0
445 130 0
-450 332 0
239 127 0
-436 -191 0
-214 -328 0
383 366 0
61 440 0
339 273 0
61 348 0
372 -326 0
-171 -363 0
-237 359 0
429 -145 0
23 234 0
131 -370 0
-357 -165 0
38 -239 0
44 -20 0
-415 291 0
-156 183 0
281 11 0
-302 -398 0
-65 38 0
-315 -26 0
406 -423 0
33 -312 0
392 109 0
-177 311 0
488 349 0
-415 -374 0
-318 208 0
-13 218 0
-403 374 0
-387 -274 0
-425 -123 0
-389 -16 0
-80 -74 0
-454 445 0
-187 269 0
223 233 0
-172 37 0
-279 426 0
-444 377 0
-371 368 0
63 32 0
500 -135 0
-170 293 0
452 3 0
229 174 0
-197 211 0
-352 466 0
244 469 0
-64 184 0
-94 -347 0
-210 -165 0
-336 338 0
-177 -211 0
214 -279 0
330 30 0
-364 462 0
-87 -170 0
-25 -339 0
-388 -205 0
-192 431 0
-23 329 0
354 198 0
-479 -307 0
-111 257 0
157 111 0
128 -409 0
-401 -144 0
-140 143 0
-16 -409 0
113 327 0
-50 92 0
381 190 0
22 -481 0
-464 -190 0
-168 -449 0
71 -47 0
-269 471 0
44 23 0
99 416 0
301 -434 0
216 -13 0
281 -17 0
245 -151 0
-462 -51 0
-150 335 0
-61 -98 0
-1 113 0
415 -282 0
-423 -104 0
374 98 0
466 363 0
69 35 0
-237 380 0
214 222 0
460 -400 0
-1 101 0
35 -133 0
159 -475 0
-201 -259 0
398 14 0
-242 113 0
-208 -391 0
-302 489 0
35 186 0
11 148 0
402 -64 0
-434 -377 0
-131 -231 0
38 398 0
335 17 0
-485 242 0
305 -84 0
-399 250 0
345 330 0
-84 -125 0
-224 2 0
269 25 0
68 82 0
-61 -64 0
-404 67 0
383 -369 0
432 377 0
-289 454 0
-392 273 0
-480 262 0
-13 -464 0
-113 -163 0
98 345 0
74 -58 0
-334 348 0
453 -305 0
-251 -65 0
-81 309 0
-495 -136 0
258 -439 0
-305 185 0
-483 -210 0
142 479 0
489 50 0
320 -391 0
354 -147 0
-156 -439 0
-318 66 0
360 33 0
406 136 0
68 413 0
-194 199 0
430 326 0
-125 113 0
293 -372 0
-299 215 0
-111 34 0
382 -98 0
-328 -128 0
-219 -419 0
153 -378 0
284 300 0
-376 -397 0
476 -491 0
355 468 0
64 -433 0
-122 -141 0
306 -194 0
185 -427 0
-36 178 0
-296 238 0
221 -250 0
366 -59 0
493 104 0
-136 -35 0
-171 44 0
-231 -288 0
-433 465 0
215 -278 0
-329 247 0
32 81 0
191 31 0
437 -388 0
-446 100 0
143 473 0
-334 89 0
-30 150 0
-330 -313 0
100 -315 0
424 261 0
-119 -261 0
436 300 0
421 129 0
-451 319 0
-422 -173 0
-449 -186 0
-201 383 0
-138 52 0
442 198 0
346 -4 0
-311 -294 0
-16 197 0
-277 -191 0
419 -464 0
-302 198 0
398 90 0
234 -365 0
43 179 0
-265 229 0
157 435 0
-338 -414 0
150 -231 0
55 463 0
385 -412 0
-315 226 0
-123 -300 0
-387 -482 0
-302 -178 0
-136 322 0
29 -482 0
-489 240 0
-73 403 0
-174 109 0
-333 -175 0
35 -361 0
421 241 0
-85 336 0
-288 298 0
-132 336 0
-81 238 0
-94 217 0
467 346 0
-301 295 0
393 -302 0
-132 -116 0
-292 442 0
-347 403 0
28 -395 0
-97 -177 0
-115 -464 0
62 -345 0
144 27 0
396 -261 0
186 -116 0
-491 -449 0
84 -46 0
-37 -244 0
367 342 0
185 -441 0
159 -173 0
-5 338 0
-235 -261 0
420 402 0
28 214 0
-422 354 0
348 -373 0
153 -45 0
-329 -254 0
105 76 0
-389 474 0
193 -251 0
48 -427 0
-16 273 0
-467 -446 0
-396 75 0
234 442 0
-93 -181 0
-118 5 0
495 -408 0
283 470 0
287 493 0
483 -112 0
-59 -45 0
137 -81 0
134 426 0
119 372 0
-202 -454 0
447 169 0
390 15 0
-370 209 0
480 -307 0
-320 71 0
-10 174 0
30 -220 0
81 479 0
114 428 0
294 -8 0
223 86 0
-120 196 0
-165 -454 0
-349 -296 0
-491 -231 0
-365 -218 0
285 -359 0
236 -301 0
308 -410 0
-298 -170 0
-110 -388 0
195 -243 0
-395 -253 0
60 -123 0
215 -400 0
-350 238 0
254 -313 0
-136 86 0
228 -48 0
458 234 0
360 -273 0
-261 41 0
71 17 0
220 101 0
-441 -209 0
-259 -64 0
-292 -287 0
-171 152 0
462 -191 0
268 -235 0
-422 -291 0
123 227 0
-457 -92 0
341 -264 0
300 428 0
-52 -254 0
-182 72 0
252 -446 0
-125 -402 0
284 -356 0
279 -343 0
-399 -66 0
-441 42 0
-171 -357 0
-155 -495 0
-75 304 0
-111 424 0
-114 238 0
152 330 0
195 -49 0
-289 103 0
-400 -269 0
-409 133 0
207 -319 0
-358 88 0
-340 109 0
-463 -208 0
-329 228 0
-278 354 0
-373 -102 0
-343 -207 0
208 21 0
489 -171 0
-491 -85 0
-130 65 0
-81 209 0
-298 -395 0
355 417 0
-247 355 0
-490 95 0
262 -438 0
208 238 0
-12 -155 0
285 -443 0
250 185 0
4 -173 0
440 169 0
128 121 0
-173 -139 0
107 100 0
-333 496 0
341 -400 0
-344 -324 0
234 148 0
-364 -484 0
496 -136 0
-239 -492 0
-33 342 0
-60 -177 0
59 117 0
56 431 0
-393 -439 0
-375 82 0
305 -155 0
-235 -481 0
260 -495 0
-395 -236 0
406 -369 0
405 456 0
-52 378 0
86 394 0
238 134 0
49 58 0
412 403 0
213 -173 0
428 29 0
42 160 0
-175 108 0
-63 95 0
28 -129 0
109 -92 0
-12 -284 0
-358 285 0
119 96 0
-228 -351 0
-491 -428 0
-176 238 0
391 -94 0
-451 320 0
-81 -462 0
257 295 0
455 -237 0
360 126 0
80 -270 0
-277 89 0
342 422 0
20 178 0
447 47 0
263 -259 0
-10 424 0
-56 -268 0
269 91 0
222 -297 0
-193 -372 0
-85 -475 0
93 -399 0
-376 -62 0
-267 138 0
-434 268 0
-205 -363 0
-23 -365 0
419 281 0
-246 -150 0
-444 191 0
-407 -107 0
46 -310 0
-166 -498 0
286 -357 0
227 -451 0
-246 -453 0
171 -182 0
195 -446 0
398 -23 0
276 -396 0
-89 -64 0
-285 -83 0
-337 99 0
366 -223 0
-235 -57 0
213 207 0
474 328 0
15 307 0
-141 -335 0
488 329 0
-141 41 0
496 -339 0
-406 -407 0
322 27 0
-279 -459 0
205 -162 0
385 460 0
-418 327 0
214 -87 0
136 199 0
-53 457 0
114 381 0
-445 456 0
465 285 0
474 314 0
267 19 0
382 112 0
-351 347 0
-461 -122 0
195 -278 0
-244 -467 0
27 362 0
306 -53 0
-340 250 0
82 -293 0
354 -409 0
-65 137 0
-110 58 0
-6 -40 0
483 -417 0
-303 -102 0
-187 424 0
-259 294 0
465 -159 0
117 278 0
-186 322 0
-301 -202 0
-363 -416 0
-6 173 0
262 -206 0
-327 -288 0
352 -363 0
421 157 0
178 464 0
-278 -333 0
74 35 0
-387 121 0
463 -219 0
-384 32 0
370 300 0
19 332 0
114 482 0
-298 -438 0
-195 -498 0
-397 186 0
-486 -395 0
-324 -410 0
-313 430 0
-94 386 0
-363 -425 0
-266 219 0
494 -389 0
-400 454 0
416 213 0
130 28 0
419 -223 0
131 354 0
16 -92 0
486 -444 0
-371 144 0
451 450 0
-220 -231 0
-389 -435 0
95 472 0
-36 472 0
447 -118 0
491 -220 0
-56 -270 0
-42 -64 0
49 -257 0
62 -128 0
-169 216 0
-264 475 0
-149 77 0
227 -38 0
-181 -135 0
50 -454 0
-23 -308 0
-446 -311 0
331 -249 0
-360 -453 0
-454 -307 0
191 166 0
249 -305 0
-500 13 0
-45 460 0
-300 48 0
-51 -10 0
106 -328 0
-155 445 0
322 -366 0
-167 456 0
96 -330 0
364 489 0
164 3 0
-84 -172 0
167 147 0
-83 -489 0
-441 476 0
127 211 0
-296 -291 0
429 106 0
-9 -282 0
-20 -11 0
-50 -479 0
329 -491 0
147 114 0
-54 48 0
-431 -130 0
-340 404 0
-355 -275 0
336 -449 0
338 31 0
349 -431 0
114 -194 0
-160 349 0
-12 209 0
14 428 0
296 -54 0
406 -22 0
-484 265 0
62 167 0
476 -201 0
500 382 0
404 -50 0
24 377 0
364 -126 0
-108 -391 0
-161 480 0
146 280 0
403 -110 0
-486 211 0
-258 341 0
185 245 0
-337 -184 0
273 -270 0
-407 -172 0
336 -154 0
122 -261 0
282 479 0
-391 -401 0
-232 40 0
390 -343 0
314 -258 0
-361 419 0
-226 -471 0
101 -235 0
222 309 0
-49 284 0
294 -191 0
295 -463 0
-56 3 0
429 -289 0
-40 180 0
-145 -197 0
148 -207 0
-50 374 0
-202 -251 0
207 82 0
-54 106 0
-261 -180 0
-102 439 0
-259 -15 0
280 87 0
-401 -272 0
-27 -81 0
-10 360 0
293 56 0
-116 -71 0
37 114 0
-356 -446 0
-175 1 0
-212 179 0
302 -261 0
-341 164 0
412 -201 0
-84 -496 0
-201 70 0
270 -358 0
-348 -12 0
-112 272 0
331 -459 0
-292 -443 0
-350 -279 0
153 364 0
-379 457 0
200 -454 0
262 62 0
74 -45 0
480 -366 0
-373 495 0
-357 -125 0
8 -496 0
382 377 0
171 360 0
-92 54 0
-25 -352 0
135 -235 0
280 8 0
-11 178 0
423 126 0
421 -29 0
-205 466 0
447 29 0
-161 -422 0
-265 341 0
-156 316 0
-168 -397 0
-84 -499 0
487 -244 0
-324 -202 0
-86 -307 0
114 207 0
-26 -187 0
130 -416 0
469 -314 0
118 308 0
-376 253 0
-266 -325 0
-34 172 0
-10 -410 0
-188 385 0
-246 -115 0
470 433 0
-189 195 0
-443 -347 0
-58 49 0
-288 -244 0
-461 38 0
-287 -413 0
-391 355 0
-150 -259 0
292 470 0
148 350 0
-460 492 0
196 -239 0
260 -125 0
-467 -366 0
226 314 0
-212 344 0
426 -204 0
454 377 0
153 -170 0
-327 119 0
387 195 0
259 322 0
406 404 0
-425 399 0
431 -376 0
-66 -82 0
223 463 0
346 -79 0
372 -6 0
426 -333 0
-326 56 0
374 -1 0
-34 -191 0
-255 43 0
394 418 0
-48 -331 0
-185 -357 0
-69 -232 0
-223 -427 0
24 153 0
-311 293 0
-383 -260 0
-251 291 0
18 362 0
304 261 0
448 317 0
-4 -246 0
-409 -29 0
150 -139 0
437 69 0
83 149 0
435 -356 0
-347 151 0
166 410 0
-30 -331 0
-60 -236 0
-148 -399 0
-453 -399 0
280 304 0
252 362 0
-62 -13 0
90 -414 0
-63 -333 0
406 -230 0
-331 260 0
375 75 0
-399 -263 0
-425 486 0
140 -57 0
321 41 0
278 -83 0
291 -482 0
-278 101 0
-255 -70 0
64 -4 0
308 69 0
39 52 0
142 243 0
-217 -387 0
-92 403 0
55 337 0
-201 -117 0
244 -261 0
114 96 0
-220 250 0
-145 120 0
114 368 0
350 -151 0
224 355 0
73 -408 0
-144 291 0
-311 -121 0
-86 -210 0
-433 425 0
398 194 0
419 117 0
299 -201 0
-80 -10 0
-446 495 0
453 -448 0
39 -330 0
-21 -249 0
-401 267 0
261 -414 0
33 440 0
-339 92 0
440 -30 0
141 294 0
-124 134 0
-225 -426 0
432 36 0
485 -249 0
135 -315 0
55 105 0
-73 245 0
336 -41 0
-102 -244 0
-264 -199 0
-29 314 0
-148 -102 0
216 -336 0
385 -233 0
-475 -270 0
203 344 0
144 -165 0
173 214 0
142 -334 0
-109 8 0
-213 -244 0
474 -371 0
96 -177 0
43 347 0
-89 489 0
379 474 0
230 28 0
273 -55 0
304 -22 0
-464 77 0
-24 432 0
-5 -154 0
128 144 0
213 -418 0
-237 241 0
-145 -297 0
-31 471 0
459 465 0
21 377 0
163 234 0
138 -454 0
39 461 0
164 453 0
290 -377 0
-122 16 0
-416 11 0
330 36 0
-291 -459 0
421 82 0
367 -131 0
-233 426 0
-248 352 0
-260 291 0
-88 271 0
-125 -340 0
157 -150 0
-40 -459 0
35 -207 0
-246 -65 0
-121 148 0
-336 127 0
-27 -46 0
18 -492 0
386 222 0
-495 -89 0
107 -291 0
202 -389 0
-227 -182 0
-425 242 0
401 -226 0
432 218 0
-275 -321 0
-351 350 0
468 74 0
35 262 0
-94 93 0
-197 244 0
352 -461 0
308 -390 0
330 308 0
-418 137 0
186 90 0
32 383 0
-212 -334 0
-374 -201 0
398 -459 0
-16 -495 0
284 -399 0
294 -20 0
-393 49 0
262 126 0
498 -373 0
-103 342 0
-123 -206 0
-212 -465 0
-369 159 0
235 -475 0
452 458 0
239 107 0
-184 -243 0
-365 335 0
238 96 0
-253 -376 0
216 254 0
-80 -415 0
196 342 0
-224 -67 0
-469 335 0
285 -264 0
199 313 0
-297 79 0
-325 -387 0
78 -277 0
453 -339 0
49 -63 0
170 76 0
78 -283 0
328 -255 0
-190 263 0
-443 465 0
25 -491 0
464 374 0
-103 483 0
245 -455 0
157 100 0
11 -35 0
-56 119 0
306 -306 0
-348 -136 0
255 -63 0
181 295 0
-221 -500 0
176 -296 0
-9 150 0
-369 230 0
406 -118 0
-202 294 0
27 492 0
-131 429 0
185 -402 0
-434 238 0
-101 -218 0
