c bounds 63 63 0.54
p cnf 500 1300
409 429 0
-409 -332 0
324 136 0
-21 -282 0
-200 -135 0
-199 103 0
238 -178 0
109 105 0
-365 -219 0
-220 -433 0
457 471 0
-211 233 0
104 -391 0
27 -185 0
-416 -22 0
299 139 0
95 -219 0
292 471 0
288 73 0
-201 218 0
261 4 0
461 -394 0
-451 44 0
281 -110 0
-1 61 0
-200 252 0
-196 -118 0
36 483 0
-319 -343 0
-381 311 0
300 -97 0
411 497 0
-349 -124 0
217 34 0
-263 -383 0
164 384 0
-163 429 0
-60 170 0
247 204 0
42 56 0
380 460 0
388 -306 0
-440 -221 0
446 127 0
-291 397 0
287 229 0
-206 447 0
349 413 0
190 389 0
-443 237 0
41 348 0
447 -359 0
-109 -204 0
338 -23 0
103 -378 0
337 77 0
-112 -408 0
36 92 0
164 64 0
207 375 0
-283 -321 0
-316 131 0
329 -214 0
102 344 0
-387 -464 0
4 256 0
468 -494 0
265 -63 0
80 -23 0
65 -481 0
-30 -437 0
-410 230 0
-208 240 0
-400 -468 0
418 7 0
-445 461 0
-349 58 0
103 65 0
-479 364 0
-63 362 0
257 -490 0
-335 -390 0
-439 484 0
-272 101 0
128 78 0
-110 210 0
-88 56 0
-17 -229 0
-112 -3 0
-450 -172 0
322 -171 0
-211 28 0
-96 101 0
-248 414 0
326 82 0
-250 -35 0
93 166 0
-40 475 0
-80 220 0
-223 -5 0
-315 -166 0
422 111 0
73 443 0
-335 -142 0
115 441 0
-250 256 0
427 -279 0
-130 445 0
-218 129 0
252 -96 0
-45 -493 0
-33 334 0
227 129 0
-248 -39 0
-294 -210 0
186 -302 0
434 -466 0
343 -245 0
-208 -271 0
451 -112 0
-186 -379 0
-27 -53 0
-114 -18 0
-360 -330 0
136 -229 0
-403 -333 0
-349 378 0
458 133 0
-435 -209 0
292 -187 0
-31 413 0
-73 210 0
-57 139 0
-219 475 0
111 101 0
13 110 0
103 467 0
149 -59 0
-191 -272 0
164 280 0
329 5 0
320 219 0
114 357 0
-481 -18 0
195 498 0
-178 434 0
-149 366 0
-184 -291 0
82 424 0
426 -364 0
323 -195 0
-454 104 0
182 -369 0
114 -351 0
-313 -288 0
338 157 0
359 391 0
-374 434 0
-456 -282 0
251 -497 0
142 -474 0
34 162 0
348 -341 0
143 -20 0
248 253 0
-126 -289 0
-482 344 0
-178 -173 0
-198 -472 0
202 10 0
-412 113 0
-58 -473 0
2 220 0
478 50 0
-351 -396 0
-456 427 0
111 -23 0
406 258 0
-197 -352 0
-329 -430 0
-379 -342 0
-333 337 0
-369 -299 0
-345 129 0
-200 495 0
-157 6 0
282 477 0
355 130 0
380 -246 0
-71 -57 0
436 -222 0
-143 -261 0
63 -229 0
-207 -199 0
-322 385 0
-403 170 0
230 -118 0
-26 -8 0
92 -242 0
5 140 0
73 -460 0
13 -228 0
237 -326 0
107 -392 0
-285 383 0
255 -396 0
-369 -316 0
-478 -144 0
-226 -243 0
94 270 0
184 344 0
-112 482 0
340 11 0
109 387 0
123 -182 0
-363 -449 0
-63 376 0
-345 51 0
-457 -3 0
145 56 0
-254 -271 0
-121 -383 0
-417 -449 0
32 -161 0
60 -426 0
174 373 0
-342 -90 0
363 165 0
444 -433 0
-277 -294 0
-274 42 0
134 471 0
-184 442 0
-431 -101 0
3 -21 0
-12 398 0
241 -348 0
68 326 0
299 378 0
-302 368 0
77 -23 0
-184 -377 0
256 -225 0
418 192 0
-369 -342 0
435 174 0
424 224 0
377 65 0
316 -370 0
354 -347 0
434 112 0
-193 274 0
-483 152 0
199 -268 0
-38 -197 0
66 67 0
384 -69 0
2 149 0
-178 308 0
454 27 0
-498 -42 0
384 168 0
-335 -74 0
439 -168 0
201 182 0
-336 -137 0
32 287 0
-353 33 0
361 220 0
187 363 0
249 -353 0
93 -118 0
338 220 0
-401 230 0
92 141 0
305 496 0
-3 41 0
462 247 0
-249 -130 0
-475 -21 0
202 331 0
276 -285 0
-296 -394 0
-403 -218 0
305 149 0
-239 229 0
46 -155 0
-116 100 0
-329 405 0
-190 276 0
-183 -319 0
91 -482 0
-225 -367 0
-365 124 0
-233 276 0
-50 -123 0
340 -285 0
-235 -404 0
-130 479 0
-460 -272 0
468 -374 0
218 -150 0
387 432 0
106 -61 0
422 -86 0
189 -204 0
-293 -267 0
440 -72 0
299 126 0
-170 -367 0
-368 -458 0
-191 189 0
-333 -335 0
47 -275 0
248 -334 0
-209 -59 0
-171 92 0
210 309 0
-327 -169 0
43 -166 0
65 -145 0
31 215 0
446 -241 0
21 -135 0
57 -206 0
317 467 0
461 -276 0
99 -468 0
314 -49 0
446 88 0
226 -225 0
217 -250 0
-70 384 0
499 -214 0
131 -417 0
395 -280 0
271 122 0
115 -80 0
-118 -322 0
-38 -290 0
-271 493 0
-463 447 0
104 -150 0
262 -56 0
398 -261 0
106 -165 0
-146 496 0
-297 453 0
-96 -348 0
451 482 0
170 -73 0
-121 293 0
-466 27 0
477 237 0
-183 -471 0
387 126 0
467 126 0
108 -308 0
140 366 0
-168 -309 0
348 196 0
463 -352 0
231 -486 0
288 -320 0
178 -211 0
-208 -278 0
392 -117 0
-480 140 0
444 -158 0
409 28 0
95 -80 0
399 210 0
-388 441 0
-207 -286 0
-61 218 0
388 -130 0
149 -135 0
495 233 0
-351 -150 0
453 318 0
-181 -458 0
-475 93 0
288 -439 0
-86 -78 0
320 175 0
144 -6 0
20 -493 0
-296 -194 0
-413 -458 0
37 -145 0
-328 426 0
-40 -123 0
-399 -416 0
99 189 0
-464 452 0
441 106 0
280 25 0
104 228 0
-457 333 0
473 126 0
338 393 0
6 140 0
-400 183 0
267 -342 0
-464 214 0
-1 447 0
-291 -81 0
-289 -243 0
380 -204 0
-471 423 0
-86 -187 0
66 90 0
-383 438 0
-265 201 0
387 -68 0
-160 494 0
350 -216 0
-450 107 0
-390 -185 0
-109 139 0
-383 -229 0
-464 68 0
42 270 0
482 269 0
-335 -355 0
-306 122 0
454 -412 0
-333 78 0
-278 390 0
-349 -155 0
56 61 0
334 375 0
-10 -225 0
-417 -138 0
-261 -315 0
-22 -182 0
-272 -342 0
-458 398 0
-466 -407 0
-17 299 0
152 298 0
325 -290 0
113 -490 0
-272 449 0
315 -294 0
-165 366 0
-391 169 0
-184 -323 0
66 -381 0
-64 384 0
-289 -223 0
217 -298 0
279 492 0
-259 -465 0
398 -110 0
288 -35 0
55 62 0
445 10 0
-112 -374 0
156 -103 0
-500 215 0
-178 -397 0
442 266 0
423 414 0
-286 10 0
326 105 0
229 169 0
-131 -64 0
61 262 0
-499 179 0
67 -146 0
-301 -113 0
-51 -155 0
408 -29 0
123 216 0
-360 446 0
-83 -340 0
420 220 0
-327 -232 0
-54 320 0
423 325 0
272 293 0
-432 -244 0
126 299 0
-27 22 0
-135 136 0
47 434 0
-137 -430 0
267 237 0
-311 216 0
344 198 0
-112 391 0
54 -43 0
-110 286 0
-401 443 0
-478 -465 0
-27 115 0
143 -186 0
-105 195 0
-421 46 0
490 -254 0
-21 195 0
473 -407 0
-173 -23 0
173 231 0
-298 221 0
-442 422 0
-390 81 0
-8 130 0
154 -153 0
453 486 0
-464 -121 0
336 -157 0
95 292 0
-475 256 0
273 214 0
-393 -89 0
-360 -291 0
-244 -203 0
-160 104 0
233 -123 0
-445 62 0
148 -60 0
434 -143 0
-485 -271 0
483 303 0
147 -197 0
420 -435 0
-401 -186 0
23 496 0
-235 37 0
24 -183 0
46 -471 0
148 -359 0
-100 56 0
-392 429 0
425 -141 0
-464 16 0
184 431 0
446 460 0
10 47 0
406 226 0
-150 201 0
100 -84 0
-5 -60 0
-144 256 0
-8 269 0
203 21 0
-204 -423 0
-137 -335 0
-257 -97 0
99 -221 0
-264 -294 0
-218 251 0
-52 46 0
-165 -370 0
-130 94 0
385 160 0
201 425 0
-283 -314 0
-361 491 0
-402 -130 0
384 416 0
93 263 0
-162 346 0
247 94 0
-294 454 0
215 73 0
108 -358 0
293 487 0
-290 218 0
59 299 0
-450 19 0
305 -330 0
233 153 0
54 496 0
-82 -23 0
-117 -478 0
313 -75 0
-38 311 0
477 -32 0
93 326 0
205 6 0
45 30 0
-16 -265 0
414 63 0
-304 -327 0
336 -419 0
-269 -445 0
-382 355 0
-181 65 0
-59 -29 0
-400 -369 0
-497 218 0
269 -24 0
134 -238 0
-68 262 0
-132 454 0
198 32 0
265 -455 0
292 -194 0
-32 172 0
452 -126 0
461 402 0
17 -455 0
179 51 0
-333 428 0
229 363 0
-209 -438 0
-7 -243 0
-336 -181 0
371 140 0
-98 -274 0
-464 -500 0
372 -60 0
-380 -212 0
-412 27 0
-61 151 0
-173 -160 0
-157 98 0
422 127 0
-200 -373 0
-194 277 0
276 391 0
-492 -130 0
-153 82 0
-333 -16 0
289 384 0
373 487 0
-281 441 0
192 -22 0
479 -3 0
224 -490 0
144 108 0
-278 -180 0
239 -448 0
277 -345 0
357 417 0
-282 420 0
-373 378 0
-460 -379 0
-410 -302 0
375 28 0
372 402 0
-160 269 0
110 131 0
163 431 0
-190 99 0
13 -28 0
-10 169 0
406 328 0
-96 -1 0
293 302 0
29 377 0
488 -107 0
-4 280 0
-478 374 0
467 45 0
-81 106 0
-38 149 0
-432 414 0
-315 -428 0
-100 -206 0
-130 30 0
-350 431 0
-204 436 0
-306 -343 0
432 228 0
-400 18 0
-310 134 0
-219 -153 0
-90 446 0
-261 198 0
-328 122 0
27 -91 0
131 -288 0
216 -51 0
280 -225 0
108 196 0
188 -161 0
-365 -144 0
-284 -388 0
168 364 0
395 112 0
-106 -70 0
215 233 0
401 366 0
-383 -283 0
-39 -63 0
484 -479 0
-75 -441 0
-211 -498 0
-27 -83 0
447 -489 0
94 -282 0
487 -162 0
439 220 0
285 -204 0
199 -243 0
192 -227 0
406 190 0
100 221 0
-456 -244 0
-245 280 0
125 -250 0
324 362 0
-85 -370 0
415 -446 0
-351 -175 0
273 198 0
391 458 0
-362 -81 0
-154 -476 0
-57 101 0
494 -322 0
131 -309 0
177 161 0
140 -239 0
423 152 0
366 411 0
280 163 0
335 339 0
-465 -45 0
263 224 0
73 -280 0
-397 30 0
-118 -370 0
366 -40 0
-465 -117 0
92 168 0
457 -26 0
-211 -399 0
322 204 0
-189 263 0
-274 434 0
325 389 0
-309 262 0
-271 299 0
-383 149 0
425 -187 0
30 361 0
85 -446 0
462 400 0
114 -328 0
-343 -41 0
24 438 0
-71 122 0
15 69 0
-89 305 0
-278 126 0
-437 203 0
-405 451 0
-276 299 0
-78 32 0
-268 331 0
66 353 0
452 -256 0
-249 -303 0
-123 86 0
-60 50 0
49 483 0
127 -125 0
-252 98 0
-62 -72 0
276 29 0
-474 -264 0
17 230 0
-246 -314 0
350 144 0
132 67 0
-374 344 0
251 -381 0
391 124 0
-382 323 0
-289 144 0
-254 155 0
-80 471 0
-410 374 0
-183 201 0
-376 335 0
-160 392 0
51 -368 0
68 111 0
-351 198 0
355 478 0
163 -197 0
-291 -91 0
-261 -455 0
-206 -419 0
101 -383 0
-471 -145 0
322 -437 0
485 -68 0
3 2 0
-407 -59 0
212 -359 0
-1 64 0
380 346 0
-23 405 0
-486 1 0
-461 215 0
308 277 0
65 -416 0
417 -122 0
403 441 0
36 192 0
46 -43 0
362 74 0
-244 -132 0
351 -222 0
-235 -216 0
-20 -104 0
-474 -192 0
-184 437 0
-371 6 0
120 -81 0
112 -207 0
-42 -372 0
-376 -220 0
-282 238 0
-101 -312 0
86 -327 0
-465 180 0
305 -474 0
-486 267 0
-371 500 0
38 487 0
-205 374 0
195 474 0
-281 414 0
168 -123 0
15 416 0
434 -401 0
126 -265 0
288 -179 0
-228 -226 0
-167 -242 0
-181 -294 0
-48 -166 0
-130 -147 0
-166 401 0
-76 -371 0
2 -110 0
116 297 0
192 269 0
370 -392 0
357 108 0
432 -476 0
495 85 0
377 321 0
65 198 0
-109 -102 0
440 -222 0
398 -255 0
-78 -410 0
-445 -257 0
388 79 0
-214 202 0
423 411 0
-109 -353 0
106 -109 0
76 19 0
-486 124 0
-386 461 0
122 14 0
-18 13 0
445 213 0
-305 488 0
442 -203 0
-381 -178 0
-312 454 0
-105 -359 0
-359 -187 0
329 -330 0
-176 -293 0
-440 -307 0
-440 16 0
-382 -33 0
494 99 0
234 -435 0
-243 78 0
317 -222 0
-364 374 0
-419 366 0
408 -359 0
111 348 0
-120 253 0
407 -63 0
190 124 0
484 -217 0
-477 362 0
326 339 0
-62 15 0
-249 237 0
-276 -150 0
-457 -345 0
-212 -371 0
-370 490 0
256 -197 0
-93 -178 0
-285 -7 0
-215 -58 0
-486 424 0
-39 -436 0
48 -81 0
-377 423 0
205 -204 0
66 -302 0
-135 -328 0
213 -475 0
260 -341 0
281 429 0
401 357 0
396 -368 0
-356 -317 0
192 421 0
353 179 0
239 -109 0
425 177 0
143 -440 0
146 406 0
122 297 0
408 -115 0
-390 98 0
-98 171 0
-468 34 0
432 -400 0
326 92 0
-214 -309 0
452 19 0
255 -239 0
-266 98 0
-90 489 0
310 -330 0
-277 -445 0
-20 -258 0
-150 420 0
-187 143 0
-453 144 0
352 -130 0
-246 -486 0
415 482 0
287 -322 0
183 156 0
220 152 0
-151 -289 0
-406 141 0
459 231 0
480 89 0
-291 454 0
65 -379 0
469 -456 0
-466 386 0
174 -399 0
-4 237 0
-285 -26 0
-283 193 0
10 107 0
-20 -399 0
-374 -384 0
-327 123 0
500 136 0
336 -159 0
359 413 0
-420 126 0
253 -482 0
-315 -152 0
124 -220 0
-39 56 0
-459 -329 0
276 -461 0
500 -96 0
93 20 0
-265 28 0
467 292 0
336 472 0
-259 -92 0
237 126 0
55 -400 0
-471 19 0
-445 37 0
-336 202 0
-226 -110 0
73 258 0
-380 227 0
-47 308 0
-151 -17 0
-47 67 0
167 -26 0
2 339 0
146 -209 0
281 275 0
248 -404 0
89 -367 0
-202 151 0
-362 427 0
-279 485 0
-336 -307 0
195 269 0
142 -378 0
-381 -6 0
-285 -387 0
79 237 0
-48 43 0
89 -373 0
266 -128 0
92 122 0
275 143 0
-307 -225 0
305 -353 0
122 -373 0
-242 -463 0
216 26 0
-214 -137 0
-262 66 0
-209 154 0
238 9 0
-121 270 0
-372 -284 0
-435 -228 0
-64 -155 0
-258 391 0
304 -98 0
-388 -135 0
25 408 0
-381 -239 0
-52 -260 0
107 274 0
-240 -240 0
56 67 0
487 -241 0
141 -125 0
-281 -222 0
-372 -6 0
289 227 0
-52 -21 0
113 147 0
309 -162 0
143 234 0
-182 -209 0
488 -320 0
350 -84 0
211 324 0
116 -498 0
461 144 0
-75 -235 0
345 -83 0
-388 -208 0
-387 -475 0
290 -171 0
83 6 0
344 121 0
-244 286 0
113 -100 0
391 161 0
473 -370 0
-229 -258 0
147 165 0
-419 -76 0
-209 -111 0
-290 148 0
-138 384 0
140 -401 0
104 119 0
-114 -333 0
217 460 0
-328 235 0
-98 350 0
-249 -89 0
390 362 0
-155 -77 0
-122 56 0
-207 -273 0
-332 -410 0
-81 -300 0
368 227 0
102 233 0
-445 -138 0
471 146 0
-282 -239 0
154 347 0
-178 -131 0
-381 330 0
-500 -54 0
168 -409 0
242 56 0
477 -479 0
-327 -360 0
-287 149 0
99 120 0
78 -410 0
251 55 0
-98 186 0
-399 -176 0
-191 -264 0
-101 452 0
-279 34 0
-54 488 0
-433 -226 0
141 -123 0
-175 -343 0
336 384 0
-184 250 0
-367 -178 0
-488 -285 0
-167 425 0
-403 152 0
-1 -251 0
408 170 0
499 288 0
-60 376 0
-342 -194 0
147 134 0
-33 -38 0
440 -267 0
433 41 0
-21 205 0
-223 -351 0
308 452 0
-251 434 0
-365 -283 0
71 241 0
-236 -296 0
172 -273 0
473 -102 0
164 -196 0
271 170 0
-95 4 0
-181 107 0
-445 -215 0
-51 172 0
417 207 0
-21 -37 0
430 485 0
-493 -123 0
-208 199 0
32 -43 0
-455 212 0
389 -271 0
-343 -193 0
-242 -133 0
133 210 0
-266 479 0
-49 34 0
-49 356 0
-443 -1 0
188 -409 0
475 263 0
-49 -492 0
-314 -372 0
463 326 0
44 -248 0
339 -404 0
467 95 0
116 -155 0
95 286 0
-242 93 0
257 -245 0
-187 -75 0
-178 300 0
-411 -304 0
172 -180 0
-426 299 0
419 46 0
100 339 0
-212 -309 0
141 355 0
25 -435 0
-407 -434 0
-378 -35 0
297 296 0
19 289 0
300 -136 0
-25 -49 0
-60 -395 0
287 5 0
477 7 0
-270 19 0
-249 272 0
-25 149 0
66 50 0
-482 70 0
-74 199 0
221 -81 0
-266 418 0
487 -469 0
178 41 0
429 -205 0
195 -217 0
302 331 0
359 277 0
391 -44 0
92 308 0
213 286 0
180 -369 0
114 -239 0
-266 -149 0
111 249 0
2 -212 0
-119 -159 0
-45 -235 0
262 -279 0
-66 164 0
488 -266 0
-205 -166 0
-59 230 0
-465 -144 0
-390 -325 0
-316 -407 0
-167 -307 0
-210 270 0
-315 -146 0
-74 -207 0
-93 -309 0
-311 320 0
-378 -101 0
-223 -4 0
-98 378 0
220 -373 0
-488 357 0
-466 227 0
227 -73 0
223 29 0
-70 -9 0
-396 -493 0
150 -157 0
-96 408 0
123 447 0
14 -189 0
120 396 0
-90 -100 0
-72 -99 0
7 -281 0
-304 413 0
136 324 0
280 -259 0
367 195 0
257 -352 0
154 -83 0
-250 216 0
127 -98 0
168 -475 0
-471 -433 0
234 467 0
46 -405 0
277 -327 0
-109 263 0
-254 -260 0
-268 -41 0
-326 7 0
482 69 0
354 -280 0
398 500 0
434 72 0
-274 -259 0
-244 -248 0
458 337 0
499 453 0
-461 -194 0
336 256 0
230 184 0
300 14 0
-76 363 0
479 -17 0
-460 483 0
368 -459 0
-119 -264 0
419 -114 0
-457 -52 0
-475 -427 0
26 -236 0
362 96 0
74 269 0
-187 -234 0
402 408 0
-427 444 0
455 492 0
-33 -3 0
-243 395 0
-186 -183 0
-259 121 0
487 -184 0
-496 -80 0
78 -63 0
366 207 0
265 -96 0
-232 -238 0
12 -81 0
-22 216 0
-96 -286 0
-392 399 0
-411 324 0
-246 168 0
-217 287 0
400 -121 0
172 197 0
120 -88 0
363 -243 0
287 -133 0
-49 -421 0
