c bounds 173 173 0.21
p cnf 500 500
-182 488 0
-384 -12 0
301 388 0
-328 159 0
-446 141 0
88 -281 0
114 -70 0
-131 81 0
222 -467 0
464 466 0
137 417 0
-32 45 0
-437 223 0
154 -174 0
-184 257 0
53 -482 0
68 129 0
-269 -473 0
-383 -328 0
128 204 0
232 -88 0
244 -39 0
-100 339 0
-83 -68 0
45 -336 0
-275 -398 0
405 442 0
-218 -338 0
313 -330 0
-86 353 0
-41 -400 0
147 197 0
332 353 0
344 -391 0
43 318 0
364 111 0
-313 135 0
183 455 0
17 -90 0
483 -53 0
46 -490 0
135 -183 0
-214 -434 0
-392 -237 0
249 -320 0
-60 243 0
117 -426 0
174 416 0
292 252 0
-343 -355 0
355 -248 0
-204 114 0
-231 350 0
-118 -171 0
-70 240 0
-186 -28 0
183 332 0
-338 354 0
-326 245 0
-384 -323 0
-18 24 0
-301 -91 0
183 -80 0
401 232 0
496 102 0
-319 -248 0
-125 329 0
344 -278 0
-124 181 0
96 123 0
358 -427 0
152 -222 0
300 17 0
454 429 0
-474 329 0
-131 491 0
221 -436 0
486 -32 0
-283 274 0
-192 20 0
-282 339 0
-286 352 0
392 97 0
-273 351 0
91 99 0
203 108 0
88 -466 0
68 -78 0
-9 -148 0
25 83 0
269 118 0
-84 197 0
447 -500 0
-148 307 0
150 -267 0
-271 -453 0
74 -126 0
484 -181 0
137 123 0
-144 -365 0
80 -135 0
403 -33 0
-22 -284 0
124 -45 0
-330 186 0
-142 -130 0
-30 45 0
325 -195 0
-383 -367 0
100 -386 0
-490 -1 0
-28 163 0
-68 -49 0
-90 -189 0
-468 -301 0
80 -57 0
29 155 0
495 -449 0
221 -310 0
-255 74 0
30 250 0
179 -89 0
92 -21 0
62 257 0
352 333 0
-122 406 0
117 335 0
490 -308 0
318 178 0
-188 209 0
43 -333 0
-71 -6 0
-119 -54 0
437 -337 0
484 -330 0
-8 -470 0
138 -148 0
447 -465 0
296 -155 0
485 489 0
468 -281 0
145 -433 0
-53 266 0
429 341 0
-204 397 0
-155 -78 0
-243 479 0
-279 -95 0
-304 -425 0
154 195 0
-195 -335 0
334 -54 0
-301 -397 0
205 -187 0
34 -18 0
12 -213 0
493 -73 0
399 443 0
-335 69 0
-203 447 0
494 418 0
-367 -433 0
247 -11 0
-321 -53 0
68 -446 0
56 -424 0
333 -419 0
438 190 0
126 104 0
127 -378 0
72 399 0
368 -490 0
191 96 0
-56 16 0
186 116 0
-284 44 0
244 477 0
-107 181 0
-406 426 0
190 109 0
-210 149 0
485 -408 0
-479 -268 0
-367 58 0
-416 -224 0
15 196 0
-456 -397 0
-144 -22 0
-343 16 0
-311 -71 0
92 279 0
364 -248 0
-342 -204 0
477 262 0
263 -487 0
39 -143 0
-75 82 0
105 424 0
-138 -237 0
177 447 0
407 220 0
245 108 0
270 292 0
-165 -294 0
-460 -314 0
-128 -429 0
-270 193 0
-461 -490 0
-157 182 0
247 143 0
-387 -16 0
41 261 0
401 298 0
-450 -481 0
282 -9 0
-261 399 0
-295 -436 0
-166 162 0
-488 -286 0
-69 -457 0
-95 51 0
307 -303 0
144 -375 0
-425 -304 0
-458 111 0
397 289 0
123 -3 0
-7 -449 0
340 -482 0
108 -330 0
-153 297 0
126 74 0
-141 -321 0
-180 -446 0
228 -347 0
-238 172 0
43 60 0
139 -126 0
62 -238 0
-71 375 0
-204 220 0
448 158 0
224 403 0
-363 -275 0
-99 -380 0
-103 296 0
201 484 0
-9 -15 0
370 259 0
361 -414 0
-407 -476 0
171 -409 0
482 -11 0
-326 448 0
-30 -230 0
329 -146 0
-398 230 0
-324 -425 0
-226 150 0
315 81 0
-271 172 0
-324 -368 0
38 80 0
-456 8 0
-457 168 0
-384 162 0
113 108 0
251 203 0
-325 -113 0
346 -368 0
445 325 0
423 442 0
-277 -189 0
-210 62 0
-115 426 0
238 -78 0
-246 464 0
-169 11 0
-7 -407 0
-393 405 0
-159 168 0
8 33 0
47 350 0
-459 35 0
424 -463 0
-241 -232 0
-372 -185 0
-194 -171 0
-500 -495 0
2 -85 0
155 -446 0
-143 432 0
-417 73 0
178 44 0
404 -55 0
187 -250 0
299 443 0
-325 -40 0
376 421 0
-417 -241 0
436 297 0
148 -144 0
26 457 0
6 -476 0
146 -389 0
-68 -212 0
-104 -338 0
19 -214 0
-198 -299 0
67 -86 0
-331 347 0
108 -473 0
-447 -248 0
-407 -245 0
-340 83 0
-322 -477 0
494 73 0
-31 -207 0
-77 67 0
287 448 0
-118 96 0
-389 -427 0
181 -398 0
-492 252 0
-258 -229 0
435 260 0
26 280 0
-494 -134 0
348 -156 0
59 -405 0
-184 -440 0
399 -263 0
-246 -270 0
83 411 0
233 158 0
434 -310 0
-393 190 0
348 -61 0
434 -101 0
486 -91 0
-374 -426 0
-387 -306 0
412 434 0
-460 -266 0
-337 -351 0
-35 -466 0
163 19 0
339 -113 0
-430 -381 0
449 397 0
-495 280 0
-489 -12 0
266 498 0
137 -39 0
-216 161 0
97 445 0
-257 -41 0
168 488 0
245 410 0
20 -155 0
-476 -440 0
226 -306 0
-315 56 0
415 211 0
-35 -212 0
-294 -275 0
333 406 0
-372 -230 0
158 411 0
174 78 0
208 438 0
59 -272 0
-196 -425 0
27 -397 0
-1 10 0
442 415 0
-355 -377 0
232 79 0
-289 -275 0
-364 -194 0
-471 -180 0
251 239 0
-385 181 0
174 -243 0
-416 245 0
37 -89 0
240 -414 0
296 -411 0
-413 246 0
-357 -121 0
313 -85 0
491 -84 0
-408 -375 0
-1 -65 0
380 -319 0
-142 367 0
-473 -113 0
99 -39 0
481 -463 0
-32 -88 0
-50 -268 0
254 -464 0
-446 46 0
388 132 0
-66 86 0
-123 -330 0
159 478 0
356 442 0
-379 -176 0
440 200 0
30 334 0
363 247 0
371 234 0
67 196 0
187 342 0
94 -470 0
-345 243 0
289 -472 0
-155 -477 0
-364 168 0
391 174 0
181 59 0
-357 -2 0
-281 98 0
-337 106 0
412 400 0
44 478 0
91 -51 0
159 135 0
412 -307 0
-277 355 0
-112 449 0
173 -295 0
-321 -391 0
-110 105 0
-198 235 0
-475 70 0
411 -315 0
-261 -489 0
-15 -99 0
-213 165 0
-261 -106 0
-256 112 0
-370 -263 0
432 -53 0
-276 401 0
-308 -233 0
-215 468 0
-434 -489 0
332 186 0
-395 -148 0
-430 427 0
-123 -40 0
-272 245 0
499 -318 0
-201 426 0
-185 82 0
-85 -330 0
-433 -487 0
-270 352 0
170 294 0
-106 -113 0
-310 -393 0
-61 200 0
29 150 0
-96 355 0
401 -278 0
-378 -372 0
-371 68 0
150 -303 0
-399 -280 0
7 434 0
249 -178 0
-207 158 0
404 -324 0
-275 30 0
-102 -3 0
491 439 0
363 -469 0
-142 -52 0
29 321 0
205 -316 0
14 -253 0
-150 31 0
-336 -288 0
102 135 0
59 -70 0
172 -331 0
61 464 0
-38 -218 0
317 352 0
-227 178 0
220 -406 0
327 -474 0
-138 -276 0
58 -180 0
412 -7 0
-85 15 0
-339 293 0
-386 464 0
